# vtk DataFile Version 5.1
vtk output
ASCII

DATASET UNSTRUCTURED_GRID
POINTS 18785 float
0 0 0.7
0.125 0 0.7
0.25 0 0.7
0.375 0 0.7
0.5 0 0.7
0.625 0 0.7
0.75 0 0.7
0.875 0 0.7
1 0 0.7
1.125 0 0.7
1.25 0 0.7
1.375 0 0.7
1.5 0 0.7
1.625 0 0.7
1.75 0 0.7
1.875 0 0.7
2 0 0.7
2.125 0 0.7
2.25 0 0.7
2.375 0 0.7
2.5 0 0.7
2.625 0 0.7
2.75 0 0.7
2.875 0 0.7
3 0 0.7
3.125 0 0.7
3.25 0 0.7
3.375 0 0.7
3.5 0 0.7
3.625 0 0.7
3.75 0 0.7
3.875 0 0.7
4 0 0.7
0 0.125 0.7
0.125 0.125 0.7
0.25 0.125 0.7
0.375 0.125 0.7
0.5 0.125 0.7
0.625 0.125 0.7
0.75 0.125 0.7
0.875 0.125 0.7
1 0.125 0.7
1.125 0.125 0.7
1.25 0.125 0.7
1.375 0.125 0.7
1.5 0.125 0.7
1.625 0.125 0.7
1.75 0.125 0.7
1.875 0.125 0.7
2 0.125 0.7
2.125 0.125 0.7
2.25 0.125 0.7
2.375 0.125 0.7
2.5 0.125 0.7
2.625 0.125 0.7
2.75 0.125 0.7
2.875 0.125 0.7
3 0.125 0.7
3.125 0.125 0.7
3.25 0.125 0.7
3.375 0.125 0.7
3.5 0.125 0.7
3.625 0.125 0.7
3.75 0.125 0.7
3.875 0.125 0.7
4 0.125 0.7
0 0.25 0.7
0.125 0.25 0.7
0.25 0.25 0.7
0.375 0.25 0.7
0.5 0.25 0.7
0.625 0.25 0.7
0.75 0.25 0.7
0.875 0.25 0.7
1 0.25 0.7
1.125 0.25 0.7
1.25 0.25 0.7
1.375 0.25 0.7
1.5 0.25 0.7
1.625 0.25 0.7
1.75 0.25 0.7
1.875 0.25 0.7
2 0.25 0.7
2.125 0.25 0.7
2.25 0.25 0.7
2.375 0.25 0.7
2.5 0.25 0.7
2.625 0.25 0.7
2.75 0.25 0.7
2.875 0.25 0.7
3 0.25 0.7
3.125 0.25 0.7
3.25 0.25 0.7
3.375 0.25 0.7
3.5 0.25 0.7
3.625 0.25 0.7
3.75 0.25 0.7
3.875 0.25 0.7
4 0.25 0.7
0 0.375 0.7
0.125 0.375 0.7
0.25 0.375 0.7
0.375 0.375 0.7
0.5 0.375 0.7
0.625 0.375 0.7
0.75 0.375 0.7
0.875 0.375 0.7
1 0.375 0.7
1.125 0.375 0.7
1.25 0.375 0.7
1.375 0.375 0.7
1.5 0.375 0.7
1.625 0.375 0.7
1.75 0.375 0.7
1.875 0.375 0.7
2 0.375 0.7
2.125 0.375 0.7
2.25 0.375 0.7
2.375 0.375 0.7
2.5 0.375 0.7
2.625 0.375 0.7
2.75 0.375 0.7
2.875 0.375 0.7
3 0.375 0.7
3.125 0.375 0.7
3.25 0.375 0.7
3.375 0.375 0.7
3.5 0.375 0.7
3.625 0.375 0.7
3.75 0.375 0.7
3.875 0.375 0.7
4 0.375 0.7
0 0.5 0.7
0.125 0.5 0.7
0.25 0.5 0.7
0.375 0.5 0.7
0.5 0.5 0.7
0.625 0.5 0.7
0.75 0.5 0.7
0.875 0.5 0.7
1 0.5 0.7
1.125 0.5 0.7
1.25 0.5 0.7
1.375 0.5 0.7
1.5 0.5 0.7
1.625 0.5 0.7
1.75 0.5 0.7
1.875 0.5 0.7
2 0.5 0.7
2.125 0.5 0.7
2.25 0.5 0.7
2.375 0.5 0.7
2.5 0.5 0.7
2.625 0.5 0.7
2.75 0.5 0.7
2.875 0.5 0.7
3 0.5 0.7
3.125 0.5 0.7
3.25 0.5 0.7
3.375 0.5 0.7
3.5 0.5 0.7
3.625 0.5 0.7
3.75 0.5 0.7
3.875 0.5 0.7
4 0.5 0.7
0 0.625 0.7
0.125 0.625 0.7
0.25 0.625 0.7
0.375 0.625 0.7
0.5 0.625 0.7
0.625 0.625 0.7
0.75 0.625 0.7
0.875 0.625 0.7
1 0.625 0.7
1.125 0.625 0.7
1.25 0.625 0.7
1.375 0.625 0.7
1.5 0.625 0.7
1.625 0.625 0.7
1.75 0.625 0.7
1.875 0.625 0.7
2 0.625 0.7
2.125 0.625 0.7
2.25 0.625 0.7
2.375 0.625 0.7
2.5 0.625 0.7
2.625 0.625 0.7
2.75 0.625 0.7
2.875 0.625 0.7
3 0.625 0.7
3.125 0.625 0.7
3.25 0.625 0.7
3.375 0.625 0.7
3.5 0.625 0.7
3.625 0.625 0.7
3.75 0.625 0.7
3.875 0.625 0.7
4 0.625 0.7
0 0.75 0.7
0.125 0.75 0.7
0.25 0.75 0.7
0.375 0.75 0.7
0.5 0.75 0.7
0.625 0.75 0.7
0.75 0.75 0.7
0.875 0.75 0.7
1 0.75 0.7
1.125 0.75 0.7
1.25 0.75 0.7
1.375 0.75 0.7
1.5 0.75 0.7
1.625 0.75 0.7
1.75 0.75 0.7
1.875 0.75 0.7
2 0.75 0.7
2.125 0.75 0.7
2.25 0.75 0.7
2.375 0.75 0.7
2.5 0.75 0.7
2.625 0.75 0.7
2.75 0.75 0.7
2.875 0.75 0.7
3 0.75 0.7
3.125 0.75 0.7
3.25 0.75 0.7
3.375 0.75 0.7
3.5 0.75 0.7
3.625 0.75 0.7
3.75 0.75 0.7
3.875 0.75 0.7
4 0.75 0.7
0 0.875 0.7
0.125 0.875 0.7
0.25 0.875 0.7
0.375 0.875 0.7
0.5 0.875 0.7
0.625 0.875 0.7
0.75 0.875 0.7
0.875 0.875 0.7
1 0.875 0.7
1.125 0.875 0.7
1.25 0.875 0.7
1.375 0.875 0.7
1.5 0.875 0.7
1.625 0.875 0.7
1.75 0.875 0.7
1.875 0.875 0.7
2 0.875 0.7
2.125 0.875 0.7
2.25 0.875 0.7
2.375 0.875 0.7
2.5 0.875 0.7
2.625 0.875 0.7
2.75 0.875 0.7
2.875 0.875 0.7
3 0.875 0.7
3.125 0.875 0.7
3.25 0.875 0.7
3.375 0.875 0.7
3.5 0.875 0.7
3.625 0.875 0.7
3.75 0.875 0.7
3.875 0.875 0.7
4 0.875 0.7
0 1 0.7
0.125 1 0.7
0.25 1 0.7
0.375 1 0.7
0.5 1 0.7
0.625 1 0.7
0.75 1 0.7
0.875 1 0.7
1 1 0.7
1.125 1 0.7
1.25 1 0.7
1.375 1 0.7
1.5 1 0.7
1.625 1 0.7
1.75 1 0.7
1.875 1 0.7
2 1 0.7
2.125 1 0.7
2.25 1 0.7
2.375 1 0.7
2.5 1 0.7
2.625 1 0.7
2.75 1 0.7
2.875 1 0.7
3 1 0.7
3.125 1 0.7
3.25 1 0.7
3.375 1 0.7
3.5 1 0.7
3.625 1 0.7
3.75 1 0.7
3.875 1 0.7
4 1 0.7
0 0 0.825
0.125 0 0.825
0.25 0 0.825
0.375 0 0.825
0.5 0 0.825
0.625 0 0.825
0.75 0 0.825
0.875 0 0.825
1 0 0.825
1.125 0 0.825
1.25 0 0.825
1.375 0 0.825
1.5 0 0.825
1.625 0 0.825
1.75 0 0.825
1.875 0 0.825
2 0 0.825
2.125 0 0.825
2.25 0 0.825
2.375 0 0.825
2.5 0 0.825
2.625 0 0.825
2.75 0 0.825
2.875 0 0.825
3 0 0.825
3.125 0 0.825
3.25 0 0.825
3.375 0 0.825
3.5 0 0.825
3.625 0 0.825
3.75 0 0.825
3.875 0 0.825
4 0 0.825
0 0.125 0.825
0.125 0.125 0.825
0.25 0.125 0.825
0.375 0.125 0.825
0.5 0.125 0.825
0.625 0.125 0.825
0.75 0.125 0.825
0.875 0.125 0.825
1 0.125 0.825
1.125 0.125 0.825
1.25 0.125 0.825
1.375 0.125 0.825
1.5 0.125 0.825
1.625 0.125 0.825
1.75 0.125 0.825
1.875 0.125 0.825
2 0.125 0.825
2.125 0.125 0.825
2.25 0.125 0.825
2.375 0.125 0.825
2.5 0.125 0.825
2.625 0.125 0.825
2.75 0.125 0.825
2.875 0.125 0.825
3 0.125 0.825
3.125 0.125 0.825
3.25 0.125 0.825
3.375 0.125 0.825
3.5 0.125 0.825
3.625 0.125 0.825
3.75 0.125 0.825
3.875 0.125 0.825
4 0.125 0.825
0 0.25 0.825
0.125 0.25 0.825
0.25 0.25 0.825
0.375 0.25 0.825
0.5 0.25 0.825
0.625 0.25 0.825
0.75 0.25 0.825
0.875 0.25 0.825
1 0.25 0.825
1.125 0.25 0.825
1.25 0.25 0.825
1.375 0.25 0.825
1.5 0.25 0.825
1.625 0.25 0.825
1.75 0.25 0.825
1.875 0.25 0.825
2 0.25 0.825
2.125 0.25 0.825
2.25 0.25 0.825
2.375 0.25 0.825
2.5 0.25 0.825
2.625 0.25 0.825
2.75 0.25 0.825
2.875 0.25 0.825
3 0.25 0.825
3.125 0.25 0.825
3.25 0.25 0.825
3.375 0.25 0.825
3.5 0.25 0.825
3.625 0.25 0.825
3.75 0.25 0.825
3.875 0.25 0.825
4 0.25 0.825
0 0.375 0.825
0.125 0.375 0.825
0.25 0.375 0.825
0.375 0.375 0.825
0.5 0.375 0.825
0.625 0.375 0.825
0.75 0.375 0.825
0.875 0.375 0.825
1 0.375 0.825
1.125 0.375 0.825
1.25 0.375 0.825
1.375 0.375 0.825
1.5 0.375 0.825
1.625 0.375 0.825
1.75 0.375 0.825
1.875 0.375 0.825
2 0.375 0.825
2.125 0.375 0.825
2.25 0.375 0.825
2.375 0.375 0.825
2.5 0.375 0.825
2.625 0.375 0.825
2.75 0.375 0.825
2.875 0.375 0.825
3 0.375 0.825
3.125 0.375 0.825
3.25 0.375 0.825
3.375 0.375 0.825
3.5 0.375 0.825
3.625 0.375 0.825
3.75 0.375 0.825
3.875 0.375 0.825
4 0.375 0.825
0 0.5 0.825
0.125 0.5 0.825
0.25 0.5 0.825
0.375 0.5 0.825
0.5 0.5 0.825
0.625 0.5 0.825
0.75 0.5 0.825
0.875 0.5 0.825
1 0.5 0.825
1.125 0.5 0.825
1.25 0.5 0.825
1.375 0.5 0.825
1.5 0.5 0.825
1.625 0.5 0.825
1.75 0.5 0.825
1.875 0.5 0.825
2 0.5 0.825
2.125 0.5 0.825
2.25 0.5 0.825
2.375 0.5 0.825
2.5 0.5 0.825
2.625 0.5 0.825
2.75 0.5 0.825
2.875 0.5 0.825
3 0.5 0.825
3.125 0.5 0.825
3.25 0.5 0.825
3.375 0.5 0.825
3.5 0.5 0.825
3.625 0.5 0.825
3.75 0.5 0.825
3.875 0.5 0.825
4 0.5 0.825
0 0.625 0.825
0.125 0.625 0.825
0.25 0.625 0.825
0.375 0.625 0.825
0.5 0.625 0.825
0.625 0.625 0.825
0.75 0.625 0.825
0.875 0.625 0.825
1 0.625 0.825
1.125 0.625 0.825
1.25 0.625 0.825
1.375 0.625 0.825
1.5 0.625 0.825
1.625 0.625 0.825
1.75 0.625 0.825
1.875 0.625 0.825
2 0.625 0.825
2.125 0.625 0.825
2.25 0.625 0.825
2.375 0.625 0.825
2.5 0.625 0.825
2.625 0.625 0.825
2.75 0.625 0.825
2.875 0.625 0.825
3 0.625 0.825
3.125 0.625 0.825
3.25 0.625 0.825
3.375 0.625 0.825
3.5 0.625 0.825
3.625 0.625 0.825
3.75 0.625 0.825
3.875 0.625 0.825
4 0.625 0.825
0 0.75 0.825
0.125 0.75 0.825
0.25 0.75 0.825
0.375 0.75 0.825
0.5 0.75 0.825
0.625 0.75 0.825
0.75 0.75 0.825
0.875 0.75 0.825
1 0.75 0.825
1.125 0.75 0.825
1.25 0.75 0.825
1.375 0.75 0.825
1.5 0.75 0.825
1.625 0.75 0.825
1.75 0.75 0.825
1.875 0.75 0.825
2 0.75 0.825
2.125 0.75 0.825
2.25 0.75 0.825
2.375 0.75 0.825
2.5 0.75 0.825
2.625 0.75 0.825
2.75 0.75 0.825
2.875 0.75 0.825
3 0.75 0.825
3.125 0.75 0.825
3.25 0.75 0.825
3.375 0.75 0.825
3.5 0.75 0.825
3.625 0.75 0.825
3.75 0.75 0.825
3.875 0.75 0.825
4 0.75 0.825
0 0.875 0.825
0.125 0.875 0.825
0.25 0.875 0.825
0.375 0.875 0.825
0.5 0.875 0.825
0.625 0.875 0.825
0.75 0.875 0.825
0.875 0.875 0.825
1 0.875 0.825
1.125 0.875 0.825
1.25 0.875 0.825
1.375 0.875 0.825
1.5 0.875 0.825
1.625 0.875 0.825
1.75 0.875 0.825
1.875 0.875 0.825
2 0.875 0.825
2.125 0.875 0.825
2.25 0.875 0.825
2.375 0.875 0.825
2.5 0.875 0.825
2.625 0.875 0.825
2.75 0.875 0.825
2.875 0.875 0.825
3 0.875 0.825
3.125 0.875 0.825
3.25 0.875 0.825
3.375 0.875 0.825
3.5 0.875 0.825
3.625 0.875 0.825
3.75 0.875 0.825
3.875 0.875 0.825
4 0.875 0.825
0 1 0.825
0.125 1 0.825
0.25 1 0.825
0.375 1 0.825
0.5 1 0.825
0.625 1 0.825
0.75 1 0.825
0.875 1 0.825
1 1 0.825
1.125 1 0.825
1.25 1 0.825
1.375 1 0.825
1.5 1 0.825
1.625 1 0.825
1.75 1 0.825
1.875 1 0.825
2 1 0.825
2.125 1 0.825
2.25 1 0.825
2.375 1 0.825
2.5 1 0.825
2.625 1 0.825
2.75 1 0.825
2.875 1 0.825
3 1 0.825
3.125 1 0.825
3.25 1 0.825
3.375 1 0.825
3.5 1 0.825
3.625 1 0.825
3.75 1 0.825
3.875 1 0.825
4 1 0.825
0 0 0.95
0.125 0 0.95
0.25 0 0.95
0.375 0 0.95
0.5 0 0.95
0.625 0 0.95
0.75 0 0.95
0.875 0 0.95
1 0 0.95
1.125 0 0.95
1.25 0 0.95
1.375 0 0.95
1.5 0 0.95
1.625 0 0.95
1.75 0 0.95
1.875 0 0.95
2 0 0.95
2.125 0 0.95
2.25 0 0.95
2.375 0 0.95
2.5 0 0.95
2.625 0 0.95
2.75 0 0.95
2.875 0 0.95
3 0 0.95
3.125 0 0.95
3.25 0 0.95
3.375 0 0.95
3.5 0 0.95
3.625 0 0.95
3.75 0 0.95
3.875 0 0.95
4 0 0.95
0 0.125 0.95
0.125 0.125 0.95
0.25 0.125 0.95
0.375 0.125 0.95
0.5 0.125 0.95
0.625 0.125 0.95
0.75 0.125 0.95
0.875 0.125 0.95
1 0.125 0.95
1.125 0.125 0.95
1.25 0.125 0.95
1.375 0.125 0.95
1.5 0.125 0.95
1.625 0.125 0.95
1.75 0.125 0.95
1.875 0.125 0.95
2 0.125 0.95
2.125 0.125 0.95
2.25 0.125 0.95
2.375 0.125 0.95
2.5 0.125 0.95
2.625 0.125 0.95
2.75 0.125 0.95
2.875 0.125 0.95
3 0.125 0.95
3.125 0.125 0.95
3.25 0.125 0.95
3.375 0.125 0.95
3.5 0.125 0.95
3.625 0.125 0.95
3.75 0.125 0.95
3.875 0.125 0.95
4 0.125 0.95
0 0.25 0.95
0.125 0.25 0.95
0.25 0.25 0.95
0.375 0.25 0.95
0.5 0.25 0.95
0.625 0.25 0.95
0.75 0.25 0.95
0.875 0.25 0.95
1 0.25 0.95
1.125 0.25 0.95
1.25 0.25 0.95
1.375 0.25 0.95
1.5 0.25 0.95
1.625 0.25 0.95
1.75 0.25 0.95
1.875 0.25 0.95
2 0.25 0.95
2.125 0.25 0.95
2.25 0.25 0.95
2.375 0.25 0.95
2.5 0.25 0.95
2.625 0.25 0.95
2.75 0.25 0.95
2.875 0.25 0.95
3 0.25 0.95
3.125 0.25 0.95
3.25 0.25 0.95
3.375 0.25 0.95
3.5 0.25 0.95
3.625 0.25 0.95
3.75 0.25 0.95
3.875 0.25 0.95
4 0.25 0.95
0 0.375 0.95
0.125 0.375 0.95
0.25 0.375 0.95
0.375 0.375 0.95
0.5 0.375 0.95
0.625 0.375 0.95
0.75 0.375 0.95
0.875 0.375 0.95
1 0.375 0.95
1.125 0.375 0.95
1.25 0.375 0.95
1.375 0.375 0.95
1.5 0.375 0.95
1.625 0.375 0.95
1.75 0.375 0.95
1.875 0.375 0.95
2 0.375 0.95
2.125 0.375 0.95
2.25 0.375 0.95
2.375 0.375 0.95
2.5 0.375 0.95
2.625 0.375 0.95
2.75 0.375 0.95
2.875 0.375 0.95
3 0.375 0.95
3.125 0.375 0.95
3.25 0.375 0.95
3.375 0.375 0.95
3.5 0.375 0.95
3.625 0.375 0.95
3.75 0.375 0.95
3.875 0.375 0.95
4 0.375 0.95
0 0.5 0.95
0.125 0.5 0.95
0.25 0.5 0.95
0.375 0.5 0.95
0.5 0.5 0.95
0.625 0.5 0.95
0.75 0.5 0.95
0.875 0.5 0.95
1 0.5 0.95
1.125 0.5 0.95
1.25 0.5 0.95
1.375 0.5 0.95
1.5 0.5 0.95
1.625 0.5 0.95
1.75 0.5 0.95
1.875 0.5 0.95
2 0.5 0.95
2.125 0.5 0.95
2.25 0.5 0.95
2.375 0.5 0.95
2.5 0.5 0.95
2.625 0.5 0.95
2.75 0.5 0.95
2.875 0.5 0.95
3 0.5 0.95
3.125 0.5 0.95
3.25 0.5 0.95
3.375 0.5 0.95
3.5 0.5 0.95
3.625 0.5 0.95
3.75 0.5 0.95
3.875 0.5 0.95
4 0.5 0.95
0 0.625 0.95
0.125 0.625 0.95
0.25 0.625 0.95
0.375 0.625 0.95
0.5 0.625 0.95
0.625 0.625 0.95
0.75 0.625 0.95
0.875 0.625 0.95
1 0.625 0.95
1.125 0.625 0.95
1.25 0.625 0.95
1.375 0.625 0.95
1.5 0.625 0.95
1.625 0.625 0.95
1.75 0.625 0.95
1.875 0.625 0.95
2 0.625 0.95
2.125 0.625 0.95
2.25 0.625 0.95
2.375 0.625 0.95
2.5 0.625 0.95
2.625 0.625 0.95
2.75 0.625 0.95
2.875 0.625 0.95
3 0.625 0.95
3.125 0.625 0.95
3.25 0.625 0.95
3.375 0.625 0.95
3.5 0.625 0.95
3.625 0.625 0.95
3.75 0.625 0.95
3.875 0.625 0.95
4 0.625 0.95
0 0.75 0.95
0.125 0.75 0.95
0.25 0.75 0.95
0.375 0.75 0.95
0.5 0.75 0.95
0.625 0.75 0.95
0.75 0.75 0.95
0.875 0.75 0.95
1 0.75 0.95
1.125 0.75 0.95
1.25 0.75 0.95
1.375 0.75 0.95
1.5 0.75 0.95
1.625 0.75 0.95
1.75 0.75 0.95
1.875 0.75 0.95
2 0.75 0.95
2.125 0.75 0.95
2.25 0.75 0.95
2.375 0.75 0.95
2.5 0.75 0.95
2.625 0.75 0.95
2.75 0.75 0.95
2.875 0.75 0.95
3 0.75 0.95
3.125 0.75 0.95
3.25 0.75 0.95
3.375 0.75 0.95
3.5 0.75 0.95
3.625 0.75 0.95
3.75 0.75 0.95
3.875 0.75 0.95
4 0.75 0.95
0 0.875 0.95
0.125 0.875 0.95
0.25 0.875 0.95
0.375 0.875 0.95
0.5 0.875 0.95
0.625 0.875 0.95
0.75 0.875 0.95
0.875 0.875 0.95
1 0.875 0.95
1.125 0.875 0.95
1.25 0.875 0.95
1.375 0.875 0.95
1.5 0.875 0.95
1.625 0.875 0.95
1.75 0.875 0.95
1.875 0.875 0.95
2 0.875 0.95
2.125 0.875 0.95
2.25 0.875 0.95
2.375 0.875 0.95
2.5 0.875 0.95
2.625 0.875 0.95
2.75 0.875 0.95
2.875 0.875 0.95
3 0.875 0.95
3.125 0.875 0.95
3.25 0.875 0.95
3.375 0.875 0.95
3.5 0.875 0.95
3.625 0.875 0.95
3.75 0.875 0.95
3.875 0.875 0.95
4 0.875 0.95
0 1 0.95
0.125 1 0.95
0.25 1 0.95
0.375 1 0.95
0.5 1 0.95
0.625 1 0.95
0.75 1 0.95
0.875 1 0.95
1 1 0.95
1.125 1 0.95
1.25 1 0.95
1.375 1 0.95
1.5 1 0.95
1.625 1 0.95
1.75 1 0.95
1.875 1 0.95
2 1 0.95
2.125 1 0.95
2.25 1 0.95
2.375 1 0.95
2.5 1 0.95
2.625 1 0.95
2.75 1 0.95
2.875 1 0.95
3 1 0.95
3.125 1 0.95
3.25 1 0.95
3.375 1 0.95
3.5 1 0.95
3.625 1 0.95
3.75 1 0.95
3.875 1 0.95
4 1 0.95
0 0 1.075
0.125 0 1.075
0.25 0 1.075
0.375 0 1.075
0.5 0 1.075
0.625 0 1.075
0.75 0 1.075
0.875 0 1.075
1 0 1.075
1.125 0 1.075
1.25 0 1.075
1.375 0 1.075
1.5 0 1.075
1.625 0 1.075
1.75 0 1.075
1.875 0 1.075
2 0 1.075
2.125 0 1.075
2.25 0 1.075
2.375 0 1.075
2.5 0 1.075
2.625 0 1.075
2.75 0 1.075
2.875 0 1.075
3 0 1.075
3.125 0 1.075
3.25 0 1.075
3.375 0 1.075
3.5 0 1.075
3.625 0 1.075
3.75 0 1.075
3.875 0 1.075
4 0 1.075
0 0.125 1.075
0.125 0.125 1.075
0.25 0.125 1.075
0.375 0.125 1.075
0.5 0.125 1.075
0.625 0.125 1.075
0.75 0.125 1.075
0.875 0.125 1.075
1 0.125 1.075
1.125 0.125 1.075
1.25 0.125 1.075
1.375 0.125 1.075
1.5 0.125 1.075
1.625 0.125 1.075
1.75 0.125 1.075
1.875 0.125 1.075
2 0.125 1.075
2.125 0.125 1.075
2.25 0.125 1.075
2.375 0.125 1.075
2.5 0.125 1.075
2.625 0.125 1.075
2.75 0.125 1.075
2.875 0.125 1.075
3 0.125 1.075
3.125 0.125 1.075
3.25 0.125 1.075
3.375 0.125 1.075
3.5 0.125 1.075
3.625 0.125 1.075
3.75 0.125 1.075
3.875 0.125 1.075
4 0.125 1.075
0 0.25 1.075
0.125 0.25 1.075
0.25 0.25 1.075
0.375 0.25 1.075
0.5 0.25 1.075
0.625 0.25 1.075
0.75 0.25 1.075
0.875 0.25 1.075
1 0.25 1.075
1.125 0.25 1.075
1.25 0.25 1.075
1.375 0.25 1.075
1.5 0.25 1.075
1.625 0.25 1.075
1.75 0.25 1.075
1.875 0.25 1.075
2 0.25 1.075
2.125 0.25 1.075
2.25 0.25 1.075
2.375 0.25 1.075
2.5 0.25 1.075
2.625 0.25 1.075
2.75 0.25 1.075
2.875 0.25 1.075
3 0.25 1.075
3.125 0.25 1.075
3.25 0.25 1.075
3.375 0.25 1.075
3.5 0.25 1.075
3.625 0.25 1.075
3.75 0.25 1.075
3.875 0.25 1.075
4 0.25 1.075
0 0.375 1.075
0.125 0.375 1.075
0.25 0.375 1.075
0.375 0.375 1.075
0.5 0.375 1.075
0.625 0.375 1.075
0.75 0.375 1.075
0.875 0.375 1.075
1 0.375 1.075
1.125 0.375 1.075
1.25 0.375 1.075
1.375 0.375 1.075
1.5 0.375 1.075
1.625 0.375 1.075
1.75 0.375 1.075
1.875 0.375 1.075
2 0.375 1.075
2.125 0.375 1.075
2.25 0.375 1.075
2.375 0.375 1.075
2.5 0.375 1.075
2.625 0.375 1.075
2.75 0.375 1.075
2.875 0.375 1.075
3 0.375 1.075
3.125 0.375 1.075
3.25 0.375 1.075
3.375 0.375 1.075
3.5 0.375 1.075
3.625 0.375 1.075
3.75 0.375 1.075
3.875 0.375 1.075
4 0.375 1.075
0 0.5 1.075
0.125 0.5 1.075
0.25 0.5 1.075
0.375 0.5 1.075
0.5 0.5 1.075
0.625 0.5 1.075
0.75 0.5 1.075
0.875 0.5 1.075
1 0.5 1.075
1.125 0.5 1.075
1.25 0.5 1.075
1.375 0.5 1.075
1.5 0.5 1.075
1.625 0.5 1.075
1.75 0.5 1.075
1.875 0.5 1.075
2 0.5 1.075
2.125 0.5 1.075
2.25 0.5 1.075
2.375 0.5 1.075
2.5 0.5 1.075
2.625 0.5 1.075
2.75 0.5 1.075
2.875 0.5 1.075
3 0.5 1.075
3.125 0.5 1.075
3.25 0.5 1.075
3.375 0.5 1.075
3.5 0.5 1.075
3.625 0.5 1.075
3.75 0.5 1.075
3.875 0.5 1.075
4 0.5 1.075
0 0.625 1.075
0.125 0.625 1.075
0.25 0.625 1.075
0.375 0.625 1.075
0.5 0.625 1.075
0.625 0.625 1.075
0.75 0.625 1.075
0.875 0.625 1.075
1 0.625 1.075
1.125 0.625 1.075
1.25 0.625 1.075
1.375 0.625 1.075
1.5 0.625 1.075
1.625 0.625 1.075
1.75 0.625 1.075
1.875 0.625 1.075
2 0.625 1.075
2.125 0.625 1.075
2.25 0.625 1.075
2.375 0.625 1.075
2.5 0.625 1.075
2.625 0.625 1.075
2.75 0.625 1.075
2.875 0.625 1.075
3 0.625 1.075
3.125 0.625 1.075
3.25 0.625 1.075
3.375 0.625 1.075
3.5 0.625 1.075
3.625 0.625 1.075
3.75 0.625 1.075
3.875 0.625 1.075
4 0.625 1.075
0 0.75 1.075
0.125 0.75 1.075
0.25 0.75 1.075
0.375 0.75 1.075
0.5 0.75 1.075
0.625 0.75 1.075
0.75 0.75 1.075
0.875 0.75 1.075
1 0.75 1.075
1.125 0.75 1.075
1.25 0.75 1.075
1.375 0.75 1.075
1.5 0.75 1.075
1.625 0.75 1.075
1.75 0.75 1.075
1.875 0.75 1.075
2 0.75 1.075
2.125 0.75 1.075
2.25 0.75 1.075
2.375 0.75 1.075
2.5 0.75 1.075
2.625 0.75 1.075
2.75 0.75 1.075
2.875 0.75 1.075
3 0.75 1.075
3.125 0.75 1.075
3.25 0.75 1.075
3.375 0.75 1.075
3.5 0.75 1.075
3.625 0.75 1.075
3.75 0.75 1.075
3.875 0.75 1.075
4 0.75 1.075
0 0.875 1.075
0.125 0.875 1.075
0.25 0.875 1.075
0.375 0.875 1.075
0.5 0.875 1.075
0.625 0.875 1.075
0.75 0.875 1.075
0.875 0.875 1.075
1 0.875 1.075
1.125 0.875 1.075
1.25 0.875 1.075
1.375 0.875 1.075
1.5 0.875 1.075
1.625 0.875 1.075
1.75 0.875 1.075
1.875 0.875 1.075
2 0.875 1.075
2.125 0.875 1.075
2.25 0.875 1.075
2.375 0.875 1.075
2.5 0.875 1.075
2.625 0.875 1.075
2.75 0.875 1.075
2.875 0.875 1.075
3 0.875 1.075
3.125 0.875 1.075
3.25 0.875 1.075
3.375 0.875 1.075
3.5 0.875 1.075
3.625 0.875 1.075
3.75 0.875 1.075
3.875 0.875 1.075
4 0.875 1.075
0 1 1.075
0.125 1 1.075
0.25 1 1.075
0.375 1 1.075
0.5 1 1.075
0.625 1 1.075
0.75 1 1.075
0.875 1 1.075
1 1 1.075
1.125 1 1.075
1.25 1 1.075
1.375 1 1.075
1.5 1 1.075
1.625 1 1.075
1.75 1 1.075
1.875 1 1.075
2 1 1.075
2.125 1 1.075
2.25 1 1.075
2.375 1 1.075
2.5 1 1.075
2.625 1 1.075
2.75 1 1.075
2.875 1 1.075
3 1 1.075
3.125 1 1.075
3.25 1 1.075
3.375 1 1.075
3.5 1 1.075
3.625 1 1.075
3.75 1 1.075
3.875 1 1.075
4 1 1.075
0 0 1.2
0.125 0 1.2
0.25 0 1.2
0.375 0 1.2
0.5 0 1.2
0.625 0 1.2
0.75 0 1.2
0.875 0 1.2
1 0 1.2
1.125 0 1.2
1.25 0 1.2
1.375 0 1.2
1.5 0 1.2
1.625 0 1.2
1.75 0 1.2
1.875 0 1.2
2 0 1.2
2.125 0 1.2
2.25 0 1.2
2.375 0 1.2
2.5 0 1.2
2.625 0 1.2
2.75 0 1.2
2.875 0 1.2
3 0 1.2
3.125 0 1.2
3.25 0 1.2
3.375 0 1.2
3.5 0 1.2
3.625 0 1.2
3.75 0 1.2
3.875 0 1.2
4 0 1.2
0 0.125 1.2
0.125 0.125 1.2
0.25 0.125 1.2
0.375 0.125 1.2
0.5 0.125 1.2
0.625 0.125 1.2
0.75 0.125 1.2
0.875 0.125 1.2
1 0.125 1.2
1.125 0.125 1.2
1.25 0.125 1.2
1.375 0.125 1.2
1.5 0.125 1.2
1.625 0.125 1.2
1.75 0.125 1.2
1.875 0.125 1.2
2 0.125 1.2
2.125 0.125 1.2
2.25 0.125 1.2
2.375 0.125 1.2
2.5 0.125 1.2
2.625 0.125 1.2
2.75 0.125 1.2
2.875 0.125 1.2
3 0.125 1.2
3.125 0.125 1.2
3.25 0.125 1.2
3.375 0.125 1.2
3.5 0.125 1.2
3.625 0.125 1.2
3.75 0.125 1.2
3.875 0.125 1.2
4 0.125 1.2
0 0.25 1.2
0.125 0.25 1.2
0.25 0.25 1.2
0.375 0.25 1.2
0.5 0.25 1.2
0.625 0.25 1.2
0.75 0.25 1.2
0.875 0.25 1.2
1 0.25 1.2
1.125 0.25 1.2
1.25 0.25 1.2
1.375 0.25 1.2
1.5 0.25 1.2
1.625 0.25 1.2
1.75 0.25 1.2
1.875 0.25 1.2
2 0.25 1.2
2.125 0.25 1.2
2.25 0.25 1.2
2.375 0.25 1.2
2.5 0.25 1.2
2.625 0.25 1.2
2.75 0.25 1.2
2.875 0.25 1.2
3 0.25 1.2
3.125 0.25 1.2
3.25 0.25 1.2
3.375 0.25 1.2
3.5 0.25 1.2
3.625 0.25 1.2
3.75 0.25 1.2
3.875 0.25 1.2
4 0.25 1.2
0 0.375 1.2
0.125 0.375 1.2
0.25 0.375 1.2
0.375 0.375 1.2
0.5 0.375 1.2
0.625 0.375 1.2
0.75 0.375 1.2
0.875 0.375 1.2
1 0.375 1.2
1.125 0.375 1.2
1.25 0.375 1.2
1.375 0.375 1.2
1.5 0.375 1.2
1.625 0.375 1.2
1.75 0.375 1.2
1.875 0.375 1.2
2 0.375 1.2
2.125 0.375 1.2
2.25 0.375 1.2
2.375 0.375 1.2
2.5 0.375 1.2
2.625 0.375 1.2
2.75 0.375 1.2
2.875 0.375 1.2
3 0.375 1.2
3.125 0.375 1.2
3.25 0.375 1.2
3.375 0.375 1.2
3.5 0.375 1.2
3.625 0.375 1.2
3.75 0.375 1.2
3.875 0.375 1.2
4 0.375 1.2
0 0.5 1.2
0.125 0.5 1.2
0.25 0.5 1.2
0.375 0.5 1.2
0.5 0.5 1.2
0.625 0.5 1.2
0.75 0.5 1.2
0.875 0.5 1.2
1 0.5 1.2
1.125 0.5 1.2
1.25 0.5 1.2
1.375 0.5 1.2
1.5 0.5 1.2
1.625 0.5 1.2
1.75 0.5 1.2
1.875 0.5 1.2
2 0.5 1.2
2.125 0.5 1.2
2.25 0.5 1.2
2.375 0.5 1.2
2.5 0.5 1.2
2.625 0.5 1.2
2.75 0.5 1.2
2.875 0.5 1.2
3 0.5 1.2
3.125 0.5 1.2
3.25 0.5 1.2
3.375 0.5 1.2
3.5 0.5 1.2
3.625 0.5 1.2
3.75 0.5 1.2
3.875 0.5 1.2
4 0.5 1.2
0 0.625 1.2
0.125 0.625 1.2
0.25 0.625 1.2
0.375 0.625 1.2
0.5 0.625 1.2
0.625 0.625 1.2
0.75 0.625 1.2
0.875 0.625 1.2
1 0.625 1.2
1.125 0.625 1.2
1.25 0.625 1.2
1.375 0.625 1.2
1.5 0.625 1.2
1.625 0.625 1.2
1.75 0.625 1.2
1.875 0.625 1.2
2 0.625 1.2
2.125 0.625 1.2
2.25 0.625 1.2
2.375 0.625 1.2
2.5 0.625 1.2
2.625 0.625 1.2
2.75 0.625 1.2
2.875 0.625 1.2
3 0.625 1.2
3.125 0.625 1.2
3.25 0.625 1.2
3.375 0.625 1.2
3.5 0.625 1.2
3.625 0.625 1.2
3.75 0.625 1.2
3.875 0.625 1.2
4 0.625 1.2
0 0.75 1.2
0.125 0.75 1.2
0.25 0.75 1.2
0.375 0.75 1.2
0.5 0.75 1.2
0.625 0.75 1.2
0.75 0.75 1.2
0.875 0.75 1.2
1 0.75 1.2
1.125 0.75 1.2
1.25 0.75 1.2
1.375 0.75 1.2
1.5 0.75 1.2
1.625 0.75 1.2
1.75 0.75 1.2
1.875 0.75 1.2
2 0.75 1.2
2.125 0.75 1.2
2.25 0.75 1.2
2.375 0.75 1.2
2.5 0.75 1.2
2.625 0.75 1.2
2.75 0.75 1.2
2.875 0.75 1.2
3 0.75 1.2
3.125 0.75 1.2
3.25 0.75 1.2
3.375 0.75 1.2
3.5 0.75 1.2
3.625 0.75 1.2
3.75 0.75 1.2
3.875 0.75 1.2
4 0.75 1.2
0 0.875 1.2
0.125 0.875 1.2
0.25 0.875 1.2
0.375 0.875 1.2
0.5 0.875 1.2
0.625 0.875 1.2
0.75 0.875 1.2
0.875 0.875 1.2
1 0.875 1.2
1.125 0.875 1.2
1.25 0.875 1.2
1.375 0.875 1.2
1.5 0.875 1.2
1.625 0.875 1.2
1.75 0.875 1.2
1.875 0.875 1.2
2 0.875 1.2
2.125 0.875 1.2
2.25 0.875 1.2
2.375 0.875 1.2
2.5 0.875 1.2
2.625 0.875 1.2
2.75 0.875 1.2
2.875 0.875 1.2
3 0.875 1.2
3.125 0.875 1.2
3.25 0.875 1.2
3.375 0.875 1.2
3.5 0.875 1.2
3.625 0.875 1.2
3.75 0.875 1.2
3.875 0.875 1.2
4 0.875 1.2
0 1 1.2
0.125 1 1.2
0.25 1 1.2
0.375 1 1.2
0.5 1 1.2
0.625 1 1.2
0.75 1 1.2
0.875 1 1.2
1 1 1.2
1.125 1 1.2
1.25 1 1.2
1.375 1 1.2
1.5 1 1.2
1.625 1 1.2
1.75 1 1.2
1.875 1 1.2
2 1 1.2
2.125 1 1.2
2.25 1 1.2
2.375 1 1.2
2.5 1 1.2
2.625 1 1.2
2.75 1 1.2
2.875 1 1.2
3 1 1.2
3.125 1 1.2
3.25 1 1.2
3.375 1 1.2
3.5 1 1.2
3.625 1 1.2
3.75 1 1.2
3.875 1 1.2
4 1 1.2
0 0 1.325
0.125 0 1.325
0.25 0 1.325
0.375 0 1.325
0.5 0 1.325
0.625 0 1.325
0.75 0 1.325
0.875 0 1.325
1 0 1.325
1.125 0 1.325
1.25 0 1.325
1.375 0 1.325
1.5 0 1.325
1.625 0 1.325
1.75 0 1.325
1.875 0 1.325
2 0 1.325
2.125 0 1.325
2.25 0 1.325
2.375 0 1.325
2.5 0 1.325
2.625 0 1.325
2.75 0 1.325
2.875 0 1.325
3 0 1.325
3.125 0 1.325
3.25 0 1.325
3.375 0 1.325
3.5 0 1.325
3.625 0 1.325
3.75 0 1.325
3.875 0 1.325
4 0 1.325
0 0.125 1.325
0.125 0.125 1.325
0.25 0.125 1.325
0.375 0.125 1.325
0.5 0.125 1.325
0.625 0.125 1.325
0.75 0.125 1.325
0.875 0.125 1.325
1 0.125 1.325
1.125 0.125 1.325
1.25 0.125 1.325
1.375 0.125 1.325
1.5 0.125 1.325
1.625 0.125 1.325
1.75 0.125 1.325
1.875 0.125 1.325
2 0.125 1.325
2.125 0.125 1.325
2.25 0.125 1.325
2.375 0.125 1.325
2.5 0.125 1.325
2.625 0.125 1.325
2.75 0.125 1.325
2.875 0.125 1.325
3 0.125 1.325
3.125 0.125 1.325
3.25 0.125 1.325
3.375 0.125 1.325
3.5 0.125 1.325
3.625 0.125 1.325
3.75 0.125 1.325
3.875 0.125 1.325
4 0.125 1.325
0 0.25 1.325
0.125 0.25 1.325
0.25 0.25 1.325
0.375 0.25 1.325
0.5 0.25 1.325
0.625 0.25 1.325
0.75 0.25 1.325
0.875 0.25 1.325
1 0.25 1.325
1.125 0.25 1.325
1.25 0.25 1.325
1.375 0.25 1.325
1.5 0.25 1.325
1.625 0.25 1.325
1.75 0.25 1.325
1.875 0.25 1.325
2 0.25 1.325
2.125 0.25 1.325
2.25 0.25 1.325
2.375 0.25 1.325
2.5 0.25 1.325
2.625 0.25 1.325
2.75 0.25 1.325
2.875 0.25 1.325
3 0.25 1.325
3.125 0.25 1.325
3.25 0.25 1.325
3.375 0.25 1.325
3.5 0.25 1.325
3.625 0.25 1.325
3.75 0.25 1.325
3.875 0.25 1.325
4 0.25 1.325
0 0.375 1.325
0.125 0.375 1.325
0.25 0.375 1.325
0.375 0.375 1.325
0.5 0.375 1.325
0.625 0.375 1.325
0.75 0.375 1.325
0.875 0.375 1.325
1 0.375 1.325
1.125 0.375 1.325
1.25 0.375 1.325
1.375 0.375 1.325
1.5 0.375 1.325
1.625 0.375 1.325
1.75 0.375 1.325
1.875 0.375 1.325
2 0.375 1.325
2.125 0.375 1.325
2.25 0.375 1.325
2.375 0.375 1.325
2.5 0.375 1.325
2.625 0.375 1.325
2.75 0.375 1.325
2.875 0.375 1.325
3 0.375 1.325
3.125 0.375 1.325
3.25 0.375 1.325
3.375 0.375 1.325
3.5 0.375 1.325
3.625 0.375 1.325
3.75 0.375 1.325
3.875 0.375 1.325
4 0.375 1.325
0 0.5 1.325
0.125 0.5 1.325
0.25 0.5 1.325
0.375 0.5 1.325
0.5 0.5 1.325
0.625 0.5 1.325
0.75 0.5 1.325
0.875 0.5 1.325
1 0.5 1.325
1.125 0.5 1.325
1.25 0.5 1.325
1.375 0.5 1.325
1.5 0.5 1.325
1.625 0.5 1.325
1.75 0.5 1.325
1.875 0.5 1.325
2 0.5 1.325
2.125 0.5 1.325
2.25 0.5 1.325
2.375 0.5 1.325
2.5 0.5 1.325
2.625 0.5 1.325
2.75 0.5 1.325
2.875 0.5 1.325
3 0.5 1.325
3.125 0.5 1.325
3.25 0.5 1.325
3.375 0.5 1.325
3.5 0.5 1.325
3.625 0.5 1.325
3.75 0.5 1.325
3.875 0.5 1.325
4 0.5 1.325
0 0.625 1.325
0.125 0.625 1.325
0.25 0.625 1.325
0.375 0.625 1.325
0.5 0.625 1.325
0.625 0.625 1.325
0.75 0.625 1.325
0.875 0.625 1.325
1 0.625 1.325
1.125 0.625 1.325
1.25 0.625 1.325
1.375 0.625 1.325
1.5 0.625 1.325
1.625 0.625 1.325
1.75 0.625 1.325
1.875 0.625 1.325
2 0.625 1.325
2.125 0.625 1.325
2.25 0.625 1.325
2.375 0.625 1.325
2.5 0.625 1.325
2.625 0.625 1.325
2.75 0.625 1.325
2.875 0.625 1.325
3 0.625 1.325
3.125 0.625 1.325
3.25 0.625 1.325
3.375 0.625 1.325
3.5 0.625 1.325
3.625 0.625 1.325
3.75 0.625 1.325
3.875 0.625 1.325
4 0.625 1.325
0 0.75 1.325
0.125 0.75 1.325
0.25 0.75 1.325
0.375 0.75 1.325
0.5 0.75 1.325
0.625 0.75 1.325
0.75 0.75 1.325
0.875 0.75 1.325
1 0.75 1.325
1.125 0.75 1.325
1.25 0.75 1.325
1.375 0.75 1.325
1.5 0.75 1.325
1.625 0.75 1.325
1.75 0.75 1.325
1.875 0.75 1.325
2 0.75 1.325
2.125 0.75 1.325
2.25 0.75 1.325
2.375 0.75 1.325
2.5 0.75 1.325
2.625 0.75 1.325
2.75 0.75 1.325
2.875 0.75 1.325
3 0.75 1.325
3.125 0.75 1.325
3.25 0.75 1.325
3.375 0.75 1.325
3.5 0.75 1.325
3.625 0.75 1.325
3.75 0.75 1.325
3.875 0.75 1.325
4 0.75 1.325
0 0.875 1.325
0.125 0.875 1.325
0.25 0.875 1.325
0.375 0.875 1.325
0.5 0.875 1.325
0.625 0.875 1.325
0.75 0.875 1.325
0.875 0.875 1.325
1 0.875 1.325
1.125 0.875 1.325
1.25 0.875 1.325
1.375 0.875 1.325
1.5 0.875 1.325
1.625 0.875 1.325
1.75 0.875 1.325
1.875 0.875 1.325
2 0.875 1.325
2.125 0.875 1.325
2.25 0.875 1.325
2.375 0.875 1.325
2.5 0.875 1.325
2.625 0.875 1.325
2.75 0.875 1.325
2.875 0.875 1.325
3 0.875 1.325
3.125 0.875 1.325
3.25 0.875 1.325
3.375 0.875 1.325
3.5 0.875 1.325
3.625 0.875 1.325
3.75 0.875 1.325
3.875 0.875 1.325
4 0.875 1.325
0 1 1.325
0.125 1 1.325
0.25 1 1.325
0.375 1 1.325
0.5 1 1.325
0.625 1 1.325
0.75 1 1.325
0.875 1 1.325
1 1 1.325
1.125 1 1.325
1.25 1 1.325
1.375 1 1.325
1.5 1 1.325
1.625 1 1.325
1.75 1 1.325
1.875 1 1.325
2 1 1.325
2.125 1 1.325
2.25 1 1.325
2.375 1 1.325
2.5 1 1.325
2.625 1 1.325
2.75 1 1.325
2.875 1 1.325
3 1 1.325
3.125 1 1.325
3.25 1 1.325
3.375 1 1.325
3.5 1 1.325
3.625 1 1.325
3.75 1 1.325
3.875 1 1.325
4 1 1.325
0 0 1.45
0.125 0 1.45
0.25 0 1.45
0.375 0 1.45
0.5 0 1.45
0.625 0 1.45
0.75 0 1.45
0.875 0 1.45
1 0 1.45
1.125 0 1.45
1.25 0 1.45
1.375 0 1.45
1.5 0 1.45
1.625 0 1.45
1.75 0 1.45
1.875 0 1.45
2 0 1.45
2.125 0 1.45
2.25 0 1.45
2.375 0 1.45
2.5 0 1.45
2.625 0 1.45
2.75 0 1.45
2.875 0 1.45
3 0 1.45
3.125 0 1.45
3.25 0 1.45
3.375 0 1.45
3.5 0 1.45
3.625 0 1.45
3.75 0 1.45
3.875 0 1.45
4 0 1.45
0 0.125 1.45
0.125 0.125 1.45
0.25 0.125 1.45
0.375 0.125 1.45
0.5 0.125 1.45
0.625 0.125 1.45
0.75 0.125 1.45
0.875 0.125 1.45
1 0.125 1.45
1.125 0.125 1.45
1.25 0.125 1.45
1.375 0.125 1.45
1.5 0.125 1.45
1.625 0.125 1.45
1.75 0.125 1.45
1.875 0.125 1.45
2 0.125 1.45
2.125 0.125 1.45
2.25 0.125 1.45
2.375 0.125 1.45
2.5 0.125 1.45
2.625 0.125 1.45
2.75 0.125 1.45
2.875 0.125 1.45
3 0.125 1.45
3.125 0.125 1.45
3.25 0.125 1.45
3.375 0.125 1.45
3.5 0.125 1.45
3.625 0.125 1.45
3.75 0.125 1.45
3.875 0.125 1.45
4 0.125 1.45
0 0.25 1.45
0.125 0.25 1.45
0.25 0.25 1.45
0.375 0.25 1.45
0.5 0.25 1.45
0.625 0.25 1.45
0.75 0.25 1.45
0.875 0.25 1.45
1 0.25 1.45
1.125 0.25 1.45
1.25 0.25 1.45
1.375 0.25 1.45
1.5 0.25 1.45
1.625 0.25 1.45
1.75 0.25 1.45
1.875 0.25 1.45
2 0.25 1.45
2.125 0.25 1.45
2.25 0.25 1.45
2.375 0.25 1.45
2.5 0.25 1.45
2.625 0.25 1.45
2.75 0.25 1.45
2.875 0.25 1.45
3 0.25 1.45
3.125 0.25 1.45
3.25 0.25 1.45
3.375 0.25 1.45
3.5 0.25 1.45
3.625 0.25 1.45
3.75 0.25 1.45
3.875 0.25 1.45
4 0.25 1.45
0 0.375 1.45
0.125 0.375 1.45
0.25 0.375 1.45
0.375 0.375 1.45
0.5 0.375 1.45
0.625 0.375 1.45
0.75 0.375 1.45
0.875 0.375 1.45
1 0.375 1.45
1.125 0.375 1.45
1.25 0.375 1.45
1.375 0.375 1.45
1.5 0.375 1.45
1.625 0.375 1.45
1.75 0.375 1.45
1.875 0.375 1.45
2 0.375 1.45
2.125 0.375 1.45
2.25 0.375 1.45
2.375 0.375 1.45
2.5 0.375 1.45
2.625 0.375 1.45
2.75 0.375 1.45
2.875 0.375 1.45
3 0.375 1.45
3.125 0.375 1.45
3.25 0.375 1.45
3.375 0.375 1.45
3.5 0.375 1.45
3.625 0.375 1.45
3.75 0.375 1.45
3.875 0.375 1.45
4 0.375 1.45
0 0.5 1.45
0.125 0.5 1.45
0.25 0.5 1.45
0.375 0.5 1.45
0.5 0.5 1.45
0.625 0.5 1.45
0.75 0.5 1.45
0.875 0.5 1.45
1 0.5 1.45
1.125 0.5 1.45
1.25 0.5 1.45
1.375 0.5 1.45
1.5 0.5 1.45
1.625 0.5 1.45
1.75 0.5 1.45
1.875 0.5 1.45
2 0.5 1.45
2.125 0.5 1.45
2.25 0.5 1.45
2.375 0.5 1.45
2.5 0.5 1.45
2.625 0.5 1.45
2.75 0.5 1.45
2.875 0.5 1.45
3 0.5 1.45
3.125 0.5 1.45
3.25 0.5 1.45
3.375 0.5 1.45
3.5 0.5 1.45
3.625 0.5 1.45
3.75 0.5 1.45
3.875 0.5 1.45
4 0.5 1.45
0 0.625 1.45
0.125 0.625 1.45
0.25 0.625 1.45
0.375 0.625 1.45
0.5 0.625 1.45
0.625 0.625 1.45
0.75 0.625 1.45
0.875 0.625 1.45
1 0.625 1.45
1.125 0.625 1.45
1.25 0.625 1.45
1.375 0.625 1.45
1.5 0.625 1.45
1.625 0.625 1.45
1.75 0.625 1.45
1.875 0.625 1.45
2 0.625 1.45
2.125 0.625 1.45
2.25 0.625 1.45
2.375 0.625 1.45
2.5 0.625 1.45
2.625 0.625 1.45
2.75 0.625 1.45
2.875 0.625 1.45
3 0.625 1.45
3.125 0.625 1.45
3.25 0.625 1.45
3.375 0.625 1.45
3.5 0.625 1.45
3.625 0.625 1.45
3.75 0.625 1.45
3.875 0.625 1.45
4 0.625 1.45
0 0.75 1.45
0.125 0.75 1.45
0.25 0.75 1.45
0.375 0.75 1.45
0.5 0.75 1.45
0.625 0.75 1.45
0.75 0.75 1.45
0.875 0.75 1.45
1 0.75 1.45
1.125 0.75 1.45
1.25 0.75 1.45
1.375 0.75 1.45
1.5 0.75 1.45
1.625 0.75 1.45
1.75 0.75 1.45
1.875 0.75 1.45
2 0.75 1.45
2.125 0.75 1.45
2.25 0.75 1.45
2.375 0.75 1.45
2.5 0.75 1.45
2.625 0.75 1.45
2.75 0.75 1.45
2.875 0.75 1.45
3 0.75 1.45
3.125 0.75 1.45
3.25 0.75 1.45
3.375 0.75 1.45
3.5 0.75 1.45
3.625 0.75 1.45
3.75 0.75 1.45
3.875 0.75 1.45
4 0.75 1.45
0 0.875 1.45
0.125 0.875 1.45
0.25 0.875 1.45
0.375 0.875 1.45
0.5 0.875 1.45
0.625 0.875 1.45
0.75 0.875 1.45
0.875 0.875 1.45
1 0.875 1.45
1.125 0.875 1.45
1.25 0.875 1.45
1.375 0.875 1.45
1.5 0.875 1.45
1.625 0.875 1.45
1.75 0.875 1.45
1.875 0.875 1.45
2 0.875 1.45
2.125 0.875 1.45
2.25 0.875 1.45
2.375 0.875 1.45
2.5 0.875 1.45
2.625 0.875 1.45
2.75 0.875 1.45
2.875 0.875 1.45
3 0.875 1.45
3.125 0.875 1.45
3.25 0.875 1.45
3.375 0.875 1.45
3.5 0.875 1.45
3.625 0.875 1.45
3.75 0.875 1.45
3.875 0.875 1.45
4 0.875 1.45
0 1 1.45
0.125 1 1.45
0.25 1 1.45
0.375 1 1.45
0.5 1 1.45
0.625 1 1.45
0.75 1 1.45
0.875 1 1.45
1 1 1.45
1.125 1 1.45
1.25 1 1.45
1.375 1 1.45
1.5 1 1.45
1.625 1 1.45
1.75 1 1.45
1.875 1 1.45
2 1 1.45
2.125 1 1.45
2.25 1 1.45
2.375 1 1.45
2.5 1 1.45
2.625 1 1.45
2.75 1 1.45
2.875 1 1.45
3 1 1.45
3.125 1 1.45
3.25 1 1.45
3.375 1 1.45
3.5 1 1.45
3.625 1 1.45
3.75 1 1.45
3.875 1 1.45
4 1 1.45
0 0 1.575
0.125 0 1.575
0.25 0 1.575
0.375 0 1.575
0.5 0 1.575
0.625 0 1.575
0.75 0 1.575
0.875 0 1.575
1 0 1.575
1.125 0 1.575
1.25 0 1.575
1.375 0 1.575
1.5 0 1.575
1.625 0 1.575
1.75 0 1.575
1.875 0 1.575
2 0 1.575
2.125 0 1.575
2.25 0 1.575
2.375 0 1.575
2.5 0 1.575
2.625 0 1.575
2.75 0 1.575
2.875 0 1.575
3 0 1.575
3.125 0 1.575
3.25 0 1.575
3.375 0 1.575
3.5 0 1.575
3.625 0 1.575
3.75 0 1.575
3.875 0 1.575
4 0 1.575
0 0.125 1.575
0.125 0.125 1.575
0.25 0.125 1.575
0.375 0.125 1.575
0.5 0.125 1.575
0.625 0.125 1.575
0.75 0.125 1.575
0.875 0.125 1.575
1 0.125 1.575
1.125 0.125 1.575
1.25 0.125 1.575
1.375 0.125 1.575
1.5 0.125 1.575
1.625 0.125 1.575
1.75 0.125 1.575
1.875 0.125 1.575
2 0.125 1.575
2.125 0.125 1.575
2.25 0.125 1.575
2.375 0.125 1.575
2.5 0.125 1.575
2.625 0.125 1.575
2.75 0.125 1.575
2.875 0.125 1.575
3 0.125 1.575
3.125 0.125 1.575
3.25 0.125 1.575
3.375 0.125 1.575
3.5 0.125 1.575
3.625 0.125 1.575
3.75 0.125 1.575
3.875 0.125 1.575
4 0.125 1.575
0 0.25 1.575
0.125 0.25 1.575
0.25 0.25 1.575
0.375 0.25 1.575
0.5 0.25 1.575
0.625 0.25 1.575
0.75 0.25 1.575
0.875 0.25 1.575
1 0.25 1.575
1.125 0.25 1.575
1.25 0.25 1.575
1.375 0.25 1.575
1.5 0.25 1.575
1.625 0.25 1.575
1.75 0.25 1.575
1.875 0.25 1.575
2 0.25 1.575
2.125 0.25 1.575
2.25 0.25 1.575
2.375 0.25 1.575
2.5 0.25 1.575
2.625 0.25 1.575
2.75 0.25 1.575
2.875 0.25 1.575
3 0.25 1.575
3.125 0.25 1.575
3.25 0.25 1.575
3.375 0.25 1.575
3.5 0.25 1.575
3.625 0.25 1.575
3.75 0.25 1.575
3.875 0.25 1.575
4 0.25 1.575
0 0.375 1.575
0.125 0.375 1.575
0.25 0.375 1.575
0.375 0.375 1.575
0.5 0.375 1.575
0.625 0.375 1.575
0.75 0.375 1.575
0.875 0.375 1.575
1 0.375 1.575
1.125 0.375 1.575
1.25 0.375 1.575
1.375 0.375 1.575
1.5 0.375 1.575
1.625 0.375 1.575
1.75 0.375 1.575
1.875 0.375 1.575
2 0.375 1.575
2.125 0.375 1.575
2.25 0.375 1.575
2.375 0.375 1.575
2.5 0.375 1.575
2.625 0.375 1.575
2.75 0.375 1.575
2.875 0.375 1.575
3 0.375 1.575
3.125 0.375 1.575
3.25 0.375 1.575
3.375 0.375 1.575
3.5 0.375 1.575
3.625 0.375 1.575
3.75 0.375 1.575
3.875 0.375 1.575
4 0.375 1.575
0 0.5 1.575
0.125 0.5 1.575
0.25 0.5 1.575
0.375 0.5 1.575
0.5 0.5 1.575
0.625 0.5 1.575
0.75 0.5 1.575
0.875 0.5 1.575
1 0.5 1.575
1.125 0.5 1.575
1.25 0.5 1.575
1.375 0.5 1.575
1.5 0.5 1.575
1.625 0.5 1.575
1.75 0.5 1.575
1.875 0.5 1.575
2 0.5 1.575
2.125 0.5 1.575
2.25 0.5 1.575
2.375 0.5 1.575
2.5 0.5 1.575
2.625 0.5 1.575
2.75 0.5 1.575
2.875 0.5 1.575
3 0.5 1.575
3.125 0.5 1.575
3.25 0.5 1.575
3.375 0.5 1.575
3.5 0.5 1.575
3.625 0.5 1.575
3.75 0.5 1.575
3.875 0.5 1.575
4 0.5 1.575
0 0.625 1.575
0.125 0.625 1.575
0.25 0.625 1.575
0.375 0.625 1.575
0.5 0.625 1.575
0.625 0.625 1.575
0.75 0.625 1.575
0.875 0.625 1.575
1 0.625 1.575
1.125 0.625 1.575
1.25 0.625 1.575
1.375 0.625 1.575
1.5 0.625 1.575
1.625 0.625 1.575
1.75 0.625 1.575
1.875 0.625 1.575
2 0.625 1.575
2.125 0.625 1.575
2.25 0.625 1.575
2.375 0.625 1.575
2.5 0.625 1.575
2.625 0.625 1.575
2.75 0.625 1.575
2.875 0.625 1.575
3 0.625 1.575
3.125 0.625 1.575
3.25 0.625 1.575
3.375 0.625 1.575
3.5 0.625 1.575
3.625 0.625 1.575
3.75 0.625 1.575
3.875 0.625 1.575
4 0.625 1.575
0 0.75 1.575
0.125 0.75 1.575
0.25 0.75 1.575
0.375 0.75 1.575
0.5 0.75 1.575
0.625 0.75 1.575
0.75 0.75 1.575
0.875 0.75 1.575
1 0.75 1.575
1.125 0.75 1.575
1.25 0.75 1.575
1.375 0.75 1.575
1.5 0.75 1.575
1.625 0.75 1.575
1.75 0.75 1.575
1.875 0.75 1.575
2 0.75 1.575
2.125 0.75 1.575
2.25 0.75 1.575
2.375 0.75 1.575
2.5 0.75 1.575
2.625 0.75 1.575
2.75 0.75 1.575
2.875 0.75 1.575
3 0.75 1.575
3.125 0.75 1.575
3.25 0.75 1.575
3.375 0.75 1.575
3.5 0.75 1.575
3.625 0.75 1.575
3.75 0.75 1.575
3.875 0.75 1.575
4 0.75 1.575
0 0.875 1.575
0.125 0.875 1.575
0.25 0.875 1.575
0.375 0.875 1.575
0.5 0.875 1.575
0.625 0.875 1.575
0.75 0.875 1.575
0.875 0.875 1.575
1 0.875 1.575
1.125 0.875 1.575
1.25 0.875 1.575
1.375 0.875 1.575
1.5 0.875 1.575
1.625 0.875 1.575
1.75 0.875 1.575
1.875 0.875 1.575
2 0.875 1.575
2.125 0.875 1.575
2.25 0.875 1.575
2.375 0.875 1.575
2.5 0.875 1.575
2.625 0.875 1.575
2.75 0.875 1.575
2.875 0.875 1.575
3 0.875 1.575
3.125 0.875 1.575
3.25 0.875 1.575
3.375 0.875 1.575
3.5 0.875 1.575
3.625 0.875 1.575
3.75 0.875 1.575
3.875 0.875 1.575
4 0.875 1.575
0 1 1.575
0.125 1 1.575
0.25 1 1.575
0.375 1 1.575
0.5 1 1.575
0.625 1 1.575
0.75 1 1.575
0.875 1 1.575
1 1 1.575
1.125 1 1.575
1.25 1 1.575
1.375 1 1.575
1.5 1 1.575
1.625 1 1.575
1.75 1 1.575
1.875 1 1.575
2 1 1.575
2.125 1 1.575
2.25 1 1.575
2.375 1 1.575
2.5 1 1.575
2.625 1 1.575
2.75 1 1.575
2.875 1 1.575
3 1 1.575
3.125 1 1.575
3.25 1 1.575
3.375 1 1.575
3.5 1 1.575
3.625 1 1.575
3.75 1 1.575
3.875 1 1.575
4 1 1.575
0 0 1.7
0.125 0 1.7
0.25 0 1.7
0.375 0 1.7
0.5 0 1.7
0.625 0 1.7
0.75 0 1.7
0.875 0 1.7
1 0 1.7
1.125 0 1.7
1.25 0 1.7
1.375 0 1.7
1.5 0 1.7
1.625 0 1.7
1.75 0 1.7
1.875 0 1.7
2 0 1.7
2.125 0 1.7
2.25 0 1.7
2.375 0 1.7
2.5 0 1.7
2.625 0 1.7
2.75 0 1.7
2.875 0 1.7
3 0 1.7
3.125 0 1.7
3.25 0 1.7
3.375 0 1.7
3.5 0 1.7
3.625 0 1.7
3.75 0 1.7
3.875 0 1.7
4 0 1.7
0 0.125 1.7
0.125 0.125 1.7
0.25 0.125 1.7
0.375 0.125 1.7
0.5 0.125 1.7
0.625 0.125 1.7
0.75 0.125 1.7
0.875 0.125 1.7
1 0.125 1.7
1.125 0.125 1.7
1.25 0.125 1.7
1.375 0.125 1.7
1.5 0.125 1.7
1.625 0.125 1.7
1.75 0.125 1.7
1.875 0.125 1.7
2 0.125 1.7
2.125 0.125 1.7
2.25 0.125 1.7
2.375 0.125 1.7
2.5 0.125 1.7
2.625 0.125 1.7
2.75 0.125 1.7
2.875 0.125 1.7
3 0.125 1.7
3.125 0.125 1.7
3.25 0.125 1.7
3.375 0.125 1.7
3.5 0.125 1.7
3.625 0.125 1.7
3.75 0.125 1.7
3.875 0.125 1.7
4 0.125 1.7
0 0.25 1.7
0.125 0.25 1.7
0.25 0.25 1.7
0.375 0.25 1.7
0.5 0.25 1.7
0.625 0.25 1.7
0.75 0.25 1.7
0.875 0.25 1.7
1 0.25 1.7
1.125 0.25 1.7
1.25 0.25 1.7
1.375 0.25 1.7
1.5 0.25 1.7
1.625 0.25 1.7
1.75 0.25 1.7
1.875 0.25 1.7
2 0.25 1.7
2.125 0.25 1.7
2.25 0.25 1.7
2.375 0.25 1.7
2.5 0.25 1.7
2.625 0.25 1.7
2.75 0.25 1.7
2.875 0.25 1.7
3 0.25 1.7
3.125 0.25 1.7
3.25 0.25 1.7
3.375 0.25 1.7
3.5 0.25 1.7
3.625 0.25 1.7
3.75 0.25 1.7
3.875 0.25 1.7
4 0.25 1.7
0 0.375 1.7
0.125 0.375 1.7
0.25 0.375 1.7
0.375 0.375 1.7
0.5 0.375 1.7
0.625 0.375 1.7
0.75 0.375 1.7
0.875 0.375 1.7
1 0.375 1.7
1.125 0.375 1.7
1.25 0.375 1.7
1.375 0.375 1.7
1.5 0.375 1.7
1.625 0.375 1.7
1.75 0.375 1.7
1.875 0.375 1.7
2 0.375 1.7
2.125 0.375 1.7
2.25 0.375 1.7
2.375 0.375 1.7
2.5 0.375 1.7
2.625 0.375 1.7
2.75 0.375 1.7
2.875 0.375 1.7
3 0.375 1.7
3.125 0.375 1.7
3.25 0.375 1.7
3.375 0.375 1.7
3.5 0.375 1.7
3.625 0.375 1.7
3.75 0.375 1.7
3.875 0.375 1.7
4 0.375 1.7
0 0.5 1.7
0.125 0.5 1.7
0.25 0.5 1.7
0.375 0.5 1.7
0.5 0.5 1.7
0.625 0.5 1.7
0.75 0.5 1.7
0.875 0.5 1.7
1 0.5 1.7
1.125 0.5 1.7
1.25 0.5 1.7
1.375 0.5 1.7
1.5 0.5 1.7
1.625 0.5 1.7
1.75 0.5 1.7
1.875 0.5 1.7
2 0.5 1.7
2.125 0.5 1.7
2.25 0.5 1.7
2.375 0.5 1.7
2.5 0.5 1.7
2.625 0.5 1.7
2.75 0.5 1.7
2.875 0.5 1.7
3 0.5 1.7
3.125 0.5 1.7
3.25 0.5 1.7
3.375 0.5 1.7
3.5 0.5 1.7
3.625 0.5 1.7
3.75 0.5 1.7
3.875 0.5 1.7
4 0.5 1.7
0 0.625 1.7
0.125 0.625 1.7
0.25 0.625 1.7
0.375 0.625 1.7
0.5 0.625 1.7
0.625 0.625 1.7
0.75 0.625 1.7
0.875 0.625 1.7
1 0.625 1.7
1.125 0.625 1.7
1.25 0.625 1.7
1.375 0.625 1.7
1.5 0.625 1.7
1.625 0.625 1.7
1.75 0.625 1.7
1.875 0.625 1.7
2 0.625 1.7
2.125 0.625 1.7
2.25 0.625 1.7
2.375 0.625 1.7
2.5 0.625 1.7
2.625 0.625 1.7
2.75 0.625 1.7
2.875 0.625 1.7
3 0.625 1.7
3.125 0.625 1.7
3.25 0.625 1.7
3.375 0.625 1.7
3.5 0.625 1.7
3.625 0.625 1.7
3.75 0.625 1.7
3.875 0.625 1.7
4 0.625 1.7
0 0.75 1.7
0.125 0.75 1.7
0.25 0.75 1.7
0.375 0.75 1.7
0.5 0.75 1.7
0.625 0.75 1.7
0.75 0.75 1.7
0.875 0.75 1.7
1 0.75 1.7
1.125 0.75 1.7
1.25 0.75 1.7
1.375 0.75 1.7
1.5 0.75 1.7
1.625 0.75 1.7
1.75 0.75 1.7
1.875 0.75 1.7
2 0.75 1.7
2.125 0.75 1.7
2.25 0.75 1.7
2.375 0.75 1.7
2.5 0.75 1.7
2.625 0.75 1.7
2.75 0.75 1.7
2.875 0.75 1.7
3 0.75 1.7
3.125 0.75 1.7
3.25 0.75 1.7
3.375 0.75 1.7
3.5 0.75 1.7
3.625 0.75 1.7
3.75 0.75 1.7
3.875 0.75 1.7
4 0.75 1.7
0 0.875 1.7
0.125 0.875 1.7
0.25 0.875 1.7
0.375 0.875 1.7
0.5 0.875 1.7
0.625 0.875 1.7
0.75 0.875 1.7
0.875 0.875 1.7
1 0.875 1.7
1.125 0.875 1.7
1.25 0.875 1.7
1.375 0.875 1.7
1.5 0.875 1.7
1.625 0.875 1.7
1.75 0.875 1.7
1.875 0.875 1.7
2 0.875 1.7
2.125 0.875 1.7
2.25 0.875 1.7
2.375 0.875 1.7
2.5 0.875 1.7
2.625 0.875 1.7
2.75 0.875 1.7
2.875 0.875 1.7
3 0.875 1.7
3.125 0.875 1.7
3.25 0.875 1.7
3.375 0.875 1.7
3.5 0.875 1.7
3.625 0.875 1.7
3.75 0.875 1.7
3.875 0.875 1.7
4 0.875 1.7
0 1 1.7
0.125 1 1.7
0.25 1 1.7
0.375 1 1.7
0.5 1 1.7
0.625 1 1.7
0.75 1 1.7
0.875 1 1.7
1 1 1.7
1.125 1 1.7
1.25 1 1.7
1.375 1 1.7
1.5 1 1.7
1.625 1 1.7
1.75 1 1.7
1.875 1 1.7
2 1 1.7
2.125 1 1.7
2.25 1 1.7
2.375 1 1.7
2.5 1 1.7
2.625 1 1.7
2.75 1 1.7
2.875 1 1.7
3 1 1.7
3.125 1 1.7
3.25 1 1.7
3.375 1 1.7
3.5 1 1.7
3.625 1 1.7
3.75 1 1.7
3.875 1 1.7
4 1 1.7
0 0.0625 0.7
0.0625 0.125 0.7625
0.0625 0.0625 0.7625
0.0625 0.0625 0.7
0.0625 0.125 0.7
0.125 0.125 0.7625
0.0625 0.0625 0.825
0.125 0.0625 0.825
0.0625 0 0.825
0 0 0.7625
0.0625 0 0.7625
0 0.125 0.7625
0 0.0625 0.7625
0.0625 0.125 0.825
0 0.0625 0.825
0.125 0 0.7625
0.0625 0 0.7
0.125 0.0625 0.7625
0.125 0.0625 0.7
0.1875 0.125 0.7625
0.1875 0.0625 0.7625
0.1875 0.0625 0.7
0.1875 0.125 0.7
0.25 0.125 0.7625
0.1875 0.0625 0.825
0.25 0.0625 0.825
0.1875 0 0.825
0.1875 0 0.7625
0.1875 0.125 0.825
0.25 0 0.7625
0.1875 0 0.7
0.25 0.0625 0.7625
0.25 0.0625 0.7
0.3125 0.125 0.7625
0.3125 0.0625 0.7625
0.3125 0.0625 0.7
0.3125 0.125 0.7
0.375 0.125 0.7625
0.3125 0.0625 0.825
0.375 0.0625 0.825
0.3125 0 0.825
0.3125 0 0.7625
0.3125 0.125 0.825
0.375 0 0.7625
0.3125 0 0.7
0.375 0.0625 0.7625
0.375 0.0625 0.7
0.4375 0.125 0.7625
0.4375 0.0625 0.7625
0.4375 0.0625 0.7
0.4375 0.125 0.7
0.5 0.125 0.7625
0.4375 0.0625 0.825
0.5 0.0625 0.825
0.4375 0 0.825
0.4375 0 0.7625
0.4375 0.125 0.825
0.5 0 0.7625
0.4375 0 0.7
0.5 0.0625 0.7625
0.5 0.0625 0.7
0.5625 0.125 0.7625
0.5625 0.0625 0.7625
0.5625 0.0625 0.7
0.5625 0.125 0.7
0.625 0.125 0.7625
0.5625 0.0625 0.825
0.625 0.0625 0.825
0.5625 0 0.825
0.5625 0 0.7625
0.5625 0.125 0.825
0.625 0 0.7625
0.5625 0 0.7
0.625 0.0625 0.7625
0.625 0.0625 0.7
0.6875 0.125 0.7625
0.6875 0.0625 0.7625
0.6875 0.0625 0.7
0.6875 0.125 0.7
0.75 0.125 0.7625
0.6875 0.0625 0.825
0.75 0.0625 0.825
0.6875 0 0.825
0.6875 0 0.7625
0.6875 0.125 0.825
0.75 0 0.7625
0.6875 0 0.7
0.75 0.0625 0.7625
0.75 0.0625 0.7
0.8125 0.125 0.7625
0.8125 0.0625 0.7625
0.8125 0.0625 0.7
0.8125 0.125 0.7
0.875 0.125 0.7625
0.8125 0.0625 0.825
0.875 0.0625 0.825
0.8125 0 0.825
0.8125 0 0.7625
0.8125 0.125 0.825
0.875 0 0.7625
0.8125 0 0.7
0.875 0.0625 0.7625
0.875 0.0625 0.7
0.9375 0.125 0.7625
0.9375 0.0625 0.7625
0.9375 0.0625 0.7
0.9375 0.125 0.7
1 0.125 0.7625
0.9375 0.0625 0.825
1 0.0625 0.825
0.9375 0 0.825
0.9375 0 0.7625
0.9375 0.125 0.825
1 0 0.7625
0.9375 0 0.7
1 0.0625 0.7625
1 0.0625 0.7
1.0625 0.125 0.7625
1.0625 0.0625 0.7625
1.0625 0.0625 0.7
1.0625 0.125 0.7
1.125 0.125 0.7625
1.0625 0.0625 0.825
1.125 0.0625 0.825
1.0625 0 0.825
1.0625 0 0.7625
1.0625 0.125 0.825
1.125 0 0.7625
1.0625 0 0.7
1.125 0.0625 0.7625
1.125 0.0625 0.7
1.1875 0.125 0.7625
1.1875 0.0625 0.7625
1.1875 0.0625 0.7
1.1875 0.125 0.7
1.25 0.125 0.7625
1.1875 0.0625 0.825
1.25 0.0625 0.825
1.1875 0 0.825
1.1875 0 0.7625
1.1875 0.125 0.825
1.25 0 0.7625
1.1875 0 0.7
1.25 0.0625 0.7625
1.25 0.0625 0.7
1.3125 0.125 0.7625
1.3125 0.0625 0.7625
1.3125 0.0625 0.7
1.3125 0.125 0.7
1.375 0.125 0.7625
1.3125 0.0625 0.825
1.375 0.0625 0.825
1.3125 0 0.825
1.3125 0 0.7625
1.3125 0.125 0.825
1.375 0 0.7625
1.3125 0 0.7
1.375 0.0625 0.7625
1.375 0.0625 0.7
1.4375 0.125 0.7625
1.4375 0.0625 0.7625
1.4375 0.0625 0.7
1.4375 0.125 0.7
1.5 0.125 0.7625
1.4375 0.0625 0.825
1.5 0.0625 0.825
1.4375 0 0.825
1.4375 0 0.7625
1.4375 0.125 0.825
1.5 0 0.7625
1.4375 0 0.7
1.5 0.0625 0.7625
1.5 0.0625 0.7
1.5625 0.125 0.7625
1.5625 0.0625 0.7625
1.5625 0.0625 0.7
1.5625 0.125 0.7
1.625 0.125 0.7625
1.5625 0.0625 0.825
1.625 0.0625 0.825
1.5625 0 0.825
1.5625 0 0.7625
1.5625 0.125 0.825
1.625 0 0.7625
1.5625 0 0.7
1.625 0.0625 0.7625
1.625 0.0625 0.7
1.6875 0.125 0.7625
1.6875 0.0625 0.7625
1.6875 0.0625 0.7
1.6875 0.125 0.7
1.75 0.125 0.7625
1.6875 0.0625 0.825
1.75 0.0625 0.825
1.6875 0 0.825
1.6875 0 0.7625
1.6875 0.125 0.825
1.75 0 0.7625
1.6875 0 0.7
1.75 0.0625 0.7625
1.75 0.0625 0.7
1.8125 0.125 0.7625
1.8125 0.0625 0.7625
1.8125 0.0625 0.7
1.8125 0.125 0.7
1.875 0.125 0.7625
1.8125 0.0625 0.825
1.875 0.0625 0.825
1.8125 0 0.825
1.8125 0 0.7625
1.8125 0.125 0.825
1.875 0 0.7625
1.8125 0 0.7
1.875 0.0625 0.7625
1.875 0.0625 0.7
1.9375 0.125 0.7625
1.9375 0.0625 0.7625
1.9375 0.0625 0.7
1.9375 0.125 0.7
2 0.125 0.7625
1.9375 0.0625 0.825
2 0.0625 0.825
1.9375 0 0.825
1.9375 0 0.7625
1.9375 0.125 0.825
2 0 0.7625
1.9375 0 0.7
2 0.0625 0.7625
2 0.0625 0.7
2.0625 0.125 0.7625
2.0625 0.0625 0.7625
2.0625 0.0625 0.7
2.0625 0.125 0.7
2.125 0.125 0.7625
2.0625 0.0625 0.825
2.125 0.0625 0.825
2.0625 0 0.825
2.0625 0 0.7625
2.0625 0.125 0.825
2.125 0 0.7625
2.0625 0 0.7
2.125 0.0625 0.7625
2.125 0.0625 0.7
2.1875 0.125 0.7625
2.1875 0.0625 0.7625
2.1875 0.0625 0.7
2.1875 0.125 0.7
2.25 0.125 0.7625
2.1875 0.0625 0.825
2.25 0.0625 0.825
2.1875 0 0.825
2.1875 0 0.7625
2.1875 0.125 0.825
2.25 0 0.7625
2.1875 0 0.7
2.25 0.0625 0.7625
2.25 0.0625 0.7
2.3125 0.125 0.7625
2.3125 0.0625 0.7625
2.3125 0.0625 0.7
2.3125 0.125 0.7
2.375 0.125 0.7625
2.3125 0.0625 0.825
2.375 0.0625 0.825
2.3125 0 0.825
2.3125 0 0.7625
2.3125 0.125 0.825
2.375 0 0.7625
2.3125 0 0.7
2.375 0.0625 0.7625
2.375 0.0625 0.7
2.4375 0.125 0.7625
2.4375 0.0625 0.7625
2.4375 0.0625 0.7
2.4375 0.125 0.7
2.5 0.125 0.7625
2.4375 0.0625 0.825
2.5 0.0625 0.825
2.4375 0 0.825
2.4375 0 0.7625
2.4375 0.125 0.825
2.5 0 0.7625
2.4375 0 0.7
2.5 0.0625 0.7625
2.5 0.0625 0.7
2.5625 0.125 0.7625
2.5625 0.0625 0.7625
2.5625 0.0625 0.7
2.5625 0.125 0.7
2.625 0.125 0.7625
2.5625 0.0625 0.825
2.625 0.0625 0.825
2.5625 0 0.825
2.5625 0 0.7625
2.5625 0.125 0.825
2.625 0 0.7625
2.5625 0 0.7
2.625 0.0625 0.7625
2.625 0.0625 0.7
2.6875 0.125 0.7625
2.6875 0.0625 0.7625
2.6875 0.0625 0.7
2.6875 0.125 0.7
2.75 0.125 0.7625
2.6875 0.0625 0.825
2.75 0.0625 0.825
2.6875 0 0.825
2.6875 0 0.7625
2.6875 0.125 0.825
2.75 0 0.7625
2.6875 0 0.7
2.75 0.0625 0.7625
2.75 0.0625 0.7
2.8125 0.125 0.7625
2.8125 0.0625 0.7625
2.8125 0.0625 0.7
2.8125 0.125 0.7
2.875 0.125 0.7625
2.8125 0.0625 0.825
2.875 0.0625 0.825
2.8125 0 0.825
2.8125 0 0.7625
2.8125 0.125 0.825
2.875 0 0.7625
2.8125 0 0.7
2.875 0.0625 0.7625
2.875 0.0625 0.7
2.9375 0.125 0.7625
2.9375 0.0625 0.7625
2.9375 0.0625 0.7
2.9375 0.125 0.7
3 0.125 0.7625
2.9375 0.0625 0.825
3 0.0625 0.825
2.9375 0 0.825
2.9375 0 0.7625
2.9375 0.125 0.825
3 0 0.7625
2.9375 0 0.7
3 0.0625 0.7625
3 0.0625 0.7
3.0625 0.125 0.7625
3.0625 0.0625 0.7625
3.0625 0.0625 0.7
3.0625 0.125 0.7
3.125 0.125 0.7625
3.0625 0.0625 0.825
3.125 0.0625 0.825
3.0625 0 0.825
3.0625 0 0.7625
3.0625 0.125 0.825
3.125 0 0.7625
3.0625 0 0.7
3.125 0.0625 0.7625
3.125 0.0625 0.7
3.1875 0.125 0.7625
3.1875 0.0625 0.7625
3.1875 0.0625 0.7
3.1875 0.125 0.7
3.25 0.125 0.7625
3.1875 0.0625 0.825
3.25 0.0625 0.825
3.1875 0 0.825
3.1875 0 0.7625
3.1875 0.125 0.825
3.25 0 0.7625
3.1875 0 0.7
3.25 0.0625 0.7625
3.25 0.0625 0.7
3.3125 0.125 0.7625
3.3125 0.0625 0.7625
3.3125 0.0625 0.7
3.3125 0.125 0.7
3.375 0.125 0.7625
3.3125 0.0625 0.825
3.375 0.0625 0.825
3.3125 0 0.825
3.3125 0 0.7625
3.3125 0.125 0.825
3.375 0 0.7625
3.3125 0 0.7
3.375 0.0625 0.7625
3.375 0.0625 0.7
3.4375 0.125 0.7625
3.4375 0.0625 0.7625
3.4375 0.0625 0.7
3.4375 0.125 0.7
3.5 0.125 0.7625
3.4375 0.0625 0.825
3.5 0.0625 0.825
3.4375 0 0.825
3.4375 0 0.7625
3.4375 0.125 0.825
3.5 0 0.7625
3.4375 0 0.7
3.5 0.0625 0.7625
3.5 0.0625 0.7
3.5625 0.125 0.7625
3.5625 0.0625 0.7625
3.5625 0.0625 0.7
3.5625 0.125 0.7
3.625 0.125 0.7625
3.5625 0.0625 0.825
3.625 0.0625 0.825
3.5625 0 0.825
3.5625 0 0.7625
3.5625 0.125 0.825
3.625 0 0.7625
3.5625 0 0.7
3.625 0.0625 0.7625
3.625 0.0625 0.7
3.6875 0.125 0.7625
3.6875 0.0625 0.7625
3.6875 0.0625 0.7
3.6875 0.125 0.7
3.75 0.125 0.7625
3.6875 0.0625 0.825
3.75 0.0625 0.825
3.6875 0 0.825
3.6875 0 0.7625
3.6875 0.125 0.825
3.75 0 0.7625
3.6875 0 0.7
3.75 0.0625 0.7625
3.75 0.0625 0.7
3.8125 0.125 0.7625
3.8125 0.0625 0.7625
3.8125 0.0625 0.7
3.8125 0.125 0.7
3.875 0.125 0.7625
3.8125 0.0625 0.825
3.875 0.0625 0.825
3.8125 0 0.825
3.8125 0 0.7625
3.8125 0.125 0.825
3.875 0 0.7625
3.8125 0 0.7
3.875 0.0625 0.7625
3.875 0.0625 0.7
3.9375 0.125 0.7625
3.9375 0.0625 0.7625
3.9375 0.0625 0.7
3.9375 0.125 0.7
4 0.125 0.7625
3.9375 0.0625 0.825
4 0.0625 0.825
3.9375 0 0.825
3.9375 0 0.7625
3.9375 0.125 0.825
4 0 0.7625
3.9375 0 0.7
4 0.0625 0.7625
4 0.0625 0.7
0 0.1875 0.7
0.0625 0.25 0.7625
0.0625 0.1875 0.7625
0.0625 0.1875 0.7
0.0625 0.25 0.7
0.125 0.25 0.7625
0.0625 0.1875 0.825
0.125 0.1875 0.825
0 0.25 0.7625
0 0.1875 0.7625
0.0625 0.25 0.825
0 0.1875 0.825
0.125 0.1875 0.7625
0.125 0.1875 0.7
0.1875 0.25 0.7625
0.1875 0.1875 0.7625
0.1875 0.1875 0.7
0.1875 0.25 0.7
0.25 0.25 0.7625
0.1875 0.1875 0.825
0.25 0.1875 0.825
0.1875 0.25 0.825
0.25 0.1875 0.7625
0.25 0.1875 0.7
0.3125 0.25 0.7625
0.3125 0.1875 0.7625
0.3125 0.1875 0.7
0.3125 0.25 0.7
0.375 0.25 0.7625
0.3125 0.1875 0.825
0.375 0.1875 0.825
0.3125 0.25 0.825
0.375 0.1875 0.7625
0.375 0.1875 0.7
0.4375 0.25 0.7625
0.4375 0.1875 0.7625
0.4375 0.1875 0.7
0.4375 0.25 0.7
0.5 0.25 0.7625
0.4375 0.1875 0.825
0.5 0.1875 0.825
0.4375 0.25 0.825
0.5 0.1875 0.7625
0.5 0.1875 0.7
0.5625 0.25 0.7625
0.5625 0.1875 0.7625
0.5625 0.1875 0.7
0.5625 0.25 0.7
0.625 0.25 0.7625
0.5625 0.1875 0.825
0.625 0.1875 0.825
0.5625 0.25 0.825
0.625 0.1875 0.7625
0.625 0.1875 0.7
0.6875 0.25 0.7625
0.6875 0.1875 0.7625
0.6875 0.1875 0.7
0.6875 0.25 0.7
0.75 0.25 0.7625
0.6875 0.1875 0.825
0.75 0.1875 0.825
0.6875 0.25 0.825
0.75 0.1875 0.7625
0.75 0.1875 0.7
0.8125 0.25 0.7625
0.8125 0.1875 0.7625
0.8125 0.1875 0.7
0.8125 0.25 0.7
0.875 0.25 0.7625
0.8125 0.1875 0.825
0.875 0.1875 0.825
0.8125 0.25 0.825
0.875 0.1875 0.7625
0.875 0.1875 0.7
0.9375 0.25 0.7625
0.9375 0.1875 0.7625
0.9375 0.1875 0.7
0.9375 0.25 0.7
1 0.25 0.7625
0.9375 0.1875 0.825
1 0.1875 0.825
0.9375 0.25 0.825
1 0.1875 0.7625
1 0.1875 0.7
1.0625 0.25 0.7625
1.0625 0.1875 0.7625
1.0625 0.1875 0.7
1.0625 0.25 0.7
1.125 0.25 0.7625
1.0625 0.1875 0.825
1.125 0.1875 0.825
1.0625 0.25 0.825
1.125 0.1875 0.7625
1.125 0.1875 0.7
1.1875 0.25 0.7625
1.1875 0.1875 0.7625
1.1875 0.1875 0.7
1.1875 0.25 0.7
1.25 0.25 0.7625
1.1875 0.1875 0.825
1.25 0.1875 0.825
1.1875 0.25 0.825
1.25 0.1875 0.7625
1.25 0.1875 0.7
1.3125 0.25 0.7625
1.3125 0.1875 0.7625
1.3125 0.1875 0.7
1.3125 0.25 0.7
1.375 0.25 0.7625
1.3125 0.1875 0.825
1.375 0.1875 0.825
1.3125 0.25 0.825
1.375 0.1875 0.7625
1.375 0.1875 0.7
1.4375 0.25 0.7625
1.4375 0.1875 0.7625
1.4375 0.1875 0.7
1.4375 0.25 0.7
1.5 0.25 0.7625
1.4375 0.1875 0.825
1.5 0.1875 0.825
1.4375 0.25 0.825
1.5 0.1875 0.7625
1.5 0.1875 0.7
1.5625 0.25 0.7625
1.5625 0.1875 0.7625
1.5625 0.1875 0.7
1.5625 0.25 0.7
1.625 0.25 0.7625
1.5625 0.1875 0.825
1.625 0.1875 0.825
1.5625 0.25 0.825
1.625 0.1875 0.7625
1.625 0.1875 0.7
1.6875 0.25 0.7625
1.6875 0.1875 0.7625
1.6875 0.1875 0.7
1.6875 0.25 0.7
1.75 0.25 0.7625
1.6875 0.1875 0.825
1.75 0.1875 0.825
1.6875 0.25 0.825
1.75 0.1875 0.7625
1.75 0.1875 0.7
1.8125 0.25 0.7625
1.8125 0.1875 0.7625
1.8125 0.1875 0.7
1.8125 0.25 0.7
1.875 0.25 0.7625
1.8125 0.1875 0.825
1.875 0.1875 0.825
1.8125 0.25 0.825
1.875 0.1875 0.7625
1.875 0.1875 0.7
1.9375 0.25 0.7625
1.9375 0.1875 0.7625
1.9375 0.1875 0.7
1.9375 0.25 0.7
2 0.25 0.7625
1.9375 0.1875 0.825
2 0.1875 0.825
1.9375 0.25 0.825
2 0.1875 0.7625
2 0.1875 0.7
2.0625 0.25 0.7625
2.0625 0.1875 0.7625
2.0625 0.1875 0.7
2.0625 0.25 0.7
2.125 0.25 0.7625
2.0625 0.1875 0.825
2.125 0.1875 0.825
2.0625 0.25 0.825
2.125 0.1875 0.7625
2.125 0.1875 0.7
2.1875 0.25 0.7625
2.1875 0.1875 0.7625
2.1875 0.1875 0.7
2.1875 0.25 0.7
2.25 0.25 0.7625
2.1875 0.1875 0.825
2.25 0.1875 0.825
2.1875 0.25 0.825
2.25 0.1875 0.7625
2.25 0.1875 0.7
2.3125 0.25 0.7625
2.3125 0.1875 0.7625
2.3125 0.1875 0.7
2.3125 0.25 0.7
2.375 0.25 0.7625
2.3125 0.1875 0.825
2.375 0.1875 0.825
2.3125 0.25 0.825
2.375 0.1875 0.7625
2.375 0.1875 0.7
2.4375 0.25 0.7625
2.4375 0.1875 0.7625
2.4375 0.1875 0.7
2.4375 0.25 0.7
2.5 0.25 0.7625
2.4375 0.1875 0.825
2.5 0.1875 0.825
2.4375 0.25 0.825
2.5 0.1875 0.7625
2.5 0.1875 0.7
2.5625 0.25 0.7625
2.5625 0.1875 0.7625
2.5625 0.1875 0.7
2.5625 0.25 0.7
2.625 0.25 0.7625
2.5625 0.1875 0.825
2.625 0.1875 0.825
2.5625 0.25 0.825
2.625 0.1875 0.7625
2.625 0.1875 0.7
2.6875 0.25 0.7625
2.6875 0.1875 0.7625
2.6875 0.1875 0.7
2.6875 0.25 0.7
2.75 0.25 0.7625
2.6875 0.1875 0.825
2.75 0.1875 0.825
2.6875 0.25 0.825
2.75 0.1875 0.7625
2.75 0.1875 0.7
2.8125 0.25 0.7625
2.8125 0.1875 0.7625
2.8125 0.1875 0.7
2.8125 0.25 0.7
2.875 0.25 0.7625
2.8125 0.1875 0.825
2.875 0.1875 0.825
2.8125 0.25 0.825
2.875 0.1875 0.7625
2.875 0.1875 0.7
2.9375 0.25 0.7625
2.9375 0.1875 0.7625
2.9375 0.1875 0.7
2.9375 0.25 0.7
3 0.25 0.7625
2.9375 0.1875 0.825
3 0.1875 0.825
2.9375 0.25 0.825
3 0.1875 0.7625
3 0.1875 0.7
3.0625 0.25 0.7625
3.0625 0.1875 0.7625
3.0625 0.1875 0.7
3.0625 0.25 0.7
3.125 0.25 0.7625
3.0625 0.1875 0.825
3.125 0.1875 0.825
3.0625 0.25 0.825
3.125 0.1875 0.7625
3.125 0.1875 0.7
3.1875 0.25 0.7625
3.1875 0.1875 0.7625
3.1875 0.1875 0.7
3.1875 0.25 0.7
3.25 0.25 0.7625
3.1875 0.1875 0.825
3.25 0.1875 0.825
3.1875 0.25 0.825
3.25 0.1875 0.7625
3.25 0.1875 0.7
3.3125 0.25 0.7625
3.3125 0.1875 0.7625
3.3125 0.1875 0.7
3.3125 0.25 0.7
3.375 0.25 0.7625
3.3125 0.1875 0.825
3.375 0.1875 0.825
3.3125 0.25 0.825
3.375 0.1875 0.7625
3.375 0.1875 0.7
3.4375 0.25 0.7625
3.4375 0.1875 0.7625
3.4375 0.1875 0.7
3.4375 0.25 0.7
3.5 0.25 0.7625
3.4375 0.1875 0.825
3.5 0.1875 0.825
3.4375 0.25 0.825
3.5 0.1875 0.7625
3.5 0.1875 0.7
3.5625 0.25 0.7625
3.5625 0.1875 0.7625
3.5625 0.1875 0.7
3.5625 0.25 0.7
3.625 0.25 0.7625
3.5625 0.1875 0.825
3.625 0.1875 0.825
3.5625 0.25 0.825
3.625 0.1875 0.7625
3.625 0.1875 0.7
3.6875 0.25 0.7625
3.6875 0.1875 0.7625
3.6875 0.1875 0.7
3.6875 0.25 0.7
3.75 0.25 0.7625
3.6875 0.1875 0.825
3.75 0.1875 0.825
3.6875 0.25 0.825
3.75 0.1875 0.7625
3.75 0.1875 0.7
3.8125 0.25 0.7625
3.8125 0.1875 0.7625
3.8125 0.1875 0.7
3.8125 0.25 0.7
3.875 0.25 0.7625
3.8125 0.1875 0.825
3.875 0.1875 0.825
3.8125 0.25 0.825
3.875 0.1875 0.7625
3.875 0.1875 0.7
3.9375 0.25 0.7625
3.9375 0.1875 0.7625
3.9375 0.1875 0.7
3.9375 0.25 0.7
4 0.25 0.7625
3.9375 0.1875 0.825
4 0.1875 0.825
3.9375 0.25 0.825
4 0.1875 0.7625
4 0.1875 0.7
0 0.3125 0.7
0.0625 0.375 0.7625
0.0625 0.3125 0.7625
0.0625 0.3125 0.7
0.0625 0.375 0.7
0.125 0.375 0.7625
0.0625 0.3125 0.825
0.125 0.3125 0.825
0 0.375 0.7625
0 0.3125 0.7625
0.0625 0.375 0.825
0 0.3125 0.825
0.125 0.3125 0.7625
0.125 0.3125 0.7
0.1875 0.375 0.7625
0.1875 0.3125 0.7625
0.1875 0.3125 0.7
0.1875 0.375 0.7
0.25 0.375 0.7625
0.1875 0.3125 0.825
0.25 0.3125 0.825
0.1875 0.375 0.825
0.25 0.3125 0.7625
0.25 0.3125 0.7
0.3125 0.375 0.7625
0.3125 0.3125 0.7625
0.3125 0.3125 0.7
0.3125 0.375 0.7
0.375 0.375 0.7625
0.3125 0.3125 0.825
0.375 0.3125 0.825
0.3125 0.375 0.825
0.375 0.3125 0.7625
0.375 0.3125 0.7
0.4375 0.375 0.7625
0.4375 0.3125 0.7625
0.4375 0.3125 0.7
0.4375 0.375 0.7
0.5 0.375 0.7625
0.4375 0.3125 0.825
0.5 0.3125 0.825
0.4375 0.375 0.825
0.5 0.3125 0.7625
0.5 0.3125 0.7
0.5625 0.375 0.7625
0.5625 0.3125 0.7625
0.5625 0.3125 0.7
0.5625 0.375 0.7
0.625 0.375 0.7625
0.5625 0.3125 0.825
0.625 0.3125 0.825
0.5625 0.375 0.825
0.625 0.3125 0.7625
0.625 0.3125 0.7
0.6875 0.375 0.7625
0.6875 0.3125 0.7625
0.6875 0.3125 0.7
0.6875 0.375 0.7
0.75 0.375 0.7625
0.6875 0.3125 0.825
0.75 0.3125 0.825
0.6875 0.375 0.825
0.75 0.3125 0.7625
0.75 0.3125 0.7
0.8125 0.375 0.7625
0.8125 0.3125 0.7625
0.8125 0.3125 0.7
0.8125 0.375 0.7
0.875 0.375 0.7625
0.8125 0.3125 0.825
0.875 0.3125 0.825
0.8125 0.375 0.825
0.875 0.3125 0.7625
0.875 0.3125 0.7
0.9375 0.375 0.7625
0.9375 0.3125 0.7625
0.9375 0.3125 0.7
0.9375 0.375 0.7
1 0.375 0.7625
0.9375 0.3125 0.825
1 0.3125 0.825
0.9375 0.375 0.825
1 0.3125 0.7625
1 0.3125 0.7
1.0625 0.375 0.7625
1.0625 0.3125 0.7625
1.0625 0.3125 0.7
1.0625 0.375 0.7
1.125 0.375 0.7625
1.0625 0.3125 0.825
1.125 0.3125 0.825
1.0625 0.375 0.825
1.125 0.3125 0.7625
1.125 0.3125 0.7
1.1875 0.375 0.7625
1.1875 0.3125 0.7625
1.1875 0.3125 0.7
1.1875 0.375 0.7
1.25 0.375 0.7625
1.1875 0.3125 0.825
1.25 0.3125 0.825
1.1875 0.375 0.825
1.25 0.3125 0.7625
1.25 0.3125 0.7
1.3125 0.375 0.7625
1.3125 0.3125 0.7625
1.3125 0.3125 0.7
1.3125 0.375 0.7
1.375 0.375 0.7625
1.3125 0.3125 0.825
1.375 0.3125 0.825
1.3125 0.375 0.825
1.375 0.3125 0.7625
1.375 0.3125 0.7
1.4375 0.375 0.7625
1.4375 0.3125 0.7625
1.4375 0.3125 0.7
1.4375 0.375 0.7
1.5 0.375 0.7625
1.4375 0.3125 0.825
1.5 0.3125 0.825
1.4375 0.375 0.825
1.5 0.3125 0.7625
1.5 0.3125 0.7
1.5625 0.375 0.7625
1.5625 0.3125 0.7625
1.5625 0.3125 0.7
1.5625 0.375 0.7
1.625 0.375 0.7625
1.5625 0.3125 0.825
1.625 0.3125 0.825
1.5625 0.375 0.825
1.625 0.3125 0.7625
1.625 0.3125 0.7
1.6875 0.375 0.7625
1.6875 0.3125 0.7625
1.6875 0.3125 0.7
1.6875 0.375 0.7
1.75 0.375 0.7625
1.6875 0.3125 0.825
1.75 0.3125 0.825
1.6875 0.375 0.825
1.75 0.3125 0.7625
1.75 0.3125 0.7
1.8125 0.375 0.7625
1.8125 0.3125 0.7625
1.8125 0.3125 0.7
1.8125 0.375 0.7
1.875 0.375 0.7625
1.8125 0.3125 0.825
1.875 0.3125 0.825
1.8125 0.375 0.825
1.875 0.3125 0.7625
1.875 0.3125 0.7
1.9375 0.375 0.7625
1.9375 0.3125 0.7625
1.9375 0.3125 0.7
1.9375 0.375 0.7
2 0.375 0.7625
1.9375 0.3125 0.825
2 0.3125 0.825
1.9375 0.375 0.825
2 0.3125 0.7625
2 0.3125 0.7
2.0625 0.375 0.7625
2.0625 0.3125 0.7625
2.0625 0.3125 0.7
2.0625 0.375 0.7
2.125 0.375 0.7625
2.0625 0.3125 0.825
2.125 0.3125 0.825
2.0625 0.375 0.825
2.125 0.3125 0.7625
2.125 0.3125 0.7
2.1875 0.375 0.7625
2.1875 0.3125 0.7625
2.1875 0.3125 0.7
2.1875 0.375 0.7
2.25 0.375 0.7625
2.1875 0.3125 0.825
2.25 0.3125 0.825
2.1875 0.375 0.825
2.25 0.3125 0.7625
2.25 0.3125 0.7
2.3125 0.375 0.7625
2.3125 0.3125 0.7625
2.3125 0.3125 0.7
2.3125 0.375 0.7
2.375 0.375 0.7625
2.3125 0.3125 0.825
2.375 0.3125 0.825
2.3125 0.375 0.825
2.375 0.3125 0.7625
2.375 0.3125 0.7
2.4375 0.375 0.7625
2.4375 0.3125 0.7625
2.4375 0.3125 0.7
2.4375 0.375 0.7
2.5 0.375 0.7625
2.4375 0.3125 0.825
2.5 0.3125 0.825
2.4375 0.375 0.825
2.5 0.3125 0.7625
2.5 0.3125 0.7
2.5625 0.375 0.7625
2.5625 0.3125 0.7625
2.5625 0.3125 0.7
2.5625 0.375 0.7
2.625 0.375 0.7625
2.5625 0.3125 0.825
2.625 0.3125 0.825
2.5625 0.375 0.825
2.625 0.3125 0.7625
2.625 0.3125 0.7
2.6875 0.375 0.7625
2.6875 0.3125 0.7625
2.6875 0.3125 0.7
2.6875 0.375 0.7
2.75 0.375 0.7625
2.6875 0.3125 0.825
2.75 0.3125 0.825
2.6875 0.375 0.825
2.75 0.3125 0.7625
2.75 0.3125 0.7
2.8125 0.375 0.7625
2.8125 0.3125 0.7625
2.8125 0.3125 0.7
2.8125 0.375 0.7
2.875 0.375 0.7625
2.8125 0.3125 0.825
2.875 0.3125 0.825
2.8125 0.375 0.825
2.875 0.3125 0.7625
2.875 0.3125 0.7
2.9375 0.375 0.7625
2.9375 0.3125 0.7625
2.9375 0.3125 0.7
2.9375 0.375 0.7
3 0.375 0.7625
2.9375 0.3125 0.825
3 0.3125 0.825
2.9375 0.375 0.825
3 0.3125 0.7625
3 0.3125 0.7
3.0625 0.375 0.7625
3.0625 0.3125 0.7625
3.0625 0.3125 0.7
3.0625 0.375 0.7
3.125 0.375 0.7625
3.0625 0.3125 0.825
3.125 0.3125 0.825
3.0625 0.375 0.825
3.125 0.3125 0.7625
3.125 0.3125 0.7
3.1875 0.375 0.7625
3.1875 0.3125 0.7625
3.1875 0.3125 0.7
3.1875 0.375 0.7
3.25 0.375 0.7625
3.1875 0.3125 0.825
3.25 0.3125 0.825
3.1875 0.375 0.825
3.25 0.3125 0.7625
3.25 0.3125 0.7
3.3125 0.375 0.7625
3.3125 0.3125 0.7625
3.3125 0.3125 0.7
3.3125 0.375 0.7
3.375 0.375 0.7625
3.3125 0.3125 0.825
3.375 0.3125 0.825
3.3125 0.375 0.825
3.375 0.3125 0.7625
3.375 0.3125 0.7
3.4375 0.375 0.7625
3.4375 0.3125 0.7625
3.4375 0.3125 0.7
3.4375 0.375 0.7
3.5 0.375 0.7625
3.4375 0.3125 0.825
3.5 0.3125 0.825
3.4375 0.375 0.825
3.5 0.3125 0.7625
3.5 0.3125 0.7
3.5625 0.375 0.7625
3.5625 0.3125 0.7625
3.5625 0.3125 0.7
3.5625 0.375 0.7
3.625 0.375 0.7625
3.5625 0.3125 0.825
3.625 0.3125 0.825
3.5625 0.375 0.825
3.625 0.3125 0.7625
3.625 0.3125 0.7
3.6875 0.375 0.7625
3.6875 0.3125 0.7625
3.6875 0.3125 0.7
3.6875 0.375 0.7
3.75 0.375 0.7625
3.6875 0.3125 0.825
3.75 0.3125 0.825
3.6875 0.375 0.825
3.75 0.3125 0.7625
3.75 0.3125 0.7
3.8125 0.375 0.7625
3.8125 0.3125 0.7625
3.8125 0.3125 0.7
3.8125 0.375 0.7
3.875 0.375 0.7625
3.8125 0.3125 0.825
3.875 0.3125 0.825
3.8125 0.375 0.825
3.875 0.3125 0.7625
3.875 0.3125 0.7
3.9375 0.375 0.7625
3.9375 0.3125 0.7625
3.9375 0.3125 0.7
3.9375 0.375 0.7
4 0.375 0.7625
3.9375 0.3125 0.825
4 0.3125 0.825
3.9375 0.375 0.825
4 0.3125 0.7625
4 0.3125 0.7
0 0.4375 0.7
0.0625 0.5 0.7625
0.0625 0.4375 0.7625
0.0625 0.4375 0.7
0.0625 0.5 0.7
0.125 0.5 0.7625
0.0625 0.4375 0.825
0.125 0.4375 0.825
0 0.5 0.7625
0 0.4375 0.7625
0.0625 0.5 0.825
0 0.4375 0.825
0.125 0.4375 0.7625
0.125 0.4375 0.7
0.1875 0.5 0.7625
0.1875 0.4375 0.7625
0.1875 0.4375 0.7
0.1875 0.5 0.7
0.25 0.5 0.7625
0.1875 0.4375 0.825
0.25 0.4375 0.825
0.1875 0.5 0.825
0.25 0.4375 0.7625
0.25 0.4375 0.7
0.3125 0.5 0.7625
0.3125 0.4375 0.7625
0.3125 0.4375 0.7
0.3125 0.5 0.7
0.375 0.5 0.7625
0.3125 0.4375 0.825
0.375 0.4375 0.825
0.3125 0.5 0.825
0.375 0.4375 0.7625
0.375 0.4375 0.7
0.4375 0.5 0.7625
0.4375 0.4375 0.7625
0.4375 0.4375 0.7
0.4375 0.5 0.7
0.5 0.5 0.7625
0.4375 0.4375 0.825
0.5 0.4375 0.825
0.4375 0.5 0.825
0.5 0.4375 0.7625
0.5 0.4375 0.7
0.5625 0.5 0.7625
0.5625 0.4375 0.7625
0.5625 0.4375 0.7
0.5625 0.5 0.7
0.625 0.5 0.7625
0.5625 0.4375 0.825
0.625 0.4375 0.825
0.5625 0.5 0.825
0.625 0.4375 0.7625
0.625 0.4375 0.7
0.6875 0.5 0.7625
0.6875 0.4375 0.7625
0.6875 0.4375 0.7
0.6875 0.5 0.7
0.75 0.5 0.7625
0.6875 0.4375 0.825
0.75 0.4375 0.825
0.6875 0.5 0.825
0.75 0.4375 0.7625
0.75 0.4375 0.7
0.8125 0.5 0.7625
0.8125 0.4375 0.7625
0.8125 0.4375 0.7
0.8125 0.5 0.7
0.875 0.5 0.7625
0.8125 0.4375 0.825
0.875 0.4375 0.825
0.8125 0.5 0.825
0.875 0.4375 0.7625
0.875 0.4375 0.7
0.9375 0.5 0.7625
0.9375 0.4375 0.7625
0.9375 0.4375 0.7
0.9375 0.5 0.7
1 0.5 0.7625
0.9375 0.4375 0.825
1 0.4375 0.825
0.9375 0.5 0.825
1 0.4375 0.7625
1 0.4375 0.7
1.0625 0.5 0.7625
1.0625 0.4375 0.7625
1.0625 0.4375 0.7
1.0625 0.5 0.7
1.125 0.5 0.7625
1.0625 0.4375 0.825
1.125 0.4375 0.825
1.0625 0.5 0.825
1.125 0.4375 0.7625
1.125 0.4375 0.7
1.1875 0.5 0.7625
1.1875 0.4375 0.7625
1.1875 0.4375 0.7
1.1875 0.5 0.7
1.25 0.5 0.7625
1.1875 0.4375 0.825
1.25 0.4375 0.825
1.1875 0.5 0.825
1.25 0.4375 0.7625
1.25 0.4375 0.7
1.3125 0.5 0.7625
1.3125 0.4375 0.7625
1.3125 0.4375 0.7
1.3125 0.5 0.7
1.375 0.5 0.7625
1.3125 0.4375 0.825
1.375 0.4375 0.825
1.3125 0.5 0.825
1.375 0.4375 0.7625
1.375 0.4375 0.7
1.4375 0.5 0.7625
1.4375 0.4375 0.7625
1.4375 0.4375 0.7
1.4375 0.5 0.7
1.5 0.5 0.7625
1.4375 0.4375 0.825
1.5 0.4375 0.825
1.4375 0.5 0.825
1.5 0.4375 0.7625
1.5 0.4375 0.7
1.5625 0.5 0.7625
1.5625 0.4375 0.7625
1.5625 0.4375 0.7
1.5625 0.5 0.7
1.625 0.5 0.7625
1.5625 0.4375 0.825
1.625 0.4375 0.825
1.5625 0.5 0.825
1.625 0.4375 0.7625
1.625 0.4375 0.7
1.6875 0.5 0.7625
1.6875 0.4375 0.7625
1.6875 0.4375 0.7
1.6875 0.5 0.7
1.75 0.5 0.7625
1.6875 0.4375 0.825
1.75 0.4375 0.825
1.6875 0.5 0.825
1.75 0.4375 0.7625
1.75 0.4375 0.7
1.8125 0.5 0.7625
1.8125 0.4375 0.7625
1.8125 0.4375 0.7
1.8125 0.5 0.7
1.875 0.5 0.7625
1.8125 0.4375 0.825
1.875 0.4375 0.825
1.8125 0.5 0.825
1.875 0.4375 0.7625
1.875 0.4375 0.7
1.9375 0.5 0.7625
1.9375 0.4375 0.7625
1.9375 0.4375 0.7
1.9375 0.5 0.7
2 0.5 0.7625
1.9375 0.4375 0.825
2 0.4375 0.825
1.9375 0.5 0.825
2 0.4375 0.7625
2 0.4375 0.7
2.0625 0.5 0.7625
2.0625 0.4375 0.7625
2.0625 0.4375 0.7
2.0625 0.5 0.7
2.125 0.5 0.7625
2.0625 0.4375 0.825
2.125 0.4375 0.825
2.0625 0.5 0.825
2.125 0.4375 0.7625
2.125 0.4375 0.7
2.1875 0.5 0.7625
2.1875 0.4375 0.7625
2.1875 0.4375 0.7
2.1875 0.5 0.7
2.25 0.5 0.7625
2.1875 0.4375 0.825
2.25 0.4375 0.825
2.1875 0.5 0.825
2.25 0.4375 0.7625
2.25 0.4375 0.7
2.3125 0.5 0.7625
2.3125 0.4375 0.7625
2.3125 0.4375 0.7
2.3125 0.5 0.7
2.375 0.5 0.7625
2.3125 0.4375 0.825
2.375 0.4375 0.825
2.3125 0.5 0.825
2.375 0.4375 0.7625
2.375 0.4375 0.7
2.4375 0.5 0.7625
2.4375 0.4375 0.7625
2.4375 0.4375 0.7
2.4375 0.5 0.7
2.5 0.5 0.7625
2.4375 0.4375 0.825
2.5 0.4375 0.825
2.4375 0.5 0.825
2.5 0.4375 0.7625
2.5 0.4375 0.7
2.5625 0.5 0.7625
2.5625 0.4375 0.7625
2.5625 0.4375 0.7
2.5625 0.5 0.7
2.625 0.5 0.7625
2.5625 0.4375 0.825
2.625 0.4375 0.825
2.5625 0.5 0.825
2.625 0.4375 0.7625
2.625 0.4375 0.7
2.6875 0.5 0.7625
2.6875 0.4375 0.7625
2.6875 0.4375 0.7
2.6875 0.5 0.7
2.75 0.5 0.7625
2.6875 0.4375 0.825
2.75 0.4375 0.825
2.6875 0.5 0.825
2.75 0.4375 0.7625
2.75 0.4375 0.7
2.8125 0.5 0.7625
2.8125 0.4375 0.7625
2.8125 0.4375 0.7
2.8125 0.5 0.7
2.875 0.5 0.7625
2.8125 0.4375 0.825
2.875 0.4375 0.825
2.8125 0.5 0.825
2.875 0.4375 0.7625
2.875 0.4375 0.7
2.9375 0.5 0.7625
2.9375 0.4375 0.7625
2.9375 0.4375 0.7
2.9375 0.5 0.7
3 0.5 0.7625
2.9375 0.4375 0.825
3 0.4375 0.825
2.9375 0.5 0.825
3 0.4375 0.7625
3 0.4375 0.7
3.0625 0.5 0.7625
3.0625 0.4375 0.7625
3.0625 0.4375 0.7
3.0625 0.5 0.7
3.125 0.5 0.7625
3.0625 0.4375 0.825
3.125 0.4375 0.825
3.0625 0.5 0.825
3.125 0.4375 0.7625
3.125 0.4375 0.7
3.1875 0.5 0.7625
3.1875 0.4375 0.7625
3.1875 0.4375 0.7
3.1875 0.5 0.7
3.25 0.5 0.7625
3.1875 0.4375 0.825
3.25 0.4375 0.825
3.1875 0.5 0.825
3.25 0.4375 0.7625
3.25 0.4375 0.7
3.3125 0.5 0.7625
3.3125 0.4375 0.7625
3.3125 0.4375 0.7
3.3125 0.5 0.7
3.375 0.5 0.7625
3.3125 0.4375 0.825
3.375 0.4375 0.825
3.3125 0.5 0.825
3.375 0.4375 0.7625
3.375 0.4375 0.7
3.4375 0.5 0.7625
3.4375 0.4375 0.7625
3.4375 0.4375 0.7
3.4375 0.5 0.7
3.5 0.5 0.7625
3.4375 0.4375 0.825
3.5 0.4375 0.825
3.4375 0.5 0.825
3.5 0.4375 0.7625
3.5 0.4375 0.7
3.5625 0.5 0.7625
3.5625 0.4375 0.7625
3.5625 0.4375 0.7
3.5625 0.5 0.7
3.625 0.5 0.7625
3.5625 0.4375 0.825
3.625 0.4375 0.825
3.5625 0.5 0.825
3.625 0.4375 0.7625
3.625 0.4375 0.7
3.6875 0.5 0.7625
3.6875 0.4375 0.7625
3.6875 0.4375 0.7
3.6875 0.5 0.7
3.75 0.5 0.7625
3.6875 0.4375 0.825
3.75 0.4375 0.825
3.6875 0.5 0.825
3.75 0.4375 0.7625
3.75 0.4375 0.7
3.8125 0.5 0.7625
3.8125 0.4375 0.7625
3.8125 0.4375 0.7
3.8125 0.5 0.7
3.875 0.5 0.7625
3.8125 0.4375 0.825
3.875 0.4375 0.825
3.8125 0.5 0.825
3.875 0.4375 0.7625
3.875 0.4375 0.7
3.9375 0.5 0.7625
3.9375 0.4375 0.7625
3.9375 0.4375 0.7
3.9375 0.5 0.7
4 0.5 0.7625
3.9375 0.4375 0.825
4 0.4375 0.825
3.9375 0.5 0.825
4 0.4375 0.7625
4 0.4375 0.7
0 0.5625 0.7
0.0625 0.625 0.7625
0.0625 0.5625 0.7625
0.0625 0.5625 0.7
0.0625 0.625 0.7
0.125 0.625 0.7625
0.0625 0.5625 0.825
0.125 0.5625 0.825
0 0.625 0.7625
0 0.5625 0.7625
0.0625 0.625 0.825
0 0.5625 0.825
0.125 0.5625 0.7625
0.125 0.5625 0.7
0.1875 0.625 0.7625
0.1875 0.5625 0.7625
0.1875 0.5625 0.7
0.1875 0.625 0.7
0.25 0.625 0.7625
0.1875 0.5625 0.825
0.25 0.5625 0.825
0.1875 0.625 0.825
0.25 0.5625 0.7625
0.25 0.5625 0.7
0.3125 0.625 0.7625
0.3125 0.5625 0.7625
0.3125 0.5625 0.7
0.3125 0.625 0.7
0.375 0.625 0.7625
0.3125 0.5625 0.825
0.375 0.5625 0.825
0.3125 0.625 0.825
0.375 0.5625 0.7625
0.375 0.5625 0.7
0.4375 0.625 0.7625
0.4375 0.5625 0.7625
0.4375 0.5625 0.7
0.4375 0.625 0.7
0.5 0.625 0.7625
0.4375 0.5625 0.825
0.5 0.5625 0.825
0.4375 0.625 0.825
0.5 0.5625 0.7625
0.5 0.5625 0.7
0.5625 0.625 0.7625
0.5625 0.5625 0.7625
0.5625 0.5625 0.7
0.5625 0.625 0.7
0.625 0.625 0.7625
0.5625 0.5625 0.825
0.625 0.5625 0.825
0.5625 0.625 0.825
0.625 0.5625 0.7625
0.625 0.5625 0.7
0.6875 0.625 0.7625
0.6875 0.5625 0.7625
0.6875 0.5625 0.7
0.6875 0.625 0.7
0.75 0.625 0.7625
0.6875 0.5625 0.825
0.75 0.5625 0.825
0.6875 0.625 0.825
0.75 0.5625 0.7625
0.75 0.5625 0.7
0.8125 0.625 0.7625
0.8125 0.5625 0.7625
0.8125 0.5625 0.7
0.8125 0.625 0.7
0.875 0.625 0.7625
0.8125 0.5625 0.825
0.875 0.5625 0.825
0.8125 0.625 0.825
0.875 0.5625 0.7625
0.875 0.5625 0.7
0.9375 0.625 0.7625
0.9375 0.5625 0.7625
0.9375 0.5625 0.7
0.9375 0.625 0.7
1 0.625 0.7625
0.9375 0.5625 0.825
1 0.5625 0.825
0.9375 0.625 0.825
1 0.5625 0.7625
1 0.5625 0.7
1.0625 0.625 0.7625
1.0625 0.5625 0.7625
1.0625 0.5625 0.7
1.0625 0.625 0.7
1.125 0.625 0.7625
1.0625 0.5625 0.825
1.125 0.5625 0.825
1.0625 0.625 0.825
1.125 0.5625 0.7625
1.125 0.5625 0.7
1.1875 0.625 0.7625
1.1875 0.5625 0.7625
1.1875 0.5625 0.7
1.1875 0.625 0.7
1.25 0.625 0.7625
1.1875 0.5625 0.825
1.25 0.5625 0.825
1.1875 0.625 0.825
1.25 0.5625 0.7625
1.25 0.5625 0.7
1.3125 0.625 0.7625
1.3125 0.5625 0.7625
1.3125 0.5625 0.7
1.3125 0.625 0.7
1.375 0.625 0.7625
1.3125 0.5625 0.825
1.375 0.5625 0.825
1.3125 0.625 0.825
1.375 0.5625 0.7625
1.375 0.5625 0.7
1.4375 0.625 0.7625
1.4375 0.5625 0.7625
1.4375 0.5625 0.7
1.4375 0.625 0.7
1.5 0.625 0.7625
1.4375 0.5625 0.825
1.5 0.5625 0.825
1.4375 0.625 0.825
1.5 0.5625 0.7625
1.5 0.5625 0.7
1.5625 0.625 0.7625
1.5625 0.5625 0.7625
1.5625 0.5625 0.7
1.5625 0.625 0.7
1.625 0.625 0.7625
1.5625 0.5625 0.825
1.625 0.5625 0.825
1.5625 0.625 0.825
1.625 0.5625 0.7625
1.625 0.5625 0.7
1.6875 0.625 0.7625
1.6875 0.5625 0.7625
1.6875 0.5625 0.7
1.6875 0.625 0.7
1.75 0.625 0.7625
1.6875 0.5625 0.825
1.75 0.5625 0.825
1.6875 0.625 0.825
1.75 0.5625 0.7625
1.75 0.5625 0.7
1.8125 0.625 0.7625
1.8125 0.5625 0.7625
1.8125 0.5625 0.7
1.8125 0.625 0.7
1.875 0.625 0.7625
1.8125 0.5625 0.825
1.875 0.5625 0.825
1.8125 0.625 0.825
1.875 0.5625 0.7625
1.875 0.5625 0.7
1.9375 0.625 0.7625
1.9375 0.5625 0.7625
1.9375 0.5625 0.7
1.9375 0.625 0.7
2 0.625 0.7625
1.9375 0.5625 0.825
2 0.5625 0.825
1.9375 0.625 0.825
2 0.5625 0.7625
2 0.5625 0.7
2.0625 0.625 0.7625
2.0625 0.5625 0.7625
2.0625 0.5625 0.7
2.0625 0.625 0.7
2.125 0.625 0.7625
2.0625 0.5625 0.825
2.125 0.5625 0.825
2.0625 0.625 0.825
2.125 0.5625 0.7625
2.125 0.5625 0.7
2.1875 0.625 0.7625
2.1875 0.5625 0.7625
2.1875 0.5625 0.7
2.1875 0.625 0.7
2.25 0.625 0.7625
2.1875 0.5625 0.825
2.25 0.5625 0.825
2.1875 0.625 0.825
2.25 0.5625 0.7625
2.25 0.5625 0.7
2.3125 0.625 0.7625
2.3125 0.5625 0.7625
2.3125 0.5625 0.7
2.3125 0.625 0.7
2.375 0.625 0.7625
2.3125 0.5625 0.825
2.375 0.5625 0.825
2.3125 0.625 0.825
2.375 0.5625 0.7625
2.375 0.5625 0.7
2.4375 0.625 0.7625
2.4375 0.5625 0.7625
2.4375 0.5625 0.7
2.4375 0.625 0.7
2.5 0.625 0.7625
2.4375 0.5625 0.825
2.5 0.5625 0.825
2.4375 0.625 0.825
2.5 0.5625 0.7625
2.5 0.5625 0.7
2.5625 0.625 0.7625
2.5625 0.5625 0.7625
2.5625 0.5625 0.7
2.5625 0.625 0.7
2.625 0.625 0.7625
2.5625 0.5625 0.825
2.625 0.5625 0.825
2.5625 0.625 0.825
2.625 0.5625 0.7625
2.625 0.5625 0.7
2.6875 0.625 0.7625
2.6875 0.5625 0.7625
2.6875 0.5625 0.7
2.6875 0.625 0.7
2.75 0.625 0.7625
2.6875 0.5625 0.825
2.75 0.5625 0.825
2.6875 0.625 0.825
2.75 0.5625 0.7625
2.75 0.5625 0.7
2.8125 0.625 0.7625
2.8125 0.5625 0.7625
2.8125 0.5625 0.7
2.8125 0.625 0.7
2.875 0.625 0.7625
2.8125 0.5625 0.825
2.875 0.5625 0.825
2.8125 0.625 0.825
2.875 0.5625 0.7625
2.875 0.5625 0.7
2.9375 0.625 0.7625
2.9375 0.5625 0.7625
2.9375 0.5625 0.7
2.9375 0.625 0.7
3 0.625 0.7625
2.9375 0.5625 0.825
3 0.5625 0.825
2.9375 0.625 0.825
3 0.5625 0.7625
3 0.5625 0.7
3.0625 0.625 0.7625
3.0625 0.5625 0.7625
3.0625 0.5625 0.7
3.0625 0.625 0.7
3.125 0.625 0.7625
3.0625 0.5625 0.825
3.125 0.5625 0.825
3.0625 0.625 0.825
3.125 0.5625 0.7625
3.125 0.5625 0.7
3.1875 0.625 0.7625
3.1875 0.5625 0.7625
3.1875 0.5625 0.7
3.1875 0.625 0.7
3.25 0.625 0.7625
3.1875 0.5625 0.825
3.25 0.5625 0.825
3.1875 0.625 0.825
3.25 0.5625 0.7625
3.25 0.5625 0.7
3.3125 0.625 0.7625
3.3125 0.5625 0.7625
3.3125 0.5625 0.7
3.3125 0.625 0.7
3.375 0.625 0.7625
3.3125 0.5625 0.825
3.375 0.5625 0.825
3.3125 0.625 0.825
3.375 0.5625 0.7625
3.375 0.5625 0.7
3.4375 0.625 0.7625
3.4375 0.5625 0.7625
3.4375 0.5625 0.7
3.4375 0.625 0.7
3.5 0.625 0.7625
3.4375 0.5625 0.825
3.5 0.5625 0.825
3.4375 0.625 0.825
3.5 0.5625 0.7625
3.5 0.5625 0.7
3.5625 0.625 0.7625
3.5625 0.5625 0.7625
3.5625 0.5625 0.7
3.5625 0.625 0.7
3.625 0.625 0.7625
3.5625 0.5625 0.825
3.625 0.5625 0.825
3.5625 0.625 0.825
3.625 0.5625 0.7625
3.625 0.5625 0.7
3.6875 0.625 0.7625
3.6875 0.5625 0.7625
3.6875 0.5625 0.7
3.6875 0.625 0.7
3.75 0.625 0.7625
3.6875 0.5625 0.825
3.75 0.5625 0.825
3.6875 0.625 0.825
3.75 0.5625 0.7625
3.75 0.5625 0.7
3.8125 0.625 0.7625
3.8125 0.5625 0.7625
3.8125 0.5625 0.7
3.8125 0.625 0.7
3.875 0.625 0.7625
3.8125 0.5625 0.825
3.875 0.5625 0.825
3.8125 0.625 0.825
3.875 0.5625 0.7625
3.875 0.5625 0.7
3.9375 0.625 0.7625
3.9375 0.5625 0.7625
3.9375 0.5625 0.7
3.9375 0.625 0.7
4 0.625 0.7625
3.9375 0.5625 0.825
4 0.5625 0.825
3.9375 0.625 0.825
4 0.5625 0.7625
4 0.5625 0.7
0 0.6875 0.7
0.0625 0.75 0.7625
0.0625 0.6875 0.7625
0.0625 0.6875 0.7
0.0625 0.75 0.7
0.125 0.75 0.7625
0.0625 0.6875 0.825
0.125 0.6875 0.825
0 0.75 0.7625
0 0.6875 0.7625
0.0625 0.75 0.825
0 0.6875 0.825
0.125 0.6875 0.7625
0.125 0.6875 0.7
0.1875 0.75 0.7625
0.1875 0.6875 0.7625
0.1875 0.6875 0.7
0.1875 0.75 0.7
0.25 0.75 0.7625
0.1875 0.6875 0.825
0.25 0.6875 0.825
0.1875 0.75 0.825
0.25 0.6875 0.7625
0.25 0.6875 0.7
0.3125 0.75 0.7625
0.3125 0.6875 0.7625
0.3125 0.6875 0.7
0.3125 0.75 0.7
0.375 0.75 0.7625
0.3125 0.6875 0.825
0.375 0.6875 0.825
0.3125 0.75 0.825
0.375 0.6875 0.7625
0.375 0.6875 0.7
0.4375 0.75 0.7625
0.4375 0.6875 0.7625
0.4375 0.6875 0.7
0.4375 0.75 0.7
0.5 0.75 0.7625
0.4375 0.6875 0.825
0.5 0.6875 0.825
0.4375 0.75 0.825
0.5 0.6875 0.7625
0.5 0.6875 0.7
0.5625 0.75 0.7625
0.5625 0.6875 0.7625
0.5625 0.6875 0.7
0.5625 0.75 0.7
0.625 0.75 0.7625
0.5625 0.6875 0.825
0.625 0.6875 0.825
0.5625 0.75 0.825
0.625 0.6875 0.7625
0.625 0.6875 0.7
0.6875 0.75 0.7625
0.6875 0.6875 0.7625
0.6875 0.6875 0.7
0.6875 0.75 0.7
0.75 0.75 0.7625
0.6875 0.6875 0.825
0.75 0.6875 0.825
0.6875 0.75 0.825
0.75 0.6875 0.7625
0.75 0.6875 0.7
0.8125 0.75 0.7625
0.8125 0.6875 0.7625
0.8125 0.6875 0.7
0.8125 0.75 0.7
0.875 0.75 0.7625
0.8125 0.6875 0.825
0.875 0.6875 0.825
0.8125 0.75 0.825
0.875 0.6875 0.7625
0.875 0.6875 0.7
0.9375 0.75 0.7625
0.9375 0.6875 0.7625
0.9375 0.6875 0.7
0.9375 0.75 0.7
1 0.75 0.7625
0.9375 0.6875 0.825
1 0.6875 0.825
0.9375 0.75 0.825
1 0.6875 0.7625
1 0.6875 0.7
1.0625 0.75 0.7625
1.0625 0.6875 0.7625
1.0625 0.6875 0.7
1.0625 0.75 0.7
1.125 0.75 0.7625
1.0625 0.6875 0.825
1.125 0.6875 0.825
1.0625 0.75 0.825
1.125 0.6875 0.7625
1.125 0.6875 0.7
1.1875 0.75 0.7625
1.1875 0.6875 0.7625
1.1875 0.6875 0.7
1.1875 0.75 0.7
1.25 0.75 0.7625
1.1875 0.6875 0.825
1.25 0.6875 0.825
1.1875 0.75 0.825
1.25 0.6875 0.7625
1.25 0.6875 0.7
1.3125 0.75 0.7625
1.3125 0.6875 0.7625
1.3125 0.6875 0.7
1.3125 0.75 0.7
1.375 0.75 0.7625
1.3125 0.6875 0.825
1.375 0.6875 0.825
1.3125 0.75 0.825
1.375 0.6875 0.7625
1.375 0.6875 0.7
1.4375 0.75 0.7625
1.4375 0.6875 0.7625
1.4375 0.6875 0.7
1.4375 0.75 0.7
1.5 0.75 0.7625
1.4375 0.6875 0.825
1.5 0.6875 0.825
1.4375 0.75 0.825
1.5 0.6875 0.7625
1.5 0.6875 0.7
1.5625 0.75 0.7625
1.5625 0.6875 0.7625
1.5625 0.6875 0.7
1.5625 0.75 0.7
1.625 0.75 0.7625
1.5625 0.6875 0.825
1.625 0.6875 0.825
1.5625 0.75 0.825
1.625 0.6875 0.7625
1.625 0.6875 0.7
1.6875 0.75 0.7625
1.6875 0.6875 0.7625
1.6875 0.6875 0.7
1.6875 0.75 0.7
1.75 0.75 0.7625
1.6875 0.6875 0.825
1.75 0.6875 0.825
1.6875 0.75 0.825
1.75 0.6875 0.7625
1.75 0.6875 0.7
1.8125 0.75 0.7625
1.8125 0.6875 0.7625
1.8125 0.6875 0.7
1.8125 0.75 0.7
1.875 0.75 0.7625
1.8125 0.6875 0.825
1.875 0.6875 0.825
1.8125 0.75 0.825
1.875 0.6875 0.7625
1.875 0.6875 0.7
1.9375 0.75 0.7625
1.9375 0.6875 0.7625
1.9375 0.6875 0.7
1.9375 0.75 0.7
2 0.75 0.7625
1.9375 0.6875 0.825
2 0.6875 0.825
1.9375 0.75 0.825
2 0.6875 0.7625
2 0.6875 0.7
2.0625 0.75 0.7625
2.0625 0.6875 0.7625
2.0625 0.6875 0.7
2.0625 0.75 0.7
2.125 0.75 0.7625
2.0625 0.6875 0.825
2.125 0.6875 0.825
2.0625 0.75 0.825
2.125 0.6875 0.7625
2.125 0.6875 0.7
2.1875 0.75 0.7625
2.1875 0.6875 0.7625
2.1875 0.6875 0.7
2.1875 0.75 0.7
2.25 0.75 0.7625
2.1875 0.6875 0.825
2.25 0.6875 0.825
2.1875 0.75 0.825
2.25 0.6875 0.7625
2.25 0.6875 0.7
2.3125 0.75 0.7625
2.3125 0.6875 0.7625
2.3125 0.6875 0.7
2.3125 0.75 0.7
2.375 0.75 0.7625
2.3125 0.6875 0.825
2.375 0.6875 0.825
2.3125 0.75 0.825
2.375 0.6875 0.7625
2.375 0.6875 0.7
2.4375 0.75 0.7625
2.4375 0.6875 0.7625
2.4375 0.6875 0.7
2.4375 0.75 0.7
2.5 0.75 0.7625
2.4375 0.6875 0.825
2.5 0.6875 0.825
2.4375 0.75 0.825
2.5 0.6875 0.7625
2.5 0.6875 0.7
2.5625 0.75 0.7625
2.5625 0.6875 0.7625
2.5625 0.6875 0.7
2.5625 0.75 0.7
2.625 0.75 0.7625
2.5625 0.6875 0.825
2.625 0.6875 0.825
2.5625 0.75 0.825
2.625 0.6875 0.7625
2.625 0.6875 0.7
2.6875 0.75 0.7625
2.6875 0.6875 0.7625
2.6875 0.6875 0.7
2.6875 0.75 0.7
2.75 0.75 0.7625
2.6875 0.6875 0.825
2.75 0.6875 0.825
2.6875 0.75 0.825
2.75 0.6875 0.7625
2.75 0.6875 0.7
2.8125 0.75 0.7625
2.8125 0.6875 0.7625
2.8125 0.6875 0.7
2.8125 0.75 0.7
2.875 0.75 0.7625
2.8125 0.6875 0.825
2.875 0.6875 0.825
2.8125 0.75 0.825
2.875 0.6875 0.7625
2.875 0.6875 0.7
2.9375 0.75 0.7625
2.9375 0.6875 0.7625
2.9375 0.6875 0.7
2.9375 0.75 0.7
3 0.75 0.7625
2.9375 0.6875 0.825
3 0.6875 0.825
2.9375 0.75 0.825
3 0.6875 0.7625
3 0.6875 0.7
3.0625 0.75 0.7625
3.0625 0.6875 0.7625
3.0625 0.6875 0.7
3.0625 0.75 0.7
3.125 0.75 0.7625
3.0625 0.6875 0.825
3.125 0.6875 0.825
3.0625 0.75 0.825
3.125 0.6875 0.7625
3.125 0.6875 0.7
3.1875 0.75 0.7625
3.1875 0.6875 0.7625
3.1875 0.6875 0.7
3.1875 0.75 0.7
3.25 0.75 0.7625
3.1875 0.6875 0.825
3.25 0.6875 0.825
3.1875 0.75 0.825
3.25 0.6875 0.7625
3.25 0.6875 0.7
3.3125 0.75 0.7625
3.3125 0.6875 0.7625
3.3125 0.6875 0.7
3.3125 0.75 0.7
3.375 0.75 0.7625
3.3125 0.6875 0.825
3.375 0.6875 0.825
3.3125 0.75 0.825
3.375 0.6875 0.7625
3.375 0.6875 0.7
3.4375 0.75 0.7625
3.4375 0.6875 0.7625
3.4375 0.6875 0.7
3.4375 0.75 0.7
3.5 0.75 0.7625
3.4375 0.6875 0.825
3.5 0.6875 0.825
3.4375 0.75 0.825
3.5 0.6875 0.7625
3.5 0.6875 0.7
3.5625 0.75 0.7625
3.5625 0.6875 0.7625
3.5625 0.6875 0.7
3.5625 0.75 0.7
3.625 0.75 0.7625
3.5625 0.6875 0.825
3.625 0.6875 0.825
3.5625 0.75 0.825
3.625 0.6875 0.7625
3.625 0.6875 0.7
3.6875 0.75 0.7625
3.6875 0.6875 0.7625
3.6875 0.6875 0.7
3.6875 0.75 0.7
3.75 0.75 0.7625
3.6875 0.6875 0.825
3.75 0.6875 0.825
3.6875 0.75 0.825
3.75 0.6875 0.7625
3.75 0.6875 0.7
3.8125 0.75 0.7625
3.8125 0.6875 0.7625
3.8125 0.6875 0.7
3.8125 0.75 0.7
3.875 0.75 0.7625
3.8125 0.6875 0.825
3.875 0.6875 0.825
3.8125 0.75 0.825
3.875 0.6875 0.7625
3.875 0.6875 0.7
3.9375 0.75 0.7625
3.9375 0.6875 0.7625
3.9375 0.6875 0.7
3.9375 0.75 0.7
4 0.75 0.7625
3.9375 0.6875 0.825
4 0.6875 0.825
3.9375 0.75 0.825
4 0.6875 0.7625
4 0.6875 0.7
0 0.8125 0.7
0.0625 0.875 0.7625
0.0625 0.8125 0.7625
0.0625 0.8125 0.7
0.0625 0.875 0.7
0.125 0.875 0.7625
0.0625 0.8125 0.825
0.125 0.8125 0.825
0 0.875 0.7625
0 0.8125 0.7625
0.0625 0.875 0.825
0 0.8125 0.825
0.125 0.8125 0.7625
0.125 0.8125 0.7
0.1875 0.875 0.7625
0.1875 0.8125 0.7625
0.1875 0.8125 0.7
0.1875 0.875 0.7
0.25 0.875 0.7625
0.1875 0.8125 0.825
0.25 0.8125 0.825
0.1875 0.875 0.825
0.25 0.8125 0.7625
0.25 0.8125 0.7
0.3125 0.875 0.7625
0.3125 0.8125 0.7625
0.3125 0.8125 0.7
0.3125 0.875 0.7
0.375 0.875 0.7625
0.3125 0.8125 0.825
0.375 0.8125 0.825
0.3125 0.875 0.825
0.375 0.8125 0.7625
0.375 0.8125 0.7
0.4375 0.875 0.7625
0.4375 0.8125 0.7625
0.4375 0.8125 0.7
0.4375 0.875 0.7
0.5 0.875 0.7625
0.4375 0.8125 0.825
0.5 0.8125 0.825
0.4375 0.875 0.825
0.5 0.8125 0.7625
0.5 0.8125 0.7
0.5625 0.875 0.7625
0.5625 0.8125 0.7625
0.5625 0.8125 0.7
0.5625 0.875 0.7
0.625 0.875 0.7625
0.5625 0.8125 0.825
0.625 0.8125 0.825
0.5625 0.875 0.825
0.625 0.8125 0.7625
0.625 0.8125 0.7
0.6875 0.875 0.7625
0.6875 0.8125 0.7625
0.6875 0.8125 0.7
0.6875 0.875 0.7
0.75 0.875 0.7625
0.6875 0.8125 0.825
0.75 0.8125 0.825
0.6875 0.875 0.825
0.75 0.8125 0.7625
0.75 0.8125 0.7
0.8125 0.875 0.7625
0.8125 0.8125 0.7625
0.8125 0.8125 0.7
0.8125 0.875 0.7
0.875 0.875 0.7625
0.8125 0.8125 0.825
0.875 0.8125 0.825
0.8125 0.875 0.825
0.875 0.8125 0.7625
0.875 0.8125 0.7
0.9375 0.875 0.7625
0.9375 0.8125 0.7625
0.9375 0.8125 0.7
0.9375 0.875 0.7
1 0.875 0.7625
0.9375 0.8125 0.825
1 0.8125 0.825
0.9375 0.875 0.825
1 0.8125 0.7625
1 0.8125 0.7
1.0625 0.875 0.7625
1.0625 0.8125 0.7625
1.0625 0.8125 0.7
1.0625 0.875 0.7
1.125 0.875 0.7625
1.0625 0.8125 0.825
1.125 0.8125 0.825
1.0625 0.875 0.825
1.125 0.8125 0.7625
1.125 0.8125 0.7
1.1875 0.875 0.7625
1.1875 0.8125 0.7625
1.1875 0.8125 0.7
1.1875 0.875 0.7
1.25 0.875 0.7625
1.1875 0.8125 0.825
1.25 0.8125 0.825
1.1875 0.875 0.825
1.25 0.8125 0.7625
1.25 0.8125 0.7
1.3125 0.875 0.7625
1.3125 0.8125 0.7625
1.3125 0.8125 0.7
1.3125 0.875 0.7
1.375 0.875 0.7625
1.3125 0.8125 0.825
1.375 0.8125 0.825
1.3125 0.875 0.825
1.375 0.8125 0.7625
1.375 0.8125 0.7
1.4375 0.875 0.7625
1.4375 0.8125 0.7625
1.4375 0.8125 0.7
1.4375 0.875 0.7
1.5 0.875 0.7625
1.4375 0.8125 0.825
1.5 0.8125 0.825
1.4375 0.875 0.825
1.5 0.8125 0.7625
1.5 0.8125 0.7
1.5625 0.875 0.7625
1.5625 0.8125 0.7625
1.5625 0.8125 0.7
1.5625 0.875 0.7
1.625 0.875 0.7625
1.5625 0.8125 0.825
1.625 0.8125 0.825
1.5625 0.875 0.825
1.625 0.8125 0.7625
1.625 0.8125 0.7
1.6875 0.875 0.7625
1.6875 0.8125 0.7625
1.6875 0.8125 0.7
1.6875 0.875 0.7
1.75 0.875 0.7625
1.6875 0.8125 0.825
1.75 0.8125 0.825
1.6875 0.875 0.825
1.75 0.8125 0.7625
1.75 0.8125 0.7
1.8125 0.875 0.7625
1.8125 0.8125 0.7625
1.8125 0.8125 0.7
1.8125 0.875 0.7
1.875 0.875 0.7625
1.8125 0.8125 0.825
1.875 0.8125 0.825
1.8125 0.875 0.825
1.875 0.8125 0.7625
1.875 0.8125 0.7
1.9375 0.875 0.7625
1.9375 0.8125 0.7625
1.9375 0.8125 0.7
1.9375 0.875 0.7
2 0.875 0.7625
1.9375 0.8125 0.825
2 0.8125 0.825
1.9375 0.875 0.825
2 0.8125 0.7625
2 0.8125 0.7
2.0625 0.875 0.7625
2.0625 0.8125 0.7625
2.0625 0.8125 0.7
2.0625 0.875 0.7
2.125 0.875 0.7625
2.0625 0.8125 0.825
2.125 0.8125 0.825
2.0625 0.875 0.825
2.125 0.8125 0.7625
2.125 0.8125 0.7
2.1875 0.875 0.7625
2.1875 0.8125 0.7625
2.1875 0.8125 0.7
2.1875 0.875 0.7
2.25 0.875 0.7625
2.1875 0.8125 0.825
2.25 0.8125 0.825
2.1875 0.875 0.825
2.25 0.8125 0.7625
2.25 0.8125 0.7
2.3125 0.875 0.7625
2.3125 0.8125 0.7625
2.3125 0.8125 0.7
2.3125 0.875 0.7
2.375 0.875 0.7625
2.3125 0.8125 0.825
2.375 0.8125 0.825
2.3125 0.875 0.825
2.375 0.8125 0.7625
2.375 0.8125 0.7
2.4375 0.875 0.7625
2.4375 0.8125 0.7625
2.4375 0.8125 0.7
2.4375 0.875 0.7
2.5 0.875 0.7625
2.4375 0.8125 0.825
2.5 0.8125 0.825
2.4375 0.875 0.825
2.5 0.8125 0.7625
2.5 0.8125 0.7
2.5625 0.875 0.7625
2.5625 0.8125 0.7625
2.5625 0.8125 0.7
2.5625 0.875 0.7
2.625 0.875 0.7625
2.5625 0.8125 0.825
2.625 0.8125 0.825
2.5625 0.875 0.825
2.625 0.8125 0.7625
2.625 0.8125 0.7
2.6875 0.875 0.7625
2.6875 0.8125 0.7625
2.6875 0.8125 0.7
2.6875 0.875 0.7
2.75 0.875 0.7625
2.6875 0.8125 0.825
2.75 0.8125 0.825
2.6875 0.875 0.825
2.75 0.8125 0.7625
2.75 0.8125 0.7
2.8125 0.875 0.7625
2.8125 0.8125 0.7625
2.8125 0.8125 0.7
2.8125 0.875 0.7
2.875 0.875 0.7625
2.8125 0.8125 0.825
2.875 0.8125 0.825
2.8125 0.875 0.825
2.875 0.8125 0.7625
2.875 0.8125 0.7
2.9375 0.875 0.7625
2.9375 0.8125 0.7625
2.9375 0.8125 0.7
2.9375 0.875 0.7
3 0.875 0.7625
2.9375 0.8125 0.825
3 0.8125 0.825
2.9375 0.875 0.825
3 0.8125 0.7625
3 0.8125 0.7
3.0625 0.875 0.7625
3.0625 0.8125 0.7625
3.0625 0.8125 0.7
3.0625 0.875 0.7
3.125 0.875 0.7625
3.0625 0.8125 0.825
3.125 0.8125 0.825
3.0625 0.875 0.825
3.125 0.8125 0.7625
3.125 0.8125 0.7
3.1875 0.875 0.7625
3.1875 0.8125 0.7625
3.1875 0.8125 0.7
3.1875 0.875 0.7
3.25 0.875 0.7625
3.1875 0.8125 0.825
3.25 0.8125 0.825
3.1875 0.875 0.825
3.25 0.8125 0.7625
3.25 0.8125 0.7
3.3125 0.875 0.7625
3.3125 0.8125 0.7625
3.3125 0.8125 0.7
3.3125 0.875 0.7
3.375 0.875 0.7625
3.3125 0.8125 0.825
3.375 0.8125 0.825
3.3125 0.875 0.825
3.375 0.8125 0.7625
3.375 0.8125 0.7
3.4375 0.875 0.7625
3.4375 0.8125 0.7625
3.4375 0.8125 0.7
3.4375 0.875 0.7
3.5 0.875 0.7625
3.4375 0.8125 0.825
3.5 0.8125 0.825
3.4375 0.875 0.825
3.5 0.8125 0.7625
3.5 0.8125 0.7
3.5625 0.875 0.7625
3.5625 0.8125 0.7625
3.5625 0.8125 0.7
3.5625 0.875 0.7
3.625 0.875 0.7625
3.5625 0.8125 0.825
3.625 0.8125 0.825
3.5625 0.875 0.825
3.625 0.8125 0.7625
3.625 0.8125 0.7
3.6875 0.875 0.7625
3.6875 0.8125 0.7625
3.6875 0.8125 0.7
3.6875 0.875 0.7
3.75 0.875 0.7625
3.6875 0.8125 0.825
3.75 0.8125 0.825
3.6875 0.875 0.825
3.75 0.8125 0.7625
3.75 0.8125 0.7
3.8125 0.875 0.7625
3.8125 0.8125 0.7625
3.8125 0.8125 0.7
3.8125 0.875 0.7
3.875 0.875 0.7625
3.8125 0.8125 0.825
3.875 0.8125 0.825
3.8125 0.875 0.825
3.875 0.8125 0.7625
3.875 0.8125 0.7
3.9375 0.875 0.7625
3.9375 0.8125 0.7625
3.9375 0.8125 0.7
3.9375 0.875 0.7
4 0.875 0.7625
3.9375 0.8125 0.825
4 0.8125 0.825
3.9375 0.875 0.825
4 0.8125 0.7625
4 0.8125 0.7
0 0.9375 0.7
0.0625 1 0.7625
0.0625 0.9375 0.7625
0.0625 0.9375 0.7
0.0625 1 0.7
0.125 1 0.7625
0.0625 0.9375 0.825
0.125 0.9375 0.825
0 1 0.7625
0 0.9375 0.7625
0.0625 1 0.825
0 0.9375 0.825
0.125 0.9375 0.7625
0.125 0.9375 0.7
0.1875 1 0.7625
0.1875 0.9375 0.7625
0.1875 0.9375 0.7
0.1875 1 0.7
0.25 1 0.7625
0.1875 0.9375 0.825
0.25 0.9375 0.825
0.1875 1 0.825
0.25 0.9375 0.7625
0.25 0.9375 0.7
0.3125 1 0.7625
0.3125 0.9375 0.7625
0.3125 0.9375 0.7
0.3125 1 0.7
0.375 1 0.7625
0.3125 0.9375 0.825
0.375 0.9375 0.825
0.3125 1 0.825
0.375 0.9375 0.7625
0.375 0.9375 0.7
0.4375 1 0.7625
0.4375 0.9375 0.7625
0.4375 0.9375 0.7
0.4375 1 0.7
0.5 1 0.7625
0.4375 0.9375 0.825
0.5 0.9375 0.825
0.4375 1 0.825
0.5 0.9375 0.7625
0.5 0.9375 0.7
0.5625 1 0.7625
0.5625 0.9375 0.7625
0.5625 0.9375 0.7
0.5625 1 0.7
0.625 1 0.7625
0.5625 0.9375 0.825
0.625 0.9375 0.825
0.5625 1 0.825
0.625 0.9375 0.7625
0.625 0.9375 0.7
0.6875 1 0.7625
0.6875 0.9375 0.7625
0.6875 0.9375 0.7
0.6875 1 0.7
0.75 1 0.7625
0.6875 0.9375 0.825
0.75 0.9375 0.825
0.6875 1 0.825
0.75 0.9375 0.7625
0.75 0.9375 0.7
0.8125 1 0.7625
0.8125 0.9375 0.7625
0.8125 0.9375 0.7
0.8125 1 0.7
0.875 1 0.7625
0.8125 0.9375 0.825
0.875 0.9375 0.825
0.8125 1 0.825
0.875 0.9375 0.7625
0.875 0.9375 0.7
0.9375 1 0.7625
0.9375 0.9375 0.7625
0.9375 0.9375 0.7
0.9375 1 0.7
1 1 0.7625
0.9375 0.9375 0.825
1 0.9375 0.825
0.9375 1 0.825
1 0.9375 0.7625
1 0.9375 0.7
1.0625 1 0.7625
1.0625 0.9375 0.7625
1.0625 0.9375 0.7
1.0625 1 0.7
1.125 1 0.7625
1.0625 0.9375 0.825
1.125 0.9375 0.825
1.0625 1 0.825
1.125 0.9375 0.7625
1.125 0.9375 0.7
1.1875 1 0.7625
1.1875 0.9375 0.7625
1.1875 0.9375 0.7
1.1875 1 0.7
1.25 1 0.7625
1.1875 0.9375 0.825
1.25 0.9375 0.825
1.1875 1 0.825
1.25 0.9375 0.7625
1.25 0.9375 0.7
1.3125 1 0.7625
1.3125 0.9375 0.7625
1.3125 0.9375 0.7
1.3125 1 0.7
1.375 1 0.7625
1.3125 0.9375 0.825
1.375 0.9375 0.825
1.3125 1 0.825
1.375 0.9375 0.7625
1.375 0.9375 0.7
1.4375 1 0.7625
1.4375 0.9375 0.7625
1.4375 0.9375 0.7
1.4375 1 0.7
1.5 1 0.7625
1.4375 0.9375 0.825
1.5 0.9375 0.825
1.4375 1 0.825
1.5 0.9375 0.7625
1.5 0.9375 0.7
1.5625 1 0.7625
1.5625 0.9375 0.7625
1.5625 0.9375 0.7
1.5625 1 0.7
1.625 1 0.7625
1.5625 0.9375 0.825
1.625 0.9375 0.825
1.5625 1 0.825
1.625 0.9375 0.7625
1.625 0.9375 0.7
1.6875 1 0.7625
1.6875 0.9375 0.7625
1.6875 0.9375 0.7
1.6875 1 0.7
1.75 1 0.7625
1.6875 0.9375 0.825
1.75 0.9375 0.825
1.6875 1 0.825
1.75 0.9375 0.7625
1.75 0.9375 0.7
1.8125 1 0.7625
1.8125 0.9375 0.7625
1.8125 0.9375 0.7
1.8125 1 0.7
1.875 1 0.7625
1.8125 0.9375 0.825
1.875 0.9375 0.825
1.8125 1 0.825
1.875 0.9375 0.7625
1.875 0.9375 0.7
1.9375 1 0.7625
1.9375 0.9375 0.7625
1.9375 0.9375 0.7
1.9375 1 0.7
2 1 0.7625
1.9375 0.9375 0.825
2 0.9375 0.825
1.9375 1 0.825
2 0.9375 0.7625
2 0.9375 0.7
2.0625 1 0.7625
2.0625 0.9375 0.7625
2.0625 0.9375 0.7
2.0625 1 0.7
2.125 1 0.7625
2.0625 0.9375 0.825
2.125 0.9375 0.825
2.0625 1 0.825
2.125 0.9375 0.7625
2.125 0.9375 0.7
2.1875 1 0.7625
2.1875 0.9375 0.7625
2.1875 0.9375 0.7
2.1875 1 0.7
2.25 1 0.7625
2.1875 0.9375 0.825
2.25 0.9375 0.825
2.1875 1 0.825
2.25 0.9375 0.7625
2.25 0.9375 0.7
2.3125 1 0.7625
2.3125 0.9375 0.7625
2.3125 0.9375 0.7
2.3125 1 0.7
2.375 1 0.7625
2.3125 0.9375 0.825
2.375 0.9375 0.825
2.3125 1 0.825
2.375 0.9375 0.7625
2.375 0.9375 0.7
2.4375 1 0.7625
2.4375 0.9375 0.7625
2.4375 0.9375 0.7
2.4375 1 0.7
2.5 1 0.7625
2.4375 0.9375 0.825
2.5 0.9375 0.825
2.4375 1 0.825
2.5 0.9375 0.7625
2.5 0.9375 0.7
2.5625 1 0.7625
2.5625 0.9375 0.7625
2.5625 0.9375 0.7
2.5625 1 0.7
2.625 1 0.7625
2.5625 0.9375 0.825
2.625 0.9375 0.825
2.5625 1 0.825
2.625 0.9375 0.7625
2.625 0.9375 0.7
2.6875 1 0.7625
2.6875 0.9375 0.7625
2.6875 0.9375 0.7
2.6875 1 0.7
2.75 1 0.7625
2.6875 0.9375 0.825
2.75 0.9375 0.825
2.6875 1 0.825
2.75 0.9375 0.7625
2.75 0.9375 0.7
2.8125 1 0.7625
2.8125 0.9375 0.7625
2.8125 0.9375 0.7
2.8125 1 0.7
2.875 1 0.7625
2.8125 0.9375 0.825
2.875 0.9375 0.825
2.8125 1 0.825
2.875 0.9375 0.7625
2.875 0.9375 0.7
2.9375 1 0.7625
2.9375 0.9375 0.7625
2.9375 0.9375 0.7
2.9375 1 0.7
3 1 0.7625
2.9375 0.9375 0.825
3 0.9375 0.825
2.9375 1 0.825
3 0.9375 0.7625
3 0.9375 0.7
3.0625 1 0.7625
3.0625 0.9375 0.7625
3.0625 0.9375 0.7
3.0625 1 0.7
3.125 1 0.7625
3.0625 0.9375 0.825
3.125 0.9375 0.825
3.0625 1 0.825
3.125 0.9375 0.7625
3.125 0.9375 0.7
3.1875 1 0.7625
3.1875 0.9375 0.7625
3.1875 0.9375 0.7
3.1875 1 0.7
3.25 1 0.7625
3.1875 0.9375 0.825
3.25 0.9375 0.825
3.1875 1 0.825
3.25 0.9375 0.7625
3.25 0.9375 0.7
3.3125 1 0.7625
3.3125 0.9375 0.7625
3.3125 0.9375 0.7
3.3125 1 0.7
3.375 1 0.7625
3.3125 0.9375 0.825
3.375 0.9375 0.825
3.3125 1 0.825
3.375 0.9375 0.7625
3.375 0.9375 0.7
3.4375 1 0.7625
3.4375 0.9375 0.7625
3.4375 0.9375 0.7
3.4375 1 0.7
3.5 1 0.7625
3.4375 0.9375 0.825
3.5 0.9375 0.825
3.4375 1 0.825
3.5 0.9375 0.7625
3.5 0.9375 0.7
3.5625 1 0.7625
3.5625 0.9375 0.7625
3.5625 0.9375 0.7
3.5625 1 0.7
3.625 1 0.7625
3.5625 0.9375 0.825
3.625 0.9375 0.825
3.5625 1 0.825
3.625 0.9375 0.7625
3.625 0.9375 0.7
3.6875 1 0.7625
3.6875 0.9375 0.7625
3.6875 0.9375 0.7
3.6875 1 0.7
3.75 1 0.7625
3.6875 0.9375 0.825
3.75 0.9375 0.825
3.6875 1 0.825
3.75 0.9375 0.7625
3.75 0.9375 0.7
3.8125 1 0.7625
3.8125 0.9375 0.7625
3.8125 0.9375 0.7
3.8125 1 0.7
3.875 1 0.7625
3.8125 0.9375 0.825
3.875 0.9375 0.825
3.8125 1 0.825
3.875 0.9375 0.7625
3.875 0.9375 0.7
3.9375 1 0.7625
3.9375 0.9375 0.7625
3.9375 0.9375 0.7
3.9375 1 0.7
4 1 0.7625
3.9375 0.9375 0.825
4 0.9375 0.825
3.9375 1 0.825
4 0.9375 0.7625
4 0.9375 0.7
0.0625 0.125 0.8875
0.0625 0.0625 0.8875
0.125 0.125 0.8875
0.0625 0.0625 0.95
0.125 0.0625 0.95
0.0625 0 0.95
0 0 0.8875
0.0625 0 0.8875
0 0.125 0.8875
0 0.0625 0.8875
0.0625 0.125 0.95
0 0.0625 0.95
0.125 0 0.8875
0.125 0.0625 0.8875
0.1875 0.125 0.8875
0.1875 0.0625 0.8875
0.25 0.125 0.8875
0.1875 0.0625 0.95
0.25 0.0625 0.95
0.1875 0 0.95
0.1875 0 0.8875
0.1875 0.125 0.95
0.25 0 0.8875
0.25 0.0625 0.8875
0.3125 0.125 0.8875
0.3125 0.0625 0.8875
0.375 0.125 0.8875
0.3125 0.0625 0.95
0.375 0.0625 0.95
0.3125 0 0.95
0.3125 0 0.8875
0.3125 0.125 0.95
0.375 0 0.8875
0.375 0.0625 0.8875
0.4375 0.125 0.8875
0.4375 0.0625 0.8875
0.5 0.125 0.8875
0.4375 0.0625 0.95
0.5 0.0625 0.95
0.4375 0 0.95
0.4375 0 0.8875
0.4375 0.125 0.95
0.5 0 0.8875
0.5 0.0625 0.8875
0.5625 0.125 0.8875
0.5625 0.0625 0.8875
0.625 0.125 0.8875
0.5625 0.0625 0.95
0.625 0.0625 0.95
0.5625 0 0.95
0.5625 0 0.8875
0.5625 0.125 0.95
0.625 0 0.8875
0.625 0.0625 0.8875
0.6875 0.125 0.8875
0.6875 0.0625 0.8875
0.75 0.125 0.8875
0.6875 0.0625 0.95
0.75 0.0625 0.95
0.6875 0 0.95
0.6875 0 0.8875
0.6875 0.125 0.95
0.75 0 0.8875
0.75 0.0625 0.8875
0.8125 0.125 0.8875
0.8125 0.0625 0.8875
0.875 0.125 0.8875
0.8125 0.0625 0.95
0.875 0.0625 0.95
0.8125 0 0.95
0.8125 0 0.8875
0.8125 0.125 0.95
0.875 0 0.8875
0.875 0.0625 0.8875
0.9375 0.125 0.8875
0.9375 0.0625 0.8875
1 0.125 0.8875
0.9375 0.0625 0.95
1 0.0625 0.95
0.9375 0 0.95
0.9375 0 0.8875
0.9375 0.125 0.95
1 0 0.8875
1 0.0625 0.8875
1.0625 0.125 0.8875
1.0625 0.0625 0.8875
1.125 0.125 0.8875
1.0625 0.0625 0.95
1.125 0.0625 0.95
1.0625 0 0.95
1.0625 0 0.8875
1.0625 0.125 0.95
1.125 0 0.8875
1.125 0.0625 0.8875
1.1875 0.125 0.8875
1.1875 0.0625 0.8875
1.25 0.125 0.8875
1.1875 0.0625 0.95
1.25 0.0625 0.95
1.1875 0 0.95
1.1875 0 0.8875
1.1875 0.125 0.95
1.25 0 0.8875
1.25 0.0625 0.8875
1.3125 0.125 0.8875
1.3125 0.0625 0.8875
1.375 0.125 0.8875
1.3125 0.0625 0.95
1.375 0.0625 0.95
1.3125 0 0.95
1.3125 0 0.8875
1.3125 0.125 0.95
1.375 0 0.8875
1.375 0.0625 0.8875
1.4375 0.125 0.8875
1.4375 0.0625 0.8875
1.5 0.125 0.8875
1.4375 0.0625 0.95
1.5 0.0625 0.95
1.4375 0 0.95
1.4375 0 0.8875
1.4375 0.125 0.95
1.5 0 0.8875
1.5 0.0625 0.8875
1.5625 0.125 0.8875
1.5625 0.0625 0.8875
1.625 0.125 0.8875
1.5625 0.0625 0.95
1.625 0.0625 0.95
1.5625 0 0.95
1.5625 0 0.8875
1.5625 0.125 0.95
1.625 0 0.8875
1.625 0.0625 0.8875
1.6875 0.125 0.8875
1.6875 0.0625 0.8875
1.75 0.125 0.8875
1.6875 0.0625 0.95
1.75 0.0625 0.95
1.6875 0 0.95
1.6875 0 0.8875
1.6875 0.125 0.95
1.75 0 0.8875
1.75 0.0625 0.8875
1.8125 0.125 0.8875
1.8125 0.0625 0.8875
1.875 0.125 0.8875
1.8125 0.0625 0.95
1.875 0.0625 0.95
1.8125 0 0.95
1.8125 0 0.8875
1.8125 0.125 0.95
1.875 0 0.8875
1.875 0.0625 0.8875
1.9375 0.125 0.8875
1.9375 0.0625 0.8875
2 0.125 0.8875
1.9375 0.0625 0.95
2 0.0625 0.95
1.9375 0 0.95
1.9375 0 0.8875
1.9375 0.125 0.95
2 0 0.8875
2 0.0625 0.8875
2.0625 0.125 0.8875
2.0625 0.0625 0.8875
2.125 0.125 0.8875
2.0625 0.0625 0.95
2.125 0.0625 0.95
2.0625 0 0.95
2.0625 0 0.8875
2.0625 0.125 0.95
2.125 0 0.8875
2.125 0.0625 0.8875
2.1875 0.125 0.8875
2.1875 0.0625 0.8875
2.25 0.125 0.8875
2.1875 0.0625 0.95
2.25 0.0625 0.95
2.1875 0 0.95
2.1875 0 0.8875
2.1875 0.125 0.95
2.25 0 0.8875
2.25 0.0625 0.8875
2.3125 0.125 0.8875
2.3125 0.0625 0.8875
2.375 0.125 0.8875
2.3125 0.0625 0.95
2.375 0.0625 0.95
2.3125 0 0.95
2.3125 0 0.8875
2.3125 0.125 0.95
2.375 0 0.8875
2.375 0.0625 0.8875
2.4375 0.125 0.8875
2.4375 0.0625 0.8875
2.5 0.125 0.8875
2.4375 0.0625 0.95
2.5 0.0625 0.95
2.4375 0 0.95
2.4375 0 0.8875
2.4375 0.125 0.95
2.5 0 0.8875
2.5 0.0625 0.8875
2.5625 0.125 0.8875
2.5625 0.0625 0.8875
2.625 0.125 0.8875
2.5625 0.0625 0.95
2.625 0.0625 0.95
2.5625 0 0.95
2.5625 0 0.8875
2.5625 0.125 0.95
2.625 0 0.8875
2.625 0.0625 0.8875
2.6875 0.125 0.8875
2.6875 0.0625 0.8875
2.75 0.125 0.8875
2.6875 0.0625 0.95
2.75 0.0625 0.95
2.6875 0 0.95
2.6875 0 0.8875
2.6875 0.125 0.95
2.75 0 0.8875
2.75 0.0625 0.8875
2.8125 0.125 0.8875
2.8125 0.0625 0.8875
2.875 0.125 0.8875
2.8125 0.0625 0.95
2.875 0.0625 0.95
2.8125 0 0.95
2.8125 0 0.8875
2.8125 0.125 0.95
2.875 0 0.8875
2.875 0.0625 0.8875
2.9375 0.125 0.8875
2.9375 0.0625 0.8875
3 0.125 0.8875
2.9375 0.0625 0.95
3 0.0625 0.95
2.9375 0 0.95
2.9375 0 0.8875
2.9375 0.125 0.95
3 0 0.8875
3 0.0625 0.8875
3.0625 0.125 0.8875
3.0625 0.0625 0.8875
3.125 0.125 0.8875
3.0625 0.0625 0.95
3.125 0.0625 0.95
3.0625 0 0.95
3.0625 0 0.8875
3.0625 0.125 0.95
3.125 0 0.8875
3.125 0.0625 0.8875
3.1875 0.125 0.8875
3.1875 0.0625 0.8875
3.25 0.125 0.8875
3.1875 0.0625 0.95
3.25 0.0625 0.95
3.1875 0 0.95
3.1875 0 0.8875
3.1875 0.125 0.95
3.25 0 0.8875
3.25 0.0625 0.8875
3.3125 0.125 0.8875
3.3125 0.0625 0.8875
3.375 0.125 0.8875
3.3125 0.0625 0.95
3.375 0.0625 0.95
3.3125 0 0.95
3.3125 0 0.8875
3.3125 0.125 0.95
3.375 0 0.8875
3.375 0.0625 0.8875
3.4375 0.125 0.8875
3.4375 0.0625 0.8875
3.5 0.125 0.8875
3.4375 0.0625 0.95
3.5 0.0625 0.95
3.4375 0 0.95
3.4375 0 0.8875
3.4375 0.125 0.95
3.5 0 0.8875
3.5 0.0625 0.8875
3.5625 0.125 0.8875
3.5625 0.0625 0.8875
3.625 0.125 0.8875
3.5625 0.0625 0.95
3.625 0.0625 0.95
3.5625 0 0.95
3.5625 0 0.8875
3.5625 0.125 0.95
3.625 0 0.8875
3.625 0.0625 0.8875
3.6875 0.125 0.8875
3.6875 0.0625 0.8875
3.75 0.125 0.8875
3.6875 0.0625 0.95
3.75 0.0625 0.95
3.6875 0 0.95
3.6875 0 0.8875
3.6875 0.125 0.95
3.75 0 0.8875
3.75 0.0625 0.8875
3.8125 0.125 0.8875
3.8125 0.0625 0.8875
3.875 0.125 0.8875
3.8125 0.0625 0.95
3.875 0.0625 0.95
3.8125 0 0.95
3.8125 0 0.8875
3.8125 0.125 0.95
3.875 0 0.8875
3.875 0.0625 0.8875
3.9375 0.125 0.8875
3.9375 0.0625 0.8875
4 0.125 0.8875
3.9375 0.0625 0.95
4 0.0625 0.95
3.9375 0 0.95
3.9375 0 0.8875
3.9375 0.125 0.95
4 0 0.8875
4 0.0625 0.8875
0.0625 0.25 0.8875
0.0625 0.1875 0.8875
0.125 0.25 0.8875
0.0625 0.1875 0.95
0.125 0.1875 0.95
0 0.25 0.8875
0 0.1875 0.8875
0.0625 0.25 0.95
0 0.1875 0.95
0.125 0.1875 0.8875
0.1875 0.25 0.8875
0.1875 0.1875 0.8875
0.25 0.25 0.8875
0.1875 0.1875 0.95
0.25 0.1875 0.95
0.1875 0.25 0.95
0.25 0.1875 0.8875
0.3125 0.25 0.8875
0.3125 0.1875 0.8875
0.375 0.25 0.8875
0.3125 0.1875 0.95
0.375 0.1875 0.95
0.3125 0.25 0.95
0.375 0.1875 0.8875
0.4375 0.25 0.8875
0.4375 0.1875 0.8875
0.5 0.25 0.8875
0.4375 0.1875 0.95
0.5 0.1875 0.95
0.4375 0.25 0.95
0.5 0.1875 0.8875
0.5625 0.25 0.8875
0.5625 0.1875 0.8875
0.625 0.25 0.8875
0.5625 0.1875 0.95
0.625 0.1875 0.95
0.5625 0.25 0.95
0.625 0.1875 0.8875
0.6875 0.25 0.8875
0.6875 0.1875 0.8875
0.75 0.25 0.8875
0.6875 0.1875 0.95
0.75 0.1875 0.95
0.6875 0.25 0.95
0.75 0.1875 0.8875
0.8125 0.25 0.8875
0.8125 0.1875 0.8875
0.875 0.25 0.8875
0.8125 0.1875 0.95
0.875 0.1875 0.95
0.8125 0.25 0.95
0.875 0.1875 0.8875
0.9375 0.25 0.8875
0.9375 0.1875 0.8875
1 0.25 0.8875
0.9375 0.1875 0.95
1 0.1875 0.95
0.9375 0.25 0.95
1 0.1875 0.8875
1.0625 0.25 0.8875
1.0625 0.1875 0.8875
1.125 0.25 0.8875
1.0625 0.1875 0.95
1.125 0.1875 0.95
1.0625 0.25 0.95
1.125 0.1875 0.8875
1.1875 0.25 0.8875
1.1875 0.1875 0.8875
1.25 0.25 0.8875
1.1875 0.1875 0.95
1.25 0.1875 0.95
1.1875 0.25 0.95
1.25 0.1875 0.8875
1.3125 0.25 0.8875
1.3125 0.1875 0.8875
1.375 0.25 0.8875
1.3125 0.1875 0.95
1.375 0.1875 0.95
1.3125 0.25 0.95
1.375 0.1875 0.8875
1.4375 0.25 0.8875
1.4375 0.1875 0.8875
1.5 0.25 0.8875
1.4375 0.1875 0.95
1.5 0.1875 0.95
1.4375 0.25 0.95
1.5 0.1875 0.8875
1.5625 0.25 0.8875
1.5625 0.1875 0.8875
1.625 0.25 0.8875
1.5625 0.1875 0.95
1.625 0.1875 0.95
1.5625 0.25 0.95
1.625 0.1875 0.8875
1.6875 0.25 0.8875
1.6875 0.1875 0.8875
1.75 0.25 0.8875
1.6875 0.1875 0.95
1.75 0.1875 0.95
1.6875 0.25 0.95
1.75 0.1875 0.8875
1.8125 0.25 0.8875
1.8125 0.1875 0.8875
1.875 0.25 0.8875
1.8125 0.1875 0.95
1.875 0.1875 0.95
1.8125 0.25 0.95
1.875 0.1875 0.8875
1.9375 0.25 0.8875
1.9375 0.1875 0.8875
2 0.25 0.8875
1.9375 0.1875 0.95
2 0.1875 0.95
1.9375 0.25 0.95
2 0.1875 0.8875
2.0625 0.25 0.8875
2.0625 0.1875 0.8875
2.125 0.25 0.8875
2.0625 0.1875 0.95
2.125 0.1875 0.95
2.0625 0.25 0.95
2.125 0.1875 0.8875
2.1875 0.25 0.8875
2.1875 0.1875 0.8875
2.25 0.25 0.8875
2.1875 0.1875 0.95
2.25 0.1875 0.95
2.1875 0.25 0.95
2.25 0.1875 0.8875
2.3125 0.25 0.8875
2.3125 0.1875 0.8875
2.375 0.25 0.8875
2.3125 0.1875 0.95
2.375 0.1875 0.95
2.3125 0.25 0.95
2.375 0.1875 0.8875
2.4375 0.25 0.8875
2.4375 0.1875 0.8875
2.5 0.25 0.8875
2.4375 0.1875 0.95
2.5 0.1875 0.95
2.4375 0.25 0.95
2.5 0.1875 0.8875
2.5625 0.25 0.8875
2.5625 0.1875 0.8875
2.625 0.25 0.8875
2.5625 0.1875 0.95
2.625 0.1875 0.95
2.5625 0.25 0.95
2.625 0.1875 0.8875
2.6875 0.25 0.8875
2.6875 0.1875 0.8875
2.75 0.25 0.8875
2.6875 0.1875 0.95
2.75 0.1875 0.95
2.6875 0.25 0.95
2.75 0.1875 0.8875
2.8125 0.25 0.8875
2.8125 0.1875 0.8875
2.875 0.25 0.8875
2.8125 0.1875 0.95
2.875 0.1875 0.95
2.8125 0.25 0.95
2.875 0.1875 0.8875
2.9375 0.25 0.8875
2.9375 0.1875 0.8875
3 0.25 0.8875
2.9375 0.1875 0.95
3 0.1875 0.95
2.9375 0.25 0.95
3 0.1875 0.8875
3.0625 0.25 0.8875
3.0625 0.1875 0.8875
3.125 0.25 0.8875
3.0625 0.1875 0.95
3.125 0.1875 0.95
3.0625 0.25 0.95
3.125 0.1875 0.8875
3.1875 0.25 0.8875
3.1875 0.1875 0.8875
3.25 0.25 0.8875
3.1875 0.1875 0.95
3.25 0.1875 0.95
3.1875 0.25 0.95
3.25 0.1875 0.8875
3.3125 0.25 0.8875
3.3125 0.1875 0.8875
3.375 0.25 0.8875
3.3125 0.1875 0.95
3.375 0.1875 0.95
3.3125 0.25 0.95
3.375 0.1875 0.8875
3.4375 0.25 0.8875
3.4375 0.1875 0.8875
3.5 0.25 0.8875
3.4375 0.1875 0.95
3.5 0.1875 0.95
3.4375 0.25 0.95
3.5 0.1875 0.8875
3.5625 0.25 0.8875
3.5625 0.1875 0.8875
3.625 0.25 0.8875
3.5625 0.1875 0.95
3.625 0.1875 0.95
3.5625 0.25 0.95
3.625 0.1875 0.8875
3.6875 0.25 0.8875
3.6875 0.1875 0.8875
3.75 0.25 0.8875
3.6875 0.1875 0.95
3.75 0.1875 0.95
3.6875 0.25 0.95
3.75 0.1875 0.8875
3.8125 0.25 0.8875
3.8125 0.1875 0.8875
3.875 0.25 0.8875
3.8125 0.1875 0.95
3.875 0.1875 0.95
3.8125 0.25 0.95
3.875 0.1875 0.8875
3.9375 0.25 0.8875
3.9375 0.1875 0.8875
4 0.25 0.8875
3.9375 0.1875 0.95
4 0.1875 0.95
3.9375 0.25 0.95
4 0.1875 0.8875
0.0625 0.375 0.8875
0.0625 0.3125 0.8875
0.125 0.375 0.8875
0.0625 0.3125 0.95
0.125 0.3125 0.95
0 0.375 0.8875
0 0.3125 0.8875
0.0625 0.375 0.95
0 0.3125 0.95
0.125 0.3125 0.8875
0.1875 0.375 0.8875
0.1875 0.3125 0.8875
0.25 0.375 0.8875
0.1875 0.3125 0.95
0.25 0.3125 0.95
0.1875 0.375 0.95
0.25 0.3125 0.8875
0.3125 0.375 0.8875
0.3125 0.3125 0.8875
0.375 0.375 0.8875
0.3125 0.3125 0.95
0.375 0.3125 0.95
0.3125 0.375 0.95
0.375 0.3125 0.8875
0.4375 0.375 0.8875
0.4375 0.3125 0.8875
0.5 0.375 0.8875
0.4375 0.3125 0.95
0.5 0.3125 0.95
0.4375 0.375 0.95
0.5 0.3125 0.8875
0.5625 0.375 0.8875
0.5625 0.3125 0.8875
0.625 0.375 0.8875
0.5625 0.3125 0.95
0.625 0.3125 0.95
0.5625 0.375 0.95
0.625 0.3125 0.8875
0.6875 0.375 0.8875
0.6875 0.3125 0.8875
0.75 0.375 0.8875
0.6875 0.3125 0.95
0.75 0.3125 0.95
0.6875 0.375 0.95
0.75 0.3125 0.8875
0.8125 0.375 0.8875
0.8125 0.3125 0.8875
0.875 0.375 0.8875
0.8125 0.3125 0.95
0.875 0.3125 0.95
0.8125 0.375 0.95
0.875 0.3125 0.8875
0.9375 0.375 0.8875
0.9375 0.3125 0.8875
1 0.375 0.8875
0.9375 0.3125 0.95
1 0.3125 0.95
0.9375 0.375 0.95
1 0.3125 0.8875
1.0625 0.375 0.8875
1.0625 0.3125 0.8875
1.125 0.375 0.8875
1.0625 0.3125 0.95
1.125 0.3125 0.95
1.0625 0.375 0.95
1.125 0.3125 0.8875
1.1875 0.375 0.8875
1.1875 0.3125 0.8875
1.25 0.375 0.8875
1.1875 0.3125 0.95
1.25 0.3125 0.95
1.1875 0.375 0.95
1.25 0.3125 0.8875
1.3125 0.375 0.8875
1.3125 0.3125 0.8875
1.375 0.375 0.8875
1.3125 0.3125 0.95
1.375 0.3125 0.95
1.3125 0.375 0.95
1.375 0.3125 0.8875
1.4375 0.375 0.8875
1.4375 0.3125 0.8875
1.5 0.375 0.8875
1.4375 0.3125 0.95
1.5 0.3125 0.95
1.4375 0.375 0.95
1.5 0.3125 0.8875
1.5625 0.375 0.8875
1.5625 0.3125 0.8875
1.625 0.375 0.8875
1.5625 0.3125 0.95
1.625 0.3125 0.95
1.5625 0.375 0.95
1.625 0.3125 0.8875
1.6875 0.375 0.8875
1.6875 0.3125 0.8875
1.75 0.375 0.8875
1.6875 0.3125 0.95
1.75 0.3125 0.95
1.6875 0.375 0.95
1.75 0.3125 0.8875
1.8125 0.375 0.8875
1.8125 0.3125 0.8875
1.875 0.375 0.8875
1.8125 0.3125 0.95
1.875 0.3125 0.95
1.8125 0.375 0.95
1.875 0.3125 0.8875
1.9375 0.375 0.8875
1.9375 0.3125 0.8875
2 0.375 0.8875
1.9375 0.3125 0.95
2 0.3125 0.95
1.9375 0.375 0.95
2 0.3125 0.8875
2.0625 0.375 0.8875
2.0625 0.3125 0.8875
2.125 0.375 0.8875
2.0625 0.3125 0.95
2.125 0.3125 0.95
2.0625 0.375 0.95
2.125 0.3125 0.8875
2.1875 0.375 0.8875
2.1875 0.3125 0.8875
2.25 0.375 0.8875
2.1875 0.3125 0.95
2.25 0.3125 0.95
2.1875 0.375 0.95
2.25 0.3125 0.8875
2.3125 0.375 0.8875
2.3125 0.3125 0.8875
2.375 0.375 0.8875
2.3125 0.3125 0.95
2.375 0.3125 0.95
2.3125 0.375 0.95
2.375 0.3125 0.8875
2.4375 0.375 0.8875
2.4375 0.3125 0.8875
2.5 0.375 0.8875
2.4375 0.3125 0.95
2.5 0.3125 0.95
2.4375 0.375 0.95
2.5 0.3125 0.8875
2.5625 0.375 0.8875
2.5625 0.3125 0.8875
2.625 0.375 0.8875
2.5625 0.3125 0.95
2.625 0.3125 0.95
2.5625 0.375 0.95
2.625 0.3125 0.8875
2.6875 0.375 0.8875
2.6875 0.3125 0.8875
2.75 0.375 0.8875
2.6875 0.3125 0.95
2.75 0.3125 0.95
2.6875 0.375 0.95
2.75 0.3125 0.8875
2.8125 0.375 0.8875
2.8125 0.3125 0.8875
2.875 0.375 0.8875
2.8125 0.3125 0.95
2.875 0.3125 0.95
2.8125 0.375 0.95
2.875 0.3125 0.8875
2.9375 0.375 0.8875
2.9375 0.3125 0.8875
3 0.375 0.8875
2.9375 0.3125 0.95
3 0.3125 0.95
2.9375 0.375 0.95
3 0.3125 0.8875
3.0625 0.375 0.8875
3.0625 0.3125 0.8875
3.125 0.375 0.8875
3.0625 0.3125 0.95
3.125 0.3125 0.95
3.0625 0.375 0.95
3.125 0.3125 0.8875
3.1875 0.375 0.8875
3.1875 0.3125 0.8875
3.25 0.375 0.8875
3.1875 0.3125 0.95
3.25 0.3125 0.95
3.1875 0.375 0.95
3.25 0.3125 0.8875
3.3125 0.375 0.8875
3.3125 0.3125 0.8875
3.375 0.375 0.8875
3.3125 0.3125 0.95
3.375 0.3125 0.95
3.3125 0.375 0.95
3.375 0.3125 0.8875
3.4375 0.375 0.8875
3.4375 0.3125 0.8875
3.5 0.375 0.8875
3.4375 0.3125 0.95
3.5 0.3125 0.95
3.4375 0.375 0.95
3.5 0.3125 0.8875
3.5625 0.375 0.8875
3.5625 0.3125 0.8875
3.625 0.375 0.8875
3.5625 0.3125 0.95
3.625 0.3125 0.95
3.5625 0.375 0.95
3.625 0.3125 0.8875
3.6875 0.375 0.8875
3.6875 0.3125 0.8875
3.75 0.375 0.8875
3.6875 0.3125 0.95
3.75 0.3125 0.95
3.6875 0.375 0.95
3.75 0.3125 0.8875
3.8125 0.375 0.8875
3.8125 0.3125 0.8875
3.875 0.375 0.8875
3.8125 0.3125 0.95
3.875 0.3125 0.95
3.8125 0.375 0.95
3.875 0.3125 0.8875
3.9375 0.375 0.8875
3.9375 0.3125 0.8875
4 0.375 0.8875
3.9375 0.3125 0.95
4 0.3125 0.95
3.9375 0.375 0.95
4 0.3125 0.8875
0.0625 0.5 0.8875
0.0625 0.4375 0.8875
0.125 0.5 0.8875
0.0625 0.4375 0.95
0.125 0.4375 0.95
0 0.5 0.8875
0 0.4375 0.8875
0.0625 0.5 0.95
0 0.4375 0.95
0.125 0.4375 0.8875
0.1875 0.5 0.8875
0.1875 0.4375 0.8875
0.25 0.5 0.8875
0.1875 0.4375 0.95
0.25 0.4375 0.95
0.1875 0.5 0.95
0.25 0.4375 0.8875
0.3125 0.5 0.8875
0.3125 0.4375 0.8875
0.375 0.5 0.8875
0.3125 0.4375 0.95
0.375 0.4375 0.95
0.3125 0.5 0.95
0.375 0.4375 0.8875
0.4375 0.5 0.8875
0.4375 0.4375 0.8875
0.5 0.5 0.8875
0.4375 0.4375 0.95
0.5 0.4375 0.95
0.4375 0.5 0.95
0.5 0.4375 0.8875
0.5625 0.5 0.8875
0.5625 0.4375 0.8875
0.625 0.5 0.8875
0.5625 0.4375 0.95
0.625 0.4375 0.95
0.5625 0.5 0.95
0.625 0.4375 0.8875
0.6875 0.5 0.8875
0.6875 0.4375 0.8875
0.75 0.5 0.8875
0.6875 0.4375 0.95
0.75 0.4375 0.95
0.6875 0.5 0.95
0.75 0.4375 0.8875
0.8125 0.5 0.8875
0.8125 0.4375 0.8875
0.875 0.5 0.8875
0.8125 0.4375 0.95
0.875 0.4375 0.95
0.8125 0.5 0.95
0.875 0.4375 0.8875
0.9375 0.5 0.8875
0.9375 0.4375 0.8875
1 0.5 0.8875
0.9375 0.4375 0.95
1 0.4375 0.95
0.9375 0.5 0.95
1 0.4375 0.8875
1.0625 0.5 0.8875
1.0625 0.4375 0.8875
1.125 0.5 0.8875
1.0625 0.4375 0.95
1.125 0.4375 0.95
1.0625 0.5 0.95
1.125 0.4375 0.8875
1.1875 0.5 0.8875
1.1875 0.4375 0.8875
1.25 0.5 0.8875
1.1875 0.4375 0.95
1.25 0.4375 0.95
1.1875 0.5 0.95
1.25 0.4375 0.8875
1.3125 0.5 0.8875
1.3125 0.4375 0.8875
1.375 0.5 0.8875
1.3125 0.4375 0.95
1.375 0.4375 0.95
1.3125 0.5 0.95
1.375 0.4375 0.8875
1.4375 0.5 0.8875
1.4375 0.4375 0.8875
1.5 0.5 0.8875
1.4375 0.4375 0.95
1.5 0.4375 0.95
1.4375 0.5 0.95
1.5 0.4375 0.8875
1.5625 0.5 0.8875
1.5625 0.4375 0.8875
1.625 0.5 0.8875
1.5625 0.4375 0.95
1.625 0.4375 0.95
1.5625 0.5 0.95
1.625 0.4375 0.8875
1.6875 0.5 0.8875
1.6875 0.4375 0.8875
1.75 0.5 0.8875
1.6875 0.4375 0.95
1.75 0.4375 0.95
1.6875 0.5 0.95
1.75 0.4375 0.8875
1.8125 0.5 0.8875
1.8125 0.4375 0.8875
1.875 0.5 0.8875
1.8125 0.4375 0.95
1.875 0.4375 0.95
1.8125 0.5 0.95
1.875 0.4375 0.8875
1.9375 0.5 0.8875
1.9375 0.4375 0.8875
2 0.5 0.8875
1.9375 0.4375 0.95
2 0.4375 0.95
1.9375 0.5 0.95
2 0.4375 0.8875
2.0625 0.5 0.8875
2.0625 0.4375 0.8875
2.125 0.5 0.8875
2.0625 0.4375 0.95
2.125 0.4375 0.95
2.0625 0.5 0.95
2.125 0.4375 0.8875
2.1875 0.5 0.8875
2.1875 0.4375 0.8875
2.25 0.5 0.8875
2.1875 0.4375 0.95
2.25 0.4375 0.95
2.1875 0.5 0.95
2.25 0.4375 0.8875
2.3125 0.5 0.8875
2.3125 0.4375 0.8875
2.375 0.5 0.8875
2.3125 0.4375 0.95
2.375 0.4375 0.95
2.3125 0.5 0.95
2.375 0.4375 0.8875
2.4375 0.5 0.8875
2.4375 0.4375 0.8875
2.5 0.5 0.8875
2.4375 0.4375 0.95
2.5 0.4375 0.95
2.4375 0.5 0.95
2.5 0.4375 0.8875
2.5625 0.5 0.8875
2.5625 0.4375 0.8875
2.625 0.5 0.8875
2.5625 0.4375 0.95
2.625 0.4375 0.95
2.5625 0.5 0.95
2.625 0.4375 0.8875
2.6875 0.5 0.8875
2.6875 0.4375 0.8875
2.75 0.5 0.8875
2.6875 0.4375 0.95
2.75 0.4375 0.95
2.6875 0.5 0.95
2.75 0.4375 0.8875
2.8125 0.5 0.8875
2.8125 0.4375 0.8875
2.875 0.5 0.8875
2.8125 0.4375 0.95
2.875 0.4375 0.95
2.8125 0.5 0.95
2.875 0.4375 0.8875
2.9375 0.5 0.8875
2.9375 0.4375 0.8875
3 0.5 0.8875
2.9375 0.4375 0.95
3 0.4375 0.95
2.9375 0.5 0.95
3 0.4375 0.8875
3.0625 0.5 0.8875
3.0625 0.4375 0.8875
3.125 0.5 0.8875
3.0625 0.4375 0.95
3.125 0.4375 0.95
3.0625 0.5 0.95
3.125 0.4375 0.8875
3.1875 0.5 0.8875
3.1875 0.4375 0.8875
3.25 0.5 0.8875
3.1875 0.4375 0.95
3.25 0.4375 0.95
3.1875 0.5 0.95
3.25 0.4375 0.8875
3.3125 0.5 0.8875
3.3125 0.4375 0.8875
3.375 0.5 0.8875
3.3125 0.4375 0.95
3.375 0.4375 0.95
3.3125 0.5 0.95
3.375 0.4375 0.8875
3.4375 0.5 0.8875
3.4375 0.4375 0.8875
3.5 0.5 0.8875
3.4375 0.4375 0.95
3.5 0.4375 0.95
3.4375 0.5 0.95
3.5 0.4375 0.8875
3.5625 0.5 0.8875
3.5625 0.4375 0.8875
3.625 0.5 0.8875
3.5625 0.4375 0.95
3.625 0.4375 0.95
3.5625 0.5 0.95
3.625 0.4375 0.8875
3.6875 0.5 0.8875
3.6875 0.4375 0.8875
3.75 0.5 0.8875
3.6875 0.4375 0.95
3.75 0.4375 0.95
3.6875 0.5 0.95
3.75 0.4375 0.8875
3.8125 0.5 0.8875
3.8125 0.4375 0.8875
3.875 0.5 0.8875
3.8125 0.4375 0.95
3.875 0.4375 0.95
3.8125 0.5 0.95
3.875 0.4375 0.8875
3.9375 0.5 0.8875
3.9375 0.4375 0.8875
4 0.5 0.8875
3.9375 0.4375 0.95
4 0.4375 0.95
3.9375 0.5 0.95
4 0.4375 0.8875
0.0625 0.625 0.8875
0.0625 0.5625 0.8875
0.125 0.625 0.8875
0.0625 0.5625 0.95
0.125 0.5625 0.95
0 0.625 0.8875
0 0.5625 0.8875
0.0625 0.625 0.95
0 0.5625 0.95
0.125 0.5625 0.8875
0.1875 0.625 0.8875
0.1875 0.5625 0.8875
0.25 0.625 0.8875
0.1875 0.5625 0.95
0.25 0.5625 0.95
0.1875 0.625 0.95
0.25 0.5625 0.8875
0.3125 0.625 0.8875
0.3125 0.5625 0.8875
0.375 0.625 0.8875
0.3125 0.5625 0.95
0.375 0.5625 0.95
0.3125 0.625 0.95
0.375 0.5625 0.8875
0.4375 0.625 0.8875
0.4375 0.5625 0.8875
0.5 0.625 0.8875
0.4375 0.5625 0.95
0.5 0.5625 0.95
0.4375 0.625 0.95
0.5 0.5625 0.8875
0.5625 0.625 0.8875
0.5625 0.5625 0.8875
0.625 0.625 0.8875
0.5625 0.5625 0.95
0.625 0.5625 0.95
0.5625 0.625 0.95
0.625 0.5625 0.8875
0.6875 0.625 0.8875
0.6875 0.5625 0.8875
0.75 0.625 0.8875
0.6875 0.5625 0.95
0.75 0.5625 0.95
0.6875 0.625 0.95
0.75 0.5625 0.8875
0.8125 0.625 0.8875
0.8125 0.5625 0.8875
0.875 0.625 0.8875
0.8125 0.5625 0.95
0.875 0.5625 0.95
0.8125 0.625 0.95
0.875 0.5625 0.8875
0.9375 0.625 0.8875
0.9375 0.5625 0.8875
1 0.625 0.8875
0.9375 0.5625 0.95
1 0.5625 0.95
0.9375 0.625 0.95
1 0.5625 0.8875
1.0625 0.625 0.8875
1.0625 0.5625 0.8875
1.125 0.625 0.8875
1.0625 0.5625 0.95
1.125 0.5625 0.95
1.0625 0.625 0.95
1.125 0.5625 0.8875
1.1875 0.625 0.8875
1.1875 0.5625 0.8875
1.25 0.625 0.8875
1.1875 0.5625 0.95
1.25 0.5625 0.95
1.1875 0.625 0.95
1.25 0.5625 0.8875
1.3125 0.625 0.8875
1.3125 0.5625 0.8875
1.375 0.625 0.8875
1.3125 0.5625 0.95
1.375 0.5625 0.95
1.3125 0.625 0.95
1.375 0.5625 0.8875
1.4375 0.625 0.8875
1.4375 0.5625 0.8875
1.5 0.625 0.8875
1.4375 0.5625 0.95
1.5 0.5625 0.95
1.4375 0.625 0.95
1.5 0.5625 0.8875
1.5625 0.625 0.8875
1.5625 0.5625 0.8875
1.625 0.625 0.8875
1.5625 0.5625 0.95
1.625 0.5625 0.95
1.5625 0.625 0.95
1.625 0.5625 0.8875
1.6875 0.625 0.8875
1.6875 0.5625 0.8875
1.75 0.625 0.8875
1.6875 0.5625 0.95
1.75 0.5625 0.95
1.6875 0.625 0.95
1.75 0.5625 0.8875
1.8125 0.625 0.8875
1.8125 0.5625 0.8875
1.875 0.625 0.8875
1.8125 0.5625 0.95
1.875 0.5625 0.95
1.8125 0.625 0.95
1.875 0.5625 0.8875
1.9375 0.625 0.8875
1.9375 0.5625 0.8875
2 0.625 0.8875
1.9375 0.5625 0.95
2 0.5625 0.95
1.9375 0.625 0.95
2 0.5625 0.8875
2.0625 0.625 0.8875
2.0625 0.5625 0.8875
2.125 0.625 0.8875
2.0625 0.5625 0.95
2.125 0.5625 0.95
2.0625 0.625 0.95
2.125 0.5625 0.8875
2.1875 0.625 0.8875
2.1875 0.5625 0.8875
2.25 0.625 0.8875
2.1875 0.5625 0.95
2.25 0.5625 0.95
2.1875 0.625 0.95
2.25 0.5625 0.8875
2.3125 0.625 0.8875
2.3125 0.5625 0.8875
2.375 0.625 0.8875
2.3125 0.5625 0.95
2.375 0.5625 0.95
2.3125 0.625 0.95
2.375 0.5625 0.8875
2.4375 0.625 0.8875
2.4375 0.5625 0.8875
2.5 0.625 0.8875
2.4375 0.5625 0.95
2.5 0.5625 0.95
2.4375 0.625 0.95
2.5 0.5625 0.8875
2.5625 0.625 0.8875
2.5625 0.5625 0.8875
2.625 0.625 0.8875
2.5625 0.5625 0.95
2.625 0.5625 0.95
2.5625 0.625 0.95
2.625 0.5625 0.8875
2.6875 0.625 0.8875
2.6875 0.5625 0.8875
2.75 0.625 0.8875
2.6875 0.5625 0.95
2.75 0.5625 0.95
2.6875 0.625 0.95
2.75 0.5625 0.8875
2.8125 0.625 0.8875
2.8125 0.5625 0.8875
2.875 0.625 0.8875
2.8125 0.5625 0.95
2.875 0.5625 0.95
2.8125 0.625 0.95
2.875 0.5625 0.8875
2.9375 0.625 0.8875
2.9375 0.5625 0.8875
3 0.625 0.8875
2.9375 0.5625 0.95
3 0.5625 0.95
2.9375 0.625 0.95
3 0.5625 0.8875
3.0625 0.625 0.8875
3.0625 0.5625 0.8875
3.125 0.625 0.8875
3.0625 0.5625 0.95
3.125 0.5625 0.95
3.0625 0.625 0.95
3.125 0.5625 0.8875
3.1875 0.625 0.8875
3.1875 0.5625 0.8875
3.25 0.625 0.8875
3.1875 0.5625 0.95
3.25 0.5625 0.95
3.1875 0.625 0.95
3.25 0.5625 0.8875
3.3125 0.625 0.8875
3.3125 0.5625 0.8875
3.375 0.625 0.8875
3.3125 0.5625 0.95
3.375 0.5625 0.95
3.3125 0.625 0.95
3.375 0.5625 0.8875
3.4375 0.625 0.8875
3.4375 0.5625 0.8875
3.5 0.625 0.8875
3.4375 0.5625 0.95
3.5 0.5625 0.95
3.4375 0.625 0.95
3.5 0.5625 0.8875
3.5625 0.625 0.8875
3.5625 0.5625 0.8875
3.625 0.625 0.8875
3.5625 0.5625 0.95
3.625 0.5625 0.95
3.5625 0.625 0.95
3.625 0.5625 0.8875
3.6875 0.625 0.8875
3.6875 0.5625 0.8875
3.75 0.625 0.8875
3.6875 0.5625 0.95
3.75 0.5625 0.95
3.6875 0.625 0.95
3.75 0.5625 0.8875
3.8125 0.625 0.8875
3.8125 0.5625 0.8875
3.875 0.625 0.8875
3.8125 0.5625 0.95
3.875 0.5625 0.95
3.8125 0.625 0.95
3.875 0.5625 0.8875
3.9375 0.625 0.8875
3.9375 0.5625 0.8875
4 0.625 0.8875
3.9375 0.5625 0.95
4 0.5625 0.95
3.9375 0.625 0.95
4 0.5625 0.8875
0.0625 0.75 0.8875
0.0625 0.6875 0.8875
0.125 0.75 0.8875
0.0625 0.6875 0.95
0.125 0.6875 0.95
0 0.75 0.8875
0 0.6875 0.8875
0.0625 0.75 0.95
0 0.6875 0.95
0.125 0.6875 0.8875
0.1875 0.75 0.8875
0.1875 0.6875 0.8875
0.25 0.75 0.8875
0.1875 0.6875 0.95
0.25 0.6875 0.95
0.1875 0.75 0.95
0.25 0.6875 0.8875
0.3125 0.75 0.8875
0.3125 0.6875 0.8875
0.375 0.75 0.8875
0.3125 0.6875 0.95
0.375 0.6875 0.95
0.3125 0.75 0.95
0.375 0.6875 0.8875
0.4375 0.75 0.8875
0.4375 0.6875 0.8875
0.5 0.75 0.8875
0.4375 0.6875 0.95
0.5 0.6875 0.95
0.4375 0.75 0.95
0.5 0.6875 0.8875
0.5625 0.75 0.8875
0.5625 0.6875 0.8875
0.625 0.75 0.8875
0.5625 0.6875 0.95
0.625 0.6875 0.95
0.5625 0.75 0.95
0.625 0.6875 0.8875
0.6875 0.75 0.8875
0.6875 0.6875 0.8875
0.75 0.75 0.8875
0.6875 0.6875 0.95
0.75 0.6875 0.95
0.6875 0.75 0.95
0.75 0.6875 0.8875
0.8125 0.75 0.8875
0.8125 0.6875 0.8875
0.875 0.75 0.8875
0.8125 0.6875 0.95
0.875 0.6875 0.95
0.8125 0.75 0.95
0.875 0.6875 0.8875
0.9375 0.75 0.8875
0.9375 0.6875 0.8875
1 0.75 0.8875
0.9375 0.6875 0.95
1 0.6875 0.95
0.9375 0.75 0.95
1 0.6875 0.8875
1.0625 0.75 0.8875
1.0625 0.6875 0.8875
1.125 0.75 0.8875
1.0625 0.6875 0.95
1.125 0.6875 0.95
1.0625 0.75 0.95
1.125 0.6875 0.8875
1.1875 0.75 0.8875
1.1875 0.6875 0.8875
1.25 0.75 0.8875
1.1875 0.6875 0.95
1.25 0.6875 0.95
1.1875 0.75 0.95
1.25 0.6875 0.8875
1.3125 0.75 0.8875
1.3125 0.6875 0.8875
1.375 0.75 0.8875
1.3125 0.6875 0.95
1.375 0.6875 0.95
1.3125 0.75 0.95
1.375 0.6875 0.8875
1.4375 0.75 0.8875
1.4375 0.6875 0.8875
1.5 0.75 0.8875
1.4375 0.6875 0.95
1.5 0.6875 0.95
1.4375 0.75 0.95
1.5 0.6875 0.8875
1.5625 0.75 0.8875
1.5625 0.6875 0.8875
1.625 0.75 0.8875
1.5625 0.6875 0.95
1.625 0.6875 0.95
1.5625 0.75 0.95
1.625 0.6875 0.8875
1.6875 0.75 0.8875
1.6875 0.6875 0.8875
1.75 0.75 0.8875
1.6875 0.6875 0.95
1.75 0.6875 0.95
1.6875 0.75 0.95
1.75 0.6875 0.8875
1.8125 0.75 0.8875
1.8125 0.6875 0.8875
1.875 0.75 0.8875
1.8125 0.6875 0.95
1.875 0.6875 0.95
1.8125 0.75 0.95
1.875 0.6875 0.8875
1.9375 0.75 0.8875
1.9375 0.6875 0.8875
2 0.75 0.8875
1.9375 0.6875 0.95
2 0.6875 0.95
1.9375 0.75 0.95
2 0.6875 0.8875
2.0625 0.75 0.8875
2.0625 0.6875 0.8875
2.125 0.75 0.8875
2.0625 0.6875 0.95
2.125 0.6875 0.95
2.0625 0.75 0.95
2.125 0.6875 0.8875
2.1875 0.75 0.8875
2.1875 0.6875 0.8875
2.25 0.75 0.8875
2.1875 0.6875 0.95
2.25 0.6875 0.95
2.1875 0.75 0.95
2.25 0.6875 0.8875
2.3125 0.75 0.8875
2.3125 0.6875 0.8875
2.375 0.75 0.8875
2.3125 0.6875 0.95
2.375 0.6875 0.95
2.3125 0.75 0.95
2.375 0.6875 0.8875
2.4375 0.75 0.8875
2.4375 0.6875 0.8875
2.5 0.75 0.8875
2.4375 0.6875 0.95
2.5 0.6875 0.95
2.4375 0.75 0.95
2.5 0.6875 0.8875
2.5625 0.75 0.8875
2.5625 0.6875 0.8875
2.625 0.75 0.8875
2.5625 0.6875 0.95
2.625 0.6875 0.95
2.5625 0.75 0.95
2.625 0.6875 0.8875
2.6875 0.75 0.8875
2.6875 0.6875 0.8875
2.75 0.75 0.8875
2.6875 0.6875 0.95
2.75 0.6875 0.95
2.6875 0.75 0.95
2.75 0.6875 0.8875
2.8125 0.75 0.8875
2.8125 0.6875 0.8875
2.875 0.75 0.8875
2.8125 0.6875 0.95
2.875 0.6875 0.95
2.8125 0.75 0.95
2.875 0.6875 0.8875
2.9375 0.75 0.8875
2.9375 0.6875 0.8875
3 0.75 0.8875
2.9375 0.6875 0.95
3 0.6875 0.95
2.9375 0.75 0.95
3 0.6875 0.8875
3.0625 0.75 0.8875
3.0625 0.6875 0.8875
3.125 0.75 0.8875
3.0625 0.6875 0.95
3.125 0.6875 0.95
3.0625 0.75 0.95
3.125 0.6875 0.8875
3.1875 0.75 0.8875
3.1875 0.6875 0.8875
3.25 0.75 0.8875
3.1875 0.6875 0.95
3.25 0.6875 0.95
3.1875 0.75 0.95
3.25 0.6875 0.8875
3.3125 0.75 0.8875
3.3125 0.6875 0.8875
3.375 0.75 0.8875
3.3125 0.6875 0.95
3.375 0.6875 0.95
3.3125 0.75 0.95
3.375 0.6875 0.8875
3.4375 0.75 0.8875
3.4375 0.6875 0.8875
3.5 0.75 0.8875
3.4375 0.6875 0.95
3.5 0.6875 0.95
3.4375 0.75 0.95
3.5 0.6875 0.8875
3.5625 0.75 0.8875
3.5625 0.6875 0.8875
3.625 0.75 0.8875
3.5625 0.6875 0.95
3.625 0.6875 0.95
3.5625 0.75 0.95
3.625 0.6875 0.8875
3.6875 0.75 0.8875
3.6875 0.6875 0.8875
3.75 0.75 0.8875
3.6875 0.6875 0.95
3.75 0.6875 0.95
3.6875 0.75 0.95
3.75 0.6875 0.8875
3.8125 0.75 0.8875
3.8125 0.6875 0.8875
3.875 0.75 0.8875
3.8125 0.6875 0.95
3.875 0.6875 0.95
3.8125 0.75 0.95
3.875 0.6875 0.8875
3.9375 0.75 0.8875
3.9375 0.6875 0.8875
4 0.75 0.8875
3.9375 0.6875 0.95
4 0.6875 0.95
3.9375 0.75 0.95
4 0.6875 0.8875
0.0625 0.875 0.8875
0.0625 0.8125 0.8875
0.125 0.875 0.8875
0.0625 0.8125 0.95
0.125 0.8125 0.95
0 0.875 0.8875
0 0.8125 0.8875
0.0625 0.875 0.95
0 0.8125 0.95
0.125 0.8125 0.8875
0.1875 0.875 0.8875
0.1875 0.8125 0.8875
0.25 0.875 0.8875
0.1875 0.8125 0.95
0.25 0.8125 0.95
0.1875 0.875 0.95
0.25 0.8125 0.8875
0.3125 0.875 0.8875
0.3125 0.8125 0.8875
0.375 0.875 0.8875
0.3125 0.8125 0.95
0.375 0.8125 0.95
0.3125 0.875 0.95
0.375 0.8125 0.8875
0.4375 0.875 0.8875
0.4375 0.8125 0.8875
0.5 0.875 0.8875
0.4375 0.8125 0.95
0.5 0.8125 0.95
0.4375 0.875 0.95
0.5 0.8125 0.8875
0.5625 0.875 0.8875
0.5625 0.8125 0.8875
0.625 0.875 0.8875
0.5625 0.8125 0.95
0.625 0.8125 0.95
0.5625 0.875 0.95
0.625 0.8125 0.8875
0.6875 0.875 0.8875
0.6875 0.8125 0.8875
0.75 0.875 0.8875
0.6875 0.8125 0.95
0.75 0.8125 0.95
0.6875 0.875 0.95
0.75 0.8125 0.8875
0.8125 0.875 0.8875
0.8125 0.8125 0.8875
0.875 0.875 0.8875
0.8125 0.8125 0.95
0.875 0.8125 0.95
0.8125 0.875 0.95
0.875 0.8125 0.8875
0.9375 0.875 0.8875
0.9375 0.8125 0.8875
1 0.875 0.8875
0.9375 0.8125 0.95
1 0.8125 0.95
0.9375 0.875 0.95
1 0.8125 0.8875
1.0625 0.875 0.8875
1.0625 0.8125 0.8875
1.125 0.875 0.8875
1.0625 0.8125 0.95
1.125 0.8125 0.95
1.0625 0.875 0.95
1.125 0.8125 0.8875
1.1875 0.875 0.8875
1.1875 0.8125 0.8875
1.25 0.875 0.8875
1.1875 0.8125 0.95
1.25 0.8125 0.95
1.1875 0.875 0.95
1.25 0.8125 0.8875
1.3125 0.875 0.8875
1.3125 0.8125 0.8875
1.375 0.875 0.8875
1.3125 0.8125 0.95
1.375 0.8125 0.95
1.3125 0.875 0.95
1.375 0.8125 0.8875
1.4375 0.875 0.8875
1.4375 0.8125 0.8875
1.5 0.875 0.8875
1.4375 0.8125 0.95
1.5 0.8125 0.95
1.4375 0.875 0.95
1.5 0.8125 0.8875
1.5625 0.875 0.8875
1.5625 0.8125 0.8875
1.625 0.875 0.8875
1.5625 0.8125 0.95
1.625 0.8125 0.95
1.5625 0.875 0.95
1.625 0.8125 0.8875
1.6875 0.875 0.8875
1.6875 0.8125 0.8875
1.75 0.875 0.8875
1.6875 0.8125 0.95
1.75 0.8125 0.95
1.6875 0.875 0.95
1.75 0.8125 0.8875
1.8125 0.875 0.8875
1.8125 0.8125 0.8875
1.875 0.875 0.8875
1.8125 0.8125 0.95
1.875 0.8125 0.95
1.8125 0.875 0.95
1.875 0.8125 0.8875
1.9375 0.875 0.8875
1.9375 0.8125 0.8875
2 0.875 0.8875
1.9375 0.8125 0.95
2 0.8125 0.95
1.9375 0.875 0.95
2 0.8125 0.8875
2.0625 0.875 0.8875
2.0625 0.8125 0.8875
2.125 0.875 0.8875
2.0625 0.8125 0.95
2.125 0.8125 0.95
2.0625 0.875 0.95
2.125 0.8125 0.8875
2.1875 0.875 0.8875
2.1875 0.8125 0.8875
2.25 0.875 0.8875
2.1875 0.8125 0.95
2.25 0.8125 0.95
2.1875 0.875 0.95
2.25 0.8125 0.8875
2.3125 0.875 0.8875
2.3125 0.8125 0.8875
2.375 0.875 0.8875
2.3125 0.8125 0.95
2.375 0.8125 0.95
2.3125 0.875 0.95
2.375 0.8125 0.8875
2.4375 0.875 0.8875
2.4375 0.8125 0.8875
2.5 0.875 0.8875
2.4375 0.8125 0.95
2.5 0.8125 0.95
2.4375 0.875 0.95
2.5 0.8125 0.8875
2.5625 0.875 0.8875
2.5625 0.8125 0.8875
2.625 0.875 0.8875
2.5625 0.8125 0.95
2.625 0.8125 0.95
2.5625 0.875 0.95
2.625 0.8125 0.8875
2.6875 0.875 0.8875
2.6875 0.8125 0.8875
2.75 0.875 0.8875
2.6875 0.8125 0.95
2.75 0.8125 0.95
2.6875 0.875 0.95
2.75 0.8125 0.8875
2.8125 0.875 0.8875
2.8125 0.8125 0.8875
2.875 0.875 0.8875
2.8125 0.8125 0.95
2.875 0.8125 0.95
2.8125 0.875 0.95
2.875 0.8125 0.8875
2.9375 0.875 0.8875
2.9375 0.8125 0.8875
3 0.875 0.8875
2.9375 0.8125 0.95
3 0.8125 0.95
2.9375 0.875 0.95
3 0.8125 0.8875
3.0625 0.875 0.8875
3.0625 0.8125 0.8875
3.125 0.875 0.8875
3.0625 0.8125 0.95
3.125 0.8125 0.95
3.0625 0.875 0.95
3.125 0.8125 0.8875
3.1875 0.875 0.8875
3.1875 0.8125 0.8875
3.25 0.875 0.8875
3.1875 0.8125 0.95
3.25 0.8125 0.95
3.1875 0.875 0.95
3.25 0.8125 0.8875
3.3125 0.875 0.8875
3.3125 0.8125 0.8875
3.375 0.875 0.8875
3.3125 0.8125 0.95
3.375 0.8125 0.95
3.3125 0.875 0.95
3.375 0.8125 0.8875
3.4375 0.875 0.8875
3.4375 0.8125 0.8875
3.5 0.875 0.8875
3.4375 0.8125 0.95
3.5 0.8125 0.95
3.4375 0.875 0.95
3.5 0.8125 0.8875
3.5625 0.875 0.8875
3.5625 0.8125 0.8875
3.625 0.875 0.8875
3.5625 0.8125 0.95
3.625 0.8125 0.95
3.5625 0.875 0.95
3.625 0.8125 0.8875
3.6875 0.875 0.8875
3.6875 0.8125 0.8875
3.75 0.875 0.8875
3.6875 0.8125 0.95
3.75 0.8125 0.95
3.6875 0.875 0.95
3.75 0.8125 0.8875
3.8125 0.875 0.8875
3.8125 0.8125 0.8875
3.875 0.875 0.8875
3.8125 0.8125 0.95
3.875 0.8125 0.95
3.8125 0.875 0.95
3.875 0.8125 0.8875
3.9375 0.875 0.8875
3.9375 0.8125 0.8875
4 0.875 0.8875
3.9375 0.8125 0.95
4 0.8125 0.95
3.9375 0.875 0.95
4 0.8125 0.8875
0.0625 1 0.8875
0.0625 0.9375 0.8875
0.125 1 0.8875
0.0625 0.9375 0.95
0.125 0.9375 0.95
0 1 0.8875
0 0.9375 0.8875
0.0625 1 0.95
0 0.9375 0.95
0.125 0.9375 0.8875
0.1875 1 0.8875
0.1875 0.9375 0.8875
0.25 1 0.8875
0.1875 0.9375 0.95
0.25 0.9375 0.95
0.1875 1 0.95
0.25 0.9375 0.8875
0.3125 1 0.8875
0.3125 0.9375 0.8875
0.375 1 0.8875
0.3125 0.9375 0.95
0.375 0.9375 0.95
0.3125 1 0.95
0.375 0.9375 0.8875
0.4375 1 0.8875
0.4375 0.9375 0.8875
0.5 1 0.8875
0.4375 0.9375 0.95
0.5 0.9375 0.95
0.4375 1 0.95
0.5 0.9375 0.8875
0.5625 1 0.8875
0.5625 0.9375 0.8875
0.625 1 0.8875
0.5625 0.9375 0.95
0.625 0.9375 0.95
0.5625 1 0.95
0.625 0.9375 0.8875
0.6875 1 0.8875
0.6875 0.9375 0.8875
0.75 1 0.8875
0.6875 0.9375 0.95
0.75 0.9375 0.95
0.6875 1 0.95
0.75 0.9375 0.8875
0.8125 1 0.8875
0.8125 0.9375 0.8875
0.875 1 0.8875
0.8125 0.9375 0.95
0.875 0.9375 0.95
0.8125 1 0.95
0.875 0.9375 0.8875
0.9375 1 0.8875
0.9375 0.9375 0.8875
1 1 0.8875
0.9375 0.9375 0.95
1 0.9375 0.95
0.9375 1 0.95
1 0.9375 0.8875
1.0625 1 0.8875
1.0625 0.9375 0.8875
1.125 1 0.8875
1.0625 0.9375 0.95
1.125 0.9375 0.95
1.0625 1 0.95
1.125 0.9375 0.8875
1.1875 1 0.8875
1.1875 0.9375 0.8875
1.25 1 0.8875
1.1875 0.9375 0.95
1.25 0.9375 0.95
1.1875 1 0.95
1.25 0.9375 0.8875
1.3125 1 0.8875
1.3125 0.9375 0.8875
1.375 1 0.8875
1.3125 0.9375 0.95
1.375 0.9375 0.95
1.3125 1 0.95
1.375 0.9375 0.8875
1.4375 1 0.8875
1.4375 0.9375 0.8875
1.5 1 0.8875
1.4375 0.9375 0.95
1.5 0.9375 0.95
1.4375 1 0.95
1.5 0.9375 0.8875
1.5625 1 0.8875
1.5625 0.9375 0.8875
1.625 1 0.8875
1.5625 0.9375 0.95
1.625 0.9375 0.95
1.5625 1 0.95
1.625 0.9375 0.8875
1.6875 1 0.8875
1.6875 0.9375 0.8875
1.75 1 0.8875
1.6875 0.9375 0.95
1.75 0.9375 0.95
1.6875 1 0.95
1.75 0.9375 0.8875
1.8125 1 0.8875
1.8125 0.9375 0.8875
1.875 1 0.8875
1.8125 0.9375 0.95
1.875 0.9375 0.95
1.8125 1 0.95
1.875 0.9375 0.8875
1.9375 1 0.8875
1.9375 0.9375 0.8875
2 1 0.8875
1.9375 0.9375 0.95
2 0.9375 0.95
1.9375 1 0.95
2 0.9375 0.8875
2.0625 1 0.8875
2.0625 0.9375 0.8875
2.125 1 0.8875
2.0625 0.9375 0.95
2.125 0.9375 0.95
2.0625 1 0.95
2.125 0.9375 0.8875
2.1875 1 0.8875
2.1875 0.9375 0.8875
2.25 1 0.8875
2.1875 0.9375 0.95
2.25 0.9375 0.95
2.1875 1 0.95
2.25 0.9375 0.8875
2.3125 1 0.8875
2.3125 0.9375 0.8875
2.375 1 0.8875
2.3125 0.9375 0.95
2.375 0.9375 0.95
2.3125 1 0.95
2.375 0.9375 0.8875
2.4375 1 0.8875
2.4375 0.9375 0.8875
2.5 1 0.8875
2.4375 0.9375 0.95
2.5 0.9375 0.95
2.4375 1 0.95
2.5 0.9375 0.8875
2.5625 1 0.8875
2.5625 0.9375 0.8875
2.625 1 0.8875
2.5625 0.9375 0.95
2.625 0.9375 0.95
2.5625 1 0.95
2.625 0.9375 0.8875
2.6875 1 0.8875
2.6875 0.9375 0.8875
2.75 1 0.8875
2.6875 0.9375 0.95
2.75 0.9375 0.95
2.6875 1 0.95
2.75 0.9375 0.8875
2.8125 1 0.8875
2.8125 0.9375 0.8875
2.875 1 0.8875
2.8125 0.9375 0.95
2.875 0.9375 0.95
2.8125 1 0.95
2.875 0.9375 0.8875
2.9375 1 0.8875
2.9375 0.9375 0.8875
3 1 0.8875
2.9375 0.9375 0.95
3 0.9375 0.95
2.9375 1 0.95
3 0.9375 0.8875
3.0625 1 0.8875
3.0625 0.9375 0.8875
3.125 1 0.8875
3.0625 0.9375 0.95
3.125 0.9375 0.95
3.0625 1 0.95
3.125 0.9375 0.8875
3.1875 1 0.8875
3.1875 0.9375 0.8875
3.25 1 0.8875
3.1875 0.9375 0.95
3.25 0.9375 0.95
3.1875 1 0.95
3.25 0.9375 0.8875
3.3125 1 0.8875
3.3125 0.9375 0.8875
3.375 1 0.8875
3.3125 0.9375 0.95
3.375 0.9375 0.95
3.3125 1 0.95
3.375 0.9375 0.8875
3.4375 1 0.8875
3.4375 0.9375 0.8875
3.5 1 0.8875
3.4375 0.9375 0.95
3.5 0.9375 0.95
3.4375 1 0.95
3.5 0.9375 0.8875
3.5625 1 0.8875
3.5625 0.9375 0.8875
3.625 1 0.8875
3.5625 0.9375 0.95
3.625 0.9375 0.95
3.5625 1 0.95
3.625 0.9375 0.8875
3.6875 1 0.8875
3.6875 0.9375 0.8875
3.75 1 0.8875
3.6875 0.9375 0.95
3.75 0.9375 0.95
3.6875 1 0.95
3.75 0.9375 0.8875
3.8125 1 0.8875
3.8125 0.9375 0.8875
3.875 1 0.8875
3.8125 0.9375 0.95
3.875 0.9375 0.95
3.8125 1 0.95
3.875 0.9375 0.8875
3.9375 1 0.8875
3.9375 0.9375 0.8875
4 1 0.8875
3.9375 0.9375 0.95
4 0.9375 0.95
3.9375 1 0.95
4 0.9375 0.8875
0.0625 0.125 1.0125
0.0625 0.0625 1.0125
0.125 0.125 1.0125
0.0625 0.0625 1.075
0.125 0.0625 1.075
0.0625 0 1.075
0 0 1.0125
0.0625 0 1.0125
0 0.125 1.0125
0 0.0625 1.0125
0.0625 0.125 1.075
0 0.0625 1.075
0.125 0 1.0125
0.125 0.0625 1.0125
0.1875 0.125 1.0125
0.1875 0.0625 1.0125
0.25 0.125 1.0125
0.1875 0.0625 1.075
0.25 0.0625 1.075
0.1875 0 1.075
0.1875 0 1.0125
0.1875 0.125 1.075
0.25 0 1.0125
0.25 0.0625 1.0125
0.3125 0.125 1.0125
0.3125 0.0625 1.0125
0.375 0.125 1.0125
0.3125 0.0625 1.075
0.375 0.0625 1.075
0.3125 0 1.075
0.3125 0 1.0125
0.3125 0.125 1.075
0.375 0 1.0125
0.375 0.0625 1.0125
0.4375 0.125 1.0125
0.4375 0.0625 1.0125
0.5 0.125 1.0125
0.4375 0.0625 1.075
0.5 0.0625 1.075
0.4375 0 1.075
0.4375 0 1.0125
0.4375 0.125 1.075
0.5 0 1.0125
0.5 0.0625 1.0125
0.5625 0.125 1.0125
0.5625 0.0625 1.0125
0.625 0.125 1.0125
0.5625 0.0625 1.075
0.625 0.0625 1.075
0.5625 0 1.075
0.5625 0 1.0125
0.5625 0.125 1.075
0.625 0 1.0125
0.625 0.0625 1.0125
0.6875 0.125 1.0125
0.6875 0.0625 1.0125
0.75 0.125 1.0125
0.6875 0.0625 1.075
0.75 0.0625 1.075
0.6875 0 1.075
0.6875 0 1.0125
0.6875 0.125 1.075
0.75 0 1.0125
0.75 0.0625 1.0125
0.8125 0.125 1.0125
0.8125 0.0625 1.0125
0.875 0.125 1.0125
0.8125 0.0625 1.075
0.875 0.0625 1.075
0.8125 0 1.075
0.8125 0 1.0125
0.8125 0.125 1.075
0.875 0 1.0125
0.875 0.0625 1.0125
0.9375 0.125 1.0125
0.9375 0.0625 1.0125
1 0.125 1.0125
0.9375 0.0625 1.075
1 0.0625 1.075
0.9375 0 1.075
0.9375 0 1.0125
0.9375 0.125 1.075
1 0 1.0125
1 0.0625 1.0125
1.0625 0.125 1.0125
1.0625 0.0625 1.0125
1.125 0.125 1.0125
1.0625 0.0625 1.075
1.125 0.0625 1.075
1.0625 0 1.075
1.0625 0 1.0125
1.0625 0.125 1.075
1.125 0 1.0125
1.125 0.0625 1.0125
1.1875 0.125 1.0125
1.1875 0.0625 1.0125
1.25 0.125 1.0125
1.1875 0.0625 1.075
1.25 0.0625 1.075
1.1875 0 1.075
1.1875 0 1.0125
1.1875 0.125 1.075
1.25 0 1.0125
1.25 0.0625 1.0125
1.3125 0.125 1.0125
1.3125 0.0625 1.0125
1.375 0.125 1.0125
1.3125 0.0625 1.075
1.375 0.0625 1.075
1.3125 0 1.075
1.3125 0 1.0125
1.3125 0.125 1.075
1.375 0 1.0125
1.375 0.0625 1.0125
1.4375 0.125 1.0125
1.4375 0.0625 1.0125
1.5 0.125 1.0125
1.4375 0.0625 1.075
1.5 0.0625 1.075
1.4375 0 1.075
1.4375 0 1.0125
1.4375 0.125 1.075
1.5 0 1.0125
1.5 0.0625 1.0125
1.5625 0.125 1.0125
1.5625 0.0625 1.0125
1.625 0.125 1.0125
1.5625 0.0625 1.075
1.625 0.0625 1.075
1.5625 0 1.075
1.5625 0 1.0125
1.5625 0.125 1.075
1.625 0 1.0125
1.625 0.0625 1.0125
1.6875 0.125 1.0125
1.6875 0.0625 1.0125
1.75 0.125 1.0125
1.6875 0.0625 1.075
1.75 0.0625 1.075
1.6875 0 1.075
1.6875 0 1.0125
1.6875 0.125 1.075
1.75 0 1.0125
1.75 0.0625 1.0125
1.8125 0.125 1.0125
1.8125 0.0625 1.0125
1.875 0.125 1.0125
1.8125 0.0625 1.075
1.875 0.0625 1.075
1.8125 0 1.075
1.8125 0 1.0125
1.8125 0.125 1.075
1.875 0 1.0125
1.875 0.0625 1.0125
1.9375 0.125 1.0125
1.9375 0.0625 1.0125
2 0.125 1.0125
1.9375 0.0625 1.075
2 0.0625 1.075
1.9375 0 1.075
1.9375 0 1.0125
1.9375 0.125 1.075
2 0 1.0125
2 0.0625 1.0125
2.0625 0.125 1.0125
2.0625 0.0625 1.0125
2.125 0.125 1.0125
2.0625 0.0625 1.075
2.125 0.0625 1.075
2.0625 0 1.075
2.0625 0 1.0125
2.0625 0.125 1.075
2.125 0 1.0125
2.125 0.0625 1.0125
2.1875 0.125 1.0125
2.1875 0.0625 1.0125
2.25 0.125 1.0125
2.1875 0.0625 1.075
2.25 0.0625 1.075
2.1875 0 1.075
2.1875 0 1.0125
2.1875 0.125 1.075
2.25 0 1.0125
2.25 0.0625 1.0125
2.3125 0.125 1.0125
2.3125 0.0625 1.0125
2.375 0.125 1.0125
2.3125 0.0625 1.075
2.375 0.0625 1.075
2.3125 0 1.075
2.3125 0 1.0125
2.3125 0.125 1.075
2.375 0 1.0125
2.375 0.0625 1.0125
2.4375 0.125 1.0125
2.4375 0.0625 1.0125
2.5 0.125 1.0125
2.4375 0.0625 1.075
2.5 0.0625 1.075
2.4375 0 1.075
2.4375 0 1.0125
2.4375 0.125 1.075
2.5 0 1.0125
2.5 0.0625 1.0125
2.5625 0.125 1.0125
2.5625 0.0625 1.0125
2.625 0.125 1.0125
2.5625 0.0625 1.075
2.625 0.0625 1.075
2.5625 0 1.075
2.5625 0 1.0125
2.5625 0.125 1.075
2.625 0 1.0125
2.625 0.0625 1.0125
2.6875 0.125 1.0125
2.6875 0.0625 1.0125
2.75 0.125 1.0125
2.6875 0.0625 1.075
2.75 0.0625 1.075
2.6875 0 1.075
2.6875 0 1.0125
2.6875 0.125 1.075
2.75 0 1.0125
2.75 0.0625 1.0125
2.8125 0.125 1.0125
2.8125 0.0625 1.0125
2.875 0.125 1.0125
2.8125 0.0625 1.075
2.875 0.0625 1.075
2.8125 0 1.075
2.8125 0 1.0125
2.8125 0.125 1.075
2.875 0 1.0125
2.875 0.0625 1.0125
2.9375 0.125 1.0125
2.9375 0.0625 1.0125
3 0.125 1.0125
2.9375 0.0625 1.075
3 0.0625 1.075
2.9375 0 1.075
2.9375 0 1.0125
2.9375 0.125 1.075
3 0 1.0125
3 0.0625 1.0125
3.0625 0.125 1.0125
3.0625 0.0625 1.0125
3.125 0.125 1.0125
3.0625 0.0625 1.075
3.125 0.0625 1.075
3.0625 0 1.075
3.0625 0 1.0125
3.0625 0.125 1.075
3.125 0 1.0125
3.125 0.0625 1.0125
3.1875 0.125 1.0125
3.1875 0.0625 1.0125
3.25 0.125 1.0125
3.1875 0.0625 1.075
3.25 0.0625 1.075
3.1875 0 1.075
3.1875 0 1.0125
3.1875 0.125 1.075
3.25 0 1.0125
3.25 0.0625 1.0125
3.3125 0.125 1.0125
3.3125 0.0625 1.0125
3.375 0.125 1.0125
3.3125 0.0625 1.075
3.375 0.0625 1.075
3.3125 0 1.075
3.3125 0 1.0125
3.3125 0.125 1.075
3.375 0 1.0125
3.375 0.0625 1.0125
3.4375 0.125 1.0125
3.4375 0.0625 1.0125
3.5 0.125 1.0125
3.4375 0.0625 1.075
3.5 0.0625 1.075
3.4375 0 1.075
3.4375 0 1.0125
3.4375 0.125 1.075
3.5 0 1.0125
3.5 0.0625 1.0125
3.5625 0.125 1.0125
3.5625 0.0625 1.0125
3.625 0.125 1.0125
3.5625 0.0625 1.075
3.625 0.0625 1.075
3.5625 0 1.075
3.5625 0 1.0125
3.5625 0.125 1.075
3.625 0 1.0125
3.625 0.0625 1.0125
3.6875 0.125 1.0125
3.6875 0.0625 1.0125
3.75 0.125 1.0125
3.6875 0.0625 1.075
3.75 0.0625 1.075
3.6875 0 1.075
3.6875 0 1.0125
3.6875 0.125 1.075
3.75 0 1.0125
3.75 0.0625 1.0125
3.8125 0.125 1.0125
3.8125 0.0625 1.0125
3.875 0.125 1.0125
3.8125 0.0625 1.075
3.875 0.0625 1.075
3.8125 0 1.075
3.8125 0 1.0125
3.8125 0.125 1.075
3.875 0 1.0125
3.875 0.0625 1.0125
3.9375 0.125 1.0125
3.9375 0.0625 1.0125
4 0.125 1.0125
3.9375 0.0625 1.075
4 0.0625 1.075
3.9375 0 1.075
3.9375 0 1.0125
3.9375 0.125 1.075
4 0 1.0125
4 0.0625 1.0125
0.0625 0.25 1.0125
0.0625 0.1875 1.0125
0.125 0.25 1.0125
0.0625 0.1875 1.075
0.125 0.1875 1.075
0 0.25 1.0125
0 0.1875 1.0125
0.0625 0.25 1.075
0 0.1875 1.075
0.125 0.1875 1.0125
0.1875 0.25 1.0125
0.1875 0.1875 1.0125
0.25 0.25 1.0125
0.1875 0.1875 1.075
0.25 0.1875 1.075
0.1875 0.25 1.075
0.25 0.1875 1.0125
0.3125 0.25 1.0125
0.3125 0.1875 1.0125
0.375 0.25 1.0125
0.3125 0.1875 1.075
0.375 0.1875 1.075
0.3125 0.25 1.075
0.375 0.1875 1.0125
0.4375 0.25 1.0125
0.4375 0.1875 1.0125
0.5 0.25 1.0125
0.4375 0.1875 1.075
0.5 0.1875 1.075
0.4375 0.25 1.075
0.5 0.1875 1.0125
0.5625 0.25 1.0125
0.5625 0.1875 1.0125
0.625 0.25 1.0125
0.5625 0.1875 1.075
0.625 0.1875 1.075
0.5625 0.25 1.075
0.625 0.1875 1.0125
0.6875 0.25 1.0125
0.6875 0.1875 1.0125
0.75 0.25 1.0125
0.6875 0.1875 1.075
0.75 0.1875 1.075
0.6875 0.25 1.075
0.75 0.1875 1.0125
0.8125 0.25 1.0125
0.8125 0.1875 1.0125
0.875 0.25 1.0125
0.8125 0.1875 1.075
0.875 0.1875 1.075
0.8125 0.25 1.075
0.875 0.1875 1.0125
0.9375 0.25 1.0125
0.9375 0.1875 1.0125
1 0.25 1.0125
0.9375 0.1875 1.075
1 0.1875 1.075
0.9375 0.25 1.075
1 0.1875 1.0125
1.0625 0.25 1.0125
1.0625 0.1875 1.0125
1.125 0.25 1.0125
1.0625 0.1875 1.075
1.125 0.1875 1.075
1.0625 0.25 1.075
1.125 0.1875 1.0125
1.1875 0.25 1.0125
1.1875 0.1875 1.0125
1.25 0.25 1.0125
1.1875 0.1875 1.075
1.25 0.1875 1.075
1.1875 0.25 1.075
1.25 0.1875 1.0125
1.3125 0.25 1.0125
1.3125 0.1875 1.0125
1.375 0.25 1.0125
1.3125 0.1875 1.075
1.375 0.1875 1.075
1.3125 0.25 1.075
1.375 0.1875 1.0125
1.4375 0.25 1.0125
1.4375 0.1875 1.0125
1.5 0.25 1.0125
1.4375 0.1875 1.075
1.5 0.1875 1.075
1.4375 0.25 1.075
1.5 0.1875 1.0125
1.5625 0.25 1.0125
1.5625 0.1875 1.0125
1.625 0.25 1.0125
1.5625 0.1875 1.075
1.625 0.1875 1.075
1.5625 0.25 1.075
1.625 0.1875 1.0125
1.6875 0.25 1.0125
1.6875 0.1875 1.0125
1.75 0.25 1.0125
1.6875 0.1875 1.075
1.75 0.1875 1.075
1.6875 0.25 1.075
1.75 0.1875 1.0125
1.8125 0.25 1.0125
1.8125 0.1875 1.0125
1.875 0.25 1.0125
1.8125 0.1875 1.075
1.875 0.1875 1.075
1.8125 0.25 1.075
1.875 0.1875 1.0125
1.9375 0.25 1.0125
1.9375 0.1875 1.0125
2 0.25 1.0125
1.9375 0.1875 1.075
2 0.1875 1.075
1.9375 0.25 1.075
2 0.1875 1.0125
2.0625 0.25 1.0125
2.0625 0.1875 1.0125
2.125 0.25 1.0125
2.0625 0.1875 1.075
2.125 0.1875 1.075
2.0625 0.25 1.075
2.125 0.1875 1.0125
2.1875 0.25 1.0125
2.1875 0.1875 1.0125
2.25 0.25 1.0125
2.1875 0.1875 1.075
2.25 0.1875 1.075
2.1875 0.25 1.075
2.25 0.1875 1.0125
2.3125 0.25 1.0125
2.3125 0.1875 1.0125
2.375 0.25 1.0125
2.3125 0.1875 1.075
2.375 0.1875 1.075
2.3125 0.25 1.075
2.375 0.1875 1.0125
2.4375 0.25 1.0125
2.4375 0.1875 1.0125
2.5 0.25 1.0125
2.4375 0.1875 1.075
2.5 0.1875 1.075
2.4375 0.25 1.075
2.5 0.1875 1.0125
2.5625 0.25 1.0125
2.5625 0.1875 1.0125
2.625 0.25 1.0125
2.5625 0.1875 1.075
2.625 0.1875 1.075
2.5625 0.25 1.075
2.625 0.1875 1.0125
2.6875 0.25 1.0125
2.6875 0.1875 1.0125
2.75 0.25 1.0125
2.6875 0.1875 1.075
2.75 0.1875 1.075
2.6875 0.25 1.075
2.75 0.1875 1.0125
2.8125 0.25 1.0125
2.8125 0.1875 1.0125
2.875 0.25 1.0125
2.8125 0.1875 1.075
2.875 0.1875 1.075
2.8125 0.25 1.075
2.875 0.1875 1.0125
2.9375 0.25 1.0125
2.9375 0.1875 1.0125
3 0.25 1.0125
2.9375 0.1875 1.075
3 0.1875 1.075
2.9375 0.25 1.075
3 0.1875 1.0125
3.0625 0.25 1.0125
3.0625 0.1875 1.0125
3.125 0.25 1.0125
3.0625 0.1875 1.075
3.125 0.1875 1.075
3.0625 0.25 1.075
3.125 0.1875 1.0125
3.1875 0.25 1.0125
3.1875 0.1875 1.0125
3.25 0.25 1.0125
3.1875 0.1875 1.075
3.25 0.1875 1.075
3.1875 0.25 1.075
3.25 0.1875 1.0125
3.3125 0.25 1.0125
3.3125 0.1875 1.0125
3.375 0.25 1.0125
3.3125 0.1875 1.075
3.375 0.1875 1.075
3.3125 0.25 1.075
3.375 0.1875 1.0125
3.4375 0.25 1.0125
3.4375 0.1875 1.0125
3.5 0.25 1.0125
3.4375 0.1875 1.075
3.5 0.1875 1.075
3.4375 0.25 1.075
3.5 0.1875 1.0125
3.5625 0.25 1.0125
3.5625 0.1875 1.0125
3.625 0.25 1.0125
3.5625 0.1875 1.075
3.625 0.1875 1.075
3.5625 0.25 1.075
3.625 0.1875 1.0125
3.6875 0.25 1.0125
3.6875 0.1875 1.0125
3.75 0.25 1.0125
3.6875 0.1875 1.075
3.75 0.1875 1.075
3.6875 0.25 1.075
3.75 0.1875 1.0125
3.8125 0.25 1.0125
3.8125 0.1875 1.0125
3.875 0.25 1.0125
3.8125 0.1875 1.075
3.875 0.1875 1.075
3.8125 0.25 1.075
3.875 0.1875 1.0125
3.9375 0.25 1.0125
3.9375 0.1875 1.0125
4 0.25 1.0125
3.9375 0.1875 1.075
4 0.1875 1.075
3.9375 0.25 1.075
4 0.1875 1.0125
0.0625 0.375 1.0125
0.0625 0.3125 1.0125
0.125 0.375 1.0125
0.0625 0.3125 1.075
0.125 0.3125 1.075
0 0.375 1.0125
0 0.3125 1.0125
0.0625 0.375 1.075
0 0.3125 1.075
0.125 0.3125 1.0125
0.1875 0.375 1.0125
0.1875 0.3125 1.0125
0.25 0.375 1.0125
0.1875 0.3125 1.075
0.25 0.3125 1.075
0.1875 0.375 1.075
0.25 0.3125 1.0125
0.3125 0.375 1.0125
0.3125 0.3125 1.0125
0.375 0.375 1.0125
0.3125 0.3125 1.075
0.375 0.3125 1.075
0.3125 0.375 1.075
0.375 0.3125 1.0125
0.4375 0.375 1.0125
0.4375 0.3125 1.0125
0.5 0.375 1.0125
0.4375 0.3125 1.075
0.5 0.3125 1.075
0.4375 0.375 1.075
0.5 0.3125 1.0125
0.5625 0.375 1.0125
0.5625 0.3125 1.0125
0.625 0.375 1.0125
0.5625 0.3125 1.075
0.625 0.3125 1.075
0.5625 0.375 1.075
0.625 0.3125 1.0125
0.6875 0.375 1.0125
0.6875 0.3125 1.0125
0.75 0.375 1.0125
0.6875 0.3125 1.075
0.75 0.3125 1.075
0.6875 0.375 1.075
0.75 0.3125 1.0125
0.8125 0.375 1.0125
0.8125 0.3125 1.0125
0.875 0.375 1.0125
0.8125 0.3125 1.075
0.875 0.3125 1.075
0.8125 0.375 1.075
0.875 0.3125 1.0125
0.9375 0.375 1.0125
0.9375 0.3125 1.0125
1 0.375 1.0125
0.9375 0.3125 1.075
1 0.3125 1.075
0.9375 0.375 1.075
1 0.3125 1.0125
1.0625 0.375 1.0125
1.0625 0.3125 1.0125
1.125 0.375 1.0125
1.0625 0.3125 1.075
1.125 0.3125 1.075
1.0625 0.375 1.075
1.125 0.3125 1.0125
1.1875 0.375 1.0125
1.1875 0.3125 1.0125
1.25 0.375 1.0125
1.1875 0.3125 1.075
1.25 0.3125 1.075
1.1875 0.375 1.075
1.25 0.3125 1.0125
1.3125 0.375 1.0125
1.3125 0.3125 1.0125
1.375 0.375 1.0125
1.3125 0.3125 1.075
1.375 0.3125 1.075
1.3125 0.375 1.075
1.375 0.3125 1.0125
1.4375 0.375 1.0125
1.4375 0.3125 1.0125
1.5 0.375 1.0125
1.4375 0.3125 1.075
1.5 0.3125 1.075
1.4375 0.375 1.075
1.5 0.3125 1.0125
1.5625 0.375 1.0125
1.5625 0.3125 1.0125
1.625 0.375 1.0125
1.5625 0.3125 1.075
1.625 0.3125 1.075
1.5625 0.375 1.075
1.625 0.3125 1.0125
1.6875 0.375 1.0125
1.6875 0.3125 1.0125
1.75 0.375 1.0125
1.6875 0.3125 1.075
1.75 0.3125 1.075
1.6875 0.375 1.075
1.75 0.3125 1.0125
1.8125 0.375 1.0125
1.8125 0.3125 1.0125
1.875 0.375 1.0125
1.8125 0.3125 1.075
1.875 0.3125 1.075
1.8125 0.375 1.075
1.875 0.3125 1.0125
1.9375 0.375 1.0125
1.9375 0.3125 1.0125
2 0.375 1.0125
1.9375 0.3125 1.075
2 0.3125 1.075
1.9375 0.375 1.075
2 0.3125 1.0125
2.0625 0.375 1.0125
2.0625 0.3125 1.0125
2.125 0.375 1.0125
2.0625 0.3125 1.075
2.125 0.3125 1.075
2.0625 0.375 1.075
2.125 0.3125 1.0125
2.1875 0.375 1.0125
2.1875 0.3125 1.0125
2.25 0.375 1.0125
2.1875 0.3125 1.075
2.25 0.3125 1.075
2.1875 0.375 1.075
2.25 0.3125 1.0125
2.3125 0.375 1.0125
2.3125 0.3125 1.0125
2.375 0.375 1.0125
2.3125 0.3125 1.075
2.375 0.3125 1.075
2.3125 0.375 1.075
2.375 0.3125 1.0125
2.4375 0.375 1.0125
2.4375 0.3125 1.0125
2.5 0.375 1.0125
2.4375 0.3125 1.075
2.5 0.3125 1.075
2.4375 0.375 1.075
2.5 0.3125 1.0125
2.5625 0.375 1.0125
2.5625 0.3125 1.0125
2.625 0.375 1.0125
2.5625 0.3125 1.075
2.625 0.3125 1.075
2.5625 0.375 1.075
2.625 0.3125 1.0125
2.6875 0.375 1.0125
2.6875 0.3125 1.0125
2.75 0.375 1.0125
2.6875 0.3125 1.075
2.75 0.3125 1.075
2.6875 0.375 1.075
2.75 0.3125 1.0125
2.8125 0.375 1.0125
2.8125 0.3125 1.0125
2.875 0.375 1.0125
2.8125 0.3125 1.075
2.875 0.3125 1.075
2.8125 0.375 1.075
2.875 0.3125 1.0125
2.9375 0.375 1.0125
2.9375 0.3125 1.0125
3 0.375 1.0125
2.9375 0.3125 1.075
3 0.3125 1.075
2.9375 0.375 1.075
3 0.3125 1.0125
3.0625 0.375 1.0125
3.0625 0.3125 1.0125
3.125 0.375 1.0125
3.0625 0.3125 1.075
3.125 0.3125 1.075
3.0625 0.375 1.075
3.125 0.3125 1.0125
3.1875 0.375 1.0125
3.1875 0.3125 1.0125
3.25 0.375 1.0125
3.1875 0.3125 1.075
3.25 0.3125 1.075
3.1875 0.375 1.075
3.25 0.3125 1.0125
3.3125 0.375 1.0125
3.3125 0.3125 1.0125
3.375 0.375 1.0125
3.3125 0.3125 1.075
3.375 0.3125 1.075
3.3125 0.375 1.075
3.375 0.3125 1.0125
3.4375 0.375 1.0125
3.4375 0.3125 1.0125
3.5 0.375 1.0125
3.4375 0.3125 1.075
3.5 0.3125 1.075
3.4375 0.375 1.075
3.5 0.3125 1.0125
3.5625 0.375 1.0125
3.5625 0.3125 1.0125
3.625 0.375 1.0125
3.5625 0.3125 1.075
3.625 0.3125 1.075
3.5625 0.375 1.075
3.625 0.3125 1.0125
3.6875 0.375 1.0125
3.6875 0.3125 1.0125
3.75 0.375 1.0125
3.6875 0.3125 1.075
3.75 0.3125 1.075
3.6875 0.375 1.075
3.75 0.3125 1.0125
3.8125 0.375 1.0125
3.8125 0.3125 1.0125
3.875 0.375 1.0125
3.8125 0.3125 1.075
3.875 0.3125 1.075
3.8125 0.375 1.075
3.875 0.3125 1.0125
3.9375 0.375 1.0125
3.9375 0.3125 1.0125
4 0.375 1.0125
3.9375 0.3125 1.075
4 0.3125 1.075
3.9375 0.375 1.075
4 0.3125 1.0125
0.0625 0.5 1.0125
0.0625 0.4375 1.0125
0.125 0.5 1.0125
0.0625 0.4375 1.075
0.125 0.4375 1.075
0 0.5 1.0125
0 0.4375 1.0125
0.0625 0.5 1.075
0 0.4375 1.075
0.125 0.4375 1.0125
0.1875 0.5 1.0125
0.1875 0.4375 1.0125
0.25 0.5 1.0125
0.1875 0.4375 1.075
0.25 0.4375 1.075
0.1875 0.5 1.075
0.25 0.4375 1.0125
0.3125 0.5 1.0125
0.3125 0.4375 1.0125
0.375 0.5 1.0125
0.3125 0.4375 1.075
0.375 0.4375 1.075
0.3125 0.5 1.075
0.375 0.4375 1.0125
0.4375 0.5 1.0125
0.4375 0.4375 1.0125
0.5 0.5 1.0125
0.4375 0.4375 1.075
0.5 0.4375 1.075
0.4375 0.5 1.075
0.5 0.4375 1.0125
0.5625 0.5 1.0125
0.5625 0.4375 1.0125
0.625 0.5 1.0125
0.5625 0.4375 1.075
0.625 0.4375 1.075
0.5625 0.5 1.075
0.625 0.4375 1.0125
0.6875 0.5 1.0125
0.6875 0.4375 1.0125
0.75 0.5 1.0125
0.6875 0.4375 1.075
0.75 0.4375 1.075
0.6875 0.5 1.075
0.75 0.4375 1.0125
0.8125 0.5 1.0125
0.8125 0.4375 1.0125
0.875 0.5 1.0125
0.8125 0.4375 1.075
0.875 0.4375 1.075
0.8125 0.5 1.075
0.875 0.4375 1.0125
0.9375 0.5 1.0125
0.9375 0.4375 1.0125
1 0.5 1.0125
0.9375 0.4375 1.075
1 0.4375 1.075
0.9375 0.5 1.075
1 0.4375 1.0125
1.0625 0.5 1.0125
1.0625 0.4375 1.0125
1.125 0.5 1.0125
1.0625 0.4375 1.075
1.125 0.4375 1.075
1.0625 0.5 1.075
1.125 0.4375 1.0125
1.1875 0.5 1.0125
1.1875 0.4375 1.0125
1.25 0.5 1.0125
1.1875 0.4375 1.075
1.25 0.4375 1.075
1.1875 0.5 1.075
1.25 0.4375 1.0125
1.3125 0.5 1.0125
1.3125 0.4375 1.0125
1.375 0.5 1.0125
1.3125 0.4375 1.075
1.375 0.4375 1.075
1.3125 0.5 1.075
1.375 0.4375 1.0125
1.4375 0.5 1.0125
1.4375 0.4375 1.0125
1.5 0.5 1.0125
1.4375 0.4375 1.075
1.5 0.4375 1.075
1.4375 0.5 1.075
1.5 0.4375 1.0125
1.5625 0.5 1.0125
1.5625 0.4375 1.0125
1.625 0.5 1.0125
1.5625 0.4375 1.075
1.625 0.4375 1.075
1.5625 0.5 1.075
1.625 0.4375 1.0125
1.6875 0.5 1.0125
1.6875 0.4375 1.0125
1.75 0.5 1.0125
1.6875 0.4375 1.075
1.75 0.4375 1.075
1.6875 0.5 1.075
1.75 0.4375 1.0125
1.8125 0.5 1.0125
1.8125 0.4375 1.0125
1.875 0.5 1.0125
1.8125 0.4375 1.075
1.875 0.4375 1.075
1.8125 0.5 1.075
1.875 0.4375 1.0125
1.9375 0.5 1.0125
1.9375 0.4375 1.0125
2 0.5 1.0125
1.9375 0.4375 1.075
2 0.4375 1.075
1.9375 0.5 1.075
2 0.4375 1.0125
2.0625 0.5 1.0125
2.0625 0.4375 1.0125
2.125 0.5 1.0125
2.0625 0.4375 1.075
2.125 0.4375 1.075
2.0625 0.5 1.075
2.125 0.4375 1.0125
2.1875 0.5 1.0125
2.1875 0.4375 1.0125
2.25 0.5 1.0125
2.1875 0.4375 1.075
2.25 0.4375 1.075
2.1875 0.5 1.075
2.25 0.4375 1.0125
2.3125 0.5 1.0125
2.3125 0.4375 1.0125
2.375 0.5 1.0125
2.3125 0.4375 1.075
2.375 0.4375 1.075
2.3125 0.5 1.075
2.375 0.4375 1.0125
2.4375 0.5 1.0125
2.4375 0.4375 1.0125
2.5 0.5 1.0125
2.4375 0.4375 1.075
2.5 0.4375 1.075
2.4375 0.5 1.075
2.5 0.4375 1.0125
2.5625 0.5 1.0125
2.5625 0.4375 1.0125
2.625 0.5 1.0125
2.5625 0.4375 1.075
2.625 0.4375 1.075
2.5625 0.5 1.075
2.625 0.4375 1.0125
2.6875 0.5 1.0125
2.6875 0.4375 1.0125
2.75 0.5 1.0125
2.6875 0.4375 1.075
2.75 0.4375 1.075
2.6875 0.5 1.075
2.75 0.4375 1.0125
2.8125 0.5 1.0125
2.8125 0.4375 1.0125
2.875 0.5 1.0125
2.8125 0.4375 1.075
2.875 0.4375 1.075
2.8125 0.5 1.075
2.875 0.4375 1.0125
2.9375 0.5 1.0125
2.9375 0.4375 1.0125
3 0.5 1.0125
2.9375 0.4375 1.075
3 0.4375 1.075
2.9375 0.5 1.075
3 0.4375 1.0125
3.0625 0.5 1.0125
3.0625 0.4375 1.0125
3.125 0.5 1.0125
3.0625 0.4375 1.075
3.125 0.4375 1.075
3.0625 0.5 1.075
3.125 0.4375 1.0125
3.1875 0.5 1.0125
3.1875 0.4375 1.0125
3.25 0.5 1.0125
3.1875 0.4375 1.075
3.25 0.4375 1.075
3.1875 0.5 1.075
3.25 0.4375 1.0125
3.3125 0.5 1.0125
3.3125 0.4375 1.0125
3.375 0.5 1.0125
3.3125 0.4375 1.075
3.375 0.4375 1.075
3.3125 0.5 1.075
3.375 0.4375 1.0125
3.4375 0.5 1.0125
3.4375 0.4375 1.0125
3.5 0.5 1.0125
3.4375 0.4375 1.075
3.5 0.4375 1.075
3.4375 0.5 1.075
3.5 0.4375 1.0125
3.5625 0.5 1.0125
3.5625 0.4375 1.0125
3.625 0.5 1.0125
3.5625 0.4375 1.075
3.625 0.4375 1.075
3.5625 0.5 1.075
3.625 0.4375 1.0125
3.6875 0.5 1.0125
3.6875 0.4375 1.0125
3.75 0.5 1.0125
3.6875 0.4375 1.075
3.75 0.4375 1.075
3.6875 0.5 1.075
3.75 0.4375 1.0125
3.8125 0.5 1.0125
3.8125 0.4375 1.0125
3.875 0.5 1.0125
3.8125 0.4375 1.075
3.875 0.4375 1.075
3.8125 0.5 1.075
3.875 0.4375 1.0125
3.9375 0.5 1.0125
3.9375 0.4375 1.0125
4 0.5 1.0125
3.9375 0.4375 1.075
4 0.4375 1.075
3.9375 0.5 1.075
4 0.4375 1.0125
0.0625 0.625 1.0125
0.0625 0.5625 1.0125
0.125 0.625 1.0125
0.0625 0.5625 1.075
0.125 0.5625 1.075
0 0.625 1.0125
0 0.5625 1.0125
0.0625 0.625 1.075
0 0.5625 1.075
0.125 0.5625 1.0125
0.1875 0.625 1.0125
0.1875 0.5625 1.0125
0.25 0.625 1.0125
0.1875 0.5625 1.075
0.25 0.5625 1.075
0.1875 0.625 1.075
0.25 0.5625 1.0125
0.3125 0.625 1.0125
0.3125 0.5625 1.0125
0.375 0.625 1.0125
0.3125 0.5625 1.075
0.375 0.5625 1.075
0.3125 0.625 1.075
0.375 0.5625 1.0125
0.4375 0.625 1.0125
0.4375 0.5625 1.0125
0.5 0.625 1.0125
0.4375 0.5625 1.075
0.5 0.5625 1.075
0.4375 0.625 1.075
0.5 0.5625 1.0125
0.5625 0.625 1.0125
0.5625 0.5625 1.0125
0.625 0.625 1.0125
0.5625 0.5625 1.075
0.625 0.5625 1.075
0.5625 0.625 1.075
0.625 0.5625 1.0125
0.6875 0.625 1.0125
0.6875 0.5625 1.0125
0.75 0.625 1.0125
0.6875 0.5625 1.075
0.75 0.5625 1.075
0.6875 0.625 1.075
0.75 0.5625 1.0125
0.8125 0.625 1.0125
0.8125 0.5625 1.0125
0.875 0.625 1.0125
0.8125 0.5625 1.075
0.875 0.5625 1.075
0.8125 0.625 1.075
0.875 0.5625 1.0125
0.9375 0.625 1.0125
0.9375 0.5625 1.0125
1 0.625 1.0125
0.9375 0.5625 1.075
1 0.5625 1.075
0.9375 0.625 1.075
1 0.5625 1.0125
1.0625 0.625 1.0125
1.0625 0.5625 1.0125
1.125 0.625 1.0125
1.0625 0.5625 1.075
1.125 0.5625 1.075
1.0625 0.625 1.075
1.125 0.5625 1.0125
1.1875 0.625 1.0125
1.1875 0.5625 1.0125
1.25 0.625 1.0125
1.1875 0.5625 1.075
1.25 0.5625 1.075
1.1875 0.625 1.075
1.25 0.5625 1.0125
1.3125 0.625 1.0125
1.3125 0.5625 1.0125
1.375 0.625 1.0125
1.3125 0.5625 1.075
1.375 0.5625 1.075
1.3125 0.625 1.075
1.375 0.5625 1.0125
1.4375 0.625 1.0125
1.4375 0.5625 1.0125
1.5 0.625 1.0125
1.4375 0.5625 1.075
1.5 0.5625 1.075
1.4375 0.625 1.075
1.5 0.5625 1.0125
1.5625 0.625 1.0125
1.5625 0.5625 1.0125
1.625 0.625 1.0125
1.5625 0.5625 1.075
1.625 0.5625 1.075
1.5625 0.625 1.075
1.625 0.5625 1.0125
1.6875 0.625 1.0125
1.6875 0.5625 1.0125
1.75 0.625 1.0125
1.6875 0.5625 1.075
1.75 0.5625 1.075
1.6875 0.625 1.075
1.75 0.5625 1.0125
1.8125 0.625 1.0125
1.8125 0.5625 1.0125
1.875 0.625 1.0125
1.8125 0.5625 1.075
1.875 0.5625 1.075
1.8125 0.625 1.075
1.875 0.5625 1.0125
1.9375 0.625 1.0125
1.9375 0.5625 1.0125
2 0.625 1.0125
1.9375 0.5625 1.075
2 0.5625 1.075
1.9375 0.625 1.075
2 0.5625 1.0125
2.0625 0.625 1.0125
2.0625 0.5625 1.0125
2.125 0.625 1.0125
2.0625 0.5625 1.075
2.125 0.5625 1.075
2.0625 0.625 1.075
2.125 0.5625 1.0125
2.1875 0.625 1.0125
2.1875 0.5625 1.0125
2.25 0.625 1.0125
2.1875 0.5625 1.075
2.25 0.5625 1.075
2.1875 0.625 1.075
2.25 0.5625 1.0125
2.3125 0.625 1.0125
2.3125 0.5625 1.0125
2.375 0.625 1.0125
2.3125 0.5625 1.075
2.375 0.5625 1.075
2.3125 0.625 1.075
2.375 0.5625 1.0125
2.4375 0.625 1.0125
2.4375 0.5625 1.0125
2.5 0.625 1.0125
2.4375 0.5625 1.075
2.5 0.5625 1.075
2.4375 0.625 1.075
2.5 0.5625 1.0125
2.5625 0.625 1.0125
2.5625 0.5625 1.0125
2.625 0.625 1.0125
2.5625 0.5625 1.075
2.625 0.5625 1.075
2.5625 0.625 1.075
2.625 0.5625 1.0125
2.6875 0.625 1.0125
2.6875 0.5625 1.0125
2.75 0.625 1.0125
2.6875 0.5625 1.075
2.75 0.5625 1.075
2.6875 0.625 1.075
2.75 0.5625 1.0125
2.8125 0.625 1.0125
2.8125 0.5625 1.0125
2.875 0.625 1.0125
2.8125 0.5625 1.075
2.875 0.5625 1.075
2.8125 0.625 1.075
2.875 0.5625 1.0125
2.9375 0.625 1.0125
2.9375 0.5625 1.0125
3 0.625 1.0125
2.9375 0.5625 1.075
3 0.5625 1.075
2.9375 0.625 1.075
3 0.5625 1.0125
3.0625 0.625 1.0125
3.0625 0.5625 1.0125
3.125 0.625 1.0125
3.0625 0.5625 1.075
3.125 0.5625 1.075
3.0625 0.625 1.075
3.125 0.5625 1.0125
3.1875 0.625 1.0125
3.1875 0.5625 1.0125
3.25 0.625 1.0125
3.1875 0.5625 1.075
3.25 0.5625 1.075
3.1875 0.625 1.075
3.25 0.5625 1.0125
3.3125 0.625 1.0125
3.3125 0.5625 1.0125
3.375 0.625 1.0125
3.3125 0.5625 1.075
3.375 0.5625 1.075
3.3125 0.625 1.075
3.375 0.5625 1.0125
3.4375 0.625 1.0125
3.4375 0.5625 1.0125
3.5 0.625 1.0125
3.4375 0.5625 1.075
3.5 0.5625 1.075
3.4375 0.625 1.075
3.5 0.5625 1.0125
3.5625 0.625 1.0125
3.5625 0.5625 1.0125
3.625 0.625 1.0125
3.5625 0.5625 1.075
3.625 0.5625 1.075
3.5625 0.625 1.075
3.625 0.5625 1.0125
3.6875 0.625 1.0125
3.6875 0.5625 1.0125
3.75 0.625 1.0125
3.6875 0.5625 1.075
3.75 0.5625 1.075
3.6875 0.625 1.075
3.75 0.5625 1.0125
3.8125 0.625 1.0125
3.8125 0.5625 1.0125
3.875 0.625 1.0125
3.8125 0.5625 1.075
3.875 0.5625 1.075
3.8125 0.625 1.075
3.875 0.5625 1.0125
3.9375 0.625 1.0125
3.9375 0.5625 1.0125
4 0.625 1.0125
3.9375 0.5625 1.075
4 0.5625 1.075
3.9375 0.625 1.075
4 0.5625 1.0125
0.0625 0.75 1.0125
0.0625 0.6875 1.0125
0.125 0.75 1.0125
0.0625 0.6875 1.075
0.125 0.6875 1.075
0 0.75 1.0125
0 0.6875 1.0125
0.0625 0.75 1.075
0 0.6875 1.075
0.125 0.6875 1.0125
0.1875 0.75 1.0125
0.1875 0.6875 1.0125
0.25 0.75 1.0125
0.1875 0.6875 1.075
0.25 0.6875 1.075
0.1875 0.75 1.075
0.25 0.6875 1.0125
0.3125 0.75 1.0125
0.3125 0.6875 1.0125
0.375 0.75 1.0125
0.3125 0.6875 1.075
0.375 0.6875 1.075
0.3125 0.75 1.075
0.375 0.6875 1.0125
0.4375 0.75 1.0125
0.4375 0.6875 1.0125
0.5 0.75 1.0125
0.4375 0.6875 1.075
0.5 0.6875 1.075
0.4375 0.75 1.075
0.5 0.6875 1.0125
0.5625 0.75 1.0125
0.5625 0.6875 1.0125
0.625 0.75 1.0125
0.5625 0.6875 1.075
0.625 0.6875 1.075
0.5625 0.75 1.075
0.625 0.6875 1.0125
0.6875 0.75 1.0125
0.6875 0.6875 1.0125
0.75 0.75 1.0125
0.6875 0.6875 1.075
0.75 0.6875 1.075
0.6875 0.75 1.075
0.75 0.6875 1.0125
0.8125 0.75 1.0125
0.8125 0.6875 1.0125
0.875 0.75 1.0125
0.8125 0.6875 1.075
0.875 0.6875 1.075
0.8125 0.75 1.075
0.875 0.6875 1.0125
0.9375 0.75 1.0125
0.9375 0.6875 1.0125
1 0.75 1.0125
0.9375 0.6875 1.075
1 0.6875 1.075
0.9375 0.75 1.075
1 0.6875 1.0125
1.0625 0.75 1.0125
1.0625 0.6875 1.0125
1.125 0.75 1.0125
1.0625 0.6875 1.075
1.125 0.6875 1.075
1.0625 0.75 1.075
1.125 0.6875 1.0125
1.1875 0.75 1.0125
1.1875 0.6875 1.0125
1.25 0.75 1.0125
1.1875 0.6875 1.075
1.25 0.6875 1.075
1.1875 0.75 1.075
1.25 0.6875 1.0125
1.3125 0.75 1.0125
1.3125 0.6875 1.0125
1.375 0.75 1.0125
1.3125 0.6875 1.075
1.375 0.6875 1.075
1.3125 0.75 1.075
1.375 0.6875 1.0125
1.4375 0.75 1.0125
1.4375 0.6875 1.0125
1.5 0.75 1.0125
1.4375 0.6875 1.075
1.5 0.6875 1.075
1.4375 0.75 1.075
1.5 0.6875 1.0125
1.5625 0.75 1.0125
1.5625 0.6875 1.0125
1.625 0.75 1.0125
1.5625 0.6875 1.075
1.625 0.6875 1.075
1.5625 0.75 1.075
1.625 0.6875 1.0125
1.6875 0.75 1.0125
1.6875 0.6875 1.0125
1.75 0.75 1.0125
1.6875 0.6875 1.075
1.75 0.6875 1.075
1.6875 0.75 1.075
1.75 0.6875 1.0125
1.8125 0.75 1.0125
1.8125 0.6875 1.0125
1.875 0.75 1.0125
1.8125 0.6875 1.075
1.875 0.6875 1.075
1.8125 0.75 1.075
1.875 0.6875 1.0125
1.9375 0.75 1.0125
1.9375 0.6875 1.0125
2 0.75 1.0125
1.9375 0.6875 1.075
2 0.6875 1.075
1.9375 0.75 1.075
2 0.6875 1.0125
2.0625 0.75 1.0125
2.0625 0.6875 1.0125
2.125 0.75 1.0125
2.0625 0.6875 1.075
2.125 0.6875 1.075
2.0625 0.75 1.075
2.125 0.6875 1.0125
2.1875 0.75 1.0125
2.1875 0.6875 1.0125
2.25 0.75 1.0125
2.1875 0.6875 1.075
2.25 0.6875 1.075
2.1875 0.75 1.075
2.25 0.6875 1.0125
2.3125 0.75 1.0125
2.3125 0.6875 1.0125
2.375 0.75 1.0125
2.3125 0.6875 1.075
2.375 0.6875 1.075
2.3125 0.75 1.075
2.375 0.6875 1.0125
2.4375 0.75 1.0125
2.4375 0.6875 1.0125
2.5 0.75 1.0125
2.4375 0.6875 1.075
2.5 0.6875 1.075
2.4375 0.75 1.075
2.5 0.6875 1.0125
2.5625 0.75 1.0125
2.5625 0.6875 1.0125
2.625 0.75 1.0125
2.5625 0.6875 1.075
2.625 0.6875 1.075
2.5625 0.75 1.075
2.625 0.6875 1.0125
2.6875 0.75 1.0125
2.6875 0.6875 1.0125
2.75 0.75 1.0125
2.6875 0.6875 1.075
2.75 0.6875 1.075
2.6875 0.75 1.075
2.75 0.6875 1.0125
2.8125 0.75 1.0125
2.8125 0.6875 1.0125
2.875 0.75 1.0125
2.8125 0.6875 1.075
2.875 0.6875 1.075
2.8125 0.75 1.075
2.875 0.6875 1.0125
2.9375 0.75 1.0125
2.9375 0.6875 1.0125
3 0.75 1.0125
2.9375 0.6875 1.075
3 0.6875 1.075
2.9375 0.75 1.075
3 0.6875 1.0125
3.0625 0.75 1.0125
3.0625 0.6875 1.0125
3.125 0.75 1.0125
3.0625 0.6875 1.075
3.125 0.6875 1.075
3.0625 0.75 1.075
3.125 0.6875 1.0125
3.1875 0.75 1.0125
3.1875 0.6875 1.0125
3.25 0.75 1.0125
3.1875 0.6875 1.075
3.25 0.6875 1.075
3.1875 0.75 1.075
3.25 0.6875 1.0125
3.3125 0.75 1.0125
3.3125 0.6875 1.0125
3.375 0.75 1.0125
3.3125 0.6875 1.075
3.375 0.6875 1.075
3.3125 0.75 1.075
3.375 0.6875 1.0125
3.4375 0.75 1.0125
3.4375 0.6875 1.0125
3.5 0.75 1.0125
3.4375 0.6875 1.075
3.5 0.6875 1.075
3.4375 0.75 1.075
3.5 0.6875 1.0125
3.5625 0.75 1.0125
3.5625 0.6875 1.0125
3.625 0.75 1.0125
3.5625 0.6875 1.075
3.625 0.6875 1.075
3.5625 0.75 1.075
3.625 0.6875 1.0125
3.6875 0.75 1.0125
3.6875 0.6875 1.0125
3.75 0.75 1.0125
3.6875 0.6875 1.075
3.75 0.6875 1.075
3.6875 0.75 1.075
3.75 0.6875 1.0125
3.8125 0.75 1.0125
3.8125 0.6875 1.0125
3.875 0.75 1.0125
3.8125 0.6875 1.075
3.875 0.6875 1.075
3.8125 0.75 1.075
3.875 0.6875 1.0125
3.9375 0.75 1.0125
3.9375 0.6875 1.0125
4 0.75 1.0125
3.9375 0.6875 1.075
4 0.6875 1.075
3.9375 0.75 1.075
4 0.6875 1.0125
0.0625 0.875 1.0125
0.0625 0.8125 1.0125
0.125 0.875 1.0125
0.0625 0.8125 1.075
0.125 0.8125 1.075
0 0.875 1.0125
0 0.8125 1.0125
0.0625 0.875 1.075
0 0.8125 1.075
0.125 0.8125 1.0125
0.1875 0.875 1.0125
0.1875 0.8125 1.0125
0.25 0.875 1.0125
0.1875 0.8125 1.075
0.25 0.8125 1.075
0.1875 0.875 1.075
0.25 0.8125 1.0125
0.3125 0.875 1.0125
0.3125 0.8125 1.0125
0.375 0.875 1.0125
0.3125 0.8125 1.075
0.375 0.8125 1.075
0.3125 0.875 1.075
0.375 0.8125 1.0125
0.4375 0.875 1.0125
0.4375 0.8125 1.0125
0.5 0.875 1.0125
0.4375 0.8125 1.075
0.5 0.8125 1.075
0.4375 0.875 1.075
0.5 0.8125 1.0125
0.5625 0.875 1.0125
0.5625 0.8125 1.0125
0.625 0.875 1.0125
0.5625 0.8125 1.075
0.625 0.8125 1.075
0.5625 0.875 1.075
0.625 0.8125 1.0125
0.6875 0.875 1.0125
0.6875 0.8125 1.0125
0.75 0.875 1.0125
0.6875 0.8125 1.075
0.75 0.8125 1.075
0.6875 0.875 1.075
0.75 0.8125 1.0125
0.8125 0.875 1.0125
0.8125 0.8125 1.0125
0.875 0.875 1.0125
0.8125 0.8125 1.075
0.875 0.8125 1.075
0.8125 0.875 1.075
0.875 0.8125 1.0125
0.9375 0.875 1.0125
0.9375 0.8125 1.0125
1 0.875 1.0125
0.9375 0.8125 1.075
1 0.8125 1.075
0.9375 0.875 1.075
1 0.8125 1.0125
1.0625 0.875 1.0125
1.0625 0.8125 1.0125
1.125 0.875 1.0125
1.0625 0.8125 1.075
1.125 0.8125 1.075
1.0625 0.875 1.075
1.125 0.8125 1.0125
1.1875 0.875 1.0125
1.1875 0.8125 1.0125
1.25 0.875 1.0125
1.1875 0.8125 1.075
1.25 0.8125 1.075
1.1875 0.875 1.075
1.25 0.8125 1.0125
1.3125 0.875 1.0125
1.3125 0.8125 1.0125
1.375 0.875 1.0125
1.3125 0.8125 1.075
1.375 0.8125 1.075
1.3125 0.875 1.075
1.375 0.8125 1.0125
1.4375 0.875 1.0125
1.4375 0.8125 1.0125
1.5 0.875 1.0125
1.4375 0.8125 1.075
1.5 0.8125 1.075
1.4375 0.875 1.075
1.5 0.8125 1.0125
1.5625 0.875 1.0125
1.5625 0.8125 1.0125
1.625 0.875 1.0125
1.5625 0.8125 1.075
1.625 0.8125 1.075
1.5625 0.875 1.075
1.625 0.8125 1.0125
1.6875 0.875 1.0125
1.6875 0.8125 1.0125
1.75 0.875 1.0125
1.6875 0.8125 1.075
1.75 0.8125 1.075
1.6875 0.875 1.075
1.75 0.8125 1.0125
1.8125 0.875 1.0125
1.8125 0.8125 1.0125
1.875 0.875 1.0125
1.8125 0.8125 1.075
1.875 0.8125 1.075
1.8125 0.875 1.075
1.875 0.8125 1.0125
1.9375 0.875 1.0125
1.9375 0.8125 1.0125
2 0.875 1.0125
1.9375 0.8125 1.075
2 0.8125 1.075
1.9375 0.875 1.075
2 0.8125 1.0125
2.0625 0.875 1.0125
2.0625 0.8125 1.0125
2.125 0.875 1.0125
2.0625 0.8125 1.075
2.125 0.8125 1.075
2.0625 0.875 1.075
2.125 0.8125 1.0125
2.1875 0.875 1.0125
2.1875 0.8125 1.0125
2.25 0.875 1.0125
2.1875 0.8125 1.075
2.25 0.8125 1.075
2.1875 0.875 1.075
2.25 0.8125 1.0125
2.3125 0.875 1.0125
2.3125 0.8125 1.0125
2.375 0.875 1.0125
2.3125 0.8125 1.075
2.375 0.8125 1.075
2.3125 0.875 1.075
2.375 0.8125 1.0125
2.4375 0.875 1.0125
2.4375 0.8125 1.0125
2.5 0.875 1.0125
2.4375 0.8125 1.075
2.5 0.8125 1.075
2.4375 0.875 1.075
2.5 0.8125 1.0125
2.5625 0.875 1.0125
2.5625 0.8125 1.0125
2.625 0.875 1.0125
2.5625 0.8125 1.075
2.625 0.8125 1.075
2.5625 0.875 1.075
2.625 0.8125 1.0125
2.6875 0.875 1.0125
2.6875 0.8125 1.0125
2.75 0.875 1.0125
2.6875 0.8125 1.075
2.75 0.8125 1.075
2.6875 0.875 1.075
2.75 0.8125 1.0125
2.8125 0.875 1.0125
2.8125 0.8125 1.0125
2.875 0.875 1.0125
2.8125 0.8125 1.075
2.875 0.8125 1.075
2.8125 0.875 1.075
2.875 0.8125 1.0125
2.9375 0.875 1.0125
2.9375 0.8125 1.0125
3 0.875 1.0125
2.9375 0.8125 1.075
3 0.8125 1.075
2.9375 0.875 1.075
3 0.8125 1.0125
3.0625 0.875 1.0125
3.0625 0.8125 1.0125
3.125 0.875 1.0125
3.0625 0.8125 1.075
3.125 0.8125 1.075
3.0625 0.875 1.075
3.125 0.8125 1.0125
3.1875 0.875 1.0125
3.1875 0.8125 1.0125
3.25 0.875 1.0125
3.1875 0.8125 1.075
3.25 0.8125 1.075
3.1875 0.875 1.075
3.25 0.8125 1.0125
3.3125 0.875 1.0125
3.3125 0.8125 1.0125
3.375 0.875 1.0125
3.3125 0.8125 1.075
3.375 0.8125 1.075
3.3125 0.875 1.075
3.375 0.8125 1.0125
3.4375 0.875 1.0125
3.4375 0.8125 1.0125
3.5 0.875 1.0125
3.4375 0.8125 1.075
3.5 0.8125 1.075
3.4375 0.875 1.075
3.5 0.8125 1.0125
3.5625 0.875 1.0125
3.5625 0.8125 1.0125
3.625 0.875 1.0125
3.5625 0.8125 1.075
3.625 0.8125 1.075
3.5625 0.875 1.075
3.625 0.8125 1.0125
3.6875 0.875 1.0125
3.6875 0.8125 1.0125
3.75 0.875 1.0125
3.6875 0.8125 1.075
3.75 0.8125 1.075
3.6875 0.875 1.075
3.75 0.8125 1.0125
3.8125 0.875 1.0125
3.8125 0.8125 1.0125
3.875 0.875 1.0125
3.8125 0.8125 1.075
3.875 0.8125 1.075
3.8125 0.875 1.075
3.875 0.8125 1.0125
3.9375 0.875 1.0125
3.9375 0.8125 1.0125
4 0.875 1.0125
3.9375 0.8125 1.075
4 0.8125 1.075
3.9375 0.875 1.075
4 0.8125 1.0125
0.0625 1 1.0125
0.0625 0.9375 1.0125
0.125 1 1.0125
0.0625 0.9375 1.075
0.125 0.9375 1.075
0 1 1.0125
0 0.9375 1.0125
0.0625 1 1.075
0 0.9375 1.075
0.125 0.9375 1.0125
0.1875 1 1.0125
0.1875 0.9375 1.0125
0.25 1 1.0125
0.1875 0.9375 1.075
0.25 0.9375 1.075
0.1875 1 1.075
0.25 0.9375 1.0125
0.3125 1 1.0125
0.3125 0.9375 1.0125
0.375 1 1.0125
0.3125 0.9375 1.075
0.375 0.9375 1.075
0.3125 1 1.075
0.375 0.9375 1.0125
0.4375 1 1.0125
0.4375 0.9375 1.0125
0.5 1 1.0125
0.4375 0.9375 1.075
0.5 0.9375 1.075
0.4375 1 1.075
0.5 0.9375 1.0125
0.5625 1 1.0125
0.5625 0.9375 1.0125
0.625 1 1.0125
0.5625 0.9375 1.075
0.625 0.9375 1.075
0.5625 1 1.075
0.625 0.9375 1.0125
0.6875 1 1.0125
0.6875 0.9375 1.0125
0.75 1 1.0125
0.6875 0.9375 1.075
0.75 0.9375 1.075
0.6875 1 1.075
0.75 0.9375 1.0125
0.8125 1 1.0125
0.8125 0.9375 1.0125
0.875 1 1.0125
0.8125 0.9375 1.075
0.875 0.9375 1.075
0.8125 1 1.075
0.875 0.9375 1.0125
0.9375 1 1.0125
0.9375 0.9375 1.0125
1 1 1.0125
0.9375 0.9375 1.075
1 0.9375 1.075
0.9375 1 1.075
1 0.9375 1.0125
1.0625 1 1.0125
1.0625 0.9375 1.0125
1.125 1 1.0125
1.0625 0.9375 1.075
1.125 0.9375 1.075
1.0625 1 1.075
1.125 0.9375 1.0125
1.1875 1 1.0125
1.1875 0.9375 1.0125
1.25 1 1.0125
1.1875 0.9375 1.075
1.25 0.9375 1.075
1.1875 1 1.075
1.25 0.9375 1.0125
1.3125 1 1.0125
1.3125 0.9375 1.0125
1.375 1 1.0125
1.3125 0.9375 1.075
1.375 0.9375 1.075
1.3125 1 1.075
1.375 0.9375 1.0125
1.4375 1 1.0125
1.4375 0.9375 1.0125
1.5 1 1.0125
1.4375 0.9375 1.075
1.5 0.9375 1.075
1.4375 1 1.075
1.5 0.9375 1.0125
1.5625 1 1.0125
1.5625 0.9375 1.0125
1.625 1 1.0125
1.5625 0.9375 1.075
1.625 0.9375 1.075
1.5625 1 1.075
1.625 0.9375 1.0125
1.6875 1 1.0125
1.6875 0.9375 1.0125
1.75 1 1.0125
1.6875 0.9375 1.075
1.75 0.9375 1.075
1.6875 1 1.075
1.75 0.9375 1.0125
1.8125 1 1.0125
1.8125 0.9375 1.0125
1.875 1 1.0125
1.8125 0.9375 1.075
1.875 0.9375 1.075
1.8125 1 1.075
1.875 0.9375 1.0125
1.9375 1 1.0125
1.9375 0.9375 1.0125
2 1 1.0125
1.9375 0.9375 1.075
2 0.9375 1.075
1.9375 1 1.075
2 0.9375 1.0125
2.0625 1 1.0125
2.0625 0.9375 1.0125
2.125 1 1.0125
2.0625 0.9375 1.075
2.125 0.9375 1.075
2.0625 1 1.075
2.125 0.9375 1.0125
2.1875 1 1.0125
2.1875 0.9375 1.0125
2.25 1 1.0125
2.1875 0.9375 1.075
2.25 0.9375 1.075
2.1875 1 1.075
2.25 0.9375 1.0125
2.3125 1 1.0125
2.3125 0.9375 1.0125
2.375 1 1.0125
2.3125 0.9375 1.075
2.375 0.9375 1.075
2.3125 1 1.075
2.375 0.9375 1.0125
2.4375 1 1.0125
2.4375 0.9375 1.0125
2.5 1 1.0125
2.4375 0.9375 1.075
2.5 0.9375 1.075
2.4375 1 1.075
2.5 0.9375 1.0125
2.5625 1 1.0125
2.5625 0.9375 1.0125
2.625 1 1.0125
2.5625 0.9375 1.075
2.625 0.9375 1.075
2.5625 1 1.075
2.625 0.9375 1.0125
2.6875 1 1.0125
2.6875 0.9375 1.0125
2.75 1 1.0125
2.6875 0.9375 1.075
2.75 0.9375 1.075
2.6875 1 1.075
2.75 0.9375 1.0125
2.8125 1 1.0125
2.8125 0.9375 1.0125
2.875 1 1.0125
2.8125 0.9375 1.075
2.875 0.9375 1.075
2.8125 1 1.075
2.875 0.9375 1.0125
2.9375 1 1.0125
2.9375 0.9375 1.0125
3 1 1.0125
2.9375 0.9375 1.075
3 0.9375 1.075
2.9375 1 1.075
3 0.9375 1.0125
3.0625 1 1.0125
3.0625 0.9375 1.0125
3.125 1 1.0125
3.0625 0.9375 1.075
3.125 0.9375 1.075
3.0625 1 1.075
3.125 0.9375 1.0125
3.1875 1 1.0125
3.1875 0.9375 1.0125
3.25 1 1.0125
3.1875 0.9375 1.075
3.25 0.9375 1.075
3.1875 1 1.075
3.25 0.9375 1.0125
3.3125 1 1.0125
3.3125 0.9375 1.0125
3.375 1 1.0125
3.3125 0.9375 1.075
3.375 0.9375 1.075
3.3125 1 1.075
3.375 0.9375 1.0125
3.4375 1 1.0125
3.4375 0.9375 1.0125
3.5 1 1.0125
3.4375 0.9375 1.075
3.5 0.9375 1.075
3.4375 1 1.075
3.5 0.9375 1.0125
3.5625 1 1.0125
3.5625 0.9375 1.0125
3.625 1 1.0125
3.5625 0.9375 1.075
3.625 0.9375 1.075
3.5625 1 1.075
3.625 0.9375 1.0125
3.6875 1 1.0125
3.6875 0.9375 1.0125
3.75 1 1.0125
3.6875 0.9375 1.075
3.75 0.9375 1.075
3.6875 1 1.075
3.75 0.9375 1.0125
3.8125 1 1.0125
3.8125 0.9375 1.0125
3.875 1 1.0125
3.8125 0.9375 1.075
3.875 0.9375 1.075
3.8125 1 1.075
3.875 0.9375 1.0125
3.9375 1 1.0125
3.9375 0.9375 1.0125
4 1 1.0125
3.9375 0.9375 1.075
4 0.9375 1.075
3.9375 1 1.075
4 0.9375 1.0125
0.0625 0.125 1.1375
0.0625 0.0625 1.1375
0.125 0.125 1.1375
0.0625 0.0625 1.2
0.125 0.0625 1.2
0.0625 0 1.2
0 0 1.1375
0.0625 0 1.1375
0 0.125 1.1375
0 0.0625 1.1375
0.0625 0.125 1.2
0 0.0625 1.2
0.125 0 1.1375
0.125 0.0625 1.1375
0.1875 0.125 1.1375
0.1875 0.0625 1.1375
0.25 0.125 1.1375
0.1875 0.0625 1.2
0.25 0.0625 1.2
0.1875 0 1.2
0.1875 0 1.1375
0.1875 0.125 1.2
0.25 0 1.1375
0.25 0.0625 1.1375
0.3125 0.125 1.1375
0.3125 0.0625 1.1375
0.375 0.125 1.1375
0.3125 0.0625 1.2
0.375 0.0625 1.2
0.3125 0 1.2
0.3125 0 1.1375
0.3125 0.125 1.2
0.375 0 1.1375
0.375 0.0625 1.1375
0.4375 0.125 1.1375
0.4375 0.0625 1.1375
0.5 0.125 1.1375
0.4375 0.0625 1.2
0.5 0.0625 1.2
0.4375 0 1.2
0.4375 0 1.1375
0.4375 0.125 1.2
0.5 0 1.1375
0.5 0.0625 1.1375
0.5625 0.125 1.1375
0.5625 0.0625 1.1375
0.625 0.125 1.1375
0.5625 0.0625 1.2
0.625 0.0625 1.2
0.5625 0 1.2
0.5625 0 1.1375
0.5625 0.125 1.2
0.625 0 1.1375
0.625 0.0625 1.1375
0.6875 0.125 1.1375
0.6875 0.0625 1.1375
0.75 0.125 1.1375
0.6875 0.0625 1.2
0.75 0.0625 1.2
0.6875 0 1.2
0.6875 0 1.1375
0.6875 0.125 1.2
0.75 0 1.1375
0.75 0.0625 1.1375
0.8125 0.125 1.1375
0.8125 0.0625 1.1375
0.875 0.125 1.1375
0.8125 0.0625 1.2
0.875 0.0625 1.2
0.8125 0 1.2
0.8125 0 1.1375
0.8125 0.125 1.2
0.875 0 1.1375
0.875 0.0625 1.1375
0.9375 0.125 1.1375
0.9375 0.0625 1.1375
1 0.125 1.1375
0.9375 0.0625 1.2
1 0.0625 1.2
0.9375 0 1.2
0.9375 0 1.1375
0.9375 0.125 1.2
1 0 1.1375
1 0.0625 1.1375
1.0625 0.125 1.1375
1.0625 0.0625 1.1375
1.125 0.125 1.1375
1.0625 0.0625 1.2
1.125 0.0625 1.2
1.0625 0 1.2
1.0625 0 1.1375
1.0625 0.125 1.2
1.125 0 1.1375
1.125 0.0625 1.1375
1.1875 0.125 1.1375
1.1875 0.0625 1.1375
1.25 0.125 1.1375
1.1875 0.0625 1.2
1.25 0.0625 1.2
1.1875 0 1.2
1.1875 0 1.1375
1.1875 0.125 1.2
1.25 0 1.1375
1.25 0.0625 1.1375
1.3125 0.125 1.1375
1.3125 0.0625 1.1375
1.375 0.125 1.1375
1.3125 0.0625 1.2
1.375 0.0625 1.2
1.3125 0 1.2
1.3125 0 1.1375
1.3125 0.125 1.2
1.375 0 1.1375
1.375 0.0625 1.1375
1.4375 0.125 1.1375
1.4375 0.0625 1.1375
1.5 0.125 1.1375
1.4375 0.0625 1.2
1.5 0.0625 1.2
1.4375 0 1.2
1.4375 0 1.1375
1.4375 0.125 1.2
1.5 0 1.1375
1.5 0.0625 1.1375
1.5625 0.125 1.1375
1.5625 0.0625 1.1375
1.625 0.125 1.1375
1.5625 0.0625 1.2
1.625 0.0625 1.2
1.5625 0 1.2
1.5625 0 1.1375
1.5625 0.125 1.2
1.625 0 1.1375
1.625 0.0625 1.1375
1.6875 0.125 1.1375
1.6875 0.0625 1.1375
1.75 0.125 1.1375
1.6875 0.0625 1.2
1.75 0.0625 1.2
1.6875 0 1.2
1.6875 0 1.1375
1.6875 0.125 1.2
1.75 0 1.1375
1.75 0.0625 1.1375
1.8125 0.125 1.1375
1.8125 0.0625 1.1375
1.875 0.125 1.1375
1.8125 0.0625 1.2
1.875 0.0625 1.2
1.8125 0 1.2
1.8125 0 1.1375
1.8125 0.125 1.2
1.875 0 1.1375
1.875 0.0625 1.1375
1.9375 0.125 1.1375
1.9375 0.0625 1.1375
2 0.125 1.1375
1.9375 0.0625 1.2
2 0.0625 1.2
1.9375 0 1.2
1.9375 0 1.1375
1.9375 0.125 1.2
2 0 1.1375
2 0.0625 1.1375
2.0625 0.125 1.1375
2.0625 0.0625 1.1375
2.125 0.125 1.1375
2.0625 0.0625 1.2
2.125 0.0625 1.2
2.0625 0 1.2
2.0625 0 1.1375
2.0625 0.125 1.2
2.125 0 1.1375
2.125 0.0625 1.1375
2.1875 0.125 1.1375
2.1875 0.0625 1.1375
2.25 0.125 1.1375
2.1875 0.0625 1.2
2.25 0.0625 1.2
2.1875 0 1.2
2.1875 0 1.1375
2.1875 0.125 1.2
2.25 0 1.1375
2.25 0.0625 1.1375
2.3125 0.125 1.1375
2.3125 0.0625 1.1375
2.375 0.125 1.1375
2.3125 0.0625 1.2
2.375 0.0625 1.2
2.3125 0 1.2
2.3125 0 1.1375
2.3125 0.125 1.2
2.375 0 1.1375
2.375 0.0625 1.1375
2.4375 0.125 1.1375
2.4375 0.0625 1.1375
2.5 0.125 1.1375
2.4375 0.0625 1.2
2.5 0.0625 1.2
2.4375 0 1.2
2.4375 0 1.1375
2.4375 0.125 1.2
2.5 0 1.1375
2.5 0.0625 1.1375
2.5625 0.125 1.1375
2.5625 0.0625 1.1375
2.625 0.125 1.1375
2.5625 0.0625 1.2
2.625 0.0625 1.2
2.5625 0 1.2
2.5625 0 1.1375
2.5625 0.125 1.2
2.625 0 1.1375
2.625 0.0625 1.1375
2.6875 0.125 1.1375
2.6875 0.0625 1.1375
2.75 0.125 1.1375
2.6875 0.0625 1.2
2.75 0.0625 1.2
2.6875 0 1.2
2.6875 0 1.1375
2.6875 0.125 1.2
2.75 0 1.1375
2.75 0.0625 1.1375
2.8125 0.125 1.1375
2.8125 0.0625 1.1375
2.875 0.125 1.1375
2.8125 0.0625 1.2
2.875 0.0625 1.2
2.8125 0 1.2
2.8125 0 1.1375
2.8125 0.125 1.2
2.875 0 1.1375
2.875 0.0625 1.1375
2.9375 0.125 1.1375
2.9375 0.0625 1.1375
3 0.125 1.1375
2.9375 0.0625 1.2
3 0.0625 1.2
2.9375 0 1.2
2.9375 0 1.1375
2.9375 0.125 1.2
3 0 1.1375
3 0.0625 1.1375
3.0625 0.125 1.1375
3.0625 0.0625 1.1375
3.125 0.125 1.1375
3.0625 0.0625 1.2
3.125 0.0625 1.2
3.0625 0 1.2
3.0625 0 1.1375
3.0625 0.125 1.2
3.125 0 1.1375
3.125 0.0625 1.1375
3.1875 0.125 1.1375
3.1875 0.0625 1.1375
3.25 0.125 1.1375
3.1875 0.0625 1.2
3.25 0.0625 1.2
3.1875 0 1.2
3.1875 0 1.1375
3.1875 0.125 1.2
3.25 0 1.1375
3.25 0.0625 1.1375
3.3125 0.125 1.1375
3.3125 0.0625 1.1375
3.375 0.125 1.1375
3.3125 0.0625 1.2
3.375 0.0625 1.2
3.3125 0 1.2
3.3125 0 1.1375
3.3125 0.125 1.2
3.375 0 1.1375
3.375 0.0625 1.1375
3.4375 0.125 1.1375
3.4375 0.0625 1.1375
3.5 0.125 1.1375
3.4375 0.0625 1.2
3.5 0.0625 1.2
3.4375 0 1.2
3.4375 0 1.1375
3.4375 0.125 1.2
3.5 0 1.1375
3.5 0.0625 1.1375
3.5625 0.125 1.1375
3.5625 0.0625 1.1375
3.625 0.125 1.1375
3.5625 0.0625 1.2
3.625 0.0625 1.2
3.5625 0 1.2
3.5625 0 1.1375
3.5625 0.125 1.2
3.625 0 1.1375
3.625 0.0625 1.1375
3.6875 0.125 1.1375
3.6875 0.0625 1.1375
3.75 0.125 1.1375
3.6875 0.0625 1.2
3.75 0.0625 1.2
3.6875 0 1.2
3.6875 0 1.1375
3.6875 0.125 1.2
3.75 0 1.1375
3.75 0.0625 1.1375
3.8125 0.125 1.1375
3.8125 0.0625 1.1375
3.875 0.125 1.1375
3.8125 0.0625 1.2
3.875 0.0625 1.2
3.8125 0 1.2
3.8125 0 1.1375
3.8125 0.125 1.2
3.875 0 1.1375
3.875 0.0625 1.1375
3.9375 0.125 1.1375
3.9375 0.0625 1.1375
4 0.125 1.1375
3.9375 0.0625 1.2
4 0.0625 1.2
3.9375 0 1.2
3.9375 0 1.1375
3.9375 0.125 1.2
4 0 1.1375
4 0.0625 1.1375
0.0625 0.25 1.1375
0.0625 0.1875 1.1375
0.125 0.25 1.1375
0.0625 0.1875 1.2
0.125 0.1875 1.2
0 0.25 1.1375
0 0.1875 1.1375
0.0625 0.25 1.2
0 0.1875 1.2
0.125 0.1875 1.1375
0.1875 0.25 1.1375
0.1875 0.1875 1.1375
0.25 0.25 1.1375
0.1875 0.1875 1.2
0.25 0.1875 1.2
0.1875 0.25 1.2
0.25 0.1875 1.1375
0.3125 0.25 1.1375
0.3125 0.1875 1.1375
0.375 0.25 1.1375
0.3125 0.1875 1.2
0.375 0.1875 1.2
0.3125 0.25 1.2
0.375 0.1875 1.1375
0.4375 0.25 1.1375
0.4375 0.1875 1.1375
0.5 0.25 1.1375
0.4375 0.1875 1.2
0.5 0.1875 1.2
0.4375 0.25 1.2
0.5 0.1875 1.1375
0.5625 0.25 1.1375
0.5625 0.1875 1.1375
0.625 0.25 1.1375
0.5625 0.1875 1.2
0.625 0.1875 1.2
0.5625 0.25 1.2
0.625 0.1875 1.1375
0.6875 0.25 1.1375
0.6875 0.1875 1.1375
0.75 0.25 1.1375
0.6875 0.1875 1.2
0.75 0.1875 1.2
0.6875 0.25 1.2
0.75 0.1875 1.1375
0.8125 0.25 1.1375
0.8125 0.1875 1.1375
0.875 0.25 1.1375
0.8125 0.1875 1.2
0.875 0.1875 1.2
0.8125 0.25 1.2
0.875 0.1875 1.1375
0.9375 0.25 1.1375
0.9375 0.1875 1.1375
1 0.25 1.1375
0.9375 0.1875 1.2
1 0.1875 1.2
0.9375 0.25 1.2
1 0.1875 1.1375
1.0625 0.25 1.1375
1.0625 0.1875 1.1375
1.125 0.25 1.1375
1.0625 0.1875 1.2
1.125 0.1875 1.2
1.0625 0.25 1.2
1.125 0.1875 1.1375
1.1875 0.25 1.1375
1.1875 0.1875 1.1375
1.25 0.25 1.1375
1.1875 0.1875 1.2
1.25 0.1875 1.2
1.1875 0.25 1.2
1.25 0.1875 1.1375
1.3125 0.25 1.1375
1.3125 0.1875 1.1375
1.375 0.25 1.1375
1.3125 0.1875 1.2
1.375 0.1875 1.2
1.3125 0.25 1.2
1.375 0.1875 1.1375
1.4375 0.25 1.1375
1.4375 0.1875 1.1375
1.5 0.25 1.1375
1.4375 0.1875 1.2
1.5 0.1875 1.2
1.4375 0.25 1.2
1.5 0.1875 1.1375
1.5625 0.25 1.1375
1.5625 0.1875 1.1375
1.625 0.25 1.1375
1.5625 0.1875 1.2
1.625 0.1875 1.2
1.5625 0.25 1.2
1.625 0.1875 1.1375
1.6875 0.25 1.1375
1.6875 0.1875 1.1375
1.75 0.25 1.1375
1.6875 0.1875 1.2
1.75 0.1875 1.2
1.6875 0.25 1.2
1.75 0.1875 1.1375
1.8125 0.25 1.1375
1.8125 0.1875 1.1375
1.875 0.25 1.1375
1.8125 0.1875 1.2
1.875 0.1875 1.2
1.8125 0.25 1.2
1.875 0.1875 1.1375
1.9375 0.25 1.1375
1.9375 0.1875 1.1375
2 0.25 1.1375
1.9375 0.1875 1.2
2 0.1875 1.2
1.9375 0.25 1.2
2 0.1875 1.1375
2.0625 0.25 1.1375
2.0625 0.1875 1.1375
2.125 0.25 1.1375
2.0625 0.1875 1.2
2.125 0.1875 1.2
2.0625 0.25 1.2
2.125 0.1875 1.1375
2.1875 0.25 1.1375
2.1875 0.1875 1.1375
2.25 0.25 1.1375
2.1875 0.1875 1.2
2.25 0.1875 1.2
2.1875 0.25 1.2
2.25 0.1875 1.1375
2.3125 0.25 1.1375
2.3125 0.1875 1.1375
2.375 0.25 1.1375
2.3125 0.1875 1.2
2.375 0.1875 1.2
2.3125 0.25 1.2
2.375 0.1875 1.1375
2.4375 0.25 1.1375
2.4375 0.1875 1.1375
2.5 0.25 1.1375
2.4375 0.1875 1.2
2.5 0.1875 1.2
2.4375 0.25 1.2
2.5 0.1875 1.1375
2.5625 0.25 1.1375
2.5625 0.1875 1.1375
2.625 0.25 1.1375
2.5625 0.1875 1.2
2.625 0.1875 1.2
2.5625 0.25 1.2
2.625 0.1875 1.1375
2.6875 0.25 1.1375
2.6875 0.1875 1.1375
2.75 0.25 1.1375
2.6875 0.1875 1.2
2.75 0.1875 1.2
2.6875 0.25 1.2
2.75 0.1875 1.1375
2.8125 0.25 1.1375
2.8125 0.1875 1.1375
2.875 0.25 1.1375
2.8125 0.1875 1.2
2.875 0.1875 1.2
2.8125 0.25 1.2
2.875 0.1875 1.1375
2.9375 0.25 1.1375
2.9375 0.1875 1.1375
3 0.25 1.1375
2.9375 0.1875 1.2
3 0.1875 1.2
2.9375 0.25 1.2
3 0.1875 1.1375
3.0625 0.25 1.1375
3.0625 0.1875 1.1375
3.125 0.25 1.1375
3.0625 0.1875 1.2
3.125 0.1875 1.2
3.0625 0.25 1.2
3.125 0.1875 1.1375
3.1875 0.25 1.1375
3.1875 0.1875 1.1375
3.25 0.25 1.1375
3.1875 0.1875 1.2
3.25 0.1875 1.2
3.1875 0.25 1.2
3.25 0.1875 1.1375
3.3125 0.25 1.1375
3.3125 0.1875 1.1375
3.375 0.25 1.1375
3.3125 0.1875 1.2
3.375 0.1875 1.2
3.3125 0.25 1.2
3.375 0.1875 1.1375
3.4375 0.25 1.1375
3.4375 0.1875 1.1375
3.5 0.25 1.1375
3.4375 0.1875 1.2
3.5 0.1875 1.2
3.4375 0.25 1.2
3.5 0.1875 1.1375
3.5625 0.25 1.1375
3.5625 0.1875 1.1375
3.625 0.25 1.1375
3.5625 0.1875 1.2
3.625 0.1875 1.2
3.5625 0.25 1.2
3.625 0.1875 1.1375
3.6875 0.25 1.1375
3.6875 0.1875 1.1375
3.75 0.25 1.1375
3.6875 0.1875 1.2
3.75 0.1875 1.2
3.6875 0.25 1.2
3.75 0.1875 1.1375
3.8125 0.25 1.1375
3.8125 0.1875 1.1375
3.875 0.25 1.1375
3.8125 0.1875 1.2
3.875 0.1875 1.2
3.8125 0.25 1.2
3.875 0.1875 1.1375
3.9375 0.25 1.1375
3.9375 0.1875 1.1375
4 0.25 1.1375
3.9375 0.1875 1.2
4 0.1875 1.2
3.9375 0.25 1.2
4 0.1875 1.1375
0.0625 0.375 1.1375
0.0625 0.3125 1.1375
0.125 0.375 1.1375
0.0625 0.3125 1.2
0.125 0.3125 1.2
0 0.375 1.1375
0 0.3125 1.1375
0.0625 0.375 1.2
0 0.3125 1.2
0.125 0.3125 1.1375
0.1875 0.375 1.1375
0.1875 0.3125 1.1375
0.25 0.375 1.1375
0.1875 0.3125 1.2
0.25 0.3125 1.2
0.1875 0.375 1.2
0.25 0.3125 1.1375
0.3125 0.375 1.1375
0.3125 0.3125 1.1375
0.375 0.375 1.1375
0.3125 0.3125 1.2
0.375 0.3125 1.2
0.3125 0.375 1.2
0.375 0.3125 1.1375
0.4375 0.375 1.1375
0.4375 0.3125 1.1375
0.5 0.375 1.1375
0.4375 0.3125 1.2
0.5 0.3125 1.2
0.4375 0.375 1.2
0.5 0.3125 1.1375
0.5625 0.375 1.1375
0.5625 0.3125 1.1375
0.625 0.375 1.1375
0.5625 0.3125 1.2
0.625 0.3125 1.2
0.5625 0.375 1.2
0.625 0.3125 1.1375
0.6875 0.375 1.1375
0.6875 0.3125 1.1375
0.75 0.375 1.1375
0.6875 0.3125 1.2
0.75 0.3125 1.2
0.6875 0.375 1.2
0.75 0.3125 1.1375
0.8125 0.375 1.1375
0.8125 0.3125 1.1375
0.875 0.375 1.1375
0.8125 0.3125 1.2
0.875 0.3125 1.2
0.8125 0.375 1.2
0.875 0.3125 1.1375
0.9375 0.375 1.1375
0.9375 0.3125 1.1375
1 0.375 1.1375
0.9375 0.3125 1.2
1 0.3125 1.2
0.9375 0.375 1.2
1 0.3125 1.1375
1.0625 0.375 1.1375
1.0625 0.3125 1.1375
1.125 0.375 1.1375
1.0625 0.3125 1.2
1.125 0.3125 1.2
1.0625 0.375 1.2
1.125 0.3125 1.1375
1.1875 0.375 1.1375
1.1875 0.3125 1.1375
1.25 0.375 1.1375
1.1875 0.3125 1.2
1.25 0.3125 1.2
1.1875 0.375 1.2
1.25 0.3125 1.1375
1.3125 0.375 1.1375
1.3125 0.3125 1.1375
1.375 0.375 1.1375
1.3125 0.3125 1.2
1.375 0.3125 1.2
1.3125 0.375 1.2
1.375 0.3125 1.1375
1.4375 0.375 1.1375
1.4375 0.3125 1.1375
1.5 0.375 1.1375
1.4375 0.3125 1.2
1.5 0.3125 1.2
1.4375 0.375 1.2
1.5 0.3125 1.1375
1.5625 0.375 1.1375
1.5625 0.3125 1.1375
1.625 0.375 1.1375
1.5625 0.3125 1.2
1.625 0.3125 1.2
1.5625 0.375 1.2
1.625 0.3125 1.1375
1.6875 0.375 1.1375
1.6875 0.3125 1.1375
1.75 0.375 1.1375
1.6875 0.3125 1.2
1.75 0.3125 1.2
1.6875 0.375 1.2
1.75 0.3125 1.1375
1.8125 0.375 1.1375
1.8125 0.3125 1.1375
1.875 0.375 1.1375
1.8125 0.3125 1.2
1.875 0.3125 1.2
1.8125 0.375 1.2
1.875 0.3125 1.1375
1.9375 0.375 1.1375
1.9375 0.3125 1.1375
2 0.375 1.1375
1.9375 0.3125 1.2
2 0.3125 1.2
1.9375 0.375 1.2
2 0.3125 1.1375
2.0625 0.375 1.1375
2.0625 0.3125 1.1375
2.125 0.375 1.1375
2.0625 0.3125 1.2
2.125 0.3125 1.2
2.0625 0.375 1.2
2.125 0.3125 1.1375
2.1875 0.375 1.1375
2.1875 0.3125 1.1375
2.25 0.375 1.1375
2.1875 0.3125 1.2
2.25 0.3125 1.2
2.1875 0.375 1.2
2.25 0.3125 1.1375
2.3125 0.375 1.1375
2.3125 0.3125 1.1375
2.375 0.375 1.1375
2.3125 0.3125 1.2
2.375 0.3125 1.2
2.3125 0.375 1.2
2.375 0.3125 1.1375
2.4375 0.375 1.1375
2.4375 0.3125 1.1375
2.5 0.375 1.1375
2.4375 0.3125 1.2
2.5 0.3125 1.2
2.4375 0.375 1.2
2.5 0.3125 1.1375
2.5625 0.375 1.1375
2.5625 0.3125 1.1375
2.625 0.375 1.1375
2.5625 0.3125 1.2
2.625 0.3125 1.2
2.5625 0.375 1.2
2.625 0.3125 1.1375
2.6875 0.375 1.1375
2.6875 0.3125 1.1375
2.75 0.375 1.1375
2.6875 0.3125 1.2
2.75 0.3125 1.2
2.6875 0.375 1.2
2.75 0.3125 1.1375
2.8125 0.375 1.1375
2.8125 0.3125 1.1375
2.875 0.375 1.1375
2.8125 0.3125 1.2
2.875 0.3125 1.2
2.8125 0.375 1.2
2.875 0.3125 1.1375
2.9375 0.375 1.1375
2.9375 0.3125 1.1375
3 0.375 1.1375
2.9375 0.3125 1.2
3 0.3125 1.2
2.9375 0.375 1.2
3 0.3125 1.1375
3.0625 0.375 1.1375
3.0625 0.3125 1.1375
3.125 0.375 1.1375
3.0625 0.3125 1.2
3.125 0.3125 1.2
3.0625 0.375 1.2
3.125 0.3125 1.1375
3.1875 0.375 1.1375
3.1875 0.3125 1.1375
3.25 0.375 1.1375
3.1875 0.3125 1.2
3.25 0.3125 1.2
3.1875 0.375 1.2
3.25 0.3125 1.1375
3.3125 0.375 1.1375
3.3125 0.3125 1.1375
3.375 0.375 1.1375
3.3125 0.3125 1.2
3.375 0.3125 1.2
3.3125 0.375 1.2
3.375 0.3125 1.1375
3.4375 0.375 1.1375
3.4375 0.3125 1.1375
3.5 0.375 1.1375
3.4375 0.3125 1.2
3.5 0.3125 1.2
3.4375 0.375 1.2
3.5 0.3125 1.1375
3.5625 0.375 1.1375
3.5625 0.3125 1.1375
3.625 0.375 1.1375
3.5625 0.3125 1.2
3.625 0.3125 1.2
3.5625 0.375 1.2
3.625 0.3125 1.1375
3.6875 0.375 1.1375
3.6875 0.3125 1.1375
3.75 0.375 1.1375
3.6875 0.3125 1.2
3.75 0.3125 1.2
3.6875 0.375 1.2
3.75 0.3125 1.1375
3.8125 0.375 1.1375
3.8125 0.3125 1.1375
3.875 0.375 1.1375
3.8125 0.3125 1.2
3.875 0.3125 1.2
3.8125 0.375 1.2
3.875 0.3125 1.1375
3.9375 0.375 1.1375
3.9375 0.3125 1.1375
4 0.375 1.1375
3.9375 0.3125 1.2
4 0.3125 1.2
3.9375 0.375 1.2
4 0.3125 1.1375
0.0625 0.5 1.1375
0.0625 0.4375 1.1375
0.125 0.5 1.1375
0.0625 0.4375 1.2
0.125 0.4375 1.2
0 0.5 1.1375
0 0.4375 1.1375
0.0625 0.5 1.2
0 0.4375 1.2
0.125 0.4375 1.1375
0.1875 0.5 1.1375
0.1875 0.4375 1.1375
0.25 0.5 1.1375
0.1875 0.4375 1.2
0.25 0.4375 1.2
0.1875 0.5 1.2
0.25 0.4375 1.1375
0.3125 0.5 1.1375
0.3125 0.4375 1.1375
0.375 0.5 1.1375
0.3125 0.4375 1.2
0.375 0.4375 1.2
0.3125 0.5 1.2
0.375 0.4375 1.1375
0.4375 0.5 1.1375
0.4375 0.4375 1.1375
0.5 0.5 1.1375
0.4375 0.4375 1.2
0.5 0.4375 1.2
0.4375 0.5 1.2
0.5 0.4375 1.1375
0.5625 0.5 1.1375
0.5625 0.4375 1.1375
0.625 0.5 1.1375
0.5625 0.4375 1.2
0.625 0.4375 1.2
0.5625 0.5 1.2
0.625 0.4375 1.1375
0.6875 0.5 1.1375
0.6875 0.4375 1.1375
0.75 0.5 1.1375
0.6875 0.4375 1.2
0.75 0.4375 1.2
0.6875 0.5 1.2
0.75 0.4375 1.1375
0.8125 0.5 1.1375
0.8125 0.4375 1.1375
0.875 0.5 1.1375
0.8125 0.4375 1.2
0.875 0.4375 1.2
0.8125 0.5 1.2
0.875 0.4375 1.1375
0.9375 0.5 1.1375
0.9375 0.4375 1.1375
1 0.5 1.1375
0.9375 0.4375 1.2
1 0.4375 1.2
0.9375 0.5 1.2
1 0.4375 1.1375
1.0625 0.5 1.1375
1.0625 0.4375 1.1375
1.125 0.5 1.1375
1.0625 0.4375 1.2
1.125 0.4375 1.2
1.0625 0.5 1.2
1.125 0.4375 1.1375
1.1875 0.5 1.1375
1.1875 0.4375 1.1375
1.25 0.5 1.1375
1.1875 0.4375 1.2
1.25 0.4375 1.2
1.1875 0.5 1.2
1.25 0.4375 1.1375
1.3125 0.5 1.1375
1.3125 0.4375 1.1375
1.375 0.5 1.1375
1.3125 0.4375 1.2
1.375 0.4375 1.2
1.3125 0.5 1.2
1.375 0.4375 1.1375
1.4375 0.5 1.1375
1.4375 0.4375 1.1375
1.5 0.5 1.1375
1.4375 0.4375 1.2
1.5 0.4375 1.2
1.4375 0.5 1.2
1.5 0.4375 1.1375
1.5625 0.5 1.1375
1.5625 0.4375 1.1375
1.625 0.5 1.1375
1.5625 0.4375 1.2
1.625 0.4375 1.2
1.5625 0.5 1.2
1.625 0.4375 1.1375
1.6875 0.5 1.1375
1.6875 0.4375 1.1375
1.75 0.5 1.1375
1.6875 0.4375 1.2
1.75 0.4375 1.2
1.6875 0.5 1.2
1.75 0.4375 1.1375
1.8125 0.5 1.1375
1.8125 0.4375 1.1375
1.875 0.5 1.1375
1.8125 0.4375 1.2
1.875 0.4375 1.2
1.8125 0.5 1.2
1.875 0.4375 1.1375
1.9375 0.5 1.1375
1.9375 0.4375 1.1375
2 0.5 1.1375
1.9375 0.4375 1.2
2 0.4375 1.2
1.9375 0.5 1.2
2 0.4375 1.1375
2.0625 0.5 1.1375
2.0625 0.4375 1.1375
2.125 0.5 1.1375
2.0625 0.4375 1.2
2.125 0.4375 1.2
2.0625 0.5 1.2
2.125 0.4375 1.1375
2.1875 0.5 1.1375
2.1875 0.4375 1.1375
2.25 0.5 1.1375
2.1875 0.4375 1.2
2.25 0.4375 1.2
2.1875 0.5 1.2
2.25 0.4375 1.1375
2.3125 0.5 1.1375
2.3125 0.4375 1.1375
2.375 0.5 1.1375
2.3125 0.4375 1.2
2.375 0.4375 1.2
2.3125 0.5 1.2
2.375 0.4375 1.1375
2.4375 0.5 1.1375
2.4375 0.4375 1.1375
2.5 0.5 1.1375
2.4375 0.4375 1.2
2.5 0.4375 1.2
2.4375 0.5 1.2
2.5 0.4375 1.1375
2.5625 0.5 1.1375
2.5625 0.4375 1.1375
2.625 0.5 1.1375
2.5625 0.4375 1.2
2.625 0.4375 1.2
2.5625 0.5 1.2
2.625 0.4375 1.1375
2.6875 0.5 1.1375
2.6875 0.4375 1.1375
2.75 0.5 1.1375
2.6875 0.4375 1.2
2.75 0.4375 1.2
2.6875 0.5 1.2
2.75 0.4375 1.1375
2.8125 0.5 1.1375
2.8125 0.4375 1.1375
2.875 0.5 1.1375
2.8125 0.4375 1.2
2.875 0.4375 1.2
2.8125 0.5 1.2
2.875 0.4375 1.1375
2.9375 0.5 1.1375
2.9375 0.4375 1.1375
3 0.5 1.1375
2.9375 0.4375 1.2
3 0.4375 1.2
2.9375 0.5 1.2
3 0.4375 1.1375
3.0625 0.5 1.1375
3.0625 0.4375 1.1375
3.125 0.5 1.1375
3.0625 0.4375 1.2
3.125 0.4375 1.2
3.0625 0.5 1.2
3.125 0.4375 1.1375
3.1875 0.5 1.1375
3.1875 0.4375 1.1375
3.25 0.5 1.1375
3.1875 0.4375 1.2
3.25 0.4375 1.2
3.1875 0.5 1.2
3.25 0.4375 1.1375
3.3125 0.5 1.1375
3.3125 0.4375 1.1375
3.375 0.5 1.1375
3.3125 0.4375 1.2
3.375 0.4375 1.2
3.3125 0.5 1.2
3.375 0.4375 1.1375
3.4375 0.5 1.1375
3.4375 0.4375 1.1375
3.5 0.5 1.1375
3.4375 0.4375 1.2
3.5 0.4375 1.2
3.4375 0.5 1.2
3.5 0.4375 1.1375
3.5625 0.5 1.1375
3.5625 0.4375 1.1375
3.625 0.5 1.1375
3.5625 0.4375 1.2
3.625 0.4375 1.2
3.5625 0.5 1.2
3.625 0.4375 1.1375
3.6875 0.5 1.1375
3.6875 0.4375 1.1375
3.75 0.5 1.1375
3.6875 0.4375 1.2
3.75 0.4375 1.2
3.6875 0.5 1.2
3.75 0.4375 1.1375
3.8125 0.5 1.1375
3.8125 0.4375 1.1375
3.875 0.5 1.1375
3.8125 0.4375 1.2
3.875 0.4375 1.2
3.8125 0.5 1.2
3.875 0.4375 1.1375
3.9375 0.5 1.1375
3.9375 0.4375 1.1375
4 0.5 1.1375
3.9375 0.4375 1.2
4 0.4375 1.2
3.9375 0.5 1.2
4 0.4375 1.1375
0.0625 0.625 1.1375
0.0625 0.5625 1.1375
0.125 0.625 1.1375
0.0625 0.5625 1.2
0.125 0.5625 1.2
0 0.625 1.1375
0 0.5625 1.1375
0.0625 0.625 1.2
0 0.5625 1.2
0.125 0.5625 1.1375
0.1875 0.625 1.1375
0.1875 0.5625 1.1375
0.25 0.625 1.1375
0.1875 0.5625 1.2
0.25 0.5625 1.2
0.1875 0.625 1.2
0.25 0.5625 1.1375
0.3125 0.625 1.1375
0.3125 0.5625 1.1375
0.375 0.625 1.1375
0.3125 0.5625 1.2
0.375 0.5625 1.2
0.3125 0.625 1.2
0.375 0.5625 1.1375
0.4375 0.625 1.1375
0.4375 0.5625 1.1375
0.5 0.625 1.1375
0.4375 0.5625 1.2
0.5 0.5625 1.2
0.4375 0.625 1.2
0.5 0.5625 1.1375
0.5625 0.625 1.1375
0.5625 0.5625 1.1375
0.625 0.625 1.1375
0.5625 0.5625 1.2
0.625 0.5625 1.2
0.5625 0.625 1.2
0.625 0.5625 1.1375
0.6875 0.625 1.1375
0.6875 0.5625 1.1375
0.75 0.625 1.1375
0.6875 0.5625 1.2
0.75 0.5625 1.2
0.6875 0.625 1.2
0.75 0.5625 1.1375
0.8125 0.625 1.1375
0.8125 0.5625 1.1375
0.875 0.625 1.1375
0.8125 0.5625 1.2
0.875 0.5625 1.2
0.8125 0.625 1.2
0.875 0.5625 1.1375
0.9375 0.625 1.1375
0.9375 0.5625 1.1375
1 0.625 1.1375
0.9375 0.5625 1.2
1 0.5625 1.2
0.9375 0.625 1.2
1 0.5625 1.1375
1.0625 0.625 1.1375
1.0625 0.5625 1.1375
1.125 0.625 1.1375
1.0625 0.5625 1.2
1.125 0.5625 1.2
1.0625 0.625 1.2
1.125 0.5625 1.1375
1.1875 0.625 1.1375
1.1875 0.5625 1.1375
1.25 0.625 1.1375
1.1875 0.5625 1.2
1.25 0.5625 1.2
1.1875 0.625 1.2
1.25 0.5625 1.1375
1.3125 0.625 1.1375
1.3125 0.5625 1.1375
1.375 0.625 1.1375
1.3125 0.5625 1.2
1.375 0.5625 1.2
1.3125 0.625 1.2
1.375 0.5625 1.1375
1.4375 0.625 1.1375
1.4375 0.5625 1.1375
1.5 0.625 1.1375
1.4375 0.5625 1.2
1.5 0.5625 1.2
1.4375 0.625 1.2
1.5 0.5625 1.1375
1.5625 0.625 1.1375
1.5625 0.5625 1.1375
1.625 0.625 1.1375
1.5625 0.5625 1.2
1.625 0.5625 1.2
1.5625 0.625 1.2
1.625 0.5625 1.1375
1.6875 0.625 1.1375
1.6875 0.5625 1.1375
1.75 0.625 1.1375
1.6875 0.5625 1.2
1.75 0.5625 1.2
1.6875 0.625 1.2
1.75 0.5625 1.1375
1.8125 0.625 1.1375
1.8125 0.5625 1.1375
1.875 0.625 1.1375
1.8125 0.5625 1.2
1.875 0.5625 1.2
1.8125 0.625 1.2
1.875 0.5625 1.1375
1.9375 0.625 1.1375
1.9375 0.5625 1.1375
2 0.625 1.1375
1.9375 0.5625 1.2
2 0.5625 1.2
1.9375 0.625 1.2
2 0.5625 1.1375
2.0625 0.625 1.1375
2.0625 0.5625 1.1375
2.125 0.625 1.1375
2.0625 0.5625 1.2
2.125 0.5625 1.2
2.0625 0.625 1.2
2.125 0.5625 1.1375
2.1875 0.625 1.1375
2.1875 0.5625 1.1375
2.25 0.625 1.1375
2.1875 0.5625 1.2
2.25 0.5625 1.2
2.1875 0.625 1.2
2.25 0.5625 1.1375
2.3125 0.625 1.1375
2.3125 0.5625 1.1375
2.375 0.625 1.1375
2.3125 0.5625 1.2
2.375 0.5625 1.2
2.3125 0.625 1.2
2.375 0.5625 1.1375
2.4375 0.625 1.1375
2.4375 0.5625 1.1375
2.5 0.625 1.1375
2.4375 0.5625 1.2
2.5 0.5625 1.2
2.4375 0.625 1.2
2.5 0.5625 1.1375
2.5625 0.625 1.1375
2.5625 0.5625 1.1375
2.625 0.625 1.1375
2.5625 0.5625 1.2
2.625 0.5625 1.2
2.5625 0.625 1.2
2.625 0.5625 1.1375
2.6875 0.625 1.1375
2.6875 0.5625 1.1375
2.75 0.625 1.1375
2.6875 0.5625 1.2
2.75 0.5625 1.2
2.6875 0.625 1.2
2.75 0.5625 1.1375
2.8125 0.625 1.1375
2.8125 0.5625 1.1375
2.875 0.625 1.1375
2.8125 0.5625 1.2
2.875 0.5625 1.2
2.8125 0.625 1.2
2.875 0.5625 1.1375
2.9375 0.625 1.1375
2.9375 0.5625 1.1375
3 0.625 1.1375
2.9375 0.5625 1.2
3 0.5625 1.2
2.9375 0.625 1.2
3 0.5625 1.1375
3.0625 0.625 1.1375
3.0625 0.5625 1.1375
3.125 0.625 1.1375
3.0625 0.5625 1.2
3.125 0.5625 1.2
3.0625 0.625 1.2
3.125 0.5625 1.1375
3.1875 0.625 1.1375
3.1875 0.5625 1.1375
3.25 0.625 1.1375
3.1875 0.5625 1.2
3.25 0.5625 1.2
3.1875 0.625 1.2
3.25 0.5625 1.1375
3.3125 0.625 1.1375
3.3125 0.5625 1.1375
3.375 0.625 1.1375
3.3125 0.5625 1.2
3.375 0.5625 1.2
3.3125 0.625 1.2
3.375 0.5625 1.1375
3.4375 0.625 1.1375
3.4375 0.5625 1.1375
3.5 0.625 1.1375
3.4375 0.5625 1.2
3.5 0.5625 1.2
3.4375 0.625 1.2
3.5 0.5625 1.1375
3.5625 0.625 1.1375
3.5625 0.5625 1.1375
3.625 0.625 1.1375
3.5625 0.5625 1.2
3.625 0.5625 1.2
3.5625 0.625 1.2
3.625 0.5625 1.1375
3.6875 0.625 1.1375
3.6875 0.5625 1.1375
3.75 0.625 1.1375
3.6875 0.5625 1.2
3.75 0.5625 1.2
3.6875 0.625 1.2
3.75 0.5625 1.1375
3.8125 0.625 1.1375
3.8125 0.5625 1.1375
3.875 0.625 1.1375
3.8125 0.5625 1.2
3.875 0.5625 1.2
3.8125 0.625 1.2
3.875 0.5625 1.1375
3.9375 0.625 1.1375
3.9375 0.5625 1.1375
4 0.625 1.1375
3.9375 0.5625 1.2
4 0.5625 1.2
3.9375 0.625 1.2
4 0.5625 1.1375
0.0625 0.75 1.1375
0.0625 0.6875 1.1375
0.125 0.75 1.1375
0.0625 0.6875 1.2
0.125 0.6875 1.2
0 0.75 1.1375
0 0.6875 1.1375
0.0625 0.75 1.2
0 0.6875 1.2
0.125 0.6875 1.1375
0.1875 0.75 1.1375
0.1875 0.6875 1.1375
0.25 0.75 1.1375
0.1875 0.6875 1.2
0.25 0.6875 1.2
0.1875 0.75 1.2
0.25 0.6875 1.1375
0.3125 0.75 1.1375
0.3125 0.6875 1.1375
0.375 0.75 1.1375
0.3125 0.6875 1.2
0.375 0.6875 1.2
0.3125 0.75 1.2
0.375 0.6875 1.1375
0.4375 0.75 1.1375
0.4375 0.6875 1.1375
0.5 0.75 1.1375
0.4375 0.6875 1.2
0.5 0.6875 1.2
0.4375 0.75 1.2
0.5 0.6875 1.1375
0.5625 0.75 1.1375
0.5625 0.6875 1.1375
0.625 0.75 1.1375
0.5625 0.6875 1.2
0.625 0.6875 1.2
0.5625 0.75 1.2
0.625 0.6875 1.1375
0.6875 0.75 1.1375
0.6875 0.6875 1.1375
0.75 0.75 1.1375
0.6875 0.6875 1.2
0.75 0.6875 1.2
0.6875 0.75 1.2
0.75 0.6875 1.1375
0.8125 0.75 1.1375
0.8125 0.6875 1.1375
0.875 0.75 1.1375
0.8125 0.6875 1.2
0.875 0.6875 1.2
0.8125 0.75 1.2
0.875 0.6875 1.1375
0.9375 0.75 1.1375
0.9375 0.6875 1.1375
1 0.75 1.1375
0.9375 0.6875 1.2
1 0.6875 1.2
0.9375 0.75 1.2
1 0.6875 1.1375
1.0625 0.75 1.1375
1.0625 0.6875 1.1375
1.125 0.75 1.1375
1.0625 0.6875 1.2
1.125 0.6875 1.2
1.0625 0.75 1.2
1.125 0.6875 1.1375
1.1875 0.75 1.1375
1.1875 0.6875 1.1375
1.25 0.75 1.1375
1.1875 0.6875 1.2
1.25 0.6875 1.2
1.1875 0.75 1.2
1.25 0.6875 1.1375
1.3125 0.75 1.1375
1.3125 0.6875 1.1375
1.375 0.75 1.1375
1.3125 0.6875 1.2
1.375 0.6875 1.2
1.3125 0.75 1.2
1.375 0.6875 1.1375
1.4375 0.75 1.1375
1.4375 0.6875 1.1375
1.5 0.75 1.1375
1.4375 0.6875 1.2
1.5 0.6875 1.2
1.4375 0.75 1.2
1.5 0.6875 1.1375
1.5625 0.75 1.1375
1.5625 0.6875 1.1375
1.625 0.75 1.1375
1.5625 0.6875 1.2
1.625 0.6875 1.2
1.5625 0.75 1.2
1.625 0.6875 1.1375
1.6875 0.75 1.1375
1.6875 0.6875 1.1375
1.75 0.75 1.1375
1.6875 0.6875 1.2
1.75 0.6875 1.2
1.6875 0.75 1.2
1.75 0.6875 1.1375
1.8125 0.75 1.1375
1.8125 0.6875 1.1375
1.875 0.75 1.1375
1.8125 0.6875 1.2
1.875 0.6875 1.2
1.8125 0.75 1.2
1.875 0.6875 1.1375
1.9375 0.75 1.1375
1.9375 0.6875 1.1375
2 0.75 1.1375
1.9375 0.6875 1.2
2 0.6875 1.2
1.9375 0.75 1.2
2 0.6875 1.1375
2.0625 0.75 1.1375
2.0625 0.6875 1.1375
2.125 0.75 1.1375
2.0625 0.6875 1.2
2.125 0.6875 1.2
2.0625 0.75 1.2
2.125 0.6875 1.1375
2.1875 0.75 1.1375
2.1875 0.6875 1.1375
2.25 0.75 1.1375
2.1875 0.6875 1.2
2.25 0.6875 1.2
2.1875 0.75 1.2
2.25 0.6875 1.1375
2.3125 0.75 1.1375
2.3125 0.6875 1.1375
2.375 0.75 1.1375
2.3125 0.6875 1.2
2.375 0.6875 1.2
2.3125 0.75 1.2
2.375 0.6875 1.1375
2.4375 0.75 1.1375
2.4375 0.6875 1.1375
2.5 0.75 1.1375
2.4375 0.6875 1.2
2.5 0.6875 1.2
2.4375 0.75 1.2
2.5 0.6875 1.1375
2.5625 0.75 1.1375
2.5625 0.6875 1.1375
2.625 0.75 1.1375
2.5625 0.6875 1.2
2.625 0.6875 1.2
2.5625 0.75 1.2
2.625 0.6875 1.1375
2.6875 0.75 1.1375
2.6875 0.6875 1.1375
2.75 0.75 1.1375
2.6875 0.6875 1.2
2.75 0.6875 1.2
2.6875 0.75 1.2
2.75 0.6875 1.1375
2.8125 0.75 1.1375
2.8125 0.6875 1.1375
2.875 0.75 1.1375
2.8125 0.6875 1.2
2.875 0.6875 1.2
2.8125 0.75 1.2
2.875 0.6875 1.1375
2.9375 0.75 1.1375
2.9375 0.6875 1.1375
3 0.75 1.1375
2.9375 0.6875 1.2
3 0.6875 1.2
2.9375 0.75 1.2
3 0.6875 1.1375
3.0625 0.75 1.1375
3.0625 0.6875 1.1375
3.125 0.75 1.1375
3.0625 0.6875 1.2
3.125 0.6875 1.2
3.0625 0.75 1.2
3.125 0.6875 1.1375
3.1875 0.75 1.1375
3.1875 0.6875 1.1375
3.25 0.75 1.1375
3.1875 0.6875 1.2
3.25 0.6875 1.2
3.1875 0.75 1.2
3.25 0.6875 1.1375
3.3125 0.75 1.1375
3.3125 0.6875 1.1375
3.375 0.75 1.1375
3.3125 0.6875 1.2
3.375 0.6875 1.2
3.3125 0.75 1.2
3.375 0.6875 1.1375
3.4375 0.75 1.1375
3.4375 0.6875 1.1375
3.5 0.75 1.1375
3.4375 0.6875 1.2
3.5 0.6875 1.2
3.4375 0.75 1.2
3.5 0.6875 1.1375
3.5625 0.75 1.1375
3.5625 0.6875 1.1375
3.625 0.75 1.1375
3.5625 0.6875 1.2
3.625 0.6875 1.2
3.5625 0.75 1.2
3.625 0.6875 1.1375
3.6875 0.75 1.1375
3.6875 0.6875 1.1375
3.75 0.75 1.1375
3.6875 0.6875 1.2
3.75 0.6875 1.2
3.6875 0.75 1.2
3.75 0.6875 1.1375
3.8125 0.75 1.1375
3.8125 0.6875 1.1375
3.875 0.75 1.1375
3.8125 0.6875 1.2
3.875 0.6875 1.2
3.8125 0.75 1.2
3.875 0.6875 1.1375
3.9375 0.75 1.1375
3.9375 0.6875 1.1375
4 0.75 1.1375
3.9375 0.6875 1.2
4 0.6875 1.2
3.9375 0.75 1.2
4 0.6875 1.1375
0.0625 0.875 1.1375
0.0625 0.8125 1.1375
0.125 0.875 1.1375
0.0625 0.8125 1.2
0.125 0.8125 1.2
0 0.875 1.1375
0 0.8125 1.1375
0.0625 0.875 1.2
0 0.8125 1.2
0.125 0.8125 1.1375
0.1875 0.875 1.1375
0.1875 0.8125 1.1375
0.25 0.875 1.1375
0.1875 0.8125 1.2
0.25 0.8125 1.2
0.1875 0.875 1.2
0.25 0.8125 1.1375
0.3125 0.875 1.1375
0.3125 0.8125 1.1375
0.375 0.875 1.1375
0.3125 0.8125 1.2
0.375 0.8125 1.2
0.3125 0.875 1.2
0.375 0.8125 1.1375
0.4375 0.875 1.1375
0.4375 0.8125 1.1375
0.5 0.875 1.1375
0.4375 0.8125 1.2
0.5 0.8125 1.2
0.4375 0.875 1.2
0.5 0.8125 1.1375
0.5625 0.875 1.1375
0.5625 0.8125 1.1375
0.625 0.875 1.1375
0.5625 0.8125 1.2
0.625 0.8125 1.2
0.5625 0.875 1.2
0.625 0.8125 1.1375
0.6875 0.875 1.1375
0.6875 0.8125 1.1375
0.75 0.875 1.1375
0.6875 0.8125 1.2
0.75 0.8125 1.2
0.6875 0.875 1.2
0.75 0.8125 1.1375
0.8125 0.875 1.1375
0.8125 0.8125 1.1375
0.875 0.875 1.1375
0.8125 0.8125 1.2
0.875 0.8125 1.2
0.8125 0.875 1.2
0.875 0.8125 1.1375
0.9375 0.875 1.1375
0.9375 0.8125 1.1375
1 0.875 1.1375
0.9375 0.8125 1.2
1 0.8125 1.2
0.9375 0.875 1.2
1 0.8125 1.1375
1.0625 0.875 1.1375
1.0625 0.8125 1.1375
1.125 0.875 1.1375
1.0625 0.8125 1.2
1.125 0.8125 1.2
1.0625 0.875 1.2
1.125 0.8125 1.1375
1.1875 0.875 1.1375
1.1875 0.8125 1.1375
1.25 0.875 1.1375
1.1875 0.8125 1.2
1.25 0.8125 1.2
1.1875 0.875 1.2
1.25 0.8125 1.1375
1.3125 0.875 1.1375
1.3125 0.8125 1.1375
1.375 0.875 1.1375
1.3125 0.8125 1.2
1.375 0.8125 1.2
1.3125 0.875 1.2
1.375 0.8125 1.1375
1.4375 0.875 1.1375
1.4375 0.8125 1.1375
1.5 0.875 1.1375
1.4375 0.8125 1.2
1.5 0.8125 1.2
1.4375 0.875 1.2
1.5 0.8125 1.1375
1.5625 0.875 1.1375
1.5625 0.8125 1.1375
1.625 0.875 1.1375
1.5625 0.8125 1.2
1.625 0.8125 1.2
1.5625 0.875 1.2
1.625 0.8125 1.1375
1.6875 0.875 1.1375
1.6875 0.8125 1.1375
1.75 0.875 1.1375
1.6875 0.8125 1.2
1.75 0.8125 1.2
1.6875 0.875 1.2
1.75 0.8125 1.1375
1.8125 0.875 1.1375
1.8125 0.8125 1.1375
1.875 0.875 1.1375
1.8125 0.8125 1.2
1.875 0.8125 1.2
1.8125 0.875 1.2
1.875 0.8125 1.1375
1.9375 0.875 1.1375
1.9375 0.8125 1.1375
2 0.875 1.1375
1.9375 0.8125 1.2
2 0.8125 1.2
1.9375 0.875 1.2
2 0.8125 1.1375
2.0625 0.875 1.1375
2.0625 0.8125 1.1375
2.125 0.875 1.1375
2.0625 0.8125 1.2
2.125 0.8125 1.2
2.0625 0.875 1.2
2.125 0.8125 1.1375
2.1875 0.875 1.1375
2.1875 0.8125 1.1375
2.25 0.875 1.1375
2.1875 0.8125 1.2
2.25 0.8125 1.2
2.1875 0.875 1.2
2.25 0.8125 1.1375
2.3125 0.875 1.1375
2.3125 0.8125 1.1375
2.375 0.875 1.1375
2.3125 0.8125 1.2
2.375 0.8125 1.2
2.3125 0.875 1.2
2.375 0.8125 1.1375
2.4375 0.875 1.1375
2.4375 0.8125 1.1375
2.5 0.875 1.1375
2.4375 0.8125 1.2
2.5 0.8125 1.2
2.4375 0.875 1.2
2.5 0.8125 1.1375
2.5625 0.875 1.1375
2.5625 0.8125 1.1375
2.625 0.875 1.1375
2.5625 0.8125 1.2
2.625 0.8125 1.2
2.5625 0.875 1.2
2.625 0.8125 1.1375
2.6875 0.875 1.1375
2.6875 0.8125 1.1375
2.75 0.875 1.1375
2.6875 0.8125 1.2
2.75 0.8125 1.2
2.6875 0.875 1.2
2.75 0.8125 1.1375
2.8125 0.875 1.1375
2.8125 0.8125 1.1375
2.875 0.875 1.1375
2.8125 0.8125 1.2
2.875 0.8125 1.2
2.8125 0.875 1.2
2.875 0.8125 1.1375
2.9375 0.875 1.1375
2.9375 0.8125 1.1375
3 0.875 1.1375
2.9375 0.8125 1.2
3 0.8125 1.2
2.9375 0.875 1.2
3 0.8125 1.1375
3.0625 0.875 1.1375
3.0625 0.8125 1.1375
3.125 0.875 1.1375
3.0625 0.8125 1.2
3.125 0.8125 1.2
3.0625 0.875 1.2
3.125 0.8125 1.1375
3.1875 0.875 1.1375
3.1875 0.8125 1.1375
3.25 0.875 1.1375
3.1875 0.8125 1.2
3.25 0.8125 1.2
3.1875 0.875 1.2
3.25 0.8125 1.1375
3.3125 0.875 1.1375
3.3125 0.8125 1.1375
3.375 0.875 1.1375
3.3125 0.8125 1.2
3.375 0.8125 1.2
3.3125 0.875 1.2
3.375 0.8125 1.1375
3.4375 0.875 1.1375
3.4375 0.8125 1.1375
3.5 0.875 1.1375
3.4375 0.8125 1.2
3.5 0.8125 1.2
3.4375 0.875 1.2
3.5 0.8125 1.1375
3.5625 0.875 1.1375
3.5625 0.8125 1.1375
3.625 0.875 1.1375
3.5625 0.8125 1.2
3.625 0.8125 1.2
3.5625 0.875 1.2
3.625 0.8125 1.1375
3.6875 0.875 1.1375
3.6875 0.8125 1.1375
3.75 0.875 1.1375
3.6875 0.8125 1.2
3.75 0.8125 1.2
3.6875 0.875 1.2
3.75 0.8125 1.1375
3.8125 0.875 1.1375
3.8125 0.8125 1.1375
3.875 0.875 1.1375
3.8125 0.8125 1.2
3.875 0.8125 1.2
3.8125 0.875 1.2
3.875 0.8125 1.1375
3.9375 0.875 1.1375
3.9375 0.8125 1.1375
4 0.875 1.1375
3.9375 0.8125 1.2
4 0.8125 1.2
3.9375 0.875 1.2
4 0.8125 1.1375
0.0625 1 1.1375
0.0625 0.9375 1.1375
0.125 1 1.1375
0.0625 0.9375 1.2
0.125 0.9375 1.2
0 1 1.1375
0 0.9375 1.1375
0.0625 1 1.2
0 0.9375 1.2
0.125 0.9375 1.1375
0.1875 1 1.1375
0.1875 0.9375 1.1375
0.25 1 1.1375
0.1875 0.9375 1.2
0.25 0.9375 1.2
0.1875 1 1.2
0.25 0.9375 1.1375
0.3125 1 1.1375
0.3125 0.9375 1.1375
0.375 1 1.1375
0.3125 0.9375 1.2
0.375 0.9375 1.2
0.3125 1 1.2
0.375 0.9375 1.1375
0.4375 1 1.1375
0.4375 0.9375 1.1375
0.5 1 1.1375
0.4375 0.9375 1.2
0.5 0.9375 1.2
0.4375 1 1.2
0.5 0.9375 1.1375
0.5625 1 1.1375
0.5625 0.9375 1.1375
0.625 1 1.1375
0.5625 0.9375 1.2
0.625 0.9375 1.2
0.5625 1 1.2
0.625 0.9375 1.1375
0.6875 1 1.1375
0.6875 0.9375 1.1375
0.75 1 1.1375
0.6875 0.9375 1.2
0.75 0.9375 1.2
0.6875 1 1.2
0.75 0.9375 1.1375
0.8125 1 1.1375
0.8125 0.9375 1.1375
0.875 1 1.1375
0.8125 0.9375 1.2
0.875 0.9375 1.2
0.8125 1 1.2
0.875 0.9375 1.1375
0.9375 1 1.1375
0.9375 0.9375 1.1375
1 1 1.1375
0.9375 0.9375 1.2
1 0.9375 1.2
0.9375 1 1.2
1 0.9375 1.1375
1.0625 1 1.1375
1.0625 0.9375 1.1375
1.125 1 1.1375
1.0625 0.9375 1.2
1.125 0.9375 1.2
1.0625 1 1.2
1.125 0.9375 1.1375
1.1875 1 1.1375
1.1875 0.9375 1.1375
1.25 1 1.1375
1.1875 0.9375 1.2
1.25 0.9375 1.2
1.1875 1 1.2
1.25 0.9375 1.1375
1.3125 1 1.1375
1.3125 0.9375 1.1375
1.375 1 1.1375
1.3125 0.9375 1.2
1.375 0.9375 1.2
1.3125 1 1.2
1.375 0.9375 1.1375
1.4375 1 1.1375
1.4375 0.9375 1.1375
1.5 1 1.1375
1.4375 0.9375 1.2
1.5 0.9375 1.2
1.4375 1 1.2
1.5 0.9375 1.1375
1.5625 1 1.1375
1.5625 0.9375 1.1375
1.625 1 1.1375
1.5625 0.9375 1.2
1.625 0.9375 1.2
1.5625 1 1.2
1.625 0.9375 1.1375
1.6875 1 1.1375
1.6875 0.9375 1.1375
1.75 1 1.1375
1.6875 0.9375 1.2
1.75 0.9375 1.2
1.6875 1 1.2
1.75 0.9375 1.1375
1.8125 1 1.1375
1.8125 0.9375 1.1375
1.875 1 1.1375
1.8125 0.9375 1.2
1.875 0.9375 1.2
1.8125 1 1.2
1.875 0.9375 1.1375
1.9375 1 1.1375
1.9375 0.9375 1.1375
2 1 1.1375
1.9375 0.9375 1.2
2 0.9375 1.2
1.9375 1 1.2
2 0.9375 1.1375
2.0625 1 1.1375
2.0625 0.9375 1.1375
2.125 1 1.1375
2.0625 0.9375 1.2
2.125 0.9375 1.2
2.0625 1 1.2
2.125 0.9375 1.1375
2.1875 1 1.1375
2.1875 0.9375 1.1375
2.25 1 1.1375
2.1875 0.9375 1.2
2.25 0.9375 1.2
2.1875 1 1.2
2.25 0.9375 1.1375
2.3125 1 1.1375
2.3125 0.9375 1.1375
2.375 1 1.1375
2.3125 0.9375 1.2
2.375 0.9375 1.2
2.3125 1 1.2
2.375 0.9375 1.1375
2.4375 1 1.1375
2.4375 0.9375 1.1375
2.5 1 1.1375
2.4375 0.9375 1.2
2.5 0.9375 1.2
2.4375 1 1.2
2.5 0.9375 1.1375
2.5625 1 1.1375
2.5625 0.9375 1.1375
2.625 1 1.1375
2.5625 0.9375 1.2
2.625 0.9375 1.2
2.5625 1 1.2
2.625 0.9375 1.1375
2.6875 1 1.1375
2.6875 0.9375 1.1375
2.75 1 1.1375
2.6875 0.9375 1.2
2.75 0.9375 1.2
2.6875 1 1.2
2.75 0.9375 1.1375
2.8125 1 1.1375
2.8125 0.9375 1.1375
2.875 1 1.1375
2.8125 0.9375 1.2
2.875 0.9375 1.2
2.8125 1 1.2
2.875 0.9375 1.1375
2.9375 1 1.1375
2.9375 0.9375 1.1375
3 1 1.1375
2.9375 0.9375 1.2
3 0.9375 1.2
2.9375 1 1.2
3 0.9375 1.1375
3.0625 1 1.1375
3.0625 0.9375 1.1375
3.125 1 1.1375
3.0625 0.9375 1.2
3.125 0.9375 1.2
3.0625 1 1.2
3.125 0.9375 1.1375
3.1875 1 1.1375
3.1875 0.9375 1.1375
3.25 1 1.1375
3.1875 0.9375 1.2
3.25 0.9375 1.2
3.1875 1 1.2
3.25 0.9375 1.1375
3.3125 1 1.1375
3.3125 0.9375 1.1375
3.375 1 1.1375
3.3125 0.9375 1.2
3.375 0.9375 1.2
3.3125 1 1.2
3.375 0.9375 1.1375
3.4375 1 1.1375
3.4375 0.9375 1.1375
3.5 1 1.1375
3.4375 0.9375 1.2
3.5 0.9375 1.2
3.4375 1 1.2
3.5 0.9375 1.1375
3.5625 1 1.1375
3.5625 0.9375 1.1375
3.625 1 1.1375
3.5625 0.9375 1.2
3.625 0.9375 1.2
3.5625 1 1.2
3.625 0.9375 1.1375
3.6875 1 1.1375
3.6875 0.9375 1.1375
3.75 1 1.1375
3.6875 0.9375 1.2
3.75 0.9375 1.2
3.6875 1 1.2
3.75 0.9375 1.1375
3.8125 1 1.1375
3.8125 0.9375 1.1375
3.875 1 1.1375
3.8125 0.9375 1.2
3.875 0.9375 1.2
3.8125 1 1.2
3.875 0.9375 1.1375
3.9375 1 1.1375
3.9375 0.9375 1.1375
4 1 1.1375
3.9375 0.9375 1.2
4 0.9375 1.2
3.9375 1 1.2
4 0.9375 1.1375
0.0625 0.125 1.2625
0.0625 0.0625 1.2625
0.125 0.125 1.2625
0.0625 0.0625 1.325
0.125 0.0625 1.325
0.0625 0 1.325
0 0 1.2625
0.0625 0 1.2625
0 0.125 1.2625
0 0.0625 1.2625
0.0625 0.125 1.325
0 0.0625 1.325
0.125 0 1.2625
0.125 0.0625 1.2625
0.1875 0.125 1.2625
0.1875 0.0625 1.2625
0.25 0.125 1.2625
0.1875 0.0625 1.325
0.25 0.0625 1.325
0.1875 0 1.325
0.1875 0 1.2625
0.1875 0.125 1.325
0.25 0 1.2625
0.25 0.0625 1.2625
0.3125 0.125 1.2625
0.3125 0.0625 1.2625
0.375 0.125 1.2625
0.3125 0.0625 1.325
0.375 0.0625 1.325
0.3125 0 1.325
0.3125 0 1.2625
0.3125 0.125 1.325
0.375 0 1.2625
0.375 0.0625 1.2625
0.4375 0.125 1.2625
0.4375 0.0625 1.2625
0.5 0.125 1.2625
0.4375 0.0625 1.325
0.5 0.0625 1.325
0.4375 0 1.325
0.4375 0 1.2625
0.4375 0.125 1.325
0.5 0 1.2625
0.5 0.0625 1.2625
0.5625 0.125 1.2625
0.5625 0.0625 1.2625
0.625 0.125 1.2625
0.5625 0.0625 1.325
0.625 0.0625 1.325
0.5625 0 1.325
0.5625 0 1.2625
0.5625 0.125 1.325
0.625 0 1.2625
0.625 0.0625 1.2625
0.6875 0.125 1.2625
0.6875 0.0625 1.2625
0.75 0.125 1.2625
0.6875 0.0625 1.325
0.75 0.0625 1.325
0.6875 0 1.325
0.6875 0 1.2625
0.6875 0.125 1.325
0.75 0 1.2625
0.75 0.0625 1.2625
0.8125 0.125 1.2625
0.8125 0.0625 1.2625
0.875 0.125 1.2625
0.8125 0.0625 1.325
0.875 0.0625 1.325
0.8125 0 1.325
0.8125 0 1.2625
0.8125 0.125 1.325
0.875 0 1.2625
0.875 0.0625 1.2625
0.9375 0.125 1.2625
0.9375 0.0625 1.2625
1 0.125 1.2625
0.9375 0.0625 1.325
1 0.0625 1.325
0.9375 0 1.325
0.9375 0 1.2625
0.9375 0.125 1.325
1 0 1.2625
1 0.0625 1.2625
1.0625 0.125 1.2625
1.0625 0.0625 1.2625
1.125 0.125 1.2625
1.0625 0.0625 1.325
1.125 0.0625 1.325
1.0625 0 1.325
1.0625 0 1.2625
1.0625 0.125 1.325
1.125 0 1.2625
1.125 0.0625 1.2625
1.1875 0.125 1.2625
1.1875 0.0625 1.2625
1.25 0.125 1.2625
1.1875 0.0625 1.325
1.25 0.0625 1.325
1.1875 0 1.325
1.1875 0 1.2625
1.1875 0.125 1.325
1.25 0 1.2625
1.25 0.0625 1.2625
1.3125 0.125 1.2625
1.3125 0.0625 1.2625
1.375 0.125 1.2625
1.3125 0.0625 1.325
1.375 0.0625 1.325
1.3125 0 1.325
1.3125 0 1.2625
1.3125 0.125 1.325
1.375 0 1.2625
1.375 0.0625 1.2625
1.4375 0.125 1.2625
1.4375 0.0625 1.2625
1.5 0.125 1.2625
1.4375 0.0625 1.325
1.5 0.0625 1.325
1.4375 0 1.325
1.4375 0 1.2625
1.4375 0.125 1.325
1.5 0 1.2625
1.5 0.0625 1.2625
1.5625 0.125 1.2625
1.5625 0.0625 1.2625
1.625 0.125 1.2625
1.5625 0.0625 1.325
1.625 0.0625 1.325
1.5625 0 1.325
1.5625 0 1.2625
1.5625 0.125 1.325
1.625 0 1.2625
1.625 0.0625 1.2625
1.6875 0.125 1.2625
1.6875 0.0625 1.2625
1.75 0.125 1.2625
1.6875 0.0625 1.325
1.75 0.0625 1.325
1.6875 0 1.325
1.6875 0 1.2625
1.6875 0.125 1.325
1.75 0 1.2625
1.75 0.0625 1.2625
1.8125 0.125 1.2625
1.8125 0.0625 1.2625
1.875 0.125 1.2625
1.8125 0.0625 1.325
1.875 0.0625 1.325
1.8125 0 1.325
1.8125 0 1.2625
1.8125 0.125 1.325
1.875 0 1.2625
1.875 0.0625 1.2625
1.9375 0.125 1.2625
1.9375 0.0625 1.2625
2 0.125 1.2625
1.9375 0.0625 1.325
2 0.0625 1.325
1.9375 0 1.325
1.9375 0 1.2625
1.9375 0.125 1.325
2 0 1.2625
2 0.0625 1.2625
2.0625 0.125 1.2625
2.0625 0.0625 1.2625
2.125 0.125 1.2625
2.0625 0.0625 1.325
2.125 0.0625 1.325
2.0625 0 1.325
2.0625 0 1.2625
2.0625 0.125 1.325
2.125 0 1.2625
2.125 0.0625 1.2625
2.1875 0.125 1.2625
2.1875 0.0625 1.2625
2.25 0.125 1.2625
2.1875 0.0625 1.325
2.25 0.0625 1.325
2.1875 0 1.325
2.1875 0 1.2625
2.1875 0.125 1.325
2.25 0 1.2625
2.25 0.0625 1.2625
2.3125 0.125 1.2625
2.3125 0.0625 1.2625
2.375 0.125 1.2625
2.3125 0.0625 1.325
2.375 0.0625 1.325
2.3125 0 1.325
2.3125 0 1.2625
2.3125 0.125 1.325
2.375 0 1.2625
2.375 0.0625 1.2625
2.4375 0.125 1.2625
2.4375 0.0625 1.2625
2.5 0.125 1.2625
2.4375 0.0625 1.325
2.5 0.0625 1.325
2.4375 0 1.325
2.4375 0 1.2625
2.4375 0.125 1.325
2.5 0 1.2625
2.5 0.0625 1.2625
2.5625 0.125 1.2625
2.5625 0.0625 1.2625
2.625 0.125 1.2625
2.5625 0.0625 1.325
2.625 0.0625 1.325
2.5625 0 1.325
2.5625 0 1.2625
2.5625 0.125 1.325
2.625 0 1.2625
2.625 0.0625 1.2625
2.6875 0.125 1.2625
2.6875 0.0625 1.2625
2.75 0.125 1.2625
2.6875 0.0625 1.325
2.75 0.0625 1.325
2.6875 0 1.325
2.6875 0 1.2625
2.6875 0.125 1.325
2.75 0 1.2625
2.75 0.0625 1.2625
2.8125 0.125 1.2625
2.8125 0.0625 1.2625
2.875 0.125 1.2625
2.8125 0.0625 1.325
2.875 0.0625 1.325
2.8125 0 1.325
2.8125 0 1.2625
2.8125 0.125 1.325
2.875 0 1.2625
2.875 0.0625 1.2625
2.9375 0.125 1.2625
2.9375 0.0625 1.2625
3 0.125 1.2625
2.9375 0.0625 1.325
3 0.0625 1.325
2.9375 0 1.325
2.9375 0 1.2625
2.9375 0.125 1.325
3 0 1.2625
3 0.0625 1.2625
3.0625 0.125 1.2625
3.0625 0.0625 1.2625
3.125 0.125 1.2625
3.0625 0.0625 1.325
3.125 0.0625 1.325
3.0625 0 1.325
3.0625 0 1.2625
3.0625 0.125 1.325
3.125 0 1.2625
3.125 0.0625 1.2625
3.1875 0.125 1.2625
3.1875 0.0625 1.2625
3.25 0.125 1.2625
3.1875 0.0625 1.325
3.25 0.0625 1.325
3.1875 0 1.325
3.1875 0 1.2625
3.1875 0.125 1.325
3.25 0 1.2625
3.25 0.0625 1.2625
3.3125 0.125 1.2625
3.3125 0.0625 1.2625
3.375 0.125 1.2625
3.3125 0.0625 1.325
3.375 0.0625 1.325
3.3125 0 1.325
3.3125 0 1.2625
3.3125 0.125 1.325
3.375 0 1.2625
3.375 0.0625 1.2625
3.4375 0.125 1.2625
3.4375 0.0625 1.2625
3.5 0.125 1.2625
3.4375 0.0625 1.325
3.5 0.0625 1.325
3.4375 0 1.325
3.4375 0 1.2625
3.4375 0.125 1.325
3.5 0 1.2625
3.5 0.0625 1.2625
3.5625 0.125 1.2625
3.5625 0.0625 1.2625
3.625 0.125 1.2625
3.5625 0.0625 1.325
3.625 0.0625 1.325
3.5625 0 1.325
3.5625 0 1.2625
3.5625 0.125 1.325
3.625 0 1.2625
3.625 0.0625 1.2625
3.6875 0.125 1.2625
3.6875 0.0625 1.2625
3.75 0.125 1.2625
3.6875 0.0625 1.325
3.75 0.0625 1.325
3.6875 0 1.325
3.6875 0 1.2625
3.6875 0.125 1.325
3.75 0 1.2625
3.75 0.0625 1.2625
3.8125 0.125 1.2625
3.8125 0.0625 1.2625
3.875 0.125 1.2625
3.8125 0.0625 1.325
3.875 0.0625 1.325
3.8125 0 1.325
3.8125 0 1.2625
3.8125 0.125 1.325
3.875 0 1.2625
3.875 0.0625 1.2625
3.9375 0.125 1.2625
3.9375 0.0625 1.2625
4 0.125 1.2625
3.9375 0.0625 1.325
4 0.0625 1.325
3.9375 0 1.325
3.9375 0 1.2625
3.9375 0.125 1.325
4 0 1.2625
4 0.0625 1.2625
0.0625 0.25 1.2625
0.0625 0.1875 1.2625
0.125 0.25 1.2625
0.0625 0.1875 1.325
0.125 0.1875 1.325
0 0.25 1.2625
0 0.1875 1.2625
0.0625 0.25 1.325
0 0.1875 1.325
0.125 0.1875 1.2625
0.1875 0.25 1.2625
0.1875 0.1875 1.2625
0.25 0.25 1.2625
0.1875 0.1875 1.325
0.25 0.1875 1.325
0.1875 0.25 1.325
0.25 0.1875 1.2625
0.3125 0.25 1.2625
0.3125 0.1875 1.2625
0.375 0.25 1.2625
0.3125 0.1875 1.325
0.375 0.1875 1.325
0.3125 0.25 1.325
0.375 0.1875 1.2625
0.4375 0.25 1.2625
0.4375 0.1875 1.2625
0.5 0.25 1.2625
0.4375 0.1875 1.325
0.5 0.1875 1.325
0.4375 0.25 1.325
0.5 0.1875 1.2625
0.5625 0.25 1.2625
0.5625 0.1875 1.2625
0.625 0.25 1.2625
0.5625 0.1875 1.325
0.625 0.1875 1.325
0.5625 0.25 1.325
0.625 0.1875 1.2625
0.6875 0.25 1.2625
0.6875 0.1875 1.2625
0.75 0.25 1.2625
0.6875 0.1875 1.325
0.75 0.1875 1.325
0.6875 0.25 1.325
0.75 0.1875 1.2625
0.8125 0.25 1.2625
0.8125 0.1875 1.2625
0.875 0.25 1.2625
0.8125 0.1875 1.325
0.875 0.1875 1.325
0.8125 0.25 1.325
0.875 0.1875 1.2625
0.9375 0.25 1.2625
0.9375 0.1875 1.2625
1 0.25 1.2625
0.9375 0.1875 1.325
1 0.1875 1.325
0.9375 0.25 1.325
1 0.1875 1.2625
1.0625 0.25 1.2625
1.0625 0.1875 1.2625
1.125 0.25 1.2625
1.0625 0.1875 1.325
1.125 0.1875 1.325
1.0625 0.25 1.325
1.125 0.1875 1.2625
1.1875 0.25 1.2625
1.1875 0.1875 1.2625
1.25 0.25 1.2625
1.1875 0.1875 1.325
1.25 0.1875 1.325
1.1875 0.25 1.325
1.25 0.1875 1.2625
1.3125 0.25 1.2625
1.3125 0.1875 1.2625
1.375 0.25 1.2625
1.3125 0.1875 1.325
1.375 0.1875 1.325
1.3125 0.25 1.325
1.375 0.1875 1.2625
1.4375 0.25 1.2625
1.4375 0.1875 1.2625
1.5 0.25 1.2625
1.4375 0.1875 1.325
1.5 0.1875 1.325
1.4375 0.25 1.325
1.5 0.1875 1.2625
1.5625 0.25 1.2625
1.5625 0.1875 1.2625
1.625 0.25 1.2625
1.5625 0.1875 1.325
1.625 0.1875 1.325
1.5625 0.25 1.325
1.625 0.1875 1.2625
1.6875 0.25 1.2625
1.6875 0.1875 1.2625
1.75 0.25 1.2625
1.6875 0.1875 1.325
1.75 0.1875 1.325
1.6875 0.25 1.325
1.75 0.1875 1.2625
1.8125 0.25 1.2625
1.8125 0.1875 1.2625
1.875 0.25 1.2625
1.8125 0.1875 1.325
1.875 0.1875 1.325
1.8125 0.25 1.325
1.875 0.1875 1.2625
1.9375 0.25 1.2625
1.9375 0.1875 1.2625
2 0.25 1.2625
1.9375 0.1875 1.325
2 0.1875 1.325
1.9375 0.25 1.325
2 0.1875 1.2625
2.0625 0.25 1.2625
2.0625 0.1875 1.2625
2.125 0.25 1.2625
2.0625 0.1875 1.325
2.125 0.1875 1.325
2.0625 0.25 1.325
2.125 0.1875 1.2625
2.1875 0.25 1.2625
2.1875 0.1875 1.2625
2.25 0.25 1.2625
2.1875 0.1875 1.325
2.25 0.1875 1.325
2.1875 0.25 1.325
2.25 0.1875 1.2625
2.3125 0.25 1.2625
2.3125 0.1875 1.2625
2.375 0.25 1.2625
2.3125 0.1875 1.325
2.375 0.1875 1.325
2.3125 0.25 1.325
2.375 0.1875 1.2625
2.4375 0.25 1.2625
2.4375 0.1875 1.2625
2.5 0.25 1.2625
2.4375 0.1875 1.325
2.5 0.1875 1.325
2.4375 0.25 1.325
2.5 0.1875 1.2625
2.5625 0.25 1.2625
2.5625 0.1875 1.2625
2.625 0.25 1.2625
2.5625 0.1875 1.325
2.625 0.1875 1.325
2.5625 0.25 1.325
2.625 0.1875 1.2625
2.6875 0.25 1.2625
2.6875 0.1875 1.2625
2.75 0.25 1.2625
2.6875 0.1875 1.325
2.75 0.1875 1.325
2.6875 0.25 1.325
2.75 0.1875 1.2625
2.8125 0.25 1.2625
2.8125 0.1875 1.2625
2.875 0.25 1.2625
2.8125 0.1875 1.325
2.875 0.1875 1.325
2.8125 0.25 1.325
2.875 0.1875 1.2625
2.9375 0.25 1.2625
2.9375 0.1875 1.2625
3 0.25 1.2625
2.9375 0.1875 1.325
3 0.1875 1.325
2.9375 0.25 1.325
3 0.1875 1.2625
3.0625 0.25 1.2625
3.0625 0.1875 1.2625
3.125 0.25 1.2625
3.0625 0.1875 1.325
3.125 0.1875 1.325
3.0625 0.25 1.325
3.125 0.1875 1.2625
3.1875 0.25 1.2625
3.1875 0.1875 1.2625
3.25 0.25 1.2625
3.1875 0.1875 1.325
3.25 0.1875 1.325
3.1875 0.25 1.325
3.25 0.1875 1.2625
3.3125 0.25 1.2625
3.3125 0.1875 1.2625
3.375 0.25 1.2625
3.3125 0.1875 1.325
3.375 0.1875 1.325
3.3125 0.25 1.325
3.375 0.1875 1.2625
3.4375 0.25 1.2625
3.4375 0.1875 1.2625
3.5 0.25 1.2625
3.4375 0.1875 1.325
3.5 0.1875 1.325
3.4375 0.25 1.325
3.5 0.1875 1.2625
3.5625 0.25 1.2625
3.5625 0.1875 1.2625
3.625 0.25 1.2625
3.5625 0.1875 1.325
3.625 0.1875 1.325
3.5625 0.25 1.325
3.625 0.1875 1.2625
3.6875 0.25 1.2625
3.6875 0.1875 1.2625
3.75 0.25 1.2625
3.6875 0.1875 1.325
3.75 0.1875 1.325
3.6875 0.25 1.325
3.75 0.1875 1.2625
3.8125 0.25 1.2625
3.8125 0.1875 1.2625
3.875 0.25 1.2625
3.8125 0.1875 1.325
3.875 0.1875 1.325
3.8125 0.25 1.325
3.875 0.1875 1.2625
3.9375 0.25 1.2625
3.9375 0.1875 1.2625
4 0.25 1.2625
3.9375 0.1875 1.325
4 0.1875 1.325
3.9375 0.25 1.325
4 0.1875 1.2625
0.0625 0.375 1.2625
0.0625 0.3125 1.2625
0.125 0.375 1.2625
0.0625 0.3125 1.325
0.125 0.3125 1.325
0 0.375 1.2625
0 0.3125 1.2625
0.0625 0.375 1.325
0 0.3125 1.325
0.125 0.3125 1.2625
0.1875 0.375 1.2625
0.1875 0.3125 1.2625
0.25 0.375 1.2625
0.1875 0.3125 1.325
0.25 0.3125 1.325
0.1875 0.375 1.325
0.25 0.3125 1.2625
0.3125 0.375 1.2625
0.3125 0.3125 1.2625
0.375 0.375 1.2625
0.3125 0.3125 1.325
0.375 0.3125 1.325
0.3125 0.375 1.325
0.375 0.3125 1.2625
0.4375 0.375 1.2625
0.4375 0.3125 1.2625
0.5 0.375 1.2625
0.4375 0.3125 1.325
0.5 0.3125 1.325
0.4375 0.375 1.325
0.5 0.3125 1.2625
0.5625 0.375 1.2625
0.5625 0.3125 1.2625
0.625 0.375 1.2625
0.5625 0.3125 1.325
0.625 0.3125 1.325
0.5625 0.375 1.325
0.625 0.3125 1.2625
0.6875 0.375 1.2625
0.6875 0.3125 1.2625
0.75 0.375 1.2625
0.6875 0.3125 1.325
0.75 0.3125 1.325
0.6875 0.375 1.325
0.75 0.3125 1.2625
0.8125 0.375 1.2625
0.8125 0.3125 1.2625
0.875 0.375 1.2625
0.8125 0.3125 1.325
0.875 0.3125 1.325
0.8125 0.375 1.325
0.875 0.3125 1.2625
0.9375 0.375 1.2625
0.9375 0.3125 1.2625
1 0.375 1.2625
0.9375 0.3125 1.325
1 0.3125 1.325
0.9375 0.375 1.325
1 0.3125 1.2625
1.0625 0.375 1.2625
1.0625 0.3125 1.2625
1.125 0.375 1.2625
1.0625 0.3125 1.325
1.125 0.3125 1.325
1.0625 0.375 1.325
1.125 0.3125 1.2625
1.1875 0.375 1.2625
1.1875 0.3125 1.2625
1.25 0.375 1.2625
1.1875 0.3125 1.325
1.25 0.3125 1.325
1.1875 0.375 1.325
1.25 0.3125 1.2625
1.3125 0.375 1.2625
1.3125 0.3125 1.2625
1.375 0.375 1.2625
1.3125 0.3125 1.325
1.375 0.3125 1.325
1.3125 0.375 1.325
1.375 0.3125 1.2625
1.4375 0.375 1.2625
1.4375 0.3125 1.2625
1.5 0.375 1.2625
1.4375 0.3125 1.325
1.5 0.3125 1.325
1.4375 0.375 1.325
1.5 0.3125 1.2625
1.5625 0.375 1.2625
1.5625 0.3125 1.2625
1.625 0.375 1.2625
1.5625 0.3125 1.325
1.625 0.3125 1.325
1.5625 0.375 1.325
1.625 0.3125 1.2625
1.6875 0.375 1.2625
1.6875 0.3125 1.2625
1.75 0.375 1.2625
1.6875 0.3125 1.325
1.75 0.3125 1.325
1.6875 0.375 1.325
1.75 0.3125 1.2625
1.8125 0.375 1.2625
1.8125 0.3125 1.2625
1.875 0.375 1.2625
1.8125 0.3125 1.325
1.875 0.3125 1.325
1.8125 0.375 1.325
1.875 0.3125 1.2625
1.9375 0.375 1.2625
1.9375 0.3125 1.2625
2 0.375 1.2625
1.9375 0.3125 1.325
2 0.3125 1.325
1.9375 0.375 1.325
2 0.3125 1.2625
2.0625 0.375 1.2625
2.0625 0.3125 1.2625
2.125 0.375 1.2625
2.0625 0.3125 1.325
2.125 0.3125 1.325
2.0625 0.375 1.325
2.125 0.3125 1.2625
2.1875 0.375 1.2625
2.1875 0.3125 1.2625
2.25 0.375 1.2625
2.1875 0.3125 1.325
2.25 0.3125 1.325
2.1875 0.375 1.325
2.25 0.3125 1.2625
2.3125 0.375 1.2625
2.3125 0.3125 1.2625
2.375 0.375 1.2625
2.3125 0.3125 1.325
2.375 0.3125 1.325
2.3125 0.375 1.325
2.375 0.3125 1.2625
2.4375 0.375 1.2625
2.4375 0.3125 1.2625
2.5 0.375 1.2625
2.4375 0.3125 1.325
2.5 0.3125 1.325
2.4375 0.375 1.325
2.5 0.3125 1.2625
2.5625 0.375 1.2625
2.5625 0.3125 1.2625
2.625 0.375 1.2625
2.5625 0.3125 1.325
2.625 0.3125 1.325
2.5625 0.375 1.325
2.625 0.3125 1.2625
2.6875 0.375 1.2625
2.6875 0.3125 1.2625
2.75 0.375 1.2625
2.6875 0.3125 1.325
2.75 0.3125 1.325
2.6875 0.375 1.325
2.75 0.3125 1.2625
2.8125 0.375 1.2625
2.8125 0.3125 1.2625
2.875 0.375 1.2625
2.8125 0.3125 1.325
2.875 0.3125 1.325
2.8125 0.375 1.325
2.875 0.3125 1.2625
2.9375 0.375 1.2625
2.9375 0.3125 1.2625
3 0.375 1.2625
2.9375 0.3125 1.325
3 0.3125 1.325
2.9375 0.375 1.325
3 0.3125 1.2625
3.0625 0.375 1.2625
3.0625 0.3125 1.2625
3.125 0.375 1.2625
3.0625 0.3125 1.325
3.125 0.3125 1.325
3.0625 0.375 1.325
3.125 0.3125 1.2625
3.1875 0.375 1.2625
3.1875 0.3125 1.2625
3.25 0.375 1.2625
3.1875 0.3125 1.325
3.25 0.3125 1.325
3.1875 0.375 1.325
3.25 0.3125 1.2625
3.3125 0.375 1.2625
3.3125 0.3125 1.2625
3.375 0.375 1.2625
3.3125 0.3125 1.325
3.375 0.3125 1.325
3.3125 0.375 1.325
3.375 0.3125 1.2625
3.4375 0.375 1.2625
3.4375 0.3125 1.2625
3.5 0.375 1.2625
3.4375 0.3125 1.325
3.5 0.3125 1.325
3.4375 0.375 1.325
3.5 0.3125 1.2625
3.5625 0.375 1.2625
3.5625 0.3125 1.2625
3.625 0.375 1.2625
3.5625 0.3125 1.325
3.625 0.3125 1.325
3.5625 0.375 1.325
3.625 0.3125 1.2625
3.6875 0.375 1.2625
3.6875 0.3125 1.2625
3.75 0.375 1.2625
3.6875 0.3125 1.325
3.75 0.3125 1.325
3.6875 0.375 1.325
3.75 0.3125 1.2625
3.8125 0.375 1.2625
3.8125 0.3125 1.2625
3.875 0.375 1.2625
3.8125 0.3125 1.325
3.875 0.3125 1.325
3.8125 0.375 1.325
3.875 0.3125 1.2625
3.9375 0.375 1.2625
3.9375 0.3125 1.2625
4 0.375 1.2625
3.9375 0.3125 1.325
4 0.3125 1.325
3.9375 0.375 1.325
4 0.3125 1.2625
0.0625 0.5 1.2625
0.0625 0.4375 1.2625
0.125 0.5 1.2625
0.0625 0.4375 1.325
0.125 0.4375 1.325
0 0.5 1.2625
0 0.4375 1.2625
0.0625 0.5 1.325
0 0.4375 1.325
0.125 0.4375 1.2625
0.1875 0.5 1.2625
0.1875 0.4375 1.2625
0.25 0.5 1.2625
0.1875 0.4375 1.325
0.25 0.4375 1.325
0.1875 0.5 1.325
0.25 0.4375 1.2625
0.3125 0.5 1.2625
0.3125 0.4375 1.2625
0.375 0.5 1.2625
0.3125 0.4375 1.325
0.375 0.4375 1.325
0.3125 0.5 1.325
0.375 0.4375 1.2625
0.4375 0.5 1.2625
0.4375 0.4375 1.2625
0.5 0.5 1.2625
0.4375 0.4375 1.325
0.5 0.4375 1.325
0.4375 0.5 1.325
0.5 0.4375 1.2625
0.5625 0.5 1.2625
0.5625 0.4375 1.2625
0.625 0.5 1.2625
0.5625 0.4375 1.325
0.625 0.4375 1.325
0.5625 0.5 1.325
0.625 0.4375 1.2625
0.6875 0.5 1.2625
0.6875 0.4375 1.2625
0.75 0.5 1.2625
0.6875 0.4375 1.325
0.75 0.4375 1.325
0.6875 0.5 1.325
0.75 0.4375 1.2625
0.8125 0.5 1.2625
0.8125 0.4375 1.2625
0.875 0.5 1.2625
0.8125 0.4375 1.325
0.875 0.4375 1.325
0.8125 0.5 1.325
0.875 0.4375 1.2625
0.9375 0.5 1.2625
0.9375 0.4375 1.2625
1 0.5 1.2625
0.9375 0.4375 1.325
1 0.4375 1.325
0.9375 0.5 1.325
1 0.4375 1.2625
1.0625 0.5 1.2625
1.0625 0.4375 1.2625
1.125 0.5 1.2625
1.0625 0.4375 1.325
1.125 0.4375 1.325
1.0625 0.5 1.325
1.125 0.4375 1.2625
1.1875 0.5 1.2625
1.1875 0.4375 1.2625
1.25 0.5 1.2625
1.1875 0.4375 1.325
1.25 0.4375 1.325
1.1875 0.5 1.325
1.25 0.4375 1.2625
1.3125 0.5 1.2625
1.3125 0.4375 1.2625
1.375 0.5 1.2625
1.3125 0.4375 1.325
1.375 0.4375 1.325
1.3125 0.5 1.325
1.375 0.4375 1.2625
1.4375 0.5 1.2625
1.4375 0.4375 1.2625
1.5 0.5 1.2625
1.4375 0.4375 1.325
1.5 0.4375 1.325
1.4375 0.5 1.325
1.5 0.4375 1.2625
1.5625 0.5 1.2625
1.5625 0.4375 1.2625
1.625 0.5 1.2625
1.5625 0.4375 1.325
1.625 0.4375 1.325
1.5625 0.5 1.325
1.625 0.4375 1.2625
1.6875 0.5 1.2625
1.6875 0.4375 1.2625
1.75 0.5 1.2625
1.6875 0.4375 1.325
1.75 0.4375 1.325
1.6875 0.5 1.325
1.75 0.4375 1.2625
1.8125 0.5 1.2625
1.8125 0.4375 1.2625
1.875 0.5 1.2625
1.8125 0.4375 1.325
1.875 0.4375 1.325
1.8125 0.5 1.325
1.875 0.4375 1.2625
1.9375 0.5 1.2625
1.9375 0.4375 1.2625
2 0.5 1.2625
1.9375 0.4375 1.325
2 0.4375 1.325
1.9375 0.5 1.325
2 0.4375 1.2625
2.0625 0.5 1.2625
2.0625 0.4375 1.2625
2.125 0.5 1.2625
2.0625 0.4375 1.325
2.125 0.4375 1.325
2.0625 0.5 1.325
2.125 0.4375 1.2625
2.1875 0.5 1.2625
2.1875 0.4375 1.2625
2.25 0.5 1.2625
2.1875 0.4375 1.325
2.25 0.4375 1.325
2.1875 0.5 1.325
2.25 0.4375 1.2625
2.3125 0.5 1.2625
2.3125 0.4375 1.2625
2.375 0.5 1.2625
2.3125 0.4375 1.325
2.375 0.4375 1.325
2.3125 0.5 1.325
2.375 0.4375 1.2625
2.4375 0.5 1.2625
2.4375 0.4375 1.2625
2.5 0.5 1.2625
2.4375 0.4375 1.325
2.5 0.4375 1.325
2.4375 0.5 1.325
2.5 0.4375 1.2625
2.5625 0.5 1.2625
2.5625 0.4375 1.2625
2.625 0.5 1.2625
2.5625 0.4375 1.325
2.625 0.4375 1.325
2.5625 0.5 1.325
2.625 0.4375 1.2625
2.6875 0.5 1.2625
2.6875 0.4375 1.2625
2.75 0.5 1.2625
2.6875 0.4375 1.325
2.75 0.4375 1.325
2.6875 0.5 1.325
2.75 0.4375 1.2625
2.8125 0.5 1.2625
2.8125 0.4375 1.2625
2.875 0.5 1.2625
2.8125 0.4375 1.325
2.875 0.4375 1.325
2.8125 0.5 1.325
2.875 0.4375 1.2625
2.9375 0.5 1.2625
2.9375 0.4375 1.2625
3 0.5 1.2625
2.9375 0.4375 1.325
3 0.4375 1.325
2.9375 0.5 1.325
3 0.4375 1.2625
3.0625 0.5 1.2625
3.0625 0.4375 1.2625
3.125 0.5 1.2625
3.0625 0.4375 1.325
3.125 0.4375 1.325
3.0625 0.5 1.325
3.125 0.4375 1.2625
3.1875 0.5 1.2625
3.1875 0.4375 1.2625
3.25 0.5 1.2625
3.1875 0.4375 1.325
3.25 0.4375 1.325
3.1875 0.5 1.325
3.25 0.4375 1.2625
3.3125 0.5 1.2625
3.3125 0.4375 1.2625
3.375 0.5 1.2625
3.3125 0.4375 1.325
3.375 0.4375 1.325
3.3125 0.5 1.325
3.375 0.4375 1.2625
3.4375 0.5 1.2625
3.4375 0.4375 1.2625
3.5 0.5 1.2625
3.4375 0.4375 1.325
3.5 0.4375 1.325
3.4375 0.5 1.325
3.5 0.4375 1.2625
3.5625 0.5 1.2625
3.5625 0.4375 1.2625
3.625 0.5 1.2625
3.5625 0.4375 1.325
3.625 0.4375 1.325
3.5625 0.5 1.325
3.625 0.4375 1.2625
3.6875 0.5 1.2625
3.6875 0.4375 1.2625
3.75 0.5 1.2625
3.6875 0.4375 1.325
3.75 0.4375 1.325
3.6875 0.5 1.325
3.75 0.4375 1.2625
3.8125 0.5 1.2625
3.8125 0.4375 1.2625
3.875 0.5 1.2625
3.8125 0.4375 1.325
3.875 0.4375 1.325
3.8125 0.5 1.325
3.875 0.4375 1.2625
3.9375 0.5 1.2625
3.9375 0.4375 1.2625
4 0.5 1.2625
3.9375 0.4375 1.325
4 0.4375 1.325
3.9375 0.5 1.325
4 0.4375 1.2625
0.0625 0.625 1.2625
0.0625 0.5625 1.2625
0.125 0.625 1.2625
0.0625 0.5625 1.325
0.125 0.5625 1.325
0 0.625 1.2625
0 0.5625 1.2625
0.0625 0.625 1.325
0 0.5625 1.325
0.125 0.5625 1.2625
0.1875 0.625 1.2625
0.1875 0.5625 1.2625
0.25 0.625 1.2625
0.1875 0.5625 1.325
0.25 0.5625 1.325
0.1875 0.625 1.325
0.25 0.5625 1.2625
0.3125 0.625 1.2625
0.3125 0.5625 1.2625
0.375 0.625 1.2625
0.3125 0.5625 1.325
0.375 0.5625 1.325
0.3125 0.625 1.325
0.375 0.5625 1.2625
0.4375 0.625 1.2625
0.4375 0.5625 1.2625
0.5 0.625 1.2625
0.4375 0.5625 1.325
0.5 0.5625 1.325
0.4375 0.625 1.325
0.5 0.5625 1.2625
0.5625 0.625 1.2625
0.5625 0.5625 1.2625
0.625 0.625 1.2625
0.5625 0.5625 1.325
0.625 0.5625 1.325
0.5625 0.625 1.325
0.625 0.5625 1.2625
0.6875 0.625 1.2625
0.6875 0.5625 1.2625
0.75 0.625 1.2625
0.6875 0.5625 1.325
0.75 0.5625 1.325
0.6875 0.625 1.325
0.75 0.5625 1.2625
0.8125 0.625 1.2625
0.8125 0.5625 1.2625
0.875 0.625 1.2625
0.8125 0.5625 1.325
0.875 0.5625 1.325
0.8125 0.625 1.325
0.875 0.5625 1.2625
0.9375 0.625 1.2625
0.9375 0.5625 1.2625
1 0.625 1.2625
0.9375 0.5625 1.325
1 0.5625 1.325
0.9375 0.625 1.325
1 0.5625 1.2625
1.0625 0.625 1.2625
1.0625 0.5625 1.2625
1.125 0.625 1.2625
1.0625 0.5625 1.325
1.125 0.5625 1.325
1.0625 0.625 1.325
1.125 0.5625 1.2625
1.1875 0.625 1.2625
1.1875 0.5625 1.2625
1.25 0.625 1.2625
1.1875 0.5625 1.325
1.25 0.5625 1.325
1.1875 0.625 1.325
1.25 0.5625 1.2625
1.3125 0.625 1.2625
1.3125 0.5625 1.2625
1.375 0.625 1.2625
1.3125 0.5625 1.325
1.375 0.5625 1.325
1.3125 0.625 1.325
1.375 0.5625 1.2625
1.4375 0.625 1.2625
1.4375 0.5625 1.2625
1.5 0.625 1.2625
1.4375 0.5625 1.325
1.5 0.5625 1.325
1.4375 0.625 1.325
1.5 0.5625 1.2625
1.5625 0.625 1.2625
1.5625 0.5625 1.2625
1.625 0.625 1.2625
1.5625 0.5625 1.325
1.625 0.5625 1.325
1.5625 0.625 1.325
1.625 0.5625 1.2625
1.6875 0.625 1.2625
1.6875 0.5625 1.2625
1.75 0.625 1.2625
1.6875 0.5625 1.325
1.75 0.5625 1.325
1.6875 0.625 1.325
1.75 0.5625 1.2625
1.8125 0.625 1.2625
1.8125 0.5625 1.2625
1.875 0.625 1.2625
1.8125 0.5625 1.325
1.875 0.5625 1.325
1.8125 0.625 1.325
1.875 0.5625 1.2625
1.9375 0.625 1.2625
1.9375 0.5625 1.2625
2 0.625 1.2625
1.9375 0.5625 1.325
2 0.5625 1.325
1.9375 0.625 1.325
2 0.5625 1.2625
2.0625 0.625 1.2625
2.0625 0.5625 1.2625
2.125 0.625 1.2625
2.0625 0.5625 1.325
2.125 0.5625 1.325
2.0625 0.625 1.325
2.125 0.5625 1.2625
2.1875 0.625 1.2625
2.1875 0.5625 1.2625
2.25 0.625 1.2625
2.1875 0.5625 1.325
2.25 0.5625 1.325
2.1875 0.625 1.325
2.25 0.5625 1.2625
2.3125 0.625 1.2625
2.3125 0.5625 1.2625
2.375 0.625 1.2625
2.3125 0.5625 1.325
2.375 0.5625 1.325
2.3125 0.625 1.325
2.375 0.5625 1.2625
2.4375 0.625 1.2625
2.4375 0.5625 1.2625
2.5 0.625 1.2625
2.4375 0.5625 1.325
2.5 0.5625 1.325
2.4375 0.625 1.325
2.5 0.5625 1.2625
2.5625 0.625 1.2625
2.5625 0.5625 1.2625
2.625 0.625 1.2625
2.5625 0.5625 1.325
2.625 0.5625 1.325
2.5625 0.625 1.325
2.625 0.5625 1.2625
2.6875 0.625 1.2625
2.6875 0.5625 1.2625
2.75 0.625 1.2625
2.6875 0.5625 1.325
2.75 0.5625 1.325
2.6875 0.625 1.325
2.75 0.5625 1.2625
2.8125 0.625 1.2625
2.8125 0.5625 1.2625
2.875 0.625 1.2625
2.8125 0.5625 1.325
2.875 0.5625 1.325
2.8125 0.625 1.325
2.875 0.5625 1.2625
2.9375 0.625 1.2625
2.9375 0.5625 1.2625
3 0.625 1.2625
2.9375 0.5625 1.325
3 0.5625 1.325
2.9375 0.625 1.325
3 0.5625 1.2625
3.0625 0.625 1.2625
3.0625 0.5625 1.2625
3.125 0.625 1.2625
3.0625 0.5625 1.325
3.125 0.5625 1.325
3.0625 0.625 1.325
3.125 0.5625 1.2625
3.1875 0.625 1.2625
3.1875 0.5625 1.2625
3.25 0.625 1.2625
3.1875 0.5625 1.325
3.25 0.5625 1.325
3.1875 0.625 1.325
3.25 0.5625 1.2625
3.3125 0.625 1.2625
3.3125 0.5625 1.2625
3.375 0.625 1.2625
3.3125 0.5625 1.325
3.375 0.5625 1.325
3.3125 0.625 1.325
3.375 0.5625 1.2625
3.4375 0.625 1.2625
3.4375 0.5625 1.2625
3.5 0.625 1.2625
3.4375 0.5625 1.325
3.5 0.5625 1.325
3.4375 0.625 1.325
3.5 0.5625 1.2625
3.5625 0.625 1.2625
3.5625 0.5625 1.2625
3.625 0.625 1.2625
3.5625 0.5625 1.325
3.625 0.5625 1.325
3.5625 0.625 1.325
3.625 0.5625 1.2625
3.6875 0.625 1.2625
3.6875 0.5625 1.2625
3.75 0.625 1.2625
3.6875 0.5625 1.325
3.75 0.5625 1.325
3.6875 0.625 1.325
3.75 0.5625 1.2625
3.8125 0.625 1.2625
3.8125 0.5625 1.2625
3.875 0.625 1.2625
3.8125 0.5625 1.325
3.875 0.5625 1.325
3.8125 0.625 1.325
3.875 0.5625 1.2625
3.9375 0.625 1.2625
3.9375 0.5625 1.2625
4 0.625 1.2625
3.9375 0.5625 1.325
4 0.5625 1.325
3.9375 0.625 1.325
4 0.5625 1.2625
0.0625 0.75 1.2625
0.0625 0.6875 1.2625
0.125 0.75 1.2625
0.0625 0.6875 1.325
0.125 0.6875 1.325
0 0.75 1.2625
0 0.6875 1.2625
0.0625 0.75 1.325
0 0.6875 1.325
0.125 0.6875 1.2625
0.1875 0.75 1.2625
0.1875 0.6875 1.2625
0.25 0.75 1.2625
0.1875 0.6875 1.325
0.25 0.6875 1.325
0.1875 0.75 1.325
0.25 0.6875 1.2625
0.3125 0.75 1.2625
0.3125 0.6875 1.2625
0.375 0.75 1.2625
0.3125 0.6875 1.325
0.375 0.6875 1.325
0.3125 0.75 1.325
0.375 0.6875 1.2625
0.4375 0.75 1.2625
0.4375 0.6875 1.2625
0.5 0.75 1.2625
0.4375 0.6875 1.325
0.5 0.6875 1.325
0.4375 0.75 1.325
0.5 0.6875 1.2625
0.5625 0.75 1.2625
0.5625 0.6875 1.2625
0.625 0.75 1.2625
0.5625 0.6875 1.325
0.625 0.6875 1.325
0.5625 0.75 1.325
0.625 0.6875 1.2625
0.6875 0.75 1.2625
0.6875 0.6875 1.2625
0.75 0.75 1.2625
0.6875 0.6875 1.325
0.75 0.6875 1.325
0.6875 0.75 1.325
0.75 0.6875 1.2625
0.8125 0.75 1.2625
0.8125 0.6875 1.2625
0.875 0.75 1.2625
0.8125 0.6875 1.325
0.875 0.6875 1.325
0.8125 0.75 1.325
0.875 0.6875 1.2625
0.9375 0.75 1.2625
0.9375 0.6875 1.2625
1 0.75 1.2625
0.9375 0.6875 1.325
1 0.6875 1.325
0.9375 0.75 1.325
1 0.6875 1.2625
1.0625 0.75 1.2625
1.0625 0.6875 1.2625
1.125 0.75 1.2625
1.0625 0.6875 1.325
1.125 0.6875 1.325
1.0625 0.75 1.325
1.125 0.6875 1.2625
1.1875 0.75 1.2625
1.1875 0.6875 1.2625
1.25 0.75 1.2625
1.1875 0.6875 1.325
1.25 0.6875 1.325
1.1875 0.75 1.325
1.25 0.6875 1.2625
1.3125 0.75 1.2625
1.3125 0.6875 1.2625
1.375 0.75 1.2625
1.3125 0.6875 1.325
1.375 0.6875 1.325
1.3125 0.75 1.325
1.375 0.6875 1.2625
1.4375 0.75 1.2625
1.4375 0.6875 1.2625
1.5 0.75 1.2625
1.4375 0.6875 1.325
1.5 0.6875 1.325
1.4375 0.75 1.325
1.5 0.6875 1.2625
1.5625 0.75 1.2625
1.5625 0.6875 1.2625
1.625 0.75 1.2625
1.5625 0.6875 1.325
1.625 0.6875 1.325
1.5625 0.75 1.325
1.625 0.6875 1.2625
1.6875 0.75 1.2625
1.6875 0.6875 1.2625
1.75 0.75 1.2625
1.6875 0.6875 1.325
1.75 0.6875 1.325
1.6875 0.75 1.325
1.75 0.6875 1.2625
1.8125 0.75 1.2625
1.8125 0.6875 1.2625
1.875 0.75 1.2625
1.8125 0.6875 1.325
1.875 0.6875 1.325
1.8125 0.75 1.325
1.875 0.6875 1.2625
1.9375 0.75 1.2625
1.9375 0.6875 1.2625
2 0.75 1.2625
1.9375 0.6875 1.325
2 0.6875 1.325
1.9375 0.75 1.325
2 0.6875 1.2625
2.0625 0.75 1.2625
2.0625 0.6875 1.2625
2.125 0.75 1.2625
2.0625 0.6875 1.325
2.125 0.6875 1.325
2.0625 0.75 1.325
2.125 0.6875 1.2625
2.1875 0.75 1.2625
2.1875 0.6875 1.2625
2.25 0.75 1.2625
2.1875 0.6875 1.325
2.25 0.6875 1.325
2.1875 0.75 1.325
2.25 0.6875 1.2625
2.3125 0.75 1.2625
2.3125 0.6875 1.2625
2.375 0.75 1.2625
2.3125 0.6875 1.325
2.375 0.6875 1.325
2.3125 0.75 1.325
2.375 0.6875 1.2625
2.4375 0.75 1.2625
2.4375 0.6875 1.2625
2.5 0.75 1.2625
2.4375 0.6875 1.325
2.5 0.6875 1.325
2.4375 0.75 1.325
2.5 0.6875 1.2625
2.5625 0.75 1.2625
2.5625 0.6875 1.2625
2.625 0.75 1.2625
2.5625 0.6875 1.325
2.625 0.6875 1.325
2.5625 0.75 1.325
2.625 0.6875 1.2625
2.6875 0.75 1.2625
2.6875 0.6875 1.2625
2.75 0.75 1.2625
2.6875 0.6875 1.325
2.75 0.6875 1.325
2.6875 0.75 1.325
2.75 0.6875 1.2625
2.8125 0.75 1.2625
2.8125 0.6875 1.2625
2.875 0.75 1.2625
2.8125 0.6875 1.325
2.875 0.6875 1.325
2.8125 0.75 1.325
2.875 0.6875 1.2625
2.9375 0.75 1.2625
2.9375 0.6875 1.2625
3 0.75 1.2625
2.9375 0.6875 1.325
3 0.6875 1.325
2.9375 0.75 1.325
3 0.6875 1.2625
3.0625 0.75 1.2625
3.0625 0.6875 1.2625
3.125 0.75 1.2625
3.0625 0.6875 1.325
3.125 0.6875 1.325
3.0625 0.75 1.325
3.125 0.6875 1.2625
3.1875 0.75 1.2625
3.1875 0.6875 1.2625
3.25 0.75 1.2625
3.1875 0.6875 1.325
3.25 0.6875 1.325
3.1875 0.75 1.325
3.25 0.6875 1.2625
3.3125 0.75 1.2625
3.3125 0.6875 1.2625
3.375 0.75 1.2625
3.3125 0.6875 1.325
3.375 0.6875 1.325
3.3125 0.75 1.325
3.375 0.6875 1.2625
3.4375 0.75 1.2625
3.4375 0.6875 1.2625
3.5 0.75 1.2625
3.4375 0.6875 1.325
3.5 0.6875 1.325
3.4375 0.75 1.325
3.5 0.6875 1.2625
3.5625 0.75 1.2625
3.5625 0.6875 1.2625
3.625 0.75 1.2625
3.5625 0.6875 1.325
3.625 0.6875 1.325
3.5625 0.75 1.325
3.625 0.6875 1.2625
3.6875 0.75 1.2625
3.6875 0.6875 1.2625
3.75 0.75 1.2625
3.6875 0.6875 1.325
3.75 0.6875 1.325
3.6875 0.75 1.325
3.75 0.6875 1.2625
3.8125 0.75 1.2625
3.8125 0.6875 1.2625
3.875 0.75 1.2625
3.8125 0.6875 1.325
3.875 0.6875 1.325
3.8125 0.75 1.325
3.875 0.6875 1.2625
3.9375 0.75 1.2625
3.9375 0.6875 1.2625
4 0.75 1.2625
3.9375 0.6875 1.325
4 0.6875 1.325
3.9375 0.75 1.325
4 0.6875 1.2625
0.0625 0.875 1.2625
0.0625 0.8125 1.2625
0.125 0.875 1.2625
0.0625 0.8125 1.325
0.125 0.8125 1.325
0 0.875 1.2625
0 0.8125 1.2625
0.0625 0.875 1.325
0 0.8125 1.325
0.125 0.8125 1.2625
0.1875 0.875 1.2625
0.1875 0.8125 1.2625
0.25 0.875 1.2625
0.1875 0.8125 1.325
0.25 0.8125 1.325
0.1875 0.875 1.325
0.25 0.8125 1.2625
0.3125 0.875 1.2625
0.3125 0.8125 1.2625
0.375 0.875 1.2625
0.3125 0.8125 1.325
0.375 0.8125 1.325
0.3125 0.875 1.325
0.375 0.8125 1.2625
0.4375 0.875 1.2625
0.4375 0.8125 1.2625
0.5 0.875 1.2625
0.4375 0.8125 1.325
0.5 0.8125 1.325
0.4375 0.875 1.325
0.5 0.8125 1.2625
0.5625 0.875 1.2625
0.5625 0.8125 1.2625
0.625 0.875 1.2625
0.5625 0.8125 1.325
0.625 0.8125 1.325
0.5625 0.875 1.325
0.625 0.8125 1.2625
0.6875 0.875 1.2625
0.6875 0.8125 1.2625
0.75 0.875 1.2625
0.6875 0.8125 1.325
0.75 0.8125 1.325
0.6875 0.875 1.325
0.75 0.8125 1.2625
0.8125 0.875 1.2625
0.8125 0.8125 1.2625
0.875 0.875 1.2625
0.8125 0.8125 1.325
0.875 0.8125 1.325
0.8125 0.875 1.325
0.875 0.8125 1.2625
0.9375 0.875 1.2625
0.9375 0.8125 1.2625
1 0.875 1.2625
0.9375 0.8125 1.325
1 0.8125 1.325
0.9375 0.875 1.325
1 0.8125 1.2625
1.0625 0.875 1.2625
1.0625 0.8125 1.2625
1.125 0.875 1.2625
1.0625 0.8125 1.325
1.125 0.8125 1.325
1.0625 0.875 1.325
1.125 0.8125 1.2625
1.1875 0.875 1.2625
1.1875 0.8125 1.2625
1.25 0.875 1.2625
1.1875 0.8125 1.325
1.25 0.8125 1.325
1.1875 0.875 1.325
1.25 0.8125 1.2625
1.3125 0.875 1.2625
1.3125 0.8125 1.2625
1.375 0.875 1.2625
1.3125 0.8125 1.325
1.375 0.8125 1.325
1.3125 0.875 1.325
1.375 0.8125 1.2625
1.4375 0.875 1.2625
1.4375 0.8125 1.2625
1.5 0.875 1.2625
1.4375 0.8125 1.325
1.5 0.8125 1.325
1.4375 0.875 1.325
1.5 0.8125 1.2625
1.5625 0.875 1.2625
1.5625 0.8125 1.2625
1.625 0.875 1.2625
1.5625 0.8125 1.325
1.625 0.8125 1.325
1.5625 0.875 1.325
1.625 0.8125 1.2625
1.6875 0.875 1.2625
1.6875 0.8125 1.2625
1.75 0.875 1.2625
1.6875 0.8125 1.325
1.75 0.8125 1.325
1.6875 0.875 1.325
1.75 0.8125 1.2625
1.8125 0.875 1.2625
1.8125 0.8125 1.2625
1.875 0.875 1.2625
1.8125 0.8125 1.325
1.875 0.8125 1.325
1.8125 0.875 1.325
1.875 0.8125 1.2625
1.9375 0.875 1.2625
1.9375 0.8125 1.2625
2 0.875 1.2625
1.9375 0.8125 1.325
2 0.8125 1.325
1.9375 0.875 1.325
2 0.8125 1.2625
2.0625 0.875 1.2625
2.0625 0.8125 1.2625
2.125 0.875 1.2625
2.0625 0.8125 1.325
2.125 0.8125 1.325
2.0625 0.875 1.325
2.125 0.8125 1.2625
2.1875 0.875 1.2625
2.1875 0.8125 1.2625
2.25 0.875 1.2625
2.1875 0.8125 1.325
2.25 0.8125 1.325
2.1875 0.875 1.325
2.25 0.8125 1.2625
2.3125 0.875 1.2625
2.3125 0.8125 1.2625
2.375 0.875 1.2625
2.3125 0.8125 1.325
2.375 0.8125 1.325
2.3125 0.875 1.325
2.375 0.8125 1.2625
2.4375 0.875 1.2625
2.4375 0.8125 1.2625
2.5 0.875 1.2625
2.4375 0.8125 1.325
2.5 0.8125 1.325
2.4375 0.875 1.325
2.5 0.8125 1.2625
2.5625 0.875 1.2625
2.5625 0.8125 1.2625
2.625 0.875 1.2625
2.5625 0.8125 1.325
2.625 0.8125 1.325
2.5625 0.875 1.325
2.625 0.8125 1.2625
2.6875 0.875 1.2625
2.6875 0.8125 1.2625
2.75 0.875 1.2625
2.6875 0.8125 1.325
2.75 0.8125 1.325
2.6875 0.875 1.325
2.75 0.8125 1.2625
2.8125 0.875 1.2625
2.8125 0.8125 1.2625
2.875 0.875 1.2625
2.8125 0.8125 1.325
2.875 0.8125 1.325
2.8125 0.875 1.325
2.875 0.8125 1.2625
2.9375 0.875 1.2625
2.9375 0.8125 1.2625
3 0.875 1.2625
2.9375 0.8125 1.325
3 0.8125 1.325
2.9375 0.875 1.325
3 0.8125 1.2625
3.0625 0.875 1.2625
3.0625 0.8125 1.2625
3.125 0.875 1.2625
3.0625 0.8125 1.325
3.125 0.8125 1.325
3.0625 0.875 1.325
3.125 0.8125 1.2625
3.1875 0.875 1.2625
3.1875 0.8125 1.2625
3.25 0.875 1.2625
3.1875 0.8125 1.325
3.25 0.8125 1.325
3.1875 0.875 1.325
3.25 0.8125 1.2625
3.3125 0.875 1.2625
3.3125 0.8125 1.2625
3.375 0.875 1.2625
3.3125 0.8125 1.325
3.375 0.8125 1.325
3.3125 0.875 1.325
3.375 0.8125 1.2625
3.4375 0.875 1.2625
3.4375 0.8125 1.2625
3.5 0.875 1.2625
3.4375 0.8125 1.325
3.5 0.8125 1.325
3.4375 0.875 1.325
3.5 0.8125 1.2625
3.5625 0.875 1.2625
3.5625 0.8125 1.2625
3.625 0.875 1.2625
3.5625 0.8125 1.325
3.625 0.8125 1.325
3.5625 0.875 1.325
3.625 0.8125 1.2625
3.6875 0.875 1.2625
3.6875 0.8125 1.2625
3.75 0.875 1.2625
3.6875 0.8125 1.325
3.75 0.8125 1.325
3.6875 0.875 1.325
3.75 0.8125 1.2625
3.8125 0.875 1.2625
3.8125 0.8125 1.2625
3.875 0.875 1.2625
3.8125 0.8125 1.325
3.875 0.8125 1.325
3.8125 0.875 1.325
3.875 0.8125 1.2625
3.9375 0.875 1.2625
3.9375 0.8125 1.2625
4 0.875 1.2625
3.9375 0.8125 1.325
4 0.8125 1.325
3.9375 0.875 1.325
4 0.8125 1.2625
0.0625 1 1.2625
0.0625 0.9375 1.2625
0.125 1 1.2625
0.0625 0.9375 1.325
0.125 0.9375 1.325
0 1 1.2625
0 0.9375 1.2625
0.0625 1 1.325
0 0.9375 1.325
0.125 0.9375 1.2625
0.1875 1 1.2625
0.1875 0.9375 1.2625
0.25 1 1.2625
0.1875 0.9375 1.325
0.25 0.9375 1.325
0.1875 1 1.325
0.25 0.9375 1.2625
0.3125 1 1.2625
0.3125 0.9375 1.2625
0.375 1 1.2625
0.3125 0.9375 1.325
0.375 0.9375 1.325
0.3125 1 1.325
0.375 0.9375 1.2625
0.4375 1 1.2625
0.4375 0.9375 1.2625
0.5 1 1.2625
0.4375 0.9375 1.325
0.5 0.9375 1.325
0.4375 1 1.325
0.5 0.9375 1.2625
0.5625 1 1.2625
0.5625 0.9375 1.2625
0.625 1 1.2625
0.5625 0.9375 1.325
0.625 0.9375 1.325
0.5625 1 1.325
0.625 0.9375 1.2625
0.6875 1 1.2625
0.6875 0.9375 1.2625
0.75 1 1.2625
0.6875 0.9375 1.325
0.75 0.9375 1.325
0.6875 1 1.325
0.75 0.9375 1.2625
0.8125 1 1.2625
0.8125 0.9375 1.2625
0.875 1 1.2625
0.8125 0.9375 1.325
0.875 0.9375 1.325
0.8125 1 1.325
0.875 0.9375 1.2625
0.9375 1 1.2625
0.9375 0.9375 1.2625
1 1 1.2625
0.9375 0.9375 1.325
1 0.9375 1.325
0.9375 1 1.325
1 0.9375 1.2625
1.0625 1 1.2625
1.0625 0.9375 1.2625
1.125 1 1.2625
1.0625 0.9375 1.325
1.125 0.9375 1.325
1.0625 1 1.325
1.125 0.9375 1.2625
1.1875 1 1.2625
1.1875 0.9375 1.2625
1.25 1 1.2625
1.1875 0.9375 1.325
1.25 0.9375 1.325
1.1875 1 1.325
1.25 0.9375 1.2625
1.3125 1 1.2625
1.3125 0.9375 1.2625
1.375 1 1.2625
1.3125 0.9375 1.325
1.375 0.9375 1.325
1.3125 1 1.325
1.375 0.9375 1.2625
1.4375 1 1.2625
1.4375 0.9375 1.2625
1.5 1 1.2625
1.4375 0.9375 1.325
1.5 0.9375 1.325
1.4375 1 1.325
1.5 0.9375 1.2625
1.5625 1 1.2625
1.5625 0.9375 1.2625
1.625 1 1.2625
1.5625 0.9375 1.325
1.625 0.9375 1.325
1.5625 1 1.325
1.625 0.9375 1.2625
1.6875 1 1.2625
1.6875 0.9375 1.2625
1.75 1 1.2625
1.6875 0.9375 1.325
1.75 0.9375 1.325
1.6875 1 1.325
1.75 0.9375 1.2625
1.8125 1 1.2625
1.8125 0.9375 1.2625
1.875 1 1.2625
1.8125 0.9375 1.325
1.875 0.9375 1.325
1.8125 1 1.325
1.875 0.9375 1.2625
1.9375 1 1.2625
1.9375 0.9375 1.2625
2 1 1.2625
1.9375 0.9375 1.325
2 0.9375 1.325
1.9375 1 1.325
2 0.9375 1.2625
2.0625 1 1.2625
2.0625 0.9375 1.2625
2.125 1 1.2625
2.0625 0.9375 1.325
2.125 0.9375 1.325
2.0625 1 1.325
2.125 0.9375 1.2625
2.1875 1 1.2625
2.1875 0.9375 1.2625
2.25 1 1.2625
2.1875 0.9375 1.325
2.25 0.9375 1.325
2.1875 1 1.325
2.25 0.9375 1.2625
2.3125 1 1.2625
2.3125 0.9375 1.2625
2.375 1 1.2625
2.3125 0.9375 1.325
2.375 0.9375 1.325
2.3125 1 1.325
2.375 0.9375 1.2625
2.4375 1 1.2625
2.4375 0.9375 1.2625
2.5 1 1.2625
2.4375 0.9375 1.325
2.5 0.9375 1.325
2.4375 1 1.325
2.5 0.9375 1.2625
2.5625 1 1.2625
2.5625 0.9375 1.2625
2.625 1 1.2625
2.5625 0.9375 1.325
2.625 0.9375 1.325
2.5625 1 1.325
2.625 0.9375 1.2625
2.6875 1 1.2625
2.6875 0.9375 1.2625
2.75 1 1.2625
2.6875 0.9375 1.325
2.75 0.9375 1.325
2.6875 1 1.325
2.75 0.9375 1.2625
2.8125 1 1.2625
2.8125 0.9375 1.2625
2.875 1 1.2625
2.8125 0.9375 1.325
2.875 0.9375 1.325
2.8125 1 1.325
2.875 0.9375 1.2625
2.9375 1 1.2625
2.9375 0.9375 1.2625
3 1 1.2625
2.9375 0.9375 1.325
3 0.9375 1.325
2.9375 1 1.325
3 0.9375 1.2625
3.0625 1 1.2625
3.0625 0.9375 1.2625
3.125 1 1.2625
3.0625 0.9375 1.325
3.125 0.9375 1.325
3.0625 1 1.325
3.125 0.9375 1.2625
3.1875 1 1.2625
3.1875 0.9375 1.2625
3.25 1 1.2625
3.1875 0.9375 1.325
3.25 0.9375 1.325
3.1875 1 1.325
3.25 0.9375 1.2625
3.3125 1 1.2625
3.3125 0.9375 1.2625
3.375 1 1.2625
3.3125 0.9375 1.325
3.375 0.9375 1.325
3.3125 1 1.325
3.375 0.9375 1.2625
3.4375 1 1.2625
3.4375 0.9375 1.2625
3.5 1 1.2625
3.4375 0.9375 1.325
3.5 0.9375 1.325
3.4375 1 1.325
3.5 0.9375 1.2625
3.5625 1 1.2625
3.5625 0.9375 1.2625
3.625 1 1.2625
3.5625 0.9375 1.325
3.625 0.9375 1.325
3.5625 1 1.325
3.625 0.9375 1.2625
3.6875 1 1.2625
3.6875 0.9375 1.2625
3.75 1 1.2625
3.6875 0.9375 1.325
3.75 0.9375 1.325
3.6875 1 1.325
3.75 0.9375 1.2625
3.8125 1 1.2625
3.8125 0.9375 1.2625
3.875 1 1.2625
3.8125 0.9375 1.325
3.875 0.9375 1.325
3.8125 1 1.325
3.875 0.9375 1.2625
3.9375 1 1.2625
3.9375 0.9375 1.2625
4 1 1.2625
3.9375 0.9375 1.325
4 0.9375 1.325
3.9375 1 1.325
4 0.9375 1.2625
0.0625 0.125 1.3875
0.0625 0.0625 1.3875
0.125 0.125 1.3875
0.0625 0.0625 1.45
0.125 0.0625 1.45
0.0625 0 1.45
0 0 1.3875
0.0625 0 1.3875
0 0.125 1.3875
0 0.0625 1.3875
0.0625 0.125 1.45
0 0.0625 1.45
0.125 0 1.3875
0.125 0.0625 1.3875
0.1875 0.125 1.3875
0.1875 0.0625 1.3875
0.25 0.125 1.3875
0.1875 0.0625 1.45
0.25 0.0625 1.45
0.1875 0 1.45
0.1875 0 1.3875
0.1875 0.125 1.45
0.25 0 1.3875
0.25 0.0625 1.3875
0.3125 0.125 1.3875
0.3125 0.0625 1.3875
0.375 0.125 1.3875
0.3125 0.0625 1.45
0.375 0.0625 1.45
0.3125 0 1.45
0.3125 0 1.3875
0.3125 0.125 1.45
0.375 0 1.3875
0.375 0.0625 1.3875
0.4375 0.125 1.3875
0.4375 0.0625 1.3875
0.5 0.125 1.3875
0.4375 0.0625 1.45
0.5 0.0625 1.45
0.4375 0 1.45
0.4375 0 1.3875
0.4375 0.125 1.45
0.5 0 1.3875
0.5 0.0625 1.3875
0.5625 0.125 1.3875
0.5625 0.0625 1.3875
0.625 0.125 1.3875
0.5625 0.0625 1.45
0.625 0.0625 1.45
0.5625 0 1.45
0.5625 0 1.3875
0.5625 0.125 1.45
0.625 0 1.3875
0.625 0.0625 1.3875
0.6875 0.125 1.3875
0.6875 0.0625 1.3875
0.75 0.125 1.3875
0.6875 0.0625 1.45
0.75 0.0625 1.45
0.6875 0 1.45
0.6875 0 1.3875
0.6875 0.125 1.45
0.75 0 1.3875
0.75 0.0625 1.3875
0.8125 0.125 1.3875
0.8125 0.0625 1.3875
0.875 0.125 1.3875
0.8125 0.0625 1.45
0.875 0.0625 1.45
0.8125 0 1.45
0.8125 0 1.3875
0.8125 0.125 1.45
0.875 0 1.3875
0.875 0.0625 1.3875
0.9375 0.125 1.3875
0.9375 0.0625 1.3875
1 0.125 1.3875
0.9375 0.0625 1.45
1 0.0625 1.45
0.9375 0 1.45
0.9375 0 1.3875
0.9375 0.125 1.45
1 0 1.3875
1 0.0625 1.3875
1.0625 0.125 1.3875
1.0625 0.0625 1.3875
1.125 0.125 1.3875
1.0625 0.0625 1.45
1.125 0.0625 1.45
1.0625 0 1.45
1.0625 0 1.3875
1.0625 0.125 1.45
1.125 0 1.3875
1.125 0.0625 1.3875
1.1875 0.125 1.3875
1.1875 0.0625 1.3875
1.25 0.125 1.3875
1.1875 0.0625 1.45
1.25 0.0625 1.45
1.1875 0 1.45
1.1875 0 1.3875
1.1875 0.125 1.45
1.25 0 1.3875
1.25 0.0625 1.3875
1.3125 0.125 1.3875
1.3125 0.0625 1.3875
1.375 0.125 1.3875
1.3125 0.0625 1.45
1.375 0.0625 1.45
1.3125 0 1.45
1.3125 0 1.3875
1.3125 0.125 1.45
1.375 0 1.3875
1.375 0.0625 1.3875
1.4375 0.125 1.3875
1.4375 0.0625 1.3875
1.5 0.125 1.3875
1.4375 0.0625 1.45
1.5 0.0625 1.45
1.4375 0 1.45
1.4375 0 1.3875
1.4375 0.125 1.45
1.5 0 1.3875
1.5 0.0625 1.3875
1.5625 0.125 1.3875
1.5625 0.0625 1.3875
1.625 0.125 1.3875
1.5625 0.0625 1.45
1.625 0.0625 1.45
1.5625 0 1.45
1.5625 0 1.3875
1.5625 0.125 1.45
1.625 0 1.3875
1.625 0.0625 1.3875
1.6875 0.125 1.3875
1.6875 0.0625 1.3875
1.75 0.125 1.3875
1.6875 0.0625 1.45
1.75 0.0625 1.45
1.6875 0 1.45
1.6875 0 1.3875
1.6875 0.125 1.45
1.75 0 1.3875
1.75 0.0625 1.3875
1.8125 0.125 1.3875
1.8125 0.0625 1.3875
1.875 0.125 1.3875
1.8125 0.0625 1.45
1.875 0.0625 1.45
1.8125 0 1.45
1.8125 0 1.3875
1.8125 0.125 1.45
1.875 0 1.3875
1.875 0.0625 1.3875
1.9375 0.125 1.3875
1.9375 0.0625 1.3875
2 0.125 1.3875
1.9375 0.0625 1.45
2 0.0625 1.45
1.9375 0 1.45
1.9375 0 1.3875
1.9375 0.125 1.45
2 0 1.3875
2 0.0625 1.3875
2.0625 0.125 1.3875
2.0625 0.0625 1.3875
2.125 0.125 1.3875
2.0625 0.0625 1.45
2.125 0.0625 1.45
2.0625 0 1.45
2.0625 0 1.3875
2.0625 0.125 1.45
2.125 0 1.3875
2.125 0.0625 1.3875
2.1875 0.125 1.3875
2.1875 0.0625 1.3875
2.25 0.125 1.3875
2.1875 0.0625 1.45
2.25 0.0625 1.45
2.1875 0 1.45
2.1875 0 1.3875
2.1875 0.125 1.45
2.25 0 1.3875
2.25 0.0625 1.3875
2.3125 0.125 1.3875
2.3125 0.0625 1.3875
2.375 0.125 1.3875
2.3125 0.0625 1.45
2.375 0.0625 1.45
2.3125 0 1.45
2.3125 0 1.3875
2.3125 0.125 1.45
2.375 0 1.3875
2.375 0.0625 1.3875
2.4375 0.125 1.3875
2.4375 0.0625 1.3875
2.5 0.125 1.3875
2.4375 0.0625 1.45
2.5 0.0625 1.45
2.4375 0 1.45
2.4375 0 1.3875
2.4375 0.125 1.45
2.5 0 1.3875
2.5 0.0625 1.3875
2.5625 0.125 1.3875
2.5625 0.0625 1.3875
2.625 0.125 1.3875
2.5625 0.0625 1.45
2.625 0.0625 1.45
2.5625 0 1.45
2.5625 0 1.3875
2.5625 0.125 1.45
2.625 0 1.3875
2.625 0.0625 1.3875
2.6875 0.125 1.3875
2.6875 0.0625 1.3875
2.75 0.125 1.3875
2.6875 0.0625 1.45
2.75 0.0625 1.45
2.6875 0 1.45
2.6875 0 1.3875
2.6875 0.125 1.45
2.75 0 1.3875
2.75 0.0625 1.3875
2.8125 0.125 1.3875
2.8125 0.0625 1.3875
2.875 0.125 1.3875
2.8125 0.0625 1.45
2.875 0.0625 1.45
2.8125 0 1.45
2.8125 0 1.3875
2.8125 0.125 1.45
2.875 0 1.3875
2.875 0.0625 1.3875
2.9375 0.125 1.3875
2.9375 0.0625 1.3875
3 0.125 1.3875
2.9375 0.0625 1.45
3 0.0625 1.45
2.9375 0 1.45
2.9375 0 1.3875
2.9375 0.125 1.45
3 0 1.3875
3 0.0625 1.3875
3.0625 0.125 1.3875
3.0625 0.0625 1.3875
3.125 0.125 1.3875
3.0625 0.0625 1.45
3.125 0.0625 1.45
3.0625 0 1.45
3.0625 0 1.3875
3.0625 0.125 1.45
3.125 0 1.3875
3.125 0.0625 1.3875
3.1875 0.125 1.3875
3.1875 0.0625 1.3875
3.25 0.125 1.3875
3.1875 0.0625 1.45
3.25 0.0625 1.45
3.1875 0 1.45
3.1875 0 1.3875
3.1875 0.125 1.45
3.25 0 1.3875
3.25 0.0625 1.3875
3.3125 0.125 1.3875
3.3125 0.0625 1.3875
3.375 0.125 1.3875
3.3125 0.0625 1.45
3.375 0.0625 1.45
3.3125 0 1.45
3.3125 0 1.3875
3.3125 0.125 1.45
3.375 0 1.3875
3.375 0.0625 1.3875
3.4375 0.125 1.3875
3.4375 0.0625 1.3875
3.5 0.125 1.3875
3.4375 0.0625 1.45
3.5 0.0625 1.45
3.4375 0 1.45
3.4375 0 1.3875
3.4375 0.125 1.45
3.5 0 1.3875
3.5 0.0625 1.3875
3.5625 0.125 1.3875
3.5625 0.0625 1.3875
3.625 0.125 1.3875
3.5625 0.0625 1.45
3.625 0.0625 1.45
3.5625 0 1.45
3.5625 0 1.3875
3.5625 0.125 1.45
3.625 0 1.3875
3.625 0.0625 1.3875
3.6875 0.125 1.3875
3.6875 0.0625 1.3875
3.75 0.125 1.3875
3.6875 0.0625 1.45
3.75 0.0625 1.45
3.6875 0 1.45
3.6875 0 1.3875
3.6875 0.125 1.45
3.75 0 1.3875
3.75 0.0625 1.3875
3.8125 0.125 1.3875
3.8125 0.0625 1.3875
3.875 0.125 1.3875
3.8125 0.0625 1.45
3.875 0.0625 1.45
3.8125 0 1.45
3.8125 0 1.3875
3.8125 0.125 1.45
3.875 0 1.3875
3.875 0.0625 1.3875
3.9375 0.125 1.3875
3.9375 0.0625 1.3875
4 0.125 1.3875
3.9375 0.0625 1.45
4 0.0625 1.45
3.9375 0 1.45
3.9375 0 1.3875
3.9375 0.125 1.45
4 0 1.3875
4 0.0625 1.3875
0.0625 0.25 1.3875
0.0625 0.1875 1.3875
0.125 0.25 1.3875
0.0625 0.1875 1.45
0.125 0.1875 1.45
0 0.25 1.3875
0 0.1875 1.3875
0.0625 0.25 1.45
0 0.1875 1.45
0.125 0.1875 1.3875
0.1875 0.25 1.3875
0.1875 0.1875 1.3875
0.25 0.25 1.3875
0.1875 0.1875 1.45
0.25 0.1875 1.45
0.1875 0.25 1.45
0.25 0.1875 1.3875
0.3125 0.25 1.3875
0.3125 0.1875 1.3875
0.375 0.25 1.3875
0.3125 0.1875 1.45
0.375 0.1875 1.45
0.3125 0.25 1.45
0.375 0.1875 1.3875
0.4375 0.25 1.3875
0.4375 0.1875 1.3875
0.5 0.25 1.3875
0.4375 0.1875 1.45
0.5 0.1875 1.45
0.4375 0.25 1.45
0.5 0.1875 1.3875
0.5625 0.25 1.3875
0.5625 0.1875 1.3875
0.625 0.25 1.3875
0.5625 0.1875 1.45
0.625 0.1875 1.45
0.5625 0.25 1.45
0.625 0.1875 1.3875
0.6875 0.25 1.3875
0.6875 0.1875 1.3875
0.75 0.25 1.3875
0.6875 0.1875 1.45
0.75 0.1875 1.45
0.6875 0.25 1.45
0.75 0.1875 1.3875
0.8125 0.25 1.3875
0.8125 0.1875 1.3875
0.875 0.25 1.3875
0.8125 0.1875 1.45
0.875 0.1875 1.45
0.8125 0.25 1.45
0.875 0.1875 1.3875
0.9375 0.25 1.3875
0.9375 0.1875 1.3875
1 0.25 1.3875
0.9375 0.1875 1.45
1 0.1875 1.45
0.9375 0.25 1.45
1 0.1875 1.3875
1.0625 0.25 1.3875
1.0625 0.1875 1.3875
1.125 0.25 1.3875
1.0625 0.1875 1.45
1.125 0.1875 1.45
1.0625 0.25 1.45
1.125 0.1875 1.3875
1.1875 0.25 1.3875
1.1875 0.1875 1.3875
1.25 0.25 1.3875
1.1875 0.1875 1.45
1.25 0.1875 1.45
1.1875 0.25 1.45
1.25 0.1875 1.3875
1.3125 0.25 1.3875
1.3125 0.1875 1.3875
1.375 0.25 1.3875
1.3125 0.1875 1.45
1.375 0.1875 1.45
1.3125 0.25 1.45
1.375 0.1875 1.3875
1.4375 0.25 1.3875
1.4375 0.1875 1.3875
1.5 0.25 1.3875
1.4375 0.1875 1.45
1.5 0.1875 1.45
1.4375 0.25 1.45
1.5 0.1875 1.3875
1.5625 0.25 1.3875
1.5625 0.1875 1.3875
1.625 0.25 1.3875
1.5625 0.1875 1.45
1.625 0.1875 1.45
1.5625 0.25 1.45
1.625 0.1875 1.3875
1.6875 0.25 1.3875
1.6875 0.1875 1.3875
1.75 0.25 1.3875
1.6875 0.1875 1.45
1.75 0.1875 1.45
1.6875 0.25 1.45
1.75 0.1875 1.3875
1.8125 0.25 1.3875
1.8125 0.1875 1.3875
1.875 0.25 1.3875
1.8125 0.1875 1.45
1.875 0.1875 1.45
1.8125 0.25 1.45
1.875 0.1875 1.3875
1.9375 0.25 1.3875
1.9375 0.1875 1.3875
2 0.25 1.3875
1.9375 0.1875 1.45
2 0.1875 1.45
1.9375 0.25 1.45
2 0.1875 1.3875
2.0625 0.25 1.3875
2.0625 0.1875 1.3875
2.125 0.25 1.3875
2.0625 0.1875 1.45
2.125 0.1875 1.45
2.0625 0.25 1.45
2.125 0.1875 1.3875
2.1875 0.25 1.3875
2.1875 0.1875 1.3875
2.25 0.25 1.3875
2.1875 0.1875 1.45
2.25 0.1875 1.45
2.1875 0.25 1.45
2.25 0.1875 1.3875
2.3125 0.25 1.3875
2.3125 0.1875 1.3875
2.375 0.25 1.3875
2.3125 0.1875 1.45
2.375 0.1875 1.45
2.3125 0.25 1.45
2.375 0.1875 1.3875
2.4375 0.25 1.3875
2.4375 0.1875 1.3875
2.5 0.25 1.3875
2.4375 0.1875 1.45
2.5 0.1875 1.45
2.4375 0.25 1.45
2.5 0.1875 1.3875
2.5625 0.25 1.3875
2.5625 0.1875 1.3875
2.625 0.25 1.3875
2.5625 0.1875 1.45
2.625 0.1875 1.45
2.5625 0.25 1.45
2.625 0.1875 1.3875
2.6875 0.25 1.3875
2.6875 0.1875 1.3875
2.75 0.25 1.3875
2.6875 0.1875 1.45
2.75 0.1875 1.45
2.6875 0.25 1.45
2.75 0.1875 1.3875
2.8125 0.25 1.3875
2.8125 0.1875 1.3875
2.875 0.25 1.3875
2.8125 0.1875 1.45
2.875 0.1875 1.45
2.8125 0.25 1.45
2.875 0.1875 1.3875
2.9375 0.25 1.3875
2.9375 0.1875 1.3875
3 0.25 1.3875
2.9375 0.1875 1.45
3 0.1875 1.45
2.9375 0.25 1.45
3 0.1875 1.3875
3.0625 0.25 1.3875
3.0625 0.1875 1.3875
3.125 0.25 1.3875
3.0625 0.1875 1.45
3.125 0.1875 1.45
3.0625 0.25 1.45
3.125 0.1875 1.3875
3.1875 0.25 1.3875
3.1875 0.1875 1.3875
3.25 0.25 1.3875
3.1875 0.1875 1.45
3.25 0.1875 1.45
3.1875 0.25 1.45
3.25 0.1875 1.3875
3.3125 0.25 1.3875
3.3125 0.1875 1.3875
3.375 0.25 1.3875
3.3125 0.1875 1.45
3.375 0.1875 1.45
3.3125 0.25 1.45
3.375 0.1875 1.3875
3.4375 0.25 1.3875
3.4375 0.1875 1.3875
3.5 0.25 1.3875
3.4375 0.1875 1.45
3.5 0.1875 1.45
3.4375 0.25 1.45
3.5 0.1875 1.3875
3.5625 0.25 1.3875
3.5625 0.1875 1.3875
3.625 0.25 1.3875
3.5625 0.1875 1.45
3.625 0.1875 1.45
3.5625 0.25 1.45
3.625 0.1875 1.3875
3.6875 0.25 1.3875
3.6875 0.1875 1.3875
3.75 0.25 1.3875
3.6875 0.1875 1.45
3.75 0.1875 1.45
3.6875 0.25 1.45
3.75 0.1875 1.3875
3.8125 0.25 1.3875
3.8125 0.1875 1.3875
3.875 0.25 1.3875
3.8125 0.1875 1.45
3.875 0.1875 1.45
3.8125 0.25 1.45
3.875 0.1875 1.3875
3.9375 0.25 1.3875
3.9375 0.1875 1.3875
4 0.25 1.3875
3.9375 0.1875 1.45
4 0.1875 1.45
3.9375 0.25 1.45
4 0.1875 1.3875
0.0625 0.375 1.3875
0.0625 0.3125 1.3875
0.125 0.375 1.3875
0.0625 0.3125 1.45
0.125 0.3125 1.45
0 0.375 1.3875
0 0.3125 1.3875
0.0625 0.375 1.45
0 0.3125 1.45
0.125 0.3125 1.3875
0.1875 0.375 1.3875
0.1875 0.3125 1.3875
0.25 0.375 1.3875
0.1875 0.3125 1.45
0.25 0.3125 1.45
0.1875 0.375 1.45
0.25 0.3125 1.3875
0.3125 0.375 1.3875
0.3125 0.3125 1.3875
0.375 0.375 1.3875
0.3125 0.3125 1.45
0.375 0.3125 1.45
0.3125 0.375 1.45
0.375 0.3125 1.3875
0.4375 0.375 1.3875
0.4375 0.3125 1.3875
0.5 0.375 1.3875
0.4375 0.3125 1.45
0.5 0.3125 1.45
0.4375 0.375 1.45
0.5 0.3125 1.3875
0.5625 0.375 1.3875
0.5625 0.3125 1.3875
0.625 0.375 1.3875
0.5625 0.3125 1.45
0.625 0.3125 1.45
0.5625 0.375 1.45
0.625 0.3125 1.3875
0.6875 0.375 1.3875
0.6875 0.3125 1.3875
0.75 0.375 1.3875
0.6875 0.3125 1.45
0.75 0.3125 1.45
0.6875 0.375 1.45
0.75 0.3125 1.3875
0.8125 0.375 1.3875
0.8125 0.3125 1.3875
0.875 0.375 1.3875
0.8125 0.3125 1.45
0.875 0.3125 1.45
0.8125 0.375 1.45
0.875 0.3125 1.3875
0.9375 0.375 1.3875
0.9375 0.3125 1.3875
1 0.375 1.3875
0.9375 0.3125 1.45
1 0.3125 1.45
0.9375 0.375 1.45
1 0.3125 1.3875
1.0625 0.375 1.3875
1.0625 0.3125 1.3875
1.125 0.375 1.3875
1.0625 0.3125 1.45
1.125 0.3125 1.45
1.0625 0.375 1.45
1.125 0.3125 1.3875
1.1875 0.375 1.3875
1.1875 0.3125 1.3875
1.25 0.375 1.3875
1.1875 0.3125 1.45
1.25 0.3125 1.45
1.1875 0.375 1.45
1.25 0.3125 1.3875
1.3125 0.375 1.3875
1.3125 0.3125 1.3875
1.375 0.375 1.3875
1.3125 0.3125 1.45
1.375 0.3125 1.45
1.3125 0.375 1.45
1.375 0.3125 1.3875
1.4375 0.375 1.3875
1.4375 0.3125 1.3875
1.5 0.375 1.3875
1.4375 0.3125 1.45
1.5 0.3125 1.45
1.4375 0.375 1.45
1.5 0.3125 1.3875
1.5625 0.375 1.3875
1.5625 0.3125 1.3875
1.625 0.375 1.3875
1.5625 0.3125 1.45
1.625 0.3125 1.45
1.5625 0.375 1.45
1.625 0.3125 1.3875
1.6875 0.375 1.3875
1.6875 0.3125 1.3875
1.75 0.375 1.3875
1.6875 0.3125 1.45
1.75 0.3125 1.45
1.6875 0.375 1.45
1.75 0.3125 1.3875
1.8125 0.375 1.3875
1.8125 0.3125 1.3875
1.875 0.375 1.3875
1.8125 0.3125 1.45
1.875 0.3125 1.45
1.8125 0.375 1.45
1.875 0.3125 1.3875
1.9375 0.375 1.3875
1.9375 0.3125 1.3875
2 0.375 1.3875
1.9375 0.3125 1.45
2 0.3125 1.45
1.9375 0.375 1.45
2 0.3125 1.3875
2.0625 0.375 1.3875
2.0625 0.3125 1.3875
2.125 0.375 1.3875
2.0625 0.3125 1.45
2.125 0.3125 1.45
2.0625 0.375 1.45
2.125 0.3125 1.3875
2.1875 0.375 1.3875
2.1875 0.3125 1.3875
2.25 0.375 1.3875
2.1875 0.3125 1.45
2.25 0.3125 1.45
2.1875 0.375 1.45
2.25 0.3125 1.3875
2.3125 0.375 1.3875
2.3125 0.3125 1.3875
2.375 0.375 1.3875
2.3125 0.3125 1.45
2.375 0.3125 1.45
2.3125 0.375 1.45
2.375 0.3125 1.3875
2.4375 0.375 1.3875
2.4375 0.3125 1.3875
2.5 0.375 1.3875
2.4375 0.3125 1.45
2.5 0.3125 1.45
2.4375 0.375 1.45
2.5 0.3125 1.3875
2.5625 0.375 1.3875
2.5625 0.3125 1.3875
2.625 0.375 1.3875
2.5625 0.3125 1.45
2.625 0.3125 1.45
2.5625 0.375 1.45
2.625 0.3125 1.3875
2.6875 0.375 1.3875
2.6875 0.3125 1.3875
2.75 0.375 1.3875
2.6875 0.3125 1.45
2.75 0.3125 1.45
2.6875 0.375 1.45
2.75 0.3125 1.3875
2.8125 0.375 1.3875
2.8125 0.3125 1.3875
2.875 0.375 1.3875
2.8125 0.3125 1.45
2.875 0.3125 1.45
2.8125 0.375 1.45
2.875 0.3125 1.3875
2.9375 0.375 1.3875
2.9375 0.3125 1.3875
3 0.375 1.3875
2.9375 0.3125 1.45
3 0.3125 1.45
2.9375 0.375 1.45
3 0.3125 1.3875
3.0625 0.375 1.3875
3.0625 0.3125 1.3875
3.125 0.375 1.3875
3.0625 0.3125 1.45
3.125 0.3125 1.45
3.0625 0.375 1.45
3.125 0.3125 1.3875
3.1875 0.375 1.3875
3.1875 0.3125 1.3875
3.25 0.375 1.3875
3.1875 0.3125 1.45
3.25 0.3125 1.45
3.1875 0.375 1.45
3.25 0.3125 1.3875
3.3125 0.375 1.3875
3.3125 0.3125 1.3875
3.375 0.375 1.3875
3.3125 0.3125 1.45
3.375 0.3125 1.45
3.3125 0.375 1.45
3.375 0.3125 1.3875
3.4375 0.375 1.3875
3.4375 0.3125 1.3875
3.5 0.375 1.3875
3.4375 0.3125 1.45
3.5 0.3125 1.45
3.4375 0.375 1.45
3.5 0.3125 1.3875
3.5625 0.375 1.3875
3.5625 0.3125 1.3875
3.625 0.375 1.3875
3.5625 0.3125 1.45
3.625 0.3125 1.45
3.5625 0.375 1.45
3.625 0.3125 1.3875
3.6875 0.375 1.3875
3.6875 0.3125 1.3875
3.75 0.375 1.3875
3.6875 0.3125 1.45
3.75 0.3125 1.45
3.6875 0.375 1.45
3.75 0.3125 1.3875
3.8125 0.375 1.3875
3.8125 0.3125 1.3875
3.875 0.375 1.3875
3.8125 0.3125 1.45
3.875 0.3125 1.45
3.8125 0.375 1.45
3.875 0.3125 1.3875
3.9375 0.375 1.3875
3.9375 0.3125 1.3875
4 0.375 1.3875
3.9375 0.3125 1.45
4 0.3125 1.45
3.9375 0.375 1.45
4 0.3125 1.3875
0.0625 0.5 1.3875
0.0625 0.4375 1.3875
0.125 0.5 1.3875
0.0625 0.4375 1.45
0.125 0.4375 1.45
0 0.5 1.3875
0 0.4375 1.3875
0.0625 0.5 1.45
0 0.4375 1.45
0.125 0.4375 1.3875
0.1875 0.5 1.3875
0.1875 0.4375 1.3875
0.25 0.5 1.3875
0.1875 0.4375 1.45
0.25 0.4375 1.45
0.1875 0.5 1.45
0.25 0.4375 1.3875
0.3125 0.5 1.3875
0.3125 0.4375 1.3875
0.375 0.5 1.3875
0.3125 0.4375 1.45
0.375 0.4375 1.45
0.3125 0.5 1.45
0.375 0.4375 1.3875
0.4375 0.5 1.3875
0.4375 0.4375 1.3875
0.5 0.5 1.3875
0.4375 0.4375 1.45
0.5 0.4375 1.45
0.4375 0.5 1.45
0.5 0.4375 1.3875
0.5625 0.5 1.3875
0.5625 0.4375 1.3875
0.625 0.5 1.3875
0.5625 0.4375 1.45
0.625 0.4375 1.45
0.5625 0.5 1.45
0.625 0.4375 1.3875
0.6875 0.5 1.3875
0.6875 0.4375 1.3875
0.75 0.5 1.3875
0.6875 0.4375 1.45
0.75 0.4375 1.45
0.6875 0.5 1.45
0.75 0.4375 1.3875
0.8125 0.5 1.3875
0.8125 0.4375 1.3875
0.875 0.5 1.3875
0.8125 0.4375 1.45
0.875 0.4375 1.45
0.8125 0.5 1.45
0.875 0.4375 1.3875
0.9375 0.5 1.3875
0.9375 0.4375 1.3875
1 0.5 1.3875
0.9375 0.4375 1.45
1 0.4375 1.45
0.9375 0.5 1.45
1 0.4375 1.3875
1.0625 0.5 1.3875
1.0625 0.4375 1.3875
1.125 0.5 1.3875
1.0625 0.4375 1.45
1.125 0.4375 1.45
1.0625 0.5 1.45
1.125 0.4375 1.3875
1.1875 0.5 1.3875
1.1875 0.4375 1.3875
1.25 0.5 1.3875
1.1875 0.4375 1.45
1.25 0.4375 1.45
1.1875 0.5 1.45
1.25 0.4375 1.3875
1.3125 0.5 1.3875
1.3125 0.4375 1.3875
1.375 0.5 1.3875
1.3125 0.4375 1.45
1.375 0.4375 1.45
1.3125 0.5 1.45
1.375 0.4375 1.3875
1.4375 0.5 1.3875
1.4375 0.4375 1.3875
1.5 0.5 1.3875
1.4375 0.4375 1.45
1.5 0.4375 1.45
1.4375 0.5 1.45
1.5 0.4375 1.3875
1.5625 0.5 1.3875
1.5625 0.4375 1.3875
1.625 0.5 1.3875
1.5625 0.4375 1.45
1.625 0.4375 1.45
1.5625 0.5 1.45
1.625 0.4375 1.3875
1.6875 0.5 1.3875
1.6875 0.4375 1.3875
1.75 0.5 1.3875
1.6875 0.4375 1.45
1.75 0.4375 1.45
1.6875 0.5 1.45
1.75 0.4375 1.3875
1.8125 0.5 1.3875
1.8125 0.4375 1.3875
1.875 0.5 1.3875
1.8125 0.4375 1.45
1.875 0.4375 1.45
1.8125 0.5 1.45
1.875 0.4375 1.3875
1.9375 0.5 1.3875
1.9375 0.4375 1.3875
2 0.5 1.3875
1.9375 0.4375 1.45
2 0.4375 1.45
1.9375 0.5 1.45
2 0.4375 1.3875
2.0625 0.5 1.3875
2.0625 0.4375 1.3875
2.125 0.5 1.3875
2.0625 0.4375 1.45
2.125 0.4375 1.45
2.0625 0.5 1.45
2.125 0.4375 1.3875
2.1875 0.5 1.3875
2.1875 0.4375 1.3875
2.25 0.5 1.3875
2.1875 0.4375 1.45
2.25 0.4375 1.45
2.1875 0.5 1.45
2.25 0.4375 1.3875
2.3125 0.5 1.3875
2.3125 0.4375 1.3875
2.375 0.5 1.3875
2.3125 0.4375 1.45
2.375 0.4375 1.45
2.3125 0.5 1.45
2.375 0.4375 1.3875
2.4375 0.5 1.3875
2.4375 0.4375 1.3875
2.5 0.5 1.3875
2.4375 0.4375 1.45
2.5 0.4375 1.45
2.4375 0.5 1.45
2.5 0.4375 1.3875
2.5625 0.5 1.3875
2.5625 0.4375 1.3875
2.625 0.5 1.3875
2.5625 0.4375 1.45
2.625 0.4375 1.45
2.5625 0.5 1.45
2.625 0.4375 1.3875
2.6875 0.5 1.3875
2.6875 0.4375 1.3875
2.75 0.5 1.3875
2.6875 0.4375 1.45
2.75 0.4375 1.45
2.6875 0.5 1.45
2.75 0.4375 1.3875
2.8125 0.5 1.3875
2.8125 0.4375 1.3875
2.875 0.5 1.3875
2.8125 0.4375 1.45
2.875 0.4375 1.45
2.8125 0.5 1.45
2.875 0.4375 1.3875
2.9375 0.5 1.3875
2.9375 0.4375 1.3875
3 0.5 1.3875
2.9375 0.4375 1.45
3 0.4375 1.45
2.9375 0.5 1.45
3 0.4375 1.3875
3.0625 0.5 1.3875
3.0625 0.4375 1.3875
3.125 0.5 1.3875
3.0625 0.4375 1.45
3.125 0.4375 1.45
3.0625 0.5 1.45
3.125 0.4375 1.3875
3.1875 0.5 1.3875
3.1875 0.4375 1.3875
3.25 0.5 1.3875
3.1875 0.4375 1.45
3.25 0.4375 1.45
3.1875 0.5 1.45
3.25 0.4375 1.3875
3.3125 0.5 1.3875
3.3125 0.4375 1.3875
3.375 0.5 1.3875
3.3125 0.4375 1.45
3.375 0.4375 1.45
3.3125 0.5 1.45
3.375 0.4375 1.3875
3.4375 0.5 1.3875
3.4375 0.4375 1.3875
3.5 0.5 1.3875
3.4375 0.4375 1.45
3.5 0.4375 1.45
3.4375 0.5 1.45
3.5 0.4375 1.3875
3.5625 0.5 1.3875
3.5625 0.4375 1.3875
3.625 0.5 1.3875
3.5625 0.4375 1.45
3.625 0.4375 1.45
3.5625 0.5 1.45
3.625 0.4375 1.3875
3.6875 0.5 1.3875
3.6875 0.4375 1.3875
3.75 0.5 1.3875
3.6875 0.4375 1.45
3.75 0.4375 1.45
3.6875 0.5 1.45
3.75 0.4375 1.3875
3.8125 0.5 1.3875
3.8125 0.4375 1.3875
3.875 0.5 1.3875
3.8125 0.4375 1.45
3.875 0.4375 1.45
3.8125 0.5 1.45
3.875 0.4375 1.3875
3.9375 0.5 1.3875
3.9375 0.4375 1.3875
4 0.5 1.3875
3.9375 0.4375 1.45
4 0.4375 1.45
3.9375 0.5 1.45
4 0.4375 1.3875
0.0625 0.625 1.3875
0.0625 0.5625 1.3875
0.125 0.625 1.3875
0.0625 0.5625 1.45
0.125 0.5625 1.45
0 0.625 1.3875
0 0.5625 1.3875
0.0625 0.625 1.45
0 0.5625 1.45
0.125 0.5625 1.3875
0.1875 0.625 1.3875
0.1875 0.5625 1.3875
0.25 0.625 1.3875
0.1875 0.5625 1.45
0.25 0.5625 1.45
0.1875 0.625 1.45
0.25 0.5625 1.3875
0.3125 0.625 1.3875
0.3125 0.5625 1.3875
0.375 0.625 1.3875
0.3125 0.5625 1.45
0.375 0.5625 1.45
0.3125 0.625 1.45
0.375 0.5625 1.3875
0.4375 0.625 1.3875
0.4375 0.5625 1.3875
0.5 0.625 1.3875
0.4375 0.5625 1.45
0.5 0.5625 1.45
0.4375 0.625 1.45
0.5 0.5625 1.3875
0.5625 0.625 1.3875
0.5625 0.5625 1.3875
0.625 0.625 1.3875
0.5625 0.5625 1.45
0.625 0.5625 1.45
0.5625 0.625 1.45
0.625 0.5625 1.3875
0.6875 0.625 1.3875
0.6875 0.5625 1.3875
0.75 0.625 1.3875
0.6875 0.5625 1.45
0.75 0.5625 1.45
0.6875 0.625 1.45
0.75 0.5625 1.3875
0.8125 0.625 1.3875
0.8125 0.5625 1.3875
0.875 0.625 1.3875
0.8125 0.5625 1.45
0.875 0.5625 1.45
0.8125 0.625 1.45
0.875 0.5625 1.3875
0.9375 0.625 1.3875
0.9375 0.5625 1.3875
1 0.625 1.3875
0.9375 0.5625 1.45
1 0.5625 1.45
0.9375 0.625 1.45
1 0.5625 1.3875
1.0625 0.625 1.3875
1.0625 0.5625 1.3875
1.125 0.625 1.3875
1.0625 0.5625 1.45
1.125 0.5625 1.45
1.0625 0.625 1.45
1.125 0.5625 1.3875
1.1875 0.625 1.3875
1.1875 0.5625 1.3875
1.25 0.625 1.3875
1.1875 0.5625 1.45
1.25 0.5625 1.45
1.1875 0.625 1.45
1.25 0.5625 1.3875
1.3125 0.625 1.3875
1.3125 0.5625 1.3875
1.375 0.625 1.3875
1.3125 0.5625 1.45
1.375 0.5625 1.45
1.3125 0.625 1.45
1.375 0.5625 1.3875
1.4375 0.625 1.3875
1.4375 0.5625 1.3875
1.5 0.625 1.3875
1.4375 0.5625 1.45
1.5 0.5625 1.45
1.4375 0.625 1.45
1.5 0.5625 1.3875
1.5625 0.625 1.3875
1.5625 0.5625 1.3875
1.625 0.625 1.3875
1.5625 0.5625 1.45
1.625 0.5625 1.45
1.5625 0.625 1.45
1.625 0.5625 1.3875
1.6875 0.625 1.3875
1.6875 0.5625 1.3875
1.75 0.625 1.3875
1.6875 0.5625 1.45
1.75 0.5625 1.45
1.6875 0.625 1.45
1.75 0.5625 1.3875
1.8125 0.625 1.3875
1.8125 0.5625 1.3875
1.875 0.625 1.3875
1.8125 0.5625 1.45
1.875 0.5625 1.45
1.8125 0.625 1.45
1.875 0.5625 1.3875
1.9375 0.625 1.3875
1.9375 0.5625 1.3875
2 0.625 1.3875
1.9375 0.5625 1.45
2 0.5625 1.45
1.9375 0.625 1.45
2 0.5625 1.3875
2.0625 0.625 1.3875
2.0625 0.5625 1.3875
2.125 0.625 1.3875
2.0625 0.5625 1.45
2.125 0.5625 1.45
2.0625 0.625 1.45
2.125 0.5625 1.3875
2.1875 0.625 1.3875
2.1875 0.5625 1.3875
2.25 0.625 1.3875
2.1875 0.5625 1.45
2.25 0.5625 1.45
2.1875 0.625 1.45
2.25 0.5625 1.3875
2.3125 0.625 1.3875
2.3125 0.5625 1.3875
2.375 0.625 1.3875
2.3125 0.5625 1.45
2.375 0.5625 1.45
2.3125 0.625 1.45
2.375 0.5625 1.3875
2.4375 0.625 1.3875
2.4375 0.5625 1.3875
2.5 0.625 1.3875
2.4375 0.5625 1.45
2.5 0.5625 1.45
2.4375 0.625 1.45
2.5 0.5625 1.3875
2.5625 0.625 1.3875
2.5625 0.5625 1.3875
2.625 0.625 1.3875
2.5625 0.5625 1.45
2.625 0.5625 1.45
2.5625 0.625 1.45
2.625 0.5625 1.3875
2.6875 0.625 1.3875
2.6875 0.5625 1.3875
2.75 0.625 1.3875
2.6875 0.5625 1.45
2.75 0.5625 1.45
2.6875 0.625 1.45
2.75 0.5625 1.3875
2.8125 0.625 1.3875
2.8125 0.5625 1.3875
2.875 0.625 1.3875
2.8125 0.5625 1.45
2.875 0.5625 1.45
2.8125 0.625 1.45
2.875 0.5625 1.3875
2.9375 0.625 1.3875
2.9375 0.5625 1.3875
3 0.625 1.3875
2.9375 0.5625 1.45
3 0.5625 1.45
2.9375 0.625 1.45
3 0.5625 1.3875
3.0625 0.625 1.3875
3.0625 0.5625 1.3875
3.125 0.625 1.3875
3.0625 0.5625 1.45
3.125 0.5625 1.45
3.0625 0.625 1.45
3.125 0.5625 1.3875
3.1875 0.625 1.3875
3.1875 0.5625 1.3875
3.25 0.625 1.3875
3.1875 0.5625 1.45
3.25 0.5625 1.45
3.1875 0.625 1.45
3.25 0.5625 1.3875
3.3125 0.625 1.3875
3.3125 0.5625 1.3875
3.375 0.625 1.3875
3.3125 0.5625 1.45
3.375 0.5625 1.45
3.3125 0.625 1.45
3.375 0.5625 1.3875
3.4375 0.625 1.3875
3.4375 0.5625 1.3875
3.5 0.625 1.3875
3.4375 0.5625 1.45
3.5 0.5625 1.45
3.4375 0.625 1.45
3.5 0.5625 1.3875
3.5625 0.625 1.3875
3.5625 0.5625 1.3875
3.625 0.625 1.3875
3.5625 0.5625 1.45
3.625 0.5625 1.45
3.5625 0.625 1.45
3.625 0.5625 1.3875
3.6875 0.625 1.3875
3.6875 0.5625 1.3875
3.75 0.625 1.3875
3.6875 0.5625 1.45
3.75 0.5625 1.45
3.6875 0.625 1.45
3.75 0.5625 1.3875
3.8125 0.625 1.3875
3.8125 0.5625 1.3875
3.875 0.625 1.3875
3.8125 0.5625 1.45
3.875 0.5625 1.45
3.8125 0.625 1.45
3.875 0.5625 1.3875
3.9375 0.625 1.3875
3.9375 0.5625 1.3875
4 0.625 1.3875
3.9375 0.5625 1.45
4 0.5625 1.45
3.9375 0.625 1.45
4 0.5625 1.3875
0.0625 0.75 1.3875
0.0625 0.6875 1.3875
0.125 0.75 1.3875
0.0625 0.6875 1.45
0.125 0.6875 1.45
0 0.75 1.3875
0 0.6875 1.3875
0.0625 0.75 1.45
0 0.6875 1.45
0.125 0.6875 1.3875
0.1875 0.75 1.3875
0.1875 0.6875 1.3875
0.25 0.75 1.3875
0.1875 0.6875 1.45
0.25 0.6875 1.45
0.1875 0.75 1.45
0.25 0.6875 1.3875
0.3125 0.75 1.3875
0.3125 0.6875 1.3875
0.375 0.75 1.3875
0.3125 0.6875 1.45
0.375 0.6875 1.45
0.3125 0.75 1.45
0.375 0.6875 1.3875
0.4375 0.75 1.3875
0.4375 0.6875 1.3875
0.5 0.75 1.3875
0.4375 0.6875 1.45
0.5 0.6875 1.45
0.4375 0.75 1.45
0.5 0.6875 1.3875
0.5625 0.75 1.3875
0.5625 0.6875 1.3875
0.625 0.75 1.3875
0.5625 0.6875 1.45
0.625 0.6875 1.45
0.5625 0.75 1.45
0.625 0.6875 1.3875
0.6875 0.75 1.3875
0.6875 0.6875 1.3875
0.75 0.75 1.3875
0.6875 0.6875 1.45
0.75 0.6875 1.45
0.6875 0.75 1.45
0.75 0.6875 1.3875
0.8125 0.75 1.3875
0.8125 0.6875 1.3875
0.875 0.75 1.3875
0.8125 0.6875 1.45
0.875 0.6875 1.45
0.8125 0.75 1.45
0.875 0.6875 1.3875
0.9375 0.75 1.3875
0.9375 0.6875 1.3875
1 0.75 1.3875
0.9375 0.6875 1.45
1 0.6875 1.45
0.9375 0.75 1.45
1 0.6875 1.3875
1.0625 0.75 1.3875
1.0625 0.6875 1.3875
1.125 0.75 1.3875
1.0625 0.6875 1.45
1.125 0.6875 1.45
1.0625 0.75 1.45
1.125 0.6875 1.3875
1.1875 0.75 1.3875
1.1875 0.6875 1.3875
1.25 0.75 1.3875
1.1875 0.6875 1.45
1.25 0.6875 1.45
1.1875 0.75 1.45
1.25 0.6875 1.3875
1.3125 0.75 1.3875
1.3125 0.6875 1.3875
1.375 0.75 1.3875
1.3125 0.6875 1.45
1.375 0.6875 1.45
1.3125 0.75 1.45
1.375 0.6875 1.3875
1.4375 0.75 1.3875
1.4375 0.6875 1.3875
1.5 0.75 1.3875
1.4375 0.6875 1.45
1.5 0.6875 1.45
1.4375 0.75 1.45
1.5 0.6875 1.3875
1.5625 0.75 1.3875
1.5625 0.6875 1.3875
1.625 0.75 1.3875
1.5625 0.6875 1.45
1.625 0.6875 1.45
1.5625 0.75 1.45
1.625 0.6875 1.3875
1.6875 0.75 1.3875
1.6875 0.6875 1.3875
1.75 0.75 1.3875
1.6875 0.6875 1.45
1.75 0.6875 1.45
1.6875 0.75 1.45
1.75 0.6875 1.3875
1.8125 0.75 1.3875
1.8125 0.6875 1.3875
1.875 0.75 1.3875
1.8125 0.6875 1.45
1.875 0.6875 1.45
1.8125 0.75 1.45
1.875 0.6875 1.3875
1.9375 0.75 1.3875
1.9375 0.6875 1.3875
2 0.75 1.3875
1.9375 0.6875 1.45
2 0.6875 1.45
1.9375 0.75 1.45
2 0.6875 1.3875
2.0625 0.75 1.3875
2.0625 0.6875 1.3875
2.125 0.75 1.3875
2.0625 0.6875 1.45
2.125 0.6875 1.45
2.0625 0.75 1.45
2.125 0.6875 1.3875
2.1875 0.75 1.3875
2.1875 0.6875 1.3875
2.25 0.75 1.3875
2.1875 0.6875 1.45
2.25 0.6875 1.45
2.1875 0.75 1.45
2.25 0.6875 1.3875
2.3125 0.75 1.3875
2.3125 0.6875 1.3875
2.375 0.75 1.3875
2.3125 0.6875 1.45
2.375 0.6875 1.45
2.3125 0.75 1.45
2.375 0.6875 1.3875
2.4375 0.75 1.3875
2.4375 0.6875 1.3875
2.5 0.75 1.3875
2.4375 0.6875 1.45
2.5 0.6875 1.45
2.4375 0.75 1.45
2.5 0.6875 1.3875
2.5625 0.75 1.3875
2.5625 0.6875 1.3875
2.625 0.75 1.3875
2.5625 0.6875 1.45
2.625 0.6875 1.45
2.5625 0.75 1.45
2.625 0.6875 1.3875
2.6875 0.75 1.3875
2.6875 0.6875 1.3875
2.75 0.75 1.3875
2.6875 0.6875 1.45
2.75 0.6875 1.45
2.6875 0.75 1.45
2.75 0.6875 1.3875
2.8125 0.75 1.3875
2.8125 0.6875 1.3875
2.875 0.75 1.3875
2.8125 0.6875 1.45
2.875 0.6875 1.45
2.8125 0.75 1.45
2.875 0.6875 1.3875
2.9375 0.75 1.3875
2.9375 0.6875 1.3875
3 0.75 1.3875
2.9375 0.6875 1.45
3 0.6875 1.45
2.9375 0.75 1.45
3 0.6875 1.3875
3.0625 0.75 1.3875
3.0625 0.6875 1.3875
3.125 0.75 1.3875
3.0625 0.6875 1.45
3.125 0.6875 1.45
3.0625 0.75 1.45
3.125 0.6875 1.3875
3.1875 0.75 1.3875
3.1875 0.6875 1.3875
3.25 0.75 1.3875
3.1875 0.6875 1.45
3.25 0.6875 1.45
3.1875 0.75 1.45
3.25 0.6875 1.3875
3.3125 0.75 1.3875
3.3125 0.6875 1.3875
3.375 0.75 1.3875
3.3125 0.6875 1.45
3.375 0.6875 1.45
3.3125 0.75 1.45
3.375 0.6875 1.3875
3.4375 0.75 1.3875
3.4375 0.6875 1.3875
3.5 0.75 1.3875
3.4375 0.6875 1.45
3.5 0.6875 1.45
3.4375 0.75 1.45
3.5 0.6875 1.3875
3.5625 0.75 1.3875
3.5625 0.6875 1.3875
3.625 0.75 1.3875
3.5625 0.6875 1.45
3.625 0.6875 1.45
3.5625 0.75 1.45
3.625 0.6875 1.3875
3.6875 0.75 1.3875
3.6875 0.6875 1.3875
3.75 0.75 1.3875
3.6875 0.6875 1.45
3.75 0.6875 1.45
3.6875 0.75 1.45
3.75 0.6875 1.3875
3.8125 0.75 1.3875
3.8125 0.6875 1.3875
3.875 0.75 1.3875
3.8125 0.6875 1.45
3.875 0.6875 1.45
3.8125 0.75 1.45
3.875 0.6875 1.3875
3.9375 0.75 1.3875
3.9375 0.6875 1.3875
4 0.75 1.3875
3.9375 0.6875 1.45
4 0.6875 1.45
3.9375 0.75 1.45
4 0.6875 1.3875
0.0625 0.875 1.3875
0.0625 0.8125 1.3875
0.125 0.875 1.3875
0.0625 0.8125 1.45
0.125 0.8125 1.45
0 0.875 1.3875
0 0.8125 1.3875
0.0625 0.875 1.45
0 0.8125 1.45
0.125 0.8125 1.3875
0.1875 0.875 1.3875
0.1875 0.8125 1.3875
0.25 0.875 1.3875
0.1875 0.8125 1.45
0.25 0.8125 1.45
0.1875 0.875 1.45
0.25 0.8125 1.3875
0.3125 0.875 1.3875
0.3125 0.8125 1.3875
0.375 0.875 1.3875
0.3125 0.8125 1.45
0.375 0.8125 1.45
0.3125 0.875 1.45
0.375 0.8125 1.3875
0.4375 0.875 1.3875
0.4375 0.8125 1.3875
0.5 0.875 1.3875
0.4375 0.8125 1.45
0.5 0.8125 1.45
0.4375 0.875 1.45
0.5 0.8125 1.3875
0.5625 0.875 1.3875
0.5625 0.8125 1.3875
0.625 0.875 1.3875
0.5625 0.8125 1.45
0.625 0.8125 1.45
0.5625 0.875 1.45
0.625 0.8125 1.3875
0.6875 0.875 1.3875
0.6875 0.8125 1.3875
0.75 0.875 1.3875
0.6875 0.8125 1.45
0.75 0.8125 1.45
0.6875 0.875 1.45
0.75 0.8125 1.3875
0.8125 0.875 1.3875
0.8125 0.8125 1.3875
0.875 0.875 1.3875
0.8125 0.8125 1.45
0.875 0.8125 1.45
0.8125 0.875 1.45
0.875 0.8125 1.3875
0.9375 0.875 1.3875
0.9375 0.8125 1.3875
1 0.875 1.3875
0.9375 0.8125 1.45
1 0.8125 1.45
0.9375 0.875 1.45
1 0.8125 1.3875
1.0625 0.875 1.3875
1.0625 0.8125 1.3875
1.125 0.875 1.3875
1.0625 0.8125 1.45
1.125 0.8125 1.45
1.0625 0.875 1.45
1.125 0.8125 1.3875
1.1875 0.875 1.3875
1.1875 0.8125 1.3875
1.25 0.875 1.3875
1.1875 0.8125 1.45
1.25 0.8125 1.45
1.1875 0.875 1.45
1.25 0.8125 1.3875
1.3125 0.875 1.3875
1.3125 0.8125 1.3875
1.375 0.875 1.3875
1.3125 0.8125 1.45
1.375 0.8125 1.45
1.3125 0.875 1.45
1.375 0.8125 1.3875
1.4375 0.875 1.3875
1.4375 0.8125 1.3875
1.5 0.875 1.3875
1.4375 0.8125 1.45
1.5 0.8125 1.45
1.4375 0.875 1.45
1.5 0.8125 1.3875
1.5625 0.875 1.3875
1.5625 0.8125 1.3875
1.625 0.875 1.3875
1.5625 0.8125 1.45
1.625 0.8125 1.45
1.5625 0.875 1.45
1.625 0.8125 1.3875
1.6875 0.875 1.3875
1.6875 0.8125 1.3875
1.75 0.875 1.3875
1.6875 0.8125 1.45
1.75 0.8125 1.45
1.6875 0.875 1.45
1.75 0.8125 1.3875
1.8125 0.875 1.3875
1.8125 0.8125 1.3875
1.875 0.875 1.3875
1.8125 0.8125 1.45
1.875 0.8125 1.45
1.8125 0.875 1.45
1.875 0.8125 1.3875
1.9375 0.875 1.3875
1.9375 0.8125 1.3875
2 0.875 1.3875
1.9375 0.8125 1.45
2 0.8125 1.45
1.9375 0.875 1.45
2 0.8125 1.3875
2.0625 0.875 1.3875
2.0625 0.8125 1.3875
2.125 0.875 1.3875
2.0625 0.8125 1.45
2.125 0.8125 1.45
2.0625 0.875 1.45
2.125 0.8125 1.3875
2.1875 0.875 1.3875
2.1875 0.8125 1.3875
2.25 0.875 1.3875
2.1875 0.8125 1.45
2.25 0.8125 1.45
2.1875 0.875 1.45
2.25 0.8125 1.3875
2.3125 0.875 1.3875
2.3125 0.8125 1.3875
2.375 0.875 1.3875
2.3125 0.8125 1.45
2.375 0.8125 1.45
2.3125 0.875 1.45
2.375 0.8125 1.3875
2.4375 0.875 1.3875
2.4375 0.8125 1.3875
2.5 0.875 1.3875
2.4375 0.8125 1.45
2.5 0.8125 1.45
2.4375 0.875 1.45
2.5 0.8125 1.3875
2.5625 0.875 1.3875
2.5625 0.8125 1.3875
2.625 0.875 1.3875
2.5625 0.8125 1.45
2.625 0.8125 1.45
2.5625 0.875 1.45
2.625 0.8125 1.3875
2.6875 0.875 1.3875
2.6875 0.8125 1.3875
2.75 0.875 1.3875
2.6875 0.8125 1.45
2.75 0.8125 1.45
2.6875 0.875 1.45
2.75 0.8125 1.3875
2.8125 0.875 1.3875
2.8125 0.8125 1.3875
2.875 0.875 1.3875
2.8125 0.8125 1.45
2.875 0.8125 1.45
2.8125 0.875 1.45
2.875 0.8125 1.3875
2.9375 0.875 1.3875
2.9375 0.8125 1.3875
3 0.875 1.3875
2.9375 0.8125 1.45
3 0.8125 1.45
2.9375 0.875 1.45
3 0.8125 1.3875
3.0625 0.875 1.3875
3.0625 0.8125 1.3875
3.125 0.875 1.3875
3.0625 0.8125 1.45
3.125 0.8125 1.45
3.0625 0.875 1.45
3.125 0.8125 1.3875
3.1875 0.875 1.3875
3.1875 0.8125 1.3875
3.25 0.875 1.3875
3.1875 0.8125 1.45
3.25 0.8125 1.45
3.1875 0.875 1.45
3.25 0.8125 1.3875
3.3125 0.875 1.3875
3.3125 0.8125 1.3875
3.375 0.875 1.3875
3.3125 0.8125 1.45
3.375 0.8125 1.45
3.3125 0.875 1.45
3.375 0.8125 1.3875
3.4375 0.875 1.3875
3.4375 0.8125 1.3875
3.5 0.875 1.3875
3.4375 0.8125 1.45
3.5 0.8125 1.45
3.4375 0.875 1.45
3.5 0.8125 1.3875
3.5625 0.875 1.3875
3.5625 0.8125 1.3875
3.625 0.875 1.3875
3.5625 0.8125 1.45
3.625 0.8125 1.45
3.5625 0.875 1.45
3.625 0.8125 1.3875
3.6875 0.875 1.3875
3.6875 0.8125 1.3875
3.75 0.875 1.3875
3.6875 0.8125 1.45
3.75 0.8125 1.45
3.6875 0.875 1.45
3.75 0.8125 1.3875
3.8125 0.875 1.3875
3.8125 0.8125 1.3875
3.875 0.875 1.3875
3.8125 0.8125 1.45
3.875 0.8125 1.45
3.8125 0.875 1.45
3.875 0.8125 1.3875
3.9375 0.875 1.3875
3.9375 0.8125 1.3875
4 0.875 1.3875
3.9375 0.8125 1.45
4 0.8125 1.45
3.9375 0.875 1.45
4 0.8125 1.3875
0.0625 1 1.3875
0.0625 0.9375 1.3875
0.125 1 1.3875
0.0625 0.9375 1.45
0.125 0.9375 1.45
0 1 1.3875
0 0.9375 1.3875
0.0625 1 1.45
0 0.9375 1.45
0.125 0.9375 1.3875
0.1875 1 1.3875
0.1875 0.9375 1.3875
0.25 1 1.3875
0.1875 0.9375 1.45
0.25 0.9375 1.45
0.1875 1 1.45
0.25 0.9375 1.3875
0.3125 1 1.3875
0.3125 0.9375 1.3875
0.375 1 1.3875
0.3125 0.9375 1.45
0.375 0.9375 1.45
0.3125 1 1.45
0.375 0.9375 1.3875
0.4375 1 1.3875
0.4375 0.9375 1.3875
0.5 1 1.3875
0.4375 0.9375 1.45
0.5 0.9375 1.45
0.4375 1 1.45
0.5 0.9375 1.3875
0.5625 1 1.3875
0.5625 0.9375 1.3875
0.625 1 1.3875
0.5625 0.9375 1.45
0.625 0.9375 1.45
0.5625 1 1.45
0.625 0.9375 1.3875
0.6875 1 1.3875
0.6875 0.9375 1.3875
0.75 1 1.3875
0.6875 0.9375 1.45
0.75 0.9375 1.45
0.6875 1 1.45
0.75 0.9375 1.3875
0.8125 1 1.3875
0.8125 0.9375 1.3875
0.875 1 1.3875
0.8125 0.9375 1.45
0.875 0.9375 1.45
0.8125 1 1.45
0.875 0.9375 1.3875
0.9375 1 1.3875
0.9375 0.9375 1.3875
1 1 1.3875
0.9375 0.9375 1.45
1 0.9375 1.45
0.9375 1 1.45
1 0.9375 1.3875
1.0625 1 1.3875
1.0625 0.9375 1.3875
1.125 1 1.3875
1.0625 0.9375 1.45
1.125 0.9375 1.45
1.0625 1 1.45
1.125 0.9375 1.3875
1.1875 1 1.3875
1.1875 0.9375 1.3875
1.25 1 1.3875
1.1875 0.9375 1.45
1.25 0.9375 1.45
1.1875 1 1.45
1.25 0.9375 1.3875
1.3125 1 1.3875
1.3125 0.9375 1.3875
1.375 1 1.3875
1.3125 0.9375 1.45
1.375 0.9375 1.45
1.3125 1 1.45
1.375 0.9375 1.3875
1.4375 1 1.3875
1.4375 0.9375 1.3875
1.5 1 1.3875
1.4375 0.9375 1.45
1.5 0.9375 1.45
1.4375 1 1.45
1.5 0.9375 1.3875
1.5625 1 1.3875
1.5625 0.9375 1.3875
1.625 1 1.3875
1.5625 0.9375 1.45
1.625 0.9375 1.45
1.5625 1 1.45
1.625 0.9375 1.3875
1.6875 1 1.3875
1.6875 0.9375 1.3875
1.75 1 1.3875
1.6875 0.9375 1.45
1.75 0.9375 1.45
1.6875 1 1.45
1.75 0.9375 1.3875
1.8125 1 1.3875
1.8125 0.9375 1.3875
1.875 1 1.3875
1.8125 0.9375 1.45
1.875 0.9375 1.45
1.8125 1 1.45
1.875 0.9375 1.3875
1.9375 1 1.3875
1.9375 0.9375 1.3875
2 1 1.3875
1.9375 0.9375 1.45
2 0.9375 1.45
1.9375 1 1.45
2 0.9375 1.3875
2.0625 1 1.3875
2.0625 0.9375 1.3875
2.125 1 1.3875
2.0625 0.9375 1.45
2.125 0.9375 1.45
2.0625 1 1.45
2.125 0.9375 1.3875
2.1875 1 1.3875
2.1875 0.9375 1.3875
2.25 1 1.3875
2.1875 0.9375 1.45
2.25 0.9375 1.45
2.1875 1 1.45
2.25 0.9375 1.3875
2.3125 1 1.3875
2.3125 0.9375 1.3875
2.375 1 1.3875
2.3125 0.9375 1.45
2.375 0.9375 1.45
2.3125 1 1.45
2.375 0.9375 1.3875
2.4375 1 1.3875
2.4375 0.9375 1.3875
2.5 1 1.3875
2.4375 0.9375 1.45
2.5 0.9375 1.45
2.4375 1 1.45
2.5 0.9375 1.3875
2.5625 1 1.3875
2.5625 0.9375 1.3875
2.625 1 1.3875
2.5625 0.9375 1.45
2.625 0.9375 1.45
2.5625 1 1.45
2.625 0.9375 1.3875
2.6875 1 1.3875
2.6875 0.9375 1.3875
2.75 1 1.3875
2.6875 0.9375 1.45
2.75 0.9375 1.45
2.6875 1 1.45
2.75 0.9375 1.3875
2.8125 1 1.3875
2.8125 0.9375 1.3875
2.875 1 1.3875
2.8125 0.9375 1.45
2.875 0.9375 1.45
2.8125 1 1.45
2.875 0.9375 1.3875
2.9375 1 1.3875
2.9375 0.9375 1.3875
3 1 1.3875
2.9375 0.9375 1.45
3 0.9375 1.45
2.9375 1 1.45
3 0.9375 1.3875
3.0625 1 1.3875
3.0625 0.9375 1.3875
3.125 1 1.3875
3.0625 0.9375 1.45
3.125 0.9375 1.45
3.0625 1 1.45
3.125 0.9375 1.3875
3.1875 1 1.3875
3.1875 0.9375 1.3875
3.25 1 1.3875
3.1875 0.9375 1.45
3.25 0.9375 1.45
3.1875 1 1.45
3.25 0.9375 1.3875
3.3125 1 1.3875
3.3125 0.9375 1.3875
3.375 1 1.3875
3.3125 0.9375 1.45
3.375 0.9375 1.45
3.3125 1 1.45
3.375 0.9375 1.3875
3.4375 1 1.3875
3.4375 0.9375 1.3875
3.5 1 1.3875
3.4375 0.9375 1.45
3.5 0.9375 1.45
3.4375 1 1.45
3.5 0.9375 1.3875
3.5625 1 1.3875
3.5625 0.9375 1.3875
3.625 1 1.3875
3.5625 0.9375 1.45
3.625 0.9375 1.45
3.5625 1 1.45
3.625 0.9375 1.3875
3.6875 1 1.3875
3.6875 0.9375 1.3875
3.75 1 1.3875
3.6875 0.9375 1.45
3.75 0.9375 1.45
3.6875 1 1.45
3.75 0.9375 1.3875
3.8125 1 1.3875
3.8125 0.9375 1.3875
3.875 1 1.3875
3.8125 0.9375 1.45
3.875 0.9375 1.45
3.8125 1 1.45
3.875 0.9375 1.3875
3.9375 1 1.3875
3.9375 0.9375 1.3875
4 1 1.3875
3.9375 0.9375 1.45
4 0.9375 1.45
3.9375 1 1.45
4 0.9375 1.3875
0.0625 0.125 1.5125
0.0625 0.0625 1.5125
0.125 0.125 1.5125
0.0625 0.0625 1.575
0.125 0.0625 1.575
0.0625 0 1.575
0 0 1.5125
0.0625 0 1.5125
0 0.125 1.5125
0 0.0625 1.5125
0.0625 0.125 1.575
0 0.0625 1.575
0.125 0 1.5125
0.125 0.0625 1.5125
0.1875 0.125 1.5125
0.1875 0.0625 1.5125
0.25 0.125 1.5125
0.1875 0.0625 1.575
0.25 0.0625 1.575
0.1875 0 1.575
0.1875 0 1.5125
0.1875 0.125 1.575
0.25 0 1.5125
0.25 0.0625 1.5125
0.3125 0.125 1.5125
0.3125 0.0625 1.5125
0.375 0.125 1.5125
0.3125 0.0625 1.575
0.375 0.0625 1.575
0.3125 0 1.575
0.3125 0 1.5125
0.3125 0.125 1.575
0.375 0 1.5125
0.375 0.0625 1.5125
0.4375 0.125 1.5125
0.4375 0.0625 1.5125
0.5 0.125 1.5125
0.4375 0.0625 1.575
0.5 0.0625 1.575
0.4375 0 1.575
0.4375 0 1.5125
0.4375 0.125 1.575
0.5 0 1.5125
0.5 0.0625 1.5125
0.5625 0.125 1.5125
0.5625 0.0625 1.5125
0.625 0.125 1.5125
0.5625 0.0625 1.575
0.625 0.0625 1.575
0.5625 0 1.575
0.5625 0 1.5125
0.5625 0.125 1.575
0.625 0 1.5125
0.625 0.0625 1.5125
0.6875 0.125 1.5125
0.6875 0.0625 1.5125
0.75 0.125 1.5125
0.6875 0.0625 1.575
0.75 0.0625 1.575
0.6875 0 1.575
0.6875 0 1.5125
0.6875 0.125 1.575
0.75 0 1.5125
0.75 0.0625 1.5125
0.8125 0.125 1.5125
0.8125 0.0625 1.5125
0.875 0.125 1.5125
0.8125 0.0625 1.575
0.875 0.0625 1.575
0.8125 0 1.575
0.8125 0 1.5125
0.8125 0.125 1.575
0.875 0 1.5125
0.875 0.0625 1.5125
0.9375 0.125 1.5125
0.9375 0.0625 1.5125
1 0.125 1.5125
0.9375 0.0625 1.575
1 0.0625 1.575
0.9375 0 1.575
0.9375 0 1.5125
0.9375 0.125 1.575
1 0 1.5125
1 0.0625 1.5125
1.0625 0.125 1.5125
1.0625 0.0625 1.5125
1.125 0.125 1.5125
1.0625 0.0625 1.575
1.125 0.0625 1.575
1.0625 0 1.575
1.0625 0 1.5125
1.0625 0.125 1.575
1.125 0 1.5125
1.125 0.0625 1.5125
1.1875 0.125 1.5125
1.1875 0.0625 1.5125
1.25 0.125 1.5125
1.1875 0.0625 1.575
1.25 0.0625 1.575
1.1875 0 1.575
1.1875 0 1.5125
1.1875 0.125 1.575
1.25 0 1.5125
1.25 0.0625 1.5125
1.3125 0.125 1.5125
1.3125 0.0625 1.5125
1.375 0.125 1.5125
1.3125 0.0625 1.575
1.375 0.0625 1.575
1.3125 0 1.575
1.3125 0 1.5125
1.3125 0.125 1.575
1.375 0 1.5125
1.375 0.0625 1.5125
1.4375 0.125 1.5125
1.4375 0.0625 1.5125
1.5 0.125 1.5125
1.4375 0.0625 1.575
1.5 0.0625 1.575
1.4375 0 1.575
1.4375 0 1.5125
1.4375 0.125 1.575
1.5 0 1.5125
1.5 0.0625 1.5125
1.5625 0.125 1.5125
1.5625 0.0625 1.5125
1.625 0.125 1.5125
1.5625 0.0625 1.575
1.625 0.0625 1.575
1.5625 0 1.575
1.5625 0 1.5125
1.5625 0.125 1.575
1.625 0 1.5125
1.625 0.0625 1.5125
1.6875 0.125 1.5125
1.6875 0.0625 1.5125
1.75 0.125 1.5125
1.6875 0.0625 1.575
1.75 0.0625 1.575
1.6875 0 1.575
1.6875 0 1.5125
1.6875 0.125 1.575
1.75 0 1.5125
1.75 0.0625 1.5125
1.8125 0.125 1.5125
1.8125 0.0625 1.5125
1.875 0.125 1.5125
1.8125 0.0625 1.575
1.875 0.0625 1.575
1.8125 0 1.575
1.8125 0 1.5125
1.8125 0.125 1.575
1.875 0 1.5125
1.875 0.0625 1.5125
1.9375 0.125 1.5125
1.9375 0.0625 1.5125
2 0.125 1.5125
1.9375 0.0625 1.575
2 0.0625 1.575
1.9375 0 1.575
1.9375 0 1.5125
1.9375 0.125 1.575
2 0 1.5125
2 0.0625 1.5125
2.0625 0.125 1.5125
2.0625 0.0625 1.5125
2.125 0.125 1.5125
2.0625 0.0625 1.575
2.125 0.0625 1.575
2.0625 0 1.575
2.0625 0 1.5125
2.0625 0.125 1.575
2.125 0 1.5125
2.125 0.0625 1.5125
2.1875 0.125 1.5125
2.1875 0.0625 1.5125
2.25 0.125 1.5125
2.1875 0.0625 1.575
2.25 0.0625 1.575
2.1875 0 1.575
2.1875 0 1.5125
2.1875 0.125 1.575
2.25 0 1.5125
2.25 0.0625 1.5125
2.3125 0.125 1.5125
2.3125 0.0625 1.5125
2.375 0.125 1.5125
2.3125 0.0625 1.575
2.375 0.0625 1.575
2.3125 0 1.575
2.3125 0 1.5125
2.3125 0.125 1.575
2.375 0 1.5125
2.375 0.0625 1.5125
2.4375 0.125 1.5125
2.4375 0.0625 1.5125
2.5 0.125 1.5125
2.4375 0.0625 1.575
2.5 0.0625 1.575
2.4375 0 1.575
2.4375 0 1.5125
2.4375 0.125 1.575
2.5 0 1.5125
2.5 0.0625 1.5125
2.5625 0.125 1.5125
2.5625 0.0625 1.5125
2.625 0.125 1.5125
2.5625 0.0625 1.575
2.625 0.0625 1.575
2.5625 0 1.575
2.5625 0 1.5125
2.5625 0.125 1.575
2.625 0 1.5125
2.625 0.0625 1.5125
2.6875 0.125 1.5125
2.6875 0.0625 1.5125
2.75 0.125 1.5125
2.6875 0.0625 1.575
2.75 0.0625 1.575
2.6875 0 1.575
2.6875 0 1.5125
2.6875 0.125 1.575
2.75 0 1.5125
2.75 0.0625 1.5125
2.8125 0.125 1.5125
2.8125 0.0625 1.5125
2.875 0.125 1.5125
2.8125 0.0625 1.575
2.875 0.0625 1.575
2.8125 0 1.575
2.8125 0 1.5125
2.8125 0.125 1.575
2.875 0 1.5125
2.875 0.0625 1.5125
2.9375 0.125 1.5125
2.9375 0.0625 1.5125
3 0.125 1.5125
2.9375 0.0625 1.575
3 0.0625 1.575
2.9375 0 1.575
2.9375 0 1.5125
2.9375 0.125 1.575
3 0 1.5125
3 0.0625 1.5125
3.0625 0.125 1.5125
3.0625 0.0625 1.5125
3.125 0.125 1.5125
3.0625 0.0625 1.575
3.125 0.0625 1.575
3.0625 0 1.575
3.0625 0 1.5125
3.0625 0.125 1.575
3.125 0 1.5125
3.125 0.0625 1.5125
3.1875 0.125 1.5125
3.1875 0.0625 1.5125
3.25 0.125 1.5125
3.1875 0.0625 1.575
3.25 0.0625 1.575
3.1875 0 1.575
3.1875 0 1.5125
3.1875 0.125 1.575
3.25 0 1.5125
3.25 0.0625 1.5125
3.3125 0.125 1.5125
3.3125 0.0625 1.5125
3.375 0.125 1.5125
3.3125 0.0625 1.575
3.375 0.0625 1.575
3.3125 0 1.575
3.3125 0 1.5125
3.3125 0.125 1.575
3.375 0 1.5125
3.375 0.0625 1.5125
3.4375 0.125 1.5125
3.4375 0.0625 1.5125
3.5 0.125 1.5125
3.4375 0.0625 1.575
3.5 0.0625 1.575
3.4375 0 1.575
3.4375 0 1.5125
3.4375 0.125 1.575
3.5 0 1.5125
3.5 0.0625 1.5125
3.5625 0.125 1.5125
3.5625 0.0625 1.5125
3.625 0.125 1.5125
3.5625 0.0625 1.575
3.625 0.0625 1.575
3.5625 0 1.575
3.5625 0 1.5125
3.5625 0.125 1.575
3.625 0 1.5125
3.625 0.0625 1.5125
3.6875 0.125 1.5125
3.6875 0.0625 1.5125
3.75 0.125 1.5125
3.6875 0.0625 1.575
3.75 0.0625 1.575
3.6875 0 1.575
3.6875 0 1.5125
3.6875 0.125 1.575
3.75 0 1.5125
3.75 0.0625 1.5125
3.8125 0.125 1.5125
3.8125 0.0625 1.5125
3.875 0.125 1.5125
3.8125 0.0625 1.575
3.875 0.0625 1.575
3.8125 0 1.575
3.8125 0 1.5125
3.8125 0.125 1.575
3.875 0 1.5125
3.875 0.0625 1.5125
3.9375 0.125 1.5125
3.9375 0.0625 1.5125
4 0.125 1.5125
3.9375 0.0625 1.575
4 0.0625 1.575
3.9375 0 1.575
3.9375 0 1.5125
3.9375 0.125 1.575
4 0 1.5125
4 0.0625 1.5125
0.0625 0.25 1.5125
0.0625 0.1875 1.5125
0.125 0.25 1.5125
0.0625 0.1875 1.575
0.125 0.1875 1.575
0 0.25 1.5125
0 0.1875 1.5125
0.0625 0.25 1.575
0 0.1875 1.575
0.125 0.1875 1.5125
0.1875 0.25 1.5125
0.1875 0.1875 1.5125
0.25 0.25 1.5125
0.1875 0.1875 1.575
0.25 0.1875 1.575
0.1875 0.25 1.575
0.25 0.1875 1.5125
0.3125 0.25 1.5125
0.3125 0.1875 1.5125
0.375 0.25 1.5125
0.3125 0.1875 1.575
0.375 0.1875 1.575
0.3125 0.25 1.575
0.375 0.1875 1.5125
0.4375 0.25 1.5125
0.4375 0.1875 1.5125
0.5 0.25 1.5125
0.4375 0.1875 1.575
0.5 0.1875 1.575
0.4375 0.25 1.575
0.5 0.1875 1.5125
0.5625 0.25 1.5125
0.5625 0.1875 1.5125
0.625 0.25 1.5125
0.5625 0.1875 1.575
0.625 0.1875 1.575
0.5625 0.25 1.575
0.625 0.1875 1.5125
0.6875 0.25 1.5125
0.6875 0.1875 1.5125
0.75 0.25 1.5125
0.6875 0.1875 1.575
0.75 0.1875 1.575
0.6875 0.25 1.575
0.75 0.1875 1.5125
0.8125 0.25 1.5125
0.8125 0.1875 1.5125
0.875 0.25 1.5125
0.8125 0.1875 1.575
0.875 0.1875 1.575
0.8125 0.25 1.575
0.875 0.1875 1.5125
0.9375 0.25 1.5125
0.9375 0.1875 1.5125
1 0.25 1.5125
0.9375 0.1875 1.575
1 0.1875 1.575
0.9375 0.25 1.575
1 0.1875 1.5125
1.0625 0.25 1.5125
1.0625 0.1875 1.5125
1.125 0.25 1.5125
1.0625 0.1875 1.575
1.125 0.1875 1.575
1.0625 0.25 1.575
1.125 0.1875 1.5125
1.1875 0.25 1.5125
1.1875 0.1875 1.5125
1.25 0.25 1.5125
1.1875 0.1875 1.575
1.25 0.1875 1.575
1.1875 0.25 1.575
1.25 0.1875 1.5125
1.3125 0.25 1.5125
1.3125 0.1875 1.5125
1.375 0.25 1.5125
1.3125 0.1875 1.575
1.375 0.1875 1.575
1.3125 0.25 1.575
1.375 0.1875 1.5125
1.4375 0.25 1.5125
1.4375 0.1875 1.5125
1.5 0.25 1.5125
1.4375 0.1875 1.575
1.5 0.1875 1.575
1.4375 0.25 1.575
1.5 0.1875 1.5125
1.5625 0.25 1.5125
1.5625 0.1875 1.5125
1.625 0.25 1.5125
1.5625 0.1875 1.575
1.625 0.1875 1.575
1.5625 0.25 1.575
1.625 0.1875 1.5125
1.6875 0.25 1.5125
1.6875 0.1875 1.5125
1.75 0.25 1.5125
1.6875 0.1875 1.575
1.75 0.1875 1.575
1.6875 0.25 1.575
1.75 0.1875 1.5125
1.8125 0.25 1.5125
1.8125 0.1875 1.5125
1.875 0.25 1.5125
1.8125 0.1875 1.575
1.875 0.1875 1.575
1.8125 0.25 1.575
1.875 0.1875 1.5125
1.9375 0.25 1.5125
1.9375 0.1875 1.5125
2 0.25 1.5125
1.9375 0.1875 1.575
2 0.1875 1.575
1.9375 0.25 1.575
2 0.1875 1.5125
2.0625 0.25 1.5125
2.0625 0.1875 1.5125
2.125 0.25 1.5125
2.0625 0.1875 1.575
2.125 0.1875 1.575
2.0625 0.25 1.575
2.125 0.1875 1.5125
2.1875 0.25 1.5125
2.1875 0.1875 1.5125
2.25 0.25 1.5125
2.1875 0.1875 1.575
2.25 0.1875 1.575
2.1875 0.25 1.575
2.25 0.1875 1.5125
2.3125 0.25 1.5125
2.3125 0.1875 1.5125
2.375 0.25 1.5125
2.3125 0.1875 1.575
2.375 0.1875 1.575
2.3125 0.25 1.575
2.375 0.1875 1.5125
2.4375 0.25 1.5125
2.4375 0.1875 1.5125
2.5 0.25 1.5125
2.4375 0.1875 1.575
2.5 0.1875 1.575
2.4375 0.25 1.575
2.5 0.1875 1.5125
2.5625 0.25 1.5125
2.5625 0.1875 1.5125
2.625 0.25 1.5125
2.5625 0.1875 1.575
2.625 0.1875 1.575
2.5625 0.25 1.575
2.625 0.1875 1.5125
2.6875 0.25 1.5125
2.6875 0.1875 1.5125
2.75 0.25 1.5125
2.6875 0.1875 1.575
2.75 0.1875 1.575
2.6875 0.25 1.575
2.75 0.1875 1.5125
2.8125 0.25 1.5125
2.8125 0.1875 1.5125
2.875 0.25 1.5125
2.8125 0.1875 1.575
2.875 0.1875 1.575
2.8125 0.25 1.575
2.875 0.1875 1.5125
2.9375 0.25 1.5125
2.9375 0.1875 1.5125
3 0.25 1.5125
2.9375 0.1875 1.575
3 0.1875 1.575
2.9375 0.25 1.575
3 0.1875 1.5125
3.0625 0.25 1.5125
3.0625 0.1875 1.5125
3.125 0.25 1.5125
3.0625 0.1875 1.575
3.125 0.1875 1.575
3.0625 0.25 1.575
3.125 0.1875 1.5125
3.1875 0.25 1.5125
3.1875 0.1875 1.5125
3.25 0.25 1.5125
3.1875 0.1875 1.575
3.25 0.1875 1.575
3.1875 0.25 1.575
3.25 0.1875 1.5125
3.3125 0.25 1.5125
3.3125 0.1875 1.5125
3.375 0.25 1.5125
3.3125 0.1875 1.575
3.375 0.1875 1.575
3.3125 0.25 1.575
3.375 0.1875 1.5125
3.4375 0.25 1.5125
3.4375 0.1875 1.5125
3.5 0.25 1.5125
3.4375 0.1875 1.575
3.5 0.1875 1.575
3.4375 0.25 1.575
3.5 0.1875 1.5125
3.5625 0.25 1.5125
3.5625 0.1875 1.5125
3.625 0.25 1.5125
3.5625 0.1875 1.575
3.625 0.1875 1.575
3.5625 0.25 1.575
3.625 0.1875 1.5125
3.6875 0.25 1.5125
3.6875 0.1875 1.5125
3.75 0.25 1.5125
3.6875 0.1875 1.575
3.75 0.1875 1.575
3.6875 0.25 1.575
3.75 0.1875 1.5125
3.8125 0.25 1.5125
3.8125 0.1875 1.5125
3.875 0.25 1.5125
3.8125 0.1875 1.575
3.875 0.1875 1.575
3.8125 0.25 1.575
3.875 0.1875 1.5125
3.9375 0.25 1.5125
3.9375 0.1875 1.5125
4 0.25 1.5125
3.9375 0.1875 1.575
4 0.1875 1.575
3.9375 0.25 1.575
4 0.1875 1.5125
0.0625 0.375 1.5125
0.0625 0.3125 1.5125
0.125 0.375 1.5125
0.0625 0.3125 1.575
0.125 0.3125 1.575
0 0.375 1.5125
0 0.3125 1.5125
0.0625 0.375 1.575
0 0.3125 1.575
0.125 0.3125 1.5125
0.1875 0.375 1.5125
0.1875 0.3125 1.5125
0.25 0.375 1.5125
0.1875 0.3125 1.575
0.25 0.3125 1.575
0.1875 0.375 1.575
0.25 0.3125 1.5125
0.3125 0.375 1.5125
0.3125 0.3125 1.5125
0.375 0.375 1.5125
0.3125 0.3125 1.575
0.375 0.3125 1.575
0.3125 0.375 1.575
0.375 0.3125 1.5125
0.4375 0.375 1.5125
0.4375 0.3125 1.5125
0.5 0.375 1.5125
0.4375 0.3125 1.575
0.5 0.3125 1.575
0.4375 0.375 1.575
0.5 0.3125 1.5125
0.5625 0.375 1.5125
0.5625 0.3125 1.5125
0.625 0.375 1.5125
0.5625 0.3125 1.575
0.625 0.3125 1.575
0.5625 0.375 1.575
0.625 0.3125 1.5125
0.6875 0.375 1.5125
0.6875 0.3125 1.5125
0.75 0.375 1.5125
0.6875 0.3125 1.575
0.75 0.3125 1.575
0.6875 0.375 1.575
0.75 0.3125 1.5125
0.8125 0.375 1.5125
0.8125 0.3125 1.5125
0.875 0.375 1.5125
0.8125 0.3125 1.575
0.875 0.3125 1.575
0.8125 0.375 1.575
0.875 0.3125 1.5125
0.9375 0.375 1.5125
0.9375 0.3125 1.5125
1 0.375 1.5125
0.9375 0.3125 1.575
1 0.3125 1.575
0.9375 0.375 1.575
1 0.3125 1.5125
1.0625 0.375 1.5125
1.0625 0.3125 1.5125
1.125 0.375 1.5125
1.0625 0.3125 1.575
1.125 0.3125 1.575
1.0625 0.375 1.575
1.125 0.3125 1.5125
1.1875 0.375 1.5125
1.1875 0.3125 1.5125
1.25 0.375 1.5125
1.1875 0.3125 1.575
1.25 0.3125 1.575
1.1875 0.375 1.575
1.25 0.3125 1.5125
1.3125 0.375 1.5125
1.3125 0.3125 1.5125
1.375 0.375 1.5125
1.3125 0.3125 1.575
1.375 0.3125 1.575
1.3125 0.375 1.575
1.375 0.3125 1.5125
1.4375 0.375 1.5125
1.4375 0.3125 1.5125
1.5 0.375 1.5125
1.4375 0.3125 1.575
1.5 0.3125 1.575
1.4375 0.375 1.575
1.5 0.3125 1.5125
1.5625 0.375 1.5125
1.5625 0.3125 1.5125
1.625 0.375 1.5125
1.5625 0.3125 1.575
1.625 0.3125 1.575
1.5625 0.375 1.575
1.625 0.3125 1.5125
1.6875 0.375 1.5125
1.6875 0.3125 1.5125
1.75 0.375 1.5125
1.6875 0.3125 1.575
1.75 0.3125 1.575
1.6875 0.375 1.575
1.75 0.3125 1.5125
1.8125 0.375 1.5125
1.8125 0.3125 1.5125
1.875 0.375 1.5125
1.8125 0.3125 1.575
1.875 0.3125 1.575
1.8125 0.375 1.575
1.875 0.3125 1.5125
1.9375 0.375 1.5125
1.9375 0.3125 1.5125
2 0.375 1.5125
1.9375 0.3125 1.575
2 0.3125 1.575
1.9375 0.375 1.575
2 0.3125 1.5125
2.0625 0.375 1.5125
2.0625 0.3125 1.5125
2.125 0.375 1.5125
2.0625 0.3125 1.575
2.125 0.3125 1.575
2.0625 0.375 1.575
2.125 0.3125 1.5125
2.1875 0.375 1.5125
2.1875 0.3125 1.5125
2.25 0.375 1.5125
2.1875 0.3125 1.575
2.25 0.3125 1.575
2.1875 0.375 1.575
2.25 0.3125 1.5125
2.3125 0.375 1.5125
2.3125 0.3125 1.5125
2.375 0.375 1.5125
2.3125 0.3125 1.575
2.375 0.3125 1.575
2.3125 0.375 1.575
2.375 0.3125 1.5125
2.4375 0.375 1.5125
2.4375 0.3125 1.5125
2.5 0.375 1.5125
2.4375 0.3125 1.575
2.5 0.3125 1.575
2.4375 0.375 1.575
2.5 0.3125 1.5125
2.5625 0.375 1.5125
2.5625 0.3125 1.5125
2.625 0.375 1.5125
2.5625 0.3125 1.575
2.625 0.3125 1.575
2.5625 0.375 1.575
2.625 0.3125 1.5125
2.6875 0.375 1.5125
2.6875 0.3125 1.5125
2.75 0.375 1.5125
2.6875 0.3125 1.575
2.75 0.3125 1.575
2.6875 0.375 1.575
2.75 0.3125 1.5125
2.8125 0.375 1.5125
2.8125 0.3125 1.5125
2.875 0.375 1.5125
2.8125 0.3125 1.575
2.875 0.3125 1.575
2.8125 0.375 1.575
2.875 0.3125 1.5125
2.9375 0.375 1.5125
2.9375 0.3125 1.5125
3 0.375 1.5125
2.9375 0.3125 1.575
3 0.3125 1.575
2.9375 0.375 1.575
3 0.3125 1.5125
3.0625 0.375 1.5125
3.0625 0.3125 1.5125
3.125 0.375 1.5125
3.0625 0.3125 1.575
3.125 0.3125 1.575
3.0625 0.375 1.575
3.125 0.3125 1.5125
3.1875 0.375 1.5125
3.1875 0.3125 1.5125
3.25 0.375 1.5125
3.1875 0.3125 1.575
3.25 0.3125 1.575
3.1875 0.375 1.575
3.25 0.3125 1.5125
3.3125 0.375 1.5125
3.3125 0.3125 1.5125
3.375 0.375 1.5125
3.3125 0.3125 1.575
3.375 0.3125 1.575
3.3125 0.375 1.575
3.375 0.3125 1.5125
3.4375 0.375 1.5125
3.4375 0.3125 1.5125
3.5 0.375 1.5125
3.4375 0.3125 1.575
3.5 0.3125 1.575
3.4375 0.375 1.575
3.5 0.3125 1.5125
3.5625 0.375 1.5125
3.5625 0.3125 1.5125
3.625 0.375 1.5125
3.5625 0.3125 1.575
3.625 0.3125 1.575
3.5625 0.375 1.575
3.625 0.3125 1.5125
3.6875 0.375 1.5125
3.6875 0.3125 1.5125
3.75 0.375 1.5125
3.6875 0.3125 1.575
3.75 0.3125 1.575
3.6875 0.375 1.575
3.75 0.3125 1.5125
3.8125 0.375 1.5125
3.8125 0.3125 1.5125
3.875 0.375 1.5125
3.8125 0.3125 1.575
3.875 0.3125 1.575
3.8125 0.375 1.575
3.875 0.3125 1.5125
3.9375 0.375 1.5125
3.9375 0.3125 1.5125
4 0.375 1.5125
3.9375 0.3125 1.575
4 0.3125 1.575
3.9375 0.375 1.575
4 0.3125 1.5125
0.0625 0.5 1.5125
0.0625 0.4375 1.5125
0.125 0.5 1.5125
0.0625 0.4375 1.575
0.125 0.4375 1.575
0 0.5 1.5125
0 0.4375 1.5125
0.0625 0.5 1.575
0 0.4375 1.575
0.125 0.4375 1.5125
0.1875 0.5 1.5125
0.1875 0.4375 1.5125
0.25 0.5 1.5125
0.1875 0.4375 1.575
0.25 0.4375 1.575
0.1875 0.5 1.575
0.25 0.4375 1.5125
0.3125 0.5 1.5125
0.3125 0.4375 1.5125
0.375 0.5 1.5125
0.3125 0.4375 1.575
0.375 0.4375 1.575
0.3125 0.5 1.575
0.375 0.4375 1.5125
0.4375 0.5 1.5125
0.4375 0.4375 1.5125
0.5 0.5 1.5125
0.4375 0.4375 1.575
0.5 0.4375 1.575
0.4375 0.5 1.575
0.5 0.4375 1.5125
0.5625 0.5 1.5125
0.5625 0.4375 1.5125
0.625 0.5 1.5125
0.5625 0.4375 1.575
0.625 0.4375 1.575
0.5625 0.5 1.575
0.625 0.4375 1.5125
0.6875 0.5 1.5125
0.6875 0.4375 1.5125
0.75 0.5 1.5125
0.6875 0.4375 1.575
0.75 0.4375 1.575
0.6875 0.5 1.575
0.75 0.4375 1.5125
0.8125 0.5 1.5125
0.8125 0.4375 1.5125
0.875 0.5 1.5125
0.8125 0.4375 1.575
0.875 0.4375 1.575
0.8125 0.5 1.575
0.875 0.4375 1.5125
0.9375 0.5 1.5125
0.9375 0.4375 1.5125
1 0.5 1.5125
0.9375 0.4375 1.575
1 0.4375 1.575
0.9375 0.5 1.575
1 0.4375 1.5125
1.0625 0.5 1.5125
1.0625 0.4375 1.5125
1.125 0.5 1.5125
1.0625 0.4375 1.575
1.125 0.4375 1.575
1.0625 0.5 1.575
1.125 0.4375 1.5125
1.1875 0.5 1.5125
1.1875 0.4375 1.5125
1.25 0.5 1.5125
1.1875 0.4375 1.575
1.25 0.4375 1.575
1.1875 0.5 1.575
1.25 0.4375 1.5125
1.3125 0.5 1.5125
1.3125 0.4375 1.5125
1.375 0.5 1.5125
1.3125 0.4375 1.575
1.375 0.4375 1.575
1.3125 0.5 1.575
1.375 0.4375 1.5125
1.4375 0.5 1.5125
1.4375 0.4375 1.5125
1.5 0.5 1.5125
1.4375 0.4375 1.575
1.5 0.4375 1.575
1.4375 0.5 1.575
1.5 0.4375 1.5125
1.5625 0.5 1.5125
1.5625 0.4375 1.5125
1.625 0.5 1.5125
1.5625 0.4375 1.575
1.625 0.4375 1.575
1.5625 0.5 1.575
1.625 0.4375 1.5125
1.6875 0.5 1.5125
1.6875 0.4375 1.5125
1.75 0.5 1.5125
1.6875 0.4375 1.575
1.75 0.4375 1.575
1.6875 0.5 1.575
1.75 0.4375 1.5125
1.8125 0.5 1.5125
1.8125 0.4375 1.5125
1.875 0.5 1.5125
1.8125 0.4375 1.575
1.875 0.4375 1.575
1.8125 0.5 1.575
1.875 0.4375 1.5125
1.9375 0.5 1.5125
1.9375 0.4375 1.5125
2 0.5 1.5125
1.9375 0.4375 1.575
2 0.4375 1.575
1.9375 0.5 1.575
2 0.4375 1.5125
2.0625 0.5 1.5125
2.0625 0.4375 1.5125
2.125 0.5 1.5125
2.0625 0.4375 1.575
2.125 0.4375 1.575
2.0625 0.5 1.575
2.125 0.4375 1.5125
2.1875 0.5 1.5125
2.1875 0.4375 1.5125
2.25 0.5 1.5125
2.1875 0.4375 1.575
2.25 0.4375 1.575
2.1875 0.5 1.575
2.25 0.4375 1.5125
2.3125 0.5 1.5125
2.3125 0.4375 1.5125
2.375 0.5 1.5125
2.3125 0.4375 1.575
2.375 0.4375 1.575
2.3125 0.5 1.575
2.375 0.4375 1.5125
2.4375 0.5 1.5125
2.4375 0.4375 1.5125
2.5 0.5 1.5125
2.4375 0.4375 1.575
2.5 0.4375 1.575
2.4375 0.5 1.575
2.5 0.4375 1.5125
2.5625 0.5 1.5125
2.5625 0.4375 1.5125
2.625 0.5 1.5125
2.5625 0.4375 1.575
2.625 0.4375 1.575
2.5625 0.5 1.575
2.625 0.4375 1.5125
2.6875 0.5 1.5125
2.6875 0.4375 1.5125
2.75 0.5 1.5125
2.6875 0.4375 1.575
2.75 0.4375 1.575
2.6875 0.5 1.575
2.75 0.4375 1.5125
2.8125 0.5 1.5125
2.8125 0.4375 1.5125
2.875 0.5 1.5125
2.8125 0.4375 1.575
2.875 0.4375 1.575
2.8125 0.5 1.575
2.875 0.4375 1.5125
2.9375 0.5 1.5125
2.9375 0.4375 1.5125
3 0.5 1.5125
2.9375 0.4375 1.575
3 0.4375 1.575
2.9375 0.5 1.575
3 0.4375 1.5125
3.0625 0.5 1.5125
3.0625 0.4375 1.5125
3.125 0.5 1.5125
3.0625 0.4375 1.575
3.125 0.4375 1.575
3.0625 0.5 1.575
3.125 0.4375 1.5125
3.1875 0.5 1.5125
3.1875 0.4375 1.5125
3.25 0.5 1.5125
3.1875 0.4375 1.575
3.25 0.4375 1.575
3.1875 0.5 1.575
3.25 0.4375 1.5125
3.3125 0.5 1.5125
3.3125 0.4375 1.5125
3.375 0.5 1.5125
3.3125 0.4375 1.575
3.375 0.4375 1.575
3.3125 0.5 1.575
3.375 0.4375 1.5125
3.4375 0.5 1.5125
3.4375 0.4375 1.5125
3.5 0.5 1.5125
3.4375 0.4375 1.575
3.5 0.4375 1.575
3.4375 0.5 1.575
3.5 0.4375 1.5125
3.5625 0.5 1.5125
3.5625 0.4375 1.5125
3.625 0.5 1.5125
3.5625 0.4375 1.575
3.625 0.4375 1.575
3.5625 0.5 1.575
3.625 0.4375 1.5125
3.6875 0.5 1.5125
3.6875 0.4375 1.5125
3.75 0.5 1.5125
3.6875 0.4375 1.575
3.75 0.4375 1.575
3.6875 0.5 1.575
3.75 0.4375 1.5125
3.8125 0.5 1.5125
3.8125 0.4375 1.5125
3.875 0.5 1.5125
3.8125 0.4375 1.575
3.875 0.4375 1.575
3.8125 0.5 1.575
3.875 0.4375 1.5125
3.9375 0.5 1.5125
3.9375 0.4375 1.5125
4 0.5 1.5125
3.9375 0.4375 1.575
4 0.4375 1.575
3.9375 0.5 1.575
4 0.4375 1.5125
0.0625 0.625 1.5125
0.0625 0.5625 1.5125
0.125 0.625 1.5125
0.0625 0.5625 1.575
0.125 0.5625 1.575
0 0.625 1.5125
0 0.5625 1.5125
0.0625 0.625 1.575
0 0.5625 1.575
0.125 0.5625 1.5125
0.1875 0.625 1.5125
0.1875 0.5625 1.5125
0.25 0.625 1.5125
0.1875 0.5625 1.575
0.25 0.5625 1.575
0.1875 0.625 1.575
0.25 0.5625 1.5125
0.3125 0.625 1.5125
0.3125 0.5625 1.5125
0.375 0.625 1.5125
0.3125 0.5625 1.575
0.375 0.5625 1.575
0.3125 0.625 1.575
0.375 0.5625 1.5125
0.4375 0.625 1.5125
0.4375 0.5625 1.5125
0.5 0.625 1.5125
0.4375 0.5625 1.575
0.5 0.5625 1.575
0.4375 0.625 1.575
0.5 0.5625 1.5125
0.5625 0.625 1.5125
0.5625 0.5625 1.5125
0.625 0.625 1.5125
0.5625 0.5625 1.575
0.625 0.5625 1.575
0.5625 0.625 1.575
0.625 0.5625 1.5125
0.6875 0.625 1.5125
0.6875 0.5625 1.5125
0.75 0.625 1.5125
0.6875 0.5625 1.575
0.75 0.5625 1.575
0.6875 0.625 1.575
0.75 0.5625 1.5125
0.8125 0.625 1.5125
0.8125 0.5625 1.5125
0.875 0.625 1.5125
0.8125 0.5625 1.575
0.875 0.5625 1.575
0.8125 0.625 1.575
0.875 0.5625 1.5125
0.9375 0.625 1.5125
0.9375 0.5625 1.5125
1 0.625 1.5125
0.9375 0.5625 1.575
1 0.5625 1.575
0.9375 0.625 1.575
1 0.5625 1.5125
1.0625 0.625 1.5125
1.0625 0.5625 1.5125
1.125 0.625 1.5125
1.0625 0.5625 1.575
1.125 0.5625 1.575
1.0625 0.625 1.575
1.125 0.5625 1.5125
1.1875 0.625 1.5125
1.1875 0.5625 1.5125
1.25 0.625 1.5125
1.1875 0.5625 1.575
1.25 0.5625 1.575
1.1875 0.625 1.575
1.25 0.5625 1.5125
1.3125 0.625 1.5125
1.3125 0.5625 1.5125
1.375 0.625 1.5125
1.3125 0.5625 1.575
1.375 0.5625 1.575
1.3125 0.625 1.575
1.375 0.5625 1.5125
1.4375 0.625 1.5125
1.4375 0.5625 1.5125
1.5 0.625 1.5125
1.4375 0.5625 1.575
1.5 0.5625 1.575
1.4375 0.625 1.575
1.5 0.5625 1.5125
1.5625 0.625 1.5125
1.5625 0.5625 1.5125
1.625 0.625 1.5125
1.5625 0.5625 1.575
1.625 0.5625 1.575
1.5625 0.625 1.575
1.625 0.5625 1.5125
1.6875 0.625 1.5125
1.6875 0.5625 1.5125
1.75 0.625 1.5125
1.6875 0.5625 1.575
1.75 0.5625 1.575
1.6875 0.625 1.575
1.75 0.5625 1.5125
1.8125 0.625 1.5125
1.8125 0.5625 1.5125
1.875 0.625 1.5125
1.8125 0.5625 1.575
1.875 0.5625 1.575
1.8125 0.625 1.575
1.875 0.5625 1.5125
1.9375 0.625 1.5125
1.9375 0.5625 1.5125
2 0.625 1.5125
1.9375 0.5625 1.575
2 0.5625 1.575
1.9375 0.625 1.575
2 0.5625 1.5125
2.0625 0.625 1.5125
2.0625 0.5625 1.5125
2.125 0.625 1.5125
2.0625 0.5625 1.575
2.125 0.5625 1.575
2.0625 0.625 1.575
2.125 0.5625 1.5125
2.1875 0.625 1.5125
2.1875 0.5625 1.5125
2.25 0.625 1.5125
2.1875 0.5625 1.575
2.25 0.5625 1.575
2.1875 0.625 1.575
2.25 0.5625 1.5125
2.3125 0.625 1.5125
2.3125 0.5625 1.5125
2.375 0.625 1.5125
2.3125 0.5625 1.575
2.375 0.5625 1.575
2.3125 0.625 1.575
2.375 0.5625 1.5125
2.4375 0.625 1.5125
2.4375 0.5625 1.5125
2.5 0.625 1.5125
2.4375 0.5625 1.575
2.5 0.5625 1.575
2.4375 0.625 1.575
2.5 0.5625 1.5125
2.5625 0.625 1.5125
2.5625 0.5625 1.5125
2.625 0.625 1.5125
2.5625 0.5625 1.575
2.625 0.5625 1.575
2.5625 0.625 1.575
2.625 0.5625 1.5125
2.6875 0.625 1.5125
2.6875 0.5625 1.5125
2.75 0.625 1.5125
2.6875 0.5625 1.575
2.75 0.5625 1.575
2.6875 0.625 1.575
2.75 0.5625 1.5125
2.8125 0.625 1.5125
2.8125 0.5625 1.5125
2.875 0.625 1.5125
2.8125 0.5625 1.575
2.875 0.5625 1.575
2.8125 0.625 1.575
2.875 0.5625 1.5125
2.9375 0.625 1.5125
2.9375 0.5625 1.5125
3 0.625 1.5125
2.9375 0.5625 1.575
3 0.5625 1.575
2.9375 0.625 1.575
3 0.5625 1.5125
3.0625 0.625 1.5125
3.0625 0.5625 1.5125
3.125 0.625 1.5125
3.0625 0.5625 1.575
3.125 0.5625 1.575
3.0625 0.625 1.575
3.125 0.5625 1.5125
3.1875 0.625 1.5125
3.1875 0.5625 1.5125
3.25 0.625 1.5125
3.1875 0.5625 1.575
3.25 0.5625 1.575
3.1875 0.625 1.575
3.25 0.5625 1.5125
3.3125 0.625 1.5125
3.3125 0.5625 1.5125
3.375 0.625 1.5125
3.3125 0.5625 1.575
3.375 0.5625 1.575
3.3125 0.625 1.575
3.375 0.5625 1.5125
3.4375 0.625 1.5125
3.4375 0.5625 1.5125
3.5 0.625 1.5125
3.4375 0.5625 1.575
3.5 0.5625 1.575
3.4375 0.625 1.575
3.5 0.5625 1.5125
3.5625 0.625 1.5125
3.5625 0.5625 1.5125
3.625 0.625 1.5125
3.5625 0.5625 1.575
3.625 0.5625 1.575
3.5625 0.625 1.575
3.625 0.5625 1.5125
3.6875 0.625 1.5125
3.6875 0.5625 1.5125
3.75 0.625 1.5125
3.6875 0.5625 1.575
3.75 0.5625 1.575
3.6875 0.625 1.575
3.75 0.5625 1.5125
3.8125 0.625 1.5125
3.8125 0.5625 1.5125
3.875 0.625 1.5125
3.8125 0.5625 1.575
3.875 0.5625 1.575
3.8125 0.625 1.575
3.875 0.5625 1.5125
3.9375 0.625 1.5125
3.9375 0.5625 1.5125
4 0.625 1.5125
3.9375 0.5625 1.575
4 0.5625 1.575
3.9375 0.625 1.575
4 0.5625 1.5125
0.0625 0.75 1.5125
0.0625 0.6875 1.5125
0.125 0.75 1.5125
0.0625 0.6875 1.575
0.125 0.6875 1.575
0 0.75 1.5125
0 0.6875 1.5125
0.0625 0.75 1.575
0 0.6875 1.575
0.125 0.6875 1.5125
0.1875 0.75 1.5125
0.1875 0.6875 1.5125
0.25 0.75 1.5125
0.1875 0.6875 1.575
0.25 0.6875 1.575
0.1875 0.75 1.575
0.25 0.6875 1.5125
0.3125 0.75 1.5125
0.3125 0.6875 1.5125
0.375 0.75 1.5125
0.3125 0.6875 1.575
0.375 0.6875 1.575
0.3125 0.75 1.575
0.375 0.6875 1.5125
0.4375 0.75 1.5125
0.4375 0.6875 1.5125
0.5 0.75 1.5125
0.4375 0.6875 1.575
0.5 0.6875 1.575
0.4375 0.75 1.575
0.5 0.6875 1.5125
0.5625 0.75 1.5125
0.5625 0.6875 1.5125
0.625 0.75 1.5125
0.5625 0.6875 1.575
0.625 0.6875 1.575
0.5625 0.75 1.575
0.625 0.6875 1.5125
0.6875 0.75 1.5125
0.6875 0.6875 1.5125
0.75 0.75 1.5125
0.6875 0.6875 1.575
0.75 0.6875 1.575
0.6875 0.75 1.575
0.75 0.6875 1.5125
0.8125 0.75 1.5125
0.8125 0.6875 1.5125
0.875 0.75 1.5125
0.8125 0.6875 1.575
0.875 0.6875 1.575
0.8125 0.75 1.575
0.875 0.6875 1.5125
0.9375 0.75 1.5125
0.9375 0.6875 1.5125
1 0.75 1.5125
0.9375 0.6875 1.575
1 0.6875 1.575
0.9375 0.75 1.575
1 0.6875 1.5125
1.0625 0.75 1.5125
1.0625 0.6875 1.5125
1.125 0.75 1.5125
1.0625 0.6875 1.575
1.125 0.6875 1.575
1.0625 0.75 1.575
1.125 0.6875 1.5125
1.1875 0.75 1.5125
1.1875 0.6875 1.5125
1.25 0.75 1.5125
1.1875 0.6875 1.575
1.25 0.6875 1.575
1.1875 0.75 1.575
1.25 0.6875 1.5125
1.3125 0.75 1.5125
1.3125 0.6875 1.5125
1.375 0.75 1.5125
1.3125 0.6875 1.575
1.375 0.6875 1.575
1.3125 0.75 1.575
1.375 0.6875 1.5125
1.4375 0.75 1.5125
1.4375 0.6875 1.5125
1.5 0.75 1.5125
1.4375 0.6875 1.575
1.5 0.6875 1.575
1.4375 0.75 1.575
1.5 0.6875 1.5125
1.5625 0.75 1.5125
1.5625 0.6875 1.5125
1.625 0.75 1.5125
1.5625 0.6875 1.575
1.625 0.6875 1.575
1.5625 0.75 1.575
1.625 0.6875 1.5125
1.6875 0.75 1.5125
1.6875 0.6875 1.5125
1.75 0.75 1.5125
1.6875 0.6875 1.575
1.75 0.6875 1.575
1.6875 0.75 1.575
1.75 0.6875 1.5125
1.8125 0.75 1.5125
1.8125 0.6875 1.5125
1.875 0.75 1.5125
1.8125 0.6875 1.575
1.875 0.6875 1.575
1.8125 0.75 1.575
1.875 0.6875 1.5125
1.9375 0.75 1.5125
1.9375 0.6875 1.5125
2 0.75 1.5125
1.9375 0.6875 1.575
2 0.6875 1.575
1.9375 0.75 1.575
2 0.6875 1.5125
2.0625 0.75 1.5125
2.0625 0.6875 1.5125
2.125 0.75 1.5125
2.0625 0.6875 1.575
2.125 0.6875 1.575
2.0625 0.75 1.575
2.125 0.6875 1.5125
2.1875 0.75 1.5125
2.1875 0.6875 1.5125
2.25 0.75 1.5125
2.1875 0.6875 1.575
2.25 0.6875 1.575
2.1875 0.75 1.575
2.25 0.6875 1.5125
2.3125 0.75 1.5125
2.3125 0.6875 1.5125
2.375 0.75 1.5125
2.3125 0.6875 1.575
2.375 0.6875 1.575
2.3125 0.75 1.575
2.375 0.6875 1.5125
2.4375 0.75 1.5125
2.4375 0.6875 1.5125
2.5 0.75 1.5125
2.4375 0.6875 1.575
2.5 0.6875 1.575
2.4375 0.75 1.575
2.5 0.6875 1.5125
2.5625 0.75 1.5125
2.5625 0.6875 1.5125
2.625 0.75 1.5125
2.5625 0.6875 1.575
2.625 0.6875 1.575
2.5625 0.75 1.575
2.625 0.6875 1.5125
2.6875 0.75 1.5125
2.6875 0.6875 1.5125
2.75 0.75 1.5125
2.6875 0.6875 1.575
2.75 0.6875 1.575
2.6875 0.75 1.575
2.75 0.6875 1.5125
2.8125 0.75 1.5125
2.8125 0.6875 1.5125
2.875 0.75 1.5125
2.8125 0.6875 1.575
2.875 0.6875 1.575
2.8125 0.75 1.575
2.875 0.6875 1.5125
2.9375 0.75 1.5125
2.9375 0.6875 1.5125
3 0.75 1.5125
2.9375 0.6875 1.575
3 0.6875 1.575
2.9375 0.75 1.575
3 0.6875 1.5125
3.0625 0.75 1.5125
3.0625 0.6875 1.5125
3.125 0.75 1.5125
3.0625 0.6875 1.575
3.125 0.6875 1.575
3.0625 0.75 1.575
3.125 0.6875 1.5125
3.1875 0.75 1.5125
3.1875 0.6875 1.5125
3.25 0.75 1.5125
3.1875 0.6875 1.575
3.25 0.6875 1.575
3.1875 0.75 1.575
3.25 0.6875 1.5125
3.3125 0.75 1.5125
3.3125 0.6875 1.5125
3.375 0.75 1.5125
3.3125 0.6875 1.575
3.375 0.6875 1.575
3.3125 0.75 1.575
3.375 0.6875 1.5125
3.4375 0.75 1.5125
3.4375 0.6875 1.5125
3.5 0.75 1.5125
3.4375 0.6875 1.575
3.5 0.6875 1.575
3.4375 0.75 1.575
3.5 0.6875 1.5125
3.5625 0.75 1.5125
3.5625 0.6875 1.5125
3.625 0.75 1.5125
3.5625 0.6875 1.575
3.625 0.6875 1.575
3.5625 0.75 1.575
3.625 0.6875 1.5125
3.6875 0.75 1.5125
3.6875 0.6875 1.5125
3.75 0.75 1.5125
3.6875 0.6875 1.575
3.75 0.6875 1.575
3.6875 0.75 1.575
3.75 0.6875 1.5125
3.8125 0.75 1.5125
3.8125 0.6875 1.5125
3.875 0.75 1.5125
3.8125 0.6875 1.575
3.875 0.6875 1.575
3.8125 0.75 1.575
3.875 0.6875 1.5125
3.9375 0.75 1.5125
3.9375 0.6875 1.5125
4 0.75 1.5125
3.9375 0.6875 1.575
4 0.6875 1.575
3.9375 0.75 1.575
4 0.6875 1.5125
0.0625 0.875 1.5125
0.0625 0.8125 1.5125
0.125 0.875 1.5125
0.0625 0.8125 1.575
0.125 0.8125 1.575
0 0.875 1.5125
0 0.8125 1.5125
0.0625 0.875 1.575
0 0.8125 1.575
0.125 0.8125 1.5125
0.1875 0.875 1.5125
0.1875 0.8125 1.5125
0.25 0.875 1.5125
0.1875 0.8125 1.575
0.25 0.8125 1.575
0.1875 0.875 1.575
0.25 0.8125 1.5125
0.3125 0.875 1.5125
0.3125 0.8125 1.5125
0.375 0.875 1.5125
0.3125 0.8125 1.575
0.375 0.8125 1.575
0.3125 0.875 1.575
0.375 0.8125 1.5125
0.4375 0.875 1.5125
0.4375 0.8125 1.5125
0.5 0.875 1.5125
0.4375 0.8125 1.575
0.5 0.8125 1.575
0.4375 0.875 1.575
0.5 0.8125 1.5125
0.5625 0.875 1.5125
0.5625 0.8125 1.5125
0.625 0.875 1.5125
0.5625 0.8125 1.575
0.625 0.8125 1.575
0.5625 0.875 1.575
0.625 0.8125 1.5125
0.6875 0.875 1.5125
0.6875 0.8125 1.5125
0.75 0.875 1.5125
0.6875 0.8125 1.575
0.75 0.8125 1.575
0.6875 0.875 1.575
0.75 0.8125 1.5125
0.8125 0.875 1.5125
0.8125 0.8125 1.5125
0.875 0.875 1.5125
0.8125 0.8125 1.575
0.875 0.8125 1.575
0.8125 0.875 1.575
0.875 0.8125 1.5125
0.9375 0.875 1.5125
0.9375 0.8125 1.5125
1 0.875 1.5125
0.9375 0.8125 1.575
1 0.8125 1.575
0.9375 0.875 1.575
1 0.8125 1.5125
1.0625 0.875 1.5125
1.0625 0.8125 1.5125
1.125 0.875 1.5125
1.0625 0.8125 1.575
1.125 0.8125 1.575
1.0625 0.875 1.575
1.125 0.8125 1.5125
1.1875 0.875 1.5125
1.1875 0.8125 1.5125
1.25 0.875 1.5125
1.1875 0.8125 1.575
1.25 0.8125 1.575
1.1875 0.875 1.575
1.25 0.8125 1.5125
1.3125 0.875 1.5125
1.3125 0.8125 1.5125
1.375 0.875 1.5125
1.3125 0.8125 1.575
1.375 0.8125 1.575
1.3125 0.875 1.575
1.375 0.8125 1.5125
1.4375 0.875 1.5125
1.4375 0.8125 1.5125
1.5 0.875 1.5125
1.4375 0.8125 1.575
1.5 0.8125 1.575
1.4375 0.875 1.575
1.5 0.8125 1.5125
1.5625 0.875 1.5125
1.5625 0.8125 1.5125
1.625 0.875 1.5125
1.5625 0.8125 1.575
1.625 0.8125 1.575
1.5625 0.875 1.575
1.625 0.8125 1.5125
1.6875 0.875 1.5125
1.6875 0.8125 1.5125
1.75 0.875 1.5125
1.6875 0.8125 1.575
1.75 0.8125 1.575
1.6875 0.875 1.575
1.75 0.8125 1.5125
1.8125 0.875 1.5125
1.8125 0.8125 1.5125
1.875 0.875 1.5125
1.8125 0.8125 1.575
1.875 0.8125 1.575
1.8125 0.875 1.575
1.875 0.8125 1.5125
1.9375 0.875 1.5125
1.9375 0.8125 1.5125
2 0.875 1.5125
1.9375 0.8125 1.575
2 0.8125 1.575
1.9375 0.875 1.575
2 0.8125 1.5125
2.0625 0.875 1.5125
2.0625 0.8125 1.5125
2.125 0.875 1.5125
2.0625 0.8125 1.575
2.125 0.8125 1.575
2.0625 0.875 1.575
2.125 0.8125 1.5125
2.1875 0.875 1.5125
2.1875 0.8125 1.5125
2.25 0.875 1.5125
2.1875 0.8125 1.575
2.25 0.8125 1.575
2.1875 0.875 1.575
2.25 0.8125 1.5125
2.3125 0.875 1.5125
2.3125 0.8125 1.5125
2.375 0.875 1.5125
2.3125 0.8125 1.575
2.375 0.8125 1.575
2.3125 0.875 1.575
2.375 0.8125 1.5125
2.4375 0.875 1.5125
2.4375 0.8125 1.5125
2.5 0.875 1.5125
2.4375 0.8125 1.575
2.5 0.8125 1.575
2.4375 0.875 1.575
2.5 0.8125 1.5125
2.5625 0.875 1.5125
2.5625 0.8125 1.5125
2.625 0.875 1.5125
2.5625 0.8125 1.575
2.625 0.8125 1.575
2.5625 0.875 1.575
2.625 0.8125 1.5125
2.6875 0.875 1.5125
2.6875 0.8125 1.5125
2.75 0.875 1.5125
2.6875 0.8125 1.575
2.75 0.8125 1.575
2.6875 0.875 1.575
2.75 0.8125 1.5125
2.8125 0.875 1.5125
2.8125 0.8125 1.5125
2.875 0.875 1.5125
2.8125 0.8125 1.575
2.875 0.8125 1.575
2.8125 0.875 1.575
2.875 0.8125 1.5125
2.9375 0.875 1.5125
2.9375 0.8125 1.5125
3 0.875 1.5125
2.9375 0.8125 1.575
3 0.8125 1.575
2.9375 0.875 1.575
3 0.8125 1.5125
3.0625 0.875 1.5125
3.0625 0.8125 1.5125
3.125 0.875 1.5125
3.0625 0.8125 1.575
3.125 0.8125 1.575
3.0625 0.875 1.575
3.125 0.8125 1.5125
3.1875 0.875 1.5125
3.1875 0.8125 1.5125
3.25 0.875 1.5125
3.1875 0.8125 1.575
3.25 0.8125 1.575
3.1875 0.875 1.575
3.25 0.8125 1.5125
3.3125 0.875 1.5125
3.3125 0.8125 1.5125
3.375 0.875 1.5125
3.3125 0.8125 1.575
3.375 0.8125 1.575
3.3125 0.875 1.575
3.375 0.8125 1.5125
3.4375 0.875 1.5125
3.4375 0.8125 1.5125
3.5 0.875 1.5125
3.4375 0.8125 1.575
3.5 0.8125 1.575
3.4375 0.875 1.575
3.5 0.8125 1.5125
3.5625 0.875 1.5125
3.5625 0.8125 1.5125
3.625 0.875 1.5125
3.5625 0.8125 1.575
3.625 0.8125 1.575
3.5625 0.875 1.575
3.625 0.8125 1.5125
3.6875 0.875 1.5125
3.6875 0.8125 1.5125
3.75 0.875 1.5125
3.6875 0.8125 1.575
3.75 0.8125 1.575
3.6875 0.875 1.575
3.75 0.8125 1.5125
3.8125 0.875 1.5125
3.8125 0.8125 1.5125
3.875 0.875 1.5125
3.8125 0.8125 1.575
3.875 0.8125 1.575
3.8125 0.875 1.575
3.875 0.8125 1.5125
3.9375 0.875 1.5125
3.9375 0.8125 1.5125
4 0.875 1.5125
3.9375 0.8125 1.575
4 0.8125 1.575
3.9375 0.875 1.575
4 0.8125 1.5125
0.0625 1 1.5125
0.0625 0.9375 1.5125
0.125 1 1.5125
0.0625 0.9375 1.575
0.125 0.9375 1.575
0 1 1.5125
0 0.9375 1.5125
0.0625 1 1.575
0 0.9375 1.575
0.125 0.9375 1.5125
0.1875 1 1.5125
0.1875 0.9375 1.5125
0.25 1 1.5125
0.1875 0.9375 1.575
0.25 0.9375 1.575
0.1875 1 1.575
0.25 0.9375 1.5125
0.3125 1 1.5125
0.3125 0.9375 1.5125
0.375 1 1.5125
0.3125 0.9375 1.575
0.375 0.9375 1.575
0.3125 1 1.575
0.375 0.9375 1.5125
0.4375 1 1.5125
0.4375 0.9375 1.5125
0.5 1 1.5125
0.4375 0.9375 1.575
0.5 0.9375 1.575
0.4375 1 1.575
0.5 0.9375 1.5125
0.5625 1 1.5125
0.5625 0.9375 1.5125
0.625 1 1.5125
0.5625 0.9375 1.575
0.625 0.9375 1.575
0.5625 1 1.575
0.625 0.9375 1.5125
0.6875 1 1.5125
0.6875 0.9375 1.5125
0.75 1 1.5125
0.6875 0.9375 1.575
0.75 0.9375 1.575
0.6875 1 1.575
0.75 0.9375 1.5125
0.8125 1 1.5125
0.8125 0.9375 1.5125
0.875 1 1.5125
0.8125 0.9375 1.575
0.875 0.9375 1.575
0.8125 1 1.575
0.875 0.9375 1.5125
0.9375 1 1.5125
0.9375 0.9375 1.5125
1 1 1.5125
0.9375 0.9375 1.575
1 0.9375 1.575
0.9375 1 1.575
1 0.9375 1.5125
1.0625 1 1.5125
1.0625 0.9375 1.5125
1.125 1 1.5125
1.0625 0.9375 1.575
1.125 0.9375 1.575
1.0625 1 1.575
1.125 0.9375 1.5125
1.1875 1 1.5125
1.1875 0.9375 1.5125
1.25 1 1.5125
1.1875 0.9375 1.575
1.25 0.9375 1.575
1.1875 1 1.575
1.25 0.9375 1.5125
1.3125 1 1.5125
1.3125 0.9375 1.5125
1.375 1 1.5125
1.3125 0.9375 1.575
1.375 0.9375 1.575
1.3125 1 1.575
1.375 0.9375 1.5125
1.4375 1 1.5125
1.4375 0.9375 1.5125
1.5 1 1.5125
1.4375 0.9375 1.575
1.5 0.9375 1.575
1.4375 1 1.575
1.5 0.9375 1.5125
1.5625 1 1.5125
1.5625 0.9375 1.5125
1.625 1 1.5125
1.5625 0.9375 1.575
1.625 0.9375 1.575
1.5625 1 1.575
1.625 0.9375 1.5125
1.6875 1 1.5125
1.6875 0.9375 1.5125
1.75 1 1.5125
1.6875 0.9375 1.575
1.75 0.9375 1.575
1.6875 1 1.575
1.75 0.9375 1.5125
1.8125 1 1.5125
1.8125 0.9375 1.5125
1.875 1 1.5125
1.8125 0.9375 1.575
1.875 0.9375 1.575
1.8125 1 1.575
1.875 0.9375 1.5125
1.9375 1 1.5125
1.9375 0.9375 1.5125
2 1 1.5125
1.9375 0.9375 1.575
2 0.9375 1.575
1.9375 1 1.575
2 0.9375 1.5125
2.0625 1 1.5125
2.0625 0.9375 1.5125
2.125 1 1.5125
2.0625 0.9375 1.575
2.125 0.9375 1.575
2.0625 1 1.575
2.125 0.9375 1.5125
2.1875 1 1.5125
2.1875 0.9375 1.5125
2.25 1 1.5125
2.1875 0.9375 1.575
2.25 0.9375 1.575
2.1875 1 1.575
2.25 0.9375 1.5125
2.3125 1 1.5125
2.3125 0.9375 1.5125
2.375 1 1.5125
2.3125 0.9375 1.575
2.375 0.9375 1.575
2.3125 1 1.575
2.375 0.9375 1.5125
2.4375 1 1.5125
2.4375 0.9375 1.5125
2.5 1 1.5125
2.4375 0.9375 1.575
2.5 0.9375 1.575
2.4375 1 1.575
2.5 0.9375 1.5125
2.5625 1 1.5125
2.5625 0.9375 1.5125
2.625 1 1.5125
2.5625 0.9375 1.575
2.625 0.9375 1.575
2.5625 1 1.575
2.625 0.9375 1.5125
2.6875 1 1.5125
2.6875 0.9375 1.5125
2.75 1 1.5125
2.6875 0.9375 1.575
2.75 0.9375 1.575
2.6875 1 1.575
2.75 0.9375 1.5125
2.8125 1 1.5125
2.8125 0.9375 1.5125
2.875 1 1.5125
2.8125 0.9375 1.575
2.875 0.9375 1.575
2.8125 1 1.575
2.875 0.9375 1.5125
2.9375 1 1.5125
2.9375 0.9375 1.5125
3 1 1.5125
2.9375 0.9375 1.575
3 0.9375 1.575
2.9375 1 1.575
3 0.9375 1.5125
3.0625 1 1.5125
3.0625 0.9375 1.5125
3.125 1 1.5125
3.0625 0.9375 1.575
3.125 0.9375 1.575
3.0625 1 1.575
3.125 0.9375 1.5125
3.1875 1 1.5125
3.1875 0.9375 1.5125
3.25 1 1.5125
3.1875 0.9375 1.575
3.25 0.9375 1.575
3.1875 1 1.575
3.25 0.9375 1.5125
3.3125 1 1.5125
3.3125 0.9375 1.5125
3.375 1 1.5125
3.3125 0.9375 1.575
3.375 0.9375 1.575
3.3125 1 1.575
3.375 0.9375 1.5125
3.4375 1 1.5125
3.4375 0.9375 1.5125
3.5 1 1.5125
3.4375 0.9375 1.575
3.5 0.9375 1.575
3.4375 1 1.575
3.5 0.9375 1.5125
3.5625 1 1.5125
3.5625 0.9375 1.5125
3.625 1 1.5125
3.5625 0.9375 1.575
3.625 0.9375 1.575
3.5625 1 1.575
3.625 0.9375 1.5125
3.6875 1 1.5125
3.6875 0.9375 1.5125
3.75 1 1.5125
3.6875 0.9375 1.575
3.75 0.9375 1.575
3.6875 1 1.575
3.75 0.9375 1.5125
3.8125 1 1.5125
3.8125 0.9375 1.5125
3.875 1 1.5125
3.8125 0.9375 1.575
3.875 0.9375 1.575
3.8125 1 1.575
3.875 0.9375 1.5125
3.9375 1 1.5125
3.9375 0.9375 1.5125
4 1 1.5125
3.9375 0.9375 1.575
4 0.9375 1.575
3.9375 1 1.575
4 0.9375 1.5125
0.0625 0.125 1.6375
0.0625 0.0625 1.6375
0.125 0.125 1.6375
0.0625 0.0625 1.7
0.125 0.0625 1.7
0.0625 0 1.7
0 0 1.6375
0.0625 0 1.6375
0 0.125 1.6375
0 0.0625 1.6375
0.0625 0.125 1.7
0 0.0625 1.7
0.125 0 1.6375
0.125 0.0625 1.6375
0.1875 0.125 1.6375
0.1875 0.0625 1.6375
0.25 0.125 1.6375
0.1875 0.0625 1.7
0.25 0.0625 1.7
0.1875 0 1.7
0.1875 0 1.6375
0.1875 0.125 1.7
0.25 0 1.6375
0.25 0.0625 1.6375
0.3125 0.125 1.6375
0.3125 0.0625 1.6375
0.375 0.125 1.6375
0.3125 0.0625 1.7
0.375 0.0625 1.7
0.3125 0 1.7
0.3125 0 1.6375
0.3125 0.125 1.7
0.375 0 1.6375
0.375 0.0625 1.6375
0.4375 0.125 1.6375
0.4375 0.0625 1.6375
0.5 0.125 1.6375
0.4375 0.0625 1.7
0.5 0.0625 1.7
0.4375 0 1.7
0.4375 0 1.6375
0.4375 0.125 1.7
0.5 0 1.6375
0.5 0.0625 1.6375
0.5625 0.125 1.6375
0.5625 0.0625 1.6375
0.625 0.125 1.6375
0.5625 0.0625 1.7
0.625 0.0625 1.7
0.5625 0 1.7
0.5625 0 1.6375
0.5625 0.125 1.7
0.625 0 1.6375
0.625 0.0625 1.6375
0.6875 0.125 1.6375
0.6875 0.0625 1.6375
0.75 0.125 1.6375
0.6875 0.0625 1.7
0.75 0.0625 1.7
0.6875 0 1.7
0.6875 0 1.6375
0.6875 0.125 1.7
0.75 0 1.6375
0.75 0.0625 1.6375
0.8125 0.125 1.6375
0.8125 0.0625 1.6375
0.875 0.125 1.6375
0.8125 0.0625 1.7
0.875 0.0625 1.7
0.8125 0 1.7
0.8125 0 1.6375
0.8125 0.125 1.7
0.875 0 1.6375
0.875 0.0625 1.6375
0.9375 0.125 1.6375
0.9375 0.0625 1.6375
1 0.125 1.6375
0.9375 0.0625 1.7
1 0.0625 1.7
0.9375 0 1.7
0.9375 0 1.6375
0.9375 0.125 1.7
1 0 1.6375
1 0.0625 1.6375
1.0625 0.125 1.6375
1.0625 0.0625 1.6375
1.125 0.125 1.6375
1.0625 0.0625 1.7
1.125 0.0625 1.7
1.0625 0 1.7
1.0625 0 1.6375
1.0625 0.125 1.7
1.125 0 1.6375
1.125 0.0625 1.6375
1.1875 0.125 1.6375
1.1875 0.0625 1.6375
1.25 0.125 1.6375
1.1875 0.0625 1.7
1.25 0.0625 1.7
1.1875 0 1.7
1.1875 0 1.6375
1.1875 0.125 1.7
1.25 0 1.6375
1.25 0.0625 1.6375
1.3125 0.125 1.6375
1.3125 0.0625 1.6375
1.375 0.125 1.6375
1.3125 0.0625 1.7
1.375 0.0625 1.7
1.3125 0 1.7
1.3125 0 1.6375
1.3125 0.125 1.7
1.375 0 1.6375
1.375 0.0625 1.6375
1.4375 0.125 1.6375
1.4375 0.0625 1.6375
1.5 0.125 1.6375
1.4375 0.0625 1.7
1.5 0.0625 1.7
1.4375 0 1.7
1.4375 0 1.6375
1.4375 0.125 1.7
1.5 0 1.6375
1.5 0.0625 1.6375
1.5625 0.125 1.6375
1.5625 0.0625 1.6375
1.625 0.125 1.6375
1.5625 0.0625 1.7
1.625 0.0625 1.7
1.5625 0 1.7
1.5625 0 1.6375
1.5625 0.125 1.7
1.625 0 1.6375
1.625 0.0625 1.6375
1.6875 0.125 1.6375
1.6875 0.0625 1.6375
1.75 0.125 1.6375
1.6875 0.0625 1.7
1.75 0.0625 1.7
1.6875 0 1.7
1.6875 0 1.6375
1.6875 0.125 1.7
1.75 0 1.6375
1.75 0.0625 1.6375
1.8125 0.125 1.6375
1.8125 0.0625 1.6375
1.875 0.125 1.6375
1.8125 0.0625 1.7
1.875 0.0625 1.7
1.8125 0 1.7
1.8125 0 1.6375
1.8125 0.125 1.7
1.875 0 1.6375
1.875 0.0625 1.6375
1.9375 0.125 1.6375
1.9375 0.0625 1.6375
2 0.125 1.6375
1.9375 0.0625 1.7
2 0.0625 1.7
1.9375 0 1.7
1.9375 0 1.6375
1.9375 0.125 1.7
2 0 1.6375
2 0.0625 1.6375
2.0625 0.125 1.6375
2.0625 0.0625 1.6375
2.125 0.125 1.6375
2.0625 0.0625 1.7
2.125 0.0625 1.7
2.0625 0 1.7
2.0625 0 1.6375
2.0625 0.125 1.7
2.125 0 1.6375
2.125 0.0625 1.6375
2.1875 0.125 1.6375
2.1875 0.0625 1.6375
2.25 0.125 1.6375
2.1875 0.0625 1.7
2.25 0.0625 1.7
2.1875 0 1.7
2.1875 0 1.6375
2.1875 0.125 1.7
2.25 0 1.6375
2.25 0.0625 1.6375
2.3125 0.125 1.6375
2.3125 0.0625 1.6375
2.375 0.125 1.6375
2.3125 0.0625 1.7
2.375 0.0625 1.7
2.3125 0 1.7
2.3125 0 1.6375
2.3125 0.125 1.7
2.375 0 1.6375
2.375 0.0625 1.6375
2.4375 0.125 1.6375
2.4375 0.0625 1.6375
2.5 0.125 1.6375
2.4375 0.0625 1.7
2.5 0.0625 1.7
2.4375 0 1.7
2.4375 0 1.6375
2.4375 0.125 1.7
2.5 0 1.6375
2.5 0.0625 1.6375
2.5625 0.125 1.6375
2.5625 0.0625 1.6375
2.625 0.125 1.6375
2.5625 0.0625 1.7
2.625 0.0625 1.7
2.5625 0 1.7
2.5625 0 1.6375
2.5625 0.125 1.7
2.625 0 1.6375
2.625 0.0625 1.6375
2.6875 0.125 1.6375
2.6875 0.0625 1.6375
2.75 0.125 1.6375
2.6875 0.0625 1.7
2.75 0.0625 1.7
2.6875 0 1.7
2.6875 0 1.6375
2.6875 0.125 1.7
2.75 0 1.6375
2.75 0.0625 1.6375
2.8125 0.125 1.6375
2.8125 0.0625 1.6375
2.875 0.125 1.6375
2.8125 0.0625 1.7
2.875 0.0625 1.7
2.8125 0 1.7
2.8125 0 1.6375
2.8125 0.125 1.7
2.875 0 1.6375
2.875 0.0625 1.6375
2.9375 0.125 1.6375
2.9375 0.0625 1.6375
3 0.125 1.6375
2.9375 0.0625 1.7
3 0.0625 1.7
2.9375 0 1.7
2.9375 0 1.6375
2.9375 0.125 1.7
3 0 1.6375
3 0.0625 1.6375
3.0625 0.125 1.6375
3.0625 0.0625 1.6375
3.125 0.125 1.6375
3.0625 0.0625 1.7
3.125 0.0625 1.7
3.0625 0 1.7
3.0625 0 1.6375
3.0625 0.125 1.7
3.125 0 1.6375
3.125 0.0625 1.6375
3.1875 0.125 1.6375
3.1875 0.0625 1.6375
3.25 0.125 1.6375
3.1875 0.0625 1.7
3.25 0.0625 1.7
3.1875 0 1.7
3.1875 0 1.6375
3.1875 0.125 1.7
3.25 0 1.6375
3.25 0.0625 1.6375
3.3125 0.125 1.6375
3.3125 0.0625 1.6375
3.375 0.125 1.6375
3.3125 0.0625 1.7
3.375 0.0625 1.7
3.3125 0 1.7
3.3125 0 1.6375
3.3125 0.125 1.7
3.375 0 1.6375
3.375 0.0625 1.6375
3.4375 0.125 1.6375
3.4375 0.0625 1.6375
3.5 0.125 1.6375
3.4375 0.0625 1.7
3.5 0.0625 1.7
3.4375 0 1.7
3.4375 0 1.6375
3.4375 0.125 1.7
3.5 0 1.6375
3.5 0.0625 1.6375
3.5625 0.125 1.6375
3.5625 0.0625 1.6375
3.625 0.125 1.6375
3.5625 0.0625 1.7
3.625 0.0625 1.7
3.5625 0 1.7
3.5625 0 1.6375
3.5625 0.125 1.7
3.625 0 1.6375
3.625 0.0625 1.6375
3.6875 0.125 1.6375
3.6875 0.0625 1.6375
3.75 0.125 1.6375
3.6875 0.0625 1.7
3.75 0.0625 1.7
3.6875 0 1.7
3.6875 0 1.6375
3.6875 0.125 1.7
3.75 0 1.6375
3.75 0.0625 1.6375
3.8125 0.125 1.6375
3.8125 0.0625 1.6375
3.875 0.125 1.6375
3.8125 0.0625 1.7
3.875 0.0625 1.7
3.8125 0 1.7
3.8125 0 1.6375
3.8125 0.125 1.7
3.875 0 1.6375
3.875 0.0625 1.6375
3.9375 0.125 1.6375
3.9375 0.0625 1.6375
4 0.125 1.6375
3.9375 0.0625 1.7
4 0.0625 1.7
3.9375 0 1.7
3.9375 0 1.6375
3.9375 0.125 1.7
4 0 1.6375
4 0.0625 1.6375
0.0625 0.25 1.6375
0.0625 0.1875 1.6375
0.125 0.25 1.6375
0.0625 0.1875 1.7
0.125 0.1875 1.7
0 0.25 1.6375
0 0.1875 1.6375
0.0625 0.25 1.7
0 0.1875 1.7
0.125 0.1875 1.6375
0.1875 0.25 1.6375
0.1875 0.1875 1.6375
0.25 0.25 1.6375
0.1875 0.1875 1.7
0.25 0.1875 1.7
0.1875 0.25 1.7
0.25 0.1875 1.6375
0.3125 0.25 1.6375
0.3125 0.1875 1.6375
0.375 0.25 1.6375
0.3125 0.1875 1.7
0.375 0.1875 1.7
0.3125 0.25 1.7
0.375 0.1875 1.6375
0.4375 0.25 1.6375
0.4375 0.1875 1.6375
0.5 0.25 1.6375
0.4375 0.1875 1.7
0.5 0.1875 1.7
0.4375 0.25 1.7
0.5 0.1875 1.6375
0.5625 0.25 1.6375
0.5625 0.1875 1.6375
0.625 0.25 1.6375
0.5625 0.1875 1.7
0.625 0.1875 1.7
0.5625 0.25 1.7
0.625 0.1875 1.6375
0.6875 0.25 1.6375
0.6875 0.1875 1.6375
0.75 0.25 1.6375
0.6875 0.1875 1.7
0.75 0.1875 1.7
0.6875 0.25 1.7
0.75 0.1875 1.6375
0.8125 0.25 1.6375
0.8125 0.1875 1.6375
0.875 0.25 1.6375
0.8125 0.1875 1.7
0.875 0.1875 1.7
0.8125 0.25 1.7
0.875 0.1875 1.6375
0.9375 0.25 1.6375
0.9375 0.1875 1.6375
1 0.25 1.6375
0.9375 0.1875 1.7
1 0.1875 1.7
0.9375 0.25 1.7
1 0.1875 1.6375
1.0625 0.25 1.6375
1.0625 0.1875 1.6375
1.125 0.25 1.6375
1.0625 0.1875 1.7
1.125 0.1875 1.7
1.0625 0.25 1.7
1.125 0.1875 1.6375
1.1875 0.25 1.6375
1.1875 0.1875 1.6375
1.25 0.25 1.6375
1.1875 0.1875 1.7
1.25 0.1875 1.7
1.1875 0.25 1.7
1.25 0.1875 1.6375
1.3125 0.25 1.6375
1.3125 0.1875 1.6375
1.375 0.25 1.6375
1.3125 0.1875 1.7
1.375 0.1875 1.7
1.3125 0.25 1.7
1.375 0.1875 1.6375
1.4375 0.25 1.6375
1.4375 0.1875 1.6375
1.5 0.25 1.6375
1.4375 0.1875 1.7
1.5 0.1875 1.7
1.4375 0.25 1.7
1.5 0.1875 1.6375
1.5625 0.25 1.6375
1.5625 0.1875 1.6375
1.625 0.25 1.6375
1.5625 0.1875 1.7
1.625 0.1875 1.7
1.5625 0.25 1.7
1.625 0.1875 1.6375
1.6875 0.25 1.6375
1.6875 0.1875 1.6375
1.75 0.25 1.6375
1.6875 0.1875 1.7
1.75 0.1875 1.7
1.6875 0.25 1.7
1.75 0.1875 1.6375
1.8125 0.25 1.6375
1.8125 0.1875 1.6375
1.875 0.25 1.6375
1.8125 0.1875 1.7
1.875 0.1875 1.7
1.8125 0.25 1.7
1.875 0.1875 1.6375
1.9375 0.25 1.6375
1.9375 0.1875 1.6375
2 0.25 1.6375
1.9375 0.1875 1.7
2 0.1875 1.7
1.9375 0.25 1.7
2 0.1875 1.6375
2.0625 0.25 1.6375
2.0625 0.1875 1.6375
2.125 0.25 1.6375
2.0625 0.1875 1.7
2.125 0.1875 1.7
2.0625 0.25 1.7
2.125 0.1875 1.6375
2.1875 0.25 1.6375
2.1875 0.1875 1.6375
2.25 0.25 1.6375
2.1875 0.1875 1.7
2.25 0.1875 1.7
2.1875 0.25 1.7
2.25 0.1875 1.6375
2.3125 0.25 1.6375
2.3125 0.1875 1.6375
2.375 0.25 1.6375
2.3125 0.1875 1.7
2.375 0.1875 1.7
2.3125 0.25 1.7
2.375 0.1875 1.6375
2.4375 0.25 1.6375
2.4375 0.1875 1.6375
2.5 0.25 1.6375
2.4375 0.1875 1.7
2.5 0.1875 1.7
2.4375 0.25 1.7
2.5 0.1875 1.6375
2.5625 0.25 1.6375
2.5625 0.1875 1.6375
2.625 0.25 1.6375
2.5625 0.1875 1.7
2.625 0.1875 1.7
2.5625 0.25 1.7
2.625 0.1875 1.6375
2.6875 0.25 1.6375
2.6875 0.1875 1.6375
2.75 0.25 1.6375
2.6875 0.1875 1.7
2.75 0.1875 1.7
2.6875 0.25 1.7
2.75 0.1875 1.6375
2.8125 0.25 1.6375
2.8125 0.1875 1.6375
2.875 0.25 1.6375
2.8125 0.1875 1.7
2.875 0.1875 1.7
2.8125 0.25 1.7
2.875 0.1875 1.6375
2.9375 0.25 1.6375
2.9375 0.1875 1.6375
3 0.25 1.6375
2.9375 0.1875 1.7
3 0.1875 1.7
2.9375 0.25 1.7
3 0.1875 1.6375
3.0625 0.25 1.6375
3.0625 0.1875 1.6375
3.125 0.25 1.6375
3.0625 0.1875 1.7
3.125 0.1875 1.7
3.0625 0.25 1.7
3.125 0.1875 1.6375
3.1875 0.25 1.6375
3.1875 0.1875 1.6375
3.25 0.25 1.6375
3.1875 0.1875 1.7
3.25 0.1875 1.7
3.1875 0.25 1.7
3.25 0.1875 1.6375
3.3125 0.25 1.6375
3.3125 0.1875 1.6375
3.375 0.25 1.6375
3.3125 0.1875 1.7
3.375 0.1875 1.7
3.3125 0.25 1.7
3.375 0.1875 1.6375
3.4375 0.25 1.6375
3.4375 0.1875 1.6375
3.5 0.25 1.6375
3.4375 0.1875 1.7
3.5 0.1875 1.7
3.4375 0.25 1.7
3.5 0.1875 1.6375
3.5625 0.25 1.6375
3.5625 0.1875 1.6375
3.625 0.25 1.6375
3.5625 0.1875 1.7
3.625 0.1875 1.7
3.5625 0.25 1.7
3.625 0.1875 1.6375
3.6875 0.25 1.6375
3.6875 0.1875 1.6375
3.75 0.25 1.6375
3.6875 0.1875 1.7
3.75 0.1875 1.7
3.6875 0.25 1.7
3.75 0.1875 1.6375
3.8125 0.25 1.6375
3.8125 0.1875 1.6375
3.875 0.25 1.6375
3.8125 0.1875 1.7
3.875 0.1875 1.7
3.8125 0.25 1.7
3.875 0.1875 1.6375
3.9375 0.25 1.6375
3.9375 0.1875 1.6375
4 0.25 1.6375
3.9375 0.1875 1.7
4 0.1875 1.7
3.9375 0.25 1.7
4 0.1875 1.6375
0.0625 0.375 1.6375
0.0625 0.3125 1.6375
0.125 0.375 1.6375
0.0625 0.3125 1.7
0.125 0.3125 1.7
0 0.375 1.6375
0 0.3125 1.6375
0.0625 0.375 1.7
0 0.3125 1.7
0.125 0.3125 1.6375
0.1875 0.375 1.6375
0.1875 0.3125 1.6375
0.25 0.375 1.6375
0.1875 0.3125 1.7
0.25 0.3125 1.7
0.1875 0.375 1.7
0.25 0.3125 1.6375
0.3125 0.375 1.6375
0.3125 0.3125 1.6375
0.375 0.375 1.6375
0.3125 0.3125 1.7
0.375 0.3125 1.7
0.3125 0.375 1.7
0.375 0.3125 1.6375
0.4375 0.375 1.6375
0.4375 0.3125 1.6375
0.5 0.375 1.6375
0.4375 0.3125 1.7
0.5 0.3125 1.7
0.4375 0.375 1.7
0.5 0.3125 1.6375
0.5625 0.375 1.6375
0.5625 0.3125 1.6375
0.625 0.375 1.6375
0.5625 0.3125 1.7
0.625 0.3125 1.7
0.5625 0.375 1.7
0.625 0.3125 1.6375
0.6875 0.375 1.6375
0.6875 0.3125 1.6375
0.75 0.375 1.6375
0.6875 0.3125 1.7
0.75 0.3125 1.7
0.6875 0.375 1.7
0.75 0.3125 1.6375
0.8125 0.375 1.6375
0.8125 0.3125 1.6375
0.875 0.375 1.6375
0.8125 0.3125 1.7
0.875 0.3125 1.7
0.8125 0.375 1.7
0.875 0.3125 1.6375
0.9375 0.375 1.6375
0.9375 0.3125 1.6375
1 0.375 1.6375
0.9375 0.3125 1.7
1 0.3125 1.7
0.9375 0.375 1.7
1 0.3125 1.6375
1.0625 0.375 1.6375
1.0625 0.3125 1.6375
1.125 0.375 1.6375
1.0625 0.3125 1.7
1.125 0.3125 1.7
1.0625 0.375 1.7
1.125 0.3125 1.6375
1.1875 0.375 1.6375
1.1875 0.3125 1.6375
1.25 0.375 1.6375
1.1875 0.3125 1.7
1.25 0.3125 1.7
1.1875 0.375 1.7
1.25 0.3125 1.6375
1.3125 0.375 1.6375
1.3125 0.3125 1.6375
1.375 0.375 1.6375
1.3125 0.3125 1.7
1.375 0.3125 1.7
1.3125 0.375 1.7
1.375 0.3125 1.6375
1.4375 0.375 1.6375
1.4375 0.3125 1.6375
1.5 0.375 1.6375
1.4375 0.3125 1.7
1.5 0.3125 1.7
1.4375 0.375 1.7
1.5 0.3125 1.6375
1.5625 0.375 1.6375
1.5625 0.3125 1.6375
1.625 0.375 1.6375
1.5625 0.3125 1.7
1.625 0.3125 1.7
1.5625 0.375 1.7
1.625 0.3125 1.6375
1.6875 0.375 1.6375
1.6875 0.3125 1.6375
1.75 0.375 1.6375
1.6875 0.3125 1.7
1.75 0.3125 1.7
1.6875 0.375 1.7
1.75 0.3125 1.6375
1.8125 0.375 1.6375
1.8125 0.3125 1.6375
1.875 0.375 1.6375
1.8125 0.3125 1.7
1.875 0.3125 1.7
1.8125 0.375 1.7
1.875 0.3125 1.6375
1.9375 0.375 1.6375
1.9375 0.3125 1.6375
2 0.375 1.6375
1.9375 0.3125 1.7
2 0.3125 1.7
1.9375 0.375 1.7
2 0.3125 1.6375
2.0625 0.375 1.6375
2.0625 0.3125 1.6375
2.125 0.375 1.6375
2.0625 0.3125 1.7
2.125 0.3125 1.7
2.0625 0.375 1.7
2.125 0.3125 1.6375
2.1875 0.375 1.6375
2.1875 0.3125 1.6375
2.25 0.375 1.6375
2.1875 0.3125 1.7
2.25 0.3125 1.7
2.1875 0.375 1.7
2.25 0.3125 1.6375
2.3125 0.375 1.6375
2.3125 0.3125 1.6375
2.375 0.375 1.6375
2.3125 0.3125 1.7
2.375 0.3125 1.7
2.3125 0.375 1.7
2.375 0.3125 1.6375
2.4375 0.375 1.6375
2.4375 0.3125 1.6375
2.5 0.375 1.6375
2.4375 0.3125 1.7
2.5 0.3125 1.7
2.4375 0.375 1.7
2.5 0.3125 1.6375
2.5625 0.375 1.6375
2.5625 0.3125 1.6375
2.625 0.375 1.6375
2.5625 0.3125 1.7
2.625 0.3125 1.7
2.5625 0.375 1.7
2.625 0.3125 1.6375
2.6875 0.375 1.6375
2.6875 0.3125 1.6375
2.75 0.375 1.6375
2.6875 0.3125 1.7
2.75 0.3125 1.7
2.6875 0.375 1.7
2.75 0.3125 1.6375
2.8125 0.375 1.6375
2.8125 0.3125 1.6375
2.875 0.375 1.6375
2.8125 0.3125 1.7
2.875 0.3125 1.7
2.8125 0.375 1.7
2.875 0.3125 1.6375
2.9375 0.375 1.6375
2.9375 0.3125 1.6375
3 0.375 1.6375
2.9375 0.3125 1.7
3 0.3125 1.7
2.9375 0.375 1.7
3 0.3125 1.6375
3.0625 0.375 1.6375
3.0625 0.3125 1.6375
3.125 0.375 1.6375
3.0625 0.3125 1.7
3.125 0.3125 1.7
3.0625 0.375 1.7
3.125 0.3125 1.6375
3.1875 0.375 1.6375
3.1875 0.3125 1.6375
3.25 0.375 1.6375
3.1875 0.3125 1.7
3.25 0.3125 1.7
3.1875 0.375 1.7
3.25 0.3125 1.6375
3.3125 0.375 1.6375
3.3125 0.3125 1.6375
3.375 0.375 1.6375
3.3125 0.3125 1.7
3.375 0.3125 1.7
3.3125 0.375 1.7
3.375 0.3125 1.6375
3.4375 0.375 1.6375
3.4375 0.3125 1.6375
3.5 0.375 1.6375
3.4375 0.3125 1.7
3.5 0.3125 1.7
3.4375 0.375 1.7
3.5 0.3125 1.6375
3.5625 0.375 1.6375
3.5625 0.3125 1.6375
3.625 0.375 1.6375
3.5625 0.3125 1.7
3.625 0.3125 1.7
3.5625 0.375 1.7
3.625 0.3125 1.6375
3.6875 0.375 1.6375
3.6875 0.3125 1.6375
3.75 0.375 1.6375
3.6875 0.3125 1.7
3.75 0.3125 1.7
3.6875 0.375 1.7
3.75 0.3125 1.6375
3.8125 0.375 1.6375
3.8125 0.3125 1.6375
3.875 0.375 1.6375
3.8125 0.3125 1.7
3.875 0.3125 1.7
3.8125 0.375 1.7
3.875 0.3125 1.6375
3.9375 0.375 1.6375
3.9375 0.3125 1.6375
4 0.375 1.6375
3.9375 0.3125 1.7
4 0.3125 1.7
3.9375 0.375 1.7
4 0.3125 1.6375
0.0625 0.5 1.6375
0.0625 0.4375 1.6375
0.125 0.5 1.6375
0.0625 0.4375 1.7
0.125 0.4375 1.7
0 0.5 1.6375
0 0.4375 1.6375
0.0625 0.5 1.7
0 0.4375 1.7
0.125 0.4375 1.6375
0.1875 0.5 1.6375
0.1875 0.4375 1.6375
0.25 0.5 1.6375
0.1875 0.4375 1.7
0.25 0.4375 1.7
0.1875 0.5 1.7
0.25 0.4375 1.6375
0.3125 0.5 1.6375
0.3125 0.4375 1.6375
0.375 0.5 1.6375
0.3125 0.4375 1.7
0.375 0.4375 1.7
0.3125 0.5 1.7
0.375 0.4375 1.6375
0.4375 0.5 1.6375
0.4375 0.4375 1.6375
0.5 0.5 1.6375
0.4375 0.4375 1.7
0.5 0.4375 1.7
0.4375 0.5 1.7
0.5 0.4375 1.6375
0.5625 0.5 1.6375
0.5625 0.4375 1.6375
0.625 0.5 1.6375
0.5625 0.4375 1.7
0.625 0.4375 1.7
0.5625 0.5 1.7
0.625 0.4375 1.6375
0.6875 0.5 1.6375
0.6875 0.4375 1.6375
0.75 0.5 1.6375
0.6875 0.4375 1.7
0.75 0.4375 1.7
0.6875 0.5 1.7
0.75 0.4375 1.6375
0.8125 0.5 1.6375
0.8125 0.4375 1.6375
0.875 0.5 1.6375
0.8125 0.4375 1.7
0.875 0.4375 1.7
0.8125 0.5 1.7
0.875 0.4375 1.6375
0.9375 0.5 1.6375
0.9375 0.4375 1.6375
1 0.5 1.6375
0.9375 0.4375 1.7
1 0.4375 1.7
0.9375 0.5 1.7
1 0.4375 1.6375
1.0625 0.5 1.6375
1.0625 0.4375 1.6375
1.125 0.5 1.6375
1.0625 0.4375 1.7
1.125 0.4375 1.7
1.0625 0.5 1.7
1.125 0.4375 1.6375
1.1875 0.5 1.6375
1.1875 0.4375 1.6375
1.25 0.5 1.6375
1.1875 0.4375 1.7
1.25 0.4375 1.7
1.1875 0.5 1.7
1.25 0.4375 1.6375
1.3125 0.5 1.6375
1.3125 0.4375 1.6375
1.375 0.5 1.6375
1.3125 0.4375 1.7
1.375 0.4375 1.7
1.3125 0.5 1.7
1.375 0.4375 1.6375
1.4375 0.5 1.6375
1.4375 0.4375 1.6375
1.5 0.5 1.6375
1.4375 0.4375 1.7
1.5 0.4375 1.7
1.4375 0.5 1.7
1.5 0.4375 1.6375
1.5625 0.5 1.6375
1.5625 0.4375 1.6375
1.625 0.5 1.6375
1.5625 0.4375 1.7
1.625 0.4375 1.7
1.5625 0.5 1.7
1.625 0.4375 1.6375
1.6875 0.5 1.6375
1.6875 0.4375 1.6375
1.75 0.5 1.6375
1.6875 0.4375 1.7
1.75 0.4375 1.7
1.6875 0.5 1.7
1.75 0.4375 1.6375
1.8125 0.5 1.6375
1.8125 0.4375 1.6375
1.875 0.5 1.6375
1.8125 0.4375 1.7
1.875 0.4375 1.7
1.8125 0.5 1.7
1.875 0.4375 1.6375
1.9375 0.5 1.6375
1.9375 0.4375 1.6375
2 0.5 1.6375
1.9375 0.4375 1.7
2 0.4375 1.7
1.9375 0.5 1.7
2 0.4375 1.6375
2.0625 0.5 1.6375
2.0625 0.4375 1.6375
2.125 0.5 1.6375
2.0625 0.4375 1.7
2.125 0.4375 1.7
2.0625 0.5 1.7
2.125 0.4375 1.6375
2.1875 0.5 1.6375
2.1875 0.4375 1.6375
2.25 0.5 1.6375
2.1875 0.4375 1.7
2.25 0.4375 1.7
2.1875 0.5 1.7
2.25 0.4375 1.6375
2.3125 0.5 1.6375
2.3125 0.4375 1.6375
2.375 0.5 1.6375
2.3125 0.4375 1.7
2.375 0.4375 1.7
2.3125 0.5 1.7
2.375 0.4375 1.6375
2.4375 0.5 1.6375
2.4375 0.4375 1.6375
2.5 0.5 1.6375
2.4375 0.4375 1.7
2.5 0.4375 1.7
2.4375 0.5 1.7
2.5 0.4375 1.6375
2.5625 0.5 1.6375
2.5625 0.4375 1.6375
2.625 0.5 1.6375
2.5625 0.4375 1.7
2.625 0.4375 1.7
2.5625 0.5 1.7
2.625 0.4375 1.6375
2.6875 0.5 1.6375
2.6875 0.4375 1.6375
2.75 0.5 1.6375
2.6875 0.4375 1.7
2.75 0.4375 1.7
2.6875 0.5 1.7
2.75 0.4375 1.6375
2.8125 0.5 1.6375
2.8125 0.4375 1.6375
2.875 0.5 1.6375
2.8125 0.4375 1.7
2.875 0.4375 1.7
2.8125 0.5 1.7
2.875 0.4375 1.6375
2.9375 0.5 1.6375
2.9375 0.4375 1.6375
3 0.5 1.6375
2.9375 0.4375 1.7
3 0.4375 1.7
2.9375 0.5 1.7
3 0.4375 1.6375
3.0625 0.5 1.6375
3.0625 0.4375 1.6375
3.125 0.5 1.6375
3.0625 0.4375 1.7
3.125 0.4375 1.7
3.0625 0.5 1.7
3.125 0.4375 1.6375
3.1875 0.5 1.6375
3.1875 0.4375 1.6375
3.25 0.5 1.6375
3.1875 0.4375 1.7
3.25 0.4375 1.7
3.1875 0.5 1.7
3.25 0.4375 1.6375
3.3125 0.5 1.6375
3.3125 0.4375 1.6375
3.375 0.5 1.6375
3.3125 0.4375 1.7
3.375 0.4375 1.7
3.3125 0.5 1.7
3.375 0.4375 1.6375
3.4375 0.5 1.6375
3.4375 0.4375 1.6375
3.5 0.5 1.6375
3.4375 0.4375 1.7
3.5 0.4375 1.7
3.4375 0.5 1.7
3.5 0.4375 1.6375
3.5625 0.5 1.6375
3.5625 0.4375 1.6375
3.625 0.5 1.6375
3.5625 0.4375 1.7
3.625 0.4375 1.7
3.5625 0.5 1.7
3.625 0.4375 1.6375
3.6875 0.5 1.6375
3.6875 0.4375 1.6375
3.75 0.5 1.6375
3.6875 0.4375 1.7
3.75 0.4375 1.7
3.6875 0.5 1.7
3.75 0.4375 1.6375
3.8125 0.5 1.6375
3.8125 0.4375 1.6375
3.875 0.5 1.6375
3.8125 0.4375 1.7
3.875 0.4375 1.7
3.8125 0.5 1.7
3.875 0.4375 1.6375
3.9375 0.5 1.6375
3.9375 0.4375 1.6375
4 0.5 1.6375
3.9375 0.4375 1.7
4 0.4375 1.7
3.9375 0.5 1.7
4 0.4375 1.6375
0.0625 0.625 1.6375
0.0625 0.5625 1.6375
0.125 0.625 1.6375
0.0625 0.5625 1.7
0.125 0.5625 1.7
0 0.625 1.6375
0 0.5625 1.6375
0.0625 0.625 1.7
0 0.5625 1.7
0.125 0.5625 1.6375
0.1875 0.625 1.6375
0.1875 0.5625 1.6375
0.25 0.625 1.6375
0.1875 0.5625 1.7
0.25 0.5625 1.7
0.1875 0.625 1.7
0.25 0.5625 1.6375
0.3125 0.625 1.6375
0.3125 0.5625 1.6375
0.375 0.625 1.6375
0.3125 0.5625 1.7
0.375 0.5625 1.7
0.3125 0.625 1.7
0.375 0.5625 1.6375
0.4375 0.625 1.6375
0.4375 0.5625 1.6375
0.5 0.625 1.6375
0.4375 0.5625 1.7
0.5 0.5625 1.7
0.4375 0.625 1.7
0.5 0.5625 1.6375
0.5625 0.625 1.6375
0.5625 0.5625 1.6375
0.625 0.625 1.6375
0.5625 0.5625 1.7
0.625 0.5625 1.7
0.5625 0.625 1.7
0.625 0.5625 1.6375
0.6875 0.625 1.6375
0.6875 0.5625 1.6375
0.75 0.625 1.6375
0.6875 0.5625 1.7
0.75 0.5625 1.7
0.6875 0.625 1.7
0.75 0.5625 1.6375
0.8125 0.625 1.6375
0.8125 0.5625 1.6375
0.875 0.625 1.6375
0.8125 0.5625 1.7
0.875 0.5625 1.7
0.8125 0.625 1.7
0.875 0.5625 1.6375
0.9375 0.625 1.6375
0.9375 0.5625 1.6375
1 0.625 1.6375
0.9375 0.5625 1.7
1 0.5625 1.7
0.9375 0.625 1.7
1 0.5625 1.6375
1.0625 0.625 1.6375
1.0625 0.5625 1.6375
1.125 0.625 1.6375
1.0625 0.5625 1.7
1.125 0.5625 1.7
1.0625 0.625 1.7
1.125 0.5625 1.6375
1.1875 0.625 1.6375
1.1875 0.5625 1.6375
1.25 0.625 1.6375
1.1875 0.5625 1.7
1.25 0.5625 1.7
1.1875 0.625 1.7
1.25 0.5625 1.6375
1.3125 0.625 1.6375
1.3125 0.5625 1.6375
1.375 0.625 1.6375
1.3125 0.5625 1.7
1.375 0.5625 1.7
1.3125 0.625 1.7
1.375 0.5625 1.6375
1.4375 0.625 1.6375
1.4375 0.5625 1.6375
1.5 0.625 1.6375
1.4375 0.5625 1.7
1.5 0.5625 1.7
1.4375 0.625 1.7
1.5 0.5625 1.6375
1.5625 0.625 1.6375
1.5625 0.5625 1.6375
1.625 0.625 1.6375
1.5625 0.5625 1.7
1.625 0.5625 1.7
1.5625 0.625 1.7
1.625 0.5625 1.6375
1.6875 0.625 1.6375
1.6875 0.5625 1.6375
1.75 0.625 1.6375
1.6875 0.5625 1.7
1.75 0.5625 1.7
1.6875 0.625 1.7
1.75 0.5625 1.6375
1.8125 0.625 1.6375
1.8125 0.5625 1.6375
1.875 0.625 1.6375
1.8125 0.5625 1.7
1.875 0.5625 1.7
1.8125 0.625 1.7
1.875 0.5625 1.6375
1.9375 0.625 1.6375
1.9375 0.5625 1.6375
2 0.625 1.6375
1.9375 0.5625 1.7
2 0.5625 1.7
1.9375 0.625 1.7
2 0.5625 1.6375
2.0625 0.625 1.6375
2.0625 0.5625 1.6375
2.125 0.625 1.6375
2.0625 0.5625 1.7
2.125 0.5625 1.7
2.0625 0.625 1.7
2.125 0.5625 1.6375
2.1875 0.625 1.6375
2.1875 0.5625 1.6375
2.25 0.625 1.6375
2.1875 0.5625 1.7
2.25 0.5625 1.7
2.1875 0.625 1.7
2.25 0.5625 1.6375
2.3125 0.625 1.6375
2.3125 0.5625 1.6375
2.375 0.625 1.6375
2.3125 0.5625 1.7
2.375 0.5625 1.7
2.3125 0.625 1.7
2.375 0.5625 1.6375
2.4375 0.625 1.6375
2.4375 0.5625 1.6375
2.5 0.625 1.6375
2.4375 0.5625 1.7
2.5 0.5625 1.7
2.4375 0.625 1.7
2.5 0.5625 1.6375
2.5625 0.625 1.6375
2.5625 0.5625 1.6375
2.625 0.625 1.6375
2.5625 0.5625 1.7
2.625 0.5625 1.7
2.5625 0.625 1.7
2.625 0.5625 1.6375
2.6875 0.625 1.6375
2.6875 0.5625 1.6375
2.75 0.625 1.6375
2.6875 0.5625 1.7
2.75 0.5625 1.7
2.6875 0.625 1.7
2.75 0.5625 1.6375
2.8125 0.625 1.6375
2.8125 0.5625 1.6375
2.875 0.625 1.6375
2.8125 0.5625 1.7
2.875 0.5625 1.7
2.8125 0.625 1.7
2.875 0.5625 1.6375
2.9375 0.625 1.6375
2.9375 0.5625 1.6375
3 0.625 1.6375
2.9375 0.5625 1.7
3 0.5625 1.7
2.9375 0.625 1.7
3 0.5625 1.6375
3.0625 0.625 1.6375
3.0625 0.5625 1.6375
3.125 0.625 1.6375
3.0625 0.5625 1.7
3.125 0.5625 1.7
3.0625 0.625 1.7
3.125 0.5625 1.6375
3.1875 0.625 1.6375
3.1875 0.5625 1.6375
3.25 0.625 1.6375
3.1875 0.5625 1.7
3.25 0.5625 1.7
3.1875 0.625 1.7
3.25 0.5625 1.6375
3.3125 0.625 1.6375
3.3125 0.5625 1.6375
3.375 0.625 1.6375
3.3125 0.5625 1.7
3.375 0.5625 1.7
3.3125 0.625 1.7
3.375 0.5625 1.6375
3.4375 0.625 1.6375
3.4375 0.5625 1.6375
3.5 0.625 1.6375
3.4375 0.5625 1.7
3.5 0.5625 1.7
3.4375 0.625 1.7
3.5 0.5625 1.6375
3.5625 0.625 1.6375
3.5625 0.5625 1.6375
3.625 0.625 1.6375
3.5625 0.5625 1.7
3.625 0.5625 1.7
3.5625 0.625 1.7
3.625 0.5625 1.6375
3.6875 0.625 1.6375
3.6875 0.5625 1.6375
3.75 0.625 1.6375
3.6875 0.5625 1.7
3.75 0.5625 1.7
3.6875 0.625 1.7
3.75 0.5625 1.6375
3.8125 0.625 1.6375
3.8125 0.5625 1.6375
3.875 0.625 1.6375
3.8125 0.5625 1.7
3.875 0.5625 1.7
3.8125 0.625 1.7
3.875 0.5625 1.6375
3.9375 0.625 1.6375
3.9375 0.5625 1.6375
4 0.625 1.6375
3.9375 0.5625 1.7
4 0.5625 1.7
3.9375 0.625 1.7
4 0.5625 1.6375
0.0625 0.75 1.6375
0.0625 0.6875 1.6375
0.125 0.75 1.6375
0.0625 0.6875 1.7
0.125 0.6875 1.7
0 0.75 1.6375
0 0.6875 1.6375
0.0625 0.75 1.7
0 0.6875 1.7
0.125 0.6875 1.6375
0.1875 0.75 1.6375
0.1875 0.6875 1.6375
0.25 0.75 1.6375
0.1875 0.6875 1.7
0.25 0.6875 1.7
0.1875 0.75 1.7
0.25 0.6875 1.6375
0.3125 0.75 1.6375
0.3125 0.6875 1.6375
0.375 0.75 1.6375
0.3125 0.6875 1.7
0.375 0.6875 1.7
0.3125 0.75 1.7
0.375 0.6875 1.6375
0.4375 0.75 1.6375
0.4375 0.6875 1.6375
0.5 0.75 1.6375
0.4375 0.6875 1.7
0.5 0.6875 1.7
0.4375 0.75 1.7
0.5 0.6875 1.6375
0.5625 0.75 1.6375
0.5625 0.6875 1.6375
0.625 0.75 1.6375
0.5625 0.6875 1.7
0.625 0.6875 1.7
0.5625 0.75 1.7
0.625 0.6875 1.6375
0.6875 0.75 1.6375
0.6875 0.6875 1.6375
0.75 0.75 1.6375
0.6875 0.6875 1.7
0.75 0.6875 1.7
0.6875 0.75 1.7
0.75 0.6875 1.6375
0.8125 0.75 1.6375
0.8125 0.6875 1.6375
0.875 0.75 1.6375
0.8125 0.6875 1.7
0.875 0.6875 1.7
0.8125 0.75 1.7
0.875 0.6875 1.6375
0.9375 0.75 1.6375
0.9375 0.6875 1.6375
1 0.75 1.6375
0.9375 0.6875 1.7
1 0.6875 1.7
0.9375 0.75 1.7
1 0.6875 1.6375
1.0625 0.75 1.6375
1.0625 0.6875 1.6375
1.125 0.75 1.6375
1.0625 0.6875 1.7
1.125 0.6875 1.7
1.0625 0.75 1.7
1.125 0.6875 1.6375
1.1875 0.75 1.6375
1.1875 0.6875 1.6375
1.25 0.75 1.6375
1.1875 0.6875 1.7
1.25 0.6875 1.7
1.1875 0.75 1.7
1.25 0.6875 1.6375
1.3125 0.75 1.6375
1.3125 0.6875 1.6375
1.375 0.75 1.6375
1.3125 0.6875 1.7
1.375 0.6875 1.7
1.3125 0.75 1.7
1.375 0.6875 1.6375
1.4375 0.75 1.6375
1.4375 0.6875 1.6375
1.5 0.75 1.6375
1.4375 0.6875 1.7
1.5 0.6875 1.7
1.4375 0.75 1.7
1.5 0.6875 1.6375
1.5625 0.75 1.6375
1.5625 0.6875 1.6375
1.625 0.75 1.6375
1.5625 0.6875 1.7
1.625 0.6875 1.7
1.5625 0.75 1.7
1.625 0.6875 1.6375
1.6875 0.75 1.6375
1.6875 0.6875 1.6375
1.75 0.75 1.6375
1.6875 0.6875 1.7
1.75 0.6875 1.7
1.6875 0.75 1.7
1.75 0.6875 1.6375
1.8125 0.75 1.6375
1.8125 0.6875 1.6375
1.875 0.75 1.6375
1.8125 0.6875 1.7
1.875 0.6875 1.7
1.8125 0.75 1.7
1.875 0.6875 1.6375
1.9375 0.75 1.6375
1.9375 0.6875 1.6375
2 0.75 1.6375
1.9375 0.6875 1.7
2 0.6875 1.7
1.9375 0.75 1.7
2 0.6875 1.6375
2.0625 0.75 1.6375
2.0625 0.6875 1.6375
2.125 0.75 1.6375
2.0625 0.6875 1.7
2.125 0.6875 1.7
2.0625 0.75 1.7
2.125 0.6875 1.6375
2.1875 0.75 1.6375
2.1875 0.6875 1.6375
2.25 0.75 1.6375
2.1875 0.6875 1.7
2.25 0.6875 1.7
2.1875 0.75 1.7
2.25 0.6875 1.6375
2.3125 0.75 1.6375
2.3125 0.6875 1.6375
2.375 0.75 1.6375
2.3125 0.6875 1.7
2.375 0.6875 1.7
2.3125 0.75 1.7
2.375 0.6875 1.6375
2.4375 0.75 1.6375
2.4375 0.6875 1.6375
2.5 0.75 1.6375
2.4375 0.6875 1.7
2.5 0.6875 1.7
2.4375 0.75 1.7
2.5 0.6875 1.6375
2.5625 0.75 1.6375
2.5625 0.6875 1.6375
2.625 0.75 1.6375
2.5625 0.6875 1.7
2.625 0.6875 1.7
2.5625 0.75 1.7
2.625 0.6875 1.6375
2.6875 0.75 1.6375
2.6875 0.6875 1.6375
2.75 0.75 1.6375
2.6875 0.6875 1.7
2.75 0.6875 1.7
2.6875 0.75 1.7
2.75 0.6875 1.6375
2.8125 0.75 1.6375
2.8125 0.6875 1.6375
2.875 0.75 1.6375
2.8125 0.6875 1.7
2.875 0.6875 1.7
2.8125 0.75 1.7
2.875 0.6875 1.6375
2.9375 0.75 1.6375
2.9375 0.6875 1.6375
3 0.75 1.6375
2.9375 0.6875 1.7
3 0.6875 1.7
2.9375 0.75 1.7
3 0.6875 1.6375
3.0625 0.75 1.6375
3.0625 0.6875 1.6375
3.125 0.75 1.6375
3.0625 0.6875 1.7
3.125 0.6875 1.7
3.0625 0.75 1.7
3.125 0.6875 1.6375
3.1875 0.75 1.6375
3.1875 0.6875 1.6375
3.25 0.75 1.6375
3.1875 0.6875 1.7
3.25 0.6875 1.7
3.1875 0.75 1.7
3.25 0.6875 1.6375
3.3125 0.75 1.6375
3.3125 0.6875 1.6375
3.375 0.75 1.6375
3.3125 0.6875 1.7
3.375 0.6875 1.7
3.3125 0.75 1.7
3.375 0.6875 1.6375
3.4375 0.75 1.6375
3.4375 0.6875 1.6375
3.5 0.75 1.6375
3.4375 0.6875 1.7
3.5 0.6875 1.7
3.4375 0.75 1.7
3.5 0.6875 1.6375
3.5625 0.75 1.6375
3.5625 0.6875 1.6375
3.625 0.75 1.6375
3.5625 0.6875 1.7
3.625 0.6875 1.7
3.5625 0.75 1.7
3.625 0.6875 1.6375
3.6875 0.75 1.6375
3.6875 0.6875 1.6375
3.75 0.75 1.6375
3.6875 0.6875 1.7
3.75 0.6875 1.7
3.6875 0.75 1.7
3.75 0.6875 1.6375
3.8125 0.75 1.6375
3.8125 0.6875 1.6375
3.875 0.75 1.6375
3.8125 0.6875 1.7
3.875 0.6875 1.7
3.8125 0.75 1.7
3.875 0.6875 1.6375
3.9375 0.75 1.6375
3.9375 0.6875 1.6375
4 0.75 1.6375
3.9375 0.6875 1.7
4 0.6875 1.7
3.9375 0.75 1.7
4 0.6875 1.6375
0.0625 0.875 1.6375
0.0625 0.8125 1.6375
0.125 0.875 1.6375
0.0625 0.8125 1.7
0.125 0.8125 1.7
0 0.875 1.6375
0 0.8125 1.6375
0.0625 0.875 1.7
0 0.8125 1.7
0.125 0.8125 1.6375
0.1875 0.875 1.6375
0.1875 0.8125 1.6375
0.25 0.875 1.6375
0.1875 0.8125 1.7
0.25 0.8125 1.7
0.1875 0.875 1.7
0.25 0.8125 1.6375
0.3125 0.875 1.6375
0.3125 0.8125 1.6375
0.375 0.875 1.6375
0.3125 0.8125 1.7
0.375 0.8125 1.7
0.3125 0.875 1.7
0.375 0.8125 1.6375
0.4375 0.875 1.6375
0.4375 0.8125 1.6375
0.5 0.875 1.6375
0.4375 0.8125 1.7
0.5 0.8125 1.7
0.4375 0.875 1.7
0.5 0.8125 1.6375
0.5625 0.875 1.6375
0.5625 0.8125 1.6375
0.625 0.875 1.6375
0.5625 0.8125 1.7
0.625 0.8125 1.7
0.5625 0.875 1.7
0.625 0.8125 1.6375
0.6875 0.875 1.6375
0.6875 0.8125 1.6375
0.75 0.875 1.6375
0.6875 0.8125 1.7
0.75 0.8125 1.7
0.6875 0.875 1.7
0.75 0.8125 1.6375
0.8125 0.875 1.6375
0.8125 0.8125 1.6375
0.875 0.875 1.6375
0.8125 0.8125 1.7
0.875 0.8125 1.7
0.8125 0.875 1.7
0.875 0.8125 1.6375
0.9375 0.875 1.6375
0.9375 0.8125 1.6375
1 0.875 1.6375
0.9375 0.8125 1.7
1 0.8125 1.7
0.9375 0.875 1.7
1 0.8125 1.6375
1.0625 0.875 1.6375
1.0625 0.8125 1.6375
1.125 0.875 1.6375
1.0625 0.8125 1.7
1.125 0.8125 1.7
1.0625 0.875 1.7
1.125 0.8125 1.6375
1.1875 0.875 1.6375
1.1875 0.8125 1.6375
1.25 0.875 1.6375
1.1875 0.8125 1.7
1.25 0.8125 1.7
1.1875 0.875 1.7
1.25 0.8125 1.6375
1.3125 0.875 1.6375
1.3125 0.8125 1.6375
1.375 0.875 1.6375
1.3125 0.8125 1.7
1.375 0.8125 1.7
1.3125 0.875 1.7
1.375 0.8125 1.6375
1.4375 0.875 1.6375
1.4375 0.8125 1.6375
1.5 0.875 1.6375
1.4375 0.8125 1.7
1.5 0.8125 1.7
1.4375 0.875 1.7
1.5 0.8125 1.6375
1.5625 0.875 1.6375
1.5625 0.8125 1.6375
1.625 0.875 1.6375
1.5625 0.8125 1.7
1.625 0.8125 1.7
1.5625 0.875 1.7
1.625 0.8125 1.6375
1.6875 0.875 1.6375
1.6875 0.8125 1.6375
1.75 0.875 1.6375
1.6875 0.8125 1.7
1.75 0.8125 1.7
1.6875 0.875 1.7
1.75 0.8125 1.6375
1.8125 0.875 1.6375
1.8125 0.8125 1.6375
1.875 0.875 1.6375
1.8125 0.8125 1.7
1.875 0.8125 1.7
1.8125 0.875 1.7
1.875 0.8125 1.6375
1.9375 0.875 1.6375
1.9375 0.8125 1.6375
2 0.875 1.6375
1.9375 0.8125 1.7
2 0.8125 1.7
1.9375 0.875 1.7
2 0.8125 1.6375
2.0625 0.875 1.6375
2.0625 0.8125 1.6375
2.125 0.875 1.6375
2.0625 0.8125 1.7
2.125 0.8125 1.7
2.0625 0.875 1.7
2.125 0.8125 1.6375
2.1875 0.875 1.6375
2.1875 0.8125 1.6375
2.25 0.875 1.6375
2.1875 0.8125 1.7
2.25 0.8125 1.7
2.1875 0.875 1.7
2.25 0.8125 1.6375
2.3125 0.875 1.6375
2.3125 0.8125 1.6375
2.375 0.875 1.6375
2.3125 0.8125 1.7
2.375 0.8125 1.7
2.3125 0.875 1.7
2.375 0.8125 1.6375
2.4375 0.875 1.6375
2.4375 0.8125 1.6375
2.5 0.875 1.6375
2.4375 0.8125 1.7
2.5 0.8125 1.7
2.4375 0.875 1.7
2.5 0.8125 1.6375
2.5625 0.875 1.6375
2.5625 0.8125 1.6375
2.625 0.875 1.6375
2.5625 0.8125 1.7
2.625 0.8125 1.7
2.5625 0.875 1.7
2.625 0.8125 1.6375
2.6875 0.875 1.6375
2.6875 0.8125 1.6375
2.75 0.875 1.6375
2.6875 0.8125 1.7
2.75 0.8125 1.7
2.6875 0.875 1.7
2.75 0.8125 1.6375
2.8125 0.875 1.6375
2.8125 0.8125 1.6375
2.875 0.875 1.6375
2.8125 0.8125 1.7
2.875 0.8125 1.7
2.8125 0.875 1.7
2.875 0.8125 1.6375
2.9375 0.875 1.6375
2.9375 0.8125 1.6375
3 0.875 1.6375
2.9375 0.8125 1.7
3 0.8125 1.7
2.9375 0.875 1.7
3 0.8125 1.6375
3.0625 0.875 1.6375
3.0625 0.8125 1.6375
3.125 0.875 1.6375
3.0625 0.8125 1.7
3.125 0.8125 1.7
3.0625 0.875 1.7
3.125 0.8125 1.6375
3.1875 0.875 1.6375
3.1875 0.8125 1.6375
3.25 0.875 1.6375
3.1875 0.8125 1.7
3.25 0.8125 1.7
3.1875 0.875 1.7
3.25 0.8125 1.6375
3.3125 0.875 1.6375
3.3125 0.8125 1.6375
3.375 0.875 1.6375
3.3125 0.8125 1.7
3.375 0.8125 1.7
3.3125 0.875 1.7
3.375 0.8125 1.6375
3.4375 0.875 1.6375
3.4375 0.8125 1.6375
3.5 0.875 1.6375
3.4375 0.8125 1.7
3.5 0.8125 1.7
3.4375 0.875 1.7
3.5 0.8125 1.6375
3.5625 0.875 1.6375
3.5625 0.8125 1.6375
3.625 0.875 1.6375
3.5625 0.8125 1.7
3.625 0.8125 1.7
3.5625 0.875 1.7
3.625 0.8125 1.6375
3.6875 0.875 1.6375
3.6875 0.8125 1.6375
3.75 0.875 1.6375
3.6875 0.8125 1.7
3.75 0.8125 1.7
3.6875 0.875 1.7
3.75 0.8125 1.6375
3.8125 0.875 1.6375
3.8125 0.8125 1.6375
3.875 0.875 1.6375
3.8125 0.8125 1.7
3.875 0.8125 1.7
3.8125 0.875 1.7
3.875 0.8125 1.6375
3.9375 0.875 1.6375
3.9375 0.8125 1.6375
4 0.875 1.6375
3.9375 0.8125 1.7
4 0.8125 1.7
3.9375 0.875 1.7
4 0.8125 1.6375
0.0625 1 1.6375
0.0625 0.9375 1.6375
0.125 1 1.6375
0.0625 0.9375 1.7
0.125 0.9375 1.7
0 1 1.6375
0 0.9375 1.6375
0.0625 1 1.7
0 0.9375 1.7
0.125 0.9375 1.6375
0.1875 1 1.6375
0.1875 0.9375 1.6375
0.25 1 1.6375
0.1875 0.9375 1.7
0.25 0.9375 1.7
0.1875 1 1.7
0.25 0.9375 1.6375
0.3125 1 1.6375
0.3125 0.9375 1.6375
0.375 1 1.6375
0.3125 0.9375 1.7
0.375 0.9375 1.7
0.3125 1 1.7
0.375 0.9375 1.6375
0.4375 1 1.6375
0.4375 0.9375 1.6375
0.5 1 1.6375
0.4375 0.9375 1.7
0.5 0.9375 1.7
0.4375 1 1.7
0.5 0.9375 1.6375
0.5625 1 1.6375
0.5625 0.9375 1.6375
0.625 1 1.6375
0.5625 0.9375 1.7
0.625 0.9375 1.7
0.5625 1 1.7
0.625 0.9375 1.6375
0.6875 1 1.6375
0.6875 0.9375 1.6375
0.75 1 1.6375
0.6875 0.9375 1.7
0.75 0.9375 1.7
0.6875 1 1.7
0.75 0.9375 1.6375
0.8125 1 1.6375
0.8125 0.9375 1.6375
0.875 1 1.6375
0.8125 0.9375 1.7
0.875 0.9375 1.7
0.8125 1 1.7
0.875 0.9375 1.6375
0.9375 1 1.6375
0.9375 0.9375 1.6375
1 1 1.6375
0.9375 0.9375 1.7
1 0.9375 1.7
0.9375 1 1.7
1 0.9375 1.6375
1.0625 1 1.6375
1.0625 0.9375 1.6375
1.125 1 1.6375
1.0625 0.9375 1.7
1.125 0.9375 1.7
1.0625 1 1.7
1.125 0.9375 1.6375
1.1875 1 1.6375
1.1875 0.9375 1.6375
1.25 1 1.6375
1.1875 0.9375 1.7
1.25 0.9375 1.7
1.1875 1 1.7
1.25 0.9375 1.6375
1.3125 1 1.6375
1.3125 0.9375 1.6375
1.375 1 1.6375
1.3125 0.9375 1.7
1.375 0.9375 1.7
1.3125 1 1.7
1.375 0.9375 1.6375
1.4375 1 1.6375
1.4375 0.9375 1.6375
1.5 1 1.6375
1.4375 0.9375 1.7
1.5 0.9375 1.7
1.4375 1 1.7
1.5 0.9375 1.6375
1.5625 1 1.6375
1.5625 0.9375 1.6375
1.625 1 1.6375
1.5625 0.9375 1.7
1.625 0.9375 1.7
1.5625 1 1.7
1.625 0.9375 1.6375
1.6875 1 1.6375
1.6875 0.9375 1.6375
1.75 1 1.6375
1.6875 0.9375 1.7
1.75 0.9375 1.7
1.6875 1 1.7
1.75 0.9375 1.6375
1.8125 1 1.6375
1.8125 0.9375 1.6375
1.875 1 1.6375
1.8125 0.9375 1.7
1.875 0.9375 1.7
1.8125 1 1.7
1.875 0.9375 1.6375
1.9375 1 1.6375
1.9375 0.9375 1.6375
2 1 1.6375
1.9375 0.9375 1.7
2 0.9375 1.7
1.9375 1 1.7
2 0.9375 1.6375
2.0625 1 1.6375
2.0625 0.9375 1.6375
2.125 1 1.6375
2.0625 0.9375 1.7
2.125 0.9375 1.7
2.0625 1 1.7
2.125 0.9375 1.6375
2.1875 1 1.6375
2.1875 0.9375 1.6375
2.25 1 1.6375
2.1875 0.9375 1.7
2.25 0.9375 1.7
2.1875 1 1.7
2.25 0.9375 1.6375
2.3125 1 1.6375
2.3125 0.9375 1.6375
2.375 1 1.6375
2.3125 0.9375 1.7
2.375 0.9375 1.7
2.3125 1 1.7
2.375 0.9375 1.6375
2.4375 1 1.6375
2.4375 0.9375 1.6375
2.5 1 1.6375
2.4375 0.9375 1.7
2.5 0.9375 1.7
2.4375 1 1.7
2.5 0.9375 1.6375
2.5625 1 1.6375
2.5625 0.9375 1.6375
2.625 1 1.6375
2.5625 0.9375 1.7
2.625 0.9375 1.7
2.5625 1 1.7
2.625 0.9375 1.6375
2.6875 1 1.6375
2.6875 0.9375 1.6375
2.75 1 1.6375
2.6875 0.9375 1.7
2.75 0.9375 1.7
2.6875 1 1.7
2.75 0.9375 1.6375
2.8125 1 1.6375
2.8125 0.9375 1.6375
2.875 1 1.6375
2.8125 0.9375 1.7
2.875 0.9375 1.7
2.8125 1 1.7
2.875 0.9375 1.6375
2.9375 1 1.6375
2.9375 0.9375 1.6375
3 1 1.6375
2.9375 0.9375 1.7
3 0.9375 1.7
2.9375 1 1.7
3 0.9375 1.6375
3.0625 1 1.6375
3.0625 0.9375 1.6375
3.125 1 1.6375
3.0625 0.9375 1.7
3.125 0.9375 1.7
3.0625 1 1.7
3.125 0.9375 1.6375
3.1875 1 1.6375
3.1875 0.9375 1.6375
3.25 1 1.6375
3.1875 0.9375 1.7
3.25 0.9375 1.7
3.1875 1 1.7
3.25 0.9375 1.6375
3.3125 1 1.6375
3.3125 0.9375 1.6375
3.375 1 1.6375
3.3125 0.9375 1.7
3.375 0.9375 1.7
3.3125 1 1.7
3.375 0.9375 1.6375
3.4375 1 1.6375
3.4375 0.9375 1.6375
3.5 1 1.6375
3.4375 0.9375 1.7
3.5 0.9375 1.7
3.4375 1 1.7
3.5 0.9375 1.6375
3.5625 1 1.6375
3.5625 0.9375 1.6375
3.625 1 1.6375
3.5625 0.9375 1.7
3.625 0.9375 1.7
3.5625 1 1.7
3.625 0.9375 1.6375
3.6875 1 1.6375
3.6875 0.9375 1.6375
3.75 1 1.6375
3.6875 0.9375 1.7
3.75 0.9375 1.7
3.6875 1 1.7
3.75 0.9375 1.6375
3.8125 1 1.6375
3.8125 0.9375 1.6375
3.875 1 1.6375
3.8125 0.9375 1.7
3.875 0.9375 1.7
3.8125 1 1.7
3.875 0.9375 1.6375
3.9375 1 1.6375
3.9375 0.9375 1.6375
4 1 1.6375
3.9375 0.9375 1.7
4 0.9375 1.7
3.9375 1 1.7
4 0.9375 1.6375

CELLS 12289 122880
OFFSETS vtktypeint64
0 10 20 30 40 50 60 70 80 90 100 110 120 130 140 150 160 170 180 190 200 210 220 230 240 250 260 270 280 290 300 310 320 330 340 350 360 370 380 390 400 410 420 430 440 450 460 470 480 490 500 510 520 530 540 550 560 570 580 590 600 610 620 630 640 650 660 670 680 690 700 710 720 730 740 750 760 770 780 790 800 810 820 830 840 850 860 870 880 890 900 910 920 930 940 950 960 970 980 990 1000 1010 1020 1030 1040 1050 1060 1070 1080 1090 1100 1110 1120 1130 1140 1150 1160 1170 1180 1190 1200 1210 1220 1230 1240 1250 1260 1270 1280 1290 1300 1310 1320 1330 1340 1350 1360 1370 1380 1390 1400 1410 1420 1430 1440 1450 1460 1470 1480 1490 1500 1510 1520 1530 1540 1550 1560 1570 1580 1590 1600 1610 1620 1630 1640 1650 1660 1670 1680 1690 1700 1710 1720 1730 1740 1750 1760 1770 1780 1790 1800 1810 1820 1830 1840 1850 1860 1870 1880 1890 1900 1910 1920 1930 1940 1950 1960 1970 1980 1990 2000 2010 2020 2030 2040 2050 2060 2070 2080 2090 2100 2110 2120 2130 2140 2150 2160 2170 2180 2190 2200 2210 2220 2230 2240 2250 2260 2270 2280 2290 2300 2310 2320 2330 2340 2350 2360 2370 2380 2390 2400 2410 2420 2430 2440 2450 2460 2470 2480 2490 2500 2510 2520 2530 2540 2550 2560 2570 2580 2590 2600 2610 2620 2630 2640 2650 2660 2670 2680 2690 2700 2710 2720 2730 2740 2750 2760 2770 2780 2790 2800 2810 2820 2830 2840 2850 2860 2870 2880 2890 2900 2910 2920 2930 2940 2950 2960 2970 2980 2990 3000 3010 3020 3030 3040 3050 3060 3070 3080 3090 3100 3110 3120 3130 3140 3150 3160 3170 3180 3190 3200 3210 3220 3230 3240 3250 3260 3270 3280 3290 3300 3310 3320 3330 3340 3350 3360 3370 3380 3390 3400 3410 3420 3430 3440 3450 3460 3470 3480 3490 3500 3510 3520 3530 3540 3550 3560 3570 3580 3590 3600 3610 3620 3630 3640 3650 3660 3670 3680 3690 3700 3710 3720 3730 3740 3750 3760 3770 3780 3790 3800 3810 3820 3830 3840 3850 3860 3870 3880 3890 3900 3910 3920 3930 3940 3950 3960 3970 3980 3990 4000 4010 4020 4030 4040 4050 4060 4070 4080 4090 4100 4110 4120 4130 4140 4150 4160 4170 4180 4190 4200 4210 4220 4230 4240 4250 4260 4270 4280 4290 4300 4310 4320 4330 4340 4350 4360 4370 4380 4390 4400 4410 4420 4430 4440 4450 4460 4470 4480 4490 4500 4510 4520 4530 4540 4550 4560 4570 4580 4590 4600 4610 4620 4630 4640 4650 4660 4670 4680 4690 4700 4710 4720 4730 4740 4750 4760 4770 4780 4790 4800 4810 4820 4830 4840 4850 4860 4870 4880 4890 4900 4910 4920 4930 4940 4950 4960 4970 4980 4990 5000 5010 5020 5030 5040 5050 5060 5070 5080 5090 5100 5110 5120 5130 5140 5150 5160 5170 5180 5190 5200 5210 5220 5230 5240 5250 5260 5270 5280 5290 5300 5310 5320 5330 5340 5350 5360 5370 5380 5390 5400 5410 5420 5430 5440 5450 5460 5470 5480 5490 5500 5510 5520 5530 5540 5550 5560 5570 5580 5590 5600 5610 5620 5630 5640 5650 5660 5670 5680 5690 5700 5710 5720 5730 5740 5750 5760 5770 5780 5790 5800 5810 5820 5830 5840 5850 5860 5870 5880 5890 5900 5910 5920 5930 5940 5950 5960 5970 5980 5990 6000 6010 6020 6030 6040 6050 6060 6070 6080 6090 6100 6110 6120 6130 6140 6150 6160 6170 6180 6190 6200 6210 6220 6230 6240 6250 6260 6270 6280 6290 6300 6310 6320 6330 6340 6350 6360 6370 6380 6390 6400 6410 6420 6430 6440 6450 6460 6470 6480 6490 6500 6510 6520 6530 6540 6550 6560 6570 6580 6590 6600 6610 6620 6630 6640 6650 6660 6670 6680 6690 6700 6710 6720 6730 6740 6750 6760 6770 6780 6790 6800 6810 6820 6830 6840 6850 6860 6870 6880 6890 6900 6910 6920 6930 6940 6950 6960 6970 6980 6990 7000 7010 7020 7030 7040 7050 7060 7070 7080 7090 7100 7110 7120 7130 7140 7150 7160 7170 7180 7190 7200 7210 7220 7230 7240 7250 7260 7270 7280 7290 7300 7310 7320 7330 7340 7350 7360 7370 7380 7390 7400 7410 7420 7430 7440 7450 7460 7470 7480 7490 7500 7510 7520 7530 7540 7550 7560 7570 7580 7590 7600 7610 7620 7630 7640 7650 7660 7670 7680 7690 7700 7710 7720 7730 7740 7750 7760 7770 7780 7790 7800 7810 7820 7830 7840 7850 7860 7870 7880 7890 7900 7910 7920 7930 7940 7950 7960 7970 7980 7990 8000 8010 8020 8030 8040 8050 8060 8070 8080 8090 8100 8110 8120 8130 8140 8150 8160 8170 8180 8190 8200 8210 8220 8230 8240 8250 8260 8270 8280 8290 8300 8310 8320 8330 8340 8350 8360 8370 8380 8390 8400 8410 8420 8430 8440 8450 8460 8470 8480 8490 8500 8510 8520 8530 8540 8550 8560 8570 8580 8590 8600 8610 8620 8630 8640 8650 8660 8670 8680 8690 8700 8710 8720 8730 8740 8750 8760 8770 8780 8790 8800 8810 8820 8830 8840 8850 8860 8870 8880 8890 8900 8910 8920 8930 8940 8950 8960 8970 8980 8990 9000 9010 9020 9030 9040 9050 9060 9070 9080 9090 9100 9110 9120 9130 9140 9150 9160 9170 9180 9190 9200 9210 9220 9230 9240 9250 9260 9270 9280 9290 9300 9310 9320 9330 9340 9350 9360 9370 9380 9390 9400 9410 9420 9430 9440 9450 9460 9470 9480 9490 9500 9510 9520 9530 9540 9550 9560 9570 9580 9590 9600 9610 9620 9630 9640 9650 9660 9670 9680 9690 9700 9710 9720 9730 9740 9750 9760 9770 9780 9790 9800 9810 9820 9830 9840 9850 9860 9870 9880 9890 9900 9910 9920 9930 9940 9950 9960 9970 9980 9990 10000 10010 10020 10030 10040 10050 10060 10070 10080 10090 10100 10110 10120 10130 10140 10150 10160 10170 10180 10190 10200 10210 10220 10230 10240 10250 10260 10270 10280 10290 10300 10310 10320 10330 10340 10350 10360 10370 10380 10390 10400 10410 10420 10430 10440 10450 10460 10470 10480 10490 10500 10510 10520 10530 10540 10550 10560 10570 10580 10590 10600 10610 10620 10630 10640 10650 10660 10670 10680 10690 10700 10710 10720 10730 10740 10750 10760 10770 10780 10790 10800 10810 10820 10830 10840 10850 10860 10870 10880 10890 10900 10910 10920 10930 10940 10950 10960 10970 10980 10990 11000 11010 11020 11030 11040 11050 11060 11070 11080 11090 11100 11110 11120 11130 11140 11150 11160 11170 11180 11190 11200 11210 11220 11230 11240 11250 11260 11270 11280 11290 11300 11310 11320 11330 11340 11350 11360 11370 11380 11390 11400 11410 11420 11430 11440 11450 11460 11470 11480 11490 11500 11510 11520 11530 11540 11550 11560 11570 11580 11590 11600 11610 11620 11630 11640 11650 11660 11670 11680 11690 11700 11710 11720 11730 11740 11750 11760 11770 11780 11790 11800 11810 11820 11830 11840 11850 11860 11870 11880 11890 11900 11910 11920 11930 11940 11950 11960 11970 11980 11990 12000 12010 12020 12030 12040 12050 12060 12070 12080 12090 12100 12110 12120 12130 12140 12150 12160 12170 12180 12190 12200 12210 12220 12230 12240 12250 12260 12270 12280 12290 12300 12310 12320 12330 12340 12350 12360 12370 12380 12390 12400 12410 12420 12430 12440 12450 12460 12470 12480 12490 12500 12510 12520 12530 12540 12550 12560 12570 12580 12590 12600 12610 12620 12630 12640 12650 12660 12670 12680 12690 12700 12710 12720 12730 12740 12750 12760 12770 12780 12790 12800 12810 12820 12830 12840 12850 12860 12870 12880 12890 12900 12910 12920 12930 12940 12950 12960 12970 12980 12990 13000 13010 13020 13030 13040 13050 13060 13070 13080 13090 13100 13110 13120 13130 13140 13150 13160 13170 13180 13190 13200 13210 13220 13230 13240 13250 13260 13270 13280 13290 13300 13310 13320 13330 13340 13350 13360 13370 13380 13390 13400 13410 13420 13430 13440 13450 13460 13470 13480 13490 13500 13510 13520 13530 13540 13550 13560 13570 13580 13590 13600 13610 13620 13630 13640 13650 13660 13670 13680 13690 13700 13710 13720 13730 13740 13750 13760 13770 13780 13790 13800 13810 13820 13830 13840 13850 13860 13870 13880 13890 13900 13910 13920 13930 13940 13950 13960 13970 13980 13990 14000 14010 14020 14030 14040 14050 14060 14070 14080 14090 14100 14110 14120 14130 14140 14150 14160 14170 14180 14190 14200 14210 14220 14230 14240 14250 14260 14270 14280 14290 14300 14310 14320 14330 14340 14350 14360 14370 14380 14390 14400 14410 14420 14430 14440 14450 14460 14470 14480 14490 14500 14510 14520 14530 14540 14550 14560 14570 14580 14590 14600 14610 14620 14630 14640 14650 14660 14670 14680 14690 14700 14710 14720 14730 14740 14750 14760 14770 14780 14790 14800 14810 14820 14830 14840 14850 14860 14870 14880 14890 14900 14910 14920 14930 14940 14950 14960 14970 14980 14990 15000 15010 15020 15030 15040 15050 15060 15070 15080 15090 15100 15110 15120 15130 15140 15150 15160 15170 15180 15190 15200 15210 15220 15230 15240 15250 15260 15270 15280 15290 15300 15310 15320 15330 15340 15350 15360 15370 15380 15390 15400 15410 15420 15430 15440 15450 15460 15470 15480 15490 15500 15510 15520 15530 15540 15550 15560 15570 15580 15590 15600 15610 15620 15630 15640 15650 15660 15670 15680 15690 15700 15710 15720 15730 15740 15750 15760 15770 15780 15790 15800 15810 15820 15830 15840 15850 15860 15870 15880 15890 15900 15910 15920 15930 15940 15950 15960 15970 15980 15990 16000 16010 16020 16030 16040 16050 16060 16070 16080 16090 16100 16110 16120 16130 16140 16150 16160 16170 16180 16190 16200 16210 16220 16230 16240 16250 16260 16270 16280 16290 16300 16310 16320 16330 16340 16350 16360 16370 16380 16390 16400 16410 16420 16430 16440 16450 16460 16470 16480 16490 16500 16510 16520 16530 16540 16550 16560 16570 16580 16590 16600 16610 16620 16630 16640 16650 16660 16670 16680 16690 16700 16710 16720 16730 16740 16750 16760 16770 16780 16790 16800 16810 16820 16830 16840 16850 16860 16870 16880 16890 16900 16910 16920 16930 16940 16950 16960 16970 16980 16990 17000 17010 17020 17030 17040 17050 17060 17070 17080 17090 17100 17110 17120 17130 17140 17150 17160 17170 17180 17190 17200 17210 17220 17230 17240 17250 17260 17270 17280 17290 17300 17310 17320 17330 17340 17350 17360 17370 17380 17390 17400 17410 17420 17430 17440 17450 17460 17470 17480 17490 17500 17510 17520 17530 17540 17550 17560 17570 17580 17590 17600 17610 17620 17630 17640 17650 17660 17670 17680 17690 17700 17710 17720 17730 17740 17750 17760 17770 17780 17790 17800 17810 17820 17830 17840 17850 17860 17870 17880 17890 17900 17910 17920 17930 17940 17950 17960 17970 17980 17990 18000 18010 18020 18030 18040 18050 18060 18070 18080 18090 18100 18110 18120 18130 18140 18150 18160 18170 18180 18190 18200 18210 18220 18230 18240 18250 18260 18270 18280 18290 18300 18310 18320 18330 18340 18350 18360 18370 18380 18390 18400 18410 18420 18430 18440 18450 18460 18470 18480 18490 18500 18510 18520 18530 18540 18550 18560 18570 18580 18590 18600 18610 18620 18630 18640 18650 18660 18670 18680 18690 18700 18710 18720 18730 18740 18750 18760 18770 18780 18790 18800 18810 18820 18830 18840 18850 18860 18870 18880 18890 18900 18910 18920 18930 18940 18950 18960 18970 18980 18990 19000 19010 19020 19030 19040 19050 19060 19070 19080 19090 19100 19110 19120 19130 19140 19150 19160 19170 19180 19190 19200 19210 19220 19230 19240 19250 19260 19270 19280 19290 19300 19310 19320 19330 19340 19350 19360 19370 19380 19390 19400 19410 19420 19430 19440 19450 19460 19470 19480 19490 19500 19510 19520 19530 19540 19550 19560 19570 19580 19590 19600 19610 19620 19630 19640 19650 19660 19670 19680 19690 19700 19710 19720 19730 19740 19750 19760 19770 19780 19790 19800 19810 19820 19830 19840 19850 19860 19870 19880 19890 19900 19910 19920 19930 19940 19950 19960 19970 19980 19990 20000 20010 20020 20030 20040 20050 20060 20070 20080 20090 20100 20110 20120 20130 20140 20150 20160 20170 20180 20190 20200 20210 20220 20230 20240 20250 20260 20270 20280 20290 20300 20310 20320 20330 20340 20350 20360 20370 20380 20390 20400 20410 20420 20430 20440 20450 20460 20470 20480 20490 20500 20510 20520 20530 20540 20550 20560 20570 20580 20590 20600 20610 20620 20630 20640 20650 20660 20670 20680 20690 20700 20710 20720 20730 20740 20750 20760 20770 20780 20790 20800 20810 20820 20830 20840 20850 20860 20870 20880 20890 20900 20910 20920 20930 20940 20950 20960 20970 20980 20990 21000 21010 21020 21030 21040 21050 21060 21070 21080 21090 21100 21110 21120 21130 21140 21150 21160 21170 21180 21190 21200 21210 21220 21230 21240 21250 21260 21270 21280 21290 21300 21310 21320 21330 21340 21350 21360 21370 21380 21390 21400 21410 21420 21430 21440 21450 21460 21470 21480 21490 21500 21510 21520 21530 21540 21550 21560 21570 21580 21590 21600 21610 21620 21630 21640 21650 21660 21670 21680 21690 21700 21710 21720 21730 21740 21750 21760 21770 21780 21790 21800 21810 21820 21830 21840 21850 21860 21870 21880 21890 21900 21910 21920 21930 21940 21950 21960 21970 21980 21990 22000 22010 22020 22030 22040 22050 22060 22070 22080 22090 22100 22110 22120 22130 22140 22150 22160 22170 22180 22190 22200 22210 22220 22230 22240 22250 22260 22270 22280 22290 22300 22310 22320 22330 22340 22350 22360 22370 22380 22390 22400 22410 22420 22430 22440 22450 22460 22470 22480 22490 22500 22510 22520 22530 22540 22550 22560 22570 22580 22590 22600 22610 22620 22630 22640 22650 22660 22670 22680 22690 22700 22710 22720 22730 22740 22750 22760 22770 22780 22790 22800 22810 22820 22830 22840 22850 22860 22870 22880 22890 22900 22910 22920 22930 22940 22950 22960 22970 22980 22990 23000 23010 23020 23030 23040 23050 23060 23070 23080 23090 23100 23110 23120 23130 23140 23150 23160 23170 23180 23190 23200 23210 23220 23230 23240 23250 23260 23270 23280 23290 23300 23310 23320 23330 23340 23350 23360 23370 23380 23390 23400 23410 23420 23430 23440 23450 23460 23470 23480 23490 23500 23510 23520 23530 23540 23550 23560 23570 23580 23590 23600 23610 23620 23630 23640 23650 23660 23670 23680 23690 23700 23710 23720 23730 23740 23750 23760 23770 23780 23790 23800 23810 23820 23830 23840 23850 23860 23870 23880 23890 23900 23910 23920 23930 23940 23950 23960 23970 23980 23990 24000 24010 24020 24030 24040 24050 24060 24070 24080 24090 24100 24110 24120 24130 24140 24150 24160 24170 24180 24190 24200 24210 24220 24230 24240 24250 24260 24270 24280 24290 24300 24310 24320 24330 24340 24350 24360 24370 24380 24390 24400 24410 24420 24430 24440 24450 24460 24470 24480 24490 24500 24510 24520 24530 24540 24550 24560 24570 24580 24590 24600 24610 24620 24630 24640 24650 24660 24670 24680 24690 24700 24710 24720 24730 24740 24750 24760 24770 24780 24790 24800 24810 24820 24830 24840 24850 24860 24870 24880 24890 24900 24910 24920 24930 24940 24950 24960 24970 24980 24990 25000 25010 25020 25030 25040 25050 25060 25070 25080 25090 25100 25110 25120 25130 25140 25150 25160 25170 25180 25190 25200 25210 25220 25230 25240 25250 25260 25270 25280 25290 25300 25310 25320 25330 25340 25350 25360 25370 25380 25390 25400 25410 25420 25430 25440 25450 25460 25470 25480 25490 25500 25510 25520 25530 25540 25550 25560 25570 25580 25590 25600 25610 25620 25630 25640 25650 25660 25670 25680 25690 25700 25710 25720 25730 25740 25750 25760 25770 25780 25790 25800 25810 25820 25830 25840 25850 25860 25870 25880 25890 25900 25910 25920 25930 25940 25950 25960 25970 25980 25990 26000 26010 26020 26030 26040 26050 26060 26070 26080 26090 26100 26110 26120 26130 26140 26150 26160 26170 26180 26190 26200 26210 26220 26230 26240 26250 26260 26270 26280 26290 26300 26310 26320 26330 26340 26350 26360 26370 26380 26390 26400 26410 26420 26430 26440 26450 26460 26470 26480 26490 26500 26510 26520 26530 26540 26550 26560 26570 26580 26590 26600 26610 26620 26630 26640 26650 26660 26670 26680 26690 26700 26710 26720 26730 26740 26750 26760 26770 26780 26790 26800 26810 26820 26830 26840 26850 26860 26870 26880 26890 26900 26910 26920 26930 26940 26950 26960 26970 26980 26990 27000 27010 27020 27030 27040 27050 27060 27070 27080 27090 27100 27110 27120 27130 27140 27150 27160 27170 27180 27190 27200 27210 27220 27230 27240 27250 27260 27270 27280 27290 27300 27310 27320 27330 27340 27350 27360 27370 27380 27390 27400 27410 27420 27430 27440 27450 27460 27470 27480 27490 27500 27510 27520 27530 27540 27550 27560 27570 27580 27590 27600 27610 27620 27630 27640 27650 27660 27670 27680 27690 27700 27710 27720 27730 27740 27750 27760 27770 27780 27790 27800 27810 27820 27830 27840 27850 27860 27870 27880 27890 27900 27910 27920 27930 27940 27950 27960 27970 27980 27990 28000 28010 28020 28030 28040 28050 28060 28070 28080 28090 28100 28110 28120 28130 28140 28150 28160 28170 28180 28190 28200 28210 28220 28230 28240 28250 28260 28270 28280 28290 28300 28310 28320 28330 28340 28350 28360 28370 28380 28390 28400 28410 28420 28430 28440 28450 28460 28470 28480 28490 28500 28510 28520 28530 28540 28550 28560 28570 28580 28590 28600 28610 28620 28630 28640 28650 28660 28670 28680 28690 28700 28710 28720 28730 28740 28750 28760 28770 28780 28790 28800 28810 28820 28830 28840 28850 28860 28870 28880 28890 28900 28910 28920 28930 28940 28950 28960 28970 28980 28990 29000 29010 29020 29030 29040 29050 29060 29070 29080 29090 29100 29110 29120 29130 29140 29150 29160 29170 29180 29190 29200 29210 29220 29230 29240 29250 29260 29270 29280 29290 29300 29310 29320 29330 29340 29350 29360 29370 29380 29390 29400 29410 29420 29430 29440 29450 29460 29470 29480 29490 29500 29510 29520 29530 29540 29550 29560 29570 29580 29590 29600 29610 29620 29630 29640 29650 29660 29670 29680 29690 29700 29710 29720 29730 29740 29750 29760 29770 29780 29790 29800 29810 29820 29830 29840 29850 29860 29870 29880 29890 29900 29910 29920 29930 29940 29950 29960 29970 29980 29990 30000 30010 30020 30030 30040 30050 30060 30070 30080 30090 30100 30110 30120 30130 30140 30150 30160 30170 30180 30190 30200 30210 30220 30230 30240 30250 30260 30270 30280 30290 30300 30310 30320 30330 30340 30350 30360 30370 30380 30390 30400 30410 30420 30430 30440 30450 30460 30470 30480 30490 30500 30510 30520 30530 30540 30550 30560 30570 30580 30590 30600 30610 30620 30630 30640 30650 30660 30670 30680 30690 30700 30710 30720 30730 30740 30750 30760 30770 30780 30790 30800 30810 30820 30830 30840 30850 30860 30870 30880 30890 30900 30910 30920 30930 30940 30950 30960 30970 30980 30990 31000 31010 31020 31030 31040 31050 31060 31070 31080 31090 31100 31110 31120 31130 31140 31150 31160 31170 31180 31190 31200 31210 31220 31230 31240 31250 31260 31270 31280 31290 31300 31310 31320 31330 31340 31350 31360 31370 31380 31390 31400 31410 31420 31430 31440 31450 31460 31470 31480 31490 31500 31510 31520 31530 31540 31550 31560 31570 31580 31590 31600 31610 31620 31630 31640 31650 31660 31670 31680 31690 31700 31710 31720 31730 31740 31750 31760 31770 31780 31790 31800 31810 31820 31830 31840 31850 31860 31870 31880 31890 31900 31910 31920 31930 31940 31950 31960 31970 31980 31990 32000 32010 32020 32030 32040 32050 32060 32070 32080 32090 32100 32110 32120 32130 32140 32150 32160 32170 32180 32190 32200 32210 32220 32230 32240 32250 32260 32270 32280 32290 32300 32310 32320 32330 32340 32350 32360 32370 32380 32390 32400 32410 32420 32430 32440 32450 32460 32470 32480 32490 32500 32510 32520 32530 32540 32550 32560 32570 32580 32590 32600 32610 32620 32630 32640 32650 32660 32670 32680 32690 32700 32710 32720 32730 32740 32750 32760 32770 32780 32790 32800 32810 32820 32830 32840 32850 32860 32870 32880 32890 32900 32910 32920 32930 32940 32950 32960 32970 32980 32990 33000 33010 33020 33030 33040 33050 33060 33070 33080 33090 33100 33110 33120 33130 33140 33150 33160 33170 33180 33190 33200 33210 33220 33230 33240 33250 33260 33270 33280 33290 33300 33310 33320 33330 33340 33350 33360 33370 33380 33390 33400 33410 33420 33430 33440 33450 33460 33470 33480 33490 33500 33510 33520 33530 33540 33550 33560 33570 33580 33590 33600 33610 33620 33630 33640 33650 33660 33670 33680 33690 33700 33710 33720 33730 33740 33750 33760 33770 33780 33790 33800 33810 33820 33830 33840 33850 33860 33870 33880 33890 33900 33910 33920 33930 33940 33950 33960 33970 33980 33990 34000 34010 34020 34030 34040 34050 34060 34070 34080 34090 34100 34110 34120 34130 34140 34150 34160 34170 34180 34190 34200 34210 34220 34230 34240 34250 34260 34270 34280 34290 34300 34310 34320 34330 34340 34350 34360 34370 34380 34390 34400 34410 34420 34430 34440 34450 34460 34470 34480 34490 34500 34510 34520 34530 34540 34550 34560 34570 34580 34590 34600 34610 34620 34630 34640 34650 34660 34670 34680 34690 34700 34710 34720 34730 34740 34750 34760 34770 34780 34790 34800 34810 34820 34830 34840 34850 34860 34870 34880 34890 34900 34910 34920 34930 34940 34950 34960 34970 34980 34990 35000 35010 35020 35030 35040 35050 35060 35070 35080 35090 35100 35110 35120 35130 35140 35150 35160 35170 35180 35190 35200 35210 35220 35230 35240 35250 35260 35270 35280 35290 35300 35310 35320 35330 35340 35350 35360 35370 35380 35390 35400 35410 35420 35430 35440 35450 35460 35470 35480 35490 35500 35510 35520 35530 35540 35550 35560 35570 35580 35590 35600 35610 35620 35630 35640 35650 35660 35670 35680 35690 35700 35710 35720 35730 35740 35750 35760 35770 35780 35790 35800 35810 35820 35830 35840 35850 35860 35870 35880 35890 35900 35910 35920 35930 35940 35950 35960 35970 35980 35990 36000 36010 36020 36030 36040 36050 36060 36070 36080 36090 36100 36110 36120 36130 36140 36150 36160 36170 36180 36190 36200 36210 36220 36230 36240 36250 36260 36270 36280 36290 36300 36310 36320 36330 36340 36350 36360 36370 36380 36390 36400 36410 36420 36430 36440 36450 36460 36470 36480 36490 36500 36510 36520 36530 36540 36550 36560 36570 36580 36590 36600 36610 36620 36630 36640 36650 36660 36670 36680 36690 36700 36710 36720 36730 36740 36750 36760 36770 36780 36790 36800 36810 36820 36830 36840 36850 36860 36870 36880 36890 36900 36910 36920 36930 36940 36950 36960 36970 36980 36990 37000 37010 37020 37030 37040 37050 37060 37070 37080 37090 37100 37110 37120 37130 37140 37150 37160 37170 37180 37190 37200 37210 37220 37230 37240 37250 37260 37270 37280 37290 37300 37310 37320 37330 37340 37350 37360 37370 37380 37390 37400 37410 37420 37430 37440 37450 37460 37470 37480 37490 37500 37510 37520 37530 37540 37550 37560 37570 37580 37590 37600 37610 37620 37630 37640 37650 37660 37670 37680 37690 37700 37710 37720 37730 37740 37750 37760 37770 37780 37790 37800 37810 37820 37830 37840 37850 37860 37870 37880 37890 37900 37910 37920 37930 37940 37950 37960 37970 37980 37990 38000 38010 38020 38030 38040 38050 38060 38070 38080 38090 38100 38110 38120 38130 38140 38150 38160 38170 38180 38190 38200 38210 38220 38230 38240 38250 38260 38270 38280 38290 38300 38310 38320 38330 38340 38350 38360 38370 38380 38390 38400 38410 38420 38430 38440 38450 38460 38470 38480 38490 38500 38510 38520 38530 38540 38550 38560 38570 38580 38590 38600 38610 38620 38630 38640 38650 38660 38670 38680 38690 38700 38710 38720 38730 38740 38750 38760 38770 38780 38790 38800 38810 38820 38830 38840 38850 38860 38870 38880 38890 38900 38910 38920 38930 38940 38950 38960 38970 38980 38990 39000 39010 39020 39030 39040 39050 39060 39070 39080 39090 39100 39110 39120 39130 39140 39150 39160 39170 39180 39190 39200 39210 39220 39230 39240 39250 39260 39270 39280 39290 39300 39310 39320 39330 39340 39350 39360 39370 39380 39390 39400 39410 39420 39430 39440 39450 39460 39470 39480 39490 39500 39510 39520 39530 39540 39550 39560 39570 39580 39590 39600 39610 39620 39630 39640 39650 39660 39670 39680 39690 39700 39710 39720 39730 39740 39750 39760 39770 39780 39790 39800 39810 39820 39830 39840 39850 39860 39870 39880 39890 39900 39910 39920 39930 39940 39950 39960 39970 39980 39990 40000 40010 40020 40030 40040 40050 40060 40070 40080 40090 40100 40110 40120 40130 40140 40150 40160 40170 40180 40190 40200 40210 40220 40230 40240 40250 40260 40270 40280 40290 40300 40310 40320 40330 40340 40350 40360 40370 40380 40390 40400 40410 40420 40430 40440 40450 40460 40470 40480 40490 40500 40510 40520 40530 40540 40550 40560 40570 40580 40590 40600 40610 40620 40630 40640 40650 40660 40670 40680 40690 40700 40710 40720 40730 40740 40750 40760 40770 40780 40790 40800 40810 40820 40830 40840 40850 40860 40870 40880 40890 40900 40910 40920 40930 40940 40950 40960 40970 40980 40990 41000 41010 41020 41030 41040 41050 41060 41070 41080 41090 41100 41110 41120 41130 41140 41150 41160 41170 41180 41190 41200 41210 41220 41230 41240 41250 41260 41270 41280 41290 41300 41310 41320 41330 41340 41350 41360 41370 41380 41390 41400 41410 41420 41430 41440 41450 41460 41470 41480 41490 41500 41510 41520 41530 41540 41550 41560 41570 41580 41590 41600 41610 41620 41630 41640 41650 41660 41670 41680 41690 41700 41710 41720 41730 41740 41750 41760 41770 41780 41790 41800 41810 41820 41830 41840 41850 41860 41870 41880 41890 41900 41910 41920 41930 41940 41950 41960 41970 41980 41990 42000 42010 42020 42030 42040 42050 42060 42070 42080 42090 42100 42110 42120 42130 42140 42150 42160 42170 42180 42190 42200 42210 42220 42230 42240 42250 42260 42270 42280 42290 42300 42310 42320 42330 42340 42350 42360 42370 42380 42390 42400 42410 42420 42430 42440 42450 42460 42470 42480 42490 42500 42510 42520 42530 42540 42550 42560 42570 42580 42590 42600 42610 42620 42630 42640 42650 42660 42670 42680 42690 42700 42710 42720 42730 42740 42750 42760 42770 42780 42790 42800 42810 42820 42830 42840 42850 42860 42870 42880 42890 42900 42910 42920 42930 42940 42950 42960 42970 42980 42990 43000 43010 43020 43030 43040 43050 43060 43070 43080 43090 43100 43110 43120 43130 43140 43150 43160 43170 43180 43190 43200 43210 43220 43230 43240 43250 43260 43270 43280 43290 43300 43310 43320 43330 43340 43350 43360 43370 43380 43390 43400 43410 43420 43430 43440 43450 43460 43470 43480 43490 43500 43510 43520 43530 43540 43550 43560 43570 43580 43590 43600 43610 43620 43630 43640 43650 43660 43670 43680 43690 43700 43710 43720 43730 43740 43750 43760 43770 43780 43790 43800 43810 43820 43830 43840 43850 43860 43870 43880 43890 43900 43910 43920 43930 43940 43950 43960 43970 43980 43990 44000 44010 44020 44030 44040 44050 44060 44070 44080 44090 44100 44110 44120 44130 44140 44150 44160 44170 44180 44190 44200 44210 44220 44230 44240 44250 44260 44270 44280 44290 44300 44310 44320 44330 44340 44350 44360 44370 44380 44390 44400 44410 44420 44430 44440 44450 44460 44470 44480 44490 44500 44510 44520 44530 44540 44550 44560 44570 44580 44590 44600 44610 44620 44630 44640 44650 44660 44670 44680 44690 44700 44710 44720 44730 44740 44750 44760 44770 44780 44790 44800 44810 44820 44830 44840 44850 44860 44870 44880 44890 44900 44910 44920 44930 44940 44950 44960 44970 44980 44990 45000 45010 45020 45030 45040 45050 45060 45070 45080 45090 45100 45110 45120 45130 45140 45150 45160 45170 45180 45190 45200 45210 45220 45230 45240 45250 45260 45270 45280 45290 45300 45310 45320 45330 45340 45350 45360 45370 45380 45390 45400 45410 45420 45430 45440 45450 45460 45470 45480 45490 45500 45510 45520 45530 45540 45550 45560 45570 45580 45590 45600 45610 45620 45630 45640 45650 45660 45670 45680 45690 45700 45710 45720 45730 45740 45750 45760 45770 45780 45790 45800 45810 45820 45830 45840 45850 45860 45870 45880 45890 45900 45910 45920 45930 45940 45950 45960 45970 45980 45990 46000 46010 46020 46030 46040 46050 46060 46070 46080 46090 46100 46110 46120 46130 46140 46150 46160 46170 46180 46190 46200 46210 46220 46230 46240 46250 46260 46270 46280 46290 46300 46310 46320 46330 46340 46350 46360 46370 46380 46390 46400 46410 46420 46430 46440 46450 46460 46470 46480 46490 46500 46510 46520 46530 46540 46550 46560 46570 46580 46590 46600 46610 46620 46630 46640 46650 46660 46670 46680 46690 46700 46710 46720 46730 46740 46750 46760 46770 46780 46790 46800 46810 46820 46830 46840 46850 46860 46870 46880 46890 46900 46910 46920 46930 46940 46950 46960 46970 46980 46990 47000 47010 47020 47030 47040 47050 47060 47070 47080 47090 47100 47110 47120 47130 47140 47150 47160 47170 47180 47190 47200 47210 47220 47230 47240 47250 47260 47270 47280 47290 47300 47310 47320 47330 47340 47350 47360 47370 47380 47390 47400 47410 47420 47430 47440 47450 47460 47470 47480 47490 47500 47510 47520 47530 47540 47550 47560 47570 47580 47590 47600 47610 47620 47630 47640 47650 47660 47670 47680 47690 47700 47710 47720 47730 47740 47750 47760 47770 47780 47790 47800 47810 47820 47830 47840 47850 47860 47870 47880 47890 47900 47910 47920 47930 47940 47950 47960 47970 47980 47990 48000 48010 48020 48030 48040 48050 48060 48070 48080 48090 48100 48110 48120 48130 48140 48150 48160 48170 48180 48190 48200 48210 48220 48230 48240 48250 48260 48270 48280 48290 48300 48310 48320 48330 48340 48350 48360 48370 48380 48390 48400 48410 48420 48430 48440 48450 48460 48470 48480 48490 48500 48510 48520 48530 48540 48550 48560 48570 48580 48590 48600 48610 48620 48630 48640 48650 48660 48670 48680 48690 48700 48710 48720 48730 48740 48750 48760 48770 48780 48790 48800 48810 48820 48830 48840 48850 48860 48870 48880 48890 48900 48910 48920 48930 48940 48950 48960 48970 48980 48990 49000 49010 49020 49030 49040 49050 49060 49070 49080 49090 49100 49110 49120 49130 49140 49150 49160 49170 49180 49190 49200 49210 49220 49230 49240 49250 49260 49270 49280 49290 49300 49310 49320 49330 49340 49350 49360 49370 49380 49390 49400 49410 49420 49430 49440 49450 49460 49470 49480 49490 49500 49510 49520 49530 49540 49550 49560 49570 49580 49590 49600 49610 49620 49630 49640 49650 49660 49670 49680 49690 49700 49710 49720 49730 49740 49750 49760 49770 49780 49790 49800 49810 49820 49830 49840 49850 49860 49870 49880 49890 49900 49910 49920 49930 49940 49950 49960 49970 49980 49990 50000 50010 50020 50030 50040 50050 50060 50070 50080 50090 50100 50110 50120 50130 50140 50150 50160 50170 50180 50190 50200 50210 50220 50230 50240 50250 50260 50270 50280 50290 50300 50310 50320 50330 50340 50350 50360 50370 50380 50390 50400 50410 50420 50430 50440 50450 50460 50470 50480 50490 50500 50510 50520 50530 50540 50550 50560 50570 50580 50590 50600 50610 50620 50630 50640 50650 50660 50670 50680 50690 50700 50710 50720 50730 50740 50750 50760 50770 50780 50790 50800 50810 50820 50830 50840 50850 50860 50870 50880 50890 50900 50910 50920 50930 50940 50950 50960 50970 50980 50990 51000 51010 51020 51030 51040 51050 51060 51070 51080 51090 51100 51110 51120 51130 51140 51150 51160 51170 51180 51190 51200 51210 51220 51230 51240 51250 51260 51270 51280 51290 51300 51310 51320 51330 51340 51350 51360 51370 51380 51390 51400 51410 51420 51430 51440 51450 51460 51470 51480 51490 51500 51510 51520 51530 51540 51550 51560 51570 51580 51590 51600 51610 51620 51630 51640 51650 51660 51670 51680 51690 51700 51710 51720 51730 51740 51750 51760 51770 51780 51790 51800 51810 51820 51830 51840 51850 51860 51870 51880 51890 51900 51910 51920 51930 51940 51950 51960 51970 51980 51990 52000 52010 52020 52030 52040 52050 52060 52070 52080 52090 52100 52110 52120 52130 52140 52150 52160 52170 52180 52190 52200 52210 52220 52230 52240 52250 52260 52270 52280 52290 52300 52310 52320 52330 52340 52350 52360 52370 52380 52390 52400 52410 52420 52430 52440 52450 52460 52470 52480 52490 52500 52510 52520 52530 52540 52550 52560 52570 52580 52590 52600 52610 52620 52630 52640 52650 52660 52670 52680 52690 52700 52710 52720 52730 52740 52750 52760 52770 52780 52790 52800 52810 52820 52830 52840 52850 52860 52870 52880 52890 52900 52910 52920 52930 52940 52950 52960 52970 52980 52990 53000 53010 53020 53030 53040 53050 53060 53070 53080 53090 53100 53110 53120 53130 53140 53150 53160 53170 53180 53190 53200 53210 53220 53230 53240 53250 53260 53270 53280 53290 53300 53310 53320 53330 53340 53350 53360 53370 53380 53390 53400 53410 53420 53430 53440 53450 53460 53470 53480 53490 53500 53510 53520 53530 53540 53550 53560 53570 53580 53590 53600 53610 53620 53630 53640 53650 53660 53670 53680 53690 53700 53710 53720 53730 53740 53750 53760 53770 53780 53790 53800 53810 53820 53830 53840 53850 53860 53870 53880 53890 53900 53910 53920 53930 53940 53950 53960 53970 53980 53990 54000 54010 54020 54030 54040 54050 54060 54070 54080 54090 54100 54110 54120 54130 54140 54150 54160 54170 54180 54190 54200 54210 54220 54230 54240 54250 54260 54270 54280 54290 54300 54310 54320 54330 54340 54350 54360 54370 54380 54390 54400 54410 54420 54430 54440 54450 54460 54470 54480 54490 54500 54510 54520 54530 54540 54550 54560 54570 54580 54590 54600 54610 54620 54630 54640 54650 54660 54670 54680 54690 54700 54710 54720 54730 54740 54750 54760 54770 54780 54790 54800 54810 54820 54830 54840 54850 54860 54870 54880 54890 54900 54910 54920 54930 54940 54950 54960 54970 54980 54990 55000 55010 55020 55030 55040 55050 55060 55070 55080 55090 55100 55110 55120 55130 55140 55150 55160 55170 55180 55190 55200 55210 55220 55230 55240 55250 55260 55270 55280 55290 55300 55310 55320 55330 55340 55350 55360 55370 55380 55390 55400 55410 55420 55430 55440 55450 55460 55470 55480 55490 55500 55510 55520 55530 55540 55550 55560 55570 55580 55590 55600 55610 55620 55630 55640 55650 55660 55670 55680 55690 55700 55710 55720 55730 55740 55750 55760 55770 55780 55790 55800 55810 55820 55830 55840 55850 55860 55870 55880 55890 55900 55910 55920 55930 55940 55950 55960 55970 55980 55990 56000 56010 56020 56030 56040 56050 56060 56070 56080 56090 56100 56110 56120 56130 56140 56150 56160 56170 56180 56190 56200 56210 56220 56230 56240 56250 56260 56270 56280 56290 56300 56310 56320 56330 56340 56350 56360 56370 56380 56390 56400 56410 56420 56430 56440 56450 56460 56470 56480 56490 56500 56510 56520 56530 56540 56550 56560 56570 56580 56590 56600 56610 56620 56630 56640 56650 56660 56670 56680 56690 56700 56710 56720 56730 56740 56750 56760 56770 56780 56790 56800 56810 56820 56830 56840 56850 56860 56870 56880 56890 56900 56910 56920 56930 56940 56950 56960 56970 56980 56990 57000 57010 57020 57030 57040 57050 57060 57070 57080 57090 57100 57110 57120 57130 57140 57150 57160 57170 57180 57190 57200 57210 57220 57230 57240 57250 57260 57270 57280 57290 57300 57310 57320 57330 57340 57350 57360 57370 57380 57390 57400 57410 57420 57430 57440 57450 57460 57470 57480 57490 57500 57510 57520 57530 57540 57550 57560 57570 57580 57590 57600 57610 57620 57630 57640 57650 57660 57670 57680 57690 57700 57710 57720 57730 57740 57750 57760 57770 57780 57790 57800 57810 57820 57830 57840 57850 57860 57870 57880 57890 57900 57910 57920 57930 57940 57950 57960 57970 57980 57990 58000 58010 58020 58030 58040 58050 58060 58070 58080 58090 58100 58110 58120 58130 58140 58150 58160 58170 58180 58190 58200 58210 58220 58230 58240 58250 58260 58270 58280 58290 58300 58310 58320 58330 58340 58350 58360 58370 58380 58390 58400 58410 58420 58430 58440 58450 58460 58470 58480 58490 58500 58510 58520 58530 58540 58550 58560 58570 58580 58590 58600 58610 58620 58630 58640 58650 58660 58670 58680 58690 58700 58710 58720 58730 58740 58750 58760 58770 58780 58790 58800 58810 58820 58830 58840 58850 58860 58870 58880 58890 58900 58910 58920 58930 58940 58950 58960 58970 58980 58990 59000 59010 59020 59030 59040 59050 59060 59070 59080 59090 59100 59110 59120 59130 59140 59150 59160 59170 59180 59190 59200 59210 59220 59230 59240 59250 59260 59270 59280 59290 59300 59310 59320 59330 59340 59350 59360 59370 59380 59390 59400 59410 59420 59430 59440 59450 59460 59470 59480 59490 59500 59510 59520 59530 59540 59550 59560 59570 59580 59590 59600 59610 59620 59630 59640 59650 59660 59670 59680 59690 59700 59710 59720 59730 59740 59750 59760 59770 59780 59790 59800 59810 59820 59830 59840 59850 59860 59870 59880 59890 59900 59910 59920 59930 59940 59950 59960 59970 59980 59990 60000 60010 60020 60030 60040 60050 60060 60070 60080 60090 60100 60110 60120 60130 60140 60150 60160 60170 60180 60190 60200 60210 60220 60230 60240 60250 60260 60270 60280 60290 60300 60310 60320 60330 60340 60350 60360 60370 60380 60390 60400 60410 60420 60430 60440 60450 60460 60470 60480 60490 60500 60510 60520 60530 60540 60550 60560 60570 60580 60590 60600 60610 60620 60630 60640 60650 60660 60670 60680 60690 60700 60710 60720 60730 60740 60750 60760 60770 60780 60790 60800 60810 60820 60830 60840 60850 60860 60870 60880 60890 60900 60910 60920 60930 60940 60950 60960 60970 60980 60990 61000 61010 61020 61030 61040 61050 61060 61070 61080 61090 61100 61110 61120 61130 61140 61150 61160 61170 61180 61190 61200 61210 61220 61230 61240 61250 61260 61270 61280 61290 61300 61310 61320 61330 61340 61350 61360 61370 61380 61390 61400 61410 61420 61430 61440 61450 61460 61470 61480 61490 61500 61510 61520 61530 61540 61550 61560 61570 61580 61590 61600 61610 61620 61630 61640 61650 61660 61670 61680 61690 61700 61710 61720 61730 61740 61750 61760 61770 61780 61790 61800 61810 61820 61830 61840 61850 61860 61870 61880 61890 61900 61910 61920 61930 61940 61950 61960 61970 61980 61990 62000 62010 62020 62030 62040 62050 62060 62070 62080 62090 62100 62110 62120 62130 62140 62150 62160 62170 62180 62190 62200 62210 62220 62230 62240 62250 62260 62270 62280 62290 62300 62310 62320 62330 62340 62350 62360 62370 62380 62390 62400 62410 62420 62430 62440 62450 62460 62470 62480 62490 62500 62510 62520 62530 62540 62550 62560 62570 62580 62590 62600 62610 62620 62630 62640 62650 62660 62670 62680 62690 62700 62710 62720 62730 62740 62750 62760 62770 62780 62790 62800 62810 62820 62830 62840 62850 62860 62870 62880 62890 62900 62910 62920 62930 62940 62950 62960 62970 62980 62990 63000 63010 63020 63030 63040 63050 63060 63070 63080 63090 63100 63110 63120 63130 63140 63150 63160 63170 63180 63190 63200 63210 63220 63230 63240 63250 63260 63270 63280 63290 63300 63310 63320 63330 63340 63350 63360 63370 63380 63390 63400 63410 63420 63430 63440 63450 63460 63470 63480 63490 63500 63510 63520 63530 63540 63550 63560 63570 63580 63590 63600 63610 63620 63630 63640 63650 63660 63670 63680 63690 63700 63710 63720 63730 63740 63750 63760 63770 63780 63790 63800 63810 63820 63830 63840 63850 63860 63870 63880 63890 63900 63910 63920 63930 63940 63950 63960 63970 63980 63990 64000 64010 64020 64030 64040 64050 64060 64070 64080 64090 64100 64110 64120 64130 64140 64150 64160 64170 64180 64190 64200 64210 64220 64230 64240 64250 64260 64270 64280 64290 64300 64310 64320 64330 64340 64350 64360 64370 64380 64390 64400 64410 64420 64430 64440 64450 64460 64470 64480 64490 64500 64510 64520 64530 64540 64550 64560 64570 64580 64590 64600 64610 64620 64630 64640 64650 64660 64670 64680 64690 64700 64710 64720 64730 64740 64750 64760 64770 64780 64790 64800 64810 64820 64830 64840 64850 64860 64870 64880 64890 64900 64910 64920 64930 64940 64950 64960 64970 64980 64990 65000 65010 65020 65030 65040 65050 65060 65070 65080 65090 65100 65110 65120 65130 65140 65150 65160 65170 65180 65190 65200 65210 65220 65230 65240 65250 65260 65270 65280 65290 65300 65310 65320 65330 65340 65350 65360 65370 65380 65390 65400 65410 65420 65430 65440 65450 65460 65470 65480 65490 65500 65510 65520 65530 65540 65550 65560 65570 65580 65590 65600 65610 65620 65630 65640 65650 65660 65670 65680 65690 65700 65710 65720 65730 65740 65750 65760 65770 65780 65790 65800 65810 65820 65830 65840 65850 65860 65870 65880 65890 65900 65910 65920 65930 65940 65950 65960 65970 65980 65990 66000 66010 66020 66030 66040 66050 66060 66070 66080 66090 66100 66110 66120 66130 66140 66150 66160 66170 66180 66190 66200 66210 66220 66230 66240 66250 66260 66270 66280 66290 66300 66310 66320 66330 66340 66350 66360 66370 66380 66390 66400 66410 66420 66430 66440 66450 66460 66470 66480 66490 66500 66510 66520 66530 66540 66550 66560 66570 66580 66590 66600 66610 66620 66630 66640 66650 66660 66670 66680 66690 66700 66710 66720 66730 66740 66750 66760 66770 66780 66790 66800 66810 66820 66830 66840 66850 66860 66870 66880 66890 66900 66910 66920 66930 66940 66950 66960 66970 66980 66990 67000 67010 67020 67030 67040 67050 67060 67070 67080 67090 67100 67110 67120 67130 67140 67150 67160 67170 67180 67190 67200 67210 67220 67230 67240 67250 67260 67270 67280 67290 67300 67310 67320 67330 67340 67350 67360 67370 67380 67390 67400 67410 67420 67430 67440 67450 67460 67470 67480 67490 67500 67510 67520 67530 67540 67550 67560 67570 67580 67590 67600 67610 67620 67630 67640 67650 67660 67670 67680 67690 67700 67710 67720 67730 67740 67750 67760 67770 67780 67790 67800 67810 67820 67830 67840 67850 67860 67870 67880 67890 67900 67910 67920 67930 67940 67950 67960 67970 67980 67990 68000 68010 68020 68030 68040 68050 68060 68070 68080 68090 68100 68110 68120 68130 68140 68150 68160 68170 68180 68190 68200 68210 68220 68230 68240 68250 68260 68270 68280 68290 68300 68310 68320 68330 68340 68350 68360 68370 68380 68390 68400 68410 68420 68430 68440 68450 68460 68470 68480 68490 68500 68510 68520 68530 68540 68550 68560 68570 68580 68590 68600 68610 68620 68630 68640 68650 68660 68670 68680 68690 68700 68710 68720 68730 68740 68750 68760 68770 68780 68790 68800 68810 68820 68830 68840 68850 68860 68870 68880 68890 68900 68910 68920 68930 68940 68950 68960 68970 68980 68990 69000 69010 69020 69030 69040 69050 69060 69070 69080 69090 69100 69110 69120 69130 69140 69150 69160 69170 69180 69190 69200 69210 69220 69230 69240 69250 69260 69270 69280 69290 69300 69310 69320 69330 69340 69350 69360 69370 69380 69390 69400 69410 69420 69430 69440 69450 69460 69470 69480 69490 69500 69510 69520 69530 69540 69550 69560 69570 69580 69590 69600 69610 69620 69630 69640 69650 69660 69670 69680 69690 69700 69710 69720 69730 69740 69750 69760 69770 69780 69790 69800 69810 69820 69830 69840 69850 69860 69870 69880 69890 69900 69910 69920 69930 69940 69950 69960 69970 69980 69990 70000 70010 70020 70030 70040 70050 70060 70070 70080 70090 70100 70110 70120 70130 70140 70150 70160 70170 70180 70190 70200 70210 70220 70230 70240 70250 70260 70270 70280 70290 70300 70310 70320 70330 70340 70350 70360 70370 70380 70390 70400 70410 70420 70430 70440 70450 70460 70470 70480 70490 70500 70510 70520 70530 70540 70550 70560 70570 70580 70590 70600 70610 70620 70630 70640 70650 70660 70670 70680 70690 70700 70710 70720 70730 70740 70750 70760 70770 70780 70790 70800 70810 70820 70830 70840 70850 70860 70870 70880 70890 70900 70910 70920 70930 70940 70950 70960 70970 70980 70990 71000 71010 71020 71030 71040 71050 71060 71070 71080 71090 71100 71110 71120 71130 71140 71150 71160 71170 71180 71190 71200 71210 71220 71230 71240 71250 71260 71270 71280 71290 71300 71310 71320 71330 71340 71350 71360 71370 71380 71390 71400 71410 71420 71430 71440 71450 71460 71470 71480 71490 71500 71510 71520 71530 71540 71550 71560 71570 71580 71590 71600 71610 71620 71630 71640 71650 71660 71670 71680 71690 71700 71710 71720 71730 71740 71750 71760 71770 71780 71790 71800 71810 71820 71830 71840 71850 71860 71870 71880 71890 71900 71910 71920 71930 71940 71950 71960 71970 71980 71990 72000 72010 72020 72030 72040 72050 72060 72070 72080 72090 72100 72110 72120 72130 72140 72150 72160 72170 72180 72190 72200 72210 72220 72230 72240 72250 72260 72270 72280 72290 72300 72310 72320 72330 72340 72350 72360 72370 72380 72390 72400 72410 72420 72430 72440 72450 72460 72470 72480 72490 72500 72510 72520 72530 72540 72550 72560 72570 72580 72590 72600 72610 72620 72630 72640 72650 72660 72670 72680 72690 72700 72710 72720 72730 72740 72750 72760 72770 72780 72790 72800 72810 72820 72830 72840 72850 72860 72870 72880 72890 72900 72910 72920 72930 72940 72950 72960 72970 72980 72990 73000 73010 73020 73030 73040 73050 73060 73070 73080 73090 73100 73110 73120 73130 73140 73150 73160 73170 73180 73190 73200 73210 73220 73230 73240 73250 73260 73270 73280 73290 73300 73310 73320 73330 73340 73350 73360 73370 73380 73390 73400 73410 73420 73430 73440 73450 73460 73470 73480 73490 73500 73510 73520 73530 73540 73550 73560 73570 73580 73590 73600 73610 73620 73630 73640 73650 73660 73670 73680 73690 73700 73710 73720 73730 73740 73750 73760 73770 73780 73790 73800 73810 73820 73830 73840 73850 73860 73870 73880 73890 73900 73910 73920 73930 73940 73950 73960 73970 73980 73990 74000 74010 74020 74030 74040 74050 74060 74070 74080 74090 74100 74110 74120 74130 74140 74150 74160 74170 74180 74190 74200 74210 74220 74230 74240 74250 74260 74270 74280 74290 74300 74310 74320 74330 74340 74350 74360 74370 74380 74390 74400 74410 74420 74430 74440 74450 74460 74470 74480 74490 74500 74510 74520 74530 74540 74550 74560 74570 74580 74590 74600 74610 74620 74630 74640 74650 74660 74670 74680 74690 74700 74710 74720 74730 74740 74750 74760 74770 74780 74790 74800 74810 74820 74830 74840 74850 74860 74870 74880 74890 74900 74910 74920 74930 74940 74950 74960 74970 74980 74990 75000 75010 75020 75030 75040 75050 75060 75070 75080 75090 75100 75110 75120 75130 75140 75150 75160 75170 75180 75190 75200 75210 75220 75230 75240 75250 75260 75270 75280 75290 75300 75310 75320 75330 75340 75350 75360 75370 75380 75390 75400 75410 75420 75430 75440 75450 75460 75470 75480 75490 75500 75510 75520 75530 75540 75550 75560 75570 75580 75590 75600 75610 75620 75630 75640 75650 75660 75670 75680 75690 75700 75710 75720 75730 75740 75750 75760 75770 75780 75790 75800 75810 75820 75830 75840 75850 75860 75870 75880 75890 75900 75910 75920 75930 75940 75950 75960 75970 75980 75990 76000 76010 76020 76030 76040 76050 76060 76070 76080 76090 76100 76110 76120 76130 76140 76150 76160 76170 76180 76190 76200 76210 76220 76230 76240 76250 76260 76270 76280 76290 76300 76310 76320 76330 76340 76350 76360 76370 76380 76390 76400 76410 76420 76430 76440 76450 76460 76470 76480 76490 76500 76510 76520 76530 76540 76550 76560 76570 76580 76590 76600 76610 76620 76630 76640 76650 76660 76670 76680 76690 76700 76710 76720 76730 76740 76750 76760 76770 76780 76790 76800 76810 76820 76830 76840 76850 76860 76870 76880 76890 76900 76910 76920 76930 76940 76950 76960 76970 76980 76990 77000 77010 77020 77030 77040 77050 77060 77070 77080 77090 77100 77110 77120 77130 77140 77150 77160 77170 77180 77190 77200 77210 77220 77230 77240 77250 77260 77270 77280 77290 77300 77310 77320 77330 77340 77350 77360 77370 77380 77390 77400 77410 77420 77430 77440 77450 77460 77470 77480 77490 77500 77510 77520 77530 77540 77550 77560 77570 77580 77590 77600 77610 77620 77630 77640 77650 77660 77670 77680 77690 77700 77710 77720 77730 77740 77750 77760 77770 77780 77790 77800 77810 77820 77830 77840 77850 77860 77870 77880 77890 77900 77910 77920 77930 77940 77950 77960 77970 77980 77990 78000 78010 78020 78030 78040 78050 78060 78070 78080 78090 78100 78110 78120 78130 78140 78150 78160 78170 78180 78190 78200 78210 78220 78230 78240 78250 78260 78270 78280 78290 78300 78310 78320 78330 78340 78350 78360 78370 78380 78390 78400 78410 78420 78430 78440 78450 78460 78470 78480 78490 78500 78510 78520 78530 78540 78550 78560 78570 78580 78590 78600 78610 78620 78630 78640 78650 78660 78670 78680 78690 78700 78710 78720 78730 78740 78750 78760 78770 78780 78790 78800 78810 78820 78830 78840 78850 78860 78870 78880 78890 78900 78910 78920 78930 78940 78950 78960 78970 78980 78990 79000 79010 79020 79030 79040 79050 79060 79070 79080 79090 79100 79110 79120 79130 79140 79150 79160 79170 79180 79190 79200 79210 79220 79230 79240 79250 79260 79270 79280 79290 79300 79310 79320 79330 79340 79350 79360 79370 79380 79390 79400 79410 79420 79430 79440 79450 79460 79470 79480 79490 79500 79510 79520 79530 79540 79550 79560 79570 79580 79590 79600 79610 79620 79630 79640 79650 79660 79670 79680 79690 79700 79710 79720 79730 79740 79750 79760 79770 79780 79790 79800 79810 79820 79830 79840 79850 79860 79870 79880 79890 79900 79910 79920 79930 79940 79950 79960 79970 79980 79990 80000 80010 80020 80030 80040 80050 80060 80070 80080 80090 80100 80110 80120 80130 80140 80150 80160 80170 80180 80190 80200 80210 80220 80230 80240 80250 80260 80270 80280 80290 80300 80310 80320 80330 80340 80350 80360 80370 80380 80390 80400 80410 80420 80430 80440 80450 80460 80470 80480 80490 80500 80510 80520 80530 80540 80550 80560 80570 80580 80590 80600 80610 80620 80630 80640 80650 80660 80670 80680 80690 80700 80710 80720 80730 80740 80750 80760 80770 80780 80790 80800 80810 80820 80830 80840 80850 80860 80870 80880 80890 80900 80910 80920 80930 80940 80950 80960 80970 80980 80990 81000 81010 81020 81030 81040 81050 81060 81070 81080 81090 81100 81110 81120 81130 81140 81150 81160 81170 81180 81190 81200 81210 81220 81230 81240 81250 81260 81270 81280 81290 81300 81310 81320 81330 81340 81350 81360 81370 81380 81390 81400 81410 81420 81430 81440 81450 81460 81470 81480 81490 81500 81510 81520 81530 81540 81550 81560 81570 81580 81590 81600 81610 81620 81630 81640 81650 81660 81670 81680 81690 81700 81710 81720 81730 81740 81750 81760 81770 81780 81790 81800 81810 81820 81830 81840 81850 81860 81870 81880 81890 81900 81910 81920 81930 81940 81950 81960 81970 81980 81990 82000 82010 82020 82030 82040 82050 82060 82070 82080 82090 82100 82110 82120 82130 82140 82150 82160 82170 82180 82190 82200 82210 82220 82230 82240 82250 82260 82270 82280 82290 82300 82310 82320 82330 82340 82350 82360 82370 82380 82390 82400 82410 82420 82430 82440 82450 82460 82470 82480 82490 82500 82510 82520 82530 82540 82550 82560 82570 82580 82590 82600 82610 82620 82630 82640 82650 82660 82670 82680 82690 82700 82710 82720 82730 82740 82750 82760 82770 82780 82790 82800 82810 82820 82830 82840 82850 82860 82870 82880 82890 82900 82910 82920 82930 82940 82950 82960 82970 82980 82990 83000 83010 83020 83030 83040 83050 83060 83070 83080 83090 83100 83110 83120 83130 83140 83150 83160 83170 83180 83190 83200 83210 83220 83230 83240 83250 83260 83270 83280 83290 83300 83310 83320 83330 83340 83350 83360 83370 83380 83390 83400 83410 83420 83430 83440 83450 83460 83470 83480 83490 83500 83510 83520 83530 83540 83550 83560 83570 83580 83590 83600 83610 83620 83630 83640 83650 83660 83670 83680 83690 83700 83710 83720 83730 83740 83750 83760 83770 83780 83790 83800 83810 83820 83830 83840 83850 83860 83870 83880 83890 83900 83910 83920 83930 83940 83950 83960 83970 83980 83990 84000 84010 84020 84030 84040 84050 84060 84070 84080 84090 84100 84110 84120 84130 84140 84150 84160 84170 84180 84190 84200 84210 84220 84230 84240 84250 84260 84270 84280 84290 84300 84310 84320 84330 84340 84350 84360 84370 84380 84390 84400 84410 84420 84430 84440 84450 84460 84470 84480 84490 84500 84510 84520 84530 84540 84550 84560 84570 84580 84590 84600 84610 84620 84630 84640 84650 84660 84670 84680 84690 84700 84710 84720 84730 84740 84750 84760 84770 84780 84790 84800 84810 84820 84830 84840 84850 84860 84870 84880 84890 84900 84910 84920 84930 84940 84950 84960 84970 84980 84990 85000 85010 85020 85030 85040 85050 85060 85070 85080 85090 85100 85110 85120 85130 85140 85150 85160 85170 85180 85190 85200 85210 85220 85230 85240 85250 85260 85270 85280 85290 85300 85310 85320 85330 85340 85350 85360 85370 85380 85390 85400 85410 85420 85430 85440 85450 85460 85470 85480 85490 85500 85510 85520 85530 85540 85550 85560 85570 85580 85590 85600 85610 85620 85630 85640 85650 85660 85670 85680 85690 85700 85710 85720 85730 85740 85750 85760 85770 85780 85790 85800 85810 85820 85830 85840 85850 85860 85870 85880 85890 85900 85910 85920 85930 85940 85950 85960 85970 85980 85990 86000 86010 86020 86030 86040 86050 86060 86070 86080 86090 86100 86110 86120 86130 86140 86150 86160 86170 86180 86190 86200 86210 86220 86230 86240 86250 86260 86270 86280 86290 86300 86310 86320 86330 86340 86350 86360 86370 86380 86390 86400 86410 86420 86430 86440 86450 86460 86470 86480 86490 86500 86510 86520 86530 86540 86550 86560 86570 86580 86590 86600 86610 86620 86630 86640 86650 86660 86670 86680 86690 86700 86710 86720 86730 86740 86750 86760 86770 86780 86790 86800 86810 86820 86830 86840 86850 86860 86870 86880 86890 86900 86910 86920 86930 86940 86950 86960 86970 86980 86990 87000 87010 87020 87030 87040 87050 87060 87070 87080 87090 87100 87110 87120 87130 87140 87150 87160 87170 87180 87190 87200 87210 87220 87230 87240 87250 87260 87270 87280 87290 87300 87310 87320 87330 87340 87350 87360 87370 87380 87390 87400 87410 87420 87430 87440 87450 87460 87470 87480 87490 87500 87510 87520 87530 87540 87550 87560 87570 87580 87590 87600 87610 87620 87630 87640 87650 87660 87670 87680 87690 87700 87710 87720 87730 87740 87750 87760 87770 87780 87790 87800 87810 87820 87830 87840 87850 87860 87870 87880 87890 87900 87910 87920 87930 87940 87950 87960 87970 87980 87990 88000 88010 88020 88030 88040 88050 88060 88070 88080 88090 88100 88110 88120 88130 88140 88150 88160 88170 88180 88190 88200 88210 88220 88230 88240 88250 88260 88270 88280 88290 88300 88310 88320 88330 88340 88350 88360 88370 88380 88390 88400 88410 88420 88430 88440 88450 88460 88470 88480 88490 88500 88510 88520 88530 88540 88550 88560 88570 88580 88590 88600 88610 88620 88630 88640 88650 88660 88670 88680 88690 88700 88710 88720 88730 88740 88750 88760 88770 88780 88790 88800 88810 88820 88830 88840 88850 88860 88870 88880 88890 88900 88910 88920 88930 88940 88950 88960 88970 88980 88990 89000 89010 89020 89030 89040 89050 89060 89070 89080 89090 89100 89110 89120 89130 89140 89150 89160 89170 89180 89190 89200 89210 89220 89230 89240 89250 89260 89270 89280 89290 89300 89310 89320 89330 89340 89350 89360 89370 89380 89390 89400 89410 89420 89430 89440 89450 89460 89470 89480 89490 89500 89510 89520 89530 89540 89550 89560 89570 89580 89590 89600 89610 89620 89630 89640 89650 89660 89670 89680 89690 89700 89710 89720 89730 89740 89750 89760 89770 89780 89790 89800 89810 89820 89830 89840 89850 89860 89870 89880 89890 89900 89910 89920 89930 89940 89950 89960 89970 89980 89990 90000 90010 90020 90030 90040 90050 90060 90070 90080 90090 90100 90110 90120 90130 90140 90150 90160 90170 90180 90190 90200 90210 90220 90230 90240 90250 90260 90270 90280 90290 90300 90310 90320 90330 90340 90350 90360 90370 90380 90390 90400 90410 90420 90430 90440 90450 90460 90470 90480 90490 90500 90510 90520 90530 90540 90550 90560 90570 90580 90590 90600 90610 90620 90630 90640 90650 90660 90670 90680 90690 90700 90710 90720 90730 90740 90750 90760 90770 90780 90790 90800 90810 90820 90830 90840 90850 90860 90870 90880 90890 90900 90910 90920 90930 90940 90950 90960 90970 90980 90990 91000 91010 91020 91030 91040 91050 91060 91070 91080 91090 91100 91110 91120 91130 91140 91150 91160 91170 91180 91190 91200 91210 91220 91230 91240 91250 91260 91270 91280 91290 91300 91310 91320 91330 91340 91350 91360 91370 91380 91390 91400 91410 91420 91430 91440 91450 91460 91470 91480 91490 91500 91510 91520 91530 91540 91550 91560 91570 91580 91590 91600 91610 91620 91630 91640 91650 91660 91670 91680 91690 91700 91710 91720 91730 91740 91750 91760 91770 91780 91790 91800 91810 91820 91830 91840 91850 91860 91870 91880 91890 91900 91910 91920 91930 91940 91950 91960 91970 91980 91990 92000 92010 92020 92030 92040 92050 92060 92070 92080 92090 92100 92110 92120 92130 92140 92150 92160 92170 92180 92190 92200 92210 92220 92230 92240 92250 92260 92270 92280 92290 92300 92310 92320 92330 92340 92350 92360 92370 92380 92390 92400 92410 92420 92430 92440 92450 92460 92470 92480 92490 92500 92510 92520 92530 92540 92550 92560 92570 92580 92590 92600 92610 92620 92630 92640 92650 92660 92670 92680 92690 92700 92710 92720 92730 92740 92750 92760 92770 92780 92790 92800 92810 92820 92830 92840 92850 92860 92870 92880 92890 92900 92910 92920 92930 92940 92950 92960 92970 92980 92990 93000 93010 93020 93030 93040 93050 93060 93070 93080 93090 93100 93110 93120 93130 93140 93150 93160 93170 93180 93190 93200 93210 93220 93230 93240 93250 93260 93270 93280 93290 93300 93310 93320 93330 93340 93350 93360 93370 93380 93390 93400 93410 93420 93430 93440 93450 93460 93470 93480 93490 93500 93510 93520 93530 93540 93550 93560 93570 93580 93590 93600 93610 93620 93630 93640 93650 93660 93670 93680 93690 93700 93710 93720 93730 93740 93750 93760 93770 93780 93790 93800 93810 93820 93830 93840 93850 93860 93870 93880 93890 93900 93910 93920 93930 93940 93950 93960 93970 93980 93990 94000 94010 94020 94030 94040 94050 94060 94070 94080 94090 94100 94110 94120 94130 94140 94150 94160 94170 94180 94190 94200 94210 94220 94230 94240 94250 94260 94270 94280 94290 94300 94310 94320 94330 94340 94350 94360 94370 94380 94390 94400 94410 94420 94430 94440 94450 94460 94470 94480 94490 94500 94510 94520 94530 94540 94550 94560 94570 94580 94590 94600 94610 94620 94630 94640 94650 94660 94670 94680 94690 94700 94710 94720 94730 94740 94750 94760 94770 94780 94790 94800 94810 94820 94830 94840 94850 94860 94870 94880 94890 94900 94910 94920 94930 94940 94950 94960 94970 94980 94990 95000 95010 95020 95030 95040 95050 95060 95070 95080 95090 95100 95110 95120 95130 95140 95150 95160 95170 95180 95190 95200 95210 95220 95230 95240 95250 95260 95270 95280 95290 95300 95310 95320 95330 95340 95350 95360 95370 95380 95390 95400 95410 95420 95430 95440 95450 95460 95470 95480 95490 95500 95510 95520 95530 95540 95550 95560 95570 95580 95590 95600 95610 95620 95630 95640 95650 95660 95670 95680 95690 95700 95710 95720 95730 95740 95750 95760 95770 95780 95790 95800 95810 95820 95830 95840 95850 95860 95870 95880 95890 95900 95910 95920 95930 95940 95950 95960 95970 95980 95990 96000 96010 96020 96030 96040 96050 96060 96070 96080 96090 96100 96110 96120 96130 96140 96150 96160 96170 96180 96190 96200 96210 96220 96230 96240 96250 96260 96270 96280 96290 96300 96310 96320 96330 96340 96350 96360 96370 96380 96390 96400 96410 96420 96430 96440 96450 96460 96470 96480 96490 96500 96510 96520 96530 96540 96550 96560 96570 96580 96590 96600 96610 96620 96630 96640 96650 96660 96670 96680 96690 96700 96710 96720 96730 96740 96750 96760 96770 96780 96790 96800 96810 96820 96830 96840 96850 96860 96870 96880 96890 96900 96910 96920 96930 96940 96950 96960 96970 96980 96990 97000 97010 97020 97030 97040 97050 97060 97070 97080 97090 97100 97110 97120 97130 97140 97150 97160 97170 97180 97190 97200 97210 97220 97230 97240 97250 97260 97270 97280 97290 97300 97310 97320 97330 97340 97350 97360 97370 97380 97390 97400 97410 97420 97430 97440 97450 97460 97470 97480 97490 97500 97510 97520 97530 97540 97550 97560 97570 97580 97590 97600 97610 97620 97630 97640 97650 97660 97670 97680 97690 97700 97710 97720 97730 97740 97750 97760 97770 97780 97790 97800 97810 97820 97830 97840 97850 97860 97870 97880 97890 97900 97910 97920 97930 97940 97950 97960 97970 97980 97990 98000 98010 98020 98030 98040 98050 98060 98070 98080 98090 98100 98110 98120 98130 98140 98150 98160 98170 98180 98190 98200 98210 98220 98230 98240 98250 98260 98270 98280 98290 98300 98310 98320 98330 98340 98350 98360 98370 98380 98390 98400 98410 98420 98430 98440 98450 98460 98470 98480 98490 98500 98510 98520 98530 98540 98550 98560 98570 98580 98590 98600 98610 98620 98630 98640 98650 98660 98670 98680 98690 98700 98710 98720 98730 98740 98750 98760 98770 98780 98790 98800 98810 98820 98830 98840 98850 98860 98870 98880 98890 98900 98910 98920 98930 98940 98950 98960 98970 98980 98990 99000 99010 99020 99030 99040 99050 99060 99070 99080 99090 99100 99110 99120 99130 99140 99150 99160 99170 99180 99190 99200 99210 99220 99230 99240 99250 99260 99270 99280 99290 99300 99310 99320 99330 99340 99350 99360 99370 99380 99390 99400 99410 99420 99430 99440 99450 99460 99470 99480 99490 99500 99510 99520 99530 99540 99550 99560 99570 99580 99590 99600 99610 99620 99630 99640 99650 99660 99670 99680 99690 99700 99710 99720 99730 99740 99750 99760 99770 99780 99790 99800 99810 99820 99830 99840 99850 99860 99870 99880 99890 99900 99910 99920 99930 99940 99950 99960 99970 99980 99990 100000 100010 100020 100030 100040 100050 100060 100070 100080 100090 100100 100110 100120 100130 100140 100150 100160 100170 100180 100190 100200 100210 100220 100230 100240 100250 100260 100270 100280 100290 100300 100310 100320 100330 100340 100350 100360 100370 100380 100390 100400 100410 100420 100430 100440 100450 100460 100470 100480 100490 100500 100510 100520 100530 100540 100550 100560 100570 100580 100590 100600 100610 100620 100630 100640 100650 100660 100670 100680 100690 100700 100710 100720 100730 100740 100750 100760 100770 100780 100790 100800 100810 100820 100830 100840 100850 100860 100870 100880 100890 100900 100910 100920 100930 100940 100950 100960 100970 100980 100990 101000 101010 101020 101030 101040 101050 101060 101070 101080 101090 101100 101110 101120 101130 101140 101150 101160 101170 101180 101190 101200 101210 101220 101230 101240 101250 101260 101270 101280 101290 101300 101310 101320 101330 101340 101350 101360 101370 101380 101390 101400 101410 101420 101430 101440 101450 101460 101470 101480 101490 101500 101510 101520 101530 101540 101550 101560 101570 101580 101590 101600 101610 101620 101630 101640 101650 101660 101670 101680 101690 101700 101710 101720 101730 101740 101750 101760 101770 101780 101790 101800 101810 101820 101830 101840 101850 101860 101870 101880 101890 101900 101910 101920 101930 101940 101950 101960 101970 101980 101990 102000 102010 102020 102030 102040 102050 102060 102070 102080 102090 102100 102110 102120 102130 102140 102150 102160 102170 102180 102190 102200 102210 102220 102230 102240 102250 102260 102270 102280 102290 102300 102310 102320 102330 102340 102350 102360 102370 102380 102390 102400 102410 102420 102430 102440 102450 102460 102470 102480 102490 102500 102510 102520 102530 102540 102550 102560 102570 102580 102590 102600 102610 102620 102630 102640 102650 102660 102670 102680 102690 102700 102710 102720 102730 102740 102750 102760 102770 102780 102790 102800 102810 102820 102830 102840 102850 102860 102870 102880 102890 102900 102910 102920 102930 102940 102950 102960 102970 102980 102990 103000 103010 103020 103030 103040 103050 103060 103070 103080 103090 103100 103110 103120 103130 103140 103150 103160 103170 103180 103190 103200 103210 103220 103230 103240 103250 103260 103270 103280 103290 103300 103310 103320 103330 103340 103350 103360 103370 103380 103390 103400 103410 103420 103430 103440 103450 103460 103470 103480 103490 103500 103510 103520 103530 103540 103550 103560 103570 103580 103590 103600 103610 103620 103630 103640 103650 103660 103670 103680 103690 103700 103710 103720 103730 103740 103750 103760 103770 103780 103790 103800 103810 103820 103830 103840 103850 103860 103870 103880 103890 103900 103910 103920 103930 103940 103950 103960 103970 103980 103990 104000 104010 104020 104030 104040 104050 104060 104070 104080 104090 104100 104110 104120 104130 104140 104150 104160 104170 104180 104190 104200 104210 104220 104230 104240 104250 104260 104270 104280 104290 104300 104310 104320 104330 104340 104350 104360 104370 104380 104390 104400 104410 104420 104430 104440 104450 104460 104470 104480 104490 104500 104510 104520 104530 104540 104550 104560 104570 104580 104590 104600 104610 104620 104630 104640 104650 104660 104670 104680 104690 104700 104710 104720 104730 104740 104750 104760 104770 104780 104790 104800 104810 104820 104830 104840 104850 104860 104870 104880 104890 104900 104910 104920 104930 104940 104950 104960 104970 104980 104990 105000 105010 105020 105030 105040 105050 105060 105070 105080 105090 105100 105110 105120 105130 105140 105150 105160 105170 105180 105190 105200 105210 105220 105230 105240 105250 105260 105270 105280 105290 105300 105310 105320 105330 105340 105350 105360 105370 105380 105390 105400 105410 105420 105430 105440 105450 105460 105470 105480 105490 105500 105510 105520 105530 105540 105550 105560 105570 105580 105590 105600 105610 105620 105630 105640 105650 105660 105670 105680 105690 105700 105710 105720 105730 105740 105750 105760 105770 105780 105790 105800 105810 105820 105830 105840 105850 105860 105870 105880 105890 105900 105910 105920 105930 105940 105950 105960 105970 105980 105990 106000 106010 106020 106030 106040 106050 106060 106070 106080 106090 106100 106110 106120 106130 106140 106150 106160 106170 106180 106190 106200 106210 106220 106230 106240 106250 106260 106270 106280 106290 106300 106310 106320 106330 106340 106350 106360 106370 106380 106390 106400 106410 106420 106430 106440 106450 106460 106470 106480 106490 106500 106510 106520 106530 106540 106550 106560 106570 106580 106590 106600 106610 106620 106630 106640 106650 106660 106670 106680 106690 106700 106710 106720 106730 106740 106750 106760 106770 106780 106790 106800 106810 106820 106830 106840 106850 106860 106870 106880 106890 106900 106910 106920 106930 106940 106950 106960 106970 106980 106990 107000 107010 107020 107030 107040 107050 107060 107070 107080 107090 107100 107110 107120 107130 107140 107150 107160 107170 107180 107190 107200 107210 107220 107230 107240 107250 107260 107270 107280 107290 107300 107310 107320 107330 107340 107350 107360 107370 107380 107390 107400 107410 107420 107430 107440 107450 107460 107470 107480 107490 107500 107510 107520 107530 107540 107550 107560 107570 107580 107590 107600 107610 107620 107630 107640 107650 107660 107670 107680 107690 107700 107710 107720 107730 107740 107750 107760 107770 107780 107790 107800 107810 107820 107830 107840 107850 107860 107870 107880 107890 107900 107910 107920 107930 107940 107950 107960 107970 107980 107990 108000 108010 108020 108030 108040 108050 108060 108070 108080 108090 108100 108110 108120 108130 108140 108150 108160 108170 108180 108190 108200 108210 108220 108230 108240 108250 108260 108270 108280 108290 108300 108310 108320 108330 108340 108350 108360 108370 108380 108390 108400 108410 108420 108430 108440 108450 108460 108470 108480 108490 108500 108510 108520 108530 108540 108550 108560 108570 108580 108590 108600 108610 108620 108630 108640 108650 108660 108670 108680 108690 108700 108710 108720 108730 108740 108750 108760 108770 108780 108790 108800 108810 108820 108830 108840 108850 108860 108870 108880 108890 108900 108910 108920 108930 108940 108950 108960 108970 108980 108990 109000 109010 109020 109030 109040 109050 109060 109070 109080 109090 109100 109110 109120 109130 109140 109150 109160 109170 109180 109190 109200 109210 109220 109230 109240 109250 109260 109270 109280 109290 109300 109310 109320 109330 109340 109350 109360 109370 109380 109390 109400 109410 109420 109430 109440 109450 109460 109470 109480 109490 109500 109510 109520 109530 109540 109550 109560 109570 109580 109590 109600 109610 109620 109630 109640 109650 109660 109670 109680 109690 109700 109710 109720 109730 109740 109750 109760 109770 109780 109790 109800 109810 109820 109830 109840 109850 109860 109870 109880 109890 109900 109910 109920 109930 109940 109950 109960 109970 109980 109990 110000 110010 110020 110030 110040 110050 110060 110070 110080 110090 110100 110110 110120 110130 110140 110150 110160 110170 110180 110190 110200 110210 110220 110230 110240 110250 110260 110270 110280 110290 110300 110310 110320 110330 110340 110350 110360 110370 110380 110390 110400 110410 110420 110430 110440 110450 110460 110470 110480 110490 110500 110510 110520 110530 110540 110550 110560 110570 110580 110590 110600 110610 110620 110630 110640 110650 110660 110670 110680 110690 110700 110710 110720 110730 110740 110750 110760 110770 110780 110790 110800 110810 110820 110830 110840 110850 110860 110870 110880 110890 110900 110910 110920 110930 110940 110950 110960 110970 110980 110990 111000 111010 111020 111030 111040 111050 111060 111070 111080 111090 111100 111110 111120 111130 111140 111150 111160 111170 111180 111190 111200 111210 111220 111230 111240 111250 111260 111270 111280 111290 111300 111310 111320 111330 111340 111350 111360 111370 111380 111390 111400 111410 111420 111430 111440 111450 111460 111470 111480 111490 111500 111510 111520 111530 111540 111550 111560 111570 111580 111590 111600 111610 111620 111630 111640 111650 111660 111670 111680 111690 111700 111710 111720 111730 111740 111750 111760 111770 111780 111790 111800 111810 111820 111830 111840 111850 111860 111870 111880 111890 111900 111910 111920 111930 111940 111950 111960 111970 111980 111990 112000 112010 112020 112030 112040 112050 112060 112070 112080 112090 112100 112110 112120 112130 112140 112150 112160 112170 112180 112190 112200 112210 112220 112230 112240 112250 112260 112270 112280 112290 112300 112310 112320 112330 112340 112350 112360 112370 112380 112390 112400 112410 112420 112430 112440 112450 112460 112470 112480 112490 112500 112510 112520 112530 112540 112550 112560 112570 112580 112590 112600 112610 112620 112630 112640 112650 112660 112670 112680 112690 112700 112710 112720 112730 112740 112750 112760 112770 112780 112790 112800 112810 112820 112830 112840 112850 112860 112870 112880 112890 112900 112910 112920 112930 112940 112950 112960 112970 112980 112990 113000 113010 113020 113030 113040 113050 113060 113070 113080 113090 113100 113110 113120 113130 113140 113150 113160 113170 113180 113190 113200 113210 113220 113230 113240 113250 113260 113270 113280 113290 113300 113310 113320 113330 113340 113350 113360 113370 113380 113390 113400 113410 113420 113430 113440 113450 113460 113470 113480 113490 113500 113510 113520 113530 113540 113550 113560 113570 113580 113590 113600 113610 113620 113630 113640 113650 113660 113670 113680 113690 113700 113710 113720 113730 113740 113750 113760 113770 113780 113790 113800 113810 113820 113830 113840 113850 113860 113870 113880 113890 113900 113910 113920 113930 113940 113950 113960 113970 113980 113990 114000 114010 114020 114030 114040 114050 114060 114070 114080 114090 114100 114110 114120 114130 114140 114150 114160 114170 114180 114190 114200 114210 114220 114230 114240 114250 114260 114270 114280 114290 114300 114310 114320 114330 114340 114350 114360 114370 114380 114390 114400 114410 114420 114430 114440 114450 114460 114470 114480 114490 114500 114510 114520 114530 114540 114550 114560 114570 114580 114590 114600 114610 114620 114630 114640 114650 114660 114670 114680 114690 114700 114710 114720 114730 114740 114750 114760 114770 114780 114790 114800 114810 114820 114830 114840 114850 114860 114870 114880 114890 114900 114910 114920 114930 114940 114950 114960 114970 114980 114990 115000 115010 115020 115030 115040 115050 115060 115070 115080 115090 115100 115110 115120 115130 115140 115150 115160 115170 115180 115190 115200 115210 115220 115230 115240 115250 115260 115270 115280 115290 115300 115310 115320 115330 115340 115350 115360 115370 115380 115390 115400 115410 115420 115430 115440 115450 115460 115470 115480 115490 115500 115510 115520 115530 115540 115550 115560 115570 115580 115590 115600 115610 115620 115630 115640 115650 115660 115670 115680 115690 115700 115710 115720 115730 115740 115750 115760 115770 115780 115790 115800 115810 115820 115830 115840 115850 115860 115870 115880 115890 115900 115910 115920 115930 115940 115950 115960 115970 115980 115990 116000 116010 116020 116030 116040 116050 116060 116070 116080 116090 116100 116110 116120 116130 116140 116150 116160 116170 116180 116190 116200 116210 116220 116230 116240 116250 116260 116270 116280 116290 116300 116310 116320 116330 116340 116350 116360 116370 116380 116390 116400 116410 116420 116430 116440 116450 116460 116470 116480 116490 116500 116510 116520 116530 116540 116550 116560 116570 116580 116590 116600 116610 116620 116630 116640 116650 116660 116670 116680 116690 116700 116710 116720 116730 116740 116750 116760 116770 116780 116790 116800 116810 116820 116830 116840 116850 116860 116870 116880 116890 116900 116910 116920 116930 116940 116950 116960 116970 116980 116990 117000 117010 117020 117030 117040 117050 117060 117070 117080 117090 117100 117110 117120 117130 117140 117150 117160 117170 117180 117190 117200 117210 117220 117230 117240 117250 117260 117270 117280 117290 117300 117310 117320 117330 117340 117350 117360 117370 117380 117390 117400 117410 117420 117430 117440 117450 117460 117470 117480 117490 117500 117510 117520 117530 117540 117550 117560 117570 117580 117590 117600 117610 117620 117630 117640 117650 117660 117670 117680 117690 117700 117710 117720 117730 117740 117750 117760 117770 117780 117790 117800 117810 117820 117830 117840 117850 117860 117870 117880 117890 117900 117910 117920 117930 117940 117950 117960 117970 117980 117990 118000 118010 118020 118030 118040 118050 118060 118070 118080 118090 118100 118110 118120 118130 118140 118150 118160 118170 118180 118190 118200 118210 118220 118230 118240 118250 118260 118270 118280 118290 118300 118310 118320 118330 118340 118350 118360 118370 118380 118390 118400 118410 118420 118430 118440 118450 118460 118470 118480 118490 118500 118510 118520 118530 118540 118550 118560 118570 118580 118590 118600 118610 118620 118630 118640 118650 118660 118670 118680 118690 118700 118710 118720 118730 118740 118750 118760 118770 118780 118790 118800 118810 118820 118830 118840 118850 118860 118870 118880 118890 118900 118910 118920 118930 118940 118950 118960 118970 118980 118990 119000 119010 119020 119030 119040 119050 119060 119070 119080 119090 119100 119110 119120 119130 119140 119150 119160 119170 119180 119190 119200 119210 119220 119230 119240 119250 119260 119270 119280 119290 119300 119310 119320 119330 119340 119350 119360 119370 119380 119390 119400 119410 119420 119430 119440 119450 119460 119470 119480 119490 119500 119510 119520 119530 119540 119550 119560 119570 119580 119590 119600 119610 119620 119630 119640 119650 119660 119670 119680 119690 119700 119710 119720 119730 119740 119750 119760 119770 119780 119790 119800 119810 119820 119830 119840 119850 119860 119870 119880 119890 119900 119910 119920 119930 119940 119950 119960 119970 119980 119990 120000 120010 120020 120030 120040 120050 120060 120070 120080 120090 120100 120110 120120 120130 120140 120150 120160 120170 120180 120190 120200 120210 120220 120230 120240 120250 120260 120270 120280 120290 120300 120310 120320 120330 120340 120350 120360 120370 120380 120390 120400 120410 120420 120430 120440 120450 120460 120470 120480 120490 120500 120510 120520 120530 120540 120550 120560 120570 120580 120590 120600 120610 120620 120630 120640 120650 120660 120670 120680 120690 120700 120710 120720 120730 120740 120750 120760 120770 120780 120790 120800 120810 120820 120830 120840 120850 120860 120870 120880 120890 120900 120910 120920 120930 120940 120950 120960 120970 120980 120990 121000 121010 121020 121030 121040 121050 121060 121070 121080 121090 121100 121110 121120 121130 121140 121150 121160 121170 121180 121190 121200 121210 121220 121230 121240 121250 121260 121270 121280 121290 121300 121310 121320 121330 121340 121350 121360 121370 121380 121390 121400 121410 121420 121430 121440 121450 121460 121470 121480 121490 121500 121510 121520 121530 121540 121550 121560 121570 121580 121590 121600 121610 121620 121630 121640 121650 121660 121670 121680 121690 121700 121710 121720 121730 121740 121750 121760 121770 121780 121790 121800 121810 121820 121830 121840 121850 121860 121870 121880 121890 121900 121910 121920 121930 121940 121950 121960 121970 121980 121990 122000 122010 122020 122030 122040 122050 122060 122070 122080 122090 122100 122110 122120 122130 122140 122150 122160 122170 122180 122190 122200 122210 122220 122230 122240 122250 122260 122270 122280 122290 122300 122310 122320 122330 122340 122350 122360 122370 122380 122390 122400 122410 122420 122430 122440 122450 122460 122470 122480 122490 122500 122510 122520 122530 122540 122550 122560 122570 122580 122590 122600 122610 122620 122630 122640 122650 122660 122670 122680 122690 122700 122710 122720 122730 122740 122750 122760 122770 122780 122790 122800 122810 122820 122830 122840 122850 122860 122870 122880 
CONNECTIVITY vtktypeint64
0 33 331 34 2673 2674 2675 2676 2677 2678 
297 331 298 0 2679 2680 2681 2682 2675 2683 
0 33 330 331 2673 2684 2685 2675 2674 2686 
297 331 0 330 2679 2675 2682 2687 2686 2685 
298 0 331 1 2683 2675 2680 2688 2689 2690 
331 0 34 1 2675 2676 2678 2690 2689 2691 
1 34 332 35 2691 2692 2693 2694 2695 2696 
298 332 299 1 2697 2698 2699 2688 2693 2700 
1 34 331 332 2691 2678 2690 2693 2692 2701 
298 332 1 331 2697 2693 2688 2680 2701 2690 
299 1 332 2 2700 2693 2698 2702 2703 2704 
332 1 35 2 2693 2694 2696 2704 2703 2705 
2 35 333 36 2705 2706 2707 2708 2709 2710 
299 333 300 2 2711 2712 2713 2702 2707 2714 
2 35 332 333 2705 2696 2704 2707 2706 2715 
299 333 2 332 2711 2707 2702 2698 2715 2704 
300 2 333 3 2714 2707 2712 2716 2717 2718 
333 2 36 3 2707 2708 2710 2718 2717 2719 
3 36 334 37 2719 2720 2721 2722 2723 2724 
300 334 301 3 2725 2726 2727 2716 2721 2728 
3 36 333 334 2719 2710 2718 2721 2720 2729 
300 334 3 333 2725 2721 2716 2712 2729 2718 
301 3 334 4 2728 2721 2726 2730 2731 2732 
334 3 37 4 2721 2722 2724 2732 2731 2733 
4 37 335 38 2733 2734 2735 2736 2737 2738 
301 335 302 4 2739 2740 2741 2730 2735 2742 
4 37 334 335 2733 2724 2732 2735 2734 2743 
301 335 4 334 2739 2735 2730 2726 2743 2732 
302 4 335 5 2742 2735 2740 2744 2745 2746 
335 4 38 5 2735 2736 2738 2746 2745 2747 
5 38 336 39 2747 2748 2749 2750 2751 2752 
302 336 303 5 2753 2754 2755 2744 2749 2756 
5 38 335 336 2747 2738 2746 2749 2748 2757 
302 336 5 335 2753 2749 2744 2740 2757 2746 
303 5 336 6 2756 2749 2754 2758 2759 2760 
336 5 39 6 2749 2750 2752 2760 2759 2761 
6 39 337 40 2761 2762 2763 2764 2765 2766 
303 337 304 6 2767 2768 2769 2758 2763 2770 
6 39 336 337 2761 2752 2760 2763 2762 2771 
303 337 6 336 2767 2763 2758 2754 2771 2760 
304 6 337 7 2770 2763 2768 2772 2773 2774 
337 6 40 7 2763 2764 2766 2774 2773 2775 
7 40 338 41 2775 2776 2777 2778 2779 2780 
304 338 305 7 2781 2782 2783 2772 2777 2784 
7 40 337 338 2775 2766 2774 2777 2776 2785 
304 338 7 337 2781 2777 2772 2768 2785 2774 
305 7 338 8 2784 2777 2782 2786 2787 2788 
338 7 41 8 2777 2778 2780 2788 2787 2789 
8 41 339 42 2789 2790 2791 2792 2793 2794 
305 339 306 8 2795 2796 2797 2786 2791 2798 
8 41 338 339 2789 2780 2788 2791 2790 2799 
305 339 8 338 2795 2791 2786 2782 2799 2788 
306 8 339 9 2798 2791 2796 2800 2801 2802 
339 8 42 9 2791 2792 2794 2802 2801 2803 
9 42 340 43 2803 2804 2805 2806 2807 2808 
306 340 307 9 2809 2810 2811 2800 2805 2812 
9 42 339 340 2803 2794 2802 2805 2804 2813 
306 340 9 339 2809 2805 2800 2796 2813 2802 
307 9 340 10 2812 2805 2810 2814 2815 2816 
340 9 43 10 2805 2806 2808 2816 2815 2817 
10 43 341 44 2817 2818 2819 2820 2821 2822 
307 341 308 10 2823 2824 2825 2814 2819 2826 
10 43 340 341 2817 2808 2816 2819 2818 2827 
307 341 10 340 2823 2819 2814 2810 2827 2816 
308 10 341 11 2826 2819 2824 2828 2829 2830 
341 10 44 11 2819 2820 2822 2830 2829 2831 
11 44 342 45 2831 2832 2833 2834 2835 2836 
308 342 309 11 2837 2838 2839 2828 2833 2840 
11 44 341 342 2831 2822 2830 2833 2832 2841 
308 342 11 341 2837 2833 2828 2824 2841 2830 
309 11 342 12 2840 2833 2838 2842 2843 2844 
342 11 45 12 2833 2834 2836 2844 2843 2845 
12 45 343 46 2845 2846 2847 2848 2849 2850 
309 343 310 12 2851 2852 2853 2842 2847 2854 
12 45 342 343 2845 2836 2844 2847 2846 2855 
309 343 12 342 2851 2847 2842 2838 2855 2844 
310 12 343 13 2854 2847 2852 2856 2857 2858 
343 12 46 13 2847 2848 2850 2858 2857 2859 
13 46 344 47 2859 2860 2861 2862 2863 2864 
310 344 311 13 2865 2866 2867 2856 2861 2868 
13 46 343 344 2859 2850 2858 2861 2860 2869 
310 344 13 343 2865 2861 2856 2852 2869 2858 
311 13 344 14 2868 2861 2866 2870 2871 2872 
344 13 47 14 2861 2862 2864 2872 2871 2873 
14 47 345 48 2873 2874 2875 2876 2877 2878 
311 345 312 14 2879 2880 2881 2870 2875 2882 
14 47 344 345 2873 2864 2872 2875 2874 2883 
311 345 14 344 2879 2875 2870 2866 2883 2872 
312 14 345 15 2882 2875 2880 2884 2885 2886 
345 14 48 15 2875 2876 2878 2886 2885 2887 
15 48 346 49 2887 2888 2889 2890 2891 2892 
312 346 313 15 2893 2894 2895 2884 2889 2896 
15 48 345 346 2887 2878 2886 2889 2888 2897 
312 346 15 345 2893 2889 2884 2880 2897 2886 
313 15 346 16 2896 2889 2894 2898 2899 2900 
346 15 49 16 2889 2890 2892 2900 2899 2901 
16 49 347 50 2901 2902 2903 2904 2905 2906 
313 347 314 16 2907 2908 2909 2898 2903 2910 
16 49 346 347 2901 2892 2900 2903 2902 2911 
313 347 16 346 2907 2903 2898 2894 2911 2900 
314 16 347 17 2910 2903 2908 2912 2913 2914 
347 16 50 17 2903 2904 2906 2914 2913 2915 
17 50 348 51 2915 2916 2917 2918 2919 2920 
314 348 315 17 2921 2922 2923 2912 2917 2924 
17 50 347 348 2915 2906 2914 2917 2916 2925 
314 348 17 347 2921 2917 2912 2908 2925 2914 
315 17 348 18 2924 2917 2922 2926 2927 2928 
348 17 51 18 2917 2918 2920 2928 2927 2929 
18 51 349 52 2929 2930 2931 2932 2933 2934 
315 349 316 18 2935 2936 2937 2926 2931 2938 
18 51 348 349 2929 2920 2928 2931 2930 2939 
315 349 18 348 2935 2931 2926 2922 2939 2928 
316 18 349 19 2938 2931 2936 2940 2941 2942 
349 18 52 19 2931 2932 2934 2942 2941 2943 
19 52 350 53 2943 2944 2945 2946 2947 2948 
316 350 317 19 2949 2950 2951 2940 2945 2952 
19 52 349 350 2943 2934 2942 2945 2944 2953 
316 350 19 349 2949 2945 2940 2936 2953 2942 
317 19 350 20 2952 2945 2950 2954 2955 2956 
350 19 53 20 2945 2946 2948 2956 2955 2957 
20 53 351 54 2957 2958 2959 2960 2961 2962 
317 351 318 20 2963 2964 2965 2954 2959 2966 
20 53 350 351 2957 2948 2956 2959 2958 2967 
317 351 20 350 2963 2959 2954 2950 2967 2956 
318 20 351 21 2966 2959 2964 2968 2969 2970 
351 20 54 21 2959 2960 2962 2970 2969 2971 
21 54 352 55 2971 2972 2973 2974 2975 2976 
318 352 319 21 2977 2978 2979 2968 2973 2980 
21 54 351 352 2971 2962 2970 2973 2972 2981 
318 352 21 351 2977 2973 2968 2964 2981 2970 
319 21 352 22 2980 2973 2978 2982 2983 2984 
352 21 55 22 2973 2974 2976 2984 2983 2985 
22 55 353 56 2985 2986 2987 2988 2989 2990 
319 353 320 22 2991 2992 2993 2982 2987 2994 
22 55 352 353 2985 2976 2984 2987 2986 2995 
319 353 22 352 2991 2987 2982 2978 2995 2984 
320 22 353 23 2994 2987 2992 2996 2997 2998 
353 22 56 23 2987 2988 2990 2998 2997 2999 
23 56 354 57 2999 3000 3001 3002 3003 3004 
320 354 321 23 3005 3006 3007 2996 3001 3008 
23 56 353 354 2999 2990 2998 3001 3000 3009 
320 354 23 353 3005 3001 2996 2992 3009 2998 
321 23 354 24 3008 3001 3006 3010 3011 3012 
354 23 57 24 3001 3002 3004 3012 3011 3013 
24 57 355 58 3013 3014 3015 3016 3017 3018 
321 355 322 24 3019 3020 3021 3010 3015 3022 
24 57 354 355 3013 3004 3012 3015 3014 3023 
321 355 24 354 3019 3015 3010 3006 3023 3012 
322 24 355 25 3022 3015 3020 3024 3025 3026 
355 24 58 25 3015 3016 3018 3026 3025 3027 
25 58 356 59 3027 3028 3029 3030 3031 3032 
322 356 323 25 3033 3034 3035 3024 3029 3036 
25 58 355 356 3027 3018 3026 3029 3028 3037 
322 356 25 355 3033 3029 3024 3020 3037 3026 
323 25 356 26 3036 3029 3034 3038 3039 3040 
356 25 59 26 3029 3030 3032 3040 3039 3041 
26 59 357 60 3041 3042 3043 3044 3045 3046 
323 357 324 26 3047 3048 3049 3038 3043 3050 
26 59 356 357 3041 3032 3040 3043 3042 3051 
323 357 26 356 3047 3043 3038 3034 3051 3040 
324 26 357 27 3050 3043 3048 3052 3053 3054 
357 26 60 27 3043 3044 3046 3054 3053 3055 
27 60 358 61 3055 3056 3057 3058 3059 3060 
324 358 325 27 3061 3062 3063 3052 3057 3064 
27 60 357 358 3055 3046 3054 3057 3056 3065 
324 358 27 357 3061 3057 3052 3048 3065 3054 
325 27 358 28 3064 3057 3062 3066 3067 3068 
358 27 61 28 3057 3058 3060 3068 3067 3069 
28 61 359 62 3069 3070 3071 3072 3073 3074 
325 359 326 28 3075 3076 3077 3066 3071 3078 
28 61 358 359 3069 3060 3068 3071 3070 3079 
325 359 28 358 3075 3071 3066 3062 3079 3068 
326 28 359 29 3078 3071 3076 3080 3081 3082 
359 28 62 29 3071 3072 3074 3082 3081 3083 
29 62 360 63 3083 3084 3085 3086 3087 3088 
326 360 327 29 3089 3090 3091 3080 3085 3092 
29 62 359 360 3083 3074 3082 3085 3084 3093 
326 360 29 359 3089 3085 3080 3076 3093 3082 
327 29 360 30 3092 3085 3090 3094 3095 3096 
360 29 63 30 3085 3086 3088 3096 3095 3097 
30 63 361 64 3097 3098 3099 3100 3101 3102 
327 361 328 30 3103 3104 3105 3094 3099 3106 
30 63 360 361 3097 3088 3096 3099 3098 3107 
327 361 30 360 3103 3099 3094 3090 3107 3096 
328 30 361 31 3106 3099 3104 3108 3109 3110 
361 30 64 31 3099 3100 3102 3110 3109 3111 
31 64 362 65 3111 3112 3113 3114 3115 3116 
328 362 329 31 3117 3118 3119 3108 3113 3120 
31 64 361 362 3111 3102 3110 3113 3112 3121 
328 362 31 361 3117 3113 3108 3104 3121 3110 
329 31 362 32 3120 3113 3118 3122 3123 3124 
362 31 65 32 3113 3114 3116 3124 3123 3125 
33 66 364 67 3126 3127 3128 3129 3130 3131 
330 364 331 33 3132 3133 2686 2684 3128 2674 
33 66 363 364 3126 3134 3135 3128 3127 3136 
330 364 33 363 3132 3128 2684 3137 3136 3135 
331 33 364 34 2674 3128 3133 2678 2677 3138 
364 33 67 34 3128 3129 3131 3138 2677 3139 
34 67 365 68 3139 3140 3141 3142 3143 3144 
331 365 332 34 3145 3146 2701 2678 3141 2692 
34 67 364 365 3139 3131 3138 3141 3140 3147 
331 365 34 364 3145 3141 2678 3133 3147 3138 
332 34 365 35 2692 3141 3146 2696 2695 3148 
365 34 68 35 3141 3142 3144 3148 2695 3149 
35 68 366 69 3149 3150 3151 3152 3153 3154 
332 366 333 35 3155 3156 2715 2696 3151 2706 
35 68 365 366 3149 3144 3148 3151 3150 3157 
332 366 35 365 3155 3151 2696 3146 3157 3148 
333 35 366 36 2706 3151 3156 2710 2709 3158 
366 35 69 36 3151 3152 3154 3158 2709 3159 
36 69 367 70 3159 3160 3161 3162 3163 3164 
333 367 334 36 3165 3166 2729 2710 3161 2720 
36 69 366 367 3159 3154 3158 3161 3160 3167 
333 367 36 366 3165 3161 2710 3156 3167 3158 
334 36 367 37 2720 3161 3166 2724 2723 3168 
367 36 70 37 3161 3162 3164 3168 2723 3169 
37 70 368 71 3169 3170 3171 3172 3173 3174 
334 368 335 37 3175 3176 2743 2724 3171 2734 
37 70 367 368 3169 3164 3168 3171 3170 3177 
334 368 37 367 3175 3171 2724 3166 3177 3168 
335 37 368 38 2734 3171 3176 2738 2737 3178 
368 37 71 38 3171 3172 3174 3178 2737 3179 
38 71 369 72 3179 3180 3181 3182 3183 3184 
335 369 336 38 3185 3186 2757 2738 3181 2748 
38 71 368 369 3179 3174 3178 3181 3180 3187 
335 369 38 368 3185 3181 2738 3176 3187 3178 
336 38 369 39 2748 3181 3186 2752 2751 3188 
369 38 72 39 3181 3182 3184 3188 2751 3189 
39 72 370 73 3189 3190 3191 3192 3193 3194 
336 370 337 39 3195 3196 2771 2752 3191 2762 
39 72 369 370 3189 3184 3188 3191 3190 3197 
336 370 39 369 3195 3191 2752 3186 3197 3188 
337 39 370 40 2762 3191 3196 2766 2765 3198 
370 39 73 40 3191 3192 3194 3198 2765 3199 
40 73 371 74 3199 3200 3201 3202 3203 3204 
337 371 338 40 3205 3206 2785 2766 3201 2776 
40 73 370 371 3199 3194 3198 3201 3200 3207 
337 371 40 370 3205 3201 2766 3196 3207 3198 
338 40 371 41 2776 3201 3206 2780 2779 3208 
371 40 74 41 3201 3202 3204 3208 2779 3209 
41 74 372 75 3209 3210 3211 3212 3213 3214 
338 372 339 41 3215 3216 2799 2780 3211 2790 
41 74 371 372 3209 3204 3208 3211 3210 3217 
338 372 41 371 3215 3211 2780 3206 3217 3208 
339 41 372 42 2790 3211 3216 2794 2793 3218 
372 41 75 42 3211 3212 3214 3218 2793 3219 
42 75 373 76 3219 3220 3221 3222 3223 3224 
339 373 340 42 3225 3226 2813 2794 3221 2804 
42 75 372 373 3219 3214 3218 3221 3220 3227 
339 373 42 372 3225 3221 2794 3216 3227 3218 
340 42 373 43 2804 3221 3226 2808 2807 3228 
373 42 76 43 3221 3222 3224 3228 2807 3229 
43 76 374 77 3229 3230 3231 3232 3233 3234 
340 374 341 43 3235 3236 2827 2808 3231 2818 
43 76 373 374 3229 3224 3228 3231 3230 3237 
340 374 43 373 3235 3231 2808 3226 3237 3228 
341 43 374 44 2818 3231 3236 2822 2821 3238 
374 43 77 44 3231 3232 3234 3238 2821 3239 
44 77 375 78 3239 3240 3241 3242 3243 3244 
341 375 342 44 3245 3246 2841 2822 3241 2832 
44 77 374 375 3239 3234 3238 3241 3240 3247 
341 375 44 374 3245 3241 2822 3236 3247 3238 
342 44 375 45 2832 3241 3246 2836 2835 3248 
375 44 78 45 3241 3242 3244 3248 2835 3249 
45 78 376 79 3249 3250 3251 3252 3253 3254 
342 376 343 45 3255 3256 2855 2836 3251 2846 
45 78 375 376 3249 3244 3248 3251 3250 3257 
342 376 45 375 3255 3251 2836 3246 3257 3248 
343 45 376 46 2846 3251 3256 2850 2849 3258 
376 45 79 46 3251 3252 3254 3258 2849 3259 
46 79 377 80 3259 3260 3261 3262 3263 3264 
343 377 344 46 3265 3266 2869 2850 3261 2860 
46 79 376 377 3259 3254 3258 3261 3260 3267 
343 377 46 376 3265 3261 2850 3256 3267 3258 
344 46 377 47 2860 3261 3266 2864 2863 3268 
377 46 80 47 3261 3262 3264 3268 2863 3269 
47 80 378 81 3269 3270 3271 3272 3273 3274 
344 378 345 47 3275 3276 2883 2864 3271 2874 
47 80 377 378 3269 3264 3268 3271 3270 3277 
344 378 47 377 3275 3271 2864 3266 3277 3268 
345 47 378 48 2874 3271 3276 2878 2877 3278 
378 47 81 48 3271 3272 3274 3278 2877 3279 
48 81 379 82 3279 3280 3281 3282 3283 3284 
345 379 346 48 3285 3286 2897 2878 3281 2888 
48 81 378 379 3279 3274 3278 3281 3280 3287 
345 379 48 378 3285 3281 2878 3276 3287 3278 
346 48 379 49 2888 3281 3286 2892 2891 3288 
379 48 82 49 3281 3282 3284 3288 2891 3289 
49 82 380 83 3289 3290 3291 3292 3293 3294 
346 380 347 49 3295 3296 2911 2892 3291 2902 
49 82 379 380 3289 3284 3288 3291 3290 3297 
346 380 49 379 3295 3291 2892 3286 3297 3288 
347 49 380 50 2902 3291 3296 2906 2905 3298 
380 49 83 50 3291 3292 3294 3298 2905 3299 
50 83 381 84 3299 3300 3301 3302 3303 3304 
347 381 348 50 3305 3306 2925 2906 3301 2916 
50 83 380 381 3299 3294 3298 3301 3300 3307 
347 381 50 380 3305 3301 2906 3296 3307 3298 
348 50 381 51 2916 3301 3306 2920 2919 3308 
381 50 84 51 3301 3302 3304 3308 2919 3309 
51 84 382 85 3309 3310 3311 3312 3313 3314 
348 382 349 51 3315 3316 2939 2920 3311 2930 
51 84 381 382 3309 3304 3308 3311 3310 3317 
348 382 51 381 3315 3311 2920 3306 3317 3308 
349 51 382 52 2930 3311 3316 2934 2933 3318 
382 51 85 52 3311 3312 3314 3318 2933 3319 
52 85 383 86 3319 3320 3321 3322 3323 3324 
349 383 350 52 3325 3326 2953 2934 3321 2944 
52 85 382 383 3319 3314 3318 3321 3320 3327 
349 383 52 382 3325 3321 2934 3316 3327 3318 
350 52 383 53 2944 3321 3326 2948 2947 3328 
383 52 86 53 3321 3322 3324 3328 2947 3329 
53 86 384 87 3329 3330 3331 3332 3333 3334 
350 384 351 53 3335 3336 2967 2948 3331 2958 
53 86 383 384 3329 3324 3328 3331 3330 3337 
350 384 53 383 3335 3331 2948 3326 3337 3328 
351 53 384 54 2958 3331 3336 2962 2961 3338 
384 53 87 54 3331 3332 3334 3338 2961 3339 
54 87 385 88 3339 3340 3341 3342 3343 3344 
351 385 352 54 3345 3346 2981 2962 3341 2972 
54 87 384 385 3339 3334 3338 3341 3340 3347 
351 385 54 384 3345 3341 2962 3336 3347 3338 
352 54 385 55 2972 3341 3346 2976 2975 3348 
385 54 88 55 3341 3342 3344 3348 2975 3349 
55 88 386 89 3349 3350 3351 3352 3353 3354 
352 386 353 55 3355 3356 2995 2976 3351 2986 
55 88 385 386 3349 3344 3348 3351 3350 3357 
352 386 55 385 3355 3351 2976 3346 3357 3348 
353 55 386 56 2986 3351 3356 2990 2989 3358 
386 55 89 56 3351 3352 3354 3358 2989 3359 
56 89 387 90 3359 3360 3361 3362 3363 3364 
353 387 354 56 3365 3366 3009 2990 3361 3000 
56 89 386 387 3359 3354 3358 3361 3360 3367 
353 387 56 386 3365 3361 2990 3356 3367 3358 
354 56 387 57 3000 3361 3366 3004 3003 3368 
387 56 90 57 3361 3362 3364 3368 3003 3369 
57 90 388 91 3369 3370 3371 3372 3373 3374 
354 388 355 57 3375 3376 3023 3004 3371 3014 
57 90 387 388 3369 3364 3368 3371 3370 3377 
354 388 57 387 3375 3371 3004 3366 3377 3368 
355 57 388 58 3014 3371 3376 3018 3017 3378 
388 57 91 58 3371 3372 3374 3378 3017 3379 
58 91 389 92 3379 3380 3381 3382 3383 3384 
355 389 356 58 3385 3386 3037 3018 3381 3028 
58 91 388 389 3379 3374 3378 3381 3380 3387 
355 389 58 388 3385 3381 3018 3376 3387 3378 
356 58 389 59 3028 3381 3386 3032 3031 3388 
389 58 92 59 3381 3382 3384 3388 3031 3389 
59 92 390 93 3389 3390 3391 3392 3393 3394 
356 390 357 59 3395 3396 3051 3032 3391 3042 
59 92 389 390 3389 3384 3388 3391 3390 3397 
356 390 59 389 3395 3391 3032 3386 3397 3388 
357 59 390 60 3042 3391 3396 3046 3045 3398 
390 59 93 60 3391 3392 3394 3398 3045 3399 
60 93 391 94 3399 3400 3401 3402 3403 3404 
357 391 358 60 3405 3406 3065 3046 3401 3056 
60 93 390 391 3399 3394 3398 3401 3400 3407 
357 391 60 390 3405 3401 3046 3396 3407 3398 
358 60 391 61 3056 3401 3406 3060 3059 3408 
391 60 94 61 3401 3402 3404 3408 3059 3409 
61 94 392 95 3409 3410 3411 3412 3413 3414 
358 392 359 61 3415 3416 3079 3060 3411 3070 
61 94 391 392 3409 3404 3408 3411 3410 3417 
358 392 61 391 3415 3411 3060 3406 3417 3408 
359 61 392 62 3070 3411 3416 3074 3073 3418 
392 61 95 62 3411 3412 3414 3418 3073 3419 
62 95 393 96 3419 3420 3421 3422 3423 3424 
359 393 360 62 3425 3426 3093 3074 3421 3084 
62 95 392 393 3419 3414 3418 3421 3420 3427 
359 393 62 392 3425 3421 3074 3416 3427 3418 
360 62 393 63 3084 3421 3426 3088 3087 3428 
393 62 96 63 3421 3422 3424 3428 3087 3429 
63 96 394 97 3429 3430 3431 3432 3433 3434 
360 394 361 63 3435 3436 3107 3088 3431 3098 
63 96 393 394 3429 3424 3428 3431 3430 3437 
360 394 63 393 3435 3431 3088 3426 3437 3428 
361 63 394 64 3098 3431 3436 3102 3101 3438 
394 63 97 64 3431 3432 3434 3438 3101 3439 
64 97 395 98 3439 3440 3441 3442 3443 3444 
361 395 362 64 3445 3446 3121 3102 3441 3112 
64 97 394 395 3439 3434 3438 3441 3440 3447 
361 395 64 394 3445 3441 3102 3436 3447 3438 
362 64 395 65 3112 3441 3446 3116 3115 3448 
395 64 98 65 3441 3442 3444 3448 3115 3449 
66 99 397 100 3450 3451 3452 3453 3454 3455 
363 397 364 66 3456 3457 3136 3134 3452 3127 
66 99 396 397 3450 3458 3459 3452 3451 3460 
363 397 66 396 3456 3452 3134 3461 3460 3459 
364 66 397 67 3127 3452 3457 3131 3130 3462 
397 66 100 67 3452 3453 3455 3462 3130 3463 
67 100 398 101 3463 3464 3465 3466 3467 3468 
364 398 365 67 3469 3470 3147 3131 3465 3140 
67 100 397 398 3463 3455 3462 3465 3464 3471 
364 398 67 397 3469 3465 3131 3457 3471 3462 
365 67 398 68 3140 3465 3470 3144 3143 3472 
398 67 101 68 3465 3466 3468 3472 3143 3473 
68 101 399 102 3473 3474 3475 3476 3477 3478 
365 399 366 68 3479 3480 3157 3144 3475 3150 
68 101 398 399 3473 3468 3472 3475 3474 3481 
365 399 68 398 3479 3475 3144 3470 3481 3472 
366 68 399 69 3150 3475 3480 3154 3153 3482 
399 68 102 69 3475 3476 3478 3482 3153 3483 
69 102 400 103 3483 3484 3485 3486 3487 3488 
366 400 367 69 3489 3490 3167 3154 3485 3160 
69 102 399 400 3483 3478 3482 3485 3484 3491 
366 400 69 399 3489 3485 3154 3480 3491 3482 
367 69 400 70 3160 3485 3490 3164 3163 3492 
400 69 103 70 3485 3486 3488 3492 3163 3493 
70 103 401 104 3493 3494 3495 3496 3497 3498 
367 401 368 70 3499 3500 3177 3164 3495 3170 
70 103 400 401 3493 3488 3492 3495 3494 3501 
367 401 70 400 3499 3495 3164 3490 3501 3492 
368 70 401 71 3170 3495 3500 3174 3173 3502 
401 70 104 71 3495 3496 3498 3502 3173 3503 
71 104 402 105 3503 3504 3505 3506 3507 3508 
368 402 369 71 3509 3510 3187 3174 3505 3180 
71 104 401 402 3503 3498 3502 3505 3504 3511 
368 402 71 401 3509 3505 3174 3500 3511 3502 
369 71 402 72 3180 3505 3510 3184 3183 3512 
402 71 105 72 3505 3506 3508 3512 3183 3513 
72 105 403 106 3513 3514 3515 3516 3517 3518 
369 403 370 72 3519 3520 3197 3184 3515 3190 
72 105 402 403 3513 3508 3512 3515 3514 3521 
369 403 72 402 3519 3515 3184 3510 3521 3512 
370 72 403 73 3190 3515 3520 3194 3193 3522 
403 72 106 73 3515 3516 3518 3522 3193 3523 
73 106 404 107 3523 3524 3525 3526 3527 3528 
370 404 371 73 3529 3530 3207 3194 3525 3200 
73 106 403 404 3523 3518 3522 3525 3524 3531 
370 404 73 403 3529 3525 3194 3520 3531 3522 
371 73 404 74 3200 3525 3530 3204 3203 3532 
404 73 107 74 3525 3526 3528 3532 3203 3533 
74 107 405 108 3533 3534 3535 3536 3537 3538 
371 405 372 74 3539 3540 3217 3204 3535 3210 
74 107 404 405 3533 3528 3532 3535 3534 3541 
371 405 74 404 3539 3535 3204 3530 3541 3532 
372 74 405 75 3210 3535 3540 3214 3213 3542 
405 74 108 75 3535 3536 3538 3542 3213 3543 
75 108 406 109 3543 3544 3545 3546 3547 3548 
372 406 373 75 3549 3550 3227 3214 3545 3220 
75 108 405 406 3543 3538 3542 3545 3544 3551 
372 406 75 405 3549 3545 3214 3540 3551 3542 
373 75 406 76 3220 3545 3550 3224 3223 3552 
406 75 109 76 3545 3546 3548 3552 3223 3553 
76 109 407 110 3553 3554 3555 3556 3557 3558 
373 407 374 76 3559 3560 3237 3224 3555 3230 
76 109 406 407 3553 3548 3552 3555 3554 3561 
373 407 76 406 3559 3555 3224 3550 3561 3552 
374 76 407 77 3230 3555 3560 3234 3233 3562 
407 76 110 77 3555 3556 3558 3562 3233 3563 
77 110 408 111 3563 3564 3565 3566 3567 3568 
374 408 375 77 3569 3570 3247 3234 3565 3240 
77 110 407 408 3563 3558 3562 3565 3564 3571 
374 408 77 407 3569 3565 3234 3560 3571 3562 
375 77 408 78 3240 3565 3570 3244 3243 3572 
408 77 111 78 3565 3566 3568 3572 3243 3573 
78 111 409 112 3573 3574 3575 3576 3577 3578 
375 409 376 78 3579 3580 3257 3244 3575 3250 
78 111 408 409 3573 3568 3572 3575 3574 3581 
375 409 78 408 3579 3575 3244 3570 3581 3572 
376 78 409 79 3250 3575 3580 3254 3253 3582 
409 78 112 79 3575 3576 3578 3582 3253 3583 
79 112 410 113 3583 3584 3585 3586 3587 3588 
376 410 377 79 3589 3590 3267 3254 3585 3260 
79 112 409 410 3583 3578 3582 3585 3584 3591 
376 410 79 409 3589 3585 3254 3580 3591 3582 
377 79 410 80 3260 3585 3590 3264 3263 3592 
410 79 113 80 3585 3586 3588 3592 3263 3593 
80 113 411 114 3593 3594 3595 3596 3597 3598 
377 411 378 80 3599 3600 3277 3264 3595 3270 
80 113 410 411 3593 3588 3592 3595 3594 3601 
377 411 80 410 3599 3595 3264 3590 3601 3592 
378 80 411 81 3270 3595 3600 3274 3273 3602 
411 80 114 81 3595 3596 3598 3602 3273 3603 
81 114 412 115 3603 3604 3605 3606 3607 3608 
378 412 379 81 3609 3610 3287 3274 3605 3280 
81 114 411 412 3603 3598 3602 3605 3604 3611 
378 412 81 411 3609 3605 3274 3600 3611 3602 
379 81 412 82 3280 3605 3610 3284 3283 3612 
412 81 115 82 3605 3606 3608 3612 3283 3613 
82 115 413 116 3613 3614 3615 3616 3617 3618 
379 413 380 82 3619 3620 3297 3284 3615 3290 
82 115 412 413 3613 3608 3612 3615 3614 3621 
379 413 82 412 3619 3615 3284 3610 3621 3612 
380 82 413 83 3290 3615 3620 3294 3293 3622 
413 82 116 83 3615 3616 3618 3622 3293 3623 
83 116 414 117 3623 3624 3625 3626 3627 3628 
380 414 381 83 3629 3630 3307 3294 3625 3300 
83 116 413 414 3623 3618 3622 3625 3624 3631 
380 414 83 413 3629 3625 3294 3620 3631 3622 
381 83 414 84 3300 3625 3630 3304 3303 3632 
414 83 117 84 3625 3626 3628 3632 3303 3633 
84 117 415 118 3633 3634 3635 3636 3637 3638 
381 415 382 84 3639 3640 3317 3304 3635 3310 
84 117 414 415 3633 3628 3632 3635 3634 3641 
381 415 84 414 3639 3635 3304 3630 3641 3632 
382 84 415 85 3310 3635 3640 3314 3313 3642 
415 84 118 85 3635 3636 3638 3642 3313 3643 
85 118 416 119 3643 3644 3645 3646 3647 3648 
382 416 383 85 3649 3650 3327 3314 3645 3320 
85 118 415 416 3643 3638 3642 3645 3644 3651 
382 416 85 415 3649 3645 3314 3640 3651 3642 
383 85 416 86 3320 3645 3650 3324 3323 3652 
416 85 119 86 3645 3646 3648 3652 3323 3653 
86 119 417 120 3653 3654 3655 3656 3657 3658 
383 417 384 86 3659 3660 3337 3324 3655 3330 
86 119 416 417 3653 3648 3652 3655 3654 3661 
383 417 86 416 3659 3655 3324 3650 3661 3652 
384 86 417 87 3330 3655 3660 3334 3333 3662 
417 86 120 87 3655 3656 3658 3662 3333 3663 
87 120 418 121 3663 3664 3665 3666 3667 3668 
384 418 385 87 3669 3670 3347 3334 3665 3340 
87 120 417 418 3663 3658 3662 3665 3664 3671 
384 418 87 417 3669 3665 3334 3660 3671 3662 
385 87 418 88 3340 3665 3670 3344 3343 3672 
418 87 121 88 3665 3666 3668 3672 3343 3673 
88 121 419 122 3673 3674 3675 3676 3677 3678 
385 419 386 88 3679 3680 3357 3344 3675 3350 
88 121 418 419 3673 3668 3672 3675 3674 3681 
385 419 88 418 3679 3675 3344 3670 3681 3672 
386 88 419 89 3350 3675 3680 3354 3353 3682 
419 88 122 89 3675 3676 3678 3682 3353 3683 
89 122 420 123 3683 3684 3685 3686 3687 3688 
386 420 387 89 3689 3690 3367 3354 3685 3360 
89 122 419 420 3683 3678 3682 3685 3684 3691 
386 420 89 419 3689 3685 3354 3680 3691 3682 
387 89 420 90 3360 3685 3690 3364 3363 3692 
420 89 123 90 3685 3686 3688 3692 3363 3693 
90 123 421 124 3693 3694 3695 3696 3697 3698 
387 421 388 90 3699 3700 3377 3364 3695 3370 
90 123 420 421 3693 3688 3692 3695 3694 3701 
387 421 90 420 3699 3695 3364 3690 3701 3692 
388 90 421 91 3370 3695 3700 3374 3373 3702 
421 90 124 91 3695 3696 3698 3702 3373 3703 
91 124 422 125 3703 3704 3705 3706 3707 3708 
388 422 389 91 3709 3710 3387 3374 3705 3380 
91 124 421 422 3703 3698 3702 3705 3704 3711 
388 422 91 421 3709 3705 3374 3700 3711 3702 
389 91 422 92 3380 3705 3710 3384 3383 3712 
422 91 125 92 3705 3706 3708 3712 3383 3713 
92 125 423 126 3713 3714 3715 3716 3717 3718 
389 423 390 92 3719 3720 3397 3384 3715 3390 
92 125 422 423 3713 3708 3712 3715 3714 3721 
389 423 92 422 3719 3715 3384 3710 3721 3712 
390 92 423 93 3390 3715 3720 3394 3393 3722 
423 92 126 93 3715 3716 3718 3722 3393 3723 
93 126 424 127 3723 3724 3725 3726 3727 3728 
390 424 391 93 3729 3730 3407 3394 3725 3400 
93 126 423 424 3723 3718 3722 3725 3724 3731 
390 424 93 423 3729 3725 3394 3720 3731 3722 
391 93 424 94 3400 3725 3730 3404 3403 3732 
424 93 127 94 3725 3726 3728 3732 3403 3733 
94 127 425 128 3733 3734 3735 3736 3737 3738 
391 425 392 94 3739 3740 3417 3404 3735 3410 
94 127 424 425 3733 3728 3732 3735 3734 3741 
391 425 94 424 3739 3735 3404 3730 3741 3732 
392 94 425 95 3410 3735 3740 3414 3413 3742 
425 94 128 95 3735 3736 3738 3742 3413 3743 
95 128 426 129 3743 3744 3745 3746 3747 3748 
392 426 393 95 3749 3750 3427 3414 3745 3420 
95 128 425 426 3743 3738 3742 3745 3744 3751 
392 426 95 425 3749 3745 3414 3740 3751 3742 
393 95 426 96 3420 3745 3750 3424 3423 3752 
426 95 129 96 3745 3746 3748 3752 3423 3753 
96 129 427 130 3753 3754 3755 3756 3757 3758 
393 427 394 96 3759 3760 3437 3424 3755 3430 
96 129 426 427 3753 3748 3752 3755 3754 3761 
393 427 96 426 3759 3755 3424 3750 3761 3752 
394 96 427 97 3430 3755 3760 3434 3433 3762 
427 96 130 97 3755 3756 3758 3762 3433 3763 
97 130 428 131 3763 3764 3765 3766 3767 3768 
394 428 395 97 3769 3770 3447 3434 3765 3440 
97 130 427 428 3763 3758 3762 3765 3764 3771 
394 428 97 427 3769 3765 3434 3760 3771 3762 
395 97 428 98 3440 3765 3770 3444 3443 3772 
428 97 131 98 3765 3766 3768 3772 3443 3773 
99 132 430 133 3774 3775 3776 3777 3778 3779 
396 430 397 99 3780 3781 3460 3458 3776 3451 
99 132 429 430 3774 3782 3783 3776 3775 3784 
396 430 99 429 3780 3776 3458 3785 3784 3783 
397 99 430 100 3451 3776 3781 3455 3454 3786 
430 99 133 100 3776 3777 3779 3786 3454 3787 
100 133 431 134 3787 3788 3789 3790 3791 3792 
397 431 398 100 3793 3794 3471 3455 3789 3464 
100 133 430 431 3787 3779 3786 3789 3788 3795 
397 431 100 430 3793 3789 3455 3781 3795 3786 
398 100 431 101 3464 3789 3794 3468 3467 3796 
431 100 134 101 3789 3790 3792 3796 3467 3797 
101 134 432 135 3797 3798 3799 3800 3801 3802 
398 432 399 101 3803 3804 3481 3468 3799 3474 
101 134 431 432 3797 3792 3796 3799 3798 3805 
398 432 101 431 3803 3799 3468 3794 3805 3796 
399 101 432 102 3474 3799 3804 3478 3477 3806 
432 101 135 102 3799 3800 3802 3806 3477 3807 
102 135 433 136 3807 3808 3809 3810 3811 3812 
399 433 400 102 3813 3814 3491 3478 3809 3484 
102 135 432 433 3807 3802 3806 3809 3808 3815 
399 433 102 432 3813 3809 3478 3804 3815 3806 
400 102 433 103 3484 3809 3814 3488 3487 3816 
433 102 136 103 3809 3810 3812 3816 3487 3817 
103 136 434 137 3817 3818 3819 3820 3821 3822 
400 434 401 103 3823 3824 3501 3488 3819 3494 
103 136 433 434 3817 3812 3816 3819 3818 3825 
400 434 103 433 3823 3819 3488 3814 3825 3816 
401 103 434 104 3494 3819 3824 3498 3497 3826 
434 103 137 104 3819 3820 3822 3826 3497 3827 
104 137 435 138 3827 3828 3829 3830 3831 3832 
401 435 402 104 3833 3834 3511 3498 3829 3504 
104 137 434 435 3827 3822 3826 3829 3828 3835 
401 435 104 434 3833 3829 3498 3824 3835 3826 
402 104 435 105 3504 3829 3834 3508 3507 3836 
435 104 138 105 3829 3830 3832 3836 3507 3837 
105 138 436 139 3837 3838 3839 3840 3841 3842 
402 436 403 105 3843 3844 3521 3508 3839 3514 
105 138 435 436 3837 3832 3836 3839 3838 3845 
402 436 105 435 3843 3839 3508 3834 3845 3836 
403 105 436 106 3514 3839 3844 3518 3517 3846 
436 105 139 106 3839 3840 3842 3846 3517 3847 
106 139 437 140 3847 3848 3849 3850 3851 3852 
403 437 404 106 3853 3854 3531 3518 3849 3524 
106 139 436 437 3847 3842 3846 3849 3848 3855 
403 437 106 436 3853 3849 3518 3844 3855 3846 
404 106 437 107 3524 3849 3854 3528 3527 3856 
437 106 140 107 3849 3850 3852 3856 3527 3857 
107 140 438 141 3857 3858 3859 3860 3861 3862 
404 438 405 107 3863 3864 3541 3528 3859 3534 
107 140 437 438 3857 3852 3856 3859 3858 3865 
404 438 107 437 3863 3859 3528 3854 3865 3856 
405 107 438 108 3534 3859 3864 3538 3537 3866 
438 107 141 108 3859 3860 3862 3866 3537 3867 
108 141 439 142 3867 3868 3869 3870 3871 3872 
405 439 406 108 3873 3874 3551 3538 3869 3544 
108 141 438 439 3867 3862 3866 3869 3868 3875 
405 439 108 438 3873 3869 3538 3864 3875 3866 
406 108 439 109 3544 3869 3874 3548 3547 3876 
439 108 142 109 3869 3870 3872 3876 3547 3877 
109 142 440 143 3877 3878 3879 3880 3881 3882 
406 440 407 109 3883 3884 3561 3548 3879 3554 
109 142 439 440 3877 3872 3876 3879 3878 3885 
406 440 109 439 3883 3879 3548 3874 3885 3876 
407 109 440 110 3554 3879 3884 3558 3557 3886 
440 109 143 110 3879 3880 3882 3886 3557 3887 
110 143 441 144 3887 3888 3889 3890 3891 3892 
407 441 408 110 3893 3894 3571 3558 3889 3564 
110 143 440 441 3887 3882 3886 3889 3888 3895 
407 441 110 440 3893 3889 3558 3884 3895 3886 
408 110 441 111 3564 3889 3894 3568 3567 3896 
441 110 144 111 3889 3890 3892 3896 3567 3897 
111 144 442 145 3897 3898 3899 3900 3901 3902 
408 442 409 111 3903 3904 3581 3568 3899 3574 
111 144 441 442 3897 3892 3896 3899 3898 3905 
408 442 111 441 3903 3899 3568 3894 3905 3896 
409 111 442 112 3574 3899 3904 3578 3577 3906 
442 111 145 112 3899 3900 3902 3906 3577 3907 
112 145 443 146 3907 3908 3909 3910 3911 3912 
409 443 410 112 3913 3914 3591 3578 3909 3584 
112 145 442 443 3907 3902 3906 3909 3908 3915 
409 443 112 442 3913 3909 3578 3904 3915 3906 
410 112 443 113 3584 3909 3914 3588 3587 3916 
443 112 146 113 3909 3910 3912 3916 3587 3917 
113 146 444 147 3917 3918 3919 3920 3921 3922 
410 444 411 113 3923 3924 3601 3588 3919 3594 
113 146 443 444 3917 3912 3916 3919 3918 3925 
410 444 113 443 3923 3919 3588 3914 3925 3916 
411 113 444 114 3594 3919 3924 3598 3597 3926 
444 113 147 114 3919 3920 3922 3926 3597 3927 
114 147 445 148 3927 3928 3929 3930 3931 3932 
411 445 412 114 3933 3934 3611 3598 3929 3604 
114 147 444 445 3927 3922 3926 3929 3928 3935 
411 445 114 444 3933 3929 3598 3924 3935 3926 
412 114 445 115 3604 3929 3934 3608 3607 3936 
445 114 148 115 3929 3930 3932 3936 3607 3937 
115 148 446 149 3937 3938 3939 3940 3941 3942 
412 446 413 115 3943 3944 3621 3608 3939 3614 
115 148 445 446 3937 3932 3936 3939 3938 3945 
412 446 115 445 3943 3939 3608 3934 3945 3936 
413 115 446 116 3614 3939 3944 3618 3617 3946 
446 115 149 116 3939 3940 3942 3946 3617 3947 
116 149 447 150 3947 3948 3949 3950 3951 3952 
413 447 414 116 3953 3954 3631 3618 3949 3624 
116 149 446 447 3947 3942 3946 3949 3948 3955 
413 447 116 446 3953 3949 3618 3944 3955 3946 
414 116 447 117 3624 3949 3954 3628 3627 3956 
447 116 150 117 3949 3950 3952 3956 3627 3957 
117 150 448 151 3957 3958 3959 3960 3961 3962 
414 448 415 117 3963 3964 3641 3628 3959 3634 
117 150 447 448 3957 3952 3956 3959 3958 3965 
414 448 117 447 3963 3959 3628 3954 3965 3956 
415 117 448 118 3634 3959 3964 3638 3637 3966 
448 117 151 118 3959 3960 3962 3966 3637 3967 
118 151 449 152 3967 3968 3969 3970 3971 3972 
415 449 416 118 3973 3974 3651 3638 3969 3644 
118 151 448 449 3967 3962 3966 3969 3968 3975 
415 449 118 448 3973 3969 3638 3964 3975 3966 
416 118 449 119 3644 3969 3974 3648 3647 3976 
449 118 152 119 3969 3970 3972 3976 3647 3977 
119 152 450 153 3977 3978 3979 3980 3981 3982 
416 450 417 119 3983 3984 3661 3648 3979 3654 
119 152 449 450 3977 3972 3976 3979 3978 3985 
416 450 119 449 3983 3979 3648 3974 3985 3976 
417 119 450 120 3654 3979 3984 3658 3657 3986 
450 119 153 120 3979 3980 3982 3986 3657 3987 
120 153 451 154 3987 3988 3989 3990 3991 3992 
417 451 418 120 3993 3994 3671 3658 3989 3664 
120 153 450 451 3987 3982 3986 3989 3988 3995 
417 451 120 450 3993 3989 3658 3984 3995 3986 
418 120 451 121 3664 3989 3994 3668 3667 3996 
451 120 154 121 3989 3990 3992 3996 3667 3997 
121 154 452 155 3997 3998 3999 4000 4001 4002 
418 452 419 121 4003 4004 3681 3668 3999 3674 
121 154 451 452 3997 3992 3996 3999 3998 4005 
418 452 121 451 4003 3999 3668 3994 4005 3996 
419 121 452 122 3674 3999 4004 3678 3677 4006 
452 121 155 122 3999 4000 4002 4006 3677 4007 
122 155 453 156 4007 4008 4009 4010 4011 4012 
419 453 420 122 4013 4014 3691 3678 4009 3684 
122 155 452 453 4007 4002 4006 4009 4008 4015 
419 453 122 452 4013 4009 3678 4004 4015 4006 
420 122 453 123 3684 4009 4014 3688 3687 4016 
453 122 156 123 4009 4010 4012 4016 3687 4017 
123 156 454 157 4017 4018 4019 4020 4021 4022 
420 454 421 123 4023 4024 3701 3688 4019 3694 
123 156 453 454 4017 4012 4016 4019 4018 4025 
420 454 123 453 4023 4019 3688 4014 4025 4016 
421 123 454 124 3694 4019 4024 3698 3697 4026 
454 123 157 124 4019 4020 4022 4026 3697 4027 
124 157 455 158 4027 4028 4029 4030 4031 4032 
421 455 422 124 4033 4034 3711 3698 4029 3704 
124 157 454 455 4027 4022 4026 4029 4028 4035 
421 455 124 454 4033 4029 3698 4024 4035 4026 
422 124 455 125 3704 4029 4034 3708 3707 4036 
455 124 158 125 4029 4030 4032 4036 3707 4037 
125 158 456 159 4037 4038 4039 4040 4041 4042 
422 456 423 125 4043 4044 3721 3708 4039 3714 
125 158 455 456 4037 4032 4036 4039 4038 4045 
422 456 125 455 4043 4039 3708 4034 4045 4036 
423 125 456 126 3714 4039 4044 3718 3717 4046 
456 125 159 126 4039 4040 4042 4046 3717 4047 
126 159 457 160 4047 4048 4049 4050 4051 4052 
423 457 424 126 4053 4054 3731 3718 4049 3724 
126 159 456 457 4047 4042 4046 4049 4048 4055 
423 457 126 456 4053 4049 3718 4044 4055 4046 
424 126 457 127 3724 4049 4054 3728 3727 4056 
457 126 160 127 4049 4050 4052 4056 3727 4057 
127 160 458 161 4057 4058 4059 4060 4061 4062 
424 458 425 127 4063 4064 3741 3728 4059 3734 
127 160 457 458 4057 4052 4056 4059 4058 4065 
424 458 127 457 4063 4059 3728 4054 4065 4056 
425 127 458 128 3734 4059 4064 3738 3737 4066 
458 127 161 128 4059 4060 4062 4066 3737 4067 
128 161 459 162 4067 4068 4069 4070 4071 4072 
425 459 426 128 4073 4074 3751 3738 4069 3744 
128 161 458 459 4067 4062 4066 4069 4068 4075 
425 459 128 458 4073 4069 3738 4064 4075 4066 
426 128 459 129 3744 4069 4074 3748 3747 4076 
459 128 162 129 4069 4070 4072 4076 3747 4077 
129 162 460 163 4077 4078 4079 4080 4081 4082 
426 460 427 129 4083 4084 3761 3748 4079 3754 
129 162 459 460 4077 4072 4076 4079 4078 4085 
426 460 129 459 4083 4079 3748 4074 4085 4076 
427 129 460 130 3754 4079 4084 3758 3757 4086 
460 129 163 130 4079 4080 4082 4086 3757 4087 
130 163 461 164 4087 4088 4089 4090 4091 4092 
427 461 428 130 4093 4094 3771 3758 4089 3764 
130 163 460 461 4087 4082 4086 4089 4088 4095 
427 461 130 460 4093 4089 3758 4084 4095 4086 
428 130 461 131 3764 4089 4094 3768 3767 4096 
461 130 164 131 4089 4090 4092 4096 3767 4097 
132 165 463 166 4098 4099 4100 4101 4102 4103 
429 463 430 132 4104 4105 3784 3782 4100 3775 
132 165 462 463 4098 4106 4107 4100 4099 4108 
429 463 132 462 4104 4100 3782 4109 4108 4107 
430 132 463 133 3775 4100 4105 3779 3778 4110 
463 132 166 133 4100 4101 4103 4110 3778 4111 
133 166 464 167 4111 4112 4113 4114 4115 4116 
430 464 431 133 4117 4118 3795 3779 4113 3788 
133 166 463 464 4111 4103 4110 4113 4112 4119 
430 464 133 463 4117 4113 3779 4105 4119 4110 
431 133 464 134 3788 4113 4118 3792 3791 4120 
464 133 167 134 4113 4114 4116 4120 3791 4121 
134 167 465 168 4121 4122 4123 4124 4125 4126 
431 465 432 134 4127 4128 3805 3792 4123 3798 
134 167 464 465 4121 4116 4120 4123 4122 4129 
431 465 134 464 4127 4123 3792 4118 4129 4120 
432 134 465 135 3798 4123 4128 3802 3801 4130 
465 134 168 135 4123 4124 4126 4130 3801 4131 
135 168 466 169 4131 4132 4133 4134 4135 4136 
432 466 433 135 4137 4138 3815 3802 4133 3808 
135 168 465 466 4131 4126 4130 4133 4132 4139 
432 466 135 465 4137 4133 3802 4128 4139 4130 
433 135 466 136 3808 4133 4138 3812 3811 4140 
466 135 169 136 4133 4134 4136 4140 3811 4141 
136 169 467 170 4141 4142 4143 4144 4145 4146 
433 467 434 136 4147 4148 3825 3812 4143 3818 
136 169 466 467 4141 4136 4140 4143 4142 4149 
433 467 136 466 4147 4143 3812 4138 4149 4140 
434 136 467 137 3818 4143 4148 3822 3821 4150 
467 136 170 137 4143 4144 4146 4150 3821 4151 
137 170 468 171 4151 4152 4153 4154 4155 4156 
434 468 435 137 4157 4158 3835 3822 4153 3828 
137 170 467 468 4151 4146 4150 4153 4152 4159 
434 468 137 467 4157 4153 3822 4148 4159 4150 
435 137 468 138 3828 4153 4158 3832 3831 4160 
468 137 171 138 4153 4154 4156 4160 3831 4161 
138 171 469 172 4161 4162 4163 4164 4165 4166 
435 469 436 138 4167 4168 3845 3832 4163 3838 
138 171 468 469 4161 4156 4160 4163 4162 4169 
435 469 138 468 4167 4163 3832 4158 4169 4160 
436 138 469 139 3838 4163 4168 3842 3841 4170 
469 138 172 139 4163 4164 4166 4170 3841 4171 
139 172 470 173 4171 4172 4173 4174 4175 4176 
436 470 437 139 4177 4178 3855 3842 4173 3848 
139 172 469 470 4171 4166 4170 4173 4172 4179 
436 470 139 469 4177 4173 3842 4168 4179 4170 
437 139 470 140 3848 4173 4178 3852 3851 4180 
470 139 173 140 4173 4174 4176 4180 3851 4181 
140 173 471 174 4181 4182 4183 4184 4185 4186 
437 471 438 140 4187 4188 3865 3852 4183 3858 
140 173 470 471 4181 4176 4180 4183 4182 4189 
437 471 140 470 4187 4183 3852 4178 4189 4180 
438 140 471 141 3858 4183 4188 3862 3861 4190 
471 140 174 141 4183 4184 4186 4190 3861 4191 
141 174 472 175 4191 4192 4193 4194 4195 4196 
438 472 439 141 4197 4198 3875 3862 4193 3868 
141 174 471 472 4191 4186 4190 4193 4192 4199 
438 472 141 471 4197 4193 3862 4188 4199 4190 
439 141 472 142 3868 4193 4198 3872 3871 4200 
472 141 175 142 4193 4194 4196 4200 3871 4201 
142 175 473 176 4201 4202 4203 4204 4205 4206 
439 473 440 142 4207 4208 3885 3872 4203 3878 
142 175 472 473 4201 4196 4200 4203 4202 4209 
439 473 142 472 4207 4203 3872 4198 4209 4200 
440 142 473 143 3878 4203 4208 3882 3881 4210 
473 142 176 143 4203 4204 4206 4210 3881 4211 
143 176 474 177 4211 4212 4213 4214 4215 4216 
440 474 441 143 4217 4218 3895 3882 4213 3888 
143 176 473 474 4211 4206 4210 4213 4212 4219 
440 474 143 473 4217 4213 3882 4208 4219 4210 
441 143 474 144 3888 4213 4218 3892 3891 4220 
474 143 177 144 4213 4214 4216 4220 3891 4221 
144 177 475 178 4221 4222 4223 4224 4225 4226 
441 475 442 144 4227 4228 3905 3892 4223 3898 
144 177 474 475 4221 4216 4220 4223 4222 4229 
441 475 144 474 4227 4223 3892 4218 4229 4220 
442 144 475 145 3898 4223 4228 3902 3901 4230 
475 144 178 145 4223 4224 4226 4230 3901 4231 
145 178 476 179 4231 4232 4233 4234 4235 4236 
442 476 443 145 4237 4238 3915 3902 4233 3908 
145 178 475 476 4231 4226 4230 4233 4232 4239 
442 476 145 475 4237 4233 3902 4228 4239 4230 
443 145 476 146 3908 4233 4238 3912 3911 4240 
476 145 179 146 4233 4234 4236 4240 3911 4241 
146 179 477 180 4241 4242 4243 4244 4245 4246 
443 477 444 146 4247 4248 3925 3912 4243 3918 
146 179 476 477 4241 4236 4240 4243 4242 4249 
443 477 146 476 4247 4243 3912 4238 4249 4240 
444 146 477 147 3918 4243 4248 3922 3921 4250 
477 146 180 147 4243 4244 4246 4250 3921 4251 
147 180 478 181 4251 4252 4253 4254 4255 4256 
444 478 445 147 4257 4258 3935 3922 4253 3928 
147 180 477 478 4251 4246 4250 4253 4252 4259 
444 478 147 477 4257 4253 3922 4248 4259 4250 
445 147 478 148 3928 4253 4258 3932 3931 4260 
478 147 181 148 4253 4254 4256 4260 3931 4261 
148 181 479 182 4261 4262 4263 4264 4265 4266 
445 479 446 148 4267 4268 3945 3932 4263 3938 
148 181 478 479 4261 4256 4260 4263 4262 4269 
445 479 148 478 4267 4263 3932 4258 4269 4260 
446 148 479 149 3938 4263 4268 3942 3941 4270 
479 148 182 149 4263 4264 4266 4270 3941 4271 
149 182 480 183 4271 4272 4273 4274 4275 4276 
446 480 447 149 4277 4278 3955 3942 4273 3948 
149 182 479 480 4271 4266 4270 4273 4272 4279 
446 480 149 479 4277 4273 3942 4268 4279 4270 
447 149 480 150 3948 4273 4278 3952 3951 4280 
480 149 183 150 4273 4274 4276 4280 3951 4281 
150 183 481 184 4281 4282 4283 4284 4285 4286 
447 481 448 150 4287 4288 3965 3952 4283 3958 
150 183 480 481 4281 4276 4280 4283 4282 4289 
447 481 150 480 4287 4283 3952 4278 4289 4280 
448 150 481 151 3958 4283 4288 3962 3961 4290 
481 150 184 151 4283 4284 4286 4290 3961 4291 
151 184 482 185 4291 4292 4293 4294 4295 4296 
448 482 449 151 4297 4298 3975 3962 4293 3968 
151 184 481 482 4291 4286 4290 4293 4292 4299 
448 482 151 481 4297 4293 3962 4288 4299 4290 
449 151 482 152 3968 4293 4298 3972 3971 4300 
482 151 185 152 4293 4294 4296 4300 3971 4301 
152 185 483 186 4301 4302 4303 4304 4305 4306 
449 483 450 152 4307 4308 3985 3972 4303 3978 
152 185 482 483 4301 4296 4300 4303 4302 4309 
449 483 152 482 4307 4303 3972 4298 4309 4300 
450 152 483 153 3978 4303 4308 3982 3981 4310 
483 152 186 153 4303 4304 4306 4310 3981 4311 
153 186 484 187 4311 4312 4313 4314 4315 4316 
450 484 451 153 4317 4318 3995 3982 4313 3988 
153 186 483 484 4311 4306 4310 4313 4312 4319 
450 484 153 483 4317 4313 3982 4308 4319 4310 
451 153 484 154 3988 4313 4318 3992 3991 4320 
484 153 187 154 4313 4314 4316 4320 3991 4321 
154 187 485 188 4321 4322 4323 4324 4325 4326 
451 485 452 154 4327 4328 4005 3992 4323 3998 
154 187 484 485 4321 4316 4320 4323 4322 4329 
451 485 154 484 4327 4323 3992 4318 4329 4320 
452 154 485 155 3998 4323 4328 4002 4001 4330 
485 154 188 155 4323 4324 4326 4330 4001 4331 
155 188 486 189 4331 4332 4333 4334 4335 4336 
452 486 453 155 4337 4338 4015 4002 4333 4008 
155 188 485 486 4331 4326 4330 4333 4332 4339 
452 486 155 485 4337 4333 4002 4328 4339 4330 
453 155 486 156 4008 4333 4338 4012 4011 4340 
486 155 189 156 4333 4334 4336 4340 4011 4341 
156 189 487 190 4341 4342 4343 4344 4345 4346 
453 487 454 156 4347 4348 4025 4012 4343 4018 
156 189 486 487 4341 4336 4340 4343 4342 4349 
453 487 156 486 4347 4343 4012 4338 4349 4340 
454 156 487 157 4018 4343 4348 4022 4021 4350 
487 156 190 157 4343 4344 4346 4350 4021 4351 
157 190 488 191 4351 4352 4353 4354 4355 4356 
454 488 455 157 4357 4358 4035 4022 4353 4028 
157 190 487 488 4351 4346 4350 4353 4352 4359 
454 488 157 487 4357 4353 4022 4348 4359 4350 
455 157 488 158 4028 4353 4358 4032 4031 4360 
488 157 191 158 4353 4354 4356 4360 4031 4361 
158 191 489 192 4361 4362 4363 4364 4365 4366 
455 489 456 158 4367 4368 4045 4032 4363 4038 
158 191 488 489 4361 4356 4360 4363 4362 4369 
455 489 158 488 4367 4363 4032 4358 4369 4360 
456 158 489 159 4038 4363 4368 4042 4041 4370 
489 158 192 159 4363 4364 4366 4370 4041 4371 
159 192 490 193 4371 4372 4373 4374 4375 4376 
456 490 457 159 4377 4378 4055 4042 4373 4048 
159 192 489 490 4371 4366 4370 4373 4372 4379 
456 490 159 489 4377 4373 4042 4368 4379 4370 
457 159 490 160 4048 4373 4378 4052 4051 4380 
490 159 193 160 4373 4374 4376 4380 4051 4381 
160 193 491 194 4381 4382 4383 4384 4385 4386 
457 491 458 160 4387 4388 4065 4052 4383 4058 
160 193 490 491 4381 4376 4380 4383 4382 4389 
457 491 160 490 4387 4383 4052 4378 4389 4380 
458 160 491 161 4058 4383 4388 4062 4061 4390 
491 160 194 161 4383 4384 4386 4390 4061 4391 
161 194 492 195 4391 4392 4393 4394 4395 4396 
458 492 459 161 4397 4398 4075 4062 4393 4068 
161 194 491 492 4391 4386 4390 4393 4392 4399 
458 492 161 491 4397 4393 4062 4388 4399 4390 
459 161 492 162 4068 4393 4398 4072 4071 4400 
492 161 195 162 4393 4394 4396 4400 4071 4401 
162 195 493 196 4401 4402 4403 4404 4405 4406 
459 493 460 162 4407 4408 4085 4072 4403 4078 
162 195 492 493 4401 4396 4400 4403 4402 4409 
459 493 162 492 4407 4403 4072 4398 4409 4400 
460 162 493 163 4078 4403 4408 4082 4081 4410 
493 162 196 163 4403 4404 4406 4410 4081 4411 
163 196 494 197 4411 4412 4413 4414 4415 4416 
460 494 461 163 4417 4418 4095 4082 4413 4088 
163 196 493 494 4411 4406 4410 4413 4412 4419 
460 494 163 493 4417 4413 4082 4408 4419 4410 
461 163 494 164 4088 4413 4418 4092 4091 4420 
494 163 197 164 4413 4414 4416 4420 4091 4421 
165 198 496 199 4422 4423 4424 4425 4426 4427 
462 496 463 165 4428 4429 4108 4106 4424 4099 
165 198 495 496 4422 4430 4431 4424 4423 4432 
462 496 165 495 4428 4424 4106 4433 4432 4431 
463 165 496 166 4099 4424 4429 4103 4102 4434 
496 165 199 166 4424 4425 4427 4434 4102 4435 
166 199 497 200 4435 4436 4437 4438 4439 4440 
463 497 464 166 4441 4442 4119 4103 4437 4112 
166 199 496 497 4435 4427 4434 4437 4436 4443 
463 497 166 496 4441 4437 4103 4429 4443 4434 
464 166 497 167 4112 4437 4442 4116 4115 4444 
497 166 200 167 4437 4438 4440 4444 4115 4445 
167 200 498 201 4445 4446 4447 4448 4449 4450 
464 498 465 167 4451 4452 4129 4116 4447 4122 
167 200 497 498 4445 4440 4444 4447 4446 4453 
464 498 167 497 4451 4447 4116 4442 4453 4444 
465 167 498 168 4122 4447 4452 4126 4125 4454 
498 167 201 168 4447 4448 4450 4454 4125 4455 
168 201 499 202 4455 4456 4457 4458 4459 4460 
465 499 466 168 4461 4462 4139 4126 4457 4132 
168 201 498 499 4455 4450 4454 4457 4456 4463 
465 499 168 498 4461 4457 4126 4452 4463 4454 
466 168 499 169 4132 4457 4462 4136 4135 4464 
499 168 202 169 4457 4458 4460 4464 4135 4465 
169 202 500 203 4465 4466 4467 4468 4469 4470 
466 500 467 169 4471 4472 4149 4136 4467 4142 
169 202 499 500 4465 4460 4464 4467 4466 4473 
466 500 169 499 4471 4467 4136 4462 4473 4464 
467 169 500 170 4142 4467 4472 4146 4145 4474 
500 169 203 170 4467 4468 4470 4474 4145 4475 
170 203 501 204 4475 4476 4477 4478 4479 4480 
467 501 468 170 4481 4482 4159 4146 4477 4152 
170 203 500 501 4475 4470 4474 4477 4476 4483 
467 501 170 500 4481 4477 4146 4472 4483 4474 
468 170 501 171 4152 4477 4482 4156 4155 4484 
501 170 204 171 4477 4478 4480 4484 4155 4485 
171 204 502 205 4485 4486 4487 4488 4489 4490 
468 502 469 171 4491 4492 4169 4156 4487 4162 
171 204 501 502 4485 4480 4484 4487 4486 4493 
468 502 171 501 4491 4487 4156 4482 4493 4484 
469 171 502 172 4162 4487 4492 4166 4165 4494 
502 171 205 172 4487 4488 4490 4494 4165 4495 
172 205 503 206 4495 4496 4497 4498 4499 4500 
469 503 470 172 4501 4502 4179 4166 4497 4172 
172 205 502 503 4495 4490 4494 4497 4496 4503 
469 503 172 502 4501 4497 4166 4492 4503 4494 
470 172 503 173 4172 4497 4502 4176 4175 4504 
503 172 206 173 4497 4498 4500 4504 4175 4505 
173 206 504 207 4505 4506 4507 4508 4509 4510 
470 504 471 173 4511 4512 4189 4176 4507 4182 
173 206 503 504 4505 4500 4504 4507 4506 4513 
470 504 173 503 4511 4507 4176 4502 4513 4504 
471 173 504 174 4182 4507 4512 4186 4185 4514 
504 173 207 174 4507 4508 4510 4514 4185 4515 
174 207 505 208 4515 4516 4517 4518 4519 4520 
471 505 472 174 4521 4522 4199 4186 4517 4192 
174 207 504 505 4515 4510 4514 4517 4516 4523 
471 505 174 504 4521 4517 4186 4512 4523 4514 
472 174 505 175 4192 4517 4522 4196 4195 4524 
505 174 208 175 4517 4518 4520 4524 4195 4525 
175 208 506 209 4525 4526 4527 4528 4529 4530 
472 506 473 175 4531 4532 4209 4196 4527 4202 
175 208 505 506 4525 4520 4524 4527 4526 4533 
472 506 175 505 4531 4527 4196 4522 4533 4524 
473 175 506 176 4202 4527 4532 4206 4205 4534 
506 175 209 176 4527 4528 4530 4534 4205 4535 
176 209 507 210 4535 4536 4537 4538 4539 4540 
473 507 474 176 4541 4542 4219 4206 4537 4212 
176 209 506 507 4535 4530 4534 4537 4536 4543 
473 507 176 506 4541 4537 4206 4532 4543 4534 
474 176 507 177 4212 4537 4542 4216 4215 4544 
507 176 210 177 4537 4538 4540 4544 4215 4545 
177 210 508 211 4545 4546 4547 4548 4549 4550 
474 508 475 177 4551 4552 4229 4216 4547 4222 
177 210 507 508 4545 4540 4544 4547 4546 4553 
474 508 177 507 4551 4547 4216 4542 4553 4544 
475 177 508 178 4222 4547 4552 4226 4225 4554 
508 177 211 178 4547 4548 4550 4554 4225 4555 
178 211 509 212 4555 4556 4557 4558 4559 4560 
475 509 476 178 4561 4562 4239 4226 4557 4232 
178 211 508 509 4555 4550 4554 4557 4556 4563 
475 509 178 508 4561 4557 4226 4552 4563 4554 
476 178 509 179 4232 4557 4562 4236 4235 4564 
509 178 212 179 4557 4558 4560 4564 4235 4565 
179 212 510 213 4565 4566 4567 4568 4569 4570 
476 510 477 179 4571 4572 4249 4236 4567 4242 
179 212 509 510 4565 4560 4564 4567 4566 4573 
476 510 179 509 4571 4567 4236 4562 4573 4564 
477 179 510 180 4242 4567 4572 4246 4245 4574 
510 179 213 180 4567 4568 4570 4574 4245 4575 
180 213 511 214 4575 4576 4577 4578 4579 4580 
477 511 478 180 4581 4582 4259 4246 4577 4252 
180 213 510 511 4575 4570 4574 4577 4576 4583 
477 511 180 510 4581 4577 4246 4572 4583 4574 
478 180 511 181 4252 4577 4582 4256 4255 4584 
511 180 214 181 4577 4578 4580 4584 4255 4585 
181 214 512 215 4585 4586 4587 4588 4589 4590 
478 512 479 181 4591 4592 4269 4256 4587 4262 
181 214 511 512 4585 4580 4584 4587 4586 4593 
478 512 181 511 4591 4587 4256 4582 4593 4584 
479 181 512 182 4262 4587 4592 4266 4265 4594 
512 181 215 182 4587 4588 4590 4594 4265 4595 
182 215 513 216 4595 4596 4597 4598 4599 4600 
479 513 480 182 4601 4602 4279 4266 4597 4272 
182 215 512 513 4595 4590 4594 4597 4596 4603 
479 513 182 512 4601 4597 4266 4592 4603 4594 
480 182 513 183 4272 4597 4602 4276 4275 4604 
513 182 216 183 4597 4598 4600 4604 4275 4605 
183 216 514 217 4605 4606 4607 4608 4609 4610 
480 514 481 183 4611 4612 4289 4276 4607 4282 
183 216 513 514 4605 4600 4604 4607 4606 4613 
480 514 183 513 4611 4607 4276 4602 4613 4604 
481 183 514 184 4282 4607 4612 4286 4285 4614 
514 183 217 184 4607 4608 4610 4614 4285 4615 
184 217 515 218 4615 4616 4617 4618 4619 4620 
481 515 482 184 4621 4622 4299 4286 4617 4292 
184 217 514 515 4615 4610 4614 4617 4616 4623 
481 515 184 514 4621 4617 4286 4612 4623 4614 
482 184 515 185 4292 4617 4622 4296 4295 4624 
515 184 218 185 4617 4618 4620 4624 4295 4625 
185 218 516 219 4625 4626 4627 4628 4629 4630 
482 516 483 185 4631 4632 4309 4296 4627 4302 
185 218 515 516 4625 4620 4624 4627 4626 4633 
482 516 185 515 4631 4627 4296 4622 4633 4624 
483 185 516 186 4302 4627 4632 4306 4305 4634 
516 185 219 186 4627 4628 4630 4634 4305 4635 
186 219 517 220 4635 4636 4637 4638 4639 4640 
483 517 484 186 4641 4642 4319 4306 4637 4312 
186 219 516 517 4635 4630 4634 4637 4636 4643 
483 517 186 516 4641 4637 4306 4632 4643 4634 
484 186 517 187 4312 4637 4642 4316 4315 4644 
517 186 220 187 4637 4638 4640 4644 4315 4645 
187 220 518 221 4645 4646 4647 4648 4649 4650 
484 518 485 187 4651 4652 4329 4316 4647 4322 
187 220 517 518 4645 4640 4644 4647 4646 4653 
484 518 187 517 4651 4647 4316 4642 4653 4644 
485 187 518 188 4322 4647 4652 4326 4325 4654 
518 187 221 188 4647 4648 4650 4654 4325 4655 
188 221 519 222 4655 4656 4657 4658 4659 4660 
485 519 486 188 4661 4662 4339 4326 4657 4332 
188 221 518 519 4655 4650 4654 4657 4656 4663 
485 519 188 518 4661 4657 4326 4652 4663 4654 
486 188 519 189 4332 4657 4662 4336 4335 4664 
519 188 222 189 4657 4658 4660 4664 4335 4665 
189 222 520 223 4665 4666 4667 4668 4669 4670 
486 520 487 189 4671 4672 4349 4336 4667 4342 
189 222 519 520 4665 4660 4664 4667 4666 4673 
486 520 189 519 4671 4667 4336 4662 4673 4664 
487 189 520 190 4342 4667 4672 4346 4345 4674 
520 189 223 190 4667 4668 4670 4674 4345 4675 
190 223 521 224 4675 4676 4677 4678 4679 4680 
487 521 488 190 4681 4682 4359 4346 4677 4352 
190 223 520 521 4675 4670 4674 4677 4676 4683 
487 521 190 520 4681 4677 4346 4672 4683 4674 
488 190 521 191 4352 4677 4682 4356 4355 4684 
521 190 224 191 4677 4678 4680 4684 4355 4685 
191 224 522 225 4685 4686 4687 4688 4689 4690 
488 522 489 191 4691 4692 4369 4356 4687 4362 
191 224 521 522 4685 4680 4684 4687 4686 4693 
488 522 191 521 4691 4687 4356 4682 4693 4684 
489 191 522 192 4362 4687 4692 4366 4365 4694 
522 191 225 192 4687 4688 4690 4694 4365 4695 
192 225 523 226 4695 4696 4697 4698 4699 4700 
489 523 490 192 4701 4702 4379 4366 4697 4372 
192 225 522 523 4695 4690 4694 4697 4696 4703 
489 523 192 522 4701 4697 4366 4692 4703 4694 
490 192 523 193 4372 4697 4702 4376 4375 4704 
523 192 226 193 4697 4698 4700 4704 4375 4705 
193 226 524 227 4705 4706 4707 4708 4709 4710 
490 524 491 193 4711 4712 4389 4376 4707 4382 
193 226 523 524 4705 4700 4704 4707 4706 4713 
490 524 193 523 4711 4707 4376 4702 4713 4704 
491 193 524 194 4382 4707 4712 4386 4385 4714 
524 193 227 194 4707 4708 4710 4714 4385 4715 
194 227 525 228 4715 4716 4717 4718 4719 4720 
491 525 492 194 4721 4722 4399 4386 4717 4392 
194 227 524 525 4715 4710 4714 4717 4716 4723 
491 525 194 524 4721 4717 4386 4712 4723 4714 
492 194 525 195 4392 4717 4722 4396 4395 4724 
525 194 228 195 4717 4718 4720 4724 4395 4725 
195 228 526 229 4725 4726 4727 4728 4729 4730 
492 526 493 195 4731 4732 4409 4396 4727 4402 
195 228 525 526 4725 4720 4724 4727 4726 4733 
492 526 195 525 4731 4727 4396 4722 4733 4724 
493 195 526 196 4402 4727 4732 4406 4405 4734 
526 195 229 196 4727 4728 4730 4734 4405 4735 
196 229 527 230 4735 4736 4737 4738 4739 4740 
493 527 494 196 4741 4742 4419 4406 4737 4412 
196 229 526 527 4735 4730 4734 4737 4736 4743 
493 527 196 526 4741 4737 4406 4732 4743 4734 
494 196 527 197 4412 4737 4742 4416 4415 4744 
527 196 230 197 4737 4738 4740 4744 4415 4745 
198 231 529 232 4746 4747 4748 4749 4750 4751 
495 529 496 198 4752 4753 4432 4430 4748 4423 
198 231 528 529 4746 4754 4755 4748 4747 4756 
495 529 198 528 4752 4748 4430 4757 4756 4755 
496 198 529 199 4423 4748 4753 4427 4426 4758 
529 198 232 199 4748 4749 4751 4758 4426 4759 
199 232 530 233 4759 4760 4761 4762 4763 4764 
496 530 497 199 4765 4766 4443 4427 4761 4436 
199 232 529 530 4759 4751 4758 4761 4760 4767 
496 530 199 529 4765 4761 4427 4753 4767 4758 
497 199 530 200 4436 4761 4766 4440 4439 4768 
530 199 233 200 4761 4762 4764 4768 4439 4769 
200 233 531 234 4769 4770 4771 4772 4773 4774 
497 531 498 200 4775 4776 4453 4440 4771 4446 
200 233 530 531 4769 4764 4768 4771 4770 4777 
497 531 200 530 4775 4771 4440 4766 4777 4768 
498 200 531 201 4446 4771 4776 4450 4449 4778 
531 200 234 201 4771 4772 4774 4778 4449 4779 
201 234 532 235 4779 4780 4781 4782 4783 4784 
498 532 499 201 4785 4786 4463 4450 4781 4456 
201 234 531 532 4779 4774 4778 4781 4780 4787 
498 532 201 531 4785 4781 4450 4776 4787 4778 
499 201 532 202 4456 4781 4786 4460 4459 4788 
532 201 235 202 4781 4782 4784 4788 4459 4789 
202 235 533 236 4789 4790 4791 4792 4793 4794 
499 533 500 202 4795 4796 4473 4460 4791 4466 
202 235 532 533 4789 4784 4788 4791 4790 4797 
499 533 202 532 4795 4791 4460 4786 4797 4788 
500 202 533 203 4466 4791 4796 4470 4469 4798 
533 202 236 203 4791 4792 4794 4798 4469 4799 
203 236 534 237 4799 4800 4801 4802 4803 4804 
500 534 501 203 4805 4806 4483 4470 4801 4476 
203 236 533 534 4799 4794 4798 4801 4800 4807 
500 534 203 533 4805 4801 4470 4796 4807 4798 
501 203 534 204 4476 4801 4806 4480 4479 4808 
534 203 237 204 4801 4802 4804 4808 4479 4809 
204 237 535 238 4809 4810 4811 4812 4813 4814 
501 535 502 204 4815 4816 4493 4480 4811 4486 
204 237 534 535 4809 4804 4808 4811 4810 4817 
501 535 204 534 4815 4811 4480 4806 4817 4808 
502 204 535 205 4486 4811 4816 4490 4489 4818 
535 204 238 205 4811 4812 4814 4818 4489 4819 
205 238 536 239 4819 4820 4821 4822 4823 4824 
502 536 503 205 4825 4826 4503 4490 4821 4496 
205 238 535 536 4819 4814 4818 4821 4820 4827 
502 536 205 535 4825 4821 4490 4816 4827 4818 
503 205 536 206 4496 4821 4826 4500 4499 4828 
536 205 239 206 4821 4822 4824 4828 4499 4829 
206 239 537 240 4829 4830 4831 4832 4833 4834 
503 537 504 206 4835 4836 4513 4500 4831 4506 
206 239 536 537 4829 4824 4828 4831 4830 4837 
503 537 206 536 4835 4831 4500 4826 4837 4828 
504 206 537 207 4506 4831 4836 4510 4509 4838 
537 206 240 207 4831 4832 4834 4838 4509 4839 
207 240 538 241 4839 4840 4841 4842 4843 4844 
504 538 505 207 4845 4846 4523 4510 4841 4516 
207 240 537 538 4839 4834 4838 4841 4840 4847 
504 538 207 537 4845 4841 4510 4836 4847 4838 
505 207 538 208 4516 4841 4846 4520 4519 4848 
538 207 241 208 4841 4842 4844 4848 4519 4849 
208 241 539 242 4849 4850 4851 4852 4853 4854 
505 539 506 208 4855 4856 4533 4520 4851 4526 
208 241 538 539 4849 4844 4848 4851 4850 4857 
505 539 208 538 4855 4851 4520 4846 4857 4848 
506 208 539 209 4526 4851 4856 4530 4529 4858 
539 208 242 209 4851 4852 4854 4858 4529 4859 
209 242 540 243 4859 4860 4861 4862 4863 4864 
506 540 507 209 4865 4866 4543 4530 4861 4536 
209 242 539 540 4859 4854 4858 4861 4860 4867 
506 540 209 539 4865 4861 4530 4856 4867 4858 
507 209 540 210 4536 4861 4866 4540 4539 4868 
540 209 243 210 4861 4862 4864 4868 4539 4869 
210 243 541 244 4869 4870 4871 4872 4873 4874 
507 541 508 210 4875 4876 4553 4540 4871 4546 
210 243 540 541 4869 4864 4868 4871 4870 4877 
507 541 210 540 4875 4871 4540 4866 4877 4868 
508 210 541 211 4546 4871 4876 4550 4549 4878 
541 210 244 211 4871 4872 4874 4878 4549 4879 
211 244 542 245 4879 4880 4881 4882 4883 4884 
508 542 509 211 4885 4886 4563 4550 4881 4556 
211 244 541 542 4879 4874 4878 4881 4880 4887 
508 542 211 541 4885 4881 4550 4876 4887 4878 
509 211 542 212 4556 4881 4886 4560 4559 4888 
542 211 245 212 4881 4882 4884 4888 4559 4889 
212 245 543 246 4889 4890 4891 4892 4893 4894 
509 543 510 212 4895 4896 4573 4560 4891 4566 
212 245 542 543 4889 4884 4888 4891 4890 4897 
509 543 212 542 4895 4891 4560 4886 4897 4888 
510 212 543 213 4566 4891 4896 4570 4569 4898 
543 212 246 213 4891 4892 4894 4898 4569 4899 
213 246 544 247 4899 4900 4901 4902 4903 4904 
510 544 511 213 4905 4906 4583 4570 4901 4576 
213 246 543 544 4899 4894 4898 4901 4900 4907 
510 544 213 543 4905 4901 4570 4896 4907 4898 
511 213 544 214 4576 4901 4906 4580 4579 4908 
544 213 247 214 4901 4902 4904 4908 4579 4909 
214 247 545 248 4909 4910 4911 4912 4913 4914 
511 545 512 214 4915 4916 4593 4580 4911 4586 
214 247 544 545 4909 4904 4908 4911 4910 4917 
511 545 214 544 4915 4911 4580 4906 4917 4908 
512 214 545 215 4586 4911 4916 4590 4589 4918 
545 214 248 215 4911 4912 4914 4918 4589 4919 
215 248 546 249 4919 4920 4921 4922 4923 4924 
512 546 513 215 4925 4926 4603 4590 4921 4596 
215 248 545 546 4919 4914 4918 4921 4920 4927 
512 546 215 545 4925 4921 4590 4916 4927 4918 
513 215 546 216 4596 4921 4926 4600 4599 4928 
546 215 249 216 4921 4922 4924 4928 4599 4929 
216 249 547 250 4929 4930 4931 4932 4933 4934 
513 547 514 216 4935 4936 4613 4600 4931 4606 
216 249 546 547 4929 4924 4928 4931 4930 4937 
513 547 216 546 4935 4931 4600 4926 4937 4928 
514 216 547 217 4606 4931 4936 4610 4609 4938 
547 216 250 217 4931 4932 4934 4938 4609 4939 
217 250 548 251 4939 4940 4941 4942 4943 4944 
514 548 515 217 4945 4946 4623 4610 4941 4616 
217 250 547 548 4939 4934 4938 4941 4940 4947 
514 548 217 547 4945 4941 4610 4936 4947 4938 
515 217 548 218 4616 4941 4946 4620 4619 4948 
548 217 251 218 4941 4942 4944 4948 4619 4949 
218 251 549 252 4949 4950 4951 4952 4953 4954 
515 549 516 218 4955 4956 4633 4620 4951 4626 
218 251 548 549 4949 4944 4948 4951 4950 4957 
515 549 218 548 4955 4951 4620 4946 4957 4948 
516 218 549 219 4626 4951 4956 4630 4629 4958 
549 218 252 219 4951 4952 4954 4958 4629 4959 
219 252 550 253 4959 4960 4961 4962 4963 4964 
516 550 517 219 4965 4966 4643 4630 4961 4636 
219 252 549 550 4959 4954 4958 4961 4960 4967 
516 550 219 549 4965 4961 4630 4956 4967 4958 
517 219 550 220 4636 4961 4966 4640 4639 4968 
550 219 253 220 4961 4962 4964 4968 4639 4969 
220 253 551 254 4969 4970 4971 4972 4973 4974 
517 551 518 220 4975 4976 4653 4640 4971 4646 
220 253 550 551 4969 4964 4968 4971 4970 4977 
517 551 220 550 4975 4971 4640 4966 4977 4968 
518 220 551 221 4646 4971 4976 4650 4649 4978 
551 220 254 221 4971 4972 4974 4978 4649 4979 
221 254 552 255 4979 4980 4981 4982 4983 4984 
518 552 519 221 4985 4986 4663 4650 4981 4656 
221 254 551 552 4979 4974 4978 4981 4980 4987 
518 552 221 551 4985 4981 4650 4976 4987 4978 
519 221 552 222 4656 4981 4986 4660 4659 4988 
552 221 255 222 4981 4982 4984 4988 4659 4989 
222 255 553 256 4989 4990 4991 4992 4993 4994 
519 553 520 222 4995 4996 4673 4660 4991 4666 
222 255 552 553 4989 4984 4988 4991 4990 4997 
519 553 222 552 4995 4991 4660 4986 4997 4988 
520 222 553 223 4666 4991 4996 4670 4669 4998 
553 222 256 223 4991 4992 4994 4998 4669 4999 
223 256 554 257 4999 5000 5001 5002 5003 5004 
520 554 521 223 5005 5006 4683 4670 5001 4676 
223 256 553 554 4999 4994 4998 5001 5000 5007 
520 554 223 553 5005 5001 4670 4996 5007 4998 
521 223 554 224 4676 5001 5006 4680 4679 5008 
554 223 257 224 5001 5002 5004 5008 4679 5009 
224 257 555 258 5009 5010 5011 5012 5013 5014 
521 555 522 224 5015 5016 4693 4680 5011 4686 
224 257 554 555 5009 5004 5008 5011 5010 5017 
521 555 224 554 5015 5011 4680 5006 5017 5008 
522 224 555 225 4686 5011 5016 4690 4689 5018 
555 224 258 225 5011 5012 5014 5018 4689 5019 
225 258 556 259 5019 5020 5021 5022 5023 5024 
522 556 523 225 5025 5026 4703 4690 5021 4696 
225 258 555 556 5019 5014 5018 5021 5020 5027 
522 556 225 555 5025 5021 4690 5016 5027 5018 
523 225 556 226 4696 5021 5026 4700 4699 5028 
556 225 259 226 5021 5022 5024 5028 4699 5029 
226 259 557 260 5029 5030 5031 5032 5033 5034 
523 557 524 226 5035 5036 4713 4700 5031 4706 
226 259 556 557 5029 5024 5028 5031 5030 5037 
523 557 226 556 5035 5031 4700 5026 5037 5028 
524 226 557 227 4706 5031 5036 4710 4709 5038 
557 226 260 227 5031 5032 5034 5038 4709 5039 
227 260 558 261 5039 5040 5041 5042 5043 5044 
524 558 525 227 5045 5046 4723 4710 5041 4716 
227 260 557 558 5039 5034 5038 5041 5040 5047 
524 558 227 557 5045 5041 4710 5036 5047 5038 
525 227 558 228 4716 5041 5046 4720 4719 5048 
558 227 261 228 5041 5042 5044 5048 4719 5049 
228 261 559 262 5049 5050 5051 5052 5053 5054 
525 559 526 228 5055 5056 4733 4720 5051 4726 
228 261 558 559 5049 5044 5048 5051 5050 5057 
525 559 228 558 5055 5051 4720 5046 5057 5048 
526 228 559 229 4726 5051 5056 4730 4729 5058 
559 228 262 229 5051 5052 5054 5058 4729 5059 
229 262 560 263 5059 5060 5061 5062 5063 5064 
526 560 527 229 5065 5066 4743 4730 5061 4736 
229 262 559 560 5059 5054 5058 5061 5060 5067 
526 560 229 559 5065 5061 4730 5056 5067 5058 
527 229 560 230 4736 5061 5066 4740 4739 5068 
560 229 263 230 5061 5062 5064 5068 4739 5069 
231 264 562 265 5070 5071 5072 5073 5074 5075 
528 562 529 231 5076 5077 4756 4754 5072 4747 
231 264 561 562 5070 5078 5079 5072 5071 5080 
528 562 231 561 5076 5072 4754 5081 5080 5079 
529 231 562 232 4747 5072 5077 4751 4750 5082 
562 231 265 232 5072 5073 5075 5082 4750 5083 
232 265 563 266 5083 5084 5085 5086 5087 5088 
529 563 530 232 5089 5090 4767 4751 5085 4760 
232 265 562 563 5083 5075 5082 5085 5084 5091 
529 563 232 562 5089 5085 4751 5077 5091 5082 
530 232 563 233 4760 5085 5090 4764 4763 5092 
563 232 266 233 5085 5086 5088 5092 4763 5093 
233 266 564 267 5093 5094 5095 5096 5097 5098 
530 564 531 233 5099 5100 4777 4764 5095 4770 
233 266 563 564 5093 5088 5092 5095 5094 5101 
530 564 233 563 5099 5095 4764 5090 5101 5092 
531 233 564 234 4770 5095 5100 4774 4773 5102 
564 233 267 234 5095 5096 5098 5102 4773 5103 
234 267 565 268 5103 5104 5105 5106 5107 5108 
531 565 532 234 5109 5110 4787 4774 5105 4780 
234 267 564 565 5103 5098 5102 5105 5104 5111 
531 565 234 564 5109 5105 4774 5100 5111 5102 
532 234 565 235 4780 5105 5110 4784 4783 5112 
565 234 268 235 5105 5106 5108 5112 4783 5113 
235 268 566 269 5113 5114 5115 5116 5117 5118 
532 566 533 235 5119 5120 4797 4784 5115 4790 
235 268 565 566 5113 5108 5112 5115 5114 5121 
532 566 235 565 5119 5115 4784 5110 5121 5112 
533 235 566 236 4790 5115 5120 4794 4793 5122 
566 235 269 236 5115 5116 5118 5122 4793 5123 
236 269 567 270 5123 5124 5125 5126 5127 5128 
533 567 534 236 5129 5130 4807 4794 5125 4800 
236 269 566 567 5123 5118 5122 5125 5124 5131 
533 567 236 566 5129 5125 4794 5120 5131 5122 
534 236 567 237 4800 5125 5130 4804 4803 5132 
567 236 270 237 5125 5126 5128 5132 4803 5133 
237 270 568 271 5133 5134 5135 5136 5137 5138 
534 568 535 237 5139 5140 4817 4804 5135 4810 
237 270 567 568 5133 5128 5132 5135 5134 5141 
534 568 237 567 5139 5135 4804 5130 5141 5132 
535 237 568 238 4810 5135 5140 4814 4813 5142 
568 237 271 238 5135 5136 5138 5142 4813 5143 
238 271 569 272 5143 5144 5145 5146 5147 5148 
535 569 536 238 5149 5150 4827 4814 5145 4820 
238 271 568 569 5143 5138 5142 5145 5144 5151 
535 569 238 568 5149 5145 4814 5140 5151 5142 
536 238 569 239 4820 5145 5150 4824 4823 5152 
569 238 272 239 5145 5146 5148 5152 4823 5153 
239 272 570 273 5153 5154 5155 5156 5157 5158 
536 570 537 239 5159 5160 4837 4824 5155 4830 
239 272 569 570 5153 5148 5152 5155 5154 5161 
536 570 239 569 5159 5155 4824 5150 5161 5152 
537 239 570 240 4830 5155 5160 4834 4833 5162 
570 239 273 240 5155 5156 5158 5162 4833 5163 
240 273 571 274 5163 5164 5165 5166 5167 5168 
537 571 538 240 5169 5170 4847 4834 5165 4840 
240 273 570 571 5163 5158 5162 5165 5164 5171 
537 571 240 570 5169 5165 4834 5160 5171 5162 
538 240 571 241 4840 5165 5170 4844 4843 5172 
571 240 274 241 5165 5166 5168 5172 4843 5173 
241 274 572 275 5173 5174 5175 5176 5177 5178 
538 572 539 241 5179 5180 4857 4844 5175 4850 
241 274 571 572 5173 5168 5172 5175 5174 5181 
538 572 241 571 5179 5175 4844 5170 5181 5172 
539 241 572 242 4850 5175 5180 4854 4853 5182 
572 241 275 242 5175 5176 5178 5182 4853 5183 
242 275 573 276 5183 5184 5185 5186 5187 5188 
539 573 540 242 5189 5190 4867 4854 5185 4860 
242 275 572 573 5183 5178 5182 5185 5184 5191 
539 573 242 572 5189 5185 4854 5180 5191 5182 
540 242 573 243 4860 5185 5190 4864 4863 5192 
573 242 276 243 5185 5186 5188 5192 4863 5193 
243 276 574 277 5193 5194 5195 5196 5197 5198 
540 574 541 243 5199 5200 4877 4864 5195 4870 
243 276 573 574 5193 5188 5192 5195 5194 5201 
540 574 243 573 5199 5195 4864 5190 5201 5192 
541 243 574 244 4870 5195 5200 4874 4873 5202 
574 243 277 244 5195 5196 5198 5202 4873 5203 
244 277 575 278 5203 5204 5205 5206 5207 5208 
541 575 542 244 5209 5210 4887 4874 5205 4880 
244 277 574 575 5203 5198 5202 5205 5204 5211 
541 575 244 574 5209 5205 4874 5200 5211 5202 
542 244 575 245 4880 5205 5210 4884 4883 5212 
575 244 278 245 5205 5206 5208 5212 4883 5213 
245 278 576 279 5213 5214 5215 5216 5217 5218 
542 576 543 245 5219 5220 4897 4884 5215 4890 
245 278 575 576 5213 5208 5212 5215 5214 5221 
542 576 245 575 5219 5215 4884 5210 5221 5212 
543 245 576 246 4890 5215 5220 4894 4893 5222 
576 245 279 246 5215 5216 5218 5222 4893 5223 
246 279 577 280 5223 5224 5225 5226 5227 5228 
543 577 544 246 5229 5230 4907 4894 5225 4900 
246 279 576 577 5223 5218 5222 5225 5224 5231 
543 577 246 576 5229 5225 4894 5220 5231 5222 
544 246 577 247 4900 5225 5230 4904 4903 5232 
577 246 280 247 5225 5226 5228 5232 4903 5233 
247 280 578 281 5233 5234 5235 5236 5237 5238 
544 578 545 247 5239 5240 4917 4904 5235 4910 
247 280 577 578 5233 5228 5232 5235 5234 5241 
544 578 247 577 5239 5235 4904 5230 5241 5232 
545 247 578 248 4910 5235 5240 4914 4913 5242 
578 247 281 248 5235 5236 5238 5242 4913 5243 
248 281 579 282 5243 5244 5245 5246 5247 5248 
545 579 546 248 5249 5250 4927 4914 5245 4920 
248 281 578 579 5243 5238 5242 5245 5244 5251 
545 579 248 578 5249 5245 4914 5240 5251 5242 
546 248 579 249 4920 5245 5250 4924 4923 5252 
579 248 282 249 5245 5246 5248 5252 4923 5253 
249 282 580 283 5253 5254 5255 5256 5257 5258 
546 580 547 249 5259 5260 4937 4924 5255 4930 
249 282 579 580 5253 5248 5252 5255 5254 5261 
546 580 249 579 5259 5255 4924 5250 5261 5252 
547 249 580 250 4930 5255 5260 4934 4933 5262 
580 249 283 250 5255 5256 5258 5262 4933 5263 
250 283 581 284 5263 5264 5265 5266 5267 5268 
547 581 548 250 5269 5270 4947 4934 5265 4940 
250 283 580 581 5263 5258 5262 5265 5264 5271 
547 581 250 580 5269 5265 4934 5260 5271 5262 
548 250 581 251 4940 5265 5270 4944 4943 5272 
581 250 284 251 5265 5266 5268 5272 4943 5273 
251 284 582 285 5273 5274 5275 5276 5277 5278 
548 582 549 251 5279 5280 4957 4944 5275 4950 
251 284 581 582 5273 5268 5272 5275 5274 5281 
548 582 251 581 5279 5275 4944 5270 5281 5272 
549 251 582 252 4950 5275 5280 4954 4953 5282 
582 251 285 252 5275 5276 5278 5282 4953 5283 
252 285 583 286 5283 5284 5285 5286 5287 5288 
549 583 550 252 5289 5290 4967 4954 5285 4960 
252 285 582 583 5283 5278 5282 5285 5284 5291 
549 583 252 582 5289 5285 4954 5280 5291 5282 
550 252 583 253 4960 5285 5290 4964 4963 5292 
583 252 286 253 5285 5286 5288 5292 4963 5293 
253 286 584 287 5293 5294 5295 5296 5297 5298 
550 584 551 253 5299 5300 4977 4964 5295 4970 
253 286 583 584 5293 5288 5292 5295 5294 5301 
550 584 253 583 5299 5295 4964 5290 5301 5292 
551 253 584 254 4970 5295 5300 4974 4973 5302 
584 253 287 254 5295 5296 5298 5302 4973 5303 
254 287 585 288 5303 5304 5305 5306 5307 5308 
551 585 552 254 5309 5310 4987 4974 5305 4980 
254 287 584 585 5303 5298 5302 5305 5304 5311 
551 585 254 584 5309 5305 4974 5300 5311 5302 
552 254 585 255 4980 5305 5310 4984 4983 5312 
585 254 288 255 5305 5306 5308 5312 4983 5313 
255 288 586 289 5313 5314 5315 5316 5317 5318 
552 586 553 255 5319 5320 4997 4984 5315 4990 
255 288 585 586 5313 5308 5312 5315 5314 5321 
552 586 255 585 5319 5315 4984 5310 5321 5312 
553 255 586 256 4990 5315 5320 4994 4993 5322 
586 255 289 256 5315 5316 5318 5322 4993 5323 
256 289 587 290 5323 5324 5325 5326 5327 5328 
553 587 554 256 5329 5330 5007 4994 5325 5000 
256 289 586 587 5323 5318 5322 5325 5324 5331 
553 587 256 586 5329 5325 4994 5320 5331 5322 
554 256 587 257 5000 5325 5330 5004 5003 5332 
587 256 290 257 5325 5326 5328 5332 5003 5333 
257 290 588 291 5333 5334 5335 5336 5337 5338 
554 588 555 257 5339 5340 5017 5004 5335 5010 
257 290 587 588 5333 5328 5332 5335 5334 5341 
554 588 257 587 5339 5335 5004 5330 5341 5332 
555 257 588 258 5010 5335 5340 5014 5013 5342 
588 257 291 258 5335 5336 5338 5342 5013 5343 
258 291 589 292 5343 5344 5345 5346 5347 5348 
555 589 556 258 5349 5350 5027 5014 5345 5020 
258 291 588 589 5343 5338 5342 5345 5344 5351 
555 589 258 588 5349 5345 5014 5340 5351 5342 
556 258 589 259 5020 5345 5350 5024 5023 5352 
589 258 292 259 5345 5346 5348 5352 5023 5353 
259 292 590 293 5353 5354 5355 5356 5357 5358 
556 590 557 259 5359 5360 5037 5024 5355 5030 
259 292 589 590 5353 5348 5352 5355 5354 5361 
556 590 259 589 5359 5355 5024 5350 5361 5352 
557 259 590 260 5030 5355 5360 5034 5033 5362 
590 259 293 260 5355 5356 5358 5362 5033 5363 
260 293 591 294 5363 5364 5365 5366 5367 5368 
557 591 558 260 5369 5370 5047 5034 5365 5040 
260 293 590 591 5363 5358 5362 5365 5364 5371 
557 591 260 590 5369 5365 5034 5360 5371 5362 
558 260 591 261 5040 5365 5370 5044 5043 5372 
591 260 294 261 5365 5366 5368 5372 5043 5373 
261 294 592 295 5373 5374 5375 5376 5377 5378 
558 592 559 261 5379 5380 5057 5044 5375 5050 
261 294 591 592 5373 5368 5372 5375 5374 5381 
558 592 261 591 5379 5375 5044 5370 5381 5372 
559 261 592 262 5050 5375 5380 5054 5053 5382 
592 261 295 262 5375 5376 5378 5382 5053 5383 
262 295 593 296 5383 5384 5385 5386 5387 5388 
559 593 560 262 5389 5390 5067 5054 5385 5060 
262 295 592 593 5383 5378 5382 5385 5384 5391 
559 593 262 592 5389 5385 5054 5380 5391 5382 
560 262 593 263 5060 5385 5390 5064 5063 5392 
593 262 296 263 5385 5386 5388 5392 5063 5393 
297 330 628 331 2687 5394 5395 2679 2686 5396 
594 628 595 297 5397 5398 5399 5400 5395 5401 
297 330 627 628 2687 5402 5403 5395 5394 5404 
594 628 297 627 5397 5395 5400 5405 5404 5403 
595 297 628 298 5401 5395 5398 5406 2681 5407 
628 297 331 298 5395 2679 5396 5407 2681 2680 
298 331 629 332 2680 5408 5409 2697 2701 5410 
595 629 596 298 5411 5412 5413 5406 5409 5414 
298 331 628 629 2680 5396 5407 5409 5408 5415 
595 629 298 628 5411 5409 5406 5398 5415 5407 
596 298 629 299 5414 5409 5412 5416 2699 5417 
629 298 332 299 5409 2697 5410 5417 2699 2698 
299 332 630 333 2698 5418 5419 2711 2715 5420 
596 630 597 299 5421 5422 5423 5416 5419 5424 
299 332 629 630 2698 5410 5417 5419 5418 5425 
596 630 299 629 5421 5419 5416 5412 5425 5417 
597 299 630 300 5424 5419 5422 5426 2713 5427 
630 299 333 300 5419 2711 5420 5427 2713 2712 
300 333 631 334 2712 5428 5429 2725 2729 5430 
597 631 598 300 5431 5432 5433 5426 5429 5434 
300 333 630 631 2712 5420 5427 5429 5428 5435 
597 631 300 630 5431 5429 5426 5422 5435 5427 
598 300 631 301 5434 5429 5432 5436 2727 5437 
631 300 334 301 5429 2725 5430 5437 2727 2726 
301 334 632 335 2726 5438 5439 2739 2743 5440 
598 632 599 301 5441 5442 5443 5436 5439 5444 
301 334 631 632 2726 5430 5437 5439 5438 5445 
598 632 301 631 5441 5439 5436 5432 5445 5437 
599 301 632 302 5444 5439 5442 5446 2741 5447 
632 301 335 302 5439 2739 5440 5447 2741 2740 
302 335 633 336 2740 5448 5449 2753 2757 5450 
599 633 600 302 5451 5452 5453 5446 5449 5454 
302 335 632 633 2740 5440 5447 5449 5448 5455 
599 633 302 632 5451 5449 5446 5442 5455 5447 
600 302 633 303 5454 5449 5452 5456 2755 5457 
633 302 336 303 5449 2753 5450 5457 2755 2754 
303 336 634 337 2754 5458 5459 2767 2771 5460 
600 634 601 303 5461 5462 5463 5456 5459 5464 
303 336 633 634 2754 5450 5457 5459 5458 5465 
600 634 303 633 5461 5459 5456 5452 5465 5457 
601 303 634 304 5464 5459 5462 5466 2769 5467 
634 303 337 304 5459 2767 5460 5467 2769 2768 
304 337 635 338 2768 5468 5469 2781 2785 5470 
601 635 602 304 5471 5472 5473 5466 5469 5474 
304 337 634 635 2768 5460 5467 5469 5468 5475 
601 635 304 634 5471 5469 5466 5462 5475 5467 
602 304 635 305 5474 5469 5472 5476 2783 5477 
635 304 338 305 5469 2781 5470 5477 2783 2782 
305 338 636 339 2782 5478 5479 2795 2799 5480 
602 636 603 305 5481 5482 5483 5476 5479 5484 
305 338 635 636 2782 5470 5477 5479 5478 5485 
602 636 305 635 5481 5479 5476 5472 5485 5477 
603 305 636 306 5484 5479 5482 5486 2797 5487 
636 305 339 306 5479 2795 5480 5487 2797 2796 
306 339 637 340 2796 5488 5489 2809 2813 5490 
603 637 604 306 5491 5492 5493 5486 5489 5494 
306 339 636 637 2796 5480 5487 5489 5488 5495 
603 637 306 636 5491 5489 5486 5482 5495 5487 
604 306 637 307 5494 5489 5492 5496 2811 5497 
637 306 340 307 5489 2809 5490 5497 2811 2810 
307 340 638 341 2810 5498 5499 2823 2827 5500 
604 638 605 307 5501 5502 5503 5496 5499 5504 
307 340 637 638 2810 5490 5497 5499 5498 5505 
604 638 307 637 5501 5499 5496 5492 5505 5497 
605 307 638 308 5504 5499 5502 5506 2825 5507 
638 307 341 308 5499 2823 5500 5507 2825 2824 
308 341 639 342 2824 5508 5509 2837 2841 5510 
605 639 606 308 5511 5512 5513 5506 5509 5514 
308 341 638 639 2824 5500 5507 5509 5508 5515 
605 639 308 638 5511 5509 5506 5502 5515 5507 
606 308 639 309 5514 5509 5512 5516 2839 5517 
639 308 342 309 5509 2837 5510 5517 2839 2838 
309 342 640 343 2838 5518 5519 2851 2855 5520 
606 640 607 309 5521 5522 5523 5516 5519 5524 
309 342 639 640 2838 5510 5517 5519 5518 5525 
606 640 309 639 5521 5519 5516 5512 5525 5517 
607 309 640 310 5524 5519 5522 5526 2853 5527 
640 309 343 310 5519 2851 5520 5527 2853 2852 
310 343 641 344 2852 5528 5529 2865 2869 5530 
607 641 608 310 5531 5532 5533 5526 5529 5534 
310 343 640 641 2852 5520 5527 5529 5528 5535 
607 641 310 640 5531 5529 5526 5522 5535 5527 
608 310 641 311 5534 5529 5532 5536 2867 5537 
641 310 344 311 5529 2865 5530 5537 2867 2866 
311 344 642 345 2866 5538 5539 2879 2883 5540 
608 642 609 311 5541 5542 5543 5536 5539 5544 
311 344 641 642 2866 5530 5537 5539 5538 5545 
608 642 311 641 5541 5539 5536 5532 5545 5537 
609 311 642 312 5544 5539 5542 5546 2881 5547 
642 311 345 312 5539 2879 5540 5547 2881 2880 
312 345 643 346 2880 5548 5549 2893 2897 5550 
609 643 610 312 5551 5552 5553 5546 5549 5554 
312 345 642 643 2880 5540 5547 5549 5548 5555 
609 643 312 642 5551 5549 5546 5542 5555 5547 
610 312 643 313 5554 5549 5552 5556 2895 5557 
643 312 346 313 5549 2893 5550 5557 2895 2894 
313 346 644 347 2894 5558 5559 2907 2911 5560 
610 644 611 313 5561 5562 5563 5556 5559 5564 
313 346 643 644 2894 5550 5557 5559 5558 5565 
610 644 313 643 5561 5559 5556 5552 5565 5557 
611 313 644 314 5564 5559 5562 5566 2909 5567 
644 313 347 314 5559 2907 5560 5567 2909 2908 
314 347 645 348 2908 5568 5569 2921 2925 5570 
611 645 612 314 5571 5572 5573 5566 5569 5574 
314 347 644 645 2908 5560 5567 5569 5568 5575 
611 645 314 644 5571 5569 5566 5562 5575 5567 
612 314 645 315 5574 5569 5572 5576 2923 5577 
645 314 348 315 5569 2921 5570 5577 2923 2922 
315 348 646 349 2922 5578 5579 2935 2939 5580 
612 646 613 315 5581 5582 5583 5576 5579 5584 
315 348 645 646 2922 5570 5577 5579 5578 5585 
612 646 315 645 5581 5579 5576 5572 5585 5577 
613 315 646 316 5584 5579 5582 5586 2937 5587 
646 315 349 316 5579 2935 5580 5587 2937 2936 
316 349 647 350 2936 5588 5589 2949 2953 5590 
613 647 614 316 5591 5592 5593 5586 5589 5594 
316 349 646 647 2936 5580 5587 5589 5588 5595 
613 647 316 646 5591 5589 5586 5582 5595 5587 
614 316 647 317 5594 5589 5592 5596 2951 5597 
647 316 350 317 5589 2949 5590 5597 2951 2950 
317 350 648 351 2950 5598 5599 2963 2967 5600 
614 648 615 317 5601 5602 5603 5596 5599 5604 
317 350 647 648 2950 5590 5597 5599 5598 5605 
614 648 317 647 5601 5599 5596 5592 5605 5597 
615 317 648 318 5604 5599 5602 5606 2965 5607 
648 317 351 318 5599 2963 5600 5607 2965 2964 
318 351 649 352 2964 5608 5609 2977 2981 5610 
615 649 616 318 5611 5612 5613 5606 5609 5614 
318 351 648 649 2964 5600 5607 5609 5608 5615 
615 649 318 648 5611 5609 5606 5602 5615 5607 
616 318 649 319 5614 5609 5612 5616 2979 5617 
649 318 352 319 5609 2977 5610 5617 2979 2978 
319 352 650 353 2978 5618 5619 2991 2995 5620 
616 650 617 319 5621 5622 5623 5616 5619 5624 
319 352 649 650 2978 5610 5617 5619 5618 5625 
616 650 319 649 5621 5619 5616 5612 5625 5617 
617 319 650 320 5624 5619 5622 5626 2993 5627 
650 319 353 320 5619 2991 5620 5627 2993 2992 
320 353 651 354 2992 5628 5629 3005 3009 5630 
617 651 618 320 5631 5632 5633 5626 5629 5634 
320 353 650 651 2992 5620 5627 5629 5628 5635 
617 651 320 650 5631 5629 5626 5622 5635 5627 
618 320 651 321 5634 5629 5632 5636 3007 5637 
651 320 354 321 5629 3005 5630 5637 3007 3006 
321 354 652 355 3006 5638 5639 3019 3023 5640 
618 652 619 321 5641 5642 5643 5636 5639 5644 
321 354 651 652 3006 5630 5637 5639 5638 5645 
618 652 321 651 5641 5639 5636 5632 5645 5637 
619 321 652 322 5644 5639 5642 5646 3021 5647 
652 321 355 322 5639 3019 5640 5647 3021 3020 
322 355 653 356 3020 5648 5649 3033 3037 5650 
619 653 620 322 5651 5652 5653 5646 5649 5654 
322 355 652 653 3020 5640 5647 5649 5648 5655 
619 653 322 652 5651 5649 5646 5642 5655 5647 
620 322 653 323 5654 5649 5652 5656 3035 5657 
653 322 356 323 5649 3033 5650 5657 3035 3034 
323 356 654 357 3034 5658 5659 3047 3051 5660 
620 654 621 323 5661 5662 5663 5656 5659 5664 
323 356 653 654 3034 5650 5657 5659 5658 5665 
620 654 323 653 5661 5659 5656 5652 5665 5657 
621 323 654 324 5664 5659 5662 5666 3049 5667 
654 323 357 324 5659 3047 5660 5667 3049 3048 
324 357 655 358 3048 5668 5669 3061 3065 5670 
621 655 622 324 5671 5672 5673 5666 5669 5674 
324 357 654 655 3048 5660 5667 5669 5668 5675 
621 655 324 654 5671 5669 5666 5662 5675 5667 
622 324 655 325 5674 5669 5672 5676 3063 5677 
655 324 358 325 5669 3061 5670 5677 3063 3062 
325 358 656 359 3062 5678 5679 3075 3079 5680 
622 656 623 325 5681 5682 5683 5676 5679 5684 
325 358 655 656 3062 5670 5677 5679 5678 5685 
622 656 325 655 5681 5679 5676 5672 5685 5677 
623 325 656 326 5684 5679 5682 5686 3077 5687 
656 325 359 326 5679 3075 5680 5687 3077 3076 
326 359 657 360 3076 5688 5689 3089 3093 5690 
623 657 624 326 5691 5692 5693 5686 5689 5694 
326 359 656 657 3076 5680 5687 5689 5688 5695 
623 657 326 656 5691 5689 5686 5682 5695 5687 
624 326 657 327 5694 5689 5692 5696 3091 5697 
657 326 360 327 5689 3089 5690 5697 3091 3090 
327 360 658 361 3090 5698 5699 3103 3107 5700 
624 658 625 327 5701 5702 5703 5696 5699 5704 
327 360 657 658 3090 5690 5697 5699 5698 5705 
624 658 327 657 5701 5699 5696 5692 5705 5697 
625 327 658 328 5704 5699 5702 5706 3105 5707 
658 327 361 328 5699 3103 5700 5707 3105 3104 
328 361 659 362 3104 5708 5709 3117 3121 5710 
625 659 626 328 5711 5712 5713 5706 5709 5714 
328 361 658 659 3104 5700 5707 5709 5708 5715 
625 659 328 658 5711 5709 5706 5702 5715 5707 
626 328 659 329 5714 5709 5712 5716 3119 5717 
659 328 362 329 5709 3117 5710 5717 3119 3118 
330 363 661 364 3137 5718 5719 3132 3136 5720 
627 661 628 330 5721 5722 5404 5402 5719 5394 
330 363 660 661 3137 5723 5724 5719 5718 5725 
627 661 330 660 5721 5719 5402 5726 5725 5724 
628 330 661 331 5394 5719 5722 5396 2686 5727 
661 330 364 331 5719 3132 5720 5727 2686 3133 
331 364 662 365 3133 5728 5729 3145 3147 5730 
628 662 629 331 5731 5732 5415 5396 5729 5408 
331 364 661 662 3133 5720 5727 5729 5728 5733 
628 662 331 661 5731 5729 5396 5722 5733 5727 
629 331 662 332 5408 5729 5732 5410 2701 5734 
662 331 365 332 5729 3145 5730 5734 2701 3146 
332 365 663 366 3146 5735 5736 3155 3157 5737 
629 663 630 332 5738 5739 5425 5410 5736 5418 
332 365 662 663 3146 5730 5734 5736 5735 5740 
629 663 332 662 5738 5736 5410 5732 5740 5734 
630 332 663 333 5418 5736 5739 5420 2715 5741 
663 332 366 333 5736 3155 5737 5741 2715 3156 
333 366 664 367 3156 5742 5743 3165 3167 5744 
630 664 631 333 5745 5746 5435 5420 5743 5428 
333 366 663 664 3156 5737 5741 5743 5742 5747 
630 664 333 663 5745 5743 5420 5739 5747 5741 
631 333 664 334 5428 5743 5746 5430 2729 5748 
664 333 367 334 5743 3165 5744 5748 2729 3166 
334 367 665 368 3166 5749 5750 3175 3177 5751 
631 665 632 334 5752 5753 5445 5430 5750 5438 
334 367 664 665 3166 5744 5748 5750 5749 5754 
631 665 334 664 5752 5750 5430 5746 5754 5748 
632 334 665 335 5438 5750 5753 5440 2743 5755 
665 334 368 335 5750 3175 5751 5755 2743 3176 
335 368 666 369 3176 5756 5757 3185 3187 5758 
632 666 633 335 5759 5760 5455 5440 5757 5448 
335 368 665 666 3176 5751 5755 5757 5756 5761 
632 666 335 665 5759 5757 5440 5753 5761 5755 
633 335 666 336 5448 5757 5760 5450 2757 5762 
666 335 369 336 5757 3185 5758 5762 2757 3186 
336 369 667 370 3186 5763 5764 3195 3197 5765 
633 667 634 336 5766 5767 5465 5450 5764 5458 
336 369 666 667 3186 5758 5762 5764 5763 5768 
633 667 336 666 5766 5764 5450 5760 5768 5762 
634 336 667 337 5458 5764 5767 5460 2771 5769 
667 336 370 337 5764 3195 5765 5769 2771 3196 
337 370 668 371 3196 5770 5771 3205 3207 5772 
634 668 635 337 5773 5774 5475 5460 5771 5468 
337 370 667 668 3196 5765 5769 5771 5770 5775 
634 668 337 667 5773 5771 5460 5767 5775 5769 
635 337 668 338 5468 5771 5774 5470 2785 5776 
668 337 371 338 5771 3205 5772 5776 2785 3206 
338 371 669 372 3206 5777 5778 3215 3217 5779 
635 669 636 338 5780 5781 5485 5470 5778 5478 
338 371 668 669 3206 5772 5776 5778 5777 5782 
635 669 338 668 5780 5778 5470 5774 5782 5776 
636 338 669 339 5478 5778 5781 5480 2799 5783 
669 338 372 339 5778 3215 5779 5783 2799 3216 
339 372 670 373 3216 5784 5785 3225 3227 5786 
636 670 637 339 5787 5788 5495 5480 5785 5488 
339 372 669 670 3216 5779 5783 5785 5784 5789 
636 670 339 669 5787 5785 5480 5781 5789 5783 
637 339 670 340 5488 5785 5788 5490 2813 5790 
670 339 373 340 5785 3225 5786 5790 2813 3226 
340 373 671 374 3226 5791 5792 3235 3237 5793 
637 671 638 340 5794 5795 5505 5490 5792 5498 
340 373 670 671 3226 5786 5790 5792 5791 5796 
637 671 340 670 5794 5792 5490 5788 5796 5790 
638 340 671 341 5498 5792 5795 5500 2827 5797 
671 340 374 341 5792 3235 5793 5797 2827 3236 
341 374 672 375 3236 5798 5799 3245 3247 5800 
638 672 639 341 5801 5802 5515 5500 5799 5508 
341 374 671 672 3236 5793 5797 5799 5798 5803 
638 672 341 671 5801 5799 5500 5795 5803 5797 
639 341 672 342 5508 5799 5802 5510 2841 5804 
672 341 375 342 5799 3245 5800 5804 2841 3246 
342 375 673 376 3246 5805 5806 3255 3257 5807 
639 673 640 342 5808 5809 5525 5510 5806 5518 
342 375 672 673 3246 5800 5804 5806 5805 5810 
639 673 342 672 5808 5806 5510 5802 5810 5804 
640 342 673 343 5518 5806 5809 5520 2855 5811 
673 342 376 343 5806 3255 5807 5811 2855 3256 
343 376 674 377 3256 5812 5813 3265 3267 5814 
640 674 641 343 5815 5816 5535 5520 5813 5528 
343 376 673 674 3256 5807 5811 5813 5812 5817 
640 674 343 673 5815 5813 5520 5809 5817 5811 
641 343 674 344 5528 5813 5816 5530 2869 5818 
674 343 377 344 5813 3265 5814 5818 2869 3266 
344 377 675 378 3266 5819 5820 3275 3277 5821 
641 675 642 344 5822 5823 5545 5530 5820 5538 
344 377 674 675 3266 5814 5818 5820 5819 5824 
641 675 344 674 5822 5820 5530 5816 5824 5818 
642 344 675 345 5538 5820 5823 5540 2883 5825 
675 344 378 345 5820 3275 5821 5825 2883 3276 
345 378 676 379 3276 5826 5827 3285 3287 5828 
642 676 643 345 5829 5830 5555 5540 5827 5548 
345 378 675 676 3276 5821 5825 5827 5826 5831 
642 676 345 675 5829 5827 5540 5823 5831 5825 
643 345 676 346 5548 5827 5830 5550 2897 5832 
676 345 379 346 5827 3285 5828 5832 2897 3286 
346 379 677 380 3286 5833 5834 3295 3297 5835 
643 677 644 346 5836 5837 5565 5550 5834 5558 
346 379 676 677 3286 5828 5832 5834 5833 5838 
643 677 346 676 5836 5834 5550 5830 5838 5832 
644 346 677 347 5558 5834 5837 5560 2911 5839 
677 346 380 347 5834 3295 5835 5839 2911 3296 
347 380 678 381 3296 5840 5841 3305 3307 5842 
644 678 645 347 5843 5844 5575 5560 5841 5568 
347 380 677 678 3296 5835 5839 5841 5840 5845 
644 678 347 677 5843 5841 5560 5837 5845 5839 
645 347 678 348 5568 5841 5844 5570 2925 5846 
678 347 381 348 5841 3305 5842 5846 2925 3306 
348 381 679 382 3306 5847 5848 3315 3317 5849 
645 679 646 348 5850 5851 5585 5570 5848 5578 
348 381 678 679 3306 5842 5846 5848 5847 5852 
645 679 348 678 5850 5848 5570 5844 5852 5846 
646 348 679 349 5578 5848 5851 5580 2939 5853 
679 348 382 349 5848 3315 5849 5853 2939 3316 
349 382 680 383 3316 5854 5855 3325 3327 5856 
646 680 647 349 5857 5858 5595 5580 5855 5588 
349 382 679 680 3316 5849 5853 5855 5854 5859 
646 680 349 679 5857 5855 5580 5851 5859 5853 
647 349 680 350 5588 5855 5858 5590 2953 5860 
680 349 383 350 5855 3325 5856 5860 2953 3326 
350 383 681 384 3326 5861 5862 3335 3337 5863 
647 681 648 350 5864 5865 5605 5590 5862 5598 
350 383 680 681 3326 5856 5860 5862 5861 5866 
647 681 350 680 5864 5862 5590 5858 5866 5860 
648 350 681 351 5598 5862 5865 5600 2967 5867 
681 350 384 351 5862 3335 5863 5867 2967 3336 
351 384 682 385 3336 5868 5869 3345 3347 5870 
648 682 649 351 5871 5872 5615 5600 5869 5608 
351 384 681 682 3336 5863 5867 5869 5868 5873 
648 682 351 681 5871 5869 5600 5865 5873 5867 
649 351 682 352 5608 5869 5872 5610 2981 5874 
682 351 385 352 5869 3345 5870 5874 2981 3346 
352 385 683 386 3346 5875 5876 3355 3357 5877 
649 683 650 352 5878 5879 5625 5610 5876 5618 
352 385 682 683 3346 5870 5874 5876 5875 5880 
649 683 352 682 5878 5876 5610 5872 5880 5874 
650 352 683 353 5618 5876 5879 5620 2995 5881 
683 352 386 353 5876 3355 5877 5881 2995 3356 
353 386 684 387 3356 5882 5883 3365 3367 5884 
650 684 651 353 5885 5886 5635 5620 5883 5628 
353 386 683 684 3356 5877 5881 5883 5882 5887 
650 684 353 683 5885 5883 5620 5879 5887 5881 
651 353 684 354 5628 5883 5886 5630 3009 5888 
684 353 387 354 5883 3365 5884 5888 3009 3366 
354 387 685 388 3366 5889 5890 3375 3377 5891 
651 685 652 354 5892 5893 5645 5630 5890 5638 
354 387 684 685 3366 5884 5888 5890 5889 5894 
651 685 354 684 5892 5890 5630 5886 5894 5888 
652 354 685 355 5638 5890 5893 5640 3023 5895 
685 354 388 355 5890 3375 5891 5895 3023 3376 
355 388 686 389 3376 5896 5897 3385 3387 5898 
652 686 653 355 5899 5900 5655 5640 5897 5648 
355 388 685 686 3376 5891 5895 5897 5896 5901 
652 686 355 685 5899 5897 5640 5893 5901 5895 
653 355 686 356 5648 5897 5900 5650 3037 5902 
686 355 389 356 5897 3385 5898 5902 3037 3386 
356 389 687 390 3386 5903 5904 3395 3397 5905 
653 687 654 356 5906 5907 5665 5650 5904 5658 
356 389 686 687 3386 5898 5902 5904 5903 5908 
653 687 356 686 5906 5904 5650 5900 5908 5902 
654 356 687 357 5658 5904 5907 5660 3051 5909 
687 356 390 357 5904 3395 5905 5909 3051 3396 
357 390 688 391 3396 5910 5911 3405 3407 5912 
654 688 655 357 5913 5914 5675 5660 5911 5668 
357 390 687 688 3396 5905 5909 5911 5910 5915 
654 688 357 687 5913 5911 5660 5907 5915 5909 
655 357 688 358 5668 5911 5914 5670 3065 5916 
688 357 391 358 5911 3405 5912 5916 3065 3406 
358 391 689 392 3406 5917 5918 3415 3417 5919 
655 689 656 358 5920 5921 5685 5670 5918 5678 
358 391 688 689 3406 5912 5916 5918 5917 5922 
655 689 358 688 5920 5918 5670 5914 5922 5916 
656 358 689 359 5678 5918 5921 5680 3079 5923 
689 358 392 359 5918 3415 5919 5923 3079 3416 
359 392 690 393 3416 5924 5925 3425 3427 5926 
656 690 657 359 5927 5928 5695 5680 5925 5688 
359 392 689 690 3416 5919 5923 5925 5924 5929 
656 690 359 689 5927 5925 5680 5921 5929 5923 
657 359 690 360 5688 5925 5928 5690 3093 5930 
690 359 393 360 5925 3425 5926 5930 3093 3426 
360 393 691 394 3426 5931 5932 3435 3437 5933 
657 691 658 360 5934 5935 5705 5690 5932 5698 
360 393 690 691 3426 5926 5930 5932 5931 5936 
657 691 360 690 5934 5932 5690 5928 5936 5930 
658 360 691 361 5698 5932 5935 5700 3107 5937 
691 360 394 361 5932 3435 5933 5937 3107 3436 
361 394 692 395 3436 5938 5939 3445 3447 5940 
658 692 659 361 5941 5942 5715 5700 5939 5708 
361 394 691 692 3436 5933 5937 5939 5938 5943 
658 692 361 691 5941 5939 5700 5935 5943 5937 
659 361 692 362 5708 5939 5942 5710 3121 5944 
692 361 395 362 5939 3445 5940 5944 3121 3446 
363 396 694 397 3461 5945 5946 3456 3460 5947 
660 694 661 363 5948 5949 5725 5723 5946 5718 
363 396 693 694 3461 5950 5951 5946 5945 5952 
660 694 363 693 5948 5946 5723 5953 5952 5951 
661 363 694 364 5718 5946 5949 5720 3136 5954 
694 363 397 364 5946 3456 5947 5954 3136 3457 
364 397 695 398 3457 5955 5956 3469 3471 5957 
661 695 662 364 5958 5959 5733 5720 5956 5728 
364 397 694 695 3457 5947 5954 5956 5955 5960 
661 695 364 694 5958 5956 5720 5949 5960 5954 
662 364 695 365 5728 5956 5959 5730 3147 5961 
695 364 398 365 5956 3469 5957 5961 3147 3470 
365 398 696 399 3470 5962 5963 3479 3481 5964 
662 696 663 365 5965 5966 5740 5730 5963 5735 
365 398 695 696 3470 5957 5961 5963 5962 5967 
662 696 365 695 5965 5963 5730 5959 5967 5961 
663 365 696 366 5735 5963 5966 5737 3157 5968 
696 365 399 366 5963 3479 5964 5968 3157 3480 
366 399 697 400 3480 5969 5970 3489 3491 5971 
663 697 664 366 5972 5973 5747 5737 5970 5742 
366 399 696 697 3480 5964 5968 5970 5969 5974 
663 697 366 696 5972 5970 5737 5966 5974 5968 
664 366 697 367 5742 5970 5973 5744 3167 5975 
697 366 400 367 5970 3489 5971 5975 3167 3490 
367 400 698 401 3490 5976 5977 3499 3501 5978 
664 698 665 367 5979 5980 5754 5744 5977 5749 
367 400 697 698 3490 5971 5975 5977 5976 5981 
664 698 367 697 5979 5977 5744 5973 5981 5975 
665 367 698 368 5749 5977 5980 5751 3177 5982 
698 367 401 368 5977 3499 5978 5982 3177 3500 
368 401 699 402 3500 5983 5984 3509 3511 5985 
665 699 666 368 5986 5987 5761 5751 5984 5756 
368 401 698 699 3500 5978 5982 5984 5983 5988 
665 699 368 698 5986 5984 5751 5980 5988 5982 
666 368 699 369 5756 5984 5987 5758 3187 5989 
699 368 402 369 5984 3509 5985 5989 3187 3510 
369 402 700 403 3510 5990 5991 3519 3521 5992 
666 700 667 369 5993 5994 5768 5758 5991 5763 
369 402 699 700 3510 5985 5989 5991 5990 5995 
666 700 369 699 5993 5991 5758 5987 5995 5989 
667 369 700 370 5763 5991 5994 5765 3197 5996 
700 369 403 370 5991 3519 5992 5996 3197 3520 
370 403 701 404 3520 5997 5998 3529 3531 5999 
667 701 668 370 6000 6001 5775 5765 5998 5770 
370 403 700 701 3520 5992 5996 5998 5997 6002 
667 701 370 700 6000 5998 5765 5994 6002 5996 
668 370 701 371 5770 5998 6001 5772 3207 6003 
701 370 404 371 5998 3529 5999 6003 3207 3530 
371 404 702 405 3530 6004 6005 3539 3541 6006 
668 702 669 371 6007 6008 5782 5772 6005 5777 
371 404 701 702 3530 5999 6003 6005 6004 6009 
668 702 371 701 6007 6005 5772 6001 6009 6003 
669 371 702 372 5777 6005 6008 5779 3217 6010 
702 371 405 372 6005 3539 6006 6010 3217 3540 
372 405 703 406 3540 6011 6012 3549 3551 6013 
669 703 670 372 6014 6015 5789 5779 6012 5784 
372 405 702 703 3540 6006 6010 6012 6011 6016 
669 703 372 702 6014 6012 5779 6008 6016 6010 
670 372 703 373 5784 6012 6015 5786 3227 6017 
703 372 406 373 6012 3549 6013 6017 3227 3550 
373 406 704 407 3550 6018 6019 3559 3561 6020 
670 704 671 373 6021 6022 5796 5786 6019 5791 
373 406 703 704 3550 6013 6017 6019 6018 6023 
670 704 373 703 6021 6019 5786 6015 6023 6017 
671 373 704 374 5791 6019 6022 5793 3237 6024 
704 373 407 374 6019 3559 6020 6024 3237 3560 
374 407 705 408 3560 6025 6026 3569 3571 6027 
671 705 672 374 6028 6029 5803 5793 6026 5798 
374 407 704 705 3560 6020 6024 6026 6025 6030 
671 705 374 704 6028 6026 5793 6022 6030 6024 
672 374 705 375 5798 6026 6029 5800 3247 6031 
705 374 408 375 6026 3569 6027 6031 3247 3570 
375 408 706 409 3570 6032 6033 3579 3581 6034 
672 706 673 375 6035 6036 5810 5800 6033 5805 
375 408 705 706 3570 6027 6031 6033 6032 6037 
672 706 375 705 6035 6033 5800 6029 6037 6031 
673 375 706 376 5805 6033 6036 5807 3257 6038 
706 375 409 376 6033 3579 6034 6038 3257 3580 
376 409 707 410 3580 6039 6040 3589 3591 6041 
673 707 674 376 6042 6043 5817 5807 6040 5812 
376 409 706 707 3580 6034 6038 6040 6039 6044 
673 707 376 706 6042 6040 5807 6036 6044 6038 
674 376 707 377 5812 6040 6043 5814 3267 6045 
707 376 410 377 6040 3589 6041 6045 3267 3590 
377 410 708 411 3590 6046 6047 3599 3601 6048 
674 708 675 377 6049 6050 5824 5814 6047 5819 
377 410 707 708 3590 6041 6045 6047 6046 6051 
674 708 377 707 6049 6047 5814 6043 6051 6045 
675 377 708 378 5819 6047 6050 5821 3277 6052 
708 377 411 378 6047 3599 6048 6052 3277 3600 
378 411 709 412 3600 6053 6054 3609 3611 6055 
675 709 676 378 6056 6057 5831 5821 6054 5826 
378 411 708 709 3600 6048 6052 6054 6053 6058 
675 709 378 708 6056 6054 5821 6050 6058 6052 
676 378 709 379 5826 6054 6057 5828 3287 6059 
709 378 412 379 6054 3609 6055 6059 3287 3610 
379 412 710 413 3610 6060 6061 3619 3621 6062 
676 710 677 379 6063 6064 5838 5828 6061 5833 
379 412 709 710 3610 6055 6059 6061 6060 6065 
676 710 379 709 6063 6061 5828 6057 6065 6059 
677 379 710 380 5833 6061 6064 5835 3297 6066 
710 379 413 380 6061 3619 6062 6066 3297 3620 
380 413 711 414 3620 6067 6068 3629 3631 6069 
677 711 678 380 6070 6071 5845 5835 6068 5840 
380 413 710 711 3620 6062 6066 6068 6067 6072 
677 711 380 710 6070 6068 5835 6064 6072 6066 
678 380 711 381 5840 6068 6071 5842 3307 6073 
711 380 414 381 6068 3629 6069 6073 3307 3630 
381 414 712 415 3630 6074 6075 3639 3641 6076 
678 712 679 381 6077 6078 5852 5842 6075 5847 
381 414 711 712 3630 6069 6073 6075 6074 6079 
678 712 381 711 6077 6075 5842 6071 6079 6073 
679 381 712 382 5847 6075 6078 5849 3317 6080 
712 381 415 382 6075 3639 6076 6080 3317 3640 
382 415 713 416 3640 6081 6082 3649 3651 6083 
679 713 680 382 6084 6085 5859 5849 6082 5854 
382 415 712 713 3640 6076 6080 6082 6081 6086 
679 713 382 712 6084 6082 5849 6078 6086 6080 
680 382 713 383 5854 6082 6085 5856 3327 6087 
713 382 416 383 6082 3649 6083 6087 3327 3650 
383 416 714 417 3650 6088 6089 3659 3661 6090 
680 714 681 383 6091 6092 5866 5856 6089 5861 
383 416 713 714 3650 6083 6087 6089 6088 6093 
680 714 383 713 6091 6089 5856 6085 6093 6087 
681 383 714 384 5861 6089 6092 5863 3337 6094 
714 383 417 384 6089 3659 6090 6094 3337 3660 
384 417 715 418 3660 6095 6096 3669 3671 6097 
681 715 682 384 6098 6099 5873 5863 6096 5868 
384 417 714 715 3660 6090 6094 6096 6095 6100 
681 715 384 714 6098 6096 5863 6092 6100 6094 
682 384 715 385 5868 6096 6099 5870 3347 6101 
715 384 418 385 6096 3669 6097 6101 3347 3670 
385 418 716 419 3670 6102 6103 3679 3681 6104 
682 716 683 385 6105 6106 5880 5870 6103 5875 
385 418 715 716 3670 6097 6101 6103 6102 6107 
682 716 385 715 6105 6103 5870 6099 6107 6101 
683 385 716 386 5875 6103 6106 5877 3357 6108 
716 385 419 386 6103 3679 6104 6108 3357 3680 
386 419 717 420 3680 6109 6110 3689 3691 6111 
683 717 684 386 6112 6113 5887 5877 6110 5882 
386 419 716 717 3680 6104 6108 6110 6109 6114 
683 717 386 716 6112 6110 5877 6106 6114 6108 
684 386 717 387 5882 6110 6113 5884 3367 6115 
717 386 420 387 6110 3689 6111 6115 3367 3690 
387 420 718 421 3690 6116 6117 3699 3701 6118 
684 718 685 387 6119 6120 5894 5884 6117 5889 
387 420 717 718 3690 6111 6115 6117 6116 6121 
684 718 387 717 6119 6117 5884 6113 6121 6115 
685 387 718 388 5889 6117 6120 5891 3377 6122 
718 387 421 388 6117 3699 6118 6122 3377 3700 
388 421 719 422 3700 6123 6124 3709 3711 6125 
685 719 686 388 6126 6127 5901 5891 6124 5896 
388 421 718 719 3700 6118 6122 6124 6123 6128 
685 719 388 718 6126 6124 5891 6120 6128 6122 
686 388 719 389 5896 6124 6127 5898 3387 6129 
719 388 422 389 6124 3709 6125 6129 3387 3710 
389 422 720 423 3710 6130 6131 3719 3721 6132 
686 720 687 389 6133 6134 5908 5898 6131 5903 
389 422 719 720 3710 6125 6129 6131 6130 6135 
686 720 389 719 6133 6131 5898 6127 6135 6129 
687 389 720 390 5903 6131 6134 5905 3397 6136 
720 389 423 390 6131 3719 6132 6136 3397 3720 
390 423 721 424 3720 6137 6138 3729 3731 6139 
687 721 688 390 6140 6141 5915 5905 6138 5910 
390 423 720 721 3720 6132 6136 6138 6137 6142 
687 721 390 720 6140 6138 5905 6134 6142 6136 
688 390 721 391 5910 6138 6141 5912 3407 6143 
721 390 424 391 6138 3729 6139 6143 3407 3730 
391 424 722 425 3730 6144 6145 3739 3741 6146 
688 722 689 391 6147 6148 5922 5912 6145 5917 
391 424 721 722 3730 6139 6143 6145 6144 6149 
688 722 391 721 6147 6145 5912 6141 6149 6143 
689 391 722 392 5917 6145 6148 5919 3417 6150 
722 391 425 392 6145 3739 6146 6150 3417 3740 
392 425 723 426 3740 6151 6152 3749 3751 6153 
689 723 690 392 6154 6155 5929 5919 6152 5924 
392 425 722 723 3740 6146 6150 6152 6151 6156 
689 723 392 722 6154 6152 5919 6148 6156 6150 
690 392 723 393 5924 6152 6155 5926 3427 6157 
723 392 426 393 6152 3749 6153 6157 3427 3750 
393 426 724 427 3750 6158 6159 3759 3761 6160 
690 724 691 393 6161 6162 5936 5926 6159 5931 
393 426 723 724 3750 6153 6157 6159 6158 6163 
690 724 393 723 6161 6159 5926 6155 6163 6157 
691 393 724 394 5931 6159 6162 5933 3437 6164 
724 393 427 394 6159 3759 6160 6164 3437 3760 
394 427 725 428 3760 6165 6166 3769 3771 6167 
691 725 692 394 6168 6169 5943 5933 6166 5938 
394 427 724 725 3760 6160 6164 6166 6165 6170 
691 725 394 724 6168 6166 5933 6162 6170 6164 
692 394 725 395 5938 6166 6169 5940 3447 6171 
725 394 428 395 6166 3769 6167 6171 3447 3770 
396 429 727 430 3785 6172 6173 3780 3784 6174 
693 727 694 396 6175 6176 5952 5950 6173 5945 
396 429 726 727 3785 6177 6178 6173 6172 6179 
693 727 396 726 6175 6173 5950 6180 6179 6178 
694 396 727 397 5945 6173 6176 5947 3460 6181 
727 396 430 397 6173 3780 6174 6181 3460 3781 
397 430 728 431 3781 6182 6183 3793 3795 6184 
694 728 695 397 6185 6186 5960 5947 6183 5955 
397 430 727 728 3781 6174 6181 6183 6182 6187 
694 728 397 727 6185 6183 5947 6176 6187 6181 
695 397 728 398 5955 6183 6186 5957 3471 6188 
728 397 431 398 6183 3793 6184 6188 3471 3794 
398 431 729 432 3794 6189 6190 3803 3805 6191 
695 729 696 398 6192 6193 5967 5957 6190 5962 
398 431 728 729 3794 6184 6188 6190 6189 6194 
695 729 398 728 6192 6190 5957 6186 6194 6188 
696 398 729 399 5962 6190 6193 5964 3481 6195 
729 398 432 399 6190 3803 6191 6195 3481 3804 
399 432 730 433 3804 6196 6197 3813 3815 6198 
696 730 697 399 6199 6200 5974 5964 6197 5969 
399 432 729 730 3804 6191 6195 6197 6196 6201 
696 730 399 729 6199 6197 5964 6193 6201 6195 
697 399 730 400 5969 6197 6200 5971 3491 6202 
730 399 433 400 6197 3813 6198 6202 3491 3814 
400 433 731 434 3814 6203 6204 3823 3825 6205 
697 731 698 400 6206 6207 5981 5971 6204 5976 
400 433 730 731 3814 6198 6202 6204 6203 6208 
697 731 400 730 6206 6204 5971 6200 6208 6202 
698 400 731 401 5976 6204 6207 5978 3501 6209 
731 400 434 401 6204 3823 6205 6209 3501 3824 
401 434 732 435 3824 6210 6211 3833 3835 6212 
698 732 699 401 6213 6214 5988 5978 6211 5983 
401 434 731 732 3824 6205 6209 6211 6210 6215 
698 732 401 731 6213 6211 5978 6207 6215 6209 
699 401 732 402 5983 6211 6214 5985 3511 6216 
732 401 435 402 6211 3833 6212 6216 3511 3834 
402 435 733 436 3834 6217 6218 3843 3845 6219 
699 733 700 402 6220 6221 5995 5985 6218 5990 
402 435 732 733 3834 6212 6216 6218 6217 6222 
699 733 402 732 6220 6218 5985 6214 6222 6216 
700 402 733 403 5990 6218 6221 5992 3521 6223 
733 402 436 403 6218 3843 6219 6223 3521 3844 
403 436 734 437 3844 6224 6225 3853 3855 6226 
700 734 701 403 6227 6228 6002 5992 6225 5997 
403 436 733 734 3844 6219 6223 6225 6224 6229 
700 734 403 733 6227 6225 5992 6221 6229 6223 
701 403 734 404 5997 6225 6228 5999 3531 6230 
734 403 437 404 6225 3853 6226 6230 3531 3854 
404 437 735 438 3854 6231 6232 3863 3865 6233 
701 735 702 404 6234 6235 6009 5999 6232 6004 
404 437 734 735 3854 6226 6230 6232 6231 6236 
701 735 404 734 6234 6232 5999 6228 6236 6230 
702 404 735 405 6004 6232 6235 6006 3541 6237 
735 404 438 405 6232 3863 6233 6237 3541 3864 
405 438 736 439 3864 6238 6239 3873 3875 6240 
702 736 703 405 6241 6242 6016 6006 6239 6011 
405 438 735 736 3864 6233 6237 6239 6238 6243 
702 736 405 735 6241 6239 6006 6235 6243 6237 
703 405 736 406 6011 6239 6242 6013 3551 6244 
736 405 439 406 6239 3873 6240 6244 3551 3874 
406 439 737 440 3874 6245 6246 3883 3885 6247 
703 737 704 406 6248 6249 6023 6013 6246 6018 
406 439 736 737 3874 6240 6244 6246 6245 6250 
703 737 406 736 6248 6246 6013 6242 6250 6244 
704 406 737 407 6018 6246 6249 6020 3561 6251 
737 406 440 407 6246 3883 6247 6251 3561 3884 
407 440 738 441 3884 6252 6253 3893 3895 6254 
704 738 705 407 6255 6256 6030 6020 6253 6025 
407 440 737 738 3884 6247 6251 6253 6252 6257 
704 738 407 737 6255 6253 6020 6249 6257 6251 
705 407 738 408 6025 6253 6256 6027 3571 6258 
738 407 441 408 6253 3893 6254 6258 3571 3894 
408 441 739 442 3894 6259 6260 3903 3905 6261 
705 739 706 408 6262 6263 6037 6027 6260 6032 
408 441 738 739 3894 6254 6258 6260 6259 6264 
705 739 408 738 6262 6260 6027 6256 6264 6258 
706 408 739 409 6032 6260 6263 6034 3581 6265 
739 408 442 409 6260 3903 6261 6265 3581 3904 
409 442 740 443 3904 6266 6267 3913 3915 6268 
706 740 707 409 6269 6270 6044 6034 6267 6039 
409 442 739 740 3904 6261 6265 6267 6266 6271 
706 740 409 739 6269 6267 6034 6263 6271 6265 
707 409 740 410 6039 6267 6270 6041 3591 6272 
740 409 443 410 6267 3913 6268 6272 3591 3914 
410 443 741 444 3914 6273 6274 3923 3925 6275 
707 741 708 410 6276 6277 6051 6041 6274 6046 
410 443 740 741 3914 6268 6272 6274 6273 6278 
707 741 410 740 6276 6274 6041 6270 6278 6272 
708 410 741 411 6046 6274 6277 6048 3601 6279 
741 410 444 411 6274 3923 6275 6279 3601 3924 
411 444 742 445 3924 6280 6281 3933 3935 6282 
708 742 709 411 6283 6284 6058 6048 6281 6053 
411 444 741 742 3924 6275 6279 6281 6280 6285 
708 742 411 741 6283 6281 6048 6277 6285 6279 
709 411 742 412 6053 6281 6284 6055 3611 6286 
742 411 445 412 6281 3933 6282 6286 3611 3934 
412 445 743 446 3934 6287 6288 3943 3945 6289 
709 743 710 412 6290 6291 6065 6055 6288 6060 
412 445 742 743 3934 6282 6286 6288 6287 6292 
709 743 412 742 6290 6288 6055 6284 6292 6286 
710 412 743 413 6060 6288 6291 6062 3621 6293 
743 412 446 413 6288 3943 6289 6293 3621 3944 
413 446 744 447 3944 6294 6295 3953 3955 6296 
710 744 711 413 6297 6298 6072 6062 6295 6067 
413 446 743 744 3944 6289 6293 6295 6294 6299 
710 744 413 743 6297 6295 6062 6291 6299 6293 
711 413 744 414 6067 6295 6298 6069 3631 6300 
744 413 447 414 6295 3953 6296 6300 3631 3954 
414 447 745 448 3954 6301 6302 3963 3965 6303 
711 745 712 414 6304 6305 6079 6069 6302 6074 
414 447 744 745 3954 6296 6300 6302 6301 6306 
711 745 414 744 6304 6302 6069 6298 6306 6300 
712 414 745 415 6074 6302 6305 6076 3641 6307 
745 414 448 415 6302 3963 6303 6307 3641 3964 
415 448 746 449 3964 6308 6309 3973 3975 6310 
712 746 713 415 6311 6312 6086 6076 6309 6081 
415 448 745 746 3964 6303 6307 6309 6308 6313 
712 746 415 745 6311 6309 6076 6305 6313 6307 
713 415 746 416 6081 6309 6312 6083 3651 6314 
746 415 449 416 6309 3973 6310 6314 3651 3974 
416 449 747 450 3974 6315 6316 3983 3985 6317 
713 747 714 416 6318 6319 6093 6083 6316 6088 
416 449 746 747 3974 6310 6314 6316 6315 6320 
713 747 416 746 6318 6316 6083 6312 6320 6314 
714 416 747 417 6088 6316 6319 6090 3661 6321 
747 416 450 417 6316 3983 6317 6321 3661 3984 
417 450 748 451 3984 6322 6323 3993 3995 6324 
714 748 715 417 6325 6326 6100 6090 6323 6095 
417 450 747 748 3984 6317 6321 6323 6322 6327 
714 748 417 747 6325 6323 6090 6319 6327 6321 
715 417 748 418 6095 6323 6326 6097 3671 6328 
748 417 451 418 6323 3993 6324 6328 3671 3994 
418 451 749 452 3994 6329 6330 4003 4005 6331 
715 749 716 418 6332 6333 6107 6097 6330 6102 
418 451 748 749 3994 6324 6328 6330 6329 6334 
715 749 418 748 6332 6330 6097 6326 6334 6328 
716 418 749 419 6102 6330 6333 6104 3681 6335 
749 418 452 419 6330 4003 6331 6335 3681 4004 
419 452 750 453 4004 6336 6337 4013 4015 6338 
716 750 717 419 6339 6340 6114 6104 6337 6109 
419 452 749 750 4004 6331 6335 6337 6336 6341 
716 750 419 749 6339 6337 6104 6333 6341 6335 
717 419 750 420 6109 6337 6340 6111 3691 6342 
750 419 453 420 6337 4013 6338 6342 3691 4014 
420 453 751 454 4014 6343 6344 4023 4025 6345 
717 751 718 420 6346 6347 6121 6111 6344 6116 
420 453 750 751 4014 6338 6342 6344 6343 6348 
717 751 420 750 6346 6344 6111 6340 6348 6342 
718 420 751 421 6116 6344 6347 6118 3701 6349 
751 420 454 421 6344 4023 6345 6349 3701 4024 
421 454 752 455 4024 6350 6351 4033 4035 6352 
718 752 719 421 6353 6354 6128 6118 6351 6123 
421 454 751 752 4024 6345 6349 6351 6350 6355 
718 752 421 751 6353 6351 6118 6347 6355 6349 
719 421 752 422 6123 6351 6354 6125 3711 6356 
752 421 455 422 6351 4033 6352 6356 3711 4034 
422 455 753 456 4034 6357 6358 4043 4045 6359 
719 753 720 422 6360 6361 6135 6125 6358 6130 
422 455 752 753 4034 6352 6356 6358 6357 6362 
719 753 422 752 6360 6358 6125 6354 6362 6356 
720 422 753 423 6130 6358 6361 6132 3721 6363 
753 422 456 423 6358 4043 6359 6363 3721 4044 
423 456 754 457 4044 6364 6365 4053 4055 6366 
720 754 721 423 6367 6368 6142 6132 6365 6137 
423 456 753 754 4044 6359 6363 6365 6364 6369 
720 754 423 753 6367 6365 6132 6361 6369 6363 
721 423 754 424 6137 6365 6368 6139 3731 6370 
754 423 457 424 6365 4053 6366 6370 3731 4054 
424 457 755 458 4054 6371 6372 4063 4065 6373 
721 755 722 424 6374 6375 6149 6139 6372 6144 
424 457 754 755 4054 6366 6370 6372 6371 6376 
721 755 424 754 6374 6372 6139 6368 6376 6370 
722 424 755 425 6144 6372 6375 6146 3741 6377 
755 424 458 425 6372 4063 6373 6377 3741 4064 
425 458 756 459 4064 6378 6379 4073 4075 6380 
722 756 723 425 6381 6382 6156 6146 6379 6151 
425 458 755 756 4064 6373 6377 6379 6378 6383 
722 756 425 755 6381 6379 6146 6375 6383 6377 
723 425 756 426 6151 6379 6382 6153 3751 6384 
756 425 459 426 6379 4073 6380 6384 3751 4074 
426 459 757 460 4074 6385 6386 4083 4085 6387 
723 757 724 426 6388 6389 6163 6153 6386 6158 
426 459 756 757 4074 6380 6384 6386 6385 6390 
723 757 426 756 6388 6386 6153 6382 6390 6384 
724 426 757 427 6158 6386 6389 6160 3761 6391 
757 426 460 427 6386 4083 6387 6391 3761 4084 
427 460 758 461 4084 6392 6393 4093 4095 6394 
724 758 725 427 6395 6396 6170 6160 6393 6165 
427 460 757 758 4084 6387 6391 6393 6392 6397 
724 758 427 757 6395 6393 6160 6389 6397 6391 
725 427 758 428 6165 6393 6396 6167 3771 6398 
758 427 461 428 6393 4093 6394 6398 3771 4094 
429 462 760 463 4109 6399 6400 4104 4108 6401 
726 760 727 429 6402 6403 6179 6177 6400 6172 
429 462 759 760 4109 6404 6405 6400 6399 6406 
726 760 429 759 6402 6400 6177 6407 6406 6405 
727 429 760 430 6172 6400 6403 6174 3784 6408 
760 429 463 430 6400 4104 6401 6408 3784 4105 
430 463 761 464 4105 6409 6410 4117 4119 6411 
727 761 728 430 6412 6413 6187 6174 6410 6182 
430 463 760 761 4105 6401 6408 6410 6409 6414 
727 761 430 760 6412 6410 6174 6403 6414 6408 
728 430 761 431 6182 6410 6413 6184 3795 6415 
761 430 464 431 6410 4117 6411 6415 3795 4118 
431 464 762 465 4118 6416 6417 4127 4129 6418 
728 762 729 431 6419 6420 6194 6184 6417 6189 
431 464 761 762 4118 6411 6415 6417 6416 6421 
728 762 431 761 6419 6417 6184 6413 6421 6415 
729 431 762 432 6189 6417 6420 6191 3805 6422 
762 431 465 432 6417 4127 6418 6422 3805 4128 
432 465 763 466 4128 6423 6424 4137 4139 6425 
729 763 730 432 6426 6427 6201 6191 6424 6196 
432 465 762 763 4128 6418 6422 6424 6423 6428 
729 763 432 762 6426 6424 6191 6420 6428 6422 
730 432 763 433 6196 6424 6427 6198 3815 6429 
763 432 466 433 6424 4137 6425 6429 3815 4138 
433 466 764 467 4138 6430 6431 4147 4149 6432 
730 764 731 433 6433 6434 6208 6198 6431 6203 
433 466 763 764 4138 6425 6429 6431 6430 6435 
730 764 433 763 6433 6431 6198 6427 6435 6429 
731 433 764 434 6203 6431 6434 6205 3825 6436 
764 433 467 434 6431 4147 6432 6436 3825 4148 
434 467 765 468 4148 6437 6438 4157 4159 6439 
731 765 732 434 6440 6441 6215 6205 6438 6210 
434 467 764 765 4148 6432 6436 6438 6437 6442 
731 765 434 764 6440 6438 6205 6434 6442 6436 
732 434 765 435 6210 6438 6441 6212 3835 6443 
765 434 468 435 6438 4157 6439 6443 3835 4158 
435 468 766 469 4158 6444 6445 4167 4169 6446 
732 766 733 435 6447 6448 6222 6212 6445 6217 
435 468 765 766 4158 6439 6443 6445 6444 6449 
732 766 435 765 6447 6445 6212 6441 6449 6443 
733 435 766 436 6217 6445 6448 6219 3845 6450 
766 435 469 436 6445 4167 6446 6450 3845 4168 
436 469 767 470 4168 6451 6452 4177 4179 6453 
733 767 734 436 6454 6455 6229 6219 6452 6224 
436 469 766 767 4168 6446 6450 6452 6451 6456 
733 767 436 766 6454 6452 6219 6448 6456 6450 
734 436 767 437 6224 6452 6455 6226 3855 6457 
767 436 470 437 6452 4177 6453 6457 3855 4178 
437 470 768 471 4178 6458 6459 4187 4189 6460 
734 768 735 437 6461 6462 6236 6226 6459 6231 
437 470 767 768 4178 6453 6457 6459 6458 6463 
734 768 437 767 6461 6459 6226 6455 6463 6457 
735 437 768 438 6231 6459 6462 6233 3865 6464 
768 437 471 438 6459 4187 6460 6464 3865 4188 
438 471 769 472 4188 6465 6466 4197 4199 6467 
735 769 736 438 6468 6469 6243 6233 6466 6238 
438 471 768 769 4188 6460 6464 6466 6465 6470 
735 769 438 768 6468 6466 6233 6462 6470 6464 
736 438 769 439 6238 6466 6469 6240 3875 6471 
769 438 472 439 6466 4197 6467 6471 3875 4198 
439 472 770 473 4198 6472 6473 4207 4209 6474 
736 770 737 439 6475 6476 6250 6240 6473 6245 
439 472 769 770 4198 6467 6471 6473 6472 6477 
736 770 439 769 6475 6473 6240 6469 6477 6471 
737 439 770 440 6245 6473 6476 6247 3885 6478 
770 439 473 440 6473 4207 6474 6478 3885 4208 
440 473 771 474 4208 6479 6480 4217 4219 6481 
737 771 738 440 6482 6483 6257 6247 6480 6252 
440 473 770 771 4208 6474 6478 6480 6479 6484 
737 771 440 770 6482 6480 6247 6476 6484 6478 
738 440 771 441 6252 6480 6483 6254 3895 6485 
771 440 474 441 6480 4217 6481 6485 3895 4218 
441 474 772 475 4218 6486 6487 4227 4229 6488 
738 772 739 441 6489 6490 6264 6254 6487 6259 
441 474 771 772 4218 6481 6485 6487 6486 6491 
738 772 441 771 6489 6487 6254 6483 6491 6485 
739 441 772 442 6259 6487 6490 6261 3905 6492 
772 441 475 442 6487 4227 6488 6492 3905 4228 
442 475 773 476 4228 6493 6494 4237 4239 6495 
739 773 740 442 6496 6497 6271 6261 6494 6266 
442 475 772 773 4228 6488 6492 6494 6493 6498 
739 773 442 772 6496 6494 6261 6490 6498 6492 
740 442 773 443 6266 6494 6497 6268 3915 6499 
773 442 476 443 6494 4237 6495 6499 3915 4238 
443 476 774 477 4238 6500 6501 4247 4249 6502 
740 774 741 443 6503 6504 6278 6268 6501 6273 
443 476 773 774 4238 6495 6499 6501 6500 6505 
740 774 443 773 6503 6501 6268 6497 6505 6499 
741 443 774 444 6273 6501 6504 6275 3925 6506 
774 443 477 444 6501 4247 6502 6506 3925 4248 
444 477 775 478 4248 6507 6508 4257 4259 6509 
741 775 742 444 6510 6511 6285 6275 6508 6280 
444 477 774 775 4248 6502 6506 6508 6507 6512 
741 775 444 774 6510 6508 6275 6504 6512 6506 
742 444 775 445 6280 6508 6511 6282 3935 6513 
775 444 478 445 6508 4257 6509 6513 3935 4258 
445 478 776 479 4258 6514 6515 4267 4269 6516 
742 776 743 445 6517 6518 6292 6282 6515 6287 
445 478 775 776 4258 6509 6513 6515 6514 6519 
742 776 445 775 6517 6515 6282 6511 6519 6513 
743 445 776 446 6287 6515 6518 6289 3945 6520 
776 445 479 446 6515 4267 6516 6520 3945 4268 
446 479 777 480 4268 6521 6522 4277 4279 6523 
743 777 744 446 6524 6525 6299 6289 6522 6294 
446 479 776 777 4268 6516 6520 6522 6521 6526 
743 777 446 776 6524 6522 6289 6518 6526 6520 
744 446 777 447 6294 6522 6525 6296 3955 6527 
777 446 480 447 6522 4277 6523 6527 3955 4278 
447 480 778 481 4278 6528 6529 4287 4289 6530 
744 778 745 447 6531 6532 6306 6296 6529 6301 
447 480 777 778 4278 6523 6527 6529 6528 6533 
744 778 447 777 6531 6529 6296 6525 6533 6527 
745 447 778 448 6301 6529 6532 6303 3965 6534 
778 447 481 448 6529 4287 6530 6534 3965 4288 
448 481 779 482 4288 6535 6536 4297 4299 6537 
745 779 746 448 6538 6539 6313 6303 6536 6308 
448 481 778 779 4288 6530 6534 6536 6535 6540 
745 779 448 778 6538 6536 6303 6532 6540 6534 
746 448 779 449 6308 6536 6539 6310 3975 6541 
779 448 482 449 6536 4297 6537 6541 3975 4298 
449 482 780 483 4298 6542 6543 4307 4309 6544 
746 780 747 449 6545 6546 6320 6310 6543 6315 
449 482 779 780 4298 6537 6541 6543 6542 6547 
746 780 449 779 6545 6543 6310 6539 6547 6541 
747 449 780 450 6315 6543 6546 6317 3985 6548 
780 449 483 450 6543 4307 6544 6548 3985 4308 
450 483 781 484 4308 6549 6550 4317 4319 6551 
747 781 748 450 6552 6553 6327 6317 6550 6322 
450 483 780 781 4308 6544 6548 6550 6549 6554 
747 781 450 780 6552 6550 6317 6546 6554 6548 
748 450 781 451 6322 6550 6553 6324 3995 6555 
781 450 484 451 6550 4317 6551 6555 3995 4318 
451 484 782 485 4318 6556 6557 4327 4329 6558 
748 782 749 451 6559 6560 6334 6324 6557 6329 
451 484 781 782 4318 6551 6555 6557 6556 6561 
748 782 451 781 6559 6557 6324 6553 6561 6555 
749 451 782 452 6329 6557 6560 6331 4005 6562 
782 451 485 452 6557 4327 6558 6562 4005 4328 
452 485 783 486 4328 6563 6564 4337 4339 6565 
749 783 750 452 6566 6567 6341 6331 6564 6336 
452 485 782 783 4328 6558 6562 6564 6563 6568 
749 783 452 782 6566 6564 6331 6560 6568 6562 
750 452 783 453 6336 6564 6567 6338 4015 6569 
783 452 486 453 6564 4337 6565 6569 4015 4338 
453 486 784 487 4338 6570 6571 4347 4349 6572 
750 784 751 453 6573 6574 6348 6338 6571 6343 
453 486 783 784 4338 6565 6569 6571 6570 6575 
750 784 453 783 6573 6571 6338 6567 6575 6569 
751 453 784 454 6343 6571 6574 6345 4025 6576 
784 453 487 454 6571 4347 6572 6576 4025 4348 
454 487 785 488 4348 6577 6578 4357 4359 6579 
751 785 752 454 6580 6581 6355 6345 6578 6350 
454 487 784 785 4348 6572 6576 6578 6577 6582 
751 785 454 784 6580 6578 6345 6574 6582 6576 
752 454 785 455 6350 6578 6581 6352 4035 6583 
785 454 488 455 6578 4357 6579 6583 4035 4358 
455 488 786 489 4358 6584 6585 4367 4369 6586 
752 786 753 455 6587 6588 6362 6352 6585 6357 
455 488 785 786 4358 6579 6583 6585 6584 6589 
752 786 455 785 6587 6585 6352 6581 6589 6583 
753 455 786 456 6357 6585 6588 6359 4045 6590 
786 455 489 456 6585 4367 6586 6590 4045 4368 
456 489 787 490 4368 6591 6592 4377 4379 6593 
753 787 754 456 6594 6595 6369 6359 6592 6364 
456 489 786 787 4368 6586 6590 6592 6591 6596 
753 787 456 786 6594 6592 6359 6588 6596 6590 
754 456 787 457 6364 6592 6595 6366 4055 6597 
787 456 490 457 6592 4377 6593 6597 4055 4378 
457 490 788 491 4378 6598 6599 4387 4389 6600 
754 788 755 457 6601 6602 6376 6366 6599 6371 
457 490 787 788 4378 6593 6597 6599 6598 6603 
754 788 457 787 6601 6599 6366 6595 6603 6597 
755 457 788 458 6371 6599 6602 6373 4065 6604 
788 457 491 458 6599 4387 6600 6604 4065 4388 
458 491 789 492 4388 6605 6606 4397 4399 6607 
755 789 756 458 6608 6609 6383 6373 6606 6378 
458 491 788 789 4388 6600 6604 6606 6605 6610 
755 789 458 788 6608 6606 6373 6602 6610 6604 
756 458 789 459 6378 6606 6609 6380 4075 6611 
789 458 492 459 6606 4397 6607 6611 4075 4398 
459 492 790 493 4398 6612 6613 4407 4409 6614 
756 790 757 459 6615 6616 6390 6380 6613 6385 
459 492 789 790 4398 6607 6611 6613 6612 6617 
756 790 459 789 6615 6613 6380 6609 6617 6611 
757 459 790 460 6385 6613 6616 6387 4085 6618 
790 459 493 460 6613 4407 6614 6618 4085 4408 
460 493 791 494 4408 6619 6620 4417 4419 6621 
757 791 758 460 6622 6623 6397 6387 6620 6392 
460 493 790 791 4408 6614 6618 6620 6619 6624 
757 791 460 790 6622 6620 6387 6616 6624 6618 
758 460 791 461 6392 6620 6623 6394 4095 6625 
791 460 494 461 6620 4417 6621 6625 4095 4418 
462 495 793 496 4433 6626 6627 4428 4432 6628 
759 793 760 462 6629 6630 6406 6404 6627 6399 
462 495 792 793 4433 6631 6632 6627 6626 6633 
759 793 462 792 6629 6627 6404 6634 6633 6632 
760 462 793 463 6399 6627 6630 6401 4108 6635 
793 462 496 463 6627 4428 6628 6635 4108 4429 
463 496 794 497 4429 6636 6637 4441 4443 6638 
760 794 761 463 6639 6640 6414 6401 6637 6409 
463 496 793 794 4429 6628 6635 6637 6636 6641 
760 794 463 793 6639 6637 6401 6630 6641 6635 
761 463 794 464 6409 6637 6640 6411 4119 6642 
794 463 497 464 6637 4441 6638 6642 4119 4442 
464 497 795 498 4442 6643 6644 4451 4453 6645 
761 795 762 464 6646 6647 6421 6411 6644 6416 
464 497 794 795 4442 6638 6642 6644 6643 6648 
761 795 464 794 6646 6644 6411 6640 6648 6642 
762 464 795 465 6416 6644 6647 6418 4129 6649 
795 464 498 465 6644 4451 6645 6649 4129 4452 
465 498 796 499 4452 6650 6651 4461 4463 6652 
762 796 763 465 6653 6654 6428 6418 6651 6423 
465 498 795 796 4452 6645 6649 6651 6650 6655 
762 796 465 795 6653 6651 6418 6647 6655 6649 
763 465 796 466 6423 6651 6654 6425 4139 6656 
796 465 499 466 6651 4461 6652 6656 4139 4462 
466 499 797 500 4462 6657 6658 4471 4473 6659 
763 797 764 466 6660 6661 6435 6425 6658 6430 
466 499 796 797 4462 6652 6656 6658 6657 6662 
763 797 466 796 6660 6658 6425 6654 6662 6656 
764 466 797 467 6430 6658 6661 6432 4149 6663 
797 466 500 467 6658 4471 6659 6663 4149 4472 
467 500 798 501 4472 6664 6665 4481 4483 6666 
764 798 765 467 6667 6668 6442 6432 6665 6437 
467 500 797 798 4472 6659 6663 6665 6664 6669 
764 798 467 797 6667 6665 6432 6661 6669 6663 
765 467 798 468 6437 6665 6668 6439 4159 6670 
798 467 501 468 6665 4481 6666 6670 4159 4482 
468 501 799 502 4482 6671 6672 4491 4493 6673 
765 799 766 468 6674 6675 6449 6439 6672 6444 
468 501 798 799 4482 6666 6670 6672 6671 6676 
765 799 468 798 6674 6672 6439 6668 6676 6670 
766 468 799 469 6444 6672 6675 6446 4169 6677 
799 468 502 469 6672 4491 6673 6677 4169 4492 
469 502 800 503 4492 6678 6679 4501 4503 6680 
766 800 767 469 6681 6682 6456 6446 6679 6451 
469 502 799 800 4492 6673 6677 6679 6678 6683 
766 800 469 799 6681 6679 6446 6675 6683 6677 
767 469 800 470 6451 6679 6682 6453 4179 6684 
800 469 503 470 6679 4501 6680 6684 4179 4502 
470 503 801 504 4502 6685 6686 4511 4513 6687 
767 801 768 470 6688 6689 6463 6453 6686 6458 
470 503 800 801 4502 6680 6684 6686 6685 6690 
767 801 470 800 6688 6686 6453 6682 6690 6684 
768 470 801 471 6458 6686 6689 6460 4189 6691 
801 470 504 471 6686 4511 6687 6691 4189 4512 
471 504 802 505 4512 6692 6693 4521 4523 6694 
768 802 769 471 6695 6696 6470 6460 6693 6465 
471 504 801 802 4512 6687 6691 6693 6692 6697 
768 802 471 801 6695 6693 6460 6689 6697 6691 
769 471 802 472 6465 6693 6696 6467 4199 6698 
802 471 505 472 6693 4521 6694 6698 4199 4522 
472 505 803 506 4522 6699 6700 4531 4533 6701 
769 803 770 472 6702 6703 6477 6467 6700 6472 
472 505 802 803 4522 6694 6698 6700 6699 6704 
769 803 472 802 6702 6700 6467 6696 6704 6698 
770 472 803 473 6472 6700 6703 6474 4209 6705 
803 472 506 473 6700 4531 6701 6705 4209 4532 
473 506 804 507 4532 6706 6707 4541 4543 6708 
770 804 771 473 6709 6710 6484 6474 6707 6479 
473 506 803 804 4532 6701 6705 6707 6706 6711 
770 804 473 803 6709 6707 6474 6703 6711 6705 
771 473 804 474 6479 6707 6710 6481 4219 6712 
804 473 507 474 6707 4541 6708 6712 4219 4542 
474 507 805 508 4542 6713 6714 4551 4553 6715 
771 805 772 474 6716 6717 6491 6481 6714 6486 
474 507 804 805 4542 6708 6712 6714 6713 6718 
771 805 474 804 6716 6714 6481 6710 6718 6712 
772 474 805 475 6486 6714 6717 6488 4229 6719 
805 474 508 475 6714 4551 6715 6719 4229 4552 
475 508 806 509 4552 6720 6721 4561 4563 6722 
772 806 773 475 6723 6724 6498 6488 6721 6493 
475 508 805 806 4552 6715 6719 6721 6720 6725 
772 806 475 805 6723 6721 6488 6717 6725 6719 
773 475 806 476 6493 6721 6724 6495 4239 6726 
806 475 509 476 6721 4561 6722 6726 4239 4562 
476 509 807 510 4562 6727 6728 4571 4573 6729 
773 807 774 476 6730 6731 6505 6495 6728 6500 
476 509 806 807 4562 6722 6726 6728 6727 6732 
773 807 476 806 6730 6728 6495 6724 6732 6726 
774 476 807 477 6500 6728 6731 6502 4249 6733 
807 476 510 477 6728 4571 6729 6733 4249 4572 
477 510 808 511 4572 6734 6735 4581 4583 6736 
774 808 775 477 6737 6738 6512 6502 6735 6507 
477 510 807 808 4572 6729 6733 6735 6734 6739 
774 808 477 807 6737 6735 6502 6731 6739 6733 
775 477 808 478 6507 6735 6738 6509 4259 6740 
808 477 511 478 6735 4581 6736 6740 4259 4582 
478 511 809 512 4582 6741 6742 4591 4593 6743 
775 809 776 478 6744 6745 6519 6509 6742 6514 
478 511 808 809 4582 6736 6740 6742 6741 6746 
775 809 478 808 6744 6742 6509 6738 6746 6740 
776 478 809 479 6514 6742 6745 6516 4269 6747 
809 478 512 479 6742 4591 6743 6747 4269 4592 
479 512 810 513 4592 6748 6749 4601 4603 6750 
776 810 777 479 6751 6752 6526 6516 6749 6521 
479 512 809 810 4592 6743 6747 6749 6748 6753 
776 810 479 809 6751 6749 6516 6745 6753 6747 
777 479 810 480 6521 6749 6752 6523 4279 6754 
810 479 513 480 6749 4601 6750 6754 4279 4602 
480 513 811 514 4602 6755 6756 4611 4613 6757 
777 811 778 480 6758 6759 6533 6523 6756 6528 
480 513 810 811 4602 6750 6754 6756 6755 6760 
777 811 480 810 6758 6756 6523 6752 6760 6754 
778 480 811 481 6528 6756 6759 6530 4289 6761 
811 480 514 481 6756 4611 6757 6761 4289 4612 
481 514 812 515 4612 6762 6763 4621 4623 6764 
778 812 779 481 6765 6766 6540 6530 6763 6535 
481 514 811 812 4612 6757 6761 6763 6762 6767 
778 812 481 811 6765 6763 6530 6759 6767 6761 
779 481 812 482 6535 6763 6766 6537 4299 6768 
812 481 515 482 6763 4621 6764 6768 4299 4622 
482 515 813 516 4622 6769 6770 4631 4633 6771 
779 813 780 482 6772 6773 6547 6537 6770 6542 
482 515 812 813 4622 6764 6768 6770 6769 6774 
779 813 482 812 6772 6770 6537 6766 6774 6768 
780 482 813 483 6542 6770 6773 6544 4309 6775 
813 482 516 483 6770 4631 6771 6775 4309 4632 
483 516 814 517 4632 6776 6777 4641 4643 6778 
780 814 781 483 6779 6780 6554 6544 6777 6549 
483 516 813 814 4632 6771 6775 6777 6776 6781 
780 814 483 813 6779 6777 6544 6773 6781 6775 
781 483 814 484 6549 6777 6780 6551 4319 6782 
814 483 517 484 6777 4641 6778 6782 4319 4642 
484 517 815 518 4642 6783 6784 4651 4653 6785 
781 815 782 484 6786 6787 6561 6551 6784 6556 
484 517 814 815 4642 6778 6782 6784 6783 6788 
781 815 484 814 6786 6784 6551 6780 6788 6782 
782 484 815 485 6556 6784 6787 6558 4329 6789 
815 484 518 485 6784 4651 6785 6789 4329 4652 
485 518 816 519 4652 6790 6791 4661 4663 6792 
782 816 783 485 6793 6794 6568 6558 6791 6563 
485 518 815 816 4652 6785 6789 6791 6790 6795 
782 816 485 815 6793 6791 6558 6787 6795 6789 
783 485 816 486 6563 6791 6794 6565 4339 6796 
816 485 519 486 6791 4661 6792 6796 4339 4662 
486 519 817 520 4662 6797 6798 4671 4673 6799 
783 817 784 486 6800 6801 6575 6565 6798 6570 
486 519 816 817 4662 6792 6796 6798 6797 6802 
783 817 486 816 6800 6798 6565 6794 6802 6796 
784 486 817 487 6570 6798 6801 6572 4349 6803 
817 486 520 487 6798 4671 6799 6803 4349 4672 
487 520 818 521 4672 6804 6805 4681 4683 6806 
784 818 785 487 6807 6808 6582 6572 6805 6577 
487 520 817 818 4672 6799 6803 6805 6804 6809 
784 818 487 817 6807 6805 6572 6801 6809 6803 
785 487 818 488 6577 6805 6808 6579 4359 6810 
818 487 521 488 6805 4681 6806 6810 4359 4682 
488 521 819 522 4682 6811 6812 4691 4693 6813 
785 819 786 488 6814 6815 6589 6579 6812 6584 
488 521 818 819 4682 6806 6810 6812 6811 6816 
785 819 488 818 6814 6812 6579 6808 6816 6810 
786 488 819 489 6584 6812 6815 6586 4369 6817 
819 488 522 489 6812 4691 6813 6817 4369 4692 
489 522 820 523 4692 6818 6819 4701 4703 6820 
786 820 787 489 6821 6822 6596 6586 6819 6591 
489 522 819 820 4692 6813 6817 6819 6818 6823 
786 820 489 819 6821 6819 6586 6815 6823 6817 
787 489 820 490 6591 6819 6822 6593 4379 6824 
820 489 523 490 6819 4701 6820 6824 4379 4702 
490 523 821 524 4702 6825 6826 4711 4713 6827 
787 821 788 490 6828 6829 6603 6593 6826 6598 
490 523 820 821 4702 6820 6824 6826 6825 6830 
787 821 490 820 6828 6826 6593 6822 6830 6824 
788 490 821 491 6598 6826 6829 6600 4389 6831 
821 490 524 491 6826 4711 6827 6831 4389 4712 
491 524 822 525 4712 6832 6833 4721 4723 6834 
788 822 789 491 6835 6836 6610 6600 6833 6605 
491 524 821 822 4712 6827 6831 6833 6832 6837 
788 822 491 821 6835 6833 6600 6829 6837 6831 
789 491 822 492 6605 6833 6836 6607 4399 6838 
822 491 525 492 6833 4721 6834 6838 4399 4722 
492 525 823 526 4722 6839 6840 4731 4733 6841 
789 823 790 492 6842 6843 6617 6607 6840 6612 
492 525 822 823 4722 6834 6838 6840 6839 6844 
789 823 492 822 6842 6840 6607 6836 6844 6838 
790 492 823 493 6612 6840 6843 6614 4409 6845 
823 492 526 493 6840 4731 6841 6845 4409 4732 
493 526 824 527 4732 6846 6847 4741 4743 6848 
790 824 791 493 6849 6850 6624 6614 6847 6619 
493 526 823 824 4732 6841 6845 6847 6846 6851 
790 824 493 823 6849 6847 6614 6843 6851 6845 
791 493 824 494 6619 6847 6850 6621 4419 6852 
824 493 527 494 6847 4741 6848 6852 4419 4742 
495 528 826 529 4757 6853 6854 4752 4756 6855 
792 826 793 495 6856 6857 6633 6631 6854 6626 
495 528 825 826 4757 6858 6859 6854 6853 6860 
792 826 495 825 6856 6854 6631 6861 6860 6859 
793 495 826 496 6626 6854 6857 6628 4432 6862 
826 495 529 496 6854 4752 6855 6862 4432 4753 
496 529 827 530 4753 6863 6864 4765 4767 6865 
793 827 794 496 6866 6867 6641 6628 6864 6636 
496 529 826 827 4753 6855 6862 6864 6863 6868 
793 827 496 826 6866 6864 6628 6857 6868 6862 
794 496 827 497 6636 6864 6867 6638 4443 6869 
827 496 530 497 6864 4765 6865 6869 4443 4766 
497 530 828 531 4766 6870 6871 4775 4777 6872 
794 828 795 497 6873 6874 6648 6638 6871 6643 
497 530 827 828 4766 6865 6869 6871 6870 6875 
794 828 497 827 6873 6871 6638 6867 6875 6869 
795 497 828 498 6643 6871 6874 6645 4453 6876 
828 497 531 498 6871 4775 6872 6876 4453 4776 
498 531 829 532 4776 6877 6878 4785 4787 6879 
795 829 796 498 6880 6881 6655 6645 6878 6650 
498 531 828 829 4776 6872 6876 6878 6877 6882 
795 829 498 828 6880 6878 6645 6874 6882 6876 
796 498 829 499 6650 6878 6881 6652 4463 6883 
829 498 532 499 6878 4785 6879 6883 4463 4786 
499 532 830 533 4786 6884 6885 4795 4797 6886 
796 830 797 499 6887 6888 6662 6652 6885 6657 
499 532 829 830 4786 6879 6883 6885 6884 6889 
796 830 499 829 6887 6885 6652 6881 6889 6883 
797 499 830 500 6657 6885 6888 6659 4473 6890 
830 499 533 500 6885 4795 6886 6890 4473 4796 
500 533 831 534 4796 6891 6892 4805 4807 6893 
797 831 798 500 6894 6895 6669 6659 6892 6664 
500 533 830 831 4796 6886 6890 6892 6891 6896 
797 831 500 830 6894 6892 6659 6888 6896 6890 
798 500 831 501 6664 6892 6895 6666 4483 6897 
831 500 534 501 6892 4805 6893 6897 4483 4806 
501 534 832 535 4806 6898 6899 4815 4817 6900 
798 832 799 501 6901 6902 6676 6666 6899 6671 
501 534 831 832 4806 6893 6897 6899 6898 6903 
798 832 501 831 6901 6899 6666 6895 6903 6897 
799 501 832 502 6671 6899 6902 6673 4493 6904 
832 501 535 502 6899 4815 6900 6904 4493 4816 
502 535 833 536 4816 6905 6906 4825 4827 6907 
799 833 800 502 6908 6909 6683 6673 6906 6678 
502 535 832 833 4816 6900 6904 6906 6905 6910 
799 833 502 832 6908 6906 6673 6902 6910 6904 
800 502 833 503 6678 6906 6909 6680 4503 6911 
833 502 536 503 6906 4825 6907 6911 4503 4826 
503 536 834 537 4826 6912 6913 4835 4837 6914 
800 834 801 503 6915 6916 6690 6680 6913 6685 
503 536 833 834 4826 6907 6911 6913 6912 6917 
800 834 503 833 6915 6913 6680 6909 6917 6911 
801 503 834 504 6685 6913 6916 6687 4513 6918 
834 503 537 504 6913 4835 6914 6918 4513 4836 
504 537 835 538 4836 6919 6920 4845 4847 6921 
801 835 802 504 6922 6923 6697 6687 6920 6692 
504 537 834 835 4836 6914 6918 6920 6919 6924 
801 835 504 834 6922 6920 6687 6916 6924 6918 
802 504 835 505 6692 6920 6923 6694 4523 6925 
835 504 538 505 6920 4845 6921 6925 4523 4846 
505 538 836 539 4846 6926 6927 4855 4857 6928 
802 836 803 505 6929 6930 6704 6694 6927 6699 
505 538 835 836 4846 6921 6925 6927 6926 6931 
802 836 505 835 6929 6927 6694 6923 6931 6925 
803 505 836 506 6699 6927 6930 6701 4533 6932 
836 505 539 506 6927 4855 6928 6932 4533 4856 
506 539 837 540 4856 6933 6934 4865 4867 6935 
803 837 804 506 6936 6937 6711 6701 6934 6706 
506 539 836 837 4856 6928 6932 6934 6933 6938 
803 837 506 836 6936 6934 6701 6930 6938 6932 
804 506 837 507 6706 6934 6937 6708 4543 6939 
837 506 540 507 6934 4865 6935 6939 4543 4866 
507 540 838 541 4866 6940 6941 4875 4877 6942 
804 838 805 507 6943 6944 6718 6708 6941 6713 
507 540 837 838 4866 6935 6939 6941 6940 6945 
804 838 507 837 6943 6941 6708 6937 6945 6939 
805 507 838 508 6713 6941 6944 6715 4553 6946 
838 507 541 508 6941 4875 6942 6946 4553 4876 
508 541 839 542 4876 6947 6948 4885 4887 6949 
805 839 806 508 6950 6951 6725 6715 6948 6720 
508 541 838 839 4876 6942 6946 6948 6947 6952 
805 839 508 838 6950 6948 6715 6944 6952 6946 
806 508 839 509 6720 6948 6951 6722 4563 6953 
839 508 542 509 6948 4885 6949 6953 4563 4886 
509 542 840 543 4886 6954 6955 4895 4897 6956 
806 840 807 509 6957 6958 6732 6722 6955 6727 
509 542 839 840 4886 6949 6953 6955 6954 6959 
806 840 509 839 6957 6955 6722 6951 6959 6953 
807 509 840 510 6727 6955 6958 6729 4573 6960 
840 509 543 510 6955 4895 6956 6960 4573 4896 
510 543 841 544 4896 6961 6962 4905 4907 6963 
807 841 808 510 6964 6965 6739 6729 6962 6734 
510 543 840 841 4896 6956 6960 6962 6961 6966 
807 841 510 840 6964 6962 6729 6958 6966 6960 
808 510 841 511 6734 6962 6965 6736 4583 6967 
841 510 544 511 6962 4905 6963 6967 4583 4906 
511 544 842 545 4906 6968 6969 4915 4917 6970 
808 842 809 511 6971 6972 6746 6736 6969 6741 
511 544 841 842 4906 6963 6967 6969 6968 6973 
808 842 511 841 6971 6969 6736 6965 6973 6967 
809 511 842 512 6741 6969 6972 6743 4593 6974 
842 511 545 512 6969 4915 6970 6974 4593 4916 
512 545 843 546 4916 6975 6976 4925 4927 6977 
809 843 810 512 6978 6979 6753 6743 6976 6748 
512 545 842 843 4916 6970 6974 6976 6975 6980 
809 843 512 842 6978 6976 6743 6972 6980 6974 
810 512 843 513 6748 6976 6979 6750 4603 6981 
843 512 546 513 6976 4925 6977 6981 4603 4926 
513 546 844 547 4926 6982 6983 4935 4937 6984 
810 844 811 513 6985 6986 6760 6750 6983 6755 
513 546 843 844 4926 6977 6981 6983 6982 6987 
810 844 513 843 6985 6983 6750 6979 6987 6981 
811 513 844 514 6755 6983 6986 6757 4613 6988 
844 513 547 514 6983 4935 6984 6988 4613 4936 
514 547 845 548 4936 6989 6990 4945 4947 6991 
811 845 812 514 6992 6993 6767 6757 6990 6762 
514 547 844 845 4936 6984 6988 6990 6989 6994 
811 845 514 844 6992 6990 6757 6986 6994 6988 
812 514 845 515 6762 6990 6993 6764 4623 6995 
845 514 548 515 6990 4945 6991 6995 4623 4946 
515 548 846 549 4946 6996 6997 4955 4957 6998 
812 846 813 515 6999 7000 6774 6764 6997 6769 
515 548 845 846 4946 6991 6995 6997 6996 7001 
812 846 515 845 6999 6997 6764 6993 7001 6995 
813 515 846 516 6769 6997 7000 6771 4633 7002 
846 515 549 516 6997 4955 6998 7002 4633 4956 
516 549 847 550 4956 7003 7004 4965 4967 7005 
813 847 814 516 7006 7007 6781 6771 7004 6776 
516 549 846 847 4956 6998 7002 7004 7003 7008 
813 847 516 846 7006 7004 6771 7000 7008 7002 
814 516 847 517 6776 7004 7007 6778 4643 7009 
847 516 550 517 7004 4965 7005 7009 4643 4966 
517 550 848 551 4966 7010 7011 4975 4977 7012 
814 848 815 517 7013 7014 6788 6778 7011 6783 
517 550 847 848 4966 7005 7009 7011 7010 7015 
814 848 517 847 7013 7011 6778 7007 7015 7009 
815 517 848 518 6783 7011 7014 6785 4653 7016 
848 517 551 518 7011 4975 7012 7016 4653 4976 
518 551 849 552 4976 7017 7018 4985 4987 7019 
815 849 816 518 7020 7021 6795 6785 7018 6790 
518 551 848 849 4976 7012 7016 7018 7017 7022 
815 849 518 848 7020 7018 6785 7014 7022 7016 
816 518 849 519 6790 7018 7021 6792 4663 7023 
849 518 552 519 7018 4985 7019 7023 4663 4986 
519 552 850 553 4986 7024 7025 4995 4997 7026 
816 850 817 519 7027 7028 6802 6792 7025 6797 
519 552 849 850 4986 7019 7023 7025 7024 7029 
816 850 519 849 7027 7025 6792 7021 7029 7023 
817 519 850 520 6797 7025 7028 6799 4673 7030 
850 519 553 520 7025 4995 7026 7030 4673 4996 
520 553 851 554 4996 7031 7032 5005 5007 7033 
817 851 818 520 7034 7035 6809 6799 7032 6804 
520 553 850 851 4996 7026 7030 7032 7031 7036 
817 851 520 850 7034 7032 6799 7028 7036 7030 
818 520 851 521 6804 7032 7035 6806 4683 7037 
851 520 554 521 7032 5005 7033 7037 4683 5006 
521 554 852 555 5006 7038 7039 5015 5017 7040 
818 852 819 521 7041 7042 6816 6806 7039 6811 
521 554 851 852 5006 7033 7037 7039 7038 7043 
818 852 521 851 7041 7039 6806 7035 7043 7037 
819 521 852 522 6811 7039 7042 6813 4693 7044 
852 521 555 522 7039 5015 7040 7044 4693 5016 
522 555 853 556 5016 7045 7046 5025 5027 7047 
819 853 820 522 7048 7049 6823 6813 7046 6818 
522 555 852 853 5016 7040 7044 7046 7045 7050 
819 853 522 852 7048 7046 6813 7042 7050 7044 
820 522 853 523 6818 7046 7049 6820 4703 7051 
853 522 556 523 7046 5025 7047 7051 4703 5026 
523 556 854 557 5026 7052 7053 5035 5037 7054 
820 854 821 523 7055 7056 6830 6820 7053 6825 
523 556 853 854 5026 7047 7051 7053 7052 7057 
820 854 523 853 7055 7053 6820 7049 7057 7051 
821 523 854 524 6825 7053 7056 6827 4713 7058 
854 523 557 524 7053 5035 7054 7058 4713 5036 
524 557 855 558 5036 7059 7060 5045 5047 7061 
821 855 822 524 7062 7063 6837 6827 7060 6832 
524 557 854 855 5036 7054 7058 7060 7059 7064 
821 855 524 854 7062 7060 6827 7056 7064 7058 
822 524 855 525 6832 7060 7063 6834 4723 7065 
855 524 558 525 7060 5045 7061 7065 4723 5046 
525 558 856 559 5046 7066 7067 5055 5057 7068 
822 856 823 525 7069 7070 6844 6834 7067 6839 
525 558 855 856 5046 7061 7065 7067 7066 7071 
822 856 525 855 7069 7067 6834 7063 7071 7065 
823 525 856 526 6839 7067 7070 6841 4733 7072 
856 525 559 526 7067 5055 7068 7072 4733 5056 
526 559 857 560 5056 7073 7074 5065 5067 7075 
823 857 824 526 7076 7077 6851 6841 7074 6846 
526 559 856 857 5056 7068 7072 7074 7073 7078 
823 857 526 856 7076 7074 6841 7070 7078 7072 
824 526 857 527 6846 7074 7077 6848 4743 7079 
857 526 560 527 7074 5065 7075 7079 4743 5066 
528 561 859 562 5081 7080 7081 5076 5080 7082 
825 859 826 528 7083 7084 6860 6858 7081 6853 
528 561 858 859 5081 7085 7086 7081 7080 7087 
825 859 528 858 7083 7081 6858 7088 7087 7086 
826 528 859 529 6853 7081 7084 6855 4756 7089 
859 528 562 529 7081 5076 7082 7089 4756 5077 
529 562 860 563 5077 7090 7091 5089 5091 7092 
826 860 827 529 7093 7094 6868 6855 7091 6863 
529 562 859 860 5077 7082 7089 7091 7090 7095 
826 860 529 859 7093 7091 6855 7084 7095 7089 
827 529 860 530 6863 7091 7094 6865 4767 7096 
860 529 563 530 7091 5089 7092 7096 4767 5090 
530 563 861 564 5090 7097 7098 5099 5101 7099 
827 861 828 530 7100 7101 6875 6865 7098 6870 
530 563 860 861 5090 7092 7096 7098 7097 7102 
827 861 530 860 7100 7098 6865 7094 7102 7096 
828 530 861 531 6870 7098 7101 6872 4777 7103 
861 530 564 531 7098 5099 7099 7103 4777 5100 
531 564 862 565 5100 7104 7105 5109 5111 7106 
828 862 829 531 7107 7108 6882 6872 7105 6877 
531 564 861 862 5100 7099 7103 7105 7104 7109 
828 862 531 861 7107 7105 6872 7101 7109 7103 
829 531 862 532 6877 7105 7108 6879 4787 7110 
862 531 565 532 7105 5109 7106 7110 4787 5110 
532 565 863 566 5110 7111 7112 5119 5121 7113 
829 863 830 532 7114 7115 6889 6879 7112 6884 
532 565 862 863 5110 7106 7110 7112 7111 7116 
829 863 532 862 7114 7112 6879 7108 7116 7110 
830 532 863 533 6884 7112 7115 6886 4797 7117 
863 532 566 533 7112 5119 7113 7117 4797 5120 
533 566 864 567 5120 7118 7119 5129 5131 7120 
830 864 831 533 7121 7122 6896 6886 7119 6891 
533 566 863 864 5120 7113 7117 7119 7118 7123 
830 864 533 863 7121 7119 6886 7115 7123 7117 
831 533 864 534 6891 7119 7122 6893 4807 7124 
864 533 567 534 7119 5129 7120 7124 4807 5130 
534 567 865 568 5130 7125 7126 5139 5141 7127 
831 865 832 534 7128 7129 6903 6893 7126 6898 
534 567 864 865 5130 7120 7124 7126 7125 7130 
831 865 534 864 7128 7126 6893 7122 7130 7124 
832 534 865 535 6898 7126 7129 6900 4817 7131 
865 534 568 535 7126 5139 7127 7131 4817 5140 
535 568 866 569 5140 7132 7133 5149 5151 7134 
832 866 833 535 7135 7136 6910 6900 7133 6905 
535 568 865 866 5140 7127 7131 7133 7132 7137 
832 866 535 865 7135 7133 6900 7129 7137 7131 
833 535 866 536 6905 7133 7136 6907 4827 7138 
866 535 569 536 7133 5149 7134 7138 4827 5150 
536 569 867 570 5150 7139 7140 5159 5161 7141 
833 867 834 536 7142 7143 6917 6907 7140 6912 
536 569 866 867 5150 7134 7138 7140 7139 7144 
833 867 536 866 7142 7140 6907 7136 7144 7138 
834 536 867 537 6912 7140 7143 6914 4837 7145 
867 536 570 537 7140 5159 7141 7145 4837 5160 
537 570 868 571 5160 7146 7147 5169 5171 7148 
834 868 835 537 7149 7150 6924 6914 7147 6919 
537 570 867 868 5160 7141 7145 7147 7146 7151 
834 868 537 867 7149 7147 6914 7143 7151 7145 
835 537 868 538 6919 7147 7150 6921 4847 7152 
868 537 571 538 7147 5169 7148 7152 4847 5170 
538 571 869 572 5170 7153 7154 5179 5181 7155 
835 869 836 538 7156 7157 6931 6921 7154 6926 
538 571 868 869 5170 7148 7152 7154 7153 7158 
835 869 538 868 7156 7154 6921 7150 7158 7152 
836 538 869 539 6926 7154 7157 6928 4857 7159 
869 538 572 539 7154 5179 7155 7159 4857 5180 
539 572 870 573 5180 7160 7161 5189 5191 7162 
836 870 837 539 7163 7164 6938 6928 7161 6933 
539 572 869 870 5180 7155 7159 7161 7160 7165 
836 870 539 869 7163 7161 6928 7157 7165 7159 
837 539 870 540 6933 7161 7164 6935 4867 7166 
870 539 573 540 7161 5189 7162 7166 4867 5190 
540 573 871 574 5190 7167 7168 5199 5201 7169 
837 871 838 540 7170 7171 6945 6935 7168 6940 
540 573 870 871 5190 7162 7166 7168 7167 7172 
837 871 540 870 7170 7168 6935 7164 7172 7166 
838 540 871 541 6940 7168 7171 6942 4877 7173 
871 540 574 541 7168 5199 7169 7173 4877 5200 
541 574 872 575 5200 7174 7175 5209 5211 7176 
838 872 839 541 7177 7178 6952 6942 7175 6947 
541 574 871 872 5200 7169 7173 7175 7174 7179 
838 872 541 871 7177 7175 6942 7171 7179 7173 
839 541 872 542 6947 7175 7178 6949 4887 7180 
872 541 575 542 7175 5209 7176 7180 4887 5210 
542 575 873 576 5210 7181 7182 5219 5221 7183 
839 873 840 542 7184 7185 6959 6949 7182 6954 
542 575 872 873 5210 7176 7180 7182 7181 7186 
839 873 542 872 7184 7182 6949 7178 7186 7180 
840 542 873 543 6954 7182 7185 6956 4897 7187 
873 542 576 543 7182 5219 7183 7187 4897 5220 
543 576 874 577 5220 7188 7189 5229 5231 7190 
840 874 841 543 7191 7192 6966 6956 7189 6961 
543 576 873 874 5220 7183 7187 7189 7188 7193 
840 874 543 873 7191 7189 6956 7185 7193 7187 
841 543 874 544 6961 7189 7192 6963 4907 7194 
874 543 577 544 7189 5229 7190 7194 4907 5230 
544 577 875 578 5230 7195 7196 5239 5241 7197 
841 875 842 544 7198 7199 6973 6963 7196 6968 
544 577 874 875 5230 7190 7194 7196 7195 7200 
841 875 544 874 7198 7196 6963 7192 7200 7194 
842 544 875 545 6968 7196 7199 6970 4917 7201 
875 544 578 545 7196 5239 7197 7201 4917 5240 
545 578 876 579 5240 7202 7203 5249 5251 7204 
842 876 843 545 7205 7206 6980 6970 7203 6975 
545 578 875 876 5240 7197 7201 7203 7202 7207 
842 876 545 875 7205 7203 6970 7199 7207 7201 
843 545 876 546 6975 7203 7206 6977 4927 7208 
876 545 579 546 7203 5249 7204 7208 4927 5250 
546 579 877 580 5250 7209 7210 5259 5261 7211 
843 877 844 546 7212 7213 6987 6977 7210 6982 
546 579 876 877 5250 7204 7208 7210 7209 7214 
843 877 546 876 7212 7210 6977 7206 7214 7208 
844 546 877 547 6982 7210 7213 6984 4937 7215 
877 546 580 547 7210 5259 7211 7215 4937 5260 
547 580 878 581 5260 7216 7217 5269 5271 7218 
844 878 845 547 7219 7220 6994 6984 7217 6989 
547 580 877 878 5260 7211 7215 7217 7216 7221 
844 878 547 877 7219 7217 6984 7213 7221 7215 
845 547 878 548 6989 7217 7220 6991 4947 7222 
878 547 581 548 7217 5269 7218 7222 4947 5270 
548 581 879 582 5270 7223 7224 5279 5281 7225 
845 879 846 548 7226 7227 7001 6991 7224 6996 
548 581 878 879 5270 7218 7222 7224 7223 7228 
845 879 548 878 7226 7224 6991 7220 7228 7222 
846 548 879 549 6996 7224 7227 6998 4957 7229 
879 548 582 549 7224 5279 7225 7229 4957 5280 
549 582 880 583 5280 7230 7231 5289 5291 7232 
846 880 847 549 7233 7234 7008 6998 7231 7003 
549 582 879 880 5280 7225 7229 7231 7230 7235 
846 880 549 879 7233 7231 6998 7227 7235 7229 
847 549 880 550 7003 7231 7234 7005 4967 7236 
880 549 583 550 7231 5289 7232 7236 4967 5290 
550 583 881 584 5290 7237 7238 5299 5301 7239 
847 881 848 550 7240 7241 7015 7005 7238 7010 
550 583 880 881 5290 7232 7236 7238 7237 7242 
847 881 550 880 7240 7238 7005 7234 7242 7236 
848 550 881 551 7010 7238 7241 7012 4977 7243 
881 550 584 551 7238 5299 7239 7243 4977 5300 
551 584 882 585 5300 7244 7245 5309 5311 7246 
848 882 849 551 7247 7248 7022 7012 7245 7017 
551 584 881 882 5300 7239 7243 7245 7244 7249 
848 882 551 881 7247 7245 7012 7241 7249 7243 
849 551 882 552 7017 7245 7248 7019 4987 7250 
882 551 585 552 7245 5309 7246 7250 4987 5310 
552 585 883 586 5310 7251 7252 5319 5321 7253 
849 883 850 552 7254 7255 7029 7019 7252 7024 
552 585 882 883 5310 7246 7250 7252 7251 7256 
849 883 552 882 7254 7252 7019 7248 7256 7250 
850 552 883 553 7024 7252 7255 7026 4997 7257 
883 552 586 553 7252 5319 7253 7257 4997 5320 
553 586 884 587 5320 7258 7259 5329 5331 7260 
850 884 851 553 7261 7262 7036 7026 7259 7031 
553 586 883 884 5320 7253 7257 7259 7258 7263 
850 884 553 883 7261 7259 7026 7255 7263 7257 
851 553 884 554 7031 7259 7262 7033 5007 7264 
884 553 587 554 7259 5329 7260 7264 5007 5330 
554 587 885 588 5330 7265 7266 5339 5341 7267 
851 885 852 554 7268 7269 7043 7033 7266 7038 
554 587 884 885 5330 7260 7264 7266 7265 7270 
851 885 554 884 7268 7266 7033 7262 7270 7264 
852 554 885 555 7038 7266 7269 7040 5017 7271 
885 554 588 555 7266 5339 7267 7271 5017 5340 
555 588 886 589 5340 7272 7273 5349 5351 7274 
852 886 853 555 7275 7276 7050 7040 7273 7045 
555 588 885 886 5340 7267 7271 7273 7272 7277 
852 886 555 885 7275 7273 7040 7269 7277 7271 
853 555 886 556 7045 7273 7276 7047 5027 7278 
886 555 589 556 7273 5349 7274 7278 5027 5350 
556 589 887 590 5350 7279 7280 5359 5361 7281 
853 887 854 556 7282 7283 7057 7047 7280 7052 
556 589 886 887 5350 7274 7278 7280 7279 7284 
853 887 556 886 7282 7280 7047 7276 7284 7278 
854 556 887 557 7052 7280 7283 7054 5037 7285 
887 556 590 557 7280 5359 7281 7285 5037 5360 
557 590 888 591 5360 7286 7287 5369 5371 7288 
854 888 855 557 7289 7290 7064 7054 7287 7059 
557 590 887 888 5360 7281 7285 7287 7286 7291 
854 888 557 887 7289 7287 7054 7283 7291 7285 
855 557 888 558 7059 7287 7290 7061 5047 7292 
888 557 591 558 7287 5369 7288 7292 5047 5370 
558 591 889 592 5370 7293 7294 5379 5381 7295 
855 889 856 558 7296 7297 7071 7061 7294 7066 
558 591 888 889 5370 7288 7292 7294 7293 7298 
855 889 558 888 7296 7294 7061 7290 7298 7292 
856 558 889 559 7066 7294 7297 7068 5057 7299 
889 558 592 559 7294 5379 7295 7299 5057 5380 
559 592 890 593 5380 7300 7301 5389 5391 7302 
856 890 857 559 7303 7304 7078 7068 7301 7073 
559 592 889 890 5380 7295 7299 7301 7300 7305 
856 890 559 889 7303 7301 7068 7297 7305 7299 
857 559 890 560 7073 7301 7304 7075 5067 7306 
890 559 593 560 7301 5389 7302 7306 5067 5390 
594 627 925 628 5405 7307 7308 5397 5404 7309 
891 925 892 594 7310 7311 7312 7313 7308 7314 
594 627 924 925 5405 7315 7316 7308 7307 7317 
891 925 594 924 7310 7308 7313 7318 7317 7316 
892 594 925 595 7314 7308 7311 7319 5399 7320 
925 594 628 595 7308 5397 7309 7320 5399 5398 
595 628 926 629 5398 7321 7322 5411 5415 7323 
892 926 893 595 7324 7325 7326 7319 7322 7327 
595 628 925 926 5398 7309 7320 7322 7321 7328 
892 926 595 925 7324 7322 7319 7311 7328 7320 
893 595 926 596 7327 7322 7325 7329 5413 7330 
926 595 629 596 7322 5411 7323 7330 5413 5412 
596 629 927 630 5412 7331 7332 5421 5425 7333 
893 927 894 596 7334 7335 7336 7329 7332 7337 
596 629 926 927 5412 7323 7330 7332 7331 7338 
893 927 596 926 7334 7332 7329 7325 7338 7330 
894 596 927 597 7337 7332 7335 7339 5423 7340 
927 596 630 597 7332 5421 7333 7340 5423 5422 
597 630 928 631 5422 7341 7342 5431 5435 7343 
894 928 895 597 7344 7345 7346 7339 7342 7347 
597 630 927 928 5422 7333 7340 7342 7341 7348 
894 928 597 927 7344 7342 7339 7335 7348 7340 
895 597 928 598 7347 7342 7345 7349 5433 7350 
928 597 631 598 7342 5431 7343 7350 5433 5432 
598 631 929 632 5432 7351 7352 5441 5445 7353 
895 929 896 598 7354 7355 7356 7349 7352 7357 
598 631 928 929 5432 7343 7350 7352 7351 7358 
895 929 598 928 7354 7352 7349 7345 7358 7350 
896 598 929 599 7357 7352 7355 7359 5443 7360 
929 598 632 599 7352 5441 7353 7360 5443 5442 
599 632 930 633 5442 7361 7362 5451 5455 7363 
896 930 897 599 7364 7365 7366 7359 7362 7367 
599 632 929 930 5442 7353 7360 7362 7361 7368 
896 930 599 929 7364 7362 7359 7355 7368 7360 
897 599 930 600 7367 7362 7365 7369 5453 7370 
930 599 633 600 7362 5451 7363 7370 5453 5452 
600 633 931 634 5452 7371 7372 5461 5465 7373 
897 931 898 600 7374 7375 7376 7369 7372 7377 
600 633 930 931 5452 7363 7370 7372 7371 7378 
897 931 600 930 7374 7372 7369 7365 7378 7370 
898 600 931 601 7377 7372 7375 7379 5463 7380 
931 600 634 601 7372 5461 7373 7380 5463 5462 
601 634 932 635 5462 7381 7382 5471 5475 7383 
898 932 899 601 7384 7385 7386 7379 7382 7387 
601 634 931 932 5462 7373 7380 7382 7381 7388 
898 932 601 931 7384 7382 7379 7375 7388 7380 
899 601 932 602 7387 7382 7385 7389 5473 7390 
932 601 635 602 7382 5471 7383 7390 5473 5472 
602 635 933 636 5472 7391 7392 5481 5485 7393 
899 933 900 602 7394 7395 7396 7389 7392 7397 
602 635 932 933 5472 7383 7390 7392 7391 7398 
899 933 602 932 7394 7392 7389 7385 7398 7390 
900 602 933 603 7397 7392 7395 7399 5483 7400 
933 602 636 603 7392 5481 7393 7400 5483 5482 
603 636 934 637 5482 7401 7402 5491 5495 7403 
900 934 901 603 7404 7405 7406 7399 7402 7407 
603 636 933 934 5482 7393 7400 7402 7401 7408 
900 934 603 933 7404 7402 7399 7395 7408 7400 
901 603 934 604 7407 7402 7405 7409 5493 7410 
934 603 637 604 7402 5491 7403 7410 5493 5492 
604 637 935 638 5492 7411 7412 5501 5505 7413 
901 935 902 604 7414 7415 7416 7409 7412 7417 
604 637 934 935 5492 7403 7410 7412 7411 7418 
901 935 604 934 7414 7412 7409 7405 7418 7410 
902 604 935 605 7417 7412 7415 7419 5503 7420 
935 604 638 605 7412 5501 7413 7420 5503 5502 
605 638 936 639 5502 7421 7422 5511 5515 7423 
902 936 903 605 7424 7425 7426 7419 7422 7427 
605 638 935 936 5502 7413 7420 7422 7421 7428 
902 936 605 935 7424 7422 7419 7415 7428 7420 
903 605 936 606 7427 7422 7425 7429 5513 7430 
936 605 639 606 7422 5511 7423 7430 5513 5512 
606 639 937 640 5512 7431 7432 5521 5525 7433 
903 937 904 606 7434 7435 7436 7429 7432 7437 
606 639 936 937 5512 7423 7430 7432 7431 7438 
903 937 606 936 7434 7432 7429 7425 7438 7430 
904 606 937 607 7437 7432 7435 7439 5523 7440 
937 606 640 607 7432 5521 7433 7440 5523 5522 
607 640 938 641 5522 7441 7442 5531 5535 7443 
904 938 905 607 7444 7445 7446 7439 7442 7447 
607 640 937 938 5522 7433 7440 7442 7441 7448 
904 938 607 937 7444 7442 7439 7435 7448 7440 
905 607 938 608 7447 7442 7445 7449 5533 7450 
938 607 641 608 7442 5531 7443 7450 5533 5532 
608 641 939 642 5532 7451 7452 5541 5545 7453 
905 939 906 608 7454 7455 7456 7449 7452 7457 
608 641 938 939 5532 7443 7450 7452 7451 7458 
905 939 608 938 7454 7452 7449 7445 7458 7450 
906 608 939 609 7457 7452 7455 7459 5543 7460 
939 608 642 609 7452 5541 7453 7460 5543 5542 
609 642 940 643 5542 7461 7462 5551 5555 7463 
906 940 907 609 7464 7465 7466 7459 7462 7467 
609 642 939 940 5542 7453 7460 7462 7461 7468 
906 940 609 939 7464 7462 7459 7455 7468 7460 
907 609 940 610 7467 7462 7465 7469 5553 7470 
940 609 643 610 7462 5551 7463 7470 5553 5552 
610 643 941 644 5552 7471 7472 5561 5565 7473 
907 941 908 610 7474 7475 7476 7469 7472 7477 
610 643 940 941 5552 7463 7470 7472 7471 7478 
907 941 610 940 7474 7472 7469 7465 7478 7470 
908 610 941 611 7477 7472 7475 7479 5563 7480 
941 610 644 611 7472 5561 7473 7480 5563 5562 
611 644 942 645 5562 7481 7482 5571 5575 7483 
908 942 909 611 7484 7485 7486 7479 7482 7487 
611 644 941 942 5562 7473 7480 7482 7481 7488 
908 942 611 941 7484 7482 7479 7475 7488 7480 
909 611 942 612 7487 7482 7485 7489 5573 7490 
942 611 645 612 7482 5571 7483 7490 5573 5572 
612 645 943 646 5572 7491 7492 5581 5585 7493 
909 943 910 612 7494 7495 7496 7489 7492 7497 
612 645 942 943 5572 7483 7490 7492 7491 7498 
909 943 612 942 7494 7492 7489 7485 7498 7490 
910 612 943 613 7497 7492 7495 7499 5583 7500 
943 612 646 613 7492 5581 7493 7500 5583 5582 
613 646 944 647 5582 7501 7502 5591 5595 7503 
910 944 911 613 7504 7505 7506 7499 7502 7507 
613 646 943 944 5582 7493 7500 7502 7501 7508 
910 944 613 943 7504 7502 7499 7495 7508 7500 
911 613 944 614 7507 7502 7505 7509 5593 7510 
944 613 647 614 7502 5591 7503 7510 5593 5592 
614 647 945 648 5592 7511 7512 5601 5605 7513 
911 945 912 614 7514 7515 7516 7509 7512 7517 
614 647 944 945 5592 7503 7510 7512 7511 7518 
911 945 614 944 7514 7512 7509 7505 7518 7510 
912 614 945 615 7517 7512 7515 7519 5603 7520 
945 614 648 615 7512 5601 7513 7520 5603 5602 
615 648 946 649 5602 7521 7522 5611 5615 7523 
912 946 913 615 7524 7525 7526 7519 7522 7527 
615 648 945 946 5602 7513 7520 7522 7521 7528 
912 946 615 945 7524 7522 7519 7515 7528 7520 
913 615 946 616 7527 7522 7525 7529 5613 7530 
946 615 649 616 7522 5611 7523 7530 5613 5612 
616 649 947 650 5612 7531 7532 5621 5625 7533 
913 947 914 616 7534 7535 7536 7529 7532 7537 
616 649 946 947 5612 7523 7530 7532 7531 7538 
913 947 616 946 7534 7532 7529 7525 7538 7530 
914 616 947 617 7537 7532 7535 7539 5623 7540 
947 616 650 617 7532 5621 7533 7540 5623 5622 
617 650 948 651 5622 7541 7542 5631 5635 7543 
914 948 915 617 7544 7545 7546 7539 7542 7547 
617 650 947 948 5622 7533 7540 7542 7541 7548 
914 948 617 947 7544 7542 7539 7535 7548 7540 
915 617 948 618 7547 7542 7545 7549 5633 7550 
948 617 651 618 7542 5631 7543 7550 5633 5632 
618 651 949 652 5632 7551 7552 5641 5645 7553 
915 949 916 618 7554 7555 7556 7549 7552 7557 
618 651 948 949 5632 7543 7550 7552 7551 7558 
915 949 618 948 7554 7552 7549 7545 7558 7550 
916 618 949 619 7557 7552 7555 7559 5643 7560 
949 618 652 619 7552 5641 7553 7560 5643 5642 
619 652 950 653 5642 7561 7562 5651 5655 7563 
916 950 917 619 7564 7565 7566 7559 7562 7567 
619 652 949 950 5642 7553 7560 7562 7561 7568 
916 950 619 949 7564 7562 7559 7555 7568 7560 
917 619 950 620 7567 7562 7565 7569 5653 7570 
950 619 653 620 7562 5651 7563 7570 5653 5652 
620 653 951 654 5652 7571 7572 5661 5665 7573 
917 951 918 620 7574 7575 7576 7569 7572 7577 
620 653 950 951 5652 7563 7570 7572 7571 7578 
917 951 620 950 7574 7572 7569 7565 7578 7570 
918 620 951 621 7577 7572 7575 7579 5663 7580 
951 620 654 621 7572 5661 7573 7580 5663 5662 
621 654 952 655 5662 7581 7582 5671 5675 7583 
918 952 919 621 7584 7585 7586 7579 7582 7587 
621 654 951 952 5662 7573 7580 7582 7581 7588 
918 952 621 951 7584 7582 7579 7575 7588 7580 
919 621 952 622 7587 7582 7585 7589 5673 7590 
952 621 655 622 7582 5671 7583 7590 5673 5672 
622 655 953 656 5672 7591 7592 5681 5685 7593 
919 953 920 622 7594 7595 7596 7589 7592 7597 
622 655 952 953 5672 7583 7590 7592 7591 7598 
919 953 622 952 7594 7592 7589 7585 7598 7590 
920 622 953 623 7597 7592 7595 7599 5683 7600 
953 622 656 623 7592 5681 7593 7600 5683 5682 
623 656 954 657 5682 7601 7602 5691 5695 7603 
920 954 921 623 7604 7605 7606 7599 7602 7607 
623 656 953 954 5682 7593 7600 7602 7601 7608 
920 954 623 953 7604 7602 7599 7595 7608 7600 
921 623 954 624 7607 7602 7605 7609 5693 7610 
954 623 657 624 7602 5691 7603 7610 5693 5692 
624 657 955 658 5692 7611 7612 5701 5705 7613 
921 955 922 624 7614 7615 7616 7609 7612 7617 
624 657 954 955 5692 7603 7610 7612 7611 7618 
921 955 624 954 7614 7612 7609 7605 7618 7610 
922 624 955 625 7617 7612 7615 7619 5703 7620 
955 624 658 625 7612 5701 7613 7620 5703 5702 
625 658 956 659 5702 7621 7622 5711 5715 7623 
922 956 923 625 7624 7625 7626 7619 7622 7627 
625 658 955 956 5702 7613 7620 7622 7621 7628 
922 956 625 955 7624 7622 7619 7615 7628 7620 
923 625 956 626 7627 7622 7625 7629 5713 7630 
956 625 659 626 7622 5711 7623 7630 5713 5712 
627 660 958 661 5726 7631 7632 5721 5725 7633 
924 958 925 627 7634 7635 7317 7315 7632 7307 
627 660 957 958 5726 7636 7637 7632 7631 7638 
924 958 627 957 7634 7632 7315 7639 7638 7637 
925 627 958 628 7307 7632 7635 7309 5404 7640 
958 627 661 628 7632 5721 7633 7640 5404 5722 
628 661 959 662 5722 7641 7642 5731 5733 7643 
925 959 926 628 7644 7645 7328 7309 7642 7321 
628 661 958 959 5722 7633 7640 7642 7641 7646 
925 959 628 958 7644 7642 7309 7635 7646 7640 
926 628 959 629 7321 7642 7645 7323 5415 7647 
959 628 662 629 7642 5731 7643 7647 5415 5732 
629 662 960 663 5732 7648 7649 5738 5740 7650 
926 960 927 629 7651 7652 7338 7323 7649 7331 
629 662 959 960 5732 7643 7647 7649 7648 7653 
926 960 629 959 7651 7649 7323 7645 7653 7647 
927 629 960 630 7331 7649 7652 7333 5425 7654 
960 629 663 630 7649 5738 7650 7654 5425 5739 
630 663 961 664 5739 7655 7656 5745 5747 7657 
927 961 928 630 7658 7659 7348 7333 7656 7341 
630 663 960 961 5739 7650 7654 7656 7655 7660 
927 961 630 960 7658 7656 7333 7652 7660 7654 
928 630 961 631 7341 7656 7659 7343 5435 7661 
961 630 664 631 7656 5745 7657 7661 5435 5746 
631 664 962 665 5746 7662 7663 5752 5754 7664 
928 962 929 631 7665 7666 7358 7343 7663 7351 
631 664 961 962 5746 7657 7661 7663 7662 7667 
928 962 631 961 7665 7663 7343 7659 7667 7661 
929 631 962 632 7351 7663 7666 7353 5445 7668 
962 631 665 632 7663 5752 7664 7668 5445 5753 
632 665 963 666 5753 7669 7670 5759 5761 7671 
929 963 930 632 7672 7673 7368 7353 7670 7361 
632 665 962 963 5753 7664 7668 7670 7669 7674 
929 963 632 962 7672 7670 7353 7666 7674 7668 
930 632 963 633 7361 7670 7673 7363 5455 7675 
963 632 666 633 7670 5759 7671 7675 5455 5760 
633 666 964 667 5760 7676 7677 5766 5768 7678 
930 964 931 633 7679 7680 7378 7363 7677 7371 
633 666 963 964 5760 7671 7675 7677 7676 7681 
930 964 633 963 7679 7677 7363 7673 7681 7675 
931 633 964 634 7371 7677 7680 7373 5465 7682 
964 633 667 634 7677 5766 7678 7682 5465 5767 
634 667 965 668 5767 7683 7684 5773 5775 7685 
931 965 932 634 7686 7687 7388 7373 7684 7381 
634 667 964 965 5767 7678 7682 7684 7683 7688 
931 965 634 964 7686 7684 7373 7680 7688 7682 
932 634 965 635 7381 7684 7687 7383 5475 7689 
965 634 668 635 7684 5773 7685 7689 5475 5774 
635 668 966 669 5774 7690 7691 5780 5782 7692 
932 966 933 635 7693 7694 7398 7383 7691 7391 
635 668 965 966 5774 7685 7689 7691 7690 7695 
932 966 635 965 7693 7691 7383 7687 7695 7689 
933 635 966 636 7391 7691 7694 7393 5485 7696 
966 635 669 636 7691 5780 7692 7696 5485 5781 
636 669 967 670 5781 7697 7698 5787 5789 7699 
933 967 934 636 7700 7701 7408 7393 7698 7401 
636 669 966 967 5781 7692 7696 7698 7697 7702 
933 967 636 966 7700 7698 7393 7694 7702 7696 
934 636 967 637 7401 7698 7701 7403 5495 7703 
967 636 670 637 7698 5787 7699 7703 5495 5788 
637 670 968 671 5788 7704 7705 5794 5796 7706 
934 968 935 637 7707 7708 7418 7403 7705 7411 
637 670 967 968 5788 7699 7703 7705 7704 7709 
934 968 637 967 7707 7705 7403 7701 7709 7703 
935 637 968 638 7411 7705 7708 7413 5505 7710 
968 637 671 638 7705 5794 7706 7710 5505 5795 
638 671 969 672 5795 7711 7712 5801 5803 7713 
935 969 936 638 7714 7715 7428 7413 7712 7421 
638 671 968 969 5795 7706 7710 7712 7711 7716 
935 969 638 968 7714 7712 7413 7708 7716 7710 
936 638 969 639 7421 7712 7715 7423 5515 7717 
969 638 672 639 7712 5801 7713 7717 5515 5802 
639 672 970 673 5802 7718 7719 5808 5810 7720 
936 970 937 639 7721 7722 7438 7423 7719 7431 
639 672 969 970 5802 7713 7717 7719 7718 7723 
936 970 639 969 7721 7719 7423 7715 7723 7717 
937 639 970 640 7431 7719 7722 7433 5525 7724 
970 639 673 640 7719 5808 7720 7724 5525 5809 
640 673 971 674 5809 7725 7726 5815 5817 7727 
937 971 938 640 7728 7729 7448 7433 7726 7441 
640 673 970 971 5809 7720 7724 7726 7725 7730 
937 971 640 970 7728 7726 7433 7722 7730 7724 
938 640 971 641 7441 7726 7729 7443 5535 7731 
971 640 674 641 7726 5815 7727 7731 5535 5816 
641 674 972 675 5816 7732 7733 5822 5824 7734 
938 972 939 641 7735 7736 7458 7443 7733 7451 
641 674 971 972 5816 7727 7731 7733 7732 7737 
938 972 641 971 7735 7733 7443 7729 7737 7731 
939 641 972 642 7451 7733 7736 7453 5545 7738 
972 641 675 642 7733 5822 7734 7738 5545 5823 
642 675 973 676 5823 7739 7740 5829 5831 7741 
939 973 940 642 7742 7743 7468 7453 7740 7461 
642 675 972 973 5823 7734 7738 7740 7739 7744 
939 973 642 972 7742 7740 7453 7736 7744 7738 
940 642 973 643 7461 7740 7743 7463 5555 7745 
973 642 676 643 7740 5829 7741 7745 5555 5830 
643 676 974 677 5830 7746 7747 5836 5838 7748 
940 974 941 643 7749 7750 7478 7463 7747 7471 
643 676 973 974 5830 7741 7745 7747 7746 7751 
940 974 643 973 7749 7747 7463 7743 7751 7745 
941 643 974 644 7471 7747 7750 7473 5565 7752 
974 643 677 644 7747 5836 7748 7752 5565 5837 
644 677 975 678 5837 7753 7754 5843 5845 7755 
941 975 942 644 7756 7757 7488 7473 7754 7481 
644 677 974 975 5837 7748 7752 7754 7753 7758 
941 975 644 974 7756 7754 7473 7750 7758 7752 
942 644 975 645 7481 7754 7757 7483 5575 7759 
975 644 678 645 7754 5843 7755 7759 5575 5844 
645 678 976 679 5844 7760 7761 5850 5852 7762 
942 976 943 645 7763 7764 7498 7483 7761 7491 
645 678 975 976 5844 7755 7759 7761 7760 7765 
942 976 645 975 7763 7761 7483 7757 7765 7759 
943 645 976 646 7491 7761 7764 7493 5585 7766 
976 645 679 646 7761 5850 7762 7766 5585 5851 
646 679 977 680 5851 7767 7768 5857 5859 7769 
943 977 944 646 7770 7771 7508 7493 7768 7501 
646 679 976 977 5851 7762 7766 7768 7767 7772 
943 977 646 976 7770 7768 7493 7764 7772 7766 
944 646 977 647 7501 7768 7771 7503 5595 7773 
977 646 680 647 7768 5857 7769 7773 5595 5858 
647 680 978 681 5858 7774 7775 5864 5866 7776 
944 978 945 647 7777 7778 7518 7503 7775 7511 
647 680 977 978 5858 7769 7773 7775 7774 7779 
944 978 647 977 7777 7775 7503 7771 7779 7773 
945 647 978 648 7511 7775 7778 7513 5605 7780 
978 647 681 648 7775 5864 7776 7780 5605 5865 
648 681 979 682 5865 7781 7782 5871 5873 7783 
945 979 946 648 7784 7785 7528 7513 7782 7521 
648 681 978 979 5865 7776 7780 7782 7781 7786 
945 979 648 978 7784 7782 7513 7778 7786 7780 
946 648 979 649 7521 7782 7785 7523 5615 7787 
979 648 682 649 7782 5871 7783 7787 5615 5872 
649 682 980 683 5872 7788 7789 5878 5880 7790 
946 980 947 649 7791 7792 7538 7523 7789 7531 
649 682 979 980 5872 7783 7787 7789 7788 7793 
946 980 649 979 7791 7789 7523 7785 7793 7787 
947 649 980 650 7531 7789 7792 7533 5625 7794 
980 649 683 650 7789 5878 7790 7794 5625 5879 
650 683 981 684 5879 7795 7796 5885 5887 7797 
947 981 948 650 7798 7799 7548 7533 7796 7541 
650 683 980 981 5879 7790 7794 7796 7795 7800 
947 981 650 980 7798 7796 7533 7792 7800 7794 
948 650 981 651 7541 7796 7799 7543 5635 7801 
981 650 684 651 7796 5885 7797 7801 5635 5886 
651 684 982 685 5886 7802 7803 5892 5894 7804 
948 982 949 651 7805 7806 7558 7543 7803 7551 
651 684 981 982 5886 7797 7801 7803 7802 7807 
948 982 651 981 7805 7803 7543 7799 7807 7801 
949 651 982 652 7551 7803 7806 7553 5645 7808 
982 651 685 652 7803 5892 7804 7808 5645 5893 
652 685 983 686 5893 7809 7810 5899 5901 7811 
949 983 950 652 7812 7813 7568 7553 7810 7561 
652 685 982 983 5893 7804 7808 7810 7809 7814 
949 983 652 982 7812 7810 7553 7806 7814 7808 
950 652 983 653 7561 7810 7813 7563 5655 7815 
983 652 686 653 7810 5899 7811 7815 5655 5900 
653 686 984 687 5900 7816 7817 5906 5908 7818 
950 984 951 653 7819 7820 7578 7563 7817 7571 
653 686 983 984 5900 7811 7815 7817 7816 7821 
950 984 653 983 7819 7817 7563 7813 7821 7815 
951 653 984 654 7571 7817 7820 7573 5665 7822 
984 653 687 654 7817 5906 7818 7822 5665 5907 
654 687 985 688 5907 7823 7824 5913 5915 7825 
951 985 952 654 7826 7827 7588 7573 7824 7581 
654 687 984 985 5907 7818 7822 7824 7823 7828 
951 985 654 984 7826 7824 7573 7820 7828 7822 
952 654 985 655 7581 7824 7827 7583 5675 7829 
985 654 688 655 7824 5913 7825 7829 5675 5914 
655 688 986 689 5914 7830 7831 5920 5922 7832 
952 986 953 655 7833 7834 7598 7583 7831 7591 
655 688 985 986 5914 7825 7829 7831 7830 7835 
952 986 655 985 7833 7831 7583 7827 7835 7829 
953 655 986 656 7591 7831 7834 7593 5685 7836 
986 655 689 656 7831 5920 7832 7836 5685 5921 
656 689 987 690 5921 7837 7838 5927 5929 7839 
953 987 954 656 7840 7841 7608 7593 7838 7601 
656 689 986 987 5921 7832 7836 7838 7837 7842 
953 987 656 986 7840 7838 7593 7834 7842 7836 
954 656 987 657 7601 7838 7841 7603 5695 7843 
987 656 690 657 7838 5927 7839 7843 5695 5928 
657 690 988 691 5928 7844 7845 5934 5936 7846 
954 988 955 657 7847 7848 7618 7603 7845 7611 
657 690 987 988 5928 7839 7843 7845 7844 7849 
954 988 657 987 7847 7845 7603 7841 7849 7843 
955 657 988 658 7611 7845 7848 7613 5705 7850 
988 657 691 658 7845 5934 7846 7850 5705 5935 
658 691 989 692 5935 7851 7852 5941 5943 7853 
955 989 956 658 7854 7855 7628 7613 7852 7621 
658 691 988 989 5935 7846 7850 7852 7851 7856 
955 989 658 988 7854 7852 7613 7848 7856 7850 
956 658 989 659 7621 7852 7855 7623 5715 7857 
989 658 692 659 7852 5941 7853 7857 5715 5942 
660 693 991 694 5953 7858 7859 5948 5952 7860 
957 991 958 660 7861 7862 7638 7636 7859 7631 
660 693 990 991 5953 7863 7864 7859 7858 7865 
957 991 660 990 7861 7859 7636 7866 7865 7864 
958 660 991 661 7631 7859 7862 7633 5725 7867 
991 660 694 661 7859 5948 7860 7867 5725 5949 
661 694 992 695 5949 7868 7869 5958 5960 7870 
958 992 959 661 7871 7872 7646 7633 7869 7641 
661 694 991 992 5949 7860 7867 7869 7868 7873 
958 992 661 991 7871 7869 7633 7862 7873 7867 
959 661 992 662 7641 7869 7872 7643 5733 7874 
992 661 695 662 7869 5958 7870 7874 5733 5959 
662 695 993 696 5959 7875 7876 5965 5967 7877 
959 993 960 662 7878 7879 7653 7643 7876 7648 
662 695 992 993 5959 7870 7874 7876 7875 7880 
959 993 662 992 7878 7876 7643 7872 7880 7874 
960 662 993 663 7648 7876 7879 7650 5740 7881 
993 662 696 663 7876 5965 7877 7881 5740 5966 
663 696 994 697 5966 7882 7883 5972 5974 7884 
960 994 961 663 7885 7886 7660 7650 7883 7655 
663 696 993 994 5966 7877 7881 7883 7882 7887 
960 994 663 993 7885 7883 7650 7879 7887 7881 
961 663 994 664 7655 7883 7886 7657 5747 7888 
994 663 697 664 7883 5972 7884 7888 5747 5973 
664 697 995 698 5973 7889 7890 5979 5981 7891 
961 995 962 664 7892 7893 7667 7657 7890 7662 
664 697 994 995 5973 7884 7888 7890 7889 7894 
961 995 664 994 7892 7890 7657 7886 7894 7888 
962 664 995 665 7662 7890 7893 7664 5754 7895 
995 664 698 665 7890 5979 7891 7895 5754 5980 
665 698 996 699 5980 7896 7897 5986 5988 7898 
962 996 963 665 7899 7900 7674 7664 7897 7669 
665 698 995 996 5980 7891 7895 7897 7896 7901 
962 996 665 995 7899 7897 7664 7893 7901 7895 
963 665 996 666 7669 7897 7900 7671 5761 7902 
996 665 699 666 7897 5986 7898 7902 5761 5987 
666 699 997 700 5987 7903 7904 5993 5995 7905 
963 997 964 666 7906 7907 7681 7671 7904 7676 
666 699 996 997 5987 7898 7902 7904 7903 7908 
963 997 666 996 7906 7904 7671 7900 7908 7902 
964 666 997 667 7676 7904 7907 7678 5768 7909 
997 666 700 667 7904 5993 7905 7909 5768 5994 
667 700 998 701 5994 7910 7911 6000 6002 7912 
964 998 965 667 7913 7914 7688 7678 7911 7683 
667 700 997 998 5994 7905 7909 7911 7910 7915 
964 998 667 997 7913 7911 7678 7907 7915 7909 
965 667 998 668 7683 7911 7914 7685 5775 7916 
998 667 701 668 7911 6000 7912 7916 5775 6001 
668 701 999 702 6001 7917 7918 6007 6009 7919 
965 999 966 668 7920 7921 7695 7685 7918 7690 
668 701 998 999 6001 7912 7916 7918 7917 7922 
965 999 668 998 7920 7918 7685 7914 7922 7916 
966 668 999 669 7690 7918 7921 7692 5782 7923 
999 668 702 669 7918 6007 7919 7923 5782 6008 
669 702 1000 703 6008 7924 7925 6014 6016 7926 
966 1000 967 669 7927 7928 7702 7692 7925 7697 
669 702 999 1000 6008 7919 7923 7925 7924 7929 
966 1000 669 999 7927 7925 7692 7921 7929 7923 
967 669 1000 670 7697 7925 7928 7699 5789 7930 
1000 669 703 670 7925 6014 7926 7930 5789 6015 
670 703 1001 704 6015 7931 7932 6021 6023 7933 
967 1001 968 670 7934 7935 7709 7699 7932 7704 
670 703 1000 1001 6015 7926 7930 7932 7931 7936 
967 1001 670 1000 7934 7932 7699 7928 7936 7930 
968 670 1001 671 7704 7932 7935 7706 5796 7937 
1001 670 704 671 7932 6021 7933 7937 5796 6022 
671 704 1002 705 6022 7938 7939 6028 6030 7940 
968 1002 969 671 7941 7942 7716 7706 7939 7711 
671 704 1001 1002 6022 7933 7937 7939 7938 7943 
968 1002 671 1001 7941 7939 7706 7935 7943 7937 
969 671 1002 672 7711 7939 7942 7713 5803 7944 
1002 671 705 672 7939 6028 7940 7944 5803 6029 
672 705 1003 706 6029 7945 7946 6035 6037 7947 
969 1003 970 672 7948 7949 7723 7713 7946 7718 
672 705 1002 1003 6029 7940 7944 7946 7945 7950 
969 1003 672 1002 7948 7946 7713 7942 7950 7944 
970 672 1003 673 7718 7946 7949 7720 5810 7951 
1003 672 706 673 7946 6035 7947 7951 5810 6036 
673 706 1004 707 6036 7952 7953 6042 6044 7954 
970 1004 971 673 7955 7956 7730 7720 7953 7725 
673 706 1003 1004 6036 7947 7951 7953 7952 7957 
970 1004 673 1003 7955 7953 7720 7949 7957 7951 
971 673 1004 674 7725 7953 7956 7727 5817 7958 
1004 673 707 674 7953 6042 7954 7958 5817 6043 
674 707 1005 708 6043 7959 7960 6049 6051 7961 
971 1005 972 674 7962 7963 7737 7727 7960 7732 
674 707 1004 1005 6043 7954 7958 7960 7959 7964 
971 1005 674 1004 7962 7960 7727 7956 7964 7958 
972 674 1005 675 7732 7960 7963 7734 5824 7965 
1005 674 708 675 7960 6049 7961 7965 5824 6050 
675 708 1006 709 6050 7966 7967 6056 6058 7968 
972 1006 973 675 7969 7970 7744 7734 7967 7739 
675 708 1005 1006 6050 7961 7965 7967 7966 7971 
972 1006 675 1005 7969 7967 7734 7963 7971 7965 
973 675 1006 676 7739 7967 7970 7741 5831 7972 
1006 675 709 676 7967 6056 7968 7972 5831 6057 
676 709 1007 710 6057 7973 7974 6063 6065 7975 
973 1007 974 676 7976 7977 7751 7741 7974 7746 
676 709 1006 1007 6057 7968 7972 7974 7973 7978 
973 1007 676 1006 7976 7974 7741 7970 7978 7972 
974 676 1007 677 7746 7974 7977 7748 5838 7979 
1007 676 710 677 7974 6063 7975 7979 5838 6064 
677 710 1008 711 6064 7980 7981 6070 6072 7982 
974 1008 975 677 7983 7984 7758 7748 7981 7753 
677 710 1007 1008 6064 7975 7979 7981 7980 7985 
974 1008 677 1007 7983 7981 7748 7977 7985 7979 
975 677 1008 678 7753 7981 7984 7755 5845 7986 
1008 677 711 678 7981 6070 7982 7986 5845 6071 
678 711 1009 712 6071 7987 7988 6077 6079 7989 
975 1009 976 678 7990 7991 7765 7755 7988 7760 
678 711 1008 1009 6071 7982 7986 7988 7987 7992 
975 1009 678 1008 7990 7988 7755 7984 7992 7986 
976 678 1009 679 7760 7988 7991 7762 5852 7993 
1009 678 712 679 7988 6077 7989 7993 5852 6078 
679 712 1010 713 6078 7994 7995 6084 6086 7996 
976 1010 977 679 7997 7998 7772 7762 7995 7767 
679 712 1009 1010 6078 7989 7993 7995 7994 7999 
976 1010 679 1009 7997 7995 7762 7991 7999 7993 
977 679 1010 680 7767 7995 7998 7769 5859 8000 
1010 679 713 680 7995 6084 7996 8000 5859 6085 
680 713 1011 714 6085 8001 8002 6091 6093 8003 
977 1011 978 680 8004 8005 7779 7769 8002 7774 
680 713 1010 1011 6085 7996 8000 8002 8001 8006 
977 1011 680 1010 8004 8002 7769 7998 8006 8000 
978 680 1011 681 7774 8002 8005 7776 5866 8007 
1011 680 714 681 8002 6091 8003 8007 5866 6092 
681 714 1012 715 6092 8008 8009 6098 6100 8010 
978 1012 979 681 8011 8012 7786 7776 8009 7781 
681 714 1011 1012 6092 8003 8007 8009 8008 8013 
978 1012 681 1011 8011 8009 7776 8005 8013 8007 
979 681 1012 682 7781 8009 8012 7783 5873 8014 
1012 681 715 682 8009 6098 8010 8014 5873 6099 
682 715 1013 716 6099 8015 8016 6105 6107 8017 
979 1013 980 682 8018 8019 7793 7783 8016 7788 
682 715 1012 1013 6099 8010 8014 8016 8015 8020 
979 1013 682 1012 8018 8016 7783 8012 8020 8014 
980 682 1013 683 7788 8016 8019 7790 5880 8021 
1013 682 716 683 8016 6105 8017 8021 5880 6106 
683 716 1014 717 6106 8022 8023 6112 6114 8024 
980 1014 981 683 8025 8026 7800 7790 8023 7795 
683 716 1013 1014 6106 8017 8021 8023 8022 8027 
980 1014 683 1013 8025 8023 7790 8019 8027 8021 
981 683 1014 684 7795 8023 8026 7797 5887 8028 
1014 683 717 684 8023 6112 8024 8028 5887 6113 
684 717 1015 718 6113 8029 8030 6119 6121 8031 
981 1015 982 684 8032 8033 7807 7797 8030 7802 
684 717 1014 1015 6113 8024 8028 8030 8029 8034 
981 1015 684 1014 8032 8030 7797 8026 8034 8028 
982 684 1015 685 7802 8030 8033 7804 5894 8035 
1015 684 718 685 8030 6119 8031 8035 5894 6120 
685 718 1016 719 6120 8036 8037 6126 6128 8038 
982 1016 983 685 8039 8040 7814 7804 8037 7809 
685 718 1015 1016 6120 8031 8035 8037 8036 8041 
982 1016 685 1015 8039 8037 7804 8033 8041 8035 
983 685 1016 686 7809 8037 8040 7811 5901 8042 
1016 685 719 686 8037 6126 8038 8042 5901 6127 
686 719 1017 720 6127 8043 8044 6133 6135 8045 
983 1017 984 686 8046 8047 7821 7811 8044 7816 
686 719 1016 1017 6127 8038 8042 8044 8043 8048 
983 1017 686 1016 8046 8044 7811 8040 8048 8042 
984 686 1017 687 7816 8044 8047 7818 5908 8049 
1017 686 720 687 8044 6133 8045 8049 5908 6134 
687 720 1018 721 6134 8050 8051 6140 6142 8052 
984 1018 985 687 8053 8054 7828 7818 8051 7823 
687 720 1017 1018 6134 8045 8049 8051 8050 8055 
984 1018 687 1017 8053 8051 7818 8047 8055 8049 
985 687 1018 688 7823 8051 8054 7825 5915 8056 
1018 687 721 688 8051 6140 8052 8056 5915 6141 
688 721 1019 722 6141 8057 8058 6147 6149 8059 
985 1019 986 688 8060 8061 7835 7825 8058 7830 
688 721 1018 1019 6141 8052 8056 8058 8057 8062 
985 1019 688 1018 8060 8058 7825 8054 8062 8056 
986 688 1019 689 7830 8058 8061 7832 5922 8063 
1019 688 722 689 8058 6147 8059 8063 5922 6148 
689 722 1020 723 6148 8064 8065 6154 6156 8066 
986 1020 987 689 8067 8068 7842 7832 8065 7837 
689 722 1019 1020 6148 8059 8063 8065 8064 8069 
986 1020 689 1019 8067 8065 7832 8061 8069 8063 
987 689 1020 690 7837 8065 8068 7839 5929 8070 
1020 689 723 690 8065 6154 8066 8070 5929 6155 
690 723 1021 724 6155 8071 8072 6161 6163 8073 
987 1021 988 690 8074 8075 7849 7839 8072 7844 
690 723 1020 1021 6155 8066 8070 8072 8071 8076 
987 1021 690 1020 8074 8072 7839 8068 8076 8070 
988 690 1021 691 7844 8072 8075 7846 5936 8077 
1021 690 724 691 8072 6161 8073 8077 5936 6162 
691 724 1022 725 6162 8078 8079 6168 6170 8080 
988 1022 989 691 8081 8082 7856 7846 8079 7851 
691 724 1021 1022 6162 8073 8077 8079 8078 8083 
988 1022 691 1021 8081 8079 7846 8075 8083 8077 
989 691 1022 692 7851 8079 8082 7853 5943 8084 
1022 691 725 692 8079 6168 8080 8084 5943 6169 
693 726 1024 727 6180 8085 8086 6175 6179 8087 
990 1024 991 693 8088 8089 7865 7863 8086 7858 
693 726 1023 1024 6180 8090 8091 8086 8085 8092 
990 1024 693 1023 8088 8086 7863 8093 8092 8091 
991 693 1024 694 7858 8086 8089 7860 5952 8094 
1024 693 727 694 8086 6175 8087 8094 5952 6176 
694 727 1025 728 6176 8095 8096 6185 6187 8097 
991 1025 992 694 8098 8099 7873 7860 8096 7868 
694 727 1024 1025 6176 8087 8094 8096 8095 8100 
991 1025 694 1024 8098 8096 7860 8089 8100 8094 
992 694 1025 695 7868 8096 8099 7870 5960 8101 
1025 694 728 695 8096 6185 8097 8101 5960 6186 
695 728 1026 729 6186 8102 8103 6192 6194 8104 
992 1026 993 695 8105 8106 7880 7870 8103 7875 
695 728 1025 1026 6186 8097 8101 8103 8102 8107 
992 1026 695 1025 8105 8103 7870 8099 8107 8101 
993 695 1026 696 7875 8103 8106 7877 5967 8108 
1026 695 729 696 8103 6192 8104 8108 5967 6193 
696 729 1027 730 6193 8109 8110 6199 6201 8111 
993 1027 994 696 8112 8113 7887 7877 8110 7882 
696 729 1026 1027 6193 8104 8108 8110 8109 8114 
993 1027 696 1026 8112 8110 7877 8106 8114 8108 
994 696 1027 697 7882 8110 8113 7884 5974 8115 
1027 696 730 697 8110 6199 8111 8115 5974 6200 
697 730 1028 731 6200 8116 8117 6206 6208 8118 
994 1028 995 697 8119 8120 7894 7884 8117 7889 
697 730 1027 1028 6200 8111 8115 8117 8116 8121 
994 1028 697 1027 8119 8117 7884 8113 8121 8115 
995 697 1028 698 7889 8117 8120 7891 5981 8122 
1028 697 731 698 8117 6206 8118 8122 5981 6207 
698 731 1029 732 6207 8123 8124 6213 6215 8125 
995 1029 996 698 8126 8127 7901 7891 8124 7896 
698 731 1028 1029 6207 8118 8122 8124 8123 8128 
995 1029 698 1028 8126 8124 7891 8120 8128 8122 
996 698 1029 699 7896 8124 8127 7898 5988 8129 
1029 698 732 699 8124 6213 8125 8129 5988 6214 
699 732 1030 733 6214 8130 8131 6220 6222 8132 
996 1030 997 699 8133 8134 7908 7898 8131 7903 
699 732 1029 1030 6214 8125 8129 8131 8130 8135 
996 1030 699 1029 8133 8131 7898 8127 8135 8129 
997 699 1030 700 7903 8131 8134 7905 5995 8136 
1030 699 733 700 8131 6220 8132 8136 5995 6221 
700 733 1031 734 6221 8137 8138 6227 6229 8139 
997 1031 998 700 8140 8141 7915 7905 8138 7910 
700 733 1030 1031 6221 8132 8136 8138 8137 8142 
997 1031 700 1030 8140 8138 7905 8134 8142 8136 
998 700 1031 701 7910 8138 8141 7912 6002 8143 
1031 700 734 701 8138 6227 8139 8143 6002 6228 
701 734 1032 735 6228 8144 8145 6234 6236 8146 
998 1032 999 701 8147 8148 7922 7912 8145 7917 
701 734 1031 1032 6228 8139 8143 8145 8144 8149 
998 1032 701 1031 8147 8145 7912 8141 8149 8143 
999 701 1032 702 7917 8145 8148 7919 6009 8150 
1032 701 735 702 8145 6234 8146 8150 6009 6235 
702 735 1033 736 6235 8151 8152 6241 6243 8153 
999 1033 1000 702 8154 8155 7929 7919 8152 7924 
702 735 1032 1033 6235 8146 8150 8152 8151 8156 
999 1033 702 1032 8154 8152 7919 8148 8156 8150 
1000 702 1033 703 7924 8152 8155 7926 6016 8157 
1033 702 736 703 8152 6241 8153 8157 6016 6242 
703 736 1034 737 6242 8158 8159 6248 6250 8160 
1000 1034 1001 703 8161 8162 7936 7926 8159 7931 
703 736 1033 1034 6242 8153 8157 8159 8158 8163 
1000 1034 703 1033 8161 8159 7926 8155 8163 8157 
1001 703 1034 704 7931 8159 8162 7933 6023 8164 
1034 703 737 704 8159 6248 8160 8164 6023 6249 
704 737 1035 738 6249 8165 8166 6255 6257 8167 
1001 1035 1002 704 8168 8169 7943 7933 8166 7938 
704 737 1034 1035 6249 8160 8164 8166 8165 8170 
1001 1035 704 1034 8168 8166 7933 8162 8170 8164 
1002 704 1035 705 7938 8166 8169 7940 6030 8171 
1035 704 738 705 8166 6255 8167 8171 6030 6256 
705 738 1036 739 6256 8172 8173 6262 6264 8174 
1002 1036 1003 705 8175 8176 7950 7940 8173 7945 
705 738 1035 1036 6256 8167 8171 8173 8172 8177 
1002 1036 705 1035 8175 8173 7940 8169 8177 8171 
1003 705 1036 706 7945 8173 8176 7947 6037 8178 
1036 705 739 706 8173 6262 8174 8178 6037 6263 
706 739 1037 740 6263 8179 8180 6269 6271 8181 
1003 1037 1004 706 8182 8183 7957 7947 8180 7952 
706 739 1036 1037 6263 8174 8178 8180 8179 8184 
1003 1037 706 1036 8182 8180 7947 8176 8184 8178 
1004 706 1037 707 7952 8180 8183 7954 6044 8185 
1037 706 740 707 8180 6269 8181 8185 6044 6270 
707 740 1038 741 6270 8186 8187 6276 6278 8188 
1004 1038 1005 707 8189 8190 7964 7954 8187 7959 
707 740 1037 1038 6270 8181 8185 8187 8186 8191 
1004 1038 707 1037 8189 8187 7954 8183 8191 8185 
1005 707 1038 708 7959 8187 8190 7961 6051 8192 
1038 707 741 708 8187 6276 8188 8192 6051 6277 
708 741 1039 742 6277 8193 8194 6283 6285 8195 
1005 1039 1006 708 8196 8197 7971 7961 8194 7966 
708 741 1038 1039 6277 8188 8192 8194 8193 8198 
1005 1039 708 1038 8196 8194 7961 8190 8198 8192 
1006 708 1039 709 7966 8194 8197 7968 6058 8199 
1039 708 742 709 8194 6283 8195 8199 6058 6284 
709 742 1040 743 6284 8200 8201 6290 6292 8202 
1006 1040 1007 709 8203 8204 7978 7968 8201 7973 
709 742 1039 1040 6284 8195 8199 8201 8200 8205 
1006 1040 709 1039 8203 8201 7968 8197 8205 8199 
1007 709 1040 710 7973 8201 8204 7975 6065 8206 
1040 709 743 710 8201 6290 8202 8206 6065 6291 
710 743 1041 744 6291 8207 8208 6297 6299 8209 
1007 1041 1008 710 8210 8211 7985 7975 8208 7980 
710 743 1040 1041 6291 8202 8206 8208 8207 8212 
1007 1041 710 1040 8210 8208 7975 8204 8212 8206 
1008 710 1041 711 7980 8208 8211 7982 6072 8213 
1041 710 744 711 8208 6297 8209 8213 6072 6298 
711 744 1042 745 6298 8214 8215 6304 6306 8216 
1008 1042 1009 711 8217 8218 7992 7982 8215 7987 
711 744 1041 1042 6298 8209 8213 8215 8214 8219 
1008 1042 711 1041 8217 8215 7982 8211 8219 8213 
1009 711 1042 712 7987 8215 8218 7989 6079 8220 
1042 711 745 712 8215 6304 8216 8220 6079 6305 
712 745 1043 746 6305 8221 8222 6311 6313 8223 
1009 1043 1010 712 8224 8225 7999 7989 8222 7994 
712 745 1042 1043 6305 8216 8220 8222 8221 8226 
1009 1043 712 1042 8224 8222 7989 8218 8226 8220 
1010 712 1043 713 7994 8222 8225 7996 6086 8227 
1043 712 746 713 8222 6311 8223 8227 6086 6312 
713 746 1044 747 6312 8228 8229 6318 6320 8230 
1010 1044 1011 713 8231 8232 8006 7996 8229 8001 
713 746 1043 1044 6312 8223 8227 8229 8228 8233 
1010 1044 713 1043 8231 8229 7996 8225 8233 8227 
1011 713 1044 714 8001 8229 8232 8003 6093 8234 
1044 713 747 714 8229 6318 8230 8234 6093 6319 
714 747 1045 748 6319 8235 8236 6325 6327 8237 
1011 1045 1012 714 8238 8239 8013 8003 8236 8008 
714 747 1044 1045 6319 8230 8234 8236 8235 8240 
1011 1045 714 1044 8238 8236 8003 8232 8240 8234 
1012 714 1045 715 8008 8236 8239 8010 6100 8241 
1045 714 748 715 8236 6325 8237 8241 6100 6326 
715 748 1046 749 6326 8242 8243 6332 6334 8244 
1012 1046 1013 715 8245 8246 8020 8010 8243 8015 
715 748 1045 1046 6326 8237 8241 8243 8242 8247 
1012 1046 715 1045 8245 8243 8010 8239 8247 8241 
1013 715 1046 716 8015 8243 8246 8017 6107 8248 
1046 715 749 716 8243 6332 8244 8248 6107 6333 
716 749 1047 750 6333 8249 8250 6339 6341 8251 
1013 1047 1014 716 8252 8253 8027 8017 8250 8022 
716 749 1046 1047 6333 8244 8248 8250 8249 8254 
1013 1047 716 1046 8252 8250 8017 8246 8254 8248 
1014 716 1047 717 8022 8250 8253 8024 6114 8255 
1047 716 750 717 8250 6339 8251 8255 6114 6340 
717 750 1048 751 6340 8256 8257 6346 6348 8258 
1014 1048 1015 717 8259 8260 8034 8024 8257 8029 
717 750 1047 1048 6340 8251 8255 8257 8256 8261 
1014 1048 717 1047 8259 8257 8024 8253 8261 8255 
1015 717 1048 718 8029 8257 8260 8031 6121 8262 
1048 717 751 718 8257 6346 8258 8262 6121 6347 
718 751 1049 752 6347 8263 8264 6353 6355 8265 
1015 1049 1016 718 8266 8267 8041 8031 8264 8036 
718 751 1048 1049 6347 8258 8262 8264 8263 8268 
1015 1049 718 1048 8266 8264 8031 8260 8268 8262 
1016 718 1049 719 8036 8264 8267 8038 6128 8269 
1049 718 752 719 8264 6353 8265 8269 6128 6354 
719 752 1050 753 6354 8270 8271 6360 6362 8272 
1016 1050 1017 719 8273 8274 8048 8038 8271 8043 
719 752 1049 1050 6354 8265 8269 8271 8270 8275 
1016 1050 719 1049 8273 8271 8038 8267 8275 8269 
1017 719 1050 720 8043 8271 8274 8045 6135 8276 
1050 719 753 720 8271 6360 8272 8276 6135 6361 
720 753 1051 754 6361 8277 8278 6367 6369 8279 
1017 1051 1018 720 8280 8281 8055 8045 8278 8050 
720 753 1050 1051 6361 8272 8276 8278 8277 8282 
1017 1051 720 1050 8280 8278 8045 8274 8282 8276 
1018 720 1051 721 8050 8278 8281 8052 6142 8283 
1051 720 754 721 8278 6367 8279 8283 6142 6368 
721 754 1052 755 6368 8284 8285 6374 6376 8286 
1018 1052 1019 721 8287 8288 8062 8052 8285 8057 
721 754 1051 1052 6368 8279 8283 8285 8284 8289 
1018 1052 721 1051 8287 8285 8052 8281 8289 8283 
1019 721 1052 722 8057 8285 8288 8059 6149 8290 
1052 721 755 722 8285 6374 8286 8290 6149 6375 
722 755 1053 756 6375 8291 8292 6381 6383 8293 
1019 1053 1020 722 8294 8295 8069 8059 8292 8064 
722 755 1052 1053 6375 8286 8290 8292 8291 8296 
1019 1053 722 1052 8294 8292 8059 8288 8296 8290 
1020 722 1053 723 8064 8292 8295 8066 6156 8297 
1053 722 756 723 8292 6381 8293 8297 6156 6382 
723 756 1054 757 6382 8298 8299 6388 6390 8300 
1020 1054 1021 723 8301 8302 8076 8066 8299 8071 
723 756 1053 1054 6382 8293 8297 8299 8298 8303 
1020 1054 723 1053 8301 8299 8066 8295 8303 8297 
1021 723 1054 724 8071 8299 8302 8073 6163 8304 
1054 723 757 724 8299 6388 8300 8304 6163 6389 
724 757 1055 758 6389 8305 8306 6395 6397 8307 
1021 1055 1022 724 8308 8309 8083 8073 8306 8078 
724 757 1054 1055 6389 8300 8304 8306 8305 8310 
1021 1055 724 1054 8308 8306 8073 8302 8310 8304 
1022 724 1055 725 8078 8306 8309 8080 6170 8311 
1055 724 758 725 8306 6395 8307 8311 6170 6396 
726 759 1057 760 6407 8312 8313 6402 6406 8314 
1023 1057 1024 726 8315 8316 8092 8090 8313 8085 
726 759 1056 1057 6407 8317 8318 8313 8312 8319 
1023 1057 726 1056 8315 8313 8090 8320 8319 8318 
1024 726 1057 727 8085 8313 8316 8087 6179 8321 
1057 726 760 727 8313 6402 8314 8321 6179 6403 
727 760 1058 761 6403 8322 8323 6412 6414 8324 
1024 1058 1025 727 8325 8326 8100 8087 8323 8095 
727 760 1057 1058 6403 8314 8321 8323 8322 8327 
1024 1058 727 1057 8325 8323 8087 8316 8327 8321 
1025 727 1058 728 8095 8323 8326 8097 6187 8328 
1058 727 761 728 8323 6412 8324 8328 6187 6413 
728 761 1059 762 6413 8329 8330 6419 6421 8331 
1025 1059 1026 728 8332 8333 8107 8097 8330 8102 
728 761 1058 1059 6413 8324 8328 8330 8329 8334 
1025 1059 728 1058 8332 8330 8097 8326 8334 8328 
1026 728 1059 729 8102 8330 8333 8104 6194 8335 
1059 728 762 729 8330 6419 8331 8335 6194 6420 
729 762 1060 763 6420 8336 8337 6426 6428 8338 
1026 1060 1027 729 8339 8340 8114 8104 8337 8109 
729 762 1059 1060 6420 8331 8335 8337 8336 8341 
1026 1060 729 1059 8339 8337 8104 8333 8341 8335 
1027 729 1060 730 8109 8337 8340 8111 6201 8342 
1060 729 763 730 8337 6426 8338 8342 6201 6427 
730 763 1061 764 6427 8343 8344 6433 6435 8345 
1027 1061 1028 730 8346 8347 8121 8111 8344 8116 
730 763 1060 1061 6427 8338 8342 8344 8343 8348 
1027 1061 730 1060 8346 8344 8111 8340 8348 8342 
1028 730 1061 731 8116 8344 8347 8118 6208 8349 
1061 730 764 731 8344 6433 8345 8349 6208 6434 
731 764 1062 765 6434 8350 8351 6440 6442 8352 
1028 1062 1029 731 8353 8354 8128 8118 8351 8123 
731 764 1061 1062 6434 8345 8349 8351 8350 8355 
1028 1062 731 1061 8353 8351 8118 8347 8355 8349 
1029 731 1062 732 8123 8351 8354 8125 6215 8356 
1062 731 765 732 8351 6440 8352 8356 6215 6441 
732 765 1063 766 6441 8357 8358 6447 6449 8359 
1029 1063 1030 732 8360 8361 8135 8125 8358 8130 
732 765 1062 1063 6441 8352 8356 8358 8357 8362 
1029 1063 732 1062 8360 8358 8125 8354 8362 8356 
1030 732 1063 733 8130 8358 8361 8132 6222 8363 
1063 732 766 733 8358 6447 8359 8363 6222 6448 
733 766 1064 767 6448 8364 8365 6454 6456 8366 
1030 1064 1031 733 8367 8368 8142 8132 8365 8137 
733 766 1063 1064 6448 8359 8363 8365 8364 8369 
1030 1064 733 1063 8367 8365 8132 8361 8369 8363 
1031 733 1064 734 8137 8365 8368 8139 6229 8370 
1064 733 767 734 8365 6454 8366 8370 6229 6455 
734 767 1065 768 6455 8371 8372 6461 6463 8373 
1031 1065 1032 734 8374 8375 8149 8139 8372 8144 
734 767 1064 1065 6455 8366 8370 8372 8371 8376 
1031 1065 734 1064 8374 8372 8139 8368 8376 8370 
1032 734 1065 735 8144 8372 8375 8146 6236 8377 
1065 734 768 735 8372 6461 8373 8377 6236 6462 
735 768 1066 769 6462 8378 8379 6468 6470 8380 
1032 1066 1033 735 8381 8382 8156 8146 8379 8151 
735 768 1065 1066 6462 8373 8377 8379 8378 8383 
1032 1066 735 1065 8381 8379 8146 8375 8383 8377 
1033 735 1066 736 8151 8379 8382 8153 6243 8384 
1066 735 769 736 8379 6468 8380 8384 6243 6469 
736 769 1067 770 6469 8385 8386 6475 6477 8387 
1033 1067 1034 736 8388 8389 8163 8153 8386 8158 
736 769 1066 1067 6469 8380 8384 8386 8385 8390 
1033 1067 736 1066 8388 8386 8153 8382 8390 8384 
1034 736 1067 737 8158 8386 8389 8160 6250 8391 
1067 736 770 737 8386 6475 8387 8391 6250 6476 
737 770 1068 771 6476 8392 8393 6482 6484 8394 
1034 1068 1035 737 8395 8396 8170 8160 8393 8165 
737 770 1067 1068 6476 8387 8391 8393 8392 8397 
1034 1068 737 1067 8395 8393 8160 8389 8397 8391 
1035 737 1068 738 8165 8393 8396 8167 6257 8398 
1068 737 771 738 8393 6482 8394 8398 6257 6483 
738 771 1069 772 6483 8399 8400 6489 6491 8401 
1035 1069 1036 738 8402 8403 8177 8167 8400 8172 
738 771 1068 1069 6483 8394 8398 8400 8399 8404 
1035 1069 738 1068 8402 8400 8167 8396 8404 8398 
1036 738 1069 739 8172 8400 8403 8174 6264 8405 
1069 738 772 739 8400 6489 8401 8405 6264 6490 
739 772 1070 773 6490 8406 8407 6496 6498 8408 
1036 1070 1037 739 8409 8410 8184 8174 8407 8179 
739 772 1069 1070 6490 8401 8405 8407 8406 8411 
1036 1070 739 1069 8409 8407 8174 8403 8411 8405 
1037 739 1070 740 8179 8407 8410 8181 6271 8412 
1070 739 773 740 8407 6496 8408 8412 6271 6497 
740 773 1071 774 6497 8413 8414 6503 6505 8415 
1037 1071 1038 740 8416 8417 8191 8181 8414 8186 
740 773 1070 1071 6497 8408 8412 8414 8413 8418 
1037 1071 740 1070 8416 8414 8181 8410 8418 8412 
1038 740 1071 741 8186 8414 8417 8188 6278 8419 
1071 740 774 741 8414 6503 8415 8419 6278 6504 
741 774 1072 775 6504 8420 8421 6510 6512 8422 
1038 1072 1039 741 8423 8424 8198 8188 8421 8193 
741 774 1071 1072 6504 8415 8419 8421 8420 8425 
1038 1072 741 1071 8423 8421 8188 8417 8425 8419 
1039 741 1072 742 8193 8421 8424 8195 6285 8426 
1072 741 775 742 8421 6510 8422 8426 6285 6511 
742 775 1073 776 6511 8427 8428 6517 6519 8429 
1039 1073 1040 742 8430 8431 8205 8195 8428 8200 
742 775 1072 1073 6511 8422 8426 8428 8427 8432 
1039 1073 742 1072 8430 8428 8195 8424 8432 8426 
1040 742 1073 743 8200 8428 8431 8202 6292 8433 
1073 742 776 743 8428 6517 8429 8433 6292 6518 
743 776 1074 777 6518 8434 8435 6524 6526 8436 
1040 1074 1041 743 8437 8438 8212 8202 8435 8207 
743 776 1073 1074 6518 8429 8433 8435 8434 8439 
1040 1074 743 1073 8437 8435 8202 8431 8439 8433 
1041 743 1074 744 8207 8435 8438 8209 6299 8440 
1074 743 777 744 8435 6524 8436 8440 6299 6525 
744 777 1075 778 6525 8441 8442 6531 6533 8443 
1041 1075 1042 744 8444 8445 8219 8209 8442 8214 
744 777 1074 1075 6525 8436 8440 8442 8441 8446 
1041 1075 744 1074 8444 8442 8209 8438 8446 8440 
1042 744 1075 745 8214 8442 8445 8216 6306 8447 
1075 744 778 745 8442 6531 8443 8447 6306 6532 
745 778 1076 779 6532 8448 8449 6538 6540 8450 
1042 1076 1043 745 8451 8452 8226 8216 8449 8221 
745 778 1075 1076 6532 8443 8447 8449 8448 8453 
1042 1076 745 1075 8451 8449 8216 8445 8453 8447 
1043 745 1076 746 8221 8449 8452 8223 6313 8454 
1076 745 779 746 8449 6538 8450 8454 6313 6539 
746 779 1077 780 6539 8455 8456 6545 6547 8457 
1043 1077 1044 746 8458 8459 8233 8223 8456 8228 
746 779 1076 1077 6539 8450 8454 8456 8455 8460 
1043 1077 746 1076 8458 8456 8223 8452 8460 8454 
1044 746 1077 747 8228 8456 8459 8230 6320 8461 
1077 746 780 747 8456 6545 8457 8461 6320 6546 
747 780 1078 781 6546 8462 8463 6552 6554 8464 
1044 1078 1045 747 8465 8466 8240 8230 8463 8235 
747 780 1077 1078 6546 8457 8461 8463 8462 8467 
1044 1078 747 1077 8465 8463 8230 8459 8467 8461 
1045 747 1078 748 8235 8463 8466 8237 6327 8468 
1078 747 781 748 8463 6552 8464 8468 6327 6553 
748 781 1079 782 6553 8469 8470 6559 6561 8471 
1045 1079 1046 748 8472 8473 8247 8237 8470 8242 
748 781 1078 1079 6553 8464 8468 8470 8469 8474 
1045 1079 748 1078 8472 8470 8237 8466 8474 8468 
1046 748 1079 749 8242 8470 8473 8244 6334 8475 
1079 748 782 749 8470 6559 8471 8475 6334 6560 
749 782 1080 783 6560 8476 8477 6566 6568 8478 
1046 1080 1047 749 8479 8480 8254 8244 8477 8249 
749 782 1079 1080 6560 8471 8475 8477 8476 8481 
1046 1080 749 1079 8479 8477 8244 8473 8481 8475 
1047 749 1080 750 8249 8477 8480 8251 6341 8482 
1080 749 783 750 8477 6566 8478 8482 6341 6567 
750 783 1081 784 6567 8483 8484 6573 6575 8485 
1047 1081 1048 750 8486 8487 8261 8251 8484 8256 
750 783 1080 1081 6567 8478 8482 8484 8483 8488 
1047 1081 750 1080 8486 8484 8251 8480 8488 8482 
1048 750 1081 751 8256 8484 8487 8258 6348 8489 
1081 750 784 751 8484 6573 8485 8489 6348 6574 
751 784 1082 785 6574 8490 8491 6580 6582 8492 
1048 1082 1049 751 8493 8494 8268 8258 8491 8263 
751 784 1081 1082 6574 8485 8489 8491 8490 8495 
1048 1082 751 1081 8493 8491 8258 8487 8495 8489 
1049 751 1082 752 8263 8491 8494 8265 6355 8496 
1082 751 785 752 8491 6580 8492 8496 6355 6581 
752 785 1083 786 6581 8497 8498 6587 6589 8499 
1049 1083 1050 752 8500 8501 8275 8265 8498 8270 
752 785 1082 1083 6581 8492 8496 8498 8497 8502 
1049 1083 752 1082 8500 8498 8265 8494 8502 8496 
1050 752 1083 753 8270 8498 8501 8272 6362 8503 
1083 752 786 753 8498 6587 8499 8503 6362 6588 
753 786 1084 787 6588 8504 8505 6594 6596 8506 
1050 1084 1051 753 8507 8508 8282 8272 8505 8277 
753 786 1083 1084 6588 8499 8503 8505 8504 8509 
1050 1084 753 1083 8507 8505 8272 8501 8509 8503 
1051 753 1084 754 8277 8505 8508 8279 6369 8510 
1084 753 787 754 8505 6594 8506 8510 6369 6595 
754 787 1085 788 6595 8511 8512 6601 6603 8513 
1051 1085 1052 754 8514 8515 8289 8279 8512 8284 
754 787 1084 1085 6595 8506 8510 8512 8511 8516 
1051 1085 754 1084 8514 8512 8279 8508 8516 8510 
1052 754 1085 755 8284 8512 8515 8286 6376 8517 
1085 754 788 755 8512 6601 8513 8517 6376 6602 
755 788 1086 789 6602 8518 8519 6608 6610 8520 
1052 1086 1053 755 8521 8522 8296 8286 8519 8291 
755 788 1085 1086 6602 8513 8517 8519 8518 8523 
1052 1086 755 1085 8521 8519 8286 8515 8523 8517 
1053 755 1086 756 8291 8519 8522 8293 6383 8524 
1086 755 789 756 8519 6608 8520 8524 6383 6609 
756 789 1087 790 6609 8525 8526 6615 6617 8527 
1053 1087 1054 756 8528 8529 8303 8293 8526 8298 
756 789 1086 1087 6609 8520 8524 8526 8525 8530 
1053 1087 756 1086 8528 8526 8293 8522 8530 8524 
1054 756 1087 757 8298 8526 8529 8300 6390 8531 
1087 756 790 757 8526 6615 8527 8531 6390 6616 
757 790 1088 791 6616 8532 8533 6622 6624 8534 
1054 1088 1055 757 8535 8536 8310 8300 8533 8305 
757 790 1087 1088 6616 8527 8531 8533 8532 8537 
1054 1088 757 1087 8535 8533 8300 8529 8537 8531 
1055 757 1088 758 8305 8533 8536 8307 6397 8538 
1088 757 791 758 8533 6622 8534 8538 6397 6623 
759 792 1090 793 6634 8539 8540 6629 6633 8541 
1056 1090 1057 759 8542 8543 8319 8317 8540 8312 
759 792 1089 1090 6634 8544 8545 8540 8539 8546 
1056 1090 759 1089 8542 8540 8317 8547 8546 8545 
1057 759 1090 760 8312 8540 8543 8314 6406 8548 
1090 759 793 760 8540 6629 8541 8548 6406 6630 
760 793 1091 794 6630 8549 8550 6639 6641 8551 
1057 1091 1058 760 8552 8553 8327 8314 8550 8322 
760 793 1090 1091 6630 8541 8548 8550 8549 8554 
1057 1091 760 1090 8552 8550 8314 8543 8554 8548 
1058 760 1091 761 8322 8550 8553 8324 6414 8555 
1091 760 794 761 8550 6639 8551 8555 6414 6640 
761 794 1092 795 6640 8556 8557 6646 6648 8558 
1058 1092 1059 761 8559 8560 8334 8324 8557 8329 
761 794 1091 1092 6640 8551 8555 8557 8556 8561 
1058 1092 761 1091 8559 8557 8324 8553 8561 8555 
1059 761 1092 762 8329 8557 8560 8331 6421 8562 
1092 761 795 762 8557 6646 8558 8562 6421 6647 
762 795 1093 796 6647 8563 8564 6653 6655 8565 
1059 1093 1060 762 8566 8567 8341 8331 8564 8336 
762 795 1092 1093 6647 8558 8562 8564 8563 8568 
1059 1093 762 1092 8566 8564 8331 8560 8568 8562 
1060 762 1093 763 8336 8564 8567 8338 6428 8569 
1093 762 796 763 8564 6653 8565 8569 6428 6654 
763 796 1094 797 6654 8570 8571 6660 6662 8572 
1060 1094 1061 763 8573 8574 8348 8338 8571 8343 
763 796 1093 1094 6654 8565 8569 8571 8570 8575 
1060 1094 763 1093 8573 8571 8338 8567 8575 8569 
1061 763 1094 764 8343 8571 8574 8345 6435 8576 
1094 763 797 764 8571 6660 8572 8576 6435 6661 
764 797 1095 798 6661 8577 8578 6667 6669 8579 
1061 1095 1062 764 8580 8581 8355 8345 8578 8350 
764 797 1094 1095 6661 8572 8576 8578 8577 8582 
1061 1095 764 1094 8580 8578 8345 8574 8582 8576 
1062 764 1095 765 8350 8578 8581 8352 6442 8583 
1095 764 798 765 8578 6667 8579 8583 6442 6668 
765 798 1096 799 6668 8584 8585 6674 6676 8586 
1062 1096 1063 765 8587 8588 8362 8352 8585 8357 
765 798 1095 1096 6668 8579 8583 8585 8584 8589 
1062 1096 765 1095 8587 8585 8352 8581 8589 8583 
1063 765 1096 766 8357 8585 8588 8359 6449 8590 
1096 765 799 766 8585 6674 8586 8590 6449 6675 
766 799 1097 800 6675 8591 8592 6681 6683 8593 
1063 1097 1064 766 8594 8595 8369 8359 8592 8364 
766 799 1096 1097 6675 8586 8590 8592 8591 8596 
1063 1097 766 1096 8594 8592 8359 8588 8596 8590 
1064 766 1097 767 8364 8592 8595 8366 6456 8597 
1097 766 800 767 8592 6681 8593 8597 6456 6682 
767 800 1098 801 6682 8598 8599 6688 6690 8600 
1064 1098 1065 767 8601 8602 8376 8366 8599 8371 
767 800 1097 1098 6682 8593 8597 8599 8598 8603 
1064 1098 767 1097 8601 8599 8366 8595 8603 8597 
1065 767 1098 768 8371 8599 8602 8373 6463 8604 
1098 767 801 768 8599 6688 8600 8604 6463 6689 
768 801 1099 802 6689 8605 8606 6695 6697 8607 
1065 1099 1066 768 8608 8609 8383 8373 8606 8378 
768 801 1098 1099 6689 8600 8604 8606 8605 8610 
1065 1099 768 1098 8608 8606 8373 8602 8610 8604 
1066 768 1099 769 8378 8606 8609 8380 6470 8611 
1099 768 802 769 8606 6695 8607 8611 6470 6696 
769 802 1100 803 6696 8612 8613 6702 6704 8614 
1066 1100 1067 769 8615 8616 8390 8380 8613 8385 
769 802 1099 1100 6696 8607 8611 8613 8612 8617 
1066 1100 769 1099 8615 8613 8380 8609 8617 8611 
1067 769 1100 770 8385 8613 8616 8387 6477 8618 
1100 769 803 770 8613 6702 8614 8618 6477 6703 
770 803 1101 804 6703 8619 8620 6709 6711 8621 
1067 1101 1068 770 8622 8623 8397 8387 8620 8392 
770 803 1100 1101 6703 8614 8618 8620 8619 8624 
1067 1101 770 1100 8622 8620 8387 8616 8624 8618 
1068 770 1101 771 8392 8620 8623 8394 6484 8625 
1101 770 804 771 8620 6709 8621 8625 6484 6710 
771 804 1102 805 6710 8626 8627 6716 6718 8628 
1068 1102 1069 771 8629 8630 8404 8394 8627 8399 
771 804 1101 1102 6710 8621 8625 8627 8626 8631 
1068 1102 771 1101 8629 8627 8394 8623 8631 8625 
1069 771 1102 772 8399 8627 8630 8401 6491 8632 
1102 771 805 772 8627 6716 8628 8632 6491 6717 
772 805 1103 806 6717 8633 8634 6723 6725 8635 
1069 1103 1070 772 8636 8637 8411 8401 8634 8406 
772 805 1102 1103 6717 8628 8632 8634 8633 8638 
1069 1103 772 1102 8636 8634 8401 8630 8638 8632 
1070 772 1103 773 8406 8634 8637 8408 6498 8639 
1103 772 806 773 8634 6723 8635 8639 6498 6724 
773 806 1104 807 6724 8640 8641 6730 6732 8642 
1070 1104 1071 773 8643 8644 8418 8408 8641 8413 
773 806 1103 1104 6724 8635 8639 8641 8640 8645 
1070 1104 773 1103 8643 8641 8408 8637 8645 8639 
1071 773 1104 774 8413 8641 8644 8415 6505 8646 
1104 773 807 774 8641 6730 8642 8646 6505 6731 
774 807 1105 808 6731 8647 8648 6737 6739 8649 
1071 1105 1072 774 8650 8651 8425 8415 8648 8420 
774 807 1104 1105 6731 8642 8646 8648 8647 8652 
1071 1105 774 1104 8650 8648 8415 8644 8652 8646 
1072 774 1105 775 8420 8648 8651 8422 6512 8653 
1105 774 808 775 8648 6737 8649 8653 6512 6738 
775 808 1106 809 6738 8654 8655 6744 6746 8656 
1072 1106 1073 775 8657 8658 8432 8422 8655 8427 
775 808 1105 1106 6738 8649 8653 8655 8654 8659 
1072 1106 775 1105 8657 8655 8422 8651 8659 8653 
1073 775 1106 776 8427 8655 8658 8429 6519 8660 
1106 775 809 776 8655 6744 8656 8660 6519 6745 
776 809 1107 810 6745 8661 8662 6751 6753 8663 
1073 1107 1074 776 8664 8665 8439 8429 8662 8434 
776 809 1106 1107 6745 8656 8660 8662 8661 8666 
1073 1107 776 1106 8664 8662 8429 8658 8666 8660 
1074 776 1107 777 8434 8662 8665 8436 6526 8667 
1107 776 810 777 8662 6751 8663 8667 6526 6752 
777 810 1108 811 6752 8668 8669 6758 6760 8670 
1074 1108 1075 777 8671 8672 8446 8436 8669 8441 
777 810 1107 1108 6752 8663 8667 8669 8668 8673 
1074 1108 777 1107 8671 8669 8436 8665 8673 8667 
1075 777 1108 778 8441 8669 8672 8443 6533 8674 
1108 777 811 778 8669 6758 8670 8674 6533 6759 
778 811 1109 812 6759 8675 8676 6765 6767 8677 
1075 1109 1076 778 8678 8679 8453 8443 8676 8448 
778 811 1108 1109 6759 8670 8674 8676 8675 8680 
1075 1109 778 1108 8678 8676 8443 8672 8680 8674 
1076 778 1109 779 8448 8676 8679 8450 6540 8681 
1109 778 812 779 8676 6765 8677 8681 6540 6766 
779 812 1110 813 6766 8682 8683 6772 6774 8684 
1076 1110 1077 779 8685 8686 8460 8450 8683 8455 
779 812 1109 1110 6766 8677 8681 8683 8682 8687 
1076 1110 779 1109 8685 8683 8450 8679 8687 8681 
1077 779 1110 780 8455 8683 8686 8457 6547 8688 
1110 779 813 780 8683 6772 8684 8688 6547 6773 
780 813 1111 814 6773 8689 8690 6779 6781 8691 
1077 1111 1078 780 8692 8693 8467 8457 8690 8462 
780 813 1110 1111 6773 8684 8688 8690 8689 8694 
1077 1111 780 1110 8692 8690 8457 8686 8694 8688 
1078 780 1111 781 8462 8690 8693 8464 6554 8695 
1111 780 814 781 8690 6779 8691 8695 6554 6780 
781 814 1112 815 6780 8696 8697 6786 6788 8698 
1078 1112 1079 781 8699 8700 8474 8464 8697 8469 
781 814 1111 1112 6780 8691 8695 8697 8696 8701 
1078 1112 781 1111 8699 8697 8464 8693 8701 8695 
1079 781 1112 782 8469 8697 8700 8471 6561 8702 
1112 781 815 782 8697 6786 8698 8702 6561 6787 
782 815 1113 816 6787 8703 8704 6793 6795 8705 
1079 1113 1080 782 8706 8707 8481 8471 8704 8476 
782 815 1112 1113 6787 8698 8702 8704 8703 8708 
1079 1113 782 1112 8706 8704 8471 8700 8708 8702 
1080 782 1113 783 8476 8704 8707 8478 6568 8709 
1113 782 816 783 8704 6793 8705 8709 6568 6794 
783 816 1114 817 6794 8710 8711 6800 6802 8712 
1080 1114 1081 783 8713 8714 8488 8478 8711 8483 
783 816 1113 1114 6794 8705 8709 8711 8710 8715 
1080 1114 783 1113 8713 8711 8478 8707 8715 8709 
1081 783 1114 784 8483 8711 8714 8485 6575 8716 
1114 783 817 784 8711 6800 8712 8716 6575 6801 
784 817 1115 818 6801 8717 8718 6807 6809 8719 
1081 1115 1082 784 8720 8721 8495 8485 8718 8490 
784 817 1114 1115 6801 8712 8716 8718 8717 8722 
1081 1115 784 1114 8720 8718 8485 8714 8722 8716 
1082 784 1115 785 8490 8718 8721 8492 6582 8723 
1115 784 818 785 8718 6807 8719 8723 6582 6808 
785 818 1116 819 6808 8724 8725 6814 6816 8726 
1082 1116 1083 785 8727 8728 8502 8492 8725 8497 
785 818 1115 1116 6808 8719 8723 8725 8724 8729 
1082 1116 785 1115 8727 8725 8492 8721 8729 8723 
1083 785 1116 786 8497 8725 8728 8499 6589 8730 
1116 785 819 786 8725 6814 8726 8730 6589 6815 
786 819 1117 820 6815 8731 8732 6821 6823 8733 
1083 1117 1084 786 8734 8735 8509 8499 8732 8504 
786 819 1116 1117 6815 8726 8730 8732 8731 8736 
1083 1117 786 1116 8734 8732 8499 8728 8736 8730 
1084 786 1117 787 8504 8732 8735 8506 6596 8737 
1117 786 820 787 8732 6821 8733 8737 6596 6822 
787 820 1118 821 6822 8738 8739 6828 6830 8740 
1084 1118 1085 787 8741 8742 8516 8506 8739 8511 
787 820 1117 1118 6822 8733 8737 8739 8738 8743 
1084 1118 787 1117 8741 8739 8506 8735 8743 8737 
1085 787 1118 788 8511 8739 8742 8513 6603 8744 
1118 787 821 788 8739 6828 8740 8744 6603 6829 
788 821 1119 822 6829 8745 8746 6835 6837 8747 
1085 1119 1086 788 8748 8749 8523 8513 8746 8518 
788 821 1118 1119 6829 8740 8744 8746 8745 8750 
1085 1119 788 1118 8748 8746 8513 8742 8750 8744 
1086 788 1119 789 8518 8746 8749 8520 6610 8751 
1119 788 822 789 8746 6835 8747 8751 6610 6836 
789 822 1120 823 6836 8752 8753 6842 6844 8754 
1086 1120 1087 789 8755 8756 8530 8520 8753 8525 
789 822 1119 1120 6836 8747 8751 8753 8752 8757 
1086 1120 789 1119 8755 8753 8520 8749 8757 8751 
1087 789 1120 790 8525 8753 8756 8527 6617 8758 
1120 789 823 790 8753 6842 8754 8758 6617 6843 
790 823 1121 824 6843 8759 8760 6849 6851 8761 
1087 1121 1088 790 8762 8763 8537 8527 8760 8532 
790 823 1120 1121 6843 8754 8758 8760 8759 8764 
1087 1121 790 1120 8762 8760 8527 8756 8764 8758 
1088 790 1121 791 8532 8760 8763 8534 6624 8765 
1121 790 824 791 8760 6849 8761 8765 6624 6850 
792 825 1123 826 6861 8766 8767 6856 6860 8768 
1089 1123 1090 792 8769 8770 8546 8544 8767 8539 
792 825 1122 1123 6861 8771 8772 8767 8766 8773 
1089 1123 792 1122 8769 8767 8544 8774 8773 8772 
1090 792 1123 793 8539 8767 8770 8541 6633 8775 
1123 792 826 793 8767 6856 8768 8775 6633 6857 
793 826 1124 827 6857 8776 8777 6866 6868 8778 
1090 1124 1091 793 8779 8780 8554 8541 8777 8549 
793 826 1123 1124 6857 8768 8775 8777 8776 8781 
1090 1124 793 1123 8779 8777 8541 8770 8781 8775 
1091 793 1124 794 8549 8777 8780 8551 6641 8782 
1124 793 827 794 8777 6866 8778 8782 6641 6867 
794 827 1125 828 6867 8783 8784 6873 6875 8785 
1091 1125 1092 794 8786 8787 8561 8551 8784 8556 
794 827 1124 1125 6867 8778 8782 8784 8783 8788 
1091 1125 794 1124 8786 8784 8551 8780 8788 8782 
1092 794 1125 795 8556 8784 8787 8558 6648 8789 
1125 794 828 795 8784 6873 8785 8789 6648 6874 
795 828 1126 829 6874 8790 8791 6880 6882 8792 
1092 1126 1093 795 8793 8794 8568 8558 8791 8563 
795 828 1125 1126 6874 8785 8789 8791 8790 8795 
1092 1126 795 1125 8793 8791 8558 8787 8795 8789 
1093 795 1126 796 8563 8791 8794 8565 6655 8796 
1126 795 829 796 8791 6880 8792 8796 6655 6881 
796 829 1127 830 6881 8797 8798 6887 6889 8799 
1093 1127 1094 796 8800 8801 8575 8565 8798 8570 
796 829 1126 1127 6881 8792 8796 8798 8797 8802 
1093 1127 796 1126 8800 8798 8565 8794 8802 8796 
1094 796 1127 797 8570 8798 8801 8572 6662 8803 
1127 796 830 797 8798 6887 8799 8803 6662 6888 
797 830 1128 831 6888 8804 8805 6894 6896 8806 
1094 1128 1095 797 8807 8808 8582 8572 8805 8577 
797 830 1127 1128 6888 8799 8803 8805 8804 8809 
1094 1128 797 1127 8807 8805 8572 8801 8809 8803 
1095 797 1128 798 8577 8805 8808 8579 6669 8810 
1128 797 831 798 8805 6894 8806 8810 6669 6895 
798 831 1129 832 6895 8811 8812 6901 6903 8813 
1095 1129 1096 798 8814 8815 8589 8579 8812 8584 
798 831 1128 1129 6895 8806 8810 8812 8811 8816 
1095 1129 798 1128 8814 8812 8579 8808 8816 8810 
1096 798 1129 799 8584 8812 8815 8586 6676 8817 
1129 798 832 799 8812 6901 8813 8817 6676 6902 
799 832 1130 833 6902 8818 8819 6908 6910 8820 
1096 1130 1097 799 8821 8822 8596 8586 8819 8591 
799 832 1129 1130 6902 8813 8817 8819 8818 8823 
1096 1130 799 1129 8821 8819 8586 8815 8823 8817 
1097 799 1130 800 8591 8819 8822 8593 6683 8824 
1130 799 833 800 8819 6908 8820 8824 6683 6909 
800 833 1131 834 6909 8825 8826 6915 6917 8827 
1097 1131 1098 800 8828 8829 8603 8593 8826 8598 
800 833 1130 1131 6909 8820 8824 8826 8825 8830 
1097 1131 800 1130 8828 8826 8593 8822 8830 8824 
1098 800 1131 801 8598 8826 8829 8600 6690 8831 
1131 800 834 801 8826 6915 8827 8831 6690 6916 
801 834 1132 835 6916 8832 8833 6922 6924 8834 
1098 1132 1099 801 8835 8836 8610 8600 8833 8605 
801 834 1131 1132 6916 8827 8831 8833 8832 8837 
1098 1132 801 1131 8835 8833 8600 8829 8837 8831 
1099 801 1132 802 8605 8833 8836 8607 6697 8838 
1132 801 835 802 8833 6922 8834 8838 6697 6923 
802 835 1133 836 6923 8839 8840 6929 6931 8841 
1099 1133 1100 802 8842 8843 8617 8607 8840 8612 
802 835 1132 1133 6923 8834 8838 8840 8839 8844 
1099 1133 802 1132 8842 8840 8607 8836 8844 8838 
1100 802 1133 803 8612 8840 8843 8614 6704 8845 
1133 802 836 803 8840 6929 8841 8845 6704 6930 
803 836 1134 837 6930 8846 8847 6936 6938 8848 
1100 1134 1101 803 8849 8850 8624 8614 8847 8619 
803 836 1133 1134 6930 8841 8845 8847 8846 8851 
1100 1134 803 1133 8849 8847 8614 8843 8851 8845 
1101 803 1134 804 8619 8847 8850 8621 6711 8852 
1134 803 837 804 8847 6936 8848 8852 6711 6937 
804 837 1135 838 6937 8853 8854 6943 6945 8855 
1101 1135 1102 804 8856 8857 8631 8621 8854 8626 
804 837 1134 1135 6937 8848 8852 8854 8853 8858 
1101 1135 804 1134 8856 8854 8621 8850 8858 8852 
1102 804 1135 805 8626 8854 8857 8628 6718 8859 
1135 804 838 805 8854 6943 8855 8859 6718 6944 
805 838 1136 839 6944 8860 8861 6950 6952 8862 
1102 1136 1103 805 8863 8864 8638 8628 8861 8633 
805 838 1135 1136 6944 8855 8859 8861 8860 8865 
1102 1136 805 1135 8863 8861 8628 8857 8865 8859 
1103 805 1136 806 8633 8861 8864 8635 6725 8866 
1136 805 839 806 8861 6950 8862 8866 6725 6951 
806 839 1137 840 6951 8867 8868 6957 6959 8869 
1103 1137 1104 806 8870 8871 8645 8635 8868 8640 
806 839 1136 1137 6951 8862 8866 8868 8867 8872 
1103 1137 806 1136 8870 8868 8635 8864 8872 8866 
1104 806 1137 807 8640 8868 8871 8642 6732 8873 
1137 806 840 807 8868 6957 8869 8873 6732 6958 
807 840 1138 841 6958 8874 8875 6964 6966 8876 
1104 1138 1105 807 8877 8878 8652 8642 8875 8647 
807 840 1137 1138 6958 8869 8873 8875 8874 8879 
1104 1138 807 1137 8877 8875 8642 8871 8879 8873 
1105 807 1138 808 8647 8875 8878 8649 6739 8880 
1138 807 841 808 8875 6964 8876 8880 6739 6965 
808 841 1139 842 6965 8881 8882 6971 6973 8883 
1105 1139 1106 808 8884 8885 8659 8649 8882 8654 
808 841 1138 1139 6965 8876 8880 8882 8881 8886 
1105 1139 808 1138 8884 8882 8649 8878 8886 8880 
1106 808 1139 809 8654 8882 8885 8656 6746 8887 
1139 808 842 809 8882 6971 8883 8887 6746 6972 
809 842 1140 843 6972 8888 8889 6978 6980 8890 
1106 1140 1107 809 8891 8892 8666 8656 8889 8661 
809 842 1139 1140 6972 8883 8887 8889 8888 8893 
1106 1140 809 1139 8891 8889 8656 8885 8893 8887 
1107 809 1140 810 8661 8889 8892 8663 6753 8894 
1140 809 843 810 8889 6978 8890 8894 6753 6979 
810 843 1141 844 6979 8895 8896 6985 6987 8897 
1107 1141 1108 810 8898 8899 8673 8663 8896 8668 
810 843 1140 1141 6979 8890 8894 8896 8895 8900 
1107 1141 810 1140 8898 8896 8663 8892 8900 8894 
1108 810 1141 811 8668 8896 8899 8670 6760 8901 
1141 810 844 811 8896 6985 8897 8901 6760 6986 
811 844 1142 845 6986 8902 8903 6992 6994 8904 
1108 1142 1109 811 8905 8906 8680 8670 8903 8675 
811 844 1141 1142 6986 8897 8901 8903 8902 8907 
1108 1142 811 1141 8905 8903 8670 8899 8907 8901 
1109 811 1142 812 8675 8903 8906 8677 6767 8908 
1142 811 845 812 8903 6992 8904 8908 6767 6993 
812 845 1143 846 6993 8909 8910 6999 7001 8911 
1109 1143 1110 812 8912 8913 8687 8677 8910 8682 
812 845 1142 1143 6993 8904 8908 8910 8909 8914 
1109 1143 812 1142 8912 8910 8677 8906 8914 8908 
1110 812 1143 813 8682 8910 8913 8684 6774 8915 
1143 812 846 813 8910 6999 8911 8915 6774 7000 
813 846 1144 847 7000 8916 8917 7006 7008 8918 
1110 1144 1111 813 8919 8920 8694 8684 8917 8689 
813 846 1143 1144 7000 8911 8915 8917 8916 8921 
1110 1144 813 1143 8919 8917 8684 8913 8921 8915 
1111 813 1144 814 8689 8917 8920 8691 6781 8922 
1144 813 847 814 8917 7006 8918 8922 6781 7007 
814 847 1145 848 7007 8923 8924 7013 7015 8925 
1111 1145 1112 814 8926 8927 8701 8691 8924 8696 
814 847 1144 1145 7007 8918 8922 8924 8923 8928 
1111 1145 814 1144 8926 8924 8691 8920 8928 8922 
1112 814 1145 815 8696 8924 8927 8698 6788 8929 
1145 814 848 815 8924 7013 8925 8929 6788 7014 
815 848 1146 849 7014 8930 8931 7020 7022 8932 
1112 1146 1113 815 8933 8934 8708 8698 8931 8703 
815 848 1145 1146 7014 8925 8929 8931 8930 8935 
1112 1146 815 1145 8933 8931 8698 8927 8935 8929 
1113 815 1146 816 8703 8931 8934 8705 6795 8936 
1146 815 849 816 8931 7020 8932 8936 6795 7021 
816 849 1147 850 7021 8937 8938 7027 7029 8939 
1113 1147 1114 816 8940 8941 8715 8705 8938 8710 
816 849 1146 1147 7021 8932 8936 8938 8937 8942 
1113 1147 816 1146 8940 8938 8705 8934 8942 8936 
1114 816 1147 817 8710 8938 8941 8712 6802 8943 
1147 816 850 817 8938 7027 8939 8943 6802 7028 
817 850 1148 851 7028 8944 8945 7034 7036 8946 
1114 1148 1115 817 8947 8948 8722 8712 8945 8717 
817 850 1147 1148 7028 8939 8943 8945 8944 8949 
1114 1148 817 1147 8947 8945 8712 8941 8949 8943 
1115 817 1148 818 8717 8945 8948 8719 6809 8950 
1148 817 851 818 8945 7034 8946 8950 6809 7035 
818 851 1149 852 7035 8951 8952 7041 7043 8953 
1115 1149 1116 818 8954 8955 8729 8719 8952 8724 
818 851 1148 1149 7035 8946 8950 8952 8951 8956 
1115 1149 818 1148 8954 8952 8719 8948 8956 8950 
1116 818 1149 819 8724 8952 8955 8726 6816 8957 
1149 818 852 819 8952 7041 8953 8957 6816 7042 
819 852 1150 853 7042 8958 8959 7048 7050 8960 
1116 1150 1117 819 8961 8962 8736 8726 8959 8731 
819 852 1149 1150 7042 8953 8957 8959 8958 8963 
1116 1150 819 1149 8961 8959 8726 8955 8963 8957 
1117 819 1150 820 8731 8959 8962 8733 6823 8964 
1150 819 853 820 8959 7048 8960 8964 6823 7049 
820 853 1151 854 7049 8965 8966 7055 7057 8967 
1117 1151 1118 820 8968 8969 8743 8733 8966 8738 
820 853 1150 1151 7049 8960 8964 8966 8965 8970 
1117 1151 820 1150 8968 8966 8733 8962 8970 8964 
1118 820 1151 821 8738 8966 8969 8740 6830 8971 
1151 820 854 821 8966 7055 8967 8971 6830 7056 
821 854 1152 855 7056 8972 8973 7062 7064 8974 
1118 1152 1119 821 8975 8976 8750 8740 8973 8745 
821 854 1151 1152 7056 8967 8971 8973 8972 8977 
1118 1152 821 1151 8975 8973 8740 8969 8977 8971 
1119 821 1152 822 8745 8973 8976 8747 6837 8978 
1152 821 855 822 8973 7062 8974 8978 6837 7063 
822 855 1153 856 7063 8979 8980 7069 7071 8981 
1119 1153 1120 822 8982 8983 8757 8747 8980 8752 
822 855 1152 1153 7063 8974 8978 8980 8979 8984 
1119 1153 822 1152 8982 8980 8747 8976 8984 8978 
1120 822 1153 823 8752 8980 8983 8754 6844 8985 
1153 822 856 823 8980 7069 8981 8985 6844 7070 
823 856 1154 857 7070 8986 8987 7076 7078 8988 
1120 1154 1121 823 8989 8990 8764 8754 8987 8759 
823 856 1153 1154 7070 8981 8985 8987 8986 8991 
1120 1154 823 1153 8989 8987 8754 8983 8991 8985 
1121 823 1154 824 8759 8987 8990 8761 6851 8992 
1154 823 857 824 8987 7076 8988 8992 6851 7077 
825 858 1156 859 7088 8993 8994 7083 7087 8995 
1122 1156 1123 825 8996 8997 8773 8771 8994 8766 
825 858 1155 1156 7088 8998 8999 8994 8993 9000 
1122 1156 825 1155 8996 8994 8771 9001 9000 8999 
1123 825 1156 826 8766 8994 8997 8768 6860 9002 
1156 825 859 826 8994 7083 8995 9002 6860 7084 
826 859 1157 860 7084 9003 9004 7093 7095 9005 
1123 1157 1124 826 9006 9007 8781 8768 9004 8776 
826 859 1156 1157 7084 8995 9002 9004 9003 9008 
1123 1157 826 1156 9006 9004 8768 8997 9008 9002 
1124 826 1157 827 8776 9004 9007 8778 6868 9009 
1157 826 860 827 9004 7093 9005 9009 6868 7094 
827 860 1158 861 7094 9010 9011 7100 7102 9012 
1124 1158 1125 827 9013 9014 8788 8778 9011 8783 
827 860 1157 1158 7094 9005 9009 9011 9010 9015 
1124 1158 827 1157 9013 9011 8778 9007 9015 9009 
1125 827 1158 828 8783 9011 9014 8785 6875 9016 
1158 827 861 828 9011 7100 9012 9016 6875 7101 
828 861 1159 862 7101 9017 9018 7107 7109 9019 
1125 1159 1126 828 9020 9021 8795 8785 9018 8790 
828 861 1158 1159 7101 9012 9016 9018 9017 9022 
1125 1159 828 1158 9020 9018 8785 9014 9022 9016 
1126 828 1159 829 8790 9018 9021 8792 6882 9023 
1159 828 862 829 9018 7107 9019 9023 6882 7108 
829 862 1160 863 7108 9024 9025 7114 7116 9026 
1126 1160 1127 829 9027 9028 8802 8792 9025 8797 
829 862 1159 1160 7108 9019 9023 9025 9024 9029 
1126 1160 829 1159 9027 9025 8792 9021 9029 9023 
1127 829 1160 830 8797 9025 9028 8799 6889 9030 
1160 829 863 830 9025 7114 9026 9030 6889 7115 
830 863 1161 864 7115 9031 9032 7121 7123 9033 
1127 1161 1128 830 9034 9035 8809 8799 9032 8804 
830 863 1160 1161 7115 9026 9030 9032 9031 9036 
1127 1161 830 1160 9034 9032 8799 9028 9036 9030 
1128 830 1161 831 8804 9032 9035 8806 6896 9037 
1161 830 864 831 9032 7121 9033 9037 6896 7122 
831 864 1162 865 7122 9038 9039 7128 7130 9040 
1128 1162 1129 831 9041 9042 8816 8806 9039 8811 
831 864 1161 1162 7122 9033 9037 9039 9038 9043 
1128 1162 831 1161 9041 9039 8806 9035 9043 9037 
1129 831 1162 832 8811 9039 9042 8813 6903 9044 
1162 831 865 832 9039 7128 9040 9044 6903 7129 
832 865 1163 866 7129 9045 9046 7135 7137 9047 
1129 1163 1130 832 9048 9049 8823 8813 9046 8818 
832 865 1162 1163 7129 9040 9044 9046 9045 9050 
1129 1163 832 1162 9048 9046 8813 9042 9050 9044 
1130 832 1163 833 8818 9046 9049 8820 6910 9051 
1163 832 866 833 9046 7135 9047 9051 6910 7136 
833 866 1164 867 7136 9052 9053 7142 7144 9054 
1130 1164 1131 833 9055 9056 8830 8820 9053 8825 
833 866 1163 1164 7136 9047 9051 9053 9052 9057 
1130 1164 833 1163 9055 9053 8820 9049 9057 9051 
1131 833 1164 834 8825 9053 9056 8827 6917 9058 
1164 833 867 834 9053 7142 9054 9058 6917 7143 
834 867 1165 868 7143 9059 9060 7149 7151 9061 
1131 1165 1132 834 9062 9063 8837 8827 9060 8832 
834 867 1164 1165 7143 9054 9058 9060 9059 9064 
1131 1165 834 1164 9062 9060 8827 9056 9064 9058 
1132 834 1165 835 8832 9060 9063 8834 6924 9065 
1165 834 868 835 9060 7149 9061 9065 6924 7150 
835 868 1166 869 7150 9066 9067 7156 7158 9068 
1132 1166 1133 835 9069 9070 8844 8834 9067 8839 
835 868 1165 1166 7150 9061 9065 9067 9066 9071 
1132 1166 835 1165 9069 9067 8834 9063 9071 9065 
1133 835 1166 836 8839 9067 9070 8841 6931 9072 
1166 835 869 836 9067 7156 9068 9072 6931 7157 
836 869 1167 870 7157 9073 9074 7163 7165 9075 
1133 1167 1134 836 9076 9077 8851 8841 9074 8846 
836 869 1166 1167 7157 9068 9072 9074 9073 9078 
1133 1167 836 1166 9076 9074 8841 9070 9078 9072 
1134 836 1167 837 8846 9074 9077 8848 6938 9079 
1167 836 870 837 9074 7163 9075 9079 6938 7164 
837 870 1168 871 7164 9080 9081 7170 7172 9082 
1134 1168 1135 837 9083 9084 8858 8848 9081 8853 
837 870 1167 1168 7164 9075 9079 9081 9080 9085 
1134 1168 837 1167 9083 9081 8848 9077 9085 9079 
1135 837 1168 838 8853 9081 9084 8855 6945 9086 
1168 837 871 838 9081 7170 9082 9086 6945 7171 
838 871 1169 872 7171 9087 9088 7177 7179 9089 
1135 1169 1136 838 9090 9091 8865 8855 9088 8860 
838 871 1168 1169 7171 9082 9086 9088 9087 9092 
1135 1169 838 1168 9090 9088 8855 9084 9092 9086 
1136 838 1169 839 8860 9088 9091 8862 6952 9093 
1169 838 872 839 9088 7177 9089 9093 6952 7178 
839 872 1170 873 7178 9094 9095 7184 7186 9096 
1136 1170 1137 839 9097 9098 8872 8862 9095 8867 
839 872 1169 1170 7178 9089 9093 9095 9094 9099 
1136 1170 839 1169 9097 9095 8862 9091 9099 9093 
1137 839 1170 840 8867 9095 9098 8869 6959 9100 
1170 839 873 840 9095 7184 9096 9100 6959 7185 
840 873 1171 874 7185 9101 9102 7191 7193 9103 
1137 1171 1138 840 9104 9105 8879 8869 9102 8874 
840 873 1170 1171 7185 9096 9100 9102 9101 9106 
1137 1171 840 1170 9104 9102 8869 9098 9106 9100 
1138 840 1171 841 8874 9102 9105 8876 6966 9107 
1171 840 874 841 9102 7191 9103 9107 6966 7192 
841 874 1172 875 7192 9108 9109 7198 7200 9110 
1138 1172 1139 841 9111 9112 8886 8876 9109 8881 
841 874 1171 1172 7192 9103 9107 9109 9108 9113 
1138 1172 841 1171 9111 9109 8876 9105 9113 9107 
1139 841 1172 842 8881 9109 9112 8883 6973 9114 
1172 841 875 842 9109 7198 9110 9114 6973 7199 
842 875 1173 876 7199 9115 9116 7205 7207 9117 
1139 1173 1140 842 9118 9119 8893 8883 9116 8888 
842 875 1172 1173 7199 9110 9114 9116 9115 9120 
1139 1173 842 1172 9118 9116 8883 9112 9120 9114 
1140 842 1173 843 8888 9116 9119 8890 6980 9121 
1173 842 876 843 9116 7205 9117 9121 6980 7206 
843 876 1174 877 7206 9122 9123 7212 7214 9124 
1140 1174 1141 843 9125 9126 8900 8890 9123 8895 
843 876 1173 1174 7206 9117 9121 9123 9122 9127 
1140 1174 843 1173 9125 9123 8890 9119 9127 9121 
1141 843 1174 844 8895 9123 9126 8897 6987 9128 
1174 843 877 844 9123 7212 9124 9128 6987 7213 
844 877 1175 878 7213 9129 9130 7219 7221 9131 
1141 1175 1142 844 9132 9133 8907 8897 9130 8902 
844 877 1174 1175 7213 9124 9128 9130 9129 9134 
1141 1175 844 1174 9132 9130 8897 9126 9134 9128 
1142 844 1175 845 8902 9130 9133 8904 6994 9135 
1175 844 878 845 9130 7219 9131 9135 6994 7220 
845 878 1176 879 7220 9136 9137 7226 7228 9138 
1142 1176 1143 845 9139 9140 8914 8904 9137 8909 
845 878 1175 1176 7220 9131 9135 9137 9136 9141 
1142 1176 845 1175 9139 9137 8904 9133 9141 9135 
1143 845 1176 846 8909 9137 9140 8911 7001 9142 
1176 845 879 846 9137 7226 9138 9142 7001 7227 
846 879 1177 880 7227 9143 9144 7233 7235 9145 
1143 1177 1144 846 9146 9147 8921 8911 9144 8916 
846 879 1176 1177 7227 9138 9142 9144 9143 9148 
1143 1177 846 1176 9146 9144 8911 9140 9148 9142 
1144 846 1177 847 8916 9144 9147 8918 7008 9149 
1177 846 880 847 9144 7233 9145 9149 7008 7234 
847 880 1178 881 7234 9150 9151 7240 7242 9152 
1144 1178 1145 847 9153 9154 8928 8918 9151 8923 
847 880 1177 1178 7234 9145 9149 9151 9150 9155 
1144 1178 847 1177 9153 9151 8918 9147 9155 9149 
1145 847 1178 848 8923 9151 9154 8925 7015 9156 
1178 847 881 848 9151 7240 9152 9156 7015 7241 
848 881 1179 882 7241 9157 9158 7247 7249 9159 
1145 1179 1146 848 9160 9161 8935 8925 9158 8930 
848 881 1178 1179 7241 9152 9156 9158 9157 9162 
1145 1179 848 1178 9160 9158 8925 9154 9162 9156 
1146 848 1179 849 8930 9158 9161 8932 7022 9163 
1179 848 882 849 9158 7247 9159 9163 7022 7248 
849 882 1180 883 7248 9164 9165 7254 7256 9166 
1146 1180 1147 849 9167 9168 8942 8932 9165 8937 
849 882 1179 1180 7248 9159 9163 9165 9164 9169 
1146 1180 849 1179 9167 9165 8932 9161 9169 9163 
1147 849 1180 850 8937 9165 9168 8939 7029 9170 
1180 849 883 850 9165 7254 9166 9170 7029 7255 
850 883 1181 884 7255 9171 9172 7261 7263 9173 
1147 1181 1148 850 9174 9175 8949 8939 9172 8944 
850 883 1180 1181 7255 9166 9170 9172 9171 9176 
1147 1181 850 1180 9174 9172 8939 9168 9176 9170 
1148 850 1181 851 8944 9172 9175 8946 7036 9177 
1181 850 884 851 9172 7261 9173 9177 7036 7262 
851 884 1182 885 7262 9178 9179 7268 7270 9180 
1148 1182 1149 851 9181 9182 8956 8946 9179 8951 
851 884 1181 1182 7262 9173 9177 9179 9178 9183 
1148 1182 851 1181 9181 9179 8946 9175 9183 9177 
1149 851 1182 852 8951 9179 9182 8953 7043 9184 
1182 851 885 852 9179 7268 9180 9184 7043 7269 
852 885 1183 886 7269 9185 9186 7275 7277 9187 
1149 1183 1150 852 9188 9189 8963 8953 9186 8958 
852 885 1182 1183 7269 9180 9184 9186 9185 9190 
1149 1183 852 1182 9188 9186 8953 9182 9190 9184 
1150 852 1183 853 8958 9186 9189 8960 7050 9191 
1183 852 886 853 9186 7275 9187 9191 7050 7276 
853 886 1184 887 7276 9192 9193 7282 7284 9194 
1150 1184 1151 853 9195 9196 8970 8960 9193 8965 
853 886 1183 1184 7276 9187 9191 9193 9192 9197 
1150 1184 853 1183 9195 9193 8960 9189 9197 9191 
1151 853 1184 854 8965 9193 9196 8967 7057 9198 
1184 853 887 854 9193 7282 9194 9198 7057 7283 
854 887 1185 888 7283 9199 9200 7289 7291 9201 
1151 1185 1152 854 9202 9203 8977 8967 9200 8972 
854 887 1184 1185 7283 9194 9198 9200 9199 9204 
1151 1185 854 1184 9202 9200 8967 9196 9204 9198 
1152 854 1185 855 8972 9200 9203 8974 7064 9205 
1185 854 888 855 9200 7289 9201 9205 7064 7290 
855 888 1186 889 7290 9206 9207 7296 7298 9208 
1152 1186 1153 855 9209 9210 8984 8974 9207 8979 
855 888 1185 1186 7290 9201 9205 9207 9206 9211 
1152 1186 855 1185 9209 9207 8974 9203 9211 9205 
1153 855 1186 856 8979 9207 9210 8981 7071 9212 
1186 855 889 856 9207 7296 9208 9212 7071 7297 
856 889 1187 890 7297 9213 9214 7303 7305 9215 
1153 1187 1154 856 9216 9217 8991 8981 9214 8986 
856 889 1186 1187 7297 9208 9212 9214 9213 9218 
1153 1187 856 1186 9216 9214 8981 9210 9218 9212 
1154 856 1187 857 8986 9214 9217 8988 7078 9219 
1187 856 890 857 9214 7303 9215 9219 7078 7304 
891 924 1222 925 7318 9220 9221 7310 7317 9222 
1188 1222 1189 891 9223 9224 9225 9226 9221 9227 
891 924 1221 1222 7318 9228 9229 9221 9220 9230 
1188 1222 891 1221 9223 9221 9226 9231 9230 9229 
1189 891 1222 892 9227 9221 9224 9232 7312 9233 
1222 891 925 892 9221 7310 9222 9233 7312 7311 
892 925 1223 926 7311 9234 9235 7324 7328 9236 
1189 1223 1190 892 9237 9238 9239 9232 9235 9240 
892 925 1222 1223 7311 9222 9233 9235 9234 9241 
1189 1223 892 1222 9237 9235 9232 9224 9241 9233 
1190 892 1223 893 9240 9235 9238 9242 7326 9243 
1223 892 926 893 9235 7324 9236 9243 7326 7325 
893 926 1224 927 7325 9244 9245 7334 7338 9246 
1190 1224 1191 893 9247 9248 9249 9242 9245 9250 
893 926 1223 1224 7325 9236 9243 9245 9244 9251 
1190 1224 893 1223 9247 9245 9242 9238 9251 9243 
1191 893 1224 894 9250 9245 9248 9252 7336 9253 
1224 893 927 894 9245 7334 9246 9253 7336 7335 
894 927 1225 928 7335 9254 9255 7344 7348 9256 
1191 1225 1192 894 9257 9258 9259 9252 9255 9260 
894 927 1224 1225 7335 9246 9253 9255 9254 9261 
1191 1225 894 1224 9257 9255 9252 9248 9261 9253 
1192 894 1225 895 9260 9255 9258 9262 7346 9263 
1225 894 928 895 9255 7344 9256 9263 7346 7345 
895 928 1226 929 7345 9264 9265 7354 7358 9266 
1192 1226 1193 895 9267 9268 9269 9262 9265 9270 
895 928 1225 1226 7345 9256 9263 9265 9264 9271 
1192 1226 895 1225 9267 9265 9262 9258 9271 9263 
1193 895 1226 896 9270 9265 9268 9272 7356 9273 
1226 895 929 896 9265 7354 9266 9273 7356 7355 
896 929 1227 930 7355 9274 9275 7364 7368 9276 
1193 1227 1194 896 9277 9278 9279 9272 9275 9280 
896 929 1226 1227 7355 9266 9273 9275 9274 9281 
1193 1227 896 1226 9277 9275 9272 9268 9281 9273 
1194 896 1227 897 9280 9275 9278 9282 7366 9283 
1227 896 930 897 9275 7364 9276 9283 7366 7365 
897 930 1228 931 7365 9284 9285 7374 7378 9286 
1194 1228 1195 897 9287 9288 9289 9282 9285 9290 
897 930 1227 1228 7365 9276 9283 9285 9284 9291 
1194 1228 897 1227 9287 9285 9282 9278 9291 9283 
1195 897 1228 898 9290 9285 9288 9292 7376 9293 
1228 897 931 898 9285 7374 9286 9293 7376 7375 
898 931 1229 932 7375 9294 9295 7384 7388 9296 
1195 1229 1196 898 9297 9298 9299 9292 9295 9300 
898 931 1228 1229 7375 9286 9293 9295 9294 9301 
1195 1229 898 1228 9297 9295 9292 9288 9301 9293 
1196 898 1229 899 9300 9295 9298 9302 7386 9303 
1229 898 932 899 9295 7384 9296 9303 7386 7385 
899 932 1230 933 7385 9304 9305 7394 7398 9306 
1196 1230 1197 899 9307 9308 9309 9302 9305 9310 
899 932 1229 1230 7385 9296 9303 9305 9304 9311 
1196 1230 899 1229 9307 9305 9302 9298 9311 9303 
1197 899 1230 900 9310 9305 9308 9312 7396 9313 
1230 899 933 900 9305 7394 9306 9313 7396 7395 
900 933 1231 934 7395 9314 9315 7404 7408 9316 
1197 1231 1198 900 9317 9318 9319 9312 9315 9320 
900 933 1230 1231 7395 9306 9313 9315 9314 9321 
1197 1231 900 1230 9317 9315 9312 9308 9321 9313 
1198 900 1231 901 9320 9315 9318 9322 7406 9323 
1231 900 934 901 9315 7404 9316 9323 7406 7405 
901 934 1232 935 7405 9324 9325 7414 7418 9326 
1198 1232 1199 901 9327 9328 9329 9322 9325 9330 
901 934 1231 1232 7405 9316 9323 9325 9324 9331 
1198 1232 901 1231 9327 9325 9322 9318 9331 9323 
1199 901 1232 902 9330 9325 9328 9332 7416 9333 
1232 901 935 902 9325 7414 9326 9333 7416 7415 
902 935 1233 936 7415 9334 9335 7424 7428 9336 
1199 1233 1200 902 9337 9338 9339 9332 9335 9340 
902 935 1232 1233 7415 9326 9333 9335 9334 9341 
1199 1233 902 1232 9337 9335 9332 9328 9341 9333 
1200 902 1233 903 9340 9335 9338 9342 7426 9343 
1233 902 936 903 9335 7424 9336 9343 7426 7425 
903 936 1234 937 7425 9344 9345 7434 7438 9346 
1200 1234 1201 903 9347 9348 9349 9342 9345 9350 
903 936 1233 1234 7425 9336 9343 9345 9344 9351 
1200 1234 903 1233 9347 9345 9342 9338 9351 9343 
1201 903 1234 904 9350 9345 9348 9352 7436 9353 
1234 903 937 904 9345 7434 9346 9353 7436 7435 
904 937 1235 938 7435 9354 9355 7444 7448 9356 
1201 1235 1202 904 9357 9358 9359 9352 9355 9360 
904 937 1234 1235 7435 9346 9353 9355 9354 9361 
1201 1235 904 1234 9357 9355 9352 9348 9361 9353 
1202 904 1235 905 9360 9355 9358 9362 7446 9363 
1235 904 938 905 9355 7444 9356 9363 7446 7445 
905 938 1236 939 7445 9364 9365 7454 7458 9366 
1202 1236 1203 905 9367 9368 9369 9362 9365 9370 
905 938 1235 1236 7445 9356 9363 9365 9364 9371 
1202 1236 905 1235 9367 9365 9362 9358 9371 9363 
1203 905 1236 906 9370 9365 9368 9372 7456 9373 
1236 905 939 906 9365 7454 9366 9373 7456 7455 
906 939 1237 940 7455 9374 9375 7464 7468 9376 
1203 1237 1204 906 9377 9378 9379 9372 9375 9380 
906 939 1236 1237 7455 9366 9373 9375 9374 9381 
1203 1237 906 1236 9377 9375 9372 9368 9381 9373 
1204 906 1237 907 9380 9375 9378 9382 7466 9383 
1237 906 940 907 9375 7464 9376 9383 7466 7465 
907 940 1238 941 7465 9384 9385 7474 7478 9386 
1204 1238 1205 907 9387 9388 9389 9382 9385 9390 
907 940 1237 1238 7465 9376 9383 9385 9384 9391 
1204 1238 907 1237 9387 9385 9382 9378 9391 9383 
1205 907 1238 908 9390 9385 9388 9392 7476 9393 
1238 907 941 908 9385 7474 9386 9393 7476 7475 
908 941 1239 942 7475 9394 9395 7484 7488 9396 
1205 1239 1206 908 9397 9398 9399 9392 9395 9400 
908 941 1238 1239 7475 9386 9393 9395 9394 9401 
1205 1239 908 1238 9397 9395 9392 9388 9401 9393 
1206 908 1239 909 9400 9395 9398 9402 7486 9403 
1239 908 942 909 9395 7484 9396 9403 7486 7485 
909 942 1240 943 7485 9404 9405 7494 7498 9406 
1206 1240 1207 909 9407 9408 9409 9402 9405 9410 
909 942 1239 1240 7485 9396 9403 9405 9404 9411 
1206 1240 909 1239 9407 9405 9402 9398 9411 9403 
1207 909 1240 910 9410 9405 9408 9412 7496 9413 
1240 909 943 910 9405 7494 9406 9413 7496 7495 
910 943 1241 944 7495 9414 9415 7504 7508 9416 
1207 1241 1208 910 9417 9418 9419 9412 9415 9420 
910 943 1240 1241 7495 9406 9413 9415 9414 9421 
1207 1241 910 1240 9417 9415 9412 9408 9421 9413 
1208 910 1241 911 9420 9415 9418 9422 7506 9423 
1241 910 944 911 9415 7504 9416 9423 7506 7505 
911 944 1242 945 7505 9424 9425 7514 7518 9426 
1208 1242 1209 911 9427 9428 9429 9422 9425 9430 
911 944 1241 1242 7505 9416 9423 9425 9424 9431 
1208 1242 911 1241 9427 9425 9422 9418 9431 9423 
1209 911 1242 912 9430 9425 9428 9432 7516 9433 
1242 911 945 912 9425 7514 9426 9433 7516 7515 
912 945 1243 946 7515 9434 9435 7524 7528 9436 
1209 1243 1210 912 9437 9438 9439 9432 9435 9440 
912 945 1242 1243 7515 9426 9433 9435 9434 9441 
1209 1243 912 1242 9437 9435 9432 9428 9441 9433 
1210 912 1243 913 9440 9435 9438 9442 7526 9443 
1243 912 946 913 9435 7524 9436 9443 7526 7525 
913 946 1244 947 7525 9444 9445 7534 7538 9446 
1210 1244 1211 913 9447 9448 9449 9442 9445 9450 
913 946 1243 1244 7525 9436 9443 9445 9444 9451 
1210 1244 913 1243 9447 9445 9442 9438 9451 9443 
1211 913 1244 914 9450 9445 9448 9452 7536 9453 
1244 913 947 914 9445 7534 9446 9453 7536 7535 
914 947 1245 948 7535 9454 9455 7544 7548 9456 
1211 1245 1212 914 9457 9458 9459 9452 9455 9460 
914 947 1244 1245 7535 9446 9453 9455 9454 9461 
1211 1245 914 1244 9457 9455 9452 9448 9461 9453 
1212 914 1245 915 9460 9455 9458 9462 7546 9463 
1245 914 948 915 9455 7544 9456 9463 7546 7545 
915 948 1246 949 7545 9464 9465 7554 7558 9466 
1212 1246 1213 915 9467 9468 9469 9462 9465 9470 
915 948 1245 1246 7545 9456 9463 9465 9464 9471 
1212 1246 915 1245 9467 9465 9462 9458 9471 9463 
1213 915 1246 916 9470 9465 9468 9472 7556 9473 
1246 915 949 916 9465 7554 9466 9473 7556 7555 
916 949 1247 950 7555 9474 9475 7564 7568 9476 
1213 1247 1214 916 9477 9478 9479 9472 9475 9480 
916 949 1246 1247 7555 9466 9473 9475 9474 9481 
1213 1247 916 1246 9477 9475 9472 9468 9481 9473 
1214 916 1247 917 9480 9475 9478 9482 7566 9483 
1247 916 950 917 9475 7564 9476 9483 7566 7565 
917 950 1248 951 7565 9484 9485 7574 7578 9486 
1214 1248 1215 917 9487 9488 9489 9482 9485 9490 
917 950 1247 1248 7565 9476 9483 9485 9484 9491 
1214 1248 917 1247 9487 9485 9482 9478 9491 9483 
1215 917 1248 918 9490 9485 9488 9492 7576 9493 
1248 917 951 918 9485 7574 9486 9493 7576 7575 
918 951 1249 952 7575 9494 9495 7584 7588 9496 
1215 1249 1216 918 9497 9498 9499 9492 9495 9500 
918 951 1248 1249 7575 9486 9493 9495 9494 9501 
1215 1249 918 1248 9497 9495 9492 9488 9501 9493 
1216 918 1249 919 9500 9495 9498 9502 7586 9503 
1249 918 952 919 9495 7584 9496 9503 7586 7585 
919 952 1250 953 7585 9504 9505 7594 7598 9506 
1216 1250 1217 919 9507 9508 9509 9502 9505 9510 
919 952 1249 1250 7585 9496 9503 9505 9504 9511 
1216 1250 919 1249 9507 9505 9502 9498 9511 9503 
1217 919 1250 920 9510 9505 9508 9512 7596 9513 
1250 919 953 920 9505 7594 9506 9513 7596 7595 
920 953 1251 954 7595 9514 9515 7604 7608 9516 
1217 1251 1218 920 9517 9518 9519 9512 9515 9520 
920 953 1250 1251 7595 9506 9513 9515 9514 9521 
1217 1251 920 1250 9517 9515 9512 9508 9521 9513 
1218 920 1251 921 9520 9515 9518 9522 7606 9523 
1251 920 954 921 9515 7604 9516 9523 7606 7605 
921 954 1252 955 7605 9524 9525 7614 7618 9526 
1218 1252 1219 921 9527 9528 9529 9522 9525 9530 
921 954 1251 1252 7605 9516 9523 9525 9524 9531 
1218 1252 921 1251 9527 9525 9522 9518 9531 9523 
1219 921 1252 922 9530 9525 9528 9532 7616 9533 
1252 921 955 922 9525 7614 9526 9533 7616 7615 
922 955 1253 956 7615 9534 9535 7624 7628 9536 
1219 1253 1220 922 9537 9538 9539 9532 9535 9540 
922 955 1252 1253 7615 9526 9533 9535 9534 9541 
1219 1253 922 1252 9537 9535 9532 9528 9541 9533 
1220 922 1253 923 9540 9535 9538 9542 7626 9543 
1253 922 956 923 9535 7624 9536 9543 7626 7625 
924 957 1255 958 7639 9544 9545 7634 7638 9546 
1221 1255 1222 924 9547 9548 9230 9228 9545 9220 
924 957 1254 1255 7639 9549 9550 9545 9544 9551 
1221 1255 924 1254 9547 9545 9228 9552 9551 9550 
1222 924 1255 925 9220 9545 9548 9222 7317 9553 
1255 924 958 925 9545 7634 9546 9553 7317 7635 
925 958 1256 959 7635 9554 9555 7644 7646 9556 
1222 1256 1223 925 9557 9558 9241 9222 9555 9234 
925 958 1255 1256 7635 9546 9553 9555 9554 9559 
1222 1256 925 1255 9557 9555 9222 9548 9559 9553 
1223 925 1256 926 9234 9555 9558 9236 7328 9560 
1256 925 959 926 9555 7644 9556 9560 7328 7645 
926 959 1257 960 7645 9561 9562 7651 7653 9563 
1223 1257 1224 926 9564 9565 9251 9236 9562 9244 
926 959 1256 1257 7645 9556 9560 9562 9561 9566 
1223 1257 926 1256 9564 9562 9236 9558 9566 9560 
1224 926 1257 927 9244 9562 9565 9246 7338 9567 
1257 926 960 927 9562 7651 9563 9567 7338 7652 
927 960 1258 961 7652 9568 9569 7658 7660 9570 
1224 1258 1225 927 9571 9572 9261 9246 9569 9254 
927 960 1257 1258 7652 9563 9567 9569 9568 9573 
1224 1258 927 1257 9571 9569 9246 9565 9573 9567 
1225 927 1258 928 9254 9569 9572 9256 7348 9574 
1258 927 961 928 9569 7658 9570 9574 7348 7659 
928 961 1259 962 7659 9575 9576 7665 7667 9577 
1225 1259 1226 928 9578 9579 9271 9256 9576 9264 
928 961 1258 1259 7659 9570 9574 9576 9575 9580 
1225 1259 928 1258 9578 9576 9256 9572 9580 9574 
1226 928 1259 929 9264 9576 9579 9266 7358 9581 
1259 928 962 929 9576 7665 9577 9581 7358 7666 
929 962 1260 963 7666 9582 9583 7672 7674 9584 
1226 1260 1227 929 9585 9586 9281 9266 9583 9274 
929 962 1259 1260 7666 9577 9581 9583 9582 9587 
1226 1260 929 1259 9585 9583 9266 9579 9587 9581 
1227 929 1260 930 9274 9583 9586 9276 7368 9588 
1260 929 963 930 9583 7672 9584 9588 7368 7673 
930 963 1261 964 7673 9589 9590 7679 7681 9591 
1227 1261 1228 930 9592 9593 9291 9276 9590 9284 
930 963 1260 1261 7673 9584 9588 9590 9589 9594 
1227 1261 930 1260 9592 9590 9276 9586 9594 9588 
1228 930 1261 931 9284 9590 9593 9286 7378 9595 
1261 930 964 931 9590 7679 9591 9595 7378 7680 
931 964 1262 965 7680 9596 9597 7686 7688 9598 
1228 1262 1229 931 9599 9600 9301 9286 9597 9294 
931 964 1261 1262 7680 9591 9595 9597 9596 9601 
1228 1262 931 1261 9599 9597 9286 9593 9601 9595 
1229 931 1262 932 9294 9597 9600 9296 7388 9602 
1262 931 965 932 9597 7686 9598 9602 7388 7687 
932 965 1263 966 7687 9603 9604 7693 7695 9605 
1229 1263 1230 932 9606 9607 9311 9296 9604 9304 
932 965 1262 1263 7687 9598 9602 9604 9603 9608 
1229 1263 932 1262 9606 9604 9296 9600 9608 9602 
1230 932 1263 933 9304 9604 9607 9306 7398 9609 
1263 932 966 933 9604 7693 9605 9609 7398 7694 
933 966 1264 967 7694 9610 9611 7700 7702 9612 
1230 1264 1231 933 9613 9614 9321 9306 9611 9314 
933 966 1263 1264 7694 9605 9609 9611 9610 9615 
1230 1264 933 1263 9613 9611 9306 9607 9615 9609 
1231 933 1264 934 9314 9611 9614 9316 7408 9616 
1264 933 967 934 9611 7700 9612 9616 7408 7701 
934 967 1265 968 7701 9617 9618 7707 7709 9619 
1231 1265 1232 934 9620 9621 9331 9316 9618 9324 
934 967 1264 1265 7701 9612 9616 9618 9617 9622 
1231 1265 934 1264 9620 9618 9316 9614 9622 9616 
1232 934 1265 935 9324 9618 9621 9326 7418 9623 
1265 934 968 935 9618 7707 9619 9623 7418 7708 
935 968 1266 969 7708 9624 9625 7714 7716 9626 
1232 1266 1233 935 9627 9628 9341 9326 9625 9334 
935 968 1265 1266 7708 9619 9623 9625 9624 9629 
1232 1266 935 1265 9627 9625 9326 9621 9629 9623 
1233 935 1266 936 9334 9625 9628 9336 7428 9630 
1266 935 969 936 9625 7714 9626 9630 7428 7715 
936 969 1267 970 7715 9631 9632 7721 7723 9633 
1233 1267 1234 936 9634 9635 9351 9336 9632 9344 
936 969 1266 1267 7715 9626 9630 9632 9631 9636 
1233 1267 936 1266 9634 9632 9336 9628 9636 9630 
1234 936 1267 937 9344 9632 9635 9346 7438 9637 
1267 936 970 937 9632 7721 9633 9637 7438 7722 
937 970 1268 971 7722 9638 9639 7728 7730 9640 
1234 1268 1235 937 9641 9642 9361 9346 9639 9354 
937 970 1267 1268 7722 9633 9637 9639 9638 9643 
1234 1268 937 1267 9641 9639 9346 9635 9643 9637 
1235 937 1268 938 9354 9639 9642 9356 7448 9644 
1268 937 971 938 9639 7728 9640 9644 7448 7729 
938 971 1269 972 7729 9645 9646 7735 7737 9647 
1235 1269 1236 938 9648 9649 9371 9356 9646 9364 
938 971 1268 1269 7729 9640 9644 9646 9645 9650 
1235 1269 938 1268 9648 9646 9356 9642 9650 9644 
1236 938 1269 939 9364 9646 9649 9366 7458 9651 
1269 938 972 939 9646 7735 9647 9651 7458 7736 
939 972 1270 973 7736 9652 9653 7742 7744 9654 
1236 1270 1237 939 9655 9656 9381 9366 9653 9374 
939 972 1269 1270 7736 9647 9651 9653 9652 9657 
1236 1270 939 1269 9655 9653 9366 9649 9657 9651 
1237 939 1270 940 9374 9653 9656 9376 7468 9658 
1270 939 973 940 9653 7742 9654 9658 7468 7743 
940 973 1271 974 7743 9659 9660 7749 7751 9661 
1237 1271 1238 940 9662 9663 9391 9376 9660 9384 
940 973 1270 1271 7743 9654 9658 9660 9659 9664 
1237 1271 940 1270 9662 9660 9376 9656 9664 9658 
1238 940 1271 941 9384 9660 9663 9386 7478 9665 
1271 940 974 941 9660 7749 9661 9665 7478 7750 
941 974 1272 975 7750 9666 9667 7756 7758 9668 
1238 1272 1239 941 9669 9670 9401 9386 9667 9394 
941 974 1271 1272 7750 9661 9665 9667 9666 9671 
1238 1272 941 1271 9669 9667 9386 9663 9671 9665 
1239 941 1272 942 9394 9667 9670 9396 7488 9672 
1272 941 975 942 9667 7756 9668 9672 7488 7757 
942 975 1273 976 7757 9673 9674 7763 7765 9675 
1239 1273 1240 942 9676 9677 9411 9396 9674 9404 
942 975 1272 1273 7757 9668 9672 9674 9673 9678 
1239 1273 942 1272 9676 9674 9396 9670 9678 9672 
1240 942 1273 943 9404 9674 9677 9406 7498 9679 
1273 942 976 943 9674 7763 9675 9679 7498 7764 
943 976 1274 977 7764 9680 9681 7770 7772 9682 
1240 1274 1241 943 9683 9684 9421 9406 9681 9414 
943 976 1273 1274 7764 9675 9679 9681 9680 9685 
1240 1274 943 1273 9683 9681 9406 9677 9685 9679 
1241 943 1274 944 9414 9681 9684 9416 7508 9686 
1274 943 977 944 9681 7770 9682 9686 7508 7771 
944 977 1275 978 7771 9687 9688 7777 7779 9689 
1241 1275 1242 944 9690 9691 9431 9416 9688 9424 
944 977 1274 1275 7771 9682 9686 9688 9687 9692 
1241 1275 944 1274 9690 9688 9416 9684 9692 9686 
1242 944 1275 945 9424 9688 9691 9426 7518 9693 
1275 944 978 945 9688 7777 9689 9693 7518 7778 
945 978 1276 979 7778 9694 9695 7784 7786 9696 
1242 1276 1243 945 9697 9698 9441 9426 9695 9434 
945 978 1275 1276 7778 9689 9693 9695 9694 9699 
1242 1276 945 1275 9697 9695 9426 9691 9699 9693 
1243 945 1276 946 9434 9695 9698 9436 7528 9700 
1276 945 979 946 9695 7784 9696 9700 7528 7785 
946 979 1277 980 7785 9701 9702 7791 7793 9703 
1243 1277 1244 946 9704 9705 9451 9436 9702 9444 
946 979 1276 1277 7785 9696 9700 9702 9701 9706 
1243 1277 946 1276 9704 9702 9436 9698 9706 9700 
1244 946 1277 947 9444 9702 9705 9446 7538 9707 
1277 946 980 947 9702 7791 9703 9707 7538 7792 
947 980 1278 981 7792 9708 9709 7798 7800 9710 
1244 1278 1245 947 9711 9712 9461 9446 9709 9454 
947 980 1277 1278 7792 9703 9707 9709 9708 9713 
1244 1278 947 1277 9711 9709 9446 9705 9713 9707 
1245 947 1278 948 9454 9709 9712 9456 7548 9714 
1278 947 981 948 9709 7798 9710 9714 7548 7799 
948 981 1279 982 7799 9715 9716 7805 7807 9717 
1245 1279 1246 948 9718 9719 9471 9456 9716 9464 
948 981 1278 1279 7799 9710 9714 9716 9715 9720 
1245 1279 948 1278 9718 9716 9456 9712 9720 9714 
1246 948 1279 949 9464 9716 9719 9466 7558 9721 
1279 948 982 949 9716 7805 9717 9721 7558 7806 
949 982 1280 983 7806 9722 9723 7812 7814 9724 
1246 1280 1247 949 9725 9726 9481 9466 9723 9474 
949 982 1279 1280 7806 9717 9721 9723 9722 9727 
1246 1280 949 1279 9725 9723 9466 9719 9727 9721 
1247 949 1280 950 9474 9723 9726 9476 7568 9728 
1280 949 983 950 9723 7812 9724 9728 7568 7813 
950 983 1281 984 7813 9729 9730 7819 7821 9731 
1247 1281 1248 950 9732 9733 9491 9476 9730 9484 
950 983 1280 1281 7813 9724 9728 9730 9729 9734 
1247 1281 950 1280 9732 9730 9476 9726 9734 9728 
1248 950 1281 951 9484 9730 9733 9486 7578 9735 
1281 950 984 951 9730 7819 9731 9735 7578 7820 
951 984 1282 985 7820 9736 9737 7826 7828 9738 
1248 1282 1249 951 9739 9740 9501 9486 9737 9494 
951 984 1281 1282 7820 9731 9735 9737 9736 9741 
1248 1282 951 1281 9739 9737 9486 9733 9741 9735 
1249 951 1282 952 9494 9737 9740 9496 7588 9742 
1282 951 985 952 9737 7826 9738 9742 7588 7827 
952 985 1283 986 7827 9743 9744 7833 7835 9745 
1249 1283 1250 952 9746 9747 9511 9496 9744 9504 
952 985 1282 1283 7827 9738 9742 9744 9743 9748 
1249 1283 952 1282 9746 9744 9496 9740 9748 9742 
1250 952 1283 953 9504 9744 9747 9506 7598 9749 
1283 952 986 953 9744 7833 9745 9749 7598 7834 
953 986 1284 987 7834 9750 9751 7840 7842 9752 
1250 1284 1251 953 9753 9754 9521 9506 9751 9514 
953 986 1283 1284 7834 9745 9749 9751 9750 9755 
1250 1284 953 1283 9753 9751 9506 9747 9755 9749 
1251 953 1284 954 9514 9751 9754 9516 7608 9756 
1284 953 987 954 9751 7840 9752 9756 7608 7841 
954 987 1285 988 7841 9757 9758 7847 7849 9759 
1251 1285 1252 954 9760 9761 9531 9516 9758 9524 
954 987 1284 1285 7841 9752 9756 9758 9757 9762 
1251 1285 954 1284 9760 9758 9516 9754 9762 9756 
1252 954 1285 955 9524 9758 9761 9526 7618 9763 
1285 954 988 955 9758 7847 9759 9763 7618 7848 
955 988 1286 989 7848 9764 9765 7854 7856 9766 
1252 1286 1253 955 9767 9768 9541 9526 9765 9534 
955 988 1285 1286 7848 9759 9763 9765 9764 9769 
1252 1286 955 1285 9767 9765 9526 9761 9769 9763 
1253 955 1286 956 9534 9765 9768 9536 7628 9770 
1286 955 989 956 9765 7854 9766 9770 7628 7855 
957 990 1288 991 7866 9771 9772 7861 7865 9773 
1254 1288 1255 957 9774 9775 9551 9549 9772 9544 
957 990 1287 1288 7866 9776 9777 9772 9771 9778 
1254 1288 957 1287 9774 9772 9549 9779 9778 9777 
1255 957 1288 958 9544 9772 9775 9546 7638 9780 
1288 957 991 958 9772 7861 9773 9780 7638 7862 
958 991 1289 992 7862 9781 9782 7871 7873 9783 
1255 1289 1256 958 9784 9785 9559 9546 9782 9554 
958 991 1288 1289 7862 9773 9780 9782 9781 9786 
1255 1289 958 1288 9784 9782 9546 9775 9786 9780 
1256 958 1289 959 9554 9782 9785 9556 7646 9787 
1289 958 992 959 9782 7871 9783 9787 7646 7872 
959 992 1290 993 7872 9788 9789 7878 7880 9790 
1256 1290 1257 959 9791 9792 9566 9556 9789 9561 
959 992 1289 1290 7872 9783 9787 9789 9788 9793 
1256 1290 959 1289 9791 9789 9556 9785 9793 9787 
1257 959 1290 960 9561 9789 9792 9563 7653 9794 
1290 959 993 960 9789 7878 9790 9794 7653 7879 
960 993 1291 994 7879 9795 9796 7885 7887 9797 
1257 1291 1258 960 9798 9799 9573 9563 9796 9568 
960 993 1290 1291 7879 9790 9794 9796 9795 9800 
1257 1291 960 1290 9798 9796 9563 9792 9800 9794 
1258 960 1291 961 9568 9796 9799 9570 7660 9801 
1291 960 994 961 9796 7885 9797 9801 7660 7886 
961 994 1292 995 7886 9802 9803 7892 7894 9804 
1258 1292 1259 961 9805 9806 9580 9570 9803 9575 
961 994 1291 1292 7886 9797 9801 9803 9802 9807 
1258 1292 961 1291 9805 9803 9570 9799 9807 9801 
1259 961 1292 962 9575 9803 9806 9577 7667 9808 
1292 961 995 962 9803 7892 9804 9808 7667 7893 
962 995 1293 996 7893 9809 9810 7899 7901 9811 
1259 1293 1260 962 9812 9813 9587 9577 9810 9582 
962 995 1292 1293 7893 9804 9808 9810 9809 9814 
1259 1293 962 1292 9812 9810 9577 9806 9814 9808 
1260 962 1293 963 9582 9810 9813 9584 7674 9815 
1293 962 996 963 9810 7899 9811 9815 7674 7900 
963 996 1294 997 7900 9816 9817 7906 7908 9818 
1260 1294 1261 963 9819 9820 9594 9584 9817 9589 
963 996 1293 1294 7900 9811 9815 9817 9816 9821 
1260 1294 963 1293 9819 9817 9584 9813 9821 9815 
1261 963 1294 964 9589 9817 9820 9591 7681 9822 
1294 963 997 964 9817 7906 9818 9822 7681 7907 
964 997 1295 998 7907 9823 9824 7913 7915 9825 
1261 1295 1262 964 9826 9827 9601 9591 9824 9596 
964 997 1294 1295 7907 9818 9822 9824 9823 9828 
1261 1295 964 1294 9826 9824 9591 9820 9828 9822 
1262 964 1295 965 9596 9824 9827 9598 7688 9829 
1295 964 998 965 9824 7913 9825 9829 7688 7914 
965 998 1296 999 7914 9830 9831 7920 7922 9832 
1262 1296 1263 965 9833 9834 9608 9598 9831 9603 
965 998 1295 1296 7914 9825 9829 9831 9830 9835 
1262 1296 965 1295 9833 9831 9598 9827 9835 9829 
1263 965 1296 966 9603 9831 9834 9605 7695 9836 
1296 965 999 966 9831 7920 9832 9836 7695 7921 
966 999 1297 1000 7921 9837 9838 7927 7929 9839 
1263 1297 1264 966 9840 9841 9615 9605 9838 9610 
966 999 1296 1297 7921 9832 9836 9838 9837 9842 
1263 1297 966 1296 9840 9838 9605 9834 9842 9836 
1264 966 1297 967 9610 9838 9841 9612 7702 9843 
1297 966 1000 967 9838 7927 9839 9843 7702 7928 
967 1000 1298 1001 7928 9844 9845 7934 7936 9846 
1264 1298 1265 967 9847 9848 9622 9612 9845 9617 
967 1000 1297 1298 7928 9839 9843 9845 9844 9849 
1264 1298 967 1297 9847 9845 9612 9841 9849 9843 
1265 967 1298 968 9617 9845 9848 9619 7709 9850 
1298 967 1001 968 9845 7934 9846 9850 7709 7935 
968 1001 1299 1002 7935 9851 9852 7941 7943 9853 
1265 1299 1266 968 9854 9855 9629 9619 9852 9624 
968 1001 1298 1299 7935 9846 9850 9852 9851 9856 
1265 1299 968 1298 9854 9852 9619 9848 9856 9850 
1266 968 1299 969 9624 9852 9855 9626 7716 9857 
1299 968 1002 969 9852 7941 9853 9857 7716 7942 
969 1002 1300 1003 7942 9858 9859 7948 7950 9860 
1266 1300 1267 969 9861 9862 9636 9626 9859 9631 
969 1002 1299 1300 7942 9853 9857 9859 9858 9863 
1266 1300 969 1299 9861 9859 9626 9855 9863 9857 
1267 969 1300 970 9631 9859 9862 9633 7723 9864 
1300 969 1003 970 9859 7948 9860 9864 7723 7949 
970 1003 1301 1004 7949 9865 9866 7955 7957 9867 
1267 1301 1268 970 9868 9869 9643 9633 9866 9638 
970 1003 1300 1301 7949 9860 9864 9866 9865 9870 
1267 1301 970 1300 9868 9866 9633 9862 9870 9864 
1268 970 1301 971 9638 9866 9869 9640 7730 9871 
1301 970 1004 971 9866 7955 9867 9871 7730 7956 
971 1004 1302 1005 7956 9872 9873 7962 7964 9874 
1268 1302 1269 971 9875 9876 9650 9640 9873 9645 
971 1004 1301 1302 7956 9867 9871 9873 9872 9877 
1268 1302 971 1301 9875 9873 9640 9869 9877 9871 
1269 971 1302 972 9645 9873 9876 9647 7737 9878 
1302 971 1005 972 9873 7962 9874 9878 7737 7963 
972 1005 1303 1006 7963 9879 9880 7969 7971 9881 
1269 1303 1270 972 9882 9883 9657 9647 9880 9652 
972 1005 1302 1303 7963 9874 9878 9880 9879 9884 
1269 1303 972 1302 9882 9880 9647 9876 9884 9878 
1270 972 1303 973 9652 9880 9883 9654 7744 9885 
1303 972 1006 973 9880 7969 9881 9885 7744 7970 
973 1006 1304 1007 7970 9886 9887 7976 7978 9888 
1270 1304 1271 973 9889 9890 9664 9654 9887 9659 
973 1006 1303 1304 7970 9881 9885 9887 9886 9891 
1270 1304 973 1303 9889 9887 9654 9883 9891 9885 
1271 973 1304 974 9659 9887 9890 9661 7751 9892 
1304 973 1007 974 9887 7976 9888 9892 7751 7977 
974 1007 1305 1008 7977 9893 9894 7983 7985 9895 
1271 1305 1272 974 9896 9897 9671 9661 9894 9666 
974 1007 1304 1305 7977 9888 9892 9894 9893 9898 
1271 1305 974 1304 9896 9894 9661 9890 9898 9892 
1272 974 1305 975 9666 9894 9897 9668 7758 9899 
1305 974 1008 975 9894 7983 9895 9899 7758 7984 
975 1008 1306 1009 7984 9900 9901 7990 7992 9902 
1272 1306 1273 975 9903 9904 9678 9668 9901 9673 
975 1008 1305 1306 7984 9895 9899 9901 9900 9905 
1272 1306 975 1305 9903 9901 9668 9897 9905 9899 
1273 975 1306 976 9673 9901 9904 9675 7765 9906 
1306 975 1009 976 9901 7990 9902 9906 7765 7991 
976 1009 1307 1010 7991 9907 9908 7997 7999 9909 
1273 1307 1274 976 9910 9911 9685 9675 9908 9680 
976 1009 1306 1307 7991 9902 9906 9908 9907 9912 
1273 1307 976 1306 9910 9908 9675 9904 9912 9906 
1274 976 1307 977 9680 9908 9911 9682 7772 9913 
1307 976 1010 977 9908 7997 9909 9913 7772 7998 
977 1010 1308 1011 7998 9914 9915 8004 8006 9916 
1274 1308 1275 977 9917 9918 9692 9682 9915 9687 
977 1010 1307 1308 7998 9909 9913 9915 9914 9919 
1274 1308 977 1307 9917 9915 9682 9911 9919 9913 
1275 977 1308 978 9687 9915 9918 9689 7779 9920 
1308 977 1011 978 9915 8004 9916 9920 7779 8005 
978 1011 1309 1012 8005 9921 9922 8011 8013 9923 
1275 1309 1276 978 9924 9925 9699 9689 9922 9694 
978 1011 1308 1309 8005 9916 9920 9922 9921 9926 
1275 1309 978 1308 9924 9922 9689 9918 9926 9920 
1276 978 1309 979 9694 9922 9925 9696 7786 9927 
1309 978 1012 979 9922 8011 9923 9927 7786 8012 
979 1012 1310 1013 8012 9928 9929 8018 8020 9930 
1276 1310 1277 979 9931 9932 9706 9696 9929 9701 
979 1012 1309 1310 8012 9923 9927 9929 9928 9933 
1276 1310 979 1309 9931 9929 9696 9925 9933 9927 
1277 979 1310 980 9701 9929 9932 9703 7793 9934 
1310 979 1013 980 9929 8018 9930 9934 7793 8019 
980 1013 1311 1014 8019 9935 9936 8025 8027 9937 
1277 1311 1278 980 9938 9939 9713 9703 9936 9708 
980 1013 1310 1311 8019 9930 9934 9936 9935 9940 
1277 1311 980 1310 9938 9936 9703 9932 9940 9934 
1278 980 1311 981 9708 9936 9939 9710 7800 9941 
1311 980 1014 981 9936 8025 9937 9941 7800 8026 
981 1014 1312 1015 8026 9942 9943 8032 8034 9944 
1278 1312 1279 981 9945 9946 9720 9710 9943 9715 
981 1014 1311 1312 8026 9937 9941 9943 9942 9947 
1278 1312 981 1311 9945 9943 9710 9939 9947 9941 
1279 981 1312 982 9715 9943 9946 9717 7807 9948 
1312 981 1015 982 9943 8032 9944 9948 7807 8033 
982 1015 1313 1016 8033 9949 9950 8039 8041 9951 
1279 1313 1280 982 9952 9953 9727 9717 9950 9722 
982 1015 1312 1313 8033 9944 9948 9950 9949 9954 
1279 1313 982 1312 9952 9950 9717 9946 9954 9948 
1280 982 1313 983 9722 9950 9953 9724 7814 9955 
1313 982 1016 983 9950 8039 9951 9955 7814 8040 
983 1016 1314 1017 8040 9956 9957 8046 8048 9958 
1280 1314 1281 983 9959 9960 9734 9724 9957 9729 
983 1016 1313 1314 8040 9951 9955 9957 9956 9961 
1280 1314 983 1313 9959 9957 9724 9953 9961 9955 
1281 983 1314 984 9729 9957 9960 9731 7821 9962 
1314 983 1017 984 9957 8046 9958 9962 7821 8047 
984 1017 1315 1018 8047 9963 9964 8053 8055 9965 
1281 1315 1282 984 9966 9967 9741 9731 9964 9736 
984 1017 1314 1315 8047 9958 9962 9964 9963 9968 
1281 1315 984 1314 9966 9964 9731 9960 9968 9962 
1282 984 1315 985 9736 9964 9967 9738 7828 9969 
1315 984 1018 985 9964 8053 9965 9969 7828 8054 
985 1018 1316 1019 8054 9970 9971 8060 8062 9972 
1282 1316 1283 985 9973 9974 9748 9738 9971 9743 
985 1018 1315 1316 8054 9965 9969 9971 9970 9975 
1282 1316 985 1315 9973 9971 9738 9967 9975 9969 
1283 985 1316 986 9743 9971 9974 9745 7835 9976 
1316 985 1019 986 9971 8060 9972 9976 7835 8061 
986 1019 1317 1020 8061 9977 9978 8067 8069 9979 
1283 1317 1284 986 9980 9981 9755 9745 9978 9750 
986 1019 1316 1317 8061 9972 9976 9978 9977 9982 
1283 1317 986 1316 9980 9978 9745 9974 9982 9976 
1284 986 1317 987 9750 9978 9981 9752 7842 9983 
1317 986 1020 987 9978 8067 9979 9983 7842 8068 
987 1020 1318 1021 8068 9984 9985 8074 8076 9986 
1284 1318 1285 987 9987 9988 9762 9752 9985 9757 
987 1020 1317 1318 8068 9979 9983 9985 9984 9989 
1284 1318 987 1317 9987 9985 9752 9981 9989 9983 
1285 987 1318 988 9757 9985 9988 9759 7849 9990 
1318 987 1021 988 9985 8074 9986 9990 7849 8075 
988 1021 1319 1022 8075 9991 9992 8081 8083 9993 
1285 1319 1286 988 9994 9995 9769 9759 9992 9764 
988 1021 1318 1319 8075 9986 9990 9992 9991 9996 
1285 1319 988 1318 9994 9992 9759 9988 9996 9990 
1286 988 1319 989 9764 9992 9995 9766 7856 9997 
1319 988 1022 989 9992 8081 9993 9997 7856 8082 
990 1023 1321 1024 8093 9998 9999 8088 8092 10000 
1287 1321 1288 990 10001 10002 9778 9776 9999 9771 
990 1023 1320 1321 8093 10003 10004 9999 9998 10005 
1287 1321 990 1320 10001 9999 9776 10006 10005 10004 
1288 990 1321 991 9771 9999 10002 9773 7865 10007 
1321 990 1024 991 9999 8088 10000 10007 7865 8089 
991 1024 1322 1025 8089 10008 10009 8098 8100 10010 
1288 1322 1289 991 10011 10012 9786 9773 10009 9781 
991 1024 1321 1322 8089 10000 10007 10009 10008 10013 
1288 1322 991 1321 10011 10009 9773 10002 10013 10007 
1289 991 1322 992 9781 10009 10012 9783 7873 10014 
1322 991 1025 992 10009 8098 10010 10014 7873 8099 
992 1025 1323 1026 8099 10015 10016 8105 8107 10017 
1289 1323 1290 992 10018 10019 9793 9783 10016 9788 
992 1025 1322 1323 8099 10010 10014 10016 10015 10020 
1289 1323 992 1322 10018 10016 9783 10012 10020 10014 
1290 992 1323 993 9788 10016 10019 9790 7880 10021 
1323 992 1026 993 10016 8105 10017 10021 7880 8106 
993 1026 1324 1027 8106 10022 10023 8112 8114 10024 
1290 1324 1291 993 10025 10026 9800 9790 10023 9795 
993 1026 1323 1324 8106 10017 10021 10023 10022 10027 
1290 1324 993 1323 10025 10023 9790 10019 10027 10021 
1291 993 1324 994 9795 10023 10026 9797 7887 10028 
1324 993 1027 994 10023 8112 10024 10028 7887 8113 
994 1027 1325 1028 8113 10029 10030 8119 8121 10031 
1291 1325 1292 994 10032 10033 9807 9797 10030 9802 
994 1027 1324 1325 8113 10024 10028 10030 10029 10034 
1291 1325 994 1324 10032 10030 9797 10026 10034 10028 
1292 994 1325 995 9802 10030 10033 9804 7894 10035 
1325 994 1028 995 10030 8119 10031 10035 7894 8120 
995 1028 1326 1029 8120 10036 10037 8126 8128 10038 
1292 1326 1293 995 10039 10040 9814 9804 10037 9809 
995 1028 1325 1326 8120 10031 10035 10037 10036 10041 
1292 1326 995 1325 10039 10037 9804 10033 10041 10035 
1293 995 1326 996 9809 10037 10040 9811 7901 10042 
1326 995 1029 996 10037 8126 10038 10042 7901 8127 
996 1029 1327 1030 8127 10043 10044 8133 8135 10045 
1293 1327 1294 996 10046 10047 9821 9811 10044 9816 
996 1029 1326 1327 8127 10038 10042 10044 10043 10048 
1293 1327 996 1326 10046 10044 9811 10040 10048 10042 
1294 996 1327 997 9816 10044 10047 9818 7908 10049 
1327 996 1030 997 10044 8133 10045 10049 7908 8134 
997 1030 1328 1031 8134 10050 10051 8140 8142 10052 
1294 1328 1295 997 10053 10054 9828 9818 10051 9823 
997 1030 1327 1328 8134 10045 10049 10051 10050 10055 
1294 1328 997 1327 10053 10051 9818 10047 10055 10049 
1295 997 1328 998 9823 10051 10054 9825 7915 10056 
1328 997 1031 998 10051 8140 10052 10056 7915 8141 
998 1031 1329 1032 8141 10057 10058 8147 8149 10059 
1295 1329 1296 998 10060 10061 9835 9825 10058 9830 
998 1031 1328 1329 8141 10052 10056 10058 10057 10062 
1295 1329 998 1328 10060 10058 9825 10054 10062 10056 
1296 998 1329 999 9830 10058 10061 9832 7922 10063 
1329 998 1032 999 10058 8147 10059 10063 7922 8148 
999 1032 1330 1033 8148 10064 10065 8154 8156 10066 
1296 1330 1297 999 10067 10068 9842 9832 10065 9837 
999 1032 1329 1330 8148 10059 10063 10065 10064 10069 
1296 1330 999 1329 10067 10065 9832 10061 10069 10063 
1297 999 1330 1000 9837 10065 10068 9839 7929 10070 
1330 999 1033 1000 10065 8154 10066 10070 7929 8155 
1000 1033 1331 1034 8155 10071 10072 8161 8163 10073 
1297 1331 1298 1000 10074 10075 9849 9839 10072 9844 
1000 1033 1330 1331 8155 10066 10070 10072 10071 10076 
1297 1331 1000 1330 10074 10072 9839 10068 10076 10070 
1298 1000 1331 1001 9844 10072 10075 9846 7936 10077 
1331 1000 1034 1001 10072 8161 10073 10077 7936 8162 
1001 1034 1332 1035 8162 10078 10079 8168 8170 10080 
1298 1332 1299 1001 10081 10082 9856 9846 10079 9851 
1001 1034 1331 1332 8162 10073 10077 10079 10078 10083 
1298 1332 1001 1331 10081 10079 9846 10075 10083 10077 
1299 1001 1332 1002 9851 10079 10082 9853 7943 10084 
1332 1001 1035 1002 10079 8168 10080 10084 7943 8169 
1002 1035 1333 1036 8169 10085 10086 8175 8177 10087 
1299 1333 1300 1002 10088 10089 9863 9853 10086 9858 
1002 1035 1332 1333 8169 10080 10084 10086 10085 10090 
1299 1333 1002 1332 10088 10086 9853 10082 10090 10084 
1300 1002 1333 1003 9858 10086 10089 9860 7950 10091 
1333 1002 1036 1003 10086 8175 10087 10091 7950 8176 
1003 1036 1334 1037 8176 10092 10093 8182 8184 10094 
1300 1334 1301 1003 10095 10096 9870 9860 10093 9865 
1003 1036 1333 1334 8176 10087 10091 10093 10092 10097 
1300 1334 1003 1333 10095 10093 9860 10089 10097 10091 
1301 1003 1334 1004 9865 10093 10096 9867 7957 10098 
1334 1003 1037 1004 10093 8182 10094 10098 7957 8183 
1004 1037 1335 1038 8183 10099 10100 8189 8191 10101 
1301 1335 1302 1004 10102 10103 9877 9867 10100 9872 
1004 1037 1334 1335 8183 10094 10098 10100 10099 10104 
1301 1335 1004 1334 10102 10100 9867 10096 10104 10098 
1302 1004 1335 1005 9872 10100 10103 9874 7964 10105 
1335 1004 1038 1005 10100 8189 10101 10105 7964 8190 
1005 1038 1336 1039 8190 10106 10107 8196 8198 10108 
1302 1336 1303 1005 10109 10110 9884 9874 10107 9879 
1005 1038 1335 1336 8190 10101 10105 10107 10106 10111 
1302 1336 1005 1335 10109 10107 9874 10103 10111 10105 
1303 1005 1336 1006 9879 10107 10110 9881 7971 10112 
1336 1005 1039 1006 10107 8196 10108 10112 7971 8197 
1006 1039 1337 1040 8197 10113 10114 8203 8205 10115 
1303 1337 1304 1006 10116 10117 9891 9881 10114 9886 
1006 1039 1336 1337 8197 10108 10112 10114 10113 10118 
1303 1337 1006 1336 10116 10114 9881 10110 10118 10112 
1304 1006 1337 1007 9886 10114 10117 9888 7978 10119 
1337 1006 1040 1007 10114 8203 10115 10119 7978 8204 
1007 1040 1338 1041 8204 10120 10121 8210 8212 10122 
1304 1338 1305 1007 10123 10124 9898 9888 10121 9893 
1007 1040 1337 1338 8204 10115 10119 10121 10120 10125 
1304 1338 1007 1337 10123 10121 9888 10117 10125 10119 
1305 1007 1338 1008 9893 10121 10124 9895 7985 10126 
1338 1007 1041 1008 10121 8210 10122 10126 7985 8211 
1008 1041 1339 1042 8211 10127 10128 8217 8219 10129 
1305 1339 1306 1008 10130 10131 9905 9895 10128 9900 
1008 1041 1338 1339 8211 10122 10126 10128 10127 10132 
1305 1339 1008 1338 10130 10128 9895 10124 10132 10126 
1306 1008 1339 1009 9900 10128 10131 9902 7992 10133 
1339 1008 1042 1009 10128 8217 10129 10133 7992 8218 
1009 1042 1340 1043 8218 10134 10135 8224 8226 10136 
1306 1340 1307 1009 10137 10138 9912 9902 10135 9907 
1009 1042 1339 1340 8218 10129 10133 10135 10134 10139 
1306 1340 1009 1339 10137 10135 9902 10131 10139 10133 
1307 1009 1340 1010 9907 10135 10138 9909 7999 10140 
1340 1009 1043 1010 10135 8224 10136 10140 7999 8225 
1010 1043 1341 1044 8225 10141 10142 8231 8233 10143 
1307 1341 1308 1010 10144 10145 9919 9909 10142 9914 
1010 1043 1340 1341 8225 10136 10140 10142 10141 10146 
1307 1341 1010 1340 10144 10142 9909 10138 10146 10140 
1308 1010 1341 1011 9914 10142 10145 9916 8006 10147 
1341 1010 1044 1011 10142 8231 10143 10147 8006 8232 
1011 1044 1342 1045 8232 10148 10149 8238 8240 10150 
1308 1342 1309 1011 10151 10152 9926 9916 10149 9921 
1011 1044 1341 1342 8232 10143 10147 10149 10148 10153 
1308 1342 1011 1341 10151 10149 9916 10145 10153 10147 
1309 1011 1342 1012 9921 10149 10152 9923 8013 10154 
1342 1011 1045 1012 10149 8238 10150 10154 8013 8239 
1012 1045 1343 1046 8239 10155 10156 8245 8247 10157 
1309 1343 1310 1012 10158 10159 9933 9923 10156 9928 
1012 1045 1342 1343 8239 10150 10154 10156 10155 10160 
1309 1343 1012 1342 10158 10156 9923 10152 10160 10154 
1310 1012 1343 1013 9928 10156 10159 9930 8020 10161 
1343 1012 1046 1013 10156 8245 10157 10161 8020 8246 
1013 1046 1344 1047 8246 10162 10163 8252 8254 10164 
1310 1344 1311 1013 10165 10166 9940 9930 10163 9935 
1013 1046 1343 1344 8246 10157 10161 10163 10162 10167 
1310 1344 1013 1343 10165 10163 9930 10159 10167 10161 
1311 1013 1344 1014 9935 10163 10166 9937 8027 10168 
1344 1013 1047 1014 10163 8252 10164 10168 8027 8253 
1014 1047 1345 1048 8253 10169 10170 8259 8261 10171 
1311 1345 1312 1014 10172 10173 9947 9937 10170 9942 
1014 1047 1344 1345 8253 10164 10168 10170 10169 10174 
1311 1345 1014 1344 10172 10170 9937 10166 10174 10168 
1312 1014 1345 1015 9942 10170 10173 9944 8034 10175 
1345 1014 1048 1015 10170 8259 10171 10175 8034 8260 
1015 1048 1346 1049 8260 10176 10177 8266 8268 10178 
1312 1346 1313 1015 10179 10180 9954 9944 10177 9949 
1015 1048 1345 1346 8260 10171 10175 10177 10176 10181 
1312 1346 1015 1345 10179 10177 9944 10173 10181 10175 
1313 1015 1346 1016 9949 10177 10180 9951 8041 10182 
1346 1015 1049 1016 10177 8266 10178 10182 8041 8267 
1016 1049 1347 1050 8267 10183 10184 8273 8275 10185 
1313 1347 1314 1016 10186 10187 9961 9951 10184 9956 
1016 1049 1346 1347 8267 10178 10182 10184 10183 10188 
1313 1347 1016 1346 10186 10184 9951 10180 10188 10182 
1314 1016 1347 1017 9956 10184 10187 9958 8048 10189 
1347 1016 1050 1017 10184 8273 10185 10189 8048 8274 
1017 1050 1348 1051 8274 10190 10191 8280 8282 10192 
1314 1348 1315 1017 10193 10194 9968 9958 10191 9963 
1017 1050 1347 1348 8274 10185 10189 10191 10190 10195 
1314 1348 1017 1347 10193 10191 9958 10187 10195 10189 
1315 1017 1348 1018 9963 10191 10194 9965 8055 10196 
1348 1017 1051 1018 10191 8280 10192 10196 8055 8281 
1018 1051 1349 1052 8281 10197 10198 8287 8289 10199 
1315 1349 1316 1018 10200 10201 9975 9965 10198 9970 
1018 1051 1348 1349 8281 10192 10196 10198 10197 10202 
1315 1349 1018 1348 10200 10198 9965 10194 10202 10196 
1316 1018 1349 1019 9970 10198 10201 9972 8062 10203 
1349 1018 1052 1019 10198 8287 10199 10203 8062 8288 
1019 1052 1350 1053 8288 10204 10205 8294 8296 10206 
1316 1350 1317 1019 10207 10208 9982 9972 10205 9977 
1019 1052 1349 1350 8288 10199 10203 10205 10204 10209 
1316 1350 1019 1349 10207 10205 9972 10201 10209 10203 
1317 1019 1350 1020 9977 10205 10208 9979 8069 10210 
1350 1019 1053 1020 10205 8294 10206 10210 8069 8295 
1020 1053 1351 1054 8295 10211 10212 8301 8303 10213 
1317 1351 1318 1020 10214 10215 9989 9979 10212 9984 
1020 1053 1350 1351 8295 10206 10210 10212 10211 10216 
1317 1351 1020 1350 10214 10212 9979 10208 10216 10210 
1318 1020 1351 1021 9984 10212 10215 9986 8076 10217 
1351 1020 1054 1021 10212 8301 10213 10217 8076 8302 
1021 1054 1352 1055 8302 10218 10219 8308 8310 10220 
1318 1352 1319 1021 10221 10222 9996 9986 10219 9991 
1021 1054 1351 1352 8302 10213 10217 10219 10218 10223 
1318 1352 1021 1351 10221 10219 9986 10215 10223 10217 
1319 1021 1352 1022 9991 10219 10222 9993 8083 10224 
1352 1021 1055 1022 10219 8308 10220 10224 8083 8309 
1023 1056 1354 1057 8320 10225 10226 8315 8319 10227 
1320 1354 1321 1023 10228 10229 10005 10003 10226 9998 
1023 1056 1353 1354 8320 10230 10231 10226 10225 10232 
1320 1354 1023 1353 10228 10226 10003 10233 10232 10231 
1321 1023 1354 1024 9998 10226 10229 10000 8092 10234 
1354 1023 1057 1024 10226 8315 10227 10234 8092 8316 
1024 1057 1355 1058 8316 10235 10236 8325 8327 10237 
1321 1355 1322 1024 10238 10239 10013 10000 10236 10008 
1024 1057 1354 1355 8316 10227 10234 10236 10235 10240 
1321 1355 1024 1354 10238 10236 10000 10229 10240 10234 
1322 1024 1355 1025 10008 10236 10239 10010 8100 10241 
1355 1024 1058 1025 10236 8325 10237 10241 8100 8326 
1025 1058 1356 1059 8326 10242 10243 8332 8334 10244 
1322 1356 1323 1025 10245 10246 10020 10010 10243 10015 
1025 1058 1355 1356 8326 10237 10241 10243 10242 10247 
1322 1356 1025 1355 10245 10243 10010 10239 10247 10241 
1323 1025 1356 1026 10015 10243 10246 10017 8107 10248 
1356 1025 1059 1026 10243 8332 10244 10248 8107 8333 
1026 1059 1357 1060 8333 10249 10250 8339 8341 10251 
1323 1357 1324 1026 10252 10253 10027 10017 10250 10022 
1026 1059 1356 1357 8333 10244 10248 10250 10249 10254 
1323 1357 1026 1356 10252 10250 10017 10246 10254 10248 
1324 1026 1357 1027 10022 10250 10253 10024 8114 10255 
1357 1026 1060 1027 10250 8339 10251 10255 8114 8340 
1027 1060 1358 1061 8340 10256 10257 8346 8348 10258 
1324 1358 1325 1027 10259 10260 10034 10024 10257 10029 
1027 1060 1357 1358 8340 10251 10255 10257 10256 10261 
1324 1358 1027 1357 10259 10257 10024 10253 10261 10255 
1325 1027 1358 1028 10029 10257 10260 10031 8121 10262 
1358 1027 1061 1028 10257 8346 10258 10262 8121 8347 
1028 1061 1359 1062 8347 10263 10264 8353 8355 10265 
1325 1359 1326 1028 10266 10267 10041 10031 10264 10036 
1028 1061 1358 1359 8347 10258 10262 10264 10263 10268 
1325 1359 1028 1358 10266 10264 10031 10260 10268 10262 
1326 1028 1359 1029 10036 10264 10267 10038 8128 10269 
1359 1028 1062 1029 10264 8353 10265 10269 8128 8354 
1029 1062 1360 1063 8354 10270 10271 8360 8362 10272 
1326 1360 1327 1029 10273 10274 10048 10038 10271 10043 
1029 1062 1359 1360 8354 10265 10269 10271 10270 10275 
1326 1360 1029 1359 10273 10271 10038 10267 10275 10269 
1327 1029 1360 1030 10043 10271 10274 10045 8135 10276 
1360 1029 1063 1030 10271 8360 10272 10276 8135 8361 
1030 1063 1361 1064 8361 10277 10278 8367 8369 10279 
1327 1361 1328 1030 10280 10281 10055 10045 10278 10050 
1030 1063 1360 1361 8361 10272 10276 10278 10277 10282 
1327 1361 1030 1360 10280 10278 10045 10274 10282 10276 
1328 1030 1361 1031 10050 10278 10281 10052 8142 10283 
1361 1030 1064 1031 10278 8367 10279 10283 8142 8368 
1031 1064 1362 1065 8368 10284 10285 8374 8376 10286 
1328 1362 1329 1031 10287 10288 10062 10052 10285 10057 
1031 1064 1361 1362 8368 10279 10283 10285 10284 10289 
1328 1362 1031 1361 10287 10285 10052 10281 10289 10283 
1329 1031 1362 1032 10057 10285 10288 10059 8149 10290 
1362 1031 1065 1032 10285 8374 10286 10290 8149 8375 
1032 1065 1363 1066 8375 10291 10292 8381 8383 10293 
1329 1363 1330 1032 10294 10295 10069 10059 10292 10064 
1032 1065 1362 1363 8375 10286 10290 10292 10291 10296 
1329 1363 1032 1362 10294 10292 10059 10288 10296 10290 
1330 1032 1363 1033 10064 10292 10295 10066 8156 10297 
1363 1032 1066 1033 10292 8381 10293 10297 8156 8382 
1033 1066 1364 1067 8382 10298 10299 8388 8390 10300 
1330 1364 1331 1033 10301 10302 10076 10066 10299 10071 
1033 1066 1363 1364 8382 10293 10297 10299 10298 10303 
1330 1364 1033 1363 10301 10299 10066 10295 10303 10297 
1331 1033 1364 1034 10071 10299 10302 10073 8163 10304 
1364 1033 1067 1034 10299 8388 10300 10304 8163 8389 
1034 1067 1365 1068 8389 10305 10306 8395 8397 10307 
1331 1365 1332 1034 10308 10309 10083 10073 10306 10078 
1034 1067 1364 1365 8389 10300 10304 10306 10305 10310 
1331 1365 1034 1364 10308 10306 10073 10302 10310 10304 
1332 1034 1365 1035 10078 10306 10309 10080 8170 10311 
1365 1034 1068 1035 10306 8395 10307 10311 8170 8396 
1035 1068 1366 1069 8396 10312 10313 8402 8404 10314 
1332 1366 1333 1035 10315 10316 10090 10080 10313 10085 
1035 1068 1365 1366 8396 10307 10311 10313 10312 10317 
1332 1366 1035 1365 10315 10313 10080 10309 10317 10311 
1333 1035 1366 1036 10085 10313 10316 10087 8177 10318 
1366 1035 1069 1036 10313 8402 10314 10318 8177 8403 
1036 1069 1367 1070 8403 10319 10320 8409 8411 10321 
1333 1367 1334 1036 10322 10323 10097 10087 10320 10092 
1036 1069 1366 1367 8403 10314 10318 10320 10319 10324 
1333 1367 1036 1366 10322 10320 10087 10316 10324 10318 
1334 1036 1367 1037 10092 10320 10323 10094 8184 10325 
1367 1036 1070 1037 10320 8409 10321 10325 8184 8410 
1037 1070 1368 1071 8410 10326 10327 8416 8418 10328 
1334 1368 1335 1037 10329 10330 10104 10094 10327 10099 
1037 1070 1367 1368 8410 10321 10325 10327 10326 10331 
1334 1368 1037 1367 10329 10327 10094 10323 10331 10325 
1335 1037 1368 1038 10099 10327 10330 10101 8191 10332 
1368 1037 1071 1038 10327 8416 10328 10332 8191 8417 
1038 1071 1369 1072 8417 10333 10334 8423 8425 10335 
1335 1369 1336 1038 10336 10337 10111 10101 10334 10106 
1038 1071 1368 1369 8417 10328 10332 10334 10333 10338 
1335 1369 1038 1368 10336 10334 10101 10330 10338 10332 
1336 1038 1369 1039 10106 10334 10337 10108 8198 10339 
1369 1038 1072 1039 10334 8423 10335 10339 8198 8424 
1039 1072 1370 1073 8424 10340 10341 8430 8432 10342 
1336 1370 1337 1039 10343 10344 10118 10108 10341 10113 
1039 1072 1369 1370 8424 10335 10339 10341 10340 10345 
1336 1370 1039 1369 10343 10341 10108 10337 10345 10339 
1337 1039 1370 1040 10113 10341 10344 10115 8205 10346 
1370 1039 1073 1040 10341 8430 10342 10346 8205 8431 
1040 1073 1371 1074 8431 10347 10348 8437 8439 10349 
1337 1371 1338 1040 10350 10351 10125 10115 10348 10120 
1040 1073 1370 1371 8431 10342 10346 10348 10347 10352 
1337 1371 1040 1370 10350 10348 10115 10344 10352 10346 
1338 1040 1371 1041 10120 10348 10351 10122 8212 10353 
1371 1040 1074 1041 10348 8437 10349 10353 8212 8438 
1041 1074 1372 1075 8438 10354 10355 8444 8446 10356 
1338 1372 1339 1041 10357 10358 10132 10122 10355 10127 
1041 1074 1371 1372 8438 10349 10353 10355 10354 10359 
1338 1372 1041 1371 10357 10355 10122 10351 10359 10353 
1339 1041 1372 1042 10127 10355 10358 10129 8219 10360 
1372 1041 1075 1042 10355 8444 10356 10360 8219 8445 
1042 1075 1373 1076 8445 10361 10362 8451 8453 10363 
1339 1373 1340 1042 10364 10365 10139 10129 10362 10134 
1042 1075 1372 1373 8445 10356 10360 10362 10361 10366 
1339 1373 1042 1372 10364 10362 10129 10358 10366 10360 
1340 1042 1373 1043 10134 10362 10365 10136 8226 10367 
1373 1042 1076 1043 10362 8451 10363 10367 8226 8452 
1043 1076 1374 1077 8452 10368 10369 8458 8460 10370 
1340 1374 1341 1043 10371 10372 10146 10136 10369 10141 
1043 1076 1373 1374 8452 10363 10367 10369 10368 10373 
1340 1374 1043 1373 10371 10369 10136 10365 10373 10367 
1341 1043 1374 1044 10141 10369 10372 10143 8233 10374 
1374 1043 1077 1044 10369 8458 10370 10374 8233 8459 
1044 1077 1375 1078 8459 10375 10376 8465 8467 10377 
1341 1375 1342 1044 10378 10379 10153 10143 10376 10148 
1044 1077 1374 1375 8459 10370 10374 10376 10375 10380 
1341 1375 1044 1374 10378 10376 10143 10372 10380 10374 
1342 1044 1375 1045 10148 10376 10379 10150 8240 10381 
1375 1044 1078 1045 10376 8465 10377 10381 8240 8466 
1045 1078 1376 1079 8466 10382 10383 8472 8474 10384 
1342 1376 1343 1045 10385 10386 10160 10150 10383 10155 
1045 1078 1375 1376 8466 10377 10381 10383 10382 10387 
1342 1376 1045 1375 10385 10383 10150 10379 10387 10381 
1343 1045 1376 1046 10155 10383 10386 10157 8247 10388 
1376 1045 1079 1046 10383 8472 10384 10388 8247 8473 
1046 1079 1377 1080 8473 10389 10390 8479 8481 10391 
1343 1377 1344 1046 10392 10393 10167 10157 10390 10162 
1046 1079 1376 1377 8473 10384 10388 10390 10389 10394 
1343 1377 1046 1376 10392 10390 10157 10386 10394 10388 
1344 1046 1377 1047 10162 10390 10393 10164 8254 10395 
1377 1046 1080 1047 10390 8479 10391 10395 8254 8480 
1047 1080 1378 1081 8480 10396 10397 8486 8488 10398 
1344 1378 1345 1047 10399 10400 10174 10164 10397 10169 
1047 1080 1377 1378 8480 10391 10395 10397 10396 10401 
1344 1378 1047 1377 10399 10397 10164 10393 10401 10395 
1345 1047 1378 1048 10169 10397 10400 10171 8261 10402 
1378 1047 1081 1048 10397 8486 10398 10402 8261 8487 
1048 1081 1379 1082 8487 10403 10404 8493 8495 10405 
1345 1379 1346 1048 10406 10407 10181 10171 10404 10176 
1048 1081 1378 1379 8487 10398 10402 10404 10403 10408 
1345 1379 1048 1378 10406 10404 10171 10400 10408 10402 
1346 1048 1379 1049 10176 10404 10407 10178 8268 10409 
1379 1048 1082 1049 10404 8493 10405 10409 8268 8494 
1049 1082 1380 1083 8494 10410 10411 8500 8502 10412 
1346 1380 1347 1049 10413 10414 10188 10178 10411 10183 
1049 1082 1379 1380 8494 10405 10409 10411 10410 10415 
1346 1380 1049 1379 10413 10411 10178 10407 10415 10409 
1347 1049 1380 1050 10183 10411 10414 10185 8275 10416 
1380 1049 1083 1050 10411 8500 10412 10416 8275 8501 
1050 1083 1381 1084 8501 10417 10418 8507 8509 10419 
1347 1381 1348 1050 10420 10421 10195 10185 10418 10190 
1050 1083 1380 1381 8501 10412 10416 10418 10417 10422 
1347 1381 1050 1380 10420 10418 10185 10414 10422 10416 
1348 1050 1381 1051 10190 10418 10421 10192 8282 10423 
1381 1050 1084 1051 10418 8507 10419 10423 8282 8508 
1051 1084 1382 1085 8508 10424 10425 8514 8516 10426 
1348 1382 1349 1051 10427 10428 10202 10192 10425 10197 
1051 1084 1381 1382 8508 10419 10423 10425 10424 10429 
1348 1382 1051 1381 10427 10425 10192 10421 10429 10423 
1349 1051 1382 1052 10197 10425 10428 10199 8289 10430 
1382 1051 1085 1052 10425 8514 10426 10430 8289 8515 
1052 1085 1383 1086 8515 10431 10432 8521 8523 10433 
1349 1383 1350 1052 10434 10435 10209 10199 10432 10204 
1052 1085 1382 1383 8515 10426 10430 10432 10431 10436 
1349 1383 1052 1382 10434 10432 10199 10428 10436 10430 
1350 1052 1383 1053 10204 10432 10435 10206 8296 10437 
1383 1052 1086 1053 10432 8521 10433 10437 8296 8522 
1053 1086 1384 1087 8522 10438 10439 8528 8530 10440 
1350 1384 1351 1053 10441 10442 10216 10206 10439 10211 
1053 1086 1383 1384 8522 10433 10437 10439 10438 10443 
1350 1384 1053 1383 10441 10439 10206 10435 10443 10437 
1351 1053 1384 1054 10211 10439 10442 10213 8303 10444 
1384 1053 1087 1054 10439 8528 10440 10444 8303 8529 
1054 1087 1385 1088 8529 10445 10446 8535 8537 10447 
1351 1385 1352 1054 10448 10449 10223 10213 10446 10218 
1054 1087 1384 1385 8529 10440 10444 10446 10445 10450 
1351 1385 1054 1384 10448 10446 10213 10442 10450 10444 
1352 1054 1385 1055 10218 10446 10449 10220 8310 10451 
1385 1054 1088 1055 10446 8535 10447 10451 8310 8536 
1056 1089 1387 1090 8547 10452 10453 8542 8546 10454 
1353 1387 1354 1056 10455 10456 10232 10230 10453 10225 
1056 1089 1386 1387 8547 10457 10458 10453 10452 10459 
1353 1387 1056 1386 10455 10453 10230 10460 10459 10458 
1354 1056 1387 1057 10225 10453 10456 10227 8319 10461 
1387 1056 1090 1057 10453 8542 10454 10461 8319 8543 
1057 1090 1388 1091 8543 10462 10463 8552 8554 10464 
1354 1388 1355 1057 10465 10466 10240 10227 10463 10235 
1057 1090 1387 1388 8543 10454 10461 10463 10462 10467 
1354 1388 1057 1387 10465 10463 10227 10456 10467 10461 
1355 1057 1388 1058 10235 10463 10466 10237 8327 10468 
1388 1057 1091 1058 10463 8552 10464 10468 8327 8553 
1058 1091 1389 1092 8553 10469 10470 8559 8561 10471 
1355 1389 1356 1058 10472 10473 10247 10237 10470 10242 
1058 1091 1388 1389 8553 10464 10468 10470 10469 10474 
1355 1389 1058 1388 10472 10470 10237 10466 10474 10468 
1356 1058 1389 1059 10242 10470 10473 10244 8334 10475 
1389 1058 1092 1059 10470 8559 10471 10475 8334 8560 
1059 1092 1390 1093 8560 10476 10477 8566 8568 10478 
1356 1390 1357 1059 10479 10480 10254 10244 10477 10249 
1059 1092 1389 1390 8560 10471 10475 10477 10476 10481 
1356 1390 1059 1389 10479 10477 10244 10473 10481 10475 
1357 1059 1390 1060 10249 10477 10480 10251 8341 10482 
1390 1059 1093 1060 10477 8566 10478 10482 8341 8567 
1060 1093 1391 1094 8567 10483 10484 8573 8575 10485 
1357 1391 1358 1060 10486 10487 10261 10251 10484 10256 
1060 1093 1390 1391 8567 10478 10482 10484 10483 10488 
1357 1391 1060 1390 10486 10484 10251 10480 10488 10482 
1358 1060 1391 1061 10256 10484 10487 10258 8348 10489 
1391 1060 1094 1061 10484 8573 10485 10489 8348 8574 
1061 1094 1392 1095 8574 10490 10491 8580 8582 10492 
1358 1392 1359 1061 10493 10494 10268 10258 10491 10263 
1061 1094 1391 1392 8574 10485 10489 10491 10490 10495 
1358 1392 1061 1391 10493 10491 10258 10487 10495 10489 
1359 1061 1392 1062 10263 10491 10494 10265 8355 10496 
1392 1061 1095 1062 10491 8580 10492 10496 8355 8581 
1062 1095 1393 1096 8581 10497 10498 8587 8589 10499 
1359 1393 1360 1062 10500 10501 10275 10265 10498 10270 
1062 1095 1392 1393 8581 10492 10496 10498 10497 10502 
1359 1393 1062 1392 10500 10498 10265 10494 10502 10496 
1360 1062 1393 1063 10270 10498 10501 10272 8362 10503 
1393 1062 1096 1063 10498 8587 10499 10503 8362 8588 
1063 1096 1394 1097 8588 10504 10505 8594 8596 10506 
1360 1394 1361 1063 10507 10508 10282 10272 10505 10277 
1063 1096 1393 1394 8588 10499 10503 10505 10504 10509 
1360 1394 1063 1393 10507 10505 10272 10501 10509 10503 
1361 1063 1394 1064 10277 10505 10508 10279 8369 10510 
1394 1063 1097 1064 10505 8594 10506 10510 8369 8595 
1064 1097 1395 1098 8595 10511 10512 8601 8603 10513 
1361 1395 1362 1064 10514 10515 10289 10279 10512 10284 
1064 1097 1394 1395 8595 10506 10510 10512 10511 10516 
1361 1395 1064 1394 10514 10512 10279 10508 10516 10510 
1362 1064 1395 1065 10284 10512 10515 10286 8376 10517 
1395 1064 1098 1065 10512 8601 10513 10517 8376 8602 
1065 1098 1396 1099 8602 10518 10519 8608 8610 10520 
1362 1396 1363 1065 10521 10522 10296 10286 10519 10291 
1065 1098 1395 1396 8602 10513 10517 10519 10518 10523 
1362 1396 1065 1395 10521 10519 10286 10515 10523 10517 
1363 1065 1396 1066 10291 10519 10522 10293 8383 10524 
1396 1065 1099 1066 10519 8608 10520 10524 8383 8609 
1066 1099 1397 1100 8609 10525 10526 8615 8617 10527 
1363 1397 1364 1066 10528 10529 10303 10293 10526 10298 
1066 1099 1396 1397 8609 10520 10524 10526 10525 10530 
1363 1397 1066 1396 10528 10526 10293 10522 10530 10524 
1364 1066 1397 1067 10298 10526 10529 10300 8390 10531 
1397 1066 1100 1067 10526 8615 10527 10531 8390 8616 
1067 1100 1398 1101 8616 10532 10533 8622 8624 10534 
1364 1398 1365 1067 10535 10536 10310 10300 10533 10305 
1067 1100 1397 1398 8616 10527 10531 10533 10532 10537 
1364 1398 1067 1397 10535 10533 10300 10529 10537 10531 
1365 1067 1398 1068 10305 10533 10536 10307 8397 10538 
1398 1067 1101 1068 10533 8622 10534 10538 8397 8623 
1068 1101 1399 1102 8623 10539 10540 8629 8631 10541 
1365 1399 1366 1068 10542 10543 10317 10307 10540 10312 
1068 1101 1398 1399 8623 10534 10538 10540 10539 10544 
1365 1399 1068 1398 10542 10540 10307 10536 10544 10538 
1366 1068 1399 1069 10312 10540 10543 10314 8404 10545 
1399 1068 1102 1069 10540 8629 10541 10545 8404 8630 
1069 1102 1400 1103 8630 10546 10547 8636 8638 10548 
1366 1400 1367 1069 10549 10550 10324 10314 10547 10319 
1069 1102 1399 1400 8630 10541 10545 10547 10546 10551 
1366 1400 1069 1399 10549 10547 10314 10543 10551 10545 
1367 1069 1400 1070 10319 10547 10550 10321 8411 10552 
1400 1069 1103 1070 10547 8636 10548 10552 8411 8637 
1070 1103 1401 1104 8637 10553 10554 8643 8645 10555 
1367 1401 1368 1070 10556 10557 10331 10321 10554 10326 
1070 1103 1400 1401 8637 10548 10552 10554 10553 10558 
1367 1401 1070 1400 10556 10554 10321 10550 10558 10552 
1368 1070 1401 1071 10326 10554 10557 10328 8418 10559 
1401 1070 1104 1071 10554 8643 10555 10559 8418 8644 
1071 1104 1402 1105 8644 10560 10561 8650 8652 10562 
1368 1402 1369 1071 10563 10564 10338 10328 10561 10333 
1071 1104 1401 1402 8644 10555 10559 10561 10560 10565 
1368 1402 1071 1401 10563 10561 10328 10557 10565 10559 
1369 1071 1402 1072 10333 10561 10564 10335 8425 10566 
1402 1071 1105 1072 10561 8650 10562 10566 8425 8651 
1072 1105 1403 1106 8651 10567 10568 8657 8659 10569 
1369 1403 1370 1072 10570 10571 10345 10335 10568 10340 
1072 1105 1402 1403 8651 10562 10566 10568 10567 10572 
1369 1403 1072 1402 10570 10568 10335 10564 10572 10566 
1370 1072 1403 1073 10340 10568 10571 10342 8432 10573 
1403 1072 1106 1073 10568 8657 10569 10573 8432 8658 
1073 1106 1404 1107 8658 10574 10575 8664 8666 10576 
1370 1404 1371 1073 10577 10578 10352 10342 10575 10347 
1073 1106 1403 1404 8658 10569 10573 10575 10574 10579 
1370 1404 1073 1403 10577 10575 10342 10571 10579 10573 
1371 1073 1404 1074 10347 10575 10578 10349 8439 10580 
1404 1073 1107 1074 10575 8664 10576 10580 8439 8665 
1074 1107 1405 1108 8665 10581 10582 8671 8673 10583 
1371 1405 1372 1074 10584 10585 10359 10349 10582 10354 
1074 1107 1404 1405 8665 10576 10580 10582 10581 10586 
1371 1405 1074 1404 10584 10582 10349 10578 10586 10580 
1372 1074 1405 1075 10354 10582 10585 10356 8446 10587 
1405 1074 1108 1075 10582 8671 10583 10587 8446 8672 
1075 1108 1406 1109 8672 10588 10589 8678 8680 10590 
1372 1406 1373 1075 10591 10592 10366 10356 10589 10361 
1075 1108 1405 1406 8672 10583 10587 10589 10588 10593 
1372 1406 1075 1405 10591 10589 10356 10585 10593 10587 
1373 1075 1406 1076 10361 10589 10592 10363 8453 10594 
1406 1075 1109 1076 10589 8678 10590 10594 8453 8679 
1076 1109 1407 1110 8679 10595 10596 8685 8687 10597 
1373 1407 1374 1076 10598 10599 10373 10363 10596 10368 
1076 1109 1406 1407 8679 10590 10594 10596 10595 10600 
1373 1407 1076 1406 10598 10596 10363 10592 10600 10594 
1374 1076 1407 1077 10368 10596 10599 10370 8460 10601 
1407 1076 1110 1077 10596 8685 10597 10601 8460 8686 
1077 1110 1408 1111 8686 10602 10603 8692 8694 10604 
1374 1408 1375 1077 10605 10606 10380 10370 10603 10375 
1077 1110 1407 1408 8686 10597 10601 10603 10602 10607 
1374 1408 1077 1407 10605 10603 10370 10599 10607 10601 
1375 1077 1408 1078 10375 10603 10606 10377 8467 10608 
1408 1077 1111 1078 10603 8692 10604 10608 8467 8693 
1078 1111 1409 1112 8693 10609 10610 8699 8701 10611 
1375 1409 1376 1078 10612 10613 10387 10377 10610 10382 
1078 1111 1408 1409 8693 10604 10608 10610 10609 10614 
1375 1409 1078 1408 10612 10610 10377 10606 10614 10608 
1376 1078 1409 1079 10382 10610 10613 10384 8474 10615 
1409 1078 1112 1079 10610 8699 10611 10615 8474 8700 
1079 1112 1410 1113 8700 10616 10617 8706 8708 10618 
1376 1410 1377 1079 10619 10620 10394 10384 10617 10389 
1079 1112 1409 1410 8700 10611 10615 10617 10616 10621 
1376 1410 1079 1409 10619 10617 10384 10613 10621 10615 
1377 1079 1410 1080 10389 10617 10620 10391 8481 10622 
1410 1079 1113 1080 10617 8706 10618 10622 8481 8707 
1080 1113 1411 1114 8707 10623 10624 8713 8715 10625 
1377 1411 1378 1080 10626 10627 10401 10391 10624 10396 
1080 1113 1410 1411 8707 10618 10622 10624 10623 10628 
1377 1411 1080 1410 10626 10624 10391 10620 10628 10622 
1378 1080 1411 1081 10396 10624 10627 10398 8488 10629 
1411 1080 1114 1081 10624 8713 10625 10629 8488 8714 
1081 1114 1412 1115 8714 10630 10631 8720 8722 10632 
1378 1412 1379 1081 10633 10634 10408 10398 10631 10403 
1081 1114 1411 1412 8714 10625 10629 10631 10630 10635 
1378 1412 1081 1411 10633 10631 10398 10627 10635 10629 
1379 1081 1412 1082 10403 10631 10634 10405 8495 10636 
1412 1081 1115 1082 10631 8720 10632 10636 8495 8721 
1082 1115 1413 1116 8721 10637 10638 8727 8729 10639 
1379 1413 1380 1082 10640 10641 10415 10405 10638 10410 
1082 1115 1412 1413 8721 10632 10636 10638 10637 10642 
1379 1413 1082 1412 10640 10638 10405 10634 10642 10636 
1380 1082 1413 1083 10410 10638 10641 10412 8502 10643 
1413 1082 1116 1083 10638 8727 10639 10643 8502 8728 
1083 1116 1414 1117 8728 10644 10645 8734 8736 10646 
1380 1414 1381 1083 10647 10648 10422 10412 10645 10417 
1083 1116 1413 1414 8728 10639 10643 10645 10644 10649 
1380 1414 1083 1413 10647 10645 10412 10641 10649 10643 
1381 1083 1414 1084 10417 10645 10648 10419 8509 10650 
1414 1083 1117 1084 10645 8734 10646 10650 8509 8735 
1084 1117 1415 1118 8735 10651 10652 8741 8743 10653 
1381 1415 1382 1084 10654 10655 10429 10419 10652 10424 
1084 1117 1414 1415 8735 10646 10650 10652 10651 10656 
1381 1415 1084 1414 10654 10652 10419 10648 10656 10650 
1382 1084 1415 1085 10424 10652 10655 10426 8516 10657 
1415 1084 1118 1085 10652 8741 10653 10657 8516 8742 
1085 1118 1416 1119 8742 10658 10659 8748 8750 10660 
1382 1416 1383 1085 10661 10662 10436 10426 10659 10431 
1085 1118 1415 1416 8742 10653 10657 10659 10658 10663 
1382 1416 1085 1415 10661 10659 10426 10655 10663 10657 
1383 1085 1416 1086 10431 10659 10662 10433 8523 10664 
1416 1085 1119 1086 10659 8748 10660 10664 8523 8749 
1086 1119 1417 1120 8749 10665 10666 8755 8757 10667 
1383 1417 1384 1086 10668 10669 10443 10433 10666 10438 
1086 1119 1416 1417 8749 10660 10664 10666 10665 10670 
1383 1417 1086 1416 10668 10666 10433 10662 10670 10664 
1384 1086 1417 1087 10438 10666 10669 10440 8530 10671 
1417 1086 1120 1087 10666 8755 10667 10671 8530 8756 
1087 1120 1418 1121 8756 10672 10673 8762 8764 10674 
1384 1418 1385 1087 10675 10676 10450 10440 10673 10445 
1087 1120 1417 1418 8756 10667 10671 10673 10672 10677 
1384 1418 1087 1417 10675 10673 10440 10669 10677 10671 
1385 1087 1418 1088 10445 10673 10676 10447 8537 10678 
1418 1087 1121 1088 10673 8762 10674 10678 8537 8763 
1089 1122 1420 1123 8774 10679 10680 8769 8773 10681 
1386 1420 1387 1089 10682 10683 10459 10457 10680 10452 
1089 1122 1419 1420 8774 10684 10685 10680 10679 10686 
1386 1420 1089 1419 10682 10680 10457 10687 10686 10685 
1387 1089 1420 1090 10452 10680 10683 10454 8546 10688 
1420 1089 1123 1090 10680 8769 10681 10688 8546 8770 
1090 1123 1421 1124 8770 10689 10690 8779 8781 10691 
1387 1421 1388 1090 10692 10693 10467 10454 10690 10462 
1090 1123 1420 1421 8770 10681 10688 10690 10689 10694 
1387 1421 1090 1420 10692 10690 10454 10683 10694 10688 
1388 1090 1421 1091 10462 10690 10693 10464 8554 10695 
1421 1090 1124 1091 10690 8779 10691 10695 8554 8780 
1091 1124 1422 1125 8780 10696 10697 8786 8788 10698 
1388 1422 1389 1091 10699 10700 10474 10464 10697 10469 
1091 1124 1421 1422 8780 10691 10695 10697 10696 10701 
1388 1422 1091 1421 10699 10697 10464 10693 10701 10695 
1389 1091 1422 1092 10469 10697 10700 10471 8561 10702 
1422 1091 1125 1092 10697 8786 10698 10702 8561 8787 
1092 1125 1423 1126 8787 10703 10704 8793 8795 10705 
1389 1423 1390 1092 10706 10707 10481 10471 10704 10476 
1092 1125 1422 1423 8787 10698 10702 10704 10703 10708 
1389 1423 1092 1422 10706 10704 10471 10700 10708 10702 
1390 1092 1423 1093 10476 10704 10707 10478 8568 10709 
1423 1092 1126 1093 10704 8793 10705 10709 8568 8794 
1093 1126 1424 1127 8794 10710 10711 8800 8802 10712 
1390 1424 1391 1093 10713 10714 10488 10478 10711 10483 
1093 1126 1423 1424 8794 10705 10709 10711 10710 10715 
1390 1424 1093 1423 10713 10711 10478 10707 10715 10709 
1391 1093 1424 1094 10483 10711 10714 10485 8575 10716 
1424 1093 1127 1094 10711 8800 10712 10716 8575 8801 
1094 1127 1425 1128 8801 10717 10718 8807 8809 10719 
1391 1425 1392 1094 10720 10721 10495 10485 10718 10490 
1094 1127 1424 1425 8801 10712 10716 10718 10717 10722 
1391 1425 1094 1424 10720 10718 10485 10714 10722 10716 
1392 1094 1425 1095 10490 10718 10721 10492 8582 10723 
1425 1094 1128 1095 10718 8807 10719 10723 8582 8808 
1095 1128 1426 1129 8808 10724 10725 8814 8816 10726 
1392 1426 1393 1095 10727 10728 10502 10492 10725 10497 
1095 1128 1425 1426 8808 10719 10723 10725 10724 10729 
1392 1426 1095 1425 10727 10725 10492 10721 10729 10723 
1393 1095 1426 1096 10497 10725 10728 10499 8589 10730 
1426 1095 1129 1096 10725 8814 10726 10730 8589 8815 
1096 1129 1427 1130 8815 10731 10732 8821 8823 10733 
1393 1427 1394 1096 10734 10735 10509 10499 10732 10504 
1096 1129 1426 1427 8815 10726 10730 10732 10731 10736 
1393 1427 1096 1426 10734 10732 10499 10728 10736 10730 
1394 1096 1427 1097 10504 10732 10735 10506 8596 10737 
1427 1096 1130 1097 10732 8821 10733 10737 8596 8822 
1097 1130 1428 1131 8822 10738 10739 8828 8830 10740 
1394 1428 1395 1097 10741 10742 10516 10506 10739 10511 
1097 1130 1427 1428 8822 10733 10737 10739 10738 10743 
1394 1428 1097 1427 10741 10739 10506 10735 10743 10737 
1395 1097 1428 1098 10511 10739 10742 10513 8603 10744 
1428 1097 1131 1098 10739 8828 10740 10744 8603 8829 
1098 1131 1429 1132 8829 10745 10746 8835 8837 10747 
1395 1429 1396 1098 10748 10749 10523 10513 10746 10518 
1098 1131 1428 1429 8829 10740 10744 10746 10745 10750 
1395 1429 1098 1428 10748 10746 10513 10742 10750 10744 
1396 1098 1429 1099 10518 10746 10749 10520 8610 10751 
1429 1098 1132 1099 10746 8835 10747 10751 8610 8836 
1099 1132 1430 1133 8836 10752 10753 8842 8844 10754 
1396 1430 1397 1099 10755 10756 10530 10520 10753 10525 
1099 1132 1429 1430 8836 10747 10751 10753 10752 10757 
1396 1430 1099 1429 10755 10753 10520 10749 10757 10751 
1397 1099 1430 1100 10525 10753 10756 10527 8617 10758 
1430 1099 1133 1100 10753 8842 10754 10758 8617 8843 
1100 1133 1431 1134 8843 10759 10760 8849 8851 10761 
1397 1431 1398 1100 10762 10763 10537 10527 10760 10532 
1100 1133 1430 1431 8843 10754 10758 10760 10759 10764 
1397 1431 1100 1430 10762 10760 10527 10756 10764 10758 
1398 1100 1431 1101 10532 10760 10763 10534 8624 10765 
1431 1100 1134 1101 10760 8849 10761 10765 8624 8850 
1101 1134 1432 1135 8850 10766 10767 8856 8858 10768 
1398 1432 1399 1101 10769 10770 10544 10534 10767 10539 
1101 1134 1431 1432 8850 10761 10765 10767 10766 10771 
1398 1432 1101 1431 10769 10767 10534 10763 10771 10765 
1399 1101 1432 1102 10539 10767 10770 10541 8631 10772 
1432 1101 1135 1102 10767 8856 10768 10772 8631 8857 
1102 1135 1433 1136 8857 10773 10774 8863 8865 10775 
1399 1433 1400 1102 10776 10777 10551 10541 10774 10546 
1102 1135 1432 1433 8857 10768 10772 10774 10773 10778 
1399 1433 1102 1432 10776 10774 10541 10770 10778 10772 
1400 1102 1433 1103 10546 10774 10777 10548 8638 10779 
1433 1102 1136 1103 10774 8863 10775 10779 8638 8864 
1103 1136 1434 1137 8864 10780 10781 8870 8872 10782 
1400 1434 1401 1103 10783 10784 10558 10548 10781 10553 
1103 1136 1433 1434 8864 10775 10779 10781 10780 10785 
1400 1434 1103 1433 10783 10781 10548 10777 10785 10779 
1401 1103 1434 1104 10553 10781 10784 10555 8645 10786 
1434 1103 1137 1104 10781 8870 10782 10786 8645 8871 
1104 1137 1435 1138 8871 10787 10788 8877 8879 10789 
1401 1435 1402 1104 10790 10791 10565 10555 10788 10560 
1104 1137 1434 1435 8871 10782 10786 10788 10787 10792 
1401 1435 1104 1434 10790 10788 10555 10784 10792 10786 
1402 1104 1435 1105 10560 10788 10791 10562 8652 10793 
1435 1104 1138 1105 10788 8877 10789 10793 8652 8878 
1105 1138 1436 1139 8878 10794 10795 8884 8886 10796 
1402 1436 1403 1105 10797 10798 10572 10562 10795 10567 
1105 1138 1435 1436 8878 10789 10793 10795 10794 10799 
1402 1436 1105 1435 10797 10795 10562 10791 10799 10793 
1403 1105 1436 1106 10567 10795 10798 10569 8659 10800 
1436 1105 1139 1106 10795 8884 10796 10800 8659 8885 
1106 1139 1437 1140 8885 10801 10802 8891 8893 10803 
1403 1437 1404 1106 10804 10805 10579 10569 10802 10574 
1106 1139 1436 1437 8885 10796 10800 10802 10801 10806 
1403 1437 1106 1436 10804 10802 10569 10798 10806 10800 
1404 1106 1437 1107 10574 10802 10805 10576 8666 10807 
1437 1106 1140 1107 10802 8891 10803 10807 8666 8892 
1107 1140 1438 1141 8892 10808 10809 8898 8900 10810 
1404 1438 1405 1107 10811 10812 10586 10576 10809 10581 
1107 1140 1437 1438 8892 10803 10807 10809 10808 10813 
1404 1438 1107 1437 10811 10809 10576 10805 10813 10807 
1405 1107 1438 1108 10581 10809 10812 10583 8673 10814 
1438 1107 1141 1108 10809 8898 10810 10814 8673 8899 
1108 1141 1439 1142 8899 10815 10816 8905 8907 10817 
1405 1439 1406 1108 10818 10819 10593 10583 10816 10588 
1108 1141 1438 1439 8899 10810 10814 10816 10815 10820 
1405 1439 1108 1438 10818 10816 10583 10812 10820 10814 
1406 1108 1439 1109 10588 10816 10819 10590 8680 10821 
1439 1108 1142 1109 10816 8905 10817 10821 8680 8906 
1109 1142 1440 1143 8906 10822 10823 8912 8914 10824 
1406 1440 1407 1109 10825 10826 10600 10590 10823 10595 
1109 1142 1439 1440 8906 10817 10821 10823 10822 10827 
1406 1440 1109 1439 10825 10823 10590 10819 10827 10821 
1407 1109 1440 1110 10595 10823 10826 10597 8687 10828 
1440 1109 1143 1110 10823 8912 10824 10828 8687 8913 
1110 1143 1441 1144 8913 10829 10830 8919 8921 10831 
1407 1441 1408 1110 10832 10833 10607 10597 10830 10602 
1110 1143 1440 1441 8913 10824 10828 10830 10829 10834 
1407 1441 1110 1440 10832 10830 10597 10826 10834 10828 
1408 1110 1441 1111 10602 10830 10833 10604 8694 10835 
1441 1110 1144 1111 10830 8919 10831 10835 8694 8920 
1111 1144 1442 1145 8920 10836 10837 8926 8928 10838 
1408 1442 1409 1111 10839 10840 10614 10604 10837 10609 
1111 1144 1441 1442 8920 10831 10835 10837 10836 10841 
1408 1442 1111 1441 10839 10837 10604 10833 10841 10835 
1409 1111 1442 1112 10609 10837 10840 10611 8701 10842 
1442 1111 1145 1112 10837 8926 10838 10842 8701 8927 
1112 1145 1443 1146 8927 10843 10844 8933 8935 10845 
1409 1443 1410 1112 10846 10847 10621 10611 10844 10616 
1112 1145 1442 1443 8927 10838 10842 10844 10843 10848 
1409 1443 1112 1442 10846 10844 10611 10840 10848 10842 
1410 1112 1443 1113 10616 10844 10847 10618 8708 10849 
1443 1112 1146 1113 10844 8933 10845 10849 8708 8934 
1113 1146 1444 1147 8934 10850 10851 8940 8942 10852 
1410 1444 1411 1113 10853 10854 10628 10618 10851 10623 
1113 1146 1443 1444 8934 10845 10849 10851 10850 10855 
1410 1444 1113 1443 10853 10851 10618 10847 10855 10849 
1411 1113 1444 1114 10623 10851 10854 10625 8715 10856 
1444 1113 1147 1114 10851 8940 10852 10856 8715 8941 
1114 1147 1445 1148 8941 10857 10858 8947 8949 10859 
1411 1445 1412 1114 10860 10861 10635 10625 10858 10630 
1114 1147 1444 1445 8941 10852 10856 10858 10857 10862 
1411 1445 1114 1444 10860 10858 10625 10854 10862 10856 
1412 1114 1445 1115 10630 10858 10861 10632 8722 10863 
1445 1114 1148 1115 10858 8947 10859 10863 8722 8948 
1115 1148 1446 1149 8948 10864 10865 8954 8956 10866 
1412 1446 1413 1115 10867 10868 10642 10632 10865 10637 
1115 1148 1445 1446 8948 10859 10863 10865 10864 10869 
1412 1446 1115 1445 10867 10865 10632 10861 10869 10863 
1413 1115 1446 1116 10637 10865 10868 10639 8729 10870 
1446 1115 1149 1116 10865 8954 10866 10870 8729 8955 
1116 1149 1447 1150 8955 10871 10872 8961 8963 10873 
1413 1447 1414 1116 10874 10875 10649 10639 10872 10644 
1116 1149 1446 1447 8955 10866 10870 10872 10871 10876 
1413 1447 1116 1446 10874 10872 10639 10868 10876 10870 
1414 1116 1447 1117 10644 10872 10875 10646 8736 10877 
1447 1116 1150 1117 10872 8961 10873 10877 8736 8962 
1117 1150 1448 1151 8962 10878 10879 8968 8970 10880 
1414 1448 1415 1117 10881 10882 10656 10646 10879 10651 
1117 1150 1447 1448 8962 10873 10877 10879 10878 10883 
1414 1448 1117 1447 10881 10879 10646 10875 10883 10877 
1415 1117 1448 1118 10651 10879 10882 10653 8743 10884 
1448 1117 1151 1118 10879 8968 10880 10884 8743 8969 
1118 1151 1449 1152 8969 10885 10886 8975 8977 10887 
1415 1449 1416 1118 10888 10889 10663 10653 10886 10658 
1118 1151 1448 1449 8969 10880 10884 10886 10885 10890 
1415 1449 1118 1448 10888 10886 10653 10882 10890 10884 
1416 1118 1449 1119 10658 10886 10889 10660 8750 10891 
1449 1118 1152 1119 10886 8975 10887 10891 8750 8976 
1119 1152 1450 1153 8976 10892 10893 8982 8984 10894 
1416 1450 1417 1119 10895 10896 10670 10660 10893 10665 
1119 1152 1449 1450 8976 10887 10891 10893 10892 10897 
1416 1450 1119 1449 10895 10893 10660 10889 10897 10891 
1417 1119 1450 1120 10665 10893 10896 10667 8757 10898 
1450 1119 1153 1120 10893 8982 10894 10898 8757 8983 
1120 1153 1451 1154 8983 10899 10900 8989 8991 10901 
1417 1451 1418 1120 10902 10903 10677 10667 10900 10672 
1120 1153 1450 1451 8983 10894 10898 10900 10899 10904 
1417 1451 1120 1450 10902 10900 10667 10896 10904 10898 
1418 1120 1451 1121 10672 10900 10903 10674 8764 10905 
1451 1120 1154 1121 10900 8989 10901 10905 8764 8990 
1122 1155 1453 1156 9001 10906 10907 8996 9000 10908 
1419 1453 1420 1122 10909 10910 10686 10684 10907 10679 
1122 1155 1452 1453 9001 10911 10912 10907 10906 10913 
1419 1453 1122 1452 10909 10907 10684 10914 10913 10912 
1420 1122 1453 1123 10679 10907 10910 10681 8773 10915 
1453 1122 1156 1123 10907 8996 10908 10915 8773 8997 
1123 1156 1454 1157 8997 10916 10917 9006 9008 10918 
1420 1454 1421 1123 10919 10920 10694 10681 10917 10689 
1123 1156 1453 1454 8997 10908 10915 10917 10916 10921 
1420 1454 1123 1453 10919 10917 10681 10910 10921 10915 
1421 1123 1454 1124 10689 10917 10920 10691 8781 10922 
1454 1123 1157 1124 10917 9006 10918 10922 8781 9007 
1124 1157 1455 1158 9007 10923 10924 9013 9015 10925 
1421 1455 1422 1124 10926 10927 10701 10691 10924 10696 
1124 1157 1454 1455 9007 10918 10922 10924 10923 10928 
1421 1455 1124 1454 10926 10924 10691 10920 10928 10922 
1422 1124 1455 1125 10696 10924 10927 10698 8788 10929 
1455 1124 1158 1125 10924 9013 10925 10929 8788 9014 
1125 1158 1456 1159 9014 10930 10931 9020 9022 10932 
1422 1456 1423 1125 10933 10934 10708 10698 10931 10703 
1125 1158 1455 1456 9014 10925 10929 10931 10930 10935 
1422 1456 1125 1455 10933 10931 10698 10927 10935 10929 
1423 1125 1456 1126 10703 10931 10934 10705 8795 10936 
1456 1125 1159 1126 10931 9020 10932 10936 8795 9021 
1126 1159 1457 1160 9021 10937 10938 9027 9029 10939 
1423 1457 1424 1126 10940 10941 10715 10705 10938 10710 
1126 1159 1456 1457 9021 10932 10936 10938 10937 10942 
1423 1457 1126 1456 10940 10938 10705 10934 10942 10936 
1424 1126 1457 1127 10710 10938 10941 10712 8802 10943 
1457 1126 1160 1127 10938 9027 10939 10943 8802 9028 
1127 1160 1458 1161 9028 10944 10945 9034 9036 10946 
1424 1458 1425 1127 10947 10948 10722 10712 10945 10717 
1127 1160 1457 1458 9028 10939 10943 10945 10944 10949 
1424 1458 1127 1457 10947 10945 10712 10941 10949 10943 
1425 1127 1458 1128 10717 10945 10948 10719 8809 10950 
1458 1127 1161 1128 10945 9034 10946 10950 8809 9035 
1128 1161 1459 1162 9035 10951 10952 9041 9043 10953 
1425 1459 1426 1128 10954 10955 10729 10719 10952 10724 
1128 1161 1458 1459 9035 10946 10950 10952 10951 10956 
1425 1459 1128 1458 10954 10952 10719 10948 10956 10950 
1426 1128 1459 1129 10724 10952 10955 10726 8816 10957 
1459 1128 1162 1129 10952 9041 10953 10957 8816 9042 
1129 1162 1460 1163 9042 10958 10959 9048 9050 10960 
1426 1460 1427 1129 10961 10962 10736 10726 10959 10731 
1129 1162 1459 1460 9042 10953 10957 10959 10958 10963 
1426 1460 1129 1459 10961 10959 10726 10955 10963 10957 
1427 1129 1460 1130 10731 10959 10962 10733 8823 10964 
1460 1129 1163 1130 10959 9048 10960 10964 8823 9049 
1130 1163 1461 1164 9049 10965 10966 9055 9057 10967 
1427 1461 1428 1130 10968 10969 10743 10733 10966 10738 
1130 1163 1460 1461 9049 10960 10964 10966 10965 10970 
1427 1461 1130 1460 10968 10966 10733 10962 10970 10964 
1428 1130 1461 1131 10738 10966 10969 10740 8830 10971 
1461 1130 1164 1131 10966 9055 10967 10971 8830 9056 
1131 1164 1462 1165 9056 10972 10973 9062 9064 10974 
1428 1462 1429 1131 10975 10976 10750 10740 10973 10745 
1131 1164 1461 1462 9056 10967 10971 10973 10972 10977 
1428 1462 1131 1461 10975 10973 10740 10969 10977 10971 
1429 1131 1462 1132 10745 10973 10976 10747 8837 10978 
1462 1131 1165 1132 10973 9062 10974 10978 8837 9063 
1132 1165 1463 1166 9063 10979 10980 9069 9071 10981 
1429 1463 1430 1132 10982 10983 10757 10747 10980 10752 
1132 1165 1462 1463 9063 10974 10978 10980 10979 10984 
1429 1463 1132 1462 10982 10980 10747 10976 10984 10978 
1430 1132 1463 1133 10752 10980 10983 10754 8844 10985 
1463 1132 1166 1133 10980 9069 10981 10985 8844 9070 
1133 1166 1464 1167 9070 10986 10987 9076 9078 10988 
1430 1464 1431 1133 10989 10990 10764 10754 10987 10759 
1133 1166 1463 1464 9070 10981 10985 10987 10986 10991 
1430 1464 1133 1463 10989 10987 10754 10983 10991 10985 
1431 1133 1464 1134 10759 10987 10990 10761 8851 10992 
1464 1133 1167 1134 10987 9076 10988 10992 8851 9077 
1134 1167 1465 1168 9077 10993 10994 9083 9085 10995 
1431 1465 1432 1134 10996 10997 10771 10761 10994 10766 
1134 1167 1464 1465 9077 10988 10992 10994 10993 10998 
1431 1465 1134 1464 10996 10994 10761 10990 10998 10992 
1432 1134 1465 1135 10766 10994 10997 10768 8858 10999 
1465 1134 1168 1135 10994 9083 10995 10999 8858 9084 
1135 1168 1466 1169 9084 11000 11001 9090 9092 11002 
1432 1466 1433 1135 11003 11004 10778 10768 11001 10773 
1135 1168 1465 1466 9084 10995 10999 11001 11000 11005 
1432 1466 1135 1465 11003 11001 10768 10997 11005 10999 
1433 1135 1466 1136 10773 11001 11004 10775 8865 11006 
1466 1135 1169 1136 11001 9090 11002 11006 8865 9091 
1136 1169 1467 1170 9091 11007 11008 9097 9099 11009 
1433 1467 1434 1136 11010 11011 10785 10775 11008 10780 
1136 1169 1466 1467 9091 11002 11006 11008 11007 11012 
1433 1467 1136 1466 11010 11008 10775 11004 11012 11006 
1434 1136 1467 1137 10780 11008 11011 10782 8872 11013 
1467 1136 1170 1137 11008 9097 11009 11013 8872 9098 
1137 1170 1468 1171 9098 11014 11015 9104 9106 11016 
1434 1468 1435 1137 11017 11018 10792 10782 11015 10787 
1137 1170 1467 1468 9098 11009 11013 11015 11014 11019 
1434 1468 1137 1467 11017 11015 10782 11011 11019 11013 
1435 1137 1468 1138 10787 11015 11018 10789 8879 11020 
1468 1137 1171 1138 11015 9104 11016 11020 8879 9105 
1138 1171 1469 1172 9105 11021 11022 9111 9113 11023 
1435 1469 1436 1138 11024 11025 10799 10789 11022 10794 
1138 1171 1468 1469 9105 11016 11020 11022 11021 11026 
1435 1469 1138 1468 11024 11022 10789 11018 11026 11020 
1436 1138 1469 1139 10794 11022 11025 10796 8886 11027 
1469 1138 1172 1139 11022 9111 11023 11027 8886 9112 
1139 1172 1470 1173 9112 11028 11029 9118 9120 11030 
1436 1470 1437 1139 11031 11032 10806 10796 11029 10801 
1139 1172 1469 1470 9112 11023 11027 11029 11028 11033 
1436 1470 1139 1469 11031 11029 10796 11025 11033 11027 
1437 1139 1470 1140 10801 11029 11032 10803 8893 11034 
1470 1139 1173 1140 11029 9118 11030 11034 8893 9119 
1140 1173 1471 1174 9119 11035 11036 9125 9127 11037 
1437 1471 1438 1140 11038 11039 10813 10803 11036 10808 
1140 1173 1470 1471 9119 11030 11034 11036 11035 11040 
1437 1471 1140 1470 11038 11036 10803 11032 11040 11034 
1438 1140 1471 1141 10808 11036 11039 10810 8900 11041 
1471 1140 1174 1141 11036 9125 11037 11041 8900 9126 
1141 1174 1472 1175 9126 11042 11043 9132 9134 11044 
1438 1472 1439 1141 11045 11046 10820 10810 11043 10815 
1141 1174 1471 1472 9126 11037 11041 11043 11042 11047 
1438 1472 1141 1471 11045 11043 10810 11039 11047 11041 
1439 1141 1472 1142 10815 11043 11046 10817 8907 11048 
1472 1141 1175 1142 11043 9132 11044 11048 8907 9133 
1142 1175 1473 1176 9133 11049 11050 9139 9141 11051 
1439 1473 1440 1142 11052 11053 10827 10817 11050 10822 
1142 1175 1472 1473 9133 11044 11048 11050 11049 11054 
1439 1473 1142 1472 11052 11050 10817 11046 11054 11048 
1440 1142 1473 1143 10822 11050 11053 10824 8914 11055 
1473 1142 1176 1143 11050 9139 11051 11055 8914 9140 
1143 1176 1474 1177 9140 11056 11057 9146 9148 11058 
1440 1474 1441 1143 11059 11060 10834 10824 11057 10829 
1143 1176 1473 1474 9140 11051 11055 11057 11056 11061 
1440 1474 1143 1473 11059 11057 10824 11053 11061 11055 
1441 1143 1474 1144 10829 11057 11060 10831 8921 11062 
1474 1143 1177 1144 11057 9146 11058 11062 8921 9147 
1144 1177 1475 1178 9147 11063 11064 9153 9155 11065 
1441 1475 1442 1144 11066 11067 10841 10831 11064 10836 
1144 1177 1474 1475 9147 11058 11062 11064 11063 11068 
1441 1475 1144 1474 11066 11064 10831 11060 11068 11062 
1442 1144 1475 1145 10836 11064 11067 10838 8928 11069 
1475 1144 1178 1145 11064 9153 11065 11069 8928 9154 
1145 1178 1476 1179 9154 11070 11071 9160 9162 11072 
1442 1476 1443 1145 11073 11074 10848 10838 11071 10843 
1145 1178 1475 1476 9154 11065 11069 11071 11070 11075 
1442 1476 1145 1475 11073 11071 10838 11067 11075 11069 
1443 1145 1476 1146 10843 11071 11074 10845 8935 11076 
1476 1145 1179 1146 11071 9160 11072 11076 8935 9161 
1146 1179 1477 1180 9161 11077 11078 9167 9169 11079 
1443 1477 1444 1146 11080 11081 10855 10845 11078 10850 
1146 1179 1476 1477 9161 11072 11076 11078 11077 11082 
1443 1477 1146 1476 11080 11078 10845 11074 11082 11076 
1444 1146 1477 1147 10850 11078 11081 10852 8942 11083 
1477 1146 1180 1147 11078 9167 11079 11083 8942 9168 
1147 1180 1478 1181 9168 11084 11085 9174 9176 11086 
1444 1478 1445 1147 11087 11088 10862 10852 11085 10857 
1147 1180 1477 1478 9168 11079 11083 11085 11084 11089 
1444 1478 1147 1477 11087 11085 10852 11081 11089 11083 
1445 1147 1478 1148 10857 11085 11088 10859 8949 11090 
1478 1147 1181 1148 11085 9174 11086 11090 8949 9175 
1148 1181 1479 1182 9175 11091 11092 9181 9183 11093 
1445 1479 1446 1148 11094 11095 10869 10859 11092 10864 
1148 1181 1478 1479 9175 11086 11090 11092 11091 11096 
1445 1479 1148 1478 11094 11092 10859 11088 11096 11090 
1446 1148 1479 1149 10864 11092 11095 10866 8956 11097 
1479 1148 1182 1149 11092 9181 11093 11097 8956 9182 
1149 1182 1480 1183 9182 11098 11099 9188 9190 11100 
1446 1480 1447 1149 11101 11102 10876 10866 11099 10871 
1149 1182 1479 1480 9182 11093 11097 11099 11098 11103 
1446 1480 1149 1479 11101 11099 10866 11095 11103 11097 
1447 1149 1480 1150 10871 11099 11102 10873 8963 11104 
1480 1149 1183 1150 11099 9188 11100 11104 8963 9189 
1150 1183 1481 1184 9189 11105 11106 9195 9197 11107 
1447 1481 1448 1150 11108 11109 10883 10873 11106 10878 
1150 1183 1480 1481 9189 11100 11104 11106 11105 11110 
1447 1481 1150 1480 11108 11106 10873 11102 11110 11104 
1448 1150 1481 1151 10878 11106 11109 10880 8970 11111 
1481 1150 1184 1151 11106 9195 11107 11111 8970 9196 
1151 1184 1482 1185 9196 11112 11113 9202 9204 11114 
1448 1482 1449 1151 11115 11116 10890 10880 11113 10885 
1151 1184 1481 1482 9196 11107 11111 11113 11112 11117 
1448 1482 1151 1481 11115 11113 10880 11109 11117 11111 
1449 1151 1482 1152 10885 11113 11116 10887 8977 11118 
1482 1151 1185 1152 11113 9202 11114 11118 8977 9203 
1152 1185 1483 1186 9203 11119 11120 9209 9211 11121 
1449 1483 1450 1152 11122 11123 10897 10887 11120 10892 
1152 1185 1482 1483 9203 11114 11118 11120 11119 11124 
1449 1483 1152 1482 11122 11120 10887 11116 11124 11118 
1450 1152 1483 1153 10892 11120 11123 10894 8984 11125 
1483 1152 1186 1153 11120 9209 11121 11125 8984 9210 
1153 1186 1484 1187 9210 11126 11127 9216 9218 11128 
1450 1484 1451 1153 11129 11130 10904 10894 11127 10899 
1153 1186 1483 1484 9210 11121 11125 11127 11126 11131 
1450 1484 1153 1483 11129 11127 10894 11123 11131 11125 
1451 1153 1484 1154 10899 11127 11130 10901 8991 11132 
1484 1153 1187 1154 11127 9216 11128 11132 8991 9217 
1188 1221 1519 1222 9231 11133 11134 9223 9230 11135 
1485 1519 1486 1188 11136 11137 11138 11139 11134 11140 
1188 1221 1518 1519 9231 11141 11142 11134 11133 11143 
1485 1519 1188 1518 11136 11134 11139 11144 11143 11142 
1486 1188 1519 1189 11140 11134 11137 11145 9225 11146 
1519 1188 1222 1189 11134 9223 11135 11146 9225 9224 
1189 1222 1520 1223 9224 11147 11148 9237 9241 11149 
1486 1520 1487 1189 11150 11151 11152 11145 11148 11153 
1189 1222 1519 1520 9224 11135 11146 11148 11147 11154 
1486 1520 1189 1519 11150 11148 11145 11137 11154 11146 
1487 1189 1520 1190 11153 11148 11151 11155 9239 11156 
1520 1189 1223 1190 11148 9237 11149 11156 9239 9238 
1190 1223 1521 1224 9238 11157 11158 9247 9251 11159 
1487 1521 1488 1190 11160 11161 11162 11155 11158 11163 
1190 1223 1520 1521 9238 11149 11156 11158 11157 11164 
1487 1521 1190 1520 11160 11158 11155 11151 11164 11156 
1488 1190 1521 1191 11163 11158 11161 11165 9249 11166 
1521 1190 1224 1191 11158 9247 11159 11166 9249 9248 
1191 1224 1522 1225 9248 11167 11168 9257 9261 11169 
1488 1522 1489 1191 11170 11171 11172 11165 11168 11173 
1191 1224 1521 1522 9248 11159 11166 11168 11167 11174 
1488 1522 1191 1521 11170 11168 11165 11161 11174 11166 
1489 1191 1522 1192 11173 11168 11171 11175 9259 11176 
1522 1191 1225 1192 11168 9257 11169 11176 9259 9258 
1192 1225 1523 1226 9258 11177 11178 9267 9271 11179 
1489 1523 1490 1192 11180 11181 11182 11175 11178 11183 
1192 1225 1522 1523 9258 11169 11176 11178 11177 11184 
1489 1523 1192 1522 11180 11178 11175 11171 11184 11176 
1490 1192 1523 1193 11183 11178 11181 11185 9269 11186 
1523 1192 1226 1193 11178 9267 11179 11186 9269 9268 
1193 1226 1524 1227 9268 11187 11188 9277 9281 11189 
1490 1524 1491 1193 11190 11191 11192 11185 11188 11193 
1193 1226 1523 1524 9268 11179 11186 11188 11187 11194 
1490 1524 1193 1523 11190 11188 11185 11181 11194 11186 
1491 1193 1524 1194 11193 11188 11191 11195 9279 11196 
1524 1193 1227 1194 11188 9277 11189 11196 9279 9278 
1194 1227 1525 1228 9278 11197 11198 9287 9291 11199 
1491 1525 1492 1194 11200 11201 11202 11195 11198 11203 
1194 1227 1524 1525 9278 11189 11196 11198 11197 11204 
1491 1525 1194 1524 11200 11198 11195 11191 11204 11196 
1492 1194 1525 1195 11203 11198 11201 11205 9289 11206 
1525 1194 1228 1195 11198 9287 11199 11206 9289 9288 
1195 1228 1526 1229 9288 11207 11208 9297 9301 11209 
1492 1526 1493 1195 11210 11211 11212 11205 11208 11213 
1195 1228 1525 1526 9288 11199 11206 11208 11207 11214 
1492 1526 1195 1525 11210 11208 11205 11201 11214 11206 
1493 1195 1526 1196 11213 11208 11211 11215 9299 11216 
1526 1195 1229 1196 11208 9297 11209 11216 9299 9298 
1196 1229 1527 1230 9298 11217 11218 9307 9311 11219 
1493 1527 1494 1196 11220 11221 11222 11215 11218 11223 
1196 1229 1526 1527 9298 11209 11216 11218 11217 11224 
1493 1527 1196 1526 11220 11218 11215 11211 11224 11216 
1494 1196 1527 1197 11223 11218 11221 11225 9309 11226 
1527 1196 1230 1197 11218 9307 11219 11226 9309 9308 
1197 1230 1528 1231 9308 11227 11228 9317 9321 11229 
1494 1528 1495 1197 11230 11231 11232 11225 11228 11233 
1197 1230 1527 1528 9308 11219 11226 11228 11227 11234 
1494 1528 1197 1527 11230 11228 11225 11221 11234 11226 
1495 1197 1528 1198 11233 11228 11231 11235 9319 11236 
1528 1197 1231 1198 11228 9317 11229 11236 9319 9318 
1198 1231 1529 1232 9318 11237 11238 9327 9331 11239 
1495 1529 1496 1198 11240 11241 11242 11235 11238 11243 
1198 1231 1528 1529 9318 11229 11236 11238 11237 11244 
1495 1529 1198 1528 11240 11238 11235 11231 11244 11236 
1496 1198 1529 1199 11243 11238 11241 11245 9329 11246 
1529 1198 1232 1199 11238 9327 11239 11246 9329 9328 
1199 1232 1530 1233 9328 11247 11248 9337 9341 11249 
1496 1530 1497 1199 11250 11251 11252 11245 11248 11253 
1199 1232 1529 1530 9328 11239 11246 11248 11247 11254 
1496 1530 1199 1529 11250 11248 11245 11241 11254 11246 
1497 1199 1530 1200 11253 11248 11251 11255 9339 11256 
1530 1199 1233 1200 11248 9337 11249 11256 9339 9338 
1200 1233 1531 1234 9338 11257 11258 9347 9351 11259 
1497 1531 1498 1200 11260 11261 11262 11255 11258 11263 
1200 1233 1530 1531 9338 11249 11256 11258 11257 11264 
1497 1531 1200 1530 11260 11258 11255 11251 11264 11256 
1498 1200 1531 1201 11263 11258 11261 11265 9349 11266 
1531 1200 1234 1201 11258 9347 11259 11266 9349 9348 
1201 1234 1532 1235 9348 11267 11268 9357 9361 11269 
1498 1532 1499 1201 11270 11271 11272 11265 11268 11273 
1201 1234 1531 1532 9348 11259 11266 11268 11267 11274 
1498 1532 1201 1531 11270 11268 11265 11261 11274 11266 
1499 1201 1532 1202 11273 11268 11271 11275 9359 11276 
1532 1201 1235 1202 11268 9357 11269 11276 9359 9358 
1202 1235 1533 1236 9358 11277 11278 9367 9371 11279 
1499 1533 1500 1202 11280 11281 11282 11275 11278 11283 
1202 1235 1532 1533 9358 11269 11276 11278 11277 11284 
1499 1533 1202 1532 11280 11278 11275 11271 11284 11276 
1500 1202 1533 1203 11283 11278 11281 11285 9369 11286 
1533 1202 1236 1203 11278 9367 11279 11286 9369 9368 
1203 1236 1534 1237 9368 11287 11288 9377 9381 11289 
1500 1534 1501 1203 11290 11291 11292 11285 11288 11293 
1203 1236 1533 1534 9368 11279 11286 11288 11287 11294 
1500 1534 1203 1533 11290 11288 11285 11281 11294 11286 
1501 1203 1534 1204 11293 11288 11291 11295 9379 11296 
1534 1203 1237 1204 11288 9377 11289 11296 9379 9378 
1204 1237 1535 1238 9378 11297 11298 9387 9391 11299 
1501 1535 1502 1204 11300 11301 11302 11295 11298 11303 
1204 1237 1534 1535 9378 11289 11296 11298 11297 11304 
1501 1535 1204 1534 11300 11298 11295 11291 11304 11296 
1502 1204 1535 1205 11303 11298 11301 11305 9389 11306 
1535 1204 1238 1205 11298 9387 11299 11306 9389 9388 
1205 1238 1536 1239 9388 11307 11308 9397 9401 11309 
1502 1536 1503 1205 11310 11311 11312 11305 11308 11313 
1205 1238 1535 1536 9388 11299 11306 11308 11307 11314 
1502 1536 1205 1535 11310 11308 11305 11301 11314 11306 
1503 1205 1536 1206 11313 11308 11311 11315 9399 11316 
1536 1205 1239 1206 11308 9397 11309 11316 9399 9398 
1206 1239 1537 1240 9398 11317 11318 9407 9411 11319 
1503 1537 1504 1206 11320 11321 11322 11315 11318 11323 
1206 1239 1536 1537 9398 11309 11316 11318 11317 11324 
1503 1537 1206 1536 11320 11318 11315 11311 11324 11316 
1504 1206 1537 1207 11323 11318 11321 11325 9409 11326 
1537 1206 1240 1207 11318 9407 11319 11326 9409 9408 
1207 1240 1538 1241 9408 11327 11328 9417 9421 11329 
1504 1538 1505 1207 11330 11331 11332 11325 11328 11333 
1207 1240 1537 1538 9408 11319 11326 11328 11327 11334 
1504 1538 1207 1537 11330 11328 11325 11321 11334 11326 
1505 1207 1538 1208 11333 11328 11331 11335 9419 11336 
1538 1207 1241 1208 11328 9417 11329 11336 9419 9418 
1208 1241 1539 1242 9418 11337 11338 9427 9431 11339 
1505 1539 1506 1208 11340 11341 11342 11335 11338 11343 
1208 1241 1538 1539 9418 11329 11336 11338 11337 11344 
1505 1539 1208 1538 11340 11338 11335 11331 11344 11336 
1506 1208 1539 1209 11343 11338 11341 11345 9429 11346 
1539 1208 1242 1209 11338 9427 11339 11346 9429 9428 
1209 1242 1540 1243 9428 11347 11348 9437 9441 11349 
1506 1540 1507 1209 11350 11351 11352 11345 11348 11353 
1209 1242 1539 1540 9428 11339 11346 11348 11347 11354 
1506 1540 1209 1539 11350 11348 11345 11341 11354 11346 
1507 1209 1540 1210 11353 11348 11351 11355 9439 11356 
1540 1209 1243 1210 11348 9437 11349 11356 9439 9438 
1210 1243 1541 1244 9438 11357 11358 9447 9451 11359 
1507 1541 1508 1210 11360 11361 11362 11355 11358 11363 
1210 1243 1540 1541 9438 11349 11356 11358 11357 11364 
1507 1541 1210 1540 11360 11358 11355 11351 11364 11356 
1508 1210 1541 1211 11363 11358 11361 11365 9449 11366 
1541 1210 1244 1211 11358 9447 11359 11366 9449 9448 
1211 1244 1542 1245 9448 11367 11368 9457 9461 11369 
1508 1542 1509 1211 11370 11371 11372 11365 11368 11373 
1211 1244 1541 1542 9448 11359 11366 11368 11367 11374 
1508 1542 1211 1541 11370 11368 11365 11361 11374 11366 
1509 1211 1542 1212 11373 11368 11371 11375 9459 11376 
1542 1211 1245 1212 11368 9457 11369 11376 9459 9458 
1212 1245 1543 1246 9458 11377 11378 9467 9471 11379 
1509 1543 1510 1212 11380 11381 11382 11375 11378 11383 
1212 1245 1542 1543 9458 11369 11376 11378 11377 11384 
1509 1543 1212 1542 11380 11378 11375 11371 11384 11376 
1510 1212 1543 1213 11383 11378 11381 11385 9469 11386 
1543 1212 1246 1213 11378 9467 11379 11386 9469 9468 
1213 1246 1544 1247 9468 11387 11388 9477 9481 11389 
1510 1544 1511 1213 11390 11391 11392 11385 11388 11393 
1213 1246 1543 1544 9468 11379 11386 11388 11387 11394 
1510 1544 1213 1543 11390 11388 11385 11381 11394 11386 
1511 1213 1544 1214 11393 11388 11391 11395 9479 11396 
1544 1213 1247 1214 11388 9477 11389 11396 9479 9478 
1214 1247 1545 1248 9478 11397 11398 9487 9491 11399 
1511 1545 1512 1214 11400 11401 11402 11395 11398 11403 
1214 1247 1544 1545 9478 11389 11396 11398 11397 11404 
1511 1545 1214 1544 11400 11398 11395 11391 11404 11396 
1512 1214 1545 1215 11403 11398 11401 11405 9489 11406 
1545 1214 1248 1215 11398 9487 11399 11406 9489 9488 
1215 1248 1546 1249 9488 11407 11408 9497 9501 11409 
1512 1546 1513 1215 11410 11411 11412 11405 11408 11413 
1215 1248 1545 1546 9488 11399 11406 11408 11407 11414 
1512 1546 1215 1545 11410 11408 11405 11401 11414 11406 
1513 1215 1546 1216 11413 11408 11411 11415 9499 11416 
1546 1215 1249 1216 11408 9497 11409 11416 9499 9498 
1216 1249 1547 1250 9498 11417 11418 9507 9511 11419 
1513 1547 1514 1216 11420 11421 11422 11415 11418 11423 
1216 1249 1546 1547 9498 11409 11416 11418 11417 11424 
1513 1547 1216 1546 11420 11418 11415 11411 11424 11416 
1514 1216 1547 1217 11423 11418 11421 11425 9509 11426 
1547 1216 1250 1217 11418 9507 11419 11426 9509 9508 
1217 1250 1548 1251 9508 11427 11428 9517 9521 11429 
1514 1548 1515 1217 11430 11431 11432 11425 11428 11433 
1217 1250 1547 1548 9508 11419 11426 11428 11427 11434 
1514 1548 1217 1547 11430 11428 11425 11421 11434 11426 
1515 1217 1548 1218 11433 11428 11431 11435 9519 11436 
1548 1217 1251 1218 11428 9517 11429 11436 9519 9518 
1218 1251 1549 1252 9518 11437 11438 9527 9531 11439 
1515 1549 1516 1218 11440 11441 11442 11435 11438 11443 
1218 1251 1548 1549 9518 11429 11436 11438 11437 11444 
1515 1549 1218 1548 11440 11438 11435 11431 11444 11436 
1516 1218 1549 1219 11443 11438 11441 11445 9529 11446 
1549 1218 1252 1219 11438 9527 11439 11446 9529 9528 
1219 1252 1550 1253 9528 11447 11448 9537 9541 11449 
1516 1550 1517 1219 11450 11451 11452 11445 11448 11453 
1219 1252 1549 1550 9528 11439 11446 11448 11447 11454 
1516 1550 1219 1549 11450 11448 11445 11441 11454 11446 
1517 1219 1550 1220 11453 11448 11451 11455 9539 11456 
1550 1219 1253 1220 11448 9537 11449 11456 9539 9538 
1221 1254 1552 1255 9552 11457 11458 9547 9551 11459 
1518 1552 1519 1221 11460 11461 11143 11141 11458 11133 
1221 1254 1551 1552 9552 11462 11463 11458 11457 11464 
1518 1552 1221 1551 11460 11458 11141 11465 11464 11463 
1519 1221 1552 1222 11133 11458 11461 11135 9230 11466 
1552 1221 1255 1222 11458 9547 11459 11466 9230 9548 
1222 1255 1553 1256 9548 11467 11468 9557 9559 11469 
1519 1553 1520 1222 11470 11471 11154 11135 11468 11147 
1222 1255 1552 1553 9548 11459 11466 11468 11467 11472 
1519 1553 1222 1552 11470 11468 11135 11461 11472 11466 
1520 1222 1553 1223 11147 11468 11471 11149 9241 11473 
1553 1222 1256 1223 11468 9557 11469 11473 9241 9558 
1223 1256 1554 1257 9558 11474 11475 9564 9566 11476 
1520 1554 1521 1223 11477 11478 11164 11149 11475 11157 
1223 1256 1553 1554 9558 11469 11473 11475 11474 11479 
1520 1554 1223 1553 11477 11475 11149 11471 11479 11473 
1521 1223 1554 1224 11157 11475 11478 11159 9251 11480 
1554 1223 1257 1224 11475 9564 11476 11480 9251 9565 
1224 1257 1555 1258 9565 11481 11482 9571 9573 11483 
1521 1555 1522 1224 11484 11485 11174 11159 11482 11167 
1224 1257 1554 1555 9565 11476 11480 11482 11481 11486 
1521 1555 1224 1554 11484 11482 11159 11478 11486 11480 
1522 1224 1555 1225 11167 11482 11485 11169 9261 11487 
1555 1224 1258 1225 11482 9571 11483 11487 9261 9572 
1225 1258 1556 1259 9572 11488 11489 9578 9580 11490 
1522 1556 1523 1225 11491 11492 11184 11169 11489 11177 
1225 1258 1555 1556 9572 11483 11487 11489 11488 11493 
1522 1556 1225 1555 11491 11489 11169 11485 11493 11487 
1523 1225 1556 1226 11177 11489 11492 11179 9271 11494 
1556 1225 1259 1226 11489 9578 11490 11494 9271 9579 
1226 1259 1557 1260 9579 11495 11496 9585 9587 11497 
1523 1557 1524 1226 11498 11499 11194 11179 11496 11187 
1226 1259 1556 1557 9579 11490 11494 11496 11495 11500 
1523 1557 1226 1556 11498 11496 11179 11492 11500 11494 
1524 1226 1557 1227 11187 11496 11499 11189 9281 11501 
1557 1226 1260 1227 11496 9585 11497 11501 9281 9586 
1227 1260 1558 1261 9586 11502 11503 9592 9594 11504 
1524 1558 1525 1227 11505 11506 11204 11189 11503 11197 
1227 1260 1557 1558 9586 11497 11501 11503 11502 11507 
1524 1558 1227 1557 11505 11503 11189 11499 11507 11501 
1525 1227 1558 1228 11197 11503 11506 11199 9291 11508 
1558 1227 1261 1228 11503 9592 11504 11508 9291 9593 
1228 1261 1559 1262 9593 11509 11510 9599 9601 11511 
1525 1559 1526 1228 11512 11513 11214 11199 11510 11207 
1228 1261 1558 1559 9593 11504 11508 11510 11509 11514 
1525 1559 1228 1558 11512 11510 11199 11506 11514 11508 
1526 1228 1559 1229 11207 11510 11513 11209 9301 11515 
1559 1228 1262 1229 11510 9599 11511 11515 9301 9600 
1229 1262 1560 1263 9600 11516 11517 9606 9608 11518 
1526 1560 1527 1229 11519 11520 11224 11209 11517 11217 
1229 1262 1559 1560 9600 11511 11515 11517 11516 11521 
1526 1560 1229 1559 11519 11517 11209 11513 11521 11515 
1527 1229 1560 1230 11217 11517 11520 11219 9311 11522 
1560 1229 1263 1230 11517 9606 11518 11522 9311 9607 
1230 1263 1561 1264 9607 11523 11524 9613 9615 11525 
1527 1561 1528 1230 11526 11527 11234 11219 11524 11227 
1230 1263 1560 1561 9607 11518 11522 11524 11523 11528 
1527 1561 1230 1560 11526 11524 11219 11520 11528 11522 
1528 1230 1561 1231 11227 11524 11527 11229 9321 11529 
1561 1230 1264 1231 11524 9613 11525 11529 9321 9614 
1231 1264 1562 1265 9614 11530 11531 9620 9622 11532 
1528 1562 1529 1231 11533 11534 11244 11229 11531 11237 
1231 1264 1561 1562 9614 11525 11529 11531 11530 11535 
1528 1562 1231 1561 11533 11531 11229 11527 11535 11529 
1529 1231 1562 1232 11237 11531 11534 11239 9331 11536 
1562 1231 1265 1232 11531 9620 11532 11536 9331 9621 
1232 1265 1563 1266 9621 11537 11538 9627 9629 11539 
1529 1563 1530 1232 11540 11541 11254 11239 11538 11247 
1232 1265 1562 1563 9621 11532 11536 11538 11537 11542 
1529 1563 1232 1562 11540 11538 11239 11534 11542 11536 
1530 1232 1563 1233 11247 11538 11541 11249 9341 11543 
1563 1232 1266 1233 11538 9627 11539 11543 9341 9628 
1233 1266 1564 1267 9628 11544 11545 9634 9636 11546 
1530 1564 1531 1233 11547 11548 11264 11249 11545 11257 
1233 1266 1563 1564 9628 11539 11543 11545 11544 11549 
1530 1564 1233 1563 11547 11545 11249 11541 11549 11543 
1531 1233 1564 1234 11257 11545 11548 11259 9351 11550 
1564 1233 1267 1234 11545 9634 11546 11550 9351 9635 
1234 1267 1565 1268 9635 11551 11552 9641 9643 11553 
1531 1565 1532 1234 11554 11555 11274 11259 11552 11267 
1234 1267 1564 1565 9635 11546 11550 11552 11551 11556 
1531 1565 1234 1564 11554 11552 11259 11548 11556 11550 
1532 1234 1565 1235 11267 11552 11555 11269 9361 11557 
1565 1234 1268 1235 11552 9641 11553 11557 9361 9642 
1235 1268 1566 1269 9642 11558 11559 9648 9650 11560 
1532 1566 1533 1235 11561 11562 11284 11269 11559 11277 
1235 1268 1565 1566 9642 11553 11557 11559 11558 11563 
1532 1566 1235 1565 11561 11559 11269 11555 11563 11557 
1533 1235 1566 1236 11277 11559 11562 11279 9371 11564 
1566 1235 1269 1236 11559 9648 11560 11564 9371 9649 
1236 1269 1567 1270 9649 11565 11566 9655 9657 11567 
1533 1567 1534 1236 11568 11569 11294 11279 11566 11287 
1236 1269 1566 1567 9649 11560 11564 11566 11565 11570 
1533 1567 1236 1566 11568 11566 11279 11562 11570 11564 
1534 1236 1567 1237 11287 11566 11569 11289 9381 11571 
1567 1236 1270 1237 11566 9655 11567 11571 9381 9656 
1237 1270 1568 1271 9656 11572 11573 9662 9664 11574 
1534 1568 1535 1237 11575 11576 11304 11289 11573 11297 
1237 1270 1567 1568 9656 11567 11571 11573 11572 11577 
1534 1568 1237 1567 11575 11573 11289 11569 11577 11571 
1535 1237 1568 1238 11297 11573 11576 11299 9391 11578 
1568 1237 1271 1238 11573 9662 11574 11578 9391 9663 
1238 1271 1569 1272 9663 11579 11580 9669 9671 11581 
1535 1569 1536 1238 11582 11583 11314 11299 11580 11307 
1238 1271 1568 1569 9663 11574 11578 11580 11579 11584 
1535 1569 1238 1568 11582 11580 11299 11576 11584 11578 
1536 1238 1569 1239 11307 11580 11583 11309 9401 11585 
1569 1238 1272 1239 11580 9669 11581 11585 9401 9670 
1239 1272 1570 1273 9670 11586 11587 9676 9678 11588 
1536 1570 1537 1239 11589 11590 11324 11309 11587 11317 
1239 1272 1569 1570 9670 11581 11585 11587 11586 11591 
1536 1570 1239 1569 11589 11587 11309 11583 11591 11585 
1537 1239 1570 1240 11317 11587 11590 11319 9411 11592 
1570 1239 1273 1240 11587 9676 11588 11592 9411 9677 
1240 1273 1571 1274 9677 11593 11594 9683 9685 11595 
1537 1571 1538 1240 11596 11597 11334 11319 11594 11327 
1240 1273 1570 1571 9677 11588 11592 11594 11593 11598 
1537 1571 1240 1570 11596 11594 11319 11590 11598 11592 
1538 1240 1571 1241 11327 11594 11597 11329 9421 11599 
1571 1240 1274 1241 11594 9683 11595 11599 9421 9684 
1241 1274 1572 1275 9684 11600 11601 9690 9692 11602 
1538 1572 1539 1241 11603 11604 11344 11329 11601 11337 
1241 1274 1571 1572 9684 11595 11599 11601 11600 11605 
1538 1572 1241 1571 11603 11601 11329 11597 11605 11599 
1539 1241 1572 1242 11337 11601 11604 11339 9431 11606 
1572 1241 1275 1242 11601 9690 11602 11606 9431 9691 
1242 1275 1573 1276 9691 11607 11608 9697 9699 11609 
1539 1573 1540 1242 11610 11611 11354 11339 11608 11347 
1242 1275 1572 1573 9691 11602 11606 11608 11607 11612 
1539 1573 1242 1572 11610 11608 11339 11604 11612 11606 
1540 1242 1573 1243 11347 11608 11611 11349 9441 11613 
1573 1242 1276 1243 11608 9697 11609 11613 9441 9698 
1243 1276 1574 1277 9698 11614 11615 9704 9706 11616 
1540 1574 1541 1243 11617 11618 11364 11349 11615 11357 
1243 1276 1573 1574 9698 11609 11613 11615 11614 11619 
1540 1574 1243 1573 11617 11615 11349 11611 11619 11613 
1541 1243 1574 1244 11357 11615 11618 11359 9451 11620 
1574 1243 1277 1244 11615 9704 11616 11620 9451 9705 
1244 1277 1575 1278 9705 11621 11622 9711 9713 11623 
1541 1575 1542 1244 11624 11625 11374 11359 11622 11367 
1244 1277 1574 1575 9705 11616 11620 11622 11621 11626 
1541 1575 1244 1574 11624 11622 11359 11618 11626 11620 
1542 1244 1575 1245 11367 11622 11625 11369 9461 11627 
1575 1244 1278 1245 11622 9711 11623 11627 9461 9712 
1245 1278 1576 1279 9712 11628 11629 9718 9720 11630 
1542 1576 1543 1245 11631 11632 11384 11369 11629 11377 
1245 1278 1575 1576 9712 11623 11627 11629 11628 11633 
1542 1576 1245 1575 11631 11629 11369 11625 11633 11627 
1543 1245 1576 1246 11377 11629 11632 11379 9471 11634 
1576 1245 1279 1246 11629 9718 11630 11634 9471 9719 
1246 1279 1577 1280 9719 11635 11636 9725 9727 11637 
1543 1577 1544 1246 11638 11639 11394 11379 11636 11387 
1246 1279 1576 1577 9719 11630 11634 11636 11635 11640 
1543 1577 1246 1576 11638 11636 11379 11632 11640 11634 
1544 1246 1577 1247 11387 11636 11639 11389 9481 11641 
1577 1246 1280 1247 11636 9725 11637 11641 9481 9726 
1247 1280 1578 1281 9726 11642 11643 9732 9734 11644 
1544 1578 1545 1247 11645 11646 11404 11389 11643 11397 
1247 1280 1577 1578 9726 11637 11641 11643 11642 11647 
1544 1578 1247 1577 11645 11643 11389 11639 11647 11641 
1545 1247 1578 1248 11397 11643 11646 11399 9491 11648 
1578 1247 1281 1248 11643 9732 11644 11648 9491 9733 
1248 1281 1579 1282 9733 11649 11650 9739 9741 11651 
1545 1579 1546 1248 11652 11653 11414 11399 11650 11407 
1248 1281 1578 1579 9733 11644 11648 11650 11649 11654 
1545 1579 1248 1578 11652 11650 11399 11646 11654 11648 
1546 1248 1579 1249 11407 11650 11653 11409 9501 11655 
1579 1248 1282 1249 11650 9739 11651 11655 9501 9740 
1249 1282 1580 1283 9740 11656 11657 9746 9748 11658 
1546 1580 1547 1249 11659 11660 11424 11409 11657 11417 
1249 1282 1579 1580 9740 11651 11655 11657 11656 11661 
1546 1580 1249 1579 11659 11657 11409 11653 11661 11655 
1547 1249 1580 1250 11417 11657 11660 11419 9511 11662 
1580 1249 1283 1250 11657 9746 11658 11662 9511 9747 
1250 1283 1581 1284 9747 11663 11664 9753 9755 11665 
1547 1581 1548 1250 11666 11667 11434 11419 11664 11427 
1250 1283 1580 1581 9747 11658 11662 11664 11663 11668 
1547 1581 1250 1580 11666 11664 11419 11660 11668 11662 
1548 1250 1581 1251 11427 11664 11667 11429 9521 11669 
1581 1250 1284 1251 11664 9753 11665 11669 9521 9754 
1251 1284 1582 1285 9754 11670 11671 9760 9762 11672 
1548 1582 1549 1251 11673 11674 11444 11429 11671 11437 
1251 1284 1581 1582 9754 11665 11669 11671 11670 11675 
1548 1582 1251 1581 11673 11671 11429 11667 11675 11669 
1549 1251 1582 1252 11437 11671 11674 11439 9531 11676 
1582 1251 1285 1252 11671 9760 11672 11676 9531 9761 
1252 1285 1583 1286 9761 11677 11678 9767 9769 11679 
1549 1583 1550 1252 11680 11681 11454 11439 11678 11447 
1252 1285 1582 1583 9761 11672 11676 11678 11677 11682 
1549 1583 1252 1582 11680 11678 11439 11674 11682 11676 
1550 1252 1583 1253 11447 11678 11681 11449 9541 11683 
1583 1252 1286 1253 11678 9767 11679 11683 9541 9768 
1254 1287 1585 1288 9779 11684 11685 9774 9778 11686 
1551 1585 1552 1254 11687 11688 11464 11462 11685 11457 
1254 1287 1584 1585 9779 11689 11690 11685 11684 11691 
1551 1585 1254 1584 11687 11685 11462 11692 11691 11690 
1552 1254 1585 1255 11457 11685 11688 11459 9551 11693 
1585 1254 1288 1255 11685 9774 11686 11693 9551 9775 
1255 1288 1586 1289 9775 11694 11695 9784 9786 11696 
1552 1586 1553 1255 11697 11698 11472 11459 11695 11467 
1255 1288 1585 1586 9775 11686 11693 11695 11694 11699 
1552 1586 1255 1585 11697 11695 11459 11688 11699 11693 
1553 1255 1586 1256 11467 11695 11698 11469 9559 11700 
1586 1255 1289 1256 11695 9784 11696 11700 9559 9785 
1256 1289 1587 1290 9785 11701 11702 9791 9793 11703 
1553 1587 1554 1256 11704 11705 11479 11469 11702 11474 
1256 1289 1586 1587 9785 11696 11700 11702 11701 11706 
1553 1587 1256 1586 11704 11702 11469 11698 11706 11700 
1554 1256 1587 1257 11474 11702 11705 11476 9566 11707 
1587 1256 1290 1257 11702 9791 11703 11707 9566 9792 
1257 1290 1588 1291 9792 11708 11709 9798 9800 11710 
1554 1588 1555 1257 11711 11712 11486 11476 11709 11481 
1257 1290 1587 1588 9792 11703 11707 11709 11708 11713 
1554 1588 1257 1587 11711 11709 11476 11705 11713 11707 
1555 1257 1588 1258 11481 11709 11712 11483 9573 11714 
1588 1257 1291 1258 11709 9798 11710 11714 9573 9799 
1258 1291 1589 1292 9799 11715 11716 9805 9807 11717 
1555 1589 1556 1258 11718 11719 11493 11483 11716 11488 
1258 1291 1588 1589 9799 11710 11714 11716 11715 11720 
1555 1589 1258 1588 11718 11716 11483 11712 11720 11714 
1556 1258 1589 1259 11488 11716 11719 11490 9580 11721 
1589 1258 1292 1259 11716 9805 11717 11721 9580 9806 
1259 1292 1590 1293 9806 11722 11723 9812 9814 11724 
1556 1590 1557 1259 11725 11726 11500 11490 11723 11495 
1259 1292 1589 1590 9806 11717 11721 11723 11722 11727 
1556 1590 1259 1589 11725 11723 11490 11719 11727 11721 
1557 1259 1590 1260 11495 11723 11726 11497 9587 11728 
1590 1259 1293 1260 11723 9812 11724 11728 9587 9813 
1260 1293 1591 1294 9813 11729 11730 9819 9821 11731 
1557 1591 1558 1260 11732 11733 11507 11497 11730 11502 
1260 1293 1590 1591 9813 11724 11728 11730 11729 11734 
1557 1591 1260 1590 11732 11730 11497 11726 11734 11728 
1558 1260 1591 1261 11502 11730 11733 11504 9594 11735 
1591 1260 1294 1261 11730 9819 11731 11735 9594 9820 
1261 1294 1592 1295 9820 11736 11737 9826 9828 11738 
1558 1592 1559 1261 11739 11740 11514 11504 11737 11509 
1261 1294 1591 1592 9820 11731 11735 11737 11736 11741 
1558 1592 1261 1591 11739 11737 11504 11733 11741 11735 
1559 1261 1592 1262 11509 11737 11740 11511 9601 11742 
1592 1261 1295 1262 11737 9826 11738 11742 9601 9827 
1262 1295 1593 1296 9827 11743 11744 9833 9835 11745 
1559 1593 1560 1262 11746 11747 11521 11511 11744 11516 
1262 1295 1592 1593 9827 11738 11742 11744 11743 11748 
1559 1593 1262 1592 11746 11744 11511 11740 11748 11742 
1560 1262 1593 1263 11516 11744 11747 11518 9608 11749 
1593 1262 1296 1263 11744 9833 11745 11749 9608 9834 
1263 1296 1594 1297 9834 11750 11751 9840 9842 11752 
1560 1594 1561 1263 11753 11754 11528 11518 11751 11523 
1263 1296 1593 1594 9834 11745 11749 11751 11750 11755 
1560 1594 1263 1593 11753 11751 11518 11747 11755 11749 
1561 1263 1594 1264 11523 11751 11754 11525 9615 11756 
1594 1263 1297 1264 11751 9840 11752 11756 9615 9841 
1264 1297 1595 1298 9841 11757 11758 9847 9849 11759 
1561 1595 1562 1264 11760 11761 11535 11525 11758 11530 
1264 1297 1594 1595 9841 11752 11756 11758 11757 11762 
1561 1595 1264 1594 11760 11758 11525 11754 11762 11756 
1562 1264 1595 1265 11530 11758 11761 11532 9622 11763 
1595 1264 1298 1265 11758 9847 11759 11763 9622 9848 
1265 1298 1596 1299 9848 11764 11765 9854 9856 11766 
1562 1596 1563 1265 11767 11768 11542 11532 11765 11537 
1265 1298 1595 1596 9848 11759 11763 11765 11764 11769 
1562 1596 1265 1595 11767 11765 11532 11761 11769 11763 
1563 1265 1596 1266 11537 11765 11768 11539 9629 11770 
1596 1265 1299 1266 11765 9854 11766 11770 9629 9855 
1266 1299 1597 1300 9855 11771 11772 9861 9863 11773 
1563 1597 1564 1266 11774 11775 11549 11539 11772 11544 
1266 1299 1596 1597 9855 11766 11770 11772 11771 11776 
1563 1597 1266 1596 11774 11772 11539 11768 11776 11770 
1564 1266 1597 1267 11544 11772 11775 11546 9636 11777 
1597 1266 1300 1267 11772 9861 11773 11777 9636 9862 
1267 1300 1598 1301 9862 11778 11779 9868 9870 11780 
1564 1598 1565 1267 11781 11782 11556 11546 11779 11551 
1267 1300 1597 1598 9862 11773 11777 11779 11778 11783 
1564 1598 1267 1597 11781 11779 11546 11775 11783 11777 
1565 1267 1598 1268 11551 11779 11782 11553 9643 11784 
1598 1267 1301 1268 11779 9868 11780 11784 9643 9869 
1268 1301 1599 1302 9869 11785 11786 9875 9877 11787 
1565 1599 1566 1268 11788 11789 11563 11553 11786 11558 
1268 1301 1598 1599 9869 11780 11784 11786 11785 11790 
1565 1599 1268 1598 11788 11786 11553 11782 11790 11784 
1566 1268 1599 1269 11558 11786 11789 11560 9650 11791 
1599 1268 1302 1269 11786 9875 11787 11791 9650 9876 
1269 1302 1600 1303 9876 11792 11793 9882 9884 11794 
1566 1600 1567 1269 11795 11796 11570 11560 11793 11565 
1269 1302 1599 1600 9876 11787 11791 11793 11792 11797 
1566 1600 1269 1599 11795 11793 11560 11789 11797 11791 
1567 1269 1600 1270 11565 11793 11796 11567 9657 11798 
1600 1269 1303 1270 11793 9882 11794 11798 9657 9883 
1270 1303 1601 1304 9883 11799 11800 9889 9891 11801 
1567 1601 1568 1270 11802 11803 11577 11567 11800 11572 
1270 1303 1600 1601 9883 11794 11798 11800 11799 11804 
1567 1601 1270 1600 11802 11800 11567 11796 11804 11798 
1568 1270 1601 1271 11572 11800 11803 11574 9664 11805 
1601 1270 1304 1271 11800 9889 11801 11805 9664 9890 
1271 1304 1602 1305 9890 11806 11807 9896 9898 11808 
1568 1602 1569 1271 11809 11810 11584 11574 11807 11579 
1271 1304 1601 1602 9890 11801 11805 11807 11806 11811 
1568 1602 1271 1601 11809 11807 11574 11803 11811 11805 
1569 1271 1602 1272 11579 11807 11810 11581 9671 11812 
1602 1271 1305 1272 11807 9896 11808 11812 9671 9897 
1272 1305 1603 1306 9897 11813 11814 9903 9905 11815 
1569 1603 1570 1272 11816 11817 11591 11581 11814 11586 
1272 1305 1602 1603 9897 11808 11812 11814 11813 11818 
1569 1603 1272 1602 11816 11814 11581 11810 11818 11812 
1570 1272 1603 1273 11586 11814 11817 11588 9678 11819 
1603 1272 1306 1273 11814 9903 11815 11819 9678 9904 
1273 1306 1604 1307 9904 11820 11821 9910 9912 11822 
1570 1604 1571 1273 11823 11824 11598 11588 11821 11593 
1273 1306 1603 1604 9904 11815 11819 11821 11820 11825 
1570 1604 1273 1603 11823 11821 11588 11817 11825 11819 
1571 1273 1604 1274 11593 11821 11824 11595 9685 11826 
1604 1273 1307 1274 11821 9910 11822 11826 9685 9911 
1274 1307 1605 1308 9911 11827 11828 9917 9919 11829 
1571 1605 1572 1274 11830 11831 11605 11595 11828 11600 
1274 1307 1604 1605 9911 11822 11826 11828 11827 11832 
1571 1605 1274 1604 11830 11828 11595 11824 11832 11826 
1572 1274 1605 1275 11600 11828 11831 11602 9692 11833 
1605 1274 1308 1275 11828 9917 11829 11833 9692 9918 
1275 1308 1606 1309 9918 11834 11835 9924 9926 11836 
1572 1606 1573 1275 11837 11838 11612 11602 11835 11607 
1275 1308 1605 1606 9918 11829 11833 11835 11834 11839 
1572 1606 1275 1605 11837 11835 11602 11831 11839 11833 
1573 1275 1606 1276 11607 11835 11838 11609 9699 11840 
1606 1275 1309 1276 11835 9924 11836 11840 9699 9925 
1276 1309 1607 1310 9925 11841 11842 9931 9933 11843 
1573 1607 1574 1276 11844 11845 11619 11609 11842 11614 
1276 1309 1606 1607 9925 11836 11840 11842 11841 11846 
1573 1607 1276 1606 11844 11842 11609 11838 11846 11840 
1574 1276 1607 1277 11614 11842 11845 11616 9706 11847 
1607 1276 1310 1277 11842 9931 11843 11847 9706 9932 
1277 1310 1608 1311 9932 11848 11849 9938 9940 11850 
1574 1608 1575 1277 11851 11852 11626 11616 11849 11621 
1277 1310 1607 1608 9932 11843 11847 11849 11848 11853 
1574 1608 1277 1607 11851 11849 11616 11845 11853 11847 
1575 1277 1608 1278 11621 11849 11852 11623 9713 11854 
1608 1277 1311 1278 11849 9938 11850 11854 9713 9939 
1278 1311 1609 1312 9939 11855 11856 9945 9947 11857 
1575 1609 1576 1278 11858 11859 11633 11623 11856 11628 
1278 1311 1608 1609 9939 11850 11854 11856 11855 11860 
1575 1609 1278 1608 11858 11856 11623 11852 11860 11854 
1576 1278 1609 1279 11628 11856 11859 11630 9720 11861 
1609 1278 1312 1279 11856 9945 11857 11861 9720 9946 
1279 1312 1610 1313 9946 11862 11863 9952 9954 11864 
1576 1610 1577 1279 11865 11866 11640 11630 11863 11635 
1279 1312 1609 1610 9946 11857 11861 11863 11862 11867 
1576 1610 1279 1609 11865 11863 11630 11859 11867 11861 
1577 1279 1610 1280 11635 11863 11866 11637 9727 11868 
1610 1279 1313 1280 11863 9952 11864 11868 9727 9953 
1280 1313 1611 1314 9953 11869 11870 9959 9961 11871 
1577 1611 1578 1280 11872 11873 11647 11637 11870 11642 
1280 1313 1610 1611 9953 11864 11868 11870 11869 11874 
1577 1611 1280 1610 11872 11870 11637 11866 11874 11868 
1578 1280 1611 1281 11642 11870 11873 11644 9734 11875 
1611 1280 1314 1281 11870 9959 11871 11875 9734 9960 
1281 1314 1612 1315 9960 11876 11877 9966 9968 11878 
1578 1612 1579 1281 11879 11880 11654 11644 11877 11649 
1281 1314 1611 1612 9960 11871 11875 11877 11876 11881 
1578 1612 1281 1611 11879 11877 11644 11873 11881 11875 
1579 1281 1612 1282 11649 11877 11880 11651 9741 11882 
1612 1281 1315 1282 11877 9966 11878 11882 9741 9967 
1282 1315 1613 1316 9967 11883 11884 9973 9975 11885 
1579 1613 1580 1282 11886 11887 11661 11651 11884 11656 
1282 1315 1612 1613 9967 11878 11882 11884 11883 11888 
1579 1613 1282 1612 11886 11884 11651 11880 11888 11882 
1580 1282 1613 1283 11656 11884 11887 11658 9748 11889 
1613 1282 1316 1283 11884 9973 11885 11889 9748 9974 
1283 1316 1614 1317 9974 11890 11891 9980 9982 11892 
1580 1614 1581 1283 11893 11894 11668 11658 11891 11663 
1283 1316 1613 1614 9974 11885 11889 11891 11890 11895 
1580 1614 1283 1613 11893 11891 11658 11887 11895 11889 
1581 1283 1614 1284 11663 11891 11894 11665 9755 11896 
1614 1283 1317 1284 11891 9980 11892 11896 9755 9981 
1284 1317 1615 1318 9981 11897 11898 9987 9989 11899 
1581 1615 1582 1284 11900 11901 11675 11665 11898 11670 
1284 1317 1614 1615 9981 11892 11896 11898 11897 11902 
1581 1615 1284 1614 11900 11898 11665 11894 11902 11896 
1582 1284 1615 1285 11670 11898 11901 11672 9762 11903 
1615 1284 1318 1285 11898 9987 11899 11903 9762 9988 
1285 1318 1616 1319 9988 11904 11905 9994 9996 11906 
1582 1616 1583 1285 11907 11908 11682 11672 11905 11677 
1285 1318 1615 1616 9988 11899 11903 11905 11904 11909 
1582 1616 1285 1615 11907 11905 11672 11901 11909 11903 
1583 1285 1616 1286 11677 11905 11908 11679 9769 11910 
1616 1285 1319 1286 11905 9994 11906 11910 9769 9995 
1287 1320 1618 1321 10006 11911 11912 10001 10005 11913 
1584 1618 1585 1287 11914 11915 11691 11689 11912 11684 
1287 1320 1617 1618 10006 11916 11917 11912 11911 11918 
1584 1618 1287 1617 11914 11912 11689 11919 11918 11917 
1585 1287 1618 1288 11684 11912 11915 11686 9778 11920 
1618 1287 1321 1288 11912 10001 11913 11920 9778 10002 
1288 1321 1619 1322 10002 11921 11922 10011 10013 11923 
1585 1619 1586 1288 11924 11925 11699 11686 11922 11694 
1288 1321 1618 1619 10002 11913 11920 11922 11921 11926 
1585 1619 1288 1618 11924 11922 11686 11915 11926 11920 
1586 1288 1619 1289 11694 11922 11925 11696 9786 11927 
1619 1288 1322 1289 11922 10011 11923 11927 9786 10012 
1289 1322 1620 1323 10012 11928 11929 10018 10020 11930 
1586 1620 1587 1289 11931 11932 11706 11696 11929 11701 
1289 1322 1619 1620 10012 11923 11927 11929 11928 11933 
1586 1620 1289 1619 11931 11929 11696 11925 11933 11927 
1587 1289 1620 1290 11701 11929 11932 11703 9793 11934 
1620 1289 1323 1290 11929 10018 11930 11934 9793 10019 
1290 1323 1621 1324 10019 11935 11936 10025 10027 11937 
1587 1621 1588 1290 11938 11939 11713 11703 11936 11708 
1290 1323 1620 1621 10019 11930 11934 11936 11935 11940 
1587 1621 1290 1620 11938 11936 11703 11932 11940 11934 
1588 1290 1621 1291 11708 11936 11939 11710 9800 11941 
1621 1290 1324 1291 11936 10025 11937 11941 9800 10026 
1291 1324 1622 1325 10026 11942 11943 10032 10034 11944 
1588 1622 1589 1291 11945 11946 11720 11710 11943 11715 
1291 1324 1621 1622 10026 11937 11941 11943 11942 11947 
1588 1622 1291 1621 11945 11943 11710 11939 11947 11941 
1589 1291 1622 1292 11715 11943 11946 11717 9807 11948 
1622 1291 1325 1292 11943 10032 11944 11948 9807 10033 
1292 1325 1623 1326 10033 11949 11950 10039 10041 11951 
1589 1623 1590 1292 11952 11953 11727 11717 11950 11722 
1292 1325 1622 1623 10033 11944 11948 11950 11949 11954 
1589 1623 1292 1622 11952 11950 11717 11946 11954 11948 
1590 1292 1623 1293 11722 11950 11953 11724 9814 11955 
1623 1292 1326 1293 11950 10039 11951 11955 9814 10040 
1293 1326 1624 1327 10040 11956 11957 10046 10048 11958 
1590 1624 1591 1293 11959 11960 11734 11724 11957 11729 
1293 1326 1623 1624 10040 11951 11955 11957 11956 11961 
1590 1624 1293 1623 11959 11957 11724 11953 11961 11955 
1591 1293 1624 1294 11729 11957 11960 11731 9821 11962 
1624 1293 1327 1294 11957 10046 11958 11962 9821 10047 
1294 1327 1625 1328 10047 11963 11964 10053 10055 11965 
1591 1625 1592 1294 11966 11967 11741 11731 11964 11736 
1294 1327 1624 1625 10047 11958 11962 11964 11963 11968 
1591 1625 1294 1624 11966 11964 11731 11960 11968 11962 
1592 1294 1625 1295 11736 11964 11967 11738 9828 11969 
1625 1294 1328 1295 11964 10053 11965 11969 9828 10054 
1295 1328 1626 1329 10054 11970 11971 10060 10062 11972 
1592 1626 1593 1295 11973 11974 11748 11738 11971 11743 
1295 1328 1625 1626 10054 11965 11969 11971 11970 11975 
1592 1626 1295 1625 11973 11971 11738 11967 11975 11969 
1593 1295 1626 1296 11743 11971 11974 11745 9835 11976 
1626 1295 1329 1296 11971 10060 11972 11976 9835 10061 
1296 1329 1627 1330 10061 11977 11978 10067 10069 11979 
1593 1627 1594 1296 11980 11981 11755 11745 11978 11750 
1296 1329 1626 1627 10061 11972 11976 11978 11977 11982 
1593 1627 1296 1626 11980 11978 11745 11974 11982 11976 
1594 1296 1627 1297 11750 11978 11981 11752 9842 11983 
1627 1296 1330 1297 11978 10067 11979 11983 9842 10068 
1297 1330 1628 1331 10068 11984 11985 10074 10076 11986 
1594 1628 1595 1297 11987 11988 11762 11752 11985 11757 
1297 1330 1627 1628 10068 11979 11983 11985 11984 11989 
1594 1628 1297 1627 11987 11985 11752 11981 11989 11983 
1595 1297 1628 1298 11757 11985 11988 11759 9849 11990 
1628 1297 1331 1298 11985 10074 11986 11990 9849 10075 
1298 1331 1629 1332 10075 11991 11992 10081 10083 11993 
1595 1629 1596 1298 11994 11995 11769 11759 11992 11764 
1298 1331 1628 1629 10075 11986 11990 11992 11991 11996 
1595 1629 1298 1628 11994 11992 11759 11988 11996 11990 
1596 1298 1629 1299 11764 11992 11995 11766 9856 11997 
1629 1298 1332 1299 11992 10081 11993 11997 9856 10082 
1299 1332 1630 1333 10082 11998 11999 10088 10090 12000 
1596 1630 1597 1299 12001 12002 11776 11766 11999 11771 
1299 1332 1629 1630 10082 11993 11997 11999 11998 12003 
1596 1630 1299 1629 12001 11999 11766 11995 12003 11997 
1597 1299 1630 1300 11771 11999 12002 11773 9863 12004 
1630 1299 1333 1300 11999 10088 12000 12004 9863 10089 
1300 1333 1631 1334 10089 12005 12006 10095 10097 12007 
1597 1631 1598 1300 12008 12009 11783 11773 12006 11778 
1300 1333 1630 1631 10089 12000 12004 12006 12005 12010 
1597 1631 1300 1630 12008 12006 11773 12002 12010 12004 
1598 1300 1631 1301 11778 12006 12009 11780 9870 12011 
1631 1300 1334 1301 12006 10095 12007 12011 9870 10096 
1301 1334 1632 1335 10096 12012 12013 10102 10104 12014 
1598 1632 1599 1301 12015 12016 11790 11780 12013 11785 
1301 1334 1631 1632 10096 12007 12011 12013 12012 12017 
1598 1632 1301 1631 12015 12013 11780 12009 12017 12011 
1599 1301 1632 1302 11785 12013 12016 11787 9877 12018 
1632 1301 1335 1302 12013 10102 12014 12018 9877 10103 
1302 1335 1633 1336 10103 12019 12020 10109 10111 12021 
1599 1633 1600 1302 12022 12023 11797 11787 12020 11792 
1302 1335 1632 1633 10103 12014 12018 12020 12019 12024 
1599 1633 1302 1632 12022 12020 11787 12016 12024 12018 
1600 1302 1633 1303 11792 12020 12023 11794 9884 12025 
1633 1302 1336 1303 12020 10109 12021 12025 9884 10110 
1303 1336 1634 1337 10110 12026 12027 10116 10118 12028 
1600 1634 1601 1303 12029 12030 11804 11794 12027 11799 
1303 1336 1633 1634 10110 12021 12025 12027 12026 12031 
1600 1634 1303 1633 12029 12027 11794 12023 12031 12025 
1601 1303 1634 1304 11799 12027 12030 11801 9891 12032 
1634 1303 1337 1304 12027 10116 12028 12032 9891 10117 
1304 1337 1635 1338 10117 12033 12034 10123 10125 12035 
1601 1635 1602 1304 12036 12037 11811 11801 12034 11806 
1304 1337 1634 1635 10117 12028 12032 12034 12033 12038 
1601 1635 1304 1634 12036 12034 11801 12030 12038 12032 
1602 1304 1635 1305 11806 12034 12037 11808 9898 12039 
1635 1304 1338 1305 12034 10123 12035 12039 9898 10124 
1305 1338 1636 1339 10124 12040 12041 10130 10132 12042 
1602 1636 1603 1305 12043 12044 11818 11808 12041 11813 
1305 1338 1635 1636 10124 12035 12039 12041 12040 12045 
1602 1636 1305 1635 12043 12041 11808 12037 12045 12039 
1603 1305 1636 1306 11813 12041 12044 11815 9905 12046 
1636 1305 1339 1306 12041 10130 12042 12046 9905 10131 
1306 1339 1637 1340 10131 12047 12048 10137 10139 12049 
1603 1637 1604 1306 12050 12051 11825 11815 12048 11820 
1306 1339 1636 1637 10131 12042 12046 12048 12047 12052 
1603 1637 1306 1636 12050 12048 11815 12044 12052 12046 
1604 1306 1637 1307 11820 12048 12051 11822 9912 12053 
1637 1306 1340 1307 12048 10137 12049 12053 9912 10138 
1307 1340 1638 1341 10138 12054 12055 10144 10146 12056 
1604 1638 1605 1307 12057 12058 11832 11822 12055 11827 
1307 1340 1637 1638 10138 12049 12053 12055 12054 12059 
1604 1638 1307 1637 12057 12055 11822 12051 12059 12053 
1605 1307 1638 1308 11827 12055 12058 11829 9919 12060 
1638 1307 1341 1308 12055 10144 12056 12060 9919 10145 
1308 1341 1639 1342 10145 12061 12062 10151 10153 12063 
1605 1639 1606 1308 12064 12065 11839 11829 12062 11834 
1308 1341 1638 1639 10145 12056 12060 12062 12061 12066 
1605 1639 1308 1638 12064 12062 11829 12058 12066 12060 
1606 1308 1639 1309 11834 12062 12065 11836 9926 12067 
1639 1308 1342 1309 12062 10151 12063 12067 9926 10152 
1309 1342 1640 1343 10152 12068 12069 10158 10160 12070 
1606 1640 1607 1309 12071 12072 11846 11836 12069 11841 
1309 1342 1639 1640 10152 12063 12067 12069 12068 12073 
1606 1640 1309 1639 12071 12069 11836 12065 12073 12067 
1607 1309 1640 1310 11841 12069 12072 11843 9933 12074 
1640 1309 1343 1310 12069 10158 12070 12074 9933 10159 
1310 1343 1641 1344 10159 12075 12076 10165 10167 12077 
1607 1641 1608 1310 12078 12079 11853 11843 12076 11848 
1310 1343 1640 1641 10159 12070 12074 12076 12075 12080 
1607 1641 1310 1640 12078 12076 11843 12072 12080 12074 
1608 1310 1641 1311 11848 12076 12079 11850 9940 12081 
1641 1310 1344 1311 12076 10165 12077 12081 9940 10166 
1311 1344 1642 1345 10166 12082 12083 10172 10174 12084 
1608 1642 1609 1311 12085 12086 11860 11850 12083 11855 
1311 1344 1641 1642 10166 12077 12081 12083 12082 12087 
1608 1642 1311 1641 12085 12083 11850 12079 12087 12081 
1609 1311 1642 1312 11855 12083 12086 11857 9947 12088 
1642 1311 1345 1312 12083 10172 12084 12088 9947 10173 
1312 1345 1643 1346 10173 12089 12090 10179 10181 12091 
1609 1643 1610 1312 12092 12093 11867 11857 12090 11862 
1312 1345 1642 1643 10173 12084 12088 12090 12089 12094 
1609 1643 1312 1642 12092 12090 11857 12086 12094 12088 
1610 1312 1643 1313 11862 12090 12093 11864 9954 12095 
1643 1312 1346 1313 12090 10179 12091 12095 9954 10180 
1313 1346 1644 1347 10180 12096 12097 10186 10188 12098 
1610 1644 1611 1313 12099 12100 11874 11864 12097 11869 
1313 1346 1643 1644 10180 12091 12095 12097 12096 12101 
1610 1644 1313 1643 12099 12097 11864 12093 12101 12095 
1611 1313 1644 1314 11869 12097 12100 11871 9961 12102 
1644 1313 1347 1314 12097 10186 12098 12102 9961 10187 
1314 1347 1645 1348 10187 12103 12104 10193 10195 12105 
1611 1645 1612 1314 12106 12107 11881 11871 12104 11876 
1314 1347 1644 1645 10187 12098 12102 12104 12103 12108 
1611 1645 1314 1644 12106 12104 11871 12100 12108 12102 
1612 1314 1645 1315 11876 12104 12107 11878 9968 12109 
1645 1314 1348 1315 12104 10193 12105 12109 9968 10194 
1315 1348 1646 1349 10194 12110 12111 10200 10202 12112 
1612 1646 1613 1315 12113 12114 11888 11878 12111 11883 
1315 1348 1645 1646 10194 12105 12109 12111 12110 12115 
1612 1646 1315 1645 12113 12111 11878 12107 12115 12109 
1613 1315 1646 1316 11883 12111 12114 11885 9975 12116 
1646 1315 1349 1316 12111 10200 12112 12116 9975 10201 
1316 1349 1647 1350 10201 12117 12118 10207 10209 12119 
1613 1647 1614 1316 12120 12121 11895 11885 12118 11890 
1316 1349 1646 1647 10201 12112 12116 12118 12117 12122 
1613 1647 1316 1646 12120 12118 11885 12114 12122 12116 
1614 1316 1647 1317 11890 12118 12121 11892 9982 12123 
1647 1316 1350 1317 12118 10207 12119 12123 9982 10208 
1317 1350 1648 1351 10208 12124 12125 10214 10216 12126 
1614 1648 1615 1317 12127 12128 11902 11892 12125 11897 
1317 1350 1647 1648 10208 12119 12123 12125 12124 12129 
1614 1648 1317 1647 12127 12125 11892 12121 12129 12123 
1615 1317 1648 1318 11897 12125 12128 11899 9989 12130 
1648 1317 1351 1318 12125 10214 12126 12130 9989 10215 
1318 1351 1649 1352 10215 12131 12132 10221 10223 12133 
1615 1649 1616 1318 12134 12135 11909 11899 12132 11904 
1318 1351 1648 1649 10215 12126 12130 12132 12131 12136 
1615 1649 1318 1648 12134 12132 11899 12128 12136 12130 
1616 1318 1649 1319 11904 12132 12135 11906 9996 12137 
1649 1318 1352 1319 12132 10221 12133 12137 9996 10222 
1320 1353 1651 1354 10233 12138 12139 10228 10232 12140 
1617 1651 1618 1320 12141 12142 11918 11916 12139 11911 
1320 1353 1650 1651 10233 12143 12144 12139 12138 12145 
1617 1651 1320 1650 12141 12139 11916 12146 12145 12144 
1618 1320 1651 1321 11911 12139 12142 11913 10005 12147 
1651 1320 1354 1321 12139 10228 12140 12147 10005 10229 
1321 1354 1652 1355 10229 12148 12149 10238 10240 12150 
1618 1652 1619 1321 12151 12152 11926 11913 12149 11921 
1321 1354 1651 1652 10229 12140 12147 12149 12148 12153 
1618 1652 1321 1651 12151 12149 11913 12142 12153 12147 
1619 1321 1652 1322 11921 12149 12152 11923 10013 12154 
1652 1321 1355 1322 12149 10238 12150 12154 10013 10239 
1322 1355 1653 1356 10239 12155 12156 10245 10247 12157 
1619 1653 1620 1322 12158 12159 11933 11923 12156 11928 
1322 1355 1652 1653 10239 12150 12154 12156 12155 12160 
1619 1653 1322 1652 12158 12156 11923 12152 12160 12154 
1620 1322 1653 1323 11928 12156 12159 11930 10020 12161 
1653 1322 1356 1323 12156 10245 12157 12161 10020 10246 
1323 1356 1654 1357 10246 12162 12163 10252 10254 12164 
1620 1654 1621 1323 12165 12166 11940 11930 12163 11935 
1323 1356 1653 1654 10246 12157 12161 12163 12162 12167 
1620 1654 1323 1653 12165 12163 11930 12159 12167 12161 
1621 1323 1654 1324 11935 12163 12166 11937 10027 12168 
1654 1323 1357 1324 12163 10252 12164 12168 10027 10253 
1324 1357 1655 1358 10253 12169 12170 10259 10261 12171 
1621 1655 1622 1324 12172 12173 11947 11937 12170 11942 
1324 1357 1654 1655 10253 12164 12168 12170 12169 12174 
1621 1655 1324 1654 12172 12170 11937 12166 12174 12168 
1622 1324 1655 1325 11942 12170 12173 11944 10034 12175 
1655 1324 1358 1325 12170 10259 12171 12175 10034 10260 
1325 1358 1656 1359 10260 12176 12177 10266 10268 12178 
1622 1656 1623 1325 12179 12180 11954 11944 12177 11949 
1325 1358 1655 1656 10260 12171 12175 12177 12176 12181 
1622 1656 1325 1655 12179 12177 11944 12173 12181 12175 
1623 1325 1656 1326 11949 12177 12180 11951 10041 12182 
1656 1325 1359 1326 12177 10266 12178 12182 10041 10267 
1326 1359 1657 1360 10267 12183 12184 10273 10275 12185 
1623 1657 1624 1326 12186 12187 11961 11951 12184 11956 
1326 1359 1656 1657 10267 12178 12182 12184 12183 12188 
1623 1657 1326 1656 12186 12184 11951 12180 12188 12182 
1624 1326 1657 1327 11956 12184 12187 11958 10048 12189 
1657 1326 1360 1327 12184 10273 12185 12189 10048 10274 
1327 1360 1658 1361 10274 12190 12191 10280 10282 12192 
1624 1658 1625 1327 12193 12194 11968 11958 12191 11963 
1327 1360 1657 1658 10274 12185 12189 12191 12190 12195 
1624 1658 1327 1657 12193 12191 11958 12187 12195 12189 
1625 1327 1658 1328 11963 12191 12194 11965 10055 12196 
1658 1327 1361 1328 12191 10280 12192 12196 10055 10281 
1328 1361 1659 1362 10281 12197 12198 10287 10289 12199 
1625 1659 1626 1328 12200 12201 11975 11965 12198 11970 
1328 1361 1658 1659 10281 12192 12196 12198 12197 12202 
1625 1659 1328 1658 12200 12198 11965 12194 12202 12196 
1626 1328 1659 1329 11970 12198 12201 11972 10062 12203 
1659 1328 1362 1329 12198 10287 12199 12203 10062 10288 
1329 1362 1660 1363 10288 12204 12205 10294 10296 12206 
1626 1660 1627 1329 12207 12208 11982 11972 12205 11977 
1329 1362 1659 1660 10288 12199 12203 12205 12204 12209 
1626 1660 1329 1659 12207 12205 11972 12201 12209 12203 
1627 1329 1660 1330 11977 12205 12208 11979 10069 12210 
1660 1329 1363 1330 12205 10294 12206 12210 10069 10295 
1330 1363 1661 1364 10295 12211 12212 10301 10303 12213 
1627 1661 1628 1330 12214 12215 11989 11979 12212 11984 
1330 1363 1660 1661 10295 12206 12210 12212 12211 12216 
1627 1661 1330 1660 12214 12212 11979 12208 12216 12210 
1628 1330 1661 1331 11984 12212 12215 11986 10076 12217 
1661 1330 1364 1331 12212 10301 12213 12217 10076 10302 
1331 1364 1662 1365 10302 12218 12219 10308 10310 12220 
1628 1662 1629 1331 12221 12222 11996 11986 12219 11991 
1331 1364 1661 1662 10302 12213 12217 12219 12218 12223 
1628 1662 1331 1661 12221 12219 11986 12215 12223 12217 
1629 1331 1662 1332 11991 12219 12222 11993 10083 12224 
1662 1331 1365 1332 12219 10308 12220 12224 10083 10309 
1332 1365 1663 1366 10309 12225 12226 10315 10317 12227 
1629 1663 1630 1332 12228 12229 12003 11993 12226 11998 
1332 1365 1662 1663 10309 12220 12224 12226 12225 12230 
1629 1663 1332 1662 12228 12226 11993 12222 12230 12224 
1630 1332 1663 1333 11998 12226 12229 12000 10090 12231 
1663 1332 1366 1333 12226 10315 12227 12231 10090 10316 
1333 1366 1664 1367 10316 12232 12233 10322 10324 12234 
1630 1664 1631 1333 12235 12236 12010 12000 12233 12005 
1333 1366 1663 1664 10316 12227 12231 12233 12232 12237 
1630 1664 1333 1663 12235 12233 12000 12229 12237 12231 
1631 1333 1664 1334 12005 12233 12236 12007 10097 12238 
1664 1333 1367 1334 12233 10322 12234 12238 10097 10323 
1334 1367 1665 1368 10323 12239 12240 10329 10331 12241 
1631 1665 1632 1334 12242 12243 12017 12007 12240 12012 
1334 1367 1664 1665 10323 12234 12238 12240 12239 12244 
1631 1665 1334 1664 12242 12240 12007 12236 12244 12238 
1632 1334 1665 1335 12012 12240 12243 12014 10104 12245 
1665 1334 1368 1335 12240 10329 12241 12245 10104 10330 
1335 1368 1666 1369 10330 12246 12247 10336 10338 12248 
1632 1666 1633 1335 12249 12250 12024 12014 12247 12019 
1335 1368 1665 1666 10330 12241 12245 12247 12246 12251 
1632 1666 1335 1665 12249 12247 12014 12243 12251 12245 
1633 1335 1666 1336 12019 12247 12250 12021 10111 12252 
1666 1335 1369 1336 12247 10336 12248 12252 10111 10337 
1336 1369 1667 1370 10337 12253 12254 10343 10345 12255 
1633 1667 1634 1336 12256 12257 12031 12021 12254 12026 
1336 1369 1666 1667 10337 12248 12252 12254 12253 12258 
1633 1667 1336 1666 12256 12254 12021 12250 12258 12252 
1634 1336 1667 1337 12026 12254 12257 12028 10118 12259 
1667 1336 1370 1337 12254 10343 12255 12259 10118 10344 
1337 1370 1668 1371 10344 12260 12261 10350 10352 12262 
1634 1668 1635 1337 12263 12264 12038 12028 12261 12033 
1337 1370 1667 1668 10344 12255 12259 12261 12260 12265 
1634 1668 1337 1667 12263 12261 12028 12257 12265 12259 
1635 1337 1668 1338 12033 12261 12264 12035 10125 12266 
1668 1337 1371 1338 12261 10350 12262 12266 10125 10351 
1338 1371 1669 1372 10351 12267 12268 10357 10359 12269 
1635 1669 1636 1338 12270 12271 12045 12035 12268 12040 
1338 1371 1668 1669 10351 12262 12266 12268 12267 12272 
1635 1669 1338 1668 12270 12268 12035 12264 12272 12266 
1636 1338 1669 1339 12040 12268 12271 12042 10132 12273 
1669 1338 1372 1339 12268 10357 12269 12273 10132 10358 
1339 1372 1670 1373 10358 12274 12275 10364 10366 12276 
1636 1670 1637 1339 12277 12278 12052 12042 12275 12047 
1339 1372 1669 1670 10358 12269 12273 12275 12274 12279 
1636 1670 1339 1669 12277 12275 12042 12271 12279 12273 
1637 1339 1670 1340 12047 12275 12278 12049 10139 12280 
1670 1339 1373 1340 12275 10364 12276 12280 10139 10365 
1340 1373 1671 1374 10365 12281 12282 10371 10373 12283 
1637 1671 1638 1340 12284 12285 12059 12049 12282 12054 
1340 1373 1670 1671 10365 12276 12280 12282 12281 12286 
1637 1671 1340 1670 12284 12282 12049 12278 12286 12280 
1638 1340 1671 1341 12054 12282 12285 12056 10146 12287 
1671 1340 1374 1341 12282 10371 12283 12287 10146 10372 
1341 1374 1672 1375 10372 12288 12289 10378 10380 12290 
1638 1672 1639 1341 12291 12292 12066 12056 12289 12061 
1341 1374 1671 1672 10372 12283 12287 12289 12288 12293 
1638 1672 1341 1671 12291 12289 12056 12285 12293 12287 
1639 1341 1672 1342 12061 12289 12292 12063 10153 12294 
1672 1341 1375 1342 12289 10378 12290 12294 10153 10379 
1342 1375 1673 1376 10379 12295 12296 10385 10387 12297 
1639 1673 1640 1342 12298 12299 12073 12063 12296 12068 
1342 1375 1672 1673 10379 12290 12294 12296 12295 12300 
1639 1673 1342 1672 12298 12296 12063 12292 12300 12294 
1640 1342 1673 1343 12068 12296 12299 12070 10160 12301 
1673 1342 1376 1343 12296 10385 12297 12301 10160 10386 
1343 1376 1674 1377 10386 12302 12303 10392 10394 12304 
1640 1674 1641 1343 12305 12306 12080 12070 12303 12075 
1343 1376 1673 1674 10386 12297 12301 12303 12302 12307 
1640 1674 1343 1673 12305 12303 12070 12299 12307 12301 
1641 1343 1674 1344 12075 12303 12306 12077 10167 12308 
1674 1343 1377 1344 12303 10392 12304 12308 10167 10393 
1344 1377 1675 1378 10393 12309 12310 10399 10401 12311 
1641 1675 1642 1344 12312 12313 12087 12077 12310 12082 
1344 1377 1674 1675 10393 12304 12308 12310 12309 12314 
1641 1675 1344 1674 12312 12310 12077 12306 12314 12308 
1642 1344 1675 1345 12082 12310 12313 12084 10174 12315 
1675 1344 1378 1345 12310 10399 12311 12315 10174 10400 
1345 1378 1676 1379 10400 12316 12317 10406 10408 12318 
1642 1676 1643 1345 12319 12320 12094 12084 12317 12089 
1345 1378 1675 1676 10400 12311 12315 12317 12316 12321 
1642 1676 1345 1675 12319 12317 12084 12313 12321 12315 
1643 1345 1676 1346 12089 12317 12320 12091 10181 12322 
1676 1345 1379 1346 12317 10406 12318 12322 10181 10407 
1346 1379 1677 1380 10407 12323 12324 10413 10415 12325 
1643 1677 1644 1346 12326 12327 12101 12091 12324 12096 
1346 1379 1676 1677 10407 12318 12322 12324 12323 12328 
1643 1677 1346 1676 12326 12324 12091 12320 12328 12322 
1644 1346 1677 1347 12096 12324 12327 12098 10188 12329 
1677 1346 1380 1347 12324 10413 12325 12329 10188 10414 
1347 1380 1678 1381 10414 12330 12331 10420 10422 12332 
1644 1678 1645 1347 12333 12334 12108 12098 12331 12103 
1347 1380 1677 1678 10414 12325 12329 12331 12330 12335 
1644 1678 1347 1677 12333 12331 12098 12327 12335 12329 
1645 1347 1678 1348 12103 12331 12334 12105 10195 12336 
1678 1347 1381 1348 12331 10420 12332 12336 10195 10421 
1348 1381 1679 1382 10421 12337 12338 10427 10429 12339 
1645 1679 1646 1348 12340 12341 12115 12105 12338 12110 
1348 1381 1678 1679 10421 12332 12336 12338 12337 12342 
1645 1679 1348 1678 12340 12338 12105 12334 12342 12336 
1646 1348 1679 1349 12110 12338 12341 12112 10202 12343 
1679 1348 1382 1349 12338 10427 12339 12343 10202 10428 
1349 1382 1680 1383 10428 12344 12345 10434 10436 12346 
1646 1680 1647 1349 12347 12348 12122 12112 12345 12117 
1349 1382 1679 1680 10428 12339 12343 12345 12344 12349 
1646 1680 1349 1679 12347 12345 12112 12341 12349 12343 
1647 1349 1680 1350 12117 12345 12348 12119 10209 12350 
1680 1349 1383 1350 12345 10434 12346 12350 10209 10435 
1350 1383 1681 1384 10435 12351 12352 10441 10443 12353 
1647 1681 1648 1350 12354 12355 12129 12119 12352 12124 
1350 1383 1680 1681 10435 12346 12350 12352 12351 12356 
1647 1681 1350 1680 12354 12352 12119 12348 12356 12350 
1648 1350 1681 1351 12124 12352 12355 12126 10216 12357 
1681 1350 1384 1351 12352 10441 12353 12357 10216 10442 
1351 1384 1682 1385 10442 12358 12359 10448 10450 12360 
1648 1682 1649 1351 12361 12362 12136 12126 12359 12131 
1351 1384 1681 1682 10442 12353 12357 12359 12358 12363 
1648 1682 1351 1681 12361 12359 12126 12355 12363 12357 
1649 1351 1682 1352 12131 12359 12362 12133 10223 12364 
1682 1351 1385 1352 12359 10448 12360 12364 10223 10449 
1353 1386 1684 1387 10460 12365 12366 10455 10459 12367 
1650 1684 1651 1353 12368 12369 12145 12143 12366 12138 
1353 1386 1683 1684 10460 12370 12371 12366 12365 12372 
1650 1684 1353 1683 12368 12366 12143 12373 12372 12371 
1651 1353 1684 1354 12138 12366 12369 12140 10232 12374 
1684 1353 1387 1354 12366 10455 12367 12374 10232 10456 
1354 1387 1685 1388 10456 12375 12376 10465 10467 12377 
1651 1685 1652 1354 12378 12379 12153 12140 12376 12148 
1354 1387 1684 1685 10456 12367 12374 12376 12375 12380 
1651 1685 1354 1684 12378 12376 12140 12369 12380 12374 
1652 1354 1685 1355 12148 12376 12379 12150 10240 12381 
1685 1354 1388 1355 12376 10465 12377 12381 10240 10466 
1355 1388 1686 1389 10466 12382 12383 10472 10474 12384 
1652 1686 1653 1355 12385 12386 12160 12150 12383 12155 
1355 1388 1685 1686 10466 12377 12381 12383 12382 12387 
1652 1686 1355 1685 12385 12383 12150 12379 12387 12381 
1653 1355 1686 1356 12155 12383 12386 12157 10247 12388 
1686 1355 1389 1356 12383 10472 12384 12388 10247 10473 
1356 1389 1687 1390 10473 12389 12390 10479 10481 12391 
1653 1687 1654 1356 12392 12393 12167 12157 12390 12162 
1356 1389 1686 1687 10473 12384 12388 12390 12389 12394 
1653 1687 1356 1686 12392 12390 12157 12386 12394 12388 
1654 1356 1687 1357 12162 12390 12393 12164 10254 12395 
1687 1356 1390 1357 12390 10479 12391 12395 10254 10480 
1357 1390 1688 1391 10480 12396 12397 10486 10488 12398 
1654 1688 1655 1357 12399 12400 12174 12164 12397 12169 
1357 1390 1687 1688 10480 12391 12395 12397 12396 12401 
1654 1688 1357 1687 12399 12397 12164 12393 12401 12395 
1655 1357 1688 1358 12169 12397 12400 12171 10261 12402 
1688 1357 1391 1358 12397 10486 12398 12402 10261 10487 
1358 1391 1689 1392 10487 12403 12404 10493 10495 12405 
1655 1689 1656 1358 12406 12407 12181 12171 12404 12176 
1358 1391 1688 1689 10487 12398 12402 12404 12403 12408 
1655 1689 1358 1688 12406 12404 12171 12400 12408 12402 
1656 1358 1689 1359 12176 12404 12407 12178 10268 12409 
1689 1358 1392 1359 12404 10493 12405 12409 10268 10494 
1359 1392 1690 1393 10494 12410 12411 10500 10502 12412 
1656 1690 1657 1359 12413 12414 12188 12178 12411 12183 
1359 1392 1689 1690 10494 12405 12409 12411 12410 12415 
1656 1690 1359 1689 12413 12411 12178 12407 12415 12409 
1657 1359 1690 1360 12183 12411 12414 12185 10275 12416 
1690 1359 1393 1360 12411 10500 12412 12416 10275 10501 
1360 1393 1691 1394 10501 12417 12418 10507 10509 12419 
1657 1691 1658 1360 12420 12421 12195 12185 12418 12190 
1360 1393 1690 1691 10501 12412 12416 12418 12417 12422 
1657 1691 1360 1690 12420 12418 12185 12414 12422 12416 
1658 1360 1691 1361 12190 12418 12421 12192 10282 12423 
1691 1360 1394 1361 12418 10507 12419 12423 10282 10508 
1361 1394 1692 1395 10508 12424 12425 10514 10516 12426 
1658 1692 1659 1361 12427 12428 12202 12192 12425 12197 
1361 1394 1691 1692 10508 12419 12423 12425 12424 12429 
1658 1692 1361 1691 12427 12425 12192 12421 12429 12423 
1659 1361 1692 1362 12197 12425 12428 12199 10289 12430 
1692 1361 1395 1362 12425 10514 12426 12430 10289 10515 
1362 1395 1693 1396 10515 12431 12432 10521 10523 12433 
1659 1693 1660 1362 12434 12435 12209 12199 12432 12204 
1362 1395 1692 1693 10515 12426 12430 12432 12431 12436 
1659 1693 1362 1692 12434 12432 12199 12428 12436 12430 
1660 1362 1693 1363 12204 12432 12435 12206 10296 12437 
1693 1362 1396 1363 12432 10521 12433 12437 10296 10522 
1363 1396 1694 1397 10522 12438 12439 10528 10530 12440 
1660 1694 1661 1363 12441 12442 12216 12206 12439 12211 
1363 1396 1693 1694 10522 12433 12437 12439 12438 12443 
1660 1694 1363 1693 12441 12439 12206 12435 12443 12437 
1661 1363 1694 1364 12211 12439 12442 12213 10303 12444 
1694 1363 1397 1364 12439 10528 12440 12444 10303 10529 
1364 1397 1695 1398 10529 12445 12446 10535 10537 12447 
1661 1695 1662 1364 12448 12449 12223 12213 12446 12218 
1364 1397 1694 1695 10529 12440 12444 12446 12445 12450 
1661 1695 1364 1694 12448 12446 12213 12442 12450 12444 
1662 1364 1695 1365 12218 12446 12449 12220 10310 12451 
1695 1364 1398 1365 12446 10535 12447 12451 10310 10536 
1365 1398 1696 1399 10536 12452 12453 10542 10544 12454 
1662 1696 1663 1365 12455 12456 12230 12220 12453 12225 
1365 1398 1695 1696 10536 12447 12451 12453 12452 12457 
1662 1696 1365 1695 12455 12453 12220 12449 12457 12451 
1663 1365 1696 1366 12225 12453 12456 12227 10317 12458 
1696 1365 1399 1366 12453 10542 12454 12458 10317 10543 
1366 1399 1697 1400 10543 12459 12460 10549 10551 12461 
1663 1697 1664 1366 12462 12463 12237 12227 12460 12232 
1366 1399 1696 1697 10543 12454 12458 12460 12459 12464 
1663 1697 1366 1696 12462 12460 12227 12456 12464 12458 
1664 1366 1697 1367 12232 12460 12463 12234 10324 12465 
1697 1366 1400 1367 12460 10549 12461 12465 10324 10550 
1367 1400 1698 1401 10550 12466 12467 10556 10558 12468 
1664 1698 1665 1367 12469 12470 12244 12234 12467 12239 
1367 1400 1697 1698 10550 12461 12465 12467 12466 12471 
1664 1698 1367 1697 12469 12467 12234 12463 12471 12465 
1665 1367 1698 1368 12239 12467 12470 12241 10331 12472 
1698 1367 1401 1368 12467 10556 12468 12472 10331 10557 
1368 1401 1699 1402 10557 12473 12474 10563 10565 12475 
1665 1699 1666 1368 12476 12477 12251 12241 12474 12246 
1368 1401 1698 1699 10557 12468 12472 12474 12473 12478 
1665 1699 1368 1698 12476 12474 12241 12470 12478 12472 
1666 1368 1699 1369 12246 12474 12477 12248 10338 12479 
1699 1368 1402 1369 12474 10563 12475 12479 10338 10564 
1369 1402 1700 1403 10564 12480 12481 10570 10572 12482 
1666 1700 1667 1369 12483 12484 12258 12248 12481 12253 
1369 1402 1699 1700 10564 12475 12479 12481 12480 12485 
1666 1700 1369 1699 12483 12481 12248 12477 12485 12479 
1667 1369 1700 1370 12253 12481 12484 12255 10345 12486 
1700 1369 1403 1370 12481 10570 12482 12486 10345 10571 
1370 1403 1701 1404 10571 12487 12488 10577 10579 12489 
1667 1701 1668 1370 12490 12491 12265 12255 12488 12260 
1370 1403 1700 1701 10571 12482 12486 12488 12487 12492 
1667 1701 1370 1700 12490 12488 12255 12484 12492 12486 
1668 1370 1701 1371 12260 12488 12491 12262 10352 12493 
1701 1370 1404 1371 12488 10577 12489 12493 10352 10578 
1371 1404 1702 1405 10578 12494 12495 10584 10586 12496 
1668 1702 1669 1371 12497 12498 12272 12262 12495 12267 
1371 1404 1701 1702 10578 12489 12493 12495 12494 12499 
1668 1702 1371 1701 12497 12495 12262 12491 12499 12493 
1669 1371 1702 1372 12267 12495 12498 12269 10359 12500 
1702 1371 1405 1372 12495 10584 12496 12500 10359 10585 
1372 1405 1703 1406 10585 12501 12502 10591 10593 12503 
1669 1703 1670 1372 12504 12505 12279 12269 12502 12274 
1372 1405 1702 1703 10585 12496 12500 12502 12501 12506 
1669 1703 1372 1702 12504 12502 12269 12498 12506 12500 
1670 1372 1703 1373 12274 12502 12505 12276 10366 12507 
1703 1372 1406 1373 12502 10591 12503 12507 10366 10592 
1373 1406 1704 1407 10592 12508 12509 10598 10600 12510 
1670 1704 1671 1373 12511 12512 12286 12276 12509 12281 
1373 1406 1703 1704 10592 12503 12507 12509 12508 12513 
1670 1704 1373 1703 12511 12509 12276 12505 12513 12507 
1671 1373 1704 1374 12281 12509 12512 12283 10373 12514 
1704 1373 1407 1374 12509 10598 12510 12514 10373 10599 
1374 1407 1705 1408 10599 12515 12516 10605 10607 12517 
1671 1705 1672 1374 12518 12519 12293 12283 12516 12288 
1374 1407 1704 1705 10599 12510 12514 12516 12515 12520 
1671 1705 1374 1704 12518 12516 12283 12512 12520 12514 
1672 1374 1705 1375 12288 12516 12519 12290 10380 12521 
1705 1374 1408 1375 12516 10605 12517 12521 10380 10606 
1375 1408 1706 1409 10606 12522 12523 10612 10614 12524 
1672 1706 1673 1375 12525 12526 12300 12290 12523 12295 
1375 1408 1705 1706 10606 12517 12521 12523 12522 12527 
1672 1706 1375 1705 12525 12523 12290 12519 12527 12521 
1673 1375 1706 1376 12295 12523 12526 12297 10387 12528 
1706 1375 1409 1376 12523 10612 12524 12528 10387 10613 
1376 1409 1707 1410 10613 12529 12530 10619 10621 12531 
1673 1707 1674 1376 12532 12533 12307 12297 12530 12302 
1376 1409 1706 1707 10613 12524 12528 12530 12529 12534 
1673 1707 1376 1706 12532 12530 12297 12526 12534 12528 
1674 1376 1707 1377 12302 12530 12533 12304 10394 12535 
1707 1376 1410 1377 12530 10619 12531 12535 10394 10620 
1377 1410 1708 1411 10620 12536 12537 10626 10628 12538 
1674 1708 1675 1377 12539 12540 12314 12304 12537 12309 
1377 1410 1707 1708 10620 12531 12535 12537 12536 12541 
1674 1708 1377 1707 12539 12537 12304 12533 12541 12535 
1675 1377 1708 1378 12309 12537 12540 12311 10401 12542 
1708 1377 1411 1378 12537 10626 12538 12542 10401 10627 
1378 1411 1709 1412 10627 12543 12544 10633 10635 12545 
1675 1709 1676 1378 12546 12547 12321 12311 12544 12316 
1378 1411 1708 1709 10627 12538 12542 12544 12543 12548 
1675 1709 1378 1708 12546 12544 12311 12540 12548 12542 
1676 1378 1709 1379 12316 12544 12547 12318 10408 12549 
1709 1378 1412 1379 12544 10633 12545 12549 10408 10634 
1379 1412 1710 1413 10634 12550 12551 10640 10642 12552 
1676 1710 1677 1379 12553 12554 12328 12318 12551 12323 
1379 1412 1709 1710 10634 12545 12549 12551 12550 12555 
1676 1710 1379 1709 12553 12551 12318 12547 12555 12549 
1677 1379 1710 1380 12323 12551 12554 12325 10415 12556 
1710 1379 1413 1380 12551 10640 12552 12556 10415 10641 
1380 1413 1711 1414 10641 12557 12558 10647 10649 12559 
1677 1711 1678 1380 12560 12561 12335 12325 12558 12330 
1380 1413 1710 1711 10641 12552 12556 12558 12557 12562 
1677 1711 1380 1710 12560 12558 12325 12554 12562 12556 
1678 1380 1711 1381 12330 12558 12561 12332 10422 12563 
1711 1380 1414 1381 12558 10647 12559 12563 10422 10648 
1381 1414 1712 1415 10648 12564 12565 10654 10656 12566 
1678 1712 1679 1381 12567 12568 12342 12332 12565 12337 
1381 1414 1711 1712 10648 12559 12563 12565 12564 12569 
1678 1712 1381 1711 12567 12565 12332 12561 12569 12563 
1679 1381 1712 1382 12337 12565 12568 12339 10429 12570 
1712 1381 1415 1382 12565 10654 12566 12570 10429 10655 
1382 1415 1713 1416 10655 12571 12572 10661 10663 12573 
1679 1713 1680 1382 12574 12575 12349 12339 12572 12344 
1382 1415 1712 1713 10655 12566 12570 12572 12571 12576 
1679 1713 1382 1712 12574 12572 12339 12568 12576 12570 
1680 1382 1713 1383 12344 12572 12575 12346 10436 12577 
1713 1382 1416 1383 12572 10661 12573 12577 10436 10662 
1383 1416 1714 1417 10662 12578 12579 10668 10670 12580 
1680 1714 1681 1383 12581 12582 12356 12346 12579 12351 
1383 1416 1713 1714 10662 12573 12577 12579 12578 12583 
1680 1714 1383 1713 12581 12579 12346 12575 12583 12577 
1681 1383 1714 1384 12351 12579 12582 12353 10443 12584 
1714 1383 1417 1384 12579 10668 12580 12584 10443 10669 
1384 1417 1715 1418 10669 12585 12586 10675 10677 12587 
1681 1715 1682 1384 12588 12589 12363 12353 12586 12358 
1384 1417 1714 1715 10669 12580 12584 12586 12585 12590 
1681 1715 1384 1714 12588 12586 12353 12582 12590 12584 
1682 1384 1715 1385 12358 12586 12589 12360 10450 12591 
1715 1384 1418 1385 12586 10675 12587 12591 10450 10676 
1386 1419 1717 1420 10687 12592 12593 10682 10686 12594 
1683 1717 1684 1386 12595 12596 12372 12370 12593 12365 
1386 1419 1716 1717 10687 12597 12598 12593 12592 12599 
1683 1717 1386 1716 12595 12593 12370 12600 12599 12598 
1684 1386 1717 1387 12365 12593 12596 12367 10459 12601 
1717 1386 1420 1387 12593 10682 12594 12601 10459 10683 
1387 1420 1718 1421 10683 12602 12603 10692 10694 12604 
1684 1718 1685 1387 12605 12606 12380 12367 12603 12375 
1387 1420 1717 1718 10683 12594 12601 12603 12602 12607 
1684 1718 1387 1717 12605 12603 12367 12596 12607 12601 
1685 1387 1718 1388 12375 12603 12606 12377 10467 12608 
1718 1387 1421 1388 12603 10692 12604 12608 10467 10693 
1388 1421 1719 1422 10693 12609 12610 10699 10701 12611 
1685 1719 1686 1388 12612 12613 12387 12377 12610 12382 
1388 1421 1718 1719 10693 12604 12608 12610 12609 12614 
1685 1719 1388 1718 12612 12610 12377 12606 12614 12608 
1686 1388 1719 1389 12382 12610 12613 12384 10474 12615 
1719 1388 1422 1389 12610 10699 12611 12615 10474 10700 
1389 1422 1720 1423 10700 12616 12617 10706 10708 12618 
1686 1720 1687 1389 12619 12620 12394 12384 12617 12389 
1389 1422 1719 1720 10700 12611 12615 12617 12616 12621 
1686 1720 1389 1719 12619 12617 12384 12613 12621 12615 
1687 1389 1720 1390 12389 12617 12620 12391 10481 12622 
1720 1389 1423 1390 12617 10706 12618 12622 10481 10707 
1390 1423 1721 1424 10707 12623 12624 10713 10715 12625 
1687 1721 1688 1390 12626 12627 12401 12391 12624 12396 
1390 1423 1720 1721 10707 12618 12622 12624 12623 12628 
1687 1721 1390 1720 12626 12624 12391 12620 12628 12622 
1688 1390 1721 1391 12396 12624 12627 12398 10488 12629 
1721 1390 1424 1391 12624 10713 12625 12629 10488 10714 
1391 1424 1722 1425 10714 12630 12631 10720 10722 12632 
1688 1722 1689 1391 12633 12634 12408 12398 12631 12403 
1391 1424 1721 1722 10714 12625 12629 12631 12630 12635 
1688 1722 1391 1721 12633 12631 12398 12627 12635 12629 
1689 1391 1722 1392 12403 12631 12634 12405 10495 12636 
1722 1391 1425 1392 12631 10720 12632 12636 10495 10721 
1392 1425 1723 1426 10721 12637 12638 10727 10729 12639 
1689 1723 1690 1392 12640 12641 12415 12405 12638 12410 
1392 1425 1722 1723 10721 12632 12636 12638 12637 12642 
1689 1723 1392 1722 12640 12638 12405 12634 12642 12636 
1690 1392 1723 1393 12410 12638 12641 12412 10502 12643 
1723 1392 1426 1393 12638 10727 12639 12643 10502 10728 
1393 1426 1724 1427 10728 12644 12645 10734 10736 12646 
1690 1724 1691 1393 12647 12648 12422 12412 12645 12417 
1393 1426 1723 1724 10728 12639 12643 12645 12644 12649 
1690 1724 1393 1723 12647 12645 12412 12641 12649 12643 
1691 1393 1724 1394 12417 12645 12648 12419 10509 12650 
1724 1393 1427 1394 12645 10734 12646 12650 10509 10735 
1394 1427 1725 1428 10735 12651 12652 10741 10743 12653 
1691 1725 1692 1394 12654 12655 12429 12419 12652 12424 
1394 1427 1724 1725 10735 12646 12650 12652 12651 12656 
1691 1725 1394 1724 12654 12652 12419 12648 12656 12650 
1692 1394 1725 1395 12424 12652 12655 12426 10516 12657 
1725 1394 1428 1395 12652 10741 12653 12657 10516 10742 
1395 1428 1726 1429 10742 12658 12659 10748 10750 12660 
1692 1726 1693 1395 12661 12662 12436 12426 12659 12431 
1395 1428 1725 1726 10742 12653 12657 12659 12658 12663 
1692 1726 1395 1725 12661 12659 12426 12655 12663 12657 
1693 1395 1726 1396 12431 12659 12662 12433 10523 12664 
1726 1395 1429 1396 12659 10748 12660 12664 10523 10749 
1396 1429 1727 1430 10749 12665 12666 10755 10757 12667 
1693 1727 1694 1396 12668 12669 12443 12433 12666 12438 
1396 1429 1726 1727 10749 12660 12664 12666 12665 12670 
1693 1727 1396 1726 12668 12666 12433 12662 12670 12664 
1694 1396 1727 1397 12438 12666 12669 12440 10530 12671 
1727 1396 1430 1397 12666 10755 12667 12671 10530 10756 
1397 1430 1728 1431 10756 12672 12673 10762 10764 12674 
1694 1728 1695 1397 12675 12676 12450 12440 12673 12445 
1397 1430 1727 1728 10756 12667 12671 12673 12672 12677 
1694 1728 1397 1727 12675 12673 12440 12669 12677 12671 
1695 1397 1728 1398 12445 12673 12676 12447 10537 12678 
1728 1397 1431 1398 12673 10762 12674 12678 10537 10763 
1398 1431 1729 1432 10763 12679 12680 10769 10771 12681 
1695 1729 1696 1398 12682 12683 12457 12447 12680 12452 
1398 1431 1728 1729 10763 12674 12678 12680 12679 12684 
1695 1729 1398 1728 12682 12680 12447 12676 12684 12678 
1696 1398 1729 1399 12452 12680 12683 12454 10544 12685 
1729 1398 1432 1399 12680 10769 12681 12685 10544 10770 
1399 1432 1730 1433 10770 12686 12687 10776 10778 12688 
1696 1730 1697 1399 12689 12690 12464 12454 12687 12459 
1399 1432 1729 1730 10770 12681 12685 12687 12686 12691 
1696 1730 1399 1729 12689 12687 12454 12683 12691 12685 
1697 1399 1730 1400 12459 12687 12690 12461 10551 12692 
1730 1399 1433 1400 12687 10776 12688 12692 10551 10777 
1400 1433 1731 1434 10777 12693 12694 10783 10785 12695 
1697 1731 1698 1400 12696 12697 12471 12461 12694 12466 
1400 1433 1730 1731 10777 12688 12692 12694 12693 12698 
1697 1731 1400 1730 12696 12694 12461 12690 12698 12692 
1698 1400 1731 1401 12466 12694 12697 12468 10558 12699 
1731 1400 1434 1401 12694 10783 12695 12699 10558 10784 
1401 1434 1732 1435 10784 12700 12701 10790 10792 12702 
1698 1732 1699 1401 12703 12704 12478 12468 12701 12473 
1401 1434 1731 1732 10784 12695 12699 12701 12700 12705 
1698 1732 1401 1731 12703 12701 12468 12697 12705 12699 
1699 1401 1732 1402 12473 12701 12704 12475 10565 12706 
1732 1401 1435 1402 12701 10790 12702 12706 10565 10791 
1402 1435 1733 1436 10791 12707 12708 10797 10799 12709 
1699 1733 1700 1402 12710 12711 12485 12475 12708 12480 
1402 1435 1732 1733 10791 12702 12706 12708 12707 12712 
1699 1733 1402 1732 12710 12708 12475 12704 12712 12706 
1700 1402 1733 1403 12480 12708 12711 12482 10572 12713 
1733 1402 1436 1403 12708 10797 12709 12713 10572 10798 
1403 1436 1734 1437 10798 12714 12715 10804 10806 12716 
1700 1734 1701 1403 12717 12718 12492 12482 12715 12487 
1403 1436 1733 1734 10798 12709 12713 12715 12714 12719 
1700 1734 1403 1733 12717 12715 12482 12711 12719 12713 
1701 1403 1734 1404 12487 12715 12718 12489 10579 12720 
1734 1403 1437 1404 12715 10804 12716 12720 10579 10805 
1404 1437 1735 1438 10805 12721 12722 10811 10813 12723 
1701 1735 1702 1404 12724 12725 12499 12489 12722 12494 
1404 1437 1734 1735 10805 12716 12720 12722 12721 12726 
1701 1735 1404 1734 12724 12722 12489 12718 12726 12720 
1702 1404 1735 1405 12494 12722 12725 12496 10586 12727 
1735 1404 1438 1405 12722 10811 12723 12727 10586 10812 
1405 1438 1736 1439 10812 12728 12729 10818 10820 12730 
1702 1736 1703 1405 12731 12732 12506 12496 12729 12501 
1405 1438 1735 1736 10812 12723 12727 12729 12728 12733 
1702 1736 1405 1735 12731 12729 12496 12725 12733 12727 
1703 1405 1736 1406 12501 12729 12732 12503 10593 12734 
1736 1405 1439 1406 12729 10818 12730 12734 10593 10819 
1406 1439 1737 1440 10819 12735 12736 10825 10827 12737 
1703 1737 1704 1406 12738 12739 12513 12503 12736 12508 
1406 1439 1736 1737 10819 12730 12734 12736 12735 12740 
1703 1737 1406 1736 12738 12736 12503 12732 12740 12734 
1704 1406 1737 1407 12508 12736 12739 12510 10600 12741 
1737 1406 1440 1407 12736 10825 12737 12741 10600 10826 
1407 1440 1738 1441 10826 12742 12743 10832 10834 12744 
1704 1738 1705 1407 12745 12746 12520 12510 12743 12515 
1407 1440 1737 1738 10826 12737 12741 12743 12742 12747 
1704 1738 1407 1737 12745 12743 12510 12739 12747 12741 
1705 1407 1738 1408 12515 12743 12746 12517 10607 12748 
1738 1407 1441 1408 12743 10832 12744 12748 10607 10833 
1408 1441 1739 1442 10833 12749 12750 10839 10841 12751 
1705 1739 1706 1408 12752 12753 12527 12517 12750 12522 
1408 1441 1738 1739 10833 12744 12748 12750 12749 12754 
1705 1739 1408 1738 12752 12750 12517 12746 12754 12748 
1706 1408 1739 1409 12522 12750 12753 12524 10614 12755 
1739 1408 1442 1409 12750 10839 12751 12755 10614 10840 
1409 1442 1740 1443 10840 12756 12757 10846 10848 12758 
1706 1740 1707 1409 12759 12760 12534 12524 12757 12529 
1409 1442 1739 1740 10840 12751 12755 12757 12756 12761 
1706 1740 1409 1739 12759 12757 12524 12753 12761 12755 
1707 1409 1740 1410 12529 12757 12760 12531 10621 12762 
1740 1409 1443 1410 12757 10846 12758 12762 10621 10847 
1410 1443 1741 1444 10847 12763 12764 10853 10855 12765 
1707 1741 1708 1410 12766 12767 12541 12531 12764 12536 
1410 1443 1740 1741 10847 12758 12762 12764 12763 12768 
1707 1741 1410 1740 12766 12764 12531 12760 12768 12762 
1708 1410 1741 1411 12536 12764 12767 12538 10628 12769 
1741 1410 1444 1411 12764 10853 12765 12769 10628 10854 
1411 1444 1742 1445 10854 12770 12771 10860 10862 12772 
1708 1742 1709 1411 12773 12774 12548 12538 12771 12543 
1411 1444 1741 1742 10854 12765 12769 12771 12770 12775 
1708 1742 1411 1741 12773 12771 12538 12767 12775 12769 
1709 1411 1742 1412 12543 12771 12774 12545 10635 12776 
1742 1411 1445 1412 12771 10860 12772 12776 10635 10861 
1412 1445 1743 1446 10861 12777 12778 10867 10869 12779 
1709 1743 1710 1412 12780 12781 12555 12545 12778 12550 
1412 1445 1742 1743 10861 12772 12776 12778 12777 12782 
1709 1743 1412 1742 12780 12778 12545 12774 12782 12776 
1710 1412 1743 1413 12550 12778 12781 12552 10642 12783 
1743 1412 1446 1413 12778 10867 12779 12783 10642 10868 
1413 1446 1744 1447 10868 12784 12785 10874 10876 12786 
1710 1744 1711 1413 12787 12788 12562 12552 12785 12557 
1413 1446 1743 1744 10868 12779 12783 12785 12784 12789 
1710 1744 1413 1743 12787 12785 12552 12781 12789 12783 
1711 1413 1744 1414 12557 12785 12788 12559 10649 12790 
1744 1413 1447 1414 12785 10874 12786 12790 10649 10875 
1414 1447 1745 1448 10875 12791 12792 10881 10883 12793 
1711 1745 1712 1414 12794 12795 12569 12559 12792 12564 
1414 1447 1744 1745 10875 12786 12790 12792 12791 12796 
1711 1745 1414 1744 12794 12792 12559 12788 12796 12790 
1712 1414 1745 1415 12564 12792 12795 12566 10656 12797 
1745 1414 1448 1415 12792 10881 12793 12797 10656 10882 
1415 1448 1746 1449 10882 12798 12799 10888 10890 12800 
1712 1746 1713 1415 12801 12802 12576 12566 12799 12571 
1415 1448 1745 1746 10882 12793 12797 12799 12798 12803 
1712 1746 1415 1745 12801 12799 12566 12795 12803 12797 
1713 1415 1746 1416 12571 12799 12802 12573 10663 12804 
1746 1415 1449 1416 12799 10888 12800 12804 10663 10889 
1416 1449 1747 1450 10889 12805 12806 10895 10897 12807 
1713 1747 1714 1416 12808 12809 12583 12573 12806 12578 
1416 1449 1746 1747 10889 12800 12804 12806 12805 12810 
1713 1747 1416 1746 12808 12806 12573 12802 12810 12804 
1714 1416 1747 1417 12578 12806 12809 12580 10670 12811 
1747 1416 1450 1417 12806 10895 12807 12811 10670 10896 
1417 1450 1748 1451 10896 12812 12813 10902 10904 12814 
1714 1748 1715 1417 12815 12816 12590 12580 12813 12585 
1417 1450 1747 1748 10896 12807 12811 12813 12812 12817 
1714 1748 1417 1747 12815 12813 12580 12809 12817 12811 
1715 1417 1748 1418 12585 12813 12816 12587 10677 12818 
1748 1417 1451 1418 12813 10902 12814 12818 10677 10903 
1419 1452 1750 1453 10914 12819 12820 10909 10913 12821 
1716 1750 1717 1419 12822 12823 12599 12597 12820 12592 
1419 1452 1749 1750 10914 12824 12825 12820 12819 12826 
1716 1750 1419 1749 12822 12820 12597 12827 12826 12825 
1717 1419 1750 1420 12592 12820 12823 12594 10686 12828 
1750 1419 1453 1420 12820 10909 12821 12828 10686 10910 
1420 1453 1751 1454 10910 12829 12830 10919 10921 12831 
1717 1751 1718 1420 12832 12833 12607 12594 12830 12602 
1420 1453 1750 1751 10910 12821 12828 12830 12829 12834 
1717 1751 1420 1750 12832 12830 12594 12823 12834 12828 
1718 1420 1751 1421 12602 12830 12833 12604 10694 12835 
1751 1420 1454 1421 12830 10919 12831 12835 10694 10920 
1421 1454 1752 1455 10920 12836 12837 10926 10928 12838 
1718 1752 1719 1421 12839 12840 12614 12604 12837 12609 
1421 1454 1751 1752 10920 12831 12835 12837 12836 12841 
1718 1752 1421 1751 12839 12837 12604 12833 12841 12835 
1719 1421 1752 1422 12609 12837 12840 12611 10701 12842 
1752 1421 1455 1422 12837 10926 12838 12842 10701 10927 
1422 1455 1753 1456 10927 12843 12844 10933 10935 12845 
1719 1753 1720 1422 12846 12847 12621 12611 12844 12616 
1422 1455 1752 1753 10927 12838 12842 12844 12843 12848 
1719 1753 1422 1752 12846 12844 12611 12840 12848 12842 
1720 1422 1753 1423 12616 12844 12847 12618 10708 12849 
1753 1422 1456 1423 12844 10933 12845 12849 10708 10934 
1423 1456 1754 1457 10934 12850 12851 10940 10942 12852 
1720 1754 1721 1423 12853 12854 12628 12618 12851 12623 
1423 1456 1753 1754 10934 12845 12849 12851 12850 12855 
1720 1754 1423 1753 12853 12851 12618 12847 12855 12849 
1721 1423 1754 1424 12623 12851 12854 12625 10715 12856 
1754 1423 1457 1424 12851 10940 12852 12856 10715 10941 
1424 1457 1755 1458 10941 12857 12858 10947 10949 12859 
1721 1755 1722 1424 12860 12861 12635 12625 12858 12630 
1424 1457 1754 1755 10941 12852 12856 12858 12857 12862 
1721 1755 1424 1754 12860 12858 12625 12854 12862 12856 
1722 1424 1755 1425 12630 12858 12861 12632 10722 12863 
1755 1424 1458 1425 12858 10947 12859 12863 10722 10948 
1425 1458 1756 1459 10948 12864 12865 10954 10956 12866 
1722 1756 1723 1425 12867 12868 12642 12632 12865 12637 
1425 1458 1755 1756 10948 12859 12863 12865 12864 12869 
1722 1756 1425 1755 12867 12865 12632 12861 12869 12863 
1723 1425 1756 1426 12637 12865 12868 12639 10729 12870 
1756 1425 1459 1426 12865 10954 12866 12870 10729 10955 
1426 1459 1757 1460 10955 12871 12872 10961 10963 12873 
1723 1757 1724 1426 12874 12875 12649 12639 12872 12644 
1426 1459 1756 1757 10955 12866 12870 12872 12871 12876 
1723 1757 1426 1756 12874 12872 12639 12868 12876 12870 
1724 1426 1757 1427 12644 12872 12875 12646 10736 12877 
1757 1426 1460 1427 12872 10961 12873 12877 10736 10962 
1427 1460 1758 1461 10962 12878 12879 10968 10970 12880 
1724 1758 1725 1427 12881 12882 12656 12646 12879 12651 
1427 1460 1757 1758 10962 12873 12877 12879 12878 12883 
1724 1758 1427 1757 12881 12879 12646 12875 12883 12877 
1725 1427 1758 1428 12651 12879 12882 12653 10743 12884 
1758 1427 1461 1428 12879 10968 12880 12884 10743 10969 
1428 1461 1759 1462 10969 12885 12886 10975 10977 12887 
1725 1759 1726 1428 12888 12889 12663 12653 12886 12658 
1428 1461 1758 1759 10969 12880 12884 12886 12885 12890 
1725 1759 1428 1758 12888 12886 12653 12882 12890 12884 
1726 1428 1759 1429 12658 12886 12889 12660 10750 12891 
1759 1428 1462 1429 12886 10975 12887 12891 10750 10976 
1429 1462 1760 1463 10976 12892 12893 10982 10984 12894 
1726 1760 1727 1429 12895 12896 12670 12660 12893 12665 
1429 1462 1759 1760 10976 12887 12891 12893 12892 12897 
1726 1760 1429 1759 12895 12893 12660 12889 12897 12891 
1727 1429 1760 1430 12665 12893 12896 12667 10757 12898 
1760 1429 1463 1430 12893 10982 12894 12898 10757 10983 
1430 1463 1761 1464 10983 12899 12900 10989 10991 12901 
1727 1761 1728 1430 12902 12903 12677 12667 12900 12672 
1430 1463 1760 1761 10983 12894 12898 12900 12899 12904 
1727 1761 1430 1760 12902 12900 12667 12896 12904 12898 
1728 1430 1761 1431 12672 12900 12903 12674 10764 12905 
1761 1430 1464 1431 12900 10989 12901 12905 10764 10990 
1431 1464 1762 1465 10990 12906 12907 10996 10998 12908 
1728 1762 1729 1431 12909 12910 12684 12674 12907 12679 
1431 1464 1761 1762 10990 12901 12905 12907 12906 12911 
1728 1762 1431 1761 12909 12907 12674 12903 12911 12905 
1729 1431 1762 1432 12679 12907 12910 12681 10771 12912 
1762 1431 1465 1432 12907 10996 12908 12912 10771 10997 
1432 1465 1763 1466 10997 12913 12914 11003 11005 12915 
1729 1763 1730 1432 12916 12917 12691 12681 12914 12686 
1432 1465 1762 1763 10997 12908 12912 12914 12913 12918 
1729 1763 1432 1762 12916 12914 12681 12910 12918 12912 
1730 1432 1763 1433 12686 12914 12917 12688 10778 12919 
1763 1432 1466 1433 12914 11003 12915 12919 10778 11004 
1433 1466 1764 1467 11004 12920 12921 11010 11012 12922 
1730 1764 1731 1433 12923 12924 12698 12688 12921 12693 
1433 1466 1763 1764 11004 12915 12919 12921 12920 12925 
1730 1764 1433 1763 12923 12921 12688 12917 12925 12919 
1731 1433 1764 1434 12693 12921 12924 12695 10785 12926 
1764 1433 1467 1434 12921 11010 12922 12926 10785 11011 
1434 1467 1765 1468 11011 12927 12928 11017 11019 12929 
1731 1765 1732 1434 12930 12931 12705 12695 12928 12700 
1434 1467 1764 1765 11011 12922 12926 12928 12927 12932 
1731 1765 1434 1764 12930 12928 12695 12924 12932 12926 
1732 1434 1765 1435 12700 12928 12931 12702 10792 12933 
1765 1434 1468 1435 12928 11017 12929 12933 10792 11018 
1435 1468 1766 1469 11018 12934 12935 11024 11026 12936 
1732 1766 1733 1435 12937 12938 12712 12702 12935 12707 
1435 1468 1765 1766 11018 12929 12933 12935 12934 12939 
1732 1766 1435 1765 12937 12935 12702 12931 12939 12933 
1733 1435 1766 1436 12707 12935 12938 12709 10799 12940 
1766 1435 1469 1436 12935 11024 12936 12940 10799 11025 
1436 1469 1767 1470 11025 12941 12942 11031 11033 12943 
1733 1767 1734 1436 12944 12945 12719 12709 12942 12714 
1436 1469 1766 1767 11025 12936 12940 12942 12941 12946 
1733 1767 1436 1766 12944 12942 12709 12938 12946 12940 
1734 1436 1767 1437 12714 12942 12945 12716 10806 12947 
1767 1436 1470 1437 12942 11031 12943 12947 10806 11032 
1437 1470 1768 1471 11032 12948 12949 11038 11040 12950 
1734 1768 1735 1437 12951 12952 12726 12716 12949 12721 
1437 1470 1767 1768 11032 12943 12947 12949 12948 12953 
1734 1768 1437 1767 12951 12949 12716 12945 12953 12947 
1735 1437 1768 1438 12721 12949 12952 12723 10813 12954 
1768 1437 1471 1438 12949 11038 12950 12954 10813 11039 
1438 1471 1769 1472 11039 12955 12956 11045 11047 12957 
1735 1769 1736 1438 12958 12959 12733 12723 12956 12728 
1438 1471 1768 1769 11039 12950 12954 12956 12955 12960 
1735 1769 1438 1768 12958 12956 12723 12952 12960 12954 
1736 1438 1769 1439 12728 12956 12959 12730 10820 12961 
1769 1438 1472 1439 12956 11045 12957 12961 10820 11046 
1439 1472 1770 1473 11046 12962 12963 11052 11054 12964 
1736 1770 1737 1439 12965 12966 12740 12730 12963 12735 
1439 1472 1769 1770 11046 12957 12961 12963 12962 12967 
1736 1770 1439 1769 12965 12963 12730 12959 12967 12961 
1737 1439 1770 1440 12735 12963 12966 12737 10827 12968 
1770 1439 1473 1440 12963 11052 12964 12968 10827 11053 
1440 1473 1771 1474 11053 12969 12970 11059 11061 12971 
1737 1771 1738 1440 12972 12973 12747 12737 12970 12742 
1440 1473 1770 1771 11053 12964 12968 12970 12969 12974 
1737 1771 1440 1770 12972 12970 12737 12966 12974 12968 
1738 1440 1771 1441 12742 12970 12973 12744 10834 12975 
1771 1440 1474 1441 12970 11059 12971 12975 10834 11060 
1441 1474 1772 1475 11060 12976 12977 11066 11068 12978 
1738 1772 1739 1441 12979 12980 12754 12744 12977 12749 
1441 1474 1771 1772 11060 12971 12975 12977 12976 12981 
1738 1772 1441 1771 12979 12977 12744 12973 12981 12975 
1739 1441 1772 1442 12749 12977 12980 12751 10841 12982 
1772 1441 1475 1442 12977 11066 12978 12982 10841 11067 
1442 1475 1773 1476 11067 12983 12984 11073 11075 12985 
1739 1773 1740 1442 12986 12987 12761 12751 12984 12756 
1442 1475 1772 1773 11067 12978 12982 12984 12983 12988 
1739 1773 1442 1772 12986 12984 12751 12980 12988 12982 
1740 1442 1773 1443 12756 12984 12987 12758 10848 12989 
1773 1442 1476 1443 12984 11073 12985 12989 10848 11074 
1443 1476 1774 1477 11074 12990 12991 11080 11082 12992 
1740 1774 1741 1443 12993 12994 12768 12758 12991 12763 
1443 1476 1773 1774 11074 12985 12989 12991 12990 12995 
1740 1774 1443 1773 12993 12991 12758 12987 12995 12989 
1741 1443 1774 1444 12763 12991 12994 12765 10855 12996 
1774 1443 1477 1444 12991 11080 12992 12996 10855 11081 
1444 1477 1775 1478 11081 12997 12998 11087 11089 12999 
1741 1775 1742 1444 13000 13001 12775 12765 12998 12770 
1444 1477 1774 1775 11081 12992 12996 12998 12997 13002 
1741 1775 1444 1774 13000 12998 12765 12994 13002 12996 
1742 1444 1775 1445 12770 12998 13001 12772 10862 13003 
1775 1444 1478 1445 12998 11087 12999 13003 10862 11088 
1445 1478 1776 1479 11088 13004 13005 11094 11096 13006 
1742 1776 1743 1445 13007 13008 12782 12772 13005 12777 
1445 1478 1775 1776 11088 12999 13003 13005 13004 13009 
1742 1776 1445 1775 13007 13005 12772 13001 13009 13003 
1743 1445 1776 1446 12777 13005 13008 12779 10869 13010 
1776 1445 1479 1446 13005 11094 13006 13010 10869 11095 
1446 1479 1777 1480 11095 13011 13012 11101 11103 13013 
1743 1777 1744 1446 13014 13015 12789 12779 13012 12784 
1446 1479 1776 1777 11095 13006 13010 13012 13011 13016 
1743 1777 1446 1776 13014 13012 12779 13008 13016 13010 
1744 1446 1777 1447 12784 13012 13015 12786 10876 13017 
1777 1446 1480 1447 13012 11101 13013 13017 10876 11102 
1447 1480 1778 1481 11102 13018 13019 11108 11110 13020 
1744 1778 1745 1447 13021 13022 12796 12786 13019 12791 
1447 1480 1777 1778 11102 13013 13017 13019 13018 13023 
1744 1778 1447 1777 13021 13019 12786 13015 13023 13017 
1745 1447 1778 1448 12791 13019 13022 12793 10883 13024 
1778 1447 1481 1448 13019 11108 13020 13024 10883 11109 
1448 1481 1779 1482 11109 13025 13026 11115 11117 13027 
1745 1779 1746 1448 13028 13029 12803 12793 13026 12798 
1448 1481 1778 1779 11109 13020 13024 13026 13025 13030 
1745 1779 1448 1778 13028 13026 12793 13022 13030 13024 
1746 1448 1779 1449 12798 13026 13029 12800 10890 13031 
1779 1448 1482 1449 13026 11115 13027 13031 10890 11116 
1449 1482 1780 1483 11116 13032 13033 11122 11124 13034 
1746 1780 1747 1449 13035 13036 12810 12800 13033 12805 
1449 1482 1779 1780 11116 13027 13031 13033 13032 13037 
1746 1780 1449 1779 13035 13033 12800 13029 13037 13031 
1747 1449 1780 1450 12805 13033 13036 12807 10897 13038 
1780 1449 1483 1450 13033 11122 13034 13038 10897 11123 
1450 1483 1781 1484 11123 13039 13040 11129 11131 13041 
1747 1781 1748 1450 13042 13043 12817 12807 13040 12812 
1450 1483 1780 1781 11123 13034 13038 13040 13039 13044 
1747 1781 1450 1780 13042 13040 12807 13036 13044 13038 
1748 1450 1781 1451 12812 13040 13043 12814 10904 13045 
1781 1450 1484 1451 13040 11129 13041 13045 10904 11130 
1485 1518 1816 1519 11144 13046 13047 11136 11143 13048 
1782 1816 1783 1485 13049 13050 13051 13052 13047 13053 
1485 1518 1815 1816 11144 13054 13055 13047 13046 13056 
1782 1816 1485 1815 13049 13047 13052 13057 13056 13055 
1783 1485 1816 1486 13053 13047 13050 13058 11138 13059 
1816 1485 1519 1486 13047 11136 13048 13059 11138 11137 
1486 1519 1817 1520 11137 13060 13061 11150 11154 13062 
1783 1817 1784 1486 13063 13064 13065 13058 13061 13066 
1486 1519 1816 1817 11137 13048 13059 13061 13060 13067 
1783 1817 1486 1816 13063 13061 13058 13050 13067 13059 
1784 1486 1817 1487 13066 13061 13064 13068 11152 13069 
1817 1486 1520 1487 13061 11150 13062 13069 11152 11151 
1487 1520 1818 1521 11151 13070 13071 11160 11164 13072 
1784 1818 1785 1487 13073 13074 13075 13068 13071 13076 
1487 1520 1817 1818 11151 13062 13069 13071 13070 13077 
1784 1818 1487 1817 13073 13071 13068 13064 13077 13069 
1785 1487 1818 1488 13076 13071 13074 13078 11162 13079 
1818 1487 1521 1488 13071 11160 13072 13079 11162 11161 
1488 1521 1819 1522 11161 13080 13081 11170 11174 13082 
1785 1819 1786 1488 13083 13084 13085 13078 13081 13086 
1488 1521 1818 1819 11161 13072 13079 13081 13080 13087 
1785 1819 1488 1818 13083 13081 13078 13074 13087 13079 
1786 1488 1819 1489 13086 13081 13084 13088 11172 13089 
1819 1488 1522 1489 13081 11170 13082 13089 11172 11171 
1489 1522 1820 1523 11171 13090 13091 11180 11184 13092 
1786 1820 1787 1489 13093 13094 13095 13088 13091 13096 
1489 1522 1819 1820 11171 13082 13089 13091 13090 13097 
1786 1820 1489 1819 13093 13091 13088 13084 13097 13089 
1787 1489 1820 1490 13096 13091 13094 13098 11182 13099 
1820 1489 1523 1490 13091 11180 13092 13099 11182 11181 
1490 1523 1821 1524 11181 13100 13101 11190 11194 13102 
1787 1821 1788 1490 13103 13104 13105 13098 13101 13106 
1490 1523 1820 1821 11181 13092 13099 13101 13100 13107 
1787 1821 1490 1820 13103 13101 13098 13094 13107 13099 
1788 1490 1821 1491 13106 13101 13104 13108 11192 13109 
1821 1490 1524 1491 13101 11190 13102 13109 11192 11191 
1491 1524 1822 1525 11191 13110 13111 11200 11204 13112 
1788 1822 1789 1491 13113 13114 13115 13108 13111 13116 
1491 1524 1821 1822 11191 13102 13109 13111 13110 13117 
1788 1822 1491 1821 13113 13111 13108 13104 13117 13109 
1789 1491 1822 1492 13116 13111 13114 13118 11202 13119 
1822 1491 1525 1492 13111 11200 13112 13119 11202 11201 
1492 1525 1823 1526 11201 13120 13121 11210 11214 13122 
1789 1823 1790 1492 13123 13124 13125 13118 13121 13126 
1492 1525 1822 1823 11201 13112 13119 13121 13120 13127 
1789 1823 1492 1822 13123 13121 13118 13114 13127 13119 
1790 1492 1823 1493 13126 13121 13124 13128 11212 13129 
1823 1492 1526 1493 13121 11210 13122 13129 11212 11211 
1493 1526 1824 1527 11211 13130 13131 11220 11224 13132 
1790 1824 1791 1493 13133 13134 13135 13128 13131 13136 
1493 1526 1823 1824 11211 13122 13129 13131 13130 13137 
1790 1824 1493 1823 13133 13131 13128 13124 13137 13129 
1791 1493 1824 1494 13136 13131 13134 13138 11222 13139 
1824 1493 1527 1494 13131 11220 13132 13139 11222 11221 
1494 1527 1825 1528 11221 13140 13141 11230 11234 13142 
1791 1825 1792 1494 13143 13144 13145 13138 13141 13146 
1494 1527 1824 1825 11221 13132 13139 13141 13140 13147 
1791 1825 1494 1824 13143 13141 13138 13134 13147 13139 
1792 1494 1825 1495 13146 13141 13144 13148 11232 13149 
1825 1494 1528 1495 13141 11230 13142 13149 11232 11231 
1495 1528 1826 1529 11231 13150 13151 11240 11244 13152 
1792 1826 1793 1495 13153 13154 13155 13148 13151 13156 
1495 1528 1825 1826 11231 13142 13149 13151 13150 13157 
1792 1826 1495 1825 13153 13151 13148 13144 13157 13149 
1793 1495 1826 1496 13156 13151 13154 13158 11242 13159 
1826 1495 1529 1496 13151 11240 13152 13159 11242 11241 
1496 1529 1827 1530 11241 13160 13161 11250 11254 13162 
1793 1827 1794 1496 13163 13164 13165 13158 13161 13166 
1496 1529 1826 1827 11241 13152 13159 13161 13160 13167 
1793 1827 1496 1826 13163 13161 13158 13154 13167 13159 
1794 1496 1827 1497 13166 13161 13164 13168 11252 13169 
1827 1496 1530 1497 13161 11250 13162 13169 11252 11251 
1497 1530 1828 1531 11251 13170 13171 11260 11264 13172 
1794 1828 1795 1497 13173 13174 13175 13168 13171 13176 
1497 1530 1827 1828 11251 13162 13169 13171 13170 13177 
1794 1828 1497 1827 13173 13171 13168 13164 13177 13169 
1795 1497 1828 1498 13176 13171 13174 13178 11262 13179 
1828 1497 1531 1498 13171 11260 13172 13179 11262 11261 
1498 1531 1829 1532 11261 13180 13181 11270 11274 13182 
1795 1829 1796 1498 13183 13184 13185 13178 13181 13186 
1498 1531 1828 1829 11261 13172 13179 13181 13180 13187 
1795 1829 1498 1828 13183 13181 13178 13174 13187 13179 
1796 1498 1829 1499 13186 13181 13184 13188 11272 13189 
1829 1498 1532 1499 13181 11270 13182 13189 11272 11271 
1499 1532 1830 1533 11271 13190 13191 11280 11284 13192 
1796 1830 1797 1499 13193 13194 13195 13188 13191 13196 
1499 1532 1829 1830 11271 13182 13189 13191 13190 13197 
1796 1830 1499 1829 13193 13191 13188 13184 13197 13189 
1797 1499 1830 1500 13196 13191 13194 13198 11282 13199 
1830 1499 1533 1500 13191 11280 13192 13199 11282 11281 
1500 1533 1831 1534 11281 13200 13201 11290 11294 13202 
1797 1831 1798 1500 13203 13204 13205 13198 13201 13206 
1500 1533 1830 1831 11281 13192 13199 13201 13200 13207 
1797 1831 1500 1830 13203 13201 13198 13194 13207 13199 
1798 1500 1831 1501 13206 13201 13204 13208 11292 13209 
1831 1500 1534 1501 13201 11290 13202 13209 11292 11291 
1501 1534 1832 1535 11291 13210 13211 11300 11304 13212 
1798 1832 1799 1501 13213 13214 13215 13208 13211 13216 
1501 1534 1831 1832 11291 13202 13209 13211 13210 13217 
1798 1832 1501 1831 13213 13211 13208 13204 13217 13209 
1799 1501 1832 1502 13216 13211 13214 13218 11302 13219 
1832 1501 1535 1502 13211 11300 13212 13219 11302 11301 
1502 1535 1833 1536 11301 13220 13221 11310 11314 13222 
1799 1833 1800 1502 13223 13224 13225 13218 13221 13226 
1502 1535 1832 1833 11301 13212 13219 13221 13220 13227 
1799 1833 1502 1832 13223 13221 13218 13214 13227 13219 
1800 1502 1833 1503 13226 13221 13224 13228 11312 13229 
1833 1502 1536 1503 13221 11310 13222 13229 11312 11311 
1503 1536 1834 1537 11311 13230 13231 11320 11324 13232 
1800 1834 1801 1503 13233 13234 13235 13228 13231 13236 
1503 1536 1833 1834 11311 13222 13229 13231 13230 13237 
1800 1834 1503 1833 13233 13231 13228 13224 13237 13229 
1801 1503 1834 1504 13236 13231 13234 13238 11322 13239 
1834 1503 1537 1504 13231 11320 13232 13239 11322 11321 
1504 1537 1835 1538 11321 13240 13241 11330 11334 13242 
1801 1835 1802 1504 13243 13244 13245 13238 13241 13246 
1504 1537 1834 1835 11321 13232 13239 13241 13240 13247 
1801 1835 1504 1834 13243 13241 13238 13234 13247 13239 
1802 1504 1835 1505 13246 13241 13244 13248 11332 13249 
1835 1504 1538 1505 13241 11330 13242 13249 11332 11331 
1505 1538 1836 1539 11331 13250 13251 11340 11344 13252 
1802 1836 1803 1505 13253 13254 13255 13248 13251 13256 
1505 1538 1835 1836 11331 13242 13249 13251 13250 13257 
1802 1836 1505 1835 13253 13251 13248 13244 13257 13249 
1803 1505 1836 1506 13256 13251 13254 13258 11342 13259 
1836 1505 1539 1506 13251 11340 13252 13259 11342 11341 
1506 1539 1837 1540 11341 13260 13261 11350 11354 13262 
1803 1837 1804 1506 13263 13264 13265 13258 13261 13266 
1506 1539 1836 1837 11341 13252 13259 13261 13260 13267 
1803 1837 1506 1836 13263 13261 13258 13254 13267 13259 
1804 1506 1837 1507 13266 13261 13264 13268 11352 13269 
1837 1506 1540 1507 13261 11350 13262 13269 11352 11351 
1507 1540 1838 1541 11351 13270 13271 11360 11364 13272 
1804 1838 1805 1507 13273 13274 13275 13268 13271 13276 
1507 1540 1837 1838 11351 13262 13269 13271 13270 13277 
1804 1838 1507 1837 13273 13271 13268 13264 13277 13269 
1805 1507 1838 1508 13276 13271 13274 13278 11362 13279 
1838 1507 1541 1508 13271 11360 13272 13279 11362 11361 
1508 1541 1839 1542 11361 13280 13281 11370 11374 13282 
1805 1839 1806 1508 13283 13284 13285 13278 13281 13286 
1508 1541 1838 1839 11361 13272 13279 13281 13280 13287 
1805 1839 1508 1838 13283 13281 13278 13274 13287 13279 
1806 1508 1839 1509 13286 13281 13284 13288 11372 13289 
1839 1508 1542 1509 13281 11370 13282 13289 11372 11371 
1509 1542 1840 1543 11371 13290 13291 11380 11384 13292 
1806 1840 1807 1509 13293 13294 13295 13288 13291 13296 
1509 1542 1839 1840 11371 13282 13289 13291 13290 13297 
1806 1840 1509 1839 13293 13291 13288 13284 13297 13289 
1807 1509 1840 1510 13296 13291 13294 13298 11382 13299 
1840 1509 1543 1510 13291 11380 13292 13299 11382 11381 
1510 1543 1841 1544 11381 13300 13301 11390 11394 13302 
1807 1841 1808 1510 13303 13304 13305 13298 13301 13306 
1510 1543 1840 1841 11381 13292 13299 13301 13300 13307 
1807 1841 1510 1840 13303 13301 13298 13294 13307 13299 
1808 1510 1841 1511 13306 13301 13304 13308 11392 13309 
1841 1510 1544 1511 13301 11390 13302 13309 11392 11391 
1511 1544 1842 1545 11391 13310 13311 11400 11404 13312 
1808 1842 1809 1511 13313 13314 13315 13308 13311 13316 
1511 1544 1841 1842 11391 13302 13309 13311 13310 13317 
1808 1842 1511 1841 13313 13311 13308 13304 13317 13309 
1809 1511 1842 1512 13316 13311 13314 13318 11402 13319 
1842 1511 1545 1512 13311 11400 13312 13319 11402 11401 
1512 1545 1843 1546 11401 13320 13321 11410 11414 13322 
1809 1843 1810 1512 13323 13324 13325 13318 13321 13326 
1512 1545 1842 1843 11401 13312 13319 13321 13320 13327 
1809 1843 1512 1842 13323 13321 13318 13314 13327 13319 
1810 1512 1843 1513 13326 13321 13324 13328 11412 13329 
1843 1512 1546 1513 13321 11410 13322 13329 11412 11411 
1513 1546 1844 1547 11411 13330 13331 11420 11424 13332 
1810 1844 1811 1513 13333 13334 13335 13328 13331 13336 
1513 1546 1843 1844 11411 13322 13329 13331 13330 13337 
1810 1844 1513 1843 13333 13331 13328 13324 13337 13329 
1811 1513 1844 1514 13336 13331 13334 13338 11422 13339 
1844 1513 1547 1514 13331 11420 13332 13339 11422 11421 
1514 1547 1845 1548 11421 13340 13341 11430 11434 13342 
1811 1845 1812 1514 13343 13344 13345 13338 13341 13346 
1514 1547 1844 1845 11421 13332 13339 13341 13340 13347 
1811 1845 1514 1844 13343 13341 13338 13334 13347 13339 
1812 1514 1845 1515 13346 13341 13344 13348 11432 13349 
1845 1514 1548 1515 13341 11430 13342 13349 11432 11431 
1515 1548 1846 1549 11431 13350 13351 11440 11444 13352 
1812 1846 1813 1515 13353 13354 13355 13348 13351 13356 
1515 1548 1845 1846 11431 13342 13349 13351 13350 13357 
1812 1846 1515 1845 13353 13351 13348 13344 13357 13349 
1813 1515 1846 1516 13356 13351 13354 13358 11442 13359 
1846 1515 1549 1516 13351 11440 13352 13359 11442 11441 
1516 1549 1847 1550 11441 13360 13361 11450 11454 13362 
1813 1847 1814 1516 13363 13364 13365 13358 13361 13366 
1516 1549 1846 1847 11441 13352 13359 13361 13360 13367 
1813 1847 1516 1846 13363 13361 13358 13354 13367 13359 
1814 1516 1847 1517 13366 13361 13364 13368 11452 13369 
1847 1516 1550 1517 13361 11450 13362 13369 11452 11451 
1518 1551 1849 1552 11465 13370 13371 11460 11464 13372 
1815 1849 1816 1518 13373 13374 13056 13054 13371 13046 
1518 1551 1848 1849 11465 13375 13376 13371 13370 13377 
1815 1849 1518 1848 13373 13371 13054 13378 13377 13376 
1816 1518 1849 1519 13046 13371 13374 13048 11143 13379 
1849 1518 1552 1519 13371 11460 13372 13379 11143 11461 
1519 1552 1850 1553 11461 13380 13381 11470 11472 13382 
1816 1850 1817 1519 13383 13384 13067 13048 13381 13060 
1519 1552 1849 1850 11461 13372 13379 13381 13380 13385 
1816 1850 1519 1849 13383 13381 13048 13374 13385 13379 
1817 1519 1850 1520 13060 13381 13384 13062 11154 13386 
1850 1519 1553 1520 13381 11470 13382 13386 11154 11471 
1520 1553 1851 1554 11471 13387 13388 11477 11479 13389 
1817 1851 1818 1520 13390 13391 13077 13062 13388 13070 
1520 1553 1850 1851 11471 13382 13386 13388 13387 13392 
1817 1851 1520 1850 13390 13388 13062 13384 13392 13386 
1818 1520 1851 1521 13070 13388 13391 13072 11164 13393 
1851 1520 1554 1521 13388 11477 13389 13393 11164 11478 
1521 1554 1852 1555 11478 13394 13395 11484 11486 13396 
1818 1852 1819 1521 13397 13398 13087 13072 13395 13080 
1521 1554 1851 1852 11478 13389 13393 13395 13394 13399 
1818 1852 1521 1851 13397 13395 13072 13391 13399 13393 
1819 1521 1852 1522 13080 13395 13398 13082 11174 13400 
1852 1521 1555 1522 13395 11484 13396 13400 11174 11485 
1522 1555 1853 1556 11485 13401 13402 11491 11493 13403 
1819 1853 1820 1522 13404 13405 13097 13082 13402 13090 
1522 1555 1852 1853 11485 13396 13400 13402 13401 13406 
1819 1853 1522 1852 13404 13402 13082 13398 13406 13400 
1820 1522 1853 1523 13090 13402 13405 13092 11184 13407 
1853 1522 1556 1523 13402 11491 13403 13407 11184 11492 
1523 1556 1854 1557 11492 13408 13409 11498 11500 13410 
1820 1854 1821 1523 13411 13412 13107 13092 13409 13100 
1523 1556 1853 1854 11492 13403 13407 13409 13408 13413 
1820 1854 1523 1853 13411 13409 13092 13405 13413 13407 
1821 1523 1854 1524 13100 13409 13412 13102 11194 13414 
1854 1523 1557 1524 13409 11498 13410 13414 11194 11499 
1524 1557 1855 1558 11499 13415 13416 11505 11507 13417 
1821 1855 1822 1524 13418 13419 13117 13102 13416 13110 
1524 1557 1854 1855 11499 13410 13414 13416 13415 13420 
1821 1855 1524 1854 13418 13416 13102 13412 13420 13414 
1822 1524 1855 1525 13110 13416 13419 13112 11204 13421 
1855 1524 1558 1525 13416 11505 13417 13421 11204 11506 
1525 1558 1856 1559 11506 13422 13423 11512 11514 13424 
1822 1856 1823 1525 13425 13426 13127 13112 13423 13120 
1525 1558 1855 1856 11506 13417 13421 13423 13422 13427 
1822 1856 1525 1855 13425 13423 13112 13419 13427 13421 
1823 1525 1856 1526 13120 13423 13426 13122 11214 13428 
1856 1525 1559 1526 13423 11512 13424 13428 11214 11513 
1526 1559 1857 1560 11513 13429 13430 11519 11521 13431 
1823 1857 1824 1526 13432 13433 13137 13122 13430 13130 
1526 1559 1856 1857 11513 13424 13428 13430 13429 13434 
1823 1857 1526 1856 13432 13430 13122 13426 13434 13428 
1824 1526 1857 1527 13130 13430 13433 13132 11224 13435 
1857 1526 1560 1527 13430 11519 13431 13435 11224 11520 
1527 1560 1858 1561 11520 13436 13437 11526 11528 13438 
1824 1858 1825 1527 13439 13440 13147 13132 13437 13140 
1527 1560 1857 1858 11520 13431 13435 13437 13436 13441 
1824 1858 1527 1857 13439 13437 13132 13433 13441 13435 
1825 1527 1858 1528 13140 13437 13440 13142 11234 13442 
1858 1527 1561 1528 13437 11526 13438 13442 11234 11527 
1528 1561 1859 1562 11527 13443 13444 11533 11535 13445 
1825 1859 1826 1528 13446 13447 13157 13142 13444 13150 
1528 1561 1858 1859 11527 13438 13442 13444 13443 13448 
1825 1859 1528 1858 13446 13444 13142 13440 13448 13442 
1826 1528 1859 1529 13150 13444 13447 13152 11244 13449 
1859 1528 1562 1529 13444 11533 13445 13449 11244 11534 
1529 1562 1860 1563 11534 13450 13451 11540 11542 13452 
1826 1860 1827 1529 13453 13454 13167 13152 13451 13160 
1529 1562 1859 1860 11534 13445 13449 13451 13450 13455 
1826 1860 1529 1859 13453 13451 13152 13447 13455 13449 
1827 1529 1860 1530 13160 13451 13454 13162 11254 13456 
1860 1529 1563 1530 13451 11540 13452 13456 11254 11541 
1530 1563 1861 1564 11541 13457 13458 11547 11549 13459 
1827 1861 1828 1530 13460 13461 13177 13162 13458 13170 
1530 1563 1860 1861 11541 13452 13456 13458 13457 13462 
1827 1861 1530 1860 13460 13458 13162 13454 13462 13456 
1828 1530 1861 1531 13170 13458 13461 13172 11264 13463 
1861 1530 1564 1531 13458 11547 13459 13463 11264 11548 
1531 1564 1862 1565 11548 13464 13465 11554 11556 13466 
1828 1862 1829 1531 13467 13468 13187 13172 13465 13180 
1531 1564 1861 1862 11548 13459 13463 13465 13464 13469 
1828 1862 1531 1861 13467 13465 13172 13461 13469 13463 
1829 1531 1862 1532 13180 13465 13468 13182 11274 13470 
1862 1531 1565 1532 13465 11554 13466 13470 11274 11555 
1532 1565 1863 1566 11555 13471 13472 11561 11563 13473 
1829 1863 1830 1532 13474 13475 13197 13182 13472 13190 
1532 1565 1862 1863 11555 13466 13470 13472 13471 13476 
1829 1863 1532 1862 13474 13472 13182 13468 13476 13470 
1830 1532 1863 1533 13190 13472 13475 13192 11284 13477 
1863 1532 1566 1533 13472 11561 13473 13477 11284 11562 
1533 1566 1864 1567 11562 13478 13479 11568 11570 13480 
1830 1864 1831 1533 13481 13482 13207 13192 13479 13200 
1533 1566 1863 1864 11562 13473 13477 13479 13478 13483 
1830 1864 1533 1863 13481 13479 13192 13475 13483 13477 
1831 1533 1864 1534 13200 13479 13482 13202 11294 13484 
1864 1533 1567 1534 13479 11568 13480 13484 11294 11569 
1534 1567 1865 1568 11569 13485 13486 11575 11577 13487 
1831 1865 1832 1534 13488 13489 13217 13202 13486 13210 
1534 1567 1864 1865 11569 13480 13484 13486 13485 13490 
1831 1865 1534 1864 13488 13486 13202 13482 13490 13484 
1832 1534 1865 1535 13210 13486 13489 13212 11304 13491 
1865 1534 1568 1535 13486 11575 13487 13491 11304 11576 
1535 1568 1866 1569 11576 13492 13493 11582 11584 13494 
1832 1866 1833 1535 13495 13496 13227 13212 13493 13220 
1535 1568 1865 1866 11576 13487 13491 13493 13492 13497 
1832 1866 1535 1865 13495 13493 13212 13489 13497 13491 
1833 1535 1866 1536 13220 13493 13496 13222 11314 13498 
1866 1535 1569 1536 13493 11582 13494 13498 11314 11583 
1536 1569 1867 1570 11583 13499 13500 11589 11591 13501 
1833 1867 1834 1536 13502 13503 13237 13222 13500 13230 
1536 1569 1866 1867 11583 13494 13498 13500 13499 13504 
1833 1867 1536 1866 13502 13500 13222 13496 13504 13498 
1834 1536 1867 1537 13230 13500 13503 13232 11324 13505 
1867 1536 1570 1537 13500 11589 13501 13505 11324 11590 
1537 1570 1868 1571 11590 13506 13507 11596 11598 13508 
1834 1868 1835 1537 13509 13510 13247 13232 13507 13240 
1537 1570 1867 1868 11590 13501 13505 13507 13506 13511 
1834 1868 1537 1867 13509 13507 13232 13503 13511 13505 
1835 1537 1868 1538 13240 13507 13510 13242 11334 13512 
1868 1537 1571 1538 13507 11596 13508 13512 11334 11597 
1538 1571 1869 1572 11597 13513 13514 11603 11605 13515 
1835 1869 1836 1538 13516 13517 13257 13242 13514 13250 
1538 1571 1868 1869 11597 13508 13512 13514 13513 13518 
1835 1869 1538 1868 13516 13514 13242 13510 13518 13512 
1836 1538 1869 1539 13250 13514 13517 13252 11344 13519 
1869 1538 1572 1539 13514 11603 13515 13519 11344 11604 
1539 1572 1870 1573 11604 13520 13521 11610 11612 13522 
1836 1870 1837 1539 13523 13524 13267 13252 13521 13260 
1539 1572 1869 1870 11604 13515 13519 13521 13520 13525 
1836 1870 1539 1869 13523 13521 13252 13517 13525 13519 
1837 1539 1870 1540 13260 13521 13524 13262 11354 13526 
1870 1539 1573 1540 13521 11610 13522 13526 11354 11611 
1540 1573 1871 1574 11611 13527 13528 11617 11619 13529 
1837 1871 1838 1540 13530 13531 13277 13262 13528 13270 
1540 1573 1870 1871 11611 13522 13526 13528 13527 13532 
1837 1871 1540 1870 13530 13528 13262 13524 13532 13526 
1838 1540 1871 1541 13270 13528 13531 13272 11364 13533 
1871 1540 1574 1541 13528 11617 13529 13533 11364 11618 
1541 1574 1872 1575 11618 13534 13535 11624 11626 13536 
1838 1872 1839 1541 13537 13538 13287 13272 13535 13280 
1541 1574 1871 1872 11618 13529 13533 13535 13534 13539 
1838 1872 1541 1871 13537 13535 13272 13531 13539 13533 
1839 1541 1872 1542 13280 13535 13538 13282 11374 13540 
1872 1541 1575 1542 13535 11624 13536 13540 11374 11625 
1542 1575 1873 1576 11625 13541 13542 11631 11633 13543 
1839 1873 1840 1542 13544 13545 13297 13282 13542 13290 
1542 1575 1872 1873 11625 13536 13540 13542 13541 13546 
1839 1873 1542 1872 13544 13542 13282 13538 13546 13540 
1840 1542 1873 1543 13290 13542 13545 13292 11384 13547 
1873 1542 1576 1543 13542 11631 13543 13547 11384 11632 
1543 1576 1874 1577 11632 13548 13549 11638 11640 13550 
1840 1874 1841 1543 13551 13552 13307 13292 13549 13300 
1543 1576 1873 1874 11632 13543 13547 13549 13548 13553 
1840 1874 1543 1873 13551 13549 13292 13545 13553 13547 
1841 1543 1874 1544 13300 13549 13552 13302 11394 13554 
1874 1543 1577 1544 13549 11638 13550 13554 11394 11639 
1544 1577 1875 1578 11639 13555 13556 11645 11647 13557 
1841 1875 1842 1544 13558 13559 13317 13302 13556 13310 
1544 1577 1874 1875 11639 13550 13554 13556 13555 13560 
1841 1875 1544 1874 13558 13556 13302 13552 13560 13554 
1842 1544 1875 1545 13310 13556 13559 13312 11404 13561 
1875 1544 1578 1545 13556 11645 13557 13561 11404 11646 
1545 1578 1876 1579 11646 13562 13563 11652 11654 13564 
1842 1876 1843 1545 13565 13566 13327 13312 13563 13320 
1545 1578 1875 1876 11646 13557 13561 13563 13562 13567 
1842 1876 1545 1875 13565 13563 13312 13559 13567 13561 
1843 1545 1876 1546 13320 13563 13566 13322 11414 13568 
1876 1545 1579 1546 13563 11652 13564 13568 11414 11653 
1546 1579 1877 1580 11653 13569 13570 11659 11661 13571 
1843 1877 1844 1546 13572 13573 13337 13322 13570 13330 
1546 1579 1876 1877 11653 13564 13568 13570 13569 13574 
1843 1877 1546 1876 13572 13570 13322 13566 13574 13568 
1844 1546 1877 1547 13330 13570 13573 13332 11424 13575 
1877 1546 1580 1547 13570 11659 13571 13575 11424 11660 
1547 1580 1878 1581 11660 13576 13577 11666 11668 13578 
1844 1878 1845 1547 13579 13580 13347 13332 13577 13340 
1547 1580 1877 1878 11660 13571 13575 13577 13576 13581 
1844 1878 1547 1877 13579 13577 13332 13573 13581 13575 
1845 1547 1878 1548 13340 13577 13580 13342 11434 13582 
1878 1547 1581 1548 13577 11666 13578 13582 11434 11667 
1548 1581 1879 1582 11667 13583 13584 11673 11675 13585 
1845 1879 1846 1548 13586 13587 13357 13342 13584 13350 
1548 1581 1878 1879 11667 13578 13582 13584 13583 13588 
1845 1879 1548 1878 13586 13584 13342 13580 13588 13582 
1846 1548 1879 1549 13350 13584 13587 13352 11444 13589 
1879 1548 1582 1549 13584 11673 13585 13589 11444 11674 
1549 1582 1880 1583 11674 13590 13591 11680 11682 13592 
1846 1880 1847 1549 13593 13594 13367 13352 13591 13360 
1549 1582 1879 1880 11674 13585 13589 13591 13590 13595 
1846 1880 1549 1879 13593 13591 13352 13587 13595 13589 
1847 1549 1880 1550 13360 13591 13594 13362 11454 13596 
1880 1549 1583 1550 13591 11680 13592 13596 11454 11681 
1551 1584 1882 1585 11692 13597 13598 11687 11691 13599 
1848 1882 1849 1551 13600 13601 13377 13375 13598 13370 
1551 1584 1881 1882 11692 13602 13603 13598 13597 13604 
1848 1882 1551 1881 13600 13598 13375 13605 13604 13603 
1849 1551 1882 1552 13370 13598 13601 13372 11464 13606 
1882 1551 1585 1552 13598 11687 13599 13606 11464 11688 
1552 1585 1883 1586 11688 13607 13608 11697 11699 13609 
1849 1883 1850 1552 13610 13611 13385 13372 13608 13380 
1552 1585 1882 1883 11688 13599 13606 13608 13607 13612 
1849 1883 1552 1882 13610 13608 13372 13601 13612 13606 
1850 1552 1883 1553 13380 13608 13611 13382 11472 13613 
1883 1552 1586 1553 13608 11697 13609 13613 11472 11698 
1553 1586 1884 1587 11698 13614 13615 11704 11706 13616 
1850 1884 1851 1553 13617 13618 13392 13382 13615 13387 
1553 1586 1883 1884 11698 13609 13613 13615 13614 13619 
1850 1884 1553 1883 13617 13615 13382 13611 13619 13613 
1851 1553 1884 1554 13387 13615 13618 13389 11479 13620 
1884 1553 1587 1554 13615 11704 13616 13620 11479 11705 
1554 1587 1885 1588 11705 13621 13622 11711 11713 13623 
1851 1885 1852 1554 13624 13625 13399 13389 13622 13394 
1554 1587 1884 1885 11705 13616 13620 13622 13621 13626 
1851 1885 1554 1884 13624 13622 13389 13618 13626 13620 
1852 1554 1885 1555 13394 13622 13625 13396 11486 13627 
1885 1554 1588 1555 13622 11711 13623 13627 11486 11712 
1555 1588 1886 1589 11712 13628 13629 11718 11720 13630 
1852 1886 1853 1555 13631 13632 13406 13396 13629 13401 
1555 1588 1885 1886 11712 13623 13627 13629 13628 13633 
1852 1886 1555 1885 13631 13629 13396 13625 13633 13627 
1853 1555 1886 1556 13401 13629 13632 13403 11493 13634 
1886 1555 1589 1556 13629 11718 13630 13634 11493 11719 
1556 1589 1887 1590 11719 13635 13636 11725 11727 13637 
1853 1887 1854 1556 13638 13639 13413 13403 13636 13408 
1556 1589 1886 1887 11719 13630 13634 13636 13635 13640 
1853 1887 1556 1886 13638 13636 13403 13632 13640 13634 
1854 1556 1887 1557 13408 13636 13639 13410 11500 13641 
1887 1556 1590 1557 13636 11725 13637 13641 11500 11726 
1557 1590 1888 1591 11726 13642 13643 11732 11734 13644 
1854 1888 1855 1557 13645 13646 13420 13410 13643 13415 
1557 1590 1887 1888 11726 13637 13641 13643 13642 13647 
1854 1888 1557 1887 13645 13643 13410 13639 13647 13641 
1855 1557 1888 1558 13415 13643 13646 13417 11507 13648 
1888 1557 1591 1558 13643 11732 13644 13648 11507 11733 
1558 1591 1889 1592 11733 13649 13650 11739 11741 13651 
1855 1889 1856 1558 13652 13653 13427 13417 13650 13422 
1558 1591 1888 1889 11733 13644 13648 13650 13649 13654 
1855 1889 1558 1888 13652 13650 13417 13646 13654 13648 
1856 1558 1889 1559 13422 13650 13653 13424 11514 13655 
1889 1558 1592 1559 13650 11739 13651 13655 11514 11740 
1559 1592 1890 1593 11740 13656 13657 11746 11748 13658 
1856 1890 1857 1559 13659 13660 13434 13424 13657 13429 
1559 1592 1889 1890 11740 13651 13655 13657 13656 13661 
1856 1890 1559 1889 13659 13657 13424 13653 13661 13655 
1857 1559 1890 1560 13429 13657 13660 13431 11521 13662 
1890 1559 1593 1560 13657 11746 13658 13662 11521 11747 
1560 1593 1891 1594 11747 13663 13664 11753 11755 13665 
1857 1891 1858 1560 13666 13667 13441 13431 13664 13436 
1560 1593 1890 1891 11747 13658 13662 13664 13663 13668 
1857 1891 1560 1890 13666 13664 13431 13660 13668 13662 
1858 1560 1891 1561 13436 13664 13667 13438 11528 13669 
1891 1560 1594 1561 13664 11753 13665 13669 11528 11754 
1561 1594 1892 1595 11754 13670 13671 11760 11762 13672 
1858 1892 1859 1561 13673 13674 13448 13438 13671 13443 
1561 1594 1891 1892 11754 13665 13669 13671 13670 13675 
1858 1892 1561 1891 13673 13671 13438 13667 13675 13669 
1859 1561 1892 1562 13443 13671 13674 13445 11535 13676 
1892 1561 1595 1562 13671 11760 13672 13676 11535 11761 
1562 1595 1893 1596 11761 13677 13678 11767 11769 13679 
1859 1893 1860 1562 13680 13681 13455 13445 13678 13450 
1562 1595 1892 1893 11761 13672 13676 13678 13677 13682 
1859 1893 1562 1892 13680 13678 13445 13674 13682 13676 
1860 1562 1893 1563 13450 13678 13681 13452 11542 13683 
1893 1562 1596 1563 13678 11767 13679 13683 11542 11768 
1563 1596 1894 1597 11768 13684 13685 11774 11776 13686 
1860 1894 1861 1563 13687 13688 13462 13452 13685 13457 
1563 1596 1893 1894 11768 13679 13683 13685 13684 13689 
1860 1894 1563 1893 13687 13685 13452 13681 13689 13683 
1861 1563 1894 1564 13457 13685 13688 13459 11549 13690 
1894 1563 1597 1564 13685 11774 13686 13690 11549 11775 
1564 1597 1895 1598 11775 13691 13692 11781 11783 13693 
1861 1895 1862 1564 13694 13695 13469 13459 13692 13464 
1564 1597 1894 1895 11775 13686 13690 13692 13691 13696 
1861 1895 1564 1894 13694 13692 13459 13688 13696 13690 
1862 1564 1895 1565 13464 13692 13695 13466 11556 13697 
1895 1564 1598 1565 13692 11781 13693 13697 11556 11782 
1565 1598 1896 1599 11782 13698 13699 11788 11790 13700 
1862 1896 1863 1565 13701 13702 13476 13466 13699 13471 
1565 1598 1895 1896 11782 13693 13697 13699 13698 13703 
1862 1896 1565 1895 13701 13699 13466 13695 13703 13697 
1863 1565 1896 1566 13471 13699 13702 13473 11563 13704 
1896 1565 1599 1566 13699 11788 13700 13704 11563 11789 
1566 1599 1897 1600 11789 13705 13706 11795 11797 13707 
1863 1897 1864 1566 13708 13709 13483 13473 13706 13478 
1566 1599 1896 1897 11789 13700 13704 13706 13705 13710 
1863 1897 1566 1896 13708 13706 13473 13702 13710 13704 
1864 1566 1897 1567 13478 13706 13709 13480 11570 13711 
1897 1566 1600 1567 13706 11795 13707 13711 11570 11796 
1567 1600 1898 1601 11796 13712 13713 11802 11804 13714 
1864 1898 1865 1567 13715 13716 13490 13480 13713 13485 
1567 1600 1897 1898 11796 13707 13711 13713 13712 13717 
1864 1898 1567 1897 13715 13713 13480 13709 13717 13711 
1865 1567 1898 1568 13485 13713 13716 13487 11577 13718 
1898 1567 1601 1568 13713 11802 13714 13718 11577 11803 
1568 1601 1899 1602 11803 13719 13720 11809 11811 13721 
1865 1899 1866 1568 13722 13723 13497 13487 13720 13492 
1568 1601 1898 1899 11803 13714 13718 13720 13719 13724 
1865 1899 1568 1898 13722 13720 13487 13716 13724 13718 
1866 1568 1899 1569 13492 13720 13723 13494 11584 13725 
1899 1568 1602 1569 13720 11809 13721 13725 11584 11810 
1569 1602 1900 1603 11810 13726 13727 11816 11818 13728 
1866 1900 1867 1569 13729 13730 13504 13494 13727 13499 
1569 1602 1899 1900 11810 13721 13725 13727 13726 13731 
1866 1900 1569 1899 13729 13727 13494 13723 13731 13725 
1867 1569 1900 1570 13499 13727 13730 13501 11591 13732 
1900 1569 1603 1570 13727 11816 13728 13732 11591 11817 
1570 1603 1901 1604 11817 13733 13734 11823 11825 13735 
1867 1901 1868 1570 13736 13737 13511 13501 13734 13506 
1570 1603 1900 1901 11817 13728 13732 13734 13733 13738 
1867 1901 1570 1900 13736 13734 13501 13730 13738 13732 
1868 1570 1901 1571 13506 13734 13737 13508 11598 13739 
1901 1570 1604 1571 13734 11823 13735 13739 11598 11824 
1571 1604 1902 1605 11824 13740 13741 11830 11832 13742 
1868 1902 1869 1571 13743 13744 13518 13508 13741 13513 
1571 1604 1901 1902 11824 13735 13739 13741 13740 13745 
1868 1902 1571 1901 13743 13741 13508 13737 13745 13739 
1869 1571 1902 1572 13513 13741 13744 13515 11605 13746 
1902 1571 1605 1572 13741 11830 13742 13746 11605 11831 
1572 1605 1903 1606 11831 13747 13748 11837 11839 13749 
1869 1903 1870 1572 13750 13751 13525 13515 13748 13520 
1572 1605 1902 1903 11831 13742 13746 13748 13747 13752 
1869 1903 1572 1902 13750 13748 13515 13744 13752 13746 
1870 1572 1903 1573 13520 13748 13751 13522 11612 13753 
1903 1572 1606 1573 13748 11837 13749 13753 11612 11838 
1573 1606 1904 1607 11838 13754 13755 11844 11846 13756 
1870 1904 1871 1573 13757 13758 13532 13522 13755 13527 
1573 1606 1903 1904 11838 13749 13753 13755 13754 13759 
1870 1904 1573 1903 13757 13755 13522 13751 13759 13753 
1871 1573 1904 1574 13527 13755 13758 13529 11619 13760 
1904 1573 1607 1574 13755 11844 13756 13760 11619 11845 
1574 1607 1905 1608 11845 13761 13762 11851 11853 13763 
1871 1905 1872 1574 13764 13765 13539 13529 13762 13534 
1574 1607 1904 1905 11845 13756 13760 13762 13761 13766 
1871 1905 1574 1904 13764 13762 13529 13758 13766 13760 
1872 1574 1905 1575 13534 13762 13765 13536 11626 13767 
1905 1574 1608 1575 13762 11851 13763 13767 11626 11852 
1575 1608 1906 1609 11852 13768 13769 11858 11860 13770 
1872 1906 1873 1575 13771 13772 13546 13536 13769 13541 
1575 1608 1905 1906 11852 13763 13767 13769 13768 13773 
1872 1906 1575 1905 13771 13769 13536 13765 13773 13767 
1873 1575 1906 1576 13541 13769 13772 13543 11633 13774 
1906 1575 1609 1576 13769 11858 13770 13774 11633 11859 
1576 1609 1907 1610 11859 13775 13776 11865 11867 13777 
1873 1907 1874 1576 13778 13779 13553 13543 13776 13548 
1576 1609 1906 1907 11859 13770 13774 13776 13775 13780 
1873 1907 1576 1906 13778 13776 13543 13772 13780 13774 
1874 1576 1907 1577 13548 13776 13779 13550 11640 13781 
1907 1576 1610 1577 13776 11865 13777 13781 11640 11866 
1577 1610 1908 1611 11866 13782 13783 11872 11874 13784 
1874 1908 1875 1577 13785 13786 13560 13550 13783 13555 
1577 1610 1907 1908 11866 13777 13781 13783 13782 13787 
1874 1908 1577 1907 13785 13783 13550 13779 13787 13781 
1875 1577 1908 1578 13555 13783 13786 13557 11647 13788 
1908 1577 1611 1578 13783 11872 13784 13788 11647 11873 
1578 1611 1909 1612 11873 13789 13790 11879 11881 13791 
1875 1909 1876 1578 13792 13793 13567 13557 13790 13562 
1578 1611 1908 1909 11873 13784 13788 13790 13789 13794 
1875 1909 1578 1908 13792 13790 13557 13786 13794 13788 
1876 1578 1909 1579 13562 13790 13793 13564 11654 13795 
1909 1578 1612 1579 13790 11879 13791 13795 11654 11880 
1579 1612 1910 1613 11880 13796 13797 11886 11888 13798 
1876 1910 1877 1579 13799 13800 13574 13564 13797 13569 
1579 1612 1909 1910 11880 13791 13795 13797 13796 13801 
1876 1910 1579 1909 13799 13797 13564 13793 13801 13795 
1877 1579 1910 1580 13569 13797 13800 13571 11661 13802 
1910 1579 1613 1580 13797 11886 13798 13802 11661 11887 
1580 1613 1911 1614 11887 13803 13804 11893 11895 13805 
1877 1911 1878 1580 13806 13807 13581 13571 13804 13576 
1580 1613 1910 1911 11887 13798 13802 13804 13803 13808 
1877 1911 1580 1910 13806 13804 13571 13800 13808 13802 
1878 1580 1911 1581 13576 13804 13807 13578 11668 13809 
1911 1580 1614 1581 13804 11893 13805 13809 11668 11894 
1581 1614 1912 1615 11894 13810 13811 11900 11902 13812 
1878 1912 1879 1581 13813 13814 13588 13578 13811 13583 
1581 1614 1911 1912 11894 13805 13809 13811 13810 13815 
1878 1912 1581 1911 13813 13811 13578 13807 13815 13809 
1879 1581 1912 1582 13583 13811 13814 13585 11675 13816 
1912 1581 1615 1582 13811 11900 13812 13816 11675 11901 
1582 1615 1913 1616 11901 13817 13818 11907 11909 13819 
1879 1913 1880 1582 13820 13821 13595 13585 13818 13590 
1582 1615 1912 1913 11901 13812 13816 13818 13817 13822 
1879 1913 1582 1912 13820 13818 13585 13814 13822 13816 
1880 1582 1913 1583 13590 13818 13821 13592 11682 13823 
1913 1582 1616 1583 13818 11907 13819 13823 11682 11908 
1584 1617 1915 1618 11919 13824 13825 11914 11918 13826 
1881 1915 1882 1584 13827 13828 13604 13602 13825 13597 
1584 1617 1914 1915 11919 13829 13830 13825 13824 13831 
1881 1915 1584 1914 13827 13825 13602 13832 13831 13830 
1882 1584 1915 1585 13597 13825 13828 13599 11691 13833 
1915 1584 1618 1585 13825 11914 13826 13833 11691 11915 
1585 1618 1916 1619 11915 13834 13835 11924 11926 13836 
1882 1916 1883 1585 13837 13838 13612 13599 13835 13607 
1585 1618 1915 1916 11915 13826 13833 13835 13834 13839 
1882 1916 1585 1915 13837 13835 13599 13828 13839 13833 
1883 1585 1916 1586 13607 13835 13838 13609 11699 13840 
1916 1585 1619 1586 13835 11924 13836 13840 11699 11925 
1586 1619 1917 1620 11925 13841 13842 11931 11933 13843 
1883 1917 1884 1586 13844 13845 13619 13609 13842 13614 
1586 1619 1916 1917 11925 13836 13840 13842 13841 13846 
1883 1917 1586 1916 13844 13842 13609 13838 13846 13840 
1884 1586 1917 1587 13614 13842 13845 13616 11706 13847 
1917 1586 1620 1587 13842 11931 13843 13847 11706 11932 
1587 1620 1918 1621 11932 13848 13849 11938 11940 13850 
1884 1918 1885 1587 13851 13852 13626 13616 13849 13621 
1587 1620 1917 1918 11932 13843 13847 13849 13848 13853 
1884 1918 1587 1917 13851 13849 13616 13845 13853 13847 
1885 1587 1918 1588 13621 13849 13852 13623 11713 13854 
1918 1587 1621 1588 13849 11938 13850 13854 11713 11939 
1588 1621 1919 1622 11939 13855 13856 11945 11947 13857 
1885 1919 1886 1588 13858 13859 13633 13623 13856 13628 
1588 1621 1918 1919 11939 13850 13854 13856 13855 13860 
1885 1919 1588 1918 13858 13856 13623 13852 13860 13854 
1886 1588 1919 1589 13628 13856 13859 13630 11720 13861 
1919 1588 1622 1589 13856 11945 13857 13861 11720 11946 
1589 1622 1920 1623 11946 13862 13863 11952 11954 13864 
1886 1920 1887 1589 13865 13866 13640 13630 13863 13635 
1589 1622 1919 1920 11946 13857 13861 13863 13862 13867 
1886 1920 1589 1919 13865 13863 13630 13859 13867 13861 
1887 1589 1920 1590 13635 13863 13866 13637 11727 13868 
1920 1589 1623 1590 13863 11952 13864 13868 11727 11953 
1590 1623 1921 1624 11953 13869 13870 11959 11961 13871 
1887 1921 1888 1590 13872 13873 13647 13637 13870 13642 
1590 1623 1920 1921 11953 13864 13868 13870 13869 13874 
1887 1921 1590 1920 13872 13870 13637 13866 13874 13868 
1888 1590 1921 1591 13642 13870 13873 13644 11734 13875 
1921 1590 1624 1591 13870 11959 13871 13875 11734 11960 
1591 1624 1922 1625 11960 13876 13877 11966 11968 13878 
1888 1922 1889 1591 13879 13880 13654 13644 13877 13649 
1591 1624 1921 1922 11960 13871 13875 13877 13876 13881 
1888 1922 1591 1921 13879 13877 13644 13873 13881 13875 
1889 1591 1922 1592 13649 13877 13880 13651 11741 13882 
1922 1591 1625 1592 13877 11966 13878 13882 11741 11967 
1592 1625 1923 1626 11967 13883 13884 11973 11975 13885 
1889 1923 1890 1592 13886 13887 13661 13651 13884 13656 
1592 1625 1922 1923 11967 13878 13882 13884 13883 13888 
1889 1923 1592 1922 13886 13884 13651 13880 13888 13882 
1890 1592 1923 1593 13656 13884 13887 13658 11748 13889 
1923 1592 1626 1593 13884 11973 13885 13889 11748 11974 
1593 1626 1924 1627 11974 13890 13891 11980 11982 13892 
1890 1924 1891 1593 13893 13894 13668 13658 13891 13663 
1593 1626 1923 1924 11974 13885 13889 13891 13890 13895 
1890 1924 1593 1923 13893 13891 13658 13887 13895 13889 
1891 1593 1924 1594 13663 13891 13894 13665 11755 13896 
1924 1593 1627 1594 13891 11980 13892 13896 11755 11981 
1594 1627 1925 1628 11981 13897 13898 11987 11989 13899 
1891 1925 1892 1594 13900 13901 13675 13665 13898 13670 
1594 1627 1924 1925 11981 13892 13896 13898 13897 13902 
1891 1925 1594 1924 13900 13898 13665 13894 13902 13896 
1892 1594 1925 1595 13670 13898 13901 13672 11762 13903 
1925 1594 1628 1595 13898 11987 13899 13903 11762 11988 
1595 1628 1926 1629 11988 13904 13905 11994 11996 13906 
1892 1926 1893 1595 13907 13908 13682 13672 13905 13677 
1595 1628 1925 1926 11988 13899 13903 13905 13904 13909 
1892 1926 1595 1925 13907 13905 13672 13901 13909 13903 
1893 1595 1926 1596 13677 13905 13908 13679 11769 13910 
1926 1595 1629 1596 13905 11994 13906 13910 11769 11995 
1596 1629 1927 1630 11995 13911 13912 12001 12003 13913 
1893 1927 1894 1596 13914 13915 13689 13679 13912 13684 
1596 1629 1926 1927 11995 13906 13910 13912 13911 13916 
1893 1927 1596 1926 13914 13912 13679 13908 13916 13910 
1894 1596 1927 1597 13684 13912 13915 13686 11776 13917 
1927 1596 1630 1597 13912 12001 13913 13917 11776 12002 
1597 1630 1928 1631 12002 13918 13919 12008 12010 13920 
1894 1928 1895 1597 13921 13922 13696 13686 13919 13691 
1597 1630 1927 1928 12002 13913 13917 13919 13918 13923 
1894 1928 1597 1927 13921 13919 13686 13915 13923 13917 
1895 1597 1928 1598 13691 13919 13922 13693 11783 13924 
1928 1597 1631 1598 13919 12008 13920 13924 11783 12009 
1598 1631 1929 1632 12009 13925 13926 12015 12017 13927 
1895 1929 1896 1598 13928 13929 13703 13693 13926 13698 
1598 1631 1928 1929 12009 13920 13924 13926 13925 13930 
1895 1929 1598 1928 13928 13926 13693 13922 13930 13924 
1896 1598 1929 1599 13698 13926 13929 13700 11790 13931 
1929 1598 1632 1599 13926 12015 13927 13931 11790 12016 
1599 1632 1930 1633 12016 13932 13933 12022 12024 13934 
1896 1930 1897 1599 13935 13936 13710 13700 13933 13705 
1599 1632 1929 1930 12016 13927 13931 13933 13932 13937 
1896 1930 1599 1929 13935 13933 13700 13929 13937 13931 
1897 1599 1930 1600 13705 13933 13936 13707 11797 13938 
1930 1599 1633 1600 13933 12022 13934 13938 11797 12023 
1600 1633 1931 1634 12023 13939 13940 12029 12031 13941 
1897 1931 1898 1600 13942 13943 13717 13707 13940 13712 
1600 1633 1930 1931 12023 13934 13938 13940 13939 13944 
1897 1931 1600 1930 13942 13940 13707 13936 13944 13938 
1898 1600 1931 1601 13712 13940 13943 13714 11804 13945 
1931 1600 1634 1601 13940 12029 13941 13945 11804 12030 
1601 1634 1932 1635 12030 13946 13947 12036 12038 13948 
1898 1932 1899 1601 13949 13950 13724 13714 13947 13719 
1601 1634 1931 1932 12030 13941 13945 13947 13946 13951 
1898 1932 1601 1931 13949 13947 13714 13943 13951 13945 
1899 1601 1932 1602 13719 13947 13950 13721 11811 13952 
1932 1601 1635 1602 13947 12036 13948 13952 11811 12037 
1602 1635 1933 1636 12037 13953 13954 12043 12045 13955 
1899 1933 1900 1602 13956 13957 13731 13721 13954 13726 
1602 1635 1932 1933 12037 13948 13952 13954 13953 13958 
1899 1933 1602 1932 13956 13954 13721 13950 13958 13952 
1900 1602 1933 1603 13726 13954 13957 13728 11818 13959 
1933 1602 1636 1603 13954 12043 13955 13959 11818 12044 
1603 1636 1934 1637 12044 13960 13961 12050 12052 13962 
1900 1934 1901 1603 13963 13964 13738 13728 13961 13733 
1603 1636 1933 1934 12044 13955 13959 13961 13960 13965 
1900 1934 1603 1933 13963 13961 13728 13957 13965 13959 
1901 1603 1934 1604 13733 13961 13964 13735 11825 13966 
1934 1603 1637 1604 13961 12050 13962 13966 11825 12051 
1604 1637 1935 1638 12051 13967 13968 12057 12059 13969 
1901 1935 1902 1604 13970 13971 13745 13735 13968 13740 
1604 1637 1934 1935 12051 13962 13966 13968 13967 13972 
1901 1935 1604 1934 13970 13968 13735 13964 13972 13966 
1902 1604 1935 1605 13740 13968 13971 13742 11832 13973 
1935 1604 1638 1605 13968 12057 13969 13973 11832 12058 
1605 1638 1936 1639 12058 13974 13975 12064 12066 13976 
1902 1936 1903 1605 13977 13978 13752 13742 13975 13747 
1605 1638 1935 1936 12058 13969 13973 13975 13974 13979 
1902 1936 1605 1935 13977 13975 13742 13971 13979 13973 
1903 1605 1936 1606 13747 13975 13978 13749 11839 13980 
1936 1605 1639 1606 13975 12064 13976 13980 11839 12065 
1606 1639 1937 1640 12065 13981 13982 12071 12073 13983 
1903 1937 1904 1606 13984 13985 13759 13749 13982 13754 
1606 1639 1936 1937 12065 13976 13980 13982 13981 13986 
1903 1937 1606 1936 13984 13982 13749 13978 13986 13980 
1904 1606 1937 1607 13754 13982 13985 13756 11846 13987 
1937 1606 1640 1607 13982 12071 13983 13987 11846 12072 
1607 1640 1938 1641 12072 13988 13989 12078 12080 13990 
1904 1938 1905 1607 13991 13992 13766 13756 13989 13761 
1607 1640 1937 1938 12072 13983 13987 13989 13988 13993 
1904 1938 1607 1937 13991 13989 13756 13985 13993 13987 
1905 1607 1938 1608 13761 13989 13992 13763 11853 13994 
1938 1607 1641 1608 13989 12078 13990 13994 11853 12079 
1608 1641 1939 1642 12079 13995 13996 12085 12087 13997 
1905 1939 1906 1608 13998 13999 13773 13763 13996 13768 
1608 1641 1938 1939 12079 13990 13994 13996 13995 14000 
1905 1939 1608 1938 13998 13996 13763 13992 14000 13994 
1906 1608 1939 1609 13768 13996 13999 13770 11860 14001 
1939 1608 1642 1609 13996 12085 13997 14001 11860 12086 
1609 1642 1940 1643 12086 14002 14003 12092 12094 14004 
1906 1940 1907 1609 14005 14006 13780 13770 14003 13775 
1609 1642 1939 1940 12086 13997 14001 14003 14002 14007 
1906 1940 1609 1939 14005 14003 13770 13999 14007 14001 
1907 1609 1940 1610 13775 14003 14006 13777 11867 14008 
1940 1609 1643 1610 14003 12092 14004 14008 11867 12093 
1610 1643 1941 1644 12093 14009 14010 12099 12101 14011 
1907 1941 1908 1610 14012 14013 13787 13777 14010 13782 
1610 1643 1940 1941 12093 14004 14008 14010 14009 14014 
1907 1941 1610 1940 14012 14010 13777 14006 14014 14008 
1908 1610 1941 1611 13782 14010 14013 13784 11874 14015 
1941 1610 1644 1611 14010 12099 14011 14015 11874 12100 
1611 1644 1942 1645 12100 14016 14017 12106 12108 14018 
1908 1942 1909 1611 14019 14020 13794 13784 14017 13789 
1611 1644 1941 1942 12100 14011 14015 14017 14016 14021 
1908 1942 1611 1941 14019 14017 13784 14013 14021 14015 
1909 1611 1942 1612 13789 14017 14020 13791 11881 14022 
1942 1611 1645 1612 14017 12106 14018 14022 11881 12107 
1612 1645 1943 1646 12107 14023 14024 12113 12115 14025 
1909 1943 1910 1612 14026 14027 13801 13791 14024 13796 
1612 1645 1942 1943 12107 14018 14022 14024 14023 14028 
1909 1943 1612 1942 14026 14024 13791 14020 14028 14022 
1910 1612 1943 1613 13796 14024 14027 13798 11888 14029 
1943 1612 1646 1613 14024 12113 14025 14029 11888 12114 
1613 1646 1944 1647 12114 14030 14031 12120 12122 14032 
1910 1944 1911 1613 14033 14034 13808 13798 14031 13803 
1613 1646 1943 1944 12114 14025 14029 14031 14030 14035 
1910 1944 1613 1943 14033 14031 13798 14027 14035 14029 
1911 1613 1944 1614 13803 14031 14034 13805 11895 14036 
1944 1613 1647 1614 14031 12120 14032 14036 11895 12121 
1614 1647 1945 1648 12121 14037 14038 12127 12129 14039 
1911 1945 1912 1614 14040 14041 13815 13805 14038 13810 
1614 1647 1944 1945 12121 14032 14036 14038 14037 14042 
1911 1945 1614 1944 14040 14038 13805 14034 14042 14036 
1912 1614 1945 1615 13810 14038 14041 13812 11902 14043 
1945 1614 1648 1615 14038 12127 14039 14043 11902 12128 
1615 1648 1946 1649 12128 14044 14045 12134 12136 14046 
1912 1946 1913 1615 14047 14048 13822 13812 14045 13817 
1615 1648 1945 1946 12128 14039 14043 14045 14044 14049 
1912 1946 1615 1945 14047 14045 13812 14041 14049 14043 
1913 1615 1946 1616 13817 14045 14048 13819 11909 14050 
1946 1615 1649 1616 14045 12134 14046 14050 11909 12135 
1617 1650 1948 1651 12146 14051 14052 12141 12145 14053 
1914 1948 1915 1617 14054 14055 13831 13829 14052 13824 
1617 1650 1947 1948 12146 14056 14057 14052 14051 14058 
1914 1948 1617 1947 14054 14052 13829 14059 14058 14057 
1915 1617 1948 1618 13824 14052 14055 13826 11918 14060 
1948 1617 1651 1618 14052 12141 14053 14060 11918 12142 
1618 1651 1949 1652 12142 14061 14062 12151 12153 14063 
1915 1949 1916 1618 14064 14065 13839 13826 14062 13834 
1618 1651 1948 1949 12142 14053 14060 14062 14061 14066 
1915 1949 1618 1948 14064 14062 13826 14055 14066 14060 
1916 1618 1949 1619 13834 14062 14065 13836 11926 14067 
1949 1618 1652 1619 14062 12151 14063 14067 11926 12152 
1619 1652 1950 1653 12152 14068 14069 12158 12160 14070 
1916 1950 1917 1619 14071 14072 13846 13836 14069 13841 
1619 1652 1949 1950 12152 14063 14067 14069 14068 14073 
1916 1950 1619 1949 14071 14069 13836 14065 14073 14067 
1917 1619 1950 1620 13841 14069 14072 13843 11933 14074 
1950 1619 1653 1620 14069 12158 14070 14074 11933 12159 
1620 1653 1951 1654 12159 14075 14076 12165 12167 14077 
1917 1951 1918 1620 14078 14079 13853 13843 14076 13848 
1620 1653 1950 1951 12159 14070 14074 14076 14075 14080 
1917 1951 1620 1950 14078 14076 13843 14072 14080 14074 
1918 1620 1951 1621 13848 14076 14079 13850 11940 14081 
1951 1620 1654 1621 14076 12165 14077 14081 11940 12166 
1621 1654 1952 1655 12166 14082 14083 12172 12174 14084 
1918 1952 1919 1621 14085 14086 13860 13850 14083 13855 
1621 1654 1951 1952 12166 14077 14081 14083 14082 14087 
1918 1952 1621 1951 14085 14083 13850 14079 14087 14081 
1919 1621 1952 1622 13855 14083 14086 13857 11947 14088 
1952 1621 1655 1622 14083 12172 14084 14088 11947 12173 
1622 1655 1953 1656 12173 14089 14090 12179 12181 14091 
1919 1953 1920 1622 14092 14093 13867 13857 14090 13862 
1622 1655 1952 1953 12173 14084 14088 14090 14089 14094 
1919 1953 1622 1952 14092 14090 13857 14086 14094 14088 
1920 1622 1953 1623 13862 14090 14093 13864 11954 14095 
1953 1622 1656 1623 14090 12179 14091 14095 11954 12180 
1623 1656 1954 1657 12180 14096 14097 12186 12188 14098 
1920 1954 1921 1623 14099 14100 13874 13864 14097 13869 
1623 1656 1953 1954 12180 14091 14095 14097 14096 14101 
1920 1954 1623 1953 14099 14097 13864 14093 14101 14095 
1921 1623 1954 1624 13869 14097 14100 13871 11961 14102 
1954 1623 1657 1624 14097 12186 14098 14102 11961 12187 
1624 1657 1955 1658 12187 14103 14104 12193 12195 14105 
1921 1955 1922 1624 14106 14107 13881 13871 14104 13876 
1624 1657 1954 1955 12187 14098 14102 14104 14103 14108 
1921 1955 1624 1954 14106 14104 13871 14100 14108 14102 
1922 1624 1955 1625 13876 14104 14107 13878 11968 14109 
1955 1624 1658 1625 14104 12193 14105 14109 11968 12194 
1625 1658 1956 1659 12194 14110 14111 12200 12202 14112 
1922 1956 1923 1625 14113 14114 13888 13878 14111 13883 
1625 1658 1955 1956 12194 14105 14109 14111 14110 14115 
1922 1956 1625 1955 14113 14111 13878 14107 14115 14109 
1923 1625 1956 1626 13883 14111 14114 13885 11975 14116 
1956 1625 1659 1626 14111 12200 14112 14116 11975 12201 
1626 1659 1957 1660 12201 14117 14118 12207 12209 14119 
1923 1957 1924 1626 14120 14121 13895 13885 14118 13890 
1626 1659 1956 1957 12201 14112 14116 14118 14117 14122 
1923 1957 1626 1956 14120 14118 13885 14114 14122 14116 
1924 1626 1957 1627 13890 14118 14121 13892 11982 14123 
1957 1626 1660 1627 14118 12207 14119 14123 11982 12208 
1627 1660 1958 1661 12208 14124 14125 12214 12216 14126 
1924 1958 1925 1627 14127 14128 13902 13892 14125 13897 
1627 1660 1957 1958 12208 14119 14123 14125 14124 14129 
1924 1958 1627 1957 14127 14125 13892 14121 14129 14123 
1925 1627 1958 1628 13897 14125 14128 13899 11989 14130 
1958 1627 1661 1628 14125 12214 14126 14130 11989 12215 
1628 1661 1959 1662 12215 14131 14132 12221 12223 14133 
1925 1959 1926 1628 14134 14135 13909 13899 14132 13904 
1628 1661 1958 1959 12215 14126 14130 14132 14131 14136 
1925 1959 1628 1958 14134 14132 13899 14128 14136 14130 
1926 1628 1959 1629 13904 14132 14135 13906 11996 14137 
1959 1628 1662 1629 14132 12221 14133 14137 11996 12222 
1629 1662 1960 1663 12222 14138 14139 12228 12230 14140 
1926 1960 1927 1629 14141 14142 13916 13906 14139 13911 
1629 1662 1959 1960 12222 14133 14137 14139 14138 14143 
1926 1960 1629 1959 14141 14139 13906 14135 14143 14137 
1927 1629 1960 1630 13911 14139 14142 13913 12003 14144 
1960 1629 1663 1630 14139 12228 14140 14144 12003 12229 
1630 1663 1961 1664 12229 14145 14146 12235 12237 14147 
1927 1961 1928 1630 14148 14149 13923 13913 14146 13918 
1630 1663 1960 1961 12229 14140 14144 14146 14145 14150 
1927 1961 1630 1960 14148 14146 13913 14142 14150 14144 
1928 1630 1961 1631 13918 14146 14149 13920 12010 14151 
1961 1630 1664 1631 14146 12235 14147 14151 12010 12236 
1631 1664 1962 1665 12236 14152 14153 12242 12244 14154 
1928 1962 1929 1631 14155 14156 13930 13920 14153 13925 
1631 1664 1961 1962 12236 14147 14151 14153 14152 14157 
1928 1962 1631 1961 14155 14153 13920 14149 14157 14151 
1929 1631 1962 1632 13925 14153 14156 13927 12017 14158 
1962 1631 1665 1632 14153 12242 14154 14158 12017 12243 
1632 1665 1963 1666 12243 14159 14160 12249 12251 14161 
1929 1963 1930 1632 14162 14163 13937 13927 14160 13932 
1632 1665 1962 1963 12243 14154 14158 14160 14159 14164 
1929 1963 1632 1962 14162 14160 13927 14156 14164 14158 
1930 1632 1963 1633 13932 14160 14163 13934 12024 14165 
1963 1632 1666 1633 14160 12249 14161 14165 12024 12250 
1633 1666 1964 1667 12250 14166 14167 12256 12258 14168 
1930 1964 1931 1633 14169 14170 13944 13934 14167 13939 
1633 1666 1963 1964 12250 14161 14165 14167 14166 14171 
1930 1964 1633 1963 14169 14167 13934 14163 14171 14165 
1931 1633 1964 1634 13939 14167 14170 13941 12031 14172 
1964 1633 1667 1634 14167 12256 14168 14172 12031 12257 
1634 1667 1965 1668 12257 14173 14174 12263 12265 14175 
1931 1965 1932 1634 14176 14177 13951 13941 14174 13946 
1634 1667 1964 1965 12257 14168 14172 14174 14173 14178 
1931 1965 1634 1964 14176 14174 13941 14170 14178 14172 
1932 1634 1965 1635 13946 14174 14177 13948 12038 14179 
1965 1634 1668 1635 14174 12263 14175 14179 12038 12264 
1635 1668 1966 1669 12264 14180 14181 12270 12272 14182 
1932 1966 1933 1635 14183 14184 13958 13948 14181 13953 
1635 1668 1965 1966 12264 14175 14179 14181 14180 14185 
1932 1966 1635 1965 14183 14181 13948 14177 14185 14179 
1933 1635 1966 1636 13953 14181 14184 13955 12045 14186 
1966 1635 1669 1636 14181 12270 14182 14186 12045 12271 
1636 1669 1967 1670 12271 14187 14188 12277 12279 14189 
1933 1967 1934 1636 14190 14191 13965 13955 14188 13960 
1636 1669 1966 1967 12271 14182 14186 14188 14187 14192 
1933 1967 1636 1966 14190 14188 13955 14184 14192 14186 
1934 1636 1967 1637 13960 14188 14191 13962 12052 14193 
1967 1636 1670 1637 14188 12277 14189 14193 12052 12278 
1637 1670 1968 1671 12278 14194 14195 12284 12286 14196 
1934 1968 1935 1637 14197 14198 13972 13962 14195 13967 
1637 1670 1967 1968 12278 14189 14193 14195 14194 14199 
1934 1968 1637 1967 14197 14195 13962 14191 14199 14193 
1935 1637 1968 1638 13967 14195 14198 13969 12059 14200 
1968 1637 1671 1638 14195 12284 14196 14200 12059 12285 
1638 1671 1969 1672 12285 14201 14202 12291 12293 14203 
1935 1969 1936 1638 14204 14205 13979 13969 14202 13974 
1638 1671 1968 1969 12285 14196 14200 14202 14201 14206 
1935 1969 1638 1968 14204 14202 13969 14198 14206 14200 
1936 1638 1969 1639 13974 14202 14205 13976 12066 14207 
1969 1638 1672 1639 14202 12291 14203 14207 12066 12292 
1639 1672 1970 1673 12292 14208 14209 12298 12300 14210 
1936 1970 1937 1639 14211 14212 13986 13976 14209 13981 
1639 1672 1969 1970 12292 14203 14207 14209 14208 14213 
1936 1970 1639 1969 14211 14209 13976 14205 14213 14207 
1937 1639 1970 1640 13981 14209 14212 13983 12073 14214 
1970 1639 1673 1640 14209 12298 14210 14214 12073 12299 
1640 1673 1971 1674 12299 14215 14216 12305 12307 14217 
1937 1971 1938 1640 14218 14219 13993 13983 14216 13988 
1640 1673 1970 1971 12299 14210 14214 14216 14215 14220 
1937 1971 1640 1970 14218 14216 13983 14212 14220 14214 
1938 1640 1971 1641 13988 14216 14219 13990 12080 14221 
1971 1640 1674 1641 14216 12305 14217 14221 12080 12306 
1641 1674 1972 1675 12306 14222 14223 12312 12314 14224 
1938 1972 1939 1641 14225 14226 14000 13990 14223 13995 
1641 1674 1971 1972 12306 14217 14221 14223 14222 14227 
1938 1972 1641 1971 14225 14223 13990 14219 14227 14221 
1939 1641 1972 1642 13995 14223 14226 13997 12087 14228 
1972 1641 1675 1642 14223 12312 14224 14228 12087 12313 
1642 1675 1973 1676 12313 14229 14230 12319 12321 14231 
1939 1973 1940 1642 14232 14233 14007 13997 14230 14002 
1642 1675 1972 1973 12313 14224 14228 14230 14229 14234 
1939 1973 1642 1972 14232 14230 13997 14226 14234 14228 
1940 1642 1973 1643 14002 14230 14233 14004 12094 14235 
1973 1642 1676 1643 14230 12319 14231 14235 12094 12320 
1643 1676 1974 1677 12320 14236 14237 12326 12328 14238 
1940 1974 1941 1643 14239 14240 14014 14004 14237 14009 
1643 1676 1973 1974 12320 14231 14235 14237 14236 14241 
1940 1974 1643 1973 14239 14237 14004 14233 14241 14235 
1941 1643 1974 1644 14009 14237 14240 14011 12101 14242 
1974 1643 1677 1644 14237 12326 14238 14242 12101 12327 
1644 1677 1975 1678 12327 14243 14244 12333 12335 14245 
1941 1975 1942 1644 14246 14247 14021 14011 14244 14016 
1644 1677 1974 1975 12327 14238 14242 14244 14243 14248 
1941 1975 1644 1974 14246 14244 14011 14240 14248 14242 
1942 1644 1975 1645 14016 14244 14247 14018 12108 14249 
1975 1644 1678 1645 14244 12333 14245 14249 12108 12334 
1645 1678 1976 1679 12334 14250 14251 12340 12342 14252 
1942 1976 1943 1645 14253 14254 14028 14018 14251 14023 
1645 1678 1975 1976 12334 14245 14249 14251 14250 14255 
1942 1976 1645 1975 14253 14251 14018 14247 14255 14249 
1943 1645 1976 1646 14023 14251 14254 14025 12115 14256 
1976 1645 1679 1646 14251 12340 14252 14256 12115 12341 
1646 1679 1977 1680 12341 14257 14258 12347 12349 14259 
1943 1977 1944 1646 14260 14261 14035 14025 14258 14030 
1646 1679 1976 1977 12341 14252 14256 14258 14257 14262 
1943 1977 1646 1976 14260 14258 14025 14254 14262 14256 
1944 1646 1977 1647 14030 14258 14261 14032 12122 14263 
1977 1646 1680 1647 14258 12347 14259 14263 12122 12348 
1647 1680 1978 1681 12348 14264 14265 12354 12356 14266 
1944 1978 1945 1647 14267 14268 14042 14032 14265 14037 
1647 1680 1977 1978 12348 14259 14263 14265 14264 14269 
1944 1978 1647 1977 14267 14265 14032 14261 14269 14263 
1945 1647 1978 1648 14037 14265 14268 14039 12129 14270 
1978 1647 1681 1648 14265 12354 14266 14270 12129 12355 
1648 1681 1979 1682 12355 14271 14272 12361 12363 14273 
1945 1979 1946 1648 14274 14275 14049 14039 14272 14044 
1648 1681 1978 1979 12355 14266 14270 14272 14271 14276 
1945 1979 1648 1978 14274 14272 14039 14268 14276 14270 
1946 1648 1979 1649 14044 14272 14275 14046 12136 14277 
1979 1648 1682 1649 14272 12361 14273 14277 12136 12362 
1650 1683 1981 1684 12373 14278 14279 12368 12372 14280 
1947 1981 1948 1650 14281 14282 14058 14056 14279 14051 
1650 1683 1980 1981 12373 14283 14284 14279 14278 14285 
1947 1981 1650 1980 14281 14279 14056 14286 14285 14284 
1948 1650 1981 1651 14051 14279 14282 14053 12145 14287 
1981 1650 1684 1651 14279 12368 14280 14287 12145 12369 
1651 1684 1982 1685 12369 14288 14289 12378 12380 14290 
1948 1982 1949 1651 14291 14292 14066 14053 14289 14061 
1651 1684 1981 1982 12369 14280 14287 14289 14288 14293 
1948 1982 1651 1981 14291 14289 14053 14282 14293 14287 
1949 1651 1982 1652 14061 14289 14292 14063 12153 14294 
1982 1651 1685 1652 14289 12378 14290 14294 12153 12379 
1652 1685 1983 1686 12379 14295 14296 12385 12387 14297 
1949 1983 1950 1652 14298 14299 14073 14063 14296 14068 
1652 1685 1982 1983 12379 14290 14294 14296 14295 14300 
1949 1983 1652 1982 14298 14296 14063 14292 14300 14294 
1950 1652 1983 1653 14068 14296 14299 14070 12160 14301 
1983 1652 1686 1653 14296 12385 14297 14301 12160 12386 
1653 1686 1984 1687 12386 14302 14303 12392 12394 14304 
1950 1984 1951 1653 14305 14306 14080 14070 14303 14075 
1653 1686 1983 1984 12386 14297 14301 14303 14302 14307 
1950 1984 1653 1983 14305 14303 14070 14299 14307 14301 
1951 1653 1984 1654 14075 14303 14306 14077 12167 14308 
1984 1653 1687 1654 14303 12392 14304 14308 12167 12393 
1654 1687 1985 1688 12393 14309 14310 12399 12401 14311 
1951 1985 1952 1654 14312 14313 14087 14077 14310 14082 
1654 1687 1984 1985 12393 14304 14308 14310 14309 14314 
1951 1985 1654 1984 14312 14310 14077 14306 14314 14308 
1952 1654 1985 1655 14082 14310 14313 14084 12174 14315 
1985 1654 1688 1655 14310 12399 14311 14315 12174 12400 
1655 1688 1986 1689 12400 14316 14317 12406 12408 14318 
1952 1986 1953 1655 14319 14320 14094 14084 14317 14089 
1655 1688 1985 1986 12400 14311 14315 14317 14316 14321 
1952 1986 1655 1985 14319 14317 14084 14313 14321 14315 
1953 1655 1986 1656 14089 14317 14320 14091 12181 14322 
1986 1655 1689 1656 14317 12406 14318 14322 12181 12407 
1656 1689 1987 1690 12407 14323 14324 12413 12415 14325 
1953 1987 1954 1656 14326 14327 14101 14091 14324 14096 
1656 1689 1986 1987 12407 14318 14322 14324 14323 14328 
1953 1987 1656 1986 14326 14324 14091 14320 14328 14322 
1954 1656 1987 1657 14096 14324 14327 14098 12188 14329 
1987 1656 1690 1657 14324 12413 14325 14329 12188 12414 
1657 1690 1988 1691 12414 14330 14331 12420 12422 14332 
1954 1988 1955 1657 14333 14334 14108 14098 14331 14103 
1657 1690 1987 1988 12414 14325 14329 14331 14330 14335 
1954 1988 1657 1987 14333 14331 14098 14327 14335 14329 
1955 1657 1988 1658 14103 14331 14334 14105 12195 14336 
1988 1657 1691 1658 14331 12420 14332 14336 12195 12421 
1658 1691 1989 1692 12421 14337 14338 12427 12429 14339 
1955 1989 1956 1658 14340 14341 14115 14105 14338 14110 
1658 1691 1988 1989 12421 14332 14336 14338 14337 14342 
1955 1989 1658 1988 14340 14338 14105 14334 14342 14336 
1956 1658 1989 1659 14110 14338 14341 14112 12202 14343 
1989 1658 1692 1659 14338 12427 14339 14343 12202 12428 
1659 1692 1990 1693 12428 14344 14345 12434 12436 14346 
1956 1990 1957 1659 14347 14348 14122 14112 14345 14117 
1659 1692 1989 1990 12428 14339 14343 14345 14344 14349 
1956 1990 1659 1989 14347 14345 14112 14341 14349 14343 
1957 1659 1990 1660 14117 14345 14348 14119 12209 14350 
1990 1659 1693 1660 14345 12434 14346 14350 12209 12435 
1660 1693 1991 1694 12435 14351 14352 12441 12443 14353 
1957 1991 1958 1660 14354 14355 14129 14119 14352 14124 
1660 1693 1990 1991 12435 14346 14350 14352 14351 14356 
1957 1991 1660 1990 14354 14352 14119 14348 14356 14350 
1958 1660 1991 1661 14124 14352 14355 14126 12216 14357 
1991 1660 1694 1661 14352 12441 14353 14357 12216 12442 
1661 1694 1992 1695 12442 14358 14359 12448 12450 14360 
1958 1992 1959 1661 14361 14362 14136 14126 14359 14131 
1661 1694 1991 1992 12442 14353 14357 14359 14358 14363 
1958 1992 1661 1991 14361 14359 14126 14355 14363 14357 
1959 1661 1992 1662 14131 14359 14362 14133 12223 14364 
1992 1661 1695 1662 14359 12448 14360 14364 12223 12449 
1662 1695 1993 1696 12449 14365 14366 12455 12457 14367 
1959 1993 1960 1662 14368 14369 14143 14133 14366 14138 
1662 1695 1992 1993 12449 14360 14364 14366 14365 14370 
1959 1993 1662 1992 14368 14366 14133 14362 14370 14364 
1960 1662 1993 1663 14138 14366 14369 14140 12230 14371 
1993 1662 1696 1663 14366 12455 14367 14371 12230 12456 
1663 1696 1994 1697 12456 14372 14373 12462 12464 14374 
1960 1994 1961 1663 14375 14376 14150 14140 14373 14145 
1663 1696 1993 1994 12456 14367 14371 14373 14372 14377 
1960 1994 1663 1993 14375 14373 14140 14369 14377 14371 
1961 1663 1994 1664 14145 14373 14376 14147 12237 14378 
1994 1663 1697 1664 14373 12462 14374 14378 12237 12463 
1664 1697 1995 1698 12463 14379 14380 12469 12471 14381 
1961 1995 1962 1664 14382 14383 14157 14147 14380 14152 
1664 1697 1994 1995 12463 14374 14378 14380 14379 14384 
1961 1995 1664 1994 14382 14380 14147 14376 14384 14378 
1962 1664 1995 1665 14152 14380 14383 14154 12244 14385 
1995 1664 1698 1665 14380 12469 14381 14385 12244 12470 
1665 1698 1996 1699 12470 14386 14387 12476 12478 14388 
1962 1996 1963 1665 14389 14390 14164 14154 14387 14159 
1665 1698 1995 1996 12470 14381 14385 14387 14386 14391 
1962 1996 1665 1995 14389 14387 14154 14383 14391 14385 
1963 1665 1996 1666 14159 14387 14390 14161 12251 14392 
1996 1665 1699 1666 14387 12476 14388 14392 12251 12477 
1666 1699 1997 1700 12477 14393 14394 12483 12485 14395 
1963 1997 1964 1666 14396 14397 14171 14161 14394 14166 
1666 1699 1996 1997 12477 14388 14392 14394 14393 14398 
1963 1997 1666 1996 14396 14394 14161 14390 14398 14392 
1964 1666 1997 1667 14166 14394 14397 14168 12258 14399 
1997 1666 1700 1667 14394 12483 14395 14399 12258 12484 
1667 1700 1998 1701 12484 14400 14401 12490 12492 14402 
1964 1998 1965 1667 14403 14404 14178 14168 14401 14173 
1667 1700 1997 1998 12484 14395 14399 14401 14400 14405 
1964 1998 1667 1997 14403 14401 14168 14397 14405 14399 
1965 1667 1998 1668 14173 14401 14404 14175 12265 14406 
1998 1667 1701 1668 14401 12490 14402 14406 12265 12491 
1668 1701 1999 1702 12491 14407 14408 12497 12499 14409 
1965 1999 1966 1668 14410 14411 14185 14175 14408 14180 
1668 1701 1998 1999 12491 14402 14406 14408 14407 14412 
1965 1999 1668 1998 14410 14408 14175 14404 14412 14406 
1966 1668 1999 1669 14180 14408 14411 14182 12272 14413 
1999 1668 1702 1669 14408 12497 14409 14413 12272 12498 
1669 1702 2000 1703 12498 14414 14415 12504 12506 14416 
1966 2000 1967 1669 14417 14418 14192 14182 14415 14187 
1669 1702 1999 2000 12498 14409 14413 14415 14414 14419 
1966 2000 1669 1999 14417 14415 14182 14411 14419 14413 
1967 1669 2000 1670 14187 14415 14418 14189 12279 14420 
2000 1669 1703 1670 14415 12504 14416 14420 12279 12505 
1670 1703 2001 1704 12505 14421 14422 12511 12513 14423 
1967 2001 1968 1670 14424 14425 14199 14189 14422 14194 
1670 1703 2000 2001 12505 14416 14420 14422 14421 14426 
1967 2001 1670 2000 14424 14422 14189 14418 14426 14420 
1968 1670 2001 1671 14194 14422 14425 14196 12286 14427 
2001 1670 1704 1671 14422 12511 14423 14427 12286 12512 
1671 1704 2002 1705 12512 14428 14429 12518 12520 14430 
1968 2002 1969 1671 14431 14432 14206 14196 14429 14201 
1671 1704 2001 2002 12512 14423 14427 14429 14428 14433 
1968 2002 1671 2001 14431 14429 14196 14425 14433 14427 
1969 1671 2002 1672 14201 14429 14432 14203 12293 14434 
2002 1671 1705 1672 14429 12518 14430 14434 12293 12519 
1672 1705 2003 1706 12519 14435 14436 12525 12527 14437 
1969 2003 1970 1672 14438 14439 14213 14203 14436 14208 
1672 1705 2002 2003 12519 14430 14434 14436 14435 14440 
1969 2003 1672 2002 14438 14436 14203 14432 14440 14434 
1970 1672 2003 1673 14208 14436 14439 14210 12300 14441 
2003 1672 1706 1673 14436 12525 14437 14441 12300 12526 
1673 1706 2004 1707 12526 14442 14443 12532 12534 14444 
1970 2004 1971 1673 14445 14446 14220 14210 14443 14215 
1673 1706 2003 2004 12526 14437 14441 14443 14442 14447 
1970 2004 1673 2003 14445 14443 14210 14439 14447 14441 
1971 1673 2004 1674 14215 14443 14446 14217 12307 14448 
2004 1673 1707 1674 14443 12532 14444 14448 12307 12533 
1674 1707 2005 1708 12533 14449 14450 12539 12541 14451 
1971 2005 1972 1674 14452 14453 14227 14217 14450 14222 
1674 1707 2004 2005 12533 14444 14448 14450 14449 14454 
1971 2005 1674 2004 14452 14450 14217 14446 14454 14448 
1972 1674 2005 1675 14222 14450 14453 14224 12314 14455 
2005 1674 1708 1675 14450 12539 14451 14455 12314 12540 
1675 1708 2006 1709 12540 14456 14457 12546 12548 14458 
1972 2006 1973 1675 14459 14460 14234 14224 14457 14229 
1675 1708 2005 2006 12540 14451 14455 14457 14456 14461 
1972 2006 1675 2005 14459 14457 14224 14453 14461 14455 
1973 1675 2006 1676 14229 14457 14460 14231 12321 14462 
2006 1675 1709 1676 14457 12546 14458 14462 12321 12547 
1676 1709 2007 1710 12547 14463 14464 12553 12555 14465 
1973 2007 1974 1676 14466 14467 14241 14231 14464 14236 
1676 1709 2006 2007 12547 14458 14462 14464 14463 14468 
1973 2007 1676 2006 14466 14464 14231 14460 14468 14462 
1974 1676 2007 1677 14236 14464 14467 14238 12328 14469 
2007 1676 1710 1677 14464 12553 14465 14469 12328 12554 
1677 1710 2008 1711 12554 14470 14471 12560 12562 14472 
1974 2008 1975 1677 14473 14474 14248 14238 14471 14243 
1677 1710 2007 2008 12554 14465 14469 14471 14470 14475 
1974 2008 1677 2007 14473 14471 14238 14467 14475 14469 
1975 1677 2008 1678 14243 14471 14474 14245 12335 14476 
2008 1677 1711 1678 14471 12560 14472 14476 12335 12561 
1678 1711 2009 1712 12561 14477 14478 12567 12569 14479 
1975 2009 1976 1678 14480 14481 14255 14245 14478 14250 
1678 1711 2008 2009 12561 14472 14476 14478 14477 14482 
1975 2009 1678 2008 14480 14478 14245 14474 14482 14476 
1976 1678 2009 1679 14250 14478 14481 14252 12342 14483 
2009 1678 1712 1679 14478 12567 14479 14483 12342 12568 
1679 1712 2010 1713 12568 14484 14485 12574 12576 14486 
1976 2010 1977 1679 14487 14488 14262 14252 14485 14257 
1679 1712 2009 2010 12568 14479 14483 14485 14484 14489 
1976 2010 1679 2009 14487 14485 14252 14481 14489 14483 
1977 1679 2010 1680 14257 14485 14488 14259 12349 14490 
2010 1679 1713 1680 14485 12574 14486 14490 12349 12575 
1680 1713 2011 1714 12575 14491 14492 12581 12583 14493 
1977 2011 1978 1680 14494 14495 14269 14259 14492 14264 
1680 1713 2010 2011 12575 14486 14490 14492 14491 14496 
1977 2011 1680 2010 14494 14492 14259 14488 14496 14490 
1978 1680 2011 1681 14264 14492 14495 14266 12356 14497 
2011 1680 1714 1681 14492 12581 14493 14497 12356 12582 
1681 1714 2012 1715 12582 14498 14499 12588 12590 14500 
1978 2012 1979 1681 14501 14502 14276 14266 14499 14271 
1681 1714 2011 2012 12582 14493 14497 14499 14498 14503 
1978 2012 1681 2011 14501 14499 14266 14495 14503 14497 
1979 1681 2012 1682 14271 14499 14502 14273 12363 14504 
2012 1681 1715 1682 14499 12588 14500 14504 12363 12589 
1683 1716 2014 1717 12600 14505 14506 12595 12599 14507 
1980 2014 1981 1683 14508 14509 14285 14283 14506 14278 
1683 1716 2013 2014 12600 14510 14511 14506 14505 14512 
1980 2014 1683 2013 14508 14506 14283 14513 14512 14511 
1981 1683 2014 1684 14278 14506 14509 14280 12372 14514 
2014 1683 1717 1684 14506 12595 14507 14514 12372 12596 
1684 1717 2015 1718 12596 14515 14516 12605 12607 14517 
1981 2015 1982 1684 14518 14519 14293 14280 14516 14288 
1684 1717 2014 2015 12596 14507 14514 14516 14515 14520 
1981 2015 1684 2014 14518 14516 14280 14509 14520 14514 
1982 1684 2015 1685 14288 14516 14519 14290 12380 14521 
2015 1684 1718 1685 14516 12605 14517 14521 12380 12606 
1685 1718 2016 1719 12606 14522 14523 12612 12614 14524 
1982 2016 1983 1685 14525 14526 14300 14290 14523 14295 
1685 1718 2015 2016 12606 14517 14521 14523 14522 14527 
1982 2016 1685 2015 14525 14523 14290 14519 14527 14521 
1983 1685 2016 1686 14295 14523 14526 14297 12387 14528 
2016 1685 1719 1686 14523 12612 14524 14528 12387 12613 
1686 1719 2017 1720 12613 14529 14530 12619 12621 14531 
1983 2017 1984 1686 14532 14533 14307 14297 14530 14302 
1686 1719 2016 2017 12613 14524 14528 14530 14529 14534 
1983 2017 1686 2016 14532 14530 14297 14526 14534 14528 
1984 1686 2017 1687 14302 14530 14533 14304 12394 14535 
2017 1686 1720 1687 14530 12619 14531 14535 12394 12620 
1687 1720 2018 1721 12620 14536 14537 12626 12628 14538 
1984 2018 1985 1687 14539 14540 14314 14304 14537 14309 
1687 1720 2017 2018 12620 14531 14535 14537 14536 14541 
1984 2018 1687 2017 14539 14537 14304 14533 14541 14535 
1985 1687 2018 1688 14309 14537 14540 14311 12401 14542 
2018 1687 1721 1688 14537 12626 14538 14542 12401 12627 
1688 1721 2019 1722 12627 14543 14544 12633 12635 14545 
1985 2019 1986 1688 14546 14547 14321 14311 14544 14316 
1688 1721 2018 2019 12627 14538 14542 14544 14543 14548 
1985 2019 1688 2018 14546 14544 14311 14540 14548 14542 
1986 1688 2019 1689 14316 14544 14547 14318 12408 14549 
2019 1688 1722 1689 14544 12633 14545 14549 12408 12634 
1689 1722 2020 1723 12634 14550 14551 12640 12642 14552 
1986 2020 1987 1689 14553 14554 14328 14318 14551 14323 
1689 1722 2019 2020 12634 14545 14549 14551 14550 14555 
1986 2020 1689 2019 14553 14551 14318 14547 14555 14549 
1987 1689 2020 1690 14323 14551 14554 14325 12415 14556 
2020 1689 1723 1690 14551 12640 14552 14556 12415 12641 
1690 1723 2021 1724 12641 14557 14558 12647 12649 14559 
1987 2021 1988 1690 14560 14561 14335 14325 14558 14330 
1690 1723 2020 2021 12641 14552 14556 14558 14557 14562 
1987 2021 1690 2020 14560 14558 14325 14554 14562 14556 
1988 1690 2021 1691 14330 14558 14561 14332 12422 14563 
2021 1690 1724 1691 14558 12647 14559 14563 12422 12648 
1691 1724 2022 1725 12648 14564 14565 12654 12656 14566 
1988 2022 1989 1691 14567 14568 14342 14332 14565 14337 
1691 1724 2021 2022 12648 14559 14563 14565 14564 14569 
1988 2022 1691 2021 14567 14565 14332 14561 14569 14563 
1989 1691 2022 1692 14337 14565 14568 14339 12429 14570 
2022 1691 1725 1692 14565 12654 14566 14570 12429 12655 
1692 1725 2023 1726 12655 14571 14572 12661 12663 14573 
1989 2023 1990 1692 14574 14575 14349 14339 14572 14344 
1692 1725 2022 2023 12655 14566 14570 14572 14571 14576 
1989 2023 1692 2022 14574 14572 14339 14568 14576 14570 
1990 1692 2023 1693 14344 14572 14575 14346 12436 14577 
2023 1692 1726 1693 14572 12661 14573 14577 12436 12662 
1693 1726 2024 1727 12662 14578 14579 12668 12670 14580 
1990 2024 1991 1693 14581 14582 14356 14346 14579 14351 
1693 1726 2023 2024 12662 14573 14577 14579 14578 14583 
1990 2024 1693 2023 14581 14579 14346 14575 14583 14577 
1991 1693 2024 1694 14351 14579 14582 14353 12443 14584 
2024 1693 1727 1694 14579 12668 14580 14584 12443 12669 
1694 1727 2025 1728 12669 14585 14586 12675 12677 14587 
1991 2025 1992 1694 14588 14589 14363 14353 14586 14358 
1694 1727 2024 2025 12669 14580 14584 14586 14585 14590 
1991 2025 1694 2024 14588 14586 14353 14582 14590 14584 
1992 1694 2025 1695 14358 14586 14589 14360 12450 14591 
2025 1694 1728 1695 14586 12675 14587 14591 12450 12676 
1695 1728 2026 1729 12676 14592 14593 12682 12684 14594 
1992 2026 1993 1695 14595 14596 14370 14360 14593 14365 
1695 1728 2025 2026 12676 14587 14591 14593 14592 14597 
1992 2026 1695 2025 14595 14593 14360 14589 14597 14591 
1993 1695 2026 1696 14365 14593 14596 14367 12457 14598 
2026 1695 1729 1696 14593 12682 14594 14598 12457 12683 
1696 1729 2027 1730 12683 14599 14600 12689 12691 14601 
1993 2027 1994 1696 14602 14603 14377 14367 14600 14372 
1696 1729 2026 2027 12683 14594 14598 14600 14599 14604 
1993 2027 1696 2026 14602 14600 14367 14596 14604 14598 
1994 1696 2027 1697 14372 14600 14603 14374 12464 14605 
2027 1696 1730 1697 14600 12689 14601 14605 12464 12690 
1697 1730 2028 1731 12690 14606 14607 12696 12698 14608 
1994 2028 1995 1697 14609 14610 14384 14374 14607 14379 
1697 1730 2027 2028 12690 14601 14605 14607 14606 14611 
1994 2028 1697 2027 14609 14607 14374 14603 14611 14605 
1995 1697 2028 1698 14379 14607 14610 14381 12471 14612 
2028 1697 1731 1698 14607 12696 14608 14612 12471 12697 
1698 1731 2029 1732 12697 14613 14614 12703 12705 14615 
1995 2029 1996 1698 14616 14617 14391 14381 14614 14386 
1698 1731 2028 2029 12697 14608 14612 14614 14613 14618 
1995 2029 1698 2028 14616 14614 14381 14610 14618 14612 
1996 1698 2029 1699 14386 14614 14617 14388 12478 14619 
2029 1698 1732 1699 14614 12703 14615 14619 12478 12704 
1699 1732 2030 1733 12704 14620 14621 12710 12712 14622 
1996 2030 1997 1699 14623 14624 14398 14388 14621 14393 
1699 1732 2029 2030 12704 14615 14619 14621 14620 14625 
1996 2030 1699 2029 14623 14621 14388 14617 14625 14619 
1997 1699 2030 1700 14393 14621 14624 14395 12485 14626 
2030 1699 1733 1700 14621 12710 14622 14626 12485 12711 
1700 1733 2031 1734 12711 14627 14628 12717 12719 14629 
1997 2031 1998 1700 14630 14631 14405 14395 14628 14400 
1700 1733 2030 2031 12711 14622 14626 14628 14627 14632 
1997 2031 1700 2030 14630 14628 14395 14624 14632 14626 
1998 1700 2031 1701 14400 14628 14631 14402 12492 14633 
2031 1700 1734 1701 14628 12717 14629 14633 12492 12718 
1701 1734 2032 1735 12718 14634 14635 12724 12726 14636 
1998 2032 1999 1701 14637 14638 14412 14402 14635 14407 
1701 1734 2031 2032 12718 14629 14633 14635 14634 14639 
1998 2032 1701 2031 14637 14635 14402 14631 14639 14633 
1999 1701 2032 1702 14407 14635 14638 14409 12499 14640 
2032 1701 1735 1702 14635 12724 14636 14640 12499 12725 
1702 1735 2033 1736 12725 14641 14642 12731 12733 14643 
1999 2033 2000 1702 14644 14645 14419 14409 14642 14414 
1702 1735 2032 2033 12725 14636 14640 14642 14641 14646 
1999 2033 1702 2032 14644 14642 14409 14638 14646 14640 
2000 1702 2033 1703 14414 14642 14645 14416 12506 14647 
2033 1702 1736 1703 14642 12731 14643 14647 12506 12732 
1703 1736 2034 1737 12732 14648 14649 12738 12740 14650 
2000 2034 2001 1703 14651 14652 14426 14416 14649 14421 
1703 1736 2033 2034 12732 14643 14647 14649 14648 14653 
2000 2034 1703 2033 14651 14649 14416 14645 14653 14647 
2001 1703 2034 1704 14421 14649 14652 14423 12513 14654 
2034 1703 1737 1704 14649 12738 14650 14654 12513 12739 
1704 1737 2035 1738 12739 14655 14656 12745 12747 14657 
2001 2035 2002 1704 14658 14659 14433 14423 14656 14428 
1704 1737 2034 2035 12739 14650 14654 14656 14655 14660 
2001 2035 1704 2034 14658 14656 14423 14652 14660 14654 
2002 1704 2035 1705 14428 14656 14659 14430 12520 14661 
2035 1704 1738 1705 14656 12745 14657 14661 12520 12746 
1705 1738 2036 1739 12746 14662 14663 12752 12754 14664 
2002 2036 2003 1705 14665 14666 14440 14430 14663 14435 
1705 1738 2035 2036 12746 14657 14661 14663 14662 14667 
2002 2036 1705 2035 14665 14663 14430 14659 14667 14661 
2003 1705 2036 1706 14435 14663 14666 14437 12527 14668 
2036 1705 1739 1706 14663 12752 14664 14668 12527 12753 
1706 1739 2037 1740 12753 14669 14670 12759 12761 14671 
2003 2037 2004 1706 14672 14673 14447 14437 14670 14442 
1706 1739 2036 2037 12753 14664 14668 14670 14669 14674 
2003 2037 1706 2036 14672 14670 14437 14666 14674 14668 
2004 1706 2037 1707 14442 14670 14673 14444 12534 14675 
2037 1706 1740 1707 14670 12759 14671 14675 12534 12760 
1707 1740 2038 1741 12760 14676 14677 12766 12768 14678 
2004 2038 2005 1707 14679 14680 14454 14444 14677 14449 
1707 1740 2037 2038 12760 14671 14675 14677 14676 14681 
2004 2038 1707 2037 14679 14677 14444 14673 14681 14675 
2005 1707 2038 1708 14449 14677 14680 14451 12541 14682 
2038 1707 1741 1708 14677 12766 14678 14682 12541 12767 
1708 1741 2039 1742 12767 14683 14684 12773 12775 14685 
2005 2039 2006 1708 14686 14687 14461 14451 14684 14456 
1708 1741 2038 2039 12767 14678 14682 14684 14683 14688 
2005 2039 1708 2038 14686 14684 14451 14680 14688 14682 
2006 1708 2039 1709 14456 14684 14687 14458 12548 14689 
2039 1708 1742 1709 14684 12773 14685 14689 12548 12774 
1709 1742 2040 1743 12774 14690 14691 12780 12782 14692 
2006 2040 2007 1709 14693 14694 14468 14458 14691 14463 
1709 1742 2039 2040 12774 14685 14689 14691 14690 14695 
2006 2040 1709 2039 14693 14691 14458 14687 14695 14689 
2007 1709 2040 1710 14463 14691 14694 14465 12555 14696 
2040 1709 1743 1710 14691 12780 14692 14696 12555 12781 
1710 1743 2041 1744 12781 14697 14698 12787 12789 14699 
2007 2041 2008 1710 14700 14701 14475 14465 14698 14470 
1710 1743 2040 2041 12781 14692 14696 14698 14697 14702 
2007 2041 1710 2040 14700 14698 14465 14694 14702 14696 
2008 1710 2041 1711 14470 14698 14701 14472 12562 14703 
2041 1710 1744 1711 14698 12787 14699 14703 12562 12788 
1711 1744 2042 1745 12788 14704 14705 12794 12796 14706 
2008 2042 2009 1711 14707 14708 14482 14472 14705 14477 
1711 1744 2041 2042 12788 14699 14703 14705 14704 14709 
2008 2042 1711 2041 14707 14705 14472 14701 14709 14703 
2009 1711 2042 1712 14477 14705 14708 14479 12569 14710 
2042 1711 1745 1712 14705 12794 14706 14710 12569 12795 
1712 1745 2043 1746 12795 14711 14712 12801 12803 14713 
2009 2043 2010 1712 14714 14715 14489 14479 14712 14484 
1712 1745 2042 2043 12795 14706 14710 14712 14711 14716 
2009 2043 1712 2042 14714 14712 14479 14708 14716 14710 
2010 1712 2043 1713 14484 14712 14715 14486 12576 14717 
2043 1712 1746 1713 14712 12801 14713 14717 12576 12802 
1713 1746 2044 1747 12802 14718 14719 12808 12810 14720 
2010 2044 2011 1713 14721 14722 14496 14486 14719 14491 
1713 1746 2043 2044 12802 14713 14717 14719 14718 14723 
2010 2044 1713 2043 14721 14719 14486 14715 14723 14717 
2011 1713 2044 1714 14491 14719 14722 14493 12583 14724 
2044 1713 1747 1714 14719 12808 14720 14724 12583 12809 
1714 1747 2045 1748 12809 14725 14726 12815 12817 14727 
2011 2045 2012 1714 14728 14729 14503 14493 14726 14498 
1714 1747 2044 2045 12809 14720 14724 14726 14725 14730 
2011 2045 1714 2044 14728 14726 14493 14722 14730 14724 
2012 1714 2045 1715 14498 14726 14729 14500 12590 14731 
2045 1714 1748 1715 14726 12815 14727 14731 12590 12816 
1716 1749 2047 1750 12827 14732 14733 12822 12826 14734 
2013 2047 2014 1716 14735 14736 14512 14510 14733 14505 
1716 1749 2046 2047 12827 14737 14738 14733 14732 14739 
2013 2047 1716 2046 14735 14733 14510 14740 14739 14738 
2014 1716 2047 1717 14505 14733 14736 14507 12599 14741 
2047 1716 1750 1717 14733 12822 14734 14741 12599 12823 
1717 1750 2048 1751 12823 14742 14743 12832 12834 14744 
2014 2048 2015 1717 14745 14746 14520 14507 14743 14515 
1717 1750 2047 2048 12823 14734 14741 14743 14742 14747 
2014 2048 1717 2047 14745 14743 14507 14736 14747 14741 
2015 1717 2048 1718 14515 14743 14746 14517 12607 14748 
2048 1717 1751 1718 14743 12832 14744 14748 12607 12833 
1718 1751 2049 1752 12833 14749 14750 12839 12841 14751 
2015 2049 2016 1718 14752 14753 14527 14517 14750 14522 
1718 1751 2048 2049 12833 14744 14748 14750 14749 14754 
2015 2049 1718 2048 14752 14750 14517 14746 14754 14748 
2016 1718 2049 1719 14522 14750 14753 14524 12614 14755 
2049 1718 1752 1719 14750 12839 14751 14755 12614 12840 
1719 1752 2050 1753 12840 14756 14757 12846 12848 14758 
2016 2050 2017 1719 14759 14760 14534 14524 14757 14529 
1719 1752 2049 2050 12840 14751 14755 14757 14756 14761 
2016 2050 1719 2049 14759 14757 14524 14753 14761 14755 
2017 1719 2050 1720 14529 14757 14760 14531 12621 14762 
2050 1719 1753 1720 14757 12846 14758 14762 12621 12847 
1720 1753 2051 1754 12847 14763 14764 12853 12855 14765 
2017 2051 2018 1720 14766 14767 14541 14531 14764 14536 
1720 1753 2050 2051 12847 14758 14762 14764 14763 14768 
2017 2051 1720 2050 14766 14764 14531 14760 14768 14762 
2018 1720 2051 1721 14536 14764 14767 14538 12628 14769 
2051 1720 1754 1721 14764 12853 14765 14769 12628 12854 
1721 1754 2052 1755 12854 14770 14771 12860 12862 14772 
2018 2052 2019 1721 14773 14774 14548 14538 14771 14543 
1721 1754 2051 2052 12854 14765 14769 14771 14770 14775 
2018 2052 1721 2051 14773 14771 14538 14767 14775 14769 
2019 1721 2052 1722 14543 14771 14774 14545 12635 14776 
2052 1721 1755 1722 14771 12860 14772 14776 12635 12861 
1722 1755 2053 1756 12861 14777 14778 12867 12869 14779 
2019 2053 2020 1722 14780 14781 14555 14545 14778 14550 
1722 1755 2052 2053 12861 14772 14776 14778 14777 14782 
2019 2053 1722 2052 14780 14778 14545 14774 14782 14776 
2020 1722 2053 1723 14550 14778 14781 14552 12642 14783 
2053 1722 1756 1723 14778 12867 14779 14783 12642 12868 
1723 1756 2054 1757 12868 14784 14785 12874 12876 14786 
2020 2054 2021 1723 14787 14788 14562 14552 14785 14557 
1723 1756 2053 2054 12868 14779 14783 14785 14784 14789 
2020 2054 1723 2053 14787 14785 14552 14781 14789 14783 
2021 1723 2054 1724 14557 14785 14788 14559 12649 14790 
2054 1723 1757 1724 14785 12874 14786 14790 12649 12875 
1724 1757 2055 1758 12875 14791 14792 12881 12883 14793 
2021 2055 2022 1724 14794 14795 14569 14559 14792 14564 
1724 1757 2054 2055 12875 14786 14790 14792 14791 14796 
2021 2055 1724 2054 14794 14792 14559 14788 14796 14790 
2022 1724 2055 1725 14564 14792 14795 14566 12656 14797 
2055 1724 1758 1725 14792 12881 14793 14797 12656 12882 
1725 1758 2056 1759 12882 14798 14799 12888 12890 14800 
2022 2056 2023 1725 14801 14802 14576 14566 14799 14571 
1725 1758 2055 2056 12882 14793 14797 14799 14798 14803 
2022 2056 1725 2055 14801 14799 14566 14795 14803 14797 
2023 1725 2056 1726 14571 14799 14802 14573 12663 14804 
2056 1725 1759 1726 14799 12888 14800 14804 12663 12889 
1726 1759 2057 1760 12889 14805 14806 12895 12897 14807 
2023 2057 2024 1726 14808 14809 14583 14573 14806 14578 
1726 1759 2056 2057 12889 14800 14804 14806 14805 14810 
2023 2057 1726 2056 14808 14806 14573 14802 14810 14804 
2024 1726 2057 1727 14578 14806 14809 14580 12670 14811 
2057 1726 1760 1727 14806 12895 14807 14811 12670 12896 
1727 1760 2058 1761 12896 14812 14813 12902 12904 14814 
2024 2058 2025 1727 14815 14816 14590 14580 14813 14585 
1727 1760 2057 2058 12896 14807 14811 14813 14812 14817 
2024 2058 1727 2057 14815 14813 14580 14809 14817 14811 
2025 1727 2058 1728 14585 14813 14816 14587 12677 14818 
2058 1727 1761 1728 14813 12902 14814 14818 12677 12903 
1728 1761 2059 1762 12903 14819 14820 12909 12911 14821 
2025 2059 2026 1728 14822 14823 14597 14587 14820 14592 
1728 1761 2058 2059 12903 14814 14818 14820 14819 14824 
2025 2059 1728 2058 14822 14820 14587 14816 14824 14818 
2026 1728 2059 1729 14592 14820 14823 14594 12684 14825 
2059 1728 1762 1729 14820 12909 14821 14825 12684 12910 
1729 1762 2060 1763 12910 14826 14827 12916 12918 14828 
2026 2060 2027 1729 14829 14830 14604 14594 14827 14599 
1729 1762 2059 2060 12910 14821 14825 14827 14826 14831 
2026 2060 1729 2059 14829 14827 14594 14823 14831 14825 
2027 1729 2060 1730 14599 14827 14830 14601 12691 14832 
2060 1729 1763 1730 14827 12916 14828 14832 12691 12917 
1730 1763 2061 1764 12917 14833 14834 12923 12925 14835 
2027 2061 2028 1730 14836 14837 14611 14601 14834 14606 
1730 1763 2060 2061 12917 14828 14832 14834 14833 14838 
2027 2061 1730 2060 14836 14834 14601 14830 14838 14832 
2028 1730 2061 1731 14606 14834 14837 14608 12698 14839 
2061 1730 1764 1731 14834 12923 14835 14839 12698 12924 
1731 1764 2062 1765 12924 14840 14841 12930 12932 14842 
2028 2062 2029 1731 14843 14844 14618 14608 14841 14613 
1731 1764 2061 2062 12924 14835 14839 14841 14840 14845 
2028 2062 1731 2061 14843 14841 14608 14837 14845 14839 
2029 1731 2062 1732 14613 14841 14844 14615 12705 14846 
2062 1731 1765 1732 14841 12930 14842 14846 12705 12931 
1732 1765 2063 1766 12931 14847 14848 12937 12939 14849 
2029 2063 2030 1732 14850 14851 14625 14615 14848 14620 
1732 1765 2062 2063 12931 14842 14846 14848 14847 14852 
2029 2063 1732 2062 14850 14848 14615 14844 14852 14846 
2030 1732 2063 1733 14620 14848 14851 14622 12712 14853 
2063 1732 1766 1733 14848 12937 14849 14853 12712 12938 
1733 1766 2064 1767 12938 14854 14855 12944 12946 14856 
2030 2064 2031 1733 14857 14858 14632 14622 14855 14627 
1733 1766 2063 2064 12938 14849 14853 14855 14854 14859 
2030 2064 1733 2063 14857 14855 14622 14851 14859 14853 
2031 1733 2064 1734 14627 14855 14858 14629 12719 14860 
2064 1733 1767 1734 14855 12944 14856 14860 12719 12945 
1734 1767 2065 1768 12945 14861 14862 12951 12953 14863 
2031 2065 2032 1734 14864 14865 14639 14629 14862 14634 
1734 1767 2064 2065 12945 14856 14860 14862 14861 14866 
2031 2065 1734 2064 14864 14862 14629 14858 14866 14860 
2032 1734 2065 1735 14634 14862 14865 14636 12726 14867 
2065 1734 1768 1735 14862 12951 14863 14867 12726 12952 
1735 1768 2066 1769 12952 14868 14869 12958 12960 14870 
2032 2066 2033 1735 14871 14872 14646 14636 14869 14641 
1735 1768 2065 2066 12952 14863 14867 14869 14868 14873 
2032 2066 1735 2065 14871 14869 14636 14865 14873 14867 
2033 1735 2066 1736 14641 14869 14872 14643 12733 14874 
2066 1735 1769 1736 14869 12958 14870 14874 12733 12959 
1736 1769 2067 1770 12959 14875 14876 12965 12967 14877 
2033 2067 2034 1736 14878 14879 14653 14643 14876 14648 
1736 1769 2066 2067 12959 14870 14874 14876 14875 14880 
2033 2067 1736 2066 14878 14876 14643 14872 14880 14874 
2034 1736 2067 1737 14648 14876 14879 14650 12740 14881 
2067 1736 1770 1737 14876 12965 14877 14881 12740 12966 
1737 1770 2068 1771 12966 14882 14883 12972 12974 14884 
2034 2068 2035 1737 14885 14886 14660 14650 14883 14655 
1737 1770 2067 2068 12966 14877 14881 14883 14882 14887 
2034 2068 1737 2067 14885 14883 14650 14879 14887 14881 
2035 1737 2068 1738 14655 14883 14886 14657 12747 14888 
2068 1737 1771 1738 14883 12972 14884 14888 12747 12973 
1738 1771 2069 1772 12973 14889 14890 12979 12981 14891 
2035 2069 2036 1738 14892 14893 14667 14657 14890 14662 
1738 1771 2068 2069 12973 14884 14888 14890 14889 14894 
2035 2069 1738 2068 14892 14890 14657 14886 14894 14888 
2036 1738 2069 1739 14662 14890 14893 14664 12754 14895 
2069 1738 1772 1739 14890 12979 14891 14895 12754 12980 
1739 1772 2070 1773 12980 14896 14897 12986 12988 14898 
2036 2070 2037 1739 14899 14900 14674 14664 14897 14669 
1739 1772 2069 2070 12980 14891 14895 14897 14896 14901 
2036 2070 1739 2069 14899 14897 14664 14893 14901 14895 
2037 1739 2070 1740 14669 14897 14900 14671 12761 14902 
2070 1739 1773 1740 14897 12986 14898 14902 12761 12987 
1740 1773 2071 1774 12987 14903 14904 12993 12995 14905 
2037 2071 2038 1740 14906 14907 14681 14671 14904 14676 
1740 1773 2070 2071 12987 14898 14902 14904 14903 14908 
2037 2071 1740 2070 14906 14904 14671 14900 14908 14902 
2038 1740 2071 1741 14676 14904 14907 14678 12768 14909 
2071 1740 1774 1741 14904 12993 14905 14909 12768 12994 
1741 1774 2072 1775 12994 14910 14911 13000 13002 14912 
2038 2072 2039 1741 14913 14914 14688 14678 14911 14683 
1741 1774 2071 2072 12994 14905 14909 14911 14910 14915 
2038 2072 1741 2071 14913 14911 14678 14907 14915 14909 
2039 1741 2072 1742 14683 14911 14914 14685 12775 14916 
2072 1741 1775 1742 14911 13000 14912 14916 12775 13001 
1742 1775 2073 1776 13001 14917 14918 13007 13009 14919 
2039 2073 2040 1742 14920 14921 14695 14685 14918 14690 
1742 1775 2072 2073 13001 14912 14916 14918 14917 14922 
2039 2073 1742 2072 14920 14918 14685 14914 14922 14916 
2040 1742 2073 1743 14690 14918 14921 14692 12782 14923 
2073 1742 1776 1743 14918 13007 14919 14923 12782 13008 
1743 1776 2074 1777 13008 14924 14925 13014 13016 14926 
2040 2074 2041 1743 14927 14928 14702 14692 14925 14697 
1743 1776 2073 2074 13008 14919 14923 14925 14924 14929 
2040 2074 1743 2073 14927 14925 14692 14921 14929 14923 
2041 1743 2074 1744 14697 14925 14928 14699 12789 14930 
2074 1743 1777 1744 14925 13014 14926 14930 12789 13015 
1744 1777 2075 1778 13015 14931 14932 13021 13023 14933 
2041 2075 2042 1744 14934 14935 14709 14699 14932 14704 
1744 1777 2074 2075 13015 14926 14930 14932 14931 14936 
2041 2075 1744 2074 14934 14932 14699 14928 14936 14930 
2042 1744 2075 1745 14704 14932 14935 14706 12796 14937 
2075 1744 1778 1745 14932 13021 14933 14937 12796 13022 
1745 1778 2076 1779 13022 14938 14939 13028 13030 14940 
2042 2076 2043 1745 14941 14942 14716 14706 14939 14711 
1745 1778 2075 2076 13022 14933 14937 14939 14938 14943 
2042 2076 1745 2075 14941 14939 14706 14935 14943 14937 
2043 1745 2076 1746 14711 14939 14942 14713 12803 14944 
2076 1745 1779 1746 14939 13028 14940 14944 12803 13029 
1746 1779 2077 1780 13029 14945 14946 13035 13037 14947 
2043 2077 2044 1746 14948 14949 14723 14713 14946 14718 
1746 1779 2076 2077 13029 14940 14944 14946 14945 14950 
2043 2077 1746 2076 14948 14946 14713 14942 14950 14944 
2044 1746 2077 1747 14718 14946 14949 14720 12810 14951 
2077 1746 1780 1747 14946 13035 14947 14951 12810 13036 
1747 1780 2078 1781 13036 14952 14953 13042 13044 14954 
2044 2078 2045 1747 14955 14956 14730 14720 14953 14725 
1747 1780 2077 2078 13036 14947 14951 14953 14952 14957 
2044 2078 1747 2077 14955 14953 14720 14949 14957 14951 
2045 1747 2078 1748 14725 14953 14956 14727 12817 14958 
2078 1747 1781 1748 14953 13042 14954 14958 12817 13043 
1782 1815 2113 1816 13057 14959 14960 13049 13056 14961 
2079 2113 2080 1782 14962 14963 14964 14965 14960 14966 
1782 1815 2112 2113 13057 14967 14968 14960 14959 14969 
2079 2113 1782 2112 14962 14960 14965 14970 14969 14968 
2080 1782 2113 1783 14966 14960 14963 14971 13051 14972 
2113 1782 1816 1783 14960 13049 14961 14972 13051 13050 
1783 1816 2114 1817 13050 14973 14974 13063 13067 14975 
2080 2114 2081 1783 14976 14977 14978 14971 14974 14979 
1783 1816 2113 2114 13050 14961 14972 14974 14973 14980 
2080 2114 1783 2113 14976 14974 14971 14963 14980 14972 
2081 1783 2114 1784 14979 14974 14977 14981 13065 14982 
2114 1783 1817 1784 14974 13063 14975 14982 13065 13064 
1784 1817 2115 1818 13064 14983 14984 13073 13077 14985 
2081 2115 2082 1784 14986 14987 14988 14981 14984 14989 
1784 1817 2114 2115 13064 14975 14982 14984 14983 14990 
2081 2115 1784 2114 14986 14984 14981 14977 14990 14982 
2082 1784 2115 1785 14989 14984 14987 14991 13075 14992 
2115 1784 1818 1785 14984 13073 14985 14992 13075 13074 
1785 1818 2116 1819 13074 14993 14994 13083 13087 14995 
2082 2116 2083 1785 14996 14997 14998 14991 14994 14999 
1785 1818 2115 2116 13074 14985 14992 14994 14993 15000 
2082 2116 1785 2115 14996 14994 14991 14987 15000 14992 
2083 1785 2116 1786 14999 14994 14997 15001 13085 15002 
2116 1785 1819 1786 14994 13083 14995 15002 13085 13084 
1786 1819 2117 1820 13084 15003 15004 13093 13097 15005 
2083 2117 2084 1786 15006 15007 15008 15001 15004 15009 
1786 1819 2116 2117 13084 14995 15002 15004 15003 15010 
2083 2117 1786 2116 15006 15004 15001 14997 15010 15002 
2084 1786 2117 1787 15009 15004 15007 15011 13095 15012 
2117 1786 1820 1787 15004 13093 15005 15012 13095 13094 
1787 1820 2118 1821 13094 15013 15014 13103 13107 15015 
2084 2118 2085 1787 15016 15017 15018 15011 15014 15019 
1787 1820 2117 2118 13094 15005 15012 15014 15013 15020 
2084 2118 1787 2117 15016 15014 15011 15007 15020 15012 
2085 1787 2118 1788 15019 15014 15017 15021 13105 15022 
2118 1787 1821 1788 15014 13103 15015 15022 13105 13104 
1788 1821 2119 1822 13104 15023 15024 13113 13117 15025 
2085 2119 2086 1788 15026 15027 15028 15021 15024 15029 
1788 1821 2118 2119 13104 15015 15022 15024 15023 15030 
2085 2119 1788 2118 15026 15024 15021 15017 15030 15022 
2086 1788 2119 1789 15029 15024 15027 15031 13115 15032 
2119 1788 1822 1789 15024 13113 15025 15032 13115 13114 
1789 1822 2120 1823 13114 15033 15034 13123 13127 15035 
2086 2120 2087 1789 15036 15037 15038 15031 15034 15039 
1789 1822 2119 2120 13114 15025 15032 15034 15033 15040 
2086 2120 1789 2119 15036 15034 15031 15027 15040 15032 
2087 1789 2120 1790 15039 15034 15037 15041 13125 15042 
2120 1789 1823 1790 15034 13123 15035 15042 13125 13124 
1790 1823 2121 1824 13124 15043 15044 13133 13137 15045 
2087 2121 2088 1790 15046 15047 15048 15041 15044 15049 
1790 1823 2120 2121 13124 15035 15042 15044 15043 15050 
2087 2121 1790 2120 15046 15044 15041 15037 15050 15042 
2088 1790 2121 1791 15049 15044 15047 15051 13135 15052 
2121 1790 1824 1791 15044 13133 15045 15052 13135 13134 
1791 1824 2122 1825 13134 15053 15054 13143 13147 15055 
2088 2122 2089 1791 15056 15057 15058 15051 15054 15059 
1791 1824 2121 2122 13134 15045 15052 15054 15053 15060 
2088 2122 1791 2121 15056 15054 15051 15047 15060 15052 
2089 1791 2122 1792 15059 15054 15057 15061 13145 15062 
2122 1791 1825 1792 15054 13143 15055 15062 13145 13144 
1792 1825 2123 1826 13144 15063 15064 13153 13157 15065 
2089 2123 2090 1792 15066 15067 15068 15061 15064 15069 
1792 1825 2122 2123 13144 15055 15062 15064 15063 15070 
2089 2123 1792 2122 15066 15064 15061 15057 15070 15062 
2090 1792 2123 1793 15069 15064 15067 15071 13155 15072 
2123 1792 1826 1793 15064 13153 15065 15072 13155 13154 
1793 1826 2124 1827 13154 15073 15074 13163 13167 15075 
2090 2124 2091 1793 15076 15077 15078 15071 15074 15079 
1793 1826 2123 2124 13154 15065 15072 15074 15073 15080 
2090 2124 1793 2123 15076 15074 15071 15067 15080 15072 
2091 1793 2124 1794 15079 15074 15077 15081 13165 15082 
2124 1793 1827 1794 15074 13163 15075 15082 13165 13164 
1794 1827 2125 1828 13164 15083 15084 13173 13177 15085 
2091 2125 2092 1794 15086 15087 15088 15081 15084 15089 
1794 1827 2124 2125 13164 15075 15082 15084 15083 15090 
2091 2125 1794 2124 15086 15084 15081 15077 15090 15082 
2092 1794 2125 1795 15089 15084 15087 15091 13175 15092 
2125 1794 1828 1795 15084 13173 15085 15092 13175 13174 
1795 1828 2126 1829 13174 15093 15094 13183 13187 15095 
2092 2126 2093 1795 15096 15097 15098 15091 15094 15099 
1795 1828 2125 2126 13174 15085 15092 15094 15093 15100 
2092 2126 1795 2125 15096 15094 15091 15087 15100 15092 
2093 1795 2126 1796 15099 15094 15097 15101 13185 15102 
2126 1795 1829 1796 15094 13183 15095 15102 13185 13184 
1796 1829 2127 1830 13184 15103 15104 13193 13197 15105 
2093 2127 2094 1796 15106 15107 15108 15101 15104 15109 
1796 1829 2126 2127 13184 15095 15102 15104 15103 15110 
2093 2127 1796 2126 15106 15104 15101 15097 15110 15102 
2094 1796 2127 1797 15109 15104 15107 15111 13195 15112 
2127 1796 1830 1797 15104 13193 15105 15112 13195 13194 
1797 1830 2128 1831 13194 15113 15114 13203 13207 15115 
2094 2128 2095 1797 15116 15117 15118 15111 15114 15119 
1797 1830 2127 2128 13194 15105 15112 15114 15113 15120 
2094 2128 1797 2127 15116 15114 15111 15107 15120 15112 
2095 1797 2128 1798 15119 15114 15117 15121 13205 15122 
2128 1797 1831 1798 15114 13203 15115 15122 13205 13204 
1798 1831 2129 1832 13204 15123 15124 13213 13217 15125 
2095 2129 2096 1798 15126 15127 15128 15121 15124 15129 
1798 1831 2128 2129 13204 15115 15122 15124 15123 15130 
2095 2129 1798 2128 15126 15124 15121 15117 15130 15122 
2096 1798 2129 1799 15129 15124 15127 15131 13215 15132 
2129 1798 1832 1799 15124 13213 15125 15132 13215 13214 
1799 1832 2130 1833 13214 15133 15134 13223 13227 15135 
2096 2130 2097 1799 15136 15137 15138 15131 15134 15139 
1799 1832 2129 2130 13214 15125 15132 15134 15133 15140 
2096 2130 1799 2129 15136 15134 15131 15127 15140 15132 
2097 1799 2130 1800 15139 15134 15137 15141 13225 15142 
2130 1799 1833 1800 15134 13223 15135 15142 13225 13224 
1800 1833 2131 1834 13224 15143 15144 13233 13237 15145 
2097 2131 2098 1800 15146 15147 15148 15141 15144 15149 
1800 1833 2130 2131 13224 15135 15142 15144 15143 15150 
2097 2131 1800 2130 15146 15144 15141 15137 15150 15142 
2098 1800 2131 1801 15149 15144 15147 15151 13235 15152 
2131 1800 1834 1801 15144 13233 15145 15152 13235 13234 
1801 1834 2132 1835 13234 15153 15154 13243 13247 15155 
2098 2132 2099 1801 15156 15157 15158 15151 15154 15159 
1801 1834 2131 2132 13234 15145 15152 15154 15153 15160 
2098 2132 1801 2131 15156 15154 15151 15147 15160 15152 
2099 1801 2132 1802 15159 15154 15157 15161 13245 15162 
2132 1801 1835 1802 15154 13243 15155 15162 13245 13244 
1802 1835 2133 1836 13244 15163 15164 13253 13257 15165 
2099 2133 2100 1802 15166 15167 15168 15161 15164 15169 
1802 1835 2132 2133 13244 15155 15162 15164 15163 15170 
2099 2133 1802 2132 15166 15164 15161 15157 15170 15162 
2100 1802 2133 1803 15169 15164 15167 15171 13255 15172 
2133 1802 1836 1803 15164 13253 15165 15172 13255 13254 
1803 1836 2134 1837 13254 15173 15174 13263 13267 15175 
2100 2134 2101 1803 15176 15177 15178 15171 15174 15179 
1803 1836 2133 2134 13254 15165 15172 15174 15173 15180 
2100 2134 1803 2133 15176 15174 15171 15167 15180 15172 
2101 1803 2134 1804 15179 15174 15177 15181 13265 15182 
2134 1803 1837 1804 15174 13263 15175 15182 13265 13264 
1804 1837 2135 1838 13264 15183 15184 13273 13277 15185 
2101 2135 2102 1804 15186 15187 15188 15181 15184 15189 
1804 1837 2134 2135 13264 15175 15182 15184 15183 15190 
2101 2135 1804 2134 15186 15184 15181 15177 15190 15182 
2102 1804 2135 1805 15189 15184 15187 15191 13275 15192 
2135 1804 1838 1805 15184 13273 15185 15192 13275 13274 
1805 1838 2136 1839 13274 15193 15194 13283 13287 15195 
2102 2136 2103 1805 15196 15197 15198 15191 15194 15199 
1805 1838 2135 2136 13274 15185 15192 15194 15193 15200 
2102 2136 1805 2135 15196 15194 15191 15187 15200 15192 
2103 1805 2136 1806 15199 15194 15197 15201 13285 15202 
2136 1805 1839 1806 15194 13283 15195 15202 13285 13284 
1806 1839 2137 1840 13284 15203 15204 13293 13297 15205 
2103 2137 2104 1806 15206 15207 15208 15201 15204 15209 
1806 1839 2136 2137 13284 15195 15202 15204 15203 15210 
2103 2137 1806 2136 15206 15204 15201 15197 15210 15202 
2104 1806 2137 1807 15209 15204 15207 15211 13295 15212 
2137 1806 1840 1807 15204 13293 15205 15212 13295 13294 
1807 1840 2138 1841 13294 15213 15214 13303 13307 15215 
2104 2138 2105 1807 15216 15217 15218 15211 15214 15219 
1807 1840 2137 2138 13294 15205 15212 15214 15213 15220 
2104 2138 1807 2137 15216 15214 15211 15207 15220 15212 
2105 1807 2138 1808 15219 15214 15217 15221 13305 15222 
2138 1807 1841 1808 15214 13303 15215 15222 13305 13304 
1808 1841 2139 1842 13304 15223 15224 13313 13317 15225 
2105 2139 2106 1808 15226 15227 15228 15221 15224 15229 
1808 1841 2138 2139 13304 15215 15222 15224 15223 15230 
2105 2139 1808 2138 15226 15224 15221 15217 15230 15222 
2106 1808 2139 1809 15229 15224 15227 15231 13315 15232 
2139 1808 1842 1809 15224 13313 15225 15232 13315 13314 
1809 1842 2140 1843 13314 15233 15234 13323 13327 15235 
2106 2140 2107 1809 15236 15237 15238 15231 15234 15239 
1809 1842 2139 2140 13314 15225 15232 15234 15233 15240 
2106 2140 1809 2139 15236 15234 15231 15227 15240 15232 
2107 1809 2140 1810 15239 15234 15237 15241 13325 15242 
2140 1809 1843 1810 15234 13323 15235 15242 13325 13324 
1810 1843 2141 1844 13324 15243 15244 13333 13337 15245 
2107 2141 2108 1810 15246 15247 15248 15241 15244 15249 
1810 1843 2140 2141 13324 15235 15242 15244 15243 15250 
2107 2141 1810 2140 15246 15244 15241 15237 15250 15242 
2108 1810 2141 1811 15249 15244 15247 15251 13335 15252 
2141 1810 1844 1811 15244 13333 15245 15252 13335 13334 
1811 1844 2142 1845 13334 15253 15254 13343 13347 15255 
2108 2142 2109 1811 15256 15257 15258 15251 15254 15259 
1811 1844 2141 2142 13334 15245 15252 15254 15253 15260 
2108 2142 1811 2141 15256 15254 15251 15247 15260 15252 
2109 1811 2142 1812 15259 15254 15257 15261 13345 15262 
2142 1811 1845 1812 15254 13343 15255 15262 13345 13344 
1812 1845 2143 1846 13344 15263 15264 13353 13357 15265 
2109 2143 2110 1812 15266 15267 15268 15261 15264 15269 
1812 1845 2142 2143 13344 15255 15262 15264 15263 15270 
2109 2143 1812 2142 15266 15264 15261 15257 15270 15262 
2110 1812 2143 1813 15269 15264 15267 15271 13355 15272 
2143 1812 1846 1813 15264 13353 15265 15272 13355 13354 
1813 1846 2144 1847 13354 15273 15274 13363 13367 15275 
2110 2144 2111 1813 15276 15277 15278 15271 15274 15279 
1813 1846 2143 2144 13354 15265 15272 15274 15273 15280 
2110 2144 1813 2143 15276 15274 15271 15267 15280 15272 
2111 1813 2144 1814 15279 15274 15277 15281 13365 15282 
2144 1813 1847 1814 15274 13363 15275 15282 13365 13364 
1815 1848 2146 1849 13378 15283 15284 13373 13377 15285 
2112 2146 2113 1815 15286 15287 14969 14967 15284 14959 
1815 1848 2145 2146 13378 15288 15289 15284 15283 15290 
2112 2146 1815 2145 15286 15284 14967 15291 15290 15289 
2113 1815 2146 1816 14959 15284 15287 14961 13056 15292 
2146 1815 1849 1816 15284 13373 15285 15292 13056 13374 
1816 1849 2147 1850 13374 15293 15294 13383 13385 15295 
2113 2147 2114 1816 15296 15297 14980 14961 15294 14973 
1816 1849 2146 2147 13374 15285 15292 15294 15293 15298 
2113 2147 1816 2146 15296 15294 14961 15287 15298 15292 
2114 1816 2147 1817 14973 15294 15297 14975 13067 15299 
2147 1816 1850 1817 15294 13383 15295 15299 13067 13384 
1817 1850 2148 1851 13384 15300 15301 13390 13392 15302 
2114 2148 2115 1817 15303 15304 14990 14975 15301 14983 
1817 1850 2147 2148 13384 15295 15299 15301 15300 15305 
2114 2148 1817 2147 15303 15301 14975 15297 15305 15299 
2115 1817 2148 1818 14983 15301 15304 14985 13077 15306 
2148 1817 1851 1818 15301 13390 15302 15306 13077 13391 
1818 1851 2149 1852 13391 15307 15308 13397 13399 15309 
2115 2149 2116 1818 15310 15311 15000 14985 15308 14993 
1818 1851 2148 2149 13391 15302 15306 15308 15307 15312 
2115 2149 1818 2148 15310 15308 14985 15304 15312 15306 
2116 1818 2149 1819 14993 15308 15311 14995 13087 15313 
2149 1818 1852 1819 15308 13397 15309 15313 13087 13398 
1819 1852 2150 1853 13398 15314 15315 13404 13406 15316 
2116 2150 2117 1819 15317 15318 15010 14995 15315 15003 
1819 1852 2149 2150 13398 15309 15313 15315 15314 15319 
2116 2150 1819 2149 15317 15315 14995 15311 15319 15313 
2117 1819 2150 1820 15003 15315 15318 15005 13097 15320 
2150 1819 1853 1820 15315 13404 15316 15320 13097 13405 
1820 1853 2151 1854 13405 15321 15322 13411 13413 15323 
2117 2151 2118 1820 15324 15325 15020 15005 15322 15013 
1820 1853 2150 2151 13405 15316 15320 15322 15321 15326 
2117 2151 1820 2150 15324 15322 15005 15318 15326 15320 
2118 1820 2151 1821 15013 15322 15325 15015 13107 15327 
2151 1820 1854 1821 15322 13411 15323 15327 13107 13412 
1821 1854 2152 1855 13412 15328 15329 13418 13420 15330 
2118 2152 2119 1821 15331 15332 15030 15015 15329 15023 
1821 1854 2151 2152 13412 15323 15327 15329 15328 15333 
2118 2152 1821 2151 15331 15329 15015 15325 15333 15327 
2119 1821 2152 1822 15023 15329 15332 15025 13117 15334 
2152 1821 1855 1822 15329 13418 15330 15334 13117 13419 
1822 1855 2153 1856 13419 15335 15336 13425 13427 15337 
2119 2153 2120 1822 15338 15339 15040 15025 15336 15033 
1822 1855 2152 2153 13419 15330 15334 15336 15335 15340 
2119 2153 1822 2152 15338 15336 15025 15332 15340 15334 
2120 1822 2153 1823 15033 15336 15339 15035 13127 15341 
2153 1822 1856 1823 15336 13425 15337 15341 13127 13426 
1823 1856 2154 1857 13426 15342 15343 13432 13434 15344 
2120 2154 2121 1823 15345 15346 15050 15035 15343 15043 
1823 1856 2153 2154 13426 15337 15341 15343 15342 15347 
2120 2154 1823 2153 15345 15343 15035 15339 15347 15341 
2121 1823 2154 1824 15043 15343 15346 15045 13137 15348 
2154 1823 1857 1824 15343 13432 15344 15348 13137 13433 
1824 1857 2155 1858 13433 15349 15350 13439 13441 15351 
2121 2155 2122 1824 15352 15353 15060 15045 15350 15053 
1824 1857 2154 2155 13433 15344 15348 15350 15349 15354 
2121 2155 1824 2154 15352 15350 15045 15346 15354 15348 
2122 1824 2155 1825 15053 15350 15353 15055 13147 15355 
2155 1824 1858 1825 15350 13439 15351 15355 13147 13440 
1825 1858 2156 1859 13440 15356 15357 13446 13448 15358 
2122 2156 2123 1825 15359 15360 15070 15055 15357 15063 
1825 1858 2155 2156 13440 15351 15355 15357 15356 15361 
2122 2156 1825 2155 15359 15357 15055 15353 15361 15355 
2123 1825 2156 1826 15063 15357 15360 15065 13157 15362 
2156 1825 1859 1826 15357 13446 15358 15362 13157 13447 
1826 1859 2157 1860 13447 15363 15364 13453 13455 15365 
2123 2157 2124 1826 15366 15367 15080 15065 15364 15073 
1826 1859 2156 2157 13447 15358 15362 15364 15363 15368 
2123 2157 1826 2156 15366 15364 15065 15360 15368 15362 
2124 1826 2157 1827 15073 15364 15367 15075 13167 15369 
2157 1826 1860 1827 15364 13453 15365 15369 13167 13454 
1827 1860 2158 1861 13454 15370 15371 13460 13462 15372 
2124 2158 2125 1827 15373 15374 15090 15075 15371 15083 
1827 1860 2157 2158 13454 15365 15369 15371 15370 15375 
2124 2158 1827 2157 15373 15371 15075 15367 15375 15369 
2125 1827 2158 1828 15083 15371 15374 15085 13177 15376 
2158 1827 1861 1828 15371 13460 15372 15376 13177 13461 
1828 1861 2159 1862 13461 15377 15378 13467 13469 15379 
2125 2159 2126 1828 15380 15381 15100 15085 15378 15093 
1828 1861 2158 2159 13461 15372 15376 15378 15377 15382 
2125 2159 1828 2158 15380 15378 15085 15374 15382 15376 
2126 1828 2159 1829 15093 15378 15381 15095 13187 15383 
2159 1828 1862 1829 15378 13467 15379 15383 13187 13468 
1829 1862 2160 1863 13468 15384 15385 13474 13476 15386 
2126 2160 2127 1829 15387 15388 15110 15095 15385 15103 
1829 1862 2159 2160 13468 15379 15383 15385 15384 15389 
2126 2160 1829 2159 15387 15385 15095 15381 15389 15383 
2127 1829 2160 1830 15103 15385 15388 15105 13197 15390 
2160 1829 1863 1830 15385 13474 15386 15390 13197 13475 
1830 1863 2161 1864 13475 15391 15392 13481 13483 15393 
2127 2161 2128 1830 15394 15395 15120 15105 15392 15113 
1830 1863 2160 2161 13475 15386 15390 15392 15391 15396 
2127 2161 1830 2160 15394 15392 15105 15388 15396 15390 
2128 1830 2161 1831 15113 15392 15395 15115 13207 15397 
2161 1830 1864 1831 15392 13481 15393 15397 13207 13482 
1831 1864 2162 1865 13482 15398 15399 13488 13490 15400 
2128 2162 2129 1831 15401 15402 15130 15115 15399 15123 
1831 1864 2161 2162 13482 15393 15397 15399 15398 15403 
2128 2162 1831 2161 15401 15399 15115 15395 15403 15397 
2129 1831 2162 1832 15123 15399 15402 15125 13217 15404 
2162 1831 1865 1832 15399 13488 15400 15404 13217 13489 
1832 1865 2163 1866 13489 15405 15406 13495 13497 15407 
2129 2163 2130 1832 15408 15409 15140 15125 15406 15133 
1832 1865 2162 2163 13489 15400 15404 15406 15405 15410 
2129 2163 1832 2162 15408 15406 15125 15402 15410 15404 
2130 1832 2163 1833 15133 15406 15409 15135 13227 15411 
2163 1832 1866 1833 15406 13495 15407 15411 13227 13496 
1833 1866 2164 1867 13496 15412 15413 13502 13504 15414 
2130 2164 2131 1833 15415 15416 15150 15135 15413 15143 
1833 1866 2163 2164 13496 15407 15411 15413 15412 15417 
2130 2164 1833 2163 15415 15413 15135 15409 15417 15411 
2131 1833 2164 1834 15143 15413 15416 15145 13237 15418 
2164 1833 1867 1834 15413 13502 15414 15418 13237 13503 
1834 1867 2165 1868 13503 15419 15420 13509 13511 15421 
2131 2165 2132 1834 15422 15423 15160 15145 15420 15153 
1834 1867 2164 2165 13503 15414 15418 15420 15419 15424 
2131 2165 1834 2164 15422 15420 15145 15416 15424 15418 
2132 1834 2165 1835 15153 15420 15423 15155 13247 15425 
2165 1834 1868 1835 15420 13509 15421 15425 13247 13510 
1835 1868 2166 1869 13510 15426 15427 13516 13518 15428 
2132 2166 2133 1835 15429 15430 15170 15155 15427 15163 
1835 1868 2165 2166 13510 15421 15425 15427 15426 15431 
2132 2166 1835 2165 15429 15427 15155 15423 15431 15425 
2133 1835 2166 1836 15163 15427 15430 15165 13257 15432 
2166 1835 1869 1836 15427 13516 15428 15432 13257 13517 
1836 1869 2167 1870 13517 15433 15434 13523 13525 15435 
2133 2167 2134 1836 15436 15437 15180 15165 15434 15173 
1836 1869 2166 2167 13517 15428 15432 15434 15433 15438 
2133 2167 1836 2166 15436 15434 15165 15430 15438 15432 
2134 1836 2167 1837 15173 15434 15437 15175 13267 15439 
2167 1836 1870 1837 15434 13523 15435 15439 13267 13524 
1837 1870 2168 1871 13524 15440 15441 13530 13532 15442 
2134 2168 2135 1837 15443 15444 15190 15175 15441 15183 
1837 1870 2167 2168 13524 15435 15439 15441 15440 15445 
2134 2168 1837 2167 15443 15441 15175 15437 15445 15439 
2135 1837 2168 1838 15183 15441 15444 15185 13277 15446 
2168 1837 1871 1838 15441 13530 15442 15446 13277 13531 
1838 1871 2169 1872 13531 15447 15448 13537 13539 15449 
2135 2169 2136 1838 15450 15451 15200 15185 15448 15193 
1838 1871 2168 2169 13531 15442 15446 15448 15447 15452 
2135 2169 1838 2168 15450 15448 15185 15444 15452 15446 
2136 1838 2169 1839 15193 15448 15451 15195 13287 15453 
2169 1838 1872 1839 15448 13537 15449 15453 13287 13538 
1839 1872 2170 1873 13538 15454 15455 13544 13546 15456 
2136 2170 2137 1839 15457 15458 15210 15195 15455 15203 
1839 1872 2169 2170 13538 15449 15453 15455 15454 15459 
2136 2170 1839 2169 15457 15455 15195 15451 15459 15453 
2137 1839 2170 1840 15203 15455 15458 15205 13297 15460 
2170 1839 1873 1840 15455 13544 15456 15460 13297 13545 
1840 1873 2171 1874 13545 15461 15462 13551 13553 15463 
2137 2171 2138 1840 15464 15465 15220 15205 15462 15213 
1840 1873 2170 2171 13545 15456 15460 15462 15461 15466 
2137 2171 1840 2170 15464 15462 15205 15458 15466 15460 
2138 1840 2171 1841 15213 15462 15465 15215 13307 15467 
2171 1840 1874 1841 15462 13551 15463 15467 13307 13552 
1841 1874 2172 1875 13552 15468 15469 13558 13560 15470 
2138 2172 2139 1841 15471 15472 15230 15215 15469 15223 
1841 1874 2171 2172 13552 15463 15467 15469 15468 15473 
2138 2172 1841 2171 15471 15469 15215 15465 15473 15467 
2139 1841 2172 1842 15223 15469 15472 15225 13317 15474 
2172 1841 1875 1842 15469 13558 15470 15474 13317 13559 
1842 1875 2173 1876 13559 15475 15476 13565 13567 15477 
2139 2173 2140 1842 15478 15479 15240 15225 15476 15233 
1842 1875 2172 2173 13559 15470 15474 15476 15475 15480 
2139 2173 1842 2172 15478 15476 15225 15472 15480 15474 
2140 1842 2173 1843 15233 15476 15479 15235 13327 15481 
2173 1842 1876 1843 15476 13565 15477 15481 13327 13566 
1843 1876 2174 1877 13566 15482 15483 13572 13574 15484 
2140 2174 2141 1843 15485 15486 15250 15235 15483 15243 
1843 1876 2173 2174 13566 15477 15481 15483 15482 15487 
2140 2174 1843 2173 15485 15483 15235 15479 15487 15481 
2141 1843 2174 1844 15243 15483 15486 15245 13337 15488 
2174 1843 1877 1844 15483 13572 15484 15488 13337 13573 
1844 1877 2175 1878 13573 15489 15490 13579 13581 15491 
2141 2175 2142 1844 15492 15493 15260 15245 15490 15253 
1844 1877 2174 2175 13573 15484 15488 15490 15489 15494 
2141 2175 1844 2174 15492 15490 15245 15486 15494 15488 
2142 1844 2175 1845 15253 15490 15493 15255 13347 15495 
2175 1844 1878 1845 15490 13579 15491 15495 13347 13580 
1845 1878 2176 1879 13580 15496 15497 13586 13588 15498 
2142 2176 2143 1845 15499 15500 15270 15255 15497 15263 
1845 1878 2175 2176 13580 15491 15495 15497 15496 15501 
2142 2176 1845 2175 15499 15497 15255 15493 15501 15495 
2143 1845 2176 1846 15263 15497 15500 15265 13357 15502 
2176 1845 1879 1846 15497 13586 15498 15502 13357 13587 
1846 1879 2177 1880 13587 15503 15504 13593 13595 15505 
2143 2177 2144 1846 15506 15507 15280 15265 15504 15273 
1846 1879 2176 2177 13587 15498 15502 15504 15503 15508 
2143 2177 1846 2176 15506 15504 15265 15500 15508 15502 
2144 1846 2177 1847 15273 15504 15507 15275 13367 15509 
2177 1846 1880 1847 15504 13593 15505 15509 13367 13594 
1848 1881 2179 1882 13605 15510 15511 13600 13604 15512 
2145 2179 2146 1848 15513 15514 15290 15288 15511 15283 
1848 1881 2178 2179 13605 15515 15516 15511 15510 15517 
2145 2179 1848 2178 15513 15511 15288 15518 15517 15516 
2146 1848 2179 1849 15283 15511 15514 15285 13377 15519 
2179 1848 1882 1849 15511 13600 15512 15519 13377 13601 
1849 1882 2180 1883 13601 15520 15521 13610 13612 15522 
2146 2180 2147 1849 15523 15524 15298 15285 15521 15293 
1849 1882 2179 2180 13601 15512 15519 15521 15520 15525 
2146 2180 1849 2179 15523 15521 15285 15514 15525 15519 
2147 1849 2180 1850 15293 15521 15524 15295 13385 15526 
2180 1849 1883 1850 15521 13610 15522 15526 13385 13611 
1850 1883 2181 1884 13611 15527 15528 13617 13619 15529 
2147 2181 2148 1850 15530 15531 15305 15295 15528 15300 
1850 1883 2180 2181 13611 15522 15526 15528 15527 15532 
2147 2181 1850 2180 15530 15528 15295 15524 15532 15526 
2148 1850 2181 1851 15300 15528 15531 15302 13392 15533 
2181 1850 1884 1851 15528 13617 15529 15533 13392 13618 
1851 1884 2182 1885 13618 15534 15535 13624 13626 15536 
2148 2182 2149 1851 15537 15538 15312 15302 15535 15307 
1851 1884 2181 2182 13618 15529 15533 15535 15534 15539 
2148 2182 1851 2181 15537 15535 15302 15531 15539 15533 
2149 1851 2182 1852 15307 15535 15538 15309 13399 15540 
2182 1851 1885 1852 15535 13624 15536 15540 13399 13625 
1852 1885 2183 1886 13625 15541 15542 13631 13633 15543 
2149 2183 2150 1852 15544 15545 15319 15309 15542 15314 
1852 1885 2182 2183 13625 15536 15540 15542 15541 15546 
2149 2183 1852 2182 15544 15542 15309 15538 15546 15540 
2150 1852 2183 1853 15314 15542 15545 15316 13406 15547 
2183 1852 1886 1853 15542 13631 15543 15547 13406 13632 
1853 1886 2184 1887 13632 15548 15549 13638 13640 15550 
2150 2184 2151 1853 15551 15552 15326 15316 15549 15321 
1853 1886 2183 2184 13632 15543 15547 15549 15548 15553 
2150 2184 1853 2183 15551 15549 15316 15545 15553 15547 
2151 1853 2184 1854 15321 15549 15552 15323 13413 15554 
2184 1853 1887 1854 15549 13638 15550 15554 13413 13639 
1854 1887 2185 1888 13639 15555 15556 13645 13647 15557 
2151 2185 2152 1854 15558 15559 15333 15323 15556 15328 
1854 1887 2184 2185 13639 15550 15554 15556 15555 15560 
2151 2185 1854 2184 15558 15556 15323 15552 15560 15554 
2152 1854 2185 1855 15328 15556 15559 15330 13420 15561 
2185 1854 1888 1855 15556 13645 15557 15561 13420 13646 
1855 1888 2186 1889 13646 15562 15563 13652 13654 15564 
2152 2186 2153 1855 15565 15566 15340 15330 15563 15335 
1855 1888 2185 2186 13646 15557 15561 15563 15562 15567 
2152 2186 1855 2185 15565 15563 15330 15559 15567 15561 
2153 1855 2186 1856 15335 15563 15566 15337 13427 15568 
2186 1855 1889 1856 15563 13652 15564 15568 13427 13653 
1856 1889 2187 1890 13653 15569 15570 13659 13661 15571 
2153 2187 2154 1856 15572 15573 15347 15337 15570 15342 
1856 1889 2186 2187 13653 15564 15568 15570 15569 15574 
2153 2187 1856 2186 15572 15570 15337 15566 15574 15568 
2154 1856 2187 1857 15342 15570 15573 15344 13434 15575 
2187 1856 1890 1857 15570 13659 15571 15575 13434 13660 
1857 1890 2188 1891 13660 15576 15577 13666 13668 15578 
2154 2188 2155 1857 15579 15580 15354 15344 15577 15349 
1857 1890 2187 2188 13660 15571 15575 15577 15576 15581 
2154 2188 1857 2187 15579 15577 15344 15573 15581 15575 
2155 1857 2188 1858 15349 15577 15580 15351 13441 15582 
2188 1857 1891 1858 15577 13666 15578 15582 13441 13667 
1858 1891 2189 1892 13667 15583 15584 13673 13675 15585 
2155 2189 2156 1858 15586 15587 15361 15351 15584 15356 
1858 1891 2188 2189 13667 15578 15582 15584 15583 15588 
2155 2189 1858 2188 15586 15584 15351 15580 15588 15582 
2156 1858 2189 1859 15356 15584 15587 15358 13448 15589 
2189 1858 1892 1859 15584 13673 15585 15589 13448 13674 
1859 1892 2190 1893 13674 15590 15591 13680 13682 15592 
2156 2190 2157 1859 15593 15594 15368 15358 15591 15363 
1859 1892 2189 2190 13674 15585 15589 15591 15590 15595 
2156 2190 1859 2189 15593 15591 15358 15587 15595 15589 
2157 1859 2190 1860 15363 15591 15594 15365 13455 15596 
2190 1859 1893 1860 15591 13680 15592 15596 13455 13681 
1860 1893 2191 1894 13681 15597 15598 13687 13689 15599 
2157 2191 2158 1860 15600 15601 15375 15365 15598 15370 
1860 1893 2190 2191 13681 15592 15596 15598 15597 15602 
2157 2191 1860 2190 15600 15598 15365 15594 15602 15596 
2158 1860 2191 1861 15370 15598 15601 15372 13462 15603 
2191 1860 1894 1861 15598 13687 15599 15603 13462 13688 
1861 1894 2192 1895 13688 15604 15605 13694 13696 15606 
2158 2192 2159 1861 15607 15608 15382 15372 15605 15377 
1861 1894 2191 2192 13688 15599 15603 15605 15604 15609 
2158 2192 1861 2191 15607 15605 15372 15601 15609 15603 
2159 1861 2192 1862 15377 15605 15608 15379 13469 15610 
2192 1861 1895 1862 15605 13694 15606 15610 13469 13695 
1862 1895 2193 1896 13695 15611 15612 13701 13703 15613 
2159 2193 2160 1862 15614 15615 15389 15379 15612 15384 
1862 1895 2192 2193 13695 15606 15610 15612 15611 15616 
2159 2193 1862 2192 15614 15612 15379 15608 15616 15610 
2160 1862 2193 1863 15384 15612 15615 15386 13476 15617 
2193 1862 1896 1863 15612 13701 15613 15617 13476 13702 
1863 1896 2194 1897 13702 15618 15619 13708 13710 15620 
2160 2194 2161 1863 15621 15622 15396 15386 15619 15391 
1863 1896 2193 2194 13702 15613 15617 15619 15618 15623 
2160 2194 1863 2193 15621 15619 15386 15615 15623 15617 
2161 1863 2194 1864 15391 15619 15622 15393 13483 15624 
2194 1863 1897 1864 15619 13708 15620 15624 13483 13709 
1864 1897 2195 1898 13709 15625 15626 13715 13717 15627 
2161 2195 2162 1864 15628 15629 15403 15393 15626 15398 
1864 1897 2194 2195 13709 15620 15624 15626 15625 15630 
2161 2195 1864 2194 15628 15626 15393 15622 15630 15624 
2162 1864 2195 1865 15398 15626 15629 15400 13490 15631 
2195 1864 1898 1865 15626 13715 15627 15631 13490 13716 
1865 1898 2196 1899 13716 15632 15633 13722 13724 15634 
2162 2196 2163 1865 15635 15636 15410 15400 15633 15405 
1865 1898 2195 2196 13716 15627 15631 15633 15632 15637 
2162 2196 1865 2195 15635 15633 15400 15629 15637 15631 
2163 1865 2196 1866 15405 15633 15636 15407 13497 15638 
2196 1865 1899 1866 15633 13722 15634 15638 13497 13723 
1866 1899 2197 1900 13723 15639 15640 13729 13731 15641 
2163 2197 2164 1866 15642 15643 15417 15407 15640 15412 
1866 1899 2196 2197 13723 15634 15638 15640 15639 15644 
2163 2197 1866 2196 15642 15640 15407 15636 15644 15638 
2164 1866 2197 1867 15412 15640 15643 15414 13504 15645 
2197 1866 1900 1867 15640 13729 15641 15645 13504 13730 
1867 1900 2198 1901 13730 15646 15647 13736 13738 15648 
2164 2198 2165 1867 15649 15650 15424 15414 15647 15419 
1867 1900 2197 2198 13730 15641 15645 15647 15646 15651 
2164 2198 1867 2197 15649 15647 15414 15643 15651 15645 
2165 1867 2198 1868 15419 15647 15650 15421 13511 15652 
2198 1867 1901 1868 15647 13736 15648 15652 13511 13737 
1868 1901 2199 1902 13737 15653 15654 13743 13745 15655 
2165 2199 2166 1868 15656 15657 15431 15421 15654 15426 
1868 1901 2198 2199 13737 15648 15652 15654 15653 15658 
2165 2199 1868 2198 15656 15654 15421 15650 15658 15652 
2166 1868 2199 1869 15426 15654 15657 15428 13518 15659 
2199 1868 1902 1869 15654 13743 15655 15659 13518 13744 
1869 1902 2200 1903 13744 15660 15661 13750 13752 15662 
2166 2200 2167 1869 15663 15664 15438 15428 15661 15433 
1869 1902 2199 2200 13744 15655 15659 15661 15660 15665 
2166 2200 1869 2199 15663 15661 15428 15657 15665 15659 
2167 1869 2200 1870 15433 15661 15664 15435 13525 15666 
2200 1869 1903 1870 15661 13750 15662 15666 13525 13751 
1870 1903 2201 1904 13751 15667 15668 13757 13759 15669 
2167 2201 2168 1870 15670 15671 15445 15435 15668 15440 
1870 1903 2200 2201 13751 15662 15666 15668 15667 15672 
2167 2201 1870 2200 15670 15668 15435 15664 15672 15666 
2168 1870 2201 1871 15440 15668 15671 15442 13532 15673 
2201 1870 1904 1871 15668 13757 15669 15673 13532 13758 
1871 1904 2202 1905 13758 15674 15675 13764 13766 15676 
2168 2202 2169 1871 15677 15678 15452 15442 15675 15447 
1871 1904 2201 2202 13758 15669 15673 15675 15674 15679 
2168 2202 1871 2201 15677 15675 15442 15671 15679 15673 
2169 1871 2202 1872 15447 15675 15678 15449 13539 15680 
2202 1871 1905 1872 15675 13764 15676 15680 13539 13765 
1872 1905 2203 1906 13765 15681 15682 13771 13773 15683 
2169 2203 2170 1872 15684 15685 15459 15449 15682 15454 
1872 1905 2202 2203 13765 15676 15680 15682 15681 15686 
2169 2203 1872 2202 15684 15682 15449 15678 15686 15680 
2170 1872 2203 1873 15454 15682 15685 15456 13546 15687 
2203 1872 1906 1873 15682 13771 15683 15687 13546 13772 
1873 1906 2204 1907 13772 15688 15689 13778 13780 15690 
2170 2204 2171 1873 15691 15692 15466 15456 15689 15461 
1873 1906 2203 2204 13772 15683 15687 15689 15688 15693 
2170 2204 1873 2203 15691 15689 15456 15685 15693 15687 
2171 1873 2204 1874 15461 15689 15692 15463 13553 15694 
2204 1873 1907 1874 15689 13778 15690 15694 13553 13779 
1874 1907 2205 1908 13779 15695 15696 13785 13787 15697 
2171 2205 2172 1874 15698 15699 15473 15463 15696 15468 
1874 1907 2204 2205 13779 15690 15694 15696 15695 15700 
2171 2205 1874 2204 15698 15696 15463 15692 15700 15694 
2172 1874 2205 1875 15468 15696 15699 15470 13560 15701 
2205 1874 1908 1875 15696 13785 15697 15701 13560 13786 
1875 1908 2206 1909 13786 15702 15703 13792 13794 15704 
2172 2206 2173 1875 15705 15706 15480 15470 15703 15475 
1875 1908 2205 2206 13786 15697 15701 15703 15702 15707 
2172 2206 1875 2205 15705 15703 15470 15699 15707 15701 
2173 1875 2206 1876 15475 15703 15706 15477 13567 15708 
2206 1875 1909 1876 15703 13792 15704 15708 13567 13793 
1876 1909 2207 1910 13793 15709 15710 13799 13801 15711 
2173 2207 2174 1876 15712 15713 15487 15477 15710 15482 
1876 1909 2206 2207 13793 15704 15708 15710 15709 15714 
2173 2207 1876 2206 15712 15710 15477 15706 15714 15708 
2174 1876 2207 1877 15482 15710 15713 15484 13574 15715 
2207 1876 1910 1877 15710 13799 15711 15715 13574 13800 
1877 1910 2208 1911 13800 15716 15717 13806 13808 15718 
2174 2208 2175 1877 15719 15720 15494 15484 15717 15489 
1877 1910 2207 2208 13800 15711 15715 15717 15716 15721 
2174 2208 1877 2207 15719 15717 15484 15713 15721 15715 
2175 1877 2208 1878 15489 15717 15720 15491 13581 15722 
2208 1877 1911 1878 15717 13806 15718 15722 13581 13807 
1878 1911 2209 1912 13807 15723 15724 13813 13815 15725 
2175 2209 2176 1878 15726 15727 15501 15491 15724 15496 
1878 1911 2208 2209 13807 15718 15722 15724 15723 15728 
2175 2209 1878 2208 15726 15724 15491 15720 15728 15722 
2176 1878 2209 1879 15496 15724 15727 15498 13588 15729 
2209 1878 1912 1879 15724 13813 15725 15729 13588 13814 
1879 1912 2210 1913 13814 15730 15731 13820 13822 15732 
2176 2210 2177 1879 15733 15734 15508 15498 15731 15503 
1879 1912 2209 2210 13814 15725 15729 15731 15730 15735 
2176 2210 1879 2209 15733 15731 15498 15727 15735 15729 
2177 1879 2210 1880 15503 15731 15734 15505 13595 15736 
2210 1879 1913 1880 15731 13820 15732 15736 13595 13821 
1881 1914 2212 1915 13832 15737 15738 13827 13831 15739 
2178 2212 2179 1881 15740 15741 15517 15515 15738 15510 
1881 1914 2211 2212 13832 15742 15743 15738 15737 15744 
2178 2212 1881 2211 15740 15738 15515 15745 15744 15743 
2179 1881 2212 1882 15510 15738 15741 15512 13604 15746 
2212 1881 1915 1882 15738 13827 15739 15746 13604 13828 
1882 1915 2213 1916 13828 15747 15748 13837 13839 15749 
2179 2213 2180 1882 15750 15751 15525 15512 15748 15520 
1882 1915 2212 2213 13828 15739 15746 15748 15747 15752 
2179 2213 1882 2212 15750 15748 15512 15741 15752 15746 
2180 1882 2213 1883 15520 15748 15751 15522 13612 15753 
2213 1882 1916 1883 15748 13837 15749 15753 13612 13838 
1883 1916 2214 1917 13838 15754 15755 13844 13846 15756 
2180 2214 2181 1883 15757 15758 15532 15522 15755 15527 
1883 1916 2213 2214 13838 15749 15753 15755 15754 15759 
2180 2214 1883 2213 15757 15755 15522 15751 15759 15753 
2181 1883 2214 1884 15527 15755 15758 15529 13619 15760 
2214 1883 1917 1884 15755 13844 15756 15760 13619 13845 
1884 1917 2215 1918 13845 15761 15762 13851 13853 15763 
2181 2215 2182 1884 15764 15765 15539 15529 15762 15534 
1884 1917 2214 2215 13845 15756 15760 15762 15761 15766 
2181 2215 1884 2214 15764 15762 15529 15758 15766 15760 
2182 1884 2215 1885 15534 15762 15765 15536 13626 15767 
2215 1884 1918 1885 15762 13851 15763 15767 13626 13852 
1885 1918 2216 1919 13852 15768 15769 13858 13860 15770 
2182 2216 2183 1885 15771 15772 15546 15536 15769 15541 
1885 1918 2215 2216 13852 15763 15767 15769 15768 15773 
2182 2216 1885 2215 15771 15769 15536 15765 15773 15767 
2183 1885 2216 1886 15541 15769 15772 15543 13633 15774 
2216 1885 1919 1886 15769 13858 15770 15774 13633 13859 
1886 1919 2217 1920 13859 15775 15776 13865 13867 15777 
2183 2217 2184 1886 15778 15779 15553 15543 15776 15548 
1886 1919 2216 2217 13859 15770 15774 15776 15775 15780 
2183 2217 1886 2216 15778 15776 15543 15772 15780 15774 
2184 1886 2217 1887 15548 15776 15779 15550 13640 15781 
2217 1886 1920 1887 15776 13865 15777 15781 13640 13866 
1887 1920 2218 1921 13866 15782 15783 13872 13874 15784 
2184 2218 2185 1887 15785 15786 15560 15550 15783 15555 
1887 1920 2217 2218 13866 15777 15781 15783 15782 15787 
2184 2218 1887 2217 15785 15783 15550 15779 15787 15781 
2185 1887 2218 1888 15555 15783 15786 15557 13647 15788 
2218 1887 1921 1888 15783 13872 15784 15788 13647 13873 
1888 1921 2219 1922 13873 15789 15790 13879 13881 15791 
2185 2219 2186 1888 15792 15793 15567 15557 15790 15562 
1888 1921 2218 2219 13873 15784 15788 15790 15789 15794 
2185 2219 1888 2218 15792 15790 15557 15786 15794 15788 
2186 1888 2219 1889 15562 15790 15793 15564 13654 15795 
2219 1888 1922 1889 15790 13879 15791 15795 13654 13880 
1889 1922 2220 1923 13880 15796 15797 13886 13888 15798 
2186 2220 2187 1889 15799 15800 15574 15564 15797 15569 
1889 1922 2219 2220 13880 15791 15795 15797 15796 15801 
2186 2220 1889 2219 15799 15797 15564 15793 15801 15795 
2187 1889 2220 1890 15569 15797 15800 15571 13661 15802 
2220 1889 1923 1890 15797 13886 15798 15802 13661 13887 
1890 1923 2221 1924 13887 15803 15804 13893 13895 15805 
2187 2221 2188 1890 15806 15807 15581 15571 15804 15576 
1890 1923 2220 2221 13887 15798 15802 15804 15803 15808 
2187 2221 1890 2220 15806 15804 15571 15800 15808 15802 
2188 1890 2221 1891 15576 15804 15807 15578 13668 15809 
2221 1890 1924 1891 15804 13893 15805 15809 13668 13894 
1891 1924 2222 1925 13894 15810 15811 13900 13902 15812 
2188 2222 2189 1891 15813 15814 15588 15578 15811 15583 
1891 1924 2221 2222 13894 15805 15809 15811 15810 15815 
2188 2222 1891 2221 15813 15811 15578 15807 15815 15809 
2189 1891 2222 1892 15583 15811 15814 15585 13675 15816 
2222 1891 1925 1892 15811 13900 15812 15816 13675 13901 
1892 1925 2223 1926 13901 15817 15818 13907 13909 15819 
2189 2223 2190 1892 15820 15821 15595 15585 15818 15590 
1892 1925 2222 2223 13901 15812 15816 15818 15817 15822 
2189 2223 1892 2222 15820 15818 15585 15814 15822 15816 
2190 1892 2223 1893 15590 15818 15821 15592 13682 15823 
2223 1892 1926 1893 15818 13907 15819 15823 13682 13908 
1893 1926 2224 1927 13908 15824 15825 13914 13916 15826 
2190 2224 2191 1893 15827 15828 15602 15592 15825 15597 
1893 1926 2223 2224 13908 15819 15823 15825 15824 15829 
2190 2224 1893 2223 15827 15825 15592 15821 15829 15823 
2191 1893 2224 1894 15597 15825 15828 15599 13689 15830 
2224 1893 1927 1894 15825 13914 15826 15830 13689 13915 
1894 1927 2225 1928 13915 15831 15832 13921 13923 15833 
2191 2225 2192 1894 15834 15835 15609 15599 15832 15604 
1894 1927 2224 2225 13915 15826 15830 15832 15831 15836 
2191 2225 1894 2224 15834 15832 15599 15828 15836 15830 
2192 1894 2225 1895 15604 15832 15835 15606 13696 15837 
2225 1894 1928 1895 15832 13921 15833 15837 13696 13922 
1895 1928 2226 1929 13922 15838 15839 13928 13930 15840 
2192 2226 2193 1895 15841 15842 15616 15606 15839 15611 
1895 1928 2225 2226 13922 15833 15837 15839 15838 15843 
2192 2226 1895 2225 15841 15839 15606 15835 15843 15837 
2193 1895 2226 1896 15611 15839 15842 15613 13703 15844 
2226 1895 1929 1896 15839 13928 15840 15844 13703 13929 
1896 1929 2227 1930 13929 15845 15846 13935 13937 15847 
2193 2227 2194 1896 15848 15849 15623 15613 15846 15618 
1896 1929 2226 2227 13929 15840 15844 15846 15845 15850 
2193 2227 1896 2226 15848 15846 15613 15842 15850 15844 
2194 1896 2227 1897 15618 15846 15849 15620 13710 15851 
2227 1896 1930 1897 15846 13935 15847 15851 13710 13936 
1897 1930 2228 1931 13936 15852 15853 13942 13944 15854 
2194 2228 2195 1897 15855 15856 15630 15620 15853 15625 
1897 1930 2227 2228 13936 15847 15851 15853 15852 15857 
2194 2228 1897 2227 15855 15853 15620 15849 15857 15851 
2195 1897 2228 1898 15625 15853 15856 15627 13717 15858 
2228 1897 1931 1898 15853 13942 15854 15858 13717 13943 
1898 1931 2229 1932 13943 15859 15860 13949 13951 15861 
2195 2229 2196 1898 15862 15863 15637 15627 15860 15632 
1898 1931 2228 2229 13943 15854 15858 15860 15859 15864 
2195 2229 1898 2228 15862 15860 15627 15856 15864 15858 
2196 1898 2229 1899 15632 15860 15863 15634 13724 15865 
2229 1898 1932 1899 15860 13949 15861 15865 13724 13950 
1899 1932 2230 1933 13950 15866 15867 13956 13958 15868 
2196 2230 2197 1899 15869 15870 15644 15634 15867 15639 
1899 1932 2229 2230 13950 15861 15865 15867 15866 15871 
2196 2230 1899 2229 15869 15867 15634 15863 15871 15865 
2197 1899 2230 1900 15639 15867 15870 15641 13731 15872 
2230 1899 1933 1900 15867 13956 15868 15872 13731 13957 
1900 1933 2231 1934 13957 15873 15874 13963 13965 15875 
2197 2231 2198 1900 15876 15877 15651 15641 15874 15646 
1900 1933 2230 2231 13957 15868 15872 15874 15873 15878 
2197 2231 1900 2230 15876 15874 15641 15870 15878 15872 
2198 1900 2231 1901 15646 15874 15877 15648 13738 15879 
2231 1900 1934 1901 15874 13963 15875 15879 13738 13964 
1901 1934 2232 1935 13964 15880 15881 13970 13972 15882 
2198 2232 2199 1901 15883 15884 15658 15648 15881 15653 
1901 1934 2231 2232 13964 15875 15879 15881 15880 15885 
2198 2232 1901 2231 15883 15881 15648 15877 15885 15879 
2199 1901 2232 1902 15653 15881 15884 15655 13745 15886 
2232 1901 1935 1902 15881 13970 15882 15886 13745 13971 
1902 1935 2233 1936 13971 15887 15888 13977 13979 15889 
2199 2233 2200 1902 15890 15891 15665 15655 15888 15660 
1902 1935 2232 2233 13971 15882 15886 15888 15887 15892 
2199 2233 1902 2232 15890 15888 15655 15884 15892 15886 
2200 1902 2233 1903 15660 15888 15891 15662 13752 15893 
2233 1902 1936 1903 15888 13977 15889 15893 13752 13978 
1903 1936 2234 1937 13978 15894 15895 13984 13986 15896 
2200 2234 2201 1903 15897 15898 15672 15662 15895 15667 
1903 1936 2233 2234 13978 15889 15893 15895 15894 15899 
2200 2234 1903 2233 15897 15895 15662 15891 15899 15893 
2201 1903 2234 1904 15667 15895 15898 15669 13759 15900 
2234 1903 1937 1904 15895 13984 15896 15900 13759 13985 
1904 1937 2235 1938 13985 15901 15902 13991 13993 15903 
2201 2235 2202 1904 15904 15905 15679 15669 15902 15674 
1904 1937 2234 2235 13985 15896 15900 15902 15901 15906 
2201 2235 1904 2234 15904 15902 15669 15898 15906 15900 
2202 1904 2235 1905 15674 15902 15905 15676 13766 15907 
2235 1904 1938 1905 15902 13991 15903 15907 13766 13992 
1905 1938 2236 1939 13992 15908 15909 13998 14000 15910 
2202 2236 2203 1905 15911 15912 15686 15676 15909 15681 
1905 1938 2235 2236 13992 15903 15907 15909 15908 15913 
2202 2236 1905 2235 15911 15909 15676 15905 15913 15907 
2203 1905 2236 1906 15681 15909 15912 15683 13773 15914 
2236 1905 1939 1906 15909 13998 15910 15914 13773 13999 
1906 1939 2237 1940 13999 15915 15916 14005 14007 15917 
2203 2237 2204 1906 15918 15919 15693 15683 15916 15688 
1906 1939 2236 2237 13999 15910 15914 15916 15915 15920 
2203 2237 1906 2236 15918 15916 15683 15912 15920 15914 
2204 1906 2237 1907 15688 15916 15919 15690 13780 15921 
2237 1906 1940 1907 15916 14005 15917 15921 13780 14006 
1907 1940 2238 1941 14006 15922 15923 14012 14014 15924 
2204 2238 2205 1907 15925 15926 15700 15690 15923 15695 
1907 1940 2237 2238 14006 15917 15921 15923 15922 15927 
2204 2238 1907 2237 15925 15923 15690 15919 15927 15921 
2205 1907 2238 1908 15695 15923 15926 15697 13787 15928 
2238 1907 1941 1908 15923 14012 15924 15928 13787 14013 
1908 1941 2239 1942 14013 15929 15930 14019 14021 15931 
2205 2239 2206 1908 15932 15933 15707 15697 15930 15702 
1908 1941 2238 2239 14013 15924 15928 15930 15929 15934 
2205 2239 1908 2238 15932 15930 15697 15926 15934 15928 
2206 1908 2239 1909 15702 15930 15933 15704 13794 15935 
2239 1908 1942 1909 15930 14019 15931 15935 13794 14020 
1909 1942 2240 1943 14020 15936 15937 14026 14028 15938 
2206 2240 2207 1909 15939 15940 15714 15704 15937 15709 
1909 1942 2239 2240 14020 15931 15935 15937 15936 15941 
2206 2240 1909 2239 15939 15937 15704 15933 15941 15935 
2207 1909 2240 1910 15709 15937 15940 15711 13801 15942 
2240 1909 1943 1910 15937 14026 15938 15942 13801 14027 
1910 1943 2241 1944 14027 15943 15944 14033 14035 15945 
2207 2241 2208 1910 15946 15947 15721 15711 15944 15716 
1910 1943 2240 2241 14027 15938 15942 15944 15943 15948 
2207 2241 1910 2240 15946 15944 15711 15940 15948 15942 
2208 1910 2241 1911 15716 15944 15947 15718 13808 15949 
2241 1910 1944 1911 15944 14033 15945 15949 13808 14034 
1911 1944 2242 1945 14034 15950 15951 14040 14042 15952 
2208 2242 2209 1911 15953 15954 15728 15718 15951 15723 
1911 1944 2241 2242 14034 15945 15949 15951 15950 15955 
2208 2242 1911 2241 15953 15951 15718 15947 15955 15949 
2209 1911 2242 1912 15723 15951 15954 15725 13815 15956 
2242 1911 1945 1912 15951 14040 15952 15956 13815 14041 
1912 1945 2243 1946 14041 15957 15958 14047 14049 15959 
2209 2243 2210 1912 15960 15961 15735 15725 15958 15730 
1912 1945 2242 2243 14041 15952 15956 15958 15957 15962 
2209 2243 1912 2242 15960 15958 15725 15954 15962 15956 
2210 1912 2243 1913 15730 15958 15961 15732 13822 15963 
2243 1912 1946 1913 15958 14047 15959 15963 13822 14048 
1914 1947 2245 1948 14059 15964 15965 14054 14058 15966 
2211 2245 2212 1914 15967 15968 15744 15742 15965 15737 
1914 1947 2244 2245 14059 15969 15970 15965 15964 15971 
2211 2245 1914 2244 15967 15965 15742 15972 15971 15970 
2212 1914 2245 1915 15737 15965 15968 15739 13831 15973 
2245 1914 1948 1915 15965 14054 15966 15973 13831 14055 
1915 1948 2246 1949 14055 15974 15975 14064 14066 15976 
2212 2246 2213 1915 15977 15978 15752 15739 15975 15747 
1915 1948 2245 2246 14055 15966 15973 15975 15974 15979 
2212 2246 1915 2245 15977 15975 15739 15968 15979 15973 
2213 1915 2246 1916 15747 15975 15978 15749 13839 15980 
2246 1915 1949 1916 15975 14064 15976 15980 13839 14065 
1916 1949 2247 1950 14065 15981 15982 14071 14073 15983 
2213 2247 2214 1916 15984 15985 15759 15749 15982 15754 
1916 1949 2246 2247 14065 15976 15980 15982 15981 15986 
2213 2247 1916 2246 15984 15982 15749 15978 15986 15980 
2214 1916 2247 1917 15754 15982 15985 15756 13846 15987 
2247 1916 1950 1917 15982 14071 15983 15987 13846 14072 
1917 1950 2248 1951 14072 15988 15989 14078 14080 15990 
2214 2248 2215 1917 15991 15992 15766 15756 15989 15761 
1917 1950 2247 2248 14072 15983 15987 15989 15988 15993 
2214 2248 1917 2247 15991 15989 15756 15985 15993 15987 
2215 1917 2248 1918 15761 15989 15992 15763 13853 15994 
2248 1917 1951 1918 15989 14078 15990 15994 13853 14079 
1918 1951 2249 1952 14079 15995 15996 14085 14087 15997 
2215 2249 2216 1918 15998 15999 15773 15763 15996 15768 
1918 1951 2248 2249 14079 15990 15994 15996 15995 16000 
2215 2249 1918 2248 15998 15996 15763 15992 16000 15994 
2216 1918 2249 1919 15768 15996 15999 15770 13860 16001 
2249 1918 1952 1919 15996 14085 15997 16001 13860 14086 
1919 1952 2250 1953 14086 16002 16003 14092 14094 16004 
2216 2250 2217 1919 16005 16006 15780 15770 16003 15775 
1919 1952 2249 2250 14086 15997 16001 16003 16002 16007 
2216 2250 1919 2249 16005 16003 15770 15999 16007 16001 
2217 1919 2250 1920 15775 16003 16006 15777 13867 16008 
2250 1919 1953 1920 16003 14092 16004 16008 13867 14093 
1920 1953 2251 1954 14093 16009 16010 14099 14101 16011 
2217 2251 2218 1920 16012 16013 15787 15777 16010 15782 
1920 1953 2250 2251 14093 16004 16008 16010 16009 16014 
2217 2251 1920 2250 16012 16010 15777 16006 16014 16008 
2218 1920 2251 1921 15782 16010 16013 15784 13874 16015 
2251 1920 1954 1921 16010 14099 16011 16015 13874 14100 
1921 1954 2252 1955 14100 16016 16017 14106 14108 16018 
2218 2252 2219 1921 16019 16020 15794 15784 16017 15789 
1921 1954 2251 2252 14100 16011 16015 16017 16016 16021 
2218 2252 1921 2251 16019 16017 15784 16013 16021 16015 
2219 1921 2252 1922 15789 16017 16020 15791 13881 16022 
2252 1921 1955 1922 16017 14106 16018 16022 13881 14107 
1922 1955 2253 1956 14107 16023 16024 14113 14115 16025 
2219 2253 2220 1922 16026 16027 15801 15791 16024 15796 
1922 1955 2252 2253 14107 16018 16022 16024 16023 16028 
2219 2253 1922 2252 16026 16024 15791 16020 16028 16022 
2220 1922 2253 1923 15796 16024 16027 15798 13888 16029 
2253 1922 1956 1923 16024 14113 16025 16029 13888 14114 
1923 1956 2254 1957 14114 16030 16031 14120 14122 16032 
2220 2254 2221 1923 16033 16034 15808 15798 16031 15803 
1923 1956 2253 2254 14114 16025 16029 16031 16030 16035 
2220 2254 1923 2253 16033 16031 15798 16027 16035 16029 
2221 1923 2254 1924 15803 16031 16034 15805 13895 16036 
2254 1923 1957 1924 16031 14120 16032 16036 13895 14121 
1924 1957 2255 1958 14121 16037 16038 14127 14129 16039 
2221 2255 2222 1924 16040 16041 15815 15805 16038 15810 
1924 1957 2254 2255 14121 16032 16036 16038 16037 16042 
2221 2255 1924 2254 16040 16038 15805 16034 16042 16036 
2222 1924 2255 1925 15810 16038 16041 15812 13902 16043 
2255 1924 1958 1925 16038 14127 16039 16043 13902 14128 
1925 1958 2256 1959 14128 16044 16045 14134 14136 16046 
2222 2256 2223 1925 16047 16048 15822 15812 16045 15817 
1925 1958 2255 2256 14128 16039 16043 16045 16044 16049 
2222 2256 1925 2255 16047 16045 15812 16041 16049 16043 
2223 1925 2256 1926 15817 16045 16048 15819 13909 16050 
2256 1925 1959 1926 16045 14134 16046 16050 13909 14135 
1926 1959 2257 1960 14135 16051 16052 14141 14143 16053 
2223 2257 2224 1926 16054 16055 15829 15819 16052 15824 
1926 1959 2256 2257 14135 16046 16050 16052 16051 16056 
2223 2257 1926 2256 16054 16052 15819 16048 16056 16050 
2224 1926 2257 1927 15824 16052 16055 15826 13916 16057 
2257 1926 1960 1927 16052 14141 16053 16057 13916 14142 
1927 1960 2258 1961 14142 16058 16059 14148 14150 16060 
2224 2258 2225 1927 16061 16062 15836 15826 16059 15831 
1927 1960 2257 2258 14142 16053 16057 16059 16058 16063 
2224 2258 1927 2257 16061 16059 15826 16055 16063 16057 
2225 1927 2258 1928 15831 16059 16062 15833 13923 16064 
2258 1927 1961 1928 16059 14148 16060 16064 13923 14149 
1928 1961 2259 1962 14149 16065 16066 14155 14157 16067 
2225 2259 2226 1928 16068 16069 15843 15833 16066 15838 
1928 1961 2258 2259 14149 16060 16064 16066 16065 16070 
2225 2259 1928 2258 16068 16066 15833 16062 16070 16064 
2226 1928 2259 1929 15838 16066 16069 15840 13930 16071 
2259 1928 1962 1929 16066 14155 16067 16071 13930 14156 
1929 1962 2260 1963 14156 16072 16073 14162 14164 16074 
2226 2260 2227 1929 16075 16076 15850 15840 16073 15845 
1929 1962 2259 2260 14156 16067 16071 16073 16072 16077 
2226 2260 1929 2259 16075 16073 15840 16069 16077 16071 
2227 1929 2260 1930 15845 16073 16076 15847 13937 16078 
2260 1929 1963 1930 16073 14162 16074 16078 13937 14163 
1930 1963 2261 1964 14163 16079 16080 14169 14171 16081 
2227 2261 2228 1930 16082 16083 15857 15847 16080 15852 
1930 1963 2260 2261 14163 16074 16078 16080 16079 16084 
2227 2261 1930 2260 16082 16080 15847 16076 16084 16078 
2228 1930 2261 1931 15852 16080 16083 15854 13944 16085 
2261 1930 1964 1931 16080 14169 16081 16085 13944 14170 
1931 1964 2262 1965 14170 16086 16087 14176 14178 16088 
2228 2262 2229 1931 16089 16090 15864 15854 16087 15859 
1931 1964 2261 2262 14170 16081 16085 16087 16086 16091 
2228 2262 1931 2261 16089 16087 15854 16083 16091 16085 
2229 1931 2262 1932 15859 16087 16090 15861 13951 16092 
2262 1931 1965 1932 16087 14176 16088 16092 13951 14177 
1932 1965 2263 1966 14177 16093 16094 14183 14185 16095 
2229 2263 2230 1932 16096 16097 15871 15861 16094 15866 
1932 1965 2262 2263 14177 16088 16092 16094 16093 16098 
2229 2263 1932 2262 16096 16094 15861 16090 16098 16092 
2230 1932 2263 1933 15866 16094 16097 15868 13958 16099 
2263 1932 1966 1933 16094 14183 16095 16099 13958 14184 
1933 1966 2264 1967 14184 16100 16101 14190 14192 16102 
2230 2264 2231 1933 16103 16104 15878 15868 16101 15873 
1933 1966 2263 2264 14184 16095 16099 16101 16100 16105 
2230 2264 1933 2263 16103 16101 15868 16097 16105 16099 
2231 1933 2264 1934 15873 16101 16104 15875 13965 16106 
2264 1933 1967 1934 16101 14190 16102 16106 13965 14191 
1934 1967 2265 1968 14191 16107 16108 14197 14199 16109 
2231 2265 2232 1934 16110 16111 15885 15875 16108 15880 
1934 1967 2264 2265 14191 16102 16106 16108 16107 16112 
2231 2265 1934 2264 16110 16108 15875 16104 16112 16106 
2232 1934 2265 1935 15880 16108 16111 15882 13972 16113 
2265 1934 1968 1935 16108 14197 16109 16113 13972 14198 
1935 1968 2266 1969 14198 16114 16115 14204 14206 16116 
2232 2266 2233 1935 16117 16118 15892 15882 16115 15887 
1935 1968 2265 2266 14198 16109 16113 16115 16114 16119 
2232 2266 1935 2265 16117 16115 15882 16111 16119 16113 
2233 1935 2266 1936 15887 16115 16118 15889 13979 16120 
2266 1935 1969 1936 16115 14204 16116 16120 13979 14205 
1936 1969 2267 1970 14205 16121 16122 14211 14213 16123 
2233 2267 2234 1936 16124 16125 15899 15889 16122 15894 
1936 1969 2266 2267 14205 16116 16120 16122 16121 16126 
2233 2267 1936 2266 16124 16122 15889 16118 16126 16120 
2234 1936 2267 1937 15894 16122 16125 15896 13986 16127 
2267 1936 1970 1937 16122 14211 16123 16127 13986 14212 
1937 1970 2268 1971 14212 16128 16129 14218 14220 16130 
2234 2268 2235 1937 16131 16132 15906 15896 16129 15901 
1937 1970 2267 2268 14212 16123 16127 16129 16128 16133 
2234 2268 1937 2267 16131 16129 15896 16125 16133 16127 
2235 1937 2268 1938 15901 16129 16132 15903 13993 16134 
2268 1937 1971 1938 16129 14218 16130 16134 13993 14219 
1938 1971 2269 1972 14219 16135 16136 14225 14227 16137 
2235 2269 2236 1938 16138 16139 15913 15903 16136 15908 
1938 1971 2268 2269 14219 16130 16134 16136 16135 16140 
2235 2269 1938 2268 16138 16136 15903 16132 16140 16134 
2236 1938 2269 1939 15908 16136 16139 15910 14000 16141 
2269 1938 1972 1939 16136 14225 16137 16141 14000 14226 
1939 1972 2270 1973 14226 16142 16143 14232 14234 16144 
2236 2270 2237 1939 16145 16146 15920 15910 16143 15915 
1939 1972 2269 2270 14226 16137 16141 16143 16142 16147 
2236 2270 1939 2269 16145 16143 15910 16139 16147 16141 
2237 1939 2270 1940 15915 16143 16146 15917 14007 16148 
2270 1939 1973 1940 16143 14232 16144 16148 14007 14233 
1940 1973 2271 1974 14233 16149 16150 14239 14241 16151 
2237 2271 2238 1940 16152 16153 15927 15917 16150 15922 
1940 1973 2270 2271 14233 16144 16148 16150 16149 16154 
2237 2271 1940 2270 16152 16150 15917 16146 16154 16148 
2238 1940 2271 1941 15922 16150 16153 15924 14014 16155 
2271 1940 1974 1941 16150 14239 16151 16155 14014 14240 
1941 1974 2272 1975 14240 16156 16157 14246 14248 16158 
2238 2272 2239 1941 16159 16160 15934 15924 16157 15929 
1941 1974 2271 2272 14240 16151 16155 16157 16156 16161 
2238 2272 1941 2271 16159 16157 15924 16153 16161 16155 
2239 1941 2272 1942 15929 16157 16160 15931 14021 16162 
2272 1941 1975 1942 16157 14246 16158 16162 14021 14247 
1942 1975 2273 1976 14247 16163 16164 14253 14255 16165 
2239 2273 2240 1942 16166 16167 15941 15931 16164 15936 
1942 1975 2272 2273 14247 16158 16162 16164 16163 16168 
2239 2273 1942 2272 16166 16164 15931 16160 16168 16162 
2240 1942 2273 1943 15936 16164 16167 15938 14028 16169 
2273 1942 1976 1943 16164 14253 16165 16169 14028 14254 
1943 1976 2274 1977 14254 16170 16171 14260 14262 16172 
2240 2274 2241 1943 16173 16174 15948 15938 16171 15943 
1943 1976 2273 2274 14254 16165 16169 16171 16170 16175 
2240 2274 1943 2273 16173 16171 15938 16167 16175 16169 
2241 1943 2274 1944 15943 16171 16174 15945 14035 16176 
2274 1943 1977 1944 16171 14260 16172 16176 14035 14261 
1944 1977 2275 1978 14261 16177 16178 14267 14269 16179 
2241 2275 2242 1944 16180 16181 15955 15945 16178 15950 
1944 1977 2274 2275 14261 16172 16176 16178 16177 16182 
2241 2275 1944 2274 16180 16178 15945 16174 16182 16176 
2242 1944 2275 1945 15950 16178 16181 15952 14042 16183 
2275 1944 1978 1945 16178 14267 16179 16183 14042 14268 
1945 1978 2276 1979 14268 16184 16185 14274 14276 16186 
2242 2276 2243 1945 16187 16188 15962 15952 16185 15957 
1945 1978 2275 2276 14268 16179 16183 16185 16184 16189 
2242 2276 1945 2275 16187 16185 15952 16181 16189 16183 
2243 1945 2276 1946 15957 16185 16188 15959 14049 16190 
2276 1945 1979 1946 16185 14274 16186 16190 14049 14275 
1947 1980 2278 1981 14286 16191 16192 14281 14285 16193 
2244 2278 2245 1947 16194 16195 15971 15969 16192 15964 
1947 1980 2277 2278 14286 16196 16197 16192 16191 16198 
2244 2278 1947 2277 16194 16192 15969 16199 16198 16197 
2245 1947 2278 1948 15964 16192 16195 15966 14058 16200 
2278 1947 1981 1948 16192 14281 16193 16200 14058 14282 
1948 1981 2279 1982 14282 16201 16202 14291 14293 16203 
2245 2279 2246 1948 16204 16205 15979 15966 16202 15974 
1948 1981 2278 2279 14282 16193 16200 16202 16201 16206 
2245 2279 1948 2278 16204 16202 15966 16195 16206 16200 
2246 1948 2279 1949 15974 16202 16205 15976 14066 16207 
2279 1948 1982 1949 16202 14291 16203 16207 14066 14292 
1949 1982 2280 1983 14292 16208 16209 14298 14300 16210 
2246 2280 2247 1949 16211 16212 15986 15976 16209 15981 
1949 1982 2279 2280 14292 16203 16207 16209 16208 16213 
2246 2280 1949 2279 16211 16209 15976 16205 16213 16207 
2247 1949 2280 1950 15981 16209 16212 15983 14073 16214 
2280 1949 1983 1950 16209 14298 16210 16214 14073 14299 
1950 1983 2281 1984 14299 16215 16216 14305 14307 16217 
2247 2281 2248 1950 16218 16219 15993 15983 16216 15988 
1950 1983 2280 2281 14299 16210 16214 16216 16215 16220 
2247 2281 1950 2280 16218 16216 15983 16212 16220 16214 
2248 1950 2281 1951 15988 16216 16219 15990 14080 16221 
2281 1950 1984 1951 16216 14305 16217 16221 14080 14306 
1951 1984 2282 1985 14306 16222 16223 14312 14314 16224 
2248 2282 2249 1951 16225 16226 16000 15990 16223 15995 
1951 1984 2281 2282 14306 16217 16221 16223 16222 16227 
2248 2282 1951 2281 16225 16223 15990 16219 16227 16221 
2249 1951 2282 1952 15995 16223 16226 15997 14087 16228 
2282 1951 1985 1952 16223 14312 16224 16228 14087 14313 
1952 1985 2283 1986 14313 16229 16230 14319 14321 16231 
2249 2283 2250 1952 16232 16233 16007 15997 16230 16002 
1952 1985 2282 2283 14313 16224 16228 16230 16229 16234 
2249 2283 1952 2282 16232 16230 15997 16226 16234 16228 
2250 1952 2283 1953 16002 16230 16233 16004 14094 16235 
2283 1952 1986 1953 16230 14319 16231 16235 14094 14320 
1953 1986 2284 1987 14320 16236 16237 14326 14328 16238 
2250 2284 2251 1953 16239 16240 16014 16004 16237 16009 
1953 1986 2283 2284 14320 16231 16235 16237 16236 16241 
2250 2284 1953 2283 16239 16237 16004 16233 16241 16235 
2251 1953 2284 1954 16009 16237 16240 16011 14101 16242 
2284 1953 1987 1954 16237 14326 16238 16242 14101 14327 
1954 1987 2285 1988 14327 16243 16244 14333 14335 16245 
2251 2285 2252 1954 16246 16247 16021 16011 16244 16016 
1954 1987 2284 2285 14327 16238 16242 16244 16243 16248 
2251 2285 1954 2284 16246 16244 16011 16240 16248 16242 
2252 1954 2285 1955 16016 16244 16247 16018 14108 16249 
2285 1954 1988 1955 16244 14333 16245 16249 14108 14334 
1955 1988 2286 1989 14334 16250 16251 14340 14342 16252 
2252 2286 2253 1955 16253 16254 16028 16018 16251 16023 
1955 1988 2285 2286 14334 16245 16249 16251 16250 16255 
2252 2286 1955 2285 16253 16251 16018 16247 16255 16249 
2253 1955 2286 1956 16023 16251 16254 16025 14115 16256 
2286 1955 1989 1956 16251 14340 16252 16256 14115 14341 
1956 1989 2287 1990 14341 16257 16258 14347 14349 16259 
2253 2287 2254 1956 16260 16261 16035 16025 16258 16030 
1956 1989 2286 2287 14341 16252 16256 16258 16257 16262 
2253 2287 1956 2286 16260 16258 16025 16254 16262 16256 
2254 1956 2287 1957 16030 16258 16261 16032 14122 16263 
2287 1956 1990 1957 16258 14347 16259 16263 14122 14348 
1957 1990 2288 1991 14348 16264 16265 14354 14356 16266 
2254 2288 2255 1957 16267 16268 16042 16032 16265 16037 
1957 1990 2287 2288 14348 16259 16263 16265 16264 16269 
2254 2288 1957 2287 16267 16265 16032 16261 16269 16263 
2255 1957 2288 1958 16037 16265 16268 16039 14129 16270 
2288 1957 1991 1958 16265 14354 16266 16270 14129 14355 
1958 1991 2289 1992 14355 16271 16272 14361 14363 16273 
2255 2289 2256 1958 16274 16275 16049 16039 16272 16044 
1958 1991 2288 2289 14355 16266 16270 16272 16271 16276 
2255 2289 1958 2288 16274 16272 16039 16268 16276 16270 
2256 1958 2289 1959 16044 16272 16275 16046 14136 16277 
2289 1958 1992 1959 16272 14361 16273 16277 14136 14362 
1959 1992 2290 1993 14362 16278 16279 14368 14370 16280 
2256 2290 2257 1959 16281 16282 16056 16046 16279 16051 
1959 1992 2289 2290 14362 16273 16277 16279 16278 16283 
2256 2290 1959 2289 16281 16279 16046 16275 16283 16277 
2257 1959 2290 1960 16051 16279 16282 16053 14143 16284 
2290 1959 1993 1960 16279 14368 16280 16284 14143 14369 
1960 1993 2291 1994 14369 16285 16286 14375 14377 16287 
2257 2291 2258 1960 16288 16289 16063 16053 16286 16058 
1960 1993 2290 2291 14369 16280 16284 16286 16285 16290 
2257 2291 1960 2290 16288 16286 16053 16282 16290 16284 
2258 1960 2291 1961 16058 16286 16289 16060 14150 16291 
2291 1960 1994 1961 16286 14375 16287 16291 14150 14376 
1961 1994 2292 1995 14376 16292 16293 14382 14384 16294 
2258 2292 2259 1961 16295 16296 16070 16060 16293 16065 
1961 1994 2291 2292 14376 16287 16291 16293 16292 16297 
2258 2292 1961 2291 16295 16293 16060 16289 16297 16291 
2259 1961 2292 1962 16065 16293 16296 16067 14157 16298 
2292 1961 1995 1962 16293 14382 16294 16298 14157 14383 
1962 1995 2293 1996 14383 16299 16300 14389 14391 16301 
2259 2293 2260 1962 16302 16303 16077 16067 16300 16072 
1962 1995 2292 2293 14383 16294 16298 16300 16299 16304 
2259 2293 1962 2292 16302 16300 16067 16296 16304 16298 
2260 1962 2293 1963 16072 16300 16303 16074 14164 16305 
2293 1962 1996 1963 16300 14389 16301 16305 14164 14390 
1963 1996 2294 1997 14390 16306 16307 14396 14398 16308 
2260 2294 2261 1963 16309 16310 16084 16074 16307 16079 
1963 1996 2293 2294 14390 16301 16305 16307 16306 16311 
2260 2294 1963 2293 16309 16307 16074 16303 16311 16305 
2261 1963 2294 1964 16079 16307 16310 16081 14171 16312 
2294 1963 1997 1964 16307 14396 16308 16312 14171 14397 
1964 1997 2295 1998 14397 16313 16314 14403 14405 16315 
2261 2295 2262 1964 16316 16317 16091 16081 16314 16086 
1964 1997 2294 2295 14397 16308 16312 16314 16313 16318 
2261 2295 1964 2294 16316 16314 16081 16310 16318 16312 
2262 1964 2295 1965 16086 16314 16317 16088 14178 16319 
2295 1964 1998 1965 16314 14403 16315 16319 14178 14404 
1965 1998 2296 1999 14404 16320 16321 14410 14412 16322 
2262 2296 2263 1965 16323 16324 16098 16088 16321 16093 
1965 1998 2295 2296 14404 16315 16319 16321 16320 16325 
2262 2296 1965 2295 16323 16321 16088 16317 16325 16319 
2263 1965 2296 1966 16093 16321 16324 16095 14185 16326 
2296 1965 1999 1966 16321 14410 16322 16326 14185 14411 
1966 1999 2297 2000 14411 16327 16328 14417 14419 16329 
2263 2297 2264 1966 16330 16331 16105 16095 16328 16100 
1966 1999 2296 2297 14411 16322 16326 16328 16327 16332 
2263 2297 1966 2296 16330 16328 16095 16324 16332 16326 
2264 1966 2297 1967 16100 16328 16331 16102 14192 16333 
2297 1966 2000 1967 16328 14417 16329 16333 14192 14418 
1967 2000 2298 2001 14418 16334 16335 14424 14426 16336 
2264 2298 2265 1967 16337 16338 16112 16102 16335 16107 
1967 2000 2297 2298 14418 16329 16333 16335 16334 16339 
2264 2298 1967 2297 16337 16335 16102 16331 16339 16333 
2265 1967 2298 1968 16107 16335 16338 16109 14199 16340 
2298 1967 2001 1968 16335 14424 16336 16340 14199 14425 
1968 2001 2299 2002 14425 16341 16342 14431 14433 16343 
2265 2299 2266 1968 16344 16345 16119 16109 16342 16114 
1968 2001 2298 2299 14425 16336 16340 16342 16341 16346 
2265 2299 1968 2298 16344 16342 16109 16338 16346 16340 
2266 1968 2299 1969 16114 16342 16345 16116 14206 16347 
2299 1968 2002 1969 16342 14431 16343 16347 14206 14432 
1969 2002 2300 2003 14432 16348 16349 14438 14440 16350 
2266 2300 2267 1969 16351 16352 16126 16116 16349 16121 
1969 2002 2299 2300 14432 16343 16347 16349 16348 16353 
2266 2300 1969 2299 16351 16349 16116 16345 16353 16347 
2267 1969 2300 1970 16121 16349 16352 16123 14213 16354 
2300 1969 2003 1970 16349 14438 16350 16354 14213 14439 
1970 2003 2301 2004 14439 16355 16356 14445 14447 16357 
2267 2301 2268 1970 16358 16359 16133 16123 16356 16128 
1970 2003 2300 2301 14439 16350 16354 16356 16355 16360 
2267 2301 1970 2300 16358 16356 16123 16352 16360 16354 
2268 1970 2301 1971 16128 16356 16359 16130 14220 16361 
2301 1970 2004 1971 16356 14445 16357 16361 14220 14446 
1971 2004 2302 2005 14446 16362 16363 14452 14454 16364 
2268 2302 2269 1971 16365 16366 16140 16130 16363 16135 
1971 2004 2301 2302 14446 16357 16361 16363 16362 16367 
2268 2302 1971 2301 16365 16363 16130 16359 16367 16361 
2269 1971 2302 1972 16135 16363 16366 16137 14227 16368 
2302 1971 2005 1972 16363 14452 16364 16368 14227 14453 
1972 2005 2303 2006 14453 16369 16370 14459 14461 16371 
2269 2303 2270 1972 16372 16373 16147 16137 16370 16142 
1972 2005 2302 2303 14453 16364 16368 16370 16369 16374 
2269 2303 1972 2302 16372 16370 16137 16366 16374 16368 
2270 1972 2303 1973 16142 16370 16373 16144 14234 16375 
2303 1972 2006 1973 16370 14459 16371 16375 14234 14460 
1973 2006 2304 2007 14460 16376 16377 14466 14468 16378 
2270 2304 2271 1973 16379 16380 16154 16144 16377 16149 
1973 2006 2303 2304 14460 16371 16375 16377 16376 16381 
2270 2304 1973 2303 16379 16377 16144 16373 16381 16375 
2271 1973 2304 1974 16149 16377 16380 16151 14241 16382 
2304 1973 2007 1974 16377 14466 16378 16382 14241 14467 
1974 2007 2305 2008 14467 16383 16384 14473 14475 16385 
2271 2305 2272 1974 16386 16387 16161 16151 16384 16156 
1974 2007 2304 2305 14467 16378 16382 16384 16383 16388 
2271 2305 1974 2304 16386 16384 16151 16380 16388 16382 
2272 1974 2305 1975 16156 16384 16387 16158 14248 16389 
2305 1974 2008 1975 16384 14473 16385 16389 14248 14474 
1975 2008 2306 2009 14474 16390 16391 14480 14482 16392 
2272 2306 2273 1975 16393 16394 16168 16158 16391 16163 
1975 2008 2305 2306 14474 16385 16389 16391 16390 16395 
2272 2306 1975 2305 16393 16391 16158 16387 16395 16389 
2273 1975 2306 1976 16163 16391 16394 16165 14255 16396 
2306 1975 2009 1976 16391 14480 16392 16396 14255 14481 
1976 2009 2307 2010 14481 16397 16398 14487 14489 16399 
2273 2307 2274 1976 16400 16401 16175 16165 16398 16170 
1976 2009 2306 2307 14481 16392 16396 16398 16397 16402 
2273 2307 1976 2306 16400 16398 16165 16394 16402 16396 
2274 1976 2307 1977 16170 16398 16401 16172 14262 16403 
2307 1976 2010 1977 16398 14487 16399 16403 14262 14488 
1977 2010 2308 2011 14488 16404 16405 14494 14496 16406 
2274 2308 2275 1977 16407 16408 16182 16172 16405 16177 
1977 2010 2307 2308 14488 16399 16403 16405 16404 16409 
2274 2308 1977 2307 16407 16405 16172 16401 16409 16403 
2275 1977 2308 1978 16177 16405 16408 16179 14269 16410 
2308 1977 2011 1978 16405 14494 16406 16410 14269 14495 
1978 2011 2309 2012 14495 16411 16412 14501 14503 16413 
2275 2309 2276 1978 16414 16415 16189 16179 16412 16184 
1978 2011 2308 2309 14495 16406 16410 16412 16411 16416 
2275 2309 1978 2308 16414 16412 16179 16408 16416 16410 
2276 1978 2309 1979 16184 16412 16415 16186 14276 16417 
2309 1978 2012 1979 16412 14501 16413 16417 14276 14502 
1980 2013 2311 2014 14513 16418 16419 14508 14512 16420 
2277 2311 2278 1980 16421 16422 16198 16196 16419 16191 
1980 2013 2310 2311 14513 16423 16424 16419 16418 16425 
2277 2311 1980 2310 16421 16419 16196 16426 16425 16424 
2278 1980 2311 1981 16191 16419 16422 16193 14285 16427 
2311 1980 2014 1981 16419 14508 16420 16427 14285 14509 
1981 2014 2312 2015 14509 16428 16429 14518 14520 16430 
2278 2312 2279 1981 16431 16432 16206 16193 16429 16201 
1981 2014 2311 2312 14509 16420 16427 16429 16428 16433 
2278 2312 1981 2311 16431 16429 16193 16422 16433 16427 
2279 1981 2312 1982 16201 16429 16432 16203 14293 16434 
2312 1981 2015 1982 16429 14518 16430 16434 14293 14519 
1982 2015 2313 2016 14519 16435 16436 14525 14527 16437 
2279 2313 2280 1982 16438 16439 16213 16203 16436 16208 
1982 2015 2312 2313 14519 16430 16434 16436 16435 16440 
2279 2313 1982 2312 16438 16436 16203 16432 16440 16434 
2280 1982 2313 1983 16208 16436 16439 16210 14300 16441 
2313 1982 2016 1983 16436 14525 16437 16441 14300 14526 
1983 2016 2314 2017 14526 16442 16443 14532 14534 16444 
2280 2314 2281 1983 16445 16446 16220 16210 16443 16215 
1983 2016 2313 2314 14526 16437 16441 16443 16442 16447 
2280 2314 1983 2313 16445 16443 16210 16439 16447 16441 
2281 1983 2314 1984 16215 16443 16446 16217 14307 16448 
2314 1983 2017 1984 16443 14532 16444 16448 14307 14533 
1984 2017 2315 2018 14533 16449 16450 14539 14541 16451 
2281 2315 2282 1984 16452 16453 16227 16217 16450 16222 
1984 2017 2314 2315 14533 16444 16448 16450 16449 16454 
2281 2315 1984 2314 16452 16450 16217 16446 16454 16448 
2282 1984 2315 1985 16222 16450 16453 16224 14314 16455 
2315 1984 2018 1985 16450 14539 16451 16455 14314 14540 
1985 2018 2316 2019 14540 16456 16457 14546 14548 16458 
2282 2316 2283 1985 16459 16460 16234 16224 16457 16229 
1985 2018 2315 2316 14540 16451 16455 16457 16456 16461 
2282 2316 1985 2315 16459 16457 16224 16453 16461 16455 
2283 1985 2316 1986 16229 16457 16460 16231 14321 16462 
2316 1985 2019 1986 16457 14546 16458 16462 14321 14547 
1986 2019 2317 2020 14547 16463 16464 14553 14555 16465 
2283 2317 2284 1986 16466 16467 16241 16231 16464 16236 
1986 2019 2316 2317 14547 16458 16462 16464 16463 16468 
2283 2317 1986 2316 16466 16464 16231 16460 16468 16462 
2284 1986 2317 1987 16236 16464 16467 16238 14328 16469 
2317 1986 2020 1987 16464 14553 16465 16469 14328 14554 
1987 2020 2318 2021 14554 16470 16471 14560 14562 16472 
2284 2318 2285 1987 16473 16474 16248 16238 16471 16243 
1987 2020 2317 2318 14554 16465 16469 16471 16470 16475 
2284 2318 1987 2317 16473 16471 16238 16467 16475 16469 
2285 1987 2318 1988 16243 16471 16474 16245 14335 16476 
2318 1987 2021 1988 16471 14560 16472 16476 14335 14561 
1988 2021 2319 2022 14561 16477 16478 14567 14569 16479 
2285 2319 2286 1988 16480 16481 16255 16245 16478 16250 
1988 2021 2318 2319 14561 16472 16476 16478 16477 16482 
2285 2319 1988 2318 16480 16478 16245 16474 16482 16476 
2286 1988 2319 1989 16250 16478 16481 16252 14342 16483 
2319 1988 2022 1989 16478 14567 16479 16483 14342 14568 
1989 2022 2320 2023 14568 16484 16485 14574 14576 16486 
2286 2320 2287 1989 16487 16488 16262 16252 16485 16257 
1989 2022 2319 2320 14568 16479 16483 16485 16484 16489 
2286 2320 1989 2319 16487 16485 16252 16481 16489 16483 
2287 1989 2320 1990 16257 16485 16488 16259 14349 16490 
2320 1989 2023 1990 16485 14574 16486 16490 14349 14575 
1990 2023 2321 2024 14575 16491 16492 14581 14583 16493 
2287 2321 2288 1990 16494 16495 16269 16259 16492 16264 
1990 2023 2320 2321 14575 16486 16490 16492 16491 16496 
2287 2321 1990 2320 16494 16492 16259 16488 16496 16490 
2288 1990 2321 1991 16264 16492 16495 16266 14356 16497 
2321 1990 2024 1991 16492 14581 16493 16497 14356 14582 
1991 2024 2322 2025 14582 16498 16499 14588 14590 16500 
2288 2322 2289 1991 16501 16502 16276 16266 16499 16271 
1991 2024 2321 2322 14582 16493 16497 16499 16498 16503 
2288 2322 1991 2321 16501 16499 16266 16495 16503 16497 
2289 1991 2322 1992 16271 16499 16502 16273 14363 16504 
2322 1991 2025 1992 16499 14588 16500 16504 14363 14589 
1992 2025 2323 2026 14589 16505 16506 14595 14597 16507 
2289 2323 2290 1992 16508 16509 16283 16273 16506 16278 
1992 2025 2322 2323 14589 16500 16504 16506 16505 16510 
2289 2323 1992 2322 16508 16506 16273 16502 16510 16504 
2290 1992 2323 1993 16278 16506 16509 16280 14370 16511 
2323 1992 2026 1993 16506 14595 16507 16511 14370 14596 
1993 2026 2324 2027 14596 16512 16513 14602 14604 16514 
2290 2324 2291 1993 16515 16516 16290 16280 16513 16285 
1993 2026 2323 2324 14596 16507 16511 16513 16512 16517 
2290 2324 1993 2323 16515 16513 16280 16509 16517 16511 
2291 1993 2324 1994 16285 16513 16516 16287 14377 16518 
2324 1993 2027 1994 16513 14602 16514 16518 14377 14603 
1994 2027 2325 2028 14603 16519 16520 14609 14611 16521 
2291 2325 2292 1994 16522 16523 16297 16287 16520 16292 
1994 2027 2324 2325 14603 16514 16518 16520 16519 16524 
2291 2325 1994 2324 16522 16520 16287 16516 16524 16518 
2292 1994 2325 1995 16292 16520 16523 16294 14384 16525 
2325 1994 2028 1995 16520 14609 16521 16525 14384 14610 
1995 2028 2326 2029 14610 16526 16527 14616 14618 16528 
2292 2326 2293 1995 16529 16530 16304 16294 16527 16299 
1995 2028 2325 2326 14610 16521 16525 16527 16526 16531 
2292 2326 1995 2325 16529 16527 16294 16523 16531 16525 
2293 1995 2326 1996 16299 16527 16530 16301 14391 16532 
2326 1995 2029 1996 16527 14616 16528 16532 14391 14617 
1996 2029 2327 2030 14617 16533 16534 14623 14625 16535 
2293 2327 2294 1996 16536 16537 16311 16301 16534 16306 
1996 2029 2326 2327 14617 16528 16532 16534 16533 16538 
2293 2327 1996 2326 16536 16534 16301 16530 16538 16532 
2294 1996 2327 1997 16306 16534 16537 16308 14398 16539 
2327 1996 2030 1997 16534 14623 16535 16539 14398 14624 
1997 2030 2328 2031 14624 16540 16541 14630 14632 16542 
2294 2328 2295 1997 16543 16544 16318 16308 16541 16313 
1997 2030 2327 2328 14624 16535 16539 16541 16540 16545 
2294 2328 1997 2327 16543 16541 16308 16537 16545 16539 
2295 1997 2328 1998 16313 16541 16544 16315 14405 16546 
2328 1997 2031 1998 16541 14630 16542 16546 14405 14631 
1998 2031 2329 2032 14631 16547 16548 14637 14639 16549 
2295 2329 2296 1998 16550 16551 16325 16315 16548 16320 
1998 2031 2328 2329 14631 16542 16546 16548 16547 16552 
2295 2329 1998 2328 16550 16548 16315 16544 16552 16546 
2296 1998 2329 1999 16320 16548 16551 16322 14412 16553 
2329 1998 2032 1999 16548 14637 16549 16553 14412 14638 
1999 2032 2330 2033 14638 16554 16555 14644 14646 16556 
2296 2330 2297 1999 16557 16558 16332 16322 16555 16327 
1999 2032 2329 2330 14638 16549 16553 16555 16554 16559 
2296 2330 1999 2329 16557 16555 16322 16551 16559 16553 
2297 1999 2330 2000 16327 16555 16558 16329 14419 16560 
2330 1999 2033 2000 16555 14644 16556 16560 14419 14645 
2000 2033 2331 2034 14645 16561 16562 14651 14653 16563 
2297 2331 2298 2000 16564 16565 16339 16329 16562 16334 
2000 2033 2330 2331 14645 16556 16560 16562 16561 16566 
2297 2331 2000 2330 16564 16562 16329 16558 16566 16560 
2298 2000 2331 2001 16334 16562 16565 16336 14426 16567 
2331 2000 2034 2001 16562 14651 16563 16567 14426 14652 
2001 2034 2332 2035 14652 16568 16569 14658 14660 16570 
2298 2332 2299 2001 16571 16572 16346 16336 16569 16341 
2001 2034 2331 2332 14652 16563 16567 16569 16568 16573 
2298 2332 2001 2331 16571 16569 16336 16565 16573 16567 
2299 2001 2332 2002 16341 16569 16572 16343 14433 16574 
2332 2001 2035 2002 16569 14658 16570 16574 14433 14659 
2002 2035 2333 2036 14659 16575 16576 14665 14667 16577 
2299 2333 2300 2002 16578 16579 16353 16343 16576 16348 
2002 2035 2332 2333 14659 16570 16574 16576 16575 16580 
2299 2333 2002 2332 16578 16576 16343 16572 16580 16574 
2300 2002 2333 2003 16348 16576 16579 16350 14440 16581 
2333 2002 2036 2003 16576 14665 16577 16581 14440 14666 
2003 2036 2334 2037 14666 16582 16583 14672 14674 16584 
2300 2334 2301 2003 16585 16586 16360 16350 16583 16355 
2003 2036 2333 2334 14666 16577 16581 16583 16582 16587 
2300 2334 2003 2333 16585 16583 16350 16579 16587 16581 
2301 2003 2334 2004 16355 16583 16586 16357 14447 16588 
2334 2003 2037 2004 16583 14672 16584 16588 14447 14673 
2004 2037 2335 2038 14673 16589 16590 14679 14681 16591 
2301 2335 2302 2004 16592 16593 16367 16357 16590 16362 
2004 2037 2334 2335 14673 16584 16588 16590 16589 16594 
2301 2335 2004 2334 16592 16590 16357 16586 16594 16588 
2302 2004 2335 2005 16362 16590 16593 16364 14454 16595 
2335 2004 2038 2005 16590 14679 16591 16595 14454 14680 
2005 2038 2336 2039 14680 16596 16597 14686 14688 16598 
2302 2336 2303 2005 16599 16600 16374 16364 16597 16369 
2005 2038 2335 2336 14680 16591 16595 16597 16596 16601 
2302 2336 2005 2335 16599 16597 16364 16593 16601 16595 
2303 2005 2336 2006 16369 16597 16600 16371 14461 16602 
2336 2005 2039 2006 16597 14686 16598 16602 14461 14687 
2006 2039 2337 2040 14687 16603 16604 14693 14695 16605 
2303 2337 2304 2006 16606 16607 16381 16371 16604 16376 
2006 2039 2336 2337 14687 16598 16602 16604 16603 16608 
2303 2337 2006 2336 16606 16604 16371 16600 16608 16602 
2304 2006 2337 2007 16376 16604 16607 16378 14468 16609 
2337 2006 2040 2007 16604 14693 16605 16609 14468 14694 
2007 2040 2338 2041 14694 16610 16611 14700 14702 16612 
2304 2338 2305 2007 16613 16614 16388 16378 16611 16383 
2007 2040 2337 2338 14694 16605 16609 16611 16610 16615 
2304 2338 2007 2337 16613 16611 16378 16607 16615 16609 
2305 2007 2338 2008 16383 16611 16614 16385 14475 16616 
2338 2007 2041 2008 16611 14700 16612 16616 14475 14701 
2008 2041 2339 2042 14701 16617 16618 14707 14709 16619 
2305 2339 2306 2008 16620 16621 16395 16385 16618 16390 
2008 2041 2338 2339 14701 16612 16616 16618 16617 16622 
2305 2339 2008 2338 16620 16618 16385 16614 16622 16616 
2306 2008 2339 2009 16390 16618 16621 16392 14482 16623 
2339 2008 2042 2009 16618 14707 16619 16623 14482 14708 
2009 2042 2340 2043 14708 16624 16625 14714 14716 16626 
2306 2340 2307 2009 16627 16628 16402 16392 16625 16397 
2009 2042 2339 2340 14708 16619 16623 16625 16624 16629 
2306 2340 2009 2339 16627 16625 16392 16621 16629 16623 
2307 2009 2340 2010 16397 16625 16628 16399 14489 16630 
2340 2009 2043 2010 16625 14714 16626 16630 14489 14715 
2010 2043 2341 2044 14715 16631 16632 14721 14723 16633 
2307 2341 2308 2010 16634 16635 16409 16399 16632 16404 
2010 2043 2340 2341 14715 16626 16630 16632 16631 16636 
2307 2341 2010 2340 16634 16632 16399 16628 16636 16630 
2308 2010 2341 2011 16404 16632 16635 16406 14496 16637 
2341 2010 2044 2011 16632 14721 16633 16637 14496 14722 
2011 2044 2342 2045 14722 16638 16639 14728 14730 16640 
2308 2342 2309 2011 16641 16642 16416 16406 16639 16411 
2011 2044 2341 2342 14722 16633 16637 16639 16638 16643 
2308 2342 2011 2341 16641 16639 16406 16635 16643 16637 
2309 2011 2342 2012 16411 16639 16642 16413 14503 16644 
2342 2011 2045 2012 16639 14728 16640 16644 14503 14729 
2013 2046 2344 2047 14740 16645 16646 14735 14739 16647 
2310 2344 2311 2013 16648 16649 16425 16423 16646 16418 
2013 2046 2343 2344 14740 16650 16651 16646 16645 16652 
2310 2344 2013 2343 16648 16646 16423 16653 16652 16651 
2311 2013 2344 2014 16418 16646 16649 16420 14512 16654 
2344 2013 2047 2014 16646 14735 16647 16654 14512 14736 
2014 2047 2345 2048 14736 16655 16656 14745 14747 16657 
2311 2345 2312 2014 16658 16659 16433 16420 16656 16428 
2014 2047 2344 2345 14736 16647 16654 16656 16655 16660 
2311 2345 2014 2344 16658 16656 16420 16649 16660 16654 
2312 2014 2345 2015 16428 16656 16659 16430 14520 16661 
2345 2014 2048 2015 16656 14745 16657 16661 14520 14746 
2015 2048 2346 2049 14746 16662 16663 14752 14754 16664 
2312 2346 2313 2015 16665 16666 16440 16430 16663 16435 
2015 2048 2345 2346 14746 16657 16661 16663 16662 16667 
2312 2346 2015 2345 16665 16663 16430 16659 16667 16661 
2313 2015 2346 2016 16435 16663 16666 16437 14527 16668 
2346 2015 2049 2016 16663 14752 16664 16668 14527 14753 
2016 2049 2347 2050 14753 16669 16670 14759 14761 16671 
2313 2347 2314 2016 16672 16673 16447 16437 16670 16442 
2016 2049 2346 2347 14753 16664 16668 16670 16669 16674 
2313 2347 2016 2346 16672 16670 16437 16666 16674 16668 
2314 2016 2347 2017 16442 16670 16673 16444 14534 16675 
2347 2016 2050 2017 16670 14759 16671 16675 14534 14760 
2017 2050 2348 2051 14760 16676 16677 14766 14768 16678 
2314 2348 2315 2017 16679 16680 16454 16444 16677 16449 
2017 2050 2347 2348 14760 16671 16675 16677 16676 16681 
2314 2348 2017 2347 16679 16677 16444 16673 16681 16675 
2315 2017 2348 2018 16449 16677 16680 16451 14541 16682 
2348 2017 2051 2018 16677 14766 16678 16682 14541 14767 
2018 2051 2349 2052 14767 16683 16684 14773 14775 16685 
2315 2349 2316 2018 16686 16687 16461 16451 16684 16456 
2018 2051 2348 2349 14767 16678 16682 16684 16683 16688 
2315 2349 2018 2348 16686 16684 16451 16680 16688 16682 
2316 2018 2349 2019 16456 16684 16687 16458 14548 16689 
2349 2018 2052 2019 16684 14773 16685 16689 14548 14774 
2019 2052 2350 2053 14774 16690 16691 14780 14782 16692 
2316 2350 2317 2019 16693 16694 16468 16458 16691 16463 
2019 2052 2349 2350 14774 16685 16689 16691 16690 16695 
2316 2350 2019 2349 16693 16691 16458 16687 16695 16689 
2317 2019 2350 2020 16463 16691 16694 16465 14555 16696 
2350 2019 2053 2020 16691 14780 16692 16696 14555 14781 
2020 2053 2351 2054 14781 16697 16698 14787 14789 16699 
2317 2351 2318 2020 16700 16701 16475 16465 16698 16470 
2020 2053 2350 2351 14781 16692 16696 16698 16697 16702 
2317 2351 2020 2350 16700 16698 16465 16694 16702 16696 
2318 2020 2351 2021 16470 16698 16701 16472 14562 16703 
2351 2020 2054 2021 16698 14787 16699 16703 14562 14788 
2021 2054 2352 2055 14788 16704 16705 14794 14796 16706 
2318 2352 2319 2021 16707 16708 16482 16472 16705 16477 
2021 2054 2351 2352 14788 16699 16703 16705 16704 16709 
2318 2352 2021 2351 16707 16705 16472 16701 16709 16703 
2319 2021 2352 2022 16477 16705 16708 16479 14569 16710 
2352 2021 2055 2022 16705 14794 16706 16710 14569 14795 
2022 2055 2353 2056 14795 16711 16712 14801 14803 16713 
2319 2353 2320 2022 16714 16715 16489 16479 16712 16484 
2022 2055 2352 2353 14795 16706 16710 16712 16711 16716 
2319 2353 2022 2352 16714 16712 16479 16708 16716 16710 
2320 2022 2353 2023 16484 16712 16715 16486 14576 16717 
2353 2022 2056 2023 16712 14801 16713 16717 14576 14802 
2023 2056 2354 2057 14802 16718 16719 14808 14810 16720 
2320 2354 2321 2023 16721 16722 16496 16486 16719 16491 
2023 2056 2353 2354 14802 16713 16717 16719 16718 16723 
2320 2354 2023 2353 16721 16719 16486 16715 16723 16717 
2321 2023 2354 2024 16491 16719 16722 16493 14583 16724 
2354 2023 2057 2024 16719 14808 16720 16724 14583 14809 
2024 2057 2355 2058 14809 16725 16726 14815 14817 16727 
2321 2355 2322 2024 16728 16729 16503 16493 16726 16498 
2024 2057 2354 2355 14809 16720 16724 16726 16725 16730 
2321 2355 2024 2354 16728 16726 16493 16722 16730 16724 
2322 2024 2355 2025 16498 16726 16729 16500 14590 16731 
2355 2024 2058 2025 16726 14815 16727 16731 14590 14816 
2025 2058 2356 2059 14816 16732 16733 14822 14824 16734 
2322 2356 2323 2025 16735 16736 16510 16500 16733 16505 
2025 2058 2355 2356 14816 16727 16731 16733 16732 16737 
2322 2356 2025 2355 16735 16733 16500 16729 16737 16731 
2323 2025 2356 2026 16505 16733 16736 16507 14597 16738 
2356 2025 2059 2026 16733 14822 16734 16738 14597 14823 
2026 2059 2357 2060 14823 16739 16740 14829 14831 16741 
2323 2357 2324 2026 16742 16743 16517 16507 16740 16512 
2026 2059 2356 2357 14823 16734 16738 16740 16739 16744 
2323 2357 2026 2356 16742 16740 16507 16736 16744 16738 
2324 2026 2357 2027 16512 16740 16743 16514 14604 16745 
2357 2026 2060 2027 16740 14829 16741 16745 14604 14830 
2027 2060 2358 2061 14830 16746 16747 14836 14838 16748 
2324 2358 2325 2027 16749 16750 16524 16514 16747 16519 
2027 2060 2357 2358 14830 16741 16745 16747 16746 16751 
2324 2358 2027 2357 16749 16747 16514 16743 16751 16745 
2325 2027 2358 2028 16519 16747 16750 16521 14611 16752 
2358 2027 2061 2028 16747 14836 16748 16752 14611 14837 
2028 2061 2359 2062 14837 16753 16754 14843 14845 16755 
2325 2359 2326 2028 16756 16757 16531 16521 16754 16526 
2028 2061 2358 2359 14837 16748 16752 16754 16753 16758 
2325 2359 2028 2358 16756 16754 16521 16750 16758 16752 
2326 2028 2359 2029 16526 16754 16757 16528 14618 16759 
2359 2028 2062 2029 16754 14843 16755 16759 14618 14844 
2029 2062 2360 2063 14844 16760 16761 14850 14852 16762 
2326 2360 2327 2029 16763 16764 16538 16528 16761 16533 
2029 2062 2359 2360 14844 16755 16759 16761 16760 16765 
2326 2360 2029 2359 16763 16761 16528 16757 16765 16759 
2327 2029 2360 2030 16533 16761 16764 16535 14625 16766 
2360 2029 2063 2030 16761 14850 16762 16766 14625 14851 
2030 2063 2361 2064 14851 16767 16768 14857 14859 16769 
2327 2361 2328 2030 16770 16771 16545 16535 16768 16540 
2030 2063 2360 2361 14851 16762 16766 16768 16767 16772 
2327 2361 2030 2360 16770 16768 16535 16764 16772 16766 
2328 2030 2361 2031 16540 16768 16771 16542 14632 16773 
2361 2030 2064 2031 16768 14857 16769 16773 14632 14858 
2031 2064 2362 2065 14858 16774 16775 14864 14866 16776 
2328 2362 2329 2031 16777 16778 16552 16542 16775 16547 
2031 2064 2361 2362 14858 16769 16773 16775 16774 16779 
2328 2362 2031 2361 16777 16775 16542 16771 16779 16773 
2329 2031 2362 2032 16547 16775 16778 16549 14639 16780 
2362 2031 2065 2032 16775 14864 16776 16780 14639 14865 
2032 2065 2363 2066 14865 16781 16782 14871 14873 16783 
2329 2363 2330 2032 16784 16785 16559 16549 16782 16554 
2032 2065 2362 2363 14865 16776 16780 16782 16781 16786 
2329 2363 2032 2362 16784 16782 16549 16778 16786 16780 
2330 2032 2363 2033 16554 16782 16785 16556 14646 16787 
2363 2032 2066 2033 16782 14871 16783 16787 14646 14872 
2033 2066 2364 2067 14872 16788 16789 14878 14880 16790 
2330 2364 2331 2033 16791 16792 16566 16556 16789 16561 
2033 2066 2363 2364 14872 16783 16787 16789 16788 16793 
2330 2364 2033 2363 16791 16789 16556 16785 16793 16787 
2331 2033 2364 2034 16561 16789 16792 16563 14653 16794 
2364 2033 2067 2034 16789 14878 16790 16794 14653 14879 
2034 2067 2365 2068 14879 16795 16796 14885 14887 16797 
2331 2365 2332 2034 16798 16799 16573 16563 16796 16568 
2034 2067 2364 2365 14879 16790 16794 16796 16795 16800 
2331 2365 2034 2364 16798 16796 16563 16792 16800 16794 
2332 2034 2365 2035 16568 16796 16799 16570 14660 16801 
2365 2034 2068 2035 16796 14885 16797 16801 14660 14886 
2035 2068 2366 2069 14886 16802 16803 14892 14894 16804 
2332 2366 2333 2035 16805 16806 16580 16570 16803 16575 
2035 2068 2365 2366 14886 16797 16801 16803 16802 16807 
2332 2366 2035 2365 16805 16803 16570 16799 16807 16801 
2333 2035 2366 2036 16575 16803 16806 16577 14667 16808 
2366 2035 2069 2036 16803 14892 16804 16808 14667 14893 
2036 2069 2367 2070 14893 16809 16810 14899 14901 16811 
2333 2367 2334 2036 16812 16813 16587 16577 16810 16582 
2036 2069 2366 2367 14893 16804 16808 16810 16809 16814 
2333 2367 2036 2366 16812 16810 16577 16806 16814 16808 
2334 2036 2367 2037 16582 16810 16813 16584 14674 16815 
2367 2036 2070 2037 16810 14899 16811 16815 14674 14900 
2037 2070 2368 2071 14900 16816 16817 14906 14908 16818 
2334 2368 2335 2037 16819 16820 16594 16584 16817 16589 
2037 2070 2367 2368 14900 16811 16815 16817 16816 16821 
2334 2368 2037 2367 16819 16817 16584 16813 16821 16815 
2335 2037 2368 2038 16589 16817 16820 16591 14681 16822 
2368 2037 2071 2038 16817 14906 16818 16822 14681 14907 
2038 2071 2369 2072 14907 16823 16824 14913 14915 16825 
2335 2369 2336 2038 16826 16827 16601 16591 16824 16596 
2038 2071 2368 2369 14907 16818 16822 16824 16823 16828 
2335 2369 2038 2368 16826 16824 16591 16820 16828 16822 
2336 2038 2369 2039 16596 16824 16827 16598 14688 16829 
2369 2038 2072 2039 16824 14913 16825 16829 14688 14914 
2039 2072 2370 2073 14914 16830 16831 14920 14922 16832 
2336 2370 2337 2039 16833 16834 16608 16598 16831 16603 
2039 2072 2369 2370 14914 16825 16829 16831 16830 16835 
2336 2370 2039 2369 16833 16831 16598 16827 16835 16829 
2337 2039 2370 2040 16603 16831 16834 16605 14695 16836 
2370 2039 2073 2040 16831 14920 16832 16836 14695 14921 
2040 2073 2371 2074 14921 16837 16838 14927 14929 16839 
2337 2371 2338 2040 16840 16841 16615 16605 16838 16610 
2040 2073 2370 2371 14921 16832 16836 16838 16837 16842 
2337 2371 2040 2370 16840 16838 16605 16834 16842 16836 
2338 2040 2371 2041 16610 16838 16841 16612 14702 16843 
2371 2040 2074 2041 16838 14927 16839 16843 14702 14928 
2041 2074 2372 2075 14928 16844 16845 14934 14936 16846 
2338 2372 2339 2041 16847 16848 16622 16612 16845 16617 
2041 2074 2371 2372 14928 16839 16843 16845 16844 16849 
2338 2372 2041 2371 16847 16845 16612 16841 16849 16843 
2339 2041 2372 2042 16617 16845 16848 16619 14709 16850 
2372 2041 2075 2042 16845 14934 16846 16850 14709 14935 
2042 2075 2373 2076 14935 16851 16852 14941 14943 16853 
2339 2373 2340 2042 16854 16855 16629 16619 16852 16624 
2042 2075 2372 2373 14935 16846 16850 16852 16851 16856 
2339 2373 2042 2372 16854 16852 16619 16848 16856 16850 
2340 2042 2373 2043 16624 16852 16855 16626 14716 16857 
2373 2042 2076 2043 16852 14941 16853 16857 14716 14942 
2043 2076 2374 2077 14942 16858 16859 14948 14950 16860 
2340 2374 2341 2043 16861 16862 16636 16626 16859 16631 
2043 2076 2373 2374 14942 16853 16857 16859 16858 16863 
2340 2374 2043 2373 16861 16859 16626 16855 16863 16857 
2341 2043 2374 2044 16631 16859 16862 16633 14723 16864 
2374 2043 2077 2044 16859 14948 16860 16864 14723 14949 
2044 2077 2375 2078 14949 16865 16866 14955 14957 16867 
2341 2375 2342 2044 16868 16869 16643 16633 16866 16638 
2044 2077 2374 2375 14949 16860 16864 16866 16865 16870 
2341 2375 2044 2374 16868 16866 16633 16862 16870 16864 
2342 2044 2375 2045 16638 16866 16869 16640 14730 16871 
2375 2044 2078 2045 16866 14955 16867 16871 14730 14956 
2079 2112 2410 2113 14970 16872 16873 14962 14969 16874 
2376 2410 2377 2079 16875 16876 16877 16878 16873 16879 
2079 2112 2409 2410 14970 16880 16881 16873 16872 16882 
2376 2410 2079 2409 16875 16873 16878 16883 16882 16881 
2377 2079 2410 2080 16879 16873 16876 16884 14964 16885 
2410 2079 2113 2080 16873 14962 16874 16885 14964 14963 
2080 2113 2411 2114 14963 16886 16887 14976 14980 16888 
2377 2411 2378 2080 16889 16890 16891 16884 16887 16892 
2080 2113 2410 2411 14963 16874 16885 16887 16886 16893 
2377 2411 2080 2410 16889 16887 16884 16876 16893 16885 
2378 2080 2411 2081 16892 16887 16890 16894 14978 16895 
2411 2080 2114 2081 16887 14976 16888 16895 14978 14977 
2081 2114 2412 2115 14977 16896 16897 14986 14990 16898 
2378 2412 2379 2081 16899 16900 16901 16894 16897 16902 
2081 2114 2411 2412 14977 16888 16895 16897 16896 16903 
2378 2412 2081 2411 16899 16897 16894 16890 16903 16895 
2379 2081 2412 2082 16902 16897 16900 16904 14988 16905 
2412 2081 2115 2082 16897 14986 16898 16905 14988 14987 
2082 2115 2413 2116 14987 16906 16907 14996 15000 16908 
2379 2413 2380 2082 16909 16910 16911 16904 16907 16912 
2082 2115 2412 2413 14987 16898 16905 16907 16906 16913 
2379 2413 2082 2412 16909 16907 16904 16900 16913 16905 
2380 2082 2413 2083 16912 16907 16910 16914 14998 16915 
2413 2082 2116 2083 16907 14996 16908 16915 14998 14997 
2083 2116 2414 2117 14997 16916 16917 15006 15010 16918 
2380 2414 2381 2083 16919 16920 16921 16914 16917 16922 
2083 2116 2413 2414 14997 16908 16915 16917 16916 16923 
2380 2414 2083 2413 16919 16917 16914 16910 16923 16915 
2381 2083 2414 2084 16922 16917 16920 16924 15008 16925 
2414 2083 2117 2084 16917 15006 16918 16925 15008 15007 
2084 2117 2415 2118 15007 16926 16927 15016 15020 16928 
2381 2415 2382 2084 16929 16930 16931 16924 16927 16932 
2084 2117 2414 2415 15007 16918 16925 16927 16926 16933 
2381 2415 2084 2414 16929 16927 16924 16920 16933 16925 
2382 2084 2415 2085 16932 16927 16930 16934 15018 16935 
2415 2084 2118 2085 16927 15016 16928 16935 15018 15017 
2085 2118 2416 2119 15017 16936 16937 15026 15030 16938 
2382 2416 2383 2085 16939 16940 16941 16934 16937 16942 
2085 2118 2415 2416 15017 16928 16935 16937 16936 16943 
2382 2416 2085 2415 16939 16937 16934 16930 16943 16935 
2383 2085 2416 2086 16942 16937 16940 16944 15028 16945 
2416 2085 2119 2086 16937 15026 16938 16945 15028 15027 
2086 2119 2417 2120 15027 16946 16947 15036 15040 16948 
2383 2417 2384 2086 16949 16950 16951 16944 16947 16952 
2086 2119 2416 2417 15027 16938 16945 16947 16946 16953 
2383 2417 2086 2416 16949 16947 16944 16940 16953 16945 
2384 2086 2417 2087 16952 16947 16950 16954 15038 16955 
2417 2086 2120 2087 16947 15036 16948 16955 15038 15037 
2087 2120 2418 2121 15037 16956 16957 15046 15050 16958 
2384 2418 2385 2087 16959 16960 16961 16954 16957 16962 
2087 2120 2417 2418 15037 16948 16955 16957 16956 16963 
2384 2418 2087 2417 16959 16957 16954 16950 16963 16955 
2385 2087 2418 2088 16962 16957 16960 16964 15048 16965 
2418 2087 2121 2088 16957 15046 16958 16965 15048 15047 
2088 2121 2419 2122 15047 16966 16967 15056 15060 16968 
2385 2419 2386 2088 16969 16970 16971 16964 16967 16972 
2088 2121 2418 2419 15047 16958 16965 16967 16966 16973 
2385 2419 2088 2418 16969 16967 16964 16960 16973 16965 
2386 2088 2419 2089 16972 16967 16970 16974 15058 16975 
2419 2088 2122 2089 16967 15056 16968 16975 15058 15057 
2089 2122 2420 2123 15057 16976 16977 15066 15070 16978 
2386 2420 2387 2089 16979 16980 16981 16974 16977 16982 
2089 2122 2419 2420 15057 16968 16975 16977 16976 16983 
2386 2420 2089 2419 16979 16977 16974 16970 16983 16975 
2387 2089 2420 2090 16982 16977 16980 16984 15068 16985 
2420 2089 2123 2090 16977 15066 16978 16985 15068 15067 
2090 2123 2421 2124 15067 16986 16987 15076 15080 16988 
2387 2421 2388 2090 16989 16990 16991 16984 16987 16992 
2090 2123 2420 2421 15067 16978 16985 16987 16986 16993 
2387 2421 2090 2420 16989 16987 16984 16980 16993 16985 
2388 2090 2421 2091 16992 16987 16990 16994 15078 16995 
2421 2090 2124 2091 16987 15076 16988 16995 15078 15077 
2091 2124 2422 2125 15077 16996 16997 15086 15090 16998 
2388 2422 2389 2091 16999 17000 17001 16994 16997 17002 
2091 2124 2421 2422 15077 16988 16995 16997 16996 17003 
2388 2422 2091 2421 16999 16997 16994 16990 17003 16995 
2389 2091 2422 2092 17002 16997 17000 17004 15088 17005 
2422 2091 2125 2092 16997 15086 16998 17005 15088 15087 
2092 2125 2423 2126 15087 17006 17007 15096 15100 17008 
2389 2423 2390 2092 17009 17010 17011 17004 17007 17012 
2092 2125 2422 2423 15087 16998 17005 17007 17006 17013 
2389 2423 2092 2422 17009 17007 17004 17000 17013 17005 
2390 2092 2423 2093 17012 17007 17010 17014 15098 17015 
2423 2092 2126 2093 17007 15096 17008 17015 15098 15097 
2093 2126 2424 2127 15097 17016 17017 15106 15110 17018 
2390 2424 2391 2093 17019 17020 17021 17014 17017 17022 
2093 2126 2423 2424 15097 17008 17015 17017 17016 17023 
2390 2424 2093 2423 17019 17017 17014 17010 17023 17015 
2391 2093 2424 2094 17022 17017 17020 17024 15108 17025 
2424 2093 2127 2094 17017 15106 17018 17025 15108 15107 
2094 2127 2425 2128 15107 17026 17027 15116 15120 17028 
2391 2425 2392 2094 17029 17030 17031 17024 17027 17032 
2094 2127 2424 2425 15107 17018 17025 17027 17026 17033 
2391 2425 2094 2424 17029 17027 17024 17020 17033 17025 
2392 2094 2425 2095 17032 17027 17030 17034 15118 17035 
2425 2094 2128 2095 17027 15116 17028 17035 15118 15117 
2095 2128 2426 2129 15117 17036 17037 15126 15130 17038 
2392 2426 2393 2095 17039 17040 17041 17034 17037 17042 
2095 2128 2425 2426 15117 17028 17035 17037 17036 17043 
2392 2426 2095 2425 17039 17037 17034 17030 17043 17035 
2393 2095 2426 2096 17042 17037 17040 17044 15128 17045 
2426 2095 2129 2096 17037 15126 17038 17045 15128 15127 
2096 2129 2427 2130 15127 17046 17047 15136 15140 17048 
2393 2427 2394 2096 17049 17050 17051 17044 17047 17052 
2096 2129 2426 2427 15127 17038 17045 17047 17046 17053 
2393 2427 2096 2426 17049 17047 17044 17040 17053 17045 
2394 2096 2427 2097 17052 17047 17050 17054 15138 17055 
2427 2096 2130 2097 17047 15136 17048 17055 15138 15137 
2097 2130 2428 2131 15137 17056 17057 15146 15150 17058 
2394 2428 2395 2097 17059 17060 17061 17054 17057 17062 
2097 2130 2427 2428 15137 17048 17055 17057 17056 17063 
2394 2428 2097 2427 17059 17057 17054 17050 17063 17055 
2395 2097 2428 2098 17062 17057 17060 17064 15148 17065 
2428 2097 2131 2098 17057 15146 17058 17065 15148 15147 
2098 2131 2429 2132 15147 17066 17067 15156 15160 17068 
2395 2429 2396 2098 17069 17070 17071 17064 17067 17072 
2098 2131 2428 2429 15147 17058 17065 17067 17066 17073 
2395 2429 2098 2428 17069 17067 17064 17060 17073 17065 
2396 2098 2429 2099 17072 17067 17070 17074 15158 17075 
2429 2098 2132 2099 17067 15156 17068 17075 15158 15157 
2099 2132 2430 2133 15157 17076 17077 15166 15170 17078 
2396 2430 2397 2099 17079 17080 17081 17074 17077 17082 
2099 2132 2429 2430 15157 17068 17075 17077 17076 17083 
2396 2430 2099 2429 17079 17077 17074 17070 17083 17075 
2397 2099 2430 2100 17082 17077 17080 17084 15168 17085 
2430 2099 2133 2100 17077 15166 17078 17085 15168 15167 
2100 2133 2431 2134 15167 17086 17087 15176 15180 17088 
2397 2431 2398 2100 17089 17090 17091 17084 17087 17092 
2100 2133 2430 2431 15167 17078 17085 17087 17086 17093 
2397 2431 2100 2430 17089 17087 17084 17080 17093 17085 
2398 2100 2431 2101 17092 17087 17090 17094 15178 17095 
2431 2100 2134 2101 17087 15176 17088 17095 15178 15177 
2101 2134 2432 2135 15177 17096 17097 15186 15190 17098 
2398 2432 2399 2101 17099 17100 17101 17094 17097 17102 
2101 2134 2431 2432 15177 17088 17095 17097 17096 17103 
2398 2432 2101 2431 17099 17097 17094 17090 17103 17095 
2399 2101 2432 2102 17102 17097 17100 17104 15188 17105 
2432 2101 2135 2102 17097 15186 17098 17105 15188 15187 
2102 2135 2433 2136 15187 17106 17107 15196 15200 17108 
2399 2433 2400 2102 17109 17110 17111 17104 17107 17112 
2102 2135 2432 2433 15187 17098 17105 17107 17106 17113 
2399 2433 2102 2432 17109 17107 17104 17100 17113 17105 
2400 2102 2433 2103 17112 17107 17110 17114 15198 17115 
2433 2102 2136 2103 17107 15196 17108 17115 15198 15197 
2103 2136 2434 2137 15197 17116 17117 15206 15210 17118 
2400 2434 2401 2103 17119 17120 17121 17114 17117 17122 
2103 2136 2433 2434 15197 17108 17115 17117 17116 17123 
2400 2434 2103 2433 17119 17117 17114 17110 17123 17115 
2401 2103 2434 2104 17122 17117 17120 17124 15208 17125 
2434 2103 2137 2104 17117 15206 17118 17125 15208 15207 
2104 2137 2435 2138 15207 17126 17127 15216 15220 17128 
2401 2435 2402 2104 17129 17130 17131 17124 17127 17132 
2104 2137 2434 2435 15207 17118 17125 17127 17126 17133 
2401 2435 2104 2434 17129 17127 17124 17120 17133 17125 
2402 2104 2435 2105 17132 17127 17130 17134 15218 17135 
2435 2104 2138 2105 17127 15216 17128 17135 15218 15217 
2105 2138 2436 2139 15217 17136 17137 15226 15230 17138 
2402 2436 2403 2105 17139 17140 17141 17134 17137 17142 
2105 2138 2435 2436 15217 17128 17135 17137 17136 17143 
2402 2436 2105 2435 17139 17137 17134 17130 17143 17135 
2403 2105 2436 2106 17142 17137 17140 17144 15228 17145 
2436 2105 2139 2106 17137 15226 17138 17145 15228 15227 
2106 2139 2437 2140 15227 17146 17147 15236 15240 17148 
2403 2437 2404 2106 17149 17150 17151 17144 17147 17152 
2106 2139 2436 2437 15227 17138 17145 17147 17146 17153 
2403 2437 2106 2436 17149 17147 17144 17140 17153 17145 
2404 2106 2437 2107 17152 17147 17150 17154 15238 17155 
2437 2106 2140 2107 17147 15236 17148 17155 15238 15237 
2107 2140 2438 2141 15237 17156 17157 15246 15250 17158 
2404 2438 2405 2107 17159 17160 17161 17154 17157 17162 
2107 2140 2437 2438 15237 17148 17155 17157 17156 17163 
2404 2438 2107 2437 17159 17157 17154 17150 17163 17155 
2405 2107 2438 2108 17162 17157 17160 17164 15248 17165 
2438 2107 2141 2108 17157 15246 17158 17165 15248 15247 
2108 2141 2439 2142 15247 17166 17167 15256 15260 17168 
2405 2439 2406 2108 17169 17170 17171 17164 17167 17172 
2108 2141 2438 2439 15247 17158 17165 17167 17166 17173 
2405 2439 2108 2438 17169 17167 17164 17160 17173 17165 
2406 2108 2439 2109 17172 17167 17170 17174 15258 17175 
2439 2108 2142 2109 17167 15256 17168 17175 15258 15257 
2109 2142 2440 2143 15257 17176 17177 15266 15270 17178 
2406 2440 2407 2109 17179 17180 17181 17174 17177 17182 
2109 2142 2439 2440 15257 17168 17175 17177 17176 17183 
2406 2440 2109 2439 17179 17177 17174 17170 17183 17175 
2407 2109 2440 2110 17182 17177 17180 17184 15268 17185 
2440 2109 2143 2110 17177 15266 17178 17185 15268 15267 
2110 2143 2441 2144 15267 17186 17187 15276 15280 17188 
2407 2441 2408 2110 17189 17190 17191 17184 17187 17192 
2110 2143 2440 2441 15267 17178 17185 17187 17186 17193 
2407 2441 2110 2440 17189 17187 17184 17180 17193 17185 
2408 2110 2441 2111 17192 17187 17190 17194 15278 17195 
2441 2110 2144 2111 17187 15276 17188 17195 15278 15277 
2112 2145 2443 2146 15291 17196 17197 15286 15290 17198 
2409 2443 2410 2112 17199 17200 16882 16880 17197 16872 
2112 2145 2442 2443 15291 17201 17202 17197 17196 17203 
2409 2443 2112 2442 17199 17197 16880 17204 17203 17202 
2410 2112 2443 2113 16872 17197 17200 16874 14969 17205 
2443 2112 2146 2113 17197 15286 17198 17205 14969 15287 
2113 2146 2444 2147 15287 17206 17207 15296 15298 17208 
2410 2444 2411 2113 17209 17210 16893 16874 17207 16886 
2113 2146 2443 2444 15287 17198 17205 17207 17206 17211 
2410 2444 2113 2443 17209 17207 16874 17200 17211 17205 
2411 2113 2444 2114 16886 17207 17210 16888 14980 17212 
2444 2113 2147 2114 17207 15296 17208 17212 14980 15297 
2114 2147 2445 2148 15297 17213 17214 15303 15305 17215 
2411 2445 2412 2114 17216 17217 16903 16888 17214 16896 
2114 2147 2444 2445 15297 17208 17212 17214 17213 17218 
2411 2445 2114 2444 17216 17214 16888 17210 17218 17212 
2412 2114 2445 2115 16896 17214 17217 16898 14990 17219 
2445 2114 2148 2115 17214 15303 17215 17219 14990 15304 
2115 2148 2446 2149 15304 17220 17221 15310 15312 17222 
2412 2446 2413 2115 17223 17224 16913 16898 17221 16906 
2115 2148 2445 2446 15304 17215 17219 17221 17220 17225 
2412 2446 2115 2445 17223 17221 16898 17217 17225 17219 
2413 2115 2446 2116 16906 17221 17224 16908 15000 17226 
2446 2115 2149 2116 17221 15310 17222 17226 15000 15311 
2116 2149 2447 2150 15311 17227 17228 15317 15319 17229 
2413 2447 2414 2116 17230 17231 16923 16908 17228 16916 
2116 2149 2446 2447 15311 17222 17226 17228 17227 17232 
2413 2447 2116 2446 17230 17228 16908 17224 17232 17226 
2414 2116 2447 2117 16916 17228 17231 16918 15010 17233 
2447 2116 2150 2117 17228 15317 17229 17233 15010 15318 
2117 2150 2448 2151 15318 17234 17235 15324 15326 17236 
2414 2448 2415 2117 17237 17238 16933 16918 17235 16926 
2117 2150 2447 2448 15318 17229 17233 17235 17234 17239 
2414 2448 2117 2447 17237 17235 16918 17231 17239 17233 
2415 2117 2448 2118 16926 17235 17238 16928 15020 17240 
2448 2117 2151 2118 17235 15324 17236 17240 15020 15325 
2118 2151 2449 2152 15325 17241 17242 15331 15333 17243 
2415 2449 2416 2118 17244 17245 16943 16928 17242 16936 
2118 2151 2448 2449 15325 17236 17240 17242 17241 17246 
2415 2449 2118 2448 17244 17242 16928 17238 17246 17240 
2416 2118 2449 2119 16936 17242 17245 16938 15030 17247 
2449 2118 2152 2119 17242 15331 17243 17247 15030 15332 
2119 2152 2450 2153 15332 17248 17249 15338 15340 17250 
2416 2450 2417 2119 17251 17252 16953 16938 17249 16946 
2119 2152 2449 2450 15332 17243 17247 17249 17248 17253 
2416 2450 2119 2449 17251 17249 16938 17245 17253 17247 
2417 2119 2450 2120 16946 17249 17252 16948 15040 17254 
2450 2119 2153 2120 17249 15338 17250 17254 15040 15339 
2120 2153 2451 2154 15339 17255 17256 15345 15347 17257 
2417 2451 2418 2120 17258 17259 16963 16948 17256 16956 
2120 2153 2450 2451 15339 17250 17254 17256 17255 17260 
2417 2451 2120 2450 17258 17256 16948 17252 17260 17254 
2418 2120 2451 2121 16956 17256 17259 16958 15050 17261 
2451 2120 2154 2121 17256 15345 17257 17261 15050 15346 
2121 2154 2452 2155 15346 17262 17263 15352 15354 17264 
2418 2452 2419 2121 17265 17266 16973 16958 17263 16966 
2121 2154 2451 2452 15346 17257 17261 17263 17262 17267 
2418 2452 2121 2451 17265 17263 16958 17259 17267 17261 
2419 2121 2452 2122 16966 17263 17266 16968 15060 17268 
2452 2121 2155 2122 17263 15352 17264 17268 15060 15353 
2122 2155 2453 2156 15353 17269 17270 15359 15361 17271 
2419 2453 2420 2122 17272 17273 16983 16968 17270 16976 
2122 2155 2452 2453 15353 17264 17268 17270 17269 17274 
2419 2453 2122 2452 17272 17270 16968 17266 17274 17268 
2420 2122 2453 2123 16976 17270 17273 16978 15070 17275 
2453 2122 2156 2123 17270 15359 17271 17275 15070 15360 
2123 2156 2454 2157 15360 17276 17277 15366 15368 17278 
2420 2454 2421 2123 17279 17280 16993 16978 17277 16986 
2123 2156 2453 2454 15360 17271 17275 17277 17276 17281 
2420 2454 2123 2453 17279 17277 16978 17273 17281 17275 
2421 2123 2454 2124 16986 17277 17280 16988 15080 17282 
2454 2123 2157 2124 17277 15366 17278 17282 15080 15367 
2124 2157 2455 2158 15367 17283 17284 15373 15375 17285 
2421 2455 2422 2124 17286 17287 17003 16988 17284 16996 
2124 2157 2454 2455 15367 17278 17282 17284 17283 17288 
2421 2455 2124 2454 17286 17284 16988 17280 17288 17282 
2422 2124 2455 2125 16996 17284 17287 16998 15090 17289 
2455 2124 2158 2125 17284 15373 17285 17289 15090 15374 
2125 2158 2456 2159 15374 17290 17291 15380 15382 17292 
2422 2456 2423 2125 17293 17294 17013 16998 17291 17006 
2125 2158 2455 2456 15374 17285 17289 17291 17290 17295 
2422 2456 2125 2455 17293 17291 16998 17287 17295 17289 
2423 2125 2456 2126 17006 17291 17294 17008 15100 17296 
2456 2125 2159 2126 17291 15380 17292 17296 15100 15381 
2126 2159 2457 2160 15381 17297 17298 15387 15389 17299 
2423 2457 2424 2126 17300 17301 17023 17008 17298 17016 
2126 2159 2456 2457 15381 17292 17296 17298 17297 17302 
2423 2457 2126 2456 17300 17298 17008 17294 17302 17296 
2424 2126 2457 2127 17016 17298 17301 17018 15110 17303 
2457 2126 2160 2127 17298 15387 17299 17303 15110 15388 
2127 2160 2458 2161 15388 17304 17305 15394 15396 17306 
2424 2458 2425 2127 17307 17308 17033 17018 17305 17026 
2127 2160 2457 2458 15388 17299 17303 17305 17304 17309 
2424 2458 2127 2457 17307 17305 17018 17301 17309 17303 
2425 2127 2458 2128 17026 17305 17308 17028 15120 17310 
2458 2127 2161 2128 17305 15394 17306 17310 15120 15395 
2128 2161 2459 2162 15395 17311 17312 15401 15403 17313 
2425 2459 2426 2128 17314 17315 17043 17028 17312 17036 
2128 2161 2458 2459 15395 17306 17310 17312 17311 17316 
2425 2459 2128 2458 17314 17312 17028 17308 17316 17310 
2426 2128 2459 2129 17036 17312 17315 17038 15130 17317 
2459 2128 2162 2129 17312 15401 17313 17317 15130 15402 
2129 2162 2460 2163 15402 17318 17319 15408 15410 17320 
2426 2460 2427 2129 17321 17322 17053 17038 17319 17046 
2129 2162 2459 2460 15402 17313 17317 17319 17318 17323 
2426 2460 2129 2459 17321 17319 17038 17315 17323 17317 
2427 2129 2460 2130 17046 17319 17322 17048 15140 17324 
2460 2129 2163 2130 17319 15408 17320 17324 15140 15409 
2130 2163 2461 2164 15409 17325 17326 15415 15417 17327 
2427 2461 2428 2130 17328 17329 17063 17048 17326 17056 
2130 2163 2460 2461 15409 17320 17324 17326 17325 17330 
2427 2461 2130 2460 17328 17326 17048 17322 17330 17324 
2428 2130 2461 2131 17056 17326 17329 17058 15150 17331 
2461 2130 2164 2131 17326 15415 17327 17331 15150 15416 
2131 2164 2462 2165 15416 17332 17333 15422 15424 17334 
2428 2462 2429 2131 17335 17336 17073 17058 17333 17066 
2131 2164 2461 2462 15416 17327 17331 17333 17332 17337 
2428 2462 2131 2461 17335 17333 17058 17329 17337 17331 
2429 2131 2462 2132 17066 17333 17336 17068 15160 17338 
2462 2131 2165 2132 17333 15422 17334 17338 15160 15423 
2132 2165 2463 2166 15423 17339 17340 15429 15431 17341 
2429 2463 2430 2132 17342 17343 17083 17068 17340 17076 
2132 2165 2462 2463 15423 17334 17338 17340 17339 17344 
2429 2463 2132 2462 17342 17340 17068 17336 17344 17338 
2430 2132 2463 2133 17076 17340 17343 17078 15170 17345 
2463 2132 2166 2133 17340 15429 17341 17345 15170 15430 
2133 2166 2464 2167 15430 17346 17347 15436 15438 17348 
2430 2464 2431 2133 17349 17350 17093 17078 17347 17086 
2133 2166 2463 2464 15430 17341 17345 17347 17346 17351 
2430 2464 2133 2463 17349 17347 17078 17343 17351 17345 
2431 2133 2464 2134 17086 17347 17350 17088 15180 17352 
2464 2133 2167 2134 17347 15436 17348 17352 15180 15437 
2134 2167 2465 2168 15437 17353 17354 15443 15445 17355 
2431 2465 2432 2134 17356 17357 17103 17088 17354 17096 
2134 2167 2464 2465 15437 17348 17352 17354 17353 17358 
2431 2465 2134 2464 17356 17354 17088 17350 17358 17352 
2432 2134 2465 2135 17096 17354 17357 17098 15190 17359 
2465 2134 2168 2135 17354 15443 17355 17359 15190 15444 
2135 2168 2466 2169 15444 17360 17361 15450 15452 17362 
2432 2466 2433 2135 17363 17364 17113 17098 17361 17106 
2135 2168 2465 2466 15444 17355 17359 17361 17360 17365 
2432 2466 2135 2465 17363 17361 17098 17357 17365 17359 
2433 2135 2466 2136 17106 17361 17364 17108 15200 17366 
2466 2135 2169 2136 17361 15450 17362 17366 15200 15451 
2136 2169 2467 2170 15451 17367 17368 15457 15459 17369 
2433 2467 2434 2136 17370 17371 17123 17108 17368 17116 
2136 2169 2466 2467 15451 17362 17366 17368 17367 17372 
2433 2467 2136 2466 17370 17368 17108 17364 17372 17366 
2434 2136 2467 2137 17116 17368 17371 17118 15210 17373 
2467 2136 2170 2137 17368 15457 17369 17373 15210 15458 
2137 2170 2468 2171 15458 17374 17375 15464 15466 17376 
2434 2468 2435 2137 17377 17378 17133 17118 17375 17126 
2137 2170 2467 2468 15458 17369 17373 17375 17374 17379 
2434 2468 2137 2467 17377 17375 17118 17371 17379 17373 
2435 2137 2468 2138 17126 17375 17378 17128 15220 17380 
2468 2137 2171 2138 17375 15464 17376 17380 15220 15465 
2138 2171 2469 2172 15465 17381 17382 15471 15473 17383 
2435 2469 2436 2138 17384 17385 17143 17128 17382 17136 
2138 2171 2468 2469 15465 17376 17380 17382 17381 17386 
2435 2469 2138 2468 17384 17382 17128 17378 17386 17380 
2436 2138 2469 2139 17136 17382 17385 17138 15230 17387 
2469 2138 2172 2139 17382 15471 17383 17387 15230 15472 
2139 2172 2470 2173 15472 17388 17389 15478 15480 17390 
2436 2470 2437 2139 17391 17392 17153 17138 17389 17146 
2139 2172 2469 2470 15472 17383 17387 17389 17388 17393 
2436 2470 2139 2469 17391 17389 17138 17385 17393 17387 
2437 2139 2470 2140 17146 17389 17392 17148 15240 17394 
2470 2139 2173 2140 17389 15478 17390 17394 15240 15479 
2140 2173 2471 2174 15479 17395 17396 15485 15487 17397 
2437 2471 2438 2140 17398 17399 17163 17148 17396 17156 
2140 2173 2470 2471 15479 17390 17394 17396 17395 17400 
2437 2471 2140 2470 17398 17396 17148 17392 17400 17394 
2438 2140 2471 2141 17156 17396 17399 17158 15250 17401 
2471 2140 2174 2141 17396 15485 17397 17401 15250 15486 
2141 2174 2472 2175 15486 17402 17403 15492 15494 17404 
2438 2472 2439 2141 17405 17406 17173 17158 17403 17166 
2141 2174 2471 2472 15486 17397 17401 17403 17402 17407 
2438 2472 2141 2471 17405 17403 17158 17399 17407 17401 
2439 2141 2472 2142 17166 17403 17406 17168 15260 17408 
2472 2141 2175 2142 17403 15492 17404 17408 15260 15493 
2142 2175 2473 2176 15493 17409 17410 15499 15501 17411 
2439 2473 2440 2142 17412 17413 17183 17168 17410 17176 
2142 2175 2472 2473 15493 17404 17408 17410 17409 17414 
2439 2473 2142 2472 17412 17410 17168 17406 17414 17408 
2440 2142 2473 2143 17176 17410 17413 17178 15270 17415 
2473 2142 2176 2143 17410 15499 17411 17415 15270 15500 
2143 2176 2474 2177 15500 17416 17417 15506 15508 17418 
2440 2474 2441 2143 17419 17420 17193 17178 17417 17186 
2143 2176 2473 2474 15500 17411 17415 17417 17416 17421 
2440 2474 2143 2473 17419 17417 17178 17413 17421 17415 
2441 2143 2474 2144 17186 17417 17420 17188 15280 17422 
2474 2143 2177 2144 17417 15506 17418 17422 15280 15507 
2145 2178 2476 2179 15518 17423 17424 15513 15517 17425 
2442 2476 2443 2145 17426 17427 17203 17201 17424 17196 
2145 2178 2475 2476 15518 17428 17429 17424 17423 17430 
2442 2476 2145 2475 17426 17424 17201 17431 17430 17429 
2443 2145 2476 2146 17196 17424 17427 17198 15290 17432 
2476 2145 2179 2146 17424 15513 17425 17432 15290 15514 
2146 2179 2477 2180 15514 17433 17434 15523 15525 17435 
2443 2477 2444 2146 17436 17437 17211 17198 17434 17206 
2146 2179 2476 2477 15514 17425 17432 17434 17433 17438 
2443 2477 2146 2476 17436 17434 17198 17427 17438 17432 
2444 2146 2477 2147 17206 17434 17437 17208 15298 17439 
2477 2146 2180 2147 17434 15523 17435 17439 15298 15524 
2147 2180 2478 2181 15524 17440 17441 15530 15532 17442 
2444 2478 2445 2147 17443 17444 17218 17208 17441 17213 
2147 2180 2477 2478 15524 17435 17439 17441 17440 17445 
2444 2478 2147 2477 17443 17441 17208 17437 17445 17439 
2445 2147 2478 2148 17213 17441 17444 17215 15305 17446 
2478 2147 2181 2148 17441 15530 17442 17446 15305 15531 
2148 2181 2479 2182 15531 17447 17448 15537 15539 17449 
2445 2479 2446 2148 17450 17451 17225 17215 17448 17220 
2148 2181 2478 2479 15531 17442 17446 17448 17447 17452 
2445 2479 2148 2478 17450 17448 17215 17444 17452 17446 
2446 2148 2479 2149 17220 17448 17451 17222 15312 17453 
2479 2148 2182 2149 17448 15537 17449 17453 15312 15538 
2149 2182 2480 2183 15538 17454 17455 15544 15546 17456 
2446 2480 2447 2149 17457 17458 17232 17222 17455 17227 
2149 2182 2479 2480 15538 17449 17453 17455 17454 17459 
2446 2480 2149 2479 17457 17455 17222 17451 17459 17453 
2447 2149 2480 2150 17227 17455 17458 17229 15319 17460 
2480 2149 2183 2150 17455 15544 17456 17460 15319 15545 
2150 2183 2481 2184 15545 17461 17462 15551 15553 17463 
2447 2481 2448 2150 17464 17465 17239 17229 17462 17234 
2150 2183 2480 2481 15545 17456 17460 17462 17461 17466 
2447 2481 2150 2480 17464 17462 17229 17458 17466 17460 
2448 2150 2481 2151 17234 17462 17465 17236 15326 17467 
2481 2150 2184 2151 17462 15551 17463 17467 15326 15552 
2151 2184 2482 2185 15552 17468 17469 15558 15560 17470 
2448 2482 2449 2151 17471 17472 17246 17236 17469 17241 
2151 2184 2481 2482 15552 17463 17467 17469 17468 17473 
2448 2482 2151 2481 17471 17469 17236 17465 17473 17467 
2449 2151 2482 2152 17241 17469 17472 17243 15333 17474 
2482 2151 2185 2152 17469 15558 17470 17474 15333 15559 
2152 2185 2483 2186 15559 17475 17476 15565 15567 17477 
2449 2483 2450 2152 17478 17479 17253 17243 17476 17248 
2152 2185 2482 2483 15559 17470 17474 17476 17475 17480 
2449 2483 2152 2482 17478 17476 17243 17472 17480 17474 
2450 2152 2483 2153 17248 17476 17479 17250 15340 17481 
2483 2152 2186 2153 17476 15565 17477 17481 15340 15566 
2153 2186 2484 2187 15566 17482 17483 15572 15574 17484 
2450 2484 2451 2153 17485 17486 17260 17250 17483 17255 
2153 2186 2483 2484 15566 17477 17481 17483 17482 17487 
2450 2484 2153 2483 17485 17483 17250 17479 17487 17481 
2451 2153 2484 2154 17255 17483 17486 17257 15347 17488 
2484 2153 2187 2154 17483 15572 17484 17488 15347 15573 
2154 2187 2485 2188 15573 17489 17490 15579 15581 17491 
2451 2485 2452 2154 17492 17493 17267 17257 17490 17262 
2154 2187 2484 2485 15573 17484 17488 17490 17489 17494 
2451 2485 2154 2484 17492 17490 17257 17486 17494 17488 
2452 2154 2485 2155 17262 17490 17493 17264 15354 17495 
2485 2154 2188 2155 17490 15579 17491 17495 15354 15580 
2155 2188 2486 2189 15580 17496 17497 15586 15588 17498 
2452 2486 2453 2155 17499 17500 17274 17264 17497 17269 
2155 2188 2485 2486 15580 17491 17495 17497 17496 17501 
2452 2486 2155 2485 17499 17497 17264 17493 17501 17495 
2453 2155 2486 2156 17269 17497 17500 17271 15361 17502 
2486 2155 2189 2156 17497 15586 17498 17502 15361 15587 
2156 2189 2487 2190 15587 17503 17504 15593 15595 17505 
2453 2487 2454 2156 17506 17507 17281 17271 17504 17276 
2156 2189 2486 2487 15587 17498 17502 17504 17503 17508 
2453 2487 2156 2486 17506 17504 17271 17500 17508 17502 
2454 2156 2487 2157 17276 17504 17507 17278 15368 17509 
2487 2156 2190 2157 17504 15593 17505 17509 15368 15594 
2157 2190 2488 2191 15594 17510 17511 15600 15602 17512 
2454 2488 2455 2157 17513 17514 17288 17278 17511 17283 
2157 2190 2487 2488 15594 17505 17509 17511 17510 17515 
2454 2488 2157 2487 17513 17511 17278 17507 17515 17509 
2455 2157 2488 2158 17283 17511 17514 17285 15375 17516 
2488 2157 2191 2158 17511 15600 17512 17516 15375 15601 
2158 2191 2489 2192 15601 17517 17518 15607 15609 17519 
2455 2489 2456 2158 17520 17521 17295 17285 17518 17290 
2158 2191 2488 2489 15601 17512 17516 17518 17517 17522 
2455 2489 2158 2488 17520 17518 17285 17514 17522 17516 
2456 2158 2489 2159 17290 17518 17521 17292 15382 17523 
2489 2158 2192 2159 17518 15607 17519 17523 15382 15608 
2159 2192 2490 2193 15608 17524 17525 15614 15616 17526 
2456 2490 2457 2159 17527 17528 17302 17292 17525 17297 
2159 2192 2489 2490 15608 17519 17523 17525 17524 17529 
2456 2490 2159 2489 17527 17525 17292 17521 17529 17523 
2457 2159 2490 2160 17297 17525 17528 17299 15389 17530 
2490 2159 2193 2160 17525 15614 17526 17530 15389 15615 
2160 2193 2491 2194 15615 17531 17532 15621 15623 17533 
2457 2491 2458 2160 17534 17535 17309 17299 17532 17304 
2160 2193 2490 2491 15615 17526 17530 17532 17531 17536 
2457 2491 2160 2490 17534 17532 17299 17528 17536 17530 
2458 2160 2491 2161 17304 17532 17535 17306 15396 17537 
2491 2160 2194 2161 17532 15621 17533 17537 15396 15622 
2161 2194 2492 2195 15622 17538 17539 15628 15630 17540 
2458 2492 2459 2161 17541 17542 17316 17306 17539 17311 
2161 2194 2491 2492 15622 17533 17537 17539 17538 17543 
2458 2492 2161 2491 17541 17539 17306 17535 17543 17537 
2459 2161 2492 2162 17311 17539 17542 17313 15403 17544 
2492 2161 2195 2162 17539 15628 17540 17544 15403 15629 
2162 2195 2493 2196 15629 17545 17546 15635 15637 17547 
2459 2493 2460 2162 17548 17549 17323 17313 17546 17318 
2162 2195 2492 2493 15629 17540 17544 17546 17545 17550 
2459 2493 2162 2492 17548 17546 17313 17542 17550 17544 
2460 2162 2493 2163 17318 17546 17549 17320 15410 17551 
2493 2162 2196 2163 17546 15635 17547 17551 15410 15636 
2163 2196 2494 2197 15636 17552 17553 15642 15644 17554 
2460 2494 2461 2163 17555 17556 17330 17320 17553 17325 
2163 2196 2493 2494 15636 17547 17551 17553 17552 17557 
2460 2494 2163 2493 17555 17553 17320 17549 17557 17551 
2461 2163 2494 2164 17325 17553 17556 17327 15417 17558 
2494 2163 2197 2164 17553 15642 17554 17558 15417 15643 
2164 2197 2495 2198 15643 17559 17560 15649 15651 17561 
2461 2495 2462 2164 17562 17563 17337 17327 17560 17332 
2164 2197 2494 2495 15643 17554 17558 17560 17559 17564 
2461 2495 2164 2494 17562 17560 17327 17556 17564 17558 
2462 2164 2495 2165 17332 17560 17563 17334 15424 17565 
2495 2164 2198 2165 17560 15649 17561 17565 15424 15650 
2165 2198 2496 2199 15650 17566 17567 15656 15658 17568 
2462 2496 2463 2165 17569 17570 17344 17334 17567 17339 
2165 2198 2495 2496 15650 17561 17565 17567 17566 17571 
2462 2496 2165 2495 17569 17567 17334 17563 17571 17565 
2463 2165 2496 2166 17339 17567 17570 17341 15431 17572 
2496 2165 2199 2166 17567 15656 17568 17572 15431 15657 
2166 2199 2497 2200 15657 17573 17574 15663 15665 17575 
2463 2497 2464 2166 17576 17577 17351 17341 17574 17346 
2166 2199 2496 2497 15657 17568 17572 17574 17573 17578 
2463 2497 2166 2496 17576 17574 17341 17570 17578 17572 
2464 2166 2497 2167 17346 17574 17577 17348 15438 17579 
2497 2166 2200 2167 17574 15663 17575 17579 15438 15664 
2167 2200 2498 2201 15664 17580 17581 15670 15672 17582 
2464 2498 2465 2167 17583 17584 17358 17348 17581 17353 
2167 2200 2497 2498 15664 17575 17579 17581 17580 17585 
2464 2498 2167 2497 17583 17581 17348 17577 17585 17579 
2465 2167 2498 2168 17353 17581 17584 17355 15445 17586 
2498 2167 2201 2168 17581 15670 17582 17586 15445 15671 
2168 2201 2499 2202 15671 17587 17588 15677 15679 17589 
2465 2499 2466 2168 17590 17591 17365 17355 17588 17360 
2168 2201 2498 2499 15671 17582 17586 17588 17587 17592 
2465 2499 2168 2498 17590 17588 17355 17584 17592 17586 
2466 2168 2499 2169 17360 17588 17591 17362 15452 17593 
2499 2168 2202 2169 17588 15677 17589 17593 15452 15678 
2169 2202 2500 2203 15678 17594 17595 15684 15686 17596 
2466 2500 2467 2169 17597 17598 17372 17362 17595 17367 
2169 2202 2499 2500 15678 17589 17593 17595 17594 17599 
2466 2500 2169 2499 17597 17595 17362 17591 17599 17593 
2467 2169 2500 2170 17367 17595 17598 17369 15459 17600 
2500 2169 2203 2170 17595 15684 17596 17600 15459 15685 
2170 2203 2501 2204 15685 17601 17602 15691 15693 17603 
2467 2501 2468 2170 17604 17605 17379 17369 17602 17374 
2170 2203 2500 2501 15685 17596 17600 17602 17601 17606 
2467 2501 2170 2500 17604 17602 17369 17598 17606 17600 
2468 2170 2501 2171 17374 17602 17605 17376 15466 17607 
2501 2170 2204 2171 17602 15691 17603 17607 15466 15692 
2171 2204 2502 2205 15692 17608 17609 15698 15700 17610 
2468 2502 2469 2171 17611 17612 17386 17376 17609 17381 
2171 2204 2501 2502 15692 17603 17607 17609 17608 17613 
2468 2502 2171 2501 17611 17609 17376 17605 17613 17607 
2469 2171 2502 2172 17381 17609 17612 17383 15473 17614 
2502 2171 2205 2172 17609 15698 17610 17614 15473 15699 
2172 2205 2503 2206 15699 17615 17616 15705 15707 17617 
2469 2503 2470 2172 17618 17619 17393 17383 17616 17388 
2172 2205 2502 2503 15699 17610 17614 17616 17615 17620 
2469 2503 2172 2502 17618 17616 17383 17612 17620 17614 
2470 2172 2503 2173 17388 17616 17619 17390 15480 17621 
2503 2172 2206 2173 17616 15705 17617 17621 15480 15706 
2173 2206 2504 2207 15706 17622 17623 15712 15714 17624 
2470 2504 2471 2173 17625 17626 17400 17390 17623 17395 
2173 2206 2503 2504 15706 17617 17621 17623 17622 17627 
2470 2504 2173 2503 17625 17623 17390 17619 17627 17621 
2471 2173 2504 2174 17395 17623 17626 17397 15487 17628 
2504 2173 2207 2174 17623 15712 17624 17628 15487 15713 
2174 2207 2505 2208 15713 17629 17630 15719 15721 17631 
2471 2505 2472 2174 17632 17633 17407 17397 17630 17402 
2174 2207 2504 2505 15713 17624 17628 17630 17629 17634 
2471 2505 2174 2504 17632 17630 17397 17626 17634 17628 
2472 2174 2505 2175 17402 17630 17633 17404 15494 17635 
2505 2174 2208 2175 17630 15719 17631 17635 15494 15720 
2175 2208 2506 2209 15720 17636 17637 15726 15728 17638 
2472 2506 2473 2175 17639 17640 17414 17404 17637 17409 
2175 2208 2505 2506 15720 17631 17635 17637 17636 17641 
2472 2506 2175 2505 17639 17637 17404 17633 17641 17635 
2473 2175 2506 2176 17409 17637 17640 17411 15501 17642 
2506 2175 2209 2176 17637 15726 17638 17642 15501 15727 
2176 2209 2507 2210 15727 17643 17644 15733 15735 17645 
2473 2507 2474 2176 17646 17647 17421 17411 17644 17416 
2176 2209 2506 2507 15727 17638 17642 17644 17643 17648 
2473 2507 2176 2506 17646 17644 17411 17640 17648 17642 
2474 2176 2507 2177 17416 17644 17647 17418 15508 17649 
2507 2176 2210 2177 17644 15733 17645 17649 15508 15734 
2178 2211 2509 2212 15745 17650 17651 15740 15744 17652 
2475 2509 2476 2178 17653 17654 17430 17428 17651 17423 
2178 2211 2508 2509 15745 17655 17656 17651 17650 17657 
2475 2509 2178 2508 17653 17651 17428 17658 17657 17656 
2476 2178 2509 2179 17423 17651 17654 17425 15517 17659 
2509 2178 2212 2179 17651 15740 17652 17659 15517 15741 
2179 2212 2510 2213 15741 17660 17661 15750 15752 17662 
2476 2510 2477 2179 17663 17664 17438 17425 17661 17433 
2179 2212 2509 2510 15741 17652 17659 17661 17660 17665 
2476 2510 2179 2509 17663 17661 17425 17654 17665 17659 
2477 2179 2510 2180 17433 17661 17664 17435 15525 17666 
2510 2179 2213 2180 17661 15750 17662 17666 15525 15751 
2180 2213 2511 2214 15751 17667 17668 15757 15759 17669 
2477 2511 2478 2180 17670 17671 17445 17435 17668 17440 
2180 2213 2510 2511 15751 17662 17666 17668 17667 17672 
2477 2511 2180 2510 17670 17668 17435 17664 17672 17666 
2478 2180 2511 2181 17440 17668 17671 17442 15532 17673 
2511 2180 2214 2181 17668 15757 17669 17673 15532 15758 
2181 2214 2512 2215 15758 17674 17675 15764 15766 17676 
2478 2512 2479 2181 17677 17678 17452 17442 17675 17447 
2181 2214 2511 2512 15758 17669 17673 17675 17674 17679 
2478 2512 2181 2511 17677 17675 17442 17671 17679 17673 
2479 2181 2512 2182 17447 17675 17678 17449 15539 17680 
2512 2181 2215 2182 17675 15764 17676 17680 15539 15765 
2182 2215 2513 2216 15765 17681 17682 15771 15773 17683 
2479 2513 2480 2182 17684 17685 17459 17449 17682 17454 
2182 2215 2512 2513 15765 17676 17680 17682 17681 17686 
2479 2513 2182 2512 17684 17682 17449 17678 17686 17680 
2480 2182 2513 2183 17454 17682 17685 17456 15546 17687 
2513 2182 2216 2183 17682 15771 17683 17687 15546 15772 
2183 2216 2514 2217 15772 17688 17689 15778 15780 17690 
2480 2514 2481 2183 17691 17692 17466 17456 17689 17461 
2183 2216 2513 2514 15772 17683 17687 17689 17688 17693 
2480 2514 2183 2513 17691 17689 17456 17685 17693 17687 
2481 2183 2514 2184 17461 17689 17692 17463 15553 17694 
2514 2183 2217 2184 17689 15778 17690 17694 15553 15779 
2184 2217 2515 2218 15779 17695 17696 15785 15787 17697 
2481 2515 2482 2184 17698 17699 17473 17463 17696 17468 
2184 2217 2514 2515 15779 17690 17694 17696 17695 17700 
2481 2515 2184 2514 17698 17696 17463 17692 17700 17694 
2482 2184 2515 2185 17468 17696 17699 17470 15560 17701 
2515 2184 2218 2185 17696 15785 17697 17701 15560 15786 
2185 2218 2516 2219 15786 17702 17703 15792 15794 17704 
2482 2516 2483 2185 17705 17706 17480 17470 17703 17475 
2185 2218 2515 2516 15786 17697 17701 17703 17702 17707 
2482 2516 2185 2515 17705 17703 17470 17699 17707 17701 
2483 2185 2516 2186 17475 17703 17706 17477 15567 17708 
2516 2185 2219 2186 17703 15792 17704 17708 15567 15793 
2186 2219 2517 2220 15793 17709 17710 15799 15801 17711 
2483 2517 2484 2186 17712 17713 17487 17477 17710 17482 
2186 2219 2516 2517 15793 17704 17708 17710 17709 17714 
2483 2517 2186 2516 17712 17710 17477 17706 17714 17708 
2484 2186 2517 2187 17482 17710 17713 17484 15574 17715 
2517 2186 2220 2187 17710 15799 17711 17715 15574 15800 
2187 2220 2518 2221 15800 17716 17717 15806 15808 17718 
2484 2518 2485 2187 17719 17720 17494 17484 17717 17489 
2187 2220 2517 2518 15800 17711 17715 17717 17716 17721 
2484 2518 2187 2517 17719 17717 17484 17713 17721 17715 
2485 2187 2518 2188 17489 17717 17720 17491 15581 17722 
2518 2187 2221 2188 17717 15806 17718 17722 15581 15807 
2188 2221 2519 2222 15807 17723 17724 15813 15815 17725 
2485 2519 2486 2188 17726 17727 17501 17491 17724 17496 
2188 2221 2518 2519 15807 17718 17722 17724 17723 17728 
2485 2519 2188 2518 17726 17724 17491 17720 17728 17722 
2486 2188 2519 2189 17496 17724 17727 17498 15588 17729 
2519 2188 2222 2189 17724 15813 17725 17729 15588 15814 
2189 2222 2520 2223 15814 17730 17731 15820 15822 17732 
2486 2520 2487 2189 17733 17734 17508 17498 17731 17503 
2189 2222 2519 2520 15814 17725 17729 17731 17730 17735 
2486 2520 2189 2519 17733 17731 17498 17727 17735 17729 
2487 2189 2520 2190 17503 17731 17734 17505 15595 17736 
2520 2189 2223 2190 17731 15820 17732 17736 15595 15821 
2190 2223 2521 2224 15821 17737 17738 15827 15829 17739 
2487 2521 2488 2190 17740 17741 17515 17505 17738 17510 
2190 2223 2520 2521 15821 17732 17736 17738 17737 17742 
2487 2521 2190 2520 17740 17738 17505 17734 17742 17736 
2488 2190 2521 2191 17510 17738 17741 17512 15602 17743 
2521 2190 2224 2191 17738 15827 17739 17743 15602 15828 
2191 2224 2522 2225 15828 17744 17745 15834 15836 17746 
2488 2522 2489 2191 17747 17748 17522 17512 17745 17517 
2191 2224 2521 2522 15828 17739 17743 17745 17744 17749 
2488 2522 2191 2521 17747 17745 17512 17741 17749 17743 
2489 2191 2522 2192 17517 17745 17748 17519 15609 17750 
2522 2191 2225 2192 17745 15834 17746 17750 15609 15835 
2192 2225 2523 2226 15835 17751 17752 15841 15843 17753 
2489 2523 2490 2192 17754 17755 17529 17519 17752 17524 
2192 2225 2522 2523 15835 17746 17750 17752 17751 17756 
2489 2523 2192 2522 17754 17752 17519 17748 17756 17750 
2490 2192 2523 2193 17524 17752 17755 17526 15616 17757 
2523 2192 2226 2193 17752 15841 17753 17757 15616 15842 
2193 2226 2524 2227 15842 17758 17759 15848 15850 17760 
2490 2524 2491 2193 17761 17762 17536 17526 17759 17531 
2193 2226 2523 2524 15842 17753 17757 17759 17758 17763 
2490 2524 2193 2523 17761 17759 17526 17755 17763 17757 
2491 2193 2524 2194 17531 17759 17762 17533 15623 17764 
2524 2193 2227 2194 17759 15848 17760 17764 15623 15849 
2194 2227 2525 2228 15849 17765 17766 15855 15857 17767 
2491 2525 2492 2194 17768 17769 17543 17533 17766 17538 
2194 2227 2524 2525 15849 17760 17764 17766 17765 17770 
2491 2525 2194 2524 17768 17766 17533 17762 17770 17764 
2492 2194 2525 2195 17538 17766 17769 17540 15630 17771 
2525 2194 2228 2195 17766 15855 17767 17771 15630 15856 
2195 2228 2526 2229 15856 17772 17773 15862 15864 17774 
2492 2526 2493 2195 17775 17776 17550 17540 17773 17545 
2195 2228 2525 2526 15856 17767 17771 17773 17772 17777 
2492 2526 2195 2525 17775 17773 17540 17769 17777 17771 
2493 2195 2526 2196 17545 17773 17776 17547 15637 17778 
2526 2195 2229 2196 17773 15862 17774 17778 15637 15863 
2196 2229 2527 2230 15863 17779 17780 15869 15871 17781 
2493 2527 2494 2196 17782 17783 17557 17547 17780 17552 
2196 2229 2526 2527 15863 17774 17778 17780 17779 17784 
2493 2527 2196 2526 17782 17780 17547 17776 17784 17778 
2494 2196 2527 2197 17552 17780 17783 17554 15644 17785 
2527 2196 2230 2197 17780 15869 17781 17785 15644 15870 
2197 2230 2528 2231 15870 17786 17787 15876 15878 17788 
2494 2528 2495 2197 17789 17790 17564 17554 17787 17559 
2197 2230 2527 2528 15870 17781 17785 17787 17786 17791 
2494 2528 2197 2527 17789 17787 17554 17783 17791 17785 
2495 2197 2528 2198 17559 17787 17790 17561 15651 17792 
2528 2197 2231 2198 17787 15876 17788 17792 15651 15877 
2198 2231 2529 2232 15877 17793 17794 15883 15885 17795 
2495 2529 2496 2198 17796 17797 17571 17561 17794 17566 
2198 2231 2528 2529 15877 17788 17792 17794 17793 17798 
2495 2529 2198 2528 17796 17794 17561 17790 17798 17792 
2496 2198 2529 2199 17566 17794 17797 17568 15658 17799 
2529 2198 2232 2199 17794 15883 17795 17799 15658 15884 
2199 2232 2530 2233 15884 17800 17801 15890 15892 17802 
2496 2530 2497 2199 17803 17804 17578 17568 17801 17573 
2199 2232 2529 2530 15884 17795 17799 17801 17800 17805 
2496 2530 2199 2529 17803 17801 17568 17797 17805 17799 
2497 2199 2530 2200 17573 17801 17804 17575 15665 17806 
2530 2199 2233 2200 17801 15890 17802 17806 15665 15891 
2200 2233 2531 2234 15891 17807 17808 15897 15899 17809 
2497 2531 2498 2200 17810 17811 17585 17575 17808 17580 
2200 2233 2530 2531 15891 17802 17806 17808 17807 17812 
2497 2531 2200 2530 17810 17808 17575 17804 17812 17806 
2498 2200 2531 2201 17580 17808 17811 17582 15672 17813 
2531 2200 2234 2201 17808 15897 17809 17813 15672 15898 
2201 2234 2532 2235 15898 17814 17815 15904 15906 17816 
2498 2532 2499 2201 17817 17818 17592 17582 17815 17587 
2201 2234 2531 2532 15898 17809 17813 17815 17814 17819 
2498 2532 2201 2531 17817 17815 17582 17811 17819 17813 
2499 2201 2532 2202 17587 17815 17818 17589 15679 17820 
2532 2201 2235 2202 17815 15904 17816 17820 15679 15905 
2202 2235 2533 2236 15905 17821 17822 15911 15913 17823 
2499 2533 2500 2202 17824 17825 17599 17589 17822 17594 
2202 2235 2532 2533 15905 17816 17820 17822 17821 17826 
2499 2533 2202 2532 17824 17822 17589 17818 17826 17820 
2500 2202 2533 2203 17594 17822 17825 17596 15686 17827 
2533 2202 2236 2203 17822 15911 17823 17827 15686 15912 
2203 2236 2534 2237 15912 17828 17829 15918 15920 17830 
2500 2534 2501 2203 17831 17832 17606 17596 17829 17601 
2203 2236 2533 2534 15912 17823 17827 17829 17828 17833 
2500 2534 2203 2533 17831 17829 17596 17825 17833 17827 
2501 2203 2534 2204 17601 17829 17832 17603 15693 17834 
2534 2203 2237 2204 17829 15918 17830 17834 15693 15919 
2204 2237 2535 2238 15919 17835 17836 15925 15927 17837 
2501 2535 2502 2204 17838 17839 17613 17603 17836 17608 
2204 2237 2534 2535 15919 17830 17834 17836 17835 17840 
2501 2535 2204 2534 17838 17836 17603 17832 17840 17834 
2502 2204 2535 2205 17608 17836 17839 17610 15700 17841 
2535 2204 2238 2205 17836 15925 17837 17841 15700 15926 
2205 2238 2536 2239 15926 17842 17843 15932 15934 17844 
2502 2536 2503 2205 17845 17846 17620 17610 17843 17615 
2205 2238 2535 2536 15926 17837 17841 17843 17842 17847 
2502 2536 2205 2535 17845 17843 17610 17839 17847 17841 
2503 2205 2536 2206 17615 17843 17846 17617 15707 17848 
2536 2205 2239 2206 17843 15932 17844 17848 15707 15933 
2206 2239 2537 2240 15933 17849 17850 15939 15941 17851 
2503 2537 2504 2206 17852 17853 17627 17617 17850 17622 
2206 2239 2536 2537 15933 17844 17848 17850 17849 17854 
2503 2537 2206 2536 17852 17850 17617 17846 17854 17848 
2504 2206 2537 2207 17622 17850 17853 17624 15714 17855 
2537 2206 2240 2207 17850 15939 17851 17855 15714 15940 
2207 2240 2538 2241 15940 17856 17857 15946 15948 17858 
2504 2538 2505 2207 17859 17860 17634 17624 17857 17629 
2207 2240 2537 2538 15940 17851 17855 17857 17856 17861 
2504 2538 2207 2537 17859 17857 17624 17853 17861 17855 
2505 2207 2538 2208 17629 17857 17860 17631 15721 17862 
2538 2207 2241 2208 17857 15946 17858 17862 15721 15947 
2208 2241 2539 2242 15947 17863 17864 15953 15955 17865 
2505 2539 2506 2208 17866 17867 17641 17631 17864 17636 
2208 2241 2538 2539 15947 17858 17862 17864 17863 17868 
2505 2539 2208 2538 17866 17864 17631 17860 17868 17862 
2506 2208 2539 2209 17636 17864 17867 17638 15728 17869 
2539 2208 2242 2209 17864 15953 17865 17869 15728 15954 
2209 2242 2540 2243 15954 17870 17871 15960 15962 17872 
2506 2540 2507 2209 17873 17874 17648 17638 17871 17643 
2209 2242 2539 2540 15954 17865 17869 17871 17870 17875 
2506 2540 2209 2539 17873 17871 17638 17867 17875 17869 
2507 2209 2540 2210 17643 17871 17874 17645 15735 17876 
2540 2209 2243 2210 17871 15960 17872 17876 15735 15961 
2211 2244 2542 2245 15972 17877 17878 15967 15971 17879 
2508 2542 2509 2211 17880 17881 17657 17655 17878 17650 
2211 2244 2541 2542 15972 17882 17883 17878 17877 17884 
2508 2542 2211 2541 17880 17878 17655 17885 17884 17883 
2509 2211 2542 2212 17650 17878 17881 17652 15744 17886 
2542 2211 2245 2212 17878 15967 17879 17886 15744 15968 
2212 2245 2543 2246 15968 17887 17888 15977 15979 17889 
2509 2543 2510 2212 17890 17891 17665 17652 17888 17660 
2212 2245 2542 2543 15968 17879 17886 17888 17887 17892 
2509 2543 2212 2542 17890 17888 17652 17881 17892 17886 
2510 2212 2543 2213 17660 17888 17891 17662 15752 17893 
2543 2212 2246 2213 17888 15977 17889 17893 15752 15978 
2213 2246 2544 2247 15978 17894 17895 15984 15986 17896 
2510 2544 2511 2213 17897 17898 17672 17662 17895 17667 
2213 2246 2543 2544 15978 17889 17893 17895 17894 17899 
2510 2544 2213 2543 17897 17895 17662 17891 17899 17893 
2511 2213 2544 2214 17667 17895 17898 17669 15759 17900 
2544 2213 2247 2214 17895 15984 17896 17900 15759 15985 
2214 2247 2545 2248 15985 17901 17902 15991 15993 17903 
2511 2545 2512 2214 17904 17905 17679 17669 17902 17674 
2214 2247 2544 2545 15985 17896 17900 17902 17901 17906 
2511 2545 2214 2544 17904 17902 17669 17898 17906 17900 
2512 2214 2545 2215 17674 17902 17905 17676 15766 17907 
2545 2214 2248 2215 17902 15991 17903 17907 15766 15992 
2215 2248 2546 2249 15992 17908 17909 15998 16000 17910 
2512 2546 2513 2215 17911 17912 17686 17676 17909 17681 
2215 2248 2545 2546 15992 17903 17907 17909 17908 17913 
2512 2546 2215 2545 17911 17909 17676 17905 17913 17907 
2513 2215 2546 2216 17681 17909 17912 17683 15773 17914 
2546 2215 2249 2216 17909 15998 17910 17914 15773 15999 
2216 2249 2547 2250 15999 17915 17916 16005 16007 17917 
2513 2547 2514 2216 17918 17919 17693 17683 17916 17688 
2216 2249 2546 2547 15999 17910 17914 17916 17915 17920 
2513 2547 2216 2546 17918 17916 17683 17912 17920 17914 
2514 2216 2547 2217 17688 17916 17919 17690 15780 17921 
2547 2216 2250 2217 17916 16005 17917 17921 15780 16006 
2217 2250 2548 2251 16006 17922 17923 16012 16014 17924 
2514 2548 2515 2217 17925 17926 17700 17690 17923 17695 
2217 2250 2547 2548 16006 17917 17921 17923 17922 17927 
2514 2548 2217 2547 17925 17923 17690 17919 17927 17921 
2515 2217 2548 2218 17695 17923 17926 17697 15787 17928 
2548 2217 2251 2218 17923 16012 17924 17928 15787 16013 
2218 2251 2549 2252 16013 17929 17930 16019 16021 17931 
2515 2549 2516 2218 17932 17933 17707 17697 17930 17702 
2218 2251 2548 2549 16013 17924 17928 17930 17929 17934 
2515 2549 2218 2548 17932 17930 17697 17926 17934 17928 
2516 2218 2549 2219 17702 17930 17933 17704 15794 17935 
2549 2218 2252 2219 17930 16019 17931 17935 15794 16020 
2219 2252 2550 2253 16020 17936 17937 16026 16028 17938 
2516 2550 2517 2219 17939 17940 17714 17704 17937 17709 
2219 2252 2549 2550 16020 17931 17935 17937 17936 17941 
2516 2550 2219 2549 17939 17937 17704 17933 17941 17935 
2517 2219 2550 2220 17709 17937 17940 17711 15801 17942 
2550 2219 2253 2220 17937 16026 17938 17942 15801 16027 
2220 2253 2551 2254 16027 17943 17944 16033 16035 17945 
2517 2551 2518 2220 17946 17947 17721 17711 17944 17716 
2220 2253 2550 2551 16027 17938 17942 17944 17943 17948 
2517 2551 2220 2550 17946 17944 17711 17940 17948 17942 
2518 2220 2551 2221 17716 17944 17947 17718 15808 17949 
2551 2220 2254 2221 17944 16033 17945 17949 15808 16034 
2221 2254 2552 2255 16034 17950 17951 16040 16042 17952 
2518 2552 2519 2221 17953 17954 17728 17718 17951 17723 
2221 2254 2551 2552 16034 17945 17949 17951 17950 17955 
2518 2552 2221 2551 17953 17951 17718 17947 17955 17949 
2519 2221 2552 2222 17723 17951 17954 17725 15815 17956 
2552 2221 2255 2222 17951 16040 17952 17956 15815 16041 
2222 2255 2553 2256 16041 17957 17958 16047 16049 17959 
2519 2553 2520 2222 17960 17961 17735 17725 17958 17730 
2222 2255 2552 2553 16041 17952 17956 17958 17957 17962 
2519 2553 2222 2552 17960 17958 17725 17954 17962 17956 
2520 2222 2553 2223 17730 17958 17961 17732 15822 17963 
2553 2222 2256 2223 17958 16047 17959 17963 15822 16048 
2223 2256 2554 2257 16048 17964 17965 16054 16056 17966 
2520 2554 2521 2223 17967 17968 17742 17732 17965 17737 
2223 2256 2553 2554 16048 17959 17963 17965 17964 17969 
2520 2554 2223 2553 17967 17965 17732 17961 17969 17963 
2521 2223 2554 2224 17737 17965 17968 17739 15829 17970 
2554 2223 2257 2224 17965 16054 17966 17970 15829 16055 
2224 2257 2555 2258 16055 17971 17972 16061 16063 17973 
2521 2555 2522 2224 17974 17975 17749 17739 17972 17744 
2224 2257 2554 2555 16055 17966 17970 17972 17971 17976 
2521 2555 2224 2554 17974 17972 17739 17968 17976 17970 
2522 2224 2555 2225 17744 17972 17975 17746 15836 17977 
2555 2224 2258 2225 17972 16061 17973 17977 15836 16062 
2225 2258 2556 2259 16062 17978 17979 16068 16070 17980 
2522 2556 2523 2225 17981 17982 17756 17746 17979 17751 
2225 2258 2555 2556 16062 17973 17977 17979 17978 17983 
2522 2556 2225 2555 17981 17979 17746 17975 17983 17977 
2523 2225 2556 2226 17751 17979 17982 17753 15843 17984 
2556 2225 2259 2226 17979 16068 17980 17984 15843 16069 
2226 2259 2557 2260 16069 17985 17986 16075 16077 17987 
2523 2557 2524 2226 17988 17989 17763 17753 17986 17758 
2226 2259 2556 2557 16069 17980 17984 17986 17985 17990 
2523 2557 2226 2556 17988 17986 17753 17982 17990 17984 
2524 2226 2557 2227 17758 17986 17989 17760 15850 17991 
2557 2226 2260 2227 17986 16075 17987 17991 15850 16076 
2227 2260 2558 2261 16076 17992 17993 16082 16084 17994 
2524 2558 2525 2227 17995 17996 17770 17760 17993 17765 
2227 2260 2557 2558 16076 17987 17991 17993 17992 17997 
2524 2558 2227 2557 17995 17993 17760 17989 17997 17991 
2525 2227 2558 2228 17765 17993 17996 17767 15857 17998 
2558 2227 2261 2228 17993 16082 17994 17998 15857 16083 
2228 2261 2559 2262 16083 17999 18000 16089 16091 18001 
2525 2559 2526 2228 18002 18003 17777 17767 18000 17772 
2228 2261 2558 2559 16083 17994 17998 18000 17999 18004 
2525 2559 2228 2558 18002 18000 17767 17996 18004 17998 
2526 2228 2559 2229 17772 18000 18003 17774 15864 18005 
2559 2228 2262 2229 18000 16089 18001 18005 15864 16090 
2229 2262 2560 2263 16090 18006 18007 16096 16098 18008 
2526 2560 2527 2229 18009 18010 17784 17774 18007 17779 
2229 2262 2559 2560 16090 18001 18005 18007 18006 18011 
2526 2560 2229 2559 18009 18007 17774 18003 18011 18005 
2527 2229 2560 2230 17779 18007 18010 17781 15871 18012 
2560 2229 2263 2230 18007 16096 18008 18012 15871 16097 
2230 2263 2561 2264 16097 18013 18014 16103 16105 18015 
2527 2561 2528 2230 18016 18017 17791 17781 18014 17786 
2230 2263 2560 2561 16097 18008 18012 18014 18013 18018 
2527 2561 2230 2560 18016 18014 17781 18010 18018 18012 
2528 2230 2561 2231 17786 18014 18017 17788 15878 18019 
2561 2230 2264 2231 18014 16103 18015 18019 15878 16104 
2231 2264 2562 2265 16104 18020 18021 16110 16112 18022 
2528 2562 2529 2231 18023 18024 17798 17788 18021 17793 
2231 2264 2561 2562 16104 18015 18019 18021 18020 18025 
2528 2562 2231 2561 18023 18021 17788 18017 18025 18019 
2529 2231 2562 2232 17793 18021 18024 17795 15885 18026 
2562 2231 2265 2232 18021 16110 18022 18026 15885 16111 
2232 2265 2563 2266 16111 18027 18028 16117 16119 18029 
2529 2563 2530 2232 18030 18031 17805 17795 18028 17800 
2232 2265 2562 2563 16111 18022 18026 18028 18027 18032 
2529 2563 2232 2562 18030 18028 17795 18024 18032 18026 
2530 2232 2563 2233 17800 18028 18031 17802 15892 18033 
2563 2232 2266 2233 18028 16117 18029 18033 15892 16118 
2233 2266 2564 2267 16118 18034 18035 16124 16126 18036 
2530 2564 2531 2233 18037 18038 17812 17802 18035 17807 
2233 2266 2563 2564 16118 18029 18033 18035 18034 18039 
2530 2564 2233 2563 18037 18035 17802 18031 18039 18033 
2531 2233 2564 2234 17807 18035 18038 17809 15899 18040 
2564 2233 2267 2234 18035 16124 18036 18040 15899 16125 
2234 2267 2565 2268 16125 18041 18042 16131 16133 18043 
2531 2565 2532 2234 18044 18045 17819 17809 18042 17814 
2234 2267 2564 2565 16125 18036 18040 18042 18041 18046 
2531 2565 2234 2564 18044 18042 17809 18038 18046 18040 
2532 2234 2565 2235 17814 18042 18045 17816 15906 18047 
2565 2234 2268 2235 18042 16131 18043 18047 15906 16132 
2235 2268 2566 2269 16132 18048 18049 16138 16140 18050 
2532 2566 2533 2235 18051 18052 17826 17816 18049 17821 
2235 2268 2565 2566 16132 18043 18047 18049 18048 18053 
2532 2566 2235 2565 18051 18049 17816 18045 18053 18047 
2533 2235 2566 2236 17821 18049 18052 17823 15913 18054 
2566 2235 2269 2236 18049 16138 18050 18054 15913 16139 
2236 2269 2567 2270 16139 18055 18056 16145 16147 18057 
2533 2567 2534 2236 18058 18059 17833 17823 18056 17828 
2236 2269 2566 2567 16139 18050 18054 18056 18055 18060 
2533 2567 2236 2566 18058 18056 17823 18052 18060 18054 
2534 2236 2567 2237 17828 18056 18059 17830 15920 18061 
2567 2236 2270 2237 18056 16145 18057 18061 15920 16146 
2237 2270 2568 2271 16146 18062 18063 16152 16154 18064 
2534 2568 2535 2237 18065 18066 17840 17830 18063 17835 
2237 2270 2567 2568 16146 18057 18061 18063 18062 18067 
2534 2568 2237 2567 18065 18063 17830 18059 18067 18061 
2535 2237 2568 2238 17835 18063 18066 17837 15927 18068 
2568 2237 2271 2238 18063 16152 18064 18068 15927 16153 
2238 2271 2569 2272 16153 18069 18070 16159 16161 18071 
2535 2569 2536 2238 18072 18073 17847 17837 18070 17842 
2238 2271 2568 2569 16153 18064 18068 18070 18069 18074 
2535 2569 2238 2568 18072 18070 17837 18066 18074 18068 
2536 2238 2569 2239 17842 18070 18073 17844 15934 18075 
2569 2238 2272 2239 18070 16159 18071 18075 15934 16160 
2239 2272 2570 2273 16160 18076 18077 16166 16168 18078 
2536 2570 2537 2239 18079 18080 17854 17844 18077 17849 
2239 2272 2569 2570 16160 18071 18075 18077 18076 18081 
2536 2570 2239 2569 18079 18077 17844 18073 18081 18075 
2537 2239 2570 2240 17849 18077 18080 17851 15941 18082 
2570 2239 2273 2240 18077 16166 18078 18082 15941 16167 
2240 2273 2571 2274 16167 18083 18084 16173 16175 18085 
2537 2571 2538 2240 18086 18087 17861 17851 18084 17856 
2240 2273 2570 2571 16167 18078 18082 18084 18083 18088 
2537 2571 2240 2570 18086 18084 17851 18080 18088 18082 
2538 2240 2571 2241 17856 18084 18087 17858 15948 18089 
2571 2240 2274 2241 18084 16173 18085 18089 15948 16174 
2241 2274 2572 2275 16174 18090 18091 16180 16182 18092 
2538 2572 2539 2241 18093 18094 17868 17858 18091 17863 
2241 2274 2571 2572 16174 18085 18089 18091 18090 18095 
2538 2572 2241 2571 18093 18091 17858 18087 18095 18089 
2539 2241 2572 2242 17863 18091 18094 17865 15955 18096 
2572 2241 2275 2242 18091 16180 18092 18096 15955 16181 
2242 2275 2573 2276 16181 18097 18098 16187 16189 18099 
2539 2573 2540 2242 18100 18101 17875 17865 18098 17870 
2242 2275 2572 2573 16181 18092 18096 18098 18097 18102 
2539 2573 2242 2572 18100 18098 17865 18094 18102 18096 
2540 2242 2573 2243 17870 18098 18101 17872 15962 18103 
2573 2242 2276 2243 18098 16187 18099 18103 15962 16188 
2244 2277 2575 2278 16199 18104 18105 16194 16198 18106 
2541 2575 2542 2244 18107 18108 17884 17882 18105 17877 
2244 2277 2574 2575 16199 18109 18110 18105 18104 18111 
2541 2575 2244 2574 18107 18105 17882 18112 18111 18110 
2542 2244 2575 2245 17877 18105 18108 17879 15971 18113 
2575 2244 2278 2245 18105 16194 18106 18113 15971 16195 
2245 2278 2576 2279 16195 18114 18115 16204 16206 18116 
2542 2576 2543 2245 18117 18118 17892 17879 18115 17887 
2245 2278 2575 2576 16195 18106 18113 18115 18114 18119 
2542 2576 2245 2575 18117 18115 17879 18108 18119 18113 
2543 2245 2576 2246 17887 18115 18118 17889 15979 18120 
2576 2245 2279 2246 18115 16204 18116 18120 15979 16205 
2246 2279 2577 2280 16205 18121 18122 16211 16213 18123 
2543 2577 2544 2246 18124 18125 17899 17889 18122 17894 
2246 2279 2576 2577 16205 18116 18120 18122 18121 18126 
2543 2577 2246 2576 18124 18122 17889 18118 18126 18120 
2544 2246 2577 2247 17894 18122 18125 17896 15986 18127 
2577 2246 2280 2247 18122 16211 18123 18127 15986 16212 
2247 2280 2578 2281 16212 18128 18129 16218 16220 18130 
2544 2578 2545 2247 18131 18132 17906 17896 18129 17901 
2247 2280 2577 2578 16212 18123 18127 18129 18128 18133 
2544 2578 2247 2577 18131 18129 17896 18125 18133 18127 
2545 2247 2578 2248 17901 18129 18132 17903 15993 18134 
2578 2247 2281 2248 18129 16218 18130 18134 15993 16219 
2248 2281 2579 2282 16219 18135 18136 16225 16227 18137 
2545 2579 2546 2248 18138 18139 17913 17903 18136 17908 
2248 2281 2578 2579 16219 18130 18134 18136 18135 18140 
2545 2579 2248 2578 18138 18136 17903 18132 18140 18134 
2546 2248 2579 2249 17908 18136 18139 17910 16000 18141 
2579 2248 2282 2249 18136 16225 18137 18141 16000 16226 
2249 2282 2580 2283 16226 18142 18143 16232 16234 18144 
2546 2580 2547 2249 18145 18146 17920 17910 18143 17915 
2249 2282 2579 2580 16226 18137 18141 18143 18142 18147 
2546 2580 2249 2579 18145 18143 17910 18139 18147 18141 
2547 2249 2580 2250 17915 18143 18146 17917 16007 18148 
2580 2249 2283 2250 18143 16232 18144 18148 16007 16233 
2250 2283 2581 2284 16233 18149 18150 16239 16241 18151 
2547 2581 2548 2250 18152 18153 17927 17917 18150 17922 
2250 2283 2580 2581 16233 18144 18148 18150 18149 18154 
2547 2581 2250 2580 18152 18150 17917 18146 18154 18148 
2548 2250 2581 2251 17922 18150 18153 17924 16014 18155 
2581 2250 2284 2251 18150 16239 18151 18155 16014 16240 
2251 2284 2582 2285 16240 18156 18157 16246 16248 18158 
2548 2582 2549 2251 18159 18160 17934 17924 18157 17929 
2251 2284 2581 2582 16240 18151 18155 18157 18156 18161 
2548 2582 2251 2581 18159 18157 17924 18153 18161 18155 
2549 2251 2582 2252 17929 18157 18160 17931 16021 18162 
2582 2251 2285 2252 18157 16246 18158 18162 16021 16247 
2252 2285 2583 2286 16247 18163 18164 16253 16255 18165 
2549 2583 2550 2252 18166 18167 17941 17931 18164 17936 
2252 2285 2582 2583 16247 18158 18162 18164 18163 18168 
2549 2583 2252 2582 18166 18164 17931 18160 18168 18162 
2550 2252 2583 2253 17936 18164 18167 17938 16028 18169 
2583 2252 2286 2253 18164 16253 18165 18169 16028 16254 
2253 2286 2584 2287 16254 18170 18171 16260 16262 18172 
2550 2584 2551 2253 18173 18174 17948 17938 18171 17943 
2253 2286 2583 2584 16254 18165 18169 18171 18170 18175 
2550 2584 2253 2583 18173 18171 17938 18167 18175 18169 
2551 2253 2584 2254 17943 18171 18174 17945 16035 18176 
2584 2253 2287 2254 18171 16260 18172 18176 16035 16261 
2254 2287 2585 2288 16261 18177 18178 16267 16269 18179 
2551 2585 2552 2254 18180 18181 17955 17945 18178 17950 
2254 2287 2584 2585 16261 18172 18176 18178 18177 18182 
2551 2585 2254 2584 18180 18178 17945 18174 18182 18176 
2552 2254 2585 2255 17950 18178 18181 17952 16042 18183 
2585 2254 2288 2255 18178 16267 18179 18183 16042 16268 
2255 2288 2586 2289 16268 18184 18185 16274 16276 18186 
2552 2586 2553 2255 18187 18188 17962 17952 18185 17957 
2255 2288 2585 2586 16268 18179 18183 18185 18184 18189 
2552 2586 2255 2585 18187 18185 17952 18181 18189 18183 
2553 2255 2586 2256 17957 18185 18188 17959 16049 18190 
2586 2255 2289 2256 18185 16274 18186 18190 16049 16275 
2256 2289 2587 2290 16275 18191 18192 16281 16283 18193 
2553 2587 2554 2256 18194 18195 17969 17959 18192 17964 
2256 2289 2586 2587 16275 18186 18190 18192 18191 18196 
2553 2587 2256 2586 18194 18192 17959 18188 18196 18190 
2554 2256 2587 2257 17964 18192 18195 17966 16056 18197 
2587 2256 2290 2257 18192 16281 18193 18197 16056 16282 
2257 2290 2588 2291 16282 18198 18199 16288 16290 18200 
2554 2588 2555 2257 18201 18202 17976 17966 18199 17971 
2257 2290 2587 2588 16282 18193 18197 18199 18198 18203 
2554 2588 2257 2587 18201 18199 17966 18195 18203 18197 
2555 2257 2588 2258 17971 18199 18202 17973 16063 18204 
2588 2257 2291 2258 18199 16288 18200 18204 16063 16289 
2258 2291 2589 2292 16289 18205 18206 16295 16297 18207 
2555 2589 2556 2258 18208 18209 17983 17973 18206 17978 
2258 2291 2588 2589 16289 18200 18204 18206 18205 18210 
2555 2589 2258 2588 18208 18206 17973 18202 18210 18204 
2556 2258 2589 2259 17978 18206 18209 17980 16070 18211 
2589 2258 2292 2259 18206 16295 18207 18211 16070 16296 
2259 2292 2590 2293 16296 18212 18213 16302 16304 18214 
2556 2590 2557 2259 18215 18216 17990 17980 18213 17985 
2259 2292 2589 2590 16296 18207 18211 18213 18212 18217 
2556 2590 2259 2589 18215 18213 17980 18209 18217 18211 
2557 2259 2590 2260 17985 18213 18216 17987 16077 18218 
2590 2259 2293 2260 18213 16302 18214 18218 16077 16303 
2260 2293 2591 2294 16303 18219 18220 16309 16311 18221 
2557 2591 2558 2260 18222 18223 17997 17987 18220 17992 
2260 2293 2590 2591 16303 18214 18218 18220 18219 18224 
2557 2591 2260 2590 18222 18220 17987 18216 18224 18218 
2558 2260 2591 2261 17992 18220 18223 17994 16084 18225 
2591 2260 2294 2261 18220 16309 18221 18225 16084 16310 
2261 2294 2592 2295 16310 18226 18227 16316 16318 18228 
2558 2592 2559 2261 18229 18230 18004 17994 18227 17999 
2261 2294 2591 2592 16310 18221 18225 18227 18226 18231 
2558 2592 2261 2591 18229 18227 17994 18223 18231 18225 
2559 2261 2592 2262 17999 18227 18230 18001 16091 18232 
2592 2261 2295 2262 18227 16316 18228 18232 16091 16317 
2262 2295 2593 2296 16317 18233 18234 16323 16325 18235 
2559 2593 2560 2262 18236 18237 18011 18001 18234 18006 
2262 2295 2592 2593 16317 18228 18232 18234 18233 18238 
2559 2593 2262 2592 18236 18234 18001 18230 18238 18232 
2560 2262 2593 2263 18006 18234 18237 18008 16098 18239 
2593 2262 2296 2263 18234 16323 18235 18239 16098 16324 
2263 2296 2594 2297 16324 18240 18241 16330 16332 18242 
2560 2594 2561 2263 18243 18244 18018 18008 18241 18013 
2263 2296 2593 2594 16324 18235 18239 18241 18240 18245 
2560 2594 2263 2593 18243 18241 18008 18237 18245 18239 
2561 2263 2594 2264 18013 18241 18244 18015 16105 18246 
2594 2263 2297 2264 18241 16330 18242 18246 16105 16331 
2264 2297 2595 2298 16331 18247 18248 16337 16339 18249 
2561 2595 2562 2264 18250 18251 18025 18015 18248 18020 
2264 2297 2594 2595 16331 18242 18246 18248 18247 18252 
2561 2595 2264 2594 18250 18248 18015 18244 18252 18246 
2562 2264 2595 2265 18020 18248 18251 18022 16112 18253 
2595 2264 2298 2265 18248 16337 18249 18253 16112 16338 
2265 2298 2596 2299 16338 18254 18255 16344 16346 18256 
2562 2596 2563 2265 18257 18258 18032 18022 18255 18027 
2265 2298 2595 2596 16338 18249 18253 18255 18254 18259 
2562 2596 2265 2595 18257 18255 18022 18251 18259 18253 
2563 2265 2596 2266 18027 18255 18258 18029 16119 18260 
2596 2265 2299 2266 18255 16344 18256 18260 16119 16345 
2266 2299 2597 2300 16345 18261 18262 16351 16353 18263 
2563 2597 2564 2266 18264 18265 18039 18029 18262 18034 
2266 2299 2596 2597 16345 18256 18260 18262 18261 18266 
2563 2597 2266 2596 18264 18262 18029 18258 18266 18260 
2564 2266 2597 2267 18034 18262 18265 18036 16126 18267 
2597 2266 2300 2267 18262 16351 18263 18267 16126 16352 
2267 2300 2598 2301 16352 18268 18269 16358 16360 18270 
2564 2598 2565 2267 18271 18272 18046 18036 18269 18041 
2267 2300 2597 2598 16352 18263 18267 18269 18268 18273 
2564 2598 2267 2597 18271 18269 18036 18265 18273 18267 
2565 2267 2598 2268 18041 18269 18272 18043 16133 18274 
2598 2267 2301 2268 18269 16358 18270 18274 16133 16359 
2268 2301 2599 2302 16359 18275 18276 16365 16367 18277 
2565 2599 2566 2268 18278 18279 18053 18043 18276 18048 
2268 2301 2598 2599 16359 18270 18274 18276 18275 18280 
2565 2599 2268 2598 18278 18276 18043 18272 18280 18274 
2566 2268 2599 2269 18048 18276 18279 18050 16140 18281 
2599 2268 2302 2269 18276 16365 18277 18281 16140 16366 
2269 2302 2600 2303 16366 18282 18283 16372 16374 18284 
2566 2600 2567 2269 18285 18286 18060 18050 18283 18055 
2269 2302 2599 2600 16366 18277 18281 18283 18282 18287 
2566 2600 2269 2599 18285 18283 18050 18279 18287 18281 
2567 2269 2600 2270 18055 18283 18286 18057 16147 18288 
2600 2269 2303 2270 18283 16372 18284 18288 16147 16373 
2270 2303 2601 2304 16373 18289 18290 16379 16381 18291 
2567 2601 2568 2270 18292 18293 18067 18057 18290 18062 
2270 2303 2600 2601 16373 18284 18288 18290 18289 18294 
2567 2601 2270 2600 18292 18290 18057 18286 18294 18288 
2568 2270 2601 2271 18062 18290 18293 18064 16154 18295 
2601 2270 2304 2271 18290 16379 18291 18295 16154 16380 
2271 2304 2602 2305 16380 18296 18297 16386 16388 18298 
2568 2602 2569 2271 18299 18300 18074 18064 18297 18069 
2271 2304 2601 2602 16380 18291 18295 18297 18296 18301 
2568 2602 2271 2601 18299 18297 18064 18293 18301 18295 
2569 2271 2602 2272 18069 18297 18300 18071 16161 18302 
2602 2271 2305 2272 18297 16386 18298 18302 16161 16387 
2272 2305 2603 2306 16387 18303 18304 16393 16395 18305 
2569 2603 2570 2272 18306 18307 18081 18071 18304 18076 
2272 2305 2602 2603 16387 18298 18302 18304 18303 18308 
2569 2603 2272 2602 18306 18304 18071 18300 18308 18302 
2570 2272 2603 2273 18076 18304 18307 18078 16168 18309 
2603 2272 2306 2273 18304 16393 18305 18309 16168 16394 
2273 2306 2604 2307 16394 18310 18311 16400 16402 18312 
2570 2604 2571 2273 18313 18314 18088 18078 18311 18083 
2273 2306 2603 2604 16394 18305 18309 18311 18310 18315 
2570 2604 2273 2603 18313 18311 18078 18307 18315 18309 
2571 2273 2604 2274 18083 18311 18314 18085 16175 18316 
2604 2273 2307 2274 18311 16400 18312 18316 16175 16401 
2274 2307 2605 2308 16401 18317 18318 16407 16409 18319 
2571 2605 2572 2274 18320 18321 18095 18085 18318 18090 
2274 2307 2604 2605 16401 18312 18316 18318 18317 18322 
2571 2605 2274 2604 18320 18318 18085 18314 18322 18316 
2572 2274 2605 2275 18090 18318 18321 18092 16182 18323 
2605 2274 2308 2275 18318 16407 18319 18323 16182 16408 
2275 2308 2606 2309 16408 18324 18325 16414 16416 18326 
2572 2606 2573 2275 18327 18328 18102 18092 18325 18097 
2275 2308 2605 2606 16408 18319 18323 18325 18324 18329 
2572 2606 2275 2605 18327 18325 18092 18321 18329 18323 
2573 2275 2606 2276 18097 18325 18328 18099 16189 18330 
2606 2275 2309 2276 18325 16414 18326 18330 16189 16415 
2277 2310 2608 2311 16426 18331 18332 16421 16425 18333 
2574 2608 2575 2277 18334 18335 18111 18109 18332 18104 
2277 2310 2607 2608 16426 18336 18337 18332 18331 18338 
2574 2608 2277 2607 18334 18332 18109 18339 18338 18337 
2575 2277 2608 2278 18104 18332 18335 18106 16198 18340 
2608 2277 2311 2278 18332 16421 18333 18340 16198 16422 
2278 2311 2609 2312 16422 18341 18342 16431 16433 18343 
2575 2609 2576 2278 18344 18345 18119 18106 18342 18114 
2278 2311 2608 2609 16422 18333 18340 18342 18341 18346 
2575 2609 2278 2608 18344 18342 18106 18335 18346 18340 
2576 2278 2609 2279 18114 18342 18345 18116 16206 18347 
2609 2278 2312 2279 18342 16431 18343 18347 16206 16432 
2279 2312 2610 2313 16432 18348 18349 16438 16440 18350 
2576 2610 2577 2279 18351 18352 18126 18116 18349 18121 
2279 2312 2609 2610 16432 18343 18347 18349 18348 18353 
2576 2610 2279 2609 18351 18349 18116 18345 18353 18347 
2577 2279 2610 2280 18121 18349 18352 18123 16213 18354 
2610 2279 2313 2280 18349 16438 18350 18354 16213 16439 
2280 2313 2611 2314 16439 18355 18356 16445 16447 18357 
2577 2611 2578 2280 18358 18359 18133 18123 18356 18128 
2280 2313 2610 2611 16439 18350 18354 18356 18355 18360 
2577 2611 2280 2610 18358 18356 18123 18352 18360 18354 
2578 2280 2611 2281 18128 18356 18359 18130 16220 18361 
2611 2280 2314 2281 18356 16445 18357 18361 16220 16446 
2281 2314 2612 2315 16446 18362 18363 16452 16454 18364 
2578 2612 2579 2281 18365 18366 18140 18130 18363 18135 
2281 2314 2611 2612 16446 18357 18361 18363 18362 18367 
2578 2612 2281 2611 18365 18363 18130 18359 18367 18361 
2579 2281 2612 2282 18135 18363 18366 18137 16227 18368 
2612 2281 2315 2282 18363 16452 18364 18368 16227 16453 
2282 2315 2613 2316 16453 18369 18370 16459 16461 18371 
2579 2613 2580 2282 18372 18373 18147 18137 18370 18142 
2282 2315 2612 2613 16453 18364 18368 18370 18369 18374 
2579 2613 2282 2612 18372 18370 18137 18366 18374 18368 
2580 2282 2613 2283 18142 18370 18373 18144 16234 18375 
2613 2282 2316 2283 18370 16459 18371 18375 16234 16460 
2283 2316 2614 2317 16460 18376 18377 16466 16468 18378 
2580 2614 2581 2283 18379 18380 18154 18144 18377 18149 
2283 2316 2613 2614 16460 18371 18375 18377 18376 18381 
2580 2614 2283 2613 18379 18377 18144 18373 18381 18375 
2581 2283 2614 2284 18149 18377 18380 18151 16241 18382 
2614 2283 2317 2284 18377 16466 18378 18382 16241 16467 
2284 2317 2615 2318 16467 18383 18384 16473 16475 18385 
2581 2615 2582 2284 18386 18387 18161 18151 18384 18156 
2284 2317 2614 2615 16467 18378 18382 18384 18383 18388 
2581 2615 2284 2614 18386 18384 18151 18380 18388 18382 
2582 2284 2615 2285 18156 18384 18387 18158 16248 18389 
2615 2284 2318 2285 18384 16473 18385 18389 16248 16474 
2285 2318 2616 2319 16474 18390 18391 16480 16482 18392 
2582 2616 2583 2285 18393 18394 18168 18158 18391 18163 
2285 2318 2615 2616 16474 18385 18389 18391 18390 18395 
2582 2616 2285 2615 18393 18391 18158 18387 18395 18389 
2583 2285 2616 2286 18163 18391 18394 18165 16255 18396 
2616 2285 2319 2286 18391 16480 18392 18396 16255 16481 
2286 2319 2617 2320 16481 18397 18398 16487 16489 18399 
2583 2617 2584 2286 18400 18401 18175 18165 18398 18170 
2286 2319 2616 2617 16481 18392 18396 18398 18397 18402 
2583 2617 2286 2616 18400 18398 18165 18394 18402 18396 
2584 2286 2617 2287 18170 18398 18401 18172 16262 18403 
2617 2286 2320 2287 18398 16487 18399 18403 16262 16488 
2287 2320 2618 2321 16488 18404 18405 16494 16496 18406 
2584 2618 2585 2287 18407 18408 18182 18172 18405 18177 
2287 2320 2617 2618 16488 18399 18403 18405 18404 18409 
2584 2618 2287 2617 18407 18405 18172 18401 18409 18403 
2585 2287 2618 2288 18177 18405 18408 18179 16269 18410 
2618 2287 2321 2288 18405 16494 18406 18410 16269 16495 
2288 2321 2619 2322 16495 18411 18412 16501 16503 18413 
2585 2619 2586 2288 18414 18415 18189 18179 18412 18184 
2288 2321 2618 2619 16495 18406 18410 18412 18411 18416 
2585 2619 2288 2618 18414 18412 18179 18408 18416 18410 
2586 2288 2619 2289 18184 18412 18415 18186 16276 18417 
2619 2288 2322 2289 18412 16501 18413 18417 16276 16502 
2289 2322 2620 2323 16502 18418 18419 16508 16510 18420 
2586 2620 2587 2289 18421 18422 18196 18186 18419 18191 
2289 2322 2619 2620 16502 18413 18417 18419 18418 18423 
2586 2620 2289 2619 18421 18419 18186 18415 18423 18417 
2587 2289 2620 2290 18191 18419 18422 18193 16283 18424 
2620 2289 2323 2290 18419 16508 18420 18424 16283 16509 
2290 2323 2621 2324 16509 18425 18426 16515 16517 18427 
2587 2621 2588 2290 18428 18429 18203 18193 18426 18198 
2290 2323 2620 2621 16509 18420 18424 18426 18425 18430 
2587 2621 2290 2620 18428 18426 18193 18422 18430 18424 
2588 2290 2621 2291 18198 18426 18429 18200 16290 18431 
2621 2290 2324 2291 18426 16515 18427 18431 16290 16516 
2291 2324 2622 2325 16516 18432 18433 16522 16524 18434 
2588 2622 2589 2291 18435 18436 18210 18200 18433 18205 
2291 2324 2621 2622 16516 18427 18431 18433 18432 18437 
2588 2622 2291 2621 18435 18433 18200 18429 18437 18431 
2589 2291 2622 2292 18205 18433 18436 18207 16297 18438 
2622 2291 2325 2292 18433 16522 18434 18438 16297 16523 
2292 2325 2623 2326 16523 18439 18440 16529 16531 18441 
2589 2623 2590 2292 18442 18443 18217 18207 18440 18212 
2292 2325 2622 2623 16523 18434 18438 18440 18439 18444 
2589 2623 2292 2622 18442 18440 18207 18436 18444 18438 
2590 2292 2623 2293 18212 18440 18443 18214 16304 18445 
2623 2292 2326 2293 18440 16529 18441 18445 16304 16530 
2293 2326 2624 2327 16530 18446 18447 16536 16538 18448 
2590 2624 2591 2293 18449 18450 18224 18214 18447 18219 
2293 2326 2623 2624 16530 18441 18445 18447 18446 18451 
2590 2624 2293 2623 18449 18447 18214 18443 18451 18445 
2591 2293 2624 2294 18219 18447 18450 18221 16311 18452 
2624 2293 2327 2294 18447 16536 18448 18452 16311 16537 
2294 2327 2625 2328 16537 18453 18454 16543 16545 18455 
2591 2625 2592 2294 18456 18457 18231 18221 18454 18226 
2294 2327 2624 2625 16537 18448 18452 18454 18453 18458 
2591 2625 2294 2624 18456 18454 18221 18450 18458 18452 
2592 2294 2625 2295 18226 18454 18457 18228 16318 18459 
2625 2294 2328 2295 18454 16543 18455 18459 16318 16544 
2295 2328 2626 2329 16544 18460 18461 16550 16552 18462 
2592 2626 2593 2295 18463 18464 18238 18228 18461 18233 
2295 2328 2625 2626 16544 18455 18459 18461 18460 18465 
2592 2626 2295 2625 18463 18461 18228 18457 18465 18459 
2593 2295 2626 2296 18233 18461 18464 18235 16325 18466 
2626 2295 2329 2296 18461 16550 18462 18466 16325 16551 
2296 2329 2627 2330 16551 18467 18468 16557 16559 18469 
2593 2627 2594 2296 18470 18471 18245 18235 18468 18240 
2296 2329 2626 2627 16551 18462 18466 18468 18467 18472 
2593 2627 2296 2626 18470 18468 18235 18464 18472 18466 
2594 2296 2627 2297 18240 18468 18471 18242 16332 18473 
2627 2296 2330 2297 18468 16557 18469 18473 16332 16558 
2297 2330 2628 2331 16558 18474 18475 16564 16566 18476 
2594 2628 2595 2297 18477 18478 18252 18242 18475 18247 
2297 2330 2627 2628 16558 18469 18473 18475 18474 18479 
2594 2628 2297 2627 18477 18475 18242 18471 18479 18473 
2595 2297 2628 2298 18247 18475 18478 18249 16339 18480 
2628 2297 2331 2298 18475 16564 18476 18480 16339 16565 
2298 2331 2629 2332 16565 18481 18482 16571 16573 18483 
2595 2629 2596 2298 18484 18485 18259 18249 18482 18254 
2298 2331 2628 2629 16565 18476 18480 18482 18481 18486 
2595 2629 2298 2628 18484 18482 18249 18478 18486 18480 
2596 2298 2629 2299 18254 18482 18485 18256 16346 18487 
2629 2298 2332 2299 18482 16571 18483 18487 16346 16572 
2299 2332 2630 2333 16572 18488 18489 16578 16580 18490 
2596 2630 2597 2299 18491 18492 18266 18256 18489 18261 
2299 2332 2629 2630 16572 18483 18487 18489 18488 18493 
2596 2630 2299 2629 18491 18489 18256 18485 18493 18487 
2597 2299 2630 2300 18261 18489 18492 18263 16353 18494 
2630 2299 2333 2300 18489 16578 18490 18494 16353 16579 
2300 2333 2631 2334 16579 18495 18496 16585 16587 18497 
2597 2631 2598 2300 18498 18499 18273 18263 18496 18268 
2300 2333 2630 2631 16579 18490 18494 18496 18495 18500 
2597 2631 2300 2630 18498 18496 18263 18492 18500 18494 
2598 2300 2631 2301 18268 18496 18499 18270 16360 18501 
2631 2300 2334 2301 18496 16585 18497 18501 16360 16586 
2301 2334 2632 2335 16586 18502 18503 16592 16594 18504 
2598 2632 2599 2301 18505 18506 18280 18270 18503 18275 
2301 2334 2631 2632 16586 18497 18501 18503 18502 18507 
2598 2632 2301 2631 18505 18503 18270 18499 18507 18501 
2599 2301 2632 2302 18275 18503 18506 18277 16367 18508 
2632 2301 2335 2302 18503 16592 18504 18508 16367 16593 
2302 2335 2633 2336 16593 18509 18510 16599 16601 18511 
2599 2633 2600 2302 18512 18513 18287 18277 18510 18282 
2302 2335 2632 2633 16593 18504 18508 18510 18509 18514 
2599 2633 2302 2632 18512 18510 18277 18506 18514 18508 
2600 2302 2633 2303 18282 18510 18513 18284 16374 18515 
2633 2302 2336 2303 18510 16599 18511 18515 16374 16600 
2303 2336 2634 2337 16600 18516 18517 16606 16608 18518 
2600 2634 2601 2303 18519 18520 18294 18284 18517 18289 
2303 2336 2633 2634 16600 18511 18515 18517 18516 18521 
2600 2634 2303 2633 18519 18517 18284 18513 18521 18515 
2601 2303 2634 2304 18289 18517 18520 18291 16381 18522 
2634 2303 2337 2304 18517 16606 18518 18522 16381 16607 
2304 2337 2635 2338 16607 18523 18524 16613 16615 18525 
2601 2635 2602 2304 18526 18527 18301 18291 18524 18296 
2304 2337 2634 2635 16607 18518 18522 18524 18523 18528 
2601 2635 2304 2634 18526 18524 18291 18520 18528 18522 
2602 2304 2635 2305 18296 18524 18527 18298 16388 18529 
2635 2304 2338 2305 18524 16613 18525 18529 16388 16614 
2305 2338 2636 2339 16614 18530 18531 16620 16622 18532 
2602 2636 2603 2305 18533 18534 18308 18298 18531 18303 
2305 2338 2635 2636 16614 18525 18529 18531 18530 18535 
2602 2636 2305 2635 18533 18531 18298 18527 18535 18529 
2603 2305 2636 2306 18303 18531 18534 18305 16395 18536 
2636 2305 2339 2306 18531 16620 18532 18536 16395 16621 
2306 2339 2637 2340 16621 18537 18538 16627 16629 18539 
2603 2637 2604 2306 18540 18541 18315 18305 18538 18310 
2306 2339 2636 2637 16621 18532 18536 18538 18537 18542 
2603 2637 2306 2636 18540 18538 18305 18534 18542 18536 
2604 2306 2637 2307 18310 18538 18541 18312 16402 18543 
2637 2306 2340 2307 18538 16627 18539 18543 16402 16628 
2307 2340 2638 2341 16628 18544 18545 16634 16636 18546 
2604 2638 2605 2307 18547 18548 18322 18312 18545 18317 
2307 2340 2637 2638 16628 18539 18543 18545 18544 18549 
2604 2638 2307 2637 18547 18545 18312 18541 18549 18543 
2605 2307 2638 2308 18317 18545 18548 18319 16409 18550 
2638 2307 2341 2308 18545 16634 18546 18550 16409 16635 
2308 2341 2639 2342 16635 18551 18552 16641 16643 18553 
2605 2639 2606 2308 18554 18555 18329 18319 18552 18324 
2308 2341 2638 2639 16635 18546 18550 18552 18551 18556 
2605 2639 2308 2638 18554 18552 18319 18548 18556 18550 
2606 2308 2639 2309 18324 18552 18555 18326 16416 18557 
2639 2308 2342 2309 18552 16641 18553 18557 16416 16642 
2310 2343 2641 2344 16653 18558 18559 16648 16652 18560 
2607 2641 2608 2310 18561 18562 18338 18336 18559 18331 
2310 2343 2640 2641 16653 18563 18564 18559 18558 18565 
2607 2641 2310 2640 18561 18559 18336 18566 18565 18564 
2608 2310 2641 2311 18331 18559 18562 18333 16425 18567 
2641 2310 2344 2311 18559 16648 18560 18567 16425 16649 
2311 2344 2642 2345 16649 18568 18569 16658 16660 18570 
2608 2642 2609 2311 18571 18572 18346 18333 18569 18341 
2311 2344 2641 2642 16649 18560 18567 18569 18568 18573 
2608 2642 2311 2641 18571 18569 18333 18562 18573 18567 
2609 2311 2642 2312 18341 18569 18572 18343 16433 18574 
2642 2311 2345 2312 18569 16658 18570 18574 16433 16659 
2312 2345 2643 2346 16659 18575 18576 16665 16667 18577 
2609 2643 2610 2312 18578 18579 18353 18343 18576 18348 
2312 2345 2642 2643 16659 18570 18574 18576 18575 18580 
2609 2643 2312 2642 18578 18576 18343 18572 18580 18574 
2610 2312 2643 2313 18348 18576 18579 18350 16440 18581 
2643 2312 2346 2313 18576 16665 18577 18581 16440 16666 
2313 2346 2644 2347 16666 18582 18583 16672 16674 18584 
2610 2644 2611 2313 18585 18586 18360 18350 18583 18355 
2313 2346 2643 2644 16666 18577 18581 18583 18582 18587 
2610 2644 2313 2643 18585 18583 18350 18579 18587 18581 
2611 2313 2644 2314 18355 18583 18586 18357 16447 18588 
2644 2313 2347 2314 18583 16672 18584 18588 16447 16673 
2314 2347 2645 2348 16673 18589 18590 16679 16681 18591 
2611 2645 2612 2314 18592 18593 18367 18357 18590 18362 
2314 2347 2644 2645 16673 18584 18588 18590 18589 18594 
2611 2645 2314 2644 18592 18590 18357 18586 18594 18588 
2612 2314 2645 2315 18362 18590 18593 18364 16454 18595 
2645 2314 2348 2315 18590 16679 18591 18595 16454 16680 
2315 2348 2646 2349 16680 18596 18597 16686 16688 18598 
2612 2646 2613 2315 18599 18600 18374 18364 18597 18369 
2315 2348 2645 2646 16680 18591 18595 18597 18596 18601 
2612 2646 2315 2645 18599 18597 18364 18593 18601 18595 
2613 2315 2646 2316 18369 18597 18600 18371 16461 18602 
2646 2315 2349 2316 18597 16686 18598 18602 16461 16687 
2316 2349 2647 2350 16687 18603 18604 16693 16695 18605 
2613 2647 2614 2316 18606 18607 18381 18371 18604 18376 
2316 2349 2646 2647 16687 18598 18602 18604 18603 18608 
2613 2647 2316 2646 18606 18604 18371 18600 18608 18602 
2614 2316 2647 2317 18376 18604 18607 18378 16468 18609 
2647 2316 2350 2317 18604 16693 18605 18609 16468 16694 
2317 2350 2648 2351 16694 18610 18611 16700 16702 18612 
2614 2648 2615 2317 18613 18614 18388 18378 18611 18383 
2317 2350 2647 2648 16694 18605 18609 18611 18610 18615 
2614 2648 2317 2647 18613 18611 18378 18607 18615 18609 
2615 2317 2648 2318 18383 18611 18614 18385 16475 18616 
2648 2317 2351 2318 18611 16700 18612 18616 16475 16701 
2318 2351 2649 2352 16701 18617 18618 16707 16709 18619 
2615 2649 2616 2318 18620 18621 18395 18385 18618 18390 
2318 2351 2648 2649 16701 18612 18616 18618 18617 18622 
2615 2649 2318 2648 18620 18618 18385 18614 18622 18616 
2616 2318 2649 2319 18390 18618 18621 18392 16482 18623 
2649 2318 2352 2319 18618 16707 18619 18623 16482 16708 
2319 2352 2650 2353 16708 18624 18625 16714 16716 18626 
2616 2650 2617 2319 18627 18628 18402 18392 18625 18397 
2319 2352 2649 2650 16708 18619 18623 18625 18624 18629 
2616 2650 2319 2649 18627 18625 18392 18621 18629 18623 
2617 2319 2650 2320 18397 18625 18628 18399 16489 18630 
2650 2319 2353 2320 18625 16714 18626 18630 16489 16715 
2320 2353 2651 2354 16715 18631 18632 16721 16723 18633 
2617 2651 2618 2320 18634 18635 18409 18399 18632 18404 
2320 2353 2650 2651 16715 18626 18630 18632 18631 18636 
2617 2651 2320 2650 18634 18632 18399 18628 18636 18630 
2618 2320 2651 2321 18404 18632 18635 18406 16496 18637 
2651 2320 2354 2321 18632 16721 18633 18637 16496 16722 
2321 2354 2652 2355 16722 18638 18639 16728 16730 18640 
2618 2652 2619 2321 18641 18642 18416 18406 18639 18411 
2321 2354 2651 2652 16722 18633 18637 18639 18638 18643 
2618 2652 2321 2651 18641 18639 18406 18635 18643 18637 
2619 2321 2652 2322 18411 18639 18642 18413 16503 18644 
2652 2321 2355 2322 18639 16728 18640 18644 16503 16729 
2322 2355 2653 2356 16729 18645 18646 16735 16737 18647 
2619 2653 2620 2322 18648 18649 18423 18413 18646 18418 
2322 2355 2652 2653 16729 18640 18644 18646 18645 18650 
2619 2653 2322 2652 18648 18646 18413 18642 18650 18644 
2620 2322 2653 2323 18418 18646 18649 18420 16510 18651 
2653 2322 2356 2323 18646 16735 18647 18651 16510 16736 
2323 2356 2654 2357 16736 18652 18653 16742 16744 18654 
2620 2654 2621 2323 18655 18656 18430 18420 18653 18425 
2323 2356 2653 2654 16736 18647 18651 18653 18652 18657 
2620 2654 2323 2653 18655 18653 18420 18649 18657 18651 
2621 2323 2654 2324 18425 18653 18656 18427 16517 18658 
2654 2323 2357 2324 18653 16742 18654 18658 16517 16743 
2324 2357 2655 2358 16743 18659 18660 16749 16751 18661 
2621 2655 2622 2324 18662 18663 18437 18427 18660 18432 
2324 2357 2654 2655 16743 18654 18658 18660 18659 18664 
2621 2655 2324 2654 18662 18660 18427 18656 18664 18658 
2622 2324 2655 2325 18432 18660 18663 18434 16524 18665 
2655 2324 2358 2325 18660 16749 18661 18665 16524 16750 
2325 2358 2656 2359 16750 18666 18667 16756 16758 18668 
2622 2656 2623 2325 18669 18670 18444 18434 18667 18439 
2325 2358 2655 2656 16750 18661 18665 18667 18666 18671 
2622 2656 2325 2655 18669 18667 18434 18663 18671 18665 
2623 2325 2656 2326 18439 18667 18670 18441 16531 18672 
2656 2325 2359 2326 18667 16756 18668 18672 16531 16757 
2326 2359 2657 2360 16757 18673 18674 16763 16765 18675 
2623 2657 2624 2326 18676 18677 18451 18441 18674 18446 
2326 2359 2656 2657 16757 18668 18672 18674 18673 18678 
2623 2657 2326 2656 18676 18674 18441 18670 18678 18672 
2624 2326 2657 2327 18446 18674 18677 18448 16538 18679 
2657 2326 2360 2327 18674 16763 18675 18679 16538 16764 
2327 2360 2658 2361 16764 18680 18681 16770 16772 18682 
2624 2658 2625 2327 18683 18684 18458 18448 18681 18453 
2327 2360 2657 2658 16764 18675 18679 18681 18680 18685 
2624 2658 2327 2657 18683 18681 18448 18677 18685 18679 
2625 2327 2658 2328 18453 18681 18684 18455 16545 18686 
2658 2327 2361 2328 18681 16770 18682 18686 16545 16771 
2328 2361 2659 2362 16771 18687 18688 16777 16779 18689 
2625 2659 2626 2328 18690 18691 18465 18455 18688 18460 
2328 2361 2658 2659 16771 18682 18686 18688 18687 18692 
2625 2659 2328 2658 18690 18688 18455 18684 18692 18686 
2626 2328 2659 2329 18460 18688 18691 18462 16552 18693 
2659 2328 2362 2329 18688 16777 18689 18693 16552 16778 
2329 2362 2660 2363 16778 18694 18695 16784 16786 18696 
2626 2660 2627 2329 18697 18698 18472 18462 18695 18467 
2329 2362 2659 2660 16778 18689 18693 18695 18694 18699 
2626 2660 2329 2659 18697 18695 18462 18691 18699 18693 
2627 2329 2660 2330 18467 18695 18698 18469 16559 18700 
2660 2329 2363 2330 18695 16784 18696 18700 16559 16785 
2330 2363 2661 2364 16785 18701 18702 16791 16793 18703 
2627 2661 2628 2330 18704 18705 18479 18469 18702 18474 
2330 2363 2660 2661 16785 18696 18700 18702 18701 18706 
2627 2661 2330 2660 18704 18702 18469 18698 18706 18700 
2628 2330 2661 2331 18474 18702 18705 18476 16566 18707 
2661 2330 2364 2331 18702 16791 18703 18707 16566 16792 
2331 2364 2662 2365 16792 18708 18709 16798 16800 18710 
2628 2662 2629 2331 18711 18712 18486 18476 18709 18481 
2331 2364 2661 2662 16792 18703 18707 18709 18708 18713 
2628 2662 2331 2661 18711 18709 18476 18705 18713 18707 
2629 2331 2662 2332 18481 18709 18712 18483 16573 18714 
2662 2331 2365 2332 18709 16798 18710 18714 16573 16799 
2332 2365 2663 2366 16799 18715 18716 16805 16807 18717 
2629 2663 2630 2332 18718 18719 18493 18483 18716 18488 
2332 2365 2662 2663 16799 18710 18714 18716 18715 18720 
2629 2663 2332 2662 18718 18716 18483 18712 18720 18714 
2630 2332 2663 2333 18488 18716 18719 18490 16580 18721 
2663 2332 2366 2333 18716 16805 18717 18721 16580 16806 
2333 2366 2664 2367 16806 18722 18723 16812 16814 18724 
2630 2664 2631 2333 18725 18726 18500 18490 18723 18495 
2333 2366 2663 2664 16806 18717 18721 18723 18722 18727 
2630 2664 2333 2663 18725 18723 18490 18719 18727 18721 
2631 2333 2664 2334 18495 18723 18726 18497 16587 18728 
2664 2333 2367 2334 18723 16812 18724 18728 16587 16813 
2334 2367 2665 2368 16813 18729 18730 16819 16821 18731 
2631 2665 2632 2334 18732 18733 18507 18497 18730 18502 
2334 2367 2664 2665 16813 18724 18728 18730 18729 18734 
2631 2665 2334 2664 18732 18730 18497 18726 18734 18728 
2632 2334 2665 2335 18502 18730 18733 18504 16594 18735 
2665 2334 2368 2335 18730 16819 18731 18735 16594 16820 
2335 2368 2666 2369 16820 18736 18737 16826 16828 18738 
2632 2666 2633 2335 18739 18740 18514 18504 18737 18509 
2335 2368 2665 2666 16820 18731 18735 18737 18736 18741 
2632 2666 2335 2665 18739 18737 18504 18733 18741 18735 
2633 2335 2666 2336 18509 18737 18740 18511 16601 18742 
2666 2335 2369 2336 18737 16826 18738 18742 16601 16827 
2336 2369 2667 2370 16827 18743 18744 16833 16835 18745 
2633 2667 2634 2336 18746 18747 18521 18511 18744 18516 
2336 2369 2666 2667 16827 18738 18742 18744 18743 18748 
2633 2667 2336 2666 18746 18744 18511 18740 18748 18742 
2634 2336 2667 2337 18516 18744 18747 18518 16608 18749 
2667 2336 2370 2337 18744 16833 18745 18749 16608 16834 
2337 2370 2668 2371 16834 18750 18751 16840 16842 18752 
2634 2668 2635 2337 18753 18754 18528 18518 18751 18523 
2337 2370 2667 2668 16834 18745 18749 18751 18750 18755 
2634 2668 2337 2667 18753 18751 18518 18747 18755 18749 
2635 2337 2668 2338 18523 18751 18754 18525 16615 18756 
2668 2337 2371 2338 18751 16840 18752 18756 16615 16841 
2338 2371 2669 2372 16841 18757 18758 16847 16849 18759 
2635 2669 2636 2338 18760 18761 18535 18525 18758 18530 
2338 2371 2668 2669 16841 18752 18756 18758 18757 18762 
2635 2669 2338 2668 18760 18758 18525 18754 18762 18756 
2636 2338 2669 2339 18530 18758 18761 18532 16622 18763 
2669 2338 2372 2339 18758 16847 18759 18763 16622 16848 
2339 2372 2670 2373 16848 18764 18765 16854 16856 18766 
2636 2670 2637 2339 18767 18768 18542 18532 18765 18537 
2339 2372 2669 2670 16848 18759 18763 18765 18764 18769 
2636 2670 2339 2669 18767 18765 18532 18761 18769 18763 
2637 2339 2670 2340 18537 18765 18768 18539 16629 18770 
2670 2339 2373 2340 18765 16854 18766 18770 16629 16855 
2340 2373 2671 2374 16855 18771 18772 16861 16863 18773 
2637 2671 2638 2340 18774 18775 18549 18539 18772 18544 
2340 2373 2670 2671 16855 18766 18770 18772 18771 18776 
2637 2671 2340 2670 18774 18772 18539 18768 18776 18770 
2638 2340 2671 2341 18544 18772 18775 18546 16636 18777 
2671 2340 2374 2341 18772 16861 18773 18777 16636 16862 
2341 2374 2672 2375 16862 18778 18779 16868 16870 18780 
2638 2672 2639 2341 18781 18782 18556 18546 18779 18551 
2341 2374 2671 2672 16862 18773 18777 18779 18778 18783 
2638 2672 2341 2671 18781 18779 18546 18775 18783 18777 
2639 2341 2672 2342 18551 18779 18782 18553 16643 18784 
2672 2341 2375 2342 18779 16868 18780 18784 16643 16869 
CELL_TYPES 12288
24 24 24 24 24 24 24 24 24 24 24 24 24 24 24 24 24 24 24 24 24 24 24 24 24 24 24 24 24 24 24 24 24 24 24 24 24 24 24 24 24 24 24 24 24 24 24 24 24 24 24 24 24 24 24 24 24 24 24 24 24 24 24 24 24 24 24 24 24 24 24 24 24 24 24 24 24 24 24 24 24 24 24 24 24 24 24 24 24 24 24 24 24 24 24 24 24 24 24 24 24 24 24 24 24 24 24 24 24 24 24 24 24 24 24 24 24 24 24 24 24 24 24 24 24 24 24 24 24 24 24 24 24 24 24 24 24 24 24 24 24 24 24 24 24 24 24 24 24 24 24 24 24 24 24 24 24 24 24 24 24 24 24 24 24 24 24 24 24 24 24 24 24 24 24 24 24 24 24 24 24 24 24 24 24 24 24 24 24 24 24 24 24 24 24 24 24 24 24 24 24 24 24 24 24 24 24 24 24 24 24 24 24 24 24 24 24 24 24 24 24 24 24 24 24 24 24 24 24 24 24 24 24 24 24 24 24 24 24 24 24 24 24 24 24 24 24 24 24 24 24 24 24 24 24 24 24 24 24 24 24 24 24 24 24 24 24 24 24 24 24 24 24 24 24 24 24 24 24 24 24 24 24 24 24 24 24 24 24 24 24 24 24 24 24 24 24 24 24 24 24 24 24 24 24 24 24 24 24 24 24 24 24 24 24 24 24 24 24 24 24 24 24 24 24 24 24 24 24 24 24 24 24 24 24 24 24 24 24 24 24 24 24 24 24 24 24 24 24 24 24 24 24 24 24 24 24 24 24 24 24 24 24 24 24 24 24 24 24 24 24 24 24 24 24 24 24 24 24 24 24 24 24 24 24 24 24 24 24 24 24 24 24 24 24 24 24 24 24 24 24 24 24 24 24 24 24 24 24 24 24 24 24 24 24 24 24 24 24 24 24 24 24 24 24 24 24 24 24 24 24 24 24 24 24 24 24 24 24 24 24 24 24 24 24 24 24 24 24 24 24 24 24 24 24 24 24 24 24 24 24 24 24 24 24 24 24 24 24 24 24 24 24 24 24 24 24 24 24 24 24 24 24 24 24 24 24 24 24 24 24 24 24 24 24 24 24 24 24 24 24 24 24 24 24 24 24 24 24 24 24 24 24 24 24 24 24 24 24 24 24 24 24 24 24 24 24 24 24 24 24 24 24 24 24 24 24 24 24 24 24 24 24 24 24 24 24 24 24 24 24 24 24 24 24 24 24 24 24 24 24 24 24 24 24 24 24 24 24 24 24 24 24 24 24 24 24 24 24 24 24 24 24 24 24 24 24 24 24 24 24 24 24 24 24 24 24 24 24 24 24 24 24 24 24 24 24 24 24 24 24 24 24 24 24 24 24 24 24 24 24 24 24 24 24 24 24 24 24 24 24 24 24 24 24 24 24 24 24 24 24 24 24 24 24 24 24 24 24 24 24 24 24 24 24 24 24 24 24 24 24 24 24 24 24 24 24 24 24 24 24 24 24 24 24 24 24 24 24 24 24 24 24 24 24 24 24 24 24 24 24 24 24 24 24 24 24 24 24 24 24 24 24 24 24 24 24 24 24 24 24 24 24 24 24 24 24 24 24 24 24 24 24 24 24 24 24 24 24 24 24 24 24 24 24 24 24 24 24 24 24 24 24 24 24 24 24 24 24 24 24 24 24 24 24 24 24 24 24 24 24 24 24 24 24 24 24 24 24 24 24 24 24 24 24 24 24 24 24 24 24 24 24 24 24 24 24 24 24 24 24 24 24 24 24 24 24 24 24 24 24 24 24 24 24 24 24 24 24 24 24 24 24 24 24 24 24 24 24 24 24 24 24 24 24 24 24 24 24 24 24 24 24 24 24 24 24 24 24 24 24 24 24 24 24 24 24 24 24 24 24 24 24 24 24 24 24 24 24 24 24 24 24 24 24 24 24 24 24 24 24 24 24 24 24 24 24 24 24 24 24 24 24 24 24 24 24 24 24 24 24 24 24 24 24 24 24 24 24 24 24 24 24 24 24 24 24 24 24 24 24 24 24 24 24 24 24 24 24 24 24 24 24 24 24 24 24 24 24 24 24 24 24 24 24 24 24 24 24 24 24 24 24 24 24 24 24 24 24 24 24 24 24 24 24 24 24 24 24 24 24 24 24 24 24 24 24 24 24 24 24 24 24 24 24 24 24 24 24 24 24 24 24 24 24 24 24 24 24 24 24 24 24 24 24 24 24 24 24 24 24 24 24 24 24 24 24 24 24 24 24 24 24 24 24 24 24 24 24 24 24 24 24 24 24 24 24 24 24 24 24 24 24 24 24 24 24 24 24 24 24 24 24 24 24 24 24 24 24 24 24 24 24 24 24 24 24 24 24 24 24 24 24 24 24 24 24 24 24 24 24 24 24 24 24 24 24 24 24 24 24 24 24 24 24 24 24 24 24 24 24 24 24 24 24 24 24 24 24 24 24 24 24 24 24 24 24 24 24 24 24 24 24 24 24 24 24 24 24 24 24 24 24 24 24 24 24 24 24 24 24 24 24 24 24 24 24 24 24 24 24 24 24 24 24 24 24 24 24 24 24 24 24 24 24 24 24 24 24 24 24 24 24 24 24 24 24 24 24 24 24 24 24 24 24 24 24 24 24 24 24 24 24 24 24 24 24 24 24 24 24 24 24 24 24 24 24 24 24 24 24 24 24 24 24 24 24 24 24 24 24 24 24 24 24 24 24 24 24 24 24 24 24 24 24 24 24 24 24 24 24 24 24 24 24 24 24 24 24 24 24 24 24 24 24 24 24 24 24 24 24 24 24 24 24 24 24 24 24 24 24 24 24 24 24 24 24 24 24 24 24 24 24 24 24 24 24 24 24 24 24 24 24 24 24 24 24 24 24 24 24 24 24 24 24 24 24 24 24 24 24 24 24 24 24 24 24 24 24 24 24 24 24 24 24 24 24 24 24 24 24 24 24 24 24 24 24 24 24 24 24 24 24 24 24 24 24 24 24 24 24 24 24 24 24 24 24 24 24 24 24 24 24 24 24 24 24 24 24 24 24 24 24 24 24 24 24 24 24 24 24 24 24 24 24 24 24 24 24 24 24 24 24 24 24 24 24 24 24 24 24 24 24 24 24 24 24 24 24 24 24 24 24 24 24 24 24 24 24 24 24 24 24 24 24 24 24 24 24 24 24 24 24 24 24 24 24 24 24 24 24 24 24 24 24 24 24 24 24 24 24 24 24 24 24 24 24 24 24 24 24 24 24 24 24 24 24 24 24 24 24 24 24 24 24 24 24 24 24 24 24 24 24 24 24 24 24 24 24 24 24 24 24 24 24 24 24 24 24 24 24 24 24 24 24 24 24 24 24 24 24 24 24 24 24 24 24 24 24 24 24 24 24 24 24 24 24 24 24 24 24 24 24 24 24 24 24 24 24 24 24 24 24 24 24 24 24 24 24 24 24 24 24 24 24 24 24 24 24 24 24 24 24 24 24 24 24 24 24 24 24 24 24 24 24 24 24 24 24 24 24 24 24 24 24 24 24 24 24 24 24 24 24 24 24 24 24 24 24 24 24 24 24 24 24 24 24 24 24 24 24 24 24 24 24 24 24 24 24 24 24 24 24 24 24 24 24 24 24 24 24 24 24 24 24 24 24 24 24 24 24 24 24 24 24 24 24 24 24 24 24 24 24 24 24 24 24 24 24 24 24 24 24 24 24 24 24 24 24 24 24 24 24 24 24 24 24 24 24 24 24 24 24 24 24 24 24 24 24 24 24 24 24 24 24 24 24 24 24 24 24 24 24 24 24 24 24 24 24 24 24 24 24 24 24 24 24 24 24 24 24 24 24 24 24 24 24 24 24 24 24 24 24 24 24 24 24 24 24 24 24 24 24 24 24 24 24 24 24 24 24 24 24 24 24 24 24 24 24 24 24 24 24 24 24 24 24 24 24 24 24 24 24 24 24 24 24 24 24 24 24 24 24 24 24 24 24 24 24 24 24 24 24 24 24 24 24 24 24 24 24 24 24 24 24 24 24 24 24 24 24 24 24 24 24 24 24 24 24 24 24 24 24 24 24 24 24 24 24 24 24 24 24 24 24 24 24 24 24 24 24 24 24 24 24 24 24 24 24 24 24 24 24 24 24 24 24 24 24 24 24 24 24 24 24 24 24 24 24 24 24 24 24 24 24 24 24 24 24 24 24 24 24 24 24 24 24 24 24 24 24 24 24 24 24 24 24 24 24 24 24 24 24 24 24 24 24 24 24 24 24 24 24 24 24 24 24 24 24 24 24 24 24 24 24 24 24 24 24 24 24 24 24 24 24 24 24 24 24 24 24 24 24 24 24 24 24 24 24 24 24 24 24 24 24 24 24 24 24 24 24 24 24 24 24 24 24 24 24 24 24 24 24 24 24 24 24 24 24 24 24 24 24 24 24 24 24 24 24 24 24 24 24 24 24 24 24 24 24 24 24 24 24 24 24 24 24 24 24 24 24 24 24 24 24 24 24 24 24 24 24 24 24 24 24 24 24 24 24 24 24 24 24 24 24 24 24 24 24 24 24 24 24 24 24 24 24 24 24 24 24 24 24 24 24 24 24 24 24 24 24 24 24 24 24 24 24 24 24 24 24 24 24 24 24 24 24 24 24 24 24 24 24 24 24 24 24 24 24 24 24 24 24 24 24 24 24 24 24 24 24 24 24 24 24 24 24 24 24 24 24 24 24 24 24 24 24 24 24 24 24 24 24 24 24 24 24 24 24 24 24 24 24 24 24 24 24 24 24 24 24 24 24 24 24 24 24 24 24 24 24 24 24 24 24 24 24 24 24 24 24 24 24 24 24 24 24 24 24 24 24 24 24 24 24 24 24 24 24 24 24 24 24 24 24 24 24 24 24 24 24 24 24 24 24 24 24 24 24 24 24 24 24 24 24 24 24 24 24 24 24 24 24 24 24 24 24 24 24 24 24 24 24 24 24 24 24 24 24 24 24 24 24 24 24 24 24 24 24 24 24 24 24 24 24 24 24 24 24 24 24 24 24 24 24 24 24 24 24 24 24 24 24 24 24 24 24 24 24 24 24 24 24 24 24 24 24 24 24 24 24 24 24 24 24 24 24 24 24 24 24 24 24 24 24 24 24 24 24 24 24 24 24 24 24 24 24 24 24 24 24 24 24 24 24 24 24 24 24 24 24 24 24 24 24 24 24 24 24 24 24 24 24 24 24 24 24 24 24 24 24 24 24 24 24 24 24 24 24 24 24 24 24 24 24 24 24 24 24 24 24 24 24 24 24 24 24 24 24 24 24 24 24 24 24 24 24 24 24 24 24 24 24 24 24 24 24 24 24 24 24 24 24 24 24 24 24 24 24 24 24 24 24 24 24 24 24 24 24 24 24 24 24 24 24 24 24 24 24 24 24 24 24 24 24 24 24 24 24 24 24 24 24 24 24 24 24 24 24 24 24 24 24 24 24 24 24 24 24 24 24 24 24 24 24 24 24 24 24 24 24 24 24 24 24 24 24 24 24 24 24 24 24 24 24 24 24 24 24 24 24 24 24 24 24 24 24 24 24 24 24 24 24 24 24 24 24 24 24 24 24 24 24 24 24 24 24 24 24 24 24 24 24 24 24 24 24 24 24 24 24 24 24 24 24 24 24 24 24 24 24 24 24 24 24 24 24 24 24 24 24 24 24 24 24 24 24 24 24 24 24 24 24 24 24 24 24 24 24 24 24 24 24 24 24 24 24 24 24 24 24 24 24 24 24 24 24 24 24 24 24 24 24 24 24 24 24 24 24 24 24 24 24 24 24 24 24 24 24 24 24 24 24 24 24 24 24 24 24 24 24 24 24 24 24 24 24 24 24 24 24 24 24 24 24 24 24 24 24 24 24 24 24 24 24 24 24 24 24 24 24 24 24 24 24 24 24 24 24 24 24 24 24 24 24 24 24 24 24 24 24 24 24 24 24 24 24 24 24 24 24 24 24 24 24 24 24 24 24 24 24 24 24 24 24 24 24 24 24 24 24 24 24 24 24 24 24 24 24 24 24 24 24 24 24 24 24 24 24 24 24 24 24 24 24 24 24 24 24 24 24 24 24 24 24 24 24 24 24 24 24 24 24 24 24 24 24 24 24 24 24 24 24 24 24 24 24 24 24 24 24 24 24 24 24 24 24 24 24 24 24 24 24 24 24 24 24 24 24 24 24 24 24 24 24 24 24 24 24 24 24 24 24 24 24 24 24 24 24 24 24 24 24 24 24 24 24 24 24 24 24 24 24 24 24 24 24 24 24 24 24 24 24 24 24 24 24 24 24 24 24 24 24 24 24 24 24 24 24 24 24 24 24 24 24 24 24 24 24 24 24 24 24 24 24 24 24 24 24 24 24 24 24 24 24 24 24 24 24 24 24 24 24 24 24 24 24 24 24 24 24 24 24 24 24 24 24 24 24 24 24 24 24 24 24 24 24 24 24 24 24 24 24 24 24 24 24 24 24 24 24 24 24 24 24 24 24 24 24 24 24 24 24 24 24 24 24 24 24 24 24 24 24 24 24 24 24 24 24 24 24 24 24 24 24 24 24 24 24 24 24 24 24 24 24 24 24 24 24 24 24 24 24 24 24 24 24 24 24 24 24 24 24 24 24 24 24 24 24 24 24 24 24 24 24 24 24 24 24 24 24 24 24 24 24 24 24 24 24 24 24 24 24 24 24 24 24 24 24 24 24 24 24 24 24 24 24 24 24 24 24 24 24 24 24 24 24 24 24 24 24 24 24 24 24 24 24 24 24 24 24 24 24 24 24 24 24 24 24 24 24 24 24 24 24 24 24 24 24 24 24 24 24 24 24 24 24 24 24 24 24 24 24 24 24 24 24 24 24 24 24 24 24 24 24 24 24 24 24 24 24 24 24 24 24 24 24 24 24 24 24 24 24 24 24 24 24 24 24 24 24 24 24 24 24 24 24 24 24 24 24 24 24 24 24 24 24 24 24 24 24 24 24 24 24 24 24 24 24 24 24 24 24 24 24 24 24 24 24 24 24 24 24 24 24 24 24 24 24 24 24 24 24 24 24 24 24 24 24 24 24 24 24 24 24 24 24 24 24 24 24 24 24 24 24 24 24 24 24 24 24 24 24 24 24 24 24 24 24 24 24 24 24 24 24 24 24 24 24 24 24 24 24 24 24 24 24 24 24 24 24 24 24 24 24 24 24 24 24 24 24 24 24 24 24 24 24 24 24 24 24 24 24 24 24 24 24 24 24 24 24 24 24 24 24 24 24 24 24 24 24 24 24 24 24 24 24 24 24 24 24 24 24 24 24 24 24 24 24 24 24 24 24 24 24 24 24 24 24 24 24 24 24 24 24 24 24 24 24 24 24 24 24 24 24 24 24 24 24 24 24 24 24 24 24 24 24 24 24 24 24 24 24 24 24 24 24 24 24 24 24 24 24 24 24 24 24 24 24 24 24 24 24 24 24 24 24 24 24 24 24 24 24 24 24 24 24 24 24 24 24 24 24 24 24 24 24 24 24 24 24 24 24 24 24 24 24 24 24 24 24 24 24 24 24 24 24 24 24 24 24 24 24 24 24 24 24 24 24 24 24 24 24 24 24 24 24 24 24 24 24 24 24 24 24 24 24 24 24 24 24 24 24 24 24 24 24 24 24 24 24 24 24 24 24 24 24 24 24 24 24 24 24 24 24 24 24 24 24 24 24 24 24 24 24 24 24 24 24 24 24 24 24 24 24 24 24 24 24 24 24 24 24 24 24 24 24 24 24 24 24 24 24 24 24 24 24 24 24 24 24 24 24 24 24 24 24 24 24 24 24 24 24 24 24 24 24 24 24 24 24 24 24 24 24 24 24 24 24 24 24 24 24 24 24 24 24 24 24 24 24 24 24 24 24 24 24 24 24 24 24 24 24 24 24 24 24 24 24 24 24 24 24 24 24 24 24 24 24 24 24 24 24 24 24 24 24 24 24 24 24 24 24 24 24 24 24 24 24 24 24 24 24 24 24 24 24 24 24 24 24 24 24 24 24 24 24 24 24 24 24 24 24 24 24 24 24 24 24 24 24 24 24 24 24 24 24 24 24 24 24 24 24 24 24 24 24 24 24 24 24 24 24 24 24 24 24 24 24 24 24 24 24 24 24 24 24 24 24 24 24 24 24 24 24 24 24 24 24 24 24 24 24 24 24 24 24 24 24 24 24 24 24 24 24 24 24 24 24 24 24 24 24 24 24 24 24 24 24 24 24 24 24 24 24 24 24 24 24 24 24 24 24 24 24 24 24 24 24 24 24 24 24 24 24 24 24 24 24 24 24 24 24 24 24 24 24 24 24 24 24 24 24 24 24 24 24 24 24 24 24 24 24 24 24 24 24 24 24 24 24 24 24 24 24 24 24 24 24 24 24 24 24 24 24 24 24 24 24 24 24 24 24 24 24 24 24 24 24 24 24 24 24 24 24 24 24 24 24 24 24 24 24 24 24 24 24 24 24 24 24 24 24 24 24 24 24 24 24 24 24 24 24 24 24 24 24 24 24 24 24 24 24 24 24 24 24 24 24 24 24 24 24 24 24 24 24 24 24 24 24 24 24 24 24 24 24 24 24 24 24 24 24 24 24 24 24 24 24 24 24 24 24 24 24 24 24 24 24 24 24 24 24 24 24 24 24 24 24 24 24 24 24 24 24 24 24 24 24 24 24 24 24 24 24 24 24 24 24 24 24 24 24 24 24 24 24 24 24 24 24 24 24 24 24 24 24 24 24 24 24 24 24 24 24 24 24 24 24 24 24 24 24 24 24 24 24 24 24 24 24 24 24 24 24 24 24 24 24 24 24 24 24 24 24 24 24 24 24 24 24 24 24 24 24 24 24 24 24 24 24 24 24 24 24 24 24 24 24 24 24 24 24 24 24 24 24 24 24 24 24 24 24 24 24 24 24 24 24 24 24 24 24 24 24 24 24 24 24 24 24 24 24 24 24 24 24 24 24 24 24 24 24 24 24 24 24 24 24 24 24 24 24 24 24 24 24 24 24 24 24 24 24 24 24 24 24 24 24 24 24 24 24 24 24 24 24 24 24 24 24 24 24 24 24 24 24 24 24 24 24 24 24 24 24 24 24 24 24 24 24 24 24 24 24 24 24 24 24 24 24 24 24 24 24 24 24 24 24 24 24 24 24 24 24 24 24 24 24 24 24 24 24 24 24 24 24 24 24 24 24 24 24 24 24 24 24 24 24 24 24 24 24 24 24 24 24 24 24 24 24 24 24 24 24 24 24 24 24 24 24 24 24 24 24 24 24 24 24 24 24 24 24 24 24 24 24 24 24 24 24 24 24 24 24 24 24 24 24 24 24 24 24 24 24 24 24 24 24 24 24 24 24 24 24 24 24 24 24 24 24 24 24 24 24 24 24 24 24 24 24 24 24 24 24 24 24 24 24 24 24 24 24 24 24 24 24 24 24 24 24 24 24 24 24 24 24 24 24 24 24 24 24 24 24 24 24 24 24 24 24 24 24 24 24 24 24 24 24 24 24 24 24 24 24 24 24 24 24 24 24 24 24 24 24 24 24 24 24 24 24 24 24 24 24 24 24 24 24 24 24 24 24 24 24 24 24 24 24 24 24 24 24 24 24 24 24 24 24 24 24 24 24 24 24 24 24 24 24 24 24 24 24 24 24 24 24 24 24 24 24 24 24 24 24 24 24 24 24 24 24 24 24 24 24 24 24 24 24 24 24 24 24 24 24 24 24 24 24 24 24 24 24 24 24 24 24 24 24 24 24 24 24 24 24 24 24 24 24 24 24 24 24 24 24 24 24 24 24 24 24 24 24 24 24 24 24 24 24 24 24 24 24 24 24 24 24 24 24 24 24 24 24 24 24 24 24 24 24 24 24 24 24 24 24 24 24 24 24 24 24 24 24 24 24 24 24 24 24 24 24 24 24 24 24 24 24 24 24 24 24 24 24 24 24 24 24 24 24 24 24 24 24 24 24 24 24 24 24 24 24 24 24 24 24 24 24 24 24 24 24 24 24 24 24 24 24 24 24 24 24 24 24 24 24 24 24 24 24 24 24 24 24 24 24 24 24 24 24 24 24 24 24 24 24 24 24 24 24 24 24 24 24 24 24 24 24 24 24 24 24 24 24 24 24 24 24 24 24 24 24 24 24 24 24 24 24 24 24 24 24 24 24 24 24 24 24 24 24 24 24 24 24 24 24 24 24 24 24 24 24 24 24 24 24 24 24 24 24 24 24 24 24 24 24 24 24 24 24 24 24 24 24 24 24 24 24 24 24 24 24 24 24 24 24 24 24 24 24 24 24 24 24 24 24 24 24 24 24 24 24 24 24 24 24 24 24 24 24 24 24 24 24 24 24 24 24 24 24 24 24 24 24 24 24 24 24 24 24 24 24 24 24 24 24 24 24 24 24 24 24 24 24 24 24 24 24 24 24 24 24 24 24 24 24 24 24 24 24 24 24 24 24 24 24 24 24 24 24 24 24 24 24 24 24 24 24 24 24 24 24 24 24 24 24 24 24 24 24 24 24 24 24 24 24 24 24 24 24 24 24 24 24 24 24 24 24 24 24 24 24 24 24 24 24 24 24 24 24 24 24 24 24 24 24 24 24 24 24 24 24 24 24 24 24 24 24 24 24 24 24 24 24 24 24 24 24 24 24 24 24 24 24 24 24 24 24 24 24 24 24 24 24 24 24 24 24 24 24 24 24 24 24 24 24 24 24 24 24 24 24 24 24 24 24 24 24 24 24 24 24 24 24 24 24 24 24 24 24 24 24 24 24 24 24 24 24 24 24 24 24 24 24 24 24 24 24 24 24 24 24 24 24 24 24 24 24 24 24 24 24 24 24 24 24 24 24 24 24 24 24 24 24 24 24 24 24 24 24 24 24 24 24 24 24 24 24 24 24 24 24 24 24 24 24 24 24 24 24 24 24 24 24 24 24 24 24 24 24 24 24 24 24 24 24 24 24 24 24 24 24 24 24 24 24 24 24 24 24 24 24 24 24 24 24 24 24 24 24 24 24 24 24 24 24 24 24 24 24 24 24 24 24 24 24 24 24 24 24 24 24 24 24 24 24 24 24 24 24 24 24 24 24 24 24 24 24 24 24 24 24 24 24 24 24 24 24 24 24 24 24 24 24 24 24 24 24 24 24 24 24 24 24 24 24 24 24 24 24 24 24 24 24 24 24 24 24 24 24 24 24 24 24 24 24 24 24 24 24 24 24 24 24 24 24 24 24 24 24 24 24 24 24 24 24 24 24 24 24 24 24 24 24 24 24 24 24 24 24 24 24 24 24 24 24 24 24 24 24 24 24 24 24 24 24 24 24 24 24 24 24 24 24 24 24 24 24 24 24 24 24 24 24 24 24 24 24 24 24 24 24 24 24 24 24 24 24 24 24 24 24 24 24 24 24 24 24 24 24 24 24 24 24 24 24 24 24 24 24 24 24 24 24 24 24 24 24 24 24 24 24 24 24 24 24 24 24 24 24 24 24 24 24 24 24 24 24 24 24 24 24 24 24 24 24 24 24 24 24 24 24 24 24 24 24 24 24 24 24 24 24 24 24 24 24 24 24 24 24 24 24 24 24 24 24 24 24 24 24 24 24 24 24 24 24 24 24 24 24 24 24 24 24 24 24 24 24 24 24 24 24 24 24 24 24 24 24 24 24 24 24 24 24 24 24 24 24 24 24 24 24 24 24 24 24 24 24 24 24 24 24 24 24 24 24 24 24 24 24 24 24 24 24 24 24 24 24 24 24 24 24 24 24 24 24 24 24 24 24 24 24 24 24 24 24 24 24 24 24 24 24 24 24 24 24 24 24 24 24 24 24 24 24 24 24 24 24 24 24 24 24 24 24 24 24 24 24 24 24 24 24 24 24 24 24 24 24 24 24 24 24 24 24 24 24 24 24 24 24 24 24 24 24 24 24 24 24 24 24 24 24 24 24 24 24 24 24 24 24 24 24 24 24 24 24 24 24 24 24 24 24 24 24 24 24 24 24 24 24 24 24 24 24 24 24 24 24 24 24 24 24 24 24 24 24 24 24 24 24 24 24 24 24 24 24 24 24 24 24 24 24 24 24 24 24 24 24 24 24 24 24 24 24 24 24 24 24 24 24 24 24 24 24 24 24 24 24 24 24 24 24 24 24 24 24 24 24 24 24 24 24 24 24 24 24 24 24 24 24 24 24 24 24 24 24 24 24 24 24 24 24 24 24 24 24 24 24 24 24 24 24 24 24 24 24 24 24 24 24 24 24 24 24 24 24 24 24 24 24 24 24 24 24 24 24 24 24 24 24 24 24 24 24 24 24 24 24 24 24 24 24 24 24 24 24 24 24 24 24 24 24 24 24 24 24 24 24 24 24 24 24 24 24 24 24 24 24 24 24 24 24 24 24 24 24 24 24 24 24 24 24 24 24 24 24 24 24 24 24 24 24 24 24 24 24 24 24 24 24 24 24 24 24 24 24 24 24 24 24 24 24 24 24 24 24 24 24 24 24 24 24 24 24 24 24 24 24 24 24 24 24 24 24 24 24 24 24 24 24 24 24 24 24 24 24 24 24 24 24 24 24 24 24 24 24 24 24 24 24 24 24 24 24 24 24 24 24 24 24 24 24 24 24 24 24 24 24 24 24 24 24 24 24 24 24 24 24 24 24 24 24 24 24 24 24 24 24 24 24 24 24 24 24 24 24 24 24 24 24 24 24 24 24 24 24 24 24 24 24 24 24 24 24 24 24 24 24 24 24 24 24 24 24 24 24 24 24 24 24 24 24 24 24 24 24 24 24 24 24 24 24 24 24 24 24 24 24 24 24 24 24 24 24 24 24 24 24 24 24 24 24 24 24 24 24 24 24 24 24 24 24 24 24 24 24 24 24 24 24 24 24 24 24 24 24 24 24 24 24 24 24 24 24 24 24 24 24 24 24 24 24 24 24 24 24 24 24 24 24 24 24 24 24 24 24 24 24 24 24 24 24 24 24 24 24 24 24 24 24 24 24 24 24 24 24 24 24 24 24 24 24 24 24 24 24 24 24 24 24 24 24 24 24 24 24 24 24 24 24 24 24 24 24 24 24 24 24 24 24 24 24 24 24 24 24 24 24 24 24 24 24 24 24 24 24 24 24 24 24 24 24 24 24 24 24 24 24 24 24 24 24 24 24 24 24 24 24 24 24 24 24 24 24 24 24 24 24 24 24 24 24 24 24 24 24 24 24 24 24 24 24 24 24 24 24 24 24 24 24 24 24 24 24 24 24 24 24 24 24 24 24 24 24 24 24 24 24 24 24 24 24 24 24 24 24 24 24 24 24 24 24 24 24 24 24 24 24 24 24 24 24 24 24 24 24 24 24 24 24 24 24 24 24 24 24 24 24 24 24 24 24 24 24 24 24 24 24 24 24 24 24 24 24 24 24 24 24 24 24 24 24 24 24 24 24 24 24 24 24 24 24 24 24 24 24 24 24 24 24 24 24 24 24 24 24 24 24 24 24 24 24 24 24 24 24 24 24 24 24 24 24 24 24 24 24 24 24 24 24 24 24 24 24 24 24 24 24 24 24 24 24 24 24 24 24 24 24 24 24 24 24 24 24 24 24 24 24 24 24 24 24 24 24 24 24 24 24 24 24 24 24 24 24 24 24 24 24 24 24 24 24 24 24 24 24 24 24 24 24 24 24 24 24 24 24 24 24 24 24 24 24 24 24 24 24 24 24 24 24 24 24 24 24 24 24 24 24 24 24 24 24 24 24 24 24 24 24 24 24 24 24 24 24 24 24 24 24 24 24 24 24 24 24 24 24 24 24 24 24 24 24 24 24 24 24 24 24 24 24 24 24 24 24 24 24 24 24 24 24 24 24 24 24 24 24 24 24 24 24 24 24 24 24 24 24 24 24 24 24 24 24 24 24 24 24 24 24 24 24 24 24 24 24 24 24 24 24 24 24 24 24 24 24 24 24 24 24 24 24 24 24 24 24 24 24 24 24 24 24 24 24 24 24 24 24 24 24 24 24 24 24 24 24 24 24 24 24 24 24 24 24 24 24 24 24 24 24 24 24 24 24 24 24 24 24 24 24 24 24 24 24 24 24 24 24 24 24 24 24 24 24 24 24 24 24 24 24 24 24 24 24 24 24 24 24 24 24 24 24 24 24 24 24 24 24 24 24 24 24 24 24 24 24 24 24 24 24 24 24 24 24 24 24 24 24 24 24 24 24 24 24 24 24 24 24 24 24 24 24 24 24 24 24 24 24 24 24 24 24 24 24 24 24 24 24 24 24 24 24 24 24 24 24 24 24 24 24 24 24 24 24 24 24 24 24 24 24 24 24 24 24 24 24 24 24 24 24 24 24 24 24 24 24 24 24 24 24 24 24 24 24 24 24 24 24 24 24 24 24 24 24 24 24 24 24 24 24 24 24 24 24 24 24 24 24 24 24 24 24 24 24 24 24 24 24 24 24 24 24 24 24 24 24 24 24 24 24 24 24 24 24 24 24 24 24 24 24 24 24 24 24 24 24 24 24 24 24 24 24 24 24 24 24 24 24 24 24 24 24 24 24 24 24 24 24 24 24 24 24 24 24 24 24 24 24 24 24 24 24 24 24 24 24 24 24 24 24 24 24 24 24 24 24 24 24 24 24 24 24 24 24 24 24 24 24 24 24 24 24 24 24 24 24 24 24 24 24 24 24 24 24 24 24 24 24 24 24 24 24 24 24 24 24 24 24 24 24 24 24 24 24 24 24 24 24 24 24 24 24 24 24 24 24 24 24 24 24 24 24 24 24 24 24 24 24 24 24 24 24 24 24 24 24 24 24 24 24 24 24 24 24 24 24 24 24 24 24 24 24 24 24 24 24 24 24 24 24 24 24 24 24 24 24 24 24 24 24 24 24 24 24 24 24 24 24 24 24 24 24 24 24 24 24 24 24 24 24 24 24 24 24 24 24 24 24 24 24 24 24 24 24 24 24 24 24 24 24 24 24 24 24 24 24 24 24 24 24 24 24 24 24 24 24 24 24 24 24 24 24 24 24 24 24 24 24 24 24 24 24 24 24 24 24 24 24 24 24 24 24 24 24 24 24 24 24 24 24 24 24 24 24 24 24 24 24 24 24 24 24 24 24 24 24 24 24 24 24 24 24 24 24 24 24 24 24 24 24 24 24 24 24 24 24 24 24 24 24 24 24 24 24 24 24 24 24 24 24 24 24 24 24 24 24 24 24 24 24 24 24 24 24 24 24 24 24 24 24 24 24 24 24 24 24 24 24 24 24 24 24 24 24 24 24 24 24 24 24 24 24 24 24 24 24 24 24 24 24 24 24 24 24 24 24 24 24 24 24 24 24 24 24 24 24 24 24 24 24 24 24 24 24 24 24 24 24 24 24 24 24 24 24 24 24 24 24 24 24 24 24 24 24 24 24 24 24 24 24 24 24 24 24 24 24 24 24 24 24 24 24 24 24 24 24 24 24 24 24 24 24 24 24 24 24 24 24 24 24 24 24 24 24 24 24 24 24 24 24 24 24 24 24 24 24 24 24 24 24 24 24 24 24 24 24 24 24 24 24 24 24 24 24 24 24 24 24 24 24 24 24 24 24 24 24 24 24 24 24 24 24 24 24 24 24 24 24 24 24 24 24 24 24 24 24 24 24 24 24 24 24 24 24 24 24 24 24 24 24 24 24 24 24 24 24 24 24 24 24 24 24 24 24 24 24 24 24 24 24 24 24 24 24 24 24 24 24 24 24 24 24 24 24 24 24 24 24 24 24 24 24 24 24 24 24 24 24 24 24 24 24 24 24 24 24 24 24 24 24 24 24 24 24 24 24 24 24 24 24 24 24 24 24 24 24 24 24 24 24 24 24 24 24 24 24 24 24 24 24 24 24 24 24 24 24 24 24 24 24 24 24 24 24 24 24 24 24 24 24 24 24 24 24 24 24 24 24 24 24 24 24 24 24 24 24 24 24 24 24 24 24 24 24 24 24 24 24 24 24 24 24 24 24 24 24 24 24 24 24 24 24 24 24 24 24 24 24 24 24 24 24 24 24 24 24 24 24 24 24 24 24 24 24 24 24 24 24 24 24 24 24 24 24 24 24 24 24 24 24 24 24 24 24 24 24 24 24 24 24 24 24 24 24 24 24 24 24 24 24 24 24 24 24 24 24 24 24 24 24 24 24 24 24 24 24 24 24 24 24 24 24 24 24 24 24 24 24 24 24 24 24 24 24 24 24 24 24 24 24 24 24 24 24 24 24 24 24 24 24 24 24 24 24 24 24 24 24 24 24 24 24 24 24 24 24 24 24 24 24 24 24 24 24 24 24 24 24 24 24 24 24 24 24 24 24 24 24 24 24 24 24 24 24 24 24 24 24 24 24 24 24 24 24 24 24 24 24 24 24 24 24 24 24 24 24 24 24 24 24 24 24 24 24 24 24 24 24 24 24 24 24 24 24 24 24 24 24 24 24 24 24 24 24 24 24 24 24 24 24 24 24 24 24 24 24 24 24 24 24 24 24 24 24 24 24 24 24 24 24 24 24 24 24 24 24 24 24 24 24 24 24 24 24 24 24 24 24 24 24 24 24 24 24 24 24 24 24 24 24 24 24 24 24 24 24 24 24 24 24 24 24 24 24 24 24 24 24 24 24 24 24 24 24 24 24 24 24 24 24 24 24 24 24 24 24 24 24 24 24 24 24 24 24 24 24 24 24 24 24 24 24 24 24 24 24 24 24 24 24 24 24 24 24 24 24 24 24 24 24 24 24 24 24 24 24 24 24 24 24 24 24 24 24 24 24 24 24 24 24 24 24 24 24 24 24 24 24 24 24 24 24 24 24 24 24 24 24 24 24 24 24 24 24 24 24 24 24 24 24 24 24 24 24 24 24 24 24 24 24 24 24 24 24 24 24 24 24 24 24 24 24 24 24 24 24 24 24 24 24 24 24 24 24 24 24 24 24 24 24 24 24 24 24 24 24 24 24 24 24 24 24 24 24 24 24 24 24 24 24 24 24 24 24 24 24 24 24 24 24 24 24 24 24 24 24 24 24 24 24 24 24 24 24 24 24 24 24 24 24 24 24 24 24 24 24 24 24 24 24 24 24 24 24 24 24 24 24 24 24 24 24 24 24 24 24 24 24 24 24 24 24 24 24 24 24 24 24 24 24 24 24 24 24 24 24 24 24 24 24 24 24 24 24 24 24 24 24 24 24 24 24 24 24 24 24 24 24 24 24 24 24 24 24 24 24 24 24 24 24 24 24 24 24 24 24 24 24 24 24 24 24 24 24 24 24 24 24 24 24 24 24 24 24 24 24 24 24 24 24 24 24 24 24 24 24 24 24 24 24 24 24 24 24 24 24 24 24 24 24 24 24 24 24 24 24 24 24 24 24 24 24 24 24 24 24 24 24 24 24 24 24 24 24 24 24 24 24 24 24 24 24 24 24 24 24 24 24 24 24 24 24 24 24 24 24 24 24 24 24 24 24 24 24 24 24 24 24 24 24 24 24 24 24 24 24 24 24 24 24 24 24 24 24 24 24 24 24 24 24 24 24 24 24 24 24 24 24 24 24 24 24 24 24 24 24 24 24 24 24 24 24 24 24 24 24 24 24 24 24 24 24 24 24 24 24 24 24 24 24 24 24 24 24 24 24 24 24 24 24 24 24 24 24 24 24 24 24 24 24 24 24 24 24 24 24 24 24 24 24 24 24 24 24 24 24 24 24 24 24 24 24 24 24 24 24 24 24 24 24 24 24 24 24 24 24 24 24 24 24 24 24 24 24 24 24 24 24 24 24 24 24 24 24 24 24 24 24 24 24 24 24 24 24 24 24 24 24 24 24 24 24 24 24 24 24 24 24 24 24 24 24 24 24 24 24 24 24 24 24 24 24 24 24 24 24 24 24 24 24 24 24 24 24 24 24 24 24 24 24 24 24 24 24 24 24 24 24 24 24 24 24 24 24 24 24 24 24 24 24 24 24 24 24 24 24 24 24 24 24 24 24 24 24 24 24 24 24 24 24 24 24 24 24 24 24 24 24 24 24 24 24 24 24 24 24 24 24 24 24 24 24 24 24 24 24 24 24 24 24 24 24 24 24 24 24 24 24 24 24 24 24 24 24 24 24 24 24 24 24 24 24 24 24 24 24 24 24 24 24 24 24 24 24 24 24 24 24 24 24 24 24 24 24 24 24 24 24 24 24 24 24 24 24 24 24 24 24 24 24 24 24 24 24 24 24 24 24 24 24 24 24 24 24 24 24 24 24 24 24 24 24 24 24 24 24 24 24 24 24 24 24 24 24 24 24 24 24 24 24 24 24 24 24 24 24 24 24 24 24 24 24 24 24 24 24 24 24 24 24 24 24 24 24 24 24 24 24 24 24 24 24 24 24 24 24 24 24 24 24 24 24 24 24 24 24 24 24 24 24 24 24 24 24 24 24 24 24 24 24 24 24 24 24 24 24 24 24 24 24 24 24 24 24 24 24 24 24 24 24 24 24 24 24 24 24 24 24 24 24 24 24 24 24 24 24 24 24 24 24 24 24 24 24 24 24 24 24 24 24 24 24 24 24 24 24 24 24 24 24 24 24 24 24 24 24 24 24 24 24 24 24 24 24 24 24 24 24 24 24 24 24 24 24 24 24 24 24 24 24 24 24 24 24 24 24 24 24 24 24 24 24 24 24 24 24 24 24 24 24 24 24 24 24 24 24 24 24 24 24 24 24 24 24 24 24 24 24 24 24 24 24 24 24 24 24 24 24 24 24 24 24 24 24 24 24 24 24 24 24 24 24 24 24 24 24 24 24 24 24 24 24 24 24 24 24 24 24 24 24 24 24 24 24 24 24 24 24 24 24 24 24 24 24 24 24 24 24 24 24 24 24 24 24 24 24 24 24 24 24 24 24 24 24 24 24 24 24 24 24 24 24 24 24 24 24 24 24 24 24 24 24 24 24 24 24 24 24 24 24 24 24 24 24 24 24 24 24 24 24 24 24 24 24 24 24 24 24 24 24 24 24 24 24 24 24 24 24 24 24 24 24 24 24 24 24 24 24 24 24 24 24 24 24 24 24 24 24 24 24 24 24 24 24 24 24 24 24 24 24 24 24 24 24 24 24 24 24 24 24 24 24 24 24 24 24 24 24 24 24 24 24 24 24 24 24 24 24 24 24 24 24 24 24 24 24 24 24 24 24 24 24 24 24 24 24 24 24 24 24 24 24 24 24 24 24 24 24 24 24 24 24 24 24 24 24 24 24 24 24 24 24 24 24 24 24 24 24 24 24 24 24 24 24 24 24 24 24 24 24 24 24 24 24 24 24 24 24 24 24 24 24 24 24 24 24 24 24 24 24 24 24 24 24 24 24 24 24 24 24 24 24 24 24 24 24 24 24 24 24 24 24 24 24 24 24 24 24 24 24 24 24 24 24 24 24 24 24 24 24 24 24 24 24 24 24 24 24 24 24 24 24 24 24 24 24 24 24 24 24 24 24 24 24 24 24 24 24 24 24 24 24 24 24 24 24 24 24 24 24 24 24 24 24 24 24 24 24 24 24 24 24 24 24 24 24 24 24 24 24 24 24 24 24 24 24 24 24 24 24 24 24 24 24 24 24 24 24 24 24 24 24 24 24 24 24 24 24 24 24 24 24 24 24 24 24 24 24 24 24 24 24 24 24 24 24 24 24 24 24 24 24 24 24 24 24 24 24 24 24 24 24 24 24 24 24 24 24 24 24 24 24 24 24 24 24 24 24 24 24 24 24 24 24 24 24 24 24 24 24 24 24 24 24 24 24 24 24 24 24 24 24 24 24 24 24 24 24 24 24 24 24 24 24 24 24 24 24 24 24 24 24 24 24 24 24 24 24 24 24 24 24 24 24 24 24 24 24 24 24 24 24 24 24 24 24 24 24 24 24 24 24 24 24 24 24 24 24 24 24 24 24 24 24 24 24 24 24 24 24 24 24 24 24 24 24 24 24 24 24 24 24 24 24 24 24 24 24 24 24 24 24 24 24 24 24 24 24 24 24 24 24 24 24 24 24 24 24 24 24 24 24 24 24 24 24 24 24 24 24 24 24 24 24 24 24 24 24 24 24 24 24 24 24 24 24 24 24 24 24 24 24 24 24 24 24 24 24 24 24 24 24 24 24 24 24 24 24 24 24 24 24 24 24 24 24 24 24 24 24 24 24 24 24 24 24 24 24 24 24 24 24 24 24 24 24 24 24 24 24 24 24 24 24 24 24 24 24 24 24 24 24 24 24 24 24 24 24 24 24 24 24 24 24 24 24 24 24 24 24 24 24 24 24 24 24 24 24 24 24 24 24 24 24 24 24 24 24 24 24 24 24 24 24 24 24 24 24 24 24 24 24 24 24 24 24 24 24 24 24 24 24 24 24 24 24 24 24 24 24 24 24 24 24 24 24 24 24 24 24 24 24 24 24 24 24 24 24 24 24 24 24 24 24 24 24 24 24 24 24 24 24 24 24 24 24 24 24 24 24 24 24 24 24 24 24 24 24 24 24 24 24 24 24 24 24 24 24 24 24 24 24 24 24 24 24 24 24 24 24 24 24 24 24 24 24 24 24 24 24 24 24 24 24 24 24 24 24 24 24 24 24 24 24 24 24 24 24 24 24 24 24 24 24 24 24 24 24 24 24 24 24 24 24 24 24 24 24 24 24 24 24 24 24 24 24 24 24 24 24 24 24 24 24 24 24 24 24 24 24 24 24 24 24 24 24 24 24 24 24 24 24 24 24 24 24 24 24 24 24 24 24 24 24 24 24 24 24 24 24 24 24 24 24 24 24 24 24 24 24 24 24 24 24 24 24 24 24 24 24 24 24 24 24 24 24 24 24 24 24 24 24 24 24 24 24 24 24 24 24 24 24 24 24 24 24 24 24 24 24 24 24 24 24 24 24 24 24 24 24 24 24 24 24 24 24 24 24 24 24 24 24 24 24 24 24 24 24 24 24 24 24 24 24 24 24 24 24 24 24 24 24 24 24 24 24 24 24 24 24 24 24 24 24 24 24 24 24 24 24 24 24 24 24 24 24 24 24 24 24 24 24 24 24 24 24 24 24 24 24 24 24 24 24 24 24 24 24 24 24 24 24 24 24 24 24 24 24 24 24 24 24 24 24 24 24 24 24 24 24 24 24 24 24 24 24 24 24 24 24 24 24 24 24 24 24 24 24 24 24 24 24 24 24 24 24 24 24 24 24 24 24 24 24 24 24 24 24 24 24 24 24 24 24 24 24 24 24 24 24 24 24 24 24 24 24 24 24 24 24 24 24 24 24 24 24 24 24 24 24 24 24 24 24 24 24 24 24 24 24 24 24 24 24 24 24 24 24 24 24 24 24 24 24 24 24 24 24 24 24 24 24 24 24 24 24 24 24 24 24 24 24 24 24 24 24 24 24 24 24 24 24 24 24 24 24 24 24 24 24 24 24 24 24 24 24 24 24 24 24 24 24 24 24 24 24 24 24 24 24 24 24 24 24 24 24 24 24 24 24 24 24 24 24 24 24 24 24 24 24 24 24 24 24 24 24 24 24 24 24 24 24 24 24 24 24 24 24 24 24 24 24 24 24 24 24 24 24 24 24 24 24 24 24 24 24 24 24 24 24 24 24 24 24 24 24 24 24 24 24 24 24 24 24 24 24 24 24 24 24 24 24 24 24 24 24 24 24 24 24 24 24 24 24 24 24 24 24 24 24 24 24 24 24 24 24 24 24 24 24 24 24 24 24 24 24 24 24 24 24 24 24 24 24 24 24 24 24 24 24 24 24 24 24 24 24 24 24 24 24 24 24 24 24 24 24 24 24 24 24 24 24 24 24 24 24 24 24 24 24 24 24 24 24 24 24 24 24 24 24 24 24 24 24 24 24 24 24 24 24 24 24 24 24 24 24 24 24 24 24 24 24 24 24 24 24 24 24 24 24 24 24 24 24 24 24 24 24 24 24 24 24 24 24 24 24 24 24 24 24 24 24 24 24 24 24 24 24 24 24 24 24 24 24 24 24 24 24 24 24 24 24 24 24 24 24 24 24 24 24 24 24 24 24 24 24 24 24 24 24 24 24 24 24 24 24 24 24 24 24 24 24 24 24 24 24 24 24 24 24 24 24 24 24 24 24 24 24 24 24 24 24 24 24 24 24 24 24 24 24 24 24 24 24 24 24 24 24 24 24 24 24 24 24 24 24 24 24 24 24 24 24 24 24 24 24 24 24 24 24 24 24 24 24 24 24 24 24 24 24 24 24 24 24 24 24 24 24 24 24 24 24 24 24 24 24 24 24 24 24 24 24 24 24 24 24 24 24 24 24 24 24 24 24 24 24 24 24 24 24 24 24 24 24 24 24 24 24 24 24 24 24 24 24 24 24 24 24 24 24 24 24 24 24 24 24 24 24 24 24 24 24 24 24 24 24 24 24 24 24 24 24 24 24 24 24 24 24 24 24 24 24 24 24 24 24 24 24 24 24 24 24 24 24 24 24 24 24 24 24 24 24 24 24 24 24 24 24 24 24 24 24 24 24 24 24 24 24 24 24 24 24 24 24 24 24 24 24 24 24 24 24 24 24 24 24 24 24 24 24 24 24 24 24 24 24 24 24 24 24 24 24 24 24 24 24 24 24 24 24 24 24 24 24 24 24 24 24 24 24 24 24 24 24 24 24 24 24 24 24 24 24 24 24 24 24 24 24 24 24 24 24 24 24 24 24 24 24 24 24 24 24 24 24 24 24 24 24 24 24 24 24 24 24 24 24 24 24 24 24 24 24 24 24 24 24 24 24 24 24 24 24 24 24 24 24 24 24 24 24 24 24 24 24 24 24 24 24 24 24 24 24 24 24 24 24 24 24 24 24 24 24 24 24 24 24 24 24 24 24 24 24 24 24 24 24 24 24 24 24 24 24 24 24 24 24 24 24 24 24 24 24 24 24 24 24 24 24 24 24 24 24 24 24 24 24 24 24 24 24 24 24 24 24 24 24 24 24 24 24 24 24 24 24 24 24 24 24 24 24 24 24 24 24 24 24 24 24 24 24 24 24 24 24 24 24 24 24 24 24 24 24 24 24 24 24 24 24 24 24 24 24 24 24 24 24 24 24 24 24 24 24 24 24 24 24 24 24 24 24 24 24 24 24 24 24 24 24 24 24 24 24 24 24 24 24 24 24 24 24 24 24 24 24 24 24 24 24 24 24 24 24 24 24 24 24 24 24 24 24 24 24 24 24 24 24 24 24 24 24 24 24 24 24 24 24 24 24 24 24 24 24 24 24 24 24 24 24 24 24 24 24 24 24 24 24 24 24 24 24 24 24 24 24 24 24 24 24 24 24 24 24 24 24 24 24 24 24 24 24 24 24 24 24 24 24 24 24 24 24 24 24 24 24 24 24 24 24 24 24 24 24 24 24 24 24 24 24 24 24 24 24 24 24 24 24 24 24 24 24 24 24 24 24 24 24 24 24 24 24 24 24 24 24 24 24 24 24 24 24 24 24 24 24 24 24 24 24 24 24 24 24 24 24 24 24 24 24 24 24 24 24 24 24 24 24 24 24 24 24 24 24 24 24 24 24 24 24 24 24 24 24 24 24 24 24 24 24 24 24 24 24 24 24 24 24 24 24 24 24 24 24 24 24 24 24 24 24 24 24 24 24 24 24 24 24 24 24 24 24 24 24 24 24 24 24 24 24 24 24 24 24 24 24 24 24 24 24 24 24 24 24 24 24 24 24 24 24 24 24 24 24 24 24 24 24 24 24 24 24 24 24 24 24 24 24 24 24 24 24 24 24 24 24 24 24 24 24 24 24 24 24 24 24 24 24 24 24 24 24 24 24 24 24 24 24 24 24 24 24 24 24 24 24 24 24 24 24 24 24 24 24 24 24 24 24 24 24 24 24 24 24 24 24 24 24 24 24 24 24 24 24 24 24 24 24 24 24 24 24 24 24 24 24 24 24 24 24 24 24 24 24 24 24 24 24 24 24 24 24 24 24 24 24 24 24 24 24 24 24 24 24 24 24 24 24 24 24 24 24 24 24 24 24 24 24 24 24 24 24 24 24 24 24 24 24 24 24 24 24 24 24 24 24 24 24 24 24 24 24 24 24 24 24 24 24 24 24 24 24 24 24 24 24 24 24 24 24 24 24 24 24 24 24 24 24 24 24 24 24 24 24 24 24 24 24 24 24 24 24 24 24 24 24 24 24 24 24 24 24 24 24 24 24 24 24 24 24 24 24 24 24 24 24 24 24 24 24 24 24 24 24 24 24 24 24 24 24 24 24 24 24 24 24 24 24 24 24 24 24 24 24 24 24 24 24 24 24 24 24 24 24 24 24 24 24 24 24 24 24 24 24 24 24 24 24 24 24 24 24 24 24 24 24 24 24 24 24 24 24 24 24 24 24 24 24 24 24 24 24 24 24 24 24 24 24 24 24 24 24 24 24 24 24 24 24 24 24 24 24 24 24 24 24 24 24 24 24 24 24 24 24 24 24 24 24 24 24 24 24 24 24 24 24 24 24 24 24 24 24 24 24 24 24 24 24 24 24 24 24 24 24 24 24 24 24 24 24 24 24 24 24 24 24 24 24 24 24 24 24 24 24 24 24 24 24 24 24 24 24 24 24 24 24 24 24 24 24 24 24 24 24 24 24 24 24 24 24 24 24 24 24 24 24 24 24 24 24 24 24 24 24 24 24 24 24 24 24 24 24 24 24 24 24 24 24 24 24 24 24 24 24 24 24 24 24 24 24 24 24 24 24 24 24 24 24 24 24 24 24 24 24 24 24 24 24 24 24 24 24 24 24 24 24 24 24 24 24 24 24 24 24 24 24 24 24 24 24 24 24 24 24 24 24 24 24 24 24 24 24 24 24 24 24 24 24 24 24 24 24 24 24 24 24 24 24 24 24 24 24 24 24 24 24 24 24 24 24 24 24 24 24 24 24 24 24 24 24 24 24 24 24 24 24 24 24 24 24 24 24 24 24 24 24 24 24 24 24 24 24 24 24 24 24 24 24 24 24 24 24 24 24 24 24 24 24 24 24 24 24 24 24 24 24 24 24 24 24 24 24 24 24 24 24 24 24 24 24 24 24 24 24 24 24 24 24 24 24 24 24 24 24 24 24 24 24 24 24 24 24 24 24 24 24 24 24 24 24 24 24 24 24 24 24 24 24 24 24 24 24 24 24 24 24 24 24 24 24 24 24 24 24 24 24 24 24 24 24 24 24 24 24 24 24 24 24 24 24 24 24 24 24 24 24 24 24 24 24 24 24 24 24 24 24 24 24 24 24 24 24 24 24 24 24 24 24 24 24 24 24 24 24 24 24 24 24 24 24 24 24 24 24 24 24 24 24 24 24 24 24 24 24 24 24 24 24 24 24 24 24 24 24 24 24 24 24 24 24 24 24 24 24 24 24 24 24 24 24 24 24 24 24 24 24 24 24 24 24 24 24 24 24 24 24 24 24 24 24 24 24 24 24 24 24 24 24 24 24 24 24 24 24 24 24 24 24 24 24 24 24 24 24 24 24 24 24 24 24 24 24 24 24 24 24 24 24 24 24 24 24 24 24 24 24 24 24 24 24 24 24 24 24 24 24 24 24 24 24 24 24 24 24 24 24 24 24 24 24 24 24 24 24 24 24 24 24 24 24 24 24 24 24 24 24 24 24 24 24 24 24 24 24 24 24 24 24 24 24 24 24 24 24 24 24 24 24 24 24 24 24 24 24 24 24 24 24 24 24 24 24 24 24 24 24 24 24 24 24 24 24 24 24 24 24 24 24 24 24 24 24 24 24 24 24 24 24 24 24 24 24 24 24 24 24 24 24 24 24 24 24 24 24 24 24 24 24 24 24 24 24 24 24 24 24 24 24 24 24 24 24 24 24 24 24 24 24 24 24 24 24 24 24 24 24 24 24 24 24 24 24 24 24 24 24 24 24 24 24 24 24 24 24 24 24 24 24 24 24 24 24 24 24 24 24 24 24 24 24 24 24 24 24 24 24 24 24 24 24 24 24 24 24 24 24 24 24 24 24 24 24 24 24 24 24 24 24 24 24 24 24 24 24 24 24 24 24 24 24 24 24 24 24 24 24 24 24 24 24 24 24 24 24 24 24 24 24 24 24 24 24 24 24 24 24 24 24 24 24 24 24 24 24 24 24 24 24 24 24 24 24 24 24 24 24 24 24 24 24 24 24 24 24 24 24 24 24 24 24 24 24 24 24 24 24 24 24 24 24 24 24 24 24 24 24 24 24 24 24 24 24 24 24 24 24 24 24 24 24 24 24 24 24 24 24 24 24 24 24 24 24 24 24 24 24 24 24 24 24 24 24 24 24 24 24 24 24 24 24 24 24 24 24 24 24 24 24 24 24 24 24 24 24 24 24 24 24 24 24 24 24 24 24 24 24 24 24 24 24 24 24 24 24 24 24 24 24 24 24 24 24 24 24 24 24 24 24 24 24 24 24 24 24 24 24 24 24 24 24 24 24 24 24 24 24 24 24 24 24 24 24 24 24 24 24 24 24 24 24 24 24 24 24 24 24 24 24 24 24 24 24 24 24 24 24 24 24 24 24 24 24 24 24 24 24 24 24 24 24 24 24 24 24 24 24 24 24 24 24 24 24 24 24 24 24 24 24 24 24 24 24 24 24 24 24 24 24 24 24 24 24 24 24 24 24 24 24 24 24 24 24 24 24 24 24 24 24 24 24 24 24 24 24 24 24 24 24 24 24 24 24 24 24 24 24 24 24 24 24 24 24 24 24 24 24 24 24 24 24 24 24 24 24 24 24 24 24 24 24 24 24 24 24 24 24 24 24 24 24 24 24 24 24 24 24 24 24 24 24 24 24 24 24 24 24 24 24 24 24 24 24 24 24 24 24 24 24 24 24 24 24 24 24 24 24 24 24 24 24 24 24 24 24 24 24 24 24 24 24 24 24 24 24 24 24 24 24 24 24 24 24 24 24 24 24 24 24 24 24 24 24 24 24 24 24 24 24 24 24 24 24 24 24 24 24 24 24 24 24 24 24 24 24 24 24 24 24 24 24 24 24 24 24 24 24 24 24 24 24 24 24 24 24 24 24 24 24 24 24 24 24 24 24 24 24 24 24 24 24 24 24 24 24 24 24 24 24 24 24 24 24 24 24 24 24 24 24 24 24 24 24 24 24 24 24 24 24 24 24 24 24 24 24 24 24 24 24 24 24 24 24 24 24 24 24 24 24 24 24 24 24 24 24 24 24 24 24 24 24 24 24 24 24 24 24 24 24 24 24 24 24 24 24 24 24 24 24 24 24 24 24 24 24 24 24 24 24 24 24 24 24 24 24 24 24 24 24 24 24 24 24 24 24 24 24 24 24 24 24 24 24 24 24 24 24 24 24 24 24 24 24 24 24 24 24 24 24 24 24 24 24 24 24 24 24 24 24 24 24 24 24 24 24 24 24 24 24 24 24 24 24 24 24 24 24 24 24 24 24 24 24 24 24 24 24 24 24 24 24 24 24 24 24 24 24 24 24 24 24 24 24 24 24 24 24 24 24 24 24 24 24 24 24 24 24 24 24 24 24 24 24 24 24 24 24 24 24 24 24 24 24 24 24 24 24 24 24 24 24 24 24 24 24 24 24 24 24 24 24 24 24 24 

POINT_DATA 18785
SCALARS weights float 1
LOOKUP_TABLE default
0.195312 0.260417 0.260417 0.260417 0.260417 0.260417 0.260417 0.260417 0.260417 0.260416 0.260417 0.260417 0.260417 0.260417 0.260416 0.260417 0.260417 0.260417 0.260417 0.260417 0.260417 0.260417 0.260417 0.260417 0.260416 0.260417 0.260416 0.260417 0.260416 0.260416 0.260417 0.260417 0.0651044 0.260417 0.390625 0.390625 0.390625 0.390625 0.390625 0.390625 0.390625 0.390625 0.390625 0.390625 0.390625 0.390625 0.390625 0.390625 0.390625 0.390625 0.390625 0.390625 0.390625 0.390625 0.390625 0.390625 0.390625 0.390625 0.390625 0.390624 0.390625 0.390625 0.390624 0.390625 0.390625 0.130209 0.260417 0.390625 0.390625 0.390625 0.390625 0.390625 0.390625 0.390625 0.390625 0.390625 0.390625 0.390625 0.390625 0.390625 0.390625 0.390625 0.390625 0.390625 0.390625 0.390625 0.390625 0.390625 0.390625 0.390625 0.390625 0.390625 0.390624 0.390625 0.390625 0.390624 0.390625 0.390625 0.130209 0.260417 0.390625 0.390625 0.390625 0.390625 0.390625 0.390625 0.390625 0.390625 0.390625 0.390625 0.390625 0.390625 0.390625 0.390625 0.390625 0.390625 0.390625 0.390625 0.390625 0.390625 0.390625 0.390625 0.390625 0.390625 0.390625 0.390624 0.390625 0.390625 0.390624 0.390625 0.390625 0.130209 0.260417 0.390625 0.390625 0.390625 0.390625 0.390625 0.390625 0.390625 0.390625 0.390625 0.390625 0.390625 0.390625 0.390625 0.390625 0.390625 0.390625 0.390625 0.390625 0.390625 0.390625 0.390625 0.390625 0.390625 0.390625 0.390625 0.390624 0.390625 0.390625 0.390624 0.390625 0.390625 0.130209 0.260417 0.390625 0.390625 0.390625 0.390625 0.390625 0.390625 0.390625 0.390625 0.390625 0.390625 0.390625 0.390625 0.390625 0.390625 0.390625 0.390625 0.390625 0.390625 0.390625 0.390625 0.390625 0.390625 0.390625 0.390625 0.390625 0.390624 0.390625 0.390625 0.390624 0.390625 0.390625 0.130209 0.260417 0.390625 0.390625 0.390625 0.390625 0.390625 0.390625 0.390625 0.390625 0.390625 0.390625 0.390625 0.390625 0.390625 0.390625 0.390625 0.390625 0.390625 0.390625 0.390626 0.390625 0.390625 0.390625 0.390625 0.390625 0.390625 0.390624 0.390625 0.390625 0.390624 0.390625 0.390625 0.130209 0.260417 0.390625 0.390625 0.390625 0.390625 0.390625 0.390625 0.390625 0.390625 0.390625 0.390625 0.390625 0.390625 0.390625 0.390625 0.390625 0.390625 0.390625 0.390625 0.390625 0.390625 0.390625 0.390625 0.390625 0.390625 0.390625 0.390624 0.390625 0.390625 0.390624 0.390625 0.390625 0.130209 0.0651042 0.130208 0.130208 0.130208 0.130208 0.130208 0.130208 0.130208 0.130208 0.130208 0.130208 0.130208 0.130208 0.130208 0.130208 0.130208 0.130209 0.130208 0.130208 0.130209 0.130208 0.130208 0.130208 0.130208 0.130208 0.130208 0.130208 0.130208 0.130209 0.130208 0.130208 0.130209 0.0651043 0.260417 0.390625 0.390625 0.390625 0.390625 0.390625 0.390625 0.390625 0.390625 0.390625 0.390625 0.390625 0.390625 0.390625 0.390625 0.390625 0.390625 0.390625 0.390625 0.390625 0.390625 0.390625 0.390625 0.390625 0.390625 0.390625 0.390624 0.390625 0.390625 0.390625 0.390625 0.390625 0.130209 0.390625 0.78125 0.78125 0.78125 0.78125 0.78125 0.78125 0.78125 0.78125 0.78125 0.78125 0.78125 0.78125 0.78125 0.78125 0.78125 0.78125 0.781251 0.78125 0.781251 0.78125 0.781251 0.78125 0.78125 0.78125 0.78125 0.781249 0.78125 0.781251 0.781249 0.781251 0.781251 0.390626 0.390625 0.78125 0.78125 0.78125 0.78125 0.78125 0.78125 0.78125 0.78125 0.78125 0.78125 0.78125 0.78125 0.78125 0.78125 0.78125 0.78125 0.781251 0.78125 0.781251 0.781251 0.781251 0.78125 0.78125 0.78125 0.78125 0.781249 0.78125 0.781251 0.781249 0.781251 0.781251 0.390626 0.390625 0.78125 0.78125 0.78125 0.78125 0.78125 0.78125 0.78125 0.78125 0.78125 0.78125 0.78125 0.78125 0.78125 0.78125 0.78125 0.78125 0.781251 0.78125 0.781251 0.78125 0.781251 0.78125 0.78125 0.78125 0.78125 0.781249 0.78125 0.781251 0.781249 0.781251 0.781251 0.390626 0.390625 0.78125 0.78125 0.78125 0.78125 0.78125 0.78125 0.78125 0.78125 0.78125 0.78125 0.78125 0.78125 0.78125 0.78125 0.78125 0.78125 0.78125 0.78125 0.781251 0.78125 0.781251 0.78125 0.78125 0.78125 0.78125 0.781249 0.78125 0.781251 0.781249 0.78125 0.78125 0.390626 0.390625 0.78125 0.78125 0.78125 0.78125 0.78125 0.78125 0.78125 0.78125 0.78125 0.78125 0.78125 0.78125 0.78125 0.78125 0.78125 0.781251 0.781251 0.78125 0.781251 0.781251 0.781251 0.78125 0.78125 0.78125 0.78125 0.781249 0.78125 0.781251 0.781249 0.781251 0.781251 0.390626 0.390625 0.78125 0.78125 0.78125 0.78125 0.78125 0.78125 0.78125 0.78125 0.78125 0.78125 0.781251 0.78125 0.78125 0.78125 0.78125 0.781251 0.781251 0.78125 0.781251 0.781251 0.781251 0.78125 0.78125 0.78125 0.78125 0.781249 0.78125 0.781251 0.781249 0.781251 0.781251 0.390626 0.390625 0.78125 0.78125 0.78125 0.78125 0.78125 0.78125 0.78125 0.78125 0.78125 0.78125 0.78125 0.78125 0.78125 0.78125 0.78125 0.78125 0.78125 0.78125 0.781251 0.78125 0.78125 0.78125 0.78125 0.78125 0.78125 0.781249 0.78125 0.78125 0.781249 0.78125 0.78125 0.390626 0.130208 0.390625 0.390625 0.390625 0.390625 0.390625 0.390625 0.390625 0.390625 0.390625 0.390625 0.390625 0.390625 0.390625 0.390625 0.390625 0.390625 0.390625 0.390625 0.390625 0.390625 0.390625 0.390625 0.390625 0.390625 0.390625 0.390625 0.390625 0.390626 0.390625 0.390625 0.390625 0.260417 0.260417 0.390625 0.390625 0.390625 0.390625 0.390625 0.390625 0.390625 0.390625 0.390625 0.390625 0.390625 0.390625 0.390625 0.390625 0.390625 0.390625 0.390625 0.390625 0.390626 0.390625 0.390625 0.390625 0.390625 0.390625 0.390625 0.390624 0.390625 0.390625 0.390625 0.390625 0.390625 0.130209 0.390625 0.78125 0.78125 0.78125 0.78125 0.78125 0.78125 0.78125 0.78125 0.78125 0.78125 0.781251 0.78125 0.78125 0.78125 0.78125 0.781251 0.781251 0.78125 0.781251 0.781251 0.781251 0.78125 0.781251 0.78125 0.78125 0.781249 0.78125 0.781251 0.78125 0.781251 0.781251 0.390626 0.390625 0.78125 0.78125 0.78125 0.78125 0.78125 0.78125 0.78125 0.78125 0.78125 0.78125 0.781251 0.78125 0.78125 0.78125 0.78125 0.781251 0.781251 0.78125 0.781251 0.781251 0.781251 0.78125 0.78125 0.78125 0.781251 0.78125 0.78125 0.781251 0.78125 0.781251 0.781251 0.390626 0.390625 0.78125 0.78125 0.78125 0.78125 0.78125 0.78125 0.78125 0.78125 0.78125 0.78125 0.781251 0.78125 0.78125 0.78125 0.78125 0.781251 0.781251 0.78125 0.781251 0.781251 0.781251 0.78125 0.78125 0.78125 0.78125 0.781249 0.78125 0.781251 0.78125 0.781251 0.781251 0.390626 0.390625 0.78125 0.78125 0.78125 0.78125 0.78125 0.78125 0.78125 0.78125 0.78125 0.78125 0.781251 0.78125 0.78125 0.78125 0.78125 0.781251 0.781251 0.78125 0.781251 0.781251 0.781251 0.78125 0.78125 0.78125 0.78125 0.781249 0.78125 0.781251 0.781249 0.781251 0.781251 0.390626 0.390625 0.78125 0.78125 0.78125 0.78125 0.78125 0.78125 0.78125 0.78125 0.78125 0.78125 0.781251 0.78125 0.78125 0.78125 0.78125 0.781251 0.781251 0.781251 0.781251 0.781251 0.781251 0.78125 0.781251 0.78125 0.781251 0.781249 0.78125 0.781251 0.78125 0.781251 0.781251 0.390626 0.390625 0.78125 0.78125 0.78125 0.78125 0.78125 0.78125 0.78125 0.78125 0.78125 0.78125 0.781251 0.78125 0.78125 0.78125 0.78125 0.781251 0.781251 0.781251 0.781251 0.781251 0.781251 0.78125 0.781251 0.78125 0.781251 0.78125 0.78125 0.781251 0.78125 0.781251 0.781251 0.390626 0.390625 0.78125 0.78125 0.78125 0.78125 0.78125 0.78125 0.78125 0.78125 0.78125 0.78125 0.781251 0.78125 0.78125 0.78125 0.78125 0.781251 0.781251 0.78125 0.781251 0.78125 0.781251 0.78125 0.78125 0.78125 0.78125 0.781249 0.78125 0.781251 0.781249 0.781251 0.781251 0.390626 0.130208 0.390625 0.390625 0.390625 0.390625 0.390625 0.390625 0.390625 0.390625 0.390625 0.390625 0.390625 0.390625 0.390625 0.390625 0.390625 0.390625 0.390625 0.390625 0.390626 0.390625 0.390625 0.390625 0.390625 0.390625 0.390625 0.390625 0.390625 0.390626 0.390625 0.390625 0.390626 0.260417 0.260417 0.390625 0.390625 0.390625 0.390625 0.390625 0.390625 0.390625 0.390625 0.390625 0.390625 0.390625 0.390625 0.390625 0.390625 0.390625 0.390625 0.390625 0.390625 0.390625 0.390625 0.390625 0.390625 0.390625 0.390625 0.390625 0.390624 0.390625 0.390625 0.390625 0.390625 0.390625 0.130209 0.390625 0.78125 0.78125 0.78125 0.78125 0.78125 0.78125 0.78125 0.78125 0.78125 0.78125 0.781251 0.78125 0.78125 0.78125 0.78125 0.781251 0.781251 0.78125 0.781251 0.781251 0.781251 0.78125 0.78125 0.78125 0.78125 0.781249 0.78125 0.781251 0.78125 0.781251 0.781251 0.390626 0.390625 0.78125 0.78125 0.78125 0.78125 0.78125 0.78125 0.78125 0.78125 0.78125 0.78125 0.781251 0.78125 0.78125 0.78125 0.78125 0.781251 0.781251 0.78125 0.781251 0.781251 0.781251 0.78125 0.78125 0.78125 0.78125 0.78125 0.78125 0.781251 0.78125 0.781251 0.781251 0.390626 0.390625 0.78125 0.78125 0.78125 0.78125 0.78125 0.78125 0.78125 0.78125 0.78125 0.78125 0.781251 0.78125 0.78125 0.78125 0.78125 0.781251 0.781251 0.78125 0.781251 0.781251 0.781251 0.78125 0.78125 0.78125 0.78125 0.781249 0.78125 0.781251 0.781249 0.781251 0.781251 0.390626 0.390625 0.78125 0.78125 0.78125 0.78125 0.78125 0.78125 0.78125 0.78125 0.78125 0.78125 0.781251 0.78125 0.78125 0.78125 0.78125 0.781251 0.781251 0.78125 0.781251 0.781251 0.781251 0.78125 0.78125 0.78125 0.78125 0.781249 0.78125 0.781251 0.781249 0.781251 0.781251 0.390626 0.390625 0.78125 0.78125 0.78125 0.78125 0.78125 0.78125 0.78125 0.78125 0.78125 0.78125 0.781251 0.78125 0.78125 0.78125 0.78125 0.781251 0.781251 0.781251 0.781251 0.781251 0.781251 0.78125 0.781251 0.78125 0.78125 0.78125 0.78125 0.781251 0.78125 0.781251 0.781251 0.390626 0.390625 0.78125 0.78125 0.78125 0.78125 0.78125 0.78125 0.78125 0.78125 0.78125 0.78125 0.781251 0.78125 0.78125 0.78125 0.78125 0.781251 0.781251 0.78125 0.781251 0.781251 0.781251 0.78125 0.781251 0.78125 0.78125 0.78125 0.78125 0.781251 0.78125 0.781251 0.781251 0.390626 0.390625 0.78125 0.78125 0.78125 0.78125 0.78125 0.78125 0.78125 0.78125 0.78125 0.78125 0.78125 0.78125 0.78125 0.78125 0.78125 0.78125 0.781251 0.78125 0.781251 0.78125 0.781251 0.78125 0.78125 0.78125 0.78125 0.781249 0.78125 0.781251 0.781249 0.781251 0.781251 0.390626 0.130208 0.390625 0.390625 0.390625 0.390625 0.390625 0.390625 0.390625 0.390625 0.390625 0.390625 0.390625 0.390625 0.390625 0.390625 0.390625 0.390625 0.390625 0.390625 0.390626 0.390625 0.390625 0.390625 0.390625 0.390625 0.390625 0.390625 0.390625 0.390626 0.390625 0.390625 0.390626 0.260417 0.260417 0.390625 0.390625 0.390625 0.390625 0.390625 0.390625 0.390625 0.390625 0.390625 0.390625 0.390625 0.390625 0.390625 0.390625 0.390625 0.390625 0.390625 0.390625 0.390625 0.390625 0.390625 0.390625 0.390625 0.390625 0.390625 0.390624 0.390625 0.390625 0.390625 0.390625 0.390625 0.130209 0.390625 0.78125 0.78125 0.78125 0.78125 0.78125 0.78125 0.78125 0.78125 0.78125 0.78125 0.78125 0.78125 0.78125 0.78125 0.78125 0.781251 0.781251 0.78125 0.781251 0.781251 0.781251 0.78125 0.78125 0.78125 0.78125 0.781249 0.78125 0.781251 0.781249 0.781251 0.781251 0.390626 0.390625 0.78125 0.78125 0.78125 0.78125 0.78125 0.78125 0.78125 0.78125 0.78125 0.78125 0.781251 0.78125 0.78125 0.78125 0.78125 0.781251 0.781251 0.78125 0.781251 0.781251 0.781251 0.78125 0.78125 0.78125 0.78125 0.781249 0.78125 0.781251 0.781249 0.781251 0.781251 0.390626 0.390625 0.78125 0.78125 0.78125 0.78125 0.78125 0.78125 0.78125 0.78125 0.78125 0.78125 0.781251 0.78125 0.78125 0.78125 0.78125 0.781251 0.781251 0.78125 0.781251 0.781251 0.781251 0.78125 0.78125 0.78125 0.78125 0.781249 0.78125 0.781251 0.781249 0.781251 0.781251 0.390626 0.390625 0.78125 0.78125 0.78125 0.78125 0.78125 0.78125 0.78125 0.78125 0.78125 0.78125 0.78125 0.78125 0.78125 0.78125 0.78125 0.78125 0.781251 0.78125 0.781251 0.78125 0.781251 0.78125 0.78125 0.78125 0.78125 0.781249 0.78125 0.781251 0.781249 0.781251 0.781251 0.390626 0.390625 0.78125 0.78125 0.78125 0.78125 0.78125 0.78125 0.78125 0.78125 0.78125 0.78125 0.781251 0.78125 0.78125 0.78125 0.78125 0.781251 0.781251 0.78125 0.781251 0.781251 0.781251 0.78125 0.781251 0.78125 0.78125 0.78125 0.78125 0.781251 0.781249 0.781251 0.781251 0.390626 0.390625 0.78125 0.78125 0.78125 0.78125 0.78125 0.78125 0.78125 0.78125 0.78125 0.78125 0.781251 0.78125 0.78125 0.78125 0.78125 0.781251 0.781251 0.781251 0.781251 0.781251 0.781251 0.78125 0.781251 0.78125 0.78125 0.781249 0.78125 0.781251 0.78125 0.781251 0.781251 0.390626 0.390625 0.78125 0.78125 0.78125 0.78125 0.78125 0.78125 0.78125 0.78125 0.78125 0.78125 0.78125 0.78125 0.78125 0.78125 0.78125 0.781251 0.781251 0.78125 0.781251 0.78125 0.781251 0.78125 0.78125 0.78125 0.78125 0.781249 0.78125 0.781251 0.781249 0.78125 0.781251 0.390626 0.130208 0.390625 0.390625 0.390625 0.390625 0.390625 0.390625 0.390625 0.390625 0.390625 0.390625 0.390625 0.390625 0.390625 0.390625 0.390625 0.390625 0.390625 0.390625 0.390625 0.390625 0.390625 0.390625 0.390625 0.390625 0.390625 0.390625 0.390625 0.390626 0.390625 0.390625 0.390625 0.260417 0.260417 0.390625 0.390625 0.390625 0.390625 0.390625 0.390625 0.390625 0.390625 0.390625 0.390625 0.390625 0.390625 0.390625 0.390625 0.390625 0.390625 0.390625 0.390625 0.390626 0.390626 0.390626 0.390625 0.390625 0.390625 0.390625 0.390625 0.390625 0.390625 0.390625 0.390625 0.390625 0.130209 0.390625 0.781251 0.781251 0.78125 0.781251 0.781251 0.781251 0.78125 0.78125 0.78125 0.781251 0.781251 0.781251 0.781251 0.78125 0.781251 0.781251 0.781251 0.781251 0.781251 0.781251 0.781251 0.78125 0.781251 0.78125 0.781251 0.78125 0.78125 0.781251 0.78125 0.781251 0.781251 0.390626 0.390625 0.781251 0.781251 0.781251 0.781251 0.781251 0.781251 0.78125 0.78125 0.78125 0.781251 0.781251 0.781251 0.781251 0.78125 0.781251 0.781251 0.781251 0.781251 0.781251 0.781251 0.781251 0.78125 0.781251 0.78125 0.781251 0.78125 0.78125 0.781251 0.78125 0.781251 0.781251 0.390626 0.390625 0.781251 0.781251 0.78125 0.78125 0.781251 0.781251 0.78125 0.78125 0.78125 0.781251 0.781251 0.781251 0.781251 0.78125 0.781251 0.781251 0.781251 0.781251 0.781252 0.781251 0.781251 0.78125 0.781251 0.78125 0.781251 0.78125 0.78125 0.781251 0.78125 0.781251 0.781251 0.390626 0.390625 0.781251 0.781251 0.78125 0.78125 0.78125 0.78125 0.78125 0.78125 0.78125 0.78125 0.781251 0.781251 0.781251 0.78125 0.781251 0.781251 0.781251 0.781251 0.781251 0.781251 0.781251 0.78125 0.781251 0.78125 0.781251 0.78125 0.78125 0.781251 0.78125 0.781251 0.781251 0.390626 0.390625 0.781251 0.781251 0.781251 0.781251 0.781251 0.781251 0.78125 0.78125 0.78125 0.781251 0.781251 0.781251 0.781251 0.78125 0.781251 0.781251 0.781251 0.781251 0.781252 0.781251 0.781251 0.78125 0.781251 0.78125 0.781251 0.78125 0.781251 0.781251 0.78125 0.781251 0.781251 0.390626 0.390625 0.781251 0.781251 0.781251 0.781251 0.781251 0.781251 0.781251 0.78125 0.78125 0.781251 0.781251 0.781251 0.781251 0.78125 0.781251 0.781251 0.781251 0.781251 0.781252 0.781251 0.781251 0.781251 0.781251 0.78125 0.781251 0.78125 0.781251 0.781251 0.78125 0.781251 0.781251 0.390626 0.390625 0.78125 0.78125 0.78125 0.78125 0.78125 0.781251 0.78125 0.78125 0.78125 0.78125 0.781251 0.78125 0.78125 0.78125 0.78125 0.781251 0.781251 0.781251 0.781251 0.781251 0.781251 0.78125 0.781251 0.78125 0.781251 0.78125 0.78125 0.781251 0.78125 0.781251 0.781251 0.390626 0.130208 0.390625 0.390625 0.390625 0.390625 0.390625 0.390625 0.390625 0.390625 0.390625 0.390625 0.390625 0.390625 0.390625 0.390625 0.390625 0.390626 0.390626 0.390625 0.390626 0.390625 0.390626 0.390625 0.390625 0.390625 0.390625 0.390625 0.390625 0.390626 0.390625 0.390625 0.390626 0.260417 0.260417 0.390625 0.390625 0.390625 0.390625 0.390625 0.390625 0.390625 0.390625 0.390625 0.390625 0.390625 0.390625 0.390625 0.390625 0.390625 0.390625 0.390625 0.390625 0.390625 0.390625 0.390625 0.390625 0.390625 0.390625 0.390625 0.390624 0.390625 0.390625 0.390625 0.390625 0.390625 0.130209 0.390625 0.78125 0.78125 0.78125 0.78125 0.78125 0.78125 0.78125 0.78125 0.78125 0.78125 0.78125 0.78125 0.78125 0.78125 0.78125 0.781251 0.781251 0.78125 0.781251 0.781251 0.781251 0.78125 0.78125 0.78125 0.78125 0.781249 0.78125 0.781251 0.781249 0.78125 0.781251 0.390626 0.390625 0.78125 0.78125 0.78125 0.78125 0.78125 0.78125 0.78125 0.78125 0.78125 0.78125 0.781251 0.78125 0.78125 0.78125 0.78125 0.781251 0.781251 0.78125 0.781251 0.781251 0.781251 0.78125 0.78125 0.78125 0.78125 0.781249 0.78125 0.781251 0.781249 0.781251 0.781251 0.390626 0.390625 0.78125 0.78125 0.78125 0.78125 0.78125 0.78125 0.78125 0.78125 0.78125 0.78125 0.781251 0.78125 0.78125 0.78125 0.78125 0.781251 0.781251 0.78125 0.781251 0.781251 0.781251 0.78125 0.78125 0.78125 0.78125 0.781249 0.78125 0.781251 0.781249 0.781251 0.781251 0.390626 0.390625 0.78125 0.78125 0.78125 0.78125 0.78125 0.78125 0.78125 0.78125 0.78125 0.78125 0.781251 0.78125 0.78125 0.78125 0.78125 0.781251 0.781251 0.78125 0.781251 0.781251 0.781251 0.78125 0.78125 0.78125 0.78125 0.781249 0.78125 0.781251 0.781249 0.78125 0.781251 0.390626 0.390625 0.78125 0.78125 0.78125 0.78125 0.78125 0.78125 0.78125 0.78125 0.78125 0.78125 0.781251 0.78125 0.78125 0.78125 0.78125 0.781251 0.781251 0.78125 0.781251 0.781251 0.781251 0.78125 0.781251 0.78125 0.78125 0.781249 0.78125 0.781251 0.781249 0.781251 0.781251 0.390626 0.390625 0.78125 0.78125 0.78125 0.78125 0.78125 0.78125 0.78125 0.78125 0.78125 0.78125 0.781251 0.78125 0.78125 0.78125 0.78125 0.781251 0.781251 0.78125 0.781251 0.781251 0.781251 0.78125 0.781251 0.78125 0.78125 0.781249 0.78125 0.781251 0.78125 0.781251 0.781251 0.390626 0.390625 0.78125 0.78125 0.78125 0.78125 0.78125 0.78125 0.78125 0.78125 0.78125 0.78125 0.781251 0.78125 0.78125 0.78125 0.78125 0.781251 0.781251 0.78125 0.781251 0.78125 0.781251 0.78125 0.78125 0.78125 0.78125 0.781249 0.78125 0.781251 0.781249 0.781251 0.781251 0.390626 0.130208 0.390625 0.390625 0.390625 0.390625 0.390625 0.390625 0.390625 0.390625 0.390625 0.390625 0.390625 0.390625 0.390625 0.390625 0.390625 0.390625 0.390625 0.390625 0.390626 0.390625 0.390625 0.390625 0.390625 0.390625 0.390625 0.390625 0.390625 0.390626 0.390625 0.390625 0.390626 0.260417 0.260417 0.390625 0.390625 0.390625 0.390625 0.390625 0.390625 0.390625 0.390625 0.390625 0.390625 0.390625 0.390625 0.390625 0.390625 0.390625 0.390625 0.390625 0.390625 0.390625 0.390625 0.390625 0.390625 0.390625 0.390625 0.390625 0.390624 0.390625 0.390625 0.390624 0.390625 0.390625 0.130209 0.390625 0.78125 0.78125 0.78125 0.78125 0.78125 0.78125 0.78125 0.78125 0.781249 0.78125 0.78125 0.78125 0.78125 0.78125 0.78125 0.78125 0.78125 0.78125 0.781251 0.78125 0.781251 0.78125 0.78125 0.78125 0.78125 0.781249 0.78125 0.78125 0.781249 0.78125 0.781251 0.390626 0.390625 0.78125 0.78125 0.78125 0.78125 0.78125 0.78125 0.78125 0.78125 0.78125 0.78125 0.78125 0.78125 0.78125 0.78125 0.78125 0.78125 0.781251 0.78125 0.781251 0.78125 0.781251 0.78125 0.78125 0.78125 0.78125 0.781249 0.78125 0.781251 0.781249 0.781251 0.781251 0.390626 0.390625 0.78125 0.78125 0.78125 0.78125 0.78125 0.78125 0.78125 0.78125 0.78125 0.78125 0.78125 0.78125 0.78125 0.78125 0.78125 0.78125 0.78125 0.78125 0.781251 0.78125 0.781251 0.78125 0.78125 0.78125 0.78125 0.781249 0.78125 0.781251 0.781249 0.78125 0.78125 0.390626 0.390625 0.78125 0.78125 0.78125 0.78125 0.78125 0.78125 0.78125 0.78125 0.781249 0.78125 0.78125 0.78125 0.78125 0.78125 0.78125 0.78125 0.78125 0.78125 0.781251 0.78125 0.78125 0.78125 0.78125 0.78125 0.78125 0.781249 0.78125 0.78125 0.781249 0.78125 0.781251 0.390626 0.390625 0.78125 0.78125 0.78125 0.78125 0.78125 0.78125 0.78125 0.78125 0.78125 0.78125 0.781251 0.78125 0.78125 0.78125 0.78125 0.781251 0.781251 0.78125 0.781251 0.78125 0.781251 0.78125 0.78125 0.78125 0.78125 0.781249 0.78125 0.781251 0.781249 0.781251 0.781251 0.390626 0.390625 0.78125 0.78125 0.78125 0.78125 0.78125 0.78125 0.78125 0.78125 0.78125 0.78125 0.78125 0.78125 0.78125 0.78125 0.78125 0.781251 0.781251 0.78125 0.781251 0.781251 0.781251 0.78125 0.78125 0.78125 0.78125 0.781249 0.78125 0.781251 0.781249 0.781251 0.781251 0.390626 0.390625 0.78125 0.78125 0.78125 0.78125 0.78125 0.78125 0.781249 0.781249 0.781249 0.78125 0.78125 0.78125 0.78125 0.781249 0.78125 0.78125 0.78125 0.78125 0.781251 0.78125 0.78125 0.78125 0.78125 0.781249 0.78125 0.781249 0.78125 0.78125 0.781249 0.78125 0.78125 0.390626 0.130208 0.390625 0.390625 0.390625 0.390625 0.390625 0.390625 0.390625 0.390625 0.390625 0.390625 0.390625 0.390625 0.390625 0.390625 0.390625 0.390625 0.390625 0.390625 0.390625 0.390625 0.390625 0.390625 0.390625 0.390625 0.390625 0.390625 0.390625 0.390626 0.390625 0.390625 0.390625 0.260417 0.0651041 0.130208 0.130208 0.130208 0.130208 0.130208 0.130208 0.130208 0.130208 0.130208 0.130208 0.130208 0.130208 0.130208 0.130208 0.130208 0.130208 0.130208 0.130208 0.130208 0.130208 0.130208 0.130208 0.130208 0.130208 0.130208 0.130208 0.130208 0.130208 0.130208 0.130208 0.130208 0.0651043 0.130208 0.390625 0.390625 0.390625 0.390625 0.390625 0.390625 0.390625 0.390625 0.390625 0.390625 0.390625 0.390625 0.390625 0.390625 0.390625 0.390625 0.390625 0.390625 0.390625 0.390625 0.390625 0.390625 0.390625 0.390625 0.390625 0.390625 0.390624 0.390626 0.390625 0.390625 0.390625 0.260417 0.130208 0.390625 0.390625 0.390625 0.390625 0.390625 0.390625 0.390625 0.390625 0.390625 0.390625 0.390625 0.390625 0.390625 0.390625 0.390625 0.390625 0.390625 0.390625 0.390625 0.390625 0.390625 0.390625 0.390625 0.390625 0.390625 0.390625 0.390625 0.390626 0.390625 0.390625 0.390625 0.260417 0.130208 0.390625 0.390625 0.390625 0.390625 0.390625 0.390625 0.390625 0.390625 0.390625 0.390625 0.390625 0.390625 0.390625 0.390625 0.390625 0.390625 0.390625 0.390625 0.390625 0.390625 0.390625 0.390625 0.390625 0.390625 0.390625 0.390625 0.390625 0.390626 0.390625 0.390625 0.390625 0.260417 0.130208 0.390625 0.390625 0.390625 0.390625 0.390625 0.390625 0.390625 0.390625 0.390625 0.390625 0.390625 0.390625 0.390625 0.390625 0.390625 0.390625 0.390625 0.390625 0.390625 0.390625 0.390625 0.390625 0.390625 0.390625 0.390625 0.390625 0.390624 0.390626 0.390625 0.390625 0.390625 0.260417 0.130208 0.390625 0.390625 0.390625 0.390625 0.390625 0.390625 0.390625 0.390625 0.390625 0.390625 0.390625 0.390625 0.390625 0.390625 0.390625 0.390625 0.390625 0.390625 0.390625 0.390625 0.390625 0.390625 0.390625 0.390625 0.390625 0.390625 0.390625 0.390626 0.390625 0.390625 0.390625 0.260417 0.130208 0.390625 0.390625 0.390625 0.390625 0.390625 0.390625 0.390625 0.390625 0.390625 0.390625 0.390625 0.390625 0.390625 0.390625 0.390625 0.390625 0.390625 0.390625 0.390626 0.390625 0.390625 0.390625 0.390625 0.390625 0.390625 0.390625 0.390625 0.390626 0.390625 0.390625 0.390625 0.260417 0.130208 0.390625 0.390625 0.390625 0.390625 0.390625 0.390625 0.390625 0.390625 0.390625 0.390625 0.390625 0.390625 0.390625 0.390625 0.390625 0.390625 0.390625 0.390625 0.390625 0.390625 0.390625 0.390625 0.390625 0.390625 0.390625 0.390625 0.390624 0.390625 0.390625 0.390625 0.390625 0.260417 0.0651041 0.260417 0.260416 0.260417 0.260416 0.260416 0.260416 0.260416 0.260416 0.260416 0.260416 0.260417 0.260417 0.260416 0.260416 0.260416 0.260417 0.260417 0.260417 0.260417 0.260417 0.260417 0.260416 0.260416 0.260417 0.260416 0.260417 0.260416 0.260417 0.260416 0.260417 0.260417 0.195313 0.0651042 0.130208 0.195312 0.0651042 0.0976563 0.195312 0.130208 0.195312 0.0976562 0.0651041 0.0651041 0.0976562 0.0651041 0.195312 0.0976562 0.0976562 0.0651041 0.130208 0.0976563 0.130208 0.195312 0.0651042 0.0976562 0.195312 0.130208 0.195312 0.0976562 0.0651041 0.195312 0.0976562 0.0651041 0.130208 0.0976563 0.130208 0.195312 0.0651042 0.0976563 0.195312 0.130208 0.195312 0.0976562 0.0651041 0.195313 0.0976562 0.0651042 0.130208 0.0976562 0.130208 0.195312 0.0651042 0.0976562 0.195312 0.130208 0.195312 0.0976562 0.0651041 0.195312 0.0976562 0.0651041 0.130208 0.0976563 0.130208 0.195312 0.0651042 0.0976562 0.195312 0.130208 0.195312 0.0976562 0.0651041 0.195312 0.0976562 0.0651041 0.130208 0.0976562 0.130208 0.195312 0.0651042 0.0976563 0.195312 0.130208 0.195312 0.0976563 0.0651042 0.195313 0.0976562 0.0651042 0.130208 0.0976562 0.130208 0.195312 0.0651042 0.0976562 0.195312 0.130208 0.195312 0.0976562 0.0651041 0.195312 0.0976561 0.0651041 0.130208 0.0976562 0.130208 0.195312 0.0651042 0.0976563 0.195312 0.130208 0.195312 0.0976562 0.0651041 0.195312 0.0976562 0.0651041 0.130208 0.0976563 0.130208 0.195312 0.0651041 0.0976562 0.195312 0.130208 0.195312 0.0976561 0.0651041 0.195312 0.0976562 0.0651041 0.130208 0.0976562 0.130208 0.195312 0.0651041 0.0976562 0.195312 0.130208 0.195312 0.0976562 0.0651041 0.195312 0.0976562 0.0651041 0.130208 0.0976563 0.130208 0.195313 0.0651042 0.0976563 0.195313 0.130208 0.195313 0.0976563 0.0651042 0.195313 0.0976562 0.0651042 0.130208 0.0976563 0.130208 0.195313 0.0651042 0.0976563 0.195312 0.130208 0.195312 0.0976562 0.0651041 0.195313 0.0976562 0.0651041 0.130208 0.0976562 0.130208 0.195312 0.0651042 0.0976563 0.195313 0.130208 0.195312 0.0976563 0.0651042 0.195312 0.0976563 0.0651042 0.130208 0.0976563 0.130208 0.195312 0.0651042 0.0976562 0.195312 0.130208 0.195312 0.0976563 0.0651042 0.195312 0.0976562 0.0651041 0.130208 0.0976562 0.130208 0.195312 0.0651041 0.0976562 0.195312 0.130208 0.195313 0.0976562 0.0651041 0.195312 0.0976562 0.0651041 0.130208 0.0976564 0.130208 0.195313 0.0651042 0.0976563 0.195313 0.130208 0.195313 0.0976562 0.0651041 0.195313 0.0976562 0.0651041 0.130208 0.0976563 0.130208 0.195313 0.0651042 0.0976563 0.195313 0.130208 0.195313 0.0976563 0.0651042 0.195313 0.0976563 0.0651042 0.130208 0.0976563 0.130208 0.195312 0.0651041 0.0976562 0.195312 0.130208 0.195312 0.0976562 0.0651041 0.195313 0.0976562 0.065104 0.130208 0.0976562 0.130208 0.195313 0.0651042 0.0976563 0.195313 0.130208 0.195313 0.0976563 0.0651042 0.195313 0.0976564 0.0651042 0.130209 0.0976565 0.130208 0.195313 0.0651041 0.0976561 0.195313 0.130208 0.195312 0.0976561 0.0651041 0.195313 0.0976563 0.065104 0.130208 0.0976562 0.130208 0.195313 0.0651042 0.0976564 0.195313 0.130209 0.195313 0.0976564 0.0651043 0.195313 0.0976563 0.0651043 0.130208 0.0976563 0.130208 0.195312 0.0651041 0.0976562 0.195312 0.130208 0.195312 0.0976562 0.0651042 0.195312 0.0976562 0.0651041 0.130208 0.0976562 0.130208 0.195312 0.0651042 0.0976563 0.195313 0.130208 0.195313 0.0976563 0.0651042 0.195312 0.0976563 0.0651041 0.130208 0.0976563 0.130208 0.195313 0.0651042 0.0976563 0.195312 0.130208 0.195312 0.0976563 0.0651042 0.195313 0.0976562 0.0651041 0.130208 0.0976561 0.130208 0.195312 0.065104 0.0976561 0.195312 0.130208 0.195313 0.0976561 0.0651041 0.195312 0.0976562 0.065104 0.130208 0.0976564 0.130209 0.195313 0.0651042 0.0976562 0.195312 0.130208 0.195312 0.0976562 0.0651041 0.195313 0.097656 0.0651041 0.130208 0.0976561 0.130208 0.195312 0.065104 0.097656 0.195312 0.130208 0.195312 0.097656 0.065104 0.195312 0.0976562 0.065104 0.130208 0.0976564 0.130209 0.195313 0.0651043 0.0976564 0.195313 0.130209 0.195313 0.0976564 0.0651043 0.195313 0.0976563 0.0651042 0.130208 0.0976564 0.130208 0.195312 0.065104 0.0976558 0.195312 0.130208 0.195312 0.0976558 0.0651039 0.195312 0.0976562 0.0651037 0.130208 0.0976561 0.130208 0.195312 0.0651041 0.097656 0.195313 0.130208 0.195313 0.097656 0.0651041 0.195312 0.0976563 0.0651039 0.130208 0.0976563 0.130209 0.195313 0.0651042 0.0976562 0.195312 0.130209 0.195313 0.0976562 0.0651042 0.195313 0.0976561 0.065104 0.130208 0.0976564 0.130209 0.195313 0.0651044 0.0976565 0.0976565 0.130208 0.0976564 0.0976564 0.0651042 0.195313 0.0325522 0.0651044 0.0651044 0.0325522 0.0651042 0.130208 0.195312 0.0651042 0.0976562 0.195312 0.130208 0.195312 0.0976562 0.0651042 0.195312 0.0976562 0.130208 0.0976563 0.130208 0.195312 0.0651042 0.0976562 0.195312 0.130208 0.195312 0.195312 0.130208 0.0976563 0.130208 0.195312 0.0651042 0.0976563 0.195312 0.130208 0.195312 0.195312 0.130208 0.0976562 0.130208 0.195312 0.0651042 0.0976562 0.195312 0.130208 0.195312 0.195312 0.130208 0.0976563 0.130208 0.195312 0.0651042 0.0976562 0.195312 0.130208 0.195312 0.195312 0.130208 0.0976562 0.130208 0.195313 0.0651042 0.0976563 0.195312 0.130208 0.195312 0.195313 0.130208 0.0976562 0.130208 0.195312 0.0651042 0.0976562 0.195312 0.130208 0.195312 0.195312 0.130208 0.0976562 0.130208 0.195312 0.0651042 0.0976562 0.195312 0.130208 0.195312 0.195312 0.130208 0.0976563 0.130208 0.195312 0.0651041 0.0976562 0.195312 0.130208 0.195312 0.195312 0.130208 0.0976562 0.130208 0.195312 0.0651042 0.0976562 0.195312 0.130208 0.195312 0.195312 0.130208 0.0976563 0.130208 0.195313 0.0651042 0.0976563 0.195313 0.130208 0.195313 0.195313 0.130208 0.0976564 0.130208 0.195313 0.0651042 0.0976563 0.195312 0.130208 0.195312 0.195313 0.130208 0.0976562 0.130208 0.195312 0.0651042 0.0976563 0.195313 0.130208 0.195312 0.195312 0.130208 0.0976563 0.130208 0.195312 0.0651042 0.0976562 0.195312 0.130208 0.195312 0.195312 0.130208 0.0976562 0.130208 0.195312 0.0651041 0.0976562 0.195312 0.130208 0.195313 0.195312 0.130208 0.0976564 0.130208 0.195313 0.0651042 0.0976563 0.195313 0.130208 0.195313 0.195313 0.130208 0.0976564 0.130208 0.195313 0.0651042 0.0976563 0.195313 0.130208 0.195313 0.195313 0.130208 0.0976563 0.130208 0.195313 0.0651041 0.0976561 0.195312 0.130208 0.195312 0.195313 0.130208 0.0976562 0.130208 0.195313 0.0651042 0.0976563 0.195313 0.130208 0.195313 0.195313 0.130209 0.0976565 0.130208 0.195313 0.0651041 0.0976561 0.195313 0.130208 0.195312 0.195313 0.130208 0.0976562 0.130208 0.195313 0.0651042 0.0976564 0.195313 0.130209 0.195313 0.195313 0.130208 0.0976563 0.130208 0.195312 0.0651041 0.0976562 0.195312 0.130208 0.195312 0.195312 0.130208 0.0976562 0.130208 0.195312 0.0651042 0.0976563 0.195313 0.130208 0.195313 0.195312 0.130208 0.0976563 0.130208 0.195313 0.0651042 0.0976563 0.195312 0.130208 0.195312 0.195313 0.130208 0.0976561 0.130208 0.195312 0.065104 0.0976561 0.195312 0.130208 0.195313 0.195312 0.130208 0.0976564 0.130209 0.195313 0.0651042 0.0976562 0.195312 0.130208 0.195312 0.195313 0.130208 0.0976561 0.130208 0.195312 0.065104 0.097656 0.195312 0.130208 0.195313 0.195312 0.130208 0.0976564 0.130209 0.195313 0.0651043 0.0976564 0.195313 0.130209 0.195313 0.195313 0.130208 0.0976564 0.130208 0.195312 0.065104 0.0976558 0.195312 0.130208 0.195312 0.195312 0.130208 0.0976561 0.130208 0.195312 0.0651041 0.097656 0.195313 0.130208 0.195313 0.195312 0.130208 0.0976563 0.130209 0.195313 0.0651042 0.0976562 0.195312 0.130209 0.195313 0.195313 0.130208 0.0976564 0.130209 0.195313 0.0651044 0.0976565 0.0976565 0.130208 0.0976564 0.195313 0.0651044 0.0325522 0.0651042 0.130208 0.195312 0.0651042 0.0976562 0.195312 0.130208 0.195313 0.0976562 0.0651042 0.195312 0.0976563 0.130208 0.0976563 0.130208 0.195312 0.0651042 0.0976562 0.195312 0.130208 0.195312 0.195312 0.130208 0.0976563 0.130208 0.195312 0.0651042 0.0976562 0.195312 0.130208 0.195312 0.195313 0.130208 0.0976563 0.130208 0.195312 0.0651042 0.0976562 0.195312 0.130208 0.195312 0.195312 0.130208 0.0976563 0.130208 0.195312 0.0651042 0.0976562 0.195312 0.130208 0.195312 0.195312 0.130208 0.0976563 0.130208 0.195312 0.0651042 0.0976562 0.195312 0.130208 0.195313 0.195313 0.130208 0.0976562 0.130208 0.195312 0.0651042 0.0976562 0.195312 0.130208 0.195312 0.195312 0.130208 0.0976563 0.130208 0.195312 0.0651042 0.0976562 0.195312 0.130208 0.195312 0.195312 0.130208 0.0976563 0.130208 0.195312 0.0651041 0.0976562 0.195312 0.130208 0.195312 0.195312 0.130208 0.0976562 0.130208 0.195312 0.0651042 0.0976562 0.195312 0.130208 0.195313 0.195312 0.130208 0.0976563 0.130208 0.195313 0.0651042 0.0976563 0.195313 0.130208 0.195313 0.195313 0.130208 0.0976564 0.130208 0.195313 0.0651042 0.0976563 0.195312 0.130208 0.195312 0.195313 0.130208 0.0976562 0.130208 0.195312 0.0651042 0.0976563 0.195313 0.130208 0.195313 0.195312 0.130208 0.0976563 0.130208 0.195313 0.0651042 0.0976562 0.195312 0.130208 0.195312 0.195312 0.130208 0.0976562 0.130208 0.195312 0.0651041 0.0976562 0.195312 0.130208 0.195313 0.195312 0.130208 0.0976564 0.130208 0.195313 0.0651042 0.0976563 0.195313 0.130208 0.195313 0.195313 0.130208 0.0976564 0.130208 0.195313 0.0651042 0.0976563 0.195313 0.130208 0.195313 0.195313 0.130208 0.0976563 0.130208 0.195313 0.0651041 0.0976561 0.195312 0.130208 0.195312 0.195313 0.130208 0.0976562 0.130208 0.195313 0.0651042 0.0976563 0.195313 0.130208 0.195313 0.195313 0.130209 0.0976565 0.130209 0.195313 0.0651041 0.0976561 0.195313 0.130208 0.195312 0.195313 0.130208 0.0976562 0.130208 0.195313 0.0651042 0.0976564 0.195313 0.130209 0.195313 0.195313 0.130208 0.0976564 0.130208 0.195313 0.0651041 0.0976562 0.195312 0.130208 0.195312 0.195313 0.130208 0.0976562 0.130208 0.195312 0.0651042 0.0976563 0.195313 0.130208 0.195313 0.195312 0.130208 0.0976563 0.130208 0.195313 0.0651042 0.0976563 0.195312 0.130208 0.195312 0.195313 0.130208 0.0976561 0.130208 0.195312 0.065104 0.097656 0.195312 0.130208 0.195313 0.195312 0.130208 0.0976564 0.130209 0.195313 0.0651042 0.0976562 0.195312 0.130208 0.195312 0.195313 0.130208 0.0976561 0.130208 0.195312 0.065104 0.097656 0.195312 0.130208 0.195313 0.195312 0.130208 0.0976564 0.130209 0.195313 0.0651043 0.0976564 0.195313 0.130209 0.195313 0.195313 0.130208 0.0976564 0.130208 0.195312 0.065104 0.0976558 0.195312 0.130208 0.195312 0.195312 0.130208 0.0976561 0.130208 0.195313 0.0651041 0.097656 0.195313 0.130208 0.195313 0.195313 0.130208 0.0976563 0.130209 0.195313 0.0651042 0.0976562 0.195312 0.130209 0.195313 0.195313 0.130208 0.0976564 0.130209 0.195313 0.0651044 0.0976565 0.0976565 0.130208 0.0976564 0.195313 0.0651044 0.0325522 0.0651042 0.130208 0.195312 0.0651041 0.0976562 0.195312 0.130208 0.195312 0.0976562 0.0651041 0.195312 0.0976562 0.130208 0.0976562 0.130208 0.195312 0.0651041 0.0976562 0.195312 0.130208 0.195312 0.195312 0.130208 0.0976562 0.130208 0.195312 0.0651042 0.0976563 0.195312 0.130208 0.195312 0.195312 0.130208 0.0976562 0.130208 0.195312 0.0651041 0.0976562 0.195312 0.130208 0.195312 0.195312 0.130208 0.0976562 0.130208 0.195312 0.0651041 0.0976562 0.195312 0.130208 0.195312 0.195312 0.130208 0.0976562 0.130208 0.195312 0.0651042 0.0976563 0.195312 0.130208 0.195312 0.195313 0.130208 0.0976562 0.130208 0.195312 0.0651041 0.0976562 0.195312 0.130208 0.195312 0.195312 0.130208 0.0976562 0.130208 0.195312 0.0651042 0.0976562 0.195312 0.130208 0.195312 0.195312 0.130208 0.0976562 0.130208 0.195312 0.0651041 0.0976562 0.195312 0.130208 0.195312 0.195312 0.130208 0.0976562 0.130208 0.195312 0.0651041 0.0976562 0.195312 0.130208 0.195312 0.195312 0.130208 0.0976562 0.130208 0.195313 0.0651042 0.0976563 0.195313 0.130208 0.195313 0.195313 0.130208 0.0976563 0.130208 0.195312 0.0651042 0.0976563 0.195312 0.130208 0.195312 0.195313 0.130208 0.0976562 0.130208 0.195312 0.0651041 0.0976563 0.195312 0.130208 0.195312 0.195312 0.130208 0.0976562 0.130208 0.195312 0.0651041 0.0976562 0.195312 0.130208 0.195312 0.195312 0.130208 0.0976562 0.130208 0.195312 0.0651041 0.0976562 0.195312 0.130208 0.195313 0.195312 0.130208 0.0976563 0.130208 0.195313 0.0651042 0.0976563 0.195313 0.130208 0.195313 0.195313 0.130208 0.0976563 0.130208 0.195313 0.0651042 0.0976563 0.195313 0.130208 0.195313 0.195313 0.130208 0.0976563 0.130208 0.195312 0.0651041 0.0976562 0.195312 0.130208 0.195312 0.195312 0.130208 0.0976562 0.130208 0.195313 0.0651042 0.0976563 0.195313 0.130208 0.195313 0.195313 0.130209 0.0976565 0.130208 0.195313 0.0651041 0.0976561 0.195312 0.130208 0.195312 0.195313 0.130208 0.0976562 0.130208 0.195313 0.0651042 0.0976564 0.195313 0.130209 0.195313 0.195313 0.130208 0.0976563 0.130208 0.195312 0.0651041 0.0976562 0.195312 0.130208 0.195312 0.195312 0.130208 0.0976562 0.130208 0.195312 0.0651042 0.0976563 0.195313 0.130208 0.195313 0.195312 0.130208 0.0976563 0.130208 0.195312 0.0651042 0.0976563 0.195312 0.130208 0.195312 0.195313 0.130208 0.0976561 0.130208 0.195312 0.065104 0.0976561 0.195312 0.130208 0.195313 0.195312 0.130208 0.0976564 0.130209 0.195313 0.0651042 0.0976562 0.195312 0.130208 0.195312 0.195313 0.130208 0.0976561 0.130208 0.195312 0.065104 0.097656 0.195312 0.130208 0.195312 0.195312 0.130208 0.0976564 0.130209 0.195313 0.0651043 0.0976564 0.195313 0.130209 0.195313 0.195313 0.130208 0.0976563 0.130208 0.195312 0.065104 0.0976558 0.195312 0.130208 0.195312 0.195312 0.130208 0.0976561 0.130208 0.195312 0.0651041 0.097656 0.195313 0.130208 0.195313 0.195312 0.130208 0.0976563 0.130209 0.195313 0.0651041 0.0976562 0.195312 0.130209 0.195313 0.195313 0.130208 0.0976563 0.130209 0.195313 0.0651043 0.0976565 0.0976565 0.130208 0.0976564 0.195313 0.0651044 0.0325522 0.0651042 0.130208 0.195312 0.0651042 0.0976563 0.195312 0.130208 0.195312 0.0976562 0.0651041 0.195312 0.0976562 0.130208 0.0976563 0.130208 0.195312 0.0651042 0.0976563 0.195312 0.130208 0.195312 0.195312 0.130208 0.0976563 0.130208 0.195312 0.0651042 0.0976563 0.195312 0.130208 0.195312 0.195312 0.130208 0.0976562 0.130208 0.195312 0.0651042 0.0976562 0.195312 0.130208 0.195312 0.195312 0.130208 0.0976563 0.130208 0.195312 0.0651042 0.0976563 0.195312 0.130208 0.195312 0.195312 0.130208 0.0976563 0.130208 0.195312 0.0651042 0.0976563 0.195312 0.130208 0.195312 0.195313 0.130208 0.0976562 0.130208 0.195312 0.0651042 0.0976563 0.195312 0.130208 0.195312 0.195312 0.130208 0.0976562 0.130208 0.195312 0.0651042 0.0976563 0.195312 0.130208 0.195312 0.195312 0.130208 0.0976563 0.130208 0.195312 0.0651041 0.0976562 0.195312 0.130208 0.195312 0.195312 0.130208 0.0976562 0.130208 0.195312 0.0651041 0.0976562 0.195312 0.130208 0.195312 0.195312 0.130208 0.0976563 0.130208 0.195313 0.0651042 0.0976563 0.195313 0.130208 0.195313 0.195313 0.130208 0.0976564 0.130208 0.195313 0.0651042 0.0976563 0.195312 0.130208 0.195312 0.195313 0.130208 0.0976562 0.130208 0.195312 0.0651042 0.0976563 0.195313 0.130208 0.195312 0.195312 0.130208 0.0976563 0.130208 0.195312 0.0651042 0.0976563 0.195312 0.130208 0.195312 0.195313 0.130208 0.0976562 0.130208 0.195312 0.0651041 0.0976562 0.195312 0.130208 0.195313 0.195312 0.130208 0.0976564 0.130208 0.195313 0.0651042 0.0976563 0.195313 0.130208 0.195313 0.195313 0.130208 0.0976564 0.130209 0.195313 0.0651042 0.0976563 0.195313 0.130208 0.195313 0.195313 0.130208 0.0976563 0.130208 0.195313 0.0651041 0.0976562 0.195312 0.130208 0.195312 0.195313 0.130208 0.0976562 0.130208 0.195313 0.0651042 0.0976563 0.195313 0.130208 0.195313 0.195313 0.130209 0.0976565 0.130208 0.195313 0.0651041 0.0976561 0.195313 0.130208 0.195312 0.195313 0.130208 0.0976562 0.130208 0.195313 0.0651042 0.0976564 0.195313 0.130209 0.195313 0.195313 0.130208 0.0976563 0.130208 0.195312 0.0651041 0.0976562 0.195312 0.130208 0.195312 0.195312 0.130208 0.0976562 0.130208 0.195312 0.0651042 0.0976563 0.195313 0.130208 0.195313 0.195312 0.130208 0.0976563 0.130208 0.195313 0.0651042 0.0976563 0.195312 0.130208 0.195312 0.195313 0.130208 0.0976561 0.130208 0.195312 0.065104 0.0976561 0.195313 0.130208 0.195313 0.195312 0.130208 0.0976564 0.130209 0.195313 0.0651042 0.0976563 0.195312 0.130208 0.195312 0.195313 0.130208 0.0976561 0.130208 0.195312 0.065104 0.0976561 0.195312 0.130208 0.195312 0.195312 0.130208 0.0976564 0.130209 0.195313 0.0651043 0.0976564 0.195313 0.130209 0.195313 0.195313 0.130208 0.0976564 0.130208 0.195312 0.065104 0.0976558 0.195312 0.130208 0.195312 0.195312 0.130208 0.0976561 0.130208 0.195312 0.0651041 0.097656 0.195313 0.130208 0.195313 0.195313 0.130208 0.0976563 0.130209 0.195313 0.0651042 0.0976562 0.195312 0.130209 0.195313 0.195313 0.130208 0.0976564 0.130209 0.195313 0.0651044 0.0976565 0.0976565 0.130208 0.0976564 0.195313 0.0651044 0.0325522 0.0651042 0.130208 0.195313 0.0651042 0.0976563 0.195312 0.130208 0.195313 0.0976562 0.0651042 0.195313 0.0976563 0.130208 0.0976563 0.130208 0.195313 0.0651042 0.0976563 0.195312 0.130208 0.195313 0.195313 0.130208 0.0976563 0.130208 0.195313 0.0651042 0.0976563 0.195312 0.130208 0.195313 0.195313 0.130208 0.0976563 0.130208 0.195312 0.0651042 0.0976563 0.195312 0.130208 0.195313 0.195313 0.130208 0.0976563 0.130208 0.195313 0.0651042 0.0976562 0.195312 0.130208 0.195313 0.195312 0.130208 0.0976563 0.130208 0.195313 0.0651042 0.0976563 0.195312 0.130208 0.195313 0.195313 0.130208 0.0976563 0.130208 0.195312 0.0651042 0.0976563 0.195312 0.130208 0.195312 0.195312 0.130208 0.0976563 0.130208 0.195312 0.0651042 0.0976563 0.195312 0.130208 0.195313 0.195312 0.130208 0.0976563 0.130208 0.195312 0.0651042 0.0976562 0.195312 0.130208 0.195312 0.195312 0.130208 0.0976563 0.130208 0.195312 0.0651042 0.0976562 0.195312 0.130208 0.195313 0.195312 0.130208 0.0976563 0.130208 0.195313 0.0651042 0.0976563 0.195313 0.130208 0.195313 0.195313 0.130208 0.0976564 0.130208 0.195313 0.0651042 0.0976563 0.195312 0.130208 0.195312 0.195313 0.130208 0.0976563 0.130208 0.195313 0.0651042 0.0976563 0.195313 0.130208 0.195313 0.195313 0.130208 0.0976563 0.130208 0.195313 0.0651042 0.0976563 0.195312 0.130208 0.195312 0.195313 0.130208 0.0976562 0.130208 0.195312 0.0651042 0.0976562 0.195312 0.130208 0.195313 0.195312 0.130208 0.0976564 0.130208 0.195313 0.0651043 0.0976563 0.195313 0.130208 0.195313 0.195313 0.130208 0.0976564 0.130209 0.195313 0.0651043 0.0976564 0.195313 0.130208 0.195313 0.195313 0.130208 0.0976564 0.130208 0.195313 0.0651041 0.0976562 0.195312 0.130208 0.195313 0.195313 0.130208 0.0976562 0.130208 0.195313 0.0651042 0.0976564 0.195313 0.130208 0.195313 0.195313 0.130209 0.0976565 0.130209 0.195313 0.0651042 0.0976562 0.195313 0.130208 0.195313 0.195313 0.130208 0.0976562 0.130208 0.195313 0.0651043 0.0976564 0.195313 0.130209 0.195313 0.195313 0.130208 0.0976564 0.130208 0.195313 0.0651041 0.0976562 0.195312 0.130208 0.195313 0.195313 0.130208 0.0976562 0.130208 0.195313 0.0651042 0.0976563 0.195313 0.130208 0.195313 0.195313 0.130208 0.0976563 0.130208 0.195313 0.0651042 0.0976563 0.195312 0.130208 0.195312 0.195313 0.130208 0.0976562 0.130208 0.195312 0.0651041 0.0976561 0.195312 0.130208 0.195313 0.195312 0.130208 0.0976564 0.130209 0.195313 0.0651042 0.0976563 0.195312 0.130208 0.195312 0.195313 0.130208 0.0976561 0.130208 0.195312 0.0651041 0.0976561 0.195312 0.130208 0.195313 0.195312 0.130208 0.0976564 0.130209 0.195313 0.0651043 0.0976565 0.195313 0.130209 0.195313 0.195313 0.130209 0.0976564 0.130208 0.195312 0.065104 0.0976558 0.195312 0.130208 0.195312 0.195312 0.130208 0.0976561 0.130208 0.195313 0.0651041 0.097656 0.195313 0.130208 0.195313 0.195313 0.130208 0.0976563 0.130209 0.195313 0.0651042 0.0976562 0.195312 0.130209 0.195313 0.195313 0.130208 0.0976564 0.130209 0.195313 0.0651044 0.0976566 0.0976566 0.130208 0.0976565 0.195313 0.0651044 0.0325522 0.0651042 0.130208 0.195312 0.0651042 0.0976562 0.195312 0.130208 0.195312 0.0976562 0.0651042 0.195312 0.0976563 0.130208 0.0976563 0.130208 0.195312 0.0651042 0.0976562 0.195312 0.130208 0.195312 0.195312 0.130208 0.0976563 0.130208 0.195313 0.0651042 0.0976562 0.195312 0.130208 0.195313 0.195312 0.130208 0.0976563 0.130208 0.195312 0.0651042 0.0976562 0.195312 0.130208 0.195312 0.195312 0.130208 0.0976563 0.130208 0.195312 0.0651042 0.0976562 0.195312 0.130208 0.195312 0.195312 0.130208 0.0976563 0.130208 0.195313 0.0651042 0.0976562 0.195312 0.130208 0.195312 0.195312 0.130208 0.0976563 0.130208 0.195312 0.0651042 0.0976562 0.195312 0.130208 0.195312 0.195312 0.130208 0.0976563 0.130208 0.195312 0.0651042 0.0976562 0.195312 0.130208 0.195312 0.195312 0.130208 0.0976563 0.130208 0.195312 0.0651041 0.0976561 0.195312 0.130208 0.195312 0.195312 0.130208 0.0976563 0.130208 0.195312 0.0651042 0.0976562 0.195312 0.130208 0.195312 0.195312 0.130208 0.0976563 0.130208 0.195313 0.0651042 0.0976563 0.195313 0.130208 0.195313 0.195313 0.130208 0.0976564 0.130208 0.195313 0.0651042 0.0976562 0.195312 0.130208 0.195312 0.195313 0.130208 0.0976563 0.130208 0.195312 0.0651042 0.0976562 0.195312 0.130208 0.195313 0.195312 0.130208 0.0976563 0.130208 0.195312 0.0651042 0.0976562 0.195312 0.130208 0.195312 0.195312 0.130208 0.0976562 0.130208 0.195312 0.0651042 0.0976562 0.195312 0.130208 0.195313 0.195312 0.130208 0.0976564 0.130208 0.195313 0.0651043 0.0976563 0.195313 0.130208 0.195313 0.195313 0.130208 0.0976564 0.130208 0.195313 0.0651042 0.0976563 0.195313 0.130208 0.195313 0.195313 0.130208 0.0976564 0.130208 0.195313 0.0651041 0.0976561 0.195312 0.130208 0.195312 0.195312 0.130208 0.0976562 0.130208 0.195313 0.0651042 0.0976563 0.195313 0.130208 0.195313 0.195313 0.130209 0.0976565 0.130208 0.195313 0.0651042 0.0976561 0.195312 0.130208 0.195312 0.195313 0.130208 0.0976562 0.130208 0.195313 0.0651043 0.0976563 0.195313 0.130209 0.195313 0.195313 0.130208 0.0976564 0.130208 0.195312 0.0651041 0.0976561 0.195312 0.130208 0.195313 0.195312 0.130208 0.0976562 0.130208 0.195312 0.0651042 0.0976562 0.195313 0.130208 0.195313 0.195312 0.130208 0.0976563 0.130208 0.195313 0.0651042 0.0976562 0.195312 0.130208 0.195312 0.195313 0.130208 0.0976562 0.130208 0.195312 0.0651041 0.097656 0.195312 0.130208 0.195313 0.195312 0.130208 0.0976564 0.130209 0.195313 0.0651042 0.0976562 0.195312 0.130208 0.195312 0.195313 0.130208 0.0976561 0.130208 0.195312 0.0651041 0.097656 0.195312 0.130208 0.195313 0.195312 0.130208 0.0976564 0.130209 0.195313 0.0651043 0.0976564 0.195313 0.130209 0.195313 0.195313 0.130208 0.0976564 0.130208 0.195312 0.065104 0.0976558 0.195312 0.130208 0.195312 0.195312 0.130208 0.0976561 0.130208 0.195312 0.0651041 0.097656 0.195313 0.130208 0.195313 0.195312 0.130208 0.0976563 0.130209 0.195313 0.0651042 0.0976561 0.195312 0.130209 0.195313 0.195313 0.130208 0.0976564 0.130209 0.195313 0.0651044 0.0976565 0.0976565 0.130208 0.0976564 0.195313 0.0651044 0.0325522 0.0651042 0.0651042 0.195312 0.0651041 0.0325521 0.0976562 0.130208 0.195312 0.0325521 0.0651041 0.0976562 0.0976562 0.130208 0.0976562 0.0651042 0.195312 0.0651041 0.0325521 0.0976562 0.130208 0.195312 0.0976562 0.130208 0.0976562 0.0651042 0.195312 0.0651041 0.0325521 0.0976562 0.130208 0.195312 0.0976562 0.130208 0.0976562 0.0651042 0.195312 0.0651041 0.0325521 0.0976562 0.130208 0.195312 0.0976562 0.130208 0.0976562 0.0651042 0.195312 0.0651041 0.0325521 0.0976562 0.130208 0.195312 0.0976562 0.130208 0.0976562 0.0651042 0.195312 0.0651041 0.0325521 0.0976562 0.130208 0.195312 0.0976562 0.130208 0.0976562 0.0651042 0.195312 0.0651041 0.0325521 0.0976562 0.130208 0.195312 0.0976562 0.130208 0.0976562 0.0651042 0.195312 0.0651041 0.0325521 0.0976563 0.130208 0.195312 0.0976562 0.130208 0.0976562 0.0651042 0.195312 0.0651041 0.0325521 0.0976562 0.130208 0.195312 0.0976562 0.130208 0.0976562 0.0651042 0.195312 0.0651041 0.0325521 0.0976562 0.130208 0.195312 0.0976562 0.130208 0.0976562 0.0651042 0.195312 0.0651042 0.0325521 0.0976563 0.130208 0.195313 0.0976563 0.130208 0.0976563 0.0651043 0.195312 0.0651042 0.0325522 0.0976563 0.130208 0.195312 0.0976563 0.130208 0.0976562 0.0651042 0.195312 0.0651041 0.0325521 0.0976562 0.130208 0.195312 0.0976562 0.130208 0.0976562 0.0651042 0.195312 0.0651041 0.0325521 0.0976562 0.130208 0.195312 0.0976562 0.130208 0.0976562 0.0651041 0.195312 0.0651041 0.0325521 0.0976562 0.130208 0.195312 0.0976562 0.130208 0.0976564 0.0651043 0.195312 0.0651042 0.0325522 0.0976564 0.130208 0.195312 0.0976564 0.130208 0.0976563 0.0651043 0.195313 0.0651042 0.0325522 0.0976564 0.130208 0.195313 0.0976564 0.130208 0.0976563 0.0651043 0.195312 0.0651041 0.0325521 0.0976562 0.130208 0.195312 0.0976563 0.130208 0.0976562 0.0651042 0.195313 0.0651042 0.0325521 0.0976564 0.130208 0.195313 0.0976563 0.130208 0.0976565 0.0651044 0.195312 0.0651041 0.0325522 0.0976562 0.130208 0.195312 0.0976565 0.130208 0.0976562 0.0651042 0.195313 0.0651042 0.0325521 0.0976563 0.130208 0.195313 0.0976564 0.130208 0.0976563 0.0651042 0.195312 0.0651041 0.0325521 0.0976561 0.130208 0.195312 0.0976562 0.130208 0.0976562 0.0651042 0.195312 0.0651042 0.0325521 0.0976562 0.130208 0.195312 0.0976562 0.130208 0.0976563 0.0651042 0.195312 0.0651042 0.0325522 0.0976562 0.130208 0.195312 0.0976563 0.130208 0.0976561 0.0651041 0.195312 0.065104 0.032552 0.0976562 0.130208 0.195313 0.0976561 0.130208 0.0976564 0.0651044 0.195313 0.0651042 0.0325522 0.0976562 0.130208 0.195312 0.0976565 0.130208 0.0976561 0.0651041 0.195312 0.065104 0.032552 0.0976562 0.130208 0.195312 0.097656 0.130208 0.0976564 0.0651044 0.195313 0.0651043 0.0325522 0.0976564 0.130209 0.195313 0.0976565 0.130208 0.0976564 0.0651043 0.195312 0.0651039 0.0325521 0.0976561 0.130208 0.195312 0.0976564 0.130208 0.0976561 0.0651043 0.195312 0.065104 0.0325522 0.0976563 0.130208 0.195313 0.0976565 0.130208 0.0976563 0.0651044 0.195313 0.0651041 0.0325522 0.0976563 0.130208 0.195312 0.0976566 0.130208 0.0976564 0.0651044 0.195313 0.0651043 0.0325522 0.0651043 0.130208 0.0976563 0.0976564 0.0651043 0.0325521 0.130208 0.195312 0.195313 0.130208 0.195313 0.0976562 0.0651041 0.0651042 0.0976562 0.0651042 0.195313 0.0976563 0.0976562 0.130208 0.130208 0.195313 0.195313 0.130208 0.195313 0.0976562 0.0651042 0.195313 0.0976562 0.130208 0.130208 0.195313 0.195313 0.130208 0.195313 0.0976563 0.0651042 0.195313 0.0976562 0.130208 0.130208 0.195312 0.195312 0.130208 0.195313 0.0976562 0.0651042 0.195313 0.0976562 0.130208 0.130208 0.195312 0.195313 0.130208 0.195313 0.0976562 0.0651041 0.195313 0.0976562 0.130208 0.130208 0.195313 0.195312 0.130208 0.195313 0.0976563 0.0651042 0.195313 0.0976562 0.130208 0.130208 0.195312 0.195312 0.130208 0.195312 0.0976562 0.0651042 0.195313 0.0976562 0.130208 0.130208 0.195312 0.195312 0.130208 0.195312 0.0976562 0.0651041 0.195312 0.0976562 0.130208 0.130208 0.195312 0.195312 0.130208 0.195312 0.0976562 0.0651041 0.195312 0.0976562 0.130208 0.130208 0.195312 0.195313 0.130208 0.195313 0.0976562 0.0651041 0.195313 0.0976562 0.130208 0.130208 0.195313 0.195313 0.130208 0.195313 0.0976563 0.0651042 0.195313 0.0976563 0.130208 0.130208 0.195313 0.195313 0.130208 0.195312 0.0976562 0.0651042 0.195313 0.0976562 0.130208 0.130208 0.195313 0.195313 0.130208 0.195313 0.0976563 0.0651042 0.195313 0.0976563 0.130208 0.130208 0.195313 0.195312 0.130208 0.195312 0.0976563 0.0651042 0.195313 0.0976562 0.130208 0.130208 0.195312 0.195313 0.130208 0.195313 0.0976562 0.0651041 0.195312 0.0976562 0.130208 0.130208 0.195313 0.195313 0.130208 0.195313 0.0976562 0.0651042 0.195313 0.0976562 0.130208 0.130209 0.195313 0.195313 0.130208 0.195313 0.0976563 0.0651042 0.195313 0.0976563 0.130208 0.130208 0.195313 0.195312 0.130208 0.195313 0.0976562 0.0651042 0.195313 0.0976563 0.130208 0.130208 0.195313 0.195313 0.130209 0.195313 0.0976564 0.0651042 0.195313 0.0976564 0.130209 0.130209 0.195313 0.195313 0.130208 0.195313 0.0976561 0.0651041 0.195313 0.0976563 0.130208 0.130208 0.195313 0.195313 0.130209 0.195313 0.0976564 0.0651043 0.195313 0.0976563 0.130208 0.130208 0.195313 0.195312 0.130208 0.195313 0.0976563 0.0651042 0.195313 0.0976562 0.130208 0.130208 0.195312 0.195313 0.130208 0.195313 0.0976563 0.0651042 0.195313 0.0976563 0.130208 0.130208 0.195313 0.195312 0.130208 0.195312 0.0976563 0.0651042 0.195313 0.0976562 0.130208 0.130208 0.195312 0.195313 0.130208 0.195313 0.0976561 0.0651041 0.195312 0.0976563 0.130208 0.130209 0.195313 0.195312 0.130209 0.195312 0.0976562 0.0651042 0.195313 0.097656 0.130208 0.130208 0.195312 0.195313 0.130208 0.195313 0.097656 0.065104 0.195312 0.0976563 0.130208 0.130209 0.195313 0.195313 0.130209 0.195313 0.0976564 0.0651043 0.195313 0.0976563 0.130209 0.130208 0.195312 0.195312 0.130208 0.195312 0.0976558 0.0651039 0.195312 0.0976562 0.130208 0.130208 0.195313 0.195313 0.130208 0.195313 0.0976561 0.0651041 0.195313 0.0976563 0.130208 0.130209 0.195313 0.195312 0.130209 0.195313 0.0976562 0.0651042 0.195313 0.0976561 0.130208 0.130209 0.195313 0.0976566 0.130208 0.0976564 0.0976565 0.0651042 0.195313 0.0325522 0.0651044 0.130208 0.195312 0.195313 0.130208 0.195313 0.0976562 0.0651042 0.195313 0.0976563 0.130208 0.130208 0.195313 0.195313 0.130208 0.195313 0.195313 0.130208 0.130208 0.195313 0.195313 0.130208 0.195313 0.195313 0.130208 0.130208 0.195312 0.195312 0.130208 0.195313 0.195313 0.130208 0.130208 0.195313 0.195313 0.130208 0.195313 0.195313 0.130208 0.130208 0.195313 0.195313 0.130208 0.195313 0.195313 0.130208 0.130208 0.195312 0.195312 0.130208 0.195313 0.195313 0.130208 0.130208 0.195312 0.195313 0.130208 0.195313 0.195312 0.130208 0.130208 0.195312 0.195312 0.130208 0.195312 0.195312 0.130208 0.130208 0.195312 0.195313 0.130208 0.195313 0.195312 0.130208 0.130208 0.195313 0.195313 0.130208 0.195313 0.195313 0.130208 0.130208 0.195313 0.195313 0.130208 0.195313 0.195313 0.130208 0.130208 0.195313 0.195313 0.130208 0.195313 0.195313 0.130208 0.130208 0.195313 0.195312 0.130208 0.195313 0.195313 0.130208 0.130208 0.195312 0.195313 0.130208 0.195313 0.195312 0.130208 0.130208 0.195313 0.195313 0.130208 0.195313 0.195313 0.130208 0.130209 0.195313 0.195313 0.130208 0.195313 0.195313 0.130208 0.130208 0.195313 0.195312 0.130208 0.195313 0.195313 0.130208 0.130208 0.195313 0.195313 0.130209 0.195313 0.195313 0.130209 0.130209 0.195313 0.195313 0.130208 0.195313 0.195313 0.130208 0.130208 0.195313 0.195313 0.130209 0.195313 0.195313 0.130208 0.130208 0.195313 0.195312 0.130208 0.195313 0.195313 0.130208 0.130208 0.195313 0.195313 0.130208 0.195313 0.195313 0.130208 0.130208 0.195313 0.195312 0.130208 0.195312 0.195313 0.130208 0.130208 0.195312 0.195313 0.130208 0.195313 0.195312 0.130208 0.130209 0.195313 0.195312 0.130209 0.195312 0.195313 0.130208 0.130208 0.195312 0.195313 0.130208 0.195313 0.195312 0.130208 0.130209 0.195313 0.195313 0.130209 0.195313 0.195313 0.130209 0.130208 0.195312 0.195312 0.130208 0.195312 0.195312 0.130208 0.130208 0.195313 0.195313 0.130209 0.195313 0.195313 0.130208 0.130209 0.195313 0.195312 0.130209 0.195313 0.195313 0.130208 0.130209 0.195313 0.0976566 0.130208 0.0976565 0.195313 0.0651044 0.130208 0.195313 0.195312 0.130208 0.195313 0.0976562 0.0651042 0.195313 0.0976563 0.130208 0.130208 0.195313 0.195313 0.130208 0.195313 0.195313 0.130208 0.130208 0.195313 0.195313 0.130208 0.195313 0.195313 0.130208 0.130208 0.195313 0.195312 0.130208 0.195313 0.195313 0.130208 0.130208 0.195312 0.195313 0.130208 0.195313 0.195313 0.130208 0.130208 0.195313 0.195313 0.130208 0.195313 0.195313 0.130208 0.130208 0.195312 0.195312 0.130208 0.195313 0.195313 0.130208 0.130208 0.195312 0.195313 0.130208 0.195313 0.195312 0.130208 0.130208 0.195312 0.195312 0.130208 0.195312 0.195312 0.130208 0.130208 0.195312 0.195313 0.130208 0.195313 0.195313 0.130208 0.130208 0.195313 0.195313 0.130208 0.195313 0.195313 0.130208 0.130208 0.195313 0.195313 0.130208 0.195313 0.195313 0.130208 0.130208 0.195313 0.195313 0.130208 0.195313 0.195313 0.130208 0.130208 0.195313 0.195312 0.130208 0.195313 0.195313 0.130208 0.130208 0.195312 0.195313 0.130208 0.195313 0.195312 0.130208 0.130208 0.195313 0.195313 0.130208 0.195313 0.195313 0.130208 0.130209 0.195313 0.195313 0.130208 0.195313 0.195313 0.130208 0.130208 0.195313 0.195312 0.130208 0.195313 0.195313 0.130208 0.130208 0.195313 0.195313 0.130209 0.195313 0.195313 0.130209 0.130209 0.195313 0.195313 0.130208 0.195313 0.195313 0.130208 0.130209 0.195313 0.195313 0.130209 0.195313 0.195313 0.130209 0.130208 0.195313 0.195312 0.130208 0.195313 0.195313 0.130208 0.130208 0.195313 0.195313 0.130208 0.195313 0.195313 0.130208 0.130208 0.195313 0.195312 0.130208 0.195312 0.195313 0.130208 0.130208 0.195312 0.195313 0.130208 0.195313 0.195312 0.130208 0.130209 0.195313 0.195312 0.130209 0.195312 0.195313 0.130208 0.130208 0.195312 0.195313 0.130208 0.195313 0.195312 0.130208 0.130209 0.195313 0.195313 0.130209 0.195313 0.195313 0.130209 0.130208 0.195312 0.195312 0.130208 0.195312 0.195312 0.130208 0.130208 0.195313 0.195313 0.130209 0.195313 0.195313 0.130208 0.130209 0.195313 0.195312 0.130209 0.195313 0.195313 0.130208 0.130209 0.195313 0.0976566 0.130208 0.0976564 0.195313 0.0651044 0.130208 0.195312 0.195312 0.130208 0.195313 0.0976562 0.0651042 0.195313 0.0976563 0.130208 0.130208 0.195312 0.195312 0.130208 0.195313 0.195313 0.130208 0.130208 0.195312 0.195312 0.130208 0.195313 0.195313 0.130208 0.130208 0.195312 0.195312 0.130208 0.195313 0.195313 0.130208 0.130208 0.195312 0.195312 0.130208 0.195313 0.195313 0.130208 0.130208 0.195313 0.195312 0.130208 0.195313 0.195313 0.130208 0.130208 0.195312 0.195312 0.130208 0.195312 0.195312 0.130208 0.130208 0.195312 0.195312 0.130208 0.195312 0.195312 0.130208 0.130208 0.195312 0.195312 0.130208 0.195312 0.195312 0.130208 0.130208 0.195312 0.195312 0.130208 0.195313 0.195312 0.130208 0.130208 0.195313 0.195313 0.130208 0.195313 0.195313 0.130208 0.130208 0.195313 0.195312 0.130208 0.195312 0.195313 0.130208 0.130208 0.195312 0.195313 0.130208 0.195313 0.195313 0.130208 0.130208 0.195312 0.195312 0.130208 0.195312 0.195313 0.130208 0.130208 0.195312 0.195312 0.130208 0.195313 0.195312 0.130208 0.130208 0.195313 0.195313 0.130208 0.195313 0.195313 0.130208 0.130209 0.195313 0.195313 0.130208 0.195313 0.195313 0.130208 0.130208 0.195313 0.195312 0.130208 0.195313 0.195313 0.130208 0.130208 0.195313 0.195313 0.130208 0.195313 0.195313 0.130209 0.130209 0.195313 0.195313 0.130208 0.195313 0.195313 0.130208 0.130208 0.195313 0.195313 0.130209 0.195313 0.195313 0.130208 0.130208 0.195312 0.195312 0.130208 0.195312 0.195313 0.130208 0.130208 0.195312 0.195313 0.130208 0.195313 0.195313 0.130208 0.130208 0.195313 0.195312 0.130208 0.195312 0.195313 0.130208 0.130208 0.195312 0.195313 0.130208 0.195313 0.195312 0.130208 0.130209 0.195313 0.195312 0.130208 0.195312 0.195313 0.130208 0.130208 0.195312 0.195312 0.130208 0.195313 0.195312 0.130208 0.130209 0.195313 0.195313 0.130209 0.195313 0.195313 0.130208 0.130208 0.195312 0.195312 0.130208 0.195312 0.195312 0.130208 0.130208 0.195312 0.195313 0.130208 0.195313 0.195313 0.130208 0.130209 0.195313 0.195312 0.130209 0.195313 0.195313 0.130208 0.130209 0.195313 0.0976565 0.130208 0.0976564 0.195313 0.0651044 0.130208 0.195312 0.195313 0.130208 0.195313 0.0976563 0.0651042 0.195313 0.0976563 0.130208 0.130208 0.195312 0.195313 0.130208 0.195313 0.195313 0.130208 0.130208 0.195313 0.195313 0.130208 0.195313 0.195313 0.130208 0.130208 0.195312 0.195313 0.130208 0.195313 0.195313 0.130208 0.130208 0.195312 0.195313 0.130208 0.195313 0.195313 0.130208 0.130208 0.195313 0.195313 0.130208 0.195313 0.195313 0.130208 0.130208 0.195312 0.195312 0.130208 0.195312 0.195313 0.130208 0.130208 0.195312 0.195313 0.130208 0.195313 0.195312 0.130208 0.130208 0.195312 0.195312 0.130208 0.195312 0.195312 0.130208 0.130208 0.195312 0.195313 0.130208 0.195313 0.195313 0.130208 0.130208 0.195313 0.195313 0.130208 0.195313 0.195313 0.130208 0.130208 0.195313 0.195313 0.130208 0.195313 0.195313 0.130208 0.130208 0.195313 0.195313 0.130208 0.195313 0.195313 0.130208 0.130208 0.195313 0.195312 0.130208 0.195313 0.195313 0.130208 0.130208 0.195312 0.195313 0.130208 0.195313 0.195312 0.130208 0.130208 0.195313 0.195313 0.130208 0.195313 0.195313 0.130208 0.130209 0.195313 0.195313 0.130208 0.195313 0.195313 0.130208 0.130208 0.195313 0.195313 0.130208 0.195313 0.195313 0.130208 0.130208 0.195313 0.195313 0.130209 0.195313 0.195313 0.130209 0.130209 0.195313 0.195313 0.130208 0.195313 0.195313 0.130208 0.130209 0.195313 0.195313 0.130209 0.195313 0.195313 0.130208 0.130208 0.195313 0.195312 0.130208 0.195313 0.195313 0.130208 0.130208 0.195313 0.195313 0.130208 0.195313 0.195313 0.130208 0.130208 0.195313 0.195313 0.130208 0.195312 0.195313 0.130208 0.130208 0.195312 0.195313 0.130208 0.195313 0.195312 0.130208 0.130209 0.195313 0.195312 0.130209 0.195312 0.195313 0.130208 0.130208 0.195312 0.195313 0.130208 0.195313 0.195312 0.130208 0.130209 0.195313 0.195313 0.130209 0.195313 0.195313 0.130209 0.130208 0.195312 0.195312 0.130208 0.195312 0.195312 0.130208 0.130208 0.195312 0.195313 0.130208 0.195313 0.195313 0.130208 0.130209 0.195313 0.195313 0.130209 0.195313 0.195313 0.130208 0.130209 0.195313 0.0976566 0.130208 0.0976564 0.195313 0.0651044 0.130208 0.195313 0.195313 0.130208 0.195313 0.0976562 0.0651042 0.195313 0.0976564 0.130208 0.130208 0.195313 0.195313 0.130208 0.195313 0.195313 0.130208 0.130208 0.195313 0.195313 0.130208 0.195313 0.195313 0.130208 0.130208 0.195313 0.195313 0.130208 0.195313 0.195313 0.130208 0.130208 0.195313 0.195313 0.130208 0.195313 0.195313 0.130208 0.130208 0.195313 0.195313 0.130208 0.195313 0.195313 0.130208 0.130208 0.195313 0.195312 0.130208 0.195313 0.195313 0.130208 0.130208 0.195312 0.195313 0.130208 0.195313 0.195313 0.130208 0.130208 0.195313 0.195312 0.130208 0.195313 0.195313 0.130208 0.130208 0.195313 0.195313 0.130208 0.195313 0.195313 0.130208 0.130208 0.195313 0.195313 0.130208 0.195313 0.195313 0.130208 0.130208 0.195313 0.195313 0.130208 0.195313 0.195313 0.130208 0.130208 0.195313 0.195313 0.130208 0.195313 0.195313 0.130208 0.130208 0.195313 0.195312 0.130208 0.195313 0.195313 0.130208 0.130208 0.195312 0.195313 0.130208 0.195313 0.195312 0.130208 0.130208 0.195313 0.195313 0.130208 0.195313 0.195313 0.130208 0.130209 0.195313 0.195313 0.130209 0.195313 0.195313 0.130209 0.130208 0.195313 0.195313 0.130208 0.195313 0.195313 0.130208 0.130208 0.195313 0.195313 0.130209 0.195313 0.195313 0.130209 0.130209 0.195313 0.195313 0.130209 0.195313 0.195313 0.130208 0.130209 0.195313 0.195313 0.130209 0.195313 0.195313 0.130209 0.130208 0.195313 0.195312 0.130208 0.195313 0.195313 0.130208 0.130208 0.195313 0.195313 0.130208 0.195313 0.195313 0.130208 0.130208 0.195313 0.195312 0.130209 0.195313 0.195313 0.130208 0.130208 0.195312 0.195313 0.130208 0.195313 0.195312 0.130208 0.130209 0.195313 0.195312 0.130209 0.195312 0.195313 0.130208 0.130208 0.195312 0.195313 0.130208 0.195313 0.195312 0.130208 0.130209 0.195313 0.195313 0.130209 0.195313 0.195313 0.130209 0.130208 0.195312 0.195312 0.130208 0.195312 0.195312 0.130208 0.130208 0.195313 0.195313 0.130209 0.195313 0.195313 0.130208 0.130209 0.195313 0.195313 0.130209 0.195313 0.195313 0.130208 0.130209 0.195313 0.0976566 0.130209 0.0976565 0.195313 0.0651044 0.130208 0.195313 0.195312 0.130208 0.195313 0.0976562 0.0651042 0.195312 0.0976563 0.130208 0.130208 0.195313 0.195312 0.130208 0.195313 0.195312 0.130208 0.130208 0.195313 0.195312 0.130208 0.195313 0.195313 0.130208 0.130208 0.195313 0.195312 0.130208 0.195313 0.195312 0.130208 0.130208 0.195313 0.195312 0.130208 0.195313 0.195312 0.130208 0.130208 0.195313 0.195312 0.130208 0.195313 0.195313 0.130208 0.130208 0.195312 0.195312 0.130208 0.195312 0.195312 0.130208 0.130208 0.195312 0.195312 0.130208 0.195313 0.195312 0.130208 0.130208 0.195312 0.195312 0.130208 0.195312 0.195312 0.130208 0.130208 0.195312 0.195312 0.130208 0.195313 0.195312 0.130208 0.130208 0.195313 0.195313 0.130208 0.195313 0.195313 0.130208 0.130208 0.195313 0.195312 0.130208 0.195313 0.195313 0.130208 0.130208 0.195313 0.195313 0.130208 0.195313 0.195312 0.130208 0.130208 0.195313 0.195312 0.130208 0.195313 0.195313 0.130208 0.130208 0.195312 0.195312 0.130208 0.195313 0.195312 0.130208 0.130208 0.195313 0.195313 0.130208 0.195313 0.195313 0.130208 0.130208 0.195313 0.195313 0.130208 0.195313 0.195313 0.130208 0.130208 0.195313 0.195312 0.130208 0.195313 0.195313 0.130208 0.130208 0.195313 0.195313 0.130209 0.195313 0.195313 0.130209 0.130208 0.195313 0.195313 0.130208 0.195313 0.195313 0.130208 0.130208 0.195313 0.195313 0.130209 0.195313 0.195313 0.130209 0.130208 0.195313 0.195312 0.130208 0.195313 0.195312 0.130208 0.130208 0.195313 0.195313 0.130208 0.195313 0.195312 0.130208 0.130208 0.195313 0.195312 0.130208 0.195312 0.195313 0.130208 0.130208 0.195312 0.195312 0.130208 0.195313 0.195312 0.130208 0.130209 0.195313 0.195312 0.130209 0.195312 0.195313 0.130208 0.130208 0.195312 0.195312 0.130208 0.195313 0.195312 0.130208 0.130209 0.195313 0.195313 0.130209 0.195313 0.195313 0.130209 0.130208 0.195312 0.195312 0.130208 0.195312 0.195312 0.130208 0.130208 0.195313 0.195313 0.130208 0.195313 0.195313 0.130208 0.130209 0.195313 0.195312 0.130209 0.195313 0.195313 0.130208 0.130209 0.195313 0.0976566 0.130208 0.0976564 0.195313 0.0651044 0.0651042 0.195312 0.0976563 0.130208 0.195312 0.0325521 0.0651041 0.0976563 0.0976563 0.130208 0.0651042 0.195312 0.0976563 0.130208 0.195312 0.0976563 0.130208 0.0651042 0.195312 0.0976563 0.130208 0.195312 0.0976563 0.130208 0.0651042 0.195312 0.0976562 0.130208 0.195312 0.0976563 0.130208 0.0651042 0.195312 0.0976562 0.130208 0.195312 0.0976563 0.130208 0.0651042 0.195312 0.0976562 0.130208 0.195312 0.0976563 0.130208 0.0651042 0.195312 0.0976562 0.130208 0.195312 0.0976563 0.130208 0.0651042 0.195312 0.0976563 0.130208 0.195312 0.0976562 0.130208 0.0651042 0.195312 0.0976562 0.130208 0.195312 0.0976563 0.130208 0.0651042 0.195312 0.0976563 0.130208 0.195312 0.0976563 0.130208 0.0651042 0.195313 0.0976563 0.130208 0.195313 0.0976564 0.130208 0.0651043 0.195312 0.0976563 0.130208 0.195312 0.0976564 0.130208 0.0651042 0.195312 0.0976562 0.130208 0.195312 0.0976562 0.130208 0.0651042 0.195312 0.0976562 0.130208 0.195312 0.0976563 0.130208 0.0651041 0.195312 0.0976563 0.130208 0.195313 0.0976562 0.130208 0.0651043 0.195313 0.0976564 0.130208 0.195313 0.0976564 0.130208 0.0651043 0.195313 0.0976564 0.130208 0.195313 0.0976564 0.130208 0.0651043 0.195312 0.0976562 0.130208 0.195312 0.0976564 0.130208 0.0651042 0.195313 0.0976564 0.130208 0.195313 0.0976563 0.130209 0.0651044 0.195313 0.0976562 0.130208 0.195312 0.0976565 0.130208 0.0651042 0.195313 0.0976564 0.130209 0.195313 0.0976564 0.130208 0.0651042 0.195312 0.0976562 0.130208 0.195312 0.0976563 0.130208 0.0651042 0.195312 0.0976563 0.130208 0.195313 0.0976563 0.130208 0.0651042 0.195313 0.0976563 0.130208 0.195312 0.0976563 0.130208 0.0651041 0.195312 0.0976562 0.130208 0.195313 0.0976562 0.130208 0.0651044 0.195313 0.0976562 0.130208 0.195312 0.0976566 0.130208 0.0651041 0.195312 0.0976562 0.130208 0.195312 0.097656 0.130208 0.0651044 0.195313 0.0976565 0.130209 0.195313 0.0976565 0.130208 0.0651043 0.195312 0.0976561 0.130208 0.195312 0.0976564 0.130208 0.0651043 0.195312 0.0976563 0.130208 0.195313 0.0976565 0.130208 0.0651044 0.195313 0.0976564 0.130209 0.195313 0.0976566 0.130208 0.0651044 0.195313 0.0651043 0.130208 0.0976564 0.0976564 0.0651043 0.130208 0.195313 0.195313 0.130208 0.195313 0.0976562 0.0651042 0.0651042 0.0976563 0.0651042 0.195313 0.0976563 0.0976563 0.130208 0.130208 0.195313 0.195313 0.130208 0.195313 0.0976562 0.0651042 0.195313 0.0976563 0.130208 0.130208 0.195313 0.195313 0.130208 0.195313 0.0976562 0.0651042 0.195313 0.0976563 0.130208 0.130208 0.195313 0.195313 0.130208 0.195313 0.0976562 0.0651042 0.195313 0.0976563 0.130208 0.130208 0.195313 0.195313 0.130208 0.195313 0.0976562 0.0651042 0.195313 0.0976563 0.130208 0.130208 0.195313 0.195313 0.130208 0.195313 0.0976562 0.0651042 0.195313 0.0976563 0.130208 0.130208 0.195313 0.195312 0.130208 0.195312 0.0976562 0.0651042 0.195313 0.0976562 0.130208 0.130208 0.195312 0.195313 0.130208 0.195312 0.0976562 0.0651041 0.195312 0.0976562 0.130208 0.130208 0.195312 0.195313 0.130208 0.195312 0.0976561 0.0651041 0.195312 0.0976562 0.130208 0.130208 0.195313 0.195313 0.130208 0.195313 0.0976562 0.0651042 0.195312 0.0976563 0.130208 0.130208 0.195313 0.195313 0.130208 0.195313 0.0976563 0.0651042 0.195313 0.0976563 0.130208 0.130208 0.195313 0.195313 0.130208 0.195312 0.0976562 0.0651042 0.195313 0.0976562 0.130208 0.130208 0.195313 0.195313 0.130208 0.195313 0.0976563 0.0651042 0.195313 0.0976563 0.130208 0.130208 0.195313 0.195313 0.130208 0.195312 0.0976563 0.0651042 0.195313 0.0976562 0.130208 0.130208 0.195312 0.195313 0.130208 0.195313 0.0976562 0.0651041 0.195312 0.0976563 0.130208 0.130209 0.195313 0.195313 0.130208 0.195313 0.0976562 0.0651042 0.195313 0.0976563 0.130208 0.130209 0.195313 0.195313 0.130208 0.195313 0.0976563 0.0651042 0.195313 0.0976564 0.130208 0.130208 0.195313 0.195313 0.130208 0.195313 0.0976562 0.0651042 0.195313 0.0976563 0.130208 0.130208 0.195313 0.195313 0.130208 0.195313 0.0976563 0.0651042 0.195313 0.0976564 0.130209 0.130209 0.195313 0.195313 0.130208 0.195313 0.0976561 0.0651041 0.195313 0.0976563 0.130208 0.130209 0.195313 0.195313 0.130209 0.195313 0.0976564 0.0651043 0.195313 0.0976564 0.130209 0.130208 0.195313 0.195312 0.130208 0.195312 0.0976562 0.0651042 0.195313 0.0976563 0.130208 0.130208 0.195313 0.195313 0.130208 0.195313 0.0976562 0.0651042 0.195313 0.0976564 0.130208 0.130209 0.195313 0.195313 0.130208 0.195312 0.0976562 0.0651042 0.195313 0.0976562 0.130208 0.130208 0.195312 0.195313 0.130208 0.195313 0.0976561 0.0651041 0.195312 0.0976563 0.130208 0.130209 0.195313 0.195312 0.130208 0.195312 0.0976562 0.0651042 0.195313 0.0976561 0.130208 0.130208 0.195312 0.195313 0.130208 0.195313 0.097656 0.065104 0.195312 0.0976563 0.130208 0.130209 0.195313 0.195313 0.130209 0.195313 0.0976564 0.0651043 0.195313 0.0976564 0.130209 0.130208 0.195312 0.195312 0.130208 0.195312 0.0976558 0.065104 0.195312 0.0976563 0.130208 0.130208 0.195313 0.195313 0.130208 0.195313 0.097656 0.0651041 0.195313 0.0976564 0.130208 0.130209 0.195313 0.195313 0.130209 0.195313 0.0976562 0.0651042 0.195313 0.0976561 0.130208 0.130209 0.195313 0.0976566 0.130208 0.0976564 0.0976564 0.0651043 0.195313 0.0325522 0.0651044 0.130208 0.195313 0.195313 0.130208 0.195313 0.0976563 0.0651042 0.195313 0.0976563 0.130208 0.130208 0.195313 0.195313 0.130208 0.195313 0.195313 0.130208 0.130208 0.195313 0.195313 0.130208 0.195313 0.195313 0.130208 0.130208 0.195313 0.195313 0.130208 0.195313 0.195312 0.130208 0.130208 0.195313 0.195313 0.130208 0.195313 0.195312 0.130208 0.130208 0.195313 0.195313 0.130208 0.195313 0.195313 0.130208 0.130208 0.195313 0.195312 0.130208 0.195312 0.195312 0.130208 0.130208 0.195313 0.195313 0.130208 0.195312 0.195312 0.130208 0.130208 0.195313 0.195313 0.130208 0.195312 0.195312 0.130208 0.130208 0.195313 0.195313 0.130208 0.195313 0.195312 0.130208 0.130208 0.195313 0.195313 0.130208 0.195313 0.195313 0.130208 0.130208 0.195313 0.195313 0.130208 0.195312 0.195313 0.130208 0.130208 0.195313 0.195313 0.130208 0.195313 0.195313 0.130208 0.130208 0.195313 0.195313 0.130208 0.195312 0.195313 0.130208 0.130208 0.195312 0.195313 0.130208 0.195313 0.195312 0.130208 0.130209 0.195313 0.195313 0.130208 0.195313 0.195313 0.130208 0.130209 0.195313 0.195313 0.130208 0.195313 0.195313 0.130209 0.130208 0.195313 0.195313 0.130208 0.195313 0.195313 0.130208 0.130208 0.195313 0.195313 0.130208 0.195313 0.195313 0.130209 0.130209 0.195313 0.195313 0.130208 0.195313 0.195313 0.130208 0.130209 0.195313 0.195313 0.130209 0.195313 0.195313 0.130209 0.130208 0.195313 0.195313 0.130208 0.195313 0.195313 0.130208 0.130208 0.195313 0.195313 0.130208 0.195313 0.195313 0.130208 0.130209 0.195313 0.195313 0.130208 0.195312 0.195313 0.130208 0.130208 0.195312 0.195313 0.130208 0.195313 0.195312 0.130208 0.130209 0.195313 0.195312 0.130208 0.195312 0.195313 0.130208 0.130208 0.195312 0.195313 0.130208 0.195313 0.195312 0.130208 0.130209 0.195313 0.195313 0.130209 0.195313 0.195313 0.130209 0.130208 0.195312 0.195312 0.130208 0.195312 0.195312 0.130208 0.130208 0.195313 0.195313 0.130208 0.195313 0.195313 0.130208 0.130209 0.195313 0.195313 0.130209 0.195313 0.195313 0.130208 0.130209 0.195313 0.0976566 0.130208 0.0976564 0.195313 0.0651044 0.130208 0.195313 0.195313 0.130208 0.195313 0.0976563 0.0651042 0.195313 0.0976563 0.130208 0.130208 0.195313 0.195313 0.130208 0.195313 0.195313 0.130208 0.130208 0.195313 0.195313 0.130208 0.195313 0.195313 0.130208 0.130208 0.195313 0.195313 0.130208 0.195313 0.195313 0.130208 0.130208 0.195313 0.195313 0.130208 0.195313 0.195312 0.130208 0.130208 0.195313 0.195313 0.130208 0.195313 0.195313 0.130208 0.130208 0.195313 0.195313 0.130208 0.195312 0.195312 0.130208 0.130208 0.195313 0.195313 0.130208 0.195313 0.195312 0.130208 0.130208 0.195313 0.195313 0.130208 0.195312 0.195312 0.130208 0.130208 0.195313 0.195313 0.130208 0.195313 0.195312 0.130208 0.130209 0.195313 0.195313 0.130208 0.195313 0.195313 0.130208 0.130209 0.195313 0.195313 0.130208 0.195313 0.195313 0.130208 0.130208 0.195313 0.195313 0.130208 0.195313 0.195313 0.130208 0.130208 0.195313 0.195313 0.130208 0.195313 0.195313 0.130208 0.130208 0.195313 0.195313 0.130208 0.195313 0.195312 0.130208 0.130209 0.195313 0.195313 0.130208 0.195313 0.195313 0.130208 0.130209 0.195313 0.195313 0.130208 0.195313 0.195313 0.130209 0.130208 0.195313 0.195313 0.130208 0.195313 0.195313 0.130208 0.130208 0.195313 0.195313 0.130208 0.195313 0.195313 0.130209 0.130209 0.195313 0.195313 0.130208 0.195313 0.195313 0.130208 0.130209 0.195313 0.195313 0.130209 0.195313 0.195313 0.130209 0.130208 0.195313 0.195312 0.130208 0.195313 0.195313 0.130208 0.130208 0.195313 0.195313 0.130208 0.195313 0.195313 0.130208 0.130209 0.195313 0.195313 0.130208 0.195312 0.195313 0.130208 0.130208 0.195312 0.195313 0.130208 0.195313 0.195312 0.130208 0.130209 0.195313 0.195312 0.130208 0.195312 0.195313 0.130208 0.130208 0.195312 0.195313 0.130208 0.195313 0.195312 0.130208 0.130209 0.195313 0.195313 0.130209 0.195313 0.195313 0.130209 0.130208 0.195312 0.195312 0.130208 0.195312 0.195312 0.130208 0.130208 0.195313 0.195313 0.130208 0.195313 0.195313 0.130208 0.130209 0.195313 0.195313 0.130209 0.195313 0.195313 0.130208 0.130209 0.195313 0.0976566 0.130208 0.0976564 0.195313 0.0651044 0.130208 0.195313 0.195313 0.130208 0.195312 0.0976563 0.0651042 0.195312 0.0976563 0.130208 0.130208 0.195313 0.195313 0.130208 0.195312 0.195313 0.130208 0.130208 0.195313 0.195313 0.130208 0.195312 0.195313 0.130208 0.130208 0.195313 0.195313 0.130208 0.195312 0.195312 0.130208 0.130208 0.195313 0.195313 0.130208 0.195313 0.195312 0.130208 0.130208 0.195313 0.195313 0.130208 0.195312 0.195313 0.130208 0.130208 0.195313 0.195312 0.130208 0.195312 0.195312 0.130208 0.130208 0.195312 0.195313 0.130208 0.195312 0.195312 0.130208 0.130208 0.195312 0.195313 0.130208 0.195312 0.195312 0.130208 0.130208 0.195313 0.195313 0.130208 0.195313 0.195312 0.130208 0.130208 0.195313 0.195313 0.130208 0.195313 0.195313 0.130208 0.130208 0.195313 0.195313 0.130208 0.195312 0.195313 0.130208 0.130208 0.195313 0.195313 0.130208 0.195313 0.195313 0.130208 0.130208 0.195313 0.195312 0.130208 0.195312 0.195313 0.130208 0.130208 0.195312 0.195313 0.130208 0.195313 0.195312 0.130208 0.130209 0.195313 0.195313 0.130208 0.195313 0.195313 0.130208 0.130209 0.195313 0.195313 0.130208 0.195313 0.195313 0.130208 0.130208 0.195313 0.195313 0.130208 0.195312 0.195313 0.130208 0.130208 0.195313 0.195313 0.130208 0.195313 0.195313 0.130209 0.130209 0.195313 0.195313 0.130208 0.195312 0.195313 0.130208 0.130209 0.195313 0.195313 0.130209 0.195313 0.195313 0.130209 0.130208 0.195313 0.195312 0.130208 0.195312 0.195313 0.130208 0.130208 0.195313 0.195313 0.130208 0.195313 0.195312 0.130208 0.130208 0.195313 0.195313 0.130208 0.195312 0.195313 0.130208 0.130208 0.195312 0.195313 0.130208 0.195313 0.195312 0.130208 0.130209 0.195313 0.195312 0.130208 0.195312 0.195313 0.130208 0.130208 0.195312 0.195313 0.130208 0.195313 0.195312 0.130208 0.130209 0.195313 0.195313 0.130209 0.195313 0.195313 0.130209 0.130208 0.195312 0.195312 0.130208 0.195312 0.195312 0.130208 0.130208 0.195313 0.195313 0.130208 0.195313 0.195313 0.130208 0.130209 0.195313 0.195313 0.130209 0.195313 0.195313 0.130208 0.130209 0.195313 0.0976566 0.130208 0.0976564 0.195313 0.0651044 0.130208 0.195313 0.195313 0.130208 0.195313 0.0976563 0.0651042 0.195313 0.0976563 0.130208 0.130208 0.195313 0.195313 0.130208 0.195313 0.195313 0.130208 0.130208 0.195313 0.195313 0.130208 0.195313 0.195313 0.130208 0.130208 0.195313 0.195313 0.130208 0.195313 0.195313 0.130208 0.130208 0.195313 0.195313 0.130208 0.195313 0.195313 0.130208 0.130208 0.195313 0.195313 0.130208 0.195313 0.195313 0.130208 0.130208 0.195313 0.195313 0.130208 0.195312 0.195313 0.130208 0.130208 0.195313 0.195313 0.130208 0.195312 0.195312 0.130208 0.130208 0.195313 0.195313 0.130208 0.195312 0.195312 0.130208 0.130208 0.195313 0.195313 0.130208 0.195313 0.195312 0.130208 0.130208 0.195313 0.195313 0.130208 0.195313 0.195313 0.130208 0.130209 0.195313 0.195313 0.130208 0.195312 0.195313 0.130208 0.130208 0.195313 0.195313 0.130208 0.195313 0.195313 0.130208 0.130208 0.195313 0.195313 0.130208 0.195312 0.195313 0.130208 0.130208 0.195312 0.195313 0.130208 0.195313 0.195312 0.130208 0.130209 0.195313 0.195313 0.130208 0.195313 0.195313 0.130208 0.130209 0.195313 0.195313 0.130208 0.195313 0.195313 0.130209 0.130208 0.195313 0.195313 0.130208 0.195313 0.195313 0.130208 0.130208 0.195313 0.195313 0.130208 0.195313 0.195313 0.130209 0.130209 0.195313 0.195313 0.130208 0.195313 0.195313 0.130208 0.130209 0.195313 0.195313 0.130209 0.195313 0.195313 0.130209 0.130208 0.195313 0.195313 0.130208 0.195313 0.195313 0.130208 0.130208 0.195313 0.195313 0.130208 0.195313 0.195313 0.130208 0.130209 0.195313 0.195313 0.130208 0.195312 0.195313 0.130208 0.130208 0.195312 0.195313 0.130208 0.195313 0.195312 0.130208 0.130209 0.195313 0.195312 0.130208 0.195312 0.195313 0.130208 0.130208 0.195312 0.195313 0.130208 0.195313 0.195312 0.130208 0.130209 0.195313 0.195313 0.130209 0.195313 0.195313 0.130209 0.130208 0.195312 0.195312 0.130208 0.195312 0.195312 0.130208 0.130208 0.195313 0.195313 0.130208 0.195313 0.195313 0.130208 0.130209 0.195313 0.195313 0.130209 0.195313 0.195313 0.130208 0.130209 0.195313 0.0976566 0.130208 0.0976564 0.195313 0.0651044 0.130208 0.195313 0.195313 0.130208 0.195313 0.0976563 0.0651042 0.195313 0.0976563 0.130208 0.130208 0.195313 0.195313 0.130208 0.195313 0.195313 0.130208 0.130208 0.195313 0.195313 0.130208 0.195313 0.195313 0.130208 0.130208 0.195313 0.195313 0.130208 0.195313 0.195313 0.130208 0.130208 0.195313 0.195313 0.130208 0.195313 0.195313 0.130208 0.130208 0.195313 0.195313 0.130208 0.195313 0.195313 0.130208 0.130208 0.195313 0.195313 0.130208 0.195313 0.195313 0.130208 0.130208 0.195313 0.195313 0.130208 0.195313 0.195312 0.130208 0.130208 0.195313 0.195313 0.130208 0.195312 0.195312 0.130208 0.130208 0.195313 0.195313 0.130208 0.195313 0.195313 0.130208 0.130209 0.195313 0.195313 0.130208 0.195313 0.195313 0.130209 0.130209 0.195313 0.195313 0.130208 0.195313 0.195313 0.130208 0.130208 0.195313 0.195313 0.130208 0.195313 0.195313 0.130208 0.130208 0.195313 0.195313 0.130208 0.195313 0.195313 0.130208 0.130208 0.195313 0.195313 0.130208 0.195313 0.195312 0.130208 0.130209 0.195313 0.195313 0.130208 0.195313 0.195313 0.130208 0.130209 0.195313 0.195313 0.130208 0.195313 0.195313 0.130209 0.130208 0.195313 0.195313 0.130208 0.195313 0.195313 0.130208 0.130209 0.195313 0.195313 0.130209 0.195313 0.195313 0.130209 0.130209 0.195313 0.195313 0.130208 0.195313 0.195313 0.130208 0.130209 0.195313 0.195313 0.130209 0.195313 0.195313 0.130209 0.130208 0.195313 0.195313 0.130208 0.195313 0.195313 0.130208 0.130208 0.195313 0.195313 0.130208 0.195313 0.195313 0.130208 0.130209 0.195313 0.195313 0.130208 0.195312 0.195313 0.130208 0.130208 0.195312 0.195313 0.130208 0.195313 0.195312 0.130209 0.130209 0.195313 0.195312 0.130209 0.195312 0.195313 0.130208 0.130208 0.195312 0.195313 0.130208 0.195313 0.195312 0.130208 0.130209 0.195313 0.195313 0.130209 0.195313 0.195313 0.130209 0.130208 0.195312 0.195312 0.130208 0.195312 0.195312 0.130208 0.130208 0.195313 0.195313 0.130208 0.195313 0.195313 0.130208 0.130209 0.195313 0.195313 0.130209 0.195313 0.195313 0.130208 0.130209 0.195313 0.0976566 0.130208 0.0976565 0.195313 0.0651044 0.130208 0.195313 0.195313 0.130208 0.195313 0.0976562 0.0651042 0.195312 0.0976563 0.130208 0.130208 0.195313 0.195313 0.130208 0.195313 0.195312 0.130208 0.130208 0.195313 0.195313 0.130208 0.195313 0.195312 0.130208 0.130208 0.195313 0.195313 0.130208 0.195313 0.195312 0.130208 0.130208 0.195313 0.195313 0.130208 0.195313 0.195312 0.130208 0.130208 0.195313 0.195313 0.130208 0.195313 0.195313 0.130208 0.130208 0.195313 0.195312 0.130208 0.195312 0.195312 0.130208 0.130208 0.195313 0.195313 0.130208 0.195313 0.195312 0.130208 0.130208 0.195313 0.195312 0.130208 0.195312 0.195312 0.130208 0.130208 0.195313 0.195313 0.130208 0.195313 0.195312 0.130208 0.130208 0.195313 0.195313 0.130208 0.195313 0.195313 0.130208 0.130208 0.195313 0.195313 0.130208 0.195313 0.195313 0.130208 0.130208 0.195313 0.195313 0.130208 0.195313 0.195312 0.130208 0.130208 0.195313 0.195312 0.130208 0.195313 0.195312 0.130208 0.130208 0.195312 0.195313 0.130208 0.195313 0.195312 0.130208 0.130209 0.195313 0.195313 0.130208 0.195313 0.195313 0.130208 0.130209 0.195313 0.195313 0.130208 0.195313 0.195313 0.130209 0.130208 0.195313 0.195313 0.130208 0.195313 0.195313 0.130208 0.130208 0.195313 0.195313 0.130208 0.195313 0.195313 0.130209 0.130209 0.195313 0.195313 0.130208 0.195313 0.195313 0.130208 0.130209 0.195313 0.195313 0.130209 0.195313 0.195313 0.130209 0.130208 0.195313 0.195312 0.130208 0.195313 0.195312 0.130208 0.130208 0.195313 0.195313 0.130208 0.195313 0.195312 0.130208 0.130208 0.195313 0.195313 0.130208 0.195312 0.195313 0.130208 0.130208 0.195312 0.195313 0.130208 0.195313 0.195312 0.130208 0.130209 0.195313 0.195312 0.130208 0.195312 0.195313 0.130208 0.130208 0.195312 0.195313 0.130208 0.195313 0.195312 0.130208 0.130209 0.195313 0.195313 0.130209 0.195313 0.195313 0.130209 0.130208 0.195312 0.195312 0.130208 0.195312 0.195312 0.130208 0.130208 0.195313 0.195313 0.130208 0.195313 0.195312 0.130208 0.130209 0.195313 0.195313 0.130209 0.195313 0.195313 0.130208 0.130209 0.195313 0.0976566 0.130208 0.0976564 0.195313 0.0651044 0.0651043 0.195312 0.0976563 0.130208 0.195312 0.0325521 0.0651042 0.0976563 0.0976563 0.130208 0.0651043 0.195312 0.0976563 0.130208 0.195312 0.0976563 0.130208 0.0651043 0.195313 0.0976563 0.130208 0.195312 0.0976563 0.130208 0.0651042 0.195312 0.0976563 0.130208 0.195312 0.0976563 0.130208 0.0651043 0.195312 0.0976563 0.130208 0.195312 0.0976563 0.130208 0.0651043 0.195313 0.0976563 0.130208 0.195312 0.0976563 0.130208 0.0651042 0.195312 0.0976563 0.130208 0.195312 0.0976563 0.130208 0.0651042 0.195312 0.0976563 0.130208 0.195312 0.0976562 0.130208 0.0651043 0.195312 0.0976563 0.130208 0.195312 0.0976563 0.130208 0.0651043 0.195312 0.0976563 0.130208 0.195312 0.0976563 0.130208 0.0651043 0.195313 0.0976564 0.130208 0.195313 0.0976564 0.130208 0.0651043 0.195313 0.0976563 0.130208 0.195312 0.0976564 0.130208 0.0651042 0.195313 0.0976563 0.130208 0.195312 0.0976563 0.130208 0.0651042 0.195313 0.0976563 0.130208 0.195312 0.0976563 0.130208 0.0651042 0.195312 0.0976563 0.130208 0.195313 0.0976562 0.130208 0.0651044 0.195313 0.0976564 0.130208 0.195313 0.0976564 0.130208 0.0651044 0.195313 0.0976564 0.130208 0.195313 0.0976564 0.130208 0.0651043 0.195313 0.0976562 0.130208 0.195312 0.0976564 0.130208 0.0651042 0.195313 0.0976565 0.130208 0.195313 0.0976563 0.130209 0.0651044 0.195313 0.0976563 0.130208 0.195312 0.0976565 0.130208 0.0651043 0.195313 0.0976564 0.130208 0.195313 0.0976564 0.130208 0.0651043 0.195313 0.0976562 0.130208 0.195312 0.0976563 0.130208 0.0651042 0.195312 0.0976563 0.130208 0.195313 0.0976563 0.130208 0.0651043 0.195313 0.0976563 0.130208 0.195312 0.0976564 0.130208 0.0651042 0.195312 0.0976563 0.130208 0.195313 0.0976562 0.130208 0.0651045 0.195313 0.0976563 0.130208 0.195312 0.0976566 0.130208 0.0651041 0.195312 0.0976563 0.130208 0.195312 0.097656 0.130208 0.0651045 0.195313 0.0976565 0.130209 0.195313 0.0976565 0.130208 0.0651043 0.195312 0.0976561 0.130208 0.195312 0.0976564 0.130208 0.0651043 0.195313 0.0976563 0.130208 0.195313 0.0976565 0.130208 0.0651044 0.195313 0.0976564 0.130208 0.195313 0.0976566 0.130208 0.0651044 0.195313 0.0651044 0.130208 0.0976563 0.0976564 0.0651044 0.130208 0.195312 0.195312 0.130208 0.195312 0.0976562 0.0651041 0.0651041 0.0976563 0.0651042 0.195312 0.0976563 0.0976562 0.130208 0.130208 0.195312 0.195312 0.130208 0.195312 0.0976562 0.0651041 0.195312 0.0976562 0.130208 0.130208 0.195312 0.195312 0.130208 0.195312 0.0976562 0.0651042 0.195313 0.0976562 0.130208 0.130208 0.195312 0.195312 0.130208 0.195312 0.0976562 0.0651041 0.195312 0.0976562 0.130208 0.130208 0.195312 0.195312 0.130208 0.195312 0.0976562 0.0651041 0.195312 0.0976562 0.130208 0.130208 0.195313 0.195312 0.130208 0.195312 0.0976562 0.0651042 0.195313 0.0976562 0.130208 0.130208 0.195312 0.195312 0.130208 0.195312 0.0976562 0.0651041 0.195312 0.0976562 0.130208 0.130208 0.195312 0.195312 0.130208 0.195312 0.0976562 0.0651041 0.195312 0.0976562 0.130208 0.130208 0.195312 0.195312 0.130208 0.195312 0.0976561 0.0651041 0.195312 0.0976562 0.130208 0.130208 0.195312 0.195313 0.130208 0.195312 0.0976562 0.0651041 0.195312 0.0976562 0.130208 0.130208 0.195313 0.195313 0.130208 0.195313 0.0976563 0.0651042 0.195313 0.0976563 0.130208 0.130208 0.195313 0.195312 0.130208 0.195312 0.0976562 0.0651041 0.195313 0.0976562 0.130208 0.130208 0.195312 0.195313 0.130208 0.195312 0.0976563 0.0651042 0.195313 0.0976563 0.130208 0.130208 0.195313 0.195312 0.130208 0.195312 0.0976563 0.0651042 0.195313 0.0976562 0.130208 0.130208 0.195312 0.195312 0.130208 0.195313 0.0976562 0.0651041 0.195312 0.0976562 0.130208 0.130208 0.195313 0.195313 0.130208 0.195313 0.0976562 0.0651041 0.195313 0.0976562 0.130208 0.130209 0.195313 0.195313 0.130208 0.195313 0.0976563 0.0651042 0.195313 0.0976563 0.130208 0.130208 0.195313 0.195312 0.130208 0.195312 0.0976562 0.0651041 0.195313 0.0976563 0.130208 0.130208 0.195313 0.195313 0.130208 0.195313 0.0976563 0.0651042 0.195313 0.0976564 0.130209 0.130209 0.195313 0.195313 0.130208 0.195312 0.0976561 0.0651041 0.195313 0.0976563 0.130208 0.130208 0.195313 0.195313 0.130209 0.195313 0.0976564 0.0651043 0.195313 0.0976563 0.130208 0.130208 0.195312 0.195312 0.130208 0.195312 0.0976562 0.0651042 0.195313 0.0976562 0.130208 0.130208 0.195312 0.195313 0.130208 0.195313 0.0976562 0.0651042 0.195312 0.0976563 0.130208 0.130208 0.195313 0.195312 0.130208 0.195312 0.0976563 0.0651042 0.195313 0.0976562 0.130208 0.130208 0.195312 0.195313 0.130208 0.195313 0.0976561 0.0651041 0.195312 0.0976563 0.130208 0.130209 0.195313 0.195312 0.130208 0.195312 0.0976562 0.0651041 0.195313 0.097656 0.130208 0.130208 0.195312 0.195312 0.130208 0.195313 0.097656 0.065104 0.195312 0.0976563 0.130208 0.130209 0.195313 0.195313 0.130209 0.195313 0.0976564 0.0651043 0.195313 0.0976563 0.130208 0.130208 0.195312 0.195312 0.130208 0.195312 0.0976558 0.0651039 0.195312 0.0976562 0.130208 0.130208 0.195312 0.195313 0.130208 0.195313 0.097656 0.0651041 0.195313 0.0976563 0.130208 0.130209 0.195313 0.195312 0.130209 0.195313 0.0976562 0.0651042 0.195313 0.0976561 0.130208 0.130209 0.195313 0.0976565 0.130208 0.0976564 0.0976564 0.0651042 0.195313 0.0325522 0.0651044 0.130208 0.195312 0.195312 0.130208 0.195313 0.0976563 0.0651042 0.195312 0.0976563 0.130208 0.130208 0.195313 0.195312 0.130208 0.195313 0.195312 0.130208 0.130208 0.195312 0.195312 0.130208 0.195312 0.195313 0.130208 0.130208 0.195312 0.195312 0.130208 0.195312 0.195312 0.130208 0.130208 0.195312 0.195313 0.130208 0.195312 0.195312 0.130208 0.130208 0.195313 0.195312 0.130208 0.195312 0.195313 0.130208 0.130208 0.195312 0.195312 0.130208 0.195312 0.195312 0.130208 0.130208 0.195312 0.195312 0.130208 0.195312 0.195312 0.130208 0.130208 0.195312 0.195312 0.130208 0.195312 0.195312 0.130208 0.130208 0.195312 0.195312 0.130208 0.195313 0.195312 0.130208 0.130208 0.195313 0.195313 0.130208 0.195313 0.195313 0.130208 0.130208 0.195313 0.195313 0.130208 0.195312 0.195313 0.130208 0.130208 0.195313 0.195313 0.130208 0.195313 0.195313 0.130208 0.130208 0.195313 0.195312 0.130208 0.195312 0.195313 0.130208 0.130208 0.195312 0.195313 0.130208 0.195313 0.195312 0.130208 0.130208 0.195313 0.195313 0.130208 0.195313 0.195313 0.130208 0.130209 0.195313 0.195313 0.130208 0.195313 0.195313 0.130208 0.130208 0.195313 0.195312 0.130208 0.195312 0.195313 0.130208 0.130208 0.195313 0.195313 0.130208 0.195313 0.195313 0.130209 0.130209 0.195313 0.195313 0.130208 0.195312 0.195313 0.130208 0.130208 0.195313 0.195313 0.130209 0.195313 0.195313 0.130208 0.130208 0.195313 0.195312 0.130208 0.195312 0.195313 0.130208 0.130208 0.195312 0.195313 0.130208 0.195313 0.195312 0.130208 0.130208 0.195313 0.195312 0.130208 0.195312 0.195313 0.130208 0.130208 0.195312 0.195313 0.130208 0.195313 0.195312 0.130208 0.130209 0.195313 0.195312 0.130208 0.195312 0.195313 0.130208 0.130208 0.195312 0.195313 0.130208 0.195313 0.195312 0.130208 0.130209 0.195313 0.195313 0.130209 0.195313 0.195313 0.130208 0.130208 0.195312 0.195312 0.130208 0.195312 0.195312 0.130208 0.130208 0.195313 0.195313 0.130208 0.195313 0.195313 0.130208 0.130209 0.195313 0.195312 0.130209 0.195313 0.195313 0.130208 0.130209 0.195313 0.0976565 0.130208 0.0976564 0.195313 0.0651044 0.130208 0.195313 0.195312 0.130208 0.195313 0.0976562 0.0651042 0.195313 0.0976563 0.130208 0.130208 0.195313 0.195312 0.130208 0.195313 0.195313 0.130208 0.130208 0.195313 0.195313 0.130208 0.195313 0.195313 0.130208 0.130208 0.195312 0.195312 0.130208 0.195312 0.195312 0.130208 0.130208 0.195312 0.195313 0.130208 0.195312 0.195312 0.130208 0.130208 0.195313 0.195312 0.130208 0.195313 0.195313 0.130208 0.130208 0.195312 0.195312 0.130208 0.195312 0.195312 0.130208 0.130208 0.195312 0.195312 0.130208 0.195312 0.195312 0.130208 0.130208 0.195312 0.195312 0.130208 0.195312 0.195312 0.130208 0.130208 0.195312 0.195312 0.130208 0.195313 0.195312 0.130208 0.130208 0.195313 0.195313 0.130208 0.195313 0.195313 0.130208 0.130208 0.195313 0.195312 0.130208 0.195312 0.195313 0.130208 0.130208 0.195312 0.195313 0.130208 0.195313 0.195313 0.130208 0.130208 0.195313 0.195312 0.130208 0.195312 0.195313 0.130208 0.130208 0.195312 0.195313 0.130208 0.195313 0.195312 0.130208 0.130208 0.195313 0.195313 0.130208 0.195313 0.195313 0.130208 0.130209 0.195313 0.195313 0.130208 0.195313 0.195313 0.130208 0.130208 0.195313 0.195312 0.130208 0.195312 0.195313 0.130208 0.130208 0.195313 0.195313 0.130208 0.195313 0.195313 0.130209 0.130209 0.195313 0.195313 0.130208 0.195313 0.195313 0.130208 0.130209 0.195313 0.195313 0.130209 0.195313 0.195313 0.130208 0.130208 0.195313 0.195312 0.130208 0.195312 0.195313 0.130208 0.130208 0.195313 0.195313 0.130208 0.195313 0.195313 0.130208 0.130208 0.195313 0.195312 0.130208 0.195312 0.195313 0.130208 0.130208 0.195312 0.195313 0.130208 0.195313 0.195312 0.130208 0.130209 0.195313 0.195312 0.130208 0.195312 0.195313 0.130208 0.130208 0.195312 0.195312 0.130208 0.195313 0.195312 0.130208 0.130209 0.195313 0.195313 0.130209 0.195313 0.195313 0.130209 0.130208 0.195312 0.195312 0.130208 0.195312 0.195312 0.130208 0.130208 0.195313 0.195313 0.130208 0.195313 0.195313 0.130208 0.130209 0.195313 0.195312 0.130209 0.195313 0.195313 0.130208 0.130209 0.195313 0.0976565 0.130208 0.0976564 0.195313 0.0651044 0.130208 0.195312 0.195312 0.130208 0.195312 0.0976562 0.0651042 0.195312 0.0976563 0.130208 0.130208 0.195312 0.195312 0.130208 0.195312 0.195312 0.130208 0.130208 0.195312 0.195312 0.130208 0.195312 0.195313 0.130208 0.130208 0.195312 0.195312 0.130208 0.195312 0.195312 0.130208 0.130208 0.195312 0.195312 0.130208 0.195312 0.195312 0.130208 0.130208 0.195312 0.195312 0.130208 0.195312 0.195313 0.130208 0.130208 0.195312 0.195312 0.130208 0.195312 0.195312 0.130208 0.130208 0.195312 0.195312 0.130208 0.195312 0.195312 0.130208 0.130208 0.195312 0.195312 0.130208 0.195312 0.195312 0.130208 0.130208 0.195312 0.195312 0.130208 0.195312 0.195312 0.130208 0.130208 0.195313 0.195313 0.130208 0.195313 0.195313 0.130208 0.130208 0.195313 0.195312 0.130208 0.195312 0.195313 0.130208 0.130208 0.195312 0.195313 0.130208 0.195312 0.195312 0.130208 0.130208 0.195312 0.195312 0.130208 0.195312 0.195313 0.130208 0.130208 0.195312 0.195312 0.130208 0.195313 0.195312 0.130208 0.130208 0.195313 0.195313 0.130208 0.195313 0.195313 0.130208 0.130208 0.195313 0.195313 0.130208 0.195313 0.195313 0.130208 0.130208 0.195312 0.195312 0.130208 0.195312 0.195313 0.130208 0.130208 0.195313 0.195313 0.130208 0.195313 0.195313 0.130209 0.130209 0.195313 0.195313 0.130208 0.195312 0.195313 0.130208 0.130208 0.195313 0.195313 0.130208 0.195313 0.195313 0.130208 0.130208 0.195312 0.195312 0.130208 0.195312 0.195312 0.130208 0.130208 0.195312 0.195313 0.130208 0.195313 0.195312 0.130208 0.130208 0.195313 0.195312 0.130208 0.195312 0.195313 0.130208 0.130208 0.195312 0.195312 0.130208 0.195313 0.195312 0.130208 0.130209 0.195313 0.195312 0.130208 0.195312 0.195313 0.130208 0.130208 0.195312 0.195312 0.130208 0.195312 0.195312 0.130208 0.130209 0.195313 0.195313 0.130209 0.195313 0.195313 0.130208 0.130208 0.195312 0.195312 0.130208 0.195312 0.195312 0.130208 0.130208 0.195312 0.195313 0.130208 0.195313 0.195312 0.130208 0.130209 0.195313 0.195312 0.130209 0.195313 0.195313 0.130208 0.130209 0.195313 0.0976565 0.130208 0.0976564 0.195313 0.0651043 0.130208 0.195312 0.195313 0.130208 0.195312 0.0976563 0.0651042 0.195313 0.0976563 0.130208 0.130208 0.195312 0.195313 0.130208 0.195312 0.195313 0.130208 0.130208 0.195313 0.195313 0.130208 0.195312 0.195313 0.130208 0.130208 0.195312 0.195312 0.130208 0.195312 0.195313 0.130208 0.130208 0.195312 0.195313 0.130208 0.195312 0.195313 0.130208 0.130208 0.195313 0.195313 0.130208 0.195312 0.195313 0.130208 0.130208 0.195312 0.195312 0.130208 0.195312 0.195313 0.130208 0.130208 0.195312 0.195312 0.130208 0.195312 0.195312 0.130208 0.130208 0.195312 0.195312 0.130208 0.195312 0.195312 0.130208 0.130208 0.195312 0.195313 0.130208 0.195313 0.195312 0.130208 0.130208 0.195313 0.195313 0.130208 0.195313 0.195313 0.130208 0.130208 0.195313 0.195313 0.130208 0.195312 0.195313 0.130208 0.130208 0.195312 0.195313 0.130208 0.195313 0.195313 0.130208 0.130208 0.195313 0.195312 0.130208 0.195312 0.195313 0.130208 0.130208 0.195312 0.195313 0.130208 0.195313 0.195312 0.130208 0.130208 0.195313 0.195313 0.130208 0.195313 0.195313 0.130208 0.130209 0.195313 0.195313 0.130208 0.195313 0.195313 0.130208 0.130208 0.195313 0.195312 0.130208 0.195312 0.195313 0.130208 0.130208 0.195313 0.195313 0.130208 0.195313 0.195313 0.130209 0.130209 0.195313 0.195313 0.130208 0.195312 0.195313 0.130208 0.130209 0.195313 0.195313 0.130209 0.195313 0.195313 0.130208 0.130208 0.195313 0.195312 0.130208 0.195312 0.195313 0.130208 0.130208 0.195312 0.195313 0.130208 0.195313 0.195313 0.130208 0.130208 0.195313 0.195312 0.130208 0.195312 0.195313 0.130208 0.130208 0.195312 0.195313 0.130208 0.195313 0.195312 0.130208 0.130209 0.195313 0.195312 0.130208 0.195312 0.195313 0.130208 0.130208 0.195312 0.195313 0.130208 0.195313 0.195312 0.130208 0.130209 0.195313 0.195313 0.130209 0.195313 0.195313 0.130208 0.130208 0.195312 0.195312 0.130208 0.195312 0.195312 0.130208 0.130208 0.195312 0.195313 0.130208 0.195313 0.195313 0.130208 0.130209 0.195313 0.195313 0.130209 0.195313 0.195313 0.130208 0.130209 0.195313 0.0976565 0.130208 0.0976564 0.195313 0.0651044 0.130208 0.195313 0.195313 0.130208 0.195313 0.0976563 0.0651042 0.195313 0.0976563 0.130208 0.130208 0.195313 0.195313 0.130208 0.195313 0.195313 0.130208 0.130208 0.195313 0.195313 0.130208 0.195313 0.195313 0.130208 0.130208 0.195313 0.195313 0.130208 0.195313 0.195313 0.130208 0.130208 0.195313 0.195313 0.130208 0.195313 0.195313 0.130208 0.130208 0.195313 0.195313 0.130208 0.195313 0.195313 0.130208 0.130208 0.195313 0.195312 0.130208 0.195312 0.195313 0.130208 0.130208 0.195312 0.195313 0.130208 0.195313 0.195312 0.130208 0.130208 0.195312 0.195312 0.130208 0.195312 0.195312 0.130208 0.130208 0.195313 0.195313 0.130208 0.195313 0.195313 0.130208 0.130208 0.195313 0.195313 0.130208 0.195313 0.195313 0.130208 0.130208 0.195313 0.195313 0.130208 0.195313 0.195313 0.130208 0.130208 0.195313 0.195313 0.130208 0.195313 0.195313 0.130208 0.130208 0.195313 0.195312 0.130208 0.195313 0.195313 0.130208 0.130208 0.195312 0.195313 0.130208 0.195313 0.195312 0.130208 0.130209 0.195313 0.195313 0.130208 0.195313 0.195313 0.130208 0.130209 0.195313 0.195313 0.130208 0.195313 0.195313 0.130208 0.130208 0.195313 0.195313 0.130208 0.195313 0.195313 0.130208 0.130208 0.195313 0.195313 0.130208 0.195313 0.195313 0.130209 0.130209 0.195313 0.195313 0.130208 0.195313 0.195313 0.130208 0.130209 0.195313 0.195313 0.130209 0.195313 0.195313 0.130209 0.130208 0.195313 0.195312 0.130208 0.195313 0.195313 0.130208 0.130208 0.195313 0.195313 0.130208 0.195313 0.195313 0.130208 0.130208 0.195313 0.195312 0.130208 0.195312 0.195313 0.130208 0.130208 0.195312 0.195313 0.130208 0.195313 0.195312 0.130208 0.130209 0.195313 0.195312 0.130208 0.195312 0.195313 0.130208 0.130208 0.195312 0.195313 0.130208 0.195313 0.195312 0.130208 0.130209 0.195313 0.195313 0.130209 0.195313 0.195313 0.130209 0.130208 0.195312 0.195312 0.130208 0.195312 0.195312 0.130208 0.130208 0.195313 0.195313 0.130208 0.195313 0.195313 0.130208 0.130209 0.195313 0.195312 0.130209 0.195313 0.195313 0.130208 0.130209 0.195313 0.0976565 0.130208 0.0976564 0.195313 0.0651044 0.130208 0.195313 0.195312 0.130208 0.195312 0.0976562 0.0651042 0.195312 0.0976563 0.130208 0.130208 0.195313 0.195312 0.130208 0.195312 0.195312 0.130208 0.130208 0.195313 0.195312 0.130208 0.195313 0.195312 0.130208 0.130208 0.195312 0.195312 0.130208 0.195313 0.195312 0.130208 0.130208 0.195312 0.195312 0.130208 0.195313 0.195312 0.130208 0.130208 0.195313 0.195312 0.130208 0.195313 0.195312 0.130208 0.130208 0.195312 0.195312 0.130208 0.195312 0.195312 0.130208 0.130208 0.195312 0.195312 0.130208 0.195312 0.195312 0.130208 0.130208 0.195312 0.195312 0.130208 0.195312 0.195312 0.130208 0.130208 0.195312 0.195312 0.130208 0.195313 0.195312 0.130208 0.130208 0.195313 0.195313 0.130208 0.195313 0.195313 0.130208 0.130208 0.195313 0.195312 0.130208 0.195312 0.195313 0.130208 0.130208 0.195313 0.195313 0.130208 0.195313 0.195312 0.130208 0.130208 0.195313 0.195312 0.130208 0.195312 0.195312 0.130208 0.130208 0.195312 0.195312 0.130208 0.195313 0.195312 0.130208 0.130208 0.195313 0.195313 0.130208 0.195313 0.195313 0.130208 0.130208 0.195313 0.195313 0.130208 0.195313 0.195313 0.130208 0.130208 0.195313 0.195312 0.130208 0.195312 0.195312 0.130208 0.130208 0.195313 0.195313 0.130208 0.195313 0.195313 0.130209 0.130209 0.195313 0.195313 0.130208 0.195313 0.195313 0.130208 0.130208 0.195313 0.195313 0.130209 0.195313 0.195313 0.130208 0.130208 0.195313 0.195312 0.130208 0.195313 0.195312 0.130208 0.130208 0.195313 0.195313 0.130208 0.195313 0.195312 0.130208 0.130208 0.195313 0.195312 0.130208 0.195312 0.195313 0.130208 0.130208 0.195312 0.195312 0.130208 0.195313 0.195312 0.130208 0.130209 0.195313 0.195312 0.130208 0.195312 0.195313 0.130208 0.130208 0.195312 0.195312 0.130208 0.195313 0.195312 0.130208 0.130209 0.195313 0.195313 0.130209 0.195313 0.195313 0.130209 0.130208 0.195312 0.195312 0.130208 0.195312 0.195312 0.130208 0.130208 0.195313 0.195313 0.130208 0.195313 0.195312 0.130208 0.130209 0.195313 0.195312 0.130209 0.195313 0.195313 0.130208 0.130209 0.195313 0.0976565 0.130208 0.0976564 0.195313 0.0651044 0.0651042 0.195312 0.0976562 0.130208 0.195312 0.0325521 0.0651042 0.0976563 0.0976563 0.130208 0.0651042 0.195312 0.0976562 0.130208 0.195312 0.0976563 0.130208 0.0651042 0.195312 0.0976562 0.130208 0.195312 0.0976563 0.130208 0.0651042 0.195312 0.0976562 0.130208 0.195312 0.0976563 0.130208 0.0651042 0.195312 0.0976562 0.130208 0.195312 0.0976563 0.130208 0.0651042 0.195312 0.0976562 0.130208 0.195312 0.0976563 0.130208 0.0651042 0.195312 0.0976562 0.130208 0.195312 0.0976562 0.130208 0.0651042 0.195312 0.0976563 0.130208 0.195312 0.0976562 0.130208 0.0651042 0.195312 0.0976562 0.130208 0.195312 0.0976563 0.130208 0.0651042 0.195312 0.0976562 0.130208 0.195312 0.0976563 0.130208 0.0651043 0.195312 0.0976563 0.130208 0.195313 0.0976563 0.130208 0.0651043 0.195312 0.0976563 0.130208 0.195312 0.0976564 0.130208 0.0651042 0.195312 0.0976562 0.130208 0.195312 0.0976562 0.130208 0.0651042 0.195312 0.0976562 0.130208 0.195312 0.0976563 0.130208 0.0651042 0.195312 0.0976562 0.130208 0.195312 0.0976562 0.130208 0.0651044 0.195313 0.0976564 0.130208 0.195312 0.0976564 0.130208 0.0651044 0.195313 0.0976564 0.130208 0.195313 0.0976564 0.130208 0.0651043 0.195312 0.0976562 0.130208 0.195312 0.0976564 0.130208 0.0651042 0.195313 0.0976564 0.130208 0.195313 0.0976563 0.130209 0.0651044 0.195313 0.0976562 0.130208 0.195312 0.0976565 0.130208 0.0651042 0.195313 0.0976563 0.130208 0.195313 0.0976564 0.130208 0.0651042 0.195312 0.0976561 0.130208 0.195312 0.0976563 0.130208 0.0651042 0.195312 0.0976563 0.130208 0.195312 0.0976562 0.130208 0.0651043 0.195312 0.0976563 0.130208 0.195312 0.0976563 0.130208 0.0651041 0.195312 0.0976562 0.130208 0.195313 0.0976561 0.130208 0.0651044 0.195313 0.0976562 0.130208 0.195312 0.0976565 0.130208 0.0651041 0.195312 0.0976562 0.130208 0.195312 0.097656 0.130208 0.0651044 0.195313 0.0976564 0.130208 0.195313 0.0976565 0.130208 0.0651043 0.195312 0.0976561 0.130208 0.195312 0.0976564 0.130208 0.0651043 0.195312 0.0976563 0.130208 0.195313 0.0976565 0.130208 0.0651044 0.195313 0.0976563 0.130208 0.195312 0.0976566 0.130208 0.0651044 0.195313 0.0651043 0.130208 0.0976563 0.0976564 0.0651043 0.130208 0.195313 0.195313 0.130208 0.195313 0.0976563 0.0651042 0.0651042 0.0976564 0.0651042 0.195313 0.0976563 0.0976564 0.130208 0.130208 0.195313 0.195313 0.130208 0.195313 0.0976563 0.0651042 0.195313 0.0976563 0.130208 0.130208 0.195313 0.195313 0.130208 0.195313 0.0976563 0.0651042 0.195313 0.0976564 0.130208 0.130208 0.195313 0.195313 0.130208 0.195313 0.0976563 0.0651042 0.195313 0.0976563 0.130208 0.130208 0.195313 0.195313 0.130208 0.195313 0.0976563 0.0651042 0.195313 0.0976564 0.130208 0.130208 0.195313 0.195313 0.130208 0.195313 0.0976564 0.0651042 0.195313 0.0976564 0.130208 0.130208 0.195313 0.195312 0.130208 0.195313 0.0976563 0.0651042 0.195313 0.0976563 0.130208 0.130208 0.195313 0.195313 0.130208 0.195313 0.0976563 0.0651042 0.195313 0.0976563 0.130208 0.130208 0.195313 0.195313 0.130208 0.195313 0.0976562 0.0651042 0.195313 0.0976563 0.130208 0.130208 0.195313 0.195313 0.130208 0.195313 0.0976563 0.0651042 0.195313 0.0976564 0.130208 0.130208 0.195313 0.195313 0.130209 0.195313 0.0976564 0.0651043 0.195313 0.0976564 0.130208 0.130209 0.195313 0.195313 0.130209 0.195313 0.0976563 0.0651042 0.195313 0.0976563 0.130208 0.130208 0.195313 0.195313 0.130208 0.195313 0.0976564 0.0651042 0.195313 0.0976564 0.130208 0.130208 0.195313 0.195313 0.130208 0.195313 0.0976564 0.0651043 0.195313 0.0976563 0.130208 0.130208 0.195312 0.195313 0.130208 0.195313 0.0976563 0.0651042 0.195313 0.0976564 0.130208 0.130209 0.195313 0.195313 0.130209 0.195313 0.0976563 0.0651042 0.195313 0.0976564 0.130208 0.130209 0.195313 0.195313 0.130209 0.195313 0.0976564 0.0651043 0.195313 0.0976565 0.130209 0.130208 0.195313 0.195313 0.130208 0.195313 0.0976563 0.0651042 0.195313 0.0976564 0.130208 0.130208 0.195313 0.195313 0.130209 0.195313 0.0976564 0.0651043 0.195313 0.0976565 0.130209 0.130209 0.195313 0.195313 0.130209 0.195313 0.0976562 0.0651042 0.195313 0.0976564 0.130208 0.130209 0.195313 0.195313 0.130209 0.195313 0.0976565 0.0651044 0.195313 0.0976565 0.130209 0.130208 0.195313 0.195312 0.130208 0.195313 0.0976564 0.0651043 0.195313 0.0976564 0.130208 0.130208 0.195313 0.195313 0.130209 0.195313 0.0976564 0.0651043 0.195313 0.0976564 0.130208 0.130209 0.195313 0.195313 0.130209 0.195313 0.0976564 0.0651043 0.195313 0.0976563 0.130208 0.130208 0.195312 0.195313 0.130208 0.195313 0.0976562 0.0651042 0.195312 0.0976564 0.130208 0.130209 0.195313 0.195312 0.130209 0.195312 0.0976563 0.0651042 0.195313 0.0976561 0.130208 0.130208 0.195312 0.195313 0.130208 0.195313 0.0976561 0.0651041 0.195312 0.0976564 0.130208 0.130209 0.195313 0.195313 0.130209 0.195313 0.0976565 0.0651044 0.195313 0.0976564 0.130209 0.130208 0.195312 0.195312 0.130208 0.195312 0.0976559 0.065104 0.195312 0.0976564 0.130208 0.130208 0.195313 0.195313 0.130209 0.195313 0.0976562 0.0651042 0.195313 0.0976564 0.130208 0.130209 0.195313 0.195313 0.130209 0.195313 0.0976563 0.0651042 0.195313 0.0976562 0.130208 0.130209 0.195313 0.0976565 0.130209 0.0976565 0.0976565 0.0651043 0.195313 0.0325522 0.0651044 0.130208 0.195313 0.195313 0.130208 0.195313 0.0976564 0.0651042 0.195313 0.0976563 0.130208 0.130208 0.195313 0.195313 0.130208 0.195313 0.195313 0.130208 0.130208 0.195313 0.195313 0.130208 0.195313 0.195313 0.130208 0.130208 0.195313 0.195313 0.130208 0.195313 0.195313 0.130208 0.130208 0.195313 0.195313 0.130208 0.195313 0.195313 0.130208 0.130208 0.195313 0.195313 0.130209 0.195313 0.195313 0.130208 0.130208 0.195313 0.195313 0.130208 0.195313 0.195313 0.130208 0.130208 0.195313 0.195313 0.130208 0.195313 0.195313 0.130208 0.130208 0.195313 0.195313 0.130208 0.195313 0.195313 0.130208 0.130208 0.195313 0.195313 0.130208 0.195313 0.195313 0.130208 0.130208 0.195313 0.195313 0.130209 0.195313 0.195313 0.130208 0.130209 0.195313 0.195313 0.130209 0.195313 0.195313 0.130208 0.130208 0.195313 0.195313 0.130208 0.195313 0.195313 0.130208 0.130208 0.195313 0.195313 0.130209 0.195313 0.195313 0.130208 0.130208 0.195312 0.195313 0.130208 0.195313 0.195313 0.130208 0.130209 0.195313 0.195313 0.130209 0.195313 0.195313 0.130208 0.130209 0.195313 0.195313 0.130209 0.195313 0.195313 0.130209 0.130208 0.195313 0.195313 0.130209 0.195313 0.195313 0.130208 0.130208 0.195313 0.195313 0.130209 0.195313 0.195313 0.130209 0.130209 0.195313 0.195313 0.130209 0.195313 0.195313 0.130208 0.130209 0.195313 0.195313 0.130209 0.195313 0.195313 0.130209 0.130208 0.195313 0.195313 0.130208 0.195313 0.195313 0.130208 0.130208 0.195313 0.195313 0.130209 0.195313 0.195313 0.130208 0.130209 0.195313 0.195313 0.130209 0.195313 0.195313 0.130208 0.130208 0.195312 0.195313 0.130208 0.195313 0.195312 0.130208 0.130209 0.195313 0.195312 0.130209 0.195312 0.195313 0.130208 0.130208 0.195312 0.195313 0.130208 0.195313 0.195312 0.130208 0.130209 0.195313 0.195313 0.130209 0.195313 0.195313 0.130209 0.130208 0.195312 0.195312 0.130208 0.195312 0.195312 0.130208 0.130208 0.195313 0.195313 0.130209 0.195313 0.195313 0.130208 0.130209 0.195313 0.195313 0.130209 0.195313 0.195313 0.130208 0.130209 0.195313 0.0976565 0.130209 0.0976565 0.195313 0.0651044 0.130208 0.195313 0.195313 0.130208 0.195313 0.0976564 0.0651042 0.195313 0.0976564 0.130208 0.130208 0.195313 0.195313 0.130208 0.195313 0.195313 0.130208 0.130208 0.195313 0.195313 0.130208 0.195313 0.195313 0.130208 0.130208 0.195313 0.195313 0.130208 0.195313 0.195313 0.130208 0.130208 0.195313 0.195313 0.130208 0.195313 0.195313 0.130208 0.130208 0.195313 0.195313 0.130209 0.195313 0.195313 0.130208 0.130208 0.195313 0.195313 0.130208 0.195313 0.195313 0.130208 0.130208 0.195313 0.195313 0.130208 0.195313 0.195313 0.130208 0.130208 0.195313 0.195313 0.130208 0.195313 0.195313 0.130208 0.130208 0.195313 0.195313 0.130208 0.195313 0.195313 0.130208 0.130209 0.195313 0.195313 0.130209 0.195313 0.195313 0.130209 0.130209 0.195313 0.195313 0.130209 0.195313 0.195313 0.130208 0.130208 0.195313 0.195313 0.130208 0.195313 0.195313 0.130208 0.130208 0.195313 0.195313 0.130209 0.195313 0.195313 0.130208 0.130208 0.195313 0.195313 0.130208 0.195313 0.195313 0.130208 0.130209 0.195313 0.195313 0.130209 0.195313 0.195313 0.130208 0.130209 0.195313 0.195313 0.130209 0.195313 0.195313 0.130209 0.130208 0.195313 0.195313 0.130209 0.195313 0.195313 0.130208 0.130208 0.195313 0.195313 0.130209 0.195313 0.195313 0.130209 0.130209 0.195313 0.195313 0.130209 0.195313 0.195313 0.130208 0.130209 0.195313 0.195313 0.130209 0.195313 0.195313 0.130209 0.130208 0.195313 0.195312 0.130208 0.195313 0.195313 0.130208 0.130208 0.195313 0.195313 0.130209 0.195313 0.195313 0.130208 0.130209 0.195313 0.195313 0.130209 0.195313 0.195313 0.130208 0.130208 0.195312 0.195313 0.130208 0.195313 0.195312 0.130208 0.130209 0.195313 0.195312 0.130209 0.195312 0.195313 0.130208 0.130208 0.195312 0.195313 0.130208 0.195313 0.195312 0.130208 0.130209 0.195313 0.195313 0.130209 0.195313 0.195313 0.130209 0.130208 0.195312 0.195312 0.130208 0.195312 0.195312 0.130208 0.130208 0.195313 0.195313 0.130209 0.195313 0.195313 0.130208 0.130209 0.195313 0.195313 0.130209 0.195313 0.195313 0.130208 0.130209 0.195313 0.0976565 0.130209 0.0976565 0.195313 0.0651044 0.130208 0.195313 0.195313 0.130208 0.195313 0.0976563 0.0651042 0.195313 0.0976563 0.130208 0.130208 0.195313 0.195313 0.130208 0.195313 0.195313 0.130208 0.130208 0.195313 0.195313 0.130208 0.195313 0.195313 0.130208 0.130208 0.195313 0.195313 0.130208 0.195313 0.195313 0.130208 0.130208 0.195313 0.195313 0.130208 0.195313 0.195313 0.130208 0.130208 0.195313 0.195313 0.130208 0.195313 0.195313 0.130208 0.130208 0.195313 0.195312 0.130208 0.195313 0.195313 0.130208 0.130208 0.195312 0.195313 0.130208 0.195313 0.195313 0.130208 0.130208 0.195312 0.195313 0.130208 0.195313 0.195313 0.130208 0.130208 0.195313 0.195313 0.130208 0.195313 0.195313 0.130208 0.130208 0.195313 0.195313 0.130208 0.195313 0.195313 0.130208 0.130209 0.195313 0.195313 0.130208 0.195313 0.195313 0.130208 0.130208 0.195313 0.195313 0.130208 0.195313 0.195313 0.130208 0.130208 0.195313 0.195312 0.130208 0.195313 0.195313 0.130208 0.130208 0.195312 0.195313 0.130208 0.195313 0.195313 0.130208 0.130209 0.195313 0.195313 0.130208 0.195313 0.195313 0.130208 0.130209 0.195313 0.195313 0.130209 0.195313 0.195313 0.130208 0.130208 0.195313 0.195313 0.130208 0.195313 0.195313 0.130208 0.130208 0.195313 0.195313 0.130209 0.195313 0.195313 0.130209 0.130209 0.195313 0.195313 0.130209 0.195313 0.195313 0.130208 0.130209 0.195313 0.195313 0.130209 0.195313 0.195313 0.130209 0.130208 0.195313 0.195312 0.130208 0.195313 0.195313 0.130208 0.130208 0.195313 0.195313 0.130208 0.195313 0.195313 0.130208 0.130209 0.195313 0.195313 0.130209 0.195313 0.195313 0.130208 0.130208 0.195312 0.195313 0.130208 0.195313 0.195312 0.130208 0.130209 0.195313 0.195312 0.130209 0.195312 0.195313 0.130208 0.130208 0.195312 0.195313 0.130208 0.195313 0.195312 0.130208 0.130209 0.195313 0.195313 0.130209 0.195313 0.195313 0.130209 0.130208 0.195312 0.195312 0.130208 0.195312 0.195312 0.130208 0.130208 0.195313 0.195313 0.130209 0.195313 0.195313 0.130208 0.130209 0.195313 0.195313 0.130209 0.195313 0.195313 0.130208 0.130209 0.195313 0.0976565 0.130209 0.0976565 0.195313 0.0651044 0.130208 0.195313 0.195313 0.130208 0.195313 0.0976564 0.0651042 0.195313 0.0976563 0.130208 0.130208 0.195313 0.195313 0.130208 0.195313 0.195313 0.130208 0.130208 0.195313 0.195313 0.130208 0.195313 0.195313 0.130208 0.130208 0.195313 0.195313 0.130208 0.195313 0.195313 0.130208 0.130208 0.195313 0.195313 0.130208 0.195313 0.195313 0.130208 0.130208 0.195313 0.195313 0.130208 0.195313 0.195313 0.130208 0.130208 0.195313 0.195313 0.130208 0.195313 0.195313 0.130208 0.130208 0.195313 0.195313 0.130208 0.195313 0.195313 0.130208 0.130208 0.195313 0.195313 0.130208 0.195313 0.195313 0.130208 0.130208 0.195313 0.195313 0.130208 0.195313 0.195313 0.130208 0.130209 0.195313 0.195313 0.130209 0.195313 0.195313 0.130208 0.130209 0.195313 0.195313 0.130209 0.195313 0.195313 0.130208 0.130208 0.195313 0.195313 0.130208 0.195313 0.195313 0.130208 0.130208 0.195313 0.195313 0.130208 0.195313 0.195313 0.130208 0.130208 0.195312 0.195313 0.130208 0.195313 0.195313 0.130208 0.130209 0.195313 0.195313 0.130209 0.195313 0.195313 0.130208 0.130209 0.195313 0.195313 0.130209 0.195313 0.195313 0.130209 0.130209 0.195313 0.195313 0.130208 0.195313 0.195313 0.130208 0.130208 0.195313 0.195313 0.130209 0.195313 0.195313 0.130209 0.130209 0.195313 0.195313 0.130209 0.195313 0.195313 0.130208 0.130209 0.195313 0.195313 0.130209 0.195313 0.195313 0.130209 0.130208 0.195313 0.195313 0.130208 0.195313 0.195313 0.130208 0.130208 0.195313 0.195313 0.130209 0.195313 0.195313 0.130208 0.130209 0.195313 0.195313 0.130209 0.195313 0.195313 0.130208 0.130208 0.195312 0.195313 0.130208 0.195313 0.195312 0.130208 0.130209 0.195313 0.195312 0.130209 0.195312 0.195313 0.130208 0.130208 0.195312 0.195313 0.130208 0.195313 0.195312 0.130208 0.130209 0.195313 0.195313 0.130209 0.195313 0.195313 0.130209 0.130208 0.195312 0.195312 0.130208 0.195312 0.195312 0.130208 0.130208 0.195313 0.195313 0.130209 0.195313 0.195313 0.130208 0.130209 0.195313 0.195313 0.130209 0.195313 0.195313 0.130208 0.130209 0.195313 0.0976566 0.130209 0.0976565 0.195313 0.0651044 0.130208 0.195313 0.195313 0.130208 0.195313 0.0976564 0.0651043 0.195313 0.0976564 0.130208 0.130208 0.195313 0.195313 0.130208 0.195313 0.195313 0.130208 0.130208 0.195313 0.195313 0.130209 0.195313 0.195313 0.130208 0.130208 0.195313 0.195313 0.130208 0.195313 0.195313 0.130208 0.130208 0.195313 0.195313 0.130208 0.195313 0.195313 0.130208 0.130208 0.195313 0.195313 0.130209 0.195313 0.195313 0.130208 0.130208 0.195313 0.195313 0.130208 0.195313 0.195313 0.130208 0.130208 0.195313 0.195313 0.130208 0.195313 0.195313 0.130208 0.130208 0.195313 0.195313 0.130208 0.195313 0.195313 0.130208 0.130208 0.195313 0.195313 0.130208 0.195313 0.195313 0.130208 0.130209 0.195313 0.195313 0.130209 0.195313 0.195313 0.130209 0.130209 0.195313 0.195313 0.130209 0.195313 0.195313 0.130208 0.130208 0.195313 0.195313 0.130208 0.195313 0.195313 0.130208 0.130208 0.195313 0.195313 0.130209 0.195313 0.195313 0.130208 0.130208 0.195313 0.195313 0.130208 0.195313 0.195313 0.130208 0.130209 0.195313 0.195313 0.130209 0.195313 0.195313 0.130209 0.130209 0.195313 0.195313 0.130209 0.195313 0.195313 0.130209 0.130209 0.195313 0.195313 0.130209 0.195313 0.195313 0.130208 0.130208 0.195313 0.195313 0.130209 0.195313 0.195313 0.130209 0.130209 0.195313 0.195313 0.130209 0.195313 0.195313 0.130208 0.130209 0.195313 0.195313 0.130209 0.195313 0.195313 0.130209 0.130209 0.195313 0.195313 0.130208 0.195313 0.195313 0.130208 0.130208 0.195313 0.195313 0.130209 0.195313 0.195313 0.130208 0.130209 0.195313 0.195313 0.130209 0.195313 0.195313 0.130208 0.130208 0.195312 0.195313 0.130208 0.195313 0.195312 0.130209 0.130209 0.195313 0.195312 0.130209 0.195312 0.195313 0.130208 0.130208 0.195312 0.195313 0.130208 0.195313 0.195312 0.130208 0.130209 0.195313 0.195313 0.130209 0.195313 0.195313 0.130209 0.130208 0.195312 0.195312 0.130208 0.195312 0.195312 0.130208 0.130208 0.195313 0.195313 0.130209 0.195313 0.195313 0.130208 0.130209 0.195313 0.195313 0.130209 0.195313 0.195313 0.130208 0.130209 0.195313 0.0976566 0.130209 0.0976566 0.195313 0.0651044 0.130208 0.195313 0.195313 0.130208 0.195313 0.0976563 0.0651042 0.195313 0.0976564 0.130208 0.130208 0.195313 0.195313 0.130208 0.195313 0.195313 0.130208 0.130208 0.195313 0.195313 0.130208 0.195313 0.195313 0.130208 0.130208 0.195313 0.195313 0.130208 0.195313 0.195313 0.130208 0.130208 0.195313 0.195313 0.130208 0.195313 0.195313 0.130208 0.130208 0.195313 0.195313 0.130208 0.195313 0.195313 0.130208 0.130208 0.195313 0.195312 0.130208 0.195313 0.195313 0.130208 0.130208 0.195313 0.195313 0.130208 0.195313 0.195313 0.130208 0.130208 0.195313 0.195312 0.130208 0.195313 0.195313 0.130208 0.130208 0.195313 0.195313 0.130208 0.195313 0.195313 0.130208 0.130208 0.195313 0.195313 0.130209 0.195313 0.195313 0.130209 0.130208 0.195313 0.195313 0.130209 0.195313 0.195313 0.130208 0.130208 0.195313 0.195313 0.130208 0.195313 0.195313 0.130208 0.130208 0.195313 0.195312 0.130208 0.195313 0.195313 0.130208 0.130208 0.195312 0.195313 0.130208 0.195313 0.195312 0.130208 0.130209 0.195313 0.195313 0.130209 0.195313 0.195313 0.130208 0.130209 0.195313 0.195313 0.130209 0.195313 0.195313 0.130209 0.130208 0.195313 0.195313 0.130208 0.195313 0.195313 0.130208 0.130208 0.195313 0.195313 0.130209 0.195313 0.195313 0.130209 0.130209 0.195313 0.195313 0.130209 0.195313 0.195313 0.130208 0.130209 0.195313 0.195313 0.130209 0.195313 0.195313 0.130209 0.130208 0.195313 0.195312 0.130208 0.195313 0.195313 0.130208 0.130208 0.195313 0.195313 0.130209 0.195313 0.195313 0.130208 0.130208 0.195313 0.195313 0.130209 0.195313 0.195313 0.130208 0.130208 0.195312 0.195313 0.130208 0.195313 0.195312 0.130208 0.130209 0.195313 0.195312 0.130209 0.195312 0.195313 0.130208 0.130208 0.195312 0.195313 0.130208 0.195313 0.195312 0.130208 0.130209 0.195313 0.195313 0.130209 0.195313 0.195313 0.130209 0.130208 0.195312 0.195312 0.130208 0.195312 0.195312 0.130208 0.130208 0.195313 0.195313 0.130209 0.195313 0.195313 0.130208 0.130209 0.195313 0.195313 0.130209 0.195313 0.195313 0.130208 0.130209 0.195313 0.0976565 0.130209 0.0976565 0.195313 0.0651044 0.0651042 0.195313 0.0976562 0.130208 0.195313 0.0325521 0.0651042 0.0976563 0.0976563 0.130208 0.0651042 0.195313 0.0976562 0.130208 0.195313 0.0976563 0.130208 0.0651042 0.195313 0.0976562 0.130208 0.195313 0.0976563 0.130208 0.0651042 0.195313 0.0976562 0.130208 0.195313 0.0976563 0.130208 0.0651042 0.195312 0.0976562 0.130208 0.195313 0.0976563 0.130208 0.0651042 0.195313 0.0976562 0.130208 0.195313 0.0976563 0.130208 0.0651042 0.195313 0.0976562 0.130208 0.195313 0.0976563 0.130208 0.0651042 0.195312 0.0976563 0.130208 0.195313 0.0976563 0.130208 0.0651042 0.195312 0.0976562 0.130208 0.195312 0.0976563 0.130208 0.0651042 0.195312 0.0976562 0.130208 0.195313 0.0976563 0.130208 0.0651043 0.195313 0.0976563 0.130208 0.195313 0.0976564 0.130208 0.0651043 0.195313 0.0976563 0.130208 0.195313 0.0976564 0.130208 0.0651042 0.195313 0.0976562 0.130208 0.195313 0.0976563 0.130208 0.0651042 0.195313 0.0976562 0.130208 0.195313 0.0976563 0.130208 0.0651041 0.195312 0.0976562 0.130208 0.195313 0.0976562 0.130208 0.0651043 0.195313 0.0976564 0.130208 0.195313 0.0976565 0.130208 0.0651043 0.195313 0.0976563 0.130208 0.195313 0.0976565 0.130208 0.0651043 0.195313 0.0976562 0.130208 0.195313 0.0976564 0.130208 0.0651042 0.195313 0.0976564 0.130209 0.195313 0.0976564 0.130209 0.0651044 0.195313 0.0976562 0.130208 0.195313 0.0976566 0.130208 0.0651042 0.195313 0.0976563 0.130209 0.195313 0.0976564 0.130208 0.0651042 0.195313 0.0976561 0.130208 0.195313 0.0976563 0.130208 0.0651042 0.195313 0.0976563 0.130208 0.195313 0.0976563 0.130208 0.0651043 0.195313 0.0976562 0.130208 0.195312 0.0976564 0.130208 0.0651041 0.195312 0.0976562 0.130208 0.195313 0.0976562 0.130208 0.0651044 0.195313 0.0976562 0.130209 0.195312 0.0976566 0.130208 0.0651041 0.195312 0.0976562 0.130208 0.195313 0.0976561 0.130208 0.0651044 0.195313 0.0976564 0.130209 0.195313 0.0976566 0.130208 0.0651043 0.195312 0.0976561 0.130208 0.195312 0.0976565 0.130208 0.0651043 0.195313 0.0976563 0.130209 0.195313 0.0976565 0.130208 0.0651044 0.195313 0.0976563 0.130209 0.195313 0.0976567 0.130208 0.0651044 0.195313 0.0651043 0.130208 0.0976565 0.0976565 0.0651043 0.130208 0.195313 0.195313 0.130208 0.195313 0.0976563 0.0651042 0.0651042 0.0976563 0.0651042 0.195313 0.0976562 0.0976563 0.130208 0.130208 0.195313 0.195313 0.130208 0.195313 0.0976562 0.0651042 0.195313 0.0976562 0.130208 0.130208 0.195313 0.195313 0.130208 0.195313 0.0976563 0.0651042 0.195313 0.0976563 0.130208 0.130208 0.195313 0.195313 0.130208 0.195312 0.0976562 0.0651042 0.195313 0.0976562 0.130208 0.130208 0.195313 0.195313 0.130208 0.195313 0.0976562 0.0651042 0.195313 0.0976563 0.130208 0.130208 0.195313 0.195313 0.130208 0.195313 0.0976563 0.0651042 0.195313 0.0976563 0.130208 0.130208 0.195313 0.195312 0.130208 0.195312 0.0976562 0.0651042 0.195313 0.0976562 0.130208 0.130208 0.195312 0.195313 0.130208 0.195312 0.0976562 0.0651041 0.195312 0.0976562 0.130208 0.130208 0.195312 0.195312 0.130208 0.195312 0.0976562 0.0651041 0.195312 0.0976562 0.130208 0.130208 0.195313 0.195313 0.130208 0.195313 0.0976562 0.0651042 0.195312 0.0976563 0.130208 0.130208 0.195313 0.195313 0.130208 0.195313 0.0976563 0.0651042 0.195313 0.0976563 0.130208 0.130208 0.195313 0.195313 0.130208 0.195312 0.0976562 0.0651042 0.195313 0.0976562 0.130208 0.130208 0.195313 0.195313 0.130208 0.195313 0.0976563 0.0651042 0.195313 0.0976563 0.130208 0.130208 0.195313 0.195312 0.130208 0.195312 0.0976563 0.0651042 0.195313 0.0976562 0.130208 0.130208 0.195312 0.195313 0.130208 0.195313 0.0976562 0.0651041 0.195312 0.0976563 0.130208 0.130209 0.195313 0.195313 0.130208 0.195313 0.0976562 0.0651042 0.195313 0.0976563 0.130208 0.130209 0.195313 0.195313 0.130208 0.195313 0.0976563 0.0651042 0.195313 0.0976564 0.130209 0.130208 0.195313 0.195313 0.130208 0.195312 0.0976562 0.0651042 0.195313 0.0976563 0.130208 0.130208 0.195313 0.195313 0.130208 0.195313 0.0976564 0.0651042 0.195313 0.0976564 0.130209 0.130209 0.195313 0.195313 0.130208 0.195312 0.0976561 0.0651041 0.195313 0.0976563 0.130208 0.130209 0.195313 0.195313 0.130209 0.195313 0.0976565 0.0651043 0.195313 0.0976564 0.130209 0.130208 0.195313 0.195312 0.130208 0.195312 0.0976563 0.0651042 0.195313 0.0976563 0.130208 0.130208 0.195313 0.195313 0.130208 0.195313 0.0976563 0.0651042 0.195313 0.0976563 0.130208 0.130208 0.195313 0.195313 0.130208 0.195312 0.0976563 0.0651042 0.195313 0.0976562 0.130208 0.130208 0.195312 0.195313 0.130208 0.195313 0.0976561 0.0651041 0.195312 0.0976563 0.130208 0.130209 0.195313 0.195312 0.130208 0.195312 0.0976562 0.0651042 0.195313 0.0976561 0.130208 0.130208 0.195312 0.195313 0.130208 0.195313 0.097656 0.065104 0.195312 0.0976563 0.130208 0.130209 0.195313 0.195313 0.130209 0.195313 0.0976564 0.0651043 0.195313 0.0976564 0.130209 0.130208 0.195312 0.195312 0.130208 0.195312 0.0976558 0.065104 0.195312 0.0976563 0.130208 0.130208 0.195313 0.195313 0.130208 0.195313 0.0976561 0.0651041 0.195313 0.0976564 0.130208 0.130209 0.195313 0.195313 0.130209 0.195313 0.0976562 0.0651042 0.195313 0.0976561 0.130208 0.130209 0.195313 0.0976566 0.130208 0.0976565 0.0976565 0.0651043 0.195313 0.0325522 0.0651044 0.130208 0.195313 0.195313 0.130208 0.195313 0.0976563 0.0651042 0.195313 0.0976562 0.130208 0.130208 0.195313 0.195313 0.130208 0.195313 0.195313 0.130208 0.130208 0.195313 0.195313 0.130208 0.195313 0.195313 0.130208 0.130208 0.195313 0.195313 0.130208 0.195313 0.195313 0.130208 0.130208 0.195313 0.195313 0.130208 0.195313 0.195313 0.130208 0.130208 0.195313 0.195313 0.130208 0.195313 0.195313 0.130208 0.130208 0.195313 0.195312 0.130208 0.195312 0.195312 0.130208 0.130208 0.195313 0.195313 0.130208 0.195312 0.195312 0.130208 0.130208 0.195312 0.195313 0.130208 0.195312 0.195312 0.130208 0.130208 0.195313 0.195313 0.130208 0.195313 0.195312 0.130208 0.130208 0.195313 0.195313 0.130208 0.195313 0.195313 0.130209 0.130208 0.195313 0.195313 0.130208 0.195312 0.195313 0.130208 0.130208 0.195313 0.195313 0.130208 0.195313 0.195313 0.130208 0.130208 0.195313 0.195313 0.130208 0.195312 0.195313 0.130208 0.130208 0.195312 0.195313 0.130208 0.195313 0.195312 0.130208 0.130209 0.195313 0.195313 0.130208 0.195313 0.195313 0.130208 0.130209 0.195313 0.195313 0.130208 0.195313 0.195313 0.130209 0.130208 0.195313 0.195313 0.130208 0.195313 0.195313 0.130208 0.130208 0.195313 0.195313 0.130208 0.195313 0.195313 0.130209 0.130209 0.195313 0.195313 0.130208 0.195313 0.195313 0.130208 0.130209 0.195313 0.195313 0.130209 0.195313 0.195313 0.130209 0.130208 0.195313 0.195312 0.130208 0.195313 0.195313 0.130208 0.130208 0.195313 0.195313 0.130208 0.195313 0.195313 0.130208 0.130208 0.195313 0.195313 0.130208 0.195312 0.195313 0.130208 0.130208 0.195312 0.195313 0.130208 0.195313 0.195312 0.130208 0.130209 0.195313 0.195312 0.130208 0.195312 0.195313 0.130208 0.130208 0.195312 0.195313 0.130208 0.195313 0.195312 0.130208 0.130209 0.195313 0.195313 0.130209 0.195313 0.195313 0.130209 0.130208 0.195312 0.195312 0.130208 0.195312 0.195312 0.130208 0.130208 0.195313 0.195313 0.130208 0.195313 0.195313 0.130208 0.130209 0.195313 0.195313 0.130209 0.195313 0.195313 0.130208 0.130209 0.195313 0.0976566 0.130208 0.0976565 0.195313 0.0651044 0.130208 0.195313 0.195313 0.130208 0.195313 0.0976563 0.0651042 0.195313 0.0976563 0.130208 0.130208 0.195313 0.195313 0.130208 0.195313 0.195313 0.130208 0.130208 0.195313 0.195313 0.130208 0.195313 0.195313 0.130208 0.130208 0.195313 0.195313 0.130208 0.195313 0.195313 0.130208 0.130208 0.195313 0.195313 0.130208 0.195313 0.195313 0.130208 0.130208 0.195313 0.195313 0.130208 0.195313 0.195313 0.130208 0.130208 0.195313 0.195312 0.130208 0.195312 0.195312 0.130208 0.130208 0.195313 0.195313 0.130208 0.195313 0.195312 0.130208 0.130208 0.195313 0.195312 0.130208 0.195312 0.195312 0.130208 0.130208 0.195313 0.195313 0.130208 0.195313 0.195312 0.130208 0.130208 0.195313 0.195313 0.130208 0.195313 0.195313 0.130209 0.130209 0.195313 0.195313 0.130208 0.195312 0.195313 0.130208 0.130208 0.195313 0.195313 0.130208 0.195313 0.195313 0.130208 0.130208 0.195313 0.195313 0.130208 0.195313 0.195313 0.130208 0.130208 0.195312 0.195313 0.130208 0.195313 0.195312 0.130208 0.130209 0.195313 0.195313 0.130208 0.195313 0.195313 0.130208 0.130209 0.195313 0.195313 0.130208 0.195313 0.195313 0.130209 0.130208 0.195313 0.195313 0.130208 0.195313 0.195313 0.130208 0.130208 0.195313 0.195313 0.130208 0.195313 0.195313 0.130209 0.130209 0.195313 0.195313 0.130208 0.195313 0.195313 0.130208 0.130209 0.195313 0.195313 0.130209 0.195313 0.195313 0.130209 0.130208 0.195313 0.195312 0.130208 0.195313 0.195313 0.130208 0.130208 0.195313 0.195313 0.130208 0.195313 0.195313 0.130208 0.130208 0.195313 0.195313 0.130208 0.195312 0.195313 0.130208 0.130208 0.195312 0.195313 0.130208 0.195313 0.195312 0.130208 0.130209 0.195313 0.195312 0.130208 0.195312 0.195313 0.130208 0.130208 0.195312 0.195313 0.130208 0.195313 0.195312 0.130208 0.130209 0.195313 0.195313 0.130209 0.195313 0.195313 0.130209 0.130208 0.195312 0.195312 0.130208 0.195312 0.195312 0.130208 0.130208 0.195313 0.195313 0.130208 0.195313 0.195313 0.130208 0.130209 0.195313 0.195313 0.130209 0.195313 0.195313 0.130208 0.130209 0.195313 0.0976566 0.130208 0.0976565 0.195313 0.0651044 0.130208 0.195313 0.195313 0.130208 0.195312 0.0976562 0.0651042 0.195313 0.0976562 0.130208 0.130208 0.195313 0.195313 0.130208 0.195312 0.195313 0.130208 0.130208 0.195313 0.195313 0.130208 0.195312 0.195313 0.130208 0.130208 0.195313 0.195313 0.130208 0.195312 0.195313 0.130208 0.130208 0.195313 0.195313 0.130208 0.195312 0.195313 0.130208 0.130208 0.195313 0.195313 0.130208 0.195312 0.195313 0.130208 0.130208 0.195313 0.195312 0.130208 0.195312 0.195312 0.130208 0.130208 0.195312 0.195313 0.130208 0.195312 0.195312 0.130208 0.130208 0.195312 0.195312 0.130208 0.195312 0.195312 0.130208 0.130208 0.195312 0.195313 0.130208 0.195312 0.195312 0.130208 0.130208 0.195313 0.195313 0.130208 0.195313 0.195313 0.130208 0.130208 0.195313 0.195313 0.130208 0.195312 0.195313 0.130208 0.130208 0.195313 0.195313 0.130208 0.195312 0.195313 0.130208 0.130208 0.195313 0.195312 0.130208 0.195312 0.195313 0.130208 0.130208 0.195312 0.195313 0.130208 0.195313 0.195312 0.130208 0.130209 0.195313 0.195313 0.130208 0.195313 0.195313 0.130208 0.130209 0.195313 0.195313 0.130208 0.195313 0.195313 0.130209 0.130208 0.195313 0.195313 0.130208 0.195312 0.195313 0.130208 0.130208 0.195313 0.195313 0.130208 0.195313 0.195313 0.130209 0.130209 0.195313 0.195313 0.130208 0.195312 0.195313 0.130208 0.130209 0.195313 0.195313 0.130209 0.195313 0.195313 0.130209 0.130208 0.195313 0.195312 0.130208 0.195312 0.195313 0.130208 0.130208 0.195313 0.195313 0.130208 0.195313 0.195313 0.130208 0.130208 0.195313 0.195313 0.130208 0.195312 0.195313 0.130208 0.130208 0.195312 0.195313 0.130208 0.195313 0.195312 0.130208 0.130209 0.195313 0.195312 0.130208 0.195312 0.195313 0.130208 0.130208 0.195312 0.195313 0.130208 0.195313 0.195312 0.130208 0.130209 0.195313 0.195313 0.130209 0.195313 0.195313 0.130209 0.130208 0.195312 0.195312 0.130208 0.195312 0.195312 0.130208 0.130208 0.195313 0.195313 0.130208 0.195313 0.195313 0.130208 0.130209 0.195313 0.195313 0.130209 0.195313 0.195313 0.130208 0.130209 0.195313 0.0976566 0.130208 0.0976564 0.195313 0.0651044 0.130208 0.195313 0.195313 0.130208 0.195313 0.0976563 0.0651042 0.195313 0.0976562 0.130208 0.130208 0.195313 0.195313 0.130208 0.195313 0.195313 0.130208 0.130208 0.195313 0.195313 0.130208 0.195313 0.195313 0.130208 0.130208 0.195313 0.195313 0.130208 0.195312 0.195313 0.130208 0.130208 0.195313 0.195313 0.130208 0.195313 0.195313 0.130208 0.130208 0.195313 0.195313 0.130208 0.195313 0.195313 0.130208 0.130208 0.195313 0.195313 0.130208 0.195312 0.195313 0.130208 0.130208 0.195312 0.195313 0.130208 0.195312 0.195312 0.130208 0.130208 0.195313 0.195313 0.130208 0.195312 0.195312 0.130208 0.130208 0.195313 0.195313 0.130208 0.195313 0.195312 0.130208 0.130208 0.195313 0.195313 0.130208 0.195313 0.195313 0.130208 0.130208 0.195313 0.195313 0.130208 0.195312 0.195313 0.130208 0.130208 0.195313 0.195313 0.130208 0.195313 0.195313 0.130208 0.130208 0.195313 0.195313 0.130208 0.195312 0.195313 0.130208 0.130208 0.195312 0.195313 0.130208 0.195313 0.195312 0.130208 0.130209 0.195313 0.195313 0.130208 0.195313 0.195313 0.130208 0.130209 0.195313 0.195313 0.130208 0.195313 0.195313 0.130209 0.130208 0.195313 0.195313 0.130208 0.195312 0.195313 0.130208 0.130208 0.195313 0.195313 0.130208 0.195313 0.195313 0.130209 0.130209 0.195313 0.195313 0.130208 0.195312 0.195313 0.130208 0.130209 0.195313 0.195313 0.130209 0.195313 0.195313 0.130209 0.130208 0.195313 0.195312 0.130208 0.195313 0.195313 0.130208 0.130208 0.195313 0.195313 0.130208 0.195313 0.195313 0.130208 0.130208 0.195313 0.195313 0.130208 0.195312 0.195313 0.130208 0.130208 0.195312 0.195313 0.130208 0.195313 0.195312 0.130208 0.130209 0.195313 0.195312 0.130208 0.195312 0.195313 0.130208 0.130208 0.195312 0.195313 0.130208 0.195313 0.195312 0.130208 0.130209 0.195313 0.195313 0.130209 0.195313 0.195313 0.130209 0.130208 0.195312 0.195312 0.130208 0.195312 0.195312 0.130208 0.130208 0.195313 0.195313 0.130208 0.195313 0.195313 0.130208 0.130209 0.195313 0.195313 0.130209 0.195313 0.195313 0.130208 0.130209 0.195313 0.0976566 0.130208 0.0976565 0.195313 0.0651044 0.130208 0.195313 0.195313 0.130208 0.195313 0.0976563 0.0651042 0.195313 0.0976563 0.130208 0.130208 0.195313 0.195313 0.130208 0.195313 0.195313 0.130208 0.130208 0.195313 0.195313 0.130208 0.195313 0.195313 0.130208 0.130208 0.195313 0.195313 0.130208 0.195313 0.195313 0.130208 0.130208 0.195313 0.195313 0.130208 0.195313 0.195313 0.130208 0.130208 0.195313 0.195313 0.130208 0.195313 0.195313 0.130208 0.130208 0.195313 0.195313 0.130208 0.195313 0.195313 0.130208 0.130208 0.195313 0.195313 0.130208 0.195313 0.195312 0.130208 0.130208 0.195313 0.195313 0.130208 0.195312 0.195312 0.130208 0.130208 0.195313 0.195313 0.130208 0.195313 0.195313 0.130208 0.130208 0.195313 0.195313 0.130208 0.195313 0.195313 0.130209 0.130209 0.195313 0.195313 0.130208 0.195313 0.195313 0.130208 0.130208 0.195313 0.195313 0.130208 0.195313 0.195313 0.130208 0.130208 0.195313 0.195313 0.130208 0.195313 0.195313 0.130208 0.130208 0.195313 0.195313 0.130208 0.195313 0.195312 0.130208 0.130209 0.195313 0.195313 0.130208 0.195313 0.195313 0.130209 0.130209 0.195313 0.195313 0.130208 0.195313 0.195313 0.130209 0.130208 0.195313 0.195313 0.130208 0.195313 0.195313 0.130208 0.130208 0.195313 0.195313 0.130209 0.195313 0.195313 0.130209 0.130209 0.195313 0.195313 0.130208 0.195313 0.195313 0.130208 0.130209 0.195313 0.195313 0.130209 0.195313 0.195313 0.130209 0.130208 0.195313 0.195313 0.130208 0.195313 0.195313 0.130208 0.130208 0.195313 0.195313 0.130208 0.195313 0.195313 0.130208 0.130209 0.195313 0.195313 0.130208 0.195312 0.195313 0.130208 0.130208 0.195312 0.195313 0.130208 0.195313 0.195312 0.130209 0.130209 0.195313 0.195312 0.130209 0.195312 0.195313 0.130208 0.130208 0.195312 0.195313 0.130208 0.195313 0.195312 0.130208 0.130209 0.195313 0.195313 0.130209 0.195313 0.195313 0.130209 0.130208 0.195312 0.195312 0.130208 0.195312 0.195312 0.130208 0.130208 0.195313 0.195313 0.130208 0.195313 0.195313 0.130208 0.130209 0.195313 0.195313 0.130209 0.195313 0.195313 0.130208 0.130209 0.195313 0.0976566 0.130208 0.0976565 0.195313 0.0651044 0.130208 0.195313 0.195313 0.130208 0.195313 0.0976562 0.0651042 0.195312 0.0976563 0.130208 0.130208 0.195313 0.195313 0.130208 0.195313 0.195312 0.130208 0.130208 0.195313 0.195313 0.130208 0.195313 0.195312 0.130208 0.130208 0.195313 0.195313 0.130208 0.195313 0.195312 0.130208 0.130208 0.195313 0.195313 0.130208 0.195313 0.195312 0.130208 0.130208 0.195313 0.195313 0.130208 0.195313 0.195313 0.130208 0.130208 0.195313 0.195312 0.130208 0.195312 0.195312 0.130208 0.130208 0.195312 0.195313 0.130208 0.195312 0.195312 0.130208 0.130208 0.195312 0.195312 0.130208 0.195312 0.195312 0.130208 0.130208 0.195313 0.195313 0.130208 0.195313 0.195312 0.130208 0.130208 0.195313 0.195313 0.130208 0.195313 0.195313 0.130209 0.130208 0.195313 0.195313 0.130208 0.195312 0.195313 0.130208 0.130208 0.195313 0.195313 0.130208 0.195313 0.195312 0.130208 0.130208 0.195313 0.195312 0.130208 0.195312 0.195313 0.130208 0.130208 0.195312 0.195313 0.130208 0.195313 0.195312 0.130208 0.130208 0.195313 0.195313 0.130208 0.195313 0.195313 0.130208 0.130209 0.195313 0.195313 0.130208 0.195313 0.195313 0.130209 0.130208 0.195313 0.195313 0.130208 0.195313 0.195313 0.130208 0.130208 0.195313 0.195313 0.130208 0.195313 0.195313 0.130209 0.130209 0.195313 0.195313 0.130208 0.195313 0.195313 0.130208 0.130209 0.195313 0.195313 0.130209 0.195313 0.195313 0.130209 0.130208 0.195313 0.195312 0.130208 0.195313 0.195312 0.130208 0.130208 0.195313 0.195313 0.130208 0.195313 0.195312 0.130208 0.130208 0.195313 0.195313 0.130208 0.195312 0.195313 0.130208 0.130208 0.195312 0.195313 0.130208 0.195313 0.195312 0.130208 0.130209 0.195313 0.195312 0.130208 0.195312 0.195313 0.130208 0.130208 0.195312 0.195313 0.130208 0.195313 0.195312 0.130208 0.130209 0.195313 0.195313 0.130209 0.195313 0.195313 0.130209 0.130208 0.195312 0.195312 0.130208 0.195312 0.195312 0.130208 0.130208 0.195313 0.195313 0.130208 0.195313 0.195312 0.130208 0.130209 0.195313 0.195312 0.130209 0.195313 0.195313 0.130208 0.130209 0.195313 0.0976566 0.130208 0.0976565 0.195313 0.0651044 0.0651042 0.195312 0.0976563 0.130208 0.195312 0.0325521 0.0651042 0.0976563 0.0976562 0.130208 0.0651042 0.195312 0.0976563 0.130208 0.195312 0.0976563 0.130208 0.0651042 0.195312 0.0976563 0.130208 0.195312 0.0976563 0.130208 0.0651042 0.195312 0.0976563 0.130208 0.195312 0.0976563 0.130208 0.0651042 0.195312 0.0976563 0.130208 0.195312 0.0976563 0.130208 0.0651042 0.195313 0.0976563 0.130208 0.195312 0.0976563 0.130208 0.0651042 0.195312 0.0976563 0.130208 0.195312 0.0976563 0.130208 0.0651042 0.195312 0.0976563 0.130208 0.195312 0.0976562 0.130208 0.0651043 0.195312 0.0976563 0.130208 0.195312 0.0976563 0.130208 0.0651042 0.195312 0.0976563 0.130208 0.195312 0.0976563 0.130208 0.0651043 0.195313 0.0976564 0.130208 0.195313 0.0976563 0.130208 0.0651043 0.195313 0.0976563 0.130208 0.195312 0.0976564 0.130208 0.0651042 0.195312 0.0976563 0.130208 0.195312 0.0976562 0.130208 0.0651042 0.195313 0.0976562 0.130208 0.195312 0.0976563 0.130208 0.0651042 0.195312 0.0976563 0.130208 0.195313 0.0976562 0.130208 0.0651044 0.195313 0.0976564 0.130208 0.195313 0.0976564 0.130208 0.0651044 0.195313 0.0976564 0.130208 0.195313 0.0976564 0.130208 0.0651043 0.195313 0.0976562 0.130208 0.195312 0.0976564 0.130208 0.0651042 0.195313 0.0976565 0.130208 0.195313 0.0976563 0.130209 0.0651044 0.195313 0.0976563 0.130208 0.195312 0.0976565 0.130208 0.0651042 0.195313 0.0976564 0.130208 0.195313 0.0976564 0.130208 0.0651042 0.195312 0.0976562 0.130208 0.195312 0.0976563 0.130208 0.0651042 0.195312 0.0976563 0.130208 0.195312 0.0976562 0.130208 0.0651043 0.195313 0.0976563 0.130208 0.195312 0.0976563 0.130208 0.0651041 0.195312 0.0976563 0.130208 0.195313 0.0976561 0.130208 0.0651044 0.195313 0.0976563 0.130208 0.195312 0.0976565 0.130208 0.0651041 0.195312 0.0976562 0.130208 0.195312 0.097656 0.130208 0.0651044 0.195313 0.0976565 0.130209 0.195313 0.0976565 0.130209 0.0651043 0.195312 0.0976561 0.130208 0.195312 0.0976564 0.130208 0.0651043 0.195312 0.0976563 0.130208 0.195313 0.0976565 0.130208 0.0651044 0.195313 0.0976564 0.130208 0.195313 0.0976566 0.130208 0.0651044 0.195313 0.0651044 0.130208 0.0976564 0.0976564 0.0651044 0.130208 0.195312 0.195312 0.130208 0.195312 0.0976562 0.0651041 0.0651041 0.0976562 0.0651041 0.195312 0.0976562 0.0976562 0.130208 0.130208 0.195312 0.195312 0.130208 0.195312 0.0976562 0.0651041 0.195312 0.0976562 0.130208 0.130208 0.195312 0.195312 0.130208 0.195312 0.0976563 0.0651042 0.195312 0.0976562 0.130208 0.130208 0.195312 0.195312 0.130208 0.195312 0.0976562 0.0651041 0.195312 0.0976562 0.130208 0.130208 0.195312 0.195312 0.130208 0.195312 0.0976562 0.0651041 0.195312 0.0976562 0.130208 0.130208 0.195312 0.195312 0.130208 0.195312 0.0976563 0.0651042 0.195313 0.0976562 0.130208 0.130208 0.195312 0.195312 0.130208 0.195312 0.0976562 0.0651041 0.195312 0.0976561 0.130208 0.130208 0.195312 0.195312 0.130208 0.195312 0.0976562 0.0651041 0.195312 0.0976562 0.130208 0.130208 0.195312 0.195312 0.130208 0.195312 0.0976562 0.0651041 0.195312 0.0976562 0.130208 0.130208 0.195312 0.195312 0.130208 0.195312 0.0976562 0.0651041 0.195312 0.0976562 0.130208 0.130208 0.195313 0.195313 0.130208 0.195313 0.0976563 0.0651042 0.195313 0.0976562 0.130208 0.130208 0.195313 0.195312 0.130208 0.195312 0.0976562 0.0651041 0.195313 0.0976562 0.130208 0.130208 0.195312 0.195312 0.130208 0.195312 0.0976563 0.0651042 0.195312 0.0976563 0.130208 0.130208 0.195312 0.195312 0.130208 0.195312 0.0976563 0.0651042 0.195313 0.0976561 0.130208 0.130208 0.195312 0.195312 0.130208 0.195313 0.0976562 0.0651041 0.195312 0.0976562 0.130208 0.130208 0.195313 0.195313 0.130208 0.195313 0.0976562 0.0651041 0.195313 0.0976562 0.130208 0.130208 0.195313 0.195313 0.130208 0.195313 0.0976563 0.0651042 0.195313 0.0976563 0.130208 0.130208 0.195312 0.195312 0.130208 0.195312 0.0976562 0.0651041 0.195313 0.0976562 0.130208 0.130208 0.195313 0.195313 0.130208 0.195313 0.0976564 0.0651042 0.195313 0.0976564 0.130209 0.130208 0.195313 0.195313 0.130208 0.195312 0.0976561 0.0651041 0.195313 0.0976563 0.130208 0.130208 0.195313 0.195313 0.130209 0.195313 0.0976565 0.0651043 0.195313 0.0976563 0.130208 0.130208 0.195312 0.195312 0.130208 0.195312 0.0976563 0.0651042 0.195312 0.0976562 0.130208 0.130208 0.195312 0.195313 0.130208 0.195313 0.0976563 0.0651042 0.195312 0.0976563 0.130208 0.130208 0.195313 0.195312 0.130208 0.195312 0.0976563 0.0651042 0.195313 0.0976562 0.130208 0.130208 0.195312 0.195312 0.130208 0.195313 0.0976561 0.0651041 0.195312 0.0976562 0.130208 0.130208 0.195313 0.195312 0.130208 0.195312 0.0976562 0.0651041 0.195313 0.097656 0.130208 0.130208 0.195312 0.195312 0.130208 0.195312 0.097656 0.065104 0.195312 0.0976562 0.130208 0.130209 0.195313 0.195313 0.130209 0.195313 0.0976564 0.0651043 0.195313 0.0976563 0.130208 0.130208 0.195312 0.195312 0.130208 0.195312 0.0976558 0.0651039 0.195312 0.0976562 0.130208 0.130208 0.195312 0.195313 0.130208 0.195313 0.0976561 0.0651041 0.195312 0.0976563 0.130208 0.130209 0.195313 0.195312 0.130209 0.195313 0.0976562 0.0651042 0.195313 0.0976561 0.130208 0.130209 0.195313 0.0976566 0.130208 0.0976564 0.0976565 0.0651042 0.195313 0.0325522 0.0651044 0.130208 0.195312 0.195312 0.130208 0.195312 0.0976562 0.0651041 0.195312 0.0976562 0.130208 0.130208 0.195312 0.195312 0.130208 0.195312 0.195312 0.130208 0.130208 0.195312 0.195312 0.130208 0.195312 0.195312 0.130208 0.130208 0.195312 0.195312 0.130208 0.195312 0.195312 0.130208 0.130208 0.195312 0.195312 0.130208 0.195312 0.195312 0.130208 0.130208 0.195312 0.195312 0.130208 0.195312 0.195313 0.130208 0.130208 0.195312 0.195312 0.130208 0.195312 0.195312 0.130208 0.130208 0.195312 0.195312 0.130208 0.195312 0.195312 0.130208 0.130208 0.195312 0.195312 0.130208 0.195312 0.195312 0.130208 0.130208 0.195312 0.195312 0.130208 0.195312 0.195312 0.130208 0.130208 0.195313 0.195313 0.130208 0.195313 0.195313 0.130208 0.130208 0.195313 0.195312 0.130208 0.195312 0.195313 0.130208 0.130208 0.195312 0.195313 0.130208 0.195312 0.195312 0.130208 0.130208 0.195312 0.195312 0.130208 0.195312 0.195312 0.130208 0.130208 0.195312 0.195312 0.130208 0.195313 0.195312 0.130208 0.130208 0.195313 0.195313 0.130208 0.195313 0.195313 0.130208 0.130208 0.195313 0.195313 0.130208 0.195313 0.195313 0.130208 0.130208 0.195313 0.195312 0.130208 0.195312 0.195312 0.130208 0.130208 0.195313 0.195313 0.130208 0.195313 0.195313 0.130209 0.130208 0.195313 0.195313 0.130208 0.195312 0.195313 0.130208 0.130208 0.195313 0.195313 0.130209 0.195313 0.195313 0.130208 0.130208 0.195312 0.195312 0.130208 0.195312 0.195312 0.130208 0.130208 0.195312 0.195313 0.130208 0.195313 0.195312 0.130208 0.130208 0.195313 0.195312 0.130208 0.195312 0.195313 0.130208 0.130208 0.195312 0.195312 0.130208 0.195313 0.195312 0.130208 0.130208 0.195313 0.195312 0.130208 0.195312 0.195313 0.130208 0.130208 0.195312 0.195312 0.130208 0.195312 0.195312 0.130208 0.130209 0.195313 0.195313 0.130209 0.195313 0.195313 0.130209 0.130208 0.195312 0.195312 0.130208 0.195312 0.195312 0.130208 0.130208 0.195312 0.195313 0.130208 0.195313 0.195312 0.130208 0.130209 0.195313 0.195312 0.130209 0.195313 0.195313 0.130208 0.130209 0.195313 0.0976566 0.130208 0.0976565 0.195313 0.0651044 0.130208 0.195312 0.195312 0.130208 0.195312 0.0976562 0.0651041 0.195312 0.0976562 0.130208 0.130208 0.195312 0.195312 0.130208 0.195312 0.195312 0.130208 0.130208 0.195312 0.195312 0.130208 0.195312 0.195312 0.130208 0.130208 0.195312 0.195312 0.130208 0.195312 0.195312 0.130208 0.130208 0.195312 0.195312 0.130208 0.195312 0.195312 0.130208 0.130208 0.195313 0.195312 0.130208 0.195312 0.195312 0.130208 0.130208 0.195312 0.195312 0.130208 0.195312 0.195312 0.130208 0.130208 0.195312 0.195312 0.130208 0.195312 0.195312 0.130208 0.130208 0.195312 0.195312 0.130208 0.195312 0.195312 0.130208 0.130208 0.195312 0.195312 0.130208 0.195313 0.195312 0.130208 0.130208 0.195313 0.195313 0.130208 0.195313 0.195313 0.130208 0.130208 0.195313 0.195312 0.130208 0.195312 0.195313 0.130208 0.130208 0.195312 0.195312 0.130208 0.195313 0.195312 0.130208 0.130208 0.195312 0.195312 0.130208 0.195312 0.195312 0.130208 0.130208 0.195312 0.195312 0.130208 0.195313 0.195312 0.130208 0.130208 0.195313 0.195313 0.130208 0.195313 0.195313 0.130208 0.130208 0.195313 0.195313 0.130208 0.195313 0.195313 0.130208 0.130208 0.195313 0.195312 0.130208 0.195312 0.195313 0.130208 0.130208 0.195313 0.195313 0.130208 0.195313 0.195313 0.130209 0.130208 0.195313 0.195313 0.130208 0.195312 0.195313 0.130208 0.130208 0.195313 0.195313 0.130209 0.195313 0.195313 0.130208 0.130208 0.195312 0.195312 0.130208 0.195312 0.195312 0.130208 0.130208 0.195312 0.195313 0.130208 0.195313 0.195312 0.130208 0.130208 0.195313 0.195312 0.130208 0.195312 0.195313 0.130208 0.130208 0.195312 0.195312 0.130208 0.195313 0.195312 0.130208 0.130209 0.195313 0.195312 0.130208 0.195312 0.195313 0.130208 0.130208 0.195312 0.195312 0.130208 0.195312 0.195312 0.130208 0.130209 0.195313 0.195313 0.130209 0.195313 0.195313 0.130208 0.130208 0.195312 0.195312 0.130208 0.195312 0.195312 0.130208 0.130208 0.195312 0.195313 0.130208 0.195313 0.195312 0.130208 0.130209 0.195313 0.195312 0.130209 0.195313 0.195313 0.130208 0.130209 0.195313 0.0976566 0.130208 0.0976565 0.195313 0.0651044 0.130208 0.195312 0.195312 0.130208 0.195312 0.0976562 0.0651041 0.195312 0.0976562 0.130208 0.130208 0.195312 0.195312 0.130208 0.195312 0.195312 0.130208 0.130208 0.195312 0.195312 0.130208 0.195312 0.195312 0.130208 0.130208 0.195312 0.195312 0.130208 0.195312 0.195312 0.130208 0.130208 0.195312 0.195312 0.130208 0.195312 0.195312 0.130208 0.130208 0.195312 0.195312 0.130208 0.195312 0.195312 0.130208 0.130208 0.195312 0.195312 0.130208 0.195312 0.195312 0.130208 0.130208 0.195312 0.195312 0.130208 0.195312 0.195312 0.130208 0.130208 0.195312 0.195312 0.130208 0.195312 0.195312 0.130208 0.130208 0.195312 0.195312 0.130208 0.195312 0.195312 0.130208 0.130208 0.195313 0.195313 0.130208 0.195313 0.195313 0.130208 0.130208 0.195313 0.195312 0.130208 0.195312 0.195313 0.130208 0.130208 0.195312 0.195312 0.130208 0.195312 0.195312 0.130208 0.130208 0.195312 0.195312 0.130208 0.195312 0.195312 0.130208 0.130208 0.195312 0.195312 0.130208 0.195313 0.195312 0.130208 0.130208 0.195313 0.195313 0.130208 0.195313 0.195313 0.130208 0.130208 0.195313 0.195313 0.130208 0.195313 0.195313 0.130208 0.130208 0.195312 0.195312 0.130208 0.195312 0.195312 0.130208 0.130208 0.195313 0.195313 0.130208 0.195313 0.195313 0.130209 0.130208 0.195313 0.195312 0.130208 0.195312 0.195313 0.130208 0.130208 0.195313 0.195313 0.130208 0.195313 0.195313 0.130208 0.130208 0.195312 0.195312 0.130208 0.195312 0.195312 0.130208 0.130208 0.195312 0.195313 0.130208 0.195313 0.195312 0.130208 0.130208 0.195313 0.195312 0.130208 0.195312 0.195313 0.130208 0.130208 0.195312 0.195312 0.130208 0.195313 0.195312 0.130208 0.130208 0.195313 0.195312 0.130208 0.195312 0.195313 0.130208 0.130208 0.195312 0.195312 0.130208 0.195312 0.195312 0.130208 0.130209 0.195313 0.195313 0.130209 0.195313 0.195313 0.130208 0.130208 0.195312 0.195312 0.130208 0.195312 0.195312 0.130208 0.130208 0.195312 0.195313 0.130208 0.195313 0.195312 0.130208 0.130209 0.195313 0.195312 0.130208 0.195313 0.195313 0.130208 0.130209 0.195313 0.0976565 0.130208 0.0976564 0.195313 0.0651044 0.130208 0.195312 0.195312 0.130208 0.195312 0.0976562 0.0651041 0.195312 0.0976562 0.130208 0.130208 0.195312 0.195312 0.130208 0.195312 0.195312 0.130208 0.130208 0.195312 0.195312 0.130208 0.195312 0.195312 0.130208 0.130208 0.195312 0.195312 0.130208 0.195312 0.195312 0.130208 0.130208 0.195312 0.195312 0.130208 0.195312 0.195312 0.130208 0.130208 0.195312 0.195312 0.130208 0.195312 0.195313 0.130208 0.130208 0.195312 0.195312 0.130208 0.195312 0.195312 0.130208 0.130208 0.195312 0.195312 0.130208 0.195312 0.195312 0.130208 0.130208 0.195312 0.195312 0.130208 0.195312 0.195312 0.130208 0.130208 0.195312 0.195312 0.130208 0.195312 0.195312 0.130208 0.130208 0.195313 0.195313 0.130208 0.195313 0.195313 0.130208 0.130208 0.195313 0.195312 0.130208 0.195312 0.195313 0.130208 0.130208 0.195312 0.195313 0.130208 0.195312 0.195312 0.130208 0.130208 0.195312 0.195312 0.130208 0.195312 0.195313 0.130208 0.130208 0.195312 0.195312 0.130208 0.195313 0.195312 0.130208 0.130208 0.195313 0.195313 0.130208 0.195313 0.195313 0.130208 0.130208 0.195313 0.195313 0.130208 0.195313 0.195313 0.130208 0.130208 0.195313 0.195312 0.130208 0.195312 0.195313 0.130208 0.130208 0.195313 0.195313 0.130208 0.195313 0.195313 0.130209 0.130208 0.195313 0.195313 0.130208 0.195312 0.195313 0.130208 0.130208 0.195313 0.195313 0.130208 0.195313 0.195313 0.130208 0.130208 0.195312 0.195312 0.130208 0.195312 0.195312 0.130208 0.130208 0.195312 0.195313 0.130208 0.195313 0.195312 0.130208 0.130208 0.195313 0.195312 0.130208 0.195312 0.195313 0.130208 0.130208 0.195312 0.195312 0.130208 0.195313 0.195312 0.130208 0.130209 0.195313 0.195312 0.130208 0.195312 0.195313 0.130208 0.130208 0.195312 0.195312 0.130208 0.195312 0.195312 0.130208 0.130209 0.195313 0.195313 0.130209 0.195313 0.195313 0.130208 0.130208 0.195312 0.195312 0.130208 0.195312 0.195312 0.130208 0.130208 0.195312 0.195313 0.130208 0.195313 0.195312 0.130208 0.130209 0.195313 0.195312 0.130209 0.195313 0.195313 0.130208 0.130209 0.195313 0.0976566 0.130208 0.0976565 0.195313 0.0651044 0.130208 0.195313 0.195312 0.130208 0.195313 0.0976562 0.0651042 0.195312 0.0976562 0.130208 0.130208 0.195313 0.195312 0.130208 0.195313 0.195313 0.130208 0.130208 0.195313 0.195312 0.130208 0.195313 0.195313 0.130208 0.130208 0.195312 0.195312 0.130208 0.195313 0.195312 0.130208 0.130208 0.195313 0.195312 0.130208 0.195313 0.195312 0.130208 0.130208 0.195313 0.195312 0.130208 0.195313 0.195313 0.130208 0.130208 0.195312 0.195312 0.130208 0.195312 0.195312 0.130208 0.130208 0.195312 0.195312 0.130208 0.195313 0.195312 0.130208 0.130208 0.195312 0.195312 0.130208 0.195312 0.195312 0.130208 0.130208 0.195312 0.195312 0.130208 0.195313 0.195312 0.130208 0.130208 0.195313 0.195313 0.130208 0.195313 0.195313 0.130208 0.130208 0.195313 0.195312 0.130208 0.195312 0.195313 0.130208 0.130208 0.195313 0.195313 0.130208 0.195313 0.195313 0.130208 0.130208 0.195313 0.195312 0.130208 0.195312 0.195313 0.130208 0.130208 0.195312 0.195312 0.130208 0.195313 0.195312 0.130208 0.130208 0.195313 0.195313 0.130208 0.195313 0.195313 0.130208 0.130208 0.195313 0.195313 0.130208 0.195313 0.195313 0.130208 0.130208 0.195313 0.195312 0.130208 0.195313 0.195313 0.130208 0.130208 0.195313 0.195313 0.130208 0.195313 0.195313 0.130209 0.130209 0.195313 0.195313 0.130208 0.195313 0.195313 0.130208 0.130208 0.195313 0.195313 0.130209 0.195313 0.195313 0.130209 0.130208 0.195313 0.195312 0.130208 0.195312 0.195313 0.130208 0.130208 0.195313 0.195313 0.130208 0.195313 0.195312 0.130208 0.130208 0.195313 0.195312 0.130208 0.195312 0.195313 0.130208 0.130208 0.195312 0.195313 0.130208 0.195313 0.195312 0.130208 0.130209 0.195313 0.195312 0.130208 0.195312 0.195313 0.130208 0.130208 0.195312 0.195312 0.130208 0.195313 0.195312 0.130208 0.130209 0.195313 0.195313 0.130209 0.195313 0.195313 0.130209 0.130208 0.195312 0.195312 0.130208 0.195312 0.195312 0.130208 0.130208 0.195313 0.195313 0.130208 0.195313 0.195313 0.130208 0.130209 0.195313 0.195312 0.130209 0.195313 0.195313 0.130208 0.130209 0.195313 0.0976566 0.130208 0.0976565 0.195313 0.0651044 0.130208 0.195312 0.195312 0.130208 0.195312 0.0976561 0.0651041 0.195312 0.0976562 0.130208 0.130208 0.195312 0.195312 0.130208 0.195312 0.195312 0.130208 0.130208 0.195312 0.195312 0.130208 0.195312 0.195312 0.130208 0.130208 0.195312 0.195312 0.130208 0.195312 0.195312 0.130208 0.130208 0.195312 0.195312 0.130208 0.195312 0.195312 0.130208 0.130208 0.195313 0.195312 0.130208 0.195312 0.195312 0.130208 0.130208 0.195312 0.195312 0.130208 0.195312 0.195312 0.130208 0.130208 0.195312 0.195312 0.130208 0.195312 0.195312 0.130208 0.130208 0.195312 0.195312 0.130208 0.195312 0.195312 0.130208 0.130208 0.195312 0.195312 0.130208 0.195312 0.195312 0.130208 0.130208 0.195313 0.195313 0.130208 0.195313 0.195313 0.130208 0.130208 0.195313 0.195312 0.130208 0.195312 0.195312 0.130208 0.130208 0.195312 0.195312 0.130208 0.195312 0.195312 0.130208 0.130208 0.195312 0.195312 0.130208 0.195312 0.195312 0.130208 0.130208 0.195312 0.195312 0.130208 0.195313 0.195312 0.130208 0.130208 0.195313 0.195313 0.130208 0.195313 0.195313 0.130208 0.130208 0.195313 0.195313 0.130208 0.195313 0.195313 0.130208 0.130208 0.195313 0.195312 0.130208 0.195312 0.195312 0.130208 0.130208 0.195313 0.195313 0.130208 0.195313 0.195313 0.130209 0.130208 0.195313 0.195312 0.130208 0.195312 0.195313 0.130208 0.130208 0.195313 0.195313 0.130209 0.195313 0.195313 0.130208 0.130208 0.195312 0.195312 0.130208 0.195312 0.195312 0.130208 0.130208 0.195312 0.195313 0.130208 0.195313 0.195312 0.130208 0.130208 0.195313 0.195312 0.130208 0.195312 0.195312 0.130208 0.130208 0.195312 0.195312 0.130208 0.195313 0.195312 0.130208 0.130208 0.195313 0.195312 0.130208 0.195312 0.195313 0.130208 0.130208 0.195312 0.195312 0.130208 0.195313 0.195312 0.130208 0.130209 0.195313 0.195313 0.130209 0.195313 0.195313 0.130208 0.130208 0.195312 0.195312 0.130208 0.195312 0.195312 0.130208 0.130208 0.195312 0.195313 0.130208 0.195313 0.195312 0.130208 0.130209 0.195313 0.195312 0.130209 0.195313 0.195313 0.130208 0.130209 0.195313 0.0976566 0.130208 0.0976564 0.195313 0.0651044 0.0651042 0.195312 0.0976562 0.130208 0.195312 0.0325521 0.0651041 0.0976562 0.0976562 0.130208 0.0651042 0.195312 0.0976562 0.130208 0.195312 0.0976562 0.130208 0.0651042 0.195312 0.0976562 0.130208 0.195312 0.0976562 0.130208 0.0651042 0.195312 0.0976562 0.130208 0.195312 0.0976562 0.130208 0.0651042 0.195312 0.0976562 0.130208 0.195312 0.0976562 0.130208 0.0651042 0.195312 0.0976562 0.130208 0.195312 0.0976562 0.130208 0.0651042 0.195312 0.0976562 0.130208 0.195312 0.0976562 0.130208 0.0651042 0.195312 0.0976563 0.130208 0.195312 0.0976562 0.130208 0.0651042 0.195312 0.0976562 0.130208 0.195312 0.0976562 0.130208 0.0651042 0.195312 0.0976562 0.130208 0.195312 0.0976562 0.130208 0.0651042 0.195312 0.0976563 0.130208 0.195312 0.0976563 0.130208 0.0651043 0.195312 0.0976562 0.130208 0.195312 0.0976563 0.130208 0.0651042 0.195312 0.0976562 0.130208 0.195312 0.0976562 0.130208 0.0651042 0.195312 0.0976562 0.130208 0.195312 0.0976562 0.130208 0.0651041 0.195312 0.0976562 0.130208 0.195312 0.0976561 0.130208 0.0651043 0.195312 0.0976564 0.130208 0.195312 0.0976563 0.130208 0.0651043 0.195313 0.0976563 0.130208 0.195313 0.0976563 0.130208 0.0651043 0.195312 0.0976562 0.130208 0.195312 0.0976563 0.130208 0.0651042 0.195313 0.0976564 0.130208 0.195313 0.0976562 0.130209 0.0651044 0.195312 0.0976562 0.130208 0.195312 0.0976565 0.130208 0.0651042 0.195313 0.0976563 0.130208 0.195313 0.0976563 0.130208 0.0651042 0.195312 0.0976561 0.130208 0.195312 0.0976562 0.130208 0.0651042 0.195312 0.0976563 0.130208 0.195312 0.0976562 0.130208 0.0651042 0.195312 0.0976562 0.130208 0.195312 0.0976563 0.130208 0.0651041 0.195312 0.0976562 0.130208 0.195313 0.0976561 0.130208 0.0651044 0.195313 0.0976562 0.130208 0.195312 0.0976565 0.130208 0.0651041 0.195312 0.0976562 0.130208 0.195312 0.097656 0.130208 0.0651044 0.195313 0.0976565 0.130208 0.195313 0.0976564 0.130208 0.0651043 0.195312 0.0976561 0.130208 0.195312 0.0976563 0.130208 0.0651043 0.195312 0.0976563 0.130208 0.195313 0.0976564 0.130208 0.0651044 0.195313 0.0976563 0.130208 0.195312 0.0976565 0.130208 0.0651044 0.195313 0.0651043 0.130208 0.0976564 0.0976563 0.0651044 0.130208 0.195312 0.195312 0.0651041 0.0976562 0.0325521 0.0651041 0.0651042 0.0976562 0.0651041 0.0976562 0.032552 0.0976562 0.130208 0.130208 0.195312 0.195312 0.0651041 0.0976562 0.0325521 0.0651042 0.0976562 0.0976562 0.130208 0.130208 0.195312 0.195312 0.0651041 0.0976562 0.0325521 0.0651042 0.0976562 0.0976562 0.130208 0.130208 0.195312 0.195312 0.0651041 0.0976562 0.0325521 0.0651042 0.0976562 0.0976562 0.130208 0.130208 0.195312 0.195312 0.0651041 0.0976562 0.0325521 0.0651042 0.0976562 0.0976562 0.130208 0.130208 0.195313 0.195312 0.0651041 0.0976562 0.0325521 0.0651042 0.0976562 0.0976562 0.130208 0.130208 0.195312 0.195312 0.0651041 0.0976562 0.0325521 0.0651042 0.0976562 0.0976561 0.130208 0.130208 0.195312 0.195312 0.0651041 0.0976562 0.032552 0.0651041 0.0976561 0.0976562 0.130208 0.130208 0.195312 0.195312 0.0651041 0.0976561 0.0325521 0.0651041 0.0976562 0.0976562 0.130208 0.130208 0.195312 0.195312 0.0651041 0.0976562 0.0325521 0.0651042 0.0976562 0.0976562 0.130208 0.130208 0.195313 0.195313 0.0651041 0.0976563 0.0325521 0.0651042 0.0976562 0.0976563 0.130208 0.130208 0.195313 0.195312 0.0651041 0.0976562 0.0325521 0.0651042 0.0976563 0.0976562 0.130208 0.130208 0.195312 0.195313 0.0651041 0.0976562 0.0325521 0.0651042 0.0976562 0.0976563 0.130208 0.130208 0.195312 0.195312 0.0651042 0.0976562 0.0325521 0.0651042 0.0976562 0.0976562 0.130208 0.130208 0.195312 0.195312 0.0651041 0.0976562 0.032552 0.0651041 0.0976561 0.0976562 0.130208 0.130208 0.195313 0.195313 0.0651041 0.0976562 0.0325521 0.0651042 0.0976562 0.0976562 0.130208 0.130208 0.195313 0.195313 0.0651041 0.0976563 0.0325521 0.0651042 0.0976563 0.0976563 0.130208 0.130208 0.195312 0.195312 0.0651042 0.0976563 0.0325521 0.0651042 0.0976563 0.0976563 0.130208 0.130208 0.195313 0.195313 0.0651042 0.0976563 0.0325521 0.0651042 0.0976563 0.0976564 0.130209 0.130208 0.195313 0.195313 0.0651042 0.0976563 0.0325521 0.0651041 0.0976564 0.0976563 0.130208 0.130208 0.195313 0.195313 0.0651043 0.0976563 0.0325521 0.0651043 0.0976564 0.0976563 0.130208 0.130208 0.195312 0.195312 0.0651041 0.0976562 0.0325521 0.0651042 0.0976563 0.0976562 0.130208 0.130208 0.195312 0.195313 0.0651041 0.0976562 0.0325521 0.0651042 0.0976562 0.0976563 0.130208 0.130208 0.195313 0.195312 0.0651042 0.0976562 0.0325521 0.0651042 0.0976562 0.0976562 0.130208 0.130208 0.195312 0.195312 0.0651041 0.0976562 0.0325521 0.0651041 0.0976561 0.0976563 0.130208 0.130209 0.195313 0.195312 0.0651042 0.0976561 0.0325521 0.0651042 0.0976564 0.097656 0.130208 0.130208 0.195312 0.195312 0.0651039 0.0976561 0.032552 0.065104 0.0976559 0.0976562 0.130208 0.130209 0.195313 0.195313 0.0651042 0.0976564 0.0325522 0.0651043 0.0976564 0.0976563 0.130208 0.130208 0.195312 0.195312 0.0651042 0.0976561 0.0325521 0.0651039 0.0976563 0.0976562 0.130208 0.130208 0.195312 0.195313 0.0651043 0.0976563 0.0325522 0.0651041 0.0976565 0.0976563 0.130208 0.130209 0.195313 0.195312 0.0651044 0.0976562 0.0325522 0.0651042 0.0976566 0.0976561 0.130208 0.130209 0.195313 0.0976566 0.065104 0.0651043 0.0325521 0.0651043 0.0976562 0.0325522 0.0651044 0.130208 0.195312 0.195312 0.0651041 0.0976562 0.0976562 0.0651041 0.0976562 0.032552 0.130208 0.130208 0.195312 0.195312 0.0651041 0.0976562 0.0976562 0.130208 0.130208 0.195312 0.195312 0.0651041 0.0976562 0.0976562 0.130208 0.130208 0.195312 0.195312 0.0651041 0.0976562 0.0976562 0.130208 0.130208 0.195312 0.195312 0.0651041 0.0976562 0.0976562 0.130208 0.130208 0.195313 0.195312 0.0651041 0.0976562 0.0976562 0.130208 0.130208 0.195312 0.195312 0.0651041 0.0976562 0.0976562 0.130208 0.130208 0.195312 0.195312 0.0651041 0.0976562 0.0976561 0.130208 0.130208 0.195312 0.195312 0.0651041 0.0976562 0.0976562 0.130208 0.130208 0.195312 0.195312 0.0651041 0.0976562 0.0976562 0.130208 0.130208 0.195313 0.195313 0.0651041 0.0976563 0.0976562 0.130208 0.130208 0.195313 0.195312 0.0651041 0.0976562 0.0976563 0.130208 0.130208 0.195312 0.195313 0.0651041 0.0976562 0.0976562 0.130208 0.130208 0.195313 0.195312 0.0651042 0.0976563 0.0976562 0.130208 0.130208 0.195312 0.195312 0.0651041 0.0976562 0.0976561 0.130208 0.130208 0.195313 0.195313 0.0651041 0.0976562 0.0976562 0.130208 0.130208 0.195313 0.195313 0.0651041 0.0976563 0.0976563 0.130208 0.130208 0.195313 0.195312 0.0651042 0.0976563 0.0976563 0.130208 0.130208 0.195313 0.195313 0.0651042 0.0976564 0.0976563 0.130209 0.130208 0.195313 0.195313 0.0651042 0.0976563 0.0976564 0.130208 0.130208 0.195313 0.195313 0.0651043 0.0976563 0.0976564 0.130208 0.130208 0.195312 0.195312 0.0651042 0.0976562 0.0976563 0.130208 0.130208 0.195312 0.195313 0.0651041 0.0976563 0.0976562 0.130208 0.130208 0.195313 0.195312 0.0651042 0.0976562 0.0976562 0.130208 0.130208 0.195312 0.195312 0.0651041 0.0976562 0.0976561 0.130208 0.130209 0.195313 0.195312 0.0651042 0.0976561 0.0976564 0.130208 0.130208 0.195312 0.195312 0.0651039 0.0976561 0.0976559 0.130208 0.130209 0.195313 0.195313 0.0651042 0.0976564 0.0976564 0.130209 0.130208 0.195312 0.195312 0.0651042 0.0976561 0.0976563 0.130208 0.130208 0.195312 0.195313 0.0651043 0.0976563 0.0976565 0.130208 0.130209 0.195313 0.195312 0.0651044 0.0976562 0.0976566 0.130208 0.130209 0.195313 0.0976566 0.0651041 0.0651043 0.0976562 0.0651044 0.130208 0.195312 0.195312 0.0651041 0.0976562 0.0976562 0.0651041 0.0976562 0.032552 0.130208 0.130208 0.195312 0.195312 0.0651041 0.0976562 0.0976562 0.130208 0.130208 0.195312 0.195312 0.0651041 0.0976562 0.0976562 0.130208 0.130208 0.195312 0.195312 0.0651041 0.0976562 0.0976562 0.130208 0.130208 0.195312 0.195312 0.0651041 0.0976562 0.0976562 0.130208 0.130208 0.195313 0.195312 0.0651041 0.0976562 0.0976562 0.130208 0.130208 0.195312 0.195312 0.0651041 0.0976562 0.0976562 0.130208 0.130208 0.195312 0.195312 0.0651041 0.0976562 0.0976561 0.130208 0.130208 0.195312 0.195312 0.0651041 0.0976562 0.0976562 0.130208 0.130208 0.195312 0.195312 0.0651041 0.0976562 0.0976562 0.130208 0.130208 0.195313 0.195313 0.0651042 0.0976563 0.0976563 0.130208 0.130208 0.195313 0.195312 0.0651041 0.0976562 0.0976563 0.130208 0.130208 0.195312 0.195313 0.0651041 0.0976562 0.0976562 0.130208 0.130208 0.195312 0.195312 0.0651042 0.0976563 0.0976562 0.130208 0.130208 0.195312 0.195312 0.0651041 0.0976562 0.0976561 0.130208 0.130208 0.195313 0.195313 0.0651041 0.0976562 0.0976563 0.130208 0.130208 0.195313 0.195313 0.0651042 0.0976563 0.0976563 0.130208 0.130208 0.195313 0.195312 0.0651042 0.0976563 0.0976563 0.130208 0.130208 0.195313 0.195313 0.0651042 0.0976564 0.0976563 0.130209 0.130209 0.195313 0.195313 0.0651042 0.0976563 0.0976565 0.130208 0.130208 0.195313 0.195313 0.0651043 0.0976563 0.0976564 0.130208 0.130208 0.195312 0.195312 0.0651042 0.0976563 0.0976563 0.130208 0.130208 0.195312 0.195313 0.0651041 0.0976563 0.0976562 0.130208 0.130208 0.195313 0.195312 0.0651042 0.0976562 0.0976563 0.130208 0.130208 0.195312 0.195312 0.0651041 0.0976562 0.0976562 0.130208 0.130209 0.195313 0.195312 0.0651042 0.0976561 0.0976564 0.130208 0.130208 0.195312 0.195312 0.0651039 0.0976561 0.097656 0.130208 0.130209 0.195313 0.195313 0.0651042 0.0976564 0.0976564 0.130209 0.130208 0.195312 0.195312 0.0651042 0.0976561 0.0976563 0.130208 0.130208 0.195313 0.195313 0.0651043 0.0976563 0.0976565 0.130208 0.130209 0.195313 0.195312 0.0651044 0.0976562 0.0976566 0.130208 0.130209 0.195313 0.0976566 0.065104 0.0651043 0.0976562 0.0651044 0.130208 0.195312 0.195312 0.0651041 0.0976562 0.0976562 0.0651041 0.0976562 0.032552 0.130208 0.130208 0.195312 0.195312 0.0651041 0.0976562 0.0976562 0.130208 0.130208 0.195312 0.195312 0.0651041 0.0976562 0.0976562 0.130208 0.130208 0.195312 0.195312 0.0651041 0.0976562 0.0976562 0.130208 0.130208 0.195312 0.195312 0.0651041 0.0976562 0.0976562 0.130208 0.130208 0.195312 0.195312 0.0651041 0.0976562 0.0976562 0.130208 0.130208 0.195312 0.195312 0.0651041 0.0976562 0.0976562 0.130208 0.130208 0.195312 0.195312 0.065104 0.0976562 0.0976561 0.130208 0.130208 0.195312 0.195312 0.0651041 0.0976561 0.0976562 0.130208 0.130208 0.195312 0.195312 0.0651041 0.0976562 0.0976562 0.130208 0.130208 0.195313 0.195313 0.0651041 0.0976562 0.0976562 0.130208 0.130208 0.195313 0.195312 0.0651041 0.0976562 0.0976562 0.130208 0.130208 0.195312 0.195312 0.0651041 0.0976562 0.0976562 0.130208 0.130208 0.195312 0.195312 0.0651041 0.0976562 0.0976562 0.130208 0.130208 0.195312 0.195312 0.0651041 0.0976562 0.0976561 0.130208 0.130208 0.195313 0.195313 0.0651041 0.0976562 0.0976562 0.130208 0.130208 0.195313 0.195313 0.0651041 0.0976563 0.0976563 0.130208 0.130208 0.195312 0.195312 0.0651042 0.0976563 0.0976563 0.130208 0.130208 0.195313 0.195313 0.0651042 0.0976563 0.0976563 0.130209 0.130208 0.195313 0.195312 0.0651042 0.0976563 0.0976564 0.130208 0.130208 0.195313 0.195313 0.0651043 0.0976563 0.0976564 0.130208 0.130208 0.195312 0.195312 0.0651041 0.0976562 0.0976562 0.130208 0.130208 0.195312 0.195313 0.0651041 0.0976562 0.0976561 0.130208 0.130208 0.195313 0.195312 0.0651042 0.0976562 0.0976562 0.130208 0.130208 0.195312 0.195312 0.0651041 0.0976562 0.0976561 0.130208 0.130209 0.195313 0.195312 0.0651042 0.0976561 0.0976564 0.130208 0.130208 0.195312 0.195312 0.0651039 0.0976561 0.0976559 0.130208 0.130209 0.195313 0.195313 0.0651042 0.0976564 0.0976564 0.130208 0.130208 0.195312 0.195312 0.0651042 0.0976561 0.0976563 0.130208 0.130208 0.195312 0.195313 0.0651043 0.0976563 0.0976564 0.130208 0.130209 0.195313 0.195312 0.0651044 0.0976562 0.0976565 0.130208 0.130209 0.195313 0.0976566 0.065104 0.0651043 0.0976562 0.0651044 0.130208 0.195312 0.195312 0.0651041 0.0976562 0.0976562 0.0651041 0.0976562 0.032552 0.130208 0.130208 0.195312 0.195312 0.0651041 0.0976562 0.0976562 0.130208 0.130208 0.195312 0.195312 0.0651041 0.0976562 0.0976562 0.130208 0.130208 0.195312 0.195312 0.0651041 0.0976562 0.0976562 0.130208 0.130208 0.195312 0.195312 0.0651041 0.0976562 0.0976562 0.130208 0.130208 0.195313 0.195312 0.0651041 0.0976562 0.0976562 0.130208 0.130208 0.195312 0.195312 0.0651041 0.0976562 0.0976562 0.130208 0.130208 0.195312 0.195312 0.065104 0.0976562 0.0976561 0.130208 0.130208 0.195312 0.195312 0.0651041 0.0976561 0.0976562 0.130208 0.130208 0.195312 0.195312 0.0651041 0.0976562 0.0976562 0.130208 0.130208 0.195313 0.195313 0.0651041 0.0976562 0.0976562 0.130208 0.130208 0.195313 0.195312 0.0651041 0.0976562 0.0976563 0.130208 0.130208 0.195312 0.195313 0.0651041 0.0976562 0.0976562 0.130208 0.130208 0.195312 0.195312 0.0651041 0.0976562 0.0976562 0.130208 0.130208 0.195312 0.195313 0.0651041 0.0976562 0.0976561 0.130208 0.130208 0.195313 0.195313 0.0651041 0.0976562 0.0976562 0.130208 0.130209 0.195313 0.195313 0.0651041 0.0976563 0.0976563 0.130208 0.130208 0.195312 0.195312 0.0651042 0.0976563 0.0976563 0.130208 0.130208 0.195313 0.195313 0.0651042 0.0976563 0.0976563 0.130209 0.130209 0.195313 0.195313 0.0651042 0.0976563 0.0976565 0.130208 0.130208 0.195313 0.195313 0.0651043 0.0976563 0.0976564 0.130208 0.130208 0.195312 0.195312 0.0651041 0.0976562 0.0976563 0.130208 0.130208 0.195312 0.195313 0.0651041 0.0976562 0.0976562 0.130208 0.130208 0.195313 0.195312 0.0651042 0.0976562 0.0976563 0.130208 0.130208 0.195312 0.195313 0.0651041 0.0976562 0.0976562 0.130208 0.130209 0.195313 0.195312 0.0651042 0.0976561 0.0976564 0.130208 0.130208 0.195312 0.195313 0.0651039 0.0976561 0.0976559 0.130208 0.130209 0.195313 0.195313 0.0651042 0.0976564 0.0976564 0.130208 0.130208 0.195312 0.195312 0.0651042 0.0976561 0.0976563 0.130208 0.130208 0.195312 0.195313 0.0651043 0.0976563 0.0976565 0.130208 0.130209 0.195313 0.195312 0.0651044 0.0976562 0.0976566 0.130208 0.130209 0.195313 0.0976566 0.065104 0.0651043 0.0976562 0.0651044 0.130208 0.195313 0.195313 0.0651041 0.0976562 0.0976562 0.0651042 0.0976562 0.0325521 0.130208 0.130208 0.195313 0.195313 0.0651041 0.0976562 0.0976562 0.130208 0.130208 0.195313 0.195312 0.0651041 0.0976562 0.0976562 0.130208 0.130208 0.195313 0.195312 0.0651041 0.0976562 0.0976562 0.130208 0.130208 0.195313 0.195313 0.0651041 0.0976562 0.0976562 0.130208 0.130208 0.195313 0.195312 0.0651042 0.0976563 0.0976562 0.130208 0.130208 0.195313 0.195312 0.0651041 0.0976562 0.0976562 0.130208 0.130208 0.195312 0.195312 0.0651041 0.0976562 0.0976561 0.130208 0.130208 0.195312 0.195312 0.0651041 0.0976562 0.0976562 0.130208 0.130208 0.195312 0.195313 0.0651041 0.0976562 0.0976562 0.130208 0.130208 0.195313 0.195313 0.0651042 0.0976563 0.0976563 0.130208 0.130208 0.195313 0.195312 0.0651042 0.0976562 0.0976563 0.130208 0.130208 0.195313 0.195313 0.0651041 0.0976562 0.0976562 0.130208 0.130208 0.195313 0.195312 0.0651042 0.0976563 0.0976562 0.130208 0.130208 0.195312 0.195312 0.0651041 0.0976562 0.0976561 0.130208 0.130208 0.195313 0.195313 0.0651041 0.0976562 0.0976563 0.130208 0.130208 0.195313 0.195313 0.0651042 0.0976563 0.0976563 0.130208 0.130208 0.195313 0.195312 0.0651042 0.0976563 0.0976564 0.130208 0.130208 0.195313 0.195313 0.0651042 0.0976564 0.0976563 0.130209 0.130209 0.195313 0.195313 0.0651043 0.0976563 0.0976565 0.130208 0.130208 0.195313 0.195313 0.0651043 0.0976563 0.0976564 0.130209 0.130208 0.195313 0.195312 0.0651042 0.0976563 0.0976563 0.130208 0.130208 0.195313 0.195313 0.0651042 0.0976563 0.0976562 0.130208 0.130208 0.195313 0.195312 0.0651042 0.0976563 0.0976563 0.130208 0.130208 0.195312 0.195313 0.0651041 0.0976563 0.0976562 0.130208 0.130209 0.195313 0.195312 0.0651042 0.0976561 0.0976564 0.130208 0.130208 0.195312 0.195312 0.065104 0.0976561 0.097656 0.130208 0.130209 0.195313 0.195313 0.0651043 0.0976564 0.0976564 0.130209 0.130208 0.195312 0.195312 0.0651042 0.0976562 0.0976563 0.130208 0.130208 0.195313 0.195313 0.0651044 0.0976563 0.0976565 0.130208 0.130209 0.195313 0.195312 0.0651044 0.0976562 0.0976566 0.130208 0.130209 0.195313 0.0976566 0.0651041 0.0651043 0.0976562 0.0651044 0.130208 0.195312 0.195312 0.0651041 0.0976562 0.0976561 0.0651041 0.0976562 0.032552 0.130208 0.130208 0.195312 0.195312 0.0651041 0.0976562 0.0976562 0.130208 0.130208 0.195312 0.195312 0.0651041 0.0976562 0.0976562 0.130208 0.130208 0.195312 0.195312 0.0651041 0.0976562 0.0976562 0.130208 0.130208 0.195312 0.195312 0.0651041 0.0976562 0.0976562 0.130208 0.130208 0.195313 0.195312 0.0651041 0.0976562 0.0976562 0.130208 0.130208 0.195312 0.195312 0.0651041 0.0976562 0.0976561 0.130208 0.130208 0.195312 0.195312 0.065104 0.0976561 0.0976561 0.130208 0.130208 0.195312 0.195312 0.0651041 0.0976561 0.0976562 0.130208 0.130208 0.195312 0.195312 0.0651041 0.0976562 0.0976562 0.130208 0.130208 0.195313 0.195313 0.0651041 0.0976562 0.0976562 0.130208 0.130208 0.195313 0.195312 0.0651041 0.0976562 0.0976562 0.130208 0.130208 0.195312 0.195312 0.0651041 0.0976562 0.0976562 0.130208 0.130208 0.195313 0.195312 0.0651041 0.0976562 0.0976562 0.130208 0.130208 0.195312 0.195312 0.0651041 0.0976562 0.0976561 0.130208 0.130208 0.195313 0.195313 0.0651041 0.0976562 0.0976562 0.130208 0.130208 0.195313 0.195313 0.0651041 0.0976563 0.0976563 0.130208 0.130208 0.195313 0.195312 0.0651042 0.0976563 0.0976563 0.130208 0.130208 0.195313 0.195313 0.0651042 0.0976563 0.0976562 0.130209 0.130208 0.195313 0.195312 0.0651042 0.0976563 0.0976564 0.130208 0.130208 0.195313 0.195313 0.0651042 0.0976563 0.0976563 0.130208 0.130208 0.195312 0.195312 0.0651041 0.0976562 0.0976562 0.130208 0.130208 0.195312 0.195313 0.0651041 0.0976562 0.0976561 0.130208 0.130208 0.195313 0.195312 0.0651042 0.0976562 0.0976562 0.130208 0.130208 0.195312 0.195312 0.0651041 0.0976562 0.0976561 0.130208 0.130208 0.195313 0.195312 0.0651042 0.0976561 0.0976564 0.130208 0.130208 0.195312 0.195312 0.0651039 0.0976561 0.0976559 0.130208 0.130209 0.195313 0.195313 0.0651042 0.0976564 0.0976564 0.130209 0.130208 0.195312 0.195312 0.0651041 0.0976561 0.0976563 0.130208 0.130208 0.195313 0.195313 0.0651043 0.0976563 0.0976564 0.130208 0.130209 0.195313 0.195312 0.0651043 0.0976562 0.0976565 0.130208 0.130209 0.195313 0.0976566 0.065104 0.0651042 0.0976562 0.0651044 0.0651042 0.195312 0.0976562 0.065104 0.0976561 0.0325521 0.0651041 0.0651041 0.032552 0.130208 0.0651042 0.195312 0.0976562 0.0651041 0.0976561 0.0651041 0.130208 0.0651042 0.195312 0.0976562 0.0651041 0.0976562 0.0651041 0.130208 0.0651042 0.195312 0.0976562 0.0651041 0.0976561 0.0651041 0.130208 0.0651042 0.195312 0.0976562 0.065104 0.0976561 0.0651041 0.130208 0.0651042 0.195312 0.0976562 0.0651041 0.0976562 0.0651041 0.130208 0.0651042 0.195312 0.0976562 0.0651041 0.0976561 0.0651041 0.130208 0.0651042 0.195312 0.0976563 0.065104 0.0976561 0.065104 0.130208 0.0651042 0.195312 0.0976562 0.065104 0.0976561 0.0651041 0.130208 0.0651042 0.195312 0.0976562 0.0651041 0.0976561 0.0651041 0.130208 0.0651042 0.195312 0.0976563 0.0651041 0.0976562 0.0651041 0.130208 0.0651043 0.195312 0.0976563 0.0651041 0.0976561 0.0651042 0.130208 0.0651042 0.195312 0.0976562 0.065104 0.0976561 0.0651041 0.130208 0.0651042 0.195312 0.0976562 0.0651041 0.0976562 0.0651041 0.130208 0.0651041 0.195312 0.0976562 0.065104 0.0976561 0.0651041 0.130208 0.0651043 0.195312 0.0976564 0.0651041 0.0976561 0.0651041 0.130208 0.0651043 0.195313 0.0976564 0.0651041 0.0976562 0.0651042 0.130208 0.0651042 0.195312 0.0976562 0.0651041 0.0976562 0.0651042 0.130208 0.0651042 0.195313 0.0976564 0.0651042 0.0976563 0.0651041 0.130209 0.0651044 0.195313 0.0976562 0.0651042 0.0976562 0.0651043 0.130208 0.0651042 0.195313 0.0976563 0.0651042 0.0976562 0.0651042 0.130208 0.0651042 0.195312 0.0976561 0.0651041 0.0976562 0.0651041 0.130208 0.0651041 0.195312 0.0976563 0.0651041 0.0976562 0.065104 0.130208 0.0651042 0.195312 0.0976563 0.0651041 0.0976562 0.0651041 0.130208 0.0651041 0.195312 0.0976562 0.065104 0.0976562 0.0651041 0.130208 0.0651044 0.195313 0.0976562 0.0651042 0.097656 0.0651043 0.130208 0.065104 0.195312 0.0976562 0.0651039 0.097656 0.0651039 0.130208 0.0651044 0.195313 0.0976565 0.0651042 0.0976563 0.0651042 0.130208 0.0651043 0.195312 0.0976561 0.0651041 0.0976561 0.0651042 0.130208 0.0651042 0.195312 0.0976563 0.0651043 0.0976562 0.0651043 0.130208 0.0651044 0.195313 0.0976563 0.0651043 0.0976561 0.0651044 0.130208 0.0651044 0.195313 0.0651043 0.065104 0.0651042 0.0651042 0.0651044 
VECTORS u float
0 0 0  -0.00594114 -0.00343342 -0.00618798  -0.0099203 -0.00555868 -0.0080893  -0.0139741 -0.00900507 -0.00867248  -0.0180982 -0.0137682 -0.00863862  -0.0221763 -0.0196955 -0.00833595  -0.0261375 -0.026647 -0.00793469  -0.0299329 -0.0345088 -0.00751567  -0.0335467 -0.0431927 -0.00711787  -0.0369667 -0.052624 -0.00675488  -0.0401984 -0.0627395 -0.00643593  -0.0432391 -0.0734746 -0.00615799  -0.0460973 -0.0847752 -0.00592065  -0.0487829 -0.0965875 -0.00572228  -0.0512987 -0.108858 -0.00556028  -0.0536497 -0.121537 -0.0054335  -0.0558528 -0.134578 -0.00533944  -0.0579059 -0.147935 -0.00527912  -0.0598226 -0.161567 -0.00524896  -0.0616024 -0.175433 -0.00524753  -0.0632637 -0.189497 -0.00527549  -0.0648055 -0.203721 -0.00532919  -0.0662403 -0.218076 -0.00540894  -0.067575 -0.23253 -0.00551653  -0.068814 -0.247057 -0.00564784  -0.0699675 -0.261634 -0.00580215  -0.0710511 -0.276239 -0.00598091  -0.0720661 -0.29085 -0.00618261  -0.0730245 -0.305453 -0.00640696  -0.0739324 -0.320035 -0.00665641  -0.0748074 -0.334583 -0.00692099  -0.0756562 -0.349092 -0.00720465  -0.0764902 -0.363568 -0.00749403  0 0 0  -0.00357841 -0.0012669 -0.00474095  -0.00671516 -0.0036604 -0.00612622  -0.00979269 -0.00725449 -0.00651473  -0.012861 -0.0121311 -0.00651503  -0.0159121 -0.0181813 -0.0063315  -0.0189111 -0.0252721 -0.00607735  -0.0218237 -0.0332868 -0.00580919  -0.0246279 -0.0421277 -0.00555396  -0.027315 -0.0517191 -0.00532913  -0.029876 -0.0619906 -0.00513768  -0.0323138 -0.0728804 -0.00498211  -0.034628 -0.0843283 -0.00485915  -0.0368242 -0.0962801 -0.00476819  -0.0389038 -0.108682 -0.00470817  -0.0408729 -0.121485 -0.00467753  -0.0427359 -0.13464 -0.00467259  -0.0444953 -0.148104 -0.00469738  -0.0461609 -0.161834 -0.00474441  -0.04773 -0.175789 -0.00481445  -0.0492103 -0.189931 -0.00491011  -0.0506077 -0.204229 -0.00502598  -0.051924 -0.218647 -0.00516111  -0.0531704 -0.233159 -0.00531936  -0.0543468 -0.247733 -0.00549442  -0.0554614 -0.262352 -0.00568938  -0.056519 -0.276991 -0.0059039  -0.0575264 -0.291628 -0.0061332  -0.0584877 -0.306254 -0.00637835  -0.0594125 -0.320849 -0.00664127  -0.0603046 -0.33541 -0.00691599  -0.0611687 -0.349924 -0.00719774  -0.0620189 -0.364399 -0.0074842  0 0 0  -0.00218122 -3.18885e-06 -0.00331688  -0.00410141 -0.00226556 -0.00421053  -0.00615487 -0.0059761 -0.00444001  -0.00824293 -0.0109711 -0.00444102  -0.0103233 -0.0171308 -0.00434804  -0.0123818 -0.0243292 -0.00422204  -0.0144055 -0.0324571 -0.0040918  -0.0163829 -0.0414191 -0.00397789  -0.0183064 -0.0511336 -0.00388795  -0.02017 -0.0615261 -0.00382441  -0.0219715 -0.0725375 -0.00378847  -0.0237099 -0.0841005 -0.00377959  -0.0253872 -0.0961633 -0.00379753  -0.027002 -0.108672 -0.00383836  -0.0285578 -0.121575 -0.00390339  -0.0300533 -0.134822 -0.00399071  -0.0314913 -0.148374 -0.00409788  -0.0328739 -0.162181 -0.00422198  -0.0341995 -0.17621 -0.00436741  -0.0354757 -0.190419 -0.00452846  -0.0366998 -0.204774 -0.00470686  -0.0378752 -0.219245 -0.00489897  -0.039005 -0.233802 -0.00510758  -0.040087 -0.248417 -0.0053277  -0.0411332 -0.26307 -0.00556314  -0.0421398 -0.277735 -0.00580841  -0.0431128 -0.292399 -0.00606853  -0.04405 -0.307041 -0.00633681  -0.0449643 -0.321655 -0.00661588  -0.0458488 -0.336227 -0.00690025  -0.0467119 -0.350751 -0.00719064  -0.047559 -0.365214 -0.00747758  0 0 0  -0.00105206 0.000567436 -0.00170422  -0.00195344 -0.00146556 -0.00220293  -0.00296876 -0.00520948 -0.00233829  -0.00404546 -0.0103005 -0.00236815  -0.0051474 -0.016552 -0.00236738  -0.00626546 -0.0238357 -0.00236499  -0.00739783 -0.0320474 -0.00237143  -0.00853884 -0.0410945 -0.00239265  -0.00968778 -0.0508955 -0.00243455  -0.0108384 -0.0613785 -0.00249863  -0.0119882 -0.0724759 -0.00258309  -0.0131342 -0.0841287 -0.0026896  -0.0142715 -0.0962743 -0.00281334  -0.0154039 -0.108863 -0.00295663  -0.0165261 -0.12184 -0.00311828  -0.0176351 -0.135159 -0.00329447  -0.0187333 -0.148777 -0.00348532  -0.0198176 -0.162645 -0.00369036  -0.0208848 -0.176728 -0.00390899  -0.0219357 -0.190985 -0.00413716  -0.0229685 -0.205386 -0.00437635  -0.0239842 -0.219898 -0.00462765  -0.0249791 -0.234487 -0.00488275  -0.0259571 -0.249134 -0.00515264  -0.0269144 -0.263811 -0.005427  -0.027853 -0.278498 -0.00570798  -0.0287743 -0.293178 -0.00599253  -0.0296788 -0.307837 -0.00628746  -0.030566 -0.322462 -0.00658566  -0.0314376 -0.337045 -0.0068844  -0.0322909 -0.351575 -0.00718582  -0.0331347 -0.366031 -0.00748295  0 0 0  -2.86251e-05 0.000704169 -3.92199e-05  -2.06232e-05 -0.00125799 -0.000127971  -2.47359e-05 -0.00501889 -0.000195503  -7.70986e-05 -0.0101598 -0.000278711  -0.000186801 -0.0164663 -0.000382245  -0.000360966 -0.0238024 -0.000504553  -0.000597 -0.032065 -0.000643373  -0.000901759 -0.0411656 -0.000799656  -0.00127113 -0.0510226 -0.000972629  -0.00170231 -0.0615638 -0.0011636  -0.00219035 -0.0727193 -0.00136727  -0.00273371 -0.0844283 -0.00158781  -0.00332856 -0.0966326 -0.00182182  -0.00396526 -0.109276 -0.00206667  -0.00464642 -0.122303 -0.00232279  -0.00536251 -0.135671 -0.00259197  -0.00610805 -0.149331 -0.00286496  -0.00688553 -0.163242 -0.00315154  -0.00768423 -0.177362 -0.00344324  -0.00850224 -0.191654 -0.00373864  -0.00933671 -0.206082 -0.00404155  -0.01018 -0.220619 -0.0043487  -0.0110354 -0.235234 -0.00465822  -0.0118947 -0.249899 -0.00497049  -0.0127542 -0.26459 -0.00528526  -0.0136197 -0.279293 -0.00560123  -0.0144827 -0.293985 -0.00591731  -0.015341 -0.308652 -0.00623298  -0.0161965 -0.323282 -0.00655234  -0.0170493 -0.337871 -0.0068692  -0.017895 -0.352402 -0.00718552  -0.0187356 -0.366857 -0.00749868  0 0 0  0.000980094 0.000483215 0.00162226  0.00190884 -0.00160724 0.00194317  0.00290731 -0.00541204 0.00194114  0.0038743 -0.010567 0.00180519  0.0047524 -0.0168828 0.00160098  0.00552344 -0.0242351 0.00135618  0.00617743 -0.0325166 0.00108516  0.00670946 -0.0416391 0.000795186  0.00711846 -0.0515233 0.000493526  0.00740719 -0.0620919 0.000178695  0.00757837 -0.0732783 -0.000147283  0.00763798 -0.0850167 -0.000480115  0.00759137 -0.0972505 -0.000823498  0.0074476 -0.109921 -0.00117153  0.00721192 -0.122977 -0.00152475  0.00689363 -0.13637 -0.00188106  0.00649714 -0.150055 -0.00224453  0.00603175 -0.163986 -0.00260663  0.00550365 -0.178125 -0.00297213  0.0049212 -0.192432 -0.00333923  0.00428843 -0.206877 -0.00370401  0.00361323 -0.221425 -0.00406647  0.00290465 -0.236048 -0.00443077  0.00216317 -0.250722 -0.00478572  0.00139594 -0.265421 -0.00514346  0.000609875 -0.280128 -0.00549167  -0.00019455 -0.294823 -0.00584072  -0.00100756 -0.309488 -0.00618088  -0.00183129 -0.324121 -0.00651819  -0.00266504 -0.338707 -0.00685191  -0.00349927 -0.353238 -0.00718129  -0.00433469 -0.367698 -0.00751477  0 0 0  0.00208086 -0.000140548 0.00322998  0.00403276 -0.002518 0.00393993  0.00604782 -0.00636888 0.00402904  0.00801361 -0.0115018 0.00386256  0.00986612 -0.0177922 0.00357193  0.0115711 -0.0251257 0.00321144  0.0131099 -0.0333978 0.00281239  0.0144715 -0.0425171 0.00239307  0.0156513 -0.0523987 0.00196058  0.0166502 -0.062968 0.00152004  0.0174744 -0.0741575 0.00107419  0.0181304 -0.0859004 0.000625789  0.0186263 -0.0981356 0.000177205  0.0189706 -0.110811 -0.00027436  0.019172 -0.123872 -0.000723004  0.0192449 -0.137269 -0.00117439  0.0191975 -0.150955 -0.00162005  0.0190353 -0.164887 -0.00206339  0.0187712 -0.179024 -0.00250548  0.0184171 -0.193332 -0.00293922  0.0179822 -0.207774 -0.00336516  0.0174723 -0.222319 -0.00378937  0.0168984 -0.236939 -0.00420135  0.0162723 -0.251607 -0.0046069  0.0155938 -0.266301 -0.00500351  0.014878 -0.281001 -0.00538784  0.0141292 -0.295689 -0.00576633  0.0133536 -0.310352 -0.00613016  0.0125573 -0.324977 -0.00648898  0.0117424 -0.339555 -0.00683236  0.0109153 -0.354084 -0.00717711  0.0100822 -0.368551 -0.00752211  0 0 0  0.00348257 -0.00133878 0.00471234  0.0065549 -0.0039959 0.00582838  0.00957119 -0.00783277 0.00606459  0.0125206 -0.0129155 0.00590181  0.0153376 -0.0191638 0.00553608  0.017969 -0.0264625 0.00506103  0.0203849 -0.0347049 0.00453615  0.0225645 -0.0437962 0.00398314  0.0245047 -0.053651 0.00342274  0.0262045 -0.0641956 0.00285691  0.0276699 -0.0753591 0.00229394  0.0289078 -0.0870804 0.00173151  0.0299304 -0.0992959 0.00117165  0.0307479 -0.111949 0.000619352  0.0313755 -0.12499 7.36117e-05  0.0318236 -0.138367 -0.000468373  0.0321064 -0.152033 -0.00100082  0.0322363 -0.165947 -0.00152576  0.0322268 -0.180066 -0.00204062  0.0320885 -0.194353 -0.00254261  0.0318339 -0.208775 -0.00303519  0.0314739 -0.223303 -0.00351518  0.0310264 -0.237902 -0.00397944  0.0304949 -0.252557 -0.00443333  0.0298958 -0.26723 -0.00486678  0.0292351 -0.281916 -0.00529045  0.0285263 -0.296588 -0.00569671  0.0277791 -0.311236 -0.0060873  0.0269949 -0.325849 -0.00645906  0.0261889 -0.340415 -0.00681704  0.0253649 -0.354933 -0.00716621  0.0245323 -0.369415 -0.00751573  0 0 0  0.00528957 -0.00344414 0.00596446  0.00942853 -0.00599778 0.00775963  0.0135144 -0.00973934 0.00816357  0.0175328 -0.0147774 0.00797689  0.0213665 -0.0209869 0.00751138  0.0249444 -0.0282419 0.00691062  0.0282362 -0.0364381 0.00625038  0.0312278 -0.0454756 0.00556731  0.0339094 -0.0552796 0.00487322  0.0362881 -0.0657727 0.00418514  0.0383698 -0.0768877 0.0035032  0.0401682 -0.0885587 0.00282848  0.0416931 -0.100728 0.00216073  0.0429642 -0.113337 0.0015046  0.0439929 -0.126334 0.000861168  0.044796 -0.13967 0.000227928  0.0453863 -0.153293 -0.000391424  0.0457838 -0.167166 -0.000997484  0.0459995 -0.181245 -0.00158513  0.0460522 -0.195497 -0.00215715  0.0459559 -0.209883 -0.00271291  0.0457292 -0.22437 -0.00324804  0.0453727 -0.238939 -0.00376892  0.0449185 -0.253561 -0.00426823  0.0443676 -0.268206 -0.00474769  0.043741 -0.282862 -0.00520426  0.0430441 -0.297509 -0.00563902  0.0422983 -0.312134 -0.00604898  0.041503 -0.326728 -0.00644243  0.0406854 -0.34128 -0.00680786  0.0398481 -0.355783 -0.00715441  0.0390086 -0.370264 -0.0074954  0 0 0  -0.00444584 -0.0049238 -0.00391352  -0.00899926 -0.00755236 -0.00580019  -0.0136037 -0.0110076 -0.00646144  -0.0180651 -0.0156692 -0.00654054  -0.0223247 -0.0214609 -0.00636572  -0.0263669 -0.0282682 -0.00609565  -0.0301905 -0.0359914 -0.00581032  -0.0337984 -0.0445453 -0.00554353  -0.0371982 -0.0538572 -0.00530952  -0.0403981 -0.0638572 -0.00511438  -0.0434086 -0.074491 -0.00495577  -0.0462334 -0.0856929 -0.00483239  -0.0488861 -0.0974132 -0.00474191  -0.0513687 -0.109596 -0.00468296  -0.053691 -0.122196 -0.00465477  -0.0558573 -0.135161 -0.00465286  -0.0578864 -0.148449 -0.0046773  -0.0597715 -0.162014 -0.00472671  -0.0615282 -0.175819 -0.004798  -0.0631607 -0.189828 -0.00489587  -0.0646808 -0.204002 -0.00501186  -0.0660911 -0.218311 -0.00515205  -0.0674031 -0.232723 -0.00530887  -0.0686231 -0.247215 -0.00548667  -0.0697601 -0.261758 -0.00568312  -0.0708244 -0.276336 -0.00589818  -0.0718241 -0.290925 -0.00612915  -0.0727665 -0.305512 -0.00637549  -0.0736673 -0.32008 -0.00664419  -0.0745282 -0.334622 -0.00692159  -0.0753732 -0.349132 -0.00720948  -0.0762143 -0.363616 -0.00749904  0 0 0  -0.00221249 -0.00240826 -0.00301462  -0.00593038 -0.00523963 -0.00438035  -0.00952467 -0.00901574 -0.00487685  -0.0128809 -0.0139091 -0.00496507  -0.0160785 -0.0198903 -0.00486797  -0.0191409 -0.0268732 -0.00470251  -0.0220714 -0.0347668 -0.00452662  -0.0248683 -0.0434891 -0.00436747  -0.0275317 -0.052964 -0.00423616  -0.0300643 -0.0631258 -0.00413787  -0.0324696 -0.0739117 -0.0040707  -0.0347513 -0.0852619 -0.00403291  -0.0369152 -0.0971215 -0.00402427  -0.0389628 -0.109438 -0.00404239  -0.0409018 -0.122159 -0.00408351  -0.0427345 -0.13524 -0.00414878  -0.0444667 -0.148631 -0.00423574  -0.046102 -0.162295 -0.00434482  -0.0476449 -0.176189 -0.00447112  -0.0491042 -0.190276 -0.00461709  -0.0504773 -0.204523 -0.00478089  -0.0517721 -0.218893 -0.00496119  -0.0529978 -0.233363 -0.0051561  -0.0541523 -0.247901 -0.0053671  -0.0552492 -0.262488 -0.00559366  -0.0562897 -0.277098 -0.00583118  -0.057281 -0.291714 -0.00608414  -0.0582283 -0.30632 -0.00634891  -0.0591404 -0.320904 -0.00662553  -0.0600231 -0.335456 -0.00690973  -0.0608842 -0.349968 -0.00720078  -0.0617368 -0.364445 -0.00749439  0 0 0  -0.00128412 -0.000981137 -0.00212777  -0.00355534 -0.00373663 -0.0030368  -0.00596049 -0.0076497 -0.00334847  -0.00824761 -0.0126919 -0.00341529  -0.0104278 -0.0188095 -0.00337833  -0.0125295 -0.025923 -0.00330812  -0.014563 -0.0339446 -0.00323647  -0.0165326 -0.0427936 -0.00318414  -0.0184362 -0.0523942 -0.00315571  -0.020274 -0.0626813 -0.00315338  -0.0220482 -0.0735879 -0.00317615  -0.0237591 -0.0850552 -0.00322551  -0.0254065 -0.0970258 -0.00329745  -0.026994 -0.109447 -0.00339109  -0.0285225 -0.122268 -0.00350463  -0.0299929 -0.135441 -0.00363767  -0.0314074 -0.148917 -0.00378704  -0.0327661 -0.162662 -0.0039537  -0.0340719 -0.176627 -0.00413585  -0.035326 -0.190781 -0.00433266  -0.0365305 -0.205082 -0.00454259  -0.0376875 -0.219508 -0.00476277  -0.0387969 -0.23402 -0.004996  -0.0398684 -0.248599 -0.00524253  -0.0408959 -0.263217 -0.00549638  -0.041889 -0.277855 -0.00576007  -0.0428481 -0.292493 -0.00603378  -0.0437779 -0.307119 -0.00631541  -0.0446818 -0.321717 -0.00660342  -0.0455635 -0.336277 -0.00689667  -0.0464258 -0.350795 -0.0071938  -0.0472779 -0.365263 -0.00748974  0 0 0  -0.000611432 -0.00041008 -0.00110871  -0.00168152 -0.0029093 -0.00159311  -0.00286928 -0.00685889 -0.00177711  -0.00404149 -0.0120021 -0.0018487  -0.00518882 -0.0182213 -0.00187862  -0.00632471 -0.0254285 -0.00190353  -0.00745624 -0.0335403 -0.0019384  -0.0085867 -0.0424796 -0.00199074  -0.0097177 -0.0521723 -0.00206393  -0.0108465 -0.0625497 -0.00215775  -0.0119728 -0.073545 -0.00227398  -0.0130944 -0.0850985 -0.00240833  -0.0142111 -0.0971534 -0.00256145  -0.0153191 -0.109654 -0.00273186  -0.0164207 -0.122551 -0.00291765  -0.0175098 -0.135792 -0.00311768  -0.0185864 -0.149336 -0.00333124  -0.0196521 -0.163138 -0.00355613  -0.0207028 -0.177159 -0.00379241  -0.0217369 -0.191359 -0.00404072  -0.0227568 -0.205707 -0.00429589  -0.023756 -0.220169 -0.00455993  -0.0247397 -0.234718 -0.00483191  -0.0257039 -0.249324 -0.00511032  -0.0266511 -0.263968 -0.00539476  -0.02758 -0.278626 -0.00568396  -0.0284946 -0.293282 -0.00597918  -0.0293908 -0.307921 -0.0062775  -0.0302722 -0.32253 -0.00658059  -0.0311403 -0.337098 -0.00688356  -0.0319941 -0.351619 -0.0071882  -0.0328417 -0.366078 -0.00749141  0 0 0  -4.43757e-05 -0.000281364 -4.20213e-05  -1.63168e-05 -0.0026994 -8.75592e-05  -1.82986e-05 -0.00666511 -0.000160336  -6.77109e-05 -0.0118602 -0.000255704  -0.000169992 -0.0181358 -0.000365555  -0.000331998 -0.0253985 -0.000490367  -0.000557244 -0.0335661 -0.00063169  -0.00084573 -0.042562 -0.000790298  -0.00119817 -0.0523125 -0.000964224  -0.00161111 -0.0627476 -0.00115573  -0.00208116 -0.0738024 -0.00136232  -0.00260592 -0.0854143 -0.0015834  -0.00318062 -0.0975251 -0.00181699  -0.00380111 -0.11008 -0.0020647  -0.00446308 -0.123027 -0.00232244  -0.00516284 -0.136317 -0.00259006  -0.00589728 -0.149905 -0.00286776  -0.00665665 -0.163746 -0.00315225  -0.00744224 -0.177803 -0.00344509  -0.00824976 -0.192037 -0.0037424  -0.00907135 -0.206413 -0.00404525  -0.00990772 -0.220901 -0.00435257  -0.0107515 -0.235471 -0.00466102  -0.0116057 -0.250097 -0.00497448  -0.0124626 -0.264756 -0.00528926  -0.0133212 -0.279426 -0.00560486  -0.0141768 -0.294093 -0.0059222  -0.0150361 -0.308738 -0.00623751  -0.0158887 -0.323353 -0.00655538  -0.0167394 -0.337926 -0.0068714  -0.0175838 -0.352448 -0.00718558  -0.0184236 -0.366904 -0.00749868  0 0 0  0.000515863 -0.000504971 0.00101984  0.00164878 -0.00304449 0.00141501  0.00282273 -0.00705868 0.00145096  0.00388908 -0.0122708 0.00133371  0.00482738 -0.0185592 0.00114596  0.00563532 -0.0258378 0.00092268  0.00631416 -0.0340257 0.000677288  0.00686586 -0.0430452 0.000415742  0.00729156 -0.0528234 0.000139952  0.0075947 -0.0632873 -0.000147462  0.00778115 -0.074372 -0.000445366  0.00785363 -0.0860144 -0.000752807  0.00782251 -0.0981549 -0.00106913  0.00769091 -0.110738 -0.00139266  0.00746882 -0.123712 -0.00172347  0.00716233 -0.137027 -0.00205916  0.00677681 -0.150638 -0.00239974  0.00632071 -0.164501 -0.00274497  0.00580025 -0.178575 -0.00309247  0.00522685 -0.192825 -0.00344086  0.00460029 -0.207215 -0.00379318  0.00393009 -0.221713 -0.00414193  0.00322533 -0.236292 -0.00448942  0.00248814 -0.250924 -0.00483769  0.00172305 -0.265588 -0.00518304  0.000935793 -0.280264 -0.00552523  0.000132561 -0.29493 -0.00586307  -0.000682592 -0.309576 -0.00619817  -0.00150585 -0.324192 -0.00652915  -0.00234103 -0.338765 -0.00685781  -0.00317287 -0.353286 -0.00718158  -0.00400591 -0.367746 -0.00750631  0 0 0  0.00118241 -0.00113845 0.00203246  0.0035187 -0.00397027 0.00284666  0.00587496 -0.00803328 0.00300896  0.00803572 -0.0132217 0.00288969  0.00999606 -0.0194803 0.00264227  0.0117616 -0.026739 0.00232911  0.0133367 -0.0349162 0.00198364  0.0147225 -0.0439312 0.00162059  0.015919 -0.0537067 0.00124693  0.0169317 -0.0641721 0.000863671  0.0177678 -0.0752598 0.000475585  0.0184332 -0.0869049 8.10623e-05  0.0189389 -0.0990494 -0.000317097  0.0192904 -0.111636 -0.000717938  0.019504 -0.124614 -0.00112194  0.019582 -0.137932 -0.00152653  0.0195401 -0.151544 -0.00193191  0.0193832 -0.165407 -0.00233752  0.0191255 -0.17948 -0.00274056  0.0187755 -0.193729 -0.00314033  0.0183418 -0.208116 -0.00353914  0.0178342 -0.22261 -0.00393093  0.0172606 -0.237185 -0.00431895  0.0166285 -0.251811 -0.00470287  0.0159504 -0.26647 -0.005077  0.0152311 -0.281138 -0.00544649  0.0144775 -0.295799 -0.00580543  0.0136981 -0.31044 -0.00615889  0.0128963 -0.325047 -0.00650352  0.0120785 -0.339615 -0.00684261  0.0112517 -0.354134 -0.00717711  0.0104208 -0.368605 -0.00751078  0 0 0  0.00219193 -0.00242573 0.0029704  0.00583532 -0.00555384 0.00417268  0.00933754 -0.00957614 0.0044992  0.0125554 -0.0146825 0.00441152  0.0155163 -0.02088 0.0041182  0.0182288 -0.0280924 0.00372553  0.0206888 -0.0362324 0.00328541  0.0228969 -0.045215 0.00282323  0.0248525 -0.0549642 0.00235057  0.0265629 -0.0654032 0.00187409  0.0280358 -0.0764662 0.00139511  0.0292813 -0.0880891 0.000914395  0.0303108 -0.100212 0.000434995  0.0311358 -0.112778 -4.32134e-05  0.0317668 -0.125735 -0.000519156  0.0322196 -0.139033 -0.000994205  0.0325053 -0.152626 -0.00146395  0.0326371 -0.166469 -0.00192833  0.0326266 -0.180523 -0.0023883  0.0324893 -0.19475 -0.00284219  0.032233 -0.209118 -0.00328749  0.031873 -0.223591 -0.00372398  0.031419 -0.238148 -0.00415075  0.0308826 -0.252757 -0.00456804  0.0302756 -0.267397 -0.0049752  0.0296085 -0.282048 -0.00537002  0.0288906 -0.296695 -0.0057528  0.0281346 -0.31132 -0.00612253  0.027344 -0.325917 -0.00648093  0.0265329 -0.340473 -0.00682777  0.0257049 -0.354988 -0.00716752  0.0248742 -0.36947 -0.00750405  0 0 0  0.00411525 -0.0048824 0.00390661  0.00879309 -0.00782502 0.00547963  0.013321 -0.0116333 0.00599432  0.0175837 -0.016626 0.00593746  0.0215536 -0.0227441 0.00559503  0.0252143 -0.0298927 0.00511748  0.0285531 -0.0379711 0.00458235  0.0315696 -0.0468983 0.0040223  0.0342684 -0.0565913 0.00345302  0.0366569 -0.0669771 0.00288254  0.0387474 -0.0779897 0.00231367  0.0405517 -0.0895649 0.00174868  0.0420847 -0.101641 0.00118762  0.0433584 -0.114163 0.00063163  0.0443909 -0.127077 8.05855e-05  0.045197 -0.140331 -0.000462294  0.0457933 -0.153882 -0.000995636  0.0461917 -0.167685 -0.00152278  0.0464096 -0.1817 -0.00203669  0.0464623 -0.195888 -0.00254351  0.0463622 -0.210218 -0.00303763  0.0461292 -0.224656 -0.00351804  0.0457759 -0.239177 -0.00398338  0.0453131 -0.253755 -0.00443572  0.0447574 -0.268365 -0.00487524  0.0441203 -0.282988 -0.00529546  0.043417 -0.297608 -0.00570142  0.0426598 -0.312213 -0.00608873  0.0418589 -0.326789 -0.00646025  0.0410337 -0.341331 -0.00681186  0.0401912 -0.355839 -0.00715482  0.0393496 -0.370325 -0.00749165  0 0 0  -0.00445393 -0.00580522 -0.00227898  -0.00875752 -0.00878902 -0.0036484  -0.0133446 -0.0123559 -0.00424552  -0.0178888 -0.0169926 -0.00440234  -0.0222309 -0.0227106 -0.00435036  -0.026328 -0.0294311 -0.00421953  -0.0301809 -0.0370614 -0.00407803  -0.0337964 -0.0455264 -0.00395083  -0.0371932 -0.0547531 -0.00385118  -0.0403825 -0.0646761 -0.0037865  -0.043372 -0.0752336 -0.00374943  -0.0461786 -0.0863671 -0.00374264  -0.0488081 -0.0980225 -0.00376236  -0.0512705 -0.110145 -0.00380814  -0.053573 -0.122685 -0.00387526  -0.055724 -0.135597 -0.00396371  -0.0577304 -0.148835 -0.00407588  -0.0596013 -0.162356 -0.00420421  -0.0613399 -0.176117 -0.00435144  -0.0629582 -0.190085 -0.00451422  -0.0644648 -0.204224 -0.00469625  -0.0658617 -0.2185 -0.00489336  -0.0671604 -0.23288 -0.00510186  -0.0683722 -0.247349 -0.00532341  -0.0694964 -0.261868 -0.00556171  -0.0705543 -0.276426 -0.00581235  -0.0715454 -0.291 -0.00607151  -0.0724838 -0.305574 -0.00634199  -0.0733793 -0.320134 -0.00662446  -0.0742428 -0.334669 -0.00691551  -0.0750875 -0.349178 -0.00721395  -0.075927 -0.363664 -0.00750786  0 0 0  -0.00197377 -0.00304438 -0.0016911  -0.00555372 -0.00626527 -0.00277889  -0.00923362 -0.0101941 -0.00324297  -0.0127225 -0.0151267 -0.00338  -0.0160219 -0.0210813 -0.00336659  -0.0191463 -0.0280056 -0.00329858  -0.0221061 -0.0358247 -0.00322598  -0.0249102 -0.0444676 -0.00316972  -0.0275662 -0.0538658 -0.00313962  -0.0300833 -0.0639504 -0.00313652  -0.0324684 -0.0746627 -0.00315982  -0.034727 -0.0859442 -0.0032109  -0.0368683 -0.0977386 -0.00328356  -0.0388938 -0.109992 -0.00337911  -0.04081 -0.122657 -0.0034945  -0.0426232 -0.135683 -0.00362855  -0.0443356 -0.149026 -0.00377989  -0.0459521 -0.162642 -0.00394773  -0.047478 -0.176495 -0.00413173  -0.0489178 -0.19054 -0.00432724  -0.050276 -0.204751 -0.00453871  -0.0515587 -0.21909 -0.00476247  -0.0527694 -0.233529 -0.00499803  -0.0539117 -0.24804 -0.00524092  -0.054997 -0.262603 -0.00549799  -0.0560286 -0.277194 -0.00576293  -0.0570104 -0.291794 -0.00603634  -0.0579515 -0.306387 -0.00631893  -0.0588553 -0.320962 -0.00660861  -0.059736 -0.335506 -0.00690413  -0.0605962 -0.350015 -0.00720167  -0.0614469 -0.364494 -0.00750011  0 0 0  -0.00113382 -0.00146006 -0.00118876  -0.00324325 -0.00458743 -0.00193763  -0.00570819 -0.00870438 -0.00225592  -0.00810957 -0.0138266 -0.00235957  -0.0103768 -0.0199525 -0.00237602  -0.0125256 -0.0270309 -0.00236887  -0.0145805 -0.0349939 -0.00236595  -0.0165502 -0.0437732 -0.00238091  -0.0184445 -0.0533015 -0.00241894  -0.0202663 -0.0635137 -0.0024814  -0.0220205 -0.0743494 -0.00256723  -0.0237112 -0.0857477 -0.00267529  -0.0253372 -0.0976527 -0.0028007  -0.0269034 -0.110013 -0.00294715  -0.0284129 -0.122777 -0.00311071  -0.0298616 -0.135895 -0.00328881  -0.0312581 -0.149323 -0.003483  -0.0325985 -0.163017 -0.00368899  -0.0338888 -0.17694 -0.00390822  -0.0351274 -0.191053 -0.0041393  -0.0363157 -0.205319 -0.00437909  -0.0374608 -0.219709 -0.00463158  -0.038558 -0.234193 -0.00488961  -0.0396187 -0.248744 -0.00515759  -0.0406363 -0.263339 -0.00543153  -0.0416198 -0.277956 -0.00571477  -0.0425715 -0.292578 -0.00600129  -0.0434952 -0.307188 -0.00629419  -0.0443933 -0.321777 -0.00659263  -0.0452697 -0.336329 -0.0068922  -0.0461309 -0.350844 -0.007195  -0.0469825 -0.365314 -0.00749618  0 0 0  -0.000536852 -0.000802994 -0.0006212  -0.00151645 -0.0036518 -0.00103325  -0.00272009 -0.00782913 -0.00122309  -0.003948 -0.0130858 -0.00131226  -0.00513887 -0.0193372 -0.00136954  -0.0062961 -0.0265248 -0.0014264  -0.00743371 -0.0345888 -0.00149596  -0.00855833 -0.0434648 -0.00158429  -0.00967634 -0.0530875 -0.00169128  -0.0107892 -0.0633921 -0.00181901  -0.0118968 -0.0743175 -0.00196618  -0.0129998 -0.0858029 -0.00213051  -0.0140964 -0.0977932 -0.0023129  -0.015188 -0.110232 -0.00250995  -0.0162691 -0.12307 -0.00272101  -0.0173399 -0.136258 -0.00294352  -0.0184019 -0.149751 -0.00317806  -0.0194514 -0.163505 -0.00342584  -0.0204883 -0.17748 -0.00368047  -0.0215101 -0.191642 -0.00394529  -0.0225174 -0.205952 -0.00421643  -0.0235059 -0.220379 -0.00449562  -0.0244782 -0.234896 -0.00477922  -0.0254357 -0.249476 -0.00507015  -0.0263758 -0.264096 -0.0053646  -0.0272985 -0.278734 -0.00566304  -0.0282056 -0.293371 -0.0059641  -0.0290968 -0.307994 -0.00626928  -0.0299754 -0.322593 -0.00657517  -0.0308411 -0.337154 -0.00688356  -0.0316925 -0.351671 -0.00718975  -0.0325398 -0.366132 -0.00749606  0 0 0  -4.86672e-05 -0.000649363 -2.55108e-05  -8.9854e-06 -0.00340542 -8.11219e-05  8.31485e-06 -0.00760505 -0.000152349  -3.18587e-05 -0.0129253 -0.000241458  -0.000126779 -0.0192444 -0.000349641  -0.000277996 -0.0264949 -0.000474572  -0.00049001 -0.0346192 -0.000619054  -0.000763357 -0.0435546 -0.000778437  -0.00109828 -0.0532365 -0.000955939  -0.00149524 -0.0636003 -0.00114918  -0.00194812 -0.0745857 -0.00135744  -0.0024569 -0.0861298 -0.00158107  -0.00301373 -0.0981758 -0.00181663  -0.00361824 -0.110668 -0.00206441  -0.00426507 -0.123556 -0.00232339  -0.00495195 -0.136791 -0.0025931  -0.00567031 -0.150328 -0.00287044  -0.00642133 -0.164122 -0.00315613  -0.00719357 -0.178133 -0.00344777  -0.00798917 -0.192326 -0.00374591  -0.00880384 -0.206665 -0.00404966  -0.0096302 -0.221117 -0.00435621  -0.0104704 -0.235656 -0.00466722  -0.0113139 -0.250252 -0.00497872  -0.0121667 -0.264888 -0.00529337  -0.0130208 -0.279539 -0.00560951  -0.0138748 -0.294186 -0.00592571  -0.0147295 -0.308816 -0.00624222  -0.0155818 -0.323418 -0.00655782  -0.0164301 -0.337984 -0.00687182  -0.0172751 -0.352502 -0.00718594  -0.0181131 -0.366961 -0.00749964  0 0 0  0.000431716 -0.00088495 0.000572503  0.00150442 -0.00377089 0.00087142  0.00272846 -0.00801605 0.000919342  0.00386816 -0.0133505 0.000830948  0.00486517 -0.0196798 0.000672519  0.00571561 -0.0269436 0.000478745  0.00642651 -0.0350869 0.00026381  0.007002 -0.0440463 3.17693e-05  0.00744796 -0.0537557 -0.000214815  0.00776911 -0.0641491 -0.000473201  0.00797176 -0.0751644 -0.000742972  0.0080595 -0.0867375 -0.00102371  0.0080415 -0.0988131 -0.00131482  0.0079236 -0.111335 -0.00161445  0.00771415 -0.124249 -0.00192237  0.00741816 -0.137509 -0.00223732  0.00704384 -0.151069 -0.00255764  0.00659657 -0.164881 -0.00288194  0.00608659 -0.178913 -0.00321209  0.00551772 -0.193119 -0.00354576  0.00489998 -0.20747 -0.00387943  0.00423741 -0.221933 -0.00421399  0.0035336 -0.23648 -0.00455123  0.00279689 -0.251085 -0.00488794  0.00203609 -0.265723 -0.00522095  0.00125313 -0.280374 -0.00555307  0.000449896 -0.295025 -0.005885  -0.000366449 -0.309658 -0.00621372  -0.00119019 -0.324258 -0.00653839  -0.00201988 -0.338822 -0.00685978  -0.00285745 -0.353341 -0.00718248  -0.00368953 -0.367804 -0.00750315  0 0 0  0.0010211 -0.00158 0.00114256  0.00324431 -0.00477672 0.0017826  0.00568312 -0.00906211 0.0019542  0.00796962 -0.0143508 0.00187749  0.0100296 -0.0206326 0.00168169  0.0118657 -0.0278651 0.00142848  0.0134864 -0.0359904 0.00114495  0.0149033 -0.0449412 0.000843704  0.0161227 -0.0546469 0.000530899  0.0171541 -0.0650414 0.000207543  0.0180045 -0.0760581 -0.000124633  0.0186844 -0.0876353 -0.000463545  0.0192024 -0.0997136 -0.000808239  0.0195662 -0.112239 -0.00116116  0.0197873 -0.125158 -0.00151789  0.019876 -0.138418 -0.0018779  0.0198419 -0.151979 -0.00224227  0.0196924 -0.165793 -0.00260794  0.0194416 -0.179822 -0.00297523  0.0190945 -0.194027 -0.00334191  0.0186663 -0.208373 -0.00370884  0.0181618 -0.222834 -0.00407255  0.0175891 -0.237374 -0.00443441  0.0169601 -0.251972 -0.004794  0.0162809 -0.266605 -0.00514793  0.0155594 -0.28125 -0.0054999  0.0148036 -0.295894 -0.00584459  0.0140245 -0.310519 -0.00618422  0.0132205 -0.325115 -0.00652003  0.0124052 -0.339673 -0.00684941  0.0115769 -0.354189 -0.00717634  0.010747 -0.368663 -0.00750077  0 0 0  0.00198467 -0.00300437 0.00168544  0.00549626 -0.00653386 0.00263453  0.00909927 -0.0107365 0.00294107  0.0124655 -0.0158957 0.00289577  0.0155464 -0.022078 0.00267643  0.0183402 -0.0292443 0.00237066  0.0208552 -0.0373217 0.00202465  0.0230983 -0.0462338 0.00165653  0.0250793 -0.055909 0.00127703  0.0268081 -0.0662752 0.000889897  0.0282964 -0.0772672 0.000497341  0.0295535 -0.0888207 0.000100613  0.0305943 -0.100879 -0.00029999  0.0314293 -0.113382 -0.000703394  0.0320697 -0.12628 -0.00111032  0.0325301 -0.139522 -0.00151753  0.0328243 -0.153062 -0.00192446  0.0329602 -0.166856 -0.00233048  0.0329578 -0.180864 -0.00273603  0.0328243 -0.195048 -0.00313765  0.0325708 -0.209374 -0.00353801  0.032213 -0.223815 -0.00392956  0.0317593 -0.238337 -0.00431925  0.0312223 -0.252915 -0.00470173  0.0306165 -0.267531 -0.00507629  0.029947 -0.28216 -0.00544679  0.0292275 -0.296786 -0.00580639  0.0284672 -0.311398 -0.00615734  0.0276754 -0.325983 -0.00650042  0.0268626 -0.340531 -0.00683731  0.0260355 -0.355042 -0.0071674  0.0252047 -0.369526 -0.00749481  0 0 0  0.00398481 -0.00576389 0.00222903  0.00852349 -0.00905645 0.00347775  0.0130934 -0.0129482 0.00392741  0.0174731 -0.0179232 0.0039112  0.0215497 -0.0239891 0.00366616  0.0252871 -0.0310674 0.00330859  0.0286804 -0.0390709 0.0029006  0.0317338 -0.047919 0.00246865  0.0344598 -0.0575339 0.00202543  0.03687 -0.0678461 0.00157642  0.0389767 -0.0787866 0.00112307  0.0407946 -0.0902919 0.000667632  0.042341 -0.102302 0.000211835  0.0436265 -0.114762 -0.000244617  0.0446708 -0.127615 -0.000698388  0.0454841 -0.140816 -0.00115496  0.0460889 -0.154312 -0.00160271  0.0464935 -0.168067 -0.00205249  0.0467191 -0.182033 -0.00249517  0.0467775 -0.196179 -0.00293159  0.046684 -0.210469 -0.00336212  0.0464528 -0.224872 -0.00378776  0.0461016 -0.239361 -0.00420189  0.0456402 -0.253907 -0.00460827  0.0450845 -0.26849 -0.00500512  0.04445 -0.283092 -0.0053913  0.0437455 -0.297695 -0.00576699  0.0429871 -0.312284 -0.00612795  0.0421886 -0.32685 -0.0064804  0.041362 -0.341386 -0.00682127  0.0405247 -0.355893 -0.00715399  0.0396848 -0.370379 -0.00748485  0 0 0  -0.00452475 -0.00621006 -0.00107074  -0.00870094 -0.00944178 -0.00176477  -0.0131983 -0.0131058 -0.00213075  -0.017728 -0.0177536 -0.00228071  -0.0220895 -0.0234434 -0.002321  -0.0262098 -0.0301166 -0.00232399  -0.0300762 -0.0376986 -0.00232625  -0.0336956 -0.0461133 -0.00234473  -0.0370885 -0.0552921 -0.00238597  -0.0402669 -0.0651691 -0.00245178  -0.0432441 -0.0756847 -0.00254047  -0.0460367 -0.0867767 -0.00265014  -0.0486512 -0.0983944 -0.00277996  -0.0510964 -0.110482 -0.00292993  -0.0533863 -0.12299 -0.00309467  -0.0555211 -0.13587 -0.00327647  -0.0575159 -0.149078 -0.00346971  -0.0593727 -0.16257 -0.0036813  -0.0611031 -0.176308 -0.00390112  -0.062712 -0.190253 -0.00413406  -0.0642071 -0.204371 -0.00437939  -0.0655966 -0.218626 -0.00463057  -0.0668895 -0.232995 -0.00489247  -0.0680907 -0.247443 -0.00516033  -0.0692165 -0.261954 -0.00543702  -0.0702653 -0.276497 -0.00572073  -0.071255 -0.291063 -0.00601077  -0.07219 -0.305628 -0.00630379  -0.0730829 -0.320183 -0.00660253  -0.0739489 -0.334716 -0.00690675  -0.0747941 -0.349225 -0.00721252  -0.0756347 -0.363713 -0.00751436  0 0 0  -0.00190141 -0.00333821 -0.000787377  -0.00539984 -0.00679874 -0.0013572  -0.00905925 -0.0108499 -0.00165522  -0.0125719 -0.015822 -0.00179029  -0.0159058 -0.0217741 -0.001845  -0.0190591 -0.0286717 -0.00187731  -0.0220324 -0.0364532 -0.00191188  -0.024839 -0.0450539 -0.00196373  -0.0274909 -0.0544064 -0.00203812  -0.0299956 -0.0644481 -0.00213432  -0.0323666 -0.0751186 -0.00225258  -0.034611 -0.0863606 -0.00239182  -0.0367339 -0.0981168 -0.00254774  -0.0387425 -0.110336 -0.00272095  -0.0406433 -0.122966 -0.00290895  -0.0424408 -0.135961 -0.0031122  -0.0441387 -0.149275 -0.00332844  -0.0457416 -0.162863 -0.00355494  -0.0472546 -0.17669 -0.00379395  -0.0486844 -0.190714 -0.00404263  -0.0500326 -0.204902 -0.00430012  -0.0513046 -0.219221 -0.00456738  -0.0525062 -0.233645 -0.00483894  -0.0536449 -0.248141 -0.00511909  -0.0547214 -0.262691 -0.00540435  -0.0557449 -0.277269 -0.00569499  -0.0567224 -0.291859 -0.00599027  -0.0576606 -0.306445 -0.00628901  -0.0585642 -0.321014 -0.00659192  -0.0594418 -0.335554 -0.00689733  -0.0603027 -0.350063 -0.00720346  -0.0611508 -0.364544 -0.00750625  0 0 0  -0.00106089 -0.00168107 -0.000550866  -0.00311424 -0.00502139 -0.000951767  -0.00555569 -0.00927739 -0.0011766  -0.0079774 -0.0144682 -0.00128853  -0.0102761 -0.0206135 -0.0013566  -0.0124482 -0.0276812 -0.00141633  -0.0145118 -0.0356175 -0.00148654  -0.0164818 -0.0443609 -0.00157499  -0.0183671 -0.0538483 -0.00168276  -0.0201759 -0.0640188 -0.00181115  -0.0219163 -0.0748132 -0.00196207  -0.0235884 -0.0861723 -0.00212753  -0.0251985 -0.0980397 -0.00231159  -0.0267488 -0.110364 -0.00250864  -0.0282401 -0.123093 -0.00272143  -0.029676 -0.136179 -0.00294554  -0.0310555 -0.149578 -0.00318205  -0.0323853 -0.163245 -0.00342822  -0.0336623 -0.177143 -0.00368643  -0.0348895 -0.19123 -0.00394821  -0.0360701 -0.205476 -0.00422215  -0.0372038 -0.219846 -0.00450027  -0.0382946 -0.234313 -0.00478578  -0.0393443 -0.248847 -0.00507498  -0.0403574 -0.263429 -0.00537062  -0.041337 -0.278035 -0.00566888  -0.0422826 -0.292648 -0.00597084  -0.0432024 -0.30725 -0.00627422  -0.0440977 -0.321831 -0.0065825  -0.0449743 -0.336381 -0.00688934  -0.0458326 -0.350893 -0.00719619  -0.046685 -0.365367 -0.00750279  0 0 0  -0.000497423 -0.000982136 -0.000288367  -0.00144078 -0.00401944 -0.000522852  -0.00262135 -0.00834179 -0.000669003  -0.00385299 -0.0136871 -0.000767231  -0.00505465 -0.0199767 -0.000852227  -0.00621843 -0.0271678 -0.00094521  -0.00735426 -0.0352124 -0.00105178  -0.00847173 -0.0440557 -0.00117636  -0.00957835 -0.0536408 -0.00132096  -0.0106763 -0.0639056 -0.00148404  -0.0117689 -0.0747896 -0.00166333  -0.0128545 -0.0862357 -0.00185812  -0.0139358 -0.0981878 -0.00206769  -0.01501 -0.11059 -0.0022918  -0.0160772 -0.123394 -0.00252676  -0.0171365 -0.136549 -0.00277424  -0.0181868 -0.150012 -0.00303137  -0.0192256 -0.163739 -0.00329792  -0.0202494 -0.177689 -0.00357151  -0.0212603 -0.191825 -0.00385237  -0.0222566 -0.206113 -0.00414062  -0.0232389 -0.220522 -0.0044322  -0.0242043 -0.235021 -0.00473046  -0.0251544 -0.249585 -0.00503039  -0.0260885 -0.264188 -0.00533569  -0.0270061 -0.278815 -0.00564313  -0.0279095 -0.293443 -0.00595045  -0.0288 -0.308059 -0.00625944  -0.0296736 -0.322649 -0.00657177  -0.0305378 -0.337205 -0.00688136  -0.0313914 -0.351721 -0.00719237  -0.032238 -0.366185 -0.00750029  0 0 0  -4.24683e-05 -0.000813544 -1.39475e-05  2.38419e-07 -0.00374761 -6.81877e-05  3.60906e-05 -0.00809515 -0.00013864  1.60933e-05 -0.0135126 -0.000228286  -6.2108e-05 -0.0198784 -0.000337362  -0.000199139 -0.0271379 -0.000463843  -0.000396073 -0.0352462 -0.000608802  -0.000654101 -0.0441511 -0.000771642  -0.000974178 -0.0537968 -0.000951529  -0.00135386 -0.0641216 -0.00114608  -0.00179124 -0.0750661 -0.00135708  -0.00228357 -0.0865697 -0.00158179  -0.00282633 -0.0985771 -0.00181925  -0.00341821 -0.111034 -0.00206876  -0.00405121 -0.123888 -0.00232852  -0.00472474 -0.137091 -0.00259781  -0.00543141 -0.150596 -0.00287628  -0.00616956 -0.164361 -0.00316179  -0.00693512 -0.178347 -0.00345445  -0.00772381 -0.192516 -0.0037533  -0.00852656 -0.206832 -0.00405383  -0.00934815 -0.221264 -0.00436151  -0.0101824 -0.235783 -0.00467253  -0.0110219 -0.250365 -0.00498366  -0.0118709 -0.264984 -0.00529909  -0.0127187 -0.27962 -0.00561213  -0.0135751 -0.294259 -0.00593019  -0.0144262 -0.30888 -0.0062449  -0.0152752 -0.323476 -0.00656021  -0.0161231 -0.338036 -0.00687408  -0.0169654 -0.352552 -0.00718582  -0.0178063 -0.367016 -0.00749993  0 0 0  0.000402316 -0.0010637 0.000261068  0.00144762 -0.00413024 0.000392079  0.00268731 -0.00852412 0.00039494  0.00386786 -0.0139544 0.000314713  0.00490838 -0.0203258 0.000183821  0.00579518 -0.027597 2.31266e-05  0.00653428 -0.0357234 -0.000159502  0.0071336 -0.0446519 -0.00035882  0.00759923 -0.0543243 -0.000574231  0.00793767 -0.0646778 -0.000803709  0.00815678 -0.0756512 -0.00104415  0.00825965 -0.0871857 -0.00129879  0.00825572 -0.0992226 -0.00156415  0.00815058 -0.111707 -0.00183928  0.00795209 -0.124587 -0.0021255  0.00766635 -0.137815 -0.00241709  0.00730109 -0.151343 -0.00271702  0.00686526 -0.165127 -0.00302243  0.00636435 -0.179129 -0.00333428  0.00580263 -0.193312 -0.003649  0.00519061 -0.20764 -0.00396729  0.00453138 -0.222083 -0.00428998  0.00383353 -0.23661 -0.00461185  0.0031023 -0.251199 -0.00493538  0.00234413 -0.265819 -0.0052582  0.00156045 -0.280462 -0.00558484  0.00075841 -0.295097 -0.00590563  -5.17368e-05 -0.309721 -0.00622737  -0.000879049 -0.324318 -0.00654805  -0.00171137 -0.338877 -0.00686598  -0.00254345 -0.353394 -0.00718307  -0.00337648 -0.367857 -0.00749707  0 0 0  0.000963539 -0.00180119 0.00052774  0.00313354 -0.00520182 0.000834942  0.00558969 -0.00962877 0.0009166  0.00793332 -0.0149984 0.000848055  0.0100572 -0.0213078 0.0007025  0.0119439 -0.0285375 0.000509977  0.0136042 -0.0366392 0.000292301  0.0150502 -0.0455563 5.78165e-05  0.0162946 -0.0552229 -0.00019145  0.0173444 -0.0655755 -0.000453591  0.0182101 -0.076551 -0.000727177  0.0189056 -0.0880885 -0.00101185  0.0194356 -0.100129 -0.00130391  0.0198112 -0.112616 -0.00160646  0.0200422 -0.125499 -0.00191593  0.0201411 -0.138728 -0.00223243  0.0201159 -0.152256 -0.00255382  0.0199749 -0.166042 -0.00288045  0.0197313 -0.180043 -0.00320995  0.0193925 -0.194222 -0.00354421  0.0189664 -0.208546 -0.00387704  0.0184674 -0.222983 -0.00421417  0.0178969 -0.237507 -0.00455129  0.0172744 -0.252087 -0.00488544  0.0165956 -0.266703 -0.00522006  0.0158756 -0.281337 -0.00555265  0.0151227 -0.295968 -0.00588322  0.0143414 -0.310584 -0.00621188  0.0135381 -0.325173 -0.00653553  0.0127215 -0.339727 -0.00685632  0.0118937 -0.35424 -0.0071764  0.011066 -0.368716 -0.00749385  0 0 0  0.00191408 -0.00330359 0.00078845  0.00537208 -0.00706983 0.00125778  0.00898319 -0.0113999 0.00141549  0.0124101 -0.0166067 0.00137234  0.0155578 -0.0227942 0.00121427  0.0184106 -0.02994 0.000997663  0.0209692 -0.0379847 0.000747681  0.0232459 -0.0468577 0.000478506  0.0252532 -0.0564907 0.000194907  0.0270021 -0.0668144 -0.000100136  0.0285072 -0.0777638 -0.000404596  0.0297793 -0.0892771 -0.000716448  0.030833 -0.101296 -0.00103903  0.0316787 -0.113762 -0.00136852  0.0323308 -0.126624 -0.00170374  0.0328009 -0.139832 -0.00204313  0.033102 -0.153341 -0.00238788  0.0332477 -0.167105 -0.00273514  0.0332496 -0.181085 -0.00308418  0.0331213 -0.195245 -0.00343704  0.0328748 -0.209547 -0.00378609  0.0325201 -0.223967 -0.00413752  0.0320716 -0.238467 -0.00448799  0.0315378 -0.25303 -0.0048368  0.03093 -0.267629 -0.00518167  0.0302644 -0.282244 -0.0055207  0.0295451 -0.296861 -0.00586092  0.0287857 -0.311462 -0.00619268  0.0279973 -0.326038 -0.00652158  0.0271828 -0.340584 -0.00684643  0.0263565 -0.355095 -0.00717044  0.0255237 -0.369579 -0.00749063  0 0 0  0.00400066 -0.00621784 0.00105441  0.00848308 -0.00974244 0.00166845  0.0130012 -0.0137202 0.00191498  0.0174037 -0.0187019 0.00189471  0.0215342 -0.024744 0.00172913  0.0253271 -0.0317844 0.0014863  0.0287644 -0.039744 0.00120544  0.0318521 -0.0485479 0.000903368  0.0346045 -0.0581189 0.000586033  0.0370361 -0.0683858 0.000259042  0.03916 -0.0792829 -7.64132e-05  0.0409933 -0.0907488 -0.000420809  0.0425547 -0.102719 -0.00077045  0.0438539 -0.115139 -0.00112629  0.0449083 -0.127958 -0.0014863  0.0457346 -0.141124 -0.00184941  0.046349 -0.154588 -0.00221789  0.0467639 -0.168312 -0.00258696  0.0469954 -0.182253 -0.00295675  0.0470607 -0.196372 -0.00332558  0.0469749 -0.21064 -0.00369239  0.0467505 -0.22502 -0.00406003  0.0464027 -0.239488 -0.00442469  0.0459452 -0.254018 -0.0047828  0.0453925 -0.268586 -0.00513983  0.0447586 -0.283173 -0.00549138  0.044059 -0.297764 -0.00583518  0.0433011 -0.312346 -0.00617528  0.0425067 -0.326905 -0.00650692  0.041683 -0.341439 -0.00683725  0.0408461 -0.355942 -0.00715947  0.0400057 -0.370433 -0.00748038  0 0 0  -0.00453287 -0.00631416 -2.06232e-05  -0.00866741 -0.00962377 -5.82933e-05  -0.0131188 -0.0133267 -0.000117302  -0.0176211 -0.017983 -0.000199795  -0.0219696 -0.0236677 -0.000301719  -0.0260836 -0.0303304 -0.000424981  -0.0299432 -0.0378986 -0.00056994  -0.033556 -0.0462985 -0.000733376  -0.0369378 -0.0554638 -0.000916719  -0.0401028 -0.0653289 -0.00111687  -0.0430673 -0.07583 -0.00133097  -0.0458462 -0.0869131 -0.0015589  -0.0484474 -0.0985198 -0.00179923  -0.0508827 -0.110598 -0.00205326  -0.0531585 -0.123097 -0.00231385  -0.0552858 -0.13597 -0.00258815  -0.0572696 -0.14917 -0.00287056  -0.0591192 -0.162657 -0.00315797  -0.0608385 -0.176389 -0.00345325  -0.0624402 -0.190325 -0.00375605  -0.0639296 -0.204438 -0.00405729  -0.0653148 -0.218691 -0.00436866  -0.0666006 -0.233051 -0.00468147  -0.067801 -0.247499 -0.00499415  -0.0689185 -0.262003 -0.00531006  -0.0699687 -0.276547 -0.00562823  -0.0709543 -0.291107 -0.00594509  -0.0718904 -0.305673 -0.00626266  -0.0727839 -0.320226 -0.00657845  -0.0736468 -0.334759 -0.00689304  -0.0744939 -0.349268 -0.00720787  -0.0753365 -0.363758 -0.00752354  0 0 0  -0.0018734 -0.00341718 -1.07288e-05  -0.00533648 -0.00695243 -6.92606e-05  -0.00896838 -0.011046 -0.000136614  -0.012468 -0.0160359 -0.000221014  -0.0157965 -0.0219909 -0.000323772  -0.0189444 -0.0288828 -0.000448227  -0.0219129 -0.0366551 -0.000592589  -0.0247101 -0.0452444 -0.000755429  -0.0273494 -0.0545855 -0.000937223  -0.029842 -0.0646141 -0.00113511  -0.032199 -0.0752739 -0.00134778  -0.0344287 -0.086503 -0.00157559  -0.0365378 -0.0982498 -0.00181508  -0.0385348 -0.110458 -0.00206637  -0.0404235 -0.12308 -0.00232863  -0.0422087 -0.136065 -0.00259948  -0.0438986 -0.149372 -0.00287938  -0.0454926 -0.162954 -0.00316679  -0.0469964 -0.176772 -0.00346041  -0.0484188 -0.190791 -0.00375938  -0.0497594 -0.204973 -0.0040642  -0.0510259 -0.219287 -0.0043726  -0.0522234 -0.233705 -0.0046823  -0.0533547 -0.248197 -0.00499594  -0.0544298 -0.262744 -0.00531292  -0.0554502 -0.277319 -0.00562739  -0.0564265 -0.291907 -0.00594389  -0.0573599 -0.306491 -0.00626016  -0.0582621 -0.321057 -0.00657439  -0.0591397 -0.3356 -0.00688958  -0.0599995 -0.350107 -0.00720239  -0.0608492 -0.364589 -0.00751257  0 0 0  -0.00103203 -0.00174241 -2.44379e-05  -0.00305566 -0.00514814 -7.51019e-05  -0.00547281 -0.00945295 -0.000145316  -0.00788322 -0.0146692 -0.000230551  -0.0101745 -0.0208242 -0.000335932  -0.0123405 -0.0278927 -0.000460148  -0.0143956 -0.0358234 -0.00060463  -0.016354 -0.0445566 -0.000767827  -0.0182272 -0.0540339 -0.000950217  -0.0200223 -0.0641927 -0.00114691  -0.0217465 -0.0749747 -0.00136018  -0.0234058 -0.0863221 -0.00158715  -0.0250027 -0.0981794 -0.00182521  -0.0265396 -0.110493 -0.0020752  -0.0280199 -0.123213 -0.00233674  -0.0294439 -0.136289 -0.00260651  -0.0308154 -0.149678 -0.0028851  -0.0321336 -0.163339 -0.00317228  -0.0334022 -0.17723 -0.00346386  -0.0346227 -0.191311 -0.00376427  -0.0357962 -0.20555 -0.00406563  -0.0369234 -0.219913 -0.00437307  -0.0380094 -0.234375 -0.00468218  -0.0390551 -0.248908 -0.00499749  -0.0400662 -0.263486 -0.0053103  -0.0410402 -0.278087 -0.00562477  -0.0419827 -0.292696 -0.00593925  -0.042902 -0.307298 -0.00625694  -0.0437958 -0.321875 -0.00657141  -0.0446708 -0.336426 -0.00688446  -0.0455306 -0.350938 -0.00719869  -0.0463812 -0.365409 -0.00750768  0 0 0  -0.000476822 -0.00103319 -1.93119e-05  -0.00140043 -0.00412974 -7.36713e-05  -0.00255844 -0.00850275 -0.00014472  -0.00377274 -0.0138806 -0.000229716  -0.00496286 -0.0201872 -0.000337124  -0.0061155 -0.0273814 -0.00046289  -0.00723833 -0.0354228 -0.000608802  -0.00834262 -0.0442595 -0.000773072  -0.00943291 -0.0538326 -0.000953794  -0.0105162 -0.0640859 -0.00115299  -0.0115952 -0.0749591 -0.00136447  -0.0126671 -0.0863921 -0.00158906  -0.0137351 -0.0983338 -0.00182915  -0.014797 -0.110725 -0.00207865  -0.0158519 -0.123519 -0.00233901  -0.0169002 -0.136666 -0.00261033  -0.0179381 -0.150118 -0.00288737  -0.0189674 -0.163837 -0.00317371  -0.0199854 -0.17778 -0.00346625  -0.0209901 -0.191908 -0.00376415  -0.02198 -0.20619 -0.00406659  -0.0229557 -0.220593 -0.00437295  -0.0239153 -0.235087 -0.00468218  -0.0248623 -0.249645 -0.0049938  -0.0257928 -0.264245 -0.00530803  -0.0267069 -0.278867 -0.00562263  -0.0276103 -0.293494 -0.00593626  -0.028496 -0.308106 -0.00625229  -0.0293715 -0.322695 -0.0065676  -0.0302341 -0.337252 -0.006881  -0.0310867 -0.351765 -0.00719309  -0.0319343 -0.366233 -0.00750506  0 0 0  -3.60087e-05 -0.000862509 -1.54972e-05  2.06232e-05 -0.00385341 -6.3777e-05  7.73072e-05 -0.0082531 -0.000132322  7.79033e-05 -0.0137069 -0.000221014  1.93119e-05 -0.0200929 -0.000328183  -9.89437e-05 -0.0273589 -0.000457287  -0.000277281 -0.0354637 -0.000603557  -0.000518441 -0.0443622 -0.000768781  -0.000821829 -0.053997 -0.000952363  -0.00118649 -0.0643098 -0.00114954  -0.00160897 -0.0752417 -0.00136185  -0.00208783 -0.0867343 -0.00158799  -0.00261736 -0.0987293 -0.00182712  -0.00319552 -0.111175 -0.0020771  -0.00381935 -0.124018 -0.00233817  -0.00448 -0.137211 -0.00260711  -0.00518155 -0.150708 -0.00288689  -0.00590777 -0.164463 -0.00317109  -0.00666595 -0.178441 -0.00346208  -0.00744534 -0.192602 -0.00376129  -0.00824547 -0.206911 -0.00406361  -0.00906324 -0.221337 -0.00436985  -0.00989127 -0.235851 -0.00467849  -0.0107281 -0.250427 -0.00499141  -0.0115716 -0.265042 -0.00530326  -0.0124202 -0.279675 -0.00561786  -0.0132706 -0.294309 -0.0059334  -0.0141201 -0.308929 -0.00624812  -0.0149705 -0.323523 -0.00656295  -0.0158169 -0.338082 -0.00687611  -0.0166588 -0.352598 -0.00718939  -0.0174992 -0.367062 -0.0074991  0 0 0  0.000398591 -0.00111884 -7.62939e-06  0.00144693 -0.0042479 -4.80413e-05  0.00270581 -0.00869304 -0.000114083  0.00391215 -0.0141594 -0.000202417  0.00497895 -0.0205507 -0.000312924  0.00589186 -0.0278282 -0.000443459  0.00665486 -0.0359505 -0.000591993  0.00727451 -0.0448714 -0.000757337  0.00775838 -0.0545321 -0.000940442  0.0081141 -0.0648732 -0.00114  0.00834572 -0.0758346 -0.00135148  0.00846314 -0.0873562 -0.00157964  0.00847256 -0.0993806 -0.00181782  0.0083791 -0.111854 -0.002069  0.00819147 -0.124724 -0.00233066  0.00791669 -0.137939 -0.00260019  0.00756168 -0.151457 -0.00287879  0.00713134 -0.165233 -0.00316525  0.00663638 -0.179227 -0.0034579  0.00608182 -0.193401 -0.00375521  0.00547719 -0.207722 -0.00405753  0.00482273 -0.222157 -0.00436413  0.00412941 -0.23668 -0.00467372  0.00340128 -0.251262 -0.00498497  0.00264382 -0.265881 -0.00529778  0.00186539 -0.280516 -0.00561333  0.0010643 -0.295152 -0.00592899  0.000252962 -0.309772 -0.00624299  -0.000570059 -0.324366 -0.00655687  -0.00140023 -0.338922 -0.00686979  -0.00223541 -0.353438 -0.00718355  -0.00306606 -0.367905 -0.00749373  0 0 0  0.00094685 -0.00187576 2.5034e-06  0.00311777 -0.00534546 -2.64645e-05  0.00558883 -0.0098266 -8.86917e-05  0.0079636 -0.0152268 -0.00017786  0.0101195 -0.0215511 -0.000289917  0.0120379 -0.0287818 -0.000421166  0.0137255 -0.0368777 -0.000571609  0.0151945 -0.0457842 -0.000738859  0.0164562 -0.0554385 -0.000923157  0.0175239 -0.0657794 -0.00112224  0.0184082 -0.0767403 -0.00133622  0.019115 -0.0882641 -0.00156391  0.0196565 -0.100293 -0.00180495  0.0200459 -0.112768 -0.00205481  0.0202869 -0.125639 -0.00231791  0.0203943 -0.138857 -0.00258923  0.0203781 -0.152376 -0.00286889  0.0202458 -0.166151 -0.00315607  0.0200078 -0.180143 -0.00344908  0.0196741 -0.194315 -0.00374711  0.0192568 -0.208632 -0.00405025  0.0187593 -0.22306 -0.00435722  0.0181949 -0.237577 -0.00466764  0.017571 -0.252153 -0.00497961  0.0168982 -0.266764 -0.00529349  0.0161808 -0.281392 -0.00560653  0.0154293 -0.296021 -0.00592291  0.0146508 -0.310634 -0.0062387  0.0138471 -0.32522 -0.00654924  0.0130312 -0.339773 -0.00686455  0.0122032 -0.354286 -0.00717652  0.0113764 -0.368761 -0.00748897  0 0 0  0.00189669 -0.00340748 1.88351e-05  0.00535429 -0.00725842 -2.26498e-06  0.00897926 -0.0116376 -5.82933e-05  0.0124324 -0.0168673 -0.000146389  0.015614 -0.0230575 -0.000258327  0.0184981 -0.0301985 -0.000390887  0.0210854 -0.0382335 -0.000541925  0.0233872 -0.0470946 -0.000710249  0.025413 -0.0567131 -0.000896573  0.0271801 -0.0670226 -0.00109673  0.0286996 -0.077958 -0.00131333  0.0299879 -0.0894589 -0.00154221  0.0310532 -0.101464 -0.00178432  0.031911 -0.113919 -0.00203824  0.0325731 -0.126768 -0.00230014  0.0330546 -0.139964 -0.00257337  0.033365 -0.153462 -0.0028547  0.0335174 -0.167218 -0.00314271  0.0335276 -0.181188 -0.00343692  0.0334058 -0.195338 -0.00373638  0.0331638 -0.209635 -0.0040406  0.0328131 -0.224044 -0.00434828  0.0323672 -0.238539 -0.00465965  0.0318389 -0.253096 -0.00497103  0.0312333 -0.267689 -0.00528598  0.0305691 -0.2823 -0.00560033  0.0298522 -0.296911 -0.00591397  0.0290949 -0.311512 -0.00623059  0.0283055 -0.326087 -0.00654554  0.027493 -0.340631 -0.00685894  0.0266702 -0.35514 -0.00717056  0.0258369 -0.369624 -0.0074836  0 0 0  0.00401849 -0.00638533 4.39882e-05  0.00849861 -0.00998956 2.20537e-05  0.0130113 -0.0140018 -1.89543e-05  0.0174247 -0.0189916 -0.00010252  0.0215816 -0.0250272 -0.0002141  0.025403 -0.0320566 -0.000348806  0.0288678 -0.0400025 -0.000501275  0.0319793 -0.0487907 -0.000673175  0.0347534 -0.0583466 -0.000861406  0.0372025 -0.0685986 -0.00106549  0.0393438 -0.0794815 -0.00128329  0.0411923 -0.0909336 -0.00151563  0.0427648 -0.10289 -0.00176001  0.0440764 -0.115297 -0.0020144  0.0451418 -0.128104 -0.00227964  0.0459797 -0.141257 -0.00255299  0.0466022 -0.154713 -0.00283825  0.0470266 -0.168426 -0.00312638  0.0472672 -0.182356 -0.0034225  0.047338 -0.196469 -0.00372314  0.0472572 -0.210725 -0.00402832  0.0470374 -0.225099 -0.00433505  0.046695 -0.23956 -0.0046519  0.0462415 -0.254083 -0.00496209  0.0456936 -0.268645 -0.00527561  0.0450637 -0.28323 -0.00559258  0.0443635 -0.297815 -0.00590956  0.0436115 -0.312392 -0.00622427  0.042814 -0.326953 -0.00653958  0.0419917 -0.341483 -0.00685263  0.0411565 -0.355989 -0.00716603  0.0403185 -0.370475 -0.00747478  0 0 0  -0.0044616 -0.00615694 0.00101244  -0.00861982 -0.00938711 0.00162446  -0.0130809 -0.013052 0.00187564  -0.0175664 -0.0177002 0.0018698  -0.0218872 -0.0233923 0.00170946  -0.0259711 -0.0300712 0.00146651  -0.0298026 -0.0376588 0.00117922  -0.033392 -0.046082 0.000867844  -0.0367529 -0.0552672 0.000543952  -0.0399015 -0.0651522 0.000212908  -0.0428535 -0.0756744 -0.000128984  -0.0456181 -0.086775 -0.000474572  -0.0482079 -0.0983992 -0.000826597  -0.0506335 -0.110493 -0.00118256  -0.0529002 -0.123009 -0.00154281  -0.055019 -0.135895 -0.0019052  -0.0569949 -0.14911 -0.00227261  -0.0588369 -0.162608 -0.00263989  -0.0605547 -0.176352 -0.00300741  -0.0621514 -0.190302 -0.00337648  -0.0636365 -0.204424 -0.00374269  -0.065017 -0.218684 -0.00410712  -0.0663025 -0.233057 -0.00447083  -0.0674996 -0.247509 -0.00483024  -0.0686178 -0.262022 -0.00518799  -0.0696621 -0.276569 -0.00553536  -0.0706496 -0.291136 -0.00588286  -0.0715828 -0.305704 -0.00622201  -0.0724752 -0.32026 -0.00655484  -0.0733368 -0.334799 -0.00688255  -0.0741858 -0.349307 -0.00720346  -0.075026 -0.363794 -0.00752032  0 0 0  -0.00186595 -0.00331459 0.000754833  -0.00532818 -0.00676606 0.00119734  -0.00894544 -0.0108151 0.00136578  -0.0124132 -0.0157859 0.00133693  -0.0157071 -0.0217406 0.00118911  -0.018822 -0.0286433 0.000972748  -0.0217628 -0.0364313 0.000718474  -0.024536 -0.0450382 0.000445127  -0.0271553 -0.054398 0.000155449  -0.0296314 -0.0644472 -0.000144005  -0.0319726 -0.0751246 -0.000450373  -0.0341908 -0.0863726 -0.00076735  -0.0362885 -0.0981349 -0.00108957  -0.0382764 -0.110359 -0.00141764  -0.0401552 -0.122996 -0.00175202  -0.0419348 -0.135995 -0.00209188  -0.0436156 -0.149314 -0.00243366  -0.0452056 -0.162909 -0.00278127  -0.046705 -0.17674 -0.00312936  -0.0481212 -0.190768 -0.00347936  -0.0494609 -0.204961 -0.00383079  -0.0507243 -0.219284 -0.00417948  -0.0519178 -0.233709 -0.00452864  -0.0530503 -0.248209 -0.00487494  -0.0541213 -0.26276 -0.00521922  -0.0551422 -0.277343 -0.00556135  -0.0561142 -0.291935 -0.00589693  -0.0570517 -0.306525 -0.00623155  -0.0579548 -0.321093 -0.00655854  -0.0588307 -0.335637 -0.00688159  -0.059691 -0.350146 -0.00720215  -0.0605392 -0.364628 -0.00751913  0 0 0  -0.00102677 -0.00166933 0.000491261  -0.00305185 -0.00500627 0.000780582  -0.00544971 -0.00926162 0.000870228  -0.00782689 -0.0144522 0.000816464  -0.0100828 -0.0205994 0.000677705  -0.0122162 -0.0276716 0.0004884  -0.0142417 -0.0356136 0.000269294  -0.0161781 -0.044363 2.88486e-05  -0.0180324 -0.0538572 -0.000224471  -0.0198104 -0.064034 -0.000489354  -0.0215209 -0.074833 -0.0007658  -0.0231681 -0.0861969 -0.00105166  -0.0247527 -0.0980704 -0.00134456  -0.0262796 -0.110399 -0.00164759  -0.027752 -0.123132 -0.00195694  -0.0291691 -0.136223 -0.00227261  -0.0305328 -0.149626 -0.00259399  -0.031847 -0.163298 -0.00291884  -0.0331097 -0.177198 -0.00324786  -0.0343266 -0.191291 -0.00358021  -0.0354955 -0.205539 -0.00391376  -0.036622 -0.219912 -0.0042485  -0.0377071 -0.234382 -0.00458276  -0.0387499 -0.248919 -0.00491762  -0.0397568 -0.263502 -0.00525105  -0.0407321 -0.278111 -0.00558162  -0.041678 -0.292726 -0.00591278  -0.0425928 -0.307328 -0.00623715  -0.0434861 -0.321911 -0.00656068  -0.0443606 -0.336462 -0.00688207  -0.0452204 -0.350975 -0.00720036  -0.0460727 -0.365449 -0.00751388  0 0 0  -0.000469208 -0.000978321 0.000234604  -0.00138423 -0.00401679 0.000355601  -0.00252128 -0.00834289 0.000368118  -0.00370812 -0.0136907 0.000296354  -0.0048672 -0.0199836 0.000172734  -0.00599086 -0.027178 1.18017e-05  -0.00708991 -0.0352274 -0.000173926  -0.00817162 -0.0440769 -0.000377297  -0.00924492 -0.0536657 -0.000596881  -0.0103121 -0.0639348 -0.000828385  -0.0113748 -0.0748227 -0.00107288  -0.012435 -0.0862738 -0.00132906  -0.0134916 -0.0982293 -0.00159633  -0.014544 -0.110637 -0.00187302  -0.01559 -0.123443 -0.00215614  -0.0166297 -0.136602 -0.00244939  -0.0176628 -0.150069 -0.00274789  -0.0186849 -0.163799 -0.00305331  -0.019696 -0.17775 -0.00336313  -0.0206966 -0.191891 -0.00367761  -0.0216837 -0.206181 -0.00399494  -0.0226557 -0.220591 -0.00431502  -0.0236161 -0.235092 -0.00463653  -0.0245597 -0.249658 -0.00495946  -0.0254884 -0.264265 -0.00528181  -0.0264022 -0.278892 -0.00560367  -0.0273037 -0.293521 -0.00592625  -0.0281892 -0.308138 -0.0062449  -0.0290627 -0.322731 -0.0065639  -0.0299258 -0.337287 -0.00687873  -0.0307796 -0.351803 -0.00719416  -0.0316248 -0.36627 -0.00750875  0 0 0  -2.40803e-05 -0.000815541 -2.86102e-05  5.41508e-05 -0.00375557 -7.45058e-05  0.000133604 -0.00810933 -0.000136733  0.000155985 -0.0135341 -0.000221014  0.000120401 -0.0199042 -0.000328422  2.41399e-05 -0.0271687 -0.000458837  -0.000133753 -0.0352807 -0.000608444  -0.000356495 -0.0441897 -0.000775218  -0.0006423 -0.0538378 -0.000960112  -0.00099051 -0.0641669 -0.00115967  -0.00139976 -0.0751129 -0.00137424  -0.00186324 -0.0866206 -0.00160158  -0.00238311 -0.0986306 -0.00184011  -0.00295067 -0.111089 -0.00209069  -0.00356555 -0.123947 -0.00235164  -0.0042181 -0.137153 -0.0026207  -0.00490904 -0.150659 -0.00289869  -0.00563288 -0.164428 -0.0031842  -0.00638413 -0.178415 -0.00347602  -0.00715876 -0.192585 -0.00377214  -0.00795579 -0.206903 -0.00407434  -0.00876641 -0.221338 -0.00438023  -0.00959182 -0.235859 -0.00468802  -0.0104275 -0.25044 -0.00499916  -0.0112698 -0.265063 -0.00531077  -0.0121155 -0.2797 -0.00562501  -0.0129635 -0.294337 -0.00593829  -0.0138142 -0.308962 -0.00625193  -0.0146642 -0.323557 -0.00656593  -0.0155103 -0.338117 -0.00687909  -0.0163524 -0.352636 -0.00718999  -0.0171919 -0.367098 -0.00750017  0 0 0  0.000412449 -0.00107253 -0.000285506  0.00149795 -0.00414997 -0.000495553  0.0027813 -0.00855452 -0.000631928  0.00400466 -0.0139936 -0.000727892  0.00508636 -0.0203728 -0.000818491  0.006015 -0.0276476 -0.000918508  0.00679398 -0.0357769 -0.00103271  0.0074296 -0.0447071 -0.00116527  0.00792897 -0.0543818 -0.00131595  0.00829911 -0.0647366 -0.00148273  0.00854659 -0.075713 -0.00166738  0.00867629 -0.0872498 -0.00186586  0.00869703 -0.0992858 -0.00207913  0.00861561 -0.111773 -0.00230408  0.00843799 -0.124656 -0.00254107  0.0081718 -0.137885 -0.00278866  0.00782347 -0.151412 -0.00304449  0.0074017 -0.165201 -0.00331104  0.00691104 -0.179204 -0.00358605  0.00636506 -0.193387 -0.00386417  0.00576282 -0.207717 -0.00415158  0.0051136 -0.222162 -0.00444305  0.00442386 -0.236688 -0.00473678  0.00369883 -0.251277 -0.00503707  0.00294399 -0.265901 -0.0053395  0.00216341 -0.280541 -0.00564504  0.00136757 -0.295181 -0.00595009  0.000555754 -0.309804 -0.00626004  -0.000264406 -0.324398 -0.00656521  -0.00109482 -0.338959 -0.00687742  -0.00192952 -0.353476 -0.00718212  -0.00276208 -0.367942 -0.00749028  0 0 0  0.000964537 -0.0018211 -0.000526667  0.00318003 -0.00523841 -0.000892162  0.00568026 -0.0096795 -0.00109911  0.00806862 -0.0150599 -0.00121462  0.0102342 -0.0213764 -0.00129128  0.0121619 -0.0286081 -0.00136256  0.0138612 -0.0367118 -0.00144386  0.0153446 -0.0456291 -0.00154281  0.016621 -0.055296 -0.0016613  0.0177022 -0.0656494 -0.00179768  0.0185983 -0.0766262 -0.00195169  0.0193197 -0.0881637 -0.00212348  0.0198736 -0.100205 -0.00231063  0.0202742 -0.112694 -0.0025115  0.0205258 -0.125576 -0.00272465  0.0206437 -0.138807 -0.00295115  0.0206356 -0.152337 -0.00318861  0.0205104 -0.166122 -0.00343525  0.0202796 -0.180123 -0.00369024  0.0199528 -0.194302 -0.00395405  0.0195398 -0.208627 -0.00422502  0.0190475 -0.223065 -0.00450122  0.0184865 -0.237588 -0.00478625  0.0178671 -0.252167 -0.0050739  0.0171928 -0.266786 -0.00536609  0.01648 -0.281419 -0.00566185  0.015728 -0.296051 -0.00596368  0.0149534 -0.310666 -0.00626338  0.0141501 -0.325256 -0.00656903  0.0133348 -0.339809 -0.00687301  0.0125093 -0.354324 -0.00717854  0.0116801 -0.368798 -0.0074836  0 0 0  0.00190896 -0.00334185 -0.000750661  0.00541732 -0.00713199 -0.00125885  0.00907594 -0.0114782 -0.0015384  0.0125449 -0.016693 -0.00167549  0.0157346 -0.0228822 -0.00174177  0.018626 -0.0300291 -0.0017885  0.0212241 -0.0380723 -0.00184119  0.0235356 -0.0469455 -0.00190866  0.0255767 -0.0565782 -0.00199485  0.0273563 -0.0669017 -0.00210178  0.028892 -0.0778508 -0.00222778  0.0301894 -0.0893652 -0.00237322  0.0312675 -0.101383 -0.00253451  0.0321369 -0.113849 -0.00271189  0.0328089 -0.126711 -0.00290418  0.0332992 -0.139919 -0.00310814  0.0336185 -0.153427 -0.00332558  0.0337808 -0.167191 -0.00355387  0.0337954 -0.181171 -0.00379288  0.0336807 -0.195331 -0.00403905  0.0334439 -0.209633 -0.0042969  0.0330989 -0.224051 -0.00456071  0.0326586 -0.238552 -0.00483167  0.0321302 -0.253114 -0.00510883  0.0315301 -0.267712 -0.0053916  0.0308666 -0.282327 -0.00567985  0.0301542 -0.296943 -0.00597203  0.0293951 -0.311545 -0.00626826  0.0286071 -0.326123 -0.00656939  0.0277963 -0.340667 -0.0068717  0.0269704 -0.355177 -0.00717461  0.0261397 -0.36966 -0.00747609  0 0 0  0.00401093 -0.00630009 -0.000967741  0.00854439 -0.00984091 -0.00161767  0.0131021 -0.013824 -0.00195694  0.0175399 -0.0188072 -0.00211024  0.0217091 -0.0248491 -0.00217009  0.0255401 -0.0318882 -0.00219584  0.0290152 -0.039848 -0.00222015  0.0321392 -0.0486494 -0.00225914  0.0349245 -0.0582197 -0.00231838  0.0373851 -0.0684864 -0.00239635  0.0395391 -0.0793843 -0.00249648  0.0414 -0.0908471 -0.00261605  0.0429837 -0.102816 -0.0027529  0.0443069 -0.115236 -0.0029074  0.045385 -0.128054 -0.00307667  0.0462296 -0.141218 -0.00326121  0.0468602 -0.154684 -0.00345969  0.0472918 -0.168405 -0.00367033  0.0475378 -0.182345 -0.00389111  0.0476158 -0.196465 -0.00412464  0.0475419 -0.210728 -0.0043664  0.0473251 -0.225111 -0.00461829  0.0469868 -0.239575 -0.00487769  0.0465376 -0.254104 -0.00514305  0.0459881 -0.268672 -0.00541627  0.0453629 -0.283259 -0.00569737  0.0446641 -0.297849 -0.00598192  0.0439103 -0.312429 -0.0062741  0.043117 -0.326989 -0.00656867  0.042295 -0.341522 -0.00686991  0.0414596 -0.356028 -0.00717258  0.0406199 -0.370515 -0.00747323  0 0 0  -0.00434564 -0.00571107 0.00216556  -0.00859912 -0.008693 0.00343561  -0.0130951 -0.0122535 0.00393999  -0.017551 -0.0168874 0.00396025  -0.0218168 -0.022608 0.00371575  -0.025847 -0.0293359 0.00334024  -0.0296327 -0.0369817 0.00290823  -0.0331845 -0.0454607 0.00245285  -0.0365179 -0.054704 0.00198805  -0.0396476 -0.0646416 0.00152493  -0.0425817 -0.0752151 0.00106108  -0.0453358 -0.0863637 0.00059855  -0.0479157 -0.0980328 0.000138164  -0.0503333 -0.11017 -0.000319123  -0.0525967 -0.122724 -0.000776291  -0.0547094 -0.13565 -0.00122988  -0.0566823 -0.148898 -0.00168097  -0.0585237 -0.16243 -0.00212669  -0.0602374 -0.176203 -0.00256765  -0.0618317 -0.190183 -0.00300348  -0.0633173 -0.204328 -0.0034312  -0.0646985 -0.218614 -0.0038532  -0.0659835 -0.233006 -0.00426519  -0.0671804 -0.247478 -0.00467205  -0.0683007 -0.262006 -0.00506556  -0.0693483 -0.276571 -0.00545025  -0.0703363 -0.291148 -0.0058223  -0.0712698 -0.305727 -0.00618482  -0.0721607 -0.320292 -0.00653398  -0.0730212 -0.33483 -0.00687253  -0.0738647 -0.349342 -0.00720048  -0.0747068 -0.363835 -0.00752747  0 0 0  -0.00190394 -0.00300819 0.00161552  -0.00541152 -0.00620965 0.00255346  -0.00899717 -0.0101265 0.002913  -0.0123985 -0.0150544 0.00290143  -0.0156173 -0.0210132 0.00268805  -0.0186688 -0.0279473 0.00237346  -0.0215591 -0.0357804 0.00200963  -0.0242962 -0.0444375 0.00162649  -0.0268892 -0.0538486 0.0012331  -0.0293466 -0.0639484 0.000834823  -0.031674 -0.0746728 0.000435233  -0.0338812 -0.0859686 3.34978e-05  -0.0359725 -0.0977748 -0.000371099  -0.0379542 -0.110041 -0.000776768  -0.03983 -0.122718 -0.00118279  -0.041605 -0.135752 -0.00158918  -0.043283 -0.149107 -0.00199413  -0.0448711 -0.162732 -0.00240099  -0.0463717 -0.176594 -0.00280333  -0.0477884 -0.190651 -0.00320315  -0.0491264 -0.204867 -0.0035975  -0.0503919 -0.219213 -0.0039897  -0.0515876 -0.23366 -0.00437665  -0.0527194 -0.248178 -0.00475621  -0.0537951 -0.262748 -0.00513005  -0.054817 -0.277341 -0.00549507  -0.0557947 -0.291947 -0.00585365  -0.0567298 -0.306542 -0.00620115  -0.0576346 -0.321121 -0.00654292  -0.0585134 -0.335669 -0.00687695  -0.0593712 -0.350181 -0.00720286  -0.0602202 -0.364662 -0.00752568  0 0 0  -0.00106184 -0.00144538 0.00107372  -0.00312385 -0.00456586 0.00170135  -0.00549334 -0.0086785 0.00191295  -0.00780076 -0.0137969 0.00186479  -0.00998425 -0.0199257 0.00167644  -0.0120573 -0.0270121 0.00141823  -0.0140383 -0.0349867 0.00112331  -0.0159395 -0.0437787 0.000811458  -0.0177684 -0.0533186 0.0004884  -0.0195299 -0.0635428 0.000156164  -0.0212275 -0.0743891 -0.000181556  -0.0228646 -0.0857979 -0.000525355  -0.0244414 -0.0977138 -0.000873208  -0.0259626 -0.110083 -0.00122559  -0.0274292 -0.122856 -0.00158358  -0.0288424 -0.135983 -0.00194311  -0.0302048 -0.14942 -0.00230598  -0.031517 -0.163124 -0.00266957  -0.0327785 -0.177054 -0.00303435  -0.0339944 -0.191171 -0.00339925  -0.0351651 -0.205444 -0.00376296  -0.0362916 -0.219842 -0.00412488  -0.0373759 -0.23433 -0.00448453  -0.0384223 -0.248887 -0.00484145  -0.0394316 -0.263486 -0.00519264  -0.0404074 -0.278108 -0.00554013  -0.0413556 -0.292732 -0.00588322  -0.0422723 -0.307347 -0.00622082  -0.0431693 -0.321938 -0.0065521  -0.0440438 -0.336493 -0.00687766  -0.0449047 -0.35101 -0.00720096  -0.0457549 -0.365482 -0.00752223  0 0 0  -0.000478961 -0.000797033 0.000519156  -0.00140166 -0.00365269 0.000813842  -0.0025152 -0.00783366 0.000890613  -0.00365233 -0.0130945 0.000819325  -0.00475907 -0.0193517 0.000666976  -0.00583714 -0.0265471 0.000469089  -0.00689763 -0.0346206 0.000245333  -0.00795251 -0.0435054 3.93391e-06  -0.00900364 -0.0531378 -0.000250101  -0.010054 -0.0634517 -0.000515223  -0.0111045 -0.0743857 -0.000790954  -0.0121553 -0.08588 -0.00107551  -0.0132012 -0.097877 -0.00136936  -0.0142461 -0.110324 -0.00167084  -0.0152879 -0.123169 -0.00197911  -0.0163229 -0.136364 -0.00229311  -0.0173512 -0.149863 -0.00261176  -0.0183704 -0.163624 -0.00293672  -0.0193818 -0.177605 -0.00326467  -0.0203784 -0.191772 -0.00359356  -0.0213649 -0.206087 -0.00392532  -0.0223379 -0.22052 -0.00425911  -0.0232964 -0.235041 -0.00459206  -0.0242398 -0.249624 -0.00492418  -0.0251691 -0.264246 -0.00525641  -0.0260859 -0.278888 -0.00558615  -0.0269866 -0.293529 -0.00591373  -0.0278749 -0.308155 -0.00623882  -0.0287499 -0.322755 -0.00656033  -0.0296118 -0.337318 -0.00687897  -0.0304646 -0.351836 -0.00719559  -0.0313113 -0.366299 -0.00751245  0 0 0  -3.91155e-06 -0.000652641 -5.47171e-05  0.000105649 -0.00342211 -9.7394e-05  0.000205606 -0.00763685 -0.000151038  0.00025326 -0.0129687 -0.00023222  0.000243485 -0.0192988 -0.000341296  0.000173867 -0.0265577 -0.000472903  3.86834e-05 -0.0346895 -0.000624299  -0.000163198 -0.0436313 -0.00079453  -0.000430942 -0.0533195 -0.00097847  -0.000763655 -0.0636907 -0.0011797  -0.00115919 -0.0746815 -0.00139403  -0.00161266 -0.086231 -0.00162053  -0.0021224 -0.0982827 -0.00186014  -0.00268126 -0.110781 -0.00210977  -0.0032872 -0.123675 -0.0023706  -0.00393641 -0.136915 -0.00263989  -0.00462151 -0.150456 -0.0029155  -0.0053401 -0.164255 -0.00320101  -0.00608659 -0.178271 -0.00349104  -0.00685763 -0.192468 -0.00378633  -0.00765061 -0.206811 -0.00408697  -0.00846148 -0.221264 -0.00439072  -0.00928569 -0.235806 -0.00469863  -0.0101199 -0.250407 -0.00500941  -0.0109615 -0.265043 -0.00531924  -0.0118093 -0.279694 -0.00563323  -0.0126565 -0.294344 -0.00594425  -0.0135062 -0.308978 -0.00625646  -0.014354 -0.323581 -0.00656784  -0.0152016 -0.338147 -0.00688076  -0.0160453 -0.352668 -0.00719118  -0.0168836 -0.367129 -0.00750101  0 0 0  0.000462666 -0.000901639 -0.000622869  0.00161538 -0.00380856 -0.000997663  0.00292042 -0.0080772 -0.00117886  0.00414497 -0.0134328 -0.00127077  0.00522798 -0.0197741 -0.00133455  0.00616217 -0.0270468 -0.00140166  0.00694942 -0.0351951 -0.00148225  0.00759888 -0.0441579 -0.00158095  0.00811124 -0.0538716 -0.00169957  0.00849593 -0.0642687 -0.00183403  0.00875628 -0.075287 -0.00198972  0.00889945 -0.0868644 -0.00215912  0.00892961 -0.0989435 -0.00234544  0.0088588 -0.111469 -0.00254464  0.00868952 -0.124388 -0.00275767  0.00843072 -0.13765 -0.00298059  0.00809169 -0.151213 -0.00321579  0.00767541 -0.165029 -0.0034616  0.00719118 -0.179061 -0.00371492  0.00664639 -0.193271 -0.00397718  0.00604868 -0.207624 -0.00424683  0.0054028 -0.222088 -0.0045222  0.00471473 -0.236636 -0.00480473  0.00399184 -0.251244 -0.00509107  0.00323796 -0.265883 -0.00538146  0.00246429 -0.280536 -0.00567758  0.00166774 -0.295188 -0.00597298  0.000856638 -0.30982 -0.00627387  3.48091e-05 -0.324423 -0.00657785  -0.000794888 -0.338989 -0.00688171  -0.00162697 -0.353508 -0.00718451  -0.00245619 -0.367971 -0.0074861  0 0 0  0.00103794 -0.0016163 -0.00115347  0.00334993 -0.0048461 -0.00184441  0.0058721 -0.0091638 -0.00215852  0.00824445 -0.0144764 -0.00227261  0.0103903 -0.020769 -0.00230205  0.0123078 -0.0280069 -0.00230932  0.0140063 -0.0361345 -0.00232279  0.0154952 -0.0450864 -0.00235367  0.0167818 -0.054794 -0.002406  0.017876 -0.0651891 -0.00247931  0.0187845 -0.0762079 -0.00257564  0.0195173 -0.0877864 -0.00268972  0.0200849 -0.099867 -0.00282204  0.0204946 -0.112394 -0.0029726  0.0207568 -0.125313 -0.00313735  0.0208831 -0.138577 -0.00331903  0.0208833 -0.152138 -0.00351119  0.0207658 -0.165953 -0.00371742  0.0205417 -0.179982 -0.00393546  0.0202196 -0.194188 -0.00416362  0.0198114 -0.208536 -0.00440228  0.0193253 -0.222995 -0.00465059  0.0187678 -0.237537 -0.00490665  0.0181513 -0.252137 -0.00517154  0.0174842 -0.266769 -0.00544143  0.0167699 -0.281416 -0.00571871  0.0160232 -0.296058 -0.00600362  0.0152476 -0.310683 -0.00629008  0.0144475 -0.325281 -0.00658524  0.0136321 -0.339841 -0.00688112  0.0128052 -0.354357 -0.00718045  0.0119762 -0.368828 -0.007478  0 0 0  0.00198039 -0.00307757 -0.00163412  0.00559667 -0.00665784 -0.00262594  0.00928864 -0.0108944 -0.00308454  0.0127422 -0.0160689 -0.00323129  0.0159071 -0.022256 -0.0032357  0.0187804 -0.0294227 -0.00319266  0.0213698 -0.0374991 -0.00314379  0.0236847 -0.0464105 -0.00311005  0.0257323 -0.0560851 -0.0030992  0.0275233 -0.0664505 -0.00311327  0.0290686 -0.0774418 -0.00314987  0.0303807 -0.0889958 -0.00320983  0.0314705 -0.101054 -0.00329113  0.0323529 -0.113557 -0.00339139  0.0330352 -0.126455 -0.00351119  0.0335336 -0.139696 -0.00364649  0.0338609 -0.153236 -0.00380015  0.0340307 -0.167028 -0.0039686  0.0340538 -0.181036 -0.00415039  0.0339434 -0.19522 -0.00434613  0.0337143 -0.209548 -0.00455439  0.0333734 -0.223986 -0.00477552  0.0329349 -0.238506 -0.0050056  0.0324121 -0.253085 -0.00524628  0.031816 -0.267699 -0.00549793  0.031157 -0.282328 -0.00576007  0.030443 -0.296953 -0.00602877  0.0296881 -0.311564 -0.00630522  0.0289013 -0.326148 -0.00659168  0.0280912 -0.340699 -0.00688243  0.0272655 -0.355209 -0.0071758  0.0264339 -0.369692 -0.00747192  0 0 0  0.00399834 -0.00592834 -0.00211155  0.00865853 -0.00926101 -0.00340235  0.0132978 -0.013162 -0.00398982  0.0177502 -0.0181355 -0.0041678  0.0219057 -0.0241992 -0.0041467  0.0257217 -0.0312764 -0.00405157  0.0291884 -0.039277 -0.00394356  0.0323114 -0.0481237 -0.00384808  0.0351033 -0.0577378 -0.00377798  0.0375745 -0.0680495 -0.0037328  0.0397391 -0.078986 -0.00371504  0.0416125 -0.0904901 -0.00372124  0.0432084 -0.102499 -0.00375104  0.04454 -0.114957 -0.00380492  0.0456251 -0.127807 -0.0038774  0.0464787 -0.141005 -0.00397122  0.0471172 -0.154501 -0.00408494  0.0475552 -0.168251 -0.00421417  0.0478075 -0.182218 -0.00436294  0.0478933 -0.196361 -0.00452578  0.047822 -0.210651 -0.00470555  0.0476098 -0.225052 -0.00489724  0.0472732 -0.239537 -0.00510371  0.046824 -0.254081 -0.00532269  0.0462842 -0.268663 -0.00555444  0.0456576 -0.283262 -0.0057981  0.0449615 -0.297864 -0.00605428  0.044208 -0.312451 -0.00632083  0.0434146 -0.327017 -0.00659811  0.0425906 -0.341554 -0.0068835  0.0417533 -0.35606 -0.00717521  0.0409131 -0.370549 -0.00747049  0 0 0  -0.00438067 -0.0048792 0.00362992  -0.0087373 -0.00742377 0.00548923  -0.0131778 -0.0108514 0.00611162  -0.0175278 -0.0154998 0.00606692  -0.02169 -0.0212973 0.00569618  -0.0256316 -0.0281221 0.00517857  -0.0293558 -0.0358684 0.00460052  -0.0328668 -0.0444473 0.00400221  -0.0361732 -0.0537814 0.00340605  -0.0392839 -0.0638081 0.00281584  -0.0422083 -0.0744621 0.00223267  -0.0449557 -0.0856882 0.00165606  -0.0475328 -0.0974308 0.00108874  -0.0499479 -0.109635 0.000529408  -0.0522101 -0.122254 -1.97887e-05  -0.0543256 -0.135239 -0.00056529  -0.056299 -0.148542 -0.00109744  -0.0581431 -0.162128 -0.00162053  -0.0598624 -0.17595 -0.00213456  -0.0614631 -0.189973 -0.00263703  -0.0629506 -0.204161 -0.00312626  -0.064338 -0.218484 -0.00360417  -0.0656276 -0.232909 -0.00406468  -0.0668309 -0.247411 -0.00451481  -0.0679562 -0.261968 -0.00494802  -0.0690074 -0.276551 -0.00536823  -0.0699995 -0.29115 -0.00576758  -0.0709352 -0.305742 -0.0061506  -0.0718324 -0.320317 -0.00651765  -0.0726936 -0.334864 -0.00686955  -0.0735371 -0.349379 -0.00720358  -0.074379 -0.363868 -0.00753379  0 0 0  -0.002147 -0.00242033 0.00274336  -0.0056994 -0.0051776 0.00409269  -0.0091393 -0.00890626 0.00451827  -0.0123738 -0.0137923 0.00445402  -0.0154586 -0.019784 0.00415027  -0.0184137 -0.0267856 0.00373411  -0.0212395 -0.0347001 0.00326586  -0.0239355 -0.0434446 0.0027802  -0.0265028 -0.0529415 0.0022887  -0.0289448 -0.0631237 0.00179732  -0.0312648 -0.0739288 0.0013082  -0.0334674 -0.0852984 0.000821233  -0.0355562 -0.0971769 0.000337958  -0.0375388 -0.10951 -0.000142694  -0.0394166 -0.122249 -0.000620127  -0.041194 -0.135345 -0.00109124  -0.0428789 -0.148754 -0.0015614  -0.0444708 -0.162432 -0.00202334  -0.0459738 -0.176339 -0.0024792  -0.0473955 -0.190439 -0.00292814  -0.0487421 -0.204699 -0.00337076  -0.0500121 -0.219081 -0.00380254  -0.0512161 -0.23356 -0.00422633  -0.0523565 -0.248109 -0.00463963  -0.0534391 -0.262703 -0.00504196  -0.0544672 -0.27732 -0.00543094  -0.0554531 -0.291942 -0.00581014  -0.0563955 -0.306555 -0.00617695  -0.057303 -0.321144 -0.00653052  -0.0581834 -0.335698 -0.00687122  -0.0590451 -0.350215 -0.00720537  -0.0598929 -0.364696 -0.00753677  0 0 0  -0.00123295 -0.000981122 0.00185227  -0.00335062 -0.00372273 0.00275445  -0.00560957 -0.0076157 0.00298965  -0.0077714 -0.0126461 0.00289011  -0.00983262 -0.0187671 0.00263608  -0.0118175 -0.025895 0.0023098  -0.0137396 -0.0339343 0.001948  -0.0156031 -0.042801 0.00156891  -0.0174084 -0.0524212 0.00118124  -0.0191561 -0.0627257 0.000787973  -0.020843 -0.0736475 0.000390887  -0.0224745 -0.0851304 -6.4373e-06  -0.0240493 -0.0971164 -0.000408053  -0.0255703 -0.109553 -0.0008111  -0.0270368 -0.122387 -0.00121367  -0.0284514 -0.135574 -0.0016185  -0.0298157 -0.149064 -0.00202119  -0.0311313 -0.162819 -0.00242424  -0.0323982 -0.176796 -0.00282335  -0.0336175 -0.190959 -0.0032202  -0.0347922 -0.205273 -0.00361431  -0.0359244 -0.219705 -0.00400281  -0.0370173 -0.234229 -0.00438726  -0.0380676 -0.248813 -0.00476444  -0.0390842 -0.263438 -0.0051347  -0.0400665 -0.278081 -0.00549996  -0.0410182 -0.292726 -0.00585544  -0.0419416 -0.307355 -0.00620186  -0.042841 -0.321956 -0.00654054  -0.0437195 -0.336522 -0.00687599  -0.0445812 -0.351042 -0.00720406  -0.0454316 -0.365512 -0.00753498  0 0 0  -0.000546306 -0.000393271 0.000895381  -0.00148928 -0.00291559 0.00134087  -0.00254124 -0.00687215 0.00142241  -0.0035865 -0.0120191 0.00131834  -0.00461102 -0.0182459 0.00112832  -0.00562608 -0.025463 0.000896335  -0.00664264 -0.0335893 0.000639677  -0.00766647 -0.0425423 0.000365496  -0.00869656 -0.0522483 8.09431e-05  -0.00973225 -0.0626382 -0.000214815  -0.0107723 -0.0736475 -0.000519514  -0.0118141 -0.0852142 -0.000831127  -0.0128562 -0.0972803 -0.00114965  -0.0138984 -0.109793 -0.00147462  -0.0149374 -0.1227 -0.00180662  -0.0159709 -0.135951 -0.00214171  -0.0169997 -0.149506 -0.00248063  -0.0180194 -0.163317 -0.00282359  -0.0190296 -0.177347 -0.00316751  -0.0200307 -0.191556 -0.00351238  -0.0210173 -0.20591 -0.00385857  -0.0219941 -0.22038 -0.00420368  -0.0229547 -0.234935 -0.00455034  -0.0239031 -0.249548 -0.0048914  -0.0248363 -0.264196 -0.00523102  -0.0257561 -0.278859 -0.00556922  -0.0266614 -0.293517 -0.00590265  -0.0275524 -0.30816 -0.00623119  -0.0284312 -0.322771 -0.00655782  -0.0292957 -0.337344 -0.00688052  -0.0301502 -0.351867 -0.00719905  -0.0309958 -0.366328 -0.00751913  0 0 0  3.20375e-05 -0.00027439 -9.5129e-05  0.000169069 -0.00272813 -0.000125408  0.000292182 -0.00671965 -0.000175953  0.000370681 -0.011933 -0.000262856  0.000395298 -0.0182218 -0.000374794  0.000355721 -0.0254952 -0.000508547  0.000247419 -0.0336728 -0.000658393  6.78301e-05 -0.0426778 -0.000826001  -0.000183582 -0.0524379 -0.00101054  -0.000502825 -0.0628829 -0.00121057  -0.000886321 -0.0739472 -0.00142348  -0.00133049 -0.085568 -0.00164902  -0.00183308 -0.0976879 -0.0018878  -0.00238526 -0.110251 -0.00213695  -0.00298631 -0.123206 -0.00239515  -0.0036298 -0.136503 -0.0026629  -0.00430989 -0.150098 -0.00293875  -0.00502801 -0.163947 -0.00322163  -0.00577402 -0.178011 -0.00351059  -0.00654483 -0.192251 -0.00380361  -0.00733829 -0.206632 -0.00410295  -0.00814676 -0.221124 -0.00440657  -0.00897145 -0.235699 -0.0047121  -0.00980568 -0.250327 -0.00501895  -0.010649 -0.264989 -0.00533009  -0.0114956 -0.279664 -0.00564015  -0.0123456 -0.294333 -0.00595093  -0.0131979 -0.308981 -0.00626278  -0.0140479 -0.323598 -0.00657296  -0.0148952 -0.338173 -0.00688338  -0.0157371 -0.352697 -0.00719273  -0.0165749 -0.367154 -0.0074991  0 0 0  0.000601336 -0.000517845 -0.00107884  0.00182679 -0.00310779 -0.00157845  0.00311753 -0.00715947 -0.00176179  0.00431633 -0.0124012 -0.00182807  0.00538546 -0.0187053 -0.0018611  0.00631773 -0.0259938 -0.00189507  0.00711298 -0.0341882 -0.00194192  0.00777364 -0.0432141 -0.00200617  0.00829923 -0.0529965 -0.00209177  0.00869656 -0.0634679 -0.0021975  0.00896919 -0.0745579 -0.00232041  0.00912261 -0.0862061 -0.00246227  0.009166 -0.0983514 -0.00261962  0.00910234 -0.110941 -0.00279236  0.00894082 -0.12392 -0.00298095  0.00869012 -0.137241 -0.00317979  0.00835514 -0.150855 -0.00339341  0.00794554 -0.164723 -0.00361633  0.00746703 -0.1788 -0.00385058  0.00692773 -0.193053 -0.00409377  0.00633192 -0.207447 -0.00434625  0.00568843 -0.221947 -0.00460601  0.00500441 -0.236529 -0.00487339  0.00428343 -0.251164 -0.0051465  0.00353432 -0.265829 -0.00542521  0.00275922 -0.280506 -0.00571036  0.00196338 -0.295176 -0.00599909  0.00115609 -0.309823 -0.00629246  0.00033474 -0.324439 -0.00658774  -0.000492573 -0.339013 -0.00688565  -0.00132871 -0.353539 -0.00718546  -0.00216031 -0.368 -0.00748503  0 0 0  0.00126994 -0.00117999 -0.00200784  0.00368762 -0.00407785 -0.00295162  0.00616133 -0.00819266 -0.00327909  0.00845939 -0.0134142 -0.00334609  0.0105525 -0.0196876 -0.00331378  0.0124414 -0.026954 -0.00325835  0.0141305 -0.0351332 -0.00320542  0.0156225 -0.0441502 -0.00317013  0.0169183 -0.0539283 -0.00315905  0.0180256 -0.0643956 -0.00317121  0.0189482 -0.0754852 -0.00320697  0.0196947 -0.0871334 -0.00326478  0.020274 -0.099281 -0.00334275  0.0206964 -0.11187 -0.00344121  0.0209688 -0.12485 -0.00355721  0.0211051 -0.138169 -0.00369132  0.0211124 -0.151784 -0.00384092  0.0210021 -0.165649 -0.00400651  0.0207851 -0.179725 -0.0041858  0.0204706 -0.193972 -0.00437725  0.0200667 -0.20836 -0.00458372  0.0195885 -0.222857 -0.00480151  0.0190358 -0.23743 -0.00503004  0.0184236 -0.252059 -0.0052706  0.0177608 -0.266716 -0.00551927  0.0170512 -0.281385 -0.00577664  0.0163057 -0.296047 -0.00604475  0.0155325 -0.310688 -0.00631893  0.0147378 -0.325298 -0.00660121  0.0139213 -0.339865 -0.00688899  0.0130982 -0.354386 -0.00718033  0.01227 -0.368858 -0.00746989  0 0 0  0.00226662 -0.00252062 -0.00282586  0.00600636 -0.00574034 -0.0042069  0.00963312 -0.00981855 -0.00471675  0.0129882 -0.0149449 -0.00481093  0.0160754 -0.0211478 -0.00473261  0.0189059 -0.0283611 -0.00459349  0.0214779 -0.0365003 -0.00444651  0.0237895 -0.045482 -0.00431621  0.0258434 -0.0552284 -0.00420904  0.0276475 -0.065668 -0.00413179  0.0292064 -0.0767307 -0.00407946  0.0305327 -0.0883539 -0.00405514  0.0316356 -0.100475 -0.00405598  0.0325286 -0.113042 -0.00407863  0.0332233 -0.125998 -0.0041244  0.0337341 -0.139296 -0.00419247  0.0340719 -0.152887 -0.00427926  0.0342507 -0.166731 -0.00438762  0.0342822 -0.180783 -0.00451279  0.0341794 -0.195012 -0.00465703  0.0339551 -0.209376 -0.00481498  0.0336227 -0.223851 -0.00499249  0.0331922 -0.238404 -0.00518191  0.0326741 -0.253011 -0.0053879  0.0320847 -0.26765 -0.00560617  0.0314288 -0.282301 -0.00584054  0.0307212 -0.296946 -0.0060854  0.0299706 -0.311573 -0.00634384  0.0291865 -0.326168 -0.00661433  0.0283785 -0.340725 -0.00689244  0.0275531 -0.355241 -0.00717819  0.0267234 -0.369721 -0.0074631  0 0 0  0.00412486 -0.00517809 -0.00356877  0.0089854 -0.00814402 -0.00546217  0.0136374 -0.0119487 -0.00616193  0.0180246 -0.0169355 -0.00627351  0.022114 -0.023056 -0.00613415  0.0258864 -0.0302049 -0.00590789  0.0293327 -0.0382833 -0.00566578  0.0324507 -0.0472077 -0.00543964  0.035246 -0.0568975 -0.00524199  0.0377284 -0.0672819 -0.00507343  0.0399039 -0.0782913 -0.00493801  0.0417897 -0.0898647 -0.00483143  0.0433967 -0.101937 -0.00475383  0.0447408 -0.114455 -0.00470424  0.045837 -0.127365 -0.00468194  0.0467029 -0.14062 -0.00468469  0.047349 -0.154165 -0.00471056  0.0477931 -0.167966 -0.00476146  0.0480533 -0.181977 -0.00483227  0.0481448 -0.196164 -0.00492668  0.0480783 -0.21049 -0.00504196  0.0478716 -0.224926 -0.0051769  0.0475404 -0.239443 -0.00532889  0.0470991 -0.254016 -0.00550067  0.0465617 -0.268624 -0.00568962  0.0459361 -0.283245 -0.00589883  0.0452406 -0.297863 -0.00612319  0.0444937 -0.312466 -0.00636375  0.0436978 -0.327043 -0.00662184  0.042877 -0.341583 -0.0068928  0.042038 -0.356094 -0.00717568  0.0411983 -0.370576 -0.00746024  0 0 0  -0.00519537 -0.00339981 0.00583982  -0.00918148 -0.00547901 0.00779343  -0.0132373 -0.00880351 0.00829017  -0.017314 -0.013526 0.00810599  -0.0212966 -0.0194637 0.00760067  -0.0251351 -0.0264454 0.00694633  -0.028799 -0.0343403 0.00623894  -0.03228 -0.0430588 0.00551522  -0.0355749 -0.0525228 0.00479424  -0.0386826 -0.0626696 0.00408363  -0.0416118 -0.0734377 0.00338352  -0.0443639 -0.0847671 0.00269902  -0.0469517 -0.0966073 0.00202727  -0.0493789 -0.108906 0.00136924  -0.0516524 -0.121615 0.000723481  -0.0537806 -0.13468 9.38177e-05  -0.0557716 -0.148065 -0.000524044  -0.0576291 -0.161717 -0.00112307  -0.0593622 -0.175607 -0.00170696  -0.0609734 -0.189689 -0.00227654  -0.0624785 -0.203933 -0.00282359  -0.0638809 -0.218306 -0.00335765  -0.0651898 -0.232776 -0.0038687  -0.0664051 -0.247321 -0.00436223  -0.0675471 -0.26191 -0.0048362  -0.0686162 -0.276526 -0.00528884  -0.0696235 -0.291148 -0.00571728  -0.0705738 -0.305762 -0.00612164  -0.0714827 -0.320349 -0.00650406  -0.0723515 -0.334902 -0.00686586  -0.0732009 -0.349417 -0.00720799  -0.0740452 -0.363908 -0.00754404  0 0 0  -0.0033078 -0.00135619 0.0044688  -0.00640032 -0.00350886 0.00577545  -0.00931039 -0.00706712 0.00606859  -0.0121997 -0.0119583 0.00591481  -0.0150831 -0.0180358 0.00553071  -0.017925 -0.025153 0.00503218  -0.0206922 -0.0331975 0.00447655  -0.0233608 -0.0420673 0.00390375  -0.0259172 -0.0516885 0.00332212  -0.0283564 -0.0619878 0.00274289  -0.0306803 -0.0729045 0.00216913  -0.0328904 -0.0843767 0.00159991  -0.0349879 -0.0963524 0.00103962  -0.0369799 -0.108778 0.00048542  -0.0388694 -0.121605 -6.06775e-05  -0.0406593 -0.134782 -0.0006001  -0.0423541 -0.148265 -0.00112724  -0.0439589 -0.162014 -0.00164819  -0.045481 -0.17599 -0.0021565  -0.0469162 -0.190151 -0.00265563  -0.0482755 -0.204463 -0.00314152  -0.0495617 -0.218896 -0.00361419  -0.0507793 -0.23342 -0.0040766  -0.0519357 -0.24801 -0.0045197  -0.0530322 -0.262637 -0.00495136  -0.0540779 -0.277285 -0.0053643  -0.0550766 -0.291932 -0.00576591  -0.0560334 -0.306567 -0.00614572  -0.0569539 -0.321168 -0.00651395  -0.0578423 -0.335731 -0.00686574  -0.0587118 -0.350252 -0.0072087  -0.0595601 -0.364737 -0.00754809  0 0 0  -0.00197946 2.77162e-05 0.00306261  -0.00380963 -0.00223878 0.00386977  -0.0057078 -0.00592321 0.00396919  -0.00761649 -0.0109065 0.00380754  -0.00952184 -0.0170748 0.00351346  -0.0114165 -0.0242953 0.00314283  -0.0132871 -0.0324448 0.00273407  -0.0151233 -0.0414329 0.00230062  -0.016915 -0.0511695 0.00185537  -0.0186546 -0.061585 0.00140595  -0.0203412 -0.0726169 0.000955105  -0.0219756 -0.0842028 0.000502467  -0.0235549 -0.0962874 4.93526e-05  -0.0250818 -0.108814 -0.000400543  -0.0265558 -0.121736 -0.000850439  -0.027977 -0.135002 -0.00129557  -0.0293498 -0.148569 -0.00173891  -0.0306735 -0.162394 -0.00217891  -0.0319526 -0.176436 -0.00261486  -0.0331819 -0.19066 -0.00304163  -0.0343688 -0.205029 -0.00346506  -0.0355122 -0.219511 -0.0038805  -0.0366108 -0.234078 -0.004287  -0.0376768 -0.248704 -0.0046854  -0.0387037 -0.263366 -0.00507569  -0.0396962 -0.278039 -0.00545537  -0.0406582 -0.292708 -0.00582373  -0.0415938 -0.307359 -0.00618398  -0.0425034 -0.321976 -0.00653255  -0.0433896 -0.336551 -0.00687087  -0.0442524 -0.351079 -0.00720644  -0.0451 -0.365556 -0.00754392  0 0 0  -0.000918247 0.000574648 0.00147986  -0.00169648 -0.00148025 0.00187492  -0.0025368 -0.00523302 0.00187361  -0.00343248 -0.0103262 0.00173259  -0.00435966 -0.0165855 0.00152576  -0.00531369 -0.0238844 0.00127947  -0.0062921 -0.0321132 0.00100279  -0.00729114 -0.0411782 0.000705719  -0.00830388 -0.050997 0.000396371  -0.00933146 -0.061499 7.21216e-05  -0.0103652 -0.0726146 -0.000256777  -0.0114051 -0.084282 -0.000594735  -0.012447 -0.0964453 -0.000938416  -0.0134909 -0.109049 -0.00128579  -0.0145308 -0.12204 -0.0016402  -0.0155687 -0.135376 -0.00199509  -0.0166001 -0.149004 -0.00235212  -0.0176251 -0.162886 -0.00271261  -0.0186419 -0.176979 -0.00307322  -0.0196447 -0.191248 -0.00343144  -0.0206418 -0.205659 -0.00379431  -0.0216241 -0.22018 -0.00414836  -0.0225928 -0.234778 -0.00450444  -0.0235476 -0.249433 -0.00485754  -0.0244877 -0.264116 -0.00520635  -0.0254118 -0.27881 -0.00555074  -0.0263245 -0.293494 -0.0058912  -0.0272222 -0.308157 -0.0062238  -0.028106 -0.322787 -0.00655258  -0.0289752 -0.337372 -0.00687838  -0.0298319 -0.351907 -0.00720274  -0.0306759 -0.366372 -0.00752854  0 0 0  1.67042e-05 0.000668108 -0.000139832  0.000211209 -0.00132021 -0.000179768  0.000397414 -0.00510505 -0.000247836  0.000526428 -0.010264 -0.000337601  0.000589252 -0.0165828 -0.000442505  0.000580728 -0.0239323 -0.000567436  0.000496805 -0.0322078 -0.000711679  0.000336528 -0.0413216 -0.000877261  0.000101328 -0.0511903 -0.00105643  -0.000203848 -0.0617438 -0.00125384  -0.000577927 -0.0729141 -0.00146532  -0.0010159 -0.0846355 -0.00168896  -0.0015111 -0.0968496 -0.00192428  -0.00205863 -0.109503 -0.00216949  -0.00265634 -0.122543 -0.0024277  -0.00329792 -0.135922 -0.00269139  -0.0039804 -0.149591 -0.00296605  -0.00469732 -0.163511 -0.00324714  -0.00544572 -0.177639 -0.00353217  -0.00621653 -0.19194 -0.00382471  -0.0070076 -0.206375 -0.00412107  -0.00782132 -0.220918 -0.00442243  -0.00864935 -0.23554 -0.0047251  -0.00948858 -0.25021 -0.0050323  -0.0103312 -0.264905 -0.0053395  -0.0111799 -0.279612 -0.00564897  -0.012033 -0.294306 -0.00595641  -0.0128853 -0.308976 -0.00626862  -0.0137379 -0.323611 -0.0065763  -0.0145881 -0.338199 -0.00688684  -0.0154305 -0.352737 -0.00719213  -0.0162692 -0.367199 -0.00750172  0 0 0  0.000927418 0.000405967 -0.00174737  0.00211009 -0.00172156 -0.00221336  0.00331697 -0.00556386 -0.0023489  0.00446975 -0.0107493 -0.00238442  0.00552267 -0.0170842 -0.00239098  0.00645876 -0.0244447 -0.00239563  0.00726479 -0.0327343 -0.00241101  0.00794137 -0.0418648 -0.00244367  0.00848258 -0.0517569 -0.00249887  0.00889373 -0.0623337 -0.0025723  0.00918162 -0.0735268 -0.00266302  0.00934649 -0.0852733 -0.00277567  0.0093981 -0.0975155 -0.00290513  0.0093435 -0.110193 -0.00304866  0.00919354 -0.123258 -0.0032109  0.0089488 -0.136656 -0.0033859  0.00861907 -0.150346 -0.0035758  0.00821352 -0.164284 -0.00377762  0.00773978 -0.178427 -0.00398958  0.00720119 -0.192741 -0.00421441  0.00660801 -0.207189 -0.00444806  0.00596905 -0.221741 -0.00469065  0.00528598 -0.236366 -0.0049448  0.00456905 -0.251041 -0.00520396  0.0038178 -0.265744 -0.00547206  0.00304556 -0.280452 -0.00574493  0.00225234 -0.295149 -0.00602508  0.00144601 -0.309817 -0.00631082  0.000626087 -0.324451 -0.00660193  -0.00020051 -0.339039 -0.00689197  -0.00103283 -0.353573 -0.00718439  -0.00186586 -0.368039 -0.00747895  0 0 0  0.00192189 -0.000249803 -0.00329864  0.00420135 -0.00269485 -0.00415742  0.00645342 -0.00660473 -0.00438082  0.00861561 -0.0117718 -0.00438571  0.0106398 -0.0180763 -0.00430787  0.0125041 -0.0254147 -0.0042007  0.0141923 -0.0336898 -0.00409019  0.0156929 -0.0428114 -0.00399733  0.017005 -0.0526959 -0.00392389  0.018129 -0.06327 -0.00387514  0.0190688 -0.0744609 -0.00384963  0.0198298 -0.0862072 -0.00385106  0.020426 -0.0984473 -0.00387275  0.0208596 -0.111127 -0.00392044  0.0211445 -0.124189 -0.00398517  0.0212927 -0.137589 -0.00407147  0.0213103 -0.151278 -0.0041784  0.0212121 -0.165212 -0.00429881  0.0210006 -0.179354 -0.00443995  0.0206943 -0.193661 -0.00459635  0.0202999 -0.208106 -0.00476873  0.0198228 -0.222652 -0.00495839  0.0192788 -0.237271 -0.00515783  0.0186727 -0.251939 -0.00537181  0.0180168 -0.266633 -0.00559831  0.017314 -0.281337 -0.00583947  0.0165765 -0.296022 -0.00608766  0.0158081 -0.310687 -0.00635076  0.0150177 -0.32531 -0.00661969  0.0142047 -0.339892 -0.006899  0.0133812 -0.35442 -0.0071795  0.0125527 -0.368894 -0.00746  0 0 0  0.00322275 -0.00148362 -0.00471044  0.00673938 -0.00428367 -0.00596464  0.0100171 -0.00817937 -0.00633872  0.013145 -0.0132758 -0.00635052  0.0161167 -0.0195245 -0.00619924  0.0189005 -0.0268227 -0.00598145  0.021459 -0.0350647 -0.00574839  0.0237777 -0.0441538 -0.00552821  0.0258493 -0.054009 -0.00533056  0.0276722 -0.0645528 -0.00516021  0.029251 -0.0757164 -0.00502098  0.030594 -0.0874365 -0.00491071  0.0317161 -0.0996518 -0.00483119  0.0326266 -0.112305 -0.004776  0.0333382 -0.125346 -0.00474679  0.0338626 -0.138722 -0.00474584  0.0342135 -0.152389 -0.00476646  0.0344033 -0.166299 -0.00481188  0.0344486 -0.180418 -0.00488222  0.0343568 -0.194706 -0.00497139  0.0341449 -0.209125 -0.00508118  0.0338223 -0.22365 -0.00521266  0.0334001 -0.238249 -0.00536311  0.0328958 -0.252898 -0.00553048  0.0323129 -0.267574 -0.00571942  0.0316691 -0.282257 -0.00592256  0.0309708 -0.296928 -0.00614429  0.0302305 -0.311575 -0.00638461  0.0294545 -0.326188 -0.00663674  0.0286534 -0.340752 -0.00690162  0.0278323 -0.355274 -0.00717878  0.0270009 -0.369759 -0.00745606  0 0 0  0.00542496 -0.0038206 -0.0057708  0.00990325 -0.0064221 -0.00779843  0.014092 -0.0101449 -0.00836849  0.0182009 -0.0151813 -0.00835335  0.0221559 -0.0213979 -0.00809658  0.0258698 -0.0286608 -0.00775111  0.0293009 -0.0368565 -0.00738728  0.0324267 -0.0458938 -0.0070349  0.035238 -0.0556951 -0.00671208  0.0377369 -0.0661852 -0.00642395  0.039933 -0.0772956 -0.0061686  0.0418407 -0.0889634 -0.00594938  0.0434661 -0.101127 -0.00576532  0.0448291 -0.113735 -0.00561321  0.0459411 -0.126728 -0.00549352  0.0468197 -0.140058 -0.00540161  0.0474808 -0.153678 -0.0053401  0.0479403 -0.167547 -0.00531089  0.0482097 -0.181624 -0.00530827  0.0483127 -0.195867 -0.0053308  0.0482602 -0.210249 -0.0053792  0.048063 -0.224736 -0.00545573  0.0477448 -0.239299 -0.00555587  0.0473113 -0.253913 -0.00567782  0.0467825 -0.268558 -0.00582671  0.0461714 -0.283209 -0.00599647  0.04549 -0.297853 -0.00618815  0.0447505 -0.312479 -0.00640488  0.0439649 -0.32707 -0.00663984  0.0431488 -0.34162 -0.00689828  0.0423169 -0.35613 -0.00717211  0.0414796 -0.370613 -0.00745142  0 0 0  -0.000687107 -0.000751853 -0.00209725  -0.000735167 -0.00137516 -0.00235802  -0.00216979 -0.000941794 -0.00387621  -0.00179986 -0.000426687 -0.00332528  -0.00258539 -0.0019054 -0.00387633  -0.000751883 -0.00162167 -0.00184953  -0.00291148 -0.00358365 -0.00345147  -0.0021541 -0.00318875 -0.00211114  0 0 0  -0.00214743 -0.00293753 -0.0026238  0 0 0  0 0 0  -0.000604637 -0.000948988 -0.00156939  0 0 0  -0.00481188 -0.00428366 -0.0049836  -0.00320432 -0.0020744 -0.00392044  -0.00331636 -0.00301635 -0.00447458  -0.00450024 -0.00223316 -0.00551838  -0.00442751 -0.00311287 -0.00469619  -0.0055813 -0.00414195 -0.00544828  -0.00637734 -0.0032852 -0.00629932  -0.00511426 -0.00233266 -0.00544661  -0.00620711 -0.00453579 -0.00529808  -0.00511861 -0.00482886 -0.00442827  -0.00726302 -0.00634348 -0.00506878  -0.00666438 -0.00597911 -0.00503999  -0.00706106 -0.00517565 -0.0061655  -0.00411201 -0.00374254 -0.00384992  -0.0092953 -0.00661188 -0.00695544  -0.00783557 -0.00423594 -0.00717908  -0.00761703 -0.00551063 -0.00609463  -0.0081961 -0.00455157 -0.00708008  -0.0079568 -0.00623433 -0.00554496  -0.00965127 -0.00712508 -0.00644797  -0.00996718 -0.00614336 -0.00730139  -0.00823107 -0.00529911 -0.00626653  -0.00962299 -0.00821869 -0.00572181  -0.00940385 -0.00798044 -0.00546771  -0.0114338 -0.00994425 -0.00565714  -0.0112986 -0.00903543 -0.00623071  -0.0115436 -0.00812624 -0.00736278  -0.00779527 -0.00700668 -0.00471431  -0.013732 -0.0100686 -0.00757456  -0.0118915 -0.00707362 -0.0083589  -0.0115765 -0.00907618 -0.0066334  -0.0117736 -0.00806556 -0.0075767  -0.0112703 -0.0105044 -0.00575125  -0.0135099 -0.0113137 -0.00669098  -0.0135588 -0.0103156 -0.00755036  -0.0113146 -0.00953653 -0.0064832  -0.0128741 -0.0130941 -0.0057537  -0.0134348 -0.0121795 -0.00575197  -0.0153667 -0.0147211 -0.0057472  -0.0158507 -0.0131605 -0.00654399  -0.0159474 -0.0122613 -0.00763243  -0.0112378 -0.0113219 -0.00495976  -0.0180832 -0.0147802 -0.00759465  -0.0160182 -0.011222 -0.00863034  -0.0153782 -0.0138721 -0.00666869  -0.0153677 -0.0128858 -0.00756794  -0.0144609 -0.0159575 -0.00568515  -0.0172365 -0.0167004 -0.00659156  -0.0171484 -0.0157417 -0.00743729  -0.0143859 -0.0150171 -0.00640661  -0.0160165 -0.0191 -0.00560671  -0.0172591 -0.0175313 -0.00570035  -0.0191029 -0.0206131 -0.00561404  -0.0202184 -0.0184264 -0.00646836  -0.0202202 -0.0175744 -0.00749534  -0.0145013 -0.016765 -0.00493133  -0.0222803 -0.0206356 -0.00735277  -0.0201426 -0.0165956 -0.00847024  -0.0190463 -0.019809 -0.00647861  -0.0189313 -0.0188794 -0.00732982  -0.0175501 -0.0224913 -0.00550121  -0.0208312 -0.0231654 -0.00634897  -0.0206784 -0.022271 -0.00716066  -0.0174188 -0.0216036 -0.0061956  -0.019054 -0.026128 -0.00539237  -0.0209031 -0.0239447 -0.00551212  -0.0226591 -0.027513 -0.00539786  -0.0243719 -0.0247491 -0.00623256  -0.0243211 -0.023958 -0.00719267  -0.0176265 -0.0232595 -0.00478894  -0.0262927 -0.0275086 -0.00701445  -0.0241727 -0.0230569 -0.00812501  -0.022571 -0.0267655 -0.0062055  -0.0224115 -0.0259051 -0.00700432  -0.0205315 -0.0299932 -0.00528097  -0.0242792 -0.0305946 -0.00606447  -0.0241048 -0.0297707 -0.00683075  -0.02038 -0.0291701 -0.00593889  -0.0219769 -0.0340754 -0.00516814  -0.0243703 -0.0313158 -0.00528425  -0.0260395 -0.0353285 -0.00516754  -0.028303 -0.0320279 -0.00594962  -0.0282297 -0.0312994 -0.0068422  -0.0206218 -0.0307104 -0.00461358  -0.0301062 -0.035297 -0.00666219  -0.0280562 -0.0304773 -0.00772065  -0.0259408 -0.0346377 -0.00591606  -0.0257692 -0.0338494 -0.00666195  -0.0233924 -0.0383666 -0.00506431  -0.0275676 -0.0388932 -0.00578231  -0.0273937 -0.0381378 -0.00649971  -0.0232401 -0.0376089 -0.00568008  -0.0247774 -0.0428515 -0.00496048  -0.0276639 -0.0395559 -0.00505936  -0.0292463 -0.0439726 -0.00495493  -0.0320196 -0.0401772 -0.00567222  -0.0319393 -0.0395105 -0.00649554  -0.0234849 -0.0390302 -0.00444448  -0.0337152 -0.0439099 -0.00632942  -0.0317625 -0.0387603 -0.00731319  -0.0291501 -0.0433369 -0.00564623  -0.0289851 -0.0426175 -0.00633627  -0.0261308 -0.0475282 -0.00487077  -0.0306946 -0.047979 -0.00552839  -0.0305328 -0.0472901 -0.00619137  -0.0259861 -0.0468345 -0.00544208  -0.0274506 -0.05238 -0.00478226  -0.0307845 -0.0485859 -0.004861  -0.0322818 -0.0533702 -0.0047729  -0.0355238 -0.0491188 -0.005422  -0.0354465 -0.0485107 -0.00617915  -0.0262158 -0.048137 -0.00429922  -0.0371233 -0.0532764 -0.00603026  -0.0352813 -0.0478256 -0.00693399  -0.0321968 -0.05279 -0.00540847  -0.0320436 -0.0521333 -0.00604159  -0.0287397 -0.0574072 -0.00470901  -0.0336592 -0.0577827 -0.00530815  -0.0335129 -0.0571533 -0.0059191  -0.0286114 -0.0567739 -0.00523436  -0.0299962 -0.0625925 -0.00463665  -0.0337365 -0.0583367 -0.00469673  -0.0351533 -0.0634565 -0.0046261  -0.0388205 -0.0587813 -0.00520718  -0.0387563 -0.058229 -0.0059008  -0.0288125 -0.0579637 -0.00418514  -0.0403379 -0.0633305 -0.00577301  -0.0386069 -0.057607 -0.00659442  -0.0350806 -0.062928 -0.00520754  -0.0349454 -0.0623324 -0.00578755  -0.0312221 -0.0679372 -0.00458103  -0.0364631 -0.0682387 -0.00512522  -0.0363359 -0.0676679 -0.0056808  -0.0311105 -0.0673636 -0.00506169  -0.032415 -0.0734264 -0.00452518  -0.0365281 -0.0687432 -0.00456798  -0.0378633 -0.0741699 -0.0045138  -0.0419271 -0.0691054 -0.00503105  -0.0418736 -0.0686033 -0.00566334  -0.0312811 -0.0684451 -0.00410217  -0.0433607 -0.0740101 -0.00555593  -0.0417451 -0.0680391 -0.0062961  -0.0378046 -0.0736884 -0.0050419  -0.0376898 -0.0731487 -0.00557041  -0.033578 -0.0790589 -0.0044843  -0.0391117 -0.0792891 -0.00497836  -0.0390023 -0.0787727 -0.00548387  -0.0334853 -0.0785382 -0.00492102  -0.0347122 -0.0848206 -0.00444418  -0.0391613 -0.079747 -0.0044713  -0.0404214 -0.0854503 -0.0044328  -0.0448426 -0.0800302 -0.00489062  -0.0448035 -0.0795742 -0.00546521  -0.033625 -0.0795204 -0.00405025  -0.0462003 -0.0852589 -0.00537431  -0.044691 -0.0790626 -0.00604117  -0.0403786 -0.0850158 -0.00491148  -0.0402813 -0.0845267 -0.00539088  -0.0358157 -0.0907143 -0.00442034  -0.0416105 -0.0908771 -0.00486499  -0.0415193 -0.0904106 -0.00532168  -0.0357405 -0.0902445 -0.00481606  -0.0368906 -0.0967241 -0.00439501  -0.0416437 -0.0912877 -0.00440687  -0.0428323 -0.0972434 -0.00438309  -0.0475794 -0.091497 -0.00478446  -0.0475541 -0.0910847 -0.00530219  -0.0358449 -0.0911315 -0.00402725  -0.0488645 -0.0970207 -0.00523061  -0.0474601 -0.0906258 -0.00582147  -0.0428028 -0.0968499 -0.00481403  -0.0427254 -0.0964107 -0.00524646  -0.0379359 -0.102849 -0.00438482  -0.0439641 -0.102947 -0.00478375  -0.043895 -0.102529 -0.00519621  -0.0378777 -0.102427 -0.00473976  -0.0389521 -0.109079 -0.00437468  -0.0439847 -0.103319 -0.00437307  -0.0451018 -0.109496 -0.00436366  -0.0501461 -0.103454 -0.00470978  -0.0501348 -0.103086 -0.00517541  -0.0379504 -0.103225 -0.00403214  -0.051363 -0.109246 -0.00511986  -0.0500615 -0.102673 -0.00564194  -0.0450892 -0.109144 -0.00474906  -0.0450271 -0.10875 -0.00513506  -0.0399417 -0.115413 -0.00437689  -0.0461806 -0.11545 -0.00473237  -0.0461259 -0.115077 -0.00509965  -0.0399034 -0.115037 -0.00469506  -0.0409043 -0.121839 -0.00437957  -0.0461853 -0.115783 -0.0043655  -0.0472362 -0.12216 -0.00436968  -0.0525467 -0.115852 -0.00466663  -0.0525502 -0.115521 -0.00508183  -0.0399444 -0.115751 -0.004062  -0.0536981 -0.121883 -0.00504321  -0.0524939 -0.115152 -0.0054968  -0.0472363 -0.121844 -0.00471306  -0.0471917 -0.121496 -0.00505728  -0.0418414 -0.128357 -0.00439489  -0.0482628 -0.128336 -0.00470883  -0.0482258 -0.128004 -0.0050348  -0.0418166 -0.12802 -0.00467688  -0.0427525 -0.134954 -0.00440937  -0.048254 -0.128633 -0.00438458  -0.0492405 -0.135185 -0.00440097  -0.0547931 -0.128638 -0.00464988  -0.0548081 -0.128344 -0.00501877  -0.0418296 -0.128658 -0.0041154  -0.0558822 -0.134883 -0.0049957  -0.0547718 -0.128019 -0.00538832  -0.0492548 -0.134905 -0.00470436  -0.04923 -0.134596 -0.00500846  -0.0436361 -0.141632 -0.00443691  -0.0502198 -0.141557 -0.00471401  -0.0502 -0.141268 -0.00500202  -0.0436273 -0.141337 -0.00468606  -0.0444965 -0.148379 -0.00446486  -0.0501969 -0.141822 -0.00442851  -0.0511234 -0.148528 -0.0044564  -0.0568871 -0.141771 -0.00466132  -0.0569179 -0.141508 -0.00498617  -0.0436118 -0.141898 -0.00419205  -0.0579197 -0.148202 -0.00497484  -0.0568957 -0.141223 -0.00531185  -0.0511508 -0.14828 -0.00472027  -0.0511413 -0.148009 -0.00498784  -0.0453336 -0.155197 -0.00450516  -0.0520556 -0.155076 -0.00474638  -0.0520525 -0.15482 -0.00499612  -0.0453391 -0.154938 -0.00472319  -0.0461462 -0.162073 -0.00454319  -0.0520198 -0.155306 -0.00449425  -0.0528898 -0.162144 -0.00453562  -0.0588436 -0.155202 -0.00469834  -0.0588849 -0.154973 -0.00498044  -0.045296 -0.155432 -0.00428861  -0.0598185 -0.161798 -0.00498611  -0.058881 -0.15472 -0.00526392  -0.0529289 -0.161928 -0.00476545  -0.0529346 -0.16169 -0.00499749  -0.0469339 -0.169009 -0.0045917  -0.0537765 -0.168845 -0.00480086  -0.0537927 -0.168623 -0.00501847  -0.0469573 -0.168784 -0.00478065  -0.0477014 -0.175996 -0.00464123  -0.0537291 -0.169045 -0.00458449  -0.0545428 -0.175996 -0.00463635  -0.0606644 -0.168892 -0.00476128  -0.0607181 -0.168693 -0.00500494  -0.0468836 -0.169215 -0.00440711  -0.0615852 -0.175631 -0.00502014  -0.0607278 -0.168474 -0.00524902  -0.0545943 -0.175807 -0.00483441  -0.0546155 -0.175603 -0.00503165  -0.0484457 -0.183032 -0.00470269  -0.0553889 -0.182825 -0.00488085  -0.0554121 -0.182636 -0.00506294  -0.0484815 -0.182838 -0.00486386  -0.0491688 -0.190109 -0.00476241  -0.0553293 -0.183 -0.00469494  -0.0560908 -0.190045 -0.00475687  -0.0623584 -0.182802 -0.00484598  -0.0624237 -0.182627 -0.00505328  -0.0483835 -0.18321 -0.00454336  -0.0632308 -0.189665 -0.0050838  -0.0624471 -0.182443 -0.00526071  -0.056154 -0.189882 -0.00492364  -0.0561888 -0.189709 -0.00509208  -0.0498705 -0.197228 -0.00483137  -0.0568976 -0.196985 -0.00498199  -0.0569386 -0.19682 -0.00513786  -0.0499179 -0.19706 -0.00496739  -0.0505519 -0.204378 -0.00490135  -0.0568283 -0.197133 -0.00482571  -0.0575416 -0.204257 -0.00489593  -0.0639315 -0.196897 -0.00495183  -0.0640073 -0.196747 -0.00512594  -0.0497987 -0.197379 -0.00469762  -0.0647593 -0.203861 -0.00516921  -0.0640466 -0.19659 -0.0053007  -0.0576148 -0.204117 -0.00503665  -0.0576651 -0.203972 -0.00517774  -0.0512149 -0.211562 -0.00498247  -0.0583112 -0.211287 -0.00510514  -0.0583663 -0.211151 -0.00523579  -0.0512736 -0.211422 -0.00509363  -0.0518582 -0.218771 -0.00505984  -0.0582304 -0.211414 -0.00497574  -0.058897 -0.218598 -0.0050562  -0.0653965 -0.21114 -0.00507897  -0.0654821 -0.211013 -0.00522202  -0.0511322 -0.211693 -0.0048694  -0.06618 -0.218194 -0.00527781  -0.0655367 -0.210883 -0.00536889  -0.0589848 -0.218481 -0.0051719  -0.0590427 -0.218359 -0.00528497  -0.052484 -0.226005 -0.00514776  -0.0596354 -0.225703 -0.00524789  -0.0597007 -0.225588 -0.00535405  -0.0525558 -0.22589 -0.00523961  -0.053092 -0.23326 -0.00523627  -0.0595462 -0.225808 -0.00514346  -0.0601709 -0.233041 -0.00523168  -0.0667579 -0.225505 -0.00522912  -0.0668519 -0.225399 -0.00534582  -0.0523932 -0.226116 -0.00505841  -0.067502 -0.232626 -0.00541103  -0.0669172 -0.22529 -0.00546294  -0.0602639 -0.232942 -0.00532484  -0.0603378 -0.232842 -0.00541812  -0.0536811 -0.24053 -0.00533211  -0.0608754 -0.240202 -0.00541234  -0.0609536 -0.24011 -0.00549787  -0.0537665 -0.240437 -0.00540543  -0.0542564 -0.247816 -0.00542939  -0.0607753 -0.24029 -0.00532871  -0.0613613 -0.247556 -0.00542742  -0.0680234 -0.239959 -0.00539607  -0.0681252 -0.239872 -0.00548685  -0.0535817 -0.240623 -0.0052616  -0.0687304 -0.247133 -0.00556582  -0.0682037 -0.239784 -0.00558096  -0.0614634 -0.247476 -0.00549895  -0.0615487 -0.247394 -0.00557071  -0.0548162 -0.255113 -0.00553447  -0.0620382 -0.254763 -0.00559473  -0.0621264 -0.254689 -0.00566018  -0.0549097 -0.255035 -0.00559032  -0.0553613 -0.262416 -0.00563967  -0.0619307 -0.254835 -0.00553137  -0.0624809 -0.262122 -0.00563812  -0.0691981 -0.254478 -0.00558287  -0.0693107 -0.25441 -0.00565314  -0.0547061 -0.255187 -0.00547904  -0.0698764 -0.261695 -0.00574338  -0.0693986 -0.254338 -0.00572431  -0.0625923 -0.262056 -0.00569272  -0.0626898 -0.261995 -0.00574559  -0.0558915 -0.269726 -0.00575298  -0.0631328 -0.269359 -0.00579935  -0.0632312 -0.2693 -0.00584584  -0.0559943 -0.269667 -0.00579512  -0.0564091 -0.277039 -0.00586635  -0.0630162 -0.269417 -0.00575143  -0.0635369 -0.276718 -0.00586468  -0.0702982 -0.269042 -0.00578862  -0.0704184 -0.268986 -0.00583982  -0.055774 -0.269787 -0.00571096  -0.0709462 -0.276282 -0.0059393  -0.0705159 -0.268932 -0.00589371  -0.0636559 -0.276664 -0.00590515  -0.0637631 -0.276616 -0.0059427  -0.0569143 -0.284353 -0.00598574  -0.0641663 -0.283971 -0.00601751  -0.0642741 -0.283926 -0.00605172  -0.0570297 -0.284306 -0.00601733  -0.0574071 -0.291667 -0.00610673  -0.0640445 -0.284016 -0.00598478  -0.0645347 -0.29132 -0.00610656  -0.0713298 -0.283626 -0.00601053  -0.0714555 -0.283582 -0.00604457  -0.0567896 -0.284404 -0.00595641  -0.0719509 -0.290883 -0.00615454  -0.0715635 -0.283543 -0.00608289  -0.0646617 -0.291278 -0.00613242  -0.0647774 -0.29124 -0.00615966  -0.0578897 -0.298975 -0.00623518  -0.0651457 -0.298582 -0.00625569  -0.0652659 -0.298547 -0.006275  -0.0580122 -0.298939 -0.00625539  -0.0583611 -0.306282 -0.00636297  -0.0650156 -0.298618 -0.00623316  -0.0654824 -0.305918 -0.0063622  -0.0722978 -0.298214 -0.00624961  -0.0724301 -0.298178 -0.00627279  -0.057759 -0.299016 -0.00621438  -0.0728989 -0.305479 -0.00639141  -0.0725501 -0.29815 -0.0062964  -0.0656154 -0.305883 -0.00637752  -0.0657403 -0.305854 -0.00639415  -0.0588236 -0.313579 -0.00649589  -0.0660768 -0.313177 -0.00650901  -0.0662074 -0.313151 -0.00652188  -0.0589514 -0.313551 -0.00650889  -0.0592792 -0.320871 -0.00663322  -0.065943 -0.313208 -0.00649494  -0.0663929 -0.320492 -0.00663298  -0.0732169 -0.312796 -0.0065068  -0.073355 -0.312766 -0.00651878  -0.0586874 -0.313614 -0.00648713  -0.0738022 -0.320051 -0.0066483  -0.0734811 -0.312744 -0.00653148  -0.0665307 -0.320464 -0.00664335  -0.0666602 -0.320442 -0.00664753  -0.0597239 -0.328153 -0.00677013  -0.0669737 -0.327744 -0.00677824  -0.0671113 -0.327721 -0.00678307  -0.0598617 -0.328129 -0.00677991  -0.0601652 -0.335425 -0.00691086  -0.0668356 -0.327767 -0.00677347  -0.0672696 -0.335039 -0.0069145  -0.0740993 -0.32735 -0.00677961  -0.0742371 -0.327326 -0.00678205  -0.0595846 -0.328181 -0.00676715  -0.0746694 -0.334596 -0.00692135  -0.0743721 -0.327307 -0.00678682  -0.06741 -0.335015 -0.00691795  -0.0675492 -0.334996 -0.00691813  -0.0605965 -0.342689 -0.00705558  -0.0678439 -0.342275 -0.00706071  -0.0679798 -0.342256 -0.00705981  -0.0607371 -0.34267 -0.00705898  -0.061028 -0.349939 -0.00720048  -0.0676985 -0.342297 -0.00705999  -0.0681257 -0.349552 -0.00720608  -0.0749507 -0.341875 -0.00706649  -0.0750914 -0.341855 -0.0070647  -0.0604553 -0.342713 -0.00705534  -0.075516 -0.349108 -0.00720811  -0.0752316 -0.341835 -0.00706339  -0.0682657 -0.349526 -0.00720382  -0.0684085 -0.349508 -0.00720119  -0.0614529 -0.357181 -0.00734502  -0.0686908 -0.356767 -0.00734931  -0.0688322 -0.356748 -0.00734627  -0.0615933 -0.357162 -0.00734079  -0.0618768 -0.364417 -0.00748807  -0.0685484 -0.356792 -0.00735116  -0.0689723 -0.364031 -0.00749636  -0.0757911 -0.356374 -0.00735605  -0.0759318 -0.35635 -0.00735182  -0.0613105 -0.357207 -0.00734621  -0.0763521 -0.363588 -0.00749624  -0.0760736 -0.356328 -0.00734961  -0.0691135 -0.364004 -0.00749451  -0.0692534 -0.363985 -0.00749063  0 0 0  -0.000404421 -2.63602e-05 -0.00145054  -0.000433031 -0.000311241 -0.00170475  -0.00140374 2.79993e-05 -0.00274467  -0.00113109 0.000282973 -0.00226754  -0.00152057 -0.000586361 -0.00273538  -0.00042126 -0.00055173 -0.00133193  -0.00155451 -0.00153604 -0.00262809  0 0 0  0 0 0  -0.000360008 -0.000247121 -0.00108373  0 0 0  -0.00190578 -0.00109945 -0.00337893  -0.00277433 -0.000510693 -0.00412619  -0.00260413 -0.00165112 -0.00327456  -0.00341333 -0.00228825 -0.00402623  -0.0039968 -0.00152773 -0.00460476  -0.00307918 -0.000931382 -0.0037775  -0.00376399 -0.00310226 -0.0036695  -0.00308914 -0.00283672 -0.0032872  -0.00462861 -0.00440221 -0.00372213  -0.00237438 -0.00217149 -0.00267863  -0.00488333 -0.00374103 -0.00449979  -0.00530952 -0.00287814 -0.00517327  -0.00491229 -0.004838 -0.00382471  -0.00634858 -0.00546741 -0.00470787  -0.00658023 -0.00455511 -0.00527996  -0.00509796 -0.00394852 -0.00429511  -0.00604287 -0.00690416 -0.00391871  -0.00618228 -0.00619057 -0.00401539  -0.00765428 -0.00826906 -0.00412148  -0.00478843 -0.00553837 -0.00326645  -0.00774702 -0.00750023 -0.0048272  -0.00788796 -0.00654718 -0.00547349  -0.00716001 -0.00925884 -0.00393975  -0.00913972 -0.00982182 -0.00485927  -0.00917545 -0.00886711 -0.00544965  -0.00718647 -0.00832024 -0.00441706  -0.00825137 -0.0119097 -0.00393921  -0.00909665 -0.0106119 -0.0042032  -0.0104845 -0.0132395 -0.00419414  -0.00712991 -0.0100307 -0.003416  -0.010485 -0.0124423 -0.00484884  -0.010473 -0.011488 -0.00547242  -0.00933057 -0.0148404 -0.00390655  -0.0118233 -0.0153403 -0.00480407  -0.0117595 -0.0144047 -0.0053947  -0.00927919 -0.0139124 -0.00438088  -0.0103904 -0.0180367 -0.00386858  -0.0118502 -0.0161324 -0.00417775  -0.0131799 -0.0192903 -0.00412482  -0.0093531 -0.0156207 -0.00340825  -0.0131288 -0.0185105 -0.00473869  -0.013045 -0.0175956 -0.00533748  -0.0114402 -0.02149 -0.00381905  -0.0144244 -0.0219336 -0.0046652  -0.0143136 -0.0210458 -0.00523883  -0.0113545 -0.020607 -0.00427902  -0.012473 -0.0251847 -0.00376707  -0.0144874 -0.0226958 -0.00407237  -0.015766 -0.0263411 -0.00400567  -0.0114886 -0.0222457 -0.00334567  -0.0156925 -0.0256018 -0.0045805  -0.0155767 -0.0247446 -0.00514716  -0.0134951 -0.0291085 -0.00371593  -0.0169451 -0.0294982 -0.00450265  -0.0168194 -0.0286708 -0.00505012  -0.0133984 -0.0282819 -0.00415421  -0.0145015 -0.033251 -0.0036642  -0.017022 -0.0302133 -0.00394559  -0.018252 -0.0343036 -0.00388283  -0.0135538 -0.0298235 -0.00327128  -0.018172 -0.0336125 -0.00441784  -0.0180491 -0.0328196 -0.00494927  -0.0154963 -0.0376024 -0.0036236  -0.0193791 -0.0379369 -0.00434798  -0.0192546 -0.0371724 -0.00486052  -0.0154008 -0.0368378 -0.00403547  -0.016474 -0.0421514 -0.00358033  -0.019457 -0.0385996 -0.00382912  -0.0206382 -0.0430931 -0.00377643  -0.0155541 -0.0382679 -0.00320923  -0.0205613 -0.0424556 -0.00427186  -0.0204431 -0.041726 -0.00476509  -0.0174388 -0.0468874 -0.00355172  -0.0217226 -0.0471646 -0.0042156  -0.0216084 -0.0464644 -0.00469238  -0.0173521 -0.0461846 -0.00393486  -0.0183864 -0.0518032 -0.00352061  -0.0217937 -0.0477746 -0.00373578  -0.0229245 -0.0526366 -0.00369608  -0.017491 -0.0475016 -0.00316882  -0.0228573 -0.0520495 -0.00415176  -0.022751 -0.0513832 -0.00460738  -0.0193195 -0.0568899 -0.00350535  -0.0239707 -0.0571089 -0.00411022  -0.0238677 -0.056471 -0.0045501  -0.019245 -0.0562484 -0.00385886  -0.0202376 -0.0621388 -0.00348788  -0.0240296 -0.0576692 -0.0036701  -0.0251137 -0.0628648 -0.00364566  -0.0193624 -0.057454 -0.00315309  -0.0250585 -0.0623277 -0.00406295  -0.0249659 -0.0617213 -0.00448036  -0.0211382 -0.0675421 -0.00348568  -0.0261234 -0.0677044 -0.00403672  -0.0260373 -0.0671222 -0.00443828  -0.0210772 -0.066957 -0.00380886  -0.0220227 -0.0730933 -0.00348073  -0.0261713 -0.068216 -0.00363511  -0.0272062 -0.073715 -0.00362384  -0.0211681 -0.0680583 -0.00316399  -0.0271645 -0.0732265 -0.00400424  -0.0270896 -0.0726742 -0.00438458  -0.0228934 -0.0787843 -0.00349271  -0.0281833 -0.0788903 -0.00399226  -0.0281128 -0.0783618 -0.00435787  -0.0228485 -0.0782508 -0.00378609  -0.0237466 -0.0846057 -0.00350183  -0.028217 -0.0793537 -0.00362754  -0.0292042 -0.0851273 -0.00362986  -0.0229099 -0.0792516 -0.00320053  -0.0291774 -0.0846836 -0.00397301  -0.0291179 -0.084185 -0.00431806  -0.0245841 -0.090553 -0.00352442  -0.0301502 -0.0906065 -0.00397623  -0.0300988 -0.0901289 -0.00430667  -0.0245566 -0.0900717 -0.00379121  -0.0254089 -0.096618 -0.00354719  -0.0301689 -0.0910272 -0.00364608  -0.0311121 -0.0970454 -0.00366104  -0.0245897 -0.0909791 -0.00326103  -0.0310996 -0.0966451 -0.0039711  -0.0310589 -0.0961939 -0.0042817  -0.0262173 -0.102797 -0.00358135  -0.0320293 -0.1028 -0.00398684  -0.031993 -0.102369 -0.00428373  -0.0262026 -0.102365 -0.00381994  -0.0270089 -0.10908 -0.0036124  -0.0320336 -0.103179 -0.00368941  -0.032933 -0.109419 -0.00371635  -0.0262064 -0.103181 -0.00334376  -0.0329347 -0.109057 -0.00399494  -0.0329069 -0.108654 -0.00427377  -0.0277874 -0.115464 -0.00365949  -0.0338191 -0.115418 -0.00402117  -0.0337996 -0.115033 -0.0042873  -0.0277873 -0.115076 -0.00387269  -0.0285506 -0.12194 -0.00370187  -0.0338118 -0.115759 -0.00375676  -0.0346693 -0.122191 -0.00379515  -0.0277655 -0.115809 -0.00344747  -0.0346842 -0.121869 -0.00404185  -0.0346727 -0.12151 -0.00429082  -0.0292984 -0.128502 -0.00375849  -0.0355281 -0.128411 -0.00407952  -0.0355217 -0.128067 -0.00431567  -0.029312 -0.128156 -0.00394982  -0.030033 -0.135147 -0.00381202  -0.0355071 -0.128714 -0.00384492  -0.0363245 -0.135321 -0.00389403  -0.0292636 -0.128811 -0.00357121  -0.0363524 -0.135034 -0.00411326  -0.0363537 -0.134714 -0.00433117  -0.0307519 -0.141868 -0.00387794  -0.0371563 -0.141734 -0.0041616  -0.0371644 -0.141431 -0.0043695  -0.0307794 -0.141562 -0.00404614  -0.0314579 -0.148658 -0.00394118  -0.037122 -0.142004 -0.00395411  -0.0379004 -0.148759 -0.00401205  -0.0307055 -0.142141 -0.00371277  -0.0379393 -0.148503 -0.00420511  -0.0379572 -0.148222 -0.00439674  -0.0321486 -0.155514 -0.00401545  -0.0387058 -0.155343 -0.00426275  -0.038728 -0.155078 -0.00444615  -0.0321887 -0.155245 -0.00416148  -0.0328276 -0.162432 -0.00408643  -0.0386608 -0.155581 -0.00408143  -0.0394011 -0.162465 -0.00414973  -0.032094 -0.155759 -0.00387144  -0.0394506 -0.16224 -0.00431657  -0.0394804 -0.161992 -0.00448209  -0.0334933 -0.169403 -0.00417006  -0.0401804 -0.169197 -0.00438356  -0.0402181 -0.168965 -0.0045405  -0.0335426 -0.169166 -0.00429755  -0.0341434 -0.176427 -0.00425005  -0.0401218 -0.169404 -0.00422722  -0.0408275 -0.176397 -0.00430393  -0.0334251 -0.169616 -0.00404501  -0.0408902 -0.176201 -0.0044468  -0.0409336 -0.175988 -0.00459206  -0.0347807 -0.183495 -0.00434029  -0.0415845 -0.183255 -0.00452584  -0.0416315 -0.183054 -0.00465989  -0.0348444 -0.183292 -0.00445002  -0.0354071 -0.190606 -0.00442928  -0.0415154 -0.183435 -0.00439048  -0.0421853 -0.190517 -0.00447553  -0.0347042 -0.18368 -0.0042336  -0.042259 -0.190349 -0.00459796  -0.0423129 -0.190165 -0.00471652  -0.0360191 -0.197752 -0.00452769  -0.0429168 -0.197482 -0.00468087  -0.0429788 -0.197312 -0.00479746  -0.0360935 -0.197579 -0.00461829  -0.0366204 -0.204932 -0.00462317  -0.0428398 -0.197638 -0.0045687  -0.0434768 -0.204796 -0.00466162  -0.0359335 -0.197912 -0.00443727  -0.0435588 -0.20465 -0.00476378  -0.0436273 -0.204494 -0.00486547  -0.0372081 -0.212142 -0.00472724  -0.0441868 -0.211847 -0.00485736  -0.0442579 -0.211702 -0.004951  -0.0372934 -0.211995 -0.00480527  -0.0377858 -0.219378 -0.00482923  -0.0441005 -0.21198 -0.00476134  -0.0447068 -0.219194 -0.00486201  -0.0371137 -0.212279 -0.0046525  -0.0447972 -0.219068 -0.00494504  -0.0448771 -0.21894 -0.00503147  -0.0383496 -0.226634 -0.00494158  -0.045393 -0.226315 -0.00504702  -0.0454769 -0.226196 -0.0051263  -0.0384443 -0.226512 -0.00500417  -0.0389063 -0.233913 -0.00505012  -0.0452976 -0.226427 -0.00497025  -0.045877 -0.233687 -0.00507778  -0.0382469 -0.22675 -0.00487834  -0.0459752 -0.23358 -0.00514466  -0.046066 -0.233473 -0.00521183  -0.0394504 -0.241204 -0.00516886  -0.0465457 -0.240865 -0.0052532  -0.0466397 -0.240765 -0.00531679  -0.0395508 -0.241101 -0.00521868  -0.0399821 -0.248507 -0.00528437  -0.0464416 -0.240959 -0.00519061  -0.0469925 -0.248247 -0.00530434  -0.0393376 -0.2413 -0.0051201  -0.0471005 -0.248159 -0.00535905  -0.0471988 -0.248072 -0.00541079  -0.0405033 -0.25582 -0.00540513  -0.0476429 -0.255464 -0.00547218  -0.0477459 -0.255383 -0.00552315  -0.0406151 -0.255736 -0.00544536  -0.0410178 -0.263141 -0.00552869  -0.0475299 -0.255542 -0.00542563  -0.0480561 -0.262848 -0.00554436  -0.0403843 -0.2559 -0.00536847  -0.048173 -0.262777 -0.00558424  -0.0482807 -0.262708 -0.00562477  -0.0415206 -0.270464 -0.00565624  -0.0486908 -0.270095 -0.00570685  -0.0488062 -0.27003 -0.0057416  -0.0416403 -0.270399 -0.00568789  -0.0420165 -0.277791 -0.00578338  -0.0485711 -0.270158 -0.00567108  -0.0490758 -0.277475 -0.00579554  -0.0413957 -0.270531 -0.00562853  -0.0491979 -0.277416 -0.00582707  -0.0493138 -0.27736 -0.00585663  -0.0425034 -0.285118 -0.00591689  -0.0496953 -0.284734 -0.00595343  -0.0498168 -0.284684 -0.00598097  -0.042629 -0.285066 -0.00593948  -0.0429828 -0.292442 -0.00605172  -0.0495684 -0.284787 -0.00592798  -0.0500546 -0.292103 -0.00606006  -0.0423722 -0.285172 -0.00589597  -0.0501828 -0.292056 -0.00608003  -0.0503085 -0.292012 -0.00610042  -0.043452 -0.299761 -0.00618863  -0.0506589 -0.299369 -0.00621325  -0.050787 -0.29933 -0.00622922  -0.0435843 -0.29972 -0.00620282  -0.0439167 -0.307075 -0.00632572  -0.0505273 -0.299409 -0.00619435  -0.0509934 -0.30672 -0.00633126  -0.0433154 -0.299805 -0.0061745  -0.0511289 -0.306679 -0.00634384  -0.051259 -0.306646 -0.0063563  -0.044373 -0.314381 -0.00646585  -0.0515916 -0.313982 -0.00648367  -0.0517254 -0.313953 -0.00649369  -0.0445127 -0.31435 -0.00647777  -0.0448256 -0.32168 -0.00660902  -0.0514526 -0.314016 -0.006473  -0.0519042 -0.32131 -0.00661409  -0.0442319 -0.314417 -0.0064593  -0.0520439 -0.321276 -0.00662094  -0.0521817 -0.32125 -0.00662524  -0.0452681 -0.328966 -0.0067544  -0.0524905 -0.328561 -0.00676399  -0.0526302 -0.32854 -0.00676823  -0.0454078 -0.328942 -0.00675714  -0.045707 -0.336246 -0.00689739  -0.0523489 -0.32859 -0.00675851  -0.0527871 -0.335866 -0.00690323  -0.0451245 -0.328998 -0.00674987  -0.0529292 -0.335837 -0.00690526  -0.0530703 -0.335816 -0.00690657  -0.04614 -0.343511 -0.00704557  -0.0533645 -0.343101 -0.00705129  -0.0535052 -0.343077 -0.00705212  -0.0462813 -0.343491 -0.00704587  -0.0465689 -0.350766 -0.00719023  -0.053221 -0.343125 -0.00704837  -0.0536499 -0.350382 -0.00719571  -0.0459948 -0.343538 -0.00704479  -0.0537932 -0.350353 -0.00719577  -0.0539372 -0.350336 -0.00719428  -0.0469944 -0.358004 -0.00733882  -0.0542204 -0.357595 -0.00734186  -0.0543625 -0.357576 -0.00733823  -0.0471344 -0.357986 -0.00733536  -0.0474205 -0.365232 -0.00748187  -0.0540781 -0.357618 -0.00734276  -0.0545034 -0.364853 -0.00748748  -0.0468504 -0.358028 -0.00734222  -0.0546441 -0.364828 -0.00748503  -0.0547879 -0.364805 -0.00747728  0 0 0  -0.000190735 0.000294894 -0.000736296  -0.000229929 0.00016883 -0.00102073  -0.00082786 0.000504017 -0.00166708  -0.000554755 0.000614256 -0.0011462  -0.000720523 -2.47061e-05 -0.00141561  -0.000226673 -6.56843e-05 -0.000808954  -0.000831939 -0.000617325 -0.00166088  0 0 0  0 0 0  -0.00016848 6.97076e-05 -0.000546813  0 0 0  -0.00104854 -0.000230432 -0.0021227  -0.00157758 0.000361681 -0.00255698  -0.00121589 -0.000939608 -0.00169468  -0.00186476 -0.00123137 -0.0025124  -0.00221997 -0.000489175 -0.00283712  -0.00146054 -0.000215054 -0.00195116  -0.00178228 -0.00230175 -0.00192577  -0.00165661 -0.0017505 -0.00205839  -0.00252219 -0.00323728 -0.00234252  -0.00111005 -0.0014542 -0.00138998  -0.00269015 -0.00261647 -0.00281817  -0.00295399 -0.00177419 -0.00321227  -0.00233883 -0.00403965 -0.0020079  -0.00356585 -0.00437087 -0.00293666  -0.00370765 -0.00347424 -0.00325859  -0.00243363 -0.003153 -0.00224447  -0.00291049 -0.00613263 -0.00207317  -0.00346309 -0.00505793 -0.00251901  -0.00434935 -0.00718147 -0.00257927  -0.00228345 -0.00472003 -0.00172257  -0.00440723 -0.00644618 -0.00300878  -0.00449437 -0.00551412 -0.00338906  -0.00348046 -0.00853446 -0.00209725  -0.00526616 -0.00883287 -0.0030309  -0.00528905 -0.00789338 -0.00337225  -0.00349402 -0.00759986 -0.00233424  -0.00404695 -0.011234 -0.00211525  -0.0052394 -0.00959185 -0.00263792  -0.00609237 -0.0122809 -0.00263971  -0.00346589 -0.00928873 -0.00183076  -0.00609246 -0.0115074 -0.00303322  -0.00608853 -0.0105665 -0.00340253  -0.00461328 -0.0142124 -0.00212216  -0.00692356 -0.0144665 -0.00302178  -0.0068891 -0.0135383 -0.00337029  -0.00458968 -0.0132886 -0.00235939  -0.00517619 -0.0174564 -0.0021255  -0.00693721 -0.015238 -0.0026468  -0.00776273 -0.0184539 -0.00263166  -0.00462043 -0.014982 -0.00187016  -0.00773388 -0.0176874 -0.00299942  -0.0076896 -0.0167783 -0.00335616  -0.005741 -0.0209541 -0.00213182  -0.00854617 -0.0211653 -0.00298023  -0.0084852 -0.0202799 -0.00332212  -0.0057025 -0.0200697 -0.00236261  -0.00630498 -0.0246919 -0.00213474  -0.00857872 -0.021916 -0.00262326  -0.00938487 -0.0256187 -0.00260609  -0.00575763 -0.0217047 -0.00189257  -0.00934386 -0.0248819 -0.00295216  -0.00928199 -0.024025 -0.00329173  -0.00687081 -0.0286595 -0.0021469  -0.0101411 -0.0288294 -0.00293481  -0.0100735 -0.028001 -0.00326329  -0.00682884 -0.0278293 -0.00236684  -0.00743586 -0.0328458 -0.00215435  -0.0101808 -0.029544 -0.00259882  -0.0109691 -0.0336886 -0.00258833  -0.00688964 -0.0293734 -0.00192124  -0.0109278 -0.0329968 -0.00291079  -0.0108622 -0.0321991 -0.00322998  -0.00800359 -0.0372393 -0.00217551  -0.0117103 -0.0373702 -0.00290352  -0.0116436 -0.0366011 -0.00321114  -0.00796676 -0.0364692 -0.00238371  -0.00857204 -0.0418328 -0.00219136  -0.0117497 -0.0380372 -0.00258899  -0.0125223 -0.0425867 -0.00258785  -0.00802076 -0.0379086 -0.00196439  -0.0124849 -0.0419443 -0.00288689  -0.0124252 -0.0412082 -0.00318533  -0.0091424 -0.0466133 -0.00222278  -0.013253 -0.0467036 -0.00289023  -0.0131936 -0.0459949 -0.00317878  -0.00911355 -0.0459029 -0.00241631  -0.00971127 -0.0515743 -0.00224769  -0.0132854 -0.0473209 -0.0025999  -0.0140406 -0.0522376 -0.00260961  -0.00915122 -0.0472329 -0.00202775  -0.0140123 -0.051645 -0.00288498  -0.0139624 -0.0509704 -0.00315982  -0.0102811 -0.0567069 -0.00228959  -0.0147656 -0.056756 -0.00290126  -0.0147187 -0.0561084 -0.00316703  -0.0102637 -0.0560544 -0.00247025  -0.0108503 -0.0619994 -0.00232679  -0.0147867 -0.057322 -0.00263345  -0.0155258 -0.0625742 -0.00265521  -0.0102808 -0.0572766 -0.00211054  -0.0155091 -0.0620288 -0.00290763  -0.0154712 -0.061412 -0.00316095  -0.0114193 -0.0674486 -0.0023787  -0.0162448 -0.0674573 -0.00293595  -0.0162121 -0.0668643 -0.00317848  -0.0114136 -0.0668516 -0.00254565  -0.0119883 -0.073043 -0.002428  -0.0162559 -0.067975 -0.00269228  -0.0169783 -0.073529 -0.00272501  -0.0114084 -0.0679711 -0.00221527  -0.0169727 -0.0730314 -0.00295568  -0.0169483 -0.072469 -0.00318557  -0.0125562 -0.0787753 -0.00248998  -0.0176928 -0.0787454 -0.0029946  -0.0176736 -0.0782066 -0.00321645  -0.0125623 -0.0782333 -0.00263971  -0.0131202 -0.0846413 -0.00254768  -0.0176902 -0.079217 -0.00277305  -0.0183966 -0.085043 -0.00281739  -0.0125333 -0.079253 -0.00234228  -0.0184029 -0.0845903 -0.003025  -0.0183916 -0.0840805 -0.0032326  -0.0136846 -0.0906311 -0.00261998  -0.0191047 -0.0905609 -0.0030762  -0.019099 -0.0900741 -0.00327605  -0.013703 -0.0901408 -0.00275469  -0.0142475 -0.0967394 -0.00268602  -0.0190918 -0.0909904 -0.0028742  -0.0197798 -0.0970588 -0.00292999  -0.0136523 -0.0910634 -0.00248563  -0.0197988 -0.0966491 -0.00311685  -0.0198016 -0.0961886 -0.00330591  -0.014809 -0.102957 -0.00276804  -0.0204848 -0.102849 -0.0031777  -0.0204924 -0.102409 -0.00335789  -0.0148391 -0.102512 -0.00288975  -0.0153681 -0.10928 -0.0028438  -0.0204583 -0.103237 -0.00299793  -0.02113 -0.109523 -0.00306129  -0.014765 -0.103348 -0.00264674  -0.0211614 -0.109154 -0.00322944  -0.0211761 -0.10874 -0.00339729  -0.0159247 -0.1157 -0.00293219  -0.0218296 -0.115558 -0.00329953  -0.0218481 -0.115163 -0.00346136  -0.0159665 -0.115303 -0.00304055  -0.0164788 -0.122214 -0.003016  -0.0217907 -0.115905 -0.00313783  -0.0224452 -0.122385 -0.00321096  -0.01587 -0.116053 -0.00282454  -0.0224888 -0.122054 -0.00336015  -0.022516 -0.121684 -0.00351077  -0.017031 -0.128812 -0.00311393  -0.023139 -0.128636 -0.00343871  -0.023172 -0.128283 -0.00358135  -0.0170829 -0.128456 -0.00320971  -0.0175785 -0.135492 -0.00320578  -0.0230908 -0.128946 -0.00329632  -0.0237269 -0.135595 -0.00337708  -0.0169657 -0.129128 -0.0030185  -0.0237813 -0.1353 -0.00350899  -0.0238215 -0.13497 -0.00364149  -0.0181241 -0.142246 -0.00330716  -0.0244157 -0.142038 -0.00359535  -0.0244596 -0.141726 -0.00372082  -0.0181868 -0.141931 -0.00339311  -0.0186651 -0.149069 -0.00340658  -0.024354 -0.142315 -0.00347  -0.0249732 -0.149108 -0.00355858  -0.018049 -0.142527 -0.00322551  -0.0250371 -0.148848 -0.00367498  -0.0250914 -0.148557 -0.00379068  -0.0192041 -0.155956 -0.00351584  -0.0256553 -0.155719 -0.00376827  -0.0257108 -0.155443 -0.00387967  -0.0192773 -0.155678 -0.00359249  -0.0197384 -0.162903 -0.0036211  -0.0255852 -0.155964 -0.00365889  -0.0261881 -0.162884 -0.00375473  -0.019119 -0.156203 -0.00344461  -0.0262616 -0.162652 -0.00385571  -0.0263257 -0.162397 -0.0039562  -0.0202701 -0.169901 -0.00373793  -0.0268621 -0.169639 -0.00395644  -0.0269284 -0.169396 -0.00405151  -0.0203536 -0.169659 -0.00380355  -0.0207975 -0.176952 -0.00384963  -0.0267816 -0.169854 -0.00386053  -0.0273669 -0.17688 -0.00396383  -0.0201771 -0.170119 -0.00367463  -0.0274515 -0.176677 -0.00405031  -0.0275247 -0.176454 -0.00413698  -0.0213213 -0.184045 -0.00397098  -0.028033 -0.183758 -0.00415713  -0.0281096 -0.183548 -0.00423956  -0.0214126 -0.183833 -0.00402659  -0.0218389 -0.191178 -0.00408763  -0.0279453 -0.183944 -0.00407654  -0.0285141 -0.191058 -0.00418645  -0.0212204 -0.184236 -0.00391644  -0.0286071 -0.190882 -0.00425905  -0.0286896 -0.190689 -0.00433189  -0.022356 -0.19835 -0.00421494  -0.0291719 -0.198041 -0.00437254  -0.029258 -0.197862 -0.00444067  -0.0224543 -0.198167 -0.00426149  -0.0228653 -0.205551 -0.00433499  -0.0290742 -0.198202 -0.00430447  -0.0296266 -0.205386 -0.00441897  -0.0222459 -0.198514 -0.00416934  -0.0297277 -0.205232 -0.0044809  -0.0298202 -0.20507 -0.00454122  -0.0233712 -0.212781 -0.00446445  -0.0302739 -0.212452 -0.00459903  -0.0303729 -0.212302 -0.00465667  -0.0234787 -0.212624 -0.00450438  -0.0238738 -0.220035 -0.00459301  -0.0301697 -0.212591 -0.00454223  -0.0307069 -0.219829 -0.00466168  -0.0232565 -0.212922 -0.00442857  -0.0308146 -0.219698 -0.00471157  -0.0309148 -0.219563 -0.00476271  -0.0243692 -0.22731 -0.00472546  -0.0313473 -0.226966 -0.00483608  -0.0314531 -0.226837 -0.00488299  -0.0244844 -0.22718 -0.00475806  -0.0248621 -0.234604 -0.00485563  -0.0312355 -0.227083 -0.0047881  -0.0317557 -0.234362 -0.00491512  -0.0242484 -0.22743 -0.00469625  -0.0318723 -0.234252 -0.00495547  -0.0319798 -0.234137 -0.00499564  -0.0253479 -0.24191 -0.00499433  -0.032387 -0.241552 -0.00508434  -0.0324988 -0.241444 -0.00512099  -0.0254717 -0.241801 -0.00501907  -0.0258312 -0.249229 -0.00513119  -0.0322683 -0.24165 -0.00504684  -0.0327737 -0.248956 -0.00517589  -0.0252221 -0.242011 -0.00497121  -0.0328948 -0.248862 -0.0052079  -0.0330124 -0.248771 -0.00523871  -0.0263097 -0.256554 -0.00527018  -0.0333958 -0.256183 -0.00534028  -0.033515 -0.256095 -0.00537026  -0.0264375 -0.256467 -0.00528902  -0.0267832 -0.263888 -0.00541008  -0.033272 -0.256266 -0.00531101  -0.0337636 -0.263587 -0.00544453  -0.0261796 -0.256639 -0.00525349  -0.033891 -0.26351 -0.0054689  -0.0340121 -0.263434 -0.0054937  -0.0272524 -0.271223 -0.00555259  -0.0343773 -0.27084 -0.00560683  -0.0345049 -0.27077 -0.00562871  -0.0273833 -0.271152 -0.00556803  -0.0277169 -0.278559 -0.00569487  -0.0342476 -0.270908 -0.00558496  -0.0347261 -0.278236 -0.00572139  -0.0271163 -0.271292 -0.00553966  -0.034858 -0.278174 -0.00573993  -0.0349884 -0.278112 -0.00575823  -0.028178 -0.285895 -0.00584143  -0.0353355 -0.285504 -0.00588167  -0.0354643 -0.285447 -0.00589585  -0.0283163 -0.285837 -0.00585192  -0.028635 -0.29323 -0.00598514  -0.0351968 -0.285558 -0.00586599  -0.0356636 -0.292885 -0.0060063  -0.0280395 -0.285952 -0.00583267  -0.0358016 -0.292831 -0.00601822  -0.0359364 -0.292786 -0.00603098  -0.0290878 -0.300554 -0.00613523  -0.0362637 -0.300156 -0.00616205  -0.0364017 -0.300111 -0.00617397  -0.0292287 -0.300507 -0.0061416  -0.0295355 -0.307876 -0.00628102  -0.0361269 -0.300203 -0.00615293  -0.0365763 -0.307517 -0.00629705  -0.0289435 -0.300601 -0.00612861  -0.0367203 -0.307474 -0.0063054  -0.0368588 -0.307435 -0.00631225  -0.0299792 -0.315185 -0.00643104  -0.0371704 -0.314784 -0.00645143  -0.0373132 -0.314748 -0.00645667  -0.0301235 -0.315153 -0.00643593  -0.0304196 -0.322492 -0.0065819  -0.0370271 -0.31482 -0.00644559  -0.0374718 -0.322121 -0.00659019  -0.0298321 -0.315225 -0.00642973  -0.0376151 -0.322086 -0.00659579  -0.0377595 -0.322056 -0.0066005  -0.0308557 -0.329783 -0.00673354  -0.0380597 -0.329375 -0.00674456  -0.0382025 -0.329349 -0.00674731  -0.0310016 -0.329756 -0.00673544  -0.0312881 -0.337066 -0.0068832  -0.0379128 -0.329405 -0.0067398  -0.0383484 -0.336686 -0.0068891  -0.0307074 -0.329816 -0.00673199  -0.0384948 -0.336656 -0.00689179  -0.0386388 -0.336634 -0.00689083  -0.0317163 -0.344334 -0.00703537  -0.0389261 -0.343922 -0.0070405  -0.0390718 -0.3439 -0.00703955  -0.0318661 -0.344312 -0.00703532  -0.0321445 -0.351591 -0.00718635  -0.0387778 -0.343949 -0.00704199  -0.0392063 -0.351205 -0.00718915  -0.0315661 -0.344361 -0.00703597  -0.0393541 -0.351178 -0.00718838  -0.0394979 -0.351162 -0.00718576  -0.0325673 -0.358825 -0.00733745  -0.0397782 -0.358416 -0.00733709  -0.0399225 -0.358395 -0.00733674  -0.0327132 -0.358809 -0.00733447  -0.0329883 -0.366045 -0.00748515  -0.039633 -0.35844 -0.00733906  -0.0400574 -0.365669 -0.00748968  -0.0324187 -0.358852 -0.00734109  -0.0402017 -0.365641 -0.00748497  -0.0403478 -0.365621 -0.00747609  0 0 0  -8.03545e-06 0.000380874 4.17233e-06  -5.60693e-05 0.00035581 -0.000298262  -0.000290964 0.000690967 -0.000549793  -1.88462e-05 0.000702858 1.19209e-07  -2.56598e-05 0.00010556 -4.64916e-05  -6.34678e-05 0.000125349 -0.000249147  -0.000248507 -0.000288814 -0.000603497  0 0 0  0 0 0  -6.58259e-06 0.000150204 1.80602e-05  0 0 0  -0.000329234 9.55164e-05 -0.000762522  -0.000522554 0.000698537 -0.000901163  7.7337e-06 -0.000771552 -4.72069e-05  -0.000588834 -0.000805765 -0.000889122  -0.000725061 -6.56545e-05 -0.000987351  -1.06543e-05 -3.80874e-05 -5.84126e-05  -6.4373e-06 -0.00209728 -0.000112712  -0.000510037 -0.00132367 -0.000730932  -0.000783026 -0.00272986 -0.000860691  -1.6436e-05 -0.00128794 -4.39882e-05  -0.000842139 -0.00212458 -0.00103468  -0.000945494 -0.00127947 -0.00116545  1.04308e-06 -0.00384483 -0.000134647  -0.00113684 -0.00387654 -0.00108629  -0.00119478 -0.00298232 -0.00118262  -8.19564e-06 -0.0029538 -0.000141621  -1.54674e-05 -0.00594276 -0.000180304  -0.00110549 -0.00455812 -0.000940442  -0.00140437 -0.00669014 -0.000979841  -1.52886e-05 -0.00452507 -0.000125527  -0.00141925 -0.00596455 -0.0011338  -0.00145769 -0.00503513 -0.00126421  -3.62694e-05 -0.00837034 -0.000220954  -0.00172859 -0.00838652 -0.00116754  -0.00174257 -0.00744793 -0.00127649  -3.84748e-05 -0.00743446 -0.000225723  -7.07507e-05 -0.011094 -0.000267267  -0.00172225 -0.00913787 -0.00103056  -0.00202882 -0.0118642 -0.00105715  -4.09484e-05 -0.00912338 -0.00021255  -0.00202784 -0.0110971 -0.00119537  -0.00203407 -0.0101594 -0.00132179  -0.000119328 -0.0141 -0.000321984  -0.00234294 -0.0140938 -0.00122625  -0.00233477 -0.013167 -0.00134063  -0.000121474 -0.0131758 -0.000326514  -0.000179172 -0.0173718 -0.000374436  -0.00234437 -0.0148599 -0.00109667  -0.00265986 -0.0181153 -0.00112295  -0.000113964 -0.0148687 -0.000313282  -0.00265551 -0.0173517 -0.00125098  -0.00264746 -0.0164458 -0.00137323  -0.000256181 -0.020896 -0.000436723  -0.0029797 -0.0208661 -0.00128812  -0.00296593 -0.0199796 -0.00140268  -0.000264168 -0.0200097 -0.000442624  -0.000347316 -0.0246606 -0.000496924  -0.00298274 -0.0216151 -0.00116342  -0.00331181 -0.0253541 -0.00119662  -0.000244439 -0.0216468 -0.000430465  -0.00330722 -0.0246192 -0.00131691  -0.00329792 -0.0237604 -0.00143272  -0.000455379 -0.0286551 -0.000569999  -0.00364625 -0.0286019 -0.0013603  -0.00363362 -0.0277678 -0.00147378  -0.000469983 -0.0278206 -0.000576198  -0.000580192 -0.0328675 -0.000636935  -0.00364709 -0.0293159 -0.001243  -0.00399047 -0.0334991 -0.00128484  -0.000436306 -0.0293706 -0.000562251  -0.00399119 -0.0328043 -0.00139719  -0.00398237 -0.0320022 -0.00150537  -0.000720799 -0.0372891 -0.000719905  -0.0043475 -0.0372132 -0.00144976  -0.00433815 -0.0364376 -0.0015558  -0.000740349 -0.0365129 -0.000725687  -0.000876606 -0.0419106 -0.000794947  -0.00434119 -0.037883 -0.00134063  -0.00470167 -0.0424702 -0.00139052  -0.000692368 -0.0379611 -0.000712276  -0.00470859 -0.0418228 -0.00149322  -0.00470865 -0.0410802 -0.00159484  -0.00104809 -0.0467184 -0.000884354  -0.00508118 -0.0466181 -0.00155556  -0.00508106 -0.0459019 -0.00165504  -0.00107706 -0.0459997 -0.000890076  -0.00123668 -0.0517082 -0.00096792  -0.00506854 -0.0472398 -0.00145453  -0.00544417 -0.0521959 -0.00151384  -0.00101364 -0.0473426 -0.000878274  -0.00545847 -0.051596 -0.00160825  -0.00546682 -0.0509134 -0.00170231  -0.00144124 -0.0568676 -0.00106663  -0.00584602 -0.0567425 -0.00168037  -0.00585663 -0.0560851 -0.00177413  -0.00147963 -0.0562073 -0.00107211  -0.00165892 -0.0621926 -0.00115788  -0.00582516 -0.0573162 -0.00158775  -0.00621605 -0.0626065 -0.00165731  -0.00139582 -0.0574456 -0.00106108  -0.00624132 -0.0620549 -0.00174254  -0.00625944 -0.0614288 -0.00182837  -0.00189245 -0.0676688 -0.0012635  -0.00664258 -0.0675178 -0.00182509  -0.00666428 -0.0669154 -0.00191063  -0.00194001 -0.0670661 -0.00126976  -0.0021385 -0.073293 -0.00136423  -0.00661004 -0.0680427 -0.00173897  -0.00701451 -0.073634 -0.00181806  -0.00183845 -0.0681979 -0.00126064  -0.00705135 -0.0731303 -0.00189692  -0.00707924 -0.0725584 -0.00197506  -0.00239861 -0.079055 -0.00147724  -0.00746524 -0.078879 -0.00198674  -0.00749588 -0.0783318 -0.00206405  -0.00245643 -0.0785062 -0.00148231  -0.00267196 -0.0849507 -0.00158435  -0.00742328 -0.0793579 -0.00191015  -0.00783813 -0.0852207 -0.00199491  -0.00233567 -0.0795381 -0.00147444  -0.00788534 -0.0847616 -0.00206667  -0.00792408 -0.0842435 -0.00213754  -0.00295854 -0.0909677 -0.00170434  -0.00831068 -0.0907662 -0.00216419  -0.00835299 -0.0902702 -0.00223428  -0.00302601 -0.0904684 -0.00171  -0.00325716 -0.0971036 -0.00181746  -0.00825799 -0.0912016 -0.0020957  -0.00868499 -0.0973068 -0.00219011  -0.00288665 -0.0914065 -0.00170153  -0.00874043 -0.0968898 -0.0022524  -0.00879157 -0.096422 -0.00231701  -0.00356722 -0.10335 -0.00194585  -0.00917649 -0.103122 -0.00235945  -0.00922906 -0.102675 -0.00242114  -0.00364184 -0.102899 -0.001948  -0.00388658 -0.109699 -0.00206447  -0.0091151 -0.103517 -0.00229675  -0.00954986 -0.109838 -0.00239784  -0.00348461 -0.103746 -0.00194341  -0.00961649 -0.109462 -0.00245452  -0.00967538 -0.10904 -0.00251114  -0.00421572 -0.116144 -0.00219554  -0.0100604 -0.115897 -0.00256675  -0.0101234 -0.115495 -0.00262314  -0.00430131 -0.11574 -0.00220054  -0.00455666 -0.122685 -0.00232238  -0.00998735 -0.11625 -0.00251079  -0.0104313 -0.122763 -0.00261867  -0.00412583 -0.116503 -0.00219476  -0.0105083 -0.122423 -0.00266981  -0.0105777 -0.122046 -0.00271952  -0.00490606 -0.129306 -0.00245917  -0.0109576 -0.129036 -0.00278825  -0.0110315 -0.128676 -0.0028376  -0.00500071 -0.128945 -0.00246108  -0.00526476 -0.13601 -0.00259  -0.0108788 -0.129354 -0.00274056  -0.0113276 -0.136031 -0.00285351  -0.00480878 -0.129628 -0.00245839  -0.0114119 -0.135729 -0.0028972  -0.0114903 -0.135392 -0.00294125  -0.00563097 -0.142785 -0.00273317  -0.0118675 -0.142496 -0.00302184  -0.0119479 -0.142176 -0.00306487  -0.00573206 -0.142465 -0.00273317  -0.0060041 -0.149632 -0.00286639  -0.0117791 -0.142778 -0.00297898  -0.0122337 -0.1496 -0.00309855  -0.00552464 -0.143072 -0.00272995  -0.0123258 -0.149331 -0.00313652  -0.0124154 -0.149033 -0.00317508  -0.0063827 -0.156538 -0.00300992  -0.0127878 -0.156229 -0.00326657  -0.0128765 -0.155947 -0.00330383  -0.00649285 -0.156253 -0.00301194  -0.00677156 -0.163506 -0.00315106  -0.012687 -0.156479 -0.00322866  -0.0131469 -0.163424 -0.00335395  -0.00627232 -0.156792 -0.00301242  -0.013248 -0.163185 -0.00338745  -0.0133448 -0.162926 -0.00341856  -0.00716424 -0.170522 -0.00329989  -0.0137103 -0.170197 -0.00352055  -0.0138092 -0.169949 -0.00355262  -0.00728273 -0.170274 -0.00330126  -0.00756311 -0.177592 -0.00344384  -0.0136054 -0.170417 -0.00348836  -0.0140662 -0.177466 -0.00361902  -0.00704551 -0.170747 -0.00329965  -0.0141742 -0.177256 -0.00364512  -0.0142798 -0.177029 -0.00367528  -0.00796723 -0.184701 -0.00359386  -0.0146379 -0.184359 -0.00378585  -0.0147452 -0.184143 -0.0038113  -0.0080893 -0.184485 -0.00359267  -0.00837612 -0.191853 -0.00374013  -0.0145252 -0.18455 -0.00375563  -0.014987 -0.191683 -0.00389111  -0.00784278 -0.184896 -0.00359583  -0.0151031 -0.191503 -0.00391477  -0.0152137 -0.191307 -0.0039373  -0.0087893 -0.199036 -0.00389236  -0.0155659 -0.19868 -0.00405514  -0.0156798 -0.198495 -0.00407916  -0.008919 -0.198849 -0.00389254  -0.00920415 -0.206253 -0.00404239  -0.0154474 -0.198846 -0.00403196  -0.0159082 -0.20605 -0.00417036  -0.00865841 -0.199206 -0.00389433  -0.0160289 -0.205892 -0.00418901  -0.0161486 -0.205723 -0.00420839  -0.00962234 -0.213495 -0.0041995  -0.0164921 -0.213127 -0.0043332  -0.0166118 -0.21297 -0.00435078  -0.00975609 -0.213336 -0.0041976  -0.0100436 -0.220763 -0.00434929  -0.0163665 -0.213271 -0.00431478  -0.0168257 -0.220525 -0.00445533  -0.00948811 -0.213641 -0.0041998  -0.0169525 -0.22039 -0.00447178  -0.0170772 -0.220247 -0.00448674  -0.0104673 -0.228048 -0.00450385  -0.0174148 -0.227672 -0.00461757  -0.0175421 -0.227537 -0.0046317  -0.0106084 -0.227916 -0.00450683  -0.0108948 -0.235353 -0.00465912  -0.0172844 -0.227792 -0.00460339  -0.0177417 -0.235086 -0.00474602  -0.0103281 -0.228173 -0.00450718  -0.017873 -0.234969 -0.00475734  -0.0180042 -0.234851 -0.0047698  -0.0113208 -0.242668 -0.00481772  -0.0183315 -0.242282 -0.00490612  -0.0184617 -0.242172 -0.00491953  -0.0114648 -0.242558 -0.00481915  -0.0117495 -0.249996 -0.00497204  -0.0181956 -0.242386 -0.00489581  -0.0186517 -0.249704 -0.0050419  -0.0111783 -0.242775 -0.00482005  -0.0187852 -0.249607 -0.00505102  -0.0189223 -0.249509 -0.00506014  -0.0121799 -0.257332 -0.00513071  -0.0192416 -0.256937 -0.00520384  -0.0193753 -0.256845 -0.00520998  -0.0123253 -0.257239 -0.00513077  -0.0126081 -0.264672 -0.00528646  -0.0191021 -0.257022 -0.00519323  -0.0195534 -0.264356 -0.00534099  -0.012033 -0.25742 -0.00513184  -0.0196934 -0.264274 -0.00534862  -0.019834 -0.264195 -0.00535411  -0.0130391 -0.272015 -0.00544584  -0.0201442 -0.271615 -0.00550234  -0.0202839 -0.271539 -0.0055061  -0.0131876 -0.27194 -0.00544626  -0.0134702 -0.279358 -0.0056017  -0.0200016 -0.271684 -0.00549495  -0.0204477 -0.27902 -0.00564361  -0.0128896 -0.272087 -0.00544721  -0.0205908 -0.278953 -0.00564873  -0.0207345 -0.27889 -0.00565451  -0.0138998 -0.286697 -0.00576156  -0.0210364 -0.286292 -0.00580317  -0.0211816 -0.286234 -0.00580734  -0.0140519 -0.286638 -0.00576258  -0.0143294 -0.294035 -0.00591832  -0.0208912 -0.286351 -0.0057978  -0.0213325 -0.293683 -0.00595069  -0.0137489 -0.286755 -0.00576448  -0.0214796 -0.293628 -0.00595289  -0.0216281 -0.293578 -0.00595421  -0.0147591 -0.301364 -0.00607997  -0.0219214 -0.300957 -0.00610781  -0.0220692 -0.30091 -0.00610995  -0.0149109 -0.301319 -0.00607711  -0.015188 -0.308691 -0.00623494  -0.0217726 -0.301005 -0.00610512  -0.0222116 -0.308327 -0.00625736  -0.0146058 -0.301414 -0.00608188  -0.0223594 -0.308281 -0.00625855  -0.0225091 -0.308243 -0.00626087  -0.0156164 -0.316006 -0.00639582  -0.0227962 -0.315594 -0.00641459  -0.0229452 -0.315557 -0.00641763  -0.0157697 -0.315968 -0.00639462  -0.0160432 -0.323314 -0.00655311  -0.0226457 -0.315634 -0.00641286  -0.0230796 -0.322938 -0.00656658  -0.0154607 -0.316046 -0.00639743  -0.0232286 -0.322901 -0.006567  -0.023381 -0.322869 -0.00656784  -0.016468 -0.330607 -0.00671309  -0.0236626 -0.330197 -0.00672299  -0.023813 -0.330163 -0.00672323  -0.0166211 -0.33058 -0.00671107  -0.0168936 -0.337893 -0.00687099  -0.0235116 -0.330227 -0.00672203  -0.0239389 -0.337509 -0.00687617  -0.0163143 -0.330642 -0.00671363  -0.0240905 -0.337478 -0.00687677  -0.0242412 -0.337455 -0.00687563  -0.0173161 -0.345161 -0.00702852  -0.0245178 -0.344747 -0.00703114  -0.0246701 -0.344725 -0.00703019  -0.0174725 -0.345139 -0.0070259  -0.01774 -0.352418 -0.00718522  -0.0243659 -0.344773 -0.00703061  -0.0247893 -0.352032 -0.00718546  -0.0171609 -0.34519 -0.0070287  -0.0249419 -0.352003 -0.00718635  -0.0250955 -0.351986 -0.00718278  -0.0181611 -0.359653 -0.00734055  -0.0253651 -0.359239 -0.00734031  -0.0255151 -0.359222 -0.00733894  -0.0183163 -0.359637 -0.00734192  -0.0185781 -0.366873 -0.00749689  -0.0252118 -0.359263 -0.00734115  -0.0256317 -0.366488 -0.00749463  -0.0180042 -0.359681 -0.00734144  -0.0257819 -0.366458 -0.00749183  -0.0259352 -0.36644 -0.00749022  0 0 0  0.000171065 0.000268698 0.000744104  0.000111185 0.000337481 0.000432551  0.000234082 0.000665069 0.000578046  0.000506327 0.00058341 0.00114417  0.000659913 -0.000113249 0.00131553  9.5807e-05 0.000109494 0.000320852  0.000303745 -0.000334382 0.000472546  0 0 0  0 0 0  0.000155061 3.016e-05 0.000583231  0 0 0  0.000355855 5.56707e-05 0.000616431  0.000493199 0.000656724 0.000771105  0.00122495 -0.00107729 0.00159013  0.000616029 -0.000873327 0.000759542  0.000695109 -0.000144482 0.000883579  0.00143008 -0.000345051 0.00182843  0.0017651 -0.00243884 0.00169528  0.000564322 -0.0013935 0.000622928  0.000852644 -0.002801 0.000654817  0.00107396 -0.00159878 0.00129551  0.000902832 -0.00219595 0.000784934  0.000957161 -0.00135642 0.000907958  0.00233087 -0.00422615 0.00173229  0.00117132 -0.00396925 0.000789702  0.00119188 -0.00308156 0.000910819  0.00240856 -0.00333756 0.00195694  0.00286892 -0.00633019 0.00170606  0.00113159 -0.0046519 0.000665128  0.00141013 -0.00679076 0.000643373  0.0022442 -0.00491035 0.00146544  0.00143787 -0.0060662 0.000761688  0.00144497 -0.00514144 0.000874817  0.0033938 -0.00877202 0.00165021  0.00167999 -0.00850391 0.000711381  0.00167391 -0.00756961 0.00082761  0.00340098 -0.00783676 0.00187737  0.00388819 -0.0114989 0.00157547  0.00166705 -0.0092569 0.000594616  0.00190729 -0.0119976 0.000540316  0.00336802 -0.00952846 0.00140107  0.00191098 -0.0112308 0.000653803  0.00189418 -0.0102955 0.00076586  0.0043577 -0.0145124 0.00147736  0.0021165 -0.0142427 0.000576377  0.00209534 -0.0133179 0.000689745  0.00432688 -0.0135869 0.00170219  0.00479692 -0.0177894 0.00137734  0.00212562 -0.0150108 0.000464261  0.00232172 -0.018285 0.000391603  0.00437194 -0.0152847 0.00124055  0.0023061 -0.0175195 0.000501454  0.00227469 -0.0166118 0.000611663  0.00520623 -0.0213204 0.00125629  0.00246948 -0.0210494 0.000408709  0.00243604 -0.0201603 0.000517368  0.00515401 -0.0204329 0.00147444  0.00558603 -0.0250953 0.00114155  0.00249529 -0.0218005 0.000302017  0.0026446 -0.0255599 0.00021714  0.00524706 -0.0220761 0.00103205  0.00261384 -0.0248199 0.000322223  0.00257325 -0.0239609 0.000428319  0.00593448 -0.029098 0.00100815  0.00273216 -0.0288206 0.000218153  0.00269097 -0.0279847 0.000320256  0.00586641 -0.0282605 0.00121731  0.00625217 -0.0333228 0.000882983  0.00276983 -0.0295385 0.000117719  0.00287169 -0.0337412 2.40803e-05  0.00599295 -0.0298176 0.000796854  0.00282967 -0.0330423 0.000123143  0.0027796 -0.0322359 0.000223219  0.00653642 -0.0377536 0.000740051  0.00290138 -0.0374693 8.40425e-06  0.00285256 -0.0366898 0.0001055  0.0064587 -0.0369737 0.000935495  0.00679278 -0.0423889 0.000606775  0.00294995 -0.0381432 -8.44598e-05  0.00300288 -0.0427533 -0.00018698  0.00660682 -0.0384317 0.000543833  0.00294948 -0.0420986 -9.33409e-05  0.00289476 -0.0413524 -2.38419e-07  0.00701463 -0.0472095 0.000456512  0.00297558 -0.0469153 -0.000214577  0.00291955 -0.0461943 -0.000127614  0.00692952 -0.0464873 0.000640631  0.00720835 -0.0522146 0.00031805  0.00303173 -0.0475429 -0.00030303  0.00303984 -0.0525204 -0.000411451  0.00709403 -0.0478394 0.000275195  0.00297809 -0.0519159 -0.000325203  0.00291419 -0.0512266 -0.000237525  0.00737071 -0.0573872 0.000162661  0.00295806 -0.0570832 -0.000453055  0.00289321 -0.056419 -0.00037235  0.00727785 -0.0567221 0.000331461  0.00750303 -0.0627263 1.62721e-05  0.00302374 -0.0576612 -0.000533223  0.00298548 -0.0629741 -0.000650704  0.00745916 -0.0579689 -5.42402e-06  0.00291514 -0.0624177 -0.000570774  0.00284338 -0.0617853 -0.000490069  0.0076071 -0.0682162 -0.000142872  0.00285065 -0.0679012 -0.000706255  0.00277746 -0.0672943 -0.000631809  0.00750649 -0.0676087 9.95398e-06  0.00768197 -0.0738581 -0.000296414  0.00292575 -0.0684326 -0.000779688  0.00284302 -0.0740472 -0.000902891  0.00770366 -0.0687514 -0.000297487  0.0027647 -0.0735371 -0.000829577  0.0026834 -0.0729599 -0.000756383  0.00772822 -0.0796347 -0.000460029  0.00265849 -0.0793067 -0.000970066  0.00257707 -0.0787539 -0.000902951  0.00762093 -0.0790783 -0.000319302  0.00774801 -0.0855442 -0.000615776  0.00274146 -0.0797933 -0.00103837  0.00261724 -0.0856771 -0.00116783  0.00783217 -0.0801224 -0.000600278  0.00253201 -0.0852122 -0.00110072  0.00244248 -0.084688 -0.00103295  0.00774145 -0.091576 -0.000783265  0.00238597 -0.0912381 -0.00124705  0.00229466 -0.0907341 -0.0011844  0.00762665 -0.0910708 -0.000656426  0.00770926 -0.097728 -0.00094521  0.00247693 -0.0916792 -0.00130725  0.00231528 -0.0978068 -0.00144219  0.00785208 -0.0920211 -0.000912309  0.00222003 -0.0973837 -0.00138164  0.00212359 -0.0969081 -0.00132036  0.00765181 -0.103986 -0.00111628  0.00203693 -0.103637 -0.00153339  0.00193918 -0.103181 -0.00147784  0.00753045 -0.103532 -0.00100237  0.00757098 -0.110351 -0.00128156  0.00213611 -0.104037 -0.00158811  0.00193906 -0.110378 -0.0017277  0.00776994 -0.10439 -0.00123227  0.00183594 -0.109996 -0.00167322  0.0017314 -0.109568 -0.00161755  0.00746679 -0.116811 -0.00145429  0.00162041 -0.116449 -0.00182825  0.00151229 -0.11604 -0.00177824  0.00733733 -0.1164 -0.00135267  0.00734234 -0.123365 -0.00162262  0.00172675 -0.11681 -0.00187737  0.00149715 -0.123343 -0.00202233  0.00759125 -0.117175 -0.0015592  0.00138772 -0.122998 -0.00197309  0.00127363 -0.122613 -0.00192273  0.00719464 -0.13 -0.00180113  0.00113893 -0.129628 -0.00213164  0.00102675 -0.129261 -0.00208449  0.00706077 -0.129631 -0.00170881  0.00702929 -0.136716 -0.00197041  0.00125265 -0.12995 -0.00217688  0.00099349 -0.136647 -0.00232446  0.00732684 -0.130325 -0.00189316  0.000876904 -0.136341 -0.00228119  0.000756502 -0.135997 -0.00223666  0.00684142 -0.143504 -0.00214779  0.000600815 -0.143122 -0.00244343  0.000480413 -0.142796 -0.00240177  0.00670385 -0.143176 -0.00206733  0.00663829 -0.150361 -0.00232172  0.000721693 -0.14341 -0.00248116  0.000434399 -0.150249 -0.00263345  0.00697923 -0.143793 -0.00223213  0.000310898 -0.149976 -0.00259411  0.000186682 -0.149672 -0.0025537  0.00641584 -0.157277 -0.00250125  1.12057e-05 -0.156888 -0.00275701  -0.000114202 -0.156598 -0.00272149  0.00627208 -0.156989 -0.0024302  0.00617862 -0.164253 -0.00267488  0.000136614 -0.157145 -0.00279325  -0.000173807 -0.164104 -0.00294745  0.00655723 -0.157535 -0.00257546  -0.000302076 -0.163861 -0.00291216  -0.000432968 -0.163595 -0.00287747  0.00592446 -0.171281 -0.00285745  -0.000625372 -0.170885 -0.00307965  -0.000756025 -0.170632 -0.00304806  0.00577474 -0.171028 -0.00279486  0.00565553 -0.178358 -0.00303119  -0.000494242 -0.17111 -0.00311083  -0.000827312 -0.178171 -0.0032683  0.00606918 -0.171508 -0.00291955  -0.00096035 -0.177959 -0.00323719  -0.00109434 -0.177726 -0.00320596  0.00537157 -0.185476 -0.00321263  -0.00130391 -0.185074 -0.00340635  -0.00143886 -0.184853 -0.00337589  0.00521874 -0.185256 -0.00315911  0.00507569 -0.192636 -0.00338936  -0.0011642 -0.185269 -0.00343096  -0.00151539 -0.192415 -0.00359046  0.00552177 -0.185676 -0.00326908  -0.00165462 -0.19223 -0.0035646  -0.00179505 -0.192028 -0.00353914  0.00476766 -0.199827 -0.00357223  -0.00201488 -0.199418 -0.00373268  -0.00215673 -0.199231 -0.00370961  0.0046103 -0.199636 -0.00352556  0.00444722 -0.207052 -0.00374842  -0.00187516 -0.199589 -0.00375748  -0.00224042 -0.206801 -0.00391811  0.00492048 -0.199999 -0.00361747  -0.00238323 -0.206639 -0.00389463  -0.00252843 -0.206468 -0.00387156  0.00411582 -0.214299 -0.00392824  -0.00275922 -0.213886 -0.00406593  -0.00290489 -0.213724 -0.00404376  0.00395513 -0.214137 -0.00389057  0.0037744 -0.221572 -0.00410271  -0.00261211 -0.214032 -0.00408351  -0.00299168 -0.221295 -0.00424618  0.00427127 -0.214448 -0.003968  -0.0031383 -0.221158 -0.00422686  -0.00328898 -0.221011 -0.00420642  0.00342655 -0.228862 -0.00428468  -0.00352383 -0.228446 -0.00439709  -0.00367546 -0.228309 -0.00438005  0.003263 -0.228723 -0.00424951  0.00306702 -0.236172 -0.00446004  -0.00337791 -0.228571 -0.00441337  -0.00376821 -0.235872 -0.00457513  0.00358295 -0.22899 -0.00431865  -0.00391769 -0.235754 -0.00455981  -0.00407076 -0.235631 -0.00454223  0.00269961 -0.24349 -0.00463855  -0.00431442 -0.243073 -0.0047282  -0.00446701 -0.242958 -0.00471252  0.0025363 -0.243376 -0.00461286  0.00232601 -0.250823 -0.00481051  -0.00416231 -0.243177 -0.00474328  -0.00456238 -0.250501 -0.00490534  0.00286055 -0.243599 -0.00466418  -0.00471592 -0.250404 -0.00489146  -0.00487065 -0.250302 -0.00487632  0.00194597 -0.25816 -0.00498915  -0.00512099 -0.257739 -0.00506186  -0.00527668 -0.257645 -0.00505  0.00178266 -0.258067 -0.00496751  0.00156069 -0.265503 -0.00516188  -0.00496721 -0.257827 -0.00507241  -0.00537157 -0.265164 -0.00523502  0.00210953 -0.258249 -0.00501132  -0.00552988 -0.265082 -0.00522417  -0.00568342 -0.265 -0.00521237  0.00116944 -0.272848 -0.00533807  -0.00593686 -0.272426 -0.00539184  -0.00609303 -0.272348 -0.00538141  0.00100493 -0.272769 -0.00532126  0.000773668 -0.280194 -0.00550824  -0.00578189 -0.272499 -0.00540084  -0.00619531 -0.279838 -0.00556344  0.00133395 -0.272921 -0.00535458  -0.00635171 -0.279771 -0.005557  -0.00650907 -0.279706 -0.00554734  0.000377417 -0.287534 -0.0056811  -0.00676513 -0.287111 -0.00572163  -0.00692344 -0.28705 -0.00571549  0.000211239 -0.287471 -0.00567073  -2.95639e-05 -0.294872 -0.00585186  -0.00660872 -0.287172 -0.00572771  -0.0070231 -0.294507 -0.00589168  0.000536442 -0.287594 -0.00569451  -0.00718188 -0.294449 -0.00588518  -0.00733995 -0.294398 -0.00587636  -0.000435829 -0.302203 -0.00602192  -0.00759888 -0.301781 -0.00605118  -0.0077579 -0.301733 -0.00604343  -0.000598431 -0.302154 -0.00601405  -0.000843763 -0.309529 -0.00618947  -0.00744128 -0.301828 -0.00605708  -0.00786209 -0.309154 -0.0062179  -0.000272751 -0.302252 -0.00603104  -0.00801826 -0.309106 -0.00621349  -0.00817609 -0.309066 -0.00620776  -0.00125408 -0.316843 -0.00635886  -0.00843763 -0.316423 -0.0063774  -0.00859404 -0.316383 -0.00637418  -0.00141835 -0.316805 -0.00635195  -0.00166917 -0.324151 -0.00652432  -0.00828028 -0.316463 -0.00638056  -0.00870109 -0.323769 -0.00654089  -0.00109363 -0.316884 -0.00636423  -0.00885797 -0.323731 -0.00653714  -0.00901842 -0.323698 -0.00653386  -0.00208378 -0.331446 -0.00669098  -0.00927901 -0.331025 -0.00670022  -0.00943828 -0.330996 -0.00670087  -0.00224566 -0.331414 -0.00668728  -0.00250173 -0.338731 -0.00685465  -0.00912189 -0.331057 -0.00670296  -0.00954151 -0.338343 -0.00686443  -0.00192285 -0.331479 -0.00669384  -0.00969958 -0.338311 -0.00686413  -0.00985718 -0.338286 -0.00685841  -0.00291896 -0.346 -0.00701833  -0.0101206 -0.34558 -0.00702208  -0.0102811 -0.345555 -0.00702387  -0.00308275 -0.345976 -0.00701642  -0.00333667 -0.353257 -0.00718147  -0.00996065 -0.345607 -0.0070231  -0.0103817 -0.352865 -0.00718337  -0.00275636 -0.346028 -0.00702035  -0.0105388 -0.352836 -0.00718349  -0.0107002 -0.352817 -0.00718409  -0.00375414 -0.360493 -0.00734663  -0.0109591 -0.360074 -0.00734431  -0.0111182 -0.360054 -0.00734699  -0.00391817 -0.360476 -0.00734895  -0.00416923 -0.367715 -0.00751048  -0.0108006 -0.360098 -0.00734454  -0.0112147 -0.367322 -0.00750238  -0.00358915 -0.360518 -0.00734472  -0.0113757 -0.367293 -0.00750607  -0.0115337 -0.367275 -0.00750613  0 0 0  0.000379004 -0.000102937 0.00145394  0.000302777 0.000110447 0.00114763  0.000773691 0.000421584 0.00168568  0.00105532 0.000207007 0.00226027  0.00144359 -0.000733614 0.00262183  0.000281051 -0.000122607 0.000876963  0.000912622 -0.000742614 0.0015229  0 0 0  0 0 0  0.00034745 -0.000356555 0.00112265  0 0 0  0.00109215 -0.000344753 0.00196397  0.00155042 0.000249088 0.00241327  0.00259444 -0.0018999 0.00315171  0.00189804 -0.00142014 0.00236756  0.00218211 -0.000713527 0.00271636  0.00302109 -0.00116575 0.00364435  0.00373399 -0.00334269 0.00342458  0.00171815 -0.0019511 0.0019393  0.00258148 -0.00343353 0.00213635  0.00232305 -0.00243497 0.00256556  0.00273764 -0.00281811 0.002563  0.00294358 -0.00199074 0.00294179  0.0048663 -0.00517684 0.00352991  0.00357354 -0.00463051 0.0026288  0.00367242 -0.00375515 0.00296849  0.00503087 -0.00428742 0.00399029  0.00595888 -0.00728637 0.00353861  0.00346744 -0.00531954 0.00223666  0.00431898 -0.00747651 0.00223953  0.00471652 -0.00587684 0.00299001  0.00438732 -0.00674284 0.00262529  0.0044415 -0.00582528 0.00298697  0.00702071 -0.00972039 0.00347888  0.00517631 -0.00918078 0.00256461  0.00517905 -0.00824898 0.00291085  0.0070408 -0.00878304 0.00394219  0.00803512 -0.0124354 0.00338757  0.00514552 -0.00994039 0.00219488  0.00592828 -0.0126801 0.00211889  0.00698 -0.0104913 0.00297183  0.00593179 -0.0119056 0.00248349  0.00590819 -0.0109722 0.00283521  0.00901216 -0.0154351 0.00325245  0.00665402 -0.0149118 0.00236583  0.00660622 -0.0139849 0.00270897  0.00895631 -0.0145063 0.00371325  0.00994498 -0.018701 0.00311285  0.00667417 -0.0156867 0.00201088  0.00737929 -0.018957 0.00189787  0.00903958 -0.0162171 0.00277132  0.00734156 -0.0181865 0.00224614  0.00727552 -0.0172784 0.0025866  0.010835 -0.0222215 0.00294137  0.00799048 -0.021713 0.00209868  0.00791496 -0.0208239 0.00243205  0.0107386 -0.0213295 0.00338644  0.0116803 -0.0259892 0.002774  0.00804353 -0.0224711 0.0017612  0.00866759 -0.0262301 0.00162816  0.0109025 -0.0229846 0.00248569  0.00860339 -0.0254862 0.00195789  0.00851488 -0.0246245 0.00228572  0.0124801 -0.0299858 0.00258183  0.00917757 -0.0294882 0.00179458  0.00908452 -0.0286477 0.00211108  0.0123631 -0.0291455 0.0030058  0.0132359 -0.0342081 0.0024007  0.00925308 -0.0302092 0.00147778  0.00979596 -0.0344166 0.00133246  0.0125739 -0.030712 0.00215364  0.00971341 -0.0337136 0.00164205  0.00961125 -0.0329039 0.00194985  0.0139444 -0.0386369 0.00220001  0.0102109 -0.0381435 0.0014689  0.0101064 -0.0373605 0.00176603  0.0138123 -0.0378534 0.00259697  0.0146079 -0.0432693 0.00200748  0.0103005 -0.0388227 0.00117195  0.0107645 -0.0434372 0.00101936  0.0140541 -0.0393179 0.00179982  0.0106707 -0.0427796 0.00130779  0.0105588 -0.0420288 0.00159627  0.0152242 -0.0480888 0.00180244  0.0110912 -0.047601 0.00112796  0.0109785 -0.0468752 0.00140321  0.015084 -0.047363 0.00217122  0.015795 -0.0530939 0.00160414  0.0111898 -0.0482324 0.000852227  0.0115776 -0.0532183 0.000694752  0.015344 -0.0487219 0.00143099  0.0114728 -0.0526075 0.000961006  0.0113522 -0.0519153 0.0012272  0.0163194 -0.0582664 0.00139385  0.011817 -0.0577819 0.000775933  0.0116969 -0.057112 0.00103122  0.0161728 -0.0575981 0.00173432  0.0167999 -0.0636074 0.00119352  0.0119262 -0.0583654 0.000523686  0.0122367 -0.0636853 0.000359058  0.0164492 -0.0588513 0.00105256  0.0121238 -0.0631243 0.000604987  0.0119979 -0.062488 0.000850439  0.0172355 -0.0690989 0.000979185  0.0123949 -0.0686157 0.000416696  0.0122688 -0.0680031 0.000650525  0.0170822 -0.0684859 0.00129128  0.0176299 -0.074741 0.000775397  0.0125113 -0.0691519 0.000185072  0.0127485 -0.0747755 1.54376e-05  0.0173723 -0.0696365 0.000666738  0.0126278 -0.0742608 0.000239313  0.0124969 -0.0736781 0.000463963  0.0179795 -0.0805186 0.000560224  0.0128278 -0.0800385 4.92334e-05  0.0126964 -0.0794789 0.000261724  0.0178211 -0.0799579 0.000846207  0.0182903 -0.0864314 0.000353932  0.0129511 -0.0805278 -0.000163198  0.0131196 -0.0864217 -0.000334561  0.0181214 -0.0810105 0.000275195  0.0129935 -0.0859516 -0.000130594  0.012857 -0.0854221 7.51615e-05  0.0185592 -0.092463 0.000139534  0.0131252 -0.0919845 -0.000323594  0.0129883 -0.0914773 -0.00013113  0.0183969 -0.0919552 0.00039655  0.0187902 -0.0986186 -6.9201e-05  0.0132551 -0.092431 -0.000516117  0.013358 -0.0985681 -0.00069207  0.0187058 -0.092912 -0.000120223  0.0132257 -0.0981409 -0.000507057  0.0130813 -0.0976611 -0.000321984  0.0189813 -0.104877 -0.000287652  0.0132929 -0.104402 -0.000703752  0.0131516 -0.103942 -0.000528216  0.0188169 -0.104418 -5.42402e-05  0.0191387 -0.111247 -0.000495136  0.0134292 -0.104805 -0.000875831  0.013468 -0.111156 -0.0010547  0.0191346 -0.105284 -0.000519633  0.0133312 -0.110769 -0.000887573  0.0131828 -0.110336 -0.00072217  0.019258 -0.117707 -0.000713229  0.0133407 -0.117231 -0.00108564  0.0131921 -0.116815 -0.00092715  0.019087 -0.117292 -0.000505865  0.0193455 -0.124262 -0.000921547  0.0134814 -0.117594 -0.00124097  0.0134647 -0.124135 -0.00142121  0.0194153 -0.118074 -0.000921607  0.0133214 -0.123787 -0.00127321  0.013168 -0.123397 -0.00112247  0.0193982 -0.130898 -0.00113946  0.0132762 -0.130423 -0.00147146  0.0131234 -0.130049 -0.00133204  0.0192244 -0.130526 -0.000954032  0.0194204 -0.137617 -0.00135112  0.0134226 -0.130749 -0.00160968  0.0133512 -0.137454 -0.00179112  0.0195599 -0.131228 -0.00132567  0.0132036 -0.137141 -0.00166047  0.0130463 -0.136795 -0.00152725  0.0194113 -0.144405 -0.00156641  0.0131068 -0.143929 -0.00185847  0.0129507 -0.143598 -0.00173473  0.0192344 -0.144074 -0.00140375  0.0193748 -0.151263 -0.00177532  0.0132582 -0.144223 -0.00198233  0.0131383 -0.151068 -0.00216448  0.0195765 -0.144698 -0.00173169  0.0129859 -0.150789 -0.00204796  0.0128255 -0.150482 -0.00193161  0.0193074 -0.158179 -0.00199014  0.0128424 -0.157709 -0.0022487  0.012682 -0.157416 -0.00213903  0.0191283 -0.157887 -0.00184751  0.0192142 -0.165159 -0.00220025  0.0129988 -0.157966 -0.00235569  0.0128336 -0.164934 -0.00253886  0.0194752 -0.15844 -0.00213689  0.0126774 -0.164687 -0.00243688  0.0125129 -0.164416 -0.00233316  0.0190973 -0.172184 -0.00241327  0.0124946 -0.171715 -0.00263572  0.0123284 -0.171457 -0.00254154  0.0189142 -0.171928 -0.00228983  0.0189545 -0.179262 -0.00262213  0.012651 -0.171942 -0.00272918  0.0124462 -0.17901 -0.00291491  0.019268 -0.172414 -0.00254047  0.0122871 -0.178794 -0.00282508  0.0121205 -0.178558 -0.00273722  0.0187905 -0.186378 -0.00283486  0.0120642 -0.185912 -0.00302386  0.0118966 -0.185689 -0.00294071  0.0186038 -0.186155 -0.00272733  0.0186017 -0.193539 -0.0030396  0.0122263 -0.186112 -0.0031057  0.0119858 -0.193263 -0.00328946  0.0189621 -0.186579 -0.00294292  0.0118234 -0.193073 -0.00321311  0.0116527 -0.192868 -0.00313592  0.0183942 -0.200727 -0.00324965  0.0115654 -0.200263 -0.00341117  0.0113964 -0.200069 -0.00334007  0.0182109 -0.200535 -0.00315535  0.0181673 -0.20795 -0.00345165  0.011729 -0.200436 -0.00348061  0.0114563 -0.207652 -0.00366443  0.0185688 -0.200901 -0.00334167  0.0112922 -0.207489 -0.00360072  0.0111182 -0.207314 -0.00353307  0.0179203 -0.215196 -0.00365883  0.0110056 -0.214737 -0.00379306  0.0108309 -0.214571 -0.00373358  0.0177348 -0.215031 -0.00358057  0.0176587 -0.222468 -0.00385976  0.0111697 -0.214884 -0.00385106  0.0108678 -0.22215 -0.00403506  0.0180976 -0.215345 -0.00373703  0.0107026 -0.222008 -0.00398213  0.0105283 -0.22186 -0.00392675  0.0173783 -0.229756 -0.00406373  0.0103879 -0.2293 -0.00417352  0.0102167 -0.229159 -0.00412571  0.0171933 -0.229616 -0.00399983  0.0170839 -0.237063 -0.00426024  0.010556 -0.229427 -0.00422102  0.010231 -0.236728 -0.00440395  0.0175552 -0.229884 -0.0041281  0.0100625 -0.236609 -0.00435972  0.00988817 -0.236485 -0.00431412  0.0167749 -0.244379 -0.00446117  0.009727 -0.243925 -0.00454915  0.00955367 -0.243812 -0.00451046  0.0165911 -0.244263 -0.00440961  0.0164535 -0.251709 -0.00465441  0.00989461 -0.244035 -0.00458848  0.00954747 -0.251359 -0.00476736  0.0169525 -0.244488 -0.00451165  0.00937819 -0.251259 -0.00473148  0.00920415 -0.251157 -0.00469607  0.0161211 -0.259042 -0.00484908  0.009022 -0.258594 -0.00492054  0.00885057 -0.2585 -0.00488853  0.0159373 -0.25895 -0.00480819  0.0157759 -0.266384 -0.00503933  0.00919199 -0.258684 -0.00495088  0.00882673 -0.266022 -0.00512928  0.0162969 -0.259133 -0.00489211  0.00865793 -0.265938 -0.0051012  0.0084846 -0.265854 -0.00507116  0.0154202 -0.273724 -0.00523132  0.008286 -0.273281 -0.00528485  0.00811362 -0.273201 -0.00525898  0.01524 -0.273649 -0.00519961  0.0150564 -0.281067 -0.00541663  0.00845337 -0.273353 -0.00530785  0.00807428 -0.280695 -0.00548476  0.0155969 -0.273799 -0.00526232  0.00790787 -0.280626 -0.00546223  0.00773382 -0.280558 -0.00543684  0.0146863 -0.288405 -0.00560468  0.00752139 -0.287965 -0.00564229  0.0073514 -0.287901 -0.00562328  0.0145059 -0.288344 -0.0055815  0.0143054 -0.29574 -0.00578648  0.00769019 -0.288025 -0.00565988  0.00729752 -0.29536 -0.00583345  0.0148585 -0.288466 -0.00562835  0.00713086 -0.295303 -0.00581628  0.00695825 -0.29525 -0.0058012  0.0139191 -0.30307 -0.00596827  0.00673509 -0.302633 -0.00599593  0.0065639 -0.302581 -0.00598007  0.0137436 -0.303021 -0.00595218  0.0135269 -0.310392 -0.00614393  0.00690103 -0.302682 -0.00600696  0.00650144 -0.310004 -0.00617748  0.0140917 -0.303118 -0.00598472  0.00633621 -0.309957 -0.00616688  0.00616693 -0.309917 -0.00615406  0.0131311 -0.317704 -0.00632238  0.00593281 -0.317271 -0.00633985  0.00576282 -0.317232 -0.00633067  0.0129588 -0.317666 -0.00631148  0.0127277 -0.325007 -0.00649583  0.00609612 -0.31731 -0.00634879  0.00568867 -0.324616 -0.00651604  0.0133004 -0.317744 -0.00633317  0.00552368 -0.324576 -0.00650829  0.00535536 -0.324547 -0.00650251  0.0123224 -0.332298 -0.00666809  0.00511241 -0.33187 -0.00668001  0.00494552 -0.331839 -0.00667417  0.0121503 -0.332267 -0.00666165  0.0119114 -0.339581 -0.00683838  0.0052774 -0.331904 -0.00668287  0.0048635 -0.339187 -0.00684971  0.0124903 -0.332332 -0.00667399  0.00469947 -0.339156 -0.00684744  0.00453377 -0.339127 -0.00684029  0.0114996 -0.346848 -0.00700778  0.00428653 -0.346422 -0.00701332  0.00411987 -0.346397 -0.0070104  0.0113311 -0.346821 -0.00700521  0.0110846 -0.354102 -0.00717694  0.00444961 -0.346452 -0.00701594  0.00403428 -0.353709 -0.00717884  0.0116653 -0.346876 -0.0070101  0.00386953 -0.353681 -0.0071786  0.00370288 -0.353659 -0.00717914  0.0106688 -0.361343 -0.00734681  0.00345302 -0.360919 -0.00734657  0.00328541 -0.360894 -0.00734663  0.0105004 -0.361321 -0.00734991  0.0102544 -0.368573 -0.00751519  0.003618 -0.360945 -0.00734472  0.00320578 -0.368173 -0.0075081  0.0108373 -0.36137 -0.00734293  0.00304031 -0.368142 -0.00751537  0.0028739 -0.36812 -0.00751519  0 0 0  0.000677846 -0.000984967 0.00209749  0.000577778 -0.000439405 0.00182104  0.00138207 -0.000138223 0.00273955  0.00170464 -0.000602782 0.00330883  0.00254737 -0.00198025 0.00381237  0.000551529 -0.000693858 0.001396  0.0017077 -0.00167549 0.00250906  0 0 0  0 0 0  0.000636466 -0.00124544 0.00162286  0 0 0  0.00199552 -0.00125057 0.00322747  0.00275591 -0.000649214 0.00396484  0.00435129 -0.00334626 0.00458014  0.00342955 -0.00253052 0.00387406  0.00391154 -0.00181538 0.00446182  0.00497727 -0.00255567 0.00532335  0.00611764 -0.00486076 0.00503641  0.00313449 -0.00308943 0.00316596  0.00461122 -0.00468898 0.0035255  0.00398801 -0.00392866 0.00372899  0.00485763 -0.00403553 0.00423819  0.00520563 -0.00319791 0.00487846  0.00781509 -0.00667882 0.0052349  0.00627711 -0.00586033 0.00438166  0.00645483 -0.00496852 0.00496119  0.00804937 -0.00575656 0.00594407  0.00943851 -0.00877845 0.00530475  0.00611696 -0.00657505 0.00372702  0.00753787 -0.00873846 0.00376779  0.00762802 -0.00743067 0.00442737  0.00763497 -0.00797504 0.00442255  0.00773427 -0.00704551 0.00504273  0.0110263 -0.0111746 0.00526124  0.00896347 -0.0103874 0.00436902  0.0089781 -0.00944608 0.00495744  0.0110546 -0.0102171 0.0059759  0.0125476 -0.0138668 0.00516963  0.00892219 -0.0111675 0.00374436  0.010235 -0.0138889 0.00365889  0.0109846 -0.0119808 0.00449389  0.0102358 -0.0130949 0.00427669  0.010205 -0.0121521 0.00487906  0.0140274 -0.0168365 0.00500792  0.0114641 -0.0160785 0.00412869  0.0113933 -0.0151458 0.00471067  0.0139487 -0.0158954 0.00571233  0.0154462 -0.0200836 0.00483352  0.0114982 -0.0168662 0.00353163  0.0126995 -0.02012 0.00338465  0.0140693 -0.0176398 0.00427872  0.0126414 -0.0193373 0.0039711  0.0125443 -0.018423 0.00455177  0.0168139 -0.0235814 0.00461447  0.0137706 -0.0228465 0.00377637  0.0136523 -0.0219503 0.00433838  0.0166776 -0.0226833 0.0052914  0.0181214 -0.0273337 0.00439733  0.0138488 -0.0236123 0.00320828  0.0149416 -0.0273584 0.00303072  0.0169035 -0.0243564 0.00392497  0.0148467 -0.0266082 0.00358438  0.0147134 -0.0257397 0.00413638  0.0193702 -0.0313112 0.00415164  0.0158707 -0.0305957 0.00336528  0.0157295 -0.0297509 0.00389814  0.0192047 -0.0304651 0.00479227  0.0205597 -0.035519 0.00391299  0.0159792 -0.0313231 0.00283033  0.0169607 -0.0355201 0.00263679  0.0194898 -0.0320433 0.00350416  0.0168421 -0.0348138 0.00315559  0.0166903 -0.0339996 0.00367427  0.0216863 -0.0399306 0.003654  0.0177616 -0.0392329 0.00292498  0.0176048 -0.0384458 0.00342417  0.0215037 -0.0391429 0.00425369  0.022751 -0.0445513 0.00340462  0.0178878 -0.0399147 0.00242728  0.0187579 -0.0445227 0.00222385  0.0218248 -0.0406148 0.00305182  0.0186256 -0.0438616 0.00270742  0.0184616 -0.0431079 0.00318873  0.0237553 -0.0493542 0.00314134  0.0194383 -0.0486735 0.00247025  0.0192741 -0.0479429 0.00293338  0.0235639 -0.0486252 0.00369793  0.0246989 -0.0543488 0.00288737  0.0195746 -0.0493067 0.0020079  0.0203359 -0.054289 0.00179946  0.0239058 -0.04999 0.0025835  0.020195 -0.0536759 0.00224519  0.0200227 -0.0529796 0.0026921  0.0255809 -0.0595047 0.00262195  0.0208998 -0.0588415 0.00200659  0.0207288 -0.0581679 0.00243443  0.0253838 -0.0588338 0.00313479  0.0264026 -0.0648359 0.00236547  0.0210435 -0.0594262 0.00158066  0.021699 -0.0647434 0.00137001  0.0257384 -0.0600919 0.0021084  0.0215511 -0.0641794 0.00178039  0.0213755 -0.063541 0.00219005  0.0271642 -0.070313 0.00210112  0.0221517 -0.0696642 0.00153899  0.0219768 -0.0690466 0.00193125  0.0269651 -0.0696971 0.00257027  0.0278697 -0.0759457 0.00184435  0.0223041 -0.0702013 0.00114971  0.0228553 -0.0758222 0.000935674  0.0273286 -0.0708507 0.00163192  0.0227015 -0.0753044 0.00131094  0.0225211 -0.0747197 0.00168496  0.0285176 -0.0817098 0.00158024  0.0232019 -0.0810755 0.00106901  0.0230225 -0.0805123 0.00142562  0.0283149 -0.0811462 0.00200802  0.0291121 -0.0876134 0.00132322  0.0233597 -0.0815678 0.000715911  0.0238132 -0.0874595 0.000498831  0.0286875 -0.0822019 0.00115228  0.0236534 -0.0869872 0.000838816  0.0234691 -0.086454 0.00117975  0.0296496 -0.0936334 0.00106013  0.02406 -0.0930144 0.000597537  0.0238788 -0.092502 0.000921905  0.0294437 -0.0931224 0.00144744  0.0301356 -0.0997798 0.000804186  0.0242203 -0.0934614 0.000277221  0.0245824 -0.099596 5.98431e-05  0.0298225 -0.0940837 0.000672698  0.0244197 -0.0991656 0.000368178  0.0242318 -0.0986837 0.000674963  0.0305703 -0.106026 0.000542045  0.0247346 -0.10542 0.000127316  0.0245481 -0.104956 0.000419021  0.0303634 -0.105563 0.000890672  0.0309565 -0.112386 0.000289381  0.0249001 -0.105827 -0.000162542  0.0251734 -0.112176 -0.000378728  0.0307492 -0.106434 0.000193059  0.0250064 -0.111788 -0.00010258  0.0248141 -0.11135 0.000175118  0.0312943 -0.118834 2.99215e-05  0.0252378 -0.118241 -0.000341594  0.025046 -0.117822 -8.14199e-05  0.0310839 -0.118417 0.000341475  0.0315857 -0.125381 -0.000222921  0.0254056 -0.11861 -0.000601292  0.0255975 -0.125146 -0.000819981  0.0314752 -0.119202 -0.000283539  0.0254248 -0.124795 -0.000572145  0.025232 -0.124404 -0.000323534  0.0318317 -0.132005 -0.000481427  0.025576 -0.131427 -0.00081104  0.0253859 -0.131051 -0.000576556  0.0316217 -0.131633 -0.000202477  0.0320356 -0.138716 -0.000730455  0.0257505 -0.131755 -0.00104135  0.0258653 -0.138457 -0.00125921  0.0320162 -0.132336 -0.000760019  0.025691 -0.138143 -0.00103945  0.0254943 -0.137793 -0.000820518  0.0321977 -0.145492 -0.000984192  0.0257685 -0.144925 -0.00127649  0.0255744 -0.144591 -0.0010708  0.0319853 -0.145161 -0.00073874  0.0323179 -0.152345 -0.0012328  0.0259435 -0.145219 -0.00148058  0.0259876 -0.152063 -0.0016976  0.0323849 -0.145786 -0.00123048  0.0258117 -0.151783 -0.00150454  0.0256135 -0.151474 -0.00131065  0.0324023 -0.159249 -0.00148422  0.0258224 -0.158693 -0.00173759  0.0256267 -0.1584 -0.00155818  0.0321906 -0.158955 -0.00126785  0.0324495 -0.166218 -0.00172639  0.0259998 -0.158952 -0.00191772  0.0259781 -0.165917 -0.00213039  0.0325894 -0.15951 -0.00169903  0.0257993 -0.165669 -0.00196391  0.0256023 -0.165397 -0.00179315  0.0324607 -0.173233 -0.00197476  0.025748 -0.172691 -0.00219494  0.0255506 -0.172431 -0.00203788  0.0322487 -0.172975 -0.00178695  0.0324376 -0.180304 -0.00221497  0.0259271 -0.172919 -0.00234932  0.0258458 -0.179984 -0.00256276  0.0326498 -0.173464 -0.00216144  0.025666 -0.179765 -0.00241661  0.0254655 -0.179529 -0.00227225  0.0323839 -0.187407 -0.00245595  0.0255578 -0.186877 -0.00264597  0.0253611 -0.186651 -0.00250965  0.0321717 -0.187183 -0.00229597  0.0322998 -0.19456 -0.00269276  0.0257406 -0.187079 -0.00277895  0.0256045 -0.194224 -0.00298959  0.0325749 -0.187609 -0.00261784  0.0254219 -0.194036 -0.00286549  0.0252213 -0.193828 -0.00273943  0.0321853 -0.201737 -0.00292981  0.0252621 -0.201218 -0.00308955  0.0250661 -0.201024 -0.00297374  0.0319748 -0.201543 -0.002792  0.0320446 -0.208951 -0.00316077  0.0254459 -0.201392 -0.00320333  0.0252616 -0.208603 -0.00341141  0.0323763 -0.201912 -0.00306726  0.0250793 -0.208439 -0.00330561  0.0248792 -0.208262 -0.00319833  0.0318773 -0.216186 -0.00339305  0.024874 -0.215679 -0.00352567  0.024678 -0.215512 -0.00342768  0.0316656 -0.216022 -0.00327992  0.0316839 -0.223451 -0.0036186  0.025058 -0.215829 -0.00362009  0.0248311 -0.22309 -0.00382555  0.0320663 -0.216337 -0.0035069  0.0246463 -0.222949 -0.003739  0.0244484 -0.2228 -0.00364947  0.031467 -0.230728 -0.0038448  0.0244 -0.230232 -0.00395399  0.024205 -0.230092 -0.00387418  0.0312598 -0.230589 -0.00375056  0.0312302 -0.238028 -0.00406581  0.0245838 -0.23036 -0.00403291  0.0243182 -0.237657 -0.00423491  0.0316589 -0.230855 -0.00393933  0.0241361 -0.237538 -0.00416356  0.0239401 -0.237411 -0.00408924  0.0309741 -0.245334 -0.00428629  0.0238538 -0.244849 -0.00437438  0.0236616 -0.244734 -0.00431037  0.0307713 -0.245219 -0.00421107  0.0306981 -0.252655 -0.00449979  0.0240362 -0.244956 -0.00443691  0.0237362 -0.252275 -0.00463313  0.0311615 -0.24544 -0.00436151  0.0235567 -0.252176 -0.00457728  0.0233617 -0.252074 -0.00451744  0.0304036 -0.259978 -0.00471407  0.0232422 -0.259505 -0.00478166  0.0230517 -0.259411 -0.00472879  0.0302048 -0.259886 -0.00465441  0.0300927 -0.267314 -0.00492132  0.0234246 -0.259594 -0.00483108  0.0230982 -0.266927 -0.00502455  0.0305893 -0.260068 -0.00477278  0.0229173 -0.266845 -0.00498098  0.0227265 -0.26676 -0.00493437  0.0297678 -0.274643 -0.00512928  0.0225778 -0.274179 -0.00517899  0.0223913 -0.274102 -0.00514078  0.029572 -0.274568 -0.00508225  0.0294275 -0.28198 -0.00532955  0.0227568 -0.274253 -0.00521749  0.0224049 -0.281588 -0.00540757  0.0299499 -0.274716 -0.00517476  0.0222285 -0.281519 -0.0053733  0.022042 -0.281454 -0.00533986  0.029078 -0.289307 -0.00552911  0.0218666 -0.288853 -0.00556684  0.0216837 -0.288791 -0.00553626  0.0288863 -0.289249 -0.00549597  0.0287135 -0.296637 -0.00572419  0.0220444 -0.288911 -0.00559342  0.021672 -0.296243 -0.00577813  0.0292571 -0.289367 -0.00556374  0.0214972 -0.296186 -0.00575495  0.0213137 -0.296134 -0.00572985  0.0283418 -0.303958 -0.00591797  0.0211189 -0.30351 -0.00594127  0.0209424 -0.303462 -0.00592065  0.0281558 -0.303911 -0.00589365  0.0279591 -0.311274 -0.00610459  0.0212929 -0.303559 -0.00596094  0.0209062 -0.310877 -0.00614035  0.0285182 -0.304005 -0.00594097  0.0207329 -0.310832 -0.00612414  0.0205553 -0.31079 -0.00610816  0.027571 -0.31858 -0.00628829  0.0203395 -0.31814 -0.00630641  0.0201652 -0.318104 -0.00629139  0.0273893 -0.318544 -0.00627536  0.0271723 -0.325877 -0.0064702  0.0205119 -0.318179 -0.00631803  0.0201123 -0.325481 -0.00649154  0.0277431 -0.318619 -0.00630325  0.0199416 -0.325442 -0.00648254  0.0197668 -0.325411 -0.00647241  0.0267701 -0.333161 -0.00664753  0.0195377 -0.33273 -0.00665772  0.0193672 -0.332698 -0.0066486  0.0265934 -0.333134 -0.00664103  0.0263622 -0.340439 -0.006823  0.0197065 -0.332761 -0.00666505  0.0192986 -0.340041 -0.00683385  0.0269427 -0.333194 -0.00665504  0.0191321 -0.340007 -0.00683188  0.0189595 -0.339982 -0.00682575  0.0259538 -0.347702 -0.0069955  0.0187192 -0.347273 -0.00700057  0.0185521 -0.347246 -0.00699657  0.02578 -0.347676 -0.00699216  0.0255384 -0.354955 -0.00716603  0.0188866 -0.347302 -0.00700468  0.0184722 -0.35456 -0.00717205  0.0261214 -0.347731 -0.00699842  0.018307 -0.354529 -0.00717193  0.0181346 -0.354506 -0.00717211  0.02512 -0.362198 -0.00733703  0.0178902 -0.361772 -0.00734365  0.0177226 -0.361744 -0.00734502  0.0249496 -0.362173 -0.00734204  0.0247054 -0.369436 -0.00750923  0.0180583 -0.361799 -0.00734079  0.0176444 -0.369035 -0.00751001  0.0252905 -0.362226 -0.00733596  0.0174766 -0.369003 -0.00751609  0.0173087 -0.368982 -0.00751919  0 0 0  0.00121924 -0.00293469 0.00288004  0.00109172 -0.0016523 0.00250953  0.00214206 -0.00122774 0.00378454  0.0026985 -0.00195277 0.00472736  0.00437175 -0.00430596 0.00489229  0.00104786 -0.00193691 0.00190473  0.00294422 -0.00356668 0.0034281  0 0 0  0 0 0  0.00112862 -0.0032317 0.00217199  0 0 0  0.0032756 -0.0030387 0.00438112  0.00420167 -0.00233084 0.00534415  0.00672646 -0.00540245 0.0059461  0.00542133 -0.00431544 0.00525296  0.00605345 -0.00346482 0.00614613  0.00739075 -0.00449771 0.00698024  0.00901565 -0.00694346 0.00669372  0.00509454 -0.00495797 0.00430506  0.00718322 -0.00662601 0.00482816  0.00652693 -0.00614661 0.00490016  0.00746191 -0.00586987 0.00582343  0.00789016 -0.00494224 0.00676352  0.0112284 -0.00866991 0.00694251  0.00944191 -0.00761992 0.00606859  0.0096795 -0.00665504 0.0069291  0.0114858 -0.00766599 0.00795573  0.0134072 -0.0107375 0.00712103  0.0092839 -0.00840712 0.00515646  0.0112484 -0.0105377 0.00524843  0.0111558 -0.00950915 0.00588048  0.0113472 -0.00971252 0.00618446  0.0114673 -0.00872684 0.00709426  0.0155161 -0.0130962 0.00705731  0.0131986 -0.0120792 0.00614828  0.013219 -0.0110955 0.00700331  0.0155483 -0.0120877 0.00806314  0.0175816 -0.0157609 0.00697672  0.0131671 -0.0129036 0.00526512  0.0149949 -0.0155891 0.00517452  0.0155186 -0.013947 0.00603133  0.014989 -0.0147606 0.00605851  0.0149453 -0.0137864 0.00692827  0.019569 -0.0186988 0.0067687  0.0167198 -0.0177116 0.00588322  0.0166286 -0.0167552 0.00671554  0.0194806 -0.0177336 0.00773758  0.0214952 -0.0219246 0.00656241  0.0167651 -0.018523 0.00503671  0.0184597 -0.0217503 0.0048576  0.0196195 -0.0195253 0.00578988  0.0183889 -0.0209488 0.0056923  0.0182623 -0.0200186 0.00651956  0.0233425 -0.0253907 0.0062899  0.0199961 -0.0244309 0.00544906  0.0198445 -0.0235217 0.00624508  0.0231902 -0.024478 0.00720626  0.0251164 -0.0291227 0.0060184  0.0200889 -0.025209 0.00464642  0.0216458 -0.0289354 0.00442368  0.0234294 -0.0261752 0.00536335  0.0215353 -0.0281745 0.00520545  0.0213642 -0.0272971 0.0059849  0.026816 -0.0330648 0.0057174  0.0230079 -0.0321354 0.00493211  0.0228261 -0.031283 0.00568384  0.0266279 -0.0322112 0.00657582  0.0284327 -0.0372555 0.00541937  0.0231314 -0.0328681 0.00417906  0.0245455 -0.0370483 0.00393575  0.0269276 -0.0337998 0.00485146  0.024412 -0.0363359 0.00466454  0.0242174 -0.0355178 0.00539351  0.0299742 -0.0416298 0.00510454  0.025747 -0.0407308 0.00437737  0.0255496 -0.039937 0.00507855  0.0297704 -0.040839 0.0059042  0.0314332 -0.0462326 0.00479555  0.0258877 -0.0414146 0.00367659  0.0271603 -0.046006 0.00342423  0.0301045 -0.0423144 0.00430012  0.0270104 -0.0453431 0.00409979  0.0268034 -0.0445844 0.004776  0.0328193 -0.0510007 0.00447595  0.0282053 -0.0501307 0.00380856  0.0279992 -0.049396 0.00445724  0.0326072 -0.0502713 0.00521731  0.0341212 -0.0559772 0.00416398  0.0283589 -0.0507652 0.00315928  0.029489 -0.05573 0.00290245  0.0329624 -0.0516341 0.00373518  0.029331 -0.0551161 0.00352556  0.0291185 -0.054418 0.00415021  0.0353539 -0.0610982 0.00384516  0.030388 -0.060258 0.00323349  0.0301783 -0.0595841 0.00383151  0.0351393 -0.0604279 0.00452465  0.036503 -0.0664133 0.00353402  0.0305507 -0.0608437 0.00263852  0.0315416 -0.0661465 0.00238001  0.0355036 -0.061683 0.00316548  0.0313776 -0.0655818 0.00294966  0.0311611 -0.0649405 0.00352389  0.0375848 -0.0718541 0.00321931  0.0322996 -0.0710438 0.00265807  0.0320848 -0.0704236 0.00320619  0.0373644 -0.0712389 0.00383931  0.0385879 -0.0774727 0.00290734  0.0324657 -0.0715809 0.0021134  0.0333261 -0.0771874 0.00185531  0.0377409 -0.0723929 0.00259632  0.0331564 -0.0766693 0.00237691  0.0329379 -0.0760832 0.0029003  0.0395254 -0.0832027 0.00259537  0.0339499 -0.0824184 0.00208652  0.033733 -0.0818519 0.00258511  0.0393026 -0.0826414 0.00315922  0.0403885 -0.0890933 0.00228816  0.034121 -0.0829104 0.00159049  0.0348543 -0.0887898 0.00133258  0.0396874 -0.0836933 0.00202823  0.0346804 -0.088317 0.00180584  0.0344603 -0.0877818 0.00228077  0.0411888 -0.0950793 0.00197941  0.0353498 -0.0943236 0.00151891  0.0351326 -0.0938075 0.00196946  0.0409657 -0.0945693 0.00248992  0.0419152 -0.101213 0.00167394  0.0355242 -0.0947712 0.0010699  0.0361373 -0.100892 0.000812948  0.041355 -0.0955269 0.00146627  0.035959 -0.100463 0.0012393  0.0357375 -0.0999783 0.00166774  0.0425856 -0.107428 0.0013687  0.0365123 -0.106697 0.000954449  0.0362931 -0.106229 0.00136143  0.0423582 -0.106965 0.00182694  0.0431863 -0.113774 0.00106788  0.0366912 -0.107102 0.000551164  0.0371897 -0.113439 0.000295043  0.0427563 -0.107832 0.000907481  0.0370082 -0.113049 0.000678658  0.0367845 -0.112612 0.0010649  0.0437315 -0.120191 0.000766695  0.0374509 -0.119485 0.000396788  0.0372303 -0.119063 0.000763118  0.0435071 -0.119776 0.00117886  0.0442159 -0.126724 0.000470698  0.037634 -0.119852 3.66569e-05  0.0380256 -0.126377 -0.000218332  0.0439084 -0.120557 0.000354469  0.0378416 -0.126027 0.000123799  0.0376168 -0.125633 0.000466704  0.0446484 -0.133319 0.000174999  0.0381801 -0.132636 -0.000153363  0.0379586 -0.132261 0.000170827  0.044422 -0.132948 0.000538707  0.0450201 -0.140018 -0.000116467  0.0383667 -0.132967 -0.000474572  0.0386584 -0.139656 -0.000727475  0.0448248 -0.133648 -0.000191331  0.0384722 -0.139342 -0.000423014  0.0382459 -0.138992 -0.000119388  0.0453441 -0.146765 -0.000406981  0.0387158 -0.146105 -0.000695646  0.0384924 -0.145769 -0.000410616  0.0451169 -0.146434 -8.36849e-05  0.0456109 -0.153604 -0.000692904  0.038903 -0.146399 -0.000981152  0.0391016 -0.15323 -0.00122905  0.0455244 -0.147057 -0.000730097  0.0389137 -0.152951 -0.000962019  0.0386853 -0.152641 -0.000695407  0.0458372 -0.160481 -0.000978112  0.039067 -0.159845 -0.00123155  0.0388448 -0.159546 -0.000981987  0.0456095 -0.160188 -0.000700176  0.0460072 -0.167439 -0.00125986  0.0392566 -0.160105 -0.00148022  0.0393701 -0.167055 -0.00172544  0.0460198 -0.160738 -0.00126261  0.0391791 -0.166809 -0.0014931  0.0389552 -0.166536 -0.0012601  0.0461411 -0.174424 -0.00153744  0.0392518 -0.173812 -0.00175685  0.0390294 -0.173553 -0.00153893  0.0459127 -0.174171 -0.00129539  0.0462229 -0.181484 -0.00181115  0.0394423 -0.174042 -0.00197029  0.0394762 -0.181094 -0.00221193  0.0463257 -0.174654 -0.00178212  0.0392861 -0.180875 -0.00201249  0.039062 -0.180637 -0.00180954  0.0462718 -0.188562 -0.00208354  0.0392823 -0.187972 -0.00226998  0.0390611 -0.187744 -0.00208318  0.0460455 -0.188336 -0.00187457  0.0462751 -0.195699 -0.00235057  0.0394745 -0.188171 -0.0024544  0.0394363 -0.195303 -0.00269181  0.0464582 -0.188761 -0.00229281  0.0392451 -0.195114 -0.00252044  0.0390217 -0.19491 -0.00234878  0.0462477 -0.202852 -0.00261551  0.0391738 -0.202282 -0.00277311  0.038955 -0.202086 -0.00261462  0.0460236 -0.20266 -0.00243866  0.0461752 -0.210057 -0.00287622  0.0393651 -0.202457 -0.00292993  0.0392618 -0.209655 -0.00316131  0.0464334 -0.203025 -0.00279379  0.0390708 -0.209491 -0.00301808  0.0388513 -0.209315 -0.00287265  0.0460794 -0.217266 -0.00313193  0.038939 -0.216716 -0.00326276  0.038722 -0.216549 -0.00312793  0.0458574 -0.217104 -0.00298083  0.0459447 -0.224519 -0.00338238  0.0391295 -0.216863 -0.00339198  0.03897 -0.224113 -0.00361902  0.046267 -0.217414 -0.0032804  0.0387788 -0.223975 -0.00350022  0.0385611 -0.223827 -0.00338006  0.0457828 -0.231773 -0.00363177  0.0385902 -0.231242 -0.00373787  0.0383761 -0.231101 -0.00362939  0.0455639 -0.231638 -0.00351191  0.0455897 -0.23906 -0.00387543  0.03878 -0.231368 -0.00384581  0.0385683 -0.238653 -0.00406653  0.0459692 -0.231896 -0.00375319  0.038378 -0.238536 -0.00397003  0.0381632 -0.238412 -0.00387114  0.0453722 -0.246344 -0.00411421  0.0381429 -0.245833 -0.00419974  0.0379338 -0.245717 -0.00411284  0.045161 -0.246233 -0.00402188  0.0451288 -0.253657 -0.00435126  0.0383296 -0.245938 -0.00428808  0.0380721 -0.253249 -0.00450099  0.0455594 -0.246449 -0.00421286  0.037885 -0.25315 -0.00442499  0.0376751 -0.253052 -0.0043484  0.0448627 -0.26096 -0.00458187  0.0376036 -0.260464 -0.00464827  0.0374029 -0.26037 -0.00458163  0.0446558 -0.260871 -0.00451189  0.0445735 -0.268284 -0.00481069  0.0377917 -0.260553 -0.00471616  0.037493 -0.267874 -0.00492376  0.0450482 -0.261046 -0.00465751  0.0373094 -0.267792 -0.0048638  0.0371048 -0.267713 -0.00480586  0.0442705 -0.275594 -0.00503272  0.0369937 -0.275115 -0.0050807  0.0367949 -0.275039 -0.00502682  0.044066 -0.275523 -0.004978  0.0439394 -0.282923 -0.00525004  0.0371778 -0.275187 -0.00513071  0.0368452 -0.282514 -0.00533301  0.0444512 -0.275667 -0.00508863  0.0366631 -0.282448 -0.005288  0.0364654 -0.282385 -0.00524551  0.0435996 -0.29023 -0.00545955  0.0363171 -0.289769 -0.00549567  0.0361233 -0.28971 -0.00545764  0.0434041 -0.290179 -0.00542152  0.0432391 -0.297556 -0.0056693  0.0364974 -0.289826 -0.00553077  0.0361395 -0.29715 -0.00572658  0.0437796 -0.290289 -0.00550187  0.0359592 -0.297095 -0.00569552  0.0357654 -0.297045 -0.00566632  0.0428686 -0.304861 -0.00587076  0.035588 -0.304409 -0.00589442  0.0353994 -0.304361 -0.00586832  0.042681 -0.304818 -0.00584561  0.0424857 -0.312171 -0.00606865  0.0357659 -0.304455 -0.00591737  0.0353842 -0.311765 -0.00610387  0.0430474 -0.304904 -0.00589842  0.035207 -0.311721 -0.00608712  0.0350218 -0.311685 -0.00606787  0.0420928 -0.31946 -0.00626147  0.0348163 -0.31902 -0.0062744  0.034636 -0.318985 -0.00625843  0.0419071 -0.319428 -0.00624919  0.0416873 -0.326754 -0.00644982  0.0349932 -0.319057 -0.00628817  0.0345919 -0.326351 -0.00646883  0.0422654 -0.319497 -0.0062778  0.0344193 -0.326316 -0.00645918  0.0342371 -0.326288 -0.00644791  0.0412781 -0.334025 -0.00662994  0.0340145 -0.333596 -0.00663775  0.0338366 -0.333564 -0.0066306  0.0411003 -0.334001 -0.00662357  0.0408616 -0.341299 -0.0068109  0.0341859 -0.333626 -0.0066461  0.033777 -0.340901 -0.00681901  0.0414515 -0.334057 -0.00663888  0.0336049 -0.340869 -0.00681639  0.0334311 -0.340846 -0.00681186  0.040447 -0.348553 -0.00698298  0.0331891 -0.348131 -0.00698829  0.0330203 -0.348102 -0.00698435  0.0402696 -0.348529 -0.00698459  0.0400221 -0.355806 -0.00715274  0.0333612 -0.348158 -0.00699067  0.0329452 -0.355412 -0.00715971  0.0406177 -0.348583 -0.00698501  0.0327761 -0.355382 -0.00716108  0.0326052 -0.355355 -0.00715977  0.039602 -0.363049 -0.00732219  0.032357 -0.362625 -0.00733197  0.0321875 -0.362597 -0.00733095  0.0394275 -0.363022 -0.0073272  0.0391812 -0.370292 -0.00749314  0.0325263 -0.362654 -0.00732815  0.0321083 -0.369898 -0.00749946  0.0397732 -0.363079 -0.00732207  0.0319414 -0.369867 -0.00750309  0.0317669 -0.369841 -0.00750238  -0.000555754 -0.0011759 -0.0012337  -0.000647474 -0.00183871 -0.00142652  -0.00198917 -0.00278365 -0.00226897  -0.000692479 -0.00196692 -0.00110239  -0.00273234 -0.00433705 -0.00197428  -0.00224789 -0.00367438 -0.00126773  0 0 0  -0.00213709 -0.00343627 -0.00161237  0 0 0  0 0 0  -0.000556383 -0.00125783 -0.000920653  0 0 0  -0.00436838 -0.00545404 -0.00303024  -0.00271194 -0.00403634 -0.00263947  -0.00384282 -0.00423671 -0.0030219  -0.00487383 -0.00540223 -0.00349921  -0.00569202 -0.00580716 -0.00355637  -0.00481655 -0.00581925 -0.00267124  -0.00692789 -0.00748566 -0.00319988  -0.00650452 -0.00706842 -0.00306034  -0.00646774 -0.00656824 -0.00396031  -0.00373526 -0.00459955 -0.00230181  -0.00880447 -0.00822584 -0.00469047  -0.00702952 -0.00697214 -0.00410992  -0.00757161 -0.00765369 -0.00386554  -0.0091854 -0.00866695 -0.00447571  -0.00935724 -0.00967412 -0.00406414  -0.00906453 -0.00921951 -0.00351888  -0.0111451 -0.0112103 -0.00373673  -0.011021 -0.010359 -0.00400412  -0.0110968 -0.00975974 -0.00508738  -0.00743538 -0.0081485 -0.00304669  -0.013436 -0.0117413 -0.00534374  -0.0112648 -0.0106403 -0.00469267  -0.0111027 -0.0120057 -0.00414699  -0.0133055 -0.0128899 -0.00479698  -0.0127949 -0.0145848 -0.00418109  -0.0132046 -0.0134684 -0.00384134  -0.0151979 -0.0159916 -0.00388843  -0.0156277 -0.0145072 -0.00435364  -0.0157201 -0.0139009 -0.00544709  -0.011009 -0.012542 -0.00333256  -0.0179644 -0.0163896 -0.00546998  -0.0152792 -0.0154184 -0.00482082  -0.0144429 -0.017438 -0.00416154  -0.0172072 -0.0182228 -0.00479984  -0.0160537 -0.0205477 -0.00412416  -0.0171463 -0.018787 -0.0038861  -0.0190343 -0.021832 -0.00385791  -0.0200849 -0.019717 -0.00438738  -0.0201549 -0.0191357 -0.00543463  -0.0143951 -0.0179787 -0.00338328  -0.0222797 -0.022142 -0.00535756  -0.0190761 -0.0212827 -0.00474012  -0.0176213 -0.023903 -0.004067  -0.0208988 -0.024597 -0.00466812  -0.0191525 -0.0274954 -0.00400466  -0.0208692 -0.0251326 -0.00381184  -0.0226514 -0.0286606 -0.0037601  -0.0243081 -0.0259564 -0.00428694  -0.0243537 -0.0254104 -0.00526822  -0.0176041 -0.0244255 -0.00333554  -0.0263568 -0.028902 -0.00515813  -0.0226684 -0.028142 -0.00458199  -0.020645 -0.0313123 -0.00394112  -0.0243939 -0.0319227 -0.0044986  -0.0221009 -0.035346 -0.0038774  -0.0243815 -0.0324227 -0.00370455  -0.026063 -0.0363917 -0.00365287  -0.0282818 -0.0331437 -0.00414562  -0.0283114 -0.0326399 -0.00505471  -0.0206438 -0.0318062 -0.00326145  -0.0301976 -0.0365737 -0.00494319  -0.0260663 -0.0359105 -0.00441194  -0.0235189 -0.0395877 -0.00382185  -0.027697 -0.0401158 -0.00433534  -0.0249035 -0.0440233 -0.00376886  -0.0276931 -0.0405785 -0.00360346  -0.0292764 -0.0449515 -0.0035609  -0.0320148 -0.0412022 -0.00400949  -0.0320373 -0.0407372 -0.0048452  -0.0235247 -0.0400476 -0.00319451  -0.0338126 -0.0450784 -0.00474548  -0.0292778 -0.0445077 -0.00425899  -0.02625 -0.048651 -0.00372648  -0.0308182 -0.0490991 -0.00419664  -0.027564 -0.0534536 -0.00368834  -0.0308133 -0.049524 -0.00352407  -0.0323063 -0.0542682 -0.00349617  -0.03552 -0.0500568 -0.00389838  -0.0355407 -0.0496291 -0.00466102  -0.0262539 -0.0490767 -0.00315177  -0.0372124 -0.0543443 -0.00457901  -0.0323111 -0.05386 -0.00413609  -0.0288422 -0.0584331 -0.00365913  -0.0337653 -0.0588062 -0.0040884  -0.0300887 -0.0635739 -0.00363576  -0.0337552 -0.0591956 -0.00347567  -0.0351638 -0.0642769 -0.00346124  -0.038811 -0.0596395 -0.00381505  -0.0388352 -0.0592484 -0.00451553  -0.0288397 -0.0588256 -0.0031352  -0.040404 -0.0643011 -0.004448  -0.035174 -0.0639036 -0.00404388  -0.0313019 -0.0688749 -0.00362378  -0.0365455 -0.0691699 -0.00401247  -0.0324829 -0.0743189 -0.00361407  -0.0365287 -0.0695264 -0.00345534  -0.037854 -0.0749167 -0.00345492  -0.0418988 -0.0698858 -0.00376266  -0.0419297 -0.0695295 -0.00439882  -0.0312903 -0.0692328 -0.00314635  -0.0434061 -0.0748924 -0.00435084  -0.0378747 -0.0745744 -0.00398308  -0.0336334 -0.0799103 -0.00361526  -0.0391687 -0.0801339 -0.00396866  -0.0347528 -0.0856308 -0.00361967  -0.0391406 -0.0804576 -0.00346369  -0.0403914 -0.0861265 -0.00347704  -0.0447962 -0.0807393 -0.0037424  -0.0448364 -0.0804142 -0.00431806  -0.0336114 -0.0802368 -0.0031836  -0.0462199 -0.0860567 -0.00428581  -0.0404198 -0.0858173 -0.00395507  -0.0358427 -0.0914839 -0.00363541  -0.0416394 -0.0916404 -0.00395238  -0.0369037 -0.0974547 -0.00365269  -0.041603 -0.0919351 -0.00349629  -0.0427796 -0.0978553 -0.00352395  -0.0475135 -0.0921384 -0.00374961  -0.0475637 -0.0918461 -0.00426668  -0.0358094 -0.0917815 -0.00324583  -0.048859 -0.0977406 -0.0042491  -0.0428188 -0.097574 -0.00395262  -0.0379366 -0.103543 -0.00368035  -0.0439674 -0.103635 -0.0039655  -0.0389397 -0.109735 -0.00370866  -0.0439203 -0.103901 -0.003555  -0.0450271 -0.110047 -0.00359344  -0.0500578 -0.104033 -0.00378251  -0.0501165 -0.103766 -0.00424677  -0.0378932 -0.103811 -0.00332922  -0.0513319 -0.109892 -0.00424373  -0.045078 -0.109793 -0.0039767  -0.0399175 -0.116035 -0.00374758  -0.0461564 -0.116066 -0.00400114  -0.0408679 -0.122427 -0.00378817  -0.0460995 -0.116305 -0.00363708  -0.0471402 -0.122653 -0.00368541  -0.0524395 -0.11637 -0.00383878  -0.0525072 -0.116133 -0.0042541  -0.0398638 -0.116277 -0.00343466  -0.053645 -0.122458 -0.00426263  -0.0472002 -0.122426 -0.00402665  -0.0417901 -0.128911 -0.00383711  -0.0482137 -0.128885 -0.00406277  -0.0426899 -0.135477 -0.00388724  -0.0481485 -0.129099 -0.00373954  -0.0491251 -0.135624 -0.00379658  -0.0546658 -0.129102 -0.00391686  -0.0547414 -0.128889 -0.0042842  -0.0417287 -0.129128 -0.00356054  -0.0558031 -0.135394 -0.00430721  -0.0491943 -0.135422 -0.00409877  -0.0435624 -0.142124 -0.00394696  -0.0501466 -0.142046 -0.00414515  -0.0444105 -0.148842 -0.00400579  -0.0500715 -0.142237 -0.00385988  -0.050987 -0.148917 -0.00392771  -0.0567434 -0.142183 -0.00401783  -0.056828 -0.141991 -0.0043413  -0.0434904 -0.142316 -0.00370377  -0.0578167 -0.148654 -0.0043745  -0.0510659 -0.148736 -0.00419164  -0.0452349 -0.15563 -0.00407404  -0.0519593 -0.155504 -0.00424796  -0.0460362 -0.162479 -0.00414521  -0.0518758 -0.155673 -0.00400007  -0.0527329 -0.162488 -0.00407553  -0.0586801 -0.155564 -0.00413591  -0.0587711 -0.155395 -0.00441778  -0.0451543 -0.155802 -0.00386268  -0.0596945 -0.162194 -0.00446367  -0.05282 -0.162327 -0.00430542  -0.0468128 -0.169388 -0.0042221  -0.0536582 -0.169217 -0.00437194  -0.0475698 -0.17635 -0.00429899  -0.0535674 -0.169367 -0.00415742  -0.0543702 -0.176297 -0.00424105  -0.0604835 -0.16921 -0.00427377  -0.060585 -0.16906 -0.00451875  -0.0467255 -0.169541 -0.00403857  -0.0614424 -0.175975 -0.00457466  -0.0544651 -0.176156 -0.00443822  -0.0483041 -0.183361 -0.00438362  -0.0552487 -0.18315 -0.00451267  -0.0490184 -0.190415 -0.00447112  -0.05515 -0.18328 -0.0043304  -0.0559037 -0.190305 -0.00442207  -0.0621595 -0.183082 -0.00442976  -0.0622699 -0.182952 -0.00463778  -0.0482066 -0.183494 -0.00422847  -0.0630667 -0.189962 -0.00470203  -0.0560038 -0.190184 -0.00459021  -0.0497103 -0.197511 -0.00456458  -0.0567398 -0.197263 -0.00467283  -0.0503838 -0.204641 -0.00465798  -0.0566313 -0.197376 -0.00451773  -0.0573373 -0.204483 -0.00461853  -0.0637233 -0.197136 -0.00460368  -0.0638359 -0.19702 -0.00478005  -0.0496058 -0.197625 -0.00443321  -0.0645773 -0.204115 -0.00485307  -0.057445 -0.204373 -0.00475621  -0.0510356 -0.211803 -0.00475848  -0.0581331 -0.211525 -0.00484854  -0.0516713 -0.218994 -0.00486118  -0.0580196 -0.211622 -0.00472099  -0.0586796 -0.21879 -0.00482702  -0.0651734 -0.211346 -0.00479203  -0.0652933 -0.211248 -0.00493532  -0.050925 -0.211904 -0.00465059  -0.0659821 -0.218405 -0.00502145  -0.0587964 -0.218698 -0.00494236  -0.0522895 -0.22621 -0.00496686  -0.0594399 -0.225902 -0.00504148  -0.0528896 -0.233447 -0.00507551  -0.0593207 -0.225985 -0.00493753  -0.0599399 -0.233203 -0.00504988  -0.0665202 -0.225677 -0.00499481  -0.0666456 -0.225593 -0.0051139  -0.05217 -0.226295 -0.00487864  -0.0672884 -0.232802 -0.00520331  -0.0600593 -0.233124 -0.00514156  -0.0534704 -0.240702 -0.00518787  -0.0606623 -0.240369 -0.00524694  -0.0540371 -0.247971 -0.00530332  -0.0605361 -0.24044 -0.00516564  -0.0611179 -0.247694 -0.00528187  -0.067775 -0.240107 -0.0052126  -0.0679054 -0.240034 -0.00530416  -0.0533483 -0.240775 -0.00511879  -0.0685017 -0.247279 -0.00540209  -0.061244 -0.247625 -0.00535381  -0.0545876 -0.255251 -0.00542259  -0.061811 -0.2549 -0.00546956  -0.0551281 -0.262544 -0.00554395  -0.0616827 -0.254959 -0.00540423  -0.0622263 -0.262236 -0.00552917  -0.0689411 -0.2546 -0.00544155  -0.0690763 -0.25454 -0.00551349  -0.0544603 -0.255314 -0.00536871  -0.069633 -0.261811 -0.00562036  -0.0623581 -0.262179 -0.005584  -0.0556493 -0.269841 -0.0056681  -0.0628912 -0.26947 -0.00570375  -0.0561626 -0.277143 -0.00579536  -0.0627575 -0.269522 -0.00565737  -0.063272 -0.27681 -0.00578713  -0.0700309 -0.269144 -0.00568569  -0.0701711 -0.269092 -0.00573778  -0.0555184 -0.269893 -0.00562871  -0.0706935 -0.276377 -0.00585604  -0.0634084 -0.276764 -0.00582618  -0.0566595 -0.284446 -0.00592643  -0.0639122 -0.28406 -0.0059517  -0.0571482 -0.29175 -0.00605941  -0.0637767 -0.284102 -0.00591856  -0.0642633 -0.291397 -0.00605285  -0.0710545 -0.283707 -0.00594062  -0.0711956 -0.283669 -0.00597602  -0.0565238 -0.284489 -0.00589752  -0.0716872 -0.290959 -0.00610042  -0.0644028 -0.291356 -0.00608081  -0.0576246 -0.29905 -0.00619507  -0.0648825 -0.298654 -0.00621265  -0.0580921 -0.306349 -0.00633246  -0.0647404 -0.298689 -0.00619054  -0.0652072 -0.305982 -0.00632942  -0.0720196 -0.298282 -0.00620794  -0.0721626 -0.298249 -0.00622976  -0.0574841 -0.299089 -0.00617641  -0.072628 -0.305538 -0.00635797  -0.0653467 -0.305946 -0.00634623  -0.0585482 -0.31364 -0.00647467  -0.0658052 -0.313235 -0.00648528  -0.0590003 -0.320927 -0.00661796  -0.0656619 -0.313264 -0.00647247  -0.0661099 -0.320549 -0.00661689  -0.0729313 -0.31285 -0.00648135  -0.0730782 -0.31282 -0.00649536  -0.0584066 -0.313674 -0.00646245  -0.0735247 -0.320102 -0.00663435  -0.0662534 -0.320518 -0.00662667  -0.0594425 -0.328204 -0.00676006  -0.0666945 -0.327793 -0.00676858  -0.0598817 -0.335475 -0.00690669  -0.06655 -0.327821 -0.00676191  -0.0669847 -0.335089 -0.00690871  -0.0738113 -0.3274 -0.00677013  -0.0739563 -0.327371 -0.00677729  -0.059298 -0.328234 -0.00675619  -0.0743854 -0.334641 -0.00691968  -0.0671277 -0.33506 -0.00691372  -0.060312 -0.342735 -0.00705338  -0.0675588 -0.342319 -0.00705767  -0.0607419 -0.349987 -0.00719959  -0.0674143 -0.342345 -0.00705814  -0.0678399 -0.349597 -0.00720733  -0.0746624 -0.341921 -0.00706512  -0.0748107 -0.341898 -0.00706297  -0.0601673 -0.342763 -0.00705248  -0.0752304 -0.349151 -0.00721145  -0.0679822 -0.349569 -0.00720626  -0.061166 -0.357227 -0.0073486  -0.0684059 -0.356813 -0.00735223  -0.0615902 -0.364464 -0.00749618  -0.0682619 -0.356838 -0.00735551  -0.0686846 -0.364079 -0.00750148  -0.0755057 -0.356418 -0.00736129  -0.07565 -0.356394 -0.00735843  -0.0610211 -0.357255 -0.00735223  -0.0760691 -0.363635 -0.00750512  -0.0688272 -0.364051 -0.00750029  -0.000327028 -0.000405237 -0.000845969  -0.000368714 -0.000726178 -0.00104243  -0.00111865 -0.00125092 -0.0015834  -0.000383466 -0.00081785 -0.000786662  -0.0013656 -0.00207239 -0.00145203  0 0 0  0 0 0  -0.000336181 -0.000494227 -0.000628591  0 0 0  -0.00132494 -0.00181629 -0.00192821  -0.00217357 -0.00255607 -0.00209892  -0.00286336 -0.00328067 -0.00257474  -0.00338002 -0.00421864 -0.00247359  -0.00275612 -0.00358406 -0.0019418  -0.00429228 -0.00533023 -0.00236356  -0.00206921 -0.00283562 -0.00158405  -0.00443317 -0.00493196 -0.00303578  -0.00460243 -0.00608608 -0.0026747  -0.00596538 -0.00677368 -0.00327647  -0.00583184 -0.00824419 -0.00281245  -0.00583544 -0.00722353 -0.00258642  -0.00738516 -0.00938466 -0.00275451  -0.00447205 -0.00650202 -0.00211877  -0.00751203 -0.00889964 -0.00345111  -0.00701538 -0.010655 -0.00286824  -0.0089682 -0.0112557 -0.0035128  -0.00817794 -0.0133266 -0.00289887  -0.00887686 -0.0117669 -0.00283384  -0.0103367 -0.0144149 -0.0028736  -0.00693026 -0.0111388 -0.00232369  -0.0104111 -0.0138956 -0.00354493  -0.00930244 -0.0162604 -0.0028953  -0.0117971 -0.0167839 -0.00353211  -0.0104052 -0.0194432 -0.00288498  -0.0117504 -0.0173102 -0.00288582  -0.0131261 -0.0204557 -0.00287318  -0.00926316 -0.0167688 -0.00237703  -0.0131573 -0.0199353 -0.00350511  -0.0114793 -0.0228716 -0.00286448  -0.0144814 -0.0233282 -0.00346798  -0.0125341 -0.0265333 -0.00284225  -0.0144657 -0.0238437 -0.00285935  -0.0157691 -0.0274604 -0.00283539  -0.0114663 -0.023377 -0.00237685  -0.0157761 -0.0269579 -0.00342518  -0.0135671 -0.0304202 -0.00282246  -0.0170415 -0.030812 -0.00338465  -0.0145804 -0.0345191 -0.00280285  -0.0170416 -0.0313022 -0.00281739  -0.018281 -0.0353563 -0.00279605  -0.0135646 -0.0309051 -0.00236845  -0.0182763 -0.0348813 -0.0033412  -0.0155741 -0.0388257 -0.00279236  -0.019487 -0.039158 -0.00331008  -0.016552 -0.0433288 -0.00278294  -0.0194914 -0.0396165 -0.0027864  -0.0206715 -0.0440708 -0.00277615  -0.015574 -0.0392843 -0.00237346  -0.0206662 -0.0436282 -0.00327677  -0.0175095 -0.0480189 -0.00278449  -0.0218228 -0.0482914 -0.00325704  -0.0184509 -0.0528891 -0.00278705  -0.0218251 -0.0487166 -0.00277627  -0.0229496 -0.0535402 -0.00278032  -0.0175053 -0.048446 -0.00239927  -0.0229506 -0.0531279 -0.00323886  -0.0193759 -0.0579296 -0.00280106  -0.0240545 -0.0581422 -0.00323266  -0.0202816 -0.063134 -0.0028168  -0.0240504 -0.0585359 -0.00279343  -0.0251225 -0.0636933 -0.00280935  -0.0193634 -0.058324 -0.00244892  -0.0251304 -0.0633153 -0.00322759  -0.0211706 -0.0684936 -0.00284296  -0.0261855 -0.068649 -0.003236  -0.0220456 -0.0740004 -0.00287139  -0.0261719 -0.0690087 -0.00283587  -0.0271945 -0.0744706 -0.00286448  -0.0211502 -0.0688557 -0.00252295  -0.0272129 -0.0741259 -0.00324452  -0.0229027 -0.0796501 -0.00290936  -0.0282182 -0.0797483 -0.00326532  -0.0237446 -0.08543 -0.00294822  -0.028194 -0.0800757 -0.00290245  -0.0291718 -0.0858145 -0.00294298  -0.0228726 -0.0799795 -0.00262016  -0.0292009 -0.0855007 -0.00328666  -0.0245711 -0.0913375 -0.00299847  -0.0301597 -0.0913836 -0.00331908  -0.0253825 -0.0973646 -0.00304717  -0.0301278 -0.0916817 -0.00299263  -0.0310585 -0.0976675 -0.00304288  -0.0245299 -0.0916375 -0.00273633  -0.0310965 -0.0973827 -0.00335217  -0.0261768 -0.103505 -0.00310802  -0.0320139 -0.103501 -0.00339657  -0.0269579 -0.109752 -0.00316757  -0.0319691 -0.10377 -0.00310218  -0.0328574 -0.109978 -0.00316322  -0.0261267 -0.103778 -0.00287265  -0.0329072 -0.10972 -0.00343949  -0.0277251 -0.1161 -0.00323731  -0.0337795 -0.116047 -0.0034954  -0.0284755 -0.122541 -0.00330645  -0.0337259 -0.116289 -0.00323224  -0.034573 -0.122695 -0.00330454  -0.0276649 -0.116345 -0.00302827  -0.0346302 -0.122462 -0.00354779  -0.0292118 -0.129071 -0.0033837  -0.0354639 -0.128974 -0.00361371  -0.029936 -0.135685 -0.0034616  -0.0353972 -0.12919 -0.00337982  -0.0362056 -0.13577 -0.00345826  -0.0291439 -0.129293 -0.00319964  -0.0362749 -0.135563 -0.00367743  -0.0306427 -0.142373 -0.00354934  -0.0370684 -0.142232 -0.00374883  -0.0313375 -0.149135 -0.0036338  -0.0369935 -0.142428 -0.00354505  -0.0377629 -0.149157 -0.00363278  -0.030566 -0.14257 -0.00338423  -0.0378401 -0.148973 -0.00382107  -0.0320203 -0.155961 -0.00372696  -0.0385947 -0.155784 -0.00390297  -0.0326886 -0.16285 -0.00382096  -0.0385132 -0.155956 -0.00372541  -0.0392439 -0.162816 -0.00381851  -0.0319333 -0.156138 -0.00358564  -0.0393293 -0.162653 -0.00398409  -0.0333416 -0.169795 -0.00391912  -0.0400484 -0.169582 -0.00407314  -0.0339856 -0.176792 -0.00402039  -0.0399578 -0.169735 -0.00391954  -0.0406542 -0.176705 -0.00402123  -0.0332479 -0.169951 -0.00379854  -0.0407479 -0.176559 -0.00416172  -0.0346153 -0.183835 -0.00412798  -0.041431 -0.18359 -0.00425792  -0.0352316 -0.190922 -0.00423342  -0.0413337 -0.183723 -0.00412607  -0.0419958 -0.190787 -0.00423366  -0.034512 -0.183971 -0.00402254  -0.0420964 -0.19066 -0.00435406  -0.0358348 -0.198046 -0.00434715  -0.0427477 -0.197773 -0.00445682  -0.036427 -0.205206 -0.00446069  -0.0426412 -0.197888 -0.00434566  -0.0432725 -0.205026 -0.00445896  -0.0357268 -0.198166 -0.00425941  -0.0433815 -0.204917 -0.00456238  -0.0370088 -0.212393 -0.00457919  -0.0439999 -0.212095 -0.00467104  -0.0375779 -0.219611 -0.004695  -0.0438869 -0.212194 -0.00457752  -0.0444858 -0.219391 -0.00469524  -0.0368934 -0.212497 -0.00450659  -0.044601 -0.219298 -0.00477928  -0.0381339 -0.226848 -0.00481737  -0.0451899 -0.226525 -0.00489444  -0.0386825 -0.234108 -0.00494117  -0.0450735 -0.226612 -0.00481886  -0.045645 -0.233856 -0.00494367  -0.0380144 -0.226938 -0.00476158  -0.0457649 -0.233774 -0.00501055  -0.0392194 -0.241382 -0.00507063  -0.0463271 -0.241041 -0.00513011  -0.0397458 -0.248672 -0.00519884  -0.0462031 -0.241113 -0.00507152  -0.0467484 -0.248389 -0.00519907  -0.0390928 -0.241459 -0.00502431  -0.0468743 -0.24832 -0.00525147  -0.0402615 -0.255969 -0.00532985  -0.0474095 -0.255609 -0.00537866  -0.0407686 -0.263277 -0.00546348  -0.0472813 -0.255673 -0.00533092  -0.0478005 -0.262969 -0.00546443  -0.0401311 -0.256034 -0.00529373  -0.0479319 -0.262908 -0.00550568  -0.0412672 -0.270588 -0.00560045  -0.0484447 -0.270215 -0.00563705  -0.0417566 -0.277903 -0.00573564  -0.0483112 -0.270267 -0.0055995  -0.0488122 -0.277572 -0.00573909  -0.0411313 -0.270642 -0.00557238  -0.0489452 -0.277522 -0.00576717  -0.042239 -0.285218 -0.00587559  -0.0494375 -0.284832 -0.00590295  -0.0427125 -0.292532 -0.00601709  -0.0493019 -0.284877 -0.00587803  -0.049782 -0.292185 -0.00601661  -0.0420971 -0.285265 -0.00585747  -0.0499184 -0.292143 -0.00603908  -0.0431788 -0.299842 -0.00615996  -0.0503931 -0.299448 -0.00617969  -0.0436392 -0.307149 -0.00630462  -0.050252 -0.299487 -0.00616217  -0.0507138 -0.306788 -0.0063079  -0.0430348 -0.299882 -0.0061475  -0.0508552 -0.30675 -0.00632006  -0.0440907 -0.314449 -0.00645036  -0.0513132 -0.314047 -0.00646323  -0.0445385 -0.321742 -0.00659794  -0.0511706 -0.31408 -0.0064531  -0.0516188 -0.32137 -0.00659949  -0.0439465 -0.314484 -0.00644326  -0.0517628 -0.321335 -0.00660741  -0.0449784 -0.329024 -0.00674456  -0.0522056 -0.328616 -0.00675404  -0.045418 -0.3363 -0.00689596  -0.0520618 -0.328645 -0.0067482  -0.0524986 -0.335917 -0.00689846  -0.0448334 -0.329055 -0.00674289  -0.0526445 -0.335888 -0.00690091  -0.04585 -0.34356 -0.00704408  -0.0530782 -0.343149 -0.00704938  -0.0462804 -0.350814 -0.00719529  -0.0529315 -0.343175 -0.00704747  -0.05336 -0.35043 -0.00719815  -0.045701 -0.34359 -0.00704372  -0.0535064 -0.350402 -0.00719607  -0.0467052 -0.358052 -0.0073415  -0.0539348 -0.357642 -0.00734681  -0.0471303 -0.365281 -0.00749373  -0.0537848 -0.357667 -0.00734669  -0.0542123 -0.364905 -0.00749761  -0.0465567 -0.358079 -0.00734621  -0.054358 -0.364874 -0.00749177  -0.000151522 -5.51045e-05 -0.000430048  -0.000196867 -0.000198603 -0.000641584  -0.000516154 -0.000635087 -0.000822186  -0.000209313 -0.000282675 -0.000481188  -0.000724316 -0.00103009 -0.000905693  0 0 0  0 0 0  -0.00015929 -0.000141799 -0.000316441  0 0 0  -0.000685103 -0.000840306 -0.00121278  -0.00100203 -0.00178745 -0.00109643  -0.00151424 -0.00210765 -0.00160611  -0.00158489 -0.00333759 -0.00130743  -0.00143789 -0.00236467 -0.00119919  -0.00228316 -0.00401473 -0.00149119  -0.000945643 -0.00203064 -0.000825703  -0.00238413 -0.00368035 -0.00190651  -0.00217214 -0.00521833 -0.00141919  -0.00331235 -0.0055714 -0.00205469  -0.00279313 -0.00740936 -0.00150925  -0.00321397 -0.00595716 -0.0016278  -0.00414705 -0.00818244 -0.00174499  -0.00210199 -0.00558412 -0.00113243  -0.00424513 -0.00774693 -0.00217086  -0.00339052 -0.00987667 -0.0015533  -0.00514206 -0.0101895 -0.00221545  -0.00399417 -0.0126093 -0.00158906  -0.00507465 -0.0106544 -0.00180495  -0.0059773 -0.0133862 -0.00183928  -0.0033406 -0.0103256 -0.00127566  -0.0060333 -0.0128994 -0.00224906  -0.00458109 -0.0156024 -0.0016101  -0.00689179 -0.0158641 -0.00225669  -0.00516534 -0.0188395 -0.0016287  -0.0068574 -0.016362 -0.00186706  -0.0077126 -0.0195808 -0.00187528  -0.00455189 -0.0160908 -0.00134718  -0.00773853 -0.0190798 -0.00225955  -0.00574136 -0.0223212 -0.00164878  -0.00856543 -0.0225357 -0.00225943  -0.0063141 -0.0260318 -0.00166696  -0.00855148 -0.0230357 -0.00189203  -0.00936979 -0.0267195 -0.00189871  -0.00572288 -0.0228167 -0.0014019  -0.00938213 -0.0262242 -0.00225586  -0.00688261 -0.0299669 -0.00169307  -0.010184 -0.0301374 -0.00225955  -0.00745016 -0.0341145 -0.00171727  -0.0101766 -0.0306216 -0.0019173  -0.0109684 -0.0347372 -0.00193149  -0.0068683 -0.03045 -0.00146276  -0.0109751 -0.0342645 -0.00226194  -0.00801361 -0.0384679 -0.00175339  -0.011757 -0.0385974 -0.00227433  -0.00857991 -0.0430177 -0.00178707  -0.0117494 -0.039055 -0.00195873  -0.0125185 -0.0435686 -0.00198358  -0.00799823 -0.0389276 -0.00154114  -0.0125266 -0.0431235 -0.00228655  -0.00914204 -0.0477538 -0.00183153  -0.0132903 -0.0478412 -0.00231057  -0.00970376 -0.052671 -0.001876  -0.0132784 -0.0482685 -0.00201952  -0.0140259 -0.0531484 -0.00205612  -0.00911772 -0.0481834 -0.00163805  -0.0140414 -0.0527357 -0.00233316  -0.0102642 -0.0577567 -0.00193131  -0.0147865 -0.0578016 -0.00237006  -0.0108252 -0.0630074 -0.00198692  -0.0147657 -0.058197 -0.00210369  -0.0154954 -0.063412 -0.00215048  -0.0102321 -0.0581549 -0.00175506  -0.0155185 -0.06303 -0.0024032  -0.0113834 -0.0684122 -0.00205284  -0.0162458 -0.068415 -0.00245094  -0.0119408 -0.0739643 -0.00211829  -0.016216 -0.0687785 -0.00220841  -0.016927 -0.0742958 -0.00226659  -0.0113425 -0.0687769 -0.00189203  -0.0169621 -0.0739455 -0.00249583  -0.0124969 -0.079654 -0.00219303  -0.0176694 -0.0796175 -0.0025537  -0.0130532 -0.0854801 -0.00226748  -0.0176324 -0.07995 -0.00233483  -0.0183264 -0.0857412 -0.00240338  -0.0124478 -0.0799898 -0.00204808  -0.0183681 -0.0854222 -0.00261039  -0.0136065 -0.0914281 -0.00235295  -0.0190611 -0.091353 -0.00267935  -0.01416 -0.0974987 -0.0024358  -0.0190121 -0.0916537 -0.00248003  -0.0196896 -0.0976922 -0.00255787  -0.0135478 -0.0917341 -0.00222087  -0.0197424 -0.0974018 -0.0027436  -0.0147105 -0.103678 -0.00252843  -0.0204179 -0.103565 -0.00282043  -0.0152593 -0.109965 -0.00261998  -0.0203584 -0.103839 -0.00264239  -0.0210205 -0.110095 -0.0027293  -0.0146415 -0.103956 -0.00241041  -0.0210826 -0.109832 -0.00289404  -0.0158044 -0.11635 -0.00271875  -0.0217395 -0.116201 -0.00298035  -0.0163498 -0.122829 -0.00281656  -0.0216725 -0.116447 -0.00282234  -0.0223155 -0.122899 -0.00291628  -0.0157278 -0.1166 -0.0026142  -0.0223876 -0.122662 -0.00306201  -0.0168908 -0.129394 -0.00292379  -0.0230286 -0.129211 -0.0031563  -0.0174297 -0.136043 -0.0030297  -0.022951 -0.129434 -0.00301564  -0.0235786 -0.136056 -0.00311643  -0.0168045 -0.129619 -0.0028311  -0.0236585 -0.135843 -0.00324696  -0.0179656 -0.142764 -0.00314194  -0.0242827 -0.142551 -0.00334674  -0.0184982 -0.149557 -0.0032537  -0.0241969 -0.142748 -0.003223  -0.0248086 -0.149517 -0.0033313  -0.0178726 -0.142965 -0.00306129  -0.0248973 -0.149327 -0.00344485  -0.0190289 -0.156414 -0.00337136  -0.0255046 -0.156172 -0.00355232  -0.0195568 -0.163334 -0.00348902  -0.0254128 -0.156348 -0.003443  -0.0260053 -0.163243 -0.00355685  -0.0189281 -0.156595 -0.00330281  -0.026103 -0.163079 -0.00365621  -0.0200789 -0.170305 -0.00361401  -0.0266929 -0.170035 -0.00376892  -0.0205986 -0.177329 -0.0037362  -0.0265923 -0.170193 -0.00367558  -0.0271702 -0.177195 -0.00379443  -0.0199707 -0.170463 -0.00355256  -0.0272722 -0.177048 -0.00387716  -0.0211136 -0.184394 -0.00386202  -0.0278473 -0.184104 -0.00399739  -0.0216262 -0.191507 -0.00399107  -0.0277405 -0.184242 -0.00391829  -0.0283034 -0.191334 -0.00404167  -0.0210011 -0.184535 -0.0038119  -0.0284126 -0.191204 -0.00411606  -0.0221353 -0.198653 -0.00412434  -0.02897 -0.19834 -0.00423867  -0.0226378 -0.205834 -0.00425446  -0.0288565 -0.198461 -0.00416875  -0.0294032 -0.205625 -0.00429922  -0.0220139 -0.198776 -0.00408  -0.0295181 -0.205511 -0.00435925  -0.0231371 -0.213043 -0.00439173  -0.0300584 -0.212709 -0.0044865  -0.0236332 -0.220277 -0.00452685  -0.0299397 -0.212815 -0.00443155  -0.0304699 -0.220036 -0.00456285  -0.0230131 -0.213148 -0.00435561  -0.0305922 -0.219937 -0.0046131  -0.0241249 -0.227534 -0.00466627  -0.0311172 -0.227186 -0.00474334  -0.0246117 -0.234809 -0.00480556  -0.0309927 -0.227274 -0.00469673  -0.0315075 -0.234537 -0.00483459  -0.023994 -0.227625 -0.00463796  -0.0316343 -0.234452 -0.0048756  -0.0250933 -0.242097 -0.00494826  -0.0321443 -0.241735 -0.00501072  -0.0255711 -0.249401 -0.00508952  -0.0320165 -0.24181 -0.0049755  -0.032515 -0.249104 -0.00511408  -0.0249588 -0.242176 -0.00492561  -0.0326476 -0.249032 -0.00514507  -0.0260446 -0.256713 -0.00523412  -0.0331445 -0.256338 -0.00528401  -0.026515 -0.264031 -0.00537789  -0.0330105 -0.256402 -0.00525492  -0.0334966 -0.263713 -0.00539792  -0.0259068 -0.256779 -0.00521696  -0.033633 -0.263651 -0.00542265  -0.0269794 -0.271352 -0.00552642  -0.0341153 -0.270969 -0.00556397  -0.0274422 -0.278678 -0.00567192  -0.0339782 -0.271022 -0.00554377  -0.0344515 -0.278342 -0.00568861  -0.0268369 -0.27141 -0.00551343  -0.0345891 -0.278288 -0.00570482  -0.0278969 -0.286 -0.00582278  -0.0350623 -0.285607 -0.00585008  -0.0283518 -0.293324 -0.0059709  -0.0349193 -0.285654 -0.00583726  -0.0353811 -0.292972 -0.00598311  -0.0277526 -0.28605 -0.00581414  -0.0355246 -0.292926 -0.0059948  -0.0287991 -0.300641 -0.00612229  -0.0359819 -0.300241 -0.00614339  -0.0292439 -0.307954 -0.00627291  -0.0358379 -0.30028 -0.00613236  -0.0362895 -0.30759 -0.00628132  -0.0286539 -0.300681 -0.00611675  -0.0364344 -0.30755 -0.00628912  -0.0296867 -0.31526 -0.00642556  -0.0368824 -0.314853 -0.00643837  -0.0301244 -0.322557 -0.00657547  -0.0367372 -0.314887 -0.00643289  -0.0371797 -0.322183 -0.00658286  -0.0295362 -0.315293 -0.00642127  -0.0373256 -0.322149 -0.00658697  -0.0305591 -0.329845 -0.0067302  -0.0377669 -0.329435 -0.00673878  -0.0309923 -0.337121 -0.00688165  -0.0376194 -0.329463 -0.00673443  -0.0380528 -0.336742 -0.00688696  -0.0304089 -0.329874 -0.00672954  -0.0382006 -0.33671 -0.00688809  -0.0314188 -0.344385 -0.00703585  -0.038631 -0.343972 -0.00704122  -0.031846 -0.351639 -0.00718844  -0.0384808 -0.343999 -0.00703937  -0.0389097 -0.351256 -0.00719213  -0.0312662 -0.344414 -0.00703615  -0.0390584 -0.351227 -0.00719017  -0.0322678 -0.358874 -0.00734043  -0.0394859 -0.358465 -0.00734234  -0.0326924 -0.3661 -0.00749487  -0.0393348 -0.35849 -0.00734365  -0.0397592 -0.365722 -0.00749564  -0.0321164 -0.358904 -0.00734431  -0.0399094 -0.365692 -0.0074932  -7.41333e-06 3.80874e-05 8.22544e-06  -5.35138e-05 8.52346e-06 -0.000209928  -2.01687e-05 -0.000489086 -1.88351e-05  -6.34156e-05 -7.25091e-05 -0.000156283  -0.000222266 -0.000655413 -0.000320613  0 0 0  0 0 0  -1.13994e-05 -4.98295e-05 1.2815e-05  0 0 0  -0.000183485 -0.000493497 -0.000430584  -3.39746e-06 -0.00160602 -4.19021e-05  -0.000463054 -0.00164735 -0.000567794  -5.94556e-06 -0.00310862 -8.36253e-05  -0.000433937 -0.00188315 -0.000417769  -0.000694394 -0.00343883 -0.000561416  -1.51992e-06 -0.00183925 -2.82526e-05  -0.000730202 -0.00313675 -0.000703931  7.21216e-06 -0.00500295 -0.00011462  -0.00104067 -0.00503686 -0.000767648  -5.24521e-06 -0.00719815 -0.000161469  -0.001001 -0.00539631 -0.000616968  -0.00131357 -0.00763589 -0.000689864  1.31428e-05 -0.00535598 -0.000105858  -0.00135842 -0.00722429 -0.000839174  -1.68383e-05 -0.00969663 -0.000202835  -0.00167114 -0.0097104 -0.000879228  -4.94421e-05 -0.0124553 -0.000252604  -0.00164026 -0.0101555 -0.000738144  -0.0019637 -0.0129336 -0.000778615  -7.62939e-06 -0.0101359 -0.000196874  -0.00199386 -0.0124624 -0.000923455  -8.99434e-05 -0.0154818 -0.000303805  -0.00231069 -0.0154718 -0.000958622  -0.000147581 -0.0187487 -0.000359595  -0.00228918 -0.0159579 -0.000825405  -0.00261396 -0.0192263 -0.000860929  -7.61747e-05 -0.0159636 -0.0002985  -0.00263566 -0.0187314 -0.000995934  -0.000217915 -0.0222608 -0.000421941  -0.00296038 -0.0222289 -0.00103658  -0.00030601 -0.0260009 -0.00048238  -0.00294155 -0.0227231 -0.000909925  -0.00327033 -0.0264503 -0.000950694  -0.000196993 -0.0227545 -0.000414789  -0.00329137 -0.0259579 -0.00107604  -0.000407159 -0.0299646 -0.000554562  -0.0036276 -0.0299097 -0.00112641  -0.000525475 -0.0341415 -0.000625014  -0.00360602 -0.0303912 -0.00100756  -0.00394678 -0.0345484 -0.00105822  -0.000376582 -0.0304488 -0.000548005  -0.00397056 -0.0340751 -0.00117302  -0.000657022 -0.0385236 -0.000705421  -0.00432026 -0.0384441 -0.00123209  -0.000806272 -0.0431032 -0.000783861  -0.00429326 -0.0389037 -0.00112069  -0.00464672 -0.0434584 -0.00118208  -0.0006181 -0.0389853 -0.000700295  -0.00467664 -0.043011 -0.0012871  -0.000971198 -0.0478681 -0.000872552  -0.00504124 -0.047764 -0.00135469  -0.00115097 -0.0528142 -0.000959218  -0.00500655 -0.0481947 -0.0012536  -0.0053736 -0.053115 -0.00132418  -0.00092268 -0.0483014 -0.000867248  -0.00541234 -0.0526972 -0.00141847  -0.00134563 -0.0579315 -0.00105643  -0.00579202 -0.0578005 -0.00149673  -0.00155544 -0.0632108 -0.00115108  -0.0057478 -0.0581997 -0.00140363  -0.00612819 -0.0634526 -0.00148427  -0.00128865 -0.0583327 -0.0010528  -0.00617754 -0.063068 -0.00157076  -0.00177848 -0.0686445 -0.00125545  -0.00656843 -0.0684884 -0.00165647  -0.00201762 -0.0742271 -0.00135905  -0.0065155 -0.0688564 -0.00157338  -0.00690961 -0.0744115 -0.00166291  -0.00171471 -0.0690149 -0.00125414  -0.00696564 -0.0740562 -0.00173974  -0.00226843 -0.0799467 -0.00147182  -0.0073719 -0.0797654 -0.0018338  -0.00253439 -0.0858018 -0.00158036  -0.00730956 -0.0801014 -0.00175935  -0.00771642 -0.08593 -0.00185663  -0.00219476 -0.0802869 -0.00146949  -0.00778186 -0.0856059 -0.00192565  -0.00280941 -0.0917781 -0.00169903  -0.00819731 -0.0915715 -0.00202864  -0.0030998 -0.0978772 -0.00181663  -0.00812721 -0.0918783 -0.00195879  -0.00854349 -0.0979517 -0.002065  -0.00272858 -0.0920902 -0.00169814  -0.00861847 -0.0976558 -0.00212598  -0.00339901 -0.104082 -0.00194144  -0.00904381 -0.103851 -0.00223684  -0.00371206 -0.110397 -0.00206405  -0.00896513 -0.104129 -0.00217628  -0.00939262 -0.110421 -0.00228596  -0.00330901 -0.104364 -0.00194079  -0.00947487 -0.110152 -0.00234234  -0.0040344 -0.116807 -0.00219381  -0.00990963 -0.116552 -0.00245786  -0.00436687 -0.123311 -0.00232238  -0.00982368 -0.116804 -0.00240457  -0.0102577 -0.123286 -0.00252253  -0.00393534 -0.117062 -0.00219393  -0.0103483 -0.123046 -0.0025714  -0.00470817 -0.1299 -0.00245839  -0.0107905 -0.129624 -0.00269234  -0.00505924 -0.136571 -0.00259042  -0.0106963 -0.129849 -0.00264531  -0.0111367 -0.136501 -0.00276858  -0.00460339 -0.130128 -0.00245762  -0.0112363 -0.136285 -0.00281173  -0.00541806 -0.143314 -0.00273025  -0.0116847 -0.143019 -0.00293803  -0.00578547 -0.150131 -0.00286829  -0.0115798 -0.143221 -0.00289714  -0.0120282 -0.150017 -0.00302315  -0.00530672 -0.143521 -0.00273085  -0.0121341 -0.149825 -0.00306189  -0.00615978 -0.157008 -0.00301248  -0.0125875 -0.156693 -0.00319409  -0.0065403 -0.163945 -0.00315297  -0.0124764 -0.156873 -0.00315666  -0.0129292 -0.163796 -0.00329185  -0.00604129 -0.15719 -0.00301421  -0.0130413 -0.163622 -0.00332195  -0.00692558 -0.170936 -0.00330025  -0.0134966 -0.170605 -0.00345796  -0.00731874 -0.177978 -0.00344491  -0.0133801 -0.170764 -0.00342619  -0.0138335 -0.17779 -0.0035634  -0.00680542 -0.171098 -0.00330311  -0.0139523 -0.177638 -0.00359142  -0.00771642 -0.185062 -0.00359541  -0.01441 -0.184716 -0.00373065  -0.00812006 -0.192188 -0.00374299  -0.0142889 -0.184857 -0.00370419  -0.0147433 -0.19197 -0.00384516  -0.00758886 -0.185205 -0.00359672  -0.014868 -0.191835 -0.00386816  -0.00852609 -0.199349 -0.00389612  -0.0153253 -0.19899 -0.00401181  -0.00893784 -0.206546 -0.00404745  -0.0151989 -0.199114 -0.00398916  -0.0156553 -0.206296 -0.00413346  -0.00839353 -0.199474 -0.00389796  -0.0157828 -0.206178 -0.00415099  -0.00935173 -0.213766 -0.00420046  -0.0162411 -0.213394 -0.00429678  -0.00977015 -0.221012 -0.00435221  -0.0161099 -0.213501 -0.00428027  -0.0165634 -0.220739 -0.00442523  -0.00921464 -0.213873 -0.00420332  -0.0166957 -0.220636 -0.00444001  -0.0101888 -0.228277 -0.00450784  -0.0171525 -0.227898 -0.00458914  -0.010612 -0.235565 -0.00466371  -0.0170178 -0.22799 -0.00457466  -0.0174694 -0.235268 -0.00472325  -0.0100472 -0.228374 -0.00451195  -0.017607 -0.235179 -0.00473458  -0.0110347 -0.242863 -0.00481904  -0.0180612 -0.242475 -0.00488597  -0.0114613 -0.250176 -0.00497562  -0.0179186 -0.242552 -0.00487363  -0.0183709 -0.249857 -0.0050236  -0.0108898 -0.242944 -0.00482196  -0.0185118 -0.249781 -0.00503355  -0.0118859 -0.257493 -0.00513381  -0.0189626 -0.257097 -0.00518489  -0.0123136 -0.26482 -0.00529045  -0.018821 -0.257164 -0.00517786  -0.0192688 -0.264486 -0.00532842  -0.0117385 -0.257562 -0.00513554  -0.0194125 -0.264421 -0.00533515  -0.0127413 -0.272149 -0.005449  -0.0198588 -0.271746 -0.0054878  -0.0131712 -0.27948 -0.0056048  -0.0197148 -0.271804 -0.00548077  -0.0201566 -0.279129 -0.00563407  -0.0125928 -0.272207 -0.00545192  -0.0203028 -0.279075 -0.00564146  -0.0135999 -0.286808 -0.00576538  -0.020746 -0.286401 -0.00579453  -0.0140269 -0.294135 -0.00592369  -0.0205975 -0.286449 -0.00579125  -0.0210371 -0.293773 -0.00594491  -0.0134466 -0.286858 -0.005768  -0.0211866 -0.293727 -0.00594962  -0.0144541 -0.301456 -0.00608021  -0.0216246 -0.301047 -0.00610274  -0.0148826 -0.308774 -0.00624007  -0.0214775 -0.301088 -0.00609839  -0.0219116 -0.308401 -0.00625551  -0.0143013 -0.301499 -0.00608397  -0.0220628 -0.308363 -0.00625753  -0.0153065 -0.316081 -0.00639957  -0.0224965 -0.315667 -0.00641274  -0.0157351 -0.323382 -0.00655544  -0.0223444 -0.315704 -0.00641048  -0.0227764 -0.323002 -0.00656629  -0.015156 -0.316116 -0.00640023  -0.0229273 -0.322967 -0.00656605  -0.0161593 -0.330669 -0.00671279  -0.0233595 -0.330257 -0.00672311  -0.0165851 -0.337949 -0.00687122  -0.0232069 -0.330286 -0.00672185  -0.0236347 -0.337567 -0.00687695  -0.0160065 -0.330702 -0.00671488  -0.0237868 -0.337534 -0.00687832  -0.0170088 -0.345214 -0.00702834  -0.0242133 -0.344799 -0.00703287  -0.0174286 -0.35247 -0.00718457  -0.02406 -0.344829 -0.00703174  -0.024483 -0.352085 -0.00718701  -0.0168531 -0.345244 -0.00702888  -0.024636 -0.352054 -0.00718695  -0.0178483 -0.359704 -0.00734103  -0.0250585 -0.359289 -0.0073415  -0.0182695 -0.366929 -0.00749993  -0.024905 -0.359318 -0.00734222  -0.0253246 -0.366542 -0.00749874  -0.0176942 -0.359734 -0.00734293  -0.0254786 -0.366511 -0.00749707  0.000135936 -7.96914e-05 0.000446022  8.48919e-05 -4.52995e-06 0.000231028  0.000468746 -0.000714839 0.00078398  7.79629e-05 -8.92282e-05 0.000176728  0.000248164 -0.000698864 0.000280559  0 0 0  0 0 0  0.000133827 -0.000177383 0.000342011  0 0 0  0.000290826 -0.000539184 0.000375092  0.000993937 -0.00192916 0.00101101  0.000517011 -0.00171238 0.000495553  0.0015744 -0.00346327 0.0011397  0.000497058 -0.00194943 0.00038594  0.000786513 -0.00350505 0.000397563  0.000942677 -0.00217319 0.000769496  0.000818849 -0.00320554 0.00052762  0.00217977 -0.00540096 0.00118816  0.0011059 -0.00512773 0.000544906  0.00277457 -0.00759864 0.00118464  0.00108418 -0.00548756 0.00041467  0.00137928 -0.00773358 0.000384629  0.00212103 -0.0057649 0.000920951  0.00139374 -0.00732279 0.000514746  0.00334218 -0.0101097 0.00114518  0.00166658 -0.00982803 0.00047493  0.00388026 -0.0128708 0.00108403  0.00165659 -0.0102727 0.000346065  0.0019148 -0.0130675 0.000295937  0.0033108 -0.0105587 0.00088346  0.00191289 -0.0125941 0.000417113  0.00438058 -0.0159025 0.00100058  0.00214326 -0.0156239 0.000348806  0.00484818 -0.0191762 0.000911355  0.00215 -0.0161095 0.000227571  0.0023616 -0.0193978 0.000162959  0.00438172 -0.0163928 0.000753164  0.00234455 -0.0189 0.000275612  0.00528038 -0.0226946 0.00080663  0.00252557 -0.0224167 0.000192046  0.00567782 -0.0264437 0.00070262  0.00254774 -0.0229113 8.05855e-05  0.002711 -0.0266597 2.6226e-06  0.00530601 -0.023194 0.000575066  0.00268012 -0.0261646 0.000109911  0.00604218 -0.0304162 0.000585198  0.00281143 -0.0301345 1.43051e-05  0.00637227 -0.0346048 0.00047183  0.00284946 -0.0306188 -8.89897e-05  0.00296146 -0.0347972 -0.00017637  0.00608754 -0.0309042 0.000370204  0.00291741 -0.0343199 -7.76649e-05  0.00667071 -0.0389982 0.00034672  0.00299954 -0.0387087 -0.0001809  0.00693512 -0.0435905 0.000224352  0.003048 -0.0391722 -0.000277579  0.00311255 -0.0437489 -0.000373423  0.00673079 -0.0394635 0.000146449  0.0030582 -0.0432967 -0.000279784  0.00716901 -0.0483689 9.2566e-05  0.00309193 -0.0480704 -0.000391662  0.00737178 -0.0533304 -3.62396e-05  0.00315154 -0.0485061 -0.000480533  0.00316799 -0.0534487 -0.000584781  0.00724185 -0.0488058 -9.20296e-05  0.00310361 -0.0530269 -0.000497997  0.00754309 -0.0584595 -0.000174701  0.00309193 -0.0581516 -0.000616193  0.00768435 -0.0637546 -0.00030905  0.00316131 -0.0585546 -0.000698984  0.00313163 -0.0638313 -0.000810444  0.00762451 -0.0588657 -0.00034374  0.0030576 -0.0634407 -0.000730813  0.00779462 -0.0692024 -0.000452161  0.00300264 -0.068882 -0.000855863  0.00787735 -0.0748015 -0.000592768  0.00307965 -0.0692543 -0.000931025  0.0030061 -0.0748353 -0.00105  0.00788546 -0.0695779 -0.000608385  0.0029242 -0.0744755 -0.000976741  0.00793147 -0.0805356 -0.000741065  0.00282598 -0.0802037 -0.00110823  0.00795829 -0.0864056 -0.000886977  0.00291169 -0.0805455 -0.00117636  0.00279474 -0.0863978 -0.0013026  0.00802994 -0.0808799 -0.000883698  0.00270689 -0.0860684 -0.00123429  0.00795949 -0.0923961 -0.00104046  0.00256872 -0.0920539 -0.00137013  0.0079335 -0.0985103 -0.0011906  0.00266123 -0.0923657 -0.00143445  0.00250912 -0.0984599 -0.00156516  0.00806451 -0.0927106 -0.00117064  0.00241196 -0.0981602 -0.00150293  0.00788295 -0.104731 -0.00134724  0.00223589 -0.104376 -0.00164586  0.00780928 -0.111059 -0.00150257  0.00233614 -0.104659 -0.0017035  0.00214684 -0.110971 -0.00183898  0.00799572 -0.105016 -0.0014649  0.00204313 -0.110699 -0.00178379  0.00771093 -0.117482 -0.00166416  0.00183344 -0.117117 -0.0019297  0.0075928 -0.124 -0.0018214  0.00194085 -0.117372 -0.00198054  0.00171804 -0.123876 -0.00212353  0.00783122 -0.117741 -0.00176895  0.00160754 -0.123629 -0.00207222  0.00745225 -0.1306 -0.00198585  0.00136542 -0.130226 -0.00222349  0.00729108 -0.137286 -0.00214839  0.00148094 -0.130456 -0.00226939  0.00122833 -0.137126 -0.00241512  0.00757706 -0.130835 -0.00207943  0.0011096 -0.136905 -0.00236952  0.00711107 -0.144039 -0.00231481  0.000839949 -0.143656 -0.00252372  0.00691032 -0.150868 -0.00247943  0.000961781 -0.143863 -0.00256509  0.000681877 -0.150677 -0.00271344  0.00724006 -0.144249 -0.00239784  0.000557423 -0.150479 -0.00267339  0.00669503 -0.157754 -0.0026468  0.000262022 -0.157361 -0.00283211  0.00645995 -0.164702 -0.00281245  0.000387669 -0.157546 -0.00286782  8.27312e-05 -0.164481 -0.00301886  0.00682902 -0.157941 -0.00272083  -4.62532e-05 -0.164307 -0.00298321  0.00620961 -0.171702 -0.00298363  -0.000363588 -0.171303 -0.00314295  0.00594449 -0.178753 -0.00315142  -0.000232935 -0.171465 -0.00317466  -0.000559092 -0.178505 -0.00333047  0.0063498 -0.171867 -0.00304824  -0.000690937 -0.178349 -0.00330007  0.00566626 -0.185845 -0.00332409  -0.00103021 -0.18544 -0.00346124  0.00537395 -0.19298 -0.00349194  -0.000893831 -0.185583 -0.0034889  -0.00123835 -0.192706 -0.00364465  0.00581026 -0.185991 -0.00337946  -0.00137758 -0.19257 -0.00361866  0.00507045 -0.200145 -0.00366324  -0.00173306 -0.199735 -0.00378078  0.00475168 -0.207348 -0.00383538  -0.00159311 -0.199862 -0.00380433  -0.00195575 -0.207053 -0.00396401  0.00521684 -0.200274 -0.00371164  -0.00209761 -0.206935 -0.00394082  0.00442362 -0.214574 -0.00400651  -0.00246739 -0.21416 -0.00410503  0.00408483 -0.221828 -0.00417727  -0.0023253 -0.214268 -0.00412548  -0.00269938 -0.221514 -0.00428367  0.00457478 -0.214685 -0.00404739  -0.00284624 -0.221409 -0.00426543  0.00373697 -0.229098 -0.00434983  -0.00322986 -0.22868 -0.00443071  0.00337982 -0.236389 -0.00452  -0.00308228 -0.228773 -0.00444692  -0.00346994 -0.236057 -0.00460804  0.00389028 -0.229195 -0.00438339  -0.00361991 -0.235969 -0.00459325  0.00301552 -0.243688 -0.0046916  -0.00401306 -0.243269 -0.00475699  0.00264382 -0.251005 -0.00486302  -0.00386429 -0.243351 -0.00477242  -0.00426078 -0.250661 -0.004933  0.00316882 -0.243771 -0.00471967  -0.00441146 -0.250583 -0.00491899  0.00226617 -0.258325 -0.0050326  -0.00481391 -0.257905 -0.00508386  0.00188017 -0.265655 -0.00520039  -0.00466228 -0.257971 -0.00509429  -0.00506735 -0.265298 -0.00525671  0.00242138 -0.258396 -0.00505501  -0.0052197 -0.265232 -0.00524676  0.00149226 -0.272984 -0.00537068  -0.00562763 -0.272562 -0.0054121  0.0010941 -0.280317 -0.0055384  -0.00547552 -0.272619 -0.00541973  -0.00588751 -0.279951 -0.00558132  0.00164747 -0.273043 -0.00538766  -0.00604033 -0.279894 -0.00557214  0.00069499 -0.287646 -0.00570673  -0.00645471 -0.287223 -0.00573581  0.00029254 -0.294977 -0.00587404  -0.00630045 -0.287272 -0.00574267  -0.00671554 -0.2946 -0.00590426  0.000854731 -0.287696 -0.00572038  -0.00686908 -0.294552 -0.00589854  -0.000113964 -0.302296 -0.00603956  -0.00728559 -0.301874 -0.00606197  -0.000523329 -0.309614 -0.00620556  -0.0071342 -0.301916 -0.0060668  -0.00754976 -0.309233 -0.00622708  4.3869e-05 -0.302339 -0.00604969  -0.00770378 -0.309191 -0.00622231  -0.000934124 -0.31692 -0.00637048  -0.00812459 -0.316498 -0.00638479  -0.00134921 -0.324221 -0.00653279  -0.00796771 -0.316535 -0.00638634  -0.00838685 -0.323835 -0.00654662  -0.000775814 -0.316958 -0.00637615  -0.00854421 -0.3238 -0.00654596  -0.00176263 -0.331507 -0.00669539  -0.00896311 -0.331089 -0.00670576  -0.00218034 -0.338789 -0.00685799  -0.00880814 -0.33112 -0.00670677  -0.00922871 -0.338401 -0.00686514  -0.00160408 -0.33154 -0.00670058  -0.00938416 -0.338368 -0.00686496  -0.00259638 -0.346054 -0.00702095  -0.00980663 -0.345635 -0.00702518  -0.00301409 -0.353308 -0.00718117  -0.00964713 -0.345663 -0.00702333  -0.0100672 -0.35292 -0.00718391  -0.00243855 -0.346084 -0.00702238  -0.0102243 -0.352889 -0.00718474  -0.00343108 -0.360546 -0.00734192  -0.0106435 -0.360125 -0.0073427  -0.00384593 -0.367772 -0.0075047  -0.0104854 -0.360152 -0.00734168  -0.0109017 -0.367378 -0.00750071  -0.00327253 -0.360574 -0.00734192  -0.0110588 -0.367346 -0.00750107  0.00030712 -0.000480533 0.000860572  0.000247844 -0.000242949 0.000662625  0.001063 -0.00138199 0.00154477  0.000243716 -0.000344574 0.000503063  0.000777826 -0.00114673 0.000868022  0 0 0  0 0 0  0.000311613 -0.000592887 0.00065726  0 0 0  0.000822634 -0.000972688 0.00116205  0.00215735 -0.00281847 0.00200915  0.00158291 -0.00229567 0.00153166  0.003369 -0.00443375 0.00230294  0.00151636 -0.00255448 0.0011692  0.00237444 -0.0041905 0.00133562  0.00205812 -0.00309145 0.00152695  0.00246525 -0.00386751 0.00173026  0.00457621 -0.00641406 0.00243515  0.00335786 -0.005826 0.00182807  0.00577718 -0.008609 0.00248504  0.0032779 -0.00620931 0.00142568  0.00417694 -0.00846583 0.00144309  0.00446293 -0.00681412 0.00190389  0.00424469 -0.00803262 0.00184351  0.00691247 -0.0111031 0.00245428  0.00509769 -0.0105329 0.00180924  0.00800443 -0.0138457 0.00238878  0.00505269 -0.0109958 0.00141507  0.00588328 -0.0137843 0.00135732  0.00684872 -0.0115809 0.00193167  0.0059073 -0.013294 0.00174099  0.0090363 -0.0168529 0.00228482  0.00667739 -0.0163134 0.0016467  0.0100158 -0.0201124 0.00216711  0.00667405 -0.0168102 0.00127399  0.00741363 -0.0200931 0.00117981  0.00902653 -0.0173634 0.0017857  0.00740033 -0.0195843 0.00154036  0.0109429 -0.023613 0.00202644  0.00808221 -0.0230952 0.00141692  0.0118182 -0.0273538 0.00188231  0.00810945 -0.023598 0.00106722  0.00875932 -0.0273457 0.000956118  0.0109737 -0.0241258 0.00155711  0.00871837 -0.0268422 0.00129229  0.0126433 -0.0313165 0.00172389  0.00931299 -0.0308122 0.00115448  0.0134168 -0.0355016 0.00156677  0.00936449 -0.0313023 0.000828803  0.00992757 -0.0354845 0.000706077  0.0127022 -0.0318136 0.00128692  0.00986576 -0.0350012 0.00101912  0.0141419 -0.0398897 0.00139987  0.0103777 -0.0393916 0.000871778  0.0148187 -0.0444805 0.00123447  0.010447 -0.0398591 0.000569999  0.0109248 -0.0444426 0.000438154  0.0142204 -0.04036 0.00099355  0.0108494 -0.043986 0.000729084  0.015447 -0.0492556 0.00105989  0.011281 -0.0487645 0.000575721  0.0160273 -0.0542172 0.000890136  0.0113624 -0.0492023 0.000298023  0.0117592 -0.0541534 0.000158906  0.0155373 -0.0496965 0.000686109  0.0116715 -0.0537279 0.000426114  0.0165604 -0.059346 0.000711501  0.0120252 -0.0588585 0.000267923  0.0170474 -0.0646436 0.000536919  0.0121174 -0.0592644 1.19209e-05  0.0124369 -0.0645512 -0.000132382  0.0166631 -0.0597549 0.000368118  0.0123395 -0.0641567 0.000112474  0.0174923 -0.0700898 0.000355303  0.0126181 -0.0696061 -5.04255e-05  0.0178913 -0.0756919 0.000176549  0.0127184 -0.069981 -0.000283718  0.012965 -0.0755703 -0.000432372  0.0176016 -0.0704687 4.11272e-05  0.0128602 -0.0752075 -0.000208199  0.0182498 -0.0814266 -8.46386e-06  0.0130651 -0.0809432 -0.00037694  0.0185643 -0.0872989 -0.000189364  0.0131736 -0.0812889 -0.000589788  0.0133492 -0.0871489 -0.000743568  0.0183663 -0.0817732 -0.000294507  0.0132378 -0.0868167 -0.000539541  0.0188401 -0.0932918 -0.000377357  0.0133758 -0.0928099 -0.000709832  0.0190748 -0.0994079 -0.000561953  0.0134904 -0.0931249 -0.000904024  0.0135996 -0.0992292 -0.00106066  0.0189635 -0.0936086 -0.000637114  0.0134825 -0.0989254 -0.000876486  0.0192722 -0.105629 -0.000751972  0.013556 -0.105148 -0.00105035  0.0194328 -0.111961 -0.000938475  0.013677 -0.105435 -0.00122547  0.0137234 -0.111756 -0.00138658  0.0194035 -0.105918 -0.000985563  0.0136002 -0.11148 -0.00122124  0.0195578 -0.118383 -0.00113004  0.0136148 -0.117906 -0.00139838  0.0196484 -0.124906 -0.00131959  0.0137416 -0.118164 -0.00155407  0.0137315 -0.124676 -0.00171995  0.0196946 -0.118646 -0.00134033  0.0136009 -0.124426 -0.00157118  0.0197082 -0.131505 -0.00151175  0.0135595 -0.131028 -0.00174981  0.0197332 -0.138193 -0.00170135  0.0136933 -0.131261 -0.00188833  0.013629 -0.137939 -0.00205654  0.0198491 -0.131741 -0.0016979  0.0134923 -0.137715 -0.0019244  0.0197284 -0.144947 -0.00189459  0.0134015 -0.144471 -0.00210583  0.0196948 -0.151774 -0.0020858  0.0135384 -0.144681 -0.00222939  0.0134239 -0.151502 -0.00239974  0.0198758 -0.145158 -0.00206035  0.0132844 -0.1513 -0.00228238  0.0196335 -0.158662 -0.00228024  0.0131457 -0.158189 -0.00246394  0.0195422 -0.165613 -0.00247204  0.0132868 -0.158375 -0.00257361  0.0131283 -0.165317 -0.00274515  0.0197814 -0.158851 -0.00242567  0.012984 -0.165139 -0.00264382  0.0194285 -0.17261 -0.00266486  0.0128021 -0.172137 -0.00282538  0.0192883 -0.179661 -0.00285619  0.0129485 -0.172303 -0.00291836  0.0127475 -0.17935 -0.00309283  0.0195794 -0.172776 -0.00279105  0.0125999 -0.179191 -0.00300449  0.019125 -0.18675 -0.00305057  0.0123796 -0.186283 -0.00318748  0.0189395 -0.193885 -0.00324148  0.0125296 -0.186427 -0.00326788  0.0122926 -0.193558 -0.00344282  0.01928 -0.186897 -0.00315875  0.0121398 -0.193418 -0.00336564  0.0187337 -0.20105 -0.00343335  0.0118864 -0.200586 -0.00354975  0.0185075 -0.208251 -0.00362307  0.0120392 -0.200712 -0.0036189  0.0117693 -0.207908 -0.00379264  0.0188913 -0.201178 -0.00352633  0.0116148 -0.207787 -0.00372893  0.0182629 -0.215474 -0.00381398  0.0113297 -0.215013 -0.00391048  0.0180001 -0.222726 -0.00400168  0.0114846 -0.215122 -0.00396806  0.0111859 -0.222372 -0.0041424  0.0184238 -0.215586 -0.00389153  0.0110307 -0.222266 -0.00408918  0.0177219 -0.229993 -0.00419044  0.0107169 -0.229537 -0.00427061  0.0174286 -0.237282 -0.0043757  0.0108745 -0.22963 -0.00431895  0.0105491 -0.236918 -0.00449175  0.017884 -0.23009 -0.00425559  0.0103922 -0.236827 -0.00444829  0.0171194 -0.244579 -0.00456244  0.0100567 -0.244126 -0.00462753  0.0167959 -0.251892 -0.00474811  0.0102136 -0.244209 -0.00466716  0.00986862 -0.25152 -0.00483865  0.0172827 -0.244662 -0.00461644  0.00971031 -0.251441 -0.00480431  0.016464 -0.259209 -0.00493187  0.00935578 -0.258761 -0.00498265  0.0161169 -0.266536 -0.00511199  0.00951338 -0.258832 -0.00501376  0.00914907 -0.266157 -0.00518405  0.0166261 -0.259281 -0.00497335  0.00899005 -0.266089 -0.00515592  0.0157628 -0.273863 -0.00529373  0.00861645 -0.273418 -0.00533408  0.015398 -0.281192 -0.00547296  0.0087769 -0.273477 -0.00535667  0.00839782 -0.280806 -0.00552624  0.0159259 -0.273921 -0.00532538  0.00823808 -0.28075 -0.00550568  0.0150249 -0.288515 -0.00565004  0.00785136 -0.28808 -0.00567889  0.014642 -0.295844 -0.0058257  0.00801229 -0.288128 -0.0056963  0.00762129 -0.295454 -0.00586396  0.0151865 -0.288569 -0.00567353  0.00746036 -0.295405 -0.00584942  0.0142572 -0.303161 -0.00599784  0.00706506 -0.302726 -0.00601941  0.0138626 -0.310476 -0.006172  0.00722599 -0.302768 -0.00603181  0.00682449 -0.310084 -0.00619876  0.0144176 -0.303205 -0.00601548  0.00666308 -0.310043 -0.00618815  0.0134645 -0.317779 -0.00634223  0.00625777 -0.317348 -0.00635725  0.0130591 -0.325077 -0.00651073  0.00641847 -0.317385 -0.00636369  0.00601053 -0.324683 -0.00652814  0.0136268 -0.317816 -0.00635272  0.00585151 -0.324647 -0.0065214  0.0126536 -0.332361 -0.0066793  0.00544095 -0.331933 -0.00668776  0.0122423 -0.339639 -0.00684595  0.00560045 -0.331965 -0.00669181  0.00518632 -0.339246 -0.00685525  0.012815 -0.332393 -0.00668526  0.00502515 -0.339213 -0.00685287  0.011831 -0.346902 -0.00701112  0.00461125 -0.346478 -0.00701714  0.0114136 -0.354157 -0.00717592  0.00477195 -0.346505 -0.00701708  0.00435448 -0.353762 -0.00717884  0.0119922 -0.346931 -0.00701332  0.00419402 -0.353732 -0.00717998  0.0110016 -0.361397 -0.00734025  0.00377965 -0.360971 -0.00734335  0.0105853 -0.368628 -0.00750428  0.00393844 -0.361 -0.00733978  0.00352716 -0.368229 -0.0075022  0.011162 -0.361424 -0.00733799  0.00336695 -0.368197 -0.00750405  0.000574946 -0.00142825 0.00124466  0.000501283 -0.000835061 0.00107318  0.00200923 -0.00275564 0.00224936  0.000503302 -0.000967324 0.000808299  0.00150906 -0.00218028 0.00142294  0 0 0  0 0 0  0.000591874 -0.00155437 0.000956714  0 0 0  0.00154196 -0.00196838 0.00189555  0.00376664 -0.00442541 0.0029338  0.00293213 -0.00351077 0.00249666  0.00564712 -0.00611401 0.00338143  0.00282766 -0.0038178 0.00190002  0.00429833 -0.0055756 0.00221789  0.00363897 -0.00476122 0.00223446  0.00443134 -0.0051949 0.00285727  0.00744691 -0.00804728 0.00361204  0.0059458 -0.0071497 0.00304037  0.00921524 -0.0102205 0.00372446  0.00582474 -0.00758481 0.00238091  0.00731719 -0.00983208 0.0024544  0.00731051 -0.00852209 0.00283372  0.00742179 -0.00935119 0.00311214  0.0108942 -0.0126405 0.00371951  0.00883973 -0.0118072 0.00309414  0.0125118 -0.015349 0.00366139  0.00877097 -0.0123072 0.00244558  0.0101548 -0.0150597 0.00239021  0.0108194 -0.0131731 0.00294459  0.0101972 -0.0145373 0.00302774  0.0140567 -0.0183036 0.0035435  0.0114905 -0.0175189 0.00291675  0.0155348 -0.0215349 0.00340354  0.0114789 -0.0180416 0.00229734  0.0127323 -0.0212945 0.00218236  0.0140442 -0.0188468 0.00279957  0.012721 -0.0207667 0.00278652  0.016947 -0.0250012 0.00323182  0.0138923 -0.0242512 0.0026294  0.0182908 -0.0287206 0.00305241  0.0139239 -0.0247697 0.00204527  0.0150511 -0.0284969 0.00190228  0.0169792 -0.0255307 0.00252879  0.0150036 -0.0279832 0.00246757  0.0195693 -0.0326573 0.00285566  0.016055 -0.0319344 0.0022893  0.0207807 -0.036826 0.00265813  0.0161167 -0.0324335 0.00174463  0.0171217 -0.0366015 0.00158709  0.0196329 -0.0331632 0.00219971  0.0170483 -0.0361127 0.0021109  0.0219267 -0.0411913 0.0024482  0.0179844 -0.04049 0.00192314  0.0230064 -0.0457693 0.00224161  0.0180663 -0.0409632 0.00141817  0.018953 -0.0455379 0.00125158  0.022011 -0.0416677 0.00184047  0.018863 -0.0450767 0.00173706  0.0240227 -0.0505259 0.00202686  0.0196861 -0.0498446 0.00154257  0.0249743 -0.0554771 0.00181484  0.0197828 -0.0502864 0.00107646  0.0205562 -0.0552312 0.000904262  0.0241206 -0.0509704 0.00146502  0.0204527 -0.0548014 0.00135177  0.0258657 -0.0605878 0.00159794  0.0211668 -0.0599223 0.00115329  0.0266953 -0.0658754 0.00138414  0.0212743 -0.0603319 0.000724912  0.0219381 -0.0656144 0.000550091  0.0259758 -0.0609997 0.00108218  0.0218252 -0.0652178 0.000958979  0.0274646 -0.0713074 0.00116354  0.0224339 -0.0706592 0.000757515  0.0281746 -0.0768999 0.000947893  0.0225493 -0.0710363 0.000366032  0.023109 -0.0766224 0.000186861  0.0275832 -0.0716866 0.000693321  0.0229899 -0.0762567 0.000561357  0.0288291 -0.0826185 0.000726819  0.0234963 -0.0819864 0.000358164  0.0294255 -0.0884849 0.000509024  0.0236189 -0.0823323 2.563e-06  0.0240799 -0.0881896 -0.00017947  0.0289537 -0.0829676 0.0002985  0.0239553 -0.0878557 0.000159025  0.0299704 -0.094464 0.000286758  0.0243638 -0.0938443 -4.44055e-05  0.0304608 -0.100572 6.81877e-05  0.0244919 -0.0941601 -0.000368655  0.02486 -0.100263 -0.000552237  0.0301011 -0.0947807 -0.000101388  0.0247287 -0.099958 -0.000247955  0.0309014 -0.106779 -0.000152647  0.0250481 -0.106173 -0.000453591  0.0312893 -0.113103 -0.000373125  0.0251846 -0.106462 -0.000743866  0.0254622 -0.11278 -0.000931621  0.031037 -0.107068 -0.000503123  0.0253236 -0.112502 -0.000655293  0.0316323 -0.119513 -0.000594437  0.0255576 -0.118921 -0.000863731  0.0319259 -0.126029 -0.000815034  0.0256987 -0.119183 -0.00112367  0.025895 -0.125693 -0.00131321  0.0317738 -0.119776 -0.000908256  0.0257509 -0.125441 -0.0010674  0.0321754 -0.132615 -0.00103509  0.0259067 -0.132037 -0.00127536  0.0323825 -0.139294 -0.00125551  0.0260496 -0.132272 -0.00150621  0.0261705 -0.138944 -0.00169659  0.0323224 -0.132853 -0.0013153  0.0260246 -0.138719 -0.00147772  0.0325489 -0.146037 -0.00147575  0.0261049 -0.14547 -0.0016858  0.0326724 -0.152858 -0.0016923  0.0262554 -0.145679 -0.00188953  0.0263019 -0.152499 -0.00208247  0.0326986 -0.14625 -0.00172162  0.0261512 -0.152296 -0.00189  0.032758 -0.159731 -0.00191396  0.0261633 -0.159177 -0.00209683  0.0328052 -0.166674 -0.00212908  0.0263162 -0.159366 -0.00227708  0.0262988 -0.166305 -0.00247043  0.032912 -0.159921 -0.00212991  0.0261433 -0.166124 -0.00230086  0.032819 -0.17366 -0.00234669  0.0260944 -0.173117 -0.00250697  0.0327981 -0.180704 -0.00256097  0.0262513 -0.173283 -0.00266176  0.0261736 -0.180325 -0.00285375  0.032979 -0.173827 -0.00253403  0.0260153 -0.180166 -0.00270939  0.0327475 -0.18778 -0.00277787  0.0259101 -0.187251 -0.00291377  0.0326617 -0.194907 -0.00298947  0.0260682 -0.187397 -0.00304848  0.0259349 -0.194522 -0.00323784  0.0329063 -0.187928 -0.00293821  0.0257752 -0.194382 -0.00311536  0.032548 -0.202059 -0.00320202  0.0256171 -0.201543 -0.0033192  0.0324082 -0.209251 -0.00341165  0.0257781 -0.20167 -0.00343102  0.0255957 -0.208861 -0.00362104  0.0327125 -0.202188 -0.00333959  0.0254345 -0.20874 -0.0035165  0.0322413 -0.216463 -0.00361991  0.0252295 -0.215958 -0.00371706  0.032048 -0.223708 -0.00382721  0.0253911 -0.216069 -0.00381261  0.0251667 -0.223314 -0.00399947  0.0324049 -0.216576 -0.00373447  0.0250018 -0.223207 -0.00391436  0.0318325 -0.230963 -0.00403231  0.0247562 -0.230469 -0.0041123  0.0315938 -0.238244 -0.00423473  0.0249207 -0.230565 -0.00418955  0.0246561 -0.237846 -0.00437641  0.0319989 -0.23106 -0.00412649  0.0244901 -0.237755 -0.00430727  0.0313349 -0.245531 -0.00443584  0.0242085 -0.245048 -0.00449914  0.0310576 -0.252836 -0.00463432  0.0243731 -0.24513 -0.00456196  0.0240746 -0.252437 -0.00474668  0.0315011 -0.245613 -0.00451177  0.0239091 -0.252358 -0.00468981  0.0307641 -0.260144 -0.00483048  0.0235958 -0.259672 -0.00488132  0.0304503 -0.267463 -0.00502533  0.0237608 -0.259741 -0.00493115  0.023433 -0.267061 -0.00511211  0.0309286 -0.260212 -0.00489134  0.0232677 -0.266995 -0.00506938  0.0301242 -0.274778 -0.00521684  0.0229282 -0.274318 -0.00525624  0.0297813 -0.282104 -0.00540662  0.0230932 -0.274373 -0.00529301  0.0227406 -0.2817 -0.00547177  0.0302906 -0.274838 -0.00526285  0.0225763 -0.281644 -0.00544071  0.029428 -0.289419 -0.00559378  0.0222135 -0.288965 -0.00562245  0.0290616 -0.296737 -0.00577903  0.0223787 -0.289015 -0.00565046  0.022006 -0.296336 -0.00582486  0.0295949 -0.289469 -0.00562716  0.0218413 -0.296289 -0.0058018  0.0286889 -0.304045 -0.0059616  0.0214598 -0.303603 -0.00598097  0.0283027 -0.311356 -0.00614142  0.0216248 -0.303644 -0.00599825  0.0212371 -0.310956 -0.00617027  0.0288517 -0.304088 -0.00598478  0.021071 -0.310914 -0.00615513  0.0279119 -0.318652 -0.00631583  0.0206785 -0.318216 -0.00633091  0.0275123 -0.325946 -0.00648993  0.0208421 -0.31825 -0.00633991  0.0204401 -0.325547 -0.00650895  0.0280762 -0.318688 -0.00632989  0.0202789 -0.32551 -0.00650078  0.0271094 -0.333223 -0.00666153  0.0198741 -0.332793 -0.00667101  0.0266993 -0.340498 -0.00683171  0.0200362 -0.332824 -0.00667697  0.0196283 -0.340099 -0.00684214  0.0272725 -0.333256 -0.00666976  0.0194662 -0.340068 -0.00683892  0.026289 -0.347755 -0.00699997  0.0190513 -0.347329 -0.00700551  0.0258725 -0.355011 -0.0071665  0.0192151 -0.347357 -0.00700855  0.0188007 -0.354614 -0.00717181  0.0264513 -0.347786 -0.00700283  0.0186384 -0.354585 -0.00717282  0.0254583 -0.362251 -0.00733179  0.018224 -0.361825 -0.00733858  0.0250397 -0.369494 -0.00749856  0.0183859 -0.361853 -0.00733608  0.0179734 -0.369092 -0.00749838  0.0256221 -0.362281 -0.00733072  0.0178094 -0.369059 -0.00750428  0.00115702 -0.00356615 0.0017094  0.00101143 -0.00214362 0.00148541  0.00394402 -0.00543928 0.00291723  0.00101466 -0.00232744 0.00110072  0.00273874 -0.0042848 0.00195193  0 0 0  0 0 0  0.00112688 -0.00372815 0.00127476  0 0 0  0.0027187 -0.003995 0.00258029  0.00637551 -0.00671434 0.00389731  0.00487463 -0.00551438 0.00340015  0.00864044 -0.00849718 0.00447071  0.00476669 -0.00590545 0.00259387  0.00685701 -0.00773823 0.00305241  0.00625731 -0.00723559 0.00295156  0.00699529 -0.0072552 0.00391239  0.0109527 -0.010213 0.00479531  0.0090915 -0.00907975 0.00419939  0.0131968 -0.0123477 0.00497687  0.00896794 -0.00960511 0.00329894  0.0110113 -0.0117815 0.0034284  0.0108569 -0.010812 0.00376618  0.011125 -0.0112306 0.00433815  0.01539 -0.0146716 0.00498432  0.0130666 -0.0136018 0.00434852  0.0175262 -0.0173331 0.00493807  0.0129968 -0.0141631 0.00345206  0.0149013 -0.016847 0.0034017  0.0153342 -0.0152693 0.00395906  0.01495 -0.0162838 0.00429285  0.0195763 -0.0202289 0.0048005  0.0167459 -0.0192109 0.00416988  0.0215552 -0.0234234 0.00463861  0.0167304 -0.0197677 0.00330627  0.0184808 -0.0229735 0.00317013  0.0195606 -0.0208031 0.00381076  0.0184755 -0.0224223 0.00401747  0.0234466 -0.0268404 0.00443435  0.0201256 -0.0258682 0.00383139  0.0252576 -0.0305328 0.00421864  0.0201526 -0.0264027 0.00301462  0.0217476 -0.030099 0.00284082  0.0234668 -0.0273851 0.00349796  0.0217046 -0.0295726 0.00363457  0.0269846 -0.0344245 0.00398314  0.0232064 -0.0334899 0.0034188  0.0286256 -0.0385706 0.00374496  0.0232633 -0.0339975 0.00265491  0.0247026 -0.0381422 0.00246286  0.0270316 -0.0349361 0.00310904  0.0246332 -0.0376472 0.00320071  0.0301878 -0.042894 0.00349635  0.025986 -0.0419956 0.00297147  0.0316608 -0.0474527 0.00324696  0.0260637 -0.0424714 0.00226414  0.0273532 -0.0470261 0.00206357  0.030254 -0.0433713 0.00268602  0.0272664 -0.0465615 0.0027442  0.0330616 -0.0521702 0.002994  0.0284742 -0.0513036 0.00250918  0.034374 -0.0571038 0.00274068  0.0285661 -0.0517465 0.00185686  0.0297091 -0.0566752 0.00165159  0.0331408 -0.0526142 0.00224626  0.0296092 -0.0562447 0.0022772  0.035616 -0.0621786 0.00248504  0.0306749 -0.0613417 0.00204039  0.0367724 -0.067449 0.00222999  0.0307784 -0.0617515 0.0014413  0.031781 -0.0670174 0.00123435  0.035707 -0.0625878 0.00179893  0.0316702 -0.0666203 0.00180537  0.0378649 -0.0728456 0.00197506  0.032601 -0.0720392 0.00156742  0.038871 -0.0784224 0.0017181  0.0327133 -0.0724155 0.00102079  0.0335814 -0.077987 0.000810504  0.0379629 -0.0732225 0.00134718  0.0334638 -0.0776219 0.00133407  0.039816 -0.0841083 0.00146371  0.0342616 -0.0833297 0.00109315  0.0406803 -0.0899587 0.00120866  0.0343822 -0.0836746 0.000596583  0.035121 -0.0895201 0.000384748  0.0399245 -0.0844547 0.00089407  0.0349971 -0.0891847 0.000858784  0.0414897 -0.0959051 0.000955403  0.035671 -0.0951528 0.000619709  0.042221 -0.101999 0.000700116  0.0357983 -0.0954685 0.000169039  0.0364172 -0.101557 -4.33326e-05  0.0416039 -0.0962207 0.000439584  0.0362871 -0.101252 0.000383198  0.0428957 -0.108176 0.000446558  0.0368435 -0.107449 0.00014627  0.043501 -0.114487 0.000193834  0.0369766 -0.107737 -0.000259936  0.0374795 -0.114042 -0.000473559  0.0430183 -0.108463 -1.84178e-05  0.0373442 -0.113765 -9.08971e-05  0.0440527 -0.120867 -5.62072e-05  0.0377905 -0.120165 -0.000327587  0.0445381 -0.127367 -0.000309289  0.0379285 -0.120424 -0.000689745  0.038325 -0.12692 -0.000904262  0.0441817 -0.121126 -0.000472069  0.0381843 -0.12667 -0.000561595  0.0449767 -0.133924 -0.00055635  0.0385255 -0.133249 -0.000799477  0.0453479 -0.140589 -0.000807106  0.0386691 -0.13348 -0.00112146  0.0389655 -0.140144 -0.00133491  0.0451083 -0.134157 -0.000927925  0.0388205 -0.139918 -0.00103015  0.0456786 -0.147303 -0.00105417  0.0390668 -0.146651 -0.0012657  0.0459468 -0.154112 -0.00129902  0.0392134 -0.14686 -0.00155067  0.0394173 -0.153664 -0.00176293  0.0458157 -0.147513 -0.00137985  0.0392671 -0.153464 -0.00149637  0.0461769 -0.160957 -0.00154305  0.0394228 -0.160328 -0.00172979  0.0463486 -0.167888 -0.00178742  0.0395744 -0.160512 -0.00197953  0.0396898 -0.167441 -0.00219017  0.0463183 -0.161144 -0.00182956  0.0395377 -0.167262 -0.00195849  0.0464859 -0.174846 -0.00202453  0.0396109 -0.174239 -0.00218689  0.0465701 -0.181877 -0.00226599  0.0397651 -0.174403 -0.00240356  0.0398035 -0.181432 -0.00261456  0.0466323 -0.175011 -0.00227368  0.0396473 -0.181273 -0.00241381  0.0466218 -0.188929 -0.00250113  0.0396447 -0.188343 -0.0026406  0.0466259 -0.196041 -0.00273746  0.0398042 -0.188486 -0.00282609  0.0397687 -0.195599 -0.00303417  0.0467715 -0.189073 -0.00271392  0.0396085 -0.195461 -0.00286263  0.0465996 -0.203171 -0.00296813  0.0395386 -0.202604 -0.00308639  0.0465312 -0.210349 -0.00320029  0.0396991 -0.20273 -0.00324219  0.0395977 -0.209909 -0.00345027  0.0467532 -0.203294 -0.00314838  0.0394378 -0.209789 -0.00330579  0.0464337 -0.217537 -0.00342804  0.0393023 -0.216993 -0.00352454  0.0462966 -0.224768 -0.00365222  0.0394661 -0.217102 -0.00365549  0.0393057 -0.224332 -0.00385803  0.0465882 -0.217646 -0.00357676  0.0391431 -0.224228 -0.00374019  0.0461376 -0.232003 -0.00387228  0.0389559 -0.231476 -0.00395298  0.0459433 -0.239271 -0.00409174  0.0391164 -0.231571 -0.00406009  0.0389061 -0.238841 -0.00425977  0.0462942 -0.232097 -0.00399631  0.0387421 -0.238751 -0.00416386  0.0457294 -0.246536 -0.00430793  0.0385044 -0.246029 -0.00437403  0.0454793 -0.253832 -0.00452143  0.0386679 -0.246109 -0.00445855  0.0384116 -0.253403 -0.00465363  0.0458868 -0.246615 -0.00440764  0.0382452 -0.253328 -0.00457901  0.0452166 -0.261117 -0.0047304  0.0379658 -0.260629 -0.00478309  0.0449243 -0.268428 -0.0049389  0.0381291 -0.260695 -0.00484848  0.0378315 -0.268006 -0.00504047  0.0453765 -0.261184 -0.00480992  0.0376663 -0.267941 -0.00498319  0.0446193 -0.27572 -0.00514179  0.037349 -0.275251 -0.00518155  0.0442884 -0.283039 -0.00534254  0.0375133 -0.275308 -0.00523078  0.0371823 -0.282622 -0.00541753  0.0447803 -0.275781 -0.00519955  0.0370176 -0.282567 -0.00537556  0.0439463 -0.290336 -0.00554007  0.036669 -0.289878 -0.00556737  0.0435848 -0.297647 -0.00573319  0.0368328 -0.289925 -0.00560516  0.0364726 -0.297238 -0.00578451  0.0441098 -0.290384 -0.00557971  0.0363083 -0.297191 -0.00575614  0.0432146 -0.304943 -0.00592148  0.0359356 -0.304497 -0.00594312  0.0428264 -0.312245 -0.00610834  0.0361013 -0.304536 -0.00596637  0.0357182 -0.311839 -0.00614285  0.0433753 -0.304983 -0.00594974  0.0355535 -0.3118 -0.00612527  0.0424352 -0.319527 -0.00629026  0.0351605 -0.319093 -0.00630373  0.0420237 -0.326814 -0.00646871  0.0353239 -0.319127 -0.0063175  0.0349245 -0.326416 -0.00648957  0.0425935 -0.319564 -0.00630689  0.0347602 -0.326382 -0.00648129  0.0416164 -0.334085 -0.0066458  0.0343535 -0.333657 -0.00665355  0.0411985 -0.341354 -0.00681788  0.0345185 -0.333688 -0.00666136  0.0341072 -0.340959 -0.0068292  0.0417798 -0.334113 -0.00665438  0.0339437 -0.340927 -0.00682396  0.040782 -0.34861 -0.00698513  0.0335274 -0.348185 -0.00699294  0.0403583 -0.355861 -0.00715339  0.0336943 -0.348214 -0.00699556  0.0332758 -0.355466 -0.00716019  0.0409465 -0.348638 -0.00698936  0.0331142 -0.355436 -0.00716007  0.0399399 -0.363102 -0.00732118  0.0326943 -0.36268 -0.00732791  0.0395198 -0.370349 -0.00748837  0.0328586 -0.362708 -0.00732529  0.0324416 -0.369952 -0.00748944  0.0401063 -0.363135 -0.00731885  0.0322766 -0.369923 -0.00749588  -0.000537734 -0.0013831 -0.000682831  -0.000632882 -0.00207293 -0.000790715  -0.00189346 -0.00322936 -0.00121677  -0.000677925 -0.00213404 -0.000533104  -0.00269961 -0.00467981 -0.000921011  -0.00232128 -0.00392069 -0.000610471  0 0 0  -0.00226112 -0.00379564 -0.00089395  0 0 0  0 0 0  -0.000535272 -0.00139903 -0.000433326  0 0 0  -0.00446693 -0.00605807 -0.00165033  -0.00267626 -0.00456173 -0.00143313  -0.00362712 -0.00486351 -0.0016793  -0.00473048 -0.00611739 -0.001948  -0.00542386 -0.00657862 -0.00203991  -0.00473997 -0.00630276 -0.0012747  -0.00680719 -0.00808105 -0.00155306  -0.00651084 -0.00760932 -0.00146496  -0.00643516 -0.00735125 -0.00219619  -0.00361763 -0.005023 -0.00110459  -0.00867796 -0.00916569 -0.00267744  -0.00681333 -0.0078318 -0.00234807  -0.00731507 -0.00851354 -0.00227177  -0.00894865 -0.00959916 -0.00261128  -0.00911513 -0.0105817 -0.00243855  -0.00890952 -0.00987754 -0.00173652  -0.0109754 -0.0119148 -0.00188935  -0.0109079 -0.0110642 -0.00197113  -0.0109092 -0.0107492 -0.00295341  -0.00726336 -0.00875644 -0.00151587  -0.0132331 -0.0127874 -0.00317228  -0.0110273 -0.0116203 -0.0027982  -0.0109063 -0.0129483 -0.00252819  -0.0130989 -0.0138852 -0.00289929  -0.01263 -0.0155344 -0.00258338  -0.0130342 -0.014192 -0.00196958  -0.0150371 -0.0167195 -0.00203466  -0.0154658 -0.0152646 -0.00221515  -0.0155179 -0.0149401 -0.00327301  -0.0108431 -0.0132282 -0.00172794  -0.0177865 -0.0174316 -0.00333357  -0.0151012 -0.0164133 -0.00295508  -0.0143179 -0.0183899 -0.00260222  -0.0170657 -0.0192078 -0.00297308  -0.0159572 -0.0214848 -0.00260675  -0.0170005 -0.0195126 -0.00206101  -0.0189049 -0.0225447 -0.00208354  -0.0199311 -0.0204654 -0.00230265  -0.019998 -0.0201506 -0.00334573  -0.0142616 -0.0186794 -0.00181901  -0.0221505 -0.0231325 -0.00333238  -0.0189635 -0.0222449 -0.00296926  -0.0175516 -0.0248247 -0.00260067  -0.0208141 -0.0255379 -0.0029546  -0.0191017 -0.0283925 -0.00258887  -0.0207558 -0.0258304 -0.00209093  -0.0225514 -0.0293367 -0.00210142  -0.0241771 -0.0266676 -0.00232077  -0.0242425 -0.0263682 -0.0033083  -0.0175031 -0.0251089 -0.00186014  -0.0262663 -0.0298251 -0.00326979  -0.0226018 -0.0290532 -0.00293171  -0.0206068 -0.0321848 -0.00257885  -0.0243407 -0.0328046 -0.00291061  -0.0220731 -0.0361887 -0.00256896  -0.0242906 -0.0330795 -0.00210774  -0.0259783 -0.0370243 -0.00211906  -0.0281706 -0.0338069 -0.00232172  -0.0282323 -0.0335283 -0.00323844  -0.0205653 -0.0324574 -0.00189257  -0.0301302 -0.0374267 -0.00319922  -0.0260231 -0.0367582 -0.00288641  -0.0234975 -0.0404017 -0.00256705  -0.0276601 -0.0409322 -0.00287211  -0.0248808 -0.0448053 -0.00256598  -0.0276116 -0.0411889 -0.00213432  -0.0291955 -0.0455377 -0.00215423  -0.0319118 -0.0418147 -0.00233305  -0.0319729 -0.041556 -0.00317574  -0.0234541 -0.0406565 -0.00193512  -0.0337502 -0.0458626 -0.00314498  -0.0292422 -0.0452907 -0.002859  -0.0262269 -0.0494043 -0.00257635  -0.0307811 -0.0498519 -0.0028553  -0.0275364 -0.054177 -0.00258839  -0.0307319 -0.0500892 -0.00218141  -0.0322211 -0.0548077 -0.00221264  -0.0354168 -0.0506208 -0.00236142  -0.035478 -0.050382 -0.00313151  -0.0261825 -0.0496403 -0.00199878  -0.0371454 -0.055061 -0.00311708  -0.0322714 -0.054578 -0.00285423  -0.028807 -0.0591259 -0.00260961  -0.03372 -0.0594943 -0.0028646  -0.0300473 -0.0642358 -0.00263369  -0.0336668 -0.0597129 -0.00225008  -0.0350674 -0.0647725 -0.00229275  -0.0387015 -0.0601549 -0.00241446  -0.0387648 -0.0599351 -0.00311625  -0.0287585 -0.0593457 -0.00208414  -0.0403308 -0.0649565 -0.0031178  -0.035123 -0.0645622 -0.00287652  -0.0312529 -0.0695074 -0.00266814  -0.0364881 -0.0698005 -0.00290036  -0.0324256 -0.074923 -0.00270545  -0.0364273 -0.0700015 -0.00234246  -0.0377456 -0.0753689 -0.00239706  -0.0417775 -0.070358 -0.00249231  -0.0418483 -0.0701569 -0.0031302  -0.0311965 -0.0697097 -0.00219083  -0.0433146 -0.0754907 -0.00314343  -0.0378076 -0.0751755 -0.00292587  -0.0335666 -0.0804859 -0.00275123  -0.0390939 -0.0807082 -0.00296128  -0.0346763 -0.0861813 -0.00280058  -0.0390248 -0.0808918 -0.00245631  -0.0402665 -0.0865402 -0.0025214  -0.0446618 -0.0811679 -0.00259244  -0.0447381 -0.0809851 -0.00316858  -0.0335026 -0.0806729 -0.00232053  -0.0461138 -0.0865992 -0.0031935  -0.0403361 -0.0863637 -0.00299871  -0.0357571 -0.0920086 -0.00285554  -0.0415457 -0.0921608 -0.00304461  -0.0368088 -0.0979533 -0.00291395  -0.0414705 -0.092328 -0.00258982  -0.042637 -0.09823 -0.0026648  -0.0473645 -0.0925291 -0.00271142  -0.0474479 -0.0923611 -0.00323069  -0.0356849 -0.0921776 -0.00246716  -0.0487354 -0.0982329 -0.00326872  -0.0427145 -0.0980693 -0.00309312  -0.0378314 -0.104017 -0.00297904  -0.0438544 -0.104106 -0.00314927  -0.0388262 -0.110186 -0.00304866  -0.0437701 -0.104258 -0.00274193  -0.0448674 -0.110387 -0.0028249  -0.0498915 -0.104388 -0.00285125  -0.0499828 -0.104234 -0.00331652  -0.0377502 -0.104172 -0.00263262  -0.0511912 -0.110335 -0.00336623  -0.044955 -0.110241 -0.00320923  -0.0397922 -0.116462 -0.00312412  -0.0460261 -0.11649 -0.0032748  -0.0407346 -0.12283 -0.00320065  -0.0459358 -0.116628 -0.00291169  -0.0469652 -0.122959 -0.00300074  -0.0522597 -0.116691 -0.00301003  -0.0523586 -0.116552 -0.00342417  -0.0397046 -0.116602 -0.00281274  -0.0534848 -0.122854 -0.00348282  -0.0470611 -0.122827 -0.00334382  -0.0416486 -0.129294 -0.00328374  -0.0480661 -0.129266 -0.00341797  -0.0425392 -0.135839 -0.00336897  -0.0479673 -0.129391 -0.00309622  -0.0489373 -0.1359 -0.00319314  -0.0544702 -0.129391 -0.0031836  -0.0545762 -0.129264 -0.00355017  -0.0415541 -0.129421 -0.00300908  -0.0556285 -0.13575 -0.00361896  -0.0490353 -0.13578 -0.00349474  -0.0434027 -0.142466 -0.00345981  -0.0499814 -0.142384 -0.00357831  -0.0442429 -0.149164 -0.00355256  -0.0498755 -0.142496 -0.00329506  -0.0507855 -0.149163 -0.00339961  -0.0565345 -0.142439 -0.00337291  -0.0566454 -0.142328 -0.00369573  -0.0433006 -0.14258 -0.00321865  -0.0576284 -0.14897 -0.00376964  -0.0508914 -0.149053 -0.00366461  -0.0450583 -0.155935 -0.00365126  -0.0517766 -0.155803 -0.00375485  -0.0458531 -0.162764 -0.00374997  -0.0516665 -0.155904 -0.00350726  -0.0525188 -0.162706 -0.00361884  -0.0584598 -0.155794 -0.00357509  -0.0585768 -0.155694 -0.00385773  -0.04495 -0.156036 -0.00344014  -0.0594914 -0.162473 -0.00394022  -0.0526314 -0.162609 -0.00384641  -0.0466239 -0.169657 -0.00385523  -0.053463 -0.169483 -0.00394487  -0.0473723 -0.176601 -0.00396168  -0.0533447 -0.169574 -0.00373185  -0.0541432 -0.176489 -0.00384796  -0.0602527 -0.169413 -0.00378835  -0.0603728 -0.169324 -0.00403249  -0.0465069 -0.169748 -0.00367427  -0.0612264 -0.17622 -0.004125  -0.0542617 -0.176402 -0.00404406  -0.048099 -0.183597 -0.0040729  -0.0550387 -0.183382 -0.00414872  -0.0488055 -0.190634 -0.00418437  -0.0549192 -0.183463 -0.0039686  -0.0556655 -0.190478 -0.00408876  -0.0619199 -0.183259 -0.00401735  -0.0620484 -0.18318 -0.00422609  -0.0479786 -0.183679 -0.00391757  -0.0628395 -0.190175 -0.00432158  -0.055789 -0.190399 -0.00425529  -0.0494912 -0.197715 -0.00430179  -0.0565164 -0.197465 -0.0043664  -0.050159 -0.204831 -0.0044198  -0.0563896 -0.197536 -0.0042125  -0.05709 -0.204631 -0.00433767  -0.0634696 -0.197293 -0.00425375  -0.0636001 -0.197221 -0.00443077  -0.0493679 -0.197788 -0.00417173  -0.0643382 -0.204302 -0.00453675  -0.0572169 -0.204562 -0.00447881  -0.0508068 -0.211982 -0.00454032  -0.0578997 -0.211699 -0.00459576  -0.0514355 -0.219158 -0.00466347  -0.0577691 -0.211762 -0.00446808  -0.0584242 -0.21892 -0.00459659  -0.0649126 -0.211483 -0.00450242  -0.0650456 -0.211419 -0.00464749  -0.0506773 -0.212045 -0.00443208  -0.0657325 -0.218566 -0.00475991  -0.0585549 -0.218859 -0.00471294  -0.0520444 -0.226362 -0.00478899  -0.0591946 -0.226052 -0.00483406  -0.0526409 -0.233589 -0.0049181  -0.0590594 -0.226107 -0.00472999  -0.0596733 -0.233317 -0.00486457  -0.0662551 -0.225797 -0.00475907  -0.0663922 -0.22574 -0.00487816  -0.0519137 -0.22642 -0.00470233  -0.067028 -0.232937 -0.00499523  -0.0598106 -0.233262 -0.00495768  -0.0532193 -0.240832 -0.00504863  -0.0604072 -0.240497 -0.00508535  -0.053782 -0.248092 -0.00517845  -0.0602698 -0.240545 -0.00500047  -0.0608459 -0.24779 -0.00514007  -0.0675004 -0.240208 -0.0050261  -0.0676384 -0.240159 -0.00511909  -0.0530827 -0.240883 -0.00497949  -0.068233 -0.247396 -0.00524032  -0.0609846 -0.247743 -0.00521135  -0.054328 -0.255363 -0.0053122  -0.0615463 -0.255007 -0.0053432  -0.0548608 -0.262647 -0.0054493  -0.0614064 -0.255051 -0.00527918  -0.0619497 -0.262321 -0.00542009  -0.0686612 -0.254691 -0.00529695  -0.0688019 -0.254645 -0.00537121  -0.0541909 -0.255408 -0.00526059  -0.0693567 -0.261908 -0.00549972  -0.0620909 -0.262278 -0.00547528  -0.0553803 -0.269935 -0.00558794  -0.0626192 -0.269561 -0.00561011  -0.0558889 -0.27723 -0.00572836  -0.0624778 -0.269598 -0.00556159  -0.0629895 -0.276884 -0.00570595  -0.0697467 -0.26922 -0.00557756  -0.0698929 -0.269179 -0.00563252  -0.0552382 -0.269975 -0.00554967  -0.0704107 -0.27646 -0.00576448  -0.0631325 -0.276846 -0.00574565  -0.0563846 -0.284526 -0.00586903  -0.0636346 -0.284138 -0.00588715  -0.0568674 -0.291824 -0.0060128  -0.063489 -0.28417 -0.00585151  -0.0639753 -0.291462 -0.00599861  -0.0707648 -0.283775 -0.00586295  -0.0709121 -0.283741 -0.00590122  -0.0562377 -0.28456 -0.00584173  -0.0714011 -0.291027 -0.00604057  -0.0641208 -0.291428 -0.00602674  -0.0573418 -0.29912 -0.00615823  -0.0645981 -0.298721 -0.0061698  -0.0578067 -0.306413 -0.00630331  -0.06445 -0.29875 -0.00614583  -0.0649154 -0.306037 -0.0062964  -0.0717256 -0.298342 -0.00615585  -0.0718727 -0.298312 -0.00618005  -0.0571942 -0.29915 -0.00613964  -0.0723395 -0.305596 -0.00632179  -0.0650606 -0.306007 -0.0063144  -0.0582635 -0.3137 -0.00644982  -0.0655184 -0.313291 -0.00645947  -0.0587115 -0.320983 -0.00660002  -0.0653701 -0.313319 -0.00644588  -0.0658152 -0.3206 -0.00659657  -0.0726378 -0.312903 -0.0064528  -0.0727894 -0.312876 -0.00646579  -0.0581136 -0.313729 -0.00643957  -0.0732329 -0.320153 -0.00661278  -0.0659647 -0.32057 -0.00660801  -0.0591519 -0.328259 -0.00674915  -0.0664055 -0.327845 -0.00675642  -0.0595903 -0.335525 -0.006899  -0.0662563 -0.327869 -0.00675058  -0.06669 -0.335136 -0.00690079  -0.0735164 -0.327448 -0.00675488  -0.0736649 -0.327423 -0.00676048  -0.0590055 -0.328285 -0.00674284  -0.0740964 -0.334689 -0.00691092  -0.066838 -0.335111 -0.00690663  -0.0600226 -0.342784 -0.00705135  -0.0672686 -0.342369 -0.00705731  -0.0604503 -0.350036 -0.00720394  -0.0671182 -0.342392 -0.00705421  -0.0675447 -0.349644 -0.00720704  -0.0743709 -0.341969 -0.00705779  -0.0745208 -0.341945 -0.00706148  -0.0598733 -0.342809 -0.00704885  -0.0749414 -0.349198 -0.00721216  -0.067693 -0.349618 -0.0072068  -0.0608745 -0.357276 -0.00735235  -0.0681171 -0.356861 -0.00735795  -0.0613005 -0.364513 -0.00750208  -0.0679691 -0.356886 -0.00735784  -0.0683894 -0.364129 -0.00750947  -0.0752134 -0.356466 -0.00736248  -0.0753629 -0.35644 -0.00736392  -0.0607278 -0.357302 -0.00735497  -0.0757823 -0.363684 -0.00750887  -0.0685375 -0.3641 -0.00750506  -0.000310116 -0.00056988 -0.000457406  -0.00035518 -0.00090979 -0.000570297  -0.00103901 -0.0015806 -0.000829577  -0.000361182 -0.000939637 -0.00037086  -0.00128862 -0.00232913 -0.000679016  0 0 0  0 0 0  -0.000315417 -0.000601098 -0.000292063  0 0 0  -0.0012399 -0.00220641 -0.00101781  -0.00199282 -0.00303558 -0.00116193  -0.00264889 -0.00382602 -0.00142169  -0.00314431 -0.00483611 -0.00141692  -0.00264183 -0.0039646 -0.000927567  -0.00414398 -0.00580977 -0.00115228  -0.00196432 -0.00317167 -0.000756025  -0.0041604 -0.0056131 -0.00173378  -0.00437409 -0.00680313 -0.00157845  -0.00571173 -0.00755605 -0.00192678  -0.00561562 -0.00903735 -0.00170529  -0.00566384 -0.00777739 -0.00129056  -0.00721765 -0.0099967 -0.00141537  -0.00431907 -0.00701123 -0.00106561  -0.00727242 -0.00974447 -0.00207591  -0.00684419 -0.0115016 -0.00177372  -0.00877473 -0.0121462 -0.00215244  -0.00803697 -0.0142015 -0.00182223  -0.00871283 -0.0124131 -0.00148249  -0.0101931 -0.0150823 -0.00154006  -0.00678197 -0.011754 -0.00123346  -0.0102519 -0.0148058 -0.00220466  -0.00919873 -0.0171562 -0.00185013  -0.011679 -0.0177047 -0.00222802  -0.0103243 -0.0203381 -0.00186837  -0.0116223 -0.0179868 -0.00157261  -0.0130176 -0.0211322 -0.0016017  -0.00914496 -0.0174263 -0.00132394  -0.0130693 -0.0208506 -0.00223994  -0.011421 -0.0237636 -0.00188255  -0.014418 -0.0242336 -0.00224364  -0.0124887 -0.0274081 -0.00189364  -0.0143716 -0.0245132 -0.00162506  -0.0156876 -0.0281181 -0.00164735  -0.0113775 -0.0240373 -0.00138688  -0.0157295 -0.0278424 -0.0022428  -0.0135306 -0.0312783 -0.00190938  -0.0170087 -0.0316771 -0.00224626  -0.0145504 -0.0353541 -0.00192738  -0.0169681 -0.0319459 -0.00167251  -0.0182124 -0.0359812 -0.00169981  -0.0134919 -0.0315446 -0.0014509  -0.0182514 -0.0357183 -0.00224936  -0.0155457 -0.0396368 -0.00195217  -0.0194656 -0.0399705 -0.00226152  -0.0165221 -0.044112 -0.00197816  -0.0194252 -0.0402246 -0.00173342  -0.0206051 -0.0446582 -0.00176907  -0.0155065 -0.0398905 -0.00153077  -0.0206451 -0.0444101 -0.00227356  -0.0174762 -0.0487747 -0.00201368  -0.0217986 -0.0490452 -0.00229692  -0.0184116 -0.0536166 -0.00205076  -0.0217557 -0.0492819 -0.00181437  -0.0228764 -0.0540839 -0.00186086  -0.0174332 -0.0490136 -0.00162828  -0.0229218 -0.0538529 -0.002321  -0.0193292 -0.058629 -0.00209713  -0.0240192 -0.058839 -0.00235569  -0.0202289 -0.0638026 -0.00214601  -0.023971 -0.0590581 -0.00191712  -0.0250373 -0.0641945 -0.00197339  -0.019279 -0.0588497 -0.00174546  -0.0250877 -0.0639815 -0.00239122  -0.0211114 -0.0691349 -0.00220478  -0.026135 -0.0692864 -0.00243843  -0.0219767 -0.0746138 -0.00226331  -0.0260791 -0.0694884 -0.00203884  -0.0270948 -0.0749294 -0.0021081  -0.0210532 -0.0693407 -0.00188553  -0.0271529 -0.0747344 -0.00248599  -0.0228239 -0.0802357 -0.00233078  -0.0281512 -0.0803302 -0.00254321  -0.0236578 -0.0859892 -0.0024004  -0.0280877 -0.0805154 -0.00218201  -0.029056 -0.0862342 -0.00225985  -0.022759 -0.080423 -0.00204337  -0.029122 -0.0860549 -0.00260222  -0.0244743 -0.0918716 -0.00247693  -0.0300732 -0.0919125 -0.00266778  -0.0252753 -0.0978729 -0.00255466  -0.0300019 -0.0920824 -0.00234354  -0.0309237 -0.0980487 -0.00242949  -0.0244 -0.0920425 -0.00221884  -0.0309989 -0.097885 -0.00273526  -0.0260601 -0.103988 -0.00263989  -0.0319064 -0.103979 -0.00281191  -0.0268332 -0.110212 -0.00272691  -0.0318267 -0.104132 -0.00252032  -0.0327064 -0.110325 -0.00261474  -0.0259798 -0.104147 -0.00240803  -0.0327896 -0.110176 -0.00288999  -0.0275903 -0.116536 -0.00282025  -0.0336534 -0.116478 -0.0029726  -0.0283334 -0.122954 -0.00291538  -0.0335656 -0.116619 -0.00271392  -0.034405 -0.123008 -0.00281549  -0.0275003 -0.116679 -0.00261343  -0.0344952 -0.122872 -0.00305915  -0.0290601 -0.129463 -0.00301516  -0.0353184 -0.12936 -0.0031513  -0.0297748 -0.136054 -0.00311625  -0.0352265 -0.129487 -0.00292122  -0.0360235 -0.136051 -0.00302982  -0.0289648 -0.129592 -0.00283337  -0.0361214 -0.135928 -0.00324345  -0.0304747 -0.142723 -0.00322223  -0.036907 -0.14258 -0.00334382  -0.0311635 -0.149465 -0.00333142  -0.0368049 -0.142694 -0.00314081  -0.0375664 -0.14941 -0.00325656  -0.0303712 -0.142839 -0.0030632  -0.0376709 -0.149301 -0.00344479  -0.0318363 -0.156272 -0.00344443  -0.0384181 -0.15609 -0.00354874  -0.0324974 -0.163143 -0.00355744  -0.0383105 -0.156194 -0.00337362  -0.0390344 -0.16304 -0.003492  -0.0317261 -0.156378 -0.0033046  -0.0391459 -0.162941 -0.003654  -0.0331435 -0.170071 -0.00367582  -0.0398567 -0.169854 -0.00376773  -0.0337811 -0.177051 -0.0037967  -0.0397425 -0.169945 -0.00361514  -0.040432 -0.176903 -0.00373995  -0.0330303 -0.170165 -0.00355589  -0.0405483 -0.176816 -0.00388145  -0.0344009 -0.184077 -0.00391793  -0.0412238 -0.183829 -0.0039959  -0.0350122 -0.191148 -0.00404143  -0.0411072 -0.183912 -0.00386715  -0.0417638 -0.190964 -0.00399578  -0.034281 -0.184161 -0.00381696  -0.0418837 -0.190881 -0.00411463  -0.0356097 -0.198256 -0.0041703  -0.042527 -0.197978 -0.00423682  -0.0361969 -0.205402 -0.0043  -0.0424037 -0.198052 -0.00412965  -0.0430286 -0.205181 -0.00426006  -0.0354836 -0.198333 -0.00408483  -0.043155 -0.205111 -0.00436163  -0.0367703 -0.212578 -0.00443137  -0.043767 -0.212275 -0.00448775  -0.0373363 -0.219781 -0.00456464  -0.0436394 -0.212339 -0.0043968  -0.0442336 -0.219528 -0.00453401  -0.0366402 -0.212644 -0.00436127  -0.0443654 -0.219465 -0.00461614  -0.0378873 -0.227007 -0.00469935  -0.0449481 -0.226682 -0.0047456  -0.0384302 -0.234254 -0.00483608  -0.0448146 -0.226738 -0.00467122  -0.0453825 -0.233973 -0.00481296  -0.0377533 -0.227065 -0.00464261  -0.0455177 -0.233917 -0.00487816  -0.0389628 -0.241518 -0.00497532  -0.0460722 -0.241173 -0.00501287  -0.039485 -0.248797 -0.00511527  -0.0459366 -0.241224 -0.00495493  -0.0464778 -0.248491 -0.00509655  -0.0388241 -0.241571 -0.00493014  -0.0466149 -0.24844 -0.00514758  -0.0399966 -0.256085 -0.00525808  -0.0471473 -0.255723 -0.00528681  -0.0405002 -0.263383 -0.00540149  -0.0470066 -0.255768 -0.00524187  -0.0475249 -0.263058 -0.00538719  -0.0398538 -0.25613 -0.00522196  -0.0476658 -0.263014 -0.005427  -0.0409949 -0.270686 -0.00554526  -0.0481746 -0.270311 -0.0055666  -0.0414796 -0.277994 -0.00569093  -0.048033 -0.270349 -0.00553131  -0.0485284 -0.277651 -0.00567985  -0.0408494 -0.270726 -0.00551975  -0.0486724 -0.277609 -0.00570989  -0.0419583 -0.285302 -0.00583875  -0.0491586 -0.284914 -0.00585449  -0.0424294 -0.292609 -0.00598681  -0.049016 -0.284949 -0.00583053  -0.0494933 -0.292252 -0.00598025  -0.0418124 -0.285338 -0.00582039  -0.0496376 -0.292217 -0.00600016  -0.0428908 -0.299914 -0.00613415  -0.050108 -0.299518 -0.00614691  -0.0433507 -0.307217 -0.00628424  -0.0499609 -0.299549 -0.0061295  -0.0504224 -0.306847 -0.00628066  -0.0427454 -0.299948 -0.00612354  -0.0505688 -0.306815 -0.00629556  -0.0438008 -0.31451 -0.00643551  -0.0510256 -0.314106 -0.00644398  -0.0442469 -0.3218 -0.00658786  -0.0508776 -0.314136 -0.00643384  -0.0513248 -0.321422 -0.00658643  -0.0436504 -0.314541 -0.00642765  -0.0514746 -0.321392 -0.00659418  -0.0446868 -0.329078 -0.00673926  -0.0519164 -0.328671 -0.00674427  -0.0451233 -0.336353 -0.00688982  -0.0517673 -0.328696 -0.00674009  -0.0522037 -0.335968 -0.00689256  -0.0445371 -0.329107 -0.0067364  -0.0523522 -0.335939 -0.00689673  -0.0455546 -0.34361 -0.00704086  -0.0527835 -0.343199 -0.00704837  -0.0459831 -0.350864 -0.00719547  -0.052635 -0.343223 -0.00704587  -0.0530641 -0.350479 -0.00719821  -0.045404 -0.343638 -0.00704217  -0.0532119 -0.35045 -0.00719869  -0.0464096 -0.358102 -0.00734794  -0.0536404 -0.357692 -0.00734913  -0.0468361 -0.365336 -0.00749922  -0.0534914 -0.357718 -0.00734997  -0.0539148 -0.364956 -0.0075053  -0.0462587 -0.358131 -0.00735033  -0.0540664 -0.364927 -0.00750208  -0.000144247 -0.000192076 -0.000231028  -0.000189435 -0.00034529 -0.000350237  -0.000473849 -0.000901908 -0.000425339  -0.000196408 -0.00037995 -0.000225186  -0.00067047 -0.00122863 -0.000417233  0 0 0  0 0 0  -0.000148457 -0.000227511 -0.000144482  0 0 0  -0.000631012 -0.0011414 -0.000629902  -0.000898972 -0.00219086 -0.000610828  -0.00136925 -0.00254977 -0.000887752  -0.00144809 -0.00386283 -0.000757337  -0.00134943 -0.00266346 -0.000568867  -0.0021732 -0.00440735 -0.000735044  -0.000884682 -0.00230691 -0.000396729  -0.00217861 -0.00424293 -0.00109148  -0.00203744 -0.00584802 -0.000853896  -0.00312468 -0.00624269 -0.00121963  -0.00265843 -0.00812754 -0.000939131  -0.00308305 -0.00642884 -0.000821352  -0.00401646 -0.00871861 -0.000920296  -0.00200573 -0.00602955 -0.000588775  -0.00406009 -0.00849667 -0.00132692  -0.00328007 -0.0106594 -0.00099206  -0.00499567 -0.0110008 -0.00138533  -0.00389665 -0.0134364 -0.00103855  -0.00494614 -0.0112382 -0.000973225  -0.00586182 -0.0140038 -0.00102735  -0.00323775 -0.0108886 -0.000716567  -0.00591147 -0.013749 -0.00143373  -0.00450093 -0.0164589 -0.00107646  -0.00679779 -0.0167365 -0.0014658  -0.00509721 -0.0197096 -0.0011121  -0.00675023 -0.0169997 -0.00106716  -0.00762135 -0.0202297 -0.00110435  -0.00446051 -0.0167165 -0.000810504  -0.0076645 -0.0199602 -0.00149167  -0.00568187 -0.0231946 -0.00114977  -0.00850701 -0.0234167 -0.00151801  -0.00625968 -0.0268978 -0.00118685  -0.0084663 -0.0236859 -0.00114393  -0.00929332 -0.0273644 -0.00118113  -0.00564283 -0.0234616 -0.000899553  -0.00933367 -0.0270949 -0.00154269  -0.00683051 -0.0308198 -0.00123024  -0.0101413 -0.0309924 -0.00157177  -0.00739777 -0.0349488 -0.0012753  -0.0101023 -0.0312563 -0.00122547  -0.0108956 -0.0353604 -0.00126946  -0.0067898 -0.031085 -0.000998378  -0.0109358 -0.0350987 -0.00160289  -0.00795895 -0.0392796 -0.00132608  -0.0117168 -0.0394079 -0.00164139  -0.00852007 -0.0438051 -0.00138021  -0.0116758 -0.0396615 -0.00132382  -0.0124429 -0.0441582 -0.00137591  -0.00791448 -0.0395348 -0.00111365  -0.0124846 -0.043909 -0.00168002  -0.00907624 -0.0485146 -0.00144207  -0.0132433 -0.0485989 -0.00172925  -0.00963283 -0.0534046 -0.00150537  -0.0131966 -0.0488386 -0.00143945  -0.0139394 -0.0536988 -0.00150287  -0.00902593 -0.0487567 -0.00124824  -0.0139892 -0.0534654 -0.00177944  -0.010186 -0.0584626 -0.00157869  -0.0147271 -0.0585046 -0.00183856  -0.0107392 -0.0636857 -0.00165093  -0.0146731 -0.0587272 -0.00157475  -0.0153946 -0.0639211 -0.00164771  -0.0101272 -0.0586882 -0.00140131  -0.0154523 -0.0637044 -0.00189984  -0.0112892 -0.0690614 -0.00173175  -0.01617 -0.0690611 -0.0019697  -0.0118387 -0.0745863 -0.00181317  -0.0161091 -0.0692667 -0.00172901  -0.0168117 -0.0747632 -0.00181305  -0.011223 -0.0692702 -0.00157189  -0.0168774 -0.0745633 -0.00203884  -0.0123856 -0.0802508 -0.00190175  -0.0175772 -0.0802083 -0.00211811  -0.0129337 -0.0860494 -0.00199234  -0.0175083 -0.080398 -0.00190246  -0.0181935 -0.0861697 -0.00199246  -0.0123118 -0.0804422 -0.00176001  -0.018266 -0.0859847 -0.00219727  -0.0134771 -0.091972 -0.00209117  -0.018949 -0.0918915 -0.00228524  -0.0140212 -0.0980162 -0.00218892  -0.0188713 -0.0920636 -0.00208962  -0.0195407 -0.098083 -0.00218999  -0.0133946 -0.0921484 -0.00196254  -0.0196215 -0.0979144 -0.00237358  -0.0145625 -0.10417 -0.00229323  -0.0202872 -0.104053 -0.0024693  -0.0151038 -0.110434 -0.00239921  -0.0202018 -0.104212 -0.00229347  -0.0208552 -0.11045 -0.00240016  -0.0144728 -0.104332 -0.00217831  -0.0209427 -0.110296 -0.00256455  -0.0156412 -0.116795 -0.00250983  -0.0215927 -0.116642 -0.00266647  -0.0161777 -0.123252 -0.00262308  -0.0214999 -0.116786 -0.0025121  -0.0221355 -0.123219 -0.00262439  -0.0155442 -0.116942 -0.00240898  -0.0222327 -0.12308 -0.00276971  -0.0167115 -0.129795 -0.00274003  -0.0228645 -0.129607 -0.00287855  -0.0172429 -0.136421 -0.00285721  -0.0227652 -0.129737 -0.00274241  -0.0233846 -0.136343 -0.00285959  -0.0166074 -0.129927 -0.00265002  -0.0234885 -0.136218 -0.00298917  -0.0177708 -0.143122 -0.00298178  -0.0241029 -0.142904 -0.00310242  -0.0182984 -0.149897 -0.00310373  -0.0239978 -0.143021 -0.00298309  -0.0246022 -0.149777 -0.00310791  -0.0176625 -0.143241 -0.00290227  -0.0247092 -0.149663 -0.00321829  -0.0188208 -0.156734 -0.00323188  -0.0253103 -0.156488 -0.00334013  -0.0193417 -0.163634 -0.00336123  -0.0251975 -0.156592 -0.00323355  -0.0257859 -0.163476 -0.00336313  -0.0187061 -0.15684 -0.00316346  -0.0259004 -0.163374 -0.003461  -0.0198574 -0.170589 -0.00349271  -0.0264828 -0.170316 -0.00358701  -0.0203717 -0.177594 -0.00362492  -0.0263665 -0.17041 -0.00349343  -0.026937 -0.177402 -0.00362897  -0.019737 -0.170684 -0.00343418  -0.0270588 -0.17731 -0.0037117  -0.0208809 -0.184646 -0.00376153  -0.0276258 -0.184351 -0.00384128  -0.0213881 -0.19174 -0.00389802  -0.0275013 -0.184434 -0.00376439  -0.02806 -0.191516 -0.00390005  -0.0207565 -0.184734 -0.00371218  -0.0281842 -0.191435 -0.00397229  -0.0218904 -0.198871 -0.00403762  -0.0287371 -0.198556 -0.00410545  -0.0223885 -0.206037 -0.00417709  -0.0286078 -0.19863 -0.00403953  -0.0291486 -0.205784 -0.00418103  -0.0217588 -0.198949 -0.00399637  -0.029278 -0.20571 -0.00423944  -0.0228829 -0.213233 -0.00432026  -0.0298135 -0.212898 -0.00437713  -0.0233755 -0.220455 -0.00446391  -0.0296819 -0.212963 -0.00432348  -0.0302088 -0.220176 -0.00446832  -0.0227499 -0.2133 -0.00428736  -0.0303426 -0.220111 -0.00451517  -0.0238609 -0.227697 -0.00460899  -0.0308633 -0.227347 -0.004655  -0.0243433 -0.234962 -0.00475442  -0.0307269 -0.227405 -0.00461245  -0.0312383 -0.234659 -0.00475812  -0.0237236 -0.227758 -0.00458193  -0.0313752 -0.234602 -0.00479555  -0.0248215 -0.242238 -0.00490212  -0.0318813 -0.241875 -0.00494015  -0.0252962 -0.249531 -0.00504911  -0.0317419 -0.241925 -0.00490534  -0.0322392 -0.24921 -0.00505197  -0.0246804 -0.242292 -0.00488055  -0.0323806 -0.249159 -0.00508475  -0.0257666 -0.256831 -0.00519896  -0.0328729 -0.256455 -0.00522912  -0.0262332 -0.264141 -0.00534844  -0.0327303 -0.2565 -0.00520205  -0.0332146 -0.263805 -0.0053525  -0.0256221 -0.256879 -0.00518358  -0.0333552 -0.26376 -0.00537539  -0.0266953 -0.271454 -0.00550032  -0.0338368 -0.271068 -0.00552368  -0.0271528 -0.278773 -0.00565147  -0.0336914 -0.271109 -0.00550425  -0.0341642 -0.278421 -0.00565648  -0.0265474 -0.271496 -0.00548816  -0.0343087 -0.278382 -0.00567198  -0.0276072 -0.286089 -0.00580299  -0.0347764 -0.285694 -0.0058223  -0.0280583 -0.293405 -0.00595725  -0.0346296 -0.285729 -0.00580823  -0.0350902 -0.293042 -0.00596082  -0.027458 -0.286126 -0.00579667  -0.0352376 -0.293006 -0.00597298  -0.0285039 -0.300715 -0.00610995  -0.0356946 -0.300314 -0.00612342  -0.028949 -0.308024 -0.00626349  -0.0355465 -0.300345 -0.00611365  -0.0359972 -0.307653 -0.00626838  -0.0283554 -0.300748 -0.0061053  -0.0361452 -0.307618 -0.0062747  -0.0293884 -0.315323 -0.00641918  -0.0365906 -0.314917 -0.00642693  -0.0298257 -0.322618 -0.00657177  -0.0364411 -0.314945 -0.00642097  -0.0368822 -0.322239 -0.00657463  -0.0292375 -0.315354 -0.00641513  -0.0370312 -0.322209 -0.00657988  -0.0302587 -0.329899 -0.00672591  -0.0374684 -0.32949 -0.00673389  -0.0306909 -0.337175 -0.00688124  -0.0373194 -0.329516 -0.00672996  -0.0377519 -0.336792 -0.00688422  -0.0301077 -0.329928 -0.00672746  -0.0379035 -0.336763 -0.00688672  -0.0311184 -0.344438 -0.00703645  -0.0383329 -0.344025 -0.00703871  -0.0315423 -0.351692 -0.00718999  -0.0381835 -0.344051 -0.00703895  -0.0386097 -0.351305 -0.00719321  -0.0309653 -0.344464 -0.00703704  -0.0387599 -0.351278 -0.0071938  -0.0319667 -0.358929 -0.00734365  -0.039187 -0.358516 -0.00734735  -0.0323908 -0.366155 -0.00749695  -0.0390346 -0.35854 -0.0073477  -0.039458 -0.365774 -0.00750148  -0.0318148 -0.358955 -0.00734544  -0.0396128 -0.365745 -0.00750065  -7.03707e-06 -8.9854e-05 5.48363e-06  -5.40279e-05 -0.000119627 -0.000115991  -1.82539e-05 -0.000739455 -2.6226e-06  -5.89602e-05 -0.000154793 -7.08103e-05  -0.000201985 -0.000825018 -0.000146151  0 0 0  0 0 0  -9.84594e-06 -0.00012821 9.53674e-06  0 0 0  -0.000167221 -0.000752956 -0.000216126  8.62777e-06 -0.00198859 -3.3021e-05  -0.000404552 -0.00204131 -0.000317574  1.43349e-05 -0.00360453 -6.41346e-05  -0.000396356 -0.00214347 -0.000199556  -0.000647783 -0.00378519 -0.000289917  7.40588e-06 -0.0020968 -2.16961e-05  -0.000636116 -0.00364155 -0.000411153  3.11434e-05 -0.00560883 -9.88245e-05  -0.00095737 -0.00565344 -0.000474691  3.00109e-05 -0.00789148 -0.00014174  -0.000939399 -0.00582343 -0.000331163  -0.00124717 -0.0081296 -0.000399351  3.52859e-05 -0.00577888 -9.04799e-05  -0.00126684 -0.00792623 -0.000540495  1.81794e-05 -0.0104599 -0.00018537  -0.00159603 -0.0104809 -0.000587821  -6.3777e-06 -0.0132684 -0.000233889  -0.00156727 -0.0107039 -0.000444055  -0.00189012 -0.013523 -0.000495076  3.38256e-05 -0.0106806 -0.000178218  -0.00192279 -0.0132792 -0.000637412  -4.39286e-05 -0.0163277 -0.000286818  -0.00224745 -0.0163214 -0.00068295  -9.50694e-05 -0.0196117 -0.000343084  -0.00221479 -0.0165749 -0.000545502  -0.00253928 -0.0198592 -0.000593781  -1.8239e-05 -0.01658 -0.000280976  -0.00257576 -0.019596 -0.000728965  -0.000160694 -0.0231301 -0.000406265  -0.00290138 -0.0230982 -0.000779152  -0.000240147 -0.0268664 -0.000468373  -0.00286537 -0.0233636 -0.000650644  -0.0031932 -0.0270913 -0.000704646  -0.000124931 -0.0233967 -0.000400901  -0.00323361 -0.026823 -0.000829697  -0.000334918 -0.030819 -0.000540733  -0.00356638 -0.030762 -0.000887513  -0.00044471 -0.0349801 -0.000613213  -0.00352484 -0.031026 -0.000768423  -0.00386107 -0.0351738 -0.00083065  -0.000290215 -0.0310855 -0.000537157  -0.00390595 -0.0349101 -0.000945926  -0.000569522 -0.0393398 -0.000693202  -0.00424999 -0.0392574 -0.00101185  -0.000711501 -0.0438967 -0.000774503  -0.00420278 -0.0395142 -0.000903487  -0.00454932 -0.0440527 -0.000974178  -0.000517547 -0.0395986 -0.000690341  -0.0046013 -0.0438014 -0.00107908  -0.000867128 -0.0486362 -0.000863433  -0.00495851 -0.048529 -0.0011543  -0.00103986 -0.053557 -0.000952721  -0.00490415 -0.0487706 -0.00105548  -0.00526297 -0.0536717 -0.0011363  -0.000806928 -0.048881 -0.000861168  -0.00532198 -0.0534358 -0.00123048  -0.00122571 -0.0586447 -0.0010494  -0.00569272 -0.0585109 -0.00131476  -0.00142729 -0.0638967 -0.00114679  -0.00562918 -0.0587367 -0.00122547  -0.00600243 -0.0639709 -0.001315  -0.00115657 -0.0588733 -0.00104821  -0.0060693 -0.0637493 -0.00139976  -0.00164187 -0.0693032 -0.00125051  -0.00645399 -0.0691436 -0.00149322  -0.00187349 -0.0748591 -0.00135636  -0.00638282 -0.0693521 -0.00141215  -0.0067687 -0.0748886 -0.00150907  -0.00156426 -0.0695159 -0.00125074  -0.00684345 -0.0746845 -0.0015862  -0.00211561 -0.0805509 -0.00146747  -0.00724101 -0.0803652 -0.00168681  -0.0023731 -0.0863798 -0.00158024  -0.00716114 -0.0805576 -0.00161397  -0.00755787 -0.0863674 -0.00172055  -0.00203085 -0.0807469 -0.0014689  -0.00764143 -0.0861796 -0.00178826  -0.0026418 -0.0923302 -0.0016973  -0.00804782 -0.092119 -0.00189519  -0.00292397 -0.0984029 -0.00181711  -0.00796127 -0.092296 -0.00182974  -0.00837111 -0.0983508 -0.00194335  -0.00254774 -0.0925103 -0.00169957  -0.00846148 -0.0981779 -0.00200462  -0.00321555 -0.104584 -0.00194073  -0.00887966 -0.104349 -0.00211942  -0.00352013 -0.110874 -0.0020653  -0.00878596 -0.104509 -0.00206077  -0.00920427 -0.110782 -0.00218034  -0.00311661 -0.104749 -0.00194252  -0.00930238 -0.110625 -0.00223291  -0.0038352 -0.11726 -0.0021956  -0.00973022 -0.117002 -0.00235426  -0.00416076 -0.123743 -0.0023247  -0.00962734 -0.117147 -0.00230372  -0.0100546 -0.123614 -0.00242794  -0.00372791 -0.11741 -0.00219703  -0.0101589 -0.123472 -0.0024761  -0.00449562 -0.130309 -0.00245988  -0.0105953 -0.13003 -0.00260043  -0.00484002 -0.136958 -0.00259387  -0.0104865 -0.130161 -0.00255644  -0.0109224 -0.136797 -0.0026859  -0.00438309 -0.130444 -0.0024631  -0.011032 -0.136666 -0.00272632  -0.00519276 -0.143681 -0.00273204  -0.0114741 -0.143381 -0.00285769  -0.00555253 -0.150476 -0.00287235  -0.0113604 -0.1435 -0.00281882  -0.0118008 -0.150283 -0.00295293  -0.00507355 -0.143803 -0.00273681  -0.0119183 -0.150167 -0.00298858  -0.00592041 -0.157336 -0.00301456  -0.0123637 -0.157016 -0.00312448  -0.00629592 -0.164254 -0.00315785  -0.0122452 -0.157125 -0.00309169  -0.0126896 -0.164032 -0.00322866  -0.00579596 -0.157445 -0.00301874  -0.0128121 -0.163927 -0.00326061  -0.00667715 -0.171224 -0.00330544  -0.013262 -0.170891 -0.00339961  -0.00706553 -0.17825 -0.00345039  -0.0131366 -0.170989 -0.00336993  -0.0135868 -0.178003 -0.00351357  -0.00654912 -0.171325 -0.0033077  -0.0137115 -0.177907 -0.00353813  -0.00745869 -0.185316 -0.00359845  -0.0141652 -0.184968 -0.00368202  -0.00785756 -0.192429 -0.00374925  -0.0140362 -0.185055 -0.00365698  -0.0144858 -0.192156 -0.0038029  -0.00732493 -0.185405 -0.00360394  -0.014616 -0.192072 -0.003824  -0.00825906 -0.199574 -0.00389946  -0.0150695 -0.199211 -0.003968  -0.00866508 -0.206754 -0.00405049  -0.0149376 -0.199287 -0.00394833  -0.0153878 -0.206461 -0.00409734  -0.00812221 -0.199652 -0.00390446  -0.0155218 -0.206384 -0.00411451  -0.00907683 -0.21396 -0.00420618  -0.015976 -0.213586 -0.00426471  -0.00949025 -0.221194 -0.00435877  -0.015837 -0.213655 -0.00424826  -0.0162895 -0.220883 -0.00439763  -0.0089345 -0.214031 -0.00420773  -0.0164275 -0.220816 -0.00441253  -0.00990701 -0.228447 -0.00451243  -0.0168796 -0.228066 -0.00456214  -0.0103271 -0.235723 -0.00466859  -0.016741 -0.228124 -0.00454843  -0.0171902 -0.235392 -0.00470042  -0.00976229 -0.22851 -0.00451708  -0.0173311 -0.235335 -0.00471282  -0.0107472 -0.243008 -0.00482583  -0.0177808 -0.242617 -0.00486422  -0.0111682 -0.250309 -0.00498021  -0.017637 -0.242671 -0.00485516  -0.018085 -0.249967 -0.0050081  -0.0106001 -0.243064 -0.00482774  -0.0182285 -0.249914 -0.00501549  -0.0115926 -0.257617 -0.00513899  -0.0186768 -0.25722 -0.00516963  -0.0120187 -0.264936 -0.00529504  -0.0185323 -0.257266 -0.00516212  -0.0189772 -0.26458 -0.00531638  -0.0114446 -0.257666 -0.00514102  -0.0191233 -0.264534 -0.00532389  -0.0124433 -0.272255 -0.00545239  -0.0195673 -0.271851 -0.00547695  -0.0128706 -0.279578 -0.00560939  -0.0194182 -0.271891 -0.00547099  -0.0198591 -0.279213 -0.00562751  -0.0122941 -0.272297 -0.00545514  -0.0200081 -0.279172 -0.00563109  -0.0132976 -0.286899 -0.00577044  -0.0204496 -0.286491 -0.00578797  -0.013726 -0.294219 -0.00592697  -0.0203013 -0.286526 -0.00578332  -0.0207407 -0.293846 -0.00593889  -0.0131462 -0.286935 -0.00577223  -0.02089 -0.293809 -0.00594354  -0.014149 -0.301532 -0.00608432  -0.0213265 -0.301123 -0.00609887  -0.0145779 -0.308846 -0.00624311  -0.0211759 -0.301154 -0.00609529  -0.0216103 -0.308467 -0.00625205  -0.0139992 -0.301569 -0.00608778  -0.0217624 -0.308433 -0.006253  -0.0150032 -0.316146 -0.00640106  -0.0221949 -0.315734 -0.00640988  -0.0154288 -0.323444 -0.00655806  -0.0220459 -0.315765 -0.00640869  -0.022475 -0.32306 -0.00656354  -0.0148497 -0.316177 -0.00640106  -0.0226278 -0.32303 -0.00656688  -0.0158544 -0.330728 -0.00671482  -0.0230563 -0.330313 -0.00672102  -0.0162785 -0.338006 -0.0068717  -0.0229032 -0.33034 -0.00672305  -0.0233297 -0.33762 -0.00687647  -0.0156996 -0.330757 -0.00671697  -0.0234818 -0.337588 -0.0068779  -0.0166974 -0.345269 -0.00702846  -0.0239084 -0.344853 -0.00703382  -0.0171213 -0.352522 -0.00718606  -0.0237532 -0.344878 -0.00703287  -0.0241771 -0.352135 -0.00718915  -0.0165446 -0.345296 -0.00703156  -0.0243323 -0.352107 -0.00719023  -0.0175409 -0.359759 -0.00734353  -0.0247536 -0.359344 -0.00734365  -0.0179586 -0.366984 -0.00749767  -0.0246003 -0.359368 -0.00734365  -0.0250218 -0.366599 -0.00749803  -0.0173845 -0.359785 -0.00734389  -0.0251729 -0.366569 -0.00750089  0.000126414 -0.000216663 0.000241756  7.51466e-05 -0.000133276 0.000123262  0.000429615 -0.000983179 0.000420213  7.18907e-05 -0.000172377 8.76188e-05  0.000235245 -0.000868559 0.000131726  0 0 0  0 0 0  0.000126548 -0.000263035 0.000164866  0 0 0  0.000268623 -0.000797212 0.000209212  0.000913724 -0.00233603 0.000546932  0.000487655 -0.00210428 0.000267863  0.00148079 -0.00398296 0.000630617  0.000479713 -0.00220978 0.000179529  0.000764728 -0.00384933 0.000169277  0.00089705 -0.00244904 0.00035584  0.000792801 -0.00370854 0.000287294  0.00209227 -0.00603342 0.000657439  0.0010775 -0.0057444 0.000288248  0.00270891 -0.00831461 0.000655413  0.00106949 -0.00591624 0.000169396  0.00137398 -0.0082258 0.000133634  0.00206789 -0.00620949 0.000409603  0.00138149 -0.00802296 0.00026083  0.00330064 -0.0108947 0.000622392  0.00166336 -0.0105994 0.000222445  0.00386637 -0.013702 0.000573039  0.00166643 -0.0108224 9.7394e-05  0.001939 -0.0136594 4.58956e-05  0.00328952 -0.0111218 0.0003618  0.00192773 -0.0134128 0.000171185  0.00439435 -0.016764 0.000504017  0.00217235 -0.0164741 0.000109911  0.00488448 -0.0200539 0.000428677  0.00218964 -0.0167282 -1.26362e-05  0.00241494 -0.0200345 -7.48634e-05  0.00440389 -0.0170219 0.000251293  0.00238758 -0.0197681 4.39882e-05  0.00533825 -0.0235754 0.000342965  0.00258327 -0.0232893 -3.23057e-05  0.00575495 -0.0273198 0.000252008  0.00261492 -0.0235557 -0.000148177  0.00278932 -0.0273064 -0.000219703  0.00536889 -0.0238462 0.000104427  0.00274944 -0.0270339 -0.000109076  0.00613528 -0.0312797 0.000152349  0.00289315 -0.0309914 -0.000195026  0.0064798 -0.0354518 5.31673e-05  0.00293821 -0.0312599 -0.000302196  0.00306153 -0.0354291 -0.000383615  0.00618237 -0.0315511 -6.80685e-05  0.00301117 -0.0351627 -0.00028193  0.00679034 -0.0398225 -5.3525e-05  0.00310338 -0.0395301 -0.000375509  0.00706625 -0.0443931 -0.000163436  0.0031594 -0.0397886 -0.00047493  0.00323212 -0.0443498 -0.000564933  0.00685126 -0.0400857 -0.000258803  0.00317192 -0.0440946 -0.0004704  0.0073117 -0.0491446 -0.000277638  0.00321567 -0.048843 -0.000571966  0.0075227 -0.0540799 -0.000393271  0.00328183 -0.0490877 -0.000664353  0.00330615 -0.0540133 -0.000763535  0.00738347 -0.0493932 -0.000466943  0.0032357 -0.053772 -0.000673532  0.00770414 -0.0591813 -0.000514865  0.00323236 -0.0588703 -0.000784874  0.00785208 -0.0644506 -0.000637412  0.00330698 -0.0590982 -0.000867844  0.00328636 -0.0643554 -0.000974774  0.00778377 -0.0594149 -0.000687957  0.00320673 -0.064132 -0.000892639  0.00797319 -0.0698695 -0.000763059  0.00315976 -0.0695463 -0.00100911  0.00806379 -0.0754405 -0.00089252  0.00324142 -0.0697588 -0.00108719  0.00317633 -0.0753183 -0.00120044  0.00806236 -0.0700855 -0.000923753  0.00308895 -0.0751107 -0.00112593  0.00812566 -0.081147 -0.00102711  0.00299788 -0.0808128 -0.00124836  0.00815773 -0.0869912 -0.0011605  0.00308871 -0.0810103 -0.00131977  0.0029825 -0.0868411 -0.00144064  0.00822353 -0.0813462 -0.00117123  0.00288796 -0.0866504 -0.00137162  0.00816643 -0.0929566 -0.0013001  0.00275671 -0.0926096 -0.00150073  0.00814736 -0.0990441 -0.0014379  0.00285554 -0.0927894 -0.00156641  0.00270927 -0.0988665 -0.00169158  0.0082711 -0.0931404 -0.00143206  0.00260711 -0.0986911 -0.00162983  0.00810504 -0.105239 -0.00158167  0.00243807 -0.104882 -0.00176203  0.00803769 -0.111545 -0.0017252  0.00254512 -0.105046 -0.00182164  0.00236285 -0.111339 -0.00195396  0.00821519 -0.105407 -0.00170159  0.00225258 -0.11118 -0.00189698  0.00794578 -0.117944 -0.00187445  0.00204968 -0.117574 -0.00203621  0.00783288 -0.124438 -0.0020225  0.00216258 -0.117723 -0.00208914  0.00194466 -0.12421 -0.00222707  0.0080632 -0.118096 -0.0019815  0.0018301 -0.124065 -0.00217485  0.00769866 -0.131017 -0.0021733  0.00159621 -0.130638 -0.00231683  0.00754166 -0.13768 -0.00232542  0.00171208 -0.130774 -0.00236607  0.00146532 -0.137428 -0.00250721  0.00781977 -0.131155 -0.00227022  0.00134635 -0.137295 -0.00246227  0.00736713 -0.144413 -0.0024823  0.00108314 -0.144026 -0.00260782  0.00717211 -0.151219 -0.00263655  0.00120497 -0.144148 -0.00265038  0.000929356 -0.150948 -0.00279593  0.00749445 -0.144538 -0.00256646  0.000805616 -0.150828 -0.00275517  0.00696063 -0.158086 -0.00279367  0.000515223 -0.157692 -0.00290549  0.00672984 -0.165016 -0.00295138  0.000642538 -0.157802 -0.00294447  0.0003438 -0.164725 -0.00309145  0.00709224 -0.1582 -0.00286961  0.000213861 -0.164616 -0.00305605  0.00648499 -0.171997 -0.00311196  -0.000101805 -0.171595 -0.00321102  0.00622487 -0.17903 -0.00327122  3.0756e-05 -0.171694 -0.00324368  -0.000288248 -0.178722 -0.00339341  0.00662231 -0.172098 -0.00317717  -0.000426292 -0.178624 -0.00336313  0.0059514 -0.186105 -0.00343525  -0.000758648 -0.185697 -0.00351751  0.0056603 -0.193223 -0.00359583  -0.000624657 -0.185785 -0.00354683  -0.000963211 -0.192898 -0.00370073  0.00609112 -0.186195 -0.00349092  -0.00110292 -0.192813 -0.00367403  0.00535941 -0.200374 -0.00375748  -0.00145292 -0.199963 -0.00383067  0.00504446 -0.207561 -0.0039227  -0.00131559 -0.200041 -0.00385535  -0.00167203 -0.207224 -0.00401115  0.00550413 -0.200456 -0.00380731  -0.00181389 -0.207147 -0.00398755  0.0047195 -0.214773 -0.00408876  -0.00218225 -0.214357 -0.00414741  0.00438309 -0.222013 -0.0042522  -0.00203872 -0.214426 -0.00416803  -0.00241232 -0.221662 -0.00432646  0.00486684 -0.214845 -0.00412846  -0.00255728 -0.221593 -0.0043056  0.00404024 -0.229269 -0.00441611  -0.00293803 -0.22885 -0.00446558  0.00368452 -0.236547 -0.00458038  -0.0027914 -0.228912 -0.00448275  -0.00317693 -0.236187 -0.00464118  0.00418806 -0.229333 -0.00445008  -0.00332499 -0.236126 -0.00462592  0.00332093 -0.243838 -0.00474477  -0.0037148 -0.243416 -0.00478601  0.00295019 -0.251142 -0.00491023  -0.00356793 -0.243469 -0.00480044  -0.00396156 -0.250774 -0.00495827  0.00347281 -0.243893 -0.00477457  -0.00411129 -0.250719 -0.00494552  0.00257492 -0.258451 -0.0050751  -0.00451183 -0.258029 -0.00510681  0.00219011 -0.265771 -0.00523937  -0.00436163 -0.258076 -0.00511742  -0.00476527 -0.265395 -0.00527811  0.00272775 -0.258501 -0.00509858  -0.00491691 -0.265347 -0.0052669  0.00180078 -0.273092 -0.005404  -0.00532532 -0.272671 -0.00542891  0.00140619 -0.280417 -0.00556839  -0.00517225 -0.272711 -0.00543749  -0.00558043 -0.280035 -0.00559771  0.00195479 -0.273135 -0.00542271  -0.00573492 -0.279996 -0.00559163  0.0010097 -0.287737 -0.00573158  -0.00614643 -0.287315 -0.00575137  0.000605583 -0.295059 -0.00589538  -0.00599408 -0.287351 -0.00575829  -0.00641108 -0.294672 -0.00591755  0.00116277 -0.287775 -0.00574481  -0.0065608 -0.294636 -0.00591099  0.000200272 -0.302373 -0.0060581  -0.00697732 -0.301952 -0.00607157  -0.000209093 -0.309687 -0.00622213  -0.00682497 -0.301984 -0.00607693  -0.00724125 -0.309297 -0.00623548  0.00035429 -0.302408 -0.00606716  -0.00739646 -0.309263 -0.00623071  -0.00061965 -0.316988 -0.00638175  -0.00781512 -0.316566 -0.00639212  -0.0010345 -0.324286 -0.00654221  -0.00766015 -0.316596 -0.00639427  -0.00808001 -0.323894 -0.00655258  -0.000461578 -0.317019 -0.00638783  -0.00823474 -0.323864 -0.0065515  -0.00144792 -0.331568 -0.0067023  -0.00865245 -0.331148 -0.00670946  -0.00186586 -0.338845 -0.00686336  -0.00849819 -0.331175 -0.00671208  -0.00891972 -0.338455 -0.00687003  -0.00129342 -0.331599 -0.00670838  -0.00907326 -0.338424 -0.00686789  -0.00228024 -0.346108 -0.00702071  -0.00949335 -0.345688 -0.00702608  -0.00269914 -0.353362 -0.00718105  -0.00933695 -0.345712 -0.00702798  -0.0097568 -0.352971 -0.00718391  -0.00212526 -0.346134 -0.00702369  -0.00991106 -0.352941 -0.00718522  -0.00311542 -0.360599 -0.00734127  -0.0103297 -0.360178 -0.00734019  -0.00353265 -0.367827 -0.00749898  -0.0101736 -0.360205 -0.00734067  -0.0105939 -0.367435 -0.00749803  -0.00296021 -0.360626 -0.00734067  -0.0107453 -0.367403 -0.00750101  0.000292733 -0.000647366 0.000467777  0.000231408 -0.00039047 0.000360966  0.000986814 -0.00170493 0.000823259  0.000230625 -0.000441134 0.000243306  0.000733867 -0.00134498 0.000403285  0 0 0  0 0 0  0.000295319 -0.000701666 0.000315785  0 0 0  0.000764027 -0.00126165 0.000628352  0.00199813 -0.00329864 0.00109923  0.00147033 -0.00273395 0.000839949  0.00317812 -0.0050301 0.00129414  0.00144902 -0.00285465 0.000549555  0.00228894 -0.00457686 0.000621557  0.00196685 -0.00342691 0.000717282  0.00232953 -0.00442064 0.000970244  0.00439823 -0.0071243 0.00138688  0.00322744 -0.00649154 0.00103581  0.00563011 -0.00939548 0.00142789  0.00319502 -0.00668007 0.000661969  0.00410745 -0.00899869 0.000661731  0.0043515 -0.00732344 0.000893712  0.00413671 -0.00877762 0.00105011  0.00681105 -0.0119465 0.00140941  0.00502479 -0.0113423 0.00102353  0.00794792 -0.014726 0.00136137  0.00500441 -0.0115823 0.000631571  0.00586385 -0.0144059 0.000585675  0.00678059 -0.0121958 0.000891328  0.00586933 -0.0141446 0.000971317  0.00902253 -0.0177521 0.00128484  0.00667596 -0.0171899 0.000898838  0.0100416 -0.0210211 0.00119364  0.00667965 -0.0174561 0.000517964  0.00744689 -0.020753 0.00044477  0.00902259 -0.0180288 0.000779152  0.00742972 -0.020475 0.000812054  0.0110008 -0.0245176 0.00108552  0.00813937 -0.0239851 0.00071466  0.0119039 -0.0282502 0.000971437  0.00816762 -0.0242607 0.000355601  0.00883764 -0.028008 0.000267625  0.011029 -0.0248022 0.000607848  0.0087986 -0.0277284 0.000612617  0.0127524 -0.0321962 0.00084722  0.00941467 -0.0316823 0.000500202  0.0135455 -0.0363621 0.000720739  0.00946313 -0.0319548 0.000168085  0.0100406 -0.036126 6.77109e-05  0.0128009 -0.0324745 0.000401735  0.00998378 -0.0358535 0.000385523  0.0142882 -0.0407253 0.000587463  0.0105118 -0.0402231 0.000266075  0.0149781 -0.0452919 0.000452638  0.0105743 -0.0404863 -4.13656e-05  0.0110649 -0.045053 -0.000150919  0.0143532 -0.0409923 0.000176191  0.0109956 -0.0447937 0.000144005  0.0156187 -0.0500401 0.000311732  0.0114387 -0.0495442 1.60933e-05  0.0162094 -0.0549758 0.000170588  0.0115139 -0.0497936 -0.000267029  0.0119215 -0.0547262 -0.000383019  0.0156975 -0.0502923 -6.6638e-05  0.0118405 -0.0544817 -0.000111461  0.0167538 -0.0600753 2.46763e-05  0.0122038 -0.059584 -0.000246167  0.0172507 -0.0653445 -0.00012207  0.0122882 -0.0598173 -0.000505686  0.0126169 -0.0650815 -0.000628114  0.0168437 -0.0603111 -0.000322819  0.0125281 -0.0648561 -0.000381351  0.0177027 -0.0707639 -0.00027287  0.0128143 -0.0702764 -0.000519514  0.0181099 -0.0763376 -0.000424743  0.0129074 -0.070493 -0.000756621  0.0131602 -0.0760607 -0.000885487  0.0177993 -0.0709815 -0.000590205  0.0130628 -0.075851 -0.000659466  0.018474 -0.0820445 -0.000579238  0.0132768 -0.0815585 -0.000804305  0.0187969 -0.0878911 -0.000736356  0.0133784 -0.0817586 -0.00102007  0.0135612 -0.0875992 -0.00115442  0.0185795 -0.0822455 -0.000868678  0.0134561 -0.0874053 -0.000948668  0.019079 -0.093857 -0.000895858  0.0136005 -0.0933724 -0.00109816  0.0193201 -0.0999482 -0.00105572  0.0137089 -0.0935563 -0.00129461  0.0138253 -0.0996419 -0.00143397  0.0191917 -0.094043 -0.00115716  0.0137131 -0.099463 -0.00124824  0.0195252 -0.106143 -0.00121856  0.0137938 -0.105662 -0.00140202  0.0196902 -0.112452 -0.00138342  0.0139093 -0.105829 -0.00157881  0.013961 -0.112131 -0.00172329  0.0196425 -0.106313 -0.00145519  0.0138445 -0.111968 -0.00155568  0.0198215 -0.11885 -0.00154865  0.013864 -0.11837 -0.0017134  0.0199164 -0.125349 -0.00171542  0.013984 -0.118521 -0.00187075  0.0139788 -0.125015 -0.00201976  0.019945 -0.119003 -0.0017606  0.0138568 -0.124866 -0.00187016  0.01998 -0.131926 -0.00188327  0.0138208 -0.131446 -0.00203049  0.0200109 -0.13859 -0.00205469  0.0139462 -0.131584 -0.0021714  0.0138862 -0.138246 -0.00232446  0.0201085 -0.132068 -0.00207365  0.0137591 -0.138112 -0.00219083  0.02001 -0.145325 -0.00222456  0.0136712 -0.144846 -0.00235355  0.0199797 -0.152132 -0.00239789  0.0138021 -0.144972 -0.00247872  0.0136921 -0.151776 -0.00263608  0.0201452 -0.145451 -0.00239265  0.0135591 -0.151655 -0.00251865  0.019922 -0.158998 -0.00257075  0.0134249 -0.158523 -0.00268388  0.0198355 -0.16593 -0.00274372  0.0135591 -0.158637 -0.00279284  0.0134039 -0.165565 -0.00295126  0.0200603 -0.159112 -0.00271726  0.0132673 -0.165454 -0.00284755  0.0197246 -0.172908 -0.00291657  0.0130892 -0.172436 -0.00301683  0.019588 -0.179942 -0.00309193  0.0132289 -0.172536 -0.00311255  0.0130322 -0.17957 -0.0032711  0.0198653 -0.173012 -0.00304604  0.012893 -0.17947 -0.00318325  0.0194283 -0.187015 -0.003268  0.0126748 -0.186545 -0.00335276  0.0192447 -0.194132 -0.00344241  0.0128179 -0.186634 -0.00343442  0.012584 -0.19375 -0.00359559  0.019573 -0.187105 -0.00337708  0.0124393 -0.193664 -0.00351906  0.0190432 -0.201281 -0.00361669  0.012187 -0.200814 -0.00368917  0.0188169 -0.208466 -0.00379217  0.0123317 -0.200896 -0.00375831  0.0120656 -0.208079 -0.00392234  0.0191898 -0.201362 -0.00371146  0.0119183 -0.208002 -0.00385892  0.0185769 -0.215675 -0.00396788  0.0116358 -0.215211 -0.00402868  0.0183153 -0.222912 -0.00414145  0.0117834 -0.215283 -0.00408816  0.0114882 -0.222523 -0.0042516  0.0187256 -0.215749 -0.00404656  0.011337 -0.222452 -0.00419724  0.0180392 -0.230166 -0.00431824  0.0110266 -0.22971 -0.00436819  0.0177453 -0.237441 -0.00449204  0.011178 -0.229773 -0.00441694  0.010855 -0.237049 -0.0045805  0.0181918 -0.23023 -0.00438237  0.0107036 -0.236987 -0.0045352  0.0174408 -0.244729 -0.00466514  0.0103698 -0.244275 -0.00470626  0.0171168 -0.252032 -0.0048393  0.0105224 -0.24433 -0.00474536  0.0101767 -0.251634 -0.00491071  0.017592 -0.244787 -0.00471878  0.010026 -0.251581 -0.00487506  0.0167851 -0.259337 -0.0050118  0.00966978 -0.258888 -0.00504303  0.0164378 -0.266654 -0.00518417  0.00982285 -0.258937 -0.00507593  0.00946093 -0.266254 -0.00523877  0.0169399 -0.259387 -0.00505447  0.00930548 -0.266208 -0.00521278  0.0160851 -0.27397 -0.00535631  0.00893474 -0.273526 -0.00538087  0.0157206 -0.281293 -0.00552523  0.00909066 -0.27357 -0.00540376  0.0087111 -0.280892 -0.00556719  0.0162411 -0.274012 -0.00538695  0.00855684 -0.28085 -0.00554717  0.015347 -0.288609 -0.00569379  0.00816941 -0.288171 -0.00571406  0.0149655 -0.295929 -0.00586271  0.00832605 -0.288206 -0.00573027  0.00793386 -0.295528 -0.00589478  0.0155036 -0.288648 -0.0057174  0.00777769 -0.295491 -0.00588143  0.0145788 -0.303238 -0.00602865  0.00738311 -0.302805 -0.00604463  0.0141833 -0.310548 -0.00619769  0.00753736 -0.302837 -0.0060581  0.00713849 -0.310149 -0.00621843  0.014735 -0.303274 -0.0060488  0.00698209 -0.310115 -0.00620937  0.0137858 -0.317845 -0.00636292  0.00657725 -0.317417 -0.00637269  0.0133817 -0.32514 -0.00652587  0.00673437 -0.317445 -0.0063796  0.00632548 -0.324742 -0.00654066  0.0139427 -0.317878 -0.00637329  0.00616884 -0.32471 -0.00653458  0.0129745 -0.332418 -0.00668883  0.00575757 -0.331994 -0.00669682  0.0125632 -0.339695 -0.00685394  0.00591421 -0.33202 -0.00670207  0.00550103 -0.339299 -0.00686026  0.013133 -0.332449 -0.00669718  0.0053432 -0.33927 -0.00685823  0.0121517 -0.346957 -0.00701594  0.00493026 -0.346532 -0.00701833  0.0117364 -0.35421 -0.00717545  0.00508714 -0.346558 -0.00701892  0.00467086 -0.353814 -0.00717759  0.0123084 -0.346984 -0.0070163  0.00451231 -0.353786 -0.00717759  0.0113206 -0.361452 -0.00733602  0.00409913 -0.361025 -0.00733948  0.0109062 -0.368685 -0.007496  0.00425553 -0.361052 -0.00733674  0.00384331 -0.368284 -0.00749695  0.0114808 -0.361479 -0.00733471  0.0036869 -0.368253 -0.00749981  0.00055857 -0.00165105 0.000678658  0.000482596 -0.00102544 0.000588298  0.00191954 -0.00317913 0.00120521  0.000484593 -0.00109684 0.000387073  0.00144225 -0.00243813 0.000663519  0 0 0  0 0 0  0.000572436 -0.00170726 0.000460505  0 0 0  0.00145935 -0.00232923 0.00102282  0.00356543 -0.00503623 0.00162387  0.00275376 -0.00404739 0.00137854  0.00541061 -0.00685126 0.00192082  0.00272743 -0.00419837 0.000899196  0.00417146 -0.00605327 0.00105226  0.00353225 -0.00520015 0.00106168  0.00421181 -0.00585872 0.00161564  0.00722921 -0.00888622 0.00208008  0.00574264 -0.00791776 0.00174558  0.00902995 -0.0111209 0.00216913  0.00569603 -0.00814295 0.00113177  0.00720483 -0.0104449 0.00116909  0.00717786 -0.00913769 0.00135624  0.00724784 -0.0101894 0.00180411  0.0107661 -0.0135755 0.00217092  0.00871941 -0.0126912 0.00179636  0.0124308 -0.0163044 0.00213337  0.00868621 -0.0129595 0.0011518  0.0101056 -0.0157376 0.00111294  0.0107286 -0.013867 0.001405  0.0101233 -0.0154514 0.00175011  0.0140278 -0.0192595 0.00205028  0.0114661 -0.0184442 0.00167024  0.0155483 -0.022487 0.001948  0.0114626 -0.0187321 0.00104165  0.0127516 -0.0219901 0.000959396  0.0140218 -0.0195635 0.00129986  0.0127383 -0.0216953 0.00157046  0.0169984 -0.0259381 0.00182295  0.0139475 -0.0251708 0.00145495  0.0183731 -0.0296414 0.00168753  0.0139723 -0.0254598 0.000860453  0.0151274 -0.0291809 0.000754476  0.0170209 -0.026238 0.00110996  0.0150878 -0.0288903 0.00132835  0.0196793 -0.0335541 0.00154066  0.016166 -0.0328212 0.00119305  0.0209115 -0.0376995 0.00138867  0.0162155 -0.0331027 0.000639081  0.0172398 -0.037258 0.000521064  0.0197258 -0.0338427 0.000874639  0.0171807 -0.0369788 0.00105393  0.022077 -0.0420385 0.00123084  0.0181363 -0.0413319 0.000908613  0.023173 -0.0465896 0.00106943  0.0182016 -0.0415992 0.000395536  0.0191035 -0.0461567 0.000268579  0.0221422 -0.0423108 0.000613928  0.0190303 -0.0458921 0.000760436  0.0242049 -0.0513164 0.000905395  0.0198674 -0.0506318 0.000607252  0.0251675 -0.0562394 0.000737429  0.0199461 -0.0508851 0.000135541  0.020732 -0.0558102 2.14577e-06  0.0242831 -0.051573 0.000337601  0.0206461 -0.0555622 0.000453711  0.0260694 -0.0613205 0.000567675  0.0213692 -0.0606553 0.000293732  0.0269077 -0.0665804 0.000396967  0.0214605 -0.0608903 -0.000136733  0.0221324 -0.0661516 -0.000277519  0.0261595 -0.0615594 4.80413e-05  0.0220374 -0.0659218 0.000135064  0.0276878 -0.0719844 0.000222445  0.0226545 -0.0713345 -2.67029e-05  0.028405 -0.0775487 4.73261e-05  0.0227512 -0.0715535 -0.000421643  0.0233206 -0.0771182 -0.00056541  0.0277849 -0.0722049 -0.000252247  0.0232182 -0.0769051 -0.000189543  0.0290668 -0.0832408 -0.000128388  0.0237319 -0.0826067 -0.000356913  0.0296698 -0.0890793 -0.000306606  0.0238383 -0.082807 -0.000714898  0.0243057 -0.0886461 -0.000864267  0.0291718 -0.0834452 -0.000560284  0.0241953 -0.0884501 -0.000522733  0.0302202 -0.0950308 -0.000488043  0.0246125 -0.0944103 -0.000692368  0.0307165 -0.101113 -0.000668049  0.0247253 -0.0945956 -0.00101769  0.0250994 -0.100679 -0.00117075  0.0303344 -0.0952172 -0.000878334  0.0249833 -0.100498 -0.00086236  0.0311629 -0.107296 -0.000852108  0.0253081 -0.106689 -0.00103617  0.0315582 -0.113595 -0.00103509  0.0254276 -0.106859 -0.00132895  0.0257126 -0.113159 -0.00148654  0.0312816 -0.107466 -0.00120425  0.0255891 -0.112994 -0.00120926  0.0319045 -0.119982 -0.00122058  0.0258287 -0.119388 -0.00138605  0.0322031 -0.126472 -0.00140655  0.0259541 -0.119542 -0.00164878  0.0261554 -0.126034 -0.00180948  0.0320288 -0.120138 -0.00153673  0.0260289 -0.125883 -0.00156164  0.0324593 -0.133038 -0.0015924  0.0261883 -0.132458 -0.00173903  0.0326679 -0.139694 -0.00177944  0.0263169 -0.132598 -0.00197268  0.0264425 -0.139255 -0.00213695  0.0325886 -0.133179 -0.00187361  0.0263093 -0.139118 -0.00191855  0.0328393 -0.146416 -0.00196743  0.0263944 -0.145849 -0.00209761  0.0329661 -0.153216 -0.00215471  0.0265286 -0.145975 -0.00230384  0.0265803 -0.152776 -0.0024693  0.0329726 -0.146543 -0.0022155  0.0264447 -0.152653 -0.00227606  0.033056 -0.160069 -0.00234497  0.0264614 -0.159515 -0.00245714  0.0331068 -0.166992 -0.00253165  0.0266006 -0.159629 -0.00263906  0.0265865 -0.166554 -0.00280702  0.033196 -0.160185 -0.00256062  0.0264454 -0.166443 -0.0026387  0.033124 -0.173959 -0.00272  0.0263977 -0.173417 -0.0028199  0.0331056 -0.180984 -0.00290883  0.0265419 -0.173518 -0.00297666  0.0264661 -0.180547 -0.00314772  0.0332668 -0.174062 -0.00291014  0.0263224 -0.180448 -0.00300324  0.0330558 -0.188043 -0.00309968  0.0262184 -0.187515 -0.00318408  0.0329759 -0.195155 -0.00328648  0.0263641 -0.187606 -0.00331914  0.0262337 -0.194718 -0.00348997  0.0332019 -0.188137 -0.00326121  0.0260873 -0.19463 -0.00336409  0.032867 -0.202291 -0.00347376  0.0259321 -0.201774 -0.00354707  0.0327256 -0.209466 -0.00366056  0.0260801 -0.201853 -0.00366116  0.0259001 -0.209034 -0.00383258  0.0330131 -0.202372 -0.00361192  0.0257504 -0.208954 -0.00372827  0.0325596 -0.216665 -0.0038482  0.0255468 -0.216161 -0.00390983  0.0323689 -0.223895 -0.00403285  0.0256968 -0.216231 -0.00400555  0.0254745 -0.223465 -0.00417531  0.0327098 -0.216737 -0.00396335  0.025322 -0.223394 -0.00408876  0.0321534 -0.231136 -0.00421882  0.0250781 -0.230642 -0.00426948  0.0319161 -0.238406 -0.00440359  0.0252287 -0.230706 -0.00434721  0.024967 -0.237977 -0.00451922  0.0323071 -0.2312 -0.00431204  0.0248156 -0.237915 -0.00444829  0.0316594 -0.245678 -0.00458634  0.0245318 -0.245198 -0.00462604  0.0313816 -0.252973 -0.00476861  0.0246873 -0.245254 -0.00468898  0.0243897 -0.25255 -0.00485981  0.0318162 -0.245736 -0.00466216  0.0242341 -0.252497 -0.00480533  0.0310869 -0.26027 -0.00495017  0.0239201 -0.259798 -0.00498199  0.0307755 -0.267578 -0.00512803  0.0240779 -0.259848 -0.00502896  0.0237498 -0.26716 -0.00520015  0.0312445 -0.260318 -0.00501072  0.023592 -0.267111 -0.00515664  0.0304506 -0.274885 -0.00530434  0.0232532 -0.274425 -0.00533116  0.030108 -0.282199 -0.00548267  0.0234103 -0.274467 -0.00536978  0.0230596 -0.281786 -0.00553608  0.030606 -0.274929 -0.00535238  0.0229008 -0.281742 -0.00550354  0.0297542 -0.28951 -0.00565851  0.0225372 -0.289056 -0.00567889  0.0293882 -0.296821 -0.00583243  0.0226939 -0.289094 -0.00570512  0.0223238 -0.296409 -0.0058701  0.029912 -0.289548 -0.00569236  0.0221651 -0.296373 -0.00584817  0.0290134 -0.304122 -0.0060041  0.0217834 -0.303682 -0.00601995  0.0286281 -0.311427 -0.0061748  0.0219433 -0.303714 -0.00603735  0.0215549 -0.311021 -0.00620162  0.0291715 -0.304158 -0.00602746  0.0213978 -0.310986 -0.00618601  0.0282362 -0.318719 -0.00634265  0.0210037 -0.318282 -0.00635266  0.0278368 -0.326008 -0.00650895  0.0211592 -0.318312 -0.00636506  0.0207603 -0.325603 -0.0065273  0.0283947 -0.318748 -0.00635862  0.0206017 -0.325573 -0.00652015  0.0274343 -0.333283 -0.00667727  0.0201969 -0.332852 -0.00668478  0.0270247 -0.340553 -0.00684106  0.0203555 -0.332878 -0.00668979  0.019948 -0.340154 -0.00685084  0.0275931 -0.33331 -0.00668311  0.0197873 -0.340123 -0.0068469  0.0266132 -0.347811 -0.00700438  0.0193756 -0.347384 -0.00701118  0.0261979 -0.355064 -0.00716746  0.0195363 -0.34741 -0.00701189  0.0191219 -0.354666 -0.00717366  0.026772 -0.347838 -0.00700736  0.0189631 -0.354637 -0.00717318  0.0257821 -0.362307 -0.00733137  0.0185454 -0.361881 -0.00733364  0.0253663 -0.369547 -0.00749123  0.0187051 -0.361906 -0.00732982  0.0182929 -0.369146 -0.00749099  0.0259433 -0.362334 -0.00732923  0.0181341 -0.369116 -0.00749576  0.00117356 -0.00394648 0.000924587  0.00100836 -0.00240791 0.000819802  0.00398447 -0.00606668 0.00156367  0.00101469 -0.00252128 0.000520825  0.00269221 -0.00465035 0.000920057  0 0 0  0 0 0  0.00113942 -0.00399768 0.000612617  0 0 0  0.00266111 -0.00449866 0.00139749  0.00629249 -0.00750667 0.00218511  0.00470501 -0.00620782 0.00189078  0.00847903 -0.00943989 0.00254953  0.00468922 -0.00640851 0.00123668  0.00674993 -0.00834852 0.00146592  0.00624979 -0.0078159 0.00140309  0.00676712 -0.00809729 0.00222445  0.010799 -0.0111994 0.00278723  0.00888672 -0.00999624 0.00242925  0.0130248 -0.0133833 0.00291312  0.00884509 -0.0102805 0.00159192  0.0108994 -0.0124992 0.00166368  0.0107808 -0.0115451 0.00181949  0.010938 -0.0121962 0.00253129  0.0152665 -0.0157034 0.00293434  0.0129347 -0.0145871 0.00255156  0.0174248 -0.018368 0.00290334  0.0129002 -0.0149009 0.00166523  0.0148387 -0.0175923 0.00163233  0.0152451 -0.0160484 0.00192177  0.0148601 -0.0172767 0.00251293  0.0195226 -0.021243 0.00281572  0.0167051 -0.020197 0.00243199  0.0215338 -0.0244209 0.00269985  0.0166962 -0.0205124 0.00156128  0.0184823 -0.0237098 0.00147116  0.0195144 -0.0215737 0.00182235  0.0184758 -0.0233964 0.00232303  0.0234641 -0.0278106 0.00255656  0.0201636 -0.0268213 0.00218892  0.0253029 -0.0314774 0.00240028  0.0201823 -0.0271252 0.00136209  0.0218057 -0.0308059 0.0012424  0.0234775 -0.0281231 0.00161314  0.0217745 -0.0305044 0.00204325  0.0270573 -0.0353391 0.00223231  0.0233029 -0.0343958 0.00188541  0.0287203 -0.0394553 0.00205576  0.0233448 -0.0346861 0.00111187  0.024806 -0.0388109 0.000977874  0.0270933 -0.0356324 0.00134885  0.0247538 -0.0385259 0.0017215  0.0303031 -0.0437489 0.00187397  0.0261267 -0.0428465 0.00155175  0.0317928 -0.0482774 0.00168765  0.0261856 -0.0431188 0.000835419  0.0274917 -0.0476522 0.000691414  0.0303551 -0.0440248 0.00105643  0.0274222 -0.0473856 0.0013777  0.0332087 -0.0529642 0.00149977  0.0286435 -0.0520976 0.00120068  0.0345316 -0.0578684 0.0013063  0.0287175 -0.0523519 0.000541687  0.0298734 -0.0572581 0.000391006  0.033273 -0.0532212 0.000745416  0.029793 -0.057008 0.00102103  0.0357865 -0.0629099 0.00111592  0.0308695 -0.0620772 0.000839114  0.0369537 -0.068153 0.000919223  0.0309539 -0.0623127 0.000236034  0.0319659 -0.067557 8.01086e-05  0.0358629 -0.0631489 0.000422359  0.0318755 -0.0673259 0.000657082  0.0380549 -0.0735209 0.000724196  0.0328132 -0.0727159 0.000470757  0.03907 -0.0790683 0.000523567  0.0329069 -0.0729342 -8.03471e-05  0.0337824 -0.0784836 -0.000241041  0.038138 -0.0737401 9.13143e-05  0.0336832 -0.078271 0.000284791  0.0400236 -0.0847269 0.000326276  0.0344888 -0.0839506 9.66787e-05  0.0408952 -0.0905512 0.000124097  0.0345904 -0.0841512 -0.000404596  0.0353373 -0.0899768 -0.000569105  0.0401165 -0.0849288 -0.000248075  0.0352331 -0.0897793 -9.17912e-05  0.0417103 -0.09647 -7.62939e-05  0.0359126 -0.09572 -0.000283122  0.0424485 -0.102538 -0.000280142  0.0360224 -0.0959048 -0.000736952  0.0366471 -0.101974 -0.000905752  0.0418106 -0.0966566 -0.000595808  0.0365357 -0.101794 -0.000475883  0.0431316 -0.108689 -0.000480533  0.0370971 -0.107965 -0.000667453  0.0437411 -0.114974 -0.000686646  0.0372127 -0.108133 -0.00107682  0.0377229 -0.114421 -0.00124753  0.0432383 -0.108858 -0.000948906  0.0376035 -0.114255 -0.000860929  0.0443008 -0.12133 -0.000888109  0.0380546 -0.120633 -0.00105548  0.0447912 -0.127808 -0.00109196  0.0381763 -0.120786 -0.00142074  0.0385778 -0.127264 -0.00159454  0.0444145 -0.121484 -0.0013063  0.0384548 -0.127113 -0.00124872  0.0452332 -0.134345 -0.0012958  0.0388016 -0.133668 -0.00144601  0.0456126 -0.140988 -0.00150323  0.0389268 -0.133808 -0.00177002  0.0392292 -0.140453 -0.00194705  0.0453519 -0.134483 -0.00166655  0.0390999 -0.140317 -0.00164092  0.0459468 -0.14768 -0.00170445  0.0393505 -0.147028 -0.00183809  0.0462229 -0.154464 -0.00191057  0.0394821 -0.147154 -0.0021261  0.0396883 -0.153943 -0.00230241  0.0460713 -0.147806 -0.00203383  0.0395551 -0.15382 -0.00203431  0.046452 -0.16129 -0.00211179  0.0397155 -0.160663 -0.00222945  0.0466304 -0.168202 -0.00231874  0.0398505 -0.160776 -0.00248206  0.0399706 -0.167691 -0.00265884  0.0465839 -0.161405 -0.00240338  0.0398331 -0.167579 -0.00242519  0.046771 -0.175142 -0.00252187  0.0399108 -0.174536 -0.0026226  0.0468595 -0.182153 -0.00272429  0.0400496 -0.174637 -0.00284135  0.0400903 -0.181652 -0.00302052  0.046905 -0.175242 -0.00277328  0.0399494 -0.181554 -0.00281894  0.0469141 -0.189188 -0.00292325  0.0399506 -0.188605 -0.00301349  0.0469196 -0.196284 -0.00312757  0.0400929 -0.188694 -0.00320148  0.0400612 -0.195793 -0.00338054  0.0470517 -0.189278 -0.00314212  0.0399168 -0.195707 -0.00320911  0.0468974 -0.203394 -0.00332773  0.0398502 -0.202834 -0.00340176  0.0468299 -0.210563 -0.00352705  0.0399942 -0.202913 -0.00355959  0.0398979 -0.210083 -0.00373983  0.0470376 -0.203478 -0.00351119  0.0397511 -0.210003 -0.00359416  0.0467377 -0.217732 -0.00372529  0.0396197 -0.217191 -0.00378823  0.0466049 -0.22495 -0.00392318  0.0397682 -0.217261 -0.00391996  0.0396101 -0.224483 -0.00409925  0.0468812 -0.217806 -0.00387836  0.0394604 -0.224414 -0.00397909  0.0464461 -0.232169 -0.0041188  0.0392735 -0.231648 -0.00416934  0.0462534 -0.239428 -0.00431228  0.0394239 -0.231709 -0.00427866  0.0392148 -0.238969 -0.00445569  0.0465946 -0.232233 -0.00424159  0.0390604 -0.238909 -0.00435901  0.0460382 -0.24668 -0.00450408  0.0388255 -0.246175 -0.00454593  0.0457928 -0.253963 -0.00469398  0.0389786 -0.24623 -0.00463295  0.0387216 -0.253517 -0.00480843  0.0461888 -0.246735 -0.00460505  0.0385666 -0.253463 -0.00473297  0.0455315 -0.261238 -0.00488269  0.038286 -0.260753 -0.00491726  0.0452404 -0.268537 -0.00507307  0.0384417 -0.260798 -0.00498533  0.0381463 -0.268103 -0.00516033  0.0456831 -0.261286 -0.00496149  0.0379894 -0.268055 -0.00510204  0.0449359 -0.275825 -0.00525546  0.0376744 -0.275355 -0.00528169  0.044606 -0.283132 -0.00543976  0.0378294 -0.275398 -0.00533307  0.0374973 -0.282705 -0.00550544  0.0450881 -0.275867 -0.00531673  0.0373414 -0.282663 -0.00546253  0.0442646 -0.290422 -0.00562036  0.0369942 -0.289966 -0.00564075  0.0439029 -0.297727 -0.00579929  0.0371492 -0.290002 -0.00567734  0.0367894 -0.297311 -0.00584757  0.0444207 -0.290461 -0.00566292  0.0366325 -0.297272 -0.00581694  0.0435345 -0.305015 -0.00597692  0.0362604 -0.30457 -0.00599146  0.0431459 -0.312312 -0.00615108  0.0364161 -0.304602 -0.00601649  0.0360339 -0.311904 -0.00618327  0.0436869 -0.305048 -0.00600779  0.035877 -0.311868 -0.00616312  0.0427575 -0.319591 -0.00632215  0.0354829 -0.319157 -0.00633395  0.0423477 -0.326871 -0.00649333  0.0356433 -0.319186 -0.00635004  0.0352437 -0.32647 -0.00651515  0.0429108 -0.319619 -0.0063411  0.0350835 -0.32644 -0.00650311  0.0419402 -0.334141 -0.00666106  0.0346785 -0.333715 -0.00667059  0.0415215 -0.341409 -0.00682938  0.0348377 -0.333742 -0.0066793  0.0344272 -0.34101 -0.00684178  0.0420992 -0.334168 -0.00667417  0.0342691 -0.340981 -0.00683522  0.0411093 -0.34866 -0.00699043  0.0338554 -0.348239 -0.00699973  0.0406842 -0.355912 -0.0071547  0.0340142 -0.348264 -0.00700128  0.0335987 -0.355518 -0.00716352  0.0412664 -0.348688 -0.0069989  0.0334387 -0.355489 -0.00716233  0.0402668 -0.363159 -0.00731921  0.0330215 -0.362733 -0.00732577  0.0398474 -0.370403 -0.00748301  0.0331798 -0.36276 -0.00732446  0.0327616 -0.370003 -0.00748289  0.0404289 -0.363185 -0.00731766  0.0326028 -0.369977 -0.00748825  -0.0005324 -0.00146388 -0.000235438  -0.000625554 -0.00216222 -0.000261903  -0.00186512 -0.00341149 -0.000397682  -0.000672296 -0.00217906 -3.08752e-05  -0.00267992 -0.00477011 -1.0848e-05  -0.00233613 -0.00398778 -3.03984e-05  0 0 0  -0.00232462 -0.00394893 -0.000291824  0 0 0  0 0 0  -0.000526946 -0.00143486 -8.70228e-06  0 0 0  -0.00453354 -0.00630907 -0.000541449  -0.0026773 -0.00477177 -0.000471473  -0.0035605 -0.00512794 -0.00056076  -0.00470094 -0.00641741 -0.000647426  -0.00532728 -0.0069188 -0.000699639  -0.00470591 -0.00643373 -3.00407e-05  -0.0067537 -0.00824942 -6.11544e-05  -0.00650102 -0.00775619 -4.30346e-05  -0.00645956 -0.00768664 -0.000709772  -0.0035741 -0.00513996 -3.70741e-05  -0.00865445 -0.00957931 -0.000903606  -0.00674461 -0.00820903 -0.000796318  -0.00719634 -0.00890191 -0.000802875  -0.00884601 -0.0100209 -0.000902057  -0.00898167 -0.0110027 -0.000888824  -0.00883484 -0.0100687 -7.71284e-05  -0.0108876 -0.012124 -0.000126004  -0.0108477 -0.0112654 -7.82013e-05  -0.0108334 -0.0111976 -0.000999808  -0.00718454 -0.00893567 -8.85725e-05  -0.013126 -0.0132728 -0.00111604  -0.0108994 -0.0120737 -0.000998259  -0.0107715 -0.0133906 -0.000949144  -0.0129628 -0.0143535 -0.00105917  -0.0124975 -0.0159851 -0.00100231  -0.012933 -0.0144076 -0.000154972  -0.0149297 -0.0169404 -0.000210643  -0.0153694 -0.0154907 -0.000147581  -0.0153884 -0.0154285 -0.00117207  -0.0107445 -0.0134385 -0.000167727  -0.0176496 -0.017925 -0.00123477  -0.0149618 -0.0168865 -0.00111723  -0.0141937 -0.0188468 -0.0010426  -0.0169307 -0.0196802 -0.00115716  -0.015838 -0.0219377 -0.00108242  -0.0168874 -0.0197351 -0.000252485  -0.0187892 -0.0227647 -0.000314355  -0.0198152 -0.0206931 -0.000241876  -0.0198558 -0.0206351 -0.00127053  -0.0141545 -0.0188981 -0.000266314  -0.0220145 -0.0236116 -0.00130737  -0.0188329 -0.0227101 -0.00119579  -0.0174397 -0.0252723 -0.00112224  -0.0206912 -0.0259941 -0.00123143  -0.0189958 -0.0288296 -0.00116134  -0.020638 -0.0260472 -0.000368953  -0.022431 -0.0295486 -0.000437617  -0.0240538 -0.026886 -0.000356793  -0.0241098 -0.0268342 -0.00134075  -0.0173909 -0.0253249 -0.000382185  -0.026137 -0.0302756 -0.0013715  -0.0224843 -0.0294946 -0.00126624  -0.0205063 -0.0326129 -0.00120592  -0.0242302 -0.033236 -0.0013082  -0.0219731 -0.0366033 -0.00125146  -0.0241683 -0.0332869 -0.00050652  -0.0258523 -0.0372253 -0.000582337  -0.0280421 -0.034014 -0.000493288  -0.0281063 -0.0339644 -0.00140965  -0.0204487 -0.0326649 -0.000517845  -0.0300063 -0.0378457 -0.0014441  -0.0259134 -0.0371729 -0.00134957  -0.0233948 -0.0408039 -0.00130486  -0.0275503 -0.0413355 -0.00139987  -0.0247775 -0.0451937 -0.00135887  -0.0274838 -0.0413842 -0.000660896  -0.0290622 -0.0457246 -0.00074482  -0.031777 -0.0420071 -0.000649333  -0.0318479 -0.041959 -0.0014925  -0.0233312 -0.040853 -0.000671983  -0.033626 -0.0462478 -0.00153697  -0.0291306 -0.0456769 -0.00145054  -0.0261192 -0.0497788 -0.00142181  -0.0306679 -0.0502245 -0.00150836  -0.0274246 -0.0545362 -0.0014863  -0.0305938 -0.0502711 -0.000834942  -0.032076 -0.0549844 -0.000927806  -0.0352736 -0.0507985 -0.000822306  -0.0353503 -0.0507522 -0.00159395  -0.0260476 -0.0498248 -0.000844598  -0.0370135 -0.0554167 -0.00164831  -0.0321528 -0.0549373 -0.00156987  -0.0286918 -0.0594735 -0.0015595  -0.0335966 -0.0598391 -0.00163841  -0.0299246 -0.0645687 -0.00163329  -0.0335151 -0.0598826 -0.00102615  -0.0349097 -0.0649347 -0.00112641  -0.0385451 -0.0603215 -0.00101304  -0.0386299 -0.0602781 -0.00171483  -0.028612 -0.0595182 -0.00103319  -0.0401878 -0.0652833 -0.00178099  -0.0349925 -0.0648914 -0.00170887  -0.031122 -0.0698262 -0.00171411  -0.0363519 -0.0701169 -0.00178862  -0.0322886 -0.07523 -0.00179899  -0.0362624 -0.0701583 -0.00123084  -0.0375741 -0.0755204 -0.00133955  -0.041607 -0.0705107 -0.00122058  -0.0416988 -0.0704678 -0.00185871  -0.0310359 -0.0698699 -0.00124061  -0.0431612 -0.0757878 -0.00193298  -0.0376637 -0.0754781 -0.00186849  -0.0334224 -0.08078 -0.0018903  -0.0389432 -0.0809977 -0.00195527  -0.0345254 -0.0864612 -0.0019815  -0.0388465 -0.081037 -0.00145102  -0.0400814 -0.0866791 -0.00156736  -0.0444784 -0.0813119 -0.00144398  -0.0445766 -0.081272 -0.00201678  -0.0333278 -0.0808216 -0.00146031  -0.0459453 -0.0868721 -0.00210071  -0.0401782 -0.0866396 -0.00204396  -0.0355978 -0.0922771 -0.00207973  -0.0413815 -0.0924262 -0.00213766  -0.0366418 -0.0982083 -0.00217974  -0.0412798 -0.0924629 -0.00168669  -0.0424396 -0.0983607 -0.00180721  -0.0471679 -0.0926605 -0.00167787  -0.0472711 -0.0926217 -0.00219548  -0.0354971 -0.0923157 -0.00169301  -0.0485539 -0.0984801 -0.00228703  -0.042544 -0.0983217 -0.00223625  -0.0376564 -0.104262 -0.00228536  -0.0436763 -0.104347 -0.00233746  -0.0386451 -0.11042 -0.00239336  -0.0435662 -0.104382 -0.00193119  -0.0446577 -0.110506 -0.00205946  -0.0496837 -0.104508 -0.00192547  -0.0497944 -0.104473 -0.00238931  -0.0375489 -0.104299 -0.00194049  -0.0509936 -0.11056 -0.00248897  -0.0447693 -0.110469 -0.00244248  -0.0396036 -0.116685 -0.00250471  -0.0458324 -0.116709 -0.00255287  -0.0405385 -0.123042 -0.00261748  -0.0457193 -0.116743 -0.00218916  -0.0467447 -0.12307 -0.00232184  -0.0520393 -0.116804 -0.0021832  -0.0521547 -0.116768 -0.00259531  -0.0394922 -0.116721 -0.00219572  -0.053278 -0.12306 -0.00270081  -0.0468606 -0.123034 -0.00266111  -0.0414459 -0.129496 -0.00273573  -0.0478595 -0.129464 -0.00277686  -0.0423318 -0.13603 -0.00285566  -0.0477386 -0.129496 -0.00245643  -0.048704 -0.136002 -0.00259364  -0.0542392 -0.129495 -0.0024507  -0.0543611 -0.12946 -0.00281775  -0.0413277 -0.12953 -0.00246227  -0.055409 -0.135935 -0.00292993  -0.0488241 -0.135968 -0.0028944  -0.0431893 -0.142649 -0.00297737  -0.049763 -0.142564 -0.00301421  -0.0440228 -0.149337 -0.0031023  -0.0496371 -0.142595 -0.00273144  -0.0505435 -0.149257 -0.00287402  -0.0562921 -0.142535 -0.0027281  -0.0564194 -0.142503 -0.00304961  -0.0430636 -0.14268 -0.00273883  -0.0573959 -0.149136 -0.00316787  -0.0506699 -0.149224 -0.00313783  -0.0448337 -0.156099 -0.00323045  -0.0515482 -0.155966 -0.00326419  -0.0456238 -0.162921 -0.00335932  -0.0514207 -0.155996 -0.0030185  -0.0522671 -0.162793 -0.00316155  -0.0582094 -0.155884 -0.00301218  -0.0583396 -0.155851 -0.00329375  -0.0447061 -0.15613 -0.00302279  -0.0592482 -0.162623 -0.00341821  -0.0523977 -0.162762 -0.00339079  -0.046387 -0.169805 -0.00349307  -0.053221 -0.169627 -0.00352025  -0.0471303 -0.17674 -0.00362587  -0.0530896 -0.169658 -0.00330889  -0.0538833 -0.176571 -0.00345743  -0.0599909 -0.169495 -0.00330436  -0.0601256 -0.169467 -0.00354517  -0.0462546 -0.169835 -0.00331283  -0.0609739 -0.176356 -0.00367582  -0.0540175 -0.17654 -0.0036521  -0.047852 -0.183728 -0.00376248  -0.0547912 -0.183512 -0.00378644  -0.0485556 -0.19076 -0.00389934  -0.0546532 -0.183541 -0.00360644  -0.0553977 -0.19055 -0.00375831  -0.0616519 -0.183336 -0.00360227  -0.0617933 -0.183306 -0.00381005  -0.0477166 -0.183757 -0.00360894  -0.0625796 -0.190296 -0.0039438  -0.0555363 -0.190522 -0.00392258  -0.0492365 -0.197833 -0.00404  -0.0562572 -0.197582 -0.00406051  -0.0498984 -0.204943 -0.00418055  -0.0561185 -0.197607 -0.0039072  -0.056814 -0.2047 -0.00406146  -0.0631976 -0.197361 -0.00390673  -0.0633364 -0.197336 -0.00407946  -0.0490973 -0.197862 -0.00391197  -0.0640717 -0.204407 -0.00421548  -0.0569534 -0.204672 -0.00419831  -0.0505421 -0.212087 -0.00432396  -0.0576322 -0.211803 -0.00434208  -0.0511684 -0.219259 -0.00446939  -0.0574901 -0.211829 -0.00421572  -0.0581431 -0.218986 -0.00437045  -0.0646317 -0.21155 -0.00421321  -0.0647752 -0.211521 -0.00435793  -0.0503998 -0.212114 -0.00421715  -0.0654573 -0.21866 -0.00449634  -0.0582876 -0.218956 -0.00448501  -0.0517743 -0.226456 -0.00461268  -0.0589223 -0.226143 -0.00462866  -0.0523682 -0.233677 -0.00475943  -0.0587761 -0.226171 -0.00452495  -0.0593877 -0.233375 -0.00468087  -0.0659661 -0.225858 -0.00452244  -0.066113 -0.225833 -0.00464189  -0.0516319 -0.226482 -0.00452733  -0.066747 -0.233023 -0.0047853  -0.0595329 -0.23335 -0.00477374  -0.0529418 -0.240916 -0.00490832  -0.0601285 -0.240579 -0.00492096  -0.0535018 -0.24817 -0.00505662  -0.0599813 -0.240604 -0.00483787  -0.060555 -0.247847 -0.00499547  -0.0672078 -0.240266 -0.00483704  -0.0673573 -0.24024 -0.00493431  -0.0527959 -0.240941 -0.00483835  -0.0679474 -0.247469 -0.00507653  -0.0607021 -0.24782 -0.00506783  -0.0540454 -0.255438 -0.00520754  -0.0612624 -0.25508 -0.00521767  -0.0545771 -0.262716 -0.00535738  -0.0611157 -0.255105 -0.0051533  -0.0616558 -0.262374 -0.00531054  -0.0683682 -0.254742 -0.00515211  -0.0685148 -0.254716 -0.00522387  -0.0538983 -0.255463 -0.00515354  -0.0690677 -0.261979 -0.00537324  -0.0618045 -0.262347 -0.00536609  -0.0550921 -0.270001 -0.00550854  -0.0623326 -0.269627 -0.00551593  -0.055599 -0.277291 -0.0056603  -0.0621839 -0.269651 -0.00546789  -0.0626941 -0.276933 -0.00562632  -0.0694504 -0.269269 -0.0054692  -0.0696003 -0.269245 -0.00552237  -0.0549433 -0.270026 -0.00546861  -0.0701172 -0.276518 -0.00567234  -0.0628433 -0.276908 -0.00566804  -0.0560927 -0.284585 -0.00581253  -0.0633435 -0.284196 -0.00582004  -0.0565743 -0.291881 -0.00596583  -0.0631931 -0.28422 -0.00578642  -0.0636766 -0.291508 -0.00594401  -0.0704668 -0.283822 -0.00578773  -0.0706177 -0.283797 -0.00582469  -0.0559425 -0.28461 -0.00578523  -0.0711064 -0.291081 -0.00597548  -0.0638266 -0.291484 -0.00597227  -0.0570464 -0.299174 -0.00612068  -0.0643032 -0.298773 -0.00612617  -0.0575125 -0.306465 -0.00627315  -0.0641499 -0.298795 -0.00610209  -0.0646148 -0.306083 -0.00626123  -0.0714257 -0.298387 -0.00610292  -0.0715766 -0.298363 -0.00612879  -0.0568957 -0.299197 -0.00610113  -0.0720396 -0.305646 -0.00628364  -0.064764 -0.306058 -0.00627911  -0.0579646 -0.31375 -0.00642741  -0.0652213 -0.313341 -0.00643253  -0.0584142 -0.321033 -0.00658214  -0.0650682 -0.313363 -0.00641739  -0.0655148 -0.320643 -0.0065763  -0.0723372 -0.312948 -0.00642037  -0.0724921 -0.312925 -0.00643575  -0.0578134 -0.313773 -0.00641704  -0.0729322 -0.320198 -0.00658858  -0.0656662 -0.320619 -0.00658667  -0.0588553 -0.328305 -0.00673592  -0.0661073 -0.32789 -0.00674272  -0.0592918 -0.335573 -0.00689256  -0.0659556 -0.327914 -0.0067333  -0.0663869 -0.33518 -0.00689125  -0.0732152 -0.32749 -0.00673723  -0.0733669 -0.327467 -0.00674415  -0.0587029 -0.328329 -0.00673234  -0.0737975 -0.334733 -0.00689936  -0.06654 -0.335157 -0.00689805  -0.0597236 -0.34283 -0.00704646  -0.0669703 -0.342413 -0.00705087  -0.060153 -0.350082 -0.00720227  -0.0668168 -0.342435 -0.00704718  -0.0672433 -0.349689 -0.00720382  -0.0740697 -0.342012 -0.00705183  -0.0742207 -0.341988 -0.00705421  -0.0595701 -0.342855 -0.00704777  -0.0746446 -0.349241 -0.00720763  -0.0673957 -0.349664 -0.00720584  -0.0605762 -0.357324 -0.00735605  -0.0678196 -0.356908 -0.0073595  -0.0610013 -0.364562 -0.00750923  -0.0676668 -0.35693 -0.00735962  -0.0680892 -0.364173 -0.00751603  -0.0749147 -0.356511 -0.0073663  -0.0750675 -0.356487 -0.00736153  -0.0604234 -0.357347 -0.00735772  -0.0754862 -0.363734 -0.00751615  -0.0682418 -0.364148 -0.00751245  -0.000305288 -0.000635967 -0.00015533  -0.000348091 -0.000982136 -0.000193357  -0.00100821 -0.00171891 -0.000266194  -0.000352249 -0.000971958 -1.5974e-05  -0.0012586 -0.00239846 -2.47955e-05  0 0 0  0 0 0  -0.000306599 -0.000629246 -1.00136e-05  0 0 0  -0.0012101 -0.00236659 -0.000323176  -0.00192831 -0.00324655 -0.000398159  -0.0025814 -0.00406176 -0.000477672  -0.00305443 -0.00511009 -0.000495553  -0.002599 -0.00407043 -3.11136e-05  -0.00408201 -0.00595026 -6.7234e-05  -0.00192209 -0.00326693 -3.38554e-05  -0.00406213 -0.00591716 -0.000597477  -0.00426283 -0.00712642 -0.000576258  -0.0055902 -0.00790945 -0.000686646  -0.00549376 -0.00940423 -0.000651598  -0.00558481 -0.0079425 -8.79765e-05  -0.00712988 -0.0101832 -0.000138879  -0.00424415 -0.00716433 -9.57251e-05  -0.00714093 -0.0101381 -0.000770688  -0.00672334 -0.0118973 -0.000703216  -0.00864282 -0.0125644 -0.000824451  -0.0079172 -0.0146164 -0.000755429  -0.00861514 -0.0126121 -0.000172377  -0.0100937 -0.0152905 -0.000225663  -0.00669113 -0.0119436 -0.000178218  -0.0101242 -0.0152389 -0.000878692  -0.00908738 -0.0175843 -0.000800729  -0.0115582 -0.0181469 -0.000921607  -0.0102183 -0.0207691 -0.000844359  -0.0115165 -0.0181999 -0.000271559  -0.012912 -0.0213458 -0.00033021  -0.00904596 -0.0176354 -0.000278354  -0.0129555 -0.0212928 -0.000964046  -0.0113218 -0.0241973 -0.000891089  -0.0143122 -0.0246741 -0.0010066  -0.0123918 -0.027837 -0.000936985  -0.0142623 -0.0247285 -0.000388861  -0.0155771 -0.0283287 -0.000454903  -0.0112728 -0.0242514 -0.000395179  -0.0156291 -0.0282757 -0.00105071  -0.0134372 -0.0317014 -0.000989914  -0.0169104 -0.0321021 -0.00110006  -0.0144549 -0.035768 -0.00104487  -0.0168542 -0.0321549 -0.000525355  -0.018095 -0.0361855 -0.000599146  -0.0133808 -0.0317545 -0.000530481  -0.018155 -0.0361329 -0.00114894  -0.0154497 -0.0400405 -0.00110626  -0.0193682 -0.0403721 -0.00120652  -0.0164219 -0.0445022 -0.00117052  -0.019304 -0.0404242 -0.000680566  -0.0204783 -0.0448527 -0.000762939  -0.0153859 -0.040092 -0.000685453  -0.0205452 -0.0448002 -0.00126529  -0.0173715 -0.0491541 -0.00124216  -0.0216953 -0.0494226 -0.00133383  -0.0183023 -0.0539813 -0.00131524  -0.0216234 -0.0494716 -0.000853419  -0.0227382 -0.0542656 -0.000944495  -0.0173 -0.0492047 -0.000858665  -0.0228125 -0.0542148 -0.00140214  -0.0192128 -0.0589813 -0.00139618  -0.023904 -0.0591881 -0.00147986  -0.0201056 -0.0641431 -0.00147772  -0.0238253 -0.0592345 -0.00104249  -0.0248842 -0.0643649 -0.00114143  -0.0191323 -0.0590308 -0.00104666  -0.0249672 -0.064317 -0.00155675  -0.0209789 -0.0694612 -0.00156713  -0.0260073 -0.0696089 -0.0016427  -0.0218383 -0.0749281 -0.00165975  -0.0259187 -0.0696531 -0.00124657  -0.0269275 -0.0750894 -0.00135493  -0.0208918 -0.0695072 -0.00125241  -0.0270169 -0.0750431 -0.00173116  -0.022678 -0.080534 -0.00175679  -0.0280077 -0.0806273 -0.00182486  -0.0235038 -0.0862771 -0.00185716  -0.0279139 -0.080668 -0.00146651  -0.0288744 -0.0863816 -0.00158203  -0.0225834 -0.0805792 -0.00147283  -0.0289704 -0.0863381 -0.00192082  -0.0243112 -0.0921463 -0.00196004  -0.0299152 -0.0921844 -0.00202107  -0.0251081 -0.0981361 -0.00206649  -0.0298139 -0.0922245 -0.00169909  -0.0307297 -0.098186 -0.00182009  -0.0242101 -0.0921883 -0.00170457  -0.0308328 -0.0981464 -0.00212467  -0.0258855 -0.10424 -0.00217831  -0.0317329 -0.104227 -0.00223255  -0.0266491 -0.110451 -0.00229025  -0.0316257 -0.104264 -0.00194502  -0.0324996 -0.110452 -0.00207222  -0.0257777 -0.104279 -0.00194776  -0.0326098 -0.110412 -0.00234413  -0.0273989 -0.116764 -0.00240731  -0.0334661 -0.116704 -0.00245726  -0.0281358 -0.123173 -0.00252807  -0.0333533 -0.11674 -0.00220096  -0.0341864 -0.123125 -0.00233328  -0.0272853 -0.116802 -0.00220466  -0.0343012 -0.123087 -0.00257301  -0.0288574 -0.129671 -0.00265074  -0.0351185 -0.129565 -0.00269401  -0.0295651 -0.136252 -0.00277567  -0.0349987 -0.129599 -0.0024662  -0.0357925 -0.136158 -0.00260198  -0.0287375 -0.129707 -0.00247049  -0.0359156 -0.136123 -0.0028162  -0.0302598 -0.14291 -0.00290322  -0.0366931 -0.142763 -0.00294137  -0.030941 -0.149643 -0.00303376  -0.0365691 -0.142795 -0.0027411  -0.0373244 -0.14951 -0.00288248  -0.030134 -0.142946 -0.00274539  -0.0374489 -0.149475 -0.00306845  -0.0316072 -0.156443 -0.00316525  -0.038193 -0.156257 -0.00319898  -0.0322635 -0.163304 -0.00329995  -0.0380635 -0.156287 -0.00302494  -0.0387836 -0.163133 -0.00316966  -0.0314801 -0.156475 -0.00302744  -0.0389142 -0.1631 -0.00333166  -0.032907 -0.170224 -0.00343597  -0.0396185 -0.170005 -0.00346422  -0.0335383 -0.177196 -0.00357378  -0.0394893 -0.170033 -0.00331426  -0.0401747 -0.176987 -0.00346208  -0.0327735 -0.170256 -0.00331807  -0.0403063 -0.176958 -0.00360167  -0.0341544 -0.184214 -0.00371337  -0.0409796 -0.183964 -0.00373912  -0.03476 -0.191278 -0.00385523  -0.040844 -0.183991 -0.00361109  -0.0414968 -0.191042 -0.00376201  -0.0340173 -0.184244 -0.00361383  -0.0416331 -0.191011 -0.00387895  -0.0353534 -0.19838 -0.00399911  -0.042273 -0.198101 -0.00402093  -0.035938 -0.20552 -0.00414336  -0.042134 -0.198128 -0.00391269  -0.0427551 -0.205254 -0.0040642  -0.0352132 -0.198409 -0.00391412  -0.042896 -0.205223 -0.00416315  -0.0365067 -0.212686 -0.00429046  -0.0435035 -0.212382 -0.00430703  -0.0370672 -0.219884 -0.00443757  -0.0433624 -0.212409 -0.00421929  -0.0439544 -0.219593 -0.00437248  -0.0363643 -0.212715 -0.00422037  -0.0440974 -0.219565 -0.00445306  -0.0376155 -0.227104 -0.00458479  -0.0446784 -0.226777 -0.00460029  -0.0381534 -0.234346 -0.00473285  -0.0445342 -0.226801 -0.00452745  -0.0450981 -0.234036 -0.00468206  -0.0374713 -0.227131 -0.00452781  -0.0452433 -0.234009 -0.00474787  -0.0386837 -0.241606 -0.00488436  -0.0457964 -0.241259 -0.00489771  -0.039201 -0.248878 -0.00503504  -0.04565 -0.241284 -0.00483906  -0.0461895 -0.248549 -0.00499749  -0.0385373 -0.241632 -0.00484145  -0.0463352 -0.248522 -0.00504708  -0.0397108 -0.256163 -0.00518703  -0.0468662 -0.2558 -0.00519621  -0.0402126 -0.263457 -0.00533879  -0.0467191 -0.255823 -0.00515306  -0.0472331 -0.263111 -0.00531101  -0.0395641 -0.256187 -0.00515187  -0.0473821 -0.263084 -0.00534976  -0.0407035 -0.270754 -0.00549304  -0.0478883 -0.270378 -0.00550044  -0.0411897 -0.278061 -0.00564551  -0.0477381 -0.270401 -0.00546849  -0.0482347 -0.277702 -0.00562632  -0.0405569 -0.270779 -0.00546718  -0.0483818 -0.277675 -0.00565338  -0.0416653 -0.285363 -0.00580037  -0.0488675 -0.284975 -0.00580716  -0.0421348 -0.292669 -0.00595522  -0.0487185 -0.284999 -0.00578403  -0.0491953 -0.2923 -0.00594187  -0.0415156 -0.285388 -0.00578344  -0.0493453 -0.292275 -0.00596142  -0.0425966 -0.299971 -0.00611055  -0.0498154 -0.299572 -0.00611544  -0.0430532 -0.307271 -0.00626552  -0.049665 -0.299598 -0.00610018  -0.0501227 -0.306893 -0.00625825  -0.0424438 -0.299994 -0.00609791  -0.0502739 -0.306869 -0.00627041  -0.0435026 -0.314563 -0.00642133  -0.0507286 -0.31416 -0.0064249  -0.0439489 -0.321851 -0.00657666  -0.0505762 -0.31418 -0.00641513  -0.0510223 -0.321466 -0.00657177  -0.0433509 -0.314587 -0.00641477  -0.051177 -0.321443 -0.00658154  -0.0443881 -0.329129 -0.00673103  -0.0516181 -0.328719 -0.00673473  -0.0448236 -0.336399 -0.00688696  -0.0514657 -0.328741 -0.00673079  -0.0519006 -0.336013 -0.00688517  -0.044234 -0.329152 -0.00672889  -0.0520518 -0.335986 -0.00689065  -0.0452538 -0.343659 -0.00704241  -0.052485 -0.343245 -0.00704479  -0.0456827 -0.350911 -0.00719726  -0.0523326 -0.343269 -0.0070436  -0.0527606 -0.350523 -0.00719953  -0.0451016 -0.343682 -0.00704241  -0.0529127 -0.350498 -0.00719917  -0.0461078 -0.35815 -0.00734985  -0.0533407 -0.357738 -0.00735247  -0.0465338 -0.365383 -0.00750601  -0.0531862 -0.357762 -0.00735378  -0.0536132 -0.364999 -0.00750923  -0.0459557 -0.358174 -0.00735259  -0.053767 -0.364974 -0.00750709  -0.000139587 -0.000248432 -7.77245e-05  -0.000185031 -0.00040409 -0.000115991  -0.000455648 -0.00101468 -0.000135422  -0.000188433 -0.000405192 -6.31809e-06  -0.00064525 -0.0012849 -1.81198e-05  0 0 0  0 0 0  -0.000141606 -0.00025031 -3.69549e-06  0 0 0  -0.000608549 -0.00126615 -0.000200033  -0.000858724 -0.00236562 -0.00021863  -0.00131264 -0.00273839 -0.000306964  -0.00138922 -0.00409207 -0.000279546  -0.00131404 -0.00275221 -2.40803e-05  -0.0021224 -0.00452468 -6.74725e-05  -0.000855878 -0.00238928 -3.06368e-05  -0.00209893 -0.00448975 -0.000386834  -0.00196278 -0.00612992 -0.0003407  -0.00302592 -0.0065437 -0.000457287  -0.00257224 -0.00845447 -0.000397563  -0.00301632 -0.00657222 -8.7142e-05  -0.00394046 -0.00888529 -0.00013864  -0.00194916 -0.00616658 -9.44138e-05  -0.00394905 -0.00884148 -0.000524521  -0.00318983 -0.0110221 -0.000445247  -0.00488666 -0.0113784 -0.000573754  -0.00380418 -0.0138274 -0.00049448  -0.00486124 -0.0114217 -0.000174284  -0.00577387 -0.0141999 -0.000227809  -0.00316381 -0.0110673 -0.000178933  -0.00580248 -0.0141492 -0.000625968  -0.00441098 -0.0168669 -0.000542521  -0.00669581 -0.0171541 -0.000671864  -0.0050056 -0.0201291 -0.000592709  -0.00665683 -0.0172046 -0.000276685  -0.00752419 -0.0204398 -0.000335217  -0.00437319 -0.0169199 -0.000278831  -0.00756621 -0.0203846 -0.000720024  -0.0055908 -0.0236194 -0.000646949  -0.00841177 -0.0238448 -0.00077033  -0.00616717 -0.0273229 -0.000703335  -0.00836498 -0.0238981 -0.000396132  -0.00918877 -0.0275774 -0.000462055  -0.00554436 -0.0236754 -0.000397801  -0.00923908 -0.0275215 -0.000820994  -0.00673586 -0.0312421 -0.0007658  -0.0100481 -0.0314146 -0.000879526  -0.00729913 -0.0353644 -0.000829458  -0.00999242 -0.0314684 -0.000533581  -0.01078 -0.035568 -0.000606656  -0.00668001 -0.0312978 -0.000534654  -0.0108403 -0.0355122 -0.000938773  -0.00785691 -0.0396866 -0.000900865  -0.0116187 -0.039813 -0.00100577  -0.00841129 -0.044201 -0.000973225  -0.0115544 -0.0398664 -0.00068891  -0.0123131 -0.0443579 -0.000770926  -0.00779253 -0.0397417 -0.000690222  -0.0123823 -0.044302 -0.00107408  -0.0089606 -0.0489007 -0.00105333  -0.0131338 -0.0489804 -0.00114918  -0.00951099 -0.0537779 -0.00113678  -0.013061 -0.0490325 -0.000861406  -0.0137973 -0.053887 -0.00095284  -0.00888896 -0.048954 -0.000862479  -0.0138744 -0.0538346 -0.00122774  -0.0100567 -0.0588223 -0.00122631  -0.0146037 -0.0588601 -0.00131238  -0.0106016 -0.0640325 -0.00131631  -0.0145234 -0.0589094 -0.00104976  -0.0152394 -0.0640973 -0.00114989  -0.00997472 -0.0588745 -0.00105286  -0.0153244 -0.0640476 -0.00140023  -0.0111442 -0.0693955 -0.00141215  -0.0160336 -0.0693912 -0.00149226  -0.0116873 -0.0749075 -0.00151241  -0.0159459 -0.0694382 -0.00125468  -0.0166416 -0.0749292 -0.00136316  -0.0110552 -0.0694451 -0.00125754  -0.0167326 -0.0748809 -0.00158691  -0.0122272 -0.0805589 -0.00161719  -0.0174257 -0.0805123 -0.00168777  -0.012766 -0.0863442 -0.00172329  -0.0173296 -0.0805566 -0.00147545  -0.0180091 -0.0863233 -0.00158763  -0.0121312 -0.0806055 -0.00147605  -0.0181073 -0.0862778 -0.001791  -0.0133045 -0.0922552 -0.00183332  -0.0187835 -0.092171 -0.00189853  -0.0138408 -0.0982866 -0.00194716  -0.0186803 -0.092213 -0.00170624  -0.0193431 -0.098226 -0.00182712  -0.0132014 -0.0922999 -0.00170767  -0.0194477 -0.0981822 -0.00200796  -0.0143745 -0.10443 -0.00206482  -0.0201067 -0.104308 -0.00212204  -0.0149086 -0.110681 -0.00218403  -0.0199978 -0.104349 -0.00195062  -0.0206443 -0.110582 -0.00207818  -0.0142658 -0.104472 -0.00195241  -0.0207552 -0.110539 -0.00223732  -0.0154388 -0.11703 -0.00230694  -0.0213965 -0.116874 -0.00235879  -0.0159687 -0.123477 -0.00243175  -0.0212824 -0.116912 -0.00220561  -0.0219126 -0.123342 -0.00233769  -0.0153251 -0.117072 -0.0022074  -0.0220299 -0.123301 -0.00248015  -0.0164961 -0.130008 -0.00256097  -0.0226558 -0.129819 -0.00260687  -0.0170236 -0.136625 -0.00269222  -0.0225362 -0.129855 -0.00247169  -0.0231496 -0.136455 -0.00260818  -0.0163763 -0.130047 -0.002473  -0.0232729 -0.136419 -0.00273466  -0.017545 -0.143316 -0.00282323  -0.0238833 -0.143096 -0.0028652  -0.0180647 -0.15008 -0.00295866  -0.0237577 -0.14313 -0.00274611  -0.0243566 -0.149881 -0.00288749  -0.0174193 -0.143353 -0.00274718  -0.0244837 -0.149844 -0.0029968  -0.0185838 -0.15691 -0.00309551  -0.0250781 -0.15666 -0.00313222  -0.0190997 -0.1638 -0.00323462  -0.0249486 -0.156692 -0.00302935  -0.0255325 -0.163572 -0.00317335  -0.0184538 -0.156944 -0.00303137  -0.0256636 -0.163536 -0.00326693  -0.0196102 -0.170745 -0.00337434  -0.0262434 -0.170472 -0.00340748  -0.0201211 -0.177744 -0.0035181  -0.0261102 -0.170502 -0.00331903  -0.0266781 -0.177491 -0.00346541  -0.0194759 -0.170779 -0.00331891  -0.0268116 -0.177458 -0.00354779  -0.020628 -0.184787 -0.00366211  -0.0273747 -0.184489 -0.00368929  -0.0211275 -0.191875 -0.00380635  -0.0272379 -0.184518 -0.003613  -0.0277905 -0.191597 -0.0037632  -0.0204878 -0.184818 -0.00361323  -0.0279288 -0.191565 -0.00383186  -0.0216272 -0.198998 -0.00395465  -0.0284753 -0.19868 -0.00397658  -0.0221221 -0.206158 -0.00410318  -0.0283356 -0.198708 -0.00391281  -0.028873 -0.205859 -0.00406528  -0.0214851 -0.199029 -0.00391412  -0.0290151 -0.205829 -0.00412512  -0.0226114 -0.213345 -0.00425231  -0.0295475 -0.213008 -0.00427186  -0.0230999 -0.220561 -0.0044018  -0.0294054 -0.213036 -0.00421977  -0.0299265 -0.220244 -0.00437295  -0.0224683 -0.213374 -0.0042181  -0.030071 -0.220215 -0.00441992  -0.0235839 -0.227798 -0.00455344  -0.0305874 -0.227445 -0.00457048  -0.0240614 -0.235056 -0.00470495  -0.0304439 -0.227472 -0.00452924  -0.0309508 -0.234725 -0.00468314  -0.0234375 -0.227826 -0.00452721  -0.0310972 -0.234695 -0.00472045  -0.0245385 -0.242328 -0.00485837  -0.0316019 -0.241963 -0.0048728  -0.0250108 -0.249616 -0.00501168  -0.0314515 -0.241988 -0.00483787  -0.0319495 -0.249271 -0.00499439  -0.02439 -0.242355 -0.00483847  -0.0320973 -0.249243 -0.00502431  -0.0254786 -0.256911 -0.0051651  -0.0325856 -0.256534 -0.00517714  -0.0259423 -0.264216 -0.0053215  -0.0324376 -0.256558 -0.00515223  -0.0329201 -0.263862 -0.00530887  -0.0253291 -0.256937 -0.00515163  -0.0330682 -0.263834 -0.00532985  -0.0264003 -0.271526 -0.00547493  -0.0335448 -0.271139 -0.00548494  -0.0268586 -0.27884 -0.00563288  -0.0333984 -0.271164 -0.00546646  -0.0338671 -0.278474 -0.00562322  -0.026252 -0.271552 -0.00546443  -0.0340168 -0.278448 -0.00563943  -0.0273118 -0.286152 -0.00578785  -0.034483 -0.285757 -0.00579488  -0.0277607 -0.293465 -0.0059427  -0.034332 -0.28578 -0.00577998  -0.0347903 -0.293092 -0.00593936  -0.0271592 -0.286177 -0.0057801  -0.0349429 -0.293066 -0.00595057  -0.0282049 -0.300774 -0.0061003  -0.0353968 -0.300372 -0.00610542  -0.0286496 -0.308081 -0.00625551  -0.0352459 -0.300396 -0.0060966  -0.0356917 -0.307699 -0.0062536  -0.028053 -0.300797 -0.00609314  -0.0358462 -0.307674 -0.00626159  -0.0290868 -0.315376 -0.00641227  -0.0362902 -0.314969 -0.00641668  -0.0295227 -0.322668 -0.00656903  -0.0361376 -0.314991 -0.0064106  -0.0365798 -0.322284 -0.0065701  -0.0289345 -0.315401 -0.00641024  -0.0367317 -0.32226 -0.00657272  -0.0299556 -0.329949 -0.0067246  -0.037168 -0.32954 -0.00673008  -0.0303869 -0.337224 -0.00688148  -0.0370166 -0.329562 -0.0067271  -0.0374494 -0.336837 -0.00688159  -0.0298028 -0.329973 -0.00672495  -0.0376029 -0.336811 -0.0068835  -0.0308137 -0.344485 -0.00703609  -0.0380316 -0.344074 -0.0070399  -0.0312405 -0.351738 -0.00719166  -0.0378792 -0.344094 -0.00703955  -0.0383058 -0.351349 -0.00719357  -0.0306604 -0.344509 -0.00703728  -0.0384583 -0.351325 -0.00719523  -0.0316641 -0.358977 -0.00734687  -0.0388844 -0.358562 -0.00734866  -0.0320852 -0.366205 -0.00750184  -0.0387316 -0.358587 -0.00734961  -0.0391569 -0.365819 -0.00750542  -0.0315096 -0.359 -0.00734866  -0.0393097 -0.365794 -0.00750399  -6.0685e-06 -0.000141233 2.26498e-06  -5.36069e-05 -0.000171453 -3.73125e-05  -1.49384e-05 -0.000843436 -1.19209e-07  -5.61364e-05 -0.000177801 2.74181e-06  -0.000188306 -0.000875235 -1.20401e-05  0 0 0  0 0 0  -7.53254e-06 -0.000149757 5.24521e-06  0 0 0  -0.000157468 -0.000858486 -6.67572e-05  1.9446e-05 -0.00215048 -3.016e-05  -0.000374958 -0.0022046 -0.000120521  3.3915e-05 -0.0038197 -5.28097e-05  -0.00037457 -0.00222233 -2.08616e-05  -0.000616118 -0.00389203 -6.22272e-05  1.93566e-05 -0.00217605 -2.63453e-05  -0.000592619 -0.00386015 -0.000163436  5.83231e-05 -0.00587815 -9.07183e-05  -0.000902385 -0.00592822 -0.000212073  6.69062e-05 -0.00820619 -0.000129342  -0.00089398 -0.00595814 -8.21352e-05  -0.00119305 -0.00828603 -0.000132799  6.6787e-05 -0.00591373 -8.82149e-05  -0.00119823 -0.00824404 -0.00026226  6.43134e-05 -0.010813 -0.000173807  -0.00152403 -0.0108373 -0.000308633  5.10216e-05 -0.0136508 -0.000222445  -0.00150222 -0.0108804 -0.000171661  -0.00181925 -0.0137148 -0.000222206  8.53837e-05 -0.010859 -0.000170827  -0.00184447 -0.0136633 -0.000357985  2.0504e-05 -0.0167309 -0.000274062  -0.0021686 -0.0167263 -0.000409365  -2.19941e-05 -0.0200309 -0.000332236  -0.00213444 -0.0167776 -0.000274181  -0.00245321 -0.0200709 -0.000330567  5.45979e-05 -0.0167849 -0.000271797  -0.00249326 -0.0200131 -0.000463009  -7.84397e-05 -0.023556 -0.000393629  -0.00281596 -0.0235225 -0.000522137  -0.000150204 -0.0272947 -0.000459433  -0.00277001 -0.0235783 -0.000394821  -0.00309157 -0.027308 -0.000459313  -3.29018e-05 -0.0236147 -0.000391603  -0.00314289 -0.027249 -0.000583053  -0.000238895 -0.0312458 -0.000531912  -0.00347173 -0.0311855 -0.000650048  -0.000339389 -0.0354007 -0.000604868  -0.003416 -0.0312427 -0.000532389  -0.00374472 -0.0353876 -0.000606656  -0.000181198 -0.0313057 -0.000529885  -0.00380617 -0.0353276 -0.00071919  -0.000455797 -0.0397537 -0.000686765  -0.004143 -0.0396677 -0.00079453  -0.000589311 -0.0443003 -0.0007689  -0.00407857 -0.0397239 -0.000688076  -0.00441754 -0.0442587 -0.000770926  -0.000390828 -0.0398139 -0.000685215  -0.00448728 -0.0442009 -0.000871897  -0.000737906 -0.0490277 -0.000858188  -0.00483751 -0.0489161 -0.000957727  -0.000902176 -0.0539373 -0.00095129  -0.00476384 -0.0489725 -0.000861645  -0.00511491 -0.0538676 -0.000953317  -0.000662804 -0.0490868 -0.000859737  -0.00519323 -0.0538113 -0.00104499  -0.00108004 -0.0590119 -0.00104678  -0.0055573 -0.0588748 -0.00113821  -0.00127375 -0.0642529 -0.00114667  -0.00547504 -0.0589271 -0.00105178  -0.00583887 -0.0641543 -0.00115204  -0.000995994 -0.0590681 -0.00104952  -0.00592637 -0.0641 -0.00123358  -0.00148046 -0.0696442 -0.00125122  -0.00630188 -0.0694812 -0.00133419  -0.00170374 -0.0751875 -0.00135863  -0.00621307 -0.0695314 -0.00125635  -0.00658977 -0.0750611 -0.00136375  -0.00139034 -0.0696977 -0.00125492  -0.00668359 -0.0750095 -0.00143707  -0.00194001 -0.0808668 -0.00147045  -0.00707281 -0.0806772 -0.00154424  -0.0021894 -0.0866816 -0.0015837  -0.00697553 -0.0807243 -0.00147653  -0.0073657 -0.0865279 -0.00158823  -0.00184155 -0.080917 -0.00147438  -0.00746584 -0.0864781 -0.00165534  -0.00244999 -0.0926191 -0.00170195  -0.0078665 -0.0924054 -0.00176835  -0.00272489 -0.098679 -0.00182152  -0.00776219 -0.0924498 -0.00170755  -0.00816536 -0.0984996 -0.00182807  -0.00234532 -0.0926673 -0.00170588  -0.00827289 -0.0984522 -0.00188601  -0.00301051 -0.104851 -0.0019449  -0.00868356 -0.104611 -0.0020057  -0.00331008 -0.111128 -0.00207198  -0.00857365 -0.104655 -0.00195134  -0.00898671 -0.110921 -0.00207877  -0.00289989 -0.104894 -0.00195193  -0.00909913 -0.110876 -0.00212979  -0.00361741 -0.117502 -0.00220084  -0.00951982 -0.117242 -0.00225592  -0.00393701 -0.123973 -0.00233161  -0.00940406 -0.117283 -0.00220716  -0.00982594 -0.123743 -0.00233817  -0.00350082 -0.117546 -0.00220561  -0.0099442 -0.1237 -0.00238359  -0.0042671 -0.130528 -0.00246465  -0.0103732 -0.130245 -0.00251389  -0.00460517 -0.137168 -0.00260127  -0.0102522 -0.130285 -0.00247216  -0.0106817 -0.136915 -0.0026089  -0.00414419 -0.130571 -0.00247061  -0.010805 -0.136874 -0.00264752  -0.00495362 -0.14388 -0.00273967  -0.0112414 -0.143578 -0.00278318  -0.00530791 -0.150666 -0.00287867  -0.011116 -0.143615 -0.00274706  -0.0115516 -0.150392 -0.00288808  -0.00482559 -0.143919 -0.00274503  -0.0116794 -0.150354 -0.00292015  -0.00566983 -0.157514 -0.003021  -0.0121195 -0.157193 -0.00305974  -0.00604129 -0.164425 -0.0031656  -0.0119908 -0.157228 -0.00302863  -0.0124302 -0.164132 -0.00317109  -0.00554013 -0.15755 -0.0030272  -0.0125632 -0.164095 -0.00320232  -0.00641727 -0.171387 -0.00331056  -0.0130091 -0.171052 -0.00334442  -0.00680184 -0.178405 -0.00345707  -0.0128758 -0.171086 -0.003317  -0.0133193 -0.178094 -0.0034641  -0.006284 -0.171423 -0.00331545  -0.0134554 -0.178058 -0.00348866  -0.0071907 -0.185464 -0.00360644  -0.0139029 -0.185113 -0.00363505  -0.00758624 -0.192567 -0.00375736  -0.0137651 -0.185144 -0.00361323  -0.0142107 -0.19224 -0.00376213  -0.00705266 -0.185496 -0.00361192  -0.0143499 -0.192208 -0.00378335  -0.00798392 -0.199703 -0.00390744  -0.0147998 -0.199339 -0.003932  -0.00838828 -0.206878 -0.00405765  -0.0146596 -0.199369 -0.00391269  -0.0151076 -0.206538 -0.00406504  -0.0078423 -0.199734 -0.00391281  -0.015249 -0.206506 -0.00408173  -0.00879502 -0.214076 -0.00421131  -0.0156989 -0.213701 -0.00423121  -0.00920701 -0.221305 -0.00436497  -0.0155556 -0.21373 -0.00421762  -0.016005 -0.220955 -0.00437176  -0.00865102 -0.214107 -0.004215  -0.0161483 -0.220925 -0.00438499  -0.00962043 -0.228551 -0.0045203  -0.0165975 -0.228168 -0.00453889  -0.0100367 -0.23582 -0.00467455  -0.0164526 -0.228194 -0.00452554  -0.0169001 -0.235461 -0.00468051  -0.00947428 -0.228581 -0.00452518  -0.017046 -0.235431 -0.004691  -0.0104566 -0.243102 -0.00483167  -0.0174916 -0.242709 -0.00484669  -0.0108759 -0.250398 -0.00498712  -0.0173466 -0.242733 -0.00483692  -0.0177913 -0.250027 -0.00499165  -0.0103087 -0.243128 -0.00483584  -0.0179386 -0.250001 -0.00500023  -0.0112956 -0.257701 -0.00514293  -0.0183837 -0.257302 -0.00515497  -0.0117207 -0.265013 -0.00530136  -0.0182359 -0.257327 -0.00514889  -0.0186794 -0.264638 -0.00530493  -0.0111487 -0.257727 -0.00514901  -0.0188291 -0.26461 -0.00531316  -0.0121443 -0.272329 -0.00545692  -0.0192709 -0.271924 -0.00546837  -0.0125699 -0.279647 -0.00561476  -0.0191207 -0.271948 -0.00546324  -0.0195613 -0.279267 -0.00561941  -0.011996 -0.272354 -0.00546098  -0.0197132 -0.279239 -0.00562608  -0.0129952 -0.286965 -0.00577104  -0.0201519 -0.286555 -0.0057795  -0.0134211 -0.29428 -0.00592923  -0.0200002 -0.286579 -0.00577867  -0.020437 -0.293897 -0.00593448  -0.0128441 -0.286988 -0.00577533  -0.0205891 -0.29387 -0.00593734  -0.0138464 -0.301593 -0.00608897  -0.0210268 -0.301181 -0.00609529  -0.0142734 -0.308902 -0.00624573  -0.0208743 -0.301205 -0.00609136  -0.0213077 -0.308514 -0.00625062  -0.0136945 -0.301616 -0.00609088  -0.0214601 -0.308488 -0.00625229  -0.014699 -0.316202 -0.00640428  -0.0218902 -0.315789 -0.0064075  -0.0151243 -0.323497 -0.00655997  -0.0217397 -0.315811 -0.00640655  -0.0221684 -0.323106 -0.00656497  -0.0145452 -0.316226 -0.00640452  -0.0223217 -0.323081 -0.00656497  -0.015547 -0.330778 -0.00671721  -0.0227501 -0.330362 -0.00672126  -0.0159705 -0.338055 -0.00687373  -0.0225992 -0.330388 -0.00672317  -0.0230255 -0.337663 -0.00687647  -0.015393 -0.330802 -0.00671899  -0.0231802 -0.337639 -0.00687826  -0.016392 -0.345317 -0.00703084  -0.0236022 -0.344901 -0.0070349  -0.0168128 -0.352571 -0.00718677  -0.0234487 -0.344925 -0.0070349  -0.0238724 -0.35218 -0.00718915  -0.0162373 -0.345341 -0.00703287  -0.0240266 -0.352154 -0.00719023  -0.0172312 -0.359808 -0.00734282  -0.0244484 -0.359394 -0.00734687  -0.0176513 -0.367035 -0.0074985  -0.0242932 -0.359415 -0.00734615  -0.0247164 -0.366645 -0.00750077  -0.0170782 -0.359832 -0.00734556  -0.024868 -0.366617 -0.00749898  0.000126176 -0.000273705 8.14199e-05  7.28965e-05 -0.000184357 4.56572e-05  0.000419468 -0.00109786 0.000135779  7.24718e-05 -0.000196397 1.38283e-05  0.000237346 -0.000918984 -4.64916e-06  0 0 0  0 0 0  0.000125512 -0.000288546 1.28746e-05  0 0 0  0.000265241 -0.000902116 7.25985e-05  0.000896111 -0.00251204 0.00015986  0.000486329 -0.00227112 7.22408e-05  0.00145882 -0.00421226 0.000178456  0.000485554 -0.00229353 -1.26362e-05  0.000775248 -0.00395876 -4.92334e-05  0.000894502 -0.00253683 -1.72853e-05  0.0007945 -0.00392777 6.56843e-05  0.00207233 -0.00631976 0.000162721  0.00108382 -0.00601995 4.17233e-05  0.00269964 -0.00864464 0.000142336  0.00108922 -0.0060544 -7.60555e-05  0.00140399 -0.00838715 -0.00011909  0.00207636 -0.00635594 -7.55787e-05  0.00140002 -0.00834155 9.41753e-06  0.00330481 -0.0112641 0.000102162  0.00168982 -0.0109587 -3.23057e-05  0.00388849 -0.0140995 5.59092e-05  0.00170746 -0.0110039 -0.000161767  0.00199145 -0.0138564 -0.000208974  0.00331986 -0.0113126 -0.000155687  0.00196779 -0.0138013 -8.04663e-05  0.00443178 -0.0171812 -4.76837e-07  0.00222343 -0.0168839 -0.000137091  0.00494099 -0.0204848 -6.36578e-05  0.00225508 -0.0169383 -0.000264049  0.00249058 -0.0202532 -0.000319719  0.00446194 -0.0172389 -0.000256777  0.00245267 -0.0201919 -0.000196695  0.00540924 -0.0240118 -0.000133276  0.00265872 -0.0237193 -0.000264525  0.00584042 -0.0277589 -0.00020802  0.00270289 -0.0237794 -0.000383615  0.00288695 -0.0275317 -0.000449657  0.00545299 -0.0240756 -0.000377059  0.00283664 -0.0274677 -0.000334978  0.00623518 -0.0317156 -0.000289798  0.0029906 -0.031422 -0.000412226  0.0065918 -0.0358828 -0.000374913  0.00304729 -0.0314825 -0.00052321  0.00317979 -0.0356514 -0.000597596  0.00629127 -0.0317795 -0.000516415  0.0031181 -0.0355878 -0.000491977  0.00691426 -0.0402452 -0.000464082  0.00322163 -0.0399466 -0.000576615  0.00720167 -0.0448044 -0.000556469  0.00328642 -0.040007 -0.000680923  0.00336993 -0.0445647 -0.000764251  0.00698274 -0.0403091 -0.000673652  0.00329912 -0.0445025 -0.000664115  0.0074563 -0.0495447 -0.000654578  0.00335264 -0.0492385 -0.000758529  0.00767648 -0.0544685 -0.000756502  0.00342751 -0.0492976 -0.00085485  0.00346172 -0.0542161 -0.000946283  0.00753331 -0.0496074 -0.000847459  0.00338137 -0.0541549 -0.000855088  0.00786686 -0.0595564 -0.000861406  0.0033865 -0.0592397 -0.000955701  0.00802302 -0.0648118 -0.000970244  0.00347078 -0.0592968 -0.00104475  0.00345719 -0.0645478 -0.00114453  0.00795174 -0.0596162 -0.00103867  0.00336754 -0.0644901 -0.00106108  0.0081526 -0.0702177 -0.00108254  0.0033294 -0.0698909 -0.00116813  0.00824916 -0.0757761 -0.00119627  0.00341904 -0.0699448 -0.00124943  0.00336301 -0.0754976 -0.0013566  0.00824499 -0.0702747 -0.00124466  0.00326777 -0.0754424 -0.00127947  0.0083195 -0.0814696 -0.00131714  0.00318384 -0.0811313 -0.00139487  0.00835979 -0.0873005 -0.00143802  0.00328326 -0.0811818 -0.00146985  0.00318313 -0.0870079 -0.00158393  0.00841951 -0.0815235 -0.00146437  0.00308049 -0.0869549 -0.00151181  0.00837553 -0.093253 -0.00156236  0.00295556 -0.0929034 -0.00163341  0.00836277 -0.0993282 -0.00168943  0.00306284 -0.0929522 -0.00170147  0.00292265 -0.0990216 -0.00182295  0.00848126 -0.0933038 -0.00169778  0.00281453 -0.0989721 -0.00175762  0.00832593 -0.105512 -0.00182033  0.00265157 -0.10515 -0.0018847  0.00826383 -0.111804 -0.00195301  0.00276315 -0.105196 -0.00194824  0.0025872 -0.111484 -0.00207281  0.00843799 -0.105558 -0.00194216  0.00247133 -0.111437 -0.00201249  0.00817919 -0.118191 -0.00208807  0.00227559 -0.11782 -0.00214672  0.00807047 -0.124676 -0.00222719  0.00239301 -0.117863 -0.00220096  0.0021826 -0.124343 -0.00233364  0.00829864 -0.118237 -0.0021981  0.00206184 -0.124299 -0.00228131  0.00794196 -0.131242 -0.00236654  0.0018326 -0.130862 -0.00241745  0.00779033 -0.137895 -0.00250721  0.00195444 -0.130902 -0.00246751  0.00171351 -0.13755 -0.00260353  0.00806403 -0.131286 -0.00246394  0.00158882 -0.137508 -0.00255585  0.00762057 -0.144617 -0.00265157  0.00133085 -0.144228 -0.00269699  0.00743151 -0.151415 -0.00279737  0.00145698 -0.144265 -0.00274169  0.00118685 -0.15106 -0.00288212  0.00774837 -0.144658 -0.00273836  0.00105715 -0.151019 -0.00283921  0.00722504 -0.158272 -0.00294495  0.000771761 -0.157875 -0.00298464  0.00699782 -0.165193 -0.00309336  0.000902891 -0.157911 -0.0030241  0.000606537 -0.164829 -0.00316846  0.00735593 -0.15831 -0.00302184  0.000474215 -0.164792 -0.00312996  0.00675845 -0.172163 -0.0032444  0.000166178 -0.17176 -0.00327873  0.00649953 -0.179189 -0.00339615  0.000300407 -0.171793 -0.00331223  -1.85966e-05 -0.178818 -0.00346017  0.0068922 -0.172201 -0.00331259  -0.000155926 -0.178781 -0.00342691  0.00622916 -0.186254 -0.00354803  -0.000486374 -0.185845 -0.00357807  0.00594378 -0.193365 -0.00370133  -0.000347614 -0.185878 -0.0036087  -0.000685453 -0.192987 -0.00375736  0.00636697 -0.186289 -0.00360596  -0.00082612 -0.192952 -0.00373089  0.00564432 -0.200509 -0.0038563  -0.00117517 -0.200094 -0.00388217  0.00533414 -0.207688 -0.00401282  -0.00103307 -0.200125 -0.00390828  -0.00138664 -0.207304 -0.00405967  0.00578618 -0.20054 -0.00390649  -0.00153112 -0.20727 -0.00403678  0.0050118 -0.214892 -0.00416923  -0.00189805 -0.214474 -0.00419092  0.00467753 -0.222125 -0.00432777  -0.00175118 -0.214503 -0.00421309  -0.00212121 -0.221736 -0.00436652  0.00515604 -0.214922 -0.00421035  -0.00226879 -0.221706 -0.00434661  0.00433421 -0.229376 -0.00448275  -0.0026474 -0.228955 -0.00450253  0.00398183 -0.236647 -0.00464153  -0.00250244 -0.228983 -0.00452054  -0.00288439 -0.236257 -0.00467539  0.00448084 -0.229406 -0.00451946  -0.00303054 -0.236227 -0.00465989  0.00362062 -0.243932 -0.00480103  -0.00342131 -0.24351 -0.00481606  0.0032506 -0.251232 -0.00496089  -0.00327182 -0.243536 -0.0048331  -0.00366664 -0.250837 -0.00498986  0.00376964 -0.243961 -0.00482929  -0.00381589 -0.250808 -0.00497508  0.00287509 -0.258535 -0.00511956  -0.00421524 -0.258113 -0.00513124  0.00249338 -0.265851 -0.00527763  -0.00406528 -0.258138 -0.00514209  -0.00446558 -0.265456 -0.00530112  0.00302696 -0.258563 -0.00514269  -0.00461769 -0.265427 -0.00529051  0.00210643 -0.273166 -0.00543797  -0.00502253 -0.272744 -0.00544882  0.00171208 -0.280487 -0.00559819  -0.00487161 -0.272766 -0.00545824  -0.00527978 -0.28009 -0.005615  0.00225735 -0.273193 -0.00545561  -0.00543189 -0.280062 -0.00560868  0.00131321 -0.287805 -0.00575817  -0.00584269 -0.287382 -0.00576532  0.000912666 -0.295124 -0.00591564  -0.00569201 -0.287404 -0.00577211  -0.00610614 -0.294726 -0.00592971  0.00146675 -0.28783 -0.0057714  -0.00625825 -0.2947 -0.00592446  0.00050807 -0.302434 -0.0060755  -0.00667334 -0.302012 -0.00608361  9.94205e-05 -0.309745 -0.00623512  -0.00651908 -0.302035 -0.00608754  -0.00693488 -0.309346 -0.00624514  0.000661135 -0.30246 -0.00608516  -0.0070889 -0.309319 -0.00624108  -0.000308514 -0.317043 -0.00639367  -0.00750542 -0.31662 -0.00639987  -0.000723839 -0.324338 -0.00655174  -0.00735426 -0.316644 -0.00640213  -0.00777268 -0.323941 -0.00655925  -0.00015521 -0.317067 -0.00639939  -0.00792503 -0.323916 -0.00655806  -0.0011363 -0.33162 -0.00670981  -0.00834346 -0.331198 -0.00671363  -0.00155449 -0.338896 -0.00686681  -0.0081923 -0.331221 -0.00671589  -0.00861001 -0.338499 -0.0068723  -0.000983715 -0.331644 -0.00671399  -0.00876427 -0.338475 -0.00687194  -0.00197148 -0.346158 -0.00702488  -0.0091846 -0.345738 -0.00703001  -0.00238919 -0.353411 -0.00718284  -0.00902987 -0.34576 -0.00702977  -0.00944877 -0.353016 -0.00718546  -0.00181723 -0.346181 -0.00702655  -0.00960231 -0.35299 -0.00718701  -0.00280547 -0.360648 -0.00733924  -0.0100205 -0.360227 -0.00734055  -0.00322127 -0.367877 -0.00749397  -0.0098691 -0.360249 -0.00734162  -0.0102832 -0.367481 -0.00749648  -0.00265074 -0.360672 -0.00733852  -0.0104377 -0.367454 -0.00749815  0.000288285 -0.000720143 0.000156164  0.000226676 -0.00045383 0.000126719  0.00096494 -0.00184828 0.000266671  0.000226773 -0.000474215 2.36034e-05  0.000723466 -0.00140864 3.33786e-06  0 0 0  0 0 0  0.000291139 -0.000736713 2.31266e-05  0 0 0  0.000748932 -0.00138521 0.000208974  0.00195612 -0.00351518 0.000344515  0.00144137 -0.00292546 0.000264287  0.00312525 -0.00530434 0.000400901  0.00143893 -0.00295311 -4.29153e-06  0.00227821 -0.00470638 -3.34978e-05  0.00195047 -0.00354022 -4.05312e-06  0.00229236 -0.00466812 0.000295758  0.00434035 -0.00745654 0.000410914  0.00318968 -0.00679761 0.000295758  0.0055837 -0.00976855 0.000410914  0.00319248 -0.00683975 -6.46114e-05  0.00411499 -0.00918019 -9.87053e-05  0.00433955 -0.0074994 -5.84126e-05  0.0041087 -0.00912732 0.000280619  0.00678214 -0.012355 0.00037694  0.00501138 -0.0117294 0.000243664  0.00794202 -0.0151589 0.000333786  0.00502613 -0.0117826 -0.000145078  0.00590038 -0.0146219 -0.000189781  0.00679353 -0.012412 -0.000134349  0.00587541 -0.0145586 0.000197768  0.00904161 -0.0181993 0.000274301  0.00670242 -0.0176206 0.000137448  0.0100825 -0.0214774 0.00020647  0.00673145 -0.0176822 -0.000245452  0.00751323 -0.0209859 -0.000301361  0.00906926 -0.0182664 -0.000233173  0.00747645 -0.0209173 7.16448e-05  0.0110636 -0.0249751 0.000129104  0.00820518 -0.0244317 -2.98023e-06  0.0119864 -0.0287067 4.673e-05  0.00824755 -0.0244976 -0.00036633  0.00893295 -0.028245 -0.000431538  0.0111077 -0.0250455 -0.000353813  0.00888169 -0.0281748 -8.21352e-05  0.012853 -0.0326456 -4.3273e-05  0.00951511 -0.0321239 -0.000168085  0.0136619 -0.0368035 -0.000137448  0.00957042 -0.0321896 -0.000506639  0.0101614 -0.0363591 -0.000581026  0.0129093 -0.0327165 -0.000494123  0.0100986 -0.0362894 -0.000257373  0.0144184 -0.0411555 -0.000236154  0.0106393 -0.0406486 -0.000352263  0.0151209 -0.0457132 -0.000339031  0.0107066 -0.040714 -0.000663996  0.0112078 -0.0452766 -0.000748634  0.0144866 -0.0412257 -0.000653386  0.0111351 -0.0452102 -0.000449061  0.0157734 -0.0504482 -0.000445843  0.0115885 -0.0499492 -0.000551581  0.0163747 -0.0553712 -0.000555992  0.0116645 -0.0500122 -0.000838399  0.012082 -0.0549381 -0.000932693  0.0158513 -0.0505143 -0.000829935  0.012 -0.0548738 -0.000658274  0.016929 -0.0604563 -0.000669241  0.0123726 -0.0599629 -0.000767469  0.0174339 -0.0657136 -0.000786066  0.0124574 -0.060023 -0.00102997  0.0127949 -0.0652828 -0.00113034  0.0170146 -0.0605197 -0.00102031  0.0127053 -0.0652213 -0.000879645  0.0178943 -0.0711189 -0.000905037  0.0129999 -0.070628 -0.00099647  0.0183088 -0.0766788 -0.00102985  0.0130934 -0.0706843 -0.00123715  0.0133549 -0.0762469 -0.00134456  0.0179889 -0.0711785 -0.00122762  0.0132569 -0.076188 -0.00111568  0.0186808 -0.0823728 -0.00115764  0.0134785 -0.0818833 -0.00123823  0.0190103 -0.0882059 -0.00128651  0.0135788 -0.0819378 -0.00145698  0.0137677 -0.0877726 -0.00157166  0.0187825 -0.0824278 -0.00144863  0.0136641 -0.0877169 -0.00136316  0.0192982 -0.0941584 -0.00141847  0.0138154 -0.0936722 -0.00149226  0.0195472 -0.100237 -0.0015527  0.0139226 -0.0937226 -0.00169039  0.0140436 -0.0998023 -0.0018115  0.0194063 -0.0942117 -0.00168264  0.0139351 -0.0997508 -0.00162268  0.0197573 -0.106419 -0.00168872  0.0140212 -0.105935 -0.00175571  0.0199288 -0.112716 -0.0018301  0.0141333 -0.105983 -0.00193596  0.0141927 -0.11228 -0.00206232  0.0198708 -0.10647 -0.00192845  0.0140768 -0.112231 -0.00189233  0.0200649 -0.119102 -0.00197184  0.0141031 -0.11862 -0.00203109  0.0201646 -0.12559 -0.00211537  0.0142213 -0.118665 -0.00219154  0.0142213 -0.125153 -0.00232506  0.0201844 -0.11915 -0.00218558  0.0140995 -0.125106 -0.00217175  0.0202332 -0.132157 -0.00226212  0.0140699 -0.131676 -0.00231421  0.020268 -0.138809 -0.00240946  0.0141921 -0.131717 -0.00245869  0.0141389 -0.138374 -0.00259471  0.0203564 -0.132201 -0.00245225  0.0140116 -0.138329 -0.00245917  0.0202723 -0.145533 -0.00255871  0.0139291 -0.145054 -0.00260639  0.0202484 -0.152331 -0.00271046  0.0140586 -0.145094 -0.00273371  0.013953 -0.151894 -0.0028739  0.0204005 -0.145576 -0.00272918  0.013823 -0.151853 -0.00275505  0.0201929 -0.159187 -0.00286305  0.0136921 -0.158711 -0.00290573  0.0201106 -0.166109 -0.00301778  0.0138264 -0.158748 -0.00301683  0.0136747 -0.165671 -0.00316012  0.0203276 -0.159227 -0.00301182  0.0135398 -0.165632 -0.003057  0.0200038 -0.173078 -0.00317252  0.0133646 -0.172604 -0.00320888  0.0198705 -0.180103 -0.00332761  0.0135021 -0.17264 -0.00330746  0.013309 -0.179668 -0.00345254  0.0201404 -0.173116 -0.00330269  0.0131712 -0.179629 -0.00336313  0.0197136 -0.187167 -0.00348723  0.0129571 -0.186696 -0.00351858  0.0195341 -0.194276 -0.00364375  0.0130968 -0.18673 -0.00360191  0.0128655 -0.193841 -0.0037514  0.0198548 -0.187201 -0.00359738  0.0127261 -0.193806 -0.00367522  0.0193326 -0.201417 -0.00380313  0.0124769 -0.20095 -0.00383055  0.0191123 -0.208595 -0.00396347  0.0126178 -0.200983 -0.0039022  0.0123544 -0.208164 -0.00405407  0.0194764 -0.201451 -0.00389731  0.0122111 -0.20813 -0.00398791  0.0188727 -0.215796 -0.00412512  0.0119305 -0.215333 -0.0041486  0.0186152 -0.223027 -0.0042851  0.0120754 -0.215363 -0.00420666  0.01178 -0.222597 -0.00435984  0.0190172 -0.215828 -0.00420284  0.0116339 -0.222567 -0.00430632  0.0183389 -0.230274 -0.00444746  0.0113258 -0.229817 -0.0044657  0.0180476 -0.237544 -0.00460792  0.0114725 -0.229845 -0.00451446  0.0111518 -0.237118 -0.00466979  0.0184848 -0.230304 -0.00451255  0.0110049 -0.237087 -0.00462472  0.0177417 -0.244824 -0.00477076  0.0106702 -0.244372 -0.00478649  0.0174224 -0.252121 -0.00493205  0.0108206 -0.244399 -0.00482607  0.0104768 -0.251699 -0.00498235  0.0178919 -0.244853 -0.00482309  0.0103266 -0.251669 -0.00494885  0.017091 -0.259423 -0.00509369  0.00997543 -0.258974 -0.00510788  0.0167472 -0.266733 -0.00525701  0.0101247 -0.259 -0.00513875  0.00976181 -0.266316 -0.00529587  0.0172408 -0.25945 -0.00513637  0.00961351 -0.266287 -0.00526822  0.0163941 -0.274045 -0.0054177  0.00924253 -0.273601 -0.00542784  0.0160282 -0.281365 -0.00557828  0.00939083 -0.273627 -0.00545216  0.00901532 -0.280948 -0.00561035  0.0165455 -0.274073 -0.00544965  0.00886345 -0.280922 -0.00559115  0.0156579 -0.288676 -0.00574028  0.00847864 -0.288239 -0.00575018  0.0152769 -0.295992 -0.00590301  0.00863171 -0.28826 -0.00576615  0.00824094 -0.295582 -0.00592458  0.01581 -0.288703 -0.00576448  0.00808764 -0.295554 -0.00591052  0.0148911 -0.303299 -0.00606406  0.00769162 -0.302865 -0.00607061  0.0144968 -0.310606 -0.00622499  0.00784612 -0.302889 -0.00608289  0.00744629 -0.310198 -0.00623941  0.0150437 -0.303325 -0.00607979  0.00729203 -0.310174 -0.00623047  0.0140984 -0.317901 -0.00638378  0.00688934 -0.317471 -0.00638938  0.0136931 -0.325194 -0.00654185  0.00704098 -0.317493 -0.00639737  0.006634 -0.324789 -0.00655341  0.0142505 -0.317926 -0.00639534  0.00648046 -0.324764 -0.00654745  0.0132875 -0.332473 -0.00670218  0.00606942 -0.332045 -0.00670612  0.0128765 -0.339746 -0.00686002  0.00622511 -0.332069 -0.00670958  0.00581121 -0.339346 -0.00686717  0.0134413 -0.332495 -0.00670791  0.00565696 -0.33932 -0.00686634  0.0124624 -0.347006 -0.00701833  0.00524116 -0.346581 -0.00702214  0.0120499 -0.354259 -0.00717521  0.00539565 -0.346604 -0.00702262  0.00498033 -0.353859 -0.0071789  0.0126204 -0.347029 -0.00701988  0.00482631 -0.353833 -0.00717998  0.0116351 -0.3615 -0.00733459  0.00441027 -0.361074 -0.0073365  0.0112214 -0.368735 -0.00749123  0.00456643 -0.361097 -0.00733459  0.00415277 -0.368331 -0.00748992  0.0117908 -0.361524 -0.0073334  0.00399923 -0.368306 -0.00749493  0.000555456 -0.00174928 0.00022459  0.000476576 -0.00110841 0.000208259  0.00189783 -0.00337046 0.000392914  0.000479683 -0.00114143 2.88486e-05  0.00142586 -0.002527 1.33514e-05  0 0 0  0 0 0  0.000568226 -0.00175929 3.31402e-05  0 0 0  0.00143927 -0.0024907 0.000339985  0.00351556 -0.00531656 0.000525475  0.00270784 -0.00429052 0.000447392  0.00535068 -0.00720072 0.000616789  0.00270954 -0.00432974 4.88758e-06  0.00415102 -0.00621861 -1.20401e-05  0.00351536 -0.00535148 1.0252e-05  0.00414908 -0.00616747 0.00051415  0.00716072 -0.00929058 0.000656366  0.00567621 -0.00828284 0.000540853  0.00896889 -0.0115629 0.000674248  0.00568041 -0.00833786 -4.673e-05  0.00720054 -0.0106618 -7.30753e-05  0.00716272 -0.00935501 -3.57628e-05  0.0071899 -0.010596 0.000543475  0.010722 -0.0140414 0.000649691  0.00868121 -0.0131257 0.000515461  0.0124087 -0.0167838 0.000612497  0.00869387 -0.0131928 -0.000121713  0.0101308 -0.0159824 -0.000162482  0.0107349 -0.0141185 -0.000105023  0.0101079 -0.0159078 0.000472426  0.0140322 -0.0197446 0.000551105  0.0114772 -0.0189096 0.000412345  0.0155759 -0.0229745 0.000478625  0.0115041 -0.0189822 -0.000219822  0.0128102 -0.0222427 -0.000275135  0.0140603 -0.0198253 -0.000202894  0.0127734 -0.0221655 0.000341892  0.017051 -0.0264192 0.000396729  0.0140056 -0.0256402 0.000261188  0.0184481 -0.0301167 0.000305533  0.0140479 -0.0257128 -0.00033915  0.0152178 -0.0294324 -0.00040555  0.0170947 -0.026498 -0.000323296  0.0151665 -0.0293565 0.000173688  0.0197741 -0.0340194 0.000208497  0.0162648 -0.0332792 8.15392e-05  0.0210233 -0.0381544 0.000105023  0.0163203 -0.0333515 -0.00047946  0.0173598 -0.0375019 -0.000556827  0.0198291 -0.0340965 -0.000463843  0.0172958 -0.0374271 -1.80006e-05  0.0222039 -0.0424806 -1.43051e-06  0.018266 -0.0417689 -0.000120759  0.0233129 -0.0470191 -0.000115275  0.018334 -0.0418378 -0.000639439  0.0192465 -0.0463892 -0.000724673  0.0222713 -0.0425531 -0.000623345  0.0191735 -0.0463166 -0.000227332  0.024357 -0.0517322 -0.000229478  0.0200219 -0.0510442 -0.000340223  0.0253317 -0.0566409 -0.000349402  0.0200992 -0.0511101 -0.000814795  0.0208935 -0.056029 -0.000909448  0.0244335 -0.0518023 -0.000801086  0.0208126 -0.0559611 -0.000452876  0.0262444 -0.0617086 -0.000470638  0.021547 -0.0610396 -0.00057137  0.0270901 -0.0669545 -0.000597119  0.0216305 -0.061103 -0.00100875  0.022313 -0.0663574 -0.00110972  0.026329 -0.0617745 -0.000994682  0.0222232 -0.0662931 -0.000693679  0.0278788 -0.0723436 -0.000725865  0.0228472 -0.0716916 -0.000818372  0.0286031 -0.0778941 -0.000858665  0.0229398 -0.0717521 -0.00121593  0.0235158 -0.0773091 -0.00132477  0.0279708 -0.0724064 -0.00120389  0.023417 -0.0772485 -0.00094533  0.0292727 -0.0835723 -0.000991583  0.02394 -0.0829365 -0.00107551  0.0298831 -0.0893975 -0.00112784  0.0240401 -0.0829919 -0.0014385  0.0245149 -0.0888249 -0.00155258  0.0293722 -0.0836316 -0.00142705  0.0244108 -0.0887676 -0.00120974  0.0304419 -0.0953359 -0.00126839  0.0248344 -0.0947143 -0.00134516  0.0309433 -0.101405 -0.00141001  0.0249417 -0.0947664 -0.00167298  0.0253206 -0.100844 -0.0017941  0.0305473 -0.095392 -0.00166285  0.0252112 -0.100789 -0.00148273  0.0313957 -0.107576 -0.00155497  0.0255432 -0.106969 -0.00162435  0.0317943 -0.113863 -0.00170279  0.0256554 -0.107019 -0.00191903  0.0259457 -0.113312 -0.0020467  0.0315082 -0.107629 -0.00191092  0.0258292 -0.113261 -0.00176811  0.0321494 -0.120236 -0.00184989  0.0260756 -0.119644 -0.00191224  0.0324533 -0.126717 -0.00200117  0.0261929 -0.119691 -0.002177  0.0264015 -0.126175 -0.00230873  0.0322665 -0.120287 -0.00216901  0.0262777 -0.126126 -0.00206017  0.0327132 -0.13327 -0.00215161  0.0264416 -0.13269 -0.00220954  0.032928 -0.139916 -0.0023073  0.0265672 -0.132733 -0.00244498  0.0266955 -0.139385 -0.00258136  0.0328363 -0.133317 -0.00243592  0.0265698 -0.13934 -0.00235987  0.033102 -0.146626 -0.00246394  0.0266578 -0.146059 -0.00251317  0.0332327 -0.153417 -0.0026207  0.026788 -0.1461 -0.00271904  0.026844 -0.152897 -0.0028615  0.0332315 -0.14667 -0.00271344  0.0267124 -0.152853 -0.00266588  0.033329 -0.16026 -0.00277877  0.0267336 -0.159705 -0.00282192  0.0333848 -0.167173 -0.00293684  0.0268662 -0.159744 -0.00300407  0.0268569 -0.166665 -0.00314927  0.0334604 -0.160301 -0.00299764  0.0267217 -0.166624 -0.00297844  0.0334053 -0.17413 -0.00309741  0.0266798 -0.173588 -0.00313687  0.03339 -0.181147 -0.00325954  0.0268166 -0.173624 -0.00329518  0.0267437 -0.180647 -0.00344193  0.0335405 -0.17417 -0.00329041  0.0266068 -0.180609 -0.00329506  0.0333443 -0.188198 -0.0034219  0.0265048 -0.187668 -0.00345576  0.0332637 -0.195299 -0.00358641  0.0266447 -0.187704 -0.00359237  0.0265174 -0.194811 -0.00374186  0.0334835 -0.188236 -0.00358546  0.026377 -0.194775 -0.00361681  0.0331566 -0.202428 -0.00374949  0.0262244 -0.201911 -0.00377774  0.03302 -0.209598 -0.00391257  0.0263646 -0.201944 -0.00389373  0.0261889 -0.20912 -0.00404477  0.0332997 -0.202463 -0.00388765  0.0260456 -0.209084 -0.00393879  0.0328581 -0.216787 -0.00407708  0.0258436 -0.216283 -0.00410295  0.0326664 -0.22401 -0.00424182  0.0259881 -0.216315 -0.00419903  0.0257676 -0.223541 -0.00435293  0.0330017 -0.21682 -0.00419366  0.0256217 -0.223509 -0.00426447  0.0324569 -0.231244 -0.0044086  0.0253799 -0.230752 -0.00442731  0.0322216 -0.238506 -0.00457251  0.0255268 -0.230781 -0.00450623  0.0252657 -0.238048 -0.00466204  0.0326018 -0.231276 -0.00450528  0.0251176 -0.238017 -0.00459027  0.0319648 -0.245775 -0.00473809  0.0248375 -0.245293 -0.00475538  0.0316887 -0.253063 -0.00490308  0.0249867 -0.245323 -0.0048188  0.0246906 -0.252617 -0.0049752  0.032114 -0.245804 -0.00481594  0.0245388 -0.252587 -0.00491929  0.0313964 -0.260353 -0.00506759  0.0242283 -0.259883 -0.00508153  0.0310826 -0.267659 -0.00523174  0.0243785 -0.25991 -0.00513208  0.0240538 -0.267221 -0.00528812  0.0315461 -0.260382 -0.0051291  0.0239015 -0.267191 -0.00524509  0.0307584 -0.274959 -0.0053972  0.0235634 -0.274499 -0.00540853  0.030417 -0.28227 -0.00556123  0.0237138 -0.274523 -0.0054462  0.0233629 -0.281841 -0.00560367  0.03091 -0.274988 -0.00544345  0.023211 -0.281814 -0.00557089  0.0300653 -0.289576 -0.00572336  0.0228503 -0.289124 -0.00573277  0.0296998 -0.296884 -0.00588632  0.0230026 -0.289148 -0.0057615  0.0226321 -0.296462 -0.0059185  0.0302162 -0.289601 -0.00575852  0.0224805 -0.296435 -0.00589383  0.0293269 -0.304182 -0.00604892  0.0220976 -0.303741 -0.00605726  0.0289428 -0.311483 -0.00621164  0.0222514 -0.303763 -0.00607562  0.0218627 -0.31107 -0.00623381  0.0294795 -0.304207 -0.00607324  0.0217094 -0.311043 -0.00621855  0.0285499 -0.318771 -0.00637209  0.0213161 -0.318337 -0.00637972  0.0281525 -0.326057 -0.00653219  0.0214696 -0.318359 -0.0063895  0.0210688 -0.325651 -0.0065484  0.0287042 -0.318797 -0.00638878  0.0209157 -0.325626 -0.00653791  0.0277498 -0.333334 -0.00669289  0.02051 -0.332904 -0.00669897  0.0273387 -0.340603 -0.00685155  0.0206656 -0.332927 -0.00670516  0.0202572 -0.340199 -0.00686228  0.0279024 -0.333357 -0.00670278  0.0201027 -0.340175 -0.0068568  0.0269282 -0.347859 -0.00701106  0.0196903 -0.347432 -0.00701475  0.0265143 -0.355114 -0.00716972  0.019846 -0.347454 -0.00701761  0.0194323 -0.35471 -0.00717354  0.0270836 -0.347883 -0.00701535  0.0192766 -0.354686 -0.00717485  0.0260987 -0.362354 -0.0073272  0.0188606 -0.361929 -0.00733113  0.025682 -0.369598 -0.00748599  0.019017 -0.361952 -0.00732982  0.0186028 -0.369191 -0.00748551  0.0262551 -0.362378 -0.00732625  0.0184517 -0.369166 -0.00749075  0.00118376 -0.00411826 0.000305414  0.00101171 -0.00252777 0.000292659  0.00403641 -0.00635618 0.000503659  0.00101739 -0.00259316 2.36034e-05  0.00268672 -0.00478101 2.93255e-05  0 0 0  0 0 0  0.00114638 -0.00409728 4.25577e-05  0 0 0  0.00265902 -0.00472814 0.00046587  0.00631823 -0.00788248 0.000739217  0.00467478 -0.00652856 0.000623941  0.00847611 -0.00989825 0.000835538  0.00468364 -0.00658524 2.26498e-05  0.00673953 -0.00856698 1.46627e-05  0.00627716 -0.00801986 2.49147e-05  0.00671637 -0.00849831 0.000722408  0.0107783 -0.011689 0.0009166  0.00882971 -0.0104427 0.000783324  0.0129811 -0.0139019 0.000945091  0.00883576 -0.0105216 -1.78814e-05  0.0108965 -0.0127591 -3.83854e-05  0.0107878 -0.0118117 -8.10623e-06  0.0108804 -0.0126774 0.000801921  0.0152318 -0.0162316 0.000931501  0.0128919 -0.0150862 0.000788331  0.0173932 -0.0188965 0.000894904  0.0129064 -0.0151696 -8.49962e-05  0.0148592 -0.0178667 -0.00012517  0.0152539 -0.0163369 -6.69956e-05  0.0148343 -0.0177808 0.000749946  0.0195137 -0.0217689 0.000834227  0.0167039 -0.020703 0.000690937  0.0215433 -0.0249375 0.000757456  0.0167319 -0.0207862 -0.000181317  0.018535 -0.0239822 -0.000237107  0.0195454 -0.0218624 -0.000160098  0.018497 -0.0238978 0.000615716  0.0234986 -0.028316 0.000668526  0.0202091 -0.027316 0.000531435  0.0253541 -0.0319716 0.000569463  0.0202498 -0.027396 -0.000303149  0.0218889 -0.0310702 -0.000369906  0.0235382 -0.0284027 -0.000280857  0.0218403 -0.030988 0.00043571  0.0271311 -0.0358177 0.000466704  0.0233887 -0.0348695 0.000335574  0.0288084 -0.0399212 0.000353098  0.0234419 -0.0349456 -0.000444651  0.0249181 -0.039065 -0.000522137  0.0271826 -0.0358988 -0.000423789  0.0248559 -0.0389858 0.000227928  0.0304079 -0.0441999 0.000239134  0.0262443 -0.0432938 0.00011611  0.0319115 -0.048714 0.000115752  0.026309 -0.0433657 -0.000605822  0.0276256 -0.0478934 -0.000692487  0.0304708 -0.0442757 -0.000585437  0.0275553 -0.0478183 -5.96046e-07  0.0333393 -0.0533839 -6.19888e-06  0.0287884 -0.0525159 -0.000120163  0.0346757 -0.0582741 -0.00013721  0.028865 -0.0525841 -0.000784039  0.0300292 -0.0574836 -0.000879645  0.0334121 -0.0534567 -0.000764847  0.0299482 -0.0574129 -0.000244021  0.0359408 -0.0633032 -0.000265002  0.0310366 -0.0624667 -0.00037086  0.0371168 -0.0685286 -0.000402093  0.0311172 -0.062532 -0.00097847  0.0321392 -0.0677679 -0.00108016  0.0360216 -0.0633691 -0.000961423  0.0320506 -0.0677006 -0.000501633  0.0382252 -0.0738811 -0.000537276  0.0329975 -0.073076 -0.000633359  0.0392489 -0.0794169 -0.000680327  0.0330877 -0.0731382 -0.0011884  0.0339714 -0.0786803 -0.00129867  0.0383139 -0.0739452 -0.0011729  0.0338769 -0.0786164 -0.000769973  0.0402131 -0.0850613 -0.000819325  0.0346905 -0.0842836 -0.000907898  0.0410913 -0.0908703 -0.000967264  0.0347881 -0.0843415 -0.00141168  0.0355427 -0.0901591 -0.00152874  0.0403062 -0.0851219 -0.0013988  0.0354404 -0.0900983 -0.00104964  0.0419129 -0.0967755 -0.00111198  0.0361278 -0.0960261 -0.00119257  0.0426582 -0.102831 -0.00126386  0.0362334 -0.0960797 -0.00164926  0.0368644 -0.102143 -0.00177181  0.0420151 -0.0968329 -0.00163674  0.0367548 -0.102087 -0.0013392  0.0433471 -0.108969 -0.00141513  0.0373244 -0.108246 -0.00148594  0.0439638 -0.115242 -0.00156987  0.0374348 -0.108297 -0.00189841  0.0379505 -0.114577 -0.0020256  0.0434558 -0.109022 -0.00188684  0.0378361 -0.114524 -0.00163674  0.0445281 -0.121588 -0.00172472  0.0382943 -0.120887 -0.0017879  0.0450245 -0.128053 -0.00188172  0.0384095 -0.120936 -0.0021565  0.0388178 -0.127409 -0.00228965  0.044642 -0.121637 -0.00214672  0.0386989 -0.127358 -0.00194323  0.0454723 -0.134578 -0.00203943  0.0390499 -0.133901 -0.00209844  0.0458584 -0.141209 -0.00220168  0.03917 -0.133948 -0.00242555  0.0394783 -0.140586 -0.002563  0.0455915 -0.134624 -0.00241637  0.0393541 -0.140539 -0.00225604  0.0461974 -0.147888 -0.00236094  0.0396082 -0.147239 -0.00241435  0.0464747 -0.154666 -0.00252831  0.0397356 -0.147283 -0.00270462  0.0399482 -0.154066 -0.00284469  0.04632 -0.147935 -0.0026952  0.039818 -0.154021 -0.00257587  0.0467126 -0.161482 -0.00268865  0.0399837 -0.160855 -0.00273502  0.0468941 -0.168381 -0.00285566  0.0401137 -0.160896 -0.00299037  0.0402391 -0.167802 -0.00313461  0.0468419 -0.161524 -0.00298202  0.0401051 -0.16776 -0.00289774  0.0470359 -0.175312 -0.00302279  0.0401864 -0.174707 -0.00306094  0.0471311 -0.182314 -0.00319064  0.0403206 -0.174744 -0.00328159  0.0403664 -0.181756 -0.00342929  0.0471721 -0.175351 -0.00327492  0.0402279 -0.181715 -0.00322533  0.0471907 -0.189341 -0.00335598  0.0402329 -0.188757 -0.0033896  0.0471985 -0.196429 -0.00352335  0.0403717 -0.188793 -0.00357926  0.0403426 -0.195889 -0.0037291  0.0473258 -0.189378 -0.00357223  0.0402017 -0.195851 -0.00355566  0.0471785 -0.203533 -0.00369155  0.0401368 -0.20297 -0.00372052  0.0471156 -0.210689 -0.00386143  0.0402787 -0.203006 -0.00388241  0.0401838 -0.210169 -0.004035  0.0473204 -0.203569 -0.00387466  0.0400412 -0.210131 -0.00388622  0.0470264 -0.217853 -0.00402808  0.0399151 -0.217313 -0.00405335  0.0468946 -0.225063 -0.00419903  0.0400586 -0.217344 -0.00418854  0.0399015 -0.224563 -0.00434303  0.0471659 -0.217888 -0.00418532  0.0397565 -0.224527 -0.0042212  0.0467396 -0.232278 -0.00436711  0.0395708 -0.231755 -0.00438786  0.0465491 -0.239529 -0.00453579  0.0397193 -0.231785 -0.0044986  0.03951 -0.239041 -0.00465393  0.0468838 -0.232309 -0.00449538  0.0393631 -0.23901 -0.00455582  0.0463376 -0.246773 -0.004704  0.0391283 -0.246271 -0.00472283  0.0460927 -0.254052 -0.0048728  0.0392749 -0.246299 -0.00481081  0.0390215 -0.253584 -0.00496662  0.0464838 -0.246803 -0.004807  0.0388715 -0.253552 -0.0048883  0.0458341 -0.261321 -0.00503898  0.0385933 -0.260835 -0.00505447  0.0455432 -0.268615 -0.00520551  0.038743 -0.260863 -0.00512326  0.0384474 -0.268162 -0.00528133  0.0459819 -0.261351 -0.00512052  0.0382965 -0.268134 -0.00522149  0.0452416 -0.2759 -0.00537384  0.0379803 -0.275429 -0.00538731  0.0449116 -0.2832 -0.00554085  0.0381324 -0.275454 -0.00543761  0.0378017 -0.28276 -0.00559616  0.0453913 -0.275926 -0.00543404  0.0376494 -0.282735 -0.00555134  0.0445707 -0.290487 -0.00570786  0.0373027 -0.290032 -0.00571549  0.0442133 -0.297788 -0.00587106  0.0374546 -0.290058 -0.00575507  0.0370951 -0.297362 -0.00591135  0.0447252 -0.290513 -0.00575233  0.0369427 -0.297335 -0.00588  0.0438435 -0.305072 -0.00603414  0.0365698 -0.30463 -0.00604296  0.0434551 -0.312365 -0.00620067  0.0367241 -0.304653 -0.00606894  0.0363438 -0.311951 -0.00622666  0.0439937 -0.305097 -0.00606668  0.0361896 -0.311925 -0.00620508  0.0430663 -0.319643 -0.00636125  0.0357976 -0.31921 -0.00636709  0.0426617 -0.326924 -0.00652039  0.0359497 -0.319234 -0.00638437  0.0355523 -0.326519 -0.00654113  0.0432198 -0.319668 -0.00638175  0.0353985 -0.326493 -0.006531  0.0422542 -0.334191 -0.00668252  0.0349939 -0.333763 -0.00668848  0.0418382 -0.341456 -0.00684333  0.035147 -0.333787 -0.0066973  0.034739 -0.341055 -0.00685489  0.0424094 -0.334215 -0.00669444  0.034585 -0.341031 -0.00684845  0.0414224 -0.348709 -0.00700223  0.0341711 -0.348288 -0.00700808  0.0410023 -0.355962 -0.00716043  0.0343242 -0.34831 -0.00701106  0.03391 -0.355563 -0.0071677  0.0415773 -0.348733 -0.00700974  0.0337555 -0.355539 -0.00716662  0.0405846 -0.363204 -0.00732088  0.0333369 -0.362782 -0.00732636  0.0401626 -0.370447 -0.00747645  0.0334921 -0.362806 -0.00732553  0.0330768 -0.370047 -0.00747919  0.0407381 -0.363228 -0.00732279  0.0329204 -0.370024 -0.00748241  -0.00053123 -0.00145486 0.000181079  -0.000622354 -0.00214742 0.000233173  -0.00185838 -0.00339984 0.000358582  -0.00066803 -0.00211929 0.000469327  -0.00265446 -0.00464187 0.000888944  -0.00228971 -0.00389081 0.000541687  0 0 0  -0.00231965 -0.00393643 0.000273824  0 0 0  0 0 0  -0.000523821 -0.00138526 0.000409603  0 0 0  -0.00452341 -0.00628748 0.000481009  -0.00267319 -0.00475273 0.000420094  -0.00354235 -0.00511183 0.000487804  -0.00468631 -0.00639688 0.000576138  -0.00529648 -0.00690458 0.000564218  -0.0046791 -0.00625543 0.00120413  -0.00673108 -0.00803602 0.00140977  -0.00644173 -0.00755596 0.00136745  -0.00644159 -0.00766243 0.000687361  -0.0035661 -0.00499041 0.00102127  -0.00862549 -0.00955746 0.000772834  -0.00671576 -0.00819019 0.000670791  -0.0071511 -0.00888655 0.000607371  -0.00880203 -0.0100024 0.000734091  -0.00892353 -0.0109869 0.000615716  -0.008809 -0.00982964 0.00156403  -0.0108593 -0.0118692 0.00161862  -0.0108062 -0.0110067 0.00179625  -0.0107904 -0.0111729 0.000867963  -0.00716853 -0.00872231 0.00132382  -0.0130669 -0.013251 0.00087738  -0.01084 -0.0120559 0.000746608  -0.010702 -0.0133751 0.000598311  -0.0128901 -0.0143352 0.000738263  -0.0124145 -0.015968 0.000560403  -0.0128907 -0.0141453 0.00164163  -0.0148759 -0.0166739 0.0016011  -0.0153228 -0.0152092 0.00190318  -0.0153175 -0.0154067 0.000878692  -0.0107065 -0.0131959 0.00137591  -0.0175651 -0.0179025 0.000837564  -0.0148761 -0.0168676 0.000696659  -0.014101 -0.0188312 0.000502586  -0.0168365 -0.0196616 0.000642776  -0.0157368 -0.0219207 0.00043571  -0.0168173 -0.0194693 0.00154197  -0.0187028 -0.0225025 0.00144756  -0.0197471 -0.0204134 0.00180626  -0.0197629 -0.0206137 0.00078094  -0.0140828 -0.0186477 0.00127542  -0.0219098 -0.0235869 0.000708699  -0.0187297 -0.0226906 0.000570059  -0.0173297 -0.0252575 0.000352383  -0.0205796 -0.0259762 0.000486135  -0.0188767 -0.028815 0.000265241  -0.0205359 -0.0257912 0.00134182  -0.0223131 -0.0292992 0.00121939  -0.0239565 -0.0266186 0.00159764  -0.0239963 -0.0268115 0.000618339  -0.0172855 -0.0250797 0.00108635  -0.0260176 -0.0302521 0.000524879  -0.022364 -0.0294773 0.000393748  -0.0203785 -0.032601 0.000166178  -0.0241009 -0.0332201 0.000291109  -0.0218371 -0.0365922 6.49691e-05  -0.0240363 -0.0330465 0.00108755  -0.0257059 -0.0369939 0.000948429  -0.0279158 -0.0337645 0.00132799  -0.0279779 -0.0339439 0.00041616  -0.0203126 -0.0324327 0.000849009  -0.0298707 -0.0378257 0.000310063  -0.0257773 -0.0371586 0.000185013  -0.0232506 -0.0407955 -4.29153e-05  -0.0274065 -0.0413223 7.21216e-05  -0.0246261 -0.0451858 -0.000152826  -0.0273243 -0.0411627 0.000803828  -0.0288922 -0.0455145 0.00065577  -0.0316253 -0.041779 0.0010258  -0.0317053 -0.0419423 0.000187278  -0.0231689 -0.0406394 0.000583053  -0.0334747 -0.046232 7.21216e-05  -0.0289794 -0.0456657 -4.27961e-05  -0.0259603 -0.0497731 -0.000271201  -0.0305084 -0.0502152 -0.000164509  -0.0272573 -0.0545323 -0.00038898  -0.0304122 -0.0500697 0.00050354  -0.0318862 -0.0547921 0.000350475  -0.0350989 -0.0505919 0.000707984  -0.0351903 -0.0507391 -5.59092e-05  -0.0258627 -0.0496299 0.000301361  -0.0368482 -0.0554032 -0.000181913  -0.031987 -0.0549288 -0.000287294  -0.0285167 -0.0594708 -0.000512123  -0.0334234 -0.0598328 -0.00041616  -0.0297425 -0.0645676 -0.000637531  -0.0333165 -0.0597009 0.000192404  -0.0347025 -0.0647637 3.38554e-05  -0.0383518 -0.0601347 0.000380397  -0.0384543 -0.0602669 -0.000317216  -0.0284097 -0.059342 7.51019e-06  -0.0400059 -0.0652755 -0.00044775  -0.0348117 -0.0648855 -0.000545621  -0.030933 -0.0698273 -0.00076592  -0.0361634 -0.0701142 -0.000679135  -0.0320932 -0.0752325 -0.000897884  -0.0360488 -0.0699954 -0.000128627  -0.0373523 -0.0753681 -0.000290394  -0.0414004 -0.0703452 4.33922e-05  -0.0415107 -0.0704634 -0.000590563  -0.0308167 -0.069711 -0.000295877  -0.0429655 -0.0757831 -0.000725985  -0.0374699 -0.0754769 -0.000813961  -0.0332175 -0.0807854 -0.00103211  -0.0387404 -0.0809987 -0.000953436  -0.0343153 -0.0864675 -0.00116956  -0.0386182 -0.0808942 -0.000453711  -0.0398459 -0.0865456 -0.000621319  -0.0442567 -0.0811634 -0.000299573  -0.0443749 -0.081268 -0.000871778  -0.0330957 -0.0806811 -0.000606894  -0.0457379 -0.0868713 -0.00101316  -0.0399697 -0.0866433 -0.00109422  -0.0353822 -0.0922844 -0.0013088  -0.0411662 -0.0924299 -0.00123703  -0.0364207 -0.0982187 -0.00145054  -0.041039 -0.0923376 -0.000788927  -0.0421947 -0.0982415 -0.000957847  -0.0469335 -0.092531 -0.000648975  -0.0470583 -0.0926238 -0.00116193  -0.0352521 -0.0921928 -0.000926495  -0.048333 -0.0984831 -0.00131059  -0.0423224 -0.0983281 -0.00138283  -0.037429 -0.104273 -0.00159574  -0.043448 -0.104354 -0.00152981  -0.0384122 -0.110432 -0.00174034  -0.0433158 -0.104273 -0.0011282  -0.0444033 -0.110404 -0.00129974  -0.0494397 -0.104397 -0.00100267  -0.0495667 -0.104476 -0.00146365  -0.0372956 -0.104194 -0.00125182  -0.0507637 -0.110565 -0.00161469  -0.0445362 -0.110479 -0.00167954  -0.0393672 -0.116698 -0.00188828  -0.0455947 -0.11672 -0.00183117  -0.0402955 -0.123058 -0.00203943  -0.0454596 -0.11665 -0.00147462  -0.0464803 -0.122984 -0.00164807  -0.0517838 -0.116706 -0.00135982  -0.0519198 -0.116775 -0.00177062  -0.0392272 -0.11663 -0.00158262  -0.0530349 -0.123071 -0.0019269  -0.0466173 -0.123046 -0.00198412  -0.0411987 -0.129512 -0.00219131  -0.0476122 -0.129477 -0.00213873  -0.0420785 -0.136048 -0.00234473  -0.0474714 -0.129417 -0.00182116  -0.0484316 -0.13593 -0.00199878  -0.0539747 -0.129413 -0.00172114  -0.0541111 -0.129471 -0.00208569  -0.0410566 -0.129453 -0.00192058  -0.0551552 -0.135948 -0.00224459  -0.0485728 -0.135984 -0.00229669  -0.0429308 -0.142668 -0.00250041  -0.0495055 -0.14258 -0.00245452  -0.0437615 -0.149357 -0.0026561  -0.0493622 -0.142529 -0.00217474  -0.0502646 -0.1492 -0.00235391  -0.0560231 -0.142468 -0.00208914  -0.0561628 -0.14252 -0.00240648  -0.0427856 -0.142618 -0.00226247  -0.0571361 -0.149152 -0.00256884  -0.0504065 -0.149242 -0.00261259  -0.0445683 -0.156119 -0.00281382  -0.0512841 -0.155985 -0.00277472  -0.0453541 -0.162943 -0.00297236  -0.0511379 -0.155944 -0.00253224  -0.0519826 -0.162747 -0.00271046  -0.0579309 -0.15583 -0.00245368  -0.0580754 -0.155869 -0.00273395  -0.0444205 -0.156079 -0.00260723  -0.0589817 -0.162642 -0.00289571  -0.0521276 -0.162782 -0.00293648  -0.0461147 -0.169828 -0.00313258  -0.0529494 -0.16965 -0.00309849  -0.0468547 -0.176765 -0.00329459  -0.0528009 -0.169616 -0.00289023  -0.0535929 -0.176536 -0.00306845  -0.0597095 -0.169455 -0.00282383  -0.0598547 -0.169485 -0.00306356  -0.0459645 -0.169796 -0.00295496  -0.0606992 -0.176377 -0.00322855  -0.0537407 -0.176564 -0.00326216  -0.0475745 -0.183755 -0.003456  -0.0545106 -0.183536 -0.00342786  -0.0482738 -0.190787 -0.00361907  -0.0543613 -0.183511 -0.0032475  -0.0551031 -0.190527 -0.00342667  -0.0613654 -0.183304 -0.00319016  -0.0615139 -0.18333 -0.00339651  -0.0474229 -0.183731 -0.00330412  -0.0622997 -0.190319 -0.00356328  -0.0552537 -0.190547 -0.0035919  -0.0489521 -0.197861 -0.00378227  -0.0559754 -0.197608 -0.00375962  -0.049613 -0.204973 -0.00394535  -0.0558236 -0.197589 -0.00360417  -0.0565193 -0.204687 -0.00378752  -0.0629056 -0.197343 -0.0035603  -0.0630555 -0.197359 -0.00373232  -0.0487981 -0.197844 -0.00365365  -0.0637853 -0.204434 -0.00389981  -0.0566702 -0.204699 -0.00392413  -0.0502532 -0.212116 -0.0041101  -0.0573442 -0.211831 -0.00409031  -0.050879 -0.219289 -0.00427592  -0.0571916 -0.211819 -0.00396323  -0.0578427 -0.21898 -0.00414324  -0.0643392 -0.211537 -0.00392556  -0.0644889 -0.211548 -0.00406945  -0.0501008 -0.212106 -0.00400341  -0.0651674 -0.218689 -0.00423574  -0.0579956 -0.218985 -0.00425661  -0.0514846 -0.226488 -0.00443888  -0.0586295 -0.226175 -0.00442445  -0.0520725 -0.23371 -0.00460446  -0.0584748 -0.226168 -0.00431979  -0.0590839 -0.233381 -0.00450027  -0.0656712 -0.225855 -0.00428987  -0.0658205 -0.22586 -0.00440395  -0.0513277 -0.226483 -0.00435293  -0.0664542 -0.233055 -0.00457418  -0.0592387 -0.23338 -0.00459158  -0.0526462 -0.240949 -0.00477016  -0.0598345 -0.240613 -0.00475824  -0.053205 -0.248204 -0.00493491  -0.05968 -0.24061 -0.00467527  -0.0602548 -0.247859 -0.00485218  -0.0669103 -0.240274 -0.00465143  -0.0670621 -0.240272 -0.00474501  -0.0524909 -0.240949 -0.00470173  -0.0676525 -0.247503 -0.00491118  -0.0604055 -0.247853 -0.00492465  -0.0537469 -0.255472 -0.00509906  -0.0609655 -0.255114 -0.00508916  -0.0542777 -0.262751 -0.00526416  -0.0608113 -0.255118 -0.00502884  -0.0613501 -0.26239 -0.00520301  -0.0680656 -0.254758 -0.00500834  -0.0682197 -0.254752 -0.0050801  -0.0535922 -0.255477 -0.00504661  -0.0687699 -0.262009 -0.00524747  -0.0615063 -0.262382 -0.00525618  -0.0547917 -0.270036 -0.00542915  -0.062031 -0.269662 -0.00542259  -0.0552979 -0.277331 -0.00559461  -0.0618765 -0.269669 -0.00537646  -0.0623872 -0.276957 -0.00554848  -0.0691445 -0.26929 -0.00536096  -0.0693004 -0.26928 -0.00541449  -0.0546362 -0.270046 -0.00538993  -0.0698175 -0.276555 -0.00558281  -0.0625422 -0.276944 -0.00558865  -0.0557866 -0.284623 -0.0057559  -0.0630395 -0.284233 -0.00575221  -0.0562723 -0.291919 -0.00591981  -0.0628836 -0.284243 -0.00571918  -0.0633693 -0.291537 -0.00588965  -0.0701604 -0.283851 -0.00571263  -0.0703168 -0.283834 -0.0057478  -0.0556331 -0.284637 -0.00572968  -0.0708027 -0.29112 -0.00591302  -0.0635252 -0.29152 -0.00591803  -0.0567431 -0.299212 -0.00608206  -0.063998 -0.29881 -0.00608182  -0.0572073 -0.306504 -0.00624478  -0.0638444 -0.298827 -0.00605881  -0.064307 -0.306115 -0.00622523  -0.0711188 -0.298415 -0.00605285  -0.0712743 -0.298402 -0.00607729  -0.0565858 -0.299227 -0.0060643  -0.0717361 -0.305683 -0.0062412  -0.0644608 -0.306097 -0.00624287  -0.0576625 -0.313791 -0.00640416  -0.0649166 -0.31338 -0.00640666  -0.05811 -0.321072 -0.00656509  -0.0647619 -0.313397 -0.00639021  -0.0652075 -0.320678 -0.00655544  -0.0720317 -0.312981 -0.0063895  -0.0721855 -0.312961 -0.00640523  -0.0575051 -0.313808 -0.00639331  -0.0726309 -0.320239 -0.00656521  -0.0653617 -0.320657 -0.00656676  -0.0585494 -0.328346 -0.0067246  -0.0658028 -0.32793 -0.0067265  -0.0589867 -0.335613 -0.00688648  -0.0656469 -0.327949 -0.00671923  -0.0660789 -0.33522 -0.00688171  -0.0729072 -0.327528 -0.00671875  -0.0730622 -0.327508 -0.00672638  -0.0583947 -0.328365 -0.0067209  -0.0734942 -0.334772 -0.00688827  -0.0662358 -0.335196 -0.00688505  -0.0594182 -0.34287 -0.00704503  -0.0666649 -0.342453 -0.00704503  -0.0598454 -0.350122 -0.00720191  -0.0665102 -0.342473 -0.00704372  -0.0669336 -0.349727 -0.00720203  -0.0737605 -0.342052 -0.00704205  -0.0739169 -0.342028 -0.00704503  -0.0592635 -0.342892 -0.00704169  -0.0743394 -0.349283 -0.00720513  -0.0670893 -0.349705 -0.0072037  -0.0602727 -0.357363 -0.00735891  -0.0675137 -0.356948 -0.00736082  -0.060698 -0.364604 -0.00751591  -0.0673573 -0.356969 -0.0073601  -0.0677829 -0.364215 -0.00751877  -0.0746062 -0.356548 -0.00736248  -0.0747602 -0.356527 -0.00736272  -0.0601141 -0.357387 -0.0073607  -0.0751815 -0.363772 -0.00752056  -0.0679364 -0.36419 -0.00751913  -0.00030154 -0.00063321 0.000120401  -0.000346016 -0.000976339 0.000154257  -0.00100204 -0.00171544 0.000242591  -0.000350159 -0.000929311 0.000335336  -0.00125196 -0.0023111 0.000620246  0 0 0  0 0 0  -0.000304285 -0.000592455 0.000265837  0 0 0  -0.00120348 -0.00235909 0.000312686  -0.00191207 -0.00324094 0.000310063  -0.00256391 -0.00405136 0.000402093  -0.00302574 -0.00510402 0.000361204  -0.00259796 -0.00394456 0.000856042  -0.00407743 -0.0057857 0.000996351  -0.00191988 -0.00315806 0.000678539  -0.00403187 -0.005908 0.000463724  -0.00422081 -0.00711922 0.000377178  -0.00554642 -0.00789835 0.00049603  -0.00543839 -0.00939777 0.000367522  -0.00557184 -0.00775191 0.00109661  -0.00710827 -0.00997278 0.00112236  -0.00423107 -0.00699486 0.000857592  -0.00708237 -0.0101264 0.000494361  -0.00665656 -0.0118904 0.000339389  -0.00857306 -0.012553 0.000471711  -0.00783828 -0.0146092 0.000296474  -0.00857678 -0.012387 0.00112212  -0.0100393 -0.0150569 0.00107896  -0.00665066 -0.0117375 0.000861883  -0.0100429 -0.0152272 0.000429392  -0.00899953 -0.0175783 0.000238419  -0.0114669 -0.0181354 0.000372052  -0.0101187 -0.0207627 0.000173211  -0.0114433 -0.0179618 0.00101686  -0.0128218 -0.0211091 0.00093317  -0.00897223 -0.0174132 0.000755906  -0.0128546 -0.0212813 0.000304103  -0.0112132 -0.024192 9.66787e-05  -0.0142034 -0.0246646 0.000225067  -0.012275 -0.0278325 1.64509e-05  -0.014155 -0.0244926 0.00083673  -0.0154535 -0.0280997 0.000730515  -0.0111656 -0.0240273 0.000587225  -0.0155118 -0.0282663 0.000139952  -0.013311 -0.031698 -7.33137e-05  -0.0167851 -0.0320943 4.69685e-05  -0.0143213 -0.0357664 -0.000166416  -0.0167148 -0.0319313 0.000614285  -0.0179424 -0.0359696 0.000492692  -0.0132428 -0.0315387 0.000380754  -0.0180202 -0.0361262 -5.17368e-05  -0.0153062 -0.0400411 -0.00026679  -0.0192258 -0.0403683 -0.00015533  -0.0162709 -0.0445042 -0.000368118  -0.0191383 -0.0402157 0.00036633  -0.0203019 -0.0446528 0.000236154  -0.0152208 -0.0398914 0.000149965  -0.0203952 -0.0447982 -0.000262618  -0.0172122 -0.0491569 -0.000475049  -0.0215358 -0.0494208 -0.000373602  -0.0181355 -0.0539856 -0.000585198  -0.0214375 -0.0492794 0.000102282  -0.0225421 -0.0540834 -3.52859e-05  -0.0171144 -0.0490201 -9.70364e-05  -0.0226473 -0.0542162 -0.000489473  -0.0190377 -0.0589877 -0.000701189  -0.0237305 -0.0591895 -0.000607252  -0.0199234 -0.0641507 -0.000816941  -0.0236207 -0.0590616 -0.000174403  -0.024671 -0.0642003 -0.000316858  -0.0189302 -0.0588617 -0.000356317  -0.0247858 -0.0643204 -0.000729322  -0.0207895 -0.0694703 -0.000936866  -0.0258169 -0.0696142 -0.000854015  -0.0216405 -0.0749374 -0.00106132  -0.0257001 -0.0694983 -0.000461459  -0.0267001 -0.0749434 -0.000609398  -0.0206726 -0.0693568 -0.000626445  -0.0268215 -0.0750499 -0.000981092  -0.0224744 -0.0805463 -0.00118887  -0.0278052 -0.0806344 -0.00111163  -0.0232943 -0.0862895 -0.00131786  -0.02768 -0.080532 -0.000757217  -0.0286353 -0.0862534 -0.000909448  -0.0223515 -0.0804453 -0.00090766  -0.0287621 -0.0863467 -0.00124502  -0.0240958 -0.0921608 -0.00144804  -0.0296999 -0.0921947 -0.00137961  -0.0248852 -0.0981503 -0.00158226  -0.0295689 -0.0921043 -0.00106287  -0.0304797 -0.0980742 -0.00121832  -0.0239664 -0.0920712 -0.00119674  -0.0306121 -0.0981585 -0.00151932  -0.0256574 -0.104256 -0.00172019  -0.0315053 -0.10424 -0.00165892  -0.0264165 -0.110469 -0.00186038  -0.0313706 -0.104161 -0.00137353  -0.0322388 -0.110353 -0.00153148  -0.0255221 -0.104178 -0.001495  -0.0323762 -0.110427 -0.00180268  -0.0271606 -0.116783 -0.00200164  -0.0332283 -0.116719 -0.00194645  -0.0278918 -0.123193 -0.00214553  -0.0330888 -0.11665 -0.00169289  -0.0339177 -0.123042 -0.00185454  -0.0270215 -0.116715 -0.00180006  -0.034058 -0.123104 -0.00209355  -0.0286076 -0.129692 -0.00229108  -0.0348705 -0.129584 -0.00224221  -0.0293124 -0.136273 -0.00243759  -0.0347282 -0.129524 -0.00201762  -0.0355179 -0.13609 -0.00218225  -0.0284667 -0.129633 -0.00211382  -0.0356615 -0.136143 -0.00239265  -0.0300026 -0.142935 -0.0025872  -0.0364361 -0.142785 -0.00254488  -0.0306785 -0.149668 -0.00273907  -0.036289 -0.142737 -0.00234783  -0.0370417 -0.149455 -0.00251508  -0.0298567 -0.142886 -0.00243104  -0.037189 -0.149496 -0.00269747  -0.031343 -0.156467 -0.00289059  -0.0379269 -0.156281 -0.00285304  -0.0319946 -0.16333 -0.00304449  -0.0377786 -0.15624 -0.00267947  -0.0384946 -0.163089 -0.0028497  -0.0311959 -0.156428 -0.00275457  -0.0386446 -0.163125 -0.00300992  -0.0326328 -0.170252 -0.0031997  -0.0393484 -0.170029 -0.00316656  -0.0332606 -0.177223 -0.0033555  -0.0391972 -0.169997 -0.00301909  -0.0398808 -0.176958 -0.00318766  -0.0324826 -0.170219 -0.00308251  -0.0400324 -0.176984 -0.00332522  -0.033875 -0.184244 -0.00351286  -0.0407007 -0.18399 -0.00348413  -0.0344782 -0.191309 -0.00367033  -0.0405502 -0.183966 -0.00335789  -0.0411992 -0.19102 -0.00352907  -0.0337226 -0.184219 -0.00341237  -0.0413518 -0.191038 -0.00364673  -0.035069 -0.198411 -0.00383019  -0.0419881 -0.19813 -0.00380659  -0.0356495 -0.20555 -0.00398993  -0.0418346 -0.198109 -0.00370193  -0.0424557 -0.205241 -0.00387073  -0.0349164 -0.198394 -0.00374687  -0.0426095 -0.205254 -0.00396883  -0.0362177 -0.21272 -0.00414753  -0.0432158 -0.212412 -0.00413132  -0.0367756 -0.219917 -0.00430977  -0.0430615 -0.212402 -0.00404298  -0.0436537 -0.219592 -0.00421417  -0.0360646 -0.212709 -0.00408065  -0.0438077 -0.219598 -0.00429332  -0.0373235 -0.227138 -0.00447047  -0.0443845 -0.226811 -0.00445652  -0.0378599 -0.234381 -0.00463164  -0.0442305 -0.226804 -0.00438511  -0.0447929 -0.234042 -0.00455666  -0.0371685 -0.227133 -0.00441527  -0.0449479 -0.234041 -0.0046196  -0.0383871 -0.241638 -0.00479352  -0.0455 -0.241292 -0.00478256  -0.0389054 -0.248915 -0.00495577  -0.0453448 -0.241292 -0.00472617  -0.0458834 -0.24856 -0.00489485  -0.0382328 -0.24164 -0.00475013  -0.0460389 -0.248556 -0.00494528  -0.0394142 -0.256199 -0.00511765  -0.046567 -0.255835 -0.00510848  -0.0399137 -0.263494 -0.0052799  -0.0464115 -0.255837 -0.00506532  -0.0469253 -0.263128 -0.00523484  -0.0392568 -0.256203 -0.00508463  -0.0470817 -0.26312 -0.00527322  -0.0404046 -0.270793 -0.00544047  -0.0475867 -0.270415 -0.00543666  -0.0408864 -0.278097 -0.00560176  -0.0474324 -0.270423 -0.005404  -0.0479259 -0.277726 -0.0055716  -0.0402477 -0.270801 -0.00541556  -0.0480807 -0.277714 -0.00560045  -0.0413637 -0.285402 -0.0057646  -0.0485678 -0.285014 -0.00576162  -0.041832 -0.292708 -0.0059253  -0.0484102 -0.285025 -0.00573826  -0.0488853 -0.292328 -0.00590336  -0.0412064 -0.285414 -0.00574696  -0.0490427 -0.292315 -0.00592363  -0.0422926 -0.300011 -0.00608611  -0.049511 -0.299612 -0.00608432  -0.0427485 -0.30731 -0.00624585  -0.0493546 -0.299627 -0.00607121  -0.0498135 -0.306925 -0.00623274  -0.0421376 -0.300025 -0.00607467  -0.0499692 -0.306906 -0.00624609  -0.0431979 -0.314602 -0.00640547  -0.0504224 -0.314197 -0.00640666  -0.0436437 -0.32189 -0.00656545  -0.050267 -0.314215 -0.00639749  -0.0507143 -0.321501 -0.00655925  -0.0430419 -0.31462 -0.00640035  -0.050868 -0.321483 -0.00656593  -0.0440807 -0.329168 -0.00672436  -0.0513084 -0.328758 -0.00672543  -0.0445175 -0.336439 -0.00688291  -0.051156 -0.328776 -0.00671899  -0.0515928 -0.336049 -0.00688171  -0.0439258 -0.329188 -0.00672066  -0.0517464 -0.336028 -0.00688601  -0.0449474 -0.343698 -0.00704086  -0.0521784 -0.343287 -0.00704241  -0.0453761 -0.350952 -0.00719941  -0.0520246 -0.343306 -0.00704134  -0.0524514 -0.350561 -0.00719976  -0.0447919 -0.34372 -0.00704169  -0.0526066 -0.350538 -0.00719976  -0.0458016 -0.358192 -0.0073539  -0.0530353 -0.35778 -0.00735641  -0.0462284 -0.365424 -0.0075103  -0.0528786 -0.3578 -0.00735795  -0.053304 -0.365039 -0.00751519  -0.0456452 -0.358211 -0.00735533  -0.0534601 -0.365015 -0.00751162  -0.000137161 -0.000248849 5.81741e-05  -0.000182595 -0.000404596 9.41753e-05  -0.000447877 -0.00101525 0.000118494  -0.000185426 -0.000374258 0.000205636  -0.000638291 -0.00122106 0.000369549  0 0 0  0 0 0  -0.00013791 -0.00022319 0.000130296  0 0 0  -0.000600673 -0.00126523 0.000184536  -0.000840947 -0.00236556 0.000136495  -0.00129431 -0.00273672 0.000224948  -0.00136188 -0.00409138 0.000153661  -0.00130805 -0.00265649 0.000508428  -0.00211343 -0.00439826 0.000577331  -0.000846103 -0.00230524 0.000321269  -0.00206873 -0.00448638 0.000261307  -0.00192207 -0.00612912 0.000140548  -0.00298265 -0.00654024 0.000260353  -0.00251892 -0.00845432 0.000119328  -0.00299802 -0.00642017 0.000629067  -0.00391307 -0.00871068 0.000626206  -0.00192302 -0.00602925 0.000384092  -0.00389427 -0.00883785 0.000245094  -0.00312722 -0.0110205 8.2612e-05  -0.00481996 -0.0113752 0.000212908  -0.00372916 -0.0138275 3.75509e-05  -0.00481683 -0.0112303 0.00060761  -0.00571388 -0.0139974 0.000560522  -0.00311285 -0.010891 0.000344634  -0.00572404 -0.014145 0.000168562  -0.00432628 -0.0168685 -1.75238e-05  -0.00660837 -0.0171509 0.000111103  -0.00490987 -0.0201324 -7.93934e-05  -0.00657934 -0.0169954 0.000500202  -0.00743109 -0.0202266 0.000426412  -0.00429285 -0.0167206 0.000240088  -0.00746959 -0.0203832 4.72069e-05  -0.00548625 -0.0236234 -0.000149488  -0.0083068 -0.0238442 -2.63453e-05  -0.00605303 -0.027328 -0.000223994  -0.00825548 -0.0236845 0.000341296  -0.00906616 -0.0273666 0.000249505  -0.00543445 -0.0234705 9.36985e-05  -0.00912476 -0.0275219 -0.000104427  -0.00661391 -0.0312472 -0.000305653  -0.00992477 -0.0314163 -0.000190735  -0.00716722 -0.035371 -0.000389934  -0.00985479 -0.0312608 0.000150204  -0.0106294 -0.0353659 4.62532e-05  -0.00654405 -0.0310985 -7.96318e-05  -0.0107086 -0.0355149 -0.000279427  -0.0077154 -0.0396961 -0.000478864  -0.0114769 -0.0398166 -0.000374079  -0.00826222 -0.0442116 -0.000573874  -0.0113907 -0.0396694 -6.30617e-05  -0.0121409 -0.0441695 -0.000174761  -0.00763297 -0.0395527 -0.000274539  -0.0122312 -0.0443082 -0.000472069  -0.00880229 -0.0489112 -0.000671983  -0.0129753 -0.0489878 -0.000576019  -0.0093441 -0.0537903 -0.000774145  -0.0128798 -0.048852 -0.000291824  -0.0136043 -0.0537152 -0.00041151  -0.00870895 -0.048779 -0.000485778  -0.0137072 -0.053843 -0.0006814  -0.00988162 -0.0588367 -0.000879765  -0.0144302 -0.0588701 -0.000791192  -0.0104198 -0.0640467 -0.000988722  -0.0143234 -0.0587459 -0.000533819  -0.0150293 -0.0639423 -0.000659585  -0.00977778 -0.0587152 -0.000710845  -0.0151416 -0.0640575 -0.000904083  -0.0109564 -0.0694112 -0.00110137  -0.0158439 -0.0694031 -0.00102067  -0.0114907 -0.0749238 -0.00121605  -0.0157299 -0.0692914 -0.000788331  -0.0164183 -0.0747905 -0.000919342  -0.0108436 -0.0693012 -0.000948787  -0.0165368 -0.0748934 -0.00114036  -0.0120234 -0.0805756 -0.00133598  -0.0172218 -0.0805269 -0.0012635  -0.0125566 -0.0863629 -0.00145733  -0.0171002 -0.0804275 -0.00105369  -0.0177734 -0.0862018 -0.00119114  -0.0119046 -0.0804788 -0.00119925  -0.0178978 -0.086293 -0.0013895  -0.0130883 -0.0922736 -0.00158334  -0.0185673 -0.0921877 -0.00151777  -0.0136188 -0.0983073 -0.00171149  -0.0184394 -0.0920985 -0.00132811  -0.019096 -0.0981189 -0.00147188  -0.0129629 -0.0921884 -0.00146127  -0.0192251 -0.0981996 -0.00164962  -0.014147 -0.104451 -0.00184155  -0.0198778 -0.104328 -0.00178194  -0.0146753 -0.110704 -0.00197434  -0.0197465 -0.104249 -0.00161409  -0.0203876 -0.110489 -0.00176001  -0.0140166 -0.104375 -0.00173247  -0.0205218 -0.11056 -0.00191939  -0.0152018 -0.117054 -0.00210857  -0.0211576 -0.116895 -0.00205624  -0.0157264 -0.123501 -0.00224566  -0.0210214 -0.116827 -0.00190556  -0.0216473 -0.123263 -0.00205767  -0.0150669 -0.116989 -0.00201297  -0.0217859 -0.123324 -0.00219762  -0.0162493 -0.130034 -0.00238693  -0.0224071 -0.129843 -0.00233924  -0.0167699 -0.136651 -0.00252891  -0.0222667 -0.129783 -0.0022074  -0.0228772 -0.136391 -0.00236094  -0.0161103 -0.129979 -0.00230169  -0.0230197 -0.136442 -0.00248468  -0.0172875 -0.143343 -0.00267065  -0.0236247 -0.143121 -0.00263  -0.0178049 -0.150108 -0.00281632  -0.0234828 -0.143072 -0.0025152  -0.0240772 -0.149829 -0.00267112  -0.0171449 -0.143296 -0.0025965  -0.0242212 -0.14987 -0.00277734  -0.0183165 -0.156937 -0.00296378  -0.024812 -0.156687 -0.00292909  -0.0188301 -0.16383 -0.00311327  -0.0246665 -0.156646 -0.00282741  -0.0252469 -0.163532 -0.00298536  -0.0181739 -0.156899 -0.0029006  -0.0253947 -0.163565 -0.00307918  -0.0193377 -0.170776 -0.00326359  -0.0259686 -0.1705 -0.00323021  -0.0198452 -0.177776 -0.0034132  -0.0258205 -0.170467 -0.00314355  -0.0263853 -0.17746 -0.00330627  -0.0191901 -0.170745 -0.00320756  -0.0265357 -0.177486 -0.00338662  -0.0203464 -0.18482 -0.00356507  -0.0270948 -0.184521 -0.0035404  -0.0208473 -0.191907 -0.00372016  -0.0269446 -0.184494 -0.00346529  -0.0274959 -0.191577 -0.00362837  -0.0201974 -0.184795 -0.00351977  -0.0276484 -0.191598 -0.00369728  -0.0213416 -0.19903 -0.00387478  -0.0281911 -0.198713 -0.00385308  -0.0218344 -0.206191 -0.00403011  -0.0280385 -0.198694 -0.00379169  -0.028574 -0.205849 -0.00395358  -0.0211906 -0.199015 -0.0038358  -0.0287285 -0.205862 -0.00401044  -0.0223222 -0.21338 -0.00418568  -0.0292573 -0.213043 -0.00416768  -0.0228093 -0.220597 -0.00434327  -0.0291049 -0.213031 -0.00411808  -0.0296261 -0.220243 -0.004282  -0.022171 -0.213368 -0.00415349  -0.029779 -0.22025 -0.00432837  -0.0232909 -0.227833 -0.00450051  -0.0302944 -0.227481 -0.00448763  -0.0237689 -0.235092 -0.00465858  -0.0301423 -0.227475 -0.00444627  -0.030648 -0.234731 -0.00460875  -0.0231369 -0.227828 -0.00447428  -0.0308025 -0.23473 -0.00464594  -0.0242434 -0.242365 -0.00481629  -0.0313041 -0.241997 -0.00480616  -0.0247128 -0.249654 -0.0049758  -0.0311511 -0.241997 -0.00477326  -0.0316446 -0.249283 -0.00493598  -0.0240889 -0.242366 -0.00479662  -0.0317998 -0.24928 -0.00496745  -0.0251789 -0.256949 -0.0051347  -0.0322883 -0.25657 -0.00512636  -0.0256433 -0.264256 -0.0052942  -0.0321321 -0.256574 -0.00510204  -0.0326145 -0.263877 -0.00526655  -0.0250242 -0.256953 -0.00512028  -0.0327697 -0.263871 -0.00528884  -0.0261014 -0.271565 -0.00545335  -0.0332439 -0.271176 -0.00544822  -0.026556 -0.278878 -0.00561309  -0.033088 -0.271182 -0.00542915  -0.0335603 -0.278498 -0.00559294  -0.0259459 -0.271572 -0.00544393  -0.0337155 -0.278487 -0.00560963  -0.0270066 -0.28619 -0.00577223  -0.0341797 -0.285796 -0.00576949  -0.0274584 -0.293505 -0.00593102  -0.0340238 -0.285808 -0.00575435  -0.0344849 -0.29312 -0.00591779  -0.0268531 -0.286203 -0.0057646  -0.0346386 -0.293104 -0.0059284  -0.0279021 -0.300814 -0.00608897  -0.0350912 -0.300411 -0.00608718  -0.0283449 -0.308119 -0.00624824  -0.0349371 -0.300425 -0.00608039  -0.0353858 -0.307731 -0.00624084  -0.0277479 -0.300828 -0.00608575  -0.0355401 -0.307714 -0.00624835  -0.0287807 -0.315416 -0.0064069  -0.0359864 -0.31501 -0.00640786  -0.0292182 -0.322709 -0.00656378  -0.0358298 -0.315026 -0.00640118  -0.0362718 -0.32232 -0.00656199  -0.0286279 -0.315434 -0.00640368  -0.0364263 -0.322299 -0.00656629  -0.0296507 -0.329991 -0.00672233  -0.0368621 -0.329581 -0.00672257  -0.0300813 -0.337266 -0.00688016  -0.0367076 -0.329597 -0.00671971  -0.0371406 -0.336875 -0.00687993  -0.0294962 -0.330009 -0.00672197  -0.037297 -0.336852 -0.00688088  -0.0305076 -0.344527 -0.00703752  -0.0377252 -0.344114 -0.00703967  -0.0309336 -0.351778 -0.00719249  -0.0375693 -0.344132 -0.00703835  -0.0379963 -0.351388 -0.00719714  -0.0303535 -0.344545 -0.00703716  -0.0381513 -0.351366 -0.00719607  -0.0313549 -0.359017 -0.00734973  -0.0385773 -0.358606 -0.00735319  -0.03178 -0.366245 -0.00750458  -0.0384233 -0.358626 -0.0073545  -0.038846 -0.365859 -0.00750899  -0.0312006 -0.359037 -0.00734937  -0.039001 -0.365838 -0.00750768  -2.07126e-06 -0.000144392 -7.27177e-06  -5.18039e-05 -0.000174165 3.19481e-05  -4.59701e-06 -0.000846207 -7.98702e-06  -5.23925e-05 -0.000152946 7.04527e-05  -0.000178769 -0.000824362 0.00011003  0 0 0  0 0 0  -2.71946e-06 -0.000127792 -8.46386e-06  0 0 0  -0.00014805 -0.000860602 5.85318e-05  3.73572e-05 -0.00215554 -4.02927e-05  -0.000355184 -0.00220719 5.22137e-05  6.11842e-05 -0.00382259 -5.62668e-05  -0.000359252 -0.00214463 0.000146866  -0.00059171 -0.00378823 0.000147581  4.01586e-05 -0.0021036 -4.39882e-05  -0.000563428 -0.00386176 5.1856e-05  9.71854e-05 -0.00588277 -9.57251e-05  -0.000860751 -0.00593022 2.36034e-05  0.000118285 -0.0082117 -0.000128508  -0.000858784 -0.00583026 0.0001477  -0.00114775 -0.00813603 0.000121117  0.000111431 -0.00579271 -9.83477e-05  -0.00114414 -0.00824651 -3.33786e-06  0.000125647 -0.0108207 -0.000172853  -0.00146109 -0.0108417 -4.50611e-05  0.000121534 -0.0136605 -0.000217915  -0.0014441 -0.0107131 8.67844e-05  -0.0017482 -0.0135349 4.1008e-05  0.000152588 -0.0106992 -0.000174046  -0.00177005 -0.013668 -8.95262e-05  0.000100911 -0.0167401 -0.000270367  -0.00208563 -0.0167317 -0.000145197  6.97374e-05 -0.0200445 -0.000326514  -0.00204939 -0.0165878 -1.49012e-05  -0.00235492 -0.0198765 -7.67708e-05  0.000142992 -0.0166027 -0.000272393  -0.00239974 -0.0200215 -0.000203252  2.3365e-05 -0.023569 -0.000389338  -0.00271463 -0.023531 -0.000270724  -3.85046e-05 -0.0273104 -0.000456095  -0.00265998 -0.0233809 -0.000148177  -0.00296915 -0.0271121 -0.000223994  7.80821e-05 -0.0234243 -0.000391364  -0.00303113 -0.0272584 -0.000341058  -0.000116169 -0.0312606 -0.000528574  -0.00335073 -0.0311959 -0.000417829  -0.000209391 -0.0354179 -0.00060463  -0.00328141 -0.0310489 -0.000305414  -0.00359881 -0.0351983 -0.000391126  -4.73261e-05 -0.0311166 -0.000530958  -0.0036754 -0.0353398 -0.000498891  -0.000316978 -0.0397703 -0.000685096  -0.00400418 -0.039681 -0.000584483  -0.000440955 -0.0443191 -0.000770688  -0.00392181 -0.0395403 -0.000482559  -0.00425124 -0.0440821 -0.000577092  -0.000237167 -0.0396342 -0.000690341  -0.00433934 -0.0442154 -0.000673532  -0.000579596 -0.049048 -0.000859141  -0.00468028 -0.048932 -0.000767708  -0.000735402 -0.0539579 -0.000955105  -0.00458765 -0.0488016 -0.000675201  -0.00493062 -0.0537049 -0.000779867  -0.000491142 -0.048921 -0.000865698  -0.00502789 -0.0538274 -0.000866175  -0.000905395 -0.0590336 -0.00105262  -0.00538278 -0.058892 -0.000967741  -0.00109303 -0.064275 -0.00115359  -0.00528228 -0.0587715 -0.000884652  -0.0056392 -0.064007 -0.000993967  -0.00080812 -0.0589165 -0.00105834  -0.00574493 -0.0641195 -0.00107265  -0.00129282 -0.069667 -0.00125718  -0.00611305 -0.0695002 -0.00118077  -0.00150728 -0.0752109 -0.00136745  -0.00600398 -0.0693912 -0.00110734  -0.0063746 -0.0749285 -0.00122404  -0.00118697 -0.0695617 -0.00126588  -0.00648797 -0.0750293 -0.00129426  -0.0017364 -0.0808909 -0.00147808  -0.0068692 -0.0806981 -0.00140929  -0.00197947 -0.0867072 -0.00159371  -0.00675297 -0.0806004 -0.00134325  -0.00713825 -0.08641 -0.00146592  -0.00162387 -0.0807955 -0.00148463  -0.0072571 -0.0865012 -0.00152695  -0.00223517 -0.0926463 -0.00171185  -0.00764954 -0.092428 -0.00164759  -0.00250375 -0.0987067 -0.00183189  -0.00752997 -0.0923417 -0.00159085  -0.00792587 -0.0983973 -0.00171757  -0.0021162 -0.092561 -0.0017184  -0.00805032 -0.0984771 -0.00177288  -0.00278437 -0.104877 -0.00195646  -0.00845551 -0.104634 -0.00189888  -0.00307631 -0.111156 -0.00208461  -0.00832915 -0.104559 -0.00184727  -0.00873697 -0.110834 -0.00198102  -0.00266111 -0.104804 -0.00196421  -0.00886691 -0.110902 -0.00203025  -0.00337887 -0.117531 -0.00221205  -0.00928211 -0.117267 -0.00216091  -0.00369573 -0.124003 -0.00234246  -0.0091517 -0.117202 -0.00211585  -0.00956738 -0.123669 -0.00225389  -0.00325084 -0.117467 -0.0022192  -0.00970197 -0.123727 -0.00229669  -0.00401831 -0.130558 -0.00247657  -0.010125 -0.130273 -0.00243235  -0.00435317 -0.1372 -0.00261378  -0.00998974 -0.130217 -0.00239289  -0.0104141 -0.136855 -0.00253546  -0.00388658 -0.130505 -0.00248432  -0.0105519 -0.136903 -0.00257289  -0.00469375 -0.143912 -0.00275075  -0.0109839 -0.143607 -0.00271142  -0.00504661 -0.150698 -0.00289094  -0.0108449 -0.143562 -0.00267708  -0.0112772 -0.150342 -0.00282347  -0.00455832 -0.143866 -0.0027585  -0.0114181 -0.150384 -0.00285554  -0.0054059 -0.157547 -0.00303233  -0.0118537 -0.157225 -0.00299907  -0.00577331 -0.164458 -0.00317669  -0.011713 -0.157185 -0.00296867  -0.012151 -0.164095 -0.00312006  -0.0052669 -0.15751 -0.00303984  -0.0122936 -0.164127 -0.00314629  -0.00614548 -0.171423 -0.00332117  -0.0127366 -0.171084 -0.00329304  -0.00652647 -0.178439 -0.00346816  -0.0125916 -0.171053 -0.00326777  -0.0130334 -0.178067 -0.00341976  -0.00600457 -0.171393 -0.0033294  -0.0131798 -0.178092 -0.00344265  -0.00691247 -0.185498 -0.00361562  -0.0136232 -0.185146 -0.00359201  -0.00730467 -0.192601 -0.00376618  -0.0134764 -0.185122 -0.00357068  -0.0139208 -0.192224 -0.00372362  -0.00676823 -0.185475 -0.00362313  -0.0140686 -0.19224 -0.00374484  -0.00769925 -0.199739 -0.00391603  -0.0145152 -0.199374 -0.00389731  -0.00810242 -0.206914 -0.00406826  -0.0143661 -0.199356 -0.00387931  -0.0148149 -0.20653 -0.00403428  -0.00755453 -0.199724 -0.00392246  -0.0149641 -0.206541 -0.00405014  -0.00850677 -0.214114 -0.00422037  -0.0154092 -0.213738 -0.00420415  -0.00891447 -0.22134 -0.00437474  -0.0152612 -0.213726 -0.00418913  -0.0157068 -0.220953 -0.00434518  -0.00835896 -0.214103 -0.00422692  -0.0158575 -0.22096 -0.0043602  -0.00932622 -0.228589 -0.00452864  -0.016305 -0.228204 -0.00451553  -0.00974202 -0.235858 -0.00468147  -0.0161536 -0.228198 -0.00450349  -0.016598 -0.235468 -0.00466299  -0.00917697 -0.228585 -0.00453329  -0.0167522 -0.235469 -0.00467288  -0.0101595 -0.243139 -0.00483906  -0.0171974 -0.242746 -0.00482845  -0.0105779 -0.250434 -0.00499475  -0.0170467 -0.242745 -0.00481951  -0.0174897 -0.250041 -0.00497758  -0.0100083 -0.243138 -0.00484276  -0.0176411 -0.250037 -0.00498497  -0.0109975 -0.257738 -0.00514972  -0.0180855 -0.257339 -0.00514281  -0.0114214 -0.265053 -0.00530624  -0.0179324 -0.257343 -0.00513661  -0.0183768 -0.264658 -0.0052973  -0.0108452 -0.257743 -0.00515532  -0.0185294 -0.26465 -0.00530231  -0.0118437 -0.272368 -0.00546348  -0.01897 -0.271963 -0.00545871  -0.0122681 -0.279687 -0.00562155  -0.0188179 -0.271971 -0.00545514  -0.0192549 -0.27929 -0.00561392  -0.0116913 -0.272376 -0.0054673  -0.0194087 -0.27928 -0.00561738  -0.0126908 -0.287003 -0.00577664  -0.0198481 -0.286594 -0.00577557  -0.013119 -0.294322 -0.00593615  -0.0196924 -0.286606 -0.00577128  -0.0201306 -0.293925 -0.00593114  -0.0125391 -0.287015 -0.00578105  -0.0202851 -0.293909 -0.0059334  -0.0135422 -0.301632 -0.00609207  -0.020721 -0.301221 -0.00608981  -0.0139678 -0.308943 -0.00624967  -0.0205667 -0.301234 -0.00609004  -0.0209994 -0.308547 -0.006248  -0.0133886 -0.301648 -0.00609422  -0.0211546 -0.308528 -0.00625062  -0.0143919 -0.316242 -0.00640631  -0.0215867 -0.315829 -0.00640833  -0.0148163 -0.323537 -0.00656319  -0.0214307 -0.315846 -0.00640619  -0.0218613 -0.323141 -0.00656497  -0.0142391 -0.316259 -0.00640833  -0.022017 -0.323122 -0.00656545  -0.015239 -0.33082 -0.00672007  -0.0224442 -0.330405 -0.00672102  -0.0156643 -0.338097 -0.00687814  -0.0222886 -0.330422 -0.00671995  -0.022717 -0.3377 -0.00687897  -0.0150878 -0.330838 -0.00672233  -0.022872 -0.337681 -0.00688028  -0.0160863 -0.345358 -0.00703323  -0.0232966 -0.344943 -0.00703514  -0.0165064 -0.352612 -0.00718904  -0.0231421 -0.344962 -0.00703382  -0.0235646 -0.352218 -0.00719178  -0.0159314 -0.345379 -0.00703406  -0.0237184 -0.352198 -0.00719237  -0.0169253 -0.35985 -0.00734484  -0.0241413 -0.359434 -0.00734639  -0.0173442 -0.367076 -0.00749731  -0.0239882 -0.359452 -0.0073489  -0.0244081 -0.366684 -0.00750446  -0.0167727 -0.35987 -0.00734425  -0.0245619 -0.366658 -0.00750148  0.000130586 -0.000278294 -7.09295e-05  7.53179e-05 -0.000189424 -2.95639e-05  0.000430301 -0.00110281 -0.000130773  7.53477e-05 -0.000175893 -6.61612e-05  0.000249654 -0.000873327 -0.000151396  0 0 0  0 0 0  0.000130512 -0.000266373 -0.000145793  0 0 0  0.000275984 -0.000905216 -6.56843e-05  0.000916064 -0.00252157 -0.000211716  0.000506461 -0.00227743 -0.000120878  0.00148699 -0.00422066 -0.000260711  0.000511587 -0.00222141 -0.00021863  0.000815392 -0.00386363 -0.000282168  0.000925273 -0.00246561 -0.000400901  0.00082463 -0.00393367 -0.000156999  0.00210938 -0.00633186 -0.000324011  0.00112391 -0.00602823 -0.000208735  0.00274593 -0.00865716 -0.000368118  0.00114328 -0.00593483 -0.000336409  0.00146937 -0.00824815 -0.000383258  0.0021379 -0.00623691 -0.000570536  0.00144917 -0.00835097 -0.000247955  0.00336117 -0.0112793 -0.000418305  0.00174975 -0.0109687 -0.000296354  0.00395507 -0.0141185 -0.00046432  0.00178471 -0.0108479 -0.00043118  0.00207675 -0.0136884 -0.000475168  0.00340444 -0.011157 -0.000682235  0.00203723 -0.0138161 -0.000342011  0.00450945 -0.017201 -0.000512719  0.00230187 -0.0168988 -0.000394225  0.00502908 -0.0205082 -0.000564694  0.00234938 -0.0167621 -0.000525355  0.00259471 -0.0200709 -0.000573516  0.00456131 -0.0170654 -0.000773549  0.00254226 -0.0202087 -0.000446677  0.0055083 -0.0240349 -0.000620008  0.00275761 -0.0237382 -0.000506282  0.00595099 -0.027785 -0.000679493  0.00281614 -0.0235946 -0.000630856  0.00301051 -0.027347 -0.000688434  0.00556773 -0.0238951 -0.000866413  0.00294566 -0.0274878 -0.000569344  0.00635368 -0.0317404 -0.000742316  0.00311017 -0.0314431 -0.00063777  0.0067203 -0.0359086 -0.000811577  0.0031786 -0.031301 -0.000754118  0.00332159 -0.035473 -0.000821352  0.00642157 -0.0316024 -0.000972629  0.00324714 -0.0356092 -0.000710011  0.0070523 -0.0402712 -0.000882626  0.00336009 -0.0399686 -0.000786185  0.00734854 -0.0448325 -0.000959873  0.00343794 -0.0398323 -0.000893712  0.00352883 -0.0443967 -0.000971437  0.00712866 -0.0401393 -0.00109589  0.0034461 -0.0445252 -0.000867367  0.00761223 -0.0495729 -0.00104022  0.00350773 -0.0492623 -0.00095284  0.00784135 -0.0544966 -0.00112689  0.0035938 -0.049136 -0.00105226  0.00363648 -0.0540617 -0.00113857  0.00769544 -0.0494495 -0.00123727  0.00354481 -0.0541815 -0.00104332  0.00803888 -0.059584 -0.00121558  0.00355911 -0.0592655 -0.00113523  0.00820339 -0.0648419 -0.00131023  0.00365376 -0.0591486 -0.00122821  0.00364769 -0.0644077 -0.00132263  0.00813007 -0.0594729 -0.00139654  0.0035497 -0.0645157 -0.00123274  0.00833905 -0.0702483 -0.0014075  0.00351679 -0.0699166 -0.00133348  0.00844467 -0.0758076 -0.00150728  0.00361824 -0.0698124 -0.00141943  0.00356793 -0.0753724 -0.00152123  0.0084374 -0.0701456 -0.00157249  0.00346148 -0.0754711 -0.00143957  0.00852144 -0.0815013 -0.00161326  0.00338542 -0.0811597 -0.0015465  0.00856817 -0.0873318 -0.00172174  0.00349379 -0.081065 -0.00162458  0.00340056 -0.0868981 -0.00173414  0.00862586 -0.0814086 -0.00176382  0.00328839 -0.0869835 -0.00165939  0.00859022 -0.0932846 -0.00183332  0.00317216 -0.0929322 -0.0017736  0.00858223 -0.0993598 -0.00194716  0.0032866 -0.0928477 -0.00184476  0.00315213 -0.0989252 -0.00196004  0.00870025 -0.0932043 -0.00197101  0.00303447 -0.0990016 -0.00189161  0.0085516 -0.105544 -0.00206494  0.00287902 -0.10518 -0.00201106  0.00849724 -0.111837 -0.00218546  0.00299871 -0.105106 -0.00207531  0.00282741 -0.111402 -0.00219703  0.00866878 -0.105472 -0.00218952  0.00270414 -0.111468 -0.00213528  0.00841737 -0.118225 -0.0023067  0.00251305 -0.117851 -0.00226092  0.00831413 -0.124709 -0.00243485  0.00263774 -0.117786 -0.00231946  0.00243247 -0.124274 -0.00244522  0.0085386 -0.118163 -0.00242066  0.00230408 -0.12433 -0.00239074  0.00818849 -0.131278 -0.0025624  0.00208044 -0.130894 -0.00252163  0.00804257 -0.137929 -0.00269413  0.00221014 -0.130839 -0.00257397  0.00197244 -0.137495 -0.00270426  0.0083158 -0.131225 -0.00266159  0.00184035 -0.137541 -0.00265408  0.00787783 -0.144652 -0.00282562  0.00158572 -0.14426 -0.0027895  0.00769281 -0.151451 -0.00296092  0.00171924 -0.144215 -0.00283504  0.00145316 -0.151014 -0.00297213  0.00800824 -0.144608 -0.00291598  0.0013175 -0.151053 -0.0029273  0.00748754 -0.158309 -0.00309885  0.00103474 -0.15791 -0.0030669  0.00726652 -0.165229 -0.00323713  0.00117207 -0.157871 -0.00310874  0.000880718 -0.164795 -0.00324738  0.00762224 -0.158271 -0.00317597  0.000740528 -0.164825 -0.00320864  0.00702882 -0.172201 -0.00337851  0.000435829 -0.171795 -0.00335097  0.00677419 -0.179225 -0.00352013  0.000577211 -0.171765 -0.00338697  0.00026083 -0.178793 -0.00353098  0.00716615 -0.172172 -0.00344837  0.00012064 -0.178816 -0.0034945  0.00650692 -0.186291 -0.00366366  -0.000205755 -0.185881 -0.00364029  0.00622368 -0.193403 -0.00380969  -6.4373e-05 -0.185856 -0.00367177  -0.000401258 -0.192972 -0.00381839  0.00664663 -0.18627 -0.00372458  -0.000545263 -0.192988 -0.00378859  0.00592709 -0.200546 -0.00395584  -0.000890255 -0.20013 -0.00393772  0.00561786 -0.207726 -0.00410342  -0.000746727 -0.200114 -0.00396442  -0.00109911 -0.207296 -0.00411248  0.00607085 -0.200531 -0.00400782  -0.00124264 -0.207307 -0.00408566  0.00530005 -0.214931 -0.00425208  -0.00160694 -0.214512 -0.00423598  0.00496817 -0.222164 -0.00440288  -0.00146174 -0.2145 -0.00426054  -0.00182986 -0.221738 -0.00441086  0.00544453 -0.214921 -0.00429559  -0.00197697 -0.221742 -0.00439024  0.00462627 -0.229415 -0.00455356  -0.00235319 -0.228992 -0.00454128  0.00427699 -0.236686 -0.00470436  -0.00220537 -0.228987 -0.00456142  -0.0025878 -0.236265 -0.00471354  0.00477457 -0.229411 -0.00458968  -0.00273681 -0.236264 -0.00469542  0.00391889 -0.243971 -0.00485587  -0.00312424 -0.243548 -0.0048486  0.00354981 -0.251271 -0.00501084  -0.00297475 -0.243547 -0.00486398  -0.00336671 -0.25085 -0.00501716  0.00406504 -0.243971 -0.00488853  -0.00351787 -0.250847 -0.00500429  0.00317574 -0.258576 -0.00516462  -0.00391555 -0.258152 -0.00515795  0.0027957 -0.26589 -0.0053184  -0.00376415 -0.258157 -0.00517023  -0.00416422 -0.265474 -0.00532413  0.00332522 -0.258581 -0.0051887  -0.00431633 -0.265464 -0.00531304  0.00240731 -0.273206 -0.00547361  -0.00472093 -0.272783 -0.00546801  0.00201488 -0.280528 -0.00562787  -0.00457001 -0.272792 -0.00547862  -0.0049789 -0.280116 -0.00563371  0.00255823 -0.273216 -0.00549006  -0.00513053 -0.280102 -0.00562513  0.00161815 -0.287845 -0.00578308  -0.00554013 -0.287422 -0.00578094  0.0012176 -0.295164 -0.00593781  -0.00538921 -0.287432 -0.00578868  -0.00579953 -0.294755 -0.0059433  0.00176859 -0.287857 -0.00579643  -0.00595117 -0.29474 -0.0059377  0.000813007 -0.302475 -0.00609517  -0.00636673 -0.302051 -0.00609446  0.000405073 -0.309785 -0.00624931  -0.00621438 -0.302065 -0.00609779  -0.00663066 -0.309379 -0.00625479  0.000963449 -0.302489 -0.0061053  -0.00678301 -0.30936 -0.00625014  -5.24521e-06 -0.317083 -0.00640523  -0.0072 -0.316661 -0.00640631  -0.000417471 -0.324378 -0.00656104  -0.00704932 -0.316677 -0.00641048  -0.00746512 -0.323975 -0.00656509  0.000148058 -0.317101 -0.00641322  -0.00761914 -0.323957 -0.00656366  -0.00083065 -0.331662 -0.0067178  -0.00803781 -0.33124 -0.00671899  -0.0012486 -0.338936 -0.00687313  -0.00788665 -0.331258 -0.00672019  -0.00830483 -0.338536 -0.00687587  -0.000678301 -0.33168 -0.00672245  -0.00845671 -0.338516 -0.00687563  -0.00166249 -0.346199 -0.00702596  -0.0088768 -0.34578 -0.00703132  -0.00208306 -0.353454 -0.00718188  -0.00872445 -0.345797 -0.00703108  -0.0091424 -0.353054 -0.00718546  -0.0015111 -0.34622 -0.00703013  -0.00929713 -0.353034 -0.00718701  -0.00249958 -0.360692 -0.00733876  -0.00971484 -0.36027 -0.0073421  -0.00291443 -0.36792 -0.00749183  -0.00956249 -0.36029 -0.00734079  -0.00997758 -0.367517 -0.00749791  -0.00234652 -0.36071 -0.00733733  -0.0101295 -0.367494 -0.00749576  0.000293322 -0.000726402 -0.000133038  0.000229202 -0.000459433 -8.78572e-05  0.000976622 -0.001858 -0.000248432  0.000231482 -0.000450432 -0.00019896  0.000739262 -0.00135934 -0.000402689  0 0 0  0 0 0  0.000297606 -0.000710666 -0.000273347  0 0 0  0.000760183 -0.00139165 -0.000183821  0.00197372 -0.00352979 -0.000371695  0.00145914 -0.00293666 -0.000284195  0.00315395 -0.00532037 -0.000452638  0.00147475 -0.00287759 -0.000570297  0.00233489 -0.00460601 -0.000694871  0.00199036 -0.00345755 -0.000735402  0.00231957 -0.00468051 -0.000355244  0.00437644 -0.00747782 -0.000536203  0.00322592 -0.00681448 -0.000429153  0.00562805 -0.00979251 -0.000591636  0.00326279 -0.00671631 -0.000801086  0.00419781 -0.00903887 -0.000867963  0.00441676 -0.00737005 -0.00101674  0.00415465 -0.00914532 -0.000480652  0.00683674 -0.0123809 -0.000648379  0.00506884 -0.0117491 -0.000534415  0.00800663 -0.0151884 -0.000695348  0.00511655 -0.0116271 -0.000931859  0.00599843 -0.0144563 -0.000973344  0.00689134 -0.0122544 -0.00116682  0.00594205 -0.0145834 -0.00058198  0.00911695 -0.0182296 -0.000741363  0.00677907 -0.0176447 -0.000629425  0.0101686 -0.0215109 -0.000788927  0.00683671 -0.0175092 -0.00101781  0.00762445 -0.0208104 -0.00105667  0.00917828 -0.0180937 -0.00125527  0.00756383 -0.0209453 -0.000679374  0.0111622 -0.0250087 -0.000837564  0.0083034 -0.0244599 -0.000730515  0.0120945 -0.0287412 -0.000890732  0.00836486 -0.0243195 -0.00109804  0.0090571 -0.0280688 -0.00114179  0.0112265 -0.02487 -0.00132477  0.00899041 -0.028205 -0.000786901  0.0129718 -0.0326808 -0.000945091  0.00963271 -0.032154 -0.000846267  0.0137906 -0.0368407 -0.00100601  0.00970036 -0.0320158 -0.00118816  0.0102987 -0.036189 -0.00123906  0.0130399 -0.0325448 -0.00139999  0.0102261 -0.036321 -0.000911355  0.0145561 -0.0411925 -0.00106943  0.0107764 -0.0406804 -0.000978231  0.0152669 -0.0457485 -0.00113928  0.0108505 -0.0405492 -0.0012939  0.0113597 -0.0451165 -0.00135493  0.0146286 -0.0410643 -0.00149071  0.0112809 -0.0452412 -0.0010519  0.0159277 -0.0504835 -0.00121331  0.011744 -0.0499815 -0.00112844  0.0165375 -0.0554076 -0.00129056  0.0118262 -0.0498574 -0.00141835  0.0122498 -0.0547909 -0.00148833  0.0160072 -0.0503649 -0.00159895  0.0121652 -0.0549057 -0.00121069  0.0171 -0.0604923 -0.00137019  0.0125449 -0.0599947 -0.00129449  0.0176122 -0.0657504 -0.00145924  0.0126321 -0.0598828 -0.00156116  0.0129765 -0.0651492 -0.00164008  0.0171862 -0.0603841 -0.00172639  0.0128843 -0.065254 -0.00138569  0.0180802 -0.0711563 -0.00154805  0.0131873 -0.0706628 -0.00147831  0.0185025 -0.0767162 -0.00164247  0.0132804 -0.0705597 -0.00172269  0.0135492 -0.0761294 -0.00181007  0.0181729 -0.0710568 -0.00187099  0.0134501 -0.0762219 -0.00157654  0.0188818 -0.0824097 -0.00173879  0.0136795 -0.0819179 -0.00167763  0.0192162 -0.0882437 -0.00184214  0.0137804 -0.0818276 -0.00190008  0.0139766 -0.0876693 -0.00199568  0.0189805 -0.0823216 -0.00203514  0.0138713 -0.0877521 -0.00178385  0.019511 -0.0941956 -0.00194669  0.0140291 -0.0937071 -0.00189173  0.0197662 -0.100274 -0.00205588  0.0141364 -0.0936254 -0.00209165  0.0142643 -0.0997114 -0.00219548  0.0196172 -0.0941186 -0.00221491  0.0141534 -0.099785 -0.00200355  0.0199826 -0.106458 -0.00216722  0.0142469 -0.10597 -0.00211656  0.0201595 -0.112753 -0.00228262  0.0143604 -0.105898 -0.00229859  0.0144253 -0.112202 -0.00240779  0.020094 -0.10639 -0.00240898  0.0143088 -0.112265 -0.00223529  0.020303 -0.119141 -0.00239873  0.0143408 -0.118656 -0.00235426  0.0204066 -0.125629 -0.00251973  0.0144596 -0.118593 -0.00251806  0.0144638 -0.125088 -0.0026325  0.0204179 -0.119082 -0.00261629  0.0143416 -0.125143 -0.00247788  0.0204793 -0.132196 -0.00264299  0.014317 -0.131712 -0.00260401  0.02052 -0.138849 -0.00276816  0.0144415 -0.13166 -0.0027498  0.0143909 -0.138321 -0.00286937  0.0206017 -0.132145 -0.00283527  0.0142627 -0.138366 -0.00273228  0.0205286 -0.145571 -0.00289607  0.0141866 -0.145091 -0.00286186  0.0205071 -0.152371 -0.0030278  0.014313 -0.145048 -0.00299156  0.0142133 -0.151852 -0.00311625  0.0206547 -0.14553 -0.00306773  0.0140834 -0.151889 -0.00299692  0.020458 -0.159227 -0.00315905  0.0139568 -0.158748 -0.00313008  0.0203788 -0.166149 -0.00329399  0.0140874 -0.158711 -0.00324357  0.0139403 -0.165642 -0.00337303  0.020587 -0.159194 -0.00330985  0.0138052 -0.165672 -0.00326788  0.0202749 -0.173118 -0.00342941  0.0136361 -0.172642 -0.00340509  0.020144 -0.180142 -0.00356901  0.0137722 -0.172614 -0.00350273  0.0135825 -0.179646 -0.00363791  0.0204074 -0.173091 -0.00356138  0.0134449 -0.179668 -0.003546  0.0199904 -0.187206 -0.003708  0.0132339 -0.186735 -0.00368798  0.0198131 -0.194317 -0.00384974  0.0133727 -0.186712 -0.00377309  0.0131445 -0.193829 -0.00390887  0.0201287 -0.187187 -0.00382042  0.0130048 -0.193846 -0.00383103  0.0196168 -0.201457 -0.00399208  0.0127604 -0.20099 -0.00397682  0.0193987 -0.208634 -0.0041368  0.0128999 -0.200974 -0.00404704  0.0126383 -0.208158 -0.00418854  0.0197575 -0.201443 -0.00408924  0.0124953 -0.208168 -0.00412142  0.0191605 -0.215837 -0.00428176  0.012218 -0.215372 -0.00426781  0.0189047 -0.223066 -0.00442815  0.0123594 -0.215363 -0.00433004  0.0120671 -0.222602 -0.00447059  0.0193031 -0.215829 -0.00436366  0.0119228 -0.222606 -0.00441635  0.0186307 -0.230315 -0.00457716  0.0116167 -0.229855 -0.00456536  0.018342 -0.237585 -0.00472593  0.0117631 -0.229852 -0.00461686  0.0114448 -0.237129 -0.00476193  0.0187745 -0.230313 -0.00464368  0.0112984 -0.237129 -0.00471616  0.0180385 -0.244865 -0.00487483  0.0109677 -0.244411 -0.00486815  0.0177197 -0.252162 -0.00502598  0.0111141 -0.244411 -0.00490785  0.0107737 -0.251714 -0.00505483  0.0181835 -0.244867 -0.00492918  0.0106261 -0.251709 -0.00502062  0.0173898 -0.259462 -0.00517595  0.010273 -0.259013 -0.00517035  0.017045 -0.266775 -0.00532794  0.010422 -0.259018 -0.00520217  0.010062 -0.266337 -0.00535345  0.0175369 -0.259468 -0.00521863  0.00991225 -0.266327 -0.00532615  0.0166945 -0.274086 -0.00548077  0.00954318 -0.273643 -0.00547826  0.0163329 -0.281404 -0.00563276  0.00969148 -0.27365 -0.0055027  0.00931454 -0.280974 -0.00565243  0.0168419 -0.274097 -0.0055145  0.00916648 -0.280963 -0.00563157  0.0159605 -0.288717 -0.00578678  0.00878239 -0.288278 -0.0057863  0.0155802 -0.296034 -0.00594282  0.00892997 -0.288289 -0.00580335  0.00854182 -0.295611 -0.0059557  0.0161083 -0.288731 -0.00581217  0.00839281 -0.295596 -0.00594282  0.0151939 -0.30334 -0.00609529  0.00799632 -0.302907 -0.00609469  0.0148013 -0.310647 -0.00625145  0.00814748 -0.30292 -0.00610805  0.00774908 -0.310232 -0.00626111  0.0153437 -0.303356 -0.00611341  0.00759697 -0.310213 -0.00625193  0.0144019 -0.317943 -0.00640333  0.0071919 -0.317512 -0.00640535  0.0139995 -0.325234 -0.00655842  0.00734353 -0.317528 -0.00641441  0.00693774 -0.324824 -0.00656676  0.0145547 -0.31796 -0.00641608  0.00678563 -0.324806 -0.00656176  0.0135949 -0.332514 -0.00671494  0.00637531 -0.332087 -0.00671673  0.0131824 -0.339787 -0.00686789  0.00652885 -0.332103 -0.0067203  0.00611496 -0.339382 -0.0068742  0.0137455 -0.332532 -0.00672162  0.00596189 -0.339361 -0.00687087  0.0127733 -0.347046 -0.00702274  0.00554943 -0.346622 -0.00702393  0.0123582 -0.354301 -0.00717711  0.00570297 -0.346641 -0.00702703  0.00528646 -0.353898 -0.00717998  0.0129232 -0.347066 -0.0070256  0.00513363 -0.353878 -0.00718176  0.0119431 -0.361541 -0.00733209  0.0047183 -0.361116 -0.00733602  0.0115285 -0.368776 -0.00748599  0.00486946 -0.361137 -0.00733411  0.00445843 -0.368366 -0.00748575  0.0120945 -0.361562 -0.00733173  0.00430632 -0.368348 -0.00749028  0.000560217 -0.00175875 -0.000198126  0.000479683 -0.00111538 -0.00014472  0.00190902 -0.00338852 -0.000362396  0.0004825 -0.00111538 -0.000330806  0.0014417 -0.00246662 -0.000638604  0 0 0  0 0 0  0.000572279 -0.00172621 -0.000394464  0 0 0  0.00145029 -0.0025019 -0.000296474  0.00353381 -0.00533843 -0.00051558  0.00272323 -0.00430882 -0.000435591  0.00537747 -0.00722986 -0.000627756  0.00274913 -0.00423908 -0.000897527  0.00421491 -0.00610262 -0.00107801  0.00355479 -0.00525039 -0.00104654  0.00417379 -0.00618899 -0.000537634  0.00719529 -0.00932384 -0.000727296  0.00571057 -0.00830901 -0.000630975  0.00901303 -0.0116012 -0.000796318  0.00575909 -0.00820053 -0.00123298  0.0072943 -0.0105099 -0.00132132  0.00724193 -0.00920749 -0.00143206  0.00723213 -0.010627 -0.000696898  0.0107758 -0.0140817 -0.00085938  0.00873598 -0.0131595 -0.000756741  0.012474 -0.0168276 -0.000909448  0.00879693 -0.0130294 -0.00140178  0.0102403 -0.0158117 -0.0014466  0.01084 -0.0139493 -0.00162327  0.0101724 -0.0159441 -0.00080514  0.0141087 -0.0197886 -0.00095439  0.0115532 -0.0189469 -0.000850677  0.0156624 -0.0230184 -0.000999689  0.0116179 -0.0188071 -0.00148833  0.0129284 -0.0220676 -0.00151753  0.0141771 -0.0196494 -0.00171423  0.0128607 -0.0222044 -0.000897765  0.0171485 -0.0264646 -0.00104046  0.0141025 -0.0256798 -0.000942469  0.0185545 -0.0301614 -0.0010891  0.0141686 -0.0255393 -0.00154769  0.0153435 -0.029261 -0.00157642  0.017218 -0.0263256 -0.00176418  0.0152747 -0.0293958 -0.000992894  0.0198898 -0.0340645 -0.00113511  0.0163829 -0.033319 -0.00104272  0.0211489 -0.0381988 -0.00118923  0.0164508 -0.0331825 -0.00160789  0.0174955 -0.0373389 -0.00164342  0.0199615 -0.0339305 -0.00181234  0.0174234 -0.0374678 -0.00110161  0.0223396 -0.0425237 -0.00124454  0.0184029 -0.0418085 -0.00115991  0.023458 -0.047063 -0.00130796  0.0184754 -0.0416796 -0.00168133  0.0193949 -0.0462373 -0.00172675  0.022415 -0.0423982 -0.00187171  0.0193193 -0.0463583 -0.00122619  0.0245111 -0.051775 -0.00137198  0.0201757 -0.0510842 -0.0012939  0.025493 -0.0566849 -0.0014447  0.0202546 -0.0509651 -0.00177372  0.0210561 -0.0558912 -0.00182879  0.0245895 -0.0516602 -0.00194836  0.0209724 -0.0560012 -0.00136983  0.026413 -0.0617528 -0.0015173  0.0217146 -0.0610812 -0.00144672  0.0272679 -0.0669974 -0.00159824  0.0218003 -0.0609712 -0.00188661  0.0224899 -0.0662321 -0.00194919  0.0264987 -0.0616473 -0.00204611  0.0223997 -0.0663326 -0.00152934  0.0280627 -0.0723867 -0.00168061  0.0230319 -0.0717322 -0.0016166  0.028795 -0.077937 -0.00176919  0.0231246 -0.0716334 -0.00201678  0.0237061 -0.0771985 -0.00209045  0.0281543 -0.0722914 -0.00216234  0.0236111 -0.0772887 -0.00170815  0.0294712 -0.083616 -0.00186121  0.0241392 -0.0829772 -0.00180268  0.0300876 -0.0894416 -0.00195634  0.0242357 -0.0828882 -0.00216722  0.0247183 -0.0887272 -0.00224745  0.0295689 -0.0835313 -0.00229812  0.0246161 -0.0888079 -0.00190127  0.030652 -0.0953789 -0.00205445  0.0250466 -0.0947544 -0.00200295  0.0311604 -0.101449 -0.00215828  0.0251507 -0.0946761 -0.00233257  0.0255355 -0.10076 -0.00242269  0.0307562 -0.095304 -0.0024519  0.0254283 -0.10083 -0.00210929  0.0316195 -0.10762 -0.0022645  0.0257658 -0.107009 -0.0022161  0.0320245 -0.113906 -0.00237393  0.0258753 -0.106941 -0.0025146  0.0261722 -0.113241 -0.00261092  0.031728 -0.107553 -0.00262058  0.026059 -0.113301 -0.00232995  0.0323822 -0.12028 -0.00248587  0.0263096 -0.119684 -0.00244379  0.032692 -0.126759 -0.00260067  0.0264251 -0.119625 -0.00271153  0.0266378 -0.126117 -0.00281405  0.0324967 -0.120224 -0.00280571  0.0265191 -0.12617 -0.00256193  0.0329577 -0.133313 -0.00271857  0.0266881 -0.13273 -0.00268233  0.0331776 -0.139958 -0.00283921  0.026809 -0.13268 -0.00291955  0.0269418 -0.139339 -0.00302958  0.0330777 -0.133266 -0.00300372  0.0268185 -0.13938 -0.00280499  0.0333569 -0.14667 -0.00296307  0.0269129 -0.1461 -0.00293112  0.0334918 -0.15346 -0.00308967  0.0270383 -0.146057 -0.00313914  0.0270987 -0.152859 -0.00325727  0.0334799 -0.14663 -0.00321603  0.0269701 -0.152894 -0.00305974  0.033591 -0.160303 -0.00321591  0.0269971 -0.159746 -0.00318956  0.0336494 -0.167216 -0.00334775  0.0271258 -0.159711 -0.00337386  0.0271184 -0.166637 -0.00349426  0.0337186 -0.160271 -0.00343859  0.0269876 -0.166664 -0.00332272  0.0336738 -0.174172 -0.0034796  0.0269485 -0.17363 -0.00345588  0.0336637 -0.181189 -0.00361216  0.0270793 -0.173601 -0.00361645  0.0270123 -0.18063 -0.00374103  0.0338075 -0.174148 -0.00367212  0.0268791 -0.180651 -0.00359333  0.0336194 -0.18824 -0.00374913  0.0267823 -0.18771 -0.00372946  0.0335431 -0.195341 -0.00388765  0.0269153 -0.187689 -0.00386858  0.0267944 -0.194801 -0.00399601  0.0337541 -0.188222 -0.00391519  0.0266557 -0.194815 -0.00386977  0.0334399 -0.20247 -0.00402629  0.0265038 -0.201952 -0.00401092  0.0333045 -0.20964 -0.00416791  0.0266447 -0.201938 -0.00412774  0.0264704 -0.209117 -0.00426078  0.0335786 -0.202458 -0.00416577  0.0263305 -0.209126 -0.00415385  0.0331447 -0.216828 -0.00431037  0.0261326 -0.216323 -0.00429618  0.0329571 -0.224052 -0.00445306  0.026273 -0.216316 -0.00439465  0.0260541 -0.223547 -0.00453103  0.0332854 -0.216822 -0.00442827  0.0259109 -0.223551 -0.00444376  0.0327497 -0.231285 -0.0045979  0.025671 -0.230792 -0.00458896  0.0325134 -0.238549 -0.00474381  0.0258148 -0.230789 -0.00466871  0.0255549 -0.238062 -0.00480902  0.0328913 -0.231285 -0.0046953  0.0254099 -0.23806 -0.00473678  0.0322616 -0.245818 -0.00489116  0.0251324 -0.245334 -0.00488424  0.0319858 -0.253106 -0.00503993  0.0252771 -0.245336 -0.00494945  0.0249832 -0.252633 -0.00509036  0.0324042 -0.24582 -0.00497043  0.024837 -0.252628 -0.00503397  0.0316951 -0.260396 -0.00518775  0.0245261 -0.259925 -0.0051831  0.0313833 -0.2677 -0.00533772  0.0246739 -0.25993 -0.00523269  0.0243485 -0.267243 -0.00537884  0.0318389 -0.260403 -0.00524998  0.0242021 -0.267233 -0.00533438  0.0310581 -0.275001 -0.00548875  0.0238636 -0.27454 -0.00548506  0.0307207 -0.282312 -0.00563943  0.0240116 -0.274549 -0.00552404  0.0236607 -0.281869 -0.00567043  0.0312068 -0.275012 -0.00553453  0.0235143 -0.281855 -0.00563693  0.0303683 -0.289617 -0.00579309  0.0231533 -0.289165 -0.00579023  0.0300038 -0.296926 -0.00594294  0.0233014 -0.289177 -0.00581872  0.0229316 -0.296493 -0.00596654  0.0305178 -0.28963 -0.0058254  0.0227818 -0.296479 -0.0059427  0.0296304 -0.304225 -0.00609636  0.0224016 -0.303784 -0.00609612  0.0292466 -0.311525 -0.00624907  0.022552 -0.303798 -0.00611544  0.0221653 -0.311104 -0.00626516  0.0297804 -0.304242 -0.0061202  0.0220153 -0.311084 -0.00625038  0.0288544 -0.318813 -0.00640297  0.0216219 -0.318379 -0.006405  0.0284576 -0.3261 -0.0065552  0.0217729 -0.318394 -0.00641561  0.0213714 -0.325687 -0.00656748  0.029006 -0.318832 -0.0064187  0.0212216 -0.325667 -0.00655746  0.0280547 -0.333374 -0.00671077  0.020817 -0.332944 -0.00671208  0.0276458 -0.340646 -0.00686538  0.0209689 -0.332963 -0.00671899  0.0205593 -0.340237 -0.0068717  0.0282047 -0.333394 -0.00672019  0.0204079 -0.340216 -0.00686872  0.0272346 -0.3479 -0.00701892  0.0199971 -0.347474 -0.00702119  0.0268221 -0.355155 -0.00717163  0.0201476 -0.347494 -0.00702333  0.0197349 -0.354749 -0.00717497  0.0273862 -0.34792 -0.0070231  0.0195835 -0.354726 -0.00717342  0.0264056 -0.362398 -0.00732517  0.0191686 -0.361971 -0.00732875  0.0259871 -0.369637 -0.00747979  0.0193198 -0.361989 -0.00732613  0.018909 -0.369229 -0.00747848  0.0265548 -0.362417 -0.00732601  0.0187583 -0.369208 -0.00748253  0.00118391 -0.00412244 -0.000265002  0.00101056 -0.00253814 -0.000196576  0.00405402 -0.00638652 -0.000488639  0.00101516 -0.00255692 -0.000475526  0.00269407 -0.00470763 -0.000861883  0 0 0  0 0 0  0.00114416 -0.00404829 -0.000530601  0 0 0  0.00266871 -0.00474775 -0.000406384  0.0063483 -0.00791574 -0.000627279  0.00469062 -0.00655514 -0.000576377  0.00851226 -0.00994349 -0.000789165  0.00471571 -0.00647628 -0.00119781  0.00679776 -0.00843048 -0.0014317  0.00629857 -0.00789702 -0.00136101  0.00674236 -0.00853503 -0.000711083  0.0108223 -0.0117367 -0.000891924  0.00886679 -0.0104833 -0.000814795  0.0130269 -0.0139526 -0.000982881  0.00891286 -0.0103648 -0.00163031  0.0109919 -0.0125912 -0.0017451  0.010855 -0.0116459 -0.00183725  0.0109234 -0.0127227 -0.000894666  0.0152874 -0.0162867 -0.00104725  0.0129482 -0.0151329 -0.000957966  0.017457 -0.0189469 -0.00110376  0.0130115 -0.0149938 -0.00184107  0.0149726 -0.0176888 -0.00189316  0.0153559 -0.016156 -0.00206006  0.0148993 -0.0178299 -0.00101101  0.0195897 -0.0218235 -0.00114632  0.0167797 -0.0207532 -0.00105524  0.0216268 -0.0249885 -0.0011915  0.0168501 -0.0206078 -0.00193346  0.0186584 -0.0238064 -0.00195658  0.0196667 -0.0216811 -0.00215185  0.0185835 -0.0239462 -0.00109816  0.0235927 -0.0283704 -0.00122809  0.0203063 -0.0273653 -0.00113773  0.0254593 -0.0320233 -0.00127232  0.0203773 -0.0272223 -0.00197673  0.0220211 -0.0309024 -0.00199461  0.0236698 -0.0282288 -0.00218403  0.0219458 -0.0310374 -0.00118315  0.0272467 -0.0358723 -0.00131023  0.0235039 -0.0349182 -0.00122654  0.0289337 -0.0399735 -0.00135994  0.0235776 -0.0347831 -0.00201035  0.0250586 -0.0389074 -0.00203228  0.0273257 -0.0357379 -0.00220716  0.024982 -0.0390344 -0.0012778  0.0305417 -0.0442525 -0.00140858  0.0263794 -0.0433424 -0.00132859  0.0320539 -0.0487651 -0.00146604  0.0264559 -0.0432147 -0.00205421  0.0277795 -0.0477476 -0.00208378  0.030623 -0.0441275 -0.00223708  0.0276994 -0.0478649 -0.00138795  0.0334907 -0.0534375 -0.00152218  0.0289415 -0.0525635 -0.00145042  0.0348344 -0.0583236 -0.00158942  0.0290229 -0.0524459 -0.00211811  0.0301944 -0.0573522 -0.00215673  0.0335761 -0.0533221 -0.00228453  0.0301086 -0.0574606 -0.00151801  0.0361087 -0.0633531 -0.00165653  0.0312029 -0.0625132 -0.0015893  0.0372905 -0.0685807 -0.00172997  0.0312899 -0.0624067 -0.00220048  0.0323182 -0.0676511 -0.0022496  0.0361972 -0.0632508 -0.00235391  0.0322267 -0.0677487 -0.00166595  0.038406 -0.0739323 -0.00180495  0.0331817 -0.0731235 -0.00174606  0.039438 -0.079466 -0.00188851  0.0332718 -0.0730294 -0.00230348  0.0341641 -0.0785784 -0.00236261  0.0385029 -0.073841 -0.00244498  0.0340679 -0.0786638 -0.00183141  0.0404065 -0.0851094 -0.00197184  0.0348874 -0.0843296 -0.00191927  0.0412947 -0.0909209 -0.0020647  0.0349866 -0.0842447 -0.00242579  0.0357463 -0.0900688 -0.00249362  0.0405095 -0.0850295 -0.0025537  0.0356436 -0.0901464 -0.00201154  0.0421225 -0.0968254 -0.00215638  0.0363381 -0.0960723 -0.00210881  0.0428724 -0.10288 -0.00225532  0.0364424 -0.0959965 -0.00256765  0.0370808 -0.102067 -0.00264323  0.0422292 -0.0967531 -0.00268281  0.0369713 -0.102133 -0.00220859  0.0435678 -0.109019 -0.00235522  0.037546 -0.108292 -0.00231111  0.04419 -0.115291 -0.00245953  0.0376562 -0.108225 -0.00272465  0.0381777 -0.114512 -0.00280893  0.0436796 -0.108956 -0.00282931  0.0380651 -0.11457 -0.00241888  0.0447617 -0.121634 -0.0025667  0.0385263 -0.120933 -0.00252652  0.0452623 -0.128099 -0.00267768  0.0386428 -0.120876 -0.0028975  0.0390555 -0.127355 -0.00299096  0.0448791 -0.121582 -0.00299037  0.0389364 -0.127403 -0.00264049  0.0457139 -0.134623 -0.00279176  0.0392927 -0.133947 -0.00275493  0.0461037 -0.141257 -0.00290728  0.0394145 -0.133898 -0.00308526  0.0397243 -0.140544 -0.00318515  0.0458397 -0.134579 -0.00316823  0.0396025 -0.140585 -0.00287402  0.046447 -0.147937 -0.00302386  0.0398617 -0.147284 -0.00299501  0.0467312 -0.154712 -0.00314975  0.0399868 -0.147244 -0.00328767  0.0402024 -0.154033 -0.0033915  0.0465744 -0.1479 -0.0033592  0.0400741 -0.154066 -0.00311959  0.0469718 -0.161528 -0.00327098  0.0402431 -0.1609 -0.00324488  0.0471568 -0.168428 -0.00339985  0.0403721 -0.160867 -0.00350046  0.0405023 -0.167778 -0.00361085  0.0471039 -0.1615 -0.00356221  0.04037 -0.167804 -0.00337446  0.047307 -0.175357 -0.0035255  0.0404549 -0.174752 -0.00350404  0.0474005 -0.18236 -0.00365615  0.0405872 -0.174727 -0.00372458  0.0406342 -0.181741 -0.00384152  0.0474391 -0.175335 -0.00378025  0.0404999 -0.18176 -0.00363731  0.0474632 -0.189387 -0.00379121  0.0405073 -0.188802 -0.00376987  0.0474765 -0.196476 -0.00392389  0.0406435 -0.188783 -0.00396013  0.0406187 -0.195884 -0.00408208  0.0476012 -0.18937 -0.00400734  0.0404806 -0.195896 -0.00390708  0.0474613 -0.203578 -0.00405765  0.0404198 -0.203015 -0.00404465  0.0473993 -0.210733 -0.0041995  0.0405576 -0.203001 -0.00420511  0.0404637 -0.210167 -0.00433099  0.0476012 -0.203568 -0.00424623  0.0403256 -0.210176 -0.00418282  0.0473111 -0.217898 -0.00433755  0.040199 -0.217357 -0.00432384  0.0471816 -0.225109 -0.00447834  0.0403388 -0.217349 -0.0044595  0.0401883 -0.224569 -0.00458848  0.0474527 -0.217894 -0.00449133  0.0400467 -0.224572 -0.0044657  0.0470293 -0.232321 -0.0046196  0.0398636 -0.2318 -0.00461042  0.0468409 -0.239571 -0.00476396  0.0400076 -0.231796 -0.00472105  0.0398006 -0.239055 -0.0048542  0.0471766 -0.232321 -0.00474656  0.0396552 -0.239053 -0.00475407  0.0466316 -0.246819 -0.00490689  0.0394232 -0.246314 -0.00489998  0.0463884 -0.254093 -0.00505328  0.0395682 -0.246315 -0.00498939  0.0393131 -0.253603 -0.00512552  0.0467782 -0.246821 -0.00501013  0.0391684 -0.253596 -0.0050472  0.046129 -0.261365 -0.005198  0.0388908 -0.26088 -0.00519347  0.0458395 -0.268658 -0.00534534  0.039037 -0.260886 -0.00526333  0.0387425 -0.268187 -0.00540376  0.0462785 -0.261373 -0.00527918  0.0385964 -0.268176 -0.00534213  0.0455413 -0.275942 -0.00549436  0.0382812 -0.275472 -0.00549269  0.0452137 -0.283242 -0.00564516  0.0384305 -0.275479 -0.00554335  0.0381002 -0.282791 -0.005687  0.0456884 -0.275955 -0.00555563  0.037951 -0.282776 -0.00564194  0.0448756 -0.290528 -0.00579309  0.0376046 -0.290074 -0.00579345  0.0445151 -0.29783 -0.00594437  0.0377543 -0.290087 -0.0058316  0.0373969 -0.297394 -0.00597668  0.0450246 -0.290545 -0.00583899  0.0372462 -0.297376 -0.00594461  0.0441453 -0.305113 -0.00609684  0.036876 -0.304672 -0.00609744  0.0437622 -0.312407 -0.00624883  0.0370221 -0.304687 -0.00612259  0.0366428 -0.311985 -0.00626981  0.0442965 -0.305133 -0.00612831  0.0364938 -0.311966 -0.00624955  0.0433736 -0.319686 -0.00640023  0.0361016 -0.319252 -0.00640225  0.0429664 -0.326965 -0.00655246  0.0362525 -0.319269 -0.00641894  0.035856 -0.326554 -0.00656784  0.0435212 -0.319704 -0.00642169  0.0357037 -0.326535 -0.00655603  0.0425618 -0.33423 -0.00670648  0.0352983 -0.333805 -0.00670898  0.0421429 -0.341496 -0.00686073  0.03545 -0.333824 -0.00671852  0.0350406 -0.341095 -0.00686979  0.0427089 -0.334253 -0.00671816  0.0348907 -0.341071 -0.00686228  0.041728 -0.348749 -0.00701499  0.0344775 -0.348327 -0.00701809  0.0413077 -0.356005 -0.00716889  0.0346272 -0.348348 -0.00702131  0.0342124 -0.355602 -0.00717175  0.0418806 -0.348771 -0.00701976  0.0340631 -0.355579 -0.00717294  0.0408883 -0.363247 -0.00732338  0.0336447 -0.362823 -0.00732434  0.0404701 -0.37049 -0.00747371  0.0337944 -0.362842 -0.00732362  0.0333776 -0.370087 -0.00747538  0.0410414 -0.363266 -0.00732362  0.0332274 -0.370065 -0.0074811  -0.000539321 -0.00135805 0.000620008  -0.000627868 -0.00202875 0.000754833  -0.00187899 -0.00320248 0.00115645  -0.000673622 -0.00193916 0.00104272  -0.00265159 -0.00427082 0.00189614  -0.00218841 -0.00361192 0.00119519  0 0 0  -0.00225433 -0.00375672 0.000873089  0 0 0  0 0 0  -0.000533268 -0.00123751 0.00088954  0 0 0  -0.00444467 -0.00600068 0.00155163  -0.00266831 -0.00451328 0.00135589  -0.00357148 -0.00482109 0.00158358  -0.00468619 -0.00606096 0.00185144  -0.00532548 -0.00654393 0.00186718  -0.00469448 -0.00573501 0.00256145  -0.00677815 -0.00740781 0.00298738  -0.0063729 -0.0069716 0.00292158  -0.00638251 -0.00728129 0.00215101  -0.00362533 -0.0045429 0.00218666  -0.0085813 -0.00910476 0.00250983  -0.00671965 -0.00778389 0.00218272  -0.00717425 -0.00847175 0.00204086  -0.00880671 -0.00954613 0.00240207  -0.00892985 -0.0105353 0.00213766  -0.00885406 -0.00913027 0.0032829  -0.0108996 -0.0111249 0.00341797  -0.0108089 -0.0102526 0.00376928  -0.0107696 -0.0106801 0.00277758  -0.00723863 -0.00808753 0.00279939  -0.0130429 -0.0127237 0.00290394  -0.010837 -0.011567 0.00251436  -0.0106893 -0.0129035 0.00214934  -0.0128745 -0.0138319 0.00254273  -0.0123786 -0.0154827 0.00212085  -0.0129065 -0.0133792 0.00346351  -0.0148641 -0.0159023 0.00342453  -0.0153273 -0.0144014 0.00399387  -0.0152948 -0.0148729 0.00294232  -0.0107275 -0.0124776 0.00293851  -0.0175261 -0.0173588 0.00291812  -0.01484 -0.0163545 0.00251412  -0.0140399 -0.0183448 0.00204051  -0.0167792 -0.0191514 0.00243354  -0.0156491 -0.021435 0.00194204  -0.0167714 -0.0187007 0.00332987  -0.0186231 -0.021747 0.00319815  -0.0197078 -0.0196129 0.00385642  -0.0197105 -0.0200824 0.00282967  -0.0140311 -0.0179148 0.00280666  -0.0218342 -0.0230589 0.00271857  -0.0186486 -0.0221853 0.00232685  -0.0172176 -0.0247813 0.00181305  -0.0204751 -0.0254837 0.00218832  -0.018744 -0.0283486 0.00167584  -0.0204245 -0.025055 0.00303376  -0.022171 -0.0285851 0.00285482  -0.0238611 -0.02586 0.00353682  -0.023903 -0.0263024 0.00256801  -0.017164 -0.0243666 0.0025357  -0.0259032 -0.0297558 0.00240993  -0.0222378 -0.0289966 0.0020411  -0.0202246 -0.0321499 0.00152457  -0.0239555 -0.0327562 0.00187564  -0.0216643 -0.0361544 0.00136757  -0.0238679 -0.0323566 0.00265884  -0.0255138 -0.0363293 0.00245726  -0.027769 -0.0330587 0.00312853  -0.0278438 -0.0334669 0.00222981  -0.0201336 -0.031758 0.00219309  -0.0297197 -0.0373677 0.00204957  -0.0256135 -0.0367102 0.00170684  -0.0230627 -0.0403757 0.00120389  -0.0272263 -0.0408932 0.00152862  -0.0244244 -0.0447832 0.00103855  -0.0271144 -0.0405254 0.00224912  -0.0286636 -0.0449035 0.00203776  -0.0314358 -0.0411313 0.00268173  -0.0315403 -0.0415041 0.00185478  -0.0229453 -0.0400121 0.00181925  -0.0332963 -0.0458133 0.00166631  -0.028785 -0.045254 0.00134933  -0.0257447 -0.0493864 0.000867963  -0.030301 -0.0498223 0.00116634  -0.0270323 -0.0541633 0.000696182  -0.0301706 -0.049487 0.00182569  -0.0316308 -0.0542354 0.00161004  -0.0348773 -0.0500007 0.00222111  -0.0349976 -0.0503391 0.00146687  -0.0256096 -0.0490544 0.00143135  -0.0366447 -0.0550235 0.00127137  -0.0317675 -0.0545543 0.000981569  -0.0282816 -0.0591191 0.000523686  -0.0331941 -0.059477 0.000795364  -0.0294994 -0.0642341 0.000348091  -0.0330502 -0.0591718 0.00139606  -0.0344276 -0.0642593 0.00117898  -0.0381057 -0.0595989 0.00175726  -0.0382404 -0.0599062 0.00107002  -0.0281328 -0.0588172 0.00103498  -0.0397829 -0.0649311 0.000873089  -0.0345749 -0.064548 0.000608444  -0.0306821 -0.0695108 0.000171781  -0.0359175 -0.0697926 0.000419378  -0.0318333 -0.0749318 -6.07967e-06  -0.0357651 -0.0695165 0.000963449  -0.0370626 -0.0749126 0.000747323  -0.0411366 -0.0698598 0.00129545  -0.0412785 -0.0701374 0.000670791  -0.0305241 -0.0692369 0.000636935  -0.0427265 -0.0754747 0.0004704  -0.037217 -0.0751721 0.000229836  -0.0329531 -0.080501 -0.000184059  -0.0384827 -0.0807113 4.00543e-05  -0.0340459 -0.0861986 -0.0003649  -0.0383232 -0.0804623 0.000533223  -0.0395457 -0.0861385 0.000316739  -0.0439804 -0.0807281 0.000830531  -0.0441289 -0.0809758 0.000266552  -0.0327909 -0.0802537 0.000236511  -0.0454863 -0.0865969 6.56843e-05  -0.0397068 -0.086371 -0.000151634  -0.035107 -0.0920305 -0.000545263  -0.0408964 -0.0921727 -0.000344276  -0.0361407 -0.0979805 -0.000729561  -0.0407342 -0.0919516 0.00010097  -0.0418866 -0.0978804 -0.00011754  -0.046645 -0.0921429 0.000368714  -0.0467983 -0.092363 -0.000137806  -0.0349398 -0.0918107 -0.000167966  -0.0480722 -0.0982388 -0.000342369  -0.0420481 -0.0980868 -0.000536203  -0.0371451 -0.104048 -0.000911355  -0.0431702 -0.104129 -0.000730038  -0.0381236 -0.110222 -0.00109529  -0.0430043 -0.103931 -0.000331163  -0.044088 -0.110084 -0.000548244  -0.0491434 -0.104052 -8.90493e-05  -0.0493006 -0.104247 -0.000545263  -0.0369753 -0.103854 -0.000572324  -0.0504913 -0.11035 -0.000748515  -0.0442544 -0.110268 -0.000923157  -0.0390753 -0.116504 -0.00128043  -0.04531 -0.116521 -0.00111735  -0.0400025 -0.122875 -0.00146639  -0.0451419 -0.116348 -0.000762463  -0.0461613 -0.122703 -0.000980496  -0.0514826 -0.116403 -0.000546575  -0.0516424 -0.116574 -0.000953794  -0.0389047 -0.11633 -0.000978231  -0.0527562 -0.122884 -0.00115561  -0.0463272 -0.122862 -0.00131297  -0.0409026 -0.129342 -0.00165164  -0.0473204 -0.129306 -0.00150836  -0.0417782 -0.13589 -0.0018388  -0.0471483 -0.129154 -0.00119352  -0.0481076 -0.135685 -0.00141025  -0.05367 -0.129147 -0.00100279  -0.0538305 -0.129299 -0.00136173  -0.0407282 -0.129192 -0.00138509  -0.0548724 -0.135787 -0.00156498  -0.0482771 -0.135824 -0.00170338  -0.04263 -0.142523 -0.00202608  -0.0492082 -0.142434 -0.00189972  -0.0434563 -0.149225 -0.00221312  -0.0490382 -0.142304 -0.00162232  -0.049938 -0.148989 -0.00183856  -0.055712 -0.14224 -0.00145328  -0.0558751 -0.14237 -0.00176919  -0.0424547 -0.142391 -0.00179148  -0.0568464 -0.149016 -0.00197375  -0.050107 -0.14911 -0.00209558  -0.0442612 -0.155998 -0.00240147  -0.0509818 -0.155861 -0.00229096  -0.0450454 -0.162832 -0.0025897  -0.0508115 -0.15575 -0.00204957  -0.0516558 -0.162571 -0.00226188  -0.0576174 -0.155633 -0.00190365  -0.0577819 -0.155743 -0.00217807  -0.0440872 -0.155888 -0.00219643  -0.0586863 -0.162529 -0.00237989  -0.0518258 -0.162671 -0.00248671  -0.0458057 -0.169729 -0.00277674  -0.0526457 -0.169548 -0.00268197  -0.046546 -0.176676 -0.00296557  -0.052474 -0.169453 -0.00247312  -0.0532649 -0.17639 -0.00268626  -0.0593944 -0.169288 -0.0023458  -0.0595598 -0.169384 -0.00258374  -0.0456319 -0.169635 -0.00260091  -0.060401 -0.176284 -0.00278533  -0.0534344 -0.176473 -0.00287604  -0.0472622 -0.183673 -0.00315249  -0.0542026 -0.183456 -0.00307095  -0.0479596 -0.190714 -0.00334001  -0.054033 -0.183378 -0.00289297  -0.0547743 -0.190409 -0.00310218  -0.0610468 -0.183171 -0.00278354  -0.0612121 -0.183247 -0.00298667  -0.0470891 -0.183598 -0.00300241  -0.0619953 -0.190247 -0.00318694  -0.0549433 -0.190476 -0.00326419  -0.0486381 -0.1978 -0.00352502  -0.0556638 -0.197545 -0.0034591  -0.0492971 -0.204919 -0.00371373  -0.0554938 -0.197482 -0.0033077  -0.0561876 -0.204591 -0.00351322  -0.0625863 -0.197238 -0.00321686  -0.0627513 -0.197296 -0.00338662  -0.0484655 -0.197738 -0.00339901  -0.0634809 -0.20438 -0.00358498  -0.0563581 -0.204645 -0.00364947  -0.0499377 -0.212071 -0.00389862  -0.0570326 -0.211784 -0.00384212  -0.0505619 -0.219251 -0.00408447  -0.0568626 -0.211738 -0.00371802  -0.0575147 -0.21891 -0.00392032  -0.064018 -0.211457 -0.00364327  -0.0641828 -0.211502 -0.00378287  -0.0497673 -0.212023 -0.00379395  -0.0648618 -0.218652 -0.00397956  -0.0576837 -0.21895 -0.00403249  -0.0511675 -0.226457 -0.00426805  -0.0583162 -0.226144 -0.00422156  -0.0517569 -0.233686 -0.00445187  -0.0581467 -0.226109 -0.00412083  -0.058759 -0.23333 -0.00432098  -0.0653489 -0.225798 -0.00406122  -0.0655136 -0.22583 -0.00417411  -0.0509982 -0.226424 -0.00418448  -0.0661447 -0.233033 -0.00436771  -0.0589247 -0.233357 -0.00441015  -0.0523276 -0.240933 -0.00463259  -0.0595205 -0.240595 -0.00459707  -0.0528865 -0.248194 -0.00481331  -0.0593519 -0.240571 -0.00451744  -0.0599263 -0.247827 -0.0047127  -0.0665901 -0.240232 -0.00446808  -0.066756 -0.240255 -0.00456071  -0.052161 -0.240909 -0.00456595  -0.0673456 -0.247491 -0.00475037  -0.0600932 -0.247843 -0.00478327  -0.0534306 -0.255467 -0.00499415  -0.060653 -0.255109 -0.00496829  -0.0539613 -0.262754 -0.00517368  -0.0604851 -0.255096 -0.0049057  -0.0610271 -0.262376 -0.0050981  -0.0677493 -0.254736 -0.00487077  -0.06791 -0.254746 -0.00493848  -0.0532637 -0.255455 -0.00494397  -0.0684621 -0.262012 -0.00512588  -0.0611911 -0.262384 -0.00515056  -0.0544763 -0.270044 -0.00535166  -0.0617168 -0.269668 -0.0053314  -0.054981 -0.27734 -0.00552833  -0.0615535 -0.269663 -0.00528634  -0.0620651 -0.276958 -0.00547206  -0.0688303 -0.269283 -0.00525653  -0.0689902 -0.269287 -0.00530958  -0.0543113 -0.270038 -0.00531363  -0.0695076 -0.276566 -0.0054915  -0.0622289 -0.276957 -0.00551128  -0.0554743 -0.284638 -0.00570297  -0.0627284 -0.28425 -0.00568724  -0.0559578 -0.291938 -0.0058744  -0.0625651 -0.284252 -0.00565541  -0.0630507 -0.291548 -0.00583804  -0.0698493 -0.283855 -0.00563633  -0.070009 -0.283852 -0.005674  -0.055311 -0.28464 -0.00567508  -0.0704944 -0.291139 -0.00585055  -0.0632114 -0.29154 -0.0058639  -0.0564284 -0.299234 -0.00604415  -0.0636871 -0.298833 -0.00603688  -0.0568929 -0.30653 -0.0062151  -0.0635247 -0.298842 -0.00601411  -0.0639887 -0.306135 -0.00619221  -0.070807 -0.298435 -0.00600386  -0.0709639 -0.298423 -0.00602555  -0.0562668 -0.299244 -0.00602722  -0.0714266 -0.30571 -0.00620139  -0.0641484 -0.306123 -0.00620925  -0.0573471 -0.313818 -0.00638318  -0.0646036 -0.313409 -0.0063796  -0.0577965 -0.321103 -0.00655067  -0.0644448 -0.313423 -0.00636661  -0.064889 -0.320707 -0.0065366  -0.0717161 -0.313006 -0.00635946  -0.0718768 -0.31299 -0.00637174  -0.0571861 -0.313832 -0.00637496  -0.0723205 -0.320273 -0.00654316  -0.0650489 -0.320692 -0.00654638  -0.0582378 -0.328378 -0.0067147  -0.0654912 -0.327965 -0.00671339  -0.0586734 -0.335647 -0.00687814  -0.0653279 -0.327981 -0.00670552  -0.0657609 -0.335251 -0.00687408  -0.072593 -0.32756 -0.0067054  -0.0727518 -0.32754 -0.00671101  -0.0580759 -0.328395 -0.00671077  -0.0731802 -0.334807 -0.00687587  -0.065923 -0.335232 -0.00687957  -0.0591056 -0.342906 -0.00703943  -0.0663519 -0.342491 -0.00704026  -0.0595324 -0.350159 -0.00720215  -0.0661907 -0.342507 -0.00703573  -0.0666153 -0.349763 -0.00720286  -0.0734422 -0.342083 -0.00703895  -0.0736012 -0.342065 -0.00704122  -0.0589442 -0.342925 -0.00703907  -0.0740259 -0.34932 -0.00720108  -0.0667768 -0.349741 -0.00720251  -0.0599563 -0.357403 -0.00736153  -0.0671995 -0.356985 -0.00736237  -0.0603809 -0.36464 -0.00752246  -0.0670373 -0.357005 -0.0073638  -0.0674608 -0.364248 -0.00752592  -0.0742838 -0.356586 -0.00736439  -0.0744445 -0.356566 -0.00736213  -0.0597963 -0.357422 -0.00736499  -0.0748663 -0.363814 -0.00752366  -0.0676231 -0.364227 -0.00752294  -0.000308804 -0.000564516 0.000409722  -0.00035413 -0.000898317 0.000522017  -0.00102279 -0.00157107 0.000781894  -0.000358999 -0.000800923 0.000741601  -0.00128959 -0.00204676 0.00134814  0 0 0  0 0 0  -0.000311956 -0.000481814 0.000583768  0 0 0  -0.00122397 -0.00219345 0.000982642  -0.00194059 -0.00302288 0.00104856  -0.0025937 -0.00380191 0.00132084  -0.00305529 -0.00481988 0.00124264  -0.00266066 -0.00355685 0.00183678  -0.00416046 -0.00529012 0.00213969  -0.00197655 -0.00281958 0.00146532  -0.00406274 -0.00558966 0.00155675  -0.00424406 -0.00678115 0.0013448  -0.00557154 -0.00752394 0.00169778  -0.00544187 -0.00901599 0.00139463  -0.00564486 -0.00717856 0.00233293  -0.0071615 -0.00933845 0.00241923  -0.00429398 -0.00647552 0.00185418  -0.00709191 -0.00971372 0.00176847  -0.00663847 -0.0114794 0.00138295  -0.00855961 -0.0121106 0.00176919  -0.00779527 -0.0141785 0.00134349  -0.00859594 -0.0117164 0.00242627  -0.0100226 -0.0143653 0.00238419  -0.00666219 -0.0111111 0.00190926  -0.0100046 -0.0147699 0.00173342  -0.00893044 -0.0171355 0.00126839  -0.0114028 -0.0176719 0.00165629  -0.0100258 -0.0203168 0.00118053  -0.0113893 -0.0172624 0.00229299  -0.0127292 -0.0204091 0.00218201  -0.00891107 -0.0167433 0.00177848  -0.0127645 -0.0208168 0.00156057  -0.011097 -0.0237474 0.00107145  -0.0140894 -0.0242034 0.00144279  -0.0121365 -0.0273942 0.000955701  -0.0140281 -0.0238014 0.00204206  -0.0152963 -0.0274225 0.00189471  -0.0110362 -0.0233562 0.00155091  -0.0153753 -0.0278145 0.00131571  -0.0131532 -0.0312694 0.000829458  -0.016629 -0.0316543 0.00117671  -0.0141453 -0.0353491 0.000698686  -0.0165332 -0.0312719 0.00173271  -0.0177371 -0.0353307 0.00156617  -0.0130599 -0.0308941 0.00127244  -0.0178466 -0.0356992 0.00103176  -0.0151159 -0.0396369 0.000563502  -0.0190348 -0.0399569 0.00088346  -0.0160665 -0.0441155 0.000422955  -0.0189139 -0.0395996 0.00139332  -0.0200604 -0.0440595 0.00121796  -0.014999 -0.0392842 0.000968814  -0.0201895 -0.0444008 0.000729799  -0.0169967 -0.0487831 0.000280976  -0.0213186 -0.0490411 0.000573874  -0.0179096 -0.0536282 0.000133634  -0.0211828 -0.0487118 0.00104046  -0.0222735 -0.0535397 0.00085938  -0.0168624 -0.0484575 0.000651836  -0.0224181 -0.0538532 0.000414252  -0.018803 -0.0586462 -1.37091e-05  -0.0234926 -0.0588428 0.000254154  -0.0196804 -0.0638253 -0.000165105  -0.0233442 -0.0585415 0.000680685  -0.0243871 -0.0637063 0.00049448  -0.0186568 -0.058347 0.00032413  -0.0245391 -0.0639905 9.03606e-05  -0.0205395 -0.0691606 -0.000315189  -0.0255631 -0.0693004 -7.31945e-05  -0.0213836 -0.0746432 -0.000472069  -0.0254071 -0.0690287 0.000312805  -0.0264014 -0.0744961 0.000126362  -0.0203851 -0.0688899 -1.0252e-05  -0.0265619 -0.0747532 -0.000239968  -0.0222106 -0.0802685 -0.000628591  -0.027539 -0.0803537 -0.000406861  -0.023026 -0.0860273 -0.000787973  -0.0273747 -0.0801075 -5.71012e-05  -0.0283259 -0.0858517 -0.000246048  -0.0220523 -0.0800246 -0.000352144  -0.0284903 -0.0860821 -0.000577211  -0.0238235 -0.0919128 -0.000944495  -0.0294232 -0.0919449 -0.000747085  -0.0246059 -0.0979179 -0.0011071  -0.0292563 -0.0917235 -0.00043118  -0.0301628 -0.0977165 -0.000622272  -0.0236588 -0.0916939 -0.000697255  -0.0303309 -0.0979219 -0.000920415  -0.0253745 -0.104037 -0.0012697  -0.0312204 -0.104019 -0.001091  -0.0261306 -0.110264 -0.00143576  -0.0310509 -0.103822 -0.000809193  -0.0319165 -0.110038 -0.00100112  -0.0252081 -0.103843 -0.0010488  -0.0320876 -0.110219 -0.00126576  -0.0268705 -0.116591 -0.00160003  -0.032936 -0.116526 -0.00144112  -0.0275993 -0.123014 -0.00176978  -0.0327632 -0.116353 -0.00118876  -0.0335914 -0.122765 -0.00138307  -0.0267015 -0.11642 -0.00140297  -0.0337627 -0.122925 -0.00161886  -0.0283122 -0.129525 -0.00193667  -0.0345707 -0.129416 -0.00179493  -0.0290141 -0.13612 -0.00210714  -0.0343992 -0.129265 -0.00157285  -0.0351871 -0.135848 -0.00176561  -0.0281425 -0.129375 -0.00176167  -0.0353612 -0.135987 -0.00197411  -0.0297005 -0.142793 -0.00227523  -0.0361331 -0.142642 -0.00215316  -0.0303771 -0.149538 -0.00244975  -0.0359578 -0.142512 -0.0019567  -0.0367095 -0.149247 -0.00214982  -0.0295296 -0.142663 -0.00212204  -0.0368848 -0.149366 -0.00233245  -0.0310383 -0.156348 -0.0026201  -0.0376203 -0.156161 -0.00251067  -0.0316885 -0.163222 -0.0027926  -0.0374458 -0.156049 -0.00233996  -0.0381625 -0.162914 -0.00253451  -0.0308654 -0.156238 -0.00248599  -0.0383344 -0.163015 -0.00269318  -0.0323238 -0.170151 -0.00296497  -0.0390379 -0.169931 -0.00287354  -0.0329499 -0.177136 -0.00314033  -0.0388627 -0.169837 -0.00272489  -0.0395455 -0.176812 -0.00291848  -0.0321522 -0.17006 -0.00285149  -0.0397186 -0.176894 -0.00305235  -0.0335641 -0.184166 -0.0033139  -0.0403867 -0.183911 -0.0032326  -0.0341651 -0.19124 -0.0034889  -0.0402141 -0.183833 -0.00310886  -0.0408642 -0.1909 -0.003299  -0.0333917 -0.184088 -0.00321674  -0.0410376 -0.190969 -0.00341463  -0.0347564 -0.19835 -0.00366211  -0.0416734 -0.198067 -0.00359571  -0.0353353 -0.205496 -0.00383747  -0.0415013 -0.198005 -0.00349021  -0.0421221 -0.205147 -0.00367939  -0.034584 -0.198288 -0.00357997  -0.0422926 -0.205201 -0.00377524  -0.0359027 -0.212676 -0.00401115  -0.0428998 -0.212369 -0.00395525  -0.0364602 -0.219879 -0.00418544  -0.0427282 -0.212318 -0.0038656  -0.0433195 -0.219521 -0.00405657  -0.0357323 -0.212626 -0.00394356  -0.0434904 -0.219561 -0.00413537  -0.0370069 -0.227108 -0.00435865  -0.0440693 -0.226779 -0.00431311  -0.0375438 -0.234358 -0.00453365  -0.0438972 -0.226744 -0.0042429  -0.044461 -0.23399 -0.00442994  -0.036839 -0.227072 -0.00430465  -0.0446322 -0.234019 -0.004493  -0.0380716 -0.241623 -0.00470543  -0.0451822 -0.241275 -0.0046699  -0.0385885 -0.248905 -0.00487876  -0.0450141 -0.241252 -0.004614  -0.045553 -0.248529 -0.00479698  -0.0379028 -0.241598 -0.00466168  -0.0457211 -0.248546 -0.00484705  -0.0390964 -0.256194 -0.00504839  -0.0462511 -0.25583 -0.00502324  -0.0395977 -0.263494 -0.00522172  -0.0460806 -0.255814 -0.0049789  -0.046598 -0.263114 -0.00516081  -0.0389314 -0.256179 -0.00501645  -0.0467649 -0.263121 -0.00519788  -0.0400884 -0.270798 -0.005391  -0.0472696 -0.270421 -0.00537157  -0.0405724 -0.278108 -0.00556135  -0.0471046 -0.270415 -0.00533998  -0.0475986 -0.277724 -0.00551701  -0.0399222 -0.270792 -0.00536633  -0.0477641 -0.277723 -0.00554609  -0.0410476 -0.285417 -0.00573003  -0.0482514 -0.285029 -0.00571585  -0.0415175 -0.292727 -0.00589776  -0.0480869 -0.285029 -0.00569212  -0.0485637 -0.292337 -0.00586712  -0.0408828 -0.285417 -0.0057112  -0.0487268 -0.292332 -0.00588727  -0.0419786 -0.300032 -0.00606251  -0.049196 -0.299635 -0.00605392  -0.0424349 -0.307335 -0.00622845  -0.049032 -0.299642 -0.00604093  -0.0494919 -0.306943 -0.00621033  -0.0418165 -0.300039 -0.00605166  -0.0496557 -0.306933 -0.00622296  -0.0428848 -0.314629 -0.00639284  -0.0501103 -0.314226 -0.00638855  -0.0433288 -0.32192 -0.00655615  -0.0499482 -0.314239 -0.00637829  -0.0503955 -0.321528 -0.00654578  -0.0427227 -0.314642 -0.00638556  -0.0505564 -0.321512 -0.00655305  -0.0437677 -0.3292 -0.0067153  -0.0509989 -0.328791 -0.0067178  -0.044204 -0.336475 -0.00687981  -0.0508387 -0.328805 -0.0067122  -0.0512743 -0.33608 -0.00687468  -0.0436082 -0.329216 -0.00671518  -0.0514338 -0.336061 -0.00687981  -0.0446351 -0.343734 -0.00704026  -0.0518653 -0.343323 -0.00704157  -0.0450644 -0.350987 -0.00720108  -0.0517056 -0.343339 -0.00703883  -0.0521321 -0.350594 -0.00720274  -0.0444751 -0.343752 -0.0070399  -0.0522954 -0.350573 -0.0072  -0.0454886 -0.358228 -0.00735831  -0.0527208 -0.357817 -0.00736058  -0.0459139 -0.36546 -0.00751579  -0.0525608 -0.357834 -0.00736451  -0.0529859 -0.365072 -0.00752318  -0.0453296 -0.358247 -0.00736213  -0.0531476 -0.365052 -0.00752282  -0.000138201 -0.000197738 0.000195265  -0.000186928 -0.000345647 0.000314593  -0.00045149 -0.000901759 0.000383019  -0.000190046 -0.000276059 0.000445843  -0.000657998 -0.00101849 0.000806928  0 0 0  0 0 0  -0.000139527 -0.000135303 0.00028038  0 0 0  -0.000610612 -0.00113869 0.000586271  -0.000844613 -0.00219291 0.000499725  -0.00130571 -0.00254413 0.000776529  -0.0013615 -0.00385866 0.000592947  -0.00134365 -0.00235212 0.00109446  -0.00216143 -0.0040006 0.00126827  -0.000861824 -0.00202978 0.000706077  -0.00208063 -0.00423357 0.000922322  -0.00191247 -0.00584447 0.000623465  -0.00298804 -0.00623181 0.000984788  -0.00249499 -0.00812617 0.000635147  -0.00303632 -0.00594288 0.00137293  -0.00393483 -0.00817001 0.00141025  -0.00193349 -0.00558606 0.000878215  -0.0038839 -0.00848654 0.0010184  -0.00308463 -0.0106583 0.000604749  -0.00479245 -0.0109903 0.000994086  -0.00366753 -0.0134396 0.000561476  -0.00481069 -0.0106409 0.00139141  -0.00567561 -0.0133753 0.00134456  -0.0030838 -0.0103311 0.000866652  -0.00567383 -0.0137382 0.000954509  -0.00424498 -0.0164629 0.000495434  -0.00653553 -0.016729 0.000882506  -0.0048092 -0.0197181 0.000422716  -0.00651085 -0.0163521 0.00126362  -0.00732946 -0.0195762 0.00117171  -0.00421149 -0.016101 0.000747919  -0.00737327 -0.019954 0.000801802  -0.00536692 -0.0232052 0.000335217  -0.0081892 -0.0234137 0.000703096  -0.0059163 -0.0269133 0.000242949  -0.0081259 -0.0230333 0.00105977  -0.00890863 -0.0267213 0.000943184  -0.0053032 -0.0228348 0.000571728  -0.00898725 -0.0270957 0.000599265  -0.00645912 -0.0308385 0.000143647  -0.00976866 -0.0309969 0.000486493  -0.00699854 -0.034972 3.76701e-05  -0.00967628 -0.0306284 0.000815392  -0.0104307 -0.0347496 0.000683308  -0.00637019 -0.0304768 0.000359774  -0.010537 -0.0351066 0.000367045  -0.0075348 -0.0393064 -7.05719e-05  -0.0112906 -0.0394195 0.00024581  -0.00806838 -0.0438359 -0.000184774  -0.0111764 -0.0390708 0.000547886  -0.0119106 -0.0435919 0.000406742  -0.00742525 -0.038962 0.000127316  -0.0120339 -0.0439269 0.000117421  -0.0086 -0.0485491 -0.000300527  -0.0127662 -0.0486199 -1.09673e-05  -0.00913227 -0.0534427 -0.000421882  -0.0126381 -0.0482967 0.000265002  -0.013352 -0.0531828 0.000118017  -0.00847805 -0.0482292 -0.000119805  -0.0134879 -0.0534905 -0.000145674  -0.00966084 -0.058505 -0.000543475  -0.0142013 -0.0585334 -0.000280023  -0.0101905 -0.063729 -0.000670552  -0.0140605 -0.0582355 -2.75373e-05  -0.0147593 -0.0634553 -0.000181198  -0.00952816 -0.0582098 -0.000379562  -0.014904 -0.0637371 -0.000419497  -0.0107177 -0.0691083 -0.000797153  -0.0155988 -0.0690974 -0.000557661  -0.0112476 -0.0746377 -0.000930429  -0.0154514 -0.0688266 -0.000330448  -0.0161355 -0.0743496 -0.000486016  -0.0105786 -0.068841 -0.000650644  -0.0162853 -0.0746035 -0.000702024  -0.0117736 -0.0803036 -0.00106287  -0.0169646 -0.0802526 -0.000846982  -0.0123012 -0.0861056 -0.00120068  -0.0168126 -0.0800083 -0.00064075  -0.0174792 -0.0858047 -0.00080061  -0.0116299 -0.0800622 -0.000930786  -0.0176364 -0.0860338 -0.000995994  -0.0128272 -0.0920313 -0.00133872  -0.0182979 -0.091943 -0.00114298  -0.0133539 -0.0980795 -0.00148213  -0.0181414 -0.0917229 -0.000958443  -0.0187937 -0.0977645 -0.00112081  -0.0126767 -0.0918158 -0.00122142  -0.018952 -0.0979688 -0.00129604  -0.0138782 -0.104237 -0.00162458  -0.0196 -0.10411 -0.00144649  -0.0144017 -0.110503 -0.00177062  -0.0194405 -0.103915 -0.0012821  -0.0200783 -0.110176 -0.00144827  -0.0137241 -0.104043 -0.00151813  -0.0202404 -0.110357 -0.0016042  -0.0149239 -0.116866 -0.00191641  -0.0208732 -0.116705 -0.00176096  -0.0154445 -0.123326 -0.00206625  -0.0207096 -0.116532 -0.0016129  -0.0213332 -0.122988 -0.00178111  -0.0147674 -0.116696 -0.00182223  -0.0214965 -0.123146 -0.00191867  -0.0159638 -0.129871 -0.0022155  -0.0221155 -0.129677 -0.00207806  -0.0164813 -0.1365 -0.0023706  -0.0219518 -0.129527 -0.00194812  -0.0225598 -0.136151 -0.00211799  -0.0158058 -0.129722 -0.00213373  -0.0227252 -0.13629 -0.00223994  -0.0169947 -0.143204 -0.00252247  -0.0233278 -0.142981 -0.00240064  -0.0175111 -0.14998 -0.00267863  -0.0231619 -0.142849 -0.00228596  -0.023757 -0.149623 -0.00245953  -0.0168383 -0.143074 -0.00245225  -0.0239224 -0.14974 -0.00256515  -0.0180228 -0.15682 -0.0028348  -0.0245113 -0.15657 -0.00272822  -0.0185332 -0.163723 -0.00299489  -0.0243435 -0.156457 -0.00262964  -0.0249238 -0.163357 -0.00280309  -0.0178616 -0.15671 -0.00277305  -0.025089 -0.163457 -0.00289321  -0.0190392 -0.17068 -0.00315285  -0.0256634 -0.170402 -0.00305998  -0.0195432 -0.177687 -0.00331366  -0.0254962 -0.170308 -0.00297415  -0.0260613 -0.177315 -0.00314999  -0.0188768 -0.170587 -0.00309825  -0.0262294 -0.177397 -0.00322807  -0.0200429 -0.18474 -0.00347137  -0.0267873 -0.184441 -0.00339282  -0.02054 -0.191838 -0.00363541  -0.0266204 -0.184363 -0.00332344  -0.0271697 -0.191459 -0.00349534  -0.0198803 -0.184664 -0.00342894  -0.0273366 -0.191528 -0.0035615  -0.0210352 -0.19897 -0.00379694  -0.0278807 -0.19865 -0.00373054  -0.0215266 -0.206139 -0.00396013  -0.0277143 -0.198587 -0.00366831  -0.0282502 -0.205756 -0.00384498  -0.0208731 -0.198908 -0.00375926  -0.0284162 -0.205809 -0.00389981  -0.0220156 -0.213335 -0.0041225  -0.0289457 -0.212997 -0.00406706  -0.0225005 -0.22056 -0.00428593  -0.028779 -0.212948 -0.00401723  -0.0293014 -0.220171 -0.00419092  -0.0218525 -0.213286 -0.00409198  -0.0294678 -0.220214 -0.00423717  -0.0229819 -0.227803 -0.00444925  -0.0299833 -0.22745 -0.00440502  -0.0234582 -0.235069 -0.00461316  -0.0298166 -0.227412 -0.00436354  -0.0303249 -0.234677 -0.00453663  -0.0228183 -0.227767 -0.00442421  -0.0304897 -0.234707 -0.00457418  -0.0239313 -0.242348 -0.00477564  -0.0309916 -0.241981 -0.00474131  -0.0244012 -0.249642 -0.00494123  -0.0308261 -0.241954 -0.0047071  -0.0313201 -0.24925 -0.00488245  -0.0237691 -0.242322 -0.00475729  -0.0314853 -0.24927 -0.00490952  -0.0248678 -0.256945 -0.0051043  -0.0319734 -0.256566 -0.005077  -0.0253308 -0.264254 -0.00526893  -0.0318096 -0.256549 -0.00505209  -0.0322902 -0.263861 -0.00522459  -0.0247061 -0.256928 -0.00508869  -0.0324547 -0.263872 -0.00524724  -0.0257866 -0.271569 -0.00543225  -0.0329323 -0.271181 -0.00541258  -0.0262449 -0.278889 -0.00559449  -0.0327685 -0.271173 -0.00539351  -0.0332396 -0.278495 -0.00556278  -0.0256293 -0.271563 -0.00542104  -0.0334017 -0.278496 -0.00557804  -0.0266945 -0.286205 -0.00575626  -0.0338657 -0.285811 -0.00574219  -0.0271471 -0.293523 -0.00592053  -0.0337052 -0.28581 -0.00572991  -0.034163 -0.293129 -0.00589621  -0.0265367 -0.286206 -0.00574958  -0.0343246 -0.293124 -0.00591004  -0.0275915 -0.300835 -0.00608134  -0.0347798 -0.300434 -0.00607145  -0.028034 -0.308144 -0.0062418  -0.0346198 -0.300438 -0.00606394  -0.035069 -0.307749 -0.00622833  -0.027432 -0.30084 -0.00607681  -0.0352297 -0.307738 -0.00623488  -0.0284693 -0.315445 -0.00640225  -0.0356743 -0.315037 -0.00639689  -0.0289066 -0.322739 -0.0065614  -0.0355134 -0.315046 -0.00639331  -0.035955 -0.322344 -0.00655603  -0.0283134 -0.315455 -0.00639892  -0.0361154 -0.32233 -0.00655961  -0.0293391 -0.330022 -0.00671995  -0.03655 -0.329611 -0.00672019  -0.0297692 -0.337298 -0.00687802  -0.0363934 -0.329626 -0.00671625  -0.0368242 -0.336903 -0.00687802  -0.0291829 -0.330037 -0.0067203  -0.0369844 -0.336885 -0.00688028  -0.0301976 -0.344561 -0.00703764  -0.0374134 -0.344148 -0.00703907  -0.0306234 -0.351815 -0.00719488  -0.0372543 -0.344164 -0.00703835  -0.0376825 -0.351421 -0.00719857  -0.0300384 -0.344577 -0.00703776  -0.0378413 -0.351401 -0.00719678  -0.0310457 -0.359053 -0.00735164  -0.0382652 -0.35864 -0.00735569  -0.0314701 -0.366279 -0.00750899  -0.0381057 -0.358658 -0.00735784  -0.0385308 -0.365889 -0.00751567  -0.0308881 -0.35907 -0.00735426  -0.0386927 -0.365868 -0.00751424  3.85195e-06 -0.000101089 -2.55108e-05  -4.76055e-05 -0.000126719 9.83477e-05  1.13249e-05 -0.000747114 -2.67029e-05  -4.85331e-05 -7.22408e-05 0.00013423  -0.000170134 -0.000653774 0.000239611  0 0 0  0 0 0  4.61191e-06 -4.98891e-05 -3.49283e-05  0 0 0  -0.000138447 -0.000756621 0.000180244  6.80536e-05 -0.00200209 -6.3777e-05  -0.000337541 -0.00204614 0.000219226  0.000102431 -0.00361314 -7.34329e-05  -0.000347897 -0.00188565 0.000315547  -0.000576556 -0.00344428 0.000363708  7.49081e-05 -0.00185409 -7.66516e-05  -0.000539824 -0.00364575 0.000259638  0.000150889 -0.00562349 -0.00011158  -0.000827104 -0.00566167 0.000252366  0.000182986 -0.00790954 -0.000137687  -0.000832677 -0.00540885 0.000377774  -0.00110969 -0.00765148 0.000373244  0.000171393 -0.00538352 -0.000120878  -0.00109959 -0.00793478 0.000247955  0.000200719 -0.0104815 -0.000181198  -0.00140285 -0.0104932 0.000209332  0.000209153 -0.0132974 -0.000223994  -0.00138947 -0.010175 0.00033772  -0.00167289 -0.0129581 0.000293732  0.000236154 -0.0101724 -0.000188589  -0.00169748 -0.0132959 0.000168562  0.000201881 -0.0163566 -0.00027597  -0.00199807 -0.0163398 0.000108242  0.00018245 -0.0196509 -0.000333905  -0.00195569 -0.0159853 0.000230432  -0.0022403 -0.0192595 0.000161886  0.00025332 -0.016011 -0.000283718  -0.00229567 -0.0196188 4.3273e-05  0.000146687 -0.0231696 -0.000395298  -0.00259286 -0.0231235 -3.14713e-05  9.66787e-05 -0.0269132 -0.000465155  -0.00252682 -0.022759 8.24928e-05  -0.00281751 -0.0264926 -3.45707e-06  0.000214279 -0.0228117 -0.000405073  -0.00289536 -0.0268524 -0.000112295  3.09944e-05 -0.0308655 -0.000536203  -0.00320083 -0.0307951 -0.000198007  -5.17964e-05 -0.0350324 -0.000614285  -0.0031141 -0.0304374 -9.41753e-05  -0.00341582 -0.0345996 -0.000190973  0.000113547 -0.0305137 -0.000545621  -0.0035125 -0.0349476 -0.000290275  -0.000149846 -0.0393943 -0.000695467  -0.00383025 -0.0392975 -0.000385046  -0.000264525 -0.0439537 -0.000782967  -0.0037275 -0.0389576 -0.00028944  -0.004044 -0.0435168 -0.000396371  -5.31673e-05 -0.0390576 -0.000705719  -0.0041545 -0.0438448 -0.00048542  -0.000393391 -0.0486962 -0.000872016  -0.00448573 -0.0485759 -0.000586629  -0.000540853 -0.0536193 -0.000967264  -0.00437069 -0.0482568 -0.000501871  -0.00470412 -0.0531814 -0.000614762  -0.000287414 -0.0483803 -0.000882387  -0.00482392 -0.0534844 -0.000696421  -0.000701785 -0.0587091 -0.00106406  -0.00517094 -0.0585638 -0.000804901  -0.000881433 -0.0639663 -0.00116837  -0.0050478 -0.0582696 -0.000728011  -0.00539696 -0.0635282 -0.000848532  -0.000589013 -0.0584202 -0.00107563  -0.00552285 -0.0638059 -0.000920534  -0.00107467 -0.0693724 -0.0012728  -0.00588572 -0.0692021 -0.00103676  -0.001284 -0.0749303 -0.0013833  -0.00575519 -0.0689338 -0.000966668  -0.0061183 -0.0744929 -0.00109327  -0.000953794 -0.0691077 -0.00128365  -0.00625205 -0.0747454 -0.001158  -0.0015049 -0.0806252 -0.00149274  -0.00662792 -0.0804292 -0.00127947  -0.00174177 -0.086455 -0.00160956  -0.00649321 -0.0801867 -0.0012182  -0.00687218 -0.0860204 -0.00134814  -0.00137877 -0.0803854 -0.0015049  -0.00700986 -0.0862465 -0.00140619  -0.00199294 -0.0924082 -0.00172675  -0.00739968 -0.092188 -0.00153387  -0.00225699 -0.0984826 -0.00184894  -0.00725842 -0.0919706 -0.00147879  -0.00765014 -0.0980462 -0.00161481  -0.0018605 -0.0921931 -0.00173795  -0.00779378 -0.0982492 -0.00166726  -0.00252974 -0.104666 -0.00197184  -0.00819361 -0.104423 -0.00179863  -0.0028193 -0.110958 -0.00209868  -0.00805068 -0.104229 -0.00175035  -0.00845289 -0.110523 -0.00189054  -0.00239503 -0.104475 -0.00198293  -0.00860095 -0.110703 -0.00193572  -0.00311816 -0.117345 -0.00222707  -0.00901175 -0.117081 -0.00207329  -0.00343001 -0.123831 -0.00235987  -0.00886381 -0.11691 -0.00203001  -0.00927806 -0.123395 -0.00217497  -0.00297892 -0.117177 -0.0022378  -0.00942791 -0.123553 -0.00221407  -0.00375009 -0.130399 -0.00249195  -0.00984764 -0.130113 -0.00235569  -0.00408041 -0.137051 -0.00262952  -0.00969803 -0.129961 -0.00231719  -0.0101194 -0.136615 -0.00246561  -0.00360584 -0.130251 -0.00250387  -0.0102717 -0.136754 -0.00250161  -0.00441957 -0.143776 -0.0027653  -0.0107 -0.14347 -0.00264549  -0.00476766 -0.150572 -0.00290537  -0.0105474 -0.143338 -0.00261235  -0.010978 -0.150138 -0.00276494  -0.00427413 -0.143646 -0.00277579  -0.0111313 -0.150258 -0.00279403  -0.00512481 -0.157432 -0.00304806  -0.0115664 -0.157108 -0.0029422  -0.00548768 -0.164352 -0.00319076  -0.0114136 -0.156997 -0.00291216  -0.0118475 -0.163919 -0.00306726  -0.00497603 -0.157321 -0.00305617  -0.0120025 -0.164021 -0.00309396  -0.00585866 -0.171327 -0.00333464  -0.0124412 -0.170987 -0.00324404  -0.00623727 -0.178352 -0.00348306  -0.012285 -0.170893 -0.00322235  -0.0127254 -0.177921 -0.00337803  -0.00570917 -0.171234 -0.00334346  -0.012882 -0.178006 -0.00339878  -0.00662184 -0.185421 -0.00362945  -0.0133243 -0.185067 -0.00355256  -0.0070107 -0.192534 -0.00377762  -0.0131686 -0.184989 -0.00353169  -0.0136123 -0.192105 -0.00368953  -0.00646901 -0.185344 -0.00363839  -0.0137696 -0.192174 -0.00370741  -0.00740433 -0.199681 -0.00392604  -0.0142155 -0.199314 -0.00386238  -0.00780463 -0.206862 -0.00408006  -0.0140572 -0.199251 -0.00384653  -0.0145009 -0.206437 -0.00400603  -0.00725126 -0.199618 -0.00393486  -0.0146599 -0.206489 -0.00402117  -0.00820804 -0.214069 -0.00423253  -0.0151062 -0.213692 -0.00417662  -0.00861526 -0.221304 -0.00438511  -0.0149493 -0.213642 -0.00416338  -0.0153954 -0.220881 -0.00432467  -0.00805283 -0.21402 -0.00423944  -0.015554 -0.220924 -0.00433636  -0.00902605 -0.22856 -0.00453746  -0.0159996 -0.228173 -0.00449371  -0.00944042 -0.235835 -0.0046922  -0.0158415 -0.228136 -0.0044843  -0.0162878 -0.235415 -0.00464404  -0.00887179 -0.228522 -0.00454497  -0.0164452 -0.235445 -0.00465477  -0.00985599 -0.243122 -0.00484908  -0.0168903 -0.24273 -0.00481308  -0.0102751 -0.250425 -0.00500333  -0.0167332 -0.242702 -0.00480449  -0.0171773 -0.250009 -0.00496638  -0.00970078 -0.243097 -0.00485277  -0.0173359 -0.250029 -0.00497389  -0.0106947 -0.257733 -0.00515854  -0.0177794 -0.257334 -0.00513041  -0.0111187 -0.265053 -0.00531518  -0.0176203 -0.257317 -0.00512624  -0.0180614 -0.264637 -0.00528681  -0.0105383 -0.257718 -0.00516284  -0.0182214 -0.26465 -0.00529146  -0.0115392 -0.272372 -0.00547111  -0.018662 -0.271967 -0.00545263  -0.0119622 -0.279697 -0.0056268  -0.0185034 -0.271958 -0.00544775  -0.0189457 -0.279285 -0.00560784  -0.0113835 -0.272363 -0.00547624  -0.0191038 -0.279288 -0.00561237  -0.0123844 -0.287018 -0.00578415  -0.0195389 -0.286608 -0.00576997  -0.0128114 -0.294339 -0.00594163  -0.0193827 -0.286607 -0.00576746  -0.019819 -0.293933 -0.00592852  -0.012233 -0.287017 -0.00578785  -0.0199757 -0.293927 -0.00593054  -0.0132353 -0.301655 -0.00609565  -0.0204124 -0.301243 -0.00608921  -0.0136602 -0.308967 -0.00625348  -0.0202551 -0.301247 -0.00608778  -0.02069 -0.308565 -0.00624669  -0.0130799 -0.30166 -0.00610125  -0.0208449 -0.308553 -0.00624788  -0.0140843 -0.316269 -0.00640965  -0.021275 -0.315855 -0.00640655  -0.0145085 -0.323565 -0.0065645  -0.0211208 -0.315865 -0.006405  -0.0215516 -0.323165 -0.00656402  -0.0139308 -0.316279 -0.00641239  -0.0217068 -0.323152 -0.00656569  -0.0149336 -0.330853 -0.00672257  -0.0221353 -0.330437 -0.00672174  -0.0153573 -0.338128 -0.00687897  -0.0219808 -0.33045 -0.00672126  -0.0224061 -0.337729 -0.00687778  -0.0147779 -0.330866 -0.00672483  -0.022563 -0.337711 -0.00688028  -0.015779 -0.345393 -0.00703561  -0.0229864 -0.344975 -0.00703669  -0.0161991 -0.352648 -0.00719166  -0.0228312 -0.344993 -0.00703657  -0.0232539 -0.352251 -0.00719261  -0.0156236 -0.34541 -0.00703561  -0.023412 -0.352231 -0.00719202  -0.0166194 -0.359884 -0.00734437  -0.0238318 -0.359468 -0.00734866  -0.0170379 -0.367111 -0.00750136  -0.0236757 -0.359484 -0.00734913  -0.0240963 -0.366711 -0.00750566  -0.016463 -0.359901 -0.00734568  -0.0242538 -0.366693 -0.00750446  0.000144415 -0.00023371 -0.00024581  8.75592e-05 -0.000145614 -0.000121593  0.000465065 -0.000999868 -0.000431895  8.65981e-05 -9.78708e-05 -0.000182033  0.000284374 -0.000710547 -0.000336528  0 0 0  0 0 0  0.000144728 -0.000184894 -0.00034833  0 0 0  0.00030382 -0.000807226 -0.000228286  0.000976741 -0.00236368 -0.000619173  0.000555456 -0.00212359 -0.000343561  0.00156707 -0.00400758 -0.000734448  0.000571907 -0.0019713 -0.00047338  0.000898153 -0.00353211 -0.000551224  0.00100788 -0.00220627 -0.00084877  0.000886142 -0.00372559 -0.000406623  0.00220522 -0.0060699 -0.000836134  0.00120011 -0.00577128 -0.000481129  0.00285044 -0.00835627 -0.000900626  0.00123996 -0.00552666 -0.000625968  0.00157395 -0.00777882 -0.000669003  0.00226718 -0.00582057 -0.00110734  0.00153458 -0.00805271 -0.000522852  0.00347281 -0.010944 -0.000954986  0.00184369 -0.0106354 -0.000573516  0.00407106 -0.01376 -0.000998735  0.0018957 -0.0103259 -0.000717521  0.00219548 -0.0131294 -0.000754714  0.00354445 -0.0106315 -0.00122988  0.00213879 -0.0134567 -0.000613809  0.00462937 -0.0168242 -0.00103509  0.00241119 -0.0165194 -0.000660777  0.00515401 -0.0201235 -0.00107563  0.00247413 -0.0161748 -0.000797033  0.0027265 -0.0194717 -0.000841141  0.00470126 -0.0164796 -0.00130105  0.00265908 -0.0198215 -0.000707626  0.0056386 -0.0236446 -0.00111353  0.00288427 -0.0233434 -0.000756502  0.00608593 -0.0273964 -0.00115931  0.00295448 -0.0229881 -0.000887156  0.00315887 -0.0267425 -0.000941157  0.00571197 -0.0232911 -0.00136447  0.00308084 -0.027095 -0.000813603  0.00649488 -0.0313558 -0.00120401  0.00325292 -0.0310532 -0.000872374  0.00686979 -0.0355322 -0.00125635  0.00333357 -0.030703 -0.000993013  0.00348562 -0.0348871 -0.00105524  0.00657368 -0.0310076 -0.00143778  0.00339955 -0.0352287 -0.000938535  0.00720763 -0.039904 -0.00130868  0.00352103 -0.0395975 -0.00100482  0.00751114 -0.0444762 -0.00137246  0.003609 -0.039262 -0.00111699  0.00371075 -0.0438429 -0.00118804  0.00729215 -0.0395719 -0.00152659  0.00361621 -0.044165 -0.00107932  0.00778186 -0.0492283 -0.00143361  0.00368643 -0.0489141 -0.00115561  0.0080179 -0.054167 -0.00150669  0.00378346 -0.0486021 -0.00125945  0.00383329 -0.0535482 -0.00134051  0.00787222 -0.0489195 -0.00163651  0.00373089 -0.053847 -0.00123978  0.00822401 -0.0592679 -0.00157785  0.00375247 -0.0589457 -0.00132251  0.00839543 -0.0645393 -0.00165761  0.00385761 -0.0586548 -0.00141954  0.00385916 -0.0639355 -0.00150847  0.00831997 -0.0589815 -0.00176382  0.00375009 -0.0642104 -0.00141549  0.00853872 -0.0699604 -0.00173914  0.00372481 -0.0696255 -0.00150669  0.00864971 -0.0755327 -0.00182748  0.00383675 -0.0693616 -0.00159645  0.00379157 -0.0749435 -0.00169265  0.00864148 -0.0696989 -0.00190794  0.00367725 -0.0751923 -0.00160682  0.00873363 -0.0812406 -0.00191557  0.00360763 -0.0808965 -0.00170529  0.00878632 -0.0870866 -0.00201058  0.00372493 -0.0806559 -0.00178719  0.00363755 -0.0865108 -0.00189078  0.00884175 -0.0810041 -0.00207138  0.0035162 -0.0867357 -0.00181305  0.00881219 -0.0930527 -0.00210774  0.00340462 -0.0926974 -0.00191915  0.00881195 -0.0991413 -0.00221097  0.00352669 -0.0924805 -0.00199401  0.0033977 -0.0985791 -0.00210178  0.00892675 -0.0928394 -0.002249  0.00327301 -0.0987801 -0.00203133  0.00878656 -0.105339 -0.00231433  0.00312197 -0.104971 -0.0021441  0.0087353 -0.111643 -0.00242269  0.00325024 -0.10478 -0.00221241  0.00308323 -0.111095 -0.00232673  0.00890756 -0.105148 -0.00244164  0.00295281 -0.111272 -0.00226259  0.00866091 -0.118044 -0.00253308  0.00276518 -0.117669 -0.00238097  0.00856221 -0.124541 -0.00264847  0.00289679 -0.117499 -0.00244248  0.00269616 -0.124003 -0.00256371  0.0087862 -0.117877 -0.00264907  0.00256181 -0.12416 -0.00250483  0.00844121 -0.13112 -0.00276291  0.00233996 -0.130736 -0.00262964  0.00830054 -0.137785 -0.00288284  0.00247645 -0.130586 -0.00268424  0.0022428 -0.137257 -0.00281  0.00857174 -0.130973 -0.00286639  0.00210476 -0.137395 -0.00275707  0.00814056 -0.144519 -0.00300395  0.00185347 -0.144126 -0.00288475  0.00795627 -0.151327 -0.00312912  0.00199366 -0.143997 -0.00293565  0.00173068 -0.150812 -0.00306642  0.00827098 -0.144391 -0.00309563  0.0015893 -0.150929 -0.00301993  0.00775647 -0.158195 -0.00325501  0.00131202 -0.157795 -0.00315237  0.00753808 -0.165126 -0.00338554  0.00145316 -0.157684 -0.00319552  0.00116301 -0.164622 -0.00333154  0.00789285 -0.158087 -0.00333738  0.00102067 -0.164722 -0.00329041  0.00730515 -0.172109 -0.00351501  0.00071764 -0.171701 -0.00342667  0.00705147 -0.179142 -0.00365019  0.000860453 -0.171606 -0.00346458  0.000547886 -0.178648 -0.00360346  0.00744152 -0.172016 -0.00358629  0.000403166 -0.178732 -0.00356758  0.00678492 -0.186217 -0.00378251  7.84397e-05 -0.185805 -0.00370681  0.00650382 -0.193337 -0.00392056  0.000225067 -0.185727 -0.00374079  -0.000109911 -0.192854 -0.00388181  0.00692773 -0.186141 -0.00384402  -0.000256777 -0.192923 -0.00385106  0.006212 -0.200489 -0.00405717  -0.0006001 -0.200073 -0.00399458  0.00590396 -0.207675 -0.00419927  -0.000453472 -0.200008 -0.00402343  -0.000805616 -0.207204 -0.00416708  0.00635457 -0.200427 -0.00411141  -0.000953436 -0.207257 -0.00414085  0.00558591 -0.214888 -0.00433862  -0.00131583 -0.214469 -0.004287  0.0052557 -0.222129 -0.00448287  -0.00116658 -0.214419 -0.00430977  -0.00153351 -0.221665 -0.00445628  0.00573087 -0.21484 -0.00438404  -0.00168395 -0.221706 -0.00443375  0.00491905 -0.229387 -0.00462472  -0.00205803 -0.228965 -0.00458169  0.00456977 -0.236665 -0.00477016  -0.00190902 -0.228925 -0.00460243  -0.00228953 -0.236212 -0.0047518  0.00506401 -0.229349 -0.00466132  -0.00243998 -0.236241 -0.00473285  0.00421143 -0.243955 -0.00491464  -0.00282669 -0.243531 -0.00488043  0.00384402 -0.25126 -0.00506353  -0.00267506 -0.243505 -0.00489867  -0.00306797 -0.250818 -0.00504911  0.00435805 -0.24393 -0.00494516  -0.00321794 -0.250836 -0.00503552  0.00347185 -0.258571 -0.00521052  -0.0036149 -0.258147 -0.0051862  0.00309134 -0.265891 -0.00536048  -0.00346255 -0.25813 -0.00519907  -0.00386357 -0.265455 -0.00535059  0.00361872 -0.258555 -0.00523531  -0.00401497 -0.265464 -0.00533652  0.00270844 -0.273212 -0.00550961  -0.00441957 -0.272788 -0.00549114  0.00231504 -0.280537 -0.00565898  -0.00426602 -0.272778 -0.00550044  -0.00467348 -0.280109 -0.00565398  0.00285482 -0.273204 -0.00552821  -0.00482583 -0.280113 -0.0056448  0.00191927 -0.287859 -0.0058099  -0.0052352 -0.287435 -0.00579655  0.00151825 -0.295182 -0.00596213  -0.00508618 -0.287433 -0.00580525  -0.0054965 -0.294761 -0.00595927  0.00206995 -0.287857 -0.0058254  -0.0056479 -0.294757 -0.00595105  0.0011158 -0.302496 -0.00611234  -0.0060637 -0.302073 -0.0061065  0.000706911 -0.309808 -0.00626636  -0.00591254 -0.302077 -0.00611103  -0.00632668 -0.309395 -0.00626457  0.00126576 -0.302501 -0.00612354  -0.00647879 -0.309384 -0.00625885  0.000295401 -0.31711 -0.0064187  -0.0068965 -0.316689 -0.00641489  -0.000115156 -0.324407 -0.00657225  -0.00674272 -0.316697 -0.00641942  -0.00716138 -0.323999 -0.00657284  0.000447989 -0.317121 -0.00642538  -0.00731325 -0.323985 -0.0065701  -0.000529051 -0.331691 -0.00672352  -0.00773358 -0.331271 -0.0067234  -0.00094533 -0.338969 -0.00687861  -0.007581 -0.331284 -0.00672543  -0.0079999 -0.338566 -0.00688124  -0.000379324 -0.331707 -0.00672901  -0.00815296 -0.338548 -0.0068785  -0.00136042 -0.346233 -0.00703037  -0.00857258 -0.345812 -0.00703299  -0.00177908 -0.353489 -0.00718272  -0.00841928 -0.345828 -0.00703418  -0.00883746 -0.353086 -0.00718725  -0.00121045 -0.346249 -0.00703168  -0.00899053 -0.353068 -0.00718796  -0.00219417 -0.360725 -0.00733566  -0.00940704 -0.360303 -0.00734019  -0.00261021 -0.367956 -0.00749147  -0.00925589 -0.360321 -0.00734043  -0.0096693 -0.367546 -0.00749457  -0.00204182 -0.360743 -0.0073365  -0.00982428 -0.36753 -0.00749445  0.000313252 -0.000668466 -0.000453711  0.000247076 -0.000407934 -0.000332117  0.00102749 -0.00173205 -0.000812888  0.000248462 -0.000363827 -0.000485182  0.000799924 -0.0011754 -0.000889301  0 0 0  0 0 0  0.000317924 -0.000612795 -0.000640869  0 0 0  0.000804871 -0.00127894 -0.000620365  0.00205918 -0.00334162 -0.00114059  0.00153454 -0.00276542 -0.000882268  0.00326279 -0.00507748 -0.00135589  0.00157917 -0.00259888 -0.00122964  0.00247753 -0.00424588 -0.00143218  0.00211158 -0.00315166 -0.00157261  0.00241286 -0.00445628 -0.00104964  0.00450408 -0.0071879 -0.00152051  0.00333872 -0.00654036 -0.00118625  0.00576317 -0.00946778 -0.00162506  0.00342107 -0.00628114 -0.00159514  0.00436381 -0.00854772 -0.00167918  0.00459906 -0.00690669 -0.00204158  0.00427443 -0.00883484 -0.0012691  0.00697541 -0.0120274 -0.00169349  0.00519305 -0.0114079 -0.00133276  0.00814503 -0.014818 -0.00174308  0.00528133 -0.0110885 -0.00174224  0.00615764 -0.0138882 -0.00177836  0.007076 -0.0116964 -0.00223017  0.00606936 -0.01422 -0.00137556  0.0092532 -0.0178474 -0.00177026  0.00690883 -0.0172673 -0.00140905  0.0103053 -0.0211234 -0.00179577  0.00698948 -0.0169199 -0.00180221  0.00777388 -0.0202087 -0.00182188  0.00934446 -0.0174937 -0.00228918  0.00769293 -0.0205603 -0.00143981  0.0112975 -0.0246196 -0.00181127  0.0084359 -0.024071 -0.00146651  0.0122316 -0.0283569 -0.00183499  0.0085113 -0.0237154 -0.00183785  0.00920308 -0.0274684 -0.001858  0.0113766 -0.0242627 -0.00230265  0.00912625 -0.0278184 -0.00150013  0.0131105 -0.0323011 -0.0018543  0.00977224 -0.031773 -0.00153267  0.0139328 -0.0364701 -0.00188196  0.00984746 -0.0314241 -0.00187659  0.0104486 -0.0356097 -0.00190401  0.0131849 -0.0319542 -0.00231123  0.0103716 -0.0359477 -0.00157201  0.0147029 -0.0408313 -0.00190997  0.0109272 -0.0403165 -0.00161195  0.0154192 -0.0454005 -0.00194693  0.0110051 -0.0399855 -0.00193119  0.0115193 -0.0445701 -0.00196886  0.0147776 -0.0405036 -0.00233281  0.0114383 -0.044889 -0.00166202  0.0160859 -0.0501484 -0.00198543  0.0119077 -0.0496411 -0.00171173  0.0167024 -0.055085 -0.00203228  0.0119886 -0.0493311 -0.00200605  0.0124195 -0.054285 -0.00205326  0.0161645 -0.0498418 -0.00237453  0.0123349 -0.0545796 -0.00177169  0.0172698 -0.0601841 -0.00208068  0.0127213 -0.0596828 -0.00183034  0.0177903 -0.0654557 -0.00213766  0.01281 -0.0593974 -0.00210106  0.0131605 -0.0646847 -0.00215769  0.0173529 -0.0599027 -0.00243926  0.013068 -0.0649548 -0.00189948  0.0182651 -0.0708748 -0.0021956  0.0133771 -0.0703769 -0.00196946  0.0186923 -0.07645 -0.00226188  0.0134712 -0.0701162 -0.00221729  0.0137458 -0.0757068 -0.00228274  0.0183524 -0.0706177 -0.00252414  0.0136466 -0.0759524 -0.00204706  0.0190783 -0.0821571 -0.00233018  0.013882 -0.0816634 -0.00212538  0.0194191 -0.0880034 -0.00240541  0.0139812 -0.0814244 -0.00235045  0.0141851 -0.0872876 -0.00242507  0.0191723 -0.0819238 -0.00262964  0.0140812 -0.08751 -0.00221062  0.0197204 -0.0939705 -0.00248086  0.0142452 -0.0934789 -0.00229645  0.0199794 -0.100062 -0.00256491  0.0143523 -0.0932652 -0.00250113  0.0144862 -0.0993714 -0.00258434  0.0198214 -0.0937608 -0.00275314  0.0143752 -0.0995693 -0.00238895  0.0202018 -0.106257 -0.00265086  0.0144731 -0.105768 -0.00248301  0.0203849 -0.112566 -0.00274134  0.0145875 -0.105578 -0.0026679  0.0146563 -0.1119 -0.0027585  0.0203092 -0.106072 -0.00289416  0.0145386 -0.112076 -0.00258303  0.0205313 -0.118966 -0.00283074  0.0145757 -0.118478 -0.0026834  0.0206417 -0.125465 -0.00292945  0.0146934 -0.118311 -0.00284946  0.0147028 -0.124821 -0.00294721  0.0206439 -0.1188 -0.0030508  0.0145844 -0.124976 -0.00279057  0.0207199 -0.132043 -0.00302875  0.0145632 -0.131557 -0.0028975  0.0207646 -0.138709 -0.00313449  0.0146834 -0.131411 -0.00304472  0.0146382 -0.138088 -0.00314927  0.0208371 -0.131898 -0.00322509  0.0145135 -0.138225 -0.00301015  0.0207775 -0.145442 -0.00323856  0.0144401 -0.144959 -0.00312269  0.0207605 -0.152251 -0.00334811  0.0145671 -0.14483 -0.00325429  0.0144696 -0.151653 -0.00336337  0.0208986 -0.145318 -0.00341368  0.0143409 -0.151768 -0.00324035  0.0207145 -0.159118 -0.00345922  0.014219 -0.158637 -0.00335705  0.0206394 -0.166048 -0.00357533  0.0143473 -0.158527 -0.00347304  0.0142047 -0.165471 -0.00358963  0.0208392 -0.15901 -0.00361109  0.0140736 -0.165569 -0.00348234  0.0205388 -0.173028 -0.00369191  0.0139058 -0.172551 -0.00360489  0.0204122 -0.180062 -0.00381291  0.0140374 -0.172458 -0.00370574  0.0138516 -0.179504 -0.00382566  0.0206671 -0.172938 -0.00382543  0.013716 -0.179586 -0.00373137  0.0202625 -0.187135 -0.00393188  0.0135074 -0.186662 -0.00386012  0.0200882 -0.194252 -0.00405788  0.0136447 -0.186584 -0.00394523  0.0134182 -0.193713 -0.00407052  0.0203929 -0.187059 -0.00404894  0.0132809 -0.193782 -0.00399005  0.0198929 -0.201403 -0.00418556  0.0130389 -0.200933 -0.00412118  0.0196767 -0.208588 -0.0043124  0.0131748 -0.20087 -0.00419569  0.0129154 -0.208067 -0.00432444  0.0200257 -0.201341 -0.00428081  0.0127771 -0.20812 -0.0042572  0.0194414 -0.215797 -0.00444162  0.012502 -0.215333 -0.00439131  0.0191863 -0.223034 -0.00457597  0.0126417 -0.215281 -0.0044533  0.0123513 -0.22253 -0.00458622  0.0195763 -0.21575 -0.00452435  0.0122104 -0.222573 -0.00452924  0.0189159 -0.230289 -0.00470829  0.0119052 -0.229829 -0.00466919  0.0186279 -0.237564 -0.00484598  0.0120487 -0.229791 -0.00471926  0.0117304 -0.237078 -0.00485563  0.0190561 -0.230252 -0.00477755  0.0115886 -0.237107 -0.00480783  0.0183263 -0.244851 -0.00498211  0.0112584 -0.244396 -0.00494981  0.0180092 -0.252153 -0.00512195  0.0114021 -0.24437 -0.00499117  0.011061 -0.251682 -0.00513089  0.0184681 -0.244827 -0.00503743  0.0109177 -0.251702 -0.00509441  0.0176814 -0.259457 -0.00526083  0.0105686 -0.25901 -0.00523686  0.0173397 -0.266778 -0.00540257  0.010711 -0.258993 -0.00526929  0.0103519 -0.266318 -0.00541139  0.0178239 -0.259445 -0.00530481  0.0102074 -0.266329 -0.00538301  0.0169871 -0.274094 -0.00554717  0.0098393 -0.273649 -0.0055275  0.0166256 -0.281415 -0.00569022  0.00998402 -0.27364 -0.00555229  0.00961041 -0.28097 -0.0056963  0.0171323 -0.274086 -0.00557911  0.00946426 -0.280971 -0.00567591  0.0162561 -0.288733 -0.00583291  0.00907969 -0.288294 -0.00582337  0.0158763 -0.296052 -0.00598335  0.00922775 -0.288291 -0.00584149  0.00883961 -0.295618 -0.00598741  0.0164008 -0.288733 -0.00585973  0.00869107 -0.295614 -0.00597358  0.015492 -0.303362 -0.0061295  0.00829697 -0.302927 -0.00612211  0.0151002 -0.310672 -0.00627553  0.00844502 -0.302932 -0.00613534  0.00804567 -0.310248 -0.00628281  0.0156379 -0.303369 -0.00614655  0.00789714 -0.310237 -0.00627196  0.014703 -0.317971 -0.00642514  0.00749445 -0.31754 -0.00642323  0.0142984 -0.325266 -0.00657678  0.0076437 -0.317548 -0.00642908  0.007236 -0.324848 -0.00658095  0.0148511 -0.317981 -0.00643694  0.00708604 -0.324833 -0.00657487  0.0138948 -0.332544 -0.00672507  0.00667763 -0.332118 -0.00672495  0.0134835 -0.339821 -0.00687695  0.00682616 -0.332132 -0.00673032  0.00641441 -0.339411 -0.00688016  0.0140417 -0.33256 -0.00673342  0.00626397 -0.339395 -0.00687885  0.013073 -0.347081 -0.00702822  0.00585103 -0.346658 -0.00703132  0.0126574 -0.354336 -0.00717914  0.00599957 -0.346673 -0.00703132  0.00558448 -0.353931 -0.00718164  0.013221 -0.3471 -0.00703096  0.00543475 -0.353911 -0.00718176  0.012243 -0.361575 -0.00733066  0.00501895 -0.361151 -0.00733328  0.0118275 -0.368808 -0.00748181  0.00516915 -0.361167 -0.00733173  0.0047574 -0.368397 -0.00748241  0.0123916 -0.361592 -0.00732899  0.00460911 -0.368378 -0.00748408  0.000578091 -0.00167733 -0.00065279  0.000496417 -0.00104833 -0.000528812  0.00195728 -0.00322765 -0.00117254  0.00050009 -0.00100237 -0.000770926  0.00151366 -0.00223595 -0.00139797  0 0 0  0 0 0  0.000593141 -0.00159258 -0.000902057  0 0 0  0.00149958 -0.00235951 -0.000986934  0.00361951 -0.00510162 -0.00161946  0.00281024 -0.00409871 -0.00137985  0.00549048 -0.0069387 -0.00193024  0.00287601 -0.00389361 -0.00192356  0.0043931 -0.00567448 -0.0022465  0.00368211 -0.00486249 -0.00223196  0.00428683 -0.00592333 -0.00164628  0.00733092 -0.0089891 -0.0021559  0.0058448 -0.00799739 -0.00184631  0.00915959 -0.0112363 -0.00230467  0.00595608 -0.00769991 -0.00249803  0.00750017 -0.00996238 -0.00262856  0.00744325 -0.0086661 -0.00291336  0.00737479 -0.0102836 -0.00197077  0.0109283 -0.0136989 -0.00239384  0.00888339 -0.0127922 -0.00205159  0.0126261 -0.0164332 -0.00245047  0.00899598 -0.0124479 -0.00271702  0.0104287 -0.0152102 -0.00275648  0.0110469 -0.0133392 -0.00318182  0.0103188 -0.0155631 -0.00210094  0.0142575 -0.0193904 -0.00247276  0.0116981 -0.0185573 -0.00212657  0.0158102 -0.0226216 -0.00248826  0.011794 -0.0181948 -0.00277019  0.013093 -0.0214525 -0.00277221  0.0143619 -0.0190204 -0.00323975  0.0130022 -0.0218145 -0.00214612  0.0172935 -0.0260713 -0.00248647  0.0142432 -0.0252895 -0.00215352  0.0186981 -0.0297758 -0.00249052  0.0143242 -0.0249271 -0.00276065  0.0154928 -0.0286574 -0.00275266  0.0173808 -0.0257079 -0.00321257  0.0154151 -0.0290112 -0.00216675  0.0200331 -0.0336875 -0.00248623  0.0165233 -0.0329407 -0.00217414  0.0212958 -0.037833 -0.00249124  0.0165967 -0.0325933 -0.00273979  0.0176395 -0.0367633 -0.00273502  0.0201118 -0.03334 -0.00316429  0.0175672 -0.0370994 -0.00219023  0.0224891 -0.0421703 -0.00249445  0.0185497 -0.0414521 -0.00220573  0.0236107 -0.0467223 -0.00250864  0.0186209 -0.0411222 -0.00272906  0.0195431 -0.0456983 -0.00273299  0.0225619 -0.0418447 -0.00312209  0.0194696 -0.0460138 -0.00223041  0.0246667 -0.0514485 -0.00252175  0.0203325 -0.0507525 -0.00225556  0.0256556 -0.0563712 -0.0025456  0.0204059 -0.0504457 -0.00273788  0.0212125 -0.0553924 -0.00275362  0.0247412 -0.051147 -0.00310028  0.0211353 -0.0556828 -0.00229144  0.0265813 -0.0614529 -0.00257218  0.0218831 -0.0607756 -0.00232852  0.0274425 -0.0667123 -0.00260627  0.0219617 -0.0604948 -0.00277162  0.0226552 -0.0657765 -0.00279701  0.0266601 -0.0611748 -0.0031029  0.0225742 -0.0660418 -0.00237358  0.0282439 -0.0721141 -0.00264275  0.0232123 -0.0714562 -0.00242162  0.0289818 -0.0776795 -0.00268817  0.0232956 -0.0711978 -0.00282574  0.0238842 -0.0767838 -0.00286412  0.0283269 -0.0718611 -0.00312746  0.0237983 -0.0770266 -0.00247645  0.0296655 -0.0833714 -0.00273371  0.024332 -0.0827283 -0.00253439  0.0302873 -0.0892097 -0.00278997  0.0244223 -0.0824957 -0.00290334  0.0249107 -0.0883539 -0.00295079  0.029753 -0.0831434 -0.00317693  0.0248153 -0.0885726 -0.00260091  0.0308571 -0.095161 -0.00284696  0.0252515 -0.0945326 -0.00266671  0.0313715 -0.101245 -0.00291204  0.0253484 -0.0943241 -0.00299978  0.0257394 -0.100426 -0.00305712  0.030954 -0.0949559 -0.00324702  0.02564 -0.100621 -0.00274026  0.031836 -0.107427 -0.00297737  0.0259839 -0.106813 -0.00281465  0.0322465 -0.113726 -0.00304985  0.0260856 -0.106626 -0.00311601  0.0263875 -0.112944 -0.00318229  0.0319371 -0.107245 -0.00333834  0.0262817 -0.113117 -0.00289714  0.0326105 -0.120113 -0.00312567  0.0265379 -0.119513 -0.00298011  0.0329243 -0.126603 -0.00320709  0.026646 -0.119347 -0.00324893  0.0268621 -0.125856 -0.00332499  0.0327184 -0.119951 -0.00344872  0.0267501 -0.126009 -0.00307047  0.0331942 -0.133169 -0.00328791  0.0269258 -0.132583 -0.00316  0.0334184 -0.139824 -0.00337672  0.0270385 -0.132437 -0.00339997  0.0271769 -0.139112 -0.0034833  0.033307 -0.133026 -0.00357652  0.0270617 -0.139243 -0.00325644  0.0336027 -0.146545 -0.00346613  0.0271597 -0.145972 -0.00335443  0.0337417 -0.153345 -0.00356233  0.0272768 -0.145847 -0.00356734  0.027343 -0.152665 -0.00365496  0.0337176 -0.146423 -0.00372148  0.0272226 -0.152778 -0.00345647  0.0338435 -0.160199 -0.00365889  0.0272522 -0.159641 -0.00356054  0.0339072 -0.167122 -0.00375974  0.0273726 -0.15953 -0.00374663  0.0273693 -0.166471 -0.003842  0.0339661 -0.160094 -0.00388229  0.0272465 -0.166568 -0.00366783  0.033936 -0.174088 -0.00386262  0.027211 -0.173542 -0.0037775  0.0339258 -0.181113 -0.00396991  0.0273354 -0.17345 -0.00394082  0.0272727 -0.180491 -0.00404274  0.03406 -0.173999 -0.00405669  0.0271449 -0.180572 -0.00389194  0.0338848 -0.188173 -0.00407946  0.0270495 -0.18764 -0.00400698  0.0338118 -0.195283 -0.00419247  0.0271778 -0.187564 -0.0041467  0.0270584 -0.194688 -0.00425494  0.0340149 -0.188101 -0.00424695  0.0269268 -0.194753 -0.00412631  0.0337129 -0.202418 -0.00430632  0.0267794 -0.201899 -0.004246  0.0335808 -0.209596 -0.00442421  0.026911 -0.201837 -0.00436568  0.0267394 -0.209028 -0.00447929  0.033843 -0.202361 -0.00444901  0.0266075 -0.209082 -0.0043695  0.0334234 -0.216792 -0.0045433  0.0264108 -0.216285 -0.00449443  0.0332375 -0.224022 -0.00466812  0.026546 -0.216236 -0.0045917  0.0263281 -0.223479 -0.00471222  0.033556 -0.216748 -0.00466335  0.0261919 -0.223519 -0.00462139  0.0330296 -0.231262 -0.0047909  0.025955 -0.230768 -0.00475049  0.0327978 -0.238532 -0.00491869  0.0260918 -0.230731 -0.00483239  0.0258338 -0.238013 -0.00495636  0.0331657 -0.231231 -0.00488865  0.025696 -0.238042 -0.0048815  0.0325453 -0.245805 -0.00504613  0.0254185 -0.245322 -0.0050168  0.0322735 -0.2531 -0.00517631  0.0255578 -0.245297 -0.00508022  0.0252662 -0.252602 -0.00521004  0.0326848 -0.245782 -0.00512445  0.0251255 -0.25262 -0.00515091  0.0319834 -0.260395 -0.00530779  0.0248163 -0.259924 -0.00528646  0.0316737 -0.267705 -0.00544393  0.0249584 -0.259908 -0.00533772  0.024636 -0.267227 -0.00546956  0.0321243 -0.260382 -0.00537193  0.0244951 -0.267236 -0.00542402  0.0313513 -0.275009 -0.00558066  0.024158 -0.274549 -0.00556457  0.031014 -0.282325 -0.00571966  0.0243001 -0.274541 -0.00560367  0.0239503 -0.281867 -0.00573874  0.0314946 -0.275005 -0.00562847  0.0238085 -0.281867 -0.00570726  0.0306635 -0.289634 -0.00585973  0.0234485 -0.289181 -0.00584769  0.0302997 -0.296946 -0.00599909  0.0235906 -0.289181 -0.00587571  0.0232217 -0.296501 -0.00601578  0.0308075 -0.289636 -0.00589192  0.0230775 -0.296495 -0.00599146  0.0299287 -0.304249 -0.00614071  0.0226977 -0.303805 -0.00613654  0.0295427 -0.311552 -0.00628567  0.0228438 -0.303809 -0.00615585  0.0224583 -0.311123 -0.00629866  0.0300715 -0.304256 -0.00616515  0.0223129 -0.311112 -0.00628185  0.0291531 -0.318843 -0.00643301  0.0219209 -0.318406 -0.0064286  0.0287547 -0.326131 -0.00658011  0.0220656 -0.318417 -0.00644171  0.0216658 -0.325712 -0.00658894  0.0292983 -0.318855 -0.00644696  0.0215204 -0.325697 -0.0065763  0.0283537 -0.333407 -0.00672686  0.0211167 -0.332977 -0.00672877  0.0279441 -0.340679 -0.00687695  0.0212646 -0.332989 -0.0067333  0.0208564 -0.340268 -0.0068804  0.0284998 -0.333423 -0.0067364  0.0207078 -0.340249 -0.00687718  0.0275335 -0.347936 -0.00702584  0.0202956 -0.347509 -0.00702786  0.0271196 -0.355189 -0.00717354  0.0204453 -0.347525 -0.0070287  0.02003 -0.354782 -0.00717771  0.0276804 -0.347953 -0.00702834  0.0198834 -0.354763 -0.00717902  0.0267048 -0.362431 -0.00732374  0.019469 -0.362004 -0.00732815  0.0262885 -0.369672 -0.00747275  0.0196145 -0.36202 -0.00732541  0.0192022 -0.369259 -0.00747228  0.0268505 -0.362448 -0.00732386  0.0190578 -0.369241 -0.00747728  0.00117616 -0.0039646 -0.000874758  0.00100992 -0.00243515 -0.000726461  0.00404118 -0.00615788 -0.00154507  0.00101956 -0.00239331 -0.00106525  0.00274055 -0.0043962 -0.00187564  0 0 0  0 0 0  0.00113656 -0.00382936 -0.00119781  0 0 0  0.00269464 -0.00455481 -0.00133967  0.00637583 -0.00761318 -0.00207162  0.00475438 -0.00628853 -0.00185049  0.00858074 -0.00958234 -0.0024848  0.00481763 -0.00604051 -0.00256491  0.00695914 -0.00790441 -0.00300527  0.00634135 -0.00740874 -0.00291002  0.00684106 -0.00820947 -0.00220728  0.010926 -0.0113499 -0.00276434  0.00899655 -0.0101214 -0.00246561  0.0131603 -0.0135368 -0.00295937  0.00910261 -0.00977856 -0.00334477  0.0112017 -0.01197 -0.00352967  0.0110121 -0.0110169 -0.00378489  0.0110673 -0.0123357 -0.0026356  0.0154365 -0.015869 -0.00306499  0.0131034 -0.0147324 -0.00273573  0.0176162 -0.0185214 -0.00313282  0.0132226 -0.0143528 -0.00364912  0.0151777 -0.0170413 -0.00369704  0.0155607 -0.015484 -0.00411761  0.0150557 -0.0174215 -0.00279629  0.0197516 -0.0214087 -0.00314903  0.0169373 -0.0203465 -0.00281692  0.0217903 -0.0245759 -0.00315666  0.017045 -0.0199621 -0.00370526  0.0188406 -0.0231687 -0.00369155  0.0198696 -0.0210173 -0.00416887  0.018739 -0.0235413 -0.00282562  0.0237539 -0.0279734 -0.00313675  0.0204588 -0.02697 -0.00281668  0.0256225 -0.0316342 -0.00312388  0.0205503 -0.0265985 -0.00365925  0.0221856 -0.0302927 -0.00362337  0.0238593 -0.0275986 -0.00410032  0.0220981 -0.0306503 -0.00280976  0.0274071 -0.0354982 -0.00309741  0.023656 -0.0345434 -0.00279617  0.0290976 -0.0396118 -0.00308263  0.0237383 -0.0341911 -0.00358081  0.0252152 -0.0383345 -0.00354493  0.0275011 -0.0351464 -0.00399518  0.025135 -0.0386714 -0.00279069  0.0307083 -0.0439063 -0.00306106  0.0265344 -0.042992 -0.00278127  0.0322227 -0.0484316 -0.0030545  0.0266117 -0.0426647 -0.00350893  0.0279355 -0.0472177 -0.00348091  0.0307956 -0.0435801 -0.00389218  0.0278574 -0.0475284 -0.00278306  0.0336641 -0.0531186 -0.00304437  0.0291046 -0.0522411 -0.00278652  0.035013 -0.0580208 -0.00304818  0.0291817 -0.0519365 -0.0034554  0.0303572 -0.0568646 -0.00343943  0.0337504 -0.0528178 -0.00380993  0.030277 -0.0571516 -0.00279868  0.0362916 -0.0630642 -0.00305057  0.0313756 -0.0622194 -0.00281394  0.0374802 -0.0683048 -0.00306487  0.0314574 -0.0619405 -0.00342631  0.0324905 -0.0672062 -0.00342488  0.0363817 -0.0627911 -0.00375128  0.0324055 -0.0674673 -0.00283837  0.0386022 -0.0736719 -0.00307941  0.0333656 -0.072857 -0.00286376  0.0396395 -0.0792196 -0.00310528  0.0334525 -0.0726036 -0.00342441  0.0343488 -0.0781735 -0.00343192  0.038699 -0.0734235 -0.00371981  0.0342579 -0.0784108 -0.00289762  0.0406137 -0.0848778 -0.0031302  0.0350845 -0.084091 -0.00293565  0.0415061 -0.090699 -0.00316846  0.0351765 -0.0838628 -0.00344551  0.0359437 -0.0897056 -0.00346553  0.0407134 -0.084653 -0.00371492  0.0358472 -0.0899196 -0.00298059  0.0423397 -0.0966184 -0.00320411  0.0365474 -0.0958591 -0.00302887  0.0430962 -0.102684 -0.00325203  0.0366468 -0.0956528 -0.00349009  0.0372895 -0.101742 -0.00352168  0.0424474 -0.0964163 -0.0037334  0.0371858 -0.101934 -0.00308347  0.0437963 -0.108836 -0.00330055  0.0377656 -0.108104 -0.00313985  0.0444241 -0.115121 -0.00335562  0.0378709 -0.107922 -0.00355673  0.0383987 -0.114227 -0.00359797  0.0439093 -0.108657 -0.00377595  0.0382906 -0.114394 -0.00320458  0.0449995 -0.121475 -0.00341237  0.0387579 -0.12077 -0.0032711  0.0455066 -0.127952 -0.00347567  0.0388685 -0.120608 -0.00364316  0.0392864 -0.127102 -0.00369453  0.0451162 -0.121318 -0.00383842  0.0391712 -0.12725 -0.00334299  0.045962 -0.134486 -0.00354183  0.0395334 -0.133806 -0.00341666  0.0463552 -0.14113 -0.00361681  0.0396477 -0.133664 -0.00374889  0.0399649 -0.140326 -0.00380898  0.0460836 -0.134349 -0.00392187  0.0398462 -0.140453 -0.00349712  0.0467024 -0.147821 -0.00369048  0.0401101 -0.147165 -0.00358009  0.0469904 -0.154607 -0.00377119  0.0402296 -0.147041 -0.00387526  0.0404501 -0.153845 -0.00394285  0.0468278 -0.147702 -0.00402486  0.040328 -0.153955 -0.0036695  0.0472353 -0.161432 -0.00385427  0.0405014 -0.160799 -0.003757  0.0474241 -0.168342 -0.00394201  0.0406244 -0.160694 -0.0040139  0.0407546 -0.16762 -0.00409091  0.047364 -0.161331 -0.00414824  0.0406299 -0.167715 -0.00385022  0.0475764 -0.175279 -0.00402987  0.0407176 -0.17467 -0.00394905  0.0476735 -0.182293 -0.0041275  0.040844 -0.174581 -0.00417113  0.0408974 -0.18161 -0.00425625  0.0477066 -0.175196 -0.00428724  0.0407665 -0.181686 -0.0040493  0.0477393 -0.189324 -0.00422263  0.040777 -0.188737 -0.0041523  0.0477543 -0.196421 -0.00432444  0.0409088 -0.188663 -0.00434291  0.0408864 -0.195775 -0.00443566  0.0478737 -0.189255 -0.00444233  0.0407522 -0.195838 -0.00425959  0.0477397 -0.203531 -0.00442827  0.0406938 -0.202967 -0.00436854  0.0476825 -0.210697 -0.00453556  0.0408273 -0.202907 -0.00453091  0.0407376 -0.210086 -0.00462997  0.0478773 -0.203477 -0.00461566  0.0406032 -0.210136 -0.0044806  0.0475955 -0.217867 -0.00464368  0.0404797 -0.217323 -0.00459504  0.0474701 -0.225084 -0.00475764  0.0406144 -0.217276 -0.00473058  0.0404654 -0.224508 -0.00483465  0.0477364 -0.217825 -0.00479913  0.0403292 -0.224545 -0.00471282  0.0473189 -0.232302 -0.0048697  0.0401471 -0.231779 -0.00483274  0.0471318 -0.239558 -0.00498855  0.0402846 -0.231744 -0.00494289  0.0400805 -0.239014 -0.00505412  0.0474589 -0.232273 -0.00499845  0.0399439 -0.239037 -0.00495517  0.0469224 -0.24681 -0.00510895  0.0397112 -0.246305 -0.00507832  0.0466838 -0.254092 -0.00523329  0.0398517 -0.24628 -0.00516891  0.039598 -0.253576 -0.00528395  0.0470648 -0.24679 -0.005211  0.0394566 -0.253592 -0.00520563  0.0464249 -0.261368 -0.00535619  0.0391822 -0.26088 -0.00533402  0.046139 -0.268666 -0.00548553  0.0393224 -0.260867 -0.00540423  0.0390315 -0.268174 -0.00552642  0.0465684 -0.261358 -0.00543725  0.0388882 -0.268183 -0.00546491  0.045835 -0.275954 -0.00561523  0.0385756 -0.275482 -0.00559914  0.0455093 -0.283258 -0.00574827  0.0387185 -0.275476 -0.00565028  0.0383902 -0.282792 -0.00577784  0.0459859 -0.275951 -0.00567615  0.0382454 -0.282789 -0.00573361  0.0451727 -0.290552 -0.00588286  0.0379007 -0.290092 -0.00586939  0.0448127 -0.297854 -0.00601864  0.0380445 -0.290095 -0.00590837  0.0376878 -0.297406 -0.00604129  0.0453196 -0.290554 -0.0059247  0.0375431 -0.297398 -0.00601077  0.044445 -0.30514 -0.0061568  0.0371721 -0.304697 -0.00615001  0.0440593 -0.312436 -0.00629616  0.0373175 -0.304704 -0.00617492  0.0369382 -0.312006 -0.00631273  0.0445931 -0.305151 -0.0061866  0.0367925 -0.311994 -0.00629139  0.0436721 -0.319715 -0.00643933  0.0364006 -0.319282 -0.00643635  0.0432661 -0.327 -0.00658309  0.0365465 -0.319293 -0.00645292  0.0361485 -0.326583 -0.00659335  0.0438168 -0.319729 -0.00645781  0.0360024 -0.326567 -0.00658333  0.0428603 -0.334266 -0.00672936  0.0355985 -0.33384 -0.00672877  0.0424421 -0.341536 -0.00687587  0.0357444 -0.333854 -0.00673652  0.0353353 -0.341126 -0.00688171  0.0430086 -0.334283 -0.00673902  0.0351906 -0.341108 -0.00687599  0.0420277 -0.348788 -0.00702322  0.0347745 -0.348363 -0.00702596  0.0416076 -0.356038 -0.00717497  0.0349231 -0.34838 -0.0070281  0.0345066 -0.355634 -0.00717509  0.0421765 -0.348807 -0.0070281  0.0343595 -0.355615 -0.00717425  0.0411887 -0.363282 -0.00732291  0.0339427 -0.36286 -0.00732338  0.0407686 -0.370525 -0.00747156  0.0340881 -0.362874 -0.00732195  0.0336728 -0.37012 -0.0074687  0.0413351 -0.363302 -0.00732255  0.033525 -0.3701 -0.00747228  -0.000595428 -0.00114278 0.00116658  -0.000680566 -0.0017823 0.0013963  -0.00199212 -0.00276778 0.00213754  -0.000731476 -0.00158475 0.00187564  -0.00284185 -0.00356317 0.0032053  -0.00209907 -0.00310587 0.00211656  0 0 0  -0.00217351 -0.00337756 0.00161219  0 0 0  0 0 0  -0.000598576 -0.000948519 0.00158751  0 0 0  -0.0043608 -0.00538269 0.00284648  -0.00272775 -0.00399569 0.00249374  -0.00371999 -0.00419243 0.00283992  -0.00477995 -0.00533963 0.00331342  -0.00547516 -0.00576915 0.00332034  -0.00491379 -0.00476425 0.00416851  -0.00702192 -0.00625489 0.00477564  -0.00646481 -0.00588298 0.0047574  -0.00636512 -0.0064778 0.00382507  -0.00390576 -0.0037002 0.0035671  -0.00858754 -0.00814006 0.00445402  -0.0068213 -0.00691675 0.00386822  -0.00730082 -0.00759751 0.00356591  -0.00890324 -0.00859001 0.00417912  -0.00901765 -0.00959555 0.00371802  -0.00904748 -0.00787595 0.00511348  -0.0110285 -0.00981368 0.00529611  -0.0109345 -0.00890701 0.00588632  -0.0108147 -0.00965834 0.00481749  -0.00746742 -0.00693888 0.00436473  -0.0130765 -0.0116303 0.00503182  -0.0109085 -0.0105545 0.00435627  -0.0107263 -0.0119298 0.00372159  -0.0129062 -0.0127976 0.00438023  -0.012365 -0.0144945 0.00368214  -0.0129636 -0.0120509 0.00530303  -0.0148438 -0.0145773 0.00524867  -0.0153669 -0.0130076 0.00612152  -0.0153177 -0.0137869 0.00505304  -0.0107909 -0.0112239 0.00450599  -0.0175131 -0.0162642 0.00502145  -0.0148312 -0.0153127 0.00434005  -0.0139741 -0.0173584 0.00356436  -0.0167218 -0.0181238 0.00421715  -0.0155379 -0.0204612 0.00342441  -0.0166865 -0.0173996 0.00509429  -0.0184756 -0.0204774 0.00491691  -0.0196362 -0.0182682 0.00589442  -0.0196663 -0.0190176 0.00487852  -0.0139401 -0.0166618 0.00430977  -0.0217522 -0.0220137 0.00471616  -0.0185487 -0.0211765 0.00406265  -0.0170639 -0.02383 0.00324738  -0.0203345 -0.0245037 0.00386786  -0.0185525 -0.0274215 0.00305831  -0.0202264 -0.0238246 0.00469136  -0.0219275 -0.0273966 0.00445199  -0.0236891 -0.0246003 0.0054425  -0.0237841 -0.0252944 0.00449383  -0.0169551 -0.0231664 0.00394595  -0.0257511 -0.0287831 0.00426698  -0.0220628 -0.0280468 0.00365794  -0.0200024 -0.031252 0.00285363  -0.0237469 -0.0318416 0.00343168  -0.0214157 -0.03529 0.00264168  -0.0235915 -0.0312142 0.00419557  -0.0252062 -0.0352336 0.00393105  -0.0275224 -0.0318975 0.00489092  -0.0276623 -0.0325351 0.00401425  -0.0198435 -0.0306356 0.00350285  -0.0295125 -0.0364713 0.00376141  -0.0253792 -0.0358304 0.00319839  -0.0227908 -0.0395421 0.00242794  -0.0269693 -0.0400509 0.00296009  -0.0241337 -0.0439844 0.00220728  -0.0267825 -0.0394746 0.00366437  -0.0283127 -0.0438999 0.00339115  -0.0311385 -0.0400683 0.00430238  -0.0313082 -0.0406478 0.00349605  -0.0226034 -0.0389743 0.00302529  -0.0330461 -0.0449952 0.00323284  -0.0285091 -0.0444461 0.00271821  -0.0254402 -0.0486228 0.0019871  -0.0300082 -0.0490513 0.00247681  -0.0267152 -0.0534351 0.00176394  -0.0298046 -0.0485268 0.00312161  -0.0312536 -0.0533207 0.00284672  -0.0345448 -0.0490315 0.00370705  -0.0347301 -0.0495593 0.00296724  -0.0252347 -0.0481035 0.00253761  -0.0363654 -0.0542808 0.00270152  -0.0314628 -0.0538183 0.00223017  -0.0279547 -0.058424 0.00154376  -0.0328782 -0.0587753 0.00198984  -0.0291642 -0.0635706 0.00131834  -0.032665 -0.0582997 0.00257945  -0.0340333 -0.0634307 0.00230539  -0.0377523 -0.0587202 0.00311279  -0.037948 -0.0591954 0.00243831  -0.0277385 -0.0579516 0.00204527  -0.039484 -0.0642595 0.00217378  -0.0342506 -0.0638795 0.00174487  -0.03034 -0.0688794 0.00109804  -0.0355858 -0.0691567 0.00150323  -0.0314867 -0.0743329 0.000873685  -0.035367 -0.0687275 0.0020411  -0.0366602 -0.0741641 0.00176954  -0.0407684 -0.0690674 0.00252521  -0.0409713 -0.0694956 0.00191247  -0.0301189 -0.068452 0.00155461  -0.042413 -0.0748682 0.00165009  -0.0368801 -0.0745708 0.00126004  -0.0326023 -0.0799323 0.00065279  -0.0381402 -0.080139 0.00102091  -0.0336907 -0.0856611 0.000428677  -0.0379194 -0.0797529 0.00150752  -0.0391392 -0.0854657 0.00123894  -0.0436025 -0.0800145 0.00194609  -0.0438113 -0.0804 0.00139093  -0.0323793 -0.0795469 0.001068  -0.0451626 -0.0860514 0.0011307  -0.0393589 -0.0858304 0.000778198  -0.034748 -0.0915225 0.000208616  -0.0405474 -0.0916617 0.000540853  -0.0357807 -0.0974988 -1.56164e-05  -0.0403261 -0.0913165 0.000977874  -0.0414758 -0.0972797 0.000713229  -0.0462639 -0.0915029 0.00137556  -0.046472 -0.0918485 0.000873089  -0.0345238 -0.0911768 0.000581741  -0.0477412 -0.0977547 0.00061512  -0.0416979 -0.0976048 0.000298381  -0.0367826 -0.103596 -0.0002352  -0.0428165 -0.103673 6.30617e-05  -0.0377612 -0.109797 -0.000458121  -0.0425943 -0.103366 0.000455976  -0.0436782 -0.109552 0.000193954  -0.048758 -0.103482 0.000811696  -0.0489675 -0.103791 0.000361919  -0.0365598 -0.103289 9.98974e-05  -0.0501539 -0.109921 0.000107408  -0.0438988 -0.109839 -0.000176191  -0.0387112 -0.116102 -0.000678062  -0.0449522 -0.116119 -0.000411153  -0.0396358 -0.122501 -0.000900388  -0.0447321 -0.115847 -6.06775e-05  -0.0457525 -0.122234 -0.000319958  -0.0510967 -0.115898 0.000254512  -0.0513049 -0.11617 -0.000144362  -0.0384883 -0.115831 -0.000379562  -0.0524166 -0.122505 -0.000396132  -0.0459708 -0.122487 -0.000649571  -0.0405352 -0.128992 -0.00111723  -0.0469615 -0.128954 -0.000883222  -0.041412 -0.135564 -0.00133944  -0.0467424 -0.128716 -0.000571966  -0.047702 -0.135277 -0.000827909  -0.0532838 -0.128706 -0.000291228  -0.0534914 -0.128944 -0.000645876  -0.0403166 -0.128754 -0.000853419  -0.0545303 -0.135459 -0.000895977  -0.0479194 -0.135497 -0.00111854  -0.0422645 -0.142217 -0.00155771  -0.048851 -0.142129 -0.00135088  -0.0430925 -0.148943 -0.00177693  -0.0486352 -0.141922 -0.00107646  -0.0495362 -0.148636 -0.00132787  -0.0553284 -0.141858 -0.000831246  -0.0555322 -0.142062 -0.00114119  -0.0420468 -0.142011 -0.00132501  -0.0565035 -0.148733 -0.00138712  -0.0497491 -0.148826 -0.00158334  -0.0438969 -0.155738 -0.0019927  -0.0506232 -0.155602 -0.0018115  -0.0446815 -0.162594 -0.00221038  -0.0504122 -0.155424 -0.00157273  -0.0512564 -0.162269 -0.00182188  -0.0572357 -0.155306 -0.00135827  -0.0574384 -0.155483 -0.00163078  -0.0436845 -0.15556 -0.00179064  -0.0583434 -0.162288 -0.0018723  -0.0514669 -0.162431 -0.00204134  -0.0454409 -0.169507 -0.00242496  -0.0522885 -0.169328 -0.00226903  -0.0461819 -0.176475 -0.00263965  -0.0520768 -0.169177 -0.00206232  -0.0528724 -0.176136 -0.00230622  -0.0590169 -0.169013 -0.00187838  -0.0592158 -0.16916 -0.00211203  -0.0452316 -0.169358 -0.00225067  -0.0600595 -0.176083 -0.00234938  -0.0530784 -0.176272 -0.00249767  -0.0468998 -0.183492 -0.00285351  -0.0538487 -0.183272 -0.00271785  -0.0476015 -0.190552 -0.00306427  -0.0536437 -0.183146 -0.00254285  -0.0543878 -0.190199 -0.00278187  -0.0606754 -0.182939 -0.00238538  -0.0608702 -0.18306 -0.0025841  -0.0466945 -0.183365 -0.00270212  -0.0616555 -0.190082 -0.00281644  -0.0545888 -0.190312 -0.0029422  -0.0482824 -0.197652 -0.00327408  -0.0553114 -0.197397 -0.00316238  -0.0489426 -0.204786 -0.00348282  -0.05511 -0.197296 -0.00301385  -0.0558076 -0.204424 -0.00324655  -0.0622172 -0.197048 -0.00287974  -0.0624111 -0.197147 -0.00304794  -0.0480773 -0.197549 -0.00314975  -0.0631425 -0.204247 -0.00327754  -0.0560071 -0.204513 -0.0033803  -0.0495815 -0.211954 -0.00368905  -0.0566828 -0.211668 -0.00359702  -0.050209 -0.219149 -0.00389516  -0.0564857 -0.211588 -0.00347459  -0.0571404 -0.218779 -0.00370145  -0.0636547 -0.211306 -0.00336432  -0.0638449 -0.211385 -0.00350332  -0.0493848 -0.211871 -0.00358593  -0.0645244 -0.218551 -0.00372708  -0.0573351 -0.218848 -0.00381172  -0.050817 -0.226368 -0.00409925  -0.0579691 -0.226057 -0.00402224  -0.051409 -0.23361 -0.00430143  -0.0577762 -0.225994 -0.00392318  -0.0583925 -0.233233 -0.00414538  -0.0649936 -0.225684 -0.00383389  -0.0651784 -0.225743 -0.00394571  -0.0506215 -0.226309 -0.00401413  -0.0658112 -0.232957 -0.00416338  -0.0585816 -0.233283 -0.00423288  -0.0519845 -0.240869 -0.00449884  -0.0591781 -0.240533 -0.00443923  -0.0525441 -0.248143 -0.00469828  -0.0589886 -0.240489 -0.00435841  -0.0595665 -0.247758 -0.00457728  -0.0662382 -0.24015 -0.0042901  -0.0664208 -0.240194 -0.00437725  -0.0517936 -0.240826 -0.00443292  -0.0670133 -0.247445 -0.00459349  -0.0597515 -0.247793 -0.00464392  -0.0530887 -0.255427 -0.00489068  -0.0603135 -0.25507 -0.0048461  -0.0536225 -0.262723 -0.00508487  -0.0601292 -0.255042 -0.0047859  -0.0606742 -0.262334 -0.00499463  -0.0674024 -0.254684 -0.00473273  -0.06758 -0.254707 -0.00479829  -0.0529027 -0.255399 -0.00484049  -0.0681331 -0.261984 -0.0050056  -0.0608552 -0.262354 -0.00504601  -0.0541379 -0.270023 -0.00527477  -0.0613842 -0.269649 -0.00524211  -0.0546474 -0.277328 -0.00546336  -0.061203 -0.269633 -0.00519657  -0.0617175 -0.276935 -0.00539851  -0.0684891 -0.269253 -0.00516069  -0.068665 -0.269268 -0.00520802  -0.0539582 -0.270005 -0.00523841  -0.0691817 -0.276559 -0.00540841  -0.0618958 -0.276945 -0.00543642  -0.0551412 -0.284634 -0.00564694  -0.0623975 -0.284246 -0.00562561  -0.0556288 -0.291942 -0.0058322  -0.0622211 -0.28424 -0.0055939  -0.0627081 -0.291546 -0.00578797  -0.0695093 -0.283848 -0.00556695  -0.0696807 -0.283851 -0.0055995  -0.0549643 -0.284627 -0.00562179  -0.0701723 -0.291145 -0.00579345  -0.0628839 -0.291545 -0.00581276  -0.0561011 -0.299243 -0.00601149  -0.0633588 -0.298844 -0.00599635  -0.0565662 -0.306545 -0.0061878  -0.0631871 -0.298847 -0.00597644  -0.0636523 -0.306148 -0.00616193  -0.070471 -0.298443 -0.00596285  -0.070641 -0.298437 -0.00598037  -0.0559263 -0.299247 -0.0059948  -0.0711071 -0.305729 -0.00616848  -0.0638227 -0.30614 -0.00617838  -0.0570207 -0.313837 -0.0063628  -0.0642803 -0.313432 -0.00635564  -0.0574715 -0.321127 -0.00653577  -0.06411 -0.313442 -0.00634396  -0.064558 -0.320732 -0.00652337  -0.071388 -0.313028 -0.00633657  -0.0715535 -0.313016 -0.00634718  -0.0568521 -0.31385 -0.00635397  -0.0719986 -0.3203 -0.00652337  -0.0647259 -0.320717 -0.00652993  -0.0579109 -0.328406 -0.00670493  -0.065167 -0.327994 -0.00670314  -0.058351 -0.335678 -0.00687337  -0.0649993 -0.328008 -0.00669813  -0.0654318 -0.335283 -0.00686991  -0.0722613 -0.327589 -0.00669503  -0.072428 -0.327571 -0.00669801  -0.0577457 -0.328422 -0.00670147  -0.0728602 -0.334844 -0.0068692  -0.065599 -0.335262 -0.00687099  -0.0587821 -0.342939 -0.00703824  -0.0660295 -0.342523 -0.0070374  -0.059211 -0.350193 -0.00720322  -0.0658603 -0.342542 -0.00703633  -0.0662866 -0.349798 -0.00720406  -0.0731156 -0.342122 -0.00703776  -0.0732827 -0.342098 -0.00703657  -0.0586154 -0.342957 -0.00703859  -0.0737028 -0.349355 -0.00720286  -0.0664527 -0.349776 -0.00720286  -0.0596344 -0.357437 -0.00736713  -0.0668762 -0.357021 -0.00736666  -0.0600586 -0.364673 -0.00753045  -0.0667102 -0.357041 -0.00736976  -0.0671334 -0.364282 -0.0075351  -0.0739553 -0.356622 -0.00737119  -0.0741208 -0.356602 -0.00736403  -0.059469 -0.357457 -0.0073719  -0.0745432 -0.363845 -0.00752878  -0.067297 -0.364263 -0.0075314  -0.000347964 -0.000398561 0.000775099  -0.00039766 -0.000716284 0.000978112  -0.00111022 -0.00123757 0.00145352  -0.000404578 -0.00053598 0.00132215  -0.00148471 -0.0015208 0.00231099  0 0 0  0 0 0  -0.000354331 -0.000248209 0.00105131  0 0 0  -0.00131716 -0.0018162 0.00180995  -0.00206283 -0.00253113 0.00190306  -0.00272903 -0.00325119 0.00237763  -0.00318246 -0.00419445 0.00223231  -0.00291169 -0.0028109 0.00300515  -0.00442773 -0.00436103 0.00344002  -0.00219065 -0.00215015 0.00240886  -0.0042036 -0.00489751 0.00278127  -0.00435174 -0.00604984 0.00237489  -0.00569963 -0.00672577 0.00297463  -0.00551504 -0.00820784 0.00245893  -0.00586414 -0.00612898 0.00364256  -0.00730136 -0.00820448 0.00375867  -0.004482 -0.00550711 0.00290966  -0.00717959 -0.00884327 0.00309169  -0.00666511 -0.0106164 0.0024339  -0.00860021 -0.0111949 0.00308084  -0.00777364 -0.0132838 0.00238359  -0.00866002 -0.0105353 0.00372672  -0.0100002 -0.0131635 0.00367057  -0.00671199 -0.0099912 0.00295067  -0.00999317 -0.0138314 0.00303268  -0.00885916 -0.0162264 0.00227833  -0.0113391 -0.0167247 0.00292265  -0.00990993 -0.0194063 0.0021621  -0.0113003 -0.0160565 0.00353611  -0.0125746 -0.019218 0.00339043  -0.00881982 -0.0155789 0.00276732  -0.0126544 -0.019875 0.00279093  -0.0109411 -0.0228457 0.00202  -0.013935 -0.023277 0.00263333  -0.0119474 -0.0265081 0.00186813  -0.0138252 -0.0226316 0.00320995  -0.0150474 -0.0262842 0.00301862  -0.0108373 -0.0222135 0.00247657  -0.0151846 -0.0269088 0.0024606  -0.0129338 -0.0304044 0.00170863  -0.0164055 -0.0307746 0.00228071  -0.0139027 -0.0345103 0.00153863  -0.016251 -0.0301671 0.00281727  -0.0174248 -0.0342643 0.00260484  -0.0127878 -0.0298049 0.0021323  -0.0175978 -0.0348481 0.00208926  -0.0148516 -0.0388247 0.00137103  -0.0187638 -0.0391351 0.00189841  -0.0157868 -0.0433345 0.00119269  -0.0185788 -0.0385717 0.00239503  -0.0197072 -0.0430748 0.00217319  -0.0146793 -0.0382676 0.00176275  -0.0199016 -0.0436121 0.00169802  -0.0167022 -0.0480328 0.001019  -0.0210164 -0.0482848 0.00150323  -0.0176029 -0.0529092 0.00083673  -0.0208158 -0.0477669 0.0019598  -0.0218956 -0.0526375 0.00173461  -0.0165132 -0.0475196 0.00137913  -0.0221033 -0.0531298 0.00129867  -0.0184863 -0.057958 0.000659943  -0.0231675 -0.0581529 0.00110149  -0.0193574 -0.0631698 0.000473976  -0.0229576 -0.0576805 0.00151813  -0.0239931 -0.0628853 0.00129235  -0.0182891 -0.0574889 0.000989199  -0.024205 -0.0633318 0.000894785  -0.0202094 -0.0685354 0.000294209  -0.0252235 -0.0686743 0.000695109  -0.0210493 -0.0740497 0.000105739  -0.0250084 -0.0682445 0.00107551  -0.0259994 -0.0737527 0.000849247  -0.0200057 -0.0681096 0.00059247  -0.0262158 -0.0741572 0.000489593  -0.0218714 -0.0797055 -7.66516e-05  -0.0271881 -0.0797876 0.000289083  -0.0226812 -0.0854916 -0.000264049  -0.0269725 -0.079402 0.000632763  -0.0279192 -0.0851819 0.000407457  -0.0216647 -0.0793195 0.000194788  -0.0281373 -0.0855462 8.15392e-05  -0.0234764 -0.0914073 -0.000449419  -0.0290669 -0.0914364 -0.000120997  -0.0242578 -0.0974406 -0.000639677  -0.0288477 -0.0910914 0.00019002  -0.0297546 -0.0971188 -3.50475e-05  -0.0232676 -0.0910607 -0.000204206  -0.0299717 -0.0974428 -0.000328183  -0.025023 -0.103586 -0.000825524  -0.0308598 -0.103568 -0.000530481  -0.0257777 -0.10984 -0.00101733  -0.0306429 -0.103259 -0.000252128  -0.0315078 -0.109506 -0.00047648  -0.0248156 -0.103279 -0.000606298  -0.0317267 -0.109795 -0.000739694  -0.026517 -0.116193 -0.00120544  -0.0325738 -0.116127 -0.000941396  -0.0272442 -0.122641 -0.00139749  -0.0323566 -0.115854 -0.000692844  -0.0331833 -0.122296 -0.000917196  -0.0263082 -0.11592 -0.00101066  -0.0333987 -0.12255 -0.0011493  -0.0279552 -0.129175 -0.00158465  -0.0342082 -0.129067 -0.00135243  -0.0286573 -0.135795 -0.00177896  -0.0339919 -0.128826 -0.00113237  -0.0347812 -0.13544 -0.00135517  -0.0277494 -0.128937 -0.00141335  -0.0349976 -0.135662 -0.00156081  -0.0293438 -0.142488 -0.00196958  -0.0357673 -0.142338 -0.00176239  -0.0300195 -0.149255 -0.00216258  -0.0355561 -0.142129 -0.00156927  -0.0363092 -0.148893 -0.00179112  -0.0291393 -0.14228 -0.00181758  -0.0365202 -0.149084 -0.00197017  -0.0306807 -0.156088 -0.00235355  -0.037255 -0.1559 -0.00217247  -0.0313313 -0.162983 -0.00254571  -0.0370469 -0.155722 -0.00200415  -0.0377653 -0.162612 -0.00222361  -0.0304782 -0.155909 -0.00222123  -0.0379741 -0.162775 -0.00237858  -0.0319693 -0.169931 -0.00273621  -0.0386753 -0.16971 -0.00257921  -0.0325968 -0.176934 -0.00292706  -0.0384691 -0.169556 -0.00243449  -0.0391529 -0.176556 -0.00265074  -0.0317698 -0.169778 -0.00262189  -0.0393579 -0.176694 -0.00278461  -0.0332096 -0.18398 -0.00311708  -0.0400274 -0.183728 -0.00298512  -0.033813 -0.191072 -0.00330985  -0.0398252 -0.183601 -0.00285935  -0.0404785 -0.190689 -0.00307322  -0.0330124 -0.183853 -0.00301969  -0.0406802 -0.190803 -0.0031873  -0.0344038 -0.1982 -0.0034976  -0.0413182 -0.197918 -0.00338447  -0.0349853 -0.205364 -0.00368714  -0.041117 -0.197814 -0.00327909  -0.0417404 -0.204978 -0.00349104  -0.0342095 -0.198096 -0.00341618  -0.0419385 -0.205068 -0.00358653  -0.035552 -0.212556 -0.0038743  -0.042546 -0.21225 -0.00378156  -0.0361135 -0.219776 -0.00406289  -0.0423503 -0.212166 -0.00369442  -0.042944 -0.219386 -0.00390184  -0.0353625 -0.212473 -0.00380743  -0.0431378 -0.219458 -0.00398028  -0.0366626 -0.227018 -0.00424731  -0.0437193 -0.22669 -0.00417447  -0.0372002 -0.234281 -0.00443423  -0.043525 -0.226626 -0.00410271  -0.044095 -0.233889 -0.00430477  -0.0364749 -0.226954 -0.00419259  -0.0442843 -0.233943 -0.00436866  -0.0377297 -0.241557 -0.0046165  -0.044838 -0.241212 -0.00455844  -0.0382509 -0.24885 -0.00480187  -0.0446515 -0.241164 -0.00450253  -0.0451932 -0.248456 -0.00470066  -0.0375471 -0.24151 -0.00457454  -0.0453777 -0.248494 -0.00475013  -0.0387597 -0.256151 -0.00498199  -0.045907 -0.255789 -0.00493729  -0.0392623 -0.263461 -0.00516462  -0.0457263 -0.255756 -0.00489354  -0.0462449 -0.263068 -0.0050863  -0.0385795 -0.256118 -0.00494993  -0.0464251 -0.263091 -0.00512457  -0.0397551 -0.270774 -0.00534272  -0.0469334 -0.270398 -0.00530899  -0.04024 -0.278092 -0.00551999  -0.0467534 -0.270379 -0.00527704  -0.0472522 -0.277698 -0.00546324  -0.0395784 -0.270756 -0.00531781  -0.0474288 -0.27771 -0.00549138  -0.0407155 -0.285411 -0.00569272  -0.0479178 -0.285022 -0.00567126  -0.0411885 -0.292726 -0.00586784  -0.0477426 -0.285014 -0.00564647  -0.0482228 -0.292332 -0.00583172  -0.0405452 -0.2854 -0.00567734  -0.0483971 -0.292333 -0.0058502  -0.041652 -0.300038 -0.00604033  -0.0488665 -0.299643 -0.0060252  -0.0421085 -0.307347 -0.00621045  -0.0486946 -0.299643 -0.00601101  -0.0491581 -0.306955 -0.00618839  -0.0414827 -0.30004 -0.00602889  -0.0493281 -0.306945 -0.00619984  -0.0425589 -0.314648 -0.00637805  -0.049783 -0.314244 -0.00636816  -0.0430074 -0.321942 -0.00654507  -0.0496149 -0.314254 -0.00636172  -0.0500646 -0.32155 -0.0065347  -0.0423934 -0.314656 -0.00637233  -0.0502319 -0.321535 -0.00654137  -0.0434501 -0.329226 -0.00671196  -0.0506744 -0.328818 -0.00670838  -0.0438838 -0.336503 -0.00687635  -0.0505083 -0.328833 -0.00670278  -0.0509462 -0.336109 -0.00687325  -0.0432827 -0.32924 -0.00670934  -0.0511112 -0.336092 -0.00687575  -0.0443149 -0.343767 -0.00704014  -0.0515437 -0.343356 -0.00703943  -0.0447445 -0.35102 -0.00720191  -0.0513787 -0.343372 -0.00703919  -0.0518072 -0.350629 -0.00720477  -0.0441504 -0.343784 -0.00704026  -0.0519714 -0.350609 -0.00720358  -0.0451715 -0.35826 -0.00736523  -0.0523989 -0.35785 -0.00736737  -0.0455942 -0.365492 -0.00752676  -0.0522339 -0.357869 -0.00736892  -0.0526624 -0.365104 -0.00753689  -0.0450053 -0.358279 -0.00736845  -0.0528243 -0.365083 -0.00752985  -0.00015156 -6.03497e-05 0.000365138  -0.000204977 -0.000197202 0.000580311  -0.000482939 -0.000625521 0.000708342  -0.000208434 -5.4419e-05 0.00077033  -0.000763454 -0.000585794 0.0013845  0 0 0  0 0 0  -0.000154108 6.93798e-05 0.000494242  0 0 0  -0.000656776 -0.000838995 0.00108123  -0.000887081 -0.00178185 0.000918388  -0.0013804 -0.00210038 0.00140715  -0.00140452 -0.00332573 0.00108635  -0.00148949 -0.00173584 0.00178742  -0.00232013 -0.00322157 0.0020591  -0.000948578 -0.00144881 0.00116646  -0.00216337 -0.00366244 0.00166345  -0.00194383 -0.00520724 0.00113451  -0.0030618 -0.0055536 0.00175261  -0.00250372 -0.00740689 0.00116515  -0.00316674 -0.00503632 0.00215626  -0.00401166 -0.00716782 0.00221002  -0.00200209 -0.00472343 0.00139999  -0.00393036 -0.00772899 0.00181437  -0.00306159 -0.00987396 0.00112534  -0.00480205 -0.010172 0.0017792  -0.00361159 -0.012616 0.00107443  -0.00483143 -0.00957286 0.00216341  -0.00563106 -0.0122676 0.00210333  -0.00306854 -0.00929937 0.00137603  -0.00564113 -0.0128825 0.00172901  -0.00415397 -0.0156109 0.000993013  -0.00645846 -0.0158511 0.00163627  -0.00468737 -0.0188563 0.000901461  -0.00641352 -0.0152254 0.0019958  -0.00718039 -0.0184463 0.00187933  -0.00410444 -0.0150003 0.00122714  -0.00725847 -0.019071 0.00153017  -0.00521493 -0.0223425 0.000799656  -0.00803775 -0.0225315 0.00140977  -0.00573885 -0.02606 0.000686407  -0.00793713 -0.0219135 0.00174606  -0.00868189 -0.0256217 0.00159979  -0.00512087 -0.0217325 0.00101757  -0.00880623 -0.0262268 0.00127506  -0.00625956 -0.0299994 0.000570893  -0.00955939 -0.0301463 0.0011394  -0.00678009 -0.0341549 0.000444889  -0.00942379 -0.0295543 0.00145316  -0.0101526 -0.0337078 0.00129187  -0.00613409 -0.0294147 0.00077343  -0.0103052 -0.0342795 0.00099051  -0.00729764 -0.038513 0.000322461  -0.0110411 -0.0386179 0.00084579  -0.00781918 -0.0430685 0.000187516  -0.0108794 -0.0380643 0.00113618  -0.0115973 -0.042622 0.000966787  -0.00715345 -0.0379628 0.000508428  -0.011767 -0.0431523 0.000688672  -0.00833821 -0.0478099 5.80549e-05  -0.0124867 -0.0478759 0.000537634  -0.00886011 -0.052733 -8.22544e-05  -0.0123116 -0.0473641 0.000804543  -0.0130159 -0.0522887 0.000630498  -0.00818062 -0.0473015 0.000229001  -0.0131972 -0.0527762 0.000375509  -0.0093807 -0.0578244 -0.000218511  -0.0139014 -0.0578496 0.000219822  -0.00990236 -0.0630802 -0.000363111  -0.0137167 -0.05738 0.000464916  -0.0144095 -0.0626397 0.000284791  -0.00921309 -0.0573577 -6.2108e-05  -0.0145975 -0.0630839 5.34058e-05  -0.0104243 -0.0684907 -0.000503898  -0.0152857 -0.0684756 -0.000106573  -0.0109468 -0.0740479 -0.000653148  -0.0150964 -0.0680493 0.000116944  -0.0157752 -0.0736086 -6.47306e-05  -0.0102521 -0.0680655 -0.000363469  -0.0159661 -0.0740125 -0.000275135  -0.0114686 -0.0797449 -0.000798225  -0.0166405 -0.0796913 -0.000438213  -0.0119917 -0.0855754 -0.000951767  -0.0164479 -0.0793048 -0.000236154  -0.0171132 -0.0851371 -0.000419736  -0.0112925 -0.0793599 -0.00067091  -0.0173066 -0.0855021 -0.00061059  -0.0125136 -0.0915293 -0.00110304  -0.0179669 -0.091438 -0.000775695  -0.0130368 -0.0976048 -0.00125825  -0.0177741 -0.0910915 -0.000594497  -0.0184238 -0.0971675 -0.00077951  -0.0123343 -0.0911843 -0.000987172  -0.0186191 -0.0974923 -0.000949502  -0.0135585 -0.103788 -0.00141168  -0.0192645 -0.103661 -0.00111854  -0.0140812 -0.11008 -0.00157201  -0.0190693 -0.103352 -0.000955343  -0.0197068 -0.109645 -0.0011425  -0.0133765 -0.10348 -0.00130904  -0.0199026 -0.109934 -0.00129533  -0.0145999 -0.116469 -0.00172865  -0.0205334 -0.116308 -0.00146711  -0.0151205 -0.122954 -0.00189102  -0.0203381 -0.116034 -0.00132179  -0.02096 -0.12252 -0.00151026  -0.0144165 -0.116196 -0.00163805  -0.0211563 -0.122774 -0.00164652  -0.015637 -0.129522 -0.00205112  -0.021772 -0.129329 -0.0018183  -0.0161532 -0.136174 -0.00221694  -0.0215763 -0.129087 -0.00169075  -0.022187 -0.135741 -0.00187945  -0.0154548 -0.129281 -0.00197196  -0.0223811 -0.135964 -0.00199902  -0.0166683 -0.142901 -0.00237811  -0.0229831 -0.142677 -0.00217533  -0.0171802 -0.149698 -0.00254524  -0.0227897 -0.142467 -0.00206065  -0.0233855 -0.149266 -0.00225067  -0.0164847 -0.14269 -0.00230813  -0.0235777 -0.149458 -0.00235546  -0.0176914 -0.156557 -0.00271058  -0.0241652 -0.156308 -0.00253224  -0.0182006 -0.163482 -0.00287998  -0.0239735 -0.156126 -0.00243342  -0.0245538 -0.163052 -0.0026226  -0.0175104 -0.156379 -0.00264907  -0.0247455 -0.163217 -0.00271332  -0.0187049 -0.170458 -0.00304484  -0.0253191 -0.170181 -0.00288916  -0.0192103 -0.177484 -0.00321615  -0.0251281 -0.170027 -0.00280511  -0.0256937 -0.177057 -0.00299454  -0.0185242 -0.170303 -0.00299275  -0.0258839 -0.177196 -0.00307226  -0.0197093 -0.184556 -0.00338149  -0.0264437 -0.184258 -0.00325119  -0.0202098 -0.191671 -0.00355315  -0.0262563 -0.184128 -0.00317776  -0.0268064 -0.191245 -0.00336599  -0.0195305 -0.184427 -0.00333881  -0.0269947 -0.19136 -0.00343084  -0.0207043 -0.19882 -0.0037185  -0.0275373 -0.1985 -0.00360751  -0.0211952 -0.206004 -0.00389087  -0.0273523 -0.198393 -0.00354886  -0.0278888 -0.205581 -0.0037353  -0.0205252 -0.198714 -0.00368416  -0.0280745 -0.205674 -0.00378907  -0.0216827 -0.213215 -0.00405991  -0.0286055 -0.212878 -0.00396645  -0.0221694 -0.220454 -0.00423121  -0.0284221 -0.212793 -0.00391674  -0.028945 -0.220033 -0.00410283  -0.0215058 -0.213129 -0.00402927  -0.0291286 -0.220105 -0.00414598  -0.0226519 -0.22771 -0.00439823  -0.0296435 -0.227358 -0.00432324  -0.023128 -0.234989 -0.00457191  -0.0294628 -0.227291 -0.00428271  -0.029973 -0.234575 -0.00446761  -0.0224762 -0.227645 -0.0043757  -0.0301533 -0.23463 -0.00450385  -0.0236022 -0.242279 -0.0047369  -0.0306547 -0.241915 -0.00467837  -0.0240743 -0.249587 -0.00490689  -0.0304773 -0.241864 -0.00464559  -0.0309761 -0.249173 -0.00482702  -0.0234308 -0.242233 -0.00471938  -0.0311499 -0.249214 -0.00485599  -0.0245423 -0.256899 -0.00507259  -0.0316401 -0.256521 -0.00502884  -0.0250063 -0.26422 -0.00524306  -0.0314665 -0.256487 -0.00500345  -0.0319495 -0.263812 -0.00518191  -0.0243709 -0.256865 -0.00506091  -0.0321236 -0.263838 -0.00520468  -0.0254664 -0.271544 -0.00541162  -0.0326021 -0.271156 -0.00537717  -0.0259209 -0.27887 -0.00557709  -0.0324295 -0.271136 -0.00535703  -0.0329032 -0.278465 -0.00553334  -0.0252984 -0.271522 -0.0053997  -0.0330732 -0.278479 -0.00554836  -0.026376 -0.286196 -0.00574231  -0.0335391 -0.285801 -0.00571716  -0.0268261 -0.29352 -0.00590801  -0.0333693 -0.28579 -0.00570333  -0.0338314 -0.293118 -0.00587749  -0.0262091 -0.286186 -0.00573516  -0.0339999 -0.293122 -0.00588799  -0.0272717 -0.300839 -0.00607061  -0.0344548 -0.300439 -0.00605524  -0.0277138 -0.308154 -0.00623381  -0.0342891 -0.300437 -0.0060457  -0.03474 -0.307755 -0.00621545  -0.027108 -0.300836 -0.00606596  -0.0349057 -0.30775 -0.00622284  -0.0281539 -0.31546 -0.00639629  -0.035352 -0.315053 -0.00638855  -0.0285907 -0.322758 -0.00655806  -0.0351884 -0.315061 -0.00638258  -0.0356307 -0.322362 -0.00654864  -0.0279934 -0.315467 -0.00639474  -0.0357943 -0.32235 -0.00655353  -0.0290239 -0.330046 -0.00671792  -0.036232 -0.329637 -0.00671387  -0.0294559 -0.337326 -0.00687957  -0.0360692 -0.329649 -0.00671291  -0.0365038 -0.336931 -0.00687695  -0.0288644 -0.330059 -0.00671864  -0.0366662 -0.336914 -0.00687885  -0.0298824 -0.344592 -0.00703907  -0.037097 -0.344179 -0.0070399  -0.0303087 -0.351847 -0.0071969  -0.0369351 -0.344196 -0.00703919  -0.0373631 -0.351453 -0.00720334  -0.0297225 -0.344608 -0.00704002  -0.037523 -0.351433 -0.00720155  -0.0307319 -0.359084 -0.00735521  -0.0379484 -0.358672 -0.00736058  -0.0311537 -0.366309 -0.00751555  -0.0377889 -0.35869 -0.00736332  -0.0382118 -0.365919 -0.00752473  -0.0305731 -0.3591 -0.0073595  -0.0383725 -0.3659 -0.00752378  1.49384e-05 2.06232e-05 -6.10352e-05  -3.90969e-05 2.38419e-06 0.000162959  3.81023e-05 -0.000495166 -6.19888e-05  -4.22299e-05 0.00012508 0.00019598  -0.00017789 -0.000267714 0.000404119  0 0 0  0 0 0  1.50725e-05 0.000140429 -8.14199e-05  0 0 0  -0.000131518 -0.00049755 0.00032115  0.000109494 -0.00162557 -0.000102997  -0.000329658 -0.00165647 0.000398517  0.000157028 -0.00312179 -0.000102997  -0.000361249 -0.00132796 0.000506997  -0.000588462 -0.00273854 0.00060761  0.000120968 -0.00130802 -0.000121951  -0.000531018 -0.00314063 0.000488758  0.000217974 -0.00502896 -0.000138283  -0.000811905 -0.00505167 0.000487804  0.000260234 -0.00723413 -0.000158548  -0.000833362 -0.00457606 0.000615001  -0.00108305 -0.00672108 0.000620246  0.000241429 -0.00456285 -0.000153661  -0.00106919 -0.00724229 0.000500798  0.000292599 -0.00973922 -0.00020051  -0.00135127 -0.00973526 0.000456095  0.000314713 -0.0125103 -0.000244975  -0.0013344 -0.00917158 0.000575662  -0.00158289 -0.0119078 0.000523925  0.000336409 -0.00918293 -0.000218034  -0.0016211 -0.0124927 0.000413179  0.000322044 -0.0155383 -0.000296354  -0.00189501 -0.0155068 0.000346541  0.000317514 -0.0188172 -0.000356317  -0.00183707 -0.0149066 0.000454187  -0.00209022 -0.0181712 0.000373125  0.000387549 -0.0149442 -0.000314593  -0.00216937 -0.0187731 0.000270009  0.000296772 -0.022331 -0.00041604  -0.00244391 -0.022274 0.000189781  0.000261903 -0.0260804 -0.000488997  -0.00235307 -0.0216729 0.000289559  -0.0026204 -0.0254205 0.000190973  0.000383556 -0.0217344 -0.000435472  -0.0027265 -0.026012 9.60827e-05  0.000209033 -0.0300452 -0.000558734  -0.00301325 -0.0299662 5.72205e-06  0.000137866 -0.0342306 -0.000639319  -0.00289822 -0.0293863 9.83477e-05  -0.00318336 -0.0335759 -1.28746e-05  0.000311613 -0.0294701 -0.000576735  -0.00330931 -0.0341372 -9.94205e-05  5.28693e-05 -0.0386137 -0.000717521  -0.00361109 -0.0385115 -0.00019908  -5.40614e-05 -0.0431997 -0.000808239  -0.00348169 -0.0379653 -0.000113368  -0.00378537 -0.0425583 -0.000231147  0.000166655 -0.0380712 -0.000736475  -0.00392359 -0.0430838 -0.000312805  -0.000173569 -0.0479666 -0.000895619  -0.00424397 -0.0478423 -0.000419617  -0.000312924 -0.0529193 -0.000992537  -0.00410259 -0.0473345 -0.000341892  -0.00442529 -0.0522945 -0.000465751  -4.93526e-05 -0.0474628 -0.000913024  -0.00457299 -0.0527801 -0.000539422  -0.000466228 -0.0580376 -0.00108814  -0.00491118 -0.0578882 -0.000653863  -0.000637412 -0.0633233 -0.00119293  -0.00476158 -0.0574221 -0.000582457  -0.00510418 -0.0627171 -0.000713229  -0.000334144 -0.0575735 -0.00110447  -0.00525796 -0.0631608 -0.000780344  -0.000823379 -0.068759 -0.00129497  -0.00561261 -0.0685856 -0.000901461  -0.00102806 -0.0743469 -0.00140738  -0.00545681 -0.0681608 -0.000835538  -0.00581658 -0.0737566 -0.000972629  -0.000686646 -0.0683372 -0.00131202  -0.00597513 -0.0741589 -0.00103223  -0.00124466 -0.0800692 -0.00151658  -0.00634491 -0.0798719 -0.00115824  -0.00147665 -0.0859284 -0.00163436  -0.00618541 -0.0794862 -0.00109959  -0.00655913 -0.0853533 -0.00124049  -0.00110006 -0.0796858 -0.00153124  -0.00672245 -0.0857164 -0.00129569  -0.00172234 -0.0919092 -0.00174844  -0.00710821 -0.0916871 -0.0014261  -0.00198209 -0.098011 -0.00187242  -0.00694382 -0.09134 -0.00137413  -0.00733268 -0.0974511 -0.00151932  -0.00157356 -0.0915636 -0.00176454  -0.00749862 -0.0977755 -0.00156617  -0.00225282 -0.10422 -0.00199378  -0.00789523 -0.103976 -0.00170338  -0.00253725 -0.110539 -0.00212276  -0.00772905 -0.103666 -0.0016582  -0.00813043 -0.109992 -0.00180614  -0.00210226 -0.103913 -0.00200796  -0.00829792 -0.110282 -0.00184941  -0.00283265 -0.116951 -0.00224769  -0.00870633 -0.116685 -0.00198936  -0.00314057 -0.123459 -0.00238192  -0.00854003 -0.116409 -0.00194907  -0.00895047 -0.122925 -0.00210154  -0.00267959 -0.116678 -0.00226271  -0.00912011 -0.123182 -0.0021373  -0.0034585 -0.130052 -0.00251293  -0.00953794 -0.129764 -0.00228345  -0.00378644 -0.136725 -0.00264978  -0.00936913 -0.129522 -0.00224853  -0.00979006 -0.136204 -0.00240302  -0.00330245 -0.12981 -0.0025245  -0.00996113 -0.136428 -0.00243461  -0.00412297 -0.143473 -0.00278473  -0.010386 -0.143167 -0.00258207  -0.00446892 -0.150292 -0.00292563  -0.0102167 -0.142954 -0.00255179  -0.0106449 -0.14978 -0.00270867  -0.00396585 -0.143262 -0.0027982  -0.0108159 -0.149975 -0.00273848  -0.00482154 -0.15717 -0.00306594  -0.01125 -0.156848 -0.0028888  -0.00518584 -0.164113 -0.00321078  -0.0110798 -0.156664 -0.00286269  -0.0115156 -0.163614 -0.00302267  -0.00466442 -0.156989 -0.00307763  -0.0116837 -0.163779 -0.00304759  -0.00555563 -0.171106 -0.00335073  -0.0121243 -0.170767 -0.00319982  -0.00593233 -0.178149 -0.0035001  -0.011956 -0.170611 -0.0031774  -0.0123937 -0.177661 -0.00333846  -0.00539804 -0.17095 -0.00336218  -0.0125635 -0.177803 -0.00335979  -0.00631475 -0.185237 -0.00364411  -0.0130069 -0.184882 -0.00351429  -0.00670505 -0.192365 -0.00379479  -0.0128372 -0.184752 -0.003497  -0.0132809 -0.191889 -0.00365758  -0.00615501 -0.185107 -0.0036546  -0.0134494 -0.192006 -0.00367451  -0.00709748 -0.19953 -0.00394225  -0.0138943 -0.199163 -0.00383055  -0.00749588 -0.206725 -0.00409496  -0.0137284 -0.199056 -0.00381696  -0.0141716 -0.206259 -0.00398147  -0.0069375 -0.199421 -0.00395095  -0.0143394 -0.206355 -0.00399327  -0.00789809 -0.213947 -0.00424278  -0.014787 -0.213572 -0.00415301  -0.00830579 -0.221197 -0.00439715  -0.0146184 -0.213484 -0.0041393  -0.0150657 -0.220741 -0.00430536  -0.00774002 -0.213861 -0.00425339  -0.0152333 -0.220817 -0.00431597  -0.0087173 -0.228467 -0.00454986  -0.0156801 -0.22808 -0.00447536  -0.00913 -0.235753 -0.00470424  -0.0155127 -0.228011 -0.00446475  -0.015959 -0.235308 -0.00463009  -0.00855684 -0.228398 -0.00455749  -0.0161235 -0.235363 -0.00463891  -0.00954628 -0.243054 -0.00485706  -0.0165694 -0.24266 -0.0047977  -0.00996423 -0.250368 -0.00501418  -0.0164063 -0.242611 -0.00479007  -0.0168512 -0.24993 -0.0049547  -0.00938582 -0.243004 -0.00486231  -0.0170164 -0.249971 -0.00496137  -0.0103848 -0.257687 -0.0051682  -0.0174603 -0.257287 -0.00512147  -0.0108049 -0.265016 -0.00532401  -0.0172961 -0.257252 -0.00511551  -0.0177395 -0.264585 -0.00528026  -0.0102255 -0.257652 -0.00517297  -0.0179033 -0.264613 -0.00528646  -0.0112271 -0.272344 -0.00547922  -0.0183437 -0.271941 -0.00544488  -0.011652 -0.279677 -0.0056355  -0.018182 -0.271917 -0.00543964  -0.0186245 -0.279257 -0.00560451  -0.01107 -0.272322 -0.00548434  -0.0187867 -0.279271 -0.00560689  -0.0120769 -0.287005 -0.00579083  -0.0192242 -0.286597 -0.00576651  -0.0125027 -0.294336 -0.00594735  -0.0190639 -0.286587 -0.00576401  -0.0195017 -0.293921 -0.00592566  -0.0119197 -0.286995 -0.00579476  -0.0196607 -0.293925 -0.00592923  -0.0129261 -0.301658 -0.0061022  -0.0200977 -0.301247 -0.00608635  -0.0133517 -0.308977 -0.0062592  -0.0199389 -0.301244 -0.00608575  -0.0203724 -0.308566 -0.00624657  -0.0127714 -0.301656 -0.00610542  -0.0205302 -0.308562 -0.00624657  -0.0137765 -0.316283 -0.00641453  -0.0209639 -0.315871 -0.00640571  -0.0142019 -0.323586 -0.00656927  -0.0208061 -0.315876 -0.00640452  -0.0212364 -0.323181 -0.00656509  -0.0136206 -0.31629 -0.00641668  -0.0213952 -0.32317 -0.00656557  -0.0146258 -0.330875 -0.00672436  -0.0218246 -0.33046 -0.00672328  -0.0150499 -0.338156 -0.00688148  -0.0216665 -0.330471 -0.00672233  -0.0220935 -0.337757 -0.00688052  -0.0144703 -0.330885 -0.00672591  -0.0222516 -0.33774 -0.00688004  -0.0154707 -0.345422 -0.00703585  -0.0226748 -0.345006 -0.00703704  -0.015892 -0.352678 -0.00719059  -0.0225186 -0.34502 -0.00703752  -0.0229421 -0.35228 -0.00719428  -0.0153158 -0.345437 -0.00703788  -0.0230987 -0.352262 -0.00719571  -0.0163116 -0.359913 -0.00734472  -0.0235207 -0.359498 -0.00734985  -0.0167289 -0.367138 -0.00749946  -0.0233634 -0.359516 -0.00735343  -0.0237846 -0.366741 -0.00751066  -0.0161562 -0.35993 -0.00734591  -0.0239415 -0.366721 -0.00750661  0.000179976 -0.000112414 -0.000485301  0.000120737 -2.21729e-05 -0.000261784  0.000549585 -0.000742197 -0.00082612  0.00011763 9.23276e-05 -0.00038588  0.000374168 -0.00033927 -0.000589967  0 0 0  0 0 0  0.000182606 7.51019e-06 -0.00065589  0 0 0  0.000364989 -0.000558376 -0.000449419  0.00110243 -0.00197804 -0.00111294  0.000645727 -0.00174654 -0.000623107  0.00171763 -0.00350821 -0.00128019  0.000689998 -0.00142717 -0.000787616  0.00103572 -0.002846 -0.000863552  0.00118454 -0.00165188 -0.00139642  0.000989169 -0.00323927 -0.000702262  0.00236753 -0.00546795 -0.00139832  0.00131348 -0.00517875 -0.000783801  0.00301474 -0.00767702 -0.00146937  0.0013783 -0.00471139 -0.000940323  0.001715 -0.00686866 -0.000979781  0.00247443 -0.00499374 -0.0016917  0.00165328 -0.00738084 -0.000822306  0.00363392 -0.0102003 -0.001513  0.00196636 -0.00989664 -0.000867605  0.00422806 -0.0129772 -0.00154924  0.0020372 -0.00934285 -0.00101697  0.00234014 -0.0120989 -0.00105345  0.00372922 -0.00964248 -0.00179636  0.0022679 -0.012675 -0.000902891  0.00478345 -0.0160102 -0.00156987  0.00254625 -0.0157074 -0.000938296  0.00530505 -0.019298 -0.00159729  0.00262153 -0.015116 -0.00108194  0.00288159 -0.0184002 -0.00112343  0.00486726 -0.0154195 -0.00184023  0.00280124 -0.0189937 -0.000980973  0.0057891 -0.0228145 -0.00161719  0.00303286 -0.0225123 -0.00101995  0.0062387 -0.026574 -0.00164723  0.00311613 -0.021919 -0.00115454  0.00332838 -0.0256848 -0.00120533  0.00586897 -0.0222237 -0.00187123  0.00323862 -0.0262681 -0.00107205  0.00665402 -0.0305455 -0.00167263  0.00341994 -0.0302398 -0.00111735  0.00703114 -0.034741 -0.00171089  0.00351083 -0.0296665 -0.00124443  0.00367182 -0.0338749 -0.00130248  0.00673372 -0.0299749 -0.00191092  0.00357491 -0.0344302 -0.00117755  0.00737643 -0.0391333 -0.00174618  0.00370437 -0.0388215 -0.00123286  0.00768566 -0.0437308 -0.00179207  0.00380373 -0.0382807 -0.00135076  0.00391257 -0.0428937 -0.00141788  0.00746143 -0.0385943 -0.00196707  0.00380659 -0.0434147 -0.00130332  0.00796163 -0.0485094 -0.00183737  0.00388527 -0.048191 -0.00136697  0.00820446 -0.0534743 -0.001894  0.00399339 -0.0476866 -0.00147736  0.00405097 -0.0526688 -0.00155282  0.00805306 -0.0480092 -0.00204206  0.00393867 -0.0531504 -0.00144613  0.00841582 -0.058605 -0.00194871  0.00396729 -0.058278 -0.00152004  0.00859499 -0.063905 -0.00201452  0.00408161 -0.0578138 -0.00162184  0.00409091 -0.0631305 -0.00170445  0.00851476 -0.0581441 -0.00213933  0.00397205 -0.0635717 -0.0016073  0.00874555 -0.0693539 -0.00207865  0.0039531 -0.0690175 -0.00168884  0.00886166 -0.0749548 -0.00215352  0.00407362 -0.0685935 -0.00178206  0.00403523 -0.0742106 -0.00187314  0.00884891 -0.0689324 -0.00225413  0.00391018 -0.0746118 -0.00178349  0.00895095 -0.0806913 -0.0022254  0.00384617 -0.0803436 -0.00187337  0.00901043 -0.0865633 -0.00230873  0.00397193 -0.0799602 -0.00195968  0.00389016 -0.0858493 -0.00205636  0.00906134 -0.0803106 -0.00238657  0.00376165 -0.08621 -0.00197411  0.00904274 -0.0925578 -0.0023905  0.00365484 -0.0922005 -0.00207067  0.00904763 -0.098673 -0.00248146  0.00378525 -0.0918537 -0.00215018  0.00366008 -0.0979845 -0.00225604  0.0091579 -0.0922145 -0.0025363  0.00352859 -0.0983098 -0.00217867  0.00902724 -0.104896 -0.00256991  0.00338125 -0.104528 -0.0022831  0.00897849 -0.111227 -0.00266778  0.0035156 -0.104219 -0.00235438  0.0033536 -0.110564 -0.00246584  0.00914824 -0.104589 -0.0027014  0.00321519 -0.110852 -0.0023967  0.00890934 -0.117653 -0.00276327  0.00303292 -0.117275 -0.00250649  0.00881505 -0.124173 -0.0028677  0.00317073 -0.117 -0.00257206  0.0029732 -0.123535 -0.00268757  0.00903332 -0.117379 -0.00288212  0.00283206 -0.123789 -0.0026269  0.00869882 -0.130775 -0.00296926  0.00261569 -0.130389 -0.00274158  0.00855827 -0.137462 -0.00307953  0.00275517 -0.130148 -0.00280154  0.00252581 -0.136847 -0.0029211  0.00882781 -0.130535 -0.0030756  0.00238252 -0.137071 -0.00286674  0.00840139 -0.144217 -0.00318897  0.00213385 -0.143824 -0.00298858  0.00822282 -0.151048 -0.00330365  0.00227833 -0.143612 -0.00303888  0.00201821 -0.150453 -0.0031656  0.00853395 -0.144009 -0.00328362  0.00187111 -0.150648 -0.00311649  0.00802636 -0.157936 -0.00341654  0.00159717 -0.157535 -0.00324225  0.00780916 -0.164886 -0.00353754  0.00174165 -0.157351 -0.00328672  0.00145459 -0.164314 -0.00341845  0.00816011 -0.157754 -0.00350201  0.00130844 -0.164481 -0.00337684  0.00757742 -0.171886 -0.00365639  0.00100803 -0.17148 -0.00350571  0.00732923 -0.178939 -0.00378084  0.00115323 -0.171324 -0.00354612  0.00084281 -0.178386 -0.00368094  0.00771594 -0.171732 -0.00373006  0.000695229 -0.178528 -0.00364149  0.00706625 -0.186033 -0.00390506  0.000371218 -0.18562 -0.0037756  0.00678658 -0.19317 -0.00403404  0.000520468 -0.185489 -0.00381136  0.000187397 -0.192637 -0.00394857  0.00720501 -0.185902 -0.00396836  3.71933e-05 -0.192755 -0.00391698  0.00649524 -0.200337 -0.00416338  -0.000306129 -0.199921 -0.00405407  0.00619006 -0.20754 -0.00429595  -0.000156403 -0.199811 -0.00408483  -0.000507593 -0.207025 -0.00422406  0.00663614 -0.20023 -0.00421655  -0.000659227 -0.207122 -0.00419605  0.0058744 -0.214769 -0.00442696  -0.00101757 -0.214347 -0.00433528  0.00554514 -0.222022 -0.00456357  -0.000867128 -0.214258 -0.00436354  -0.0012331 -0.221523 -0.00450587  0.00601459 -0.21468 -0.00447476  -0.00138426 -0.221599 -0.00448239  0.00520921 -0.229292 -0.0046984  -0.00175786 -0.228871 -0.00462365  0.00486016 -0.236585 -0.00483799  -0.00160623 -0.2288 -0.00464582  -0.00198555 -0.236103 -0.00479102  0.00535154 -0.229226 -0.00473726  -0.00213861 -0.236162 -0.00477207  0.00450158 -0.243887 -0.00497544  -0.00252509 -0.243464 -0.00491774  0.00413799 -0.251203 -0.00511706  -0.0023725 -0.243411 -0.00493419  -0.00276375 -0.250737 -0.00508308  0.00464773 -0.243836 -0.00500774  -0.00291657 -0.250778 -0.0050658  0.00376701 -0.258525 -0.00525808  -0.00331163 -0.2581 -0.00521362  0.00338578 -0.265856 -0.00540304  -0.00316072 -0.258063 -0.00522697  -0.00356078 -0.265402 -0.00537729  0.0039115 -0.258489 -0.00528455  -0.00371099 -0.265428 -0.00536501  0.00300217 -0.273184 -0.00554538  -0.00411558 -0.27276 -0.00551307  0.00261211 -0.280519 -0.00569367  -0.00396323 -0.272737 -0.00552464  -0.00436926 -0.280079 -0.00567484  0.00315046 -0.273162 -0.00556648  -0.0045228 -0.280094 -0.00566423  0.00221658 -0.287849 -0.00583887  -0.00493312 -0.287425 -0.00581658  0.00181484 -0.295177 -0.00598598  -0.00478172 -0.287414 -0.0058223  -0.00519395 -0.294749 -0.00597537  0.00236535 -0.287838 -0.00585353  -0.00534534 -0.294755 -0.00596786  0.00141287 -0.3025 -0.00613236  -0.00575948 -0.302077 -0.00611806  0.00100541 -0.309818 -0.00628233  -0.00560617 -0.302073 -0.00612473  -0.00602245 -0.309398 -0.00627732  0.00156212 -0.302499 -0.00614417  -0.00617504 -0.309395 -0.00627172  0.000597954 -0.317126 -0.00643373  -0.00659156 -0.316703 -0.00642467  0.00018549 -0.324428 -0.00658035  -0.00644064 -0.316706 -0.00642776  -0.00685787 -0.324014 -0.0065788  0.000747681 -0.31713 -0.00643826  -0.00700998 -0.324005 -0.00657618  -0.000227213 -0.331717 -0.00673199  -0.00742817 -0.331295 -0.00672901  -0.000644684 -0.338996 -0.00688231  -0.00727701 -0.331304 -0.00673068  -0.00769567 -0.338591 -0.00688326  -7.86781e-05 -0.331728 -0.00673604  -0.00784731 -0.338576 -0.00688183  -0.00106144 -0.346261 -0.00703478  -0.0082674 -0.345842 -0.00703454  -0.00147748 -0.353518 -0.0071826  -0.00811696 -0.345859 -0.0070349  -0.00853443 -0.353116 -0.00718856  -0.000908136 -0.346277 -0.00703573  -0.00868654 -0.353097 -0.00718927  -0.00189352 -0.360754 -0.00733531  -0.00910378 -0.360333 -0.00734127  -0.0023067 -0.36798 -0.0074861  -0.00895357 -0.360349 -0.00733924  -0.00936913 -0.367573 -0.00749147  -0.00174499 -0.360772 -0.00733602  -0.00952029 -0.367558 -0.00749362  0.000372209 -0.000524282 -0.000886321  0.000303298 -0.00027293 -0.000671625  0.00116217 -0.00142699 -0.00154352  0.000301726 -0.000160754 -0.000950933  0.000979751 -0.000781476 -0.00155425  0 0 0  0 0 0  0.000380978 -0.000390828 -0.00119984  0 0 0  0.000913545 -0.00100851 -0.00119174  0.00225644 -0.00289619 -0.00205898  0.00170054 -0.00235546 -0.0016067  0.00349054 -0.0045172 -0.0023911  0.00181831 -0.00201756 -0.00203991  0.00275162 -0.00352407 -0.00228739  0.00240424 -0.00252861 -0.0025959  0.00260177 -0.0039351 -0.00185132  0.00474367 -0.00652707 -0.00258994  0.00354168 -0.00591505 -0.00201404  0.00599545 -0.00874156 -0.00271976  0.0036881 -0.00543088 -0.00245082  0.00460938 -0.00761068 -0.00253749  0.00492269 -0.0060159 -0.00315404  0.00447309 -0.00813794 -0.00210607  0.00719285 -0.0112469 -0.00277448  0.00538254 -0.0106493 -0.00215697  0.00834388 -0.0140069 -0.00281107  0.00550193 -0.0100861 -0.00257051  0.00635296 -0.0128432 -0.00259733  0.00733224 -0.0106666 -0.0033201  0.00624835 -0.0134255 -0.0021888  0.00943387 -0.0170155 -0.00280845  0.00707412 -0.0164467 -0.00219643  0.0104696 -0.0202864 -0.00280833  0.00716496 -0.0158535 -0.00258887  0.00793427 -0.0191349 -0.00259352  0.00953233 -0.0164142 -0.00332808  0.00785249 -0.0197307 -0.00220823  0.0114513 -0.0237848 -0.00279129  0.00858641 -0.0232407 -0.00220907  0.012377 -0.0275337 -0.00278306  0.0086621 -0.0226497 -0.00257814  0.00934744 -0.0264152 -0.00257969  0.0115238 -0.023192 -0.0032804  0.00927454 -0.0269976 -0.0022192  0.0132518 -0.031494 -0.00276673  0.00992042 -0.0309647 -0.00222278  0.0140728 -0.035683 -0.00276315  0.00999039 -0.0303946 -0.00256884  0.0105922 -0.0346056 -0.00257683  0.0133119 -0.0309242 -0.00322402  0.0105208 -0.0351579 -0.00224066  0.014845 -0.0400686 -0.002756  0.0110801 -0.0395503 -0.00225317  0.0155632 -0.0446634 -0.00276065  0.0111498 -0.0390138 -0.0025748  0.0116683 -0.0436302 -0.00259054  0.0149024 -0.0395334 -0.00318182  0.0115958 -0.0441464 -0.00228035  0.016234 -0.0494373 -0.00276434  0.0120695 -0.0489266 -0.00230241  0.0168543 -0.0544016 -0.00278032  0.0121443 -0.0484263 -0.00260031  0.0125817 -0.0534146 -0.00262702  0.0162958 -0.0489406 -0.00315785  0.012502 -0.0538918 -0.00234008  0.0174296 -0.0595285 -0.00279665  0.0128946 -0.0590236 -0.00237441  0.0179548 -0.0648287 -0.00282419  0.0129761 -0.0585635 -0.00265002  0.0133355 -0.0638856 -0.00268614  0.0174967 -0.0590732 -0.00315928  0.0132482 -0.0643241 -0.00242198  0.0184357 -0.0702766 -0.00285161  0.0135649 -0.0697749 -0.00246572  0.01887 -0.0758787 -0.00289011  0.0136507 -0.069355 -0.00271785  0.0139333 -0.0749797 -0.00276494  0.0185102 -0.0698598 -0.00318396  0.0138415 -0.0753781 -0.00252473  0.0192623 -0.0816141 -0.00292647  0.0140821 -0.0811159 -0.00257885  0.019609 -0.0874893 -0.00297511  0.0141759 -0.0807346 -0.00280821  0.0143855 -0.0866314 -0.00286472  0.0193431 -0.0812361 -0.00323009  0.0142858 -0.0869906 -0.0026449  0.0199168 -0.0934813 -0.00302255  0.0144563 -0.0929862 -0.00270927  0.0201833 -0.0995992 -0.00308049  0.0145576 -0.0926415 -0.00291717  0.0146971 -0.0987818 -0.0029825  0.0200049 -0.0931413 -0.00329888  0.014591 -0.0991041 -0.00278318  0.0204093 -0.105822 -0.00313902  0.0146948 -0.105328 -0.00285494  0.0205984 -0.112154 -0.00320566  0.0148025 -0.105021 -0.00304377  0.0148774 -0.111372 -0.00311708  0.0205051 -0.105517 -0.00338745  0.0147671 -0.111661 -0.00293875  0.0207503 -0.118579 -0.00327194  0.0148079 -0.118088 -0.00301838  0.0208648 -0.125102 -0.00334573  0.01492 -0.117814 -0.00318789  0.0149351 -0.124357 -0.0032692  0.0208504 -0.118308 -0.00349486  0.0148202 -0.12461 -0.00310814  0.0209488 -0.131702 -0.00342023  0.0148047 -0.131214 -0.00319588  0.0209973 -0.138389 -0.00350249  0.0149193 -0.130973 -0.0033474  0.0148785 -0.137679 -0.00343645  0.0210538 -0.131464 -0.00361943  0.0147593 -0.137901 -0.00329316  0.021014 -0.145145 -0.00358498  0.0146892 -0.144661 -0.00338793  0.0209999 -0.151975 -0.00367522  0.0148089 -0.144449 -0.00352049  0.0147154 -0.151296 -0.00361681  0.0211248 -0.144936 -0.00376213  0.0145934 -0.151489 -0.00349104  0.0209582 -0.158861 -0.00376487  0.0144756 -0.15838 -0.00359166  0.0208869 -0.165813 -0.00386024  0.014596 -0.158196 -0.00371051  0.0144567 -0.165164 -0.00381124  0.0210729 -0.158682 -0.0039196  0.0143323 -0.165331 -0.00370109  0.0207903 -0.17281 -0.00395691  0.0141678 -0.172332 -0.00380898  0.0206656 -0.179863 -0.00405908  0.0142927 -0.172176 -0.00390995  0.0141108 -0.179243 -0.00401735  0.0209074 -0.172658 -0.0040921  0.0139823 -0.179386 -0.00392222  0.0205193 -0.186953 -0.00416136  0.0137763 -0.186479 -0.00403392  0.0203483 -0.194087 -0.004269  0.0139053 -0.186347 -0.00412321  0.0136843 -0.193496 -0.00423551  0.0206413 -0.186823 -0.00427783  0.0135534 -0.193613 -0.00415325  0.0201559 -0.201252 -0.00437856  0.0133109 -0.200783 -0.00427139  0.0199423 -0.208453 -0.00449121  0.0134432 -0.200673 -0.00434673  0.0131845 -0.207889 -0.0044651  0.0202794 -0.201144 -0.0044769  0.013052 -0.207985 -0.00439465  0.019711 -0.215678 -0.00460446  0.0127785 -0.215211 -0.00451767  0.0194576 -0.222929 -0.00472546  0.0129113 -0.215124 -0.00458395  0.0126247 -0.222389 -0.00470424  0.0198357 -0.215592 -0.0046916  0.0124884 -0.222465 -0.00464642  0.0191903 -0.230197 -0.00484383  0.0121861 -0.229736 -0.00477266  0.0189028 -0.237487 -0.00496745  0.0123222 -0.229667 -0.00482559  0.0120084 -0.23697 -0.00495255  0.0193202 -0.23013 -0.00491273  0.0118706 -0.237026 -0.00490332  0.0186052 -0.244784 -0.00509012  0.0115423 -0.244328 -0.00503421  0.0182893 -0.252098 -0.00521982  0.0116816 -0.244276 -0.00507772  0.0113447 -0.251603 -0.00520825  0.0187373 -0.244734 -0.00514781  0.0112042 -0.251643 -0.00516951  0.0179634 -0.259415 -0.00534844  0.010855 -0.258965 -0.00530398  0.0176225 -0.266743 -0.00547945  0.0109944 -0.258928 -0.0053376  0.0106382 -0.266265 -0.00547135  0.0180988 -0.25938 -0.00539231  0.0104954 -0.266293 -0.00544322  0.0172732 -0.274067 -0.00561023  0.0101285 -0.273622 -0.00558078  0.0169117 -0.281398 -0.00574625  0.010272 -0.273599 -0.00560606  0.00989628 -0.280939 -0.00574362  0.0174117 -0.274046 -0.00564528  0.00975561 -0.280953 -0.00572085  0.0165453 -0.288723 -0.00588298  0.0093739 -0.288282 -0.00586212  0.0161645 -0.296049 -0.00602388  0.009516 -0.288269 -0.00588083  0.00912762 -0.295606 -0.0060221  0.0166848 -0.288711 -0.00590861  0.00898337 -0.29561 -0.00600505  0.0157833 -0.303366 -0.00616336  0.00858998 -0.302932 -0.0061481  0.0153921 -0.310682 -0.00630486  0.0087347 -0.302928 -0.00616217  0.00833774 -0.310252 -0.00630569  0.015923 -0.303366 -0.00618112  0.00819325 -0.310247 -0.00629282  0.0149956 -0.317985 -0.00644684  0.00778985 -0.317554 -0.00644088  0.0145922 -0.325285 -0.0065937  0.00793457 -0.317559 -0.00644994  0.00752902 -0.324866 -0.00659442  0.0151381 -0.317993 -0.00645888  0.00738311 -0.324856 -0.0065887  0.0141878 -0.332567 -0.00673735  0.00697207 -0.332142 -0.0067364  0.0137768 -0.339849 -0.00688505  0.00712037 -0.332153 -0.00673914  0.00670934 -0.339435 -0.00688684  0.0143328 -0.332582 -0.00674379  0.00656056 -0.339421 -0.0068841  0.0133667 -0.347112 -0.0070312  0.00614715 -0.346685 -0.00703204  0.0129521 -0.354366 -0.00717926  0.0062964 -0.3467 -0.00703359  0.00587916 -0.353959 -0.00718236  0.0135119 -0.347126 -0.00703454  0.00573254 -0.353941 -0.00718057  0.0125387 -0.361607 -0.00732625  0.00531816 -0.36118 -0.00733054  0.012125 -0.368839 -0.00747216  0.00546503 -0.361196 -0.00732756  0.00505352 -0.368426 -0.00747609  0.0126848 -0.361623 -0.00732601  0.00490761 -0.368406 -0.00747943  0.000650242 -0.00147074 -0.00124538  0.000566281 -0.000874996 -0.00104415  0.00210831 -0.00282848 -0.00218999  0.000568219 -0.000753224 -0.00146556  0.00176764 -0.0017556 -0.00243115  0 0 0  0 0 0  0.0006724 -0.0012967 -0.00167143  0 0 0  0.00164054 -0.00201821 -0.00186992  0.00384547 -0.00453979 -0.00291109  0.00302489 -0.00359941 -0.0025059  0.00574911 -0.00626087 -0.00340509  0.00321142 -0.00320357 -0.00318432  0.00477511 -0.0048427 -0.00360417  0.00404117 -0.00408912 -0.00367308  0.00453448 -0.0053106 -0.00291109  0.0076054 -0.00822538 -0.00369978  0.00610986 -0.00728846 -0.0031631  0.00942656 -0.0104199 -0.00389826  0.00632152 -0.00675428 -0.00386405  0.00782529 -0.00894451 -0.00401247  0.00783223 -0.0076499 -0.00452077  0.00762919 -0.00951642 -0.00332022  0.011176 -0.0128493 -0.00397635  0.00911927 -0.0119784 -0.00338626  0.0128511 -0.0155684 -0.00402129  0.00927696 -0.0113825 -0.0040592  0.0106621 -0.0141186 -0.00408447  0.0113462 -0.0122294 -0.00478041  0.0105317 -0.0147269 -0.00342286  0.0144575 -0.0185233 -0.00400591  0.0118884 -0.0177094 -0.0034138  0.0159889 -0.0217592 -0.00398386  0.0119907 -0.0170974 -0.00405276  0.0132584 -0.0203578 -0.00402653  0.0145686 -0.0179014 -0.00477266  0.0131744 -0.0209654 -0.0034014  0.0174557 -0.0252221 -0.00393558  0.0143989 -0.0244492 -0.00336862  0.0188481 -0.0289446 -0.00389266  0.014468 -0.0238494 -0.00396931  0.0156204 -0.0275989 -0.00392711  0.0175259 -0.0246202 -0.00465965  0.0155613 -0.0281833 -0.00334167  0.0201753 -0.0328793 -0.00383818  0.0166619 -0.0321333 -0.00330615  0.0214317 -0.0370485 -0.00379407  0.0167146 -0.0315627 -0.00387073  0.0177521 -0.0357628 -0.0038271  0.0202262 -0.0323088 -0.00451446  0.0177022 -0.0363131 -0.00328135  0.0226227 -0.0414127 -0.00374722  0.0186825 -0.0406907 -0.00325441  0.0237454 -0.0459921 -0.00371242  0.0187312 -0.0401566 -0.00377822  0.0196557 -0.0447652 -0.00374496  0.0226672 -0.0408807 -0.00437474  0.0196058 -0.0452788 -0.00323963  0.0248046 -0.0507461 -0.00367641  0.0204711 -0.0500455 -0.00322211  0.0257962 -0.055697 -0.00365245  0.0205215 -0.0495499 -0.00370789  0.0213325 -0.0545303 -0.00368631  0.0248481 -0.0502546 -0.00425732  0.0212774 -0.0550043 -0.00321949  0.0267266 -0.0608081 -0.003631  0.0220319 -0.0601256 -0.00321579  0.0275927 -0.0660961 -0.00362074  0.0220859 -0.0596702 -0.00366235  0.0227897 -0.0649872 -0.00365293  0.0267776 -0.0603558 -0.00416386  0.02273 -0.065419 -0.00322509  0.0284008 -0.0715258 -0.00361109  0.0233741 -0.0708616 -0.00323308  0.0291461 -0.0771192 -0.00361264  0.023436 -0.0704461 -0.00364149  0.0240321 -0.0760663 -0.00364447  0.028457 -0.0711161 -0.00410056  0.0239643 -0.0764609 -0.00325429  0.0298343 -0.082839 -0.00361609  0.0245053 -0.0821903 -0.0032748  0.0304643 -0.0887048 -0.00363028  0.0245761 -0.0818125 -0.0036459  0.0250716 -0.0877055 -0.0036608  0.0298989 -0.0824664 -0.00406253  0.024995 -0.0880616 -0.00330687  0.0310397 -0.0946823 -0.00364673  0.0254364 -0.0940486 -0.00333714  0.0315605 -0.100791 -0.00367212  0.025514 -0.0937083 -0.00367415  0.0259143 -0.0998434 -0.00369966  0.0311128 -0.0943463 -0.00405002  0.0258316 -0.100162 -0.00337791  0.0320292 -0.106999 -0.00369799  0.0261809 -0.10638 -0.00342011  0.0324466 -0.113323 -0.0037334  0.0262653 -0.106075 -0.00372398  0.0265731 -0.112424 -0.00376058  0.0321088 -0.106698 -0.00406229  0.026485 -0.112709 -0.00347161  0.0328152 -0.119733 -0.00377011  0.0267457 -0.119129 -0.00352299  0.0331352 -0.126245 -0.00381613  0.0268376 -0.118858 -0.00379467  0.0270594 -0.125396 -0.00384116  0.0328996 -0.119465 -0.00409722  0.0269667 -0.125647 -0.00358295  0.0334096 -0.132834 -0.00386429  0.027145 -0.132244 -0.00364327  0.0336385 -0.139513 -0.00391924  0.0272413 -0.132005 -0.00388694  0.0273843 -0.138707 -0.00394249  0.0335013 -0.1326 -0.0041554  0.0272849 -0.138927 -0.00371242  0.0338287 -0.146254 -0.00397432  0.0273871 -0.145677 -0.00378227  0.0339718 -0.153075 -0.00403881  0.0274901 -0.14547 -0.00399697  0.0275593 -0.152312 -0.00406086  0.0339248 -0.14605 -0.00423217  0.0274544 -0.152505 -0.00385833  0.03408 -0.159949 -0.0041033  0.0274882 -0.159387 -0.00393534  0.0341458 -0.166891 -0.00417733  0.0275924 -0.159206 -0.00412464  0.0275955 -0.166168 -0.00419641  0.0341814 -0.159771 -0.00432956  0.0274868 -0.166333 -0.00401986  0.034178 -0.173875 -0.00425005  0.0274539 -0.173327 -0.00410473  0.034173 -0.18092 -0.00433135  0.0275648 -0.173173 -0.00426853  0.0275033 -0.180236 -0.00434995  0.0342844 -0.173726 -0.00444782  0.0273914 -0.180374 -0.00419652  0.0341368 -0.187995 -0.00441134  0.0272996 -0.187461 -0.00428736  0.0340657 -0.195123 -0.0045011  0.0274136 -0.187332 -0.00443017  0.027298 -0.194476 -0.0045172  0.0342474 -0.187871 -0.00458074  0.0271814 -0.194591 -0.00438631  0.0339677 -0.202275 -0.00459015  0.0270374 -0.201752 -0.00448453  0.033839 -0.209467 -0.00468385  0.0271525 -0.201645 -0.00460601  0.0269873 -0.208853 -0.00469959  0.0340831 -0.202171 -0.00473225  0.0268669 -0.208949 -0.00458908  0.0336854 -0.216679 -0.00478005  0.0266736 -0.216169 -0.00469422  0.0335023 -0.223922 -0.00488269  0.0267947 -0.216082 -0.00479519  0.0265827 -0.223342 -0.004897  0.0338037 -0.216595 -0.00490105  0.0264573 -0.223416 -0.00480461  0.0332956 -0.231177 -0.00498581  0.0262225 -0.230679 -0.00491536  0.0330667 -0.238456 -0.00509274  0.0263469 -0.230611 -0.00499809  0.026094 -0.237907 -0.00510573  0.0334194 -0.231112 -0.00508523  0.0259657 -0.237963 -0.00503111  0.0328176 -0.245743 -0.00520158  0.0256922 -0.245258 -0.00514722  0.0325472 -0.253048 -0.00531542  0.0258198 -0.245206 -0.00521362  0.0255313 -0.252527 -0.00532806  0.0329437 -0.245694 -0.00528252  0.0254028 -0.252567 -0.00526869  0.0322602 -0.260354 -0.00543141  0.025095 -0.25988 -0.00539207  0.0319533 -0.267674 -0.00555336  0.0252259 -0.259843 -0.00544393  0.0249066 -0.267176 -0.00556183  0.0323894 -0.260321 -0.0054934  0.0247731 -0.267201 -0.00551593  0.0316334 -0.274988 -0.00567436  0.0244374 -0.274525 -0.00564218  0.0312958 -0.282312 -0.00579917  0.0245726 -0.274502 -0.00568342  0.0242264 -0.281838 -0.00580931  0.0317647 -0.274969 -0.00572181  0.0240903 -0.281852 -0.00577474  0.0309472 -0.289628 -0.00592494  0.0237327 -0.289174 -0.00590551  0.0305843 -0.296947 -0.00605726  0.0238698 -0.289162 -0.00593638  0.0235026 -0.296493 -0.00606573  0.0310829 -0.28962 -0.00595999  0.0233638 -0.296495 -0.00604129  0.0302148 -0.304255 -0.00618792  0.0229867 -0.303809 -0.00617695  0.0298324 -0.311563 -0.00632381  0.0231254 -0.303809 -0.00619709  0.022742 -0.311128 -0.00633311  0.0303512 -0.304256 -0.006212  0.0226007 -0.311122 -0.00631559  0.0294421 -0.318861 -0.00646234  0.0222099 -0.318423 -0.00645447  0.0290451 -0.326154 -0.00660217  0.0223498 -0.31843 -0.00646877  0.0219538 -0.325731 -0.00660729  0.0295839 -0.318869 -0.00647795  0.021812 -0.325718 -0.00659978  0.0286443 -0.333434 -0.00674415  0.0214069 -0.333001 -0.006742  0.0282371 -0.340706 -0.00688684  0.0215509 -0.333014 -0.00674796  0.0211434 -0.340293 -0.00688958  0.0287871 -0.333447 -0.00675237  0.0210001 -0.340276 -0.00688481  0.0278258 -0.347966 -0.00703168  0.0205894 -0.34754 -0.00703216  0.0274107 -0.35522 -0.00717556  0.0207319 -0.347555 -0.00703323  0.020319 -0.354812 -0.00717747  0.0279684 -0.347983 -0.00703299  0.0201771 -0.354792 -0.007177  0.0269952 -0.362462 -0.007321  0.0197611 -0.362035 -0.00732422  0.0265799 -0.369701 -0.00746691  0.0199051 -0.362052 -0.00732195  0.0194941 -0.369288 -0.00746465  0.0271394 -0.362479 -0.00732148  0.0193491 -0.369267 -0.00746775  0.00119863 -0.00361669 -0.0016259  0.00104632 -0.0021863 -0.00140345  0.00406578 -0.00561112 -0.00282407  0.00106911 -0.00204176 -0.0019201  0.00297773 -0.00374812 -0.00320113  0 0 0  0 0 0  0.00116165 -0.00338417 -0.00212288  0 0 0  0.00280349 -0.00408393 -0.00248337  0.00648086 -0.00690931 -0.00375521  0.00494678 -0.00565815 -0.00333667  0.00876164 -0.00874537 -0.00439882  0.00515231 -0.0051626 -0.00421822  0.00735453 -0.00688821 -0.00481963  0.00657052 -0.00644088 -0.00476921  0.00708038 -0.00745535 -0.0038985  0.0111473 -0.0104733 -0.00479913  0.00926515 -0.00929773 -0.00425386  0.0134141 -0.0126057 -0.00505996  0.00949293 -0.00867963 -0.00520623  0.0115539 -0.0108244 -0.00542343  0.0113595 -0.0098387 -0.00590837  0.0113338 -0.0114651 -0.00447941  0.0156855 -0.0149478 -0.00516188  0.0133602 -0.0138434 -0.00457394  0.0178626 -0.0175906 -0.00521648  0.0135328 -0.0131925 -0.00550604  0.0154364 -0.0158795 -0.00553393  0.0158727 -0.0142734 -0.00624669  0.0152933 -0.0165252 -0.004619  0.0199777 -0.0205015 -0.0051825  0.0171522 -0.0194581 -0.00459778  0.0220028 -0.0236825 -0.00513995  0.0172655 -0.0188165 -0.00548732  0.0190244 -0.0220415 -0.00543022  0.0201108 -0.0198461 -0.00620925  0.018932 -0.0226658 -0.00456405  0.0239525 -0.027108 -0.00505674  0.0206339 -0.0261133 -0.00449991  0.0258062 -0.0307938 -0.00497985  0.0207078 -0.0255007 -0.00533736  0.0223223 -0.0292253 -0.00525033  0.024043 -0.0264919 -0.006019  0.0222614 -0.0298148 -0.00443792  0.0275844 -0.0346884 -0.00488591  0.0238086 -0.0337333 -0.00436556  0.0292657 -0.0388314 -0.00480521  0.0238619 -0.0331598 -0.00514817  0.025332 -0.0373377 -0.0050571  0.0276527 -0.034115 -0.0057832  0.0252827 -0.0378883 -0.00430238  0.0308742 -0.0431548 -0.00471723  0.0266784 -0.0422379 -0.00423574  0.0323892 -0.0477111 -0.00464523  0.026725 -0.0417041 -0.00496209  0.0280486 -0.0462938 -0.004879  0.0309358 -0.0426257 -0.00554943  0.0280014 -0.0468031 -0.0041815  0.0338324 -0.0524279 -0.00456977  0.0292498 -0.0515446 -0.00412607  0.0351831 -0.0573602 -0.00450993  0.0292956 -0.0510524 -0.00479591  0.0304754 -0.0560152 -0.00472653  0.0338923 -0.0519411 -0.00533652  0.0304258 -0.0564831 -0.00408351  0.0364653 -0.0624319 -0.00444877  0.0315306 -0.0615805 -0.00404274  0.0376586 -0.0677044 -0.00440252  0.031581 -0.0611295 -0.00465989  0.0326214 -0.0664309 -0.00460303  0.036528 -0.0619887 -0.00515282  0.0325646 -0.0668571 -0.00401378  0.0387878 -0.0730991 -0.00435793  0.0335296 -0.0722756 -0.00398684  0.0398287 -0.0786736 -0.00432587  0.0335882 -0.0718652 -0.00454998  0.034492 -0.0774693 -0.00450885  0.0388577 -0.0726927 -0.00500107  0.0344285 -0.0778561 -0.00397182  0.0408106 -0.0843592 -0.00429428  0.0352607 -0.0835643 -0.00395787  0.0417084 -0.0902085 -0.00427616  0.0353266 -0.0831929 -0.00447011  0.0361007 -0.0890706 -0.00444365  0.0408864 -0.0839942 -0.00488019  0.036029 -0.0894204 -0.00395536  0.0425462 -0.0961531 -0.00425804  0.0367358 -0.0953869 -0.00395358  0.0433062 -0.102244 -0.00425291  0.0368078 -0.0950512 -0.00441813  0.0374591 -0.101171 -0.00440586  0.0426295 -0.095823 -0.0047884  0.0373809 -0.101484 -0.00396359  0.0440142 -0.108419 -0.00424719  0.0379666 -0.107681 -0.00397432  0.0446471 -0.114731 -0.00425458  0.0380471 -0.107381 -0.00439322  0.038579 -0.113717 -0.00439179  0.0441049 -0.108127 -0.00472534  0.0384963 -0.113996 -0.00399601  0.0452276 -0.121109 -0.00426149  0.0389686 -0.120396 -0.00401771  0.0457369 -0.127608 -0.0042789  0.0390545 -0.12013 -0.00439382  0.0394784 -0.126653 -0.00440443  0.0453229 -0.120849 -0.00469077  0.0393879 -0.126899 -0.00404954  0.0461999 -0.134166 -0.00429928  0.0397564 -0.133478 -0.00408292  0.0465951 -0.14083 -0.00432837  0.0398476 -0.133243 -0.00441754  0.0401688 -0.139931 -0.00443852  0.0463009 -0.133938 -0.00468028  0.0400732 -0.140148 -0.00412488  0.046948 -0.147542 -0.00435817  0.0403404 -0.14688 -0.00416791  0.0472393 -0.15435 -0.00439715  0.0404396 -0.146674 -0.00446296  0.0406644 -0.153502 -0.0044955  0.0470564 -0.147342 -0.00469422  0.0405619 -0.153691 -0.00421894  0.0474885 -0.161194 -0.00443792  0.0407381 -0.160554 -0.00427222  0.0476792 -0.168122 -0.00448668  0.0408404 -0.160377 -0.00453067  0.0409787 -0.167327 -0.00457489  0.0475981 -0.161021 -0.00473428  0.0408735 -0.167488 -0.00433362  0.0478344 -0.17508 -0.00453794  0.0409644 -0.174463 -0.00439429  0.0479352 -0.182108 -0.00459778  0.0410707 -0.174313 -0.00461996  0.0411279 -0.181362 -0.00467324  0.0479512 -0.174932 -0.00479317  0.0410171 -0.181497 -0.00446451  0.0480049 -0.189159 -0.00465798  0.0410311 -0.188565 -0.00453591  0.048022 -0.19627 -0.00472629  0.0411437 -0.188438 -0.00472903  0.0411246 -0.195572 -0.00479138  0.0481212 -0.189037 -0.00487804  0.0410104 -0.195682 -0.00461423  0.048013 -0.203397 -0.00479698  0.0409527 -0.202825 -0.00469482  0.0479534 -0.210578 -0.00487483  0.0410693 -0.202722 -0.00485814  0.0409834 -0.209918 -0.00492764  0.0481331 -0.203298 -0.00498068  0.0408654 -0.21001 -0.0047797  0.0478709 -0.217761 -0.00495052  0.0407441 -0.217213 -0.00486708  0.0477445 -0.224993 -0.00503612  0.0408628 -0.217128 -0.00500345  0.040715 -0.224377 -0.0050844  0.0479941 -0.217682 -0.00510681  0.040596 -0.224447 -0.00496113  0.0475976 -0.232223 -0.00512099  0.040416 -0.231694 -0.00505495  0.047411 -0.239494 -0.0052166  0.040539 -0.231629 -0.00516772  0.0403373 -0.238914 -0.00525558  0.0477242 -0.232162 -0.00524926  0.0402131 -0.238966 -0.00515473  0.0472062 -0.246755 -0.0053103  0.0399849 -0.246245 -0.00525665  0.0469677 -0.254049 -0.00541031  0.0401099 -0.246195 -0.00534618  0.0398607 -0.253504 -0.00544274  0.0473342 -0.246713 -0.00541246  0.0397341 -0.253542 -0.00536478  0.0467119 -0.261333 -0.00551367  0.0394602 -0.260842 -0.00547326  0.0464239 -0.268643 -0.00562167  0.0395894 -0.260809 -0.00554514  0.0393004 -0.268131 -0.00564897  0.0468445 -0.261306 -0.0055933  0.0391688 -0.268154 -0.0055865  0.0461245 -0.275939 -0.00573206  0.0388565 -0.275463 -0.00570524  0.0457993 -0.283254 -0.00584924  0.0389907 -0.275441 -0.00575638  0.0386636 -0.282767 -0.00586927  0.0462611 -0.275922 -0.00579143  0.0385306 -0.282779 -0.005826  0.0454638 -0.290551 -0.00596547  0.0381863 -0.29009 -0.00594711  0.0451045 -0.297862 -0.00608957  0.0383184 -0.290081 -0.00598395  0.0379679 -0.297401 -0.00610435  0.0456007 -0.290545 -0.0060091  0.0378292 -0.297403 -0.00607455  0.0447371 -0.305152 -0.00621164  0.0374596 -0.304705 -0.00620174  0.0443535 -0.312455 -0.00634301  0.0375977 -0.304706 -0.0062263  0.03722 -0.312017 -0.00635278  0.0448771 -0.305158 -0.00624013  0.0370808 -0.31201 -0.00633526  0.0439637 -0.319739 -0.00647366  0.0366888 -0.319303 -0.00646949  0.0435562 -0.327026 -0.00660765  0.036829 -0.31931 -0.00648367  0.036433 -0.326604 -0.00661778  0.0441041 -0.319749 -0.0064894  0.0362923 -0.32659 -0.00660658  0.0431502 -0.334294 -0.0067457  0.0358877 -0.333867 -0.00674546  0.0427339 -0.341564 -0.00688779  0.0360305 -0.333879 -0.00675344  0.0356205 -0.341153 -0.00689185  0.0432932 -0.33431 -0.00675499  0.0354788 -0.341137 -0.00688779  0.0423176 -0.348818 -0.00703025  0.0350659 -0.348394 -0.0070318  0.0418973 -0.356072 -0.00717556  0.0352068 -0.348411 -0.00703347  0.0347919 -0.355665 -0.00717533  0.0424592 -0.348835 -0.00703311  0.0346506 -0.355648 -0.007177  0.0414789 -0.363314 -0.00732052  0.0342319 -0.362891 -0.00732064  0.0410538 -0.370559 -0.00746727  0.0343745 -0.362906 -0.00731814  0.0339584 -0.370147 -0.00746334  0.0416207 -0.363331 -0.00732028  0.0338168 -0.37013 -0.00746417  -0.000870988 -0.000734106 0.00203204  -0.000961576 -0.00139299 0.00239122  -0.0024754 -0.00195816 0.00360918  -0.00110901 -0.00100659 0.00351071  -0.00398773 -0.00236065 0.0051744  -0.00279341 -0.00289988 0.00340164  0 0 0  -0.00225331 -0.00276803 0.00277448  0 0 0  0 0 0  -0.000906806 -0.000348456 0.00302005  0 0 0  -0.0044439 -0.00425901 0.00475729  -0.00310595 -0.00308333 0.00416648  -0.00422353 -0.00308644 0.00434303  -0.00519903 -0.00407336 0.00505066  -0.0059054 -0.00444365 0.00496233  -0.00585252 -0.00318251 0.00589621  -0.00767608 -0.00449729 0.0066998  -0.00718157 -0.00413223 0.00681782  -0.0066154 -0.00514293 0.00577164  -0.00498468 -0.00231591 0.00504601  -0.00878298 -0.00652781 0.00667739  -0.00719641 -0.00545917 0.00577354  -0.00760436 -0.00615531 0.00515234  -0.00916645 -0.00701733 0.00604093  -0.00919428 -0.00807987 0.00530601  -0.00945035 -0.00598136 0.00689256  -0.0111685 -0.00788643 0.00712967  -0.0111989 -0.00686884 0.00803149  -0.0110006 -0.00801358 0.00695729  -0.00796354 -0.00517953 0.00585628  -0.0131718 -0.00990097 0.0072248  -0.0110678 -0.00893093 0.00623333  -0.0107689 -0.010389 0.00527036  -0.0129422 -0.0111693 0.0062083  -0.0123029 -0.0129529 0.00519204  -0.0129327 -0.0101207 0.00705671  -0.0146435 -0.0126766 0.00698578  -0.0152822 -0.010979 0.00820625  -0.0153367 -0.0120951 0.00717318  -0.010799 -0.00937687 0.0059762  -0.01745 -0.0145798 0.00710142  -0.0147692 -0.0136993 0.00612831  -0.0138121 -0.0158371 0.00503767  -0.0165645 -0.0165491 0.00595605  -0.0153033 -0.0189753 0.00484645  -0.0163825 -0.0155515 0.00678122  -0.0180732 -0.0186859 0.00655353  -0.0193213 -0.0163579 0.0078671  -0.0195223 -0.0173932 0.0068928  -0.0136573 -0.0148606 0.00573039  -0.0215465 -0.0204397 0.00665808  -0.0183199 -0.0196448 0.00574303  -0.0167642 -0.0223824 0.00463104  -0.0200401 -0.0230255 0.00549877  -0.0182059 -0.0260258 0.00438833  -0.0197634 -0.0221018 0.00628531  -0.021412 -0.0257413 0.00598478  -0.023236 -0.0228401 0.00728846  -0.0235169 -0.0237837 0.00637472  -0.0165114 -0.0214693 0.00529647  -0.0254406 -0.0273351 0.00606942  -0.0217193 -0.0266234 0.00522387  -0.0196158 -0.0299039 0.00414181  -0.023364 -0.0304761 0.00494647  -0.0210019 -0.0339974 0.00387561  -0.023043 -0.0296298 0.00568652  -0.0246308 -0.0337163 0.00535607  -0.0269863 -0.0302918 0.00660634  -0.0273094 -0.0311479 0.00575721  -0.0193157 -0.0290641 0.00476933  -0.0291325 -0.0351503 0.00542581  -0.0249655 -0.0345233 0.00464618  -0.0223556 -0.0383015 0.00361788  -0.0265318 -0.0387975 0.00435865  -0.0236821 -0.0427984 0.00334466  -0.0261918 -0.0380268 0.00504565  -0.0277098 -0.0425176 0.00470829  -0.0305609 -0.0386088 0.00588787  -0.030902 -0.0393842 0.00510085  -0.0220355 -0.0375322 0.00420308  -0.0326242 -0.0437927 0.00476313  -0.0280551 -0.0432517 0.00405252  -0.0249751 -0.0474881 0.00308275  -0.0295429 -0.0479099 0.00375938  -0.0262413 -0.0523522 0.00280762  -0.0291982 -0.0472086 0.00439608  -0.0306418 -0.0520655 0.00405824  -0.0339495 -0.0477082 0.00516105  -0.0342965 -0.0484092 0.00443852  -0.0246496 -0.0467877 0.00362337  -0.0359212 -0.0531886 0.00410283  -0.0309868 -0.0527309 0.0034548  -0.0274737 -0.0573917 0.00254512  -0.032396 -0.0577388 0.00316405  -0.028679 -0.0625891 0.00227225  -0.0320517 -0.0571042 0.00374544  -0.0334196 -0.0622929 0.00341403  -0.0371499 -0.0575213 0.00444448  -0.0374967 -0.0581542 0.00378323  -0.027149 -0.0567557 0.00303996  -0.0390277 -0.0632711 0.00345194  -0.0337646 -0.0628954 0.00286055  -0.0298527 -0.0679453 0.00201082  -0.0350977 -0.0682208 0.00257254  -0.031 -0.073446 0.00173998  -0.0347561 -0.0676471 0.00310493  -0.0360521 -0.0731406 0.00277829  -0.0401686 -0.0679852 0.00373828  -0.0405092 -0.0685565 0.00313377  -0.0295289 -0.0673713 0.00246429  -0.0419505 -0.0739783 0.00280988  -0.0363894 -0.0736811 0.00227451  -0.032115 -0.079089 0.00148022  -0.0376496 -0.0792949 0.00198996  -0.0332031 -0.0848635 0.00121224  -0.0373151 -0.0787807 0.00247216  -0.0385383 -0.0845454 0.00215113  -0.043007 -0.0790397 0.00304747  -0.043344 -0.0795526 0.00249851  -0.0317974 -0.0785722 0.00189042  -0.0446979 -0.0852521 0.00218034  -0.0388699 -0.0850324 0.00169539  -0.0342628 -0.0907667 0.000954151  -0.0400593 -0.0909065 0.00141394  -0.0352957 -0.0967869 0.000689864  -0.03973 -0.0904457 0.00185049  -0.0408857 -0.0964554 0.00153363  -0.0456755 -0.0906326 0.00236809  -0.0460066 -0.0910908 0.00187325  -0.0339509 -0.0903034 0.00132489  -0.0472771 -0.0970404 0.00155973  -0.0412105 -0.0968909 0.0011251  -0.0363011 -0.102922 0.00043416  -0.0423322 -0.103 0.000846744  -0.0372807 -0.109164 0.0001719  -0.0420117 -0.102589 0.00123966  -0.0431 -0.108821 0.000927806  -0.0481825 -0.102707 0.00170171  -0.048504 -0.103115 0.00125837  -0.0359963 -0.102511 0.000767708  -0.0496956 -0.10929 0.000950933  -0.0434157 -0.109209 0.000562072  -0.038232 -0.115506 -7.98702e-05  -0.0444727 -0.115525 0.000288486  -0.0391629 -0.121943 -0.00033927  -0.0441614 -0.115163 0.000637412  -0.0451866 -0.121593 0.000333786  -0.0505339 -0.115214 0.00105131  -0.0508469 -0.115574 0.000653744  -0.0379345 -0.115143 0.000216365  -0.0519621 -0.12195 0.000353098  -0.0454956 -0.12193 7.39098e-06  -0.0400659 -0.128469 -0.000590205  -0.04649 -0.128432 -0.000264406  -0.040946 -0.135078 -0.000845671  -0.0461838 -0.128117 4.6134e-05  -0.0471494 -0.134717 -0.000253201  -0.0527327 -0.128106 0.00041008  -0.0530396 -0.128421 6.23465e-05  -0.0397754 -0.128149 -0.00032711  -0.0540813 -0.134971 -0.000234604  -0.0474507 -0.135011 -0.000540257  -0.0418005 -0.141763 -0.00109112  -0.0483849 -0.141676 -0.00080514  -0.0426331 -0.148522 -0.00134349  -0.0480895 -0.1414 -0.000533581  -0.0489967 -0.148153 -0.000823975  -0.0547919 -0.141336 -0.000213265  -0.0550876 -0.141607 -0.000521183  -0.041517 -0.141486 -0.000861287  -0.0560615 -0.148312 -0.000809431  -0.0492883 -0.148405 -0.00107527  -0.0434432 -0.155347 -0.00158834  -0.0501664 -0.155211 -0.00133765  -0.0442309 -0.162232 -0.00183594  -0.049881 -0.154976 -0.00110114  -0.0507324 -0.161856 -0.00138438  -0.0567129 -0.154859 -0.000819564  -0.0570018 -0.155092 -0.00108922  -0.043165 -0.155106 -0.00138557  -0.0579093 -0.161929 -0.00137007  -0.0510151 -0.162073 -0.00160289  -0.0449967 -0.169177 -0.002074  -0.0518403 -0.168998 -0.00185728  -0.0457416 -0.176172 -0.002316  -0.0515625 -0.168798 -0.00165176  -0.0523641 -0.17579 -0.00193059  -0.0585055 -0.168637 -0.00141311  -0.0587864 -0.168832 -0.00164354  -0.0447285 -0.168974 -0.00189853  -0.0596347 -0.175783 -0.00192058  -0.0526369 -0.175971 -0.00211847  -0.0464649 -0.183213 -0.00255179  -0.0534112 -0.182997 -0.00236869  -0.0471711 -0.1903 -0.00279188  -0.0531425 -0.182831 -0.00219333  -0.053895 -0.189914 -0.00246418  -0.0601835 -0.182624 -0.00199115  -0.0604498 -0.182787 -0.00218856  -0.0462074 -0.183047 -0.00240445  -0.0612392 -0.189834 -0.00245595  -0.0541577 -0.190063 -0.00262403  -0.0478537 -0.197424 -0.00302207  -0.054884 -0.197172 -0.0028677  -0.0485215 -0.204584 -0.00325549  -0.0546243 -0.197036 -0.00271738  -0.0553303 -0.204192 -0.00298166  -0.0617387 -0.196792 -0.00255072  -0.0619986 -0.196925 -0.00271523  -0.0476041 -0.197285 -0.00289619  -0.0627344 -0.204049 -0.00297523  -0.0555849 -0.204314 -0.00311422  -0.0491688 -0.211773 -0.00348163  -0.0562654 -0.211489 -0.00335181  -0.0497971 -0.218989 -0.00370753  -0.0560157 -0.211382 -0.00322843  -0.0566795 -0.218598 -0.00348437  -0.0631924 -0.211103 -0.00309002  -0.0634413 -0.211208 -0.00322843  -0.0489249 -0.211663 -0.00337696  -0.064127 -0.218395 -0.00348067  -0.0569251 -0.21869 -0.00359309  -0.0504107 -0.226228 -0.0039289  -0.0575638 -0.225919 -0.00382483  -0.0510066 -0.233489 -0.00414979  -0.0573223 -0.225835 -0.00372338  -0.0579453 -0.233098 -0.0039705  -0.0645459 -0.225532 -0.00361228  -0.0647874 -0.225606 -0.00372362  -0.0501771 -0.226146 -0.00384462  -0.0654228 -0.23284 -0.00396514  -0.0581799 -0.233165 -0.0040586  -0.0515873 -0.240767 -0.00436401  -0.0587807 -0.240433 -0.00428307  -0.0521553 -0.248058 -0.00458002  -0.0585515 -0.240374 -0.00420022  -0.0591359 -0.247665 -0.00443947  -0.0658047 -0.240037 -0.00411391  -0.0660365 -0.240094 -0.00420308  -0.0513642 -0.240705 -0.00429785  -0.0666313 -0.247363 -0.00443745  -0.0593624 -0.247711 -0.00450861  -0.0527048 -0.255357 -0.00478888  -0.0599289 -0.255002 -0.00472748  -0.0532429 -0.262668 -0.00499582  -0.0597067 -0.254963 -0.00466478  -0.0602596 -0.262272 -0.00489199  -0.0669835 -0.254605 -0.00459528  -0.0672052 -0.254643 -0.00466383  -0.052489 -0.255314 -0.00473487  -0.0677633 -0.261934 -0.00489163  -0.0604749 -0.262303 -0.00494313  -0.0537663 -0.269979 -0.00519872  -0.0610108 -0.269608 -0.00515389  -0.0542786 -0.277298 -0.0053978  -0.0607977 -0.269586 -0.00510764  -0.0613217 -0.276906 -0.00532436  -0.0680881 -0.269212 -0.00506079  -0.0682983 -0.269228 -0.00511062  -0.0535607 -0.269956 -0.0051595  -0.0688219 -0.276535 -0.00532901  -0.0615275 -0.276917 -0.00536311  -0.0547779 -0.284617 -0.00559342  -0.0620337 -0.28423 -0.00556386  -0.055269 -0.291933 -0.00578749  -0.0618336 -0.28422 -0.00552917  -0.0623286 -0.291541 -0.0057385  -0.0691257 -0.283833 -0.00550532  -0.0693252 -0.283836 -0.00553441  -0.0545797 -0.284605 -0.00556386  -0.0698183 -0.291142 -0.00574183  -0.0625248 -0.29154 -0.00576401  -0.0557477 -0.299245 -0.00597548  -0.0630062 -0.298849 -0.00595605  -0.056216 -0.306555 -0.00616157  -0.0628147 -0.298851 -0.00593519  -0.063287 -0.306165 -0.00613344  -0.0701044 -0.298448 -0.00591886  -0.0702925 -0.298442 -0.00593925  -0.0555599 -0.299248 -0.00595641  -0.0707603 -0.305745 -0.00613654  -0.0634758 -0.306152 -0.00615001  -0.0566776 -0.313856 -0.00634229  -0.0639346 -0.31345 -0.00633168  -0.0571308 -0.321151 -0.00652194  -0.0637519 -0.313463 -0.00631952  -0.0642056 -0.32076 -0.00650644  -0.071034 -0.313055 -0.00631309  -0.0712125 -0.313036 -0.00632429  -0.0564973 -0.313868 -0.00633144  -0.0716596 -0.320325 -0.0065105  -0.0643852 -0.320741 -0.00651538  -0.0575767 -0.328434 -0.00669587  -0.0648279 -0.328023 -0.00669301  -0.0580153 -0.33571 -0.00686812  -0.0646505 -0.32804 -0.00668693  -0.0650909 -0.335318 -0.00686419  -0.0719192 -0.327623 -0.00668812  -0.0720937 -0.327601 -0.00668931  -0.0574026 -0.328452 -0.00669146  -0.072525 -0.334877 -0.00686765  -0.0652645 -0.335296 -0.00686777  -0.0584478 -0.342973 -0.00703835  -0.0656943 -0.342559 -0.0070374  -0.0588782 -0.350228 -0.00720584  -0.0655236 -0.342577 -0.00703716  -0.0659525 -0.349836 -0.00720572  -0.0727768 -0.342161 -0.0070411  -0.072948 -0.342139 -0.00703609  -0.0582778 -0.342993 -0.00703979  -0.0733705 -0.349394 -0.00720656  -0.0661197 -0.349814 -0.00720465  -0.0593033 -0.357472 -0.00737345  -0.0665429 -0.357058 -0.00737357  -0.0597272 -0.364708 -0.00754178  -0.0663776 -0.357078 -0.00737453  -0.0667992 -0.364324 -0.00754392  -0.0736229 -0.35666 -0.00737631  -0.0737886 -0.356638 -0.00737214  -0.0591342 -0.357495 -0.00737953  -0.0742102 -0.363883 -0.0075407  -0.066968 -0.364299 -0.00754285  -0.000521149 -1.78665e-05 0.00136018  -0.000579588 -0.000333011 0.00167131  -0.00142998 -0.000550508 0.00246775  -0.000656635 4.86672e-05 0.00240147  -0.00234932 -0.00044018 0.00384831  0 0 0  0 0 0  -0.000551961 0.000367522 0.00200939  0 0 0  -0.00165492 -0.00107887 0.00305796  -0.0024115 -0.00160223 0.00292683  -0.00315255 -0.00224876 0.00364125  -0.00349736 -0.0030681 0.00334668  -0.00378856 -0.00152917 0.00420129  -0.00500216 -0.00283693 0.00479782  -0.00289993 -0.000874847 0.00339556  -0.0045855 -0.00368702 0.00415397  -0.00458419 -0.00478955 0.00343382  -0.005988 -0.00538252 0.00429177  -0.00564897 -0.00685436 0.0035013  -0.00624335 -0.00447369 0.00486231  -0.00743032 -0.00647409 0.00498545  -0.00479436 -0.0039016 0.00388527  -0.00735289 -0.00741497 0.00440013  -0.00669256 -0.00920838 0.00344467  -0.00865269 -0.00972399 0.00435627  -0.00771198 -0.0118542 0.00336039  -0.00863621 -0.00876312 0.0049299  -0.00983128 -0.0113938 0.00483632  -0.00668046 -0.00826181 0.00389278  -0.00994331 -0.0123471 0.00427139  -0.00871462 -0.0147906 0.00323641  -0.0111942 -0.0152486 0.00413549  -0.00970179 -0.0179899 0.00308228  -0.0110351 -0.0143048 0.00469995  -0.012228 -0.017504 0.00450659  -0.00857651 -0.0138549 0.00367641  -0.0124367 -0.0184232 0.00395977  -0.0106761 -0.0214515 0.00292039  -0.0136542 -0.0218581 0.00377536  -0.0116416 -0.0251531 0.00273156  -0.0134225 -0.0209639 0.00431931  -0.0145983 -0.0246691 0.00408018  -0.0104716 -0.0205615 0.0033462  -0.0148571 -0.0255328 0.00355601  -0.0125932 -0.0290869 0.00254893  -0.0160407 -0.029444 0.00334644  -0.0135366 -0.0332408 0.00234413  -0.0157704 -0.0286102 0.00386178  -0.0169201 -0.0327685 0.00360024  -0.0123543 -0.0282566 0.00295317  -0.0172036 -0.0335661 0.00310695  -0.0144655 -0.0376013 0.00215101  -0.0183478 -0.0379038 0.00288463  -0.0153852 -0.0421619 0.00193787  -0.018059 -0.0371372 0.0033679  -0.0191738 -0.0417001 0.0031004  -0.0142069 -0.036836 0.00252974  -0.0194697 -0.0424328 0.00263774  -0.0162882 -0.0469063 0.00173688  -0.0205714 -0.0471553 0.0024097  -0.0171819 -0.051835 0.00152063  -0.0202761 -0.0464548 0.00285757  -0.0213515 -0.051385 0.00258696  -0.016022 -0.0462067 0.00208771  -0.021649 -0.0520505 0.00216091  -0.0180582 -0.0569301 0.00131631  -0.0227069 -0.0571226 0.00193214  -0.0189232 -0.0621906 0.00109887  -0.0224105 -0.0564852 0.00234163  -0.0234435 -0.0617469 0.00207353  -0.017791 -0.056292 0.00163853  -0.023742 -0.0623514 0.00168359  -0.0197718 -0.0676027 0.000893712  -0.0247561 -0.0677394 0.00145268  -0.0206099 -0.0731638 0.000674963  -0.0244623 -0.0671628 0.00182748  -0.0254519 -0.0727258 0.00156069  -0.0195026 -0.0670258 0.00118816  -0.0257478 -0.0732703 0.00120604  -0.0214301 -0.0788623 0.000468016  -0.0267208 -0.0789456 0.000974417  -0.0222415 -0.0846939 0.000249386  -0.0264276 -0.0784252 0.00131619  -0.0273771 -0.0842575 0.00105  -0.0211645 -0.0783414 0.00073421  -0.0276679 -0.0847485 0.000728846  -0.0230352 -0.0906493 4.13656e-05  -0.0285977 -0.090682 0.000497937  -0.0238165 -0.0967264 -0.000178218  -0.0283097 -0.090215 0.000806808  -0.0292193 -0.0962917 0.000543594  -0.0227705 -0.0901825 0.00028193  -0.0295055 -0.0967295 0.000255585  -0.0245827 -0.102911 -0.000385284  -0.0303942 -0.102894 2.39611e-05  -0.0253402 -0.109203 -0.000605464  -0.030111 -0.102478 0.000301838  -0.0309795 -0.108771 4.29153e-05  -0.0243224 -0.102495 -0.000169277  -0.0312613 -0.10916 -0.000217319  -0.0260789 -0.115594 -0.000814915  -0.0321121 -0.115531 -0.000446439  -0.026809 -0.122079 -0.00103116  -0.0318336 -0.115162 -0.000198364  -0.032665 -0.121646 -0.000455022  -0.0258245 -0.115225 -0.000621319  -0.0329405 -0.12199 -0.000687242  -0.0275227 -0.12865 -0.00124013  -0.033752 -0.128542 -0.000914454  -0.0282261 -0.135303 -0.00145686  -0.0334798 -0.128219 -0.000694156  -0.0342741 -0.134874 -0.000947833  -0.0272716 -0.128325 -0.00107026  -0.0345434 -0.135172 -0.00115168  -0.0289149 -0.14203 -0.001665  -0.0353184 -0.141882 -0.00137651  -0.029593 -0.148829 -0.00188017  -0.0350533 -0.1416 -0.00118268  -0.0358126 -0.148401 -0.00143445  -0.0286674 -0.141747 -0.00151384  -0.0360732 -0.148661 -0.00161219  -0.0302584 -0.155692 -0.00208724  -0.0368145 -0.155507 -0.00183678  -0.0309122 -0.162616 -0.00230098  -0.0365536 -0.155264 -0.00166774  -0.0372794 -0.162191 -0.00191259  -0.0300167 -0.155448 -0.00195527  -0.037535 -0.162411 -0.00206828  -0.0315535 -0.169595 -0.00250793  -0.0382414 -0.169375 -0.00229001  -0.0321844 -0.176624 -0.00271821  -0.0379882 -0.169168 -0.00214291  -0.0386798 -0.176202 -0.00238454  -0.0313177 -0.169387 -0.00239265  -0.0389311 -0.176388 -0.0025183  -0.0328004 -0.183697 -0.00292099  -0.0396023 -0.183447 -0.00273621  -0.0334074 -0.190814 -0.00313079  -0.0393574 -0.183277 -0.0026108  -0.0400193 -0.190395 -0.00284815  -0.0325708 -0.183524 -0.00282574  -0.0402596 -0.190548 -0.00296116  -0.034003 -0.197966 -0.00333428  -0.0409005 -0.197689 -0.00317633  -0.0345874 -0.205154 -0.00353777  -0.0406637 -0.197549 -0.00307095  -0.0412924 -0.20474 -0.00330245  -0.0337791 -0.197824 -0.00325334  -0.0415263 -0.204863 -0.00339711  -0.035162 -0.212368 -0.00373685  -0.0421393 -0.212066 -0.00360894  -0.0357242 -0.21961 -0.00394058  -0.0419104 -0.211953 -0.00351834  -0.0425122 -0.219198 -0.00374568  -0.0349438 -0.212253 -0.00366867  -0.0427363 -0.219295 -0.00382435  -0.0362761 -0.226871 -0.00413716  -0.0433209 -0.226546 -0.00403166  -0.0368202 -0.234153 -0.00433671  -0.0430975 -0.22646 -0.00395966  -0.0436721 -0.233744 -0.00417984  -0.0360653 -0.226783 -0.00408125  -0.0438931 -0.233818 -0.00424337  -0.0373547 -0.241449 -0.00452924  -0.0444505 -0.241105 -0.0044446  -0.037878 -0.248757 -0.0047245  -0.044234 -0.241039 -0.00438905  -0.044785 -0.248353 -0.00460339  -0.0371478 -0.241382 -0.00448573  -0.0449955 -0.248405 -0.00465167  -0.0383921 -0.256073 -0.00491583  -0.0455306 -0.255713 -0.00485051  -0.0388987 -0.2634 -0.0051049  -0.0453224 -0.255671 -0.0048027  -0.0458512 -0.262998 -0.00501359  -0.0381937 -0.256029 -0.00488055  -0.0460525 -0.263032 -0.00505102  -0.0393939 -0.270726 -0.00529099  -0.0465655 -0.270353 -0.00524497  -0.039885 -0.278057 -0.00547731  -0.0463672 -0.270325 -0.00520873  -0.0468726 -0.277659 -0.00540817  -0.0392044 -0.270697 -0.00526583  -0.0470672 -0.277677 -0.00543749  -0.0403674 -0.285386 -0.00565946  -0.0475588 -0.285001 -0.00562394  -0.0408409 -0.292713 -0.00583863  -0.0473678 -0.284987 -0.00559771  -0.0478544 -0.292319 -0.00579393  -0.0401828 -0.285371 -0.005638  -0.0480421 -0.292322 -0.00581205  -0.0413084 -0.300034 -0.00601768  -0.0485182 -0.299641 -0.00599551  -0.0417707 -0.307353 -0.00619364  -0.048332 -0.299641 -0.00597763  -0.0488029 -0.306962 -0.00616419  -0.041127 -0.300034 -0.00600481  -0.0489845 -0.306955 -0.00617671  -0.0422261 -0.31466 -0.00636518  -0.049443 -0.314258 -0.00635326  -0.0426748 -0.32196 -0.00653696  -0.0492659 -0.314268 -0.00634289  -0.0497229 -0.321572 -0.00652218  -0.042053 -0.314668 -0.00635839  -0.049896 -0.321556 -0.00652981  -0.0431182 -0.329252 -0.00670516  -0.0503399 -0.328845 -0.0066998  -0.0435562 -0.336531 -0.0068742  -0.0501702 -0.328859 -0.00669539  -0.0506084 -0.336139 -0.00686836  -0.0429509 -0.329266 -0.00670457  -0.0507786 -0.33612 -0.00687182  -0.0439899 -0.343798 -0.00703943  -0.0512121 -0.343387 -0.00703883  -0.0444176 -0.351056 -0.00720477  -0.051043 -0.343406 -0.00703514  -0.051475 -0.350664 -0.00720596  -0.043823 -0.343817 -0.00704122  -0.0516417 -0.350643 -0.0072062  -0.044842 -0.358297 -0.00737178  -0.052068 -0.357886 -0.00737381  -0.0452671 -0.365525 -0.00753927  -0.0519006 -0.357905 -0.00737655  -0.0523295 -0.365146 -0.00754583  -0.0446777 -0.358318 -0.00737453  -0.0524936 -0.365119 -0.00754166  -0.000237335 0.000293076 0.000630379  -0.000293545 0.00016585 0.000960588  -0.000630207 -1.63913e-06 0.00119531  -0.00033408 0.000552207 0.0013541  -0.00126028 0.000421673 0.00231385  0 0 0  0 0 0  -0.000252407 0.000673056 0.000953436  0 0 0  -0.000838302 -0.000192672 0.00182831  -0.00104143 -0.000930637 0.00140882  -0.00162886 -0.00121546 0.00215375  -0.00153911 -0.00229883 0.00163233  -0.00200602 -0.000514269 0.00248194  -0.00263877 -0.00178576 0.00286329  -0.00129704 -0.000203133 0.00162184  -0.00239313 -0.00259396 0.00249231  -0.00202993 -0.00404367 0.00164521  -0.00323483 -0.00434914 0.00253725  -0.00253299 -0.00614479 0.00166452  -0.00337449 -0.00347951 0.0028609  -0.00405055 -0.00552052 0.00290334  -0.00212431 -0.00316718 0.00184524  -0.00402686 -0.00642526 0.00258195  -0.00302896 -0.00854754 0.0016073  -0.00480938 -0.00880823 0.00252712  -0.00352168 -0.0112542 0.00153482  -0.0047709 -0.00788397 0.00284755  -0.00547352 -0.010563 0.00275612  -0.0029856 -0.00762045 0.00180805  -0.00557518 -0.0114887 0.0024451  -0.00401092 -0.0142349 0.00144625  -0.00632155 -0.0144472 0.00234318  -0.00450134 -0.0174857 0.00133252  -0.00618535 -0.0135268 0.00265968  -0.00689787 -0.0167746 0.00250888  -0.00389338 -0.0133168 0.00164616  -0.0070647 -0.0176762 0.00220418  -0.00499123 -0.020988 0.00122523  -0.00779635 -0.0211601 0.00207305  -0.00548595 -0.0247344 0.00109172  -0.0076105 -0.0202788 0.00238311  -0.00832272 -0.0240341 0.00220513  -0.00483245 -0.0201089 0.00141943  -0.00852644 -0.0248863 0.00190806  -0.00598031 -0.0287067 0.000969887  -0.0092504 -0.028843 0.00176013  -0.00648177 -0.0329022 0.000824213  -0.00903761 -0.0280173 0.00205481  -0.00974876 -0.0322255 0.0018636  -0.00579721 -0.0278834 0.00115621  -0.00997144 -0.0330192 0.0015825  -0.00698358 -0.0373041 0.000691533  -0.010689 -0.0374028 0.00142109  -0.00749141 -0.0419057 0.000538707  -0.0104619 -0.0366388 0.00170064  -0.0111676 -0.0412546 0.00150049  -0.00678635 -0.0365414 0.000865221  -0.0114011 -0.0419839 0.0012356  -0.00799966 -0.0466934 0.000397563  -0.0121081 -0.0467547 0.00106895  -0.00851274 -0.0516639 0.000240088  -0.0118744 -0.0460538 0.00132692  -0.0125717 -0.0510364 0.00112379  -0.00779486 -0.0459942 0.00056088  -0.0128102 -0.0517036 0.000877619  -0.00902605 -0.0568003 9.36985e-05  -0.0135072 -0.0568248 0.000705481  -0.0095427 -0.0621047 -6.99759e-05  -0.0132688 -0.0561843 0.000943422  -0.0139551 -0.0614989 0.000737786  -0.00881493 -0.0561624 0.000243187  -0.0141978 -0.0621063 0.000511527  -0.0100591 -0.0675577 -0.000221014  -0.0148829 -0.0675433 0.000335932  -0.0105801 -0.073163 -0.000386834  -0.0146433 -0.0669638 0.000554085  -0.0153173 -0.0725763 0.000347257  -0.0098449 -0.0669788 -8.38041e-05  -0.0155613 -0.0731266 0.000141025  -0.0110974 -0.0789019 -0.000542164  -0.0162327 -0.0788481 -3.8147e-05  -0.0116194 -0.0847758 -0.000711322  -0.0159949 -0.0783252 0.000160694  -0.016657 -0.0842071 -4.68493e-05  -0.0108833 -0.0783773 -0.000418782  -0.0168972 -0.0847002 -0.000232577  -0.0121393 -0.0907704 -0.000870705  -0.0175567 -0.090681 -0.000414371  -0.0126598 -0.0968865 -0.00104308  -0.0173196 -0.09021 -0.0002352  -0.0179684 -0.0963358 -0.000444651  -0.011925 -0.0903001 -0.000760794  -0.0182079 -0.0967758 -0.000611305  -0.0131794 -0.10311 -0.00120378  -0.0188555 -0.102986 -0.00079608  -0.0137028 -0.109442 -0.00137889  -0.0186167 -0.102566 -0.000634789  -0.0192549 -0.108903 -0.000844121  -0.0129678 -0.10269 -0.00110507  -0.0194913 -0.109296 -0.000993252  -0.0142205 -0.115868 -0.00154543  -0.0201235 -0.115707 -0.00117958  -0.0147413 -0.122388 -0.0017221  -0.0198904 -0.115335 -0.00103629  -0.0205141 -0.121862 -0.00124419  -0.0140092 -0.115495 -0.00145864  -0.0207462 -0.122211 -0.00137806  -0.015258 -0.128992 -0.00189042  -0.0213661 -0.128801 -0.00156438  -0.0157773 -0.135679 -0.00206792  -0.0211358 -0.128472 -0.00143695  -0.0217463 -0.135168 -0.00164545  -0.015049 -0.128664 -0.00181293  -0.0219765 -0.13547 -0.00176382  -0.0162909 -0.142438 -0.00223827  -0.0225801 -0.142218 -0.00194991  -0.0168059 -0.149268 -0.00241601  -0.022352 -0.141931 -0.00183737  -0.0229514 -0.148767 -0.00204587  -0.0160835 -0.142151 -0.00217044  -0.0231767 -0.14903 -0.00214887  -0.0173173 -0.15616 -0.00258756  -0.0237663 -0.155911 -0.00233638  -0.017828 -0.163112 -0.00276756  -0.0235436 -0.155663 -0.00223923  -0.0241265 -0.162624 -0.00244677  -0.0171127 -0.155911 -0.00252843  -0.024348 -0.16285 -0.00253642  -0.0183353 -0.170115 -0.00294054  -0.024924 -0.169842 -0.00272381  -0.0188413 -0.177171 -0.00311863  -0.0247052 -0.16963 -0.00263834  -0.0252752 -0.176693 -0.0028429  -0.0181336 -0.169905 -0.00289011  -0.025492 -0.176883 -0.00291753  -0.0193424 -0.184269 -0.0032928  -0.0260532 -0.183973 -0.00310659  -0.0198433 -0.191407 -0.00347161  -0.0258377 -0.183794 -0.00303328  -0.0263937 -0.190941 -0.00323594  -0.0191433 -0.184089 -0.00324821  -0.0266075 -0.191101 -0.00330329  -0.02034 -0.198581 -0.00364518  -0.0271554 -0.198266 -0.00348914  -0.0208333 -0.205789 -0.0038259  -0.0269475 -0.19812 -0.00342917  -0.0274875 -0.205334 -0.00362921  -0.0201435 -0.198434 -0.00361001  -0.0276935 -0.205462 -0.00368249  -0.0213244 -0.213025 -0.00399888  -0.0282283 -0.212688 -0.00386631  -0.021811 -0.220283 -0.00417435  -0.0280213 -0.212568 -0.00381529  -0.0285525 -0.219835 -0.00401282  -0.0211325 -0.212903 -0.00396824  -0.028753 -0.219939 -0.00405824  -0.0222974 -0.22756 -0.00435019  -0.0292737 -0.227209 -0.00424206  -0.0227787 -0.234858 -0.00452721  -0.0290754 -0.227116 -0.00419915  -0.0295899 -0.234419 -0.00439465  -0.02211 -0.227466 -0.00432467  -0.0297863 -0.2345 -0.00443208  -0.0232556 -0.242167 -0.0046984  -0.0302937 -0.241803 -0.00461304  -0.0237286 -0.24949 -0.00487459  -0.0300984 -0.241732 -0.00457764  -0.0305984 -0.249063 -0.00477111  -0.0230727 -0.242096 -0.00467956  -0.0307918 -0.249119 -0.00479937  -0.0241981 -0.256818 -0.00504529  -0.0312853 -0.256442 -0.00497937  -0.0246642 -0.264154 -0.00521803  -0.0310943 -0.256394 -0.00495219  -0.0315855 -0.263733 -0.0051403  -0.0240209 -0.256768 -0.00503147  -0.0317726 -0.263772 -0.00516176  -0.0251236 -0.271491 -0.00538695  -0.0322537 -0.271108 -0.00533843  -0.0255868 -0.278832 -0.00555956  -0.0320694 -0.271075 -0.00531828  -0.0325449 -0.278421 -0.00550187  -0.0249512 -0.271459 -0.00537896  -0.032728 -0.278443 -0.00551844  -0.0260425 -0.286167 -0.00572646  -0.0331967 -0.285775 -0.00569201  -0.026495 -0.293502 -0.00589716  -0.0330167 -0.285758 -0.00567758  -0.0334849 -0.293098 -0.00585651  -0.0258694 -0.286152 -0.00572157  -0.0336611 -0.293106 -0.0058682  -0.0269415 -0.30083 -0.00606108  -0.0341203 -0.300433 -0.00603747  -0.0273883 -0.308154 -0.00622654  -0.0339437 -0.300426 -0.00602758  -0.0344028 -0.307756 -0.00620174  -0.0267739 -0.300825 -0.00605595  -0.034574 -0.307752 -0.00621128  -0.0278301 -0.315469 -0.00639045  -0.0350223 -0.315064 -0.00637674  -0.0282705 -0.322774 -0.00655496  -0.0348542 -0.315069 -0.00637174  -0.0352976 -0.32238 -0.00654042  -0.0276661 -0.315473 -0.00638711  -0.0354681 -0.322368 -0.0065459  -0.0287037 -0.330069 -0.00671637  -0.0359063 -0.329659 -0.00671256  -0.0291348 -0.337352 -0.00687885  -0.0357406 -0.329671 -0.00670743  -0.0361784 -0.33696 -0.00687551  -0.0285406 -0.330082 -0.00671589  -0.0363419 -0.336942 -0.00687754  -0.0295656 -0.344623 -0.00703883  -0.0367725 -0.344211 -0.00703919  -0.0299907 -0.351881 -0.00719941  -0.036607 -0.344227 -0.0070399  -0.0370367 -0.35149 -0.00720453  -0.0294056 -0.344641 -0.00704134  -0.0372002 -0.351467 -0.00720406  -0.0304141 -0.359119 -0.00736094  -0.0376256 -0.358707 -0.00736618  -0.0308354 -0.366342 -0.00752318  -0.0374629 -0.358731 -0.00736749  -0.0378859 -0.365963 -0.00753498  -0.0302534 -0.359142 -0.00736451  -0.0380502 -0.365934 -0.00753129  1.27107e-05 0.000355601 -0.000118494  -4.4208e-05 0.000350833 0.000224829  5.51939e-05 9.76324e-05 -0.000109792  -4.74565e-05 0.000731081 0.000285149  -0.000324108 0.000688285 0.00068903  0 0 0  0 0 0  1.56388e-05 0.000728726 -0.000112891  0 0 0  -0.000161096 0.000100136 0.000537634  0.000147894 -0.000809669 -0.000158191  -0.000385255 -0.000827014 0.000603437  0.000210494 -0.00213563 -0.000143766  -0.000514716 -0.000113159 0.00070107  -0.000656933 -0.00132641 0.000848532  0.000117004 -8.96752e-05 -0.00020659  -0.00057669 -0.00214055 0.000742912  0.000288993 -0.00390473 -0.000185728  -0.000831813 -0.00391078 0.000724196  0.000349194 -0.00601199 -0.000205159  -0.000855863 -0.00304109 0.000816226  -0.00102404 -0.00509974 0.000802398  0.000307918 -0.00303215 -0.000232935  -0.00105172 -0.00600266 0.000726938  0.000403225 -0.00844887 -0.000248551  -0.00128961 -0.00843048 0.000680089  0.000445187 -0.0111823 -0.000296593  -0.00122839 -0.00751224 0.000764847  -0.00142705 -0.0102298 0.000687599  0.000468493 -0.00753134 -0.000290871  -0.00151855 -0.0111487 0.000615835  0.000473738 -0.0141935 -0.000341892  -0.00175363 -0.0141496 0.000552416  0.000486851 -0.0174729 -0.00040555  -0.00164449 -0.0132393 0.000634789  -0.00186735 -0.0165222 0.00053525  0.000568509 -0.0132853 -0.000378251  -0.00199437 -0.0174156 0.000460505  0.00048399 -0.0210009 -0.00045979  -0.00224078 -0.0209343 0.000383019  0.000463128 -0.0247743 -0.000534773  -0.00210553 -0.0200604 0.000466108  -0.00235069 -0.0238492 0.000349641  0.000597417 -0.0201308 -0.0004915  -0.00249785 -0.0246942 0.000274658  0.00042659 -0.0287705 -0.000598431  -0.00276583 -0.028684 0.000185132  0.000366747 -0.0329923 -0.000682354  -0.00261134 -0.0278637 0.000264525  -0.00288093 -0.0321048 0.000141501  0.000550866 -0.0279542 -0.000627518  -0.00304371 -0.032893 6.75917e-05  0.00029099 -0.0374152 -0.000757098  -0.00333416 -0.0373095 -3.32594e-05  0.000195026 -0.0420456 -0.000849605  -0.00316685 -0.0365487 4.29153e-05  -0.00345939 -0.0411971 -8.86917e-05  0.00042814 -0.0366583 -0.000782967  -0.0036341 -0.0419243 -0.000158787  8.41618e-05 -0.046858 -0.000931382  -0.00394535 -0.0467287 -0.00026679  -4.62532e-05 -0.0518544 -0.00103152  -0.00377131 -0.0460303 -0.000196099  -0.00408471 -0.0510463 -0.000331998  0.000230312 -0.04616 -0.000956535  -0.00426614 -0.0517122 -0.000398517  -0.000193119 -0.0570189 -0.00112224  -0.00459719 -0.0568675 -0.000514269  -0.000359416 -0.0623492 -0.00123036  -0.00441647 -0.0562266 -0.000450373  -0.00475168 -0.0615762 -0.000592828  -4.17233e-05 -0.0563813 -0.00114667  -0.0049367 -0.0621849 -0.000651479  -0.000539541 -0.0678298 -0.00132835  -0.00528681 -0.0676553 -0.000776052  -0.000738263 -0.0734622 -0.00144219  -0.00510347 -0.0670744 -0.000715852  -0.00545645 -0.0727219 -0.000862598  -0.000381708 -0.0672503 -0.00135195  -0.00564432 -0.073274 -0.000918269  -0.000948668 -0.0792274 -0.00154853  -0.00601125 -0.0790299 -0.00104594  -0.00117683 -0.0851299 -0.00166667  -0.00582707 -0.0785046 -0.000991106  -0.00619531 -0.0844206 -0.0011431  -0.000788569 -0.0787025 -0.00156951  -0.00638461 -0.0849167 -0.00119197  -0.00141907 -0.0911508 -0.00177956  -0.00676715 -0.0909295 -0.0013237  -0.00167549 -0.0972926 -0.00190413  -0.00657916 -0.090455 -0.00127745  -0.0069648 -0.0966129 -0.0014329  -0.00125337 -0.0906774 -0.00179875  -0.00715506 -0.097058 -0.00147593  -0.00194299 -0.103541 -0.00202131  -0.00755119 -0.103298 -0.00161481  -0.00222611 -0.109899 -0.00215185  -0.00736105 -0.102874 -0.00157225  -0.00776136 -0.109246 -0.00172877  -0.00177813 -0.103118 -0.00204086  -0.00795245 -0.109641 -0.00176764  -0.00251853 -0.116348 -0.00227511  -0.00836015 -0.116082 -0.0019114  -0.00282443 -0.122892 -0.00240993  -0.0081712 -0.115707 -0.00187206  -0.00858021 -0.122264 -0.00203311  -0.00235081 -0.115973 -0.00229239  -0.00877273 -0.122615 -0.0020684  -0.00313997 -0.129518 -0.00253654  -0.0091902 -0.129234 -0.00221431  -0.00346804 -0.136228 -0.00267661  -0.00900054 -0.1289 -0.00217962  -0.00942183 -0.135625 -0.00234377  -0.00296974 -0.129187 -0.00255394  -0.00961173 -0.13593 -0.00237465  -0.00380254 -0.143005 -0.00280881  -0.0100384 -0.142701 -0.00252378  -0.00414824 -0.149857 -0.00295091  -0.00985074 -0.142413 -0.00249457  -0.0102816 -0.149277 -0.00266075  -0.00363374 -0.142717 -0.00282431  -0.010468 -0.149542 -0.00268471  -0.0045023 -0.156768 -0.00308824  -0.0109026 -0.156447 -0.00283778  -0.00486469 -0.16374 -0.00323355  -0.0107164 -0.156195 -0.0028125  -0.0111511 -0.163179 -0.00297904  -0.00433397 -0.156517 -0.00310147  -0.0113392 -0.163408 -0.00300312  -0.00523376 -0.170758 -0.00337303  -0.0117772 -0.170423 -0.00315678  -0.00561285 -0.177833 -0.00352049  -0.0115941 -0.170208 -0.00313532  -0.0120354 -0.177292 -0.00330222  -0.00506663 -0.170547 -0.0033859  -0.0122178 -0.177487 -0.00332141  -0.00599599 -0.184945 -0.0036633  -0.0126631 -0.184595 -0.00347865  -0.00638366 -0.1921 -0.00381434  -0.0124812 -0.184414 -0.00346076  -0.0129237 -0.191579 -0.00362957  -0.00582528 -0.184764 -0.00367475  -0.0131066 -0.191741 -0.0036453  -0.00677562 -0.199288 -0.00395966  -0.0135512 -0.198924 -0.0038023  -0.00717449 -0.206506 -0.00411081  -0.0133712 -0.198773 -0.00378633  -0.0138173 -0.206003 -0.00395727  -0.00660801 -0.199136 -0.00396943  -0.013999 -0.206138 -0.00396943  -0.00757742 -0.213752 -0.00425863  -0.0144455 -0.213379 -0.00412738  -0.00798655 -0.221023 -0.0044142  -0.0142684 -0.213256 -0.00411654  -0.0147152 -0.220539 -0.00428569  -0.00741291 -0.213632 -0.0042696  -0.014895 -0.220646 -0.00429666  -0.00839543 -0.228312 -0.00456262  -0.015343 -0.227929 -0.00445676  -0.00881124 -0.235619 -0.00471759  -0.0151644 -0.227831 -0.00444531  -0.0156159 -0.23515 -0.00461495  -0.0082345 -0.228217 -0.00457215  -0.0157895 -0.23523 -0.00462246  -0.00922894 -0.242936 -0.00486898  -0.016237 -0.242546 -0.00478327  -0.00964665 -0.250267 -0.00502443  -0.0160649 -0.242474 -0.004776  -0.0165112 -0.249812 -0.00494623  -0.0090661 -0.242864 -0.00487542  -0.0166836 -0.249873 -0.00494933  -0.0100675 -0.257604 -0.00517666  -0.0171297 -0.257205 -0.00511169  -0.0104914 -0.264946 -0.0053345  -0.0169604 -0.257151 -0.00510371  -0.0174038 -0.264503 -0.00527227  -0.00990701 -0.257551 -0.00518286  -0.0175731 -0.264544 -0.00527692  -0.0109117 -0.272289 -0.00548697  -0.0180168 -0.271886 -0.0054369  -0.0113387 -0.279634 -0.00564384  -0.0178504 -0.271852 -0.00543308  -0.0182912 -0.279206 -0.00559819  -0.0107529 -0.272254 -0.00549328  -0.0184608 -0.279229 -0.00560188  -0.0117662 -0.286976 -0.00579572  -0.0189011 -0.286569 -0.00576138  -0.0121889 -0.294315 -0.00595343  -0.0187345 -0.286551 -0.00575805  -0.0191758 -0.293895 -0.00592411  -0.0116062 -0.286955 -0.00579965  -0.0193396 -0.293903 -0.00592446  -0.0126169 -0.301646 -0.00610769  -0.0197778 -0.301237 -0.00608504  -0.0130429 -0.308974 -0.00626636  -0.0196123 -0.301229 -0.0060823  -0.0200512 -0.308562 -0.00624573  -0.01246 -0.30164 -0.00611162  -0.0202119 -0.308561 -0.00624669  -0.0134668 -0.316291 -0.00641823  -0.0206466 -0.31588 -0.00640464  -0.0138929 -0.3236 -0.00657487  -0.0204868 -0.315881 -0.00640392  -0.0209191 -0.323195 -0.00656319  -0.0133111 -0.316293 -0.00642323  -0.0210788 -0.323185 -0.00656414  -0.014317 -0.330894 -0.00672925  -0.0215096 -0.330482 -0.00672281  -0.0147424 -0.338181 -0.00688374  -0.0213513 -0.330495 -0.0067215  -0.0217795 -0.337783 -0.00688219  -0.0141618 -0.330907 -0.00672913  -0.0219381 -0.337767 -0.00688314  -0.0151622 -0.34545 -0.0070374  -0.0223618 -0.345036 -0.00703895  -0.0155845 -0.352709 -0.00719213  -0.0222051 -0.345054 -0.00703716  -0.0226285 -0.352318 -0.00719702  -0.0150092 -0.34547 -0.00703943  -0.0227864 -0.352296 -0.00719643  -0.0160027 -0.359948 -0.00734735  -0.0232079 -0.359532 -0.00735378  -0.0164225 -0.367168 -0.00750172  -0.0230527 -0.359556 -0.00735593  -0.0234706 -0.366782 -0.00751376  -0.0158503 -0.359973 -0.00734806  -0.023627 -0.366755 -0.00751328  0.000258535 0.000207067 -0.000866055  0.000195675 0.000316858 -0.000519156  0.000725448 -0.000155509 -0.00140548  0.000227422 0.000687301 -0.000783563  0.000571415 0.00057894 -0.000947118  0 0 0  0 0 0  0.000276901 0.000572741 -0.00116765  0 0 0  0.000480816 1.72257e-05 -0.000767469  0.00132842 -0.00116497 -0.00170684  0.000780344 -0.000935614 -0.000962019  0.00195384 -0.00252461 -0.00190318  0.000890821 -0.00021857 -0.00109589  0.00120685 -0.00145185 -0.00119543  0.0015133 -0.000462532 -0.00201809  0.0011276 -0.00226235 -0.00103211  0.00259367 -0.00434411 -0.00199747  0.00145006 -0.0040586 -0.00110126  0.00322014 -0.00646049 -0.00206029  0.00153822 -0.00319046 -0.00123882  0.00186667 -0.00526112 -0.00130296  0.00272241 -0.00348657 -0.00228953  0.00179118 -0.00616491 -0.00114119  0.00382194 -0.00891554 -0.00208533  0.00210708 -0.00861514 -0.00116968  0.00439936 -0.011658 -0.00210726  0.00218555 -0.00770128 -0.00131822  0.0024938 -0.0104374 -0.00136626  0.00390655 -0.00801057 -0.0023644  0.00241387 -0.0113518 -0.00120902  0.0049451 -0.014675 -0.00211072  0.00269735 -0.014371 -0.00122738  0.0054602 -0.0179643 -0.00212502  0.00277865 -0.013468 -0.00137627  0.00304848 -0.0167692 -0.00142217  0.00501257 -0.0137776 -0.00238061  0.00296158 -0.0176554 -0.00127089  0.00594342 -0.0214953 -0.00212634  0.00320184 -0.0211894 -0.00129366  0.0063923 -0.0252784 -0.00214362  0.00328833 -0.0203236 -0.00143754  0.00351304 -0.0241288 -0.00148499  0.00600934 -0.0206336 -0.00238407  0.00341588 -0.0249681 -0.00134373  0.00680959 -0.0292811 -0.00215006  0.00360614 -0.0289719 -0.00137532  0.00719047 -0.0335129 -0.00217462  0.00370234 -0.0281574 -0.00151014  0.00387502 -0.0324143 -0.00156438  0.0068801 -0.0284708 -0.00239384  0.00376999 -0.0331973 -0.00143254  0.00754315 -0.0379447 -0.00218976  0.00390726 -0.0376309 -0.00147402  0.00785685 -0.0425853 -0.00222337  0.00401425 -0.0368737 -0.00159979  0.00413346 -0.0415408 -0.00166273  0.00762051 -0.0371909 -0.00241876  0.0040189 -0.0422638 -0.00153959  0.00814366 -0.0474061 -0.00224912  0.0041039 -0.0470862 -0.00159097  0.00839198 -0.0524172 -0.00229394  0.00422001 -0.0463889 -0.00170863  0.00428712 -0.0514243 -0.00177932  0.00823045 -0.0467135 -0.00246322  0.00416541 -0.0520892 -0.00166523  0.00861263 -0.0575914 -0.00232887  0.00419974 -0.0572621 -0.00172758  0.00879669 -0.0629365 -0.00238287  0.00432324 -0.0566233 -0.00183499  0.00434005 -0.0619923 -0.00191557  0.00870574 -0.0569571 -0.00252616  0.00421214 -0.0625995 -0.0018096  0.0089525 -0.0684282 -0.00242865  0.00419891 -0.0680902 -0.00187993  0.00907576 -0.0740744 -0.0024904  0.00432754 -0.0675084 -0.00197887  0.00429785 -0.0731765 -0.00206566  0.00905454 -0.0678509 -0.00261021  0.00416327 -0.0737268 -0.00196934  0.00917196 -0.0798516 -0.00254655  0.00410402 -0.0795043 -0.00204885  0.00923467 -0.0857677 -0.00261676  0.00423658 -0.0789781 -0.0021385  0.00416136 -0.0849157 -0.00223327  0.00927913 -0.0793286 -0.0027113  0.00402296 -0.085412 -0.00214565  0.00927341 -0.0918022 -0.00268149  0.00392127 -0.0914435 -0.00223053  0.00928271 -0.0979581 -0.00276124  0.00405872 -0.0909703 -0.00231338  0.00393939 -0.0971469 -0.00241554  0.00938785 -0.0913284 -0.00283289  0.00379848 -0.0975928 -0.00233531  0.00926816 -0.104219 -0.00283325  0.00365448 -0.103851 -0.00242877  0.0092237 -0.110589 -0.00291991  0.0037961 -0.103426 -0.0025034  0.00363827 -0.109816 -0.00261247  0.0093857 -0.103795 -0.00297058  0.00349355 -0.110213 -0.00253832  0.00915873 -0.117051 -0.0029999  0.0033139 -0.116673 -0.00263882  0.00906765 -0.123607 -0.0030942  0.00345719 -0.116293 -0.00270462  0.00326359 -0.12287 -0.0028193  0.00928283 -0.116674 -0.00312328  0.00311589 -0.123222 -0.00275326  0.00895524 -0.130244 -0.00318301  0.00290179 -0.129857 -0.00285995  0.00881767 -0.136964 -0.0032829  0.00304866 -0.129523 -0.00292146  0.00282192 -0.136262 -0.00303972  0.00908315 -0.129912 -0.00329065  0.00267029 -0.136572 -0.00298154  0.00866532 -0.143754 -0.00337696  0.00242519 -0.143359 -0.00309312  0.00848794 -0.150614 -0.0034827  0.00257349 -0.143067 -0.00314724  0.00231719 -0.149945 -0.00327015  0.00879526 -0.143462 -0.00347483  0.00216556 -0.150214 -0.00321853  0.00829387 -0.157533 -0.00358367  0.00189042 -0.157132 -0.00333655  0.00808072 -0.164513 -0.00369608  0.00203896 -0.156879 -0.00338447  0.00175476 -0.163878 -0.00351238  0.0084281 -0.157281 -0.00367105  0.00160289 -0.164108 -0.00346839  0.00785184 -0.171542 -0.00380147  0.00130391 -0.171135 -0.00358808  0.00760293 -0.178622 -0.00392008  0.00145507 -0.170917 -0.00363028  0.00114441 -0.178015 -0.00376189  0.00798583 -0.171326 -0.00387704  0.00099206 -0.178211 -0.00372291  0.00734138 -0.18574 -0.00403285  0.000668764 -0.18533 -0.00384903  0.00706434 -0.192903 -0.00415301  0.000819206 -0.185146 -0.00388515  0.00048995 -0.192323 -0.00401962  0.007478 -0.18556 -0.00409794  0.000336647 -0.192488 -0.00398374  0.00677586 -0.200096 -0.00426888  -4.29153e-06 -0.19968 -0.00411475  0.0064714 -0.207322 -0.00439692  0.00014329 -0.199529 -0.00414693  -0.000202656 -0.206767 -0.00428379  0.00691295 -0.199945 -0.00432718  -0.000355959 -0.206902 -0.00425577  0.00615644 -0.214572 -0.00451767  -0.000715256 -0.214154 -0.00438964  0.00582933 -0.221846 -0.00464869  -0.000562191 -0.214029 -0.00441635  -0.000929832 -0.221317 -0.00455701  0.00629735 -0.214449 -0.00456607  -0.00108123 -0.221425 -0.00453353  0.00549388 -0.229138 -0.00477493  -0.00145483 -0.228716 -0.00467026  0.00514579 -0.236448 -0.00490832  -0.00130296 -0.22862 -0.004691  -0.00168419 -0.235941 -0.00483441  0.00563335 -0.229041 -0.00481629  -0.00183487 -0.236024 -0.0048157  0.00479174 -0.243768 -0.00503683  -0.00222111 -0.243345 -0.00495362  0.00442696 -0.251102 -0.00517416  -0.00206995 -0.243269 -0.0049727  -0.00246119 -0.250615 -0.00511682  0.00493145 -0.243694 -0.0050714  -0.00261378 -0.250677 -0.00509965  0.00405431 -0.25844 -0.00530708  -0.0030098 -0.258016 -0.00524414  0.00367618 -0.265785 -0.00544858  -0.00286031 -0.257964 -0.00525856  -0.00325751 -0.265317 -0.0054059  0.00419784 -0.258386 -0.00533509  -0.00340819 -0.265359 -0.00539112  0.00329375 -0.273128 -0.00558436  -0.00381374 -0.272704 -0.00553668  0.00290442 -0.280477 -0.00572729  -0.00366163 -0.272668 -0.00554836  -0.00407004 -0.280024 -0.00569546  0.00343585 -0.273093 -0.00560832  -0.00422072 -0.280051 -0.00568664  0.00250983 -0.287818 -0.00586677  -0.0046308 -0.287393 -0.00583124  0.00210834 -0.295158 -0.00601089  -0.00447989 -0.287372 -0.0058403  -0.00489068 -0.294723 -0.00599146  0.00265193 -0.287797 -0.00588238  -0.00504136 -0.294733 -0.00598335  0.00170636 -0.302489 -0.00615537  -0.00545573 -0.302066 -0.00613093  0.00130105 -0.309815 -0.00630081  -0.00530386 -0.302057 -0.00613666  -0.00572109 -0.309392 -0.00628912  0.00185299 -0.302482 -0.00616539  -0.00587273 -0.309393 -0.00628388  0.000892878 -0.31713 -0.00644565  -0.00629091 -0.316708 -0.00643218  0.000481367 -0.324439 -0.00659251  -0.00613976 -0.316711 -0.00643778  -0.00655866 -0.324028 -0.00658786  0.00103951 -0.317134 -0.00645387  -0.00670886 -0.324019 -0.00658369  6.81877e-05 -0.331735 -0.0067395  -0.00712705 -0.331314 -0.00673413  -0.000346184 -0.33902 -0.00688756  -0.00697637 -0.331323 -0.00673795  -0.00739551 -0.338614 -0.00688779  0.000215769 -0.331746 -0.00674546  -0.00754595 -0.338599 -0.00688696  -0.000761986 -0.346289 -0.00703633  -0.00796509 -0.34587 -0.00703657  -0.00118017 -0.353548 -0.00718331  -0.00781584 -0.345888 -0.00703835  -0.00823307 -0.353152 -0.00718689  -0.00061655 -0.346309 -0.00703573  -0.00838542 -0.353131 -0.00718915  -0.00159788 -0.360786 -0.00733197  -0.00880289 -0.360365 -0.00733936  -0.00201392 -0.368011 -0.00748122  -0.00865388 -0.36039 -0.00733662  -0.00906897 -0.367613 -0.0074873  -0.00145125 -0.360811 -0.00733078  -0.00921869 -0.367588 -0.00749004  0.000529759 -0.000203252 -0.00158381  0.000454485 6.4075e-05 -0.00124764  0.00149108 -0.000807405 -0.0026406  0.000518866 0.000418782 -0.00182819  0.00150292 0.000111938 -0.00255239  0 0 0  0 0 0  0.000560321 0.000147879 -0.00218713  0 0 0  0.00117046 -0.000423908 -0.00203967  0.00266139 -0.00203687 -0.00317383  0.00201626 -0.00153011 -0.00248194  0.00389543 -0.0034858 -0.00357437  0.00235923 -0.000818193 -0.00285089  0.00315404 -0.00213915 -0.00319362  0.00305249 -0.00135797 -0.00375164  0.00291893 -0.00294143 -0.0027585  0.00510916 -0.00535768 -0.00372589  0.00382832 -0.00477946 -0.00288022  0.00630635 -0.0074898 -0.00384164  0.00402167 -0.00392145 -0.0032537  0.00485072 -0.00601244 -0.003371  0.00534511 -0.00451934 -0.00426424  0.00472739 -0.00690985 -0.00296581  0.00744784 -0.00993443 -0.00386238  0.00559717 -0.00935942 -0.00298011  0.00855094 -0.012671 -0.00387204  0.00569206 -0.00845486 -0.00336361  0.00650567 -0.0111918 -0.00338995  0.00755954 -0.00903928 -0.00438046  0.00643545 -0.0121008 -0.0030005  0.00960428 -0.0156673 -0.00384176  0.00723517 -0.0151104 -0.00297856  0.01061 -0.0189485 -0.00381207  0.00728911 -0.0142146 -0.00335991  0.00804859 -0.0175155 -0.00335371  0.00965255 -0.0147774 -0.00434351  0.00799865 -0.0183957 -0.00297534  0.0115728 -0.0224642 -0.00376606  0.00872189 -0.0219238 -0.00294805  0.012485 -0.0262421 -0.00372922  0.0087629 -0.0210657 -0.00331569  0.00945085 -0.0248688 -0.00330079  0.0115981 -0.0216102 -0.00424957  0.00940633 -0.0257031 -0.00294137  0.0133547 -0.0302337 -0.00367999  0.0100495 -0.0297053 -0.00291634  0.0141724 -0.0344622 -0.00364649  0.0100908 -0.028897 -0.00326478  0.0107011 -0.0331551 -0.00325215  0.0133728 -0.0294304 -0.00413978  0.0106515 -0.0339335 -0.00291395  0.0149454 -0.0388873 -0.00360501  0.011211 -0.0383676 -0.00290024  0.0156666 -0.0435256 -0.003582  0.01126 -0.0376166 -0.0032264  0.0117902 -0.042284 -0.0032227  0.0149674 -0.0381401 -0.004035  0.0117329 -0.0430043 -0.00290573  0.0163459 -0.0483437 -0.00355136  0.0122128 -0.0478295 -0.00290155  0.0169704 -0.0533516 -0.00353861  0.0122707 -0.0471367 -0.0032047  0.0127198 -0.0521756 -0.00321198  0.0163751 -0.0476535 -0.00395155  0.0126526 -0.0528372 -0.00291932  0.017553 -0.0585236 -0.0035218  0.0130519 -0.0580152 -0.00292754  0.0180842 -0.0638676 -0.00352156  0.0131184 -0.0573804 -0.00320852  0.013487 -0.0627544 -0.00322616  0.0175915 -0.0578929 -0.00389171  0.0134138 -0.0633583 -0.00295603  0.0185739 -0.069359 -0.00351524  0.0137351 -0.0688545 -0.00297356  0.0190144 -0.0750049 -0.00352633  0.0138096 -0.0682767 -0.00323164  0.0141007 -0.0739502 -0.00325811  0.0186231 -0.0687829 -0.00385344  0.0140188 -0.0744988 -0.00301182  0.0194148 -0.0807824 -0.00353301  0.0142666 -0.080282 -0.00304198  0.0197679 -0.0866986 -0.00355673  0.0143474 -0.079757 -0.00327623  0.0145661 -0.0857008 -0.0033139  0.0194721 -0.0802606 -0.00384247  0.0144781 -0.0861952 -0.0030899  0.0200834 -0.0927318 -0.00357425  0.0146537 -0.0922328 -0.00312901  0.0203544 -0.0988904 -0.00360703  0.014742 -0.09176 -0.00334287  0.0148895 -0.0979452 -0.00338948  0.0201499 -0.0922616 -0.00385404  0.0147954 -0.0983897 -0.0031873  0.0205898 -0.105149 -0.00363612  0.0149032 -0.104654 -0.00323606  0.0207825 -0.111521 -0.00368011  0.0149977 -0.104231 -0.00342929  0.0150825 -0.110626 -0.00348556  0.0206629 -0.104728 -0.00388944  0.0149808 -0.111025 -0.00330245  0.0209408 -0.11798 -0.00371754  0.0150279 -0.117489 -0.00336051  0.0210625 -0.124539 -0.00377047  0.0151255 -0.117112 -0.00353348  0.015149 -0.123692 -0.00359821  0.021021 -0.117606 -0.00394523  0.0150442 -0.124045 -0.00343335  0.0211511 -0.131175 -0.00381923  0.0150319 -0.130684 -0.00350142  0.021204 -0.137895 -0.0038805  0.015137 -0.130351 -0.00365782  0.0151019 -0.137096 -0.00372922  0.021238 -0.130843 -0.00402296  0.0149922 -0.137406 -0.00358403  0.0212274 -0.144684 -0.00393748  0.014924 -0.144198 -0.00365853  0.0212169 -0.151544 -0.0040077  0.0150354 -0.143905 -0.00379407  0.0149484 -0.150788 -0.00387704  0.0213182 -0.144393 -0.00411797  0.0148349 -0.151056 -0.00374627  0.0211797 -0.15846 -0.0040729  0.0147171 -0.157977 -0.00383079  0.021112 -0.16544 -0.0041523  0.0148306 -0.157726 -0.00395107  0.0146954 -0.164728 -0.00404012  0.0212774 -0.15821 -0.00423098  0.0145774 -0.164956 -0.0039264  0.0210178 -0.172469 -0.00422621  0.014415 -0.171989 -0.00401497  0.0208962 -0.179547 -0.00431144  0.0145345 -0.17177 -0.00411904  0.0143557 -0.17887 -0.00421631  0.0211205 -0.172254 -0.00436497  0.0142334 -0.179068 -0.0041194  0.0207555 -0.186663 -0.00439382  0.0140307 -0.186188 -0.00421476  0.0205855 -0.193824 -0.00448477  0.0141494 -0.186005 -0.00430501  0.0139325 -0.193183 -0.00440562  0.0208602 -0.186481 -0.00451541  0.0138109 -0.193349 -0.00432205  0.0203993 -0.201013 -0.0045743  0.0135708 -0.200542 -0.00442374  0.0201871 -0.208238 -0.00467539  0.0136955 -0.200389 -0.00450504  0.013443 -0.207632 -0.00460875  0.0205076 -0.200862 -0.00467825  0.013315 -0.207767 -0.00453734  0.0199566 -0.215483 -0.00477397  0.013042 -0.215017 -0.00464773  0.0197074 -0.222756 -0.00487924  0.0131662 -0.214894 -0.00471091  0.0128837 -0.222184 -0.00482476  0.0200717 -0.215362 -0.00485826  0.0127552 -0.222291 -0.00476515  0.0194428 -0.230044 -0.00498152  0.012454 -0.229583 -0.00487912  0.0191605 -0.237351 -0.00509369  0.0125835 -0.229485 -0.00493455  0.0122726 -0.236808 -0.00505114  0.0195606 -0.229946 -0.005054  0.0121412 -0.236892 -0.00500453  0.0188642 -0.244667 -0.00520241  0.0118148 -0.244212 -0.00512135  0.0185506 -0.251998 -0.00532162  0.0119448 -0.244135 -0.00516427  0.0116117 -0.251479 -0.0052886  0.0189836 -0.244596 -0.00526059  0.0114796 -0.251543 -0.00524902  0.0182292 -0.259331 -0.00543535  0.011131 -0.258879 -0.00537336  0.0178907 -0.266673 -0.00555861  0.0112646 -0.258824 -0.0054059  0.0109091 -0.266181 -0.00553584  0.0183516 -0.259277 -0.00548041  0.0107739 -0.266222 -0.00550342  0.0175433 -0.274012 -0.00567973  0.0104082 -0.273567 -0.00563443  0.0171845 -0.281358 -0.00580645  0.0105438 -0.273532 -0.00566065  0.0101719 -0.280887 -0.00579166  0.0176718 -0.27398 -0.00571549  0.0100355 -0.280913 -0.00576973  0.0168185 -0.288694 -0.005934  0.00965714 -0.288253 -0.00590205  0.0164435 -0.296031 -0.00606465  0.00979137 -0.28823 -0.0059216  0.00940919 -0.295579 -0.00605702  0.0169506 -0.288675 -0.00596178  0.00926924 -0.295591 -0.00604069  0.016062 -0.303359 -0.00619757  0.00887609 -0.302922 -0.00617754  0.0156724 -0.310683 -0.0063349  0.00901747 -0.302915 -0.00619197  0.00862312 -0.310246 -0.00633049  0.0161967 -0.303354 -0.00621736  0.00848198 -0.310246 -0.00631893  0.0152786 -0.317993 -0.00647056  0.00807762 -0.317561 -0.00645828  0.0148787 -0.325298 -0.00660944  0.00822067 -0.317562 -0.00646818  0.00781798 -0.324876 -0.00660992  0.0154169 -0.317998 -0.0064851  0.00767565 -0.324867 -0.00660312  0.0144765 -0.332587 -0.00674844  0.00726581 -0.332162 -0.0067457  0.0140641 -0.339871 -0.0068922  0.00740933 -0.332172 -0.0067507  0.00700045 -0.339461 -0.0068934  0.0146155 -0.332601 -0.0067569  0.00685549 -0.339445 -0.0068928  0.0136566 -0.347139 -0.00703633  0.00644135 -0.346714 -0.00703561  0.0132408 -0.354398 -0.00717938  0.00658417 -0.346731 -0.00703716  0.0061698 -0.353994 -0.00717998  0.0137951 -0.347157 -0.00703979  0.00602555 -0.353972 -0.00718188  0.0128267 -0.361639 -0.00732195  0.00561023 -0.361214 -0.00732839  0.0124121 -0.36887 -0.00746465  0.00575447 -0.361234 -0.00732589  0.00534058 -0.368464 -0.00746655  0.0129676 -0.361658 -0.00731957  0.00519705 -0.368437 -0.00747311  0.000888564 -0.00107795 -0.00221562  0.000789598 -0.000512421 -0.0019213  0.00256264 -0.00207019 -0.00374043  0.000888079 -0.000174761 -0.00280952  0.00259747 -0.000831127 -0.00406432  0 0 0  0 0 0  0.000925459 -0.000755072 -0.00312936  0 0 0  0.00202703 -0.00135607 -0.00321376  0.00439742 -0.00353986 -0.00448966  0.00350426 -0.00269133 -0.00388706  0.00628105 -0.00509304 -0.00510406  0.00407027 -0.00198144 -0.00450706  0.00539824 -0.00342453 -0.00507784  0.00499307 -0.00285566 -0.00533521  0.00500643 -0.0042299 -0.00436676  0.00807473 -0.00693816 -0.00534701  0.00652513 -0.00607741 -0.00455832  0.00981221 -0.00907367 -0.00553775  0.00681901 -0.00522327 -0.0051831  0.00815761 -0.00732654 -0.0053612  0.00842506 -0.00608617 -0.00613606  0.00798133 -0.00822592 -0.00470591  0.0114771 -0.0114641 -0.00557578  0.0093945 -0.01064 -0.00472546  0.013083 -0.0141782 -0.00558448  0.0095101 -0.00974131 -0.00535583  0.0108169 -0.0124597 -0.00536788  0.0116211 -0.0105602 -0.00634253  0.0107525 -0.0133667 -0.00473702  0.0146312 -0.0171378 -0.00553131  0.0120555 -0.0163475 -0.00468957  0.0161198 -0.0203966 -0.00546646  0.0120877 -0.0154579 -0.00530756  0.0133243 -0.0187378 -0.00525343  0.0146643 -0.0162448 -0.00627661  0.0133085 -0.0196146 -0.00464416  0.0175551 -0.0238881 -0.0053755  0.0145059 -0.0231234 -0.00457275  0.0189257 -0.0276473 -0.00528646  0.0145051 -0.0222699 -0.0051682  0.01565 -0.0260594 -0.00509131  0.0175404 -0.0230359 -0.00608981  0.015653 -0.0268884 -0.00451136  0.0202407 -0.0316201 -0.00518668  0.0167413 -0.0308766 -0.00443554  0.0214894 -0.0358319 -0.00509644  0.0167335 -0.0300723 -0.00499821  0.0177765 -0.0343202 -0.00492096  0.0202113 -0.0308198 -0.00586212  0.0177788 -0.0350944 -0.00437546  0.0226802 -0.040239 -0.00500071  0.0187578 -0.0395163 -0.00430584  0.0238025 -0.0448627 -0.00492048  0.0187523 -0.0387686 -0.0048337  0.0196859 -0.0434291 -0.0047636  0.0226513 -0.0394965 -0.00563347  0.0196836 -0.0441443 -0.00425506  0.0248681 -0.0496626 -0.00483501  0.0205529 -0.0489587 -0.00419557  0.0258632 -0.0546588 -0.00476849  0.0205556 -0.0482676 -0.00468528  0.0213789 -0.053302 -0.0046283  0.024847 -0.0489786 -0.00542152  0.0213677 -0.0539582 -0.00415742  0.0268027 -0.0598137 -0.00469911  0.0221254 -0.0591269 -0.00411212  0.0276756 -0.0651466 -0.00464451  0.0221384 -0.0584965 -0.00456417  0.0228535 -0.0638648 -0.00451994  0.0267935 -0.0591872 -0.00523949  0.0228297 -0.0644625 -0.00408566  0.0284927 -0.0706196 -0.00458872  0.0234828 -0.0699507 -0.00405419  0.0292434 -0.0762558 -0.00454807  0.023506 -0.0693755 -0.00447047  0.0241152 -0.0750456 -0.00443804  0.0284935 -0.0700499 -0.00508308  0.0240843 -0.0755899 -0.00404024  0.0299414 -0.0820177 -0.00450647  0.0246303 -0.081363 -0.00402296  0.0305766 -0.0879236 -0.00448072  0.0246631 -0.080844 -0.00439954  0.0251691 -0.086782 -0.0043813  0.0299529 -0.0814989 -0.00495756  0.0251279 -0.0872738 -0.00402188  0.0311637 -0.0939417 -0.00445211  0.0255774 -0.0933043 -0.00401533  0.0316894 -0.100089 -0.00444078  0.0256206 -0.0928336 -0.00435889  0.0260317 -0.0990137 -0.00435257  0.0311843 -0.0934756 -0.00486279  0.0259795 -0.0994557 -0.00402665  0.032168 -0.106335 -0.00442648  0.0263354 -0.105712 -0.00403261  0.0325909 -0.112696 -0.0044266  0.0263857 -0.105291 -0.00434303  0.0267051 -0.111682 -0.00434887  0.0321987 -0.105916 -0.00479698  0.0266466 -0.112077 -0.00405335  0.0329673 -0.119143 -0.00442183  0.0269142 -0.118535 -0.004071  0.0332923 -0.125692 -0.00443447  0.0269731 -0.118159 -0.00434792  0.027205 -0.124737 -0.00436676  0.0330086 -0.118771 -0.00475371  0.0271395 -0.125087 -0.0041045  0.0335755 -0.132314 -0.004444  0.0273244 -0.13172 -0.0041337  0.0338097 -0.139025 -0.00446749  0.0273905 -0.131388 -0.00437927  0.0275419 -0.138128 -0.00440955  0.0336241 -0.131986 -0.00474095  0.0274713 -0.138435 -0.00417686  0.0340035 -0.1458 -0.00448942  0.0275791 -0.145219 -0.004215  0.0341523 -0.152651 -0.00452209  0.027652 -0.144929 -0.00443304  0.0277281 -0.151808 -0.00447273  0.0340605 -0.145513 -0.00475049  0.0276506 -0.152076 -0.00426686  0.0342653 -0.159555 -0.00455451  0.0276887 -0.158989 -0.00431645  0.0343361 -0.166526 -0.00459981  0.0277655 -0.158738 -0.00450766  0.0277741 -0.165732 -0.00455606  0.0343306 -0.159306 -0.00478494  0.0276918 -0.165964 -0.00437713  0.0343745 -0.173539 -0.00464129  0.0276642 -0.172987 -0.00443602  0.0343735 -0.180609 -0.00469625  0.0277479 -0.172771 -0.00460458  0.0276952 -0.179865 -0.00466084  0.0344453 -0.173327 -0.00484109  0.0276053 -0.180062 -0.00450575  0.0343428 -0.187715 -0.0047493  0.0275178 -0.187175 -0.00457311  0.0342762 -0.194865 -0.00481272  0.027607 -0.186993 -0.00471878  0.0274978 -0.194166 -0.00478423  0.0344212 -0.187533 -0.00491977  0.0274041 -0.194329 -0.00465298  0.0341828 -0.20204 -0.00487471  0.0272624 -0.201516 -0.00472677  0.0340576 -0.209255 -0.00494778  0.0273557 -0.201363 -0.00485086  0.0271955 -0.2086 -0.00492454  0.0342669 -0.201893 -0.00502276  0.0270977 -0.208732 -0.00481212  0.0339098 -0.216488 -0.0050205  0.0269072 -0.215976 -0.00489807  0.0337296 -0.223753 -0.00510097  0.0270057 -0.215853 -0.0049994  0.0267994 -0.223138 -0.00508571  0.0339975 -0.216368 -0.00514245  0.026696 -0.223244 -0.00499272  0.0335283 -0.231027 -0.00518358  0.0264618 -0.230529 -0.00508308  0.0333021 -0.238328 -0.00527191  0.026567 -0.230431 -0.00516629  0.02632 -0.237751 -0.0052619  0.0336242 -0.230935 -0.00528216  0.0262096 -0.237832 -0.00518394  0.0330577 -0.245633 -0.00536036  0.0259387 -0.245144 -0.00528324  0.0327909 -0.252954 -0.0054574  0.0260501 -0.24507 -0.00535393  0.0257659 -0.25241 -0.00545061  0.0331609 -0.245561 -0.00544214  0.0256526 -0.252469 -0.00539029  0.0325067 -0.260276 -0.00555813  0.0253472 -0.259799 -0.00549746  0.032203 -0.267609 -0.00566208  0.0254617 -0.259747 -0.00555158  0.0251489 -0.267093 -0.0056566  0.0326152 -0.260226 -0.00562179  0.0250309 -0.267136 -0.0056113  0.031888 -0.274939 -0.00576663  0.024698 -0.274473 -0.00572407  0.0315533 -0.282274 -0.00588  0.0248156 -0.274439 -0.00576735  0.0244763 -0.281788 -0.00587952  0.0319993 -0.274907 -0.00581884  0.0243552 -0.281811 -0.00584424  0.031209 -0.289603 -0.00599384  0.0239995 -0.289147 -0.00596523  0.0308504 -0.296933 -0.00611401  0.0241227 -0.289128 -0.00599599  0.0237625 -0.296472 -0.00611615  0.0313261 -0.289588 -0.00603163  0.0236354 -0.296479 -0.00609088  0.0304825 -0.304251 -0.00623441  0.0232596 -0.303804 -0.00621927  0.0301032 -0.311569 -0.00636411  0.0233886 -0.303797 -0.00624061  0.0230129 -0.311126 -0.00636613  0.030607 -0.304248 -0.00626075  0.0228782 -0.311123 -0.00634992  0.0297186 -0.318872 -0.00649214  0.0224881 -0.318432 -0.00648165  0.0293221 -0.326172 -0.00662518  0.0226212 -0.318437 -0.00649583  0.0222294 -0.325745 -0.00662756  0.0298486 -0.318881 -0.00650823  0.0220928 -0.325735 -0.00661838  0.0289223 -0.333456 -0.00675917  0.0216913 -0.333022 -0.00675499  0.0285158 -0.340733 -0.00689638  0.0218303 -0.333036 -0.0067637  0.0214233 -0.340318 -0.00689971  0.0290585 -0.333467 -0.00676548  0.0212851 -0.340301 -0.00689387  0.0281072 -0.347995 -0.00703478  0.0208735 -0.347568 -0.00703549  0.027694 -0.355253 -0.00717676  0.0210149 -0.347586 -0.00703669  0.0206015 -0.354845 -0.00717747  0.028245 -0.348014 -0.00703907  0.0204604 -0.354823 -0.00717938  0.0272789 -0.362495 -0.00731945  0.0200467 -0.362068 -0.00731933  0.0268631 -0.369734 -0.00745916  0.0201876 -0.362086 -0.00731885  0.019773 -0.369327 -0.00745487  0.0274179 -0.362513 -0.00731742  0.0196357 -0.369301 -0.00746107  0.00149522 -0.00304949 -0.00275767  0.00135657 -0.00171363 -0.002478  0.00452685 -0.00458354 -0.00462449  0.00149417 -0.00141358 -0.00364137  0.00415304 -0.00260019 -0.00532806  0 0 0  0 0 0  0.0014757 -0.00279784 -0.00396812  0 0 0  0.00330885 -0.00320274 -0.00418591  0.00696535 -0.00568473 -0.00579345  0.00553103 -0.0045445 -0.00516379  0.00929344 -0.00732052 -0.00661051  0.00630784 -0.00378138 -0.00605166  0.00819448 -0.0053038 -0.00686002  0.00786737 -0.00487906 -0.00680888  0.00765115 -0.00617582 -0.00585961  0.0115979 -0.00901568 -0.00699639  0.00975254 -0.00792253 -0.00616944  0.0138228 -0.0110995 -0.00726104  0.0101455 -0.00702316 -0.00706518  0.0119666 -0.00910521 -0.00732672  0.0121045 -0.00805223 -0.00804603  0.0117412 -0.010045 -0.00639439  0.0160058 -0.0134585 -0.00730753  0.0136705 -0.0124074 -0.00643742  0.0181267 -0.016119 -0.00731397  0.01381 -0.0114742 -0.00732958  0.0155926 -0.0141659 -0.00733697  0.0161921 -0.0124852 -0.00835156  0.0155345 -0.0150953 -0.00644505  0.0201808 -0.0190666 -0.00722063  0.0173301 -0.0180484 -0.00637329  0.0221655 -0.0222874 -0.00711703  0.0173467 -0.0171385 -0.0072422  0.0190532 -0.020399 -0.00714254  0.0202104 -0.0181394 -0.00822687  0.0190683 -0.0212847 -0.00629091  0.024081 -0.0257577 -0.00697112  0.0207353 -0.0247719 -0.00617325  0.0259125 -0.0294884 -0.00683045  0.0207006 -0.0239122 -0.00700355  0.0223004 -0.0276816 -0.00686443  0.0240486 -0.0248926 -0.0079267  0.022342 -0.0285116 -0.00605965  0.0276763 -0.0334324 -0.00667393  0.0238745 -0.0324766 -0.00593114  0.0293508 -0.0376222 -0.00652647  0.0238246 -0.0316737 -0.00671339  0.0252967 -0.0359035 -0.00656748  0.0276245 -0.0326301 -0.00756824  0.0253412 -0.0366734 -0.00581384  0.0309572 -0.0419939 -0.00637364  0.0267345 -0.0410705 -0.00568926  0.0324707 -0.0465979 -0.00623667  0.0266859 -0.040329 -0.00642109  0.0280191 -0.04497 -0.00628197  0.0309054 -0.0412555 -0.00720859  0.0280589 -0.0456797 -0.0055815  0.033917 -0.0513611 -0.00609708  0.02931 -0.0504681 -0.00546849  0.035272 -0.05634 -0.00597668  0.0292693 -0.0497866 -0.00614476  0.030463 -0.0548016 -0.00602221  0.0338742 -0.0506844 -0.00686991  0.0304924 -0.0554508 -0.00537407  0.0365602 -0.0614564 -0.00585437  0.0316018 -0.060595 -0.00527787  0.0377605 -0.0667726 -0.00574839  0.0315742 -0.0599715 -0.00590003  0.0326282 -0.0653225 -0.00579345  0.0365306 -0.0608385 -0.00656259  0.0326455 -0.0659147 -0.00519907  0.0388972 -0.0722103 -0.00564146  0.0336181 -0.0713787 -0.00511682  0.0399455 -0.0778279 -0.00555158  0.0335997 -0.07081 -0.00568771  0.0345191 -0.0764602 -0.00559652  0.0388777 -0.0716459 -0.00628996  0.0345256 -0.0770004 -0.0050528  0.0409346 -0.0835552 -0.00546348  0.035365 -0.0827512 -0.00498819  0.04184 -0.0894455 -0.00538754  0.0353594 -0.0822349 -0.00550652  0.036144 -0.088159 -0.00543094  0.0409275 -0.083043 -0.00605333  0.0361415 -0.0886465 -0.00493777  0.042688 -0.0954289 -0.0053165  0.0368549 -0.0946537 -0.00488651  0.0434538 -0.101559 -0.00525725  0.0368592 -0.0941881 -0.0053581  0.0375232 -0.100352 -0.00529826  0.0426921 -0.0949683 -0.00585198  0.0375091 -0.10079 -0.00485158  0.0441706 -0.107773 -0.00520241  0.0381017 -0.107025 -0.00481558  0.0448072 -0.114119 -0.00515854  0.0381162 -0.106609 -0.00523901  0.038663 -0.112986 -0.00519526  0.0441844 -0.107362 -0.00568485  0.0386381 -0.113375 -0.00479329  0.0453947 -0.120535 -0.00511658  0.0391167 -0.119813 -0.00477016  0.0459104 -0.127068 -0.00508845  0.0391445 -0.11944 -0.00515032  0.039578 -0.126006 -0.00512075  0.0454206 -0.120168 -0.00554752  0.0395436 -0.126351 -0.0047636  0.0463768 -0.133659 -0.00505877  0.0399179 -0.132964 -0.00475323  0.0467799 -0.140357 -0.00504339  0.0399499 -0.132636 -0.00509202  0.0402832 -0.139361 -0.00507426  0.0464133 -0.133337 -0.00544202  0.040241 -0.139666 -0.00475621  0.0471389 -0.1471 -0.0050267  0.0405152 -0.146429 -0.00475931  0.0474331 -0.153936 -0.00502467  0.0405579 -0.146144 -0.00505972  0.0407944 -0.153007 -0.00505376  0.0471826 -0.146817 -0.00536573  0.0407431 -0.153271 -0.00477529  0.0476878 -0.160813 -0.00502527  0.0409248 -0.160165 -0.00478983  0.0478845 -0.167768 -0.00503623  0.0409739 -0.159918 -0.00505543  0.041121 -0.1669 -0.00506186  0.0477381 -0.160567 -0.00532162  0.041064 -0.167128 -0.00482047  0.048044 -0.174755 -0.00504792  0.0411596 -0.174132 -0.00484514  0.0481465 -0.181811 -0.00506961  0.0412169 -0.173919 -0.00507462  0.0412819 -0.181 -0.0050956  0.0481033 -0.174545 -0.0053035  0.0412178 -0.181192 -0.00488424  0.0482221 -0.188885 -0.00509465  0.0412362 -0.188287 -0.00492311  0.0482442 -0.196024 -0.00512803  0.0413039 -0.188106 -0.00511765  0.0412915 -0.195268 -0.00515187  0.0482848 -0.18871 -0.00531518  0.0412192 -0.195429 -0.0049721  0.0482354 -0.203173 -0.0051651  0.0411665 -0.202596 -0.00502157  0.0481818 -0.210376 -0.0052098  0.0412405 -0.202448 -0.00518811  0.0411601 -0.209671 -0.00523043  0.0483098 -0.203029 -0.00535119  0.0410831 -0.209802 -0.00508046  0.0481038 -0.217583 -0.00525761  0.0409665 -0.217029 -0.00513923  0.0479805 -0.224835 -0.00531602  0.0410454 -0.216906 -0.00527823  0.0409071 -0.224179 -0.00533319  0.0481815 -0.217466 -0.00541449  0.040822 -0.224283 -0.00521076  0.0478368 -0.232086 -0.00537646  0.040647 -0.231551 -0.00527883  0.0476546 -0.239373 -0.00544262  0.0407326 -0.231458 -0.0053947  0.040539 -0.238762 -0.0054605  0.0479228 -0.231993 -0.00550234  0.0404468 -0.238841 -0.00535834  0.0474517 -0.246653 -0.00551081  0.0402224 -0.246139 -0.00543618  0.0472162 -0.253965 -0.00559044  0.0403159 -0.246069 -0.00553012  0.0400755 -0.253398 -0.00560534  0.0475454 -0.246589 -0.00561368  0.0399754 -0.253451 -0.00552559  0.0469637 -0.261267 -0.00567019  0.0397069 -0.260769 -0.005615  0.0466805 -0.268591 -0.00575709  0.0398068 -0.260719 -0.00568724  0.0395238 -0.26806 -0.0057714  0.0470614 -0.26122 -0.00575018  0.0394177 -0.268093 -0.00571132  0.0463839 -0.275897 -0.00585067  0.0391107 -0.275417 -0.00580955  0.0460625 -0.283226 -0.00594592  0.0392175 -0.275387 -0.0058645  0.0388994 -0.282726 -0.0059588  0.0464923 -0.275871 -0.00590885  0.0387883 -0.282744 -0.00591421  0.0457306 -0.290534 -0.00604856  0.0384467 -0.290068 -0.00602233  0.045373 -0.297854 -0.00615549  0.0385602 -0.290054 -0.00605929  0.0382118 -0.297387 -0.00616622  0.0458419 -0.290522 -0.00608838  0.0380943 -0.297391 -0.00613415  0.045007 -0.305158 -0.00626624  0.0377262 -0.304704 -0.00625098  0.0446258 -0.312469 -0.00638366  0.037847 -0.304706 -0.00627816  0.037477 -0.312023 -0.00639474  0.0451312 -0.30516 -0.00629318  0.0373492 -0.312016 -0.00637507  0.0442398 -0.319757 -0.00650585  0.0369639 -0.319316 -0.0064975  0.0438354 -0.327051 -0.00662923  0.0370903 -0.319324 -0.00651562  0.0366988 -0.326627 -0.00663829  0.0443666 -0.319767 -0.0065192  0.0365682 -0.326612 -0.00662875  0.0434303 -0.33432 -0.00676227  0.0361674 -0.333891 -0.00676227  0.0430131 -0.341597 -0.00689363  0.0362978 -0.333907 -0.00676847  0.0358942 -0.341186 -0.00690019  0.0435636 -0.334343 -0.00676847  0.0357599 -0.341167 -0.00689709  0.0425997 -0.348851 -0.00703216  0.035346 -0.348425 -0.00703681  0.0421772 -0.356107 -0.00717449  0.0354855 -0.348444 -0.00703764  0.0350709 -0.355702 -0.0071764  0.0427363 -0.348871 -0.00703382  0.0349317 -0.355679 -0.00717866  0.0417597 -0.363349 -0.00731361  0.0345142 -0.362924 -0.00731719  0.0413375 -0.370592 -0.00745499  0.0346553 -0.362942 -0.00731659  0.0342379 -0.370184 -0.00745404  0.0419021 -0.36337 -0.00731337  0.0340996 -0.370163 -0.00745678  
SCALARS smooth_stress float 1
LOOKUP_TABLE default
376.453 479.814 411.036 397.35 383.842 366.266 345.425 322.655 299.744 275.927 253.053 230.437 209.106 188.663 169.311 151.086 133.489 117.324 102.232 88.1602 74.7556 63.119 51.9586 42.1797 33.0534 25.6978 19.1411 13.7179 9.17473 5.72978 2.81315 1.92956 0.621287 335.558 563.59 493.501 473.973 458.85 442.018 421.224 396.589 370.882 343.472 316.874 290.452 264.913 240.307 217.272 195.581 174.714 154.935 136.911 119.64 103.735 89.0028 75.5371 63.6023 52.5397 42.2659 33.8324 26.0945 19.1523 13.2704 8.12453 4.38646 0.960199 204.078 340.55 322.077 323.478 318.205 310.443 299.71 285.764 270.587 253.582 236.276 219.582 202.931 186.801 171.236 156.44 142.598 129.025 116.379 104.344 93.0091 82.052 72.3268 63.2076 54.3961 45.8686 38.4299 31.2142 24.4358 18.1128 11.9241 6.65286 1.41061 97.768 172.917 181.797 203.673 211.169 212.259 209.879 204.821 197.557 188.695 179.568 169.435 159.834 149.962 140.524 130.93 122.054 112.772 104.013 95.3388 87.3117 79.1949 71.4382 63.7375 55.984 48.4918 41.3989 34.313 27.2698 20.7381 14.3984 7.79957 1.94666 76.9092 122.744 148.713 177.352 188.015 190.951 189.78 185.98 180.536 173.464 165.824 157.699 149.716 141.323 133.128 125.138 117.236 109.306 101.457 93.7345 86.0518 78.6124 71.2967 63.8692 56.4536 49.1803 41.989 34.9836 27.8746 21.4497 15.2279 8.35358 1.95477 170.844 244.494 252.907 266.149 266.308 260.897 252.408 240.925 228.993 215.861 202.712 189.488 176.762 164.086 152.003 140.249 129.14 118.669 108.681 99.0236 89.6487 80.512 71.7821 63.4899 55.6209 47.9341 40.488 33.4371 26.5294 19.7586 13.885 7.94494 1.91183 301.459 431.144 409.955 406.104 394.877 379.027 360.51 339.36 317.679 294.95 272.952 250.848 229.975 209.775 190.755 172.797 155.827 139.673 124.681 110.577 97.4712 85.2687 73.9148 63.7143 53.9894 45.239 37.1235 29.6418 22.8938 16.2346 10.677 6.20958 1.64067 490.057 640.771 580.744 562.826 543.024 517.568 488.601 457.142 424.546 391.487 359.388 328.434 297.753 269.475 243.013 217.306 192.902 169.702 149.197 129.588 111.424 94.848 79.3694 65.525 53.2678 42.2704 32.9776 24.3804 17.2603 11.6106 7.10481 4.39286 1.26522 155.846 269.735 222.776 215.319 208.661 199.08 187.958 176.152 163.449 150.594 138.148 125.918 114.213 103.09 93.0286 82.79 73.8064 64.4662 56.5755 49.0191 41.8212 35.4705 29.5931 23.8403 19.0876 14.9191 11.1786 8.15516 5.40904 3.27048 1.92604 1.1512 0.512859 425.989 742.991 673.518 639.403 603.541 566.6 528.25 489.451 452.708 416.133 380.774 346.155 314.057 283.247 253.91 225.833 199.54 174.888 152.379 131.466 111.09 93.4317 77.077 61.8673 48.7616 37.4739 27.655 19.7919 12.569 7.80931 3.96579 2.72627 0.96982 386.82 1193.97 1149.21 1079.9 1018.32 961.597 904.799 845.575 786.291 726.275 667.604 611.009 555.569 504.105 453.997 407.293 362.934 320.643 281.796 245.768 211.766 180.491 152.243 126.251 103.847 82.7382 64.266 49.3055 35.3619 24.1032 14.503 8.54875 3.30167 221.474 727.125 780.254 755.566 714.635 677.874 643.343 607.091 569.941 531.816 493.195 456.503 419.961 384.779 350.57 319.12 289.105 260.606 233.236 208.067 183.865 161.549 140.572 121.819 104.584 88.0255 72.4188 58.8843 45.6814 33.731 22.4636 13.2734 4.42043 101.631 406.992 464.293 481.536 469.333 454.199 438.721 421.401 402.734 382.349 361.169 339.574 318.878 298.071 277.3 257.566 238.631 220.812 202.362 184.941 168.455 152.048 136.318 121.355 106.722 92.4451 78.5728 65.638 52.742 39.9111 28.1491 16.197 5.36662 75.2194 264.822 340.275 376.634 378.995 373.24 364.839 354.635 342.78 328.812 314.115 298.823 283.303 267.882 252.379 237.079 222.228 207.394 192.587 178.273 163.66 149.659 135.702 121.958 107.997 94.5151 80.9677 67.7707 54.5802 42.0193 30.161 17.6169 5.40638 175.96 431.34 504.757 523.12 510.652 491.613 470.78 448.4 425.37 401.238 377.329 353.561 330.287 307.569 285.49 264.536 244.084 224.243 205.835 187.887 170.629 153.732 137.756 122.236 107.369 93.2449 78.9737 65.5089 52.5387 40.0242 28.4848 17.4568 5.82609 332.981 771.384 824.268 808.57 769.623 728.941 687.269 644.336 601.481 558.644 517.246 476.744 437.373 399.568 363.94 330.058 298.336 267.928 239.834 213.268 188.412 165.91 144.103 124.302 105.884 89.3978 73.538 59.4704 46.2685 34.0205 22.8688 14.0978 5.10858 590.513 1177.64 1182.54 1130.59 1070.24 1009.39 947.13 883.288 819.747 755.398 693.347 634.359 576.587 521.803 470.406 421.558 375.448 331.606 290.875 253.757 218.805 187.168 157.187 130.954 106.945 85.2271 67.0087 50.3729 36.6697 25.1524 15.8402 9.91788 3.952 261.851 763.434 695.931 661.977 631.145 597.383 561.675 524.786 486.997 448.362 411.191 375.753 341.252 308.008 277.669 248.106 220.471 193.471 169.334 146.812 125.869 106.86 89.1791 72.4273 58.158 45.4422 34.1058 24.8702 16.8601 10.4706 6.28676 3.65638 2.09607 409.606 707.707 677.107 656.182 619.792 577.65 534.77 492.216 452.56 414.425 378.555 343.203 311.016 280.282 251.205 223.602 197.188 172.959 149.798 128.762 109.445 91.4361 75.028 59.9234 46.9786 35.9744 25.9892 18.8123 11.9353 6.94938 3.73824 2.60019 0.841228 339.785 1084.96 1188.61 1138.4 1063.66 989.889 918.733 849.698 783.636 720.795 659.592 601.837 546.935 494.876 445.512 399.406 354.605 312.949 273.96 238.147 205.105 173.95 146.252 120.697 97.9026 78.0823 60.0428 45.355 32.5862 21.0968 12.9156 7.56385 3.00611 178.888 626.13 825.775 811.191 752.572 697.304 648.781 603.479 559.971 518.242 478.494 440.804 404.796 369.845 336.34 305.483 275.854 247.509 221.012 196.21 172.788 150.918 130.794 113.035 96.2302 81.0535 66.3745 53.8029 41.9003 30.2638 19.8477 11.4405 4.48271 84.3553 366.106 524.366 535.423 499.21 463.001 432.974 407.645 384.058 361.025 339.266 318.133 297.592 277.73 257.558 238.701 220.832 203.765 186.453 170.336 154.241 139.349 124.727 110.687 97.229 84.0827 71.6102 59.2686 47.7542 36.383 25.304 14.3399 4.74128 67.4568 274.397 419.948 433.947 406.528 378.307 355.545 337.283 321.047 305.337 290.565 275.304 260.62 246.12 231.55 217.245 203.564 189.98 176.314 163.019 149.694 136.578 123.669 111.268 98.285 86.08 73.6802 61.3721 49.5084 38.0209 26.9596 16.1636 4.8799 145.629 413.861 568.79 578.591 542.796 504.218 470.044 439.853 412.164 385.607 361.052 336.882 313.712 291.256 269.695 248.903 229.275 210.205 192.204 175.24 158.876 143.117 127.338 112.796 98.7761 85.2138 72.2965 59.8215 47.463 36.3602 25.3419 15.8863 5.28601 288.508 698.454 870.15 864.429 810.272 752.043 697.968 647.24 598.926 553.214 509.804 468.627 429.123 390.977 355.246 321.741 289.829 259.581 231.591 205.271 180.301 157.994 136.984 116.833 99.0008 83.0422 68.0447 54.4746 41.9948 30.5808 20.9362 13.1522 5.25803 555.155 1068.36 1220.35 1188.28 1115.85 1039.51 965.109 892.75 823.225 756.907 693.038 632.36 575.317 520.497 467.953 418.821 372.253 328.362 287.694 250.379 215.751 183.939 153.603 127.1 103.655 81.5951 63.7438 46.8943 33.8799 22.9528 14.2119 9.08081 4.05985 254.82 691.086 719.04 695.527 656.465 615.024 572.739 531.419 490.644 451.01 412.475 376.004 341.608 308.97 277.564 248.015 220.047 193.536 169.205 146.086 124.954 106.253 88.1227 71.1316 57.3646 44.4677 33.5993 23.9182 15.828 9.88204 5.88705 3.5841 2.16031 407.645 699.455 664.17 653.292 622.875 581.764 537.64 493.747 452.031 412.907 376.882 341.646 308.821 277.883 248.766 220.961 195.347 171.148 148.459 127.667 108 90.1257 74.2148 59.3949 46.0009 34.9844 25.2123 17.5504 10.7051 6.5713 3.65346 2.63961 0.718734 325.526 1064.25 1170.03 1143.39 1077.44 1002.73 926.229 853.238 783.023 717.03 654.946 596.931 541.026 489.428 439.645 393.013 349.385 308.416 269.756 233.747 201.064 170.767 142.635 117.09 94.5203 74.7599 57.6328 42.7204 30.2807 19.9333 11.6593 7.34067 2.58277 163.712 601.006 821.578 823.894 769.825 709.917 653.84 602.711 555.453 511.534 469.815 431.753 395.708 360.604 327.697 296.952 268.033 239.801 213.955 189.709 166.753 145.491 125.9 108.355 91.8589 76.8024 62.8526 50.7189 38.7392 28.2358 18.3948 10.4854 3.71617 79.9499 360.103 539.716 557.79 517.365 471.566 433.77 402.098 374.469 349.621 326.637 305.496 285.18 265.172 246.04 227.725 210.507 193.735 177.054 161.888 146.479 132.116 117.949 104.696 91.7364 79.6109 67.6092 56.0627 44.6492 33.705 23.4255 12.9406 4.11567 68.9461 292.188 454.707 467.034 428.85 388.113 356.024 331.004 310.916 293.48 277.679 262.272 248.055 233.769 219.803 206.191 192.916 179.944 166.96 154.031 141.609 129.043 116.97 104.987 92.7941 81.1894 69.5806 58.1436 46.4355 35.4069 25.0978 14.8224 4.51262 136.753 419.593 597.563 611.545 568.945 519.25 476.565 439.894 408.486 380.169 353.957 328.812 305.582 282.857 262.063 241.472 221.823 203.081 185.577 168.606 152.497 136.859 121.761 107.682 94.0451 80.8743 68.3922 56.4878 45.0567 34.0281 23.6451 14.7253 4.97508 275.023 680.477 880.036 890.516 836.458 771.285 709.809 653.696 602.176 554.191 508.909 466.74 426.625 388.518 352.23 318.523 286.616 256.562 228.009 201.374 176.968 154.39 133.482 113.6 95.6156 80.0334 65.2906 51.9059 39.7528 28.797 19.5105 12.0397 4.79593 549.247 1040.31 1214.92 1207.31 1140.72 1060.69 980.122 903.354 830.152 761.401 696.497 634.429 575.485 520.43 468.41 418.662 373.067 328.385 287.173 249.135 215.025 182.21 151.734 125.543 101.797 80.1197 61.667 45.5098 32.5729 22.0347 13.6982 8.59137 3.86437 257.729 679.035 706.187 701.985 669.537 627.324 582.004 537.653 494.651 453.461 415.069 377.854 342.594 309.829 278.732 248.474 220.653 193.987 168.96 145.994 125.097 106.461 88.0777 71.1767 57.2602 44.5822 32.7747 23.1511 15.3259 10.0494 6.21047 3.6241 2.12612 406.196 696.914 657.602 647.779 619.847 579.965 535.998 492.159 450.406 410.923 374.479 339.532 307.039 276.389 247.379 219.591 193.614 169.733 146.664 126.391 107.169 89.1351 73.4002 58.7678 45.7417 35.0298 24.8945 17.9417 11.1406 6.49227 4.10235 2.83442 0.752975 320.821 1057.33 1158.6 1135.24 1074.32 1002.19 925.765 850.852 779.962 713.237 651.526 592.678 536.798 485.157 436.383 389.799 345.524 305.372 267.092 231.157 198.782 168.266 140.306 116.121 93.4575 73.9702 56.3901 42.307 29.6601 19.1608 12.0351 7.44941 2.88322 159.126 591.892 817.375 821.956 769.717 710.794 653.35 600.352 552.07 506.774 465.601 427.224 390.659 355.772 324.126 293.021 263.835 236.023 210.749 186.365 163.566 143.105 123.434 106.024 89.9745 75.0396 61.1257 49.3342 38.0004 27.6588 18.2646 10.346 3.75492 78.0773 356.745 543.236 561.891 521.12 474.034 432.875 399.139 369.788 344.98 321.707 300.379 280.061 259.759 240.984 223.673 206.195 189.939 174.056 158.515 143.102 129.087 115.599 102.819 89.9364 77.6537 65.9367 54.4946 43.5708 33.2696 22.6839 12.8129 3.78727 69.9168 299.186 467.316 479.532 438.564 393.805 358.038 330.622 308.541 290.228 273.747 258.589 243.968 229.57 215.802 202.665 189.36 176.595 163.9 151.335 138.81 126.607 114.564 102.807 91.2033 79.6544 68.1799 56.9455 45.4721 34.5205 24.0834 14.004 4.15563 135.678 424.801 610.314 625.559 581.799 528.89 482.511 443.713 410.304 380.801 353.84 328.246 304.461 281.672 260.442 239.987 220.394 201.462 184.065 167.14 150.62 135.12 120.094 106.079 92.3742 79.629 67.1794 55.2936 44.2642 33.5346 22.8769 13.9139 4.7821 272.586 678.811 887.7 902.383 849.75 783.077 718.766 660.421 606.817 557.889 512.043 469.261 428.69 390.164 353.609 319.272 287.307 256.748 228.087 201.418 176.526 154.157 132.612 113.133 95.2541 79.102 64.6629 50.9224 38.8691 28.6703 18.9341 11.6015 4.49683 548.858 1037.89 1217.02 1215.01 1152.15 1072.1 990.185 911.104 836.936 767.432 700.848 637.795 579.328 523.529 471.03 421.158 374.41 330.33 289.078 249.994 214.987 183.048 152.463 125.214 101.603 79.9446 61.706 45.712 32.2015 21.8537 13.5415 8.24064 3.66551 259.473 679.83 703.365 702.938 674.423 633.301 587.972 542.038 498.459 456.582 417.569 380.425 344.875 311.172 279.682 249.879 221.583 194.997 170.291 146.809 125.415 106.486 88.2796 71.5817 57.2538 44.2419 32.8654 23.2226 15.3407 9.81035 5.93264 3.38203 2.00254 403.637 695.554 656.159 643.561 613.478 574.214 530.853 487.663 447.119 408.61 371.412 337.354 305.342 274.309 245.904 218.078 192.331 169.036 146.359 125.456 106.275 88.7672 72.8494 58.5641 45.8568 34.5883 24.6009 17.4108 11.1272 6.73628 3.67961 2.67521 0.764266 322.223 1051.31 1149.53 1124.55 1062.45 991.473 916.972 843.298 773.817 708.835 646.626 587.94 533.51 481.601 433.895 387.808 343.45 303.613 265.96 230.135 198.393 167.965 140.152 115.812 93.4241 74.2571 56.5037 42.0417 30.4895 20.6248 11.9847 7.40758 2.92276 160.73 585.269 805.738 809.113 758.407 700.854 646.324 595.276 547.576 504.059 463.247 425.191 389.186 354.709 322.77 292.252 262.777 235.899 210.772 186.758 164.081 143.206 123.933 106.629 90.8098 75.4605 61.9063 49.6445 38.5536 28.3284 18.8692 10.5381 3.68375 75.2108 346.735 531.109 550.34 512.11 468.036 430.081 397.66 369.279 344.927 322.187 301.443 281.028 260.782 242.536 225.166 207.73 191.274 175.6 160.365 144.948 130.534 116.782 103.695 91.2119 78.7535 66.8036 55.157 44.3814 33.9104 23.6566 13.2462 4.14606 69.2871 292.402 459.435 473.12 434.969 393.616 359.668 333.34 312.238 294.171 277.954 262.647 248.051 233.553 219.714 206.116 192.675 179.625 166.803 154.121 141.171 128.959 116.596 104.452 92.6099 80.9586 69.0224 57.6626 46.3387 35.5196 25.4284 14.5053 4.50177 141.108 425.883 610.049 625.679 582.322 531.391 486.394 448.96 415.871 386.536 359.725 334.019 309.693 287.051 265.057 244.421 224.209 205.278 187.503 169.965 153.454 137.798 122.389 108.311 94.262 81.19 68.3572 56.3148 44.8016 34.0088 23.8465 14.3493 4.76895 279.217 685.495 892.902 905.183 851.857 785.819 722.926 665.557 612.211 562.845 517.371 474.002 433.318 394.906 358.149 323.644 291.488 260.076 230.952 204.221 179.294 156.213 134.687 114.666 97.1697 80.5075 65.4365 51.8836 39.5051 29.2203 19.8574 12.1412 4.55557 551.19 1048.19 1226.92 1220.2 1156.82 1075.52 994.139 915.961 841.962 771.738 706.267 642.695 583.597 527.543 475.17 424.389 377.427 333.38 291.807 252.311 217.37 185.085 154.664 127.097 103.222 80.9519 62.4922 46.5447 32.6096 21.9812 13.6457 8.79136 3.792 258.441 683.539 709.244 706.069 677.269 635.586 590.567 544.621 501.203 459.366 420.211 382.328 346.834 313.611 281.65 251.967 223.283 196.323 171.738 148.016 126.615 106.92 89.1127 72.4943 57.7474 44.4562 33.0012 23.4658 15.7535 9.78776 5.99587 3.5237 1.87305 408.421 696.462 654.339 634.799 602.397 563.183 521.764 480.72 441.469 404.209 368.812 335.115 303.229 272.966 244.994 217.617 192.38 168.423 146.329 125.535 106.417 88.8528 73.026 58.5084 45.9646 34.8061 25.5417 17.3826 11.214 6.78089 3.59818 3.09739 0.884607 339.01 1048.42 1138.66 1105.4 1040.97 970.788 901.249 831.603 765.315 702.355 642.557 584.868 531.629 480.47 432.577 387.36 343.85 304.2 266.686 231.14 199.358 169.393 141.485 116.958 95.4607 75.591 58.1519 43.0411 31.1327 21.6875 12.6688 7.71413 3.07733 174.77 581.854 785.479 783.92 735.775 682.732 633.812 587.639 544.647 502.778 464.306 426.401 390.795 357.13 325.81 295.602 266.426 239.351 214.732 190.555 168.164 147.799 127.876 109.979 94.2678 78.8412 64.7716 52.1713 40.3666 30.1069 19.9343 11.1435 3.97492 74.0935 328.11 501.243 522.208 492.135 456.291 424.93 398.22 374.117 351.428 330.093 309.607 289.631 269.313 250.697 232.743 215.421 198.302 182.303 167.053 151.244 136.67 122.49 108.834 95.9504 83.0807 70.3797 58.2971 46.6647 35.5395 24.6797 14.3282 4.52922 70.932 269.226 429.185 447.738 419.875 388.281 362.334 341.255 323.107 306.538 290.686 275.29 260.525 245.522 231.194 216.853 203.014 189.189 175.649 162.345 149.21 136.145 123.318 110.481 97.8931 85.6089 73.2577 61.0428 49.0989 37.7774 26.744 15.6569 4.74118 161.188 424.423 593.336 608.631 571.307 528.133 490.071 456.621 425.97 398.027 371.558 346.039 321.241 297.929 276.078 254.613 233.947 214.608 195.972 177.735 160.502 144.28 128.432 113.891 99.2377 85.4273 72.4904 59.695 47.4042 35.9726 25.3744 15.7751 5.19513 304.845 701.958 890.144 895.533 842.482 780.651 722.476 669.019 619.411 570.778 525.683 482.963 442.15 403.417 366.142 331.335 298.479 267.342 237.895 210.324 184.315 160.855 139.239 119.336 100.857 83.9255 68.5764 54.9224 42.1276 30.4882 20.6404 12.9703 4.65077 565.426 1074.06 1237.3 1218.41 1149.78 1069.9 991.723 917.612 845.56 776.443 711.566 649.117 589.846 533.751 480.586 429.874 382.293 338.089 295.986 256.754 221.09 187.781 156.957 129.774 105.507 83.089 64.3932 47.8951 34.2429 22.9145 14.3896 9.23693 4.06544 256.212 691.674 720.805 711.542 677.64 634.894 590.016 545.355 502.271 461.4 422.638 385.128 349.288 315.533 283.662 254.221 225.054 198.531 173.593 150.013 127.889 108.499 90.1244 73.4443 58.6536 45.0694 33.4797 24.458 16.0757 9.82433 5.54469 3.30433 2.12975 454.067 687.189 633.628 609.175 579.883 545.779 509.491 472.817 436.508 400.993 366.63 333.982 302.742 272.267 243.999 217.515 191.969 168.22 146.557 126.4 106.772 89.5284 74.3735 59.6734 47.2328 36.441 26.6591 19.1195 12.2385 7.49004 4.01888 2.70167 1.01465 410.987 1054.64 1105.8 1058.19 999.239 939.42 879.163 817.625 757.658 699.116 640.898 585.807 532.897 482.36 434.536 390.015 346.671 307.686 269.877 235.329 202.844 173.316 145.832 121.261 99.3775 79.6626 61.8487 47.4879 33.7022 23.2128 14.205 7.89591 3.21127 229.261 589.459 745.516 736.922 696.993 658.032 620.299 582.521 545.406 507.464 470.598 434.182 399.681 366.838 334.491 304.72 275.886 248.559 223.698 199.236 176.658 155.937 136.263 117.882 100.66 85.0673 70.2505 56.809 44.6606 33.3497 22.5855 12.3558 4.38025 95.3592 303.65 447.1 476.508 462.796 443.67 425.02 406.506 387.201 367.274 347.341 326.828 306.372 286.848 267.309 248.868 231.082 213.355 196.399 180.285 164.192 148.507 133.398 118.666 104.372 90.9223 77.1187 64.1045 51.8459 39.6552 27.5667 15.739 4.70322 92.0783 227.944 369.59 404.442 398.238 385.428 372.208 358.324 344.291 329.587 314.392 298.469 283.035 267.392 251.754 236.421 221.445 206.51 191.594 177.047 162.882 148.727 134.789 120.799 107.181 93.4392 79.9987 66.7558 53.9714 41.693 29.4611 17.3776 5.25947 219.376 419.425 550.774 571.716 551.231 523.665 497.292 470.392 443.778 417.773 392.001 366.229 341.157 317.075 294.097 271.981 250.614 229.929 210.556 191.344 173.325 156.259 139.577 123.72 108.286 93.3135 78.9798 65.3128 52.1897 39.7282 27.7843 16.615 5.4991 387.143 729.843 864.397 860.988 818.878 770.3 722.875 675.918 630.031 584.776 540.259 497.011 455.787 416.499 378.764 343.695 310.075 277.799 248.708 220.635 194.56 170.12 147.592 127.165 108.39 90.6735 74.7706 59.959 46.425 33.5653 22.4736 13.9683 5.1617 642.045 1110.39 1222.14 1187.51 1122.89 1054.33 985.893 917.641 850.563 784.502 720.885 657.691 598.928 542.67 488.431 437.436 389.35 344.556 302.643 263.309 227.395 192.656 162.182 134.354 110.232 87.369 68.3483 51.3387 37.4544 25.1229 15.8155 9.75728 3.98565 264.244 712.011 731.364 706.683 668.22 627.214 585.611 544.115 503.121 463.373 425.539 388.076 352.291 319.078 286.479 256.575 227.616 200.643 175.646 152.18 130.284 109.946 91.0399 74.6175 59.7123 46.5381 34.527 25.362 17.1054 10.6168 6.21187 3.64091 2.08606 134.834 241.503 202.888 196.968 190.472 181.267 170.681 159.21 147.835 135.968 124.573 113.51 103.138 92.8844 83.1536 74.2214 65.7869 57.485 49.9265 43.5135 36.967 31.1247 26.0706 21.2384 16.6615 13.0126 9.83786 6.95023 4.78382 2.91374 1.48634 0.834807 0.314868 184.15 601.32 558.738 534.868 511.592 487.333 460.654 431.65 401.749 371.682 341.523 312.148 284.639 257.518 231.839 208.161 185.595 163.9 143.779 125.841 108.417 92.1237 77.9483 64.8663 52.9263 42.7976 33.1677 25.1541 18.4391 12.4527 7.52435 4.17821 1.79387 109.343 354.128 378.669 372.682 357.299 343.758 329.265 311.564 293.563 274.629 255.076 235.073 216.3 198.715 181.051 164.422 149.359 134.499 120.765 107.613 95.3671 83.8909 73.3075 63.5003 54.6284 45.8188 37.9528 31.1661 24.569 18.2794 12.705 7.22894 2.77484 49.1866 180.91 213.56 235.62 235.806 231.573 226.78 219.349 210.333 200.036 189.822 178.778 167.133 156.587 145.66 135.28 125.602 115.871 106.505 97.5693 88.9189 80.2573 72.3177 64.3608 56.7009 49.2098 42.0684 34.9397 28.2825 22.2183 15.9008 9.77424 3.48027 36.233 95.8684 142.684 176.869 186.76 188.771 187.912 184.581 179.261 172.93 165.662 157.888 149.96 142.125 134.153 126.1 118.312 110.668 102.903 95.1793 87.8735 80.4193 72.997 65.5637 58.3291 51.176 44.3305 36.9827 30.1927 23.5502 17.0615 10.6393 3.75325 84.839 182.948 219.584 245.835 249.338 244.877 238.057 228.683 218.456 207.455 195.986 184.309 172.743 161.477 150.686 140.092 130.093 120.064 110.543 101.042 92.0307 83.4116 75.0799 67.1036 59.0937 51.2736 43.838 36.5661 29.438 22.9716 16.5621 10.4018 3.94357 151.276 353.512 376.619 386.198 376.18 361.121 343.898 324.811 305.254 285.287 264.928 244.853 225.595 207.262 189.302 172.512 156.965 141.533 127.368 114.199 101.512 89.6668 78.588 68.4129 58.8768 50.0164 41.9227 34.1399 26.8252 20.0396 13.8119 8.77719 3.64416 238.932 554.197 557.009 546.509 523.456 498.594 471.544 442.662 412.649 382.221 352.46 322.484 294.206 267.311 241.535 216.755 194.188 172.438 152.007 133.457 116.057 99.5791 84.4703 70.9261 59.0018 48.1013 38.2785 29.8034 22.2117 15.6369 9.8727 5.8916 2.93872 148.835 508.392 470.743 450.272 429.435 407.907 385.034 360.408 334.89 309.468 284.731 260.166 236.223 214.352 193.015 172.503 153.355 135.229 118.776 103.311 88.7551 75.1515 62.5733 51.4832 41.3215 32.6411 24.3933 18.1305 12.4721 8.18488 4.78303 2.64833 1.55527 102.968 193.623 376.453 137.596 160.407 326.702 221.243 384.278 200.269 116.269 149.432 108.434 89.4256 229.927 118.927 198.286 157.217 268.466 175.814 186.049 322.598 97.864 127.745 268.251 229.858 330.846 177.335 113.484 302.728 162.808 105.714 208.126 144.668 174.525 305.322 94.5359 122.14 254.579 216.367 312.177 170.451 108.374 284.26 155.426 103.56 199.579 139.539 166.133 293.79 93.2251 118.716 245.327 203.647 295.889 161.9 104.546 264.066 148.697 102.385 193.296 135.906 159.158 281.457 90.8516 115.597 235.758 191.351 278.957 152.445 99.6943 247.633 140.94 99.2394 184.909 130.741 152.022 267.027 86.996 111.215 224.372 179.308 261.703 142.716 94.3616 233.017 132.383 94.5855 175.354 124.259 143.832 250.839 82.1758 105.487 211.261 166.752 243.147 132.194 87.8952 218.069 123.274 88.7834 164.105 116.381 134.446 233.871 76.759 98.9352 197.388 154.672 225.416 122.388 81.7907 203.428 114.369 82.9997 152.957 108.845 125.484 216.744 71.3142 92.1686 182.733 142.884 207.491 112.889 75.4729 188.559 105.249 76.5301 140.878 100.365 115.602 199.396 65.7677 85.079 168.351 131.326 190.423 103.762 69.281 173.313 96.4316 70.3122 129.244 92.0991 106.4 182.741 60.334 78.5112 154.362 120.096 173.638 94.4758 63.4748 159.117 87.8665 64.5226 118.325 84.2291 96.9205 165.914 54.765 71.6494 140.351 108.916 157.414 85.6616 57.3464 144.843 79.6519 58.3412 107.315 76.4894 88.2832 150.765 49.6425 65.2746 127.477 98.9412 142.414 77.6682 52.1479 131.856 71.8367 52.9645 97.1509 69.1471 79.6144 135.699 44.7633 58.7954 114.74 88.9388 127.881 69.8081 46.7491 118.854 64.3405 47.6795 87.2038 62.2788 71.8993 121.631 40.3046 53.2958 103.406 79.6483 114.009 62.3131 41.8024 106.969 57.3449 42.6916 78.0582 55.7085 64.4355 108.395 35.8497 47.606 92.1058 70.663 101.134 55.1174 37.1784 95.6917 50.6351 38.033 69.0887 49.4236 57.1537 95.4557 31.709 42.485 81.6892 62.4341 88.767 48.6476 32.691 84.6163 44.3691 33.4301 60.9351 43.6534 50.5311 83.8937 27.7377 37.5698 71.7886 54.5792 77.811 42.3623 28.6509 74.5963 38.8829 29.3013 53.3969 38.1595 44.3107 72.9308 24.1473 32.9489 62.6772 47.53 67.0871 36.687 24.6879 65.4716 33.2516 25.1897 45.9541 33.1871 38.6368 62.9705 21.0691 28.668 54.2459 40.6711 56.9939 31.4964 21.137 56.7592 28.223 21.7215 39.4185 28.4156 33.1644 53.0341 17.6977 24.6078 46.2408 34.3839 48.2053 26.3445 17.6394 48.5635 23.7447 18.117 33.1724 24.029 28.2058 45.002 15.0294 21.2355 39.1476 29.0801 40.2174 22.0997 14.9172 40.9809 19.5637 15.3453 27.6922 19.9829 23.4749 36.6133 12.1947 17.7021 32.6788 23.641 32.2852 17.8443 12.0718 34.4628 15.8133 12.4121 22.4986 16.5123 19.7645 29.7676 10.0309 14.8985 26.7283 19.0152 26.1941 14.2262 9.65019 28.2142 12.2883 9.85414 17.8844 12.985 15.9839 23.1993 7.85972 12.1426 21.447 14.7367 19.9551 10.5977 7.30925 23.3592 9.62063 7.78006 14.0102 10.2576 12.4563 17.9177 5.9827 9.51579 16.738 11.5307 15.073 8.44232 5.70487 17.9947 6.96965 5.81956 10.5772 8.03502 10.0076 13.3215 4.59875 7.75736 12.951 8.3019 10.9839 5.97109 3.96514 14.0135 4.97991 4.13638 7.81485 5.93613 7.51737 9.58156 3.23421 5.69605 9.31983 5.88955 7.32276 3.85272 2.66887 10.5549 3.26319 2.8019 5.11093 3.9248 5.17059 6.37283 2.25652 4.0617 6.43459 3.81374 4.78155 2.25194 1.80729 7.28969 2.07826 1.98674 3.45816 2.75343 3.59266 3.74304 1.37764 2.70344 3.9439 2.28625 2.40361 1.32036 0.893975 4.83179 0.961594 0.898091 1.70024 1.49761 2.03229 1.91506 0.687271 1.66474 2.30353 1.20109 1.41957 0.720919 0.42564 2.66975 0.717212 0.353944 0.812061 0.59106 1.05437 1.57561 0.46925 0.716389 0.693012 0.934674 0.769677 0.592343 0.648248 1.83899 0.377477 0.621287 0.621287 0.24381 66.7175 121.717 232.591 86.0439 100.819 201.228 121.073 235.467 65.3971 55.8911 136.778 69.3293 171.755 109.143 115.469 227.369 68.1901 78.0148 179.035 165.943 243.572 193.842 153.037 103.11 118.149 221.088 68.0748 82.0366 176.497 159.259 229.036 196.15 146.027 100.678 115.402 212.294 67.2768 82.0605 172.088 147.683 214.852 184.325 140.518 97.9261 111.75 204.228 65.9489 80.6869 167.089 138.455 202.572 174.061 135.298 95.0458 107.959 195.681 63.8469 78.7042 160.55 130.735 191.569 164.722 129.41 91.3643 103.126 185.75 60.9855 75.797 152.83 122.482 179.701 155.45 122.443 86.3923 97.5726 174.721 57.5237 71.9197 144.499 114.915 167.732 146.198 114.869 81.3248 92.0486 163.101 53.7695 67.8825 135.345 106.483 155.527 136.84 106.728 75.6598 85.6831 150.939 49.8278 63.3576 125.455 98.3718 143.37 127.241 98.5558 70.0121 79.6386 139.696 46.1502 58.9595 116.729 90.7838 132.035 117.744 90.8913 64.4409 73.6779 127.712 42.3066 54.4675 107.373 82.9296 120.336 108.843 83.0518 59.2877 67.7174 116.775 38.8134 50.2887 98.6682 75.5785 109.702 99.6517 75.8357 54.0348 61.7749 105.886 35.2149 46.125 89.9866 68.6347 99.1095 91.0134 68.5106 49.2362 56.6306 96.1974 32.0985 42.169 82.1484 62.0268 89.3137 83.0849 61.9804 44.569 51.4686 86.577 28.8606 38.2994 74.4594 55.6835 80.6004 75.1485 55.6994 40.1235 46.7802 77.6847 26.0114 35.0389 67.3027 49.87 71.6181 68.1288 49.6011 35.6757 41.6727 68.7964 23.0934 31.4874 60.4915 44.2654 63.3522 60.8687 44.2755 32.1733 37.9247 61.1814 20.5868 28.3029 54.136 39.0108 55.5814 54.7196 38.9224 28.2947 33.6192 53.5039 17.9334 25.2363 47.8571 34.1642 48.513 48.5507 33.7608 24.8813 29.7332 46.6515 15.7408 22.3833 41.8558 29.6655 42.2768 42.8176 29.4678 21.5265 25.9294 40.366 13.6316 19.7399 36.7584 25.5866 35.6593 37.6695 25.301 18.6874 22.7501 34.3187 11.7318 17.403 31.9806 21.7424 30.801 32.3483 21.5692 16.025 19.7153 29.388 10.0738 15.0122 27.5166 18.5976 25.8133 28.1566 18.0554 13.6689 16.923 24.6562 8.4695 12.8705 23.1448 15.6242 21.3383 23.9307 15.0464 11.3031 13.9525 19.8658 6.90351 10.7515 19.3819 12.3465 17.0136 19.6165 12.1317 9.33701 11.718 16.2815 5.71033 8.87147 15.6437 9.96165 13.4484 16.4319 9.67056 7.44745 9.26277 12.401 4.30779 7.1241 12.1903 7.59898 10.2236 12.802 7.36842 5.77079 7.24523 9.53147 3.3791 5.55406 9.09669 5.71677 7.29145 9.8526 5.17424 4.13237 5.07882 6.45528 2.24699 4.0108 6.00828 3.99652 4.68705 7.01974 3.36651 2.51589 3.15928 3.92348 1.34809 2.46107 3.55447 2.41545 2.85232 4.33151 2.09752 1.36654 1.61187 2.13066 0.547306 1.14342 0.911598 1.51941 0.964801 2.54403 0.49095 0.267187 37.8626 62.4168 137.361 50.5537 51.0969 108.506 67.9876 139.357 29.8509 31.8073 68.1194 36.6135 101.342 61.3074 59.4632 130.588 37.695 38.0638 100.586 98.4074 151.4 107.602 92.9061 61.0054 69.8725 140.952 42.8318 47.807 109.838 103.368 150.714 119.96 95.4365 64.9206 73.1685 140.763 44.5641 52.0916 112.499 98.0179 143.625 117.771 94.479 65.4302 73.7234 138.218 44.6989 53.5679 112.393 93.1924 137.226 113.811 92.3891 64.65 72.8292 134.71 44.1456 53.6108 110.761 88.7989 131.055 109.677 89.7876 63.3626 71.1892 129.641 42.9494 52.6708 107.607 84.0164 124.432 105.573 86.2138 61.0141 68.9538 123.575 40.9922 51.3475 103.574 79.8853 117.693 101.393 82.0507 58.2054 65.9625 117.343 38.9642 49.2798 98.4323 75.2862 110.954 96.3544 77.3211 54.8793 62.5734 110.039 36.8079 46.9829 93.6472 70.3684 103.475 91.1537 72.521 51.8619 59.4915 102.906 34.2888 44.5014 88.0757 65.6068 96.3454 86.0863 67.5999 48.3854 55.7899 96.1818 32.1542 41.967 82.8163 61.3229 89.9903 80.6631 63.1762 45.2691 52.5261 89.1756 29.7306 39.4471 77.4593 56.5981 83.0571 75.8629 58.3528 42.0079 49.1628 82.4775 27.8599 37.0184 72.4432 52.1136 76.1772 70.7908 53.8624 39.0805 45.8247 75.875 25.5282 34.6022 67.1775 48.0762 70.0896 65.8853 49.3035 35.992 42.6401 69.7019 23.5693 32.225 62.4618 43.981 64.1559 61.074 45.2614 33.0993 39.5848 64.1747 21.6953 29.948 57.6902 40.4801 59.0321 56.7628 41.6406 30.2354 36.3806 58.3109 19.7007 27.5271 52.9666 37.0076 53.1817 52.3876 37.6056 27.5851 33.4643 52.7188 17.7557 25.3986 48.4128 33.2909 48.2312 47.8697 33.9424 24.9713 30.6007 47.746 16.1952 23.3019 44.2208 30.1582 43.4122 43.7981 30.7227 22.7687 27.9277 42.8915 14.6198 21.2378 39.9833 26.9874 38.6377 39.7547 27.2058 20.4562 25.2133 38.1422 13.1759 19.2532 35.9868 23.8721 34.2419 35.7113 24.3514 18.1654 22.5363 33.8994 11.5937 17.2737 32.0375 21.1438 30.1995 32.0477 21.5805 16.2148 20.1419 29.7796 10.18 15.3643 28.2043 18.5256 26.3149 28.3622 18.5755 14.009 17.5885 25.715 8.82368 13.4656 24.4097 15.9941 22.6233 24.776 16.005 11.9723 15.0436 21.6951 7.44163 11.5578 20.7779 13.5473 18.9217 21.4482 13.521 10.1765 12.8495 18.3413 6.28735 9.8547 17.4371 11.5018 15.6884 18.0857 11.109 8.4464 10.4612 14.8953 5.13217 7.94349 13.8261 9.27219 12.6461 14.9381 8.88575 6.69139 8.13149 11.5409 3.997 6.27139 10.5794 7.19666 9.40106 11.5709 6.75426 5.00526 6.00422 8.42632 2.90057 4.64198 7.4838 5.20752 6.49949 8.50914 4.66591 3.45472 4.05396 5.39738 1.85189 3.02449 4.27728 3.30138 3.71312 5.76737 2.70201 1.95497 1.87232 2.82525 0.990891 1.44765 1.44155 1.82946 1.23712 2.68796 0.863303 0.499012 16.8202 29.5999 59.9054 21.8153 23.9976 62.1883 25.0022 70.9661 23.1592 13.5358 33.7278 11.1711 47.3602 26.3481 34.6719 60.5133 15.5404 23.421 68.1692 53.4963 88.3739 72.164 48.9472 33.4042 51.71 82.7283 25.2828 37.0568 84.6808 62.8009 94.4144 89.3514 58.1993 41.7436 58.1256 90.9453 29.4732 42.9434 90.746 63.1064 94.0995 91.6455 61.7508 45.1012 60.0706 93.6467 31.1302 45.2591 92.7666 61.8735 92.7193 90.5096 63.1526 46.2548 60.477 94.0408 31.5779 45.8962 92.5431 60.5031 90.6992 88.9801 63.0974 46.4472 59.9096 92.9056 31.4468 45.6594 90.9462 59.0652 88.2603 86.8943 61.9318 45.8661 58.7067 91.1358 30.9856 44.8635 88.681 57.2398 85.4951 84.3734 60.6173 44.7032 56.8563 88.0044 29.9851 43.4345 85.4742 55.1211 81.9602 81.3893 58.3093 43.2799 54.7632 84.5359 28.8481 41.8133 81.7845 52.7105 78.3811 78.092 55.7902 41.4197 52.3327 80.7236 27.4788 40.0595 77.8808 50.3113 74.8046 74.5445 53.1909 39.3923 49.8434 76.5481 26.1654 38.175 74.1098 47.7817 70.6842 70.9848 50.3746 37.5703 47.4133 72.5976 24.7787 36.2503 70.0373 45.216 66.8701 67.4489 47.6914 35.4848 44.8375 68.5074 23.3777 34.2415 66.0401 42.805 63.0084 63.8138 44.7572 33.4785 42.3488 64.4249 22.082 32.3795 62.207 40.1468 59.159 60.0041 42.0679 31.5271 39.8288 60.3353 20.6932 30.4371 58.3102 37.6983 55.3505 56.5428 39.464 29.6446 37.4289 56.7301 19.4363 28.6262 54.5401 35.3403 51.773 52.9812 36.7237 27.5543 34.7513 52.5882 17.972 26.5939 50.585 32.8429 48.0028 49.3437 34.1452 25.6479 32.3814 48.9009 16.7029 24.7745 46.8868 30.5332 44.5958 45.8903 31.5988 23.6241 29.8346 44.9689 15.3836 22.81 43.0712 28.1033 40.885 42.2652 29.0139 21.8531 27.4127 41.2412 14.175 20.9023 39.4574 25.7671 37.2855 38.9395 26.4875 19.9584 25.1008 37.5009 12.8742 19.1381 35.8608 23.3953 33.6736 35.4857 23.9688 18.1776 22.7489 34.0196 11.7572 17.3386 32.2537 21.095 30.3194 32.1125 21.6536 16.3357 20.2658 30.249 10.3483 15.4232 28.5568 18.8092 26.8746 28.6052 19.1515 14.3141 17.9042 26.6108 9.06401 13.5985 24.9796 16.6437 23.4108 25.362 16.6798 12.5243 15.4676 23.0539 7.94472 11.744 21.4271 14.3321 20.1638 21.8071 14.3656 10.7663 13.1294 19.6645 6.7421 9.99342 17.9569 12.1819 16.9146 18.5543 12.093 8.93242 10.7065 16.0119 5.47145 8.10344 14.4339 10.0424 13.5424 15.2584 9.68352 7.1723 8.53343 12.6349 4.32259 6.37218 11.2686 7.80505 10.3754 12.1134 7.49734 5.51664 6.53125 9.46142 3.23951 4.87033 8.07397 5.75087 7.30903 9.03169 5.29974 3.8901 4.28245 6.3017 2.14413 3.21841 4.6823 3.91961 4.40042 5.89405 3.11537 2.07464 1.95875 2.82011 0.959996 1.44965 1.4502 1.62803 1.21858 2.7376 0.955769 0.505114 29.7524 70.4219 60.089 25.3972 59.4659 113.221 29.6275 70.4784 53.8058 21.912 80.4303 24.4583 44.4868 37.1351 72.2523 72.3987 21.7704 52.8697 112.88 59.6021 94.3744 120.876 51.7507 43.4872 82.0076 91.888 29.7121 60.991 121.988 68.2948 101.311 131.756 60.9086 49.728 83.6315 98.5519 33.0352 63.3531 123.467 68.3615 100.909 128.908 64.3618 52.0103 82.7623 99.9708 34.1098 63.2299 121.579 66.7907 98.5642 124.403 65.1135 52.2886 80.613 99.4374 34.2306 61.9372 118.403 64.8026 95.7814 118.691 64.6441 51.5774 77.6276 97.4366 33.6483 59.6996 113.517 62.6709 92.6621 113.42 63.1308 50.1702 74.1817 94.4544 32.6956 57.0912 108.393 60.3493 89.0671 107.834 61.2767 48.4208 70.4882 90.9696 31.4176 54.1516 102.458 57.7749 85.0072 101.907 58.775 46.1767 66.2883 86.7498 29.9409 51.1416 96.6152 55.0047 80.8959 95.9359 56.1505 43.9801 62.496 82.5912 28.4927 47.9402 90.7622 52.1845 76.658 90.1984 53.3833 41.6432 58.4897 78.2471 26.9934 44.904 84.9472 49.3459 72.4976 84.4484 50.6133 39.3555 54.7602 73.9704 25.5237 42.0185 79.1467 46.6701 68.2437 78.9059 47.6749 37.044 50.9044 69.5876 24.0317 39.1262 73.7391 43.8064 64.1809 73.1146 44.8797 34.7082 47.2787 65.4079 22.5217 36.1441 68.3636 41.1377 60.1825 67.964 42.1621 32.4936 43.8392 61.2311 21.0648 33.4555 63.0309 38.5474 56.2915 63.0412 39.4306 30.2994 40.4204 57.154 19.683 30.9407 58.2231 35.898 52.3447 57.9416 36.8463 28.1721 37.2171 53.1257 18.2723 28.5066 53.5657 33.3483 48.5535 53.2364 34.2092 26.0971 34.1169 49.2147 16.894 26.1166 48.9715 30.8569 44.8463 48.7668 31.6374 24.0377 31.2208 45.3359 15.5596 23.8573 44.451 28.3585 41.0426 44.5464 29.021 22.0784 28.26 41.3887 14.2345 21.6716 40.2177 25.916 37.4574 40.1787 26.4103 20.017 25.3498 37.7518 12.9263 19.3222 36.0997 23.6317 34.0255 36.1836 24.0472 18.0973 22.8023 33.981 11.6264 17.3163 32.0481 21.2912 30.3714 32.4429 21.4836 16.1923 20.0348 30.1949 10.3627 15.3169 28.2826 18.8405 26.8447 28.4842 19.0975 14.2982 17.6187 26.7163 9.10349 13.344 24.5314 16.6418 23.6981 25.019 16.7842 12.4568 15.1138 23.0575 7.86458 11.4489 20.7736 14.4075 20.2139 21.5704 14.3126 10.5685 12.6762 19.4787 6.6022 9.57648 17.2867 12.2141 16.8435 18.0228 12.0484 8.92318 10.4186 16.0577 5.48656 7.90258 13.8988 9.99723 13.4865 14.7988 9.63978 7.06853 8.103 12.5988 4.2299 6.09281 10.5021 7.8764 10.4029 11.568 7.40575 5.3107 6.00981 9.56084 3.19008 4.5431 7.59394 5.86241 7.67493 8.51067 5.53617 3.93555 4.1143 6.4675 2.1698 3.02169 4.68682 3.94001 4.32605 5.75417 3.20908 2.22163 2.16458 3.06053 1.04162 1.40726 1.50753 1.7563 1.33964 2.97891 0.994773 0.504571 57.5726 132.239 141.092 55.6798 112.251 208.438 76.1251 148.138 96.2924 44.7425 154.579 55.7197 99.9386 78.4028 130.643 147.893 46.9057 94.9188 192.525 108.919 164.039 207.331 98.2888 79.0354 131.749 156.55 50.8399 97.3496 191.48 113.144 163.765 209.095 101.056 80.8087 128.477 155.43 51.7499 96.6294 186.221 108.211 156.688 198.653 99.5098 79.611 123.763 150.944 51.0004 93.7667 179.192 102.775 149.359 187.351 96.769 77.3806 118.16 145.378 49.4046 90.0474 170.566 97.2596 141.768 176.718 93.2132 74.3058 112.048 138.893 47.3367 85.5243 161.044 91.9922 133.291 166.174 88.28 70.3166 105.123 131.055 44.8148 80.4667 151.042 86.4232 125.367 155.313 83.5769 66.4483 98.2983 123.481 42.2321 75.0443 140.556 80.8303 117.134 144.535 78.3742 62.2605 91.3754 115.532 39.7804 69.8934 130.606 75.3816 109.094 134.063 73.4291 58.1562 84.2778 107.59 36.8455 64.3567 120.141 70.1098 101.296 123.819 68.2002 53.8213 77.5032 99.9042 34.3048 59.1617 110.584 64.8872 93.5939 113.754 63.3509 49.7965 71.2285 92.5027 31.6577 54.259 101.222 60.0185 86.4479 104.128 58.5514 45.8136 64.9299 85.024 29.107 49.4884 92.1841 54.959 79.2709 94.8505 53.9413 42.12 59.1212 78.1687 26.7515 44.934 83.6707 50.6458 72.6548 86.5504 49.4526 38.43 53.5652 71.6115 24.4356 40.8511 75.8969 46.237 66.403 78.0878 45.2958 35.1685 48.4307 65.3852 22.3591 36.7584 68.2696 41.9205 60.1682 70.5323 41.359 31.9393 43.3931 59.5563 20.41 33.0523 61.2911 38.0358 54.7461 62.9562 37.7986 28.9989 38.8585 54.0775 18.4934 29.4457 54.7091 34.4841 49.2611 56.383 34.2503 26.1948 34.4539 48.8693 16.6585 26.1534 48.4332 31.1176 44.3233 49.7861 30.7291 23.526 30.5063 43.7131 15.1 23.1357 42.909 27.6578 39.4394 43.8402 27.6876 20.9721 26.6435 38.8233 13.24 20.131 37.1821 24.5651 34.8079 38.5377 24.3489 18.3662 23.2436 34.3626 11.7046 17.5834 32.2585 21.6529 30.6078 33.366 21.5268 16.125 19.7756 29.9813 10.302 15.0637 27.6202 18.8466 26.6354 28.467 18.8202 13.9943 17.0283 26.0057 8.81927 12.8748 23.286 16.3795 22.8388 24.4392 16.1662 11.9538 14.1837 22.1333 7.55064 10.7054 19.4222 13.8304 19.0509 20.236 13.6864 10.1378 11.6782 18.4705 6.26075 8.69087 15.7559 11.3634 15.6526 16.5798 11.3158 8.2478 9.41775 14.9374 5.10044 6.91122 12.3843 9.16676 12.4657 13.1583 9.06232 6.53773 7.08726 11.5582 3.87748 5.24078 9.03408 7.19132 9.37262 10.0836 6.71518 4.71339 4.89645 8.35511 2.80373 3.51168 6.0736 5.24743 6.53948 7.07644 4.80796 3.2694 3.11075 5.40639 1.7727 2.22172 3.7001 3.24652 3.78585 4.39607 2.78532 1.85086 1.76637 2.70162 0.825248 1.23638 1.2619 1.67311 1.45215 2.39452 0.870204 0.404293 92.9147 209.703 243.886 94.4107 175.646 318.203 136.638 244.32 158.566 74.809 256.173 102.013 168.71 127.787 194.97 240.489 76.1109 141.131 279.272 172.142 251.902 306.392 155.179 120.081 186.018 236.001 76.1214 136.943 269.469 168.724 242.257 294.005 151.391 117.995 179.182 227.946 75.3962 134.001 259.675 158.629 228.953 276.983 146.263 114.89 171.627 218.637 73.1016 129.543 247.958 149.142 216.388 260.527 139.924 109.787 162.904 207.879 69.9431 123.122 234.208 140.532 203.164 245.226 132.727 104.42 153.315 196.157 66.3304 116.276 219.469 131.202 189.511 229.098 124.667 97.8485 142.743 183.519 62.2329 108.312 204.362 122.262 176.587 212.766 116.744 91.5922 132.561 170.764 57.8221 100.52 188.801 113.342 162.739 196.976 107.862 84.5006 122.032 157.645 53.4809 92.467 173.397 104.341 150.079 181.036 99.5905 77.9891 111.907 144.902 49.3033 85.0344 159.022 95.805 137.706 165.707 91.5341 71.5455 102.059 132.67 44.9653 77.3406 144.272 87.7502 125.483 151.246 83.4521 65.1314 92.4196 121.017 40.9893 69.9892 130.62 79.7118 114.071 136.958 75.9561 59.065 83.6505 109.703 37.2317 63.5168 118.105 72.069 103.036 123.675 68.9208 53.6373 75.2776 99.147 33.6065 56.9207 105.919 65.1339 92.6792 111.231 62.0222 48.275 67.4486 89.4328 30.458 51.1582 94.4338 58.2837 83.0566 99.4166 55.9251 43.1721 59.4717 79.8077 27.036 44.6724 83.1867 52.2072 74.0407 87.9015 49.8148 38.3511 52.5864 70.9753 24.1061 39.7329 73.1223 46.1177 65.4494 77.4988 44.1916 33.9438 45.9345 62.6295 21.2206 34.9135 63.89 40.8447 57.6972 67.6568 38.9993 29.7142 39.8606 54.9361 18.63 30.0916 54.9564 35.4114 49.9965 58.9439 34.0643 25.9024 34.351 47.7918 16.2421 26.0766 47.2235 30.8301 43.457 50.5201 29.568 22.2287 28.9658 41.1609 13.9571 21.8546 39.8413 26.7001 37.1294 42.7179 25.4756 19.1493 24.2526 35.4177 11.9555 18.1534 33.296 22.6726 31.7017 35.685 22.0228 16.392 20.3743 30.0059 10.2112 15.121 27.3487 19.0258 26.0516 29.7296 18.1959 13.4943 16.3071 24.9314 8.46325 12.1723 21.7888 15.7457 21.7452 23.5516 15.225 11.2476 12.9764 20.4104 7.01101 9.84582 17.4655 12.7602 17.3772 18.5916 12.3828 9.01042 10.1639 16.2802 5.51188 7.55956 13.0321 10.1512 13.6915 14.5247 9.72623 6.97468 7.42628 12.7031 4.23703 5.5802 9.59726 7.93605 10.4108 10.7238 7.53747 5.26872 5.41068 9.44487 3.16865 3.86044 6.7107 5.74926 7.4031 7.48923 5.38406 3.68882 3.52274 6.28041 2.07659 2.59074 4.20513 3.8872 4.61688 4.97116 3.4762 2.38163 2.20458 3.89587 1.28628 1.54826 2.57935 2.22341 2.82063 2.89816 1.9675 1.2731 1.15842 2.13701 0.703024 0.886455 0.99688 1.33465 1.21338 1.74175 0.815421 0.378766 155.846 155.846 397.143 148.045 88.2985 211.489 233.768 353.818 67.5472 132.31 198.127 194.304 243.526 181.437 121.691 337.338 107.865 58.2465 166.811 235.713 342.837 186.283 214.413 164.529 114.911 319.533 104.203 55.9641 160.464 224.834 324.488 177.024 205.197 159.355 111.117 307.888 102.325 54.8551 156.07 212.444 307.363 167.712 197.564 153.806 106.336 294.133 98.4371 52.5917 149.239 199.984 289.418 158.726 188.194 146.488 100.642 278.237 93.3682 49.8407 141.166 187.696 271.448 149.061 177.492 138.117 94.5895 261.059 87.8504 46.7913 132.368 174.949 252.964 139.455 166.103 129.361 88.3017 243.018 81.9659 43.7846 123.075 162.378 234.255 129.667 154.068 119.665 81.4834 224.642 75.6842 40.3745 113.403 149.972 215.158 119.801 141.92 110.22 74.9099 206.467 69.7128 37.1911 104.301 137.323 197.367 109.523 130.314 100.957 68.4355 188.932 63.6866 33.847 95.1979 125.55 180.252 100.303 119.256 92.0712 62.2316 171.854 57.8156 30.7203 86.4619 114.314 163.312 91.4776 108.134 83.4924 56.3972 155.281 52.2348 27.7508 78.0489 103.109 147.276 82.6835 97.5538 75.3389 50.8549 140.421 47.2815 25.0408 70.4675 93.1197 132.588 74.6133 88.1274 67.9878 45.747 125.859 42.3764 22.5611 62.7797 83.4266 118.414 66.9122 78.3543 60.2289 40.4136 112.111 37.8968 20.0103 56.1227 74.3167 105.071 59.2779 69.8524 53.7961 35.9095 98.572 33.1202 17.6837 49.0524 65.3651 91.975 52.4439 60.8516 46.7825 31.346 86.6785 29.228 15.4138 43.1627 57.2178 80.4023 45.7688 53.6199 41.1617 27.3475 75.5208 25.537 13.4128 37.5888 49.5186 69.4857 39.7374 46.6647 35.6064 23.4822 64.9603 21.842 11.4303 32.1206 42.7535 59.5329 34.2151 39.7934 30.3909 19.9792 55.4299 18.6495 9.70058 27.2521 36.2623 50.5373 29.0706 33.9528 25.7699 16.821 46.5427 15.6874 8.21834 22.8608 30.491 41.7471 24.5711 28.3092 21.3748 13.9057 38.3655 12.8505 6.73228 18.4994 24.9732 33.7244 20.2035 22.8312 17.108 10.9898 30.9796 10.364 5.34089 14.8044 20.1902 27.3716 15.982 18.4274 13.7468 8.72368 24.6524 8.32207 4.28329 11.693 15.8734 21.1246 12.6245 14.4173 10.6358 6.59701 18.8504 6.4134 3.22604 8.79148 11.7868 15.8651 9.44916 10.9769 7.95255 4.76518 14.1214 4.82582 2.3871 6.54869 9.00998 11.4401 6.88137 8.07085 5.76806 3.32934 9.84615 3.37138 1.60647 4.44769 6.04364 7.73841 4.67399 5.52428 3.80257 2.03766 6.41135 2.08828 0.96135 2.69586 3.89035 4.90515 2.8696 3.52471 2.30913 1.1822 4.06131 1.39446 0.574616 1.70189 2.36305 2.98715 1.59773 2.17835 1.35142 0.531574 2.13244 0.645289 0.224151 0.906682 1.29979 1.93921 0.810488 1.4353 0.92705 0.505912 1.57149 0.512859 0.244518 0.512859 1.02796 0.869019 0.714193 0.562197 0.268341 134.455 309.72 279.323 209.2 358.979 195.248 106.793 129.367 87.5636 75.3789 201.472 108.683 181.378 245.527 203.127 344.436 298.782 224.603 336.916 171.473 118.175 301.437 172.221 227.848 195.128 333.374 281.473 221.259 324.582 172.033 115.819 296.048 165.326 217.284 179.61 313.526 262.05 210.349 306.711 166.005 110.098 275.317 155.207 204.517 166.89 292.944 244.55 196.461 286.153 155.637 103.128 256.461 144.927 191.614 155.778 273.215 228.133 182.428 265.463 144.784 95.9834 237.914 134.353 178.286 144.778 253.151 211.607 168.947 244.751 133.41 88.8496 220.483 123.916 164.879 134.336 233.984 196.128 155.155 225.549 123.025 82.0051 203.201 114.403 152.533 124.215 215.951 180.691 142.674 206.977 112.608 75.5007 187.493 104.88 140.223 113.961 197.995 165.721 130.578 189.379 103.091 69.1114 171.682 95.8748 128.677 104.439 180.581 151.391 119.15 171.73 93.7462 62.7201 157.025 86.8555 116.841 94.9256 163.813 137.464 107.726 156.071 84.8086 56.9235 142.69 78.9751 106.152 86.2854 148.744 124.784 97.9283 140.749 76.7765 51.6177 129.615 71.025 95.7001 77.7897 133.742 112.22 87.8467 126.625 69.2271 46.46 116.553 63.7155 86.1248 70.2078 119.761 100.657 78.7157 112.752 61.6749 41.3877 104.965 56.7072 76.7568 62.555 106.175 89.3223 69.9083 99.6725 54.7029 36.6113 93.7329 49.7587 67.8224 55.457 93.788 78.9733 61.4056 87.8345 48.0252 32.1056 82.6722 43.7586 59.6612 48.4462 81.8712 69.0785 53.8566 76.0681 41.8847 27.9565 72.7837 37.8812 52.0086 42.3682 71.134 60.4966 46.3744 65.5865 35.9396 24.1897 63.2939 32.8829 45.1814 37.1035 61.5279 51.7194 39.9849 56.2745 30.8982 20.9262 54.9198 27.7517 38.1844 31.3445 51.3706 44.1987 33.5546 47.0851 25.8867 17.3848 46.5227 23.1267 32.1979 26.7119 43.3425 37.1187 28.025 38.8806 21.5586 14.5143 39.654 19.0154 26.8189 22.4243 35.4137 30.6222 22.9417 31.3781 17.3022 11.6999 33.0001 15.3558 21.6114 18.0457 28.2096 24.9067 18.2586 24.8497 13.5966 9.16889 26.8785 11.9698 17.3237 15.0096 22.2471 20.2058 14.4194 19.2421 10.6205 7.05104 21.8166 9.07643 13.2045 11.7445 17.2555 15.3212 10.8659 14.136 7.777 5.42939 16.9881 6.6109 9.814 8.87977 12.2431 11.9808 7.60099 10.5576 5.50389 3.83428 12.5478 4.95522 7.28408 6.73959 8.84089 8.26705 5.874 6.89756 3.87872 2.65312 9.73338 2.99426 4.69162 4.59501 5.45304 5.60716 3.34466 4.10105 2.21064 1.39472 6.39078 1.7074 2.8879 3.20412 3.47911 3.40313 1.92573 2.24547 1.09675 0.827873 4.20296 0.841259 1.44522 1.70169 1.68383 1.94238 1.06002 1.32412 0.656437 0.425499 2.50246 0.714356 0.94996 1.26621 1.28814 0.761259 0.875514 0.664795 0.641085 0.415994 1.58005 0.200143 0.321572 75.915 159.46 161.336 102.759 203.359 48.0829 41.8661 109.234 57.1512 141.569 131.218 253.064 205.335 166.24 253.235 196.577 170.792 134.629 247.388 199.439 165.783 243.884 206.036 162.133 125.584 228.881 184.655 154.284 225.556 194.342 149.903 116.825 213.043 171.698 143.56 209.261 180.193 139.667 109.012 199.249 161.157 133.177 194.337 167.013 130.854 102.221 185.706 150.711 123.576 180.152 155.507 121.634 95.4599 173.097 140.688 114.314 166.529 144.336 113.519 88.699 160.058 130.519 105.326 153.457 133.699 104.697 82.5103 147.491 121.037 96.7287 140.533 123.648 96.2085 76.224 135.518 111.618 88.495 128.93 113.884 88.3322 70.2414 123.892 102.607 81.0925 117.644 104.777 80.5535 64.5029 112.962 93.9344 73.7341 106.547 96.0186 73.3056 58.8706 102.359 85.4224 66.7753 96.3479 87.5271 66.0056 53.5599 92.5221 77.6843 60.3497 87.0836 79.2952 59.4492 48.438 82.9093 70.243 54.187 77.7137 71.9189 53.4196 43.9466 74.0021 63.0208 48.0125 68.8877 64.8502 47.409 39.1818 65.571 56.5381 42.4511 60.8173 57.8874 41.9096 35.199 57.6001 50.1037 37.4226 53.2953 51.8913 36.7055 30.9389 50.5321 44.1315 32.8448 46.5616 45.5549 32.0301 27.4027 43.7674 38.5899 28.2499 39.9452 39.9846 27.4714 23.9076 37.4809 33.6153 24.207 34.144 34.6424 23.098 20.5229 31.8969 29.1443 20.7116 28.9234 30.0777 19.9929 17.9429 26.8239 24.9507 17.2499 24.0549 25.7525 16.549 15.4019 22.7104 21.1296 14.1782 19.8475 21.8346 13.9163 12.5176 17.9768 17.1994 11.4668 15.5985 18.2484 10.8605 10.6042 14.4602 14.1124 8.96307 12.3771 15.0658 8.84257 8.33258 11.3571 10.7817 7.22503 9.39759 12.0715 6.5323 6.31577 8.16445 7.77873 5.21333 6.3859 9.29193 4.4601 4.49819 5.59739 5.17737 3.37738 4.11232 6.23241 2.8067 2.66614 3.32368 3.09273 2.14359 2.44594 3.75246 1.71769 1.48524 2.15589 1.05265 1.448 1.13099 2.29907 0.691345 36.9592 86.748 91.0628 54.4891 119.541 22.3406 21.6806 54.2059 28.1222 82.9543 76.811 153.652 125.371 102.447 162.502 120.152 107.808 84.785 163.805 128.399 111.112 164.087 133.588 108.529 80.838 153.883 120.659 104.724 152.331 126.927 101.015 75.7652 143.371 113.584 96.448 140.852 117.45 94.5604 71.6748 134.151 107.739 89.1955 130.866 109.475 89.0014 68.2214 126.502 102.106 83.412 122.644 102.939 83.6955 64.9687 119.109 97.3095 77.9925 113.896 97.1111 78.5991 61.3244 111.512 91.8928 72.2977 106.226 91.1416 73.6784 58.0146 104.104 86.6622 67.4286 98.9684 85.7445 68.7531 54.7974 97.1288 81.1997 62.6883 91.853 80.5827 63.6252 51.1318 89.9956 76.1489 58.0602 85.1151 75.4513 59.2004 48.0315 83.4084 71.235 53.8373 78.6129 70.586 54.6636 44.8981 76.7573 65.9288 49.4576 72.0351 65.888 50.0141 41.6742 70.4608 61.4579 45.1732 65.8502 60.9269 46.0629 38.8446 64.5728 56.8161 41.435 60.2796 56.5085 41.8264 35.8811 58.8962 52.4763 37.8896 55.0283 52.2896 38.1654 33.0598 53.5567 48.1783 34.3068 49.4781 48.2426 34.5322 30.2354 48.5235 43.8288 31.1369 44.9126 44.0598 31.1121 27.7199 43.63 40.0691 27.762 39.9783 39.9963 27.9309 25.1127 38.9443 36.1597 24.7374 35.5683 36.3141 24.9024 22.7754 34.5985 32.4548 21.8324 31.396 32.7695 22.0879 20.3393 30.4843 28.7735 19.4353 27.5472 29.4091 19.2889 17.9604 26.6892 25.2919 16.8189 24.0182 25.7852 16.82 15.8053 23.0976 21.8711 14.6155 20.5272 22.7243 14.367 13.61 19.6117 18.6283 12.4177 17.242 19.3889 11.882 11.3932 16.4069 15.4439 10.4058 14.2327 16.3045 9.92931 9.51713 13.3603 12.7334 8.42609 11.2769 13.416 7.93878 7.53424 10.4655 9.48567 6.67183 8.61006 10.5766 5.88905 5.45892 7.49025 6.64638 4.72386 5.79754 7.69779 4.05427 3.6487 4.74857 3.71123 2.89222 3.17063 5.0434 2.28641 1.73168 2.53506 1.3228 1.51186 1.1941 2.22438 0.798195 18.3121 35.1665 62.2743 24.1033 70.873 17.0334 7.86234 31.7971 10.0755 44.9381 56.8885 91.0097 96.0358 65.0441 105.852 93.6954 65.9305 66.5432 104.705 100.949 73.4062 108.322 107.113 68.9143 64.4317 101.024 96.6311 69.4519 101.09 101.661 66.0286 61.0855 95.438 92.0491 64.0537 93.7758 94.008 62.7159 58.3133 90.7687 88.1229 59.667 88.197 87.712 60.0189 55.9604 87.228 84.6936 56.4293 83.6712 83.0877 57.7734 53.9647 83.7891 81.1881 53.6997 79.8043 79.1595 55.3987 51.6412 80.0732 77.7081 51.0034 75.9589 75.4711 53.0545 49.4958 76.6085 74.1391 48.7239 72.4105 71.993 50.5975 47.2249 72.8927 70.4568 46.2405 68.5329 68.5516 47.9623 44.9483 69.0665 66.8083 43.8242 64.9081 65.1184 45.3414 42.6297 65.4081 63.2265 41.4824 61.2292 61.7297 42.8913 40.3882 61.6922 59.687 39.0645 57.4907 58.3341 40.3402 38.0049 57.8888 55.9287 36.6596 54.0155 54.9755 37.8186 35.8104 54.4135 52.6196 34.3929 50.705 51.5184 35.5273 33.5308 50.9396 48.9755 32.3028 47.3861 48.4498 33.2035 31.2926 47.3266 45.5547 30.1376 43.8895 45.1289 30.5992 29.0478 43.8257 42.2606 27.8085 40.51 41.9222 28.4207 26.8157 40.4278 38.7084 25.6737 37.1594 38.8341 26.0933 24.6765 37.0237 35.475 23.4426 33.897 35.435 23.7565 22.4568 33.6723 32.0633 21.3471 30.7439 32.3142 21.4471 20.3704 30.3783 28.9616 19.2717 27.6524 29.2056 19.3243 18.1717 27.0698 25.5416 17.1186 24.3742 26.0992 17.03 16.0194 23.8408 22.3991 15.1005 21.2633 22.9656 14.9154 13.7908 20.6362 19.1456 12.9794 18.3654 19.9114 12.8858 11.7747 17.4251 16.0042 11.0184 15.0981 16.9432 10.6181 9.68338 14.4268 12.9684 8.92266 12.3315 13.8643 8.78363 7.67154 11.3317 9.94975 7.15229 9.377 10.9888 6.61887 5.60153 8.35967 7.13059 5.25175 6.61391 8.02641 4.70314 3.83444 5.65667 4.25153 3.54459 3.93425 5.46896 2.77992 1.76474 2.43922 1.24662 1.49284 1.12091 2.51237 0.801534 46.3709 40.8892 102.237 28.6347 76.6747 39.8104 13.744 65.527 18.8879 46.3692 87.6748 97.9399 136.564 70.3817 113.03 132.911 68.3216 95.5717 111.568 138.559 79.2347 115.467 147.269 71.1307 91.3956 108.187 131.01 75.3064 107.933 140.186 68.1359 85.8359 102.504 123.593 69.5429 100.639 129.44 65.0276 80.3837 97.2448 116.155 64.7522 94.2604 120.347 62.1306 75.7604 92.6169 109.839 60.8917 88.9836 112.213 59.414 71.4312 88.534 103.641 57.5826 84.273 105.148 56.8003 67.1482 84.2307 97.1983 54.4711 79.8036 98.3436 54.0244 63.0435 79.988 91.2872 51.5417 75.6625 92.0723 51.4422 59.0233 75.8578 85.2262 48.8431 71.2906 86.3113 48.694 55.1616 71.5933 79.5402 46.0034 67.2548 80.3954 46.0033 51.2801 67.5241 74.0358 43.2849 63.3307 74.6015 43.3663 47.6139 63.5253 68.6676 40.7368 59.3682 69.3835 40.8371 44.0782 59.5172 63.4325 38.0695 55.6288 64.0098 38.1576 40.7623 55.7089 58.5087 35.6284 51.8643 59.2239 35.8076 37.4608 52.0241 53.6848 33.2266 48.2314 54.367 33.2602 34.3126 48.0998 49.1966 30.6525 44.6845 49.695 30.9427 31.3564 44.6552 44.8648 28.4606 41.2063 45.663 28.5854 28.5361 40.9001 40.7912 26.1186 37.7725 41.4492 26.1153 25.8564 37.4382 36.7204 23.8531 34.3866 37.6122 23.9034 23.211 33.9769 32.7535 21.6736 31.0485 33.6855 21.5759 20.7369 30.6822 29.1632 19.4579 27.9098 29.8916 19.4482 18.2035 27.2722 25.5194 17.4215 24.6437 26.3657 17.1097 15.8444 23.9607 22.1194 15.2506 21.5777 22.8629 15.089 13.7304 20.7627 18.8425 13.163 18.2364 19.6239 12.8136 11.5479 17.5697 15.5787 11.0622 15.2828 16.5764 10.6857 9.32427 14.3448 12.4473 9.06685 12.3013 13.2916 8.59978 7.33077 11.3455 9.54206 7.09106 9.43918 10.4023 6.71952 5.31881 8.26191 6.63034 5.22822 6.69201 7.73413 4.80469 3.62485 5.7463 4.22454 3.54047 4.07785 5.11218 2.77842 1.87663 2.64011 1.31342 1.72217 1.27462 2.69797 0.863828 90.6333 97.6963 178.642 63.9517 137.078 76.3891 31.5523 127.959 44.6038 90.2104 143.777 167.21 215.377 113.306 176.972 210.822 112.436 147.204 176.626 211.11 121.922 177.378 222.362 112.303 138.693 168.066 197.889 115.762 166.098 210.759 105.686 129.267 157.369 184.891 107.224 153.904 195.449 99.3036 120.562 147.067 172.554 99.2573 143.021 181.014 92.9675 112.547 137.905 160.618 92.2345 133.071 168.087 87.1164 104.624 128.801 149.304 85.7821 123.673 155.446 81.5841 96.8395 120.077 138.361 79.5429 114.454 143.719 75.7751 89.6955 111.865 127.816 73.6234 106.234 132.399 70.7526 82.6132 103.882 117.694 68.4189 98.3985 121.961 65.4487 75.9071 95.9427 107.858 62.9196 90.9112 111.647 60.5396 69.2377 88.3939 98.1441 57.9852 83.4329 102.064 55.8906 63.0364 81.2725 89.3298 53.2598 76.395 92.8441 51.1757 57.3724 74.4555 81.1226 48.5678 69.5933 84.0879 46.9586 51.6798 68.0263 73.136 44.3002 63.5251 76.0931 42.8859 46.5707 61.7209 65.5459 40.17 57.2995 68.3689 38.7304 41.6109 55.734 58.4457 36.1952 51.777 61.1721 35.22 36.9615 50.4796 51.707 32.7725 46.5971 54.5042 31.6221 32.5383 45.3025 45.7055 29.2364 41.7704 47.7808 28.5146 28.6537 40.589 40.2026 26.3 37.2879 41.8767 25.3697 25.0886 35.8783 34.7839 23.2784 32.5814 36.812 22.3377 21.6384 31.4473 29.7702 20.0705 28.4127 31.6004 19.609 18.334 27.3739 25.4114 17.4929 24.6356 26.7068 17.172 15.6719 23.7572 21.4109 15.0797 21.0151 22.6975 14.6394 12.9603 19.9965 17.4477 12.6738 17.6018 18.8104 12.2285 10.4163 16.4158 14.1501 10.5499 14.421 15.0708 10.0792 8.31786 13.3559 10.8367 8.4471 11.2655 12.2374 7.96104 6.19323 10.3546 7.98273 6.46475 8.55522 8.93428 6.0728 4.36675 7.5511 5.50073 4.72032 5.81134 6.34408 4.20506 2.78389 4.70528 3.47621 2.93041 3.6082 4.09693 2.64367 1.7301 2.68976 1.19358 1.8184 1.41479 2.64966 0.910448 157.786 180.968 273.539 119.466 219.615 140.036 60.9666 228.272 90.7286 147.163 209.384 260.229 305.211 172.197 261.242 305.087 170.489 204.213 260.373 293.118 176.528 256.446 306.108 165.3 191.27 244.23 274.405 166.52 240.351 288.713 155.017 178.813 228.061 256.113 154.882 223.11 270.027 144.54 166.999 213.04 238.704 143.679 207.005 250.818 134.888 155.275 198.217 221.401 133.399 191.619 232.401 125.129 143.639 183.826 204.996 122.918 176.699 214.263 116.176 132.662 169.758 188.44 113.068 162.876 197.614 107.105 121.806 156.419 172.629 104.296 149.387 181.339 98.6422 111.25 143.483 157.958 95.4021 136.555 165.559 90.4989 101.614 131.488 143.646 87.0338 124.732 150.862 82.6825 92.1438 119.441 129.836 79.249 112.853 137.069 74.6643 83.0355 107.77 116.884 71.4583 101.928 123.343 67.6039 74.7594 97.6349 104.58 64.3994 91.7303 110.798 60.8753 66.5052 87.1824 93.0424 57.7289 81.911 98.5588 54.4606 58.7515 77.9488 82.324 51.3872 72.6441 87.2294 48.4892 51.8068 68.9578 71.841 45.59 64.2872 76.8504 42.8007 45.2562 60.8409 62.6979 39.9941 56.3623 67.0264 37.7251 39.2509 52.9145 53.8158 34.8882 48.7781 58.2698 32.6271 33.7152 45.8691 46.1212 29.9241 41.9132 49.8413 28.27 28.4224 39.7218 38.5942 25.7943 35.7181 41.9772 24.2343 23.559 33.575 32.0821 21.974 30.1899 34.7256 20.5185 19.4849 28.0692 26.0158 18.0891 24.8609 28.7632 17.0235 15.4215 23.1609 20.5796 14.9113 20.2437 22.9375 14.1034 12.3867 18.8339 16.2085 11.9136 16.4088 17.9685 11.2699 9.33756 14.8289 11.9288 9.43739 12.678 13.6924 8.85918 6.88613 11.4822 8.73895 7.41525 9.56877 9.88338 6.67914 4.6481 8.26015 5.83119 5.19469 6.62924 6.85735 4.77281 3.11769 5.53022 3.67446 3.39932 4.18623 4.41617 2.90966 1.66296 3.17927 2.34105 2.17088 2.71437 2.4123 1.89042 1.20278 2.21573 0.945977 1.48048 1.3457 1.76818 0.798897 129.542 329.934 180.009 220.037 320.938 63.724 124.149 190.139 191.096 217.487 130.294 358.939 181.569 233.175 349.926 187.545 231.204 124.115 344.976 174.732 230.992 338.908 181.887 220.743 117.035 324.859 164.531 219.433 318.67 173.264 207.371 110.02 304.63 154.189 205.856 297.809 163.025 194.006 102.869 284.521 143.983 191.696 276.401 152.355 180.744 95.8445 264.533 134.061 177.533 255.823 141.536 168.088 89.1452 245.209 124.178 163.789 235.374 131.092 155.363 82.2495 226.033 114.197 150.65 216.356 120.456 142.504 74.9863 206.882 104.421 138.052 197.752 110.302 130.585 68.6442 188.836 95.3437 125.608 180.097 100.563 119.185 62.5129 171.925 86.7141 114.248 163.361 91.5329 108.073 56.5727 155.586 78.1132 103.693 147.831 83.0262 97.56 50.9484 140.154 70.3358 93.1933 132.594 74.6345 87.5799 45.5669 125.59 62.9688 83.5216 118.217 66.8293 78.3021 40.5779 111.728 55.917 73.8966 104.792 59.3386 69.6736 35.8887 98.5406 49.1305 65.2701 91.8864 52.5187 61.0873 31.3451 86.4766 42.918 57.3751 80.3415 45.9454 53.2049 27.1503 74.8049 37.076 49.6245 69.1621 39.8475 45.9739 23.2811 64.513 31.8378 42.3857 59.11 34.0065 39.4911 19.8395 54.908 26.859 36.1511 50.5221 28.8723 33.5058 16.6657 45.9676 22.4328 30.3579 41.3278 24.3621 27.5135 13.558 37.4986 18.0798 24.5352 33.2821 19.7697 22.3307 10.7172 30.271 14.5539 19.9812 27.1235 15.6873 18.0541 8.5507 23.8151 11.3406 15.7144 20.5853 12.5418 13.7758 6.42779 18.1414 8.37395 11.817 15.9403 9.28505 10.5418 4.74502 13.5744 6.07476 8.86187 10.9182 6.9252 7.40174 3.02415 9.12452 4.14434 5.69113 7.39543 4.28827 5.23143 1.96282 5.93787 2.46154 3.65456 4.64528 2.77523 3.12764 1.01789 3.54934 1.41497 2.20268 2.92253 1.54956 1.9913 0.56317 2.04702 0.809747 1.18195 2.02918 0.745169 1.29165 0.389719 1.61973 0.524579 1.12709 0.926468 0.709266 0.64351 125.548 302.813 270.445 208.379 356.272 196.537 105.675 129.082 81.1619 71.3247 194.03 105.904 177.256 240.651 196.362 331.081 294.889 218.772 329.011 166.732 113.086 295.168 168.158 222.807 197.407 333.413 285.829 219.148 323.411 169.826 114.866 296.362 165.594 218.632 184.032 318.822 268.119 211.084 309.172 165.866 111.381 278.948 157.443 208.571 171.063 298.58 249.77 198.435 289.238 156.767 104.661 259.651 146.713 194.746 158.146 277.086 230.698 184.119 267.535 145.482 97.3479 240.513 135.896 180.45 146.125 255.633 213.194 169.699 245.998 134.305 89.3891 221.53 124.44 166.03 134.412 234.889 195.631 155.714 225.729 122.917 82.1804 203.992 114.404 152.843 123.616 215.133 179.705 142.451 206.284 112.371 75.0376 186.589 104.358 139.565 113.013 196.937 164.039 130.135 188.564 102.601 68.7814 170.69 95.4298 127.729 103.208 179.59 149.637 118.556 171.224 93.3025 62.5653 155.71 86.6639 116.187 93.7143 162.601 135.863 107.388 154.697 84.5304 56.5699 141.623 78.1685 105.017 85.4288 147.232 123.032 96.9866 139.598 76.4796 51.1469 128.107 70.3051 94.7457 76.6583 132.48 110.457 87.0647 125.277 68.4034 46.0716 115.396 62.9049 85.2017 68.838 118.262 98.8283 77.5901 111.291 60.8536 40.8277 103.396 56.1473 75.9592 61.2405 105.22 88.044 69.0791 98.6443 54.1128 36.3465 92.129 49.4902 67.328 54.3732 92.7263 77.4897 60.9263 86.8158 47.7547 31.843 81.506 43.2398 58.9871 47.9271 81.1752 67.9775 53.0822 75.4165 41.4328 28.0097 71.5438 37.7903 51.443 41.4945 70.0321 58.7976 46.107 64.9171 35.9093 24.0241 62.2576 32.2776 44.1975 35.6877 59.9399 50.4927 39.3693 55.3993 30.7491 20.3903 53.7812 27.2838 37.7673 30.7725 50.7952 42.9803 33.3027 46.478 25.6478 17.1969 46.1088 22.7923 31.7073 26.086 42.4226 35.7654 27.6569 38.3963 21.2007 14.3189 39.0142 18.8452 26.101 21.3407 34.454 29.4813 22.7767 30.8737 17.2901 11.471 32.0909 14.9486 20.9347 17.4286 27.2653 23.8215 17.8576 24.2413 13.5213 9.03021 25.9303 11.5085 16.4017 14.1581 21.4122 18.9996 13.8584 18.6269 10.333 6.98862 20.8013 8.95532 12.8575 11.0027 16.2775 14.641 10.4409 13.7738 7.52118 5.19999 16.2251 6.34926 9.3924 8.46336 11.6013 11.0015 7.46898 9.80166 5.37162 3.56642 12.424 4.37603 6.78063 6.3884 8.35322 7.95695 5.07759 6.17995 3.29826 2.32343 9.12204 2.82708 4.4843 4.20665 5.06231 5.05491 3.15274 3.82272 1.89015 1.45321 6.19505 1.75158 2.88445 2.75935 3.03133 2.82175 1.88282 1.87742 1.15376 0.744471 4.07017 0.83633 1.34294 1.65786 1.80022 1.85402 0.992647 1.40833 0.705841 0.507402 2.20295 0.634987 0.9363 0.835335 1.2294 0.586978 0.832248 0.566796 0.542302 0.362875 1.42899 0.176432 0.425234 65.2457 143.538 150.551 97.3118 197.62 41.5316 36.0998 99.778 52.593 133.178 126.136 245.188 204.173 164.402 250.697 194.242 169.841 137.279 251.474 205.373 166.972 246.308 208.523 166.418 130.917 236.301 191.167 157.025 229.812 198.8 154.563 120.889 219.586 176.396 145.712 212.727 184.174 143.601 111.203 202.725 163.159 134.595 195.646 169.375 132.539 102.767 187.223 150.794 124.09 180.375 155.853 122.367 94.795 172.857 139.278 114.15 165.786 143.554 112.67 87.5133 158.759 128.31 104.417 152.299 132.199 103.942 80.6219 145.635 118.151 95.8081 138.765 121.669 94.6722 74.2567 132.809 108.656 87.3994 127.05 111.533 86.6008 68.3539 121.692 99.7705 79.8748 115.582 102.563 78.9688 62.3594 110.711 90.7435 72.5624 105.099 93.5621 71.5282 56.749 99.7265 82.6504 65.6297 94.5012 85.0517 64.5631 51.6516 90.1137 75.1922 58.8565 84.8788 77.3153 58.2985 47.0249 81.0332 67.8153 52.8682 75.912 69.9916 51.9338 41.9219 71.8774 60.5913 47.0157 67.3771 62.6317 46.0472 37.5339 63.4692 54.0714 41.4686 59.3948 55.9956 40.7315 33.8107 56.0297 48.1426 36.4664 51.9102 50.1019 35.6902 29.6069 48.7695 42.2928 31.7725 45.072 43.9536 30.8097 25.99 42.1911 36.9395 27.5603 38.6651 38.7796 26.5601 22.6642 36.1437 31.8391 23.5158 33.0175 33.4478 22.6439 19.7715 30.5987 27.8387 19.8763 27.5733 28.9495 19.0409 16.8291 25.6964 23.5535 16.5367 23.0731 24.593 15.9384 14.3126 21.2678 19.5675 13.5051 18.5505 21.0521 12.9792 11.9239 16.8177 16.0899 10.8639 14.8586 17.4295 10.192 9.88477 13.5974 13.0385 8.87909 11.6324 14.2915 7.97679 7.74106 10.2689 9.97438 6.50092 8.52215 11.1664 5.86102 5.90926 7.68822 7.25689 4.86053 6.05012 8.45529 4.13252 4.02694 4.99783 4.70028 3.15331 3.67663 5.82631 2.53912 2.56131 3.06407 2.64713 1.83481 2.31382 3.5662 1.56884 1.39045 1.79489 1.13272 1.07332 0.671456 1.91199 0.542815 31.8519 73.6541 88.3331 50.432 115.874 20.0739 17.2873 49.7965 24.6725 77.304 79.1896 152.2 131.273 103.1 163.628 123.318 109.134 90.8048 170.627 136.369 113.865 167.898 139.948 113.005 86.0232 161.832 126.787 107.757 156.548 132.564 105.465 78.5863 148.019 116.38 98.3881 143.028 120.488 96.8533 72.3546 136.152 107.686 89.9746 131.816 110.145 89.5587 67.1083 126.275 100.361 83.124 121.522 101.988 83.2606 62.9417 117.109 94.0026 76.757 111.987 94.7482 76.867 58.7342 108.417 87.8096 70.9299 104.023 88.4253 71.4695 55.0139 100.566 82.1693 65.6384 96.1374 82.622 66.1014 51.5687 93.2759 77.0199 60.807 89.2472 77.2174 61.3387 48.5654 86.3721 72.1021 56.2947 82.2269 72.4572 56.7117 45.391 79.7682 67.2042 51.8159 75.6591 67.3478 52.0958 42.2627 73.3451 62.3831 47.501 69.3017 62.5358 47.8632 39.1516 67.0421 57.7167 43.4346 63.4135 58.141 43.6648 36.2095 61.4203 53.2642 39.9289 58.0862 53.8553 39.9983 33.6156 55.979 49.2405 36.3319 52.6197 49.717 36.3003 30.93 50.7504 44.9474 32.8829 47.5655 45.5913 32.5217 28.3059 45.769 41.3063 29.6419 42.9891 41.6086 29.5141 25.889 40.9199 37.1372 26.6002 38.1664 38.2201 26.2466 23.332 36.5397 33.7379 23.8476 33.8727 34.5459 23.297 21.2564 32.3979 29.9755 20.9258 29.9156 31.0521 20.3743 18.8718 28.392 26.7649 18.385 26.3058 27.5261 18.1599 16.6251 24.8899 23.4413 16.0852 22.661 24.4489 15.5603 14.7391 21.4721 20.3328 13.9325 19.4172 21.3572 13.2155 12.5345 18.2417 17.3286 11.78 16.3365 18.4357 11.2391 10.7491 15.3282 14.3476 9.83937 13.5911 15.4629 9.22593 8.76682 12.2476 11.4859 7.94999 10.5238 12.6685 7.22929 6.791 9.64945 8.84269 6.08951 7.82055 9.79903 5.5238 4.99653 6.80725 6.15641 4.34067 5.41792 7.13663 3.71187 3.20748 4.32558 3.43267 2.76461 2.85428 4.60516 2.01079 1.43007 2.14938 1.08531 1.21825 1.07498 1.95539 0.858119 19.7105 33.8926 68.8601 25.9116 74.8267 16.7717 6.7196 34.0006 10.8548 47.4698 65.4497 101.296 108.796 70.1185 113.245 102.319 73.0893 75.3568 116.341 112.115 78.8664 115.425 116.65 75.5224 70.6729 109.348 103.563 73.5322 105.741 108.974 69.9929 63.8541 99.2928 94.5179 66.1285 95.7844 97.7577 64.2063 58.5553 91.115 87.4286 60.1048 87.9111 88.8264 59.5644 54.6341 84.893 81.9117 55.4655 81.7516 82.0919 55.6744 51.4403 79.9558 77.5134 51.9684 76.8399 76.8484 52.76 48.8559 75.7408 73.4673 48.9852 72.5875 72.512 49.9871 46.5128 71.7645 69.7422 46.3232 68.6127 68.8026 47.2609 44.1886 67.8911 66.0024 43.9227 64.8596 65.2812 44.6323 41.9467 64.4975 62.5691 41.5741 61.4826 61.7976 42.326 39.8153 60.8765 59.0474 39.1294 57.8299 58.5088 39.8702 37.5469 57.296 55.5142 36.939 54.4608 55.2401 37.3771 35.364 53.7061 52.2089 34.7208 51.1621 51.9726 35.1888 33.2285 50.4664 48.8359 32.6927 47.7677 48.9581 32.8072 31.1786 47.2274 45.6801 30.3882 44.7027 45.7006 30.7617 29.1143 43.9712 42.3808 28.2915 41.2084 42.8443 28.4401 27.0303 40.5544 39.1525 26.1367 38.1779 39.5701 26.2889 25.0337 37.5348 36.0589 24.2446 35.1049 36.567 24.0533 22.8527 34.197 32.8532 22.1532 32.0694 33.4913 21.9926 20.7941 31.3065 29.7431 20.2845 29.0729 30.6235 19.8878 18.8647 28.1067 26.8803 18.074 26.0463 27.5503 17.8796 16.8381 24.957 23.6059 16.1927 22.9501 24.7448 15.7901 14.793 22.1337 20.7502 14.2467 20.1822 21.6836 13.781 12.8647 18.96 17.8643 12.293 17.2078 18.7851 11.933 11.0273 16.3511 14.7999 10.556 14.379 16.1013 9.85082 8.90608 13.2875 11.7914 8.53497 11.7281 12.9303 7.92895 7.01184 10.3279 9.22357 6.69998 8.74866 10.2017 6.03956 5.25874 7.71063 6.43895 4.90639 6.18586 7.64774 4.31486 3.56267 5.16227 3.91672 3.23745 3.5435 5.0592 2.58963 1.60997 2.41461 1.16605 1.48059 1.06493 2.28164 0.699541 41.3206 40.3479 102.982 30.4463 83.1638 35.4987 11.2493 61.7291 17.6219 51.212 91.9059 109.452 146.609 75.7837 122.171 138.247 77.4936 103.239 124.365 149.459 85.0151 123.999 155.575 79.1042 97.8074 117.563 139.069 80.1855 114.187 147.854 73.2186 89.3805 107.146 127.463 72.3536 103.341 134.84 67.1446 82.1589 98.4743 117.567 65.9454 94.9063 122.956 62.0203 75.8607 91.5135 109.017 60.7596 88.0768 113.05 58.0968 70.5762 85.8304 101.614 56.6219 82.3827 104.8 54.6565 65.7693 80.8948 94.85 53.0723 77.4262 97.3711 51.5836 61.3857 76.1989 88.5189 49.9338 72.9476 90.6916 48.7158 57.2594 72.0222 82.2303 47.0507 68.6139 84.3528 45.9263 53.0875 67.7628 76.6057 44.267 64.6666 78.1991 43.4059 49.2364 63.7852 70.915 41.6352 60.6518 72.7024 40.8332 45.7628 59.9349 65.7655 39.0508 56.9373 67.3437 38.3237 42.0973 56.0383 60.569 36.5554 53.1364 62.296 35.9049 38.9447 52.3252 55.6736 34.05 49.596 57.27 33.4278 35.5405 48.7206 51.1868 31.773 45.9241 52.5866 31.1762 32.6099 45.1685 46.6638 29.4146 42.6001 48.1404 28.7937 29.7928 41.7409 42.5382 27.2066 39.1808 43.9378 26.5895 27.1658 38.326 38.5932 24.8768 35.9136 39.8174 24.4058 24.4896 34.9924 34.7051 22.6831 32.554 35.8956 22.2345 21.9188 31.7707 30.8884 20.5868 29.4264 32.1747 20.0958 19.5132 28.548 27.3352 18.4973 26.3724 28.6332 18.0415 17.0966 25.4479 24.0054 16.5278 23.2506 25.1566 15.9211 14.8739 22.27 20.6141 14.3376 20.2996 21.8738 14.0171 12.6243 19.452 17.3556 12.5311 17.3988 18.6941 11.9347 10.6547 16.2578 14.5392 10.4916 14.5023 15.5055 9.98801 8.61821 13.3266 11.4503 8.5828 11.5409 12.8017 8.01581 6.66221 10.3441 8.72532 6.72889 8.86341 9.87858 6.09122 5.02571 7.7053 6.15646 4.9717 6.2398 7.22747 4.30004 3.24598 5.18869 3.83378 3.25997 3.88534 4.69575 2.67253 1.80385 2.50887 1.23111 1.56687 1.08488 2.65909 0.820782 80.6767 86.9312 170.321 60.9319 136.16 69.8207 26.6132 119.154 40.9149 87.2741 142.015 169.423 219.336 114.748 181.08 210.483 117.25 152.708 186.285 220.598 126.06 184.215 227.749 119.084 145.083 177.296 206.407 120.423 172.489 217.631 111.354 134.28 163.667 190.55 110.734 158.391 201.089 102.395 123.573 150.545 175.809 101.547 145.49 185.046 94.6827 114.268 139.282 162.271 93.3769 133.842 170.529 87.4281 105.332 128.817 149.706 86.085 123.656 156.593 81.0382 97.062 119.102 137.862 79.4867 114.364 144.273 74.9547 89.1209 110.262 126.59 73.5689 105.723 132.569 69.3467 81.8513 102.03 116.543 67.8542 97.2764 121.622 64.3144 74.8983 94.054 106.385 62.2727 89.557 111.393 59.3217 68.6205 86.5213 96.8854 57.2946 81.9211 101.785 54.3016 62.1614 79.2876 87.9582 52.2853 75.0671 92.2081 49.8426 56.2337 72.2762 79.4625 47.8713 68.5083 83.4377 45.353 50.7999 65.8323 71.5227 43.5747 62.2063 75.4998 41.3659 45.4781 59.6776 64.044 39.4284 56.1262 67.7098 37.4527 40.7065 53.9222 57.066 35.6326 50.5941 60.5552 33.7306 36.1374 48.6275 50.6482 31.9526 45.3665 53.4318 30.4351 31.8167 43.5055 44.3434 28.6039 40.6825 47.0121 27.3163 27.7556 38.8629 38.6798 25.5022 36.1129 41.3408 24.3065 24.3241 34.3974 33.7873 22.4932 31.4067 35.9957 21.2941 20.7914 29.8507 28.4894 19.5587 27.5534 30.8423 18.5632 17.5239 25.8311 24.0686 16.9071 23.6698 25.9648 16.0878 14.7619 22.2473 20.2309 14.5523 20.1499 21.7876 13.7317 12.4026 18.6538 16.5686 12.0463 16.5751 18.2076 11.3849 9.91386 15.5937 13.1433 10.0197 13.6527 14.5864 9.46039 7.77035 12.3835 10.1358 8.0249 10.7109 11.4179 7.34509 5.75129 9.42271 7.25286 6.10088 7.98445 8.5482 5.47279 4.05901 6.97661 5.10196 4.50812 5.50894 6.00086 3.81379 2.55289 4.28541 3.08286 2.72705 3.27912 3.65843 2.32028 1.58406 2.47168 1.22257 1.57408 1.26309 2.31027 0.823383 149.256 167.516 261.37 115.008 214.144 135.788 56.8133 221.145 88.0402 139.446 203.495 254.775 304.084 171.189 261.303 301.085 171.395 207.771 266.979 300.291 179.04 261.973 309.423 171.396 197.154 253.578 282.918 170.701 246.698 295.211 160.969 184.076 235.526 262.824 158.643 228.373 275.549 148.998 170.669 217.8 243.267 146.474 210.301 255.402 137.514 157.902 201.38 224.447 135.063 193.833 235.551 127.092 145.254 185.464 206.411 124.06 178.321 216.691 116.805 133.583 170.503 189.454 113.98 163.778 198.75 107.639 122.429 156.679 173.309 104.427 149.694 182.247 98.4793 111.466 143.355 157.918 95.5428 136.769 166.202 90.2143 101.545 130.574 143.399 87.2001 124.109 151.376 81.8876 92.0967 118.707 129.883 78.9684 112.614 136.925 74.2435 83.3068 107.336 116.791 71.3135 101.704 123.578 67.1413 74.4201 96.6773 104.411 64.1576 91.2547 110.775 60.3138 66.5915 86.9376 93.0498 57.7691 81.6881 99.1456 54.0977 58.7141 77.0747 81.6764 51.3862 72.2614 87.7894 47.8137 51.4624 68.3669 71.3684 45.4743 63.9024 76.8224 42.4336 44.7847 60.1965 62.1059 39.7894 55.7216 66.9124 37.2099 39.062 52.4627 53.8853 34.5113 48.3186 57.7706 32.3317 33.3998 45.0441 45.5707 29.7909 41.2295 49.6871 27.5523 28.0749 38.6268 37.8273 25.2278 35.1017 41.41 23.5141 23.0181 32.8069 31.4796 21.5107 29.5252 34.2333 19.9025 18.952 27.05 25.5254 17.8054 24.3333 28.3536 16.3286 15.2067 22.2471 19.8803 14.5041 19.8453 22.485 13.335 11.5696 17.9187 15.2772 11.7358 15.8538 17.484 10.8308 8.97237 14.1848 11.2638 9.09422 12.1315 13.4091 8.24354 6.43188 10.8326 8.1449 6.9483 9.12956 9.60879 6.32283 4.36297 7.65518 5.63123 4.92967 6.28055 6.55312 4.39166 2.78468 5.10856 3.3468 3.36693 4.20129 4.28206 2.92032 1.58649 3.28006 2.10417 2.07662 2.5029 2.50092 1.72965 1.01099 1.97083 0.917654 1.51071 1.34979 1.59692 0.79908 130.67 324.391 173.607 218.863 313.398 64.6807 124.895 192.03 193.049 207.279 124.02 346.938 178.213 229.252 346.33 181.643 229.514 124.367 348.808 177.287 231.87 342.163 182.535 225.657 119.677 332.613 168.581 222.766 324.773 176.183 213.107 112.627 312.377 158.038 209.508 302.884 166.401 198.913 105.141 290.262 146.682 194.51 280.503 154.819 184.109 97.4308 268.582 135.794 179.662 258.661 143.199 169.904 89.9534 247.329 124.979 165.257 237.674 131.998 156.259 82.3469 227.267 114.675 151.579 217.624 121.162 143.591 75.6062 207.977 105.03 138.765 199.213 110.826 131.219 68.8517 189.683 95.6349 126.534 180.851 101.369 119.416 62.5661 172.288 86.6566 114.816 164.047 91.8896 108.196 56.7738 156.077 78.75 103.847 147.928 83.1514 97.9403 51.1444 140.74 70.581 93.5741 133.224 74.9269 87.9138 45.8427 125.799 63.0861 83.5792 118.277 67.1112 78.299 40.6243 111.713 55.8003 74.441 105.254 59.5988 69.5744 35.8992 98.741 49.0496 65.7244 92.2073 52.7301 60.8966 31.2894 86.1645 42.8807 57.2194 80.178 45.9018 53.0874 27.2798 74.7155 37.2742 49.4636 68.9797 39.7397 45.9557 23.3369 64.2921 31.569 42.3098 59.4479 34.0801 39.434 19.7964 54.8874 26.9833 36.4764 50.2613 29.216 33.597 16.757 46.0635 22.3854 30.1002 41.2692 24.4231 27.5983 13.5856 37.313 17.9457 24.5254 33.3814 19.8496 22.1152 10.7077 30.1022 14.5519 19.9503 26.9633 15.745 18.1369 8.61205 24.0155 11.3675 15.7245 20.657 12.5577 13.7723 6.42682 17.8343 8.53265 11.4875 14.9805 9.2615 10.3393 4.81274 13.158 6.05551 8.43511 10.3732 6.72236 7.13722 2.90954 8.59511 3.92829 5.57593 7.22654 4.17108 4.88181 1.88134 5.68876 2.3946 3.71428 4.7894 2.8654 3.34986 1.13701 3.63505 1.59255 2.45159 2.81008 1.80784 2.01675 0.675181 1.93499 0.827812 1.15414 1.78051 1.01578 1.21848 0.54733 1.61308 0.540588 1.00111 0.832455 0.753081 0.577686 122.904 301.97 268.654 207.956 355.852 196.875 105.204 129.546 78.9029 69.7199 191.202 104.821 176.451 240.624 194.205 325.662 291.892 216.735 325.016 165.045 110.977 292.579 165.333 218.932 196.115 329.28 284.719 216.843 320.386 167.928 113.004 294.171 164.014 216.57 184.545 317.871 269.153 209.948 307.694 164.924 110.772 277.967 156.935 208.268 172.079 299.565 250.908 197.865 288.858 156.29 104.791 259.544 147.044 195.644 159.445 278.283 231.967 183.919 267.102 145.195 97.3399 240.508 135.799 180.906 146.44 256.261 213.239 169.4 245.784 133.94 89.6865 221.239 124.833 166.533 134.729 235.002 195.758 155.096 224.643 122.558 82.1116 202.974 113.931 152.394 123.047 214.71 178.908 141.71 205.297 111.958 75.0059 185.576 104.023 139.38 112.888 196.179 163.534 129.444 187.376 102.158 68.355 169.988 95.0149 127.255 102.725 178.851 148.669 118.022 169.686 92.9186 62.289 154.703 85.8922 115.348 93.1396 161.68 134.735 106.556 153.69 84.1677 56.3446 140.201 77.6442 104.422 84.3922 146.122 121.701 95.9891 138.575 75.9079 50.8423 126.913 69.8819 94.2397 75.7861 131.099 109.268 86.5069 124.455 68.1134 45.4321 114.304 62.6351 84.3508 68.053 117.458 97.7429 77.5662 110.765 60.6411 40.7533 102.878 55.557 75.1065 60.5877 103.96 86.7478 68.6225 97.776 53.7961 35.9477 91.2689 48.9475 66.4439 53.4671 91.7435 76.7688 60.1611 86.0751 47.1354 31.6299 80.5402 42.8996 58.6412 47.4433 80.1537 66.9288 52.7809 74.6041 41.1288 27.5818 71.1436 37.1334 50.6003 40.9445 69.2362 58.0235 45.1851 64.2756 35.1264 23.7423 61.5009 32.0005 43.8509 35.3813 59.4797 49.943 39.1254 54.8737 30.3527 20.4224 53.1754 26.953 37.3897 30.3106 49.9671 42.2925 32.8389 45.8648 25.3108 16.9172 45.3094 22.447 31.1983 25.4914 41.6856 35.1036 27.1872 37.8889 20.9006 14.0736 38.0841 18.5285 25.6814 21.0988 34.1689 29.1327 22.3975 30.844 17.0909 11.4378 31.4196 15 21.0837 17.0179 27.1562 23.3807 17.8593 24.1876 13.288 8.98276 25.7835 11.4267 16.2618 13.876 20.9712 18.5722 13.7834 18.813 10.3129 6.85051 20.4365 8.8363 12.576 10.7226 15.6961 14.0726 10.4697 13.3579 7.4927 4.97897 16.1544 6.06686 9.05159 8.16561 11.3419 10.3647 7.43125 9.91042 5.39682 3.49176 12.2337 4.45051 6.60562 5.95034 7.80278 7.2103 5.34634 6.25529 3.53418 2.3008 8.88965 2.63501 4.09239 3.96873 4.57976 4.75066 3.10948 3.76764 2.03247 1.13654 5.73058 1.59482 2.34876 2.52342 2.92958 2.74839 2.06192 2.47765 1.15993 0.886511 3.92528 1.0702 1.37366 1.39239 1.66338 1.79763 1.29583 1.5559 0.807025 0.542685 2.26708 0.688978 0.922361 1.1544 1.29878 0.681915 0.902707 0.612392 0.601036 0.377597 1.58891 0.151939 0.355859 61.6974 138.46 147.352 95.7852 195.715 39.2616 33.9858 96.6341 51.4182 131.069 125.818 243.507 204.239 162.947 249.2 192.83 169.005 137.219 250.965 205.722 166.437 245.608 207.963 166.629 131.441 237.784 192.802 157.025 229.617 198.702 155.961 122.17 221.199 177.928 145.589 212.696 183.999 144.442 111.874 204.068 163.446 134.643 195.81 169.256 132.985 102.664 187.483 150.412 123.68 179.758 155.462 122.504 94.3653 172.517 138.41 113.47 165.152 142.737 112.589 86.9996 157.671 127.083 103.756 150.669 131.263 102.703 79.6715 144.452 116.509 95.1523 138.337 120.316 93.9445 72.8589 131.653 107.133 86.6094 126.177 110.28 85.965 67.2865 120.36 98.2271 79.1428 114.409 101.322 77.9514 61.1691 108.843 89.1818 71.6752 104.105 92.0466 70.8509 55.9096 98.6908 81.3532 64.8721 93.5402 84.2889 63.8107 50.7187 88.5144 73.4336 58.5019 84.0404 76.5146 57.1699 45.5956 79.498 66.2824 52.2043 75.0325 68.6558 51.2551 41.0184 70.5682 59.3078 46.3122 66.4109 61.6777 45.2175 36.6748 62.6045 52.8181 41.0826 58.8085 54.988 39.8933 32.7989 54.8187 46.7364 36.0243 51.116 49.1747 34.7942 28.7415 47.7748 41.0377 31.254 44.5191 43.0218 30.3683 25.4305 41.3904 35.9799 27.0175 38.1908 37.7575 25.9772 21.7999 35.1999 30.8915 23.076 32.2285 33.0333 21.8156 18.7859 29.4587 26.8579 19.2658 27.2025 28.0699 18.4837 16.1154 24.6444 22.4494 16.3763 22.7623 24.3883 15.4514 13.7265 20.5272 18.6878 13.5008 18.3767 20.5308 12.2994 11.4085 16.3321 15.4068 10.8018 14.5925 16.7444 9.75211 9.23602 12.9929 12.3641 8.52917 11.3862 13.6105 7.55616 7.25421 9.49321 9.49112 6.33946 8.42108 10.7095 5.50118 5.49725 7.02179 6.90069 4.63228 5.80774 8.36064 4.0127 3.83112 4.86058 4.41288 3.24316 3.93117 5.75137 2.44699 2.38884 2.88996 2.65504 1.91682 2.12639 3.47089 1.52614 1.31102 1.87537 0.846301 1.33081 0.965321 1.94329 0.489951 30.0915 69.5876 88.3043 49.3008 114.589 19.2986 15.483 48.064 23.9094 76.3527 81.0409 153.057 134.323 103.02 163.487 124.186 110.116 92.8035 172.466 139.174 114.253 168.175 141.211 114.028 88.0314 163.69 129.304 108.015 156.632 133.595 106.761 79.8949 150.046 117.617 98.5625 143.525 121.425 97.8665 72.484 136.62 107.718 89.875 131.157 110.304 89.7141 66.9753 125.659 99.3233 82.6975 120.711 101.234 82.3655 61.7066 115.689 92.095 75.9551 111.257 93.4726 75.9083 57.5671 106.835 85.9945 70.3651 102.983 87.009 70.3524 53.6922 98.7268 80.2402 64.7577 95.1104 81.08 65.047 50.1856 91.2306 74.9034 59.9501 87.9359 75.9042 59.9144 47.0458 84.5143 69.9775 55.5317 81.0651 70.9972 55.5256 43.7212 77.7923 65.0377 50.9614 74.0579 65.9728 50.7429 40.6361 71.1988 60.0934 46.6152 68.2889 61.1948 46.6015 37.7969 65.4933 55.6653 42.9992 62.8547 56.8192 42.6213 34.9878 59.566 51.6015 39.129 57.0107 52.5666 38.8561 32.3723 54.3145 47.4617 35.7793 51.772 48.7689 35.2581 29.7691 49.2004 43.4864 32.3055 46.7175 44.8493 31.78 27.3509 44.4929 39.7214 29.176 42.0818 40.9902 28.3999 24.8822 39.5541 35.9084 25.9456 37.2952 37.0288 25.2859 22.4667 35.4349 32.455 23.0429 33.2772 33.5514 22.6553 20.234 31.1073 28.9519 20.528 29.4428 30.2245 19.9054 18.2859 27.5958 25.8083 18.2124 25.8026 27.3013 17.4661 15.9372 23.994 22.5392 15.9137 22.1306 24.0182 14.8956 14.0122 20.6393 19.5209 13.5129 19.0658 20.8208 12.8169 12.1562 17.6323 16.6968 11.5445 15.839 17.9899 10.7974 10.0794 14.4745 13.687 9.46709 13.164 14.951 8.77406 8.27462 11.7565 10.8744 7.79921 10.5588 12.2433 7.0494 6.37094 9.07628 8.17028 6.23298 7.93984 9.68332 5.16168 4.65648 6.47347 5.82724 4.28648 5.15727 7.01718 3.52202 3.09757 4.19161 3.11613 2.65667 2.9816 4.45269 1.99115 1.15473 1.95823 0.901371 1.28177 0.9647 1.9212 0.709584 21.2934 35.2036 72.8128 26.6433 76.0461 17.3237 6.65957 34.8438 11.2706 49.3555 69.2858 106.099 114.589 71.5448 115.653 105.207 76.623 79.6552 121.497 117.721 80.5279 117.497 120.246 78.5516 74.0495 113.574 107.557 74.8523 107.255 112.001 72.0967 65.979 101.466 96.6522 66.7402 96.3887 99.6272 65.1495 59.2626 91.671 87.911 60.1562 87.6864 89.6272 59.4411 54.3245 84.1215 81.1853 55.2536 81.1527 82.0749 54.9299 50.6632 78.2276 76.0658 51.2337 75.618 76.3434 51.3513 47.6301 73.7313 71.51 48.1536 71.4 71.7516 48.4726 45.03 69.3638 67.6859 45.4093 67.3999 67.6728 45.7746 42.7922 65.7079 63.9694 43.0463 63.6382 64.414 43.1618 40.4098 62.0117 60.382 40.5972 60.1591 60.7861 40.7575 38.296 58.3938 57.0008 38.3761 56.588 57.4585 38.2938 36.2388 54.9605 53.5969 36.0724 53.0765 54.2656 35.8956 34.1329 51.8197 50.3906 33.9469 49.9436 51.1763 33.7933 32.0508 48.4536 47.1528 31.8105 46.7011 47.9777 31.6094 29.9126 45.3009 43.9485 29.7979 43.6157 44.8904 29.4262 28.1039 42.1576 40.8184 27.7049 40.5055 41.9132 27.2316 25.9324 38.9496 37.7288 25.7141 37.5161 38.8932 25.2997 23.9446 35.9844 34.6689 23.7327 34.1715 35.9807 23.1234 22.0036 32.9556 31.6685 21.6817 31.2649 32.9525 21.1211 20.0845 29.9597 28.6871 19.7327 28.3348 29.8467 19.0325 18.1318 27.0057 25.763 17.8712 25.5247 27.0595 17.1491 16.2743 24.0987 22.9028 15.8539 22.638 24.125 15.2069 14.3052 21.1852 19.971 14.0899 19.6812 21.5213 13.2745 12.4383 18.5036 17.1205 12.1072 16.9562 18.4462 11.4202 10.5599 15.5084 14.3599 10.2087 14.0496 15.6847 9.43873 8.58748 12.6611 11.4054 8.31877 11.1525 12.8471 7.63218 6.73364 9.97095 8.5678 6.48204 8.52557 10.1327 5.73784 4.89947 7.24275 6.08813 4.76818 5.9147 7.3288 4.04142 3.22548 4.71455 3.49317 3.09061 3.39845 4.81238 2.32239 1.56765 2.04849 1.01314 1.28954 0.890212 2.25228 0.609237 39.6819 41.3196 104.839 31.4186 85.5843 34.1094 10.4869 61.0241 17.7839 54.0271 94.6023 114.501 151.456 77.647 125.632 140.99 81.3789 107.044 130.347 155.111 87.2391 127.446 159.171 83.0538 101.515 122.844 144.054 82.1562 116.981 151.026 76.3195 92.181 110.572 130.756 73.8363 105.352 137.572 68.7159 83.7047 100.053 119.551 66.7271 95.9586 124.661 62.7156 76.8019 91.8582 109.739 61.1899 88.5397 114.327 57.9444 70.7239 85.2483 101.629 56.8211 82.3585 105.461 54.0452 65.5108 79.7147 94.219 53.0799 77.2172 97.7329 50.6876 61.0107 74.9127 87.6821 49.7675 72.3522 90.8876 47.7396 56.5918 70.5218 81.3145 46.8834 68.0999 84.341 44.8516 52.4109 66.1288 75.56 43.8786 64.0678 78.1645 42.2768 48.6578 62.2055 69.8069 41.2785 59.9893 72.4672 39.6646 44.9797 58.383 64.7653 38.6605 56.1774 67.0634 37.2515 41.6787 54.5877 59.6553 36.1465 52.5202 61.9511 34.817 38.1359 50.8477 54.7049 33.7369 48.9143 56.9469 32.5018 35.0712 47.3541 50.0941 31.3563 45.3596 52.2728 30.0972 31.9923 43.8608 45.8769 29.0797 41.928 47.7714 27.9748 29.3651 40.5263 41.6809 26.7869 38.6507 43.6326 25.7538 26.3956 37.1306 37.5924 24.5916 35.3324 39.4535 23.5904 23.7971 33.8778 33.5792 22.4774 32.1688 35.4439 21.3732 21.2315 30.6291 29.9499 20.2473 28.9791 31.682 19.3747 18.8137 27.5306 26.4239 18.245 25.9575 28.1902 17.3665 16.5595 24.51 23.0536 16.1317 22.7749 24.7697 15.3303 14.2407 21.4933 19.7604 14.2199 20.0763 21.3963 13.3994 12.3212 18.5735 16.8596 12.2764 16.9824 18.4194 11.4384 10.2393 15.7234 13.7757 10.3592 14.3668 15.2946 9.5393 8.39524 12.8634 11.1407 8.54914 11.4002 12.4823 7.60302 6.56037 9.9858 8.4721 6.59987 8.59026 9.74824 5.78433 4.69612 7.23295 5.73512 4.68684 6.01803 6.96692 4.13233 3.03908 4.82522 3.59839 3.15182 3.56126 4.48644 2.29814 1.7742 2.303 1.20311 1.43091 1.11198 2.46701 0.722519 77.6638 83.6328 168.919 60.3629 136.826 67.8287 24.8903 117.037 40.2994 87.2646 142.805 171.718 221.562 116.395 183.544 212.135 119.277 155.163 190.537 224.628 128.01 187.422 230.441 122.249 148.268 182.512 211.374 122.303 175.785 220.715 114.819 136.896 167.835 194.199 112.717 161.288 204.386 105.119 125.622 153.605 178.434 103.052 147.475 187.558 96.2618 115.415 141.136 163.987 94.6101 135.49 172.142 88.3684 106.145 129.751 150.765 86.8089 124.671 158.174 81.6337 97.6028 119.689 138.742 80.1521 114.939 145.292 75.1642 89.7225 110.522 127.331 73.7296 106.115 133.313 69.4758 82.3182 101.799 116.547 68.176 97.4612 122.818 63.8923 75.2707 93.6152 106.677 62.5365 89.823 112.101 58.8693 68.8618 86.1107 97.175 57.4633 82.0324 102.204 53.887 62.2736 78.5877 87.8003 52.4955 75.0767 92.7315 49.3759 56.4198 72.017 79.4919 47.9177 68.5412 84.0029 45.2037 50.9345 65.4705 71.3861 43.5441 62.1829 75.6496 40.9009 45.631 59.2833 64.0673 39.4266 56.0105 67.8057 36.9667 40.7431 53.3838 56.7528 35.4391 50.533 60.3893 33.4414 35.7774 48.1731 50.0132 32.0414 45.3543 53.5554 30.0171 31.3969 42.9488 43.8029 28.4208 40.3787 47.0247 26.7489 27.5913 38.1723 38.3022 25.3543 35.6237 41.4143 23.7272 24.0949 33.7045 33.1409 22.2065 31.1503 35.7472 20.7869 20.474 29.2711 28.2598 19.4435 27.1134 30.5726 18.1633 17.2347 25.3412 23.6635 16.7825 23.3806 25.9649 15.7066 14.4355 21.6325 19.7331 14.3031 19.7755 21.8522 13.2782 12.0007 18.0868 16.1966 12.04 16.5422 17.9326 11.0431 9.64994 14.9436 12.7628 9.88238 13.261 14.4302 8.93342 7.4584 11.9409 9.69152 7.7852 10.4786 11.2199 7.17867 5.61778 9.26385 7.09289 6.06732 8.02844 8.31649 5.3416 3.83523 6.56084 4.67414 4.346 5.29782 5.91092 3.58152 2.38305 4.02137 2.94109 2.58827 3.13601 3.55296 2.19853 1.34703 2.31042 0.974462 1.55815 1.2294 2.29297 0.783574 147.481 164.288 258.31 114.323 213.837 135.054 55.738 219.749 87.5388 137.6 202.612 254.842 304.394 171.682 262.248 301.032 171.819 208.236 269.137 302.961 180.582 264.739 310.202 173.695 199.703 257.955 286.823 172.759 249.937 297.827 164.059 186.8 239.931 266.875 160.659 231.231 278.506 151.78 173.094 221.254 246.269 148.225 212.775 258.277 139.529 159.362 203.465 226.623 136.224 195.474 237.699 128.417 146.43 187.053 208.265 125.225 179.783 218.604 118.139 134.64 172.222 191.027 114.974 165.08 200.659 108.538 123.197 157.692 174.404 105.388 150.675 183.749 99.0116 112.432 144.027 158.848 96.2488 137.614 167.128 90.2492 102.112 131.298 143.939 87.8456 125.504 152.094 82.302 92.2861 119.289 130.218 79.6062 113.519 137.74 74.7143 83.4403 107.927 117.074 72.0778 102.242 124.392 67.363 74.9088 96.9963 104.562 64.7384 91.7109 111.71 60.361 66.8807 87.1142 93.0859 57.8321 81.9551 99.5991 53.8584 59.0763 77.3874 82.2803 51.5299 72.876 87.841 47.9851 51.9025 68.6816 71.7162 45.6851 64.265 77.4455 42.3727 44.9346 59.7939 62.1882 39.8882 55.7451 67.1725 36.9411 39.0141 51.9279 53.4277 34.6722 48.1483 58.2353 31.8487 33.3259 44.9297 45.4948 29.8469 41.5926 49.7151 27.5032 27.8976 38.2567 37.6051 25.4189 35.2413 41.7454 23.3863 22.9269 32.2927 31.0011 21.3965 29.6403 34.3347 19.6471 18.8686 26.7154 25.2989 17.8083 24.1688 28.2359 16.1573 15.028 21.9125 19.7316 14.4856 19.6944 22.5839 13.251 11.7451 17.865 15.3587 11.6166 15.8686 17.5938 10.7126 8.88306 13.9392 11.3429 9.25688 12.0368 13.4324 8.10528 6.38381 10.5234 7.96061 6.95873 8.95593 9.71154 6.06503 4.23373 7.48815 5.30812 4.89959 6.25645 6.6188 4.26989 2.76913 5.01149 3.27868 3.29409 3.98466 4.27443 2.66989 1.60564 2.89872 1.93389 1.96095 2.48502 2.41613 1.58172 1.03372 2.01927 1.06108 1.27165 1.09154 1.51288 0.814413 132.834 325.42 173 219.265 313.143 65.6996 126.09 193.687 193.774 204.735 122.222 343.65 176.714 228.889 346.314 180.337 228.737 123.401 348.45 176.995 232.187 343.563 182.38 226.638 120.092 335.628 170.523 224.249 326.824 177.075 215.59 113.987 315.895 160.128 211.047 305.541 167.632 201.366 106.276 293.939 148.543 196.396 282.992 156.437 186.442 98.2437 271.152 137.073 181.136 260.543 144.422 171.611 90.6558 249.524 126.16 166.44 239.425 132.874 157.814 83.1817 228.729 115.368 152.764 219.117 122.096 144.239 75.9443 209.42 105.724 139.731 200.188 111.658 132.196 69.4793 191.248 96.2816 127.356 182.219 101.925 120.278 63.0522 173.54 87.1538 115.748 165.055 92.6664 108.719 57.0151 156.601 78.8252 104.3 148.894 83.4529 98.1073 51.2687 141.009 70.8816 93.9197 133.712 75.0892 88.16 46.1001 126.337 63.0765 84.2097 119.289 67.5132 78.4483 40.7532 112.221 56.2102 74.7515 105.656 59.717 69.8078 36.0133 99.1833 49.3441 65.9502 92.7374 52.9159 61.3488 31.4667 86.6574 43.0562 57.8221 81.0019 46.2323 53.4049 27.3643 75.0802 37.198 49.8192 69.4195 40.1913 46.0272 23.2945 64.3952 31.5889 42.8386 59.5271 34.2994 39.3181 20.0162 55.0508 27.15 36.2215 50.3937 28.942 33.4693 16.5907 45.7227 22.1646 30.4906 41.5586 24.5564 27.4652 13.6222 37.3953 18.1186 24.7651 33.447 20.0162 22.2928 10.9505 30.3049 14.6003 19.8148 26.7492 15.9043 17.9588 8.46535 23.5849 11.3052 15.53 20.4914 12.4454 13.8413 6.47331 17.909 8.21797 11.6999 15.2513 9.39619 10.2127 4.52106 13.052 5.82207 8.39686 10.853 6.54756 7.23995 2.76606 8.70545 3.8654 5.91426 7.10104 4.37424 4.9219 1.95863 5.68966 2.5528 3.49906 4.61462 2.64293 3.12973 1.10392 3.56985 1.55964 2.35488 2.71266 1.66035 1.86653 0.605118 1.86808 0.936025 1.19178 1.70276 0.743242 1.16378 0.576305 1.48339 0.513045 0.882646 0.800587 0.688903 0.543584 121.69 300.991 267.068 206.259 353.865 195.015 104.5 129.304 78.2009 68.9353 190.264 104.814 176.016 240.219 192.836 323.588 289.562 216.32 323.914 165.481 110.414 290.76 164.658 217.386 194.72 327.224 282.384 216.347 318.575 167.86 112.396 291.989 162.469 214.979 183.289 315.837 267.284 208.209 304.794 163.672 109.848 275.237 155.862 207.025 170.931 297.988 249.416 196.163 286.246 154.811 104.185 256.921 145.913 194.571 158.292 276.632 230.432 182.301 264.929 143.882 96.6849 238.169 134.956 180.128 145.484 255.004 211.859 167.965 243.662 132.8 89.13 218.909 123.817 165.697 133.488 233.386 194.232 153.874 223.253 121.55 81.6793 201.178 113.805 151.78 122.402 213.917 177.869 141.231 204.425 111.433 74.8056 184.364 103.469 138.513 111.846 194.943 162.307 128.696 185.892 101.594 67.9602 168.445 94.184 126.327 101.822 177.306 147.448 116.847 168.643 92.0422 61.7747 153.546 85.6786 114.447 92.2564 160.721 133.797 106.16 153.189 83.829 56.2398 138.993 77.4406 103.972 83.6066 145.227 120.626 95.5819 137.512 75.2796 50.7331 126.115 69.701 93.5937 75.3294 130.599 108.866 85.8759 123.741 67.7719 45.4463 113.226 62.283 84.0187 67.953 116.63 97.0318 76.7443 109.959 60.082 40.3616 102.134 55.0296 74.5542 60.1549 103.392 85.9917 67.7608 96.7593 53.0809 35.6605 90.8046 48.7022 66.0975 52.9831 90.87 76.0742 59.8697 85.5371 47.0248 31.4073 79.8687 42.5295 57.9472 47.0321 79.6983 66.6292 52.4006 74.2245 41.0657 27.3754 70.6589 36.9335 50.389 40.6419 68.4018 57.6297 45.1982 63.6946 35.1955 23.5081 61.2438 31.7622 43.3229 35.2323 59.2636 49.474 38.7036 54.4095 29.9305 20.2 53.0873 26.9846 36.9812 29.9639 49.8635 42.0237 32.8758 45.682 25.3323 16.9266 45.2269 22.3698 31.0726 25.2923 41.3773 34.9722 27.2006 37.7273 20.7391 13.9581 38.0398 18.4204 25.6091 20.8698 33.9711 28.9665 22.3256 30.3857 16.9229 11.32 31.5547 14.6359 20.7293 16.9435 26.6769 23.1025 17.77 24.1088 13.525 8.7414 25.7224 11.2411 16.1018 13.6015 21.027 18.468 13.913 18.5382 10.2544 6.87376 20.5515 8.72407 12.6805 10.791 15.8805 13.8679 10.1972 13.3956 7.39111 5.02907 16.0426 6.1398 8.89921 7.87819 11.335 10.6894 7.34044 9.74669 5.15719 3.58511 11.6987 4.49705 6.8002 6.01414 8.09433 7.70571 5.1351 6.26648 3.42602 2.30336 8.94108 2.8528 4.34062 4.00766 4.97137 4.84799 3.28844 4.03115 2.09387 1.38967 6.39311 1.5647 2.61787 2.67354 2.86498 2.90726 1.89733 2.15484 1.07987 0.675945 4.05773 0.817675 1.44166 1.60926 1.87222 2.07074 1.07152 1.35325 0.64009 0.478345 2.21571 0.677475 1.0399 1.10061 1.33841 0.619115 0.952495 0.600624 0.623684 0.34912 1.70302 0.140582 0.375378 60.6484 137.097 146.013 95.7104 194.068 38.5824 33.626 96.3144 52.4222 130.066 124.797 241.625 202.418 161.691 246.506 190.78 167.567 136.05 249.109 204.113 164.488 242.674 204.715 165.397 130.39 235.963 191.301 154.893 226.6 195.577 155.036 120.837 219.503 176.815 143.841 209.756 181.453 143.662 111.418 202.875 162.663 132.874 193.772 167.095 132.331 101.979 186.188 149.421 122.202 177.933 153.831 121.521 93.5083 170.589 137.033 112.317 163.803 141.62 111.586 85.934 156.587 125.803 103.183 150.024 130.235 102.102 78.8375 143.456 115.758 94.5127 137.075 119.805 93.5079 72.5533 130.627 106.314 86.1861 125.107 109.677 85.1832 66.6393 119.62 97.1877 78.5215 113.691 101.094 77.3983 60.7172 108.171 88.5822 71.1689 103.313 91.8736 70.3344 55.5601 97.9682 80.6313 64.3203 93.0952 83.9014 63.2846 50.3387 88.3574 72.9957 58.3529 83.7073 75.9544 56.7139 45.1199 78.4125 65.649 51.8365 74.5687 68.1843 50.5751 40.6269 69.7318 58.695 46.0634 66.1549 61.7227 44.9881 36.4019 61.9881 52.2524 40.936 58.4194 55.2989 39.6015 32.4722 54.4157 46.4423 35.8528 51.4008 48.9664 34.6905 28.4335 47.3572 40.7385 31.3673 44.3827 43.2334 29.9045 25.0261 40.7901 35.4043 27.2021 38.1351 37.8849 25.5495 21.8063 34.799 30.7212 22.8787 32.3181 32.853 21.8102 18.841 29.2292 26.3749 19.317 27.1605 28.4709 18.2217 16.2592 24.7252 22.6687 16.3737 22.5463 24.5515 15.2162 13.6104 20.1057 18.7023 13.2527 18.3641 20.4832 12.1421 11.2861 16.1485 15.344 10.8414 14.7257 17.1111 9.73885 9.16489 12.8051 12.4677 8.40913 11.3631 13.779 7.75096 7.35491 9.79825 9.58773 6.55646 8.51663 11.0657 5.63113 5.69104 7.3049 6.94575 4.93879 6.2193 8.41048 3.8171 3.86511 4.91189 4.77586 3.3896 3.81347 5.95581 2.55001 2.45211 2.88378 2.53114 1.83948 2.17913 3.61614 1.40741 1.2928 1.8288 0.914844 1.34569 0.834542 1.93436 0.470254 29.3778 68.4462 86.9256 48.8073 112.773 18.7426 15.191 46.6417 24.562 75.5227 80.4478 152.191 133.315 101.618 160.611 121.503 109.302 92.1035 171.105 138.333 112.073 164.947 137.872 113.266 87.5493 162.662 128.75 105.852 153.731 130.96 105.891 79.4883 148.596 117.296 96.8088 141.299 119.2 97.3002 72.4116 136.171 107.335 88.8228 129.708 109.15 89.1716 66.2402 124.838 98.8539 81.7432 119.682 100.52 82.0395 61.185 114.72 91.4715 75.452 110.275 93.1616 75.3463 57.0205 105.771 85.6648 69.5374 102.157 86.6014 69.7205 53.3024 97.7591 79.6759 64.4839 94.4674 81.3257 64.3295 49.8236 90.4385 74.5131 59.6004 87.4494 75.9739 59.6201 46.846 83.634 69.4147 55.2376 80.7107 71.1653 54.6002 43.1441 76.7018 64.1843 51.0044 74.1581 66.0564 49.9014 40.3346 70.4388 59.8896 46.7161 68.2271 61.3918 46.1951 37.5326 64.9432 55.6696 42.7243 62.541 57.1814 42.3813 34.876 59.0321 51.1589 39.1615 56.8542 53.121 38.3743 32.126 53.8648 47.1599 35.8227 51.8583 48.9103 34.7677 29.5925 48.6268 43.3596 32.4025 46.8543 45.0869 31.4501 27.3181 44.1344 39.477 29.2582 42.3265 41.471 28.3681 24.7548 39.3374 35.8248 26.1564 37.5 37.6604 25.133 22.3771 34.9874 32.1628 23.4116 33.4238 34.1438 22.3459 20.1978 31.1771 28.8553 20.6678 29.4382 30.662 19.6889 18.0725 27.2805 25.6799 18.0812 25.8484 27.2165 17.3161 15.9733 23.8942 22.4837 15.9039 22.5008 24.3327 14.9081 13.9108 20.3746 19.3433 13.6956 19.1513 21.1371 12.6824 12.0753 17.4443 16.3972 11.7113 16.1468 18.2279 10.5313 9.95922 14.382 13.7272 9.62222 13.2326 15.1268 8.85869 8.42751 11.9735 10.9784 7.866 10.5303 12.5538 6.98157 6.50636 9.37872 8.6506 6.16628 7.84149 9.74701 5.36494 4.88459 6.58967 5.84309 4.38595 5.53264 7.12359 3.63456 3.06571 4.16918 3.30168 2.8134 2.95981 4.69218 1.93962 1.4506 2.09367 0.938831 1.36011 0.940571 2.26666 0.623133 21.5186 34.8692 73.1909 25.4352 73.5056 17.289 6.57318 33.4888 10.5861 49.0076 69.704 105.788 115.339 69.5709 112.582 103.125 76.4272 80.2783 121.24 118.587 78.4773 114.759 118.402 78.4051 74.6052 113.33 108.381 73.2812 105.423 110.504 72.0836 66.4433 101.59 97.36 65.8743 95.5325 99.1944 65.1425 59.5424 91.4675 88.3338 59.7837 87.4566 89.7792 59.308 54.5683 83.6957 81.6176 55.1241 81.0693 82.7418 54.6817 50.7727 77.8704 76.2029 51.4858 76.0656 77.2161 51.0436 47.7369 72.9629 71.6071 48.4083 71.8476 72.7289 47.9833 45.0931 68.9928 67.6166 46.0065 67.9632 69.0085 45.3399 42.7568 65.2761 63.995 43.4216 64.4156 65.2818 42.8859 40.5192 61.6356 60.4302 41.171 60.7912 61.9127 40.4376 38.393 58.0211 56.9211 38.8227 57.1791 58.5788 37.9268 36.1783 54.6909 53.4876 36.6687 53.9228 55.3635 35.6518 34.1651 51.4071 50.3478 34.4441 50.7408 52.0731 33.5691 32.1137 48.3339 47.1021 32.4435 47.3912 48.9221 31.2981 29.9964 45.0161 44.0217 30.2108 44.1267 45.7945 29.2322 28.0813 41.9368 40.921 28.1313 41.1296 42.706 27.169 26.0679 39.0025 37.7543 26.2339 38.1177 39.6404 25.1005 23.9878 35.7214 34.5409 24.1097 34.7991 36.5992 22.9292 21.9948 32.8694 31.636 22.131 31.8506 33.5485 20.9915 20.0172 29.8034 28.5657 20.0674 28.8215 30.5355 18.9875 18.122 26.9795 25.7187 18.1101 25.8303 27.5266 17.027 16.0693 23.9065 22.8084 16.183 22.9284 24.4993 15.1892 14.3671 21.2484 19.9467 14.3109 19.9676 21.7234 13.1291 12.2642 18.2462 17.0092 12.2335 17.0444 18.6725 11.2707 10.522 15.4109 14.2232 10.3507 14.1908 15.9511 9.4278 8.66747 12.6926 11.2781 8.5088 11.4923 13.0882 7.45916 6.70305 9.89418 8.63048 6.69257 8.92289 10.1979 5.85127 4.91867 7.47619 6.01022 5.02291 6.34746 7.66766 4.06265 3.12831 4.68225 3.47593 3.24698 3.48997 5.03608 2.32743 1.51022 2.26252 0.995168 1.5854 1.12054 2.38607 0.64119 39.8422 41.3225 105.665 31.1215 84.8681 34.3544 10.32 61.6579 18.9499 54.5424 95.621 115.483 153.098 76.947 124.481 140.953 82.3455 108.274 131.867 156.764 86.8149 126.777 159.214 84.0358 102.399 124.068 145.598 81.5324 116.552 151.088 77.2853 93.226 111.75 132.368 73.7856 105.799 137.69 69.667 84.6835 101.137 120.656 67.1725 96.7902 125.73 63.4204 77.4993 92.8138 110.903 62.0003 89.682 115.507 58.5203 71.7513 86.2093 102.652 57.691 83.7564 106.989 54.4755 66.1999 80.5134 95.2594 54.0855 78.5684 99.1617 51.1114 61.8007 75.5668 88.4715 50.7859 73.9129 92.3783 47.8926 57.0264 70.9881 82.0988 47.8072 69.4044 85.9299 45.1908 52.8513 66.5673 76.0425 44.9169 65.3791 79.625 42.5322 49.1032 62.6411 70.3704 42.2838 61.2606 73.9904 39.7652 45.2671 58.5226 65.0311 39.5428 57.4074 68.3137 37.2833 41.789 54.8627 59.9114 37.0041 53.6842 63.105 34.9418 38.3526 51.1549 55.0902 34.4541 49.7232 58.0561 32.5371 35.3212 47.5288 50.3261 31.9475 46.4249 53.2757 30.2977 32.25 44.1408 46.0386 29.8084 42.8991 48.7274 28.0045 29.3278 40.6626 41.8063 27.3794 39.3819 44.3854 25.8097 26.5903 37.1972 37.667 25.0871 35.9267 40.3065 23.5373 23.8409 33.9891 33.937 22.8105 32.7612 36.294 21.5361 21.4475 30.7211 30.1239 20.6921 29.4665 32.3827 19.3473 19.0125 27.6954 26.6654 18.5591 26.3255 28.7769 17.4538 16.6206 24.4596 23.0874 16.4438 23.3231 25.3669 15.2812 14.3351 21.5375 19.9408 14.524 20.3952 21.8927 13.4441 12.3114 18.4809 16.7691 12.4571 17.2635 18.6569 11.333 10.1971 15.657 13.8269 10.5897 14.4926 15.6437 9.52152 8.42085 12.8513 11.174 8.59005 11.5656 12.63 7.63079 6.58798 10.0671 8.55342 6.6409 8.76303 9.87311 5.96146 4.77236 7.29439 5.85971 4.84078 6.35712 7.20376 4.09418 3.06103 4.75175 3.48571 3.31538 3.72747 4.80974 2.42442 1.75132 2.30003 1.24969 1.58218 1.10326 2.41599 0.689207 77.4706 83.7846 169.206 61.3657 137.832 68.0109 24.986 118.881 42.1985 87.6577 144.015 173.354 223.293 116.752 184.257 213.58 120.402 155.891 192.236 226.393 128.304 187.776 231.233 123.52 149.382 183.832 212.916 122.515 176.189 221.306 115.865 138.252 169.738 196.454 112.9 161.786 204.923 106.421 127.155 155.209 180.244 103.529 148.456 188.298 97.2542 116.622 142.34 165.638 95.2494 136.572 173.392 89.2162 107.304 131.107 151.991 87.8098 126.281 159.477 82.3615 98.2532 120.856 139.808 81.0081 116.502 146.493 75.9922 90.4474 111.632 128.028 75.006 107.711 134.984 70.1199 83.0151 102.918 117.747 69.1923 99.1084 123.653 64.5318 75.7868 94.4909 107.367 63.5965 91.0372 113.189 59.3287 69.192 86.6691 97.8031 58.3152 83.498 103.355 54.3082 62.7492 79.4083 88.7767 53.4047 76.2963 94.073 49.8436 56.8543 72.4358 79.8945 48.8162 69.7228 85.0997 45.4484 51.1603 65.8606 72.0755 44.3317 63.0473 76.8669 41.2712 45.9551 59.8274 64.1998 40.1613 57.0397 69.0253 37.2482 40.7944 53.7355 56.8825 36.0308 51.4162 61.1675 33.6491 36.2075 48.4888 50.4753 32.5444 46.0644 54.1674 30.2235 31.6939 43.1761 44.0142 29.0812 40.9684 47.9369 26.8474 27.9618 38.2419 38.6454 25.779 36.535 41.8284 23.8188 24.1254 33.9287 33.0938 22.9698 31.8485 36.4623 20.7841 20.4664 29.4825 28.2563 19.7926 27.8021 30.9297 18.2509 17.4796 25.5075 23.892 17.2279 24.0228 26.3815 15.7144 14.5675 21.776 19.8425 14.7449 20.2999 22.1356 13.4176 12.1073 18.396 16.2773 12.2835 16.7448 18.1041 11.0639 9.58233 14.9181 12.722 10.0091 13.6378 14.3866 8.94974 7.40398 11.8564 9.65583 7.99251 10.6143 11.4971 7.06153 5.54741 9.24105 7.23906 6.1686 8.14624 8.43188 5.47167 4.04475 6.72398 4.83562 4.45039 5.56694 6.16729 3.71232 2.42584 4.15685 2.80219 2.82232 3.31083 3.79985 2.11543 1.4133 2.26786 1.09487 1.50061 1.23256 2.22814 0.854465 147.741 164.458 259.424 115.426 215.759 135.336 55.9025 221.688 88.6222 137.823 203.827 256.029 305.658 173.28 264.553 303.835 172.75 209.069 270.459 304.487 181.297 265.47 311.992 174.821 200.79 259.892 288.863 173.487 250.958 298.921 165.449 187.993 241.875 268.353 161.245 231.993 279.75 152.965 174.003 223.205 248.24 148.665 213.845 258.679 140.985 160.591 205.299 228.491 137.028 197.09 238.854 129.499 147.659 188.801 209.798 126.23 180.936 219.834 119.003 135.359 173.208 192.344 115.575 165.938 201.574 109.134 124.119 158.916 175.84 106.369 152.058 184.997 99.8511 112.966 145.284 159.455 96.9698 138.702 168.789 91.2423 102.539 132.435 145.235 88.4397 126.489 153.102 83.2149 93.2078 120.088 130.954 80.2526 114.659 138.948 75.1251 83.7916 108.753 117.681 73.0249 103.578 125.456 67.8717 75.0961 98.0009 105.273 65.6054 92.6165 112.502 60.7384 67.093 87.236 93.799 58.4265 82.9612 99.8246 54.4424 59.5285 78.0882 82.7602 52.2775 73.4292 88.9025 48.2447 52.4187 68.8651 72.2222 45.9611 64.6902 78.225 42.3674 45.4184 60.4117 62.5458 40.1558 56.4654 67.8526 37.2161 39.1428 52.4954 53.8166 35.1973 49.0719 58.4769 32.1502 33.5428 45.3192 45.9794 30.0979 42.0957 50.1701 27.9404 28.3361 38.8172 38.3125 25.7915 35.618 42.4976 23.661 23.2376 32.5738 31.2387 21.8201 29.8013 35.1575 19.7639 19.0352 27.1869 25.5549 18.0757 24.9639 28.6076 16.4772 15.207 22.2451 19.9469 14.8692 20.0934 22.9228 13.3613 11.7618 17.7413 15.1573 11.7855 16.027 17.7962 10.74 9.03067 13.9915 11.2083 9.34644 12.3052 13.8402 8.09393 6.39633 10.4684 7.95827 7.10521 9.10897 9.75789 5.99984 4.36419 7.47904 5.4765 4.97165 6.43744 6.57347 4.30475 2.81241 5.23246 3.40122 3.51026 4.25568 4.30463 2.78455 1.58901 3.0512 2.12627 1.99385 2.61135 2.42333 1.74675 1.06104 1.97148 0.84565 1.36546 1.15132 1.79503 0.808071 133.383 326.266 174.074 219.671 315.956 65.7858 126.114 193.509 192.655 205.766 122.996 345.991 177.335 231.461 349.764 182.145 229.646 123.517 349.342 177.413 233.859 345.163 183.492 227.463 120.712 337.112 171.162 225.022 328.273 177.833 216.588 114.492 317.562 160.969 211.672 306.441 168.176 202.466 106.902 295.491 149.611 196.922 283.961 156.995 187.611 98.8583 272.864 138.011 181.792 261.389 145.22 173.002 91.0473 251.309 126.84 167.214 240.759 133.605 159.019 83.55 230.284 116.195 153.561 220.401 122.769 145.429 76.3973 210.667 106.225 140.738 201.582 112.403 132.929 69.698 192.02 96.5112 128.365 183.149 102.668 120.577 63.3119 174.205 87.882 116.17 166.028 92.9237 109.56 57.3556 157.791 79.4815 105.11 149.812 84.3173 99.2109 51.7492 142.053 71.1605 94.472 134.602 75.8879 88.8434 46.334 127.322 63.8254 84.8164 120.08 68.0614 79.3057 41.1211 113.175 56.4458 75.1366 106.567 60.2697 70.3601 36.2705 99.77 49.5818 66.5055 93.4665 53.2744 61.4986 31.6852 87.3332 43.4419 58.3408 81.8562 46.4398 53.8804 27.5969 75.6515 37.4292 50.3843 70.1328 40.4538 46.2492 23.5981 64.8887 32.0782 43.0649 60.093 34.444 39.6873 19.9642 55.1754 26.8785 36.5575 50.6319 29.4101 33.5454 16.7786 46.2457 22.5407 30.7196 42.1447 24.4273 27.7571 13.7331 37.8708 18.2821 25.2464 33.9795 20.2327 22.3938 10.9016 30.2382 14.5035 20.0996 27.1775 16.0664 18.0322 8.52977 23.8999 11.2608 15.816 20.546 12.6494 13.7184 6.40523 17.9348 8.40883 11.6872 15.3023 9.29014 10.2041 4.47952 12.8849 5.79636 8.67642 10.9823 6.68719 7.15621 3.06476 8.89984 3.9923 5.86803 7.31875 4.44245 4.9307 1.73846 5.57346 2.46034 3.55855 4.68789 2.63954 3.2832 1.22292 3.67033 1.61955 2.21642 2.64747 1.72885 2.02762 0.607314 2.00374 0.82505 1.30809 1.77283 0.925822 1.14864 0.421354 1.4056 0.519149 0.905975 0.721955 0.631949 0.545725 122.544 299.137 265.495 205.068 351.94 192.482 103.808 128.071 79.5368 69.3073 193.184 107.988 176.208 238.653 191.8 324.523 287.452 218.03 324.207 167.932 111.277 289.176 164.384 217.32 192.743 326.019 279.414 214.795 315.239 167.206 112.077 287.911 161.313 213.966 180.996 313.231 263.089 205.37 300.061 161.507 108.989 270.183 153.874 204.785 168.114 293.944 245.56 192.633 280.939 152.195 102.683 251.073 144.086 192.181 155.97 273.49 227.66 179.212 260.68 141.785 95.5464 233.205 133.124 178.035 143.658 252.015 209.184 165.08 240.293 130.621 88.1682 215.448 122.451 163.883 131.972 231.047 192.263 151.796 220.597 119.804 80.7765 198.52 112.433 150.262 120.994 211.764 176.449 139.532 201.97 110.125 73.9471 182.317 102.591 137.386 111.059 193.708 161.061 127.329 184.475 100.541 67.7215 167.112 93.4774 125.345 100.876 175.634 146.535 116.002 167.686 91.5208 61.2605 152.048 84.8822 113.692 91.6764 159.633 132.983 105.24 152.079 83.0434 55.7279 138.579 76.8737 103.309 83.1017 144.072 119.836 95.2419 136.939 74.8153 50.2106 125.633 69.025 92.6241 74.6575 129.329 108.067 85.3081 123.136 67.3308 45.0763 113.094 62.0813 83.6425 67.266 115.85 96.6657 76.7877 109.655 60.2925 40.0714 101.783 55.0381 74.2691 60.0199 102.966 85.6204 68.0152 97.1065 53.1852 35.6866 90.7131 48.5469 65.4354 52.854 90.5479 75.9287 59.933 85.2251 47.0503 31.3654 80.0086 42.4332 57.8258 47.0459 79.4818 66.5983 52.1385 74.2755 40.7109 27.4023 70.8088 36.9393 50.3407 40.6615 68.3601 57.2449 45.2643 63.9003 35.1297 23.445 61.5098 31.8307 43.2217 35.0781 58.4981 49.5199 38.9087 54.6152 30.1064 20.0224 53.1753 26.5336 36.5074 29.9901 49.3602 41.9261 32.8539 45.7007 25.1458 16.6922 45.6925 22.3461 30.7355 25.1891 41.0651 34.9017 27.3209 37.6532 20.8101 13.9045 38.3082 18.1992 25.3041 20.9273 33.6899 28.9578 22.2453 30.515 16.9436 11.2616 31.697 14.6534 20.5641 17.1026 27.0054 23.6494 17.7534 24.2748 13.239 8.91009 26.041 11.4936 16.494 13.9694 21.0907 18.8234 13.8541 18.5089 10.3292 6.70832 21.0594 8.659 12.4954 10.7261 15.6099 14.1987 10.4917 13.8353 7.47908 5.02201 16.3033 6.04807 8.89154 8.12318 11.07 10.4026 7.51044 9.43836 5.36169 3.33986 12.5158 4.23812 6.3129 5.85986 7.75658 7.48541 5.22597 6.60869 3.50814 2.37771 8.97539 2.76683 4.20289 4.29338 4.84836 5.37636 3.37875 3.94618 1.97327 1.3325 6.73722 1.62526 2.7764 2.89993 3.0777 3.09055 1.94337 2.03141 1.0771 0.672882 4.36801 0.884685 1.47584 1.49309 1.78207 1.65321 1.10347 1.57205 0.745296 0.456306 2.26378 0.698274 0.867713 0.985498 1.35764 0.749804 0.952185 0.600737 0.720965 0.376656 1.72679 0.163643 0.415147 61.9506 139.208 144.62 98.5447 194.48 39.8541 35.0332 100.393 57.3471 129.656 123.053 240.117 198.788 160.272 242.69 187.581 165.761 133.009 245.297 199.479 160.93 236.9 198.693 162.613 127.316 231.6 187.26 150.806 220.772 189.38 151.968 118.104 215.132 172.957 139.963 204.675 176.145 140.963 108.755 198.89 159.91 129.874 189.743 163.002 130.391 100.521 183.443 147.785 120.062 175.168 151.074 119.863 93.0301 168.869 136.478 110.645 161.728 140.132 110.499 85.6129 155.154 125.509 102.071 148.458 129.539 101.118 78.7894 142.176 115.647 93.9173 136.663 119.447 92.6937 72.4814 129.982 106.02 85.7765 124.502 110.236 84.6277 66.4792 118.303 96.982 78.3358 113.617 100.781 76.852 60.4866 107.532 88.4776 71.1665 103.175 92.2943 69.8412 55.389 97.347 80.6201 64.6858 93.2406 84.5084 63.0522 50.443 88.0617 73.1688 58.0966 83.8677 76.6136 56.6997 45.2624 78.683 65.7871 52.2226 74.8634 69.2574 50.5196 40.8073 69.8947 59.0096 46.3471 66.6783 62.248 44.8306 36.755 62.1326 52.9637 41.4254 59.0316 56.0144 39.6239 32.6821 54.4473 46.7829 36.221 51.5788 49.9748 34.5264 28.9695 47.5667 41.3387 31.5043 45.1161 44.0084 30.2837 25.4499 41.4224 36.1392 27.5743 39.0567 38.9618 25.9844 22.0346 35.0319 31.2249 23.5708 32.9084 33.9418 21.8055 19.2027 29.4125 26.9998 19.6108 27.8456 29.1822 18.4108 16.6333 24.9049 23.1006 16.9509 23.2416 25.3 15.3868 13.9061 20.4904 19.0924 13.7669 19.1333 21.3409 12.4944 11.7346 16.6994 15.8319 11.0978 15.264 17.7697 10.084 9.46406 13.1976 12.541 9.06607 11.7868 14.6298 7.60653 7.52009 9.90694 9.81458 6.70577 8.84514 11.4555 5.76745 5.73924 7.57621 7.22622 5.18049 6.78937 8.87717 4.42126 4.15273 5.35251 4.80854 3.56506 4.17662 6.23159 2.63961 2.45654 2.86487 2.76014 1.91308 2.25415 3.76022 1.35571 1.29032 1.76788 0.914376 1.41605 0.94456 2.11598 0.49428 28.7997 69.7258 83.2799 50.3936 110.22 17.983 16.3466 46.26 27.5955 74.1732 77.2709 148.874 128.464 98.0854 154.438 114.283 106.601 88.4881 166.035 133.515 107.192 157.772 130.216 110.009 84.396 157.611 124.825 101.489 148.245 124.553 103.177 77.1322 144.928 114.757 93.6847 136.856 115.247 94.9369 70.91 132.83 105.933 86.3399 127.189 106.615 87.4358 65.7171 122.793 98.5903 80.4344 118.209 99.8569 81.0919 61.1811 114.091 91.8925 75.0455 110.487 93.765 75.0145 57.1688 105.121 85.9832 69.8647 102.865 87.9462 69.5669 53.8462 97.9972 80.4909 65.0865 95.5989 83.0792 64.307 50.3484 90.6079 75.4239 60.6392 88.8604 77.7943 59.5511 47.4018 84.0937 70.5464 55.975 81.9696 73.134 55.1362 44.0507 77.2132 65.5092 51.5761 75.1659 68.3243 50.3831 41.0407 70.94 60.9933 47.5014 69.5403 63.4697 46.4374 38.1648 65.1419 56.3613 43.8118 63.8874 59.1828 42.4221 35.5892 59.5942 52.3961 40.08 58.0818 55.0545 38.6151 32.8716 54.3746 48.1957 36.6023 52.9028 50.8319 35.0626 30.3248 49.326 44.373 33.1188 48.1365 46.6752 31.8927 27.8463 44.8017 40.4523 30.2062 43.6963 43.0087 28.6171 25.4125 39.9489 36.6674 26.9877 38.8439 39.2795 25.5142 23.0634 35.7263 33.034 24.3102 34.7723 35.5647 22.726 20.6507 31.7817 29.5673 21.5785 30.8603 32.1428 20.1539 18.4998 28.0406 26.2515 18.9941 27.1322 28.6801 17.712 16.4838 24.6227 23.2522 16.7844 23.79 25.4468 15.359 14.4618 21.0434 20.1834 14.4373 20.1712 22.3118 13.0093 12.495 17.9108 17.188 12.1981 16.8188 19.1268 10.9536 10.399 14.7254 14.0303 10.2083 14.069 16.0917 8.93342 8.54439 12.0347 11.1686 8.38029 11.1132 13.2358 7.10562 6.64818 9.38356 8.48516 6.46343 8.39873 10.2834 5.34281 4.77545 6.75288 6.02731 4.59905 5.68584 7.49135 3.79456 3.24875 4.32408 3.32043 2.96459 3.32679 5.01657 2.18865 1.45186 2.21167 0.931853 1.67853 1.09216 2.50521 0.575009 20.0117 31.9063 69.5398 22.2783 66.5716 16.8484 5.78503 29.731 9.72945 46.1849 66.7338 100.395 110.764 63.9358 103.783 95.5678 72.7761 77.1605 115.68 114.599 72.6429 107.279 110.607 75.2209 72.3385 109.189 105.892 69.0399 100.595 105.105 69.8109 65.2588 98.6693 96.4481 63.4376 93.2246 96.486 63.7448 59.5276 90.2405 88.6685 58.9731 87.314 89.5952 58.8343 55.1486 83.8884 82.7462 55.6865 82.491 84.1722 54.9697 51.8089 78.603 77.8824 52.6788 78.2605 79.85 51.7188 49.0862 74.3709 73.6312 50.2098 74.4697 75.874 48.7965 46.6523 70.5039 69.7663 47.8043 70.6702 72.2518 46.3012 44.1309 66.7179 66.0542 45.3473 67.1739 68.537 43.8264 42.0028 63.5069 62.4571 43.2344 63.7501 65.2478 41.4708 39.6864 59.7372 58.9076 40.8281 60.0145 61.6854 39.0226 37.5987 56.3831 55.5429 38.4941 56.5251 58.2705 36.6816 35.4092 53.0279 52.103 36.2227 53.1933 54.852 34.4954 33.289 49.7743 48.8234 34.0694 49.8127 51.6121 32.2354 31.1785 46.5955 45.4776 31.8901 46.4998 48.2796 30.1017 29.0147 43.3457 42.3272 29.6292 43.1968 44.9983 28.0751 27.0679 40.2996 39.1372 27.4715 39.9101 41.8591 25.8983 24.9841 37.0903 35.9748 25.4761 36.8105 38.6235 23.7092 22.8873 33.9624 32.7926 23.3134 33.4821 35.49 21.6812 20.9101 30.8035 29.7999 21.1495 30.3346 32.297 19.618 18.8794 27.8269 26.6473 19.0674 27.2152 29.2051 17.5583 16.819 24.9502 23.6569 17.0688 24.1594 25.9975 15.654 14.7243 21.8949 20.6426 15.0529 21.325 22.8494 13.7362 12.8129 19.1219 17.5616 13.122 18.1774 19.9891 11.736 10.8122 16.0316 14.6708 11.0688 15.0502 16.8814 9.66368 8.94718 13.0703 11.8826 8.95195 12.057 13.8749 7.76558 7.03909 10.3189 9.19472 7.05811 9.31143 10.9111 6.07441 5.37109 7.67126 6.55897 5.19519 6.47174 8.20177 4.25579 3.62959 5.15729 3.70954 3.48601 3.77655 5.52187 2.39025 1.57665 2.29257 1.13599 1.61133 1.13154 2.47366 0.712225 42.0997 41.412 105.775 31.0307 80.7407 37.2519 11.5808 65.9065 22.7116 52.7602 94.8831 112.217 151.095 73.1751 118.143 138.29 79.7572 106.868 128.389 154.948 82.4224 121.204 154.494 82.0883 101.17 121.371 144.375 78.5671 113.332 147.34 75.9543 92.6294 110.661 132.125 72.5446 105.006 136.086 69.4555 84.916 101.529 121.294 67.4731 97.9807 125.861 63.8849 78.3593 94.0985 112.585 63.191 91.9069 116.949 59.4659 72.7489 87.9113 104.219 59.6509 86.8036 109.339 55.7642 67.4935 82.7535 97.1423 56.3257 81.9446 101.991 52.6043 63.0076 77.9874 90.5169 53.1538 77.3202 95.4193 49.5762 58.699 73.3656 84.2974 50.0812 72.8565 88.9687 46.6634 54.3814 68.9549 78.0987 47.222 68.4896 82.8249 43.9527 50.4037 64.9165 72.5978 44.3793 64.3725 76.5685 41.2688 46.781 60.8738 67.1336 41.5513 60.4445 71.1437 38.8022 43.2137 56.9405 61.7791 38.9455 56.3593 65.935 36.195 39.7298 52.9547 56.7316 36.3002 52.6311 60.6431 33.6937 36.3858 49.2597 51.9818 33.8457 48.7893 55.7751 31.362 33.4231 45.6816 47.5603 31.262 45.1112 51.1495 28.9745 30.4577 42.0469 42.9318 28.8953 41.5295 46.6115 26.6475 27.4351 38.6085 38.994 26.4899 37.9541 42.0976 24.447 24.7875 35.2322 34.891 24.2023 34.5587 38.0964 22.2393 22.0515 31.9236 31.0421 21.8715 31.244 33.8694 20.0858 19.6283 28.6738 27.4465 19.7517 27.994 30.2926 17.9299 17.2325 25.3761 23.8869 17.551 24.7159 26.7138 15.92 14.8695 22.3738 20.6957 15.3918 21.5546 23.0048 13.8815 12.8094 19.3209 17.4877 13.2693 18.3259 19.8769 11.8522 10.752 16.2964 14.39 11.2179 15.2997 16.5545 9.8249 8.66026 13.2975 11.4629 9.10328 12.389 13.2758 8.02325 6.71009 10.48 8.59167 7.21536 9.45564 10.5556 6.06083 4.82863 7.76836 6.17547 5.41078 6.73901 7.71765 4.47915 3.45458 5.40302 3.87075 3.52948 3.96428 5.22573 2.64379 1.78613 2.50335 1.23635 1.69046 1.19885 2.75993 0.764969 81.4097 87.804 172.372 65.4957 139.695 71.7142 27.323 127.194 48.924 88.7421 145.334 173.692 223.762 116.743 182.451 215.193 119.963 156.172 191.516 226.17 126.468 184.995 229.714 122.87 148.843 182.924 212.144 120.542 173.887 218.825 115.576 137.746 169.084 195.789 112.015 160.965 202.792 106.267 126.855 155.535 180.48 103.398 148.908 187.645 97.5086 116.945 143.217 166.65 95.8094 138.349 173.306 90.381 108.083 132.868 153.676 89.4231 128.309 161.063 83.452 99.3947 122.474 141.068 82.4165 118.783 148.496 77.1258 91.5513 113.547 130.029 76.411 109.984 136.812 71.354 84.1012 104.962 119.192 70.8462 101.776 125.802 66.0168 76.8487 96.5859 108.982 65.4196 93.7535 115.428 60.6743 70.3395 88.6469 99.5054 59.8868 85.7735 105.501 55.7127 63.9077 81.4292 90.0621 55.1066 78.7195 96.2583 50.9344 57.7937 74.3053 81.7247 50.3411 71.8946 86.9613 46.6243 52.3865 67.7202 73.641 45.83 65.3653 78.7176 42.3186 47.0853 61.3399 65.6516 41.5716 59.1559 70.7003 38.2575 41.7306 55.251 58.3592 37.6533 53.3912 63.1015 34.4376 36.9622 49.8376 51.3302 33.7861 47.9264 55.8289 30.9322 32.3733 44.3917 45.2177 30.0513 42.495 49.2742 27.6724 28.3976 39.5533 39.4131 26.751 37.8512 42.7819 24.5892 24.6913 34.8056 34.2102 23.568 33.0831 37.342 21.4808 21.1435 30.4154 29.0004 20.654 28.9911 32.3177 18.8251 17.9112 26.543 24.5626 17.9528 25.0304 27.5201 16.302 15.1723 22.4846 20.5339 15.2135 21.0566 23.0474 13.7938 12.314 18.9613 16.627 12.962 17.8181 19.0044 11.4946 9.94277 15.6677 13.1633 10.7873 14.5545 15.4669 9.35372 7.88331 12.3516 10.1079 8.47606 11.22 12.2891 7.28117 5.71354 9.43202 7.37457 6.45243 8.36374 9.00021 5.5394 4.11695 6.81922 5.07786 4.63465 5.7207 6.41876 3.86232 2.60308 4.42594 3.14485 3.02148 3.63169 4.05538 2.26174 1.5511 2.3264 1.13639 1.6803 1.30866 2.20572 0.746239 150.484 169.008 263.94 120.246 221.145 136.848 57.3957 228.397 93.5815 140.387 206.654 259.576 309.131 175.371 265.771 308.302 174.264 210.599 271.772 305.661 181.133 264.302 312.913 175.137 201.055 259.782 288.904 172.149 248.393 297.761 165.104 188.069 241.446 268.524 159.519 230.249 277.861 152.726 173.929 222.656 248.12 147.815 213.389 257.604 141.016 160.919 205.929 229.438 137.038 197.485 238.665 130.157 148.407 189.955 210.829 126.703 182.183 220.594 119.766 136.067 174.462 193.131 116.71 167.347 202.749 109.672 124.919 160.043 176.98 107.118 153.682 186.034 100.727 113.895 146.648 161.16 98.2001 140.735 169.937 91.974 103.584 133.493 146.186 89.9254 128.327 154.98 84.0139 93.9873 121.726 132.186 81.5987 116.612 140.575 76.1581 84.8933 110.25 119.314 74.0741 105.066 126.754 68.7518 76.1861 99.0026 106.484 66.4456 94.4711 113.707 61.7122 67.6422 88.9269 94.7208 59.8266 84.5032 101.411 55.362 60.1517 79.4984 83.6004 53.2571 75.0746 89.9259 49.0193 52.6127 69.8109 73.2329 46.9372 66.1966 78.922 43.3601 46.125 61.4862 63.2895 41.251 57.7266 69.1254 37.6751 39.4042 53.5141 54.6116 35.9441 50.2346 59.576 33.1761 34.2567 46.3747 46.6362 30.8312 42.9908 50.9985 28.1706 28.6978 39.2042 38.5446 26.4287 36.4634 42.9622 23.8437 23.5978 33.282 31.9361 22.4864 30.9082 35.6428 20.1688 19.3568 27.6777 25.9348 18.8204 25.418 29.3255 16.7062 15.5832 22.8735 20.3646 15.1849 20.7279 23.372 13.678 12.0388 18.2295 15.6084 12.2978 16.389 18.3204 10.6926 9.30827 14.3102 11.813 9.6554 12.6861 13.9781 8.35394 6.68328 11.1373 8.24899 7.43202 9.75464 10.1353 6.36193 4.47929 7.73796 5.50967 5.27497 6.81537 6.83083 4.40545 2.90632 5.40315 3.3424 3.53091 4.41199 4.64432 3.05297 1.60536 3.28753 2.1723 2.18084 2.89892 2.61268 1.86103 1.28885 2.22831 1.09856 1.4421 1.15907 1.80782 0.78719 132.327 327.232 175.128 221.504 324.516 64.9321 125.132 192.029 191.28 209.084 124.718 351.318 179.76 236.591 354.913 186.132 232.6 125.14 352.87 178.893 236.216 346.652 185.997 228.94 121.23 338.255 171.982 224.959 327.112 178.547 217.352 114.947 318.077 161.029 210.982 305.426 168.439 202.465 106.957 295.423 149.856 196.325 283.534 156.627 187.774 99.1317 273.375 138.152 181.729 262.049 145.154 173.223 90.9677 251.526 127.125 167.774 241.342 133.804 159.443 83.9231 231.393 116.679 154.258 221.402 123.32 146.013 76.8257 211.883 106.875 141.412 202.993 112.77 133.668 70.1468 193.373 97.3847 128.918 184.706 103.037 121.764 63.6876 175.749 88.3114 117.306 167.307 93.67 110.305 57.7913 158.77 79.9323 105.878 150.941 84.6595 99.5918 51.9343 142.982 71.5361 95.2583 135.876 76.2501 89.4794 46.5857 128.454 64.3755 85.67 121.365 68.4804 80.1702 41.5106 113.997 56.8331 75.8584 107.269 60.9519 70.8075 36.665 100.842 50.1128 67.1105 94.7119 53.706 62.3759 32.0481 88.2882 43.9509 58.8134 82.4796 47.1625 54.5504 27.8315 76.6694 37.9203 51.144 71.0486 41.0445 47.0514 23.7855 65.4471 32.3164 43.5032 60.6542 34.9181 40.0655 20.2649 56.0047 27.3179 37.0121 51.4656 29.7159 34.0864 16.8533 46.8397 22.6343 31.172 42.5646 24.9255 28.0314 13.8575 38.236 18.5571 25.4438 34.6117 20.2755 22.819 11.121 30.8993 14.8599 20.4248 27.477 16.3167 18.2347 8.71405 24.0956 11.2662 16.0256 21.0098 12.7934 13.7884 6.39202 17.9887 8.3793 11.9615 15.7606 9.33981 10.2202 4.70469 13.5117 6.13854 9.02975 11.4252 6.8943 7.52234 3.1537 9.1909 4.21413 5.97049 7.3683 4.49325 5.07035 1.89002 5.78444 2.48545 3.59814 4.61301 2.72587 3.21788 1.20755 3.49383 1.39972 2.22109 2.52899 1.61599 1.62501 0.52891 1.68413 0.888016 1.02511 1.72063 0.695683 1.26692 0.459663 1.6304 0.467454 1.11265 0.943005 0.719287 0.557431 129.666 304.613 265.631 213.499 353.243 194.702 107.952 129.104 88.4792 74.2488 212.019 124.532 176.59 237.461 191.149 327.773 283.54 217.965 319.328 168.51 112.9 285.954 162.926 217.321 188.382 322.023 272.302 208.304 305.17 162.845 110.945 275.763 158.053 210.736 175.547 306.279 255.895 197.669 289.726 155.879 106.615 257.881 150.141 200.468 163.047 287.017 238.964 186.222 272.444 147.269 100.308 241.458 140.458 187.857 151.473 266.901 222.568 173.955 254.402 137.61 93.4313 226.005 130.463 174.668 140.788 246.856 205.9 161.52 235.757 127.691 86.4705 210.646 120.624 161.131 130.263 227.648 190.223 149.49 217.667 118.458 79.6257 195.353 110.747 148.051 119.905 209.232 175.023 137.75 200.376 108.837 73.1096 180.695 101.698 136.164 110.028 191.494 160.138 126.395 183.175 99.6525 66.7686 166.464 92.817 124.187 100.64 174.794 146.153 115.427 166.962 90.9091 60.9024 152.238 84.3861 113.332 91.4673 158.712 132.745 104.977 151.454 82.9119 55.2832 138.789 76.3346 102.328 82.9659 143.312 120.129 94.8321 136.538 74.7734 49.931 125.578 68.696 92.4609 74.8125 129.125 108.225 85.1201 122.653 66.9472 44.9862 113.456 61.5654 83.0704 67.3848 115.582 96.9292 76.2738 109.498 59.7974 40.0598 102.165 54.7761 74.1969 59.8675 102.286 86.0115 67.7306 96.6797 53.0303 35.3331 90.9917 48.2231 65.4425 53.3521 90.6478 76.165 59.6609 85.3571 46.717 31.3178 80.9078 42.4869 57.7731 46.8471 78.9394 66.6628 52.3105 74.2966 40.5359 27.1458 71.2582 36.924 50.1053 40.7893 68.6792 58.0261 45.5471 64.3561 35.4836 23.5575 62.2964 31.5283 43.1847 35.2726 58.5745 50.0513 38.8216 54.6897 29.973 19.9966 53.8704 26.6557 36.8951 30.6979 49.7767 42.6678 32.888 45.6347 25.0346 16.6453 46.6846 22.342 30.9868 25.7689 41.3609 35.815 27.3616 38.181 20.9981 13.8529 39.1164 18.4292 25.5195 21.4263 34.0167 29.3813 22.6776 30.9303 17.1683 11.3566 32.8358 14.7543 20.6021 17.3337 26.9113 24.1545 17.9145 24.6828 13.298 8.89116 26.9574 11.3606 16.3493 14.3368 21.2319 19.0636 14.3507 19.2747 10.5616 6.85105 22.2748 8.81811 12.7362 11.0567 15.8179 14.7623 10.7024 14.0279 7.71458 4.86986 17.2887 6.34475 9.2997 8.69267 12.0145 11.209 8.11985 10.4695 5.63034 3.70954 13.4507 4.43606 6.58835 6.29663 7.78275 7.79374 5.44045 6.77917 3.7215 2.22838 10.0308 2.63205 4.16825 4.57497 4.93904 5.68178 3.36102 4.28541 2.13828 1.28929 6.87349 1.75761 2.73313 3.00203 3.18237 3.15075 2.18662 2.37522 1.19255 0.771894 4.74706 0.82148 1.36502 1.51618 1.63639 1.95112 1.2728 1.39917 0.692932 0.456805 2.55909 0.804373 1.07703 1.20417 1.65382 0.775128 0.98545 0.850484 0.730783 0.611865 1.58566 0.28387 0.507951 68.9133 151.486 144.845 112.607 200.351 46.7813 41.4917 118.954 73.584 130.739 120.415 237.806 192.231 157.591 234.681 181.252 162.201 127.732 237.83 191.47 152.447 223.856 186.909 157.546 121.84 222.84 179.785 142.135 209.518 177.56 146.81 113.708 207.637 167.742 133.493 196.585 167.524 136.514 105.681 193.216 156.659 125.377 184.567 157.779 127.183 98.7146 179.704 145.856 117.471 172.388 148.598 118.073 92.0238 166.679 135.753 109.649 160.723 139.46 109.309 85.2292 153.935 125.311 101.776 148.709 129.916 100.498 78.7481 141.62 116.296 93.9678 136.712 120.642 92.4078 72.856 129.91 106.778 86.3759 125.675 111.669 84.4949 66.8173 118.6 98.2279 78.9267 114.767 102.821 77.2703 61.4845 107.987 89.9241 72.3398 104.625 94.735 70.004 56.4239 98.0622 82.3089 65.2084 94.1868 86.4593 63.4875 51.0017 88.2803 74.396 59.0938 85.2746 78.8654 56.9467 46.4204 79.2559 67.413 53.0011 76.0678 71.6299 50.6802 41.7136 70.4099 60.5389 47.3841 68.271 64.3305 45.3146 37.8152 63.0375 54.4885 42.2419 60.3434 58.2853 40.1505 33.6201 55.0033 48.4032 37.0739 53.1147 51.8659 35.2159 29.9854 48.4853 42.7916 32.581 46.1907 46.5438 30.5917 26.3591 42.0476 37.6621 28.4851 40.3814 40.9176 26.4736 23.1959 36.0735 32.8011 24.4374 34.5188 36.03 22.6343 20.2197 30.6224 28.1339 20.8923 29.3789 31.5212 18.9365 17.3605 25.7881 24.232 17.6744 24.6072 26.9512 16.007 14.6693 21.4956 20.41 14.8712 20.3102 22.9719 13.1176 12.4205 17.1993 16.6235 11.7955 16.4084 19.2519 10.2838 10.0601 13.8146 13.4493 9.71625 13.0022 15.87 8.09222 7.86936 10.6844 10.4694 7.73545 9.92876 12.4944 6.0885 6.21806 8.06319 7.90035 5.49422 7.3256 9.67589 4.67192 4.29348 5.62778 5.1357 3.9508 4.76132 7.01191 2.92045 2.72575 3.17888 2.83586 2.26187 2.50934 4.3982 1.62964 1.47826 2.22509 1.11488 1.38872 0.940912 2.32446 0.724503 29.7418 77.5688 77.5304 59.3001 110.332 18.1041 20.4299 52.7694 37.5871 73.2022 70.5396 142.36 118.37 91.7406 143.337 100.796 101.468 81.4784 156.42 124.341 98.3358 145.745 116.235 104.04 78.7387 148.848 118.682 93.6478 138.789 114.043 98.2918 73.8836 138.364 111.523 88.4406 131.791 109.138 91.6805 69.3519 128.954 104.929 84.0894 124.934 105.039 85.6438 65.6562 121.157 99.1702 80.0312 118.418 100.924 80.1234 62.0704 113.612 93.8195 75.5416 111.999 96.3016 75.3783 58.8864 106.31 88.7583 71.3044 104.904 91.8454 70.1412 55.7065 99.2724 83.6314 66.8595 98.4474 87.091 65.4109 52.632 92.5493 78.6913 62.3407 91.4265 82.3386 60.7229 49.3829 85.6437 73.4633 58.05 84.9144 77.3438 56.067 46.2084 79.4145 68.6158 53.9622 78.8409 72.522 51.7106 43.134 73.1837 64.049 49.6744 72.6283 67.7469 47.8696 40.2822 67.4408 59.3537 45.8975 67.1829 63.2783 43.8628 37.4997 61.9523 55.1826 42.4485 61.5153 58.9722 40.1052 34.7716 56.5179 50.7528 38.796 56.1835 54.7232 36.4318 32.038 51.4149 46.7717 35.3782 51.2455 50.5289 33.1017 29.5688 46.7226 43.0615 32.1074 46.3583 46.5139 30.1527 27.2884 42.2186 38.92 29.0888 41.7125 42.8691 26.7373 24.5232 37.7008 35.319 26.0571 37.4049 38.7198 24.0155 22.1979 33.6409 31.6938 23.4442 33.3021 35.0256 21.2509 19.9082 29.8005 28.1316 20.8857 29.3398 31.3624 18.6095 17.6814 25.951 24.8565 18.0493 25.3434 27.8409 16.1903 15.5587 22.6256 21.5855 15.6265 22.0586 24.2807 14.0552 13.3876 19.2747 18.1998 13.4584 18.4852 21.1838 11.5869 11.2507 15.906 15.2856 11.1909 15.2799 17.6223 9.78499 9.34267 13.2137 12.2896 9.10927 12.1944 14.6602 7.69182 7.23304 10.2514 9.35318 7.34458 9.45708 11.4671 5.87336 5.32749 7.21412 6.43855 5.11563 6.38751 8.37537 3.88655 3.47236 4.71752 3.72241 3.41826 3.51722 5.65734 2.26137 1.60659 2.36899 1.18601 1.55545 1.10295 2.41425 0.774271 18.2483 28.515 61.0107 19.9505 54.2838 18.4894 5.72687 28.3717 13.1037 40.2685 59.1897 88.3508 100.04 51.8745 87.1625 78.9231 65.1637 69.8018 104.058 105.749 62.2779 94.985 96.1089 68.7407 67.3875 100.705 100.868 62.4043 94.0764 96.3855 65.7531 63.0928 94.5128 95.011 60.6891 91.6022 93.5215 62.2125 59.676 89.4312 89.9407 59.2547 88.9623 90.952 58.9015 56.7704 85.1917 85.6101 57.5422 86.2112 87.9212 56.227 54.2492 81.5632 81.8267 55.8717 83.1753 84.8983 53.7799 52.0622 77.9728 77.9708 53.6517 79.8293 81.7978 51.3166 49.8059 74.6329 74.3244 51.5573 76.3079 78.3602 48.874 47.2529 70.924 70.4678 49.2669 72.6839 74.6605 46.451 45.0636 67.5286 66.8435 46.8545 69.059 71.103 44.0821 42.6957 63.9815 63.1422 44.4786 65.2992 67.4626 41.6753 40.3465 60.3139 59.5149 41.9943 61.4792 63.7533 39.2122 38.0741 56.6934 55.8542 39.5058 57.8972 60.0178 36.7756 35.8265 53.3119 52.3292 37.1389 54.2218 56.5533 34.4754 33.5008 49.8891 48.8055 34.8949 50.7415 52.8492 32.0986 31.2451 46.3719 45.3327 32.4535 47.0935 49.2849 29.9267 28.9539 43.1186 41.8927 30.179 43.6675 45.6942 27.6188 26.8332 39.8956 38.6751 27.8908 40.1949 42.2275 25.4931 24.6813 36.4533 35.3271 25.4562 36.7055 38.7495 23.2232 22.4076 33.2993 32.0651 23.2975 33.2308 35.2851 21.1316 20.2619 29.9198 28.6623 20.8764 29.8049 31.8492 18.8781 18.1091 26.7704 25.3776 18.7616 26.5464 28.492 16.7116 15.8517 23.4614 22.1705 16.4657 23.1477 25.035 14.6627 13.8744 20.4143 18.9285 14.2839 19.7976 21.735 12.4135 11.6331 17.2461 15.8366 12.0814 16.623 18.301 10.4617 9.66374 14.106 12.7285 9.92922 13.4657 15.0975 8.34328 7.58381 11.1472 9.80105 7.88922 10.3845 12.0745 6.56242 5.59768 8.37226 6.81192 5.90662 7.27954 8.99278 4.5523 3.77366 5.47523 4.06162 3.88291 4.29886 5.96864 2.70834 1.70187 2.66446 1.24977 1.7789 1.18644 2.82326 0.823817 49.1669 44.3541 105.026 34.3967 72.8072 46.3579 15.868 80.7765 33.4831 48.3858 91.6748 103.383 144.173 64.4139 104.8 129.823 73.5147 101.862 119.07 147.907 73.8985 110.926 143.73 76.7594 97.4888 115.253 139.963 73.702 108.428 140.212 73.0485 90.7676 108.284 130.646 70.9825 104.581 133.003 68.6911 84.888 102.123 122.685 68.6132 100.753 126.237 65.0378 79.7356 96.7564 114.835 65.9324 96.452 119.867 61.5504 74.6498 91.846 107.758 63.0168 92.1164 113.132 58.513 69.9558 87.1145 101.072 60.1067 87.7167 106.589 55.4859 65.7823 82.5633 94.6183 57.1032 83.3081 100.419 52.5937 61.3311 77.9973 88.0725 54.1694 78.6991 94.1793 49.6999 57.0295 73.525 81.964 51.1126 74.2138 87.7064 46.7424 52.836 69.0703 76.0951 48.0755 69.7488 81.6172 44.0875 49.1217 64.9149 70.5497 45.1662 65.5539 75.8838 41.4005 45.5916 60.856 65.1351 42.3723 61.2591 70.4218 38.5993 41.8388 56.705 59.8523 39.5734 57.2086 64.9264 36.0742 38.4909 52.7662 55.0434 36.7231 53.0561 59.6892 33.5112 35.3238 48.9316 50.2881 34.1472 49.167 54.9104 31.0804 32.2287 45.1263 45.6638 31.356 45.1076 50.1925 28.5846 29.2106 41.4389 41.3024 28.9036 41.3589 45.4824 26.1566 26.3176 37.8007 37.3275 26.349 37.8162 41.0411 23.9841 23.5594 34.3806 33.1323 23.9757 34.2183 36.9536 21.6265 21.0394 30.8862 29.5119 21.614 30.5694 32.9613 19.3154 18.5579 27.4131 25.8264 19.181 27.0419 29.0224 17.1078 15.9755 24.0792 22.12 16.8659 23.5316 25.214 14.9518 13.7403 20.7921 18.797 14.4629 20.005 21.6189 12.7359 11.4598 17.5296 15.5683 12.1372 16.7003 18.0636 10.7311 9.32849 14.4403 12.3312 9.98668 13.4294 14.794 8.63502 7.364 11.2845 9.41119 7.83606 10.5023 11.5334 6.59728 5.45148 8.36008 6.65964 5.80084 7.14157 8.51348 4.61884 3.51521 5.51157 3.98049 3.78852 4.37507 5.52921 2.75867 1.89844 2.6489 1.38312 1.83831 1.29522 2.82076 0.840981 92.9469 101.225 177.816 79.4247 144.993 84.0695 34.945 152.491 67.644 90.1146 145.778 172.001 220.967 114.126 175.115 213.869 117.191 153.081 185.807 220.891 120.017 175.887 221.217 119.221 145.493 177.984 208.373 115.482 168.145 210.718 112.833 135.623 166.259 193.673 109.299 158.714 198.841 105.217 125.937 154.917 180.246 103.062 149.828 186.318 98.2516 117.128 144.935 167.254 97.3593 140.933 174.762 91.5316 108.983 135.18 155.865 91.1354 131.617 162.996 85.4333 101.079 125.608 144.145 85.0897 122.905 151.614 79.4104 93.414 116.949 132.652 79.3156 114.547 140.465 73.6431 85.7495 108.302 121.839 73.8449 106.05 129.641 68.146 78.6441 99.916 111.736 68.1184 97.8718 118.913 62.962 72.1404 91.8278 101.899 62.8629 90.1006 108.937 57.6487 65.6668 84.39 92.6854 57.699 82.5515 99.4135 53.0109 59.4346 77.3564 83.8409 52.9043 75.633 90.2533 48.5902 53.6539 70.5399 75.5553 48.2986 68.8981 81.6847 44.161 48.2585 63.9416 67.8261 43.8213 62.4017 73.3319 40.0379 43.192 58.0623 60.6186 39.8435 56.4489 65.7678 36.298 38.3112 52.1513 53.4857 35.8299 50.8115 58.5718 32.4721 33.819 46.6618 46.907 32.1559 45.4693 51.8629 29.0617 29.4723 41.4566 40.9688 28.5737 40.6118 45.3976 25.9238 25.7085 36.7344 35.6522 25.4827 35.6385 39.6783 22.7295 22.253 32.2761 30.4918 22.1918 31.245 34.3292 20.07 18.9743 28.1575 25.8488 19.4188 27.2014 29.4449 17.3452 15.8857 23.9212 21.7086 16.715 23.0185 24.8352 14.5822 13.165 20.1721 17.7592 14.043 19.2666 20.6606 12.3125 10.7147 16.7999 14.2794 11.6403 15.7866 16.8443 10.0957 8.53178 13.4508 11.0211 9.34515 12.4529 13.3317 7.80095 6.28812 10.2765 7.82207 7.23522 9.31016 10.0464 5.90017 4.38308 7.36971 5.35384 5.09203 6.46952 6.85323 4.11918 2.71069 4.7423 3.43976 3.2797 3.79062 4.35127 2.56855 1.61263 2.71437 1.1653 1.7257 1.4246 2.5718 0.953575 160.275 184.207 272.239 137.564 233.679 145.749 64.3286 251.728 113.082 145.162 210.049 262.698 309.897 176.585 262.786 311.373 173.89 209.366 268.738 302.223 176.138 256.053 306.678 172.381 198.369 254.654 285.029 166.29 241.645 289.735 162.38 185.374 237.626 265.427 156.733 226.795 272.371 150.871 172.409 221.104 246.869 146.486 212.537 254.932 140.547 160.247 205.444 229.04 137.213 197.978 238.01 130.198 148.622 190.714 211.513 127.533 183.964 221.274 120.663 136.692 176.363 194.545 118.252 170.365 204.365 111.308 125.82 162.432 178.593 109.352 156.806 188.343 102.417 115.199 148.858 162.784 100.268 143.32 172.594 93.4295 105.075 136.193 148.471 91.64 130.899 157.038 85.4681 95.3588 123.987 134.33 83.1864 118.85 142.712 77.737 86.1116 112.637 120.753 75.6129 107.585 128.801 70.3127 76.9583 101.102 108.096 68.1419 96.9464 115.349 63.0953 68.7599 90.7543 96.1708 61.3216 86.6585 103.334 56.4283 60.7737 80.7552 84.9562 54.5346 77.0832 91.5339 50.2984 53.8365 71.8342 74.57 48.3408 68.1332 80.8524 44.5113 46.8763 63.0432 64.6437 42.653 59.8419 70.6682 38.8805 40.6168 55.2386 55.9231 37.4213 52.2922 61.1205 33.9147 34.6031 47.3284 46.9789 32.1681 45.1 52.1765 28.98 29.1244 40.8088 39.5452 27.7594 38.2624 44.2235 24.7593 24.2127 34.6036 32.5545 23.574 32.4631 36.9965 20.9183 19.9154 29.0263 26.9804 19.6476 27.1873 30.1456 17.6206 15.9879 23.744 20.8853 16.3358 22.3173 24.7304 14.2832 12.3929 19.2875 16.425 13.319 17.9419 19.2295 11.4357 9.59447 15.1269 12.0244 10.6095 13.8873 15.2282 8.87479 6.86544 11.7377 8.90647 8.07267 10.6515 10.9384 6.92398 4.78788 8.51063 5.91918 5.95309 7.44544 7.64335 4.86887 3.26272 5.74971 3.84483 3.80566 4.76399 5.02863 3.13498 1.83581 3.42311 2.42096 2.27573 2.9119 2.86916 2.02931 1.20673 2.13842 0.89413 1.52114 1.16958 1.92195 0.673125 131.08 334.997 178.309 232.489 339.892 64.1829 126.251 193.81 200.061 216.307 128.758 360.583 183.49 242.373 355.697 192.176 235.427 126.896 354.094 180.125 233.598 340.105 186.453 228.21 121.246 335.533 170.946 220.49 320.594 176.68 215.119 114.099 314.726 160.19 207.288 300.945 166.079 200.855 106.5 293.268 149.44 193.943 281.018 155.153 186.987 98.9599 272.611 138.175 180.848 261.299 144.64 173.101 91.2711 252.024 127.425 167.682 242.032 133.664 159.734 84.0869 231.954 117.237 154.803 222.626 123.51 146.762 77.206 213.215 107.718 142.396 204.328 113.493 134.685 70.7328 194.87 98.0853 129.972 186.171 103.82 122.667 64.3 177.285 88.8794 118.252 168.969 94.4427 111.086 57.9885 160.353 80.5128 107.241 153.337 85.2284 100.637 52.2716 144.377 72.1998 96.5368 137.207 77.0719 90.2382 46.9902 129.452 64.8144 86.4319 122.716 69.0449 80.9122 41.7946 115.213 57.3513 76.9218 108.686 61.5786 71.5778 36.8778 101.658 50.5265 67.9606 95.7636 54.3528 63.0105 32.3794 89.4876 44.2603 59.7038 83.7328 47.6527 55.0556 28.1811 77.6342 38.4259 51.7995 72.499 41.2555 47.5834 23.9865 66.613 32.7257 44.525 62.042 35.5163 40.9503 20.5345 56.6678 27.5691 37.8722 51.9849 30.3915 34.2265 17.136 47.1559 23.0092 31.295 42.9825 25.0482 28.3301 14.0678 38.9866 18.8916 25.9926 35.1695 20.5564 23.1803 11.324 31.2866 14.961 20.6902 28.2697 16.4816 18.6102 8.87308 24.8287 11.6339 16.7127 21.8019 13.1023 14.2885 6.54125 18.6245 8.59671 12.3145 16.2628 9.66751 10.7399 4.90595 14.0754 6.45305 9.45049 11.8197 7.0893 7.74155 3.20123 9.41789 4.15891 6.28814 8.2469 4.69955 5.37966 1.88115 6.10397 2.4239 4.33342 4.94426 3.24868 3.27095 1.11829 3.7586 1.35517 2.47909 3.12043 1.73627 2.03852 0.491051 1.99094 0.900912 1.39797 1.95566 0.784334 1.27033 0.483388 1.55303 0.499345 1.05537 0.871109 0.715606 0.547302 162.01 346.116 263.723 134.834 190.07 76.0678 134.834 140.698 125.384 99.8701 147.527 58.7658 165.435 232.569 181.218 315.897 267.583 100.805 154.046 51.4329 107.551 137.109 151.455 208.508 174.073 302.191 254.425 95.337 149.384 48.8415 103.916 131.058 148.126 199.765 163.368 288.277 241.982 93.0517 144.93 47.5839 100.796 124.68 142.888 191.092 154.84 273.863 229.813 89.6763 137.984 45.5423 95.9537 119.536 135.725 181.045 146.394 258.051 217.049 85.3132 130.074 43.2829 90.4701 113.531 127.399 170.034 137.74 241.417 203.029 80.2113 121.379 40.6079 84.5054 107.241 118.602 158.177 128.519 224.502 188.592 74.7041 112.83 37.8302 78.6784 100.327 110.004 146.668 119.291 207.302 174.711 69.1563 103.941 35.0043 72.464 93.0309 100.964 135.086 110.152 190.458 160.454 63.5043 95.1701 32.0275 66.4023 85.8983 92.5452 123.767 100.779 174.16 146.549 58.1704 86.887 29.4026 60.6672 78.7114 84.1076 112.814 92.0771 158.686 133.84 52.8431 79.0347 26.6232 55.2885 71.7652 76.5143 102.806 83.4786 143.495 120.967 47.8491 71.2796 24.1028 49.8205 65.2713 68.7816 92.509 75.4255 128.798 109.059 43.0638 63.9192 21.6047 44.707 58.8612 61.5489 82.9523 68.0344 115.486 98.1668 38.4466 57.0065 19.2344 39.7868 52.9879 54.987 74.2405 60.8437 102.942 87.4099 34.4345 50.6284 17.2149 35.4842 47.5562 48.572 65.7167 53.9587 90.7153 77.5091 30.3027 44.3352 15.1585 31.2579 42.0557 42.3265 57.5947 47.8502 79.0157 68.2972 26.227 38.4837 13.1498 26.9966 36.9981 36.7767 50.2272 42.0035 69.097 59.6644 22.93 33.594 11.4428 23.6369 32.5823 32.0707 43.7354 36.5575 59.3878 51.3944 19.8766 28.7379 9.9195 20.2853 28.2848 27.0475 37.0441 31.2305 50.1431 44.0419 16.6817 24.0782 8.22907 16.843 24.0036 22.8956 31.2009 26.3859 42.1518 37.1162 14.2816 20.2772 7.04651 14.3206 20.5548 19.0241 26.1611 22.4048 34.9461 30.9076 11.75 16.5654 5.7934 11.6819 17.3933 15.445 21.2591 18.4849 27.7508 25.5842 9.55658 13.1006 4.67307 9.14316 14.2416 11.9884 16.8153 15.4371 22.5742 20.8318 7.51834 10.1756 3.56094 7.17565 11.7902 9.45171 13.3068 12.0856 17.0613 16.1718 5.837 7.81607 2.83702 5.58069 9.17986 7.00084 9.82103 9.43727 12.5998 12.4404 4.25717 5.48746 2.02179 3.84835 7.22622 4.92844 7.22908 7.20264 9.05308 9.11716 3.10189 3.88216 1.46278 2.74042 5.43979 3.32105 4.9966 5.1554 5.88495 6.2011 2.04341 2.37813 0.901661 1.65249 3.87347 2.01208 3.09371 3.38769 3.59415 3.70226 1.26125 1.22324 0.535608 0.920406 2.59884 0.950727 1.52705 1.9583 2.00486 2.16452 0.56593 0.684108 0.263092 0.447135 1.32958 0.571715 0.944544 1.00341 1.20436 0.616539 0.387672 0.314868 0.150699 0.314868 0.862464 0.164169 0.402788 95.2088 197.975 146.39 84.2798 118.096 72.7202 62.1205 89.6427 36.6229 135.206 110.872 223.748 177.465 71.9072 111.783 89.422 152.845 115.576 216.979 175.789 68.2075 107.997 88.8966 145.261 111.322 204.952 167.84 65.6922 103.779 85.6801 137.222 106.81 195.736 160.824 64.0801 99.9376 82.9966 130.523 102.621 186.553 153.551 61.7711 95.3614 80.3528 123.855 97.3992 176.188 144.938 58.9125 89.9056 76.7208 116.02 92.0642 165.323 136.813 55.5206 84.2164 72.5343 108.787 86.3824 154.415 127.982 51.8589 78.4818 68.1645 101.177 80.8354 143.022 118.861 48.1499 72.353 63.8617 93.1341 74.9375 131.121 110.025 44.0993 66.2222 58.8257 85.4042 68.8989 120.453 101.432 40.3837 60.6818 54.1861 78.3066 63.7935 109.909 93.5502 36.9134 55.1615 50.0034 71.4676 58.5655 100.115 84.9349 33.6812 50.0536 46.0621 64.4046 53.1396 90.2016 77.6265 30.3977 45.1185 41.6773 58.3148 48.6091 81.4235 70.7839 27.4397 40.5973 37.9779 52.2882 44.095 72.9885 63.6801 24.5996 36.1866 34.6327 46.8078 39.7807 65.2562 57.5492 22.0439 32.1811 31.0347 41.5362 35.6595 57.6589 51.3303 19.4746 28.4589 27.8241 36.6691 31.9586 50.6502 45.5427 17.1718 25.0257 24.7987 32.1394 28.2497 44.233 40.4546 14.9389 21.4257 22.0106 27.9205 25.1183 38.3293 35.366 13.0105 18.4031 19.5383 23.8846 21.9042 32.7193 30.969 11.1197 15.6786 16.8528 20.3952 19.14 28.1132 26.5564 9.4524 13.3853 14.6866 17.4717 16.0541 23.5829 22.2612 8.06947 11.0435 12.5141 14.3578 13.5451 19.0495 18.696 6.53533 8.88018 10.3766 11.6363 11.544 15.7698 15.2201 5.42407 7.11452 8.83143 9.14892 9.1094 12.3586 12.1059 4.23054 5.51256 6.95047 7.14721 7.04864 9.09847 8.81754 3.13797 3.96891 5.4929 5.20518 5.16465 6.37211 6.17202 2.16019 2.60062 3.93237 3.43119 3.28937 3.93201 3.33522 1.34835 1.31088 2.58284 1.63776 1.55171 1.98653 1.05221 0.70943 0.589509 1.13312 0.513695 42.299 108.896 71.0014 47.2227 66.7311 29.4861 33.2609 43.177 19.7005 74.588 57.2274 125.309 101.342 39.4336 66.0247 46.1931 91.3971 69.4152 137.352 111.06 43.046 70.0232 54.5366 94.2269 70.856 134.687 110.735 43.6372 69.3508 55.7207 90.9565 70.0066 130.129 108.665 43.0627 67.6697 55.2378 87.6061 68.9719 126.182 106.179 42.345 65.9913 54.6092 84.6276 67.521 121.294 102.836 41.0176 62.8418 53.6714 80.6562 65.0877 115.679 98.5684 39.2326 60.0759 51.6889 76.7374 62.4937 109.47 94.0444 37.1911 56.3519 49.6396 72.2656 59.5276 103.528 89.4217 35.2108 53.2281 47.1722 68.1958 56.6137 96.9473 84.2504 32.9565 49.7657 44.762 63.5064 53.2348 90.0594 79.1478 30.6319 45.8432 42.1425 58.9109 50.0328 83.8652 74.3876 28.7106 42.7436 39.4555 54.7693 47.0425 77.5535 69.3674 26.5405 39.2587 37.0341 50.334 43.8639 71.5359 64.5575 24.3993 36.2428 34.4801 46.6198 41.0147 66.1836 60.185 22.5703 33.3028 32.1143 42.893 38.0671 60.7748 55.5665 21.0219 30.4761 29.8288 38.9875 35.2421 55.4183 51.3763 18.997 27.6848 27.4441 35.7236 32.5955 50.5809 47.0261 17.4042 25.1556 25.3875 32.2784 29.8785 45.8518 43.0585 15.8101 22.7063 23.1541 29.1931 27.2703 41.1319 39.0746 14.0973 20.1196 21.0631 26.0567 24.6805 36.9759 35.1643 12.7818 18.1254 19.0281 23.2053 22.1721 32.9129 31.2195 11.294 16.0944 17.047 20.6445 19.5214 28.8483 27.5934 10.0812 14.0012 15.1063 17.9372 17.2616 24.8693 23.9652 8.56429 11.8594 13.3852 15.4058 15.0626 21.3752 20.4241 7.33737 10.0719 11.5723 13.0158 12.4867 17.9668 16.9153 6.23608 8.44579 9.57857 10.7218 10.2352 14.4876 13.6994 5.04905 6.7174 7.86572 8.57404 8.23491 11.7681 10.6439 4.0818 5.24851 6.32582 6.68524 6.09446 8.44789 7.41569 2.88757 3.75007 4.73499 4.71314 4.16412 5.67658 4.30841 1.949 2.16381 3.30202 2.63135 1.73805 2.61238 1.14779 0.953449 0.78831 1.54417 0.788767 23.9431 39.668 47.6989 15.9257 25.8202 30.2234 12.6798 22.3493 6.00956 32.3041 42.936 63.0182 80.3307 16.7999 33.7143 28.6393 51.6589 57.5865 84.5974 93.0727 25.5015 42.547 41.2495 59.3935 61.1678 90.1865 95.5833 28.9319 45.8814 45.295 61.4224 61.825 91.2825 95.3826 30.3565 46.8347 46.5537 61.4388 61.6529 91.2181 94.1029 30.8976 46.927 46.882 60.8717 60.6455 90.1181 91.7824 30.8353 46.3661 46.4321 59.7359 59.0921 87.994 88.8141 30.1545 45.0145 45.4328 58.0652 57.1994 85.0808 85.5376 29.2754 43.3935 43.999 55.8574 55.017 81.7662 81.7902 28.0855 41.5322 42.3392 53.4829 52.5113 78.1708 77.743 26.8878 39.6884 40.4565 51.0427 49.9373 74.3712 73.8305 25.7016 37.6186 38.5105 48.3612 47.4124 70.6509 69.9088 24.3558 35.6873 36.5292 45.9304 44.9494 66.8695 65.8681 23.074 33.6267 34.6578 43.2608 42.2483 62.8843 61.9153 21.7432 31.6302 32.5546 40.6715 39.8484 59.0528 58.0757 20.3975 29.5897 30.6469 38.0668 37.3293 55.4122 54.2794 19.1242 27.6525 28.7361 35.6599 34.8673 51.6954 50.3611 17.795 25.6993 26.843 33.1063 32.1992 47.8526 46.5934 16.5424 23.8343 24.7517 30.6871 29.8368 44.3516 42.8784 15.2911 22.0039 22.9911 28.3508 27.3505 40.6902 39.1728 14.0372 20.0973 21.1492 25.9326 24.9459 37.0629 35.4224 12.833 18.2949 19.2798 23.4568 22.4225 33.3768 31.818 11.6501 16.3416 17.404 20.9794 20.1368 29.832 28.3339 10.2501 14.4674 15.5278 18.7234 17.704 26.3307 24.7113 9.16106 12.7681 13.6967 16.3354 15.414 22.9975 21.2784 7.97811 11.1146 11.9375 14.1178 13.0696 19.2499 17.712 6.65264 9.10717 10.1635 11.7136 10.7338 15.9168 14.3614 5.49507 7.46914 8.36216 9.57801 8.71034 12.7017 11.0508 4.42429 5.71519 6.78423 7.20313 6.37459 9.37783 7.97863 3.21632 4.15085 4.93204 5.18998 4.35363 6.36526 4.70408 2.20558 2.55349 3.38174 3.0701 1.95658 2.84208 1.2998 1.02977 0.867883 1.58557 0.766904 68.2621 60.4852 100.255 23.5531 27.5611 70.9552 28.0117 55.1325 13.8837 42.1271 80.7336 84.278 128.546 23.6955 38.4167 52.6212 61.8773 91.4968 103.465 136.547 31.2896 46.9768 62.3112 68.7522 91.9985 107.599 134.829 34.3877 50.0197 64.4894 69.8853 89.0764 106.908 130.431 35.2376 50.6065 63.8395 69.1673 86.0454 105.293 125.474 35.1506 50.2617 62.321 67.7979 82.2793 102.353 119.57 34.4897 49.0297 60.0827 65.6758 78.316 98.5818 113.725 33.3639 47.2683 57.463 63.0845 74.0738 94.3912 107.333 31.9495 45.5101 54.6115 60.4367 70.0155 89.9894 100.711 30.5979 43.439 51.8361 57.4738 65.5353 85.3991 94.475 29.0763 41.2066 48.6278 54.4483 61.1843 80.6569 88.1428 27.4461 39.0592 45.5408 51.5474 57.0169 76.0301 82.0199 25.9595 36.8165 42.6403 48.4274 53.0799 71.4884 76.2086 24.4268 34.7285 39.7486 45.5801 49.2654 67.0063 70.5658 22.8685 32.569 36.9576 42.6438 45.5091 62.652 65.3215 21.4371 30.5233 34.2484 39.9521 42.0639 58.3411 59.8509 19.9996 28.4128 31.8001 37.0008 38.5051 54.1134 54.9832 18.5546 26.4563 29.1032 34.4137 35.225 49.883 49.9238 17.1349 24.3356 26.7823 31.5549 31.8781 45.7927 45.3754 15.7506 22.3728 24.2825 28.9657 28.8918 41.785 40.8928 14.3947 20.4493 22.0695 26.4452 25.956 37.9453 36.5964 13.099 18.5301 19.9535 23.916 23.2911 34.2082 32.5668 11.7613 16.6591 17.8777 21.4652 20.4943 30.483 28.4573 10.5117 14.8004 15.836 19.029 17.7293 26.7651 24.5969 9.21875 12.9078 13.7689 16.5822 15.2111 23.0861 20.8576 7.97561 11.1695 11.8109 14.22 12.7084 19.5375 17.2026 6.82063 9.37059 9.99286 11.859 10.4104 15.9952 13.763 5.54684 7.49174 8.18321 9.48875 8.17137 12.6798 10.6201 4.38581 5.91649 6.43498 7.48213 6.14161 9.43296 7.42545 3.21246 4.30195 4.83472 5.26236 3.91196 6.37687 4.49203 2.28064 2.68849 3.22123 3.21784 1.97867 3.04852 1.4256 1.01001 0.911169 1.6068 0.954885 124.701 139.535 181.07 56.8273 69.8421 121.569 55.8209 102.6 29.7065 92.6162 138.091 160.815 208.394 49.0061 72.9951 95.2302 109.657 143.424 171.978 208.411 53.2779 77.8812 99.9065 111.716 138.092 169.152 200.407 54.2965 77.8991 97.8744 108.615 132.216 162.628 190.928 53.0665 75.648 94.5452 104.117 125.418 155.436 180.66 51.3956 72.6811 90.5572 99.1142 118.312 147.617 170.009 49.063 68.8668 85.9356 93.722 111.201 139.238 159.273 46.2379 65.2631 80.7178 88.4346 103.664 130.77 148.337 43.692 61.2279 75.7224 82.8932 96.3263 122.395 136.863 40.9951 57.3691 70.6954 77.1419 89.0036 113.655 126.476 37.8992 53.3695 65.0069 71.7259 81.6847 105.278 116.035 35.2495 49.4455 60.1145 66.3924 74.9813 97.2727 106.408 32.5649 45.6982 55.1562 61.2966 68.4243 89.6135 96.535 30.0731 42.2396 50.5273 56.2387 62.097 82.1094 87.7071 27.5989 38.8377 45.9673 51.6104 56.2941 75.1652 79.5446 25.3148 35.6411 41.7792 47.2423 50.8456 68.6265 71.0069 23.1949 32.6195 37.9064 42.8553 45.3457 62.1404 63.9405 20.9995 29.6469 33.781 38.9499 40.5692 56.1905 56.7791 19.0691 26.876 30.5437 35.1407 35.8795 50.3801 50.2085 17.1268 24.1685 27.1347 31.5884 31.6124 45.1809 43.8854 15.4363 21.6731 24.1082 28.1694 27.6124 40.0742 38.2662 13.6799 19.2569 21.0649 24.9322 23.8892 35.2724 32.9804 12.1089 17.0594 18.373 21.8386 20.5226 30.6778 28.2104 10.5861 14.8418 15.8245 18.9948 17.5092 26.3951 23.7744 9.05874 12.6976 13.5443 16.2661 14.5569 22.448 19.8123 7.74334 10.759 11.3514 13.692 11.93 18.5589 15.9402 6.43126 8.84532 9.3544 11.2292 9.5027 14.9807 12.2762 5.17808 7.00782 7.54118 8.83287 7.1233 11.6352 8.99012 3.99194 5.45704 5.59239 6.69722 4.84303 8.28131 5.98867 2.93226 3.90794 3.91526 4.72144 3.12457 5.46958 3.74236 1.94571 2.41809 2.61674 2.84822 1.73148 2.73022 1.27776 0.991315 0.895053 1.47135 0.921364 196.393 235.429 274.918 95.4547 118.747 190.256 89.9328 160.531 48.6754 152.681 203.616 254.543 297.064 79.367 115.897 144.048 167.74 199.075 254.446 288.934 79.8644 116.346 141.229 164.287 189.957 242.994 275.274 77.7804 112.482 135.7 156.12 180.393 231.642 260.831 75.1764 107.936 129.827 148.257 170.472 219.072 245.761 71.7224 102.526 123.257 140.099 160.31 206.484 229.624 67.9699 96.4765 116.562 131.165 149.323 192.97 213.452 63.7144 90.2934 108.903 122.565 138.476 179.553 197.17 59.3803 83.8217 101.23 113.518 127.868 166.112 181.531 55.0384 77.5255 93.403 104.615 117.161 152.595 165.625 50.4643 71.0828 85.7766 95.9455 106.567 139.48 151.054 46.224 65.1607 77.9908 87.895 96.8986 127.267 136.545 42.2685 59.4622 71.3038 79.8094 87.6705 115.561 123.239 38.4194 53.7212 64.5751 72.148 78.494 104.113 110.285 34.5658 48.6235 57.8465 65.1498 70.5446 93.9675 98.3749 31.2058 43.8933 51.9196 58.5811 62.31 83.9368 87.1849 28.1138 39.1253 46.1276 51.9953 55.1947 74.2398 76.4081 24.637 34.6843 40.9145 46.1521 48.1918 65.8725 66.6467 22.0734 30.8737 35.9364 40.7212 41.5933 57.7662 57.9379 19.4198 27.0233 31.0961 35.7431 35.9017 50.3209 49.119 16.9169 23.421 27.0391 30.7787 30.5814 43.1421 41.3938 14.4488 20.1408 22.9357 26.2081 25.2665 36.6231 34.4353 12.3635 17.316 19.1749 22.4795 20.9865 31.0985 28.2051 10.5763 14.6547 16.1419 18.807 17.2072 25.8954 22.5936 8.77332 12.2699 13.2378 15.6148 13.5264 21.1112 17.5697 7.18225 10.1203 10.5884 12.7106 10.5267 17.0841 13.4537 5.93047 8.03982 8.30981 9.93291 7.63193 13.0487 9.82646 4.54951 6.25217 6.13308 7.67071 5.46411 9.61924 6.63942 3.3116 4.48911 4.50839 5.4931 3.44501 6.38664 4.07625 2.2271 2.91382 2.88262 3.47903 1.93062 3.79703 2.45657 1.31514 1.83626 1.59877 2.15679 1.21023 2.3867 0.976124 0.858688 0.913938 1.04865 0.869797 137.994 383.214 184.838 148.999 174.719 70.4343 148.835 148.835 78.4004 221.399 132.136 352.743 184.327 109.668 161.238 125.178 228.94 124.805 338.081 175.908 106.286 156.363 118 219.181 117.979 322.56 166.609 103.283 150.635 112.191 208.173 111.365 306.484 157.336 99.5987 143.696 106.875 196.943 104.973 289.742 147.703 94.768 135.909 101.422 185.294 98.1819 271.555 137.84 89.2495 127.276 95.2923 172.977 91.2061 252.613 127.587 83.2178 118.449 88.8531 160.466 84.4339 233.812 117.926 77.0465 109.265 82.2767 147.987 77.7217 215.228 108.504 70.8468 100.571 75.6562 136.163 71.2531 197.142 98.7636 64.9382 91.8988 69.5038 123.975 64.7041 178.994 89.7774 58.913 83.4214 63.0238 112.606 58.6524 162.521 81.6533 53.5194 75.4696 57.229 102.18 53.2115 146.778 73.0565 48.3349 68.1269 51.8312 91.4682 47.4323 131.292 65.5445 43.297 60.7219 46.2369 81.7739 42.2409 117.045 58.0509 38.5449 54.0927 41.2115 72.5693 37.3221 103.186 51.3325 33.8562 47.5866 36.3101 64.0509 32.794 90.9828 44.9028 30.0187 41.8307 32.0427 55.9634 28.5071 79.0879 39.0298 26.023 36.4882 27.7934 48.7813 24.6164 68.1556 33.2795 22.4704 31.2519 24.2236 41.6682 20.8223 58.0592 28.2296 19.301 26.3224 20.5994 35.0282 17.3123 48.4004 23.3276 15.9817 22.1534 17.0923 29.2792 14.2788 40.1504 19.1493 13.232 18.161 14.1729 23.9723 11.3768 32.3398 15.3234 10.8166 14.6654 11.3327 19.1282 9.08798 25.9184 12.0419 8.63199 11.6175 8.98168 14.9211 6.66391 19.4361 8.81323 6.50603 8.85746 6.72263 11.2234 4.93136 14.7518 6.58715 4.85925 6.58615 4.95723 8.33991 3.26406 10.1989 4.4388 3.41326 4.65462 3.37869 5.79479 2.23633 6.95806 2.7766 2.35956 3.13505 2.27322 3.58899 1.13132 4.11497 1.66893 1.3681 1.88729 1.22681 2.2836 0.575955 2.1781 0.93436 0.721554 1.04591 0.66806 1.35083 0.481564 1.55527 0.533026 0.489049 0.552013 0.470231 0.584656 
CELL_DATA 12288
SCALARS stress float 1
LOOKUP_TABLE default
62.3558 67.4552 40.6118 48.8138 81.9765 75.2401 47.2496 58.3843 53.3241 57.9255 55.0998 50.6145 44.6401 54.7096 49.4133 52.9988 53.664 49.8958 43.4969 51.8891 46.1465 49.8727 52.6565 49.7281 42.4147 48.8917 43.7627 47.1488 50.8025 48.4369 40.771 46.0011 41.5331 44.1361 48.3605 46.225 38.6431 42.6445 39.3907 41.3777 45.2507 43.5327 36.0463 39.5037 36.8024 38.5193 42.287 40.7127 33.7675 36.4894 34.3651 35.5923 38.9834 37.5466 31.1789 33.5577 31.6394 32.7084 35.7234 34.5889 28.5561 30.7301 28.9541 29.9781 32.7447 31.778 26.0265 27.7438 26.4246 27.378 29.6027 28.7385 23.5959 25.2299 24.155 24.8192 26.918 26.0466 21.2756 22.5574 21.825 22.3613 24.1917 23.4877 19.2288 20.1867 19.5624 19.962 21.6157 21.0759 17.1007 17.8945 17.5319 17.8347 19.284 18.749 15.2001 15.7698 15.4745 15.5813 16.9211 16.509 13.3612 13.7261 13.7832 13.7219 14.9248 14.3765 11.7435 11.902 12.0395 12.0561 12.7859 12.4038 10.2868 10.1979 10.4965 10.2679 10.9391 10.7823 8.63469 8.58544 8.99859 8.69841 9.05397 9.06303 7.41239 7.18891 7.5536 7.50179 7.72831 7.61703 6.06715 5.78724 6.29869 6.04813 6.28454 6.12756 5.17112 4.65584 5.21358 4.87296 4.99435 4.85978 3.93424 3.45467 4.19102 3.83928 3.85458 3.92548 3.04516 2.82285 3.28694 2.94319 2.88202 2.93754 2.42869 1.99883 2.66879 2.08881 1.96631 2.17006 1.79664 1.30454 1.96942 1.70906 1.36434 1.43756 1.22314 0.85393 1.2641 1.04493 0.953356 1.03338 0.831918 0.54161 0.888131 0.583291 0.352365 0.545726 0.50715 0.251817 0.444734 0.357412 0.173823 0.180121 0.22544 0.270771 0.185499 0.272617 0.377477 0.24381 40.2443 38.4039 26.4732 29.418 52.2517 45.7996 30.123 43.0469 33.2207 40.4831 42.4285 38.0671 31.0962 39.9501 33.9469 38.5946 40.5213 36.9786 31.0002 37.5471 32.6995 35.8279 38.9426 36.2766 30.3266 35.4208 31.3228 33.9756 37.5598 35.6223 29.4173 33.7038 30.0061 32.1094 36.0144 34.4296 28.2713 31.6685 28.6634 30.3028 34.1294 32.7142 26.6926 29.5396 26.9854 28.614 32.0577 30.8311 25.1474 27.5723 25.3463 26.6343 29.7789 28.6221 23.3595 25.3521 23.6782 24.6486 27.4318 26.4683 21.696 23.3892 21.8478 22.8078 25.501 24.4542 19.7837 21.3692 20.203 20.7331 23.1001 22.5229 18.3017 19.3654 18.4631 18.9657 21.1669 20.5117 16.6224 17.5864 16.9007 17.2564 18.9274 18.5924 15.2685 15.8712 15.3753 15.6154 17.237 16.83 13.7908 14.3675 13.9482 13.9652 15.4355 15.0699 12.4963 12.7094 12.5574 12.6367 13.7698 13.5151 11.108 11.1635 11.0525 11.2637 12.2232 11.9854 9.98553 9.9236 10.2023 9.86455 10.6041 10.6013 8.72778 8.67788 8.96558 8.75145 9.17558 9.20561 7.79095 7.50784 7.88475 7.49484 8.02326 7.94987 6.7317 6.3165 6.84489 6.64976 6.92328 6.89986 5.87755 5.32841 5.91003 5.56779 5.78062 5.85429 5.0686 4.65768 5.10216 4.83218 4.72217 5.00522 4.28737 3.83247 4.37631 3.95169 4.02619 4.18213 3.55728 2.99975 3.56373 3.27441 3.1244 3.34623 2.9181 2.37369 3.07268 2.5884 2.53644 2.79223 2.28079 1.8789 2.37443 1.96746 1.87241 2.027 1.83057 1.39332 1.91322 1.55579 1.29003 1.54854 1.31568 0.932392 1.26815 1.06752 0.94022 0.931305 0.743175 0.527728 0.841409 0.653574 0.552677 0.604912 0.280119 0.419668 0.481511 0.458415 0.223762 0.267187 22.4363 22.5428 15.4262 16.3811 32.4571 28.1173 15.8748 26.0539 17.3152 23.4526 26.0716 21.8202 18.8709 26.126 20.3143 24.7 26.9794 23.9609 20.0937 25.1128 20.8659 23.6302 26.5899 24.4703 20.3309 24.1085 20.629 22.7898 25.9922 24.368 20.0772 23.3172 20.2047 21.8242 25.2185 24.0684 19.6752 21.9395 19.619 20.8817 24.2514 23.2742 18.8766 20.7831 18.8633 19.8248 23.1115 22.1157 18.0253 19.7587 18.0644 18.7592 21.7963 20.9388 17.0546 18.4007 16.8858 17.7002 20.2448 19.7533 15.9995 17.1206 16.109 16.4138 18.9742 18.2893 15.0916 16.07 15.0046 15.3318 17.6211 17.0627 14.0339 14.6623 14.1725 14.3199 16.2903 15.6966 13.1895 13.4196 13.1218 13.2441 14.8321 14.6704 12.237 12.3777 12.1731 12.1867 13.6092 13.2913 11.3581 11.4321 11.3427 11.0604 12.2974 12.2112 10.4511 10.4282 10.437 10.3157 11.2984 11.2443 9.45899 9.37456 9.53214 9.56586 10.1376 10.2417 8.65566 8.51952 8.68769 8.53852 9.21728 9.10009 7.92928 7.68317 7.9419 7.68316 8.24266 8.26588 7.22947 6.8555 7.27334 6.94085 7.20203 7.39033 6.5515 5.96899 6.51437 6.0991 6.38383 6.6244 5.73427 5.29644 5.80671 5.53648 5.66605 5.85944 5.16402 4.61694 5.19135 4.86366 4.9276 5.01601 4.51402 3.98594 4.47894 4.15298 4.27342 4.30966 3.78173 3.29717 3.88092 3.54097 3.53435 3.6599 3.2035 2.85771 3.31314 3.01361 2.86951 3.08386 2.61207 2.28434 2.75047 2.40513 2.3232 2.5201 2.06463 1.71032 2.10666 1.93579 1.79112 1.93237 1.48228 1.21816 1.5906 1.44016 1.27683 1.41829 0.930941 0.77775 1.10549 0.865306 0.79695 0.920946 0.491879 0.485953 0.542142 0.44197 0.364291 0.499012 8.46264 9.2464 8.35755 5.1783 15.3079 13.3527 6.10351 13.5212 6.89188 11.8077 12.7521 9.43692 11.7366 15.2975 12.2307 14.5275 15.3899 13.5462 13.9829 15.7014 14.2145 15.0487 16.5075 15.4904 14.8609 15.7958 14.7498 15.0031 16.9677 16.2693 15.0531 15.5385 14.9324 14.9832 17.0088 16.5248 15.0543 15.2919 14.8681 14.6957 16.6031 16.3925 14.8602 14.8685 14.6134 14.3228 16.3455 16.1254 14.3612 14.2422 14.2165 13.9299 15.6306 15.6239 13.8872 13.6656 13.7687 13.2861 14.9674 14.9609 13.3273 13.0325 13.1316 12.7304 14.3504 14.1515 12.698 12.2856 12.5428 12.1463 13.4081 13.4673 12.1172 11.568 11.9857 11.5135 12.7517 12.6615 11.419 10.9813 11.4043 10.8739 11.8702 11.9587 10.8065 10.3249 10.7133 10.215 11.0897 11.2756 10.1754 9.5903 10.0761 9.6266 10.3491 10.5178 9.58571 9.05035 9.54111 9.05603 9.64632 9.85058 8.87889 8.41437 8.82479 8.40199 8.97509 9.09306 8.30933 7.77159 8.24548 7.83154 8.34936 8.39361 7.61775 7.12277 7.61275 7.24303 7.60677 7.76584 7.05559 6.53595 7.03168 6.60961 6.8889 7.11943 6.43678 5.88318 6.40214 6.07706 6.26425 6.43746 5.87125 5.34178 5.86891 5.39819 5.65349 5.88594 5.20082 4.73381 5.24896 4.86519 5.05273 5.1475 4.53447 4.17342 4.63211 4.31917 4.42209 4.52954 3.95068 3.5989 4.04413 3.6841 3.78204 3.99404 3.37755 3.04625 3.39473 3.19481 3.28665 3.36455 2.74683 2.49184 2.82104 2.62079 2.60679 2.72463 2.15455 1.92148 2.29312 2.05898 2.03873 2.16804 1.59043 1.42072 1.75818 1.5324 1.51061 1.64908 1.08969 0.978412 1.15133 0.988713 1.03912 1.05443 0.454881 0.387649 0.56533 0.456482 0.450655 0.505114 16.3192 6.32276 13.4332 8.47886 6.45697 9.07802 13.1177 13.0117 14.9393 14.0125 8.66484 8.65265 16.8793 15.2554 17.9553 16.4779 12.4874 12.8328 18.2371 15.7657 18.658 16.9304 14.1625 14.798 18.5128 15.6587 18.6995 16.7017 14.8011 15.5971 18.3933 15.4857 18.2982 16.4171 15.0058 15.8373 17.938 15.0924 17.8022 15.9989 14.8947 15.7103 17.3117 14.6136 17.1481 15.3776 14.6195 15.3838 16.5585 14.0645 16.4784 14.795 14.2141 14.8591 15.6699 13.4522 15.6477 14.0541 13.655 14.271 14.8394 12.795 14.8697 13.3548 13.0789 13.6534 13.9841 12.135 14.0057 12.6453 12.4676 13.0093 13.1835 11.5174 13.1627 11.9737 11.793 12.3402 12.3844 10.839 12.3194 11.2223 11.1752 11.6473 11.5396 10.238 11.5213 10.5359 10.591 10.982 10.7668 9.61352 10.7448 9.84431 9.9637 10.298 10.0093 8.93538 9.99211 9.17675 9.36673 9.67377 9.26908 8.3358 9.22927 8.57649 8.71181 9.00325 8.54782 7.70762 8.54602 7.94811 8.11899 8.34618 7.85662 7.11477 7.83489 7.33737 7.48929 7.70294 7.20112 6.51211 7.17431 6.65449 6.81329 7.03339 6.50032 5.98656 6.4833 6.08036 6.27529 6.42601 5.80624 5.36157 5.86509 5.48077 5.64717 5.82017 5.19388 4.76238 5.17826 4.83798 5.05362 5.1688 4.5204 4.2567 4.60904 4.26607 4.48095 4.58309 3.9093 3.63478 3.96443 3.75568 3.83801 3.95528 3.25088 3.09261 3.36233 3.15699 3.26455 3.35132 2.74958 2.51903 2.82228 2.61021 2.61963 2.73698 2.11835 1.97967 2.21319 2.06998 2.10608 2.11155 1.5378 1.55502 1.66135 1.52677 1.62763 1.65228 1.09621 0.986298 1.18706 1.06921 1.05513 1.07359 0.537051 0.44834 0.610986 0.469375 0.490202 0.504571 33.5318 19.6709 24.0408 20.7017 20.9986 22.148 26.4274 24.9217 29.8274 26.9646 19.2736 20.4784 28.224 25.6772 30.333 28.2039 21.4958 22.6159 28.4791 24.8912 29.7137 27.2304 21.8452 23.2708 27.9012 23.9321 28.439 25.9549 21.6179 23.0992 26.9772 22.805 27.3042 24.7477 21.1165 22.4274 25.8071 21.6555 26.0713 23.598 20.232 21.5296 24.321 20.4362 24.466 22.0523 19.2857 20.4937 22.9047 19.1856 23.0499 20.7475 18.2656 19.3274 21.4542 17.8252 21.4789 19.3022 17.1456 18.3261 19.807 16.7246 20.023 17.9343 16.0623 17.0385 18.3928 15.4921 18.39 16.7094 15.0078 15.912 16.8676 14.3691 17.0168 15.4142 14.0449 14.7901 15.3998 13.166 15.6238 14.0927 13.0346 13.7072 14.149 12.2158 14.2638 12.9357 12.0019 12.6025 12.8271 11.2475 13.0004 11.8477 11.0802 11.6085 11.6689 10.1778 11.8911 10.716 10.2412 10.6902 10.5813 9.30987 10.6678 9.75972 9.40891 9.82863 9.50203 8.44561 9.66824 8.89282 8.5774 8.99137 8.49567 7.6914 8.70773 7.97384 7.83786 8.16279 7.70209 6.812 7.66116 7.06732 7.07259 7.39793 6.70444 6.07988 6.86974 6.34737 6.28633 6.53557 5.88326 5.44235 5.94733 5.57963 5.68864 5.82138 5.14736 4.69424 5.15623 4.86052 4.96841 5.1546 4.37002 4.11498 4.46967 4.22751 4.37431 4.44926 3.71577 3.53526 3.78876 3.5539 3.70477 3.83486 3.08024 2.91793 3.22274 2.92402 3.14509 3.18051 2.44951 2.34467 2.61778 2.37242 2.50207 2.65094 1.8554 1.81908 2.03139 1.87792 1.95237 2.02208 1.27013 1.33895 1.42117 1.31956 1.47171 1.53359 0.826754 0.851487 0.909058 0.893606 0.979543 0.945942 0.420954 0.550628 0.483962 0.375869 0.465911 0.404293 54.9019 35.4555 38.0128 36.7961 39.2108 39.5088 41.6056 40.4021 46.6725 43.3179 33.9861 34.5053 41.0627 39.125 44.513 42.1748 34.067 35.0586 40.4731 37.0568 42.4631 39.8024 33.2272 34.9231 39.4434 35.2154 40.5233 37.5894 32.2072 33.6582 37.6616 33.0893 38.4673 35.5908 30.7888 32.2814 35.811 30.9724 36.3274 33.3294 29.1977 30.5195 33.4027 29.0208 33.9263 31.0231 27.3155 28.8302 31.1442 26.8819 31.6177 28.9802 25.4618 26.6779 28.6629 24.8211 29.1598 26.5622 23.6212 24.8181 26.4197 22.7818 26.7514 24.4 21.666 22.8836 24.0426 20.8742 24.6193 22.3652 19.8462 20.9227 21.8938 19.0482 22.3148 20.3684 18.2959 19.0955 19.8081 17.2414 20.1615 18.4033 16.6649 17.4237 17.9 15.6298 18.3136 16.5186 15.0786 15.7064 16.1604 14.0112 16.4082 14.8289 13.7264 14.2976 14.2346 12.5826 14.64 13.2611 12.2881 12.8014 12.6352 11.1439 12.9145 11.8108 11.0001 11.4709 11.1324 9.83274 11.3405 10.3801 9.85548 10.0882 9.69926 8.52354 9.92666 9.12896 8.72698 8.93071 8.44826 7.50331 8.5234 7.88326 7.63974 7.79382 7.12542 6.47447 7.30945 6.82502 6.59484 6.83169 6.07855 5.58987 6.23905 5.81003 5.82317 5.87699 5.1696 4.59727 5.34541 4.97722 4.87478 5.0416 4.16021 3.9868 4.29254 3.98699 4.20179 4.30304 3.47551 3.225 3.46909 3.25112 3.45416 3.53549 2.68673 2.58972 2.78819 2.60495 2.78549 2.82515 2.05734 2.06843 2.09219 2.02341 2.28203 2.17969 1.47783 1.5059 1.61121 1.46455 1.69457 1.69082 0.968142 1.07205 1.02986 0.968818 1.13309 1.10845 0.599344 0.66691 0.673837 0.560815 0.708027 0.686937 0.324258 0.424798 0.261909 0.310622 0.436655 0.378766 88.2985 55.7904 67.5472 64.7625 60.9979 59.7463 58.2465 56.7843 63.4441 59.3381 49.9072 49.6181 55.9641 52.8004 58.9468 55.9409 47.6418 48.2385 54.8551 50.1878 56.2617 53.0552 46.0579 47.4701 52.5917 47.4062 53.7444 50.2912 44.2543 45.8455 49.8407 44.8419 50.8017 47.2926 41.9329 43.5275 46.7913 41.7705 47.7981 44.2339 39.4058 41.0591 43.7846 38.686 44.5171 41.1206 36.728 38.1813 40.3745 35.7332 41.1089 38.0501 34.0657 35.3097 37.1911 32.9268 37.7188 34.8262 31.2824 32.5218 33.847 29.9607 34.5885 31.9214 28.775 29.8396 30.7203 27.1948 31.5112 29.1297 26.2027 27.0952 27.7508 24.5995 28.6464 26.1894 23.6114 24.4839 25.0408 22.213 25.8141 23.6443 21.468 22.2407 22.5611 19.8587 23.1859 21.2327 19.2053 19.8153 20.0103 17.7688 20.4033 18.9304 17.1112 17.8866 17.6837 15.5958 18.2259 16.6288 15.0013 15.4365 15.4138 13.7533 15.9322 14.4816 13.2835 13.8142 13.4128 11.8046 13.9347 12.5875 11.6569 12.1242 11.4303 10.254 12.0518 10.8318 9.9807 10.4117 9.70058 8.69995 10.2786 9.12238 8.67941 8.94892 8.21834 7.27074 8.60261 7.72183 7.26022 7.46901 6.73228 5.97844 7.17346 6.40649 5.95655 6.11825 5.34089 4.93098 5.64888 5.10748 4.92833 5.02307 4.28329 3.88099 4.44039 4.0356 3.97335 4.03878 3.22604 2.84889 3.37097 3.03422 3.18294 3.18736 2.3871 2.25488 2.37808 2.22852 2.43411 2.43872 1.60647 1.5188 1.72287 1.47515 1.75794 1.76491 0.96135 1.06596 1.07631 0.925117 1.25568 1.12693 0.574616 0.721997 0.607581 0.53452 0.802747 0.819847 0.224151 0.403619 0.307424 0.248331 0.52778 0.421138 0.244518 0.278398 0.261394 0.224985 0.293856 0.268341 38.4376 63.0898 31.6752 43.7036 66.2776 66.536 55.018 57.7542 55.3665 57.3466 60.4206 58.5306 52.202 56.534 53.6301 55.2666 59.2849 56.4568 48.2059 53.7673 49.2682 52.274 56.3312 53.6794 44.7183 50.166 45.797 48.7094 52.9617 50.5917 41.7694 46.6703 42.7654 45.2954 49.3131 47.4016 38.8621 43.1684 39.7001 41.8717 45.6812 43.8679 36.0252 39.7442 36.8394 38.4907 42.2609 40.6235 33.3228 36.5808 34.0871 35.5612 38.9199 37.4793 30.5893 33.3782 31.2413 32.5822 35.7332 34.471 28.0872 30.2751 28.6062 29.8665 32.4451 31.3007 25.3599 27.4402 26.1249 26.9703 29.4833 28.4345 23.1308 24.9407 23.6829 24.551 26.677 25.7613 20.7999 22.4295 21.3433 21.9185 24.0305 23.2202 18.8289 19.932 19.121 19.753 21.4558 20.6706 16.6092 17.713 17.0919 17.5385 18.8983 18.3246 14.8607 15.4502 15.1892 15.4102 16.6555 16.2223 12.9523 13.4993 13.1796 13.6039 14.4572 14.179 11.367 11.6096 11.558 11.8144 12.58 12.2049 9.75689 10.076 10.1696 10.2268 10.8501 10.4485 8.28825 8.43751 8.42175 8.46405 8.94731 8.81177 6.95576 7.03719 7.29658 7.14221 7.47712 7.43366 5.84005 5.60844 5.97833 5.92979 6.09145 5.96561 4.60884 4.47604 4.76603 4.78834 4.69285 4.87754 3.86593 3.48483 3.96115 3.79211 3.56621 3.57683 2.9849 2.58968 3.14094 2.92054 2.8397 2.77976 2.2284 1.84787 2.27121 1.92332 1.98641 1.98586 1.57156 1.40932 1.75232 1.55949 1.2438 1.30439 1.13784 0.773754 1.16673 0.976707 0.620968 0.777044 0.779519 0.43095 0.834406 0.65548 0.396923 0.381827 0.362657 0.185602 0.407737 0.258733 0.239896 0.229206 0.269857 0.215851 0.222249 0.258609 0.200143 0.121429 22.1187 31.8149 17.7926 24.0735 32.5275 31.1326 37.0705 44.6711 36.1248 41.7841 48.0712 45.3422 37.2117 43.1027 36.9484 40.4297 46.1931 43.5029 34.4211 39.7294 34.8132 37.6236 42.4066 39.8867 31.9189 36.9317 32.5808 35.0289 39.4425 37.1399 29.9192 34.3709 30.4232 32.6609 36.8721 35.0028 28.0552 31.9007 28.4901 30.4893 34.3154 32.455 26.2166 29.4754 26.6173 28.2467 31.9965 30.5447 24.1565 27.2173 24.799 26.1783 29.5875 28.1194 22.5101 24.9679 22.8979 24.0917 27.1624 25.861 20.7432 22.8806 21.1737 22.0114 24.8652 23.8436 19.1422 20.8149 19.4256 20.1978 22.626 21.6851 17.4963 18.8376 17.7195 18.5229 20.6341 19.7511 15.9892 17.1676 16.1733 16.7472 18.4788 17.8027 14.5045 15.5488 14.673 15.0511 16.709 16.0356 12.9659 13.8905 13.2388 13.4658 14.9635 14.3849 11.7015 12.239 12.0744 11.9968 13.1681 12.8224 10.4497 10.7273 10.6032 10.8154 11.587 11.3885 9.27062 9.30993 9.44181 9.49237 10.1333 9.95205 8.11325 8.23859 8.23697 8.38324 8.93843 8.62163 7.18511 7.04188 7.35798 7.11202 7.59262 7.47776 6.36482 6.06177 6.25332 6.14771 6.39781 6.25548 5.31838 5.18628 5.27789 5.16684 5.41966 5.52785 4.64814 4.26928 4.68376 4.36159 4.40153 4.45958 4.01542 3.37656 4.00681 3.68108 3.80591 3.82458 3.14256 2.76853 3.23812 3.0477 2.85012 2.92982 2.6143 2.11161 2.75693 2.32361 2.26854 2.38526 1.99103 1.75136 2.19447 1.9943 1.66435 1.76159 1.47004 1.13855 1.68489 1.42147 1.15189 1.29762 1.13656 0.801776 1.10639 0.904207 0.788414 0.860041 0.651812 0.536407 0.649012 0.509231 0.394889 0.582331 0.319956 0.404128 0.411212 0.329253 0.369974 0.321372 11.2858 17.5564 8.9467 12.7339 18.4473 17.7779 21.7995 28.1105 21.3275 25.4016 29.912 27.1014 23.6957 29.0442 23.7775 27.0172 31.4244 28.8461 22.3328 27.0282 22.7997 25.4584 29.3218 26.942 20.9056 24.9785 21.2845 23.4663 27.3471 25.3886 19.8331 23.1235 20.0793 21.7454 25.5457 23.8244 18.7211 21.66 19.0926 20.5387 24.0153 22.4741 17.9823 20.3223 17.96 19.246 22.3036 21.295 16.744 18.8235 17.0003 18.0001 20.92 20.0243 15.7427 17.6234 15.9322 16.8019 19.4789 18.5249 14.8302 16.3249 15.061 15.6884 17.9823 17.2421 13.8214 15.0782 13.8553 14.5456 16.5954 16.0996 12.8898 13.9489 12.9898 13.5155 15.3382 14.7261 11.9602 12.7504 12.1741 12.4252 13.9578 13.4897 11.0957 11.5866 11.1534 11.4132 12.7958 12.4161 10.2728 10.612 10.3534 10.4975 11.6213 11.2157 9.39638 9.70562 9.49848 9.49088 10.4651 10.3398 8.7399 8.72801 8.65993 8.7006 9.40089 9.32733 7.87707 7.97978 7.92655 7.87745 8.50677 8.35583 7.26661 7.07665 7.18882 7.06066 7.51201 7.52524 6.47037 6.18285 6.54987 6.34379 6.67671 6.72073 5.85427 5.39817 5.9061 5.59885 5.89132 5.94975 5.12101 4.86084 5.28179 4.965 5.06581 5.18989 4.52165 4.17711 4.66184 4.37139 4.43387 4.52335 3.97958 3.65392 4.1144 3.74837 3.72579 3.87557 3.45337 3.05409 3.49402 3.27163 3.08283 3.25577 2.92433 2.64035 2.89643 2.64694 2.59264 2.7062 2.41623 2.12885 2.43357 2.1969 2.01823 2.16648 1.87647 1.63171 2.05978 1.69429 1.52914 1.67409 1.3436 1.13149 1.44178 1.24404 1.12374 1.20561 0.937458 0.679224 0.996137 0.728786 0.686092 0.720871 0.514663 0.342755 0.460914 0.418532 0.411318 0.386877 3.13246 8.39183 2.86031 5.00203 8.33489 7.445 13.4326 16.905 13.7265 15.4317 16.779 14.7348 16.011 18.3245 16.8274 17.5893 18.9873 16.965 15.4885 17.3331 16.2249 16.7372 18.3724 16.8679 14.7867 16.172 15.233 15.5553 17.4031 16.2879 14.2336 15.2338 14.4511 14.5739 16.5286 15.7478 13.8493 14.5769 13.8591 13.8835 15.8308 15.2284 13.4215 13.7988 13.3926 13.3216 15.2276 14.627 12.8796 13.1048 12.8446 12.6995 14.4752 14.0694 12.3794 12.5598 12.3526 12.1572 13.7799 13.3795 11.8469 11.9071 11.7913 11.6467 12.9991 12.7015 11.3139 11.2713 11.26 11.0017 12.1837 12.0359 10.7799 10.5938 10.6612 10.4606 11.5581 11.3546 10.19 10.0402 10.1319 9.84667 10.7236 10.7598 9.57509 9.35204 9.60697 9.24982 10.0731 10.0318 9.06773 8.82426 9.01831 8.69536 9.39415 9.41373 8.45065 8.20614 8.49063 8.2288 8.78014 8.78322 7.91915 7.63191 7.97194 7.66819 8.02803 8.10734 7.32916 7.03796 7.34533 7.1185 7.39386 7.60094 6.7775 6.44075 6.85341 6.57245 6.82374 6.95997 6.28219 5.89766 6.30365 6.00597 6.19481 6.33939 5.70651 5.38314 5.7377 5.48459 5.63187 5.72853 5.20134 4.84851 5.19811 4.88863 5.08798 5.15369 4.63157 4.30385 4.6737 4.40894 4.47311 4.57862 4.08726 3.78417 4.10305 3.87524 3.92718 4.06387 3.51142 3.22638 3.55594 3.36841 3.43627 3.53773 2.99098 2.73401 3.05937 2.85243 2.83848 2.94987 2.47401 2.2486 2.53704 2.29272 2.41873 2.45574 1.9024 1.78967 2.02665 1.88251 1.80831 1.92218 1.4218 1.33545 1.5388 1.34957 1.3381 1.37596 0.935194 0.851693 1.07783 0.911251 0.863408 1.01729 0.403619 0.33485 0.505491 0.393731 0.421257 0.380277 8.80321 7.60528 7.17621 6.56777 4.71403 6.02267 18.9776 16.3097 18.6859 16.9466 13.4197 13.6004 20.8662 18.0732 21.7535 19.548 15.6316 15.6953 19.9595 17.2961 20.9832 18.8206 15.4223 15.7058 19.0134 16.1715 19.5598 17.448 14.8942 15.417 17.9233 15.2599 18.3471 16.3693 14.3687 14.9765 17.0208 14.4221 17.2938 15.4916 13.8298 14.5588 16.3368 13.7698 16.4017 14.6236 13.3808 14.0213 15.4529 13.0808 15.5648 13.8334 12.8362 13.4626 14.6075 12.4492 14.6046 13.1211 12.3147 12.891 13.7445 11.8362 13.7984 12.438 11.7504 12.2902 12.9134 11.1797 12.9352 11.7182 11.1947 11.6522 12.1417 10.5737 12.1275 11.029 10.6149 11.0373 11.3121 9.99259 11.3615 10.3525 10.0737 10.4329 10.5538 9.37006 10.6441 9.68647 9.4528 9.80993 9.86079 8.79433 9.83848 9.05639 8.93005 9.22882 9.15475 8.22265 9.15392 8.49478 8.36687 8.63113 8.38363 7.59194 8.45136 7.81087 7.80957 8.05243 7.70684 7.09118 7.79853 7.28213 7.28212 7.49437 7.05648 6.51752 7.13144 6.67745 6.66725 6.84993 6.42095 5.91512 6.51321 6.08493 6.17554 6.32842 5.82932 5.43471 5.89387 5.50552 5.57792 5.73551 5.23632 4.9009 5.31109 4.95134 5.07001 5.21252 4.62478 4.38458 4.68734 4.47833 4.4818 4.61532 4.02328 3.85799 4.12401 3.88859 3.97106 4.09572 3.49433 3.31351 3.61473 3.40745 3.40994 3.52275 3.00024 2.80731 3.06107 2.81987 2.917 2.96421 2.41084 2.30595 2.5011 2.30338 2.36637 2.45715 1.87831 1.81176 1.94238 1.83389 1.93074 1.94844 1.3577 1.29956 1.48428 1.35607 1.34137 1.42292 0.974863 0.898529 1.0253 1.0151 0.92288 0.909637 0.437477 0.392907 0.468131 0.477768 0.462725 0.401103 19.3513 16.7485 15.6667 15.8856 13.643 16.4012 32.3624 26.6563 31.7405 28.4257 23.355 24.67 33.2894 28.1466 33.6807 30.7307 24.8054 25.9736 31.2923 26.7811 32.0958 29.4279 23.6717 24.797 29.1886 24.9059 30.0107 27.2069 22.3569 23.6995 27.345 23.2277 28.0163 25.2308 20.8856 22.362 25.6653 21.577 26.221 23.4989 19.8689 21.0735 24.0101 20.0823 24.2675 21.9065 18.6105 19.9245 22.2932 18.7392 22.6803 20.3688 17.3912 18.604 20.7694 17.5147 21.0076 18.7723 16.3167 17.4847 19.218 16.2084 19.486 17.4651 15.272 16.2328 17.6143 14.9927 17.9523 15.9916 14.3204 15.0715 16.1692 13.8182 16.4392 14.7085 13.1927 14.066 14.8385 12.7073 15.0367 13.5952 12.2329 12.8619 13.5742 11.6632 13.6986 12.3823 11.2171 11.9201 12.1748 10.6862 12.4945 11.3269 10.3768 10.9671 11.0792 9.65944 11.3131 10.229 9.4927 9.94751 9.90472 8.80193 10.1373 9.15289 8.67569 9.06147 8.93606 7.94046 9.13701 8.34588 7.91057 8.20963 7.98879 7.18557 8.06582 7.43603 7.16266 7.46359 7.08559 6.49816 7.17756 6.71077 6.42409 6.69287 6.1874 5.72751 6.32719 5.92552 5.7603 5.9504 5.38911 5.01293 5.5226 5.10436 5.17655 5.24177 4.67315 4.36116 4.7014 4.48932 4.53023 4.61868 3.98299 3.74551 4.14357 3.87951 3.95162 4.05398 3.31834 3.2236 3.42332 3.21048 3.39777 3.42294 2.72189 2.7008 2.74205 2.66577 2.78576 2.79952 2.11508 2.13609 2.30259 2.19134 2.27624 2.33459 1.70364 1.7133 1.70283 1.64738 1.79677 1.79067 1.24695 1.19289 1.24399 1.24137 1.28393 1.34197 0.698475 0.756101 0.794771 0.784391 0.868587 0.802956 0.310997 0.496188 0.464999 0.507132 0.474836 0.435612 34.97 30.0022 30.2465 30.7201 25.6132 29.4165 48.7755 41.5461 48.1435 43.9895 38.1278 39.6465 47.7075 41.8068 47.9851 44.7297 38.4274 39.7166 44.4056 39.3087 45.1406 42.0149 35.9962 37.3638 41.3437 36.508 42.3718 39.285 33.5592 34.9938 38.8529 33.968 39.5276 36.4596 31.2327 32.9992 36.1641 31.5304 36.7928 33.8628 29.1305 30.7366 33.56 29.2411 34.0217 31.2403 27.1049 28.6585 31.0169 26.7663 31.5946 28.8179 25.0998 26.4626 28.4655 24.7194 28.9052 26.6371 23.1991 24.4922 26.1001 22.5705 26.6445 24.3065 21.3387 22.5231 23.9087 20.7761 24.4609 22.1762 19.5644 20.6021 21.5822 18.8628 22.2102 20.3058 17.7666 18.7131 19.5581 16.9733 20.0524 18.1323 16.1879 16.8662 17.6266 15.3117 18.1186 16.4312 14.7879 15.359 15.6768 13.7236 16.1061 14.6223 13.2869 13.7668 13.9313 12.3471 14.3598 13.0472 11.8312 12.4322 12.2761 10.9759 12.651 11.5747 10.5931 10.887 10.8571 9.61013 11.1813 10.1393 9.2783 9.77482 9.36468 8.28574 9.74051 8.93143 8.19798 8.39418 8.10496 7.20625 8.36362 7.67136 7.18434 7.33852 6.99301 6.32294 7.1574 6.58972 6.25107 6.40763 5.77885 5.36045 6.0636 5.51203 5.36625 5.49383 4.78438 4.44657 5.03324 4.62515 4.51292 4.66689 3.85255 3.69248 4.07316 3.77055 3.85287 3.91931 3.08586 3.06684 3.30036 3.03085 3.15179 3.19817 2.39701 2.39054 2.49791 2.42206 2.56185 2.55956 1.86592 1.89393 1.86744 1.87033 2.00627 1.97829 1.26523 1.3356 1.35223 1.34235 1.45116 1.51358 0.808732 0.896695 0.91151 0.896568 0.979116 1.0376 0.400232 0.65807 0.413093 0.479852 0.632573 0.595448 0.247307 0.50713 0.292321 0.370074 0.446972 0.351925 65.8178 49.3638 63.724 60.4255 43.206 47.3972 63.5007 57.7127 66.7935 60.0906 54.7521 56.0896 62.1365 55.6673 61.9784 58.3841 52.8533 53.9559 58.3955 52.4054 58.6393 55.2948 49.3181 50.8058 54.6903 49.0293 55.3301 51.9166 46.0681 47.596 50.9665 45.7403 51.9028 48.4392 42.8779 44.5949 47.4227 42.3327 48.4219 44.8488 39.985 41.522 44.0293 39.0287 45.1159 41.4648 37.0286 38.5418 40.6423 35.9688 41.6071 38.1857 34.0819 35.5466 36.9785 33.106 38.0079 34.8678 31.3297 32.592 33.7934 29.8849 34.8509 31.8123 28.6203 29.8741 30.8367 27.239 31.6762 29.0148 26.0058 27.1524 27.8477 24.7299 28.725 26.1898 23.6215 24.472 25.1549 22.1934 25.7935 23.6729 21.2316 22.1076 22.4936 19.9422 23.0734 21.1673 19.072 19.8416 19.9442 17.6617 20.6336 18.7548 17.0606 17.6733 17.5893 15.5383 18.2995 16.6402 14.9221 15.5512 15.3551 13.7634 15.99 14.624 13.1164 13.6278 13.2152 11.8546 13.9351 12.5256 11.3632 11.9113 11.3315 10.2124 11.9496 10.7499 9.93336 10.3363 9.66954 8.70852 10.17 9.05148 8.53805 8.77045 8.24671 7.20399 8.41897 7.7783 7.06795 7.2517 6.62357 5.80256 6.9344 6.25943 5.91401 5.96467 5.22568 4.90167 5.49155 4.96047 4.76557 4.92602 4.14852 3.76548 4.40218 3.96037 3.73029 3.80827 3.04396 2.92367 3.38383 2.8534 3.07684 2.85974 2.27477 2.21477 2.47025 2.13492 2.22786 2.25182 1.47597 1.50304 1.54818 1.37388 1.64974 1.57372 0.86817 0.979464 1.09465 0.913311 1.05118 1.0311 0.455626 0.606596 0.562267 0.483095 0.790849 0.650904 0.254734 0.38308 0.308436 0.24111 0.466553 0.393109 0.227815 0.31641 0.161904 0.270087 0.346745 0.296765 36.197 63.133 28.7826 42.542 65.9489 66.209 53.0385 55.8304 53.0171 55.4764 57.2554 56.4634 52.723 56.1021 54.2884 54.8 58.7642 56.7351 49.2809 54.1705 50.4729 52.6598 57.211 55.0272 45.9417 50.8346 46.9346 49.3979 53.8267 51.6441 42.5683 47.1285 43.5174 45.7583 50.2194 47.8944 39.5713 43.4833 40.1426 42.1935 45.9058 44.336 36.0907 39.7298 36.9837 38.8046 42.4506 40.8299 33.2158 36.3272 33.9365 35.6263 38.7104 37.3165 30.4747 33.2116 31.1025 32.4357 35.5698 34.1431 27.9043 30.1981 28.3541 29.662 32.3672 31.1039 25.1596 27.3576 25.7765 26.9391 29.2123 28.1561 22.9614 24.7862 23.4785 24.17 26.3607 25.4751 20.5911 22.1816 21.147 21.7629 23.89 22.9076 18.504 19.6115 19.0008 19.4033 21.2162 20.5267 16.5182 17.4953 16.7805 17.4359 18.8513 18.1386 14.4367 15.3765 15.0756 15.2625 16.4665 16.1085 12.9057 13.4721 13.1109 13.3012 14.5376 13.8478 11.0118 11.6327 11.4375 11.6201 12.3914 11.9386 9.35759 9.8926 9.87389 9.99363 10.4977 10.3244 8.07406 8.32671 8.4858 8.45936 8.87021 8.57902 6.80813 6.83497 7.17091 7.08717 7.48395 7.0375 5.61209 5.56855 5.78686 5.79266 5.90241 5.79138 4.49291 4.41092 4.60558 4.63531 4.61929 4.50128 3.62633 3.36916 3.76109 3.52001 3.61946 3.51618 2.79642 2.57191 2.95793 2.76394 2.62808 2.55924 1.99047 1.74972 2.23362 1.97146 1.8167 1.83932 1.6281 1.13111 1.6964 1.42821 1.19232 1.27708 0.87065 0.739864 1.12001 0.894901 0.713342 0.723547 0.513868 0.404099 0.813429 0.634135 0.340371 0.325432 0.376247 0.276003 0.457184 0.219956 0.2314 0.239435 0.152253 0.186443 0.248321 0.217145 0.176432 0.248801 19.0576 30.2996 14.0202 22.0796 30.2683 27.8127 35.1329 43.9438 34.287 40.8099 46.3623 44.6521 37.5364 43.7841 37.8749 40.9521 46.6118 44.7143 35.6955 40.7494 36.5548 38.5371 43.529 41.2351 33.169 37.536 33.9874 35.8118 40.6507 38.4307 30.5745 34.7175 31.2203 33.2988 37.3426 35.5712 28.1823 31.9758 28.851 30.7742 34.4357 33.0039 26.1023 29.523 26.5834 28.3438 31.8151 30.4898 23.9921 26.9906 24.397 25.968 29.4727 27.9387 22.0916 24.597 22.5304 24.0002 26.8388 25.5775 20.2829 22.5032 20.5311 21.7249 24.4469 23.3201 18.6792 20.5586 18.9868 19.847 22.2196 21.4005 17.0207 18.7593 17.2586 18.09 20.2295 19.3529 15.4051 16.8431 15.5699 16.3759 18.0771 17.4554 13.9733 15.072 14.2217 14.8089 16.2613 15.7765 12.6739 13.4048 12.9096 13.351 14.537 14.1569 11.2991 11.9415 11.4068 11.8331 12.9194 12.4776 10.012 10.4398 10.1757 10.4744 11.4708 10.8965 8.93771 9.12793 9.17643 9.18781 9.91721 9.68262 7.7879 7.96403 7.99834 8.09205 8.49217 8.43504 6.85599 6.9317 6.98148 6.90099 7.28094 7.23999 5.88085 5.87825 6.04213 5.99708 6.22874 6.11663 5.18806 4.81851 5.21285 5.08567 5.12319 5.17043 4.30352 4.08372 4.48191 4.26537 4.24636 4.31554 3.57755 3.25324 3.80989 3.56665 3.51747 3.54299 2.93092 2.60639 3.14342 2.77536 2.64201 2.71966 2.40804 2.10791 2.52853 2.30178 2.13136 2.1198 1.89352 1.60764 1.98932 1.73631 1.45626 1.58585 1.4427 1.18846 1.53186 1.28705 1.02753 1.21061 0.94819 0.757839 1.03246 0.861912 0.674217 0.723211 0.59699 0.402058 0.692699 0.448989 0.422372 0.500964 0.357732 0.248837 0.326698 0.318807 0.185924 0.356891 9.41259 16.1999 5.97575 11.3115 15.9681 14.7863 22.118 28.1079 21.2317 25.318 28.6082 26.8166 25.0253 29.8156 25.6207 28.0888 32.0519 30.0252 23.6418 28.0812 24.4935 26.4348 30.5855 28.5957 21.6665 25.633 22.2529 24.0306 28.0993 26.3367 20.0792 23.4251 20.3655 22.0518 25.9833 24.2474 18.5456 21.7164 18.8654 20.4626 24.0171 22.6677 17.531 19.9546 17.5235 19.0522 22.1547 20.8931 16.0927 18.5992 16.2845 17.5347 20.525 19.3813 15.0523 17.0079 15.2474 16.3157 18.992 17.9511 14.0721 15.9547 14.1546 15.0037 17.488 16.6029 13.1569 14.5708 13.2404 14.0074 16.117 15.2795 12.2114 13.435 12.435 12.8802 14.6451 14.1615 11.3537 12.2511 11.3854 11.9038 13.5229 12.9283 10.4224 11.1964 10.5631 10.8489 12.2602 11.7511 9.53103 10.3074 9.68819 9.96523 11.134 10.7944 8.863 9.27186 8.89795 9.17187 9.94418 9.83011 8.15269 8.34284 8.17415 8.35188 9.00339 8.72546 7.35824 7.5784 7.38806 7.40475 8.11816 7.92142 6.6542 6.72101 6.78975 6.68474 7.09967 6.97051 5.9644 5.92313 6.1109 6.06553 6.22941 6.24634 5.35884 5.25548 5.50471 5.31649 5.48576 5.47658 4.87392 4.52206 4.79105 4.62093 4.84858 4.73551 4.15129 3.93623 4.36234 4.21345 4.10744 4.11911 3.72576 3.49732 3.81399 3.51975 3.42786 3.48741 3.08072 2.88317 3.30775 2.99247 2.96637 3.01123 2.67008 2.45974 2.7768 2.48473 2.48845 2.44839 2.15583 1.94235 2.19855 2.09054 1.91587 1.94451 1.68312 1.48625 1.80789 1.56103 1.44845 1.66272 1.19608 1.05641 1.34637 1.06626 0.989881 1.15224 0.777598 0.660235 0.883684 0.686063 0.611387 0.706615 0.310549 0.28792 0.369616 0.323174 0.418096 0.440023 3.71965 8.73239 1.35386 5.36575 7.73117 6.98974 15.9968 18.1505 15.728 17.0209 17.6894 16.7105 18.4533 19.7541 19.4151 19.2743 20.4048 19.0391 17.1538 18.4223 18.0802 17.9983 19.4656 18.2279 15.4663 16.6665 16.1346 16.1649 18.0004 16.8601 14.1687 15.2628 14.5981 14.7476 16.6471 15.6906 13.3236 14.1575 13.5369 13.6898 15.5398 14.6453 12.5958 13.2955 12.7007 12.7886 14.5917 13.9835 12.0124 12.6 12.0825 12.1023 13.757 13.1866 11.4959 11.8268 11.5391 11.5043 12.8874 12.511 10.922 11.2525 10.9911 10.8714 12.0895 11.7647 10.4008 10.6964 10.4595 10.3186 11.4718 11.1505 9.91485 9.98233 9.92725 9.77657 10.7623 10.5132 9.33842 9.46807 9.37911 9.21559 10.0556 9.83924 8.81498 8.8229 8.82287 8.65946 9.34317 9.24275 8.26649 8.29472 8.3858 8.21707 8.69553 8.60677 7.78705 7.70436 7.864 7.64087 8.15032 8.08077 7.2662 7.077 7.38468 7.14588 7.52616 7.5713 6.77494 6.57713 6.76484 6.57785 6.98251 6.87714 6.32259 6.13112 6.30598 6.12323 6.31397 6.33789 5.7252 5.51203 5.82588 5.57555 5.74464 5.81375 5.21001 5.13967 5.29615 5.1381 5.25312 5.26941 4.76576 4.53573 4.80512 4.56016 4.67108 4.76882 4.23407 3.98641 4.30405 4.13566 4.12509 4.17174 3.72179 3.56701 3.82848 3.66482 3.6323 3.71929 3.1681 3.04642 3.29617 3.1332 3.09964 3.21646 2.73348 2.64365 2.90035 2.71656 2.65856 2.69849 2.21461 2.19805 2.3198 2.17397 2.21439 2.16672 1.78204 1.64832 1.83289 1.71494 1.65168 1.69806 1.31406 1.22631 1.41733 1.2725 1.22777 1.25267 0.837733 0.800922 0.938714 0.895707 0.74528 0.943909 0.399458 0.415168 0.482046 0.418398 0.33474 0.364801 7.73362 8.75508 4.58653 6.66278 5.88188 6.72798 20.6619 17.9577 20.0189 18.5832 15.7672 16.4635 23.2624 19.6696 24.0262 21.2366 17.8188 18.3511 21.8572 18.5224 22.7332 20.2012 16.9165 17.3325 19.8336 16.7611 20.6006 18.3691 15.4921 16.0897 18.2427 15.4103 18.8718 16.691 14.3782 14.8802 16.8909 14.2613 17.3691 15.3928 13.5123 14.0871 15.8707 13.3826 16.1502 14.3472 12.7612 13.3185 14.8562 12.6279 15.1144 13.4625 12.1331 12.7008 13.9585 11.9526 14.1063 12.6435 11.5252 12.0129 13.1797 11.3094 13.268 11.9097 10.9662 11.3892 12.2588 10.6569 12.3378 11.2331 10.4294 10.8467 11.4532 10.0828 11.5515 10.5783 9.89034 10.2291 10.7253 9.47127 10.8352 9.87866 9.35808 9.66643 9.89844 8.907 10.0506 9.24859 8.81911 9.11455 9.28534 8.32467 9.34963 8.62164 8.25159 8.49232 8.51834 7.79768 8.63451 8.04935 7.72991 7.99079 7.83229 7.25018 8.00795 7.44751 7.21323 7.41739 7.23992 6.74564 7.34355 6.81956 6.74486 6.84735 6.58035 6.18023 6.72787 6.26939 6.22488 6.34325 6.03618 5.63344 6.12338 5.71426 5.66821 5.81689 5.44653 5.12751 5.527 5.22241 5.16043 5.2868 4.84006 4.60722 4.95762 4.69092 4.68663 4.76559 4.29773 4.16297 4.39721 4.1921 4.13703 4.26086 3.73765 3.6016 3.89024 3.63294 3.64112 3.76641 3.1955 3.14153 3.37928 3.23025 3.25888 3.24653 2.66948 2.66833 2.77711 2.65221 2.72509 2.76555 2.17363 2.14154 2.31589 2.18148 2.23013 2.28388 1.70553 1.65093 1.80572 1.69607 1.74598 1.73989 1.26936 1.30617 1.33136 1.27398 1.22118 1.30324 0.784188 0.885258 0.948556 0.827069 0.900963 0.842653 0.432504 0.326673 0.503518 0.425393 0.401794 0.418988 16.6695 16.3476 12.0486 14.5645 12.6528 14.6481 32.3438 27.1451 31.2693 28.7039 24.0801 25.8804 35.0081 29.4295 35.3416 31.9477 26.5211 28.0371 33.0185 28.008 33.9428 30.583 25.2091 26.5345 30.5544 25.8094 31.3494 28.2606 23.1369 24.5563 28.0758 23.6073 28.7779 25.924 21.4371 22.7231 25.9959 21.8042 26.6894 23.8333 19.7965 21.1627 24.0128 20.1663 24.5432 21.9256 18.389 19.7805 22.1424 18.7412 22.6884 20.1804 17.0575 18.2925 20.4049 17.3789 20.8543 18.7503 15.942 16.9315 18.8192 16.0512 19.1869 17.2864 14.7605 15.9261 17.2757 14.6598 17.7246 15.9032 13.831 14.6596 15.9526 13.564 16.2774 14.5537 12.6677 13.5059 14.4812 12.4415 14.8396 13.2884 11.7608 12.476 13.1456 11.4073 13.4508 12.155 10.7409 11.3766 11.8479 10.3915 12.1615 11.074 9.91829 10.4392 10.7732 9.35544 11.0207 9.98772 9.03225 9.50831 9.67066 8.5408 9.81552 9.09667 8.22891 8.56967 8.6102 7.68333 8.77365 8.15836 7.52604 7.87595 7.60991 6.98807 7.82418 7.20892 6.8695 7.00493 6.72316 6.21816 6.98328 6.45857 6.11186 6.36788 5.96487 5.49373 6.10734 5.71945 5.45153 5.66053 5.04921 4.84327 5.27945 4.90262 4.8722 4.90398 4.32561 4.17741 4.50433 4.28269 4.22425 4.31686 3.72752 3.60597 3.82032 3.72636 3.64004 3.72713 3.12037 2.98625 3.26002 3.10452 3.06325 3.11938 2.53436 2.53184 2.66088 2.54141 2.67625 2.64897 2.03404 2.03691 2.06009 2.07508 2.09178 2.08562 1.50138 1.54641 1.61879 1.5489 1.60454 1.60268 1.09915 1.18038 1.10195 1.16361 1.24461 1.18692 0.64897 0.722686 0.714243 0.668012 0.790554 0.74095 0.371315 0.488209 0.364118 0.424655 0.379617 0.443766 32.3726 28.5947 27.6359 29.1774 23.3638 26.3711 47.3254 40.9732 46.3137 43.3973 37.4291 39.3364 48.6162 42.5974 48.8858 45.7435 39.761 41.3752 45.9366 40.4739 46.8847 43.3749 37.6478 39.2601 42.7352 37.561 43.7656 40.2953 34.815 36.3535 39.6249 34.6224 40.6049 37.2244 32.0972 33.6261 36.7293 32.0195 37.5866 34.2037 29.5636 31.2768 33.7913 29.4036 34.6494 31.6024 27.3722 28.6456 30.9963 26.9575 31.8933 28.8944 25.2737 26.4879 28.5901 24.7163 29.2949 26.5826 23.1453 24.3496 26.1395 22.6106 26.6731 24.3112 21.2346 22.3856 23.7768 20.5513 24.3072 22.2869 19.3466 20.3047 21.5602 18.8099 22.2203 20.0159 17.5807 18.5202 19.5644 16.8712 20.0072 18.1354 15.9694 16.7883 17.4849 15.2591 18.0619 16.3217 14.3782 15.1715 15.6903 13.7831 16.1466 14.6174 13.0074 13.6927 13.8277 12.1428 14.3329 13.0647 11.5413 12.1652 12.1647 10.8596 12.5611 11.546 10.3607 10.8747 10.6709 9.52643 11.0334 10.1649 9.22713 9.5738 9.33467 8.33579 9.63402 8.77493 8.04686 8.3364 7.87501 7.16164 8.41161 7.53682 6.88748 7.17151 6.70535 6.15657 7.05599 6.43736 6.09527 6.17625 5.69347 5.30699 5.76234 5.48024 5.15574 5.40807 4.59048 4.37697 4.83954 4.49918 4.31696 4.42691 3.80669 3.60128 3.89722 3.68752 3.6128 3.64159 2.88863 2.96008 3.13725 2.94338 3.0621 2.92726 2.29252 2.31278 2.54835 2.29308 2.40584 2.33227 1.72952 1.7822 1.79354 1.71189 1.89403 1.92147 1.1337 1.26707 1.27104 1.23628 1.36404 1.38304 0.711721 0.88937 0.851152 0.793427 0.968545 0.89434 0.420927 0.590972 0.515297 0.542134 0.598701 0.612027 0.211687 0.441141 0.22994 0.288978 0.407486 0.391594 65.9897 47.9374 64.6807 60.2144 41.3106 44.2582 60.6607 56.6507 63.359 58.3514 53.205 54.7108 61.5248 56.5747 62.8418 58.7563 53.6942 55.4158 59.3303 53.5207 60.3465 56.2 50.8122 52.4029 55.7788 50.1 56.8478 53.0438 47.4748 49.1313 52.0129 46.4776 53.1282 49.1782 43.9619 45.5034 48.265 42.9894 49.1658 45.478 40.5967 42.0868 44.5115 39.4159 45.4419 41.7788 37.3972 38.784 40.6635 36.2888 41.6834 38.3947 34.4044 35.8317 37.426 33.0958 38.1802 35.1746 31.4478 32.6523 33.9001 30.0806 34.9515 32.1675 28.5728 30.0105 30.8419 27.4044 31.7242 29.1089 26.0565 27.1524 28.1114 24.7156 28.6623 26.3251 23.6005 24.6623 25.1681 22.4937 25.9763 23.7011 21.2414 22.1589 22.5887 19.8757 23.254 21.2594 18.9976 19.8234 19.9502 17.8061 20.6741 18.804 16.9485 17.5299 17.579 15.6096 18.3202 16.7757 14.9439 15.5125 15.3313 13.6963 15.958 14.4822 13.0402 13.6564 13.3869 11.7576 13.893 12.4978 11.3228 11.8575 11.307 10.1588 12.0299 10.7455 9.93444 10.1164 9.65087 8.63063 10.1455 9.2376 8.48251 8.74023 8.16483 7.20362 8.59217 7.7821 7.10993 7.21081 6.57587 5.80564 7.00973 6.26782 5.75663 5.89735 5.23526 4.79312 5.47246 4.98873 4.72886 4.88381 4.1792 3.79052 4.43285 4.09137 3.71226 3.80932 3.04782 2.71076 3.379 2.87173 2.83291 2.99212 2.32003 2.05851 2.49271 2.02159 2.073 2.19215 1.36621 1.44377 1.54334 1.32874 1.46505 1.44801 0.767263 0.903146 1.11408 0.85467 1.05508 0.994526 0.504197 0.540822 0.632816 0.667441 0.680985 0.608792 0.195623 0.297049 0.479558 0.247409 0.353218 0.362135 0.277276 0.254995 0.270054 0.233068 0.314373 0.263313 35.7248 63.1219 27.6375 42.0824 66.4241 66.9795 52.3797 55.161 52.354 54.8661 55.8159 55.0855 52.2591 55.2667 53.78 54.2505 57.7369 55.9871 49.4345 53.8948 50.4631 52.3827 56.8768 54.8191 46.263 50.7973 47.311 49.2609 53.9934 51.9393 43.0685 47.1496 43.8106 45.9008 50.1903 48.1636 39.4833 43.4039 40.3471 42.2049 46.2827 44.5393 36.3422 39.7621 36.923 38.7879 42.3495 40.8373 33.2021 36.2576 33.8826 35.3242 38.7483 37.2956 30.4272 33.0264 31.0878 32.248 35.3287 34.0606 27.7106 30.1701 28.3498 29.5162 32.1189 30.9855 25.1153 27.1483 25.6183 26.6251 29.1964 27.9764 22.6443 24.535 23.3366 23.9128 26.3073 25.3862 20.3821 21.9484 20.92 21.6263 23.4837 22.7381 18.3573 19.7292 18.7068 19.4222 21.0241 20.218 16.1853 17.2928 16.6244 17.24 18.6549 17.9627 14.3178 15.2212 14.7548 15.0715 16.4087 15.9696 12.6574 13.2726 13.0446 13.2184 14.3092 13.6515 10.9291 11.3908 11.2062 11.4334 12.3515 11.9251 9.23293 9.81606 9.74128 9.83291 10.6064 10.2502 7.98267 8.13016 8.31675 8.21647 8.78706 8.53401 6.71647 6.72611 6.94344 6.93383 7.34745 7.01831 5.61772 5.51403 5.64867 5.66698 5.92382 5.79773 4.35624 4.32751 4.61344 4.7487 4.65525 4.45508 3.58436 3.27155 3.65161 3.49986 3.57896 3.38489 2.64586 2.48884 2.84361 2.7685 2.49013 2.45914 1.97441 1.64324 2.16883 1.93349 1.84852 1.77339 1.47245 1.17947 1.56119 1.42252 1.12133 1.04582 0.883862 0.620369 1.03193 0.893313 0.516173 0.63411 0.516631 0.46481 0.584642 0.61384 0.421701 0.327959 0.313469 0.296066 0.271566 0.352436 0.246618 0.18322 0.22474 0.225658 0.275822 0.216701 0.151939 0.203921 17.9798 29.8131 12.5335 21.4523 29.7282 26.9528 35.355 43.4134 33.9342 40.4536 46.058 44.2929 37.4607 43.6195 37.6852 40.9687 46.4561 44.7748 35.9057 40.849 36.694 38.7043 43.7979 41.8331 33.5418 37.8078 34.3472 35.9823 40.6969 38.8228 30.8783 34.8157 31.54 33.3821 37.7506 35.7008 28.2365 31.9784 28.8746 30.6588 34.6312 33.103 25.981 29.4278 26.536 28.2342 32.0357 30.3026 23.7719 26.8149 24.4058 25.8453 29.1474 27.6861 21.8656 24.59 22.2839 23.5851 26.7825 25.3452 20.0151 22.3411 20.2441 21.5727 24.3237 23.1563 18.3338 20.3083 18.7624 19.7225 22.0976 21.1354 16.6473 18.4222 16.9311 17.7873 19.9891 19.0658 15.1209 16.5131 15.5479 16.2481 17.9709 17.2899 13.5377 14.8646 13.9447 14.6052 16.1242 15.438 12.1751 13.3927 12.5814 13.0263 14.3853 13.9373 10.9449 11.782 11.2549 11.6776 12.6125 12.2962 9.78441 10.4769 9.96126 10.3476 11.2645 10.7699 8.7397 9.07715 8.78674 9.07216 9.73202 9.41092 7.53379 7.87295 7.82832 7.82293 8.53413 8.18263 6.70132 6.78831 6.83085 6.82071 7.22291 7.02633 5.57637 5.73415 5.85267 5.8753 6.09733 6.06408 4.92465 4.80478 4.83612 4.81804 5.02765 5.04746 4.03972 3.94658 4.27907 4.12955 4.10161 4.14789 3.39502 3.24769 3.63343 3.5685 3.39234 3.29023 2.83958 2.62479 2.8746 2.7422 2.60834 2.6426 2.32266 2.03247 2.3432 2.15797 1.98989 2.14674 1.7104 1.44594 1.79965 1.61988 1.47076 1.44658 1.33534 0.994788 1.38928 1.19455 1.05815 1.04968 0.859044 0.748518 1.0635 0.841382 0.67363 0.674509 0.516084 0.464746 0.604992 0.493856 0.342608 0.467676 0.268982 0.40058 0.433924 0.281936 0.253255 0.236695 8.68658 15.9195 4.67438 10.8086 15.2645 14.234 22.5951 27.9251 21.5586 25.2956 28.6041 27.0786 25.5779 30.0356 26.1669 28.2665 32.0372 30.3822 24.2104 28.1507 25.0037 26.6047 30.6903 29.0307 22.0047 25.8004 22.8155 24.2248 28.4803 26.7199 20.0215 23.379 20.5024 22.1639 26.0766 24.4762 18.614 21.6093 18.8553 20.3061 23.9439 22.331 17.0509 19.8561 17.3539 18.7367 21.9922 20.6993 15.773 18.3824 15.8709 17.3459 20.4396 19.0229 14.6906 16.8814 14.8694 16.0204 18.6405 17.6243 13.6727 15.4688 13.8369 14.9453 17.131 16.1759 12.7381 14.344 12.883 13.7245 15.8463 14.9783 11.7431 13.2171 11.9375 12.7634 14.3735 13.7577 10.8258 12.0273 11.0918 11.52 13.2136 12.5204 9.98274 11.0923 10.1757 10.6919 12.144 11.4066 9.23718 10.0097 9.34788 9.72283 10.8294 10.419 8.47542 9.05636 8.57843 9.0293 9.76221 9.41277 7.71096 8.18808 7.92802 8.15512 8.74105 8.47719 7.07237 7.43922 7.26493 7.2968 7.83324 7.58634 6.50319 6.46226 6.5183 6.46199 6.91714 6.69124 5.74107 5.74354 5.84785 5.8297 6.15478 6.11792 5.09531 5.05261 5.19041 5.19219 5.31821 5.25853 4.60626 4.45663 4.68863 4.64005 4.56849 4.63574 3.95086 3.91143 4.13513 4.12675 3.88515 3.98467 3.50031 3.32992 3.61256 3.41326 3.36812 3.41515 2.99622 2.81443 3.0882 2.94545 2.8799 2.90811 2.50937 2.27687 2.58474 2.42466 2.2933 2.38552 2.03373 1.83955 2.13307 1.96216 1.90461 1.88337 1.57144 1.42863 1.6498 1.61162 1.34399 1.4708 1.13618 0.973919 1.21261 1.13427 0.934664 1.08182 0.754071 0.683811 0.849675 0.655862 0.583951 0.664243 0.238194 0.26749 0.357046 0.385912 0.340624 0.36896 4.47353 8.98022 1.01557 5.64401 7.75032 7.33993 17.255 18.5569 16.7473 17.518 18.3303 17.6921 19.8097 20.1805 20.6289 19.9718 20.8781 20.0284 18.1479 18.7784 19.0916 18.5535 20.039 18.9638 16.0323 16.8066 16.6923 16.4016 18.2681 17.2648 14.3281 15.2827 14.777 14.8396 16.6775 15.7662 13.1145 14.1212 13.4306 13.5667 15.3848 14.5036 12.3118 13.0483 12.4503 12.5912 14.2535 13.5726 11.5843 12.3887 11.6936 11.8317 13.5343 12.6987 10.9601 11.6225 11.0674 11.1722 12.5096 12.032 10.4557 10.8852 10.5394 10.6936 11.7908 11.3431 9.88225 10.3267 9.97366 10.0542 11.0979 10.6769 9.37683 9.72709 9.48421 9.49847 10.3135 9.9937 8.87973 9.14141 8.99628 8.99028 9.57712 9.37565 8.39278 8.56081 8.5093 8.43356 9.07767 8.84562 7.92341 7.99026 8.00989 7.86011 8.41246 8.25751 7.36629 7.52777 7.51283 7.42662 7.79068 7.67671 6.9623 6.95915 7.06314 6.89569 7.17097 7.10633 6.43002 6.39911 6.49104 6.46322 6.61451 6.55174 5.89714 5.84253 6.04612 6.08735 6.01818 6.09309 5.44238 5.38469 5.54883 5.46329 5.49312 5.62324 4.99214 4.967 5.05924 4.94547 4.98129 5.01459 4.5033 4.49361 4.60207 4.43454 4.49739 4.47478 4.05314 3.93281 4.17592 4.00097 3.91843 4.01745 3.48373 3.47429 3.67265 3.59839 3.425 3.53111 3.10772 2.98463 3.21081 3.10761 3.08719 3.00568 2.62884 2.50381 2.71063 2.61672 2.48148 2.56691 2.06835 2.05477 2.26756 2.12278 2.05305 2.09459 1.68662 1.58944 1.8195 1.66503 1.56026 1.65009 1.21515 1.13861 1.31093 1.21655 1.16907 1.19244 0.779509 0.774717 0.864128 0.815779 0.719105 0.761316 0.332007 0.26527 0.485574 0.356399 0.294217 0.315019 7.48454 9.29582 3.47458 7.01227 6.50849 7.54386 21.6136 18.5549 20.7862 19.1886 16.7286 17.6292 24.5363 20.3077 25.0439 21.9772 18.9089 19.5726 23.0013 19.0457 23.7357 20.8365 17.7644 18.4606 20.6159 17.197 21.3026 18.792 16.0573 16.6075 18.6678 15.5916 19.1218 16.9292 14.5659 15.1764 17.0379 14.3576 17.5108 15.4626 13.4217 14.0676 15.7855 13.343 16.103 14.3521 12.5581 13.1066 14.688 12.5312 14.9819 13.3985 11.821 12.294 13.7011 11.7926 14.0266 12.546 11.2099 11.6366 12.8057 11.1692 13.1178 11.7754 10.6278 11.0258 11.9372 10.5133 12.1422 11.0557 10.0406 10.4398 11.1863 9.87753 11.3759 10.4206 9.55743 9.78784 10.4357 9.33356 10.5764 9.74297 9.0292 9.26519 9.6935 8.74665 9.90068 9.05639 8.48414 8.70634 8.93258 8.18139 9.14976 8.47676 7.93608 8.17108 8.31512 7.6126 8.48422 7.9104 7.42087 7.61086 7.58687 7.10729 7.75123 7.31422 6.97115 7.13008 7.04456 6.55647 7.14245 6.73108 6.45489 6.59684 6.31374 6.05434 6.51037 6.19173 5.947 6.11341 5.77717 5.55658 5.90368 5.62629 5.45579 5.55827 5.17714 5.0232 5.29449 5.06466 5.00993 5.05969 4.63085 4.52028 4.75697 4.54807 4.50612 4.56833 4.10186 4.02715 4.21627 4.07575 4.01808 4.07088 3.55676 3.59019 3.69003 3.55131 3.55867 3.54633 3.10848 3.06409 3.17181 3.12259 3.05568 3.05084 2.57796 2.6263 2.71738 2.61448 2.59416 2.59307 2.14882 2.13591 2.18553 2.16653 2.11566 2.11096 1.65682 1.63626 1.70538 1.67102 1.59125 1.72506 1.15449 1.17386 1.31297 1.15505 1.19954 1.23706 0.787174 0.782295 0.861148 0.834591 0.799544 0.760469 0.458397 0.383959 0.454857 0.283268 0.366109 0.35641 15.7168 16.3782 10.6337 14.2566 12.3446 14.303 32.6406 27.5745 31.5119 29.105 24.6279 26.258 35.7532 30.0464 35.896 32.4946 27.4172 28.9294 34.0926 28.6063 34.6595 31.2425 26.1717 27.7389 31.1981 26.2838 32.0743 28.8337 23.9787 25.4662 28.7419 24.0705 29.3125 26.3616 21.8446 23.274 26.3454 22.201 26.9925 24.1506 20.0523 21.394 24.1607 20.3169 24.7609 22.1612 18.5185 19.8323 22.2858 18.7551 22.8019 20.4809 17.0858 18.2793 20.5306 17.3302 21.0047 18.7944 15.9528 16.909 18.9003 15.9664 19.3066 17.3074 14.7019 15.6163 17.2629 14.747 17.6822 15.8919 13.5844 14.4466 15.8992 13.5511 16.1666 14.6716 12.5445 13.2777 14.3852 12.3852 14.7381 13.3267 11.5824 12.1702 13.0953 11.4023 13.4443 12.1791 10.6823 11.2138 11.8791 10.3091 12.1933 11.1143 9.74445 10.2302 10.7512 9.37368 10.9274 9.99886 8.89819 9.33401 9.592 8.50004 9.71587 9.01864 8.15411 8.40318 8.50417 7.73798 8.75871 8.1254 7.44007 7.60678 7.56947 6.89072 7.77196 7.19834 6.68082 6.83748 6.68595 6.19313 6.84298 6.38766 5.92312 6.13951 5.83464 5.45079 6.0893 5.57531 5.30906 5.44539 4.97464 4.75344 5.13877 4.89365 4.67242 4.83815 4.26522 4.13512 4.45186 4.20088 4.1063 4.18177 3.54638 3.47958 3.81366 3.60492 3.51434 3.67359 2.98778 3.01882 3.13796 2.95235 3.0221 2.96774 2.44563 2.47838 2.57085 2.48239 2.46558 2.50078 1.88395 1.97128 1.98477 1.98229 2.08961 2.02895 1.44109 1.58911 1.56332 1.4968 1.60906 1.56449 1.02858 1.07695 1.07681 1.09124 1.15172 1.13554 0.631289 0.685555 0.649103 0.645152 0.705204 0.705063 0.265946 0.472644 0.370214 0.418043 0.388306 0.395268 31.8413 28.4785 27.0215 28.7165 22.8349 25.3948 47.4928 41.0824 45.9007 43.4695 37.5703 39.3258 48.8499 43.2547 48.981 45.9423 40.2596 41.8492 46.7878 41.0421 47.6023 43.9839 38.4739 40.0646 43.5701 38.1202 44.6463 40.8743 35.5034 37.2169 40.2882 34.9273 41.2678 37.7915 32.6408 34.3387 37.1126 32.1624 37.9265 34.6225 29.9146 31.7267 34.055 29.6621 34.8658 31.9103 27.5608 28.9991 31.3534 27.128 32.2984 29.2808 25.3871 26.7743 28.7115 24.8869 29.4788 26.8979 23.3003 24.4168 26.2465 22.8475 26.8573 24.4373 21.2638 22.3744 23.928 20.8081 24.3343 22.2767 19.5175 20.4339 21.6312 19.0626 22.1298 20.2209 17.7335 18.5114 19.4962 17.1374 20.0803 18.3892 16.013 16.8107 17.5637 15.4159 18.1675 16.3718 14.4643 15.0132 15.807 13.8215 16.1799 14.7037 13.0406 13.5616 14.0419 12.282 14.2294 13.0269 11.6705 12.1368 12.3256 10.9868 12.5688 11.6089 10.4484 10.743 10.6944 9.44896 11.0798 10.1015 9.06555 9.40364 9.21562 8.16663 9.57384 8.89808 7.88881 8.18496 7.92615 7.17725 8.28804 7.4869 6.88508 7.16632 6.55613 6.07111 7.02056 6.43127 6.09989 6.07777 5.51965 5.18584 5.77225 5.43641 5.17474 5.20382 4.57951 4.33177 4.77999 4.4886 4.18582 4.34972 3.62827 3.56917 3.97388 3.64791 3.50628 3.587 2.92324 2.88877 3.17761 2.98011 2.98618 2.90907 2.17341 2.32268 2.45604 2.36133 2.31078 2.31496 1.61038 1.81695 1.77562 1.70392 1.77273 1.84383 1.12985 1.23747 1.24336 1.2051 1.3759 1.29646 0.760773 0.835852 0.798775 0.798751 0.893986 0.923356 0.448417 0.543846 0.429466 0.423078 0.558814 0.495101 0.279422 0.397626 0.249722 0.278084 0.313248 0.501165 67.1345 47.6417 65.6996 60.3903 40.9768 43.5765 59.9327 56.3049 62.2894 57.892 52.9138 54.3172 60.937 56.6378 62.4641 59.0423 53.7668 55.6017 59.6363 54.0793 60.4559 56.8137 51.2339 53.4094 56.5098 50.6206 57.4773 53.4694 47.9634 49.8547 52.5125 47.0729 53.7639 49.7838 44.4648 46.3416 48.5547 43.3039 49.689 45.9465 41.0185 42.6398 44.7776 39.8249 45.8783 42.0743 37.6844 39.2844 41.0834 36.481 42.0983 38.7466 34.5076 35.8121 37.4714 33.4665 38.4729 35.446 31.5401 33.0227 34.2497 30.4745 35.2296 32.4035 28.854 30.0363 31.0565 27.6466 31.9956 29.392 26.203 27.2462 28.164 24.8255 28.8511 26.4189 23.6996 24.642 25.2494 22.5487 26.0193 23.7465 21.3151 22.1298 22.5977 20.072 23.5023 21.2128 19.1056 19.8463 20.1207 17.8357 20.6325 18.8639 17.0582 17.7102 17.6341 15.7696 18.3792 16.6601 15.0354 15.7049 15.4616 13.894 16.0051 14.6033 13.114 13.5793 13.349 11.7576 14.0153 12.6963 11.4029 11.8592 11.3047 10.3382 11.9898 10.7753 9.88645 10.1008 9.83283 8.70513 10.1834 9.14752 8.40661 8.77534 8.04883 7.22963 8.54188 7.74551 7.09127 7.06562 6.57209 5.8495 7.05013 6.25819 5.78551 5.87989 5.28385 4.75142 5.66664 4.96073 4.7577 4.88457 4.03345 3.75349 4.4319 3.88459 3.67231 3.80917 3.01077 2.7691 3.46254 2.89729 2.87512 2.89421 2.20807 2.06484 2.31299 2.13039 2.18878 2.14695 1.29901 1.45302 1.46705 1.43716 1.5448 1.50442 0.896655 0.907529 1.06197 0.810711 0.952981 1.05981 0.507587 0.60944 0.596336 0.520606 0.60014 0.735743 0.288811 0.350605 0.316307 0.214336 0.377152 0.320867 0.249958 0.22408 0.326347 0.139417 0.280497 0.263087 35.4649 62.8386 27.2738 41.6615 66.4655 67.2871 52.221 55.0164 51.932 54.5343 55.3978 54.4865 51.8371 55.2241 53.465 54.0362 57.1721 55.4891 49.1411 53.3489 50.3699 51.9478 56.4996 54.5294 46.0422 50.4577 47.0903 48.9052 53.7278 51.7647 42.7613 46.7472 43.6406 45.4377 49.9377 48.1073 39.2979 43.087 40.1519 41.9309 46.043 44.4933 36.0477 39.3816 36.769 38.3921 42.2978 40.4982 32.9976 36.2355 33.7115 35.272 38.5701 37.1302 30.2191 32.7791 30.6937 32.1194 35.1811 33.9506 27.5781 29.784 27.9762 29.2189 31.9907 30.7579 24.779 27.2245 25.2347 26.4634 29.0154 28.0041 22.4357 24.4659 22.9931 23.9593 26.2673 25.1056 20.3391 21.8745 20.6616 21.5592 23.5719 22.5932 18.3802 19.4843 18.6269 19.2268 20.8773 20.0346 16.1379 17.109 16.599 17.0433 18.5515 17.9517 14.188 15.1736 14.6171 14.9772 16.2338 15.6804 12.5662 13.2429 12.9803 13.0528 14.1324 13.7237 10.7225 11.4108 11.1426 11.3903 12.0973 11.6384 9.30485 9.83489 9.75717 9.83005 10.3651 10.1715 7.96905 8.26919 8.09421 8.35036 8.65741 8.52326 6.56293 6.74794 6.92753 6.96442 7.21012 6.96436 5.48597 5.47369 5.69803 5.73661 5.84629 5.73054 4.24205 4.322 4.68486 4.46757 4.4194 4.54106 3.4978 3.34654 3.66613 3.47517 3.52721 3.51418 2.73358 2.50397 2.94624 2.69289 2.5251 2.47876 1.96299 1.72306 2.00371 1.89164 1.86205 1.89153 1.51556 1.17743 1.58905 1.45757 1.12593 1.22879 0.830827 0.742541 1.00156 0.984336 0.647128 0.764972 0.594638 0.369456 0.657648 0.54812 0.306489 0.388629 0.392701 0.222015 0.45737 0.289171 0.25633 0.254629 0.225551 0.208537 0.316338 0.212608 0.140582 0.234796 17.6972 29.5698 12.2687 21.3573 29.381 26.8226 35.0359 43.002 33.8612 40.0009 45.6809 44.0439 37.2304 43.3523 37.486 40.3566 46.066 44.6179 35.7575 40.3616 36.4526 38.2605 43.4168 41.7139 33.1105 37.3652 34.1638 35.7412 40.4336 38.6886 30.6633 34.4527 31.4573 33.0822 37.4377 35.7821 28.1308 31.535 28.6721 30.4388 34.4989 32.9121 25.7189 28.9729 26.2831 27.827 31.6981 30.0893 23.6714 26.5609 24.0827 25.7158 29.132 27.4244 21.6835 24.3837 22.0133 23.5321 26.5497 25.2937 19.8277 22.2171 20.2706 21.3938 24.0501 22.8679 18.2344 20.2498 18.6873 19.578 21.9929 20.8776 16.5093 18.3285 16.8287 17.6992 19.8493 18.9564 15.0928 16.4416 15.3961 16.1325 17.8871 17.0181 13.5788 14.8947 13.854 14.5253 16.0513 15.4533 12.1027 13.2267 12.4693 12.74 14.1913 13.6826 10.763 11.5237 11.1313 11.5699 12.6543 12.0896 9.57331 10.3329 10.0059 10.2383 11.1527 10.6849 8.54888 9.04118 8.76119 9.00274 9.73559 9.3261 7.49237 7.81269 7.66548 7.96332 8.3576 8.06579 6.53315 6.75701 6.69236 6.78874 7.14358 6.87528 5.66351 5.69512 5.76549 5.76512 6.10673 5.80305 4.77218 4.74342 5.0037 4.8967 4.94241 4.87078 4.14212 3.94184 4.22765 4.18086 4.0747 4.15806 3.38055 3.20211 3.60696 3.3765 3.2355 3.30405 2.78003 2.58204 2.91035 2.69221 2.52915 2.65477 2.23257 1.88178 2.31402 2.24091 2.02971 2.10616 1.77969 1.45904 1.85805 1.75704 1.45049 1.49395 1.39805 1.24043 1.41782 1.26887 0.934834 1.04489 0.895357 0.795514 0.973185 0.864192 0.625744 0.757902 0.560366 0.371419 0.696901 0.469464 0.387772 0.397853 0.33681 0.399949 0.302437 0.31935 0.158768 0.311486 8.58859 15.635 4.51227 10.6787 15.0475 13.9841 22.6599 27.5588 21.4656 25.0255 28.3415 27.1398 25.6565 29.585 25.8952 27.9254 31.7488 30.2943 24.2527 27.7911 24.9509 26.2722 30.3884 29.0072 22.0146 25.3265 22.5443 23.9513 28.2361 26.5227 20.0334 23.3052 20.5238 22.0175 25.9926 24.2986 18.3464 21.4231 18.7506 20.1298 23.7527 22.4357 16.793 19.6834 17.1925 18.6585 21.8229 20.5692 15.7192 18.1396 15.7744 17.1797 20.0404 18.9176 14.3607 16.754 14.8627 15.8998 18.3868 17.4952 13.419 15.4051 13.729 14.7185 17.0499 16.117 12.6676 14.2548 12.827 13.6262 15.4627 14.7957 11.5915 13.1667 11.7241 12.6177 14.2125 13.3893 10.7007 12.0656 10.8573 11.4423 13.0057 12.3671 9.84447 10.9829 10.1445 10.6778 11.9231 11.3705 9.18747 9.82114 9.33756 9.75009 10.7268 10.209 8.3808 9.11964 8.55251 8.88599 9.613 9.31287 7.68908 8.17807 7.79638 8.04544 8.64465 8.27318 6.96195 7.3125 7.25644 7.27582 7.84965 7.47808 6.37807 6.50303 6.49121 6.54919 6.77258 6.64332 5.6026 5.83851 5.84013 5.87693 5.9621 5.86711 5.02573 5.04545 5.29384 5.22286 5.33181 5.25741 4.55439 4.43952 4.62011 4.47959 4.62562 4.56129 3.93552 3.90329 4.15389 3.97534 3.9861 3.94002 3.43415 3.34009 3.54662 3.43533 3.28284 3.33557 3.02284 2.82438 3.06388 3.00013 2.77136 2.76174 2.44739 2.33659 2.51093 2.48726 2.28171 2.31818 2.08919 1.95474 2.22431 2.03449 1.76243 1.9083 1.64445 1.47332 1.65031 1.66053 1.40185 1.54828 1.15174 1.0459 1.33293 1.08188 0.950668 1.02655 0.711665 0.672308 0.854612 0.802729 0.522537 0.605329 0.27178 0.387001 0.450816 0.360941 0.266548 0.356586 4.5946 8.68916 1.03199 5.54119 7.5878 7.42448 17.5478 18.1296 16.8253 17.17 18.1926 17.9222 20.1355 19.8511 20.7362 19.5762 20.7007 20.2401 18.4401 18.471 19.2047 18.2595 19.8747 19.0804 16.1933 16.7049 16.7627 16.3657 18.2246 17.3387 14.3559 15.2112 14.7799 14.7994 16.6431 15.6781 13.1094 13.9945 13.3721 13.6148 15.1487 14.4562 12.2032 13.0498 12.396 12.6807 14.1497 13.391 11.4637 12.3121 11.6299 11.873 13.2147 12.4695 10.8335 11.6533 11.0018 11.2973 12.4258 11.7812 10.3101 11.0152 10.4828 10.6501 11.6605 11.1573 9.79929 10.3729 9.9513 10.1168 10.9785 10.4169 9.31992 9.70576 9.49909 9.54311 10.1226 9.83061 8.78308 9.19334 8.94338 9.03019 9.58326 9.15764 8.3436 8.60625 8.42318 8.48774 8.9374 8.60891 7.86433 8.12859 7.97181 8.051 8.22235 8.09584 7.31229 7.47137 7.46364 7.51624 7.72135 7.5312 6.84821 6.991 7.02215 6.95752 7.11606 7.00188 6.3713 6.51277 6.53895 6.5121 6.58696 6.48047 5.88712 5.97335 6.04754 5.9855 5.91215 5.91575 5.39351 5.48808 5.5382 5.56309 5.44632 5.44023 4.91218 4.93717 5.08917 5.01578 4.94103 4.90809 4.44111 4.47538 4.60277 4.53565 4.42265 4.50194 3.94961 3.96647 4.08119 4.02123 3.91743 3.97051 3.53819 3.52254 3.67969 3.62153 3.40746 3.47905 3.03222 3.02259 3.163 3.0796 2.96603 2.98278 2.57308 2.52562 2.71179 2.61009 2.47528 2.51509 2.1267 2.12437 2.29974 2.13769 1.98963 2.01451 1.63588 1.61528 1.7293 1.72572 1.59632 1.59169 1.23018 1.2028 1.33744 1.32581 1.19712 1.18283 0.763372 0.775402 0.845031 0.837673 0.72403 0.736742 0.337143 0.417537 0.474347 0.392308 0.310465 0.330725 7.43725 9.27142 3.33443 6.9856 6.62062 7.67323 21.9065 18.4889 21.0116 19.2369 16.842 17.997 24.9078 20.2509 25.4668 22.0397 19.1557 20.0464 23.399 18.9653 23.9478 20.8859 17.9951 18.875 20.9685 17.2231 21.5357 18.8795 16.2641 16.8788 18.857 15.6928 19.4328 17.0913 14.7139 15.3492 17.2961 14.55 17.6933 15.6639 13.5369 14.0737 15.9843 13.5596 16.3503 14.5594 12.6139 13.1417 14.8347 12.7274 15.0824 13.6375 11.9159 12.3155 13.8421 12.0376 14.1614 12.7186 11.2202 11.5869 12.8743 11.3266 13.1131 11.9724 10.6373 11.0644 11.9484 10.6842 12.2343 11.2548 10.0844 10.3611 11.2036 10.0724 11.5286 10.5581 9.50155 9.77684 10.4017 9.47171 10.6328 9.85394 8.98015 9.18222 9.69916 8.89939 9.87685 9.24411 8.49896 8.64425 8.97327 8.32104 9.19515 8.60347 7.95651 8.10546 8.26879 7.75885 8.5122 7.9629 7.46161 7.5645 7.63314 7.23719 7.81426 7.45728 6.97378 7.02509 6.95493 6.69093 7.13842 6.8672 6.46673 6.54441 6.36752 6.12532 6.53566 6.2629 5.9278 5.978 5.77272 5.59456 5.954 5.6775 5.46852 5.52181 5.17764 5.09106 5.39231 5.15345 4.92482 4.9818 4.61111 4.58212 4.80498 4.63571 4.49597 4.56552 4.04106 4.05498 4.24878 4.14349 3.98355 3.98778 3.52244 3.58325 3.66814 3.64174 3.566 3.55591 3.05363 3.07362 3.19533 3.12687 2.99535 3.03611 2.5296 2.66795 2.68242 2.6191 2.56916 2.58879 2.15997 2.1336 2.23108 2.1325 2.10743 2.08673 1.58747 1.66692 1.80338 1.63326 1.67095 1.70511 1.14048 1.17123 1.36211 1.2233 1.17982 1.21746 0.730927 0.737114 0.861661 0.835244 0.782798 0.804006 0.401774 0.371429 0.490371 0.347248 0.327299 0.361907 15.4739 16.6029 10.5689 14.4171 12.4677 14.2542 33.0831 27.801 31.6612 29.2745 24.9018 26.6324 36.0848 30.0886 36.1299 32.7377 27.811 29.3842 34.4144 28.644 34.9177 31.4074 26.4079 28.0402 31.7257 26.3707 32.4077 29.0092 24.351 25.874 29.0755 24.2554 29.7146 26.4814 22.1382 23.5443 26.6694 22.242 27.1951 24.3766 20.2679 21.589 24.4155 20.6273 25.0714 22.2878 18.7894 19.9152 22.4141 19.0221 23.0249 20.6319 17.2607 18.5019 20.6436 17.6157 21.1582 19.0714 16.1815 16.9613 19.1339 16.2001 19.4293 17.5478 14.8388 15.7682 17.3726 14.9224 17.7602 16.1646 13.7462 14.5249 15.9448 13.7507 16.3501 14.7074 12.6203 13.2957 14.4569 12.6021 14.8575 13.5347 11.6304 12.3267 13.1102 11.5465 13.4931 12.3934 10.6665 11.2261 11.8531 10.4137 12.2631 11.2926 9.77048 10.2676 10.7579 9.60066 11.105 10.1282 8.93952 9.29617 9.53294 8.6173 9.89084 9.12171 8.18526 8.38752 8.53263 7.81363 8.83326 8.24306 7.42079 7.64538 7.56063 6.96505 7.77184 7.38549 6.72204 6.77109 6.71084 6.2288 6.93759 6.41666 5.88535 6.06271 5.85064 5.51284 6.01885 5.85192 5.3647 5.32972 5.04193 4.83021 5.12511 4.96462 4.76616 4.75449 4.26386 4.21191 4.46832 4.26192 4.11889 4.18265 3.61492 3.59534 3.73665 3.67621 3.54921 3.6037 3.03975 3.03893 3.18576 3.07897 3.02349 3.02905 2.43848 2.51341 2.55135 2.46004 2.47165 2.48313 1.86666 1.99575 1.98494 2.01001 2.03406 1.96497 1.40874 1.57454 1.54723 1.51528 1.62259 1.57268 1.0329 1.1332 1.13347 1.14294 1.13657 1.14491 0.590339 0.761456 0.688749 0.742088 0.70699 0.667228 0.299011 0.373165 0.36097 0.380247 0.486011 0.368455 31.7679 28.594 27.0544 28.848 22.8338 25.3602 47.6517 41.3964 46.0418 43.5868 37.8743 39.4781 49.054 43.296 49.1209 46.2773 40.3803 42.3306 47.0253 41.4002 47.8851 44.2253 38.6493 40.7072 43.8803 38.2704 44.9589 41.1338 35.8482 37.7836 40.6855 35.3042 41.3465 37.987 33.061 34.8203 37.4982 32.5301 38.2659 34.8376 30.227 31.9405 34.3625 29.933 35.1833 32.1481 27.8838 29.29 31.5851 27.327 32.4044 29.4244 25.4871 26.9803 29.025 25.2412 29.6611 27.0055 23.4045 24.5786 26.2962 22.8975 27.1759 24.6922 21.5543 22.6679 24.0741 20.9946 24.4839 22.5361 19.6594 20.6868 21.7634 19.098 22.5073 20.3615 17.799 18.5593 19.6025 17.3111 20.1719 18.5949 16.1238 16.9487 17.7036 15.6445 18.0675 16.7318 14.6064 15.247 15.7637 13.92 16.1163 14.7686 13.1241 13.5433 14.0171 12.4566 14.5058 13.2692 11.6356 12.204 12.363 10.9618 12.7476 11.6575 10.4088 10.7263 10.9019 9.5878 11.1001 10.1322 9.25386 9.4358 9.29699 8.34476 9.59969 8.92681 8.01665 8.31052 7.93712 7.26352 8.35835 7.46467 7.04987 7.24566 6.76032 6.25122 7.09304 6.55187 6.00465 6.15616 5.53356 5.22767 5.94412 5.55603 5.0717 5.24071 4.64157 4.37731 4.90888 4.5426 4.37015 4.34634 3.67881 3.55609 3.97812 3.78257 3.6598 3.58972 2.85722 2.85849 3.19193 2.9198 3.02328 2.89053 2.2966 2.25296 2.44521 2.38093 2.33954 2.27628 1.65905 1.76195 1.76412 1.71399 1.79044 1.77881 1.19276 1.24552 1.18957 1.24102 1.34592 1.26425 0.731866 0.931886 0.848215 0.846372 0.946506 0.927619 0.443667 0.572593 0.460454 0.449968 0.574156 0.55036 0.215269 0.325913 0.338646 0.283585 0.427405 0.380666 67.5974 47.9537 65.7858 60.3277 40.9653 43.6356 60.1555 56.9648 62.841 58.3242 53.1688 54.5364 60.874 56.9411 62.6431 59.2976 53.9534 55.6332 59.8058 54.2935 60.9058 56.9702 51.5864 53.5499 56.6851 50.9401 57.8066 53.6455 48.2136 50.2714 52.8893 47.1612 54.0126 49.968 44.8099 46.6495 48.7863 43.5785 50.072 46.0796 41.2482 43.0992 44.9215 40.0918 46.1259 42.529 38.0215 39.6194 41.2513 36.6405 42.2986 39.0794 34.7286 36.2851 37.739 33.6315 38.6583 35.7572 31.8017 33.0794 34.2917 30.6173 35.4064 32.6413 28.8765 30.1865 31.2788 27.6495 32.0331 29.481 26.3319 27.4305 28.183 25.0098 29.1727 26.6253 23.9273 24.8728 25.3234 22.5467 26.4258 23.9851 21.4705 22.3011 22.7981 20.0563 23.5359 21.5358 19.2686 20.1268 20.2206 17.9281 20.9005 19.0098 17.2848 17.8313 17.8766 15.8514 18.3939 16.85 15.1542 15.6439 15.6239 13.9981 16.0613 14.6392 13.3099 13.7008 13.4797 11.9704 14.1171 12.7526 11.446 11.8857 11.5343 10.3087 12.0638 10.8537 9.93745 10.1908 9.61106 8.70732 10.3531 9.20596 8.54005 8.75783 8.26902 7.42553 8.50957 7.738 7.05719 7.24641 6.70783 5.96655 7.02531 6.42816 5.79334 5.94959 5.27692 4.73613 5.62472 5.02612 4.74858 4.82571 4.12892 3.78333 4.40085 4.05702 3.76674 3.76303 3.03636 2.9 3.36888 2.81974 2.81266 2.99713 2.10417 2.1327 2.37535 2.01902 2.15615 2.09746 1.47003 1.40728 1.59473 1.30787 1.56588 1.55405 0.770244 0.922404 0.968219 0.842555 1.05946 1.01058 0.543406 0.578159 0.679514 0.533652 0.654171 0.68143 0.212599 0.329812 0.394715 0.2973 0.355077 0.414237 0.223139 0.257409 0.198214 0.181112 0.249715 0.29601 35.4099 62.2432 27.7429 41.5644 65.8278 66.349 51.9535 55.628 51.7245 54.7518 55.6494 54.8154 51.5627 54.9646 53.0858 53.7699 57.112 55.5243 48.7408 52.8375 49.9664 51.3637 56.1512 54.1719 45.5504 49.5789 46.3176 48.1438 53.1036 51.2493 42.4269 46.1011 42.9461 44.8817 49.4454 47.6893 38.9298 42.4726 39.6941 41.2058 45.6956 44.0172 35.7888 38.9194 36.3341 37.8363 41.8572 40.3111 32.7822 35.6902 33.208 34.8854 38.2569 36.9408 30.0268 32.6777 30.5327 31.656 35.0437 33.7711 27.3171 29.5288 27.6252 28.9048 31.7316 30.5266 24.6916 26.9034 25.1865 26.2472 28.8245 27.7801 22.3624 24.1912 22.8469 23.858 26.0194 24.7943 19.9579 21.6631 20.4679 21.3425 23.4132 22.4843 18.0613 19.4454 18.5223 19.2227 20.6259 19.9718 16.0271 17.296 16.5552 17.1161 18.3906 17.5814 14.0729 15.1603 14.4675 14.996 16.2051 15.6461 12.5243 13.1601 12.9066 13.068 14.2422 13.5806 10.7305 11.3269 11.1478 11.3701 12.118 11.6667 9.15013 9.81537 9.5397 9.89728 10.2071 9.88857 7.84032 8.04504 8.13026 8.28147 8.64717 8.41595 6.59552 6.80605 6.77951 6.89291 7.09847 6.89269 5.45661 5.4711 5.68332 5.62965 5.79053 5.65872 4.42245 4.26506 4.517 4.59785 4.64503 4.55796 3.59524 3.29656 3.73906 3.552 3.41176 3.49608 2.57219 2.563 2.90328 2.68424 2.45902 2.42813 1.94218 1.68928 2.10463 1.89977 1.65058 1.78355 1.39247 1.23675 1.52798 1.35079 1.14096 1.10763 0.865408 0.677324 1.00576 0.948543 0.655174 0.69616 0.57454 0.367685 0.822661 0.6024 0.305197 0.405216 0.358187 0.240375 0.426318 0.339113 0.215931 0.202143 0.279845 0.213013 0.18031 0.269329 0.163643 0.251504 17.9545 29.8711 13.1104 21.9228 29.5202 26.8287 34.7806 42.691 33.5064 39.8004 45.4313 43.9074 36.6349 42.6667 36.9239 39.4988 45.4281 44.1444 35.101 39.6418 35.7495 37.2907 42.6474 41.1696 32.538 36.4329 33.3724 34.7789 39.8127 38.1968 30.0083 33.7173 30.6702 32.2837 36.8795 35.3312 27.7808 31.1204 28.3305 29.8498 33.9142 32.447 25.5654 28.5462 26.0594 27.4426 31.3028 29.9521 23.5922 26.2795 23.8716 25.3729 28.724 27.3138 21.669 24.2054 21.8158 23.2641 26.2937 24.9278 19.6702 22.0224 20.15 21.3221 23.9119 22.905 18.0433 20.095 18.3131 19.4978 21.7032 20.6505 16.352 18.2096 16.7465 17.7517 19.6829 18.7892 14.8789 16.4934 15.3343 16.0349 17.7383 16.8673 13.531 14.7601 13.8428 14.6037 15.9223 15.4018 12.2065 13.1925 12.413 12.9626 14.2451 13.6633 10.8636 11.7421 11.0539 11.5573 12.5716 12.1062 9.74533 10.4658 9.887 10.2658 11.1493 10.6194 8.51523 9.13761 8.79644 9.05873 9.64565 9.29365 7.54164 7.90075 7.82546 7.76161 8.48755 8.04967 6.55452 6.93637 6.81946 6.92701 7.08318 7.10183 5.60775 5.76751 5.75978 6.03964 6.04655 5.81068 4.79334 4.75089 5.01552 4.93272 5.0365 4.88356 4.15772 4.05079 4.25256 4.2382 4.11236 4.09329 3.41003 3.28637 3.64991 3.53123 3.34873 3.2641 2.89518 2.67344 3.07501 2.8066 2.5772 2.67202 2.26733 2.11609 2.4343 2.40049 1.96028 2.01911 1.76451 1.47234 1.91091 1.71624 1.46707 1.57587 1.32147 1.22886 1.44088 1.28363 1.19336 1.10802 0.975637 0.775069 1.09619 1.0237 0.72766 0.754252 0.562804 0.404818 0.605696 0.551998 0.303762 0.435796 0.350564 0.306889 0.314231 0.30192 0.218454 0.275826 8.58887 15.6915 5.29439 11.0522 15.1941 13.9047 22.2838 26.9379 20.8763 24.1981 27.8285 26.7497 24.818 28.5418 25.2176 26.8055 30.908 29.7441 23.4745 26.808 24.122 25.2346 29.6577 28.3146 21.3479 24.6927 21.9378 23.2666 27.5004 26.1831 19.5901 22.7437 19.9453 21.3081 25.3323 23.9101 18.0998 20.9839 18.27 19.9234 23.4259 22.0904 16.707 19.5471 17.0505 18.5252 21.8582 20.403 15.4757 18.1873 15.7104 17.0429 19.9619 18.7424 14.4494 16.8483 14.8858 15.9768 18.4563 17.3807 13.5184 15.6826 13.709 14.761 16.9786 15.9583 12.5638 14.3846 12.8461 13.7681 15.7382 14.7929 11.6407 13.1403 11.942 12.6631 14.2477 13.5794 10.791 12.1647 10.9662 11.5897 13.0111 12.4172 9.85699 11.2147 10.2038 10.8054 11.8545 11.2067 9.23794 10.0479 9.44039 9.9206 10.595 10.3523 8.43507 9.23343 8.63283 9.03493 9.65636 9.38196 7.80254 8.36791 7.8957 8.12857 8.75476 8.3765 7.08642 7.57915 7.29284 7.4686 7.79128 7.58346 6.4647 6.68197 6.56699 6.67535 6.92044 6.63948 5.76308 5.99818 5.94492 6.00935 6.07776 5.93305 5.13413 5.26321 5.33315 5.38207 5.40386 5.26534 4.57912 4.63921 4.73689 4.74783 4.75467 4.58292 4.05864 4.10767 4.1664 4.20803 4.11536 3.9666 3.53447 3.48229 3.67498 3.60202 3.36392 3.38574 2.95483 2.90732 3.18768 3.07201 2.85705 2.93195 2.48581 2.45482 2.64609 2.51854 2.30761 2.31257 2.01567 1.9744 2.25159 2.06165 1.87027 1.86111 1.55689 1.52343 1.73463 1.63961 1.45345 1.47555 1.16184 1.08034 1.24706 1.16675 1.00056 1.09633 0.7358 0.675938 0.901213 0.796458 0.612104 0.602563 0.325141 0.337535 0.47632 0.497667 0.287986 0.287023 4.14742 7.80112 0.897496 4.88753 7.11527 7.05742 16.9434 16.8405 16.0579 15.9543 17.2704 17.328 19.5239 18.5966 19.8318 18.3459 19.8558 19.526 17.9759 17.5823 18.4459 17.3931 19.2171 18.5747 15.8924 16.1058 16.2441 15.7749 17.7408 16.9112 14.3283 15.0116 14.5641 14.5287 16.363 15.4448 13.168 14.1484 13.3746 13.6518 15.1988 14.3468 12.3436 13.2816 12.555 12.8691 14.142 13.4118 11.6641 12.6823 11.9172 12.2478 13.3005 12.559 11.1266 11.9797 11.3378 11.5992 12.5314 11.9292 10.5153 11.3693 10.7894 11.0512 11.7518 11.241 10.0604 10.8374 10.3217 10.5119 11.1546 10.6209 9.53856 10.1352 9.73729 9.95804 10.3329 10.0352 9.05706 9.56377 9.22825 9.42619 9.71973 9.38812 8.52755 9.03068 8.74281 8.83089 9.07335 8.82257 8.05465 8.45336 8.26895 8.33057 8.45752 8.20928 7.55537 7.9062 7.75934 7.80925 7.89751 7.66782 7.06147 7.29627 7.24719 7.28915 7.33027 7.1213 6.56091 6.77561 6.82825 6.79528 6.69146 6.64809 6.10643 6.24318 6.27794 6.28078 6.13759 6.04438 5.55117 5.70839 5.75497 5.77228 5.647 5.52862 5.07558 5.14833 5.29624 5.20938 5.03507 5.03891 4.57072 4.64989 4.79804 4.74597 4.53393 4.52835 4.11857 4.1572 4.26412 4.23194 4.10156 4.07676 3.61743 3.70363 3.72883 3.74683 3.54871 3.54943 3.10808 3.18923 3.30052 3.33757 3.16328 3.02319 2.66256 2.70228 2.75993 2.78961 2.5648 2.5524 2.16965 2.19929 2.3302 2.21628 2.07784 2.07708 1.73587 1.70835 1.83964 1.77102 1.6483 1.61571 1.30571 1.21101 1.46406 1.34634 1.15554 1.18859 0.86636 0.855641 1.05491 0.856749 0.75609 0.767543 0.383016 0.330714 0.447667 0.418945 0.31969 0.392535 7.50678 8.82766 4.4575 7.12328 6.13915 7.35766 21.6772 17.5787 20.7043 18.5591 16.1537 17.544 24.6842 19.3297 24.8824 21.177 18.4751 19.8401 23.1117 18.3876 23.5326 20.2405 17.5292 18.5695 20.8552 16.9997 21.2872 18.5684 16.1225 16.8278 18.9749 15.8699 19.4174 17.0878 14.7653 15.4136 17.5155 14.84 17.7905 15.9156 13.766 14.2709 16.2172 14.0289 16.5475 14.8814 12.8814 13.3547 15.1432 13.2478 15.4475 14.0806 12.2571 12.5774 14.1137 12.5588 14.5154 13.2544 11.6291 11.916 13.2248 11.8027 13.5418 12.4893 11.0235 11.2835 12.294 11.2045 12.6083 11.7482 10.4161 10.6839 11.5673 10.571 11.8012 11.0515 9.83955 10.086 10.7142 9.95523 11.0325 10.3108 9.35821 9.50295 9.92689 9.33725 10.2816 9.65946 8.80158 8.93368 9.26013 8.71123 9.48856 8.97114 8.25414 8.26947 8.44619 8.14294 8.76712 8.403 7.72088 7.77955 7.8665 7.5259 8.10111 7.76048 7.18018 7.24745 7.14361 7.01891 7.42983 7.11702 6.6598 6.67769 6.5352 6.42897 6.7485 6.56149 6.17075 6.16363 5.89054 5.92755 6.1419 5.97076 5.65365 5.64785 5.33447 5.38747 5.5624 5.37541 5.1508 5.1131 4.74432 4.87223 4.9575 4.86437 4.63845 4.5969 4.16178 4.29645 4.34528 4.34923 4.13981 4.08356 3.69165 3.76395 3.86765 3.82901 3.61413 3.60736 3.15112 3.26157 3.36056 3.29947 3.14272 3.10546 2.65019 2.74347 2.8198 2.78423 2.64628 2.65242 2.16773 2.25601 2.30281 2.22339 2.19132 2.15622 1.67322 1.79103 1.86187 1.81384 1.67255 1.6675 1.16798 1.35212 1.36638 1.3544 1.2492 1.27828 0.85196 0.849484 1.04059 0.911079 0.858839 0.891063 0.45897 0.385529 0.510282 0.383604 0.360437 0.404532 15.9097 17.3431 11.8717 15.4513 12.7923 14.4359 33.1066 27.8448 31.9445 29.5693 24.6568 26.5697 36.1106 29.7345 36.1361 32.6004 27.5668 29.3675 34.2617 28.2283 34.8394 31.096 26.2973 28.2016 31.674 26.2847 32.2523 28.8249 24.2024 25.8462 29.0696 24.2708 29.6672 26.5515 22.2529 23.7227 26.8063 22.4859 27.1569 24.376 20.5674 21.8244 24.6734 20.9706 25.2761 22.7131 19.0135 20.2214 22.7229 19.2575 23.2883 20.9288 17.6454 18.6311 20.9891 17.9394 21.5277 19.3216 16.439 17.3298 19.2835 16.6738 19.7525 17.8326 15.2586 16.1609 17.6464 15.4226 18.0976 16.4996 14.0565 14.8631 16.1929 14.1135 16.6052 15.1495 12.9216 13.6641 14.7435 13.0482 15.1847 13.9422 11.9862 12.5244 13.4482 11.9225 13.6977 12.7261 11.0826 11.428 12.1553 10.8675 12.6339 11.4798 10.1136 10.4701 10.9362 9.91503 11.3287 10.4062 9.25743 9.49632 9.7192 9.05595 10.1623 9.34153 8.39949 8.57257 8.71395 8.23558 9.08404 8.38148 7.64874 7.77377 7.69343 7.18094 7.97732 7.53233 6.97045 7.03726 6.78727 6.55818 7.0401 6.62463 6.19691 6.34625 6.07267 5.69728 6.15002 5.896 5.45732 5.53236 5.10759 5.05501 5.3664 5.12469 4.87146 4.89022 4.44365 4.43502 4.6099 4.4535 4.29047 4.31046 3.78849 3.69916 3.91679 3.78428 3.61101 3.68485 3.10626 3.2125 3.28526 3.21266 3.08525 3.05935 2.45822 2.68091 2.7048 2.64519 2.60112 2.57746 1.96735 2.10619 2.09788 2.07726 2.08353 2.01941 1.45473 1.61035 1.59504 1.58319 1.56466 1.62406 1.02057 1.13079 1.16156 1.18913 1.16349 1.15369 0.609971 0.771413 0.791417 0.753722 0.790615 0.708808 0.373816 0.444023 0.379515 0.382806 0.372853 0.373387 32.1579 30.063 27.6162 29.7795 23.5652 25.8258 48.2558 42.1831 46.6624 44.3336 38.0995 40.0413 49.3158 43.3745 49.6478 46.4751 40.551 42.4082 47.0984 41.1859 48.0621 44.1161 38.5558 40.7635 44.0686 38.0303 44.9425 40.8425 35.7898 37.7723 40.6566 35.1074 41.4588 37.7049 33.011 34.7174 37.5819 32.5756 38.3432 34.9439 30.4057 32.0782 34.6707 30.1004 35.4359 32.2367 28.0332 29.4783 31.7192 27.7024 32.4972 29.7574 25.6811 27.1046 29.2426 25.3893 29.771 27.1153 23.6452 24.8794 26.5704 23.3802 27.27 24.9326 21.685 22.8097 24.1669 21.2241 24.7379 22.7414 19.8806 20.7421 22.0494 19.2782 22.6825 20.7086 18.2631 18.7437 19.9554 17.5168 20.4677 18.6836 16.4626 17.1636 17.9189 15.8375 18.3293 16.7964 14.8103 15.3102 15.8564 14.243 16.4303 15.1614 13.3543 13.8815 14.1902 12.7826 14.5762 13.55 12.0378 12.3616 12.456 11.2611 12.862 11.7579 10.5881 10.8858 10.8807 9.92994 11.4208 10.4653 9.23425 9.55507 9.37563 8.51128 9.76621 9.11959 8.19128 8.5501 8.13631 7.38023 8.55938 7.87538 7.19 7.2334 6.84097 6.34849 7.15612 6.59107 6.1201 6.14749 5.7061 5.4951 5.95256 5.62357 5.17442 5.33026 4.67185 4.51138 4.95723 4.70692 4.34632 4.48398 3.84927 3.77011 4.10061 3.7753 3.69691 3.68129 3.0789 2.97615 3.19749 3.10227 2.94633 2.92833 2.36635 2.46197 2.46959 2.34832 2.31779 2.3462 1.75615 1.91835 1.8964 1.79355 1.89973 1.87312 1.16784 1.31191 1.27461 1.31448 1.35185 1.31727 0.82428 0.904113 0.858075 0.878253 1.03071 0.907718 0.412128 0.574407 0.607474 0.507067 0.627289 0.559164 0.357956 0.408584 0.263898 0.410682 0.389189 0.398001 67.395 49.0312 64.9321 60.2002 41.6789 43.9949 60.9796 57.943 63.7385 59.6717 53.7931 55.1924 61.5518 57.3667 63.5883 60.0261 54.2688 56.0686 59.9573 54.2762 61.2727 57.33 51.6181 53.8011 56.7237 50.7716 58.2232 53.7097 48.2863 50.3626 53.0142 47.0643 53.9426 49.8736 44.7493 46.7785 49.0686 43.47 50.0631 46.1835 41.5241 43.0656 44.9498 40.2031 46.0179 42.6149 38.0973 39.6432 41.3913 36.915 42.5318 39.1702 34.9357 36.4494 37.9878 33.8103 38.8378 35.7901 32.0953 33.3612 34.6204 30.8078 35.5264 32.685 29.2468 30.4864 31.4097 28.0428 32.2779 29.7527 26.6362 27.6298 28.5194 25.1906 29.2719 26.7676 24.0648 24.9556 25.477 22.7462 26.4573 24.1141 21.7241 22.4632 22.9897 20.445 23.5959 21.6962 19.4928 20.2345 20.3594 18.0397 21.1512 19.2916 17.3159 17.8392 18.0305 16.0729 18.6345 17.0179 15.3123 15.7736 15.7394 13.8931 16.3087 14.9812 13.4016 13.9641 13.584 12.1315 14.2474 12.9372 11.6919 12.0773 11.5265 10.3722 12.2589 11.0233 9.89014 10.376 9.85101 8.85081 10.4139 9.38552 8.71023 8.79326 8.17971 7.49081 8.67359 7.90936 7.20989 7.37635 6.77922 6.02687 7.07828 6.36686 5.91228 6.07245 5.41559 4.90133 5.70543 5.12886 4.82634 4.92176 4.19151 3.88795 4.52253 3.96407 3.74536 3.78419 3.10152 2.92275 3.2905 2.9684 2.83964 2.8659 2.29282 2.18916 2.41187 2.10281 2.28317 2.23188 1.53986 1.5274 1.61384 1.39345 1.50332 1.61302 0.828763 0.949042 1.06126 0.892746 1.0878 0.964827 0.515684 0.605287 0.691862 0.473391 0.618679 0.588928 0.233807 0.26195 0.295103 0.122296 0.323804 0.447168 0.252623 0.324401 0.207041 0.288905 0.3426 0.214831 36.115 64.0112 30.3081 43.9407 65.093 65.1454 51.8712 56.3756 52.1008 55.1218 56.5243 55.7794 50.784 53.9809 52.596 52.4213 56.9644 55.2769 47.7807 51.3346 48.7412 49.7539 55.2807 53.3883 44.4348 48.1667 45.1056 46.6933 52.1414 50.475 41.2094 44.767 41.6906 43.55 48.6643 47.0198 38.1876 41.5353 38.7203 40.2636 44.9353 43.2136 35.3975 38.3841 35.677 37.3046 41.2416 39.6429 32.3988 35.2325 32.8931 34.2729 37.8771 36.5577 29.7203 32.1803 30.0888 31.6406 34.5884 33.2753 27.0497 29.429 27.5233 28.7996 31.4733 30.5186 24.5309 26.7017 25.1286 26.2111 28.5815 27.5585 22.3367 24.1629 22.5982 23.5902 25.768 24.856 19.9163 21.7047 20.6135 21.2233 23.2815 22.3863 18.0442 19.2881 18.4067 18.9959 20.7717 20.0753 15.9751 17.0719 16.4174 16.9325 18.2613 17.6279 14.1211 15.0835 14.6749 14.8784 16.2343 15.6556 12.3808 13.1247 12.7553 13.1279 14.0211 13.5297 10.8289 11.4929 11.1445 11.41 12.0645 11.7383 9.24133 9.66029 9.57847 9.80344 10.3363 9.95469 8.04591 8.02599 8.31072 8.29336 8.6193 8.48144 6.71798 6.75279 6.91615 6.9699 7.10012 6.90392 5.47991 5.5488 5.7352 5.78028 5.80781 5.66465 4.39782 4.40989 4.59303 4.53663 4.48127 4.4927 3.50463 3.31932 3.81535 3.55997 3.53173 3.50093 2.70381 2.49443 2.91159 2.79195 2.37543 2.54065 2.14496 1.81356 2.22786 2.15576 1.89597 1.77643 1.44482 1.15061 1.52646 1.38948 1.07777 1.19362 1.07718 0.669056 1.01164 0.88522 0.620239 0.675702 0.588235 0.447523 0.747343 0.689848 0.324371 0.385047 0.261326 0.21454 0.373038 0.282568 0.242265 0.262657 0.245762 0.327994 0.337995 0.234114 0.28387 0.224081 19.1566 32.9471 16.2677 25.224 30.296 27.5942 34.2969 42.5229 33.3977 39.4509 44.6537 43.4837 35.6141 40.5476 35.9714 38.0918 44.4543 43.1504 33.8464 37.6218 34.5174 35.424 41.4032 40.0273 31.6475 34.8663 32.0287 33.3509 38.6399 37.104 29.4103 32.5854 29.6315 31.1388 35.9876 34.4628 27.2162 30.516 27.6179 29.1148 33.3637 31.876 25.2484 28.191 25.5664 27.2668 30.9977 29.4082 23.3813 26.1055 23.717 25.1865 28.5076 27.0372 21.5152 24.1539 21.6379 23.3157 26.0645 24.9326 19.7607 22.2925 20.1487 21.2621 23.7747 22.6713 17.9715 20.0596 18.4268 19.6221 21.7481 20.7715 16.4704 18.384 16.8255 17.9252 19.6471 18.7349 15.0532 16.5132 15.4593 16.1627 17.7695 17.1043 13.376 15.0573 13.9249 14.6888 15.8766 15.3567 12.3161 13.3522 12.5499 13.1635 14.1228 13.7514 10.99 11.9318 11.1271 11.679 12.6243 12.0577 9.96787 10.4493 10.0732 10.5594 11.2617 10.726 8.67162 9.14357 8.96019 9.2026 9.67232 9.353 7.72729 7.97119 7.95367 8.23688 8.48162 8.11466 6.65162 7.10204 7.03454 6.9609 7.23922 7.05925 5.81837 5.92977 6.11986 6.05526 6.20501 5.94526 4.95314 5.03205 5.26321 5.2208 5.17917 4.97403 4.35649 4.17078 4.48953 4.29379 4.17211 4.30537 3.46491 3.52389 3.7769 3.75258 3.49295 3.48437 2.96141 2.75908 3.24582 2.89447 2.68224 2.65631 2.36204 2.25691 2.5945 2.35077 2.06294 2.18745 1.83578 1.82729 1.97091 1.87092 1.49806 1.68141 1.42294 1.25434 1.51776 1.39127 1.23181 1.24507 0.939568 0.913525 1.15882 1.03622 0.752929 0.826716 0.523149 0.482728 0.772031 0.568773 0.399086 0.433115 0.388027 0.315129 0.422509 0.374925 0.305286 0.419217 9.11456 17.5124 7.42875 13.0011 15.9766 14.5353 20.8779 25.7524 19.7226 22.9676 26.9681 26.0716 23.354 26.5234 23.4405 24.9876 29.6235 28.4909 22.2596 24.977 22.3373 23.5881 28.4993 27.1863 20.6206 23.4833 20.7056 21.9006 26.5488 25.1048 19.036 21.9972 19.214 20.8129 24.6424 23.252 17.8608 20.8531 18.0772 19.6721 23.0275 21.6664 16.7092 19.639 16.8988 18.5308 21.57 20.264 15.7452 18.2948 16.0295 17.5147 19.8361 18.8893 14.7776 17.0751 15.0725 16.3433 18.52 17.4838 13.903 15.9189 14.1465 15.2607 17.0277 16.2926 12.9589 14.6685 13.1796 14.223 15.7505 14.8633 12.0656 13.7103 12.2547 13.1985 14.4782 13.7071 11.1599 12.5772 11.3211 12.2041 13.3343 12.5871 10.3083 11.6079 10.6638 11.2845 12.0929 11.4835 9.57937 10.5688 9.83477 10.4517 10.9856 10.5322 8.83458 9.6825 9.03714 9.55034 9.91399 9.49939 8.08655 8.78403 8.29847 8.71997 8.99014 8.53576 7.37501 7.90291 7.63441 7.9414 8.08539 7.78347 6.75327 7.16945 7.11375 7.17006 7.13496 6.87714 6.04085 6.36916 6.31419 6.41104 6.30375 6.26183 5.43211 5.69797 5.6203 5.82964 5.55974 5.5011 4.86207 5.10671 5.08225 5.10783 4.89664 4.74499 4.2774 4.36066 4.50795 4.45994 4.15384 4.19128 3.75389 3.81402 4.01983 3.82533 3.61343 3.59908 3.21075 3.20195 3.44314 3.39949 3.01133 3.008 2.71875 2.64157 2.80915 2.75839 2.46196 2.51621 2.27992 2.10885 2.44877 2.35805 1.95382 2.06432 1.67867 1.69279 1.88589 1.78779 1.58458 1.62172 1.2581 1.19716 1.37528 1.29179 0.997934 1.09386 0.778163 0.741154 0.936458 0.858299 0.689414 0.714029 0.376695 0.360091 0.450352 0.407579 0.307634 0.466637 3.11703 6.67336 1.72489 4.00198 6.5251 6.47264 15.2069 14.3834 14.0213 13.2494 15.5558 15.934 17.7329 16.4093 17.6591 16.0149 18.2745 17.9675 16.69 16.1615 16.7756 15.7232 17.9803 17.3744 15.2901 15.5082 15.356 15.0424 17.0492 16.2669 14.222 14.9985 14.3606 14.5359 16.1033 15.2109 13.4664 14.4837 13.6102 13.9771 15.2345 14.4198 12.8193 13.9727 13.0355 13.5372 14.4897 13.7088 12.2839 13.342 12.5964 12.985 13.7696 12.9958 11.8139 12.8085 12.078 12.4731 13.0479 12.4115 11.1997 12.2577 11.4968 11.9179 12.3248 11.7272 10.7795 11.6266 11.0344 11.3647 11.6178 11.1057 10.1828 10.9216 10.5116 10.847 10.9664 10.5521 9.62578 10.3412 9.94244 10.2144 10.3117 9.87835 9.10105 9.73554 9.43126 9.59089 9.57456 9.26011 8.60276 9.10747 8.89588 9.04508 8.9781 8.68265 8.06382 8.58729 8.34611 8.46853 8.31255 8.11083 7.52687 7.90177 7.7692 7.90599 7.7512 7.51688 6.97332 7.38995 7.28481 7.37381 7.16941 6.92728 6.49106 6.84175 6.74396 6.77811 6.57968 6.46104 5.94712 6.19253 6.24925 6.20318 5.97566 5.88557 5.40502 5.68515 5.62679 5.73519 5.46038 5.3868 4.88141 5.07056 5.137 5.14742 4.89333 4.79012 4.38513 4.55279 4.6242 4.57049 4.34322 4.29453 3.83177 3.97848 4.02752 4.04632 3.80656 3.77071 3.40205 3.45969 3.56228 3.52314 3.27403 3.19312 2.84538 2.94827 2.99678 2.94961 2.77451 2.73154 2.3187 2.38831 2.51663 2.43906 2.22567 2.21768 1.83614 1.88896 1.95505 1.94489 1.77952 1.7426 1.33925 1.38427 1.52659 1.51372 1.30985 1.29859 0.934299 0.911972 1.01555 0.928321 0.845768 0.839321 0.380533 0.436859 0.526015 0.497235 0.342683 0.481134 8.19811 8.2867 7.39021 8.47782 5.11965 6.88162 20.6881 15.5407 19.6451 16.7394 14.4208 16.3491 23.4657 17.493 23.4186 19.3261 16.9168 18.45 22.3041 17.3686 22.4049 18.9876 16.5532 17.6348 20.488 16.758 20.7242 18.1363 15.6888 16.4884 19.0159 16.1825 19.2916 17.2223 14.911 15.4995 17.7858 15.504 18.1446 16.4827 14.1898 14.6496 16.728 14.8294 17.0419 15.6692 13.565 14.0126 15.7819 14.22 16.0182 14.9172 12.9619 13.2153 14.7855 13.5269 15.1844 14.1243 12.3871 12.5551 13.8463 12.8054 14.2418 13.4098 11.7511 11.9429 12.9798 12.1091 13.3594 12.6464 11.1407 11.2895 12.0759 11.4459 12.4521 11.8601 10.5553 10.681 11.2552 10.7734 11.7151 11.1362 10.0049 10.0302 10.5129 10.1377 10.9285 10.4369 9.40408 9.43591 9.76108 9.48605 10.0523 9.707 8.84182 8.85678 9.05485 8.83147 9.35113 9.02442 8.2594 8.24488 8.29579 8.21964 8.62435 8.38258 7.72934 7.67986 7.65098 7.56087 7.95728 7.71389 7.13491 7.10842 6.95309 6.9998 7.22782 7.11342 6.59842 6.54636 6.29191 6.40892 6.54536 6.46644 6.07599 6.01207 5.6435 5.84206 5.94651 5.94958 5.53376 5.46515 5.07896 5.27216 5.29729 5.33035 4.97132 4.93611 4.50868 4.67654 4.68933 4.71868 4.42326 4.3966 3.92919 4.08412 4.12485 4.16307 3.90831 3.86969 3.41313 3.51785 3.59421 3.57955 3.39224 3.29511 2.79825 2.93981 3.04404 3.0045 2.85113 2.89191 2.26728 2.43134 2.52741 2.4606 2.39707 2.3566 1.8022 1.92762 1.96901 1.91234 1.86501 1.8083 1.33945 1.39665 1.48991 1.43407 1.33519 1.36481 0.857046 0.909261 1.00475 0.914084 0.914556 0.911872 0.46845 0.407226 0.492033 0.440206 0.388101 0.45288 17.6015 19.8939 15.8712 19.0738 13.6847 15.0998 32.9215 27.2553 31.9688 29.3613 24.0864 26.4075 35.4028 28.4731 35.539 31.1581 26.5043 28.73 33.6943 27.2687 34.1734 29.8138 25.511 27.5234 31.2737 25.7295 31.7392 28.0596 23.8259 25.6315 28.8697 24.2172 29.4256 26.3345 22.3633 23.7062 26.8932 22.8886 27.4084 24.7737 20.9166 22.0544 25.0655 21.3427 25.4625 23.0981 19.5372 20.674 22.9857 19.9764 23.736 21.4861 18.1793 19.2446 21.3475 18.6903 21.9661 20.0204 17.122 17.8024 19.7022 17.4631 20.2678 18.4508 15.7799 16.6376 18.1311 15.9904 18.575 17.1535 14.6999 15.3662 16.6277 14.7777 17.131 15.765 13.5303 13.9961 15.152 13.6187 15.6481 14.4741 12.5328 12.9643 13.7362 12.5479 14.2586 13.2552 11.6023 11.9563 12.4897 11.4637 12.9637 12.068 10.5617 10.993 11.2956 10.4045 11.6893 10.9171 9.68035 9.95474 10.1625 9.56083 10.5246 9.87813 8.84286 9.09332 8.99834 8.61311 9.46262 8.89921 8.00736 8.17069 7.99363 7.72056 8.34542 7.94866 7.30917 7.34438 7.03031 6.88453 7.34427 7.06389 6.59577 6.53785 6.20509 6.14821 6.45718 6.33303 5.82119 5.76967 5.35174 5.44894 5.6824 5.45628 5.21421 5.12254 4.57801 4.77067 4.91058 4.82267 4.58924 4.48631 3.89738 4.07431 4.13697 4.13269 3.84718 3.83264 3.24967 3.42879 3.45146 3.45094 3.30415 3.28711 2.71131 2.89608 2.87669 2.84452 2.72141 2.74987 2.1194 2.33087 2.32595 2.29848 2.20293 2.17321 1.56895 1.81542 1.7049 1.71991 1.77737 1.68995 1.10548 1.30474 1.20418 1.22867 1.31738 1.20926 0.666507 0.83764 0.796941 0.795603 0.815768 0.829838 0.361688 0.476164 0.495333 0.427607 0.461794 0.491781 33.3731 34.2986 30.4289 33.8997 25.1756 27.0308 48.4911 42.6763 47.6612 45.2945 38.2113 40.3632 49.0081 42.215 49.6421 45.6729 39.9244 42.2756 46.6734 39.7903 47.3113 42.8698 37.8353 40.1741 43.4495 37.3951 44.1848 40.1854 35.2146 37.1966 40.3785 34.8173 41.1493 37.31 32.8247 34.6243 37.482 32.5588 38.22 34.8783 30.268 32.0367 34.7624 30.1496 35.4676 32.4261 28.3052 29.6031 31.9765 28.0408 32.7119 30.0433 26.3165 27.2741 29.4723 26.0161 30.1016 27.616 24.0843 25.1414 26.8204 23.712 27.7532 25.4379 22.0674 23.0669 24.7411 21.6817 25.1202 23.1749 20.2563 21.2189 22.3269 19.8263 22.9682 21.0247 18.5554 19.2849 20.279 17.9988 20.8235 19.0732 16.8679 17.5947 18.0651 16.2227 18.6301 17.2199 15.2171 15.7466 16.1987 14.5527 16.7167 15.4149 13.6477 14.2236 14.3146 12.9965 14.8179 13.7392 12.2772 12.61 12.6943 11.5547 13.1919 12.2193 10.9502 11.2238 11.0538 10.2171 11.6044 10.7328 9.63312 9.80194 9.58729 8.94625 10.0536 9.39188 8.53367 8.72595 8.20161 7.76506 8.72911 7.92598 7.33262 7.37399 7.09265 6.7003 7.36282 6.91055 6.34596 6.39646 5.84505 5.76186 6.12972 5.88718 5.45702 5.52272 4.9065 4.81392 5.10252 4.83605 4.67179 4.69556 3.85101 3.96093 4.23845 4.01477 3.8904 3.78847 3.09133 3.3112 3.27883 3.32548 3.1527 3.128 2.41353 2.61469 2.57669 2.57836 2.51205 2.43158 1.71082 2.01952 1.97043 1.96073 2.0669 2.00929 1.21808 1.50365 1.39472 1.45307 1.51062 1.4305 0.804165 0.959313 1.03868 0.889065 1.11411 0.944375 0.445345 0.631934 0.580374 0.496125 0.615307 0.654021 0.261538 0.443778 0.370981 0.388997 0.311831 0.361294 66.8966 53.2525 64.1829 62.0678 43.2206 45.3763 62.7221 59.2798 66.0362 61.6738 54.6168 56.2546 62.3823 56.7415 64.5135 60.042 53.9744 56.4405 59.9441 53.1601 61.3019 56.4932 51.2245 53.4089 56.5063 49.879 57.5927 52.8929 47.8603 49.9944 52.8105 46.4609 53.6896 49.3101 44.4206 46.5766 48.9071 43.2883 50.0528 45.937 41.2569 43.1689 45.1716 40.2209 46.0995 42.5759 38.1713 39.7846 41.6177 36.9551 42.4692 39.3092 35.0483 36.5549 38.1416 34.0497 39.0643 36.0943 32.196 33.6695 34.8259 31.1178 35.9068 32.9125 29.5077 30.5988 31.6394 28.3683 32.6606 29.8999 26.8451 27.8716 28.62 25.6967 29.3684 27.0009 24.3669 25.2997 25.6786 23.1504 26.593 24.3775 21.8587 22.7193 23.1883 20.5324 23.8019 21.8583 19.7307 20.3406 20.509 18.2815 21.2856 19.5554 17.563 18.0181 18.0536 16.1951 18.8242 17.1725 15.4462 15.9661 15.8726 14.3021 16.5068 15.0915 13.6482 14.0665 13.8598 12.3795 14.3213 13.0197 11.8385 12.2154 11.6359 10.717 12.3506 11.1788 10.2589 10.4718 9.91648 9.02035 10.6181 9.60153 8.65207 8.85929 8.34259 7.46663 8.79337 7.92177 7.20233 7.42921 6.8304 6.26288 7.23739 6.4612 5.97502 6.21969 5.48243 4.96509 5.84153 5.14406 4.94133 4.9122 4.30675 4.00818 4.56633 4.19034 3.89026 3.86686 3.08091 3.00567 3.46035 3.07101 3.01711 2.98947 2.37962 2.40492 2.52632 2.207 2.19933 2.35816 1.48595 1.54075 1.71527 1.46879 1.64345 1.56368 0.771871 1.08493 1.10928 1.06326 1.09015 0.984477 0.450734 0.613004 0.667558 0.528765 0.806871 0.691673 0.278284 0.381831 0.212767 0.327214 0.428264 0.362581 0.223341 0.30291 0.260047 0.219434 0.271298 0.276005 39.4873 76.0678 41.1042 58.7658 64.6305 66.06 50.4507 51.4329 52.5069 49.372 56.1177 56.0169 48.1119 48.8415 49.878 46.4955 55.0747 53.7897 45.2477 47.5839 45.4331 45.4678 53.2117 51.3325 42.6713 45.5423 42.4138 44.134 50.4114 48.6908 39.9824 43.2829 39.9127 42.0303 47.1873 45.656 37.4631 40.6079 37.5875 39.6035 43.8976 42.2578 34.5757 37.8302 35.1482 36.8739 40.8482 39.2259 32.1005 35.0043 32.4417 34.152 37.4597 36.1443 29.4767 32.0275 30.005 31.4768 34.3749 33.0974 26.9827 29.4026 27.5269 28.7677 31.2646 30.2156 24.5188 26.6232 25.1143 26.2198 28.6652 27.545 22.1863 24.1028 22.8494 23.7463 25.7178 24.8927 20.0519 21.6047 20.4395 21.4591 23.1022 22.1403 18.033 19.2344 18.4975 19.2123 20.5525 19.9568 16.0371 17.2149 16.5115 17.2197 18.2693 17.6891 14.1651 15.1585 14.614 15.1442 16.0995 15.534 12.4935 13.1498 12.884 13.0772 13.8468 13.5645 10.8475 11.4428 11.3288 11.4871 12.194 11.7967 9.41097 9.9195 9.78756 9.95713 10.3658 9.9469 8.17395 8.22907 8.27884 8.45263 8.61397 8.39467 6.66766 7.04651 6.95718 7.23512 7.27413 6.97123 5.61751 5.7934 5.95913 5.95659 5.88846 5.73103 4.54995 4.67307 4.7561 4.88351 4.47009 4.41805 3.84382 3.56094 3.9698 3.9574 3.61471 3.62757 2.93959 2.83702 3.06456 2.99998 2.74367 2.47647 2.1603 2.02179 2.3655 2.23538 1.82656 1.99023 1.60711 1.46278 1.77319 1.63911 1.27764 1.29325 1.08835 0.901661 1.28396 1.14175 0.750831 0.718393 0.689026 0.535608 0.898849 0.725642 0.384798 0.360225 0.481347 0.263092 0.47919 0.302838 0.184043 0.294349 0.184723 0.150699 0.229179 0.236973 0.164169 0.238619 22.8625 47.6569 25.4975 36.6229 33.762 31.5735 32.89 35.2301 33.1937 36.6771 43.03 42.7274 33.1201 34.685 33.5649 33.5225 41.3983 40.6879 31.4811 33.7787 31.2615 31.9135 38.9084 37.6084 29.9206 32.9883 29.6134 31.0918 36.7666 35.3551 28.3661 31.5885 28.2187 30.1826 34.9106 33.2865 26.7969 30.0501 26.7957 28.8624 32.6392 31.0437 25.0768 28.3044 25.1208 27.2162 30.4904 29.1143 23.4719 26.4372 23.7611 25.4216 28.3112 27.0122 21.6483 24.4165 22.1199 23.7334 26.254 24.8499 20.0342 22.4168 20.3477 21.6825 23.8528 22.7871 18.3871 20.4311 18.8117 19.9526 22.0128 20.8578 16.9783 18.6756 17.1981 18.2378 19.7673 19.0523 15.4494 16.9626 15.9294 16.7187 17.9715 17.083 13.9017 15.2781 14.2305 15.1196 16.2257 15.446 12.7028 13.8251 13.0284 13.6146 14.47 13.7825 11.3979 12.2975 11.7335 12.3021 12.8821 12.3755 10.2368 11.0369 10.5432 11.007 11.4358 10.9964 9.03779 9.76628 9.39567 9.70832 10.0609 9.6899 8.08547 8.54009 8.28656 8.63172 8.81883 8.28751 7.12319 7.27215 7.36634 7.66674 7.50557 7.29898 6.21795 6.36254 6.46793 6.648 6.39849 6.2344 5.31927 5.47758 5.60957 5.6421 5.3506 5.32019 4.6797 4.60199 4.87403 4.85041 4.5769 4.53013 3.82342 3.86303 4.15822 4.20645 3.76047 3.7713 3.22156 3.11531 3.40605 3.42002 2.96614 2.92037 2.74483 2.62534 2.95108 2.79873 2.28612 2.36373 2.15166 2.02749 2.29602 2.20305 1.79485 1.88558 1.54999 1.44776 1.77657 1.69021 1.33532 1.29862 1.11921 0.974352 1.38541 1.18583 0.825467 0.881847 0.721173 0.547551 0.92307 0.800803 0.450215 0.489196 0.378168 0.396311 0.385235 0.313119 0.193197 0.320498 11.0256 27.5222 13.5604 19.7005 19.3265 17.761 18.4963 19.5512 17.6181 19.8824 25.2365 24.5242 20.7047 21.8091 20.3995 21.2369 27.0819 26.1201 19.9969 22.505 19.8926 21.1322 26.0744 25.0858 19.3012 22.2914 19.0249 20.7714 24.9847 23.7556 18.7185 21.9514 18.4721 20.3937 24.085 22.5608 18.0342 21.0627 18.0269 19.9549 22.7438 21.4718 17.1296 20.1973 17.4053 19.0353 21.6693 20.2423 16.4164 18.9818 16.6166 18.2093 20.1676 19.0785 15.5347 18.0084 15.817 17.2025 19.0589 17.9064 14.6156 16.7956 15.0696 16.1609 17.7601 16.5455 13.7207 15.4219 13.9907 15.2101 16.2782 15.4379 12.8074 14.5674 13.0516 14.1432 15.0497 14.246 11.8551 13.414 12.3472 13.1265 13.7726 13.038 10.9431 12.3272 11.4513 12.0721 12.6801 12.062 10.3263 11.3348 10.6421 11.2354 11.5431 11.1018 9.48561 10.5971 9.82326 10.4248 10.3665 10.0775 8.75861 9.48449 9.03094 9.51249 9.51621 9.11559 8.00663 8.72008 8.40772 8.68408 8.50593 8.2565 7.35705 7.88048 7.5864 7.92961 7.70609 7.39221 6.62977 6.97752 6.97507 7.11975 6.78266 6.64717 5.98768 6.4224 6.26747 6.35942 6.01004 5.92888 5.43427 5.60109 5.57341 5.69296 5.37429 5.23692 4.72524 4.9622 4.91433 5.11898 4.6241 4.50344 4.10528 4.14944 4.39483 4.41486 3.92306 3.88188 3.53575 3.55052 3.814 3.78685 3.36692 3.32117 3.01916 3.08163 3.17321 3.15445 2.76651 2.7718 2.46065 2.4514 2.58583 2.59765 2.21032 2.18172 2.03589 2.02612 2.12632 2.05568 1.69596 1.82812 1.42508 1.36113 1.63473 1.52644 1.2989 1.2016 1.00991 0.858965 1.12261 1.09003 0.786164 0.808903 0.352559 0.434768 0.517606 0.518681 0.353542 0.435225 2.43144 9.91615 6.67029 6.00956 7.79689 6.8437 11.4359 8.69265 9.55629 8.1072 12.4203 12.8058 14.5713 12.9001 13.8314 12.6013 15.4108 15.2824 14.8314 14.6959 14.4643 14.236 16.2706 15.6883 14.6553 15.4416 14.5486 14.9149 16.2389 15.4832 14.4631 15.7434 14.5625 15.1542 16.0379 15.2571 14.1952 15.6896 14.431 15.1457 15.7703 14.8862 13.8965 15.2483 14.1731 14.9062 15.3045 14.4653 13.4289 14.8137 13.8337 14.4617 14.647 13.8958 12.9669 14.1527 13.3819 13.9328 14.0232 13.3087 12.4302 13.5314 12.7946 13.3563 13.397 12.6611 11.8509 12.9416 12.2247 12.7599 12.5818 12.0123 11.2833 12.2607 11.672 12.0951 11.9131 11.4267 10.693 11.5605 11.0771 11.5135 11.2797 10.7457 10.0408 10.9568 10.4489 10.7864 10.5127 10.1386 9.54391 10.2367 9.85952 10.1607 9.8095 9.44244 8.95382 9.58074 9.27144 9.54347 9.17749 8.88529 8.34762 8.90064 8.70278 8.89432 8.55194 8.29813 7.75917 8.29569 8.00947 8.24673 7.88548 7.65608 7.18145 7.63806 7.49246 7.65309 7.297 7.08953 6.58533 6.96832 6.89539 7.06888 6.6971 6.47518 5.99853 6.40117 6.32843 6.43187 6.02423 5.87863 5.37471 5.78061 5.6845 5.86945 5.38383 5.28367 4.85212 5.07298 5.13478 5.17716 4.80885 4.78616 4.27502 4.57551 4.54285 4.58555 4.18597 4.16585 3.69668 3.97147 3.97696 4.00663 3.74138 3.60436 3.13965 3.25091 3.3703 3.40173 3.04343 3.04389 2.60386 2.68224 2.81342 2.81283 2.50643 2.49798 2.11568 2.14382 2.29313 2.28047 1.92888 1.93969 1.57051 1.57383 1.69207 1.64249 1.46083 1.43812 1.04414 1.08938 1.17484 1.1162 0.942223 0.998477 0.4379 0.507881 0.607507 0.521888 0.360002 0.406902 10.8774 9.6694 14.1279 13.8837 5.17197 6.75474 18.426 10.9758 17.4807 12.7197 10.968 13.7078 21.0758 14.8167 20.7286 16.4728 14.3671 16.0035 20.9365 16.5947 20.5886 17.793 15.2774 16.4093 19.9094 17.0901 20.0511 18.1475 15.531 16.1788 19.2606 17.1653 19.4722 17.9853 15.462 15.9479 18.4749 16.8553 18.7537 17.6343 15.1639 15.4708 17.5875 16.3534 18.0307 17.0105 14.669 14.9307 16.6352 15.7036 17.2389 16.2459 14.2332 14.3343 15.7803 15.0246 16.2959 15.5733 13.6436 13.6717 14.925 14.3055 15.3877 14.7708 12.9809 13.0293 13.949 13.5259 14.5179 13.9202 12.3358 12.4081 13.0897 12.762 13.6061 13.1975 11.695 11.6798 12.2386 12.0672 12.693 12.3595 11.112 11.018 11.4199 11.3193 11.9009 11.5492 10.4393 10.3778 10.6163 10.6266 11.0162 10.8104 9.81829 9.76406 9.80091 9.9212 10.2914 10.0784 9.18288 9.06634 9.07344 9.24595 9.44287 9.3087 8.571 8.47149 8.30079 8.4955 8.73189 8.63935 7.93503 7.78046 7.58357 7.8456 7.93439 7.90502 7.31732 7.20681 6.85572 7.18489 7.23174 7.20985 6.68486 6.61797 6.20093 6.51947 6.56281 6.57954 6.09945 5.98309 5.60677 5.85009 5.92227 5.91118 5.51316 5.40473 4.95112 5.21586 5.25142 5.29586 4.93406 4.83464 4.33456 4.56825 4.60979 4.6505 4.31783 4.28414 3.71698 3.9539 3.95848 4.02171 3.78645 3.64857 3.08597 3.39151 3.35582 3.42912 3.16815 3.10696 2.56883 2.7359 2.77294 2.81093 2.58065 2.52592 1.9557 2.21062 2.20699 2.17519 2.0909 2.04041 1.49933 1.59749 1.73585 1.61497 1.51453 1.47078 0.937748 1.09071 1.08711 1.18993 1.04394 1.02743 0.490995 0.456172 0.592627 0.553838 0.454997 0.499888 22.4558 27.1208 26.1145 29.7065 16.136 18.0012 32.1583 22.4208 31.8937 26.5854 22.4061 25.3508 33.532 25.1097 33.7322 28.1682 24.5827 26.8536 32.1515 26.1078 32.0906 28.1888 24.3657 26.2481 30.4819 25.6409 30.576 27.4256 23.475 25.0284 28.7147 24.8635 29.0811 26.5321 22.4492 23.7957 27.1769 23.6947 27.5009 25.3683 21.356 22.5201 25.4796 22.4218 26.0298 23.8161 20.276 21.2149 23.6579 21.1267 24.3784 22.5653 19.0729 19.9693 21.9372 19.9668 22.8227 21.0283 17.9725 18.6676 20.5447 18.4693 21.0719 19.4299 16.7533 17.3863 18.8281 17.1027 19.4394 18.1468 15.6147 16.1464 17.367 15.8368 17.9032 16.7281 14.4843 14.9533 15.8833 14.696 16.482 15.3771 13.4522 13.723 14.4498 13.5075 14.9721 14.0914 12.4372 12.6514 13.1346 12.4217 13.6288 12.8931 11.4549 11.6322 11.9328 11.4304 12.3907 11.7645 10.5412 10.567 10.7725 10.3516 11.0992 10.6479 9.63724 9.63199 9.49145 9.41102 10.0225 9.65811 8.78129 8.82612 8.56666 8.44313 8.84957 8.68371 7.91702 7.92001 7.5127 7.6279 7.94298 7.80835 7.17644 7.11256 6.67428 6.81112 7.01161 6.86878 6.38115 6.32723 5.72643 6.04425 6.1592 6.06466 5.7178 5.56011 4.93582 5.2887 5.26326 5.2974 5.00301 4.88962 4.26714 4.50862 4.552 4.55012 4.27637 4.24082 3.5689 3.83071 3.83633 3.91263 3.70497 3.59441 2.92541 3.20792 3.16928 3.22334 3.05866 2.97431 2.27889 2.59934 2.61747 2.57874 2.46935 2.43691 1.77482 2.0528 1.98748 1.93913 1.95588 1.92507 1.19572 1.4839 1.36791 1.44836 1.42252 1.3629 0.754394 0.94419 0.934497 1.00152 0.942914 0.892066 0.335281 0.460333 0.482256 0.530982 0.43472 0.486645 37.9253 46.7792 41.2573 48.6754 29.3519 31.4399 48.1977 36.7511 49.2732 42.6159 37.2879 40.4167 47.6314 38.0061 48.1773 41.8583 38.1542 40.6183 45.096 37.5951 45.3291 40.1853 36.2545 38.5344 42.6013 36.5436 42.6988 38.6328 34.6143 36.551 40.0111 34.944 40.313 36.7784 32.6784 34.3471 37.4993 33.0664 38.1703 34.9035 30.5676 32.2765 34.9708 30.8719 35.478 32.8425 28.82 29.9865 32.3232 28.7788 33.1565 30.6015 26.8489 27.8442 29.9167 26.8444 30.6312 28.194 24.722 25.8034 27.334 24.5052 28.1306 25.9591 22.8819 23.784 24.9975 22.5282 25.5839 23.6958 20.8889 21.7859 22.6735 20.5249 23.4767 21.7435 19.1862 19.6619 20.5226 18.6683 21.2103 19.7511 17.3908 18.0184 18.4036 16.9038 19.0767 17.662 15.7713 16.2956 16.6616 15.2574 17.1344 15.9484 14.2733 14.6923 14.7736 13.7512 15.2529 14.3626 12.771 13.0254 12.9691 12.0339 13.5958 12.6031 11.44 11.5978 11.3937 10.8631 11.9039 11.2103 10.1921 10.3093 9.88917 9.60139 10.4013 9.81846 8.86189 9.19403 8.56513 8.3569 9.12716 8.56003 7.79981 7.91192 7.37713 7.18448 7.8027 7.26429 6.74204 6.77144 6.07711 6.14919 6.48038 6.21427 5.85439 5.84781 5.0954 5.26387 5.46496 5.31238 5.05968 4.90221 4.27054 4.44219 4.51403 4.33113 4.2479 4.08961 3.35336 3.60243 3.69747 3.57982 3.5492 3.32895 2.70698 2.96177 2.86372 2.96869 2.8735 2.70947 1.94493 2.34497 2.14541 2.20454 2.26137 2.14748 1.34845 1.66578 1.61604 1.64582 1.69523 1.64792 0.872333 1.099 1.02185 1.1281 1.1804 1.08495 0.530235 0.680726 0.579257 0.634418 0.754955 0.61744 0.274403 0.458107 0.383815 0.40058 0.455831 0.413966 67.5594 70.5984 70.4343 78.4004 46.6123 49.6091 64.4664 52.1589 67.6693 57.5088 53.9863 56.9533 61.8975 51.1933 62.9076 55.0924 52.0726 54.9172 58.8852 50.1856 59.0936 53.0973 49.3462 51.9517 55.5929 48.4955 55.7721 51.1031 46.5976 48.9229 52.1533 46.1651 52.8196 48.6028 43.983 46.0182 48.6507 43.4885 49.5312 45.7611 41.1519 42.9718 44.9881 40.5827 46.2179 42.6352 38.292 39.8971 41.7319 37.4718 42.702 39.5747 35.5247 36.8065 38.3345 34.5778 39.3872 36.269 32.7421 33.9169 35.0006 31.687 36.2525 33.2513 30.0098 30.9411 31.8822 28.711 32.8219 30.202 27.2746 28.1019 28.8591 26.0837 29.7933 27.4357 24.6648 25.6841 26.1014 23.6138 27.1101 24.7212 22.3238 22.9075 23.3847 21.1077 24.0476 22.1893 19.9059 20.6565 20.7376 18.8367 21.5033 19.7082 17.9119 18.3473 18.3561 16.5121 18.966 17.3441 15.7713 16.2368 16.0545 14.7156 16.7396 15.3031 13.9143 14.2558 13.9145 12.8222 14.5926 13.2009 12.072 12.4857 11.9869 10.8763 12.6295 11.5941 10.4265 10.6423 10.1719 9.3519 10.6503 9.94909 8.85753 9.07838 8.33304 7.86872 8.97927 8.11301 7.53285 7.57351 6.85776 6.48022 7.42107 6.75181 6.22882 6.41075 5.49602 5.3646 5.88077 5.45195 5.0615 5.085 4.34564 4.39265 4.74234 4.23934 4.02994 4.16851 3.13615 3.31116 3.52775 3.19488 3.16445 3.1017 2.35598 2.4774 2.57538 2.38186 2.47862 2.48259 1.51549 1.78313 1.74857 1.63012 1.75845 1.76312 1.07614 1.24652 1.16019 1.11303 1.25309 1.10909 0.539943 0.732669 0.591375 0.635436 0.818161 0.797382 0.244353 0.385096 0.331602 0.336458 0.436027 0.444568 0.236125 0.264258 0.24544 0.224791 0.287755 0.296901 
SCALARS volume float 1
LOOKUP_TABLE default
0.00812898 0.00812841 0.00812084 0.00811948 0.00812866 0.00813127 0.00813359 0.00813198 0.00813162 0.00813066 0.00813164 0.00813343 0.00813368 0.00813238 0.00813337 0.00813248 0.00813228 0.00813342 0.00813354 0.00813273 0.00813346 0.00813289 0.00813274 0.00813322 0.0081337 0.00813291 0.00813357 0.00813325 0.00813297 0.00813332 0.00813388 0.00813318 0.00813385 0.00813338 0.00813337 0.00813347 0.008134 0.00813338 0.00813398 0.0081336 0.00813373 0.00813395 0.00813428 0.00813366 0.0081344 0.00813395 0.00813401 0.00813401 0.00813481 0.00813422 0.00813448 0.00813454 0.00813426 0.00813408 0.00813499 0.00813417 0.00813475 0.00813485 0.00813457 0.00813473 0.0081351 0.00813487 0.00813511 0.0081351 0.00813497 0.0081349 0.00813539 0.00813525 0.00813525 0.00813521 0.00813527 0.00813518 0.00813575 0.00813536 0.00813588 0.00813539 0.00813545 0.0081354 0.00813597 0.00813567 0.00813576 0.00813567 0.00813571 0.00813591 0.0081362 0.00813589 0.0081362 0.00813604 0.00813607 0.00813609 0.00813629 0.00813611 0.00813631 0.00813626 0.00813631 0.00813623 0.00813663 0.00813649 0.00813637 0.0081364 0.00813653 0.00813671 0.00813674 0.00813681 0.00813687 0.00813664 0.00813659 0.00813656 0.00813699 0.00813693 0.00813706 0.00813675 0.00813687 0.00813698 0.00813709 0.00813689 0.00813695 0.00813704 0.00813692 0.00813658 0.00813711 0.00813714 0.00813718 0.00813711 0.0081369 0.00813718 0.00813751 0.00813706 0.00813742 0.00813726 0.00813725 0.00813724 0.00813745 0.00813741 0.00813741 0.00813732 0.00813741 0.00813756 0.00813758 0.00813762 0.00813767 0.00813752 0.00813766 0.00813783 0.00813774 0.00813762 0.00813754 0.00813747 0.00813778 0.00813744 0.00813771 0.00813775 0.00813778 0.00813788 0.0081379 0.00813745 0.00813813 0.00813786 0.00813786 0.00813742 0.00813796 0.00813797 0.00813795 0.008138 0.00813819 0.00813778 0.00813809 0.00813805 0.00813808 0.00813799 0.00813798 0.00813807 0.00813801 0.00813792 0.00813797 0.00813807 0.00813798 0.00813798 0.00813795 0.00813806 0.00813806 0.00813791 0.00813813 0.00813786 0.00813812 0.0081379 0.00813799 0.00813818 0.00813818 0.00813798 0.00813818 0.008138 0.00813206 0.00813205 0.00812631 0.00812728 0.00812847 0.00813397 0.0081354 0.00813356 0.0081322 0.00813212 0.00813283 0.00813509 0.00813533 0.00813413 0.00813445 0.00813392 0.00813373 0.00813482 0.00813511 0.00813427 0.00813481 0.00813433 0.00813411 0.00813474 0.00813507 0.00813438 0.008135 0.00813461 0.00813429 0.00813482 0.00813506 0.00813457 0.00813515 0.00813473 0.00813443 0.00813479 0.00813535 0.00813475 0.0081353 0.00813485 0.00813476 0.0081351 0.00813553 0.00813497 0.00813554 0.00813527 0.00813485 0.00813519 0.00813571 0.00813517 0.00813559 0.00813537 0.00813534 0.00813549 0.00813593 0.00813517 0.00813582 0.00813571 0.0081356 0.00813548 0.00813607 0.00813549 0.00813613 0.00813593 0.00813584 0.00813582 0.00813629 0.00813579 0.00813612 0.00813602 0.00813574 0.00813601 0.00813626 0.00813591 0.00813648 0.00813614 0.00813616 0.00813617 0.00813652 0.00813611 0.00813658 0.00813644 0.00813639 0.00813657 0.00813649 0.00813623 0.00813674 0.00813668 0.00813636 0.0081367 0.00813685 0.00813657 0.00813696 0.00813652 0.00813664 0.00813679 0.0081368 0.00813669 0.00813699 0.00813692 0.0081371 0.00813691 0.00813728 0.00813698 0.00813711 0.00813702 0.00813723 0.00813716 0.00813742 0.00813687 0.00813706 0.00813713 0.00813703 0.00813732 0.00813727 0.00813732 0.00813749 0.00813714 0.00813732 0.00813718 0.00813728 0.00813735 0.00813732 0.00813731 0.00813758 0.00813752 0.00813763 0.00813759 0.00813762 0.00813748 0.00813749 0.00813728 0.00813761 0.00813745 0.00813782 0.00813769 0.00813767 0.00813726 0.00813767 0.00813743 0.00813723 0.00813773 0.00813763 0.00813778 0.00813782 0.00813759 0.0081377 0.00813792 0.00813766 0.00813784 0.00813769 0.00813776 0.00813792 0.00813772 0.0081378 0.00813812 0.00813763 0.00813773 0.00813787 0.00813788 0.00813793 0.00813801 0.00813784 0.00813813 0.00813827 0.00813803 0.00813787 0.00813763 0.00813802 0.00813775 0.00813786 0.00813797 0.00813792 0.0081375 0.00813814 0.00813801 0.00813804 0.00813797 0.00813823 0.00813773 0.00813788 0.00813833 0.00813803 0.00813792 0.00813819 0.00813818 0.00813802 0.00813831 0.00813794 0.00813812 0.00813813 0.00813799 0.00813499 0.00813429 0.00813168 0.00813161 0.00813178 0.00813559 0.00813665 0.00813551 0.00813477 0.00813432 0.0081343 0.00813626 0.00813674 0.00813576 0.00813592 0.00813549 0.00813515 0.00813636 0.00813641 0.00813567 0.00813627 0.00813588 0.00813548 0.00813612 0.00813642 0.00813575 0.00813642 0.00813595 0.00813559 0.00813612 0.00813648 0.00813574 0.00813647 0.00813591 0.0081359 0.00813607 0.0081364 0.00813589 0.00813644 0.00813629 0.00813594 0.00813618 0.00813635 0.00813599 0.00813668 0.00813624 0.00813614 0.00813614 0.00813658 0.00813607 0.00813672 0.00813646 0.00813633 0.00813641 0.00813679 0.00813626 0.00813676 0.00813652 0.00813639 0.00813653 0.00813684 0.00813635 0.008137 0.00813665 0.00813659 0.00813654 0.00813709 0.00813638 0.00813688 0.00813685 0.00813677 0.0081368 0.0081369 0.00813677 0.0081371 0.00813725 0.00813667 0.00813675 0.00813709 0.00813667 0.00813714 0.008137 0.00813701 0.00813706 0.00813731 0.008137 0.00813731 0.00813728 0.00813701 0.0081372 0.00813723 0.00813713 0.00813744 0.00813717 0.0081372 0.00813731 0.00813749 0.00813716 0.00813738 0.00813724 0.00813749 0.00813755 0.0081377 0.00813725 0.00813734 0.0081372 0.00813733 0.00813752 0.00813753 0.00813732 0.00813754 0.00813764 0.00813759 0.00813758 0.00813778 0.00813754 0.00813778 0.00813732 0.00813746 0.00813781 0.00813781 0.00813752 0.00813777 0.00813755 0.00813753 0.00813751 0.00813781 0.00813768 0.00813761 0.00813793 0.0081378 0.0081378 0.00813755 0.00813794 0.00813782 0.00813796 0.00813755 0.00813796 0.00813779 0.0081378 0.00813806 0.00813804 0.00813799 0.00813772 0.0081378 0.00813771 0.00813765 0.00813802 0.0081379 0.00813794 0.00813764 0.00813778 0.00813783 0.00813814 0.00813793 0.00813819 0.00813774 0.00813788 0.0081378 0.0081376 0.00813815 0.00813789 0.00813794 0.00813816 0.00813772 0.00813785 0.00813784 0.00813816 0.00813789 0.00813767 0.0081379 0.00813793 0.00813815 0.00813822 0.00813803 0.0081382 0.00813783 0.00813774 0.00813797 0.00813791 0.00813771 0.00813795 0.00813797 0.00813808 0.0081381 0.00813819 0.00813814 0.00813792 0.00813815 0.00813805 0.00813782 0.00813819 0.00813764 0.00813667 0.00813691 0.00813569 0.00813521 0.0081373 0.00813801 0.00813729 0.0081374 0.00813649 0.00813629 0.00813748 0.00813788 0.00813726 0.00813756 0.00813705 0.00813669 0.0081375 0.00813766 0.00813716 0.00813766 0.0081372 0.00813674 0.00813738 0.0081377 0.00813708 0.00813773 0.00813721 0.00813698 0.00813716 0.00813763 0.00813708 0.00813762 0.00813748 0.00813706 0.00813711 0.00813761 0.00813713 0.00813774 0.00813751 0.00813714 0.00813754 0.00813755 0.00813703 0.00813776 0.00813746 0.00813715 0.00813732 0.00813765 0.00813706 0.00813776 0.00813738 0.00813738 0.00813762 0.00813782 0.00813725 0.00813774 0.00813747 0.00813734 0.00813755 0.00813767 0.00813742 0.00813765 0.00813756 0.00813758 0.00813767 0.00813781 0.00813724 0.00813789 0.00813763 0.00813756 0.00813751 0.00813787 0.00813727 0.00813781 0.00813767 0.00813754 0.00813777 0.00813758 0.00813758 0.00813778 0.00813771 0.00813761 0.00813754 0.00813811 0.00813752 0.00813808 0.0081378 0.00813762 0.00813753 0.00813778 0.00813743 0.00813791 0.0081379 0.00813759 0.00813768 0.00813792 0.0081374 0.00813823 0.00813787 0.00813781 0.00813752 0.00813813 0.00813736 0.00813795 0.00813788 0.00813823 0.00813748 0.00813803 0.00813759 0.00813784 0.00813806 0.00813772 0.00813774 0.0081376 0.00813799 0.00813794 0.00813803 0.00813773 0.00813757 0.00813805 0.00813787 0.00813778 0.0081378 0.00813808 0.00813794 0.0081379 0.00813772 0.00813812 0.0081378 0.00813818 0.00813772 0.00813778 0.00813769 0.00813779 0.00813778 0.00813805 0.00813793 0.00813825 0.00813761 0.00813793 0.008138 0.00813807 0.00813811 0.00813798 0.00813784 0.00813785 0.00813785 0.00813806 0.0081377 0.00813788 0.00813779 0.00813795 0.008138 0.00813808 0.00813794 0.0081381 0.00813801 0.00813791 0.00813828 0.00813816 0.00813771 0.00813792 0.00813793 0.00813785 0.00813808 0.00813813 0.00813808 0.0081382 0.00813755 0.00813804 0.00813818 0.00813804 0.00813833 0.00813789 0.00813795 0.00813826 0.0081378 0.00813794 0.00813835 0.00813766 0.00813822 0.00813805 0.00813788 0.00813814 0.0081378 0.0081384 0.00813801 0.00813782 0.00813794 0.00813798 0.00813817 0.00814037 0.0081391 0.008142 0.00813958 0.00813815 0.00813856 0.00813926 0.00813884 0.00814009 0.00813865 0.00813828 0.00813852 0.00813887 0.00813863 0.00813952 0.00813863 0.00813821 0.00813862 0.00813888 0.00813843 0.00813921 0.00813869 0.00813828 0.00813858 0.00813895 0.00813837 0.00813896 0.00813866 0.00813836 0.00813845 0.00813892 0.0081382 0.00813891 0.00813865 0.00813843 0.00813851 0.00813882 0.00813834 0.00813871 0.00813871 0.00813833 0.00813838 0.00813886 0.00813838 0.00813874 0.00813854 0.00813832 0.00813824 0.00813863 0.00813822 0.00813872 0.0081385 0.00813819 0.00813832 0.00813861 0.00813817 0.00813876 0.00813843 0.00813819 0.00813836 0.0081387 0.00813806 0.0081388 0.00813848 0.00813835 0.00813835 0.00813867 0.00813784 0.00813866 0.00813844 0.00813829 0.00813833 0.00813858 0.00813809 0.00813865 0.00813858 0.00813821 0.00813822 0.00813839 0.0081381 0.00813852 0.00813844 0.0081382 0.00813836 0.00813848 0.00813812 0.00813846 0.00813855 0.00813833 0.00813833 0.0081384 0.0081381 0.00813831 0.00813811 0.0081381 0.00813813 0.00813839 0.00813825 0.00813813 0.00813844 0.00813794 0.00813816 0.00813832 0.0081378 0.00813827 0.00813833 0.00813814 0.00813828 0.00813835 0.00813795 0.0081386 0.00813838 0.00813798 0.00813826 0.00813807 0.00813801 0.00813824 0.00813841 0.00813811 0.00813822 0.00813824 0.00813785 0.0081384 0.0081381 0.00813819 0.00813782 0.00813798 0.00813828 0.00813802 0.00813821 0.00813805 0.00813805 0.00813803 0.00813791 0.00813831 0.0081381 0.00813817 0.00813807 0.00813826 0.00813786 0.0081382 0.00813804 0.00813787 0.00813798 0.00813794 0.00813825 0.00813806 0.00813784 0.00813809 0.00813819 0.00813803 0.00813788 0.0081383 0.00813827 0.0081381 0.00813784 0.00813822 0.00813795 0.00813831 0.00813847 0.00813819 0.00813799 0.0081382 0.00813782 0.00813796 0.00813804 0.00813791 0.00813792 0.00813802 0.00813791 0.00813818 0.00813835 0.00813802 0.00813793 0.00813828 0.00813821 0.00813808 0.00813787 0.00813795 0.0081382 0.00813776 0.00813799 0.00813774 0.00813794 0.00813781 0.00813839 0.00813825 0.00813793 0.00813792 0.00813788 0.00813811 0.00813812 0.00814312 0.00814155 0.00814753 0.00814348 0.00814138 0.00814028 0.00814025 0.00814038 0.00814268 0.00814083 0.00814033 0.00813958 0.00814017 0.00813995 0.008141 0.00814006 0.00813993 0.00813974 0.00814008 0.00813972 0.0081404 0.00814001 0.00813958 0.00813982 0.00813991 0.0081396 0.00814021 0.00813989 0.00813969 0.00814002 0.00814021 0.00813939 0.00814018 0.0081398 0.00813969 0.00813956 0.00814013 0.00813924 0.00814009 0.00813996 0.0081393 0.00813964 0.00813978 0.00813911 0.00813995 0.00813964 0.00813949 0.00813956 0.00813976 0.00813919 0.00813975 0.00813963 0.00813922 0.00813937 0.00813945 0.00813915 0.00813965 0.0081397 0.008139 0.00813942 0.00813934 0.00813899 0.0081395 0.00813936 0.00813904 0.00813923 0.00813935 0.00813887 0.00813945 0.00813918 0.008139 0.00813911 0.00813934 0.00813882 0.00813909 0.00813909 0.00813901 0.00813903 0.00813935 0.0081386 0.00813925 0.008139 0.00813871 0.00813881 0.00813896 0.00813857 0.00813913 0.00813887 0.00813888 0.00813864 0.00813884 0.00813862 0.00813887 0.00813888 0.00813896 0.00813868 0.00813871 0.00813816 0.00813858 0.00813901 0.00813899 0.00813882 0.00813873 0.00813822 0.00813857 0.00813884 0.00813852 0.0081384 0.00813869 0.00813841 0.00813866 0.00813873 0.00813816 0.00813873 0.00813841 0.00813803 0.00813888 0.00813856 0.00813845 0.0081384 0.00813805 0.00813833 0.00813847 0.00813832 0.00813843 0.00813819 0.00813843 0.00813812 0.00813833 0.00813857 0.00813836 0.00813822 0.00813846 0.00813825 0.00813815 0.00813862 0.00813794 0.00813832 0.00813845 0.00813824 0.00813833 0.00813824 0.00813824 0.0081382 0.00813823 0.00813816 0.00813827 0.00813829 0.00813825 0.00813824 0.00813801 0.00813829 0.00813824 0.00813811 0.00813823 0.00813807 0.00813798 0.00813818 0.00813804 0.00813805 0.00813795 0.00813823 0.00813768 0.00813822 0.00813825 0.00813804 0.0081384 0.00813821 0.00813769 0.00813818 0.00813796 0.00813795 0.00813774 0.00813806 0.00813791 0.0081382 0.00813815 0.00813806 0.00813801 0.00813788 0.00813789 0.00813794 0.00813795 0.00813805 0.00813791 0.00813816 0.00813786 0.00813775 0.00813836 0.00813784 0.00813812 0.008138 0.00814599 0.00814403 0.00815386 0.00814784 0.00814455 0.00814176 0.00814161 0.00814198 0.00814465 0.00814299 0.00814221 0.00814097 0.00814143 0.00814115 0.00814266 0.0081416 0.00814147 0.00814087 0.00814157 0.00814104 0.00814187 0.00814136 0.00814132 0.00814095 0.00814151 0.00814085 0.00814174 0.00814138 0.00814101 0.00814089 0.00814122 0.00814066 0.00814161 0.00814127 0.00814075 0.0081408 0.00814123 0.00814039 0.00814117 0.00814096 0.00814048 0.00814079 0.0081408 0.00814036 0.00814119 0.00814091 0.00814038 0.00814065 0.00814067 0.00814011 0.00814093 0.00814053 0.00814025 0.00814035 0.00814039 0.0081399 0.00814055 0.00814027 0.00813997 0.00814035 0.00814011 0.00813984 0.00814032 0.00814022 0.00813986 0.00814016 0.00814007 0.00813973 0.0081401 0.00814009 0.00813962 0.00813984 0.00813992 0.00813943 0.00814 0.00813976 0.00813953 0.00813956 0.0081397 0.0081393 0.00813969 0.00813958 0.0081394 0.00813953 0.00813946 0.00813921 0.00813958 0.00813959 0.00813922 0.0081395 0.00813936 0.00813911 0.00813946 0.00813933 0.00813912 0.00813931 0.00813903 0.00813894 0.00813938 0.00813911 0.00813913 0.00813917 0.00813914 0.00813866 0.0081391 0.00813877 0.00813921 0.00813885 0.00813872 0.00813881 0.00813897 0.00813918 0.00813883 0.00813889 0.00813895 0.00813865 0.00813889 0.00813916 0.00813856 0.00813863 0.00813876 0.00813862 0.00813861 0.00813861 0.00813852 0.00813863 0.00813849 0.00813851 0.00813869 0.00813862 0.00813856 0.00813841 0.00813845 0.00813831 0.0081382 0.0081385 0.00813848 0.00813849 0.00813863 0.00813829 0.00813836 0.00813839 0.00813844 0.0081381 0.00813841 0.00813816 0.00813826 0.00813841 0.00813821 0.00813835 0.00813826 0.00813805 0.00813817 0.00813808 0.00813827 0.00813859 0.00813795 0.00813847 0.00813822 0.00813812 0.0081381 0.00813822 0.00813807 0.00813825 0.0081381 0.00813806 0.00813824 0.00813828 0.00813794 0.00813826 0.00813816 0.00813797 0.00813803 0.00813797 0.00813807 0.00813813 0.00813814 0.00813777 0.0081383 0.00813786 0.00813784 0.00813801 0.00813792 0.00813804 0.00813804 0.00813806 0.00813841 0.00813793 0.00813776 0.00813798 0.00813796 0.00813807 0.00814695 0.0081458 0.00815847 0.00815235 0.00814678 0.00814393 0.00814367 0.00814325 0.00814384 0.00814495 0.00814367 0.00814218 0.00814332 0.0081426 0.0081432 0.00814305 0.00814293 0.00814246 0.00814312 0.00814226 0.00814317 0.00814268 0.00814257 0.00814256 0.00814281 0.00814224 0.0081431 0.00814251 0.00814214 0.00814232 0.00814251 0.00814201 0.00814261 0.00814245 0.00814198 0.00814225 0.00814241 0.00814167 0.00814253 0.0081422 0.00814184 0.00814187 0.0081421 0.00814149 0.00814205 0.00814192 0.00814136 0.00814154 0.00814142 0.0081411 0.00814189 0.00814149 0.00814129 0.00814149 0.00814148 0.00814088 0.0081416 0.0081415 0.00814103 0.00814091 0.00814128 0.00814072 0.00814116 0.00814096 0.00814073 0.00814083 0.00814087 0.00814054 0.00814082 0.00814074 0.00814058 0.00814068 0.00814071 0.0081402 0.00814069 0.00814039 0.00814012 0.00814036 0.00814042 0.00814002 0.00814054 0.00814039 0.00814 0.00813986 0.00814 0.00813986 0.00814003 0.00814023 0.00813981 0.00814 0.00813997 0.00813969 0.00814008 0.00813968 0.00813967 0.00813985 0.00813935 0.00813934 0.00813961 0.00813934 0.00813957 0.00813972 0.00813962 0.00813941 0.00813944 0.00813947 0.00813916 0.00813961 0.00813918 0.00813918 0.00813948 0.00813935 0.00813917 0.00813895 0.00813921 0.00813862 0.00813897 0.00813928 0.00813896 0.00813901 0.00813881 0.00813859 0.00813905 0.00813899 0.00813873 0.00813875 0.00813832 0.00813895 0.00813877 0.00813872 0.00813868 0.0081388 0.00813843 0.00813843 0.00813844 0.00813842 0.00813865 0.00813861 0.00813914 0.00813852 0.00813832 0.00813834 0.00813856 0.00813864 0.00813866 0.00813818 0.00813798 0.00813808 0.00813859 0.00813874 0.00813804 0.00813829 0.00813841 0.0081382 0.00813802 0.00813837 0.00813838 0.00813843 0.00813826 0.00813809 0.00813798 0.00813825 0.00813816 0.00813823 0.00813785 0.00813808 0.00813806 0.00813828 0.00813824 0.00813816 0.00813786 0.00813819 0.00813813 0.00813797 0.00813809 0.00813807 0.00813784 0.00813782 0.0081381 0.00813855 0.00813823 0.00813811 0.00813827 0.00813782 0.008138 0.00813829 0.00813812 0.0081379 0.00813781 0.00813801 0.00813832 0.00813786 0.00813185 0.00812736 0.00812382 0.00811961 0.00812934 0.00812575 0.00813287 0.00813186 0.00813137 0.00812835 0.00813113 0.00813062 0.00813311 0.00813196 0.00813326 0.00813132 0.00813177 0.00813203 0.00813317 0.00813213 0.00813329 0.00813222 0.00813229 0.00813277 0.00813336 0.00813264 0.00813332 0.00813279 0.00813277 0.00813316 0.00813369 0.00813314 0.0081336 0.00813332 0.00813321 0.00813355 0.00813411 0.00813345 0.0081338 0.00813365 0.0081337 0.00813403 0.00813415 0.00813372 0.00813433 0.00813402 0.00813399 0.00813423 0.0081345 0.00813408 0.00813467 0.00813432 0.00813445 0.00813444 0.00813518 0.00813449 0.00813501 0.00813485 0.00813442 0.00813456 0.00813522 0.00813483 0.00813515 0.00813496 0.00813484 0.00813519 0.00813541 0.0081352 0.00813532 0.00813523 0.0081353 0.00813536 0.00813567 0.00813525 0.00813561 0.00813555 0.00813571 0.00813563 0.00813599 0.00813554 0.00813582 0.00813589 0.00813553 0.00813588 0.00813618 0.00813594 0.00813627 0.00813607 0.00813582 0.00813609 0.00813624 0.00813634 0.0081365 0.00813627 0.00813616 0.00813615 0.00813669 0.00813659 0.0081366 0.00813659 0.00813636 0.00813648 0.00813672 0.00813674 0.00813671 0.00813661 0.00813661 0.00813664 0.00813692 0.00813691 0.00813704 0.00813663 0.00813681 0.00813705 0.0081372 0.00813724 0.00813708 0.0081368 0.00813754 0.00813713 0.0081371 0.00813719 0.00813711 0.00813719 0.00813701 0.00813724 0.00813746 0.00813714 0.00813725 0.00813724 0.00813728 0.00813726 0.00813731 0.00813734 0.00813738 0.00813738 0.00813717 0.00813741 0.00813775 0.00813745 0.00813752 0.00813762 0.0081376 0.00813781 0.00813774 0.00813779 0.00813794 0.00813779 0.00813744 0.00813757 0.00813794 0.00813757 0.008138 0.0081378 0.00813737 0.0081378 0.0081376 0.0081381 0.00813804 0.00813752 0.00813796 0.008138 0.00813791 0.00813774 0.00813799 0.00813798 0.00813796 0.00813811 0.00813787 0.008138 0.00813832 0.00813807 0.00813775 0.00813778 0.00813799 0.00813803 0.00813816 0.00813815 0.00813785 0.00813807 0.0081381 0.00813737 0.00813797 0.00813782 0.00813864 0.00813806 0.00813825 0.00813789 0.00813809 0.00813807 0.00813835 0.00813811 0.00813408 0.00813228 0.00812803 0.00812762 0.00812722 0.00812866 0.00813422 0.00813316 0.00813148 0.00813069 0.00813224 0.0081328 0.00813439 0.00813357 0.00813345 0.00813261 0.00813343 0.00813387 0.00813476 0.00813393 0.00813448 0.00813378 0.00813382 0.00813434 0.00813483 0.00813402 0.00813478 0.00813416 0.00813419 0.00813471 0.00813515 0.00813438 0.00813513 0.00813465 0.00813453 0.00813486 0.00813502 0.00813455 0.00813509 0.00813496 0.00813481 0.00813519 0.00813535 0.00813496 0.00813558 0.00813509 0.00813506 0.00813531 0.00813565 0.00813519 0.00813571 0.00813537 0.0081352 0.00813542 0.00813591 0.00813521 0.00813566 0.00813568 0.0081357 0.00813552 0.00813594 0.00813562 0.00813607 0.0081359 0.00813591 0.00813585 0.00813607 0.00813565 0.00813622 0.00813622 0.00813604 0.00813613 0.00813627 0.00813591 0.00813655 0.00813638 0.00813622 0.00813616 0.0081365 0.00813618 0.00813672 0.00813645 0.00813635 0.00813633 0.00813667 0.00813642 0.0081367 0.00813671 0.00813656 0.00813652 0.0081367 0.0081366 0.00813683 0.00813682 0.00813673 0.00813673 0.00813689 0.00813658 0.0081371 0.00813711 0.00813692 0.00813699 0.0081372 0.00813671 0.0081372 0.0081369 0.00813707 0.00813712 0.0081373 0.00813698 0.00813734 0.00813713 0.00813708 0.00813715 0.0081373 0.0081371 0.00813744 0.00813745 0.00813746 0.00813751 0.00813754 0.00813716 0.00813765 0.00813741 0.00813743 0.00813741 0.00813747 0.00813748 0.00813764 0.00813779 0.00813752 0.00813752 0.00813754 0.00813741 0.00813754 0.00813748 0.00813774 0.00813776 0.00813798 0.00813751 0.00813783 0.0081375 0.00813772 0.00813782 0.00813808 0.00813777 0.00813802 0.00813786 0.00813788 0.00813768 0.00813786 0.00813783 0.00813783 0.00813824 0.00813778 0.00813777 0.00813795 0.008138 0.00813767 0.00813778 0.00813812 0.00813807 0.008138 0.00813794 0.00813815 0.00813815 0.00813804 0.00813809 0.00813808 0.00813799 0.0081381 0.00813791 0.00813786 0.00813807 0.00813798 0.0081379 0.00813814 0.00813813 0.0081378 0.00813785 0.00813786 0.00813836 0.00813798 0.00813781 0.00813792 0.00813807 0.00813829 0.00813803 0.00813808 0.0081379 0.00813797 0.0081382 0.0081364 0.00813478 0.00813249 0.00813198 0.00813065 0.00813235 0.00813649 0.00813509 0.00813411 0.00813355 0.00813371 0.00813463 0.00813613 0.00813498 0.00813543 0.00813462 0.00813489 0.0081356 0.00813607 0.00813537 0.00813604 0.00813531 0.00813539 0.00813582 0.00813626 0.00813538 0.00813612 0.00813566 0.00813548 0.00813607 0.00813634 0.00813574 0.00813635 0.0081359 0.0081357 0.00813595 0.0081365 0.00813582 0.00813652 0.00813624 0.00813602 0.00813631 0.00813634 0.00813574 0.00813685 0.00813621 0.00813611 0.00813638 0.00813677 0.00813613 0.00813659 0.00813651 0.00813625 0.00813654 0.00813655 0.00813617 0.00813674 0.00813654 0.0081367 0.00813656 0.00813665 0.00813647 0.00813681 0.00813688 0.00813652 0.0081367 0.008137 0.00813663 0.00813708 0.00813687 0.00813694 0.00813677 0.00813695 0.00813683 0.0081372 0.008137 0.00813689 0.00813677 0.00813712 0.00813686 0.00813716 0.00813717 0.00813692 0.00813703 0.00813704 0.00813698 0.00813747 0.00813719 0.00813706 0.00813726 0.00813713 0.00813711 0.00813745 0.00813731 0.00813747 0.00813745 0.0081375 0.00813733 0.00813745 0.00813752 0.00813723 0.00813728 0.00813749 0.00813736 0.00813737 0.00813749 0.00813723 0.00813752 0.00813737 0.0081374 0.00813769 0.00813745 0.00813754 0.00813767 0.00813763 0.00813735 0.00813779 0.0081374 0.00813769 0.00813766 0.00813773 0.00813774 0.00813768 0.00813805 0.00813773 0.00813777 0.00813762 0.00813737 0.00813788 0.00813791 0.00813772 0.00813775 0.0081378 0.00813764 0.00813779 0.00813795 0.00813777 0.00813777 0.0081379 0.00813789 0.00813794 0.00813781 0.00813784 0.00813788 0.00813785 0.00813783 0.00813788 0.00813777 0.00813796 0.0081376 0.00813793 0.00813776 0.00813801 0.00813787 0.00813793 0.00813794 0.00813788 0.00813777 0.00813784 0.00813746 0.0081381 0.00813805 0.0081379 0.008138 0.00813804 0.00813809 0.00813808 0.00813814 0.00813798 0.00813808 0.00813789 0.00813805 0.0081381 0.00813795 0.00813758 0.00813801 0.00813778 0.00813789 0.0081379 0.00813808 0.00813801 0.00813818 0.00813814 0.00813815 0.00813793 0.00813816 0.00813813 0.00813795 0.0081381 0.00813777 0.00813819 0.00813807 0.00813881 0.00813725 0.00813676 0.00813602 0.00813434 0.00813569 0.00813844 0.00813695 0.00813727 0.00813645 0.00813575 0.00813654 0.00813783 0.00813698 0.00813768 0.00813675 0.0081365 0.00813693 0.00813752 0.00813697 0.00813769 0.00813701 0.00813675 0.0081372 0.00813757 0.00813683 0.00813758 0.00813716 0.00813693 0.00813737 0.00813748 0.00813689 0.00813774 0.00813726 0.00813711 0.00813734 0.00813751 0.00813702 0.00813775 0.00813738 0.00813706 0.00813737 0.00813761 0.00813727 0.00813786 0.00813759 0.0081371 0.00813739 0.00813761 0.00813702 0.00813778 0.00813763 0.00813736 0.00813753 0.0081375 0.00813715 0.00813779 0.0081376 0.0081373 0.00813754 0.00813765 0.00813718 0.00813797 0.00813776 0.0081376 0.00813759 0.00813761 0.008137 0.00813781 0.00813754 0.00813745 0.00813779 0.00813767 0.00813751 0.00813799 0.00813783 0.0081373 0.00813758 0.00813769 0.00813741 0.00813806 0.00813775 0.00813756 0.00813759 0.00813769 0.00813758 0.00813781 0.00813785 0.00813754 0.00813765 0.00813773 0.00813773 0.00813799 0.00813777 0.00813772 0.00813784 0.0081379 0.00813752 0.00813811 0.00813782 0.00813789 0.00813789 0.00813791 0.00813753 0.00813786 0.0081379 0.0081378 0.00813764 0.00813786 0.00813792 0.00813814 0.0081381 0.00813788 0.00813784 0.00813788 0.00813753 0.00813803 0.00813807 0.0081378 0.00813798 0.00813771 0.00813772 0.00813824 0.00813816 0.00813791 0.00813789 0.00813792 0.00813782 0.00813787 0.0081379 0.00813801 0.00813817 0.00813799 0.00813795 0.00813807 0.00813788 0.00813798 0.00813794 0.0081381 0.00813779 0.00813804 0.00813811 0.00813805 0.00813764 0.00813795 0.0081379 0.00813807 0.00813796 0.00813803 0.00813791 0.00813785 0.00813809 0.00813798 0.00813814 0.00813814 0.00813796 0.00813819 0.00813799 0.00813773 0.00813812 0.00813796 0.00813797 0.00813816 0.00813819 0.008138 0.00813817 0.00813782 0.00813786 0.00813779 0.00813805 0.00813818 0.00813821 0.0081383 0.00813786 0.00813797 0.00813811 0.00813802 0.00813785 0.00813815 0.00813796 0.00813802 0.00813825 0.00813792 0.00813826 0.00813813 0.00813808 0.00813783 0.00813804 0.00813787 0.00813799 0.00813813 0.00813802 0.00814138 0.00813988 0.00814126 0.00813984 0.00813807 0.00813905 0.00814015 0.00813911 0.00814057 0.00813913 0.00813845 0.00813863 0.00813953 0.00813857 0.00813999 0.00813884 0.00813829 0.00813878 0.00813916 0.00813843 0.00813952 0.00813862 0.00813831 0.00813845 0.00813894 0.00813815 0.00813912 0.00813874 0.00813842 0.00813854 0.00813885 0.0081383 0.00813907 0.00813874 0.00813819 0.00813862 0.00813876 0.0081382 0.00813908 0.00813876 0.00813831 0.00813844 0.00813849 0.00813817 0.00813881 0.00813862 0.00813831 0.00813856 0.00813858 0.00813804 0.00813882 0.0081386 0.00813823 0.0081386 0.00813845 0.00813805 0.00813889 0.00813846 0.00813826 0.00813859 0.00813844 0.0081382 0.0081387 0.00813857 0.00813836 0.00813839 0.00813848 0.00813808 0.00813858 0.00813857 0.00813812 0.00813828 0.00813851 0.00813825 0.00813875 0.00813844 0.00813825 0.0081384 0.00813842 0.00813807 0.00813842 0.00813832 0.0081382 0.00813824 0.00813825 0.00813818 0.00813838 0.00813842 0.00813822 0.0081383 0.00813829 0.00813815 0.00813857 0.0081383 0.00813805 0.00813839 0.0081382 0.00813802 0.00813854 0.00813831 0.00813807 0.00813808 0.00813818 0.00813808 0.0081384 0.00813822 0.00813807 0.00813801 0.00813826 0.00813802 0.00813848 0.00813825 0.00813813 0.00813822 0.00813826 0.00813805 0.00813836 0.00813824 0.00813803 0.00813794 0.00813816 0.008138 0.00813825 0.00813825 0.008138 0.00813835 0.00813812 0.00813799 0.00813836 0.00813825 0.008138 0.00813808 0.00813806 0.00813791 0.00813812 0.0081381 0.00813787 0.00813805 0.00813819 0.00813787 0.00813814 0.00813808 0.00813816 0.00813822 0.00813805 0.00813815 0.00813823 0.00813799 0.00813795 0.0081383 0.00813782 0.00813803 0.00813825 0.00813832 0.00813787 0.00813776 0.00813822 0.00813798 0.00813796 0.00813804 0.00813821 0.00813795 0.00813798 0.00813797 0.0081379 0.00813801 0.00813819 0.00813807 0.00813799 0.00813834 0.00813801 0.0081381 0.00813799 0.00813784 0.00813818 0.00813801 0.00813824 0.00813834 0.00813798 0.00813823 0.00813802 0.00813791 0.00813812 0.0081382 0.00813822 0.00813809 0.00813839 0.0081379 0.00813801 0.00813794 0.00813789 0.00813823 0.00814393 0.00814265 0.00814602 0.00814377 0.00814164 0.00814251 0.00814188 0.00814127 0.00814386 0.00814185 0.00814087 0.00814064 0.00814093 0.00814046 0.00814196 0.00814082 0.00814026 0.00814037 0.00814039 0.00813976 0.0081409 0.0081403 0.00813985 0.00814005 0.00814032 0.00813945 0.00814056 0.00814008 0.00813971 0.0081401 0.00814015 0.00813948 0.00814035 0.00813995 0.0081397 0.00813977 0.00814002 0.00813938 0.00814021 0.00813987 0.00813946 0.00813959 0.00813979 0.00813929 0.00813985 0.00813968 0.00813947 0.00813961 0.00813967 0.0081392 0.00813987 0.00813968 0.00813937 0.00813958 0.00813943 0.00813916 0.00813965 0.00813953 0.00813916 0.00813926 0.00813934 0.00813899 0.00813966 0.00813941 0.00813918 0.00813928 0.00813914 0.00813888 0.00813946 0.00813923 0.00813915 0.00813926 0.00813906 0.00813863 0.00813927 0.00813906 0.00813903 0.00813921 0.00813902 0.00813855 0.00813908 0.00813906 0.00813907 0.00813896 0.00813896 0.00813875 0.00813903 0.00813899 0.00813876 0.00813879 0.00813874 0.00813873 0.00813903 0.00813887 0.00813865 0.00813871 0.008139 0.00813848 0.00813881 0.00813886 0.00813843 0.00813864 0.00813865 0.00813841 0.00813899 0.00813864 0.00813849 0.00813844 0.00813839 0.00813852 0.00813847 0.00813862 0.00813849 0.00813847 0.00813872 0.00813853 0.00813868 0.00813855 0.00813827 0.00813841 0.00813845 0.00813823 0.0081386 0.00813857 0.00813816 0.00813841 0.00813827 0.00813834 0.00813842 0.00813833 0.00813846 0.00813835 0.00813853 0.00813817 0.00813825 0.00813812 0.00813833 0.0081383 0.00813804 0.0081381 0.00813805 0.00813828 0.00813828 0.00813823 0.00813806 0.00813794 0.00813832 0.00813839 0.00813801 0.00813816 0.00813779 0.00813825 0.00813808 0.00813822 0.00813804 0.00813822 0.00813829 0.00813789 0.00813832 0.00813804 0.00813823 0.0081379 0.00813815 0.00813791 0.00813811 0.00813837 0.00813788 0.00813816 0.00813784 0.00813816 0.00813808 0.00813799 0.008138 0.00813839 0.00813795 0.0081379 0.00813812 0.00813808 0.00813785 0.00813778 0.008138 0.00813815 0.00813819 0.00813817 0.00813789 0.00813792 0.00813799 0.008138 0.00813835 0.00813828 0.00813807 0.0081378 0.00814633 0.008145 0.00815125 0.00814784 0.00814536 0.00814619 0.00814312 0.00814285 0.00814598 0.0081447 0.00814284 0.00814282 0.00814228 0.00814192 0.0081433 0.00814296 0.00814187 0.0081418 0.00814183 0.0081412 0.00814235 0.00814196 0.00814143 0.00814152 0.00814153 0.00814083 0.00814185 0.00814163 0.00814105 0.00814121 0.00814133 0.00814061 0.00814173 0.00814133 0.00814088 0.00814109 0.00814122 0.00814047 0.00814137 0.00814102 0.00814072 0.00814081 0.00814078 0.00814022 0.00814106 0.00814096 0.00814069 0.00814054 0.00814058 0.00814006 0.00814078 0.00814074 0.00814016 0.00814041 0.00814045 0.00813994 0.0081405 0.00814034 0.00814015 0.00814032 0.0081402 0.00813978 0.00814048 0.00814033 0.00813989 0.00814008 0.00814012 0.00813976 0.00814026 0.00814005 0.00813996 0.00813988 0.00813974 0.00813939 0.00813984 0.00813964 0.00813974 0.00814002 0.00813968 0.00813928 0.00813973 0.00813991 0.00813943 0.00813954 0.0081395 0.00813915 0.00813961 0.00813954 0.00813927 0.00813928 0.00813946 0.00813912 0.00813933 0.00813933 0.0081391 0.00813939 0.00813913 0.00813888 0.00813941 0.00813924 0.00813904 0.00813926 0.00813895 0.00813883 0.00813907 0.00813888 0.00813881 0.00813898 0.0081387 0.00813896 0.00813882 0.00813903 0.0081389 0.00813882 0.00813887 0.00813849 0.00813901 0.00813892 0.00813865 0.00813853 0.00813879 0.00813851 0.00813869 0.00813904 0.0081386 0.00813868 0.00813847 0.00813859 0.00813865 0.0081385 0.00813858 0.00813839 0.00813841 0.00813842 0.00813843 0.00813866 0.00813862 0.00813836 0.00813851 0.00813804 0.00813827 0.00813853 0.00813812 0.00813851 0.00813836 0.00813826 0.00813843 0.00813825 0.00813812 0.00813831 0.00813831 0.00813827 0.0081383 0.00813825 0.00813819 0.00813809 0.00813805 0.00813783 0.00813793 0.00813818 0.00813792 0.00813832 0.00813818 0.00813831 0.0081383 0.0081381 0.0081382 0.00813819 0.00813802 0.00813808 0.00813827 0.00813841 0.00813804 0.00813799 0.00813805 0.00813811 0.00813801 0.00813818 0.00813801 0.00813831 0.00813811 0.00813804 0.00813793 0.00813756 0.00813796 0.00813828 0.00813826 0.00813827 0.00813821 0.00813799 0.00813783 0.00813779 0.00814807 0.00814664 0.00815837 0.00815239 0.00814795 0.00814953 0.00814387 0.00814405 0.00814391 0.00814664 0.00814442 0.0081445 0.00814378 0.0081431 0.00814341 0.00814437 0.00814335 0.00814338 0.00814345 0.00814252 0.00814367 0.00814339 0.00814286 0.00814282 0.00814316 0.00814224 0.00814315 0.00814286 0.00814232 0.00814249 0.00814295 0.00814201 0.00814275 0.00814252 0.00814202 0.0081423 0.00814235 0.00814171 0.00814244 0.00814216 0.0081417 0.00814195 0.00814209 0.00814151 0.00814219 0.00814188 0.00814153 0.00814168 0.00814173 0.0081412 0.00814178 0.00814173 0.00814124 0.00814142 0.00814133 0.0081409 0.00814141 0.00814135 0.00814113 0.00814085 0.00814095 0.00814073 0.00814134 0.00814129 0.00814059 0.00814096 0.00814078 0.00814043 0.00814097 0.00814068 0.00814048 0.00814061 0.00814057 0.00814028 0.00814076 0.00814067 0.00814051 0.00814039 0.00814031 0.00813978 0.00814009 0.00814038 0.00814015 0.00814003 0.00814007 0.00813982 0.00813987 0.00814017 0.00813981 0.00813973 0.00813982 0.00813946 0.00813994 0.0081399 0.00813965 0.00813981 0.00813948 0.0081396 0.00814006 0.00813958 0.00813935 0.00813953 0.00813949 0.00813912 0.00813955 0.00813919 0.00813918 0.00813929 0.00813938 0.00813901 0.00813918 0.00813929 0.00813925 0.00813901 0.00813919 0.00813901 0.00813898 0.00813922 0.00813862 0.00813898 0.00813917 0.00813861 0.00813905 0.00813898 0.00813886 0.00813878 0.00813849 0.0081385 0.00813868 0.00813859 0.00813872 0.00813877 0.00813858 0.00813848 0.00813844 0.00813878 0.00813837 0.00813868 0.00813832 0.0081386 0.00813853 0.0081385 0.00813845 0.00813841 0.00813849 0.00813839 0.00813822 0.00813843 0.00813821 0.00813814 0.00813859 0.00813816 0.00813846 0.00813843 0.00813848 0.00813829 0.00813833 0.00813803 0.00813818 0.00813822 0.00813829 0.0081385 0.00813828 0.00813803 0.00813826 0.00813842 0.00813797 0.00813787 0.00813794 0.00813807 0.0081381 0.00813806 0.00813808 0.00813794 0.00813799 0.00813782 0.0081382 0.00813837 0.0081379 0.00813817 0.00813795 0.00813778 0.00813783 0.00813797 0.00813807 0.00813822 0.00813815 0.00813803 0.00813823 0.00813794 0.00813805 0.00813794 0.00813136 0.00812653 0.00812366 0.00811893 0.0081288 0.00812535 0.00813231 0.00813128 0.00813066 0.00812806 0.00813088 0.00812969 0.00813283 0.00813188 0.00813311 0.00813064 0.00813154 0.00813124 0.00813301 0.008132 0.00813319 0.00813181 0.00813216 0.00813222 0.00813334 0.00813248 0.00813341 0.00813257 0.00813263 0.00813296 0.00813362 0.00813304 0.00813361 0.00813319 0.00813307 0.00813343 0.00813387 0.00813337 0.00813408 0.00813371 0.00813346 0.00813368 0.0081343 0.00813381 0.00813421 0.00813404 0.00813397 0.0081342 0.00813443 0.00813408 0.00813467 0.00813447 0.00813442 0.0081343 0.0081349 0.00813452 0.00813497 0.00813472 0.00813445 0.00813477 0.00813528 0.00813488 0.00813527 0.00813492 0.008135 0.00813517 0.00813558 0.00813506 0.00813547 0.00813534 0.00813523 0.00813545 0.00813569 0.0081355 0.00813569 0.00813558 0.00813576 0.0081356 0.00813613 0.00813563 0.00813587 0.00813574 0.00813578 0.00813584 0.00813609 0.00813605 0.00813641 0.00813601 0.00813612 0.00813605 0.00813653 0.0081359 0.00813666 0.00813635 0.00813641 0.00813644 0.0081367 0.00813651 0.00813646 0.00813644 0.00813688 0.0081366 0.00813642 0.00813692 0.00813666 0.008137 0.00813662 0.00813685 0.00813689 0.00813692 0.00813686 0.00813683 0.00813683 0.00813708 0.00813703 0.00813706 0.0081371 0.00813684 0.00813694 0.00813718 0.00813719 0.00813744 0.00813723 0.00813727 0.0081373 0.00813728 0.00813744 0.00813731 0.00813727 0.00813753 0.00813748 0.00813746 0.00813751 0.00813752 0.00813753 0.00813762 0.00813729 0.00813741 0.00813773 0.00813789 0.00813764 0.00813766 0.00813749 0.00813759 0.00813785 0.00813784 0.00813764 0.00813772 0.00813727 0.00813754 0.0081379 0.00813774 0.00813762 0.00813777 0.00813782 0.00813795 0.00813777 0.00813787 0.00813775 0.00813802 0.00813797 0.00813781 0.00813788 0.00813783 0.00813789 0.00813813 0.00813802 0.00813774 0.00813817 0.00813811 0.00813767 0.00813788 0.00813844 0.00813795 0.00813803 0.00813783 0.00813815 0.00813795 0.00813813 0.00813801 0.00813805 0.00813804 0.00813824 0.00813807 0.00813822 0.00813785 0.00813805 0.00813836 0.00813811 0.00813803 0.00813812 0.00813811 0.00813397 0.00813203 0.00812794 0.00812718 0.00812708 0.00812791 0.00813412 0.00813306 0.0081306 0.00813029 0.00813147 0.00813169 0.00813411 0.00813329 0.00813328 0.00813214 0.00813309 0.00813307 0.00813439 0.00813365 0.00813443 0.00813333 0.00813379 0.00813382 0.00813472 0.00813412 0.00813474 0.00813396 0.0081342 0.00813427 0.00813504 0.0081344 0.00813503 0.00813463 0.00813459 0.00813473 0.00813515 0.00813463 0.00813522 0.00813488 0.00813473 0.00813497 0.00813532 0.00813477 0.00813546 0.00813528 0.00813515 0.00813527 0.00813554 0.00813516 0.00813565 0.00813552 0.00813542 0.00813547 0.00813579 0.00813526 0.00813593 0.00813582 0.00813548 0.00813582 0.00813588 0.0081356 0.00813617 0.00813581 0.00813585 0.00813604 0.00813604 0.00813569 0.00813627 0.008136 0.00813609 0.00813603 0.00813631 0.00813592 0.00813634 0.00813638 0.0081363 0.00813642 0.00813628 0.00813622 0.00813662 0.00813629 0.00813653 0.00813635 0.00813656 0.00813642 0.00813672 0.00813661 0.00813644 0.00813687 0.00813676 0.00813674 0.00813711 0.00813676 0.0081367 0.00813658 0.00813699 0.00813673 0.00813697 0.00813702 0.00813686 0.00813684 0.00813717 0.00813701 0.00813737 0.00813689 0.00813692 0.00813719 0.00813717 0.00813698 0.00813746 0.00813715 0.00813735 0.00813724 0.00813749 0.00813708 0.00813763 0.00813743 0.00813733 0.00813734 0.00813748 0.00813726 0.00813751 0.00813745 0.0081375 0.00813728 0.00813767 0.00813747 0.00813774 0.00813766 0.00813758 0.00813735 0.00813764 0.00813754 0.00813767 0.00813778 0.00813749 0.00813758 0.00813781 0.00813748 0.00813778 0.00813784 0.0081378 0.00813772 0.00813778 0.0081376 0.00813781 0.00813795 0.00813812 0.00813777 0.008138 0.00813786 0.00813789 0.00813797 0.00813803 0.00813762 0.00813767 0.00813778 0.00813788 0.0081383 0.00813808 0.00813768 0.00813806 0.00813787 0.00813801 0.0081381 0.00813816 0.00813798 0.00813795 0.00813778 0.00813802 0.00813799 0.00813807 0.0081378 0.00813807 0.00813814 0.00813817 0.00813787 0.00813811 0.00813788 0.00813802 0.00813813 0.00813794 0.00813811 0.00813812 0.00813812 0.00813819 0.00813807 0.00813805 0.00813793 0.00813775 0.00813802 0.00813636 0.00813464 0.00813234 0.0081317 0.00813045 0.00813186 0.00813636 0.00813514 0.00813386 0.0081332 0.00813312 0.00813371 0.00813597 0.00813495 0.00813509 0.00813421 0.00813474 0.00813494 0.00813588 0.00813535 0.00813576 0.00813536 0.0081351 0.00813549 0.00813604 0.00813536 0.00813631 0.00813567 0.00813566 0.00813589 0.00813619 0.00813556 0.00813638 0.00813597 0.00813576 0.00813602 0.00813621 0.00813577 0.00813645 0.00813607 0.00813601 0.00813612 0.00813652 0.0081357 0.00813671 0.00813628 0.00813614 0.00813638 0.00813662 0.00813595 0.00813679 0.0081365 0.00813638 0.00813659 0.00813665 0.00813614 0.00813698 0.00813658 0.00813651 0.00813674 0.00813685 0.00813649 0.00813707 0.00813676 0.00813641 0.00813677 0.00813676 0.00813666 0.00813698 0.00813671 0.008137 0.00813696 0.00813689 0.00813669 0.0081372 0.00813707 0.00813701 0.00813705 0.00813712 0.00813695 0.00813733 0.00813735 0.00813706 0.00813696 0.00813726 0.00813694 0.00813727 0.00813721 0.00813707 0.00813739 0.00813722 0.00813717 0.00813745 0.00813708 0.00813737 0.00813728 0.00813722 0.00813698 0.0081377 0.00813748 0.00813728 0.00813736 0.00813721 0.00813732 0.00813755 0.0081375 0.00813737 0.00813754 0.00813726 0.00813782 0.00813764 0.00813789 0.00813738 0.00813738 0.00813755 0.00813725 0.00813777 0.00813742 0.00813753 0.00813753 0.00813774 0.00813743 0.00813777 0.00813772 0.00813773 0.00813773 0.00813781 0.00813748 0.00813783 0.00813775 0.00813754 0.00813761 0.00813768 0.0081375 0.00813792 0.00813758 0.00813789 0.00813785 0.00813786 0.00813759 0.00813799 0.00813776 0.00813806 0.00813812 0.0081378 0.00813781 0.00813784 0.00813807 0.00813796 0.00813814 0.008138 0.00813759 0.00813795 0.00813775 0.00813791 0.00813814 0.00813804 0.00813783 0.0081379 0.00813766 0.00813789 0.00813815 0.00813789 0.00813803 0.00813796 0.0081378 0.00813791 0.00813804 0.00813807 0.00813804 0.00813827 0.0081381 0.00813798 0.00813814 0.008138 0.00813808 0.00813798 0.00813806 0.0081379 0.0081379 0.00813816 0.00813775 0.00813811 0.00813813 0.00813814 0.00813819 0.0081379 0.00813825 0.00813777 0.00813786 0.00813802 0.00813788 0.00813895 0.00813721 0.00813674 0.00813594 0.00813415 0.00813556 0.00813864 0.00813731 0.00813735 0.00813623 0.00813552 0.00813642 0.00813798 0.00813701 0.00813762 0.00813654 0.00813639 0.00813681 0.0081377 0.00813682 0.00813777 0.00813694 0.00813685 0.00813715 0.00813764 0.00813682 0.00813774 0.00813716 0.00813691 0.00813738 0.00813753 0.00813689 0.0081378 0.00813725 0.00813706 0.0081373 0.00813749 0.00813696 0.00813763 0.0081374 0.00813718 0.00813743 0.00813759 0.00813699 0.00813772 0.00813751 0.00813734 0.00813747 0.00813758 0.00813705 0.0081379 0.00813754 0.00813725 0.00813754 0.00813756 0.00813713 0.00813792 0.00813756 0.00813734 0.00813755 0.00813765 0.00813727 0.00813794 0.00813761 0.00813748 0.00813748 0.00813765 0.00813736 0.00813785 0.00813767 0.00813768 0.00813763 0.00813753 0.00813744 0.00813791 0.00813793 0.00813753 0.00813749 0.00813766 0.00813748 0.00813797 0.00813782 0.00813752 0.0081376 0.00813767 0.00813756 0.00813798 0.00813761 0.00813795 0.00813782 0.00813773 0.00813738 0.00813785 0.00813771 0.00813778 0.00813804 0.00813787 0.00813775 0.00813774 0.0081379 0.00813765 0.00813782 0.00813769 0.00813761 0.00813792 0.0081379 0.00813789 0.00813783 0.00813781 0.00813775 0.00813821 0.00813813 0.008138 0.00813784 0.00813781 0.00813798 0.00813781 0.00813796 0.00813792 0.00813775 0.00813802 0.00813782 0.00813781 0.00813781 0.0081379 0.00813803 0.00813794 0.00813771 0.008138 0.00813795 0.00813805 0.00813796 0.00813801 0.00813794 0.00813801 0.0081379 0.00813794 0.00813802 0.008138 0.0081377 0.00813816 0.00813805 0.00813799 0.0081379 0.00813788 0.00813768 0.00813807 0.00813789 0.00813791 0.00813798 0.00813786 0.00813793 0.00813801 0.0081382 0.00813802 0.00813803 0.00813773 0.00813784 0.00813788 0.00813785 0.0081381 0.00813799 0.00813783 0.00813804 0.00813832 0.00813813 0.00813775 0.00813793 0.00813825 0.00813806 0.00813833 0.00813803 0.00813793 0.00813779 0.00813795 0.00813767 0.00813794 0.0081381 0.00813832 0.00813806 0.00813791 0.00813817 0.00813793 0.00813827 0.00813822 0.00813792 0.00813813 0.00813804 0.00813816 0.00813807 0.00813845 0.00813818 0.0081419 0.0081403 0.00814125 0.00813984 0.0081381 0.00813925 0.00814067 0.0081398 0.00814067 0.0081393 0.00813823 0.00813887 0.00813981 0.00813876 0.00814006 0.00813895 0.00813843 0.00813893 0.00813925 0.00813843 0.00813963 0.00813894 0.00813848 0.00813881 0.00813883 0.00813836 0.00813932 0.00813888 0.00813839 0.00813866 0.00813877 0.00813818 0.00813909 0.00813863 0.00813838 0.00813863 0.00813861 0.0081381 0.00813895 0.00813876 0.00813858 0.00813858 0.00813874 0.00813793 0.00813879 0.0081386 0.00813845 0.00813854 0.00813862 0.00813802 0.00813876 0.00813865 0.00813813 0.00813843 0.00813846 0.00813823 0.0081389 0.0081385 0.0081381 0.00813836 0.00813856 0.00813815 0.00813873 0.00813839 0.00813833 0.00813841 0.00813828 0.00813806 0.00813874 0.00813869 0.00813838 0.00813835 0.00813841 0.0081381 0.00813866 0.00813831 0.00813847 0.00813844 0.00813845 0.00813817 0.00813847 0.00813848 0.0081382 0.00813841 0.00813806 0.00813818 0.00813829 0.00813826 0.00813815 0.00813837 0.00813824 0.00813802 0.00813855 0.00813827 0.00813824 0.00813824 0.00813821 0.00813784 0.00813848 0.00813853 0.00813822 0.00813832 0.00813823 0.00813808 0.00813849 0.00813821 0.00813845 0.00813824 0.00813814 0.00813832 0.00813821 0.00813822 0.00813805 0.00813805 0.00813807 0.00813792 0.00813857 0.00813819 0.00813807 0.0081382 0.00813827 0.00813804 0.00813844 0.00813835 0.00813804 0.00813804 0.008138 0.00813802 0.00813841 0.008138 0.00813787 0.00813804 0.00813785 0.00813784 0.00813825 0.00813812 0.00813826 0.00813818 0.00813812 0.00813836 0.00813796 0.00813835 0.00813809 0.0081383 0.00813797 0.00813806 0.0081383 0.00813813 0.00813788 0.00813818 0.00813816 0.00813808 0.00813809 0.00813819 0.00813807 0.00813825 0.00813803 0.00813791 0.0081384 0.00813803 0.00813795 0.0081381 0.00813811 0.00813809 0.00813821 0.00813809 0.00813774 0.00813811 0.00813797 0.00813797 0.00813814 0.00813812 0.00813793 0.00813776 0.00813811 0.0081377 0.00813807 0.00813805 0.008138 0.00813793 0.00813823 0.00813809 0.00813819 0.00813796 0.0081381 0.00813784 0.00813802 0.00813774 0.00813799 0.00813809 0.00813835 0.00813812 0.00814469 0.00814318 0.00814612 0.00814377 0.00814185 0.00814291 0.00814255 0.00814167 0.0081444 0.00814237 0.00814102 0.00814158 0.00814122 0.00814068 0.00814219 0.00814125 0.00814031 0.00814079 0.00814072 0.0081399 0.00814114 0.00814077 0.00814007 0.00814033 0.00814056 0.00813965 0.00814072 0.00814044 0.00813983 0.00814016 0.00814015 0.00813936 0.00814035 0.00814006 0.00813968 0.0081401 0.00813984 0.00813934 0.00814022 0.00813986 0.00813948 0.00813972 0.00813982 0.00813901 0.00813998 0.00813988 0.00813933 0.00813979 0.00813951 0.00813911 0.00813986 0.00813953 0.00813928 0.00813946 0.00813941 0.00813911 0.00813962 0.00813938 0.00813923 0.00813956 0.00813932 0.00813877 0.00813957 0.00813951 0.00813918 0.00813944 0.00813934 0.00813882 0.00813931 0.00813932 0.00813894 0.00813933 0.0081391 0.00813887 0.00813928 0.00813899 0.0081391 0.00813906 0.008139 0.00813854 0.00813911 0.00813915 0.00813897 0.00813879 0.00813888 0.00813871 0.00813889 0.00813907 0.00813898 0.00813896 0.00813885 0.00813863 0.00813876 0.00813884 0.00813874 0.008139 0.00813875 0.0081386 0.00813866 0.00813876 0.00813852 0.00813871 0.00813859 0.00813836 0.00813883 0.00813881 0.00813841 0.00813863 0.00813835 0.00813841 0.00813855 0.00813851 0.00813881 0.00813848 0.00813811 0.00813857 0.00813845 0.00813861 0.00813825 0.00813855 0.0081383 0.00813832 0.00813853 0.00813849 0.00813849 0.00813842 0.00813801 0.00813856 0.0081384 0.00813823 0.00813823 0.0081384 0.00813818 0.00813813 0.00813858 0.00813831 0.00813799 0.00813854 0.00813822 0.00813802 0.00813852 0.00813804 0.00813838 0.00813837 0.00813822 0.00813803 0.00813805 0.00813781 0.00813811 0.00813824 0.00813811 0.0081379 0.0081384 0.00813842 0.00813829 0.00813818 0.00813831 0.00813805 0.00813802 0.00813804 0.0081379 0.008138 0.0081382 0.008138 0.0081379 0.0081381 0.00813801 0.00813813 0.0081381 0.00813794 0.00813831 0.00813813 0.00813795 0.00813808 0.0081383 0.008138 0.00813802 0.00813799 0.0081379 0.00813794 0.0081379 0.00813801 0.00813838 0.00813817 0.00813783 0.00813808 0.00813796 0.00813803 0.00813814 0.00813821 0.00813788 0.00813785 0.0081472 0.00814573 0.00815144 0.0081481 0.00814544 0.00814647 0.00814374 0.00814336 0.00814664 0.00814526 0.00814323 0.00814408 0.00814266 0.00814201 0.00814373 0.00814342 0.00814209 0.00814271 0.00814201 0.00814143 0.00814248 0.00814237 0.00814163 0.00814196 0.00814167 0.00814098 0.00814203 0.00814187 0.00814129 0.00814142 0.0081415 0.00814081 0.0081417 0.0081415 0.0081409 0.00814112 0.00814101 0.00814055 0.00814128 0.00814106 0.00814074 0.00814081 0.00814092 0.00814035 0.00814098 0.0081408 0.0081405 0.00814061 0.0081408 0.00814016 0.00814086 0.00814065 0.00814036 0.0081405 0.00814047 0.00813999 0.00814065 0.00814052 0.00814011 0.00814024 0.00814018 0.00813973 0.00814047 0.00814019 0.00813999 0.00814022 0.00813998 0.0081395 0.00814019 0.00813998 0.00813983 0.00813975 0.00813983 0.00813955 0.00813986 0.00813984 0.00813975 0.00813989 0.00813984 0.00813934 0.00813969 0.00813974 0.00813952 0.00813958 0.00813934 0.00813911 0.00813941 0.0081394 0.00813957 0.0081395 0.00813912 0.00813906 0.00813934 0.00813942 0.00813937 0.00813911 0.00813891 0.00813869 0.00813918 0.0081393 0.00813918 0.0081391 0.00813906 0.0081387 0.00813921 0.00813914 0.0081389 0.00813918 0.0081389 0.00813864 0.00813892 0.00813879 0.00813896 0.0081388 0.00813885 0.00813861 0.00813878 0.00813892 0.00813855 0.00813863 0.00813867 0.0081386 0.00813875 0.00813871 0.00813862 0.00813839 0.00813847 0.00813868 0.00813856 0.00813865 0.00813844 0.00813856 0.0081383 0.00813867 0.00813831 0.0081385 0.00813851 0.00813843 0.00813837 0.00813836 0.00813825 0.00813836 0.00813844 0.00813836 0.00813823 0.00813828 0.00813813 0.00813866 0.00813825 0.00813828 0.00813828 0.00813821 0.00813826 0.0081383 0.0081381 0.00813838 0.00813806 0.00813818 0.00813801 0.00813799 0.0081383 0.00813819 0.00813837 0.00813778 0.00813825 0.00813823 0.00813818 0.00813816 0.00813797 0.00813815 0.00813781 0.00813812 0.00813795 0.00813776 0.00813801 0.00813783 0.00813816 0.00813828 0.00813786 0.00813794 0.00813785 0.00813834 0.00813803 0.00813813 0.00813793 0.00813806 0.00813803 0.00813808 0.00813794 0.00813781 0.00813804 0.00813813 0.00814911 0.00814771 0.00815987 0.0081529 0.0081485 0.00815012 0.00814432 0.00814454 0.00814464 0.00814738 0.00814477 0.00814571 0.00814417 0.0081435 0.00814375 0.00814479 0.00814361 0.00814405 0.00814368 0.00814292 0.00814371 0.00814385 0.00814296 0.00814307 0.0081432 0.00814249 0.00814326 0.00814321 0.00814231 0.00814283 0.00814275 0.00814219 0.00814316 0.0081426 0.00814224 0.00814249 0.00814249 0.00814173 0.00814239 0.00814233 0.00814185 0.00814214 0.00814208 0.00814144 0.00814231 0.00814188 0.00814155 0.00814172 0.00814168 0.0081411 0.0081419 0.00814154 0.00814138 0.0081414 0.0081417 0.0081408 0.00814139 0.00814146 0.00814083 0.00814113 0.0081412 0.00814068 0.00814119 0.00814101 0.00814053 0.0081409 0.00814075 0.00814043 0.00814104 0.00814068 0.00814058 0.00814065 0.00814057 0.00814005 0.00814061 0.00814047 0.00814047 0.0081404 0.00814034 0.00813994 0.00814025 0.00814013 0.00814004 0.0081399 0.00814003 0.00813959 0.00814031 0.0081401 0.00813978 0.00813997 0.00813983 0.00813979 0.00813984 0.00813986 0.00813967 0.0081398 0.00813971 0.0081394 0.00813959 0.00813965 0.00813943 0.00813959 0.0081396 0.00813934 0.00813907 0.00813941 0.00813934 0.00813944 0.00813902 0.00813891 0.0081392 0.00813939 0.00813915 0.0081391 0.0081391 0.0081388 0.00813882 0.00813915 0.00813896 0.00813896 0.00813901 0.00813896 0.00813917 0.00813904 0.00813861 0.00813874 0.00813894 0.00813878 0.00813876 0.00813845 0.00813873 0.00813869 0.00813857 0.00813857 0.0081388 0.00813853 0.00813855 0.0081384 0.00813845 0.00813839 0.00813823 0.00813864 0.00813837 0.00813851 0.00813853 0.00813839 0.00813847 0.00813835 0.00813841 0.00813837 0.0081384 0.00813806 0.0081383 0.00813857 0.00813832 0.00813818 0.00813829 0.00813828 0.00813814 0.00813822 0.00813824 0.00813823 0.00813808 0.00813813 0.00813809 0.00813815 0.00813822 0.00813795 0.00813767 0.00813787 0.00813812 0.00813825 0.0081382 0.00813802 0.00813824 0.00813809 0.00813805 0.00813832 0.00813784 0.00813787 0.00813811 0.00813828 0.0081381 0.00813808 0.008138 0.00813774 0.00813775 0.00813809 0.00813812 0.0081381 0.00813793 0.00813786 0.00813092 0.00812608 0.00812356 0.00811868 0.00812841 0.00812478 0.00813227 0.00813122 0.00813026 0.008128 0.00813077 0.00812929 0.00813268 0.00813159 0.00813265 0.00813046 0.00813167 0.00813123 0.008133 0.00813199 0.00813319 0.00813156 0.00813194 0.00813206 0.00813332 0.00813247 0.00813326 0.00813263 0.0081324 0.00813275 0.00813352 0.00813318 0.00813355 0.00813315 0.00813326 0.0081334 0.00813395 0.00813327 0.00813393 0.00813346 0.00813372 0.00813365 0.00813423 0.00813385 0.0081344 0.0081342 0.00813401 0.00813407 0.00813465 0.00813414 0.0081346 0.00813441 0.00813434 0.00813465 0.00813479 0.00813438 0.00813512 0.00813467 0.00813474 0.0081349 0.00813525 0.00813487 0.0081352 0.00813504 0.00813483 0.00813508 0.00813547 0.00813526 0.00813541 0.00813541 0.00813556 0.00813533 0.00813577 0.00813533 0.0081358 0.00813544 0.00813535 0.00813587 0.00813599 0.00813576 0.00813604 0.00813589 0.00813578 0.00813585 0.00813582 0.00813613 0.00813629 0.0081362 0.00813601 0.00813611 0.00813619 0.00813628 0.00813655 0.00813644 0.0081363 0.00813626 0.00813674 0.00813632 0.0081365 0.00813672 0.00813658 0.00813638 0.00813648 0.00813676 0.0081367 0.00813695 0.0081368 0.00813656 0.00813707 0.00813679 0.00813703 0.00813707 0.0081369 0.0081368 0.00813705 0.00813676 0.00813712 0.00813699 0.00813712 0.00813731 0.00813747 0.00813734 0.00813738 0.00813733 0.00813701 0.00813742 0.00813738 0.00813732 0.00813734 0.00813715 0.00813708 0.00813703 0.00813747 0.0081376 0.00813736 0.00813771 0.00813767 0.0081375 0.00813748 0.00813796 0.00813767 0.00813773 0.00813754 0.00813762 0.00813752 0.00813766 0.00813783 0.00813753 0.00813771 0.00813753 0.0081377 0.00813765 0.00813803 0.00813807 0.00813792 0.00813779 0.00813802 0.00813748 0.00813784 0.00813785 0.00813776 0.00813782 0.00813774 0.00813802 0.00813796 0.008138 0.00813813 0.00813777 0.008138 0.00813795 0.00813806 0.00813796 0.00813824 0.00813808 0.00813804 0.00813795 0.00813781 0.00813783 0.00813809 0.00813801 0.00813813 0.0081379 0.00813772 0.00813776 0.00813788 0.0081381 0.00813799 0.00813784 0.00813827 0.0081381 0.00813848 0.0081383 0.00813377 0.00813161 0.00812782 0.00812703 0.00812691 0.00812803 0.00813397 0.00813311 0.00813051 0.00813006 0.00813134 0.00813125 0.0081341 0.00813341 0.00813309 0.00813218 0.0081328 0.00813274 0.00813446 0.00813367 0.00813424 0.00813332 0.00813344 0.00813368 0.0081345 0.0081339 0.00813484 0.00813404 0.00813415 0.00813428 0.00813492 0.00813419 0.00813525 0.00813458 0.00813442 0.00813476 0.00813504 0.00813457 0.00813528 0.00813504 0.0081347 0.00813502 0.00813543 0.00813488 0.00813539 0.00813513 0.00813505 0.00813531 0.00813554 0.00813491 0.00813579 0.00813543 0.00813534 0.00813548 0.00813572 0.00813546 0.00813598 0.00813579 0.00813556 0.0081357 0.00813586 0.00813541 0.0081361 0.00813591 0.00813604 0.00813599 0.00813619 0.00813584 0.00813625 0.00813614 0.00813609 0.00813612 0.00813636 0.00813602 0.00813639 0.0081363 0.00813625 0.00813651 0.00813626 0.00813607 0.0081368 0.00813631 0.00813631 0.00813653 0.00813673 0.00813649 0.00813682 0.00813678 0.00813632 0.00813668 0.00813678 0.00813675 0.00813698 0.00813673 0.00813661 0.00813685 0.00813701 0.00813699 0.00813706 0.00813695 0.00813734 0.00813714 0.00813708 0.00813698 0.00813728 0.00813684 0.00813713 0.00813717 0.00813715 0.00813711 0.00813732 0.00813723 0.00813717 0.0081372 0.00813759 0.00813721 0.00813736 0.00813732 0.00813723 0.00813739 0.00813744 0.00813727 0.00813767 0.00813749 0.00813766 0.00813739 0.00813763 0.00813728 0.00813776 0.00813768 0.00813757 0.00813761 0.00813775 0.00813757 0.00813781 0.00813755 0.00813772 0.00813773 0.00813786 0.00813762 0.00813773 0.00813786 0.0081377 0.00813775 0.00813797 0.00813776 0.00813777 0.00813741 0.00813771 0.00813779 0.00813775 0.00813777 0.00813798 0.00813782 0.00813787 0.00813773 0.00813805 0.00813766 0.00813774 0.00813796 0.00813796 0.00813777 0.00813789 0.00813801 0.00813795 0.00813792 0.00813796 0.0081378 0.00813789 0.00813801 0.00813802 0.00813772 0.00813791 0.00813778 0.00813807 0.00813777 0.00813792 0.00813799 0.00813839 0.00813817 0.00813778 0.0081379 0.00813792 0.00813815 0.00813812 0.00813811 0.00813815 0.0081381 0.00813804 0.00813799 0.00813809 0.00813816 0.00813637 0.00813439 0.00813229 0.0081316 0.00813043 0.00813189 0.00813646 0.00813521 0.00813367 0.00813305 0.00813291 0.00813357 0.00813596 0.00813509 0.00813504 0.00813442 0.00813435 0.00813481 0.00813582 0.00813511 0.00813579 0.00813529 0.00813513 0.00813541 0.00813612 0.00813536 0.00813623 0.00813572 0.00813551 0.00813554 0.00813614 0.00813564 0.00813643 0.00813606 0.00813575 0.00813604 0.00813605 0.00813571 0.00813657 0.00813608 0.00813615 0.00813624 0.00813648 0.00813573 0.00813663 0.00813643 0.00813632 0.00813625 0.00813658 0.00813596 0.00813674 0.0081366 0.00813633 0.00813649 0.00813667 0.00813632 0.00813695 0.00813675 0.00813641 0.00813649 0.00813675 0.00813635 0.00813696 0.00813701 0.00813666 0.00813697 0.00813685 0.00813641 0.00813708 0.0081367 0.00813689 0.00813697 0.00813699 0.00813663 0.00813703 0.00813705 0.00813687 0.00813706 0.00813709 0.00813688 0.00813742 0.00813714 0.00813693 0.00813709 0.00813733 0.00813686 0.00813749 0.00813723 0.00813708 0.00813734 0.00813714 0.00813712 0.00813753 0.00813733 0.00813732 0.00813743 0.00813747 0.00813711 0.00813758 0.0081373 0.0081373 0.0081375 0.00813739 0.00813733 0.00813744 0.00813732 0.00813731 0.00813736 0.00813747 0.0081373 0.00813762 0.00813733 0.00813763 0.00813767 0.00813765 0.00813749 0.00813766 0.00813767 0.00813771 0.0081375 0.00813778 0.00813758 0.00813772 0.00813776 0.00813773 0.00813754 0.00813764 0.00813777 0.00813789 0.00813789 0.00813767 0.00813781 0.00813791 0.00813773 0.00813789 0.00813768 0.00813784 0.00813775 0.00813791 0.00813751 0.00813776 0.00813786 0.00813795 0.00813778 0.008138 0.00813781 0.0081378 0.00813792 0.00813779 0.00813792 0.00813805 0.00813778 0.00813826 0.00813782 0.00813771 0.00813784 0.00813798 0.00813792 0.00813806 0.00813802 0.00813791 0.00813794 0.00813772 0.00813806 0.00813837 0.00813806 0.008138 0.00813803 0.00813799 0.00813801 0.00813812 0.00813803 0.00813773 0.00813801 0.008138 0.00813797 0.00813804 0.00813801 0.008138 0.00813789 0.00813805 0.00813811 0.0081382 0.00813799 0.00813795 0.008138 0.00813793 0.00813795 0.00813785 0.00813804 0.00813819 0.00813848 0.00813926 0.00813734 0.0081368 0.00813589 0.00813422 0.00813545 0.00813886 0.00813744 0.00813713 0.00813627 0.00813534 0.00813616 0.00813798 0.00813705 0.00813736 0.00813665 0.00813619 0.00813686 0.00813759 0.00813685 0.0081377 0.00813703 0.00813684 0.00813711 0.00813741 0.00813681 0.0081377 0.00813739 0.00813705 0.00813724 0.00813739 0.00813691 0.0081378 0.00813758 0.00813718 0.0081374 0.0081375 0.00813697 0.00813762 0.00813751 0.00813717 0.00813744 0.00813756 0.00813694 0.00813798 0.00813758 0.00813716 0.0081376 0.0081376 0.00813716 0.00813779 0.00813748 0.00813754 0.00813762 0.00813773 0.0081371 0.00813777 0.00813753 0.00813734 0.00813746 0.00813754 0.00813719 0.00813788 0.00813769 0.0081375 0.00813754 0.00813759 0.00813729 0.00813773 0.00813749 0.00813784 0.00813778 0.00813769 0.00813725 0.00813806 0.00813784 0.00813771 0.00813759 0.00813745 0.00813736 0.00813787 0.00813795 0.00813763 0.00813775 0.00813757 0.00813742 0.00813802 0.00813804 0.00813776 0.00813797 0.00813783 0.00813752 0.00813781 0.00813781 0.00813763 0.0081378 0.00813788 0.00813757 0.00813783 0.00813774 0.00813768 0.00813789 0.0081378 0.00813766 0.00813808 0.00813771 0.0081381 0.00813765 0.00813796 0.00813767 0.00813803 0.00813809 0.00813794 0.00813762 0.00813806 0.00813758 0.00813805 0.00813815 0.00813821 0.00813801 0.00813772 0.00813785 0.00813795 0.00813808 0.0081381 0.00813785 0.00813806 0.00813784 0.00813796 0.00813794 0.00813793 0.00813797 0.00813775 0.00813788 0.00813805 0.00813788 0.00813807 0.00813791 0.0081379 0.00813788 0.00813796 0.00813805 0.00813795 0.00813791 0.00813786 0.00813753 0.00813802 0.00813799 0.00813812 0.00813781 0.0081379 0.00813798 0.00813789 0.00813824 0.00813807 0.0081378 0.00813806 0.00813776 0.00813783 0.00813819 0.00813808 0.00813819 0.00813778 0.00813825 0.00813803 0.00813806 0.00813803 0.00813793 0.00813795 0.00813802 0.00813819 0.00813836 0.00813773 0.00813794 0.00813812 0.00813773 0.00813794 0.00813781 0.00813797 0.00813797 0.00813812 0.00813787 0.00813815 0.00813846 0.00813801 0.00813801 0.00813803 0.0081378 0.00813818 0.0081383 0.0081381 0.00813793 0.00814215 0.00814052 0.00814127 0.00813987 0.00813816 0.00813935 0.0081408 0.00813968 0.00814074 0.00813955 0.00813827 0.00813899 0.00814 0.0081389 0.00814009 0.00813926 0.00813848 0.00813885 0.00813926 0.00813845 0.00813956 0.0081388 0.00813837 0.00813888 0.00813902 0.00813801 0.00813938 0.00813886 0.00813829 0.00813888 0.00813876 0.00813813 0.00813902 0.00813873 0.00813843 0.0081389 0.00813859 0.00813815 0.00813898 0.00813869 0.00813864 0.00813856 0.00813857 0.00813827 0.00813882 0.00813856 0.0081383 0.0081386 0.00813867 0.00813793 0.00813889 0.00813848 0.0081385 0.00813845 0.00813823 0.008138 0.00813865 0.00813862 0.00813846 0.0081384 0.00813831 0.0081382 0.00813889 0.00813868 0.00813843 0.00813848 0.00813837 0.00813808 0.00813865 0.00813851 0.00813839 0.00813835 0.00813844 0.00813801 0.00813858 0.00813851 0.00813827 0.00813864 0.00813819 0.00813793 0.00813838 0.00813824 0.00813823 0.00813839 0.00813814 0.00813828 0.00813864 0.00813856 0.00813816 0.00813823 0.0081382 0.00813802 0.00813864 0.00813833 0.00813839 0.00813822 0.00813828 0.00813807 0.00813843 0.00813842 0.00813823 0.00813794 0.00813816 0.00813794 0.00813847 0.00813841 0.00813807 0.00813838 0.00813798 0.00813823 0.00813857 0.0081383 0.00813798 0.00813833 0.00813795 0.00813799 0.00813839 0.0081383 0.00813842 0.00813828 0.008138 0.00813804 0.00813809 0.00813846 0.00813838 0.00813823 0.00813797 0.00813815 0.00813814 0.00813824 0.00813815 0.00813836 0.00813811 0.00813812 0.00813819 0.00813805 0.00813825 0.00813821 0.008138 0.00813777 0.00813818 0.00813797 0.00813804 0.00813824 0.00813808 0.00813828 0.00813798 0.008138 0.00813801 0.00813803 0.0081381 0.00813815 0.0081383 0.00813804 0.00813821 0.00813792 0.00813797 0.00813786 0.00813795 0.00813818 0.00813806 0.00813787 0.00813815 0.00813808 0.00813816 0.00813815 0.00813812 0.00813806 0.00813786 0.00813824 0.00813819 0.00813832 0.00813795 0.00813766 0.00813794 0.0081381 0.00813811 0.00813808 0.00813806 0.008138 0.00813803 0.00813792 0.00813804 0.00813814 0.00813823 0.00813803 0.00813816 0.00813817 0.00813791 0.00813785 0.00813806 0.00813775 0.00814487 0.00814337 0.00814616 0.00814406 0.00814194 0.00814289 0.00814271 0.00814172 0.0081444 0.0081426 0.00814096 0.00814193 0.00814143 0.00814069 0.00814238 0.00814155 0.00814056 0.00814117 0.00814081 0.00814018 0.00814132 0.00814094 0.00813995 0.00814049 0.0081403 0.00813952 0.00814083 0.00814041 0.00813991 0.0081402 0.00814022 0.00813932 0.00814038 0.00814018 0.00813969 0.00814006 0.00813993 0.00813934 0.00814028 0.00813993 0.00813964 0.00813972 0.00813975 0.00813926 0.00814003 0.00813986 0.00813944 0.00813971 0.00813966 0.00813912 0.00813989 0.00813943 0.00813941 0.00813957 0.00813945 0.0081391 0.00813975 0.00813957 0.0081392 0.00813954 0.00813949 0.00813908 0.00813941 0.00813931 0.00813919 0.00813914 0.00813923 0.00813898 0.00813932 0.00813942 0.00813908 0.0081391 0.00813912 0.00813877 0.00813917 0.00813919 0.00813909 0.00813932 0.00813931 0.00813866 0.00813912 0.00813889 0.00813895 0.00813911 0.00813887 0.0081386 0.00813914 0.00813902 0.00813865 0.00813897 0.00813869 0.0081386 0.00813908 0.00813868 0.00813846 0.00813895 0.00813888 0.00813841 0.00813881 0.00813867 0.00813868 0.00813878 0.00813871 0.0081384 0.00813875 0.0081387 0.00813851 0.00813842 0.00813857 0.00813824 0.00813844 0.00813847 0.00813842 0.00813857 0.00813834 0.0081383 0.00813839 0.00813875 0.00813852 0.00813843 0.00813845 0.00813818 0.00813835 0.00813865 0.00813836 0.00813839 0.00813802 0.00813835 0.00813847 0.00813837 0.00813819 0.00813855 0.00813829 0.00813802 0.00813838 0.00813839 0.00813828 0.00813837 0.00813804 0.00813799 0.00813822 0.00813823 0.00813833 0.00813807 0.00813816 0.00813794 0.00813815 0.00813861 0.00813822 0.00813824 0.00813824 0.00813824 0.00813813 0.00813807 0.00813811 0.00813778 0.00813792 0.00813815 0.00813806 0.00813811 0.00813815 0.00813797 0.00813805 0.00813809 0.00813825 0.00813821 0.00813816 0.0081383 0.00813784 0.00813822 0.00813816 0.00813807 0.00813778 0.00813784 0.00813801 0.00813811 0.00813807 0.00813829 0.00813826 0.00813818 0.00813803 0.00813811 0.00813769 0.00813821 0.00813824 0.00813783 0.00813796 0.00813796 0.00813787 0.0081382 0.00813807 0.00813804 0.00814762 0.00814617 0.00815164 0.00814837 0.0081457 0.00814687 0.00814404 0.00814355 0.00814687 0.00814558 0.0081434 0.00814442 0.00814296 0.00814222 0.00814393 0.00814387 0.00814231 0.00814312 0.00814216 0.00814165 0.00814259 0.00814255 0.00814176 0.00814225 0.0081418 0.0081411 0.00814205 0.00814203 0.00814121 0.00814159 0.00814144 0.00814081 0.00814171 0.00814167 0.00814097 0.00814131 0.00814108 0.00814064 0.00814153 0.00814126 0.00814074 0.00814097 0.00814082 0.00814014 0.00814105 0.00814085 0.00814046 0.00814076 0.00814062 0.00814019 0.0081409 0.00814077 0.00814038 0.00814061 0.00814035 0.00813995 0.00814072 0.00814039 0.00814013 0.0081403 0.00814013 0.00813968 0.00814052 0.00814019 0.00814002 0.00814001 0.00813992 0.00813963 0.00814028 0.00814 0.00813988 0.00813995 0.00813977 0.00813943 0.00814001 0.00813977 0.00813976 0.00813983 0.00813965 0.00813912 0.00813976 0.00813983 0.00813946 0.00813941 0.00813957 0.00813918 0.00813976 0.00813959 0.00813924 0.00813928 0.00813944 0.00813919 0.00813924 0.00813935 0.00813929 0.00813941 0.00813891 0.00813907 0.00813914 0.00813919 0.00813923 0.00813892 0.00813899 0.00813873 0.00813917 0.0081391 0.00813896 0.008139 0.00813878 0.00813866 0.00813892 0.00813893 0.00813896 0.00813884 0.0081387 0.00813856 0.00813879 0.00813886 0.00813873 0.00813871 0.00813859 0.00813852 0.00813892 0.00813867 0.00813868 0.00813862 0.00813838 0.0081385 0.0081386 0.00813872 0.00813843 0.00813876 0.0081382 0.0081383 0.00813862 0.00813859 0.0081383 0.00813865 0.00813837 0.00813822 0.00813826 0.00813856 0.00813822 0.00813816 0.00813825 0.00813833 0.00813844 0.00813838 0.00813846 0.00813799 0.00813811 0.00813834 0.00813826 0.00813817 0.00813815 0.00813809 0.00813792 0.00813818 0.00813807 0.00813837 0.00813812 0.00813843 0.00813828 0.0081382 0.00813808 0.00813791 0.00813799 0.00813811 0.00813819 0.00813814 0.00813797 0.00813837 0.00813778 0.00813814 0.00813764 0.00813796 0.00813812 0.00813815 0.00813794 0.00813808 0.00813799 0.0081381 0.00813795 0.00813769 0.00813823 0.00813803 0.008138 0.00813778 0.00813798 0.00813801 0.00813823 0.00813792 0.00814951 0.00814816 0.00816061 0.0081535 0.00814862 0.00815048 0.00814482 0.00814477 0.00814484 0.00814763 0.00814501 0.00814618 0.00814412 0.00814344 0.00814402 0.00814507 0.00814392 0.0081445 0.00814377 0.00814302 0.00814392 0.00814395 0.00814295 0.00814344 0.0081434 0.00814252 0.00814335 0.00814312 0.00814257 0.00814294 0.00814284 0.00814187 0.00814327 0.0081427 0.00814233 0.00814246 0.00814273 0.00814185 0.00814257 0.00814239 0.00814181 0.00814203 0.00814213 0.00814144 0.00814226 0.00814191 0.0081417 0.00814182 0.00814192 0.00814119 0.00814187 0.00814167 0.00814117 0.00814146 0.00814155 0.00814088 0.00814158 0.00814148 0.00814093 0.00814098 0.00814126 0.00814078 0.00814124 0.0081413 0.00814084 0.00814082 0.00814073 0.00814043 0.00814093 0.00814092 0.00814054 0.00814067 0.00814084 0.00814024 0.00814053 0.00814062 0.00814017 0.00814031 0.00814044 0.00813981 0.00814046 0.00814029 0.00813994 0.00814031 0.00813998 0.00813981 0.00814015 0.00814012 0.00813997 0.00813987 0.00813965 0.00813956 0.00813946 0.00813978 0.00813995 0.00813963 0.00813978 0.00813936 0.00813949 0.00813976 0.00813954 0.00813944 0.00813953 0.00813932 0.0081393 0.00813965 0.00813914 0.0081393 0.0081394 0.00813907 0.0081391 0.00813913 0.00813915 0.00813919 0.00813891 0.00813897 0.00813928 0.00813902 0.00813896 0.00813902 0.00813871 0.00813874 0.00813891 0.00813888 0.00813885 0.00813897 0.00813865 0.00813858 0.00813878 0.00813879 0.00813861 0.00813869 0.00813837 0.00813852 0.00813842 0.00813858 0.00813854 0.00813869 0.00813833 0.00813838 0.00813821 0.00813852 0.00813831 0.00813823 0.0081382 0.00813826 0.00813828 0.00813832 0.00813839 0.0081386 0.00813821 0.00813841 0.00813845 0.00813842 0.00813801 0.00813814 0.00813818 0.0081379 0.00813826 0.00813812 0.00813821 0.00813829 0.00813806 0.00813808 0.00813794 0.00813819 0.00813813 0.00813834 0.00813807 0.00813769 0.00813826 0.00813785 0.00813809 0.00813786 0.00813808 0.00813831 0.0081378 0.00813813 0.00813792 0.00813795 0.00813803 0.00813807 0.00813794 0.0081381 0.00813794 0.00813797 0.00813759 0.00813801 0.00813802 0.00813806 0.00813812 0.0081379 0.00813093 0.00812604 0.00812357 0.00811883 0.00812829 0.00812513 0.00813214 0.00813132 0.00813037 0.00812793 0.00813066 0.00812937 0.00813292 0.00813182 0.0081327 0.00813041 0.00813152 0.00813101 0.00813298 0.00813214 0.00813314 0.00813184 0.00813209 0.00813215 0.00813317 0.00813262 0.00813335 0.00813264 0.00813245 0.00813288 0.00813354 0.00813317 0.00813374 0.00813318 0.00813305 0.00813347 0.00813398 0.00813349 0.00813414 0.00813368 0.0081336 0.0081338 0.00813423 0.00813378 0.00813439 0.00813409 0.00813389 0.00813422 0.00813466 0.008134 0.00813479 0.00813434 0.00813424 0.00813458 0.00813489 0.00813464 0.00813509 0.00813468 0.00813481 0.00813492 0.00813534 0.00813498 0.0081352 0.0081351 0.00813477 0.00813498 0.00813539 0.0081353 0.00813569 0.00813555 0.00813529 0.00813536 0.00813566 0.00813524 0.00813569 0.00813552 0.00813575 0.00813579 0.0081359 0.0081357 0.00813609 0.00813577 0.00813554 0.00813573 0.00813621 0.00813578 0.00813624 0.00813588 0.00813618 0.0081362 0.00813643 0.00813643 0.00813644 0.00813632 0.00813624 0.00813636 0.00813653 0.00813645 0.00813679 0.00813659 0.00813675 0.00813626 0.00813686 0.00813674 0.00813672 0.00813657 0.00813687 0.00813697 0.00813705 0.00813679 0.00813685 0.00813679 0.00813684 0.00813712 0.00813717 0.00813718 0.00813712 0.00813693 0.00813707 0.00813706 0.00813708 0.00813735 0.00813742 0.0081374 0.00813719 0.00813704 0.00813736 0.00813742 0.00813752 0.00813751 0.00813744 0.00813738 0.00813785 0.00813755 0.00813744 0.00813765 0.00813758 0.00813723 0.00813768 0.0081378 0.00813747 0.00813751 0.00813771 0.00813772 0.00813775 0.00813778 0.00813768 0.00813765 0.00813758 0.0081379 0.0081379 0.00813784 0.0081384 0.0081376 0.00813773 0.00813743 0.0081379 0.00813759 0.00813797 0.00813783 0.00813804 0.00813776 0.00813791 0.0081378 0.00813801 0.00813835 0.00813793 0.0081378 0.00813796 0.00813824 0.0081379 0.00813791 0.00813803 0.00813778 0.00813798 0.00813827 0.00813783 0.00813811 0.00813785 0.00813805 0.00813802 0.00813816 0.00813827 0.0081375 0.00813832 0.00813805 0.0081381 0.00813798 0.00813797 0.0081381 0.0081385 0.00813824 0.00813373 0.00813164 0.00812803 0.00812715 0.00812716 0.008128 0.00813403 0.00813335 0.00813037 0.00813014 0.00813127 0.00813129 0.00813427 0.00813351 0.0081329 0.00813223 0.00813279 0.00813285 0.00813448 0.00813382 0.00813421 0.00813335 0.00813343 0.00813366 0.00813464 0.00813414 0.00813472 0.00813406 0.00813396 0.00813417 0.0081349 0.00813424 0.00813522 0.0081345 0.00813436 0.00813466 0.00813508 0.0081345 0.00813537 0.00813502 0.00813484 0.00813515 0.00813523 0.00813485 0.0081355 0.00813516 0.00813508 0.00813537 0.00813576 0.00813515 0.00813583 0.00813537 0.00813524 0.00813539 0.00813564 0.00813543 0.00813607 0.00813587 0.00813555 0.00813572 0.00813609 0.00813555 0.00813611 0.00813597 0.00813583 0.0081359 0.00813608 0.00813594 0.00813631 0.00813615 0.00813623 0.00813623 0.00813643 0.00813577 0.00813638 0.0081363 0.00813625 0.00813639 0.00813652 0.00813644 0.00813673 0.00813655 0.0081366 0.00813653 0.00813677 0.00813646 0.00813682 0.00813676 0.00813683 0.00813671 0.00813676 0.00813662 0.00813699 0.00813683 0.0081367 0.00813678 0.0081368 0.00813687 0.00813698 0.0081371 0.00813702 0.00813712 0.00813711 0.00813703 0.00813723 0.00813709 0.00813708 0.00813735 0.00813698 0.00813694 0.00813738 0.00813707 0.00813731 0.00813725 0.00813737 0.00813727 0.00813757 0.00813738 0.00813756 0.00813739 0.00813751 0.00813719 0.0081375 0.00813736 0.00813746 0.00813733 0.00813775 0.00813747 0.00813739 0.00813778 0.00813742 0.00813753 0.00813768 0.00813747 0.00813783 0.00813781 0.00813784 0.0081377 0.00813799 0.0081375 0.00813772 0.00813763 0.00813764 0.0081377 0.00813782 0.00813781 0.0081378 0.00813759 0.00813785 0.00813794 0.00813795 0.00813781 0.00813779 0.00813787 0.00813783 0.00813781 0.00813814 0.00813799 0.00813781 0.00813801 0.00813776 0.00813795 0.00813806 0.00813773 0.00813812 0.00813775 0.00813821 0.00813798 0.00813791 0.00813795 0.00813781 0.00813816 0.00813821 0.00813804 0.00813789 0.0081382 0.00813828 0.00813797 0.00813813 0.00813787 0.00813819 0.00813819 0.00813804 0.00813805 0.00813807 0.00813818 0.00813803 0.00813777 0.00813806 0.00813795 0.00813795 0.00813809 0.00813655 0.00813442 0.0081325 0.00813182 0.00813036 0.00813196 0.00813651 0.00813529 0.00813365 0.00813298 0.00813297 0.00813351 0.00813612 0.00813517 0.00813499 0.00813451 0.00813422 0.00813474 0.00813596 0.00813529 0.00813576 0.00813543 0.00813504 0.00813532 0.00813601 0.00813532 0.00813612 0.00813589 0.00813558 0.00813568 0.00813607 0.00813541 0.00813645 0.00813604 0.00813572 0.00813621 0.00813632 0.00813574 0.00813664 0.00813619 0.00813591 0.00813626 0.0081365 0.00813591 0.00813666 0.0081364 0.00813621 0.00813641 0.00813649 0.00813622 0.00813684 0.00813652 0.00813638 0.00813644 0.00813665 0.0081364 0.00813686 0.00813651 0.00813647 0.00813668 0.0081369 0.00813633 0.00813703 0.00813687 0.00813684 0.00813685 0.00813693 0.00813652 0.00813721 0.008137 0.00813683 0.00813697 0.00813708 0.00813676 0.00813714 0.00813705 0.00813708 0.00813697 0.00813714 0.00813677 0.00813735 0.00813707 0.00813705 0.00813698 0.00813721 0.00813702 0.00813734 0.00813747 0.00813712 0.00813721 0.00813729 0.0081371 0.00813752 0.00813715 0.00813718 0.00813736 0.0081373 0.00813723 0.00813766 0.00813735 0.00813745 0.00813763 0.00813742 0.00813738 0.00813783 0.00813734 0.00813741 0.00813742 0.00813741 0.00813751 0.00813792 0.00813764 0.00813749 0.00813769 0.00813743 0.00813765 0.00813768 0.00813759 0.00813753 0.00813749 0.00813758 0.00813756 0.00813811 0.0081379 0.00813758 0.00813753 0.00813765 0.00813737 0.00813809 0.00813772 0.00813792 0.00813791 0.00813782 0.00813763 0.00813789 0.00813776 0.00813785 0.00813795 0.00813794 0.00813767 0.00813779 0.00813773 0.00813807 0.00813763 0.00813793 0.00813759 0.00813789 0.00813793 0.00813796 0.00813794 0.00813785 0.0081378 0.00813792 0.00813823 0.00813794 0.00813779 0.00813771 0.00813764 0.00813822 0.00813824 0.00813803 0.00813786 0.00813797 0.00813788 0.00813804 0.00813813 0.00813803 0.00813811 0.00813769 0.00813779 0.00813818 0.00813807 0.0081381 0.008138 0.00813832 0.0081382 0.0081382 0.0081381 0.0081377 0.00813799 0.00813787 0.00813799 0.00813817 0.00813823 0.00813794 0.00813824 0.00813789 0.00813809 0.00813842 0.00813804 0.00813795 0.00813812 0.0081393 0.00813734 0.00813691 0.00813595 0.00813428 0.00813576 0.00813902 0.00813759 0.00813704 0.00813633 0.0081352 0.00813639 0.00813813 0.00813729 0.00813753 0.00813686 0.00813633 0.00813678 0.00813747 0.00813675 0.00813772 0.00813718 0.00813674 0.00813713 0.00813749 0.0081368 0.00813772 0.00813747 0.00813704 0.00813727 0.00813745 0.00813686 0.00813783 0.00813741 0.0081372 0.00813746 0.00813739 0.00813687 0.00813775 0.0081376 0.00813721 0.00813743 0.00813753 0.00813694 0.00813785 0.00813762 0.00813736 0.00813751 0.00813771 0.00813717 0.00813783 0.00813766 0.00813738 0.00813753 0.00813743 0.00813721 0.00813786 0.00813766 0.0081374 0.00813768 0.00813781 0.00813716 0.0081379 0.00813767 0.00813765 0.00813772 0.00813768 0.00813726 0.00813793 0.00813786 0.00813742 0.00813773 0.00813765 0.00813721 0.008138 0.00813767 0.00813742 0.00813784 0.00813793 0.00813751 0.00813797 0.0081376 0.00813768 0.00813757 0.00813772 0.0081374 0.0081381 0.00813788 0.00813768 0.00813766 0.00813764 0.00813771 0.00813808 0.00813779 0.00813783 0.00813776 0.00813777 0.00813752 0.00813796 0.00813793 0.00813783 0.00813803 0.00813777 0.00813769 0.00813812 0.00813803 0.00813765 0.00813795 0.0081376 0.0081378 0.00813785 0.0081377 0.00813775 0.00813777 0.00813808 0.00813777 0.00813797 0.00813818 0.0081381 0.00813785 0.00813784 0.00813774 0.00813809 0.00813825 0.00813766 0.00813772 0.00813786 0.00813797 0.00813805 0.00813821 0.00813788 0.00813788 0.00813785 0.00813798 0.00813822 0.00813818 0.00813777 0.00813798 0.00813794 0.00813799 0.00813815 0.00813793 0.00813837 0.00813823 0.00813811 0.00813771 0.00813803 0.00813827 0.00813789 0.00813767 0.00813795 0.00813786 0.008138 0.00813807 0.00813793 0.00813812 0.00813794 0.00813797 0.00813804 0.00813803 0.00813791 0.00813794 0.0081381 0.00813794 0.00813805 0.0081378 0.00813805 0.0081379 0.00813787 0.00813813 0.00813795 0.0081384 0.00813777 0.00813796 0.00813801 0.00813806 0.00813813 0.0081381 0.00813808 0.00813789 0.00813842 0.00813815 0.008138 0.00813813 0.00813788 0.00813805 0.00813821 0.00813811 0.00813823 0.00813746 0.00813781 0.00813788 0.00814239 0.00814059 0.00814135 0.00814003 0.00813805 0.00813952 0.00814108 0.00813967 0.00814069 0.00813957 0.00813824 0.00813912 0.00813991 0.0081391 0.00814007 0.00813927 0.00813845 0.00813905 0.00813909 0.00813865 0.00813963 0.00813923 0.0081384 0.00813895 0.00813903 0.00813803 0.00813933 0.008139 0.00813857 0.00813872 0.00813888 0.00813816 0.0081391 0.00813889 0.00813842 0.00813862 0.00813871 0.00813805 0.00813897 0.00813874 0.00813841 0.00813869 0.00813862 0.00813803 0.00813898 0.00813864 0.00813837 0.00813878 0.00813856 0.00813812 0.0081388 0.00813858 0.00813854 0.00813858 0.00813856 0.00813809 0.00813885 0.0081385 0.00813824 0.00813858 0.00813833 0.00813798 0.00813869 0.0081384 0.00813844 0.00813855 0.00813832 0.00813805 0.00813869 0.00813845 0.00813842 0.00813851 0.00813819 0.00813815 0.00813872 0.0081386 0.00813823 0.0081382 0.00813851 0.00813826 0.00813861 0.00813849 0.00813835 0.00813849 0.0081383 0.00813817 0.00813847 0.00813838 0.00813817 0.00813821 0.00813801 0.00813822 0.00813837 0.00813863 0.00813819 0.00813837 0.00813821 0.00813828 0.00813841 0.00813847 0.0081382 0.00813829 0.00813826 0.00813801 0.00813827 0.00813838 0.00813815 0.00813807 0.00813811 0.00813806 0.00813834 0.00813854 0.00813816 0.0081384 0.0081383 0.00813805 0.00813845 0.00813827 0.00813808 0.00813799 0.00813808 0.00813823 0.0081381 0.00813841 0.00813831 0.00813819 0.00813815 0.00813803 0.00813828 0.00813796 0.00813819 0.00813818 0.00813791 0.00813813 0.00813788 0.00813817 0.00813816 0.00813814 0.00813816 0.00813816 0.00813807 0.00813831 0.00813816 0.00813819 0.00813798 0.00813785 0.00813815 0.00813821 0.00813829 0.00813817 0.008138 0.0081379 0.00813819 0.00813836 0.00813807 0.00813815 0.0081381 0.00813804 0.00813818 0.00813824 0.00813805 0.00813803 0.0081379 0.00813839 0.00813788 0.00813816 0.00813822 0.00813796 0.00813801 0.00813819 0.00813791 0.00813812 0.00813802 0.00813807 0.00813776 0.00813805 0.00813823 0.00813809 0.00813799 0.00813805 0.00813806 0.00813801 0.0081381 0.00813809 0.00813774 0.00813797 0.00813773 0.00813832 0.0081381 0.00813798 0.00813814 0.00813827 0.00814539 0.00814349 0.00814617 0.00814415 0.00814187 0.00814315 0.00814289 0.0081419 0.00814425 0.00814267 0.00814114 0.00814218 0.00814152 0.00814079 0.00814245 0.00814172 0.00814047 0.00814119 0.00814076 0.0081401 0.00814135 0.00814088 0.00814011 0.0081407 0.00814029 0.0081397 0.00814072 0.00814053 0.00814017 0.00814025 0.00814017 0.0081396 0.00814052 0.00814027 0.00813977 0.0081401 0.00813984 0.00813936 0.00814029 0.00813993 0.00813965 0.00813981 0.00813976 0.00813923 0.0081399 0.00813984 0.00813953 0.00813979 0.00813963 0.00813921 0.0081401 0.00813973 0.00813953 0.0081396 0.00813954 0.00813906 0.0081396 0.00813949 0.00813925 0.0081395 0.00813945 0.00813899 0.00813974 0.00813941 0.0081391 0.00813947 0.00813926 0.00813898 0.00813942 0.00813945 0.00813902 0.00813919 0.00813918 0.00813899 0.00813918 0.00813909 0.00813873 0.00813901 0.00813897 0.00813885 0.00813922 0.00813906 0.00813902 0.00813907 0.00813889 0.00813842 0.00813923 0.00813898 0.0081387 0.008139 0.00813873 0.00813855 0.00813913 0.00813901 0.00813862 0.00813894 0.00813893 0.00813834 0.00813904 0.00813886 0.00813876 0.00813858 0.00813869 0.00813847 0.00813865 0.00813865 0.00813848 0.00813848 0.00813859 0.00813835 0.00813864 0.00813882 0.00813859 0.0081386 0.0081385 0.0081383 0.00813851 0.0081384 0.00813851 0.0081383 0.00813838 0.00813829 0.00813856 0.0081389 0.00813818 0.00813816 0.00813817 0.00813832 0.00813828 0.00813824 0.00813827 0.00813831 0.0081383 0.00813807 0.00813841 0.00813834 0.00813837 0.00813838 0.00813827 0.00813803 0.00813831 0.00813817 0.00813839 0.00813796 0.0081382 0.00813813 0.00813804 0.00813838 0.0081383 0.00813811 0.00813817 0.00813802 0.00813818 0.00813807 0.008138 0.00813839 0.00813791 0.00813824 0.00813806 0.00813807 0.00813842 0.00813796 0.00813826 0.00813799 0.00813786 0.00813819 0.00813812 0.00813819 0.00813813 0.00813791 0.00813771 0.00813801 0.00813809 0.00813825 0.00813788 0.00813813 0.00813814 0.00813804 0.0081378 0.00813782 0.0081381 0.00813799 0.0081385 0.00813818 0.00813803 0.00813801 0.00813794 0.0081382 0.00813794 0.00813804 0.00813814 0.0081378 0.00814766 0.00814641 0.00815169 0.00814882 0.00814569 0.00814684 0.00814435 0.00814348 0.00814682 0.00814566 0.00814345 0.00814475 0.00814292 0.00814217 0.00814405 0.00814388 0.00814236 0.00814315 0.00814214 0.00814161 0.00814257 0.00814284 0.00814165 0.00814227 0.0081419 0.00814103 0.00814201 0.00814186 0.00814142 0.00814173 0.00814163 0.00814087 0.0081417 0.00814158 0.00814098 0.00814117 0.00814115 0.00814068 0.00814126 0.00814117 0.00814084 0.008141 0.00814098 0.00814041 0.00814107 0.00814101 0.00814053 0.00814078 0.00814068 0.00814021 0.00814096 0.00814057 0.00814031 0.00814045 0.00814061 0.00813982 0.00814062 0.00814054 0.00814009 0.00814051 0.00814023 0.00813999 0.00814054 0.00814042 0.00814012 0.00814016 0.00813991 0.00813973 0.00814031 0.00814004 0.00813986 0.00813985 0.00813981 0.00813951 0.00813992 0.00813999 0.00813971 0.00813974 0.00813966 0.00813925 0.00813994 0.0081398 0.00813941 0.00813957 0.0081395 0.00813921 0.00813957 0.00813951 0.00813922 0.00813958 0.00813925 0.00813917 0.00813953 0.00813931 0.00813921 0.00813942 0.00813888 0.00813896 0.00813933 0.00813938 0.00813903 0.00813904 0.00813892 0.00813894 0.00813917 0.00813926 0.00813898 0.00813893 0.008139 0.00813878 0.008139 0.00813889 0.00813897 0.0081389 0.00813878 0.00813867 0.00813877 0.00813883 0.00813873 0.0081386 0.00813857 0.00813845 0.00813887 0.00813889 0.00813868 0.00813876 0.00813858 0.00813824 0.00813855 0.0081387 0.00813839 0.00813842 0.00813842 0.00813843 0.00813865 0.00813854 0.00813845 0.00813828 0.00813833 0.00813831 0.00813831 0.00813832 0.00813846 0.00813815 0.00813828 0.0081381 0.00813828 0.00813853 0.00813831 0.00813841 0.00813812 0.00813821 0.00813815 0.00813829 0.00813839 0.00813855 0.00813795 0.008138 0.00813823 0.00813829 0.00813808 0.00813836 0.00813813 0.00813777 0.00813825 0.00813809 0.00813808 0.00813814 0.00813814 0.00813781 0.00813796 0.00813832 0.00813812 0.00813804 0.00813819 0.00813802 0.00813804 0.00813813 0.00813782 0.00813782 0.00813807 0.00813806 0.00813793 0.00813827 0.00813779 0.00813813 0.00813787 0.0081381 0.00813772 0.00813809 0.00813793 0.00813818 0.00814981 0.00814827 0.00816075 0.00815349 0.00814863 0.00815043 0.00814476 0.00814467 0.00814477 0.0081478 0.00814524 0.00814644 0.00814422 0.00814347 0.00814401 0.00814528 0.00814379 0.00814448 0.00814384 0.00814293 0.00814388 0.00814399 0.00814303 0.00814363 0.00814334 0.00814258 0.00814348 0.00814315 0.00814261 0.00814299 0.00814297 0.00814224 0.00814325 0.00814274 0.00814219 0.00814232 0.00814257 0.00814176 0.00814244 0.00814226 0.00814199 0.00814222 0.00814209 0.00814137 0.00814219 0.00814199 0.00814165 0.00814189 0.00814175 0.00814115 0.00814181 0.0081417 0.00814103 0.00814153 0.00814123 0.00814094 0.0081419 0.00814119 0.00814102 0.00814102 0.00814129 0.00814069 0.00814108 0.00814108 0.0081408 0.00814083 0.00814107 0.00814059 0.00814088 0.0081408 0.0081405 0.0081406 0.00814053 0.00814026 0.00814065 0.00814065 0.00814036 0.00814035 0.00814036 0.00814022 0.00814036 0.00814023 0.00814023 0.00814024 0.00814011 0.0081398 0.00814028 0.00813997 0.00813992 0.00814001 0.00813982 0.00813951 0.00813985 0.00813973 0.00813955 0.00813983 0.00813991 0.00813939 0.00813941 0.00813943 0.0081394 0.0081395 0.00813959 0.00813921 0.00813967 0.00813939 0.00813938 0.00813931 0.00813914 0.00813892 0.00813949 0.00813953 0.00813914 0.00813924 0.0081387 0.00813886 0.00813929 0.00813909 0.00813885 0.00813892 0.00813882 0.00813881 0.0081388 0.00813893 0.00813868 0.0081388 0.00813875 0.00813866 0.00813894 0.00813865 0.0081386 0.00813878 0.00813872 0.00813837 0.00813877 0.00813866 0.00813822 0.0081385 0.00813826 0.00813844 0.00813847 0.00813847 0.0081385 0.00813865 0.00813835 0.00813809 0.00813848 0.00813847 0.00813816 0.00813847 0.00813808 0.0081383 0.00813865 0.00813811 0.00813817 0.00813834 0.0081386 0.00813824 0.00813832 0.00813809 0.00813812 0.00813798 0.00813834 0.00813829 0.00813808 0.00813822 0.00813806 0.00813798 0.00813774 0.00813796 0.00813811 0.00813819 0.00813811 0.00813803 0.0081377 0.00813805 0.00813828 0.00813792 0.00813819 0.00813809 0.0081379 0.0081379 0.00813813 0.00813834 0.00813845 0.00813763 0.00813819 0.0081381 0.00813749 0.00813818 0.00813814 0.00813788 0.00813103 0.00812651 0.00812388 0.00811935 0.00812861 0.00812552 0.00813244 0.00813169 0.00813055 0.00812818 0.00813092 0.00812965 0.00813298 0.00813215 0.00813279 0.0081308 0.00813178 0.0081313 0.00813323 0.00813244 0.00813324 0.00813214 0.00813208 0.0081323 0.00813326 0.00813278 0.00813337 0.00813265 0.00813275 0.00813309 0.00813349 0.00813315 0.00813397 0.00813332 0.00813325 0.00813341 0.00813398 0.00813345 0.00813397 0.00813368 0.00813361 0.00813385 0.00813416 0.00813382 0.00813438 0.00813413 0.00813404 0.00813412 0.00813465 0.00813429 0.00813487 0.00813455 0.0081344 0.00813444 0.00813492 0.00813456 0.00813505 0.00813491 0.00813467 0.00813486 0.00813538 0.00813485 0.0081354 0.00813503 0.00813508 0.0081353 0.0081355 0.00813517 0.00813559 0.00813537 0.00813532 0.00813543 0.00813578 0.00813553 0.00813587 0.00813589 0.00813543 0.00813562 0.00813606 0.00813593 0.00813614 0.00813575 0.00813551 0.00813598 0.00813602 0.00813603 0.00813621 0.00813582 0.00813608 0.00813652 0.00813642 0.00813636 0.0081364 0.0081364 0.00813627 0.0081364 0.00813666 0.00813669 0.00813665 0.00813678 0.0081367 0.00813657 0.00813673 0.00813664 0.00813681 0.00813652 0.00813678 0.00813687 0.00813696 0.008137 0.00813689 0.008137 0.00813714 0.0081372 0.00813715 0.00813722 0.00813728 0.00813691 0.00813705 0.00813722 0.00813708 0.00813738 0.0081373 0.0081372 0.00813739 0.00813711 0.00813712 0.00813731 0.00813747 0.00813745 0.00813748 0.00813724 0.00813734 0.0081374 0.0081375 0.00813746 0.00813777 0.00813762 0.0081374 0.00813747 0.00813769 0.00813754 0.00813753 0.00813762 0.00813788 0.00813783 0.00813756 0.00813762 0.00813764 0.00813793 0.00813763 0.008138 0.00813787 0.00813782 0.00813755 0.00813784 0.00813777 0.00813769 0.00813805 0.00813775 0.00813813 0.00813809 0.00813814 0.00813791 0.0081379 0.00813806 0.00813811 0.00813778 0.00813765 0.00813785 0.00813789 0.00813788 0.00813811 0.00813803 0.00813819 0.00813798 0.00813808 0.00813806 0.00813792 0.00813817 0.0081382 0.00813817 0.00813811 0.00813806 0.00813757 0.00813831 0.00813797 0.00813812 0.00813801 0.00813808 0.00813827 0.00813776 0.00813393 0.00813188 0.00812828 0.00812742 0.0081273 0.00812837 0.00813419 0.00813345 0.0081306 0.00813042 0.00813152 0.00813167 0.00813448 0.00813369 0.00813295 0.00813262 0.00813275 0.008133 0.00813453 0.00813391 0.00813438 0.00813384 0.00813373 0.00813383 0.00813471 0.0081341 0.00813484 0.00813437 0.00813413 0.00813453 0.00813487 0.00813435 0.00813521 0.00813472 0.00813439 0.00813486 0.00813514 0.00813455 0.00813535 0.00813495 0.00813496 0.00813507 0.00813545 0.0081347 0.00813552 0.00813529 0.00813521 0.00813545 0.00813557 0.00813528 0.00813578 0.00813549 0.00813515 0.00813565 0.00813575 0.00813539 0.00813597 0.00813563 0.00813562 0.00813583 0.008136 0.00813563 0.008136 0.00813602 0.00813588 0.00813607 0.00813607 0.00813584 0.00813649 0.00813617 0.00813607 0.00813608 0.0081366 0.00813606 0.00813632 0.0081363 0.00813641 0.00813635 0.0081366 0.00813635 0.00813653 0.00813644 0.00813633 0.00813649 0.00813664 0.00813653 0.00813678 0.00813677 0.00813651 0.00813685 0.0081369 0.00813653 0.00813723 0.00813691 0.00813664 0.00813677 0.00813705 0.00813682 0.0081371 0.00813707 0.00813722 0.00813688 0.00813697 0.00813703 0.0081373 0.00813717 0.00813724 0.00813727 0.00813735 0.00813712 0.00813732 0.00813724 0.00813734 0.00813719 0.00813738 0.00813721 0.00813722 0.00813711 0.00813722 0.00813744 0.00813738 0.00813738 0.00813731 0.00813726 0.00813778 0.00813769 0.00813767 0.00813753 0.00813765 0.00813762 0.00813733 0.00813768 0.00813789 0.00813742 0.0081378 0.00813759 0.00813757 0.00813798 0.00813777 0.00813778 0.00813793 0.00813776 0.00813793 0.00813753 0.00813771 0.00813751 0.00813751 0.00813776 0.00813787 0.00813795 0.00813779 0.00813787 0.00813799 0.008138 0.00813804 0.00813781 0.00813796 0.0081378 0.00813794 0.00813798 0.00813789 0.00813792 0.00813811 0.00813781 0.00813787 0.00813791 0.00813808 0.00813814 0.00813818 0.00813788 0.00813804 0.00813805 0.00813793 0.00813798 0.00813796 0.00813805 0.00813796 0.008138 0.00813824 0.00813775 0.00813805 0.00813816 0.00813803 0.00813837 0.00813786 0.00813801 0.00813814 0.00813798 0.00813832 0.0081378 0.00813813 0.0081379 0.00813654 0.00813469 0.00813252 0.00813189 0.00813052 0.00813213 0.00813662 0.00813557 0.00813375 0.00813341 0.00813292 0.00813386 0.00813606 0.00813533 0.00813504 0.00813464 0.00813445 0.00813491 0.00813586 0.00813539 0.00813584 0.00813559 0.00813526 0.0081356 0.00813616 0.00813542 0.00813634 0.0081359 0.00813565 0.00813579 0.00813615 0.0081355 0.00813664 0.00813619 0.00813587 0.0081361 0.00813637 0.00813573 0.00813672 0.0081362 0.00813603 0.00813636 0.00813652 0.0081359 0.0081367 0.00813643 0.00813633 0.0081365 0.00813651 0.00813606 0.00813686 0.00813643 0.00813649 0.00813682 0.00813656 0.00813635 0.00813696 0.00813672 0.00813662 0.00813681 0.00813686 0.00813625 0.00813718 0.00813678 0.0081368 0.00813683 0.00813699 0.00813675 0.00813715 0.0081369 0.00813664 0.00813682 0.0081371 0.0081366 0.00813741 0.00813709 0.00813721 0.00813706 0.00813722 0.00813672 0.00813732 0.00813717 0.008137 0.00813727 0.00813721 0.008137 0.00813744 0.00813723 0.00813719 0.00813711 0.00813724 0.0081371 0.00813729 0.00813719 0.0081373 0.00813732 0.00813732 0.0081372 0.00813767 0.00813749 0.00813739 0.00813754 0.00813758 0.00813719 0.00813758 0.00813753 0.0081374 0.00813769 0.00813736 0.00813745 0.00813761 0.00813733 0.00813759 0.00813747 0.00813767 0.00813735 0.00813761 0.00813748 0.00813793 0.00813786 0.00813778 0.0081376 0.00813775 0.00813778 0.00813785 0.00813777 0.00813765 0.00813764 0.0081376 0.00813771 0.00813769 0.00813792 0.00813787 0.00813766 0.00813792 0.00813759 0.00813804 0.00813792 0.00813781 0.008138 0.00813776 0.00813807 0.0081379 0.008138 0.00813792 0.00813783 0.00813806 0.00813769 0.00813799 0.008138 0.00813784 0.00813787 0.00813831 0.00813772 0.0081379 0.00813784 0.00813801 0.00813791 0.00813827 0.00813796 0.00813803 0.00813756 0.00813812 0.00813788 0.00813799 0.00813798 0.00813787 0.00813797 0.00813783 0.00813788 0.00813832 0.00813783 0.00813784 0.00813791 0.00813793 0.00813805 0.0081381 0.00813807 0.00813811 0.00813788 0.00813807 0.00813793 0.00813807 0.0081383 0.00813781 0.00813808 0.00813797 0.00813801 0.0081382 0.00813808 0.00813795 0.00813776 0.00813932 0.00813758 0.00813679 0.00813614 0.0081343 0.00813597 0.00813883 0.00813761 0.00813714 0.00813645 0.00813538 0.00813642 0.00813814 0.00813721 0.00813751 0.00813707 0.00813641 0.00813681 0.00813758 0.00813702 0.00813762 0.00813742 0.00813675 0.0081373 0.00813759 0.00813682 0.00813795 0.00813726 0.00813705 0.00813729 0.00813733 0.00813701 0.00813778 0.00813763 0.00813725 0.00813738 0.00813748 0.00813696 0.0081378 0.0081376 0.00813728 0.00813745 0.00813748 0.00813705 0.00813768 0.00813753 0.00813745 0.00813754 0.00813762 0.00813698 0.00813807 0.00813758 0.00813746 0.00813765 0.00813768 0.00813731 0.00813797 0.00813752 0.00813752 0.00813769 0.00813769 0.00813732 0.00813776 0.00813751 0.00813755 0.00813775 0.00813778 0.0081373 0.00813794 0.00813755 0.00813753 0.00813785 0.00813776 0.00813728 0.00813787 0.00813767 0.00813777 0.00813782 0.00813757 0.00813756 0.00813812 0.00813782 0.00813752 0.00813769 0.00813777 0.00813753 0.00813812 0.00813783 0.00813771 0.00813777 0.00813785 0.00813769 0.00813797 0.00813782 0.00813789 0.00813795 0.00813792 0.00813772 0.00813789 0.00813792 0.00813756 0.00813775 0.00813771 0.00813785 0.00813805 0.00813789 0.00813807 0.00813804 0.00813782 0.00813788 0.00813818 0.00813805 0.00813787 0.00813804 0.00813793 0.00813776 0.008138 0.00813788 0.00813805 0.00813771 0.00813801 0.00813775 0.00813787 0.00813792 0.00813808 0.00813787 0.00813791 0.00813784 0.00813787 0.0081379 0.0081379 0.00813788 0.00813786 0.00813779 0.00813792 0.00813798 0.00813819 0.00813811 0.00813774 0.00813779 0.0081383 0.00813819 0.00813784 0.00813797 0.00813809 0.00813799 0.00813803 0.00813781 0.00813791 0.00813806 0.008138 0.00813802 0.00813824 0.00813792 0.0081378 0.00813776 0.00813781 0.00813813 0.00813815 0.00813845 0.00813791 0.00813776 0.00813785 0.00813801 0.00813774 0.00813794 0.00813811 0.00813822 0.00813816 0.00813839 0.00813817 0.00813827 0.00813782 0.00813799 0.00813791 0.008138 0.00813805 0.00813805 0.00813818 0.00813777 0.00813777 0.00813813 0.00813798 0.0081383 0.00813787 0.00813775 0.00813808 0.00813814 0.00813812 0.00813802 0.00813778 0.00813807 0.00814223 0.00814044 0.00814131 0.00814025 0.00813791 0.00813961 0.00814083 0.0081395 0.0081407 0.00813957 0.00813811 0.00813905 0.00813986 0.00813884 0.00814007 0.0081393 0.00813845 0.00813905 0.00813921 0.00813837 0.00813968 0.00813907 0.00813844 0.00813893 0.00813905 0.00813835 0.0081393 0.00813898 0.00813859 0.00813863 0.00813886 0.00813815 0.00813906 0.00813881 0.0081384 0.00813882 0.00813868 0.00813825 0.00813888 0.00813859 0.00813849 0.00813882 0.00813863 0.00813824 0.00813896 0.00813877 0.00813848 0.00813869 0.00813858 0.00813824 0.00813881 0.00813869 0.00813844 0.00813851 0.00813857 0.00813822 0.00813889 0.00813863 0.00813847 0.00813869 0.00813842 0.0081381 0.00813889 0.00813859 0.00813849 0.00813861 0.00813844 0.00813827 0.00813876 0.00813855 0.00813838 0.00813844 0.00813844 0.00813809 0.00813854 0.00813836 0.00813836 0.0081384 0.00813815 0.0081383 0.00813859 0.0081386 0.00813838 0.00813853 0.00813832 0.00813804 0.00813863 0.0081384 0.00813821 0.00813844 0.00813836 0.00813811 0.00813839 0.00813836 0.00813831 0.00813844 0.00813821 0.00813793 0.00813864 0.00813823 0.00813841 0.00813831 0.00813832 0.00813813 0.00813841 0.00813842 0.00813814 0.00813828 0.0081382 0.00813817 0.00813838 0.0081382 0.00813822 0.00813812 0.00813821 0.00813778 0.00813831 0.00813826 0.00813823 0.00813817 0.00813816 0.00813811 0.0081384 0.00813822 0.0081383 0.00813818 0.00813795 0.00813807 0.00813815 0.00813824 0.00813799 0.00813813 0.00813814 0.00813795 0.00813847 0.0081381 0.00813813 0.00813824 0.00813822 0.00813801 0.00813813 0.00813817 0.00813818 0.00813811 0.00813813 0.00813801 0.0081381 0.00813838 0.00813805 0.00813788 0.00813785 0.00813812 0.00813832 0.00813832 0.00813821 0.00813782 0.00813812 0.00813826 0.00813807 0.00813816 0.00813778 0.00813814 0.00813798 0.00813814 0.00813803 0.00813789 0.00813821 0.00813812 0.00813819 0.00813793 0.00813808 0.00813799 0.00813808 0.00813819 0.00813812 0.00813799 0.00813788 0.00813788 0.00813794 0.00813805 0.00813794 0.00813817 0.00813823 0.0081379 0.0081381 0.00813808 0.00813807 0.008138 0.00813792 0.00813797 0.00813798 0.00813798 0.00814523 0.00814349 0.00814601 0.00814445 0.00814172 0.00814325 0.00814276 0.00814156 0.008144 0.0081426 0.00814082 0.00814199 0.00814135 0.00814043 0.00814242 0.00814142 0.00814042 0.00814115 0.00814075 0.00814016 0.00814129 0.00814091 0.00814008 0.00814053 0.00814032 0.00813969 0.00814069 0.00814054 0.00814003 0.00814009 0.00814026 0.00813954 0.00814041 0.00814027 0.00813983 0.00814017 0.00813989 0.0081394 0.00814028 0.00813998 0.00813967 0.00813992 0.00813985 0.00813917 0.0081401 0.00813981 0.00813962 0.00813975 0.00813964 0.00813913 0.00813998 0.00813956 0.00813957 0.00813954 0.00813952 0.00813894 0.00813957 0.00813962 0.00813926 0.00813947 0.00813916 0.00813917 0.00813954 0.00813944 0.00813916 0.00813928 0.00813926 0.00813905 0.00813953 0.00813926 0.00813903 0.00813925 0.00813905 0.00813877 0.0081394 0.00813927 0.00813898 0.0081392 0.00813905 0.00813877 0.00813943 0.00813906 0.00813877 0.00813908 0.00813905 0.00813857 0.0081391 0.00813893 0.00813896 0.00813897 0.00813893 0.00813856 0.00813887 0.00813908 0.00813866 0.00813877 0.0081388 0.00813866 0.00813887 0.00813869 0.00813864 0.00813871 0.00813852 0.00813852 0.00813885 0.00813874 0.00813872 0.00813878 0.00813858 0.00813864 0.00813866 0.00813855 0.00813844 0.00813842 0.00813841 0.00813823 0.00813852 0.00813862 0.00813841 0.00813867 0.00813833 0.00813826 0.00813883 0.0081385 0.00813835 0.00813838 0.00813834 0.00813817 0.00813842 0.00813839 0.00813806 0.00813839 0.00813824 0.00813841 0.00813824 0.00813841 0.0081383 0.00813848 0.00813811 0.00813801 0.00813837 0.00813807 0.00813824 0.00813826 0.00813823 0.00813816 0.00813849 0.00813823 0.00813811 0.00813805 0.00813795 0.00813836 0.00813812 0.00813817 0.00813806 0.0081382 0.00813816 0.00813788 0.00813798 0.00813823 0.00813812 0.00813806 0.00813817 0.00813793 0.00813813 0.00813815 0.00813806 0.00813804 0.00813793 0.00813802 0.00813808 0.00813832 0.00813811 0.00813788 0.00813821 0.00813786 0.00813802 0.00813817 0.00813802 0.00813804 0.0081381 0.00813809 0.00813831 0.00813812 0.00813793 0.00813787 0.00813796 0.00813795 0.00813804 0.00813814 0.00813832 0.00813797 0.0081478 0.00814598 0.00815145 0.0081487 0.00814535 0.0081469 0.00814423 0.00814311 0.00814669 0.00814553 0.00814317 0.00814466 0.00814278 0.00814201 0.0081438 0.00814347 0.00814223 0.00814309 0.00814221 0.00814132 0.00814257 0.00814249 0.0081416 0.00814229 0.00814196 0.00814106 0.00814211 0.00814177 0.00814124 0.0081417 0.0081415 0.00814068 0.00814182 0.00814127 0.00814109 0.00814124 0.00814126 0.00814062 0.00814124 0.0081412 0.00814091 0.00814107 0.00814099 0.00814041 0.00814118 0.00814093 0.00814045 0.00814079 0.00814087 0.00814032 0.00814092 0.00814057 0.00814041 0.00814056 0.0081405 0.00813979 0.00814065 0.00814056 0.00814024 0.00814034 0.00814029 0.00813986 0.0081405 0.00814035 0.00813983 0.00814017 0.00814001 0.00813968 0.00814022 0.00813998 0.00813969 0.00814001 0.00813984 0.00813947 0.00813992 0.00813989 0.00813981 0.00813977 0.00813965 0.00813948 0.00813982 0.00813967 0.00813939 0.00813963 0.00813947 0.0081391 0.00813964 0.0081396 0.00813922 0.00813948 0.00813933 0.00813906 0.00813948 0.00813944 0.00813919 0.00813929 0.00813908 0.00813891 0.00813934 0.00813921 0.00813921 0.00813904 0.00813914 0.00813887 0.00813924 0.00813911 0.00813873 0.00813916 0.00813886 0.00813875 0.00813922 0.00813878 0.0081387 0.00813916 0.00813881 0.00813849 0.00813868 0.00813857 0.0081387 0.00813892 0.00813873 0.00813863 0.00813883 0.00813863 0.00813853 0.00813889 0.00813873 0.00813862 0.00813872 0.00813848 0.00813852 0.00813841 0.00813856 0.00813824 0.00813856 0.00813846 0.00813825 0.00813869 0.00813841 0.00813854 0.00813851 0.00813825 0.00813831 0.00813827 0.00813835 0.00813802 0.00813815 0.00813842 0.0081382 0.0081382 0.00813834 0.00813819 0.00813831 0.00813834 0.00813834 0.00813801 0.00813818 0.00813807 0.0081382 0.00813831 0.00813824 0.00813814 0.00813807 0.0081383 0.00813805 0.00813814 0.00813807 0.00813814 0.008138 0.00813793 0.00813835 0.00813804 0.00813785 0.00813804 0.00813808 0.00813817 0.0081382 0.00813821 0.00813801 0.00813766 0.00813812 0.00813811 0.008138 0.00813813 0.00813797 0.00813781 0.00813787 0.00813811 0.00813785 0.00813802 0.0081379 0.00813806 0.00814941 0.00814787 0.00815994 0.00815333 0.0081486 0.0081504 0.00814476 0.00814424 0.00814453 0.00814767 0.00814513 0.00814627 0.00814415 0.0081433 0.00814389 0.00814486 0.00814373 0.00814431 0.00814361 0.00814283 0.00814385 0.00814366 0.00814307 0.00814339 0.00814331 0.00814247 0.00814356 0.00814315 0.00814283 0.00814292 0.00814301 0.00814203 0.00814287 0.00814263 0.00814214 0.00814259 0.00814264 0.00814173 0.00814247 0.00814231 0.00814208 0.00814201 0.00814212 0.00814135 0.00814215 0.008142 0.00814166 0.00814177 0.00814184 0.00814123 0.00814192 0.00814181 0.00814128 0.00814154 0.00814134 0.00814096 0.00814165 0.00814127 0.00814102 0.00814121 0.0081412 0.0081406 0.00814123 0.00814113 0.00814064 0.00814086 0.00814082 0.00814043 0.00814081 0.00814092 0.00814051 0.00814053 0.00814065 0.00814026 0.00814052 0.0081407 0.00814023 0.00814047 0.00814029 0.00814006 0.00814052 0.00814025 0.00814018 0.0081402 0.00814012 0.00813993 0.00814015 0.00814022 0.00813975 0.00813991 0.00814011 0.00813961 0.00813982 0.00813985 0.00813971 0.00813976 0.00813984 0.00813921 0.00813976 0.00813953 0.00813945 0.0081394 0.00813922 0.00813913 0.00813925 0.00813962 0.00813916 0.00813951 0.00813927 0.00813933 0.00813933 0.00813898 0.00813906 0.00813884 0.00813907 0.008139 0.00813903 0.00813912 0.00813898 0.00813905 0.00813909 0.00813875 0.00813899 0.00813902 0.00813848 0.00813876 0.00813888 0.00813876 0.00813871 0.00813853 0.00813881 0.00813901 0.00813891 0.00813841 0.00813858 0.00813853 0.00813868 0.00813864 0.00813875 0.00813815 0.00813827 0.00813844 0.00813843 0.00813857 0.00813863 0.0081381 0.00813849 0.00813842 0.0081383 0.00813838 0.00813798 0.00813821 0.00813825 0.00813836 0.00813816 0.00813805 0.00813797 0.00813826 0.00813834 0.00813825 0.00813818 0.00813815 0.00813796 0.00813827 0.0081381 0.00813831 0.00813815 0.00813833 0.00813812 0.00813817 0.00813842 0.00813794 0.00813803 0.00813804 0.00813769 0.0081381 0.00813813 0.00813833 0.00813811 0.00813807 0.00813814 0.00813815 0.00813778 0.00813785 0.00813807 0.00813791 0.00813815 0.00813803 0.00813826 0.00813783 0.00813793 0.00813823 0.00813154 0.00812725 0.00812445 0.00812032 0.00812897 0.00812626 0.00813294 0.00813228 0.00813102 0.00812926 0.00813141 0.00813044 0.00813331 0.0081325 0.0081332 0.00813163 0.00813175 0.00813177 0.00813327 0.00813271 0.0081336 0.00813258 0.00813222 0.0081324 0.00813346 0.00813286 0.00813347 0.00813318 0.00813308 0.00813331 0.00813368 0.00813332 0.00813369 0.00813359 0.00813325 0.00813362 0.00813425 0.00813362 0.00813411 0.00813388 0.00813368 0.00813381 0.00813449 0.00813383 0.00813443 0.00813418 0.00813397 0.00813442 0.0081347 0.00813427 0.00813496 0.00813442 0.00813432 0.00813443 0.00813511 0.00813453 0.00813491 0.00813477 0.0081346 0.00813479 0.00813535 0.00813488 0.00813535 0.00813516 0.00813484 0.00813515 0.00813541 0.00813507 0.00813568 0.00813524 0.00813552 0.00813543 0.00813561 0.0081355 0.00813568 0.00813541 0.00813555 0.00813575 0.00813598 0.00813577 0.00813632 0.0081359 0.00813593 0.00813595 0.00813619 0.00813565 0.00813614 0.00813594 0.00813602 0.00813619 0.0081366 0.00813618 0.00813646 0.00813631 0.00813645 0.00813627 0.00813674 0.00813654 0.00813663 0.00813656 0.00813658 0.00813644 0.00813672 0.00813694 0.00813681 0.00813689 0.00813662 0.00813667 0.00813686 0.00813668 0.00813699 0.00813677 0.00813688 0.00813687 0.00813681 0.00813695 0.00813717 0.00813698 0.00813693 0.00813728 0.00813702 0.00813711 0.0081369 0.0081372 0.00813703 0.00813736 0.00813725 0.00813731 0.00813761 0.00813745 0.00813753 0.00813731 0.0081376 0.00813738 0.00813764 0.00813739 0.00813762 0.00813754 0.00813775 0.00813751 0.00813754 0.00813773 0.00813776 0.00813772 0.00813774 0.00813753 0.00813767 0.00813746 0.0081378 0.00813773 0.00813773 0.0081376 0.00813786 0.00813797 0.0081379 0.0081377 0.00813782 0.00813807 0.00813782 0.00813783 0.00813785 0.00813758 0.0081378 0.008138 0.00813808 0.00813788 0.00813797 0.00813768 0.00813809 0.00813809 0.00813805 0.00813791 0.00813787 0.00813816 0.00813794 0.00813803 0.00813833 0.00813782 0.00813803 0.00813786 0.0081378 0.00813778 0.00813806 0.00813811 0.00813809 0.00813792 0.00813798 0.00813778 0.00813805 0.00813784 0.00813824 0.00813814 0.00813439 0.00813248 0.0081285 0.00812771 0.00812757 0.00812891 0.0081346 0.00813419 0.00813125 0.00813139 0.00813172 0.00813203 0.00813461 0.00813426 0.00813361 0.00813336 0.00813324 0.00813356 0.00813478 0.00813406 0.00813462 0.0081343 0.00813387 0.00813422 0.00813478 0.00813419 0.00813506 0.00813463 0.00813438 0.00813466 0.008135 0.00813437 0.00813506 0.00813486 0.00813463 0.00813491 0.0081352 0.00813451 0.00813537 0.00813507 0.00813483 0.00813509 0.00813552 0.00813476 0.00813565 0.00813527 0.00813518 0.00813533 0.00813574 0.00813527 0.00813578 0.00813537 0.00813537 0.00813588 0.00813579 0.00813527 0.0081362 0.00813574 0.0081358 0.00813589 0.00813624 0.00813559 0.00813617 0.00813586 0.00813575 0.00813604 0.00813625 0.00813599 0.00813645 0.00813601 0.00813595 0.00813615 0.00813616 0.00813612 0.00813647 0.0081364 0.00813638 0.00813639 0.00813654 0.00813633 0.00813674 0.00813636 0.00813637 0.0081365 0.00813666 0.00813641 0.00813672 0.00813676 0.00813667 0.00813656 0.00813715 0.00813661 0.00813705 0.00813675 0.00813676 0.00813679 0.008137 0.00813672 0.00813719 0.00813689 0.00813694 0.008137 0.00813695 0.00813688 0.0081374 0.00813718 0.00813685 0.00813699 0.00813737 0.00813715 0.00813744 0.00813706 0.00813724 0.00813728 0.00813741 0.00813755 0.00813752 0.0081374 0.00813723 0.00813732 0.00813741 0.00813736 0.00813744 0.0081375 0.00813762 0.0081375 0.00813737 0.00813762 0.00813767 0.00813746 0.00813747 0.00813746 0.00813784 0.00813748 0.0081375 0.00813758 0.00813761 0.00813773 0.00813787 0.00813767 0.00813776 0.00813756 0.00813782 0.00813771 0.00813774 0.00813772 0.00813781 0.00813775 0.00813776 0.00813769 0.00813784 0.00813783 0.00813801 0.00813779 0.00813795 0.00813791 0.00813766 0.00813789 0.00813793 0.00813804 0.00813787 0.00813765 0.00813823 0.00813777 0.00813809 0.00813797 0.00813787 0.00813804 0.00813797 0.0081378 0.00813794 0.00813795 0.00813797 0.00813796 0.00813805 0.00813815 0.00813779 0.00813821 0.00813783 0.00813798 0.00813802 0.00813779 0.00813803 0.008138 0.00813784 0.00813831 0.00813808 0.00813799 0.00813813 0.00813796 0.00813802 0.00813805 0.00813663 0.00813493 0.00813266 0.00813229 0.00813068 0.00813246 0.00813676 0.00813601 0.00813412 0.00813396 0.00813338 0.00813416 0.00813625 0.00813575 0.00813554 0.00813527 0.00813463 0.00813523 0.00813614 0.00813554 0.00813617 0.00813592 0.00813549 0.00813587 0.00813613 0.00813546 0.00813646 0.0081362 0.00813559 0.00813605 0.00813618 0.00813566 0.00813658 0.0081362 0.00813592 0.00813612 0.00813637 0.00813584 0.00813668 0.00813622 0.00813607 0.00813646 0.00813643 0.00813594 0.00813672 0.00813637 0.00813642 0.00813668 0.00813661 0.00813612 0.00813682 0.00813655 0.00813645 0.00813675 0.00813673 0.00813633 0.00813692 0.00813666 0.00813651 0.00813674 0.00813685 0.00813635 0.00813696 0.00813698 0.00813665 0.00813677 0.00813698 0.00813668 0.00813707 0.00813694 0.00813681 0.00813707 0.00813699 0.00813676 0.00813728 0.00813679 0.00813695 0.00813708 0.00813719 0.00813686 0.00813721 0.00813719 0.00813702 0.00813729 0.00813721 0.008137 0.00813756 0.00813735 0.00813726 0.00813729 0.00813747 0.00813689 0.00813745 0.00813749 0.00813729 0.00813743 0.00813752 0.00813724 0.00813754 0.0081377 0.00813722 0.00813726 0.0081377 0.0081375 0.00813775 0.00813758 0.00813746 0.0081374 0.00813742 0.00813732 0.00813777 0.00813758 0.00813756 0.00813789 0.00813773 0.00813765 0.0081379 0.00813764 0.00813754 0.00813776 0.00813786 0.00813762 0.00813759 0.00813749 0.00813763 0.00813793 0.00813786 0.0081377 0.00813798 0.00813772 0.00813759 0.0081377 0.00813804 0.00813776 0.00813769 0.00813775 0.00813792 0.00813772 0.00813784 0.00813749 0.00813803 0.00813771 0.00813779 0.00813782 0.00813781 0.00813791 0.00813759 0.00813795 0.00813795 0.00813794 0.00813758 0.00813791 0.00813792 0.008138 0.00813779 0.00813789 0.00813792 0.00813803 0.0081379 0.00813795 0.00813787 0.00813797 0.00813812 0.00813802 0.00813817 0.00813816 0.00813791 0.00813811 0.00813786 0.00813801 0.00813786 0.00813797 0.00813792 0.00813808 0.0081381 0.00813765 0.00813812 0.00813799 0.00813811 0.0081381 0.00813784 0.00813807 0.00813802 0.00813805 0.00813796 0.0081378 0.00813824 0.00813797 0.00813773 0.00813795 0.00813846 0.00813778 0.00813937 0.00813745 0.00813689 0.00813654 0.00813421 0.00813612 0.00813882 0.00813789 0.00813731 0.00813675 0.00813567 0.00813648 0.0081381 0.00813733 0.00813763 0.00813711 0.00813654 0.00813677 0.0081377 0.00813706 0.00813769 0.00813757 0.00813694 0.00813739 0.00813748 0.00813693 0.00813785 0.00813746 0.00813712 0.00813747 0.00813754 0.00813695 0.0081378 0.00813764 0.00813718 0.00813749 0.00813749 0.00813699 0.00813791 0.00813756 0.00813724 0.00813756 0.00813743 0.00813718 0.00813786 0.00813762 0.00813745 0.0081375 0.00813769 0.0081371 0.00813799 0.00813765 0.00813735 0.00813762 0.00813755 0.00813715 0.00813794 0.00813765 0.00813737 0.00813775 0.00813761 0.00813731 0.00813796 0.00813772 0.00813758 0.00813768 0.00813773 0.00813748 0.00813801 0.00813782 0.00813774 0.00813764 0.00813784 0.00813757 0.00813763 0.00813778 0.00813765 0.00813788 0.00813775 0.00813741 0.00813803 0.00813782 0.00813771 0.00813786 0.00813786 0.00813765 0.00813788 0.00813773 0.00813747 0.00813791 0.00813766 0.00813757 0.00813813 0.00813777 0.00813762 0.00813787 0.00813784 0.00813768 0.00813803 0.0081378 0.00813817 0.0081378 0.00813764 0.0081376 0.00813801 0.00813791 0.008138 0.00813759 0.00813804 0.00813789 0.0081375 0.00813801 0.00813783 0.00813808 0.00813778 0.00813774 0.0081378 0.00813763 0.00813809 0.00813796 0.00813795 0.00813767 0.00813804 0.00813782 0.00813805 0.00813818 0.00813798 0.008138 0.00813804 0.00813776 0.00813794 0.0081379 0.00813793 0.00813781 0.00813777 0.00813791 0.00813834 0.00813794 0.008138 0.00813785 0.00813787 0.00813798 0.00813789 0.00813784 0.00813799 0.00813782 0.00813801 0.008138 0.00813828 0.0081379 0.00813805 0.00813801 0.00813799 0.00813835 0.00813765 0.00813769 0.00813798 0.00813793 0.00813802 0.00813803 0.00813823 0.00813801 0.00813811 0.00813788 0.00813805 0.0081379 0.0081382 0.008138 0.00813812 0.008138 0.008138 0.00813798 0.00813796 0.00813783 0.00813792 0.00813798 0.00813784 0.00813808 0.0081379 0.00813793 0.00813792 0.00813824 0.00813803 0.008138 0.00813813 0.00813795 0.00813831 0.00813762 0.00813793 0.00813806 0.00813802 0.00813801 0.00814219 0.00814023 0.00814124 0.00814049 0.00813801 0.00813971 0.00814076 0.00813928 0.00814065 0.00813957 0.00813827 0.00813906 0.00813984 0.00813866 0.00814009 0.00813902 0.00813852 0.00813888 0.00813916 0.00813839 0.00813951 0.00813897 0.00813871 0.00813887 0.00813885 0.00813824 0.00813928 0.00813872 0.0081385 0.00813877 0.00813883 0.00813823 0.00813912 0.00813885 0.0081387 0.00813892 0.00813862 0.00813821 0.00813914 0.00813876 0.00813843 0.0081388 0.00813853 0.00813834 0.00813898 0.0081389 0.00813844 0.00813867 0.0081387 0.00813824 0.00813885 0.00813872 0.00813837 0.00813856 0.00813868 0.00813832 0.00813881 0.00813865 0.0081385 0.00813865 0.00813847 0.00813815 0.00813881 0.00813876 0.00813823 0.00813842 0.00813851 0.00813822 0.00813861 0.00813853 0.00813856 0.00813859 0.00813843 0.00813793 0.00813864 0.00813849 0.00813834 0.0081386 0.00813836 0.00813828 0.00813854 0.00813835 0.00813834 0.00813821 0.0081384 0.00813802 0.00813848 0.00813845 0.00813835 0.00813829 0.00813822 0.0081381 0.00813841 0.00813837 0.0081384 0.0081384 0.00813825 0.0081382 0.00813851 0.00813839 0.00813835 0.00813816 0.00813815 0.00813829 0.00813835 0.00813853 0.00813822 0.00813818 0.00813829 0.0081381 0.00813841 0.00813856 0.00813823 0.00813833 0.00813821 0.00813805 0.00813834 0.00813818 0.00813828 0.00813809 0.00813821 0.00813815 0.0081384 0.00813798 0.00813801 0.00813827 0.008138 0.00813774 0.00813827 0.00813794 0.00813831 0.00813815 0.00813806 0.00813815 0.00813826 0.00813809 0.00813827 0.00813832 0.00813823 0.00813818 0.00813803 0.00813809 0.00813807 0.00813801 0.0081381 0.00813812 0.00813816 0.00813816 0.00813832 0.00813796 0.00813818 0.00813798 0.00813783 0.00813834 0.00813796 0.00813807 0.00813772 0.00813787 0.0081381 0.00813815 0.00813777 0.00813818 0.008138 0.00813802 0.00813826 0.00813794 0.0081381 0.00813817 0.00813768 0.0081382 0.00813826 0.00813804 0.00813788 0.0081381 0.00813775 0.00813808 0.00813813 0.00813807 0.00813804 0.00813827 0.00813813 0.00813793 0.00813826 0.00813806 0.00813805 0.0081381 0.0081381 0.00813801 0.00813787 0.00813795 0.00813815 0.00813812 0.00814483 0.00814283 0.00814588 0.0081446 0.00814153 0.00814314 0.00814224 0.00814096 0.00814401 0.00814214 0.00814069 0.00814142 0.00814124 0.00814008 0.00814214 0.00814106 0.0081403 0.00814092 0.00814052 0.00813993 0.0081412 0.00814055 0.00814031 0.00814038 0.00814028 0.00813961 0.00814038 0.00814026 0.00813996 0.0081402 0.00814013 0.00813946 0.00814039 0.00814015 0.00813965 0.00814018 0.00813991 0.00813953 0.00814032 0.00814 0.00813959 0.00813983 0.0081397 0.00813934 0.00814009 0.00814002 0.00813952 0.0081396 0.00813959 0.00813929 0.00813976 0.0081398 0.0081394 0.00813971 0.00813967 0.00813907 0.00813984 0.00813938 0.00813938 0.00813936 0.00813945 0.00813912 0.00813966 0.00813945 0.00813913 0.00813948 0.00813919 0.00813904 0.00813947 0.0081394 0.00813912 0.00813939 0.00813939 0.00813897 0.00813931 0.00813917 0.00813887 0.00813909 0.00813911 0.0081388 0.00813918 0.00813907 0.00813897 0.00813903 0.00813874 0.0081389 0.00813906 0.00813904 0.00813906 0.00813884 0.00813888 0.00813873 0.00813902 0.00813893 0.00813862 0.00813869 0.00813888 0.00813866 0.00813888 0.00813897 0.00813852 0.0081387 0.00813853 0.00813851 0.00813886 0.0081387 0.00813855 0.00813867 0.00813843 0.00813851 0.00813867 0.00813868 0.0081385 0.00813867 0.00813869 0.0081384 0.00813865 0.0081384 0.00813861 0.00813851 0.00813843 0.00813837 0.00813857 0.00813869 0.00813824 0.00813852 0.00813809 0.00813826 0.0081383 0.00813816 0.00813843 0.00813826 0.00813834 0.00813834 0.00813847 0.00813834 0.00813809 0.00813816 0.00813824 0.00813801 0.00813827 0.00813818 0.00813833 0.00813818 0.00813804 0.00813813 0.00813835 0.00813818 0.00813811 0.00813799 0.00813812 0.00813789 0.00813807 0.00813843 0.00813835 0.00813811 0.00813775 0.00813825 0.00813805 0.00813828 0.00813786 0.0081378 0.00813816 0.00813814 0.00813836 0.00813798 0.00813814 0.00813827 0.00813794 0.00813833 0.00813809 0.00813787 0.00813793 0.00813788 0.00813829 0.00813828 0.00813834 0.00813811 0.00813794 0.00813796 0.00813798 0.0081378 0.0081379 0.00813808 0.00813787 0.00813824 0.00813811 0.0081381 0.00813808 0.00813806 0.00813825 0.00813805 0.0081471 0.00814533 0.00815131 0.008149 0.008145 0.00814684 0.00814336 0.00814255 0.00814622 0.00814477 0.00814302 0.0081441 0.00814253 0.00814136 0.00814342 0.00814267 0.0081421 0.00814272 0.00814209 0.00814133 0.00814229 0.00814191 0.00814168 0.00814187 0.00814176 0.00814095 0.00814196 0.00814159 0.00814119 0.00814158 0.00814145 0.00814094 0.00814185 0.00814142 0.008141 0.00814118 0.00814125 0.00814069 0.00814131 0.00814117 0.0081409 0.00814101 0.00814089 0.00814058 0.00814112 0.00814097 0.00814058 0.00814084 0.00814065 0.00814017 0.00814086 0.00814067 0.00814019 0.00814064 0.00814067 0.00814021 0.00814088 0.00814056 0.00814027 0.00814028 0.0081404 0.00813996 0.00814034 0.00814029 0.00813994 0.00814027 0.00814023 0.00813986 0.00814018 0.00814014 0.00813993 0.00813995 0.00813986 0.0081397 0.00813987 0.00813982 0.00813981 0.00813975 0.00813956 0.00813944 0.00813967 0.00813974 0.00813952 0.00813967 0.00813951 0.00813931 0.0081395 0.00813963 0.00813942 0.00813951 0.00813927 0.00813921 0.00813942 0.00813938 0.00813918 0.00813926 0.0081392 0.0081389 0.00813938 0.00813929 0.00813921 0.00813935 0.00813905 0.00813895 0.00813938 0.0081391 0.00813883 0.00813896 0.00813902 0.00813876 0.00813891 0.00813905 0.00813884 0.00813911 0.00813892 0.00813849 0.00813892 0.0081388 0.0081387 0.00813886 0.00813865 0.00813853 0.00813883 0.00813857 0.00813837 0.00813882 0.00813847 0.00813842 0.00813881 0.0081385 0.0081383 0.00813854 0.0081384 0.0081385 0.00813844 0.00813848 0.00813829 0.00813841 0.0081385 0.00813846 0.00813848 0.0081385 0.0081385 0.00813871 0.00813843 0.00813847 0.00813851 0.00813828 0.00813822 0.008138 0.00813839 0.00813807 0.00813823 0.00813821 0.00813814 0.00813823 0.00813809 0.008138 0.00813823 0.00813798 0.00813793 0.00813803 0.00813794 0.00813828 0.00813807 0.00813824 0.00813787 0.00813835 0.00813804 0.00813793 0.00813815 0.00813797 0.0081382 0.00813802 0.00813808 0.00813791 0.00813803 0.00813826 0.00813803 0.00813823 0.00813793 0.00813802 0.00813827 0.00813819 0.00813814 0.00813811 0.0081381 0.00813811 0.00813783 0.00813797 0.00813815 0.008138 0.00814894 0.00814716 0.00815863 0.00815308 0.00814804 0.00815007 0.00814446 0.00814347 0.0081443 0.00814677 0.00814465 0.00814595 0.00814379 0.00814273 0.00814375 0.0081441 0.00814348 0.0081439 0.00814347 0.0081426 0.00814349 0.00814338 0.00814309 0.00814328 0.00814306 0.00814237 0.0081433 0.00814282 0.00814246 0.00814277 0.00814283 0.00814207 0.00814326 0.00814245 0.00814209 0.00814259 0.00814244 0.00814195 0.00814258 0.00814218 0.00814204 0.00814216 0.00814237 0.00814157 0.00814218 0.00814192 0.00814168 0.00814179 0.00814197 0.00814128 0.00814206 0.0081419 0.0081412 0.00814158 0.00814149 0.00814104 0.00814167 0.00814139 0.00814114 0.00814112 0.00814103 0.00814076 0.00814131 0.00814129 0.00814088 0.00814077 0.00814084 0.00814055 0.00814088 0.008141 0.00814073 0.00814064 0.00814063 0.00814033 0.00814062 0.00814073 0.00814032 0.00814046 0.00814071 0.00814002 0.0081406 0.00814042 0.00814036 0.00814029 0.00814014 0.00813968 0.00814005 0.00814016 0.00813992 0.00813995 0.0081396 0.00813958 0.00813999 0.00813984 0.00813956 0.00813971 0.00813983 0.00813938 0.00813979 0.0081397 0.00813918 0.00813971 0.00813946 0.0081393 0.00813933 0.00813927 0.00813934 0.00813928 0.0081392 0.00813887 0.00813919 0.00813908 0.00813892 0.00813946 0.00813884 0.0081388 0.00813923 0.00813897 0.00813905 0.0081391 0.00813874 0.00813894 0.00813911 0.00813898 0.00813895 0.00813886 0.00813872 0.0081386 0.00813876 0.00813869 0.00813879 0.00813885 0.00813862 0.00813838 0.00813841 0.00813855 0.00813856 0.00813855 0.0081387 0.0081384 0.00813846 0.00813834 0.00813862 0.00813855 0.00813847 0.00813832 0.00813845 0.00813845 0.00813829 0.00813864 0.00813835 0.00813834 0.00813831 0.00813814 0.00813828 0.00813797 0.0081382 0.00813851 0.00813792 0.00813822 0.00813811 0.00813799 0.00813837 0.00813835 0.00813796 0.00813807 0.0081382 0.00813811 0.00813781 0.00813801 0.0081381 0.00813805 0.00813791 0.00813811 0.00813837 0.00813801 0.00813812 0.00813804 0.0081379 0.00813812 0.00813801 0.00813821 0.00813804 0.00813817 0.00813796 0.008138 0.00813774 0.00813787 0.00813811 0.00813798 0.00813776 0.00813823 0.00813296 0.00812909 0.00812572 0.00812155 0.00812975 0.00812817 0.00813382 0.0081322 0.00813255 0.00813252 0.00813223 0.00813163 0.00813379 0.0081326 0.00813422 0.00813326 0.00813261 0.00813265 0.00813352 0.0081329 0.00813392 0.00813337 0.00813301 0.00813306 0.00813357 0.00813313 0.00813383 0.00813358 0.00813307 0.00813349 0.00813395 0.00813346 0.00813404 0.00813385 0.00813354 0.00813374 0.00813416 0.00813371 0.00813421 0.00813402 0.00813404 0.00813389 0.00813443 0.00813412 0.00813431 0.00813426 0.00813426 0.0081343 0.00813464 0.00813427 0.00813481 0.00813437 0.00813446 0.00813446 0.00813497 0.00813442 0.008135 0.00813476 0.00813479 0.00813488 0.00813519 0.00813513 0.00813535 0.0081351 0.00813517 0.00813516 0.0081355 0.00813523 0.00813543 0.00813545 0.00813529 0.00813553 0.0081359 0.00813552 0.00813574 0.00813569 0.00813547 0.00813581 0.00813613 0.00813593 0.00813604 0.00813574 0.00813583 0.00813604 0.00813623 0.00813595 0.00813637 0.00813579 0.00813609 0.00813614 0.00813635 0.00813591 0.00813647 0.00813665 0.00813635 0.00813622 0.00813675 0.00813634 0.00813654 0.00813628 0.0081364 0.00813667 0.00813665 0.00813663 0.00813666 0.00813663 0.00813669 0.0081368 0.0081371 0.00813673 0.00813697 0.00813664 0.00813692 0.00813694 0.0081371 0.00813692 0.00813702 0.00813679 0.00813693 0.00813722 0.00813741 0.00813725 0.0081374 0.00813732 0.00813688 0.00813716 0.00813761 0.00813744 0.00813731 0.00813722 0.00813708 0.00813736 0.00813752 0.00813762 0.00813757 0.00813742 0.00813756 0.00813769 0.00813754 0.00813774 0.00813758 0.00813776 0.00813741 0.00813722 0.00813753 0.00813769 0.00813789 0.00813761 0.00813774 0.00813778 0.00813802 0.00813768 0.00813776 0.00813742 0.00813788 0.00813749 0.00813766 0.00813787 0.00813789 0.00813786 0.00813768 0.00813797 0.00813805 0.00813791 0.00813788 0.00813757 0.00813797 0.00813787 0.00813805 0.00813818 0.00813778 0.00813785 0.00813787 0.00813794 0.00813808 0.00813765 0.00813789 0.00813789 0.00813798 0.00813811 0.008138 0.00813792 0.00813808 0.00813792 0.00813823 0.00813812 0.00813807 0.00813831 0.0081381 0.00813801 0.00813814 0.00813777 0.0081349 0.00813304 0.00812928 0.00812745 0.00812814 0.0081304 0.00813529 0.00813487 0.00813264 0.00813435 0.00813303 0.0081333 0.00813511 0.00813464 0.0081345 0.00813519 0.00813415 0.00813426 0.00813489 0.00813449 0.00813519 0.00813501 0.00813437 0.00813454 0.00813504 0.00813455 0.00813532 0.00813498 0.00813449 0.00813479 0.00813511 0.00813473 0.0081354 0.00813503 0.00813475 0.00813507 0.00813553 0.00813481 0.00813562 0.00813515 0.00813483 0.0081353 0.00813558 0.00813519 0.00813561 0.00813538 0.00813525 0.00813529 0.00813564 0.00813541 0.00813587 0.00813566 0.00813545 0.00813552 0.00813593 0.00813556 0.00813585 0.00813577 0.00813563 0.00813581 0.00813619 0.00813599 0.00813613 0.00813574 0.00813585 0.00813607 0.00813629 0.00813599 0.00813625 0.00813593 0.00813605 0.00813628 0.0081367 0.00813613 0.00813643 0.00813626 0.00813607 0.00813623 0.00813657 0.00813649 0.00813666 0.00813636 0.00813649 0.0081365 0.00813671 0.00813656 0.00813694 0.00813658 0.00813661 0.00813665 0.00813682 0.00813667 0.0081368 0.00813698 0.00813676 0.00813688 0.00813694 0.00813674 0.00813712 0.00813696 0.00813703 0.0081372 0.00813732 0.00813678 0.00813723 0.00813704 0.00813715 0.00813713 0.00813708 0.00813731 0.00813737 0.00813722 0.00813725 0.00813732 0.00813742 0.00813705 0.00813754 0.00813757 0.00813726 0.00813718 0.00813745 0.0081374 0.00813757 0.00813769 0.00813751 0.00813747 0.00813772 0.00813751 0.00813759 0.00813769 0.0081376 0.00813762 0.0081376 0.00813737 0.00813783 0.00813765 0.00813751 0.00813752 0.00813785 0.00813744 0.00813763 0.00813749 0.00813767 0.00813812 0.00813769 0.00813775 0.00813789 0.0081379 0.00813783 0.00813781 0.00813784 0.00813789 0.00813781 0.0081379 0.00813782 0.00813773 0.00813791 0.00813821 0.00813802 0.00813803 0.00813794 0.00813778 0.00813778 0.00813797 0.00813791 0.00813786 0.00813799 0.00813806 0.0081379 0.00813789 0.00813786 0.00813772 0.00813822 0.00813792 0.00813817 0.008138 0.0081379 0.00813814 0.00813816 0.00813774 0.00813822 0.00813797 0.00813775 0.00813841 0.00813792 0.00813794 0.00813793 0.0081377 0.00813817 0.008138 0.00813813 0.00813788 0.00813679 0.00813513 0.00813326 0.00813185 0.00813138 0.00813343 0.00813693 0.00813597 0.00813511 0.00813592 0.00813467 0.00813489 0.00813652 0.00813586 0.00813625 0.00813657 0.00813555 0.00813575 0.00813634 0.00813583 0.00813657 0.00813659 0.00813578 0.00813599 0.00813635 0.00813569 0.0081366 0.00813632 0.00813601 0.00813611 0.00813637 0.00813606 0.00813655 0.00813642 0.00813608 0.00813634 0.00813644 0.0081359 0.00813674 0.00813634 0.00813599 0.00813671 0.00813657 0.00813619 0.00813676 0.00813629 0.00813636 0.00813651 0.00813674 0.00813622 0.00813687 0.00813654 0.00813641 0.00813666 0.00813691 0.00813653 0.00813686 0.0081367 0.00813654 0.00813668 0.00813697 0.0081368 0.00813708 0.00813683 0.00813681 0.00813666 0.00813697 0.00813693 0.00813718 0.00813699 0.008137 0.00813683 0.00813735 0.00813696 0.0081371 0.00813707 0.00813709 0.00813719 0.00813735 0.00813682 0.00813734 0.0081372 0.00813699 0.00813709 0.0081373 0.00813725 0.00813731 0.00813712 0.00813728 0.00813732 0.00813741 0.00813727 0.00813744 0.00813716 0.00813732 0.00813715 0.00813756 0.00813704 0.00813763 0.00813769 0.00813722 0.00813719 0.00813751 0.00813724 0.00813756 0.0081375 0.00813736 0.0081376 0.00813749 0.00813761 0.00813768 0.00813735 0.00813738 0.00813748 0.00813761 0.0081375 0.00813791 0.00813782 0.00813759 0.00813766 0.00813791 0.00813735 0.0081378 0.00813761 0.0081376 0.00813799 0.00813771 0.00813744 0.00813759 0.00813763 0.00813795 0.00813798 0.00813768 0.00813794 0.00813769 0.00813773 0.00813772 0.00813797 0.00813787 0.0081379 0.00813786 0.00813785 0.00813792 0.00813789 0.00813794 0.00813775 0.00813778 0.00813789 0.00813777 0.00813777 0.00813789 0.00813795 0.00813797 0.00813807 0.0081377 0.00813797 0.00813792 0.00813798 0.00813786 0.00813777 0.00813794 0.00813775 0.00813811 0.00813778 0.00813827 0.00813808 0.00813794 0.00813796 0.00813793 0.00813808 0.00813796 0.00813813 0.00813782 0.00813799 0.00813803 0.00813809 0.00813824 0.00813789 0.00813813 0.00813772 0.00813821 0.00813765 0.00813778 0.00813796 0.00813817 0.00813797 0.00813812 0.00813823 0.00813786 0.00813823 0.00813798 0.00813799 0.00813908 0.00813696 0.00813731 0.00813652 0.00813479 0.00813638 0.0081386 0.00813746 0.00813784 0.00813731 0.0081364 0.00813687 0.00813796 0.00813743 0.00813796 0.00813768 0.008137 0.00813726 0.00813772 0.00813716 0.0081379 0.00813755 0.0081373 0.00813753 0.00813757 0.00813713 0.00813787 0.00813751 0.00813728 0.00813762 0.00813769 0.00813735 0.00813792 0.0081376 0.00813734 0.00813757 0.00813763 0.00813721 0.00813786 0.00813752 0.0081373 0.00813768 0.00813765 0.00813731 0.00813795 0.00813751 0.00813745 0.00813744 0.00813783 0.00813754 0.00813768 0.0081376 0.00813757 0.00813773 0.00813776 0.00813733 0.0081378 0.00813758 0.00813743 0.00813774 0.00813771 0.00813759 0.00813791 0.00813757 0.00813763 0.00813753 0.00813776 0.00813776 0.008138 0.00813783 0.00813769 0.00813763 0.00813789 0.00813734 0.00813774 0.00813762 0.0081377 0.00813796 0.00813793 0.00813753 0.00813793 0.00813769 0.00813775 0.00813769 0.00813772 0.00813788 0.00813781 0.00813795 0.00813789 0.00813796 0.00813803 0.00813785 0.00813803 0.00813801 0.00813779 0.00813785 0.00813799 0.00813771 0.00813799 0.00813809 0.00813777 0.00813791 0.00813793 0.00813783 0.00813794 0.00813792 0.0081379 0.00813784 0.00813793 0.00813778 0.00813807 0.00813795 0.00813787 0.00813796 0.00813809 0.0081379 0.00813787 0.00813796 0.00813786 0.00813796 0.00813793 0.00813776 0.00813815 0.0081382 0.00813776 0.0081382 0.00813809 0.00813798 0.00813824 0.00813763 0.00813789 0.00813805 0.00813781 0.00813769 0.00813827 0.00813792 0.00813795 0.0081382 0.00813805 0.00813781 0.00813807 0.00813805 0.00813782 0.00813815 0.0081378 0.00813837 0.00813803 0.00813769 0.00813814 0.00813795 0.00813794 0.00813806 0.00813806 0.00813805 0.00813781 0.00813786 0.00813843 0.00813764 0.00813801 0.00813827 0.00813801 0.00813801 0.00813802 0.00813794 0.00813771 0.00813812 0.00813795 0.00813787 0.00813808 0.00813795 0.00813794 0.00813797 0.00813783 0.00813804 0.0081379 0.00813798 0.00813827 0.00813811 0.00813802 0.00813807 0.00813806 0.00813801 0.00813833 0.00813823 0.00813819 0.00813824 0.0081379 0.008138 0.00813822 0.00813767 0.00813831 0.00813801 0.00814123 0.00813889 0.00814154 0.008141 0.00813814 0.00813927 0.00814006 0.00813878 0.00814039 0.00813883 0.00813864 0.0081386 0.00813922 0.00813861 0.00813979 0.00813895 0.00813879 0.00813883 0.00813899 0.00813836 0.00813951 0.00813885 0.00813864 0.00813885 0.00813898 0.00813831 0.00813907 0.00813883 0.00813853 0.00813898 0.00813892 0.0081385 0.0081391 0.00813872 0.00813856 0.00813886 0.00813873 0.00813854 0.00813911 0.00813876 0.0081385 0.00813877 0.00813877 0.00813829 0.00813902 0.00813891 0.00813837 0.00813858 0.00813873 0.00813829 0.00813896 0.00813863 0.00813852 0.00813874 0.00813873 0.00813837 0.00813888 0.00813844 0.00813841 0.0081386 0.00813877 0.00813834 0.00813868 0.00813844 0.00813849 0.00813843 0.00813847 0.00813849 0.00813873 0.00813867 0.00813834 0.00813841 0.0081386 0.00813806 0.00813859 0.0081388 0.00813831 0.00813854 0.00813845 0.00813814 0.00813864 0.00813845 0.00813827 0.00813849 0.00813841 0.0081385 0.00813854 0.00813851 0.00813819 0.00813848 0.0081382 0.00813807 0.00813861 0.00813821 0.00813814 0.00813833 0.0081382 0.0081381 0.00813856 0.00813838 0.00813817 0.00813838 0.00813832 0.00813817 0.00813835 0.00813819 0.00813834 0.00813798 0.00813832 0.00813796 0.00813831 0.00813845 0.0081379 0.00813815 0.00813829 0.0081381 0.00813828 0.0081382 0.00813808 0.0081383 0.00813818 0.00813822 0.00813836 0.00813799 0.0081381 0.00813818 0.00813838 0.00813768 0.00813812 0.00813831 0.00813799 0.00813834 0.00813788 0.00813808 0.00813816 0.00813844 0.00813827 0.00813801 0.00813807 0.0081381 0.00813789 0.00813822 0.00813801 0.00813822 0.00813806 0.00813801 0.00813793 0.00813826 0.00813816 0.00813816 0.00813841 0.00813791 0.00813794 0.00813794 0.00813802 0.00813802 0.00813792 0.00813793 0.00813789 0.00813805 0.00813841 0.00813803 0.00813814 0.00813774 0.00813821 0.00813797 0.00813781 0.00813809 0.008138 0.00813785 0.00813814 0.00813776 0.008138 0.00813845 0.00813797 0.00813803 0.00813812 0.00813788 0.00813781 0.00813799 0.00813821 0.00813808 0.00813825 0.008138 0.00813776 0.00813805 0.00813792 0.00813844 0.0081382 0.00813788 0.00813787 0.00813799 0.00814355 0.0081412 0.0081461 0.00814538 0.00814159 0.00814207 0.00814138 0.00814018 0.00814288 0.00814043 0.00814074 0.00814074 0.00814068 0.00813971 0.00814135 0.00813987 0.00814006 0.00814046 0.00814041 0.00813985 0.00814071 0.00814001 0.00813985 0.00814015 0.00814009 0.00813985 0.00814037 0.00813994 0.00813983 0.0081402 0.00814017 0.00813959 0.00814035 0.00813997 0.00813972 0.00813989 0.00814013 0.00813958 0.00814014 0.00813999 0.00813954 0.00813998 0.0081401 0.00813949 0.00814007 0.00813982 0.00813944 0.0081396 0.00813972 0.0081394 0.00814004 0.00813987 0.00813926 0.00813969 0.0081396 0.00813925 0.00813981 0.00813947 0.00813938 0.00813964 0.00813942 0.00813895 0.00813966 0.00813953 0.00813926 0.00813925 0.00813933 0.00813912 0.00813957 0.00813954 0.00813905 0.00813925 0.00813907 0.00813894 0.00813931 0.00813927 0.00813926 0.00813907 0.0081391 0.00813885 0.00813917 0.00813921 0.00813882 0.00813891 0.00813911 0.00813889 0.00813914 0.00813894 0.00813884 0.00813899 0.00813871 0.00813891 0.00813896 0.00813877 0.00813868 0.00813898 0.00813875 0.00813889 0.00813895 0.00813892 0.00813877 0.00813885 0.00813867 0.00813846 0.00813879 0.00813868 0.0081388 0.00813871 0.0081385 0.00813862 0.00813845 0.00813856 0.00813855 0.00813843 0.00813837 0.00813851 0.00813845 0.00813853 0.00813844 0.00813851 0.00813858 0.0081382 0.0081385 0.00813829 0.00813847 0.00813848 0.0081385 0.00813841 0.00813841 0.00813834 0.00813847 0.00813858 0.00813835 0.00813797 0.00813837 0.00813843 0.00813829 0.00813854 0.00813841 0.00813825 0.0081384 0.00813814 0.00813828 0.00813846 0.0081381 0.00813819 0.00813837 0.00813834 0.00813832 0.00813815 0.00813816 0.00813775 0.00813823 0.00813826 0.00813833 0.00813785 0.00813813 0.00813836 0.00813812 0.00813829 0.00813794 0.00813807 0.00813811 0.00813809 0.00813806 0.00813802 0.00813814 0.00813819 0.00813805 0.00813797 0.00813766 0.00813759 0.0081381 0.00813821 0.00813817 0.00813795 0.00813826 0.00813804 0.00813823 0.00813796 0.00813794 0.00813826 0.00813813 0.00813798 0.00813786 0.00813788 0.00813803 0.00813772 0.00813809 0.00813808 0.00813803 0.00813775 0.00814595 0.00814345 0.00815135 0.00814997 0.00814475 0.00814514 0.00814249 0.00814136 0.00814509 0.00814222 0.00814252 0.00814269 0.00814191 0.00814095 0.00814278 0.00814142 0.0081416 0.00814198 0.0081418 0.00814086 0.00814188 0.0081414 0.00814143 0.00814155 0.00814147 0.0081411 0.00814157 0.00814159 0.00814112 0.00814138 0.00814143 0.00814092 0.00814168 0.00814131 0.008141 0.00814114 0.00814128 0.0081409 0.00814124 0.00814112 0.00814073 0.00814101 0.00814106 0.00814047 0.00814112 0.00814076 0.00814063 0.00814071 0.0081409 0.00814058 0.00814107 0.00814074 0.00814032 0.00814055 0.0081405 0.00814022 0.00814066 0.0081405 0.00813999 0.0081404 0.00814022 0.00814003 0.00814066 0.00814024 0.00814014 0.00814029 0.00813995 0.00813992 0.00814009 0.00814012 0.00813993 0.0081399 0.00813984 0.00813985 0.00814013 0.00814002 0.00813971 0.00813996 0.00813962 0.00813964 0.00813983 0.00813974 0.00813945 0.00813966 0.0081397 0.00813948 0.00813965 0.00813949 0.00813947 0.00813929 0.00813947 0.0081393 0.00813937 0.00813951 0.00813921 0.00813929 0.0081392 0.00813913 0.00813917 0.00813931 0.00813908 0.00813904 0.00813913 0.00813889 0.00813921 0.00813918 0.00813884 0.00813901 0.008139 0.00813881 0.00813905 0.00813888 0.00813877 0.00813889 0.00813879 0.00813845 0.00813905 0.00813876 0.00813872 0.00813864 0.00813886 0.00813854 0.0081385 0.0081386 0.00813871 0.00813878 0.0081385 0.00813881 0.00813875 0.00813881 0.00813862 0.00813862 0.00813858 0.0081385 0.00813867 0.0081385 0.00813817 0.00813847 0.00813827 0.00813812 0.00813839 0.0081381 0.00813833 0.00813851 0.00813801 0.00813839 0.00813823 0.00813821 0.00813835 0.00813857 0.00813825 0.00813801 0.00813813 0.00813811 0.00813817 0.00813852 0.00813828 0.00813815 0.0081383 0.00813831 0.00813817 0.00813837 0.00813816 0.00813849 0.00813808 0.00813803 0.00813832 0.00813817 0.00813809 0.00813795 0.00813815 0.00813792 0.00813798 0.00813826 0.00813814 0.00813758 0.00813819 0.00813823 0.0081377 0.00813806 0.00813827 0.00813807 0.00813802 0.00813815 0.00813797 0.0081378 0.00813807 0.00813775 0.00813784 0.00813825 0.00813822 0.0081381 0.00814814 0.00814589 0.00815661 0.00815357 0.00814747 0.00814852 0.00814381 0.0081426 0.00814349 0.00814418 0.00814384 0.00814454 0.00814354 0.00814238 0.00814331 0.00814272 0.00814279 0.00814327 0.00814345 0.00814221 0.00814326 0.00814276 0.00814268 0.00814295 0.00814307 0.00814209 0.0081431 0.00814261 0.00814233 0.0081427 0.00814262 0.00814199 0.00814282 0.00814249 0.00814218 0.00814243 0.00814234 0.00814197 0.00814262 0.00814225 0.00814188 0.00814204 0.00814235 0.00814129 0.00814217 0.00814191 0.00814156 0.00814183 0.00814207 0.00814143 0.00814172 0.00814172 0.00814135 0.00814147 0.00814164 0.00814114 0.00814148 0.00814144 0.00814107 0.00814127 0.00814134 0.00814081 0.0081413 0.00814115 0.00814061 0.00814097 0.00814075 0.00814065 0.00814101 0.00814091 0.00814061 0.00814057 0.00814044 0.00814055 0.00814071 0.00814065 0.00814043 0.00814067 0.00814015 0.00814032 0.00814077 0.00814035 0.00814006 0.00814008 0.0081403 0.00813994 0.00814023 0.00813996 0.0081401 0.00813994 0.00814011 0.00813979 0.00813994 0.00813997 0.00813959 0.00813988 0.00813992 0.00813962 0.00813989 0.00813962 0.00813954 0.00813964 0.00813943 0.00813913 0.00813957 0.0081393 0.00813942 0.00813949 0.0081391 0.00813906 0.0081395 0.00813918 0.00813914 0.00813926 0.00813916 0.00813929 0.00813935 0.00813921 0.00813902 0.0081391 0.00813886 0.00813868 0.00813888 0.00813897 0.008139 0.00813887 0.00813892 0.00813893 0.00813888 0.00813887 0.0081386 0.00813884 0.00813866 0.00813851 0.00813879 0.00813873 0.00813828 0.00813865 0.00813862 0.00813848 0.00813859 0.00813835 0.00813868 0.00813831 0.00813846 0.00813834 0.00813826 0.00813861 0.00813812 0.00813832 0.00813824 0.00813814 0.00813829 0.00813851 0.00813843 0.00813832 0.00813801 0.00813839 0.00813818 0.00813843 0.00813825 0.00813876 0.00813803 0.00813804 0.00813806 0.00813808 0.00813826 0.00813809 0.00813796 0.00813804 0.00813819 0.00813816 0.0081379 0.0081383 0.00813805 0.00813827 0.0081384 0.00813815 0.00813809 0.00813801 0.00813826 0.00813801 0.00813814 0.00813808 0.00813824 0.00813769 0.00813823 0.00813774 0.00813767 0.00813811 0.00813793 0.00813833 
SCALARS volume_diff float 1
LOOKUP_TABLE default
0.00780346 0.00780289 0.00779532 0.00779396 0.00780314 0.00780575 0.00780807 0.00780646 0.0078061 0.00780514 0.00780612 0.00780791 0.00780816 0.00780686 0.00780785 0.00780696 0.00780676 0.0078079 0.00780802 0.00780721 0.00780794 0.00780737 0.00780722 0.0078077 0.00780818 0.00780739 0.00780805 0.00780773 0.00780745 0.0078078 0.00780836 0.00780766 0.00780833 0.00780786 0.00780785 0.00780795 0.00780848 0.00780786 0.00780846 0.00780808 0.00780821 0.00780842 0.00780876 0.00780814 0.00780888 0.00780843 0.00780849 0.00780849 0.00780929 0.0078087 0.00780896 0.00780902 0.00780874 0.00780856 0.00780947 0.00780865 0.00780923 0.00780933 0.00780905 0.00780921 0.00780958 0.00780935 0.00780959 0.00780958 0.00780945 0.00780937 0.00780987 0.00780973 0.00780973 0.00780969 0.00780975 0.00780966 0.00781023 0.00780983 0.00781036 0.00780987 0.00780993 0.00780988 0.00781045 0.00781015 0.00781024 0.00781014 0.00781018 0.00781039 0.00781068 0.00781037 0.00781068 0.00781052 0.00781055 0.00781057 0.00781076 0.00781059 0.00781079 0.00781074 0.00781079 0.00781071 0.0078111 0.00781097 0.00781085 0.00781088 0.00781101 0.00781119 0.00781122 0.00781128 0.00781135 0.00781112 0.00781107 0.00781104 0.00781147 0.0078114 0.00781154 0.00781123 0.00781135 0.00781146 0.00781157 0.00781137 0.00781143 0.00781152 0.0078114 0.00781106 0.00781159 0.00781162 0.00781166 0.00781159 0.00781137 0.00781166 0.00781199 0.00781154 0.00781189 0.00781174 0.00781173 0.00781172 0.00781192 0.00781189 0.00781189 0.0078118 0.00781189 0.00781204 0.00781206 0.0078121 0.00781215 0.007812 0.00781213 0.00781231 0.00781222 0.0078121 0.00781202 0.00781195 0.00781226 0.00781192 0.00781218 0.00781223 0.00781226 0.00781236 0.00781238 0.00781193 0.00781261 0.00781234 0.00781234 0.0078119 0.00781244 0.00781245 0.00781243 0.00781248 0.00781267 0.00781226 0.00781257 0.00781253 0.00781256 0.00781247 0.00781246 0.00781255 0.00781249 0.00781241 0.00781245 0.00781255 0.00781246 0.00781246 0.00781243 0.00781254 0.00781254 0.00781239 0.00781261 0.00781233 0.0078126 0.00781238 0.00781247 0.00781266 0.00781265 0.00781246 0.00781266 0.00781248 0.00780654 0.00780653 0.00780079 0.00780176 0.00780295 0.00780845 0.00780988 0.00780804 0.00780668 0.0078066 0.00780731 0.00780957 0.00780981 0.00780861 0.00780893 0.0078084 0.00780821 0.0078093 0.00780959 0.00780875 0.00780929 0.00780881 0.00780859 0.00780922 0.00780955 0.00780886 0.00780948 0.00780909 0.00780877 0.0078093 0.00780954 0.00780904 0.00780962 0.00780921 0.00780891 0.00780927 0.00780983 0.00780923 0.00780978 0.00780933 0.00780924 0.00780958 0.00781 0.00780945 0.00781002 0.00780975 0.00780933 0.00780967 0.00781019 0.00780965 0.00781007 0.00780985 0.00780982 0.00780997 0.0078104 0.00780965 0.0078103 0.00781018 0.00781008 0.00780996 0.00781055 0.00780997 0.00781061 0.00781041 0.00781032 0.0078103 0.00781076 0.00781027 0.00781059 0.0078105 0.00781022 0.00781049 0.00781074 0.00781039 0.00781096 0.00781062 0.00781064 0.00781065 0.007811 0.00781059 0.00781105 0.00781092 0.00781087 0.00781105 0.00781097 0.00781071 0.00781122 0.00781116 0.00781083 0.00781118 0.00781133 0.00781105 0.00781144 0.007811 0.00781112 0.00781127 0.00781128 0.00781117 0.00781147 0.0078114 0.00781158 0.00781139 0.00781175 0.00781146 0.00781158 0.0078115 0.00781171 0.00781164 0.0078119 0.00781135 0.00781154 0.00781161 0.00781151 0.0078118 0.00781175 0.0078118 0.00781197 0.00781161 0.0078118 0.00781166 0.00781176 0.00781183 0.0078118 0.00781179 0.00781206 0.007812 0.00781211 0.00781207 0.0078121 0.00781196 0.00781197 0.00781176 0.00781209 0.00781193 0.0078123 0.00781217 0.00781215 0.00781174 0.00781214 0.00781191 0.00781171 0.00781221 0.00781211 0.00781226 0.0078123 0.00781207 0.00781218 0.0078124 0.00781214 0.00781232 0.00781217 0.00781224 0.0078124 0.0078122 0.00781228 0.0078126 0.00781211 0.00781221 0.00781235 0.00781236 0.00781241 0.00781249 0.00781232 0.00781261 0.00781275 0.00781251 0.00781235 0.00781211 0.0078125 0.00781223 0.00781234 0.00781245 0.0078124 0.00781198 0.00781262 0.00781249 0.00781252 0.00781245 0.00781271 0.00781221 0.00781236 0.00781281 0.00781251 0.0078124 0.00781267 0.00781266 0.0078125 0.00781278 0.00781242 0.0078126 0.00781261 0.00781247 0.00780947 0.00780877 0.00780616 0.00780609 0.00780626 0.00781007 0.00781113 0.00780999 0.00780925 0.00780879 0.00780878 0.00781074 0.00781122 0.00781024 0.0078104 0.00780997 0.00780963 0.00781084 0.00781089 0.00781015 0.00781075 0.00781036 0.00780995 0.0078106 0.0078109 0.00781023 0.0078109 0.00781043 0.00781007 0.0078106 0.00781096 0.00781022 0.00781095 0.00781038 0.00781037 0.00781055 0.00781088 0.00781037 0.00781092 0.00781077 0.00781042 0.00781066 0.00781083 0.00781047 0.00781116 0.00781072 0.00781062 0.00781062 0.00781106 0.00781055 0.0078112 0.00781094 0.00781081 0.00781089 0.00781127 0.00781074 0.00781124 0.007811 0.00781087 0.00781101 0.00781132 0.00781082 0.00781148 0.00781113 0.00781107 0.00781102 0.00781157 0.00781086 0.00781136 0.00781133 0.00781125 0.00781128 0.00781138 0.00781125 0.00781158 0.00781173 0.00781114 0.00781123 0.00781157 0.00781115 0.00781162 0.00781148 0.00781149 0.00781154 0.00781179 0.00781148 0.00781179 0.00781176 0.00781149 0.00781167 0.00781171 0.00781161 0.00781192 0.00781165 0.00781168 0.00781179 0.00781197 0.00781164 0.00781186 0.00781172 0.00781196 0.00781203 0.00781218 0.00781173 0.00781182 0.00781168 0.00781181 0.007812 0.00781201 0.00781179 0.00781202 0.00781211 0.00781207 0.00781206 0.00781226 0.00781202 0.00781225 0.0078118 0.00781194 0.00781229 0.00781229 0.007812 0.00781225 0.00781203 0.00781201 0.00781199 0.00781229 0.00781216 0.00781209 0.00781241 0.00781228 0.00781228 0.00781203 0.00781242 0.0078123 0.00781244 0.00781203 0.00781244 0.00781227 0.00781228 0.00781254 0.00781252 0.00781246 0.0078122 0.00781227 0.00781219 0.00781213 0.0078125 0.00781238 0.00781242 0.00781212 0.00781226 0.00781231 0.00781261 0.00781241 0.00781267 0.00781222 0.00781236 0.00781228 0.00781208 0.00781263 0.00781237 0.00781242 0.00781264 0.0078122 0.00781233 0.00781232 0.00781264 0.00781236 0.00781215 0.00781238 0.00781241 0.00781263 0.0078127 0.00781251 0.00781268 0.00781231 0.00781222 0.00781245 0.00781239 0.00781219 0.00781242 0.00781245 0.00781256 0.00781258 0.00781267 0.00781262 0.0078124 0.00781263 0.00781253 0.0078123 0.00781267 0.00781212 0.00781115 0.00781139 0.00781017 0.00780969 0.00781177 0.00781249 0.00781177 0.00781188 0.00781097 0.00781077 0.00781196 0.00781236 0.00781174 0.00781204 0.00781153 0.00781117 0.00781198 0.00781214 0.00781164 0.00781214 0.00781168 0.00781122 0.00781186 0.00781218 0.00781155 0.00781221 0.00781169 0.00781146 0.00781164 0.00781211 0.00781156 0.0078121 0.00781196 0.00781154 0.00781159 0.00781209 0.00781161 0.00781222 0.00781199 0.00781162 0.00781202 0.00781203 0.00781151 0.00781224 0.00781194 0.00781163 0.0078118 0.00781213 0.00781154 0.00781224 0.00781186 0.00781186 0.00781209 0.00781229 0.00781173 0.00781222 0.00781195 0.00781182 0.00781203 0.00781215 0.0078119 0.00781213 0.00781204 0.00781206 0.00781215 0.00781229 0.00781172 0.00781237 0.00781211 0.00781204 0.00781199 0.00781235 0.00781175 0.00781229 0.00781215 0.00781202 0.00781225 0.00781206 0.00781206 0.00781226 0.00781219 0.00781209 0.00781202 0.00781259 0.007812 0.00781256 0.00781228 0.0078121 0.00781201 0.00781226 0.00781191 0.00781239 0.00781238 0.00781207 0.00781216 0.0078124 0.00781188 0.00781271 0.00781235 0.00781229 0.007812 0.00781261 0.00781184 0.00781243 0.00781236 0.00781271 0.00781196 0.00781251 0.00781206 0.00781232 0.00781254 0.0078122 0.00781222 0.00781208 0.00781247 0.00781242 0.00781251 0.00781221 0.00781205 0.00781253 0.00781235 0.00781226 0.00781228 0.00781255 0.00781241 0.00781238 0.0078122 0.0078126 0.00781228 0.00781265 0.0078122 0.00781226 0.00781217 0.00781227 0.00781226 0.00781253 0.00781241 0.00781273 0.00781209 0.00781241 0.00781248 0.00781255 0.00781259 0.00781246 0.00781232 0.00781233 0.00781233 0.00781254 0.00781218 0.00781236 0.00781227 0.00781242 0.00781248 0.00781256 0.00781242 0.00781258 0.00781249 0.00781239 0.00781276 0.00781265 0.00781219 0.0078124 0.00781241 0.00781233 0.00781256 0.00781261 0.00781256 0.00781267 0.00781203 0.00781251 0.00781266 0.00781252 0.00781281 0.00781237 0.00781243 0.00781274 0.00781227 0.00781242 0.00781283 0.00781214 0.0078127 0.00781253 0.00781236 0.00781262 0.00781228 0.00781288 0.00781249 0.0078123 0.00781242 0.00781246 0.00781264 0.00781485 0.00781358 0.00781648 0.00781406 0.00781263 0.00781304 0.00781374 0.00781332 0.00781457 0.00781313 0.00781276 0.007813 0.00781335 0.00781311 0.007814 0.00781311 0.00781269 0.0078131 0.00781336 0.00781291 0.00781369 0.00781317 0.00781276 0.00781306 0.00781342 0.00781285 0.00781344 0.00781314 0.00781284 0.00781293 0.0078134 0.00781268 0.00781339 0.00781313 0.00781291 0.00781299 0.0078133 0.00781282 0.00781319 0.00781319 0.00781281 0.00781286 0.00781334 0.00781286 0.00781322 0.00781302 0.0078128 0.00781272 0.00781311 0.0078127 0.0078132 0.00781298 0.00781267 0.0078128 0.00781309 0.00781265 0.00781324 0.00781291 0.00781267 0.00781284 0.00781318 0.00781254 0.00781328 0.00781296 0.00781283 0.00781283 0.00781315 0.00781232 0.00781314 0.00781291 0.00781277 0.00781281 0.00781306 0.00781257 0.00781313 0.00781306 0.00781269 0.0078127 0.00781287 0.00781258 0.007813 0.00781292 0.00781268 0.00781284 0.00781296 0.0078126 0.00781294 0.00781303 0.00781281 0.00781281 0.00781287 0.00781258 0.00781279 0.00781259 0.00781258 0.00781261 0.00781287 0.00781273 0.00781261 0.00781292 0.00781242 0.00781264 0.0078128 0.00781228 0.00781275 0.00781281 0.00781261 0.00781276 0.00781283 0.00781243 0.00781308 0.00781286 0.00781245 0.00781273 0.00781255 0.00781249 0.00781272 0.00781289 0.00781259 0.0078127 0.00781272 0.00781233 0.00781288 0.00781258 0.00781267 0.0078123 0.00781246 0.00781276 0.0078125 0.00781269 0.00781253 0.00781253 0.00781251 0.00781239 0.00781279 0.00781258 0.00781265 0.00781255 0.00781274 0.00781233 0.00781268 0.00781252 0.00781235 0.00781246 0.00781242 0.00781273 0.00781254 0.00781232 0.00781257 0.00781268 0.00781251 0.00781235 0.00781278 0.00781275 0.00781258 0.00781232 0.0078127 0.00781243 0.00781279 0.00781295 0.00781268 0.00781247 0.00781267 0.00781229 0.00781244 0.00781252 0.00781238 0.0078124 0.0078125 0.00781238 0.00781265 0.00781283 0.00781251 0.00781241 0.00781276 0.00781269 0.00781256 0.00781235 0.00781243 0.00781268 0.00781224 0.00781247 0.00781222 0.00781242 0.00781229 0.00781287 0.00781273 0.00781241 0.00781239 0.00781236 0.00781259 0.0078126 0.0078176 0.00781603 0.00782201 0.00781796 0.00781585 0.00781476 0.00781473 0.00781486 0.00781716 0.00781531 0.00781481 0.00781406 0.00781465 0.00781443 0.00781548 0.00781454 0.00781441 0.00781422 0.00781456 0.0078142 0.00781488 0.00781449 0.00781406 0.0078143 0.00781439 0.00781408 0.00781468 0.00781437 0.00781417 0.0078145 0.00781469 0.00781387 0.00781466 0.00781428 0.00781417 0.00781404 0.00781461 0.00781372 0.00781457 0.00781444 0.00781378 0.00781412 0.00781426 0.00781359 0.00781443 0.00781412 0.00781397 0.00781404 0.00781424 0.00781367 0.00781422 0.00781411 0.0078137 0.00781385 0.00781393 0.00781363 0.00781413 0.00781418 0.00781348 0.0078139 0.00781382 0.00781347 0.00781398 0.00781384 0.00781352 0.00781371 0.00781383 0.00781335 0.00781392 0.00781366 0.00781348 0.00781359 0.00781382 0.0078133 0.00781357 0.00781357 0.00781349 0.00781351 0.00781383 0.00781308 0.00781373 0.00781348 0.00781319 0.00781329 0.00781344 0.00781305 0.00781361 0.00781335 0.00781336 0.00781312 0.00781332 0.0078131 0.00781334 0.00781336 0.00781344 0.00781315 0.00781319 0.00781264 0.00781306 0.00781349 0.00781346 0.0078133 0.00781321 0.0078127 0.00781305 0.00781332 0.007813 0.00781288 0.00781317 0.00781289 0.00781314 0.00781321 0.00781264 0.00781321 0.00781289 0.0078125 0.00781335 0.00781304 0.00781293 0.00781288 0.00781253 0.00781281 0.00781295 0.0078128 0.00781291 0.00781266 0.00781291 0.0078126 0.00781281 0.00781305 0.00781284 0.0078127 0.00781293 0.00781273 0.00781263 0.0078131 0.00781242 0.0078128 0.00781293 0.00781272 0.0078128 0.00781272 0.00781272 0.00781268 0.00781271 0.00781264 0.00781275 0.00781277 0.00781273 0.00781272 0.00781249 0.00781277 0.00781272 0.00781259 0.00781271 0.00781254 0.00781246 0.00781265 0.00781252 0.00781253 0.00781243 0.00781271 0.00781215 0.0078127 0.00781273 0.00781252 0.00781288 0.00781269 0.00781217 0.00781266 0.00781244 0.00781243 0.00781223 0.00781254 0.00781238 0.00781268 0.00781263 0.00781253 0.00781249 0.00781236 0.00781236 0.00781242 0.00781243 0.00781253 0.00781239 0.00781264 0.00781233 0.00781223 0.00781283 0.00781232 0.0078126 0.00781248 0.00782047 0.00781851 0.00782834 0.00782232 0.00781903 0.00781624 0.00781609 0.00781646 0.00781913 0.00781747 0.00781669 0.00781545 0.0078159 0.00781563 0.00781714 0.00781608 0.00781595 0.00781535 0.00781605 0.00781552 0.00781635 0.00781584 0.0078158 0.00781543 0.00781599 0.00781533 0.00781622 0.00781586 0.00781549 0.00781537 0.0078157 0.00781514 0.00781609 0.00781575 0.00781523 0.00781528 0.00781571 0.00781487 0.00781565 0.00781544 0.00781496 0.00781527 0.00781528 0.00781484 0.00781566 0.00781539 0.00781486 0.00781513 0.00781515 0.00781459 0.00781541 0.00781501 0.00781473 0.00781483 0.00781486 0.00781438 0.00781503 0.00781475 0.00781445 0.00781483 0.00781459 0.00781432 0.0078148 0.0078147 0.00781434 0.00781464 0.00781455 0.00781421 0.00781458 0.00781456 0.0078141 0.00781432 0.0078144 0.00781391 0.00781448 0.00781424 0.00781401 0.00781404 0.00781418 0.00781378 0.00781417 0.00781406 0.00781387 0.00781401 0.00781394 0.00781369 0.00781406 0.00781407 0.0078137 0.00781398 0.00781383 0.00781359 0.00781394 0.00781381 0.0078136 0.00781379 0.00781351 0.00781342 0.00781386 0.00781359 0.00781361 0.00781365 0.00781362 0.00781314 0.00781358 0.00781324 0.00781369 0.00781333 0.0078132 0.00781329 0.00781345 0.00781366 0.0078133 0.00781337 0.00781343 0.00781313 0.00781337 0.00781364 0.00781304 0.00781311 0.00781324 0.00781309 0.00781309 0.00781309 0.007813 0.00781311 0.00781297 0.00781299 0.00781316 0.0078131 0.00781304 0.00781288 0.00781293 0.00781279 0.00781268 0.00781298 0.00781296 0.00781297 0.00781311 0.00781277 0.00781284 0.00781287 0.00781292 0.00781257 0.00781289 0.00781264 0.00781274 0.00781289 0.00781269 0.00781283 0.00781274 0.00781253 0.00781265 0.00781256 0.00781275 0.00781307 0.00781243 0.00781295 0.0078127 0.0078126 0.00781258 0.0078127 0.00781255 0.00781273 0.00781258 0.00781254 0.00781272 0.00781276 0.00781242 0.00781274 0.00781264 0.00781245 0.00781252 0.00781246 0.00781254 0.00781261 0.00781262 0.00781225 0.00781278 0.00781234 0.00781231 0.00781249 0.0078124 0.00781252 0.00781252 0.00781254 0.00781289 0.00781241 0.00781224 0.00781246 0.00781244 0.00781255 0.00782143 0.00782028 0.00783295 0.00782683 0.00782126 0.00781841 0.00781815 0.00781773 0.00781832 0.00781943 0.00781815 0.00781665 0.0078178 0.00781707 0.00781768 0.00781753 0.00781741 0.00781694 0.0078176 0.00781674 0.00781765 0.00781716 0.00781705 0.00781704 0.00781729 0.00781672 0.00781758 0.00781699 0.00781662 0.0078168 0.00781699 0.00781649 0.00781708 0.00781693 0.00781646 0.00781673 0.00781689 0.00781615 0.00781701 0.00781668 0.00781632 0.00781635 0.00781658 0.00781597 0.00781653 0.0078164 0.00781584 0.00781602 0.0078159 0.00781558 0.00781637 0.00781597 0.00781577 0.00781597 0.00781596 0.00781536 0.00781608 0.00781598 0.00781551 0.00781539 0.00781575 0.0078152 0.00781564 0.00781544 0.0078152 0.00781531 0.00781535 0.00781502 0.0078153 0.00781522 0.00781506 0.00781516 0.00781519 0.00781468 0.00781517 0.00781487 0.0078146 0.00781484 0.0078149 0.0078145 0.00781502 0.00781487 0.00781448 0.00781434 0.00781447 0.00781434 0.00781451 0.00781471 0.00781429 0.00781448 0.00781445 0.00781417 0.00781455 0.00781416 0.00781415 0.00781433 0.00781383 0.00781382 0.00781409 0.00781382 0.00781405 0.0078142 0.0078141 0.00781389 0.00781392 0.00781395 0.00781364 0.00781409 0.00781365 0.00781366 0.00781396 0.00781383 0.00781365 0.00781344 0.00781369 0.0078131 0.00781345 0.00781376 0.00781344 0.00781349 0.00781329 0.00781307 0.00781353 0.00781347 0.00781321 0.00781323 0.0078128 0.00781343 0.00781325 0.0078132 0.00781316 0.00781327 0.00781291 0.00781291 0.00781292 0.0078129 0.00781312 0.00781309 0.00781362 0.007813 0.00781279 0.00781282 0.00781304 0.00781312 0.00781314 0.00781266 0.00781246 0.00781256 0.00781307 0.00781322 0.00781252 0.00781277 0.00781289 0.00781268 0.0078125 0.00781285 0.00781286 0.00781291 0.00781274 0.00781257 0.00781246 0.00781273 0.00781264 0.00781271 0.00781233 0.00781256 0.00781254 0.00781276 0.00781272 0.00781264 0.00781234 0.00781267 0.00781261 0.00781245 0.00781257 0.00781255 0.00781232 0.0078123 0.00781258 0.00781303 0.00781271 0.00781259 0.00781275 0.0078123 0.00781249 0.00781277 0.00781259 0.00781238 0.00781228 0.00781249 0.0078128 0.00781234 0.00780633 0.00780184 0.0077983 0.00779409 0.00780382 0.00780023 0.00780735 0.00780634 0.00780585 0.00780282 0.00780561 0.0078051 0.00780759 0.00780644 0.00780774 0.00780579 0.00780625 0.00780651 0.00780765 0.00780661 0.00780777 0.0078067 0.00780677 0.00780725 0.00780784 0.00780712 0.0078078 0.00780727 0.00780725 0.00780764 0.00780817 0.00780762 0.00780808 0.0078078 0.00780769 0.00780803 0.00780859 0.00780793 0.00780828 0.00780813 0.00780818 0.00780851 0.00780863 0.0078082 0.00780881 0.0078085 0.00780847 0.00780871 0.00780898 0.00780856 0.00780915 0.0078088 0.00780893 0.00780892 0.00780966 0.00780897 0.00780949 0.00780933 0.0078089 0.00780904 0.0078097 0.00780931 0.00780963 0.00780944 0.00780932 0.00780966 0.00780989 0.00780968 0.0078098 0.00780971 0.00780978 0.00780984 0.00781015 0.00780972 0.00781009 0.00781002 0.00781019 0.0078101 0.00781047 0.00781002 0.0078103 0.00781037 0.00781 0.00781036 0.00781066 0.00781042 0.00781075 0.00781055 0.0078103 0.00781057 0.00781072 0.00781082 0.00781098 0.00781075 0.00781064 0.00781063 0.00781117 0.00781107 0.00781108 0.00781107 0.00781084 0.00781096 0.0078112 0.00781122 0.00781119 0.00781109 0.00781109 0.00781112 0.00781139 0.00781139 0.00781152 0.0078111 0.00781129 0.00781153 0.00781167 0.00781172 0.00781155 0.00781128 0.00781202 0.00781161 0.00781158 0.00781167 0.00781159 0.00781166 0.00781149 0.00781171 0.00781194 0.00781162 0.00781173 0.00781172 0.00781176 0.00781174 0.00781179 0.00781182 0.00781186 0.00781186 0.00781165 0.00781189 0.00781223 0.00781193 0.007812 0.0078121 0.00781208 0.00781228 0.00781222 0.00781227 0.00781242 0.00781227 0.00781192 0.00781205 0.00781242 0.00781204 0.00781248 0.00781227 0.00781185 0.00781228 0.00781208 0.00781258 0.00781251 0.007812 0.00781244 0.00781248 0.00781239 0.00781221 0.00781247 0.00781246 0.00781244 0.00781258 0.00781235 0.00781248 0.0078128 0.00781255 0.00781223 0.00781226 0.00781246 0.00781251 0.00781264 0.00781263 0.00781233 0.00781255 0.00781258 0.00781185 0.00781244 0.00781229 0.00781312 0.00781254 0.00781272 0.00781237 0.00781257 0.00781255 0.00781283 0.00781258 0.00780856 0.00780676 0.00780251 0.0078021 0.0078017 0.00780314 0.0078087 0.00780764 0.00780596 0.00780517 0.00780672 0.00780728 0.00780887 0.00780805 0.00780793 0.00780709 0.0078079 0.00780835 0.00780924 0.00780841 0.00780896 0.00780826 0.0078083 0.00780882 0.00780931 0.0078085 0.00780926 0.00780864 0.00780867 0.00780919 0.00780963 0.00780886 0.00780961 0.00780913 0.00780901 0.00780934 0.0078095 0.00780903 0.00780957 0.00780944 0.00780929 0.00780967 0.00780983 0.00780944 0.00781006 0.00780957 0.00780954 0.00780979 0.00781013 0.00780967 0.00781019 0.00780984 0.00780968 0.0078099 0.00781039 0.00780969 0.00781014 0.00781016 0.00781018 0.00781 0.00781042 0.0078101 0.00781055 0.00781038 0.00781039 0.00781033 0.00781055 0.00781013 0.0078107 0.0078107 0.00781052 0.00781061 0.00781075 0.00781039 0.00781103 0.00781086 0.0078107 0.00781064 0.00781098 0.00781066 0.0078112 0.00781093 0.00781083 0.00781081 0.00781114 0.0078109 0.00781118 0.00781119 0.00781104 0.007811 0.00781118 0.00781108 0.00781131 0.0078113 0.00781121 0.0078112 0.00781137 0.00781106 0.00781157 0.00781159 0.0078114 0.00781147 0.00781168 0.00781119 0.00781168 0.00781138 0.00781155 0.0078116 0.00781177 0.00781146 0.00781182 0.00781161 0.00781155 0.00781163 0.00781177 0.00781158 0.00781192 0.00781193 0.00781194 0.00781199 0.00781202 0.00781164 0.00781213 0.00781189 0.0078119 0.00781189 0.00781194 0.00781196 0.00781212 0.00781227 0.007812 0.007812 0.00781201 0.00781189 0.00781202 0.00781196 0.00781222 0.00781224 0.00781246 0.00781198 0.00781231 0.00781198 0.0078122 0.0078123 0.00781256 0.00781225 0.0078125 0.00781234 0.00781235 0.00781216 0.00781234 0.00781231 0.00781231 0.00781272 0.00781226 0.00781225 0.00781243 0.00781248 0.00781215 0.00781226 0.0078126 0.00781255 0.00781248 0.00781242 0.00781263 0.00781262 0.00781252 0.00781257 0.00781256 0.00781247 0.00781258 0.00781239 0.00781234 0.00781255 0.00781246 0.00781238 0.00781262 0.00781261 0.00781228 0.00781233 0.00781234 0.00781284 0.00781246 0.00781229 0.0078124 0.00781255 0.00781276 0.00781251 0.00781255 0.00781238 0.00781245 0.00781268 0.00781088 0.00780926 0.00780697 0.00780646 0.00780513 0.00780683 0.00781097 0.00780957 0.00780859 0.00780803 0.00780819 0.00780911 0.0078106 0.00780946 0.00780991 0.0078091 0.00780937 0.00781008 0.00781055 0.00780985 0.00781052 0.00780979 0.00780987 0.0078103 0.00781074 0.00780986 0.0078106 0.00781014 0.00780996 0.00781055 0.00781082 0.00781022 0.00781083 0.00781038 0.00781018 0.00781043 0.00781098 0.0078103 0.007811 0.00781072 0.0078105 0.00781079 0.00781081 0.00781022 0.00781133 0.00781069 0.00781059 0.00781086 0.00781125 0.00781061 0.00781107 0.00781099 0.00781073 0.00781102 0.00781103 0.00781065 0.00781122 0.00781102 0.00781118 0.00781104 0.00781113 0.00781095 0.00781129 0.00781136 0.007811 0.00781117 0.00781148 0.00781111 0.00781156 0.00781135 0.00781142 0.00781125 0.00781143 0.00781131 0.00781168 0.00781148 0.00781137 0.00781125 0.0078116 0.00781134 0.00781164 0.00781165 0.0078114 0.00781151 0.00781152 0.00781146 0.00781195 0.00781167 0.00781154 0.00781174 0.00781161 0.00781158 0.00781193 0.00781179 0.00781195 0.00781193 0.00781198 0.00781181 0.00781193 0.007812 0.00781171 0.00781176 0.00781197 0.00781184 0.00781184 0.00781197 0.00781171 0.007812 0.00781184 0.00781188 0.00781217 0.00781193 0.00781201 0.00781215 0.00781211 0.00781183 0.00781227 0.00781188 0.00781217 0.00781214 0.00781221 0.00781222 0.00781216 0.00781252 0.00781221 0.00781225 0.0078121 0.00781185 0.00781236 0.00781238 0.0078122 0.00781223 0.00781228 0.00781212 0.00781227 0.00781243 0.00781225 0.00781225 0.00781238 0.00781237 0.00781242 0.00781229 0.00781232 0.00781236 0.00781233 0.00781231 0.00781236 0.00781225 0.00781244 0.00781208 0.00781241 0.00781224 0.00781249 0.00781235 0.00781241 0.00781242 0.00781236 0.00781225 0.00781232 0.00781194 0.00781258 0.00781253 0.00781238 0.00781248 0.00781252 0.00781257 0.00781256 0.00781262 0.00781246 0.00781257 0.00781236 0.00781253 0.00781258 0.00781243 0.00781206 0.00781249 0.00781226 0.00781237 0.00781238 0.00781256 0.00781249 0.00781265 0.00781261 0.00781262 0.00781241 0.00781264 0.00781261 0.00781243 0.00781258 0.00781224 0.00781267 0.00781255 0.00781329 0.00781173 0.00781124 0.0078105 0.00780882 0.00781017 0.00781291 0.00781143 0.00781175 0.00781093 0.00781023 0.00781102 0.00781231 0.00781146 0.00781216 0.00781123 0.00781098 0.00781141 0.007812 0.00781145 0.00781217 0.00781149 0.00781123 0.00781167 0.00781205 0.00781131 0.00781206 0.00781164 0.00781141 0.00781185 0.00781196 0.00781137 0.00781222 0.00781174 0.00781159 0.00781182 0.00781199 0.0078115 0.00781223 0.00781186 0.00781154 0.00781184 0.00781209 0.00781175 0.00781234 0.00781207 0.00781158 0.00781187 0.00781209 0.0078115 0.00781226 0.00781211 0.00781184 0.00781201 0.00781198 0.00781162 0.00781227 0.00781208 0.00781178 0.00781202 0.00781213 0.00781166 0.00781245 0.00781223 0.00781208 0.00781207 0.00781209 0.00781148 0.00781229 0.00781202 0.00781193 0.00781227 0.00781215 0.00781199 0.00781247 0.00781231 0.00781178 0.00781206 0.00781217 0.00781188 0.00781254 0.00781223 0.00781204 0.00781207 0.00781216 0.00781206 0.00781229 0.00781233 0.00781202 0.00781213 0.00781221 0.00781221 0.00781246 0.00781225 0.0078122 0.00781232 0.00781237 0.007812 0.00781259 0.0078123 0.00781236 0.00781237 0.00781239 0.00781201 0.00781234 0.00781238 0.00781227 0.00781212 0.00781234 0.0078124 0.00781262 0.00781258 0.00781236 0.00781232 0.00781235 0.00781201 0.00781251 0.00781255 0.00781227 0.00781246 0.00781219 0.00781219 0.00781272 0.00781263 0.00781238 0.00781237 0.0078124 0.0078123 0.00781235 0.00781238 0.00781249 0.00781265 0.00781247 0.00781242 0.00781254 0.00781236 0.00781246 0.00781242 0.00781258 0.00781227 0.00781252 0.00781258 0.00781252 0.00781212 0.00781243 0.00781238 0.00781255 0.00781244 0.00781251 0.00781238 0.00781233 0.00781257 0.00781246 0.00781262 0.00781262 0.00781244 0.00781267 0.00781247 0.00781221 0.0078126 0.00781244 0.00781245 0.00781264 0.00781266 0.00781248 0.00781265 0.0078123 0.00781234 0.00781227 0.00781253 0.00781266 0.00781269 0.00781278 0.00781235 0.00781245 0.00781259 0.0078125 0.00781233 0.00781263 0.00781244 0.0078125 0.00781273 0.0078124 0.00781274 0.00781261 0.00781256 0.00781231 0.00781252 0.00781235 0.00781247 0.00781261 0.0078125 0.00781585 0.00781436 0.00781573 0.00781432 0.00781255 0.00781353 0.00781463 0.00781359 0.00781505 0.00781361 0.00781292 0.00781311 0.00781401 0.00781305 0.00781447 0.00781332 0.00781276 0.00781326 0.00781364 0.00781291 0.007814 0.0078131 0.00781279 0.00781293 0.00781341 0.00781263 0.0078136 0.00781322 0.0078129 0.00781302 0.00781333 0.00781278 0.00781355 0.00781322 0.00781267 0.0078131 0.00781324 0.00781268 0.00781356 0.00781324 0.00781278 0.00781292 0.00781297 0.00781265 0.00781329 0.0078131 0.00781279 0.00781304 0.00781306 0.00781252 0.0078133 0.00781308 0.0078127 0.00781308 0.00781293 0.00781253 0.00781337 0.00781294 0.00781274 0.00781307 0.00781292 0.00781268 0.00781318 0.00781305 0.00781284 0.00781287 0.00781296 0.00781256 0.00781306 0.00781305 0.0078126 0.00781276 0.00781299 0.00781273 0.00781323 0.00781292 0.00781273 0.00781288 0.0078129 0.00781254 0.0078129 0.0078128 0.00781268 0.00781272 0.00781273 0.00781266 0.00781286 0.0078129 0.0078127 0.00781278 0.00781277 0.00781262 0.00781305 0.00781278 0.00781253 0.00781287 0.00781268 0.0078125 0.00781301 0.00781279 0.00781255 0.00781256 0.00781266 0.00781256 0.00781288 0.0078127 0.00781255 0.00781249 0.00781274 0.0078125 0.00781296 0.00781273 0.00781261 0.0078127 0.00781274 0.00781252 0.00781284 0.00781272 0.00781251 0.00781242 0.00781264 0.00781248 0.00781273 0.00781273 0.00781248 0.00781283 0.00781259 0.00781247 0.00781284 0.00781273 0.00781248 0.00781256 0.00781254 0.00781239 0.0078126 0.00781258 0.00781235 0.00781253 0.00781267 0.00781235 0.00781262 0.00781256 0.00781264 0.0078127 0.00781253 0.00781262 0.00781271 0.00781247 0.00781243 0.00781278 0.0078123 0.00781251 0.00781272 0.0078128 0.00781235 0.00781224 0.0078127 0.00781246 0.00781244 0.00781253 0.00781269 0.00781243 0.00781245 0.00781244 0.00781238 0.00781249 0.00781267 0.00781255 0.00781247 0.00781282 0.00781249 0.00781258 0.00781247 0.00781232 0.00781266 0.00781248 0.00781272 0.00781281 0.00781246 0.00781271 0.0078125 0.00781239 0.0078126 0.00781268 0.0078127 0.00781257 0.00781287 0.00781238 0.00781249 0.00781242 0.00781236 0.00781271 0.00781841 0.00781712 0.0078205 0.00781824 0.00781612 0.00781699 0.00781636 0.00781575 0.00781834 0.00781633 0.00781535 0.00781512 0.00781541 0.00781494 0.00781644 0.0078153 0.00781474 0.00781485 0.00781487 0.00781424 0.00781538 0.00781478 0.00781432 0.00781453 0.0078148 0.00781393 0.00781504 0.00781456 0.00781418 0.00781458 0.00781463 0.00781396 0.00781483 0.00781443 0.00781418 0.00781425 0.0078145 0.00781386 0.00781469 0.00781435 0.00781394 0.00781407 0.00781427 0.00781377 0.00781433 0.00781416 0.00781395 0.00781409 0.00781415 0.00781368 0.00781434 0.00781416 0.00781385 0.00781406 0.00781391 0.00781363 0.00781413 0.00781401 0.00781364 0.00781374 0.00781382 0.00781347 0.00781414 0.00781389 0.00781366 0.00781376 0.00781362 0.00781336 0.00781393 0.00781371 0.00781363 0.00781374 0.00781354 0.00781311 0.00781375 0.00781354 0.00781351 0.00781369 0.0078135 0.00781303 0.00781356 0.00781354 0.00781355 0.00781344 0.00781344 0.00781323 0.00781352 0.00781346 0.00781324 0.00781327 0.00781322 0.00781321 0.00781351 0.00781335 0.00781312 0.00781319 0.00781348 0.00781295 0.00781329 0.00781334 0.00781291 0.00781311 0.00781313 0.00781289 0.00781346 0.00781311 0.00781297 0.00781292 0.00781287 0.007813 0.00781295 0.0078131 0.00781297 0.00781295 0.00781319 0.00781301 0.00781316 0.00781303 0.00781275 0.00781289 0.00781293 0.00781271 0.00781307 0.00781305 0.00781264 0.00781288 0.00781275 0.00781281 0.0078129 0.00781281 0.00781294 0.00781283 0.00781301 0.00781264 0.00781273 0.00781259 0.00781281 0.00781278 0.00781252 0.00781258 0.00781253 0.00781276 0.00781276 0.00781271 0.00781254 0.00781242 0.0078128 0.00781287 0.00781249 0.00781264 0.00781226 0.00781273 0.00781256 0.0078127 0.00781252 0.0078127 0.00781277 0.00781237 0.0078128 0.00781252 0.00781271 0.00781238 0.00781263 0.00781239 0.00781259 0.00781284 0.00781236 0.00781264 0.00781231 0.00781264 0.00781256 0.00781247 0.00781248 0.00781287 0.00781242 0.00781238 0.0078126 0.00781256 0.00781233 0.00781226 0.00781248 0.00781262 0.00781267 0.00781265 0.00781237 0.0078124 0.00781247 0.00781248 0.00781283 0.00781276 0.00781255 0.00781228 0.00782081 0.00781948 0.00782573 0.00782232 0.00781984 0.00782067 0.0078176 0.00781733 0.00782046 0.00781918 0.00781732 0.0078173 0.00781676 0.00781639 0.00781778 0.00781744 0.00781635 0.00781628 0.00781631 0.00781568 0.00781683 0.00781644 0.00781591 0.007816 0.00781601 0.00781531 0.00781633 0.00781611 0.00781553 0.00781569 0.00781581 0.00781509 0.00781621 0.00781581 0.00781536 0.00781557 0.0078157 0.00781495 0.00781585 0.0078155 0.0078152 0.00781529 0.00781526 0.0078147 0.00781554 0.00781544 0.00781517 0.00781502 0.00781506 0.00781454 0.00781526 0.00781522 0.00781464 0.00781489 0.00781493 0.00781442 0.00781498 0.00781482 0.00781463 0.0078148 0.00781468 0.00781426 0.00781496 0.00781481 0.00781437 0.00781456 0.0078146 0.00781424 0.00781474 0.00781453 0.00781444 0.00781436 0.00781422 0.00781387 0.00781432 0.00781412 0.00781422 0.00781449 0.00781415 0.00781376 0.00781421 0.00781439 0.00781391 0.00781402 0.00781398 0.00781363 0.00781409 0.00781402 0.00781375 0.00781376 0.00781394 0.0078136 0.00781381 0.00781381 0.00781357 0.00781387 0.00781361 0.00781335 0.00781388 0.00781372 0.00781352 0.00781374 0.00781343 0.00781331 0.00781355 0.00781336 0.00781329 0.00781346 0.00781318 0.00781344 0.0078133 0.0078135 0.00781338 0.0078133 0.00781335 0.00781297 0.00781349 0.0078134 0.00781313 0.00781301 0.00781327 0.00781299 0.00781316 0.00781352 0.00781308 0.00781316 0.00781295 0.00781307 0.00781313 0.00781298 0.00781306 0.00781287 0.00781289 0.0078129 0.00781291 0.00781314 0.0078131 0.00781284 0.00781299 0.00781251 0.00781275 0.00781301 0.0078126 0.00781299 0.00781284 0.00781274 0.00781291 0.00781273 0.0078126 0.00781279 0.00781279 0.00781275 0.00781278 0.00781273 0.00781267 0.00781257 0.00781253 0.00781231 0.00781241 0.00781266 0.0078124 0.0078128 0.00781266 0.00781279 0.00781278 0.00781257 0.00781268 0.00781267 0.0078125 0.00781256 0.00781274 0.00781289 0.00781252 0.00781247 0.00781253 0.00781259 0.00781249 0.00781266 0.00781249 0.00781279 0.00781258 0.00781252 0.00781241 0.00781204 0.00781244 0.00781276 0.00781274 0.00781275 0.00781269 0.00781247 0.00781231 0.00781227 0.00782255 0.00782112 0.00783285 0.00782687 0.00782243 0.00782401 0.00781835 0.00781853 0.00781838 0.00782112 0.00781889 0.00781898 0.00781826 0.00781758 0.00781789 0.00781885 0.00781783 0.00781786 0.00781793 0.007817 0.00781815 0.00781787 0.00781734 0.0078173 0.00781764 0.00781672 0.00781763 0.00781734 0.0078168 0.00781697 0.00781743 0.00781649 0.00781723 0.007817 0.0078165 0.00781678 0.00781683 0.00781619 0.00781692 0.00781664 0.00781618 0.00781643 0.00781657 0.00781599 0.00781667 0.00781636 0.00781601 0.00781616 0.00781621 0.00781568 0.00781626 0.00781621 0.00781572 0.0078159 0.00781581 0.00781538 0.00781589 0.00781583 0.00781561 0.00781533 0.00781543 0.00781521 0.00781581 0.00781577 0.00781507 0.00781544 0.00781525 0.00781491 0.00781544 0.00781516 0.00781496 0.00781509 0.00781505 0.00781475 0.00781524 0.00781515 0.00781499 0.00781487 0.00781479 0.00781426 0.00781457 0.00781486 0.00781463 0.00781451 0.00781455 0.0078143 0.00781435 0.00781464 0.00781429 0.00781421 0.00781429 0.00781394 0.00781442 0.00781438 0.00781413 0.00781429 0.00781396 0.00781408 0.00781454 0.00781406 0.00781383 0.00781401 0.00781397 0.0078136 0.00781402 0.00781367 0.00781366 0.00781377 0.00781386 0.00781349 0.00781366 0.00781377 0.00781373 0.00781349 0.00781367 0.00781349 0.00781345 0.0078137 0.0078131 0.00781346 0.00781365 0.00781309 0.00781353 0.00781345 0.00781333 0.00781326 0.00781297 0.00781298 0.00781316 0.00781307 0.0078132 0.00781325 0.00781306 0.00781296 0.00781292 0.00781326 0.00781285 0.00781316 0.0078128 0.00781308 0.00781301 0.00781297 0.00781293 0.00781289 0.00781297 0.00781287 0.0078127 0.00781291 0.00781269 0.00781262 0.00781307 0.00781264 0.00781293 0.00781291 0.00781296 0.00781277 0.00781281 0.00781251 0.00781266 0.0078127 0.00781277 0.00781299 0.00781276 0.00781251 0.00781274 0.0078129 0.00781245 0.00781235 0.00781242 0.00781255 0.00781258 0.00781254 0.00781256 0.00781242 0.00781247 0.0078123 0.00781268 0.00781285 0.00781238 0.00781265 0.00781243 0.00781225 0.0078123 0.00781245 0.00781255 0.0078127 0.00781263 0.00781251 0.00781271 0.00781242 0.00781253 0.00781242 0.00780584 0.00780101 0.00779813 0.00779341 0.00780328 0.00779983 0.00780679 0.00780576 0.00780514 0.00780254 0.00780536 0.00780417 0.00780731 0.00780636 0.00780759 0.00780512 0.00780602 0.00780572 0.00780749 0.00780648 0.00780767 0.00780629 0.00780664 0.0078067 0.00780782 0.00780696 0.00780789 0.00780705 0.00780711 0.00780744 0.0078081 0.00780752 0.00780809 0.00780767 0.00780755 0.00780791 0.00780835 0.00780785 0.00780856 0.00780819 0.00780794 0.00780816 0.00780878 0.00780828 0.00780869 0.00780852 0.00780845 0.00780868 0.00780891 0.00780856 0.00780915 0.00780895 0.0078089 0.00780878 0.00780938 0.007809 0.00780945 0.0078092 0.00780893 0.00780925 0.00780976 0.00780936 0.00780975 0.0078094 0.00780948 0.00780965 0.00781005 0.00780954 0.00780995 0.00780982 0.00780971 0.00780993 0.00781017 0.00780998 0.00781017 0.00781006 0.00781024 0.00781008 0.00781061 0.00781011 0.00781034 0.00781022 0.00781026 0.00781032 0.00781056 0.00781053 0.00781089 0.00781048 0.0078106 0.00781053 0.00781101 0.00781038 0.00781114 0.00781083 0.00781089 0.00781092 0.00781118 0.00781099 0.00781094 0.00781092 0.00781136 0.00781108 0.0078109 0.0078114 0.00781114 0.00781148 0.00781109 0.00781133 0.00781137 0.0078114 0.00781134 0.00781131 0.00781131 0.00781156 0.00781151 0.00781154 0.00781157 0.00781132 0.00781142 0.00781166 0.00781167 0.00781192 0.00781171 0.00781175 0.00781178 0.00781176 0.00781192 0.00781179 0.00781175 0.00781201 0.00781196 0.00781194 0.00781199 0.007812 0.00781201 0.0078121 0.00781177 0.00781189 0.0078122 0.00781236 0.00781212 0.00781214 0.00781197 0.00781207 0.00781233 0.00781232 0.00781212 0.00781219 0.00781175 0.00781202 0.00781238 0.00781222 0.0078121 0.00781225 0.0078123 0.00781243 0.00781225 0.00781235 0.00781223 0.0078125 0.00781245 0.00781229 0.00781236 0.00781231 0.00781237 0.00781261 0.0078125 0.00781222 0.00781265 0.00781259 0.00781215 0.00781235 0.00781292 0.00781243 0.0078125 0.00781231 0.00781263 0.00781243 0.00781261 0.00781249 0.00781252 0.00781252 0.00781272 0.00781254 0.0078127 0.00781233 0.00781253 0.00781284 0.00781258 0.00781251 0.0078126 0.00781259 0.00780845 0.00780651 0.00780242 0.00780166 0.00780156 0.00780238 0.0078086 0.00780753 0.00780507 0.00780477 0.00780595 0.00780617 0.00780859 0.00780777 0.00780776 0.00780661 0.00780757 0.00780755 0.00780887 0.00780812 0.00780891 0.00780781 0.00780827 0.0078083 0.0078092 0.00780859 0.00780922 0.00780844 0.00780868 0.00780875 0.00780952 0.00780888 0.00780951 0.00780911 0.00780906 0.00780921 0.00780963 0.00780911 0.0078097 0.00780936 0.00780921 0.00780945 0.0078098 0.00780925 0.00780994 0.00780976 0.00780963 0.00780974 0.00781001 0.00780963 0.00781013 0.00781 0.0078099 0.00780995 0.00781026 0.00780974 0.00781041 0.0078103 0.00780996 0.0078103 0.00781036 0.00781008 0.00781065 0.00781029 0.00781033 0.00781052 0.00781052 0.00781017 0.00781075 0.00781048 0.00781057 0.00781051 0.00781079 0.0078104 0.00781082 0.00781086 0.00781078 0.0078109 0.00781076 0.0078107 0.0078111 0.00781077 0.00781101 0.00781083 0.00781104 0.0078109 0.0078112 0.00781109 0.00781092 0.00781135 0.00781124 0.00781122 0.00781159 0.00781124 0.00781118 0.00781106 0.00781147 0.00781121 0.00781145 0.0078115 0.00781133 0.00781132 0.00781165 0.00781149 0.00781185 0.00781137 0.00781139 0.00781167 0.00781164 0.00781146 0.00781194 0.00781163 0.00781182 0.00781172 0.00781197 0.00781156 0.00781211 0.0078119 0.00781181 0.00781182 0.00781196 0.00781173 0.00781199 0.00781193 0.00781197 0.00781176 0.00781215 0.00781195 0.00781222 0.00781214 0.00781206 0.00781183 0.00781212 0.00781202 0.00781215 0.00781226 0.00781197 0.00781205 0.00781228 0.00781196 0.00781226 0.00781232 0.00781228 0.0078122 0.00781226 0.00781207 0.00781229 0.00781243 0.0078126 0.00781225 0.00781248 0.00781234 0.00781237 0.00781245 0.00781251 0.0078121 0.00781215 0.00781226 0.00781236 0.00781278 0.00781256 0.00781215 0.00781254 0.00781235 0.00781249 0.00781258 0.00781264 0.00781246 0.00781243 0.00781226 0.0078125 0.00781246 0.00781255 0.00781228 0.00781254 0.00781262 0.00781265 0.00781235 0.00781259 0.00781236 0.0078125 0.00781261 0.00781242 0.00781259 0.00781259 0.0078126 0.00781267 0.00781254 0.00781252 0.00781241 0.00781223 0.0078125 0.00781083 0.00780912 0.00780682 0.00780618 0.00780493 0.00780634 0.00781084 0.00780961 0.00780834 0.00780768 0.0078076 0.00780819 0.00781045 0.00780943 0.00780957 0.00780869 0.00780922 0.00780941 0.00781036 0.00780983 0.00781024 0.00780984 0.00780958 0.00780997 0.00781052 0.00780984 0.00781079 0.00781015 0.00781014 0.00781036 0.00781067 0.00781004 0.00781086 0.00781044 0.00781024 0.0078105 0.00781068 0.00781025 0.00781092 0.00781055 0.00781049 0.0078106 0.007811 0.00781018 0.00781119 0.00781076 0.00781062 0.00781086 0.0078111 0.00781043 0.00781127 0.00781097 0.00781086 0.00781107 0.00781113 0.00781062 0.00781146 0.00781106 0.00781099 0.00781122 0.00781133 0.00781096 0.00781155 0.00781124 0.00781089 0.00781125 0.00781123 0.00781114 0.00781146 0.00781118 0.00781148 0.00781144 0.00781137 0.00781117 0.00781168 0.00781155 0.00781149 0.00781153 0.0078116 0.00781143 0.00781181 0.00781183 0.00781154 0.00781144 0.00781174 0.00781142 0.00781175 0.00781169 0.00781155 0.00781187 0.0078117 0.00781165 0.00781192 0.00781156 0.00781185 0.00781176 0.0078117 0.00781146 0.00781218 0.00781196 0.00781175 0.00781184 0.00781169 0.0078118 0.00781203 0.00781198 0.00781185 0.00781203 0.00781174 0.0078123 0.00781212 0.00781236 0.00781186 0.00781185 0.00781203 0.00781173 0.00781224 0.0078119 0.00781201 0.00781201 0.00781222 0.00781191 0.00781225 0.00781219 0.00781221 0.00781221 0.00781229 0.00781196 0.00781231 0.00781223 0.00781202 0.00781209 0.00781216 0.00781197 0.0078124 0.00781206 0.00781237 0.00781233 0.00781234 0.00781207 0.00781247 0.00781224 0.00781254 0.0078126 0.00781228 0.00781229 0.00781232 0.00781255 0.00781244 0.00781262 0.00781248 0.00781207 0.00781242 0.00781223 0.00781239 0.00781262 0.00781251 0.00781231 0.00781238 0.00781214 0.00781237 0.00781263 0.00781237 0.0078125 0.00781244 0.00781228 0.00781239 0.00781251 0.00781255 0.00781252 0.00781275 0.00781257 0.00781246 0.00781262 0.00781248 0.00781256 0.00781246 0.00781254 0.00781238 0.00781238 0.00781264 0.00781223 0.00781258 0.0078126 0.00781261 0.00781267 0.00781238 0.00781273 0.00781225 0.00781234 0.0078125 0.00781236 0.00781343 0.00781169 0.00781122 0.00781042 0.00780862 0.00781004 0.00781311 0.00781179 0.00781183 0.0078107 0.00780999 0.0078109 0.00781246 0.00781149 0.00781209 0.00781102 0.00781087 0.00781129 0.00781218 0.0078113 0.00781225 0.00781142 0.00781133 0.00781163 0.00781212 0.0078113 0.00781222 0.00781164 0.00781139 0.00781186 0.00781201 0.00781137 0.00781228 0.00781173 0.00781154 0.00781177 0.00781197 0.00781144 0.00781211 0.00781188 0.00781166 0.00781191 0.00781206 0.00781147 0.0078122 0.00781199 0.00781182 0.00781195 0.00781205 0.00781153 0.00781237 0.00781202 0.00781173 0.00781202 0.00781204 0.00781161 0.0078124 0.00781204 0.00781182 0.00781203 0.00781213 0.00781175 0.00781241 0.00781209 0.00781196 0.00781196 0.00781213 0.00781183 0.00781233 0.00781215 0.00781216 0.00781211 0.00781201 0.00781192 0.00781239 0.00781241 0.00781201 0.00781197 0.00781214 0.00781196 0.00781245 0.0078123 0.007812 0.00781208 0.00781215 0.00781204 0.00781246 0.00781209 0.00781243 0.0078123 0.00781221 0.00781186 0.00781232 0.00781219 0.00781226 0.00781252 0.00781235 0.00781223 0.00781222 0.00781238 0.00781213 0.0078123 0.00781217 0.00781209 0.0078124 0.00781238 0.00781237 0.00781231 0.00781229 0.00781223 0.00781269 0.00781261 0.00781248 0.00781232 0.00781229 0.00781246 0.00781228 0.00781244 0.0078124 0.00781223 0.0078125 0.0078123 0.00781229 0.00781228 0.00781238 0.00781251 0.00781242 0.00781219 0.00781248 0.00781243 0.00781253 0.00781244 0.00781249 0.00781242 0.00781249 0.00781238 0.00781242 0.0078125 0.00781247 0.00781218 0.00781264 0.00781253 0.00781246 0.00781238 0.00781236 0.00781216 0.00781255 0.00781237 0.00781239 0.00781246 0.00781234 0.0078124 0.00781248 0.00781268 0.0078125 0.00781251 0.00781221 0.00781232 0.00781236 0.00781234 0.00781258 0.00781247 0.00781231 0.00781252 0.0078128 0.0078126 0.00781223 0.00781241 0.00781273 0.00781254 0.00781281 0.00781251 0.00781241 0.00781227 0.00781243 0.00781215 0.00781242 0.00781258 0.0078128 0.00781254 0.00781239 0.00781265 0.00781241 0.00781275 0.0078127 0.0078124 0.00781261 0.00781252 0.00781263 0.00781255 0.00781292 0.00781266 0.00781638 0.00781478 0.00781573 0.00781432 0.00781258 0.00781373 0.00781514 0.00781428 0.00781515 0.00781378 0.00781271 0.00781334 0.00781429 0.00781324 0.00781454 0.00781342 0.00781291 0.00781341 0.00781373 0.00781291 0.0078141 0.00781342 0.00781296 0.00781329 0.0078133 0.00781284 0.0078138 0.00781336 0.00781287 0.00781314 0.00781325 0.00781266 0.00781357 0.00781311 0.00781285 0.00781311 0.00781309 0.00781257 0.00781343 0.00781324 0.00781306 0.00781306 0.00781322 0.00781241 0.00781327 0.00781308 0.00781293 0.00781302 0.0078131 0.0078125 0.00781324 0.00781313 0.00781261 0.00781291 0.00781293 0.00781271 0.00781337 0.00781298 0.00781258 0.00781284 0.00781304 0.00781263 0.0078132 0.00781287 0.0078128 0.00781289 0.00781276 0.00781254 0.00781322 0.00781317 0.00781285 0.00781283 0.00781289 0.00781258 0.00781314 0.00781279 0.00781295 0.00781292 0.00781293 0.00781265 0.00781295 0.00781296 0.00781268 0.00781289 0.00781254 0.00781266 0.00781277 0.00781274 0.00781263 0.00781285 0.00781272 0.0078125 0.00781303 0.00781274 0.00781272 0.00781272 0.00781269 0.00781232 0.00781296 0.00781301 0.0078127 0.0078128 0.00781271 0.00781255 0.00781297 0.00781269 0.00781293 0.00781272 0.00781262 0.00781279 0.00781269 0.00781269 0.00781253 0.00781253 0.00781255 0.0078124 0.00781305 0.00781267 0.00781255 0.00781268 0.00781275 0.00781252 0.00781292 0.00781283 0.00781252 0.00781252 0.00781248 0.0078125 0.00781289 0.00781248 0.00781235 0.00781252 0.00781233 0.00781232 0.00781273 0.0078126 0.00781274 0.00781266 0.00781259 0.00781284 0.00781244 0.00781283 0.00781257 0.00781278 0.00781245 0.00781254 0.00781278 0.00781261 0.00781236 0.00781266 0.00781263 0.00781256 0.00781257 0.00781267 0.00781255 0.00781273 0.0078125 0.00781239 0.00781288 0.00781251 0.00781243 0.00781258 0.00781259 0.00781256 0.00781269 0.00781257 0.00781221 0.00781258 0.00781244 0.00781245 0.00781262 0.0078126 0.00781242 0.00781224 0.00781259 0.00781217 0.00781255 0.00781252 0.00781248 0.00781241 0.00781271 0.00781257 0.00781267 0.00781243 0.00781258 0.00781232 0.00781249 0.00781222 0.00781247 0.00781257 0.00781283 0.00781259 0.00781917 0.00781766 0.0078206 0.00781825 0.00781633 0.00781739 0.00781703 0.00781615 0.00781888 0.00781685 0.0078155 0.00781606 0.0078157 0.00781515 0.00781667 0.00781573 0.00781479 0.00781527 0.0078152 0.00781438 0.00781562 0.00781524 0.00781455 0.00781481 0.00781504 0.00781413 0.0078152 0.00781491 0.00781431 0.00781463 0.00781462 0.00781384 0.00781483 0.00781453 0.00781416 0.00781458 0.00781431 0.00781382 0.0078147 0.00781434 0.00781396 0.0078142 0.00781429 0.00781349 0.00781446 0.00781436 0.00781381 0.00781426 0.00781399 0.00781359 0.00781434 0.00781401 0.00781376 0.00781394 0.00781388 0.00781359 0.0078141 0.00781386 0.00781371 0.00781403 0.0078138 0.00781324 0.00781405 0.00781399 0.00781366 0.00781392 0.00781382 0.0078133 0.00781379 0.0078138 0.00781342 0.00781381 0.00781358 0.00781335 0.00781376 0.00781347 0.00781358 0.00781353 0.00781347 0.00781302 0.00781359 0.00781362 0.00781345 0.00781327 0.00781336 0.00781319 0.00781337 0.00781355 0.00781346 0.00781344 0.00781333 0.00781311 0.00781324 0.00781332 0.00781322 0.00781348 0.00781323 0.00781308 0.00781314 0.00781323 0.007813 0.00781319 0.00781307 0.00781284 0.0078133 0.00781329 0.00781288 0.00781311 0.00781283 0.00781289 0.00781303 0.00781298 0.00781329 0.00781296 0.00781259 0.00781305 0.00781293 0.00781308 0.00781273 0.00781303 0.00781278 0.0078128 0.007813 0.00781297 0.00781297 0.0078129 0.00781249 0.00781304 0.00781288 0.0078127 0.00781271 0.00781288 0.00781266 0.00781261 0.00781306 0.00781279 0.00781247 0.00781302 0.0078127 0.00781249 0.007813 0.00781252 0.00781286 0.00781285 0.0078127 0.00781251 0.00781253 0.00781229 0.00781259 0.00781272 0.00781259 0.00781238 0.00781288 0.0078129 0.00781277 0.00781266 0.00781279 0.00781253 0.0078125 0.00781252 0.00781238 0.00781248 0.00781267 0.00781248 0.00781238 0.00781258 0.00781249 0.00781261 0.00781258 0.00781241 0.00781278 0.00781261 0.00781243 0.00781256 0.00781278 0.00781248 0.0078125 0.00781246 0.00781238 0.00781242 0.00781238 0.00781249 0.00781286 0.00781264 0.00781231 0.00781256 0.00781244 0.00781251 0.00781261 0.00781269 0.00781236 0.00781233 0.00782168 0.00782021 0.00782592 0.00782258 0.00781992 0.00782095 0.00781821 0.00781784 0.00782111 0.00781974 0.0078177 0.00781856 0.00781713 0.00781648 0.00781821 0.0078179 0.00781657 0.00781719 0.00781648 0.00781591 0.00781696 0.00781685 0.0078161 0.00781644 0.00781615 0.00781546 0.00781651 0.00781635 0.00781577 0.0078159 0.00781598 0.00781529 0.00781617 0.00781598 0.00781538 0.0078156 0.00781549 0.00781503 0.00781576 0.00781554 0.00781522 0.00781529 0.0078154 0.00781483 0.00781546 0.00781528 0.00781498 0.00781509 0.00781528 0.00781464 0.00781534 0.00781513 0.00781484 0.00781498 0.00781494 0.00781447 0.00781513 0.007815 0.00781459 0.00781472 0.00781466 0.00781421 0.00781495 0.00781467 0.00781447 0.0078147 0.00781446 0.00781398 0.00781467 0.00781446 0.0078143 0.00781423 0.00781431 0.00781403 0.00781434 0.00781432 0.00781423 0.00781437 0.00781432 0.00781382 0.00781417 0.00781422 0.007814 0.00781406 0.00781382 0.00781359 0.00781389 0.00781388 0.00781405 0.00781398 0.00781359 0.00781354 0.00781382 0.0078139 0.00781385 0.00781359 0.00781339 0.00781316 0.00781366 0.00781378 0.00781366 0.00781358 0.00781354 0.00781318 0.00781368 0.00781362 0.00781338 0.00781366 0.00781338 0.00781312 0.0078134 0.00781327 0.00781344 0.00781328 0.00781333 0.00781309 0.00781326 0.0078134 0.00781303 0.00781311 0.00781315 0.00781308 0.00781323 0.00781318 0.0078131 0.00781287 0.00781294 0.00781316 0.00781304 0.00781313 0.00781292 0.00781304 0.00781278 0.00781315 0.00781279 0.00781298 0.00781299 0.00781291 0.00781285 0.00781284 0.00781273 0.00781283 0.00781292 0.00781284 0.00781271 0.00781276 0.00781261 0.00781314 0.00781273 0.00781276 0.00781276 0.00781269 0.00781273 0.00781277 0.00781258 0.00781286 0.00781254 0.00781266 0.00781249 0.00781247 0.00781278 0.00781267 0.00781284 0.00781226 0.00781273 0.00781271 0.00781266 0.00781264 0.00781245 0.00781263 0.00781229 0.0078126 0.00781243 0.00781224 0.00781249 0.00781231 0.00781264 0.00781276 0.00781234 0.00781242 0.00781233 0.00781282 0.00781251 0.0078126 0.00781241 0.00781254 0.00781251 0.00781256 0.00781242 0.00781229 0.00781252 0.00781261 0.00782359 0.00782219 0.00783435 0.00782738 0.00782298 0.0078246 0.0078188 0.00781902 0.00781912 0.00782186 0.00781925 0.00782019 0.00781865 0.00781798 0.00781822 0.00781927 0.00781809 0.00781853 0.00781816 0.0078174 0.00781819 0.00781833 0.00781744 0.00781755 0.00781768 0.00781697 0.00781773 0.00781769 0.00781679 0.00781731 0.00781723 0.00781667 0.00781764 0.00781708 0.00781672 0.00781696 0.00781697 0.00781621 0.00781687 0.00781681 0.00781633 0.00781662 0.00781656 0.00781592 0.00781679 0.00781636 0.00781603 0.0078162 0.00781616 0.00781558 0.00781638 0.00781602 0.00781586 0.00781588 0.00781618 0.00781528 0.00781587 0.00781594 0.00781531 0.00781561 0.00781568 0.00781516 0.00781567 0.00781549 0.00781501 0.00781538 0.00781523 0.00781491 0.00781552 0.00781516 0.00781506 0.00781513 0.00781505 0.00781453 0.00781509 0.00781495 0.00781494 0.00781488 0.00781482 0.00781442 0.00781473 0.00781461 0.00781452 0.00781438 0.00781451 0.00781407 0.00781479 0.00781458 0.00781426 0.00781445 0.00781431 0.00781427 0.00781432 0.00781434 0.00781415 0.00781428 0.00781419 0.00781388 0.00781407 0.00781413 0.00781391 0.00781407 0.00781408 0.00781382 0.00781355 0.00781389 0.00781382 0.00781392 0.0078135 0.00781339 0.00781368 0.00781387 0.00781363 0.00781358 0.00781357 0.00781328 0.0078133 0.00781363 0.00781344 0.00781344 0.00781349 0.00781344 0.00781365 0.00781352 0.00781309 0.00781322 0.00781342 0.00781326 0.00781323 0.00781293 0.00781321 0.00781317 0.00781305 0.00781305 0.00781328 0.007813 0.00781303 0.00781288 0.00781293 0.00781287 0.00781271 0.00781312 0.00781285 0.00781299 0.00781301 0.00781287 0.00781295 0.00781283 0.00781289 0.00781285 0.00781287 0.00781254 0.00781277 0.00781305 0.0078128 0.00781266 0.00781277 0.00781276 0.00781262 0.0078127 0.00781273 0.00781271 0.00781256 0.00781261 0.00781256 0.00781263 0.0078127 0.00781243 0.00781215 0.00781235 0.0078126 0.00781272 0.00781268 0.00781251 0.00781272 0.00781257 0.00781252 0.00781279 0.00781232 0.00781235 0.00781258 0.00781275 0.00781257 0.00781256 0.00781248 0.00781222 0.00781223 0.00781257 0.0078126 0.00781258 0.00781241 0.00781234 0.0078054 0.00780056 0.00779804 0.00779316 0.00780289 0.00779926 0.00780675 0.0078057 0.00780474 0.00780248 0.00780525 0.00780377 0.00780716 0.00780607 0.00780713 0.00780493 0.00780615 0.00780571 0.00780748 0.00780646 0.00780767 0.00780604 0.00780642 0.00780654 0.0078078 0.00780695 0.00780774 0.00780711 0.00780688 0.00780723 0.007808 0.00780766 0.00780802 0.00780763 0.00780774 0.00780788 0.00780843 0.00780775 0.00780841 0.00780794 0.0078082 0.00780813 0.00780871 0.00780833 0.00780888 0.00780868 0.00780849 0.00780855 0.00780913 0.00780862 0.00780907 0.00780889 0.00780882 0.00780913 0.00780927 0.00780886 0.0078096 0.00780915 0.00780922 0.00780938 0.00780972 0.00780935 0.00780968 0.00780952 0.00780931 0.00780956 0.00780995 0.00780974 0.00780989 0.00780989 0.00781004 0.00780981 0.00781025 0.00780981 0.00781028 0.00780992 0.00780983 0.00781035 0.00781047 0.00781024 0.00781052 0.00781037 0.00781026 0.00781033 0.0078103 0.00781061 0.00781077 0.00781068 0.00781049 0.00781059 0.00781067 0.00781076 0.00781102 0.00781092 0.00781078 0.00781074 0.00781121 0.0078108 0.00781098 0.0078112 0.00781105 0.00781086 0.00781096 0.00781124 0.00781118 0.00781143 0.00781128 0.00781104 0.00781155 0.00781127 0.00781151 0.00781155 0.00781138 0.00781128 0.00781153 0.00781124 0.0078116 0.00781147 0.0078116 0.00781179 0.00781195 0.00781182 0.00781186 0.00781181 0.00781149 0.0078119 0.00781186 0.0078118 0.00781182 0.00781163 0.00781156 0.00781151 0.00781195 0.00781208 0.00781184 0.00781219 0.00781215 0.00781198 0.00781195 0.00781244 0.00781215 0.00781221 0.00781202 0.00781209 0.007812 0.00781214 0.00781231 0.00781201 0.00781219 0.00781201 0.00781218 0.00781213 0.00781251 0.00781255 0.00781239 0.00781227 0.0078125 0.00781196 0.00781232 0.00781233 0.00781224 0.0078123 0.00781222 0.00781249 0.00781244 0.00781248 0.00781261 0.00781225 0.00781247 0.00781243 0.00781254 0.00781244 0.00781272 0.00781256 0.00781251 0.00781243 0.00781229 0.0078123 0.00781257 0.00781249 0.00781261 0.00781238 0.0078122 0.00781224 0.00781236 0.00781258 0.00781247 0.00781232 0.00781275 0.00781258 0.00781296 0.00781277 0.00780824 0.00780609 0.0078023 0.00780151 0.00780139 0.00780251 0.00780845 0.00780759 0.00780499 0.00780454 0.00780582 0.00780573 0.00780858 0.00780789 0.00780757 0.00780666 0.00780728 0.00780722 0.00780894 0.00780815 0.00780872 0.00780779 0.00780792 0.00780816 0.00780898 0.00780838 0.00780931 0.00780852 0.00780863 0.00780876 0.00780939 0.00780867 0.00780973 0.00780906 0.0078089 0.00780923 0.00780952 0.00780905 0.00780976 0.00780952 0.00780918 0.0078095 0.00780991 0.00780935 0.00780987 0.00780961 0.00780953 0.00780979 0.00781002 0.00780939 0.00781026 0.00780991 0.00780982 0.00780996 0.0078102 0.00780994 0.00781045 0.00781027 0.00781004 0.00781018 0.00781034 0.00780989 0.00781058 0.00781039 0.00781052 0.00781047 0.00781067 0.00781032 0.00781073 0.00781062 0.00781057 0.0078106 0.00781084 0.0078105 0.00781087 0.00781078 0.00781072 0.00781099 0.00781074 0.00781054 0.00781128 0.00781079 0.00781079 0.00781101 0.00781121 0.00781096 0.0078113 0.00781125 0.0078108 0.00781116 0.00781126 0.00781123 0.00781146 0.00781121 0.00781109 0.00781133 0.00781149 0.00781147 0.00781154 0.00781143 0.00781182 0.00781162 0.00781155 0.00781146 0.00781175 0.00781132 0.00781161 0.00781165 0.00781163 0.00781159 0.0078118 0.0078117 0.00781165 0.00781168 0.00781207 0.00781169 0.00781184 0.00781179 0.00781171 0.00781187 0.00781192 0.00781175 0.00781215 0.00781197 0.00781214 0.00781187 0.0078121 0.00781176 0.00781224 0.00781216 0.00781205 0.00781209 0.00781223 0.00781205 0.00781229 0.00781203 0.0078122 0.00781221 0.00781233 0.0078121 0.00781221 0.00781234 0.00781218 0.00781223 0.00781245 0.00781224 0.00781225 0.00781189 0.00781219 0.00781227 0.00781223 0.00781225 0.00781246 0.0078123 0.00781235 0.00781221 0.00781253 0.00781214 0.00781222 0.00781244 0.00781244 0.00781225 0.00781237 0.00781249 0.00781243 0.0078124 0.00781244 0.00781228 0.00781237 0.00781249 0.00781249 0.0078122 0.00781239 0.00781226 0.00781255 0.00781225 0.0078124 0.00781247 0.00781287 0.00781265 0.00781226 0.00781238 0.0078124 0.00781263 0.0078126 0.00781259 0.00781263 0.00781257 0.00781252 0.00781247 0.00781257 0.00781263 0.00781085 0.00780887 0.00780677 0.00780608 0.00780491 0.00780637 0.00781094 0.00780969 0.00780815 0.00780753 0.00780739 0.00780805 0.00781044 0.00780957 0.00780952 0.0078089 0.00780883 0.00780929 0.0078103 0.00780959 0.00781027 0.00780977 0.00780961 0.0078099 0.0078106 0.00780984 0.0078107 0.0078102 0.00780999 0.00781002 0.00781062 0.00781012 0.00781091 0.00781054 0.00781023 0.00781052 0.00781053 0.00781019 0.00781105 0.00781056 0.00781063 0.00781072 0.00781096 0.00781021 0.00781111 0.00781091 0.0078108 0.00781073 0.00781106 0.00781044 0.00781122 0.00781108 0.00781081 0.00781097 0.00781115 0.0078108 0.00781143 0.00781123 0.00781089 0.00781097 0.00781123 0.00781083 0.00781144 0.00781149 0.00781114 0.00781145 0.00781133 0.00781089 0.00781156 0.00781118 0.00781137 0.00781144 0.00781147 0.00781111 0.00781151 0.00781153 0.00781135 0.00781154 0.00781157 0.00781136 0.0078119 0.00781161 0.00781141 0.00781157 0.00781181 0.00781134 0.00781197 0.00781171 0.00781156 0.00781182 0.00781162 0.0078116 0.007812 0.00781181 0.0078118 0.00781191 0.00781195 0.00781159 0.00781206 0.00781177 0.00781178 0.00781198 0.00781186 0.00781181 0.00781192 0.0078118 0.00781179 0.00781184 0.00781195 0.00781178 0.0078121 0.00781181 0.00781211 0.00781215 0.00781212 0.00781197 0.00781214 0.00781215 0.00781219 0.00781198 0.00781226 0.00781206 0.0078122 0.00781223 0.0078122 0.00781202 0.00781212 0.00781225 0.00781237 0.00781237 0.00781215 0.00781229 0.00781239 0.00781221 0.00781237 0.00781216 0.00781232 0.00781223 0.00781239 0.00781199 0.00781224 0.00781234 0.00781242 0.00781226 0.00781248 0.00781229 0.00781228 0.0078124 0.00781227 0.0078124 0.00781253 0.00781226 0.00781274 0.0078123 0.00781219 0.00781232 0.00781246 0.0078124 0.00781254 0.0078125 0.00781239 0.00781242 0.0078122 0.00781254 0.00781284 0.00781254 0.00781248 0.00781251 0.00781247 0.00781249 0.0078126 0.00781251 0.00781221 0.00781249 0.00781248 0.00781245 0.00781252 0.00781249 0.00781248 0.00781237 0.00781253 0.00781258 0.00781267 0.00781247 0.00781243 0.00781248 0.00781241 0.00781243 0.00781233 0.00781252 0.00781267 0.00781296 0.00781374 0.00781182 0.00781128 0.00781037 0.0078087 0.00780993 0.00781334 0.00781192 0.00781161 0.00781075 0.00780982 0.00781064 0.00781246 0.00781153 0.00781184 0.00781113 0.00781067 0.00781134 0.00781207 0.00781132 0.00781218 0.00781151 0.00781132 0.00781159 0.00781189 0.00781129 0.00781218 0.00781187 0.00781153 0.00781172 0.00781187 0.00781139 0.00781228 0.00781206 0.00781166 0.00781188 0.00781198 0.00781145 0.0078121 0.00781199 0.00781165 0.00781192 0.00781204 0.00781142 0.00781246 0.00781206 0.00781164 0.00781208 0.00781208 0.00781164 0.00781227 0.00781195 0.00781202 0.0078121 0.00781221 0.00781158 0.00781225 0.00781201 0.00781182 0.00781194 0.00781202 0.00781167 0.00781235 0.00781217 0.00781198 0.00781202 0.00781207 0.00781177 0.00781221 0.00781197 0.00781232 0.00781226 0.00781217 0.00781172 0.00781254 0.00781232 0.00781219 0.00781207 0.00781193 0.00781184 0.00781235 0.00781243 0.00781211 0.00781223 0.00781205 0.0078119 0.0078125 0.00781252 0.00781224 0.00781245 0.00781231 0.007812 0.00781228 0.00781228 0.00781211 0.00781228 0.00781236 0.00781205 0.00781231 0.00781222 0.00781215 0.00781237 0.00781227 0.00781214 0.00781255 0.00781219 0.00781258 0.00781213 0.00781244 0.00781215 0.00781251 0.00781257 0.00781242 0.0078121 0.00781254 0.00781206 0.00781253 0.00781263 0.00781269 0.00781249 0.0078122 0.00781233 0.00781243 0.00781256 0.00781258 0.00781233 0.00781254 0.00781232 0.00781243 0.00781242 0.00781241 0.00781245 0.00781223 0.00781236 0.00781253 0.00781236 0.00781254 0.00781239 0.00781238 0.00781236 0.00781244 0.00781253 0.00781243 0.00781239 0.00781234 0.00781201 0.0078125 0.00781247 0.0078126 0.00781229 0.00781238 0.00781246 0.00781237 0.00781272 0.00781255 0.00781228 0.00781254 0.00781224 0.00781231 0.00781267 0.00781255 0.00781267 0.00781226 0.00781273 0.00781251 0.00781254 0.00781251 0.00781241 0.00781242 0.0078125 0.00781267 0.00781284 0.00781221 0.00781242 0.0078126 0.00781221 0.00781242 0.00781229 0.00781245 0.00781246 0.00781259 0.00781234 0.00781262 0.00781294 0.00781249 0.00781249 0.0078125 0.00781228 0.00781265 0.00781278 0.00781258 0.00781241 0.00781663 0.007815 0.00781575 0.00781435 0.00781264 0.00781383 0.00781528 0.00781416 0.00781522 0.00781403 0.00781275 0.00781347 0.00781448 0.00781338 0.00781457 0.00781374 0.00781296 0.00781333 0.00781374 0.00781293 0.00781404 0.00781328 0.00781285 0.00781336 0.0078135 0.00781249 0.00781386 0.00781334 0.00781277 0.00781336 0.00781324 0.00781261 0.00781349 0.00781321 0.00781291 0.00781338 0.00781307 0.00781263 0.00781346 0.00781317 0.00781312 0.00781304 0.00781305 0.00781275 0.0078133 0.00781304 0.00781278 0.00781308 0.00781315 0.00781241 0.00781337 0.00781296 0.00781298 0.00781293 0.00781271 0.00781248 0.00781313 0.00781309 0.00781294 0.00781288 0.00781279 0.00781268 0.00781337 0.00781316 0.00781291 0.00781296 0.00781285 0.00781256 0.00781313 0.00781299 0.00781287 0.00781283 0.00781292 0.00781249 0.00781306 0.00781299 0.00781275 0.00781312 0.00781267 0.00781241 0.00781286 0.00781272 0.0078127 0.00781286 0.00781262 0.00781276 0.00781312 0.00781304 0.00781264 0.00781271 0.00781268 0.0078125 0.00781312 0.0078128 0.00781287 0.0078127 0.00781276 0.00781255 0.0078129 0.0078129 0.00781271 0.00781242 0.00781264 0.00781242 0.00781295 0.00781289 0.00781255 0.00781287 0.00781246 0.00781271 0.00781305 0.00781278 0.00781246 0.00781281 0.00781243 0.00781247 0.00781286 0.00781278 0.0078129 0.00781276 0.00781248 0.00781252 0.00781257 0.00781294 0.00781285 0.00781271 0.00781245 0.00781263 0.00781262 0.00781272 0.00781263 0.00781284 0.00781259 0.0078126 0.00781267 0.00781252 0.00781273 0.00781269 0.00781248 0.00781225 0.00781265 0.00781245 0.00781252 0.00781272 0.00781256 0.00781276 0.00781246 0.00781248 0.00781249 0.00781251 0.00781258 0.00781263 0.00781278 0.00781252 0.00781269 0.0078124 0.00781245 0.00781234 0.00781243 0.00781266 0.00781254 0.00781235 0.00781263 0.00781256 0.00781263 0.00781262 0.0078126 0.00781254 0.00781234 0.00781272 0.00781267 0.0078128 0.00781243 0.00781214 0.00781242 0.00781258 0.00781259 0.00781255 0.00781254 0.00781248 0.00781251 0.0078124 0.00781252 0.00781262 0.00781271 0.00781251 0.00781264 0.00781265 0.00781239 0.00781233 0.00781254 0.00781223 0.00781935 0.00781785 0.00782064 0.00781854 0.00781642 0.00781737 0.00781718 0.0078162 0.00781888 0.00781708 0.00781544 0.00781641 0.00781591 0.00781517 0.00781686 0.00781603 0.00781504 0.00781565 0.00781529 0.00781466 0.0078158 0.00781542 0.00781443 0.00781497 0.00781478 0.007814 0.00781531 0.00781489 0.00781439 0.00781468 0.0078147 0.0078138 0.00781486 0.00781465 0.00781417 0.00781454 0.00781441 0.00781382 0.00781476 0.00781441 0.00781412 0.0078142 0.00781423 0.00781374 0.00781451 0.00781434 0.00781392 0.00781419 0.00781414 0.0078136 0.00781437 0.00781391 0.00781389 0.00781405 0.00781392 0.00781358 0.00781422 0.00781405 0.00781368 0.00781402 0.00781396 0.00781356 0.00781389 0.00781378 0.00781367 0.00781362 0.00781371 0.00781346 0.0078138 0.0078139 0.00781356 0.00781357 0.0078136 0.00781325 0.00781365 0.00781367 0.00781357 0.0078138 0.00781379 0.00781313 0.00781359 0.00781337 0.00781343 0.00781359 0.00781334 0.00781308 0.00781362 0.0078135 0.00781313 0.00781345 0.00781316 0.00781308 0.00781356 0.00781316 0.00781294 0.00781342 0.00781336 0.00781289 0.00781328 0.00781315 0.00781316 0.00781326 0.00781319 0.00781288 0.00781322 0.00781318 0.00781299 0.0078129 0.00781305 0.00781271 0.00781292 0.00781295 0.0078129 0.00781305 0.00781282 0.00781278 0.00781286 0.00781323 0.007813 0.00781291 0.00781293 0.00781266 0.00781283 0.00781312 0.00781284 0.00781287 0.0078125 0.00781283 0.00781295 0.00781285 0.00781267 0.00781303 0.00781277 0.0078125 0.00781287 0.00781287 0.00781276 0.00781285 0.00781252 0.00781247 0.0078127 0.00781271 0.00781281 0.00781254 0.00781264 0.00781242 0.00781263 0.00781309 0.0078127 0.00781272 0.00781272 0.00781272 0.00781261 0.00781255 0.00781259 0.00781226 0.0078124 0.00781263 0.00781254 0.00781259 0.00781263 0.00781245 0.00781253 0.00781257 0.00781273 0.00781269 0.00781264 0.00781278 0.00781232 0.0078127 0.00781264 0.00781255 0.00781226 0.00781232 0.00781249 0.00781258 0.00781255 0.00781277 0.00781274 0.00781266 0.0078125 0.00781259 0.00781217 0.00781268 0.00781272 0.00781231 0.00781244 0.00781244 0.00781235 0.00781268 0.00781255 0.00781251 0.0078221 0.00782065 0.00782612 0.00782285 0.00782018 0.00782135 0.00781852 0.00781802 0.00782135 0.00782006 0.00781788 0.0078189 0.00781744 0.0078167 0.00781841 0.00781835 0.00781679 0.0078176 0.00781664 0.00781613 0.00781707 0.00781703 0.00781624 0.00781673 0.00781628 0.00781558 0.00781653 0.00781651 0.00781569 0.00781607 0.00781591 0.00781529 0.00781619 0.00781615 0.00781545 0.00781579 0.00781555 0.00781512 0.00781601 0.00781574 0.00781521 0.00781545 0.0078153 0.00781462 0.00781553 0.00781533 0.00781494 0.00781524 0.0078151 0.00781467 0.00781537 0.00781525 0.00781486 0.00781509 0.00781483 0.00781443 0.0078152 0.00781487 0.00781461 0.00781478 0.00781461 0.00781416 0.007815 0.00781467 0.0078145 0.00781449 0.0078144 0.00781411 0.00781475 0.00781448 0.00781436 0.00781443 0.00781425 0.00781391 0.00781449 0.00781425 0.00781424 0.00781431 0.00781413 0.0078136 0.00781424 0.00781431 0.00781394 0.00781389 0.00781405 0.00781366 0.00781423 0.00781407 0.00781372 0.00781376 0.00781392 0.00781367 0.00781372 0.00781383 0.00781377 0.00781389 0.00781339 0.00781355 0.00781362 0.00781367 0.00781371 0.0078134 0.00781347 0.00781321 0.00781365 0.00781358 0.00781344 0.00781348 0.00781326 0.00781314 0.0078134 0.0078134 0.00781344 0.00781332 0.00781318 0.00781304 0.00781327 0.00781334 0.00781321 0.00781319 0.00781307 0.007813 0.0078134 0.00781315 0.00781316 0.0078131 0.00781286 0.00781298 0.00781307 0.0078132 0.00781291 0.00781324 0.00781267 0.00781278 0.0078131 0.00781307 0.00781278 0.00781313 0.00781285 0.00781269 0.00781274 0.00781304 0.0078127 0.00781264 0.00781273 0.0078128 0.00781292 0.00781286 0.00781294 0.00781247 0.00781259 0.00781282 0.00781273 0.00781265 0.00781263 0.00781257 0.0078124 0.00781266 0.00781255 0.00781285 0.0078126 0.00781291 0.00781276 0.00781268 0.00781256 0.00781239 0.00781247 0.00781259 0.00781267 0.00781262 0.00781245 0.00781284 0.00781226 0.00781262 0.00781212 0.00781244 0.0078126 0.00781263 0.00781242 0.00781256 0.00781247 0.00781258 0.00781242 0.00781217 0.00781271 0.00781251 0.00781248 0.00781226 0.00781246 0.00781249 0.00781271 0.00781239 0.00782399 0.00782264 0.00783508 0.00782798 0.0078231 0.00782496 0.0078193 0.00781925 0.00781932 0.0078221 0.00781949 0.00782066 0.0078186 0.00781792 0.0078185 0.00781955 0.0078184 0.00781898 0.00781825 0.0078175 0.0078184 0.00781843 0.00781743 0.00781792 0.00781788 0.007817 0.00781783 0.0078176 0.00781705 0.00781742 0.00781732 0.00781635 0.00781775 0.00781718 0.00781681 0.00781694 0.00781721 0.00781633 0.00781705 0.00781688 0.00781629 0.00781651 0.00781661 0.00781592 0.00781674 0.00781639 0.00781618 0.0078163 0.0078164 0.00781567 0.00781635 0.00781615 0.00781565 0.00781595 0.00781603 0.00781536 0.00781606 0.00781596 0.00781541 0.00781546 0.00781574 0.00781526 0.00781571 0.00781578 0.00781531 0.0078153 0.00781521 0.00781491 0.00781541 0.0078154 0.00781502 0.00781515 0.00781532 0.00781472 0.00781501 0.00781509 0.00781465 0.00781479 0.00781492 0.00781429 0.00781494 0.00781477 0.00781442 0.00781479 0.00781445 0.00781429 0.00781463 0.0078146 0.00781445 0.00781435 0.00781413 0.00781404 0.00781394 0.00781425 0.00781443 0.00781411 0.00781426 0.00781384 0.00781396 0.00781424 0.00781402 0.00781392 0.00781401 0.00781379 0.00781378 0.00781413 0.00781361 0.00781378 0.00781388 0.00781355 0.00781358 0.00781361 0.00781363 0.00781367 0.00781339 0.00781345 0.00781376 0.0078135 0.00781344 0.0078135 0.00781319 0.00781322 0.00781339 0.00781336 0.00781333 0.00781345 0.00781313 0.00781306 0.00781326 0.00781327 0.00781309 0.00781317 0.00781285 0.007813 0.0078129 0.00781306 0.00781302 0.00781317 0.00781281 0.00781286 0.00781269 0.007813 0.00781279 0.00781271 0.00781268 0.00781274 0.00781276 0.0078128 0.00781287 0.00781308 0.00781269 0.00781289 0.00781293 0.0078129 0.00781249 0.00781262 0.00781266 0.00781238 0.00781274 0.0078126 0.00781269 0.00781277 0.00781254 0.00781255 0.00781242 0.00781267 0.00781261 0.00781282 0.00781255 0.00781217 0.00781274 0.00781233 0.00781257 0.00781234 0.00781256 0.00781279 0.00781228 0.00781261 0.00781241 0.00781244 0.00781251 0.00781255 0.00781242 0.00781258 0.00781242 0.00781245 0.00781207 0.00781249 0.0078125 0.00781254 0.0078126 0.00781238 0.00780541 0.00780051 0.00779805 0.00779331 0.00780277 0.00779961 0.00780662 0.0078058 0.00780484 0.00780241 0.00780514 0.00780385 0.0078074 0.0078063 0.00780718 0.00780488 0.007806 0.00780549 0.00780746 0.00780662 0.00780762 0.00780632 0.00780657 0.00780663 0.00780765 0.0078071 0.00780782 0.00780712 0.00780693 0.00780736 0.00780802 0.00780765 0.00780822 0.00780766 0.00780753 0.00780795 0.00780846 0.00780797 0.00780862 0.00780816 0.00780808 0.00780827 0.00780871 0.00780826 0.00780887 0.00780857 0.00780836 0.0078087 0.00780914 0.00780848 0.00780927 0.00780882 0.00780872 0.00780906 0.00780937 0.00780912 0.00780957 0.00780916 0.00780929 0.0078094 0.00780982 0.00780946 0.00780968 0.00780958 0.00780925 0.00780946 0.00780987 0.00780978 0.00781016 0.00781003 0.00780977 0.00780984 0.00781014 0.00780971 0.00781016 0.00781 0.00781023 0.00781027 0.00781038 0.00781017 0.00781057 0.00781024 0.00781002 0.00781021 0.00781069 0.00781026 0.00781072 0.00781036 0.00781066 0.00781068 0.0078109 0.00781091 0.00781092 0.0078108 0.00781072 0.00781084 0.00781101 0.00781093 0.00781127 0.00781106 0.00781123 0.00781074 0.00781134 0.00781121 0.0078112 0.00781105 0.00781135 0.00781145 0.00781153 0.00781126 0.00781133 0.00781127 0.00781132 0.00781159 0.00781165 0.00781166 0.0078116 0.00781141 0.00781155 0.00781154 0.00781156 0.00781183 0.00781189 0.00781188 0.00781167 0.00781152 0.00781184 0.0078119 0.00781199 0.00781199 0.00781192 0.00781186 0.00781233 0.00781203 0.00781192 0.00781213 0.00781206 0.0078117 0.00781216 0.00781228 0.00781195 0.00781199 0.00781219 0.0078122 0.00781223 0.00781226 0.00781216 0.00781213 0.00781206 0.00781238 0.00781238 0.00781232 0.00781288 0.00781208 0.00781221 0.00781191 0.00781238 0.00781207 0.00781245 0.00781231 0.00781252 0.00781224 0.00781239 0.00781228 0.00781249 0.00781283 0.00781241 0.00781228 0.00781244 0.00781272 0.00781238 0.00781238 0.00781251 0.00781226 0.00781246 0.00781275 0.0078123 0.00781259 0.00781234 0.00781253 0.0078125 0.00781264 0.00781274 0.00781198 0.0078128 0.00781253 0.00781257 0.00781246 0.00781245 0.00781258 0.00781298 0.00781272 0.0078082 0.00780612 0.00780251 0.00780163 0.00780164 0.00780248 0.00780851 0.00780782 0.00780485 0.00780462 0.00780575 0.00780577 0.00780875 0.00780799 0.00780738 0.00780671 0.00780727 0.00780733 0.00780896 0.0078083 0.00780869 0.00780783 0.00780791 0.00780814 0.00780911 0.00780862 0.0078092 0.00780854 0.00780844 0.00780865 0.00780937 0.00780871 0.0078097 0.00780898 0.00780884 0.00780914 0.00780956 0.00780898 0.00780985 0.0078095 0.00780932 0.00780963 0.00780971 0.00780933 0.00780998 0.00780964 0.00780956 0.00780985 0.00781024 0.00780963 0.00781031 0.00780985 0.00780972 0.00780987 0.00781011 0.00780991 0.00781055 0.00781035 0.00781003 0.0078102 0.00781057 0.00781003 0.00781059 0.00781045 0.00781031 0.00781038 0.00781056 0.00781041 0.00781078 0.00781063 0.00781071 0.00781071 0.0078109 0.00781025 0.00781086 0.00781077 0.00781073 0.00781087 0.007811 0.00781092 0.00781121 0.00781103 0.00781107 0.00781101 0.00781125 0.00781094 0.0078113 0.00781124 0.00781131 0.00781119 0.00781124 0.0078111 0.00781147 0.0078113 0.00781117 0.00781126 0.00781128 0.00781135 0.00781146 0.00781158 0.0078115 0.0078116 0.00781159 0.00781151 0.00781171 0.00781157 0.00781156 0.00781183 0.00781145 0.00781142 0.00781186 0.00781155 0.00781179 0.00781173 0.00781185 0.00781174 0.00781204 0.00781185 0.00781204 0.00781187 0.00781199 0.00781167 0.00781198 0.00781184 0.00781193 0.0078118 0.00781223 0.00781195 0.00781186 0.00781226 0.0078119 0.00781201 0.00781216 0.00781195 0.00781231 0.00781229 0.00781232 0.00781218 0.00781247 0.00781198 0.0078122 0.00781211 0.00781212 0.00781218 0.0078123 0.00781229 0.00781228 0.00781207 0.00781233 0.00781242 0.00781242 0.00781229 0.00781227 0.00781235 0.00781231 0.00781229 0.00781262 0.00781247 0.00781229 0.0078125 0.00781224 0.00781243 0.00781254 0.00781221 0.00781259 0.00781223 0.00781268 0.00781246 0.00781239 0.00781243 0.00781229 0.00781263 0.00781269 0.00781252 0.00781237 0.00781268 0.00781275 0.00781244 0.00781261 0.00781235 0.00781267 0.00781267 0.00781252 0.00781253 0.00781254 0.00781266 0.00781251 0.00781225 0.00781254 0.00781243 0.00781243 0.00781256 0.00781103 0.0078089 0.00780698 0.0078063 0.00780484 0.00780644 0.00781099 0.00780977 0.00780813 0.00780746 0.00780745 0.00780799 0.0078106 0.00780965 0.00780947 0.00780899 0.00780869 0.00780922 0.00781044 0.00780977 0.00781024 0.00780991 0.00780952 0.0078098 0.00781049 0.0078098 0.0078106 0.00781037 0.00781006 0.00781016 0.00781055 0.00780989 0.00781093 0.00781052 0.0078102 0.00781069 0.0078108 0.00781022 0.00781112 0.00781067 0.00781039 0.00781074 0.00781098 0.00781039 0.00781114 0.00781088 0.00781069 0.0078109 0.00781097 0.0078107 0.00781132 0.007811 0.00781086 0.00781092 0.00781113 0.00781088 0.00781133 0.00781099 0.00781095 0.00781116 0.00781138 0.00781081 0.00781151 0.00781135 0.00781132 0.00781133 0.00781141 0.00781099 0.00781169 0.00781148 0.00781131 0.00781145 0.00781156 0.00781124 0.00781162 0.00781152 0.00781156 0.00781145 0.00781162 0.00781124 0.00781182 0.00781155 0.00781153 0.00781146 0.00781169 0.0078115 0.00781181 0.00781195 0.0078116 0.00781168 0.00781177 0.00781158 0.00781199 0.00781163 0.00781166 0.00781184 0.00781178 0.00781171 0.00781213 0.00781183 0.00781193 0.00781211 0.0078119 0.00781186 0.00781231 0.00781182 0.00781189 0.0078119 0.00781189 0.00781199 0.0078124 0.00781211 0.00781196 0.00781217 0.00781191 0.00781213 0.00781216 0.00781207 0.00781201 0.00781197 0.00781206 0.00781204 0.00781259 0.00781238 0.00781206 0.00781201 0.00781213 0.00781185 0.00781257 0.0078122 0.0078124 0.00781239 0.00781229 0.00781211 0.00781237 0.00781223 0.00781232 0.00781243 0.00781242 0.00781215 0.00781227 0.00781221 0.00781255 0.00781211 0.00781241 0.00781207 0.00781236 0.00781241 0.00781244 0.00781242 0.00781233 0.00781228 0.0078124 0.00781271 0.00781242 0.00781227 0.00781219 0.00781212 0.0078127 0.00781272 0.00781251 0.00781234 0.00781245 0.00781236 0.00781252 0.00781261 0.00781251 0.00781259 0.00781217 0.00781227 0.00781266 0.00781255 0.00781258 0.00781248 0.0078128 0.00781268 0.00781268 0.00781258 0.00781218 0.00781247 0.00781235 0.00781247 0.00781264 0.00781271 0.00781242 0.00781272 0.00781237 0.00781257 0.0078129 0.00781252 0.00781243 0.0078126 0.00781378 0.00781182 0.00781139 0.00781043 0.00780876 0.00781024 0.0078135 0.00781207 0.00781152 0.00781081 0.00780968 0.00781087 0.00781261 0.00781177 0.00781201 0.00781134 0.00781081 0.00781126 0.00781195 0.00781123 0.0078122 0.00781166 0.00781122 0.00781161 0.00781197 0.00781128 0.0078122 0.00781195 0.00781152 0.00781175 0.00781193 0.00781134 0.00781231 0.00781189 0.00781168 0.00781194 0.00781186 0.00781135 0.00781223 0.00781208 0.00781169 0.00781191 0.00781201 0.00781142 0.00781233 0.0078121 0.00781184 0.00781199 0.00781219 0.00781165 0.00781231 0.00781214 0.00781186 0.00781201 0.00781191 0.00781168 0.00781234 0.00781214 0.00781188 0.00781216 0.00781229 0.00781164 0.00781238 0.00781215 0.00781213 0.00781219 0.00781215 0.00781174 0.00781241 0.00781234 0.0078119 0.00781221 0.00781213 0.00781169 0.00781248 0.00781215 0.00781189 0.00781231 0.00781241 0.00781199 0.00781245 0.00781208 0.00781216 0.00781205 0.00781219 0.00781188 0.00781258 0.00781236 0.00781215 0.00781214 0.00781212 0.00781219 0.00781256 0.00781226 0.00781231 0.00781224 0.00781224 0.007812 0.00781244 0.00781241 0.00781231 0.00781251 0.00781225 0.00781217 0.0078126 0.00781251 0.00781213 0.00781243 0.00781208 0.00781228 0.00781233 0.00781218 0.00781223 0.00781225 0.00781256 0.00781225 0.00781245 0.00781266 0.00781258 0.00781233 0.00781232 0.00781222 0.00781257 0.00781273 0.00781214 0.0078122 0.00781234 0.00781245 0.00781253 0.00781269 0.00781236 0.00781236 0.00781233 0.00781246 0.0078127 0.00781265 0.00781224 0.00781245 0.00781242 0.00781247 0.00781263 0.00781241 0.00781285 0.00781271 0.00781259 0.00781219 0.00781251 0.00781275 0.00781236 0.00781215 0.00781243 0.00781234 0.00781248 0.00781255 0.00781241 0.0078126 0.00781242 0.00781245 0.00781252 0.00781251 0.00781239 0.00781242 0.00781257 0.00781242 0.00781253 0.00781228 0.00781252 0.00781237 0.00781235 0.00781261 0.00781242 0.00781288 0.00781225 0.00781244 0.00781248 0.00781253 0.00781261 0.00781258 0.00781256 0.00781237 0.0078129 0.00781263 0.00781248 0.00781261 0.00781236 0.00781253 0.00781269 0.00781259 0.00781271 0.00781194 0.00781229 0.00781236 0.00781687 0.00781507 0.00781583 0.00781451 0.00781253 0.007814 0.00781556 0.00781415 0.00781517 0.00781405 0.00781272 0.0078136 0.00781439 0.00781357 0.00781455 0.00781375 0.00781293 0.00781353 0.00781357 0.00781313 0.00781411 0.00781371 0.00781288 0.00781343 0.00781351 0.00781251 0.00781381 0.00781348 0.00781305 0.0078132 0.00781336 0.00781263 0.00781358 0.00781337 0.00781289 0.0078131 0.00781319 0.00781253 0.00781345 0.00781322 0.00781289 0.00781317 0.0078131 0.00781251 0.00781346 0.00781312 0.00781285 0.00781326 0.00781304 0.00781259 0.00781328 0.00781306 0.00781302 0.00781306 0.00781304 0.00781257 0.00781333 0.00781298 0.00781272 0.00781306 0.00781281 0.00781246 0.00781317 0.00781288 0.00781291 0.00781303 0.0078128 0.00781253 0.00781317 0.00781293 0.0078129 0.00781299 0.00781267 0.00781262 0.0078132 0.00781308 0.00781271 0.00781268 0.00781299 0.00781274 0.00781309 0.00781297 0.00781283 0.00781297 0.00781278 0.00781265 0.00781295 0.00781286 0.00781265 0.00781269 0.00781249 0.0078127 0.00781285 0.00781311 0.00781267 0.00781285 0.00781269 0.00781276 0.00781288 0.00781295 0.00781268 0.00781277 0.00781274 0.00781249 0.00781275 0.00781286 0.00781263 0.00781255 0.00781259 0.00781254 0.00781282 0.00781302 0.00781263 0.00781288 0.00781278 0.00781253 0.00781293 0.00781275 0.00781256 0.00781247 0.00781256 0.00781271 0.00781257 0.00781289 0.00781279 0.00781267 0.00781262 0.00781251 0.00781276 0.00781244 0.00781267 0.00781266 0.00781239 0.00781261 0.00781236 0.00781265 0.00781264 0.00781262 0.00781264 0.00781264 0.00781255 0.00781279 0.00781263 0.00781267 0.00781246 0.00781233 0.00781263 0.00781268 0.00781277 0.00781265 0.00781247 0.00781238 0.00781267 0.00781284 0.00781255 0.00781263 0.00781258 0.00781252 0.00781266 0.00781272 0.00781253 0.00781251 0.00781238 0.00781287 0.00781236 0.00781264 0.0078127 0.00781244 0.00781249 0.00781267 0.00781239 0.00781259 0.0078125 0.00781256 0.00781224 0.00781252 0.0078127 0.00781257 0.00781247 0.00781253 0.00781253 0.00781249 0.00781258 0.00781256 0.00781222 0.00781245 0.00781221 0.0078128 0.00781258 0.00781246 0.00781262 0.00781275 0.00781986 0.00781796 0.00782065 0.00781863 0.00781635 0.00781763 0.00781737 0.00781638 0.00781873 0.00781715 0.00781562 0.00781666 0.007816 0.00781527 0.00781693 0.0078162 0.00781495 0.00781566 0.00781524 0.00781457 0.00781583 0.00781535 0.00781459 0.00781518 0.00781477 0.00781418 0.0078152 0.00781501 0.00781465 0.00781473 0.00781465 0.00781407 0.007815 0.00781475 0.00781425 0.00781458 0.00781431 0.00781384 0.00781477 0.00781441 0.00781413 0.00781429 0.00781424 0.00781371 0.00781438 0.00781432 0.00781401 0.00781427 0.00781411 0.00781368 0.00781458 0.00781421 0.00781401 0.00781408 0.00781402 0.00781354 0.00781408 0.00781396 0.00781372 0.00781398 0.00781393 0.00781346 0.00781422 0.00781389 0.00781358 0.00781395 0.00781374 0.00781346 0.0078139 0.00781393 0.0078135 0.00781367 0.00781366 0.00781347 0.00781366 0.00781357 0.00781321 0.00781349 0.00781345 0.00781332 0.0078137 0.00781353 0.0078135 0.00781354 0.00781337 0.0078129 0.00781371 0.00781346 0.00781318 0.00781348 0.00781321 0.00781303 0.00781361 0.00781349 0.0078131 0.00781342 0.00781341 0.00781281 0.00781352 0.00781334 0.00781324 0.00781306 0.00781317 0.00781295 0.00781312 0.00781313 0.00781296 0.00781296 0.00781306 0.00781283 0.00781311 0.0078133 0.00781307 0.00781308 0.00781298 0.00781278 0.00781299 0.00781287 0.00781299 0.00781278 0.00781286 0.00781277 0.00781303 0.00781337 0.00781265 0.00781264 0.00781265 0.0078128 0.00781276 0.00781272 0.00781275 0.00781279 0.00781278 0.00781254 0.00781289 0.00781281 0.00781285 0.00781286 0.00781275 0.00781251 0.00781279 0.00781265 0.00781287 0.00781244 0.00781268 0.0078126 0.00781252 0.00781286 0.00781278 0.00781259 0.00781264 0.0078125 0.00781266 0.00781255 0.00781248 0.00781287 0.00781239 0.00781272 0.00781254 0.00781254 0.0078129 0.00781244 0.00781273 0.00781247 0.00781233 0.00781267 0.0078126 0.00781267 0.00781261 0.00781239 0.00781219 0.00781249 0.00781258 0.00781273 0.00781236 0.00781261 0.00781262 0.00781252 0.00781228 0.0078123 0.00781258 0.00781247 0.00781297 0.00781265 0.00781251 0.00781249 0.00781241 0.00781268 0.00781242 0.00781252 0.00781262 0.00781227 0.00782213 0.00782088 0.00782616 0.00782329 0.00782017 0.00782132 0.00781883 0.00781796 0.00782129 0.00782014 0.00781793 0.00781923 0.0078174 0.00781665 0.00781853 0.00781836 0.00781684 0.00781763 0.00781662 0.00781609 0.00781705 0.00781732 0.00781612 0.00781675 0.00781638 0.00781551 0.00781649 0.00781634 0.0078159 0.00781621 0.00781611 0.00781535 0.00781618 0.00781606 0.00781546 0.00781565 0.00781563 0.00781516 0.00781574 0.00781565 0.00781532 0.00781548 0.00781546 0.00781489 0.00781555 0.00781549 0.00781501 0.00781526 0.00781516 0.00781468 0.00781544 0.00781505 0.00781478 0.00781493 0.00781509 0.00781429 0.0078151 0.00781502 0.00781457 0.00781499 0.00781471 0.00781447 0.00781502 0.0078149 0.0078146 0.00781464 0.00781439 0.0078142 0.00781478 0.00781452 0.00781434 0.00781433 0.00781429 0.00781399 0.0078144 0.00781447 0.00781419 0.00781422 0.00781414 0.00781373 0.00781442 0.00781428 0.00781389 0.00781405 0.00781398 0.00781369 0.00781404 0.00781399 0.0078137 0.00781406 0.00781372 0.00781365 0.00781401 0.00781379 0.00781369 0.0078139 0.00781336 0.00781344 0.0078138 0.00781386 0.00781351 0.00781352 0.0078134 0.00781342 0.00781365 0.00781374 0.00781346 0.00781341 0.00781348 0.00781326 0.00781348 0.00781337 0.00781345 0.00781338 0.00781326 0.00781315 0.00781324 0.0078133 0.00781321 0.00781308 0.00781305 0.00781293 0.00781335 0.00781337 0.00781316 0.00781324 0.00781306 0.00781272 0.00781303 0.00781318 0.00781287 0.0078129 0.0078129 0.00781291 0.00781313 0.00781302 0.00781293 0.00781276 0.00781281 0.00781279 0.00781279 0.0078128 0.00781294 0.00781262 0.00781276 0.00781258 0.00781276 0.007813 0.00781278 0.00781289 0.0078126 0.00781269 0.00781263 0.00781276 0.00781287 0.00781303 0.00781243 0.00781248 0.00781271 0.00781277 0.00781256 0.00781284 0.00781261 0.00781225 0.00781273 0.00781256 0.00781256 0.00781262 0.00781262 0.00781228 0.00781244 0.0078128 0.00781261 0.00781252 0.00781267 0.0078125 0.00781251 0.00781261 0.0078123 0.0078123 0.00781255 0.00781254 0.00781241 0.00781275 0.00781227 0.00781261 0.00781235 0.00781258 0.0078122 0.00781257 0.00781241 0.00781266 0.00782429 0.00782275 0.00783523 0.00782797 0.00782311 0.00782491 0.00781924 0.00781915 0.00781925 0.00782228 0.00781972 0.00782092 0.0078187 0.00781795 0.00781849 0.00781976 0.00781827 0.00781896 0.00781832 0.00781741 0.00781836 0.00781846 0.00781751 0.00781811 0.00781782 0.00781705 0.00781795 0.00781763 0.00781709 0.00781748 0.00781745 0.00781672 0.00781773 0.00781722 0.00781666 0.0078168 0.00781705 0.00781624 0.00781692 0.00781674 0.00781647 0.0078167 0.00781657 0.00781585 0.00781667 0.00781647 0.00781613 0.00781637 0.00781623 0.00781563 0.00781629 0.00781618 0.00781551 0.00781601 0.00781571 0.00781542 0.00781638 0.00781566 0.0078155 0.0078155 0.00781577 0.00781517 0.00781556 0.00781556 0.00781528 0.00781531 0.00781555 0.00781507 0.00781536 0.00781528 0.00781498 0.00781508 0.00781501 0.00781474 0.00781513 0.00781513 0.00781484 0.00781483 0.00781484 0.0078147 0.00781483 0.0078147 0.00781471 0.00781472 0.00781459 0.00781428 0.00781476 0.00781444 0.0078144 0.00781449 0.0078143 0.00781399 0.00781433 0.00781421 0.00781403 0.00781431 0.00781438 0.00781387 0.00781389 0.00781391 0.00781388 0.00781398 0.00781407 0.00781369 0.00781415 0.00781386 0.00781386 0.00781379 0.00781361 0.0078134 0.00781397 0.007814 0.00781362 0.00781372 0.00781318 0.00781334 0.00781377 0.00781357 0.00781333 0.0078134 0.0078133 0.00781328 0.00781328 0.00781341 0.00781316 0.00781327 0.00781322 0.00781314 0.00781342 0.00781313 0.00781308 0.00781326 0.0078132 0.00781285 0.00781325 0.00781314 0.0078127 0.00781298 0.00781274 0.00781292 0.00781295 0.00781295 0.00781298 0.00781313 0.00781283 0.00781257 0.00781296 0.00781295 0.00781264 0.00781295 0.00781256 0.00781278 0.00781313 0.00781259 0.00781265 0.00781282 0.00781308 0.00781272 0.0078128 0.00781257 0.0078126 0.00781246 0.00781282 0.00781277 0.00781256 0.0078127 0.00781254 0.00781246 0.00781222 0.00781244 0.00781259 0.00781267 0.00781259 0.00781251 0.00781218 0.00781252 0.00781276 0.0078124 0.00781267 0.00781257 0.00781238 0.00781238 0.00781261 0.00781281 0.00781293 0.00781211 0.00781267 0.00781258 0.00781197 0.00781266 0.00781262 0.00781236 0.00780551 0.00780099 0.00779836 0.00779383 0.00780309 0.0078 0.00780692 0.00780617 0.00780503 0.00780266 0.0078054 0.00780413 0.00780746 0.00780663 0.00780727 0.00780528 0.00780626 0.00780578 0.00780771 0.00780692 0.00780772 0.00780662 0.00780656 0.00780678 0.00780774 0.00780726 0.00780785 0.00780713 0.00780723 0.00780757 0.00780797 0.00780763 0.00780845 0.0078078 0.00780772 0.00780789 0.00780846 0.00780793 0.00780845 0.00780816 0.00780809 0.00780833 0.00780864 0.0078083 0.00780886 0.00780861 0.00780852 0.0078086 0.00780913 0.00780877 0.00780935 0.00780903 0.00780888 0.00780892 0.0078094 0.00780904 0.00780953 0.00780939 0.00780915 0.00780934 0.00780986 0.00780933 0.00780988 0.00780951 0.00780956 0.00780978 0.00780998 0.00780965 0.00781007 0.00780985 0.0078098 0.00780991 0.00781026 0.00781001 0.00781035 0.00781036 0.00780991 0.0078101 0.00781054 0.00781041 0.00781061 0.00781023 0.00780999 0.00781046 0.0078105 0.00781051 0.00781069 0.0078103 0.00781056 0.007811 0.0078109 0.00781083 0.00781088 0.00781087 0.00781075 0.00781088 0.00781114 0.00781117 0.00781113 0.00781125 0.00781118 0.00781105 0.00781121 0.00781112 0.00781129 0.007811 0.00781126 0.00781135 0.00781144 0.00781148 0.00781137 0.00781148 0.00781161 0.00781168 0.00781163 0.0078117 0.00781176 0.00781139 0.00781153 0.0078117 0.00781156 0.00781186 0.00781178 0.00781168 0.00781187 0.00781159 0.0078116 0.00781178 0.00781195 0.00781193 0.00781196 0.00781172 0.00781182 0.00781188 0.00781198 0.00781194 0.00781225 0.0078121 0.00781188 0.00781195 0.00781216 0.00781202 0.00781201 0.0078121 0.00781236 0.00781231 0.00781204 0.0078121 0.00781212 0.00781241 0.00781211 0.00781248 0.00781234 0.0078123 0.00781203 0.00781232 0.00781225 0.00781217 0.00781253 0.00781223 0.00781261 0.00781257 0.00781262 0.00781239 0.00781238 0.00781254 0.00781259 0.00781226 0.00781213 0.00781233 0.00781237 0.00781236 0.00781259 0.00781251 0.00781266 0.00781245 0.00781256 0.00781254 0.0078124 0.00781265 0.00781268 0.00781265 0.00781258 0.00781253 0.00781205 0.00781279 0.00781245 0.0078126 0.00781248 0.00781256 0.00781275 0.00781224 0.00780841 0.00780635 0.00780276 0.0078019 0.00780178 0.00780285 0.00780867 0.00780793 0.00780508 0.0078049 0.007806 0.00780615 0.00780895 0.00780817 0.00780743 0.0078071 0.00780723 0.00780748 0.00780901 0.00780839 0.00780886 0.00780832 0.00780821 0.00780831 0.00780919 0.00780858 0.00780932 0.00780885 0.00780861 0.00780901 0.00780935 0.00780883 0.00780969 0.0078092 0.00780887 0.00780934 0.00780962 0.00780903 0.00780983 0.00780943 0.00780944 0.00780955 0.00780993 0.00780918 0.00781 0.00780977 0.00780969 0.00780993 0.00781004 0.00780976 0.00781026 0.00780997 0.00780963 0.00781013 0.00781023 0.00780987 0.00781045 0.00781011 0.0078101 0.00781031 0.00781047 0.00781011 0.00781048 0.0078105 0.00781036 0.00781055 0.00781055 0.00781032 0.00781097 0.00781065 0.00781055 0.00781056 0.00781108 0.00781054 0.0078108 0.00781078 0.00781089 0.00781083 0.00781108 0.00781083 0.00781101 0.00781092 0.00781081 0.00781097 0.00781112 0.00781101 0.00781126 0.00781125 0.00781099 0.00781133 0.00781138 0.00781101 0.0078117 0.00781139 0.00781112 0.00781125 0.00781153 0.0078113 0.00781158 0.00781155 0.0078117 0.00781136 0.00781145 0.0078115 0.00781178 0.00781165 0.00781172 0.00781175 0.00781183 0.0078116 0.0078118 0.00781172 0.00781182 0.00781166 0.00781186 0.00781169 0.0078117 0.00781159 0.0078117 0.00781192 0.00781186 0.00781185 0.00781179 0.00781174 0.00781226 0.00781217 0.00781215 0.007812 0.00781213 0.0078121 0.00781181 0.00781216 0.00781236 0.0078119 0.00781228 0.00781207 0.00781204 0.00781246 0.00781225 0.00781226 0.00781241 0.00781224 0.00781241 0.00781201 0.00781219 0.00781199 0.00781199 0.00781224 0.00781235 0.00781243 0.00781227 0.00781235 0.00781247 0.00781247 0.00781252 0.00781229 0.00781244 0.00781228 0.00781242 0.00781246 0.00781237 0.0078124 0.00781259 0.00781229 0.00781235 0.00781239 0.00781256 0.00781262 0.00781266 0.00781236 0.00781252 0.00781253 0.00781241 0.00781246 0.00781244 0.00781253 0.00781243 0.00781247 0.00781272 0.00781223 0.00781253 0.00781264 0.00781251 0.00781285 0.00781234 0.00781249 0.00781262 0.00781246 0.0078128 0.00781228 0.00781261 0.00781238 0.00781102 0.00780917 0.007807 0.00780637 0.007805 0.00780661 0.0078111 0.00781005 0.00780823 0.00780789 0.0078074 0.00780834 0.00781053 0.00780981 0.00780952 0.00780912 0.00780893 0.00780939 0.00781034 0.00780987 0.00781032 0.00781006 0.00780974 0.00781008 0.00781064 0.00780989 0.00781082 0.00781038 0.00781013 0.00781027 0.00781063 0.00780998 0.00781111 0.00781067 0.00781034 0.00781058 0.00781085 0.00781021 0.0078112 0.00781068 0.00781051 0.00781084 0.007811 0.00781038 0.00781118 0.00781091 0.00781081 0.00781098 0.00781099 0.00781054 0.00781134 0.00781091 0.00781097 0.0078113 0.00781104 0.00781082 0.00781144 0.0078112 0.0078111 0.00781129 0.00781134 0.00781073 0.00781166 0.00781125 0.00781128 0.00781131 0.00781147 0.00781122 0.00781163 0.00781138 0.00781112 0.0078113 0.00781158 0.00781108 0.00781189 0.00781157 0.00781169 0.00781154 0.0078117 0.0078112 0.0078118 0.00781165 0.00781148 0.00781175 0.00781169 0.00781148 0.00781192 0.00781171 0.00781167 0.00781159 0.00781172 0.00781158 0.00781176 0.00781167 0.00781178 0.0078118 0.0078118 0.00781168 0.00781215 0.00781197 0.00781187 0.00781202 0.00781206 0.00781167 0.00781206 0.00781201 0.00781188 0.00781217 0.00781184 0.00781193 0.00781209 0.00781181 0.00781207 0.00781195 0.00781215 0.00781183 0.00781209 0.00781196 0.00781241 0.00781234 0.00781226 0.00781208 0.00781223 0.00781226 0.00781233 0.00781224 0.00781213 0.00781212 0.00781208 0.00781219 0.00781217 0.0078124 0.00781235 0.00781214 0.0078124 0.00781207 0.00781252 0.0078124 0.00781228 0.00781248 0.00781224 0.00781255 0.00781238 0.00781248 0.0078124 0.00781231 0.00781254 0.00781217 0.00781247 0.00781248 0.00781231 0.00781234 0.00781279 0.0078122 0.00781238 0.00781231 0.00781249 0.00781239 0.00781275 0.00781244 0.00781251 0.00781204 0.0078126 0.00781236 0.00781246 0.00781246 0.00781235 0.00781245 0.00781231 0.00781236 0.0078128 0.00781231 0.00781232 0.00781239 0.00781241 0.00781253 0.00781258 0.00781255 0.00781259 0.00781236 0.00781254 0.0078124 0.00781255 0.00781278 0.00781229 0.00781256 0.00781245 0.00781249 0.00781268 0.00781256 0.00781242 0.00781223 0.0078138 0.00781206 0.00781127 0.00781062 0.00780878 0.00781045 0.00781331 0.00781209 0.00781162 0.00781093 0.00780986 0.0078109 0.00781262 0.00781169 0.00781199 0.00781155 0.00781089 0.00781129 0.00781206 0.0078115 0.0078121 0.0078119 0.00781123 0.00781178 0.00781207 0.00781129 0.00781243 0.00781174 0.00781153 0.00781177 0.00781181 0.00781149 0.00781226 0.00781211 0.00781173 0.00781186 0.00781196 0.00781144 0.00781228 0.00781208 0.00781176 0.00781193 0.00781196 0.00781153 0.00781216 0.00781201 0.00781193 0.00781202 0.0078121 0.00781146 0.00781254 0.00781205 0.00781193 0.00781213 0.00781216 0.00781179 0.00781245 0.007812 0.00781199 0.00781217 0.00781217 0.0078118 0.00781224 0.00781198 0.00781203 0.00781223 0.00781226 0.00781178 0.00781242 0.00781203 0.00781201 0.00781233 0.00781224 0.00781176 0.00781235 0.00781215 0.00781225 0.0078123 0.00781205 0.00781204 0.0078126 0.0078123 0.007812 0.00781217 0.00781225 0.007812 0.0078126 0.00781231 0.00781219 0.00781225 0.00781233 0.00781217 0.00781245 0.0078123 0.00781237 0.00781243 0.0078124 0.0078122 0.00781237 0.0078124 0.00781204 0.00781223 0.00781219 0.00781233 0.00781253 0.00781237 0.00781255 0.00781252 0.0078123 0.00781235 0.00781266 0.00781252 0.00781235 0.00781252 0.00781241 0.00781224 0.00781248 0.00781236 0.00781253 0.00781219 0.00781249 0.00781223 0.00781235 0.00781239 0.00781256 0.00781235 0.00781239 0.00781232 0.00781235 0.00781238 0.00781238 0.00781236 0.00781234 0.00781227 0.0078124 0.00781246 0.00781267 0.00781258 0.00781222 0.00781226 0.00781277 0.00781267 0.00781232 0.00781245 0.00781257 0.00781247 0.00781251 0.00781229 0.00781239 0.00781254 0.00781248 0.0078125 0.00781272 0.0078124 0.00781227 0.00781224 0.00781229 0.00781261 0.00781262 0.00781293 0.00781239 0.00781224 0.00781232 0.00781249 0.00781221 0.00781241 0.00781259 0.0078127 0.00781264 0.00781287 0.00781265 0.00781275 0.0078123 0.00781247 0.00781239 0.00781248 0.00781253 0.00781252 0.00781266 0.00781225 0.00781225 0.00781261 0.00781246 0.00781278 0.00781235 0.00781223 0.00781255 0.00781262 0.00781259 0.0078125 0.00781225 0.00781255 0.00781671 0.00781492 0.00781579 0.00781473 0.00781238 0.00781409 0.00781531 0.00781398 0.00781518 0.00781405 0.00781259 0.00781353 0.00781433 0.00781331 0.00781455 0.00781378 0.00781293 0.00781353 0.00781369 0.00781285 0.00781416 0.00781355 0.00781292 0.00781341 0.00781353 0.00781283 0.00781378 0.00781346 0.00781307 0.00781311 0.00781334 0.00781263 0.00781354 0.00781329 0.00781288 0.0078133 0.00781316 0.00781273 0.00781335 0.00781307 0.00781296 0.0078133 0.00781311 0.00781272 0.00781344 0.00781325 0.00781296 0.00781317 0.00781306 0.00781272 0.00781329 0.00781317 0.00781292 0.00781299 0.00781304 0.0078127 0.00781337 0.00781311 0.00781295 0.00781317 0.0078129 0.00781258 0.00781337 0.00781307 0.00781297 0.00781309 0.00781292 0.00781275 0.00781324 0.00781303 0.00781286 0.00781292 0.00781292 0.00781257 0.00781302 0.00781284 0.00781284 0.00781288 0.00781263 0.00781278 0.00781307 0.00781308 0.00781286 0.00781301 0.0078128 0.00781252 0.00781311 0.00781288 0.00781269 0.00781292 0.00781284 0.00781259 0.00781287 0.00781284 0.00781278 0.00781292 0.00781269 0.00781241 0.00781312 0.00781271 0.00781289 0.00781279 0.0078128 0.00781261 0.00781289 0.0078129 0.00781262 0.00781276 0.00781268 0.00781265 0.00781286 0.00781267 0.00781269 0.0078126 0.00781269 0.00781226 0.00781279 0.00781274 0.00781271 0.00781265 0.00781264 0.00781259 0.00781288 0.0078127 0.00781277 0.00781265 0.00781243 0.00781255 0.00781263 0.00781272 0.00781247 0.00781261 0.00781262 0.00781243 0.00781295 0.00781258 0.00781261 0.00781272 0.0078127 0.00781249 0.0078126 0.00781265 0.00781265 0.00781259 0.00781261 0.00781249 0.00781258 0.00781286 0.00781253 0.00781236 0.00781233 0.0078126 0.00781279 0.0078128 0.00781269 0.0078123 0.0078126 0.00781274 0.00781255 0.00781264 0.00781226 0.00781262 0.00781246 0.00781262 0.00781251 0.00781237 0.00781268 0.0078126 0.00781267 0.00781241 0.00781256 0.00781247 0.00781256 0.00781267 0.0078126 0.00781247 0.00781236 0.00781235 0.00781242 0.00781253 0.00781241 0.00781265 0.00781271 0.00781238 0.00781258 0.00781256 0.00781255 0.00781248 0.0078124 0.00781245 0.00781246 0.00781246 0.00781971 0.00781797 0.00782049 0.00781893 0.0078162 0.00781773 0.00781724 0.00781604 0.00781848 0.00781708 0.0078153 0.00781647 0.00781583 0.0078149 0.0078169 0.0078159 0.0078149 0.00781563 0.00781523 0.00781464 0.00781576 0.00781539 0.00781456 0.00781501 0.0078148 0.00781417 0.00781517 0.00781501 0.00781451 0.00781456 0.00781474 0.00781402 0.00781489 0.00781475 0.00781431 0.00781465 0.00781436 0.00781388 0.00781476 0.00781446 0.00781415 0.0078144 0.00781433 0.00781365 0.00781458 0.00781429 0.0078141 0.00781423 0.00781412 0.00781361 0.00781446 0.00781404 0.00781405 0.00781402 0.007814 0.00781342 0.00781405 0.0078141 0.00781374 0.00781395 0.00781364 0.00781365 0.00781402 0.00781391 0.00781364 0.00781376 0.00781374 0.00781353 0.00781401 0.00781374 0.00781351 0.00781373 0.00781353 0.00781325 0.00781388 0.00781375 0.00781345 0.00781368 0.00781353 0.00781325 0.00781391 0.00781354 0.00781325 0.00781356 0.00781353 0.00781305 0.00781358 0.00781341 0.00781344 0.00781345 0.00781341 0.00781304 0.00781335 0.00781356 0.00781314 0.00781325 0.00781328 0.00781314 0.00781334 0.00781317 0.00781311 0.00781318 0.007813 0.007813 0.00781333 0.00781322 0.0078132 0.00781326 0.00781306 0.00781312 0.00781314 0.00781303 0.00781292 0.00781289 0.00781288 0.00781271 0.007813 0.0078131 0.00781289 0.00781315 0.00781281 0.00781274 0.00781331 0.00781298 0.00781283 0.00781285 0.00781282 0.00781265 0.00781289 0.00781287 0.00781254 0.00781287 0.00781272 0.00781289 0.00781272 0.00781289 0.00781278 0.00781295 0.00781258 0.00781249 0.00781285 0.00781255 0.00781272 0.00781274 0.00781271 0.00781264 0.00781297 0.0078127 0.00781259 0.00781253 0.00781242 0.00781284 0.0078126 0.00781265 0.00781254 0.00781268 0.00781264 0.00781236 0.00781246 0.00781271 0.0078126 0.00781254 0.00781265 0.00781241 0.00781261 0.00781263 0.00781254 0.00781252 0.0078124 0.0078125 0.00781256 0.0078128 0.00781259 0.00781236 0.00781269 0.00781234 0.0078125 0.00781265 0.0078125 0.00781252 0.00781257 0.00781257 0.00781278 0.0078126 0.00781241 0.00781235 0.00781244 0.00781243 0.00781251 0.00781262 0.0078128 0.00781245 0.00782228 0.00782046 0.00782593 0.00782318 0.00781983 0.00782138 0.00781871 0.00781759 0.00782116 0.00782001 0.00781765 0.00781914 0.00781726 0.00781649 0.00781828 0.00781795 0.00781671 0.00781757 0.00781668 0.0078158 0.00781705 0.00781697 0.00781608 0.00781677 0.00781644 0.00781554 0.00781658 0.00781625 0.00781572 0.00781618 0.00781598 0.00781516 0.0078163 0.00781575 0.00781556 0.00781572 0.00781574 0.0078151 0.00781572 0.00781568 0.00781539 0.00781555 0.00781547 0.00781489 0.00781566 0.00781541 0.00781493 0.00781527 0.00781535 0.0078148 0.0078154 0.00781505 0.00781489 0.00781504 0.00781498 0.00781427 0.00781513 0.00781504 0.00781472 0.00781482 0.00781477 0.00781434 0.00781498 0.00781483 0.00781431 0.00781465 0.00781449 0.00781415 0.0078147 0.00781445 0.00781417 0.00781449 0.00781432 0.00781394 0.0078144 0.00781437 0.00781428 0.00781425 0.00781413 0.00781396 0.0078143 0.00781415 0.00781387 0.00781411 0.00781395 0.00781358 0.00781412 0.00781408 0.0078137 0.00781396 0.00781381 0.00781354 0.00781396 0.00781392 0.00781367 0.00781377 0.00781355 0.00781339 0.00781382 0.00781369 0.00781369 0.00781352 0.00781362 0.00781335 0.00781372 0.00781359 0.00781321 0.00781364 0.00781334 0.00781323 0.0078137 0.00781326 0.00781318 0.00781364 0.00781329 0.00781297 0.00781316 0.00781305 0.00781318 0.0078134 0.00781321 0.00781311 0.0078133 0.00781311 0.007813 0.00781337 0.00781321 0.0078131 0.00781319 0.00781296 0.007813 0.00781289 0.00781304 0.00781272 0.00781304 0.00781295 0.00781273 0.00781316 0.00781289 0.00781302 0.00781299 0.00781273 0.00781279 0.00781275 0.00781283 0.0078125 0.00781263 0.0078129 0.00781268 0.00781268 0.00781282 0.00781267 0.00781278 0.00781282 0.00781282 0.00781249 0.00781266 0.00781255 0.00781268 0.00781279 0.00781272 0.00781262 0.00781255 0.00781278 0.00781253 0.00781262 0.00781255 0.00781262 0.00781248 0.00781241 0.00781283 0.00781252 0.00781233 0.00781252 0.00781256 0.00781265 0.00781268 0.00781268 0.00781249 0.00781215 0.0078126 0.00781258 0.00781247 0.00781261 0.00781245 0.00781229 0.00781235 0.00781259 0.00781232 0.0078125 0.00781238 0.00781254 0.00782389 0.00782235 0.00783442 0.00782781 0.00782308 0.00782488 0.00781924 0.00781872 0.00781901 0.00782215 0.00781961 0.00782075 0.00781863 0.00781778 0.00781836 0.00781934 0.00781821 0.00781879 0.00781809 0.00781731 0.00781833 0.00781814 0.00781754 0.00781787 0.00781779 0.00781695 0.00781804 0.00781764 0.00781731 0.0078174 0.00781748 0.00781651 0.00781735 0.00781711 0.00781662 0.00781707 0.00781712 0.00781621 0.00781695 0.00781679 0.00781656 0.00781649 0.0078166 0.00781583 0.00781663 0.00781648 0.00781614 0.00781625 0.00781632 0.00781571 0.00781639 0.00781629 0.00781576 0.00781602 0.00781582 0.00781544 0.00781613 0.00781575 0.0078155 0.00781569 0.00781568 0.00781508 0.00781571 0.00781561 0.00781512 0.00781534 0.0078153 0.00781491 0.00781528 0.0078154 0.00781499 0.00781501 0.00781513 0.00781474 0.007815 0.00781518 0.00781471 0.00781494 0.00781477 0.00781454 0.007815 0.00781473 0.00781466 0.00781468 0.0078146 0.00781441 0.00781463 0.0078147 0.00781422 0.00781439 0.00781459 0.00781409 0.00781429 0.00781433 0.00781419 0.00781424 0.00781432 0.00781369 0.00781424 0.00781401 0.00781393 0.00781388 0.0078137 0.00781361 0.00781373 0.0078141 0.00781364 0.00781399 0.00781375 0.00781381 0.00781381 0.00781346 0.00781354 0.00781332 0.00781354 0.00781348 0.00781351 0.0078136 0.00781346 0.00781353 0.00781357 0.00781323 0.00781347 0.0078135 0.00781296 0.00781324 0.00781336 0.00781324 0.00781318 0.00781301 0.00781329 0.00781349 0.00781339 0.00781289 0.00781306 0.00781301 0.00781316 0.00781312 0.00781323 0.00781263 0.00781275 0.00781292 0.00781291 0.00781305 0.00781311 0.00781258 0.00781297 0.0078129 0.00781278 0.00781286 0.00781245 0.00781269 0.00781273 0.00781284 0.00781264 0.00781253 0.00781245 0.00781274 0.00781282 0.00781273 0.00781266 0.00781263 0.00781244 0.00781275 0.00781258 0.00781278 0.00781263 0.0078128 0.0078126 0.00781265 0.00781289 0.00781242 0.00781251 0.00781252 0.00781217 0.00781258 0.00781261 0.00781281 0.00781259 0.00781255 0.00781262 0.00781262 0.00781226 0.00781233 0.00781255 0.00781239 0.00781263 0.00781251 0.00781274 0.00781231 0.0078124 0.00781271 0.00780602 0.00780173 0.00779893 0.0077948 0.00780345 0.00780074 0.00780742 0.00780676 0.0078055 0.00780374 0.00780589 0.00780492 0.00780779 0.00780698 0.00780767 0.00780611 0.00780623 0.00780625 0.00780775 0.00780719 0.00780807 0.00780706 0.0078067 0.00780688 0.00780794 0.00780734 0.00780795 0.00780766 0.00780755 0.00780779 0.00780816 0.0078078 0.00780817 0.00780807 0.00780773 0.0078081 0.00780873 0.0078081 0.00780859 0.00780836 0.00780816 0.00780828 0.00780897 0.00780831 0.00780891 0.00780866 0.00780845 0.0078089 0.00780918 0.00780875 0.00780944 0.0078089 0.0078088 0.00780891 0.00780958 0.00780901 0.00780939 0.00780925 0.00780908 0.00780927 0.00780983 0.00780936 0.00780983 0.00780964 0.00780932 0.00780963 0.00780989 0.00780955 0.00781016 0.00780972 0.00781 0.00780991 0.00781009 0.00780998 0.00781015 0.00780989 0.00781002 0.00781023 0.00781046 0.00781025 0.00781079 0.00781037 0.00781041 0.00781043 0.00781067 0.00781013 0.00781062 0.00781042 0.0078105 0.00781067 0.00781107 0.00781066 0.00781094 0.00781079 0.00781093 0.00781075 0.00781122 0.00781102 0.0078111 0.00781104 0.00781106 0.00781092 0.00781119 0.00781142 0.00781128 0.00781137 0.0078111 0.00781115 0.00781134 0.00781116 0.00781147 0.00781125 0.00781136 0.00781135 0.00781129 0.00781143 0.00781165 0.00781146 0.00781141 0.00781176 0.0078115 0.00781159 0.00781138 0.00781168 0.00781151 0.00781184 0.00781173 0.00781179 0.00781209 0.00781193 0.00781201 0.00781179 0.00781208 0.00781186 0.00781212 0.00781187 0.0078121 0.00781201 0.00781223 0.00781199 0.00781202 0.00781221 0.00781224 0.0078122 0.00781222 0.00781201 0.00781215 0.00781194 0.00781228 0.00781221 0.00781221 0.00781208 0.00781234 0.00781245 0.00781238 0.00781218 0.0078123 0.00781255 0.0078123 0.00781231 0.00781233 0.00781206 0.00781228 0.00781248 0.00781256 0.00781236 0.00781244 0.00781216 0.00781257 0.00781257 0.00781253 0.00781239 0.00781235 0.00781264 0.00781242 0.00781251 0.00781281 0.0078123 0.00781251 0.00781234 0.00781228 0.00781226 0.00781254 0.00781259 0.00781257 0.0078124 0.00781246 0.00781226 0.00781253 0.00781232 0.00781272 0.00781262 0.00780887 0.00780696 0.00780298 0.00780219 0.00780205 0.00780339 0.00780908 0.00780866 0.00780572 0.00780587 0.0078062 0.00780651 0.00780909 0.00780874 0.00780809 0.00780784 0.00780772 0.00780804 0.00780926 0.00780854 0.0078091 0.00780878 0.00780835 0.0078087 0.00780926 0.00780867 0.00780954 0.00780911 0.00780886 0.00780914 0.00780948 0.00780885 0.00780954 0.00780934 0.00780911 0.00780939 0.00780968 0.00780899 0.00780985 0.00780955 0.00780931 0.00780957 0.00781 0.00780924 0.00781013 0.00780975 0.00780966 0.00780981 0.00781021 0.00780975 0.00781026 0.00780985 0.00780985 0.00781036 0.00781027 0.00780975 0.00781068 0.00781022 0.00781028 0.00781037 0.00781072 0.00781007 0.00781065 0.00781034 0.00781023 0.00781052 0.00781073 0.00781047 0.00781092 0.00781049 0.00781043 0.00781063 0.00781064 0.0078106 0.00781095 0.00781088 0.00781086 0.00781087 0.00781102 0.00781081 0.00781121 0.00781084 0.00781085 0.00781098 0.00781113 0.00781089 0.0078112 0.00781124 0.00781115 0.00781104 0.00781163 0.00781109 0.00781153 0.00781123 0.00781124 0.00781127 0.00781148 0.0078112 0.00781167 0.00781136 0.00781142 0.00781148 0.00781143 0.00781136 0.00781188 0.00781166 0.00781133 0.00781147 0.00781185 0.00781163 0.00781192 0.00781154 0.00781171 0.00781176 0.00781189 0.00781203 0.00781199 0.00781188 0.00781171 0.0078118 0.00781189 0.00781184 0.00781192 0.00781198 0.0078121 0.00781198 0.00781185 0.0078121 0.00781215 0.00781194 0.00781195 0.00781194 0.00781232 0.00781196 0.00781198 0.00781206 0.00781209 0.00781221 0.00781235 0.00781215 0.00781224 0.00781204 0.0078123 0.00781219 0.00781222 0.0078122 0.00781229 0.00781223 0.00781224 0.00781217 0.00781232 0.00781231 0.00781249 0.00781227 0.00781243 0.00781239 0.00781214 0.00781237 0.00781241 0.00781252 0.00781235 0.00781212 0.00781271 0.00781225 0.00781257 0.00781245 0.00781235 0.00781252 0.00781245 0.00781228 0.00781242 0.00781243 0.00781245 0.00781244 0.00781253 0.00781263 0.00781227 0.00781269 0.00781231 0.00781246 0.0078125 0.00781227 0.00781251 0.00781247 0.00781232 0.00781279 0.00781256 0.00781247 0.00781261 0.00781244 0.0078125 0.00781252 0.00781111 0.00780941 0.00780714 0.00780677 0.00780516 0.00780694 0.00781124 0.00781049 0.0078086 0.00780844 0.00780786 0.00780864 0.00781073 0.00781023 0.00781002 0.00780975 0.00780911 0.00780971 0.00781062 0.00781002 0.00781064 0.0078104 0.00780997 0.00781035 0.00781061 0.00780994 0.00781094 0.00781068 0.00781007 0.00781053 0.00781065 0.00781014 0.00781106 0.00781067 0.0078104 0.0078106 0.00781085 0.00781032 0.00781116 0.0078107 0.00781055 0.00781094 0.00781091 0.00781042 0.0078112 0.00781085 0.0078109 0.00781116 0.00781108 0.0078106 0.0078113 0.00781103 0.00781093 0.00781123 0.00781121 0.00781081 0.0078114 0.00781114 0.00781099 0.00781122 0.00781133 0.00781083 0.00781144 0.00781146 0.00781113 0.00781125 0.00781145 0.00781116 0.00781155 0.00781142 0.00781129 0.00781155 0.00781147 0.00781123 0.00781176 0.00781127 0.00781143 0.00781156 0.00781167 0.00781134 0.00781169 0.00781167 0.0078115 0.00781177 0.00781169 0.00781148 0.00781204 0.00781183 0.00781174 0.00781177 0.00781194 0.00781137 0.00781193 0.00781197 0.00781177 0.00781191 0.00781199 0.00781172 0.00781202 0.00781218 0.0078117 0.00781174 0.00781218 0.00781198 0.00781223 0.00781206 0.00781194 0.00781188 0.0078119 0.0078118 0.00781225 0.00781206 0.00781204 0.00781237 0.00781221 0.00781213 0.00781238 0.00781212 0.00781201 0.00781224 0.00781233 0.0078121 0.00781207 0.00781197 0.00781211 0.00781241 0.00781234 0.00781218 0.00781246 0.0078122 0.00781207 0.00781218 0.00781252 0.00781224 0.00781216 0.00781223 0.0078124 0.0078122 0.00781232 0.00781197 0.00781251 0.00781219 0.00781227 0.0078123 0.00781229 0.00781239 0.00781207 0.00781243 0.00781243 0.00781242 0.00781206 0.00781239 0.0078124 0.00781248 0.00781227 0.00781237 0.00781239 0.00781251 0.00781238 0.00781243 0.00781235 0.00781245 0.0078126 0.0078125 0.00781265 0.00781264 0.00781239 0.00781259 0.00781234 0.00781249 0.00781234 0.00781245 0.0078124 0.00781256 0.00781258 0.00781213 0.0078126 0.00781247 0.00781259 0.00781258 0.00781232 0.00781255 0.0078125 0.00781253 0.00781244 0.00781228 0.00781272 0.00781245 0.00781221 0.00781243 0.00781293 0.00781226 0.00781385 0.00781193 0.00781137 0.00781102 0.00780869 0.0078106 0.0078133 0.00781237 0.00781179 0.00781123 0.00781015 0.00781096 0.00781257 0.00781181 0.00781211 0.00781159 0.00781101 0.00781124 0.00781218 0.00781154 0.00781216 0.00781205 0.00781142 0.00781187 0.00781196 0.00781141 0.00781233 0.00781194 0.0078116 0.00781195 0.00781202 0.00781143 0.00781228 0.00781212 0.00781166 0.00781197 0.00781197 0.00781147 0.00781239 0.00781204 0.00781171 0.00781204 0.00781191 0.00781166 0.00781234 0.0078121 0.00781193 0.00781198 0.00781217 0.00781158 0.00781247 0.00781213 0.00781183 0.0078121 0.00781203 0.00781163 0.00781242 0.00781213 0.00781185 0.00781223 0.00781209 0.00781179 0.00781244 0.0078122 0.00781205 0.00781216 0.00781221 0.00781196 0.00781249 0.0078123 0.00781222 0.00781212 0.00781232 0.00781205 0.00781211 0.00781226 0.00781213 0.00781236 0.00781223 0.00781189 0.0078125 0.0078123 0.00781219 0.00781234 0.00781234 0.00781213 0.00781236 0.00781221 0.00781195 0.00781239 0.00781213 0.00781205 0.00781261 0.00781225 0.0078121 0.00781235 0.00781232 0.00781216 0.00781251 0.00781228 0.00781265 0.00781228 0.00781212 0.00781208 0.00781249 0.00781239 0.00781248 0.00781207 0.00781252 0.00781237 0.00781198 0.00781249 0.0078123 0.00781256 0.00781225 0.00781222 0.00781228 0.00781211 0.00781257 0.00781244 0.00781243 0.00781215 0.00781252 0.0078123 0.00781253 0.00781266 0.00781246 0.00781248 0.00781252 0.00781224 0.00781242 0.00781238 0.0078124 0.00781228 0.00781225 0.00781239 0.00781282 0.00781242 0.00781248 0.00781233 0.00781235 0.00781246 0.00781236 0.00781232 0.00781247 0.0078123 0.00781249 0.00781248 0.00781276 0.00781238 0.00781252 0.00781249 0.00781247 0.00781283 0.00781213 0.00781216 0.00781246 0.00781241 0.0078125 0.00781251 0.00781271 0.00781249 0.00781259 0.00781236 0.00781252 0.00781238 0.00781268 0.00781248 0.0078126 0.00781248 0.00781248 0.00781246 0.00781244 0.00781231 0.0078124 0.00781246 0.00781232 0.00781256 0.00781238 0.00781241 0.0078124 0.00781272 0.0078125 0.00781248 0.00781261 0.00781243 0.00781279 0.0078121 0.00781241 0.00781254 0.0078125 0.00781249 0.00781667 0.00781471 0.00781571 0.00781497 0.00781249 0.00781418 0.00781524 0.00781376 0.00781513 0.00781405 0.00781275 0.00781354 0.00781432 0.00781314 0.00781457 0.0078135 0.007813 0.00781335 0.00781364 0.00781287 0.00781399 0.00781345 0.00781319 0.00781335 0.00781333 0.00781272 0.00781376 0.0078132 0.00781297 0.00781325 0.00781331 0.0078127 0.0078136 0.00781333 0.00781318 0.0078134 0.0078131 0.00781269 0.00781361 0.00781324 0.00781291 0.00781328 0.00781301 0.00781282 0.00781346 0.00781338 0.00781292 0.00781315 0.00781318 0.00781272 0.00781333 0.0078132 0.00781285 0.00781304 0.00781316 0.0078128 0.00781329 0.00781313 0.00781298 0.00781313 0.00781295 0.00781263 0.00781329 0.00781324 0.0078127 0.0078129 0.00781299 0.0078127 0.00781309 0.00781301 0.00781304 0.00781307 0.00781291 0.00781241 0.00781311 0.00781297 0.00781282 0.00781308 0.00781284 0.00781276 0.00781302 0.00781283 0.00781282 0.00781269 0.00781288 0.0078125 0.00781296 0.00781293 0.00781283 0.00781277 0.0078127 0.00781258 0.00781289 0.00781285 0.00781288 0.00781288 0.00781273 0.00781268 0.00781299 0.00781287 0.00781283 0.00781264 0.00781263 0.00781277 0.00781283 0.00781301 0.00781269 0.00781265 0.00781277 0.00781258 0.00781289 0.00781303 0.00781271 0.00781281 0.00781269 0.00781253 0.00781282 0.00781266 0.00781276 0.00781257 0.00781269 0.00781263 0.00781288 0.00781246 0.00781249 0.00781275 0.00781248 0.00781222 0.00781275 0.00781242 0.00781279 0.00781262 0.00781254 0.00781263 0.00781274 0.00781257 0.00781275 0.0078128 0.00781271 0.00781266 0.00781251 0.00781257 0.00781254 0.00781249 0.00781258 0.0078126 0.00781264 0.00781264 0.0078128 0.00781244 0.00781266 0.00781246 0.0078123 0.00781282 0.00781244 0.00781255 0.0078122 0.00781235 0.00781258 0.00781264 0.00781225 0.00781266 0.00781248 0.0078125 0.00781274 0.00781242 0.00781257 0.00781265 0.00781216 0.00781268 0.00781274 0.00781252 0.00781236 0.00781259 0.00781223 0.00781256 0.00781261 0.00781254 0.00781252 0.00781275 0.00781261 0.00781241 0.00781274 0.00781254 0.00781253 0.00781258 0.00781258 0.00781249 0.00781235 0.00781243 0.00781263 0.00781259 0.00781931 0.00781731 0.00782036 0.00781908 0.00781601 0.00781761 0.00781672 0.00781544 0.00781849 0.00781662 0.00781517 0.0078159 0.00781572 0.00781456 0.00781662 0.00781554 0.00781478 0.0078154 0.00781499 0.00781441 0.00781568 0.00781502 0.00781478 0.00781486 0.00781475 0.00781409 0.00781486 0.00781474 0.00781443 0.00781468 0.00781461 0.00781394 0.00781487 0.00781463 0.00781413 0.00781466 0.00781439 0.00781401 0.0078148 0.00781448 0.00781407 0.00781431 0.00781418 0.00781382 0.00781457 0.0078145 0.00781399 0.00781408 0.00781407 0.00781377 0.00781424 0.00781428 0.00781388 0.00781419 0.00781415 0.00781355 0.00781432 0.00781386 0.00781386 0.00781384 0.00781393 0.0078136 0.00781414 0.00781393 0.00781361 0.00781396 0.00781367 0.00781352 0.00781395 0.00781388 0.0078136 0.00781387 0.00781387 0.00781345 0.00781379 0.00781365 0.00781334 0.00781357 0.00781358 0.00781328 0.00781366 0.00781355 0.00781345 0.0078135 0.00781322 0.00781338 0.00781354 0.00781352 0.00781354 0.00781332 0.00781336 0.00781321 0.0078135 0.00781341 0.0078131 0.00781317 0.00781336 0.00781314 0.00781336 0.00781345 0.007813 0.00781318 0.00781301 0.00781299 0.00781334 0.00781318 0.00781303 0.00781315 0.00781291 0.00781299 0.00781315 0.00781316 0.00781297 0.00781315 0.00781317 0.00781288 0.00781313 0.00781288 0.00781309 0.00781299 0.00781291 0.00781285 0.00781305 0.00781317 0.00781272 0.007813 0.00781257 0.00781274 0.00781278 0.00781264 0.00781291 0.00781274 0.00781282 0.00781282 0.00781295 0.00781282 0.00781257 0.00781264 0.00781272 0.00781249 0.00781275 0.00781266 0.00781281 0.00781266 0.00781252 0.00781261 0.00781283 0.00781266 0.00781258 0.00781247 0.0078126 0.00781237 0.00781255 0.00781291 0.00781283 0.00781258 0.00781223 0.00781273 0.00781253 0.00781276 0.00781234 0.00781228 0.00781264 0.00781262 0.00781284 0.00781246 0.00781262 0.00781275 0.00781242 0.00781281 0.00781257 0.00781235 0.00781241 0.00781236 0.00781276 0.00781276 0.00781282 0.00781259 0.00781242 0.00781245 0.00781246 0.00781228 0.00781238 0.00781256 0.00781235 0.00781273 0.00781258 0.00781258 0.00781256 0.00781254 0.00781273 0.00781252 0.00782158 0.00781981 0.00782579 0.00782348 0.00781948 0.00782132 0.00781784 0.00781703 0.0078207 0.00781925 0.0078175 0.00781858 0.00781701 0.00781584 0.0078179 0.00781714 0.00781658 0.0078172 0.00781657 0.0078158 0.00781677 0.00781639 0.00781615 0.00781635 0.00781624 0.00781543 0.00781644 0.00781607 0.00781567 0.00781605 0.00781593 0.00781542 0.00781632 0.0078159 0.00781548 0.00781566 0.00781573 0.00781517 0.00781579 0.00781565 0.00781538 0.00781549 0.00781537 0.00781506 0.0078156 0.00781545 0.00781506 0.00781532 0.00781513 0.00781465 0.00781534 0.00781515 0.00781467 0.00781512 0.00781515 0.00781468 0.00781536 0.00781504 0.00781475 0.00781476 0.00781488 0.00781444 0.00781482 0.00781476 0.00781442 0.00781475 0.00781471 0.00781434 0.00781466 0.00781462 0.00781441 0.00781443 0.00781434 0.00781418 0.00781435 0.0078143 0.00781429 0.00781423 0.00781403 0.00781391 0.00781415 0.00781421 0.00781399 0.00781415 0.00781399 0.00781379 0.00781398 0.00781411 0.0078139 0.00781399 0.00781374 0.00781369 0.0078139 0.00781386 0.00781366 0.00781374 0.00781368 0.00781338 0.00781386 0.00781377 0.00781369 0.00781383 0.00781353 0.00781343 0.00781386 0.00781358 0.00781331 0.00781344 0.0078135 0.00781323 0.00781339 0.00781353 0.00781332 0.00781359 0.00781339 0.00781297 0.00781339 0.00781328 0.00781318 0.00781334 0.00781313 0.00781301 0.00781331 0.00781304 0.00781285 0.0078133 0.00781295 0.0078129 0.00781329 0.00781298 0.00781278 0.00781302 0.00781288 0.00781298 0.00781292 0.00781296 0.00781277 0.00781289 0.00781298 0.00781294 0.00781296 0.00781298 0.00781298 0.00781319 0.00781291 0.00781295 0.00781299 0.00781276 0.0078127 0.00781248 0.00781287 0.00781255 0.00781271 0.00781269 0.00781262 0.00781271 0.00781257 0.00781248 0.00781271 0.00781246 0.00781241 0.00781251 0.00781242 0.00781276 0.00781255 0.00781272 0.00781235 0.00781282 0.00781251 0.00781241 0.00781263 0.00781245 0.00781268 0.0078125 0.00781256 0.00781239 0.0078125 0.00781274 0.00781251 0.00781271 0.00781241 0.0078125 0.00781275 0.00781267 0.00781262 0.00781259 0.00781258 0.00781259 0.00781231 0.00781245 0.00781263 0.00781247 0.00782342 0.00782164 0.00783311 0.00782756 0.00782252 0.00782455 0.00781894 0.00781795 0.00781878 0.00782125 0.00781913 0.00782043 0.00781827 0.00781721 0.00781823 0.00781858 0.00781795 0.00781838 0.00781795 0.00781708 0.00781797 0.00781786 0.00781757 0.00781776 0.00781754 0.00781685 0.00781778 0.0078173 0.00781694 0.00781725 0.0078173 0.00781655 0.00781774 0.00781692 0.00781657 0.00781707 0.00781692 0.00781643 0.00781706 0.00781666 0.00781652 0.00781664 0.00781685 0.00781604 0.00781666 0.0078164 0.00781616 0.00781627 0.00781645 0.00781576 0.00781654 0.00781638 0.00781567 0.00781606 0.00781596 0.00781552 0.00781615 0.00781587 0.00781562 0.0078156 0.00781551 0.00781524 0.00781579 0.00781577 0.00781536 0.00781525 0.00781532 0.00781503 0.00781536 0.00781547 0.00781521 0.00781512 0.0078151 0.00781481 0.0078151 0.00781521 0.0078148 0.00781494 0.00781519 0.0078145 0.00781508 0.0078149 0.00781484 0.00781477 0.00781462 0.00781417 0.00781452 0.00781464 0.0078144 0.00781443 0.00781408 0.00781406 0.00781447 0.00781432 0.00781403 0.00781419 0.00781431 0.00781386 0.00781427 0.00781417 0.00781366 0.00781418 0.00781394 0.00781377 0.00781381 0.00781375 0.00781382 0.00781376 0.00781368 0.00781335 0.00781367 0.00781356 0.0078134 0.00781394 0.00781332 0.00781328 0.00781371 0.00781345 0.00781353 0.00781358 0.00781322 0.00781342 0.00781359 0.00781346 0.00781343 0.00781334 0.0078132 0.00781308 0.00781324 0.00781317 0.00781327 0.00781333 0.0078131 0.00781286 0.00781289 0.00781303 0.00781304 0.00781303 0.00781318 0.00781288 0.00781294 0.00781282 0.0078131 0.00781303 0.00781295 0.0078128 0.00781293 0.00781293 0.00781277 0.00781311 0.00781283 0.00781282 0.00781279 0.00781262 0.00781276 0.00781246 0.00781268 0.00781299 0.0078124 0.0078127 0.00781259 0.00781247 0.00781285 0.00781282 0.00781244 0.00781255 0.00781268 0.00781259 0.00781228 0.00781249 0.00781257 0.00781253 0.00781239 0.00781259 0.00781285 0.00781249 0.0078126 0.00781252 0.00781238 0.0078126 0.00781249 0.00781269 0.00781251 0.00781264 0.00781244 0.00781248 0.00781222 0.00781235 0.00781259 0.00781246 0.00781224 0.0078127 0.00780744 0.00780357 0.0078002 0.00779603 0.00780423 0.00780265 0.0078083 0.00780668 0.00780703 0.007807 0.00780671 0.00780611 0.00780827 0.00780708 0.0078087 0.00780774 0.00780709 0.00780713 0.007808 0.00780738 0.0078084 0.00780785 0.00780749 0.00780754 0.00780804 0.00780761 0.00780831 0.00780806 0.00780755 0.00780797 0.00780843 0.00780794 0.00780852 0.00780833 0.00780802 0.00780821 0.00780864 0.00780819 0.00780869 0.0078085 0.00780852 0.00780837 0.00780891 0.00780859 0.00780878 0.00780874 0.00780874 0.00780878 0.00780912 0.00780874 0.00780929 0.00780885 0.00780894 0.00780894 0.00780945 0.0078089 0.00780948 0.00780924 0.00780927 0.00780936 0.00780967 0.00780961 0.00780983 0.00780958 0.00780965 0.00780964 0.00780997 0.00780971 0.00780991 0.00780993 0.00780977 0.00781001 0.00781038 0.00781 0.00781022 0.00781017 0.00780994 0.00781028 0.00781061 0.00781041 0.00781052 0.00781022 0.0078103 0.00781052 0.00781071 0.00781043 0.00781085 0.00781027 0.00781057 0.00781062 0.00781083 0.00781039 0.00781095 0.00781113 0.00781083 0.0078107 0.00781123 0.00781082 0.00781102 0.00781076 0.00781088 0.00781114 0.00781113 0.0078111 0.00781113 0.00781111 0.00781116 0.00781128 0.00781158 0.00781121 0.00781145 0.00781112 0.0078114 0.00781142 0.00781158 0.0078114 0.0078115 0.00781127 0.00781142 0.0078117 0.00781189 0.00781173 0.00781188 0.0078118 0.00781136 0.00781164 0.00781209 0.00781192 0.00781178 0.0078117 0.00781156 0.00781184 0.007812 0.0078121 0.00781205 0.0078119 0.00781204 0.00781217 0.00781202 0.00781221 0.00781206 0.00781224 0.00781189 0.0078117 0.00781201 0.00781217 0.00781237 0.00781209 0.00781222 0.00781226 0.0078125 0.00781216 0.00781223 0.0078119 0.00781236 0.00781197 0.00781214 0.00781235 0.00781237 0.00781234 0.00781216 0.00781245 0.00781252 0.00781239 0.00781236 0.00781205 0.00781245 0.00781235 0.00781253 0.00781266 0.00781226 0.00781232 0.00781235 0.00781242 0.00781256 0.00781213 0.00781237 0.00781237 0.00781246 0.00781259 0.00781248 0.00781239 0.00781256 0.0078124 0.00781271 0.0078126 0.00781255 0.00781279 0.00781258 0.00781249 0.00781262 0.00781225 0.00780938 0.00780752 0.00780376 0.00780193 0.00780262 0.00780488 0.00780977 0.00780935 0.00780712 0.00780883 0.00780751 0.00780778 0.00780959 0.00780912 0.00780898 0.00780967 0.00780863 0.00780874 0.00780937 0.00780897 0.00780967 0.00780949 0.00780885 0.00780902 0.00780952 0.00780903 0.00780979 0.00780946 0.00780897 0.00780927 0.00780959 0.00780921 0.00780988 0.00780951 0.00780923 0.00780954 0.00781001 0.00780929 0.0078101 0.00780963 0.00780931 0.00780978 0.00781006 0.00780967 0.00781009 0.00780986 0.00780973 0.00780977 0.00781012 0.00780989 0.00781035 0.00781014 0.00780993 0.00781 0.00781041 0.00781004 0.00781033 0.00781025 0.00781011 0.00781029 0.00781067 0.00781047 0.00781061 0.00781022 0.00781033 0.00781055 0.00781076 0.00781047 0.00781073 0.00781041 0.00781053 0.00781076 0.00781118 0.00781061 0.00781091 0.00781074 0.00781055 0.00781071 0.00781105 0.00781097 0.00781114 0.00781084 0.00781097 0.00781098 0.00781119 0.00781104 0.00781142 0.00781106 0.00781109 0.00781113 0.0078113 0.00781115 0.00781128 0.00781146 0.00781124 0.00781136 0.00781142 0.00781121 0.0078116 0.00781144 0.00781151 0.00781167 0.0078118 0.00781126 0.00781171 0.00781152 0.00781163 0.00781161 0.00781156 0.00781179 0.00781185 0.0078117 0.00781173 0.0078118 0.0078119 0.00781153 0.00781202 0.00781205 0.00781174 0.00781166 0.00781192 0.00781188 0.00781205 0.00781217 0.00781199 0.00781195 0.0078122 0.00781198 0.00781207 0.00781217 0.00781208 0.0078121 0.00781208 0.00781185 0.00781231 0.00781212 0.00781199 0.007812 0.00781232 0.00781192 0.00781211 0.00781197 0.00781215 0.00781259 0.00781217 0.00781223 0.00781237 0.00781238 0.00781231 0.00781229 0.00781231 0.00781237 0.00781229 0.00781238 0.0078123 0.00781221 0.00781239 0.00781269 0.0078125 0.00781251 0.00781242 0.00781226 0.00781226 0.00781245 0.00781239 0.00781234 0.00781247 0.00781254 0.00781238 0.00781236 0.00781234 0.0078122 0.0078127 0.0078124 0.00781265 0.00781248 0.00781238 0.00781262 0.00781264 0.00781222 0.00781269 0.00781245 0.00781223 0.00781289 0.0078124 0.00781242 0.00781241 0.00781218 0.00781265 0.00781248 0.0078126 0.00781236 0.00781127 0.00780961 0.00780774 0.00780633 0.00780586 0.00780791 0.00781141 0.00781044 0.00780959 0.0078104 0.00780915 0.00780937 0.007811 0.00781034 0.00781073 0.00781105 0.00781003 0.00781023 0.00781082 0.00781031 0.00781105 0.00781107 0.00781026 0.00781047 0.00781083 0.00781017 0.00781108 0.0078108 0.00781049 0.00781059 0.00781085 0.00781054 0.00781103 0.0078109 0.00781056 0.00781082 0.00781091 0.00781037 0.00781122 0.00781082 0.00781047 0.00781119 0.00781105 0.00781067 0.00781124 0.00781077 0.00781084 0.00781099 0.00781122 0.0078107 0.00781135 0.00781102 0.00781089 0.00781114 0.00781138 0.00781101 0.00781134 0.00781118 0.00781102 0.00781116 0.00781145 0.00781128 0.00781156 0.00781131 0.00781129 0.00781114 0.00781145 0.00781141 0.00781166 0.00781147 0.00781148 0.00781131 0.00781183 0.00781144 0.00781158 0.00781155 0.00781157 0.00781167 0.00781183 0.0078113 0.00781182 0.00781167 0.00781147 0.00781157 0.00781178 0.00781173 0.00781179 0.0078116 0.00781176 0.0078118 0.00781188 0.00781175 0.00781192 0.00781164 0.0078118 0.00781163 0.00781204 0.00781152 0.00781211 0.00781217 0.0078117 0.00781167 0.00781199 0.00781172 0.00781204 0.00781198 0.00781184 0.00781208 0.00781197 0.00781209 0.00781215 0.00781183 0.00781186 0.00781196 0.00781209 0.00781198 0.00781239 0.0078123 0.00781207 0.00781214 0.00781239 0.00781183 0.00781228 0.00781209 0.00781208 0.00781246 0.00781219 0.00781191 0.00781207 0.00781211 0.00781243 0.00781246 0.00781216 0.00781241 0.00781217 0.00781221 0.00781219 0.00781245 0.00781235 0.00781238 0.00781234 0.00781232 0.0078124 0.00781237 0.00781242 0.00781223 0.00781226 0.00781237 0.00781225 0.00781225 0.00781237 0.00781243 0.00781245 0.00781255 0.00781218 0.00781245 0.0078124 0.00781246 0.00781234 0.00781225 0.00781242 0.00781223 0.00781259 0.00781226 0.00781275 0.00781256 0.00781242 0.00781244 0.00781241 0.00781256 0.00781243 0.00781261 0.0078123 0.00781247 0.00781251 0.00781256 0.00781272 0.00781237 0.00781261 0.0078122 0.00781269 0.00781212 0.00781226 0.00781244 0.00781265 0.00781245 0.0078126 0.00781271 0.00781233 0.0078127 0.00781246 0.00781247 0.00781356 0.00781144 0.00781179 0.007811 0.00780927 0.00781086 0.00781308 0.00781194 0.00781232 0.00781179 0.00781088 0.00781135 0.00781244 0.00781191 0.00781244 0.00781216 0.00781148 0.00781174 0.0078122 0.00781164 0.00781238 0.00781203 0.00781178 0.00781201 0.00781205 0.00781161 0.00781235 0.00781199 0.00781176 0.0078121 0.00781217 0.00781183 0.0078124 0.00781208 0.00781182 0.00781205 0.00781211 0.00781169 0.00781234 0.007812 0.00781178 0.00781216 0.00781213 0.00781179 0.00781243 0.00781199 0.00781193 0.00781192 0.00781231 0.00781202 0.00781216 0.00781208 0.00781205 0.00781221 0.00781224 0.00781181 0.00781228 0.00781206 0.00781191 0.00781222 0.00781219 0.00781207 0.00781239 0.00781205 0.00781211 0.007812 0.00781224 0.00781224 0.00781248 0.00781231 0.00781217 0.00781211 0.00781237 0.00781182 0.00781222 0.0078121 0.00781217 0.00781244 0.00781241 0.00781201 0.00781241 0.00781217 0.00781223 0.00781217 0.0078122 0.00781235 0.00781229 0.00781243 0.00781237 0.00781244 0.00781251 0.00781233 0.00781251 0.00781249 0.00781227 0.00781233 0.00781247 0.00781219 0.00781246 0.00781257 0.00781225 0.00781239 0.00781241 0.00781231 0.00781242 0.0078124 0.00781238 0.00781232 0.00781241 0.00781226 0.00781255 0.00781243 0.00781235 0.00781244 0.00781257 0.00781238 0.00781235 0.00781243 0.00781234 0.00781244 0.00781241 0.00781223 0.00781263 0.00781268 0.00781224 0.00781268 0.00781257 0.00781246 0.00781272 0.00781211 0.00781237 0.00781253 0.00781229 0.00781217 0.00781275 0.0078124 0.00781243 0.00781268 0.00781252 0.00781229 0.00781255 0.00781253 0.0078123 0.00781263 0.00781228 0.00781285 0.00781251 0.00781217 0.00781262 0.00781243 0.00781242 0.00781254 0.00781254 0.00781253 0.00781229 0.00781234 0.00781291 0.00781212 0.00781249 0.00781275 0.00781249 0.00781249 0.0078125 0.00781241 0.00781219 0.00781259 0.00781243 0.00781235 0.00781255 0.00781243 0.00781242 0.00781245 0.00781231 0.00781252 0.00781238 0.00781246 0.00781274 0.00781259 0.0078125 0.00781255 0.00781254 0.00781249 0.00781281 0.0078127 0.00781267 0.00781272 0.00781238 0.00781248 0.0078127 0.00781215 0.00781278 0.00781249 0.00781571 0.00781337 0.00781602 0.00781548 0.00781262 0.00781375 0.00781454 0.00781326 0.00781487 0.00781331 0.00781312 0.00781308 0.0078137 0.00781309 0.00781427 0.00781343 0.00781327 0.00781331 0.00781347 0.00781284 0.00781399 0.00781333 0.00781312 0.00781333 0.00781346 0.00781278 0.00781354 0.00781331 0.00781301 0.00781345 0.0078134 0.00781298 0.00781358 0.0078132 0.00781304 0.00781334 0.00781321 0.00781302 0.00781359 0.00781324 0.00781298 0.00781325 0.00781325 0.00781277 0.0078135 0.00781339 0.00781285 0.00781306 0.00781321 0.00781277 0.00781344 0.00781311 0.007813 0.00781322 0.00781321 0.00781285 0.00781336 0.00781292 0.00781289 0.00781307 0.00781325 0.00781281 0.00781316 0.00781292 0.00781297 0.00781291 0.00781295 0.00781296 0.00781321 0.00781315 0.00781282 0.00781289 0.00781308 0.00781254 0.00781306 0.00781328 0.00781279 0.00781302 0.00781293 0.00781262 0.00781312 0.00781293 0.00781275 0.00781297 0.00781288 0.00781298 0.00781302 0.00781299 0.00781267 0.00781296 0.00781268 0.00781255 0.00781309 0.00781269 0.00781262 0.00781281 0.00781268 0.00781258 0.00781304 0.00781286 0.00781265 0.00781286 0.00781279 0.00781265 0.00781283 0.00781266 0.00781282 0.00781246 0.0078128 0.00781244 0.00781279 0.00781293 0.00781238 0.00781263 0.00781277 0.00781257 0.00781276 0.00781268 0.00781256 0.00781278 0.00781266 0.0078127 0.00781284 0.00781247 0.00781257 0.00781266 0.00781286 0.00781216 0.0078126 0.00781279 0.00781247 0.00781282 0.00781236 0.00781256 0.00781264 0.00781292 0.00781275 0.00781249 0.00781255 0.00781258 0.00781237 0.0078127 0.00781249 0.0078127 0.00781254 0.00781249 0.00781241 0.00781274 0.00781264 0.00781264 0.00781289 0.00781239 0.00781242 0.00781242 0.0078125 0.0078125 0.0078124 0.00781241 0.00781237 0.00781253 0.00781289 0.00781251 0.00781262 0.00781222 0.00781269 0.00781245 0.00781229 0.00781257 0.00781248 0.00781233 0.00781262 0.00781224 0.00781248 0.00781294 0.00781245 0.00781251 0.0078126 0.00781236 0.0078123 0.00781247 0.00781269 0.00781256 0.00781273 0.00781247 0.00781224 0.00781253 0.0078124 0.00781292 0.00781268 0.00781236 0.00781234 0.00781247 0.00781803 0.00781568 0.00782058 0.00781986 0.00781607 0.00781655 0.00781586 0.00781466 0.00781736 0.00781491 0.00781522 0.00781522 0.00781516 0.00781419 0.00781582 0.00781435 0.00781453 0.00781494 0.00781489 0.00781433 0.00781518 0.00781449 0.00781433 0.00781463 0.00781457 0.00781433 0.00781485 0.00781442 0.00781431 0.00781468 0.00781465 0.00781407 0.00781483 0.00781445 0.0078142 0.00781437 0.00781461 0.00781406 0.00781462 0.00781447 0.00781402 0.00781446 0.00781458 0.00781396 0.00781455 0.0078143 0.00781392 0.00781408 0.0078142 0.00781388 0.00781452 0.00781435 0.00781374 0.00781417 0.00781408 0.00781373 0.00781429 0.00781395 0.00781386 0.00781412 0.0078139 0.00781343 0.00781414 0.00781401 0.00781373 0.00781373 0.00781381 0.0078136 0.00781405 0.00781402 0.00781353 0.00781373 0.00781355 0.00781342 0.00781379 0.00781375 0.00781373 0.00781354 0.00781357 0.00781333 0.00781364 0.00781369 0.0078133 0.00781339 0.00781359 0.00781337 0.00781362 0.00781342 0.00781332 0.00781347 0.00781319 0.00781339 0.00781343 0.00781325 0.00781316 0.00781346 0.00781323 0.00781337 0.00781343 0.0078134 0.00781325 0.00781333 0.00781315 0.00781294 0.00781327 0.00781316 0.00781327 0.00781319 0.00781298 0.0078131 0.00781293 0.00781304 0.00781303 0.00781291 0.00781285 0.00781298 0.00781293 0.00781301 0.00781292 0.00781299 0.00781306 0.00781267 0.00781298 0.00781277 0.00781295 0.00781296 0.00781298 0.00781289 0.00781289 0.00781282 0.00781295 0.00781306 0.00781283 0.00781245 0.00781285 0.00781291 0.00781277 0.00781302 0.00781288 0.00781273 0.00781288 0.00781262 0.00781276 0.00781294 0.00781258 0.00781267 0.00781285 0.00781282 0.0078128 0.00781263 0.00781264 0.00781223 0.0078127 0.00781274 0.00781281 0.00781233 0.00781261 0.00781284 0.0078126 0.00781277 0.00781242 0.00781255 0.00781258 0.00781257 0.00781254 0.0078125 0.00781261 0.00781267 0.00781253 0.00781245 0.00781214 0.00781207 0.00781258 0.00781269 0.00781265 0.00781243 0.00781274 0.00781252 0.00781271 0.00781244 0.00781242 0.00781274 0.00781261 0.00781246 0.00781234 0.00781236 0.00781251 0.0078122 0.00781257 0.00781256 0.00781251 0.00781223 0.00782043 0.00781793 0.00782583 0.00782445 0.00781923 0.00781962 0.00781697 0.00781584 0.00781957 0.0078167 0.007817 0.00781717 0.00781639 0.00781543 0.00781726 0.0078159 0.00781608 0.00781646 0.00781628 0.00781534 0.00781636 0.00781588 0.00781591 0.00781603 0.00781595 0.00781558 0.00781605 0.00781607 0.0078156 0.00781586 0.00781591 0.00781539 0.00781616 0.00781579 0.00781548 0.00781562 0.00781576 0.00781538 0.00781572 0.0078156 0.00781521 0.00781548 0.00781554 0.00781494 0.0078156 0.00781524 0.00781511 0.00781519 0.00781538 0.00781506 0.00781554 0.00781522 0.0078148 0.00781503 0.00781498 0.0078147 0.00781514 0.00781498 0.00781447 0.00781488 0.0078147 0.00781451 0.00781514 0.00781471 0.00781462 0.00781476 0.00781443 0.0078144 0.00781456 0.0078146 0.00781441 0.00781438 0.00781432 0.00781433 0.00781461 0.0078145 0.00781419 0.00781444 0.0078141 0.00781412 0.00781431 0.00781422 0.00781393 0.00781414 0.00781417 0.00781396 0.00781413 0.00781396 0.00781395 0.00781377 0.00781395 0.00781378 0.00781385 0.00781399 0.00781368 0.00781377 0.00781368 0.00781361 0.00781365 0.00781379 0.00781356 0.00781352 0.00781361 0.00781337 0.00781369 0.00781365 0.00781332 0.00781349 0.00781348 0.00781329 0.00781353 0.00781336 0.00781325 0.00781337 0.00781327 0.00781292 0.00781352 0.00781324 0.0078132 0.00781312 0.00781334 0.00781301 0.00781298 0.00781308 0.00781319 0.00781326 0.00781298 0.00781329 0.00781323 0.00781329 0.0078131 0.0078131 0.00781306 0.00781298 0.00781315 0.00781298 0.00781265 0.00781295 0.00781275 0.0078126 0.00781287 0.00781258 0.00781281 0.00781299 0.00781249 0.00781287 0.00781271 0.00781269 0.00781283 0.00781305 0.00781273 0.00781249 0.0078126 0.00781259 0.00781265 0.007813 0.00781276 0.00781263 0.00781278 0.00781279 0.00781265 0.00781285 0.00781264 0.00781297 0.00781256 0.00781251 0.0078128 0.00781265 0.00781257 0.00781243 0.00781263 0.0078124 0.00781246 0.00781274 0.00781261 0.00781206 0.00781267 0.0078127 0.00781218 0.00781254 0.00781274 0.00781255 0.0078125 0.00781262 0.00781245 0.00781228 0.00781255 0.00781223 0.00781232 0.00781273 0.0078127 0.00781258 0.00782262 0.00782037 0.00783109 0.00782805 0.00782195 0.007823 0.00781829 0.00781708 0.00781797 0.00781866 0.00781832 0.00781902 0.00781802 0.00781685 0.00781779 0.0078172 0.00781727 0.00781775 0.00781792 0.00781669 0.00781774 0.00781724 0.00781715 0.00781743 0.00781755 0.00781657 0.00781758 0.00781709 0.0078168 0.00781718 0.0078171 0.00781647 0.0078173 0.00781697 0.00781666 0.00781691 0.00781682 0.00781645 0.0078171 0.00781673 0.00781636 0.00781652 0.00781683 0.00781577 0.00781665 0.00781639 0.00781604 0.00781631 0.00781655 0.00781591 0.0078162 0.0078162 0.00781583 0.00781595 0.00781612 0.00781562 0.00781596 0.00781592 0.00781555 0.00781575 0.00781582 0.00781529 0.00781577 0.00781563 0.00781509 0.00781545 0.00781523 0.00781513 0.00781549 0.00781539 0.00781509 0.00781505 0.00781492 0.00781503 0.00781519 0.00781513 0.00781491 0.00781515 0.00781463 0.0078148 0.00781525 0.00781483 0.00781454 0.00781455 0.00781478 0.00781442 0.00781471 0.00781444 0.00781458 0.00781442 0.00781458 0.00781427 0.00781442 0.00781445 0.00781407 0.00781436 0.0078144 0.0078141 0.00781437 0.0078141 0.00781402 0.00781412 0.00781391 0.00781361 0.00781405 0.00781377 0.0078139 0.00781397 0.00781357 0.00781353 0.00781398 0.00781366 0.00781362 0.00781374 0.00781364 0.00781377 0.00781383 0.00781369 0.0078135 0.00781358 0.00781333 0.00781316 0.00781335 0.00781344 0.00781348 0.00781335 0.0078134 0.00781341 0.00781335 0.00781335 0.00781308 0.00781332 0.00781314 0.00781299 0.00781327 0.00781321 0.00781276 0.00781313 0.0078131 0.00781296 0.00781307 0.00781283 0.00781316 0.00781279 0.00781294 0.00781282 0.00781273 0.0078131 0.0078126 0.0078128 0.00781272 0.00781261 0.00781277 0.00781299 0.00781291 0.0078128 0.00781249 0.00781287 0.00781266 0.00781291 0.00781273 0.00781324 0.00781251 0.00781252 0.00781254 0.00781256 0.00781274 0.00781257 0.00781244 0.00781252 0.00781266 0.00781264 0.00781238 0.00781278 0.00781253 0.00781275 0.00781288 0.00781262 0.00781257 0.00781249 0.00781274 0.00781249 0.00781262 0.00781256 0.00781272 0.00781217 0.00781271 0.00781222 0.00781215 0.00781259 0.00781241 0.00781281 
