# vtk DataFile Version 5.1
vtk output
ASCII

DATASET UNSTRUCTURED_GRID
POINTS 18785 float
0 0 0.7
0.125 0 0.7
0.25 0 0.7
0.375 0 0.7
0.5 0 0.7
0.625 0 0.7
0.75 0 0.7
0.875 0 0.7
1 0 0.7
1.125 0 0.7
1.25 0 0.7
1.375 0 0.7
1.5 0 0.7
1.625 0 0.7
1.75 0 0.7
1.875 0 0.7
2 0 0.7
2.125 0 0.7
2.25 0 0.7
2.375 0 0.7
2.5 0 0.7
2.625 0 0.7
2.75 0 0.7
2.875 0 0.7
3 0 0.7
3.125 0 0.7
3.25 0 0.7
3.375 0 0.7
3.5 0 0.7
3.625 0 0.7
3.75 0 0.7
3.875 0 0.7
4 0 0.7
0 0.125 0.7
0.125 0.125 0.7
0.25 0.125 0.7
0.375 0.125 0.7
0.5 0.125 0.7
0.625 0.125 0.7
0.75 0.125 0.7
0.875 0.125 0.7
1 0.125 0.7
1.125 0.125 0.7
1.25 0.125 0.7
1.375 0.125 0.7
1.5 0.125 0.7
1.625 0.125 0.7
1.75 0.125 0.7
1.875 0.125 0.7
2 0.125 0.7
2.125 0.125 0.7
2.25 0.125 0.7
2.375 0.125 0.7
2.5 0.125 0.7
2.625 0.125 0.7
2.75 0.125 0.7
2.875 0.125 0.7
3 0.125 0.7
3.125 0.125 0.7
3.25 0.125 0.7
3.375 0.125 0.7
3.5 0.125 0.7
3.625 0.125 0.7
3.75 0.125 0.7
3.875 0.125 0.7
4 0.125 0.7
0 0.25 0.7
0.125 0.25 0.7
0.25 0.25 0.7
0.375 0.25 0.7
0.5 0.25 0.7
0.625 0.25 0.7
0.75 0.25 0.7
0.875 0.25 0.7
1 0.25 0.7
1.125 0.25 0.7
1.25 0.25 0.7
1.375 0.25 0.7
1.5 0.25 0.7
1.625 0.25 0.7
1.75 0.25 0.7
1.875 0.25 0.7
2 0.25 0.7
2.125 0.25 0.7
2.25 0.25 0.7
2.375 0.25 0.7
2.5 0.25 0.7
2.625 0.25 0.7
2.75 0.25 0.7
2.875 0.25 0.7
3 0.25 0.7
3.125 0.25 0.7
3.25 0.25 0.7
3.375 0.25 0.7
3.5 0.25 0.7
3.625 0.25 0.7
3.75 0.25 0.7
3.875 0.25 0.7
4 0.25 0.7
0 0.375 0.7
0.125 0.375 0.7
0.25 0.375 0.7
0.375 0.375 0.7
0.5 0.375 0.7
0.625 0.375 0.7
0.75 0.375 0.7
0.875 0.375 0.7
1 0.375 0.7
1.125 0.375 0.7
1.25 0.375 0.7
1.375 0.375 0.7
1.5 0.375 0.7
1.625 0.375 0.7
1.75 0.375 0.7
1.875 0.375 0.7
2 0.375 0.7
2.125 0.375 0.7
2.25 0.375 0.7
2.375 0.375 0.7
2.5 0.375 0.7
2.625 0.375 0.7
2.75 0.375 0.7
2.875 0.375 0.7
3 0.375 0.7
3.125 0.375 0.7
3.25 0.375 0.7
3.375 0.375 0.7
3.5 0.375 0.7
3.625 0.375 0.7
3.75 0.375 0.7
3.875 0.375 0.7
4 0.375 0.7
0 0.5 0.7
0.125 0.5 0.7
0.25 0.5 0.7
0.375 0.5 0.7
0.5 0.5 0.7
0.625 0.5 0.7
0.75 0.5 0.7
0.875 0.5 0.7
1 0.5 0.7
1.125 0.5 0.7
1.25 0.5 0.7
1.375 0.5 0.7
1.5 0.5 0.7
1.625 0.5 0.7
1.75 0.5 0.7
1.875 0.5 0.7
2 0.5 0.7
2.125 0.5 0.7
2.25 0.5 0.7
2.375 0.5 0.7
2.5 0.5 0.7
2.625 0.5 0.7
2.75 0.5 0.7
2.875 0.5 0.7
3 0.5 0.7
3.125 0.5 0.7
3.25 0.5 0.7
3.375 0.5 0.7
3.5 0.5 0.7
3.625 0.5 0.7
3.75 0.5 0.7
3.875 0.5 0.7
4 0.5 0.7
0 0.625 0.7
0.125 0.625 0.7
0.25 0.625 0.7
0.375 0.625 0.7
0.5 0.625 0.7
0.625 0.625 0.7
0.75 0.625 0.7
0.875 0.625 0.7
1 0.625 0.7
1.125 0.625 0.7
1.25 0.625 0.7
1.375 0.625 0.7
1.5 0.625 0.7
1.625 0.625 0.7
1.75 0.625 0.7
1.875 0.625 0.7
2 0.625 0.7
2.125 0.625 0.7
2.25 0.625 0.7
2.375 0.625 0.7
2.5 0.625 0.7
2.625 0.625 0.7
2.75 0.625 0.7
2.875 0.625 0.7
3 0.625 0.7
3.125 0.625 0.7
3.25 0.625 0.7
3.375 0.625 0.7
3.5 0.625 0.7
3.625 0.625 0.7
3.75 0.625 0.7
3.875 0.625 0.7
4 0.625 0.7
0 0.75 0.7
0.125 0.75 0.7
0.25 0.75 0.7
0.375 0.75 0.7
0.5 0.75 0.7
0.625 0.75 0.7
0.75 0.75 0.7
0.875 0.75 0.7
1 0.75 0.7
1.125 0.75 0.7
1.25 0.75 0.7
1.375 0.75 0.7
1.5 0.75 0.7
1.625 0.75 0.7
1.75 0.75 0.7
1.875 0.75 0.7
2 0.75 0.7
2.125 0.75 0.7
2.25 0.75 0.7
2.375 0.75 0.7
2.5 0.75 0.7
2.625 0.75 0.7
2.75 0.75 0.7
2.875 0.75 0.7
3 0.75 0.7
3.125 0.75 0.7
3.25 0.75 0.7
3.375 0.75 0.7
3.5 0.75 0.7
3.625 0.75 0.7
3.75 0.75 0.7
3.875 0.75 0.7
4 0.75 0.7
0 0.875 0.7
0.125 0.875 0.7
0.25 0.875 0.7
0.375 0.875 0.7
0.5 0.875 0.7
0.625 0.875 0.7
0.75 0.875 0.7
0.875 0.875 0.7
1 0.875 0.7
1.125 0.875 0.7
1.25 0.875 0.7
1.375 0.875 0.7
1.5 0.875 0.7
1.625 0.875 0.7
1.75 0.875 0.7
1.875 0.875 0.7
2 0.875 0.7
2.125 0.875 0.7
2.25 0.875 0.7
2.375 0.875 0.7
2.5 0.875 0.7
2.625 0.875 0.7
2.75 0.875 0.7
2.875 0.875 0.7
3 0.875 0.7
3.125 0.875 0.7
3.25 0.875 0.7
3.375 0.875 0.7
3.5 0.875 0.7
3.625 0.875 0.7
3.75 0.875 0.7
3.875 0.875 0.7
4 0.875 0.7
0 1 0.7
0.125 1 0.7
0.25 1 0.7
0.375 1 0.7
0.5 1 0.7
0.625 1 0.7
0.75 1 0.7
0.875 1 0.7
1 1 0.7
1.125 1 0.7
1.25 1 0.7
1.375 1 0.7
1.5 1 0.7
1.625 1 0.7
1.75 1 0.7
1.875 1 0.7
2 1 0.7
2.125 1 0.7
2.25 1 0.7
2.375 1 0.7
2.5 1 0.7
2.625 1 0.7
2.75 1 0.7
2.875 1 0.7
3 1 0.7
3.125 1 0.7
3.25 1 0.7
3.375 1 0.7
3.5 1 0.7
3.625 1 0.7
3.75 1 0.7
3.875 1 0.7
4 1 0.7
0 0 0.825
0.125 0 0.825
0.25 0 0.825
0.375 0 0.825
0.5 0 0.825
0.625 0 0.825
0.75 0 0.825
0.875 0 0.825
1 0 0.825
1.125 0 0.825
1.25 0 0.825
1.375 0 0.825
1.5 0 0.825
1.625 0 0.825
1.75 0 0.825
1.875 0 0.825
2 0 0.825
2.125 0 0.825
2.25 0 0.825
2.375 0 0.825
2.5 0 0.825
2.625 0 0.825
2.75 0 0.825
2.875 0 0.825
3 0 0.825
3.125 0 0.825
3.25 0 0.825
3.375 0 0.825
3.5 0 0.825
3.625 0 0.825
3.75 0 0.825
3.875 0 0.825
4 0 0.825
0 0.125 0.825
0.125 0.125 0.825
0.25 0.125 0.825
0.375 0.125 0.825
0.5 0.125 0.825
0.625 0.125 0.825
0.75 0.125 0.825
0.875 0.125 0.825
1 0.125 0.825
1.125 0.125 0.825
1.25 0.125 0.825
1.375 0.125 0.825
1.5 0.125 0.825
1.625 0.125 0.825
1.75 0.125 0.825
1.875 0.125 0.825
2 0.125 0.825
2.125 0.125 0.825
2.25 0.125 0.825
2.375 0.125 0.825
2.5 0.125 0.825
2.625 0.125 0.825
2.75 0.125 0.825
2.875 0.125 0.825
3 0.125 0.825
3.125 0.125 0.825
3.25 0.125 0.825
3.375 0.125 0.825
3.5 0.125 0.825
3.625 0.125 0.825
3.75 0.125 0.825
3.875 0.125 0.825
4 0.125 0.825
0 0.25 0.825
0.125 0.25 0.825
0.25 0.25 0.825
0.375 0.25 0.825
0.5 0.25 0.825
0.625 0.25 0.825
0.75 0.25 0.825
0.875 0.25 0.825
1 0.25 0.825
1.125 0.25 0.825
1.25 0.25 0.825
1.375 0.25 0.825
1.5 0.25 0.825
1.625 0.25 0.825
1.75 0.25 0.825
1.875 0.25 0.825
2 0.25 0.825
2.125 0.25 0.825
2.25 0.25 0.825
2.375 0.25 0.825
2.5 0.25 0.825
2.625 0.25 0.825
2.75 0.25 0.825
2.875 0.25 0.825
3 0.25 0.825
3.125 0.25 0.825
3.25 0.25 0.825
3.375 0.25 0.825
3.5 0.25 0.825
3.625 0.25 0.825
3.75 0.25 0.825
3.875 0.25 0.825
4 0.25 0.825
0 0.375 0.825
0.125 0.375 0.825
0.25 0.375 0.825
0.375 0.375 0.825
0.5 0.375 0.825
0.625 0.375 0.825
0.75 0.375 0.825
0.875 0.375 0.825
1 0.375 0.825
1.125 0.375 0.825
1.25 0.375 0.825
1.375 0.375 0.825
1.5 0.375 0.825
1.625 0.375 0.825
1.75 0.375 0.825
1.875 0.375 0.825
2 0.375 0.825
2.125 0.375 0.825
2.25 0.375 0.825
2.375 0.375 0.825
2.5 0.375 0.825
2.625 0.375 0.825
2.75 0.375 0.825
2.875 0.375 0.825
3 0.375 0.825
3.125 0.375 0.825
3.25 0.375 0.825
3.375 0.375 0.825
3.5 0.375 0.825
3.625 0.375 0.825
3.75 0.375 0.825
3.875 0.375 0.825
4 0.375 0.825
0 0.5 0.825
0.125 0.5 0.825
0.25 0.5 0.825
0.375 0.5 0.825
0.5 0.5 0.825
0.625 0.5 0.825
0.75 0.5 0.825
0.875 0.5 0.825
1 0.5 0.825
1.125 0.5 0.825
1.25 0.5 0.825
1.375 0.5 0.825
1.5 0.5 0.825
1.625 0.5 0.825
1.75 0.5 0.825
1.875 0.5 0.825
2 0.5 0.825
2.125 0.5 0.825
2.25 0.5 0.825
2.375 0.5 0.825
2.5 0.5 0.825
2.625 0.5 0.825
2.75 0.5 0.825
2.875 0.5 0.825
3 0.5 0.825
3.125 0.5 0.825
3.25 0.5 0.825
3.375 0.5 0.825
3.5 0.5 0.825
3.625 0.5 0.825
3.75 0.5 0.825
3.875 0.5 0.825
4 0.5 0.825
0 0.625 0.825
0.125 0.625 0.825
0.25 0.625 0.825
0.375 0.625 0.825
0.5 0.625 0.825
0.625 0.625 0.825
0.75 0.625 0.825
0.875 0.625 0.825
1 0.625 0.825
1.125 0.625 0.825
1.25 0.625 0.825
1.375 0.625 0.825
1.5 0.625 0.825
1.625 0.625 0.825
1.75 0.625 0.825
1.875 0.625 0.825
2 0.625 0.825
2.125 0.625 0.825
2.25 0.625 0.825
2.375 0.625 0.825
2.5 0.625 0.825
2.625 0.625 0.825
2.75 0.625 0.825
2.875 0.625 0.825
3 0.625 0.825
3.125 0.625 0.825
3.25 0.625 0.825
3.375 0.625 0.825
3.5 0.625 0.825
3.625 0.625 0.825
3.75 0.625 0.825
3.875 0.625 0.825
4 0.625 0.825
0 0.75 0.825
0.125 0.75 0.825
0.25 0.75 0.825
0.375 0.75 0.825
0.5 0.75 0.825
0.625 0.75 0.825
0.75 0.75 0.825
0.875 0.75 0.825
1 0.75 0.825
1.125 0.75 0.825
1.25 0.75 0.825
1.375 0.75 0.825
1.5 0.75 0.825
1.625 0.75 0.825
1.75 0.75 0.825
1.875 0.75 0.825
2 0.75 0.825
2.125 0.75 0.825
2.25 0.75 0.825
2.375 0.75 0.825
2.5 0.75 0.825
2.625 0.75 0.825
2.75 0.75 0.825
2.875 0.75 0.825
3 0.75 0.825
3.125 0.75 0.825
3.25 0.75 0.825
3.375 0.75 0.825
3.5 0.75 0.825
3.625 0.75 0.825
3.75 0.75 0.825
3.875 0.75 0.825
4 0.75 0.825
0 0.875 0.825
0.125 0.875 0.825
0.25 0.875 0.825
0.375 0.875 0.825
0.5 0.875 0.825
0.625 0.875 0.825
0.75 0.875 0.825
0.875 0.875 0.825
1 0.875 0.825
1.125 0.875 0.825
1.25 0.875 0.825
1.375 0.875 0.825
1.5 0.875 0.825
1.625 0.875 0.825
1.75 0.875 0.825
1.875 0.875 0.825
2 0.875 0.825
2.125 0.875 0.825
2.25 0.875 0.825
2.375 0.875 0.825
2.5 0.875 0.825
2.625 0.875 0.825
2.75 0.875 0.825
2.875 0.875 0.825
3 0.875 0.825
3.125 0.875 0.825
3.25 0.875 0.825
3.375 0.875 0.825
3.5 0.875 0.825
3.625 0.875 0.825
3.75 0.875 0.825
3.875 0.875 0.825
4 0.875 0.825
0 1 0.825
0.125 1 0.825
0.25 1 0.825
0.375 1 0.825
0.5 1 0.825
0.625 1 0.825
0.75 1 0.825
0.875 1 0.825
1 1 0.825
1.125 1 0.825
1.25 1 0.825
1.375 1 0.825
1.5 1 0.825
1.625 1 0.825
1.75 1 0.825
1.875 1 0.825
2 1 0.825
2.125 1 0.825
2.25 1 0.825
2.375 1 0.825
2.5 1 0.825
2.625 1 0.825
2.75 1 0.825
2.875 1 0.825
3 1 0.825
3.125 1 0.825
3.25 1 0.825
3.375 1 0.825
3.5 1 0.825
3.625 1 0.825
3.75 1 0.825
3.875 1 0.825
4 1 0.825
0 0 0.95
0.125 0 0.95
0.25 0 0.95
0.375 0 0.95
0.5 0 0.95
0.625 0 0.95
0.75 0 0.95
0.875 0 0.95
1 0 0.95
1.125 0 0.95
1.25 0 0.95
1.375 0 0.95
1.5 0 0.95
1.625 0 0.95
1.75 0 0.95
1.875 0 0.95
2 0 0.95
2.125 0 0.95
2.25 0 0.95
2.375 0 0.95
2.5 0 0.95
2.625 0 0.95
2.75 0 0.95
2.875 0 0.95
3 0 0.95
3.125 0 0.95
3.25 0 0.95
3.375 0 0.95
3.5 0 0.95
3.625 0 0.95
3.75 0 0.95
3.875 0 0.95
4 0 0.95
0 0.125 0.95
0.125 0.125 0.95
0.25 0.125 0.95
0.375 0.125 0.95
0.5 0.125 0.95
0.625 0.125 0.95
0.75 0.125 0.95
0.875 0.125 0.95
1 0.125 0.95
1.125 0.125 0.95
1.25 0.125 0.95
1.375 0.125 0.95
1.5 0.125 0.95
1.625 0.125 0.95
1.75 0.125 0.95
1.875 0.125 0.95
2 0.125 0.95
2.125 0.125 0.95
2.25 0.125 0.95
2.375 0.125 0.95
2.5 0.125 0.95
2.625 0.125 0.95
2.75 0.125 0.95
2.875 0.125 0.95
3 0.125 0.95
3.125 0.125 0.95
3.25 0.125 0.95
3.375 0.125 0.95
3.5 0.125 0.95
3.625 0.125 0.95
3.75 0.125 0.95
3.875 0.125 0.95
4 0.125 0.95
0 0.25 0.95
0.125 0.25 0.95
0.25 0.25 0.95
0.375 0.25 0.95
0.5 0.25 0.95
0.625 0.25 0.95
0.75 0.25 0.95
0.875 0.25 0.95
1 0.25 0.95
1.125 0.25 0.95
1.25 0.25 0.95
1.375 0.25 0.95
1.5 0.25 0.95
1.625 0.25 0.95
1.75 0.25 0.95
1.875 0.25 0.95
2 0.25 0.95
2.125 0.25 0.95
2.25 0.25 0.95
2.375 0.25 0.95
2.5 0.25 0.95
2.625 0.25 0.95
2.75 0.25 0.95
2.875 0.25 0.95
3 0.25 0.95
3.125 0.25 0.95
3.25 0.25 0.95
3.375 0.25 0.95
3.5 0.25 0.95
3.625 0.25 0.95
3.75 0.25 0.95
3.875 0.25 0.95
4 0.25 0.95
0 0.375 0.95
0.125 0.375 0.95
0.25 0.375 0.95
0.375 0.375 0.95
0.5 0.375 0.95
0.625 0.375 0.95
0.75 0.375 0.95
0.875 0.375 0.95
1 0.375 0.95
1.125 0.375 0.95
1.25 0.375 0.95
1.375 0.375 0.95
1.5 0.375 0.95
1.625 0.375 0.95
1.75 0.375 0.95
1.875 0.375 0.95
2 0.375 0.95
2.125 0.375 0.95
2.25 0.375 0.95
2.375 0.375 0.95
2.5 0.375 0.95
2.625 0.375 0.95
2.75 0.375 0.95
2.875 0.375 0.95
3 0.375 0.95
3.125 0.375 0.95
3.25 0.375 0.95
3.375 0.375 0.95
3.5 0.375 0.95
3.625 0.375 0.95
3.75 0.375 0.95
3.875 0.375 0.95
4 0.375 0.95
0 0.5 0.95
0.125 0.5 0.95
0.25 0.5 0.95
0.375 0.5 0.95
0.5 0.5 0.95
0.625 0.5 0.95
0.75 0.5 0.95
0.875 0.5 0.95
1 0.5 0.95
1.125 0.5 0.95
1.25 0.5 0.95
1.375 0.5 0.95
1.5 0.5 0.95
1.625 0.5 0.95
1.75 0.5 0.95
1.875 0.5 0.95
2 0.5 0.95
2.125 0.5 0.95
2.25 0.5 0.95
2.375 0.5 0.95
2.5 0.5 0.95
2.625 0.5 0.95
2.75 0.5 0.95
2.875 0.5 0.95
3 0.5 0.95
3.125 0.5 0.95
3.25 0.5 0.95
3.375 0.5 0.95
3.5 0.5 0.95
3.625 0.5 0.95
3.75 0.5 0.95
3.875 0.5 0.95
4 0.5 0.95
0 0.625 0.95
0.125 0.625 0.95
0.25 0.625 0.95
0.375 0.625 0.95
0.5 0.625 0.95
0.625 0.625 0.95
0.75 0.625 0.95
0.875 0.625 0.95
1 0.625 0.95
1.125 0.625 0.95
1.25 0.625 0.95
1.375 0.625 0.95
1.5 0.625 0.95
1.625 0.625 0.95
1.75 0.625 0.95
1.875 0.625 0.95
2 0.625 0.95
2.125 0.625 0.95
2.25 0.625 0.95
2.375 0.625 0.95
2.5 0.625 0.95
2.625 0.625 0.95
2.75 0.625 0.95
2.875 0.625 0.95
3 0.625 0.95
3.125 0.625 0.95
3.25 0.625 0.95
3.375 0.625 0.95
3.5 0.625 0.95
3.625 0.625 0.95
3.75 0.625 0.95
3.875 0.625 0.95
4 0.625 0.95
0 0.75 0.95
0.125 0.75 0.95
0.25 0.75 0.95
0.375 0.75 0.95
0.5 0.75 0.95
0.625 0.75 0.95
0.75 0.75 0.95
0.875 0.75 0.95
1 0.75 0.95
1.125 0.75 0.95
1.25 0.75 0.95
1.375 0.75 0.95
1.5 0.75 0.95
1.625 0.75 0.95
1.75 0.75 0.95
1.875 0.75 0.95
2 0.75 0.95
2.125 0.75 0.95
2.25 0.75 0.95
2.375 0.75 0.95
2.5 0.75 0.95
2.625 0.75 0.95
2.75 0.75 0.95
2.875 0.75 0.95
3 0.75 0.95
3.125 0.75 0.95
3.25 0.75 0.95
3.375 0.75 0.95
3.5 0.75 0.95
3.625 0.75 0.95
3.75 0.75 0.95
3.875 0.75 0.95
4 0.75 0.95
0 0.875 0.95
0.125 0.875 0.95
0.25 0.875 0.95
0.375 0.875 0.95
0.5 0.875 0.95
0.625 0.875 0.95
0.75 0.875 0.95
0.875 0.875 0.95
1 0.875 0.95
1.125 0.875 0.95
1.25 0.875 0.95
1.375 0.875 0.95
1.5 0.875 0.95
1.625 0.875 0.95
1.75 0.875 0.95
1.875 0.875 0.95
2 0.875 0.95
2.125 0.875 0.95
2.25 0.875 0.95
2.375 0.875 0.95
2.5 0.875 0.95
2.625 0.875 0.95
2.75 0.875 0.95
2.875 0.875 0.95
3 0.875 0.95
3.125 0.875 0.95
3.25 0.875 0.95
3.375 0.875 0.95
3.5 0.875 0.95
3.625 0.875 0.95
3.75 0.875 0.95
3.875 0.875 0.95
4 0.875 0.95
0 1 0.95
0.125 1 0.95
0.25 1 0.95
0.375 1 0.95
0.5 1 0.95
0.625 1 0.95
0.75 1 0.95
0.875 1 0.95
1 1 0.95
1.125 1 0.95
1.25 1 0.95
1.375 1 0.95
1.5 1 0.95
1.625 1 0.95
1.75 1 0.95
1.875 1 0.95
2 1 0.95
2.125 1 0.95
2.25 1 0.95
2.375 1 0.95
2.5 1 0.95
2.625 1 0.95
2.75 1 0.95
2.875 1 0.95
3 1 0.95
3.125 1 0.95
3.25 1 0.95
3.375 1 0.95
3.5 1 0.95
3.625 1 0.95
3.75 1 0.95
3.875 1 0.95
4 1 0.95
0 0 1.075
0.125 0 1.075
0.25 0 1.075
0.375 0 1.075
0.5 0 1.075
0.625 0 1.075
0.75 0 1.075
0.875 0 1.075
1 0 1.075
1.125 0 1.075
1.25 0 1.075
1.375 0 1.075
1.5 0 1.075
1.625 0 1.075
1.75 0 1.075
1.875 0 1.075
2 0 1.075
2.125 0 1.075
2.25 0 1.075
2.375 0 1.075
2.5 0 1.075
2.625 0 1.075
2.75 0 1.075
2.875 0 1.075
3 0 1.075
3.125 0 1.075
3.25 0 1.075
3.375 0 1.075
3.5 0 1.075
3.625 0 1.075
3.75 0 1.075
3.875 0 1.075
4 0 1.075
0 0.125 1.075
0.125 0.125 1.075
0.25 0.125 1.075
0.375 0.125 1.075
0.5 0.125 1.075
0.625 0.125 1.075
0.75 0.125 1.075
0.875 0.125 1.075
1 0.125 1.075
1.125 0.125 1.075
1.25 0.125 1.075
1.375 0.125 1.075
1.5 0.125 1.075
1.625 0.125 1.075
1.75 0.125 1.075
1.875 0.125 1.075
2 0.125 1.075
2.125 0.125 1.075
2.25 0.125 1.075
2.375 0.125 1.075
2.5 0.125 1.075
2.625 0.125 1.075
2.75 0.125 1.075
2.875 0.125 1.075
3 0.125 1.075
3.125 0.125 1.075
3.25 0.125 1.075
3.375 0.125 1.075
3.5 0.125 1.075
3.625 0.125 1.075
3.75 0.125 1.075
3.875 0.125 1.075
4 0.125 1.075
0 0.25 1.075
0.125 0.25 1.075
0.25 0.25 1.075
0.375 0.25 1.075
0.5 0.25 1.075
0.625 0.25 1.075
0.75 0.25 1.075
0.875 0.25 1.075
1 0.25 1.075
1.125 0.25 1.075
1.25 0.25 1.075
1.375 0.25 1.075
1.5 0.25 1.075
1.625 0.25 1.075
1.75 0.25 1.075
1.875 0.25 1.075
2 0.25 1.075
2.125 0.25 1.075
2.25 0.25 1.075
2.375 0.25 1.075
2.5 0.25 1.075
2.625 0.25 1.075
2.75 0.25 1.075
2.875 0.25 1.075
3 0.25 1.075
3.125 0.25 1.075
3.25 0.25 1.075
3.375 0.25 1.075
3.5 0.25 1.075
3.625 0.25 1.075
3.75 0.25 1.075
3.875 0.25 1.075
4 0.25 1.075
0 0.375 1.075
0.125 0.375 1.075
0.25 0.375 1.075
0.375 0.375 1.075
0.5 0.375 1.075
0.625 0.375 1.075
0.75 0.375 1.075
0.875 0.375 1.075
1 0.375 1.075
1.125 0.375 1.075
1.25 0.375 1.075
1.375 0.375 1.075
1.5 0.375 1.075
1.625 0.375 1.075
1.75 0.375 1.075
1.875 0.375 1.075
2 0.375 1.075
2.125 0.375 1.075
2.25 0.375 1.075
2.375 0.375 1.075
2.5 0.375 1.075
2.625 0.375 1.075
2.75 0.375 1.075
2.875 0.375 1.075
3 0.375 1.075
3.125 0.375 1.075
3.25 0.375 1.075
3.375 0.375 1.075
3.5 0.375 1.075
3.625 0.375 1.075
3.75 0.375 1.075
3.875 0.375 1.075
4 0.375 1.075
0 0.5 1.075
0.125 0.5 1.075
0.25 0.5 1.075
0.375 0.5 1.075
0.5 0.5 1.075
0.625 0.5 1.075
0.75 0.5 1.075
0.875 0.5 1.075
1 0.5 1.075
1.125 0.5 1.075
1.25 0.5 1.075
1.375 0.5 1.075
1.5 0.5 1.075
1.625 0.5 1.075
1.75 0.5 1.075
1.875 0.5 1.075
2 0.5 1.075
2.125 0.5 1.075
2.25 0.5 1.075
2.375 0.5 1.075
2.5 0.5 1.075
2.625 0.5 1.075
2.75 0.5 1.075
2.875 0.5 1.075
3 0.5 1.075
3.125 0.5 1.075
3.25 0.5 1.075
3.375 0.5 1.075
3.5 0.5 1.075
3.625 0.5 1.075
3.75 0.5 1.075
3.875 0.5 1.075
4 0.5 1.075
0 0.625 1.075
0.125 0.625 1.075
0.25 0.625 1.075
0.375 0.625 1.075
0.5 0.625 1.075
0.625 0.625 1.075
0.75 0.625 1.075
0.875 0.625 1.075
1 0.625 1.075
1.125 0.625 1.075
1.25 0.625 1.075
1.375 0.625 1.075
1.5 0.625 1.075
1.625 0.625 1.075
1.75 0.625 1.075
1.875 0.625 1.075
2 0.625 1.075
2.125 0.625 1.075
2.25 0.625 1.075
2.375 0.625 1.075
2.5 0.625 1.075
2.625 0.625 1.075
2.75 0.625 1.075
2.875 0.625 1.075
3 0.625 1.075
3.125 0.625 1.075
3.25 0.625 1.075
3.375 0.625 1.075
3.5 0.625 1.075
3.625 0.625 1.075
3.75 0.625 1.075
3.875 0.625 1.075
4 0.625 1.075
0 0.75 1.075
0.125 0.75 1.075
0.25 0.75 1.075
0.375 0.75 1.075
0.5 0.75 1.075
0.625 0.75 1.075
0.75 0.75 1.075
0.875 0.75 1.075
1 0.75 1.075
1.125 0.75 1.075
1.25 0.75 1.075
1.375 0.75 1.075
1.5 0.75 1.075
1.625 0.75 1.075
1.75 0.75 1.075
1.875 0.75 1.075
2 0.75 1.075
2.125 0.75 1.075
2.25 0.75 1.075
2.375 0.75 1.075
2.5 0.75 1.075
2.625 0.75 1.075
2.75 0.75 1.075
2.875 0.75 1.075
3 0.75 1.075
3.125 0.75 1.075
3.25 0.75 1.075
3.375 0.75 1.075
3.5 0.75 1.075
3.625 0.75 1.075
3.75 0.75 1.075
3.875 0.75 1.075
4 0.75 1.075
0 0.875 1.075
0.125 0.875 1.075
0.25 0.875 1.075
0.375 0.875 1.075
0.5 0.875 1.075
0.625 0.875 1.075
0.75 0.875 1.075
0.875 0.875 1.075
1 0.875 1.075
1.125 0.875 1.075
1.25 0.875 1.075
1.375 0.875 1.075
1.5 0.875 1.075
1.625 0.875 1.075
1.75 0.875 1.075
1.875 0.875 1.075
2 0.875 1.075
2.125 0.875 1.075
2.25 0.875 1.075
2.375 0.875 1.075
2.5 0.875 1.075
2.625 0.875 1.075
2.75 0.875 1.075
2.875 0.875 1.075
3 0.875 1.075
3.125 0.875 1.075
3.25 0.875 1.075
3.375 0.875 1.075
3.5 0.875 1.075
3.625 0.875 1.075
3.75 0.875 1.075
3.875 0.875 1.075
4 0.875 1.075
0 1 1.075
0.125 1 1.075
0.25 1 1.075
0.375 1 1.075
0.5 1 1.075
0.625 1 1.075
0.75 1 1.075
0.875 1 1.075
1 1 1.075
1.125 1 1.075
1.25 1 1.075
1.375 1 1.075
1.5 1 1.075
1.625 1 1.075
1.75 1 1.075
1.875 1 1.075
2 1 1.075
2.125 1 1.075
2.25 1 1.075
2.375 1 1.075
2.5 1 1.075
2.625 1 1.075
2.75 1 1.075
2.875 1 1.075
3 1 1.075
3.125 1 1.075
3.25 1 1.075
3.375 1 1.075
3.5 1 1.075
3.625 1 1.075
3.75 1 1.075
3.875 1 1.075
4 1 1.075
0 0 1.2
0.125 0 1.2
0.25 0 1.2
0.375 0 1.2
0.5 0 1.2
0.625 0 1.2
0.75 0 1.2
0.875 0 1.2
1 0 1.2
1.125 0 1.2
1.25 0 1.2
1.375 0 1.2
1.5 0 1.2
1.625 0 1.2
1.75 0 1.2
1.875 0 1.2
2 0 1.2
2.125 0 1.2
2.25 0 1.2
2.375 0 1.2
2.5 0 1.2
2.625 0 1.2
2.75 0 1.2
2.875 0 1.2
3 0 1.2
3.125 0 1.2
3.25 0 1.2
3.375 0 1.2
3.5 0 1.2
3.625 0 1.2
3.75 0 1.2
3.875 0 1.2
4 0 1.2
0 0.125 1.2
0.125 0.125 1.2
0.25 0.125 1.2
0.375 0.125 1.2
0.5 0.125 1.2
0.625 0.125 1.2
0.75 0.125 1.2
0.875 0.125 1.2
1 0.125 1.2
1.125 0.125 1.2
1.25 0.125 1.2
1.375 0.125 1.2
1.5 0.125 1.2
1.625 0.125 1.2
1.75 0.125 1.2
1.875 0.125 1.2
2 0.125 1.2
2.125 0.125 1.2
2.25 0.125 1.2
2.375 0.125 1.2
2.5 0.125 1.2
2.625 0.125 1.2
2.75 0.125 1.2
2.875 0.125 1.2
3 0.125 1.2
3.125 0.125 1.2
3.25 0.125 1.2
3.375 0.125 1.2
3.5 0.125 1.2
3.625 0.125 1.2
3.75 0.125 1.2
3.875 0.125 1.2
4 0.125 1.2
0 0.25 1.2
0.125 0.25 1.2
0.25 0.25 1.2
0.375 0.25 1.2
0.5 0.25 1.2
0.625 0.25 1.2
0.75 0.25 1.2
0.875 0.25 1.2
1 0.25 1.2
1.125 0.25 1.2
1.25 0.25 1.2
1.375 0.25 1.2
1.5 0.25 1.2
1.625 0.25 1.2
1.75 0.25 1.2
1.875 0.25 1.2
2 0.25 1.2
2.125 0.25 1.2
2.25 0.25 1.2
2.375 0.25 1.2
2.5 0.25 1.2
2.625 0.25 1.2
2.75 0.25 1.2
2.875 0.25 1.2
3 0.25 1.2
3.125 0.25 1.2
3.25 0.25 1.2
3.375 0.25 1.2
3.5 0.25 1.2
3.625 0.25 1.2
3.75 0.25 1.2
3.875 0.25 1.2
4 0.25 1.2
0 0.375 1.2
0.125 0.375 1.2
0.25 0.375 1.2
0.375 0.375 1.2
0.5 0.375 1.2
0.625 0.375 1.2
0.75 0.375 1.2
0.875 0.375 1.2
1 0.375 1.2
1.125 0.375 1.2
1.25 0.375 1.2
1.375 0.375 1.2
1.5 0.375 1.2
1.625 0.375 1.2
1.75 0.375 1.2
1.875 0.375 1.2
2 0.375 1.2
2.125 0.375 1.2
2.25 0.375 1.2
2.375 0.375 1.2
2.5 0.375 1.2
2.625 0.375 1.2
2.75 0.375 1.2
2.875 0.375 1.2
3 0.375 1.2
3.125 0.375 1.2
3.25 0.375 1.2
3.375 0.375 1.2
3.5 0.375 1.2
3.625 0.375 1.2
3.75 0.375 1.2
3.875 0.375 1.2
4 0.375 1.2
0 0.5 1.2
0.125 0.5 1.2
0.25 0.5 1.2
0.375 0.5 1.2
0.5 0.5 1.2
0.625 0.5 1.2
0.75 0.5 1.2
0.875 0.5 1.2
1 0.5 1.2
1.125 0.5 1.2
1.25 0.5 1.2
1.375 0.5 1.2
1.5 0.5 1.2
1.625 0.5 1.2
1.75 0.5 1.2
1.875 0.5 1.2
2 0.5 1.2
2.125 0.5 1.2
2.25 0.5 1.2
2.375 0.5 1.2
2.5 0.5 1.2
2.625 0.5 1.2
2.75 0.5 1.2
2.875 0.5 1.2
3 0.5 1.2
3.125 0.5 1.2
3.25 0.5 1.2
3.375 0.5 1.2
3.5 0.5 1.2
3.625 0.5 1.2
3.75 0.5 1.2
3.875 0.5 1.2
4 0.5 1.2
0 0.625 1.2
0.125 0.625 1.2
0.25 0.625 1.2
0.375 0.625 1.2
0.5 0.625 1.2
0.625 0.625 1.2
0.75 0.625 1.2
0.875 0.625 1.2
1 0.625 1.2
1.125 0.625 1.2
1.25 0.625 1.2
1.375 0.625 1.2
1.5 0.625 1.2
1.625 0.625 1.2
1.75 0.625 1.2
1.875 0.625 1.2
2 0.625 1.2
2.125 0.625 1.2
2.25 0.625 1.2
2.375 0.625 1.2
2.5 0.625 1.2
2.625 0.625 1.2
2.75 0.625 1.2
2.875 0.625 1.2
3 0.625 1.2
3.125 0.625 1.2
3.25 0.625 1.2
3.375 0.625 1.2
3.5 0.625 1.2
3.625 0.625 1.2
3.75 0.625 1.2
3.875 0.625 1.2
4 0.625 1.2
0 0.75 1.2
0.125 0.75 1.2
0.25 0.75 1.2
0.375 0.75 1.2
0.5 0.75 1.2
0.625 0.75 1.2
0.75 0.75 1.2
0.875 0.75 1.2
1 0.75 1.2
1.125 0.75 1.2
1.25 0.75 1.2
1.375 0.75 1.2
1.5 0.75 1.2
1.625 0.75 1.2
1.75 0.75 1.2
1.875 0.75 1.2
2 0.75 1.2
2.125 0.75 1.2
2.25 0.75 1.2
2.375 0.75 1.2
2.5 0.75 1.2
2.625 0.75 1.2
2.75 0.75 1.2
2.875 0.75 1.2
3 0.75 1.2
3.125 0.75 1.2
3.25 0.75 1.2
3.375 0.75 1.2
3.5 0.75 1.2
3.625 0.75 1.2
3.75 0.75 1.2
3.875 0.75 1.2
4 0.75 1.2
0 0.875 1.2
0.125 0.875 1.2
0.25 0.875 1.2
0.375 0.875 1.2
0.5 0.875 1.2
0.625 0.875 1.2
0.75 0.875 1.2
0.875 0.875 1.2
1 0.875 1.2
1.125 0.875 1.2
1.25 0.875 1.2
1.375 0.875 1.2
1.5 0.875 1.2
1.625 0.875 1.2
1.75 0.875 1.2
1.875 0.875 1.2
2 0.875 1.2
2.125 0.875 1.2
2.25 0.875 1.2
2.375 0.875 1.2
2.5 0.875 1.2
2.625 0.875 1.2
2.75 0.875 1.2
2.875 0.875 1.2
3 0.875 1.2
3.125 0.875 1.2
3.25 0.875 1.2
3.375 0.875 1.2
3.5 0.875 1.2
3.625 0.875 1.2
3.75 0.875 1.2
3.875 0.875 1.2
4 0.875 1.2
0 1 1.2
0.125 1 1.2
0.25 1 1.2
0.375 1 1.2
0.5 1 1.2
0.625 1 1.2
0.75 1 1.2
0.875 1 1.2
1 1 1.2
1.125 1 1.2
1.25 1 1.2
1.375 1 1.2
1.5 1 1.2
1.625 1 1.2
1.75 1 1.2
1.875 1 1.2
2 1 1.2
2.125 1 1.2
2.25 1 1.2
2.375 1 1.2
2.5 1 1.2
2.625 1 1.2
2.75 1 1.2
2.875 1 1.2
3 1 1.2
3.125 1 1.2
3.25 1 1.2
3.375 1 1.2
3.5 1 1.2
3.625 1 1.2
3.75 1 1.2
3.875 1 1.2
4 1 1.2
0 0 1.325
0.125 0 1.325
0.25 0 1.325
0.375 0 1.325
0.5 0 1.325
0.625 0 1.325
0.75 0 1.325
0.875 0 1.325
1 0 1.325
1.125 0 1.325
1.25 0 1.325
1.375 0 1.325
1.5 0 1.325
1.625 0 1.325
1.75 0 1.325
1.875 0 1.325
2 0 1.325
2.125 0 1.325
2.25 0 1.325
2.375 0 1.325
2.5 0 1.325
2.625 0 1.325
2.75 0 1.325
2.875 0 1.325
3 0 1.325
3.125 0 1.325
3.25 0 1.325
3.375 0 1.325
3.5 0 1.325
3.625 0 1.325
3.75 0 1.325
3.875 0 1.325
4 0 1.325
0 0.125 1.325
0.125 0.125 1.325
0.25 0.125 1.325
0.375 0.125 1.325
0.5 0.125 1.325
0.625 0.125 1.325
0.75 0.125 1.325
0.875 0.125 1.325
1 0.125 1.325
1.125 0.125 1.325
1.25 0.125 1.325
1.375 0.125 1.325
1.5 0.125 1.325
1.625 0.125 1.325
1.75 0.125 1.325
1.875 0.125 1.325
2 0.125 1.325
2.125 0.125 1.325
2.25 0.125 1.325
2.375 0.125 1.325
2.5 0.125 1.325
2.625 0.125 1.325
2.75 0.125 1.325
2.875 0.125 1.325
3 0.125 1.325
3.125 0.125 1.325
3.25 0.125 1.325
3.375 0.125 1.325
3.5 0.125 1.325
3.625 0.125 1.325
3.75 0.125 1.325
3.875 0.125 1.325
4 0.125 1.325
0 0.25 1.325
0.125 0.25 1.325
0.25 0.25 1.325
0.375 0.25 1.325
0.5 0.25 1.325
0.625 0.25 1.325
0.75 0.25 1.325
0.875 0.25 1.325
1 0.25 1.325
1.125 0.25 1.325
1.25 0.25 1.325
1.375 0.25 1.325
1.5 0.25 1.325
1.625 0.25 1.325
1.75 0.25 1.325
1.875 0.25 1.325
2 0.25 1.325
2.125 0.25 1.325
2.25 0.25 1.325
2.375 0.25 1.325
2.5 0.25 1.325
2.625 0.25 1.325
2.75 0.25 1.325
2.875 0.25 1.325
3 0.25 1.325
3.125 0.25 1.325
3.25 0.25 1.325
3.375 0.25 1.325
3.5 0.25 1.325
3.625 0.25 1.325
3.75 0.25 1.325
3.875 0.25 1.325
4 0.25 1.325
0 0.375 1.325
0.125 0.375 1.325
0.25 0.375 1.325
0.375 0.375 1.325
0.5 0.375 1.325
0.625 0.375 1.325
0.75 0.375 1.325
0.875 0.375 1.325
1 0.375 1.325
1.125 0.375 1.325
1.25 0.375 1.325
1.375 0.375 1.325
1.5 0.375 1.325
1.625 0.375 1.325
1.75 0.375 1.325
1.875 0.375 1.325
2 0.375 1.325
2.125 0.375 1.325
2.25 0.375 1.325
2.375 0.375 1.325
2.5 0.375 1.325
2.625 0.375 1.325
2.75 0.375 1.325
2.875 0.375 1.325
3 0.375 1.325
3.125 0.375 1.325
3.25 0.375 1.325
3.375 0.375 1.325
3.5 0.375 1.325
3.625 0.375 1.325
3.75 0.375 1.325
3.875 0.375 1.325
4 0.375 1.325
0 0.5 1.325
0.125 0.5 1.325
0.25 0.5 1.325
0.375 0.5 1.325
0.5 0.5 1.325
0.625 0.5 1.325
0.75 0.5 1.325
0.875 0.5 1.325
1 0.5 1.325
1.125 0.5 1.325
1.25 0.5 1.325
1.375 0.5 1.325
1.5 0.5 1.325
1.625 0.5 1.325
1.75 0.5 1.325
1.875 0.5 1.325
2 0.5 1.325
2.125 0.5 1.325
2.25 0.5 1.325
2.375 0.5 1.325
2.5 0.5 1.325
2.625 0.5 1.325
2.75 0.5 1.325
2.875 0.5 1.325
3 0.5 1.325
3.125 0.5 1.325
3.25 0.5 1.325
3.375 0.5 1.325
3.5 0.5 1.325
3.625 0.5 1.325
3.75 0.5 1.325
3.875 0.5 1.325
4 0.5 1.325
0 0.625 1.325
0.125 0.625 1.325
0.25 0.625 1.325
0.375 0.625 1.325
0.5 0.625 1.325
0.625 0.625 1.325
0.75 0.625 1.325
0.875 0.625 1.325
1 0.625 1.325
1.125 0.625 1.325
1.25 0.625 1.325
1.375 0.625 1.325
1.5 0.625 1.325
1.625 0.625 1.325
1.75 0.625 1.325
1.875 0.625 1.325
2 0.625 1.325
2.125 0.625 1.325
2.25 0.625 1.325
2.375 0.625 1.325
2.5 0.625 1.325
2.625 0.625 1.325
2.75 0.625 1.325
2.875 0.625 1.325
3 0.625 1.325
3.125 0.625 1.325
3.25 0.625 1.325
3.375 0.625 1.325
3.5 0.625 1.325
3.625 0.625 1.325
3.75 0.625 1.325
3.875 0.625 1.325
4 0.625 1.325
0 0.75 1.325
0.125 0.75 1.325
0.25 0.75 1.325
0.375 0.75 1.325
0.5 0.75 1.325
0.625 0.75 1.325
0.75 0.75 1.325
0.875 0.75 1.325
1 0.75 1.325
1.125 0.75 1.325
1.25 0.75 1.325
1.375 0.75 1.325
1.5 0.75 1.325
1.625 0.75 1.325
1.75 0.75 1.325
1.875 0.75 1.325
2 0.75 1.325
2.125 0.75 1.325
2.25 0.75 1.325
2.375 0.75 1.325
2.5 0.75 1.325
2.625 0.75 1.325
2.75 0.75 1.325
2.875 0.75 1.325
3 0.75 1.325
3.125 0.75 1.325
3.25 0.75 1.325
3.375 0.75 1.325
3.5 0.75 1.325
3.625 0.75 1.325
3.75 0.75 1.325
3.875 0.75 1.325
4 0.75 1.325
0 0.875 1.325
0.125 0.875 1.325
0.25 0.875 1.325
0.375 0.875 1.325
0.5 0.875 1.325
0.625 0.875 1.325
0.75 0.875 1.325
0.875 0.875 1.325
1 0.875 1.325
1.125 0.875 1.325
1.25 0.875 1.325
1.375 0.875 1.325
1.5 0.875 1.325
1.625 0.875 1.325
1.75 0.875 1.325
1.875 0.875 1.325
2 0.875 1.325
2.125 0.875 1.325
2.25 0.875 1.325
2.375 0.875 1.325
2.5 0.875 1.325
2.625 0.875 1.325
2.75 0.875 1.325
2.875 0.875 1.325
3 0.875 1.325
3.125 0.875 1.325
3.25 0.875 1.325
3.375 0.875 1.325
3.5 0.875 1.325
3.625 0.875 1.325
3.75 0.875 1.325
3.875 0.875 1.325
4 0.875 1.325
0 1 1.325
0.125 1 1.325
0.25 1 1.325
0.375 1 1.325
0.5 1 1.325
0.625 1 1.325
0.75 1 1.325
0.875 1 1.325
1 1 1.325
1.125 1 1.325
1.25 1 1.325
1.375 1 1.325
1.5 1 1.325
1.625 1 1.325
1.75 1 1.325
1.875 1 1.325
2 1 1.325
2.125 1 1.325
2.25 1 1.325
2.375 1 1.325
2.5 1 1.325
2.625 1 1.325
2.75 1 1.325
2.875 1 1.325
3 1 1.325
3.125 1 1.325
3.25 1 1.325
3.375 1 1.325
3.5 1 1.325
3.625 1 1.325
3.75 1 1.325
3.875 1 1.325
4 1 1.325
0 0 1.45
0.125 0 1.45
0.25 0 1.45
0.375 0 1.45
0.5 0 1.45
0.625 0 1.45
0.75 0 1.45
0.875 0 1.45
1 0 1.45
1.125 0 1.45
1.25 0 1.45
1.375 0 1.45
1.5 0 1.45
1.625 0 1.45
1.75 0 1.45
1.875 0 1.45
2 0 1.45
2.125 0 1.45
2.25 0 1.45
2.375 0 1.45
2.5 0 1.45
2.625 0 1.45
2.75 0 1.45
2.875 0 1.45
3 0 1.45
3.125 0 1.45
3.25 0 1.45
3.375 0 1.45
3.5 0 1.45
3.625 0 1.45
3.75 0 1.45
3.875 0 1.45
4 0 1.45
0 0.125 1.45
0.125 0.125 1.45
0.25 0.125 1.45
0.375 0.125 1.45
0.5 0.125 1.45
0.625 0.125 1.45
0.75 0.125 1.45
0.875 0.125 1.45
1 0.125 1.45
1.125 0.125 1.45
1.25 0.125 1.45
1.375 0.125 1.45
1.5 0.125 1.45
1.625 0.125 1.45
1.75 0.125 1.45
1.875 0.125 1.45
2 0.125 1.45
2.125 0.125 1.45
2.25 0.125 1.45
2.375 0.125 1.45
2.5 0.125 1.45
2.625 0.125 1.45
2.75 0.125 1.45
2.875 0.125 1.45
3 0.125 1.45
3.125 0.125 1.45
3.25 0.125 1.45
3.375 0.125 1.45
3.5 0.125 1.45
3.625 0.125 1.45
3.75 0.125 1.45
3.875 0.125 1.45
4 0.125 1.45
0 0.25 1.45
0.125 0.25 1.45
0.25 0.25 1.45
0.375 0.25 1.45
0.5 0.25 1.45
0.625 0.25 1.45
0.75 0.25 1.45
0.875 0.25 1.45
1 0.25 1.45
1.125 0.25 1.45
1.25 0.25 1.45
1.375 0.25 1.45
1.5 0.25 1.45
1.625 0.25 1.45
1.75 0.25 1.45
1.875 0.25 1.45
2 0.25 1.45
2.125 0.25 1.45
2.25 0.25 1.45
2.375 0.25 1.45
2.5 0.25 1.45
2.625 0.25 1.45
2.75 0.25 1.45
2.875 0.25 1.45
3 0.25 1.45
3.125 0.25 1.45
3.25 0.25 1.45
3.375 0.25 1.45
3.5 0.25 1.45
3.625 0.25 1.45
3.75 0.25 1.45
3.875 0.25 1.45
4 0.25 1.45
0 0.375 1.45
0.125 0.375 1.45
0.25 0.375 1.45
0.375 0.375 1.45
0.5 0.375 1.45
0.625 0.375 1.45
0.75 0.375 1.45
0.875 0.375 1.45
1 0.375 1.45
1.125 0.375 1.45
1.25 0.375 1.45
1.375 0.375 1.45
1.5 0.375 1.45
1.625 0.375 1.45
1.75 0.375 1.45
1.875 0.375 1.45
2 0.375 1.45
2.125 0.375 1.45
2.25 0.375 1.45
2.375 0.375 1.45
2.5 0.375 1.45
2.625 0.375 1.45
2.75 0.375 1.45
2.875 0.375 1.45
3 0.375 1.45
3.125 0.375 1.45
3.25 0.375 1.45
3.375 0.375 1.45
3.5 0.375 1.45
3.625 0.375 1.45
3.75 0.375 1.45
3.875 0.375 1.45
4 0.375 1.45
0 0.5 1.45
0.125 0.5 1.45
0.25 0.5 1.45
0.375 0.5 1.45
0.5 0.5 1.45
0.625 0.5 1.45
0.75 0.5 1.45
0.875 0.5 1.45
1 0.5 1.45
1.125 0.5 1.45
1.25 0.5 1.45
1.375 0.5 1.45
1.5 0.5 1.45
1.625 0.5 1.45
1.75 0.5 1.45
1.875 0.5 1.45
2 0.5 1.45
2.125 0.5 1.45
2.25 0.5 1.45
2.375 0.5 1.45
2.5 0.5 1.45
2.625 0.5 1.45
2.75 0.5 1.45
2.875 0.5 1.45
3 0.5 1.45
3.125 0.5 1.45
3.25 0.5 1.45
3.375 0.5 1.45
3.5 0.5 1.45
3.625 0.5 1.45
3.75 0.5 1.45
3.875 0.5 1.45
4 0.5 1.45
0 0.625 1.45
0.125 0.625 1.45
0.25 0.625 1.45
0.375 0.625 1.45
0.5 0.625 1.45
0.625 0.625 1.45
0.75 0.625 1.45
0.875 0.625 1.45
1 0.625 1.45
1.125 0.625 1.45
1.25 0.625 1.45
1.375 0.625 1.45
1.5 0.625 1.45
1.625 0.625 1.45
1.75 0.625 1.45
1.875 0.625 1.45
2 0.625 1.45
2.125 0.625 1.45
2.25 0.625 1.45
2.375 0.625 1.45
2.5 0.625 1.45
2.625 0.625 1.45
2.75 0.625 1.45
2.875 0.625 1.45
3 0.625 1.45
3.125 0.625 1.45
3.25 0.625 1.45
3.375 0.625 1.45
3.5 0.625 1.45
3.625 0.625 1.45
3.75 0.625 1.45
3.875 0.625 1.45
4 0.625 1.45
0 0.75 1.45
0.125 0.75 1.45
0.25 0.75 1.45
0.375 0.75 1.45
0.5 0.75 1.45
0.625 0.75 1.45
0.75 0.75 1.45
0.875 0.75 1.45
1 0.75 1.45
1.125 0.75 1.45
1.25 0.75 1.45
1.375 0.75 1.45
1.5 0.75 1.45
1.625 0.75 1.45
1.75 0.75 1.45
1.875 0.75 1.45
2 0.75 1.45
2.125 0.75 1.45
2.25 0.75 1.45
2.375 0.75 1.45
2.5 0.75 1.45
2.625 0.75 1.45
2.75 0.75 1.45
2.875 0.75 1.45
3 0.75 1.45
3.125 0.75 1.45
3.25 0.75 1.45
3.375 0.75 1.45
3.5 0.75 1.45
3.625 0.75 1.45
3.75 0.75 1.45
3.875 0.75 1.45
4 0.75 1.45
0 0.875 1.45
0.125 0.875 1.45
0.25 0.875 1.45
0.375 0.875 1.45
0.5 0.875 1.45
0.625 0.875 1.45
0.75 0.875 1.45
0.875 0.875 1.45
1 0.875 1.45
1.125 0.875 1.45
1.25 0.875 1.45
1.375 0.875 1.45
1.5 0.875 1.45
1.625 0.875 1.45
1.75 0.875 1.45
1.875 0.875 1.45
2 0.875 1.45
2.125 0.875 1.45
2.25 0.875 1.45
2.375 0.875 1.45
2.5 0.875 1.45
2.625 0.875 1.45
2.75 0.875 1.45
2.875 0.875 1.45
3 0.875 1.45
3.125 0.875 1.45
3.25 0.875 1.45
3.375 0.875 1.45
3.5 0.875 1.45
3.625 0.875 1.45
3.75 0.875 1.45
3.875 0.875 1.45
4 0.875 1.45
0 1 1.45
0.125 1 1.45
0.25 1 1.45
0.375 1 1.45
0.5 1 1.45
0.625 1 1.45
0.75 1 1.45
0.875 1 1.45
1 1 1.45
1.125 1 1.45
1.25 1 1.45
1.375 1 1.45
1.5 1 1.45
1.625 1 1.45
1.75 1 1.45
1.875 1 1.45
2 1 1.45
2.125 1 1.45
2.25 1 1.45
2.375 1 1.45
2.5 1 1.45
2.625 1 1.45
2.75 1 1.45
2.875 1 1.45
3 1 1.45
3.125 1 1.45
3.25 1 1.45
3.375 1 1.45
3.5 1 1.45
3.625 1 1.45
3.75 1 1.45
3.875 1 1.45
4 1 1.45
0 0 1.575
0.125 0 1.575
0.25 0 1.575
0.375 0 1.575
0.5 0 1.575
0.625 0 1.575
0.75 0 1.575
0.875 0 1.575
1 0 1.575
1.125 0 1.575
1.25 0 1.575
1.375 0 1.575
1.5 0 1.575
1.625 0 1.575
1.75 0 1.575
1.875 0 1.575
2 0 1.575
2.125 0 1.575
2.25 0 1.575
2.375 0 1.575
2.5 0 1.575
2.625 0 1.575
2.75 0 1.575
2.875 0 1.575
3 0 1.575
3.125 0 1.575
3.25 0 1.575
3.375 0 1.575
3.5 0 1.575
3.625 0 1.575
3.75 0 1.575
3.875 0 1.575
4 0 1.575
0 0.125 1.575
0.125 0.125 1.575
0.25 0.125 1.575
0.375 0.125 1.575
0.5 0.125 1.575
0.625 0.125 1.575
0.75 0.125 1.575
0.875 0.125 1.575
1 0.125 1.575
1.125 0.125 1.575
1.25 0.125 1.575
1.375 0.125 1.575
1.5 0.125 1.575
1.625 0.125 1.575
1.75 0.125 1.575
1.875 0.125 1.575
2 0.125 1.575
2.125 0.125 1.575
2.25 0.125 1.575
2.375 0.125 1.575
2.5 0.125 1.575
2.625 0.125 1.575
2.75 0.125 1.575
2.875 0.125 1.575
3 0.125 1.575
3.125 0.125 1.575
3.25 0.125 1.575
3.375 0.125 1.575
3.5 0.125 1.575
3.625 0.125 1.575
3.75 0.125 1.575
3.875 0.125 1.575
4 0.125 1.575
0 0.25 1.575
0.125 0.25 1.575
0.25 0.25 1.575
0.375 0.25 1.575
0.5 0.25 1.575
0.625 0.25 1.575
0.75 0.25 1.575
0.875 0.25 1.575
1 0.25 1.575
1.125 0.25 1.575
1.25 0.25 1.575
1.375 0.25 1.575
1.5 0.25 1.575
1.625 0.25 1.575
1.75 0.25 1.575
1.875 0.25 1.575
2 0.25 1.575
2.125 0.25 1.575
2.25 0.25 1.575
2.375 0.25 1.575
2.5 0.25 1.575
2.625 0.25 1.575
2.75 0.25 1.575
2.875 0.25 1.575
3 0.25 1.575
3.125 0.25 1.575
3.25 0.25 1.575
3.375 0.25 1.575
3.5 0.25 1.575
3.625 0.25 1.575
3.75 0.25 1.575
3.875 0.25 1.575
4 0.25 1.575
0 0.375 1.575
0.125 0.375 1.575
0.25 0.375 1.575
0.375 0.375 1.575
0.5 0.375 1.575
0.625 0.375 1.575
0.75 0.375 1.575
0.875 0.375 1.575
1 0.375 1.575
1.125 0.375 1.575
1.25 0.375 1.575
1.375 0.375 1.575
1.5 0.375 1.575
1.625 0.375 1.575
1.75 0.375 1.575
1.875 0.375 1.575
2 0.375 1.575
2.125 0.375 1.575
2.25 0.375 1.575
2.375 0.375 1.575
2.5 0.375 1.575
2.625 0.375 1.575
2.75 0.375 1.575
2.875 0.375 1.575
3 0.375 1.575
3.125 0.375 1.575
3.25 0.375 1.575
3.375 0.375 1.575
3.5 0.375 1.575
3.625 0.375 1.575
3.75 0.375 1.575
3.875 0.375 1.575
4 0.375 1.575
0 0.5 1.575
0.125 0.5 1.575
0.25 0.5 1.575
0.375 0.5 1.575
0.5 0.5 1.575
0.625 0.5 1.575
0.75 0.5 1.575
0.875 0.5 1.575
1 0.5 1.575
1.125 0.5 1.575
1.25 0.5 1.575
1.375 0.5 1.575
1.5 0.5 1.575
1.625 0.5 1.575
1.75 0.5 1.575
1.875 0.5 1.575
2 0.5 1.575
2.125 0.5 1.575
2.25 0.5 1.575
2.375 0.5 1.575
2.5 0.5 1.575
2.625 0.5 1.575
2.75 0.5 1.575
2.875 0.5 1.575
3 0.5 1.575
3.125 0.5 1.575
3.25 0.5 1.575
3.375 0.5 1.575
3.5 0.5 1.575
3.625 0.5 1.575
3.75 0.5 1.575
3.875 0.5 1.575
4 0.5 1.575
0 0.625 1.575
0.125 0.625 1.575
0.25 0.625 1.575
0.375 0.625 1.575
0.5 0.625 1.575
0.625 0.625 1.575
0.75 0.625 1.575
0.875 0.625 1.575
1 0.625 1.575
1.125 0.625 1.575
1.25 0.625 1.575
1.375 0.625 1.575
1.5 0.625 1.575
1.625 0.625 1.575
1.75 0.625 1.575
1.875 0.625 1.575
2 0.625 1.575
2.125 0.625 1.575
2.25 0.625 1.575
2.375 0.625 1.575
2.5 0.625 1.575
2.625 0.625 1.575
2.75 0.625 1.575
2.875 0.625 1.575
3 0.625 1.575
3.125 0.625 1.575
3.25 0.625 1.575
3.375 0.625 1.575
3.5 0.625 1.575
3.625 0.625 1.575
3.75 0.625 1.575
3.875 0.625 1.575
4 0.625 1.575
0 0.75 1.575
0.125 0.75 1.575
0.25 0.75 1.575
0.375 0.75 1.575
0.5 0.75 1.575
0.625 0.75 1.575
0.75 0.75 1.575
0.875 0.75 1.575
1 0.75 1.575
1.125 0.75 1.575
1.25 0.75 1.575
1.375 0.75 1.575
1.5 0.75 1.575
1.625 0.75 1.575
1.75 0.75 1.575
1.875 0.75 1.575
2 0.75 1.575
2.125 0.75 1.575
2.25 0.75 1.575
2.375 0.75 1.575
2.5 0.75 1.575
2.625 0.75 1.575
2.75 0.75 1.575
2.875 0.75 1.575
3 0.75 1.575
3.125 0.75 1.575
3.25 0.75 1.575
3.375 0.75 1.575
3.5 0.75 1.575
3.625 0.75 1.575
3.75 0.75 1.575
3.875 0.75 1.575
4 0.75 1.575
0 0.875 1.575
0.125 0.875 1.575
0.25 0.875 1.575
0.375 0.875 1.575
0.5 0.875 1.575
0.625 0.875 1.575
0.75 0.875 1.575
0.875 0.875 1.575
1 0.875 1.575
1.125 0.875 1.575
1.25 0.875 1.575
1.375 0.875 1.575
1.5 0.875 1.575
1.625 0.875 1.575
1.75 0.875 1.575
1.875 0.875 1.575
2 0.875 1.575
2.125 0.875 1.575
2.25 0.875 1.575
2.375 0.875 1.575
2.5 0.875 1.575
2.625 0.875 1.575
2.75 0.875 1.575
2.875 0.875 1.575
3 0.875 1.575
3.125 0.875 1.575
3.25 0.875 1.575
3.375 0.875 1.575
3.5 0.875 1.575
3.625 0.875 1.575
3.75 0.875 1.575
3.875 0.875 1.575
4 0.875 1.575
0 1 1.575
0.125 1 1.575
0.25 1 1.575
0.375 1 1.575
0.5 1 1.575
0.625 1 1.575
0.75 1 1.575
0.875 1 1.575
1 1 1.575
1.125 1 1.575
1.25 1 1.575
1.375 1 1.575
1.5 1 1.575
1.625 1 1.575
1.75 1 1.575
1.875 1 1.575
2 1 1.575
2.125 1 1.575
2.25 1 1.575
2.375 1 1.575
2.5 1 1.575
2.625 1 1.575
2.75 1 1.575
2.875 1 1.575
3 1 1.575
3.125 1 1.575
3.25 1 1.575
3.375 1 1.575
3.5 1 1.575
3.625 1 1.575
3.75 1 1.575
3.875 1 1.575
4 1 1.575
0 0 1.7
0.125 0 1.7
0.25 0 1.7
0.375 0 1.7
0.5 0 1.7
0.625 0 1.7
0.75 0 1.7
0.875 0 1.7
1 0 1.7
1.125 0 1.7
1.25 0 1.7
1.375 0 1.7
1.5 0 1.7
1.625 0 1.7
1.75 0 1.7
1.875 0 1.7
2 0 1.7
2.125 0 1.7
2.25 0 1.7
2.375 0 1.7
2.5 0 1.7
2.625 0 1.7
2.75 0 1.7
2.875 0 1.7
3 0 1.7
3.125 0 1.7
3.25 0 1.7
3.375 0 1.7
3.5 0 1.7
3.625 0 1.7
3.75 0 1.7
3.875 0 1.7
4 0 1.7
0 0.125 1.7
0.125 0.125 1.7
0.25 0.125 1.7
0.375 0.125 1.7
0.5 0.125 1.7
0.625 0.125 1.7
0.75 0.125 1.7
0.875 0.125 1.7
1 0.125 1.7
1.125 0.125 1.7
1.25 0.125 1.7
1.375 0.125 1.7
1.5 0.125 1.7
1.625 0.125 1.7
1.75 0.125 1.7
1.875 0.125 1.7
2 0.125 1.7
2.125 0.125 1.7
2.25 0.125 1.7
2.375 0.125 1.7
2.5 0.125 1.7
2.625 0.125 1.7
2.75 0.125 1.7
2.875 0.125 1.7
3 0.125 1.7
3.125 0.125 1.7
3.25 0.125 1.7
3.375 0.125 1.7
3.5 0.125 1.7
3.625 0.125 1.7
3.75 0.125 1.7
3.875 0.125 1.7
4 0.125 1.7
0 0.25 1.7
0.125 0.25 1.7
0.25 0.25 1.7
0.375 0.25 1.7
0.5 0.25 1.7
0.625 0.25 1.7
0.75 0.25 1.7
0.875 0.25 1.7
1 0.25 1.7
1.125 0.25 1.7
1.25 0.25 1.7
1.375 0.25 1.7
1.5 0.25 1.7
1.625 0.25 1.7
1.75 0.25 1.7
1.875 0.25 1.7
2 0.25 1.7
2.125 0.25 1.7
2.25 0.25 1.7
2.375 0.25 1.7
2.5 0.25 1.7
2.625 0.25 1.7
2.75 0.25 1.7
2.875 0.25 1.7
3 0.25 1.7
3.125 0.25 1.7
3.25 0.25 1.7
3.375 0.25 1.7
3.5 0.25 1.7
3.625 0.25 1.7
3.75 0.25 1.7
3.875 0.25 1.7
4 0.25 1.7
0 0.375 1.7
0.125 0.375 1.7
0.25 0.375 1.7
0.375 0.375 1.7
0.5 0.375 1.7
0.625 0.375 1.7
0.75 0.375 1.7
0.875 0.375 1.7
1 0.375 1.7
1.125 0.375 1.7
1.25 0.375 1.7
1.375 0.375 1.7
1.5 0.375 1.7
1.625 0.375 1.7
1.75 0.375 1.7
1.875 0.375 1.7
2 0.375 1.7
2.125 0.375 1.7
2.25 0.375 1.7
2.375 0.375 1.7
2.5 0.375 1.7
2.625 0.375 1.7
2.75 0.375 1.7
2.875 0.375 1.7
3 0.375 1.7
3.125 0.375 1.7
3.25 0.375 1.7
3.375 0.375 1.7
3.5 0.375 1.7
3.625 0.375 1.7
3.75 0.375 1.7
3.875 0.375 1.7
4 0.375 1.7
0 0.5 1.7
0.125 0.5 1.7
0.25 0.5 1.7
0.375 0.5 1.7
0.5 0.5 1.7
0.625 0.5 1.7
0.75 0.5 1.7
0.875 0.5 1.7
1 0.5 1.7
1.125 0.5 1.7
1.25 0.5 1.7
1.375 0.5 1.7
1.5 0.5 1.7
1.625 0.5 1.7
1.75 0.5 1.7
1.875 0.5 1.7
2 0.5 1.7
2.125 0.5 1.7
2.25 0.5 1.7
2.375 0.5 1.7
2.5 0.5 1.7
2.625 0.5 1.7
2.75 0.5 1.7
2.875 0.5 1.7
3 0.5 1.7
3.125 0.5 1.7
3.25 0.5 1.7
3.375 0.5 1.7
3.5 0.5 1.7
3.625 0.5 1.7
3.75 0.5 1.7
3.875 0.5 1.7
4 0.5 1.7
0 0.625 1.7
0.125 0.625 1.7
0.25 0.625 1.7
0.375 0.625 1.7
0.5 0.625 1.7
0.625 0.625 1.7
0.75 0.625 1.7
0.875 0.625 1.7
1 0.625 1.7
1.125 0.625 1.7
1.25 0.625 1.7
1.375 0.625 1.7
1.5 0.625 1.7
1.625 0.625 1.7
1.75 0.625 1.7
1.875 0.625 1.7
2 0.625 1.7
2.125 0.625 1.7
2.25 0.625 1.7
2.375 0.625 1.7
2.5 0.625 1.7
2.625 0.625 1.7
2.75 0.625 1.7
2.875 0.625 1.7
3 0.625 1.7
3.125 0.625 1.7
3.25 0.625 1.7
3.375 0.625 1.7
3.5 0.625 1.7
3.625 0.625 1.7
3.75 0.625 1.7
3.875 0.625 1.7
4 0.625 1.7
0 0.75 1.7
0.125 0.75 1.7
0.25 0.75 1.7
0.375 0.75 1.7
0.5 0.75 1.7
0.625 0.75 1.7
0.75 0.75 1.7
0.875 0.75 1.7
1 0.75 1.7
1.125 0.75 1.7
1.25 0.75 1.7
1.375 0.75 1.7
1.5 0.75 1.7
1.625 0.75 1.7
1.75 0.75 1.7
1.875 0.75 1.7
2 0.75 1.7
2.125 0.75 1.7
2.25 0.75 1.7
2.375 0.75 1.7
2.5 0.75 1.7
2.625 0.75 1.7
2.75 0.75 1.7
2.875 0.75 1.7
3 0.75 1.7
3.125 0.75 1.7
3.25 0.75 1.7
3.375 0.75 1.7
3.5 0.75 1.7
3.625 0.75 1.7
3.75 0.75 1.7
3.875 0.75 1.7
4 0.75 1.7
0 0.875 1.7
0.125 0.875 1.7
0.25 0.875 1.7
0.375 0.875 1.7
0.5 0.875 1.7
0.625 0.875 1.7
0.75 0.875 1.7
0.875 0.875 1.7
1 0.875 1.7
1.125 0.875 1.7
1.25 0.875 1.7
1.375 0.875 1.7
1.5 0.875 1.7
1.625 0.875 1.7
1.75 0.875 1.7
1.875 0.875 1.7
2 0.875 1.7
2.125 0.875 1.7
2.25 0.875 1.7
2.375 0.875 1.7
2.5 0.875 1.7
2.625 0.875 1.7
2.75 0.875 1.7
2.875 0.875 1.7
3 0.875 1.7
3.125 0.875 1.7
3.25 0.875 1.7
3.375 0.875 1.7
3.5 0.875 1.7
3.625 0.875 1.7
3.75 0.875 1.7
3.875 0.875 1.7
4 0.875 1.7
0 1 1.7
0.125 1 1.7
0.25 1 1.7
0.375 1 1.7
0.5 1 1.7
0.625 1 1.7
0.75 1 1.7
0.875 1 1.7
1 1 1.7
1.125 1 1.7
1.25 1 1.7
1.375 1 1.7
1.5 1 1.7
1.625 1 1.7
1.75 1 1.7
1.875 1 1.7
2 1 1.7
2.125 1 1.7
2.25 1 1.7
2.375 1 1.7
2.5 1 1.7
2.625 1 1.7
2.75 1 1.7
2.875 1 1.7
3 1 1.7
3.125 1 1.7
3.25 1 1.7
3.375 1 1.7
3.5 1 1.7
3.625 1 1.7
3.75 1 1.7
3.875 1 1.7
4 1 1.7
0 0.0625 0.7
0.0625 0.125 0.7625
0.0625 0.0625 0.7625
0.0625 0.0625 0.7
0.0625 0.125 0.7
0.125 0.125 0.7625
0.0625 0.0625 0.825
0.125 0.0625 0.825
0.0625 0 0.825
0 0 0.7625
0.0625 0 0.7625
0 0.125 0.7625
0 0.0625 0.7625
0.0625 0.125 0.825
0 0.0625 0.825
0.125 0 0.7625
0.0625 0 0.7
0.125 0.0625 0.7625
0.125 0.0625 0.7
0.1875 0.125 0.7625
0.1875 0.0625 0.7625
0.1875 0.0625 0.7
0.1875 0.125 0.7
0.25 0.125 0.7625
0.1875 0.0625 0.825
0.25 0.0625 0.825
0.1875 0 0.825
0.1875 0 0.7625
0.1875 0.125 0.825
0.25 0 0.7625
0.1875 0 0.7
0.25 0.0625 0.7625
0.25 0.0625 0.7
0.3125 0.125 0.7625
0.3125 0.0625 0.7625
0.3125 0.0625 0.7
0.3125 0.125 0.7
0.375 0.125 0.7625
0.3125 0.0625 0.825
0.375 0.0625 0.825
0.3125 0 0.825
0.3125 0 0.7625
0.3125 0.125 0.825
0.375 0 0.7625
0.3125 0 0.7
0.375 0.0625 0.7625
0.375 0.0625 0.7
0.4375 0.125 0.7625
0.4375 0.0625 0.7625
0.4375 0.0625 0.7
0.4375 0.125 0.7
0.5 0.125 0.7625
0.4375 0.0625 0.825
0.5 0.0625 0.825
0.4375 0 0.825
0.4375 0 0.7625
0.4375 0.125 0.825
0.5 0 0.7625
0.4375 0 0.7
0.5 0.0625 0.7625
0.5 0.0625 0.7
0.5625 0.125 0.7625
0.5625 0.0625 0.7625
0.5625 0.0625 0.7
0.5625 0.125 0.7
0.625 0.125 0.7625
0.5625 0.0625 0.825
0.625 0.0625 0.825
0.5625 0 0.825
0.5625 0 0.7625
0.5625 0.125 0.825
0.625 0 0.7625
0.5625 0 0.7
0.625 0.0625 0.7625
0.625 0.0625 0.7
0.6875 0.125 0.7625
0.6875 0.0625 0.7625
0.6875 0.0625 0.7
0.6875 0.125 0.7
0.75 0.125 0.7625
0.6875 0.0625 0.825
0.75 0.0625 0.825
0.6875 0 0.825
0.6875 0 0.7625
0.6875 0.125 0.825
0.75 0 0.7625
0.6875 0 0.7
0.75 0.0625 0.7625
0.75 0.0625 0.7
0.8125 0.125 0.7625
0.8125 0.0625 0.7625
0.8125 0.0625 0.7
0.8125 0.125 0.7
0.875 0.125 0.7625
0.8125 0.0625 0.825
0.875 0.0625 0.825
0.8125 0 0.825
0.8125 0 0.7625
0.8125 0.125 0.825
0.875 0 0.7625
0.8125 0 0.7
0.875 0.0625 0.7625
0.875 0.0625 0.7
0.9375 0.125 0.7625
0.9375 0.0625 0.7625
0.9375 0.0625 0.7
0.9375 0.125 0.7
1 0.125 0.7625
0.9375 0.0625 0.825
1 0.0625 0.825
0.9375 0 0.825
0.9375 0 0.7625
0.9375 0.125 0.825
1 0 0.7625
0.9375 0 0.7
1 0.0625 0.7625
1 0.0625 0.7
1.0625 0.125 0.7625
1.0625 0.0625 0.7625
1.0625 0.0625 0.7
1.0625 0.125 0.7
1.125 0.125 0.7625
1.0625 0.0625 0.825
1.125 0.0625 0.825
1.0625 0 0.825
1.0625 0 0.7625
1.0625 0.125 0.825
1.125 0 0.7625
1.0625 0 0.7
1.125 0.0625 0.7625
1.125 0.0625 0.7
1.1875 0.125 0.7625
1.1875 0.0625 0.7625
1.1875 0.0625 0.7
1.1875 0.125 0.7
1.25 0.125 0.7625
1.1875 0.0625 0.825
1.25 0.0625 0.825
1.1875 0 0.825
1.1875 0 0.7625
1.1875 0.125 0.825
1.25 0 0.7625
1.1875 0 0.7
1.25 0.0625 0.7625
1.25 0.0625 0.7
1.3125 0.125 0.7625
1.3125 0.0625 0.7625
1.3125 0.0625 0.7
1.3125 0.125 0.7
1.375 0.125 0.7625
1.3125 0.0625 0.825
1.375 0.0625 0.825
1.3125 0 0.825
1.3125 0 0.7625
1.3125 0.125 0.825
1.375 0 0.7625
1.3125 0 0.7
1.375 0.0625 0.7625
1.375 0.0625 0.7
1.4375 0.125 0.7625
1.4375 0.0625 0.7625
1.4375 0.0625 0.7
1.4375 0.125 0.7
1.5 0.125 0.7625
1.4375 0.0625 0.825
1.5 0.0625 0.825
1.4375 0 0.825
1.4375 0 0.7625
1.4375 0.125 0.825
1.5 0 0.7625
1.4375 0 0.7
1.5 0.0625 0.7625
1.5 0.0625 0.7
1.5625 0.125 0.7625
1.5625 0.0625 0.7625
1.5625 0.0625 0.7
1.5625 0.125 0.7
1.625 0.125 0.7625
1.5625 0.0625 0.825
1.625 0.0625 0.825
1.5625 0 0.825
1.5625 0 0.7625
1.5625 0.125 0.825
1.625 0 0.7625
1.5625 0 0.7
1.625 0.0625 0.7625
1.625 0.0625 0.7
1.6875 0.125 0.7625
1.6875 0.0625 0.7625
1.6875 0.0625 0.7
1.6875 0.125 0.7
1.75 0.125 0.7625
1.6875 0.0625 0.825
1.75 0.0625 0.825
1.6875 0 0.825
1.6875 0 0.7625
1.6875 0.125 0.825
1.75 0 0.7625
1.6875 0 0.7
1.75 0.0625 0.7625
1.75 0.0625 0.7
1.8125 0.125 0.7625
1.8125 0.0625 0.7625
1.8125 0.0625 0.7
1.8125 0.125 0.7
1.875 0.125 0.7625
1.8125 0.0625 0.825
1.875 0.0625 0.825
1.8125 0 0.825
1.8125 0 0.7625
1.8125 0.125 0.825
1.875 0 0.7625
1.8125 0 0.7
1.875 0.0625 0.7625
1.875 0.0625 0.7
1.9375 0.125 0.7625
1.9375 0.0625 0.7625
1.9375 0.0625 0.7
1.9375 0.125 0.7
2 0.125 0.7625
1.9375 0.0625 0.825
2 0.0625 0.825
1.9375 0 0.825
1.9375 0 0.7625
1.9375 0.125 0.825
2 0 0.7625
1.9375 0 0.7
2 0.0625 0.7625
2 0.0625 0.7
2.0625 0.125 0.7625
2.0625 0.0625 0.7625
2.0625 0.0625 0.7
2.0625 0.125 0.7
2.125 0.125 0.7625
2.0625 0.0625 0.825
2.125 0.0625 0.825
2.0625 0 0.825
2.0625 0 0.7625
2.0625 0.125 0.825
2.125 0 0.7625
2.0625 0 0.7
2.125 0.0625 0.7625
2.125 0.0625 0.7
2.1875 0.125 0.7625
2.1875 0.0625 0.7625
2.1875 0.0625 0.7
2.1875 0.125 0.7
2.25 0.125 0.7625
2.1875 0.0625 0.825
2.25 0.0625 0.825
2.1875 0 0.825
2.1875 0 0.7625
2.1875 0.125 0.825
2.25 0 0.7625
2.1875 0 0.7
2.25 0.0625 0.7625
2.25 0.0625 0.7
2.3125 0.125 0.7625
2.3125 0.0625 0.7625
2.3125 0.0625 0.7
2.3125 0.125 0.7
2.375 0.125 0.7625
2.3125 0.0625 0.825
2.375 0.0625 0.825
2.3125 0 0.825
2.3125 0 0.7625
2.3125 0.125 0.825
2.375 0 0.7625
2.3125 0 0.7
2.375 0.0625 0.7625
2.375 0.0625 0.7
2.4375 0.125 0.7625
2.4375 0.0625 0.7625
2.4375 0.0625 0.7
2.4375 0.125 0.7
2.5 0.125 0.7625
2.4375 0.0625 0.825
2.5 0.0625 0.825
2.4375 0 0.825
2.4375 0 0.7625
2.4375 0.125 0.825
2.5 0 0.7625
2.4375 0 0.7
2.5 0.0625 0.7625
2.5 0.0625 0.7
2.5625 0.125 0.7625
2.5625 0.0625 0.7625
2.5625 0.0625 0.7
2.5625 0.125 0.7
2.625 0.125 0.7625
2.5625 0.0625 0.825
2.625 0.0625 0.825
2.5625 0 0.825
2.5625 0 0.7625
2.5625 0.125 0.825
2.625 0 0.7625
2.5625 0 0.7
2.625 0.0625 0.7625
2.625 0.0625 0.7
2.6875 0.125 0.7625
2.6875 0.0625 0.7625
2.6875 0.0625 0.7
2.6875 0.125 0.7
2.75 0.125 0.7625
2.6875 0.0625 0.825
2.75 0.0625 0.825
2.6875 0 0.825
2.6875 0 0.7625
2.6875 0.125 0.825
2.75 0 0.7625
2.6875 0 0.7
2.75 0.0625 0.7625
2.75 0.0625 0.7
2.8125 0.125 0.7625
2.8125 0.0625 0.7625
2.8125 0.0625 0.7
2.8125 0.125 0.7
2.875 0.125 0.7625
2.8125 0.0625 0.825
2.875 0.0625 0.825
2.8125 0 0.825
2.8125 0 0.7625
2.8125 0.125 0.825
2.875 0 0.7625
2.8125 0 0.7
2.875 0.0625 0.7625
2.875 0.0625 0.7
2.9375 0.125 0.7625
2.9375 0.0625 0.7625
2.9375 0.0625 0.7
2.9375 0.125 0.7
3 0.125 0.7625
2.9375 0.0625 0.825
3 0.0625 0.825
2.9375 0 0.825
2.9375 0 0.7625
2.9375 0.125 0.825
3 0 0.7625
2.9375 0 0.7
3 0.0625 0.7625
3 0.0625 0.7
3.0625 0.125 0.7625
3.0625 0.0625 0.7625
3.0625 0.0625 0.7
3.0625 0.125 0.7
3.125 0.125 0.7625
3.0625 0.0625 0.825
3.125 0.0625 0.825
3.0625 0 0.825
3.0625 0 0.7625
3.0625 0.125 0.825
3.125 0 0.7625
3.0625 0 0.7
3.125 0.0625 0.7625
3.125 0.0625 0.7
3.1875 0.125 0.7625
3.1875 0.0625 0.7625
3.1875 0.0625 0.7
3.1875 0.125 0.7
3.25 0.125 0.7625
3.1875 0.0625 0.825
3.25 0.0625 0.825
3.1875 0 0.825
3.1875 0 0.7625
3.1875 0.125 0.825
3.25 0 0.7625
3.1875 0 0.7
3.25 0.0625 0.7625
3.25 0.0625 0.7
3.3125 0.125 0.7625
3.3125 0.0625 0.7625
3.3125 0.0625 0.7
3.3125 0.125 0.7
3.375 0.125 0.7625
3.3125 0.0625 0.825
3.375 0.0625 0.825
3.3125 0 0.825
3.3125 0 0.7625
3.3125 0.125 0.825
3.375 0 0.7625
3.3125 0 0.7
3.375 0.0625 0.7625
3.375 0.0625 0.7
3.4375 0.125 0.7625
3.4375 0.0625 0.7625
3.4375 0.0625 0.7
3.4375 0.125 0.7
3.5 0.125 0.7625
3.4375 0.0625 0.825
3.5 0.0625 0.825
3.4375 0 0.825
3.4375 0 0.7625
3.4375 0.125 0.825
3.5 0 0.7625
3.4375 0 0.7
3.5 0.0625 0.7625
3.5 0.0625 0.7
3.5625 0.125 0.7625
3.5625 0.0625 0.7625
3.5625 0.0625 0.7
3.5625 0.125 0.7
3.625 0.125 0.7625
3.5625 0.0625 0.825
3.625 0.0625 0.825
3.5625 0 0.825
3.5625 0 0.7625
3.5625 0.125 0.825
3.625 0 0.7625
3.5625 0 0.7
3.625 0.0625 0.7625
3.625 0.0625 0.7
3.6875 0.125 0.7625
3.6875 0.0625 0.7625
3.6875 0.0625 0.7
3.6875 0.125 0.7
3.75 0.125 0.7625
3.6875 0.0625 0.825
3.75 0.0625 0.825
3.6875 0 0.825
3.6875 0 0.7625
3.6875 0.125 0.825
3.75 0 0.7625
3.6875 0 0.7
3.75 0.0625 0.7625
3.75 0.0625 0.7
3.8125 0.125 0.7625
3.8125 0.0625 0.7625
3.8125 0.0625 0.7
3.8125 0.125 0.7
3.875 0.125 0.7625
3.8125 0.0625 0.825
3.875 0.0625 0.825
3.8125 0 0.825
3.8125 0 0.7625
3.8125 0.125 0.825
3.875 0 0.7625
3.8125 0 0.7
3.875 0.0625 0.7625
3.875 0.0625 0.7
3.9375 0.125 0.7625
3.9375 0.0625 0.7625
3.9375 0.0625 0.7
3.9375 0.125 0.7
4 0.125 0.7625
3.9375 0.0625 0.825
4 0.0625 0.825
3.9375 0 0.825
3.9375 0 0.7625
3.9375 0.125 0.825
4 0 0.7625
3.9375 0 0.7
4 0.0625 0.7625
4 0.0625 0.7
0 0.1875 0.7
0.0625 0.25 0.7625
0.0625 0.1875 0.7625
0.0625 0.1875 0.7
0.0625 0.25 0.7
0.125 0.25 0.7625
0.0625 0.1875 0.825
0.125 0.1875 0.825
0 0.25 0.7625
0 0.1875 0.7625
0.0625 0.25 0.825
0 0.1875 0.825
0.125 0.1875 0.7625
0.125 0.1875 0.7
0.1875 0.25 0.7625
0.1875 0.1875 0.7625
0.1875 0.1875 0.7
0.1875 0.25 0.7
0.25 0.25 0.7625
0.1875 0.1875 0.825
0.25 0.1875 0.825
0.1875 0.25 0.825
0.25 0.1875 0.7625
0.25 0.1875 0.7
0.3125 0.25 0.7625
0.3125 0.1875 0.7625
0.3125 0.1875 0.7
0.3125 0.25 0.7
0.375 0.25 0.7625
0.3125 0.1875 0.825
0.375 0.1875 0.825
0.3125 0.25 0.825
0.375 0.1875 0.7625
0.375 0.1875 0.7
0.4375 0.25 0.7625
0.4375 0.1875 0.7625
0.4375 0.1875 0.7
0.4375 0.25 0.7
0.5 0.25 0.7625
0.4375 0.1875 0.825
0.5 0.1875 0.825
0.4375 0.25 0.825
0.5 0.1875 0.7625
0.5 0.1875 0.7
0.5625 0.25 0.7625
0.5625 0.1875 0.7625
0.5625 0.1875 0.7
0.5625 0.25 0.7
0.625 0.25 0.7625
0.5625 0.1875 0.825
0.625 0.1875 0.825
0.5625 0.25 0.825
0.625 0.1875 0.7625
0.625 0.1875 0.7
0.6875 0.25 0.7625
0.6875 0.1875 0.7625
0.6875 0.1875 0.7
0.6875 0.25 0.7
0.75 0.25 0.7625
0.6875 0.1875 0.825
0.75 0.1875 0.825
0.6875 0.25 0.825
0.75 0.1875 0.7625
0.75 0.1875 0.7
0.8125 0.25 0.7625
0.8125 0.1875 0.7625
0.8125 0.1875 0.7
0.8125 0.25 0.7
0.875 0.25 0.7625
0.8125 0.1875 0.825
0.875 0.1875 0.825
0.8125 0.25 0.825
0.875 0.1875 0.7625
0.875 0.1875 0.7
0.9375 0.25 0.7625
0.9375 0.1875 0.7625
0.9375 0.1875 0.7
0.9375 0.25 0.7
1 0.25 0.7625
0.9375 0.1875 0.825
1 0.1875 0.825
0.9375 0.25 0.825
1 0.1875 0.7625
1 0.1875 0.7
1.0625 0.25 0.7625
1.0625 0.1875 0.7625
1.0625 0.1875 0.7
1.0625 0.25 0.7
1.125 0.25 0.7625
1.0625 0.1875 0.825
1.125 0.1875 0.825
1.0625 0.25 0.825
1.125 0.1875 0.7625
1.125 0.1875 0.7
1.1875 0.25 0.7625
1.1875 0.1875 0.7625
1.1875 0.1875 0.7
1.1875 0.25 0.7
1.25 0.25 0.7625
1.1875 0.1875 0.825
1.25 0.1875 0.825
1.1875 0.25 0.825
1.25 0.1875 0.7625
1.25 0.1875 0.7
1.3125 0.25 0.7625
1.3125 0.1875 0.7625
1.3125 0.1875 0.7
1.3125 0.25 0.7
1.375 0.25 0.7625
1.3125 0.1875 0.825
1.375 0.1875 0.825
1.3125 0.25 0.825
1.375 0.1875 0.7625
1.375 0.1875 0.7
1.4375 0.25 0.7625
1.4375 0.1875 0.7625
1.4375 0.1875 0.7
1.4375 0.25 0.7
1.5 0.25 0.7625
1.4375 0.1875 0.825
1.5 0.1875 0.825
1.4375 0.25 0.825
1.5 0.1875 0.7625
1.5 0.1875 0.7
1.5625 0.25 0.7625
1.5625 0.1875 0.7625
1.5625 0.1875 0.7
1.5625 0.25 0.7
1.625 0.25 0.7625
1.5625 0.1875 0.825
1.625 0.1875 0.825
1.5625 0.25 0.825
1.625 0.1875 0.7625
1.625 0.1875 0.7
1.6875 0.25 0.7625
1.6875 0.1875 0.7625
1.6875 0.1875 0.7
1.6875 0.25 0.7
1.75 0.25 0.7625
1.6875 0.1875 0.825
1.75 0.1875 0.825
1.6875 0.25 0.825
1.75 0.1875 0.7625
1.75 0.1875 0.7
1.8125 0.25 0.7625
1.8125 0.1875 0.7625
1.8125 0.1875 0.7
1.8125 0.25 0.7
1.875 0.25 0.7625
1.8125 0.1875 0.825
1.875 0.1875 0.825
1.8125 0.25 0.825
1.875 0.1875 0.7625
1.875 0.1875 0.7
1.9375 0.25 0.7625
1.9375 0.1875 0.7625
1.9375 0.1875 0.7
1.9375 0.25 0.7
2 0.25 0.7625
1.9375 0.1875 0.825
2 0.1875 0.825
1.9375 0.25 0.825
2 0.1875 0.7625
2 0.1875 0.7
2.0625 0.25 0.7625
2.0625 0.1875 0.7625
2.0625 0.1875 0.7
2.0625 0.25 0.7
2.125 0.25 0.7625
2.0625 0.1875 0.825
2.125 0.1875 0.825
2.0625 0.25 0.825
2.125 0.1875 0.7625
2.125 0.1875 0.7
2.1875 0.25 0.7625
2.1875 0.1875 0.7625
2.1875 0.1875 0.7
2.1875 0.25 0.7
2.25 0.25 0.7625
2.1875 0.1875 0.825
2.25 0.1875 0.825
2.1875 0.25 0.825
2.25 0.1875 0.7625
2.25 0.1875 0.7
2.3125 0.25 0.7625
2.3125 0.1875 0.7625
2.3125 0.1875 0.7
2.3125 0.25 0.7
2.375 0.25 0.7625
2.3125 0.1875 0.825
2.375 0.1875 0.825
2.3125 0.25 0.825
2.375 0.1875 0.7625
2.375 0.1875 0.7
2.4375 0.25 0.7625
2.4375 0.1875 0.7625
2.4375 0.1875 0.7
2.4375 0.25 0.7
2.5 0.25 0.7625
2.4375 0.1875 0.825
2.5 0.1875 0.825
2.4375 0.25 0.825
2.5 0.1875 0.7625
2.5 0.1875 0.7
2.5625 0.25 0.7625
2.5625 0.1875 0.7625
2.5625 0.1875 0.7
2.5625 0.25 0.7
2.625 0.25 0.7625
2.5625 0.1875 0.825
2.625 0.1875 0.825
2.5625 0.25 0.825
2.625 0.1875 0.7625
2.625 0.1875 0.7
2.6875 0.25 0.7625
2.6875 0.1875 0.7625
2.6875 0.1875 0.7
2.6875 0.25 0.7
2.75 0.25 0.7625
2.6875 0.1875 0.825
2.75 0.1875 0.825
2.6875 0.25 0.825
2.75 0.1875 0.7625
2.75 0.1875 0.7
2.8125 0.25 0.7625
2.8125 0.1875 0.7625
2.8125 0.1875 0.7
2.8125 0.25 0.7
2.875 0.25 0.7625
2.8125 0.1875 0.825
2.875 0.1875 0.825
2.8125 0.25 0.825
2.875 0.1875 0.7625
2.875 0.1875 0.7
2.9375 0.25 0.7625
2.9375 0.1875 0.7625
2.9375 0.1875 0.7
2.9375 0.25 0.7
3 0.25 0.7625
2.9375 0.1875 0.825
3 0.1875 0.825
2.9375 0.25 0.825
3 0.1875 0.7625
3 0.1875 0.7
3.0625 0.25 0.7625
3.0625 0.1875 0.7625
3.0625 0.1875 0.7
3.0625 0.25 0.7
3.125 0.25 0.7625
3.0625 0.1875 0.825
3.125 0.1875 0.825
3.0625 0.25 0.825
3.125 0.1875 0.7625
3.125 0.1875 0.7
3.1875 0.25 0.7625
3.1875 0.1875 0.7625
3.1875 0.1875 0.7
3.1875 0.25 0.7
3.25 0.25 0.7625
3.1875 0.1875 0.825
3.25 0.1875 0.825
3.1875 0.25 0.825
3.25 0.1875 0.7625
3.25 0.1875 0.7
3.3125 0.25 0.7625
3.3125 0.1875 0.7625
3.3125 0.1875 0.7
3.3125 0.25 0.7
3.375 0.25 0.7625
3.3125 0.1875 0.825
3.375 0.1875 0.825
3.3125 0.25 0.825
3.375 0.1875 0.7625
3.375 0.1875 0.7
3.4375 0.25 0.7625
3.4375 0.1875 0.7625
3.4375 0.1875 0.7
3.4375 0.25 0.7
3.5 0.25 0.7625
3.4375 0.1875 0.825
3.5 0.1875 0.825
3.4375 0.25 0.825
3.5 0.1875 0.7625
3.5 0.1875 0.7
3.5625 0.25 0.7625
3.5625 0.1875 0.7625
3.5625 0.1875 0.7
3.5625 0.25 0.7
3.625 0.25 0.7625
3.5625 0.1875 0.825
3.625 0.1875 0.825
3.5625 0.25 0.825
3.625 0.1875 0.7625
3.625 0.1875 0.7
3.6875 0.25 0.7625
3.6875 0.1875 0.7625
3.6875 0.1875 0.7
3.6875 0.25 0.7
3.75 0.25 0.7625
3.6875 0.1875 0.825
3.75 0.1875 0.825
3.6875 0.25 0.825
3.75 0.1875 0.7625
3.75 0.1875 0.7
3.8125 0.25 0.7625
3.8125 0.1875 0.7625
3.8125 0.1875 0.7
3.8125 0.25 0.7
3.875 0.25 0.7625
3.8125 0.1875 0.825
3.875 0.1875 0.825
3.8125 0.25 0.825
3.875 0.1875 0.7625
3.875 0.1875 0.7
3.9375 0.25 0.7625
3.9375 0.1875 0.7625
3.9375 0.1875 0.7
3.9375 0.25 0.7
4 0.25 0.7625
3.9375 0.1875 0.825
4 0.1875 0.825
3.9375 0.25 0.825
4 0.1875 0.7625
4 0.1875 0.7
0 0.3125 0.7
0.0625 0.375 0.7625
0.0625 0.3125 0.7625
0.0625 0.3125 0.7
0.0625 0.375 0.7
0.125 0.375 0.7625
0.0625 0.3125 0.825
0.125 0.3125 0.825
0 0.375 0.7625
0 0.3125 0.7625
0.0625 0.375 0.825
0 0.3125 0.825
0.125 0.3125 0.7625
0.125 0.3125 0.7
0.1875 0.375 0.7625
0.1875 0.3125 0.7625
0.1875 0.3125 0.7
0.1875 0.375 0.7
0.25 0.375 0.7625
0.1875 0.3125 0.825
0.25 0.3125 0.825
0.1875 0.375 0.825
0.25 0.3125 0.7625
0.25 0.3125 0.7
0.3125 0.375 0.7625
0.3125 0.3125 0.7625
0.3125 0.3125 0.7
0.3125 0.375 0.7
0.375 0.375 0.7625
0.3125 0.3125 0.825
0.375 0.3125 0.825
0.3125 0.375 0.825
0.375 0.3125 0.7625
0.375 0.3125 0.7
0.4375 0.375 0.7625
0.4375 0.3125 0.7625
0.4375 0.3125 0.7
0.4375 0.375 0.7
0.5 0.375 0.7625
0.4375 0.3125 0.825
0.5 0.3125 0.825
0.4375 0.375 0.825
0.5 0.3125 0.7625
0.5 0.3125 0.7
0.5625 0.375 0.7625
0.5625 0.3125 0.7625
0.5625 0.3125 0.7
0.5625 0.375 0.7
0.625 0.375 0.7625
0.5625 0.3125 0.825
0.625 0.3125 0.825
0.5625 0.375 0.825
0.625 0.3125 0.7625
0.625 0.3125 0.7
0.6875 0.375 0.7625
0.6875 0.3125 0.7625
0.6875 0.3125 0.7
0.6875 0.375 0.7
0.75 0.375 0.7625
0.6875 0.3125 0.825
0.75 0.3125 0.825
0.6875 0.375 0.825
0.75 0.3125 0.7625
0.75 0.3125 0.7
0.8125 0.375 0.7625
0.8125 0.3125 0.7625
0.8125 0.3125 0.7
0.8125 0.375 0.7
0.875 0.375 0.7625
0.8125 0.3125 0.825
0.875 0.3125 0.825
0.8125 0.375 0.825
0.875 0.3125 0.7625
0.875 0.3125 0.7
0.9375 0.375 0.7625
0.9375 0.3125 0.7625
0.9375 0.3125 0.7
0.9375 0.375 0.7
1 0.375 0.7625
0.9375 0.3125 0.825
1 0.3125 0.825
0.9375 0.375 0.825
1 0.3125 0.7625
1 0.3125 0.7
1.0625 0.375 0.7625
1.0625 0.3125 0.7625
1.0625 0.3125 0.7
1.0625 0.375 0.7
1.125 0.375 0.7625
1.0625 0.3125 0.825
1.125 0.3125 0.825
1.0625 0.375 0.825
1.125 0.3125 0.7625
1.125 0.3125 0.7
1.1875 0.375 0.7625
1.1875 0.3125 0.7625
1.1875 0.3125 0.7
1.1875 0.375 0.7
1.25 0.375 0.7625
1.1875 0.3125 0.825
1.25 0.3125 0.825
1.1875 0.375 0.825
1.25 0.3125 0.7625
1.25 0.3125 0.7
1.3125 0.375 0.7625
1.3125 0.3125 0.7625
1.3125 0.3125 0.7
1.3125 0.375 0.7
1.375 0.375 0.7625
1.3125 0.3125 0.825
1.375 0.3125 0.825
1.3125 0.375 0.825
1.375 0.3125 0.7625
1.375 0.3125 0.7
1.4375 0.375 0.7625
1.4375 0.3125 0.7625
1.4375 0.3125 0.7
1.4375 0.375 0.7
1.5 0.375 0.7625
1.4375 0.3125 0.825
1.5 0.3125 0.825
1.4375 0.375 0.825
1.5 0.3125 0.7625
1.5 0.3125 0.7
1.5625 0.375 0.7625
1.5625 0.3125 0.7625
1.5625 0.3125 0.7
1.5625 0.375 0.7
1.625 0.375 0.7625
1.5625 0.3125 0.825
1.625 0.3125 0.825
1.5625 0.375 0.825
1.625 0.3125 0.7625
1.625 0.3125 0.7
1.6875 0.375 0.7625
1.6875 0.3125 0.7625
1.6875 0.3125 0.7
1.6875 0.375 0.7
1.75 0.375 0.7625
1.6875 0.3125 0.825
1.75 0.3125 0.825
1.6875 0.375 0.825
1.75 0.3125 0.7625
1.75 0.3125 0.7
1.8125 0.375 0.7625
1.8125 0.3125 0.7625
1.8125 0.3125 0.7
1.8125 0.375 0.7
1.875 0.375 0.7625
1.8125 0.3125 0.825
1.875 0.3125 0.825
1.8125 0.375 0.825
1.875 0.3125 0.7625
1.875 0.3125 0.7
1.9375 0.375 0.7625
1.9375 0.3125 0.7625
1.9375 0.3125 0.7
1.9375 0.375 0.7
2 0.375 0.7625
1.9375 0.3125 0.825
2 0.3125 0.825
1.9375 0.375 0.825
2 0.3125 0.7625
2 0.3125 0.7
2.0625 0.375 0.7625
2.0625 0.3125 0.7625
2.0625 0.3125 0.7
2.0625 0.375 0.7
2.125 0.375 0.7625
2.0625 0.3125 0.825
2.125 0.3125 0.825
2.0625 0.375 0.825
2.125 0.3125 0.7625
2.125 0.3125 0.7
2.1875 0.375 0.7625
2.1875 0.3125 0.7625
2.1875 0.3125 0.7
2.1875 0.375 0.7
2.25 0.375 0.7625
2.1875 0.3125 0.825
2.25 0.3125 0.825
2.1875 0.375 0.825
2.25 0.3125 0.7625
2.25 0.3125 0.7
2.3125 0.375 0.7625
2.3125 0.3125 0.7625
2.3125 0.3125 0.7
2.3125 0.375 0.7
2.375 0.375 0.7625
2.3125 0.3125 0.825
2.375 0.3125 0.825
2.3125 0.375 0.825
2.375 0.3125 0.7625
2.375 0.3125 0.7
2.4375 0.375 0.7625
2.4375 0.3125 0.7625
2.4375 0.3125 0.7
2.4375 0.375 0.7
2.5 0.375 0.7625
2.4375 0.3125 0.825
2.5 0.3125 0.825
2.4375 0.375 0.825
2.5 0.3125 0.7625
2.5 0.3125 0.7
2.5625 0.375 0.7625
2.5625 0.3125 0.7625
2.5625 0.3125 0.7
2.5625 0.375 0.7
2.625 0.375 0.7625
2.5625 0.3125 0.825
2.625 0.3125 0.825
2.5625 0.375 0.825
2.625 0.3125 0.7625
2.625 0.3125 0.7
2.6875 0.375 0.7625
2.6875 0.3125 0.7625
2.6875 0.3125 0.7
2.6875 0.375 0.7
2.75 0.375 0.7625
2.6875 0.3125 0.825
2.75 0.3125 0.825
2.6875 0.375 0.825
2.75 0.3125 0.7625
2.75 0.3125 0.7
2.8125 0.375 0.7625
2.8125 0.3125 0.7625
2.8125 0.3125 0.7
2.8125 0.375 0.7
2.875 0.375 0.7625
2.8125 0.3125 0.825
2.875 0.3125 0.825
2.8125 0.375 0.825
2.875 0.3125 0.7625
2.875 0.3125 0.7
2.9375 0.375 0.7625
2.9375 0.3125 0.7625
2.9375 0.3125 0.7
2.9375 0.375 0.7
3 0.375 0.7625
2.9375 0.3125 0.825
3 0.3125 0.825
2.9375 0.375 0.825
3 0.3125 0.7625
3 0.3125 0.7
3.0625 0.375 0.7625
3.0625 0.3125 0.7625
3.0625 0.3125 0.7
3.0625 0.375 0.7
3.125 0.375 0.7625
3.0625 0.3125 0.825
3.125 0.3125 0.825
3.0625 0.375 0.825
3.125 0.3125 0.7625
3.125 0.3125 0.7
3.1875 0.375 0.7625
3.1875 0.3125 0.7625
3.1875 0.3125 0.7
3.1875 0.375 0.7
3.25 0.375 0.7625
3.1875 0.3125 0.825
3.25 0.3125 0.825
3.1875 0.375 0.825
3.25 0.3125 0.7625
3.25 0.3125 0.7
3.3125 0.375 0.7625
3.3125 0.3125 0.7625
3.3125 0.3125 0.7
3.3125 0.375 0.7
3.375 0.375 0.7625
3.3125 0.3125 0.825
3.375 0.3125 0.825
3.3125 0.375 0.825
3.375 0.3125 0.7625
3.375 0.3125 0.7
3.4375 0.375 0.7625
3.4375 0.3125 0.7625
3.4375 0.3125 0.7
3.4375 0.375 0.7
3.5 0.375 0.7625
3.4375 0.3125 0.825
3.5 0.3125 0.825
3.4375 0.375 0.825
3.5 0.3125 0.7625
3.5 0.3125 0.7
3.5625 0.375 0.7625
3.5625 0.3125 0.7625
3.5625 0.3125 0.7
3.5625 0.375 0.7
3.625 0.375 0.7625
3.5625 0.3125 0.825
3.625 0.3125 0.825
3.5625 0.375 0.825
3.625 0.3125 0.7625
3.625 0.3125 0.7
3.6875 0.375 0.7625
3.6875 0.3125 0.7625
3.6875 0.3125 0.7
3.6875 0.375 0.7
3.75 0.375 0.7625
3.6875 0.3125 0.825
3.75 0.3125 0.825
3.6875 0.375 0.825
3.75 0.3125 0.7625
3.75 0.3125 0.7
3.8125 0.375 0.7625
3.8125 0.3125 0.7625
3.8125 0.3125 0.7
3.8125 0.375 0.7
3.875 0.375 0.7625
3.8125 0.3125 0.825
3.875 0.3125 0.825
3.8125 0.375 0.825
3.875 0.3125 0.7625
3.875 0.3125 0.7
3.9375 0.375 0.7625
3.9375 0.3125 0.7625
3.9375 0.3125 0.7
3.9375 0.375 0.7
4 0.375 0.7625
3.9375 0.3125 0.825
4 0.3125 0.825
3.9375 0.375 0.825
4 0.3125 0.7625
4 0.3125 0.7
0 0.4375 0.7
0.0625 0.5 0.7625
0.0625 0.4375 0.7625
0.0625 0.4375 0.7
0.0625 0.5 0.7
0.125 0.5 0.7625
0.0625 0.4375 0.825
0.125 0.4375 0.825
0 0.5 0.7625
0 0.4375 0.7625
0.0625 0.5 0.825
0 0.4375 0.825
0.125 0.4375 0.7625
0.125 0.4375 0.7
0.1875 0.5 0.7625
0.1875 0.4375 0.7625
0.1875 0.4375 0.7
0.1875 0.5 0.7
0.25 0.5 0.7625
0.1875 0.4375 0.825
0.25 0.4375 0.825
0.1875 0.5 0.825
0.25 0.4375 0.7625
0.25 0.4375 0.7
0.3125 0.5 0.7625
0.3125 0.4375 0.7625
0.3125 0.4375 0.7
0.3125 0.5 0.7
0.375 0.5 0.7625
0.3125 0.4375 0.825
0.375 0.4375 0.825
0.3125 0.5 0.825
0.375 0.4375 0.7625
0.375 0.4375 0.7
0.4375 0.5 0.7625
0.4375 0.4375 0.7625
0.4375 0.4375 0.7
0.4375 0.5 0.7
0.5 0.5 0.7625
0.4375 0.4375 0.825
0.5 0.4375 0.825
0.4375 0.5 0.825
0.5 0.4375 0.7625
0.5 0.4375 0.7
0.5625 0.5 0.7625
0.5625 0.4375 0.7625
0.5625 0.4375 0.7
0.5625 0.5 0.7
0.625 0.5 0.7625
0.5625 0.4375 0.825
0.625 0.4375 0.825
0.5625 0.5 0.825
0.625 0.4375 0.7625
0.625 0.4375 0.7
0.6875 0.5 0.7625
0.6875 0.4375 0.7625
0.6875 0.4375 0.7
0.6875 0.5 0.7
0.75 0.5 0.7625
0.6875 0.4375 0.825
0.75 0.4375 0.825
0.6875 0.5 0.825
0.75 0.4375 0.7625
0.75 0.4375 0.7
0.8125 0.5 0.7625
0.8125 0.4375 0.7625
0.8125 0.4375 0.7
0.8125 0.5 0.7
0.875 0.5 0.7625
0.8125 0.4375 0.825
0.875 0.4375 0.825
0.8125 0.5 0.825
0.875 0.4375 0.7625
0.875 0.4375 0.7
0.9375 0.5 0.7625
0.9375 0.4375 0.7625
0.9375 0.4375 0.7
0.9375 0.5 0.7
1 0.5 0.7625
0.9375 0.4375 0.825
1 0.4375 0.825
0.9375 0.5 0.825
1 0.4375 0.7625
1 0.4375 0.7
1.0625 0.5 0.7625
1.0625 0.4375 0.7625
1.0625 0.4375 0.7
1.0625 0.5 0.7
1.125 0.5 0.7625
1.0625 0.4375 0.825
1.125 0.4375 0.825
1.0625 0.5 0.825
1.125 0.4375 0.7625
1.125 0.4375 0.7
1.1875 0.5 0.7625
1.1875 0.4375 0.7625
1.1875 0.4375 0.7
1.1875 0.5 0.7
1.25 0.5 0.7625
1.1875 0.4375 0.825
1.25 0.4375 0.825
1.1875 0.5 0.825
1.25 0.4375 0.7625
1.25 0.4375 0.7
1.3125 0.5 0.7625
1.3125 0.4375 0.7625
1.3125 0.4375 0.7
1.3125 0.5 0.7
1.375 0.5 0.7625
1.3125 0.4375 0.825
1.375 0.4375 0.825
1.3125 0.5 0.825
1.375 0.4375 0.7625
1.375 0.4375 0.7
1.4375 0.5 0.7625
1.4375 0.4375 0.7625
1.4375 0.4375 0.7
1.4375 0.5 0.7
1.5 0.5 0.7625
1.4375 0.4375 0.825
1.5 0.4375 0.825
1.4375 0.5 0.825
1.5 0.4375 0.7625
1.5 0.4375 0.7
1.5625 0.5 0.7625
1.5625 0.4375 0.7625
1.5625 0.4375 0.7
1.5625 0.5 0.7
1.625 0.5 0.7625
1.5625 0.4375 0.825
1.625 0.4375 0.825
1.5625 0.5 0.825
1.625 0.4375 0.7625
1.625 0.4375 0.7
1.6875 0.5 0.7625
1.6875 0.4375 0.7625
1.6875 0.4375 0.7
1.6875 0.5 0.7
1.75 0.5 0.7625
1.6875 0.4375 0.825
1.75 0.4375 0.825
1.6875 0.5 0.825
1.75 0.4375 0.7625
1.75 0.4375 0.7
1.8125 0.5 0.7625
1.8125 0.4375 0.7625
1.8125 0.4375 0.7
1.8125 0.5 0.7
1.875 0.5 0.7625
1.8125 0.4375 0.825
1.875 0.4375 0.825
1.8125 0.5 0.825
1.875 0.4375 0.7625
1.875 0.4375 0.7
1.9375 0.5 0.7625
1.9375 0.4375 0.7625
1.9375 0.4375 0.7
1.9375 0.5 0.7
2 0.5 0.7625
1.9375 0.4375 0.825
2 0.4375 0.825
1.9375 0.5 0.825
2 0.4375 0.7625
2 0.4375 0.7
2.0625 0.5 0.7625
2.0625 0.4375 0.7625
2.0625 0.4375 0.7
2.0625 0.5 0.7
2.125 0.5 0.7625
2.0625 0.4375 0.825
2.125 0.4375 0.825
2.0625 0.5 0.825
2.125 0.4375 0.7625
2.125 0.4375 0.7
2.1875 0.5 0.7625
2.1875 0.4375 0.7625
2.1875 0.4375 0.7
2.1875 0.5 0.7
2.25 0.5 0.7625
2.1875 0.4375 0.825
2.25 0.4375 0.825
2.1875 0.5 0.825
2.25 0.4375 0.7625
2.25 0.4375 0.7
2.3125 0.5 0.7625
2.3125 0.4375 0.7625
2.3125 0.4375 0.7
2.3125 0.5 0.7
2.375 0.5 0.7625
2.3125 0.4375 0.825
2.375 0.4375 0.825
2.3125 0.5 0.825
2.375 0.4375 0.7625
2.375 0.4375 0.7
2.4375 0.5 0.7625
2.4375 0.4375 0.7625
2.4375 0.4375 0.7
2.4375 0.5 0.7
2.5 0.5 0.7625
2.4375 0.4375 0.825
2.5 0.4375 0.825
2.4375 0.5 0.825
2.5 0.4375 0.7625
2.5 0.4375 0.7
2.5625 0.5 0.7625
2.5625 0.4375 0.7625
2.5625 0.4375 0.7
2.5625 0.5 0.7
2.625 0.5 0.7625
2.5625 0.4375 0.825
2.625 0.4375 0.825
2.5625 0.5 0.825
2.625 0.4375 0.7625
2.625 0.4375 0.7
2.6875 0.5 0.7625
2.6875 0.4375 0.7625
2.6875 0.4375 0.7
2.6875 0.5 0.7
2.75 0.5 0.7625
2.6875 0.4375 0.825
2.75 0.4375 0.825
2.6875 0.5 0.825
2.75 0.4375 0.7625
2.75 0.4375 0.7
2.8125 0.5 0.7625
2.8125 0.4375 0.7625
2.8125 0.4375 0.7
2.8125 0.5 0.7
2.875 0.5 0.7625
2.8125 0.4375 0.825
2.875 0.4375 0.825
2.8125 0.5 0.825
2.875 0.4375 0.7625
2.875 0.4375 0.7
2.9375 0.5 0.7625
2.9375 0.4375 0.7625
2.9375 0.4375 0.7
2.9375 0.5 0.7
3 0.5 0.7625
2.9375 0.4375 0.825
3 0.4375 0.825
2.9375 0.5 0.825
3 0.4375 0.7625
3 0.4375 0.7
3.0625 0.5 0.7625
3.0625 0.4375 0.7625
3.0625 0.4375 0.7
3.0625 0.5 0.7
3.125 0.5 0.7625
3.0625 0.4375 0.825
3.125 0.4375 0.825
3.0625 0.5 0.825
3.125 0.4375 0.7625
3.125 0.4375 0.7
3.1875 0.5 0.7625
3.1875 0.4375 0.7625
3.1875 0.4375 0.7
3.1875 0.5 0.7
3.25 0.5 0.7625
3.1875 0.4375 0.825
3.25 0.4375 0.825
3.1875 0.5 0.825
3.25 0.4375 0.7625
3.25 0.4375 0.7
3.3125 0.5 0.7625
3.3125 0.4375 0.7625
3.3125 0.4375 0.7
3.3125 0.5 0.7
3.375 0.5 0.7625
3.3125 0.4375 0.825
3.375 0.4375 0.825
3.3125 0.5 0.825
3.375 0.4375 0.7625
3.375 0.4375 0.7
3.4375 0.5 0.7625
3.4375 0.4375 0.7625
3.4375 0.4375 0.7
3.4375 0.5 0.7
3.5 0.5 0.7625
3.4375 0.4375 0.825
3.5 0.4375 0.825
3.4375 0.5 0.825
3.5 0.4375 0.7625
3.5 0.4375 0.7
3.5625 0.5 0.7625
3.5625 0.4375 0.7625
3.5625 0.4375 0.7
3.5625 0.5 0.7
3.625 0.5 0.7625
3.5625 0.4375 0.825
3.625 0.4375 0.825
3.5625 0.5 0.825
3.625 0.4375 0.7625
3.625 0.4375 0.7
3.6875 0.5 0.7625
3.6875 0.4375 0.7625
3.6875 0.4375 0.7
3.6875 0.5 0.7
3.75 0.5 0.7625
3.6875 0.4375 0.825
3.75 0.4375 0.825
3.6875 0.5 0.825
3.75 0.4375 0.7625
3.75 0.4375 0.7
3.8125 0.5 0.7625
3.8125 0.4375 0.7625
3.8125 0.4375 0.7
3.8125 0.5 0.7
3.875 0.5 0.7625
3.8125 0.4375 0.825
3.875 0.4375 0.825
3.8125 0.5 0.825
3.875 0.4375 0.7625
3.875 0.4375 0.7
3.9375 0.5 0.7625
3.9375 0.4375 0.7625
3.9375 0.4375 0.7
3.9375 0.5 0.7
4 0.5 0.7625
3.9375 0.4375 0.825
4 0.4375 0.825
3.9375 0.5 0.825
4 0.4375 0.7625
4 0.4375 0.7
0 0.5625 0.7
0.0625 0.625 0.7625
0.0625 0.5625 0.7625
0.0625 0.5625 0.7
0.0625 0.625 0.7
0.125 0.625 0.7625
0.0625 0.5625 0.825
0.125 0.5625 0.825
0 0.625 0.7625
0 0.5625 0.7625
0.0625 0.625 0.825
0 0.5625 0.825
0.125 0.5625 0.7625
0.125 0.5625 0.7
0.1875 0.625 0.7625
0.1875 0.5625 0.7625
0.1875 0.5625 0.7
0.1875 0.625 0.7
0.25 0.625 0.7625
0.1875 0.5625 0.825
0.25 0.5625 0.825
0.1875 0.625 0.825
0.25 0.5625 0.7625
0.25 0.5625 0.7
0.3125 0.625 0.7625
0.3125 0.5625 0.7625
0.3125 0.5625 0.7
0.3125 0.625 0.7
0.375 0.625 0.7625
0.3125 0.5625 0.825
0.375 0.5625 0.825
0.3125 0.625 0.825
0.375 0.5625 0.7625
0.375 0.5625 0.7
0.4375 0.625 0.7625
0.4375 0.5625 0.7625
0.4375 0.5625 0.7
0.4375 0.625 0.7
0.5 0.625 0.7625
0.4375 0.5625 0.825
0.5 0.5625 0.825
0.4375 0.625 0.825
0.5 0.5625 0.7625
0.5 0.5625 0.7
0.5625 0.625 0.7625
0.5625 0.5625 0.7625
0.5625 0.5625 0.7
0.5625 0.625 0.7
0.625 0.625 0.7625
0.5625 0.5625 0.825
0.625 0.5625 0.825
0.5625 0.625 0.825
0.625 0.5625 0.7625
0.625 0.5625 0.7
0.6875 0.625 0.7625
0.6875 0.5625 0.7625
0.6875 0.5625 0.7
0.6875 0.625 0.7
0.75 0.625 0.7625
0.6875 0.5625 0.825
0.75 0.5625 0.825
0.6875 0.625 0.825
0.75 0.5625 0.7625
0.75 0.5625 0.7
0.8125 0.625 0.7625
0.8125 0.5625 0.7625
0.8125 0.5625 0.7
0.8125 0.625 0.7
0.875 0.625 0.7625
0.8125 0.5625 0.825
0.875 0.5625 0.825
0.8125 0.625 0.825
0.875 0.5625 0.7625
0.875 0.5625 0.7
0.9375 0.625 0.7625
0.9375 0.5625 0.7625
0.9375 0.5625 0.7
0.9375 0.625 0.7
1 0.625 0.7625
0.9375 0.5625 0.825
1 0.5625 0.825
0.9375 0.625 0.825
1 0.5625 0.7625
1 0.5625 0.7
1.0625 0.625 0.7625
1.0625 0.5625 0.7625
1.0625 0.5625 0.7
1.0625 0.625 0.7
1.125 0.625 0.7625
1.0625 0.5625 0.825
1.125 0.5625 0.825
1.0625 0.625 0.825
1.125 0.5625 0.7625
1.125 0.5625 0.7
1.1875 0.625 0.7625
1.1875 0.5625 0.7625
1.1875 0.5625 0.7
1.1875 0.625 0.7
1.25 0.625 0.7625
1.1875 0.5625 0.825
1.25 0.5625 0.825
1.1875 0.625 0.825
1.25 0.5625 0.7625
1.25 0.5625 0.7
1.3125 0.625 0.7625
1.3125 0.5625 0.7625
1.3125 0.5625 0.7
1.3125 0.625 0.7
1.375 0.625 0.7625
1.3125 0.5625 0.825
1.375 0.5625 0.825
1.3125 0.625 0.825
1.375 0.5625 0.7625
1.375 0.5625 0.7
1.4375 0.625 0.7625
1.4375 0.5625 0.7625
1.4375 0.5625 0.7
1.4375 0.625 0.7
1.5 0.625 0.7625
1.4375 0.5625 0.825
1.5 0.5625 0.825
1.4375 0.625 0.825
1.5 0.5625 0.7625
1.5 0.5625 0.7
1.5625 0.625 0.7625
1.5625 0.5625 0.7625
1.5625 0.5625 0.7
1.5625 0.625 0.7
1.625 0.625 0.7625
1.5625 0.5625 0.825
1.625 0.5625 0.825
1.5625 0.625 0.825
1.625 0.5625 0.7625
1.625 0.5625 0.7
1.6875 0.625 0.7625
1.6875 0.5625 0.7625
1.6875 0.5625 0.7
1.6875 0.625 0.7
1.75 0.625 0.7625
1.6875 0.5625 0.825
1.75 0.5625 0.825
1.6875 0.625 0.825
1.75 0.5625 0.7625
1.75 0.5625 0.7
1.8125 0.625 0.7625
1.8125 0.5625 0.7625
1.8125 0.5625 0.7
1.8125 0.625 0.7
1.875 0.625 0.7625
1.8125 0.5625 0.825
1.875 0.5625 0.825
1.8125 0.625 0.825
1.875 0.5625 0.7625
1.875 0.5625 0.7
1.9375 0.625 0.7625
1.9375 0.5625 0.7625
1.9375 0.5625 0.7
1.9375 0.625 0.7
2 0.625 0.7625
1.9375 0.5625 0.825
2 0.5625 0.825
1.9375 0.625 0.825
2 0.5625 0.7625
2 0.5625 0.7
2.0625 0.625 0.7625
2.0625 0.5625 0.7625
2.0625 0.5625 0.7
2.0625 0.625 0.7
2.125 0.625 0.7625
2.0625 0.5625 0.825
2.125 0.5625 0.825
2.0625 0.625 0.825
2.125 0.5625 0.7625
2.125 0.5625 0.7
2.1875 0.625 0.7625
2.1875 0.5625 0.7625
2.1875 0.5625 0.7
2.1875 0.625 0.7
2.25 0.625 0.7625
2.1875 0.5625 0.825
2.25 0.5625 0.825
2.1875 0.625 0.825
2.25 0.5625 0.7625
2.25 0.5625 0.7
2.3125 0.625 0.7625
2.3125 0.5625 0.7625
2.3125 0.5625 0.7
2.3125 0.625 0.7
2.375 0.625 0.7625
2.3125 0.5625 0.825
2.375 0.5625 0.825
2.3125 0.625 0.825
2.375 0.5625 0.7625
2.375 0.5625 0.7
2.4375 0.625 0.7625
2.4375 0.5625 0.7625
2.4375 0.5625 0.7
2.4375 0.625 0.7
2.5 0.625 0.7625
2.4375 0.5625 0.825
2.5 0.5625 0.825
2.4375 0.625 0.825
2.5 0.5625 0.7625
2.5 0.5625 0.7
2.5625 0.625 0.7625
2.5625 0.5625 0.7625
2.5625 0.5625 0.7
2.5625 0.625 0.7
2.625 0.625 0.7625
2.5625 0.5625 0.825
2.625 0.5625 0.825
2.5625 0.625 0.825
2.625 0.5625 0.7625
2.625 0.5625 0.7
2.6875 0.625 0.7625
2.6875 0.5625 0.7625
2.6875 0.5625 0.7
2.6875 0.625 0.7
2.75 0.625 0.7625
2.6875 0.5625 0.825
2.75 0.5625 0.825
2.6875 0.625 0.825
2.75 0.5625 0.7625
2.75 0.5625 0.7
2.8125 0.625 0.7625
2.8125 0.5625 0.7625
2.8125 0.5625 0.7
2.8125 0.625 0.7
2.875 0.625 0.7625
2.8125 0.5625 0.825
2.875 0.5625 0.825
2.8125 0.625 0.825
2.875 0.5625 0.7625
2.875 0.5625 0.7
2.9375 0.625 0.7625
2.9375 0.5625 0.7625
2.9375 0.5625 0.7
2.9375 0.625 0.7
3 0.625 0.7625
2.9375 0.5625 0.825
3 0.5625 0.825
2.9375 0.625 0.825
3 0.5625 0.7625
3 0.5625 0.7
3.0625 0.625 0.7625
3.0625 0.5625 0.7625
3.0625 0.5625 0.7
3.0625 0.625 0.7
3.125 0.625 0.7625
3.0625 0.5625 0.825
3.125 0.5625 0.825
3.0625 0.625 0.825
3.125 0.5625 0.7625
3.125 0.5625 0.7
3.1875 0.625 0.7625
3.1875 0.5625 0.7625
3.1875 0.5625 0.7
3.1875 0.625 0.7
3.25 0.625 0.7625
3.1875 0.5625 0.825
3.25 0.5625 0.825
3.1875 0.625 0.825
3.25 0.5625 0.7625
3.25 0.5625 0.7
3.3125 0.625 0.7625
3.3125 0.5625 0.7625
3.3125 0.5625 0.7
3.3125 0.625 0.7
3.375 0.625 0.7625
3.3125 0.5625 0.825
3.375 0.5625 0.825
3.3125 0.625 0.825
3.375 0.5625 0.7625
3.375 0.5625 0.7
3.4375 0.625 0.7625
3.4375 0.5625 0.7625
3.4375 0.5625 0.7
3.4375 0.625 0.7
3.5 0.625 0.7625
3.4375 0.5625 0.825
3.5 0.5625 0.825
3.4375 0.625 0.825
3.5 0.5625 0.7625
3.5 0.5625 0.7
3.5625 0.625 0.7625
3.5625 0.5625 0.7625
3.5625 0.5625 0.7
3.5625 0.625 0.7
3.625 0.625 0.7625
3.5625 0.5625 0.825
3.625 0.5625 0.825
3.5625 0.625 0.825
3.625 0.5625 0.7625
3.625 0.5625 0.7
3.6875 0.625 0.7625
3.6875 0.5625 0.7625
3.6875 0.5625 0.7
3.6875 0.625 0.7
3.75 0.625 0.7625
3.6875 0.5625 0.825
3.75 0.5625 0.825
3.6875 0.625 0.825
3.75 0.5625 0.7625
3.75 0.5625 0.7
3.8125 0.625 0.7625
3.8125 0.5625 0.7625
3.8125 0.5625 0.7
3.8125 0.625 0.7
3.875 0.625 0.7625
3.8125 0.5625 0.825
3.875 0.5625 0.825
3.8125 0.625 0.825
3.875 0.5625 0.7625
3.875 0.5625 0.7
3.9375 0.625 0.7625
3.9375 0.5625 0.7625
3.9375 0.5625 0.7
3.9375 0.625 0.7
4 0.625 0.7625
3.9375 0.5625 0.825
4 0.5625 0.825
3.9375 0.625 0.825
4 0.5625 0.7625
4 0.5625 0.7
0 0.6875 0.7
0.0625 0.75 0.7625
0.0625 0.6875 0.7625
0.0625 0.6875 0.7
0.0625 0.75 0.7
0.125 0.75 0.7625
0.0625 0.6875 0.825
0.125 0.6875 0.825
0 0.75 0.7625
0 0.6875 0.7625
0.0625 0.75 0.825
0 0.6875 0.825
0.125 0.6875 0.7625
0.125 0.6875 0.7
0.1875 0.75 0.7625
0.1875 0.6875 0.7625
0.1875 0.6875 0.7
0.1875 0.75 0.7
0.25 0.75 0.7625
0.1875 0.6875 0.825
0.25 0.6875 0.825
0.1875 0.75 0.825
0.25 0.6875 0.7625
0.25 0.6875 0.7
0.3125 0.75 0.7625
0.3125 0.6875 0.7625
0.3125 0.6875 0.7
0.3125 0.75 0.7
0.375 0.75 0.7625
0.3125 0.6875 0.825
0.375 0.6875 0.825
0.3125 0.75 0.825
0.375 0.6875 0.7625
0.375 0.6875 0.7
0.4375 0.75 0.7625
0.4375 0.6875 0.7625
0.4375 0.6875 0.7
0.4375 0.75 0.7
0.5 0.75 0.7625
0.4375 0.6875 0.825
0.5 0.6875 0.825
0.4375 0.75 0.825
0.5 0.6875 0.7625
0.5 0.6875 0.7
0.5625 0.75 0.7625
0.5625 0.6875 0.7625
0.5625 0.6875 0.7
0.5625 0.75 0.7
0.625 0.75 0.7625
0.5625 0.6875 0.825
0.625 0.6875 0.825
0.5625 0.75 0.825
0.625 0.6875 0.7625
0.625 0.6875 0.7
0.6875 0.75 0.7625
0.6875 0.6875 0.7625
0.6875 0.6875 0.7
0.6875 0.75 0.7
0.75 0.75 0.7625
0.6875 0.6875 0.825
0.75 0.6875 0.825
0.6875 0.75 0.825
0.75 0.6875 0.7625
0.75 0.6875 0.7
0.8125 0.75 0.7625
0.8125 0.6875 0.7625
0.8125 0.6875 0.7
0.8125 0.75 0.7
0.875 0.75 0.7625
0.8125 0.6875 0.825
0.875 0.6875 0.825
0.8125 0.75 0.825
0.875 0.6875 0.7625
0.875 0.6875 0.7
0.9375 0.75 0.7625
0.9375 0.6875 0.7625
0.9375 0.6875 0.7
0.9375 0.75 0.7
1 0.75 0.7625
0.9375 0.6875 0.825
1 0.6875 0.825
0.9375 0.75 0.825
1 0.6875 0.7625
1 0.6875 0.7
1.0625 0.75 0.7625
1.0625 0.6875 0.7625
1.0625 0.6875 0.7
1.0625 0.75 0.7
1.125 0.75 0.7625
1.0625 0.6875 0.825
1.125 0.6875 0.825
1.0625 0.75 0.825
1.125 0.6875 0.7625
1.125 0.6875 0.7
1.1875 0.75 0.7625
1.1875 0.6875 0.7625
1.1875 0.6875 0.7
1.1875 0.75 0.7
1.25 0.75 0.7625
1.1875 0.6875 0.825
1.25 0.6875 0.825
1.1875 0.75 0.825
1.25 0.6875 0.7625
1.25 0.6875 0.7
1.3125 0.75 0.7625
1.3125 0.6875 0.7625
1.3125 0.6875 0.7
1.3125 0.75 0.7
1.375 0.75 0.7625
1.3125 0.6875 0.825
1.375 0.6875 0.825
1.3125 0.75 0.825
1.375 0.6875 0.7625
1.375 0.6875 0.7
1.4375 0.75 0.7625
1.4375 0.6875 0.7625
1.4375 0.6875 0.7
1.4375 0.75 0.7
1.5 0.75 0.7625
1.4375 0.6875 0.825
1.5 0.6875 0.825
1.4375 0.75 0.825
1.5 0.6875 0.7625
1.5 0.6875 0.7
1.5625 0.75 0.7625
1.5625 0.6875 0.7625
1.5625 0.6875 0.7
1.5625 0.75 0.7
1.625 0.75 0.7625
1.5625 0.6875 0.825
1.625 0.6875 0.825
1.5625 0.75 0.825
1.625 0.6875 0.7625
1.625 0.6875 0.7
1.6875 0.75 0.7625
1.6875 0.6875 0.7625
1.6875 0.6875 0.7
1.6875 0.75 0.7
1.75 0.75 0.7625
1.6875 0.6875 0.825
1.75 0.6875 0.825
1.6875 0.75 0.825
1.75 0.6875 0.7625
1.75 0.6875 0.7
1.8125 0.75 0.7625
1.8125 0.6875 0.7625
1.8125 0.6875 0.7
1.8125 0.75 0.7
1.875 0.75 0.7625
1.8125 0.6875 0.825
1.875 0.6875 0.825
1.8125 0.75 0.825
1.875 0.6875 0.7625
1.875 0.6875 0.7
1.9375 0.75 0.7625
1.9375 0.6875 0.7625
1.9375 0.6875 0.7
1.9375 0.75 0.7
2 0.75 0.7625
1.9375 0.6875 0.825
2 0.6875 0.825
1.9375 0.75 0.825
2 0.6875 0.7625
2 0.6875 0.7
2.0625 0.75 0.7625
2.0625 0.6875 0.7625
2.0625 0.6875 0.7
2.0625 0.75 0.7
2.125 0.75 0.7625
2.0625 0.6875 0.825
2.125 0.6875 0.825
2.0625 0.75 0.825
2.125 0.6875 0.7625
2.125 0.6875 0.7
2.1875 0.75 0.7625
2.1875 0.6875 0.7625
2.1875 0.6875 0.7
2.1875 0.75 0.7
2.25 0.75 0.7625
2.1875 0.6875 0.825
2.25 0.6875 0.825
2.1875 0.75 0.825
2.25 0.6875 0.7625
2.25 0.6875 0.7
2.3125 0.75 0.7625
2.3125 0.6875 0.7625
2.3125 0.6875 0.7
2.3125 0.75 0.7
2.375 0.75 0.7625
2.3125 0.6875 0.825
2.375 0.6875 0.825
2.3125 0.75 0.825
2.375 0.6875 0.7625
2.375 0.6875 0.7
2.4375 0.75 0.7625
2.4375 0.6875 0.7625
2.4375 0.6875 0.7
2.4375 0.75 0.7
2.5 0.75 0.7625
2.4375 0.6875 0.825
2.5 0.6875 0.825
2.4375 0.75 0.825
2.5 0.6875 0.7625
2.5 0.6875 0.7
2.5625 0.75 0.7625
2.5625 0.6875 0.7625
2.5625 0.6875 0.7
2.5625 0.75 0.7
2.625 0.75 0.7625
2.5625 0.6875 0.825
2.625 0.6875 0.825
2.5625 0.75 0.825
2.625 0.6875 0.7625
2.625 0.6875 0.7
2.6875 0.75 0.7625
2.6875 0.6875 0.7625
2.6875 0.6875 0.7
2.6875 0.75 0.7
2.75 0.75 0.7625
2.6875 0.6875 0.825
2.75 0.6875 0.825
2.6875 0.75 0.825
2.75 0.6875 0.7625
2.75 0.6875 0.7
2.8125 0.75 0.7625
2.8125 0.6875 0.7625
2.8125 0.6875 0.7
2.8125 0.75 0.7
2.875 0.75 0.7625
2.8125 0.6875 0.825
2.875 0.6875 0.825
2.8125 0.75 0.825
2.875 0.6875 0.7625
2.875 0.6875 0.7
2.9375 0.75 0.7625
2.9375 0.6875 0.7625
2.9375 0.6875 0.7
2.9375 0.75 0.7
3 0.75 0.7625
2.9375 0.6875 0.825
3 0.6875 0.825
2.9375 0.75 0.825
3 0.6875 0.7625
3 0.6875 0.7
3.0625 0.75 0.7625
3.0625 0.6875 0.7625
3.0625 0.6875 0.7
3.0625 0.75 0.7
3.125 0.75 0.7625
3.0625 0.6875 0.825
3.125 0.6875 0.825
3.0625 0.75 0.825
3.125 0.6875 0.7625
3.125 0.6875 0.7
3.1875 0.75 0.7625
3.1875 0.6875 0.7625
3.1875 0.6875 0.7
3.1875 0.75 0.7
3.25 0.75 0.7625
3.1875 0.6875 0.825
3.25 0.6875 0.825
3.1875 0.75 0.825
3.25 0.6875 0.7625
3.25 0.6875 0.7
3.3125 0.75 0.7625
3.3125 0.6875 0.7625
3.3125 0.6875 0.7
3.3125 0.75 0.7
3.375 0.75 0.7625
3.3125 0.6875 0.825
3.375 0.6875 0.825
3.3125 0.75 0.825
3.375 0.6875 0.7625
3.375 0.6875 0.7
3.4375 0.75 0.7625
3.4375 0.6875 0.7625
3.4375 0.6875 0.7
3.4375 0.75 0.7
3.5 0.75 0.7625
3.4375 0.6875 0.825
3.5 0.6875 0.825
3.4375 0.75 0.825
3.5 0.6875 0.7625
3.5 0.6875 0.7
3.5625 0.75 0.7625
3.5625 0.6875 0.7625
3.5625 0.6875 0.7
3.5625 0.75 0.7
3.625 0.75 0.7625
3.5625 0.6875 0.825
3.625 0.6875 0.825
3.5625 0.75 0.825
3.625 0.6875 0.7625
3.625 0.6875 0.7
3.6875 0.75 0.7625
3.6875 0.6875 0.7625
3.6875 0.6875 0.7
3.6875 0.75 0.7
3.75 0.75 0.7625
3.6875 0.6875 0.825
3.75 0.6875 0.825
3.6875 0.75 0.825
3.75 0.6875 0.7625
3.75 0.6875 0.7
3.8125 0.75 0.7625
3.8125 0.6875 0.7625
3.8125 0.6875 0.7
3.8125 0.75 0.7
3.875 0.75 0.7625
3.8125 0.6875 0.825
3.875 0.6875 0.825
3.8125 0.75 0.825
3.875 0.6875 0.7625
3.875 0.6875 0.7
3.9375 0.75 0.7625
3.9375 0.6875 0.7625
3.9375 0.6875 0.7
3.9375 0.75 0.7
4 0.75 0.7625
3.9375 0.6875 0.825
4 0.6875 0.825
3.9375 0.75 0.825
4 0.6875 0.7625
4 0.6875 0.7
0 0.8125 0.7
0.0625 0.875 0.7625
0.0625 0.8125 0.7625
0.0625 0.8125 0.7
0.0625 0.875 0.7
0.125 0.875 0.7625
0.0625 0.8125 0.825
0.125 0.8125 0.825
0 0.875 0.7625
0 0.8125 0.7625
0.0625 0.875 0.825
0 0.8125 0.825
0.125 0.8125 0.7625
0.125 0.8125 0.7
0.1875 0.875 0.7625
0.1875 0.8125 0.7625
0.1875 0.8125 0.7
0.1875 0.875 0.7
0.25 0.875 0.7625
0.1875 0.8125 0.825
0.25 0.8125 0.825
0.1875 0.875 0.825
0.25 0.8125 0.7625
0.25 0.8125 0.7
0.3125 0.875 0.7625
0.3125 0.8125 0.7625
0.3125 0.8125 0.7
0.3125 0.875 0.7
0.375 0.875 0.7625
0.3125 0.8125 0.825
0.375 0.8125 0.825
0.3125 0.875 0.825
0.375 0.8125 0.7625
0.375 0.8125 0.7
0.4375 0.875 0.7625
0.4375 0.8125 0.7625
0.4375 0.8125 0.7
0.4375 0.875 0.7
0.5 0.875 0.7625
0.4375 0.8125 0.825
0.5 0.8125 0.825
0.4375 0.875 0.825
0.5 0.8125 0.7625
0.5 0.8125 0.7
0.5625 0.875 0.7625
0.5625 0.8125 0.7625
0.5625 0.8125 0.7
0.5625 0.875 0.7
0.625 0.875 0.7625
0.5625 0.8125 0.825
0.625 0.8125 0.825
0.5625 0.875 0.825
0.625 0.8125 0.7625
0.625 0.8125 0.7
0.6875 0.875 0.7625
0.6875 0.8125 0.7625
0.6875 0.8125 0.7
0.6875 0.875 0.7
0.75 0.875 0.7625
0.6875 0.8125 0.825
0.75 0.8125 0.825
0.6875 0.875 0.825
0.75 0.8125 0.7625
0.75 0.8125 0.7
0.8125 0.875 0.7625
0.8125 0.8125 0.7625
0.8125 0.8125 0.7
0.8125 0.875 0.7
0.875 0.875 0.7625
0.8125 0.8125 0.825
0.875 0.8125 0.825
0.8125 0.875 0.825
0.875 0.8125 0.7625
0.875 0.8125 0.7
0.9375 0.875 0.7625
0.9375 0.8125 0.7625
0.9375 0.8125 0.7
0.9375 0.875 0.7
1 0.875 0.7625
0.9375 0.8125 0.825
1 0.8125 0.825
0.9375 0.875 0.825
1 0.8125 0.7625
1 0.8125 0.7
1.0625 0.875 0.7625
1.0625 0.8125 0.7625
1.0625 0.8125 0.7
1.0625 0.875 0.7
1.125 0.875 0.7625
1.0625 0.8125 0.825
1.125 0.8125 0.825
1.0625 0.875 0.825
1.125 0.8125 0.7625
1.125 0.8125 0.7
1.1875 0.875 0.7625
1.1875 0.8125 0.7625
1.1875 0.8125 0.7
1.1875 0.875 0.7
1.25 0.875 0.7625
1.1875 0.8125 0.825
1.25 0.8125 0.825
1.1875 0.875 0.825
1.25 0.8125 0.7625
1.25 0.8125 0.7
1.3125 0.875 0.7625
1.3125 0.8125 0.7625
1.3125 0.8125 0.7
1.3125 0.875 0.7
1.375 0.875 0.7625
1.3125 0.8125 0.825
1.375 0.8125 0.825
1.3125 0.875 0.825
1.375 0.8125 0.7625
1.375 0.8125 0.7
1.4375 0.875 0.7625
1.4375 0.8125 0.7625
1.4375 0.8125 0.7
1.4375 0.875 0.7
1.5 0.875 0.7625
1.4375 0.8125 0.825
1.5 0.8125 0.825
1.4375 0.875 0.825
1.5 0.8125 0.7625
1.5 0.8125 0.7
1.5625 0.875 0.7625
1.5625 0.8125 0.7625
1.5625 0.8125 0.7
1.5625 0.875 0.7
1.625 0.875 0.7625
1.5625 0.8125 0.825
1.625 0.8125 0.825
1.5625 0.875 0.825
1.625 0.8125 0.7625
1.625 0.8125 0.7
1.6875 0.875 0.7625
1.6875 0.8125 0.7625
1.6875 0.8125 0.7
1.6875 0.875 0.7
1.75 0.875 0.7625
1.6875 0.8125 0.825
1.75 0.8125 0.825
1.6875 0.875 0.825
1.75 0.8125 0.7625
1.75 0.8125 0.7
1.8125 0.875 0.7625
1.8125 0.8125 0.7625
1.8125 0.8125 0.7
1.8125 0.875 0.7
1.875 0.875 0.7625
1.8125 0.8125 0.825
1.875 0.8125 0.825
1.8125 0.875 0.825
1.875 0.8125 0.7625
1.875 0.8125 0.7
1.9375 0.875 0.7625
1.9375 0.8125 0.7625
1.9375 0.8125 0.7
1.9375 0.875 0.7
2 0.875 0.7625
1.9375 0.8125 0.825
2 0.8125 0.825
1.9375 0.875 0.825
2 0.8125 0.7625
2 0.8125 0.7
2.0625 0.875 0.7625
2.0625 0.8125 0.7625
2.0625 0.8125 0.7
2.0625 0.875 0.7
2.125 0.875 0.7625
2.0625 0.8125 0.825
2.125 0.8125 0.825
2.0625 0.875 0.825
2.125 0.8125 0.7625
2.125 0.8125 0.7
2.1875 0.875 0.7625
2.1875 0.8125 0.7625
2.1875 0.8125 0.7
2.1875 0.875 0.7
2.25 0.875 0.7625
2.1875 0.8125 0.825
2.25 0.8125 0.825
2.1875 0.875 0.825
2.25 0.8125 0.7625
2.25 0.8125 0.7
2.3125 0.875 0.7625
2.3125 0.8125 0.7625
2.3125 0.8125 0.7
2.3125 0.875 0.7
2.375 0.875 0.7625
2.3125 0.8125 0.825
2.375 0.8125 0.825
2.3125 0.875 0.825
2.375 0.8125 0.7625
2.375 0.8125 0.7
2.4375 0.875 0.7625
2.4375 0.8125 0.7625
2.4375 0.8125 0.7
2.4375 0.875 0.7
2.5 0.875 0.7625
2.4375 0.8125 0.825
2.5 0.8125 0.825
2.4375 0.875 0.825
2.5 0.8125 0.7625
2.5 0.8125 0.7
2.5625 0.875 0.7625
2.5625 0.8125 0.7625
2.5625 0.8125 0.7
2.5625 0.875 0.7
2.625 0.875 0.7625
2.5625 0.8125 0.825
2.625 0.8125 0.825
2.5625 0.875 0.825
2.625 0.8125 0.7625
2.625 0.8125 0.7
2.6875 0.875 0.7625
2.6875 0.8125 0.7625
2.6875 0.8125 0.7
2.6875 0.875 0.7
2.75 0.875 0.7625
2.6875 0.8125 0.825
2.75 0.8125 0.825
2.6875 0.875 0.825
2.75 0.8125 0.7625
2.75 0.8125 0.7
2.8125 0.875 0.7625
2.8125 0.8125 0.7625
2.8125 0.8125 0.7
2.8125 0.875 0.7
2.875 0.875 0.7625
2.8125 0.8125 0.825
2.875 0.8125 0.825
2.8125 0.875 0.825
2.875 0.8125 0.7625
2.875 0.8125 0.7
2.9375 0.875 0.7625
2.9375 0.8125 0.7625
2.9375 0.8125 0.7
2.9375 0.875 0.7
3 0.875 0.7625
2.9375 0.8125 0.825
3 0.8125 0.825
2.9375 0.875 0.825
3 0.8125 0.7625
3 0.8125 0.7
3.0625 0.875 0.7625
3.0625 0.8125 0.7625
3.0625 0.8125 0.7
3.0625 0.875 0.7
3.125 0.875 0.7625
3.0625 0.8125 0.825
3.125 0.8125 0.825
3.0625 0.875 0.825
3.125 0.8125 0.7625
3.125 0.8125 0.7
3.1875 0.875 0.7625
3.1875 0.8125 0.7625
3.1875 0.8125 0.7
3.1875 0.875 0.7
3.25 0.875 0.7625
3.1875 0.8125 0.825
3.25 0.8125 0.825
3.1875 0.875 0.825
3.25 0.8125 0.7625
3.25 0.8125 0.7
3.3125 0.875 0.7625
3.3125 0.8125 0.7625
3.3125 0.8125 0.7
3.3125 0.875 0.7
3.375 0.875 0.7625
3.3125 0.8125 0.825
3.375 0.8125 0.825
3.3125 0.875 0.825
3.375 0.8125 0.7625
3.375 0.8125 0.7
3.4375 0.875 0.7625
3.4375 0.8125 0.7625
3.4375 0.8125 0.7
3.4375 0.875 0.7
3.5 0.875 0.7625
3.4375 0.8125 0.825
3.5 0.8125 0.825
3.4375 0.875 0.825
3.5 0.8125 0.7625
3.5 0.8125 0.7
3.5625 0.875 0.7625
3.5625 0.8125 0.7625
3.5625 0.8125 0.7
3.5625 0.875 0.7
3.625 0.875 0.7625
3.5625 0.8125 0.825
3.625 0.8125 0.825
3.5625 0.875 0.825
3.625 0.8125 0.7625
3.625 0.8125 0.7
3.6875 0.875 0.7625
3.6875 0.8125 0.7625
3.6875 0.8125 0.7
3.6875 0.875 0.7
3.75 0.875 0.7625
3.6875 0.8125 0.825
3.75 0.8125 0.825
3.6875 0.875 0.825
3.75 0.8125 0.7625
3.75 0.8125 0.7
3.8125 0.875 0.7625
3.8125 0.8125 0.7625
3.8125 0.8125 0.7
3.8125 0.875 0.7
3.875 0.875 0.7625
3.8125 0.8125 0.825
3.875 0.8125 0.825
3.8125 0.875 0.825
3.875 0.8125 0.7625
3.875 0.8125 0.7
3.9375 0.875 0.7625
3.9375 0.8125 0.7625
3.9375 0.8125 0.7
3.9375 0.875 0.7
4 0.875 0.7625
3.9375 0.8125 0.825
4 0.8125 0.825
3.9375 0.875 0.825
4 0.8125 0.7625
4 0.8125 0.7
0 0.9375 0.7
0.0625 1 0.7625
0.0625 0.9375 0.7625
0.0625 0.9375 0.7
0.0625 1 0.7
0.125 1 0.7625
0.0625 0.9375 0.825
0.125 0.9375 0.825
0 1 0.7625
0 0.9375 0.7625
0.0625 1 0.825
0 0.9375 0.825
0.125 0.9375 0.7625
0.125 0.9375 0.7
0.1875 1 0.7625
0.1875 0.9375 0.7625
0.1875 0.9375 0.7
0.1875 1 0.7
0.25 1 0.7625
0.1875 0.9375 0.825
0.25 0.9375 0.825
0.1875 1 0.825
0.25 0.9375 0.7625
0.25 0.9375 0.7
0.3125 1 0.7625
0.3125 0.9375 0.7625
0.3125 0.9375 0.7
0.3125 1 0.7
0.375 1 0.7625
0.3125 0.9375 0.825
0.375 0.9375 0.825
0.3125 1 0.825
0.375 0.9375 0.7625
0.375 0.9375 0.7
0.4375 1 0.7625
0.4375 0.9375 0.7625
0.4375 0.9375 0.7
0.4375 1 0.7
0.5 1 0.7625
0.4375 0.9375 0.825
0.5 0.9375 0.825
0.4375 1 0.825
0.5 0.9375 0.7625
0.5 0.9375 0.7
0.5625 1 0.7625
0.5625 0.9375 0.7625
0.5625 0.9375 0.7
0.5625 1 0.7
0.625 1 0.7625
0.5625 0.9375 0.825
0.625 0.9375 0.825
0.5625 1 0.825
0.625 0.9375 0.7625
0.625 0.9375 0.7
0.6875 1 0.7625
0.6875 0.9375 0.7625
0.6875 0.9375 0.7
0.6875 1 0.7
0.75 1 0.7625
0.6875 0.9375 0.825
0.75 0.9375 0.825
0.6875 1 0.825
0.75 0.9375 0.7625
0.75 0.9375 0.7
0.8125 1 0.7625
0.8125 0.9375 0.7625
0.8125 0.9375 0.7
0.8125 1 0.7
0.875 1 0.7625
0.8125 0.9375 0.825
0.875 0.9375 0.825
0.8125 1 0.825
0.875 0.9375 0.7625
0.875 0.9375 0.7
0.9375 1 0.7625
0.9375 0.9375 0.7625
0.9375 0.9375 0.7
0.9375 1 0.7
1 1 0.7625
0.9375 0.9375 0.825
1 0.9375 0.825
0.9375 1 0.825
1 0.9375 0.7625
1 0.9375 0.7
1.0625 1 0.7625
1.0625 0.9375 0.7625
1.0625 0.9375 0.7
1.0625 1 0.7
1.125 1 0.7625
1.0625 0.9375 0.825
1.125 0.9375 0.825
1.0625 1 0.825
1.125 0.9375 0.7625
1.125 0.9375 0.7
1.1875 1 0.7625
1.1875 0.9375 0.7625
1.1875 0.9375 0.7
1.1875 1 0.7
1.25 1 0.7625
1.1875 0.9375 0.825
1.25 0.9375 0.825
1.1875 1 0.825
1.25 0.9375 0.7625
1.25 0.9375 0.7
1.3125 1 0.7625
1.3125 0.9375 0.7625
1.3125 0.9375 0.7
1.3125 1 0.7
1.375 1 0.7625
1.3125 0.9375 0.825
1.375 0.9375 0.825
1.3125 1 0.825
1.375 0.9375 0.7625
1.375 0.9375 0.7
1.4375 1 0.7625
1.4375 0.9375 0.7625
1.4375 0.9375 0.7
1.4375 1 0.7
1.5 1 0.7625
1.4375 0.9375 0.825
1.5 0.9375 0.825
1.4375 1 0.825
1.5 0.9375 0.7625
1.5 0.9375 0.7
1.5625 1 0.7625
1.5625 0.9375 0.7625
1.5625 0.9375 0.7
1.5625 1 0.7
1.625 1 0.7625
1.5625 0.9375 0.825
1.625 0.9375 0.825
1.5625 1 0.825
1.625 0.9375 0.7625
1.625 0.9375 0.7
1.6875 1 0.7625
1.6875 0.9375 0.7625
1.6875 0.9375 0.7
1.6875 1 0.7
1.75 1 0.7625
1.6875 0.9375 0.825
1.75 0.9375 0.825
1.6875 1 0.825
1.75 0.9375 0.7625
1.75 0.9375 0.7
1.8125 1 0.7625
1.8125 0.9375 0.7625
1.8125 0.9375 0.7
1.8125 1 0.7
1.875 1 0.7625
1.8125 0.9375 0.825
1.875 0.9375 0.825
1.8125 1 0.825
1.875 0.9375 0.7625
1.875 0.9375 0.7
1.9375 1 0.7625
1.9375 0.9375 0.7625
1.9375 0.9375 0.7
1.9375 1 0.7
2 1 0.7625
1.9375 0.9375 0.825
2 0.9375 0.825
1.9375 1 0.825
2 0.9375 0.7625
2 0.9375 0.7
2.0625 1 0.7625
2.0625 0.9375 0.7625
2.0625 0.9375 0.7
2.0625 1 0.7
2.125 1 0.7625
2.0625 0.9375 0.825
2.125 0.9375 0.825
2.0625 1 0.825
2.125 0.9375 0.7625
2.125 0.9375 0.7
2.1875 1 0.7625
2.1875 0.9375 0.7625
2.1875 0.9375 0.7
2.1875 1 0.7
2.25 1 0.7625
2.1875 0.9375 0.825
2.25 0.9375 0.825
2.1875 1 0.825
2.25 0.9375 0.7625
2.25 0.9375 0.7
2.3125 1 0.7625
2.3125 0.9375 0.7625
2.3125 0.9375 0.7
2.3125 1 0.7
2.375 1 0.7625
2.3125 0.9375 0.825
2.375 0.9375 0.825
2.3125 1 0.825
2.375 0.9375 0.7625
2.375 0.9375 0.7
2.4375 1 0.7625
2.4375 0.9375 0.7625
2.4375 0.9375 0.7
2.4375 1 0.7
2.5 1 0.7625
2.4375 0.9375 0.825
2.5 0.9375 0.825
2.4375 1 0.825
2.5 0.9375 0.7625
2.5 0.9375 0.7
2.5625 1 0.7625
2.5625 0.9375 0.7625
2.5625 0.9375 0.7
2.5625 1 0.7
2.625 1 0.7625
2.5625 0.9375 0.825
2.625 0.9375 0.825
2.5625 1 0.825
2.625 0.9375 0.7625
2.625 0.9375 0.7
2.6875 1 0.7625
2.6875 0.9375 0.7625
2.6875 0.9375 0.7
2.6875 1 0.7
2.75 1 0.7625
2.6875 0.9375 0.825
2.75 0.9375 0.825
2.6875 1 0.825
2.75 0.9375 0.7625
2.75 0.9375 0.7
2.8125 1 0.7625
2.8125 0.9375 0.7625
2.8125 0.9375 0.7
2.8125 1 0.7
2.875 1 0.7625
2.8125 0.9375 0.825
2.875 0.9375 0.825
2.8125 1 0.825
2.875 0.9375 0.7625
2.875 0.9375 0.7
2.9375 1 0.7625
2.9375 0.9375 0.7625
2.9375 0.9375 0.7
2.9375 1 0.7
3 1 0.7625
2.9375 0.9375 0.825
3 0.9375 0.825
2.9375 1 0.825
3 0.9375 0.7625
3 0.9375 0.7
3.0625 1 0.7625
3.0625 0.9375 0.7625
3.0625 0.9375 0.7
3.0625 1 0.7
3.125 1 0.7625
3.0625 0.9375 0.825
3.125 0.9375 0.825
3.0625 1 0.825
3.125 0.9375 0.7625
3.125 0.9375 0.7
3.1875 1 0.7625
3.1875 0.9375 0.7625
3.1875 0.9375 0.7
3.1875 1 0.7
3.25 1 0.7625
3.1875 0.9375 0.825
3.25 0.9375 0.825
3.1875 1 0.825
3.25 0.9375 0.7625
3.25 0.9375 0.7
3.3125 1 0.7625
3.3125 0.9375 0.7625
3.3125 0.9375 0.7
3.3125 1 0.7
3.375 1 0.7625
3.3125 0.9375 0.825
3.375 0.9375 0.825
3.3125 1 0.825
3.375 0.9375 0.7625
3.375 0.9375 0.7
3.4375 1 0.7625
3.4375 0.9375 0.7625
3.4375 0.9375 0.7
3.4375 1 0.7
3.5 1 0.7625
3.4375 0.9375 0.825
3.5 0.9375 0.825
3.4375 1 0.825
3.5 0.9375 0.7625
3.5 0.9375 0.7
3.5625 1 0.7625
3.5625 0.9375 0.7625
3.5625 0.9375 0.7
3.5625 1 0.7
3.625 1 0.7625
3.5625 0.9375 0.825
3.625 0.9375 0.825
3.5625 1 0.825
3.625 0.9375 0.7625
3.625 0.9375 0.7
3.6875 1 0.7625
3.6875 0.9375 0.7625
3.6875 0.9375 0.7
3.6875 1 0.7
3.75 1 0.7625
3.6875 0.9375 0.825
3.75 0.9375 0.825
3.6875 1 0.825
3.75 0.9375 0.7625
3.75 0.9375 0.7
3.8125 1 0.7625
3.8125 0.9375 0.7625
3.8125 0.9375 0.7
3.8125 1 0.7
3.875 1 0.7625
3.8125 0.9375 0.825
3.875 0.9375 0.825
3.8125 1 0.825
3.875 0.9375 0.7625
3.875 0.9375 0.7
3.9375 1 0.7625
3.9375 0.9375 0.7625
3.9375 0.9375 0.7
3.9375 1 0.7
4 1 0.7625
3.9375 0.9375 0.825
4 0.9375 0.825
3.9375 1 0.825
4 0.9375 0.7625
4 0.9375 0.7
0.0625 0.125 0.8875
0.0625 0.0625 0.8875
0.125 0.125 0.8875
0.0625 0.0625 0.95
0.125 0.0625 0.95
0.0625 0 0.95
0 0 0.8875
0.0625 0 0.8875
0 0.125 0.8875
0 0.0625 0.8875
0.0625 0.125 0.95
0 0.0625 0.95
0.125 0 0.8875
0.125 0.0625 0.8875
0.1875 0.125 0.8875
0.1875 0.0625 0.8875
0.25 0.125 0.8875
0.1875 0.0625 0.95
0.25 0.0625 0.95
0.1875 0 0.95
0.1875 0 0.8875
0.1875 0.125 0.95
0.25 0 0.8875
0.25 0.0625 0.8875
0.3125 0.125 0.8875
0.3125 0.0625 0.8875
0.375 0.125 0.8875
0.3125 0.0625 0.95
0.375 0.0625 0.95
0.3125 0 0.95
0.3125 0 0.8875
0.3125 0.125 0.95
0.375 0 0.8875
0.375 0.0625 0.8875
0.4375 0.125 0.8875
0.4375 0.0625 0.8875
0.5 0.125 0.8875
0.4375 0.0625 0.95
0.5 0.0625 0.95
0.4375 0 0.95
0.4375 0 0.8875
0.4375 0.125 0.95
0.5 0 0.8875
0.5 0.0625 0.8875
0.5625 0.125 0.8875
0.5625 0.0625 0.8875
0.625 0.125 0.8875
0.5625 0.0625 0.95
0.625 0.0625 0.95
0.5625 0 0.95
0.5625 0 0.8875
0.5625 0.125 0.95
0.625 0 0.8875
0.625 0.0625 0.8875
0.6875 0.125 0.8875
0.6875 0.0625 0.8875
0.75 0.125 0.8875
0.6875 0.0625 0.95
0.75 0.0625 0.95
0.6875 0 0.95
0.6875 0 0.8875
0.6875 0.125 0.95
0.75 0 0.8875
0.75 0.0625 0.8875
0.8125 0.125 0.8875
0.8125 0.0625 0.8875
0.875 0.125 0.8875
0.8125 0.0625 0.95
0.875 0.0625 0.95
0.8125 0 0.95
0.8125 0 0.8875
0.8125 0.125 0.95
0.875 0 0.8875
0.875 0.0625 0.8875
0.9375 0.125 0.8875
0.9375 0.0625 0.8875
1 0.125 0.8875
0.9375 0.0625 0.95
1 0.0625 0.95
0.9375 0 0.95
0.9375 0 0.8875
0.9375 0.125 0.95
1 0 0.8875
1 0.0625 0.8875
1.0625 0.125 0.8875
1.0625 0.0625 0.8875
1.125 0.125 0.8875
1.0625 0.0625 0.95
1.125 0.0625 0.95
1.0625 0 0.95
1.0625 0 0.8875
1.0625 0.125 0.95
1.125 0 0.8875
1.125 0.0625 0.8875
1.1875 0.125 0.8875
1.1875 0.0625 0.8875
1.25 0.125 0.8875
1.1875 0.0625 0.95
1.25 0.0625 0.95
1.1875 0 0.95
1.1875 0 0.8875
1.1875 0.125 0.95
1.25 0 0.8875
1.25 0.0625 0.8875
1.3125 0.125 0.8875
1.3125 0.0625 0.8875
1.375 0.125 0.8875
1.3125 0.0625 0.95
1.375 0.0625 0.95
1.3125 0 0.95
1.3125 0 0.8875
1.3125 0.125 0.95
1.375 0 0.8875
1.375 0.0625 0.8875
1.4375 0.125 0.8875
1.4375 0.0625 0.8875
1.5 0.125 0.8875
1.4375 0.0625 0.95
1.5 0.0625 0.95
1.4375 0 0.95
1.4375 0 0.8875
1.4375 0.125 0.95
1.5 0 0.8875
1.5 0.0625 0.8875
1.5625 0.125 0.8875
1.5625 0.0625 0.8875
1.625 0.125 0.8875
1.5625 0.0625 0.95
1.625 0.0625 0.95
1.5625 0 0.95
1.5625 0 0.8875
1.5625 0.125 0.95
1.625 0 0.8875
1.625 0.0625 0.8875
1.6875 0.125 0.8875
1.6875 0.0625 0.8875
1.75 0.125 0.8875
1.6875 0.0625 0.95
1.75 0.0625 0.95
1.6875 0 0.95
1.6875 0 0.8875
1.6875 0.125 0.95
1.75 0 0.8875
1.75 0.0625 0.8875
1.8125 0.125 0.8875
1.8125 0.0625 0.8875
1.875 0.125 0.8875
1.8125 0.0625 0.95
1.875 0.0625 0.95
1.8125 0 0.95
1.8125 0 0.8875
1.8125 0.125 0.95
1.875 0 0.8875
1.875 0.0625 0.8875
1.9375 0.125 0.8875
1.9375 0.0625 0.8875
2 0.125 0.8875
1.9375 0.0625 0.95
2 0.0625 0.95
1.9375 0 0.95
1.9375 0 0.8875
1.9375 0.125 0.95
2 0 0.8875
2 0.0625 0.8875
2.0625 0.125 0.8875
2.0625 0.0625 0.8875
2.125 0.125 0.8875
2.0625 0.0625 0.95
2.125 0.0625 0.95
2.0625 0 0.95
2.0625 0 0.8875
2.0625 0.125 0.95
2.125 0 0.8875
2.125 0.0625 0.8875
2.1875 0.125 0.8875
2.1875 0.0625 0.8875
2.25 0.125 0.8875
2.1875 0.0625 0.95
2.25 0.0625 0.95
2.1875 0 0.95
2.1875 0 0.8875
2.1875 0.125 0.95
2.25 0 0.8875
2.25 0.0625 0.8875
2.3125 0.125 0.8875
2.3125 0.0625 0.8875
2.375 0.125 0.8875
2.3125 0.0625 0.95
2.375 0.0625 0.95
2.3125 0 0.95
2.3125 0 0.8875
2.3125 0.125 0.95
2.375 0 0.8875
2.375 0.0625 0.8875
2.4375 0.125 0.8875
2.4375 0.0625 0.8875
2.5 0.125 0.8875
2.4375 0.0625 0.95
2.5 0.0625 0.95
2.4375 0 0.95
2.4375 0 0.8875
2.4375 0.125 0.95
2.5 0 0.8875
2.5 0.0625 0.8875
2.5625 0.125 0.8875
2.5625 0.0625 0.8875
2.625 0.125 0.8875
2.5625 0.0625 0.95
2.625 0.0625 0.95
2.5625 0 0.95
2.5625 0 0.8875
2.5625 0.125 0.95
2.625 0 0.8875
2.625 0.0625 0.8875
2.6875 0.125 0.8875
2.6875 0.0625 0.8875
2.75 0.125 0.8875
2.6875 0.0625 0.95
2.75 0.0625 0.95
2.6875 0 0.95
2.6875 0 0.8875
2.6875 0.125 0.95
2.75 0 0.8875
2.75 0.0625 0.8875
2.8125 0.125 0.8875
2.8125 0.0625 0.8875
2.875 0.125 0.8875
2.8125 0.0625 0.95
2.875 0.0625 0.95
2.8125 0 0.95
2.8125 0 0.8875
2.8125 0.125 0.95
2.875 0 0.8875
2.875 0.0625 0.8875
2.9375 0.125 0.8875
2.9375 0.0625 0.8875
3 0.125 0.8875
2.9375 0.0625 0.95
3 0.0625 0.95
2.9375 0 0.95
2.9375 0 0.8875
2.9375 0.125 0.95
3 0 0.8875
3 0.0625 0.8875
3.0625 0.125 0.8875
3.0625 0.0625 0.8875
3.125 0.125 0.8875
3.0625 0.0625 0.95
3.125 0.0625 0.95
3.0625 0 0.95
3.0625 0 0.8875
3.0625 0.125 0.95
3.125 0 0.8875
3.125 0.0625 0.8875
3.1875 0.125 0.8875
3.1875 0.0625 0.8875
3.25 0.125 0.8875
3.1875 0.0625 0.95
3.25 0.0625 0.95
3.1875 0 0.95
3.1875 0 0.8875
3.1875 0.125 0.95
3.25 0 0.8875
3.25 0.0625 0.8875
3.3125 0.125 0.8875
3.3125 0.0625 0.8875
3.375 0.125 0.8875
3.3125 0.0625 0.95
3.375 0.0625 0.95
3.3125 0 0.95
3.3125 0 0.8875
3.3125 0.125 0.95
3.375 0 0.8875
3.375 0.0625 0.8875
3.4375 0.125 0.8875
3.4375 0.0625 0.8875
3.5 0.125 0.8875
3.4375 0.0625 0.95
3.5 0.0625 0.95
3.4375 0 0.95
3.4375 0 0.8875
3.4375 0.125 0.95
3.5 0 0.8875
3.5 0.0625 0.8875
3.5625 0.125 0.8875
3.5625 0.0625 0.8875
3.625 0.125 0.8875
3.5625 0.0625 0.95
3.625 0.0625 0.95
3.5625 0 0.95
3.5625 0 0.8875
3.5625 0.125 0.95
3.625 0 0.8875
3.625 0.0625 0.8875
3.6875 0.125 0.8875
3.6875 0.0625 0.8875
3.75 0.125 0.8875
3.6875 0.0625 0.95
3.75 0.0625 0.95
3.6875 0 0.95
3.6875 0 0.8875
3.6875 0.125 0.95
3.75 0 0.8875
3.75 0.0625 0.8875
3.8125 0.125 0.8875
3.8125 0.0625 0.8875
3.875 0.125 0.8875
3.8125 0.0625 0.95
3.875 0.0625 0.95
3.8125 0 0.95
3.8125 0 0.8875
3.8125 0.125 0.95
3.875 0 0.8875
3.875 0.0625 0.8875
3.9375 0.125 0.8875
3.9375 0.0625 0.8875
4 0.125 0.8875
3.9375 0.0625 0.95
4 0.0625 0.95
3.9375 0 0.95
3.9375 0 0.8875
3.9375 0.125 0.95
4 0 0.8875
4 0.0625 0.8875
0.0625 0.25 0.8875
0.0625 0.1875 0.8875
0.125 0.25 0.8875
0.0625 0.1875 0.95
0.125 0.1875 0.95
0 0.25 0.8875
0 0.1875 0.8875
0.0625 0.25 0.95
0 0.1875 0.95
0.125 0.1875 0.8875
0.1875 0.25 0.8875
0.1875 0.1875 0.8875
0.25 0.25 0.8875
0.1875 0.1875 0.95
0.25 0.1875 0.95
0.1875 0.25 0.95
0.25 0.1875 0.8875
0.3125 0.25 0.8875
0.3125 0.1875 0.8875
0.375 0.25 0.8875
0.3125 0.1875 0.95
0.375 0.1875 0.95
0.3125 0.25 0.95
0.375 0.1875 0.8875
0.4375 0.25 0.8875
0.4375 0.1875 0.8875
0.5 0.25 0.8875
0.4375 0.1875 0.95
0.5 0.1875 0.95
0.4375 0.25 0.95
0.5 0.1875 0.8875
0.5625 0.25 0.8875
0.5625 0.1875 0.8875
0.625 0.25 0.8875
0.5625 0.1875 0.95
0.625 0.1875 0.95
0.5625 0.25 0.95
0.625 0.1875 0.8875
0.6875 0.25 0.8875
0.6875 0.1875 0.8875
0.75 0.25 0.8875
0.6875 0.1875 0.95
0.75 0.1875 0.95
0.6875 0.25 0.95
0.75 0.1875 0.8875
0.8125 0.25 0.8875
0.8125 0.1875 0.8875
0.875 0.25 0.8875
0.8125 0.1875 0.95
0.875 0.1875 0.95
0.8125 0.25 0.95
0.875 0.1875 0.8875
0.9375 0.25 0.8875
0.9375 0.1875 0.8875
1 0.25 0.8875
0.9375 0.1875 0.95
1 0.1875 0.95
0.9375 0.25 0.95
1 0.1875 0.8875
1.0625 0.25 0.8875
1.0625 0.1875 0.8875
1.125 0.25 0.8875
1.0625 0.1875 0.95
1.125 0.1875 0.95
1.0625 0.25 0.95
1.125 0.1875 0.8875
1.1875 0.25 0.8875
1.1875 0.1875 0.8875
1.25 0.25 0.8875
1.1875 0.1875 0.95
1.25 0.1875 0.95
1.1875 0.25 0.95
1.25 0.1875 0.8875
1.3125 0.25 0.8875
1.3125 0.1875 0.8875
1.375 0.25 0.8875
1.3125 0.1875 0.95
1.375 0.1875 0.95
1.3125 0.25 0.95
1.375 0.1875 0.8875
1.4375 0.25 0.8875
1.4375 0.1875 0.8875
1.5 0.25 0.8875
1.4375 0.1875 0.95
1.5 0.1875 0.95
1.4375 0.25 0.95
1.5 0.1875 0.8875
1.5625 0.25 0.8875
1.5625 0.1875 0.8875
1.625 0.25 0.8875
1.5625 0.1875 0.95
1.625 0.1875 0.95
1.5625 0.25 0.95
1.625 0.1875 0.8875
1.6875 0.25 0.8875
1.6875 0.1875 0.8875
1.75 0.25 0.8875
1.6875 0.1875 0.95
1.75 0.1875 0.95
1.6875 0.25 0.95
1.75 0.1875 0.8875
1.8125 0.25 0.8875
1.8125 0.1875 0.8875
1.875 0.25 0.8875
1.8125 0.1875 0.95
1.875 0.1875 0.95
1.8125 0.25 0.95
1.875 0.1875 0.8875
1.9375 0.25 0.8875
1.9375 0.1875 0.8875
2 0.25 0.8875
1.9375 0.1875 0.95
2 0.1875 0.95
1.9375 0.25 0.95
2 0.1875 0.8875
2.0625 0.25 0.8875
2.0625 0.1875 0.8875
2.125 0.25 0.8875
2.0625 0.1875 0.95
2.125 0.1875 0.95
2.0625 0.25 0.95
2.125 0.1875 0.8875
2.1875 0.25 0.8875
2.1875 0.1875 0.8875
2.25 0.25 0.8875
2.1875 0.1875 0.95
2.25 0.1875 0.95
2.1875 0.25 0.95
2.25 0.1875 0.8875
2.3125 0.25 0.8875
2.3125 0.1875 0.8875
2.375 0.25 0.8875
2.3125 0.1875 0.95
2.375 0.1875 0.95
2.3125 0.25 0.95
2.375 0.1875 0.8875
2.4375 0.25 0.8875
2.4375 0.1875 0.8875
2.5 0.25 0.8875
2.4375 0.1875 0.95
2.5 0.1875 0.95
2.4375 0.25 0.95
2.5 0.1875 0.8875
2.5625 0.25 0.8875
2.5625 0.1875 0.8875
2.625 0.25 0.8875
2.5625 0.1875 0.95
2.625 0.1875 0.95
2.5625 0.25 0.95
2.625 0.1875 0.8875
2.6875 0.25 0.8875
2.6875 0.1875 0.8875
2.75 0.25 0.8875
2.6875 0.1875 0.95
2.75 0.1875 0.95
2.6875 0.25 0.95
2.75 0.1875 0.8875
2.8125 0.25 0.8875
2.8125 0.1875 0.8875
2.875 0.25 0.8875
2.8125 0.1875 0.95
2.875 0.1875 0.95
2.8125 0.25 0.95
2.875 0.1875 0.8875
2.9375 0.25 0.8875
2.9375 0.1875 0.8875
3 0.25 0.8875
2.9375 0.1875 0.95
3 0.1875 0.95
2.9375 0.25 0.95
3 0.1875 0.8875
3.0625 0.25 0.8875
3.0625 0.1875 0.8875
3.125 0.25 0.8875
3.0625 0.1875 0.95
3.125 0.1875 0.95
3.0625 0.25 0.95
3.125 0.1875 0.8875
3.1875 0.25 0.8875
3.1875 0.1875 0.8875
3.25 0.25 0.8875
3.1875 0.1875 0.95
3.25 0.1875 0.95
3.1875 0.25 0.95
3.25 0.1875 0.8875
3.3125 0.25 0.8875
3.3125 0.1875 0.8875
3.375 0.25 0.8875
3.3125 0.1875 0.95
3.375 0.1875 0.95
3.3125 0.25 0.95
3.375 0.1875 0.8875
3.4375 0.25 0.8875
3.4375 0.1875 0.8875
3.5 0.25 0.8875
3.4375 0.1875 0.95
3.5 0.1875 0.95
3.4375 0.25 0.95
3.5 0.1875 0.8875
3.5625 0.25 0.8875
3.5625 0.1875 0.8875
3.625 0.25 0.8875
3.5625 0.1875 0.95
3.625 0.1875 0.95
3.5625 0.25 0.95
3.625 0.1875 0.8875
3.6875 0.25 0.8875
3.6875 0.1875 0.8875
3.75 0.25 0.8875
3.6875 0.1875 0.95
3.75 0.1875 0.95
3.6875 0.25 0.95
3.75 0.1875 0.8875
3.8125 0.25 0.8875
3.8125 0.1875 0.8875
3.875 0.25 0.8875
3.8125 0.1875 0.95
3.875 0.1875 0.95
3.8125 0.25 0.95
3.875 0.1875 0.8875
3.9375 0.25 0.8875
3.9375 0.1875 0.8875
4 0.25 0.8875
3.9375 0.1875 0.95
4 0.1875 0.95
3.9375 0.25 0.95
4 0.1875 0.8875
0.0625 0.375 0.8875
0.0625 0.3125 0.8875
0.125 0.375 0.8875
0.0625 0.3125 0.95
0.125 0.3125 0.95
0 0.375 0.8875
0 0.3125 0.8875
0.0625 0.375 0.95
0 0.3125 0.95
0.125 0.3125 0.8875
0.1875 0.375 0.8875
0.1875 0.3125 0.8875
0.25 0.375 0.8875
0.1875 0.3125 0.95
0.25 0.3125 0.95
0.1875 0.375 0.95
0.25 0.3125 0.8875
0.3125 0.375 0.8875
0.3125 0.3125 0.8875
0.375 0.375 0.8875
0.3125 0.3125 0.95
0.375 0.3125 0.95
0.3125 0.375 0.95
0.375 0.3125 0.8875
0.4375 0.375 0.8875
0.4375 0.3125 0.8875
0.5 0.375 0.8875
0.4375 0.3125 0.95
0.5 0.3125 0.95
0.4375 0.375 0.95
0.5 0.3125 0.8875
0.5625 0.375 0.8875
0.5625 0.3125 0.8875
0.625 0.375 0.8875
0.5625 0.3125 0.95
0.625 0.3125 0.95
0.5625 0.375 0.95
0.625 0.3125 0.8875
0.6875 0.375 0.8875
0.6875 0.3125 0.8875
0.75 0.375 0.8875
0.6875 0.3125 0.95
0.75 0.3125 0.95
0.6875 0.375 0.95
0.75 0.3125 0.8875
0.8125 0.375 0.8875
0.8125 0.3125 0.8875
0.875 0.375 0.8875
0.8125 0.3125 0.95
0.875 0.3125 0.95
0.8125 0.375 0.95
0.875 0.3125 0.8875
0.9375 0.375 0.8875
0.9375 0.3125 0.8875
1 0.375 0.8875
0.9375 0.3125 0.95
1 0.3125 0.95
0.9375 0.375 0.95
1 0.3125 0.8875
1.0625 0.375 0.8875
1.0625 0.3125 0.8875
1.125 0.375 0.8875
1.0625 0.3125 0.95
1.125 0.3125 0.95
1.0625 0.375 0.95
1.125 0.3125 0.8875
1.1875 0.375 0.8875
1.1875 0.3125 0.8875
1.25 0.375 0.8875
1.1875 0.3125 0.95
1.25 0.3125 0.95
1.1875 0.375 0.95
1.25 0.3125 0.8875
1.3125 0.375 0.8875
1.3125 0.3125 0.8875
1.375 0.375 0.8875
1.3125 0.3125 0.95
1.375 0.3125 0.95
1.3125 0.375 0.95
1.375 0.3125 0.8875
1.4375 0.375 0.8875
1.4375 0.3125 0.8875
1.5 0.375 0.8875
1.4375 0.3125 0.95
1.5 0.3125 0.95
1.4375 0.375 0.95
1.5 0.3125 0.8875
1.5625 0.375 0.8875
1.5625 0.3125 0.8875
1.625 0.375 0.8875
1.5625 0.3125 0.95
1.625 0.3125 0.95
1.5625 0.375 0.95
1.625 0.3125 0.8875
1.6875 0.375 0.8875
1.6875 0.3125 0.8875
1.75 0.375 0.8875
1.6875 0.3125 0.95
1.75 0.3125 0.95
1.6875 0.375 0.95
1.75 0.3125 0.8875
1.8125 0.375 0.8875
1.8125 0.3125 0.8875
1.875 0.375 0.8875
1.8125 0.3125 0.95
1.875 0.3125 0.95
1.8125 0.375 0.95
1.875 0.3125 0.8875
1.9375 0.375 0.8875
1.9375 0.3125 0.8875
2 0.375 0.8875
1.9375 0.3125 0.95
2 0.3125 0.95
1.9375 0.375 0.95
2 0.3125 0.8875
2.0625 0.375 0.8875
2.0625 0.3125 0.8875
2.125 0.375 0.8875
2.0625 0.3125 0.95
2.125 0.3125 0.95
2.0625 0.375 0.95
2.125 0.3125 0.8875
2.1875 0.375 0.8875
2.1875 0.3125 0.8875
2.25 0.375 0.8875
2.1875 0.3125 0.95
2.25 0.3125 0.95
2.1875 0.375 0.95
2.25 0.3125 0.8875
2.3125 0.375 0.8875
2.3125 0.3125 0.8875
2.375 0.375 0.8875
2.3125 0.3125 0.95
2.375 0.3125 0.95
2.3125 0.375 0.95
2.375 0.3125 0.8875
2.4375 0.375 0.8875
2.4375 0.3125 0.8875
2.5 0.375 0.8875
2.4375 0.3125 0.95
2.5 0.3125 0.95
2.4375 0.375 0.95
2.5 0.3125 0.8875
2.5625 0.375 0.8875
2.5625 0.3125 0.8875
2.625 0.375 0.8875
2.5625 0.3125 0.95
2.625 0.3125 0.95
2.5625 0.375 0.95
2.625 0.3125 0.8875
2.6875 0.375 0.8875
2.6875 0.3125 0.8875
2.75 0.375 0.8875
2.6875 0.3125 0.95
2.75 0.3125 0.95
2.6875 0.375 0.95
2.75 0.3125 0.8875
2.8125 0.375 0.8875
2.8125 0.3125 0.8875
2.875 0.375 0.8875
2.8125 0.3125 0.95
2.875 0.3125 0.95
2.8125 0.375 0.95
2.875 0.3125 0.8875
2.9375 0.375 0.8875
2.9375 0.3125 0.8875
3 0.375 0.8875
2.9375 0.3125 0.95
3 0.3125 0.95
2.9375 0.375 0.95
3 0.3125 0.8875
3.0625 0.375 0.8875
3.0625 0.3125 0.8875
3.125 0.375 0.8875
3.0625 0.3125 0.95
3.125 0.3125 0.95
3.0625 0.375 0.95
3.125 0.3125 0.8875
3.1875 0.375 0.8875
3.1875 0.3125 0.8875
3.25 0.375 0.8875
3.1875 0.3125 0.95
3.25 0.3125 0.95
3.1875 0.375 0.95
3.25 0.3125 0.8875
3.3125 0.375 0.8875
3.3125 0.3125 0.8875
3.375 0.375 0.8875
3.3125 0.3125 0.95
3.375 0.3125 0.95
3.3125 0.375 0.95
3.375 0.3125 0.8875
3.4375 0.375 0.8875
3.4375 0.3125 0.8875
3.5 0.375 0.8875
3.4375 0.3125 0.95
3.5 0.3125 0.95
3.4375 0.375 0.95
3.5 0.3125 0.8875
3.5625 0.375 0.8875
3.5625 0.3125 0.8875
3.625 0.375 0.8875
3.5625 0.3125 0.95
3.625 0.3125 0.95
3.5625 0.375 0.95
3.625 0.3125 0.8875
3.6875 0.375 0.8875
3.6875 0.3125 0.8875
3.75 0.375 0.8875
3.6875 0.3125 0.95
3.75 0.3125 0.95
3.6875 0.375 0.95
3.75 0.3125 0.8875
3.8125 0.375 0.8875
3.8125 0.3125 0.8875
3.875 0.375 0.8875
3.8125 0.3125 0.95
3.875 0.3125 0.95
3.8125 0.375 0.95
3.875 0.3125 0.8875
3.9375 0.375 0.8875
3.9375 0.3125 0.8875
4 0.375 0.8875
3.9375 0.3125 0.95
4 0.3125 0.95
3.9375 0.375 0.95
4 0.3125 0.8875
0.0625 0.5 0.8875
0.0625 0.4375 0.8875
0.125 0.5 0.8875
0.0625 0.4375 0.95
0.125 0.4375 0.95
0 0.5 0.8875
0 0.4375 0.8875
0.0625 0.5 0.95
0 0.4375 0.95
0.125 0.4375 0.8875
0.1875 0.5 0.8875
0.1875 0.4375 0.8875
0.25 0.5 0.8875
0.1875 0.4375 0.95
0.25 0.4375 0.95
0.1875 0.5 0.95
0.25 0.4375 0.8875
0.3125 0.5 0.8875
0.3125 0.4375 0.8875
0.375 0.5 0.8875
0.3125 0.4375 0.95
0.375 0.4375 0.95
0.3125 0.5 0.95
0.375 0.4375 0.8875
0.4375 0.5 0.8875
0.4375 0.4375 0.8875
0.5 0.5 0.8875
0.4375 0.4375 0.95
0.5 0.4375 0.95
0.4375 0.5 0.95
0.5 0.4375 0.8875
0.5625 0.5 0.8875
0.5625 0.4375 0.8875
0.625 0.5 0.8875
0.5625 0.4375 0.95
0.625 0.4375 0.95
0.5625 0.5 0.95
0.625 0.4375 0.8875
0.6875 0.5 0.8875
0.6875 0.4375 0.8875
0.75 0.5 0.8875
0.6875 0.4375 0.95
0.75 0.4375 0.95
0.6875 0.5 0.95
0.75 0.4375 0.8875
0.8125 0.5 0.8875
0.8125 0.4375 0.8875
0.875 0.5 0.8875
0.8125 0.4375 0.95
0.875 0.4375 0.95
0.8125 0.5 0.95
0.875 0.4375 0.8875
0.9375 0.5 0.8875
0.9375 0.4375 0.8875
1 0.5 0.8875
0.9375 0.4375 0.95
1 0.4375 0.95
0.9375 0.5 0.95
1 0.4375 0.8875
1.0625 0.5 0.8875
1.0625 0.4375 0.8875
1.125 0.5 0.8875
1.0625 0.4375 0.95
1.125 0.4375 0.95
1.0625 0.5 0.95
1.125 0.4375 0.8875
1.1875 0.5 0.8875
1.1875 0.4375 0.8875
1.25 0.5 0.8875
1.1875 0.4375 0.95
1.25 0.4375 0.95
1.1875 0.5 0.95
1.25 0.4375 0.8875
1.3125 0.5 0.8875
1.3125 0.4375 0.8875
1.375 0.5 0.8875
1.3125 0.4375 0.95
1.375 0.4375 0.95
1.3125 0.5 0.95
1.375 0.4375 0.8875
1.4375 0.5 0.8875
1.4375 0.4375 0.8875
1.5 0.5 0.8875
1.4375 0.4375 0.95
1.5 0.4375 0.95
1.4375 0.5 0.95
1.5 0.4375 0.8875
1.5625 0.5 0.8875
1.5625 0.4375 0.8875
1.625 0.5 0.8875
1.5625 0.4375 0.95
1.625 0.4375 0.95
1.5625 0.5 0.95
1.625 0.4375 0.8875
1.6875 0.5 0.8875
1.6875 0.4375 0.8875
1.75 0.5 0.8875
1.6875 0.4375 0.95
1.75 0.4375 0.95
1.6875 0.5 0.95
1.75 0.4375 0.8875
1.8125 0.5 0.8875
1.8125 0.4375 0.8875
1.875 0.5 0.8875
1.8125 0.4375 0.95
1.875 0.4375 0.95
1.8125 0.5 0.95
1.875 0.4375 0.8875
1.9375 0.5 0.8875
1.9375 0.4375 0.8875
2 0.5 0.8875
1.9375 0.4375 0.95
2 0.4375 0.95
1.9375 0.5 0.95
2 0.4375 0.8875
2.0625 0.5 0.8875
2.0625 0.4375 0.8875
2.125 0.5 0.8875
2.0625 0.4375 0.95
2.125 0.4375 0.95
2.0625 0.5 0.95
2.125 0.4375 0.8875
2.1875 0.5 0.8875
2.1875 0.4375 0.8875
2.25 0.5 0.8875
2.1875 0.4375 0.95
2.25 0.4375 0.95
2.1875 0.5 0.95
2.25 0.4375 0.8875
2.3125 0.5 0.8875
2.3125 0.4375 0.8875
2.375 0.5 0.8875
2.3125 0.4375 0.95
2.375 0.4375 0.95
2.3125 0.5 0.95
2.375 0.4375 0.8875
2.4375 0.5 0.8875
2.4375 0.4375 0.8875
2.5 0.5 0.8875
2.4375 0.4375 0.95
2.5 0.4375 0.95
2.4375 0.5 0.95
2.5 0.4375 0.8875
2.5625 0.5 0.8875
2.5625 0.4375 0.8875
2.625 0.5 0.8875
2.5625 0.4375 0.95
2.625 0.4375 0.95
2.5625 0.5 0.95
2.625 0.4375 0.8875
2.6875 0.5 0.8875
2.6875 0.4375 0.8875
2.75 0.5 0.8875
2.6875 0.4375 0.95
2.75 0.4375 0.95
2.6875 0.5 0.95
2.75 0.4375 0.8875
2.8125 0.5 0.8875
2.8125 0.4375 0.8875
2.875 0.5 0.8875
2.8125 0.4375 0.95
2.875 0.4375 0.95
2.8125 0.5 0.95
2.875 0.4375 0.8875
2.9375 0.5 0.8875
2.9375 0.4375 0.8875
3 0.5 0.8875
2.9375 0.4375 0.95
3 0.4375 0.95
2.9375 0.5 0.95
3 0.4375 0.8875
3.0625 0.5 0.8875
3.0625 0.4375 0.8875
3.125 0.5 0.8875
3.0625 0.4375 0.95
3.125 0.4375 0.95
3.0625 0.5 0.95
3.125 0.4375 0.8875
3.1875 0.5 0.8875
3.1875 0.4375 0.8875
3.25 0.5 0.8875
3.1875 0.4375 0.95
3.25 0.4375 0.95
3.1875 0.5 0.95
3.25 0.4375 0.8875
3.3125 0.5 0.8875
3.3125 0.4375 0.8875
3.375 0.5 0.8875
3.3125 0.4375 0.95
3.375 0.4375 0.95
3.3125 0.5 0.95
3.375 0.4375 0.8875
3.4375 0.5 0.8875
3.4375 0.4375 0.8875
3.5 0.5 0.8875
3.4375 0.4375 0.95
3.5 0.4375 0.95
3.4375 0.5 0.95
3.5 0.4375 0.8875
3.5625 0.5 0.8875
3.5625 0.4375 0.8875
3.625 0.5 0.8875
3.5625 0.4375 0.95
3.625 0.4375 0.95
3.5625 0.5 0.95
3.625 0.4375 0.8875
3.6875 0.5 0.8875
3.6875 0.4375 0.8875
3.75 0.5 0.8875
3.6875 0.4375 0.95
3.75 0.4375 0.95
3.6875 0.5 0.95
3.75 0.4375 0.8875
3.8125 0.5 0.8875
3.8125 0.4375 0.8875
3.875 0.5 0.8875
3.8125 0.4375 0.95
3.875 0.4375 0.95
3.8125 0.5 0.95
3.875 0.4375 0.8875
3.9375 0.5 0.8875
3.9375 0.4375 0.8875
4 0.5 0.8875
3.9375 0.4375 0.95
4 0.4375 0.95
3.9375 0.5 0.95
4 0.4375 0.8875
0.0625 0.625 0.8875
0.0625 0.5625 0.8875
0.125 0.625 0.8875
0.0625 0.5625 0.95
0.125 0.5625 0.95
0 0.625 0.8875
0 0.5625 0.8875
0.0625 0.625 0.95
0 0.5625 0.95
0.125 0.5625 0.8875
0.1875 0.625 0.8875
0.1875 0.5625 0.8875
0.25 0.625 0.8875
0.1875 0.5625 0.95
0.25 0.5625 0.95
0.1875 0.625 0.95
0.25 0.5625 0.8875
0.3125 0.625 0.8875
0.3125 0.5625 0.8875
0.375 0.625 0.8875
0.3125 0.5625 0.95
0.375 0.5625 0.95
0.3125 0.625 0.95
0.375 0.5625 0.8875
0.4375 0.625 0.8875
0.4375 0.5625 0.8875
0.5 0.625 0.8875
0.4375 0.5625 0.95
0.5 0.5625 0.95
0.4375 0.625 0.95
0.5 0.5625 0.8875
0.5625 0.625 0.8875
0.5625 0.5625 0.8875
0.625 0.625 0.8875
0.5625 0.5625 0.95
0.625 0.5625 0.95
0.5625 0.625 0.95
0.625 0.5625 0.8875
0.6875 0.625 0.8875
0.6875 0.5625 0.8875
0.75 0.625 0.8875
0.6875 0.5625 0.95
0.75 0.5625 0.95
0.6875 0.625 0.95
0.75 0.5625 0.8875
0.8125 0.625 0.8875
0.8125 0.5625 0.8875
0.875 0.625 0.8875
0.8125 0.5625 0.95
0.875 0.5625 0.95
0.8125 0.625 0.95
0.875 0.5625 0.8875
0.9375 0.625 0.8875
0.9375 0.5625 0.8875
1 0.625 0.8875
0.9375 0.5625 0.95
1 0.5625 0.95
0.9375 0.625 0.95
1 0.5625 0.8875
1.0625 0.625 0.8875
1.0625 0.5625 0.8875
1.125 0.625 0.8875
1.0625 0.5625 0.95
1.125 0.5625 0.95
1.0625 0.625 0.95
1.125 0.5625 0.8875
1.1875 0.625 0.8875
1.1875 0.5625 0.8875
1.25 0.625 0.8875
1.1875 0.5625 0.95
1.25 0.5625 0.95
1.1875 0.625 0.95
1.25 0.5625 0.8875
1.3125 0.625 0.8875
1.3125 0.5625 0.8875
1.375 0.625 0.8875
1.3125 0.5625 0.95
1.375 0.5625 0.95
1.3125 0.625 0.95
1.375 0.5625 0.8875
1.4375 0.625 0.8875
1.4375 0.5625 0.8875
1.5 0.625 0.8875
1.4375 0.5625 0.95
1.5 0.5625 0.95
1.4375 0.625 0.95
1.5 0.5625 0.8875
1.5625 0.625 0.8875
1.5625 0.5625 0.8875
1.625 0.625 0.8875
1.5625 0.5625 0.95
1.625 0.5625 0.95
1.5625 0.625 0.95
1.625 0.5625 0.8875
1.6875 0.625 0.8875
1.6875 0.5625 0.8875
1.75 0.625 0.8875
1.6875 0.5625 0.95
1.75 0.5625 0.95
1.6875 0.625 0.95
1.75 0.5625 0.8875
1.8125 0.625 0.8875
1.8125 0.5625 0.8875
1.875 0.625 0.8875
1.8125 0.5625 0.95
1.875 0.5625 0.95
1.8125 0.625 0.95
1.875 0.5625 0.8875
1.9375 0.625 0.8875
1.9375 0.5625 0.8875
2 0.625 0.8875
1.9375 0.5625 0.95
2 0.5625 0.95
1.9375 0.625 0.95
2 0.5625 0.8875
2.0625 0.625 0.8875
2.0625 0.5625 0.8875
2.125 0.625 0.8875
2.0625 0.5625 0.95
2.125 0.5625 0.95
2.0625 0.625 0.95
2.125 0.5625 0.8875
2.1875 0.625 0.8875
2.1875 0.5625 0.8875
2.25 0.625 0.8875
2.1875 0.5625 0.95
2.25 0.5625 0.95
2.1875 0.625 0.95
2.25 0.5625 0.8875
2.3125 0.625 0.8875
2.3125 0.5625 0.8875
2.375 0.625 0.8875
2.3125 0.5625 0.95
2.375 0.5625 0.95
2.3125 0.625 0.95
2.375 0.5625 0.8875
2.4375 0.625 0.8875
2.4375 0.5625 0.8875
2.5 0.625 0.8875
2.4375 0.5625 0.95
2.5 0.5625 0.95
2.4375 0.625 0.95
2.5 0.5625 0.8875
2.5625 0.625 0.8875
2.5625 0.5625 0.8875
2.625 0.625 0.8875
2.5625 0.5625 0.95
2.625 0.5625 0.95
2.5625 0.625 0.95
2.625 0.5625 0.8875
2.6875 0.625 0.8875
2.6875 0.5625 0.8875
2.75 0.625 0.8875
2.6875 0.5625 0.95
2.75 0.5625 0.95
2.6875 0.625 0.95
2.75 0.5625 0.8875
2.8125 0.625 0.8875
2.8125 0.5625 0.8875
2.875 0.625 0.8875
2.8125 0.5625 0.95
2.875 0.5625 0.95
2.8125 0.625 0.95
2.875 0.5625 0.8875
2.9375 0.625 0.8875
2.9375 0.5625 0.8875
3 0.625 0.8875
2.9375 0.5625 0.95
3 0.5625 0.95
2.9375 0.625 0.95
3 0.5625 0.8875
3.0625 0.625 0.8875
3.0625 0.5625 0.8875
3.125 0.625 0.8875
3.0625 0.5625 0.95
3.125 0.5625 0.95
3.0625 0.625 0.95
3.125 0.5625 0.8875
3.1875 0.625 0.8875
3.1875 0.5625 0.8875
3.25 0.625 0.8875
3.1875 0.5625 0.95
3.25 0.5625 0.95
3.1875 0.625 0.95
3.25 0.5625 0.8875
3.3125 0.625 0.8875
3.3125 0.5625 0.8875
3.375 0.625 0.8875
3.3125 0.5625 0.95
3.375 0.5625 0.95
3.3125 0.625 0.95
3.375 0.5625 0.8875
3.4375 0.625 0.8875
3.4375 0.5625 0.8875
3.5 0.625 0.8875
3.4375 0.5625 0.95
3.5 0.5625 0.95
3.4375 0.625 0.95
3.5 0.5625 0.8875
3.5625 0.625 0.8875
3.5625 0.5625 0.8875
3.625 0.625 0.8875
3.5625 0.5625 0.95
3.625 0.5625 0.95
3.5625 0.625 0.95
3.625 0.5625 0.8875
3.6875 0.625 0.8875
3.6875 0.5625 0.8875
3.75 0.625 0.8875
3.6875 0.5625 0.95
3.75 0.5625 0.95
3.6875 0.625 0.95
3.75 0.5625 0.8875
3.8125 0.625 0.8875
3.8125 0.5625 0.8875
3.875 0.625 0.8875
3.8125 0.5625 0.95
3.875 0.5625 0.95
3.8125 0.625 0.95
3.875 0.5625 0.8875
3.9375 0.625 0.8875
3.9375 0.5625 0.8875
4 0.625 0.8875
3.9375 0.5625 0.95
4 0.5625 0.95
3.9375 0.625 0.95
4 0.5625 0.8875
0.0625 0.75 0.8875
0.0625 0.6875 0.8875
0.125 0.75 0.8875
0.0625 0.6875 0.95
0.125 0.6875 0.95
0 0.75 0.8875
0 0.6875 0.8875
0.0625 0.75 0.95
0 0.6875 0.95
0.125 0.6875 0.8875
0.1875 0.75 0.8875
0.1875 0.6875 0.8875
0.25 0.75 0.8875
0.1875 0.6875 0.95
0.25 0.6875 0.95
0.1875 0.75 0.95
0.25 0.6875 0.8875
0.3125 0.75 0.8875
0.3125 0.6875 0.8875
0.375 0.75 0.8875
0.3125 0.6875 0.95
0.375 0.6875 0.95
0.3125 0.75 0.95
0.375 0.6875 0.8875
0.4375 0.75 0.8875
0.4375 0.6875 0.8875
0.5 0.75 0.8875
0.4375 0.6875 0.95
0.5 0.6875 0.95
0.4375 0.75 0.95
0.5 0.6875 0.8875
0.5625 0.75 0.8875
0.5625 0.6875 0.8875
0.625 0.75 0.8875
0.5625 0.6875 0.95
0.625 0.6875 0.95
0.5625 0.75 0.95
0.625 0.6875 0.8875
0.6875 0.75 0.8875
0.6875 0.6875 0.8875
0.75 0.75 0.8875
0.6875 0.6875 0.95
0.75 0.6875 0.95
0.6875 0.75 0.95
0.75 0.6875 0.8875
0.8125 0.75 0.8875
0.8125 0.6875 0.8875
0.875 0.75 0.8875
0.8125 0.6875 0.95
0.875 0.6875 0.95
0.8125 0.75 0.95
0.875 0.6875 0.8875
0.9375 0.75 0.8875
0.9375 0.6875 0.8875
1 0.75 0.8875
0.9375 0.6875 0.95
1 0.6875 0.95
0.9375 0.75 0.95
1 0.6875 0.8875
1.0625 0.75 0.8875
1.0625 0.6875 0.8875
1.125 0.75 0.8875
1.0625 0.6875 0.95
1.125 0.6875 0.95
1.0625 0.75 0.95
1.125 0.6875 0.8875
1.1875 0.75 0.8875
1.1875 0.6875 0.8875
1.25 0.75 0.8875
1.1875 0.6875 0.95
1.25 0.6875 0.95
1.1875 0.75 0.95
1.25 0.6875 0.8875
1.3125 0.75 0.8875
1.3125 0.6875 0.8875
1.375 0.75 0.8875
1.3125 0.6875 0.95
1.375 0.6875 0.95
1.3125 0.75 0.95
1.375 0.6875 0.8875
1.4375 0.75 0.8875
1.4375 0.6875 0.8875
1.5 0.75 0.8875
1.4375 0.6875 0.95
1.5 0.6875 0.95
1.4375 0.75 0.95
1.5 0.6875 0.8875
1.5625 0.75 0.8875
1.5625 0.6875 0.8875
1.625 0.75 0.8875
1.5625 0.6875 0.95
1.625 0.6875 0.95
1.5625 0.75 0.95
1.625 0.6875 0.8875
1.6875 0.75 0.8875
1.6875 0.6875 0.8875
1.75 0.75 0.8875
1.6875 0.6875 0.95
1.75 0.6875 0.95
1.6875 0.75 0.95
1.75 0.6875 0.8875
1.8125 0.75 0.8875
1.8125 0.6875 0.8875
1.875 0.75 0.8875
1.8125 0.6875 0.95
1.875 0.6875 0.95
1.8125 0.75 0.95
1.875 0.6875 0.8875
1.9375 0.75 0.8875
1.9375 0.6875 0.8875
2 0.75 0.8875
1.9375 0.6875 0.95
2 0.6875 0.95
1.9375 0.75 0.95
2 0.6875 0.8875
2.0625 0.75 0.8875
2.0625 0.6875 0.8875
2.125 0.75 0.8875
2.0625 0.6875 0.95
2.125 0.6875 0.95
2.0625 0.75 0.95
2.125 0.6875 0.8875
2.1875 0.75 0.8875
2.1875 0.6875 0.8875
2.25 0.75 0.8875
2.1875 0.6875 0.95
2.25 0.6875 0.95
2.1875 0.75 0.95
2.25 0.6875 0.8875
2.3125 0.75 0.8875
2.3125 0.6875 0.8875
2.375 0.75 0.8875
2.3125 0.6875 0.95
2.375 0.6875 0.95
2.3125 0.75 0.95
2.375 0.6875 0.8875
2.4375 0.75 0.8875
2.4375 0.6875 0.8875
2.5 0.75 0.8875
2.4375 0.6875 0.95
2.5 0.6875 0.95
2.4375 0.75 0.95
2.5 0.6875 0.8875
2.5625 0.75 0.8875
2.5625 0.6875 0.8875
2.625 0.75 0.8875
2.5625 0.6875 0.95
2.625 0.6875 0.95
2.5625 0.75 0.95
2.625 0.6875 0.8875
2.6875 0.75 0.8875
2.6875 0.6875 0.8875
2.75 0.75 0.8875
2.6875 0.6875 0.95
2.75 0.6875 0.95
2.6875 0.75 0.95
2.75 0.6875 0.8875
2.8125 0.75 0.8875
2.8125 0.6875 0.8875
2.875 0.75 0.8875
2.8125 0.6875 0.95
2.875 0.6875 0.95
2.8125 0.75 0.95
2.875 0.6875 0.8875
2.9375 0.75 0.8875
2.9375 0.6875 0.8875
3 0.75 0.8875
2.9375 0.6875 0.95
3 0.6875 0.95
2.9375 0.75 0.95
3 0.6875 0.8875
3.0625 0.75 0.8875
3.0625 0.6875 0.8875
3.125 0.75 0.8875
3.0625 0.6875 0.95
3.125 0.6875 0.95
3.0625 0.75 0.95
3.125 0.6875 0.8875
3.1875 0.75 0.8875
3.1875 0.6875 0.8875
3.25 0.75 0.8875
3.1875 0.6875 0.95
3.25 0.6875 0.95
3.1875 0.75 0.95
3.25 0.6875 0.8875
3.3125 0.75 0.8875
3.3125 0.6875 0.8875
3.375 0.75 0.8875
3.3125 0.6875 0.95
3.375 0.6875 0.95
3.3125 0.75 0.95
3.375 0.6875 0.8875
3.4375 0.75 0.8875
3.4375 0.6875 0.8875
3.5 0.75 0.8875
3.4375 0.6875 0.95
3.5 0.6875 0.95
3.4375 0.75 0.95
3.5 0.6875 0.8875
3.5625 0.75 0.8875
3.5625 0.6875 0.8875
3.625 0.75 0.8875
3.5625 0.6875 0.95
3.625 0.6875 0.95
3.5625 0.75 0.95
3.625 0.6875 0.8875
3.6875 0.75 0.8875
3.6875 0.6875 0.8875
3.75 0.75 0.8875
3.6875 0.6875 0.95
3.75 0.6875 0.95
3.6875 0.75 0.95
3.75 0.6875 0.8875
3.8125 0.75 0.8875
3.8125 0.6875 0.8875
3.875 0.75 0.8875
3.8125 0.6875 0.95
3.875 0.6875 0.95
3.8125 0.75 0.95
3.875 0.6875 0.8875
3.9375 0.75 0.8875
3.9375 0.6875 0.8875
4 0.75 0.8875
3.9375 0.6875 0.95
4 0.6875 0.95
3.9375 0.75 0.95
4 0.6875 0.8875
0.0625 0.875 0.8875
0.0625 0.8125 0.8875
0.125 0.875 0.8875
0.0625 0.8125 0.95
0.125 0.8125 0.95
0 0.875 0.8875
0 0.8125 0.8875
0.0625 0.875 0.95
0 0.8125 0.95
0.125 0.8125 0.8875
0.1875 0.875 0.8875
0.1875 0.8125 0.8875
0.25 0.875 0.8875
0.1875 0.8125 0.95
0.25 0.8125 0.95
0.1875 0.875 0.95
0.25 0.8125 0.8875
0.3125 0.875 0.8875
0.3125 0.8125 0.8875
0.375 0.875 0.8875
0.3125 0.8125 0.95
0.375 0.8125 0.95
0.3125 0.875 0.95
0.375 0.8125 0.8875
0.4375 0.875 0.8875
0.4375 0.8125 0.8875
0.5 0.875 0.8875
0.4375 0.8125 0.95
0.5 0.8125 0.95
0.4375 0.875 0.95
0.5 0.8125 0.8875
0.5625 0.875 0.8875
0.5625 0.8125 0.8875
0.625 0.875 0.8875
0.5625 0.8125 0.95
0.625 0.8125 0.95
0.5625 0.875 0.95
0.625 0.8125 0.8875
0.6875 0.875 0.8875
0.6875 0.8125 0.8875
0.75 0.875 0.8875
0.6875 0.8125 0.95
0.75 0.8125 0.95
0.6875 0.875 0.95
0.75 0.8125 0.8875
0.8125 0.875 0.8875
0.8125 0.8125 0.8875
0.875 0.875 0.8875
0.8125 0.8125 0.95
0.875 0.8125 0.95
0.8125 0.875 0.95
0.875 0.8125 0.8875
0.9375 0.875 0.8875
0.9375 0.8125 0.8875
1 0.875 0.8875
0.9375 0.8125 0.95
1 0.8125 0.95
0.9375 0.875 0.95
1 0.8125 0.8875
1.0625 0.875 0.8875
1.0625 0.8125 0.8875
1.125 0.875 0.8875
1.0625 0.8125 0.95
1.125 0.8125 0.95
1.0625 0.875 0.95
1.125 0.8125 0.8875
1.1875 0.875 0.8875
1.1875 0.8125 0.8875
1.25 0.875 0.8875
1.1875 0.8125 0.95
1.25 0.8125 0.95
1.1875 0.875 0.95
1.25 0.8125 0.8875
1.3125 0.875 0.8875
1.3125 0.8125 0.8875
1.375 0.875 0.8875
1.3125 0.8125 0.95
1.375 0.8125 0.95
1.3125 0.875 0.95
1.375 0.8125 0.8875
1.4375 0.875 0.8875
1.4375 0.8125 0.8875
1.5 0.875 0.8875
1.4375 0.8125 0.95
1.5 0.8125 0.95
1.4375 0.875 0.95
1.5 0.8125 0.8875
1.5625 0.875 0.8875
1.5625 0.8125 0.8875
1.625 0.875 0.8875
1.5625 0.8125 0.95
1.625 0.8125 0.95
1.5625 0.875 0.95
1.625 0.8125 0.8875
1.6875 0.875 0.8875
1.6875 0.8125 0.8875
1.75 0.875 0.8875
1.6875 0.8125 0.95
1.75 0.8125 0.95
1.6875 0.875 0.95
1.75 0.8125 0.8875
1.8125 0.875 0.8875
1.8125 0.8125 0.8875
1.875 0.875 0.8875
1.8125 0.8125 0.95
1.875 0.8125 0.95
1.8125 0.875 0.95
1.875 0.8125 0.8875
1.9375 0.875 0.8875
1.9375 0.8125 0.8875
2 0.875 0.8875
1.9375 0.8125 0.95
2 0.8125 0.95
1.9375 0.875 0.95
2 0.8125 0.8875
2.0625 0.875 0.8875
2.0625 0.8125 0.8875
2.125 0.875 0.8875
2.0625 0.8125 0.95
2.125 0.8125 0.95
2.0625 0.875 0.95
2.125 0.8125 0.8875
2.1875 0.875 0.8875
2.1875 0.8125 0.8875
2.25 0.875 0.8875
2.1875 0.8125 0.95
2.25 0.8125 0.95
2.1875 0.875 0.95
2.25 0.8125 0.8875
2.3125 0.875 0.8875
2.3125 0.8125 0.8875
2.375 0.875 0.8875
2.3125 0.8125 0.95
2.375 0.8125 0.95
2.3125 0.875 0.95
2.375 0.8125 0.8875
2.4375 0.875 0.8875
2.4375 0.8125 0.8875
2.5 0.875 0.8875
2.4375 0.8125 0.95
2.5 0.8125 0.95
2.4375 0.875 0.95
2.5 0.8125 0.8875
2.5625 0.875 0.8875
2.5625 0.8125 0.8875
2.625 0.875 0.8875
2.5625 0.8125 0.95
2.625 0.8125 0.95
2.5625 0.875 0.95
2.625 0.8125 0.8875
2.6875 0.875 0.8875
2.6875 0.8125 0.8875
2.75 0.875 0.8875
2.6875 0.8125 0.95
2.75 0.8125 0.95
2.6875 0.875 0.95
2.75 0.8125 0.8875
2.8125 0.875 0.8875
2.8125 0.8125 0.8875
2.875 0.875 0.8875
2.8125 0.8125 0.95
2.875 0.8125 0.95
2.8125 0.875 0.95
2.875 0.8125 0.8875
2.9375 0.875 0.8875
2.9375 0.8125 0.8875
3 0.875 0.8875
2.9375 0.8125 0.95
3 0.8125 0.95
2.9375 0.875 0.95
3 0.8125 0.8875
3.0625 0.875 0.8875
3.0625 0.8125 0.8875
3.125 0.875 0.8875
3.0625 0.8125 0.95
3.125 0.8125 0.95
3.0625 0.875 0.95
3.125 0.8125 0.8875
3.1875 0.875 0.8875
3.1875 0.8125 0.8875
3.25 0.875 0.8875
3.1875 0.8125 0.95
3.25 0.8125 0.95
3.1875 0.875 0.95
3.25 0.8125 0.8875
3.3125 0.875 0.8875
3.3125 0.8125 0.8875
3.375 0.875 0.8875
3.3125 0.8125 0.95
3.375 0.8125 0.95
3.3125 0.875 0.95
3.375 0.8125 0.8875
3.4375 0.875 0.8875
3.4375 0.8125 0.8875
3.5 0.875 0.8875
3.4375 0.8125 0.95
3.5 0.8125 0.95
3.4375 0.875 0.95
3.5 0.8125 0.8875
3.5625 0.875 0.8875
3.5625 0.8125 0.8875
3.625 0.875 0.8875
3.5625 0.8125 0.95
3.625 0.8125 0.95
3.5625 0.875 0.95
3.625 0.8125 0.8875
3.6875 0.875 0.8875
3.6875 0.8125 0.8875
3.75 0.875 0.8875
3.6875 0.8125 0.95
3.75 0.8125 0.95
3.6875 0.875 0.95
3.75 0.8125 0.8875
3.8125 0.875 0.8875
3.8125 0.8125 0.8875
3.875 0.875 0.8875
3.8125 0.8125 0.95
3.875 0.8125 0.95
3.8125 0.875 0.95
3.875 0.8125 0.8875
3.9375 0.875 0.8875
3.9375 0.8125 0.8875
4 0.875 0.8875
3.9375 0.8125 0.95
4 0.8125 0.95
3.9375 0.875 0.95
4 0.8125 0.8875
0.0625 1 0.8875
0.0625 0.9375 0.8875
0.125 1 0.8875
0.0625 0.9375 0.95
0.125 0.9375 0.95
0 1 0.8875
0 0.9375 0.8875
0.0625 1 0.95
0 0.9375 0.95
0.125 0.9375 0.8875
0.1875 1 0.8875
0.1875 0.9375 0.8875
0.25 1 0.8875
0.1875 0.9375 0.95
0.25 0.9375 0.95
0.1875 1 0.95
0.25 0.9375 0.8875
0.3125 1 0.8875
0.3125 0.9375 0.8875
0.375 1 0.8875
0.3125 0.9375 0.95
0.375 0.9375 0.95
0.3125 1 0.95
0.375 0.9375 0.8875
0.4375 1 0.8875
0.4375 0.9375 0.8875
0.5 1 0.8875
0.4375 0.9375 0.95
0.5 0.9375 0.95
0.4375 1 0.95
0.5 0.9375 0.8875
0.5625 1 0.8875
0.5625 0.9375 0.8875
0.625 1 0.8875
0.5625 0.9375 0.95
0.625 0.9375 0.95
0.5625 1 0.95
0.625 0.9375 0.8875
0.6875 1 0.8875
0.6875 0.9375 0.8875
0.75 1 0.8875
0.6875 0.9375 0.95
0.75 0.9375 0.95
0.6875 1 0.95
0.75 0.9375 0.8875
0.8125 1 0.8875
0.8125 0.9375 0.8875
0.875 1 0.8875
0.8125 0.9375 0.95
0.875 0.9375 0.95
0.8125 1 0.95
0.875 0.9375 0.8875
0.9375 1 0.8875
0.9375 0.9375 0.8875
1 1 0.8875
0.9375 0.9375 0.95
1 0.9375 0.95
0.9375 1 0.95
1 0.9375 0.8875
1.0625 1 0.8875
1.0625 0.9375 0.8875
1.125 1 0.8875
1.0625 0.9375 0.95
1.125 0.9375 0.95
1.0625 1 0.95
1.125 0.9375 0.8875
1.1875 1 0.8875
1.1875 0.9375 0.8875
1.25 1 0.8875
1.1875 0.9375 0.95
1.25 0.9375 0.95
1.1875 1 0.95
1.25 0.9375 0.8875
1.3125 1 0.8875
1.3125 0.9375 0.8875
1.375 1 0.8875
1.3125 0.9375 0.95
1.375 0.9375 0.95
1.3125 1 0.95
1.375 0.9375 0.8875
1.4375 1 0.8875
1.4375 0.9375 0.8875
1.5 1 0.8875
1.4375 0.9375 0.95
1.5 0.9375 0.95
1.4375 1 0.95
1.5 0.9375 0.8875
1.5625 1 0.8875
1.5625 0.9375 0.8875
1.625 1 0.8875
1.5625 0.9375 0.95
1.625 0.9375 0.95
1.5625 1 0.95
1.625 0.9375 0.8875
1.6875 1 0.8875
1.6875 0.9375 0.8875
1.75 1 0.8875
1.6875 0.9375 0.95
1.75 0.9375 0.95
1.6875 1 0.95
1.75 0.9375 0.8875
1.8125 1 0.8875
1.8125 0.9375 0.8875
1.875 1 0.8875
1.8125 0.9375 0.95
1.875 0.9375 0.95
1.8125 1 0.95
1.875 0.9375 0.8875
1.9375 1 0.8875
1.9375 0.9375 0.8875
2 1 0.8875
1.9375 0.9375 0.95
2 0.9375 0.95
1.9375 1 0.95
2 0.9375 0.8875
2.0625 1 0.8875
2.0625 0.9375 0.8875
2.125 1 0.8875
2.0625 0.9375 0.95
2.125 0.9375 0.95
2.0625 1 0.95
2.125 0.9375 0.8875
2.1875 1 0.8875
2.1875 0.9375 0.8875
2.25 1 0.8875
2.1875 0.9375 0.95
2.25 0.9375 0.95
2.1875 1 0.95
2.25 0.9375 0.8875
2.3125 1 0.8875
2.3125 0.9375 0.8875
2.375 1 0.8875
2.3125 0.9375 0.95
2.375 0.9375 0.95
2.3125 1 0.95
2.375 0.9375 0.8875
2.4375 1 0.8875
2.4375 0.9375 0.8875
2.5 1 0.8875
2.4375 0.9375 0.95
2.5 0.9375 0.95
2.4375 1 0.95
2.5 0.9375 0.8875
2.5625 1 0.8875
2.5625 0.9375 0.8875
2.625 1 0.8875
2.5625 0.9375 0.95
2.625 0.9375 0.95
2.5625 1 0.95
2.625 0.9375 0.8875
2.6875 1 0.8875
2.6875 0.9375 0.8875
2.75 1 0.8875
2.6875 0.9375 0.95
2.75 0.9375 0.95
2.6875 1 0.95
2.75 0.9375 0.8875
2.8125 1 0.8875
2.8125 0.9375 0.8875
2.875 1 0.8875
2.8125 0.9375 0.95
2.875 0.9375 0.95
2.8125 1 0.95
2.875 0.9375 0.8875
2.9375 1 0.8875
2.9375 0.9375 0.8875
3 1 0.8875
2.9375 0.9375 0.95
3 0.9375 0.95
2.9375 1 0.95
3 0.9375 0.8875
3.0625 1 0.8875
3.0625 0.9375 0.8875
3.125 1 0.8875
3.0625 0.9375 0.95
3.125 0.9375 0.95
3.0625 1 0.95
3.125 0.9375 0.8875
3.1875 1 0.8875
3.1875 0.9375 0.8875
3.25 1 0.8875
3.1875 0.9375 0.95
3.25 0.9375 0.95
3.1875 1 0.95
3.25 0.9375 0.8875
3.3125 1 0.8875
3.3125 0.9375 0.8875
3.375 1 0.8875
3.3125 0.9375 0.95
3.375 0.9375 0.95
3.3125 1 0.95
3.375 0.9375 0.8875
3.4375 1 0.8875
3.4375 0.9375 0.8875
3.5 1 0.8875
3.4375 0.9375 0.95
3.5 0.9375 0.95
3.4375 1 0.95
3.5 0.9375 0.8875
3.5625 1 0.8875
3.5625 0.9375 0.8875
3.625 1 0.8875
3.5625 0.9375 0.95
3.625 0.9375 0.95
3.5625 1 0.95
3.625 0.9375 0.8875
3.6875 1 0.8875
3.6875 0.9375 0.8875
3.75 1 0.8875
3.6875 0.9375 0.95
3.75 0.9375 0.95
3.6875 1 0.95
3.75 0.9375 0.8875
3.8125 1 0.8875
3.8125 0.9375 0.8875
3.875 1 0.8875
3.8125 0.9375 0.95
3.875 0.9375 0.95
3.8125 1 0.95
3.875 0.9375 0.8875
3.9375 1 0.8875
3.9375 0.9375 0.8875
4 1 0.8875
3.9375 0.9375 0.95
4 0.9375 0.95
3.9375 1 0.95
4 0.9375 0.8875
0.0625 0.125 1.0125
0.0625 0.0625 1.0125
0.125 0.125 1.0125
0.0625 0.0625 1.075
0.125 0.0625 1.075
0.0625 0 1.075
0 0 1.0125
0.0625 0 1.0125
0 0.125 1.0125
0 0.0625 1.0125
0.0625 0.125 1.075
0 0.0625 1.075
0.125 0 1.0125
0.125 0.0625 1.0125
0.1875 0.125 1.0125
0.1875 0.0625 1.0125
0.25 0.125 1.0125
0.1875 0.0625 1.075
0.25 0.0625 1.075
0.1875 0 1.075
0.1875 0 1.0125
0.1875 0.125 1.075
0.25 0 1.0125
0.25 0.0625 1.0125
0.3125 0.125 1.0125
0.3125 0.0625 1.0125
0.375 0.125 1.0125
0.3125 0.0625 1.075
0.375 0.0625 1.075
0.3125 0 1.075
0.3125 0 1.0125
0.3125 0.125 1.075
0.375 0 1.0125
0.375 0.0625 1.0125
0.4375 0.125 1.0125
0.4375 0.0625 1.0125
0.5 0.125 1.0125
0.4375 0.0625 1.075
0.5 0.0625 1.075
0.4375 0 1.075
0.4375 0 1.0125
0.4375 0.125 1.075
0.5 0 1.0125
0.5 0.0625 1.0125
0.5625 0.125 1.0125
0.5625 0.0625 1.0125
0.625 0.125 1.0125
0.5625 0.0625 1.075
0.625 0.0625 1.075
0.5625 0 1.075
0.5625 0 1.0125
0.5625 0.125 1.075
0.625 0 1.0125
0.625 0.0625 1.0125
0.6875 0.125 1.0125
0.6875 0.0625 1.0125
0.75 0.125 1.0125
0.6875 0.0625 1.075
0.75 0.0625 1.075
0.6875 0 1.075
0.6875 0 1.0125
0.6875 0.125 1.075
0.75 0 1.0125
0.75 0.0625 1.0125
0.8125 0.125 1.0125
0.8125 0.0625 1.0125
0.875 0.125 1.0125
0.8125 0.0625 1.075
0.875 0.0625 1.075
0.8125 0 1.075
0.8125 0 1.0125
0.8125 0.125 1.075
0.875 0 1.0125
0.875 0.0625 1.0125
0.9375 0.125 1.0125
0.9375 0.0625 1.0125
1 0.125 1.0125
0.9375 0.0625 1.075
1 0.0625 1.075
0.9375 0 1.075
0.9375 0 1.0125
0.9375 0.125 1.075
1 0 1.0125
1 0.0625 1.0125
1.0625 0.125 1.0125
1.0625 0.0625 1.0125
1.125 0.125 1.0125
1.0625 0.0625 1.075
1.125 0.0625 1.075
1.0625 0 1.075
1.0625 0 1.0125
1.0625 0.125 1.075
1.125 0 1.0125
1.125 0.0625 1.0125
1.1875 0.125 1.0125
1.1875 0.0625 1.0125
1.25 0.125 1.0125
1.1875 0.0625 1.075
1.25 0.0625 1.075
1.1875 0 1.075
1.1875 0 1.0125
1.1875 0.125 1.075
1.25 0 1.0125
1.25 0.0625 1.0125
1.3125 0.125 1.0125
1.3125 0.0625 1.0125
1.375 0.125 1.0125
1.3125 0.0625 1.075
1.375 0.0625 1.075
1.3125 0 1.075
1.3125 0 1.0125
1.3125 0.125 1.075
1.375 0 1.0125
1.375 0.0625 1.0125
1.4375 0.125 1.0125
1.4375 0.0625 1.0125
1.5 0.125 1.0125
1.4375 0.0625 1.075
1.5 0.0625 1.075
1.4375 0 1.075
1.4375 0 1.0125
1.4375 0.125 1.075
1.5 0 1.0125
1.5 0.0625 1.0125
1.5625 0.125 1.0125
1.5625 0.0625 1.0125
1.625 0.125 1.0125
1.5625 0.0625 1.075
1.625 0.0625 1.075
1.5625 0 1.075
1.5625 0 1.0125
1.5625 0.125 1.075
1.625 0 1.0125
1.625 0.0625 1.0125
1.6875 0.125 1.0125
1.6875 0.0625 1.0125
1.75 0.125 1.0125
1.6875 0.0625 1.075
1.75 0.0625 1.075
1.6875 0 1.075
1.6875 0 1.0125
1.6875 0.125 1.075
1.75 0 1.0125
1.75 0.0625 1.0125
1.8125 0.125 1.0125
1.8125 0.0625 1.0125
1.875 0.125 1.0125
1.8125 0.0625 1.075
1.875 0.0625 1.075
1.8125 0 1.075
1.8125 0 1.0125
1.8125 0.125 1.075
1.875 0 1.0125
1.875 0.0625 1.0125
1.9375 0.125 1.0125
1.9375 0.0625 1.0125
2 0.125 1.0125
1.9375 0.0625 1.075
2 0.0625 1.075
1.9375 0 1.075
1.9375 0 1.0125
1.9375 0.125 1.075
2 0 1.0125
2 0.0625 1.0125
2.0625 0.125 1.0125
2.0625 0.0625 1.0125
2.125 0.125 1.0125
2.0625 0.0625 1.075
2.125 0.0625 1.075
2.0625 0 1.075
2.0625 0 1.0125
2.0625 0.125 1.075
2.125 0 1.0125
2.125 0.0625 1.0125
2.1875 0.125 1.0125
2.1875 0.0625 1.0125
2.25 0.125 1.0125
2.1875 0.0625 1.075
2.25 0.0625 1.075
2.1875 0 1.075
2.1875 0 1.0125
2.1875 0.125 1.075
2.25 0 1.0125
2.25 0.0625 1.0125
2.3125 0.125 1.0125
2.3125 0.0625 1.0125
2.375 0.125 1.0125
2.3125 0.0625 1.075
2.375 0.0625 1.075
2.3125 0 1.075
2.3125 0 1.0125
2.3125 0.125 1.075
2.375 0 1.0125
2.375 0.0625 1.0125
2.4375 0.125 1.0125
2.4375 0.0625 1.0125
2.5 0.125 1.0125
2.4375 0.0625 1.075
2.5 0.0625 1.075
2.4375 0 1.075
2.4375 0 1.0125
2.4375 0.125 1.075
2.5 0 1.0125
2.5 0.0625 1.0125
2.5625 0.125 1.0125
2.5625 0.0625 1.0125
2.625 0.125 1.0125
2.5625 0.0625 1.075
2.625 0.0625 1.075
2.5625 0 1.075
2.5625 0 1.0125
2.5625 0.125 1.075
2.625 0 1.0125
2.625 0.0625 1.0125
2.6875 0.125 1.0125
2.6875 0.0625 1.0125
2.75 0.125 1.0125
2.6875 0.0625 1.075
2.75 0.0625 1.075
2.6875 0 1.075
2.6875 0 1.0125
2.6875 0.125 1.075
2.75 0 1.0125
2.75 0.0625 1.0125
2.8125 0.125 1.0125
2.8125 0.0625 1.0125
2.875 0.125 1.0125
2.8125 0.0625 1.075
2.875 0.0625 1.075
2.8125 0 1.075
2.8125 0 1.0125
2.8125 0.125 1.075
2.875 0 1.0125
2.875 0.0625 1.0125
2.9375 0.125 1.0125
2.9375 0.0625 1.0125
3 0.125 1.0125
2.9375 0.0625 1.075
3 0.0625 1.075
2.9375 0 1.075
2.9375 0 1.0125
2.9375 0.125 1.075
3 0 1.0125
3 0.0625 1.0125
3.0625 0.125 1.0125
3.0625 0.0625 1.0125
3.125 0.125 1.0125
3.0625 0.0625 1.075
3.125 0.0625 1.075
3.0625 0 1.075
3.0625 0 1.0125
3.0625 0.125 1.075
3.125 0 1.0125
3.125 0.0625 1.0125
3.1875 0.125 1.0125
3.1875 0.0625 1.0125
3.25 0.125 1.0125
3.1875 0.0625 1.075
3.25 0.0625 1.075
3.1875 0 1.075
3.1875 0 1.0125
3.1875 0.125 1.075
3.25 0 1.0125
3.25 0.0625 1.0125
3.3125 0.125 1.0125
3.3125 0.0625 1.0125
3.375 0.125 1.0125
3.3125 0.0625 1.075
3.375 0.0625 1.075
3.3125 0 1.075
3.3125 0 1.0125
3.3125 0.125 1.075
3.375 0 1.0125
3.375 0.0625 1.0125
3.4375 0.125 1.0125
3.4375 0.0625 1.0125
3.5 0.125 1.0125
3.4375 0.0625 1.075
3.5 0.0625 1.075
3.4375 0 1.075
3.4375 0 1.0125
3.4375 0.125 1.075
3.5 0 1.0125
3.5 0.0625 1.0125
3.5625 0.125 1.0125
3.5625 0.0625 1.0125
3.625 0.125 1.0125
3.5625 0.0625 1.075
3.625 0.0625 1.075
3.5625 0 1.075
3.5625 0 1.0125
3.5625 0.125 1.075
3.625 0 1.0125
3.625 0.0625 1.0125
3.6875 0.125 1.0125
3.6875 0.0625 1.0125
3.75 0.125 1.0125
3.6875 0.0625 1.075
3.75 0.0625 1.075
3.6875 0 1.075
3.6875 0 1.0125
3.6875 0.125 1.075
3.75 0 1.0125
3.75 0.0625 1.0125
3.8125 0.125 1.0125
3.8125 0.0625 1.0125
3.875 0.125 1.0125
3.8125 0.0625 1.075
3.875 0.0625 1.075
3.8125 0 1.075
3.8125 0 1.0125
3.8125 0.125 1.075
3.875 0 1.0125
3.875 0.0625 1.0125
3.9375 0.125 1.0125
3.9375 0.0625 1.0125
4 0.125 1.0125
3.9375 0.0625 1.075
4 0.0625 1.075
3.9375 0 1.075
3.9375 0 1.0125
3.9375 0.125 1.075
4 0 1.0125
4 0.0625 1.0125
0.0625 0.25 1.0125
0.0625 0.1875 1.0125
0.125 0.25 1.0125
0.0625 0.1875 1.075
0.125 0.1875 1.075
0 0.25 1.0125
0 0.1875 1.0125
0.0625 0.25 1.075
0 0.1875 1.075
0.125 0.1875 1.0125
0.1875 0.25 1.0125
0.1875 0.1875 1.0125
0.25 0.25 1.0125
0.1875 0.1875 1.075
0.25 0.1875 1.075
0.1875 0.25 1.075
0.25 0.1875 1.0125
0.3125 0.25 1.0125
0.3125 0.1875 1.0125
0.375 0.25 1.0125
0.3125 0.1875 1.075
0.375 0.1875 1.075
0.3125 0.25 1.075
0.375 0.1875 1.0125
0.4375 0.25 1.0125
0.4375 0.1875 1.0125
0.5 0.25 1.0125
0.4375 0.1875 1.075
0.5 0.1875 1.075
0.4375 0.25 1.075
0.5 0.1875 1.0125
0.5625 0.25 1.0125
0.5625 0.1875 1.0125
0.625 0.25 1.0125
0.5625 0.1875 1.075
0.625 0.1875 1.075
0.5625 0.25 1.075
0.625 0.1875 1.0125
0.6875 0.25 1.0125
0.6875 0.1875 1.0125
0.75 0.25 1.0125
0.6875 0.1875 1.075
0.75 0.1875 1.075
0.6875 0.25 1.075
0.75 0.1875 1.0125
0.8125 0.25 1.0125
0.8125 0.1875 1.0125
0.875 0.25 1.0125
0.8125 0.1875 1.075
0.875 0.1875 1.075
0.8125 0.25 1.075
0.875 0.1875 1.0125
0.9375 0.25 1.0125
0.9375 0.1875 1.0125
1 0.25 1.0125
0.9375 0.1875 1.075
1 0.1875 1.075
0.9375 0.25 1.075
1 0.1875 1.0125
1.0625 0.25 1.0125
1.0625 0.1875 1.0125
1.125 0.25 1.0125
1.0625 0.1875 1.075
1.125 0.1875 1.075
1.0625 0.25 1.075
1.125 0.1875 1.0125
1.1875 0.25 1.0125
1.1875 0.1875 1.0125
1.25 0.25 1.0125
1.1875 0.1875 1.075
1.25 0.1875 1.075
1.1875 0.25 1.075
1.25 0.1875 1.0125
1.3125 0.25 1.0125
1.3125 0.1875 1.0125
1.375 0.25 1.0125
1.3125 0.1875 1.075
1.375 0.1875 1.075
1.3125 0.25 1.075
1.375 0.1875 1.0125
1.4375 0.25 1.0125
1.4375 0.1875 1.0125
1.5 0.25 1.0125
1.4375 0.1875 1.075
1.5 0.1875 1.075
1.4375 0.25 1.075
1.5 0.1875 1.0125
1.5625 0.25 1.0125
1.5625 0.1875 1.0125
1.625 0.25 1.0125
1.5625 0.1875 1.075
1.625 0.1875 1.075
1.5625 0.25 1.075
1.625 0.1875 1.0125
1.6875 0.25 1.0125
1.6875 0.1875 1.0125
1.75 0.25 1.0125
1.6875 0.1875 1.075
1.75 0.1875 1.075
1.6875 0.25 1.075
1.75 0.1875 1.0125
1.8125 0.25 1.0125
1.8125 0.1875 1.0125
1.875 0.25 1.0125
1.8125 0.1875 1.075
1.875 0.1875 1.075
1.8125 0.25 1.075
1.875 0.1875 1.0125
1.9375 0.25 1.0125
1.9375 0.1875 1.0125
2 0.25 1.0125
1.9375 0.1875 1.075
2 0.1875 1.075
1.9375 0.25 1.075
2 0.1875 1.0125
2.0625 0.25 1.0125
2.0625 0.1875 1.0125
2.125 0.25 1.0125
2.0625 0.1875 1.075
2.125 0.1875 1.075
2.0625 0.25 1.075
2.125 0.1875 1.0125
2.1875 0.25 1.0125
2.1875 0.1875 1.0125
2.25 0.25 1.0125
2.1875 0.1875 1.075
2.25 0.1875 1.075
2.1875 0.25 1.075
2.25 0.1875 1.0125
2.3125 0.25 1.0125
2.3125 0.1875 1.0125
2.375 0.25 1.0125
2.3125 0.1875 1.075
2.375 0.1875 1.075
2.3125 0.25 1.075
2.375 0.1875 1.0125
2.4375 0.25 1.0125
2.4375 0.1875 1.0125
2.5 0.25 1.0125
2.4375 0.1875 1.075
2.5 0.1875 1.075
2.4375 0.25 1.075
2.5 0.1875 1.0125
2.5625 0.25 1.0125
2.5625 0.1875 1.0125
2.625 0.25 1.0125
2.5625 0.1875 1.075
2.625 0.1875 1.075
2.5625 0.25 1.075
2.625 0.1875 1.0125
2.6875 0.25 1.0125
2.6875 0.1875 1.0125
2.75 0.25 1.0125
2.6875 0.1875 1.075
2.75 0.1875 1.075
2.6875 0.25 1.075
2.75 0.1875 1.0125
2.8125 0.25 1.0125
2.8125 0.1875 1.0125
2.875 0.25 1.0125
2.8125 0.1875 1.075
2.875 0.1875 1.075
2.8125 0.25 1.075
2.875 0.1875 1.0125
2.9375 0.25 1.0125
2.9375 0.1875 1.0125
3 0.25 1.0125
2.9375 0.1875 1.075
3 0.1875 1.075
2.9375 0.25 1.075
3 0.1875 1.0125
3.0625 0.25 1.0125
3.0625 0.1875 1.0125
3.125 0.25 1.0125
3.0625 0.1875 1.075
3.125 0.1875 1.075
3.0625 0.25 1.075
3.125 0.1875 1.0125
3.1875 0.25 1.0125
3.1875 0.1875 1.0125
3.25 0.25 1.0125
3.1875 0.1875 1.075
3.25 0.1875 1.075
3.1875 0.25 1.075
3.25 0.1875 1.0125
3.3125 0.25 1.0125
3.3125 0.1875 1.0125
3.375 0.25 1.0125
3.3125 0.1875 1.075
3.375 0.1875 1.075
3.3125 0.25 1.075
3.375 0.1875 1.0125
3.4375 0.25 1.0125
3.4375 0.1875 1.0125
3.5 0.25 1.0125
3.4375 0.1875 1.075
3.5 0.1875 1.075
3.4375 0.25 1.075
3.5 0.1875 1.0125
3.5625 0.25 1.0125
3.5625 0.1875 1.0125
3.625 0.25 1.0125
3.5625 0.1875 1.075
3.625 0.1875 1.075
3.5625 0.25 1.075
3.625 0.1875 1.0125
3.6875 0.25 1.0125
3.6875 0.1875 1.0125
3.75 0.25 1.0125
3.6875 0.1875 1.075
3.75 0.1875 1.075
3.6875 0.25 1.075
3.75 0.1875 1.0125
3.8125 0.25 1.0125
3.8125 0.1875 1.0125
3.875 0.25 1.0125
3.8125 0.1875 1.075
3.875 0.1875 1.075
3.8125 0.25 1.075
3.875 0.1875 1.0125
3.9375 0.25 1.0125
3.9375 0.1875 1.0125
4 0.25 1.0125
3.9375 0.1875 1.075
4 0.1875 1.075
3.9375 0.25 1.075
4 0.1875 1.0125
0.0625 0.375 1.0125
0.0625 0.3125 1.0125
0.125 0.375 1.0125
0.0625 0.3125 1.075
0.125 0.3125 1.075
0 0.375 1.0125
0 0.3125 1.0125
0.0625 0.375 1.075
0 0.3125 1.075
0.125 0.3125 1.0125
0.1875 0.375 1.0125
0.1875 0.3125 1.0125
0.25 0.375 1.0125
0.1875 0.3125 1.075
0.25 0.3125 1.075
0.1875 0.375 1.075
0.25 0.3125 1.0125
0.3125 0.375 1.0125
0.3125 0.3125 1.0125
0.375 0.375 1.0125
0.3125 0.3125 1.075
0.375 0.3125 1.075
0.3125 0.375 1.075
0.375 0.3125 1.0125
0.4375 0.375 1.0125
0.4375 0.3125 1.0125
0.5 0.375 1.0125
0.4375 0.3125 1.075
0.5 0.3125 1.075
0.4375 0.375 1.075
0.5 0.3125 1.0125
0.5625 0.375 1.0125
0.5625 0.3125 1.0125
0.625 0.375 1.0125
0.5625 0.3125 1.075
0.625 0.3125 1.075
0.5625 0.375 1.075
0.625 0.3125 1.0125
0.6875 0.375 1.0125
0.6875 0.3125 1.0125
0.75 0.375 1.0125
0.6875 0.3125 1.075
0.75 0.3125 1.075
0.6875 0.375 1.075
0.75 0.3125 1.0125
0.8125 0.375 1.0125
0.8125 0.3125 1.0125
0.875 0.375 1.0125
0.8125 0.3125 1.075
0.875 0.3125 1.075
0.8125 0.375 1.075
0.875 0.3125 1.0125
0.9375 0.375 1.0125
0.9375 0.3125 1.0125
1 0.375 1.0125
0.9375 0.3125 1.075
1 0.3125 1.075
0.9375 0.375 1.075
1 0.3125 1.0125
1.0625 0.375 1.0125
1.0625 0.3125 1.0125
1.125 0.375 1.0125
1.0625 0.3125 1.075
1.125 0.3125 1.075
1.0625 0.375 1.075
1.125 0.3125 1.0125
1.1875 0.375 1.0125
1.1875 0.3125 1.0125
1.25 0.375 1.0125
1.1875 0.3125 1.075
1.25 0.3125 1.075
1.1875 0.375 1.075
1.25 0.3125 1.0125
1.3125 0.375 1.0125
1.3125 0.3125 1.0125
1.375 0.375 1.0125
1.3125 0.3125 1.075
1.375 0.3125 1.075
1.3125 0.375 1.075
1.375 0.3125 1.0125
1.4375 0.375 1.0125
1.4375 0.3125 1.0125
1.5 0.375 1.0125
1.4375 0.3125 1.075
1.5 0.3125 1.075
1.4375 0.375 1.075
1.5 0.3125 1.0125
1.5625 0.375 1.0125
1.5625 0.3125 1.0125
1.625 0.375 1.0125
1.5625 0.3125 1.075
1.625 0.3125 1.075
1.5625 0.375 1.075
1.625 0.3125 1.0125
1.6875 0.375 1.0125
1.6875 0.3125 1.0125
1.75 0.375 1.0125
1.6875 0.3125 1.075
1.75 0.3125 1.075
1.6875 0.375 1.075
1.75 0.3125 1.0125
1.8125 0.375 1.0125
1.8125 0.3125 1.0125
1.875 0.375 1.0125
1.8125 0.3125 1.075
1.875 0.3125 1.075
1.8125 0.375 1.075
1.875 0.3125 1.0125
1.9375 0.375 1.0125
1.9375 0.3125 1.0125
2 0.375 1.0125
1.9375 0.3125 1.075
2 0.3125 1.075
1.9375 0.375 1.075
2 0.3125 1.0125
2.0625 0.375 1.0125
2.0625 0.3125 1.0125
2.125 0.375 1.0125
2.0625 0.3125 1.075
2.125 0.3125 1.075
2.0625 0.375 1.075
2.125 0.3125 1.0125
2.1875 0.375 1.0125
2.1875 0.3125 1.0125
2.25 0.375 1.0125
2.1875 0.3125 1.075
2.25 0.3125 1.075
2.1875 0.375 1.075
2.25 0.3125 1.0125
2.3125 0.375 1.0125
2.3125 0.3125 1.0125
2.375 0.375 1.0125
2.3125 0.3125 1.075
2.375 0.3125 1.075
2.3125 0.375 1.075
2.375 0.3125 1.0125
2.4375 0.375 1.0125
2.4375 0.3125 1.0125
2.5 0.375 1.0125
2.4375 0.3125 1.075
2.5 0.3125 1.075
2.4375 0.375 1.075
2.5 0.3125 1.0125
2.5625 0.375 1.0125
2.5625 0.3125 1.0125
2.625 0.375 1.0125
2.5625 0.3125 1.075
2.625 0.3125 1.075
2.5625 0.375 1.075
2.625 0.3125 1.0125
2.6875 0.375 1.0125
2.6875 0.3125 1.0125
2.75 0.375 1.0125
2.6875 0.3125 1.075
2.75 0.3125 1.075
2.6875 0.375 1.075
2.75 0.3125 1.0125
2.8125 0.375 1.0125
2.8125 0.3125 1.0125
2.875 0.375 1.0125
2.8125 0.3125 1.075
2.875 0.3125 1.075
2.8125 0.375 1.075
2.875 0.3125 1.0125
2.9375 0.375 1.0125
2.9375 0.3125 1.0125
3 0.375 1.0125
2.9375 0.3125 1.075
3 0.3125 1.075
2.9375 0.375 1.075
3 0.3125 1.0125
3.0625 0.375 1.0125
3.0625 0.3125 1.0125
3.125 0.375 1.0125
3.0625 0.3125 1.075
3.125 0.3125 1.075
3.0625 0.375 1.075
3.125 0.3125 1.0125
3.1875 0.375 1.0125
3.1875 0.3125 1.0125
3.25 0.375 1.0125
3.1875 0.3125 1.075
3.25 0.3125 1.075
3.1875 0.375 1.075
3.25 0.3125 1.0125
3.3125 0.375 1.0125
3.3125 0.3125 1.0125
3.375 0.375 1.0125
3.3125 0.3125 1.075
3.375 0.3125 1.075
3.3125 0.375 1.075
3.375 0.3125 1.0125
3.4375 0.375 1.0125
3.4375 0.3125 1.0125
3.5 0.375 1.0125
3.4375 0.3125 1.075
3.5 0.3125 1.075
3.4375 0.375 1.075
3.5 0.3125 1.0125
3.5625 0.375 1.0125
3.5625 0.3125 1.0125
3.625 0.375 1.0125
3.5625 0.3125 1.075
3.625 0.3125 1.075
3.5625 0.375 1.075
3.625 0.3125 1.0125
3.6875 0.375 1.0125
3.6875 0.3125 1.0125
3.75 0.375 1.0125
3.6875 0.3125 1.075
3.75 0.3125 1.075
3.6875 0.375 1.075
3.75 0.3125 1.0125
3.8125 0.375 1.0125
3.8125 0.3125 1.0125
3.875 0.375 1.0125
3.8125 0.3125 1.075
3.875 0.3125 1.075
3.8125 0.375 1.075
3.875 0.3125 1.0125
3.9375 0.375 1.0125
3.9375 0.3125 1.0125
4 0.375 1.0125
3.9375 0.3125 1.075
4 0.3125 1.075
3.9375 0.375 1.075
4 0.3125 1.0125
0.0625 0.5 1.0125
0.0625 0.4375 1.0125
0.125 0.5 1.0125
0.0625 0.4375 1.075
0.125 0.4375 1.075
0 0.5 1.0125
0 0.4375 1.0125
0.0625 0.5 1.075
0 0.4375 1.075
0.125 0.4375 1.0125
0.1875 0.5 1.0125
0.1875 0.4375 1.0125
0.25 0.5 1.0125
0.1875 0.4375 1.075
0.25 0.4375 1.075
0.1875 0.5 1.075
0.25 0.4375 1.0125
0.3125 0.5 1.0125
0.3125 0.4375 1.0125
0.375 0.5 1.0125
0.3125 0.4375 1.075
0.375 0.4375 1.075
0.3125 0.5 1.075
0.375 0.4375 1.0125
0.4375 0.5 1.0125
0.4375 0.4375 1.0125
0.5 0.5 1.0125
0.4375 0.4375 1.075
0.5 0.4375 1.075
0.4375 0.5 1.075
0.5 0.4375 1.0125
0.5625 0.5 1.0125
0.5625 0.4375 1.0125
0.625 0.5 1.0125
0.5625 0.4375 1.075
0.625 0.4375 1.075
0.5625 0.5 1.075
0.625 0.4375 1.0125
0.6875 0.5 1.0125
0.6875 0.4375 1.0125
0.75 0.5 1.0125
0.6875 0.4375 1.075
0.75 0.4375 1.075
0.6875 0.5 1.075
0.75 0.4375 1.0125
0.8125 0.5 1.0125
0.8125 0.4375 1.0125
0.875 0.5 1.0125
0.8125 0.4375 1.075
0.875 0.4375 1.075
0.8125 0.5 1.075
0.875 0.4375 1.0125
0.9375 0.5 1.0125
0.9375 0.4375 1.0125
1 0.5 1.0125
0.9375 0.4375 1.075
1 0.4375 1.075
0.9375 0.5 1.075
1 0.4375 1.0125
1.0625 0.5 1.0125
1.0625 0.4375 1.0125
1.125 0.5 1.0125
1.0625 0.4375 1.075
1.125 0.4375 1.075
1.0625 0.5 1.075
1.125 0.4375 1.0125
1.1875 0.5 1.0125
1.1875 0.4375 1.0125
1.25 0.5 1.0125
1.1875 0.4375 1.075
1.25 0.4375 1.075
1.1875 0.5 1.075
1.25 0.4375 1.0125
1.3125 0.5 1.0125
1.3125 0.4375 1.0125
1.375 0.5 1.0125
1.3125 0.4375 1.075
1.375 0.4375 1.075
1.3125 0.5 1.075
1.375 0.4375 1.0125
1.4375 0.5 1.0125
1.4375 0.4375 1.0125
1.5 0.5 1.0125
1.4375 0.4375 1.075
1.5 0.4375 1.075
1.4375 0.5 1.075
1.5 0.4375 1.0125
1.5625 0.5 1.0125
1.5625 0.4375 1.0125
1.625 0.5 1.0125
1.5625 0.4375 1.075
1.625 0.4375 1.075
1.5625 0.5 1.075
1.625 0.4375 1.0125
1.6875 0.5 1.0125
1.6875 0.4375 1.0125
1.75 0.5 1.0125
1.6875 0.4375 1.075
1.75 0.4375 1.075
1.6875 0.5 1.075
1.75 0.4375 1.0125
1.8125 0.5 1.0125
1.8125 0.4375 1.0125
1.875 0.5 1.0125
1.8125 0.4375 1.075
1.875 0.4375 1.075
1.8125 0.5 1.075
1.875 0.4375 1.0125
1.9375 0.5 1.0125
1.9375 0.4375 1.0125
2 0.5 1.0125
1.9375 0.4375 1.075
2 0.4375 1.075
1.9375 0.5 1.075
2 0.4375 1.0125
2.0625 0.5 1.0125
2.0625 0.4375 1.0125
2.125 0.5 1.0125
2.0625 0.4375 1.075
2.125 0.4375 1.075
2.0625 0.5 1.075
2.125 0.4375 1.0125
2.1875 0.5 1.0125
2.1875 0.4375 1.0125
2.25 0.5 1.0125
2.1875 0.4375 1.075
2.25 0.4375 1.075
2.1875 0.5 1.075
2.25 0.4375 1.0125
2.3125 0.5 1.0125
2.3125 0.4375 1.0125
2.375 0.5 1.0125
2.3125 0.4375 1.075
2.375 0.4375 1.075
2.3125 0.5 1.075
2.375 0.4375 1.0125
2.4375 0.5 1.0125
2.4375 0.4375 1.0125
2.5 0.5 1.0125
2.4375 0.4375 1.075
2.5 0.4375 1.075
2.4375 0.5 1.075
2.5 0.4375 1.0125
2.5625 0.5 1.0125
2.5625 0.4375 1.0125
2.625 0.5 1.0125
2.5625 0.4375 1.075
2.625 0.4375 1.075
2.5625 0.5 1.075
2.625 0.4375 1.0125
2.6875 0.5 1.0125
2.6875 0.4375 1.0125
2.75 0.5 1.0125
2.6875 0.4375 1.075
2.75 0.4375 1.075
2.6875 0.5 1.075
2.75 0.4375 1.0125
2.8125 0.5 1.0125
2.8125 0.4375 1.0125
2.875 0.5 1.0125
2.8125 0.4375 1.075
2.875 0.4375 1.075
2.8125 0.5 1.075
2.875 0.4375 1.0125
2.9375 0.5 1.0125
2.9375 0.4375 1.0125
3 0.5 1.0125
2.9375 0.4375 1.075
3 0.4375 1.075
2.9375 0.5 1.075
3 0.4375 1.0125
3.0625 0.5 1.0125
3.0625 0.4375 1.0125
3.125 0.5 1.0125
3.0625 0.4375 1.075
3.125 0.4375 1.075
3.0625 0.5 1.075
3.125 0.4375 1.0125
3.1875 0.5 1.0125
3.1875 0.4375 1.0125
3.25 0.5 1.0125
3.1875 0.4375 1.075
3.25 0.4375 1.075
3.1875 0.5 1.075
3.25 0.4375 1.0125
3.3125 0.5 1.0125
3.3125 0.4375 1.0125
3.375 0.5 1.0125
3.3125 0.4375 1.075
3.375 0.4375 1.075
3.3125 0.5 1.075
3.375 0.4375 1.0125
3.4375 0.5 1.0125
3.4375 0.4375 1.0125
3.5 0.5 1.0125
3.4375 0.4375 1.075
3.5 0.4375 1.075
3.4375 0.5 1.075
3.5 0.4375 1.0125
3.5625 0.5 1.0125
3.5625 0.4375 1.0125
3.625 0.5 1.0125
3.5625 0.4375 1.075
3.625 0.4375 1.075
3.5625 0.5 1.075
3.625 0.4375 1.0125
3.6875 0.5 1.0125
3.6875 0.4375 1.0125
3.75 0.5 1.0125
3.6875 0.4375 1.075
3.75 0.4375 1.075
3.6875 0.5 1.075
3.75 0.4375 1.0125
3.8125 0.5 1.0125
3.8125 0.4375 1.0125
3.875 0.5 1.0125
3.8125 0.4375 1.075
3.875 0.4375 1.075
3.8125 0.5 1.075
3.875 0.4375 1.0125
3.9375 0.5 1.0125
3.9375 0.4375 1.0125
4 0.5 1.0125
3.9375 0.4375 1.075
4 0.4375 1.075
3.9375 0.5 1.075
4 0.4375 1.0125
0.0625 0.625 1.0125
0.0625 0.5625 1.0125
0.125 0.625 1.0125
0.0625 0.5625 1.075
0.125 0.5625 1.075
0 0.625 1.0125
0 0.5625 1.0125
0.0625 0.625 1.075
0 0.5625 1.075
0.125 0.5625 1.0125
0.1875 0.625 1.0125
0.1875 0.5625 1.0125
0.25 0.625 1.0125
0.1875 0.5625 1.075
0.25 0.5625 1.075
0.1875 0.625 1.075
0.25 0.5625 1.0125
0.3125 0.625 1.0125
0.3125 0.5625 1.0125
0.375 0.625 1.0125
0.3125 0.5625 1.075
0.375 0.5625 1.075
0.3125 0.625 1.075
0.375 0.5625 1.0125
0.4375 0.625 1.0125
0.4375 0.5625 1.0125
0.5 0.625 1.0125
0.4375 0.5625 1.075
0.5 0.5625 1.075
0.4375 0.625 1.075
0.5 0.5625 1.0125
0.5625 0.625 1.0125
0.5625 0.5625 1.0125
0.625 0.625 1.0125
0.5625 0.5625 1.075
0.625 0.5625 1.075
0.5625 0.625 1.075
0.625 0.5625 1.0125
0.6875 0.625 1.0125
0.6875 0.5625 1.0125
0.75 0.625 1.0125
0.6875 0.5625 1.075
0.75 0.5625 1.075
0.6875 0.625 1.075
0.75 0.5625 1.0125
0.8125 0.625 1.0125
0.8125 0.5625 1.0125
0.875 0.625 1.0125
0.8125 0.5625 1.075
0.875 0.5625 1.075
0.8125 0.625 1.075
0.875 0.5625 1.0125
0.9375 0.625 1.0125
0.9375 0.5625 1.0125
1 0.625 1.0125
0.9375 0.5625 1.075
1 0.5625 1.075
0.9375 0.625 1.075
1 0.5625 1.0125
1.0625 0.625 1.0125
1.0625 0.5625 1.0125
1.125 0.625 1.0125
1.0625 0.5625 1.075
1.125 0.5625 1.075
1.0625 0.625 1.075
1.125 0.5625 1.0125
1.1875 0.625 1.0125
1.1875 0.5625 1.0125
1.25 0.625 1.0125
1.1875 0.5625 1.075
1.25 0.5625 1.075
1.1875 0.625 1.075
1.25 0.5625 1.0125
1.3125 0.625 1.0125
1.3125 0.5625 1.0125
1.375 0.625 1.0125
1.3125 0.5625 1.075
1.375 0.5625 1.075
1.3125 0.625 1.075
1.375 0.5625 1.0125
1.4375 0.625 1.0125
1.4375 0.5625 1.0125
1.5 0.625 1.0125
1.4375 0.5625 1.075
1.5 0.5625 1.075
1.4375 0.625 1.075
1.5 0.5625 1.0125
1.5625 0.625 1.0125
1.5625 0.5625 1.0125
1.625 0.625 1.0125
1.5625 0.5625 1.075
1.625 0.5625 1.075
1.5625 0.625 1.075
1.625 0.5625 1.0125
1.6875 0.625 1.0125
1.6875 0.5625 1.0125
1.75 0.625 1.0125
1.6875 0.5625 1.075
1.75 0.5625 1.075
1.6875 0.625 1.075
1.75 0.5625 1.0125
1.8125 0.625 1.0125
1.8125 0.5625 1.0125
1.875 0.625 1.0125
1.8125 0.5625 1.075
1.875 0.5625 1.075
1.8125 0.625 1.075
1.875 0.5625 1.0125
1.9375 0.625 1.0125
1.9375 0.5625 1.0125
2 0.625 1.0125
1.9375 0.5625 1.075
2 0.5625 1.075
1.9375 0.625 1.075
2 0.5625 1.0125
2.0625 0.625 1.0125
2.0625 0.5625 1.0125
2.125 0.625 1.0125
2.0625 0.5625 1.075
2.125 0.5625 1.075
2.0625 0.625 1.075
2.125 0.5625 1.0125
2.1875 0.625 1.0125
2.1875 0.5625 1.0125
2.25 0.625 1.0125
2.1875 0.5625 1.075
2.25 0.5625 1.075
2.1875 0.625 1.075
2.25 0.5625 1.0125
2.3125 0.625 1.0125
2.3125 0.5625 1.0125
2.375 0.625 1.0125
2.3125 0.5625 1.075
2.375 0.5625 1.075
2.3125 0.625 1.075
2.375 0.5625 1.0125
2.4375 0.625 1.0125
2.4375 0.5625 1.0125
2.5 0.625 1.0125
2.4375 0.5625 1.075
2.5 0.5625 1.075
2.4375 0.625 1.075
2.5 0.5625 1.0125
2.5625 0.625 1.0125
2.5625 0.5625 1.0125
2.625 0.625 1.0125
2.5625 0.5625 1.075
2.625 0.5625 1.075
2.5625 0.625 1.075
2.625 0.5625 1.0125
2.6875 0.625 1.0125
2.6875 0.5625 1.0125
2.75 0.625 1.0125
2.6875 0.5625 1.075
2.75 0.5625 1.075
2.6875 0.625 1.075
2.75 0.5625 1.0125
2.8125 0.625 1.0125
2.8125 0.5625 1.0125
2.875 0.625 1.0125
2.8125 0.5625 1.075
2.875 0.5625 1.075
2.8125 0.625 1.075
2.875 0.5625 1.0125
2.9375 0.625 1.0125
2.9375 0.5625 1.0125
3 0.625 1.0125
2.9375 0.5625 1.075
3 0.5625 1.075
2.9375 0.625 1.075
3 0.5625 1.0125
3.0625 0.625 1.0125
3.0625 0.5625 1.0125
3.125 0.625 1.0125
3.0625 0.5625 1.075
3.125 0.5625 1.075
3.0625 0.625 1.075
3.125 0.5625 1.0125
3.1875 0.625 1.0125
3.1875 0.5625 1.0125
3.25 0.625 1.0125
3.1875 0.5625 1.075
3.25 0.5625 1.075
3.1875 0.625 1.075
3.25 0.5625 1.0125
3.3125 0.625 1.0125
3.3125 0.5625 1.0125
3.375 0.625 1.0125
3.3125 0.5625 1.075
3.375 0.5625 1.075
3.3125 0.625 1.075
3.375 0.5625 1.0125
3.4375 0.625 1.0125
3.4375 0.5625 1.0125
3.5 0.625 1.0125
3.4375 0.5625 1.075
3.5 0.5625 1.075
3.4375 0.625 1.075
3.5 0.5625 1.0125
3.5625 0.625 1.0125
3.5625 0.5625 1.0125
3.625 0.625 1.0125
3.5625 0.5625 1.075
3.625 0.5625 1.075
3.5625 0.625 1.075
3.625 0.5625 1.0125
3.6875 0.625 1.0125
3.6875 0.5625 1.0125
3.75 0.625 1.0125
3.6875 0.5625 1.075
3.75 0.5625 1.075
3.6875 0.625 1.075
3.75 0.5625 1.0125
3.8125 0.625 1.0125
3.8125 0.5625 1.0125
3.875 0.625 1.0125
3.8125 0.5625 1.075
3.875 0.5625 1.075
3.8125 0.625 1.075
3.875 0.5625 1.0125
3.9375 0.625 1.0125
3.9375 0.5625 1.0125
4 0.625 1.0125
3.9375 0.5625 1.075
4 0.5625 1.075
3.9375 0.625 1.075
4 0.5625 1.0125
0.0625 0.75 1.0125
0.0625 0.6875 1.0125
0.125 0.75 1.0125
0.0625 0.6875 1.075
0.125 0.6875 1.075
0 0.75 1.0125
0 0.6875 1.0125
0.0625 0.75 1.075
0 0.6875 1.075
0.125 0.6875 1.0125
0.1875 0.75 1.0125
0.1875 0.6875 1.0125
0.25 0.75 1.0125
0.1875 0.6875 1.075
0.25 0.6875 1.075
0.1875 0.75 1.075
0.25 0.6875 1.0125
0.3125 0.75 1.0125
0.3125 0.6875 1.0125
0.375 0.75 1.0125
0.3125 0.6875 1.075
0.375 0.6875 1.075
0.3125 0.75 1.075
0.375 0.6875 1.0125
0.4375 0.75 1.0125
0.4375 0.6875 1.0125
0.5 0.75 1.0125
0.4375 0.6875 1.075
0.5 0.6875 1.075
0.4375 0.75 1.075
0.5 0.6875 1.0125
0.5625 0.75 1.0125
0.5625 0.6875 1.0125
0.625 0.75 1.0125
0.5625 0.6875 1.075
0.625 0.6875 1.075
0.5625 0.75 1.075
0.625 0.6875 1.0125
0.6875 0.75 1.0125
0.6875 0.6875 1.0125
0.75 0.75 1.0125
0.6875 0.6875 1.075
0.75 0.6875 1.075
0.6875 0.75 1.075
0.75 0.6875 1.0125
0.8125 0.75 1.0125
0.8125 0.6875 1.0125
0.875 0.75 1.0125
0.8125 0.6875 1.075
0.875 0.6875 1.075
0.8125 0.75 1.075
0.875 0.6875 1.0125
0.9375 0.75 1.0125
0.9375 0.6875 1.0125
1 0.75 1.0125
0.9375 0.6875 1.075
1 0.6875 1.075
0.9375 0.75 1.075
1 0.6875 1.0125
1.0625 0.75 1.0125
1.0625 0.6875 1.0125
1.125 0.75 1.0125
1.0625 0.6875 1.075
1.125 0.6875 1.075
1.0625 0.75 1.075
1.125 0.6875 1.0125
1.1875 0.75 1.0125
1.1875 0.6875 1.0125
1.25 0.75 1.0125
1.1875 0.6875 1.075
1.25 0.6875 1.075
1.1875 0.75 1.075
1.25 0.6875 1.0125
1.3125 0.75 1.0125
1.3125 0.6875 1.0125
1.375 0.75 1.0125
1.3125 0.6875 1.075
1.375 0.6875 1.075
1.3125 0.75 1.075
1.375 0.6875 1.0125
1.4375 0.75 1.0125
1.4375 0.6875 1.0125
1.5 0.75 1.0125
1.4375 0.6875 1.075
1.5 0.6875 1.075
1.4375 0.75 1.075
1.5 0.6875 1.0125
1.5625 0.75 1.0125
1.5625 0.6875 1.0125
1.625 0.75 1.0125
1.5625 0.6875 1.075
1.625 0.6875 1.075
1.5625 0.75 1.075
1.625 0.6875 1.0125
1.6875 0.75 1.0125
1.6875 0.6875 1.0125
1.75 0.75 1.0125
1.6875 0.6875 1.075
1.75 0.6875 1.075
1.6875 0.75 1.075
1.75 0.6875 1.0125
1.8125 0.75 1.0125
1.8125 0.6875 1.0125
1.875 0.75 1.0125
1.8125 0.6875 1.075
1.875 0.6875 1.075
1.8125 0.75 1.075
1.875 0.6875 1.0125
1.9375 0.75 1.0125
1.9375 0.6875 1.0125
2 0.75 1.0125
1.9375 0.6875 1.075
2 0.6875 1.075
1.9375 0.75 1.075
2 0.6875 1.0125
2.0625 0.75 1.0125
2.0625 0.6875 1.0125
2.125 0.75 1.0125
2.0625 0.6875 1.075
2.125 0.6875 1.075
2.0625 0.75 1.075
2.125 0.6875 1.0125
2.1875 0.75 1.0125
2.1875 0.6875 1.0125
2.25 0.75 1.0125
2.1875 0.6875 1.075
2.25 0.6875 1.075
2.1875 0.75 1.075
2.25 0.6875 1.0125
2.3125 0.75 1.0125
2.3125 0.6875 1.0125
2.375 0.75 1.0125
2.3125 0.6875 1.075
2.375 0.6875 1.075
2.3125 0.75 1.075
2.375 0.6875 1.0125
2.4375 0.75 1.0125
2.4375 0.6875 1.0125
2.5 0.75 1.0125
2.4375 0.6875 1.075
2.5 0.6875 1.075
2.4375 0.75 1.075
2.5 0.6875 1.0125
2.5625 0.75 1.0125
2.5625 0.6875 1.0125
2.625 0.75 1.0125
2.5625 0.6875 1.075
2.625 0.6875 1.075
2.5625 0.75 1.075
2.625 0.6875 1.0125
2.6875 0.75 1.0125
2.6875 0.6875 1.0125
2.75 0.75 1.0125
2.6875 0.6875 1.075
2.75 0.6875 1.075
2.6875 0.75 1.075
2.75 0.6875 1.0125
2.8125 0.75 1.0125
2.8125 0.6875 1.0125
2.875 0.75 1.0125
2.8125 0.6875 1.075
2.875 0.6875 1.075
2.8125 0.75 1.075
2.875 0.6875 1.0125
2.9375 0.75 1.0125
2.9375 0.6875 1.0125
3 0.75 1.0125
2.9375 0.6875 1.075
3 0.6875 1.075
2.9375 0.75 1.075
3 0.6875 1.0125
3.0625 0.75 1.0125
3.0625 0.6875 1.0125
3.125 0.75 1.0125
3.0625 0.6875 1.075
3.125 0.6875 1.075
3.0625 0.75 1.075
3.125 0.6875 1.0125
3.1875 0.75 1.0125
3.1875 0.6875 1.0125
3.25 0.75 1.0125
3.1875 0.6875 1.075
3.25 0.6875 1.075
3.1875 0.75 1.075
3.25 0.6875 1.0125
3.3125 0.75 1.0125
3.3125 0.6875 1.0125
3.375 0.75 1.0125
3.3125 0.6875 1.075
3.375 0.6875 1.075
3.3125 0.75 1.075
3.375 0.6875 1.0125
3.4375 0.75 1.0125
3.4375 0.6875 1.0125
3.5 0.75 1.0125
3.4375 0.6875 1.075
3.5 0.6875 1.075
3.4375 0.75 1.075
3.5 0.6875 1.0125
3.5625 0.75 1.0125
3.5625 0.6875 1.0125
3.625 0.75 1.0125
3.5625 0.6875 1.075
3.625 0.6875 1.075
3.5625 0.75 1.075
3.625 0.6875 1.0125
3.6875 0.75 1.0125
3.6875 0.6875 1.0125
3.75 0.75 1.0125
3.6875 0.6875 1.075
3.75 0.6875 1.075
3.6875 0.75 1.075
3.75 0.6875 1.0125
3.8125 0.75 1.0125
3.8125 0.6875 1.0125
3.875 0.75 1.0125
3.8125 0.6875 1.075
3.875 0.6875 1.075
3.8125 0.75 1.075
3.875 0.6875 1.0125
3.9375 0.75 1.0125
3.9375 0.6875 1.0125
4 0.75 1.0125
3.9375 0.6875 1.075
4 0.6875 1.075
3.9375 0.75 1.075
4 0.6875 1.0125
0.0625 0.875 1.0125
0.0625 0.8125 1.0125
0.125 0.875 1.0125
0.0625 0.8125 1.075
0.125 0.8125 1.075
0 0.875 1.0125
0 0.8125 1.0125
0.0625 0.875 1.075
0 0.8125 1.075
0.125 0.8125 1.0125
0.1875 0.875 1.0125
0.1875 0.8125 1.0125
0.25 0.875 1.0125
0.1875 0.8125 1.075
0.25 0.8125 1.075
0.1875 0.875 1.075
0.25 0.8125 1.0125
0.3125 0.875 1.0125
0.3125 0.8125 1.0125
0.375 0.875 1.0125
0.3125 0.8125 1.075
0.375 0.8125 1.075
0.3125 0.875 1.075
0.375 0.8125 1.0125
0.4375 0.875 1.0125
0.4375 0.8125 1.0125
0.5 0.875 1.0125
0.4375 0.8125 1.075
0.5 0.8125 1.075
0.4375 0.875 1.075
0.5 0.8125 1.0125
0.5625 0.875 1.0125
0.5625 0.8125 1.0125
0.625 0.875 1.0125
0.5625 0.8125 1.075
0.625 0.8125 1.075
0.5625 0.875 1.075
0.625 0.8125 1.0125
0.6875 0.875 1.0125
0.6875 0.8125 1.0125
0.75 0.875 1.0125
0.6875 0.8125 1.075
0.75 0.8125 1.075
0.6875 0.875 1.075
0.75 0.8125 1.0125
0.8125 0.875 1.0125
0.8125 0.8125 1.0125
0.875 0.875 1.0125
0.8125 0.8125 1.075
0.875 0.8125 1.075
0.8125 0.875 1.075
0.875 0.8125 1.0125
0.9375 0.875 1.0125
0.9375 0.8125 1.0125
1 0.875 1.0125
0.9375 0.8125 1.075
1 0.8125 1.075
0.9375 0.875 1.075
1 0.8125 1.0125
1.0625 0.875 1.0125
1.0625 0.8125 1.0125
1.125 0.875 1.0125
1.0625 0.8125 1.075
1.125 0.8125 1.075
1.0625 0.875 1.075
1.125 0.8125 1.0125
1.1875 0.875 1.0125
1.1875 0.8125 1.0125
1.25 0.875 1.0125
1.1875 0.8125 1.075
1.25 0.8125 1.075
1.1875 0.875 1.075
1.25 0.8125 1.0125
1.3125 0.875 1.0125
1.3125 0.8125 1.0125
1.375 0.875 1.0125
1.3125 0.8125 1.075
1.375 0.8125 1.075
1.3125 0.875 1.075
1.375 0.8125 1.0125
1.4375 0.875 1.0125
1.4375 0.8125 1.0125
1.5 0.875 1.0125
1.4375 0.8125 1.075
1.5 0.8125 1.075
1.4375 0.875 1.075
1.5 0.8125 1.0125
1.5625 0.875 1.0125
1.5625 0.8125 1.0125
1.625 0.875 1.0125
1.5625 0.8125 1.075
1.625 0.8125 1.075
1.5625 0.875 1.075
1.625 0.8125 1.0125
1.6875 0.875 1.0125
1.6875 0.8125 1.0125
1.75 0.875 1.0125
1.6875 0.8125 1.075
1.75 0.8125 1.075
1.6875 0.875 1.075
1.75 0.8125 1.0125
1.8125 0.875 1.0125
1.8125 0.8125 1.0125
1.875 0.875 1.0125
1.8125 0.8125 1.075
1.875 0.8125 1.075
1.8125 0.875 1.075
1.875 0.8125 1.0125
1.9375 0.875 1.0125
1.9375 0.8125 1.0125
2 0.875 1.0125
1.9375 0.8125 1.075
2 0.8125 1.075
1.9375 0.875 1.075
2 0.8125 1.0125
2.0625 0.875 1.0125
2.0625 0.8125 1.0125
2.125 0.875 1.0125
2.0625 0.8125 1.075
2.125 0.8125 1.075
2.0625 0.875 1.075
2.125 0.8125 1.0125
2.1875 0.875 1.0125
2.1875 0.8125 1.0125
2.25 0.875 1.0125
2.1875 0.8125 1.075
2.25 0.8125 1.075
2.1875 0.875 1.075
2.25 0.8125 1.0125
2.3125 0.875 1.0125
2.3125 0.8125 1.0125
2.375 0.875 1.0125
2.3125 0.8125 1.075
2.375 0.8125 1.075
2.3125 0.875 1.075
2.375 0.8125 1.0125
2.4375 0.875 1.0125
2.4375 0.8125 1.0125
2.5 0.875 1.0125
2.4375 0.8125 1.075
2.5 0.8125 1.075
2.4375 0.875 1.075
2.5 0.8125 1.0125
2.5625 0.875 1.0125
2.5625 0.8125 1.0125
2.625 0.875 1.0125
2.5625 0.8125 1.075
2.625 0.8125 1.075
2.5625 0.875 1.075
2.625 0.8125 1.0125
2.6875 0.875 1.0125
2.6875 0.8125 1.0125
2.75 0.875 1.0125
2.6875 0.8125 1.075
2.75 0.8125 1.075
2.6875 0.875 1.075
2.75 0.8125 1.0125
2.8125 0.875 1.0125
2.8125 0.8125 1.0125
2.875 0.875 1.0125
2.8125 0.8125 1.075
2.875 0.8125 1.075
2.8125 0.875 1.075
2.875 0.8125 1.0125
2.9375 0.875 1.0125
2.9375 0.8125 1.0125
3 0.875 1.0125
2.9375 0.8125 1.075
3 0.8125 1.075
2.9375 0.875 1.075
3 0.8125 1.0125
3.0625 0.875 1.0125
3.0625 0.8125 1.0125
3.125 0.875 1.0125
3.0625 0.8125 1.075
3.125 0.8125 1.075
3.0625 0.875 1.075
3.125 0.8125 1.0125
3.1875 0.875 1.0125
3.1875 0.8125 1.0125
3.25 0.875 1.0125
3.1875 0.8125 1.075
3.25 0.8125 1.075
3.1875 0.875 1.075
3.25 0.8125 1.0125
3.3125 0.875 1.0125
3.3125 0.8125 1.0125
3.375 0.875 1.0125
3.3125 0.8125 1.075
3.375 0.8125 1.075
3.3125 0.875 1.075
3.375 0.8125 1.0125
3.4375 0.875 1.0125
3.4375 0.8125 1.0125
3.5 0.875 1.0125
3.4375 0.8125 1.075
3.5 0.8125 1.075
3.4375 0.875 1.075
3.5 0.8125 1.0125
3.5625 0.875 1.0125
3.5625 0.8125 1.0125
3.625 0.875 1.0125
3.5625 0.8125 1.075
3.625 0.8125 1.075
3.5625 0.875 1.075
3.625 0.8125 1.0125
3.6875 0.875 1.0125
3.6875 0.8125 1.0125
3.75 0.875 1.0125
3.6875 0.8125 1.075
3.75 0.8125 1.075
3.6875 0.875 1.075
3.75 0.8125 1.0125
3.8125 0.875 1.0125
3.8125 0.8125 1.0125
3.875 0.875 1.0125
3.8125 0.8125 1.075
3.875 0.8125 1.075
3.8125 0.875 1.075
3.875 0.8125 1.0125
3.9375 0.875 1.0125
3.9375 0.8125 1.0125
4 0.875 1.0125
3.9375 0.8125 1.075
4 0.8125 1.075
3.9375 0.875 1.075
4 0.8125 1.0125
0.0625 1 1.0125
0.0625 0.9375 1.0125
0.125 1 1.0125
0.0625 0.9375 1.075
0.125 0.9375 1.075
0 1 1.0125
0 0.9375 1.0125
0.0625 1 1.075
0 0.9375 1.075
0.125 0.9375 1.0125
0.1875 1 1.0125
0.1875 0.9375 1.0125
0.25 1 1.0125
0.1875 0.9375 1.075
0.25 0.9375 1.075
0.1875 1 1.075
0.25 0.9375 1.0125
0.3125 1 1.0125
0.3125 0.9375 1.0125
0.375 1 1.0125
0.3125 0.9375 1.075
0.375 0.9375 1.075
0.3125 1 1.075
0.375 0.9375 1.0125
0.4375 1 1.0125
0.4375 0.9375 1.0125
0.5 1 1.0125
0.4375 0.9375 1.075
0.5 0.9375 1.075
0.4375 1 1.075
0.5 0.9375 1.0125
0.5625 1 1.0125
0.5625 0.9375 1.0125
0.625 1 1.0125
0.5625 0.9375 1.075
0.625 0.9375 1.075
0.5625 1 1.075
0.625 0.9375 1.0125
0.6875 1 1.0125
0.6875 0.9375 1.0125
0.75 1 1.0125
0.6875 0.9375 1.075
0.75 0.9375 1.075
0.6875 1 1.075
0.75 0.9375 1.0125
0.8125 1 1.0125
0.8125 0.9375 1.0125
0.875 1 1.0125
0.8125 0.9375 1.075
0.875 0.9375 1.075
0.8125 1 1.075
0.875 0.9375 1.0125
0.9375 1 1.0125
0.9375 0.9375 1.0125
1 1 1.0125
0.9375 0.9375 1.075
1 0.9375 1.075
0.9375 1 1.075
1 0.9375 1.0125
1.0625 1 1.0125
1.0625 0.9375 1.0125
1.125 1 1.0125
1.0625 0.9375 1.075
1.125 0.9375 1.075
1.0625 1 1.075
1.125 0.9375 1.0125
1.1875 1 1.0125
1.1875 0.9375 1.0125
1.25 1 1.0125
1.1875 0.9375 1.075
1.25 0.9375 1.075
1.1875 1 1.075
1.25 0.9375 1.0125
1.3125 1 1.0125
1.3125 0.9375 1.0125
1.375 1 1.0125
1.3125 0.9375 1.075
1.375 0.9375 1.075
1.3125 1 1.075
1.375 0.9375 1.0125
1.4375 1 1.0125
1.4375 0.9375 1.0125
1.5 1 1.0125
1.4375 0.9375 1.075
1.5 0.9375 1.075
1.4375 1 1.075
1.5 0.9375 1.0125
1.5625 1 1.0125
1.5625 0.9375 1.0125
1.625 1 1.0125
1.5625 0.9375 1.075
1.625 0.9375 1.075
1.5625 1 1.075
1.625 0.9375 1.0125
1.6875 1 1.0125
1.6875 0.9375 1.0125
1.75 1 1.0125
1.6875 0.9375 1.075
1.75 0.9375 1.075
1.6875 1 1.075
1.75 0.9375 1.0125
1.8125 1 1.0125
1.8125 0.9375 1.0125
1.875 1 1.0125
1.8125 0.9375 1.075
1.875 0.9375 1.075
1.8125 1 1.075
1.875 0.9375 1.0125
1.9375 1 1.0125
1.9375 0.9375 1.0125
2 1 1.0125
1.9375 0.9375 1.075
2 0.9375 1.075
1.9375 1 1.075
2 0.9375 1.0125
2.0625 1 1.0125
2.0625 0.9375 1.0125
2.125 1 1.0125
2.0625 0.9375 1.075
2.125 0.9375 1.075
2.0625 1 1.075
2.125 0.9375 1.0125
2.1875 1 1.0125
2.1875 0.9375 1.0125
2.25 1 1.0125
2.1875 0.9375 1.075
2.25 0.9375 1.075
2.1875 1 1.075
2.25 0.9375 1.0125
2.3125 1 1.0125
2.3125 0.9375 1.0125
2.375 1 1.0125
2.3125 0.9375 1.075
2.375 0.9375 1.075
2.3125 1 1.075
2.375 0.9375 1.0125
2.4375 1 1.0125
2.4375 0.9375 1.0125
2.5 1 1.0125
2.4375 0.9375 1.075
2.5 0.9375 1.075
2.4375 1 1.075
2.5 0.9375 1.0125
2.5625 1 1.0125
2.5625 0.9375 1.0125
2.625 1 1.0125
2.5625 0.9375 1.075
2.625 0.9375 1.075
2.5625 1 1.075
2.625 0.9375 1.0125
2.6875 1 1.0125
2.6875 0.9375 1.0125
2.75 1 1.0125
2.6875 0.9375 1.075
2.75 0.9375 1.075
2.6875 1 1.075
2.75 0.9375 1.0125
2.8125 1 1.0125
2.8125 0.9375 1.0125
2.875 1 1.0125
2.8125 0.9375 1.075
2.875 0.9375 1.075
2.8125 1 1.075
2.875 0.9375 1.0125
2.9375 1 1.0125
2.9375 0.9375 1.0125
3 1 1.0125
2.9375 0.9375 1.075
3 0.9375 1.075
2.9375 1 1.075
3 0.9375 1.0125
3.0625 1 1.0125
3.0625 0.9375 1.0125
3.125 1 1.0125
3.0625 0.9375 1.075
3.125 0.9375 1.075
3.0625 1 1.075
3.125 0.9375 1.0125
3.1875 1 1.0125
3.1875 0.9375 1.0125
3.25 1 1.0125
3.1875 0.9375 1.075
3.25 0.9375 1.075
3.1875 1 1.075
3.25 0.9375 1.0125
3.3125 1 1.0125
3.3125 0.9375 1.0125
3.375 1 1.0125
3.3125 0.9375 1.075
3.375 0.9375 1.075
3.3125 1 1.075
3.375 0.9375 1.0125
3.4375 1 1.0125
3.4375 0.9375 1.0125
3.5 1 1.0125
3.4375 0.9375 1.075
3.5 0.9375 1.075
3.4375 1 1.075
3.5 0.9375 1.0125
3.5625 1 1.0125
3.5625 0.9375 1.0125
3.625 1 1.0125
3.5625 0.9375 1.075
3.625 0.9375 1.075
3.5625 1 1.075
3.625 0.9375 1.0125
3.6875 1 1.0125
3.6875 0.9375 1.0125
3.75 1 1.0125
3.6875 0.9375 1.075
3.75 0.9375 1.075
3.6875 1 1.075
3.75 0.9375 1.0125
3.8125 1 1.0125
3.8125 0.9375 1.0125
3.875 1 1.0125
3.8125 0.9375 1.075
3.875 0.9375 1.075
3.8125 1 1.075
3.875 0.9375 1.0125
3.9375 1 1.0125
3.9375 0.9375 1.0125
4 1 1.0125
3.9375 0.9375 1.075
4 0.9375 1.075
3.9375 1 1.075
4 0.9375 1.0125
0.0625 0.125 1.1375
0.0625 0.0625 1.1375
0.125 0.125 1.1375
0.0625 0.0625 1.2
0.125 0.0625 1.2
0.0625 0 1.2
0 0 1.1375
0.0625 0 1.1375
0 0.125 1.1375
0 0.0625 1.1375
0.0625 0.125 1.2
0 0.0625 1.2
0.125 0 1.1375
0.125 0.0625 1.1375
0.1875 0.125 1.1375
0.1875 0.0625 1.1375
0.25 0.125 1.1375
0.1875 0.0625 1.2
0.25 0.0625 1.2
0.1875 0 1.2
0.1875 0 1.1375
0.1875 0.125 1.2
0.25 0 1.1375
0.25 0.0625 1.1375
0.3125 0.125 1.1375
0.3125 0.0625 1.1375
0.375 0.125 1.1375
0.3125 0.0625 1.2
0.375 0.0625 1.2
0.3125 0 1.2
0.3125 0 1.1375
0.3125 0.125 1.2
0.375 0 1.1375
0.375 0.0625 1.1375
0.4375 0.125 1.1375
0.4375 0.0625 1.1375
0.5 0.125 1.1375
0.4375 0.0625 1.2
0.5 0.0625 1.2
0.4375 0 1.2
0.4375 0 1.1375
0.4375 0.125 1.2
0.5 0 1.1375
0.5 0.0625 1.1375
0.5625 0.125 1.1375
0.5625 0.0625 1.1375
0.625 0.125 1.1375
0.5625 0.0625 1.2
0.625 0.0625 1.2
0.5625 0 1.2
0.5625 0 1.1375
0.5625 0.125 1.2
0.625 0 1.1375
0.625 0.0625 1.1375
0.6875 0.125 1.1375
0.6875 0.0625 1.1375
0.75 0.125 1.1375
0.6875 0.0625 1.2
0.75 0.0625 1.2
0.6875 0 1.2
0.6875 0 1.1375
0.6875 0.125 1.2
0.75 0 1.1375
0.75 0.0625 1.1375
0.8125 0.125 1.1375
0.8125 0.0625 1.1375
0.875 0.125 1.1375
0.8125 0.0625 1.2
0.875 0.0625 1.2
0.8125 0 1.2
0.8125 0 1.1375
0.8125 0.125 1.2
0.875 0 1.1375
0.875 0.0625 1.1375
0.9375 0.125 1.1375
0.9375 0.0625 1.1375
1 0.125 1.1375
0.9375 0.0625 1.2
1 0.0625 1.2
0.9375 0 1.2
0.9375 0 1.1375
0.9375 0.125 1.2
1 0 1.1375
1 0.0625 1.1375
1.0625 0.125 1.1375
1.0625 0.0625 1.1375
1.125 0.125 1.1375
1.0625 0.0625 1.2
1.125 0.0625 1.2
1.0625 0 1.2
1.0625 0 1.1375
1.0625 0.125 1.2
1.125 0 1.1375
1.125 0.0625 1.1375
1.1875 0.125 1.1375
1.1875 0.0625 1.1375
1.25 0.125 1.1375
1.1875 0.0625 1.2
1.25 0.0625 1.2
1.1875 0 1.2
1.1875 0 1.1375
1.1875 0.125 1.2
1.25 0 1.1375
1.25 0.0625 1.1375
1.3125 0.125 1.1375
1.3125 0.0625 1.1375
1.375 0.125 1.1375
1.3125 0.0625 1.2
1.375 0.0625 1.2
1.3125 0 1.2
1.3125 0 1.1375
1.3125 0.125 1.2
1.375 0 1.1375
1.375 0.0625 1.1375
1.4375 0.125 1.1375
1.4375 0.0625 1.1375
1.5 0.125 1.1375
1.4375 0.0625 1.2
1.5 0.0625 1.2
1.4375 0 1.2
1.4375 0 1.1375
1.4375 0.125 1.2
1.5 0 1.1375
1.5 0.0625 1.1375
1.5625 0.125 1.1375
1.5625 0.0625 1.1375
1.625 0.125 1.1375
1.5625 0.0625 1.2
1.625 0.0625 1.2
1.5625 0 1.2
1.5625 0 1.1375
1.5625 0.125 1.2
1.625 0 1.1375
1.625 0.0625 1.1375
1.6875 0.125 1.1375
1.6875 0.0625 1.1375
1.75 0.125 1.1375
1.6875 0.0625 1.2
1.75 0.0625 1.2
1.6875 0 1.2
1.6875 0 1.1375
1.6875 0.125 1.2
1.75 0 1.1375
1.75 0.0625 1.1375
1.8125 0.125 1.1375
1.8125 0.0625 1.1375
1.875 0.125 1.1375
1.8125 0.0625 1.2
1.875 0.0625 1.2
1.8125 0 1.2
1.8125 0 1.1375
1.8125 0.125 1.2
1.875 0 1.1375
1.875 0.0625 1.1375
1.9375 0.125 1.1375
1.9375 0.0625 1.1375
2 0.125 1.1375
1.9375 0.0625 1.2
2 0.0625 1.2
1.9375 0 1.2
1.9375 0 1.1375
1.9375 0.125 1.2
2 0 1.1375
2 0.0625 1.1375
2.0625 0.125 1.1375
2.0625 0.0625 1.1375
2.125 0.125 1.1375
2.0625 0.0625 1.2
2.125 0.0625 1.2
2.0625 0 1.2
2.0625 0 1.1375
2.0625 0.125 1.2
2.125 0 1.1375
2.125 0.0625 1.1375
2.1875 0.125 1.1375
2.1875 0.0625 1.1375
2.25 0.125 1.1375
2.1875 0.0625 1.2
2.25 0.0625 1.2
2.1875 0 1.2
2.1875 0 1.1375
2.1875 0.125 1.2
2.25 0 1.1375
2.25 0.0625 1.1375
2.3125 0.125 1.1375
2.3125 0.0625 1.1375
2.375 0.125 1.1375
2.3125 0.0625 1.2
2.375 0.0625 1.2
2.3125 0 1.2
2.3125 0 1.1375
2.3125 0.125 1.2
2.375 0 1.1375
2.375 0.0625 1.1375
2.4375 0.125 1.1375
2.4375 0.0625 1.1375
2.5 0.125 1.1375
2.4375 0.0625 1.2
2.5 0.0625 1.2
2.4375 0 1.2
2.4375 0 1.1375
2.4375 0.125 1.2
2.5 0 1.1375
2.5 0.0625 1.1375
2.5625 0.125 1.1375
2.5625 0.0625 1.1375
2.625 0.125 1.1375
2.5625 0.0625 1.2
2.625 0.0625 1.2
2.5625 0 1.2
2.5625 0 1.1375
2.5625 0.125 1.2
2.625 0 1.1375
2.625 0.0625 1.1375
2.6875 0.125 1.1375
2.6875 0.0625 1.1375
2.75 0.125 1.1375
2.6875 0.0625 1.2
2.75 0.0625 1.2
2.6875 0 1.2
2.6875 0 1.1375
2.6875 0.125 1.2
2.75 0 1.1375
2.75 0.0625 1.1375
2.8125 0.125 1.1375
2.8125 0.0625 1.1375
2.875 0.125 1.1375
2.8125 0.0625 1.2
2.875 0.0625 1.2
2.8125 0 1.2
2.8125 0 1.1375
2.8125 0.125 1.2
2.875 0 1.1375
2.875 0.0625 1.1375
2.9375 0.125 1.1375
2.9375 0.0625 1.1375
3 0.125 1.1375
2.9375 0.0625 1.2
3 0.0625 1.2
2.9375 0 1.2
2.9375 0 1.1375
2.9375 0.125 1.2
3 0 1.1375
3 0.0625 1.1375
3.0625 0.125 1.1375
3.0625 0.0625 1.1375
3.125 0.125 1.1375
3.0625 0.0625 1.2
3.125 0.0625 1.2
3.0625 0 1.2
3.0625 0 1.1375
3.0625 0.125 1.2
3.125 0 1.1375
3.125 0.0625 1.1375
3.1875 0.125 1.1375
3.1875 0.0625 1.1375
3.25 0.125 1.1375
3.1875 0.0625 1.2
3.25 0.0625 1.2
3.1875 0 1.2
3.1875 0 1.1375
3.1875 0.125 1.2
3.25 0 1.1375
3.25 0.0625 1.1375
3.3125 0.125 1.1375
3.3125 0.0625 1.1375
3.375 0.125 1.1375
3.3125 0.0625 1.2
3.375 0.0625 1.2
3.3125 0 1.2
3.3125 0 1.1375
3.3125 0.125 1.2
3.375 0 1.1375
3.375 0.0625 1.1375
3.4375 0.125 1.1375
3.4375 0.0625 1.1375
3.5 0.125 1.1375
3.4375 0.0625 1.2
3.5 0.0625 1.2
3.4375 0 1.2
3.4375 0 1.1375
3.4375 0.125 1.2
3.5 0 1.1375
3.5 0.0625 1.1375
3.5625 0.125 1.1375
3.5625 0.0625 1.1375
3.625 0.125 1.1375
3.5625 0.0625 1.2
3.625 0.0625 1.2
3.5625 0 1.2
3.5625 0 1.1375
3.5625 0.125 1.2
3.625 0 1.1375
3.625 0.0625 1.1375
3.6875 0.125 1.1375
3.6875 0.0625 1.1375
3.75 0.125 1.1375
3.6875 0.0625 1.2
3.75 0.0625 1.2
3.6875 0 1.2
3.6875 0 1.1375
3.6875 0.125 1.2
3.75 0 1.1375
3.75 0.0625 1.1375
3.8125 0.125 1.1375
3.8125 0.0625 1.1375
3.875 0.125 1.1375
3.8125 0.0625 1.2
3.875 0.0625 1.2
3.8125 0 1.2
3.8125 0 1.1375
3.8125 0.125 1.2
3.875 0 1.1375
3.875 0.0625 1.1375
3.9375 0.125 1.1375
3.9375 0.0625 1.1375
4 0.125 1.1375
3.9375 0.0625 1.2
4 0.0625 1.2
3.9375 0 1.2
3.9375 0 1.1375
3.9375 0.125 1.2
4 0 1.1375
4 0.0625 1.1375
0.0625 0.25 1.1375
0.0625 0.1875 1.1375
0.125 0.25 1.1375
0.0625 0.1875 1.2
0.125 0.1875 1.2
0 0.25 1.1375
0 0.1875 1.1375
0.0625 0.25 1.2
0 0.1875 1.2
0.125 0.1875 1.1375
0.1875 0.25 1.1375
0.1875 0.1875 1.1375
0.25 0.25 1.1375
0.1875 0.1875 1.2
0.25 0.1875 1.2
0.1875 0.25 1.2
0.25 0.1875 1.1375
0.3125 0.25 1.1375
0.3125 0.1875 1.1375
0.375 0.25 1.1375
0.3125 0.1875 1.2
0.375 0.1875 1.2
0.3125 0.25 1.2
0.375 0.1875 1.1375
0.4375 0.25 1.1375
0.4375 0.1875 1.1375
0.5 0.25 1.1375
0.4375 0.1875 1.2
0.5 0.1875 1.2
0.4375 0.25 1.2
0.5 0.1875 1.1375
0.5625 0.25 1.1375
0.5625 0.1875 1.1375
0.625 0.25 1.1375
0.5625 0.1875 1.2
0.625 0.1875 1.2
0.5625 0.25 1.2
0.625 0.1875 1.1375
0.6875 0.25 1.1375
0.6875 0.1875 1.1375
0.75 0.25 1.1375
0.6875 0.1875 1.2
0.75 0.1875 1.2
0.6875 0.25 1.2
0.75 0.1875 1.1375
0.8125 0.25 1.1375
0.8125 0.1875 1.1375
0.875 0.25 1.1375
0.8125 0.1875 1.2
0.875 0.1875 1.2
0.8125 0.25 1.2
0.875 0.1875 1.1375
0.9375 0.25 1.1375
0.9375 0.1875 1.1375
1 0.25 1.1375
0.9375 0.1875 1.2
1 0.1875 1.2
0.9375 0.25 1.2
1 0.1875 1.1375
1.0625 0.25 1.1375
1.0625 0.1875 1.1375
1.125 0.25 1.1375
1.0625 0.1875 1.2
1.125 0.1875 1.2
1.0625 0.25 1.2
1.125 0.1875 1.1375
1.1875 0.25 1.1375
1.1875 0.1875 1.1375
1.25 0.25 1.1375
1.1875 0.1875 1.2
1.25 0.1875 1.2
1.1875 0.25 1.2
1.25 0.1875 1.1375
1.3125 0.25 1.1375
1.3125 0.1875 1.1375
1.375 0.25 1.1375
1.3125 0.1875 1.2
1.375 0.1875 1.2
1.3125 0.25 1.2
1.375 0.1875 1.1375
1.4375 0.25 1.1375
1.4375 0.1875 1.1375
1.5 0.25 1.1375
1.4375 0.1875 1.2
1.5 0.1875 1.2
1.4375 0.25 1.2
1.5 0.1875 1.1375
1.5625 0.25 1.1375
1.5625 0.1875 1.1375
1.625 0.25 1.1375
1.5625 0.1875 1.2
1.625 0.1875 1.2
1.5625 0.25 1.2
1.625 0.1875 1.1375
1.6875 0.25 1.1375
1.6875 0.1875 1.1375
1.75 0.25 1.1375
1.6875 0.1875 1.2
1.75 0.1875 1.2
1.6875 0.25 1.2
1.75 0.1875 1.1375
1.8125 0.25 1.1375
1.8125 0.1875 1.1375
1.875 0.25 1.1375
1.8125 0.1875 1.2
1.875 0.1875 1.2
1.8125 0.25 1.2
1.875 0.1875 1.1375
1.9375 0.25 1.1375
1.9375 0.1875 1.1375
2 0.25 1.1375
1.9375 0.1875 1.2
2 0.1875 1.2
1.9375 0.25 1.2
2 0.1875 1.1375
2.0625 0.25 1.1375
2.0625 0.1875 1.1375
2.125 0.25 1.1375
2.0625 0.1875 1.2
2.125 0.1875 1.2
2.0625 0.25 1.2
2.125 0.1875 1.1375
2.1875 0.25 1.1375
2.1875 0.1875 1.1375
2.25 0.25 1.1375
2.1875 0.1875 1.2
2.25 0.1875 1.2
2.1875 0.25 1.2
2.25 0.1875 1.1375
2.3125 0.25 1.1375
2.3125 0.1875 1.1375
2.375 0.25 1.1375
2.3125 0.1875 1.2
2.375 0.1875 1.2
2.3125 0.25 1.2
2.375 0.1875 1.1375
2.4375 0.25 1.1375
2.4375 0.1875 1.1375
2.5 0.25 1.1375
2.4375 0.1875 1.2
2.5 0.1875 1.2
2.4375 0.25 1.2
2.5 0.1875 1.1375
2.5625 0.25 1.1375
2.5625 0.1875 1.1375
2.625 0.25 1.1375
2.5625 0.1875 1.2
2.625 0.1875 1.2
2.5625 0.25 1.2
2.625 0.1875 1.1375
2.6875 0.25 1.1375
2.6875 0.1875 1.1375
2.75 0.25 1.1375
2.6875 0.1875 1.2
2.75 0.1875 1.2
2.6875 0.25 1.2
2.75 0.1875 1.1375
2.8125 0.25 1.1375
2.8125 0.1875 1.1375
2.875 0.25 1.1375
2.8125 0.1875 1.2
2.875 0.1875 1.2
2.8125 0.25 1.2
2.875 0.1875 1.1375
2.9375 0.25 1.1375
2.9375 0.1875 1.1375
3 0.25 1.1375
2.9375 0.1875 1.2
3 0.1875 1.2
2.9375 0.25 1.2
3 0.1875 1.1375
3.0625 0.25 1.1375
3.0625 0.1875 1.1375
3.125 0.25 1.1375
3.0625 0.1875 1.2
3.125 0.1875 1.2
3.0625 0.25 1.2
3.125 0.1875 1.1375
3.1875 0.25 1.1375
3.1875 0.1875 1.1375
3.25 0.25 1.1375
3.1875 0.1875 1.2
3.25 0.1875 1.2
3.1875 0.25 1.2
3.25 0.1875 1.1375
3.3125 0.25 1.1375
3.3125 0.1875 1.1375
3.375 0.25 1.1375
3.3125 0.1875 1.2
3.375 0.1875 1.2
3.3125 0.25 1.2
3.375 0.1875 1.1375
3.4375 0.25 1.1375
3.4375 0.1875 1.1375
3.5 0.25 1.1375
3.4375 0.1875 1.2
3.5 0.1875 1.2
3.4375 0.25 1.2
3.5 0.1875 1.1375
3.5625 0.25 1.1375
3.5625 0.1875 1.1375
3.625 0.25 1.1375
3.5625 0.1875 1.2
3.625 0.1875 1.2
3.5625 0.25 1.2
3.625 0.1875 1.1375
3.6875 0.25 1.1375
3.6875 0.1875 1.1375
3.75 0.25 1.1375
3.6875 0.1875 1.2
3.75 0.1875 1.2
3.6875 0.25 1.2
3.75 0.1875 1.1375
3.8125 0.25 1.1375
3.8125 0.1875 1.1375
3.875 0.25 1.1375
3.8125 0.1875 1.2
3.875 0.1875 1.2
3.8125 0.25 1.2
3.875 0.1875 1.1375
3.9375 0.25 1.1375
3.9375 0.1875 1.1375
4 0.25 1.1375
3.9375 0.1875 1.2
4 0.1875 1.2
3.9375 0.25 1.2
4 0.1875 1.1375
0.0625 0.375 1.1375
0.0625 0.3125 1.1375
0.125 0.375 1.1375
0.0625 0.3125 1.2
0.125 0.3125 1.2
0 0.375 1.1375
0 0.3125 1.1375
0.0625 0.375 1.2
0 0.3125 1.2
0.125 0.3125 1.1375
0.1875 0.375 1.1375
0.1875 0.3125 1.1375
0.25 0.375 1.1375
0.1875 0.3125 1.2
0.25 0.3125 1.2
0.1875 0.375 1.2
0.25 0.3125 1.1375
0.3125 0.375 1.1375
0.3125 0.3125 1.1375
0.375 0.375 1.1375
0.3125 0.3125 1.2
0.375 0.3125 1.2
0.3125 0.375 1.2
0.375 0.3125 1.1375
0.4375 0.375 1.1375
0.4375 0.3125 1.1375
0.5 0.375 1.1375
0.4375 0.3125 1.2
0.5 0.3125 1.2
0.4375 0.375 1.2
0.5 0.3125 1.1375
0.5625 0.375 1.1375
0.5625 0.3125 1.1375
0.625 0.375 1.1375
0.5625 0.3125 1.2
0.625 0.3125 1.2
0.5625 0.375 1.2
0.625 0.3125 1.1375
0.6875 0.375 1.1375
0.6875 0.3125 1.1375
0.75 0.375 1.1375
0.6875 0.3125 1.2
0.75 0.3125 1.2
0.6875 0.375 1.2
0.75 0.3125 1.1375
0.8125 0.375 1.1375
0.8125 0.3125 1.1375
0.875 0.375 1.1375
0.8125 0.3125 1.2
0.875 0.3125 1.2
0.8125 0.375 1.2
0.875 0.3125 1.1375
0.9375 0.375 1.1375
0.9375 0.3125 1.1375
1 0.375 1.1375
0.9375 0.3125 1.2
1 0.3125 1.2
0.9375 0.375 1.2
1 0.3125 1.1375
1.0625 0.375 1.1375
1.0625 0.3125 1.1375
1.125 0.375 1.1375
1.0625 0.3125 1.2
1.125 0.3125 1.2
1.0625 0.375 1.2
1.125 0.3125 1.1375
1.1875 0.375 1.1375
1.1875 0.3125 1.1375
1.25 0.375 1.1375
1.1875 0.3125 1.2
1.25 0.3125 1.2
1.1875 0.375 1.2
1.25 0.3125 1.1375
1.3125 0.375 1.1375
1.3125 0.3125 1.1375
1.375 0.375 1.1375
1.3125 0.3125 1.2
1.375 0.3125 1.2
1.3125 0.375 1.2
1.375 0.3125 1.1375
1.4375 0.375 1.1375
1.4375 0.3125 1.1375
1.5 0.375 1.1375
1.4375 0.3125 1.2
1.5 0.3125 1.2
1.4375 0.375 1.2
1.5 0.3125 1.1375
1.5625 0.375 1.1375
1.5625 0.3125 1.1375
1.625 0.375 1.1375
1.5625 0.3125 1.2
1.625 0.3125 1.2
1.5625 0.375 1.2
1.625 0.3125 1.1375
1.6875 0.375 1.1375
1.6875 0.3125 1.1375
1.75 0.375 1.1375
1.6875 0.3125 1.2
1.75 0.3125 1.2
1.6875 0.375 1.2
1.75 0.3125 1.1375
1.8125 0.375 1.1375
1.8125 0.3125 1.1375
1.875 0.375 1.1375
1.8125 0.3125 1.2
1.875 0.3125 1.2
1.8125 0.375 1.2
1.875 0.3125 1.1375
1.9375 0.375 1.1375
1.9375 0.3125 1.1375
2 0.375 1.1375
1.9375 0.3125 1.2
2 0.3125 1.2
1.9375 0.375 1.2
2 0.3125 1.1375
2.0625 0.375 1.1375
2.0625 0.3125 1.1375
2.125 0.375 1.1375
2.0625 0.3125 1.2
2.125 0.3125 1.2
2.0625 0.375 1.2
2.125 0.3125 1.1375
2.1875 0.375 1.1375
2.1875 0.3125 1.1375
2.25 0.375 1.1375
2.1875 0.3125 1.2
2.25 0.3125 1.2
2.1875 0.375 1.2
2.25 0.3125 1.1375
2.3125 0.375 1.1375
2.3125 0.3125 1.1375
2.375 0.375 1.1375
2.3125 0.3125 1.2
2.375 0.3125 1.2
2.3125 0.375 1.2
2.375 0.3125 1.1375
2.4375 0.375 1.1375
2.4375 0.3125 1.1375
2.5 0.375 1.1375
2.4375 0.3125 1.2
2.5 0.3125 1.2
2.4375 0.375 1.2
2.5 0.3125 1.1375
2.5625 0.375 1.1375
2.5625 0.3125 1.1375
2.625 0.375 1.1375
2.5625 0.3125 1.2
2.625 0.3125 1.2
2.5625 0.375 1.2
2.625 0.3125 1.1375
2.6875 0.375 1.1375
2.6875 0.3125 1.1375
2.75 0.375 1.1375
2.6875 0.3125 1.2
2.75 0.3125 1.2
2.6875 0.375 1.2
2.75 0.3125 1.1375
2.8125 0.375 1.1375
2.8125 0.3125 1.1375
2.875 0.375 1.1375
2.8125 0.3125 1.2
2.875 0.3125 1.2
2.8125 0.375 1.2
2.875 0.3125 1.1375
2.9375 0.375 1.1375
2.9375 0.3125 1.1375
3 0.375 1.1375
2.9375 0.3125 1.2
3 0.3125 1.2
2.9375 0.375 1.2
3 0.3125 1.1375
3.0625 0.375 1.1375
3.0625 0.3125 1.1375
3.125 0.375 1.1375
3.0625 0.3125 1.2
3.125 0.3125 1.2
3.0625 0.375 1.2
3.125 0.3125 1.1375
3.1875 0.375 1.1375
3.1875 0.3125 1.1375
3.25 0.375 1.1375
3.1875 0.3125 1.2
3.25 0.3125 1.2
3.1875 0.375 1.2
3.25 0.3125 1.1375
3.3125 0.375 1.1375
3.3125 0.3125 1.1375
3.375 0.375 1.1375
3.3125 0.3125 1.2
3.375 0.3125 1.2
3.3125 0.375 1.2
3.375 0.3125 1.1375
3.4375 0.375 1.1375
3.4375 0.3125 1.1375
3.5 0.375 1.1375
3.4375 0.3125 1.2
3.5 0.3125 1.2
3.4375 0.375 1.2
3.5 0.3125 1.1375
3.5625 0.375 1.1375
3.5625 0.3125 1.1375
3.625 0.375 1.1375
3.5625 0.3125 1.2
3.625 0.3125 1.2
3.5625 0.375 1.2
3.625 0.3125 1.1375
3.6875 0.375 1.1375
3.6875 0.3125 1.1375
3.75 0.375 1.1375
3.6875 0.3125 1.2
3.75 0.3125 1.2
3.6875 0.375 1.2
3.75 0.3125 1.1375
3.8125 0.375 1.1375
3.8125 0.3125 1.1375
3.875 0.375 1.1375
3.8125 0.3125 1.2
3.875 0.3125 1.2
3.8125 0.375 1.2
3.875 0.3125 1.1375
3.9375 0.375 1.1375
3.9375 0.3125 1.1375
4 0.375 1.1375
3.9375 0.3125 1.2
4 0.3125 1.2
3.9375 0.375 1.2
4 0.3125 1.1375
0.0625 0.5 1.1375
0.0625 0.4375 1.1375
0.125 0.5 1.1375
0.0625 0.4375 1.2
0.125 0.4375 1.2
0 0.5 1.1375
0 0.4375 1.1375
0.0625 0.5 1.2
0 0.4375 1.2
0.125 0.4375 1.1375
0.1875 0.5 1.1375
0.1875 0.4375 1.1375
0.25 0.5 1.1375
0.1875 0.4375 1.2
0.25 0.4375 1.2
0.1875 0.5 1.2
0.25 0.4375 1.1375
0.3125 0.5 1.1375
0.3125 0.4375 1.1375
0.375 0.5 1.1375
0.3125 0.4375 1.2
0.375 0.4375 1.2
0.3125 0.5 1.2
0.375 0.4375 1.1375
0.4375 0.5 1.1375
0.4375 0.4375 1.1375
0.5 0.5 1.1375
0.4375 0.4375 1.2
0.5 0.4375 1.2
0.4375 0.5 1.2
0.5 0.4375 1.1375
0.5625 0.5 1.1375
0.5625 0.4375 1.1375
0.625 0.5 1.1375
0.5625 0.4375 1.2
0.625 0.4375 1.2
0.5625 0.5 1.2
0.625 0.4375 1.1375
0.6875 0.5 1.1375
0.6875 0.4375 1.1375
0.75 0.5 1.1375
0.6875 0.4375 1.2
0.75 0.4375 1.2
0.6875 0.5 1.2
0.75 0.4375 1.1375
0.8125 0.5 1.1375
0.8125 0.4375 1.1375
0.875 0.5 1.1375
0.8125 0.4375 1.2
0.875 0.4375 1.2
0.8125 0.5 1.2
0.875 0.4375 1.1375
0.9375 0.5 1.1375
0.9375 0.4375 1.1375
1 0.5 1.1375
0.9375 0.4375 1.2
1 0.4375 1.2
0.9375 0.5 1.2
1 0.4375 1.1375
1.0625 0.5 1.1375
1.0625 0.4375 1.1375
1.125 0.5 1.1375
1.0625 0.4375 1.2
1.125 0.4375 1.2
1.0625 0.5 1.2
1.125 0.4375 1.1375
1.1875 0.5 1.1375
1.1875 0.4375 1.1375
1.25 0.5 1.1375
1.1875 0.4375 1.2
1.25 0.4375 1.2
1.1875 0.5 1.2
1.25 0.4375 1.1375
1.3125 0.5 1.1375
1.3125 0.4375 1.1375
1.375 0.5 1.1375
1.3125 0.4375 1.2
1.375 0.4375 1.2
1.3125 0.5 1.2
1.375 0.4375 1.1375
1.4375 0.5 1.1375
1.4375 0.4375 1.1375
1.5 0.5 1.1375
1.4375 0.4375 1.2
1.5 0.4375 1.2
1.4375 0.5 1.2
1.5 0.4375 1.1375
1.5625 0.5 1.1375
1.5625 0.4375 1.1375
1.625 0.5 1.1375
1.5625 0.4375 1.2
1.625 0.4375 1.2
1.5625 0.5 1.2
1.625 0.4375 1.1375
1.6875 0.5 1.1375
1.6875 0.4375 1.1375
1.75 0.5 1.1375
1.6875 0.4375 1.2
1.75 0.4375 1.2
1.6875 0.5 1.2
1.75 0.4375 1.1375
1.8125 0.5 1.1375
1.8125 0.4375 1.1375
1.875 0.5 1.1375
1.8125 0.4375 1.2
1.875 0.4375 1.2
1.8125 0.5 1.2
1.875 0.4375 1.1375
1.9375 0.5 1.1375
1.9375 0.4375 1.1375
2 0.5 1.1375
1.9375 0.4375 1.2
2 0.4375 1.2
1.9375 0.5 1.2
2 0.4375 1.1375
2.0625 0.5 1.1375
2.0625 0.4375 1.1375
2.125 0.5 1.1375
2.0625 0.4375 1.2
2.125 0.4375 1.2
2.0625 0.5 1.2
2.125 0.4375 1.1375
2.1875 0.5 1.1375
2.1875 0.4375 1.1375
2.25 0.5 1.1375
2.1875 0.4375 1.2
2.25 0.4375 1.2
2.1875 0.5 1.2
2.25 0.4375 1.1375
2.3125 0.5 1.1375
2.3125 0.4375 1.1375
2.375 0.5 1.1375
2.3125 0.4375 1.2
2.375 0.4375 1.2
2.3125 0.5 1.2
2.375 0.4375 1.1375
2.4375 0.5 1.1375
2.4375 0.4375 1.1375
2.5 0.5 1.1375
2.4375 0.4375 1.2
2.5 0.4375 1.2
2.4375 0.5 1.2
2.5 0.4375 1.1375
2.5625 0.5 1.1375
2.5625 0.4375 1.1375
2.625 0.5 1.1375
2.5625 0.4375 1.2
2.625 0.4375 1.2
2.5625 0.5 1.2
2.625 0.4375 1.1375
2.6875 0.5 1.1375
2.6875 0.4375 1.1375
2.75 0.5 1.1375
2.6875 0.4375 1.2
2.75 0.4375 1.2
2.6875 0.5 1.2
2.75 0.4375 1.1375
2.8125 0.5 1.1375
2.8125 0.4375 1.1375
2.875 0.5 1.1375
2.8125 0.4375 1.2
2.875 0.4375 1.2
2.8125 0.5 1.2
2.875 0.4375 1.1375
2.9375 0.5 1.1375
2.9375 0.4375 1.1375
3 0.5 1.1375
2.9375 0.4375 1.2
3 0.4375 1.2
2.9375 0.5 1.2
3 0.4375 1.1375
3.0625 0.5 1.1375
3.0625 0.4375 1.1375
3.125 0.5 1.1375
3.0625 0.4375 1.2
3.125 0.4375 1.2
3.0625 0.5 1.2
3.125 0.4375 1.1375
3.1875 0.5 1.1375
3.1875 0.4375 1.1375
3.25 0.5 1.1375
3.1875 0.4375 1.2
3.25 0.4375 1.2
3.1875 0.5 1.2
3.25 0.4375 1.1375
3.3125 0.5 1.1375
3.3125 0.4375 1.1375
3.375 0.5 1.1375
3.3125 0.4375 1.2
3.375 0.4375 1.2
3.3125 0.5 1.2
3.375 0.4375 1.1375
3.4375 0.5 1.1375
3.4375 0.4375 1.1375
3.5 0.5 1.1375
3.4375 0.4375 1.2
3.5 0.4375 1.2
3.4375 0.5 1.2
3.5 0.4375 1.1375
3.5625 0.5 1.1375
3.5625 0.4375 1.1375
3.625 0.5 1.1375
3.5625 0.4375 1.2
3.625 0.4375 1.2
3.5625 0.5 1.2
3.625 0.4375 1.1375
3.6875 0.5 1.1375
3.6875 0.4375 1.1375
3.75 0.5 1.1375
3.6875 0.4375 1.2
3.75 0.4375 1.2
3.6875 0.5 1.2
3.75 0.4375 1.1375
3.8125 0.5 1.1375
3.8125 0.4375 1.1375
3.875 0.5 1.1375
3.8125 0.4375 1.2
3.875 0.4375 1.2
3.8125 0.5 1.2
3.875 0.4375 1.1375
3.9375 0.5 1.1375
3.9375 0.4375 1.1375
4 0.5 1.1375
3.9375 0.4375 1.2
4 0.4375 1.2
3.9375 0.5 1.2
4 0.4375 1.1375
0.0625 0.625 1.1375
0.0625 0.5625 1.1375
0.125 0.625 1.1375
0.0625 0.5625 1.2
0.125 0.5625 1.2
0 0.625 1.1375
0 0.5625 1.1375
0.0625 0.625 1.2
0 0.5625 1.2
0.125 0.5625 1.1375
0.1875 0.625 1.1375
0.1875 0.5625 1.1375
0.25 0.625 1.1375
0.1875 0.5625 1.2
0.25 0.5625 1.2
0.1875 0.625 1.2
0.25 0.5625 1.1375
0.3125 0.625 1.1375
0.3125 0.5625 1.1375
0.375 0.625 1.1375
0.3125 0.5625 1.2
0.375 0.5625 1.2
0.3125 0.625 1.2
0.375 0.5625 1.1375
0.4375 0.625 1.1375
0.4375 0.5625 1.1375
0.5 0.625 1.1375
0.4375 0.5625 1.2
0.5 0.5625 1.2
0.4375 0.625 1.2
0.5 0.5625 1.1375
0.5625 0.625 1.1375
0.5625 0.5625 1.1375
0.625 0.625 1.1375
0.5625 0.5625 1.2
0.625 0.5625 1.2
0.5625 0.625 1.2
0.625 0.5625 1.1375
0.6875 0.625 1.1375
0.6875 0.5625 1.1375
0.75 0.625 1.1375
0.6875 0.5625 1.2
0.75 0.5625 1.2
0.6875 0.625 1.2
0.75 0.5625 1.1375
0.8125 0.625 1.1375
0.8125 0.5625 1.1375
0.875 0.625 1.1375
0.8125 0.5625 1.2
0.875 0.5625 1.2
0.8125 0.625 1.2
0.875 0.5625 1.1375
0.9375 0.625 1.1375
0.9375 0.5625 1.1375
1 0.625 1.1375
0.9375 0.5625 1.2
1 0.5625 1.2
0.9375 0.625 1.2
1 0.5625 1.1375
1.0625 0.625 1.1375
1.0625 0.5625 1.1375
1.125 0.625 1.1375
1.0625 0.5625 1.2
1.125 0.5625 1.2
1.0625 0.625 1.2
1.125 0.5625 1.1375
1.1875 0.625 1.1375
1.1875 0.5625 1.1375
1.25 0.625 1.1375
1.1875 0.5625 1.2
1.25 0.5625 1.2
1.1875 0.625 1.2
1.25 0.5625 1.1375
1.3125 0.625 1.1375
1.3125 0.5625 1.1375
1.375 0.625 1.1375
1.3125 0.5625 1.2
1.375 0.5625 1.2
1.3125 0.625 1.2
1.375 0.5625 1.1375
1.4375 0.625 1.1375
1.4375 0.5625 1.1375
1.5 0.625 1.1375
1.4375 0.5625 1.2
1.5 0.5625 1.2
1.4375 0.625 1.2
1.5 0.5625 1.1375
1.5625 0.625 1.1375
1.5625 0.5625 1.1375
1.625 0.625 1.1375
1.5625 0.5625 1.2
1.625 0.5625 1.2
1.5625 0.625 1.2
1.625 0.5625 1.1375
1.6875 0.625 1.1375
1.6875 0.5625 1.1375
1.75 0.625 1.1375
1.6875 0.5625 1.2
1.75 0.5625 1.2
1.6875 0.625 1.2
1.75 0.5625 1.1375
1.8125 0.625 1.1375
1.8125 0.5625 1.1375
1.875 0.625 1.1375
1.8125 0.5625 1.2
1.875 0.5625 1.2
1.8125 0.625 1.2
1.875 0.5625 1.1375
1.9375 0.625 1.1375
1.9375 0.5625 1.1375
2 0.625 1.1375
1.9375 0.5625 1.2
2 0.5625 1.2
1.9375 0.625 1.2
2 0.5625 1.1375
2.0625 0.625 1.1375
2.0625 0.5625 1.1375
2.125 0.625 1.1375
2.0625 0.5625 1.2
2.125 0.5625 1.2
2.0625 0.625 1.2
2.125 0.5625 1.1375
2.1875 0.625 1.1375
2.1875 0.5625 1.1375
2.25 0.625 1.1375
2.1875 0.5625 1.2
2.25 0.5625 1.2
2.1875 0.625 1.2
2.25 0.5625 1.1375
2.3125 0.625 1.1375
2.3125 0.5625 1.1375
2.375 0.625 1.1375
2.3125 0.5625 1.2
2.375 0.5625 1.2
2.3125 0.625 1.2
2.375 0.5625 1.1375
2.4375 0.625 1.1375
2.4375 0.5625 1.1375
2.5 0.625 1.1375
2.4375 0.5625 1.2
2.5 0.5625 1.2
2.4375 0.625 1.2
2.5 0.5625 1.1375
2.5625 0.625 1.1375
2.5625 0.5625 1.1375
2.625 0.625 1.1375
2.5625 0.5625 1.2
2.625 0.5625 1.2
2.5625 0.625 1.2
2.625 0.5625 1.1375
2.6875 0.625 1.1375
2.6875 0.5625 1.1375
2.75 0.625 1.1375
2.6875 0.5625 1.2
2.75 0.5625 1.2
2.6875 0.625 1.2
2.75 0.5625 1.1375
2.8125 0.625 1.1375
2.8125 0.5625 1.1375
2.875 0.625 1.1375
2.8125 0.5625 1.2
2.875 0.5625 1.2
2.8125 0.625 1.2
2.875 0.5625 1.1375
2.9375 0.625 1.1375
2.9375 0.5625 1.1375
3 0.625 1.1375
2.9375 0.5625 1.2
3 0.5625 1.2
2.9375 0.625 1.2
3 0.5625 1.1375
3.0625 0.625 1.1375
3.0625 0.5625 1.1375
3.125 0.625 1.1375
3.0625 0.5625 1.2
3.125 0.5625 1.2
3.0625 0.625 1.2
3.125 0.5625 1.1375
3.1875 0.625 1.1375
3.1875 0.5625 1.1375
3.25 0.625 1.1375
3.1875 0.5625 1.2
3.25 0.5625 1.2
3.1875 0.625 1.2
3.25 0.5625 1.1375
3.3125 0.625 1.1375
3.3125 0.5625 1.1375
3.375 0.625 1.1375
3.3125 0.5625 1.2
3.375 0.5625 1.2
3.3125 0.625 1.2
3.375 0.5625 1.1375
3.4375 0.625 1.1375
3.4375 0.5625 1.1375
3.5 0.625 1.1375
3.4375 0.5625 1.2
3.5 0.5625 1.2
3.4375 0.625 1.2
3.5 0.5625 1.1375
3.5625 0.625 1.1375
3.5625 0.5625 1.1375
3.625 0.625 1.1375
3.5625 0.5625 1.2
3.625 0.5625 1.2
3.5625 0.625 1.2
3.625 0.5625 1.1375
3.6875 0.625 1.1375
3.6875 0.5625 1.1375
3.75 0.625 1.1375
3.6875 0.5625 1.2
3.75 0.5625 1.2
3.6875 0.625 1.2
3.75 0.5625 1.1375
3.8125 0.625 1.1375
3.8125 0.5625 1.1375
3.875 0.625 1.1375
3.8125 0.5625 1.2
3.875 0.5625 1.2
3.8125 0.625 1.2
3.875 0.5625 1.1375
3.9375 0.625 1.1375
3.9375 0.5625 1.1375
4 0.625 1.1375
3.9375 0.5625 1.2
4 0.5625 1.2
3.9375 0.625 1.2
4 0.5625 1.1375
0.0625 0.75 1.1375
0.0625 0.6875 1.1375
0.125 0.75 1.1375
0.0625 0.6875 1.2
0.125 0.6875 1.2
0 0.75 1.1375
0 0.6875 1.1375
0.0625 0.75 1.2
0 0.6875 1.2
0.125 0.6875 1.1375
0.1875 0.75 1.1375
0.1875 0.6875 1.1375
0.25 0.75 1.1375
0.1875 0.6875 1.2
0.25 0.6875 1.2
0.1875 0.75 1.2
0.25 0.6875 1.1375
0.3125 0.75 1.1375
0.3125 0.6875 1.1375
0.375 0.75 1.1375
0.3125 0.6875 1.2
0.375 0.6875 1.2
0.3125 0.75 1.2
0.375 0.6875 1.1375
0.4375 0.75 1.1375
0.4375 0.6875 1.1375
0.5 0.75 1.1375
0.4375 0.6875 1.2
0.5 0.6875 1.2
0.4375 0.75 1.2
0.5 0.6875 1.1375
0.5625 0.75 1.1375
0.5625 0.6875 1.1375
0.625 0.75 1.1375
0.5625 0.6875 1.2
0.625 0.6875 1.2
0.5625 0.75 1.2
0.625 0.6875 1.1375
0.6875 0.75 1.1375
0.6875 0.6875 1.1375
0.75 0.75 1.1375
0.6875 0.6875 1.2
0.75 0.6875 1.2
0.6875 0.75 1.2
0.75 0.6875 1.1375
0.8125 0.75 1.1375
0.8125 0.6875 1.1375
0.875 0.75 1.1375
0.8125 0.6875 1.2
0.875 0.6875 1.2
0.8125 0.75 1.2
0.875 0.6875 1.1375
0.9375 0.75 1.1375
0.9375 0.6875 1.1375
1 0.75 1.1375
0.9375 0.6875 1.2
1 0.6875 1.2
0.9375 0.75 1.2
1 0.6875 1.1375
1.0625 0.75 1.1375
1.0625 0.6875 1.1375
1.125 0.75 1.1375
1.0625 0.6875 1.2
1.125 0.6875 1.2
1.0625 0.75 1.2
1.125 0.6875 1.1375
1.1875 0.75 1.1375
1.1875 0.6875 1.1375
1.25 0.75 1.1375
1.1875 0.6875 1.2
1.25 0.6875 1.2
1.1875 0.75 1.2
1.25 0.6875 1.1375
1.3125 0.75 1.1375
1.3125 0.6875 1.1375
1.375 0.75 1.1375
1.3125 0.6875 1.2
1.375 0.6875 1.2
1.3125 0.75 1.2
1.375 0.6875 1.1375
1.4375 0.75 1.1375
1.4375 0.6875 1.1375
1.5 0.75 1.1375
1.4375 0.6875 1.2
1.5 0.6875 1.2
1.4375 0.75 1.2
1.5 0.6875 1.1375
1.5625 0.75 1.1375
1.5625 0.6875 1.1375
1.625 0.75 1.1375
1.5625 0.6875 1.2
1.625 0.6875 1.2
1.5625 0.75 1.2
1.625 0.6875 1.1375
1.6875 0.75 1.1375
1.6875 0.6875 1.1375
1.75 0.75 1.1375
1.6875 0.6875 1.2
1.75 0.6875 1.2
1.6875 0.75 1.2
1.75 0.6875 1.1375
1.8125 0.75 1.1375
1.8125 0.6875 1.1375
1.875 0.75 1.1375
1.8125 0.6875 1.2
1.875 0.6875 1.2
1.8125 0.75 1.2
1.875 0.6875 1.1375
1.9375 0.75 1.1375
1.9375 0.6875 1.1375
2 0.75 1.1375
1.9375 0.6875 1.2
2 0.6875 1.2
1.9375 0.75 1.2
2 0.6875 1.1375
2.0625 0.75 1.1375
2.0625 0.6875 1.1375
2.125 0.75 1.1375
2.0625 0.6875 1.2
2.125 0.6875 1.2
2.0625 0.75 1.2
2.125 0.6875 1.1375
2.1875 0.75 1.1375
2.1875 0.6875 1.1375
2.25 0.75 1.1375
2.1875 0.6875 1.2
2.25 0.6875 1.2
2.1875 0.75 1.2
2.25 0.6875 1.1375
2.3125 0.75 1.1375
2.3125 0.6875 1.1375
2.375 0.75 1.1375
2.3125 0.6875 1.2
2.375 0.6875 1.2
2.3125 0.75 1.2
2.375 0.6875 1.1375
2.4375 0.75 1.1375
2.4375 0.6875 1.1375
2.5 0.75 1.1375
2.4375 0.6875 1.2
2.5 0.6875 1.2
2.4375 0.75 1.2
2.5 0.6875 1.1375
2.5625 0.75 1.1375
2.5625 0.6875 1.1375
2.625 0.75 1.1375
2.5625 0.6875 1.2
2.625 0.6875 1.2
2.5625 0.75 1.2
2.625 0.6875 1.1375
2.6875 0.75 1.1375
2.6875 0.6875 1.1375
2.75 0.75 1.1375
2.6875 0.6875 1.2
2.75 0.6875 1.2
2.6875 0.75 1.2
2.75 0.6875 1.1375
2.8125 0.75 1.1375
2.8125 0.6875 1.1375
2.875 0.75 1.1375
2.8125 0.6875 1.2
2.875 0.6875 1.2
2.8125 0.75 1.2
2.875 0.6875 1.1375
2.9375 0.75 1.1375
2.9375 0.6875 1.1375
3 0.75 1.1375
2.9375 0.6875 1.2
3 0.6875 1.2
2.9375 0.75 1.2
3 0.6875 1.1375
3.0625 0.75 1.1375
3.0625 0.6875 1.1375
3.125 0.75 1.1375
3.0625 0.6875 1.2
3.125 0.6875 1.2
3.0625 0.75 1.2
3.125 0.6875 1.1375
3.1875 0.75 1.1375
3.1875 0.6875 1.1375
3.25 0.75 1.1375
3.1875 0.6875 1.2
3.25 0.6875 1.2
3.1875 0.75 1.2
3.25 0.6875 1.1375
3.3125 0.75 1.1375
3.3125 0.6875 1.1375
3.375 0.75 1.1375
3.3125 0.6875 1.2
3.375 0.6875 1.2
3.3125 0.75 1.2
3.375 0.6875 1.1375
3.4375 0.75 1.1375
3.4375 0.6875 1.1375
3.5 0.75 1.1375
3.4375 0.6875 1.2
3.5 0.6875 1.2
3.4375 0.75 1.2
3.5 0.6875 1.1375
3.5625 0.75 1.1375
3.5625 0.6875 1.1375
3.625 0.75 1.1375
3.5625 0.6875 1.2
3.625 0.6875 1.2
3.5625 0.75 1.2
3.625 0.6875 1.1375
3.6875 0.75 1.1375
3.6875 0.6875 1.1375
3.75 0.75 1.1375
3.6875 0.6875 1.2
3.75 0.6875 1.2
3.6875 0.75 1.2
3.75 0.6875 1.1375
3.8125 0.75 1.1375
3.8125 0.6875 1.1375
3.875 0.75 1.1375
3.8125 0.6875 1.2
3.875 0.6875 1.2
3.8125 0.75 1.2
3.875 0.6875 1.1375
3.9375 0.75 1.1375
3.9375 0.6875 1.1375
4 0.75 1.1375
3.9375 0.6875 1.2
4 0.6875 1.2
3.9375 0.75 1.2
4 0.6875 1.1375
0.0625 0.875 1.1375
0.0625 0.8125 1.1375
0.125 0.875 1.1375
0.0625 0.8125 1.2
0.125 0.8125 1.2
0 0.875 1.1375
0 0.8125 1.1375
0.0625 0.875 1.2
0 0.8125 1.2
0.125 0.8125 1.1375
0.1875 0.875 1.1375
0.1875 0.8125 1.1375
0.25 0.875 1.1375
0.1875 0.8125 1.2
0.25 0.8125 1.2
0.1875 0.875 1.2
0.25 0.8125 1.1375
0.3125 0.875 1.1375
0.3125 0.8125 1.1375
0.375 0.875 1.1375
0.3125 0.8125 1.2
0.375 0.8125 1.2
0.3125 0.875 1.2
0.375 0.8125 1.1375
0.4375 0.875 1.1375
0.4375 0.8125 1.1375
0.5 0.875 1.1375
0.4375 0.8125 1.2
0.5 0.8125 1.2
0.4375 0.875 1.2
0.5 0.8125 1.1375
0.5625 0.875 1.1375
0.5625 0.8125 1.1375
0.625 0.875 1.1375
0.5625 0.8125 1.2
0.625 0.8125 1.2
0.5625 0.875 1.2
0.625 0.8125 1.1375
0.6875 0.875 1.1375
0.6875 0.8125 1.1375
0.75 0.875 1.1375
0.6875 0.8125 1.2
0.75 0.8125 1.2
0.6875 0.875 1.2
0.75 0.8125 1.1375
0.8125 0.875 1.1375
0.8125 0.8125 1.1375
0.875 0.875 1.1375
0.8125 0.8125 1.2
0.875 0.8125 1.2
0.8125 0.875 1.2
0.875 0.8125 1.1375
0.9375 0.875 1.1375
0.9375 0.8125 1.1375
1 0.875 1.1375
0.9375 0.8125 1.2
1 0.8125 1.2
0.9375 0.875 1.2
1 0.8125 1.1375
1.0625 0.875 1.1375
1.0625 0.8125 1.1375
1.125 0.875 1.1375
1.0625 0.8125 1.2
1.125 0.8125 1.2
1.0625 0.875 1.2
1.125 0.8125 1.1375
1.1875 0.875 1.1375
1.1875 0.8125 1.1375
1.25 0.875 1.1375
1.1875 0.8125 1.2
1.25 0.8125 1.2
1.1875 0.875 1.2
1.25 0.8125 1.1375
1.3125 0.875 1.1375
1.3125 0.8125 1.1375
1.375 0.875 1.1375
1.3125 0.8125 1.2
1.375 0.8125 1.2
1.3125 0.875 1.2
1.375 0.8125 1.1375
1.4375 0.875 1.1375
1.4375 0.8125 1.1375
1.5 0.875 1.1375
1.4375 0.8125 1.2
1.5 0.8125 1.2
1.4375 0.875 1.2
1.5 0.8125 1.1375
1.5625 0.875 1.1375
1.5625 0.8125 1.1375
1.625 0.875 1.1375
1.5625 0.8125 1.2
1.625 0.8125 1.2
1.5625 0.875 1.2
1.625 0.8125 1.1375
1.6875 0.875 1.1375
1.6875 0.8125 1.1375
1.75 0.875 1.1375
1.6875 0.8125 1.2
1.75 0.8125 1.2
1.6875 0.875 1.2
1.75 0.8125 1.1375
1.8125 0.875 1.1375
1.8125 0.8125 1.1375
1.875 0.875 1.1375
1.8125 0.8125 1.2
1.875 0.8125 1.2
1.8125 0.875 1.2
1.875 0.8125 1.1375
1.9375 0.875 1.1375
1.9375 0.8125 1.1375
2 0.875 1.1375
1.9375 0.8125 1.2
2 0.8125 1.2
1.9375 0.875 1.2
2 0.8125 1.1375
2.0625 0.875 1.1375
2.0625 0.8125 1.1375
2.125 0.875 1.1375
2.0625 0.8125 1.2
2.125 0.8125 1.2
2.0625 0.875 1.2
2.125 0.8125 1.1375
2.1875 0.875 1.1375
2.1875 0.8125 1.1375
2.25 0.875 1.1375
2.1875 0.8125 1.2
2.25 0.8125 1.2
2.1875 0.875 1.2
2.25 0.8125 1.1375
2.3125 0.875 1.1375
2.3125 0.8125 1.1375
2.375 0.875 1.1375
2.3125 0.8125 1.2
2.375 0.8125 1.2
2.3125 0.875 1.2
2.375 0.8125 1.1375
2.4375 0.875 1.1375
2.4375 0.8125 1.1375
2.5 0.875 1.1375
2.4375 0.8125 1.2
2.5 0.8125 1.2
2.4375 0.875 1.2
2.5 0.8125 1.1375
2.5625 0.875 1.1375
2.5625 0.8125 1.1375
2.625 0.875 1.1375
2.5625 0.8125 1.2
2.625 0.8125 1.2
2.5625 0.875 1.2
2.625 0.8125 1.1375
2.6875 0.875 1.1375
2.6875 0.8125 1.1375
2.75 0.875 1.1375
2.6875 0.8125 1.2
2.75 0.8125 1.2
2.6875 0.875 1.2
2.75 0.8125 1.1375
2.8125 0.875 1.1375
2.8125 0.8125 1.1375
2.875 0.875 1.1375
2.8125 0.8125 1.2
2.875 0.8125 1.2
2.8125 0.875 1.2
2.875 0.8125 1.1375
2.9375 0.875 1.1375
2.9375 0.8125 1.1375
3 0.875 1.1375
2.9375 0.8125 1.2
3 0.8125 1.2
2.9375 0.875 1.2
3 0.8125 1.1375
3.0625 0.875 1.1375
3.0625 0.8125 1.1375
3.125 0.875 1.1375
3.0625 0.8125 1.2
3.125 0.8125 1.2
3.0625 0.875 1.2
3.125 0.8125 1.1375
3.1875 0.875 1.1375
3.1875 0.8125 1.1375
3.25 0.875 1.1375
3.1875 0.8125 1.2
3.25 0.8125 1.2
3.1875 0.875 1.2
3.25 0.8125 1.1375
3.3125 0.875 1.1375
3.3125 0.8125 1.1375
3.375 0.875 1.1375
3.3125 0.8125 1.2
3.375 0.8125 1.2
3.3125 0.875 1.2
3.375 0.8125 1.1375
3.4375 0.875 1.1375
3.4375 0.8125 1.1375
3.5 0.875 1.1375
3.4375 0.8125 1.2
3.5 0.8125 1.2
3.4375 0.875 1.2
3.5 0.8125 1.1375
3.5625 0.875 1.1375
3.5625 0.8125 1.1375
3.625 0.875 1.1375
3.5625 0.8125 1.2
3.625 0.8125 1.2
3.5625 0.875 1.2
3.625 0.8125 1.1375
3.6875 0.875 1.1375
3.6875 0.8125 1.1375
3.75 0.875 1.1375
3.6875 0.8125 1.2
3.75 0.8125 1.2
3.6875 0.875 1.2
3.75 0.8125 1.1375
3.8125 0.875 1.1375
3.8125 0.8125 1.1375
3.875 0.875 1.1375
3.8125 0.8125 1.2
3.875 0.8125 1.2
3.8125 0.875 1.2
3.875 0.8125 1.1375
3.9375 0.875 1.1375
3.9375 0.8125 1.1375
4 0.875 1.1375
3.9375 0.8125 1.2
4 0.8125 1.2
3.9375 0.875 1.2
4 0.8125 1.1375
0.0625 1 1.1375
0.0625 0.9375 1.1375
0.125 1 1.1375
0.0625 0.9375 1.2
0.125 0.9375 1.2
0 1 1.1375
0 0.9375 1.1375
0.0625 1 1.2
0 0.9375 1.2
0.125 0.9375 1.1375
0.1875 1 1.1375
0.1875 0.9375 1.1375
0.25 1 1.1375
0.1875 0.9375 1.2
0.25 0.9375 1.2
0.1875 1 1.2
0.25 0.9375 1.1375
0.3125 1 1.1375
0.3125 0.9375 1.1375
0.375 1 1.1375
0.3125 0.9375 1.2
0.375 0.9375 1.2
0.3125 1 1.2
0.375 0.9375 1.1375
0.4375 1 1.1375
0.4375 0.9375 1.1375
0.5 1 1.1375
0.4375 0.9375 1.2
0.5 0.9375 1.2
0.4375 1 1.2
0.5 0.9375 1.1375
0.5625 1 1.1375
0.5625 0.9375 1.1375
0.625 1 1.1375
0.5625 0.9375 1.2
0.625 0.9375 1.2
0.5625 1 1.2
0.625 0.9375 1.1375
0.6875 1 1.1375
0.6875 0.9375 1.1375
0.75 1 1.1375
0.6875 0.9375 1.2
0.75 0.9375 1.2
0.6875 1 1.2
0.75 0.9375 1.1375
0.8125 1 1.1375
0.8125 0.9375 1.1375
0.875 1 1.1375
0.8125 0.9375 1.2
0.875 0.9375 1.2
0.8125 1 1.2
0.875 0.9375 1.1375
0.9375 1 1.1375
0.9375 0.9375 1.1375
1 1 1.1375
0.9375 0.9375 1.2
1 0.9375 1.2
0.9375 1 1.2
1 0.9375 1.1375
1.0625 1 1.1375
1.0625 0.9375 1.1375
1.125 1 1.1375
1.0625 0.9375 1.2
1.125 0.9375 1.2
1.0625 1 1.2
1.125 0.9375 1.1375
1.1875 1 1.1375
1.1875 0.9375 1.1375
1.25 1 1.1375
1.1875 0.9375 1.2
1.25 0.9375 1.2
1.1875 1 1.2
1.25 0.9375 1.1375
1.3125 1 1.1375
1.3125 0.9375 1.1375
1.375 1 1.1375
1.3125 0.9375 1.2
1.375 0.9375 1.2
1.3125 1 1.2
1.375 0.9375 1.1375
1.4375 1 1.1375
1.4375 0.9375 1.1375
1.5 1 1.1375
1.4375 0.9375 1.2
1.5 0.9375 1.2
1.4375 1 1.2
1.5 0.9375 1.1375
1.5625 1 1.1375
1.5625 0.9375 1.1375
1.625 1 1.1375
1.5625 0.9375 1.2
1.625 0.9375 1.2
1.5625 1 1.2
1.625 0.9375 1.1375
1.6875 1 1.1375
1.6875 0.9375 1.1375
1.75 1 1.1375
1.6875 0.9375 1.2
1.75 0.9375 1.2
1.6875 1 1.2
1.75 0.9375 1.1375
1.8125 1 1.1375
1.8125 0.9375 1.1375
1.875 1 1.1375
1.8125 0.9375 1.2
1.875 0.9375 1.2
1.8125 1 1.2
1.875 0.9375 1.1375
1.9375 1 1.1375
1.9375 0.9375 1.1375
2 1 1.1375
1.9375 0.9375 1.2
2 0.9375 1.2
1.9375 1 1.2
2 0.9375 1.1375
2.0625 1 1.1375
2.0625 0.9375 1.1375
2.125 1 1.1375
2.0625 0.9375 1.2
2.125 0.9375 1.2
2.0625 1 1.2
2.125 0.9375 1.1375
2.1875 1 1.1375
2.1875 0.9375 1.1375
2.25 1 1.1375
2.1875 0.9375 1.2
2.25 0.9375 1.2
2.1875 1 1.2
2.25 0.9375 1.1375
2.3125 1 1.1375
2.3125 0.9375 1.1375
2.375 1 1.1375
2.3125 0.9375 1.2
2.375 0.9375 1.2
2.3125 1 1.2
2.375 0.9375 1.1375
2.4375 1 1.1375
2.4375 0.9375 1.1375
2.5 1 1.1375
2.4375 0.9375 1.2
2.5 0.9375 1.2
2.4375 1 1.2
2.5 0.9375 1.1375
2.5625 1 1.1375
2.5625 0.9375 1.1375
2.625 1 1.1375
2.5625 0.9375 1.2
2.625 0.9375 1.2
2.5625 1 1.2
2.625 0.9375 1.1375
2.6875 1 1.1375
2.6875 0.9375 1.1375
2.75 1 1.1375
2.6875 0.9375 1.2
2.75 0.9375 1.2
2.6875 1 1.2
2.75 0.9375 1.1375
2.8125 1 1.1375
2.8125 0.9375 1.1375
2.875 1 1.1375
2.8125 0.9375 1.2
2.875 0.9375 1.2
2.8125 1 1.2
2.875 0.9375 1.1375
2.9375 1 1.1375
2.9375 0.9375 1.1375
3 1 1.1375
2.9375 0.9375 1.2
3 0.9375 1.2
2.9375 1 1.2
3 0.9375 1.1375
3.0625 1 1.1375
3.0625 0.9375 1.1375
3.125 1 1.1375
3.0625 0.9375 1.2
3.125 0.9375 1.2
3.0625 1 1.2
3.125 0.9375 1.1375
3.1875 1 1.1375
3.1875 0.9375 1.1375
3.25 1 1.1375
3.1875 0.9375 1.2
3.25 0.9375 1.2
3.1875 1 1.2
3.25 0.9375 1.1375
3.3125 1 1.1375
3.3125 0.9375 1.1375
3.375 1 1.1375
3.3125 0.9375 1.2
3.375 0.9375 1.2
3.3125 1 1.2
3.375 0.9375 1.1375
3.4375 1 1.1375
3.4375 0.9375 1.1375
3.5 1 1.1375
3.4375 0.9375 1.2
3.5 0.9375 1.2
3.4375 1 1.2
3.5 0.9375 1.1375
3.5625 1 1.1375
3.5625 0.9375 1.1375
3.625 1 1.1375
3.5625 0.9375 1.2
3.625 0.9375 1.2
3.5625 1 1.2
3.625 0.9375 1.1375
3.6875 1 1.1375
3.6875 0.9375 1.1375
3.75 1 1.1375
3.6875 0.9375 1.2
3.75 0.9375 1.2
3.6875 1 1.2
3.75 0.9375 1.1375
3.8125 1 1.1375
3.8125 0.9375 1.1375
3.875 1 1.1375
3.8125 0.9375 1.2
3.875 0.9375 1.2
3.8125 1 1.2
3.875 0.9375 1.1375
3.9375 1 1.1375
3.9375 0.9375 1.1375
4 1 1.1375
3.9375 0.9375 1.2
4 0.9375 1.2
3.9375 1 1.2
4 0.9375 1.1375
0.0625 0.125 1.2625
0.0625 0.0625 1.2625
0.125 0.125 1.2625
0.0625 0.0625 1.325
0.125 0.0625 1.325
0.0625 0 1.325
0 0 1.2625
0.0625 0 1.2625
0 0.125 1.2625
0 0.0625 1.2625
0.0625 0.125 1.325
0 0.0625 1.325
0.125 0 1.2625
0.125 0.0625 1.2625
0.1875 0.125 1.2625
0.1875 0.0625 1.2625
0.25 0.125 1.2625
0.1875 0.0625 1.325
0.25 0.0625 1.325
0.1875 0 1.325
0.1875 0 1.2625
0.1875 0.125 1.325
0.25 0 1.2625
0.25 0.0625 1.2625
0.3125 0.125 1.2625
0.3125 0.0625 1.2625
0.375 0.125 1.2625
0.3125 0.0625 1.325
0.375 0.0625 1.325
0.3125 0 1.325
0.3125 0 1.2625
0.3125 0.125 1.325
0.375 0 1.2625
0.375 0.0625 1.2625
0.4375 0.125 1.2625
0.4375 0.0625 1.2625
0.5 0.125 1.2625
0.4375 0.0625 1.325
0.5 0.0625 1.325
0.4375 0 1.325
0.4375 0 1.2625
0.4375 0.125 1.325
0.5 0 1.2625
0.5 0.0625 1.2625
0.5625 0.125 1.2625
0.5625 0.0625 1.2625
0.625 0.125 1.2625
0.5625 0.0625 1.325
0.625 0.0625 1.325
0.5625 0 1.325
0.5625 0 1.2625
0.5625 0.125 1.325
0.625 0 1.2625
0.625 0.0625 1.2625
0.6875 0.125 1.2625
0.6875 0.0625 1.2625
0.75 0.125 1.2625
0.6875 0.0625 1.325
0.75 0.0625 1.325
0.6875 0 1.325
0.6875 0 1.2625
0.6875 0.125 1.325
0.75 0 1.2625
0.75 0.0625 1.2625
0.8125 0.125 1.2625
0.8125 0.0625 1.2625
0.875 0.125 1.2625
0.8125 0.0625 1.325
0.875 0.0625 1.325
0.8125 0 1.325
0.8125 0 1.2625
0.8125 0.125 1.325
0.875 0 1.2625
0.875 0.0625 1.2625
0.9375 0.125 1.2625
0.9375 0.0625 1.2625
1 0.125 1.2625
0.9375 0.0625 1.325
1 0.0625 1.325
0.9375 0 1.325
0.9375 0 1.2625
0.9375 0.125 1.325
1 0 1.2625
1 0.0625 1.2625
1.0625 0.125 1.2625
1.0625 0.0625 1.2625
1.125 0.125 1.2625
1.0625 0.0625 1.325
1.125 0.0625 1.325
1.0625 0 1.325
1.0625 0 1.2625
1.0625 0.125 1.325
1.125 0 1.2625
1.125 0.0625 1.2625
1.1875 0.125 1.2625
1.1875 0.0625 1.2625
1.25 0.125 1.2625
1.1875 0.0625 1.325
1.25 0.0625 1.325
1.1875 0 1.325
1.1875 0 1.2625
1.1875 0.125 1.325
1.25 0 1.2625
1.25 0.0625 1.2625
1.3125 0.125 1.2625
1.3125 0.0625 1.2625
1.375 0.125 1.2625
1.3125 0.0625 1.325
1.375 0.0625 1.325
1.3125 0 1.325
1.3125 0 1.2625
1.3125 0.125 1.325
1.375 0 1.2625
1.375 0.0625 1.2625
1.4375 0.125 1.2625
1.4375 0.0625 1.2625
1.5 0.125 1.2625
1.4375 0.0625 1.325
1.5 0.0625 1.325
1.4375 0 1.325
1.4375 0 1.2625
1.4375 0.125 1.325
1.5 0 1.2625
1.5 0.0625 1.2625
1.5625 0.125 1.2625
1.5625 0.0625 1.2625
1.625 0.125 1.2625
1.5625 0.0625 1.325
1.625 0.0625 1.325
1.5625 0 1.325
1.5625 0 1.2625
1.5625 0.125 1.325
1.625 0 1.2625
1.625 0.0625 1.2625
1.6875 0.125 1.2625
1.6875 0.0625 1.2625
1.75 0.125 1.2625
1.6875 0.0625 1.325
1.75 0.0625 1.325
1.6875 0 1.325
1.6875 0 1.2625
1.6875 0.125 1.325
1.75 0 1.2625
1.75 0.0625 1.2625
1.8125 0.125 1.2625
1.8125 0.0625 1.2625
1.875 0.125 1.2625
1.8125 0.0625 1.325
1.875 0.0625 1.325
1.8125 0 1.325
1.8125 0 1.2625
1.8125 0.125 1.325
1.875 0 1.2625
1.875 0.0625 1.2625
1.9375 0.125 1.2625
1.9375 0.0625 1.2625
2 0.125 1.2625
1.9375 0.0625 1.325
2 0.0625 1.325
1.9375 0 1.325
1.9375 0 1.2625
1.9375 0.125 1.325
2 0 1.2625
2 0.0625 1.2625
2.0625 0.125 1.2625
2.0625 0.0625 1.2625
2.125 0.125 1.2625
2.0625 0.0625 1.325
2.125 0.0625 1.325
2.0625 0 1.325
2.0625 0 1.2625
2.0625 0.125 1.325
2.125 0 1.2625
2.125 0.0625 1.2625
2.1875 0.125 1.2625
2.1875 0.0625 1.2625
2.25 0.125 1.2625
2.1875 0.0625 1.325
2.25 0.0625 1.325
2.1875 0 1.325
2.1875 0 1.2625
2.1875 0.125 1.325
2.25 0 1.2625
2.25 0.0625 1.2625
2.3125 0.125 1.2625
2.3125 0.0625 1.2625
2.375 0.125 1.2625
2.3125 0.0625 1.325
2.375 0.0625 1.325
2.3125 0 1.325
2.3125 0 1.2625
2.3125 0.125 1.325
2.375 0 1.2625
2.375 0.0625 1.2625
2.4375 0.125 1.2625
2.4375 0.0625 1.2625
2.5 0.125 1.2625
2.4375 0.0625 1.325
2.5 0.0625 1.325
2.4375 0 1.325
2.4375 0 1.2625
2.4375 0.125 1.325
2.5 0 1.2625
2.5 0.0625 1.2625
2.5625 0.125 1.2625
2.5625 0.0625 1.2625
2.625 0.125 1.2625
2.5625 0.0625 1.325
2.625 0.0625 1.325
2.5625 0 1.325
2.5625 0 1.2625
2.5625 0.125 1.325
2.625 0 1.2625
2.625 0.0625 1.2625
2.6875 0.125 1.2625
2.6875 0.0625 1.2625
2.75 0.125 1.2625
2.6875 0.0625 1.325
2.75 0.0625 1.325
2.6875 0 1.325
2.6875 0 1.2625
2.6875 0.125 1.325
2.75 0 1.2625
2.75 0.0625 1.2625
2.8125 0.125 1.2625
2.8125 0.0625 1.2625
2.875 0.125 1.2625
2.8125 0.0625 1.325
2.875 0.0625 1.325
2.8125 0 1.325
2.8125 0 1.2625
2.8125 0.125 1.325
2.875 0 1.2625
2.875 0.0625 1.2625
2.9375 0.125 1.2625
2.9375 0.0625 1.2625
3 0.125 1.2625
2.9375 0.0625 1.325
3 0.0625 1.325
2.9375 0 1.325
2.9375 0 1.2625
2.9375 0.125 1.325
3 0 1.2625
3 0.0625 1.2625
3.0625 0.125 1.2625
3.0625 0.0625 1.2625
3.125 0.125 1.2625
3.0625 0.0625 1.325
3.125 0.0625 1.325
3.0625 0 1.325
3.0625 0 1.2625
3.0625 0.125 1.325
3.125 0 1.2625
3.125 0.0625 1.2625
3.1875 0.125 1.2625
3.1875 0.0625 1.2625
3.25 0.125 1.2625
3.1875 0.0625 1.325
3.25 0.0625 1.325
3.1875 0 1.325
3.1875 0 1.2625
3.1875 0.125 1.325
3.25 0 1.2625
3.25 0.0625 1.2625
3.3125 0.125 1.2625
3.3125 0.0625 1.2625
3.375 0.125 1.2625
3.3125 0.0625 1.325
3.375 0.0625 1.325
3.3125 0 1.325
3.3125 0 1.2625
3.3125 0.125 1.325
3.375 0 1.2625
3.375 0.0625 1.2625
3.4375 0.125 1.2625
3.4375 0.0625 1.2625
3.5 0.125 1.2625
3.4375 0.0625 1.325
3.5 0.0625 1.325
3.4375 0 1.325
3.4375 0 1.2625
3.4375 0.125 1.325
3.5 0 1.2625
3.5 0.0625 1.2625
3.5625 0.125 1.2625
3.5625 0.0625 1.2625
3.625 0.125 1.2625
3.5625 0.0625 1.325
3.625 0.0625 1.325
3.5625 0 1.325
3.5625 0 1.2625
3.5625 0.125 1.325
3.625 0 1.2625
3.625 0.0625 1.2625
3.6875 0.125 1.2625
3.6875 0.0625 1.2625
3.75 0.125 1.2625
3.6875 0.0625 1.325
3.75 0.0625 1.325
3.6875 0 1.325
3.6875 0 1.2625
3.6875 0.125 1.325
3.75 0 1.2625
3.75 0.0625 1.2625
3.8125 0.125 1.2625
3.8125 0.0625 1.2625
3.875 0.125 1.2625
3.8125 0.0625 1.325
3.875 0.0625 1.325
3.8125 0 1.325
3.8125 0 1.2625
3.8125 0.125 1.325
3.875 0 1.2625
3.875 0.0625 1.2625
3.9375 0.125 1.2625
3.9375 0.0625 1.2625
4 0.125 1.2625
3.9375 0.0625 1.325
4 0.0625 1.325
3.9375 0 1.325
3.9375 0 1.2625
3.9375 0.125 1.325
4 0 1.2625
4 0.0625 1.2625
0.0625 0.25 1.2625
0.0625 0.1875 1.2625
0.125 0.25 1.2625
0.0625 0.1875 1.325
0.125 0.1875 1.325
0 0.25 1.2625
0 0.1875 1.2625
0.0625 0.25 1.325
0 0.1875 1.325
0.125 0.1875 1.2625
0.1875 0.25 1.2625
0.1875 0.1875 1.2625
0.25 0.25 1.2625
0.1875 0.1875 1.325
0.25 0.1875 1.325
0.1875 0.25 1.325
0.25 0.1875 1.2625
0.3125 0.25 1.2625
0.3125 0.1875 1.2625
0.375 0.25 1.2625
0.3125 0.1875 1.325
0.375 0.1875 1.325
0.3125 0.25 1.325
0.375 0.1875 1.2625
0.4375 0.25 1.2625
0.4375 0.1875 1.2625
0.5 0.25 1.2625
0.4375 0.1875 1.325
0.5 0.1875 1.325
0.4375 0.25 1.325
0.5 0.1875 1.2625
0.5625 0.25 1.2625
0.5625 0.1875 1.2625
0.625 0.25 1.2625
0.5625 0.1875 1.325
0.625 0.1875 1.325
0.5625 0.25 1.325
0.625 0.1875 1.2625
0.6875 0.25 1.2625
0.6875 0.1875 1.2625
0.75 0.25 1.2625
0.6875 0.1875 1.325
0.75 0.1875 1.325
0.6875 0.25 1.325
0.75 0.1875 1.2625
0.8125 0.25 1.2625
0.8125 0.1875 1.2625
0.875 0.25 1.2625
0.8125 0.1875 1.325
0.875 0.1875 1.325
0.8125 0.25 1.325
0.875 0.1875 1.2625
0.9375 0.25 1.2625
0.9375 0.1875 1.2625
1 0.25 1.2625
0.9375 0.1875 1.325
1 0.1875 1.325
0.9375 0.25 1.325
1 0.1875 1.2625
1.0625 0.25 1.2625
1.0625 0.1875 1.2625
1.125 0.25 1.2625
1.0625 0.1875 1.325
1.125 0.1875 1.325
1.0625 0.25 1.325
1.125 0.1875 1.2625
1.1875 0.25 1.2625
1.1875 0.1875 1.2625
1.25 0.25 1.2625
1.1875 0.1875 1.325
1.25 0.1875 1.325
1.1875 0.25 1.325
1.25 0.1875 1.2625
1.3125 0.25 1.2625
1.3125 0.1875 1.2625
1.375 0.25 1.2625
1.3125 0.1875 1.325
1.375 0.1875 1.325
1.3125 0.25 1.325
1.375 0.1875 1.2625
1.4375 0.25 1.2625
1.4375 0.1875 1.2625
1.5 0.25 1.2625
1.4375 0.1875 1.325
1.5 0.1875 1.325
1.4375 0.25 1.325
1.5 0.1875 1.2625
1.5625 0.25 1.2625
1.5625 0.1875 1.2625
1.625 0.25 1.2625
1.5625 0.1875 1.325
1.625 0.1875 1.325
1.5625 0.25 1.325
1.625 0.1875 1.2625
1.6875 0.25 1.2625
1.6875 0.1875 1.2625
1.75 0.25 1.2625
1.6875 0.1875 1.325
1.75 0.1875 1.325
1.6875 0.25 1.325
1.75 0.1875 1.2625
1.8125 0.25 1.2625
1.8125 0.1875 1.2625
1.875 0.25 1.2625
1.8125 0.1875 1.325
1.875 0.1875 1.325
1.8125 0.25 1.325
1.875 0.1875 1.2625
1.9375 0.25 1.2625
1.9375 0.1875 1.2625
2 0.25 1.2625
1.9375 0.1875 1.325
2 0.1875 1.325
1.9375 0.25 1.325
2 0.1875 1.2625
2.0625 0.25 1.2625
2.0625 0.1875 1.2625
2.125 0.25 1.2625
2.0625 0.1875 1.325
2.125 0.1875 1.325
2.0625 0.25 1.325
2.125 0.1875 1.2625
2.1875 0.25 1.2625
2.1875 0.1875 1.2625
2.25 0.25 1.2625
2.1875 0.1875 1.325
2.25 0.1875 1.325
2.1875 0.25 1.325
2.25 0.1875 1.2625
2.3125 0.25 1.2625
2.3125 0.1875 1.2625
2.375 0.25 1.2625
2.3125 0.1875 1.325
2.375 0.1875 1.325
2.3125 0.25 1.325
2.375 0.1875 1.2625
2.4375 0.25 1.2625
2.4375 0.1875 1.2625
2.5 0.25 1.2625
2.4375 0.1875 1.325
2.5 0.1875 1.325
2.4375 0.25 1.325
2.5 0.1875 1.2625
2.5625 0.25 1.2625
2.5625 0.1875 1.2625
2.625 0.25 1.2625
2.5625 0.1875 1.325
2.625 0.1875 1.325
2.5625 0.25 1.325
2.625 0.1875 1.2625
2.6875 0.25 1.2625
2.6875 0.1875 1.2625
2.75 0.25 1.2625
2.6875 0.1875 1.325
2.75 0.1875 1.325
2.6875 0.25 1.325
2.75 0.1875 1.2625
2.8125 0.25 1.2625
2.8125 0.1875 1.2625
2.875 0.25 1.2625
2.8125 0.1875 1.325
2.875 0.1875 1.325
2.8125 0.25 1.325
2.875 0.1875 1.2625
2.9375 0.25 1.2625
2.9375 0.1875 1.2625
3 0.25 1.2625
2.9375 0.1875 1.325
3 0.1875 1.325
2.9375 0.25 1.325
3 0.1875 1.2625
3.0625 0.25 1.2625
3.0625 0.1875 1.2625
3.125 0.25 1.2625
3.0625 0.1875 1.325
3.125 0.1875 1.325
3.0625 0.25 1.325
3.125 0.1875 1.2625
3.1875 0.25 1.2625
3.1875 0.1875 1.2625
3.25 0.25 1.2625
3.1875 0.1875 1.325
3.25 0.1875 1.325
3.1875 0.25 1.325
3.25 0.1875 1.2625
3.3125 0.25 1.2625
3.3125 0.1875 1.2625
3.375 0.25 1.2625
3.3125 0.1875 1.325
3.375 0.1875 1.325
3.3125 0.25 1.325
3.375 0.1875 1.2625
3.4375 0.25 1.2625
3.4375 0.1875 1.2625
3.5 0.25 1.2625
3.4375 0.1875 1.325
3.5 0.1875 1.325
3.4375 0.25 1.325
3.5 0.1875 1.2625
3.5625 0.25 1.2625
3.5625 0.1875 1.2625
3.625 0.25 1.2625
3.5625 0.1875 1.325
3.625 0.1875 1.325
3.5625 0.25 1.325
3.625 0.1875 1.2625
3.6875 0.25 1.2625
3.6875 0.1875 1.2625
3.75 0.25 1.2625
3.6875 0.1875 1.325
3.75 0.1875 1.325
3.6875 0.25 1.325
3.75 0.1875 1.2625
3.8125 0.25 1.2625
3.8125 0.1875 1.2625
3.875 0.25 1.2625
3.8125 0.1875 1.325
3.875 0.1875 1.325
3.8125 0.25 1.325
3.875 0.1875 1.2625
3.9375 0.25 1.2625
3.9375 0.1875 1.2625
4 0.25 1.2625
3.9375 0.1875 1.325
4 0.1875 1.325
3.9375 0.25 1.325
4 0.1875 1.2625
0.0625 0.375 1.2625
0.0625 0.3125 1.2625
0.125 0.375 1.2625
0.0625 0.3125 1.325
0.125 0.3125 1.325
0 0.375 1.2625
0 0.3125 1.2625
0.0625 0.375 1.325
0 0.3125 1.325
0.125 0.3125 1.2625
0.1875 0.375 1.2625
0.1875 0.3125 1.2625
0.25 0.375 1.2625
0.1875 0.3125 1.325
0.25 0.3125 1.325
0.1875 0.375 1.325
0.25 0.3125 1.2625
0.3125 0.375 1.2625
0.3125 0.3125 1.2625
0.375 0.375 1.2625
0.3125 0.3125 1.325
0.375 0.3125 1.325
0.3125 0.375 1.325
0.375 0.3125 1.2625
0.4375 0.375 1.2625
0.4375 0.3125 1.2625
0.5 0.375 1.2625
0.4375 0.3125 1.325
0.5 0.3125 1.325
0.4375 0.375 1.325
0.5 0.3125 1.2625
0.5625 0.375 1.2625
0.5625 0.3125 1.2625
0.625 0.375 1.2625
0.5625 0.3125 1.325
0.625 0.3125 1.325
0.5625 0.375 1.325
0.625 0.3125 1.2625
0.6875 0.375 1.2625
0.6875 0.3125 1.2625
0.75 0.375 1.2625
0.6875 0.3125 1.325
0.75 0.3125 1.325
0.6875 0.375 1.325
0.75 0.3125 1.2625
0.8125 0.375 1.2625
0.8125 0.3125 1.2625
0.875 0.375 1.2625
0.8125 0.3125 1.325
0.875 0.3125 1.325
0.8125 0.375 1.325
0.875 0.3125 1.2625
0.9375 0.375 1.2625
0.9375 0.3125 1.2625
1 0.375 1.2625
0.9375 0.3125 1.325
1 0.3125 1.325
0.9375 0.375 1.325
1 0.3125 1.2625
1.0625 0.375 1.2625
1.0625 0.3125 1.2625
1.125 0.375 1.2625
1.0625 0.3125 1.325
1.125 0.3125 1.325
1.0625 0.375 1.325
1.125 0.3125 1.2625
1.1875 0.375 1.2625
1.1875 0.3125 1.2625
1.25 0.375 1.2625
1.1875 0.3125 1.325
1.25 0.3125 1.325
1.1875 0.375 1.325
1.25 0.3125 1.2625
1.3125 0.375 1.2625
1.3125 0.3125 1.2625
1.375 0.375 1.2625
1.3125 0.3125 1.325
1.375 0.3125 1.325
1.3125 0.375 1.325
1.375 0.3125 1.2625
1.4375 0.375 1.2625
1.4375 0.3125 1.2625
1.5 0.375 1.2625
1.4375 0.3125 1.325
1.5 0.3125 1.325
1.4375 0.375 1.325
1.5 0.3125 1.2625
1.5625 0.375 1.2625
1.5625 0.3125 1.2625
1.625 0.375 1.2625
1.5625 0.3125 1.325
1.625 0.3125 1.325
1.5625 0.375 1.325
1.625 0.3125 1.2625
1.6875 0.375 1.2625
1.6875 0.3125 1.2625
1.75 0.375 1.2625
1.6875 0.3125 1.325
1.75 0.3125 1.325
1.6875 0.375 1.325
1.75 0.3125 1.2625
1.8125 0.375 1.2625
1.8125 0.3125 1.2625
1.875 0.375 1.2625
1.8125 0.3125 1.325
1.875 0.3125 1.325
1.8125 0.375 1.325
1.875 0.3125 1.2625
1.9375 0.375 1.2625
1.9375 0.3125 1.2625
2 0.375 1.2625
1.9375 0.3125 1.325
2 0.3125 1.325
1.9375 0.375 1.325
2 0.3125 1.2625
2.0625 0.375 1.2625
2.0625 0.3125 1.2625
2.125 0.375 1.2625
2.0625 0.3125 1.325
2.125 0.3125 1.325
2.0625 0.375 1.325
2.125 0.3125 1.2625
2.1875 0.375 1.2625
2.1875 0.3125 1.2625
2.25 0.375 1.2625
2.1875 0.3125 1.325
2.25 0.3125 1.325
2.1875 0.375 1.325
2.25 0.3125 1.2625
2.3125 0.375 1.2625
2.3125 0.3125 1.2625
2.375 0.375 1.2625
2.3125 0.3125 1.325
2.375 0.3125 1.325
2.3125 0.375 1.325
2.375 0.3125 1.2625
2.4375 0.375 1.2625
2.4375 0.3125 1.2625
2.5 0.375 1.2625
2.4375 0.3125 1.325
2.5 0.3125 1.325
2.4375 0.375 1.325
2.5 0.3125 1.2625
2.5625 0.375 1.2625
2.5625 0.3125 1.2625
2.625 0.375 1.2625
2.5625 0.3125 1.325
2.625 0.3125 1.325
2.5625 0.375 1.325
2.625 0.3125 1.2625
2.6875 0.375 1.2625
2.6875 0.3125 1.2625
2.75 0.375 1.2625
2.6875 0.3125 1.325
2.75 0.3125 1.325
2.6875 0.375 1.325
2.75 0.3125 1.2625
2.8125 0.375 1.2625
2.8125 0.3125 1.2625
2.875 0.375 1.2625
2.8125 0.3125 1.325
2.875 0.3125 1.325
2.8125 0.375 1.325
2.875 0.3125 1.2625
2.9375 0.375 1.2625
2.9375 0.3125 1.2625
3 0.375 1.2625
2.9375 0.3125 1.325
3 0.3125 1.325
2.9375 0.375 1.325
3 0.3125 1.2625
3.0625 0.375 1.2625
3.0625 0.3125 1.2625
3.125 0.375 1.2625
3.0625 0.3125 1.325
3.125 0.3125 1.325
3.0625 0.375 1.325
3.125 0.3125 1.2625
3.1875 0.375 1.2625
3.1875 0.3125 1.2625
3.25 0.375 1.2625
3.1875 0.3125 1.325
3.25 0.3125 1.325
3.1875 0.375 1.325
3.25 0.3125 1.2625
3.3125 0.375 1.2625
3.3125 0.3125 1.2625
3.375 0.375 1.2625
3.3125 0.3125 1.325
3.375 0.3125 1.325
3.3125 0.375 1.325
3.375 0.3125 1.2625
3.4375 0.375 1.2625
3.4375 0.3125 1.2625
3.5 0.375 1.2625
3.4375 0.3125 1.325
3.5 0.3125 1.325
3.4375 0.375 1.325
3.5 0.3125 1.2625
3.5625 0.375 1.2625
3.5625 0.3125 1.2625
3.625 0.375 1.2625
3.5625 0.3125 1.325
3.625 0.3125 1.325
3.5625 0.375 1.325
3.625 0.3125 1.2625
3.6875 0.375 1.2625
3.6875 0.3125 1.2625
3.75 0.375 1.2625
3.6875 0.3125 1.325
3.75 0.3125 1.325
3.6875 0.375 1.325
3.75 0.3125 1.2625
3.8125 0.375 1.2625
3.8125 0.3125 1.2625
3.875 0.375 1.2625
3.8125 0.3125 1.325
3.875 0.3125 1.325
3.8125 0.375 1.325
3.875 0.3125 1.2625
3.9375 0.375 1.2625
3.9375 0.3125 1.2625
4 0.375 1.2625
3.9375 0.3125 1.325
4 0.3125 1.325
3.9375 0.375 1.325
4 0.3125 1.2625
0.0625 0.5 1.2625
0.0625 0.4375 1.2625
0.125 0.5 1.2625
0.0625 0.4375 1.325
0.125 0.4375 1.325
0 0.5 1.2625
0 0.4375 1.2625
0.0625 0.5 1.325
0 0.4375 1.325
0.125 0.4375 1.2625
0.1875 0.5 1.2625
0.1875 0.4375 1.2625
0.25 0.5 1.2625
0.1875 0.4375 1.325
0.25 0.4375 1.325
0.1875 0.5 1.325
0.25 0.4375 1.2625
0.3125 0.5 1.2625
0.3125 0.4375 1.2625
0.375 0.5 1.2625
0.3125 0.4375 1.325
0.375 0.4375 1.325
0.3125 0.5 1.325
0.375 0.4375 1.2625
0.4375 0.5 1.2625
0.4375 0.4375 1.2625
0.5 0.5 1.2625
0.4375 0.4375 1.325
0.5 0.4375 1.325
0.4375 0.5 1.325
0.5 0.4375 1.2625
0.5625 0.5 1.2625
0.5625 0.4375 1.2625
0.625 0.5 1.2625
0.5625 0.4375 1.325
0.625 0.4375 1.325
0.5625 0.5 1.325
0.625 0.4375 1.2625
0.6875 0.5 1.2625
0.6875 0.4375 1.2625
0.75 0.5 1.2625
0.6875 0.4375 1.325
0.75 0.4375 1.325
0.6875 0.5 1.325
0.75 0.4375 1.2625
0.8125 0.5 1.2625
0.8125 0.4375 1.2625
0.875 0.5 1.2625
0.8125 0.4375 1.325
0.875 0.4375 1.325
0.8125 0.5 1.325
0.875 0.4375 1.2625
0.9375 0.5 1.2625
0.9375 0.4375 1.2625
1 0.5 1.2625
0.9375 0.4375 1.325
1 0.4375 1.325
0.9375 0.5 1.325
1 0.4375 1.2625
1.0625 0.5 1.2625
1.0625 0.4375 1.2625
1.125 0.5 1.2625
1.0625 0.4375 1.325
1.125 0.4375 1.325
1.0625 0.5 1.325
1.125 0.4375 1.2625
1.1875 0.5 1.2625
1.1875 0.4375 1.2625
1.25 0.5 1.2625
1.1875 0.4375 1.325
1.25 0.4375 1.325
1.1875 0.5 1.325
1.25 0.4375 1.2625
1.3125 0.5 1.2625
1.3125 0.4375 1.2625
1.375 0.5 1.2625
1.3125 0.4375 1.325
1.375 0.4375 1.325
1.3125 0.5 1.325
1.375 0.4375 1.2625
1.4375 0.5 1.2625
1.4375 0.4375 1.2625
1.5 0.5 1.2625
1.4375 0.4375 1.325
1.5 0.4375 1.325
1.4375 0.5 1.325
1.5 0.4375 1.2625
1.5625 0.5 1.2625
1.5625 0.4375 1.2625
1.625 0.5 1.2625
1.5625 0.4375 1.325
1.625 0.4375 1.325
1.5625 0.5 1.325
1.625 0.4375 1.2625
1.6875 0.5 1.2625
1.6875 0.4375 1.2625
1.75 0.5 1.2625
1.6875 0.4375 1.325
1.75 0.4375 1.325
1.6875 0.5 1.325
1.75 0.4375 1.2625
1.8125 0.5 1.2625
1.8125 0.4375 1.2625
1.875 0.5 1.2625
1.8125 0.4375 1.325
1.875 0.4375 1.325
1.8125 0.5 1.325
1.875 0.4375 1.2625
1.9375 0.5 1.2625
1.9375 0.4375 1.2625
2 0.5 1.2625
1.9375 0.4375 1.325
2 0.4375 1.325
1.9375 0.5 1.325
2 0.4375 1.2625
2.0625 0.5 1.2625
2.0625 0.4375 1.2625
2.125 0.5 1.2625
2.0625 0.4375 1.325
2.125 0.4375 1.325
2.0625 0.5 1.325
2.125 0.4375 1.2625
2.1875 0.5 1.2625
2.1875 0.4375 1.2625
2.25 0.5 1.2625
2.1875 0.4375 1.325
2.25 0.4375 1.325
2.1875 0.5 1.325
2.25 0.4375 1.2625
2.3125 0.5 1.2625
2.3125 0.4375 1.2625
2.375 0.5 1.2625
2.3125 0.4375 1.325
2.375 0.4375 1.325
2.3125 0.5 1.325
2.375 0.4375 1.2625
2.4375 0.5 1.2625
2.4375 0.4375 1.2625
2.5 0.5 1.2625
2.4375 0.4375 1.325
2.5 0.4375 1.325
2.4375 0.5 1.325
2.5 0.4375 1.2625
2.5625 0.5 1.2625
2.5625 0.4375 1.2625
2.625 0.5 1.2625
2.5625 0.4375 1.325
2.625 0.4375 1.325
2.5625 0.5 1.325
2.625 0.4375 1.2625
2.6875 0.5 1.2625
2.6875 0.4375 1.2625
2.75 0.5 1.2625
2.6875 0.4375 1.325
2.75 0.4375 1.325
2.6875 0.5 1.325
2.75 0.4375 1.2625
2.8125 0.5 1.2625
2.8125 0.4375 1.2625
2.875 0.5 1.2625
2.8125 0.4375 1.325
2.875 0.4375 1.325
2.8125 0.5 1.325
2.875 0.4375 1.2625
2.9375 0.5 1.2625
2.9375 0.4375 1.2625
3 0.5 1.2625
2.9375 0.4375 1.325
3 0.4375 1.325
2.9375 0.5 1.325
3 0.4375 1.2625
3.0625 0.5 1.2625
3.0625 0.4375 1.2625
3.125 0.5 1.2625
3.0625 0.4375 1.325
3.125 0.4375 1.325
3.0625 0.5 1.325
3.125 0.4375 1.2625
3.1875 0.5 1.2625
3.1875 0.4375 1.2625
3.25 0.5 1.2625
3.1875 0.4375 1.325
3.25 0.4375 1.325
3.1875 0.5 1.325
3.25 0.4375 1.2625
3.3125 0.5 1.2625
3.3125 0.4375 1.2625
3.375 0.5 1.2625
3.3125 0.4375 1.325
3.375 0.4375 1.325
3.3125 0.5 1.325
3.375 0.4375 1.2625
3.4375 0.5 1.2625
3.4375 0.4375 1.2625
3.5 0.5 1.2625
3.4375 0.4375 1.325
3.5 0.4375 1.325
3.4375 0.5 1.325
3.5 0.4375 1.2625
3.5625 0.5 1.2625
3.5625 0.4375 1.2625
3.625 0.5 1.2625
3.5625 0.4375 1.325
3.625 0.4375 1.325
3.5625 0.5 1.325
3.625 0.4375 1.2625
3.6875 0.5 1.2625
3.6875 0.4375 1.2625
3.75 0.5 1.2625
3.6875 0.4375 1.325
3.75 0.4375 1.325
3.6875 0.5 1.325
3.75 0.4375 1.2625
3.8125 0.5 1.2625
3.8125 0.4375 1.2625
3.875 0.5 1.2625
3.8125 0.4375 1.325
3.875 0.4375 1.325
3.8125 0.5 1.325
3.875 0.4375 1.2625
3.9375 0.5 1.2625
3.9375 0.4375 1.2625
4 0.5 1.2625
3.9375 0.4375 1.325
4 0.4375 1.325
3.9375 0.5 1.325
4 0.4375 1.2625
0.0625 0.625 1.2625
0.0625 0.5625 1.2625
0.125 0.625 1.2625
0.0625 0.5625 1.325
0.125 0.5625 1.325
0 0.625 1.2625
0 0.5625 1.2625
0.0625 0.625 1.325
0 0.5625 1.325
0.125 0.5625 1.2625
0.1875 0.625 1.2625
0.1875 0.5625 1.2625
0.25 0.625 1.2625
0.1875 0.5625 1.325
0.25 0.5625 1.325
0.1875 0.625 1.325
0.25 0.5625 1.2625
0.3125 0.625 1.2625
0.3125 0.5625 1.2625
0.375 0.625 1.2625
0.3125 0.5625 1.325
0.375 0.5625 1.325
0.3125 0.625 1.325
0.375 0.5625 1.2625
0.4375 0.625 1.2625
0.4375 0.5625 1.2625
0.5 0.625 1.2625
0.4375 0.5625 1.325
0.5 0.5625 1.325
0.4375 0.625 1.325
0.5 0.5625 1.2625
0.5625 0.625 1.2625
0.5625 0.5625 1.2625
0.625 0.625 1.2625
0.5625 0.5625 1.325
0.625 0.5625 1.325
0.5625 0.625 1.325
0.625 0.5625 1.2625
0.6875 0.625 1.2625
0.6875 0.5625 1.2625
0.75 0.625 1.2625
0.6875 0.5625 1.325
0.75 0.5625 1.325
0.6875 0.625 1.325
0.75 0.5625 1.2625
0.8125 0.625 1.2625
0.8125 0.5625 1.2625
0.875 0.625 1.2625
0.8125 0.5625 1.325
0.875 0.5625 1.325
0.8125 0.625 1.325
0.875 0.5625 1.2625
0.9375 0.625 1.2625
0.9375 0.5625 1.2625
1 0.625 1.2625
0.9375 0.5625 1.325
1 0.5625 1.325
0.9375 0.625 1.325
1 0.5625 1.2625
1.0625 0.625 1.2625
1.0625 0.5625 1.2625
1.125 0.625 1.2625
1.0625 0.5625 1.325
1.125 0.5625 1.325
1.0625 0.625 1.325
1.125 0.5625 1.2625
1.1875 0.625 1.2625
1.1875 0.5625 1.2625
1.25 0.625 1.2625
1.1875 0.5625 1.325
1.25 0.5625 1.325
1.1875 0.625 1.325
1.25 0.5625 1.2625
1.3125 0.625 1.2625
1.3125 0.5625 1.2625
1.375 0.625 1.2625
1.3125 0.5625 1.325
1.375 0.5625 1.325
1.3125 0.625 1.325
1.375 0.5625 1.2625
1.4375 0.625 1.2625
1.4375 0.5625 1.2625
1.5 0.625 1.2625
1.4375 0.5625 1.325
1.5 0.5625 1.325
1.4375 0.625 1.325
1.5 0.5625 1.2625
1.5625 0.625 1.2625
1.5625 0.5625 1.2625
1.625 0.625 1.2625
1.5625 0.5625 1.325
1.625 0.5625 1.325
1.5625 0.625 1.325
1.625 0.5625 1.2625
1.6875 0.625 1.2625
1.6875 0.5625 1.2625
1.75 0.625 1.2625
1.6875 0.5625 1.325
1.75 0.5625 1.325
1.6875 0.625 1.325
1.75 0.5625 1.2625
1.8125 0.625 1.2625
1.8125 0.5625 1.2625
1.875 0.625 1.2625
1.8125 0.5625 1.325
1.875 0.5625 1.325
1.8125 0.625 1.325
1.875 0.5625 1.2625
1.9375 0.625 1.2625
1.9375 0.5625 1.2625
2 0.625 1.2625
1.9375 0.5625 1.325
2 0.5625 1.325
1.9375 0.625 1.325
2 0.5625 1.2625
2.0625 0.625 1.2625
2.0625 0.5625 1.2625
2.125 0.625 1.2625
2.0625 0.5625 1.325
2.125 0.5625 1.325
2.0625 0.625 1.325
2.125 0.5625 1.2625
2.1875 0.625 1.2625
2.1875 0.5625 1.2625
2.25 0.625 1.2625
2.1875 0.5625 1.325
2.25 0.5625 1.325
2.1875 0.625 1.325
2.25 0.5625 1.2625
2.3125 0.625 1.2625
2.3125 0.5625 1.2625
2.375 0.625 1.2625
2.3125 0.5625 1.325
2.375 0.5625 1.325
2.3125 0.625 1.325
2.375 0.5625 1.2625
2.4375 0.625 1.2625
2.4375 0.5625 1.2625
2.5 0.625 1.2625
2.4375 0.5625 1.325
2.5 0.5625 1.325
2.4375 0.625 1.325
2.5 0.5625 1.2625
2.5625 0.625 1.2625
2.5625 0.5625 1.2625
2.625 0.625 1.2625
2.5625 0.5625 1.325
2.625 0.5625 1.325
2.5625 0.625 1.325
2.625 0.5625 1.2625
2.6875 0.625 1.2625
2.6875 0.5625 1.2625
2.75 0.625 1.2625
2.6875 0.5625 1.325
2.75 0.5625 1.325
2.6875 0.625 1.325
2.75 0.5625 1.2625
2.8125 0.625 1.2625
2.8125 0.5625 1.2625
2.875 0.625 1.2625
2.8125 0.5625 1.325
2.875 0.5625 1.325
2.8125 0.625 1.325
2.875 0.5625 1.2625
2.9375 0.625 1.2625
2.9375 0.5625 1.2625
3 0.625 1.2625
2.9375 0.5625 1.325
3 0.5625 1.325
2.9375 0.625 1.325
3 0.5625 1.2625
3.0625 0.625 1.2625
3.0625 0.5625 1.2625
3.125 0.625 1.2625
3.0625 0.5625 1.325
3.125 0.5625 1.325
3.0625 0.625 1.325
3.125 0.5625 1.2625
3.1875 0.625 1.2625
3.1875 0.5625 1.2625
3.25 0.625 1.2625
3.1875 0.5625 1.325
3.25 0.5625 1.325
3.1875 0.625 1.325
3.25 0.5625 1.2625
3.3125 0.625 1.2625
3.3125 0.5625 1.2625
3.375 0.625 1.2625
3.3125 0.5625 1.325
3.375 0.5625 1.325
3.3125 0.625 1.325
3.375 0.5625 1.2625
3.4375 0.625 1.2625
3.4375 0.5625 1.2625
3.5 0.625 1.2625
3.4375 0.5625 1.325
3.5 0.5625 1.325
3.4375 0.625 1.325
3.5 0.5625 1.2625
3.5625 0.625 1.2625
3.5625 0.5625 1.2625
3.625 0.625 1.2625
3.5625 0.5625 1.325
3.625 0.5625 1.325
3.5625 0.625 1.325
3.625 0.5625 1.2625
3.6875 0.625 1.2625
3.6875 0.5625 1.2625
3.75 0.625 1.2625
3.6875 0.5625 1.325
3.75 0.5625 1.325
3.6875 0.625 1.325
3.75 0.5625 1.2625
3.8125 0.625 1.2625
3.8125 0.5625 1.2625
3.875 0.625 1.2625
3.8125 0.5625 1.325
3.875 0.5625 1.325
3.8125 0.625 1.325
3.875 0.5625 1.2625
3.9375 0.625 1.2625
3.9375 0.5625 1.2625
4 0.625 1.2625
3.9375 0.5625 1.325
4 0.5625 1.325
3.9375 0.625 1.325
4 0.5625 1.2625
0.0625 0.75 1.2625
0.0625 0.6875 1.2625
0.125 0.75 1.2625
0.0625 0.6875 1.325
0.125 0.6875 1.325
0 0.75 1.2625
0 0.6875 1.2625
0.0625 0.75 1.325
0 0.6875 1.325
0.125 0.6875 1.2625
0.1875 0.75 1.2625
0.1875 0.6875 1.2625
0.25 0.75 1.2625
0.1875 0.6875 1.325
0.25 0.6875 1.325
0.1875 0.75 1.325
0.25 0.6875 1.2625
0.3125 0.75 1.2625
0.3125 0.6875 1.2625
0.375 0.75 1.2625
0.3125 0.6875 1.325
0.375 0.6875 1.325
0.3125 0.75 1.325
0.375 0.6875 1.2625
0.4375 0.75 1.2625
0.4375 0.6875 1.2625
0.5 0.75 1.2625
0.4375 0.6875 1.325
0.5 0.6875 1.325
0.4375 0.75 1.325
0.5 0.6875 1.2625
0.5625 0.75 1.2625
0.5625 0.6875 1.2625
0.625 0.75 1.2625
0.5625 0.6875 1.325
0.625 0.6875 1.325
0.5625 0.75 1.325
0.625 0.6875 1.2625
0.6875 0.75 1.2625
0.6875 0.6875 1.2625
0.75 0.75 1.2625
0.6875 0.6875 1.325
0.75 0.6875 1.325
0.6875 0.75 1.325
0.75 0.6875 1.2625
0.8125 0.75 1.2625
0.8125 0.6875 1.2625
0.875 0.75 1.2625
0.8125 0.6875 1.325
0.875 0.6875 1.325
0.8125 0.75 1.325
0.875 0.6875 1.2625
0.9375 0.75 1.2625
0.9375 0.6875 1.2625
1 0.75 1.2625
0.9375 0.6875 1.325
1 0.6875 1.325
0.9375 0.75 1.325
1 0.6875 1.2625
1.0625 0.75 1.2625
1.0625 0.6875 1.2625
1.125 0.75 1.2625
1.0625 0.6875 1.325
1.125 0.6875 1.325
1.0625 0.75 1.325
1.125 0.6875 1.2625
1.1875 0.75 1.2625
1.1875 0.6875 1.2625
1.25 0.75 1.2625
1.1875 0.6875 1.325
1.25 0.6875 1.325
1.1875 0.75 1.325
1.25 0.6875 1.2625
1.3125 0.75 1.2625
1.3125 0.6875 1.2625
1.375 0.75 1.2625
1.3125 0.6875 1.325
1.375 0.6875 1.325
1.3125 0.75 1.325
1.375 0.6875 1.2625
1.4375 0.75 1.2625
1.4375 0.6875 1.2625
1.5 0.75 1.2625
1.4375 0.6875 1.325
1.5 0.6875 1.325
1.4375 0.75 1.325
1.5 0.6875 1.2625
1.5625 0.75 1.2625
1.5625 0.6875 1.2625
1.625 0.75 1.2625
1.5625 0.6875 1.325
1.625 0.6875 1.325
1.5625 0.75 1.325
1.625 0.6875 1.2625
1.6875 0.75 1.2625
1.6875 0.6875 1.2625
1.75 0.75 1.2625
1.6875 0.6875 1.325
1.75 0.6875 1.325
1.6875 0.75 1.325
1.75 0.6875 1.2625
1.8125 0.75 1.2625
1.8125 0.6875 1.2625
1.875 0.75 1.2625
1.8125 0.6875 1.325
1.875 0.6875 1.325
1.8125 0.75 1.325
1.875 0.6875 1.2625
1.9375 0.75 1.2625
1.9375 0.6875 1.2625
2 0.75 1.2625
1.9375 0.6875 1.325
2 0.6875 1.325
1.9375 0.75 1.325
2 0.6875 1.2625
2.0625 0.75 1.2625
2.0625 0.6875 1.2625
2.125 0.75 1.2625
2.0625 0.6875 1.325
2.125 0.6875 1.325
2.0625 0.75 1.325
2.125 0.6875 1.2625
2.1875 0.75 1.2625
2.1875 0.6875 1.2625
2.25 0.75 1.2625
2.1875 0.6875 1.325
2.25 0.6875 1.325
2.1875 0.75 1.325
2.25 0.6875 1.2625
2.3125 0.75 1.2625
2.3125 0.6875 1.2625
2.375 0.75 1.2625
2.3125 0.6875 1.325
2.375 0.6875 1.325
2.3125 0.75 1.325
2.375 0.6875 1.2625
2.4375 0.75 1.2625
2.4375 0.6875 1.2625
2.5 0.75 1.2625
2.4375 0.6875 1.325
2.5 0.6875 1.325
2.4375 0.75 1.325
2.5 0.6875 1.2625
2.5625 0.75 1.2625
2.5625 0.6875 1.2625
2.625 0.75 1.2625
2.5625 0.6875 1.325
2.625 0.6875 1.325
2.5625 0.75 1.325
2.625 0.6875 1.2625
2.6875 0.75 1.2625
2.6875 0.6875 1.2625
2.75 0.75 1.2625
2.6875 0.6875 1.325
2.75 0.6875 1.325
2.6875 0.75 1.325
2.75 0.6875 1.2625
2.8125 0.75 1.2625
2.8125 0.6875 1.2625
2.875 0.75 1.2625
2.8125 0.6875 1.325
2.875 0.6875 1.325
2.8125 0.75 1.325
2.875 0.6875 1.2625
2.9375 0.75 1.2625
2.9375 0.6875 1.2625
3 0.75 1.2625
2.9375 0.6875 1.325
3 0.6875 1.325
2.9375 0.75 1.325
3 0.6875 1.2625
3.0625 0.75 1.2625
3.0625 0.6875 1.2625
3.125 0.75 1.2625
3.0625 0.6875 1.325
3.125 0.6875 1.325
3.0625 0.75 1.325
3.125 0.6875 1.2625
3.1875 0.75 1.2625
3.1875 0.6875 1.2625
3.25 0.75 1.2625
3.1875 0.6875 1.325
3.25 0.6875 1.325
3.1875 0.75 1.325
3.25 0.6875 1.2625
3.3125 0.75 1.2625
3.3125 0.6875 1.2625
3.375 0.75 1.2625
3.3125 0.6875 1.325
3.375 0.6875 1.325
3.3125 0.75 1.325
3.375 0.6875 1.2625
3.4375 0.75 1.2625
3.4375 0.6875 1.2625
3.5 0.75 1.2625
3.4375 0.6875 1.325
3.5 0.6875 1.325
3.4375 0.75 1.325
3.5 0.6875 1.2625
3.5625 0.75 1.2625
3.5625 0.6875 1.2625
3.625 0.75 1.2625
3.5625 0.6875 1.325
3.625 0.6875 1.325
3.5625 0.75 1.325
3.625 0.6875 1.2625
3.6875 0.75 1.2625
3.6875 0.6875 1.2625
3.75 0.75 1.2625
3.6875 0.6875 1.325
3.75 0.6875 1.325
3.6875 0.75 1.325
3.75 0.6875 1.2625
3.8125 0.75 1.2625
3.8125 0.6875 1.2625
3.875 0.75 1.2625
3.8125 0.6875 1.325
3.875 0.6875 1.325
3.8125 0.75 1.325
3.875 0.6875 1.2625
3.9375 0.75 1.2625
3.9375 0.6875 1.2625
4 0.75 1.2625
3.9375 0.6875 1.325
4 0.6875 1.325
3.9375 0.75 1.325
4 0.6875 1.2625
0.0625 0.875 1.2625
0.0625 0.8125 1.2625
0.125 0.875 1.2625
0.0625 0.8125 1.325
0.125 0.8125 1.325
0 0.875 1.2625
0 0.8125 1.2625
0.0625 0.875 1.325
0 0.8125 1.325
0.125 0.8125 1.2625
0.1875 0.875 1.2625
0.1875 0.8125 1.2625
0.25 0.875 1.2625
0.1875 0.8125 1.325
0.25 0.8125 1.325
0.1875 0.875 1.325
0.25 0.8125 1.2625
0.3125 0.875 1.2625
0.3125 0.8125 1.2625
0.375 0.875 1.2625
0.3125 0.8125 1.325
0.375 0.8125 1.325
0.3125 0.875 1.325
0.375 0.8125 1.2625
0.4375 0.875 1.2625
0.4375 0.8125 1.2625
0.5 0.875 1.2625
0.4375 0.8125 1.325
0.5 0.8125 1.325
0.4375 0.875 1.325
0.5 0.8125 1.2625
0.5625 0.875 1.2625
0.5625 0.8125 1.2625
0.625 0.875 1.2625
0.5625 0.8125 1.325
0.625 0.8125 1.325
0.5625 0.875 1.325
0.625 0.8125 1.2625
0.6875 0.875 1.2625
0.6875 0.8125 1.2625
0.75 0.875 1.2625
0.6875 0.8125 1.325
0.75 0.8125 1.325
0.6875 0.875 1.325
0.75 0.8125 1.2625
0.8125 0.875 1.2625
0.8125 0.8125 1.2625
0.875 0.875 1.2625
0.8125 0.8125 1.325
0.875 0.8125 1.325
0.8125 0.875 1.325
0.875 0.8125 1.2625
0.9375 0.875 1.2625
0.9375 0.8125 1.2625
1 0.875 1.2625
0.9375 0.8125 1.325
1 0.8125 1.325
0.9375 0.875 1.325
1 0.8125 1.2625
1.0625 0.875 1.2625
1.0625 0.8125 1.2625
1.125 0.875 1.2625
1.0625 0.8125 1.325
1.125 0.8125 1.325
1.0625 0.875 1.325
1.125 0.8125 1.2625
1.1875 0.875 1.2625
1.1875 0.8125 1.2625
1.25 0.875 1.2625
1.1875 0.8125 1.325
1.25 0.8125 1.325
1.1875 0.875 1.325
1.25 0.8125 1.2625
1.3125 0.875 1.2625
1.3125 0.8125 1.2625
1.375 0.875 1.2625
1.3125 0.8125 1.325
1.375 0.8125 1.325
1.3125 0.875 1.325
1.375 0.8125 1.2625
1.4375 0.875 1.2625
1.4375 0.8125 1.2625
1.5 0.875 1.2625
1.4375 0.8125 1.325
1.5 0.8125 1.325
1.4375 0.875 1.325
1.5 0.8125 1.2625
1.5625 0.875 1.2625
1.5625 0.8125 1.2625
1.625 0.875 1.2625
1.5625 0.8125 1.325
1.625 0.8125 1.325
1.5625 0.875 1.325
1.625 0.8125 1.2625
1.6875 0.875 1.2625
1.6875 0.8125 1.2625
1.75 0.875 1.2625
1.6875 0.8125 1.325
1.75 0.8125 1.325
1.6875 0.875 1.325
1.75 0.8125 1.2625
1.8125 0.875 1.2625
1.8125 0.8125 1.2625
1.875 0.875 1.2625
1.8125 0.8125 1.325
1.875 0.8125 1.325
1.8125 0.875 1.325
1.875 0.8125 1.2625
1.9375 0.875 1.2625
1.9375 0.8125 1.2625
2 0.875 1.2625
1.9375 0.8125 1.325
2 0.8125 1.325
1.9375 0.875 1.325
2 0.8125 1.2625
2.0625 0.875 1.2625
2.0625 0.8125 1.2625
2.125 0.875 1.2625
2.0625 0.8125 1.325
2.125 0.8125 1.325
2.0625 0.875 1.325
2.125 0.8125 1.2625
2.1875 0.875 1.2625
2.1875 0.8125 1.2625
2.25 0.875 1.2625
2.1875 0.8125 1.325
2.25 0.8125 1.325
2.1875 0.875 1.325
2.25 0.8125 1.2625
2.3125 0.875 1.2625
2.3125 0.8125 1.2625
2.375 0.875 1.2625
2.3125 0.8125 1.325
2.375 0.8125 1.325
2.3125 0.875 1.325
2.375 0.8125 1.2625
2.4375 0.875 1.2625
2.4375 0.8125 1.2625
2.5 0.875 1.2625
2.4375 0.8125 1.325
2.5 0.8125 1.325
2.4375 0.875 1.325
2.5 0.8125 1.2625
2.5625 0.875 1.2625
2.5625 0.8125 1.2625
2.625 0.875 1.2625
2.5625 0.8125 1.325
2.625 0.8125 1.325
2.5625 0.875 1.325
2.625 0.8125 1.2625
2.6875 0.875 1.2625
2.6875 0.8125 1.2625
2.75 0.875 1.2625
2.6875 0.8125 1.325
2.75 0.8125 1.325
2.6875 0.875 1.325
2.75 0.8125 1.2625
2.8125 0.875 1.2625
2.8125 0.8125 1.2625
2.875 0.875 1.2625
2.8125 0.8125 1.325
2.875 0.8125 1.325
2.8125 0.875 1.325
2.875 0.8125 1.2625
2.9375 0.875 1.2625
2.9375 0.8125 1.2625
3 0.875 1.2625
2.9375 0.8125 1.325
3 0.8125 1.325
2.9375 0.875 1.325
3 0.8125 1.2625
3.0625 0.875 1.2625
3.0625 0.8125 1.2625
3.125 0.875 1.2625
3.0625 0.8125 1.325
3.125 0.8125 1.325
3.0625 0.875 1.325
3.125 0.8125 1.2625
3.1875 0.875 1.2625
3.1875 0.8125 1.2625
3.25 0.875 1.2625
3.1875 0.8125 1.325
3.25 0.8125 1.325
3.1875 0.875 1.325
3.25 0.8125 1.2625
3.3125 0.875 1.2625
3.3125 0.8125 1.2625
3.375 0.875 1.2625
3.3125 0.8125 1.325
3.375 0.8125 1.325
3.3125 0.875 1.325
3.375 0.8125 1.2625
3.4375 0.875 1.2625
3.4375 0.8125 1.2625
3.5 0.875 1.2625
3.4375 0.8125 1.325
3.5 0.8125 1.325
3.4375 0.875 1.325
3.5 0.8125 1.2625
3.5625 0.875 1.2625
3.5625 0.8125 1.2625
3.625 0.875 1.2625
3.5625 0.8125 1.325
3.625 0.8125 1.325
3.5625 0.875 1.325
3.625 0.8125 1.2625
3.6875 0.875 1.2625
3.6875 0.8125 1.2625
3.75 0.875 1.2625
3.6875 0.8125 1.325
3.75 0.8125 1.325
3.6875 0.875 1.325
3.75 0.8125 1.2625
3.8125 0.875 1.2625
3.8125 0.8125 1.2625
3.875 0.875 1.2625
3.8125 0.8125 1.325
3.875 0.8125 1.325
3.8125 0.875 1.325
3.875 0.8125 1.2625
3.9375 0.875 1.2625
3.9375 0.8125 1.2625
4 0.875 1.2625
3.9375 0.8125 1.325
4 0.8125 1.325
3.9375 0.875 1.325
4 0.8125 1.2625
0.0625 1 1.2625
0.0625 0.9375 1.2625
0.125 1 1.2625
0.0625 0.9375 1.325
0.125 0.9375 1.325
0 1 1.2625
0 0.9375 1.2625
0.0625 1 1.325
0 0.9375 1.325
0.125 0.9375 1.2625
0.1875 1 1.2625
0.1875 0.9375 1.2625
0.25 1 1.2625
0.1875 0.9375 1.325
0.25 0.9375 1.325
0.1875 1 1.325
0.25 0.9375 1.2625
0.3125 1 1.2625
0.3125 0.9375 1.2625
0.375 1 1.2625
0.3125 0.9375 1.325
0.375 0.9375 1.325
0.3125 1 1.325
0.375 0.9375 1.2625
0.4375 1 1.2625
0.4375 0.9375 1.2625
0.5 1 1.2625
0.4375 0.9375 1.325
0.5 0.9375 1.325
0.4375 1 1.325
0.5 0.9375 1.2625
0.5625 1 1.2625
0.5625 0.9375 1.2625
0.625 1 1.2625
0.5625 0.9375 1.325
0.625 0.9375 1.325
0.5625 1 1.325
0.625 0.9375 1.2625
0.6875 1 1.2625
0.6875 0.9375 1.2625
0.75 1 1.2625
0.6875 0.9375 1.325
0.75 0.9375 1.325
0.6875 1 1.325
0.75 0.9375 1.2625
0.8125 1 1.2625
0.8125 0.9375 1.2625
0.875 1 1.2625
0.8125 0.9375 1.325
0.875 0.9375 1.325
0.8125 1 1.325
0.875 0.9375 1.2625
0.9375 1 1.2625
0.9375 0.9375 1.2625
1 1 1.2625
0.9375 0.9375 1.325
1 0.9375 1.325
0.9375 1 1.325
1 0.9375 1.2625
1.0625 1 1.2625
1.0625 0.9375 1.2625
1.125 1 1.2625
1.0625 0.9375 1.325
1.125 0.9375 1.325
1.0625 1 1.325
1.125 0.9375 1.2625
1.1875 1 1.2625
1.1875 0.9375 1.2625
1.25 1 1.2625
1.1875 0.9375 1.325
1.25 0.9375 1.325
1.1875 1 1.325
1.25 0.9375 1.2625
1.3125 1 1.2625
1.3125 0.9375 1.2625
1.375 1 1.2625
1.3125 0.9375 1.325
1.375 0.9375 1.325
1.3125 1 1.325
1.375 0.9375 1.2625
1.4375 1 1.2625
1.4375 0.9375 1.2625
1.5 1 1.2625
1.4375 0.9375 1.325
1.5 0.9375 1.325
1.4375 1 1.325
1.5 0.9375 1.2625
1.5625 1 1.2625
1.5625 0.9375 1.2625
1.625 1 1.2625
1.5625 0.9375 1.325
1.625 0.9375 1.325
1.5625 1 1.325
1.625 0.9375 1.2625
1.6875 1 1.2625
1.6875 0.9375 1.2625
1.75 1 1.2625
1.6875 0.9375 1.325
1.75 0.9375 1.325
1.6875 1 1.325
1.75 0.9375 1.2625
1.8125 1 1.2625
1.8125 0.9375 1.2625
1.875 1 1.2625
1.8125 0.9375 1.325
1.875 0.9375 1.325
1.8125 1 1.325
1.875 0.9375 1.2625
1.9375 1 1.2625
1.9375 0.9375 1.2625
2 1 1.2625
1.9375 0.9375 1.325
2 0.9375 1.325
1.9375 1 1.325
2 0.9375 1.2625
2.0625 1 1.2625
2.0625 0.9375 1.2625
2.125 1 1.2625
2.0625 0.9375 1.325
2.125 0.9375 1.325
2.0625 1 1.325
2.125 0.9375 1.2625
2.1875 1 1.2625
2.1875 0.9375 1.2625
2.25 1 1.2625
2.1875 0.9375 1.325
2.25 0.9375 1.325
2.1875 1 1.325
2.25 0.9375 1.2625
2.3125 1 1.2625
2.3125 0.9375 1.2625
2.375 1 1.2625
2.3125 0.9375 1.325
2.375 0.9375 1.325
2.3125 1 1.325
2.375 0.9375 1.2625
2.4375 1 1.2625
2.4375 0.9375 1.2625
2.5 1 1.2625
2.4375 0.9375 1.325
2.5 0.9375 1.325
2.4375 1 1.325
2.5 0.9375 1.2625
2.5625 1 1.2625
2.5625 0.9375 1.2625
2.625 1 1.2625
2.5625 0.9375 1.325
2.625 0.9375 1.325
2.5625 1 1.325
2.625 0.9375 1.2625
2.6875 1 1.2625
2.6875 0.9375 1.2625
2.75 1 1.2625
2.6875 0.9375 1.325
2.75 0.9375 1.325
2.6875 1 1.325
2.75 0.9375 1.2625
2.8125 1 1.2625
2.8125 0.9375 1.2625
2.875 1 1.2625
2.8125 0.9375 1.325
2.875 0.9375 1.325
2.8125 1 1.325
2.875 0.9375 1.2625
2.9375 1 1.2625
2.9375 0.9375 1.2625
3 1 1.2625
2.9375 0.9375 1.325
3 0.9375 1.325
2.9375 1 1.325
3 0.9375 1.2625
3.0625 1 1.2625
3.0625 0.9375 1.2625
3.125 1 1.2625
3.0625 0.9375 1.325
3.125 0.9375 1.325
3.0625 1 1.325
3.125 0.9375 1.2625
3.1875 1 1.2625
3.1875 0.9375 1.2625
3.25 1 1.2625
3.1875 0.9375 1.325
3.25 0.9375 1.325
3.1875 1 1.325
3.25 0.9375 1.2625
3.3125 1 1.2625
3.3125 0.9375 1.2625
3.375 1 1.2625
3.3125 0.9375 1.325
3.375 0.9375 1.325
3.3125 1 1.325
3.375 0.9375 1.2625
3.4375 1 1.2625
3.4375 0.9375 1.2625
3.5 1 1.2625
3.4375 0.9375 1.325
3.5 0.9375 1.325
3.4375 1 1.325
3.5 0.9375 1.2625
3.5625 1 1.2625
3.5625 0.9375 1.2625
3.625 1 1.2625
3.5625 0.9375 1.325
3.625 0.9375 1.325
3.5625 1 1.325
3.625 0.9375 1.2625
3.6875 1 1.2625
3.6875 0.9375 1.2625
3.75 1 1.2625
3.6875 0.9375 1.325
3.75 0.9375 1.325
3.6875 1 1.325
3.75 0.9375 1.2625
3.8125 1 1.2625
3.8125 0.9375 1.2625
3.875 1 1.2625
3.8125 0.9375 1.325
3.875 0.9375 1.325
3.8125 1 1.325
3.875 0.9375 1.2625
3.9375 1 1.2625
3.9375 0.9375 1.2625
4 1 1.2625
3.9375 0.9375 1.325
4 0.9375 1.325
3.9375 1 1.325
4 0.9375 1.2625
0.0625 0.125 1.3875
0.0625 0.0625 1.3875
0.125 0.125 1.3875
0.0625 0.0625 1.45
0.125 0.0625 1.45
0.0625 0 1.45
0 0 1.3875
0.0625 0 1.3875
0 0.125 1.3875
0 0.0625 1.3875
0.0625 0.125 1.45
0 0.0625 1.45
0.125 0 1.3875
0.125 0.0625 1.3875
0.1875 0.125 1.3875
0.1875 0.0625 1.3875
0.25 0.125 1.3875
0.1875 0.0625 1.45
0.25 0.0625 1.45
0.1875 0 1.45
0.1875 0 1.3875
0.1875 0.125 1.45
0.25 0 1.3875
0.25 0.0625 1.3875
0.3125 0.125 1.3875
0.3125 0.0625 1.3875
0.375 0.125 1.3875
0.3125 0.0625 1.45
0.375 0.0625 1.45
0.3125 0 1.45
0.3125 0 1.3875
0.3125 0.125 1.45
0.375 0 1.3875
0.375 0.0625 1.3875
0.4375 0.125 1.3875
0.4375 0.0625 1.3875
0.5 0.125 1.3875
0.4375 0.0625 1.45
0.5 0.0625 1.45
0.4375 0 1.45
0.4375 0 1.3875
0.4375 0.125 1.45
0.5 0 1.3875
0.5 0.0625 1.3875
0.5625 0.125 1.3875
0.5625 0.0625 1.3875
0.625 0.125 1.3875
0.5625 0.0625 1.45
0.625 0.0625 1.45
0.5625 0 1.45
0.5625 0 1.3875
0.5625 0.125 1.45
0.625 0 1.3875
0.625 0.0625 1.3875
0.6875 0.125 1.3875
0.6875 0.0625 1.3875
0.75 0.125 1.3875
0.6875 0.0625 1.45
0.75 0.0625 1.45
0.6875 0 1.45
0.6875 0 1.3875
0.6875 0.125 1.45
0.75 0 1.3875
0.75 0.0625 1.3875
0.8125 0.125 1.3875
0.8125 0.0625 1.3875
0.875 0.125 1.3875
0.8125 0.0625 1.45
0.875 0.0625 1.45
0.8125 0 1.45
0.8125 0 1.3875
0.8125 0.125 1.45
0.875 0 1.3875
0.875 0.0625 1.3875
0.9375 0.125 1.3875
0.9375 0.0625 1.3875
1 0.125 1.3875
0.9375 0.0625 1.45
1 0.0625 1.45
0.9375 0 1.45
0.9375 0 1.3875
0.9375 0.125 1.45
1 0 1.3875
1 0.0625 1.3875
1.0625 0.125 1.3875
1.0625 0.0625 1.3875
1.125 0.125 1.3875
1.0625 0.0625 1.45
1.125 0.0625 1.45
1.0625 0 1.45
1.0625 0 1.3875
1.0625 0.125 1.45
1.125 0 1.3875
1.125 0.0625 1.3875
1.1875 0.125 1.3875
1.1875 0.0625 1.3875
1.25 0.125 1.3875
1.1875 0.0625 1.45
1.25 0.0625 1.45
1.1875 0 1.45
1.1875 0 1.3875
1.1875 0.125 1.45
1.25 0 1.3875
1.25 0.0625 1.3875
1.3125 0.125 1.3875
1.3125 0.0625 1.3875
1.375 0.125 1.3875
1.3125 0.0625 1.45
1.375 0.0625 1.45
1.3125 0 1.45
1.3125 0 1.3875
1.3125 0.125 1.45
1.375 0 1.3875
1.375 0.0625 1.3875
1.4375 0.125 1.3875
1.4375 0.0625 1.3875
1.5 0.125 1.3875
1.4375 0.0625 1.45
1.5 0.0625 1.45
1.4375 0 1.45
1.4375 0 1.3875
1.4375 0.125 1.45
1.5 0 1.3875
1.5 0.0625 1.3875
1.5625 0.125 1.3875
1.5625 0.0625 1.3875
1.625 0.125 1.3875
1.5625 0.0625 1.45
1.625 0.0625 1.45
1.5625 0 1.45
1.5625 0 1.3875
1.5625 0.125 1.45
1.625 0 1.3875
1.625 0.0625 1.3875
1.6875 0.125 1.3875
1.6875 0.0625 1.3875
1.75 0.125 1.3875
1.6875 0.0625 1.45
1.75 0.0625 1.45
1.6875 0 1.45
1.6875 0 1.3875
1.6875 0.125 1.45
1.75 0 1.3875
1.75 0.0625 1.3875
1.8125 0.125 1.3875
1.8125 0.0625 1.3875
1.875 0.125 1.3875
1.8125 0.0625 1.45
1.875 0.0625 1.45
1.8125 0 1.45
1.8125 0 1.3875
1.8125 0.125 1.45
1.875 0 1.3875
1.875 0.0625 1.3875
1.9375 0.125 1.3875
1.9375 0.0625 1.3875
2 0.125 1.3875
1.9375 0.0625 1.45
2 0.0625 1.45
1.9375 0 1.45
1.9375 0 1.3875
1.9375 0.125 1.45
2 0 1.3875
2 0.0625 1.3875
2.0625 0.125 1.3875
2.0625 0.0625 1.3875
2.125 0.125 1.3875
2.0625 0.0625 1.45
2.125 0.0625 1.45
2.0625 0 1.45
2.0625 0 1.3875
2.0625 0.125 1.45
2.125 0 1.3875
2.125 0.0625 1.3875
2.1875 0.125 1.3875
2.1875 0.0625 1.3875
2.25 0.125 1.3875
2.1875 0.0625 1.45
2.25 0.0625 1.45
2.1875 0 1.45
2.1875 0 1.3875
2.1875 0.125 1.45
2.25 0 1.3875
2.25 0.0625 1.3875
2.3125 0.125 1.3875
2.3125 0.0625 1.3875
2.375 0.125 1.3875
2.3125 0.0625 1.45
2.375 0.0625 1.45
2.3125 0 1.45
2.3125 0 1.3875
2.3125 0.125 1.45
2.375 0 1.3875
2.375 0.0625 1.3875
2.4375 0.125 1.3875
2.4375 0.0625 1.3875
2.5 0.125 1.3875
2.4375 0.0625 1.45
2.5 0.0625 1.45
2.4375 0 1.45
2.4375 0 1.3875
2.4375 0.125 1.45
2.5 0 1.3875
2.5 0.0625 1.3875
2.5625 0.125 1.3875
2.5625 0.0625 1.3875
2.625 0.125 1.3875
2.5625 0.0625 1.45
2.625 0.0625 1.45
2.5625 0 1.45
2.5625 0 1.3875
2.5625 0.125 1.45
2.625 0 1.3875
2.625 0.0625 1.3875
2.6875 0.125 1.3875
2.6875 0.0625 1.3875
2.75 0.125 1.3875
2.6875 0.0625 1.45
2.75 0.0625 1.45
2.6875 0 1.45
2.6875 0 1.3875
2.6875 0.125 1.45
2.75 0 1.3875
2.75 0.0625 1.3875
2.8125 0.125 1.3875
2.8125 0.0625 1.3875
2.875 0.125 1.3875
2.8125 0.0625 1.45
2.875 0.0625 1.45
2.8125 0 1.45
2.8125 0 1.3875
2.8125 0.125 1.45
2.875 0 1.3875
2.875 0.0625 1.3875
2.9375 0.125 1.3875
2.9375 0.0625 1.3875
3 0.125 1.3875
2.9375 0.0625 1.45
3 0.0625 1.45
2.9375 0 1.45
2.9375 0 1.3875
2.9375 0.125 1.45
3 0 1.3875
3 0.0625 1.3875
3.0625 0.125 1.3875
3.0625 0.0625 1.3875
3.125 0.125 1.3875
3.0625 0.0625 1.45
3.125 0.0625 1.45
3.0625 0 1.45
3.0625 0 1.3875
3.0625 0.125 1.45
3.125 0 1.3875
3.125 0.0625 1.3875
3.1875 0.125 1.3875
3.1875 0.0625 1.3875
3.25 0.125 1.3875
3.1875 0.0625 1.45
3.25 0.0625 1.45
3.1875 0 1.45
3.1875 0 1.3875
3.1875 0.125 1.45
3.25 0 1.3875
3.25 0.0625 1.3875
3.3125 0.125 1.3875
3.3125 0.0625 1.3875
3.375 0.125 1.3875
3.3125 0.0625 1.45
3.375 0.0625 1.45
3.3125 0 1.45
3.3125 0 1.3875
3.3125 0.125 1.45
3.375 0 1.3875
3.375 0.0625 1.3875
3.4375 0.125 1.3875
3.4375 0.0625 1.3875
3.5 0.125 1.3875
3.4375 0.0625 1.45
3.5 0.0625 1.45
3.4375 0 1.45
3.4375 0 1.3875
3.4375 0.125 1.45
3.5 0 1.3875
3.5 0.0625 1.3875
3.5625 0.125 1.3875
3.5625 0.0625 1.3875
3.625 0.125 1.3875
3.5625 0.0625 1.45
3.625 0.0625 1.45
3.5625 0 1.45
3.5625 0 1.3875
3.5625 0.125 1.45
3.625 0 1.3875
3.625 0.0625 1.3875
3.6875 0.125 1.3875
3.6875 0.0625 1.3875
3.75 0.125 1.3875
3.6875 0.0625 1.45
3.75 0.0625 1.45
3.6875 0 1.45
3.6875 0 1.3875
3.6875 0.125 1.45
3.75 0 1.3875
3.75 0.0625 1.3875
3.8125 0.125 1.3875
3.8125 0.0625 1.3875
3.875 0.125 1.3875
3.8125 0.0625 1.45
3.875 0.0625 1.45
3.8125 0 1.45
3.8125 0 1.3875
3.8125 0.125 1.45
3.875 0 1.3875
3.875 0.0625 1.3875
3.9375 0.125 1.3875
3.9375 0.0625 1.3875
4 0.125 1.3875
3.9375 0.0625 1.45
4 0.0625 1.45
3.9375 0 1.45
3.9375 0 1.3875
3.9375 0.125 1.45
4 0 1.3875
4 0.0625 1.3875
0.0625 0.25 1.3875
0.0625 0.1875 1.3875
0.125 0.25 1.3875
0.0625 0.1875 1.45
0.125 0.1875 1.45
0 0.25 1.3875
0 0.1875 1.3875
0.0625 0.25 1.45
0 0.1875 1.45
0.125 0.1875 1.3875
0.1875 0.25 1.3875
0.1875 0.1875 1.3875
0.25 0.25 1.3875
0.1875 0.1875 1.45
0.25 0.1875 1.45
0.1875 0.25 1.45
0.25 0.1875 1.3875
0.3125 0.25 1.3875
0.3125 0.1875 1.3875
0.375 0.25 1.3875
0.3125 0.1875 1.45
0.375 0.1875 1.45
0.3125 0.25 1.45
0.375 0.1875 1.3875
0.4375 0.25 1.3875
0.4375 0.1875 1.3875
0.5 0.25 1.3875
0.4375 0.1875 1.45
0.5 0.1875 1.45
0.4375 0.25 1.45
0.5 0.1875 1.3875
0.5625 0.25 1.3875
0.5625 0.1875 1.3875
0.625 0.25 1.3875
0.5625 0.1875 1.45
0.625 0.1875 1.45
0.5625 0.25 1.45
0.625 0.1875 1.3875
0.6875 0.25 1.3875
0.6875 0.1875 1.3875
0.75 0.25 1.3875
0.6875 0.1875 1.45
0.75 0.1875 1.45
0.6875 0.25 1.45
0.75 0.1875 1.3875
0.8125 0.25 1.3875
0.8125 0.1875 1.3875
0.875 0.25 1.3875
0.8125 0.1875 1.45
0.875 0.1875 1.45
0.8125 0.25 1.45
0.875 0.1875 1.3875
0.9375 0.25 1.3875
0.9375 0.1875 1.3875
1 0.25 1.3875
0.9375 0.1875 1.45
1 0.1875 1.45
0.9375 0.25 1.45
1 0.1875 1.3875
1.0625 0.25 1.3875
1.0625 0.1875 1.3875
1.125 0.25 1.3875
1.0625 0.1875 1.45
1.125 0.1875 1.45
1.0625 0.25 1.45
1.125 0.1875 1.3875
1.1875 0.25 1.3875
1.1875 0.1875 1.3875
1.25 0.25 1.3875
1.1875 0.1875 1.45
1.25 0.1875 1.45
1.1875 0.25 1.45
1.25 0.1875 1.3875
1.3125 0.25 1.3875
1.3125 0.1875 1.3875
1.375 0.25 1.3875
1.3125 0.1875 1.45
1.375 0.1875 1.45
1.3125 0.25 1.45
1.375 0.1875 1.3875
1.4375 0.25 1.3875
1.4375 0.1875 1.3875
1.5 0.25 1.3875
1.4375 0.1875 1.45
1.5 0.1875 1.45
1.4375 0.25 1.45
1.5 0.1875 1.3875
1.5625 0.25 1.3875
1.5625 0.1875 1.3875
1.625 0.25 1.3875
1.5625 0.1875 1.45
1.625 0.1875 1.45
1.5625 0.25 1.45
1.625 0.1875 1.3875
1.6875 0.25 1.3875
1.6875 0.1875 1.3875
1.75 0.25 1.3875
1.6875 0.1875 1.45
1.75 0.1875 1.45
1.6875 0.25 1.45
1.75 0.1875 1.3875
1.8125 0.25 1.3875
1.8125 0.1875 1.3875
1.875 0.25 1.3875
1.8125 0.1875 1.45
1.875 0.1875 1.45
1.8125 0.25 1.45
1.875 0.1875 1.3875
1.9375 0.25 1.3875
1.9375 0.1875 1.3875
2 0.25 1.3875
1.9375 0.1875 1.45
2 0.1875 1.45
1.9375 0.25 1.45
2 0.1875 1.3875
2.0625 0.25 1.3875
2.0625 0.1875 1.3875
2.125 0.25 1.3875
2.0625 0.1875 1.45
2.125 0.1875 1.45
2.0625 0.25 1.45
2.125 0.1875 1.3875
2.1875 0.25 1.3875
2.1875 0.1875 1.3875
2.25 0.25 1.3875
2.1875 0.1875 1.45
2.25 0.1875 1.45
2.1875 0.25 1.45
2.25 0.1875 1.3875
2.3125 0.25 1.3875
2.3125 0.1875 1.3875
2.375 0.25 1.3875
2.3125 0.1875 1.45
2.375 0.1875 1.45
2.3125 0.25 1.45
2.375 0.1875 1.3875
2.4375 0.25 1.3875
2.4375 0.1875 1.3875
2.5 0.25 1.3875
2.4375 0.1875 1.45
2.5 0.1875 1.45
2.4375 0.25 1.45
2.5 0.1875 1.3875
2.5625 0.25 1.3875
2.5625 0.1875 1.3875
2.625 0.25 1.3875
2.5625 0.1875 1.45
2.625 0.1875 1.45
2.5625 0.25 1.45
2.625 0.1875 1.3875
2.6875 0.25 1.3875
2.6875 0.1875 1.3875
2.75 0.25 1.3875
2.6875 0.1875 1.45
2.75 0.1875 1.45
2.6875 0.25 1.45
2.75 0.1875 1.3875
2.8125 0.25 1.3875
2.8125 0.1875 1.3875
2.875 0.25 1.3875
2.8125 0.1875 1.45
2.875 0.1875 1.45
2.8125 0.25 1.45
2.875 0.1875 1.3875
2.9375 0.25 1.3875
2.9375 0.1875 1.3875
3 0.25 1.3875
2.9375 0.1875 1.45
3 0.1875 1.45
2.9375 0.25 1.45
3 0.1875 1.3875
3.0625 0.25 1.3875
3.0625 0.1875 1.3875
3.125 0.25 1.3875
3.0625 0.1875 1.45
3.125 0.1875 1.45
3.0625 0.25 1.45
3.125 0.1875 1.3875
3.1875 0.25 1.3875
3.1875 0.1875 1.3875
3.25 0.25 1.3875
3.1875 0.1875 1.45
3.25 0.1875 1.45
3.1875 0.25 1.45
3.25 0.1875 1.3875
3.3125 0.25 1.3875
3.3125 0.1875 1.3875
3.375 0.25 1.3875
3.3125 0.1875 1.45
3.375 0.1875 1.45
3.3125 0.25 1.45
3.375 0.1875 1.3875
3.4375 0.25 1.3875
3.4375 0.1875 1.3875
3.5 0.25 1.3875
3.4375 0.1875 1.45
3.5 0.1875 1.45
3.4375 0.25 1.45
3.5 0.1875 1.3875
3.5625 0.25 1.3875
3.5625 0.1875 1.3875
3.625 0.25 1.3875
3.5625 0.1875 1.45
3.625 0.1875 1.45
3.5625 0.25 1.45
3.625 0.1875 1.3875
3.6875 0.25 1.3875
3.6875 0.1875 1.3875
3.75 0.25 1.3875
3.6875 0.1875 1.45
3.75 0.1875 1.45
3.6875 0.25 1.45
3.75 0.1875 1.3875
3.8125 0.25 1.3875
3.8125 0.1875 1.3875
3.875 0.25 1.3875
3.8125 0.1875 1.45
3.875 0.1875 1.45
3.8125 0.25 1.45
3.875 0.1875 1.3875
3.9375 0.25 1.3875
3.9375 0.1875 1.3875
4 0.25 1.3875
3.9375 0.1875 1.45
4 0.1875 1.45
3.9375 0.25 1.45
4 0.1875 1.3875
0.0625 0.375 1.3875
0.0625 0.3125 1.3875
0.125 0.375 1.3875
0.0625 0.3125 1.45
0.125 0.3125 1.45
0 0.375 1.3875
0 0.3125 1.3875
0.0625 0.375 1.45
0 0.3125 1.45
0.125 0.3125 1.3875
0.1875 0.375 1.3875
0.1875 0.3125 1.3875
0.25 0.375 1.3875
0.1875 0.3125 1.45
0.25 0.3125 1.45
0.1875 0.375 1.45
0.25 0.3125 1.3875
0.3125 0.375 1.3875
0.3125 0.3125 1.3875
0.375 0.375 1.3875
0.3125 0.3125 1.45
0.375 0.3125 1.45
0.3125 0.375 1.45
0.375 0.3125 1.3875
0.4375 0.375 1.3875
0.4375 0.3125 1.3875
0.5 0.375 1.3875
0.4375 0.3125 1.45
0.5 0.3125 1.45
0.4375 0.375 1.45
0.5 0.3125 1.3875
0.5625 0.375 1.3875
0.5625 0.3125 1.3875
0.625 0.375 1.3875
0.5625 0.3125 1.45
0.625 0.3125 1.45
0.5625 0.375 1.45
0.625 0.3125 1.3875
0.6875 0.375 1.3875
0.6875 0.3125 1.3875
0.75 0.375 1.3875
0.6875 0.3125 1.45
0.75 0.3125 1.45
0.6875 0.375 1.45
0.75 0.3125 1.3875
0.8125 0.375 1.3875
0.8125 0.3125 1.3875
0.875 0.375 1.3875
0.8125 0.3125 1.45
0.875 0.3125 1.45
0.8125 0.375 1.45
0.875 0.3125 1.3875
0.9375 0.375 1.3875
0.9375 0.3125 1.3875
1 0.375 1.3875
0.9375 0.3125 1.45
1 0.3125 1.45
0.9375 0.375 1.45
1 0.3125 1.3875
1.0625 0.375 1.3875
1.0625 0.3125 1.3875
1.125 0.375 1.3875
1.0625 0.3125 1.45
1.125 0.3125 1.45
1.0625 0.375 1.45
1.125 0.3125 1.3875
1.1875 0.375 1.3875
1.1875 0.3125 1.3875
1.25 0.375 1.3875
1.1875 0.3125 1.45
1.25 0.3125 1.45
1.1875 0.375 1.45
1.25 0.3125 1.3875
1.3125 0.375 1.3875
1.3125 0.3125 1.3875
1.375 0.375 1.3875
1.3125 0.3125 1.45
1.375 0.3125 1.45
1.3125 0.375 1.45
1.375 0.3125 1.3875
1.4375 0.375 1.3875
1.4375 0.3125 1.3875
1.5 0.375 1.3875
1.4375 0.3125 1.45
1.5 0.3125 1.45
1.4375 0.375 1.45
1.5 0.3125 1.3875
1.5625 0.375 1.3875
1.5625 0.3125 1.3875
1.625 0.375 1.3875
1.5625 0.3125 1.45
1.625 0.3125 1.45
1.5625 0.375 1.45
1.625 0.3125 1.3875
1.6875 0.375 1.3875
1.6875 0.3125 1.3875
1.75 0.375 1.3875
1.6875 0.3125 1.45
1.75 0.3125 1.45
1.6875 0.375 1.45
1.75 0.3125 1.3875
1.8125 0.375 1.3875
1.8125 0.3125 1.3875
1.875 0.375 1.3875
1.8125 0.3125 1.45
1.875 0.3125 1.45
1.8125 0.375 1.45
1.875 0.3125 1.3875
1.9375 0.375 1.3875
1.9375 0.3125 1.3875
2 0.375 1.3875
1.9375 0.3125 1.45
2 0.3125 1.45
1.9375 0.375 1.45
2 0.3125 1.3875
2.0625 0.375 1.3875
2.0625 0.3125 1.3875
2.125 0.375 1.3875
2.0625 0.3125 1.45
2.125 0.3125 1.45
2.0625 0.375 1.45
2.125 0.3125 1.3875
2.1875 0.375 1.3875
2.1875 0.3125 1.3875
2.25 0.375 1.3875
2.1875 0.3125 1.45
2.25 0.3125 1.45
2.1875 0.375 1.45
2.25 0.3125 1.3875
2.3125 0.375 1.3875
2.3125 0.3125 1.3875
2.375 0.375 1.3875
2.3125 0.3125 1.45
2.375 0.3125 1.45
2.3125 0.375 1.45
2.375 0.3125 1.3875
2.4375 0.375 1.3875
2.4375 0.3125 1.3875
2.5 0.375 1.3875
2.4375 0.3125 1.45
2.5 0.3125 1.45
2.4375 0.375 1.45
2.5 0.3125 1.3875
2.5625 0.375 1.3875
2.5625 0.3125 1.3875
2.625 0.375 1.3875
2.5625 0.3125 1.45
2.625 0.3125 1.45
2.5625 0.375 1.45
2.625 0.3125 1.3875
2.6875 0.375 1.3875
2.6875 0.3125 1.3875
2.75 0.375 1.3875
2.6875 0.3125 1.45
2.75 0.3125 1.45
2.6875 0.375 1.45
2.75 0.3125 1.3875
2.8125 0.375 1.3875
2.8125 0.3125 1.3875
2.875 0.375 1.3875
2.8125 0.3125 1.45
2.875 0.3125 1.45
2.8125 0.375 1.45
2.875 0.3125 1.3875
2.9375 0.375 1.3875
2.9375 0.3125 1.3875
3 0.375 1.3875
2.9375 0.3125 1.45
3 0.3125 1.45
2.9375 0.375 1.45
3 0.3125 1.3875
3.0625 0.375 1.3875
3.0625 0.3125 1.3875
3.125 0.375 1.3875
3.0625 0.3125 1.45
3.125 0.3125 1.45
3.0625 0.375 1.45
3.125 0.3125 1.3875
3.1875 0.375 1.3875
3.1875 0.3125 1.3875
3.25 0.375 1.3875
3.1875 0.3125 1.45
3.25 0.3125 1.45
3.1875 0.375 1.45
3.25 0.3125 1.3875
3.3125 0.375 1.3875
3.3125 0.3125 1.3875
3.375 0.375 1.3875
3.3125 0.3125 1.45
3.375 0.3125 1.45
3.3125 0.375 1.45
3.375 0.3125 1.3875
3.4375 0.375 1.3875
3.4375 0.3125 1.3875
3.5 0.375 1.3875
3.4375 0.3125 1.45
3.5 0.3125 1.45
3.4375 0.375 1.45
3.5 0.3125 1.3875
3.5625 0.375 1.3875
3.5625 0.3125 1.3875
3.625 0.375 1.3875
3.5625 0.3125 1.45
3.625 0.3125 1.45
3.5625 0.375 1.45
3.625 0.3125 1.3875
3.6875 0.375 1.3875
3.6875 0.3125 1.3875
3.75 0.375 1.3875
3.6875 0.3125 1.45
3.75 0.3125 1.45
3.6875 0.375 1.45
3.75 0.3125 1.3875
3.8125 0.375 1.3875
3.8125 0.3125 1.3875
3.875 0.375 1.3875
3.8125 0.3125 1.45
3.875 0.3125 1.45
3.8125 0.375 1.45
3.875 0.3125 1.3875
3.9375 0.375 1.3875
3.9375 0.3125 1.3875
4 0.375 1.3875
3.9375 0.3125 1.45
4 0.3125 1.45
3.9375 0.375 1.45
4 0.3125 1.3875
0.0625 0.5 1.3875
0.0625 0.4375 1.3875
0.125 0.5 1.3875
0.0625 0.4375 1.45
0.125 0.4375 1.45
0 0.5 1.3875
0 0.4375 1.3875
0.0625 0.5 1.45
0 0.4375 1.45
0.125 0.4375 1.3875
0.1875 0.5 1.3875
0.1875 0.4375 1.3875
0.25 0.5 1.3875
0.1875 0.4375 1.45
0.25 0.4375 1.45
0.1875 0.5 1.45
0.25 0.4375 1.3875
0.3125 0.5 1.3875
0.3125 0.4375 1.3875
0.375 0.5 1.3875
0.3125 0.4375 1.45
0.375 0.4375 1.45
0.3125 0.5 1.45
0.375 0.4375 1.3875
0.4375 0.5 1.3875
0.4375 0.4375 1.3875
0.5 0.5 1.3875
0.4375 0.4375 1.45
0.5 0.4375 1.45
0.4375 0.5 1.45
0.5 0.4375 1.3875
0.5625 0.5 1.3875
0.5625 0.4375 1.3875
0.625 0.5 1.3875
0.5625 0.4375 1.45
0.625 0.4375 1.45
0.5625 0.5 1.45
0.625 0.4375 1.3875
0.6875 0.5 1.3875
0.6875 0.4375 1.3875
0.75 0.5 1.3875
0.6875 0.4375 1.45
0.75 0.4375 1.45
0.6875 0.5 1.45
0.75 0.4375 1.3875
0.8125 0.5 1.3875
0.8125 0.4375 1.3875
0.875 0.5 1.3875
0.8125 0.4375 1.45
0.875 0.4375 1.45
0.8125 0.5 1.45
0.875 0.4375 1.3875
0.9375 0.5 1.3875
0.9375 0.4375 1.3875
1 0.5 1.3875
0.9375 0.4375 1.45
1 0.4375 1.45
0.9375 0.5 1.45
1 0.4375 1.3875
1.0625 0.5 1.3875
1.0625 0.4375 1.3875
1.125 0.5 1.3875
1.0625 0.4375 1.45
1.125 0.4375 1.45
1.0625 0.5 1.45
1.125 0.4375 1.3875
1.1875 0.5 1.3875
1.1875 0.4375 1.3875
1.25 0.5 1.3875
1.1875 0.4375 1.45
1.25 0.4375 1.45
1.1875 0.5 1.45
1.25 0.4375 1.3875
1.3125 0.5 1.3875
1.3125 0.4375 1.3875
1.375 0.5 1.3875
1.3125 0.4375 1.45
1.375 0.4375 1.45
1.3125 0.5 1.45
1.375 0.4375 1.3875
1.4375 0.5 1.3875
1.4375 0.4375 1.3875
1.5 0.5 1.3875
1.4375 0.4375 1.45
1.5 0.4375 1.45
1.4375 0.5 1.45
1.5 0.4375 1.3875
1.5625 0.5 1.3875
1.5625 0.4375 1.3875
1.625 0.5 1.3875
1.5625 0.4375 1.45
1.625 0.4375 1.45
1.5625 0.5 1.45
1.625 0.4375 1.3875
1.6875 0.5 1.3875
1.6875 0.4375 1.3875
1.75 0.5 1.3875
1.6875 0.4375 1.45
1.75 0.4375 1.45
1.6875 0.5 1.45
1.75 0.4375 1.3875
1.8125 0.5 1.3875
1.8125 0.4375 1.3875
1.875 0.5 1.3875
1.8125 0.4375 1.45
1.875 0.4375 1.45
1.8125 0.5 1.45
1.875 0.4375 1.3875
1.9375 0.5 1.3875
1.9375 0.4375 1.3875
2 0.5 1.3875
1.9375 0.4375 1.45
2 0.4375 1.45
1.9375 0.5 1.45
2 0.4375 1.3875
2.0625 0.5 1.3875
2.0625 0.4375 1.3875
2.125 0.5 1.3875
2.0625 0.4375 1.45
2.125 0.4375 1.45
2.0625 0.5 1.45
2.125 0.4375 1.3875
2.1875 0.5 1.3875
2.1875 0.4375 1.3875
2.25 0.5 1.3875
2.1875 0.4375 1.45
2.25 0.4375 1.45
2.1875 0.5 1.45
2.25 0.4375 1.3875
2.3125 0.5 1.3875
2.3125 0.4375 1.3875
2.375 0.5 1.3875
2.3125 0.4375 1.45
2.375 0.4375 1.45
2.3125 0.5 1.45
2.375 0.4375 1.3875
2.4375 0.5 1.3875
2.4375 0.4375 1.3875
2.5 0.5 1.3875
2.4375 0.4375 1.45
2.5 0.4375 1.45
2.4375 0.5 1.45
2.5 0.4375 1.3875
2.5625 0.5 1.3875
2.5625 0.4375 1.3875
2.625 0.5 1.3875
2.5625 0.4375 1.45
2.625 0.4375 1.45
2.5625 0.5 1.45
2.625 0.4375 1.3875
2.6875 0.5 1.3875
2.6875 0.4375 1.3875
2.75 0.5 1.3875
2.6875 0.4375 1.45
2.75 0.4375 1.45
2.6875 0.5 1.45
2.75 0.4375 1.3875
2.8125 0.5 1.3875
2.8125 0.4375 1.3875
2.875 0.5 1.3875
2.8125 0.4375 1.45
2.875 0.4375 1.45
2.8125 0.5 1.45
2.875 0.4375 1.3875
2.9375 0.5 1.3875
2.9375 0.4375 1.3875
3 0.5 1.3875
2.9375 0.4375 1.45
3 0.4375 1.45
2.9375 0.5 1.45
3 0.4375 1.3875
3.0625 0.5 1.3875
3.0625 0.4375 1.3875
3.125 0.5 1.3875
3.0625 0.4375 1.45
3.125 0.4375 1.45
3.0625 0.5 1.45
3.125 0.4375 1.3875
3.1875 0.5 1.3875
3.1875 0.4375 1.3875
3.25 0.5 1.3875
3.1875 0.4375 1.45
3.25 0.4375 1.45
3.1875 0.5 1.45
3.25 0.4375 1.3875
3.3125 0.5 1.3875
3.3125 0.4375 1.3875
3.375 0.5 1.3875
3.3125 0.4375 1.45
3.375 0.4375 1.45
3.3125 0.5 1.45
3.375 0.4375 1.3875
3.4375 0.5 1.3875
3.4375 0.4375 1.3875
3.5 0.5 1.3875
3.4375 0.4375 1.45
3.5 0.4375 1.45
3.4375 0.5 1.45
3.5 0.4375 1.3875
3.5625 0.5 1.3875
3.5625 0.4375 1.3875
3.625 0.5 1.3875
3.5625 0.4375 1.45
3.625 0.4375 1.45
3.5625 0.5 1.45
3.625 0.4375 1.3875
3.6875 0.5 1.3875
3.6875 0.4375 1.3875
3.75 0.5 1.3875
3.6875 0.4375 1.45
3.75 0.4375 1.45
3.6875 0.5 1.45
3.75 0.4375 1.3875
3.8125 0.5 1.3875
3.8125 0.4375 1.3875
3.875 0.5 1.3875
3.8125 0.4375 1.45
3.875 0.4375 1.45
3.8125 0.5 1.45
3.875 0.4375 1.3875
3.9375 0.5 1.3875
3.9375 0.4375 1.3875
4 0.5 1.3875
3.9375 0.4375 1.45
4 0.4375 1.45
3.9375 0.5 1.45
4 0.4375 1.3875
0.0625 0.625 1.3875
0.0625 0.5625 1.3875
0.125 0.625 1.3875
0.0625 0.5625 1.45
0.125 0.5625 1.45
0 0.625 1.3875
0 0.5625 1.3875
0.0625 0.625 1.45
0 0.5625 1.45
0.125 0.5625 1.3875
0.1875 0.625 1.3875
0.1875 0.5625 1.3875
0.25 0.625 1.3875
0.1875 0.5625 1.45
0.25 0.5625 1.45
0.1875 0.625 1.45
0.25 0.5625 1.3875
0.3125 0.625 1.3875
0.3125 0.5625 1.3875
0.375 0.625 1.3875
0.3125 0.5625 1.45
0.375 0.5625 1.45
0.3125 0.625 1.45
0.375 0.5625 1.3875
0.4375 0.625 1.3875
0.4375 0.5625 1.3875
0.5 0.625 1.3875
0.4375 0.5625 1.45
0.5 0.5625 1.45
0.4375 0.625 1.45
0.5 0.5625 1.3875
0.5625 0.625 1.3875
0.5625 0.5625 1.3875
0.625 0.625 1.3875
0.5625 0.5625 1.45
0.625 0.5625 1.45
0.5625 0.625 1.45
0.625 0.5625 1.3875
0.6875 0.625 1.3875
0.6875 0.5625 1.3875
0.75 0.625 1.3875
0.6875 0.5625 1.45
0.75 0.5625 1.45
0.6875 0.625 1.45
0.75 0.5625 1.3875
0.8125 0.625 1.3875
0.8125 0.5625 1.3875
0.875 0.625 1.3875
0.8125 0.5625 1.45
0.875 0.5625 1.45
0.8125 0.625 1.45
0.875 0.5625 1.3875
0.9375 0.625 1.3875
0.9375 0.5625 1.3875
1 0.625 1.3875
0.9375 0.5625 1.45
1 0.5625 1.45
0.9375 0.625 1.45
1 0.5625 1.3875
1.0625 0.625 1.3875
1.0625 0.5625 1.3875
1.125 0.625 1.3875
1.0625 0.5625 1.45
1.125 0.5625 1.45
1.0625 0.625 1.45
1.125 0.5625 1.3875
1.1875 0.625 1.3875
1.1875 0.5625 1.3875
1.25 0.625 1.3875
1.1875 0.5625 1.45
1.25 0.5625 1.45
1.1875 0.625 1.45
1.25 0.5625 1.3875
1.3125 0.625 1.3875
1.3125 0.5625 1.3875
1.375 0.625 1.3875
1.3125 0.5625 1.45
1.375 0.5625 1.45
1.3125 0.625 1.45
1.375 0.5625 1.3875
1.4375 0.625 1.3875
1.4375 0.5625 1.3875
1.5 0.625 1.3875
1.4375 0.5625 1.45
1.5 0.5625 1.45
1.4375 0.625 1.45
1.5 0.5625 1.3875
1.5625 0.625 1.3875
1.5625 0.5625 1.3875
1.625 0.625 1.3875
1.5625 0.5625 1.45
1.625 0.5625 1.45
1.5625 0.625 1.45
1.625 0.5625 1.3875
1.6875 0.625 1.3875
1.6875 0.5625 1.3875
1.75 0.625 1.3875
1.6875 0.5625 1.45
1.75 0.5625 1.45
1.6875 0.625 1.45
1.75 0.5625 1.3875
1.8125 0.625 1.3875
1.8125 0.5625 1.3875
1.875 0.625 1.3875
1.8125 0.5625 1.45
1.875 0.5625 1.45
1.8125 0.625 1.45
1.875 0.5625 1.3875
1.9375 0.625 1.3875
1.9375 0.5625 1.3875
2 0.625 1.3875
1.9375 0.5625 1.45
2 0.5625 1.45
1.9375 0.625 1.45
2 0.5625 1.3875
2.0625 0.625 1.3875
2.0625 0.5625 1.3875
2.125 0.625 1.3875
2.0625 0.5625 1.45
2.125 0.5625 1.45
2.0625 0.625 1.45
2.125 0.5625 1.3875
2.1875 0.625 1.3875
2.1875 0.5625 1.3875
2.25 0.625 1.3875
2.1875 0.5625 1.45
2.25 0.5625 1.45
2.1875 0.625 1.45
2.25 0.5625 1.3875
2.3125 0.625 1.3875
2.3125 0.5625 1.3875
2.375 0.625 1.3875
2.3125 0.5625 1.45
2.375 0.5625 1.45
2.3125 0.625 1.45
2.375 0.5625 1.3875
2.4375 0.625 1.3875
2.4375 0.5625 1.3875
2.5 0.625 1.3875
2.4375 0.5625 1.45
2.5 0.5625 1.45
2.4375 0.625 1.45
2.5 0.5625 1.3875
2.5625 0.625 1.3875
2.5625 0.5625 1.3875
2.625 0.625 1.3875
2.5625 0.5625 1.45
2.625 0.5625 1.45
2.5625 0.625 1.45
2.625 0.5625 1.3875
2.6875 0.625 1.3875
2.6875 0.5625 1.3875
2.75 0.625 1.3875
2.6875 0.5625 1.45
2.75 0.5625 1.45
2.6875 0.625 1.45
2.75 0.5625 1.3875
2.8125 0.625 1.3875
2.8125 0.5625 1.3875
2.875 0.625 1.3875
2.8125 0.5625 1.45
2.875 0.5625 1.45
2.8125 0.625 1.45
2.875 0.5625 1.3875
2.9375 0.625 1.3875
2.9375 0.5625 1.3875
3 0.625 1.3875
2.9375 0.5625 1.45
3 0.5625 1.45
2.9375 0.625 1.45
3 0.5625 1.3875
3.0625 0.625 1.3875
3.0625 0.5625 1.3875
3.125 0.625 1.3875
3.0625 0.5625 1.45
3.125 0.5625 1.45
3.0625 0.625 1.45
3.125 0.5625 1.3875
3.1875 0.625 1.3875
3.1875 0.5625 1.3875
3.25 0.625 1.3875
3.1875 0.5625 1.45
3.25 0.5625 1.45
3.1875 0.625 1.45
3.25 0.5625 1.3875
3.3125 0.625 1.3875
3.3125 0.5625 1.3875
3.375 0.625 1.3875
3.3125 0.5625 1.45
3.375 0.5625 1.45
3.3125 0.625 1.45
3.375 0.5625 1.3875
3.4375 0.625 1.3875
3.4375 0.5625 1.3875
3.5 0.625 1.3875
3.4375 0.5625 1.45
3.5 0.5625 1.45
3.4375 0.625 1.45
3.5 0.5625 1.3875
3.5625 0.625 1.3875
3.5625 0.5625 1.3875
3.625 0.625 1.3875
3.5625 0.5625 1.45
3.625 0.5625 1.45
3.5625 0.625 1.45
3.625 0.5625 1.3875
3.6875 0.625 1.3875
3.6875 0.5625 1.3875
3.75 0.625 1.3875
3.6875 0.5625 1.45
3.75 0.5625 1.45
3.6875 0.625 1.45
3.75 0.5625 1.3875
3.8125 0.625 1.3875
3.8125 0.5625 1.3875
3.875 0.625 1.3875
3.8125 0.5625 1.45
3.875 0.5625 1.45
3.8125 0.625 1.45
3.875 0.5625 1.3875
3.9375 0.625 1.3875
3.9375 0.5625 1.3875
4 0.625 1.3875
3.9375 0.5625 1.45
4 0.5625 1.45
3.9375 0.625 1.45
4 0.5625 1.3875
0.0625 0.75 1.3875
0.0625 0.6875 1.3875
0.125 0.75 1.3875
0.0625 0.6875 1.45
0.125 0.6875 1.45
0 0.75 1.3875
0 0.6875 1.3875
0.0625 0.75 1.45
0 0.6875 1.45
0.125 0.6875 1.3875
0.1875 0.75 1.3875
0.1875 0.6875 1.3875
0.25 0.75 1.3875
0.1875 0.6875 1.45
0.25 0.6875 1.45
0.1875 0.75 1.45
0.25 0.6875 1.3875
0.3125 0.75 1.3875
0.3125 0.6875 1.3875
0.375 0.75 1.3875
0.3125 0.6875 1.45
0.375 0.6875 1.45
0.3125 0.75 1.45
0.375 0.6875 1.3875
0.4375 0.75 1.3875
0.4375 0.6875 1.3875
0.5 0.75 1.3875
0.4375 0.6875 1.45
0.5 0.6875 1.45
0.4375 0.75 1.45
0.5 0.6875 1.3875
0.5625 0.75 1.3875
0.5625 0.6875 1.3875
0.625 0.75 1.3875
0.5625 0.6875 1.45
0.625 0.6875 1.45
0.5625 0.75 1.45
0.625 0.6875 1.3875
0.6875 0.75 1.3875
0.6875 0.6875 1.3875
0.75 0.75 1.3875
0.6875 0.6875 1.45
0.75 0.6875 1.45
0.6875 0.75 1.45
0.75 0.6875 1.3875
0.8125 0.75 1.3875
0.8125 0.6875 1.3875
0.875 0.75 1.3875
0.8125 0.6875 1.45
0.875 0.6875 1.45
0.8125 0.75 1.45
0.875 0.6875 1.3875
0.9375 0.75 1.3875
0.9375 0.6875 1.3875
1 0.75 1.3875
0.9375 0.6875 1.45
1 0.6875 1.45
0.9375 0.75 1.45
1 0.6875 1.3875
1.0625 0.75 1.3875
1.0625 0.6875 1.3875
1.125 0.75 1.3875
1.0625 0.6875 1.45
1.125 0.6875 1.45
1.0625 0.75 1.45
1.125 0.6875 1.3875
1.1875 0.75 1.3875
1.1875 0.6875 1.3875
1.25 0.75 1.3875
1.1875 0.6875 1.45
1.25 0.6875 1.45
1.1875 0.75 1.45
1.25 0.6875 1.3875
1.3125 0.75 1.3875
1.3125 0.6875 1.3875
1.375 0.75 1.3875
1.3125 0.6875 1.45
1.375 0.6875 1.45
1.3125 0.75 1.45
1.375 0.6875 1.3875
1.4375 0.75 1.3875
1.4375 0.6875 1.3875
1.5 0.75 1.3875
1.4375 0.6875 1.45
1.5 0.6875 1.45
1.4375 0.75 1.45
1.5 0.6875 1.3875
1.5625 0.75 1.3875
1.5625 0.6875 1.3875
1.625 0.75 1.3875
1.5625 0.6875 1.45
1.625 0.6875 1.45
1.5625 0.75 1.45
1.625 0.6875 1.3875
1.6875 0.75 1.3875
1.6875 0.6875 1.3875
1.75 0.75 1.3875
1.6875 0.6875 1.45
1.75 0.6875 1.45
1.6875 0.75 1.45
1.75 0.6875 1.3875
1.8125 0.75 1.3875
1.8125 0.6875 1.3875
1.875 0.75 1.3875
1.8125 0.6875 1.45
1.875 0.6875 1.45
1.8125 0.75 1.45
1.875 0.6875 1.3875
1.9375 0.75 1.3875
1.9375 0.6875 1.3875
2 0.75 1.3875
1.9375 0.6875 1.45
2 0.6875 1.45
1.9375 0.75 1.45
2 0.6875 1.3875
2.0625 0.75 1.3875
2.0625 0.6875 1.3875
2.125 0.75 1.3875
2.0625 0.6875 1.45
2.125 0.6875 1.45
2.0625 0.75 1.45
2.125 0.6875 1.3875
2.1875 0.75 1.3875
2.1875 0.6875 1.3875
2.25 0.75 1.3875
2.1875 0.6875 1.45
2.25 0.6875 1.45
2.1875 0.75 1.45
2.25 0.6875 1.3875
2.3125 0.75 1.3875
2.3125 0.6875 1.3875
2.375 0.75 1.3875
2.3125 0.6875 1.45
2.375 0.6875 1.45
2.3125 0.75 1.45
2.375 0.6875 1.3875
2.4375 0.75 1.3875
2.4375 0.6875 1.3875
2.5 0.75 1.3875
2.4375 0.6875 1.45
2.5 0.6875 1.45
2.4375 0.75 1.45
2.5 0.6875 1.3875
2.5625 0.75 1.3875
2.5625 0.6875 1.3875
2.625 0.75 1.3875
2.5625 0.6875 1.45
2.625 0.6875 1.45
2.5625 0.75 1.45
2.625 0.6875 1.3875
2.6875 0.75 1.3875
2.6875 0.6875 1.3875
2.75 0.75 1.3875
2.6875 0.6875 1.45
2.75 0.6875 1.45
2.6875 0.75 1.45
2.75 0.6875 1.3875
2.8125 0.75 1.3875
2.8125 0.6875 1.3875
2.875 0.75 1.3875
2.8125 0.6875 1.45
2.875 0.6875 1.45
2.8125 0.75 1.45
2.875 0.6875 1.3875
2.9375 0.75 1.3875
2.9375 0.6875 1.3875
3 0.75 1.3875
2.9375 0.6875 1.45
3 0.6875 1.45
2.9375 0.75 1.45
3 0.6875 1.3875
3.0625 0.75 1.3875
3.0625 0.6875 1.3875
3.125 0.75 1.3875
3.0625 0.6875 1.45
3.125 0.6875 1.45
3.0625 0.75 1.45
3.125 0.6875 1.3875
3.1875 0.75 1.3875
3.1875 0.6875 1.3875
3.25 0.75 1.3875
3.1875 0.6875 1.45
3.25 0.6875 1.45
3.1875 0.75 1.45
3.25 0.6875 1.3875
3.3125 0.75 1.3875
3.3125 0.6875 1.3875
3.375 0.75 1.3875
3.3125 0.6875 1.45
3.375 0.6875 1.45
3.3125 0.75 1.45
3.375 0.6875 1.3875
3.4375 0.75 1.3875
3.4375 0.6875 1.3875
3.5 0.75 1.3875
3.4375 0.6875 1.45
3.5 0.6875 1.45
3.4375 0.75 1.45
3.5 0.6875 1.3875
3.5625 0.75 1.3875
3.5625 0.6875 1.3875
3.625 0.75 1.3875
3.5625 0.6875 1.45
3.625 0.6875 1.45
3.5625 0.75 1.45
3.625 0.6875 1.3875
3.6875 0.75 1.3875
3.6875 0.6875 1.3875
3.75 0.75 1.3875
3.6875 0.6875 1.45
3.75 0.6875 1.45
3.6875 0.75 1.45
3.75 0.6875 1.3875
3.8125 0.75 1.3875
3.8125 0.6875 1.3875
3.875 0.75 1.3875
3.8125 0.6875 1.45
3.875 0.6875 1.45
3.8125 0.75 1.45
3.875 0.6875 1.3875
3.9375 0.75 1.3875
3.9375 0.6875 1.3875
4 0.75 1.3875
3.9375 0.6875 1.45
4 0.6875 1.45
3.9375 0.75 1.45
4 0.6875 1.3875
0.0625 0.875 1.3875
0.0625 0.8125 1.3875
0.125 0.875 1.3875
0.0625 0.8125 1.45
0.125 0.8125 1.45
0 0.875 1.3875
0 0.8125 1.3875
0.0625 0.875 1.45
0 0.8125 1.45
0.125 0.8125 1.3875
0.1875 0.875 1.3875
0.1875 0.8125 1.3875
0.25 0.875 1.3875
0.1875 0.8125 1.45
0.25 0.8125 1.45
0.1875 0.875 1.45
0.25 0.8125 1.3875
0.3125 0.875 1.3875
0.3125 0.8125 1.3875
0.375 0.875 1.3875
0.3125 0.8125 1.45
0.375 0.8125 1.45
0.3125 0.875 1.45
0.375 0.8125 1.3875
0.4375 0.875 1.3875
0.4375 0.8125 1.3875
0.5 0.875 1.3875
0.4375 0.8125 1.45
0.5 0.8125 1.45
0.4375 0.875 1.45
0.5 0.8125 1.3875
0.5625 0.875 1.3875
0.5625 0.8125 1.3875
0.625 0.875 1.3875
0.5625 0.8125 1.45
0.625 0.8125 1.45
0.5625 0.875 1.45
0.625 0.8125 1.3875
0.6875 0.875 1.3875
0.6875 0.8125 1.3875
0.75 0.875 1.3875
0.6875 0.8125 1.45
0.75 0.8125 1.45
0.6875 0.875 1.45
0.75 0.8125 1.3875
0.8125 0.875 1.3875
0.8125 0.8125 1.3875
0.875 0.875 1.3875
0.8125 0.8125 1.45
0.875 0.8125 1.45
0.8125 0.875 1.45
0.875 0.8125 1.3875
0.9375 0.875 1.3875
0.9375 0.8125 1.3875
1 0.875 1.3875
0.9375 0.8125 1.45
1 0.8125 1.45
0.9375 0.875 1.45
1 0.8125 1.3875
1.0625 0.875 1.3875
1.0625 0.8125 1.3875
1.125 0.875 1.3875
1.0625 0.8125 1.45
1.125 0.8125 1.45
1.0625 0.875 1.45
1.125 0.8125 1.3875
1.1875 0.875 1.3875
1.1875 0.8125 1.3875
1.25 0.875 1.3875
1.1875 0.8125 1.45
1.25 0.8125 1.45
1.1875 0.875 1.45
1.25 0.8125 1.3875
1.3125 0.875 1.3875
1.3125 0.8125 1.3875
1.375 0.875 1.3875
1.3125 0.8125 1.45
1.375 0.8125 1.45
1.3125 0.875 1.45
1.375 0.8125 1.3875
1.4375 0.875 1.3875
1.4375 0.8125 1.3875
1.5 0.875 1.3875
1.4375 0.8125 1.45
1.5 0.8125 1.45
1.4375 0.875 1.45
1.5 0.8125 1.3875
1.5625 0.875 1.3875
1.5625 0.8125 1.3875
1.625 0.875 1.3875
1.5625 0.8125 1.45
1.625 0.8125 1.45
1.5625 0.875 1.45
1.625 0.8125 1.3875
1.6875 0.875 1.3875
1.6875 0.8125 1.3875
1.75 0.875 1.3875
1.6875 0.8125 1.45
1.75 0.8125 1.45
1.6875 0.875 1.45
1.75 0.8125 1.3875
1.8125 0.875 1.3875
1.8125 0.8125 1.3875
1.875 0.875 1.3875
1.8125 0.8125 1.45
1.875 0.8125 1.45
1.8125 0.875 1.45
1.875 0.8125 1.3875
1.9375 0.875 1.3875
1.9375 0.8125 1.3875
2 0.875 1.3875
1.9375 0.8125 1.45
2 0.8125 1.45
1.9375 0.875 1.45
2 0.8125 1.3875
2.0625 0.875 1.3875
2.0625 0.8125 1.3875
2.125 0.875 1.3875
2.0625 0.8125 1.45
2.125 0.8125 1.45
2.0625 0.875 1.45
2.125 0.8125 1.3875
2.1875 0.875 1.3875
2.1875 0.8125 1.3875
2.25 0.875 1.3875
2.1875 0.8125 1.45
2.25 0.8125 1.45
2.1875 0.875 1.45
2.25 0.8125 1.3875
2.3125 0.875 1.3875
2.3125 0.8125 1.3875
2.375 0.875 1.3875
2.3125 0.8125 1.45
2.375 0.8125 1.45
2.3125 0.875 1.45
2.375 0.8125 1.3875
2.4375 0.875 1.3875
2.4375 0.8125 1.3875
2.5 0.875 1.3875
2.4375 0.8125 1.45
2.5 0.8125 1.45
2.4375 0.875 1.45
2.5 0.8125 1.3875
2.5625 0.875 1.3875
2.5625 0.8125 1.3875
2.625 0.875 1.3875
2.5625 0.8125 1.45
2.625 0.8125 1.45
2.5625 0.875 1.45
2.625 0.8125 1.3875
2.6875 0.875 1.3875
2.6875 0.8125 1.3875
2.75 0.875 1.3875
2.6875 0.8125 1.45
2.75 0.8125 1.45
2.6875 0.875 1.45
2.75 0.8125 1.3875
2.8125 0.875 1.3875
2.8125 0.8125 1.3875
2.875 0.875 1.3875
2.8125 0.8125 1.45
2.875 0.8125 1.45
2.8125 0.875 1.45
2.875 0.8125 1.3875
2.9375 0.875 1.3875
2.9375 0.8125 1.3875
3 0.875 1.3875
2.9375 0.8125 1.45
3 0.8125 1.45
2.9375 0.875 1.45
3 0.8125 1.3875
3.0625 0.875 1.3875
3.0625 0.8125 1.3875
3.125 0.875 1.3875
3.0625 0.8125 1.45
3.125 0.8125 1.45
3.0625 0.875 1.45
3.125 0.8125 1.3875
3.1875 0.875 1.3875
3.1875 0.8125 1.3875
3.25 0.875 1.3875
3.1875 0.8125 1.45
3.25 0.8125 1.45
3.1875 0.875 1.45
3.25 0.8125 1.3875
3.3125 0.875 1.3875
3.3125 0.8125 1.3875
3.375 0.875 1.3875
3.3125 0.8125 1.45
3.375 0.8125 1.45
3.3125 0.875 1.45
3.375 0.8125 1.3875
3.4375 0.875 1.3875
3.4375 0.8125 1.3875
3.5 0.875 1.3875
3.4375 0.8125 1.45
3.5 0.8125 1.45
3.4375 0.875 1.45
3.5 0.8125 1.3875
3.5625 0.875 1.3875
3.5625 0.8125 1.3875
3.625 0.875 1.3875
3.5625 0.8125 1.45
3.625 0.8125 1.45
3.5625 0.875 1.45
3.625 0.8125 1.3875
3.6875 0.875 1.3875
3.6875 0.8125 1.3875
3.75 0.875 1.3875
3.6875 0.8125 1.45
3.75 0.8125 1.45
3.6875 0.875 1.45
3.75 0.8125 1.3875
3.8125 0.875 1.3875
3.8125 0.8125 1.3875
3.875 0.875 1.3875
3.8125 0.8125 1.45
3.875 0.8125 1.45
3.8125 0.875 1.45
3.875 0.8125 1.3875
3.9375 0.875 1.3875
3.9375 0.8125 1.3875
4 0.875 1.3875
3.9375 0.8125 1.45
4 0.8125 1.45
3.9375 0.875 1.45
4 0.8125 1.3875
0.0625 1 1.3875
0.0625 0.9375 1.3875
0.125 1 1.3875
0.0625 0.9375 1.45
0.125 0.9375 1.45
0 1 1.3875
0 0.9375 1.3875
0.0625 1 1.45
0 0.9375 1.45
0.125 0.9375 1.3875
0.1875 1 1.3875
0.1875 0.9375 1.3875
0.25 1 1.3875
0.1875 0.9375 1.45
0.25 0.9375 1.45
0.1875 1 1.45
0.25 0.9375 1.3875
0.3125 1 1.3875
0.3125 0.9375 1.3875
0.375 1 1.3875
0.3125 0.9375 1.45
0.375 0.9375 1.45
0.3125 1 1.45
0.375 0.9375 1.3875
0.4375 1 1.3875
0.4375 0.9375 1.3875
0.5 1 1.3875
0.4375 0.9375 1.45
0.5 0.9375 1.45
0.4375 1 1.45
0.5 0.9375 1.3875
0.5625 1 1.3875
0.5625 0.9375 1.3875
0.625 1 1.3875
0.5625 0.9375 1.45
0.625 0.9375 1.45
0.5625 1 1.45
0.625 0.9375 1.3875
0.6875 1 1.3875
0.6875 0.9375 1.3875
0.75 1 1.3875
0.6875 0.9375 1.45
0.75 0.9375 1.45
0.6875 1 1.45
0.75 0.9375 1.3875
0.8125 1 1.3875
0.8125 0.9375 1.3875
0.875 1 1.3875
0.8125 0.9375 1.45
0.875 0.9375 1.45
0.8125 1 1.45
0.875 0.9375 1.3875
0.9375 1 1.3875
0.9375 0.9375 1.3875
1 1 1.3875
0.9375 0.9375 1.45
1 0.9375 1.45
0.9375 1 1.45
1 0.9375 1.3875
1.0625 1 1.3875
1.0625 0.9375 1.3875
1.125 1 1.3875
1.0625 0.9375 1.45
1.125 0.9375 1.45
1.0625 1 1.45
1.125 0.9375 1.3875
1.1875 1 1.3875
1.1875 0.9375 1.3875
1.25 1 1.3875
1.1875 0.9375 1.45
1.25 0.9375 1.45
1.1875 1 1.45
1.25 0.9375 1.3875
1.3125 1 1.3875
1.3125 0.9375 1.3875
1.375 1 1.3875
1.3125 0.9375 1.45
1.375 0.9375 1.45
1.3125 1 1.45
1.375 0.9375 1.3875
1.4375 1 1.3875
1.4375 0.9375 1.3875
1.5 1 1.3875
1.4375 0.9375 1.45
1.5 0.9375 1.45
1.4375 1 1.45
1.5 0.9375 1.3875
1.5625 1 1.3875
1.5625 0.9375 1.3875
1.625 1 1.3875
1.5625 0.9375 1.45
1.625 0.9375 1.45
1.5625 1 1.45
1.625 0.9375 1.3875
1.6875 1 1.3875
1.6875 0.9375 1.3875
1.75 1 1.3875
1.6875 0.9375 1.45
1.75 0.9375 1.45
1.6875 1 1.45
1.75 0.9375 1.3875
1.8125 1 1.3875
1.8125 0.9375 1.3875
1.875 1 1.3875
1.8125 0.9375 1.45
1.875 0.9375 1.45
1.8125 1 1.45
1.875 0.9375 1.3875
1.9375 1 1.3875
1.9375 0.9375 1.3875
2 1 1.3875
1.9375 0.9375 1.45
2 0.9375 1.45
1.9375 1 1.45
2 0.9375 1.3875
2.0625 1 1.3875
2.0625 0.9375 1.3875
2.125 1 1.3875
2.0625 0.9375 1.45
2.125 0.9375 1.45
2.0625 1 1.45
2.125 0.9375 1.3875
2.1875 1 1.3875
2.1875 0.9375 1.3875
2.25 1 1.3875
2.1875 0.9375 1.45
2.25 0.9375 1.45
2.1875 1 1.45
2.25 0.9375 1.3875
2.3125 1 1.3875
2.3125 0.9375 1.3875
2.375 1 1.3875
2.3125 0.9375 1.45
2.375 0.9375 1.45
2.3125 1 1.45
2.375 0.9375 1.3875
2.4375 1 1.3875
2.4375 0.9375 1.3875
2.5 1 1.3875
2.4375 0.9375 1.45
2.5 0.9375 1.45
2.4375 1 1.45
2.5 0.9375 1.3875
2.5625 1 1.3875
2.5625 0.9375 1.3875
2.625 1 1.3875
2.5625 0.9375 1.45
2.625 0.9375 1.45
2.5625 1 1.45
2.625 0.9375 1.3875
2.6875 1 1.3875
2.6875 0.9375 1.3875
2.75 1 1.3875
2.6875 0.9375 1.45
2.75 0.9375 1.45
2.6875 1 1.45
2.75 0.9375 1.3875
2.8125 1 1.3875
2.8125 0.9375 1.3875
2.875 1 1.3875
2.8125 0.9375 1.45
2.875 0.9375 1.45
2.8125 1 1.45
2.875 0.9375 1.3875
2.9375 1 1.3875
2.9375 0.9375 1.3875
3 1 1.3875
2.9375 0.9375 1.45
3 0.9375 1.45
2.9375 1 1.45
3 0.9375 1.3875
3.0625 1 1.3875
3.0625 0.9375 1.3875
3.125 1 1.3875
3.0625 0.9375 1.45
3.125 0.9375 1.45
3.0625 1 1.45
3.125 0.9375 1.3875
3.1875 1 1.3875
3.1875 0.9375 1.3875
3.25 1 1.3875
3.1875 0.9375 1.45
3.25 0.9375 1.45
3.1875 1 1.45
3.25 0.9375 1.3875
3.3125 1 1.3875
3.3125 0.9375 1.3875
3.375 1 1.3875
3.3125 0.9375 1.45
3.375 0.9375 1.45
3.3125 1 1.45
3.375 0.9375 1.3875
3.4375 1 1.3875
3.4375 0.9375 1.3875
3.5 1 1.3875
3.4375 0.9375 1.45
3.5 0.9375 1.45
3.4375 1 1.45
3.5 0.9375 1.3875
3.5625 1 1.3875
3.5625 0.9375 1.3875
3.625 1 1.3875
3.5625 0.9375 1.45
3.625 0.9375 1.45
3.5625 1 1.45
3.625 0.9375 1.3875
3.6875 1 1.3875
3.6875 0.9375 1.3875
3.75 1 1.3875
3.6875 0.9375 1.45
3.75 0.9375 1.45
3.6875 1 1.45
3.75 0.9375 1.3875
3.8125 1 1.3875
3.8125 0.9375 1.3875
3.875 1 1.3875
3.8125 0.9375 1.45
3.875 0.9375 1.45
3.8125 1 1.45
3.875 0.9375 1.3875
3.9375 1 1.3875
3.9375 0.9375 1.3875
4 1 1.3875
3.9375 0.9375 1.45
4 0.9375 1.45
3.9375 1 1.45
4 0.9375 1.3875
0.0625 0.125 1.5125
0.0625 0.0625 1.5125
0.125 0.125 1.5125
0.0625 0.0625 1.575
0.125 0.0625 1.575
0.0625 0 1.575
0 0 1.5125
0.0625 0 1.5125
0 0.125 1.5125
0 0.0625 1.5125
0.0625 0.125 1.575
0 0.0625 1.575
0.125 0 1.5125
0.125 0.0625 1.5125
0.1875 0.125 1.5125
0.1875 0.0625 1.5125
0.25 0.125 1.5125
0.1875 0.0625 1.575
0.25 0.0625 1.575
0.1875 0 1.575
0.1875 0 1.5125
0.1875 0.125 1.575
0.25 0 1.5125
0.25 0.0625 1.5125
0.3125 0.125 1.5125
0.3125 0.0625 1.5125
0.375 0.125 1.5125
0.3125 0.0625 1.575
0.375 0.0625 1.575
0.3125 0 1.575
0.3125 0 1.5125
0.3125 0.125 1.575
0.375 0 1.5125
0.375 0.0625 1.5125
0.4375 0.125 1.5125
0.4375 0.0625 1.5125
0.5 0.125 1.5125
0.4375 0.0625 1.575
0.5 0.0625 1.575
0.4375 0 1.575
0.4375 0 1.5125
0.4375 0.125 1.575
0.5 0 1.5125
0.5 0.0625 1.5125
0.5625 0.125 1.5125
0.5625 0.0625 1.5125
0.625 0.125 1.5125
0.5625 0.0625 1.575
0.625 0.0625 1.575
0.5625 0 1.575
0.5625 0 1.5125
0.5625 0.125 1.575
0.625 0 1.5125
0.625 0.0625 1.5125
0.6875 0.125 1.5125
0.6875 0.0625 1.5125
0.75 0.125 1.5125
0.6875 0.0625 1.575
0.75 0.0625 1.575
0.6875 0 1.575
0.6875 0 1.5125
0.6875 0.125 1.575
0.75 0 1.5125
0.75 0.0625 1.5125
0.8125 0.125 1.5125
0.8125 0.0625 1.5125
0.875 0.125 1.5125
0.8125 0.0625 1.575
0.875 0.0625 1.575
0.8125 0 1.575
0.8125 0 1.5125
0.8125 0.125 1.575
0.875 0 1.5125
0.875 0.0625 1.5125
0.9375 0.125 1.5125
0.9375 0.0625 1.5125
1 0.125 1.5125
0.9375 0.0625 1.575
1 0.0625 1.575
0.9375 0 1.575
0.9375 0 1.5125
0.9375 0.125 1.575
1 0 1.5125
1 0.0625 1.5125
1.0625 0.125 1.5125
1.0625 0.0625 1.5125
1.125 0.125 1.5125
1.0625 0.0625 1.575
1.125 0.0625 1.575
1.0625 0 1.575
1.0625 0 1.5125
1.0625 0.125 1.575
1.125 0 1.5125
1.125 0.0625 1.5125
1.1875 0.125 1.5125
1.1875 0.0625 1.5125
1.25 0.125 1.5125
1.1875 0.0625 1.575
1.25 0.0625 1.575
1.1875 0 1.575
1.1875 0 1.5125
1.1875 0.125 1.575
1.25 0 1.5125
1.25 0.0625 1.5125
1.3125 0.125 1.5125
1.3125 0.0625 1.5125
1.375 0.125 1.5125
1.3125 0.0625 1.575
1.375 0.0625 1.575
1.3125 0 1.575
1.3125 0 1.5125
1.3125 0.125 1.575
1.375 0 1.5125
1.375 0.0625 1.5125
1.4375 0.125 1.5125
1.4375 0.0625 1.5125
1.5 0.125 1.5125
1.4375 0.0625 1.575
1.5 0.0625 1.575
1.4375 0 1.575
1.4375 0 1.5125
1.4375 0.125 1.575
1.5 0 1.5125
1.5 0.0625 1.5125
1.5625 0.125 1.5125
1.5625 0.0625 1.5125
1.625 0.125 1.5125
1.5625 0.0625 1.575
1.625 0.0625 1.575
1.5625 0 1.575
1.5625 0 1.5125
1.5625 0.125 1.575
1.625 0 1.5125
1.625 0.0625 1.5125
1.6875 0.125 1.5125
1.6875 0.0625 1.5125
1.75 0.125 1.5125
1.6875 0.0625 1.575
1.75 0.0625 1.575
1.6875 0 1.575
1.6875 0 1.5125
1.6875 0.125 1.575
1.75 0 1.5125
1.75 0.0625 1.5125
1.8125 0.125 1.5125
1.8125 0.0625 1.5125
1.875 0.125 1.5125
1.8125 0.0625 1.575
1.875 0.0625 1.575
1.8125 0 1.575
1.8125 0 1.5125
1.8125 0.125 1.575
1.875 0 1.5125
1.875 0.0625 1.5125
1.9375 0.125 1.5125
1.9375 0.0625 1.5125
2 0.125 1.5125
1.9375 0.0625 1.575
2 0.0625 1.575
1.9375 0 1.575
1.9375 0 1.5125
1.9375 0.125 1.575
2 0 1.5125
2 0.0625 1.5125
2.0625 0.125 1.5125
2.0625 0.0625 1.5125
2.125 0.125 1.5125
2.0625 0.0625 1.575
2.125 0.0625 1.575
2.0625 0 1.575
2.0625 0 1.5125
2.0625 0.125 1.575
2.125 0 1.5125
2.125 0.0625 1.5125
2.1875 0.125 1.5125
2.1875 0.0625 1.5125
2.25 0.125 1.5125
2.1875 0.0625 1.575
2.25 0.0625 1.575
2.1875 0 1.575
2.1875 0 1.5125
2.1875 0.125 1.575
2.25 0 1.5125
2.25 0.0625 1.5125
2.3125 0.125 1.5125
2.3125 0.0625 1.5125
2.375 0.125 1.5125
2.3125 0.0625 1.575
2.375 0.0625 1.575
2.3125 0 1.575
2.3125 0 1.5125
2.3125 0.125 1.575
2.375 0 1.5125
2.375 0.0625 1.5125
2.4375 0.125 1.5125
2.4375 0.0625 1.5125
2.5 0.125 1.5125
2.4375 0.0625 1.575
2.5 0.0625 1.575
2.4375 0 1.575
2.4375 0 1.5125
2.4375 0.125 1.575
2.5 0 1.5125
2.5 0.0625 1.5125
2.5625 0.125 1.5125
2.5625 0.0625 1.5125
2.625 0.125 1.5125
2.5625 0.0625 1.575
2.625 0.0625 1.575
2.5625 0 1.575
2.5625 0 1.5125
2.5625 0.125 1.575
2.625 0 1.5125
2.625 0.0625 1.5125
2.6875 0.125 1.5125
2.6875 0.0625 1.5125
2.75 0.125 1.5125
2.6875 0.0625 1.575
2.75 0.0625 1.575
2.6875 0 1.575
2.6875 0 1.5125
2.6875 0.125 1.575
2.75 0 1.5125
2.75 0.0625 1.5125
2.8125 0.125 1.5125
2.8125 0.0625 1.5125
2.875 0.125 1.5125
2.8125 0.0625 1.575
2.875 0.0625 1.575
2.8125 0 1.575
2.8125 0 1.5125
2.8125 0.125 1.575
2.875 0 1.5125
2.875 0.0625 1.5125
2.9375 0.125 1.5125
2.9375 0.0625 1.5125
3 0.125 1.5125
2.9375 0.0625 1.575
3 0.0625 1.575
2.9375 0 1.575
2.9375 0 1.5125
2.9375 0.125 1.575
3 0 1.5125
3 0.0625 1.5125
3.0625 0.125 1.5125
3.0625 0.0625 1.5125
3.125 0.125 1.5125
3.0625 0.0625 1.575
3.125 0.0625 1.575
3.0625 0 1.575
3.0625 0 1.5125
3.0625 0.125 1.575
3.125 0 1.5125
3.125 0.0625 1.5125
3.1875 0.125 1.5125
3.1875 0.0625 1.5125
3.25 0.125 1.5125
3.1875 0.0625 1.575
3.25 0.0625 1.575
3.1875 0 1.575
3.1875 0 1.5125
3.1875 0.125 1.575
3.25 0 1.5125
3.25 0.0625 1.5125
3.3125 0.125 1.5125
3.3125 0.0625 1.5125
3.375 0.125 1.5125
3.3125 0.0625 1.575
3.375 0.0625 1.575
3.3125 0 1.575
3.3125 0 1.5125
3.3125 0.125 1.575
3.375 0 1.5125
3.375 0.0625 1.5125
3.4375 0.125 1.5125
3.4375 0.0625 1.5125
3.5 0.125 1.5125
3.4375 0.0625 1.575
3.5 0.0625 1.575
3.4375 0 1.575
3.4375 0 1.5125
3.4375 0.125 1.575
3.5 0 1.5125
3.5 0.0625 1.5125
3.5625 0.125 1.5125
3.5625 0.0625 1.5125
3.625 0.125 1.5125
3.5625 0.0625 1.575
3.625 0.0625 1.575
3.5625 0 1.575
3.5625 0 1.5125
3.5625 0.125 1.575
3.625 0 1.5125
3.625 0.0625 1.5125
3.6875 0.125 1.5125
3.6875 0.0625 1.5125
3.75 0.125 1.5125
3.6875 0.0625 1.575
3.75 0.0625 1.575
3.6875 0 1.575
3.6875 0 1.5125
3.6875 0.125 1.575
3.75 0 1.5125
3.75 0.0625 1.5125
3.8125 0.125 1.5125
3.8125 0.0625 1.5125
3.875 0.125 1.5125
3.8125 0.0625 1.575
3.875 0.0625 1.575
3.8125 0 1.575
3.8125 0 1.5125
3.8125 0.125 1.575
3.875 0 1.5125
3.875 0.0625 1.5125
3.9375 0.125 1.5125
3.9375 0.0625 1.5125
4 0.125 1.5125
3.9375 0.0625 1.575
4 0.0625 1.575
3.9375 0 1.575
3.9375 0 1.5125
3.9375 0.125 1.575
4 0 1.5125
4 0.0625 1.5125
0.0625 0.25 1.5125
0.0625 0.1875 1.5125
0.125 0.25 1.5125
0.0625 0.1875 1.575
0.125 0.1875 1.575
0 0.25 1.5125
0 0.1875 1.5125
0.0625 0.25 1.575
0 0.1875 1.575
0.125 0.1875 1.5125
0.1875 0.25 1.5125
0.1875 0.1875 1.5125
0.25 0.25 1.5125
0.1875 0.1875 1.575
0.25 0.1875 1.575
0.1875 0.25 1.575
0.25 0.1875 1.5125
0.3125 0.25 1.5125
0.3125 0.1875 1.5125
0.375 0.25 1.5125
0.3125 0.1875 1.575
0.375 0.1875 1.575
0.3125 0.25 1.575
0.375 0.1875 1.5125
0.4375 0.25 1.5125
0.4375 0.1875 1.5125
0.5 0.25 1.5125
0.4375 0.1875 1.575
0.5 0.1875 1.575
0.4375 0.25 1.575
0.5 0.1875 1.5125
0.5625 0.25 1.5125
0.5625 0.1875 1.5125
0.625 0.25 1.5125
0.5625 0.1875 1.575
0.625 0.1875 1.575
0.5625 0.25 1.575
0.625 0.1875 1.5125
0.6875 0.25 1.5125
0.6875 0.1875 1.5125
0.75 0.25 1.5125
0.6875 0.1875 1.575
0.75 0.1875 1.575
0.6875 0.25 1.575
0.75 0.1875 1.5125
0.8125 0.25 1.5125
0.8125 0.1875 1.5125
0.875 0.25 1.5125
0.8125 0.1875 1.575
0.875 0.1875 1.575
0.8125 0.25 1.575
0.875 0.1875 1.5125
0.9375 0.25 1.5125
0.9375 0.1875 1.5125
1 0.25 1.5125
0.9375 0.1875 1.575
1 0.1875 1.575
0.9375 0.25 1.575
1 0.1875 1.5125
1.0625 0.25 1.5125
1.0625 0.1875 1.5125
1.125 0.25 1.5125
1.0625 0.1875 1.575
1.125 0.1875 1.575
1.0625 0.25 1.575
1.125 0.1875 1.5125
1.1875 0.25 1.5125
1.1875 0.1875 1.5125
1.25 0.25 1.5125
1.1875 0.1875 1.575
1.25 0.1875 1.575
1.1875 0.25 1.575
1.25 0.1875 1.5125
1.3125 0.25 1.5125
1.3125 0.1875 1.5125
1.375 0.25 1.5125
1.3125 0.1875 1.575
1.375 0.1875 1.575
1.3125 0.25 1.575
1.375 0.1875 1.5125
1.4375 0.25 1.5125
1.4375 0.1875 1.5125
1.5 0.25 1.5125
1.4375 0.1875 1.575
1.5 0.1875 1.575
1.4375 0.25 1.575
1.5 0.1875 1.5125
1.5625 0.25 1.5125
1.5625 0.1875 1.5125
1.625 0.25 1.5125
1.5625 0.1875 1.575
1.625 0.1875 1.575
1.5625 0.25 1.575
1.625 0.1875 1.5125
1.6875 0.25 1.5125
1.6875 0.1875 1.5125
1.75 0.25 1.5125
1.6875 0.1875 1.575
1.75 0.1875 1.575
1.6875 0.25 1.575
1.75 0.1875 1.5125
1.8125 0.25 1.5125
1.8125 0.1875 1.5125
1.875 0.25 1.5125
1.8125 0.1875 1.575
1.875 0.1875 1.575
1.8125 0.25 1.575
1.875 0.1875 1.5125
1.9375 0.25 1.5125
1.9375 0.1875 1.5125
2 0.25 1.5125
1.9375 0.1875 1.575
2 0.1875 1.575
1.9375 0.25 1.575
2 0.1875 1.5125
2.0625 0.25 1.5125
2.0625 0.1875 1.5125
2.125 0.25 1.5125
2.0625 0.1875 1.575
2.125 0.1875 1.575
2.0625 0.25 1.575
2.125 0.1875 1.5125
2.1875 0.25 1.5125
2.1875 0.1875 1.5125
2.25 0.25 1.5125
2.1875 0.1875 1.575
2.25 0.1875 1.575
2.1875 0.25 1.575
2.25 0.1875 1.5125
2.3125 0.25 1.5125
2.3125 0.1875 1.5125
2.375 0.25 1.5125
2.3125 0.1875 1.575
2.375 0.1875 1.575
2.3125 0.25 1.575
2.375 0.1875 1.5125
2.4375 0.25 1.5125
2.4375 0.1875 1.5125
2.5 0.25 1.5125
2.4375 0.1875 1.575
2.5 0.1875 1.575
2.4375 0.25 1.575
2.5 0.1875 1.5125
2.5625 0.25 1.5125
2.5625 0.1875 1.5125
2.625 0.25 1.5125
2.5625 0.1875 1.575
2.625 0.1875 1.575
2.5625 0.25 1.575
2.625 0.1875 1.5125
2.6875 0.25 1.5125
2.6875 0.1875 1.5125
2.75 0.25 1.5125
2.6875 0.1875 1.575
2.75 0.1875 1.575
2.6875 0.25 1.575
2.75 0.1875 1.5125
2.8125 0.25 1.5125
2.8125 0.1875 1.5125
2.875 0.25 1.5125
2.8125 0.1875 1.575
2.875 0.1875 1.575
2.8125 0.25 1.575
2.875 0.1875 1.5125
2.9375 0.25 1.5125
2.9375 0.1875 1.5125
3 0.25 1.5125
2.9375 0.1875 1.575
3 0.1875 1.575
2.9375 0.25 1.575
3 0.1875 1.5125
3.0625 0.25 1.5125
3.0625 0.1875 1.5125
3.125 0.25 1.5125
3.0625 0.1875 1.575
3.125 0.1875 1.575
3.0625 0.25 1.575
3.125 0.1875 1.5125
3.1875 0.25 1.5125
3.1875 0.1875 1.5125
3.25 0.25 1.5125
3.1875 0.1875 1.575
3.25 0.1875 1.575
3.1875 0.25 1.575
3.25 0.1875 1.5125
3.3125 0.25 1.5125
3.3125 0.1875 1.5125
3.375 0.25 1.5125
3.3125 0.1875 1.575
3.375 0.1875 1.575
3.3125 0.25 1.575
3.375 0.1875 1.5125
3.4375 0.25 1.5125
3.4375 0.1875 1.5125
3.5 0.25 1.5125
3.4375 0.1875 1.575
3.5 0.1875 1.575
3.4375 0.25 1.575
3.5 0.1875 1.5125
3.5625 0.25 1.5125
3.5625 0.1875 1.5125
3.625 0.25 1.5125
3.5625 0.1875 1.575
3.625 0.1875 1.575
3.5625 0.25 1.575
3.625 0.1875 1.5125
3.6875 0.25 1.5125
3.6875 0.1875 1.5125
3.75 0.25 1.5125
3.6875 0.1875 1.575
3.75 0.1875 1.575
3.6875 0.25 1.575
3.75 0.1875 1.5125
3.8125 0.25 1.5125
3.8125 0.1875 1.5125
3.875 0.25 1.5125
3.8125 0.1875 1.575
3.875 0.1875 1.575
3.8125 0.25 1.575
3.875 0.1875 1.5125
3.9375 0.25 1.5125
3.9375 0.1875 1.5125
4 0.25 1.5125
3.9375 0.1875 1.575
4 0.1875 1.575
3.9375 0.25 1.575
4 0.1875 1.5125
0.0625 0.375 1.5125
0.0625 0.3125 1.5125
0.125 0.375 1.5125
0.0625 0.3125 1.575
0.125 0.3125 1.575
0 0.375 1.5125
0 0.3125 1.5125
0.0625 0.375 1.575
0 0.3125 1.575
0.125 0.3125 1.5125
0.1875 0.375 1.5125
0.1875 0.3125 1.5125
0.25 0.375 1.5125
0.1875 0.3125 1.575
0.25 0.3125 1.575
0.1875 0.375 1.575
0.25 0.3125 1.5125
0.3125 0.375 1.5125
0.3125 0.3125 1.5125
0.375 0.375 1.5125
0.3125 0.3125 1.575
0.375 0.3125 1.575
0.3125 0.375 1.575
0.375 0.3125 1.5125
0.4375 0.375 1.5125
0.4375 0.3125 1.5125
0.5 0.375 1.5125
0.4375 0.3125 1.575
0.5 0.3125 1.575
0.4375 0.375 1.575
0.5 0.3125 1.5125
0.5625 0.375 1.5125
0.5625 0.3125 1.5125
0.625 0.375 1.5125
0.5625 0.3125 1.575
0.625 0.3125 1.575
0.5625 0.375 1.575
0.625 0.3125 1.5125
0.6875 0.375 1.5125
0.6875 0.3125 1.5125
0.75 0.375 1.5125
0.6875 0.3125 1.575
0.75 0.3125 1.575
0.6875 0.375 1.575
0.75 0.3125 1.5125
0.8125 0.375 1.5125
0.8125 0.3125 1.5125
0.875 0.375 1.5125
0.8125 0.3125 1.575
0.875 0.3125 1.575
0.8125 0.375 1.575
0.875 0.3125 1.5125
0.9375 0.375 1.5125
0.9375 0.3125 1.5125
1 0.375 1.5125
0.9375 0.3125 1.575
1 0.3125 1.575
0.9375 0.375 1.575
1 0.3125 1.5125
1.0625 0.375 1.5125
1.0625 0.3125 1.5125
1.125 0.375 1.5125
1.0625 0.3125 1.575
1.125 0.3125 1.575
1.0625 0.375 1.575
1.125 0.3125 1.5125
1.1875 0.375 1.5125
1.1875 0.3125 1.5125
1.25 0.375 1.5125
1.1875 0.3125 1.575
1.25 0.3125 1.575
1.1875 0.375 1.575
1.25 0.3125 1.5125
1.3125 0.375 1.5125
1.3125 0.3125 1.5125
1.375 0.375 1.5125
1.3125 0.3125 1.575
1.375 0.3125 1.575
1.3125 0.375 1.575
1.375 0.3125 1.5125
1.4375 0.375 1.5125
1.4375 0.3125 1.5125
1.5 0.375 1.5125
1.4375 0.3125 1.575
1.5 0.3125 1.575
1.4375 0.375 1.575
1.5 0.3125 1.5125
1.5625 0.375 1.5125
1.5625 0.3125 1.5125
1.625 0.375 1.5125
1.5625 0.3125 1.575
1.625 0.3125 1.575
1.5625 0.375 1.575
1.625 0.3125 1.5125
1.6875 0.375 1.5125
1.6875 0.3125 1.5125
1.75 0.375 1.5125
1.6875 0.3125 1.575
1.75 0.3125 1.575
1.6875 0.375 1.575
1.75 0.3125 1.5125
1.8125 0.375 1.5125
1.8125 0.3125 1.5125
1.875 0.375 1.5125
1.8125 0.3125 1.575
1.875 0.3125 1.575
1.8125 0.375 1.575
1.875 0.3125 1.5125
1.9375 0.375 1.5125
1.9375 0.3125 1.5125
2 0.375 1.5125
1.9375 0.3125 1.575
2 0.3125 1.575
1.9375 0.375 1.575
2 0.3125 1.5125
2.0625 0.375 1.5125
2.0625 0.3125 1.5125
2.125 0.375 1.5125
2.0625 0.3125 1.575
2.125 0.3125 1.575
2.0625 0.375 1.575
2.125 0.3125 1.5125
2.1875 0.375 1.5125
2.1875 0.3125 1.5125
2.25 0.375 1.5125
2.1875 0.3125 1.575
2.25 0.3125 1.575
2.1875 0.375 1.575
2.25 0.3125 1.5125
2.3125 0.375 1.5125
2.3125 0.3125 1.5125
2.375 0.375 1.5125
2.3125 0.3125 1.575
2.375 0.3125 1.575
2.3125 0.375 1.575
2.375 0.3125 1.5125
2.4375 0.375 1.5125
2.4375 0.3125 1.5125
2.5 0.375 1.5125
2.4375 0.3125 1.575
2.5 0.3125 1.575
2.4375 0.375 1.575
2.5 0.3125 1.5125
2.5625 0.375 1.5125
2.5625 0.3125 1.5125
2.625 0.375 1.5125
2.5625 0.3125 1.575
2.625 0.3125 1.575
2.5625 0.375 1.575
2.625 0.3125 1.5125
2.6875 0.375 1.5125
2.6875 0.3125 1.5125
2.75 0.375 1.5125
2.6875 0.3125 1.575
2.75 0.3125 1.575
2.6875 0.375 1.575
2.75 0.3125 1.5125
2.8125 0.375 1.5125
2.8125 0.3125 1.5125
2.875 0.375 1.5125
2.8125 0.3125 1.575
2.875 0.3125 1.575
2.8125 0.375 1.575
2.875 0.3125 1.5125
2.9375 0.375 1.5125
2.9375 0.3125 1.5125
3 0.375 1.5125
2.9375 0.3125 1.575
3 0.3125 1.575
2.9375 0.375 1.575
3 0.3125 1.5125
3.0625 0.375 1.5125
3.0625 0.3125 1.5125
3.125 0.375 1.5125
3.0625 0.3125 1.575
3.125 0.3125 1.575
3.0625 0.375 1.575
3.125 0.3125 1.5125
3.1875 0.375 1.5125
3.1875 0.3125 1.5125
3.25 0.375 1.5125
3.1875 0.3125 1.575
3.25 0.3125 1.575
3.1875 0.375 1.575
3.25 0.3125 1.5125
3.3125 0.375 1.5125
3.3125 0.3125 1.5125
3.375 0.375 1.5125
3.3125 0.3125 1.575
3.375 0.3125 1.575
3.3125 0.375 1.575
3.375 0.3125 1.5125
3.4375 0.375 1.5125
3.4375 0.3125 1.5125
3.5 0.375 1.5125
3.4375 0.3125 1.575
3.5 0.3125 1.575
3.4375 0.375 1.575
3.5 0.3125 1.5125
3.5625 0.375 1.5125
3.5625 0.3125 1.5125
3.625 0.375 1.5125
3.5625 0.3125 1.575
3.625 0.3125 1.575
3.5625 0.375 1.575
3.625 0.3125 1.5125
3.6875 0.375 1.5125
3.6875 0.3125 1.5125
3.75 0.375 1.5125
3.6875 0.3125 1.575
3.75 0.3125 1.575
3.6875 0.375 1.575
3.75 0.3125 1.5125
3.8125 0.375 1.5125
3.8125 0.3125 1.5125
3.875 0.375 1.5125
3.8125 0.3125 1.575
3.875 0.3125 1.575
3.8125 0.375 1.575
3.875 0.3125 1.5125
3.9375 0.375 1.5125
3.9375 0.3125 1.5125
4 0.375 1.5125
3.9375 0.3125 1.575
4 0.3125 1.575
3.9375 0.375 1.575
4 0.3125 1.5125
0.0625 0.5 1.5125
0.0625 0.4375 1.5125
0.125 0.5 1.5125
0.0625 0.4375 1.575
0.125 0.4375 1.575
0 0.5 1.5125
0 0.4375 1.5125
0.0625 0.5 1.575
0 0.4375 1.575
0.125 0.4375 1.5125
0.1875 0.5 1.5125
0.1875 0.4375 1.5125
0.25 0.5 1.5125
0.1875 0.4375 1.575
0.25 0.4375 1.575
0.1875 0.5 1.575
0.25 0.4375 1.5125
0.3125 0.5 1.5125
0.3125 0.4375 1.5125
0.375 0.5 1.5125
0.3125 0.4375 1.575
0.375 0.4375 1.575
0.3125 0.5 1.575
0.375 0.4375 1.5125
0.4375 0.5 1.5125
0.4375 0.4375 1.5125
0.5 0.5 1.5125
0.4375 0.4375 1.575
0.5 0.4375 1.575
0.4375 0.5 1.575
0.5 0.4375 1.5125
0.5625 0.5 1.5125
0.5625 0.4375 1.5125
0.625 0.5 1.5125
0.5625 0.4375 1.575
0.625 0.4375 1.575
0.5625 0.5 1.575
0.625 0.4375 1.5125
0.6875 0.5 1.5125
0.6875 0.4375 1.5125
0.75 0.5 1.5125
0.6875 0.4375 1.575
0.75 0.4375 1.575
0.6875 0.5 1.575
0.75 0.4375 1.5125
0.8125 0.5 1.5125
0.8125 0.4375 1.5125
0.875 0.5 1.5125
0.8125 0.4375 1.575
0.875 0.4375 1.575
0.8125 0.5 1.575
0.875 0.4375 1.5125
0.9375 0.5 1.5125
0.9375 0.4375 1.5125
1 0.5 1.5125
0.9375 0.4375 1.575
1 0.4375 1.575
0.9375 0.5 1.575
1 0.4375 1.5125
1.0625 0.5 1.5125
1.0625 0.4375 1.5125
1.125 0.5 1.5125
1.0625 0.4375 1.575
1.125 0.4375 1.575
1.0625 0.5 1.575
1.125 0.4375 1.5125
1.1875 0.5 1.5125
1.1875 0.4375 1.5125
1.25 0.5 1.5125
1.1875 0.4375 1.575
1.25 0.4375 1.575
1.1875 0.5 1.575
1.25 0.4375 1.5125
1.3125 0.5 1.5125
1.3125 0.4375 1.5125
1.375 0.5 1.5125
1.3125 0.4375 1.575
1.375 0.4375 1.575
1.3125 0.5 1.575
1.375 0.4375 1.5125
1.4375 0.5 1.5125
1.4375 0.4375 1.5125
1.5 0.5 1.5125
1.4375 0.4375 1.575
1.5 0.4375 1.575
1.4375 0.5 1.575
1.5 0.4375 1.5125
1.5625 0.5 1.5125
1.5625 0.4375 1.5125
1.625 0.5 1.5125
1.5625 0.4375 1.575
1.625 0.4375 1.575
1.5625 0.5 1.575
1.625 0.4375 1.5125
1.6875 0.5 1.5125
1.6875 0.4375 1.5125
1.75 0.5 1.5125
1.6875 0.4375 1.575
1.75 0.4375 1.575
1.6875 0.5 1.575
1.75 0.4375 1.5125
1.8125 0.5 1.5125
1.8125 0.4375 1.5125
1.875 0.5 1.5125
1.8125 0.4375 1.575
1.875 0.4375 1.575
1.8125 0.5 1.575
1.875 0.4375 1.5125
1.9375 0.5 1.5125
1.9375 0.4375 1.5125
2 0.5 1.5125
1.9375 0.4375 1.575
2 0.4375 1.575
1.9375 0.5 1.575
2 0.4375 1.5125
2.0625 0.5 1.5125
2.0625 0.4375 1.5125
2.125 0.5 1.5125
2.0625 0.4375 1.575
2.125 0.4375 1.575
2.0625 0.5 1.575
2.125 0.4375 1.5125
2.1875 0.5 1.5125
2.1875 0.4375 1.5125
2.25 0.5 1.5125
2.1875 0.4375 1.575
2.25 0.4375 1.575
2.1875 0.5 1.575
2.25 0.4375 1.5125
2.3125 0.5 1.5125
2.3125 0.4375 1.5125
2.375 0.5 1.5125
2.3125 0.4375 1.575
2.375 0.4375 1.575
2.3125 0.5 1.575
2.375 0.4375 1.5125
2.4375 0.5 1.5125
2.4375 0.4375 1.5125
2.5 0.5 1.5125
2.4375 0.4375 1.575
2.5 0.4375 1.575
2.4375 0.5 1.575
2.5 0.4375 1.5125
2.5625 0.5 1.5125
2.5625 0.4375 1.5125
2.625 0.5 1.5125
2.5625 0.4375 1.575
2.625 0.4375 1.575
2.5625 0.5 1.575
2.625 0.4375 1.5125
2.6875 0.5 1.5125
2.6875 0.4375 1.5125
2.75 0.5 1.5125
2.6875 0.4375 1.575
2.75 0.4375 1.575
2.6875 0.5 1.575
2.75 0.4375 1.5125
2.8125 0.5 1.5125
2.8125 0.4375 1.5125
2.875 0.5 1.5125
2.8125 0.4375 1.575
2.875 0.4375 1.575
2.8125 0.5 1.575
2.875 0.4375 1.5125
2.9375 0.5 1.5125
2.9375 0.4375 1.5125
3 0.5 1.5125
2.9375 0.4375 1.575
3 0.4375 1.575
2.9375 0.5 1.575
3 0.4375 1.5125
3.0625 0.5 1.5125
3.0625 0.4375 1.5125
3.125 0.5 1.5125
3.0625 0.4375 1.575
3.125 0.4375 1.575
3.0625 0.5 1.575
3.125 0.4375 1.5125
3.1875 0.5 1.5125
3.1875 0.4375 1.5125
3.25 0.5 1.5125
3.1875 0.4375 1.575
3.25 0.4375 1.575
3.1875 0.5 1.575
3.25 0.4375 1.5125
3.3125 0.5 1.5125
3.3125 0.4375 1.5125
3.375 0.5 1.5125
3.3125 0.4375 1.575
3.375 0.4375 1.575
3.3125 0.5 1.575
3.375 0.4375 1.5125
3.4375 0.5 1.5125
3.4375 0.4375 1.5125
3.5 0.5 1.5125
3.4375 0.4375 1.575
3.5 0.4375 1.575
3.4375 0.5 1.575
3.5 0.4375 1.5125
3.5625 0.5 1.5125
3.5625 0.4375 1.5125
3.625 0.5 1.5125
3.5625 0.4375 1.575
3.625 0.4375 1.575
3.5625 0.5 1.575
3.625 0.4375 1.5125
3.6875 0.5 1.5125
3.6875 0.4375 1.5125
3.75 0.5 1.5125
3.6875 0.4375 1.575
3.75 0.4375 1.575
3.6875 0.5 1.575
3.75 0.4375 1.5125
3.8125 0.5 1.5125
3.8125 0.4375 1.5125
3.875 0.5 1.5125
3.8125 0.4375 1.575
3.875 0.4375 1.575
3.8125 0.5 1.575
3.875 0.4375 1.5125
3.9375 0.5 1.5125
3.9375 0.4375 1.5125
4 0.5 1.5125
3.9375 0.4375 1.575
4 0.4375 1.575
3.9375 0.5 1.575
4 0.4375 1.5125
0.0625 0.625 1.5125
0.0625 0.5625 1.5125
0.125 0.625 1.5125
0.0625 0.5625 1.575
0.125 0.5625 1.575
0 0.625 1.5125
0 0.5625 1.5125
0.0625 0.625 1.575
0 0.5625 1.575
0.125 0.5625 1.5125
0.1875 0.625 1.5125
0.1875 0.5625 1.5125
0.25 0.625 1.5125
0.1875 0.5625 1.575
0.25 0.5625 1.575
0.1875 0.625 1.575
0.25 0.5625 1.5125
0.3125 0.625 1.5125
0.3125 0.5625 1.5125
0.375 0.625 1.5125
0.3125 0.5625 1.575
0.375 0.5625 1.575
0.3125 0.625 1.575
0.375 0.5625 1.5125
0.4375 0.625 1.5125
0.4375 0.5625 1.5125
0.5 0.625 1.5125
0.4375 0.5625 1.575
0.5 0.5625 1.575
0.4375 0.625 1.575
0.5 0.5625 1.5125
0.5625 0.625 1.5125
0.5625 0.5625 1.5125
0.625 0.625 1.5125
0.5625 0.5625 1.575
0.625 0.5625 1.575
0.5625 0.625 1.575
0.625 0.5625 1.5125
0.6875 0.625 1.5125
0.6875 0.5625 1.5125
0.75 0.625 1.5125
0.6875 0.5625 1.575
0.75 0.5625 1.575
0.6875 0.625 1.575
0.75 0.5625 1.5125
0.8125 0.625 1.5125
0.8125 0.5625 1.5125
0.875 0.625 1.5125
0.8125 0.5625 1.575
0.875 0.5625 1.575
0.8125 0.625 1.575
0.875 0.5625 1.5125
0.9375 0.625 1.5125
0.9375 0.5625 1.5125
1 0.625 1.5125
0.9375 0.5625 1.575
1 0.5625 1.575
0.9375 0.625 1.575
1 0.5625 1.5125
1.0625 0.625 1.5125
1.0625 0.5625 1.5125
1.125 0.625 1.5125
1.0625 0.5625 1.575
1.125 0.5625 1.575
1.0625 0.625 1.575
1.125 0.5625 1.5125
1.1875 0.625 1.5125
1.1875 0.5625 1.5125
1.25 0.625 1.5125
1.1875 0.5625 1.575
1.25 0.5625 1.575
1.1875 0.625 1.575
1.25 0.5625 1.5125
1.3125 0.625 1.5125
1.3125 0.5625 1.5125
1.375 0.625 1.5125
1.3125 0.5625 1.575
1.375 0.5625 1.575
1.3125 0.625 1.575
1.375 0.5625 1.5125
1.4375 0.625 1.5125
1.4375 0.5625 1.5125
1.5 0.625 1.5125
1.4375 0.5625 1.575
1.5 0.5625 1.575
1.4375 0.625 1.575
1.5 0.5625 1.5125
1.5625 0.625 1.5125
1.5625 0.5625 1.5125
1.625 0.625 1.5125
1.5625 0.5625 1.575
1.625 0.5625 1.575
1.5625 0.625 1.575
1.625 0.5625 1.5125
1.6875 0.625 1.5125
1.6875 0.5625 1.5125
1.75 0.625 1.5125
1.6875 0.5625 1.575
1.75 0.5625 1.575
1.6875 0.625 1.575
1.75 0.5625 1.5125
1.8125 0.625 1.5125
1.8125 0.5625 1.5125
1.875 0.625 1.5125
1.8125 0.5625 1.575
1.875 0.5625 1.575
1.8125 0.625 1.575
1.875 0.5625 1.5125
1.9375 0.625 1.5125
1.9375 0.5625 1.5125
2 0.625 1.5125
1.9375 0.5625 1.575
2 0.5625 1.575
1.9375 0.625 1.575
2 0.5625 1.5125
2.0625 0.625 1.5125
2.0625 0.5625 1.5125
2.125 0.625 1.5125
2.0625 0.5625 1.575
2.125 0.5625 1.575
2.0625 0.625 1.575
2.125 0.5625 1.5125
2.1875 0.625 1.5125
2.1875 0.5625 1.5125
2.25 0.625 1.5125
2.1875 0.5625 1.575
2.25 0.5625 1.575
2.1875 0.625 1.575
2.25 0.5625 1.5125
2.3125 0.625 1.5125
2.3125 0.5625 1.5125
2.375 0.625 1.5125
2.3125 0.5625 1.575
2.375 0.5625 1.575
2.3125 0.625 1.575
2.375 0.5625 1.5125
2.4375 0.625 1.5125
2.4375 0.5625 1.5125
2.5 0.625 1.5125
2.4375 0.5625 1.575
2.5 0.5625 1.575
2.4375 0.625 1.575
2.5 0.5625 1.5125
2.5625 0.625 1.5125
2.5625 0.5625 1.5125
2.625 0.625 1.5125
2.5625 0.5625 1.575
2.625 0.5625 1.575
2.5625 0.625 1.575
2.625 0.5625 1.5125
2.6875 0.625 1.5125
2.6875 0.5625 1.5125
2.75 0.625 1.5125
2.6875 0.5625 1.575
2.75 0.5625 1.575
2.6875 0.625 1.575
2.75 0.5625 1.5125
2.8125 0.625 1.5125
2.8125 0.5625 1.5125
2.875 0.625 1.5125
2.8125 0.5625 1.575
2.875 0.5625 1.575
2.8125 0.625 1.575
2.875 0.5625 1.5125
2.9375 0.625 1.5125
2.9375 0.5625 1.5125
3 0.625 1.5125
2.9375 0.5625 1.575
3 0.5625 1.575
2.9375 0.625 1.575
3 0.5625 1.5125
3.0625 0.625 1.5125
3.0625 0.5625 1.5125
3.125 0.625 1.5125
3.0625 0.5625 1.575
3.125 0.5625 1.575
3.0625 0.625 1.575
3.125 0.5625 1.5125
3.1875 0.625 1.5125
3.1875 0.5625 1.5125
3.25 0.625 1.5125
3.1875 0.5625 1.575
3.25 0.5625 1.575
3.1875 0.625 1.575
3.25 0.5625 1.5125
3.3125 0.625 1.5125
3.3125 0.5625 1.5125
3.375 0.625 1.5125
3.3125 0.5625 1.575
3.375 0.5625 1.575
3.3125 0.625 1.575
3.375 0.5625 1.5125
3.4375 0.625 1.5125
3.4375 0.5625 1.5125
3.5 0.625 1.5125
3.4375 0.5625 1.575
3.5 0.5625 1.575
3.4375 0.625 1.575
3.5 0.5625 1.5125
3.5625 0.625 1.5125
3.5625 0.5625 1.5125
3.625 0.625 1.5125
3.5625 0.5625 1.575
3.625 0.5625 1.575
3.5625 0.625 1.575
3.625 0.5625 1.5125
3.6875 0.625 1.5125
3.6875 0.5625 1.5125
3.75 0.625 1.5125
3.6875 0.5625 1.575
3.75 0.5625 1.575
3.6875 0.625 1.575
3.75 0.5625 1.5125
3.8125 0.625 1.5125
3.8125 0.5625 1.5125
3.875 0.625 1.5125
3.8125 0.5625 1.575
3.875 0.5625 1.575
3.8125 0.625 1.575
3.875 0.5625 1.5125
3.9375 0.625 1.5125
3.9375 0.5625 1.5125
4 0.625 1.5125
3.9375 0.5625 1.575
4 0.5625 1.575
3.9375 0.625 1.575
4 0.5625 1.5125
0.0625 0.75 1.5125
0.0625 0.6875 1.5125
0.125 0.75 1.5125
0.0625 0.6875 1.575
0.125 0.6875 1.575
0 0.75 1.5125
0 0.6875 1.5125
0.0625 0.75 1.575
0 0.6875 1.575
0.125 0.6875 1.5125
0.1875 0.75 1.5125
0.1875 0.6875 1.5125
0.25 0.75 1.5125
0.1875 0.6875 1.575
0.25 0.6875 1.575
0.1875 0.75 1.575
0.25 0.6875 1.5125
0.3125 0.75 1.5125
0.3125 0.6875 1.5125
0.375 0.75 1.5125
0.3125 0.6875 1.575
0.375 0.6875 1.575
0.3125 0.75 1.575
0.375 0.6875 1.5125
0.4375 0.75 1.5125
0.4375 0.6875 1.5125
0.5 0.75 1.5125
0.4375 0.6875 1.575
0.5 0.6875 1.575
0.4375 0.75 1.575
0.5 0.6875 1.5125
0.5625 0.75 1.5125
0.5625 0.6875 1.5125
0.625 0.75 1.5125
0.5625 0.6875 1.575
0.625 0.6875 1.575
0.5625 0.75 1.575
0.625 0.6875 1.5125
0.6875 0.75 1.5125
0.6875 0.6875 1.5125
0.75 0.75 1.5125
0.6875 0.6875 1.575
0.75 0.6875 1.575
0.6875 0.75 1.575
0.75 0.6875 1.5125
0.8125 0.75 1.5125
0.8125 0.6875 1.5125
0.875 0.75 1.5125
0.8125 0.6875 1.575
0.875 0.6875 1.575
0.8125 0.75 1.575
0.875 0.6875 1.5125
0.9375 0.75 1.5125
0.9375 0.6875 1.5125
1 0.75 1.5125
0.9375 0.6875 1.575
1 0.6875 1.575
0.9375 0.75 1.575
1 0.6875 1.5125
1.0625 0.75 1.5125
1.0625 0.6875 1.5125
1.125 0.75 1.5125
1.0625 0.6875 1.575
1.125 0.6875 1.575
1.0625 0.75 1.575
1.125 0.6875 1.5125
1.1875 0.75 1.5125
1.1875 0.6875 1.5125
1.25 0.75 1.5125
1.1875 0.6875 1.575
1.25 0.6875 1.575
1.1875 0.75 1.575
1.25 0.6875 1.5125
1.3125 0.75 1.5125
1.3125 0.6875 1.5125
1.375 0.75 1.5125
1.3125 0.6875 1.575
1.375 0.6875 1.575
1.3125 0.75 1.575
1.375 0.6875 1.5125
1.4375 0.75 1.5125
1.4375 0.6875 1.5125
1.5 0.75 1.5125
1.4375 0.6875 1.575
1.5 0.6875 1.575
1.4375 0.75 1.575
1.5 0.6875 1.5125
1.5625 0.75 1.5125
1.5625 0.6875 1.5125
1.625 0.75 1.5125
1.5625 0.6875 1.575
1.625 0.6875 1.575
1.5625 0.75 1.575
1.625 0.6875 1.5125
1.6875 0.75 1.5125
1.6875 0.6875 1.5125
1.75 0.75 1.5125
1.6875 0.6875 1.575
1.75 0.6875 1.575
1.6875 0.75 1.575
1.75 0.6875 1.5125
1.8125 0.75 1.5125
1.8125 0.6875 1.5125
1.875 0.75 1.5125
1.8125 0.6875 1.575
1.875 0.6875 1.575
1.8125 0.75 1.575
1.875 0.6875 1.5125
1.9375 0.75 1.5125
1.9375 0.6875 1.5125
2 0.75 1.5125
1.9375 0.6875 1.575
2 0.6875 1.575
1.9375 0.75 1.575
2 0.6875 1.5125
2.0625 0.75 1.5125
2.0625 0.6875 1.5125
2.125 0.75 1.5125
2.0625 0.6875 1.575
2.125 0.6875 1.575
2.0625 0.75 1.575
2.125 0.6875 1.5125
2.1875 0.75 1.5125
2.1875 0.6875 1.5125
2.25 0.75 1.5125
2.1875 0.6875 1.575
2.25 0.6875 1.575
2.1875 0.75 1.575
2.25 0.6875 1.5125
2.3125 0.75 1.5125
2.3125 0.6875 1.5125
2.375 0.75 1.5125
2.3125 0.6875 1.575
2.375 0.6875 1.575
2.3125 0.75 1.575
2.375 0.6875 1.5125
2.4375 0.75 1.5125
2.4375 0.6875 1.5125
2.5 0.75 1.5125
2.4375 0.6875 1.575
2.5 0.6875 1.575
2.4375 0.75 1.575
2.5 0.6875 1.5125
2.5625 0.75 1.5125
2.5625 0.6875 1.5125
2.625 0.75 1.5125
2.5625 0.6875 1.575
2.625 0.6875 1.575
2.5625 0.75 1.575
2.625 0.6875 1.5125
2.6875 0.75 1.5125
2.6875 0.6875 1.5125
2.75 0.75 1.5125
2.6875 0.6875 1.575
2.75 0.6875 1.575
2.6875 0.75 1.575
2.75 0.6875 1.5125
2.8125 0.75 1.5125
2.8125 0.6875 1.5125
2.875 0.75 1.5125
2.8125 0.6875 1.575
2.875 0.6875 1.575
2.8125 0.75 1.575
2.875 0.6875 1.5125
2.9375 0.75 1.5125
2.9375 0.6875 1.5125
3 0.75 1.5125
2.9375 0.6875 1.575
3 0.6875 1.575
2.9375 0.75 1.575
3 0.6875 1.5125
3.0625 0.75 1.5125
3.0625 0.6875 1.5125
3.125 0.75 1.5125
3.0625 0.6875 1.575
3.125 0.6875 1.575
3.0625 0.75 1.575
3.125 0.6875 1.5125
3.1875 0.75 1.5125
3.1875 0.6875 1.5125
3.25 0.75 1.5125
3.1875 0.6875 1.575
3.25 0.6875 1.575
3.1875 0.75 1.575
3.25 0.6875 1.5125
3.3125 0.75 1.5125
3.3125 0.6875 1.5125
3.375 0.75 1.5125
3.3125 0.6875 1.575
3.375 0.6875 1.575
3.3125 0.75 1.575
3.375 0.6875 1.5125
3.4375 0.75 1.5125
3.4375 0.6875 1.5125
3.5 0.75 1.5125
3.4375 0.6875 1.575
3.5 0.6875 1.575
3.4375 0.75 1.575
3.5 0.6875 1.5125
3.5625 0.75 1.5125
3.5625 0.6875 1.5125
3.625 0.75 1.5125
3.5625 0.6875 1.575
3.625 0.6875 1.575
3.5625 0.75 1.575
3.625 0.6875 1.5125
3.6875 0.75 1.5125
3.6875 0.6875 1.5125
3.75 0.75 1.5125
3.6875 0.6875 1.575
3.75 0.6875 1.575
3.6875 0.75 1.575
3.75 0.6875 1.5125
3.8125 0.75 1.5125
3.8125 0.6875 1.5125
3.875 0.75 1.5125
3.8125 0.6875 1.575
3.875 0.6875 1.575
3.8125 0.75 1.575
3.875 0.6875 1.5125
3.9375 0.75 1.5125
3.9375 0.6875 1.5125
4 0.75 1.5125
3.9375 0.6875 1.575
4 0.6875 1.575
3.9375 0.75 1.575
4 0.6875 1.5125
0.0625 0.875 1.5125
0.0625 0.8125 1.5125
0.125 0.875 1.5125
0.0625 0.8125 1.575
0.125 0.8125 1.575
0 0.875 1.5125
0 0.8125 1.5125
0.0625 0.875 1.575
0 0.8125 1.575
0.125 0.8125 1.5125
0.1875 0.875 1.5125
0.1875 0.8125 1.5125
0.25 0.875 1.5125
0.1875 0.8125 1.575
0.25 0.8125 1.575
0.1875 0.875 1.575
0.25 0.8125 1.5125
0.3125 0.875 1.5125
0.3125 0.8125 1.5125
0.375 0.875 1.5125
0.3125 0.8125 1.575
0.375 0.8125 1.575
0.3125 0.875 1.575
0.375 0.8125 1.5125
0.4375 0.875 1.5125
0.4375 0.8125 1.5125
0.5 0.875 1.5125
0.4375 0.8125 1.575
0.5 0.8125 1.575
0.4375 0.875 1.575
0.5 0.8125 1.5125
0.5625 0.875 1.5125
0.5625 0.8125 1.5125
0.625 0.875 1.5125
0.5625 0.8125 1.575
0.625 0.8125 1.575
0.5625 0.875 1.575
0.625 0.8125 1.5125
0.6875 0.875 1.5125
0.6875 0.8125 1.5125
0.75 0.875 1.5125
0.6875 0.8125 1.575
0.75 0.8125 1.575
0.6875 0.875 1.575
0.75 0.8125 1.5125
0.8125 0.875 1.5125
0.8125 0.8125 1.5125
0.875 0.875 1.5125
0.8125 0.8125 1.575
0.875 0.8125 1.575
0.8125 0.875 1.575
0.875 0.8125 1.5125
0.9375 0.875 1.5125
0.9375 0.8125 1.5125
1 0.875 1.5125
0.9375 0.8125 1.575
1 0.8125 1.575
0.9375 0.875 1.575
1 0.8125 1.5125
1.0625 0.875 1.5125
1.0625 0.8125 1.5125
1.125 0.875 1.5125
1.0625 0.8125 1.575
1.125 0.8125 1.575
1.0625 0.875 1.575
1.125 0.8125 1.5125
1.1875 0.875 1.5125
1.1875 0.8125 1.5125
1.25 0.875 1.5125
1.1875 0.8125 1.575
1.25 0.8125 1.575
1.1875 0.875 1.575
1.25 0.8125 1.5125
1.3125 0.875 1.5125
1.3125 0.8125 1.5125
1.375 0.875 1.5125
1.3125 0.8125 1.575
1.375 0.8125 1.575
1.3125 0.875 1.575
1.375 0.8125 1.5125
1.4375 0.875 1.5125
1.4375 0.8125 1.5125
1.5 0.875 1.5125
1.4375 0.8125 1.575
1.5 0.8125 1.575
1.4375 0.875 1.575
1.5 0.8125 1.5125
1.5625 0.875 1.5125
1.5625 0.8125 1.5125
1.625 0.875 1.5125
1.5625 0.8125 1.575
1.625 0.8125 1.575
1.5625 0.875 1.575
1.625 0.8125 1.5125
1.6875 0.875 1.5125
1.6875 0.8125 1.5125
1.75 0.875 1.5125
1.6875 0.8125 1.575
1.75 0.8125 1.575
1.6875 0.875 1.575
1.75 0.8125 1.5125
1.8125 0.875 1.5125
1.8125 0.8125 1.5125
1.875 0.875 1.5125
1.8125 0.8125 1.575
1.875 0.8125 1.575
1.8125 0.875 1.575
1.875 0.8125 1.5125
1.9375 0.875 1.5125
1.9375 0.8125 1.5125
2 0.875 1.5125
1.9375 0.8125 1.575
2 0.8125 1.575
1.9375 0.875 1.575
2 0.8125 1.5125
2.0625 0.875 1.5125
2.0625 0.8125 1.5125
2.125 0.875 1.5125
2.0625 0.8125 1.575
2.125 0.8125 1.575
2.0625 0.875 1.575
2.125 0.8125 1.5125
2.1875 0.875 1.5125
2.1875 0.8125 1.5125
2.25 0.875 1.5125
2.1875 0.8125 1.575
2.25 0.8125 1.575
2.1875 0.875 1.575
2.25 0.8125 1.5125
2.3125 0.875 1.5125
2.3125 0.8125 1.5125
2.375 0.875 1.5125
2.3125 0.8125 1.575
2.375 0.8125 1.575
2.3125 0.875 1.575
2.375 0.8125 1.5125
2.4375 0.875 1.5125
2.4375 0.8125 1.5125
2.5 0.875 1.5125
2.4375 0.8125 1.575
2.5 0.8125 1.575
2.4375 0.875 1.575
2.5 0.8125 1.5125
2.5625 0.875 1.5125
2.5625 0.8125 1.5125
2.625 0.875 1.5125
2.5625 0.8125 1.575
2.625 0.8125 1.575
2.5625 0.875 1.575
2.625 0.8125 1.5125
2.6875 0.875 1.5125
2.6875 0.8125 1.5125
2.75 0.875 1.5125
2.6875 0.8125 1.575
2.75 0.8125 1.575
2.6875 0.875 1.575
2.75 0.8125 1.5125
2.8125 0.875 1.5125
2.8125 0.8125 1.5125
2.875 0.875 1.5125
2.8125 0.8125 1.575
2.875 0.8125 1.575
2.8125 0.875 1.575
2.875 0.8125 1.5125
2.9375 0.875 1.5125
2.9375 0.8125 1.5125
3 0.875 1.5125
2.9375 0.8125 1.575
3 0.8125 1.575
2.9375 0.875 1.575
3 0.8125 1.5125
3.0625 0.875 1.5125
3.0625 0.8125 1.5125
3.125 0.875 1.5125
3.0625 0.8125 1.575
3.125 0.8125 1.575
3.0625 0.875 1.575
3.125 0.8125 1.5125
3.1875 0.875 1.5125
3.1875 0.8125 1.5125
3.25 0.875 1.5125
3.1875 0.8125 1.575
3.25 0.8125 1.575
3.1875 0.875 1.575
3.25 0.8125 1.5125
3.3125 0.875 1.5125
3.3125 0.8125 1.5125
3.375 0.875 1.5125
3.3125 0.8125 1.575
3.375 0.8125 1.575
3.3125 0.875 1.575
3.375 0.8125 1.5125
3.4375 0.875 1.5125
3.4375 0.8125 1.5125
3.5 0.875 1.5125
3.4375 0.8125 1.575
3.5 0.8125 1.575
3.4375 0.875 1.575
3.5 0.8125 1.5125
3.5625 0.875 1.5125
3.5625 0.8125 1.5125
3.625 0.875 1.5125
3.5625 0.8125 1.575
3.625 0.8125 1.575
3.5625 0.875 1.575
3.625 0.8125 1.5125
3.6875 0.875 1.5125
3.6875 0.8125 1.5125
3.75 0.875 1.5125
3.6875 0.8125 1.575
3.75 0.8125 1.575
3.6875 0.875 1.575
3.75 0.8125 1.5125
3.8125 0.875 1.5125
3.8125 0.8125 1.5125
3.875 0.875 1.5125
3.8125 0.8125 1.575
3.875 0.8125 1.575
3.8125 0.875 1.575
3.875 0.8125 1.5125
3.9375 0.875 1.5125
3.9375 0.8125 1.5125
4 0.875 1.5125
3.9375 0.8125 1.575
4 0.8125 1.575
3.9375 0.875 1.575
4 0.8125 1.5125
0.0625 1 1.5125
0.0625 0.9375 1.5125
0.125 1 1.5125
0.0625 0.9375 1.575
0.125 0.9375 1.575
0 1 1.5125
0 0.9375 1.5125
0.0625 1 1.575
0 0.9375 1.575
0.125 0.9375 1.5125
0.1875 1 1.5125
0.1875 0.9375 1.5125
0.25 1 1.5125
0.1875 0.9375 1.575
0.25 0.9375 1.575
0.1875 1 1.575
0.25 0.9375 1.5125
0.3125 1 1.5125
0.3125 0.9375 1.5125
0.375 1 1.5125
0.3125 0.9375 1.575
0.375 0.9375 1.575
0.3125 1 1.575
0.375 0.9375 1.5125
0.4375 1 1.5125
0.4375 0.9375 1.5125
0.5 1 1.5125
0.4375 0.9375 1.575
0.5 0.9375 1.575
0.4375 1 1.575
0.5 0.9375 1.5125
0.5625 1 1.5125
0.5625 0.9375 1.5125
0.625 1 1.5125
0.5625 0.9375 1.575
0.625 0.9375 1.575
0.5625 1 1.575
0.625 0.9375 1.5125
0.6875 1 1.5125
0.6875 0.9375 1.5125
0.75 1 1.5125
0.6875 0.9375 1.575
0.75 0.9375 1.575
0.6875 1 1.575
0.75 0.9375 1.5125
0.8125 1 1.5125
0.8125 0.9375 1.5125
0.875 1 1.5125
0.8125 0.9375 1.575
0.875 0.9375 1.575
0.8125 1 1.575
0.875 0.9375 1.5125
0.9375 1 1.5125
0.9375 0.9375 1.5125
1 1 1.5125
0.9375 0.9375 1.575
1 0.9375 1.575
0.9375 1 1.575
1 0.9375 1.5125
1.0625 1 1.5125
1.0625 0.9375 1.5125
1.125 1 1.5125
1.0625 0.9375 1.575
1.125 0.9375 1.575
1.0625 1 1.575
1.125 0.9375 1.5125
1.1875 1 1.5125
1.1875 0.9375 1.5125
1.25 1 1.5125
1.1875 0.9375 1.575
1.25 0.9375 1.575
1.1875 1 1.575
1.25 0.9375 1.5125
1.3125 1 1.5125
1.3125 0.9375 1.5125
1.375 1 1.5125
1.3125 0.9375 1.575
1.375 0.9375 1.575
1.3125 1 1.575
1.375 0.9375 1.5125
1.4375 1 1.5125
1.4375 0.9375 1.5125
1.5 1 1.5125
1.4375 0.9375 1.575
1.5 0.9375 1.575
1.4375 1 1.575
1.5 0.9375 1.5125
1.5625 1 1.5125
1.5625 0.9375 1.5125
1.625 1 1.5125
1.5625 0.9375 1.575
1.625 0.9375 1.575
1.5625 1 1.575
1.625 0.9375 1.5125
1.6875 1 1.5125
1.6875 0.9375 1.5125
1.75 1 1.5125
1.6875 0.9375 1.575
1.75 0.9375 1.575
1.6875 1 1.575
1.75 0.9375 1.5125
1.8125 1 1.5125
1.8125 0.9375 1.5125
1.875 1 1.5125
1.8125 0.9375 1.575
1.875 0.9375 1.575
1.8125 1 1.575
1.875 0.9375 1.5125
1.9375 1 1.5125
1.9375 0.9375 1.5125
2 1 1.5125
1.9375 0.9375 1.575
2 0.9375 1.575
1.9375 1 1.575
2 0.9375 1.5125
2.0625 1 1.5125
2.0625 0.9375 1.5125
2.125 1 1.5125
2.0625 0.9375 1.575
2.125 0.9375 1.575
2.0625 1 1.575
2.125 0.9375 1.5125
2.1875 1 1.5125
2.1875 0.9375 1.5125
2.25 1 1.5125
2.1875 0.9375 1.575
2.25 0.9375 1.575
2.1875 1 1.575
2.25 0.9375 1.5125
2.3125 1 1.5125
2.3125 0.9375 1.5125
2.375 1 1.5125
2.3125 0.9375 1.575
2.375 0.9375 1.575
2.3125 1 1.575
2.375 0.9375 1.5125
2.4375 1 1.5125
2.4375 0.9375 1.5125
2.5 1 1.5125
2.4375 0.9375 1.575
2.5 0.9375 1.575
2.4375 1 1.575
2.5 0.9375 1.5125
2.5625 1 1.5125
2.5625 0.9375 1.5125
2.625 1 1.5125
2.5625 0.9375 1.575
2.625 0.9375 1.575
2.5625 1 1.575
2.625 0.9375 1.5125
2.6875 1 1.5125
2.6875 0.9375 1.5125
2.75 1 1.5125
2.6875 0.9375 1.575
2.75 0.9375 1.575
2.6875 1 1.575
2.75 0.9375 1.5125
2.8125 1 1.5125
2.8125 0.9375 1.5125
2.875 1 1.5125
2.8125 0.9375 1.575
2.875 0.9375 1.575
2.8125 1 1.575
2.875 0.9375 1.5125
2.9375 1 1.5125
2.9375 0.9375 1.5125
3 1 1.5125
2.9375 0.9375 1.575
3 0.9375 1.575
2.9375 1 1.575
3 0.9375 1.5125
3.0625 1 1.5125
3.0625 0.9375 1.5125
3.125 1 1.5125
3.0625 0.9375 1.575
3.125 0.9375 1.575
3.0625 1 1.575
3.125 0.9375 1.5125
3.1875 1 1.5125
3.1875 0.9375 1.5125
3.25 1 1.5125
3.1875 0.9375 1.575
3.25 0.9375 1.575
3.1875 1 1.575
3.25 0.9375 1.5125
3.3125 1 1.5125
3.3125 0.9375 1.5125
3.375 1 1.5125
3.3125 0.9375 1.575
3.375 0.9375 1.575
3.3125 1 1.575
3.375 0.9375 1.5125
3.4375 1 1.5125
3.4375 0.9375 1.5125
3.5 1 1.5125
3.4375 0.9375 1.575
3.5 0.9375 1.575
3.4375 1 1.575
3.5 0.9375 1.5125
3.5625 1 1.5125
3.5625 0.9375 1.5125
3.625 1 1.5125
3.5625 0.9375 1.575
3.625 0.9375 1.575
3.5625 1 1.575
3.625 0.9375 1.5125
3.6875 1 1.5125
3.6875 0.9375 1.5125
3.75 1 1.5125
3.6875 0.9375 1.575
3.75 0.9375 1.575
3.6875 1 1.575
3.75 0.9375 1.5125
3.8125 1 1.5125
3.8125 0.9375 1.5125
3.875 1 1.5125
3.8125 0.9375 1.575
3.875 0.9375 1.575
3.8125 1 1.575
3.875 0.9375 1.5125
3.9375 1 1.5125
3.9375 0.9375 1.5125
4 1 1.5125
3.9375 0.9375 1.575
4 0.9375 1.575
3.9375 1 1.575
4 0.9375 1.5125
0.0625 0.125 1.6375
0.0625 0.0625 1.6375
0.125 0.125 1.6375
0.0625 0.0625 1.7
0.125 0.0625 1.7
0.0625 0 1.7
0 0 1.6375
0.0625 0 1.6375
0 0.125 1.6375
0 0.0625 1.6375
0.0625 0.125 1.7
0 0.0625 1.7
0.125 0 1.6375
0.125 0.0625 1.6375
0.1875 0.125 1.6375
0.1875 0.0625 1.6375
0.25 0.125 1.6375
0.1875 0.0625 1.7
0.25 0.0625 1.7
0.1875 0 1.7
0.1875 0 1.6375
0.1875 0.125 1.7
0.25 0 1.6375
0.25 0.0625 1.6375
0.3125 0.125 1.6375
0.3125 0.0625 1.6375
0.375 0.125 1.6375
0.3125 0.0625 1.7
0.375 0.0625 1.7
0.3125 0 1.7
0.3125 0 1.6375
0.3125 0.125 1.7
0.375 0 1.6375
0.375 0.0625 1.6375
0.4375 0.125 1.6375
0.4375 0.0625 1.6375
0.5 0.125 1.6375
0.4375 0.0625 1.7
0.5 0.0625 1.7
0.4375 0 1.7
0.4375 0 1.6375
0.4375 0.125 1.7
0.5 0 1.6375
0.5 0.0625 1.6375
0.5625 0.125 1.6375
0.5625 0.0625 1.6375
0.625 0.125 1.6375
0.5625 0.0625 1.7
0.625 0.0625 1.7
0.5625 0 1.7
0.5625 0 1.6375
0.5625 0.125 1.7
0.625 0 1.6375
0.625 0.0625 1.6375
0.6875 0.125 1.6375
0.6875 0.0625 1.6375
0.75 0.125 1.6375
0.6875 0.0625 1.7
0.75 0.0625 1.7
0.6875 0 1.7
0.6875 0 1.6375
0.6875 0.125 1.7
0.75 0 1.6375
0.75 0.0625 1.6375
0.8125 0.125 1.6375
0.8125 0.0625 1.6375
0.875 0.125 1.6375
0.8125 0.0625 1.7
0.875 0.0625 1.7
0.8125 0 1.7
0.8125 0 1.6375
0.8125 0.125 1.7
0.875 0 1.6375
0.875 0.0625 1.6375
0.9375 0.125 1.6375
0.9375 0.0625 1.6375
1 0.125 1.6375
0.9375 0.0625 1.7
1 0.0625 1.7
0.9375 0 1.7
0.9375 0 1.6375
0.9375 0.125 1.7
1 0 1.6375
1 0.0625 1.6375
1.0625 0.125 1.6375
1.0625 0.0625 1.6375
1.125 0.125 1.6375
1.0625 0.0625 1.7
1.125 0.0625 1.7
1.0625 0 1.7
1.0625 0 1.6375
1.0625 0.125 1.7
1.125 0 1.6375
1.125 0.0625 1.6375
1.1875 0.125 1.6375
1.1875 0.0625 1.6375
1.25 0.125 1.6375
1.1875 0.0625 1.7
1.25 0.0625 1.7
1.1875 0 1.7
1.1875 0 1.6375
1.1875 0.125 1.7
1.25 0 1.6375
1.25 0.0625 1.6375
1.3125 0.125 1.6375
1.3125 0.0625 1.6375
1.375 0.125 1.6375
1.3125 0.0625 1.7
1.375 0.0625 1.7
1.3125 0 1.7
1.3125 0 1.6375
1.3125 0.125 1.7
1.375 0 1.6375
1.375 0.0625 1.6375
1.4375 0.125 1.6375
1.4375 0.0625 1.6375
1.5 0.125 1.6375
1.4375 0.0625 1.7
1.5 0.0625 1.7
1.4375 0 1.7
1.4375 0 1.6375
1.4375 0.125 1.7
1.5 0 1.6375
1.5 0.0625 1.6375
1.5625 0.125 1.6375
1.5625 0.0625 1.6375
1.625 0.125 1.6375
1.5625 0.0625 1.7
1.625 0.0625 1.7
1.5625 0 1.7
1.5625 0 1.6375
1.5625 0.125 1.7
1.625 0 1.6375
1.625 0.0625 1.6375
1.6875 0.125 1.6375
1.6875 0.0625 1.6375
1.75 0.125 1.6375
1.6875 0.0625 1.7
1.75 0.0625 1.7
1.6875 0 1.7
1.6875 0 1.6375
1.6875 0.125 1.7
1.75 0 1.6375
1.75 0.0625 1.6375
1.8125 0.125 1.6375
1.8125 0.0625 1.6375
1.875 0.125 1.6375
1.8125 0.0625 1.7
1.875 0.0625 1.7
1.8125 0 1.7
1.8125 0 1.6375
1.8125 0.125 1.7
1.875 0 1.6375
1.875 0.0625 1.6375
1.9375 0.125 1.6375
1.9375 0.0625 1.6375
2 0.125 1.6375
1.9375 0.0625 1.7
2 0.0625 1.7
1.9375 0 1.7
1.9375 0 1.6375
1.9375 0.125 1.7
2 0 1.6375
2 0.0625 1.6375
2.0625 0.125 1.6375
2.0625 0.0625 1.6375
2.125 0.125 1.6375
2.0625 0.0625 1.7
2.125 0.0625 1.7
2.0625 0 1.7
2.0625 0 1.6375
2.0625 0.125 1.7
2.125 0 1.6375
2.125 0.0625 1.6375
2.1875 0.125 1.6375
2.1875 0.0625 1.6375
2.25 0.125 1.6375
2.1875 0.0625 1.7
2.25 0.0625 1.7
2.1875 0 1.7
2.1875 0 1.6375
2.1875 0.125 1.7
2.25 0 1.6375
2.25 0.0625 1.6375
2.3125 0.125 1.6375
2.3125 0.0625 1.6375
2.375 0.125 1.6375
2.3125 0.0625 1.7
2.375 0.0625 1.7
2.3125 0 1.7
2.3125 0 1.6375
2.3125 0.125 1.7
2.375 0 1.6375
2.375 0.0625 1.6375
2.4375 0.125 1.6375
2.4375 0.0625 1.6375
2.5 0.125 1.6375
2.4375 0.0625 1.7
2.5 0.0625 1.7
2.4375 0 1.7
2.4375 0 1.6375
2.4375 0.125 1.7
2.5 0 1.6375
2.5 0.0625 1.6375
2.5625 0.125 1.6375
2.5625 0.0625 1.6375
2.625 0.125 1.6375
2.5625 0.0625 1.7
2.625 0.0625 1.7
2.5625 0 1.7
2.5625 0 1.6375
2.5625 0.125 1.7
2.625 0 1.6375
2.625 0.0625 1.6375
2.6875 0.125 1.6375
2.6875 0.0625 1.6375
2.75 0.125 1.6375
2.6875 0.0625 1.7
2.75 0.0625 1.7
2.6875 0 1.7
2.6875 0 1.6375
2.6875 0.125 1.7
2.75 0 1.6375
2.75 0.0625 1.6375
2.8125 0.125 1.6375
2.8125 0.0625 1.6375
2.875 0.125 1.6375
2.8125 0.0625 1.7
2.875 0.0625 1.7
2.8125 0 1.7
2.8125 0 1.6375
2.8125 0.125 1.7
2.875 0 1.6375
2.875 0.0625 1.6375
2.9375 0.125 1.6375
2.9375 0.0625 1.6375
3 0.125 1.6375
2.9375 0.0625 1.7
3 0.0625 1.7
2.9375 0 1.7
2.9375 0 1.6375
2.9375 0.125 1.7
3 0 1.6375
3 0.0625 1.6375
3.0625 0.125 1.6375
3.0625 0.0625 1.6375
3.125 0.125 1.6375
3.0625 0.0625 1.7
3.125 0.0625 1.7
3.0625 0 1.7
3.0625 0 1.6375
3.0625 0.125 1.7
3.125 0 1.6375
3.125 0.0625 1.6375
3.1875 0.125 1.6375
3.1875 0.0625 1.6375
3.25 0.125 1.6375
3.1875 0.0625 1.7
3.25 0.0625 1.7
3.1875 0 1.7
3.1875 0 1.6375
3.1875 0.125 1.7
3.25 0 1.6375
3.25 0.0625 1.6375
3.3125 0.125 1.6375
3.3125 0.0625 1.6375
3.375 0.125 1.6375
3.3125 0.0625 1.7
3.375 0.0625 1.7
3.3125 0 1.7
3.3125 0 1.6375
3.3125 0.125 1.7
3.375 0 1.6375
3.375 0.0625 1.6375
3.4375 0.125 1.6375
3.4375 0.0625 1.6375
3.5 0.125 1.6375
3.4375 0.0625 1.7
3.5 0.0625 1.7
3.4375 0 1.7
3.4375 0 1.6375
3.4375 0.125 1.7
3.5 0 1.6375
3.5 0.0625 1.6375
3.5625 0.125 1.6375
3.5625 0.0625 1.6375
3.625 0.125 1.6375
3.5625 0.0625 1.7
3.625 0.0625 1.7
3.5625 0 1.7
3.5625 0 1.6375
3.5625 0.125 1.7
3.625 0 1.6375
3.625 0.0625 1.6375
3.6875 0.125 1.6375
3.6875 0.0625 1.6375
3.75 0.125 1.6375
3.6875 0.0625 1.7
3.75 0.0625 1.7
3.6875 0 1.7
3.6875 0 1.6375
3.6875 0.125 1.7
3.75 0 1.6375
3.75 0.0625 1.6375
3.8125 0.125 1.6375
3.8125 0.0625 1.6375
3.875 0.125 1.6375
3.8125 0.0625 1.7
3.875 0.0625 1.7
3.8125 0 1.7
3.8125 0 1.6375
3.8125 0.125 1.7
3.875 0 1.6375
3.875 0.0625 1.6375
3.9375 0.125 1.6375
3.9375 0.0625 1.6375
4 0.125 1.6375
3.9375 0.0625 1.7
4 0.0625 1.7
3.9375 0 1.7
3.9375 0 1.6375
3.9375 0.125 1.7
4 0 1.6375
4 0.0625 1.6375
0.0625 0.25 1.6375
0.0625 0.1875 1.6375
0.125 0.25 1.6375
0.0625 0.1875 1.7
0.125 0.1875 1.7
0 0.25 1.6375
0 0.1875 1.6375
0.0625 0.25 1.7
0 0.1875 1.7
0.125 0.1875 1.6375
0.1875 0.25 1.6375
0.1875 0.1875 1.6375
0.25 0.25 1.6375
0.1875 0.1875 1.7
0.25 0.1875 1.7
0.1875 0.25 1.7
0.25 0.1875 1.6375
0.3125 0.25 1.6375
0.3125 0.1875 1.6375
0.375 0.25 1.6375
0.3125 0.1875 1.7
0.375 0.1875 1.7
0.3125 0.25 1.7
0.375 0.1875 1.6375
0.4375 0.25 1.6375
0.4375 0.1875 1.6375
0.5 0.25 1.6375
0.4375 0.1875 1.7
0.5 0.1875 1.7
0.4375 0.25 1.7
0.5 0.1875 1.6375
0.5625 0.25 1.6375
0.5625 0.1875 1.6375
0.625 0.25 1.6375
0.5625 0.1875 1.7
0.625 0.1875 1.7
0.5625 0.25 1.7
0.625 0.1875 1.6375
0.6875 0.25 1.6375
0.6875 0.1875 1.6375
0.75 0.25 1.6375
0.6875 0.1875 1.7
0.75 0.1875 1.7
0.6875 0.25 1.7
0.75 0.1875 1.6375
0.8125 0.25 1.6375
0.8125 0.1875 1.6375
0.875 0.25 1.6375
0.8125 0.1875 1.7
0.875 0.1875 1.7
0.8125 0.25 1.7
0.875 0.1875 1.6375
0.9375 0.25 1.6375
0.9375 0.1875 1.6375
1 0.25 1.6375
0.9375 0.1875 1.7
1 0.1875 1.7
0.9375 0.25 1.7
1 0.1875 1.6375
1.0625 0.25 1.6375
1.0625 0.1875 1.6375
1.125 0.25 1.6375
1.0625 0.1875 1.7
1.125 0.1875 1.7
1.0625 0.25 1.7
1.125 0.1875 1.6375
1.1875 0.25 1.6375
1.1875 0.1875 1.6375
1.25 0.25 1.6375
1.1875 0.1875 1.7
1.25 0.1875 1.7
1.1875 0.25 1.7
1.25 0.1875 1.6375
1.3125 0.25 1.6375
1.3125 0.1875 1.6375
1.375 0.25 1.6375
1.3125 0.1875 1.7
1.375 0.1875 1.7
1.3125 0.25 1.7
1.375 0.1875 1.6375
1.4375 0.25 1.6375
1.4375 0.1875 1.6375
1.5 0.25 1.6375
1.4375 0.1875 1.7
1.5 0.1875 1.7
1.4375 0.25 1.7
1.5 0.1875 1.6375
1.5625 0.25 1.6375
1.5625 0.1875 1.6375
1.625 0.25 1.6375
1.5625 0.1875 1.7
1.625 0.1875 1.7
1.5625 0.25 1.7
1.625 0.1875 1.6375
1.6875 0.25 1.6375
1.6875 0.1875 1.6375
1.75 0.25 1.6375
1.6875 0.1875 1.7
1.75 0.1875 1.7
1.6875 0.25 1.7
1.75 0.1875 1.6375
1.8125 0.25 1.6375
1.8125 0.1875 1.6375
1.875 0.25 1.6375
1.8125 0.1875 1.7
1.875 0.1875 1.7
1.8125 0.25 1.7
1.875 0.1875 1.6375
1.9375 0.25 1.6375
1.9375 0.1875 1.6375
2 0.25 1.6375
1.9375 0.1875 1.7
2 0.1875 1.7
1.9375 0.25 1.7
2 0.1875 1.6375
2.0625 0.25 1.6375
2.0625 0.1875 1.6375
2.125 0.25 1.6375
2.0625 0.1875 1.7
2.125 0.1875 1.7
2.0625 0.25 1.7
2.125 0.1875 1.6375
2.1875 0.25 1.6375
2.1875 0.1875 1.6375
2.25 0.25 1.6375
2.1875 0.1875 1.7
2.25 0.1875 1.7
2.1875 0.25 1.7
2.25 0.1875 1.6375
2.3125 0.25 1.6375
2.3125 0.1875 1.6375
2.375 0.25 1.6375
2.3125 0.1875 1.7
2.375 0.1875 1.7
2.3125 0.25 1.7
2.375 0.1875 1.6375
2.4375 0.25 1.6375
2.4375 0.1875 1.6375
2.5 0.25 1.6375
2.4375 0.1875 1.7
2.5 0.1875 1.7
2.4375 0.25 1.7
2.5 0.1875 1.6375
2.5625 0.25 1.6375
2.5625 0.1875 1.6375
2.625 0.25 1.6375
2.5625 0.1875 1.7
2.625 0.1875 1.7
2.5625 0.25 1.7
2.625 0.1875 1.6375
2.6875 0.25 1.6375
2.6875 0.1875 1.6375
2.75 0.25 1.6375
2.6875 0.1875 1.7
2.75 0.1875 1.7
2.6875 0.25 1.7
2.75 0.1875 1.6375
2.8125 0.25 1.6375
2.8125 0.1875 1.6375
2.875 0.25 1.6375
2.8125 0.1875 1.7
2.875 0.1875 1.7
2.8125 0.25 1.7
2.875 0.1875 1.6375
2.9375 0.25 1.6375
2.9375 0.1875 1.6375
3 0.25 1.6375
2.9375 0.1875 1.7
3 0.1875 1.7
2.9375 0.25 1.7
3 0.1875 1.6375
3.0625 0.25 1.6375
3.0625 0.1875 1.6375
3.125 0.25 1.6375
3.0625 0.1875 1.7
3.125 0.1875 1.7
3.0625 0.25 1.7
3.125 0.1875 1.6375
3.1875 0.25 1.6375
3.1875 0.1875 1.6375
3.25 0.25 1.6375
3.1875 0.1875 1.7
3.25 0.1875 1.7
3.1875 0.25 1.7
3.25 0.1875 1.6375
3.3125 0.25 1.6375
3.3125 0.1875 1.6375
3.375 0.25 1.6375
3.3125 0.1875 1.7
3.375 0.1875 1.7
3.3125 0.25 1.7
3.375 0.1875 1.6375
3.4375 0.25 1.6375
3.4375 0.1875 1.6375
3.5 0.25 1.6375
3.4375 0.1875 1.7
3.5 0.1875 1.7
3.4375 0.25 1.7
3.5 0.1875 1.6375
3.5625 0.25 1.6375
3.5625 0.1875 1.6375
3.625 0.25 1.6375
3.5625 0.1875 1.7
3.625 0.1875 1.7
3.5625 0.25 1.7
3.625 0.1875 1.6375
3.6875 0.25 1.6375
3.6875 0.1875 1.6375
3.75 0.25 1.6375
3.6875 0.1875 1.7
3.75 0.1875 1.7
3.6875 0.25 1.7
3.75 0.1875 1.6375
3.8125 0.25 1.6375
3.8125 0.1875 1.6375
3.875 0.25 1.6375
3.8125 0.1875 1.7
3.875 0.1875 1.7
3.8125 0.25 1.7
3.875 0.1875 1.6375
3.9375 0.25 1.6375
3.9375 0.1875 1.6375
4 0.25 1.6375
3.9375 0.1875 1.7
4 0.1875 1.7
3.9375 0.25 1.7
4 0.1875 1.6375
0.0625 0.375 1.6375
0.0625 0.3125 1.6375
0.125 0.375 1.6375
0.0625 0.3125 1.7
0.125 0.3125 1.7
0 0.375 1.6375
0 0.3125 1.6375
0.0625 0.375 1.7
0 0.3125 1.7
0.125 0.3125 1.6375
0.1875 0.375 1.6375
0.1875 0.3125 1.6375
0.25 0.375 1.6375
0.1875 0.3125 1.7
0.25 0.3125 1.7
0.1875 0.375 1.7
0.25 0.3125 1.6375
0.3125 0.375 1.6375
0.3125 0.3125 1.6375
0.375 0.375 1.6375
0.3125 0.3125 1.7
0.375 0.3125 1.7
0.3125 0.375 1.7
0.375 0.3125 1.6375
0.4375 0.375 1.6375
0.4375 0.3125 1.6375
0.5 0.375 1.6375
0.4375 0.3125 1.7
0.5 0.3125 1.7
0.4375 0.375 1.7
0.5 0.3125 1.6375
0.5625 0.375 1.6375
0.5625 0.3125 1.6375
0.625 0.375 1.6375
0.5625 0.3125 1.7
0.625 0.3125 1.7
0.5625 0.375 1.7
0.625 0.3125 1.6375
0.6875 0.375 1.6375
0.6875 0.3125 1.6375
0.75 0.375 1.6375
0.6875 0.3125 1.7
0.75 0.3125 1.7
0.6875 0.375 1.7
0.75 0.3125 1.6375
0.8125 0.375 1.6375
0.8125 0.3125 1.6375
0.875 0.375 1.6375
0.8125 0.3125 1.7
0.875 0.3125 1.7
0.8125 0.375 1.7
0.875 0.3125 1.6375
0.9375 0.375 1.6375
0.9375 0.3125 1.6375
1 0.375 1.6375
0.9375 0.3125 1.7
1 0.3125 1.7
0.9375 0.375 1.7
1 0.3125 1.6375
1.0625 0.375 1.6375
1.0625 0.3125 1.6375
1.125 0.375 1.6375
1.0625 0.3125 1.7
1.125 0.3125 1.7
1.0625 0.375 1.7
1.125 0.3125 1.6375
1.1875 0.375 1.6375
1.1875 0.3125 1.6375
1.25 0.375 1.6375
1.1875 0.3125 1.7
1.25 0.3125 1.7
1.1875 0.375 1.7
1.25 0.3125 1.6375
1.3125 0.375 1.6375
1.3125 0.3125 1.6375
1.375 0.375 1.6375
1.3125 0.3125 1.7
1.375 0.3125 1.7
1.3125 0.375 1.7
1.375 0.3125 1.6375
1.4375 0.375 1.6375
1.4375 0.3125 1.6375
1.5 0.375 1.6375
1.4375 0.3125 1.7
1.5 0.3125 1.7
1.4375 0.375 1.7
1.5 0.3125 1.6375
1.5625 0.375 1.6375
1.5625 0.3125 1.6375
1.625 0.375 1.6375
1.5625 0.3125 1.7
1.625 0.3125 1.7
1.5625 0.375 1.7
1.625 0.3125 1.6375
1.6875 0.375 1.6375
1.6875 0.3125 1.6375
1.75 0.375 1.6375
1.6875 0.3125 1.7
1.75 0.3125 1.7
1.6875 0.375 1.7
1.75 0.3125 1.6375
1.8125 0.375 1.6375
1.8125 0.3125 1.6375
1.875 0.375 1.6375
1.8125 0.3125 1.7
1.875 0.3125 1.7
1.8125 0.375 1.7
1.875 0.3125 1.6375
1.9375 0.375 1.6375
1.9375 0.3125 1.6375
2 0.375 1.6375
1.9375 0.3125 1.7
2 0.3125 1.7
1.9375 0.375 1.7
2 0.3125 1.6375
2.0625 0.375 1.6375
2.0625 0.3125 1.6375
2.125 0.375 1.6375
2.0625 0.3125 1.7
2.125 0.3125 1.7
2.0625 0.375 1.7
2.125 0.3125 1.6375
2.1875 0.375 1.6375
2.1875 0.3125 1.6375
2.25 0.375 1.6375
2.1875 0.3125 1.7
2.25 0.3125 1.7
2.1875 0.375 1.7
2.25 0.3125 1.6375
2.3125 0.375 1.6375
2.3125 0.3125 1.6375
2.375 0.375 1.6375
2.3125 0.3125 1.7
2.375 0.3125 1.7
2.3125 0.375 1.7
2.375 0.3125 1.6375
2.4375 0.375 1.6375
2.4375 0.3125 1.6375
2.5 0.375 1.6375
2.4375 0.3125 1.7
2.5 0.3125 1.7
2.4375 0.375 1.7
2.5 0.3125 1.6375
2.5625 0.375 1.6375
2.5625 0.3125 1.6375
2.625 0.375 1.6375
2.5625 0.3125 1.7
2.625 0.3125 1.7
2.5625 0.375 1.7
2.625 0.3125 1.6375
2.6875 0.375 1.6375
2.6875 0.3125 1.6375
2.75 0.375 1.6375
2.6875 0.3125 1.7
2.75 0.3125 1.7
2.6875 0.375 1.7
2.75 0.3125 1.6375
2.8125 0.375 1.6375
2.8125 0.3125 1.6375
2.875 0.375 1.6375
2.8125 0.3125 1.7
2.875 0.3125 1.7
2.8125 0.375 1.7
2.875 0.3125 1.6375
2.9375 0.375 1.6375
2.9375 0.3125 1.6375
3 0.375 1.6375
2.9375 0.3125 1.7
3 0.3125 1.7
2.9375 0.375 1.7
3 0.3125 1.6375
3.0625 0.375 1.6375
3.0625 0.3125 1.6375
3.125 0.375 1.6375
3.0625 0.3125 1.7
3.125 0.3125 1.7
3.0625 0.375 1.7
3.125 0.3125 1.6375
3.1875 0.375 1.6375
3.1875 0.3125 1.6375
3.25 0.375 1.6375
3.1875 0.3125 1.7
3.25 0.3125 1.7
3.1875 0.375 1.7
3.25 0.3125 1.6375
3.3125 0.375 1.6375
3.3125 0.3125 1.6375
3.375 0.375 1.6375
3.3125 0.3125 1.7
3.375 0.3125 1.7
3.3125 0.375 1.7
3.375 0.3125 1.6375
3.4375 0.375 1.6375
3.4375 0.3125 1.6375
3.5 0.375 1.6375
3.4375 0.3125 1.7
3.5 0.3125 1.7
3.4375 0.375 1.7
3.5 0.3125 1.6375
3.5625 0.375 1.6375
3.5625 0.3125 1.6375
3.625 0.375 1.6375
3.5625 0.3125 1.7
3.625 0.3125 1.7
3.5625 0.375 1.7
3.625 0.3125 1.6375
3.6875 0.375 1.6375
3.6875 0.3125 1.6375
3.75 0.375 1.6375
3.6875 0.3125 1.7
3.75 0.3125 1.7
3.6875 0.375 1.7
3.75 0.3125 1.6375
3.8125 0.375 1.6375
3.8125 0.3125 1.6375
3.875 0.375 1.6375
3.8125 0.3125 1.7
3.875 0.3125 1.7
3.8125 0.375 1.7
3.875 0.3125 1.6375
3.9375 0.375 1.6375
3.9375 0.3125 1.6375
4 0.375 1.6375
3.9375 0.3125 1.7
4 0.3125 1.7
3.9375 0.375 1.7
4 0.3125 1.6375
0.0625 0.5 1.6375
0.0625 0.4375 1.6375
0.125 0.5 1.6375
0.0625 0.4375 1.7
0.125 0.4375 1.7
0 0.5 1.6375
0 0.4375 1.6375
0.0625 0.5 1.7
0 0.4375 1.7
0.125 0.4375 1.6375
0.1875 0.5 1.6375
0.1875 0.4375 1.6375
0.25 0.5 1.6375
0.1875 0.4375 1.7
0.25 0.4375 1.7
0.1875 0.5 1.7
0.25 0.4375 1.6375
0.3125 0.5 1.6375
0.3125 0.4375 1.6375
0.375 0.5 1.6375
0.3125 0.4375 1.7
0.375 0.4375 1.7
0.3125 0.5 1.7
0.375 0.4375 1.6375
0.4375 0.5 1.6375
0.4375 0.4375 1.6375
0.5 0.5 1.6375
0.4375 0.4375 1.7
0.5 0.4375 1.7
0.4375 0.5 1.7
0.5 0.4375 1.6375
0.5625 0.5 1.6375
0.5625 0.4375 1.6375
0.625 0.5 1.6375
0.5625 0.4375 1.7
0.625 0.4375 1.7
0.5625 0.5 1.7
0.625 0.4375 1.6375
0.6875 0.5 1.6375
0.6875 0.4375 1.6375
0.75 0.5 1.6375
0.6875 0.4375 1.7
0.75 0.4375 1.7
0.6875 0.5 1.7
0.75 0.4375 1.6375
0.8125 0.5 1.6375
0.8125 0.4375 1.6375
0.875 0.5 1.6375
0.8125 0.4375 1.7
0.875 0.4375 1.7
0.8125 0.5 1.7
0.875 0.4375 1.6375
0.9375 0.5 1.6375
0.9375 0.4375 1.6375
1 0.5 1.6375
0.9375 0.4375 1.7
1 0.4375 1.7
0.9375 0.5 1.7
1 0.4375 1.6375
1.0625 0.5 1.6375
1.0625 0.4375 1.6375
1.125 0.5 1.6375
1.0625 0.4375 1.7
1.125 0.4375 1.7
1.0625 0.5 1.7
1.125 0.4375 1.6375
1.1875 0.5 1.6375
1.1875 0.4375 1.6375
1.25 0.5 1.6375
1.1875 0.4375 1.7
1.25 0.4375 1.7
1.1875 0.5 1.7
1.25 0.4375 1.6375
1.3125 0.5 1.6375
1.3125 0.4375 1.6375
1.375 0.5 1.6375
1.3125 0.4375 1.7
1.375 0.4375 1.7
1.3125 0.5 1.7
1.375 0.4375 1.6375
1.4375 0.5 1.6375
1.4375 0.4375 1.6375
1.5 0.5 1.6375
1.4375 0.4375 1.7
1.5 0.4375 1.7
1.4375 0.5 1.7
1.5 0.4375 1.6375
1.5625 0.5 1.6375
1.5625 0.4375 1.6375
1.625 0.5 1.6375
1.5625 0.4375 1.7
1.625 0.4375 1.7
1.5625 0.5 1.7
1.625 0.4375 1.6375
1.6875 0.5 1.6375
1.6875 0.4375 1.6375
1.75 0.5 1.6375
1.6875 0.4375 1.7
1.75 0.4375 1.7
1.6875 0.5 1.7
1.75 0.4375 1.6375
1.8125 0.5 1.6375
1.8125 0.4375 1.6375
1.875 0.5 1.6375
1.8125 0.4375 1.7
1.875 0.4375 1.7
1.8125 0.5 1.7
1.875 0.4375 1.6375
1.9375 0.5 1.6375
1.9375 0.4375 1.6375
2 0.5 1.6375
1.9375 0.4375 1.7
2 0.4375 1.7
1.9375 0.5 1.7
2 0.4375 1.6375
2.0625 0.5 1.6375
2.0625 0.4375 1.6375
2.125 0.5 1.6375
2.0625 0.4375 1.7
2.125 0.4375 1.7
2.0625 0.5 1.7
2.125 0.4375 1.6375
2.1875 0.5 1.6375
2.1875 0.4375 1.6375
2.25 0.5 1.6375
2.1875 0.4375 1.7
2.25 0.4375 1.7
2.1875 0.5 1.7
2.25 0.4375 1.6375
2.3125 0.5 1.6375
2.3125 0.4375 1.6375
2.375 0.5 1.6375
2.3125 0.4375 1.7
2.375 0.4375 1.7
2.3125 0.5 1.7
2.375 0.4375 1.6375
2.4375 0.5 1.6375
2.4375 0.4375 1.6375
2.5 0.5 1.6375
2.4375 0.4375 1.7
2.5 0.4375 1.7
2.4375 0.5 1.7
2.5 0.4375 1.6375
2.5625 0.5 1.6375
2.5625 0.4375 1.6375
2.625 0.5 1.6375
2.5625 0.4375 1.7
2.625 0.4375 1.7
2.5625 0.5 1.7
2.625 0.4375 1.6375
2.6875 0.5 1.6375
2.6875 0.4375 1.6375
2.75 0.5 1.6375
2.6875 0.4375 1.7
2.75 0.4375 1.7
2.6875 0.5 1.7
2.75 0.4375 1.6375
2.8125 0.5 1.6375
2.8125 0.4375 1.6375
2.875 0.5 1.6375
2.8125 0.4375 1.7
2.875 0.4375 1.7
2.8125 0.5 1.7
2.875 0.4375 1.6375
2.9375 0.5 1.6375
2.9375 0.4375 1.6375
3 0.5 1.6375
2.9375 0.4375 1.7
3 0.4375 1.7
2.9375 0.5 1.7
3 0.4375 1.6375
3.0625 0.5 1.6375
3.0625 0.4375 1.6375
3.125 0.5 1.6375
3.0625 0.4375 1.7
3.125 0.4375 1.7
3.0625 0.5 1.7
3.125 0.4375 1.6375
3.1875 0.5 1.6375
3.1875 0.4375 1.6375
3.25 0.5 1.6375
3.1875 0.4375 1.7
3.25 0.4375 1.7
3.1875 0.5 1.7
3.25 0.4375 1.6375
3.3125 0.5 1.6375
3.3125 0.4375 1.6375
3.375 0.5 1.6375
3.3125 0.4375 1.7
3.375 0.4375 1.7
3.3125 0.5 1.7
3.375 0.4375 1.6375
3.4375 0.5 1.6375
3.4375 0.4375 1.6375
3.5 0.5 1.6375
3.4375 0.4375 1.7
3.5 0.4375 1.7
3.4375 0.5 1.7
3.5 0.4375 1.6375
3.5625 0.5 1.6375
3.5625 0.4375 1.6375
3.625 0.5 1.6375
3.5625 0.4375 1.7
3.625 0.4375 1.7
3.5625 0.5 1.7
3.625 0.4375 1.6375
3.6875 0.5 1.6375
3.6875 0.4375 1.6375
3.75 0.5 1.6375
3.6875 0.4375 1.7
3.75 0.4375 1.7
3.6875 0.5 1.7
3.75 0.4375 1.6375
3.8125 0.5 1.6375
3.8125 0.4375 1.6375
3.875 0.5 1.6375
3.8125 0.4375 1.7
3.875 0.4375 1.7
3.8125 0.5 1.7
3.875 0.4375 1.6375
3.9375 0.5 1.6375
3.9375 0.4375 1.6375
4 0.5 1.6375
3.9375 0.4375 1.7
4 0.4375 1.7
3.9375 0.5 1.7
4 0.4375 1.6375
0.0625 0.625 1.6375
0.0625 0.5625 1.6375
0.125 0.625 1.6375
0.0625 0.5625 1.7
0.125 0.5625 1.7
0 0.625 1.6375
0 0.5625 1.6375
0.0625 0.625 1.7
0 0.5625 1.7
0.125 0.5625 1.6375
0.1875 0.625 1.6375
0.1875 0.5625 1.6375
0.25 0.625 1.6375
0.1875 0.5625 1.7
0.25 0.5625 1.7
0.1875 0.625 1.7
0.25 0.5625 1.6375
0.3125 0.625 1.6375
0.3125 0.5625 1.6375
0.375 0.625 1.6375
0.3125 0.5625 1.7
0.375 0.5625 1.7
0.3125 0.625 1.7
0.375 0.5625 1.6375
0.4375 0.625 1.6375
0.4375 0.5625 1.6375
0.5 0.625 1.6375
0.4375 0.5625 1.7
0.5 0.5625 1.7
0.4375 0.625 1.7
0.5 0.5625 1.6375
0.5625 0.625 1.6375
0.5625 0.5625 1.6375
0.625 0.625 1.6375
0.5625 0.5625 1.7
0.625 0.5625 1.7
0.5625 0.625 1.7
0.625 0.5625 1.6375
0.6875 0.625 1.6375
0.6875 0.5625 1.6375
0.75 0.625 1.6375
0.6875 0.5625 1.7
0.75 0.5625 1.7
0.6875 0.625 1.7
0.75 0.5625 1.6375
0.8125 0.625 1.6375
0.8125 0.5625 1.6375
0.875 0.625 1.6375
0.8125 0.5625 1.7
0.875 0.5625 1.7
0.8125 0.625 1.7
0.875 0.5625 1.6375
0.9375 0.625 1.6375
0.9375 0.5625 1.6375
1 0.625 1.6375
0.9375 0.5625 1.7
1 0.5625 1.7
0.9375 0.625 1.7
1 0.5625 1.6375
1.0625 0.625 1.6375
1.0625 0.5625 1.6375
1.125 0.625 1.6375
1.0625 0.5625 1.7
1.125 0.5625 1.7
1.0625 0.625 1.7
1.125 0.5625 1.6375
1.1875 0.625 1.6375
1.1875 0.5625 1.6375
1.25 0.625 1.6375
1.1875 0.5625 1.7
1.25 0.5625 1.7
1.1875 0.625 1.7
1.25 0.5625 1.6375
1.3125 0.625 1.6375
1.3125 0.5625 1.6375
1.375 0.625 1.6375
1.3125 0.5625 1.7
1.375 0.5625 1.7
1.3125 0.625 1.7
1.375 0.5625 1.6375
1.4375 0.625 1.6375
1.4375 0.5625 1.6375
1.5 0.625 1.6375
1.4375 0.5625 1.7
1.5 0.5625 1.7
1.4375 0.625 1.7
1.5 0.5625 1.6375
1.5625 0.625 1.6375
1.5625 0.5625 1.6375
1.625 0.625 1.6375
1.5625 0.5625 1.7
1.625 0.5625 1.7
1.5625 0.625 1.7
1.625 0.5625 1.6375
1.6875 0.625 1.6375
1.6875 0.5625 1.6375
1.75 0.625 1.6375
1.6875 0.5625 1.7
1.75 0.5625 1.7
1.6875 0.625 1.7
1.75 0.5625 1.6375
1.8125 0.625 1.6375
1.8125 0.5625 1.6375
1.875 0.625 1.6375
1.8125 0.5625 1.7
1.875 0.5625 1.7
1.8125 0.625 1.7
1.875 0.5625 1.6375
1.9375 0.625 1.6375
1.9375 0.5625 1.6375
2 0.625 1.6375
1.9375 0.5625 1.7
2 0.5625 1.7
1.9375 0.625 1.7
2 0.5625 1.6375
2.0625 0.625 1.6375
2.0625 0.5625 1.6375
2.125 0.625 1.6375
2.0625 0.5625 1.7
2.125 0.5625 1.7
2.0625 0.625 1.7
2.125 0.5625 1.6375
2.1875 0.625 1.6375
2.1875 0.5625 1.6375
2.25 0.625 1.6375
2.1875 0.5625 1.7
2.25 0.5625 1.7
2.1875 0.625 1.7
2.25 0.5625 1.6375
2.3125 0.625 1.6375
2.3125 0.5625 1.6375
2.375 0.625 1.6375
2.3125 0.5625 1.7
2.375 0.5625 1.7
2.3125 0.625 1.7
2.375 0.5625 1.6375
2.4375 0.625 1.6375
2.4375 0.5625 1.6375
2.5 0.625 1.6375
2.4375 0.5625 1.7
2.5 0.5625 1.7
2.4375 0.625 1.7
2.5 0.5625 1.6375
2.5625 0.625 1.6375
2.5625 0.5625 1.6375
2.625 0.625 1.6375
2.5625 0.5625 1.7
2.625 0.5625 1.7
2.5625 0.625 1.7
2.625 0.5625 1.6375
2.6875 0.625 1.6375
2.6875 0.5625 1.6375
2.75 0.625 1.6375
2.6875 0.5625 1.7
2.75 0.5625 1.7
2.6875 0.625 1.7
2.75 0.5625 1.6375
2.8125 0.625 1.6375
2.8125 0.5625 1.6375
2.875 0.625 1.6375
2.8125 0.5625 1.7
2.875 0.5625 1.7
2.8125 0.625 1.7
2.875 0.5625 1.6375
2.9375 0.625 1.6375
2.9375 0.5625 1.6375
3 0.625 1.6375
2.9375 0.5625 1.7
3 0.5625 1.7
2.9375 0.625 1.7
3 0.5625 1.6375
3.0625 0.625 1.6375
3.0625 0.5625 1.6375
3.125 0.625 1.6375
3.0625 0.5625 1.7
3.125 0.5625 1.7
3.0625 0.625 1.7
3.125 0.5625 1.6375
3.1875 0.625 1.6375
3.1875 0.5625 1.6375
3.25 0.625 1.6375
3.1875 0.5625 1.7
3.25 0.5625 1.7
3.1875 0.625 1.7
3.25 0.5625 1.6375
3.3125 0.625 1.6375
3.3125 0.5625 1.6375
3.375 0.625 1.6375
3.3125 0.5625 1.7
3.375 0.5625 1.7
3.3125 0.625 1.7
3.375 0.5625 1.6375
3.4375 0.625 1.6375
3.4375 0.5625 1.6375
3.5 0.625 1.6375
3.4375 0.5625 1.7
3.5 0.5625 1.7
3.4375 0.625 1.7
3.5 0.5625 1.6375
3.5625 0.625 1.6375
3.5625 0.5625 1.6375
3.625 0.625 1.6375
3.5625 0.5625 1.7
3.625 0.5625 1.7
3.5625 0.625 1.7
3.625 0.5625 1.6375
3.6875 0.625 1.6375
3.6875 0.5625 1.6375
3.75 0.625 1.6375
3.6875 0.5625 1.7
3.75 0.5625 1.7
3.6875 0.625 1.7
3.75 0.5625 1.6375
3.8125 0.625 1.6375
3.8125 0.5625 1.6375
3.875 0.625 1.6375
3.8125 0.5625 1.7
3.875 0.5625 1.7
3.8125 0.625 1.7
3.875 0.5625 1.6375
3.9375 0.625 1.6375
3.9375 0.5625 1.6375
4 0.625 1.6375
3.9375 0.5625 1.7
4 0.5625 1.7
3.9375 0.625 1.7
4 0.5625 1.6375
0.0625 0.75 1.6375
0.0625 0.6875 1.6375
0.125 0.75 1.6375
0.0625 0.6875 1.7
0.125 0.6875 1.7
0 0.75 1.6375
0 0.6875 1.6375
0.0625 0.75 1.7
0 0.6875 1.7
0.125 0.6875 1.6375
0.1875 0.75 1.6375
0.1875 0.6875 1.6375
0.25 0.75 1.6375
0.1875 0.6875 1.7
0.25 0.6875 1.7
0.1875 0.75 1.7
0.25 0.6875 1.6375
0.3125 0.75 1.6375
0.3125 0.6875 1.6375
0.375 0.75 1.6375
0.3125 0.6875 1.7
0.375 0.6875 1.7
0.3125 0.75 1.7
0.375 0.6875 1.6375
0.4375 0.75 1.6375
0.4375 0.6875 1.6375
0.5 0.75 1.6375
0.4375 0.6875 1.7
0.5 0.6875 1.7
0.4375 0.75 1.7
0.5 0.6875 1.6375
0.5625 0.75 1.6375
0.5625 0.6875 1.6375
0.625 0.75 1.6375
0.5625 0.6875 1.7
0.625 0.6875 1.7
0.5625 0.75 1.7
0.625 0.6875 1.6375
0.6875 0.75 1.6375
0.6875 0.6875 1.6375
0.75 0.75 1.6375
0.6875 0.6875 1.7
0.75 0.6875 1.7
0.6875 0.75 1.7
0.75 0.6875 1.6375
0.8125 0.75 1.6375
0.8125 0.6875 1.6375
0.875 0.75 1.6375
0.8125 0.6875 1.7
0.875 0.6875 1.7
0.8125 0.75 1.7
0.875 0.6875 1.6375
0.9375 0.75 1.6375
0.9375 0.6875 1.6375
1 0.75 1.6375
0.9375 0.6875 1.7
1 0.6875 1.7
0.9375 0.75 1.7
1 0.6875 1.6375
1.0625 0.75 1.6375
1.0625 0.6875 1.6375
1.125 0.75 1.6375
1.0625 0.6875 1.7
1.125 0.6875 1.7
1.0625 0.75 1.7
1.125 0.6875 1.6375
1.1875 0.75 1.6375
1.1875 0.6875 1.6375
1.25 0.75 1.6375
1.1875 0.6875 1.7
1.25 0.6875 1.7
1.1875 0.75 1.7
1.25 0.6875 1.6375
1.3125 0.75 1.6375
1.3125 0.6875 1.6375
1.375 0.75 1.6375
1.3125 0.6875 1.7
1.375 0.6875 1.7
1.3125 0.75 1.7
1.375 0.6875 1.6375
1.4375 0.75 1.6375
1.4375 0.6875 1.6375
1.5 0.75 1.6375
1.4375 0.6875 1.7
1.5 0.6875 1.7
1.4375 0.75 1.7
1.5 0.6875 1.6375
1.5625 0.75 1.6375
1.5625 0.6875 1.6375
1.625 0.75 1.6375
1.5625 0.6875 1.7
1.625 0.6875 1.7
1.5625 0.75 1.7
1.625 0.6875 1.6375
1.6875 0.75 1.6375
1.6875 0.6875 1.6375
1.75 0.75 1.6375
1.6875 0.6875 1.7
1.75 0.6875 1.7
1.6875 0.75 1.7
1.75 0.6875 1.6375
1.8125 0.75 1.6375
1.8125 0.6875 1.6375
1.875 0.75 1.6375
1.8125 0.6875 1.7
1.875 0.6875 1.7
1.8125 0.75 1.7
1.875 0.6875 1.6375
1.9375 0.75 1.6375
1.9375 0.6875 1.6375
2 0.75 1.6375
1.9375 0.6875 1.7
2 0.6875 1.7
1.9375 0.75 1.7
2 0.6875 1.6375
2.0625 0.75 1.6375
2.0625 0.6875 1.6375
2.125 0.75 1.6375
2.0625 0.6875 1.7
2.125 0.6875 1.7
2.0625 0.75 1.7
2.125 0.6875 1.6375
2.1875 0.75 1.6375
2.1875 0.6875 1.6375
2.25 0.75 1.6375
2.1875 0.6875 1.7
2.25 0.6875 1.7
2.1875 0.75 1.7
2.25 0.6875 1.6375
2.3125 0.75 1.6375
2.3125 0.6875 1.6375
2.375 0.75 1.6375
2.3125 0.6875 1.7
2.375 0.6875 1.7
2.3125 0.75 1.7
2.375 0.6875 1.6375
2.4375 0.75 1.6375
2.4375 0.6875 1.6375
2.5 0.75 1.6375
2.4375 0.6875 1.7
2.5 0.6875 1.7
2.4375 0.75 1.7
2.5 0.6875 1.6375
2.5625 0.75 1.6375
2.5625 0.6875 1.6375
2.625 0.75 1.6375
2.5625 0.6875 1.7
2.625 0.6875 1.7
2.5625 0.75 1.7
2.625 0.6875 1.6375
2.6875 0.75 1.6375
2.6875 0.6875 1.6375
2.75 0.75 1.6375
2.6875 0.6875 1.7
2.75 0.6875 1.7
2.6875 0.75 1.7
2.75 0.6875 1.6375
2.8125 0.75 1.6375
2.8125 0.6875 1.6375
2.875 0.75 1.6375
2.8125 0.6875 1.7
2.875 0.6875 1.7
2.8125 0.75 1.7
2.875 0.6875 1.6375
2.9375 0.75 1.6375
2.9375 0.6875 1.6375
3 0.75 1.6375
2.9375 0.6875 1.7
3 0.6875 1.7
2.9375 0.75 1.7
3 0.6875 1.6375
3.0625 0.75 1.6375
3.0625 0.6875 1.6375
3.125 0.75 1.6375
3.0625 0.6875 1.7
3.125 0.6875 1.7
3.0625 0.75 1.7
3.125 0.6875 1.6375
3.1875 0.75 1.6375
3.1875 0.6875 1.6375
3.25 0.75 1.6375
3.1875 0.6875 1.7
3.25 0.6875 1.7
3.1875 0.75 1.7
3.25 0.6875 1.6375
3.3125 0.75 1.6375
3.3125 0.6875 1.6375
3.375 0.75 1.6375
3.3125 0.6875 1.7
3.375 0.6875 1.7
3.3125 0.75 1.7
3.375 0.6875 1.6375
3.4375 0.75 1.6375
3.4375 0.6875 1.6375
3.5 0.75 1.6375
3.4375 0.6875 1.7
3.5 0.6875 1.7
3.4375 0.75 1.7
3.5 0.6875 1.6375
3.5625 0.75 1.6375
3.5625 0.6875 1.6375
3.625 0.75 1.6375
3.5625 0.6875 1.7
3.625 0.6875 1.7
3.5625 0.75 1.7
3.625 0.6875 1.6375
3.6875 0.75 1.6375
3.6875 0.6875 1.6375
3.75 0.75 1.6375
3.6875 0.6875 1.7
3.75 0.6875 1.7
3.6875 0.75 1.7
3.75 0.6875 1.6375
3.8125 0.75 1.6375
3.8125 0.6875 1.6375
3.875 0.75 1.6375
3.8125 0.6875 1.7
3.875 0.6875 1.7
3.8125 0.75 1.7
3.875 0.6875 1.6375
3.9375 0.75 1.6375
3.9375 0.6875 1.6375
4 0.75 1.6375
3.9375 0.6875 1.7
4 0.6875 1.7
3.9375 0.75 1.7
4 0.6875 1.6375
0.0625 0.875 1.6375
0.0625 0.8125 1.6375
0.125 0.875 1.6375
0.0625 0.8125 1.7
0.125 0.8125 1.7
0 0.875 1.6375
0 0.8125 1.6375
0.0625 0.875 1.7
0 0.8125 1.7
0.125 0.8125 1.6375
0.1875 0.875 1.6375
0.1875 0.8125 1.6375
0.25 0.875 1.6375
0.1875 0.8125 1.7
0.25 0.8125 1.7
0.1875 0.875 1.7
0.25 0.8125 1.6375
0.3125 0.875 1.6375
0.3125 0.8125 1.6375
0.375 0.875 1.6375
0.3125 0.8125 1.7
0.375 0.8125 1.7
0.3125 0.875 1.7
0.375 0.8125 1.6375
0.4375 0.875 1.6375
0.4375 0.8125 1.6375
0.5 0.875 1.6375
0.4375 0.8125 1.7
0.5 0.8125 1.7
0.4375 0.875 1.7
0.5 0.8125 1.6375
0.5625 0.875 1.6375
0.5625 0.8125 1.6375
0.625 0.875 1.6375
0.5625 0.8125 1.7
0.625 0.8125 1.7
0.5625 0.875 1.7
0.625 0.8125 1.6375
0.6875 0.875 1.6375
0.6875 0.8125 1.6375
0.75 0.875 1.6375
0.6875 0.8125 1.7
0.75 0.8125 1.7
0.6875 0.875 1.7
0.75 0.8125 1.6375
0.8125 0.875 1.6375
0.8125 0.8125 1.6375
0.875 0.875 1.6375
0.8125 0.8125 1.7
0.875 0.8125 1.7
0.8125 0.875 1.7
0.875 0.8125 1.6375
0.9375 0.875 1.6375
0.9375 0.8125 1.6375
1 0.875 1.6375
0.9375 0.8125 1.7
1 0.8125 1.7
0.9375 0.875 1.7
1 0.8125 1.6375
1.0625 0.875 1.6375
1.0625 0.8125 1.6375
1.125 0.875 1.6375
1.0625 0.8125 1.7
1.125 0.8125 1.7
1.0625 0.875 1.7
1.125 0.8125 1.6375
1.1875 0.875 1.6375
1.1875 0.8125 1.6375
1.25 0.875 1.6375
1.1875 0.8125 1.7
1.25 0.8125 1.7
1.1875 0.875 1.7
1.25 0.8125 1.6375
1.3125 0.875 1.6375
1.3125 0.8125 1.6375
1.375 0.875 1.6375
1.3125 0.8125 1.7
1.375 0.8125 1.7
1.3125 0.875 1.7
1.375 0.8125 1.6375
1.4375 0.875 1.6375
1.4375 0.8125 1.6375
1.5 0.875 1.6375
1.4375 0.8125 1.7
1.5 0.8125 1.7
1.4375 0.875 1.7
1.5 0.8125 1.6375
1.5625 0.875 1.6375
1.5625 0.8125 1.6375
1.625 0.875 1.6375
1.5625 0.8125 1.7
1.625 0.8125 1.7
1.5625 0.875 1.7
1.625 0.8125 1.6375
1.6875 0.875 1.6375
1.6875 0.8125 1.6375
1.75 0.875 1.6375
1.6875 0.8125 1.7
1.75 0.8125 1.7
1.6875 0.875 1.7
1.75 0.8125 1.6375
1.8125 0.875 1.6375
1.8125 0.8125 1.6375
1.875 0.875 1.6375
1.8125 0.8125 1.7
1.875 0.8125 1.7
1.8125 0.875 1.7
1.875 0.8125 1.6375
1.9375 0.875 1.6375
1.9375 0.8125 1.6375
2 0.875 1.6375
1.9375 0.8125 1.7
2 0.8125 1.7
1.9375 0.875 1.7
2 0.8125 1.6375
2.0625 0.875 1.6375
2.0625 0.8125 1.6375
2.125 0.875 1.6375
2.0625 0.8125 1.7
2.125 0.8125 1.7
2.0625 0.875 1.7
2.125 0.8125 1.6375
2.1875 0.875 1.6375
2.1875 0.8125 1.6375
2.25 0.875 1.6375
2.1875 0.8125 1.7
2.25 0.8125 1.7
2.1875 0.875 1.7
2.25 0.8125 1.6375
2.3125 0.875 1.6375
2.3125 0.8125 1.6375
2.375 0.875 1.6375
2.3125 0.8125 1.7
2.375 0.8125 1.7
2.3125 0.875 1.7
2.375 0.8125 1.6375
2.4375 0.875 1.6375
2.4375 0.8125 1.6375
2.5 0.875 1.6375
2.4375 0.8125 1.7
2.5 0.8125 1.7
2.4375 0.875 1.7
2.5 0.8125 1.6375
2.5625 0.875 1.6375
2.5625 0.8125 1.6375
2.625 0.875 1.6375
2.5625 0.8125 1.7
2.625 0.8125 1.7
2.5625 0.875 1.7
2.625 0.8125 1.6375
2.6875 0.875 1.6375
2.6875 0.8125 1.6375
2.75 0.875 1.6375
2.6875 0.8125 1.7
2.75 0.8125 1.7
2.6875 0.875 1.7
2.75 0.8125 1.6375
2.8125 0.875 1.6375
2.8125 0.8125 1.6375
2.875 0.875 1.6375
2.8125 0.8125 1.7
2.875 0.8125 1.7
2.8125 0.875 1.7
2.875 0.8125 1.6375
2.9375 0.875 1.6375
2.9375 0.8125 1.6375
3 0.875 1.6375
2.9375 0.8125 1.7
3 0.8125 1.7
2.9375 0.875 1.7
3 0.8125 1.6375
3.0625 0.875 1.6375
3.0625 0.8125 1.6375
3.125 0.875 1.6375
3.0625 0.8125 1.7
3.125 0.8125 1.7
3.0625 0.875 1.7
3.125 0.8125 1.6375
3.1875 0.875 1.6375
3.1875 0.8125 1.6375
3.25 0.875 1.6375
3.1875 0.8125 1.7
3.25 0.8125 1.7
3.1875 0.875 1.7
3.25 0.8125 1.6375
3.3125 0.875 1.6375
3.3125 0.8125 1.6375
3.375 0.875 1.6375
3.3125 0.8125 1.7
3.375 0.8125 1.7
3.3125 0.875 1.7
3.375 0.8125 1.6375
3.4375 0.875 1.6375
3.4375 0.8125 1.6375
3.5 0.875 1.6375
3.4375 0.8125 1.7
3.5 0.8125 1.7
3.4375 0.875 1.7
3.5 0.8125 1.6375
3.5625 0.875 1.6375
3.5625 0.8125 1.6375
3.625 0.875 1.6375
3.5625 0.8125 1.7
3.625 0.8125 1.7
3.5625 0.875 1.7
3.625 0.8125 1.6375
3.6875 0.875 1.6375
3.6875 0.8125 1.6375
3.75 0.875 1.6375
3.6875 0.8125 1.7
3.75 0.8125 1.7
3.6875 0.875 1.7
3.75 0.8125 1.6375
3.8125 0.875 1.6375
3.8125 0.8125 1.6375
3.875 0.875 1.6375
3.8125 0.8125 1.7
3.875 0.8125 1.7
3.8125 0.875 1.7
3.875 0.8125 1.6375
3.9375 0.875 1.6375
3.9375 0.8125 1.6375
4 0.875 1.6375
3.9375 0.8125 1.7
4 0.8125 1.7
3.9375 0.875 1.7
4 0.8125 1.6375
0.0625 1 1.6375
0.0625 0.9375 1.6375
0.125 1 1.6375
0.0625 0.9375 1.7
0.125 0.9375 1.7
0 1 1.6375
0 0.9375 1.6375
0.0625 1 1.7
0 0.9375 1.7
0.125 0.9375 1.6375
0.1875 1 1.6375
0.1875 0.9375 1.6375
0.25 1 1.6375
0.1875 0.9375 1.7
0.25 0.9375 1.7
0.1875 1 1.7
0.25 0.9375 1.6375
0.3125 1 1.6375
0.3125 0.9375 1.6375
0.375 1 1.6375
0.3125 0.9375 1.7
0.375 0.9375 1.7
0.3125 1 1.7
0.375 0.9375 1.6375
0.4375 1 1.6375
0.4375 0.9375 1.6375
0.5 1 1.6375
0.4375 0.9375 1.7
0.5 0.9375 1.7
0.4375 1 1.7
0.5 0.9375 1.6375
0.5625 1 1.6375
0.5625 0.9375 1.6375
0.625 1 1.6375
0.5625 0.9375 1.7
0.625 0.9375 1.7
0.5625 1 1.7
0.625 0.9375 1.6375
0.6875 1 1.6375
0.6875 0.9375 1.6375
0.75 1 1.6375
0.6875 0.9375 1.7
0.75 0.9375 1.7
0.6875 1 1.7
0.75 0.9375 1.6375
0.8125 1 1.6375
0.8125 0.9375 1.6375
0.875 1 1.6375
0.8125 0.9375 1.7
0.875 0.9375 1.7
0.8125 1 1.7
0.875 0.9375 1.6375
0.9375 1 1.6375
0.9375 0.9375 1.6375
1 1 1.6375
0.9375 0.9375 1.7
1 0.9375 1.7
0.9375 1 1.7
1 0.9375 1.6375
1.0625 1 1.6375
1.0625 0.9375 1.6375
1.125 1 1.6375
1.0625 0.9375 1.7
1.125 0.9375 1.7
1.0625 1 1.7
1.125 0.9375 1.6375
1.1875 1 1.6375
1.1875 0.9375 1.6375
1.25 1 1.6375
1.1875 0.9375 1.7
1.25 0.9375 1.7
1.1875 1 1.7
1.25 0.9375 1.6375
1.3125 1 1.6375
1.3125 0.9375 1.6375
1.375 1 1.6375
1.3125 0.9375 1.7
1.375 0.9375 1.7
1.3125 1 1.7
1.375 0.9375 1.6375
1.4375 1 1.6375
1.4375 0.9375 1.6375
1.5 1 1.6375
1.4375 0.9375 1.7
1.5 0.9375 1.7
1.4375 1 1.7
1.5 0.9375 1.6375
1.5625 1 1.6375
1.5625 0.9375 1.6375
1.625 1 1.6375
1.5625 0.9375 1.7
1.625 0.9375 1.7
1.5625 1 1.7
1.625 0.9375 1.6375
1.6875 1 1.6375
1.6875 0.9375 1.6375
1.75 1 1.6375
1.6875 0.9375 1.7
1.75 0.9375 1.7
1.6875 1 1.7
1.75 0.9375 1.6375
1.8125 1 1.6375
1.8125 0.9375 1.6375
1.875 1 1.6375
1.8125 0.9375 1.7
1.875 0.9375 1.7
1.8125 1 1.7
1.875 0.9375 1.6375
1.9375 1 1.6375
1.9375 0.9375 1.6375
2 1 1.6375
1.9375 0.9375 1.7
2 0.9375 1.7
1.9375 1 1.7
2 0.9375 1.6375
2.0625 1 1.6375
2.0625 0.9375 1.6375
2.125 1 1.6375
2.0625 0.9375 1.7
2.125 0.9375 1.7
2.0625 1 1.7
2.125 0.9375 1.6375
2.1875 1 1.6375
2.1875 0.9375 1.6375
2.25 1 1.6375
2.1875 0.9375 1.7
2.25 0.9375 1.7
2.1875 1 1.7
2.25 0.9375 1.6375
2.3125 1 1.6375
2.3125 0.9375 1.6375
2.375 1 1.6375
2.3125 0.9375 1.7
2.375 0.9375 1.7
2.3125 1 1.7
2.375 0.9375 1.6375
2.4375 1 1.6375
2.4375 0.9375 1.6375
2.5 1 1.6375
2.4375 0.9375 1.7
2.5 0.9375 1.7
2.4375 1 1.7
2.5 0.9375 1.6375
2.5625 1 1.6375
2.5625 0.9375 1.6375
2.625 1 1.6375
2.5625 0.9375 1.7
2.625 0.9375 1.7
2.5625 1 1.7
2.625 0.9375 1.6375
2.6875 1 1.6375
2.6875 0.9375 1.6375
2.75 1 1.6375
2.6875 0.9375 1.7
2.75 0.9375 1.7
2.6875 1 1.7
2.75 0.9375 1.6375
2.8125 1 1.6375
2.8125 0.9375 1.6375
2.875 1 1.6375
2.8125 0.9375 1.7
2.875 0.9375 1.7
2.8125 1 1.7
2.875 0.9375 1.6375
2.9375 1 1.6375
2.9375 0.9375 1.6375
3 1 1.6375
2.9375 0.9375 1.7
3 0.9375 1.7
2.9375 1 1.7
3 0.9375 1.6375
3.0625 1 1.6375
3.0625 0.9375 1.6375
3.125 1 1.6375
3.0625 0.9375 1.7
3.125 0.9375 1.7
3.0625 1 1.7
3.125 0.9375 1.6375
3.1875 1 1.6375
3.1875 0.9375 1.6375
3.25 1 1.6375
3.1875 0.9375 1.7
3.25 0.9375 1.7
3.1875 1 1.7
3.25 0.9375 1.6375
3.3125 1 1.6375
3.3125 0.9375 1.6375
3.375 1 1.6375
3.3125 0.9375 1.7
3.375 0.9375 1.7
3.3125 1 1.7
3.375 0.9375 1.6375
3.4375 1 1.6375
3.4375 0.9375 1.6375
3.5 1 1.6375
3.4375 0.9375 1.7
3.5 0.9375 1.7
3.4375 1 1.7
3.5 0.9375 1.6375
3.5625 1 1.6375
3.5625 0.9375 1.6375
3.625 1 1.6375
3.5625 0.9375 1.7
3.625 0.9375 1.7
3.5625 1 1.7
3.625 0.9375 1.6375
3.6875 1 1.6375
3.6875 0.9375 1.6375
3.75 1 1.6375
3.6875 0.9375 1.7
3.75 0.9375 1.7
3.6875 1 1.7
3.75 0.9375 1.6375
3.8125 1 1.6375
3.8125 0.9375 1.6375
3.875 1 1.6375
3.8125 0.9375 1.7
3.875 0.9375 1.7
3.8125 1 1.7
3.875 0.9375 1.6375
3.9375 1 1.6375
3.9375 0.9375 1.6375
4 1 1.6375
3.9375 0.9375 1.7
4 0.9375 1.7
3.9375 1 1.7
4 0.9375 1.6375

CELLS 12289 122880
OFFSETS vtktypeint64
0 10 20 30 40 50 60 70 80 90 100 110 120 130 140 150 160 170 180 190 200 210 220 230 240 250 260 270 280 290 300 310 320 330 340 350 360 370 380 390 400 410 420 430 440 450 460 470 480 490 500 510 520 530 540 550 560 570 580 590 600 610 620 630 640 650 660 670 680 690 700 710 720 730 740 750 760 770 780 790 800 810 820 830 840 850 860 870 880 890 900 910 920 930 940 950 960 970 980 990 1000 1010 1020 1030 1040 1050 1060 1070 1080 1090 1100 1110 1120 1130 1140 1150 1160 1170 1180 1190 1200 1210 1220 1230 1240 1250 1260 1270 1280 1290 1300 1310 1320 1330 1340 1350 1360 1370 1380 1390 1400 1410 1420 1430 1440 1450 1460 1470 1480 1490 1500 1510 1520 1530 1540 1550 1560 1570 1580 1590 1600 1610 1620 1630 1640 1650 1660 1670 1680 1690 1700 1710 1720 1730 1740 1750 1760 1770 1780 1790 1800 1810 1820 1830 1840 1850 1860 1870 1880 1890 1900 1910 1920 1930 1940 1950 1960 1970 1980 1990 2000 2010 2020 2030 2040 2050 2060 2070 2080 2090 2100 2110 2120 2130 2140 2150 2160 2170 2180 2190 2200 2210 2220 2230 2240 2250 2260 2270 2280 2290 2300 2310 2320 2330 2340 2350 2360 2370 2380 2390 2400 2410 2420 2430 2440 2450 2460 2470 2480 2490 2500 2510 2520 2530 2540 2550 2560 2570 2580 2590 2600 2610 2620 2630 2640 2650 2660 2670 2680 2690 2700 2710 2720 2730 2740 2750 2760 2770 2780 2790 2800 2810 2820 2830 2840 2850 2860 2870 2880 2890 2900 2910 2920 2930 2940 2950 2960 2970 2980 2990 3000 3010 3020 3030 3040 3050 3060 3070 3080 3090 3100 3110 3120 3130 3140 3150 3160 3170 3180 3190 3200 3210 3220 3230 3240 3250 3260 3270 3280 3290 3300 3310 3320 3330 3340 3350 3360 3370 3380 3390 3400 3410 3420 3430 3440 3450 3460 3470 3480 3490 3500 3510 3520 3530 3540 3550 3560 3570 3580 3590 3600 3610 3620 3630 3640 3650 3660 3670 3680 3690 3700 3710 3720 3730 3740 3750 3760 3770 3780 3790 3800 3810 3820 3830 3840 3850 3860 3870 3880 3890 3900 3910 3920 3930 3940 3950 3960 3970 3980 3990 4000 4010 4020 4030 4040 4050 4060 4070 4080 4090 4100 4110 4120 4130 4140 4150 4160 4170 4180 4190 4200 4210 4220 4230 4240 4250 4260 4270 4280 4290 4300 4310 4320 4330 4340 4350 4360 4370 4380 4390 4400 4410 4420 4430 4440 4450 4460 4470 4480 4490 4500 4510 4520 4530 4540 4550 4560 4570 4580 4590 4600 4610 4620 4630 4640 4650 4660 4670 4680 4690 4700 4710 4720 4730 4740 4750 4760 4770 4780 4790 4800 4810 4820 4830 4840 4850 4860 4870 4880 4890 4900 4910 4920 4930 4940 4950 4960 4970 4980 4990 5000 5010 5020 5030 5040 5050 5060 5070 5080 5090 5100 5110 5120 5130 5140 5150 5160 5170 5180 5190 5200 5210 5220 5230 5240 5250 5260 5270 5280 5290 5300 5310 5320 5330 5340 5350 5360 5370 5380 5390 5400 5410 5420 5430 5440 5450 5460 5470 5480 5490 5500 5510 5520 5530 5540 5550 5560 5570 5580 5590 5600 5610 5620 5630 5640 5650 5660 5670 5680 5690 5700 5710 5720 5730 5740 5750 5760 5770 5780 5790 5800 5810 5820 5830 5840 5850 5860 5870 5880 5890 5900 5910 5920 5930 5940 5950 5960 5970 5980 5990 6000 6010 6020 6030 6040 6050 6060 6070 6080 6090 6100 6110 6120 6130 6140 6150 6160 6170 6180 6190 6200 6210 6220 6230 6240 6250 6260 6270 6280 6290 6300 6310 6320 6330 6340 6350 6360 6370 6380 6390 6400 6410 6420 6430 6440 6450 6460 6470 6480 6490 6500 6510 6520 6530 6540 6550 6560 6570 6580 6590 6600 6610 6620 6630 6640 6650 6660 6670 6680 6690 6700 6710 6720 6730 6740 6750 6760 6770 6780 6790 6800 6810 6820 6830 6840 6850 6860 6870 6880 6890 6900 6910 6920 6930 6940 6950 6960 6970 6980 6990 7000 7010 7020 7030 7040 7050 7060 7070 7080 7090 7100 7110 7120 7130 7140 7150 7160 7170 7180 7190 7200 7210 7220 7230 7240 7250 7260 7270 7280 7290 7300 7310 7320 7330 7340 7350 7360 7370 7380 7390 7400 7410 7420 7430 7440 7450 7460 7470 7480 7490 7500 7510 7520 7530 7540 7550 7560 7570 7580 7590 7600 7610 7620 7630 7640 7650 7660 7670 7680 7690 7700 7710 7720 7730 7740 7750 7760 7770 7780 7790 7800 7810 7820 7830 7840 7850 7860 7870 7880 7890 7900 7910 7920 7930 7940 7950 7960 7970 7980 7990 8000 8010 8020 8030 8040 8050 8060 8070 8080 8090 8100 8110 8120 8130 8140 8150 8160 8170 8180 8190 8200 8210 8220 8230 8240 8250 8260 8270 8280 8290 8300 8310 8320 8330 8340 8350 8360 8370 8380 8390 8400 8410 8420 8430 8440 8450 8460 8470 8480 8490 8500 8510 8520 8530 8540 8550 8560 8570 8580 8590 8600 8610 8620 8630 8640 8650 8660 8670 8680 8690 8700 8710 8720 8730 8740 8750 8760 8770 8780 8790 8800 8810 8820 8830 8840 8850 8860 8870 8880 8890 8900 8910 8920 8930 8940 8950 8960 8970 8980 8990 9000 9010 9020 9030 9040 9050 9060 9070 9080 9090 9100 9110 9120 9130 9140 9150 9160 9170 9180 9190 9200 9210 9220 9230 9240 9250 9260 9270 9280 9290 9300 9310 9320 9330 9340 9350 9360 9370 9380 9390 9400 9410 9420 9430 9440 9450 9460 9470 9480 9490 9500 9510 9520 9530 9540 9550 9560 9570 9580 9590 9600 9610 9620 9630 9640 9650 9660 9670 9680 9690 9700 9710 9720 9730 9740 9750 9760 9770 9780 9790 9800 9810 9820 9830 9840 9850 9860 9870 9880 9890 9900 9910 9920 9930 9940 9950 9960 9970 9980 9990 10000 10010 10020 10030 10040 10050 10060 10070 10080 10090 10100 10110 10120 10130 10140 10150 10160 10170 10180 10190 10200 10210 10220 10230 10240 10250 10260 10270 10280 10290 10300 10310 10320 10330 10340 10350 10360 10370 10380 10390 10400 10410 10420 10430 10440 10450 10460 10470 10480 10490 10500 10510 10520 10530 10540 10550 10560 10570 10580 10590 10600 10610 10620 10630 10640 10650 10660 10670 10680 10690 10700 10710 10720 10730 10740 10750 10760 10770 10780 10790 10800 10810 10820 10830 10840 10850 10860 10870 10880 10890 10900 10910 10920 10930 10940 10950 10960 10970 10980 10990 11000 11010 11020 11030 11040 11050 11060 11070 11080 11090 11100 11110 11120 11130 11140 11150 11160 11170 11180 11190 11200 11210 11220 11230 11240 11250 11260 11270 11280 11290 11300 11310 11320 11330 11340 11350 11360 11370 11380 11390 11400 11410 11420 11430 11440 11450 11460 11470 11480 11490 11500 11510 11520 11530 11540 11550 11560 11570 11580 11590 11600 11610 11620 11630 11640 11650 11660 11670 11680 11690 11700 11710 11720 11730 11740 11750 11760 11770 11780 11790 11800 11810 11820 11830 11840 11850 11860 11870 11880 11890 11900 11910 11920 11930 11940 11950 11960 11970 11980 11990 12000 12010 12020 12030 12040 12050 12060 12070 12080 12090 12100 12110 12120 12130 12140 12150 12160 12170 12180 12190 12200 12210 12220 12230 12240 12250 12260 12270 12280 12290 12300 12310 12320 12330 12340 12350 12360 12370 12380 12390 12400 12410 12420 12430 12440 12450 12460 12470 12480 12490 12500 12510 12520 12530 12540 12550 12560 12570 12580 12590 12600 12610 12620 12630 12640 12650 12660 12670 12680 12690 12700 12710 12720 12730 12740 12750 12760 12770 12780 12790 12800 12810 12820 12830 12840 12850 12860 12870 12880 12890 12900 12910 12920 12930 12940 12950 12960 12970 12980 12990 13000 13010 13020 13030 13040 13050 13060 13070 13080 13090 13100 13110 13120 13130 13140 13150 13160 13170 13180 13190 13200 13210 13220 13230 13240 13250 13260 13270 13280 13290 13300 13310 13320 13330 13340 13350 13360 13370 13380 13390 13400 13410 13420 13430 13440 13450 13460 13470 13480 13490 13500 13510 13520 13530 13540 13550 13560 13570 13580 13590 13600 13610 13620 13630 13640 13650 13660 13670 13680 13690 13700 13710 13720 13730 13740 13750 13760 13770 13780 13790 13800 13810 13820 13830 13840 13850 13860 13870 13880 13890 13900 13910 13920 13930 13940 13950 13960 13970 13980 13990 14000 14010 14020 14030 14040 14050 14060 14070 14080 14090 14100 14110 14120 14130 14140 14150 14160 14170 14180 14190 14200 14210 14220 14230 14240 14250 14260 14270 14280 14290 14300 14310 14320 14330 14340 14350 14360 14370 14380 14390 14400 14410 14420 14430 14440 14450 14460 14470 14480 14490 14500 14510 14520 14530 14540 14550 14560 14570 14580 14590 14600 14610 14620 14630 14640 14650 14660 14670 14680 14690 14700 14710 14720 14730 14740 14750 14760 14770 14780 14790 14800 14810 14820 14830 14840 14850 14860 14870 14880 14890 14900 14910 14920 14930 14940 14950 14960 14970 14980 14990 15000 15010 15020 15030 15040 15050 15060 15070 15080 15090 15100 15110 15120 15130 15140 15150 15160 15170 15180 15190 15200 15210 15220 15230 15240 15250 15260 15270 15280 15290 15300 15310 15320 15330 15340 15350 15360 15370 15380 15390 15400 15410 15420 15430 15440 15450 15460 15470 15480 15490 15500 15510 15520 15530 15540 15550 15560 15570 15580 15590 15600 15610 15620 15630 15640 15650 15660 15670 15680 15690 15700 15710 15720 15730 15740 15750 15760 15770 15780 15790 15800 15810 15820 15830 15840 15850 15860 15870 15880 15890 15900 15910 15920 15930 15940 15950 15960 15970 15980 15990 16000 16010 16020 16030 16040 16050 16060 16070 16080 16090 16100 16110 16120 16130 16140 16150 16160 16170 16180 16190 16200 16210 16220 16230 16240 16250 16260 16270 16280 16290 16300 16310 16320 16330 16340 16350 16360 16370 16380 16390 16400 16410 16420 16430 16440 16450 16460 16470 16480 16490 16500 16510 16520 16530 16540 16550 16560 16570 16580 16590 16600 16610 16620 16630 16640 16650 16660 16670 16680 16690 16700 16710 16720 16730 16740 16750 16760 16770 16780 16790 16800 16810 16820 16830 16840 16850 16860 16870 16880 16890 16900 16910 16920 16930 16940 16950 16960 16970 16980 16990 17000 17010 17020 17030 17040 17050 17060 17070 17080 17090 17100 17110 17120 17130 17140 17150 17160 17170 17180 17190 17200 17210 17220 17230 17240 17250 17260 17270 17280 17290 17300 17310 17320 17330 17340 17350 17360 17370 17380 17390 17400 17410 17420 17430 17440 17450 17460 17470 17480 17490 17500 17510 17520 17530 17540 17550 17560 17570 17580 17590 17600 17610 17620 17630 17640 17650 17660 17670 17680 17690 17700 17710 17720 17730 17740 17750 17760 17770 17780 17790 17800 17810 17820 17830 17840 17850 17860 17870 17880 17890 17900 17910 17920 17930 17940 17950 17960 17970 17980 17990 18000 18010 18020 18030 18040 18050 18060 18070 18080 18090 18100 18110 18120 18130 18140 18150 18160 18170 18180 18190 18200 18210 18220 18230 18240 18250 18260 18270 18280 18290 18300 18310 18320 18330 18340 18350 18360 18370 18380 18390 18400 18410 18420 18430 18440 18450 18460 18470 18480 18490 18500 18510 18520 18530 18540 18550 18560 18570 18580 18590 18600 18610 18620 18630 18640 18650 18660 18670 18680 18690 18700 18710 18720 18730 18740 18750 18760 18770 18780 18790 18800 18810 18820 18830 18840 18850 18860 18870 18880 18890 18900 18910 18920 18930 18940 18950 18960 18970 18980 18990 19000 19010 19020 19030 19040 19050 19060 19070 19080 19090 19100 19110 19120 19130 19140 19150 19160 19170 19180 19190 19200 19210 19220 19230 19240 19250 19260 19270 19280 19290 19300 19310 19320 19330 19340 19350 19360 19370 19380 19390 19400 19410 19420 19430 19440 19450 19460 19470 19480 19490 19500 19510 19520 19530 19540 19550 19560 19570 19580 19590 19600 19610 19620 19630 19640 19650 19660 19670 19680 19690 19700 19710 19720 19730 19740 19750 19760 19770 19780 19790 19800 19810 19820 19830 19840 19850 19860 19870 19880 19890 19900 19910 19920 19930 19940 19950 19960 19970 19980 19990 20000 20010 20020 20030 20040 20050 20060 20070 20080 20090 20100 20110 20120 20130 20140 20150 20160 20170 20180 20190 20200 20210 20220 20230 20240 20250 20260 20270 20280 20290 20300 20310 20320 20330 20340 20350 20360 20370 20380 20390 20400 20410 20420 20430 20440 20450 20460 20470 20480 20490 20500 20510 20520 20530 20540 20550 20560 20570 20580 20590 20600 20610 20620 20630 20640 20650 20660 20670 20680 20690 20700 20710 20720 20730 20740 20750 20760 20770 20780 20790 20800 20810 20820 20830 20840 20850 20860 20870 20880 20890 20900 20910 20920 20930 20940 20950 20960 20970 20980 20990 21000 21010 21020 21030 21040 21050 21060 21070 21080 21090 21100 21110 21120 21130 21140 21150 21160 21170 21180 21190 21200 21210 21220 21230 21240 21250 21260 21270 21280 21290 21300 21310 21320 21330 21340 21350 21360 21370 21380 21390 21400 21410 21420 21430 21440 21450 21460 21470 21480 21490 21500 21510 21520 21530 21540 21550 21560 21570 21580 21590 21600 21610 21620 21630 21640 21650 21660 21670 21680 21690 21700 21710 21720 21730 21740 21750 21760 21770 21780 21790 21800 21810 21820 21830 21840 21850 21860 21870 21880 21890 21900 21910 21920 21930 21940 21950 21960 21970 21980 21990 22000 22010 22020 22030 22040 22050 22060 22070 22080 22090 22100 22110 22120 22130 22140 22150 22160 22170 22180 22190 22200 22210 22220 22230 22240 22250 22260 22270 22280 22290 22300 22310 22320 22330 22340 22350 22360 22370 22380 22390 22400 22410 22420 22430 22440 22450 22460 22470 22480 22490 22500 22510 22520 22530 22540 22550 22560 22570 22580 22590 22600 22610 22620 22630 22640 22650 22660 22670 22680 22690 22700 22710 22720 22730 22740 22750 22760 22770 22780 22790 22800 22810 22820 22830 22840 22850 22860 22870 22880 22890 22900 22910 22920 22930 22940 22950 22960 22970 22980 22990 23000 23010 23020 23030 23040 23050 23060 23070 23080 23090 23100 23110 23120 23130 23140 23150 23160 23170 23180 23190 23200 23210 23220 23230 23240 23250 23260 23270 23280 23290 23300 23310 23320 23330 23340 23350 23360 23370 23380 23390 23400 23410 23420 23430 23440 23450 23460 23470 23480 23490 23500 23510 23520 23530 23540 23550 23560 23570 23580 23590 23600 23610 23620 23630 23640 23650 23660 23670 23680 23690 23700 23710 23720 23730 23740 23750 23760 23770 23780 23790 23800 23810 23820 23830 23840 23850 23860 23870 23880 23890 23900 23910 23920 23930 23940 23950 23960 23970 23980 23990 24000 24010 24020 24030 24040 24050 24060 24070 24080 24090 24100 24110 24120 24130 24140 24150 24160 24170 24180 24190 24200 24210 24220 24230 24240 24250 24260 24270 24280 24290 24300 24310 24320 24330 24340 24350 24360 24370 24380 24390 24400 24410 24420 24430 24440 24450 24460 24470 24480 24490 24500 24510 24520 24530 24540 24550 24560 24570 24580 24590 24600 24610 24620 24630 24640 24650 24660 24670 24680 24690 24700 24710 24720 24730 24740 24750 24760 24770 24780 24790 24800 24810 24820 24830 24840 24850 24860 24870 24880 24890 24900 24910 24920 24930 24940 24950 24960 24970 24980 24990 25000 25010 25020 25030 25040 25050 25060 25070 25080 25090 25100 25110 25120 25130 25140 25150 25160 25170 25180 25190 25200 25210 25220 25230 25240 25250 25260 25270 25280 25290 25300 25310 25320 25330 25340 25350 25360 25370 25380 25390 25400 25410 25420 25430 25440 25450 25460 25470 25480 25490 25500 25510 25520 25530 25540 25550 25560 25570 25580 25590 25600 25610 25620 25630 25640 25650 25660 25670 25680 25690 25700 25710 25720 25730 25740 25750 25760 25770 25780 25790 25800 25810 25820 25830 25840 25850 25860 25870 25880 25890 25900 25910 25920 25930 25940 25950 25960 25970 25980 25990 26000 26010 26020 26030 26040 26050 26060 26070 26080 26090 26100 26110 26120 26130 26140 26150 26160 26170 26180 26190 26200 26210 26220 26230 26240 26250 26260 26270 26280 26290 26300 26310 26320 26330 26340 26350 26360 26370 26380 26390 26400 26410 26420 26430 26440 26450 26460 26470 26480 26490 26500 26510 26520 26530 26540 26550 26560 26570 26580 26590 26600 26610 26620 26630 26640 26650 26660 26670 26680 26690 26700 26710 26720 26730 26740 26750 26760 26770 26780 26790 26800 26810 26820 26830 26840 26850 26860 26870 26880 26890 26900 26910 26920 26930 26940 26950 26960 26970 26980 26990 27000 27010 27020 27030 27040 27050 27060 27070 27080 27090 27100 27110 27120 27130 27140 27150 27160 27170 27180 27190 27200 27210 27220 27230 27240 27250 27260 27270 27280 27290 27300 27310 27320 27330 27340 27350 27360 27370 27380 27390 27400 27410 27420 27430 27440 27450 27460 27470 27480 27490 27500 27510 27520 27530 27540 27550 27560 27570 27580 27590 27600 27610 27620 27630 27640 27650 27660 27670 27680 27690 27700 27710 27720 27730 27740 27750 27760 27770 27780 27790 27800 27810 27820 27830 27840 27850 27860 27870 27880 27890 27900 27910 27920 27930 27940 27950 27960 27970 27980 27990 28000 28010 28020 28030 28040 28050 28060 28070 28080 28090 28100 28110 28120 28130 28140 28150 28160 28170 28180 28190 28200 28210 28220 28230 28240 28250 28260 28270 28280 28290 28300 28310 28320 28330 28340 28350 28360 28370 28380 28390 28400 28410 28420 28430 28440 28450 28460 28470 28480 28490 28500 28510 28520 28530 28540 28550 28560 28570 28580 28590 28600 28610 28620 28630 28640 28650 28660 28670 28680 28690 28700 28710 28720 28730 28740 28750 28760 28770 28780 28790 28800 28810 28820 28830 28840 28850 28860 28870 28880 28890 28900 28910 28920 28930 28940 28950 28960 28970 28980 28990 29000 29010 29020 29030 29040 29050 29060 29070 29080 29090 29100 29110 29120 29130 29140 29150 29160 29170 29180 29190 29200 29210 29220 29230 29240 29250 29260 29270 29280 29290 29300 29310 29320 29330 29340 29350 29360 29370 29380 29390 29400 29410 29420 29430 29440 29450 29460 29470 29480 29490 29500 29510 29520 29530 29540 29550 29560 29570 29580 29590 29600 29610 29620 29630 29640 29650 29660 29670 29680 29690 29700 29710 29720 29730 29740 29750 29760 29770 29780 29790 29800 29810 29820 29830 29840 29850 29860 29870 29880 29890 29900 29910 29920 29930 29940 29950 29960 29970 29980 29990 30000 30010 30020 30030 30040 30050 30060 30070 30080 30090 30100 30110 30120 30130 30140 30150 30160 30170 30180 30190 30200 30210 30220 30230 30240 30250 30260 30270 30280 30290 30300 30310 30320 30330 30340 30350 30360 30370 30380 30390 30400 30410 30420 30430 30440 30450 30460 30470 30480 30490 30500 30510 30520 30530 30540 30550 30560 30570 30580 30590 30600 30610 30620 30630 30640 30650 30660 30670 30680 30690 30700 30710 30720 30730 30740 30750 30760 30770 30780 30790 30800 30810 30820 30830 30840 30850 30860 30870 30880 30890 30900 30910 30920 30930 30940 30950 30960 30970 30980 30990 31000 31010 31020 31030 31040 31050 31060 31070 31080 31090 31100 31110 31120 31130 31140 31150 31160 31170 31180 31190 31200 31210 31220 31230 31240 31250 31260 31270 31280 31290 31300 31310 31320 31330 31340 31350 31360 31370 31380 31390 31400 31410 31420 31430 31440 31450 31460 31470 31480 31490 31500 31510 31520 31530 31540 31550 31560 31570 31580 31590 31600 31610 31620 31630 31640 31650 31660 31670 31680 31690 31700 31710 31720 31730 31740 31750 31760 31770 31780 31790 31800 31810 31820 31830 31840 31850 31860 31870 31880 31890 31900 31910 31920 31930 31940 31950 31960 31970 31980 31990 32000 32010 32020 32030 32040 32050 32060 32070 32080 32090 32100 32110 32120 32130 32140 32150 32160 32170 32180 32190 32200 32210 32220 32230 32240 32250 32260 32270 32280 32290 32300 32310 32320 32330 32340 32350 32360 32370 32380 32390 32400 32410 32420 32430 32440 32450 32460 32470 32480 32490 32500 32510 32520 32530 32540 32550 32560 32570 32580 32590 32600 32610 32620 32630 32640 32650 32660 32670 32680 32690 32700 32710 32720 32730 32740 32750 32760 32770 32780 32790 32800 32810 32820 32830 32840 32850 32860 32870 32880 32890 32900 32910 32920 32930 32940 32950 32960 32970 32980 32990 33000 33010 33020 33030 33040 33050 33060 33070 33080 33090 33100 33110 33120 33130 33140 33150 33160 33170 33180 33190 33200 33210 33220 33230 33240 33250 33260 33270 33280 33290 33300 33310 33320 33330 33340 33350 33360 33370 33380 33390 33400 33410 33420 33430 33440 33450 33460 33470 33480 33490 33500 33510 33520 33530 33540 33550 33560 33570 33580 33590 33600 33610 33620 33630 33640 33650 33660 33670 33680 33690 33700 33710 33720 33730 33740 33750 33760 33770 33780 33790 33800 33810 33820 33830 33840 33850 33860 33870 33880 33890 33900 33910 33920 33930 33940 33950 33960 33970 33980 33990 34000 34010 34020 34030 34040 34050 34060 34070 34080 34090 34100 34110 34120 34130 34140 34150 34160 34170 34180 34190 34200 34210 34220 34230 34240 34250 34260 34270 34280 34290 34300 34310 34320 34330 34340 34350 34360 34370 34380 34390 34400 34410 34420 34430 34440 34450 34460 34470 34480 34490 34500 34510 34520 34530 34540 34550 34560 34570 34580 34590 34600 34610 34620 34630 34640 34650 34660 34670 34680 34690 34700 34710 34720 34730 34740 34750 34760 34770 34780 34790 34800 34810 34820 34830 34840 34850 34860 34870 34880 34890 34900 34910 34920 34930 34940 34950 34960 34970 34980 34990 35000 35010 35020 35030 35040 35050 35060 35070 35080 35090 35100 35110 35120 35130 35140 35150 35160 35170 35180 35190 35200 35210 35220 35230 35240 35250 35260 35270 35280 35290 35300 35310 35320 35330 35340 35350 35360 35370 35380 35390 35400 35410 35420 35430 35440 35450 35460 35470 35480 35490 35500 35510 35520 35530 35540 35550 35560 35570 35580 35590 35600 35610 35620 35630 35640 35650 35660 35670 35680 35690 35700 35710 35720 35730 35740 35750 35760 35770 35780 35790 35800 35810 35820 35830 35840 35850 35860 35870 35880 35890 35900 35910 35920 35930 35940 35950 35960 35970 35980 35990 36000 36010 36020 36030 36040 36050 36060 36070 36080 36090 36100 36110 36120 36130 36140 36150 36160 36170 36180 36190 36200 36210 36220 36230 36240 36250 36260 36270 36280 36290 36300 36310 36320 36330 36340 36350 36360 36370 36380 36390 36400 36410 36420 36430 36440 36450 36460 36470 36480 36490 36500 36510 36520 36530 36540 36550 36560 36570 36580 36590 36600 36610 36620 36630 36640 36650 36660 36670 36680 36690 36700 36710 36720 36730 36740 36750 36760 36770 36780 36790 36800 36810 36820 36830 36840 36850 36860 36870 36880 36890 36900 36910 36920 36930 36940 36950 36960 36970 36980 36990 37000 37010 37020 37030 37040 37050 37060 37070 37080 37090 37100 37110 37120 37130 37140 37150 37160 37170 37180 37190 37200 37210 37220 37230 37240 37250 37260 37270 37280 37290 37300 37310 37320 37330 37340 37350 37360 37370 37380 37390 37400 37410 37420 37430 37440 37450 37460 37470 37480 37490 37500 37510 37520 37530 37540 37550 37560 37570 37580 37590 37600 37610 37620 37630 37640 37650 37660 37670 37680 37690 37700 37710 37720 37730 37740 37750 37760 37770 37780 37790 37800 37810 37820 37830 37840 37850 37860 37870 37880 37890 37900 37910 37920 37930 37940 37950 37960 37970 37980 37990 38000 38010 38020 38030 38040 38050 38060 38070 38080 38090 38100 38110 38120 38130 38140 38150 38160 38170 38180 38190 38200 38210 38220 38230 38240 38250 38260 38270 38280 38290 38300 38310 38320 38330 38340 38350 38360 38370 38380 38390 38400 38410 38420 38430 38440 38450 38460 38470 38480 38490 38500 38510 38520 38530 38540 38550 38560 38570 38580 38590 38600 38610 38620 38630 38640 38650 38660 38670 38680 38690 38700 38710 38720 38730 38740 38750 38760 38770 38780 38790 38800 38810 38820 38830 38840 38850 38860 38870 38880 38890 38900 38910 38920 38930 38940 38950 38960 38970 38980 38990 39000 39010 39020 39030 39040 39050 39060 39070 39080 39090 39100 39110 39120 39130 39140 39150 39160 39170 39180 39190 39200 39210 39220 39230 39240 39250 39260 39270 39280 39290 39300 39310 39320 39330 39340 39350 39360 39370 39380 39390 39400 39410 39420 39430 39440 39450 39460 39470 39480 39490 39500 39510 39520 39530 39540 39550 39560 39570 39580 39590 39600 39610 39620 39630 39640 39650 39660 39670 39680 39690 39700 39710 39720 39730 39740 39750 39760 39770 39780 39790 39800 39810 39820 39830 39840 39850 39860 39870 39880 39890 39900 39910 39920 39930 39940 39950 39960 39970 39980 39990 40000 40010 40020 40030 40040 40050 40060 40070 40080 40090 40100 40110 40120 40130 40140 40150 40160 40170 40180 40190 40200 40210 40220 40230 40240 40250 40260 40270 40280 40290 40300 40310 40320 40330 40340 40350 40360 40370 40380 40390 40400 40410 40420 40430 40440 40450 40460 40470 40480 40490 40500 40510 40520 40530 40540 40550 40560 40570 40580 40590 40600 40610 40620 40630 40640 40650 40660 40670 40680 40690 40700 40710 40720 40730 40740 40750 40760 40770 40780 40790 40800 40810 40820 40830 40840 40850 40860 40870 40880 40890 40900 40910 40920 40930 40940 40950 40960 40970 40980 40990 41000 41010 41020 41030 41040 41050 41060 41070 41080 41090 41100 41110 41120 41130 41140 41150 41160 41170 41180 41190 41200 41210 41220 41230 41240 41250 41260 41270 41280 41290 41300 41310 41320 41330 41340 41350 41360 41370 41380 41390 41400 41410 41420 41430 41440 41450 41460 41470 41480 41490 41500 41510 41520 41530 41540 41550 41560 41570 41580 41590 41600 41610 41620 41630 41640 41650 41660 41670 41680 41690 41700 41710 41720 41730 41740 41750 41760 41770 41780 41790 41800 41810 41820 41830 41840 41850 41860 41870 41880 41890 41900 41910 41920 41930 41940 41950 41960 41970 41980 41990 42000 42010 42020 42030 42040 42050 42060 42070 42080 42090 42100 42110 42120 42130 42140 42150 42160 42170 42180 42190 42200 42210 42220 42230 42240 42250 42260 42270 42280 42290 42300 42310 42320 42330 42340 42350 42360 42370 42380 42390 42400 42410 42420 42430 42440 42450 42460 42470 42480 42490 42500 42510 42520 42530 42540 42550 42560 42570 42580 42590 42600 42610 42620 42630 42640 42650 42660 42670 42680 42690 42700 42710 42720 42730 42740 42750 42760 42770 42780 42790 42800 42810 42820 42830 42840 42850 42860 42870 42880 42890 42900 42910 42920 42930 42940 42950 42960 42970 42980 42990 43000 43010 43020 43030 43040 43050 43060 43070 43080 43090 43100 43110 43120 43130 43140 43150 43160 43170 43180 43190 43200 43210 43220 43230 43240 43250 43260 43270 43280 43290 43300 43310 43320 43330 43340 43350 43360 43370 43380 43390 43400 43410 43420 43430 43440 43450 43460 43470 43480 43490 43500 43510 43520 43530 43540 43550 43560 43570 43580 43590 43600 43610 43620 43630 43640 43650 43660 43670 43680 43690 43700 43710 43720 43730 43740 43750 43760 43770 43780 43790 43800 43810 43820 43830 43840 43850 43860 43870 43880 43890 43900 43910 43920 43930 43940 43950 43960 43970 43980 43990 44000 44010 44020 44030 44040 44050 44060 44070 44080 44090 44100 44110 44120 44130 44140 44150 44160 44170 44180 44190 44200 44210 44220 44230 44240 44250 44260 44270 44280 44290 44300 44310 44320 44330 44340 44350 44360 44370 44380 44390 44400 44410 44420 44430 44440 44450 44460 44470 44480 44490 44500 44510 44520 44530 44540 44550 44560 44570 44580 44590 44600 44610 44620 44630 44640 44650 44660 44670 44680 44690 44700 44710 44720 44730 44740 44750 44760 44770 44780 44790 44800 44810 44820 44830 44840 44850 44860 44870 44880 44890 44900 44910 44920 44930 44940 44950 44960 44970 44980 44990 45000 45010 45020 45030 45040 45050 45060 45070 45080 45090 45100 45110 45120 45130 45140 45150 45160 45170 45180 45190 45200 45210 45220 45230 45240 45250 45260 45270 45280 45290 45300 45310 45320 45330 45340 45350 45360 45370 45380 45390 45400 45410 45420 45430 45440 45450 45460 45470 45480 45490 45500 45510 45520 45530 45540 45550 45560 45570 45580 45590 45600 45610 45620 45630 45640 45650 45660 45670 45680 45690 45700 45710 45720 45730 45740 45750 45760 45770 45780 45790 45800 45810 45820 45830 45840 45850 45860 45870 45880 45890 45900 45910 45920 45930 45940 45950 45960 45970 45980 45990 46000 46010 46020 46030 46040 46050 46060 46070 46080 46090 46100 46110 46120 46130 46140 46150 46160 46170 46180 46190 46200 46210 46220 46230 46240 46250 46260 46270 46280 46290 46300 46310 46320 46330 46340 46350 46360 46370 46380 46390 46400 46410 46420 46430 46440 46450 46460 46470 46480 46490 46500 46510 46520 46530 46540 46550 46560 46570 46580 46590 46600 46610 46620 46630 46640 46650 46660 46670 46680 46690 46700 46710 46720 46730 46740 46750 46760 46770 46780 46790 46800 46810 46820 46830 46840 46850 46860 46870 46880 46890 46900 46910 46920 46930 46940 46950 46960 46970 46980 46990 47000 47010 47020 47030 47040 47050 47060 47070 47080 47090 47100 47110 47120 47130 47140 47150 47160 47170 47180 47190 47200 47210 47220 47230 47240 47250 47260 47270 47280 47290 47300 47310 47320 47330 47340 47350 47360 47370 47380 47390 47400 47410 47420 47430 47440 47450 47460 47470 47480 47490 47500 47510 47520 47530 47540 47550 47560 47570 47580 47590 47600 47610 47620 47630 47640 47650 47660 47670 47680 47690 47700 47710 47720 47730 47740 47750 47760 47770 47780 47790 47800 47810 47820 47830 47840 47850 47860 47870 47880 47890 47900 47910 47920 47930 47940 47950 47960 47970 47980 47990 48000 48010 48020 48030 48040 48050 48060 48070 48080 48090 48100 48110 48120 48130 48140 48150 48160 48170 48180 48190 48200 48210 48220 48230 48240 48250 48260 48270 48280 48290 48300 48310 48320 48330 48340 48350 48360 48370 48380 48390 48400 48410 48420 48430 48440 48450 48460 48470 48480 48490 48500 48510 48520 48530 48540 48550 48560 48570 48580 48590 48600 48610 48620 48630 48640 48650 48660 48670 48680 48690 48700 48710 48720 48730 48740 48750 48760 48770 48780 48790 48800 48810 48820 48830 48840 48850 48860 48870 48880 48890 48900 48910 48920 48930 48940 48950 48960 48970 48980 48990 49000 49010 49020 49030 49040 49050 49060 49070 49080 49090 49100 49110 49120 49130 49140 49150 49160 49170 49180 49190 49200 49210 49220 49230 49240 49250 49260 49270 49280 49290 49300 49310 49320 49330 49340 49350 49360 49370 49380 49390 49400 49410 49420 49430 49440 49450 49460 49470 49480 49490 49500 49510 49520 49530 49540 49550 49560 49570 49580 49590 49600 49610 49620 49630 49640 49650 49660 49670 49680 49690 49700 49710 49720 49730 49740 49750 49760 49770 49780 49790 49800 49810 49820 49830 49840 49850 49860 49870 49880 49890 49900 49910 49920 49930 49940 49950 49960 49970 49980 49990 50000 50010 50020 50030 50040 50050 50060 50070 50080 50090 50100 50110 50120 50130 50140 50150 50160 50170 50180 50190 50200 50210 50220 50230 50240 50250 50260 50270 50280 50290 50300 50310 50320 50330 50340 50350 50360 50370 50380 50390 50400 50410 50420 50430 50440 50450 50460 50470 50480 50490 50500 50510 50520 50530 50540 50550 50560 50570 50580 50590 50600 50610 50620 50630 50640 50650 50660 50670 50680 50690 50700 50710 50720 50730 50740 50750 50760 50770 50780 50790 50800 50810 50820 50830 50840 50850 50860 50870 50880 50890 50900 50910 50920 50930 50940 50950 50960 50970 50980 50990 51000 51010 51020 51030 51040 51050 51060 51070 51080 51090 51100 51110 51120 51130 51140 51150 51160 51170 51180 51190 51200 51210 51220 51230 51240 51250 51260 51270 51280 51290 51300 51310 51320 51330 51340 51350 51360 51370 51380 51390 51400 51410 51420 51430 51440 51450 51460 51470 51480 51490 51500 51510 51520 51530 51540 51550 51560 51570 51580 51590 51600 51610 51620 51630 51640 51650 51660 51670 51680 51690 51700 51710 51720 51730 51740 51750 51760 51770 51780 51790 51800 51810 51820 51830 51840 51850 51860 51870 51880 51890 51900 51910 51920 51930 51940 51950 51960 51970 51980 51990 52000 52010 52020 52030 52040 52050 52060 52070 52080 52090 52100 52110 52120 52130 52140 52150 52160 52170 52180 52190 52200 52210 52220 52230 52240 52250 52260 52270 52280 52290 52300 52310 52320 52330 52340 52350 52360 52370 52380 52390 52400 52410 52420 52430 52440 52450 52460 52470 52480 52490 52500 52510 52520 52530 52540 52550 52560 52570 52580 52590 52600 52610 52620 52630 52640 52650 52660 52670 52680 52690 52700 52710 52720 52730 52740 52750 52760 52770 52780 52790 52800 52810 52820 52830 52840 52850 52860 52870 52880 52890 52900 52910 52920 52930 52940 52950 52960 52970 52980 52990 53000 53010 53020 53030 53040 53050 53060 53070 53080 53090 53100 53110 53120 53130 53140 53150 53160 53170 53180 53190 53200 53210 53220 53230 53240 53250 53260 53270 53280 53290 53300 53310 53320 53330 53340 53350 53360 53370 53380 53390 53400 53410 53420 53430 53440 53450 53460 53470 53480 53490 53500 53510 53520 53530 53540 53550 53560 53570 53580 53590 53600 53610 53620 53630 53640 53650 53660 53670 53680 53690 53700 53710 53720 53730 53740 53750 53760 53770 53780 53790 53800 53810 53820 53830 53840 53850 53860 53870 53880 53890 53900 53910 53920 53930 53940 53950 53960 53970 53980 53990 54000 54010 54020 54030 54040 54050 54060 54070 54080 54090 54100 54110 54120 54130 54140 54150 54160 54170 54180 54190 54200 54210 54220 54230 54240 54250 54260 54270 54280 54290 54300 54310 54320 54330 54340 54350 54360 54370 54380 54390 54400 54410 54420 54430 54440 54450 54460 54470 54480 54490 54500 54510 54520 54530 54540 54550 54560 54570 54580 54590 54600 54610 54620 54630 54640 54650 54660 54670 54680 54690 54700 54710 54720 54730 54740 54750 54760 54770 54780 54790 54800 54810 54820 54830 54840 54850 54860 54870 54880 54890 54900 54910 54920 54930 54940 54950 54960 54970 54980 54990 55000 55010 55020 55030 55040 55050 55060 55070 55080 55090 55100 55110 55120 55130 55140 55150 55160 55170 55180 55190 55200 55210 55220 55230 55240 55250 55260 55270 55280 55290 55300 55310 55320 55330 55340 55350 55360 55370 55380 55390 55400 55410 55420 55430 55440 55450 55460 55470 55480 55490 55500 55510 55520 55530 55540 55550 55560 55570 55580 55590 55600 55610 55620 55630 55640 55650 55660 55670 55680 55690 55700 55710 55720 55730 55740 55750 55760 55770 55780 55790 55800 55810 55820 55830 55840 55850 55860 55870 55880 55890 55900 55910 55920 55930 55940 55950 55960 55970 55980 55990 56000 56010 56020 56030 56040 56050 56060 56070 56080 56090 56100 56110 56120 56130 56140 56150 56160 56170 56180 56190 56200 56210 56220 56230 56240 56250 56260 56270 56280 56290 56300 56310 56320 56330 56340 56350 56360 56370 56380 56390 56400 56410 56420 56430 56440 56450 56460 56470 56480 56490 56500 56510 56520 56530 56540 56550 56560 56570 56580 56590 56600 56610 56620 56630 56640 56650 56660 56670 56680 56690 56700 56710 56720 56730 56740 56750 56760 56770 56780 56790 56800 56810 56820 56830 56840 56850 56860 56870 56880 56890 56900 56910 56920 56930 56940 56950 56960 56970 56980 56990 57000 57010 57020 57030 57040 57050 57060 57070 57080 57090 57100 57110 57120 57130 57140 57150 57160 57170 57180 57190 57200 57210 57220 57230 57240 57250 57260 57270 57280 57290 57300 57310 57320 57330 57340 57350 57360 57370 57380 57390 57400 57410 57420 57430 57440 57450 57460 57470 57480 57490 57500 57510 57520 57530 57540 57550 57560 57570 57580 57590 57600 57610 57620 57630 57640 57650 57660 57670 57680 57690 57700 57710 57720 57730 57740 57750 57760 57770 57780 57790 57800 57810 57820 57830 57840 57850 57860 57870 57880 57890 57900 57910 57920 57930 57940 57950 57960 57970 57980 57990 58000 58010 58020 58030 58040 58050 58060 58070 58080 58090 58100 58110 58120 58130 58140 58150 58160 58170 58180 58190 58200 58210 58220 58230 58240 58250 58260 58270 58280 58290 58300 58310 58320 58330 58340 58350 58360 58370 58380 58390 58400 58410 58420 58430 58440 58450 58460 58470 58480 58490 58500 58510 58520 58530 58540 58550 58560 58570 58580 58590 58600 58610 58620 58630 58640 58650 58660 58670 58680 58690 58700 58710 58720 58730 58740 58750 58760 58770 58780 58790 58800 58810 58820 58830 58840 58850 58860 58870 58880 58890 58900 58910 58920 58930 58940 58950 58960 58970 58980 58990 59000 59010 59020 59030 59040 59050 59060 59070 59080 59090 59100 59110 59120 59130 59140 59150 59160 59170 59180 59190 59200 59210 59220 59230 59240 59250 59260 59270 59280 59290 59300 59310 59320 59330 59340 59350 59360 59370 59380 59390 59400 59410 59420 59430 59440 59450 59460 59470 59480 59490 59500 59510 59520 59530 59540 59550 59560 59570 59580 59590 59600 59610 59620 59630 59640 59650 59660 59670 59680 59690 59700 59710 59720 59730 59740 59750 59760 59770 59780 59790 59800 59810 59820 59830 59840 59850 59860 59870 59880 59890 59900 59910 59920 59930 59940 59950 59960 59970 59980 59990 60000 60010 60020 60030 60040 60050 60060 60070 60080 60090 60100 60110 60120 60130 60140 60150 60160 60170 60180 60190 60200 60210 60220 60230 60240 60250 60260 60270 60280 60290 60300 60310 60320 60330 60340 60350 60360 60370 60380 60390 60400 60410 60420 60430 60440 60450 60460 60470 60480 60490 60500 60510 60520 60530 60540 60550 60560 60570 60580 60590 60600 60610 60620 60630 60640 60650 60660 60670 60680 60690 60700 60710 60720 60730 60740 60750 60760 60770 60780 60790 60800 60810 60820 60830 60840 60850 60860 60870 60880 60890 60900 60910 60920 60930 60940 60950 60960 60970 60980 60990 61000 61010 61020 61030 61040 61050 61060 61070 61080 61090 61100 61110 61120 61130 61140 61150 61160 61170 61180 61190 61200 61210 61220 61230 61240 61250 61260 61270 61280 61290 61300 61310 61320 61330 61340 61350 61360 61370 61380 61390 61400 61410 61420 61430 61440 61450 61460 61470 61480 61490 61500 61510 61520 61530 61540 61550 61560 61570 61580 61590 61600 61610 61620 61630 61640 61650 61660 61670 61680 61690 61700 61710 61720 61730 61740 61750 61760 61770 61780 61790 61800 61810 61820 61830 61840 61850 61860 61870 61880 61890 61900 61910 61920 61930 61940 61950 61960 61970 61980 61990 62000 62010 62020 62030 62040 62050 62060 62070 62080 62090 62100 62110 62120 62130 62140 62150 62160 62170 62180 62190 62200 62210 62220 62230 62240 62250 62260 62270 62280 62290 62300 62310 62320 62330 62340 62350 62360 62370 62380 62390 62400 62410 62420 62430 62440 62450 62460 62470 62480 62490 62500 62510 62520 62530 62540 62550 62560 62570 62580 62590 62600 62610 62620 62630 62640 62650 62660 62670 62680 62690 62700 62710 62720 62730 62740 62750 62760 62770 62780 62790 62800 62810 62820 62830 62840 62850 62860 62870 62880 62890 62900 62910 62920 62930 62940 62950 62960 62970 62980 62990 63000 63010 63020 63030 63040 63050 63060 63070 63080 63090 63100 63110 63120 63130 63140 63150 63160 63170 63180 63190 63200 63210 63220 63230 63240 63250 63260 63270 63280 63290 63300 63310 63320 63330 63340 63350 63360 63370 63380 63390 63400 63410 63420 63430 63440 63450 63460 63470 63480 63490 63500 63510 63520 63530 63540 63550 63560 63570 63580 63590 63600 63610 63620 63630 63640 63650 63660 63670 63680 63690 63700 63710 63720 63730 63740 63750 63760 63770 63780 63790 63800 63810 63820 63830 63840 63850 63860 63870 63880 63890 63900 63910 63920 63930 63940 63950 63960 63970 63980 63990 64000 64010 64020 64030 64040 64050 64060 64070 64080 64090 64100 64110 64120 64130 64140 64150 64160 64170 64180 64190 64200 64210 64220 64230 64240 64250 64260 64270 64280 64290 64300 64310 64320 64330 64340 64350 64360 64370 64380 64390 64400 64410 64420 64430 64440 64450 64460 64470 64480 64490 64500 64510 64520 64530 64540 64550 64560 64570 64580 64590 64600 64610 64620 64630 64640 64650 64660 64670 64680 64690 64700 64710 64720 64730 64740 64750 64760 64770 64780 64790 64800 64810 64820 64830 64840 64850 64860 64870 64880 64890 64900 64910 64920 64930 64940 64950 64960 64970 64980 64990 65000 65010 65020 65030 65040 65050 65060 65070 65080 65090 65100 65110 65120 65130 65140 65150 65160 65170 65180 65190 65200 65210 65220 65230 65240 65250 65260 65270 65280 65290 65300 65310 65320 65330 65340 65350 65360 65370 65380 65390 65400 65410 65420 65430 65440 65450 65460 65470 65480 65490 65500 65510 65520 65530 65540 65550 65560 65570 65580 65590 65600 65610 65620 65630 65640 65650 65660 65670 65680 65690 65700 65710 65720 65730 65740 65750 65760 65770 65780 65790 65800 65810 65820 65830 65840 65850 65860 65870 65880 65890 65900 65910 65920 65930 65940 65950 65960 65970 65980 65990 66000 66010 66020 66030 66040 66050 66060 66070 66080 66090 66100 66110 66120 66130 66140 66150 66160 66170 66180 66190 66200 66210 66220 66230 66240 66250 66260 66270 66280 66290 66300 66310 66320 66330 66340 66350 66360 66370 66380 66390 66400 66410 66420 66430 66440 66450 66460 66470 66480 66490 66500 66510 66520 66530 66540 66550 66560 66570 66580 66590 66600 66610 66620 66630 66640 66650 66660 66670 66680 66690 66700 66710 66720 66730 66740 66750 66760 66770 66780 66790 66800 66810 66820 66830 66840 66850 66860 66870 66880 66890 66900 66910 66920 66930 66940 66950 66960 66970 66980 66990 67000 67010 67020 67030 67040 67050 67060 67070 67080 67090 67100 67110 67120 67130 67140 67150 67160 67170 67180 67190 67200 67210 67220 67230 67240 67250 67260 67270 67280 67290 67300 67310 67320 67330 67340 67350 67360 67370 67380 67390 67400 67410 67420 67430 67440 67450 67460 67470 67480 67490 67500 67510 67520 67530 67540 67550 67560 67570 67580 67590 67600 67610 67620 67630 67640 67650 67660 67670 67680 67690 67700 67710 67720 67730 67740 67750 67760 67770 67780 67790 67800 67810 67820 67830 67840 67850 67860 67870 67880 67890 67900 67910 67920 67930 67940 67950 67960 67970 67980 67990 68000 68010 68020 68030 68040 68050 68060 68070 68080 68090 68100 68110 68120 68130 68140 68150 68160 68170 68180 68190 68200 68210 68220 68230 68240 68250 68260 68270 68280 68290 68300 68310 68320 68330 68340 68350 68360 68370 68380 68390 68400 68410 68420 68430 68440 68450 68460 68470 68480 68490 68500 68510 68520 68530 68540 68550 68560 68570 68580 68590 68600 68610 68620 68630 68640 68650 68660 68670 68680 68690 68700 68710 68720 68730 68740 68750 68760 68770 68780 68790 68800 68810 68820 68830 68840 68850 68860 68870 68880 68890 68900 68910 68920 68930 68940 68950 68960 68970 68980 68990 69000 69010 69020 69030 69040 69050 69060 69070 69080 69090 69100 69110 69120 69130 69140 69150 69160 69170 69180 69190 69200 69210 69220 69230 69240 69250 69260 69270 69280 69290 69300 69310 69320 69330 69340 69350 69360 69370 69380 69390 69400 69410 69420 69430 69440 69450 69460 69470 69480 69490 69500 69510 69520 69530 69540 69550 69560 69570 69580 69590 69600 69610 69620 69630 69640 69650 69660 69670 69680 69690 69700 69710 69720 69730 69740 69750 69760 69770 69780 69790 69800 69810 69820 69830 69840 69850 69860 69870 69880 69890 69900 69910 69920 69930 69940 69950 69960 69970 69980 69990 70000 70010 70020 70030 70040 70050 70060 70070 70080 70090 70100 70110 70120 70130 70140 70150 70160 70170 70180 70190 70200 70210 70220 70230 70240 70250 70260 70270 70280 70290 70300 70310 70320 70330 70340 70350 70360 70370 70380 70390 70400 70410 70420 70430 70440 70450 70460 70470 70480 70490 70500 70510 70520 70530 70540 70550 70560 70570 70580 70590 70600 70610 70620 70630 70640 70650 70660 70670 70680 70690 70700 70710 70720 70730 70740 70750 70760 70770 70780 70790 70800 70810 70820 70830 70840 70850 70860 70870 70880 70890 70900 70910 70920 70930 70940 70950 70960 70970 70980 70990 71000 71010 71020 71030 71040 71050 71060 71070 71080 71090 71100 71110 71120 71130 71140 71150 71160 71170 71180 71190 71200 71210 71220 71230 71240 71250 71260 71270 71280 71290 71300 71310 71320 71330 71340 71350 71360 71370 71380 71390 71400 71410 71420 71430 71440 71450 71460 71470 71480 71490 71500 71510 71520 71530 71540 71550 71560 71570 71580 71590 71600 71610 71620 71630 71640 71650 71660 71670 71680 71690 71700 71710 71720 71730 71740 71750 71760 71770 71780 71790 71800 71810 71820 71830 71840 71850 71860 71870 71880 71890 71900 71910 71920 71930 71940 71950 71960 71970 71980 71990 72000 72010 72020 72030 72040 72050 72060 72070 72080 72090 72100 72110 72120 72130 72140 72150 72160 72170 72180 72190 72200 72210 72220 72230 72240 72250 72260 72270 72280 72290 72300 72310 72320 72330 72340 72350 72360 72370 72380 72390 72400 72410 72420 72430 72440 72450 72460 72470 72480 72490 72500 72510 72520 72530 72540 72550 72560 72570 72580 72590 72600 72610 72620 72630 72640 72650 72660 72670 72680 72690 72700 72710 72720 72730 72740 72750 72760 72770 72780 72790 72800 72810 72820 72830 72840 72850 72860 72870 72880 72890 72900 72910 72920 72930 72940 72950 72960 72970 72980 72990 73000 73010 73020 73030 73040 73050 73060 73070 73080 73090 73100 73110 73120 73130 73140 73150 73160 73170 73180 73190 73200 73210 73220 73230 73240 73250 73260 73270 73280 73290 73300 73310 73320 73330 73340 73350 73360 73370 73380 73390 73400 73410 73420 73430 73440 73450 73460 73470 73480 73490 73500 73510 73520 73530 73540 73550 73560 73570 73580 73590 73600 73610 73620 73630 73640 73650 73660 73670 73680 73690 73700 73710 73720 73730 73740 73750 73760 73770 73780 73790 73800 73810 73820 73830 73840 73850 73860 73870 73880 73890 73900 73910 73920 73930 73940 73950 73960 73970 73980 73990 74000 74010 74020 74030 74040 74050 74060 74070 74080 74090 74100 74110 74120 74130 74140 74150 74160 74170 74180 74190 74200 74210 74220 74230 74240 74250 74260 74270 74280 74290 74300 74310 74320 74330 74340 74350 74360 74370 74380 74390 74400 74410 74420 74430 74440 74450 74460 74470 74480 74490 74500 74510 74520 74530 74540 74550 74560 74570 74580 74590 74600 74610 74620 74630 74640 74650 74660 74670 74680 74690 74700 74710 74720 74730 74740 74750 74760 74770 74780 74790 74800 74810 74820 74830 74840 74850 74860 74870 74880 74890 74900 74910 74920 74930 74940 74950 74960 74970 74980 74990 75000 75010 75020 75030 75040 75050 75060 75070 75080 75090 75100 75110 75120 75130 75140 75150 75160 75170 75180 75190 75200 75210 75220 75230 75240 75250 75260 75270 75280 75290 75300 75310 75320 75330 75340 75350 75360 75370 75380 75390 75400 75410 75420 75430 75440 75450 75460 75470 75480 75490 75500 75510 75520 75530 75540 75550 75560 75570 75580 75590 75600 75610 75620 75630 75640 75650 75660 75670 75680 75690 75700 75710 75720 75730 75740 75750 75760 75770 75780 75790 75800 75810 75820 75830 75840 75850 75860 75870 75880 75890 75900 75910 75920 75930 75940 75950 75960 75970 75980 75990 76000 76010 76020 76030 76040 76050 76060 76070 76080 76090 76100 76110 76120 76130 76140 76150 76160 76170 76180 76190 76200 76210 76220 76230 76240 76250 76260 76270 76280 76290 76300 76310 76320 76330 76340 76350 76360 76370 76380 76390 76400 76410 76420 76430 76440 76450 76460 76470 76480 76490 76500 76510 76520 76530 76540 76550 76560 76570 76580 76590 76600 76610 76620 76630 76640 76650 76660 76670 76680 76690 76700 76710 76720 76730 76740 76750 76760 76770 76780 76790 76800 76810 76820 76830 76840 76850 76860 76870 76880 76890 76900 76910 76920 76930 76940 76950 76960 76970 76980 76990 77000 77010 77020 77030 77040 77050 77060 77070 77080 77090 77100 77110 77120 77130 77140 77150 77160 77170 77180 77190 77200 77210 77220 77230 77240 77250 77260 77270 77280 77290 77300 77310 77320 77330 77340 77350 77360 77370 77380 77390 77400 77410 77420 77430 77440 77450 77460 77470 77480 77490 77500 77510 77520 77530 77540 77550 77560 77570 77580 77590 77600 77610 77620 77630 77640 77650 77660 77670 77680 77690 77700 77710 77720 77730 77740 77750 77760 77770 77780 77790 77800 77810 77820 77830 77840 77850 77860 77870 77880 77890 77900 77910 77920 77930 77940 77950 77960 77970 77980 77990 78000 78010 78020 78030 78040 78050 78060 78070 78080 78090 78100 78110 78120 78130 78140 78150 78160 78170 78180 78190 78200 78210 78220 78230 78240 78250 78260 78270 78280 78290 78300 78310 78320 78330 78340 78350 78360 78370 78380 78390 78400 78410 78420 78430 78440 78450 78460 78470 78480 78490 78500 78510 78520 78530 78540 78550 78560 78570 78580 78590 78600 78610 78620 78630 78640 78650 78660 78670 78680 78690 78700 78710 78720 78730 78740 78750 78760 78770 78780 78790 78800 78810 78820 78830 78840 78850 78860 78870 78880 78890 78900 78910 78920 78930 78940 78950 78960 78970 78980 78990 79000 79010 79020 79030 79040 79050 79060 79070 79080 79090 79100 79110 79120 79130 79140 79150 79160 79170 79180 79190 79200 79210 79220 79230 79240 79250 79260 79270 79280 79290 79300 79310 79320 79330 79340 79350 79360 79370 79380 79390 79400 79410 79420 79430 79440 79450 79460 79470 79480 79490 79500 79510 79520 79530 79540 79550 79560 79570 79580 79590 79600 79610 79620 79630 79640 79650 79660 79670 79680 79690 79700 79710 79720 79730 79740 79750 79760 79770 79780 79790 79800 79810 79820 79830 79840 79850 79860 79870 79880 79890 79900 79910 79920 79930 79940 79950 79960 79970 79980 79990 80000 80010 80020 80030 80040 80050 80060 80070 80080 80090 80100 80110 80120 80130 80140 80150 80160 80170 80180 80190 80200 80210 80220 80230 80240 80250 80260 80270 80280 80290 80300 80310 80320 80330 80340 80350 80360 80370 80380 80390 80400 80410 80420 80430 80440 80450 80460 80470 80480 80490 80500 80510 80520 80530 80540 80550 80560 80570 80580 80590 80600 80610 80620 80630 80640 80650 80660 80670 80680 80690 80700 80710 80720 80730 80740 80750 80760 80770 80780 80790 80800 80810 80820 80830 80840 80850 80860 80870 80880 80890 80900 80910 80920 80930 80940 80950 80960 80970 80980 80990 81000 81010 81020 81030 81040 81050 81060 81070 81080 81090 81100 81110 81120 81130 81140 81150 81160 81170 81180 81190 81200 81210 81220 81230 81240 81250 81260 81270 81280 81290 81300 81310 81320 81330 81340 81350 81360 81370 81380 81390 81400 81410 81420 81430 81440 81450 81460 81470 81480 81490 81500 81510 81520 81530 81540 81550 81560 81570 81580 81590 81600 81610 81620 81630 81640 81650 81660 81670 81680 81690 81700 81710 81720 81730 81740 81750 81760 81770 81780 81790 81800 81810 81820 81830 81840 81850 81860 81870 81880 81890 81900 81910 81920 81930 81940 81950 81960 81970 81980 81990 82000 82010 82020 82030 82040 82050 82060 82070 82080 82090 82100 82110 82120 82130 82140 82150 82160 82170 82180 82190 82200 82210 82220 82230 82240 82250 82260 82270 82280 82290 82300 82310 82320 82330 82340 82350 82360 82370 82380 82390 82400 82410 82420 82430 82440 82450 82460 82470 82480 82490 82500 82510 82520 82530 82540 82550 82560 82570 82580 82590 82600 82610 82620 82630 82640 82650 82660 82670 82680 82690 82700 82710 82720 82730 82740 82750 82760 82770 82780 82790 82800 82810 82820 82830 82840 82850 82860 82870 82880 82890 82900 82910 82920 82930 82940 82950 82960 82970 82980 82990 83000 83010 83020 83030 83040 83050 83060 83070 83080 83090 83100 83110 83120 83130 83140 83150 83160 83170 83180 83190 83200 83210 83220 83230 83240 83250 83260 83270 83280 83290 83300 83310 83320 83330 83340 83350 83360 83370 83380 83390 83400 83410 83420 83430 83440 83450 83460 83470 83480 83490 83500 83510 83520 83530 83540 83550 83560 83570 83580 83590 83600 83610 83620 83630 83640 83650 83660 83670 83680 83690 83700 83710 83720 83730 83740 83750 83760 83770 83780 83790 83800 83810 83820 83830 83840 83850 83860 83870 83880 83890 83900 83910 83920 83930 83940 83950 83960 83970 83980 83990 84000 84010 84020 84030 84040 84050 84060 84070 84080 84090 84100 84110 84120 84130 84140 84150 84160 84170 84180 84190 84200 84210 84220 84230 84240 84250 84260 84270 84280 84290 84300 84310 84320 84330 84340 84350 84360 84370 84380 84390 84400 84410 84420 84430 84440 84450 84460 84470 84480 84490 84500 84510 84520 84530 84540 84550 84560 84570 84580 84590 84600 84610 84620 84630 84640 84650 84660 84670 84680 84690 84700 84710 84720 84730 84740 84750 84760 84770 84780 84790 84800 84810 84820 84830 84840 84850 84860 84870 84880 84890 84900 84910 84920 84930 84940 84950 84960 84970 84980 84990 85000 85010 85020 85030 85040 85050 85060 85070 85080 85090 85100 85110 85120 85130 85140 85150 85160 85170 85180 85190 85200 85210 85220 85230 85240 85250 85260 85270 85280 85290 85300 85310 85320 85330 85340 85350 85360 85370 85380 85390 85400 85410 85420 85430 85440 85450 85460 85470 85480 85490 85500 85510 85520 85530 85540 85550 85560 85570 85580 85590 85600 85610 85620 85630 85640 85650 85660 85670 85680 85690 85700 85710 85720 85730 85740 85750 85760 85770 85780 85790 85800 85810 85820 85830 85840 85850 85860 85870 85880 85890 85900 85910 85920 85930 85940 85950 85960 85970 85980 85990 86000 86010 86020 86030 86040 86050 86060 86070 86080 86090 86100 86110 86120 86130 86140 86150 86160 86170 86180 86190 86200 86210 86220 86230 86240 86250 86260 86270 86280 86290 86300 86310 86320 86330 86340 86350 86360 86370 86380 86390 86400 86410 86420 86430 86440 86450 86460 86470 86480 86490 86500 86510 86520 86530 86540 86550 86560 86570 86580 86590 86600 86610 86620 86630 86640 86650 86660 86670 86680 86690 86700 86710 86720 86730 86740 86750 86760 86770 86780 86790 86800 86810 86820 86830 86840 86850 86860 86870 86880 86890 86900 86910 86920 86930 86940 86950 86960 86970 86980 86990 87000 87010 87020 87030 87040 87050 87060 87070 87080 87090 87100 87110 87120 87130 87140 87150 87160 87170 87180 87190 87200 87210 87220 87230 87240 87250 87260 87270 87280 87290 87300 87310 87320 87330 87340 87350 87360 87370 87380 87390 87400 87410 87420 87430 87440 87450 87460 87470 87480 87490 87500 87510 87520 87530 87540 87550 87560 87570 87580 87590 87600 87610 87620 87630 87640 87650 87660 87670 87680 87690 87700 87710 87720 87730 87740 87750 87760 87770 87780 87790 87800 87810 87820 87830 87840 87850 87860 87870 87880 87890 87900 87910 87920 87930 87940 87950 87960 87970 87980 87990 88000 88010 88020 88030 88040 88050 88060 88070 88080 88090 88100 88110 88120 88130 88140 88150 88160 88170 88180 88190 88200 88210 88220 88230 88240 88250 88260 88270 88280 88290 88300 88310 88320 88330 88340 88350 88360 88370 88380 88390 88400 88410 88420 88430 88440 88450 88460 88470 88480 88490 88500 88510 88520 88530 88540 88550 88560 88570 88580 88590 88600 88610 88620 88630 88640 88650 88660 88670 88680 88690 88700 88710 88720 88730 88740 88750 88760 88770 88780 88790 88800 88810 88820 88830 88840 88850 88860 88870 88880 88890 88900 88910 88920 88930 88940 88950 88960 88970 88980 88990 89000 89010 89020 89030 89040 89050 89060 89070 89080 89090 89100 89110 89120 89130 89140 89150 89160 89170 89180 89190 89200 89210 89220 89230 89240 89250 89260 89270 89280 89290 89300 89310 89320 89330 89340 89350 89360 89370 89380 89390 89400 89410 89420 89430 89440 89450 89460 89470 89480 89490 89500 89510 89520 89530 89540 89550 89560 89570 89580 89590 89600 89610 89620 89630 89640 89650 89660 89670 89680 89690 89700 89710 89720 89730 89740 89750 89760 89770 89780 89790 89800 89810 89820 89830 89840 89850 89860 89870 89880 89890 89900 89910 89920 89930 89940 89950 89960 89970 89980 89990 90000 90010 90020 90030 90040 90050 90060 90070 90080 90090 90100 90110 90120 90130 90140 90150 90160 90170 90180 90190 90200 90210 90220 90230 90240 90250 90260 90270 90280 90290 90300 90310 90320 90330 90340 90350 90360 90370 90380 90390 90400 90410 90420 90430 90440 90450 90460 90470 90480 90490 90500 90510 90520 90530 90540 90550 90560 90570 90580 90590 90600 90610 90620 90630 90640 90650 90660 90670 90680 90690 90700 90710 90720 90730 90740 90750 90760 90770 90780 90790 90800 90810 90820 90830 90840 90850 90860 90870 90880 90890 90900 90910 90920 90930 90940 90950 90960 90970 90980 90990 91000 91010 91020 91030 91040 91050 91060 91070 91080 91090 91100 91110 91120 91130 91140 91150 91160 91170 91180 91190 91200 91210 91220 91230 91240 91250 91260 91270 91280 91290 91300 91310 91320 91330 91340 91350 91360 91370 91380 91390 91400 91410 91420 91430 91440 91450 91460 91470 91480 91490 91500 91510 91520 91530 91540 91550 91560 91570 91580 91590 91600 91610 91620 91630 91640 91650 91660 91670 91680 91690 91700 91710 91720 91730 91740 91750 91760 91770 91780 91790 91800 91810 91820 91830 91840 91850 91860 91870 91880 91890 91900 91910 91920 91930 91940 91950 91960 91970 91980 91990 92000 92010 92020 92030 92040 92050 92060 92070 92080 92090 92100 92110 92120 92130 92140 92150 92160 92170 92180 92190 92200 92210 92220 92230 92240 92250 92260 92270 92280 92290 92300 92310 92320 92330 92340 92350 92360 92370 92380 92390 92400 92410 92420 92430 92440 92450 92460 92470 92480 92490 92500 92510 92520 92530 92540 92550 92560 92570 92580 92590 92600 92610 92620 92630 92640 92650 92660 92670 92680 92690 92700 92710 92720 92730 92740 92750 92760 92770 92780 92790 92800 92810 92820 92830 92840 92850 92860 92870 92880 92890 92900 92910 92920 92930 92940 92950 92960 92970 92980 92990 93000 93010 93020 93030 93040 93050 93060 93070 93080 93090 93100 93110 93120 93130 93140 93150 93160 93170 93180 93190 93200 93210 93220 93230 93240 93250 93260 93270 93280 93290 93300 93310 93320 93330 93340 93350 93360 93370 93380 93390 93400 93410 93420 93430 93440 93450 93460 93470 93480 93490 93500 93510 93520 93530 93540 93550 93560 93570 93580 93590 93600 93610 93620 93630 93640 93650 93660 93670 93680 93690 93700 93710 93720 93730 93740 93750 93760 93770 93780 93790 93800 93810 93820 93830 93840 93850 93860 93870 93880 93890 93900 93910 93920 93930 93940 93950 93960 93970 93980 93990 94000 94010 94020 94030 94040 94050 94060 94070 94080 94090 94100 94110 94120 94130 94140 94150 94160 94170 94180 94190 94200 94210 94220 94230 94240 94250 94260 94270 94280 94290 94300 94310 94320 94330 94340 94350 94360 94370 94380 94390 94400 94410 94420 94430 94440 94450 94460 94470 94480 94490 94500 94510 94520 94530 94540 94550 94560 94570 94580 94590 94600 94610 94620 94630 94640 94650 94660 94670 94680 94690 94700 94710 94720 94730 94740 94750 94760 94770 94780 94790 94800 94810 94820 94830 94840 94850 94860 94870 94880 94890 94900 94910 94920 94930 94940 94950 94960 94970 94980 94990 95000 95010 95020 95030 95040 95050 95060 95070 95080 95090 95100 95110 95120 95130 95140 95150 95160 95170 95180 95190 95200 95210 95220 95230 95240 95250 95260 95270 95280 95290 95300 95310 95320 95330 95340 95350 95360 95370 95380 95390 95400 95410 95420 95430 95440 95450 95460 95470 95480 95490 95500 95510 95520 95530 95540 95550 95560 95570 95580 95590 95600 95610 95620 95630 95640 95650 95660 95670 95680 95690 95700 95710 95720 95730 95740 95750 95760 95770 95780 95790 95800 95810 95820 95830 95840 95850 95860 95870 95880 95890 95900 95910 95920 95930 95940 95950 95960 95970 95980 95990 96000 96010 96020 96030 96040 96050 96060 96070 96080 96090 96100 96110 96120 96130 96140 96150 96160 96170 96180 96190 96200 96210 96220 96230 96240 96250 96260 96270 96280 96290 96300 96310 96320 96330 96340 96350 96360 96370 96380 96390 96400 96410 96420 96430 96440 96450 96460 96470 96480 96490 96500 96510 96520 96530 96540 96550 96560 96570 96580 96590 96600 96610 96620 96630 96640 96650 96660 96670 96680 96690 96700 96710 96720 96730 96740 96750 96760 96770 96780 96790 96800 96810 96820 96830 96840 96850 96860 96870 96880 96890 96900 96910 96920 96930 96940 96950 96960 96970 96980 96990 97000 97010 97020 97030 97040 97050 97060 97070 97080 97090 97100 97110 97120 97130 97140 97150 97160 97170 97180 97190 97200 97210 97220 97230 97240 97250 97260 97270 97280 97290 97300 97310 97320 97330 97340 97350 97360 97370 97380 97390 97400 97410 97420 97430 97440 97450 97460 97470 97480 97490 97500 97510 97520 97530 97540 97550 97560 97570 97580 97590 97600 97610 97620 97630 97640 97650 97660 97670 97680 97690 97700 97710 97720 97730 97740 97750 97760 97770 97780 97790 97800 97810 97820 97830 97840 97850 97860 97870 97880 97890 97900 97910 97920 97930 97940 97950 97960 97970 97980 97990 98000 98010 98020 98030 98040 98050 98060 98070 98080 98090 98100 98110 98120 98130 98140 98150 98160 98170 98180 98190 98200 98210 98220 98230 98240 98250 98260 98270 98280 98290 98300 98310 98320 98330 98340 98350 98360 98370 98380 98390 98400 98410 98420 98430 98440 98450 98460 98470 98480 98490 98500 98510 98520 98530 98540 98550 98560 98570 98580 98590 98600 98610 98620 98630 98640 98650 98660 98670 98680 98690 98700 98710 98720 98730 98740 98750 98760 98770 98780 98790 98800 98810 98820 98830 98840 98850 98860 98870 98880 98890 98900 98910 98920 98930 98940 98950 98960 98970 98980 98990 99000 99010 99020 99030 99040 99050 99060 99070 99080 99090 99100 99110 99120 99130 99140 99150 99160 99170 99180 99190 99200 99210 99220 99230 99240 99250 99260 99270 99280 99290 99300 99310 99320 99330 99340 99350 99360 99370 99380 99390 99400 99410 99420 99430 99440 99450 99460 99470 99480 99490 99500 99510 99520 99530 99540 99550 99560 99570 99580 99590 99600 99610 99620 99630 99640 99650 99660 99670 99680 99690 99700 99710 99720 99730 99740 99750 99760 99770 99780 99790 99800 99810 99820 99830 99840 99850 99860 99870 99880 99890 99900 99910 99920 99930 99940 99950 99960 99970 99980 99990 100000 100010 100020 100030 100040 100050 100060 100070 100080 100090 100100 100110 100120 100130 100140 100150 100160 100170 100180 100190 100200 100210 100220 100230 100240 100250 100260 100270 100280 100290 100300 100310 100320 100330 100340 100350 100360 100370 100380 100390 100400 100410 100420 100430 100440 100450 100460 100470 100480 100490 100500 100510 100520 100530 100540 100550 100560 100570 100580 100590 100600 100610 100620 100630 100640 100650 100660 100670 100680 100690 100700 100710 100720 100730 100740 100750 100760 100770 100780 100790 100800 100810 100820 100830 100840 100850 100860 100870 100880 100890 100900 100910 100920 100930 100940 100950 100960 100970 100980 100990 101000 101010 101020 101030 101040 101050 101060 101070 101080 101090 101100 101110 101120 101130 101140 101150 101160 101170 101180 101190 101200 101210 101220 101230 101240 101250 101260 101270 101280 101290 101300 101310 101320 101330 101340 101350 101360 101370 101380 101390 101400 101410 101420 101430 101440 101450 101460 101470 101480 101490 101500 101510 101520 101530 101540 101550 101560 101570 101580 101590 101600 101610 101620 101630 101640 101650 101660 101670 101680 101690 101700 101710 101720 101730 101740 101750 101760 101770 101780 101790 101800 101810 101820 101830 101840 101850 101860 101870 101880 101890 101900 101910 101920 101930 101940 101950 101960 101970 101980 101990 102000 102010 102020 102030 102040 102050 102060 102070 102080 102090 102100 102110 102120 102130 102140 102150 102160 102170 102180 102190 102200 102210 102220 102230 102240 102250 102260 102270 102280 102290 102300 102310 102320 102330 102340 102350 102360 102370 102380 102390 102400 102410 102420 102430 102440 102450 102460 102470 102480 102490 102500 102510 102520 102530 102540 102550 102560 102570 102580 102590 102600 102610 102620 102630 102640 102650 102660 102670 102680 102690 102700 102710 102720 102730 102740 102750 102760 102770 102780 102790 102800 102810 102820 102830 102840 102850 102860 102870 102880 102890 102900 102910 102920 102930 102940 102950 102960 102970 102980 102990 103000 103010 103020 103030 103040 103050 103060 103070 103080 103090 103100 103110 103120 103130 103140 103150 103160 103170 103180 103190 103200 103210 103220 103230 103240 103250 103260 103270 103280 103290 103300 103310 103320 103330 103340 103350 103360 103370 103380 103390 103400 103410 103420 103430 103440 103450 103460 103470 103480 103490 103500 103510 103520 103530 103540 103550 103560 103570 103580 103590 103600 103610 103620 103630 103640 103650 103660 103670 103680 103690 103700 103710 103720 103730 103740 103750 103760 103770 103780 103790 103800 103810 103820 103830 103840 103850 103860 103870 103880 103890 103900 103910 103920 103930 103940 103950 103960 103970 103980 103990 104000 104010 104020 104030 104040 104050 104060 104070 104080 104090 104100 104110 104120 104130 104140 104150 104160 104170 104180 104190 104200 104210 104220 104230 104240 104250 104260 104270 104280 104290 104300 104310 104320 104330 104340 104350 104360 104370 104380 104390 104400 104410 104420 104430 104440 104450 104460 104470 104480 104490 104500 104510 104520 104530 104540 104550 104560 104570 104580 104590 104600 104610 104620 104630 104640 104650 104660 104670 104680 104690 104700 104710 104720 104730 104740 104750 104760 104770 104780 104790 104800 104810 104820 104830 104840 104850 104860 104870 104880 104890 104900 104910 104920 104930 104940 104950 104960 104970 104980 104990 105000 105010 105020 105030 105040 105050 105060 105070 105080 105090 105100 105110 105120 105130 105140 105150 105160 105170 105180 105190 105200 105210 105220 105230 105240 105250 105260 105270 105280 105290 105300 105310 105320 105330 105340 105350 105360 105370 105380 105390 105400 105410 105420 105430 105440 105450 105460 105470 105480 105490 105500 105510 105520 105530 105540 105550 105560 105570 105580 105590 105600 105610 105620 105630 105640 105650 105660 105670 105680 105690 105700 105710 105720 105730 105740 105750 105760 105770 105780 105790 105800 105810 105820 105830 105840 105850 105860 105870 105880 105890 105900 105910 105920 105930 105940 105950 105960 105970 105980 105990 106000 106010 106020 106030 106040 106050 106060 106070 106080 106090 106100 106110 106120 106130 106140 106150 106160 106170 106180 106190 106200 106210 106220 106230 106240 106250 106260 106270 106280 106290 106300 106310 106320 106330 106340 106350 106360 106370 106380 106390 106400 106410 106420 106430 106440 106450 106460 106470 106480 106490 106500 106510 106520 106530 106540 106550 106560 106570 106580 106590 106600 106610 106620 106630 106640 106650 106660 106670 106680 106690 106700 106710 106720 106730 106740 106750 106760 106770 106780 106790 106800 106810 106820 106830 106840 106850 106860 106870 106880 106890 106900 106910 106920 106930 106940 106950 106960 106970 106980 106990 107000 107010 107020 107030 107040 107050 107060 107070 107080 107090 107100 107110 107120 107130 107140 107150 107160 107170 107180 107190 107200 107210 107220 107230 107240 107250 107260 107270 107280 107290 107300 107310 107320 107330 107340 107350 107360 107370 107380 107390 107400 107410 107420 107430 107440 107450 107460 107470 107480 107490 107500 107510 107520 107530 107540 107550 107560 107570 107580 107590 107600 107610 107620 107630 107640 107650 107660 107670 107680 107690 107700 107710 107720 107730 107740 107750 107760 107770 107780 107790 107800 107810 107820 107830 107840 107850 107860 107870 107880 107890 107900 107910 107920 107930 107940 107950 107960 107970 107980 107990 108000 108010 108020 108030 108040 108050 108060 108070 108080 108090 108100 108110 108120 108130 108140 108150 108160 108170 108180 108190 108200 108210 108220 108230 108240 108250 108260 108270 108280 108290 108300 108310 108320 108330 108340 108350 108360 108370 108380 108390 108400 108410 108420 108430 108440 108450 108460 108470 108480 108490 108500 108510 108520 108530 108540 108550 108560 108570 108580 108590 108600 108610 108620 108630 108640 108650 108660 108670 108680 108690 108700 108710 108720 108730 108740 108750 108760 108770 108780 108790 108800 108810 108820 108830 108840 108850 108860 108870 108880 108890 108900 108910 108920 108930 108940 108950 108960 108970 108980 108990 109000 109010 109020 109030 109040 109050 109060 109070 109080 109090 109100 109110 109120 109130 109140 109150 109160 109170 109180 109190 109200 109210 109220 109230 109240 109250 109260 109270 109280 109290 109300 109310 109320 109330 109340 109350 109360 109370 109380 109390 109400 109410 109420 109430 109440 109450 109460 109470 109480 109490 109500 109510 109520 109530 109540 109550 109560 109570 109580 109590 109600 109610 109620 109630 109640 109650 109660 109670 109680 109690 109700 109710 109720 109730 109740 109750 109760 109770 109780 109790 109800 109810 109820 109830 109840 109850 109860 109870 109880 109890 109900 109910 109920 109930 109940 109950 109960 109970 109980 109990 110000 110010 110020 110030 110040 110050 110060 110070 110080 110090 110100 110110 110120 110130 110140 110150 110160 110170 110180 110190 110200 110210 110220 110230 110240 110250 110260 110270 110280 110290 110300 110310 110320 110330 110340 110350 110360 110370 110380 110390 110400 110410 110420 110430 110440 110450 110460 110470 110480 110490 110500 110510 110520 110530 110540 110550 110560 110570 110580 110590 110600 110610 110620 110630 110640 110650 110660 110670 110680 110690 110700 110710 110720 110730 110740 110750 110760 110770 110780 110790 110800 110810 110820 110830 110840 110850 110860 110870 110880 110890 110900 110910 110920 110930 110940 110950 110960 110970 110980 110990 111000 111010 111020 111030 111040 111050 111060 111070 111080 111090 111100 111110 111120 111130 111140 111150 111160 111170 111180 111190 111200 111210 111220 111230 111240 111250 111260 111270 111280 111290 111300 111310 111320 111330 111340 111350 111360 111370 111380 111390 111400 111410 111420 111430 111440 111450 111460 111470 111480 111490 111500 111510 111520 111530 111540 111550 111560 111570 111580 111590 111600 111610 111620 111630 111640 111650 111660 111670 111680 111690 111700 111710 111720 111730 111740 111750 111760 111770 111780 111790 111800 111810 111820 111830 111840 111850 111860 111870 111880 111890 111900 111910 111920 111930 111940 111950 111960 111970 111980 111990 112000 112010 112020 112030 112040 112050 112060 112070 112080 112090 112100 112110 112120 112130 112140 112150 112160 112170 112180 112190 112200 112210 112220 112230 112240 112250 112260 112270 112280 112290 112300 112310 112320 112330 112340 112350 112360 112370 112380 112390 112400 112410 112420 112430 112440 112450 112460 112470 112480 112490 112500 112510 112520 112530 112540 112550 112560 112570 112580 112590 112600 112610 112620 112630 112640 112650 112660 112670 112680 112690 112700 112710 112720 112730 112740 112750 112760 112770 112780 112790 112800 112810 112820 112830 112840 112850 112860 112870 112880 112890 112900 112910 112920 112930 112940 112950 112960 112970 112980 112990 113000 113010 113020 113030 113040 113050 113060 113070 113080 113090 113100 113110 113120 113130 113140 113150 113160 113170 113180 113190 113200 113210 113220 113230 113240 113250 113260 113270 113280 113290 113300 113310 113320 113330 113340 113350 113360 113370 113380 113390 113400 113410 113420 113430 113440 113450 113460 113470 113480 113490 113500 113510 113520 113530 113540 113550 113560 113570 113580 113590 113600 113610 113620 113630 113640 113650 113660 113670 113680 113690 113700 113710 113720 113730 113740 113750 113760 113770 113780 113790 113800 113810 113820 113830 113840 113850 113860 113870 113880 113890 113900 113910 113920 113930 113940 113950 113960 113970 113980 113990 114000 114010 114020 114030 114040 114050 114060 114070 114080 114090 114100 114110 114120 114130 114140 114150 114160 114170 114180 114190 114200 114210 114220 114230 114240 114250 114260 114270 114280 114290 114300 114310 114320 114330 114340 114350 114360 114370 114380 114390 114400 114410 114420 114430 114440 114450 114460 114470 114480 114490 114500 114510 114520 114530 114540 114550 114560 114570 114580 114590 114600 114610 114620 114630 114640 114650 114660 114670 114680 114690 114700 114710 114720 114730 114740 114750 114760 114770 114780 114790 114800 114810 114820 114830 114840 114850 114860 114870 114880 114890 114900 114910 114920 114930 114940 114950 114960 114970 114980 114990 115000 115010 115020 115030 115040 115050 115060 115070 115080 115090 115100 115110 115120 115130 115140 115150 115160 115170 115180 115190 115200 115210 115220 115230 115240 115250 115260 115270 115280 115290 115300 115310 115320 115330 115340 115350 115360 115370 115380 115390 115400 115410 115420 115430 115440 115450 115460 115470 115480 115490 115500 115510 115520 115530 115540 115550 115560 115570 115580 115590 115600 115610 115620 115630 115640 115650 115660 115670 115680 115690 115700 115710 115720 115730 115740 115750 115760 115770 115780 115790 115800 115810 115820 115830 115840 115850 115860 115870 115880 115890 115900 115910 115920 115930 115940 115950 115960 115970 115980 115990 116000 116010 116020 116030 116040 116050 116060 116070 116080 116090 116100 116110 116120 116130 116140 116150 116160 116170 116180 116190 116200 116210 116220 116230 116240 116250 116260 116270 116280 116290 116300 116310 116320 116330 116340 116350 116360 116370 116380 116390 116400 116410 116420 116430 116440 116450 116460 116470 116480 116490 116500 116510 116520 116530 116540 116550 116560 116570 116580 116590 116600 116610 116620 116630 116640 116650 116660 116670 116680 116690 116700 116710 116720 116730 116740 116750 116760 116770 116780 116790 116800 116810 116820 116830 116840 116850 116860 116870 116880 116890 116900 116910 116920 116930 116940 116950 116960 116970 116980 116990 117000 117010 117020 117030 117040 117050 117060 117070 117080 117090 117100 117110 117120 117130 117140 117150 117160 117170 117180 117190 117200 117210 117220 117230 117240 117250 117260 117270 117280 117290 117300 117310 117320 117330 117340 117350 117360 117370 117380 117390 117400 117410 117420 117430 117440 117450 117460 117470 117480 117490 117500 117510 117520 117530 117540 117550 117560 117570 117580 117590 117600 117610 117620 117630 117640 117650 117660 117670 117680 117690 117700 117710 117720 117730 117740 117750 117760 117770 117780 117790 117800 117810 117820 117830 117840 117850 117860 117870 117880 117890 117900 117910 117920 117930 117940 117950 117960 117970 117980 117990 118000 118010 118020 118030 118040 118050 118060 118070 118080 118090 118100 118110 118120 118130 118140 118150 118160 118170 118180 118190 118200 118210 118220 118230 118240 118250 118260 118270 118280 118290 118300 118310 118320 118330 118340 118350 118360 118370 118380 118390 118400 118410 118420 118430 118440 118450 118460 118470 118480 118490 118500 118510 118520 118530 118540 118550 118560 118570 118580 118590 118600 118610 118620 118630 118640 118650 118660 118670 118680 118690 118700 118710 118720 118730 118740 118750 118760 118770 118780 118790 118800 118810 118820 118830 118840 118850 118860 118870 118880 118890 118900 118910 118920 118930 118940 118950 118960 118970 118980 118990 119000 119010 119020 119030 119040 119050 119060 119070 119080 119090 119100 119110 119120 119130 119140 119150 119160 119170 119180 119190 119200 119210 119220 119230 119240 119250 119260 119270 119280 119290 119300 119310 119320 119330 119340 119350 119360 119370 119380 119390 119400 119410 119420 119430 119440 119450 119460 119470 119480 119490 119500 119510 119520 119530 119540 119550 119560 119570 119580 119590 119600 119610 119620 119630 119640 119650 119660 119670 119680 119690 119700 119710 119720 119730 119740 119750 119760 119770 119780 119790 119800 119810 119820 119830 119840 119850 119860 119870 119880 119890 119900 119910 119920 119930 119940 119950 119960 119970 119980 119990 120000 120010 120020 120030 120040 120050 120060 120070 120080 120090 120100 120110 120120 120130 120140 120150 120160 120170 120180 120190 120200 120210 120220 120230 120240 120250 120260 120270 120280 120290 120300 120310 120320 120330 120340 120350 120360 120370 120380 120390 120400 120410 120420 120430 120440 120450 120460 120470 120480 120490 120500 120510 120520 120530 120540 120550 120560 120570 120580 120590 120600 120610 120620 120630 120640 120650 120660 120670 120680 120690 120700 120710 120720 120730 120740 120750 120760 120770 120780 120790 120800 120810 120820 120830 120840 120850 120860 120870 120880 120890 120900 120910 120920 120930 120940 120950 120960 120970 120980 120990 121000 121010 121020 121030 121040 121050 121060 121070 121080 121090 121100 121110 121120 121130 121140 121150 121160 121170 121180 121190 121200 121210 121220 121230 121240 121250 121260 121270 121280 121290 121300 121310 121320 121330 121340 121350 121360 121370 121380 121390 121400 121410 121420 121430 121440 121450 121460 121470 121480 121490 121500 121510 121520 121530 121540 121550 121560 121570 121580 121590 121600 121610 121620 121630 121640 121650 121660 121670 121680 121690 121700 121710 121720 121730 121740 121750 121760 121770 121780 121790 121800 121810 121820 121830 121840 121850 121860 121870 121880 121890 121900 121910 121920 121930 121940 121950 121960 121970 121980 121990 122000 122010 122020 122030 122040 122050 122060 122070 122080 122090 122100 122110 122120 122130 122140 122150 122160 122170 122180 122190 122200 122210 122220 122230 122240 122250 122260 122270 122280 122290 122300 122310 122320 122330 122340 122350 122360 122370 122380 122390 122400 122410 122420 122430 122440 122450 122460 122470 122480 122490 122500 122510 122520 122530 122540 122550 122560 122570 122580 122590 122600 122610 122620 122630 122640 122650 122660 122670 122680 122690 122700 122710 122720 122730 122740 122750 122760 122770 122780 122790 122800 122810 122820 122830 122840 122850 122860 122870 122880 
CONNECTIVITY vtktypeint64
0 33 331 34 2673 2674 2675 2676 2677 2678 
297 331 298 0 2679 2680 2681 2682 2675 2683 
0 33 330 331 2673 2684 2685 2675 2674 2686 
297 331 0 330 2679 2675 2682 2687 2686 2685 
298 0 331 1 2683 2675 2680 2688 2689 2690 
331 0 34 1 2675 2676 2678 2690 2689 2691 
1 34 332 35 2691 2692 2693 2694 2695 2696 
298 332 299 1 2697 2698 2699 2688 2693 2700 
1 34 331 332 2691 2678 2690 2693 2692 2701 
298 332 1 331 2697 2693 2688 2680 2701 2690 
299 1 332 2 2700 2693 2698 2702 2703 2704 
332 1 35 2 2693 2694 2696 2704 2703 2705 
2 35 333 36 2705 2706 2707 2708 2709 2710 
299 333 300 2 2711 2712 2713 2702 2707 2714 
2 35 332 333 2705 2696 2704 2707 2706 2715 
299 333 2 332 2711 2707 2702 2698 2715 2704 
300 2 333 3 2714 2707 2712 2716 2717 2718 
333 2 36 3 2707 2708 2710 2718 2717 2719 
3 36 334 37 2719 2720 2721 2722 2723 2724 
300 334 301 3 2725 2726 2727 2716 2721 2728 
3 36 333 334 2719 2710 2718 2721 2720 2729 
300 334 3 333 2725 2721 2716 2712 2729 2718 
301 3 334 4 2728 2721 2726 2730 2731 2732 
334 3 37 4 2721 2722 2724 2732 2731 2733 
4 37 335 38 2733 2734 2735 2736 2737 2738 
301 335 302 4 2739 2740 2741 2730 2735 2742 
4 37 334 335 2733 2724 2732 2735 2734 2743 
301 335 4 334 2739 2735 2730 2726 2743 2732 
302 4 335 5 2742 2735 2740 2744 2745 2746 
335 4 38 5 2735 2736 2738 2746 2745 2747 
5 38 336 39 2747 2748 2749 2750 2751 2752 
302 336 303 5 2753 2754 2755 2744 2749 2756 
5 38 335 336 2747 2738 2746 2749 2748 2757 
302 336 5 335 2753 2749 2744 2740 2757 2746 
303 5 336 6 2756 2749 2754 2758 2759 2760 
336 5 39 6 2749 2750 2752 2760 2759 2761 
6 39 337 40 2761 2762 2763 2764 2765 2766 
303 337 304 6 2767 2768 2769 2758 2763 2770 
6 39 336 337 2761 2752 2760 2763 2762 2771 
303 337 6 336 2767 2763 2758 2754 2771 2760 
304 6 337 7 2770 2763 2768 2772 2773 2774 
337 6 40 7 2763 2764 2766 2774 2773 2775 
7 40 338 41 2775 2776 2777 2778 2779 2780 
304 338 305 7 2781 2782 2783 2772 2777 2784 
7 40 337 338 2775 2766 2774 2777 2776 2785 
304 338 7 337 2781 2777 2772 2768 2785 2774 
305 7 338 8 2784 2777 2782 2786 2787 2788 
338 7 41 8 2777 2778 2780 2788 2787 2789 
8 41 339 42 2789 2790 2791 2792 2793 2794 
305 339 306 8 2795 2796 2797 2786 2791 2798 
8 41 338 339 2789 2780 2788 2791 2790 2799 
305 339 8 338 2795 2791 2786 2782 2799 2788 
306 8 339 9 2798 2791 2796 2800 2801 2802 
339 8 42 9 2791 2792 2794 2802 2801 2803 
9 42 340 43 2803 2804 2805 2806 2807 2808 
306 340 307 9 2809 2810 2811 2800 2805 2812 
9 42 339 340 2803 2794 2802 2805 2804 2813 
306 340 9 339 2809 2805 2800 2796 2813 2802 
307 9 340 10 2812 2805 2810 2814 2815 2816 
340 9 43 10 2805 2806 2808 2816 2815 2817 
10 43 341 44 2817 2818 2819 2820 2821 2822 
307 341 308 10 2823 2824 2825 2814 2819 2826 
10 43 340 341 2817 2808 2816 2819 2818 2827 
307 341 10 340 2823 2819 2814 2810 2827 2816 
308 10 341 11 2826 2819 2824 2828 2829 2830 
341 10 44 11 2819 2820 2822 2830 2829 2831 
11 44 342 45 2831 2832 2833 2834 2835 2836 
308 342 309 11 2837 2838 2839 2828 2833 2840 
11 44 341 342 2831 2822 2830 2833 2832 2841 
308 342 11 341 2837 2833 2828 2824 2841 2830 
309 11 342 12 2840 2833 2838 2842 2843 2844 
342 11 45 12 2833 2834 2836 2844 2843 2845 
12 45 343 46 2845 2846 2847 2848 2849 2850 
309 343 310 12 2851 2852 2853 2842 2847 2854 
12 45 342 343 2845 2836 2844 2847 2846 2855 
309 343 12 342 2851 2847 2842 2838 2855 2844 
310 12 343 13 2854 2847 2852 2856 2857 2858 
343 12 46 13 2847 2848 2850 2858 2857 2859 
13 46 344 47 2859 2860 2861 2862 2863 2864 
310 344 311 13 2865 2866 2867 2856 2861 2868 
13 46 343 344 2859 2850 2858 2861 2860 2869 
310 344 13 343 2865 2861 2856 2852 2869 2858 
311 13 344 14 2868 2861 2866 2870 2871 2872 
344 13 47 14 2861 2862 2864 2872 2871 2873 
14 47 345 48 2873 2874 2875 2876 2877 2878 
311 345 312 14 2879 2880 2881 2870 2875 2882 
14 47 344 345 2873 2864 2872 2875 2874 2883 
311 345 14 344 2879 2875 2870 2866 2883 2872 
312 14 345 15 2882 2875 2880 2884 2885 2886 
345 14 48 15 2875 2876 2878 2886 2885 2887 
15 48 346 49 2887 2888 2889 2890 2891 2892 
312 346 313 15 2893 2894 2895 2884 2889 2896 
15 48 345 346 2887 2878 2886 2889 2888 2897 
312 346 15 345 2893 2889 2884 2880 2897 2886 
313 15 346 16 2896 2889 2894 2898 2899 2900 
346 15 49 16 2889 2890 2892 2900 2899 2901 
16 49 347 50 2901 2902 2903 2904 2905 2906 
313 347 314 16 2907 2908 2909 2898 2903 2910 
16 49 346 347 2901 2892 2900 2903 2902 2911 
313 347 16 346 2907 2903 2898 2894 2911 2900 
314 16 347 17 2910 2903 2908 2912 2913 2914 
347 16 50 17 2903 2904 2906 2914 2913 2915 
17 50 348 51 2915 2916 2917 2918 2919 2920 
314 348 315 17 2921 2922 2923 2912 2917 2924 
17 50 347 348 2915 2906 2914 2917 2916 2925 
314 348 17 347 2921 2917 2912 2908 2925 2914 
315 17 348 18 2924 2917 2922 2926 2927 2928 
348 17 51 18 2917 2918 2920 2928 2927 2929 
18 51 349 52 2929 2930 2931 2932 2933 2934 
315 349 316 18 2935 2936 2937 2926 2931 2938 
18 51 348 349 2929 2920 2928 2931 2930 2939 
315 349 18 348 2935 2931 2926 2922 2939 2928 
316 18 349 19 2938 2931 2936 2940 2941 2942 
349 18 52 19 2931 2932 2934 2942 2941 2943 
19 52 350 53 2943 2944 2945 2946 2947 2948 
316 350 317 19 2949 2950 2951 2940 2945 2952 
19 52 349 350 2943 2934 2942 2945 2944 2953 
316 350 19 349 2949 2945 2940 2936 2953 2942 
317 19 350 20 2952 2945 2950 2954 2955 2956 
350 19 53 20 2945 2946 2948 2956 2955 2957 
20 53 351 54 2957 2958 2959 2960 2961 2962 
317 351 318 20 2963 2964 2965 2954 2959 2966 
20 53 350 351 2957 2948 2956 2959 2958 2967 
317 351 20 350 2963 2959 2954 2950 2967 2956 
318 20 351 21 2966 2959 2964 2968 2969 2970 
351 20 54 21 2959 2960 2962 2970 2969 2971 
21 54 352 55 2971 2972 2973 2974 2975 2976 
318 352 319 21 2977 2978 2979 2968 2973 2980 
21 54 351 352 2971 2962 2970 2973 2972 2981 
318 352 21 351 2977 2973 2968 2964 2981 2970 
319 21 352 22 2980 2973 2978 2982 2983 2984 
352 21 55 22 2973 2974 2976 2984 2983 2985 
22 55 353 56 2985 2986 2987 2988 2989 2990 
319 353 320 22 2991 2992 2993 2982 2987 2994 
22 55 352 353 2985 2976 2984 2987 2986 2995 
319 353 22 352 2991 2987 2982 2978 2995 2984 
320 22 353 23 2994 2987 2992 2996 2997 2998 
353 22 56 23 2987 2988 2990 2998 2997 2999 
23 56 354 57 2999 3000 3001 3002 3003 3004 
320 354 321 23 3005 3006 3007 2996 3001 3008 
23 56 353 354 2999 2990 2998 3001 3000 3009 
320 354 23 353 3005 3001 2996 2992 3009 2998 
321 23 354 24 3008 3001 3006 3010 3011 3012 
354 23 57 24 3001 3002 3004 3012 3011 3013 
24 57 355 58 3013 3014 3015 3016 3017 3018 
321 355 322 24 3019 3020 3021 3010 3015 3022 
24 57 354 355 3013 3004 3012 3015 3014 3023 
321 355 24 354 3019 3015 3010 3006 3023 3012 
322 24 355 25 3022 3015 3020 3024 3025 3026 
355 24 58 25 3015 3016 3018 3026 3025 3027 
25 58 356 59 3027 3028 3029 3030 3031 3032 
322 356 323 25 3033 3034 3035 3024 3029 3036 
25 58 355 356 3027 3018 3026 3029 3028 3037 
322 356 25 355 3033 3029 3024 3020 3037 3026 
323 25 356 26 3036 3029 3034 3038 3039 3040 
356 25 59 26 3029 3030 3032 3040 3039 3041 
26 59 357 60 3041 3042 3043 3044 3045 3046 
323 357 324 26 3047 3048 3049 3038 3043 3050 
26 59 356 357 3041 3032 3040 3043 3042 3051 
323 357 26 356 3047 3043 3038 3034 3051 3040 
324 26 357 27 3050 3043 3048 3052 3053 3054 
357 26 60 27 3043 3044 3046 3054 3053 3055 
27 60 358 61 3055 3056 3057 3058 3059 3060 
324 358 325 27 3061 3062 3063 3052 3057 3064 
27 60 357 358 3055 3046 3054 3057 3056 3065 
324 358 27 357 3061 3057 3052 3048 3065 3054 
325 27 358 28 3064 3057 3062 3066 3067 3068 
358 27 61 28 3057 3058 3060 3068 3067 3069 
28 61 359 62 3069 3070 3071 3072 3073 3074 
325 359 326 28 3075 3076 3077 3066 3071 3078 
28 61 358 359 3069 3060 3068 3071 3070 3079 
325 359 28 358 3075 3071 3066 3062 3079 3068 
326 28 359 29 3078 3071 3076 3080 3081 3082 
359 28 62 29 3071 3072 3074 3082 3081 3083 
29 62 360 63 3083 3084 3085 3086 3087 3088 
326 360 327 29 3089 3090 3091 3080 3085 3092 
29 62 359 360 3083 3074 3082 3085 3084 3093 
326 360 29 359 3089 3085 3080 3076 3093 3082 
327 29 360 30 3092 3085 3090 3094 3095 3096 
360 29 63 30 3085 3086 3088 3096 3095 3097 
30 63 361 64 3097 3098 3099 3100 3101 3102 
327 361 328 30 3103 3104 3105 3094 3099 3106 
30 63 360 361 3097 3088 3096 3099 3098 3107 
327 361 30 360 3103 3099 3094 3090 3107 3096 
328 30 361 31 3106 3099 3104 3108 3109 3110 
361 30 64 31 3099 3100 3102 3110 3109 3111 
31 64 362 65 3111 3112 3113 3114 3115 3116 
328 362 329 31 3117 3118 3119 3108 3113 3120 
31 64 361 362 3111 3102 3110 3113 3112 3121 
328 362 31 361 3117 3113 3108 3104 3121 3110 
329 31 362 32 3120 3113 3118 3122 3123 3124 
362 31 65 32 3113 3114 3116 3124 3123 3125 
33 66 364 67 3126 3127 3128 3129 3130 3131 
330 364 331 33 3132 3133 2686 2684 3128 2674 
33 66 363 364 3126 3134 3135 3128 3127 3136 
330 364 33 363 3132 3128 2684 3137 3136 3135 
331 33 364 34 2674 3128 3133 2678 2677 3138 
364 33 67 34 3128 3129 3131 3138 2677 3139 
34 67 365 68 3139 3140 3141 3142 3143 3144 
331 365 332 34 3145 3146 2701 2678 3141 2692 
34 67 364 365 3139 3131 3138 3141 3140 3147 
331 365 34 364 3145 3141 2678 3133 3147 3138 
332 34 365 35 2692 3141 3146 2696 2695 3148 
365 34 68 35 3141 3142 3144 3148 2695 3149 
35 68 366 69 3149 3150 3151 3152 3153 3154 
332 366 333 35 3155 3156 2715 2696 3151 2706 
35 68 365 366 3149 3144 3148 3151 3150 3157 
332 366 35 365 3155 3151 2696 3146 3157 3148 
333 35 366 36 2706 3151 3156 2710 2709 3158 
366 35 69 36 3151 3152 3154 3158 2709 3159 
36 69 367 70 3159 3160 3161 3162 3163 3164 
333 367 334 36 3165 3166 2729 2710 3161 2720 
36 69 366 367 3159 3154 3158 3161 3160 3167 
333 367 36 366 3165 3161 2710 3156 3167 3158 
334 36 367 37 2720 3161 3166 2724 2723 3168 
367 36 70 37 3161 3162 3164 3168 2723 3169 
37 70 368 71 3169 3170 3171 3172 3173 3174 
334 368 335 37 3175 3176 2743 2724 3171 2734 
37 70 367 368 3169 3164 3168 3171 3170 3177 
334 368 37 367 3175 3171 2724 3166 3177 3168 
335 37 368 38 2734 3171 3176 2738 2737 3178 
368 37 71 38 3171 3172 3174 3178 2737 3179 
38 71 369 72 3179 3180 3181 3182 3183 3184 
335 369 336 38 3185 3186 2757 2738 3181 2748 
38 71 368 369 3179 3174 3178 3181 3180 3187 
335 369 38 368 3185 3181 2738 3176 3187 3178 
336 38 369 39 2748 3181 3186 2752 2751 3188 
369 38 72 39 3181 3182 3184 3188 2751 3189 
39 72 370 73 3189 3190 3191 3192 3193 3194 
336 370 337 39 3195 3196 2771 2752 3191 2762 
39 72 369 370 3189 3184 3188 3191 3190 3197 
336 370 39 369 3195 3191 2752 3186 3197 3188 
337 39 370 40 2762 3191 3196 2766 2765 3198 
370 39 73 40 3191 3192 3194 3198 2765 3199 
40 73 371 74 3199 3200 3201 3202 3203 3204 
337 371 338 40 3205 3206 2785 2766 3201 2776 
40 73 370 371 3199 3194 3198 3201 3200 3207 
337 371 40 370 3205 3201 2766 3196 3207 3198 
338 40 371 41 2776 3201 3206 2780 2779 3208 
371 40 74 41 3201 3202 3204 3208 2779 3209 
41 74 372 75 3209 3210 3211 3212 3213 3214 
338 372 339 41 3215 3216 2799 2780 3211 2790 
41 74 371 372 3209 3204 3208 3211 3210 3217 
338 372 41 371 3215 3211 2780 3206 3217 3208 
339 41 372 42 2790 3211 3216 2794 2793 3218 
372 41 75 42 3211 3212 3214 3218 2793 3219 
42 75 373 76 3219 3220 3221 3222 3223 3224 
339 373 340 42 3225 3226 2813 2794 3221 2804 
42 75 372 373 3219 3214 3218 3221 3220 3227 
339 373 42 372 3225 3221 2794 3216 3227 3218 
340 42 373 43 2804 3221 3226 2808 2807 3228 
373 42 76 43 3221 3222 3224 3228 2807 3229 
43 76 374 77 3229 3230 3231 3232 3233 3234 
340 374 341 43 3235 3236 2827 2808 3231 2818 
43 76 373 374 3229 3224 3228 3231 3230 3237 
340 374 43 373 3235 3231 2808 3226 3237 3228 
341 43 374 44 2818 3231 3236 2822 2821 3238 
374 43 77 44 3231 3232 3234 3238 2821 3239 
44 77 375 78 3239 3240 3241 3242 3243 3244 
341 375 342 44 3245 3246 2841 2822 3241 2832 
44 77 374 375 3239 3234 3238 3241 3240 3247 
341 375 44 374 3245 3241 2822 3236 3247 3238 
342 44 375 45 2832 3241 3246 2836 2835 3248 
375 44 78 45 3241 3242 3244 3248 2835 3249 
45 78 376 79 3249 3250 3251 3252 3253 3254 
342 376 343 45 3255 3256 2855 2836 3251 2846 
45 78 375 376 3249 3244 3248 3251 3250 3257 
342 376 45 375 3255 3251 2836 3246 3257 3248 
343 45 376 46 2846 3251 3256 2850 2849 3258 
376 45 79 46 3251 3252 3254 3258 2849 3259 
46 79 377 80 3259 3260 3261 3262 3263 3264 
343 377 344 46 3265 3266 2869 2850 3261 2860 
46 79 376 377 3259 3254 3258 3261 3260 3267 
343 377 46 376 3265 3261 2850 3256 3267 3258 
344 46 377 47 2860 3261 3266 2864 2863 3268 
377 46 80 47 3261 3262 3264 3268 2863 3269 
47 80 378 81 3269 3270 3271 3272 3273 3274 
344 378 345 47 3275 3276 2883 2864 3271 2874 
47 80 377 378 3269 3264 3268 3271 3270 3277 
344 378 47 377 3275 3271 2864 3266 3277 3268 
345 47 378 48 2874 3271 3276 2878 2877 3278 
378 47 81 48 3271 3272 3274 3278 2877 3279 
48 81 379 82 3279 3280 3281 3282 3283 3284 
345 379 346 48 3285 3286 2897 2878 3281 2888 
48 81 378 379 3279 3274 3278 3281 3280 3287 
345 379 48 378 3285 3281 2878 3276 3287 3278 
346 48 379 49 2888 3281 3286 2892 2891 3288 
379 48 82 49 3281 3282 3284 3288 2891 3289 
49 82 380 83 3289 3290 3291 3292 3293 3294 
346 380 347 49 3295 3296 2911 2892 3291 2902 
49 82 379 380 3289 3284 3288 3291 3290 3297 
346 380 49 379 3295 3291 2892 3286 3297 3288 
347 49 380 50 2902 3291 3296 2906 2905 3298 
380 49 83 50 3291 3292 3294 3298 2905 3299 
50 83 381 84 3299 3300 3301 3302 3303 3304 
347 381 348 50 3305 3306 2925 2906 3301 2916 
50 83 380 381 3299 3294 3298 3301 3300 3307 
347 381 50 380 3305 3301 2906 3296 3307 3298 
348 50 381 51 2916 3301 3306 2920 2919 3308 
381 50 84 51 3301 3302 3304 3308 2919 3309 
51 84 382 85 3309 3310 3311 3312 3313 3314 
348 382 349 51 3315 3316 2939 2920 3311 2930 
51 84 381 382 3309 3304 3308 3311 3310 3317 
348 382 51 381 3315 3311 2920 3306 3317 3308 
349 51 382 52 2930 3311 3316 2934 2933 3318 
382 51 85 52 3311 3312 3314 3318 2933 3319 
52 85 383 86 3319 3320 3321 3322 3323 3324 
349 383 350 52 3325 3326 2953 2934 3321 2944 
52 85 382 383 3319 3314 3318 3321 3320 3327 
349 383 52 382 3325 3321 2934 3316 3327 3318 
350 52 383 53 2944 3321 3326 2948 2947 3328 
383 52 86 53 3321 3322 3324 3328 2947 3329 
53 86 384 87 3329 3330 3331 3332 3333 3334 
350 384 351 53 3335 3336 2967 2948 3331 2958 
53 86 383 384 3329 3324 3328 3331 3330 3337 
350 384 53 383 3335 3331 2948 3326 3337 3328 
351 53 384 54 2958 3331 3336 2962 2961 3338 
384 53 87 54 3331 3332 3334 3338 2961 3339 
54 87 385 88 3339 3340 3341 3342 3343 3344 
351 385 352 54 3345 3346 2981 2962 3341 2972 
54 87 384 385 3339 3334 3338 3341 3340 3347 
351 385 54 384 3345 3341 2962 3336 3347 3338 
352 54 385 55 2972 3341 3346 2976 2975 3348 
385 54 88 55 3341 3342 3344 3348 2975 3349 
55 88 386 89 3349 3350 3351 3352 3353 3354 
352 386 353 55 3355 3356 2995 2976 3351 2986 
55 88 385 386 3349 3344 3348 3351 3350 3357 
352 386 55 385 3355 3351 2976 3346 3357 3348 
353 55 386 56 2986 3351 3356 2990 2989 3358 
386 55 89 56 3351 3352 3354 3358 2989 3359 
56 89 387 90 3359 3360 3361 3362 3363 3364 
353 387 354 56 3365 3366 3009 2990 3361 3000 
56 89 386 387 3359 3354 3358 3361 3360 3367 
353 387 56 386 3365 3361 2990 3356 3367 3358 
354 56 387 57 3000 3361 3366 3004 3003 3368 
387 56 90 57 3361 3362 3364 3368 3003 3369 
57 90 388 91 3369 3370 3371 3372 3373 3374 
354 388 355 57 3375 3376 3023 3004 3371 3014 
57 90 387 388 3369 3364 3368 3371 3370 3377 
354 388 57 387 3375 3371 3004 3366 3377 3368 
355 57 388 58 3014 3371 3376 3018 3017 3378 
388 57 91 58 3371 3372 3374 3378 3017 3379 
58 91 389 92 3379 3380 3381 3382 3383 3384 
355 389 356 58 3385 3386 3037 3018 3381 3028 
58 91 388 389 3379 3374 3378 3381 3380 3387 
355 389 58 388 3385 3381 3018 3376 3387 3378 
356 58 389 59 3028 3381 3386 3032 3031 3388 
389 58 92 59 3381 3382 3384 3388 3031 3389 
59 92 390 93 3389 3390 3391 3392 3393 3394 
356 390 357 59 3395 3396 3051 3032 3391 3042 
59 92 389 390 3389 3384 3388 3391 3390 3397 
356 390 59 389 3395 3391 3032 3386 3397 3388 
357 59 390 60 3042 3391 3396 3046 3045 3398 
390 59 93 60 3391 3392 3394 3398 3045 3399 
60 93 391 94 3399 3400 3401 3402 3403 3404 
357 391 358 60 3405 3406 3065 3046 3401 3056 
60 93 390 391 3399 3394 3398 3401 3400 3407 
357 391 60 390 3405 3401 3046 3396 3407 3398 
358 60 391 61 3056 3401 3406 3060 3059 3408 
391 60 94 61 3401 3402 3404 3408 3059 3409 
61 94 392 95 3409 3410 3411 3412 3413 3414 
358 392 359 61 3415 3416 3079 3060 3411 3070 
61 94 391 392 3409 3404 3408 3411 3410 3417 
358 392 61 391 3415 3411 3060 3406 3417 3408 
359 61 392 62 3070 3411 3416 3074 3073 3418 
392 61 95 62 3411 3412 3414 3418 3073 3419 
62 95 393 96 3419 3420 3421 3422 3423 3424 
359 393 360 62 3425 3426 3093 3074 3421 3084 
62 95 392 393 3419 3414 3418 3421 3420 3427 
359 393 62 392 3425 3421 3074 3416 3427 3418 
360 62 393 63 3084 3421 3426 3088 3087 3428 
393 62 96 63 3421 3422 3424 3428 3087 3429 
63 96 394 97 3429 3430 3431 3432 3433 3434 
360 394 361 63 3435 3436 3107 3088 3431 3098 
63 96 393 394 3429 3424 3428 3431 3430 3437 
360 394 63 393 3435 3431 3088 3426 3437 3428 
361 63 394 64 3098 3431 3436 3102 3101 3438 
394 63 97 64 3431 3432 3434 3438 3101 3439 
64 97 395 98 3439 3440 3441 3442 3443 3444 
361 395 362 64 3445 3446 3121 3102 3441 3112 
64 97 394 395 3439 3434 3438 3441 3440 3447 
361 395 64 394 3445 3441 3102 3436 3447 3438 
362 64 395 65 3112 3441 3446 3116 3115 3448 
395 64 98 65 3441 3442 3444 3448 3115 3449 
66 99 397 100 3450 3451 3452 3453 3454 3455 
363 397 364 66 3456 3457 3136 3134 3452 3127 
66 99 396 397 3450 3458 3459 3452 3451 3460 
363 397 66 396 3456 3452 3134 3461 3460 3459 
364 66 397 67 3127 3452 3457 3131 3130 3462 
397 66 100 67 3452 3453 3455 3462 3130 3463 
67 100 398 101 3463 3464 3465 3466 3467 3468 
364 398 365 67 3469 3470 3147 3131 3465 3140 
67 100 397 398 3463 3455 3462 3465 3464 3471 
364 398 67 397 3469 3465 3131 3457 3471 3462 
365 67 398 68 3140 3465 3470 3144 3143 3472 
398 67 101 68 3465 3466 3468 3472 3143 3473 
68 101 399 102 3473 3474 3475 3476 3477 3478 
365 399 366 68 3479 3480 3157 3144 3475 3150 
68 101 398 399 3473 3468 3472 3475 3474 3481 
365 399 68 398 3479 3475 3144 3470 3481 3472 
366 68 399 69 3150 3475 3480 3154 3153 3482 
399 68 102 69 3475 3476 3478 3482 3153 3483 
69 102 400 103 3483 3484 3485 3486 3487 3488 
366 400 367 69 3489 3490 3167 3154 3485 3160 
69 102 399 400 3483 3478 3482 3485 3484 3491 
366 400 69 399 3489 3485 3154 3480 3491 3482 
367 69 400 70 3160 3485 3490 3164 3163 3492 
400 69 103 70 3485 3486 3488 3492 3163 3493 
70 103 401 104 3493 3494 3495 3496 3497 3498 
367 401 368 70 3499 3500 3177 3164 3495 3170 
70 103 400 401 3493 3488 3492 3495 3494 3501 
367 401 70 400 3499 3495 3164 3490 3501 3492 
368 70 401 71 3170 3495 3500 3174 3173 3502 
401 70 104 71 3495 3496 3498 3502 3173 3503 
71 104 402 105 3503 3504 3505 3506 3507 3508 
368 402 369 71 3509 3510 3187 3174 3505 3180 
71 104 401 402 3503 3498 3502 3505 3504 3511 
368 402 71 401 3509 3505 3174 3500 3511 3502 
369 71 402 72 3180 3505 3510 3184 3183 3512 
402 71 105 72 3505 3506 3508 3512 3183 3513 
72 105 403 106 3513 3514 3515 3516 3517 3518 
369 403 370 72 3519 3520 3197 3184 3515 3190 
72 105 402 403 3513 3508 3512 3515 3514 3521 
369 403 72 402 3519 3515 3184 3510 3521 3512 
370 72 403 73 3190 3515 3520 3194 3193 3522 
403 72 106 73 3515 3516 3518 3522 3193 3523 
73 106 404 107 3523 3524 3525 3526 3527 3528 
370 404 371 73 3529 3530 3207 3194 3525 3200 
73 106 403 404 3523 3518 3522 3525 3524 3531 
370 404 73 403 3529 3525 3194 3520 3531 3522 
371 73 404 74 3200 3525 3530 3204 3203 3532 
404 73 107 74 3525 3526 3528 3532 3203 3533 
74 107 405 108 3533 3534 3535 3536 3537 3538 
371 405 372 74 3539 3540 3217 3204 3535 3210 
74 107 404 405 3533 3528 3532 3535 3534 3541 
371 405 74 404 3539 3535 3204 3530 3541 3532 
372 74 405 75 3210 3535 3540 3214 3213 3542 
405 74 108 75 3535 3536 3538 3542 3213 3543 
75 108 406 109 3543 3544 3545 3546 3547 3548 
372 406 373 75 3549 3550 3227 3214 3545 3220 
75 108 405 406 3543 3538 3542 3545 3544 3551 
372 406 75 405 3549 3545 3214 3540 3551 3542 
373 75 406 76 3220 3545 3550 3224 3223 3552 
406 75 109 76 3545 3546 3548 3552 3223 3553 
76 109 407 110 3553 3554 3555 3556 3557 3558 
373 407 374 76 3559 3560 3237 3224 3555 3230 
76 109 406 407 3553 3548 3552 3555 3554 3561 
373 407 76 406 3559 3555 3224 3550 3561 3552 
374 76 407 77 3230 3555 3560 3234 3233 3562 
407 76 110 77 3555 3556 3558 3562 3233 3563 
77 110 408 111 3563 3564 3565 3566 3567 3568 
374 408 375 77 3569 3570 3247 3234 3565 3240 
77 110 407 408 3563 3558 3562 3565 3564 3571 
374 408 77 407 3569 3565 3234 3560 3571 3562 
375 77 408 78 3240 3565 3570 3244 3243 3572 
408 77 111 78 3565 3566 3568 3572 3243 3573 
78 111 409 112 3573 3574 3575 3576 3577 3578 
375 409 376 78 3579 3580 3257 3244 3575 3250 
78 111 408 409 3573 3568 3572 3575 3574 3581 
375 409 78 408 3579 3575 3244 3570 3581 3572 
376 78 409 79 3250 3575 3580 3254 3253 3582 
409 78 112 79 3575 3576 3578 3582 3253 3583 
79 112 410 113 3583 3584 3585 3586 3587 3588 
376 410 377 79 3589 3590 3267 3254 3585 3260 
79 112 409 410 3583 3578 3582 3585 3584 3591 
376 410 79 409 3589 3585 3254 3580 3591 3582 
377 79 410 80 3260 3585 3590 3264 3263 3592 
410 79 113 80 3585 3586 3588 3592 3263 3593 
80 113 411 114 3593 3594 3595 3596 3597 3598 
377 411 378 80 3599 3600 3277 3264 3595 3270 
80 113 410 411 3593 3588 3592 3595 3594 3601 
377 411 80 410 3599 3595 3264 3590 3601 3592 
378 80 411 81 3270 3595 3600 3274 3273 3602 
411 80 114 81 3595 3596 3598 3602 3273 3603 
81 114 412 115 3603 3604 3605 3606 3607 3608 
378 412 379 81 3609 3610 3287 3274 3605 3280 
81 114 411 412 3603 3598 3602 3605 3604 3611 
378 412 81 411 3609 3605 3274 3600 3611 3602 
379 81 412 82 3280 3605 3610 3284 3283 3612 
412 81 115 82 3605 3606 3608 3612 3283 3613 
82 115 413 116 3613 3614 3615 3616 3617 3618 
379 413 380 82 3619 3620 3297 3284 3615 3290 
82 115 412 413 3613 3608 3612 3615 3614 3621 
379 413 82 412 3619 3615 3284 3610 3621 3612 
380 82 413 83 3290 3615 3620 3294 3293 3622 
413 82 116 83 3615 3616 3618 3622 3293 3623 
83 116 414 117 3623 3624 3625 3626 3627 3628 
380 414 381 83 3629 3630 3307 3294 3625 3300 
83 116 413 414 3623 3618 3622 3625 3624 3631 
380 414 83 413 3629 3625 3294 3620 3631 3622 
381 83 414 84 3300 3625 3630 3304 3303 3632 
414 83 117 84 3625 3626 3628 3632 3303 3633 
84 117 415 118 3633 3634 3635 3636 3637 3638 
381 415 382 84 3639 3640 3317 3304 3635 3310 
84 117 414 415 3633 3628 3632 3635 3634 3641 
381 415 84 414 3639 3635 3304 3630 3641 3632 
382 84 415 85 3310 3635 3640 3314 3313 3642 
415 84 118 85 3635 3636 3638 3642 3313 3643 
85 118 416 119 3643 3644 3645 3646 3647 3648 
382 416 383 85 3649 3650 3327 3314 3645 3320 
85 118 415 416 3643 3638 3642 3645 3644 3651 
382 416 85 415 3649 3645 3314 3640 3651 3642 
383 85 416 86 3320 3645 3650 3324 3323 3652 
416 85 119 86 3645 3646 3648 3652 3323 3653 
86 119 417 120 3653 3654 3655 3656 3657 3658 
383 417 384 86 3659 3660 3337 3324 3655 3330 
86 119 416 417 3653 3648 3652 3655 3654 3661 
383 417 86 416 3659 3655 3324 3650 3661 3652 
384 86 417 87 3330 3655 3660 3334 3333 3662 
417 86 120 87 3655 3656 3658 3662 3333 3663 
87 120 418 121 3663 3664 3665 3666 3667 3668 
384 418 385 87 3669 3670 3347 3334 3665 3340 
87 120 417 418 3663 3658 3662 3665 3664 3671 
384 418 87 417 3669 3665 3334 3660 3671 3662 
385 87 418 88 3340 3665 3670 3344 3343 3672 
418 87 121 88 3665 3666 3668 3672 3343 3673 
88 121 419 122 3673 3674 3675 3676 3677 3678 
385 419 386 88 3679 3680 3357 3344 3675 3350 
88 121 418 419 3673 3668 3672 3675 3674 3681 
385 419 88 418 3679 3675 3344 3670 3681 3672 
386 88 419 89 3350 3675 3680 3354 3353 3682 
419 88 122 89 3675 3676 3678 3682 3353 3683 
89 122 420 123 3683 3684 3685 3686 3687 3688 
386 420 387 89 3689 3690 3367 3354 3685 3360 
89 122 419 420 3683 3678 3682 3685 3684 3691 
386 420 89 419 3689 3685 3354 3680 3691 3682 
387 89 420 90 3360 3685 3690 3364 3363 3692 
420 89 123 90 3685 3686 3688 3692 3363 3693 
90 123 421 124 3693 3694 3695 3696 3697 3698 
387 421 388 90 3699 3700 3377 3364 3695 3370 
90 123 420 421 3693 3688 3692 3695 3694 3701 
387 421 90 420 3699 3695 3364 3690 3701 3692 
388 90 421 91 3370 3695 3700 3374 3373 3702 
421 90 124 91 3695 3696 3698 3702 3373 3703 
91 124 422 125 3703 3704 3705 3706 3707 3708 
388 422 389 91 3709 3710 3387 3374 3705 3380 
91 124 421 422 3703 3698 3702 3705 3704 3711 
388 422 91 421 3709 3705 3374 3700 3711 3702 
389 91 422 92 3380 3705 3710 3384 3383 3712 
422 91 125 92 3705 3706 3708 3712 3383 3713 
92 125 423 126 3713 3714 3715 3716 3717 3718 
389 423 390 92 3719 3720 3397 3384 3715 3390 
92 125 422 423 3713 3708 3712 3715 3714 3721 
389 423 92 422 3719 3715 3384 3710 3721 3712 
390 92 423 93 3390 3715 3720 3394 3393 3722 
423 92 126 93 3715 3716 3718 3722 3393 3723 
93 126 424 127 3723 3724 3725 3726 3727 3728 
390 424 391 93 3729 3730 3407 3394 3725 3400 
93 126 423 424 3723 3718 3722 3725 3724 3731 
390 424 93 423 3729 3725 3394 3720 3731 3722 
391 93 424 94 3400 3725 3730 3404 3403 3732 
424 93 127 94 3725 3726 3728 3732 3403 3733 
94 127 425 128 3733 3734 3735 3736 3737 3738 
391 425 392 94 3739 3740 3417 3404 3735 3410 
94 127 424 425 3733 3728 3732 3735 3734 3741 
391 425 94 424 3739 3735 3404 3730 3741 3732 
392 94 425 95 3410 3735 3740 3414 3413 3742 
425 94 128 95 3735 3736 3738 3742 3413 3743 
95 128 426 129 3743 3744 3745 3746 3747 3748 
392 426 393 95 3749 3750 3427 3414 3745 3420 
95 128 425 426 3743 3738 3742 3745 3744 3751 
392 426 95 425 3749 3745 3414 3740 3751 3742 
393 95 426 96 3420 3745 3750 3424 3423 3752 
426 95 129 96 3745 3746 3748 3752 3423 3753 
96 129 427 130 3753 3754 3755 3756 3757 3758 
393 427 394 96 3759 3760 3437 3424 3755 3430 
96 129 426 427 3753 3748 3752 3755 3754 3761 
393 427 96 426 3759 3755 3424 3750 3761 3752 
394 96 427 97 3430 3755 3760 3434 3433 3762 
427 96 130 97 3755 3756 3758 3762 3433 3763 
97 130 428 131 3763 3764 3765 3766 3767 3768 
394 428 395 97 3769 3770 3447 3434 3765 3440 
97 130 427 428 3763 3758 3762 3765 3764 3771 
394 428 97 427 3769 3765 3434 3760 3771 3762 
395 97 428 98 3440 3765 3770 3444 3443 3772 
428 97 131 98 3765 3766 3768 3772 3443 3773 
99 132 430 133 3774 3775 3776 3777 3778 3779 
396 430 397 99 3780 3781 3460 3458 3776 3451 
99 132 429 430 3774 3782 3783 3776 3775 3784 
396 430 99 429 3780 3776 3458 3785 3784 3783 
397 99 430 100 3451 3776 3781 3455 3454 3786 
430 99 133 100 3776 3777 3779 3786 3454 3787 
100 133 431 134 3787 3788 3789 3790 3791 3792 
397 431 398 100 3793 3794 3471 3455 3789 3464 
100 133 430 431 3787 3779 3786 3789 3788 3795 
397 431 100 430 3793 3789 3455 3781 3795 3786 
398 100 431 101 3464 3789 3794 3468 3467 3796 
431 100 134 101 3789 3790 3792 3796 3467 3797 
101 134 432 135 3797 3798 3799 3800 3801 3802 
398 432 399 101 3803 3804 3481 3468 3799 3474 
101 134 431 432 3797 3792 3796 3799 3798 3805 
398 432 101 431 3803 3799 3468 3794 3805 3796 
399 101 432 102 3474 3799 3804 3478 3477 3806 
432 101 135 102 3799 3800 3802 3806 3477 3807 
102 135 433 136 3807 3808 3809 3810 3811 3812 
399 433 400 102 3813 3814 3491 3478 3809 3484 
102 135 432 433 3807 3802 3806 3809 3808 3815 
399 433 102 432 3813 3809 3478 3804 3815 3806 
400 102 433 103 3484 3809 3814 3488 3487 3816 
433 102 136 103 3809 3810 3812 3816 3487 3817 
103 136 434 137 3817 3818 3819 3820 3821 3822 
400 434 401 103 3823 3824 3501 3488 3819 3494 
103 136 433 434 3817 3812 3816 3819 3818 3825 
400 434 103 433 3823 3819 3488 3814 3825 3816 
401 103 434 104 3494 3819 3824 3498 3497 3826 
434 103 137 104 3819 3820 3822 3826 3497 3827 
104 137 435 138 3827 3828 3829 3830 3831 3832 
401 435 402 104 3833 3834 3511 3498 3829 3504 
104 137 434 435 3827 3822 3826 3829 3828 3835 
401 435 104 434 3833 3829 3498 3824 3835 3826 
402 104 435 105 3504 3829 3834 3508 3507 3836 
435 104 138 105 3829 3830 3832 3836 3507 3837 
105 138 436 139 3837 3838 3839 3840 3841 3842 
402 436 403 105 3843 3844 3521 3508 3839 3514 
105 138 435 436 3837 3832 3836 3839 3838 3845 
402 436 105 435 3843 3839 3508 3834 3845 3836 
403 105 436 106 3514 3839 3844 3518 3517 3846 
436 105 139 106 3839 3840 3842 3846 3517 3847 
106 139 437 140 3847 3848 3849 3850 3851 3852 
403 437 404 106 3853 3854 3531 3518 3849 3524 
106 139 436 437 3847 3842 3846 3849 3848 3855 
403 437 106 436 3853 3849 3518 3844 3855 3846 
404 106 437 107 3524 3849 3854 3528 3527 3856 
437 106 140 107 3849 3850 3852 3856 3527 3857 
107 140 438 141 3857 3858 3859 3860 3861 3862 
404 438 405 107 3863 3864 3541 3528 3859 3534 
107 140 437 438 3857 3852 3856 3859 3858 3865 
404 438 107 437 3863 3859 3528 3854 3865 3856 
405 107 438 108 3534 3859 3864 3538 3537 3866 
438 107 141 108 3859 3860 3862 3866 3537 3867 
108 141 439 142 3867 3868 3869 3870 3871 3872 
405 439 406 108 3873 3874 3551 3538 3869 3544 
108 141 438 439 3867 3862 3866 3869 3868 3875 
405 439 108 438 3873 3869 3538 3864 3875 3866 
406 108 439 109 3544 3869 3874 3548 3547 3876 
439 108 142 109 3869 3870 3872 3876 3547 3877 
109 142 440 143 3877 3878 3879 3880 3881 3882 
406 440 407 109 3883 3884 3561 3548 3879 3554 
109 142 439 440 3877 3872 3876 3879 3878 3885 
406 440 109 439 3883 3879 3548 3874 3885 3876 
407 109 440 110 3554 3879 3884 3558 3557 3886 
440 109 143 110 3879 3880 3882 3886 3557 3887 
110 143 441 144 3887 3888 3889 3890 3891 3892 
407 441 408 110 3893 3894 3571 3558 3889 3564 
110 143 440 441 3887 3882 3886 3889 3888 3895 
407 441 110 440 3893 3889 3558 3884 3895 3886 
408 110 441 111 3564 3889 3894 3568 3567 3896 
441 110 144 111 3889 3890 3892 3896 3567 3897 
111 144 442 145 3897 3898 3899 3900 3901 3902 
408 442 409 111 3903 3904 3581 3568 3899 3574 
111 144 441 442 3897 3892 3896 3899 3898 3905 
408 442 111 441 3903 3899 3568 3894 3905 3896 
409 111 442 112 3574 3899 3904 3578 3577 3906 
442 111 145 112 3899 3900 3902 3906 3577 3907 
112 145 443 146 3907 3908 3909 3910 3911 3912 
409 443 410 112 3913 3914 3591 3578 3909 3584 
112 145 442 443 3907 3902 3906 3909 3908 3915 
409 443 112 442 3913 3909 3578 3904 3915 3906 
410 112 443 113 3584 3909 3914 3588 3587 3916 
443 112 146 113 3909 3910 3912 3916 3587 3917 
113 146 444 147 3917 3918 3919 3920 3921 3922 
410 444 411 113 3923 3924 3601 3588 3919 3594 
113 146 443 444 3917 3912 3916 3919 3918 3925 
410 444 113 443 3923 3919 3588 3914 3925 3916 
411 113 444 114 3594 3919 3924 3598 3597 3926 
444 113 147 114 3919 3920 3922 3926 3597 3927 
114 147 445 148 3927 3928 3929 3930 3931 3932 
411 445 412 114 3933 3934 3611 3598 3929 3604 
114 147 444 445 3927 3922 3926 3929 3928 3935 
411 445 114 444 3933 3929 3598 3924 3935 3926 
412 114 445 115 3604 3929 3934 3608 3607 3936 
445 114 148 115 3929 3930 3932 3936 3607 3937 
115 148 446 149 3937 3938 3939 3940 3941 3942 
412 446 413 115 3943 3944 3621 3608 3939 3614 
115 148 445 446 3937 3932 3936 3939 3938 3945 
412 446 115 445 3943 3939 3608 3934 3945 3936 
413 115 446 116 3614 3939 3944 3618 3617 3946 
446 115 149 116 3939 3940 3942 3946 3617 3947 
116 149 447 150 3947 3948 3949 3950 3951 3952 
413 447 414 116 3953 3954 3631 3618 3949 3624 
116 149 446 447 3947 3942 3946 3949 3948 3955 
413 447 116 446 3953 3949 3618 3944 3955 3946 
414 116 447 117 3624 3949 3954 3628 3627 3956 
447 116 150 117 3949 3950 3952 3956 3627 3957 
117 150 448 151 3957 3958 3959 3960 3961 3962 
414 448 415 117 3963 3964 3641 3628 3959 3634 
117 150 447 448 3957 3952 3956 3959 3958 3965 
414 448 117 447 3963 3959 3628 3954 3965 3956 
415 117 448 118 3634 3959 3964 3638 3637 3966 
448 117 151 118 3959 3960 3962 3966 3637 3967 
118 151 449 152 3967 3968 3969 3970 3971 3972 
415 449 416 118 3973 3974 3651 3638 3969 3644 
118 151 448 449 3967 3962 3966 3969 3968 3975 
415 449 118 448 3973 3969 3638 3964 3975 3966 
416 118 449 119 3644 3969 3974 3648 3647 3976 
449 118 152 119 3969 3970 3972 3976 3647 3977 
119 152 450 153 3977 3978 3979 3980 3981 3982 
416 450 417 119 3983 3984 3661 3648 3979 3654 
119 152 449 450 3977 3972 3976 3979 3978 3985 
416 450 119 449 3983 3979 3648 3974 3985 3976 
417 119 450 120 3654 3979 3984 3658 3657 3986 
450 119 153 120 3979 3980 3982 3986 3657 3987 
120 153 451 154 3987 3988 3989 3990 3991 3992 
417 451 418 120 3993 3994 3671 3658 3989 3664 
120 153 450 451 3987 3982 3986 3989 3988 3995 
417 451 120 450 3993 3989 3658 3984 3995 3986 
418 120 451 121 3664 3989 3994 3668 3667 3996 
451 120 154 121 3989 3990 3992 3996 3667 3997 
121 154 452 155 3997 3998 3999 4000 4001 4002 
418 452 419 121 4003 4004 3681 3668 3999 3674 
121 154 451 452 3997 3992 3996 3999 3998 4005 
418 452 121 451 4003 3999 3668 3994 4005 3996 
419 121 452 122 3674 3999 4004 3678 3677 4006 
452 121 155 122 3999 4000 4002 4006 3677 4007 
122 155 453 156 4007 4008 4009 4010 4011 4012 
419 453 420 122 4013 4014 3691 3678 4009 3684 
122 155 452 453 4007 4002 4006 4009 4008 4015 
419 453 122 452 4013 4009 3678 4004 4015 4006 
420 122 453 123 3684 4009 4014 3688 3687 4016 
453 122 156 123 4009 4010 4012 4016 3687 4017 
123 156 454 157 4017 4018 4019 4020 4021 4022 
420 454 421 123 4023 4024 3701 3688 4019 3694 
123 156 453 454 4017 4012 4016 4019 4018 4025 
420 454 123 453 4023 4019 3688 4014 4025 4016 
421 123 454 124 3694 4019 4024 3698 3697 4026 
454 123 157 124 4019 4020 4022 4026 3697 4027 
124 157 455 158 4027 4028 4029 4030 4031 4032 
421 455 422 124 4033 4034 3711 3698 4029 3704 
124 157 454 455 4027 4022 4026 4029 4028 4035 
421 455 124 454 4033 4029 3698 4024 4035 4026 
422 124 455 125 3704 4029 4034 3708 3707 4036 
455 124 158 125 4029 4030 4032 4036 3707 4037 
125 158 456 159 4037 4038 4039 4040 4041 4042 
422 456 423 125 4043 4044 3721 3708 4039 3714 
125 158 455 456 4037 4032 4036 4039 4038 4045 
422 456 125 455 4043 4039 3708 4034 4045 4036 
423 125 456 126 3714 4039 4044 3718 3717 4046 
456 125 159 126 4039 4040 4042 4046 3717 4047 
126 159 457 160 4047 4048 4049 4050 4051 4052 
423 457 424 126 4053 4054 3731 3718 4049 3724 
126 159 456 457 4047 4042 4046 4049 4048 4055 
423 457 126 456 4053 4049 3718 4044 4055 4046 
424 126 457 127 3724 4049 4054 3728 3727 4056 
457 126 160 127 4049 4050 4052 4056 3727 4057 
127 160 458 161 4057 4058 4059 4060 4061 4062 
424 458 425 127 4063 4064 3741 3728 4059 3734 
127 160 457 458 4057 4052 4056 4059 4058 4065 
424 458 127 457 4063 4059 3728 4054 4065 4056 
425 127 458 128 3734 4059 4064 3738 3737 4066 
458 127 161 128 4059 4060 4062 4066 3737 4067 
128 161 459 162 4067 4068 4069 4070 4071 4072 
425 459 426 128 4073 4074 3751 3738 4069 3744 
128 161 458 459 4067 4062 4066 4069 4068 4075 
425 459 128 458 4073 4069 3738 4064 4075 4066 
426 128 459 129 3744 4069 4074 3748 3747 4076 
459 128 162 129 4069 4070 4072 4076 3747 4077 
129 162 460 163 4077 4078 4079 4080 4081 4082 
426 460 427 129 4083 4084 3761 3748 4079 3754 
129 162 459 460 4077 4072 4076 4079 4078 4085 
426 460 129 459 4083 4079 3748 4074 4085 4076 
427 129 460 130 3754 4079 4084 3758 3757 4086 
460 129 163 130 4079 4080 4082 4086 3757 4087 
130 163 461 164 4087 4088 4089 4090 4091 4092 
427 461 428 130 4093 4094 3771 3758 4089 3764 
130 163 460 461 4087 4082 4086 4089 4088 4095 
427 461 130 460 4093 4089 3758 4084 4095 4086 
428 130 461 131 3764 4089 4094 3768 3767 4096 
461 130 164 131 4089 4090 4092 4096 3767 4097 
132 165 463 166 4098 4099 4100 4101 4102 4103 
429 463 430 132 4104 4105 3784 3782 4100 3775 
132 165 462 463 4098 4106 4107 4100 4099 4108 
429 463 132 462 4104 4100 3782 4109 4108 4107 
430 132 463 133 3775 4100 4105 3779 3778 4110 
463 132 166 133 4100 4101 4103 4110 3778 4111 
133 166 464 167 4111 4112 4113 4114 4115 4116 
430 464 431 133 4117 4118 3795 3779 4113 3788 
133 166 463 464 4111 4103 4110 4113 4112 4119 
430 464 133 463 4117 4113 3779 4105 4119 4110 
431 133 464 134 3788 4113 4118 3792 3791 4120 
464 133 167 134 4113 4114 4116 4120 3791 4121 
134 167 465 168 4121 4122 4123 4124 4125 4126 
431 465 432 134 4127 4128 3805 3792 4123 3798 
134 167 464 465 4121 4116 4120 4123 4122 4129 
431 465 134 464 4127 4123 3792 4118 4129 4120 
432 134 465 135 3798 4123 4128 3802 3801 4130 
465 134 168 135 4123 4124 4126 4130 3801 4131 
135 168 466 169 4131 4132 4133 4134 4135 4136 
432 466 433 135 4137 4138 3815 3802 4133 3808 
135 168 465 466 4131 4126 4130 4133 4132 4139 
432 466 135 465 4137 4133 3802 4128 4139 4130 
433 135 466 136 3808 4133 4138 3812 3811 4140 
466 135 169 136 4133 4134 4136 4140 3811 4141 
136 169 467 170 4141 4142 4143 4144 4145 4146 
433 467 434 136 4147 4148 3825 3812 4143 3818 
136 169 466 467 4141 4136 4140 4143 4142 4149 
433 467 136 466 4147 4143 3812 4138 4149 4140 
434 136 467 137 3818 4143 4148 3822 3821 4150 
467 136 170 137 4143 4144 4146 4150 3821 4151 
137 170 468 171 4151 4152 4153 4154 4155 4156 
434 468 435 137 4157 4158 3835 3822 4153 3828 
137 170 467 468 4151 4146 4150 4153 4152 4159 
434 468 137 467 4157 4153 3822 4148 4159 4150 
435 137 468 138 3828 4153 4158 3832 3831 4160 
468 137 171 138 4153 4154 4156 4160 3831 4161 
138 171 469 172 4161 4162 4163 4164 4165 4166 
435 469 436 138 4167 4168 3845 3832 4163 3838 
138 171 468 469 4161 4156 4160 4163 4162 4169 
435 469 138 468 4167 4163 3832 4158 4169 4160 
436 138 469 139 3838 4163 4168 3842 3841 4170 
469 138 172 139 4163 4164 4166 4170 3841 4171 
139 172 470 173 4171 4172 4173 4174 4175 4176 
436 470 437 139 4177 4178 3855 3842 4173 3848 
139 172 469 470 4171 4166 4170 4173 4172 4179 
436 470 139 469 4177 4173 3842 4168 4179 4170 
437 139 470 140 3848 4173 4178 3852 3851 4180 
470 139 173 140 4173 4174 4176 4180 3851 4181 
140 173 471 174 4181 4182 4183 4184 4185 4186 
437 471 438 140 4187 4188 3865 3852 4183 3858 
140 173 470 471 4181 4176 4180 4183 4182 4189 
437 471 140 470 4187 4183 3852 4178 4189 4180 
438 140 471 141 3858 4183 4188 3862 3861 4190 
471 140 174 141 4183 4184 4186 4190 3861 4191 
141 174 472 175 4191 4192 4193 4194 4195 4196 
438 472 439 141 4197 4198 3875 3862 4193 3868 
141 174 471 472 4191 4186 4190 4193 4192 4199 
438 472 141 471 4197 4193 3862 4188 4199 4190 
439 141 472 142 3868 4193 4198 3872 3871 4200 
472 141 175 142 4193 4194 4196 4200 3871 4201 
142 175 473 176 4201 4202 4203 4204 4205 4206 
439 473 440 142 4207 4208 3885 3872 4203 3878 
142 175 472 473 4201 4196 4200 4203 4202 4209 
439 473 142 472 4207 4203 3872 4198 4209 4200 
440 142 473 143 3878 4203 4208 3882 3881 4210 
473 142 176 143 4203 4204 4206 4210 3881 4211 
143 176 474 177 4211 4212 4213 4214 4215 4216 
440 474 441 143 4217 4218 3895 3882 4213 3888 
143 176 473 474 4211 4206 4210 4213 4212 4219 
440 474 143 473 4217 4213 3882 4208 4219 4210 
441 143 474 144 3888 4213 4218 3892 3891 4220 
474 143 177 144 4213 4214 4216 4220 3891 4221 
144 177 475 178 4221 4222 4223 4224 4225 4226 
441 475 442 144 4227 4228 3905 3892 4223 3898 
144 177 474 475 4221 4216 4220 4223 4222 4229 
441 475 144 474 4227 4223 3892 4218 4229 4220 
442 144 475 145 3898 4223 4228 3902 3901 4230 
475 144 178 145 4223 4224 4226 4230 3901 4231 
145 178 476 179 4231 4232 4233 4234 4235 4236 
442 476 443 145 4237 4238 3915 3902 4233 3908 
145 178 475 476 4231 4226 4230 4233 4232 4239 
442 476 145 475 4237 4233 3902 4228 4239 4230 
443 145 476 146 3908 4233 4238 3912 3911 4240 
476 145 179 146 4233 4234 4236 4240 3911 4241 
146 179 477 180 4241 4242 4243 4244 4245 4246 
443 477 444 146 4247 4248 3925 3912 4243 3918 
146 179 476 477 4241 4236 4240 4243 4242 4249 
443 477 146 476 4247 4243 3912 4238 4249 4240 
444 146 477 147 3918 4243 4248 3922 3921 4250 
477 146 180 147 4243 4244 4246 4250 3921 4251 
147 180 478 181 4251 4252 4253 4254 4255 4256 
444 478 445 147 4257 4258 3935 3922 4253 3928 
147 180 477 478 4251 4246 4250 4253 4252 4259 
444 478 147 477 4257 4253 3922 4248 4259 4250 
445 147 478 148 3928 4253 4258 3932 3931 4260 
478 147 181 148 4253 4254 4256 4260 3931 4261 
148 181 479 182 4261 4262 4263 4264 4265 4266 
445 479 446 148 4267 4268 3945 3932 4263 3938 
148 181 478 479 4261 4256 4260 4263 4262 4269 
445 479 148 478 4267 4263 3932 4258 4269 4260 
446 148 479 149 3938 4263 4268 3942 3941 4270 
479 148 182 149 4263 4264 4266 4270 3941 4271 
149 182 480 183 4271 4272 4273 4274 4275 4276 
446 480 447 149 4277 4278 3955 3942 4273 3948 
149 182 479 480 4271 4266 4270 4273 4272 4279 
446 480 149 479 4277 4273 3942 4268 4279 4270 
447 149 480 150 3948 4273 4278 3952 3951 4280 
480 149 183 150 4273 4274 4276 4280 3951 4281 
150 183 481 184 4281 4282 4283 4284 4285 4286 
447 481 448 150 4287 4288 3965 3952 4283 3958 
150 183 480 481 4281 4276 4280 4283 4282 4289 
447 481 150 480 4287 4283 3952 4278 4289 4280 
448 150 481 151 3958 4283 4288 3962 3961 4290 
481 150 184 151 4283 4284 4286 4290 3961 4291 
151 184 482 185 4291 4292 4293 4294 4295 4296 
448 482 449 151 4297 4298 3975 3962 4293 3968 
151 184 481 482 4291 4286 4290 4293 4292 4299 
448 482 151 481 4297 4293 3962 4288 4299 4290 
449 151 482 152 3968 4293 4298 3972 3971 4300 
482 151 185 152 4293 4294 4296 4300 3971 4301 
152 185 483 186 4301 4302 4303 4304 4305 4306 
449 483 450 152 4307 4308 3985 3972 4303 3978 
152 185 482 483 4301 4296 4300 4303 4302 4309 
449 483 152 482 4307 4303 3972 4298 4309 4300 
450 152 483 153 3978 4303 4308 3982 3981 4310 
483 152 186 153 4303 4304 4306 4310 3981 4311 
153 186 484 187 4311 4312 4313 4314 4315 4316 
450 484 451 153 4317 4318 3995 3982 4313 3988 
153 186 483 484 4311 4306 4310 4313 4312 4319 
450 484 153 483 4317 4313 3982 4308 4319 4310 
451 153 484 154 3988 4313 4318 3992 3991 4320 
484 153 187 154 4313 4314 4316 4320 3991 4321 
154 187 485 188 4321 4322 4323 4324 4325 4326 
451 485 452 154 4327 4328 4005 3992 4323 3998 
154 187 484 485 4321 4316 4320 4323 4322 4329 
451 485 154 484 4327 4323 3992 4318 4329 4320 
452 154 485 155 3998 4323 4328 4002 4001 4330 
485 154 188 155 4323 4324 4326 4330 4001 4331 
155 188 486 189 4331 4332 4333 4334 4335 4336 
452 486 453 155 4337 4338 4015 4002 4333 4008 
155 188 485 486 4331 4326 4330 4333 4332 4339 
452 486 155 485 4337 4333 4002 4328 4339 4330 
453 155 486 156 4008 4333 4338 4012 4011 4340 
486 155 189 156 4333 4334 4336 4340 4011 4341 
156 189 487 190 4341 4342 4343 4344 4345 4346 
453 487 454 156 4347 4348 4025 4012 4343 4018 
156 189 486 487 4341 4336 4340 4343 4342 4349 
453 487 156 486 4347 4343 4012 4338 4349 4340 
454 156 487 157 4018 4343 4348 4022 4021 4350 
487 156 190 157 4343 4344 4346 4350 4021 4351 
157 190 488 191 4351 4352 4353 4354 4355 4356 
454 488 455 157 4357 4358 4035 4022 4353 4028 
157 190 487 488 4351 4346 4350 4353 4352 4359 
454 488 157 487 4357 4353 4022 4348 4359 4350 
455 157 488 158 4028 4353 4358 4032 4031 4360 
488 157 191 158 4353 4354 4356 4360 4031 4361 
158 191 489 192 4361 4362 4363 4364 4365 4366 
455 489 456 158 4367 4368 4045 4032 4363 4038 
158 191 488 489 4361 4356 4360 4363 4362 4369 
455 489 158 488 4367 4363 4032 4358 4369 4360 
456 158 489 159 4038 4363 4368 4042 4041 4370 
489 158 192 159 4363 4364 4366 4370 4041 4371 
159 192 490 193 4371 4372 4373 4374 4375 4376 
456 490 457 159 4377 4378 4055 4042 4373 4048 
159 192 489 490 4371 4366 4370 4373 4372 4379 
456 490 159 489 4377 4373 4042 4368 4379 4370 
457 159 490 160 4048 4373 4378 4052 4051 4380 
490 159 193 160 4373 4374 4376 4380 4051 4381 
160 193 491 194 4381 4382 4383 4384 4385 4386 
457 491 458 160 4387 4388 4065 4052 4383 4058 
160 193 490 491 4381 4376 4380 4383 4382 4389 
457 491 160 490 4387 4383 4052 4378 4389 4380 
458 160 491 161 4058 4383 4388 4062 4061 4390 
491 160 194 161 4383 4384 4386 4390 4061 4391 
161 194 492 195 4391 4392 4393 4394 4395 4396 
458 492 459 161 4397 4398 4075 4062 4393 4068 
161 194 491 492 4391 4386 4390 4393 4392 4399 
458 492 161 491 4397 4393 4062 4388 4399 4390 
459 161 492 162 4068 4393 4398 4072 4071 4400 
492 161 195 162 4393 4394 4396 4400 4071 4401 
162 195 493 196 4401 4402 4403 4404 4405 4406 
459 493 460 162 4407 4408 4085 4072 4403 4078 
162 195 492 493 4401 4396 4400 4403 4402 4409 
459 493 162 492 4407 4403 4072 4398 4409 4400 
460 162 493 163 4078 4403 4408 4082 4081 4410 
493 162 196 163 4403 4404 4406 4410 4081 4411 
163 196 494 197 4411 4412 4413 4414 4415 4416 
460 494 461 163 4417 4418 4095 4082 4413 4088 
163 196 493 494 4411 4406 4410 4413 4412 4419 
460 494 163 493 4417 4413 4082 4408 4419 4410 
461 163 494 164 4088 4413 4418 4092 4091 4420 
494 163 197 164 4413 4414 4416 4420 4091 4421 
165 198 496 199 4422 4423 4424 4425 4426 4427 
462 496 463 165 4428 4429 4108 4106 4424 4099 
165 198 495 496 4422 4430 4431 4424 4423 4432 
462 496 165 495 4428 4424 4106 4433 4432 4431 
463 165 496 166 4099 4424 4429 4103 4102 4434 
496 165 199 166 4424 4425 4427 4434 4102 4435 
166 199 497 200 4435 4436 4437 4438 4439 4440 
463 497 464 166 4441 4442 4119 4103 4437 4112 
166 199 496 497 4435 4427 4434 4437 4436 4443 
463 497 166 496 4441 4437 4103 4429 4443 4434 
464 166 497 167 4112 4437 4442 4116 4115 4444 
497 166 200 167 4437 4438 4440 4444 4115 4445 
167 200 498 201 4445 4446 4447 4448 4449 4450 
464 498 465 167 4451 4452 4129 4116 4447 4122 
167 200 497 498 4445 4440 4444 4447 4446 4453 
464 498 167 497 4451 4447 4116 4442 4453 4444 
465 167 498 168 4122 4447 4452 4126 4125 4454 
498 167 201 168 4447 4448 4450 4454 4125 4455 
168 201 499 202 4455 4456 4457 4458 4459 4460 
465 499 466 168 4461 4462 4139 4126 4457 4132 
168 201 498 499 4455 4450 4454 4457 4456 4463 
465 499 168 498 4461 4457 4126 4452 4463 4454 
466 168 499 169 4132 4457 4462 4136 4135 4464 
499 168 202 169 4457 4458 4460 4464 4135 4465 
169 202 500 203 4465 4466 4467 4468 4469 4470 
466 500 467 169 4471 4472 4149 4136 4467 4142 
169 202 499 500 4465 4460 4464 4467 4466 4473 
466 500 169 499 4471 4467 4136 4462 4473 4464 
467 169 500 170 4142 4467 4472 4146 4145 4474 
500 169 203 170 4467 4468 4470 4474 4145 4475 
170 203 501 204 4475 4476 4477 4478 4479 4480 
467 501 468 170 4481 4482 4159 4146 4477 4152 
170 203 500 501 4475 4470 4474 4477 4476 4483 
467 501 170 500 4481 4477 4146 4472 4483 4474 
468 170 501 171 4152 4477 4482 4156 4155 4484 
501 170 204 171 4477 4478 4480 4484 4155 4485 
171 204 502 205 4485 4486 4487 4488 4489 4490 
468 502 469 171 4491 4492 4169 4156 4487 4162 
171 204 501 502 4485 4480 4484 4487 4486 4493 
468 502 171 501 4491 4487 4156 4482 4493 4484 
469 171 502 172 4162 4487 4492 4166 4165 4494 
502 171 205 172 4487 4488 4490 4494 4165 4495 
172 205 503 206 4495 4496 4497 4498 4499 4500 
469 503 470 172 4501 4502 4179 4166 4497 4172 
172 205 502 503 4495 4490 4494 4497 4496 4503 
469 503 172 502 4501 4497 4166 4492 4503 4494 
470 172 503 173 4172 4497 4502 4176 4175 4504 
503 172 206 173 4497 4498 4500 4504 4175 4505 
173 206 504 207 4505 4506 4507 4508 4509 4510 
470 504 471 173 4511 4512 4189 4176 4507 4182 
173 206 503 504 4505 4500 4504 4507 4506 4513 
470 504 173 503 4511 4507 4176 4502 4513 4504 
471 173 504 174 4182 4507 4512 4186 4185 4514 
504 173 207 174 4507 4508 4510 4514 4185 4515 
174 207 505 208 4515 4516 4517 4518 4519 4520 
471 505 472 174 4521 4522 4199 4186 4517 4192 
174 207 504 505 4515 4510 4514 4517 4516 4523 
471 505 174 504 4521 4517 4186 4512 4523 4514 
472 174 505 175 4192 4517 4522 4196 4195 4524 
505 174 208 175 4517 4518 4520 4524 4195 4525 
175 208 506 209 4525 4526 4527 4528 4529 4530 
472 506 473 175 4531 4532 4209 4196 4527 4202 
175 208 505 506 4525 4520 4524 4527 4526 4533 
472 506 175 505 4531 4527 4196 4522 4533 4524 
473 175 506 176 4202 4527 4532 4206 4205 4534 
506 175 209 176 4527 4528 4530 4534 4205 4535 
176 209 507 210 4535 4536 4537 4538 4539 4540 
473 507 474 176 4541 4542 4219 4206 4537 4212 
176 209 506 507 4535 4530 4534 4537 4536 4543 
473 507 176 506 4541 4537 4206 4532 4543 4534 
474 176 507 177 4212 4537 4542 4216 4215 4544 
507 176 210 177 4537 4538 4540 4544 4215 4545 
177 210 508 211 4545 4546 4547 4548 4549 4550 
474 508 475 177 4551 4552 4229 4216 4547 4222 
177 210 507 508 4545 4540 4544 4547 4546 4553 
474 508 177 507 4551 4547 4216 4542 4553 4544 
475 177 508 178 4222 4547 4552 4226 4225 4554 
508 177 211 178 4547 4548 4550 4554 4225 4555 
178 211 509 212 4555 4556 4557 4558 4559 4560 
475 509 476 178 4561 4562 4239 4226 4557 4232 
178 211 508 509 4555 4550 4554 4557 4556 4563 
475 509 178 508 4561 4557 4226 4552 4563 4554 
476 178 509 179 4232 4557 4562 4236 4235 4564 
509 178 212 179 4557 4558 4560 4564 4235 4565 
179 212 510 213 4565 4566 4567 4568 4569 4570 
476 510 477 179 4571 4572 4249 4236 4567 4242 
179 212 509 510 4565 4560 4564 4567 4566 4573 
476 510 179 509 4571 4567 4236 4562 4573 4564 
477 179 510 180 4242 4567 4572 4246 4245 4574 
510 179 213 180 4567 4568 4570 4574 4245 4575 
180 213 511 214 4575 4576 4577 4578 4579 4580 
477 511 478 180 4581 4582 4259 4246 4577 4252 
180 213 510 511 4575 4570 4574 4577 4576 4583 
477 511 180 510 4581 4577 4246 4572 4583 4574 
478 180 511 181 4252 4577 4582 4256 4255 4584 
511 180 214 181 4577 4578 4580 4584 4255 4585 
181 214 512 215 4585 4586 4587 4588 4589 4590 
478 512 479 181 4591 4592 4269 4256 4587 4262 
181 214 511 512 4585 4580 4584 4587 4586 4593 
478 512 181 511 4591 4587 4256 4582 4593 4584 
479 181 512 182 4262 4587 4592 4266 4265 4594 
512 181 215 182 4587 4588 4590 4594 4265 4595 
182 215 513 216 4595 4596 4597 4598 4599 4600 
479 513 480 182 4601 4602 4279 4266 4597 4272 
182 215 512 513 4595 4590 4594 4597 4596 4603 
479 513 182 512 4601 4597 4266 4592 4603 4594 
480 182 513 183 4272 4597 4602 4276 4275 4604 
513 182 216 183 4597 4598 4600 4604 4275 4605 
183 216 514 217 4605 4606 4607 4608 4609 4610 
480 514 481 183 4611 4612 4289 4276 4607 4282 
183 216 513 514 4605 4600 4604 4607 4606 4613 
480 514 183 513 4611 4607 4276 4602 4613 4604 
481 183 514 184 4282 4607 4612 4286 4285 4614 
514 183 217 184 4607 4608 4610 4614 4285 4615 
184 217 515 218 4615 4616 4617 4618 4619 4620 
481 515 482 184 4621 4622 4299 4286 4617 4292 
184 217 514 515 4615 4610 4614 4617 4616 4623 
481 515 184 514 4621 4617 4286 4612 4623 4614 
482 184 515 185 4292 4617 4622 4296 4295 4624 
515 184 218 185 4617 4618 4620 4624 4295 4625 
185 218 516 219 4625 4626 4627 4628 4629 4630 
482 516 483 185 4631 4632 4309 4296 4627 4302 
185 218 515 516 4625 4620 4624 4627 4626 4633 
482 516 185 515 4631 4627 4296 4622 4633 4624 
483 185 516 186 4302 4627 4632 4306 4305 4634 
516 185 219 186 4627 4628 4630 4634 4305 4635 
186 219 517 220 4635 4636 4637 4638 4639 4640 
483 517 484 186 4641 4642 4319 4306 4637 4312 
186 219 516 517 4635 4630 4634 4637 4636 4643 
483 517 186 516 4641 4637 4306 4632 4643 4634 
484 186 517 187 4312 4637 4642 4316 4315 4644 
517 186 220 187 4637 4638 4640 4644 4315 4645 
187 220 518 221 4645 4646 4647 4648 4649 4650 
484 518 485 187 4651 4652 4329 4316 4647 4322 
187 220 517 518 4645 4640 4644 4647 4646 4653 
484 518 187 517 4651 4647 4316 4642 4653 4644 
485 187 518 188 4322 4647 4652 4326 4325 4654 
518 187 221 188 4647 4648 4650 4654 4325 4655 
188 221 519 222 4655 4656 4657 4658 4659 4660 
485 519 486 188 4661 4662 4339 4326 4657 4332 
188 221 518 519 4655 4650 4654 4657 4656 4663 
485 519 188 518 4661 4657 4326 4652 4663 4654 
486 188 519 189 4332 4657 4662 4336 4335 4664 
519 188 222 189 4657 4658 4660 4664 4335 4665 
189 222 520 223 4665 4666 4667 4668 4669 4670 
486 520 487 189 4671 4672 4349 4336 4667 4342 
189 222 519 520 4665 4660 4664 4667 4666 4673 
486 520 189 519 4671 4667 4336 4662 4673 4664 
487 189 520 190 4342 4667 4672 4346 4345 4674 
520 189 223 190 4667 4668 4670 4674 4345 4675 
190 223 521 224 4675 4676 4677 4678 4679 4680 
487 521 488 190 4681 4682 4359 4346 4677 4352 
190 223 520 521 4675 4670 4674 4677 4676 4683 
487 521 190 520 4681 4677 4346 4672 4683 4674 
488 190 521 191 4352 4677 4682 4356 4355 4684 
521 190 224 191 4677 4678 4680 4684 4355 4685 
191 224 522 225 4685 4686 4687 4688 4689 4690 
488 522 489 191 4691 4692 4369 4356 4687 4362 
191 224 521 522 4685 4680 4684 4687 4686 4693 
488 522 191 521 4691 4687 4356 4682 4693 4684 
489 191 522 192 4362 4687 4692 4366 4365 4694 
522 191 225 192 4687 4688 4690 4694 4365 4695 
192 225 523 226 4695 4696 4697 4698 4699 4700 
489 523 490 192 4701 4702 4379 4366 4697 4372 
192 225 522 523 4695 4690 4694 4697 4696 4703 
489 523 192 522 4701 4697 4366 4692 4703 4694 
490 192 523 193 4372 4697 4702 4376 4375 4704 
523 192 226 193 4697 4698 4700 4704 4375 4705 
193 226 524 227 4705 4706 4707 4708 4709 4710 
490 524 491 193 4711 4712 4389 4376 4707 4382 
193 226 523 524 4705 4700 4704 4707 4706 4713 
490 524 193 523 4711 4707 4376 4702 4713 4704 
491 193 524 194 4382 4707 4712 4386 4385 4714 
524 193 227 194 4707 4708 4710 4714 4385 4715 
194 227 525 228 4715 4716 4717 4718 4719 4720 
491 525 492 194 4721 4722 4399 4386 4717 4392 
194 227 524 525 4715 4710 4714 4717 4716 4723 
491 525 194 524 4721 4717 4386 4712 4723 4714 
492 194 525 195 4392 4717 4722 4396 4395 4724 
525 194 228 195 4717 4718 4720 4724 4395 4725 
195 228 526 229 4725 4726 4727 4728 4729 4730 
492 526 493 195 4731 4732 4409 4396 4727 4402 
195 228 525 526 4725 4720 4724 4727 4726 4733 
492 526 195 525 4731 4727 4396 4722 4733 4724 
493 195 526 196 4402 4727 4732 4406 4405 4734 
526 195 229 196 4727 4728 4730 4734 4405 4735 
196 229 527 230 4735 4736 4737 4738 4739 4740 
493 527 494 196 4741 4742 4419 4406 4737 4412 
196 229 526 527 4735 4730 4734 4737 4736 4743 
493 527 196 526 4741 4737 4406 4732 4743 4734 
494 196 527 197 4412 4737 4742 4416 4415 4744 
527 196 230 197 4737 4738 4740 4744 4415 4745 
198 231 529 232 4746 4747 4748 4749 4750 4751 
495 529 496 198 4752 4753 4432 4430 4748 4423 
198 231 528 529 4746 4754 4755 4748 4747 4756 
495 529 198 528 4752 4748 4430 4757 4756 4755 
496 198 529 199 4423 4748 4753 4427 4426 4758 
529 198 232 199 4748 4749 4751 4758 4426 4759 
199 232 530 233 4759 4760 4761 4762 4763 4764 
496 530 497 199 4765 4766 4443 4427 4761 4436 
199 232 529 530 4759 4751 4758 4761 4760 4767 
496 530 199 529 4765 4761 4427 4753 4767 4758 
497 199 530 200 4436 4761 4766 4440 4439 4768 
530 199 233 200 4761 4762 4764 4768 4439 4769 
200 233 531 234 4769 4770 4771 4772 4773 4774 
497 531 498 200 4775 4776 4453 4440 4771 4446 
200 233 530 531 4769 4764 4768 4771 4770 4777 
497 531 200 530 4775 4771 4440 4766 4777 4768 
498 200 531 201 4446 4771 4776 4450 4449 4778 
531 200 234 201 4771 4772 4774 4778 4449 4779 
201 234 532 235 4779 4780 4781 4782 4783 4784 
498 532 499 201 4785 4786 4463 4450 4781 4456 
201 234 531 532 4779 4774 4778 4781 4780 4787 
498 532 201 531 4785 4781 4450 4776 4787 4778 
499 201 532 202 4456 4781 4786 4460 4459 4788 
532 201 235 202 4781 4782 4784 4788 4459 4789 
202 235 533 236 4789 4790 4791 4792 4793 4794 
499 533 500 202 4795 4796 4473 4460 4791 4466 
202 235 532 533 4789 4784 4788 4791 4790 4797 
499 533 202 532 4795 4791 4460 4786 4797 4788 
500 202 533 203 4466 4791 4796 4470 4469 4798 
533 202 236 203 4791 4792 4794 4798 4469 4799 
203 236 534 237 4799 4800 4801 4802 4803 4804 
500 534 501 203 4805 4806 4483 4470 4801 4476 
203 236 533 534 4799 4794 4798 4801 4800 4807 
500 534 203 533 4805 4801 4470 4796 4807 4798 
501 203 534 204 4476 4801 4806 4480 4479 4808 
534 203 237 204 4801 4802 4804 4808 4479 4809 
204 237 535 238 4809 4810 4811 4812 4813 4814 
501 535 502 204 4815 4816 4493 4480 4811 4486 
204 237 534 535 4809 4804 4808 4811 4810 4817 
501 535 204 534 4815 4811 4480 4806 4817 4808 
502 204 535 205 4486 4811 4816 4490 4489 4818 
535 204 238 205 4811 4812 4814 4818 4489 4819 
205 238 536 239 4819 4820 4821 4822 4823 4824 
502 536 503 205 4825 4826 4503 4490 4821 4496 
205 238 535 536 4819 4814 4818 4821 4820 4827 
502 536 205 535 4825 4821 4490 4816 4827 4818 
503 205 536 206 4496 4821 4826 4500 4499 4828 
536 205 239 206 4821 4822 4824 4828 4499 4829 
206 239 537 240 4829 4830 4831 4832 4833 4834 
503 537 504 206 4835 4836 4513 4500 4831 4506 
206 239 536 537 4829 4824 4828 4831 4830 4837 
503 537 206 536 4835 4831 4500 4826 4837 4828 
504 206 537 207 4506 4831 4836 4510 4509 4838 
537 206 240 207 4831 4832 4834 4838 4509 4839 
207 240 538 241 4839 4840 4841 4842 4843 4844 
504 538 505 207 4845 4846 4523 4510 4841 4516 
207 240 537 538 4839 4834 4838 4841 4840 4847 
504 538 207 537 4845 4841 4510 4836 4847 4838 
505 207 538 208 4516 4841 4846 4520 4519 4848 
538 207 241 208 4841 4842 4844 4848 4519 4849 
208 241 539 242 4849 4850 4851 4852 4853 4854 
505 539 506 208 4855 4856 4533 4520 4851 4526 
208 241 538 539 4849 4844 4848 4851 4850 4857 
505 539 208 538 4855 4851 4520 4846 4857 4848 
506 208 539 209 4526 4851 4856 4530 4529 4858 
539 208 242 209 4851 4852 4854 4858 4529 4859 
209 242 540 243 4859 4860 4861 4862 4863 4864 
506 540 507 209 4865 4866 4543 4530 4861 4536 
209 242 539 540 4859 4854 4858 4861 4860 4867 
506 540 209 539 4865 4861 4530 4856 4867 4858 
507 209 540 210 4536 4861 4866 4540 4539 4868 
540 209 243 210 4861 4862 4864 4868 4539 4869 
210 243 541 244 4869 4870 4871 4872 4873 4874 
507 541 508 210 4875 4876 4553 4540 4871 4546 
210 243 540 541 4869 4864 4868 4871 4870 4877 
507 541 210 540 4875 4871 4540 4866 4877 4868 
508 210 541 211 4546 4871 4876 4550 4549 4878 
541 210 244 211 4871 4872 4874 4878 4549 4879 
211 244 542 245 4879 4880 4881 4882 4883 4884 
508 542 509 211 4885 4886 4563 4550 4881 4556 
211 244 541 542 4879 4874 4878 4881 4880 4887 
508 542 211 541 4885 4881 4550 4876 4887 4878 
509 211 542 212 4556 4881 4886 4560 4559 4888 
542 211 245 212 4881 4882 4884 4888 4559 4889 
212 245 543 246 4889 4890 4891 4892 4893 4894 
509 543 510 212 4895 4896 4573 4560 4891 4566 
212 245 542 543 4889 4884 4888 4891 4890 4897 
509 543 212 542 4895 4891 4560 4886 4897 4888 
510 212 543 213 4566 4891 4896 4570 4569 4898 
543 212 246 213 4891 4892 4894 4898 4569 4899 
213 246 544 247 4899 4900 4901 4902 4903 4904 
510 544 511 213 4905 4906 4583 4570 4901 4576 
213 246 543 544 4899 4894 4898 4901 4900 4907 
510 544 213 543 4905 4901 4570 4896 4907 4898 
511 213 544 214 4576 4901 4906 4580 4579 4908 
544 213 247 214 4901 4902 4904 4908 4579 4909 
214 247 545 248 4909 4910 4911 4912 4913 4914 
511 545 512 214 4915 4916 4593 4580 4911 4586 
214 247 544 545 4909 4904 4908 4911 4910 4917 
511 545 214 544 4915 4911 4580 4906 4917 4908 
512 214 545 215 4586 4911 4916 4590 4589 4918 
545 214 248 215 4911 4912 4914 4918 4589 4919 
215 248 546 249 4919 4920 4921 4922 4923 4924 
512 546 513 215 4925 4926 4603 4590 4921 4596 
215 248 545 546 4919 4914 4918 4921 4920 4927 
512 546 215 545 4925 4921 4590 4916 4927 4918 
513 215 546 216 4596 4921 4926 4600 4599 4928 
546 215 249 216 4921 4922 4924 4928 4599 4929 
216 249 547 250 4929 4930 4931 4932 4933 4934 
513 547 514 216 4935 4936 4613 4600 4931 4606 
216 249 546 547 4929 4924 4928 4931 4930 4937 
513 547 216 546 4935 4931 4600 4926 4937 4928 
514 216 547 217 4606 4931 4936 4610 4609 4938 
547 216 250 217 4931 4932 4934 4938 4609 4939 
217 250 548 251 4939 4940 4941 4942 4943 4944 
514 548 515 217 4945 4946 4623 4610 4941 4616 
217 250 547 548 4939 4934 4938 4941 4940 4947 
514 548 217 547 4945 4941 4610 4936 4947 4938 
515 217 548 218 4616 4941 4946 4620 4619 4948 
548 217 251 218 4941 4942 4944 4948 4619 4949 
218 251 549 252 4949 4950 4951 4952 4953 4954 
515 549 516 218 4955 4956 4633 4620 4951 4626 
218 251 548 549 4949 4944 4948 4951 4950 4957 
515 549 218 548 4955 4951 4620 4946 4957 4948 
516 218 549 219 4626 4951 4956 4630 4629 4958 
549 218 252 219 4951 4952 4954 4958 4629 4959 
219 252 550 253 4959 4960 4961 4962 4963 4964 
516 550 517 219 4965 4966 4643 4630 4961 4636 
219 252 549 550 4959 4954 4958 4961 4960 4967 
516 550 219 549 4965 4961 4630 4956 4967 4958 
517 219 550 220 4636 4961 4966 4640 4639 4968 
550 219 253 220 4961 4962 4964 4968 4639 4969 
220 253 551 254 4969 4970 4971 4972 4973 4974 
517 551 518 220 4975 4976 4653 4640 4971 4646 
220 253 550 551 4969 4964 4968 4971 4970 4977 
517 551 220 550 4975 4971 4640 4966 4977 4968 
518 220 551 221 4646 4971 4976 4650 4649 4978 
551 220 254 221 4971 4972 4974 4978 4649 4979 
221 254 552 255 4979 4980 4981 4982 4983 4984 
518 552 519 221 4985 4986 4663 4650 4981 4656 
221 254 551 552 4979 4974 4978 4981 4980 4987 
518 552 221 551 4985 4981 4650 4976 4987 4978 
519 221 552 222 4656 4981 4986 4660 4659 4988 
552 221 255 222 4981 4982 4984 4988 4659 4989 
222 255 553 256 4989 4990 4991 4992 4993 4994 
519 553 520 222 4995 4996 4673 4660 4991 4666 
222 255 552 553 4989 4984 4988 4991 4990 4997 
519 553 222 552 4995 4991 4660 4986 4997 4988 
520 222 553 223 4666 4991 4996 4670 4669 4998 
553 222 256 223 4991 4992 4994 4998 4669 4999 
223 256 554 257 4999 5000 5001 5002 5003 5004 
520 554 521 223 5005 5006 4683 4670 5001 4676 
223 256 553 554 4999 4994 4998 5001 5000 5007 
520 554 223 553 5005 5001 4670 4996 5007 4998 
521 223 554 224 4676 5001 5006 4680 4679 5008 
554 223 257 224 5001 5002 5004 5008 4679 5009 
224 257 555 258 5009 5010 5011 5012 5013 5014 
521 555 522 224 5015 5016 4693 4680 5011 4686 
224 257 554 555 5009 5004 5008 5011 5010 5017 
521 555 224 554 5015 5011 4680 5006 5017 5008 
522 224 555 225 4686 5011 5016 4690 4689 5018 
555 224 258 225 5011 5012 5014 5018 4689 5019 
225 258 556 259 5019 5020 5021 5022 5023 5024 
522 556 523 225 5025 5026 4703 4690 5021 4696 
225 258 555 556 5019 5014 5018 5021 5020 5027 
522 556 225 555 5025 5021 4690 5016 5027 5018 
523 225 556 226 4696 5021 5026 4700 4699 5028 
556 225 259 226 5021 5022 5024 5028 4699 5029 
226 259 557 260 5029 5030 5031 5032 5033 5034 
523 557 524 226 5035 5036 4713 4700 5031 4706 
226 259 556 557 5029 5024 5028 5031 5030 5037 
523 557 226 556 5035 5031 4700 5026 5037 5028 
524 226 557 227 4706 5031 5036 4710 4709 5038 
557 226 260 227 5031 5032 5034 5038 4709 5039 
227 260 558 261 5039 5040 5041 5042 5043 5044 
524 558 525 227 5045 5046 4723 4710 5041 4716 
227 260 557 558 5039 5034 5038 5041 5040 5047 
524 558 227 557 5045 5041 4710 5036 5047 5038 
525 227 558 228 4716 5041 5046 4720 4719 5048 
558 227 261 228 5041 5042 5044 5048 4719 5049 
228 261 559 262 5049 5050 5051 5052 5053 5054 
525 559 526 228 5055 5056 4733 4720 5051 4726 
228 261 558 559 5049 5044 5048 5051 5050 5057 
525 559 228 558 5055 5051 4720 5046 5057 5048 
526 228 559 229 4726 5051 5056 4730 4729 5058 
559 228 262 229 5051 5052 5054 5058 4729 5059 
229 262 560 263 5059 5060 5061 5062 5063 5064 
526 560 527 229 5065 5066 4743 4730 5061 4736 
229 262 559 560 5059 5054 5058 5061 5060 5067 
526 560 229 559 5065 5061 4730 5056 5067 5058 
527 229 560 230 4736 5061 5066 4740 4739 5068 
560 229 263 230 5061 5062 5064 5068 4739 5069 
231 264 562 265 5070 5071 5072 5073 5074 5075 
528 562 529 231 5076 5077 4756 4754 5072 4747 
231 264 561 562 5070 5078 5079 5072 5071 5080 
528 562 231 561 5076 5072 4754 5081 5080 5079 
529 231 562 232 4747 5072 5077 4751 4750 5082 
562 231 265 232 5072 5073 5075 5082 4750 5083 
232 265 563 266 5083 5084 5085 5086 5087 5088 
529 563 530 232 5089 5090 4767 4751 5085 4760 
232 265 562 563 5083 5075 5082 5085 5084 5091 
529 563 232 562 5089 5085 4751 5077 5091 5082 
530 232 563 233 4760 5085 5090 4764 4763 5092 
563 232 266 233 5085 5086 5088 5092 4763 5093 
233 266 564 267 5093 5094 5095 5096 5097 5098 
530 564 531 233 5099 5100 4777 4764 5095 4770 
233 266 563 564 5093 5088 5092 5095 5094 5101 
530 564 233 563 5099 5095 4764 5090 5101 5092 
531 233 564 234 4770 5095 5100 4774 4773 5102 
564 233 267 234 5095 5096 5098 5102 4773 5103 
234 267 565 268 5103 5104 5105 5106 5107 5108 
531 565 532 234 5109 5110 4787 4774 5105 4780 
234 267 564 565 5103 5098 5102 5105 5104 5111 
531 565 234 564 5109 5105 4774 5100 5111 5102 
532 234 565 235 4780 5105 5110 4784 4783 5112 
565 234 268 235 5105 5106 5108 5112 4783 5113 
235 268 566 269 5113 5114 5115 5116 5117 5118 
532 566 533 235 5119 5120 4797 4784 5115 4790 
235 268 565 566 5113 5108 5112 5115 5114 5121 
532 566 235 565 5119 5115 4784 5110 5121 5112 
533 235 566 236 4790 5115 5120 4794 4793 5122 
566 235 269 236 5115 5116 5118 5122 4793 5123 
236 269 567 270 5123 5124 5125 5126 5127 5128 
533 567 534 236 5129 5130 4807 4794 5125 4800 
236 269 566 567 5123 5118 5122 5125 5124 5131 
533 567 236 566 5129 5125 4794 5120 5131 5122 
534 236 567 237 4800 5125 5130 4804 4803 5132 
567 236 270 237 5125 5126 5128 5132 4803 5133 
237 270 568 271 5133 5134 5135 5136 5137 5138 
534 568 535 237 5139 5140 4817 4804 5135 4810 
237 270 567 568 5133 5128 5132 5135 5134 5141 
534 568 237 567 5139 5135 4804 5130 5141 5132 
535 237 568 238 4810 5135 5140 4814 4813 5142 
568 237 271 238 5135 5136 5138 5142 4813 5143 
238 271 569 272 5143 5144 5145 5146 5147 5148 
535 569 536 238 5149 5150 4827 4814 5145 4820 
238 271 568 569 5143 5138 5142 5145 5144 5151 
535 569 238 568 5149 5145 4814 5140 5151 5142 
536 238 569 239 4820 5145 5150 4824 4823 5152 
569 238 272 239 5145 5146 5148 5152 4823 5153 
239 272 570 273 5153 5154 5155 5156 5157 5158 
536 570 537 239 5159 5160 4837 4824 5155 4830 
239 272 569 570 5153 5148 5152 5155 5154 5161 
536 570 239 569 5159 5155 4824 5150 5161 5152 
537 239 570 240 4830 5155 5160 4834 4833 5162 
570 239 273 240 5155 5156 5158 5162 4833 5163 
240 273 571 274 5163 5164 5165 5166 5167 5168 
537 571 538 240 5169 5170 4847 4834 5165 4840 
240 273 570 571 5163 5158 5162 5165 5164 5171 
537 571 240 570 5169 5165 4834 5160 5171 5162 
538 240 571 241 4840 5165 5170 4844 4843 5172 
571 240 274 241 5165 5166 5168 5172 4843 5173 
241 274 572 275 5173 5174 5175 5176 5177 5178 
538 572 539 241 5179 5180 4857 4844 5175 4850 
241 274 571 572 5173 5168 5172 5175 5174 5181 
538 572 241 571 5179 5175 4844 5170 5181 5172 
539 241 572 242 4850 5175 5180 4854 4853 5182 
572 241 275 242 5175 5176 5178 5182 4853 5183 
242 275 573 276 5183 5184 5185 5186 5187 5188 
539 573 540 242 5189 5190 4867 4854 5185 4860 
242 275 572 573 5183 5178 5182 5185 5184 5191 
539 573 242 572 5189 5185 4854 5180 5191 5182 
540 242 573 243 4860 5185 5190 4864 4863 5192 
573 242 276 243 5185 5186 5188 5192 4863 5193 
243 276 574 277 5193 5194 5195 5196 5197 5198 
540 574 541 243 5199 5200 4877 4864 5195 4870 
243 276 573 574 5193 5188 5192 5195 5194 5201 
540 574 243 573 5199 5195 4864 5190 5201 5192 
541 243 574 244 4870 5195 5200 4874 4873 5202 
574 243 277 244 5195 5196 5198 5202 4873 5203 
244 277 575 278 5203 5204 5205 5206 5207 5208 
541 575 542 244 5209 5210 4887 4874 5205 4880 
244 277 574 575 5203 5198 5202 5205 5204 5211 
541 575 244 574 5209 5205 4874 5200 5211 5202 
542 244 575 245 4880 5205 5210 4884 4883 5212 
575 244 278 245 5205 5206 5208 5212 4883 5213 
245 278 576 279 5213 5214 5215 5216 5217 5218 
542 576 543 245 5219 5220 4897 4884 5215 4890 
245 278 575 576 5213 5208 5212 5215 5214 5221 
542 576 245 575 5219 5215 4884 5210 5221 5212 
543 245 576 246 4890 5215 5220 4894 4893 5222 
576 245 279 246 5215 5216 5218 5222 4893 5223 
246 279 577 280 5223 5224 5225 5226 5227 5228 
543 577 544 246 5229 5230 4907 4894 5225 4900 
246 279 576 577 5223 5218 5222 5225 5224 5231 
543 577 246 576 5229 5225 4894 5220 5231 5222 
544 246 577 247 4900 5225 5230 4904 4903 5232 
577 246 280 247 5225 5226 5228 5232 4903 5233 
247 280 578 281 5233 5234 5235 5236 5237 5238 
544 578 545 247 5239 5240 4917 4904 5235 4910 
247 280 577 578 5233 5228 5232 5235 5234 5241 
544 578 247 577 5239 5235 4904 5230 5241 5232 
545 247 578 248 4910 5235 5240 4914 4913 5242 
578 247 281 248 5235 5236 5238 5242 4913 5243 
248 281 579 282 5243 5244 5245 5246 5247 5248 
545 579 546 248 5249 5250 4927 4914 5245 4920 
248 281 578 579 5243 5238 5242 5245 5244 5251 
545 579 248 578 5249 5245 4914 5240 5251 5242 
546 248 579 249 4920 5245 5250 4924 4923 5252 
579 248 282 249 5245 5246 5248 5252 4923 5253 
249 282 580 283 5253 5254 5255 5256 5257 5258 
546 580 547 249 5259 5260 4937 4924 5255 4930 
249 282 579 580 5253 5248 5252 5255 5254 5261 
546 580 249 579 5259 5255 4924 5250 5261 5252 
547 249 580 250 4930 5255 5260 4934 4933 5262 
580 249 283 250 5255 5256 5258 5262 4933 5263 
250 283 581 284 5263 5264 5265 5266 5267 5268 
547 581 548 250 5269 5270 4947 4934 5265 4940 
250 283 580 581 5263 5258 5262 5265 5264 5271 
547 581 250 580 5269 5265 4934 5260 5271 5262 
548 250 581 251 4940 5265 5270 4944 4943 5272 
581 250 284 251 5265 5266 5268 5272 4943 5273 
251 284 582 285 5273 5274 5275 5276 5277 5278 
548 582 549 251 5279 5280 4957 4944 5275 4950 
251 284 581 582 5273 5268 5272 5275 5274 5281 
548 582 251 581 5279 5275 4944 5270 5281 5272 
549 251 582 252 4950 5275 5280 4954 4953 5282 
582 251 285 252 5275 5276 5278 5282 4953 5283 
252 285 583 286 5283 5284 5285 5286 5287 5288 
549 583 550 252 5289 5290 4967 4954 5285 4960 
252 285 582 583 5283 5278 5282 5285 5284 5291 
549 583 252 582 5289 5285 4954 5280 5291 5282 
550 252 583 253 4960 5285 5290 4964 4963 5292 
583 252 286 253 5285 5286 5288 5292 4963 5293 
253 286 584 287 5293 5294 5295 5296 5297 5298 
550 584 551 253 5299 5300 4977 4964 5295 4970 
253 286 583 584 5293 5288 5292 5295 5294 5301 
550 584 253 583 5299 5295 4964 5290 5301 5292 
551 253 584 254 4970 5295 5300 4974 4973 5302 
584 253 287 254 5295 5296 5298 5302 4973 5303 
254 287 585 288 5303 5304 5305 5306 5307 5308 
551 585 552 254 5309 5310 4987 4974 5305 4980 
254 287 584 585 5303 5298 5302 5305 5304 5311 
551 585 254 584 5309 5305 4974 5300 5311 5302 
552 254 585 255 4980 5305 5310 4984 4983 5312 
585 254 288 255 5305 5306 5308 5312 4983 5313 
255 288 586 289 5313 5314 5315 5316 5317 5318 
552 586 553 255 5319 5320 4997 4984 5315 4990 
255 288 585 586 5313 5308 5312 5315 5314 5321 
552 586 255 585 5319 5315 4984 5310 5321 5312 
553 255 586 256 4990 5315 5320 4994 4993 5322 
586 255 289 256 5315 5316 5318 5322 4993 5323 
256 289 587 290 5323 5324 5325 5326 5327 5328 
553 587 554 256 5329 5330 5007 4994 5325 5000 
256 289 586 587 5323 5318 5322 5325 5324 5331 
553 587 256 586 5329 5325 4994 5320 5331 5322 
554 256 587 257 5000 5325 5330 5004 5003 5332 
587 256 290 257 5325 5326 5328 5332 5003 5333 
257 290 588 291 5333 5334 5335 5336 5337 5338 
554 588 555 257 5339 5340 5017 5004 5335 5010 
257 290 587 588 5333 5328 5332 5335 5334 5341 
554 588 257 587 5339 5335 5004 5330 5341 5332 
555 257 588 258 5010 5335 5340 5014 5013 5342 
588 257 291 258 5335 5336 5338 5342 5013 5343 
258 291 589 292 5343 5344 5345 5346 5347 5348 
555 589 556 258 5349 5350 5027 5014 5345 5020 
258 291 588 589 5343 5338 5342 5345 5344 5351 
555 589 258 588 5349 5345 5014 5340 5351 5342 
556 258 589 259 5020 5345 5350 5024 5023 5352 
589 258 292 259 5345 5346 5348 5352 5023 5353 
259 292 590 293 5353 5354 5355 5356 5357 5358 
556 590 557 259 5359 5360 5037 5024 5355 5030 
259 292 589 590 5353 5348 5352 5355 5354 5361 
556 590 259 589 5359 5355 5024 5350 5361 5352 
557 259 590 260 5030 5355 5360 5034 5033 5362 
590 259 293 260 5355 5356 5358 5362 5033 5363 
260 293 591 294 5363 5364 5365 5366 5367 5368 
557 591 558 260 5369 5370 5047 5034 5365 5040 
260 293 590 591 5363 5358 5362 5365 5364 5371 
557 591 260 590 5369 5365 5034 5360 5371 5362 
558 260 591 261 5040 5365 5370 5044 5043 5372 
591 260 294 261 5365 5366 5368 5372 5043 5373 
261 294 592 295 5373 5374 5375 5376 5377 5378 
558 592 559 261 5379 5380 5057 5044 5375 5050 
261 294 591 592 5373 5368 5372 5375 5374 5381 
558 592 261 591 5379 5375 5044 5370 5381 5372 
559 261 592 262 5050 5375 5380 5054 5053 5382 
592 261 295 262 5375 5376 5378 5382 5053 5383 
262 295 593 296 5383 5384 5385 5386 5387 5388 
559 593 560 262 5389 5390 5067 5054 5385 5060 
262 295 592 593 5383 5378 5382 5385 5384 5391 
559 593 262 592 5389 5385 5054 5380 5391 5382 
560 262 593 263 5060 5385 5390 5064 5063 5392 
593 262 296 263 5385 5386 5388 5392 5063 5393 
297 330 628 331 2687 5394 5395 2679 2686 5396 
594 628 595 297 5397 5398 5399 5400 5395 5401 
297 330 627 628 2687 5402 5403 5395 5394 5404 
594 628 297 627 5397 5395 5400 5405 5404 5403 
595 297 628 298 5401 5395 5398 5406 2681 5407 
628 297 331 298 5395 2679 5396 5407 2681 2680 
298 331 629 332 2680 5408 5409 2697 2701 5410 
595 629 596 298 5411 5412 5413 5406 5409 5414 
298 331 628 629 2680 5396 5407 5409 5408 5415 
595 629 298 628 5411 5409 5406 5398 5415 5407 
596 298 629 299 5414 5409 5412 5416 2699 5417 
629 298 332 299 5409 2697 5410 5417 2699 2698 
299 332 630 333 2698 5418 5419 2711 2715 5420 
596 630 597 299 5421 5422 5423 5416 5419 5424 
299 332 629 630 2698 5410 5417 5419 5418 5425 
596 630 299 629 5421 5419 5416 5412 5425 5417 
597 299 630 300 5424 5419 5422 5426 2713 5427 
630 299 333 300 5419 2711 5420 5427 2713 2712 
300 333 631 334 2712 5428 5429 2725 2729 5430 
597 631 598 300 5431 5432 5433 5426 5429 5434 
300 333 630 631 2712 5420 5427 5429 5428 5435 
597 631 300 630 5431 5429 5426 5422 5435 5427 
598 300 631 301 5434 5429 5432 5436 2727 5437 
631 300 334 301 5429 2725 5430 5437 2727 2726 
301 334 632 335 2726 5438 5439 2739 2743 5440 
598 632 599 301 5441 5442 5443 5436 5439 5444 
301 334 631 632 2726 5430 5437 5439 5438 5445 
598 632 301 631 5441 5439 5436 5432 5445 5437 
599 301 632 302 5444 5439 5442 5446 2741 5447 
632 301 335 302 5439 2739 5440 5447 2741 2740 
302 335 633 336 2740 5448 5449 2753 2757 5450 
599 633 600 302 5451 5452 5453 5446 5449 5454 
302 335 632 633 2740 5440 5447 5449 5448 5455 
599 633 302 632 5451 5449 5446 5442 5455 5447 
600 302 633 303 5454 5449 5452 5456 2755 5457 
633 302 336 303 5449 2753 5450 5457 2755 2754 
303 336 634 337 2754 5458 5459 2767 2771 5460 
600 634 601 303 5461 5462 5463 5456 5459 5464 
303 336 633 634 2754 5450 5457 5459 5458 5465 
600 634 303 633 5461 5459 5456 5452 5465 5457 
601 303 634 304 5464 5459 5462 5466 2769 5467 
634 303 337 304 5459 2767 5460 5467 2769 2768 
304 337 635 338 2768 5468 5469 2781 2785 5470 
601 635 602 304 5471 5472 5473 5466 5469 5474 
304 337 634 635 2768 5460 5467 5469 5468 5475 
601 635 304 634 5471 5469 5466 5462 5475 5467 
602 304 635 305 5474 5469 5472 5476 2783 5477 
635 304 338 305 5469 2781 5470 5477 2783 2782 
305 338 636 339 2782 5478 5479 2795 2799 5480 
602 636 603 305 5481 5482 5483 5476 5479 5484 
305 338 635 636 2782 5470 5477 5479 5478 5485 
602 636 305 635 5481 5479 5476 5472 5485 5477 
603 305 636 306 5484 5479 5482 5486 2797 5487 
636 305 339 306 5479 2795 5480 5487 2797 2796 
306 339 637 340 2796 5488 5489 2809 2813 5490 
603 637 604 306 5491 5492 5493 5486 5489 5494 
306 339 636 637 2796 5480 5487 5489 5488 5495 
603 637 306 636 5491 5489 5486 5482 5495 5487 
604 306 637 307 5494 5489 5492 5496 2811 5497 
637 306 340 307 5489 2809 5490 5497 2811 2810 
307 340 638 341 2810 5498 5499 2823 2827 5500 
604 638 605 307 5501 5502 5503 5496 5499 5504 
307 340 637 638 2810 5490 5497 5499 5498 5505 
604 638 307 637 5501 5499 5496 5492 5505 5497 
605 307 638 308 5504 5499 5502 5506 2825 5507 
638 307 341 308 5499 2823 5500 5507 2825 2824 
308 341 639 342 2824 5508 5509 2837 2841 5510 
605 639 606 308 5511 5512 5513 5506 5509 5514 
308 341 638 639 2824 5500 5507 5509 5508 5515 
605 639 308 638 5511 5509 5506 5502 5515 5507 
606 308 639 309 5514 5509 5512 5516 2839 5517 
639 308 342 309 5509 2837 5510 5517 2839 2838 
309 342 640 343 2838 5518 5519 2851 2855 5520 
606 640 607 309 5521 5522 5523 5516 5519 5524 
309 342 639 640 2838 5510 5517 5519 5518 5525 
606 640 309 639 5521 5519 5516 5512 5525 5517 
607 309 640 310 5524 5519 5522 5526 2853 5527 
640 309 343 310 5519 2851 5520 5527 2853 2852 
310 343 641 344 2852 5528 5529 2865 2869 5530 
607 641 608 310 5531 5532 5533 5526 5529 5534 
310 343 640 641 2852 5520 5527 5529 5528 5535 
607 641 310 640 5531 5529 5526 5522 5535 5527 
608 310 641 311 5534 5529 5532 5536 2867 5537 
641 310 344 311 5529 2865 5530 5537 2867 2866 
311 344 642 345 2866 5538 5539 2879 2883 5540 
608 642 609 311 5541 5542 5543 5536 5539 5544 
311 344 641 642 2866 5530 5537 5539 5538 5545 
608 642 311 641 5541 5539 5536 5532 5545 5537 
609 311 642 312 5544 5539 5542 5546 2881 5547 
642 311 345 312 5539 2879 5540 5547 2881 2880 
312 345 643 346 2880 5548 5549 2893 2897 5550 
609 643 610 312 5551 5552 5553 5546 5549 5554 
312 345 642 643 2880 5540 5547 5549 5548 5555 
609 643 312 642 5551 5549 5546 5542 5555 5547 
610 312 643 313 5554 5549 5552 5556 2895 5557 
643 312 346 313 5549 2893 5550 5557 2895 2894 
313 346 644 347 2894 5558 5559 2907 2911 5560 
610 644 611 313 5561 5562 5563 5556 5559 5564 
313 346 643 644 2894 5550 5557 5559 5558 5565 
610 644 313 643 5561 5559 5556 5552 5565 5557 
611 313 644 314 5564 5559 5562 5566 2909 5567 
644 313 347 314 5559 2907 5560 5567 2909 2908 
314 347 645 348 2908 5568 5569 2921 2925 5570 
611 645 612 314 5571 5572 5573 5566 5569 5574 
314 347 644 645 2908 5560 5567 5569 5568 5575 
611 645 314 644 5571 5569 5566 5562 5575 5567 
612 314 645 315 5574 5569 5572 5576 2923 5577 
645 314 348 315 5569 2921 5570 5577 2923 2922 
315 348 646 349 2922 5578 5579 2935 2939 5580 
612 646 613 315 5581 5582 5583 5576 5579 5584 
315 348 645 646 2922 5570 5577 5579 5578 5585 
612 646 315 645 5581 5579 5576 5572 5585 5577 
613 315 646 316 5584 5579 5582 5586 2937 5587 
646 315 349 316 5579 2935 5580 5587 2937 2936 
316 349 647 350 2936 5588 5589 2949 2953 5590 
613 647 614 316 5591 5592 5593 5586 5589 5594 
316 349 646 647 2936 5580 5587 5589 5588 5595 
613 647 316 646 5591 5589 5586 5582 5595 5587 
614 316 647 317 5594 5589 5592 5596 2951 5597 
647 316 350 317 5589 2949 5590 5597 2951 2950 
317 350 648 351 2950 5598 5599 2963 2967 5600 
614 648 615 317 5601 5602 5603 5596 5599 5604 
317 350 647 648 2950 5590 5597 5599 5598 5605 
614 648 317 647 5601 5599 5596 5592 5605 5597 
615 317 648 318 5604 5599 5602 5606 2965 5607 
648 317 351 318 5599 2963 5600 5607 2965 2964 
318 351 649 352 2964 5608 5609 2977 2981 5610 
615 649 616 318 5611 5612 5613 5606 5609 5614 
318 351 648 649 2964 5600 5607 5609 5608 5615 
615 649 318 648 5611 5609 5606 5602 5615 5607 
616 318 649 319 5614 5609 5612 5616 2979 5617 
649 318 352 319 5609 2977 5610 5617 2979 2978 
319 352 650 353 2978 5618 5619 2991 2995 5620 
616 650 617 319 5621 5622 5623 5616 5619 5624 
319 352 649 650 2978 5610 5617 5619 5618 5625 
616 650 319 649 5621 5619 5616 5612 5625 5617 
617 319 650 320 5624 5619 5622 5626 2993 5627 
650 319 353 320 5619 2991 5620 5627 2993 2992 
320 353 651 354 2992 5628 5629 3005 3009 5630 
617 651 618 320 5631 5632 5633 5626 5629 5634 
320 353 650 651 2992 5620 5627 5629 5628 5635 
617 651 320 650 5631 5629 5626 5622 5635 5627 
618 320 651 321 5634 5629 5632 5636 3007 5637 
651 320 354 321 5629 3005 5630 5637 3007 3006 
321 354 652 355 3006 5638 5639 3019 3023 5640 
618 652 619 321 5641 5642 5643 5636 5639 5644 
321 354 651 652 3006 5630 5637 5639 5638 5645 
618 652 321 651 5641 5639 5636 5632 5645 5637 
619 321 652 322 5644 5639 5642 5646 3021 5647 
652 321 355 322 5639 3019 5640 5647 3021 3020 
322 355 653 356 3020 5648 5649 3033 3037 5650 
619 653 620 322 5651 5652 5653 5646 5649 5654 
322 355 652 653 3020 5640 5647 5649 5648 5655 
619 653 322 652 5651 5649 5646 5642 5655 5647 
620 322 653 323 5654 5649 5652 5656 3035 5657 
653 322 356 323 5649 3033 5650 5657 3035 3034 
323 356 654 357 3034 5658 5659 3047 3051 5660 
620 654 621 323 5661 5662 5663 5656 5659 5664 
323 356 653 654 3034 5650 5657 5659 5658 5665 
620 654 323 653 5661 5659 5656 5652 5665 5657 
621 323 654 324 5664 5659 5662 5666 3049 5667 
654 323 357 324 5659 3047 5660 5667 3049 3048 
324 357 655 358 3048 5668 5669 3061 3065 5670 
621 655 622 324 5671 5672 5673 5666 5669 5674 
324 357 654 655 3048 5660 5667 5669 5668 5675 
621 655 324 654 5671 5669 5666 5662 5675 5667 
622 324 655 325 5674 5669 5672 5676 3063 5677 
655 324 358 325 5669 3061 5670 5677 3063 3062 
325 358 656 359 3062 5678 5679 3075 3079 5680 
622 656 623 325 5681 5682 5683 5676 5679 5684 
325 358 655 656 3062 5670 5677 5679 5678 5685 
622 656 325 655 5681 5679 5676 5672 5685 5677 
623 325 656 326 5684 5679 5682 5686 3077 5687 
656 325 359 326 5679 3075 5680 5687 3077 3076 
326 359 657 360 3076 5688 5689 3089 3093 5690 
623 657 624 326 5691 5692 5693 5686 5689 5694 
326 359 656 657 3076 5680 5687 5689 5688 5695 
623 657 326 656 5691 5689 5686 5682 5695 5687 
624 326 657 327 5694 5689 5692 5696 3091 5697 
657 326 360 327 5689 3089 5690 5697 3091 3090 
327 360 658 361 3090 5698 5699 3103 3107 5700 
624 658 625 327 5701 5702 5703 5696 5699 5704 
327 360 657 658 3090 5690 5697 5699 5698 5705 
624 658 327 657 5701 5699 5696 5692 5705 5697 
625 327 658 328 5704 5699 5702 5706 3105 5707 
658 327 361 328 5699 3103 5700 5707 3105 3104 
328 361 659 362 3104 5708 5709 3117 3121 5710 
625 659 626 328 5711 5712 5713 5706 5709 5714 
328 361 658 659 3104 5700 5707 5709 5708 5715 
625 659 328 658 5711 5709 5706 5702 5715 5707 
626 328 659 329 5714 5709 5712 5716 3119 5717 
659 328 362 329 5709 3117 5710 5717 3119 3118 
330 363 661 364 3137 5718 5719 3132 3136 5720 
627 661 628 330 5721 5722 5404 5402 5719 5394 
330 363 660 661 3137 5723 5724 5719 5718 5725 
627 661 330 660 5721 5719 5402 5726 5725 5724 
628 330 661 331 5394 5719 5722 5396 2686 5727 
661 330 364 331 5719 3132 5720 5727 2686 3133 
331 364 662 365 3133 5728 5729 3145 3147 5730 
628 662 629 331 5731 5732 5415 5396 5729 5408 
331 364 661 662 3133 5720 5727 5729 5728 5733 
628 662 331 661 5731 5729 5396 5722 5733 5727 
629 331 662 332 5408 5729 5732 5410 2701 5734 
662 331 365 332 5729 3145 5730 5734 2701 3146 
332 365 663 366 3146 5735 5736 3155 3157 5737 
629 663 630 332 5738 5739 5425 5410 5736 5418 
332 365 662 663 3146 5730 5734 5736 5735 5740 
629 663 332 662 5738 5736 5410 5732 5740 5734 
630 332 663 333 5418 5736 5739 5420 2715 5741 
663 332 366 333 5736 3155 5737 5741 2715 3156 
333 366 664 367 3156 5742 5743 3165 3167 5744 
630 664 631 333 5745 5746 5435 5420 5743 5428 
333 366 663 664 3156 5737 5741 5743 5742 5747 
630 664 333 663 5745 5743 5420 5739 5747 5741 
631 333 664 334 5428 5743 5746 5430 2729 5748 
664 333 367 334 5743 3165 5744 5748 2729 3166 
334 367 665 368 3166 5749 5750 3175 3177 5751 
631 665 632 334 5752 5753 5445 5430 5750 5438 
334 367 664 665 3166 5744 5748 5750 5749 5754 
631 665 334 664 5752 5750 5430 5746 5754 5748 
632 334 665 335 5438 5750 5753 5440 2743 5755 
665 334 368 335 5750 3175 5751 5755 2743 3176 
335 368 666 369 3176 5756 5757 3185 3187 5758 
632 666 633 335 5759 5760 5455 5440 5757 5448 
335 368 665 666 3176 5751 5755 5757 5756 5761 
632 666 335 665 5759 5757 5440 5753 5761 5755 
633 335 666 336 5448 5757 5760 5450 2757 5762 
666 335 369 336 5757 3185 5758 5762 2757 3186 
336 369 667 370 3186 5763 5764 3195 3197 5765 
633 667 634 336 5766 5767 5465 5450 5764 5458 
336 369 666 667 3186 5758 5762 5764 5763 5768 
633 667 336 666 5766 5764 5450 5760 5768 5762 
634 336 667 337 5458 5764 5767 5460 2771 5769 
667 336 370 337 5764 3195 5765 5769 2771 3196 
337 370 668 371 3196 5770 5771 3205 3207 5772 
634 668 635 337 5773 5774 5475 5460 5771 5468 
337 370 667 668 3196 5765 5769 5771 5770 5775 
634 668 337 667 5773 5771 5460 5767 5775 5769 
635 337 668 338 5468 5771 5774 5470 2785 5776 
668 337 371 338 5771 3205 5772 5776 2785 3206 
338 371 669 372 3206 5777 5778 3215 3217 5779 
635 669 636 338 5780 5781 5485 5470 5778 5478 
338 371 668 669 3206 5772 5776 5778 5777 5782 
635 669 338 668 5780 5778 5470 5774 5782 5776 
636 338 669 339 5478 5778 5781 5480 2799 5783 
669 338 372 339 5778 3215 5779 5783 2799 3216 
339 372 670 373 3216 5784 5785 3225 3227 5786 
636 670 637 339 5787 5788 5495 5480 5785 5488 
339 372 669 670 3216 5779 5783 5785 5784 5789 
636 670 339 669 5787 5785 5480 5781 5789 5783 
637 339 670 340 5488 5785 5788 5490 2813 5790 
670 339 373 340 5785 3225 5786 5790 2813 3226 
340 373 671 374 3226 5791 5792 3235 3237 5793 
637 671 638 340 5794 5795 5505 5490 5792 5498 
340 373 670 671 3226 5786 5790 5792 5791 5796 
637 671 340 670 5794 5792 5490 5788 5796 5790 
638 340 671 341 5498 5792 5795 5500 2827 5797 
671 340 374 341 5792 3235 5793 5797 2827 3236 
341 374 672 375 3236 5798 5799 3245 3247 5800 
638 672 639 341 5801 5802 5515 5500 5799 5508 
341 374 671 672 3236 5793 5797 5799 5798 5803 
638 672 341 671 5801 5799 5500 5795 5803 5797 
639 341 672 342 5508 5799 5802 5510 2841 5804 
672 341 375 342 5799 3245 5800 5804 2841 3246 
342 375 673 376 3246 5805 5806 3255 3257 5807 
639 673 640 342 5808 5809 5525 5510 5806 5518 
342 375 672 673 3246 5800 5804 5806 5805 5810 
639 673 342 672 5808 5806 5510 5802 5810 5804 
640 342 673 343 5518 5806 5809 5520 2855 5811 
673 342 376 343 5806 3255 5807 5811 2855 3256 
343 376 674 377 3256 5812 5813 3265 3267 5814 
640 674 641 343 5815 5816 5535 5520 5813 5528 
343 376 673 674 3256 5807 5811 5813 5812 5817 
640 674 343 673 5815 5813 5520 5809 5817 5811 
641 343 674 344 5528 5813 5816 5530 2869 5818 
674 343 377 344 5813 3265 5814 5818 2869 3266 
344 377 675 378 3266 5819 5820 3275 3277 5821 
641 675 642 344 5822 5823 5545 5530 5820 5538 
344 377 674 675 3266 5814 5818 5820 5819 5824 
641 675 344 674 5822 5820 5530 5816 5824 5818 
642 344 675 345 5538 5820 5823 5540 2883 5825 
675 344 378 345 5820 3275 5821 5825 2883 3276 
345 378 676 379 3276 5826 5827 3285 3287 5828 
642 676 643 345 5829 5830 5555 5540 5827 5548 
345 378 675 676 3276 5821 5825 5827 5826 5831 
642 676 345 675 5829 5827 5540 5823 5831 5825 
643 345 676 346 5548 5827 5830 5550 2897 5832 
676 345 379 346 5827 3285 5828 5832 2897 3286 
346 379 677 380 3286 5833 5834 3295 3297 5835 
643 677 644 346 5836 5837 5565 5550 5834 5558 
346 379 676 677 3286 5828 5832 5834 5833 5838 
643 677 346 676 5836 5834 5550 5830 5838 5832 
644 346 677 347 5558 5834 5837 5560 2911 5839 
677 346 380 347 5834 3295 5835 5839 2911 3296 
347 380 678 381 3296 5840 5841 3305 3307 5842 
644 678 645 347 5843 5844 5575 5560 5841 5568 
347 380 677 678 3296 5835 5839 5841 5840 5845 
644 678 347 677 5843 5841 5560 5837 5845 5839 
645 347 678 348 5568 5841 5844 5570 2925 5846 
678 347 381 348 5841 3305 5842 5846 2925 3306 
348 381 679 382 3306 5847 5848 3315 3317 5849 
645 679 646 348 5850 5851 5585 5570 5848 5578 
348 381 678 679 3306 5842 5846 5848 5847 5852 
645 679 348 678 5850 5848 5570 5844 5852 5846 
646 348 679 349 5578 5848 5851 5580 2939 5853 
679 348 382 349 5848 3315 5849 5853 2939 3316 
349 382 680 383 3316 5854 5855 3325 3327 5856 
646 680 647 349 5857 5858 5595 5580 5855 5588 
349 382 679 680 3316 5849 5853 5855 5854 5859 
646 680 349 679 5857 5855 5580 5851 5859 5853 
647 349 680 350 5588 5855 5858 5590 2953 5860 
680 349 383 350 5855 3325 5856 5860 2953 3326 
350 383 681 384 3326 5861 5862 3335 3337 5863 
647 681 648 350 5864 5865 5605 5590 5862 5598 
350 383 680 681 3326 5856 5860 5862 5861 5866 
647 681 350 680 5864 5862 5590 5858 5866 5860 
648 350 681 351 5598 5862 5865 5600 2967 5867 
681 350 384 351 5862 3335 5863 5867 2967 3336 
351 384 682 385 3336 5868 5869 3345 3347 5870 
648 682 649 351 5871 5872 5615 5600 5869 5608 
351 384 681 682 3336 5863 5867 5869 5868 5873 
648 682 351 681 5871 5869 5600 5865 5873 5867 
649 351 682 352 5608 5869 5872 5610 2981 5874 
682 351 385 352 5869 3345 5870 5874 2981 3346 
352 385 683 386 3346 5875 5876 3355 3357 5877 
649 683 650 352 5878 5879 5625 5610 5876 5618 
352 385 682 683 3346 5870 5874 5876 5875 5880 
649 683 352 682 5878 5876 5610 5872 5880 5874 
650 352 683 353 5618 5876 5879 5620 2995 5881 
683 352 386 353 5876 3355 5877 5881 2995 3356 
353 386 684 387 3356 5882 5883 3365 3367 5884 
650 684 651 353 5885 5886 5635 5620 5883 5628 
353 386 683 684 3356 5877 5881 5883 5882 5887 
650 684 353 683 5885 5883 5620 5879 5887 5881 
651 353 684 354 5628 5883 5886 5630 3009 5888 
684 353 387 354 5883 3365 5884 5888 3009 3366 
354 387 685 388 3366 5889 5890 3375 3377 5891 
651 685 652 354 5892 5893 5645 5630 5890 5638 
354 387 684 685 3366 5884 5888 5890 5889 5894 
651 685 354 684 5892 5890 5630 5886 5894 5888 
652 354 685 355 5638 5890 5893 5640 3023 5895 
685 354 388 355 5890 3375 5891 5895 3023 3376 
355 388 686 389 3376 5896 5897 3385 3387 5898 
652 686 653 355 5899 5900 5655 5640 5897 5648 
355 388 685 686 3376 5891 5895 5897 5896 5901 
652 686 355 685 5899 5897 5640 5893 5901 5895 
653 355 686 356 5648 5897 5900 5650 3037 5902 
686 355 389 356 5897 3385 5898 5902 3037 3386 
356 389 687 390 3386 5903 5904 3395 3397 5905 
653 687 654 356 5906 5907 5665 5650 5904 5658 
356 389 686 687 3386 5898 5902 5904 5903 5908 
653 687 356 686 5906 5904 5650 5900 5908 5902 
654 356 687 357 5658 5904 5907 5660 3051 5909 
687 356 390 357 5904 3395 5905 5909 3051 3396 
357 390 688 391 3396 5910 5911 3405 3407 5912 
654 688 655 357 5913 5914 5675 5660 5911 5668 
357 390 687 688 3396 5905 5909 5911 5910 5915 
654 688 357 687 5913 5911 5660 5907 5915 5909 
655 357 688 358 5668 5911 5914 5670 3065 5916 
688 357 391 358 5911 3405 5912 5916 3065 3406 
358 391 689 392 3406 5917 5918 3415 3417 5919 
655 689 656 358 5920 5921 5685 5670 5918 5678 
358 391 688 689 3406 5912 5916 5918 5917 5922 
655 689 358 688 5920 5918 5670 5914 5922 5916 
656 358 689 359 5678 5918 5921 5680 3079 5923 
689 358 392 359 5918 3415 5919 5923 3079 3416 
359 392 690 393 3416 5924 5925 3425 3427 5926 
656 690 657 359 5927 5928 5695 5680 5925 5688 
359 392 689 690 3416 5919 5923 5925 5924 5929 
656 690 359 689 5927 5925 5680 5921 5929 5923 
657 359 690 360 5688 5925 5928 5690 3093 5930 
690 359 393 360 5925 3425 5926 5930 3093 3426 
360 393 691 394 3426 5931 5932 3435 3437 5933 
657 691 658 360 5934 5935 5705 5690 5932 5698 
360 393 690 691 3426 5926 5930 5932 5931 5936 
657 691 360 690 5934 5932 5690 5928 5936 5930 
658 360 691 361 5698 5932 5935 5700 3107 5937 
691 360 394 361 5932 3435 5933 5937 3107 3436 
361 394 692 395 3436 5938 5939 3445 3447 5940 
658 692 659 361 5941 5942 5715 5700 5939 5708 
361 394 691 692 3436 5933 5937 5939 5938 5943 
658 692 361 691 5941 5939 5700 5935 5943 5937 
659 361 692 362 5708 5939 5942 5710 3121 5944 
692 361 395 362 5939 3445 5940 5944 3121 3446 
363 396 694 397 3461 5945 5946 3456 3460 5947 
660 694 661 363 5948 5949 5725 5723 5946 5718 
363 396 693 694 3461 5950 5951 5946 5945 5952 
660 694 363 693 5948 5946 5723 5953 5952 5951 
661 363 694 364 5718 5946 5949 5720 3136 5954 
694 363 397 364 5946 3456 5947 5954 3136 3457 
364 397 695 398 3457 5955 5956 3469 3471 5957 
661 695 662 364 5958 5959 5733 5720 5956 5728 
364 397 694 695 3457 5947 5954 5956 5955 5960 
661 695 364 694 5958 5956 5720 5949 5960 5954 
662 364 695 365 5728 5956 5959 5730 3147 5961 
695 364 398 365 5956 3469 5957 5961 3147 3470 
365 398 696 399 3470 5962 5963 3479 3481 5964 
662 696 663 365 5965 5966 5740 5730 5963 5735 
365 398 695 696 3470 5957 5961 5963 5962 5967 
662 696 365 695 5965 5963 5730 5959 5967 5961 
663 365 696 366 5735 5963 5966 5737 3157 5968 
696 365 399 366 5963 3479 5964 5968 3157 3480 
366 399 697 400 3480 5969 5970 3489 3491 5971 
663 697 664 366 5972 5973 5747 5737 5970 5742 
366 399 696 697 3480 5964 5968 5970 5969 5974 
663 697 366 696 5972 5970 5737 5966 5974 5968 
664 366 697 367 5742 5970 5973 5744 3167 5975 
697 366 400 367 5970 3489 5971 5975 3167 3490 
367 400 698 401 3490 5976 5977 3499 3501 5978 
664 698 665 367 5979 5980 5754 5744 5977 5749 
367 400 697 698 3490 5971 5975 5977 5976 5981 
664 698 367 697 5979 5977 5744 5973 5981 5975 
665 367 698 368 5749 5977 5980 5751 3177 5982 
698 367 401 368 5977 3499 5978 5982 3177 3500 
368 401 699 402 3500 5983 5984 3509 3511 5985 
665 699 666 368 5986 5987 5761 5751 5984 5756 
368 401 698 699 3500 5978 5982 5984 5983 5988 
665 699 368 698 5986 5984 5751 5980 5988 5982 
666 368 699 369 5756 5984 5987 5758 3187 5989 
699 368 402 369 5984 3509 5985 5989 3187 3510 
369 402 700 403 3510 5990 5991 3519 3521 5992 
666 700 667 369 5993 5994 5768 5758 5991 5763 
369 402 699 700 3510 5985 5989 5991 5990 5995 
666 700 369 699 5993 5991 5758 5987 5995 5989 
667 369 700 370 5763 5991 5994 5765 3197 5996 
700 369 403 370 5991 3519 5992 5996 3197 3520 
370 403 701 404 3520 5997 5998 3529 3531 5999 
667 701 668 370 6000 6001 5775 5765 5998 5770 
370 403 700 701 3520 5992 5996 5998 5997 6002 
667 701 370 700 6000 5998 5765 5994 6002 5996 
668 370 701 371 5770 5998 6001 5772 3207 6003 
701 370 404 371 5998 3529 5999 6003 3207 3530 
371 404 702 405 3530 6004 6005 3539 3541 6006 
668 702 669 371 6007 6008 5782 5772 6005 5777 
371 404 701 702 3530 5999 6003 6005 6004 6009 
668 702 371 701 6007 6005 5772 6001 6009 6003 
669 371 702 372 5777 6005 6008 5779 3217 6010 
702 371 405 372 6005 3539 6006 6010 3217 3540 
372 405 703 406 3540 6011 6012 3549 3551 6013 
669 703 670 372 6014 6015 5789 5779 6012 5784 
372 405 702 703 3540 6006 6010 6012 6011 6016 
669 703 372 702 6014 6012 5779 6008 6016 6010 
670 372 703 373 5784 6012 6015 5786 3227 6017 
703 372 406 373 6012 3549 6013 6017 3227 3550 
373 406 704 407 3550 6018 6019 3559 3561 6020 
670 704 671 373 6021 6022 5796 5786 6019 5791 
373 406 703 704 3550 6013 6017 6019 6018 6023 
670 704 373 703 6021 6019 5786 6015 6023 6017 
671 373 704 374 5791 6019 6022 5793 3237 6024 
704 373 407 374 6019 3559 6020 6024 3237 3560 
374 407 705 408 3560 6025 6026 3569 3571 6027 
671 705 672 374 6028 6029 5803 5793 6026 5798 
374 407 704 705 3560 6020 6024 6026 6025 6030 
671 705 374 704 6028 6026 5793 6022 6030 6024 
672 374 705 375 5798 6026 6029 5800 3247 6031 
705 374 408 375 6026 3569 6027 6031 3247 3570 
375 408 706 409 3570 6032 6033 3579 3581 6034 
672 706 673 375 6035 6036 5810 5800 6033 5805 
375 408 705 706 3570 6027 6031 6033 6032 6037 
672 706 375 705 6035 6033 5800 6029 6037 6031 
673 375 706 376 5805 6033 6036 5807 3257 6038 
706 375 409 376 6033 3579 6034 6038 3257 3580 
376 409 707 410 3580 6039 6040 3589 3591 6041 
673 707 674 376 6042 6043 5817 5807 6040 5812 
376 409 706 707 3580 6034 6038 6040 6039 6044 
673 707 376 706 6042 6040 5807 6036 6044 6038 
674 376 707 377 5812 6040 6043 5814 3267 6045 
707 376 410 377 6040 3589 6041 6045 3267 3590 
377 410 708 411 3590 6046 6047 3599 3601 6048 
674 708 675 377 6049 6050 5824 5814 6047 5819 
377 410 707 708 3590 6041 6045 6047 6046 6051 
674 708 377 707 6049 6047 5814 6043 6051 6045 
675 377 708 378 5819 6047 6050 5821 3277 6052 
708 377 411 378 6047 3599 6048 6052 3277 3600 
378 411 709 412 3600 6053 6054 3609 3611 6055 
675 709 676 378 6056 6057 5831 5821 6054 5826 
378 411 708 709 3600 6048 6052 6054 6053 6058 
675 709 378 708 6056 6054 5821 6050 6058 6052 
676 378 709 379 5826 6054 6057 5828 3287 6059 
709 378 412 379 6054 3609 6055 6059 3287 3610 
379 412 710 413 3610 6060 6061 3619 3621 6062 
676 710 677 379 6063 6064 5838 5828 6061 5833 
379 412 709 710 3610 6055 6059 6061 6060 6065 
676 710 379 709 6063 6061 5828 6057 6065 6059 
677 379 710 380 5833 6061 6064 5835 3297 6066 
710 379 413 380 6061 3619 6062 6066 3297 3620 
380 413 711 414 3620 6067 6068 3629 3631 6069 
677 711 678 380 6070 6071 5845 5835 6068 5840 
380 413 710 711 3620 6062 6066 6068 6067 6072 
677 711 380 710 6070 6068 5835 6064 6072 6066 
678 380 711 381 5840 6068 6071 5842 3307 6073 
711 380 414 381 6068 3629 6069 6073 3307 3630 
381 414 712 415 3630 6074 6075 3639 3641 6076 
678 712 679 381 6077 6078 5852 5842 6075 5847 
381 414 711 712 3630 6069 6073 6075 6074 6079 
678 712 381 711 6077 6075 5842 6071 6079 6073 
679 381 712 382 5847 6075 6078 5849 3317 6080 
712 381 415 382 6075 3639 6076 6080 3317 3640 
382 415 713 416 3640 6081 6082 3649 3651 6083 
679 713 680 382 6084 6085 5859 5849 6082 5854 
382 415 712 713 3640 6076 6080 6082 6081 6086 
679 713 382 712 6084 6082 5849 6078 6086 6080 
680 382 713 383 5854 6082 6085 5856 3327 6087 
713 382 416 383 6082 3649 6083 6087 3327 3650 
383 416 714 417 3650 6088 6089 3659 3661 6090 
680 714 681 383 6091 6092 5866 5856 6089 5861 
383 416 713 714 3650 6083 6087 6089 6088 6093 
680 714 383 713 6091 6089 5856 6085 6093 6087 
681 383 714 384 5861 6089 6092 5863 3337 6094 
714 383 417 384 6089 3659 6090 6094 3337 3660 
384 417 715 418 3660 6095 6096 3669 3671 6097 
681 715 682 384 6098 6099 5873 5863 6096 5868 
384 417 714 715 3660 6090 6094 6096 6095 6100 
681 715 384 714 6098 6096 5863 6092 6100 6094 
682 384 715 385 5868 6096 6099 5870 3347 6101 
715 384 418 385 6096 3669 6097 6101 3347 3670 
385 418 716 419 3670 6102 6103 3679 3681 6104 
682 716 683 385 6105 6106 5880 5870 6103 5875 
385 418 715 716 3670 6097 6101 6103 6102 6107 
682 716 385 715 6105 6103 5870 6099 6107 6101 
683 385 716 386 5875 6103 6106 5877 3357 6108 
716 385 419 386 6103 3679 6104 6108 3357 3680 
386 419 717 420 3680 6109 6110 3689 3691 6111 
683 717 684 386 6112 6113 5887 5877 6110 5882 
386 419 716 717 3680 6104 6108 6110 6109 6114 
683 717 386 716 6112 6110 5877 6106 6114 6108 
684 386 717 387 5882 6110 6113 5884 3367 6115 
717 386 420 387 6110 3689 6111 6115 3367 3690 
387 420 718 421 3690 6116 6117 3699 3701 6118 
684 718 685 387 6119 6120 5894 5884 6117 5889 
387 420 717 718 3690 6111 6115 6117 6116 6121 
684 718 387 717 6119 6117 5884 6113 6121 6115 
685 387 718 388 5889 6117 6120 5891 3377 6122 
718 387 421 388 6117 3699 6118 6122 3377 3700 
388 421 719 422 3700 6123 6124 3709 3711 6125 
685 719 686 388 6126 6127 5901 5891 6124 5896 
388 421 718 719 3700 6118 6122 6124 6123 6128 
685 719 388 718 6126 6124 5891 6120 6128 6122 
686 388 719 389 5896 6124 6127 5898 3387 6129 
719 388 422 389 6124 3709 6125 6129 3387 3710 
389 422 720 423 3710 6130 6131 3719 3721 6132 
686 720 687 389 6133 6134 5908 5898 6131 5903 
389 422 719 720 3710 6125 6129 6131 6130 6135 
686 720 389 719 6133 6131 5898 6127 6135 6129 
687 389 720 390 5903 6131 6134 5905 3397 6136 
720 389 423 390 6131 3719 6132 6136 3397 3720 
390 423 721 424 3720 6137 6138 3729 3731 6139 
687 721 688 390 6140 6141 5915 5905 6138 5910 
390 423 720 721 3720 6132 6136 6138 6137 6142 
687 721 390 720 6140 6138 5905 6134 6142 6136 
688 390 721 391 5910 6138 6141 5912 3407 6143 
721 390 424 391 6138 3729 6139 6143 3407 3730 
391 424 722 425 3730 6144 6145 3739 3741 6146 
688 722 689 391 6147 6148 5922 5912 6145 5917 
391 424 721 722 3730 6139 6143 6145 6144 6149 
688 722 391 721 6147 6145 5912 6141 6149 6143 
689 391 722 392 5917 6145 6148 5919 3417 6150 
722 391 425 392 6145 3739 6146 6150 3417 3740 
392 425 723 426 3740 6151 6152 3749 3751 6153 
689 723 690 392 6154 6155 5929 5919 6152 5924 
392 425 722 723 3740 6146 6150 6152 6151 6156 
689 723 392 722 6154 6152 5919 6148 6156 6150 
690 392 723 393 5924 6152 6155 5926 3427 6157 
723 392 426 393 6152 3749 6153 6157 3427 3750 
393 426 724 427 3750 6158 6159 3759 3761 6160 
690 724 691 393 6161 6162 5936 5926 6159 5931 
393 426 723 724 3750 6153 6157 6159 6158 6163 
690 724 393 723 6161 6159 5926 6155 6163 6157 
691 393 724 394 5931 6159 6162 5933 3437 6164 
724 393 427 394 6159 3759 6160 6164 3437 3760 
394 427 725 428 3760 6165 6166 3769 3771 6167 
691 725 692 394 6168 6169 5943 5933 6166 5938 
394 427 724 725 3760 6160 6164 6166 6165 6170 
691 725 394 724 6168 6166 5933 6162 6170 6164 
692 394 725 395 5938 6166 6169 5940 3447 6171 
725 394 428 395 6166 3769 6167 6171 3447 3770 
396 429 727 430 3785 6172 6173 3780 3784 6174 
693 727 694 396 6175 6176 5952 5950 6173 5945 
396 429 726 727 3785 6177 6178 6173 6172 6179 
693 727 396 726 6175 6173 5950 6180 6179 6178 
694 396 727 397 5945 6173 6176 5947 3460 6181 
727 396 430 397 6173 3780 6174 6181 3460 3781 
397 430 728 431 3781 6182 6183 3793 3795 6184 
694 728 695 397 6185 6186 5960 5947 6183 5955 
397 430 727 728 3781 6174 6181 6183 6182 6187 
694 728 397 727 6185 6183 5947 6176 6187 6181 
695 397 728 398 5955 6183 6186 5957 3471 6188 
728 397 431 398 6183 3793 6184 6188 3471 3794 
398 431 729 432 3794 6189 6190 3803 3805 6191 
695 729 696 398 6192 6193 5967 5957 6190 5962 
398 431 728 729 3794 6184 6188 6190 6189 6194 
695 729 398 728 6192 6190 5957 6186 6194 6188 
696 398 729 399 5962 6190 6193 5964 3481 6195 
729 398 432 399 6190 3803 6191 6195 3481 3804 
399 432 730 433 3804 6196 6197 3813 3815 6198 
696 730 697 399 6199 6200 5974 5964 6197 5969 
399 432 729 730 3804 6191 6195 6197 6196 6201 
696 730 399 729 6199 6197 5964 6193 6201 6195 
697 399 730 400 5969 6197 6200 5971 3491 6202 
730 399 433 400 6197 3813 6198 6202 3491 3814 
400 433 731 434 3814 6203 6204 3823 3825 6205 
697 731 698 400 6206 6207 5981 5971 6204 5976 
400 433 730 731 3814 6198 6202 6204 6203 6208 
697 731 400 730 6206 6204 5971 6200 6208 6202 
698 400 731 401 5976 6204 6207 5978 3501 6209 
731 400 434 401 6204 3823 6205 6209 3501 3824 
401 434 732 435 3824 6210 6211 3833 3835 6212 
698 732 699 401 6213 6214 5988 5978 6211 5983 
401 434 731 732 3824 6205 6209 6211 6210 6215 
698 732 401 731 6213 6211 5978 6207 6215 6209 
699 401 732 402 5983 6211 6214 5985 3511 6216 
732 401 435 402 6211 3833 6212 6216 3511 3834 
402 435 733 436 3834 6217 6218 3843 3845 6219 
699 733 700 402 6220 6221 5995 5985 6218 5990 
402 435 732 733 3834 6212 6216 6218 6217 6222 
699 733 402 732 6220 6218 5985 6214 6222 6216 
700 402 733 403 5990 6218 6221 5992 3521 6223 
733 402 436 403 6218 3843 6219 6223 3521 3844 
403 436 734 437 3844 6224 6225 3853 3855 6226 
700 734 701 403 6227 6228 6002 5992 6225 5997 
403 436 733 734 3844 6219 6223 6225 6224 6229 
700 734 403 733 6227 6225 5992 6221 6229 6223 
701 403 734 404 5997 6225 6228 5999 3531 6230 
734 403 437 404 6225 3853 6226 6230 3531 3854 
404 437 735 438 3854 6231 6232 3863 3865 6233 
701 735 702 404 6234 6235 6009 5999 6232 6004 
404 437 734 735 3854 6226 6230 6232 6231 6236 
701 735 404 734 6234 6232 5999 6228 6236 6230 
702 404 735 405 6004 6232 6235 6006 3541 6237 
735 404 438 405 6232 3863 6233 6237 3541 3864 
405 438 736 439 3864 6238 6239 3873 3875 6240 
702 736 703 405 6241 6242 6016 6006 6239 6011 
405 438 735 736 3864 6233 6237 6239 6238 6243 
702 736 405 735 6241 6239 6006 6235 6243 6237 
703 405 736 406 6011 6239 6242 6013 3551 6244 
736 405 439 406 6239 3873 6240 6244 3551 3874 
406 439 737 440 3874 6245 6246 3883 3885 6247 
703 737 704 406 6248 6249 6023 6013 6246 6018 
406 439 736 737 3874 6240 6244 6246 6245 6250 
703 737 406 736 6248 6246 6013 6242 6250 6244 
704 406 737 407 6018 6246 6249 6020 3561 6251 
737 406 440 407 6246 3883 6247 6251 3561 3884 
407 440 738 441 3884 6252 6253 3893 3895 6254 
704 738 705 407 6255 6256 6030 6020 6253 6025 
407 440 737 738 3884 6247 6251 6253 6252 6257 
704 738 407 737 6255 6253 6020 6249 6257 6251 
705 407 738 408 6025 6253 6256 6027 3571 6258 
738 407 441 408 6253 3893 6254 6258 3571 3894 
408 441 739 442 3894 6259 6260 3903 3905 6261 
705 739 706 408 6262 6263 6037 6027 6260 6032 
408 441 738 739 3894 6254 6258 6260 6259 6264 
705 739 408 738 6262 6260 6027 6256 6264 6258 
706 408 739 409 6032 6260 6263 6034 3581 6265 
739 408 442 409 6260 3903 6261 6265 3581 3904 
409 442 740 443 3904 6266 6267 3913 3915 6268 
706 740 707 409 6269 6270 6044 6034 6267 6039 
409 442 739 740 3904 6261 6265 6267 6266 6271 
706 740 409 739 6269 6267 6034 6263 6271 6265 
707 409 740 410 6039 6267 6270 6041 3591 6272 
740 409 443 410 6267 3913 6268 6272 3591 3914 
410 443 741 444 3914 6273 6274 3923 3925 6275 
707 741 708 410 6276 6277 6051 6041 6274 6046 
410 443 740 741 3914 6268 6272 6274 6273 6278 
707 741 410 740 6276 6274 6041 6270 6278 6272 
708 410 741 411 6046 6274 6277 6048 3601 6279 
741 410 444 411 6274 3923 6275 6279 3601 3924 
411 444 742 445 3924 6280 6281 3933 3935 6282 
708 742 709 411 6283 6284 6058 6048 6281 6053 
411 444 741 742 3924 6275 6279 6281 6280 6285 
708 742 411 741 6283 6281 6048 6277 6285 6279 
709 411 742 412 6053 6281 6284 6055 3611 6286 
742 411 445 412 6281 3933 6282 6286 3611 3934 
412 445 743 446 3934 6287 6288 3943 3945 6289 
709 743 710 412 6290 6291 6065 6055 6288 6060 
412 445 742 743 3934 6282 6286 6288 6287 6292 
709 743 412 742 6290 6288 6055 6284 6292 6286 
710 412 743 413 6060 6288 6291 6062 3621 6293 
743 412 446 413 6288 3943 6289 6293 3621 3944 
413 446 744 447 3944 6294 6295 3953 3955 6296 
710 744 711 413 6297 6298 6072 6062 6295 6067 
413 446 743 744 3944 6289 6293 6295 6294 6299 
710 744 413 743 6297 6295 6062 6291 6299 6293 
711 413 744 414 6067 6295 6298 6069 3631 6300 
744 413 447 414 6295 3953 6296 6300 3631 3954 
414 447 745 448 3954 6301 6302 3963 3965 6303 
711 745 712 414 6304 6305 6079 6069 6302 6074 
414 447 744 745 3954 6296 6300 6302 6301 6306 
711 745 414 744 6304 6302 6069 6298 6306 6300 
712 414 745 415 6074 6302 6305 6076 3641 6307 
745 414 448 415 6302 3963 6303 6307 3641 3964 
415 448 746 449 3964 6308 6309 3973 3975 6310 
712 746 713 415 6311 6312 6086 6076 6309 6081 
415 448 745 746 3964 6303 6307 6309 6308 6313 
712 746 415 745 6311 6309 6076 6305 6313 6307 
713 415 746 416 6081 6309 6312 6083 3651 6314 
746 415 449 416 6309 3973 6310 6314 3651 3974 
416 449 747 450 3974 6315 6316 3983 3985 6317 
713 747 714 416 6318 6319 6093 6083 6316 6088 
416 449 746 747 3974 6310 6314 6316 6315 6320 
713 747 416 746 6318 6316 6083 6312 6320 6314 
714 416 747 417 6088 6316 6319 6090 3661 6321 
747 416 450 417 6316 3983 6317 6321 3661 3984 
417 450 748 451 3984 6322 6323 3993 3995 6324 
714 748 715 417 6325 6326 6100 6090 6323 6095 
417 450 747 748 3984 6317 6321 6323 6322 6327 
714 748 417 747 6325 6323 6090 6319 6327 6321 
715 417 748 418 6095 6323 6326 6097 3671 6328 
748 417 451 418 6323 3993 6324 6328 3671 3994 
418 451 749 452 3994 6329 6330 4003 4005 6331 
715 749 716 418 6332 6333 6107 6097 6330 6102 
418 451 748 749 3994 6324 6328 6330 6329 6334 
715 749 418 748 6332 6330 6097 6326 6334 6328 
716 418 749 419 6102 6330 6333 6104 3681 6335 
749 418 452 419 6330 4003 6331 6335 3681 4004 
419 452 750 453 4004 6336 6337 4013 4015 6338 
716 750 717 419 6339 6340 6114 6104 6337 6109 
419 452 749 750 4004 6331 6335 6337 6336 6341 
716 750 419 749 6339 6337 6104 6333 6341 6335 
717 419 750 420 6109 6337 6340 6111 3691 6342 
750 419 453 420 6337 4013 6338 6342 3691 4014 
420 453 751 454 4014 6343 6344 4023 4025 6345 
717 751 718 420 6346 6347 6121 6111 6344 6116 
420 453 750 751 4014 6338 6342 6344 6343 6348 
717 751 420 750 6346 6344 6111 6340 6348 6342 
718 420 751 421 6116 6344 6347 6118 3701 6349 
751 420 454 421 6344 4023 6345 6349 3701 4024 
421 454 752 455 4024 6350 6351 4033 4035 6352 
718 752 719 421 6353 6354 6128 6118 6351 6123 
421 454 751 752 4024 6345 6349 6351 6350 6355 
718 752 421 751 6353 6351 6118 6347 6355 6349 
719 421 752 422 6123 6351 6354 6125 3711 6356 
752 421 455 422 6351 4033 6352 6356 3711 4034 
422 455 753 456 4034 6357 6358 4043 4045 6359 
719 753 720 422 6360 6361 6135 6125 6358 6130 
422 455 752 753 4034 6352 6356 6358 6357 6362 
719 753 422 752 6360 6358 6125 6354 6362 6356 
720 422 753 423 6130 6358 6361 6132 3721 6363 
753 422 456 423 6358 4043 6359 6363 3721 4044 
423 456 754 457 4044 6364 6365 4053 4055 6366 
720 754 721 423 6367 6368 6142 6132 6365 6137 
423 456 753 754 4044 6359 6363 6365 6364 6369 
720 754 423 753 6367 6365 6132 6361 6369 6363 
721 423 754 424 6137 6365 6368 6139 3731 6370 
754 423 457 424 6365 4053 6366 6370 3731 4054 
424 457 755 458 4054 6371 6372 4063 4065 6373 
721 755 722 424 6374 6375 6149 6139 6372 6144 
424 457 754 755 4054 6366 6370 6372 6371 6376 
721 755 424 754 6374 6372 6139 6368 6376 6370 
722 424 755 425 6144 6372 6375 6146 3741 6377 
755 424 458 425 6372 4063 6373 6377 3741 4064 
425 458 756 459 4064 6378 6379 4073 4075 6380 
722 756 723 425 6381 6382 6156 6146 6379 6151 
425 458 755 756 4064 6373 6377 6379 6378 6383 
722 756 425 755 6381 6379 6146 6375 6383 6377 
723 425 756 426 6151 6379 6382 6153 3751 6384 
756 425 459 426 6379 4073 6380 6384 3751 4074 
426 459 757 460 4074 6385 6386 4083 4085 6387 
723 757 724 426 6388 6389 6163 6153 6386 6158 
426 459 756 757 4074 6380 6384 6386 6385 6390 
723 757 426 756 6388 6386 6153 6382 6390 6384 
724 426 757 427 6158 6386 6389 6160 3761 6391 
757 426 460 427 6386 4083 6387 6391 3761 4084 
427 460 758 461 4084 6392 6393 4093 4095 6394 
724 758 725 427 6395 6396 6170 6160 6393 6165 
427 460 757 758 4084 6387 6391 6393 6392 6397 
724 758 427 757 6395 6393 6160 6389 6397 6391 
725 427 758 428 6165 6393 6396 6167 3771 6398 
758 427 461 428 6393 4093 6394 6398 3771 4094 
429 462 760 463 4109 6399 6400 4104 4108 6401 
726 760 727 429 6402 6403 6179 6177 6400 6172 
429 462 759 760 4109 6404 6405 6400 6399 6406 
726 760 429 759 6402 6400 6177 6407 6406 6405 
727 429 760 430 6172 6400 6403 6174 3784 6408 
760 429 463 430 6400 4104 6401 6408 3784 4105 
430 463 761 464 4105 6409 6410 4117 4119 6411 
727 761 728 430 6412 6413 6187 6174 6410 6182 
430 463 760 761 4105 6401 6408 6410 6409 6414 
727 761 430 760 6412 6410 6174 6403 6414 6408 
728 430 761 431 6182 6410 6413 6184 3795 6415 
761 430 464 431 6410 4117 6411 6415 3795 4118 
431 464 762 465 4118 6416 6417 4127 4129 6418 
728 762 729 431 6419 6420 6194 6184 6417 6189 
431 464 761 762 4118 6411 6415 6417 6416 6421 
728 762 431 761 6419 6417 6184 6413 6421 6415 
729 431 762 432 6189 6417 6420 6191 3805 6422 
762 431 465 432 6417 4127 6418 6422 3805 4128 
432 465 763 466 4128 6423 6424 4137 4139 6425 
729 763 730 432 6426 6427 6201 6191 6424 6196 
432 465 762 763 4128 6418 6422 6424 6423 6428 
729 763 432 762 6426 6424 6191 6420 6428 6422 
730 432 763 433 6196 6424 6427 6198 3815 6429 
763 432 466 433 6424 4137 6425 6429 3815 4138 
433 466 764 467 4138 6430 6431 4147 4149 6432 
730 764 731 433 6433 6434 6208 6198 6431 6203 
433 466 763 764 4138 6425 6429 6431 6430 6435 
730 764 433 763 6433 6431 6198 6427 6435 6429 
731 433 764 434 6203 6431 6434 6205 3825 6436 
764 433 467 434 6431 4147 6432 6436 3825 4148 
434 467 765 468 4148 6437 6438 4157 4159 6439 
731 765 732 434 6440 6441 6215 6205 6438 6210 
434 467 764 765 4148 6432 6436 6438 6437 6442 
731 765 434 764 6440 6438 6205 6434 6442 6436 
732 434 765 435 6210 6438 6441 6212 3835 6443 
765 434 468 435 6438 4157 6439 6443 3835 4158 
435 468 766 469 4158 6444 6445 4167 4169 6446 
732 766 733 435 6447 6448 6222 6212 6445 6217 
435 468 765 766 4158 6439 6443 6445 6444 6449 
732 766 435 765 6447 6445 6212 6441 6449 6443 
733 435 766 436 6217 6445 6448 6219 3845 6450 
766 435 469 436 6445 4167 6446 6450 3845 4168 
436 469 767 470 4168 6451 6452 4177 4179 6453 
733 767 734 436 6454 6455 6229 6219 6452 6224 
436 469 766 767 4168 6446 6450 6452 6451 6456 
733 767 436 766 6454 6452 6219 6448 6456 6450 
734 436 767 437 6224 6452 6455 6226 3855 6457 
767 436 470 437 6452 4177 6453 6457 3855 4178 
437 470 768 471 4178 6458 6459 4187 4189 6460 
734 768 735 437 6461 6462 6236 6226 6459 6231 
437 470 767 768 4178 6453 6457 6459 6458 6463 
734 768 437 767 6461 6459 6226 6455 6463 6457 
735 437 768 438 6231 6459 6462 6233 3865 6464 
768 437 471 438 6459 4187 6460 6464 3865 4188 
438 471 769 472 4188 6465 6466 4197 4199 6467 
735 769 736 438 6468 6469 6243 6233 6466 6238 
438 471 768 769 4188 6460 6464 6466 6465 6470 
735 769 438 768 6468 6466 6233 6462 6470 6464 
736 438 769 439 6238 6466 6469 6240 3875 6471 
769 438 472 439 6466 4197 6467 6471 3875 4198 
439 472 770 473 4198 6472 6473 4207 4209 6474 
736 770 737 439 6475 6476 6250 6240 6473 6245 
439 472 769 770 4198 6467 6471 6473 6472 6477 
736 770 439 769 6475 6473 6240 6469 6477 6471 
737 439 770 440 6245 6473 6476 6247 3885 6478 
770 439 473 440 6473 4207 6474 6478 3885 4208 
440 473 771 474 4208 6479 6480 4217 4219 6481 
737 771 738 440 6482 6483 6257 6247 6480 6252 
440 473 770 771 4208 6474 6478 6480 6479 6484 
737 771 440 770 6482 6480 6247 6476 6484 6478 
738 440 771 441 6252 6480 6483 6254 3895 6485 
771 440 474 441 6480 4217 6481 6485 3895 4218 
441 474 772 475 4218 6486 6487 4227 4229 6488 
738 772 739 441 6489 6490 6264 6254 6487 6259 
441 474 771 772 4218 6481 6485 6487 6486 6491 
738 772 441 771 6489 6487 6254 6483 6491 6485 
739 441 772 442 6259 6487 6490 6261 3905 6492 
772 441 475 442 6487 4227 6488 6492 3905 4228 
442 475 773 476 4228 6493 6494 4237 4239 6495 
739 773 740 442 6496 6497 6271 6261 6494 6266 
442 475 772 773 4228 6488 6492 6494 6493 6498 
739 773 442 772 6496 6494 6261 6490 6498 6492 
740 442 773 443 6266 6494 6497 6268 3915 6499 
773 442 476 443 6494 4237 6495 6499 3915 4238 
443 476 774 477 4238 6500 6501 4247 4249 6502 
740 774 741 443 6503 6504 6278 6268 6501 6273 
443 476 773 774 4238 6495 6499 6501 6500 6505 
740 774 443 773 6503 6501 6268 6497 6505 6499 
741 443 774 444 6273 6501 6504 6275 3925 6506 
774 443 477 444 6501 4247 6502 6506 3925 4248 
444 477 775 478 4248 6507 6508 4257 4259 6509 
741 775 742 444 6510 6511 6285 6275 6508 6280 
444 477 774 775 4248 6502 6506 6508 6507 6512 
741 775 444 774 6510 6508 6275 6504 6512 6506 
742 444 775 445 6280 6508 6511 6282 3935 6513 
775 444 478 445 6508 4257 6509 6513 3935 4258 
445 478 776 479 4258 6514 6515 4267 4269 6516 
742 776 743 445 6517 6518 6292 6282 6515 6287 
445 478 775 776 4258 6509 6513 6515 6514 6519 
742 776 445 775 6517 6515 6282 6511 6519 6513 
743 445 776 446 6287 6515 6518 6289 3945 6520 
776 445 479 446 6515 4267 6516 6520 3945 4268 
446 479 777 480 4268 6521 6522 4277 4279 6523 
743 777 744 446 6524 6525 6299 6289 6522 6294 
446 479 776 777 4268 6516 6520 6522 6521 6526 
743 777 446 776 6524 6522 6289 6518 6526 6520 
744 446 777 447 6294 6522 6525 6296 3955 6527 
777 446 480 447 6522 4277 6523 6527 3955 4278 
447 480 778 481 4278 6528 6529 4287 4289 6530 
744 778 745 447 6531 6532 6306 6296 6529 6301 
447 480 777 778 4278 6523 6527 6529 6528 6533 
744 778 447 777 6531 6529 6296 6525 6533 6527 
745 447 778 448 6301 6529 6532 6303 3965 6534 
778 447 481 448 6529 4287 6530 6534 3965 4288 
448 481 779 482 4288 6535 6536 4297 4299 6537 
745 779 746 448 6538 6539 6313 6303 6536 6308 
448 481 778 779 4288 6530 6534 6536 6535 6540 
745 779 448 778 6538 6536 6303 6532 6540 6534 
746 448 779 449 6308 6536 6539 6310 3975 6541 
779 448 482 449 6536 4297 6537 6541 3975 4298 
449 482 780 483 4298 6542 6543 4307 4309 6544 
746 780 747 449 6545 6546 6320 6310 6543 6315 
449 482 779 780 4298 6537 6541 6543 6542 6547 
746 780 449 779 6545 6543 6310 6539 6547 6541 
747 449 780 450 6315 6543 6546 6317 3985 6548 
780 449 483 450 6543 4307 6544 6548 3985 4308 
450 483 781 484 4308 6549 6550 4317 4319 6551 
747 781 748 450 6552 6553 6327 6317 6550 6322 
450 483 780 781 4308 6544 6548 6550 6549 6554 
747 781 450 780 6552 6550 6317 6546 6554 6548 
748 450 781 451 6322 6550 6553 6324 3995 6555 
781 450 484 451 6550 4317 6551 6555 3995 4318 
451 484 782 485 4318 6556 6557 4327 4329 6558 
748 782 749 451 6559 6560 6334 6324 6557 6329 
451 484 781 782 4318 6551 6555 6557 6556 6561 
748 782 451 781 6559 6557 6324 6553 6561 6555 
749 451 782 452 6329 6557 6560 6331 4005 6562 
782 451 485 452 6557 4327 6558 6562 4005 4328 
452 485 783 486 4328 6563 6564 4337 4339 6565 
749 783 750 452 6566 6567 6341 6331 6564 6336 
452 485 782 783 4328 6558 6562 6564 6563 6568 
749 783 452 782 6566 6564 6331 6560 6568 6562 
750 452 783 453 6336 6564 6567 6338 4015 6569 
783 452 486 453 6564 4337 6565 6569 4015 4338 
453 486 784 487 4338 6570 6571 4347 4349 6572 
750 784 751 453 6573 6574 6348 6338 6571 6343 
453 486 783 784 4338 6565 6569 6571 6570 6575 
750 784 453 783 6573 6571 6338 6567 6575 6569 
751 453 784 454 6343 6571 6574 6345 4025 6576 
784 453 487 454 6571 4347 6572 6576 4025 4348 
454 487 785 488 4348 6577 6578 4357 4359 6579 
751 785 752 454 6580 6581 6355 6345 6578 6350 
454 487 784 785 4348 6572 6576 6578 6577 6582 
751 785 454 784 6580 6578 6345 6574 6582 6576 
752 454 785 455 6350 6578 6581 6352 4035 6583 
785 454 488 455 6578 4357 6579 6583 4035 4358 
455 488 786 489 4358 6584 6585 4367 4369 6586 
752 786 753 455 6587 6588 6362 6352 6585 6357 
455 488 785 786 4358 6579 6583 6585 6584 6589 
752 786 455 785 6587 6585 6352 6581 6589 6583 
753 455 786 456 6357 6585 6588 6359 4045 6590 
786 455 489 456 6585 4367 6586 6590 4045 4368 
456 489 787 490 4368 6591 6592 4377 4379 6593 
753 787 754 456 6594 6595 6369 6359 6592 6364 
456 489 786 787 4368 6586 6590 6592 6591 6596 
753 787 456 786 6594 6592 6359 6588 6596 6590 
754 456 787 457 6364 6592 6595 6366 4055 6597 
787 456 490 457 6592 4377 6593 6597 4055 4378 
457 490 788 491 4378 6598 6599 4387 4389 6600 
754 788 755 457 6601 6602 6376 6366 6599 6371 
457 490 787 788 4378 6593 6597 6599 6598 6603 
754 788 457 787 6601 6599 6366 6595 6603 6597 
755 457 788 458 6371 6599 6602 6373 4065 6604 
788 457 491 458 6599 4387 6600 6604 4065 4388 
458 491 789 492 4388 6605 6606 4397 4399 6607 
755 789 756 458 6608 6609 6383 6373 6606 6378 
458 491 788 789 4388 6600 6604 6606 6605 6610 
755 789 458 788 6608 6606 6373 6602 6610 6604 
756 458 789 459 6378 6606 6609 6380 4075 6611 
789 458 492 459 6606 4397 6607 6611 4075 4398 
459 492 790 493 4398 6612 6613 4407 4409 6614 
756 790 757 459 6615 6616 6390 6380 6613 6385 
459 492 789 790 4398 6607 6611 6613 6612 6617 
756 790 459 789 6615 6613 6380 6609 6617 6611 
757 459 790 460 6385 6613 6616 6387 4085 6618 
790 459 493 460 6613 4407 6614 6618 4085 4408 
460 493 791 494 4408 6619 6620 4417 4419 6621 
757 791 758 460 6622 6623 6397 6387 6620 6392 
460 493 790 791 4408 6614 6618 6620 6619 6624 
757 791 460 790 6622 6620 6387 6616 6624 6618 
758 460 791 461 6392 6620 6623 6394 4095 6625 
791 460 494 461 6620 4417 6621 6625 4095 4418 
462 495 793 496 4433 6626 6627 4428 4432 6628 
759 793 760 462 6629 6630 6406 6404 6627 6399 
462 495 792 793 4433 6631 6632 6627 6626 6633 
759 793 462 792 6629 6627 6404 6634 6633 6632 
760 462 793 463 6399 6627 6630 6401 4108 6635 
793 462 496 463 6627 4428 6628 6635 4108 4429 
463 496 794 497 4429 6636 6637 4441 4443 6638 
760 794 761 463 6639 6640 6414 6401 6637 6409 
463 496 793 794 4429 6628 6635 6637 6636 6641 
760 794 463 793 6639 6637 6401 6630 6641 6635 
761 463 794 464 6409 6637 6640 6411 4119 6642 
794 463 497 464 6637 4441 6638 6642 4119 4442 
464 497 795 498 4442 6643 6644 4451 4453 6645 
761 795 762 464 6646 6647 6421 6411 6644 6416 
464 497 794 795 4442 6638 6642 6644 6643 6648 
761 795 464 794 6646 6644 6411 6640 6648 6642 
762 464 795 465 6416 6644 6647 6418 4129 6649 
795 464 498 465 6644 4451 6645 6649 4129 4452 
465 498 796 499 4452 6650 6651 4461 4463 6652 
762 796 763 465 6653 6654 6428 6418 6651 6423 
465 498 795 796 4452 6645 6649 6651 6650 6655 
762 796 465 795 6653 6651 6418 6647 6655 6649 
763 465 796 466 6423 6651 6654 6425 4139 6656 
796 465 499 466 6651 4461 6652 6656 4139 4462 
466 499 797 500 4462 6657 6658 4471 4473 6659 
763 797 764 466 6660 6661 6435 6425 6658 6430 
466 499 796 797 4462 6652 6656 6658 6657 6662 
763 797 466 796 6660 6658 6425 6654 6662 6656 
764 466 797 467 6430 6658 6661 6432 4149 6663 
797 466 500 467 6658 4471 6659 6663 4149 4472 
467 500 798 501 4472 6664 6665 4481 4483 6666 
764 798 765 467 6667 6668 6442 6432 6665 6437 
467 500 797 798 4472 6659 6663 6665 6664 6669 
764 798 467 797 6667 6665 6432 6661 6669 6663 
765 467 798 468 6437 6665 6668 6439 4159 6670 
798 467 501 468 6665 4481 6666 6670 4159 4482 
468 501 799 502 4482 6671 6672 4491 4493 6673 
765 799 766 468 6674 6675 6449 6439 6672 6444 
468 501 798 799 4482 6666 6670 6672 6671 6676 
765 799 468 798 6674 6672 6439 6668 6676 6670 
766 468 799 469 6444 6672 6675 6446 4169 6677 
799 468 502 469 6672 4491 6673 6677 4169 4492 
469 502 800 503 4492 6678 6679 4501 4503 6680 
766 800 767 469 6681 6682 6456 6446 6679 6451 
469 502 799 800 4492 6673 6677 6679 6678 6683 
766 800 469 799 6681 6679 6446 6675 6683 6677 
767 469 800 470 6451 6679 6682 6453 4179 6684 
800 469 503 470 6679 4501 6680 6684 4179 4502 
470 503 801 504 4502 6685 6686 4511 4513 6687 
767 801 768 470 6688 6689 6463 6453 6686 6458 
470 503 800 801 4502 6680 6684 6686 6685 6690 
767 801 470 800 6688 6686 6453 6682 6690 6684 
768 470 801 471 6458 6686 6689 6460 4189 6691 
801 470 504 471 6686 4511 6687 6691 4189 4512 
471 504 802 505 4512 6692 6693 4521 4523 6694 
768 802 769 471 6695 6696 6470 6460 6693 6465 
471 504 801 802 4512 6687 6691 6693 6692 6697 
768 802 471 801 6695 6693 6460 6689 6697 6691 
769 471 802 472 6465 6693 6696 6467 4199 6698 
802 471 505 472 6693 4521 6694 6698 4199 4522 
472 505 803 506 4522 6699 6700 4531 4533 6701 
769 803 770 472 6702 6703 6477 6467 6700 6472 
472 505 802 803 4522 6694 6698 6700 6699 6704 
769 803 472 802 6702 6700 6467 6696 6704 6698 
770 472 803 473 6472 6700 6703 6474 4209 6705 
803 472 506 473 6700 4531 6701 6705 4209 4532 
473 506 804 507 4532 6706 6707 4541 4543 6708 
770 804 771 473 6709 6710 6484 6474 6707 6479 
473 506 803 804 4532 6701 6705 6707 6706 6711 
770 804 473 803 6709 6707 6474 6703 6711 6705 
771 473 804 474 6479 6707 6710 6481 4219 6712 
804 473 507 474 6707 4541 6708 6712 4219 4542 
474 507 805 508 4542 6713 6714 4551 4553 6715 
771 805 772 474 6716 6717 6491 6481 6714 6486 
474 507 804 805 4542 6708 6712 6714 6713 6718 
771 805 474 804 6716 6714 6481 6710 6718 6712 
772 474 805 475 6486 6714 6717 6488 4229 6719 
805 474 508 475 6714 4551 6715 6719 4229 4552 
475 508 806 509 4552 6720 6721 4561 4563 6722 
772 806 773 475 6723 6724 6498 6488 6721 6493 
475 508 805 806 4552 6715 6719 6721 6720 6725 
772 806 475 805 6723 6721 6488 6717 6725 6719 
773 475 806 476 6493 6721 6724 6495 4239 6726 
806 475 509 476 6721 4561 6722 6726 4239 4562 
476 509 807 510 4562 6727 6728 4571 4573 6729 
773 807 774 476 6730 6731 6505 6495 6728 6500 
476 509 806 807 4562 6722 6726 6728 6727 6732 
773 807 476 806 6730 6728 6495 6724 6732 6726 
774 476 807 477 6500 6728 6731 6502 4249 6733 
807 476 510 477 6728 4571 6729 6733 4249 4572 
477 510 808 511 4572 6734 6735 4581 4583 6736 
774 808 775 477 6737 6738 6512 6502 6735 6507 
477 510 807 808 4572 6729 6733 6735 6734 6739 
774 808 477 807 6737 6735 6502 6731 6739 6733 
775 477 808 478 6507 6735 6738 6509 4259 6740 
808 477 511 478 6735 4581 6736 6740 4259 4582 
478 511 809 512 4582 6741 6742 4591 4593 6743 
775 809 776 478 6744 6745 6519 6509 6742 6514 
478 511 808 809 4582 6736 6740 6742 6741 6746 
775 809 478 808 6744 6742 6509 6738 6746 6740 
776 478 809 479 6514 6742 6745 6516 4269 6747 
809 478 512 479 6742 4591 6743 6747 4269 4592 
479 512 810 513 4592 6748 6749 4601 4603 6750 
776 810 777 479 6751 6752 6526 6516 6749 6521 
479 512 809 810 4592 6743 6747 6749 6748 6753 
776 810 479 809 6751 6749 6516 6745 6753 6747 
777 479 810 480 6521 6749 6752 6523 4279 6754 
810 479 513 480 6749 4601 6750 6754 4279 4602 
480 513 811 514 4602 6755 6756 4611 4613 6757 
777 811 778 480 6758 6759 6533 6523 6756 6528 
480 513 810 811 4602 6750 6754 6756 6755 6760 
777 811 480 810 6758 6756 6523 6752 6760 6754 
778 480 811 481 6528 6756 6759 6530 4289 6761 
811 480 514 481 6756 4611 6757 6761 4289 4612 
481 514 812 515 4612 6762 6763 4621 4623 6764 
778 812 779 481 6765 6766 6540 6530 6763 6535 
481 514 811 812 4612 6757 6761 6763 6762 6767 
778 812 481 811 6765 6763 6530 6759 6767 6761 
779 481 812 482 6535 6763 6766 6537 4299 6768 
812 481 515 482 6763 4621 6764 6768 4299 4622 
482 515 813 516 4622 6769 6770 4631 4633 6771 
779 813 780 482 6772 6773 6547 6537 6770 6542 
482 515 812 813 4622 6764 6768 6770 6769 6774 
779 813 482 812 6772 6770 6537 6766 6774 6768 
780 482 813 483 6542 6770 6773 6544 4309 6775 
813 482 516 483 6770 4631 6771 6775 4309 4632 
483 516 814 517 4632 6776 6777 4641 4643 6778 
780 814 781 483 6779 6780 6554 6544 6777 6549 
483 516 813 814 4632 6771 6775 6777 6776 6781 
780 814 483 813 6779 6777 6544 6773 6781 6775 
781 483 814 484 6549 6777 6780 6551 4319 6782 
814 483 517 484 6777 4641 6778 6782 4319 4642 
484 517 815 518 4642 6783 6784 4651 4653 6785 
781 815 782 484 6786 6787 6561 6551 6784 6556 
484 517 814 815 4642 6778 6782 6784 6783 6788 
781 815 484 814 6786 6784 6551 6780 6788 6782 
782 484 815 485 6556 6784 6787 6558 4329 6789 
815 484 518 485 6784 4651 6785 6789 4329 4652 
485 518 816 519 4652 6790 6791 4661 4663 6792 
782 816 783 485 6793 6794 6568 6558 6791 6563 
485 518 815 816 4652 6785 6789 6791 6790 6795 
782 816 485 815 6793 6791 6558 6787 6795 6789 
783 485 816 486 6563 6791 6794 6565 4339 6796 
816 485 519 486 6791 4661 6792 6796 4339 4662 
486 519 817 520 4662 6797 6798 4671 4673 6799 
783 817 784 486 6800 6801 6575 6565 6798 6570 
486 519 816 817 4662 6792 6796 6798 6797 6802 
783 817 486 816 6800 6798 6565 6794 6802 6796 
784 486 817 487 6570 6798 6801 6572 4349 6803 
817 486 520 487 6798 4671 6799 6803 4349 4672 
487 520 818 521 4672 6804 6805 4681 4683 6806 
784 818 785 487 6807 6808 6582 6572 6805 6577 
487 520 817 818 4672 6799 6803 6805 6804 6809 
784 818 487 817 6807 6805 6572 6801 6809 6803 
785 487 818 488 6577 6805 6808 6579 4359 6810 
818 487 521 488 6805 4681 6806 6810 4359 4682 
488 521 819 522 4682 6811 6812 4691 4693 6813 
785 819 786 488 6814 6815 6589 6579 6812 6584 
488 521 818 819 4682 6806 6810 6812 6811 6816 
785 819 488 818 6814 6812 6579 6808 6816 6810 
786 488 819 489 6584 6812 6815 6586 4369 6817 
819 488 522 489 6812 4691 6813 6817 4369 4692 
489 522 820 523 4692 6818 6819 4701 4703 6820 
786 820 787 489 6821 6822 6596 6586 6819 6591 
489 522 819 820 4692 6813 6817 6819 6818 6823 
786 820 489 819 6821 6819 6586 6815 6823 6817 
787 489 820 490 6591 6819 6822 6593 4379 6824 
820 489 523 490 6819 4701 6820 6824 4379 4702 
490 523 821 524 4702 6825 6826 4711 4713 6827 
787 821 788 490 6828 6829 6603 6593 6826 6598 
490 523 820 821 4702 6820 6824 6826 6825 6830 
787 821 490 820 6828 6826 6593 6822 6830 6824 
788 490 821 491 6598 6826 6829 6600 4389 6831 
821 490 524 491 6826 4711 6827 6831 4389 4712 
491 524 822 525 4712 6832 6833 4721 4723 6834 
788 822 789 491 6835 6836 6610 6600 6833 6605 
491 524 821 822 4712 6827 6831 6833 6832 6837 
788 822 491 821 6835 6833 6600 6829 6837 6831 
789 491 822 492 6605 6833 6836 6607 4399 6838 
822 491 525 492 6833 4721 6834 6838 4399 4722 
492 525 823 526 4722 6839 6840 4731 4733 6841 
789 823 790 492 6842 6843 6617 6607 6840 6612 
492 525 822 823 4722 6834 6838 6840 6839 6844 
789 823 492 822 6842 6840 6607 6836 6844 6838 
790 492 823 493 6612 6840 6843 6614 4409 6845 
823 492 526 493 6840 4731 6841 6845 4409 4732 
493 526 824 527 4732 6846 6847 4741 4743 6848 
790 824 791 493 6849 6850 6624 6614 6847 6619 
493 526 823 824 4732 6841 6845 6847 6846 6851 
790 824 493 823 6849 6847 6614 6843 6851 6845 
791 493 824 494 6619 6847 6850 6621 4419 6852 
824 493 527 494 6847 4741 6848 6852 4419 4742 
495 528 826 529 4757 6853 6854 4752 4756 6855 
792 826 793 495 6856 6857 6633 6631 6854 6626 
495 528 825 826 4757 6858 6859 6854 6853 6860 
792 826 495 825 6856 6854 6631 6861 6860 6859 
793 495 826 496 6626 6854 6857 6628 4432 6862 
826 495 529 496 6854 4752 6855 6862 4432 4753 
496 529 827 530 4753 6863 6864 4765 4767 6865 
793 827 794 496 6866 6867 6641 6628 6864 6636 
496 529 826 827 4753 6855 6862 6864 6863 6868 
793 827 496 826 6866 6864 6628 6857 6868 6862 
794 496 827 497 6636 6864 6867 6638 4443 6869 
827 496 530 497 6864 4765 6865 6869 4443 4766 
497 530 828 531 4766 6870 6871 4775 4777 6872 
794 828 795 497 6873 6874 6648 6638 6871 6643 
497 530 827 828 4766 6865 6869 6871 6870 6875 
794 828 497 827 6873 6871 6638 6867 6875 6869 
795 497 828 498 6643 6871 6874 6645 4453 6876 
828 497 531 498 6871 4775 6872 6876 4453 4776 
498 531 829 532 4776 6877 6878 4785 4787 6879 
795 829 796 498 6880 6881 6655 6645 6878 6650 
498 531 828 829 4776 6872 6876 6878 6877 6882 
795 829 498 828 6880 6878 6645 6874 6882 6876 
796 498 829 499 6650 6878 6881 6652 4463 6883 
829 498 532 499 6878 4785 6879 6883 4463 4786 
499 532 830 533 4786 6884 6885 4795 4797 6886 
796 830 797 499 6887 6888 6662 6652 6885 6657 
499 532 829 830 4786 6879 6883 6885 6884 6889 
796 830 499 829 6887 6885 6652 6881 6889 6883 
797 499 830 500 6657 6885 6888 6659 4473 6890 
830 499 533 500 6885 4795 6886 6890 4473 4796 
500 533 831 534 4796 6891 6892 4805 4807 6893 
797 831 798 500 6894 6895 6669 6659 6892 6664 
500 533 830 831 4796 6886 6890 6892 6891 6896 
797 831 500 830 6894 6892 6659 6888 6896 6890 
798 500 831 501 6664 6892 6895 6666 4483 6897 
831 500 534 501 6892 4805 6893 6897 4483 4806 
501 534 832 535 4806 6898 6899 4815 4817 6900 
798 832 799 501 6901 6902 6676 6666 6899 6671 
501 534 831 832 4806 6893 6897 6899 6898 6903 
798 832 501 831 6901 6899 6666 6895 6903 6897 
799 501 832 502 6671 6899 6902 6673 4493 6904 
832 501 535 502 6899 4815 6900 6904 4493 4816 
502 535 833 536 4816 6905 6906 4825 4827 6907 
799 833 800 502 6908 6909 6683 6673 6906 6678 
502 535 832 833 4816 6900 6904 6906 6905 6910 
799 833 502 832 6908 6906 6673 6902 6910 6904 
800 502 833 503 6678 6906 6909 6680 4503 6911 
833 502 536 503 6906 4825 6907 6911 4503 4826 
503 536 834 537 4826 6912 6913 4835 4837 6914 
800 834 801 503 6915 6916 6690 6680 6913 6685 
503 536 833 834 4826 6907 6911 6913 6912 6917 
800 834 503 833 6915 6913 6680 6909 6917 6911 
801 503 834 504 6685 6913 6916 6687 4513 6918 
834 503 537 504 6913 4835 6914 6918 4513 4836 
504 537 835 538 4836 6919 6920 4845 4847 6921 
801 835 802 504 6922 6923 6697 6687 6920 6692 
504 537 834 835 4836 6914 6918 6920 6919 6924 
801 835 504 834 6922 6920 6687 6916 6924 6918 
802 504 835 505 6692 6920 6923 6694 4523 6925 
835 504 538 505 6920 4845 6921 6925 4523 4846 
505 538 836 539 4846 6926 6927 4855 4857 6928 
802 836 803 505 6929 6930 6704 6694 6927 6699 
505 538 835 836 4846 6921 6925 6927 6926 6931 
802 836 505 835 6929 6927 6694 6923 6931 6925 
803 505 836 506 6699 6927 6930 6701 4533 6932 
836 505 539 506 6927 4855 6928 6932 4533 4856 
506 539 837 540 4856 6933 6934 4865 4867 6935 
803 837 804 506 6936 6937 6711 6701 6934 6706 
506 539 836 837 4856 6928 6932 6934 6933 6938 
803 837 506 836 6936 6934 6701 6930 6938 6932 
804 506 837 507 6706 6934 6937 6708 4543 6939 
837 506 540 507 6934 4865 6935 6939 4543 4866 
507 540 838 541 4866 6940 6941 4875 4877 6942 
804 838 805 507 6943 6944 6718 6708 6941 6713 
507 540 837 838 4866 6935 6939 6941 6940 6945 
804 838 507 837 6943 6941 6708 6937 6945 6939 
805 507 838 508 6713 6941 6944 6715 4553 6946 
838 507 541 508 6941 4875 6942 6946 4553 4876 
508 541 839 542 4876 6947 6948 4885 4887 6949 
805 839 806 508 6950 6951 6725 6715 6948 6720 
508 541 838 839 4876 6942 6946 6948 6947 6952 
805 839 508 838 6950 6948 6715 6944 6952 6946 
806 508 839 509 6720 6948 6951 6722 4563 6953 
839 508 542 509 6948 4885 6949 6953 4563 4886 
509 542 840 543 4886 6954 6955 4895 4897 6956 
806 840 807 509 6957 6958 6732 6722 6955 6727 
509 542 839 840 4886 6949 6953 6955 6954 6959 
806 840 509 839 6957 6955 6722 6951 6959 6953 
807 509 840 510 6727 6955 6958 6729 4573 6960 
840 509 543 510 6955 4895 6956 6960 4573 4896 
510 543 841 544 4896 6961 6962 4905 4907 6963 
807 841 808 510 6964 6965 6739 6729 6962 6734 
510 543 840 841 4896 6956 6960 6962 6961 6966 
807 841 510 840 6964 6962 6729 6958 6966 6960 
808 510 841 511 6734 6962 6965 6736 4583 6967 
841 510 544 511 6962 4905 6963 6967 4583 4906 
511 544 842 545 4906 6968 6969 4915 4917 6970 
808 842 809 511 6971 6972 6746 6736 6969 6741 
511 544 841 842 4906 6963 6967 6969 6968 6973 
808 842 511 841 6971 6969 6736 6965 6973 6967 
809 511 842 512 6741 6969 6972 6743 4593 6974 
842 511 545 512 6969 4915 6970 6974 4593 4916 
512 545 843 546 4916 6975 6976 4925 4927 6977 
809 843 810 512 6978 6979 6753 6743 6976 6748 
512 545 842 843 4916 6970 6974 6976 6975 6980 
809 843 512 842 6978 6976 6743 6972 6980 6974 
810 512 843 513 6748 6976 6979 6750 4603 6981 
843 512 546 513 6976 4925 6977 6981 4603 4926 
513 546 844 547 4926 6982 6983 4935 4937 6984 
810 844 811 513 6985 6986 6760 6750 6983 6755 
513 546 843 844 4926 6977 6981 6983 6982 6987 
810 844 513 843 6985 6983 6750 6979 6987 6981 
811 513 844 514 6755 6983 6986 6757 4613 6988 
844 513 547 514 6983 4935 6984 6988 4613 4936 
514 547 845 548 4936 6989 6990 4945 4947 6991 
811 845 812 514 6992 6993 6767 6757 6990 6762 
514 547 844 845 4936 6984 6988 6990 6989 6994 
811 845 514 844 6992 6990 6757 6986 6994 6988 
812 514 845 515 6762 6990 6993 6764 4623 6995 
845 514 548 515 6990 4945 6991 6995 4623 4946 
515 548 846 549 4946 6996 6997 4955 4957 6998 
812 846 813 515 6999 7000 6774 6764 6997 6769 
515 548 845 846 4946 6991 6995 6997 6996 7001 
812 846 515 845 6999 6997 6764 6993 7001 6995 
813 515 846 516 6769 6997 7000 6771 4633 7002 
846 515 549 516 6997 4955 6998 7002 4633 4956 
516 549 847 550 4956 7003 7004 4965 4967 7005 
813 847 814 516 7006 7007 6781 6771 7004 6776 
516 549 846 847 4956 6998 7002 7004 7003 7008 
813 847 516 846 7006 7004 6771 7000 7008 7002 
814 516 847 517 6776 7004 7007 6778 4643 7009 
847 516 550 517 7004 4965 7005 7009 4643 4966 
517 550 848 551 4966 7010 7011 4975 4977 7012 
814 848 815 517 7013 7014 6788 6778 7011 6783 
517 550 847 848 4966 7005 7009 7011 7010 7015 
814 848 517 847 7013 7011 6778 7007 7015 7009 
815 517 848 518 6783 7011 7014 6785 4653 7016 
848 517 551 518 7011 4975 7012 7016 4653 4976 
518 551 849 552 4976 7017 7018 4985 4987 7019 
815 849 816 518 7020 7021 6795 6785 7018 6790 
518 551 848 849 4976 7012 7016 7018 7017 7022 
815 849 518 848 7020 7018 6785 7014 7022 7016 
816 518 849 519 6790 7018 7021 6792 4663 7023 
849 518 552 519 7018 4985 7019 7023 4663 4986 
519 552 850 553 4986 7024 7025 4995 4997 7026 
816 850 817 519 7027 7028 6802 6792 7025 6797 
519 552 849 850 4986 7019 7023 7025 7024 7029 
816 850 519 849 7027 7025 6792 7021 7029 7023 
817 519 850 520 6797 7025 7028 6799 4673 7030 
850 519 553 520 7025 4995 7026 7030 4673 4996 
520 553 851 554 4996 7031 7032 5005 5007 7033 
817 851 818 520 7034 7035 6809 6799 7032 6804 
520 553 850 851 4996 7026 7030 7032 7031 7036 
817 851 520 850 7034 7032 6799 7028 7036 7030 
818 520 851 521 6804 7032 7035 6806 4683 7037 
851 520 554 521 7032 5005 7033 7037 4683 5006 
521 554 852 555 5006 7038 7039 5015 5017 7040 
818 852 819 521 7041 7042 6816 6806 7039 6811 
521 554 851 852 5006 7033 7037 7039 7038 7043 
818 852 521 851 7041 7039 6806 7035 7043 7037 
819 521 852 522 6811 7039 7042 6813 4693 7044 
852 521 555 522 7039 5015 7040 7044 4693 5016 
522 555 853 556 5016 7045 7046 5025 5027 7047 
819 853 820 522 7048 7049 6823 6813 7046 6818 
522 555 852 853 5016 7040 7044 7046 7045 7050 
819 853 522 852 7048 7046 6813 7042 7050 7044 
820 522 853 523 6818 7046 7049 6820 4703 7051 
853 522 556 523 7046 5025 7047 7051 4703 5026 
523 556 854 557 5026 7052 7053 5035 5037 7054 
820 854 821 523 7055 7056 6830 6820 7053 6825 
523 556 853 854 5026 7047 7051 7053 7052 7057 
820 854 523 853 7055 7053 6820 7049 7057 7051 
821 523 854 524 6825 7053 7056 6827 4713 7058 
854 523 557 524 7053 5035 7054 7058 4713 5036 
524 557 855 558 5036 7059 7060 5045 5047 7061 
821 855 822 524 7062 7063 6837 6827 7060 6832 
524 557 854 855 5036 7054 7058 7060 7059 7064 
821 855 524 854 7062 7060 6827 7056 7064 7058 
822 524 855 525 6832 7060 7063 6834 4723 7065 
855 524 558 525 7060 5045 7061 7065 4723 5046 
525 558 856 559 5046 7066 7067 5055 5057 7068 
822 856 823 525 7069 7070 6844 6834 7067 6839 
525 558 855 856 5046 7061 7065 7067 7066 7071 
822 856 525 855 7069 7067 6834 7063 7071 7065 
823 525 856 526 6839 7067 7070 6841 4733 7072 
856 525 559 526 7067 5055 7068 7072 4733 5056 
526 559 857 560 5056 7073 7074 5065 5067 7075 
823 857 824 526 7076 7077 6851 6841 7074 6846 
526 559 856 857 5056 7068 7072 7074 7073 7078 
823 857 526 856 7076 7074 6841 7070 7078 7072 
824 526 857 527 6846 7074 7077 6848 4743 7079 
857 526 560 527 7074 5065 7075 7079 4743 5066 
528 561 859 562 5081 7080 7081 5076 5080 7082 
825 859 826 528 7083 7084 6860 6858 7081 6853 
528 561 858 859 5081 7085 7086 7081 7080 7087 
825 859 528 858 7083 7081 6858 7088 7087 7086 
826 528 859 529 6853 7081 7084 6855 4756 7089 
859 528 562 529 7081 5076 7082 7089 4756 5077 
529 562 860 563 5077 7090 7091 5089 5091 7092 
826 860 827 529 7093 7094 6868 6855 7091 6863 
529 562 859 860 5077 7082 7089 7091 7090 7095 
826 860 529 859 7093 7091 6855 7084 7095 7089 
827 529 860 530 6863 7091 7094 6865 4767 7096 
860 529 563 530 7091 5089 7092 7096 4767 5090 
530 563 861 564 5090 7097 7098 5099 5101 7099 
827 861 828 530 7100 7101 6875 6865 7098 6870 
530 563 860 861 5090 7092 7096 7098 7097 7102 
827 861 530 860 7100 7098 6865 7094 7102 7096 
828 530 861 531 6870 7098 7101 6872 4777 7103 
861 530 564 531 7098 5099 7099 7103 4777 5100 
531 564 862 565 5100 7104 7105 5109 5111 7106 
828 862 829 531 7107 7108 6882 6872 7105 6877 
531 564 861 862 5100 7099 7103 7105 7104 7109 
828 862 531 861 7107 7105 6872 7101 7109 7103 
829 531 862 532 6877 7105 7108 6879 4787 7110 
862 531 565 532 7105 5109 7106 7110 4787 5110 
532 565 863 566 5110 7111 7112 5119 5121 7113 
829 863 830 532 7114 7115 6889 6879 7112 6884 
532 565 862 863 5110 7106 7110 7112 7111 7116 
829 863 532 862 7114 7112 6879 7108 7116 7110 
830 532 863 533 6884 7112 7115 6886 4797 7117 
863 532 566 533 7112 5119 7113 7117 4797 5120 
533 566 864 567 5120 7118 7119 5129 5131 7120 
830 864 831 533 7121 7122 6896 6886 7119 6891 
533 566 863 864 5120 7113 7117 7119 7118 7123 
830 864 533 863 7121 7119 6886 7115 7123 7117 
831 533 864 534 6891 7119 7122 6893 4807 7124 
864 533 567 534 7119 5129 7120 7124 4807 5130 
534 567 865 568 5130 7125 7126 5139 5141 7127 
831 865 832 534 7128 7129 6903 6893 7126 6898 
534 567 864 865 5130 7120 7124 7126 7125 7130 
831 865 534 864 7128 7126 6893 7122 7130 7124 
832 534 865 535 6898 7126 7129 6900 4817 7131 
865 534 568 535 7126 5139 7127 7131 4817 5140 
535 568 866 569 5140 7132 7133 5149 5151 7134 
832 866 833 535 7135 7136 6910 6900 7133 6905 
535 568 865 866 5140 7127 7131 7133 7132 7137 
832 866 535 865 7135 7133 6900 7129 7137 7131 
833 535 866 536 6905 7133 7136 6907 4827 7138 
866 535 569 536 7133 5149 7134 7138 4827 5150 
536 569 867 570 5150 7139 7140 5159 5161 7141 
833 867 834 536 7142 7143 6917 6907 7140 6912 
536 569 866 867 5150 7134 7138 7140 7139 7144 
833 867 536 866 7142 7140 6907 7136 7144 7138 
834 536 867 537 6912 7140 7143 6914 4837 7145 
867 536 570 537 7140 5159 7141 7145 4837 5160 
537 570 868 571 5160 7146 7147 5169 5171 7148 
834 868 835 537 7149 7150 6924 6914 7147 6919 
537 570 867 868 5160 7141 7145 7147 7146 7151 
834 868 537 867 7149 7147 6914 7143 7151 7145 
835 537 868 538 6919 7147 7150 6921 4847 7152 
868 537 571 538 7147 5169 7148 7152 4847 5170 
538 571 869 572 5170 7153 7154 5179 5181 7155 
835 869 836 538 7156 7157 6931 6921 7154 6926 
538 571 868 869 5170 7148 7152 7154 7153 7158 
835 869 538 868 7156 7154 6921 7150 7158 7152 
836 538 869 539 6926 7154 7157 6928 4857 7159 
869 538 572 539 7154 5179 7155 7159 4857 5180 
539 572 870 573 5180 7160 7161 5189 5191 7162 
836 870 837 539 7163 7164 6938 6928 7161 6933 
539 572 869 870 5180 7155 7159 7161 7160 7165 
836 870 539 869 7163 7161 6928 7157 7165 7159 
837 539 870 540 6933 7161 7164 6935 4867 7166 
870 539 573 540 7161 5189 7162 7166 4867 5190 
540 573 871 574 5190 7167 7168 5199 5201 7169 
837 871 838 540 7170 7171 6945 6935 7168 6940 
540 573 870 871 5190 7162 7166 7168 7167 7172 
837 871 540 870 7170 7168 6935 7164 7172 7166 
838 540 871 541 6940 7168 7171 6942 4877 7173 
871 540 574 541 7168 5199 7169 7173 4877 5200 
541 574 872 575 5200 7174 7175 5209 5211 7176 
838 872 839 541 7177 7178 6952 6942 7175 6947 
541 574 871 872 5200 7169 7173 7175 7174 7179 
838 872 541 871 7177 7175 6942 7171 7179 7173 
839 541 872 542 6947 7175 7178 6949 4887 7180 
872 541 575 542 7175 5209 7176 7180 4887 5210 
542 575 873 576 5210 7181 7182 5219 5221 7183 
839 873 840 542 7184 7185 6959 6949 7182 6954 
542 575 872 873 5210 7176 7180 7182 7181 7186 
839 873 542 872 7184 7182 6949 7178 7186 7180 
840 542 873 543 6954 7182 7185 6956 4897 7187 
873 542 576 543 7182 5219 7183 7187 4897 5220 
543 576 874 577 5220 7188 7189 5229 5231 7190 
840 874 841 543 7191 7192 6966 6956 7189 6961 
543 576 873 874 5220 7183 7187 7189 7188 7193 
840 874 543 873 7191 7189 6956 7185 7193 7187 
841 543 874 544 6961 7189 7192 6963 4907 7194 
874 543 577 544 7189 5229 7190 7194 4907 5230 
544 577 875 578 5230 7195 7196 5239 5241 7197 
841 875 842 544 7198 7199 6973 6963 7196 6968 
544 577 874 875 5230 7190 7194 7196 7195 7200 
841 875 544 874 7198 7196 6963 7192 7200 7194 
842 544 875 545 6968 7196 7199 6970 4917 7201 
875 544 578 545 7196 5239 7197 7201 4917 5240 
545 578 876 579 5240 7202 7203 5249 5251 7204 
842 876 843 545 7205 7206 6980 6970 7203 6975 
545 578 875 876 5240 7197 7201 7203 7202 7207 
842 876 545 875 7205 7203 6970 7199 7207 7201 
843 545 876 546 6975 7203 7206 6977 4927 7208 
876 545 579 546 7203 5249 7204 7208 4927 5250 
546 579 877 580 5250 7209 7210 5259 5261 7211 
843 877 844 546 7212 7213 6987 6977 7210 6982 
546 579 876 877 5250 7204 7208 7210 7209 7214 
843 877 546 876 7212 7210 6977 7206 7214 7208 
844 546 877 547 6982 7210 7213 6984 4937 7215 
877 546 580 547 7210 5259 7211 7215 4937 5260 
547 580 878 581 5260 7216 7217 5269 5271 7218 
844 878 845 547 7219 7220 6994 6984 7217 6989 
547 580 877 878 5260 7211 7215 7217 7216 7221 
844 878 547 877 7219 7217 6984 7213 7221 7215 
845 547 878 548 6989 7217 7220 6991 4947 7222 
878 547 581 548 7217 5269 7218 7222 4947 5270 
548 581 879 582 5270 7223 7224 5279 5281 7225 
845 879 846 548 7226 7227 7001 6991 7224 6996 
548 581 878 879 5270 7218 7222 7224 7223 7228 
845 879 548 878 7226 7224 6991 7220 7228 7222 
846 548 879 549 6996 7224 7227 6998 4957 7229 
879 548 582 549 7224 5279 7225 7229 4957 5280 
549 582 880 583 5280 7230 7231 5289 5291 7232 
846 880 847 549 7233 7234 7008 6998 7231 7003 
549 582 879 880 5280 7225 7229 7231 7230 7235 
846 880 549 879 7233 7231 6998 7227 7235 7229 
847 549 880 550 7003 7231 7234 7005 4967 7236 
880 549 583 550 7231 5289 7232 7236 4967 5290 
550 583 881 584 5290 7237 7238 5299 5301 7239 
847 881 848 550 7240 7241 7015 7005 7238 7010 
550 583 880 881 5290 7232 7236 7238 7237 7242 
847 881 550 880 7240 7238 7005 7234 7242 7236 
848 550 881 551 7010 7238 7241 7012 4977 7243 
881 550 584 551 7238 5299 7239 7243 4977 5300 
551 584 882 585 5300 7244 7245 5309 5311 7246 
848 882 849 551 7247 7248 7022 7012 7245 7017 
551 584 881 882 5300 7239 7243 7245 7244 7249 
848 882 551 881 7247 7245 7012 7241 7249 7243 
849 551 882 552 7017 7245 7248 7019 4987 7250 
882 551 585 552 7245 5309 7246 7250 4987 5310 
552 585 883 586 5310 7251 7252 5319 5321 7253 
849 883 850 552 7254 7255 7029 7019 7252 7024 
552 585 882 883 5310 7246 7250 7252 7251 7256 
849 883 552 882 7254 7252 7019 7248 7256 7250 
850 552 883 553 7024 7252 7255 7026 4997 7257 
883 552 586 553 7252 5319 7253 7257 4997 5320 
553 586 884 587 5320 7258 7259 5329 5331 7260 
850 884 851 553 7261 7262 7036 7026 7259 7031 
553 586 883 884 5320 7253 7257 7259 7258 7263 
850 884 553 883 7261 7259 7026 7255 7263 7257 
851 553 884 554 7031 7259 7262 7033 5007 7264 
884 553 587 554 7259 5329 7260 7264 5007 5330 
554 587 885 588 5330 7265 7266 5339 5341 7267 
851 885 852 554 7268 7269 7043 7033 7266 7038 
554 587 884 885 5330 7260 7264 7266 7265 7270 
851 885 554 884 7268 7266 7033 7262 7270 7264 
852 554 885 555 7038 7266 7269 7040 5017 7271 
885 554 588 555 7266 5339 7267 7271 5017 5340 
555 588 886 589 5340 7272 7273 5349 5351 7274 
852 886 853 555 7275 7276 7050 7040 7273 7045 
555 588 885 886 5340 7267 7271 7273 7272 7277 
852 886 555 885 7275 7273 7040 7269 7277 7271 
853 555 886 556 7045 7273 7276 7047 5027 7278 
886 555 589 556 7273 5349 7274 7278 5027 5350 
556 589 887 590 5350 7279 7280 5359 5361 7281 
853 887 854 556 7282 7283 7057 7047 7280 7052 
556 589 886 887 5350 7274 7278 7280 7279 7284 
853 887 556 886 7282 7280 7047 7276 7284 7278 
854 556 887 557 7052 7280 7283 7054 5037 7285 
887 556 590 557 7280 5359 7281 7285 5037 5360 
557 590 888 591 5360 7286 7287 5369 5371 7288 
854 888 855 557 7289 7290 7064 7054 7287 7059 
557 590 887 888 5360 7281 7285 7287 7286 7291 
854 888 557 887 7289 7287 7054 7283 7291 7285 
855 557 888 558 7059 7287 7290 7061 5047 7292 
888 557 591 558 7287 5369 7288 7292 5047 5370 
558 591 889 592 5370 7293 7294 5379 5381 7295 
855 889 856 558 7296 7297 7071 7061 7294 7066 
558 591 888 889 5370 7288 7292 7294 7293 7298 
855 889 558 888 7296 7294 7061 7290 7298 7292 
856 558 889 559 7066 7294 7297 7068 5057 7299 
889 558 592 559 7294 5379 7295 7299 5057 5380 
559 592 890 593 5380 7300 7301 5389 5391 7302 
856 890 857 559 7303 7304 7078 7068 7301 7073 
559 592 889 890 5380 7295 7299 7301 7300 7305 
856 890 559 889 7303 7301 7068 7297 7305 7299 
857 559 890 560 7073 7301 7304 7075 5067 7306 
890 559 593 560 7301 5389 7302 7306 5067 5390 
594 627 925 628 5405 7307 7308 5397 5404 7309 
891 925 892 594 7310 7311 7312 7313 7308 7314 
594 627 924 925 5405 7315 7316 7308 7307 7317 
891 925 594 924 7310 7308 7313 7318 7317 7316 
892 594 925 595 7314 7308 7311 7319 5399 7320 
925 594 628 595 7308 5397 7309 7320 5399 5398 
595 628 926 629 5398 7321 7322 5411 5415 7323 
892 926 893 595 7324 7325 7326 7319 7322 7327 
595 628 925 926 5398 7309 7320 7322 7321 7328 
892 926 595 925 7324 7322 7319 7311 7328 7320 
893 595 926 596 7327 7322 7325 7329 5413 7330 
926 595 629 596 7322 5411 7323 7330 5413 5412 
596 629 927 630 5412 7331 7332 5421 5425 7333 
893 927 894 596 7334 7335 7336 7329 7332 7337 
596 629 926 927 5412 7323 7330 7332 7331 7338 
893 927 596 926 7334 7332 7329 7325 7338 7330 
894 596 927 597 7337 7332 7335 7339 5423 7340 
927 596 630 597 7332 5421 7333 7340 5423 5422 
597 630 928 631 5422 7341 7342 5431 5435 7343 
894 928 895 597 7344 7345 7346 7339 7342 7347 
597 630 927 928 5422 7333 7340 7342 7341 7348 
894 928 597 927 7344 7342 7339 7335 7348 7340 
895 597 928 598 7347 7342 7345 7349 5433 7350 
928 597 631 598 7342 5431 7343 7350 5433 5432 
598 631 929 632 5432 7351 7352 5441 5445 7353 
895 929 896 598 7354 7355 7356 7349 7352 7357 
598 631 928 929 5432 7343 7350 7352 7351 7358 
895 929 598 928 7354 7352 7349 7345 7358 7350 
896 598 929 599 7357 7352 7355 7359 5443 7360 
929 598 632 599 7352 5441 7353 7360 5443 5442 
599 632 930 633 5442 7361 7362 5451 5455 7363 
896 930 897 599 7364 7365 7366 7359 7362 7367 
599 632 929 930 5442 7353 7360 7362 7361 7368 
896 930 599 929 7364 7362 7359 7355 7368 7360 
897 599 930 600 7367 7362 7365 7369 5453 7370 
930 599 633 600 7362 5451 7363 7370 5453 5452 
600 633 931 634 5452 7371 7372 5461 5465 7373 
897 931 898 600 7374 7375 7376 7369 7372 7377 
600 633 930 931 5452 7363 7370 7372 7371 7378 
897 931 600 930 7374 7372 7369 7365 7378 7370 
898 600 931 601 7377 7372 7375 7379 5463 7380 
931 600 634 601 7372 5461 7373 7380 5463 5462 
601 634 932 635 5462 7381 7382 5471 5475 7383 
898 932 899 601 7384 7385 7386 7379 7382 7387 
601 634 931 932 5462 7373 7380 7382 7381 7388 
898 932 601 931 7384 7382 7379 7375 7388 7380 
899 601 932 602 7387 7382 7385 7389 5473 7390 
932 601 635 602 7382 5471 7383 7390 5473 5472 
602 635 933 636 5472 7391 7392 5481 5485 7393 
899 933 900 602 7394 7395 7396 7389 7392 7397 
602 635 932 933 5472 7383 7390 7392 7391 7398 
899 933 602 932 7394 7392 7389 7385 7398 7390 
900 602 933 603 7397 7392 7395 7399 5483 7400 
933 602 636 603 7392 5481 7393 7400 5483 5482 
603 636 934 637 5482 7401 7402 5491 5495 7403 
900 934 901 603 7404 7405 7406 7399 7402 7407 
603 636 933 934 5482 7393 7400 7402 7401 7408 
900 934 603 933 7404 7402 7399 7395 7408 7400 
901 603 934 604 7407 7402 7405 7409 5493 7410 
934 603 637 604 7402 5491 7403 7410 5493 5492 
604 637 935 638 5492 7411 7412 5501 5505 7413 
901 935 902 604 7414 7415 7416 7409 7412 7417 
604 637 934 935 5492 7403 7410 7412 7411 7418 
901 935 604 934 7414 7412 7409 7405 7418 7410 
902 604 935 605 7417 7412 7415 7419 5503 7420 
935 604 638 605 7412 5501 7413 7420 5503 5502 
605 638 936 639 5502 7421 7422 5511 5515 7423 
902 936 903 605 7424 7425 7426 7419 7422 7427 
605 638 935 936 5502 7413 7420 7422 7421 7428 
902 936 605 935 7424 7422 7419 7415 7428 7420 
903 605 936 606 7427 7422 7425 7429 5513 7430 
936 605 639 606 7422 5511 7423 7430 5513 5512 
606 639 937 640 5512 7431 7432 5521 5525 7433 
903 937 904 606 7434 7435 7436 7429 7432 7437 
606 639 936 937 5512 7423 7430 7432 7431 7438 
903 937 606 936 7434 7432 7429 7425 7438 7430 
904 606 937 607 7437 7432 7435 7439 5523 7440 
937 606 640 607 7432 5521 7433 7440 5523 5522 
607 640 938 641 5522 7441 7442 5531 5535 7443 
904 938 905 607 7444 7445 7446 7439 7442 7447 
607 640 937 938 5522 7433 7440 7442 7441 7448 
904 938 607 937 7444 7442 7439 7435 7448 7440 
905 607 938 608 7447 7442 7445 7449 5533 7450 
938 607 641 608 7442 5531 7443 7450 5533 5532 
608 641 939 642 5532 7451 7452 5541 5545 7453 
905 939 906 608 7454 7455 7456 7449 7452 7457 
608 641 938 939 5532 7443 7450 7452 7451 7458 
905 939 608 938 7454 7452 7449 7445 7458 7450 
906 608 939 609 7457 7452 7455 7459 5543 7460 
939 608 642 609 7452 5541 7453 7460 5543 5542 
609 642 940 643 5542 7461 7462 5551 5555 7463 
906 940 907 609 7464 7465 7466 7459 7462 7467 
609 642 939 940 5542 7453 7460 7462 7461 7468 
906 940 609 939 7464 7462 7459 7455 7468 7460 
907 609 940 610 7467 7462 7465 7469 5553 7470 
940 609 643 610 7462 5551 7463 7470 5553 5552 
610 643 941 644 5552 7471 7472 5561 5565 7473 
907 941 908 610 7474 7475 7476 7469 7472 7477 
610 643 940 941 5552 7463 7470 7472 7471 7478 
907 941 610 940 7474 7472 7469 7465 7478 7470 
908 610 941 611 7477 7472 7475 7479 5563 7480 
941 610 644 611 7472 5561 7473 7480 5563 5562 
611 644 942 645 5562 7481 7482 5571 5575 7483 
908 942 909 611 7484 7485 7486 7479 7482 7487 
611 644 941 942 5562 7473 7480 7482 7481 7488 
908 942 611 941 7484 7482 7479 7475 7488 7480 
909 611 942 612 7487 7482 7485 7489 5573 7490 
942 611 645 612 7482 5571 7483 7490 5573 5572 
612 645 943 646 5572 7491 7492 5581 5585 7493 
909 943 910 612 7494 7495 7496 7489 7492 7497 
612 645 942 943 5572 7483 7490 7492 7491 7498 
909 943 612 942 7494 7492 7489 7485 7498 7490 
910 612 943 613 7497 7492 7495 7499 5583 7500 
943 612 646 613 7492 5581 7493 7500 5583 5582 
613 646 944 647 5582 7501 7502 5591 5595 7503 
910 944 911 613 7504 7505 7506 7499 7502 7507 
613 646 943 944 5582 7493 7500 7502 7501 7508 
910 944 613 943 7504 7502 7499 7495 7508 7500 
911 613 944 614 7507 7502 7505 7509 5593 7510 
944 613 647 614 7502 5591 7503 7510 5593 5592 
614 647 945 648 5592 7511 7512 5601 5605 7513 
911 945 912 614 7514 7515 7516 7509 7512 7517 
614 647 944 945 5592 7503 7510 7512 7511 7518 
911 945 614 944 7514 7512 7509 7505 7518 7510 
912 614 945 615 7517 7512 7515 7519 5603 7520 
945 614 648 615 7512 5601 7513 7520 5603 5602 
615 648 946 649 5602 7521 7522 5611 5615 7523 
912 946 913 615 7524 7525 7526 7519 7522 7527 
615 648 945 946 5602 7513 7520 7522 7521 7528 
912 946 615 945 7524 7522 7519 7515 7528 7520 
913 615 946 616 7527 7522 7525 7529 5613 7530 
946 615 649 616 7522 5611 7523 7530 5613 5612 
616 649 947 650 5612 7531 7532 5621 5625 7533 
913 947 914 616 7534 7535 7536 7529 7532 7537 
616 649 946 947 5612 7523 7530 7532 7531 7538 
913 947 616 946 7534 7532 7529 7525 7538 7530 
914 616 947 617 7537 7532 7535 7539 5623 7540 
947 616 650 617 7532 5621 7533 7540 5623 5622 
617 650 948 651 5622 7541 7542 5631 5635 7543 
914 948 915 617 7544 7545 7546 7539 7542 7547 
617 650 947 948 5622 7533 7540 7542 7541 7548 
914 948 617 947 7544 7542 7539 7535 7548 7540 
915 617 948 618 7547 7542 7545 7549 5633 7550 
948 617 651 618 7542 5631 7543 7550 5633 5632 
618 651 949 652 5632 7551 7552 5641 5645 7553 
915 949 916 618 7554 7555 7556 7549 7552 7557 
618 651 948 949 5632 7543 7550 7552 7551 7558 
915 949 618 948 7554 7552 7549 7545 7558 7550 
916 618 949 619 7557 7552 7555 7559 5643 7560 
949 618 652 619 7552 5641 7553 7560 5643 5642 
619 652 950 653 5642 7561 7562 5651 5655 7563 
916 950 917 619 7564 7565 7566 7559 7562 7567 
619 652 949 950 5642 7553 7560 7562 7561 7568 
916 950 619 949 7564 7562 7559 7555 7568 7560 
917 619 950 620 7567 7562 7565 7569 5653 7570 
950 619 653 620 7562 5651 7563 7570 5653 5652 
620 653 951 654 5652 7571 7572 5661 5665 7573 
917 951 918 620 7574 7575 7576 7569 7572 7577 
620 653 950 951 5652 7563 7570 7572 7571 7578 
917 951 620 950 7574 7572 7569 7565 7578 7570 
918 620 951 621 7577 7572 7575 7579 5663 7580 
951 620 654 621 7572 5661 7573 7580 5663 5662 
621 654 952 655 5662 7581 7582 5671 5675 7583 
918 952 919 621 7584 7585 7586 7579 7582 7587 
621 654 951 952 5662 7573 7580 7582 7581 7588 
918 952 621 951 7584 7582 7579 7575 7588 7580 
919 621 952 622 7587 7582 7585 7589 5673 7590 
952 621 655 622 7582 5671 7583 7590 5673 5672 
622 655 953 656 5672 7591 7592 5681 5685 7593 
919 953 920 622 7594 7595 7596 7589 7592 7597 
622 655 952 953 5672 7583 7590 7592 7591 7598 
919 953 622 952 7594 7592 7589 7585 7598 7590 
920 622 953 623 7597 7592 7595 7599 5683 7600 
953 622 656 623 7592 5681 7593 7600 5683 5682 
623 656 954 657 5682 7601 7602 5691 5695 7603 
920 954 921 623 7604 7605 7606 7599 7602 7607 
623 656 953 954 5682 7593 7600 7602 7601 7608 
920 954 623 953 7604 7602 7599 7595 7608 7600 
921 623 954 624 7607 7602 7605 7609 5693 7610 
954 623 657 624 7602 5691 7603 7610 5693 5692 
624 657 955 658 5692 7611 7612 5701 5705 7613 
921 955 922 624 7614 7615 7616 7609 7612 7617 
624 657 954 955 5692 7603 7610 7612 7611 7618 
921 955 624 954 7614 7612 7609 7605 7618 7610 
922 624 955 625 7617 7612 7615 7619 5703 7620 
955 624 658 625 7612 5701 7613 7620 5703 5702 
625 658 956 659 5702 7621 7622 5711 5715 7623 
922 956 923 625 7624 7625 7626 7619 7622 7627 
625 658 955 956 5702 7613 7620 7622 7621 7628 
922 956 625 955 7624 7622 7619 7615 7628 7620 
923 625 956 626 7627 7622 7625 7629 5713 7630 
956 625 659 626 7622 5711 7623 7630 5713 5712 
627 660 958 661 5726 7631 7632 5721 5725 7633 
924 958 925 627 7634 7635 7317 7315 7632 7307 
627 660 957 958 5726 7636 7637 7632 7631 7638 
924 958 627 957 7634 7632 7315 7639 7638 7637 
925 627 958 628 7307 7632 7635 7309 5404 7640 
958 627 661 628 7632 5721 7633 7640 5404 5722 
628 661 959 662 5722 7641 7642 5731 5733 7643 
925 959 926 628 7644 7645 7328 7309 7642 7321 
628 661 958 959 5722 7633 7640 7642 7641 7646 
925 959 628 958 7644 7642 7309 7635 7646 7640 
926 628 959 629 7321 7642 7645 7323 5415 7647 
959 628 662 629 7642 5731 7643 7647 5415 5732 
629 662 960 663 5732 7648 7649 5738 5740 7650 
926 960 927 629 7651 7652 7338 7323 7649 7331 
629 662 959 960 5732 7643 7647 7649 7648 7653 
926 960 629 959 7651 7649 7323 7645 7653 7647 
927 629 960 630 7331 7649 7652 7333 5425 7654 
960 629 663 630 7649 5738 7650 7654 5425 5739 
630 663 961 664 5739 7655 7656 5745 5747 7657 
927 961 928 630 7658 7659 7348 7333 7656 7341 
630 663 960 961 5739 7650 7654 7656 7655 7660 
927 961 630 960 7658 7656 7333 7652 7660 7654 
928 630 961 631 7341 7656 7659 7343 5435 7661 
961 630 664 631 7656 5745 7657 7661 5435 5746 
631 664 962 665 5746 7662 7663 5752 5754 7664 
928 962 929 631 7665 7666 7358 7343 7663 7351 
631 664 961 962 5746 7657 7661 7663 7662 7667 
928 962 631 961 7665 7663 7343 7659 7667 7661 
929 631 962 632 7351 7663 7666 7353 5445 7668 
962 631 665 632 7663 5752 7664 7668 5445 5753 
632 665 963 666 5753 7669 7670 5759 5761 7671 
929 963 930 632 7672 7673 7368 7353 7670 7361 
632 665 962 963 5753 7664 7668 7670 7669 7674 
929 963 632 962 7672 7670 7353 7666 7674 7668 
930 632 963 633 7361 7670 7673 7363 5455 7675 
963 632 666 633 7670 5759 7671 7675 5455 5760 
633 666 964 667 5760 7676 7677 5766 5768 7678 
930 964 931 633 7679 7680 7378 7363 7677 7371 
633 666 963 964 5760 7671 7675 7677 7676 7681 
930 964 633 963 7679 7677 7363 7673 7681 7675 
931 633 964 634 7371 7677 7680 7373 5465 7682 
964 633 667 634 7677 5766 7678 7682 5465 5767 
634 667 965 668 5767 7683 7684 5773 5775 7685 
931 965 932 634 7686 7687 7388 7373 7684 7381 
634 667 964 965 5767 7678 7682 7684 7683 7688 
931 965 634 964 7686 7684 7373 7680 7688 7682 
932 634 965 635 7381 7684 7687 7383 5475 7689 
965 634 668 635 7684 5773 7685 7689 5475 5774 
635 668 966 669 5774 7690 7691 5780 5782 7692 
932 966 933 635 7693 7694 7398 7383 7691 7391 
635 668 965 966 5774 7685 7689 7691 7690 7695 
932 966 635 965 7693 7691 7383 7687 7695 7689 
933 635 966 636 7391 7691 7694 7393 5485 7696 
966 635 669 636 7691 5780 7692 7696 5485 5781 
636 669 967 670 5781 7697 7698 5787 5789 7699 
933 967 934 636 7700 7701 7408 7393 7698 7401 
636 669 966 967 5781 7692 7696 7698 7697 7702 
933 967 636 966 7700 7698 7393 7694 7702 7696 
934 636 967 637 7401 7698 7701 7403 5495 7703 
967 636 670 637 7698 5787 7699 7703 5495 5788 
637 670 968 671 5788 7704 7705 5794 5796 7706 
934 968 935 637 7707 7708 7418 7403 7705 7411 
637 670 967 968 5788 7699 7703 7705 7704 7709 
934 968 637 967 7707 7705 7403 7701 7709 7703 
935 637 968 638 7411 7705 7708 7413 5505 7710 
968 637 671 638 7705 5794 7706 7710 5505 5795 
638 671 969 672 5795 7711 7712 5801 5803 7713 
935 969 936 638 7714 7715 7428 7413 7712 7421 
638 671 968 969 5795 7706 7710 7712 7711 7716 
935 969 638 968 7714 7712 7413 7708 7716 7710 
936 638 969 639 7421 7712 7715 7423 5515 7717 
969 638 672 639 7712 5801 7713 7717 5515 5802 
639 672 970 673 5802 7718 7719 5808 5810 7720 
936 970 937 639 7721 7722 7438 7423 7719 7431 
639 672 969 970 5802 7713 7717 7719 7718 7723 
936 970 639 969 7721 7719 7423 7715 7723 7717 
937 639 970 640 7431 7719 7722 7433 5525 7724 
970 639 673 640 7719 5808 7720 7724 5525 5809 
640 673 971 674 5809 7725 7726 5815 5817 7727 
937 971 938 640 7728 7729 7448 7433 7726 7441 
640 673 970 971 5809 7720 7724 7726 7725 7730 
937 971 640 970 7728 7726 7433 7722 7730 7724 
938 640 971 641 7441 7726 7729 7443 5535 7731 
971 640 674 641 7726 5815 7727 7731 5535 5816 
641 674 972 675 5816 7732 7733 5822 5824 7734 
938 972 939 641 7735 7736 7458 7443 7733 7451 
641 674 971 972 5816 7727 7731 7733 7732 7737 
938 972 641 971 7735 7733 7443 7729 7737 7731 
939 641 972 642 7451 7733 7736 7453 5545 7738 
972 641 675 642 7733 5822 7734 7738 5545 5823 
642 675 973 676 5823 7739 7740 5829 5831 7741 
939 973 940 642 7742 7743 7468 7453 7740 7461 
642 675 972 973 5823 7734 7738 7740 7739 7744 
939 973 642 972 7742 7740 7453 7736 7744 7738 
940 642 973 643 7461 7740 7743 7463 5555 7745 
973 642 676 643 7740 5829 7741 7745 5555 5830 
643 676 974 677 5830 7746 7747 5836 5838 7748 
940 974 941 643 7749 7750 7478 7463 7747 7471 
643 676 973 974 5830 7741 7745 7747 7746 7751 
940 974 643 973 7749 7747 7463 7743 7751 7745 
941 643 974 644 7471 7747 7750 7473 5565 7752 
974 643 677 644 7747 5836 7748 7752 5565 5837 
644 677 975 678 5837 7753 7754 5843 5845 7755 
941 975 942 644 7756 7757 7488 7473 7754 7481 
644 677 974 975 5837 7748 7752 7754 7753 7758 
941 975 644 974 7756 7754 7473 7750 7758 7752 
942 644 975 645 7481 7754 7757 7483 5575 7759 
975 644 678 645 7754 5843 7755 7759 5575 5844 
645 678 976 679 5844 7760 7761 5850 5852 7762 
942 976 943 645 7763 7764 7498 7483 7761 7491 
645 678 975 976 5844 7755 7759 7761 7760 7765 
942 976 645 975 7763 7761 7483 7757 7765 7759 
943 645 976 646 7491 7761 7764 7493 5585 7766 
976 645 679 646 7761 5850 7762 7766 5585 5851 
646 679 977 680 5851 7767 7768 5857 5859 7769 
943 977 944 646 7770 7771 7508 7493 7768 7501 
646 679 976 977 5851 7762 7766 7768 7767 7772 
943 977 646 976 7770 7768 7493 7764 7772 7766 
944 646 977 647 7501 7768 7771 7503 5595 7773 
977 646 680 647 7768 5857 7769 7773 5595 5858 
647 680 978 681 5858 7774 7775 5864 5866 7776 
944 978 945 647 7777 7778 7518 7503 7775 7511 
647 680 977 978 5858 7769 7773 7775 7774 7779 
944 978 647 977 7777 7775 7503 7771 7779 7773 
945 647 978 648 7511 7775 7778 7513 5605 7780 
978 647 681 648 7775 5864 7776 7780 5605 5865 
648 681 979 682 5865 7781 7782 5871 5873 7783 
945 979 946 648 7784 7785 7528 7513 7782 7521 
648 681 978 979 5865 7776 7780 7782 7781 7786 
945 979 648 978 7784 7782 7513 7778 7786 7780 
946 648 979 649 7521 7782 7785 7523 5615 7787 
979 648 682 649 7782 5871 7783 7787 5615 5872 
649 682 980 683 5872 7788 7789 5878 5880 7790 
946 980 947 649 7791 7792 7538 7523 7789 7531 
649 682 979 980 5872 7783 7787 7789 7788 7793 
946 980 649 979 7791 7789 7523 7785 7793 7787 
947 649 980 650 7531 7789 7792 7533 5625 7794 
980 649 683 650 7789 5878 7790 7794 5625 5879 
650 683 981 684 5879 7795 7796 5885 5887 7797 
947 981 948 650 7798 7799 7548 7533 7796 7541 
650 683 980 981 5879 7790 7794 7796 7795 7800 
947 981 650 980 7798 7796 7533 7792 7800 7794 
948 650 981 651 7541 7796 7799 7543 5635 7801 
981 650 684 651 7796 5885 7797 7801 5635 5886 
651 684 982 685 5886 7802 7803 5892 5894 7804 
948 982 949 651 7805 7806 7558 7543 7803 7551 
651 684 981 982 5886 7797 7801 7803 7802 7807 
948 982 651 981 7805 7803 7543 7799 7807 7801 
949 651 982 652 7551 7803 7806 7553 5645 7808 
982 651 685 652 7803 5892 7804 7808 5645 5893 
652 685 983 686 5893 7809 7810 5899 5901 7811 
949 983 950 652 7812 7813 7568 7553 7810 7561 
652 685 982 983 5893 7804 7808 7810 7809 7814 
949 983 652 982 7812 7810 7553 7806 7814 7808 
950 652 983 653 7561 7810 7813 7563 5655 7815 
983 652 686 653 7810 5899 7811 7815 5655 5900 
653 686 984 687 5900 7816 7817 5906 5908 7818 
950 984 951 653 7819 7820 7578 7563 7817 7571 
653 686 983 984 5900 7811 7815 7817 7816 7821 
950 984 653 983 7819 7817 7563 7813 7821 7815 
951 653 984 654 7571 7817 7820 7573 5665 7822 
984 653 687 654 7817 5906 7818 7822 5665 5907 
654 687 985 688 5907 7823 7824 5913 5915 7825 
951 985 952 654 7826 7827 7588 7573 7824 7581 
654 687 984 985 5907 7818 7822 7824 7823 7828 
951 985 654 984 7826 7824 7573 7820 7828 7822 
952 654 985 655 7581 7824 7827 7583 5675 7829 
985 654 688 655 7824 5913 7825 7829 5675 5914 
655 688 986 689 5914 7830 7831 5920 5922 7832 
952 986 953 655 7833 7834 7598 7583 7831 7591 
655 688 985 986 5914 7825 7829 7831 7830 7835 
952 986 655 985 7833 7831 7583 7827 7835 7829 
953 655 986 656 7591 7831 7834 7593 5685 7836 
986 655 689 656 7831 5920 7832 7836 5685 5921 
656 689 987 690 5921 7837 7838 5927 5929 7839 
953 987 954 656 7840 7841 7608 7593 7838 7601 
656 689 986 987 5921 7832 7836 7838 7837 7842 
953 987 656 986 7840 7838 7593 7834 7842 7836 
954 656 987 657 7601 7838 7841 7603 5695 7843 
987 656 690 657 7838 5927 7839 7843 5695 5928 
657 690 988 691 5928 7844 7845 5934 5936 7846 
954 988 955 657 7847 7848 7618 7603 7845 7611 
657 690 987 988 5928 7839 7843 7845 7844 7849 
954 988 657 987 7847 7845 7603 7841 7849 7843 
955 657 988 658 7611 7845 7848 7613 5705 7850 
988 657 691 658 7845 5934 7846 7850 5705 5935 
658 691 989 692 5935 7851 7852 5941 5943 7853 
955 989 956 658 7854 7855 7628 7613 7852 7621 
658 691 988 989 5935 7846 7850 7852 7851 7856 
955 989 658 988 7854 7852 7613 7848 7856 7850 
956 658 989 659 7621 7852 7855 7623 5715 7857 
989 658 692 659 7852 5941 7853 7857 5715 5942 
660 693 991 694 5953 7858 7859 5948 5952 7860 
957 991 958 660 7861 7862 7638 7636 7859 7631 
660 693 990 991 5953 7863 7864 7859 7858 7865 
957 991 660 990 7861 7859 7636 7866 7865 7864 
958 660 991 661 7631 7859 7862 7633 5725 7867 
991 660 694 661 7859 5948 7860 7867 5725 5949 
661 694 992 695 5949 7868 7869 5958 5960 7870 
958 992 959 661 7871 7872 7646 7633 7869 7641 
661 694 991 992 5949 7860 7867 7869 7868 7873 
958 992 661 991 7871 7869 7633 7862 7873 7867 
959 661 992 662 7641 7869 7872 7643 5733 7874 
992 661 695 662 7869 5958 7870 7874 5733 5959 
662 695 993 696 5959 7875 7876 5965 5967 7877 
959 993 960 662 7878 7879 7653 7643 7876 7648 
662 695 992 993 5959 7870 7874 7876 7875 7880 
959 993 662 992 7878 7876 7643 7872 7880 7874 
960 662 993 663 7648 7876 7879 7650 5740 7881 
993 662 696 663 7876 5965 7877 7881 5740 5966 
663 696 994 697 5966 7882 7883 5972 5974 7884 
960 994 961 663 7885 7886 7660 7650 7883 7655 
663 696 993 994 5966 7877 7881 7883 7882 7887 
960 994 663 993 7885 7883 7650 7879 7887 7881 
961 663 994 664 7655 7883 7886 7657 5747 7888 
994 663 697 664 7883 5972 7884 7888 5747 5973 
664 697 995 698 5973 7889 7890 5979 5981 7891 
961 995 962 664 7892 7893 7667 7657 7890 7662 
664 697 994 995 5973 7884 7888 7890 7889 7894 
961 995 664 994 7892 7890 7657 7886 7894 7888 
962 664 995 665 7662 7890 7893 7664 5754 7895 
995 664 698 665 7890 5979 7891 7895 5754 5980 
665 698 996 699 5980 7896 7897 5986 5988 7898 
962 996 963 665 7899 7900 7674 7664 7897 7669 
665 698 995 996 5980 7891 7895 7897 7896 7901 
962 996 665 995 7899 7897 7664 7893 7901 7895 
963 665 996 666 7669 7897 7900 7671 5761 7902 
996 665 699 666 7897 5986 7898 7902 5761 5987 
666 699 997 700 5987 7903 7904 5993 5995 7905 
963 997 964 666 7906 7907 7681 7671 7904 7676 
666 699 996 997 5987 7898 7902 7904 7903 7908 
963 997 666 996 7906 7904 7671 7900 7908 7902 
964 666 997 667 7676 7904 7907 7678 5768 7909 
997 666 700 667 7904 5993 7905 7909 5768 5994 
667 700 998 701 5994 7910 7911 6000 6002 7912 
964 998 965 667 7913 7914 7688 7678 7911 7683 
667 700 997 998 5994 7905 7909 7911 7910 7915 
964 998 667 997 7913 7911 7678 7907 7915 7909 
965 667 998 668 7683 7911 7914 7685 5775 7916 
998 667 701 668 7911 6000 7912 7916 5775 6001 
668 701 999 702 6001 7917 7918 6007 6009 7919 
965 999 966 668 7920 7921 7695 7685 7918 7690 
668 701 998 999 6001 7912 7916 7918 7917 7922 
965 999 668 998 7920 7918 7685 7914 7922 7916 
966 668 999 669 7690 7918 7921 7692 5782 7923 
999 668 702 669 7918 6007 7919 7923 5782 6008 
669 702 1000 703 6008 7924 7925 6014 6016 7926 
966 1000 967 669 7927 7928 7702 7692 7925 7697 
669 702 999 1000 6008 7919 7923 7925 7924 7929 
966 1000 669 999 7927 7925 7692 7921 7929 7923 
967 669 1000 670 7697 7925 7928 7699 5789 7930 
1000 669 703 670 7925 6014 7926 7930 5789 6015 
670 703 1001 704 6015 7931 7932 6021 6023 7933 
967 1001 968 670 7934 7935 7709 7699 7932 7704 
670 703 1000 1001 6015 7926 7930 7932 7931 7936 
967 1001 670 1000 7934 7932 7699 7928 7936 7930 
968 670 1001 671 7704 7932 7935 7706 5796 7937 
1001 670 704 671 7932 6021 7933 7937 5796 6022 
671 704 1002 705 6022 7938 7939 6028 6030 7940 
968 1002 969 671 7941 7942 7716 7706 7939 7711 
671 704 1001 1002 6022 7933 7937 7939 7938 7943 
968 1002 671 1001 7941 7939 7706 7935 7943 7937 
969 671 1002 672 7711 7939 7942 7713 5803 7944 
1002 671 705 672 7939 6028 7940 7944 5803 6029 
672 705 1003 706 6029 7945 7946 6035 6037 7947 
969 1003 970 672 7948 7949 7723 7713 7946 7718 
672 705 1002 1003 6029 7940 7944 7946 7945 7950 
969 1003 672 1002 7948 7946 7713 7942 7950 7944 
970 672 1003 673 7718 7946 7949 7720 5810 7951 
1003 672 706 673 7946 6035 7947 7951 5810 6036 
673 706 1004 707 6036 7952 7953 6042 6044 7954 
970 1004 971 673 7955 7956 7730 7720 7953 7725 
673 706 1003 1004 6036 7947 7951 7953 7952 7957 
970 1004 673 1003 7955 7953 7720 7949 7957 7951 
971 673 1004 674 7725 7953 7956 7727 5817 7958 
1004 673 707 674 7953 6042 7954 7958 5817 6043 
674 707 1005 708 6043 7959 7960 6049 6051 7961 
971 1005 972 674 7962 7963 7737 7727 7960 7732 
674 707 1004 1005 6043 7954 7958 7960 7959 7964 
971 1005 674 1004 7962 7960 7727 7956 7964 7958 
972 674 1005 675 7732 7960 7963 7734 5824 7965 
1005 674 708 675 7960 6049 7961 7965 5824 6050 
675 708 1006 709 6050 7966 7967 6056 6058 7968 
972 1006 973 675 7969 7970 7744 7734 7967 7739 
675 708 1005 1006 6050 7961 7965 7967 7966 7971 
972 1006 675 1005 7969 7967 7734 7963 7971 7965 
973 675 1006 676 7739 7967 7970 7741 5831 7972 
1006 675 709 676 7967 6056 7968 7972 5831 6057 
676 709 1007 710 6057 7973 7974 6063 6065 7975 
973 1007 974 676 7976 7977 7751 7741 7974 7746 
676 709 1006 1007 6057 7968 7972 7974 7973 7978 
973 1007 676 1006 7976 7974 7741 7970 7978 7972 
974 676 1007 677 7746 7974 7977 7748 5838 7979 
1007 676 710 677 7974 6063 7975 7979 5838 6064 
677 710 1008 711 6064 7980 7981 6070 6072 7982 
974 1008 975 677 7983 7984 7758 7748 7981 7753 
677 710 1007 1008 6064 7975 7979 7981 7980 7985 
974 1008 677 1007 7983 7981 7748 7977 7985 7979 
975 677 1008 678 7753 7981 7984 7755 5845 7986 
1008 677 711 678 7981 6070 7982 7986 5845 6071 
678 711 1009 712 6071 7987 7988 6077 6079 7989 
975 1009 976 678 7990 7991 7765 7755 7988 7760 
678 711 1008 1009 6071 7982 7986 7988 7987 7992 
975 1009 678 1008 7990 7988 7755 7984 7992 7986 
976 678 1009 679 7760 7988 7991 7762 5852 7993 
1009 678 712 679 7988 6077 7989 7993 5852 6078 
679 712 1010 713 6078 7994 7995 6084 6086 7996 
976 1010 977 679 7997 7998 7772 7762 7995 7767 
679 712 1009 1010 6078 7989 7993 7995 7994 7999 
976 1010 679 1009 7997 7995 7762 7991 7999 7993 
977 679 1010 680 7767 7995 7998 7769 5859 8000 
1010 679 713 680 7995 6084 7996 8000 5859 6085 
680 713 1011 714 6085 8001 8002 6091 6093 8003 
977 1011 978 680 8004 8005 7779 7769 8002 7774 
680 713 1010 1011 6085 7996 8000 8002 8001 8006 
977 1011 680 1010 8004 8002 7769 7998 8006 8000 
978 680 1011 681 7774 8002 8005 7776 5866 8007 
1011 680 714 681 8002 6091 8003 8007 5866 6092 
681 714 1012 715 6092 8008 8009 6098 6100 8010 
978 1012 979 681 8011 8012 7786 7776 8009 7781 
681 714 1011 1012 6092 8003 8007 8009 8008 8013 
978 1012 681 1011 8011 8009 7776 8005 8013 8007 
979 681 1012 682 7781 8009 8012 7783 5873 8014 
1012 681 715 682 8009 6098 8010 8014 5873 6099 
682 715 1013 716 6099 8015 8016 6105 6107 8017 
979 1013 980 682 8018 8019 7793 7783 8016 7788 
682 715 1012 1013 6099 8010 8014 8016 8015 8020 
979 1013 682 1012 8018 8016 7783 8012 8020 8014 
980 682 1013 683 7788 8016 8019 7790 5880 8021 
1013 682 716 683 8016 6105 8017 8021 5880 6106 
683 716 1014 717 6106 8022 8023 6112 6114 8024 
980 1014 981 683 8025 8026 7800 7790 8023 7795 
683 716 1013 1014 6106 8017 8021 8023 8022 8027 
980 1014 683 1013 8025 8023 7790 8019 8027 8021 
981 683 1014 684 7795 8023 8026 7797 5887 8028 
1014 683 717 684 8023 6112 8024 8028 5887 6113 
684 717 1015 718 6113 8029 8030 6119 6121 8031 
981 1015 982 684 8032 8033 7807 7797 8030 7802 
684 717 1014 1015 6113 8024 8028 8030 8029 8034 
981 1015 684 1014 8032 8030 7797 8026 8034 8028 
982 684 1015 685 7802 8030 8033 7804 5894 8035 
1015 684 718 685 8030 6119 8031 8035 5894 6120 
685 718 1016 719 6120 8036 8037 6126 6128 8038 
982 1016 983 685 8039 8040 7814 7804 8037 7809 
685 718 1015 1016 6120 8031 8035 8037 8036 8041 
982 1016 685 1015 8039 8037 7804 8033 8041 8035 
983 685 1016 686 7809 8037 8040 7811 5901 8042 
1016 685 719 686 8037 6126 8038 8042 5901 6127 
686 719 1017 720 6127 8043 8044 6133 6135 8045 
983 1017 984 686 8046 8047 7821 7811 8044 7816 
686 719 1016 1017 6127 8038 8042 8044 8043 8048 
983 1017 686 1016 8046 8044 7811 8040 8048 8042 
984 686 1017 687 7816 8044 8047 7818 5908 8049 
1017 686 720 687 8044 6133 8045 8049 5908 6134 
687 720 1018 721 6134 8050 8051 6140 6142 8052 
984 1018 985 687 8053 8054 7828 7818 8051 7823 
687 720 1017 1018 6134 8045 8049 8051 8050 8055 
984 1018 687 1017 8053 8051 7818 8047 8055 8049 
985 687 1018 688 7823 8051 8054 7825 5915 8056 
1018 687 721 688 8051 6140 8052 8056 5915 6141 
688 721 1019 722 6141 8057 8058 6147 6149 8059 
985 1019 986 688 8060 8061 7835 7825 8058 7830 
688 721 1018 1019 6141 8052 8056 8058 8057 8062 
985 1019 688 1018 8060 8058 7825 8054 8062 8056 
986 688 1019 689 7830 8058 8061 7832 5922 8063 
1019 688 722 689 8058 6147 8059 8063 5922 6148 
689 722 1020 723 6148 8064 8065 6154 6156 8066 
986 1020 987 689 8067 8068 7842 7832 8065 7837 
689 722 1019 1020 6148 8059 8063 8065 8064 8069 
986 1020 689 1019 8067 8065 7832 8061 8069 8063 
987 689 1020 690 7837 8065 8068 7839 5929 8070 
1020 689 723 690 8065 6154 8066 8070 5929 6155 
690 723 1021 724 6155 8071 8072 6161 6163 8073 
987 1021 988 690 8074 8075 7849 7839 8072 7844 
690 723 1020 1021 6155 8066 8070 8072 8071 8076 
987 1021 690 1020 8074 8072 7839 8068 8076 8070 
988 690 1021 691 7844 8072 8075 7846 5936 8077 
1021 690 724 691 8072 6161 8073 8077 5936 6162 
691 724 1022 725 6162 8078 8079 6168 6170 8080 
988 1022 989 691 8081 8082 7856 7846 8079 7851 
691 724 1021 1022 6162 8073 8077 8079 8078 8083 
988 1022 691 1021 8081 8079 7846 8075 8083 8077 
989 691 1022 692 7851 8079 8082 7853 5943 8084 
1022 691 725 692 8079 6168 8080 8084 5943 6169 
693 726 1024 727 6180 8085 8086 6175 6179 8087 
990 1024 991 693 8088 8089 7865 7863 8086 7858 
693 726 1023 1024 6180 8090 8091 8086 8085 8092 
990 1024 693 1023 8088 8086 7863 8093 8092 8091 
991 693 1024 694 7858 8086 8089 7860 5952 8094 
1024 693 727 694 8086 6175 8087 8094 5952 6176 
694 727 1025 728 6176 8095 8096 6185 6187 8097 
991 1025 992 694 8098 8099 7873 7860 8096 7868 
694 727 1024 1025 6176 8087 8094 8096 8095 8100 
991 1025 694 1024 8098 8096 7860 8089 8100 8094 
992 694 1025 695 7868 8096 8099 7870 5960 8101 
1025 694 728 695 8096 6185 8097 8101 5960 6186 
695 728 1026 729 6186 8102 8103 6192 6194 8104 
992 1026 993 695 8105 8106 7880 7870 8103 7875 
695 728 1025 1026 6186 8097 8101 8103 8102 8107 
992 1026 695 1025 8105 8103 7870 8099 8107 8101 
993 695 1026 696 7875 8103 8106 7877 5967 8108 
1026 695 729 696 8103 6192 8104 8108 5967 6193 
696 729 1027 730 6193 8109 8110 6199 6201 8111 
993 1027 994 696 8112 8113 7887 7877 8110 7882 
696 729 1026 1027 6193 8104 8108 8110 8109 8114 
993 1027 696 1026 8112 8110 7877 8106 8114 8108 
994 696 1027 697 7882 8110 8113 7884 5974 8115 
1027 696 730 697 8110 6199 8111 8115 5974 6200 
697 730 1028 731 6200 8116 8117 6206 6208 8118 
994 1028 995 697 8119 8120 7894 7884 8117 7889 
697 730 1027 1028 6200 8111 8115 8117 8116 8121 
994 1028 697 1027 8119 8117 7884 8113 8121 8115 
995 697 1028 698 7889 8117 8120 7891 5981 8122 
1028 697 731 698 8117 6206 8118 8122 5981 6207 
698 731 1029 732 6207 8123 8124 6213 6215 8125 
995 1029 996 698 8126 8127 7901 7891 8124 7896 
698 731 1028 1029 6207 8118 8122 8124 8123 8128 
995 1029 698 1028 8126 8124 7891 8120 8128 8122 
996 698 1029 699 7896 8124 8127 7898 5988 8129 
1029 698 732 699 8124 6213 8125 8129 5988 6214 
699 732 1030 733 6214 8130 8131 6220 6222 8132 
996 1030 997 699 8133 8134 7908 7898 8131 7903 
699 732 1029 1030 6214 8125 8129 8131 8130 8135 
996 1030 699 1029 8133 8131 7898 8127 8135 8129 
997 699 1030 700 7903 8131 8134 7905 5995 8136 
1030 699 733 700 8131 6220 8132 8136 5995 6221 
700 733 1031 734 6221 8137 8138 6227 6229 8139 
997 1031 998 700 8140 8141 7915 7905 8138 7910 
700 733 1030 1031 6221 8132 8136 8138 8137 8142 
997 1031 700 1030 8140 8138 7905 8134 8142 8136 
998 700 1031 701 7910 8138 8141 7912 6002 8143 
1031 700 734 701 8138 6227 8139 8143 6002 6228 
701 734 1032 735 6228 8144 8145 6234 6236 8146 
998 1032 999 701 8147 8148 7922 7912 8145 7917 
701 734 1031 1032 6228 8139 8143 8145 8144 8149 
998 1032 701 1031 8147 8145 7912 8141 8149 8143 
999 701 1032 702 7917 8145 8148 7919 6009 8150 
1032 701 735 702 8145 6234 8146 8150 6009 6235 
702 735 1033 736 6235 8151 8152 6241 6243 8153 
999 1033 1000 702 8154 8155 7929 7919 8152 7924 
702 735 1032 1033 6235 8146 8150 8152 8151 8156 
999 1033 702 1032 8154 8152 7919 8148 8156 8150 
1000 702 1033 703 7924 8152 8155 7926 6016 8157 
1033 702 736 703 8152 6241 8153 8157 6016 6242 
703 736 1034 737 6242 8158 8159 6248 6250 8160 
1000 1034 1001 703 8161 8162 7936 7926 8159 7931 
703 736 1033 1034 6242 8153 8157 8159 8158 8163 
1000 1034 703 1033 8161 8159 7926 8155 8163 8157 
1001 703 1034 704 7931 8159 8162 7933 6023 8164 
1034 703 737 704 8159 6248 8160 8164 6023 6249 
704 737 1035 738 6249 8165 8166 6255 6257 8167 
1001 1035 1002 704 8168 8169 7943 7933 8166 7938 
704 737 1034 1035 6249 8160 8164 8166 8165 8170 
1001 1035 704 1034 8168 8166 7933 8162 8170 8164 
1002 704 1035 705 7938 8166 8169 7940 6030 8171 
1035 704 738 705 8166 6255 8167 8171 6030 6256 
705 738 1036 739 6256 8172 8173 6262 6264 8174 
1002 1036 1003 705 8175 8176 7950 7940 8173 7945 
705 738 1035 1036 6256 8167 8171 8173 8172 8177 
1002 1036 705 1035 8175 8173 7940 8169 8177 8171 
1003 705 1036 706 7945 8173 8176 7947 6037 8178 
1036 705 739 706 8173 6262 8174 8178 6037 6263 
706 739 1037 740 6263 8179 8180 6269 6271 8181 
1003 1037 1004 706 8182 8183 7957 7947 8180 7952 
706 739 1036 1037 6263 8174 8178 8180 8179 8184 
1003 1037 706 1036 8182 8180 7947 8176 8184 8178 
1004 706 1037 707 7952 8180 8183 7954 6044 8185 
1037 706 740 707 8180 6269 8181 8185 6044 6270 
707 740 1038 741 6270 8186 8187 6276 6278 8188 
1004 1038 1005 707 8189 8190 7964 7954 8187 7959 
707 740 1037 1038 6270 8181 8185 8187 8186 8191 
1004 1038 707 1037 8189 8187 7954 8183 8191 8185 
1005 707 1038 708 7959 8187 8190 7961 6051 8192 
1038 707 741 708 8187 6276 8188 8192 6051 6277 
708 741 1039 742 6277 8193 8194 6283 6285 8195 
1005 1039 1006 708 8196 8197 7971 7961 8194 7966 
708 741 1038 1039 6277 8188 8192 8194 8193 8198 
1005 1039 708 1038 8196 8194 7961 8190 8198 8192 
1006 708 1039 709 7966 8194 8197 7968 6058 8199 
1039 708 742 709 8194 6283 8195 8199 6058 6284 
709 742 1040 743 6284 8200 8201 6290 6292 8202 
1006 1040 1007 709 8203 8204 7978 7968 8201 7973 
709 742 1039 1040 6284 8195 8199 8201 8200 8205 
1006 1040 709 1039 8203 8201 7968 8197 8205 8199 
1007 709 1040 710 7973 8201 8204 7975 6065 8206 
1040 709 743 710 8201 6290 8202 8206 6065 6291 
710 743 1041 744 6291 8207 8208 6297 6299 8209 
1007 1041 1008 710 8210 8211 7985 7975 8208 7980 
710 743 1040 1041 6291 8202 8206 8208 8207 8212 
1007 1041 710 1040 8210 8208 7975 8204 8212 8206 
1008 710 1041 711 7980 8208 8211 7982 6072 8213 
1041 710 744 711 8208 6297 8209 8213 6072 6298 
711 744 1042 745 6298 8214 8215 6304 6306 8216 
1008 1042 1009 711 8217 8218 7992 7982 8215 7987 
711 744 1041 1042 6298 8209 8213 8215 8214 8219 
1008 1042 711 1041 8217 8215 7982 8211 8219 8213 
1009 711 1042 712 7987 8215 8218 7989 6079 8220 
1042 711 745 712 8215 6304 8216 8220 6079 6305 
712 745 1043 746 6305 8221 8222 6311 6313 8223 
1009 1043 1010 712 8224 8225 7999 7989 8222 7994 
712 745 1042 1043 6305 8216 8220 8222 8221 8226 
1009 1043 712 1042 8224 8222 7989 8218 8226 8220 
1010 712 1043 713 7994 8222 8225 7996 6086 8227 
1043 712 746 713 8222 6311 8223 8227 6086 6312 
713 746 1044 747 6312 8228 8229 6318 6320 8230 
1010 1044 1011 713 8231 8232 8006 7996 8229 8001 
713 746 1043 1044 6312 8223 8227 8229 8228 8233 
1010 1044 713 1043 8231 8229 7996 8225 8233 8227 
1011 713 1044 714 8001 8229 8232 8003 6093 8234 
1044 713 747 714 8229 6318 8230 8234 6093 6319 
714 747 1045 748 6319 8235 8236 6325 6327 8237 
1011 1045 1012 714 8238 8239 8013 8003 8236 8008 
714 747 1044 1045 6319 8230 8234 8236 8235 8240 
1011 1045 714 1044 8238 8236 8003 8232 8240 8234 
1012 714 1045 715 8008 8236 8239 8010 6100 8241 
1045 714 748 715 8236 6325 8237 8241 6100 6326 
715 748 1046 749 6326 8242 8243 6332 6334 8244 
1012 1046 1013 715 8245 8246 8020 8010 8243 8015 
715 748 1045 1046 6326 8237 8241 8243 8242 8247 
1012 1046 715 1045 8245 8243 8010 8239 8247 8241 
1013 715 1046 716 8015 8243 8246 8017 6107 8248 
1046 715 749 716 8243 6332 8244 8248 6107 6333 
716 749 1047 750 6333 8249 8250 6339 6341 8251 
1013 1047 1014 716 8252 8253 8027 8017 8250 8022 
716 749 1046 1047 6333 8244 8248 8250 8249 8254 
1013 1047 716 1046 8252 8250 8017 8246 8254 8248 
1014 716 1047 717 8022 8250 8253 8024 6114 8255 
1047 716 750 717 8250 6339 8251 8255 6114 6340 
717 750 1048 751 6340 8256 8257 6346 6348 8258 
1014 1048 1015 717 8259 8260 8034 8024 8257 8029 
717 750 1047 1048 6340 8251 8255 8257 8256 8261 
1014 1048 717 1047 8259 8257 8024 8253 8261 8255 
1015 717 1048 718 8029 8257 8260 8031 6121 8262 
1048 717 751 718 8257 6346 8258 8262 6121 6347 
718 751 1049 752 6347 8263 8264 6353 6355 8265 
1015 1049 1016 718 8266 8267 8041 8031 8264 8036 
718 751 1048 1049 6347 8258 8262 8264 8263 8268 
1015 1049 718 1048 8266 8264 8031 8260 8268 8262 
1016 718 1049 719 8036 8264 8267 8038 6128 8269 
1049 718 752 719 8264 6353 8265 8269 6128 6354 
719 752 1050 753 6354 8270 8271 6360 6362 8272 
1016 1050 1017 719 8273 8274 8048 8038 8271 8043 
719 752 1049 1050 6354 8265 8269 8271 8270 8275 
1016 1050 719 1049 8273 8271 8038 8267 8275 8269 
1017 719 1050 720 8043 8271 8274 8045 6135 8276 
1050 719 753 720 8271 6360 8272 8276 6135 6361 
720 753 1051 754 6361 8277 8278 6367 6369 8279 
1017 1051 1018 720 8280 8281 8055 8045 8278 8050 
720 753 1050 1051 6361 8272 8276 8278 8277 8282 
1017 1051 720 1050 8280 8278 8045 8274 8282 8276 
1018 720 1051 721 8050 8278 8281 8052 6142 8283 
1051 720 754 721 8278 6367 8279 8283 6142 6368 
721 754 1052 755 6368 8284 8285 6374 6376 8286 
1018 1052 1019 721 8287 8288 8062 8052 8285 8057 
721 754 1051 1052 6368 8279 8283 8285 8284 8289 
1018 1052 721 1051 8287 8285 8052 8281 8289 8283 
1019 721 1052 722 8057 8285 8288 8059 6149 8290 
1052 721 755 722 8285 6374 8286 8290 6149 6375 
722 755 1053 756 6375 8291 8292 6381 6383 8293 
1019 1053 1020 722 8294 8295 8069 8059 8292 8064 
722 755 1052 1053 6375 8286 8290 8292 8291 8296 
1019 1053 722 1052 8294 8292 8059 8288 8296 8290 
1020 722 1053 723 8064 8292 8295 8066 6156 8297 
1053 722 756 723 8292 6381 8293 8297 6156 6382 
723 756 1054 757 6382 8298 8299 6388 6390 8300 
1020 1054 1021 723 8301 8302 8076 8066 8299 8071 
723 756 1053 1054 6382 8293 8297 8299 8298 8303 
1020 1054 723 1053 8301 8299 8066 8295 8303 8297 
1021 723 1054 724 8071 8299 8302 8073 6163 8304 
1054 723 757 724 8299 6388 8300 8304 6163 6389 
724 757 1055 758 6389 8305 8306 6395 6397 8307 
1021 1055 1022 724 8308 8309 8083 8073 8306 8078 
724 757 1054 1055 6389 8300 8304 8306 8305 8310 
1021 1055 724 1054 8308 8306 8073 8302 8310 8304 
1022 724 1055 725 8078 8306 8309 8080 6170 8311 
1055 724 758 725 8306 6395 8307 8311 6170 6396 
726 759 1057 760 6407 8312 8313 6402 6406 8314 
1023 1057 1024 726 8315 8316 8092 8090 8313 8085 
726 759 1056 1057 6407 8317 8318 8313 8312 8319 
1023 1057 726 1056 8315 8313 8090 8320 8319 8318 
1024 726 1057 727 8085 8313 8316 8087 6179 8321 
1057 726 760 727 8313 6402 8314 8321 6179 6403 
727 760 1058 761 6403 8322 8323 6412 6414 8324 
1024 1058 1025 727 8325 8326 8100 8087 8323 8095 
727 760 1057 1058 6403 8314 8321 8323 8322 8327 
1024 1058 727 1057 8325 8323 8087 8316 8327 8321 
1025 727 1058 728 8095 8323 8326 8097 6187 8328 
1058 727 761 728 8323 6412 8324 8328 6187 6413 
728 761 1059 762 6413 8329 8330 6419 6421 8331 
1025 1059 1026 728 8332 8333 8107 8097 8330 8102 
728 761 1058 1059 6413 8324 8328 8330 8329 8334 
1025 1059 728 1058 8332 8330 8097 8326 8334 8328 
1026 728 1059 729 8102 8330 8333 8104 6194 8335 
1059 728 762 729 8330 6419 8331 8335 6194 6420 
729 762 1060 763 6420 8336 8337 6426 6428 8338 
1026 1060 1027 729 8339 8340 8114 8104 8337 8109 
729 762 1059 1060 6420 8331 8335 8337 8336 8341 
1026 1060 729 1059 8339 8337 8104 8333 8341 8335 
1027 729 1060 730 8109 8337 8340 8111 6201 8342 
1060 729 763 730 8337 6426 8338 8342 6201 6427 
730 763 1061 764 6427 8343 8344 6433 6435 8345 
1027 1061 1028 730 8346 8347 8121 8111 8344 8116 
730 763 1060 1061 6427 8338 8342 8344 8343 8348 
1027 1061 730 1060 8346 8344 8111 8340 8348 8342 
1028 730 1061 731 8116 8344 8347 8118 6208 8349 
1061 730 764 731 8344 6433 8345 8349 6208 6434 
731 764 1062 765 6434 8350 8351 6440 6442 8352 
1028 1062 1029 731 8353 8354 8128 8118 8351 8123 
731 764 1061 1062 6434 8345 8349 8351 8350 8355 
1028 1062 731 1061 8353 8351 8118 8347 8355 8349 
1029 731 1062 732 8123 8351 8354 8125 6215 8356 
1062 731 765 732 8351 6440 8352 8356 6215 6441 
732 765 1063 766 6441 8357 8358 6447 6449 8359 
1029 1063 1030 732 8360 8361 8135 8125 8358 8130 
732 765 1062 1063 6441 8352 8356 8358 8357 8362 
1029 1063 732 1062 8360 8358 8125 8354 8362 8356 
1030 732 1063 733 8130 8358 8361 8132 6222 8363 
1063 732 766 733 8358 6447 8359 8363 6222 6448 
733 766 1064 767 6448 8364 8365 6454 6456 8366 
1030 1064 1031 733 8367 8368 8142 8132 8365 8137 
733 766 1063 1064 6448 8359 8363 8365 8364 8369 
1030 1064 733 1063 8367 8365 8132 8361 8369 8363 
1031 733 1064 734 8137 8365 8368 8139 6229 8370 
1064 733 767 734 8365 6454 8366 8370 6229 6455 
734 767 1065 768 6455 8371 8372 6461 6463 8373 
1031 1065 1032 734 8374 8375 8149 8139 8372 8144 
734 767 1064 1065 6455 8366 8370 8372 8371 8376 
1031 1065 734 1064 8374 8372 8139 8368 8376 8370 
1032 734 1065 735 8144 8372 8375 8146 6236 8377 
1065 734 768 735 8372 6461 8373 8377 6236 6462 
735 768 1066 769 6462 8378 8379 6468 6470 8380 
1032 1066 1033 735 8381 8382 8156 8146 8379 8151 
735 768 1065 1066 6462 8373 8377 8379 8378 8383 
1032 1066 735 1065 8381 8379 8146 8375 8383 8377 
1033 735 1066 736 8151 8379 8382 8153 6243 8384 
1066 735 769 736 8379 6468 8380 8384 6243 6469 
736 769 1067 770 6469 8385 8386 6475 6477 8387 
1033 1067 1034 736 8388 8389 8163 8153 8386 8158 
736 769 1066 1067 6469 8380 8384 8386 8385 8390 
1033 1067 736 1066 8388 8386 8153 8382 8390 8384 
1034 736 1067 737 8158 8386 8389 8160 6250 8391 
1067 736 770 737 8386 6475 8387 8391 6250 6476 
737 770 1068 771 6476 8392 8393 6482 6484 8394 
1034 1068 1035 737 8395 8396 8170 8160 8393 8165 
737 770 1067 1068 6476 8387 8391 8393 8392 8397 
1034 1068 737 1067 8395 8393 8160 8389 8397 8391 
1035 737 1068 738 8165 8393 8396 8167 6257 8398 
1068 737 771 738 8393 6482 8394 8398 6257 6483 
738 771 1069 772 6483 8399 8400 6489 6491 8401 
1035 1069 1036 738 8402 8403 8177 8167 8400 8172 
738 771 1068 1069 6483 8394 8398 8400 8399 8404 
1035 1069 738 1068 8402 8400 8167 8396 8404 8398 
1036 738 1069 739 8172 8400 8403 8174 6264 8405 
1069 738 772 739 8400 6489 8401 8405 6264 6490 
739 772 1070 773 6490 8406 8407 6496 6498 8408 
1036 1070 1037 739 8409 8410 8184 8174 8407 8179 
739 772 1069 1070 6490 8401 8405 8407 8406 8411 
1036 1070 739 1069 8409 8407 8174 8403 8411 8405 
1037 739 1070 740 8179 8407 8410 8181 6271 8412 
1070 739 773 740 8407 6496 8408 8412 6271 6497 
740 773 1071 774 6497 8413 8414 6503 6505 8415 
1037 1071 1038 740 8416 8417 8191 8181 8414 8186 
740 773 1070 1071 6497 8408 8412 8414 8413 8418 
1037 1071 740 1070 8416 8414 8181 8410 8418 8412 
1038 740 1071 741 8186 8414 8417 8188 6278 8419 
1071 740 774 741 8414 6503 8415 8419 6278 6504 
741 774 1072 775 6504 8420 8421 6510 6512 8422 
1038 1072 1039 741 8423 8424 8198 8188 8421 8193 
741 774 1071 1072 6504 8415 8419 8421 8420 8425 
1038 1072 741 1071 8423 8421 8188 8417 8425 8419 
1039 741 1072 742 8193 8421 8424 8195 6285 8426 
1072 741 775 742 8421 6510 8422 8426 6285 6511 
742 775 1073 776 6511 8427 8428 6517 6519 8429 
1039 1073 1040 742 8430 8431 8205 8195 8428 8200 
742 775 1072 1073 6511 8422 8426 8428 8427 8432 
1039 1073 742 1072 8430 8428 8195 8424 8432 8426 
1040 742 1073 743 8200 8428 8431 8202 6292 8433 
1073 742 776 743 8428 6517 8429 8433 6292 6518 
743 776 1074 777 6518 8434 8435 6524 6526 8436 
1040 1074 1041 743 8437 8438 8212 8202 8435 8207 
743 776 1073 1074 6518 8429 8433 8435 8434 8439 
1040 1074 743 1073 8437 8435 8202 8431 8439 8433 
1041 743 1074 744 8207 8435 8438 8209 6299 8440 
1074 743 777 744 8435 6524 8436 8440 6299 6525 
744 777 1075 778 6525 8441 8442 6531 6533 8443 
1041 1075 1042 744 8444 8445 8219 8209 8442 8214 
744 777 1074 1075 6525 8436 8440 8442 8441 8446 
1041 1075 744 1074 8444 8442 8209 8438 8446 8440 
1042 744 1075 745 8214 8442 8445 8216 6306 8447 
1075 744 778 745 8442 6531 8443 8447 6306 6532 
745 778 1076 779 6532 8448 8449 6538 6540 8450 
1042 1076 1043 745 8451 8452 8226 8216 8449 8221 
745 778 1075 1076 6532 8443 8447 8449 8448 8453 
1042 1076 745 1075 8451 8449 8216 8445 8453 8447 
1043 745 1076 746 8221 8449 8452 8223 6313 8454 
1076 745 779 746 8449 6538 8450 8454 6313 6539 
746 779 1077 780 6539 8455 8456 6545 6547 8457 
1043 1077 1044 746 8458 8459 8233 8223 8456 8228 
746 779 1076 1077 6539 8450 8454 8456 8455 8460 
1043 1077 746 1076 8458 8456 8223 8452 8460 8454 
1044 746 1077 747 8228 8456 8459 8230 6320 8461 
1077 746 780 747 8456 6545 8457 8461 6320 6546 
747 780 1078 781 6546 8462 8463 6552 6554 8464 
1044 1078 1045 747 8465 8466 8240 8230 8463 8235 
747 780 1077 1078 6546 8457 8461 8463 8462 8467 
1044 1078 747 1077 8465 8463 8230 8459 8467 8461 
1045 747 1078 748 8235 8463 8466 8237 6327 8468 
1078 747 781 748 8463 6552 8464 8468 6327 6553 
748 781 1079 782 6553 8469 8470 6559 6561 8471 
1045 1079 1046 748 8472 8473 8247 8237 8470 8242 
748 781 1078 1079 6553 8464 8468 8470 8469 8474 
1045 1079 748 1078 8472 8470 8237 8466 8474 8468 
1046 748 1079 749 8242 8470 8473 8244 6334 8475 
1079 748 782 749 8470 6559 8471 8475 6334 6560 
749 782 1080 783 6560 8476 8477 6566 6568 8478 
1046 1080 1047 749 8479 8480 8254 8244 8477 8249 
749 782 1079 1080 6560 8471 8475 8477 8476 8481 
1046 1080 749 1079 8479 8477 8244 8473 8481 8475 
1047 749 1080 750 8249 8477 8480 8251 6341 8482 
1080 749 783 750 8477 6566 8478 8482 6341 6567 
750 783 1081 784 6567 8483 8484 6573 6575 8485 
1047 1081 1048 750 8486 8487 8261 8251 8484 8256 
750 783 1080 1081 6567 8478 8482 8484 8483 8488 
1047 1081 750 1080 8486 8484 8251 8480 8488 8482 
1048 750 1081 751 8256 8484 8487 8258 6348 8489 
1081 750 784 751 8484 6573 8485 8489 6348 6574 
751 784 1082 785 6574 8490 8491 6580 6582 8492 
1048 1082 1049 751 8493 8494 8268 8258 8491 8263 
751 784 1081 1082 6574 8485 8489 8491 8490 8495 
1048 1082 751 1081 8493 8491 8258 8487 8495 8489 
1049 751 1082 752 8263 8491 8494 8265 6355 8496 
1082 751 785 752 8491 6580 8492 8496 6355 6581 
752 785 1083 786 6581 8497 8498 6587 6589 8499 
1049 1083 1050 752 8500 8501 8275 8265 8498 8270 
752 785 1082 1083 6581 8492 8496 8498 8497 8502 
1049 1083 752 1082 8500 8498 8265 8494 8502 8496 
1050 752 1083 753 8270 8498 8501 8272 6362 8503 
1083 752 786 753 8498 6587 8499 8503 6362 6588 
753 786 1084 787 6588 8504 8505 6594 6596 8506 
1050 1084 1051 753 8507 8508 8282 8272 8505 8277 
753 786 1083 1084 6588 8499 8503 8505 8504 8509 
1050 1084 753 1083 8507 8505 8272 8501 8509 8503 
1051 753 1084 754 8277 8505 8508 8279 6369 8510 
1084 753 787 754 8505 6594 8506 8510 6369 6595 
754 787 1085 788 6595 8511 8512 6601 6603 8513 
1051 1085 1052 754 8514 8515 8289 8279 8512 8284 
754 787 1084 1085 6595 8506 8510 8512 8511 8516 
1051 1085 754 1084 8514 8512 8279 8508 8516 8510 
1052 754 1085 755 8284 8512 8515 8286 6376 8517 
1085 754 788 755 8512 6601 8513 8517 6376 6602 
755 788 1086 789 6602 8518 8519 6608 6610 8520 
1052 1086 1053 755 8521 8522 8296 8286 8519 8291 
755 788 1085 1086 6602 8513 8517 8519 8518 8523 
1052 1086 755 1085 8521 8519 8286 8515 8523 8517 
1053 755 1086 756 8291 8519 8522 8293 6383 8524 
1086 755 789 756 8519 6608 8520 8524 6383 6609 
756 789 1087 790 6609 8525 8526 6615 6617 8527 
1053 1087 1054 756 8528 8529 8303 8293 8526 8298 
756 789 1086 1087 6609 8520 8524 8526 8525 8530 
1053 1087 756 1086 8528 8526 8293 8522 8530 8524 
1054 756 1087 757 8298 8526 8529 8300 6390 8531 
1087 756 790 757 8526 6615 8527 8531 6390 6616 
757 790 1088 791 6616 8532 8533 6622 6624 8534 
1054 1088 1055 757 8535 8536 8310 8300 8533 8305 
757 790 1087 1088 6616 8527 8531 8533 8532 8537 
1054 1088 757 1087 8535 8533 8300 8529 8537 8531 
1055 757 1088 758 8305 8533 8536 8307 6397 8538 
1088 757 791 758 8533 6622 8534 8538 6397 6623 
759 792 1090 793 6634 8539 8540 6629 6633 8541 
1056 1090 1057 759 8542 8543 8319 8317 8540 8312 
759 792 1089 1090 6634 8544 8545 8540 8539 8546 
1056 1090 759 1089 8542 8540 8317 8547 8546 8545 
1057 759 1090 760 8312 8540 8543 8314 6406 8548 
1090 759 793 760 8540 6629 8541 8548 6406 6630 
760 793 1091 794 6630 8549 8550 6639 6641 8551 
1057 1091 1058 760 8552 8553 8327 8314 8550 8322 
760 793 1090 1091 6630 8541 8548 8550 8549 8554 
1057 1091 760 1090 8552 8550 8314 8543 8554 8548 
1058 760 1091 761 8322 8550 8553 8324 6414 8555 
1091 760 794 761 8550 6639 8551 8555 6414 6640 
761 794 1092 795 6640 8556 8557 6646 6648 8558 
1058 1092 1059 761 8559 8560 8334 8324 8557 8329 
761 794 1091 1092 6640 8551 8555 8557 8556 8561 
1058 1092 761 1091 8559 8557 8324 8553 8561 8555 
1059 761 1092 762 8329 8557 8560 8331 6421 8562 
1092 761 795 762 8557 6646 8558 8562 6421 6647 
762 795 1093 796 6647 8563 8564 6653 6655 8565 
1059 1093 1060 762 8566 8567 8341 8331 8564 8336 
762 795 1092 1093 6647 8558 8562 8564 8563 8568 
1059 1093 762 1092 8566 8564 8331 8560 8568 8562 
1060 762 1093 763 8336 8564 8567 8338 6428 8569 
1093 762 796 763 8564 6653 8565 8569 6428 6654 
763 796 1094 797 6654 8570 8571 6660 6662 8572 
1060 1094 1061 763 8573 8574 8348 8338 8571 8343 
763 796 1093 1094 6654 8565 8569 8571 8570 8575 
1060 1094 763 1093 8573 8571 8338 8567 8575 8569 
1061 763 1094 764 8343 8571 8574 8345 6435 8576 
1094 763 797 764 8571 6660 8572 8576 6435 6661 
764 797 1095 798 6661 8577 8578 6667 6669 8579 
1061 1095 1062 764 8580 8581 8355 8345 8578 8350 
764 797 1094 1095 6661 8572 8576 8578 8577 8582 
1061 1095 764 1094 8580 8578 8345 8574 8582 8576 
1062 764 1095 765 8350 8578 8581 8352 6442 8583 
1095 764 798 765 8578 6667 8579 8583 6442 6668 
765 798 1096 799 6668 8584 8585 6674 6676 8586 
1062 1096 1063 765 8587 8588 8362 8352 8585 8357 
765 798 1095 1096 6668 8579 8583 8585 8584 8589 
1062 1096 765 1095 8587 8585 8352 8581 8589 8583 
1063 765 1096 766 8357 8585 8588 8359 6449 8590 
1096 765 799 766 8585 6674 8586 8590 6449 6675 
766 799 1097 800 6675 8591 8592 6681 6683 8593 
1063 1097 1064 766 8594 8595 8369 8359 8592 8364 
766 799 1096 1097 6675 8586 8590 8592 8591 8596 
1063 1097 766 1096 8594 8592 8359 8588 8596 8590 
1064 766 1097 767 8364 8592 8595 8366 6456 8597 
1097 766 800 767 8592 6681 8593 8597 6456 6682 
767 800 1098 801 6682 8598 8599 6688 6690 8600 
1064 1098 1065 767 8601 8602 8376 8366 8599 8371 
767 800 1097 1098 6682 8593 8597 8599 8598 8603 
1064 1098 767 1097 8601 8599 8366 8595 8603 8597 
1065 767 1098 768 8371 8599 8602 8373 6463 8604 
1098 767 801 768 8599 6688 8600 8604 6463 6689 
768 801 1099 802 6689 8605 8606 6695 6697 8607 
1065 1099 1066 768 8608 8609 8383 8373 8606 8378 
768 801 1098 1099 6689 8600 8604 8606 8605 8610 
1065 1099 768 1098 8608 8606 8373 8602 8610 8604 
1066 768 1099 769 8378 8606 8609 8380 6470 8611 
1099 768 802 769 8606 6695 8607 8611 6470 6696 
769 802 1100 803 6696 8612 8613 6702 6704 8614 
1066 1100 1067 769 8615 8616 8390 8380 8613 8385 
769 802 1099 1100 6696 8607 8611 8613 8612 8617 
1066 1100 769 1099 8615 8613 8380 8609 8617 8611 
1067 769 1100 770 8385 8613 8616 8387 6477 8618 
1100 769 803 770 8613 6702 8614 8618 6477 6703 
770 803 1101 804 6703 8619 8620 6709 6711 8621 
1067 1101 1068 770 8622 8623 8397 8387 8620 8392 
770 803 1100 1101 6703 8614 8618 8620 8619 8624 
1067 1101 770 1100 8622 8620 8387 8616 8624 8618 
1068 770 1101 771 8392 8620 8623 8394 6484 8625 
1101 770 804 771 8620 6709 8621 8625 6484 6710 
771 804 1102 805 6710 8626 8627 6716 6718 8628 
1068 1102 1069 771 8629 8630 8404 8394 8627 8399 
771 804 1101 1102 6710 8621 8625 8627 8626 8631 
1068 1102 771 1101 8629 8627 8394 8623 8631 8625 
1069 771 1102 772 8399 8627 8630 8401 6491 8632 
1102 771 805 772 8627 6716 8628 8632 6491 6717 
772 805 1103 806 6717 8633 8634 6723 6725 8635 
1069 1103 1070 772 8636 8637 8411 8401 8634 8406 
772 805 1102 1103 6717 8628 8632 8634 8633 8638 
1069 1103 772 1102 8636 8634 8401 8630 8638 8632 
1070 772 1103 773 8406 8634 8637 8408 6498 8639 
1103 772 806 773 8634 6723 8635 8639 6498 6724 
773 806 1104 807 6724 8640 8641 6730 6732 8642 
1070 1104 1071 773 8643 8644 8418 8408 8641 8413 
773 806 1103 1104 6724 8635 8639 8641 8640 8645 
1070 1104 773 1103 8643 8641 8408 8637 8645 8639 
1071 773 1104 774 8413 8641 8644 8415 6505 8646 
1104 773 807 774 8641 6730 8642 8646 6505 6731 
774 807 1105 808 6731 8647 8648 6737 6739 8649 
1071 1105 1072 774 8650 8651 8425 8415 8648 8420 
774 807 1104 1105 6731 8642 8646 8648 8647 8652 
1071 1105 774 1104 8650 8648 8415 8644 8652 8646 
1072 774 1105 775 8420 8648 8651 8422 6512 8653 
1105 774 808 775 8648 6737 8649 8653 6512 6738 
775 808 1106 809 6738 8654 8655 6744 6746 8656 
1072 1106 1073 775 8657 8658 8432 8422 8655 8427 
775 808 1105 1106 6738 8649 8653 8655 8654 8659 
1072 1106 775 1105 8657 8655 8422 8651 8659 8653 
1073 775 1106 776 8427 8655 8658 8429 6519 8660 
1106 775 809 776 8655 6744 8656 8660 6519 6745 
776 809 1107 810 6745 8661 8662 6751 6753 8663 
1073 1107 1074 776 8664 8665 8439 8429 8662 8434 
776 809 1106 1107 6745 8656 8660 8662 8661 8666 
1073 1107 776 1106 8664 8662 8429 8658 8666 8660 
1074 776 1107 777 8434 8662 8665 8436 6526 8667 
1107 776 810 777 8662 6751 8663 8667 6526 6752 
777 810 1108 811 6752 8668 8669 6758 6760 8670 
1074 1108 1075 777 8671 8672 8446 8436 8669 8441 
777 810 1107 1108 6752 8663 8667 8669 8668 8673 
1074 1108 777 1107 8671 8669 8436 8665 8673 8667 
1075 777 1108 778 8441 8669 8672 8443 6533 8674 
1108 777 811 778 8669 6758 8670 8674 6533 6759 
778 811 1109 812 6759 8675 8676 6765 6767 8677 
1075 1109 1076 778 8678 8679 8453 8443 8676 8448 
778 811 1108 1109 6759 8670 8674 8676 8675 8680 
1075 1109 778 1108 8678 8676 8443 8672 8680 8674 
1076 778 1109 779 8448 8676 8679 8450 6540 8681 
1109 778 812 779 8676 6765 8677 8681 6540 6766 
779 812 1110 813 6766 8682 8683 6772 6774 8684 
1076 1110 1077 779 8685 8686 8460 8450 8683 8455 
779 812 1109 1110 6766 8677 8681 8683 8682 8687 
1076 1110 779 1109 8685 8683 8450 8679 8687 8681 
1077 779 1110 780 8455 8683 8686 8457 6547 8688 
1110 779 813 780 8683 6772 8684 8688 6547 6773 
780 813 1111 814 6773 8689 8690 6779 6781 8691 
1077 1111 1078 780 8692 8693 8467 8457 8690 8462 
780 813 1110 1111 6773 8684 8688 8690 8689 8694 
1077 1111 780 1110 8692 8690 8457 8686 8694 8688 
1078 780 1111 781 8462 8690 8693 8464 6554 8695 
1111 780 814 781 8690 6779 8691 8695 6554 6780 
781 814 1112 815 6780 8696 8697 6786 6788 8698 
1078 1112 1079 781 8699 8700 8474 8464 8697 8469 
781 814 1111 1112 6780 8691 8695 8697 8696 8701 
1078 1112 781 1111 8699 8697 8464 8693 8701 8695 
1079 781 1112 782 8469 8697 8700 8471 6561 8702 
1112 781 815 782 8697 6786 8698 8702 6561 6787 
782 815 1113 816 6787 8703 8704 6793 6795 8705 
1079 1113 1080 782 8706 8707 8481 8471 8704 8476 
782 815 1112 1113 6787 8698 8702 8704 8703 8708 
1079 1113 782 1112 8706 8704 8471 8700 8708 8702 
1080 782 1113 783 8476 8704 8707 8478 6568 8709 
1113 782 816 783 8704 6793 8705 8709 6568 6794 
783 816 1114 817 6794 8710 8711 6800 6802 8712 
1080 1114 1081 783 8713 8714 8488 8478 8711 8483 
783 816 1113 1114 6794 8705 8709 8711 8710 8715 
1080 1114 783 1113 8713 8711 8478 8707 8715 8709 
1081 783 1114 784 8483 8711 8714 8485 6575 8716 
1114 783 817 784 8711 6800 8712 8716 6575 6801 
784 817 1115 818 6801 8717 8718 6807 6809 8719 
1081 1115 1082 784 8720 8721 8495 8485 8718 8490 
784 817 1114 1115 6801 8712 8716 8718 8717 8722 
1081 1115 784 1114 8720 8718 8485 8714 8722 8716 
1082 784 1115 785 8490 8718 8721 8492 6582 8723 
1115 784 818 785 8718 6807 8719 8723 6582 6808 
785 818 1116 819 6808 8724 8725 6814 6816 8726 
1082 1116 1083 785 8727 8728 8502 8492 8725 8497 
785 818 1115 1116 6808 8719 8723 8725 8724 8729 
1082 1116 785 1115 8727 8725 8492 8721 8729 8723 
1083 785 1116 786 8497 8725 8728 8499 6589 8730 
1116 785 819 786 8725 6814 8726 8730 6589 6815 
786 819 1117 820 6815 8731 8732 6821 6823 8733 
1083 1117 1084 786 8734 8735 8509 8499 8732 8504 
786 819 1116 1117 6815 8726 8730 8732 8731 8736 
1083 1117 786 1116 8734 8732 8499 8728 8736 8730 
1084 786 1117 787 8504 8732 8735 8506 6596 8737 
1117 786 820 787 8732 6821 8733 8737 6596 6822 
787 820 1118 821 6822 8738 8739 6828 6830 8740 
1084 1118 1085 787 8741 8742 8516 8506 8739 8511 
787 820 1117 1118 6822 8733 8737 8739 8738 8743 
1084 1118 787 1117 8741 8739 8506 8735 8743 8737 
1085 787 1118 788 8511 8739 8742 8513 6603 8744 
1118 787 821 788 8739 6828 8740 8744 6603 6829 
788 821 1119 822 6829 8745 8746 6835 6837 8747 
1085 1119 1086 788 8748 8749 8523 8513 8746 8518 
788 821 1118 1119 6829 8740 8744 8746 8745 8750 
1085 1119 788 1118 8748 8746 8513 8742 8750 8744 
1086 788 1119 789 8518 8746 8749 8520 6610 8751 
1119 788 822 789 8746 6835 8747 8751 6610 6836 
789 822 1120 823 6836 8752 8753 6842 6844 8754 
1086 1120 1087 789 8755 8756 8530 8520 8753 8525 
789 822 1119 1120 6836 8747 8751 8753 8752 8757 
1086 1120 789 1119 8755 8753 8520 8749 8757 8751 
1087 789 1120 790 8525 8753 8756 8527 6617 8758 
1120 789 823 790 8753 6842 8754 8758 6617 6843 
790 823 1121 824 6843 8759 8760 6849 6851 8761 
1087 1121 1088 790 8762 8763 8537 8527 8760 8532 
790 823 1120 1121 6843 8754 8758 8760 8759 8764 
1087 1121 790 1120 8762 8760 8527 8756 8764 8758 
1088 790 1121 791 8532 8760 8763 8534 6624 8765 
1121 790 824 791 8760 6849 8761 8765 6624 6850 
792 825 1123 826 6861 8766 8767 6856 6860 8768 
1089 1123 1090 792 8769 8770 8546 8544 8767 8539 
792 825 1122 1123 6861 8771 8772 8767 8766 8773 
1089 1123 792 1122 8769 8767 8544 8774 8773 8772 
1090 792 1123 793 8539 8767 8770 8541 6633 8775 
1123 792 826 793 8767 6856 8768 8775 6633 6857 
793 826 1124 827 6857 8776 8777 6866 6868 8778 
1090 1124 1091 793 8779 8780 8554 8541 8777 8549 
793 826 1123 1124 6857 8768 8775 8777 8776 8781 
1090 1124 793 1123 8779 8777 8541 8770 8781 8775 
1091 793 1124 794 8549 8777 8780 8551 6641 8782 
1124 793 827 794 8777 6866 8778 8782 6641 6867 
794 827 1125 828 6867 8783 8784 6873 6875 8785 
1091 1125 1092 794 8786 8787 8561 8551 8784 8556 
794 827 1124 1125 6867 8778 8782 8784 8783 8788 
1091 1125 794 1124 8786 8784 8551 8780 8788 8782 
1092 794 1125 795 8556 8784 8787 8558 6648 8789 
1125 794 828 795 8784 6873 8785 8789 6648 6874 
795 828 1126 829 6874 8790 8791 6880 6882 8792 
1092 1126 1093 795 8793 8794 8568 8558 8791 8563 
795 828 1125 1126 6874 8785 8789 8791 8790 8795 
1092 1126 795 1125 8793 8791 8558 8787 8795 8789 
1093 795 1126 796 8563 8791 8794 8565 6655 8796 
1126 795 829 796 8791 6880 8792 8796 6655 6881 
796 829 1127 830 6881 8797 8798 6887 6889 8799 
1093 1127 1094 796 8800 8801 8575 8565 8798 8570 
796 829 1126 1127 6881 8792 8796 8798 8797 8802 
1093 1127 796 1126 8800 8798 8565 8794 8802 8796 
1094 796 1127 797 8570 8798 8801 8572 6662 8803 
1127 796 830 797 8798 6887 8799 8803 6662 6888 
797 830 1128 831 6888 8804 8805 6894 6896 8806 
1094 1128 1095 797 8807 8808 8582 8572 8805 8577 
797 830 1127 1128 6888 8799 8803 8805 8804 8809 
1094 1128 797 1127 8807 8805 8572 8801 8809 8803 
1095 797 1128 798 8577 8805 8808 8579 6669 8810 
1128 797 831 798 8805 6894 8806 8810 6669 6895 
798 831 1129 832 6895 8811 8812 6901 6903 8813 
1095 1129 1096 798 8814 8815 8589 8579 8812 8584 
798 831 1128 1129 6895 8806 8810 8812 8811 8816 
1095 1129 798 1128 8814 8812 8579 8808 8816 8810 
1096 798 1129 799 8584 8812 8815 8586 6676 8817 
1129 798 832 799 8812 6901 8813 8817 6676 6902 
799 832 1130 833 6902 8818 8819 6908 6910 8820 
1096 1130 1097 799 8821 8822 8596 8586 8819 8591 
799 832 1129 1130 6902 8813 8817 8819 8818 8823 
1096 1130 799 1129 8821 8819 8586 8815 8823 8817 
1097 799 1130 800 8591 8819 8822 8593 6683 8824 
1130 799 833 800 8819 6908 8820 8824 6683 6909 
800 833 1131 834 6909 8825 8826 6915 6917 8827 
1097 1131 1098 800 8828 8829 8603 8593 8826 8598 
800 833 1130 1131 6909 8820 8824 8826 8825 8830 
1097 1131 800 1130 8828 8826 8593 8822 8830 8824 
1098 800 1131 801 8598 8826 8829 8600 6690 8831 
1131 800 834 801 8826 6915 8827 8831 6690 6916 
801 834 1132 835 6916 8832 8833 6922 6924 8834 
1098 1132 1099 801 8835 8836 8610 8600 8833 8605 
801 834 1131 1132 6916 8827 8831 8833 8832 8837 
1098 1132 801 1131 8835 8833 8600 8829 8837 8831 
1099 801 1132 802 8605 8833 8836 8607 6697 8838 
1132 801 835 802 8833 6922 8834 8838 6697 6923 
802 835 1133 836 6923 8839 8840 6929 6931 8841 
1099 1133 1100 802 8842 8843 8617 8607 8840 8612 
802 835 1132 1133 6923 8834 8838 8840 8839 8844 
1099 1133 802 1132 8842 8840 8607 8836 8844 8838 
1100 802 1133 803 8612 8840 8843 8614 6704 8845 
1133 802 836 803 8840 6929 8841 8845 6704 6930 
803 836 1134 837 6930 8846 8847 6936 6938 8848 
1100 1134 1101 803 8849 8850 8624 8614 8847 8619 
803 836 1133 1134 6930 8841 8845 8847 8846 8851 
1100 1134 803 1133 8849 8847 8614 8843 8851 8845 
1101 803 1134 804 8619 8847 8850 8621 6711 8852 
1134 803 837 804 8847 6936 8848 8852 6711 6937 
804 837 1135 838 6937 8853 8854 6943 6945 8855 
1101 1135 1102 804 8856 8857 8631 8621 8854 8626 
804 837 1134 1135 6937 8848 8852 8854 8853 8858 
1101 1135 804 1134 8856 8854 8621 8850 8858 8852 
1102 804 1135 805 8626 8854 8857 8628 6718 8859 
1135 804 838 805 8854 6943 8855 8859 6718 6944 
805 838 1136 839 6944 8860 8861 6950 6952 8862 
1102 1136 1103 805 8863 8864 8638 8628 8861 8633 
805 838 1135 1136 6944 8855 8859 8861 8860 8865 
1102 1136 805 1135 8863 8861 8628 8857 8865 8859 
1103 805 1136 806 8633 8861 8864 8635 6725 8866 
1136 805 839 806 8861 6950 8862 8866 6725 6951 
806 839 1137 840 6951 8867 8868 6957 6959 8869 
1103 1137 1104 806 8870 8871 8645 8635 8868 8640 
806 839 1136 1137 6951 8862 8866 8868 8867 8872 
1103 1137 806 1136 8870 8868 8635 8864 8872 8866 
1104 806 1137 807 8640 8868 8871 8642 6732 8873 
1137 806 840 807 8868 6957 8869 8873 6732 6958 
807 840 1138 841 6958 8874 8875 6964 6966 8876 
1104 1138 1105 807 8877 8878 8652 8642 8875 8647 
807 840 1137 1138 6958 8869 8873 8875 8874 8879 
1104 1138 807 1137 8877 8875 8642 8871 8879 8873 
1105 807 1138 808 8647 8875 8878 8649 6739 8880 
1138 807 841 808 8875 6964 8876 8880 6739 6965 
808 841 1139 842 6965 8881 8882 6971 6973 8883 
1105 1139 1106 808 8884 8885 8659 8649 8882 8654 
808 841 1138 1139 6965 8876 8880 8882 8881 8886 
1105 1139 808 1138 8884 8882 8649 8878 8886 8880 
1106 808 1139 809 8654 8882 8885 8656 6746 8887 
1139 808 842 809 8882 6971 8883 8887 6746 6972 
809 842 1140 843 6972 8888 8889 6978 6980 8890 
1106 1140 1107 809 8891 8892 8666 8656 8889 8661 
809 842 1139 1140 6972 8883 8887 8889 8888 8893 
1106 1140 809 1139 8891 8889 8656 8885 8893 8887 
1107 809 1140 810 8661 8889 8892 8663 6753 8894 
1140 809 843 810 8889 6978 8890 8894 6753 6979 
810 843 1141 844 6979 8895 8896 6985 6987 8897 
1107 1141 1108 810 8898 8899 8673 8663 8896 8668 
810 843 1140 1141 6979 8890 8894 8896 8895 8900 
1107 1141 810 1140 8898 8896 8663 8892 8900 8894 
1108 810 1141 811 8668 8896 8899 8670 6760 8901 
1141 810 844 811 8896 6985 8897 8901 6760 6986 
811 844 1142 845 6986 8902 8903 6992 6994 8904 
1108 1142 1109 811 8905 8906 8680 8670 8903 8675 
811 844 1141 1142 6986 8897 8901 8903 8902 8907 
1108 1142 811 1141 8905 8903 8670 8899 8907 8901 
1109 811 1142 812 8675 8903 8906 8677 6767 8908 
1142 811 845 812 8903 6992 8904 8908 6767 6993 
812 845 1143 846 6993 8909 8910 6999 7001 8911 
1109 1143 1110 812 8912 8913 8687 8677 8910 8682 
812 845 1142 1143 6993 8904 8908 8910 8909 8914 
1109 1143 812 1142 8912 8910 8677 8906 8914 8908 
1110 812 1143 813 8682 8910 8913 8684 6774 8915 
1143 812 846 813 8910 6999 8911 8915 6774 7000 
813 846 1144 847 7000 8916 8917 7006 7008 8918 
1110 1144 1111 813 8919 8920 8694 8684 8917 8689 
813 846 1143 1144 7000 8911 8915 8917 8916 8921 
1110 1144 813 1143 8919 8917 8684 8913 8921 8915 
1111 813 1144 814 8689 8917 8920 8691 6781 8922 
1144 813 847 814 8917 7006 8918 8922 6781 7007 
814 847 1145 848 7007 8923 8924 7013 7015 8925 
1111 1145 1112 814 8926 8927 8701 8691 8924 8696 
814 847 1144 1145 7007 8918 8922 8924 8923 8928 
1111 1145 814 1144 8926 8924 8691 8920 8928 8922 
1112 814 1145 815 8696 8924 8927 8698 6788 8929 
1145 814 848 815 8924 7013 8925 8929 6788 7014 
815 848 1146 849 7014 8930 8931 7020 7022 8932 
1112 1146 1113 815 8933 8934 8708 8698 8931 8703 
815 848 1145 1146 7014 8925 8929 8931 8930 8935 
1112 1146 815 1145 8933 8931 8698 8927 8935 8929 
1113 815 1146 816 8703 8931 8934 8705 6795 8936 
1146 815 849 816 8931 7020 8932 8936 6795 7021 
816 849 1147 850 7021 8937 8938 7027 7029 8939 
1113 1147 1114 816 8940 8941 8715 8705 8938 8710 
816 849 1146 1147 7021 8932 8936 8938 8937 8942 
1113 1147 816 1146 8940 8938 8705 8934 8942 8936 
1114 816 1147 817 8710 8938 8941 8712 6802 8943 
1147 816 850 817 8938 7027 8939 8943 6802 7028 
817 850 1148 851 7028 8944 8945 7034 7036 8946 
1114 1148 1115 817 8947 8948 8722 8712 8945 8717 
817 850 1147 1148 7028 8939 8943 8945 8944 8949 
1114 1148 817 1147 8947 8945 8712 8941 8949 8943 
1115 817 1148 818 8717 8945 8948 8719 6809 8950 
1148 817 851 818 8945 7034 8946 8950 6809 7035 
818 851 1149 852 7035 8951 8952 7041 7043 8953 
1115 1149 1116 818 8954 8955 8729 8719 8952 8724 
818 851 1148 1149 7035 8946 8950 8952 8951 8956 
1115 1149 818 1148 8954 8952 8719 8948 8956 8950 
1116 818 1149 819 8724 8952 8955 8726 6816 8957 
1149 818 852 819 8952 7041 8953 8957 6816 7042 
819 852 1150 853 7042 8958 8959 7048 7050 8960 
1116 1150 1117 819 8961 8962 8736 8726 8959 8731 
819 852 1149 1150 7042 8953 8957 8959 8958 8963 
1116 1150 819 1149 8961 8959 8726 8955 8963 8957 
1117 819 1150 820 8731 8959 8962 8733 6823 8964 
1150 819 853 820 8959 7048 8960 8964 6823 7049 
820 853 1151 854 7049 8965 8966 7055 7057 8967 
1117 1151 1118 820 8968 8969 8743 8733 8966 8738 
820 853 1150 1151 7049 8960 8964 8966 8965 8970 
1117 1151 820 1150 8968 8966 8733 8962 8970 8964 
1118 820 1151 821 8738 8966 8969 8740 6830 8971 
1151 820 854 821 8966 7055 8967 8971 6830 7056 
821 854 1152 855 7056 8972 8973 7062 7064 8974 
1118 1152 1119 821 8975 8976 8750 8740 8973 8745 
821 854 1151 1152 7056 8967 8971 8973 8972 8977 
1118 1152 821 1151 8975 8973 8740 8969 8977 8971 
1119 821 1152 822 8745 8973 8976 8747 6837 8978 
1152 821 855 822 8973 7062 8974 8978 6837 7063 
822 855 1153 856 7063 8979 8980 7069 7071 8981 
1119 1153 1120 822 8982 8983 8757 8747 8980 8752 
822 855 1152 1153 7063 8974 8978 8980 8979 8984 
1119 1153 822 1152 8982 8980 8747 8976 8984 8978 
1120 822 1153 823 8752 8980 8983 8754 6844 8985 
1153 822 856 823 8980 7069 8981 8985 6844 7070 
823 856 1154 857 7070 8986 8987 7076 7078 8988 
1120 1154 1121 823 8989 8990 8764 8754 8987 8759 
823 856 1153 1154 7070 8981 8985 8987 8986 8991 
1120 1154 823 1153 8989 8987 8754 8983 8991 8985 
1121 823 1154 824 8759 8987 8990 8761 6851 8992 
1154 823 857 824 8987 7076 8988 8992 6851 7077 
825 858 1156 859 7088 8993 8994 7083 7087 8995 
1122 1156 1123 825 8996 8997 8773 8771 8994 8766 
825 858 1155 1156 7088 8998 8999 8994 8993 9000 
1122 1156 825 1155 8996 8994 8771 9001 9000 8999 
1123 825 1156 826 8766 8994 8997 8768 6860 9002 
1156 825 859 826 8994 7083 8995 9002 6860 7084 
826 859 1157 860 7084 9003 9004 7093 7095 9005 
1123 1157 1124 826 9006 9007 8781 8768 9004 8776 
826 859 1156 1157 7084 8995 9002 9004 9003 9008 
1123 1157 826 1156 9006 9004 8768 8997 9008 9002 
1124 826 1157 827 8776 9004 9007 8778 6868 9009 
1157 826 860 827 9004 7093 9005 9009 6868 7094 
827 860 1158 861 7094 9010 9011 7100 7102 9012 
1124 1158 1125 827 9013 9014 8788 8778 9011 8783 
827 860 1157 1158 7094 9005 9009 9011 9010 9015 
1124 1158 827 1157 9013 9011 8778 9007 9015 9009 
1125 827 1158 828 8783 9011 9014 8785 6875 9016 
1158 827 861 828 9011 7100 9012 9016 6875 7101 
828 861 1159 862 7101 9017 9018 7107 7109 9019 
1125 1159 1126 828 9020 9021 8795 8785 9018 8790 
828 861 1158 1159 7101 9012 9016 9018 9017 9022 
1125 1159 828 1158 9020 9018 8785 9014 9022 9016 
1126 828 1159 829 8790 9018 9021 8792 6882 9023 
1159 828 862 829 9018 7107 9019 9023 6882 7108 
829 862 1160 863 7108 9024 9025 7114 7116 9026 
1126 1160 1127 829 9027 9028 8802 8792 9025 8797 
829 862 1159 1160 7108 9019 9023 9025 9024 9029 
1126 1160 829 1159 9027 9025 8792 9021 9029 9023 
1127 829 1160 830 8797 9025 9028 8799 6889 9030 
1160 829 863 830 9025 7114 9026 9030 6889 7115 
830 863 1161 864 7115 9031 9032 7121 7123 9033 
1127 1161 1128 830 9034 9035 8809 8799 9032 8804 
830 863 1160 1161 7115 9026 9030 9032 9031 9036 
1127 1161 830 1160 9034 9032 8799 9028 9036 9030 
1128 830 1161 831 8804 9032 9035 8806 6896 9037 
1161 830 864 831 9032 7121 9033 9037 6896 7122 
831 864 1162 865 7122 9038 9039 7128 7130 9040 
1128 1162 1129 831 9041 9042 8816 8806 9039 8811 
831 864 1161 1162 7122 9033 9037 9039 9038 9043 
1128 1162 831 1161 9041 9039 8806 9035 9043 9037 
1129 831 1162 832 8811 9039 9042 8813 6903 9044 
1162 831 865 832 9039 7128 9040 9044 6903 7129 
832 865 1163 866 7129 9045 9046 7135 7137 9047 
1129 1163 1130 832 9048 9049 8823 8813 9046 8818 
832 865 1162 1163 7129 9040 9044 9046 9045 9050 
1129 1163 832 1162 9048 9046 8813 9042 9050 9044 
1130 832 1163 833 8818 9046 9049 8820 6910 9051 
1163 832 866 833 9046 7135 9047 9051 6910 7136 
833 866 1164 867 7136 9052 9053 7142 7144 9054 
1130 1164 1131 833 9055 9056 8830 8820 9053 8825 
833 866 1163 1164 7136 9047 9051 9053 9052 9057 
1130 1164 833 1163 9055 9053 8820 9049 9057 9051 
1131 833 1164 834 8825 9053 9056 8827 6917 9058 
1164 833 867 834 9053 7142 9054 9058 6917 7143 
834 867 1165 868 7143 9059 9060 7149 7151 9061 
1131 1165 1132 834 9062 9063 8837 8827 9060 8832 
834 867 1164 1165 7143 9054 9058 9060 9059 9064 
1131 1165 834 1164 9062 9060 8827 9056 9064 9058 
1132 834 1165 835 8832 9060 9063 8834 6924 9065 
1165 834 868 835 9060 7149 9061 9065 6924 7150 
835 868 1166 869 7150 9066 9067 7156 7158 9068 
1132 1166 1133 835 9069 9070 8844 8834 9067 8839 
835 868 1165 1166 7150 9061 9065 9067 9066 9071 
1132 1166 835 1165 9069 9067 8834 9063 9071 9065 
1133 835 1166 836 8839 9067 9070 8841 6931 9072 
1166 835 869 836 9067 7156 9068 9072 6931 7157 
836 869 1167 870 7157 9073 9074 7163 7165 9075 
1133 1167 1134 836 9076 9077 8851 8841 9074 8846 
836 869 1166 1167 7157 9068 9072 9074 9073 9078 
1133 1167 836 1166 9076 9074 8841 9070 9078 9072 
1134 836 1167 837 8846 9074 9077 8848 6938 9079 
1167 836 870 837 9074 7163 9075 9079 6938 7164 
837 870 1168 871 7164 9080 9081 7170 7172 9082 
1134 1168 1135 837 9083 9084 8858 8848 9081 8853 
837 870 1167 1168 7164 9075 9079 9081 9080 9085 
1134 1168 837 1167 9083 9081 8848 9077 9085 9079 
1135 837 1168 838 8853 9081 9084 8855 6945 9086 
1168 837 871 838 9081 7170 9082 9086 6945 7171 
838 871 1169 872 7171 9087 9088 7177 7179 9089 
1135 1169 1136 838 9090 9091 8865 8855 9088 8860 
838 871 1168 1169 7171 9082 9086 9088 9087 9092 
1135 1169 838 1168 9090 9088 8855 9084 9092 9086 
1136 838 1169 839 8860 9088 9091 8862 6952 9093 
1169 838 872 839 9088 7177 9089 9093 6952 7178 
839 872 1170 873 7178 9094 9095 7184 7186 9096 
1136 1170 1137 839 9097 9098 8872 8862 9095 8867 
839 872 1169 1170 7178 9089 9093 9095 9094 9099 
1136 1170 839 1169 9097 9095 8862 9091 9099 9093 
1137 839 1170 840 8867 9095 9098 8869 6959 9100 
1170 839 873 840 9095 7184 9096 9100 6959 7185 
840 873 1171 874 7185 9101 9102 7191 7193 9103 
1137 1171 1138 840 9104 9105 8879 8869 9102 8874 
840 873 1170 1171 7185 9096 9100 9102 9101 9106 
1137 1171 840 1170 9104 9102 8869 9098 9106 9100 
1138 840 1171 841 8874 9102 9105 8876 6966 9107 
1171 840 874 841 9102 7191 9103 9107 6966 7192 
841 874 1172 875 7192 9108 9109 7198 7200 9110 
1138 1172 1139 841 9111 9112 8886 8876 9109 8881 
841 874 1171 1172 7192 9103 9107 9109 9108 9113 
1138 1172 841 1171 9111 9109 8876 9105 9113 9107 
1139 841 1172 842 8881 9109 9112 8883 6973 9114 
1172 841 875 842 9109 7198 9110 9114 6973 7199 
842 875 1173 876 7199 9115 9116 7205 7207 9117 
1139 1173 1140 842 9118 9119 8893 8883 9116 8888 
842 875 1172 1173 7199 9110 9114 9116 9115 9120 
1139 1173 842 1172 9118 9116 8883 9112 9120 9114 
1140 842 1173 843 8888 9116 9119 8890 6980 9121 
1173 842 876 843 9116 7205 9117 9121 6980 7206 
843 876 1174 877 7206 9122 9123 7212 7214 9124 
1140 1174 1141 843 9125 9126 8900 8890 9123 8895 
843 876 1173 1174 7206 9117 9121 9123 9122 9127 
1140 1174 843 1173 9125 9123 8890 9119 9127 9121 
1141 843 1174 844 8895 9123 9126 8897 6987 9128 
1174 843 877 844 9123 7212 9124 9128 6987 7213 
844 877 1175 878 7213 9129 9130 7219 7221 9131 
1141 1175 1142 844 9132 9133 8907 8897 9130 8902 
844 877 1174 1175 7213 9124 9128 9130 9129 9134 
1141 1175 844 1174 9132 9130 8897 9126 9134 9128 
1142 844 1175 845 8902 9130 9133 8904 6994 9135 
1175 844 878 845 9130 7219 9131 9135 6994 7220 
845 878 1176 879 7220 9136 9137 7226 7228 9138 
1142 1176 1143 845 9139 9140 8914 8904 9137 8909 
845 878 1175 1176 7220 9131 9135 9137 9136 9141 
1142 1176 845 1175 9139 9137 8904 9133 9141 9135 
1143 845 1176 846 8909 9137 9140 8911 7001 9142 
1176 845 879 846 9137 7226 9138 9142 7001 7227 
846 879 1177 880 7227 9143 9144 7233 7235 9145 
1143 1177 1144 846 9146 9147 8921 8911 9144 8916 
846 879 1176 1177 7227 9138 9142 9144 9143 9148 
1143 1177 846 1176 9146 9144 8911 9140 9148 9142 
1144 846 1177 847 8916 9144 9147 8918 7008 9149 
1177 846 880 847 9144 7233 9145 9149 7008 7234 
847 880 1178 881 7234 9150 9151 7240 7242 9152 
1144 1178 1145 847 9153 9154 8928 8918 9151 8923 
847 880 1177 1178 7234 9145 9149 9151 9150 9155 
1144 1178 847 1177 9153 9151 8918 9147 9155 9149 
1145 847 1178 848 8923 9151 9154 8925 7015 9156 
1178 847 881 848 9151 7240 9152 9156 7015 7241 
848 881 1179 882 7241 9157 9158 7247 7249 9159 
1145 1179 1146 848 9160 9161 8935 8925 9158 8930 
848 881 1178 1179 7241 9152 9156 9158 9157 9162 
1145 1179 848 1178 9160 9158 8925 9154 9162 9156 
1146 848 1179 849 8930 9158 9161 8932 7022 9163 
1179 848 882 849 9158 7247 9159 9163 7022 7248 
849 882 1180 883 7248 9164 9165 7254 7256 9166 
1146 1180 1147 849 9167 9168 8942 8932 9165 8937 
849 882 1179 1180 7248 9159 9163 9165 9164 9169 
1146 1180 849 1179 9167 9165 8932 9161 9169 9163 
1147 849 1180 850 8937 9165 9168 8939 7029 9170 
1180 849 883 850 9165 7254 9166 9170 7029 7255 
850 883 1181 884 7255 9171 9172 7261 7263 9173 
1147 1181 1148 850 9174 9175 8949 8939 9172 8944 
850 883 1180 1181 7255 9166 9170 9172 9171 9176 
1147 1181 850 1180 9174 9172 8939 9168 9176 9170 
1148 850 1181 851 8944 9172 9175 8946 7036 9177 
1181 850 884 851 9172 7261 9173 9177 7036 7262 
851 884 1182 885 7262 9178 9179 7268 7270 9180 
1148 1182 1149 851 9181 9182 8956 8946 9179 8951 
851 884 1181 1182 7262 9173 9177 9179 9178 9183 
1148 1182 851 1181 9181 9179 8946 9175 9183 9177 
1149 851 1182 852 8951 9179 9182 8953 7043 9184 
1182 851 885 852 9179 7268 9180 9184 7043 7269 
852 885 1183 886 7269 9185 9186 7275 7277 9187 
1149 1183 1150 852 9188 9189 8963 8953 9186 8958 
852 885 1182 1183 7269 9180 9184 9186 9185 9190 
1149 1183 852 1182 9188 9186 8953 9182 9190 9184 
1150 852 1183 853 8958 9186 9189 8960 7050 9191 
1183 852 886 853 9186 7275 9187 9191 7050 7276 
853 886 1184 887 7276 9192 9193 7282 7284 9194 
1150 1184 1151 853 9195 9196 8970 8960 9193 8965 
853 886 1183 1184 7276 9187 9191 9193 9192 9197 
1150 1184 853 1183 9195 9193 8960 9189 9197 9191 
1151 853 1184 854 8965 9193 9196 8967 7057 9198 
1184 853 887 854 9193 7282 9194 9198 7057 7283 
854 887 1185 888 7283 9199 9200 7289 7291 9201 
1151 1185 1152 854 9202 9203 8977 8967 9200 8972 
854 887 1184 1185 7283 9194 9198 9200 9199 9204 
1151 1185 854 1184 9202 9200 8967 9196 9204 9198 
1152 854 1185 855 8972 9200 9203 8974 7064 9205 
1185 854 888 855 9200 7289 9201 9205 7064 7290 
855 888 1186 889 7290 9206 9207 7296 7298 9208 
1152 1186 1153 855 9209 9210 8984 8974 9207 8979 
855 888 1185 1186 7290 9201 9205 9207 9206 9211 
1152 1186 855 1185 9209 9207 8974 9203 9211 9205 
1153 855 1186 856 8979 9207 9210 8981 7071 9212 
1186 855 889 856 9207 7296 9208 9212 7071 7297 
856 889 1187 890 7297 9213 9214 7303 7305 9215 
1153 1187 1154 856 9216 9217 8991 8981 9214 8986 
856 889 1186 1187 7297 9208 9212 9214 9213 9218 
1153 1187 856 1186 9216 9214 8981 9210 9218 9212 
1154 856 1187 857 8986 9214 9217 8988 7078 9219 
1187 856 890 857 9214 7303 9215 9219 7078 7304 
891 924 1222 925 7318 9220 9221 7310 7317 9222 
1188 1222 1189 891 9223 9224 9225 9226 9221 9227 
891 924 1221 1222 7318 9228 9229 9221 9220 9230 
1188 1222 891 1221 9223 9221 9226 9231 9230 9229 
1189 891 1222 892 9227 9221 9224 9232 7312 9233 
1222 891 925 892 9221 7310 9222 9233 7312 7311 
892 925 1223 926 7311 9234 9235 7324 7328 9236 
1189 1223 1190 892 9237 9238 9239 9232 9235 9240 
892 925 1222 1223 7311 9222 9233 9235 9234 9241 
1189 1223 892 1222 9237 9235 9232 9224 9241 9233 
1190 892 1223 893 9240 9235 9238 9242 7326 9243 
1223 892 926 893 9235 7324 9236 9243 7326 7325 
893 926 1224 927 7325 9244 9245 7334 7338 9246 
1190 1224 1191 893 9247 9248 9249 9242 9245 9250 
893 926 1223 1224 7325 9236 9243 9245 9244 9251 
1190 1224 893 1223 9247 9245 9242 9238 9251 9243 
1191 893 1224 894 9250 9245 9248 9252 7336 9253 
1224 893 927 894 9245 7334 9246 9253 7336 7335 
894 927 1225 928 7335 9254 9255 7344 7348 9256 
1191 1225 1192 894 9257 9258 9259 9252 9255 9260 
894 927 1224 1225 7335 9246 9253 9255 9254 9261 
1191 1225 894 1224 9257 9255 9252 9248 9261 9253 
1192 894 1225 895 9260 9255 9258 9262 7346 9263 
1225 894 928 895 9255 7344 9256 9263 7346 7345 
895 928 1226 929 7345 9264 9265 7354 7358 9266 
1192 1226 1193 895 9267 9268 9269 9262 9265 9270 
895 928 1225 1226 7345 9256 9263 9265 9264 9271 
1192 1226 895 1225 9267 9265 9262 9258 9271 9263 
1193 895 1226 896 9270 9265 9268 9272 7356 9273 
1226 895 929 896 9265 7354 9266 9273 7356 7355 
896 929 1227 930 7355 9274 9275 7364 7368 9276 
1193 1227 1194 896 9277 9278 9279 9272 9275 9280 
896 929 1226 1227 7355 9266 9273 9275 9274 9281 
1193 1227 896 1226 9277 9275 9272 9268 9281 9273 
1194 896 1227 897 9280 9275 9278 9282 7366 9283 
1227 896 930 897 9275 7364 9276 9283 7366 7365 
897 930 1228 931 7365 9284 9285 7374 7378 9286 
1194 1228 1195 897 9287 9288 9289 9282 9285 9290 
897 930 1227 1228 7365 9276 9283 9285 9284 9291 
1194 1228 897 1227 9287 9285 9282 9278 9291 9283 
1195 897 1228 898 9290 9285 9288 9292 7376 9293 
1228 897 931 898 9285 7374 9286 9293 7376 7375 
898 931 1229 932 7375 9294 9295 7384 7388 9296 
1195 1229 1196 898 9297 9298 9299 9292 9295 9300 
898 931 1228 1229 7375 9286 9293 9295 9294 9301 
1195 1229 898 1228 9297 9295 9292 9288 9301 9293 
1196 898 1229 899 9300 9295 9298 9302 7386 9303 
1229 898 932 899 9295 7384 9296 9303 7386 7385 
899 932 1230 933 7385 9304 9305 7394 7398 9306 
1196 1230 1197 899 9307 9308 9309 9302 9305 9310 
899 932 1229 1230 7385 9296 9303 9305 9304 9311 
1196 1230 899 1229 9307 9305 9302 9298 9311 9303 
1197 899 1230 900 9310 9305 9308 9312 7396 9313 
1230 899 933 900 9305 7394 9306 9313 7396 7395 
900 933 1231 934 7395 9314 9315 7404 7408 9316 
1197 1231 1198 900 9317 9318 9319 9312 9315 9320 
900 933 1230 1231 7395 9306 9313 9315 9314 9321 
1197 1231 900 1230 9317 9315 9312 9308 9321 9313 
1198 900 1231 901 9320 9315 9318 9322 7406 9323 
1231 900 934 901 9315 7404 9316 9323 7406 7405 
901 934 1232 935 7405 9324 9325 7414 7418 9326 
1198 1232 1199 901 9327 9328 9329 9322 9325 9330 
901 934 1231 1232 7405 9316 9323 9325 9324 9331 
1198 1232 901 1231 9327 9325 9322 9318 9331 9323 
1199 901 1232 902 9330 9325 9328 9332 7416 9333 
1232 901 935 902 9325 7414 9326 9333 7416 7415 
902 935 1233 936 7415 9334 9335 7424 7428 9336 
1199 1233 1200 902 9337 9338 9339 9332 9335 9340 
902 935 1232 1233 7415 9326 9333 9335 9334 9341 
1199 1233 902 1232 9337 9335 9332 9328 9341 9333 
1200 902 1233 903 9340 9335 9338 9342 7426 9343 
1233 902 936 903 9335 7424 9336 9343 7426 7425 
903 936 1234 937 7425 9344 9345 7434 7438 9346 
1200 1234 1201 903 9347 9348 9349 9342 9345 9350 
903 936 1233 1234 7425 9336 9343 9345 9344 9351 
1200 1234 903 1233 9347 9345 9342 9338 9351 9343 
1201 903 1234 904 9350 9345 9348 9352 7436 9353 
1234 903 937 904 9345 7434 9346 9353 7436 7435 
904 937 1235 938 7435 9354 9355 7444 7448 9356 
1201 1235 1202 904 9357 9358 9359 9352 9355 9360 
904 937 1234 1235 7435 9346 9353 9355 9354 9361 
1201 1235 904 1234 9357 9355 9352 9348 9361 9353 
1202 904 1235 905 9360 9355 9358 9362 7446 9363 
1235 904 938 905 9355 7444 9356 9363 7446 7445 
905 938 1236 939 7445 9364 9365 7454 7458 9366 
1202 1236 1203 905 9367 9368 9369 9362 9365 9370 
905 938 1235 1236 7445 9356 9363 9365 9364 9371 
1202 1236 905 1235 9367 9365 9362 9358 9371 9363 
1203 905 1236 906 9370 9365 9368 9372 7456 9373 
1236 905 939 906 9365 7454 9366 9373 7456 7455 
906 939 1237 940 7455 9374 9375 7464 7468 9376 
1203 1237 1204 906 9377 9378 9379 9372 9375 9380 
906 939 1236 1237 7455 9366 9373 9375 9374 9381 
1203 1237 906 1236 9377 9375 9372 9368 9381 9373 
1204 906 1237 907 9380 9375 9378 9382 7466 9383 
1237 906 940 907 9375 7464 9376 9383 7466 7465 
907 940 1238 941 7465 9384 9385 7474 7478 9386 
1204 1238 1205 907 9387 9388 9389 9382 9385 9390 
907 940 1237 1238 7465 9376 9383 9385 9384 9391 
1204 1238 907 1237 9387 9385 9382 9378 9391 9383 
1205 907 1238 908 9390 9385 9388 9392 7476 9393 
1238 907 941 908 9385 7474 9386 9393 7476 7475 
908 941 1239 942 7475 9394 9395 7484 7488 9396 
1205 1239 1206 908 9397 9398 9399 9392 9395 9400 
908 941 1238 1239 7475 9386 9393 9395 9394 9401 
1205 1239 908 1238 9397 9395 9392 9388 9401 9393 
1206 908 1239 909 9400 9395 9398 9402 7486 9403 
1239 908 942 909 9395 7484 9396 9403 7486 7485 
909 942 1240 943 7485 9404 9405 7494 7498 9406 
1206 1240 1207 909 9407 9408 9409 9402 9405 9410 
909 942 1239 1240 7485 9396 9403 9405 9404 9411 
1206 1240 909 1239 9407 9405 9402 9398 9411 9403 
1207 909 1240 910 9410 9405 9408 9412 7496 9413 
1240 909 943 910 9405 7494 9406 9413 7496 7495 
910 943 1241 944 7495 9414 9415 7504 7508 9416 
1207 1241 1208 910 9417 9418 9419 9412 9415 9420 
910 943 1240 1241 7495 9406 9413 9415 9414 9421 
1207 1241 910 1240 9417 9415 9412 9408 9421 9413 
1208 910 1241 911 9420 9415 9418 9422 7506 9423 
1241 910 944 911 9415 7504 9416 9423 7506 7505 
911 944 1242 945 7505 9424 9425 7514 7518 9426 
1208 1242 1209 911 9427 9428 9429 9422 9425 9430 
911 944 1241 1242 7505 9416 9423 9425 9424 9431 
1208 1242 911 1241 9427 9425 9422 9418 9431 9423 
1209 911 1242 912 9430 9425 9428 9432 7516 9433 
1242 911 945 912 9425 7514 9426 9433 7516 7515 
912 945 1243 946 7515 9434 9435 7524 7528 9436 
1209 1243 1210 912 9437 9438 9439 9432 9435 9440 
912 945 1242 1243 7515 9426 9433 9435 9434 9441 
1209 1243 912 1242 9437 9435 9432 9428 9441 9433 
1210 912 1243 913 9440 9435 9438 9442 7526 9443 
1243 912 946 913 9435 7524 9436 9443 7526 7525 
913 946 1244 947 7525 9444 9445 7534 7538 9446 
1210 1244 1211 913 9447 9448 9449 9442 9445 9450 
913 946 1243 1244 7525 9436 9443 9445 9444 9451 
1210 1244 913 1243 9447 9445 9442 9438 9451 9443 
1211 913 1244 914 9450 9445 9448 9452 7536 9453 
1244 913 947 914 9445 7534 9446 9453 7536 7535 
914 947 1245 948 7535 9454 9455 7544 7548 9456 
1211 1245 1212 914 9457 9458 9459 9452 9455 9460 
914 947 1244 1245 7535 9446 9453 9455 9454 9461 
1211 1245 914 1244 9457 9455 9452 9448 9461 9453 
1212 914 1245 915 9460 9455 9458 9462 7546 9463 
1245 914 948 915 9455 7544 9456 9463 7546 7545 
915 948 1246 949 7545 9464 9465 7554 7558 9466 
1212 1246 1213 915 9467 9468 9469 9462 9465 9470 
915 948 1245 1246 7545 9456 9463 9465 9464 9471 
1212 1246 915 1245 9467 9465 9462 9458 9471 9463 
1213 915 1246 916 9470 9465 9468 9472 7556 9473 
1246 915 949 916 9465 7554 9466 9473 7556 7555 
916 949 1247 950 7555 9474 9475 7564 7568 9476 
1213 1247 1214 916 9477 9478 9479 9472 9475 9480 
916 949 1246 1247 7555 9466 9473 9475 9474 9481 
1213 1247 916 1246 9477 9475 9472 9468 9481 9473 
1214 916 1247 917 9480 9475 9478 9482 7566 9483 
1247 916 950 917 9475 7564 9476 9483 7566 7565 
917 950 1248 951 7565 9484 9485 7574 7578 9486 
1214 1248 1215 917 9487 9488 9489 9482 9485 9490 
917 950 1247 1248 7565 9476 9483 9485 9484 9491 
1214 1248 917 1247 9487 9485 9482 9478 9491 9483 
1215 917 1248 918 9490 9485 9488 9492 7576 9493 
1248 917 951 918 9485 7574 9486 9493 7576 7575 
918 951 1249 952 7575 9494 9495 7584 7588 9496 
1215 1249 1216 918 9497 9498 9499 9492 9495 9500 
918 951 1248 1249 7575 9486 9493 9495 9494 9501 
1215 1249 918 1248 9497 9495 9492 9488 9501 9493 
1216 918 1249 919 9500 9495 9498 9502 7586 9503 
1249 918 952 919 9495 7584 9496 9503 7586 7585 
919 952 1250 953 7585 9504 9505 7594 7598 9506 
1216 1250 1217 919 9507 9508 9509 9502 9505 9510 
919 952 1249 1250 7585 9496 9503 9505 9504 9511 
1216 1250 919 1249 9507 9505 9502 9498 9511 9503 
1217 919 1250 920 9510 9505 9508 9512 7596 9513 
1250 919 953 920 9505 7594 9506 9513 7596 7595 
920 953 1251 954 7595 9514 9515 7604 7608 9516 
1217 1251 1218 920 9517 9518 9519 9512 9515 9520 
920 953 1250 1251 7595 9506 9513 9515 9514 9521 
1217 1251 920 1250 9517 9515 9512 9508 9521 9513 
1218 920 1251 921 9520 9515 9518 9522 7606 9523 
1251 920 954 921 9515 7604 9516 9523 7606 7605 
921 954 1252 955 7605 9524 9525 7614 7618 9526 
1218 1252 1219 921 9527 9528 9529 9522 9525 9530 
921 954 1251 1252 7605 9516 9523 9525 9524 9531 
1218 1252 921 1251 9527 9525 9522 9518 9531 9523 
1219 921 1252 922 9530 9525 9528 9532 7616 9533 
1252 921 955 922 9525 7614 9526 9533 7616 7615 
922 955 1253 956 7615 9534 9535 7624 7628 9536 
1219 1253 1220 922 9537 9538 9539 9532 9535 9540 
922 955 1252 1253 7615 9526 9533 9535 9534 9541 
1219 1253 922 1252 9537 9535 9532 9528 9541 9533 
1220 922 1253 923 9540 9535 9538 9542 7626 9543 
1253 922 956 923 9535 7624 9536 9543 7626 7625 
924 957 1255 958 7639 9544 9545 7634 7638 9546 
1221 1255 1222 924 9547 9548 9230 9228 9545 9220 
924 957 1254 1255 7639 9549 9550 9545 9544 9551 
1221 1255 924 1254 9547 9545 9228 9552 9551 9550 
1222 924 1255 925 9220 9545 9548 9222 7317 9553 
1255 924 958 925 9545 7634 9546 9553 7317 7635 
925 958 1256 959 7635 9554 9555 7644 7646 9556 
1222 1256 1223 925 9557 9558 9241 9222 9555 9234 
925 958 1255 1256 7635 9546 9553 9555 9554 9559 
1222 1256 925 1255 9557 9555 9222 9548 9559 9553 
1223 925 1256 926 9234 9555 9558 9236 7328 9560 
1256 925 959 926 9555 7644 9556 9560 7328 7645 
926 959 1257 960 7645 9561 9562 7651 7653 9563 
1223 1257 1224 926 9564 9565 9251 9236 9562 9244 
926 959 1256 1257 7645 9556 9560 9562 9561 9566 
1223 1257 926 1256 9564 9562 9236 9558 9566 9560 
1224 926 1257 927 9244 9562 9565 9246 7338 9567 
1257 926 960 927 9562 7651 9563 9567 7338 7652 
927 960 1258 961 7652 9568 9569 7658 7660 9570 
1224 1258 1225 927 9571 9572 9261 9246 9569 9254 
927 960 1257 1258 7652 9563 9567 9569 9568 9573 
1224 1258 927 1257 9571 9569 9246 9565 9573 9567 
1225 927 1258 928 9254 9569 9572 9256 7348 9574 
1258 927 961 928 9569 7658 9570 9574 7348 7659 
928 961 1259 962 7659 9575 9576 7665 7667 9577 
1225 1259 1226 928 9578 9579 9271 9256 9576 9264 
928 961 1258 1259 7659 9570 9574 9576 9575 9580 
1225 1259 928 1258 9578 9576 9256 9572 9580 9574 
1226 928 1259 929 9264 9576 9579 9266 7358 9581 
1259 928 962 929 9576 7665 9577 9581 7358 7666 
929 962 1260 963 7666 9582 9583 7672 7674 9584 
1226 1260 1227 929 9585 9586 9281 9266 9583 9274 
929 962 1259 1260 7666 9577 9581 9583 9582 9587 
1226 1260 929 1259 9585 9583 9266 9579 9587 9581 
1227 929 1260 930 9274 9583 9586 9276 7368 9588 
1260 929 963 930 9583 7672 9584 9588 7368 7673 
930 963 1261 964 7673 9589 9590 7679 7681 9591 
1227 1261 1228 930 9592 9593 9291 9276 9590 9284 
930 963 1260 1261 7673 9584 9588 9590 9589 9594 
1227 1261 930 1260 9592 9590 9276 9586 9594 9588 
1228 930 1261 931 9284 9590 9593 9286 7378 9595 
1261 930 964 931 9590 7679 9591 9595 7378 7680 
931 964 1262 965 7680 9596 9597 7686 7688 9598 
1228 1262 1229 931 9599 9600 9301 9286 9597 9294 
931 964 1261 1262 7680 9591 9595 9597 9596 9601 
1228 1262 931 1261 9599 9597 9286 9593 9601 9595 
1229 931 1262 932 9294 9597 9600 9296 7388 9602 
1262 931 965 932 9597 7686 9598 9602 7388 7687 
932 965 1263 966 7687 9603 9604 7693 7695 9605 
1229 1263 1230 932 9606 9607 9311 9296 9604 9304 
932 965 1262 1263 7687 9598 9602 9604 9603 9608 
1229 1263 932 1262 9606 9604 9296 9600 9608 9602 
1230 932 1263 933 9304 9604 9607 9306 7398 9609 
1263 932 966 933 9604 7693 9605 9609 7398 7694 
933 966 1264 967 7694 9610 9611 7700 7702 9612 
1230 1264 1231 933 9613 9614 9321 9306 9611 9314 
933 966 1263 1264 7694 9605 9609 9611 9610 9615 
1230 1264 933 1263 9613 9611 9306 9607 9615 9609 
1231 933 1264 934 9314 9611 9614 9316 7408 9616 
1264 933 967 934 9611 7700 9612 9616 7408 7701 
934 967 1265 968 7701 9617 9618 7707 7709 9619 
1231 1265 1232 934 9620 9621 9331 9316 9618 9324 
934 967 1264 1265 7701 9612 9616 9618 9617 9622 
1231 1265 934 1264 9620 9618 9316 9614 9622 9616 
1232 934 1265 935 9324 9618 9621 9326 7418 9623 
1265 934 968 935 9618 7707 9619 9623 7418 7708 
935 968 1266 969 7708 9624 9625 7714 7716 9626 
1232 1266 1233 935 9627 9628 9341 9326 9625 9334 
935 968 1265 1266 7708 9619 9623 9625 9624 9629 
1232 1266 935 1265 9627 9625 9326 9621 9629 9623 
1233 935 1266 936 9334 9625 9628 9336 7428 9630 
1266 935 969 936 9625 7714 9626 9630 7428 7715 
936 969 1267 970 7715 9631 9632 7721 7723 9633 
1233 1267 1234 936 9634 9635 9351 9336 9632 9344 
936 969 1266 1267 7715 9626 9630 9632 9631 9636 
1233 1267 936 1266 9634 9632 9336 9628 9636 9630 
1234 936 1267 937 9344 9632 9635 9346 7438 9637 
1267 936 970 937 9632 7721 9633 9637 7438 7722 
937 970 1268 971 7722 9638 9639 7728 7730 9640 
1234 1268 1235 937 9641 9642 9361 9346 9639 9354 
937 970 1267 1268 7722 9633 9637 9639 9638 9643 
1234 1268 937 1267 9641 9639 9346 9635 9643 9637 
1235 937 1268 938 9354 9639 9642 9356 7448 9644 
1268 937 971 938 9639 7728 9640 9644 7448 7729 
938 971 1269 972 7729 9645 9646 7735 7737 9647 
1235 1269 1236 938 9648 9649 9371 9356 9646 9364 
938 971 1268 1269 7729 9640 9644 9646 9645 9650 
1235 1269 938 1268 9648 9646 9356 9642 9650 9644 
1236 938 1269 939 9364 9646 9649 9366 7458 9651 
1269 938 972 939 9646 7735 9647 9651 7458 7736 
939 972 1270 973 7736 9652 9653 7742 7744 9654 
1236 1270 1237 939 9655 9656 9381 9366 9653 9374 
939 972 1269 1270 7736 9647 9651 9653 9652 9657 
1236 1270 939 1269 9655 9653 9366 9649 9657 9651 
1237 939 1270 940 9374 9653 9656 9376 7468 9658 
1270 939 973 940 9653 7742 9654 9658 7468 7743 
940 973 1271 974 7743 9659 9660 7749 7751 9661 
1237 1271 1238 940 9662 9663 9391 9376 9660 9384 
940 973 1270 1271 7743 9654 9658 9660 9659 9664 
1237 1271 940 1270 9662 9660 9376 9656 9664 9658 
1238 940 1271 941 9384 9660 9663 9386 7478 9665 
1271 940 974 941 9660 7749 9661 9665 7478 7750 
941 974 1272 975 7750 9666 9667 7756 7758 9668 
1238 1272 1239 941 9669 9670 9401 9386 9667 9394 
941 974 1271 1272 7750 9661 9665 9667 9666 9671 
1238 1272 941 1271 9669 9667 9386 9663 9671 9665 
1239 941 1272 942 9394 9667 9670 9396 7488 9672 
1272 941 975 942 9667 7756 9668 9672 7488 7757 
942 975 1273 976 7757 9673 9674 7763 7765 9675 
1239 1273 1240 942 9676 9677 9411 9396 9674 9404 
942 975 1272 1273 7757 9668 9672 9674 9673 9678 
1239 1273 942 1272 9676 9674 9396 9670 9678 9672 
1240 942 1273 943 9404 9674 9677 9406 7498 9679 
1273 942 976 943 9674 7763 9675 9679 7498 7764 
943 976 1274 977 7764 9680 9681 7770 7772 9682 
1240 1274 1241 943 9683 9684 9421 9406 9681 9414 
943 976 1273 1274 7764 9675 9679 9681 9680 9685 
1240 1274 943 1273 9683 9681 9406 9677 9685 9679 
1241 943 1274 944 9414 9681 9684 9416 7508 9686 
1274 943 977 944 9681 7770 9682 9686 7508 7771 
944 977 1275 978 7771 9687 9688 7777 7779 9689 
1241 1275 1242 944 9690 9691 9431 9416 9688 9424 
944 977 1274 1275 7771 9682 9686 9688 9687 9692 
1241 1275 944 1274 9690 9688 9416 9684 9692 9686 
1242 944 1275 945 9424 9688 9691 9426 7518 9693 
1275 944 978 945 9688 7777 9689 9693 7518 7778 
945 978 1276 979 7778 9694 9695 7784 7786 9696 
1242 1276 1243 945 9697 9698 9441 9426 9695 9434 
945 978 1275 1276 7778 9689 9693 9695 9694 9699 
1242 1276 945 1275 9697 9695 9426 9691 9699 9693 
1243 945 1276 946 9434 9695 9698 9436 7528 9700 
1276 945 979 946 9695 7784 9696 9700 7528 7785 
946 979 1277 980 7785 9701 9702 7791 7793 9703 
1243 1277 1244 946 9704 9705 9451 9436 9702 9444 
946 979 1276 1277 7785 9696 9700 9702 9701 9706 
1243 1277 946 1276 9704 9702 9436 9698 9706 9700 
1244 946 1277 947 9444 9702 9705 9446 7538 9707 
1277 946 980 947 9702 7791 9703 9707 7538 7792 
947 980 1278 981 7792 9708 9709 7798 7800 9710 
1244 1278 1245 947 9711 9712 9461 9446 9709 9454 
947 980 1277 1278 7792 9703 9707 9709 9708 9713 
1244 1278 947 1277 9711 9709 9446 9705 9713 9707 
1245 947 1278 948 9454 9709 9712 9456 7548 9714 
1278 947 981 948 9709 7798 9710 9714 7548 7799 
948 981 1279 982 7799 9715 9716 7805 7807 9717 
1245 1279 1246 948 9718 9719 9471 9456 9716 9464 
948 981 1278 1279 7799 9710 9714 9716 9715 9720 
1245 1279 948 1278 9718 9716 9456 9712 9720 9714 
1246 948 1279 949 9464 9716 9719 9466 7558 9721 
1279 948 982 949 9716 7805 9717 9721 7558 7806 
949 982 1280 983 7806 9722 9723 7812 7814 9724 
1246 1280 1247 949 9725 9726 9481 9466 9723 9474 
949 982 1279 1280 7806 9717 9721 9723 9722 9727 
1246 1280 949 1279 9725 9723 9466 9719 9727 9721 
1247 949 1280 950 9474 9723 9726 9476 7568 9728 
1280 949 983 950 9723 7812 9724 9728 7568 7813 
950 983 1281 984 7813 9729 9730 7819 7821 9731 
1247 1281 1248 950 9732 9733 9491 9476 9730 9484 
950 983 1280 1281 7813 9724 9728 9730 9729 9734 
1247 1281 950 1280 9732 9730 9476 9726 9734 9728 
1248 950 1281 951 9484 9730 9733 9486 7578 9735 
1281 950 984 951 9730 7819 9731 9735 7578 7820 
951 984 1282 985 7820 9736 9737 7826 7828 9738 
1248 1282 1249 951 9739 9740 9501 9486 9737 9494 
951 984 1281 1282 7820 9731 9735 9737 9736 9741 
1248 1282 951 1281 9739 9737 9486 9733 9741 9735 
1249 951 1282 952 9494 9737 9740 9496 7588 9742 
1282 951 985 952 9737 7826 9738 9742 7588 7827 
952 985 1283 986 7827 9743 9744 7833 7835 9745 
1249 1283 1250 952 9746 9747 9511 9496 9744 9504 
952 985 1282 1283 7827 9738 9742 9744 9743 9748 
1249 1283 952 1282 9746 9744 9496 9740 9748 9742 
1250 952 1283 953 9504 9744 9747 9506 7598 9749 
1283 952 986 953 9744 7833 9745 9749 7598 7834 
953 986 1284 987 7834 9750 9751 7840 7842 9752 
1250 1284 1251 953 9753 9754 9521 9506 9751 9514 
953 986 1283 1284 7834 9745 9749 9751 9750 9755 
1250 1284 953 1283 9753 9751 9506 9747 9755 9749 
1251 953 1284 954 9514 9751 9754 9516 7608 9756 
1284 953 987 954 9751 7840 9752 9756 7608 7841 
954 987 1285 988 7841 9757 9758 7847 7849 9759 
1251 1285 1252 954 9760 9761 9531 9516 9758 9524 
954 987 1284 1285 7841 9752 9756 9758 9757 9762 
1251 1285 954 1284 9760 9758 9516 9754 9762 9756 
1252 954 1285 955 9524 9758 9761 9526 7618 9763 
1285 954 988 955 9758 7847 9759 9763 7618 7848 
955 988 1286 989 7848 9764 9765 7854 7856 9766 
1252 1286 1253 955 9767 9768 9541 9526 9765 9534 
955 988 1285 1286 7848 9759 9763 9765 9764 9769 
1252 1286 955 1285 9767 9765 9526 9761 9769 9763 
1253 955 1286 956 9534 9765 9768 9536 7628 9770 
1286 955 989 956 9765 7854 9766 9770 7628 7855 
957 990 1288 991 7866 9771 9772 7861 7865 9773 
1254 1288 1255 957 9774 9775 9551 9549 9772 9544 
957 990 1287 1288 7866 9776 9777 9772 9771 9778 
1254 1288 957 1287 9774 9772 9549 9779 9778 9777 
1255 957 1288 958 9544 9772 9775 9546 7638 9780 
1288 957 991 958 9772 7861 9773 9780 7638 7862 
958 991 1289 992 7862 9781 9782 7871 7873 9783 
1255 1289 1256 958 9784 9785 9559 9546 9782 9554 
958 991 1288 1289 7862 9773 9780 9782 9781 9786 
1255 1289 958 1288 9784 9782 9546 9775 9786 9780 
1256 958 1289 959 9554 9782 9785 9556 7646 9787 
1289 958 992 959 9782 7871 9783 9787 7646 7872 
959 992 1290 993 7872 9788 9789 7878 7880 9790 
1256 1290 1257 959 9791 9792 9566 9556 9789 9561 
959 992 1289 1290 7872 9783 9787 9789 9788 9793 
1256 1290 959 1289 9791 9789 9556 9785 9793 9787 
1257 959 1290 960 9561 9789 9792 9563 7653 9794 
1290 959 993 960 9789 7878 9790 9794 7653 7879 
960 993 1291 994 7879 9795 9796 7885 7887 9797 
1257 1291 1258 960 9798 9799 9573 9563 9796 9568 
960 993 1290 1291 7879 9790 9794 9796 9795 9800 
1257 1291 960 1290 9798 9796 9563 9792 9800 9794 
1258 960 1291 961 9568 9796 9799 9570 7660 9801 
1291 960 994 961 9796 7885 9797 9801 7660 7886 
961 994 1292 995 7886 9802 9803 7892 7894 9804 
1258 1292 1259 961 9805 9806 9580 9570 9803 9575 
961 994 1291 1292 7886 9797 9801 9803 9802 9807 
1258 1292 961 1291 9805 9803 9570 9799 9807 9801 
1259 961 1292 962 9575 9803 9806 9577 7667 9808 
1292 961 995 962 9803 7892 9804 9808 7667 7893 
962 995 1293 996 7893 9809 9810 7899 7901 9811 
1259 1293 1260 962 9812 9813 9587 9577 9810 9582 
962 995 1292 1293 7893 9804 9808 9810 9809 9814 
1259 1293 962 1292 9812 9810 9577 9806 9814 9808 
1260 962 1293 963 9582 9810 9813 9584 7674 9815 
1293 962 996 963 9810 7899 9811 9815 7674 7900 
963 996 1294 997 7900 9816 9817 7906 7908 9818 
1260 1294 1261 963 9819 9820 9594 9584 9817 9589 
963 996 1293 1294 7900 9811 9815 9817 9816 9821 
1260 1294 963 1293 9819 9817 9584 9813 9821 9815 
1261 963 1294 964 9589 9817 9820 9591 7681 9822 
1294 963 997 964 9817 7906 9818 9822 7681 7907 
964 997 1295 998 7907 9823 9824 7913 7915 9825 
1261 1295 1262 964 9826 9827 9601 9591 9824 9596 
964 997 1294 1295 7907 9818 9822 9824 9823 9828 
1261 1295 964 1294 9826 9824 9591 9820 9828 9822 
1262 964 1295 965 9596 9824 9827 9598 7688 9829 
1295 964 998 965 9824 7913 9825 9829 7688 7914 
965 998 1296 999 7914 9830 9831 7920 7922 9832 
1262 1296 1263 965 9833 9834 9608 9598 9831 9603 
965 998 1295 1296 7914 9825 9829 9831 9830 9835 
1262 1296 965 1295 9833 9831 9598 9827 9835 9829 
1263 965 1296 966 9603 9831 9834 9605 7695 9836 
1296 965 999 966 9831 7920 9832 9836 7695 7921 
966 999 1297 1000 7921 9837 9838 7927 7929 9839 
1263 1297 1264 966 9840 9841 9615 9605 9838 9610 
966 999 1296 1297 7921 9832 9836 9838 9837 9842 
1263 1297 966 1296 9840 9838 9605 9834 9842 9836 
1264 966 1297 967 9610 9838 9841 9612 7702 9843 
1297 966 1000 967 9838 7927 9839 9843 7702 7928 
967 1000 1298 1001 7928 9844 9845 7934 7936 9846 
1264 1298 1265 967 9847 9848 9622 9612 9845 9617 
967 1000 1297 1298 7928 9839 9843 9845 9844 9849 
1264 1298 967 1297 9847 9845 9612 9841 9849 9843 
1265 967 1298 968 9617 9845 9848 9619 7709 9850 
1298 967 1001 968 9845 7934 9846 9850 7709 7935 
968 1001 1299 1002 7935 9851 9852 7941 7943 9853 
1265 1299 1266 968 9854 9855 9629 9619 9852 9624 
968 1001 1298 1299 7935 9846 9850 9852 9851 9856 
1265 1299 968 1298 9854 9852 9619 9848 9856 9850 
1266 968 1299 969 9624 9852 9855 9626 7716 9857 
1299 968 1002 969 9852 7941 9853 9857 7716 7942 
969 1002 1300 1003 7942 9858 9859 7948 7950 9860 
1266 1300 1267 969 9861 9862 9636 9626 9859 9631 
969 1002 1299 1300 7942 9853 9857 9859 9858 9863 
1266 1300 969 1299 9861 9859 9626 9855 9863 9857 
1267 969 1300 970 9631 9859 9862 9633 7723 9864 
1300 969 1003 970 9859 7948 9860 9864 7723 7949 
970 1003 1301 1004 7949 9865 9866 7955 7957 9867 
1267 1301 1268 970 9868 9869 9643 9633 9866 9638 
970 1003 1300 1301 7949 9860 9864 9866 9865 9870 
1267 1301 970 1300 9868 9866 9633 9862 9870 9864 
1268 970 1301 971 9638 9866 9869 9640 7730 9871 
1301 970 1004 971 9866 7955 9867 9871 7730 7956 
971 1004 1302 1005 7956 9872 9873 7962 7964 9874 
1268 1302 1269 971 9875 9876 9650 9640 9873 9645 
971 1004 1301 1302 7956 9867 9871 9873 9872 9877 
1268 1302 971 1301 9875 9873 9640 9869 9877 9871 
1269 971 1302 972 9645 9873 9876 9647 7737 9878 
1302 971 1005 972 9873 7962 9874 9878 7737 7963 
972 1005 1303 1006 7963 9879 9880 7969 7971 9881 
1269 1303 1270 972 9882 9883 9657 9647 9880 9652 
972 1005 1302 1303 7963 9874 9878 9880 9879 9884 
1269 1303 972 1302 9882 9880 9647 9876 9884 9878 
1270 972 1303 973 9652 9880 9883 9654 7744 9885 
1303 972 1006 973 9880 7969 9881 9885 7744 7970 
973 1006 1304 1007 7970 9886 9887 7976 7978 9888 
1270 1304 1271 973 9889 9890 9664 9654 9887 9659 
973 1006 1303 1304 7970 9881 9885 9887 9886 9891 
1270 1304 973 1303 9889 9887 9654 9883 9891 9885 
1271 973 1304 974 9659 9887 9890 9661 7751 9892 
1304 973 1007 974 9887 7976 9888 9892 7751 7977 
974 1007 1305 1008 7977 9893 9894 7983 7985 9895 
1271 1305 1272 974 9896 9897 9671 9661 9894 9666 
974 1007 1304 1305 7977 9888 9892 9894 9893 9898 
1271 1305 974 1304 9896 9894 9661 9890 9898 9892 
1272 974 1305 975 9666 9894 9897 9668 7758 9899 
1305 974 1008 975 9894 7983 9895 9899 7758 7984 
975 1008 1306 1009 7984 9900 9901 7990 7992 9902 
1272 1306 1273 975 9903 9904 9678 9668 9901 9673 
975 1008 1305 1306 7984 9895 9899 9901 9900 9905 
1272 1306 975 1305 9903 9901 9668 9897 9905 9899 
1273 975 1306 976 9673 9901 9904 9675 7765 9906 
1306 975 1009 976 9901 7990 9902 9906 7765 7991 
976 1009 1307 1010 7991 9907 9908 7997 7999 9909 
1273 1307 1274 976 9910 9911 9685 9675 9908 9680 
976 1009 1306 1307 7991 9902 9906 9908 9907 9912 
1273 1307 976 1306 9910 9908 9675 9904 9912 9906 
1274 976 1307 977 9680 9908 9911 9682 7772 9913 
1307 976 1010 977 9908 7997 9909 9913 7772 7998 
977 1010 1308 1011 7998 9914 9915 8004 8006 9916 
1274 1308 1275 977 9917 9918 9692 9682 9915 9687 
977 1010 1307 1308 7998 9909 9913 9915 9914 9919 
1274 1308 977 1307 9917 9915 9682 9911 9919 9913 
1275 977 1308 978 9687 9915 9918 9689 7779 9920 
1308 977 1011 978 9915 8004 9916 9920 7779 8005 
978 1011 1309 1012 8005 9921 9922 8011 8013 9923 
1275 1309 1276 978 9924 9925 9699 9689 9922 9694 
978 1011 1308 1309 8005 9916 9920 9922 9921 9926 
1275 1309 978 1308 9924 9922 9689 9918 9926 9920 
1276 978 1309 979 9694 9922 9925 9696 7786 9927 
1309 978 1012 979 9922 8011 9923 9927 7786 8012 
979 1012 1310 1013 8012 9928 9929 8018 8020 9930 
1276 1310 1277 979 9931 9932 9706 9696 9929 9701 
979 1012 1309 1310 8012 9923 9927 9929 9928 9933 
1276 1310 979 1309 9931 9929 9696 9925 9933 9927 
1277 979 1310 980 9701 9929 9932 9703 7793 9934 
1310 979 1013 980 9929 8018 9930 9934 7793 8019 
980 1013 1311 1014 8019 9935 9936 8025 8027 9937 
1277 1311 1278 980 9938 9939 9713 9703 9936 9708 
980 1013 1310 1311 8019 9930 9934 9936 9935 9940 
1277 1311 980 1310 9938 9936 9703 9932 9940 9934 
1278 980 1311 981 9708 9936 9939 9710 7800 9941 
1311 980 1014 981 9936 8025 9937 9941 7800 8026 
981 1014 1312 1015 8026 9942 9943 8032 8034 9944 
1278 1312 1279 981 9945 9946 9720 9710 9943 9715 
981 1014 1311 1312 8026 9937 9941 9943 9942 9947 
1278 1312 981 1311 9945 9943 9710 9939 9947 9941 
1279 981 1312 982 9715 9943 9946 9717 7807 9948 
1312 981 1015 982 9943 8032 9944 9948 7807 8033 
982 1015 1313 1016 8033 9949 9950 8039 8041 9951 
1279 1313 1280 982 9952 9953 9727 9717 9950 9722 
982 1015 1312 1313 8033 9944 9948 9950 9949 9954 
1279 1313 982 1312 9952 9950 9717 9946 9954 9948 
1280 982 1313 983 9722 9950 9953 9724 7814 9955 
1313 982 1016 983 9950 8039 9951 9955 7814 8040 
983 1016 1314 1017 8040 9956 9957 8046 8048 9958 
1280 1314 1281 983 9959 9960 9734 9724 9957 9729 
983 1016 1313 1314 8040 9951 9955 9957 9956 9961 
1280 1314 983 1313 9959 9957 9724 9953 9961 9955 
1281 983 1314 984 9729 9957 9960 9731 7821 9962 
1314 983 1017 984 9957 8046 9958 9962 7821 8047 
984 1017 1315 1018 8047 9963 9964 8053 8055 9965 
1281 1315 1282 984 9966 9967 9741 9731 9964 9736 
984 1017 1314 1315 8047 9958 9962 9964 9963 9968 
1281 1315 984 1314 9966 9964 9731 9960 9968 9962 
1282 984 1315 985 9736 9964 9967 9738 7828 9969 
1315 984 1018 985 9964 8053 9965 9969 7828 8054 
985 1018 1316 1019 8054 9970 9971 8060 8062 9972 
1282 1316 1283 985 9973 9974 9748 9738 9971 9743 
985 1018 1315 1316 8054 9965 9969 9971 9970 9975 
1282 1316 985 1315 9973 9971 9738 9967 9975 9969 
1283 985 1316 986 9743 9971 9974 9745 7835 9976 
1316 985 1019 986 9971 8060 9972 9976 7835 8061 
986 1019 1317 1020 8061 9977 9978 8067 8069 9979 
1283 1317 1284 986 9980 9981 9755 9745 9978 9750 
986 1019 1316 1317 8061 9972 9976 9978 9977 9982 
1283 1317 986 1316 9980 9978 9745 9974 9982 9976 
1284 986 1317 987 9750 9978 9981 9752 7842 9983 
1317 986 1020 987 9978 8067 9979 9983 7842 8068 
987 1020 1318 1021 8068 9984 9985 8074 8076 9986 
1284 1318 1285 987 9987 9988 9762 9752 9985 9757 
987 1020 1317 1318 8068 9979 9983 9985 9984 9989 
1284 1318 987 1317 9987 9985 9752 9981 9989 9983 
1285 987 1318 988 9757 9985 9988 9759 7849 9990 
1318 987 1021 988 9985 8074 9986 9990 7849 8075 
988 1021 1319 1022 8075 9991 9992 8081 8083 9993 
1285 1319 1286 988 9994 9995 9769 9759 9992 9764 
988 1021 1318 1319 8075 9986 9990 9992 9991 9996 
1285 1319 988 1318 9994 9992 9759 9988 9996 9990 
1286 988 1319 989 9764 9992 9995 9766 7856 9997 
1319 988 1022 989 9992 8081 9993 9997 7856 8082 
990 1023 1321 1024 8093 9998 9999 8088 8092 10000 
1287 1321 1288 990 10001 10002 9778 9776 9999 9771 
990 1023 1320 1321 8093 10003 10004 9999 9998 10005 
1287 1321 990 1320 10001 9999 9776 10006 10005 10004 
1288 990 1321 991 9771 9999 10002 9773 7865 10007 
1321 990 1024 991 9999 8088 10000 10007 7865 8089 
991 1024 1322 1025 8089 10008 10009 8098 8100 10010 
1288 1322 1289 991 10011 10012 9786 9773 10009 9781 
991 1024 1321 1322 8089 10000 10007 10009 10008 10013 
1288 1322 991 1321 10011 10009 9773 10002 10013 10007 
1289 991 1322 992 9781 10009 10012 9783 7873 10014 
1322 991 1025 992 10009 8098 10010 10014 7873 8099 
992 1025 1323 1026 8099 10015 10016 8105 8107 10017 
1289 1323 1290 992 10018 10019 9793 9783 10016 9788 
992 1025 1322 1323 8099 10010 10014 10016 10015 10020 
1289 1323 992 1322 10018 10016 9783 10012 10020 10014 
1290 992 1323 993 9788 10016 10019 9790 7880 10021 
1323 992 1026 993 10016 8105 10017 10021 7880 8106 
993 1026 1324 1027 8106 10022 10023 8112 8114 10024 
1290 1324 1291 993 10025 10026 9800 9790 10023 9795 
993 1026 1323 1324 8106 10017 10021 10023 10022 10027 
1290 1324 993 1323 10025 10023 9790 10019 10027 10021 
1291 993 1324 994 9795 10023 10026 9797 7887 10028 
1324 993 1027 994 10023 8112 10024 10028 7887 8113 
994 1027 1325 1028 8113 10029 10030 8119 8121 10031 
1291 1325 1292 994 10032 10033 9807 9797 10030 9802 
994 1027 1324 1325 8113 10024 10028 10030 10029 10034 
1291 1325 994 1324 10032 10030 9797 10026 10034 10028 
1292 994 1325 995 9802 10030 10033 9804 7894 10035 
1325 994 1028 995 10030 8119 10031 10035 7894 8120 
995 1028 1326 1029 8120 10036 10037 8126 8128 10038 
1292 1326 1293 995 10039 10040 9814 9804 10037 9809 
995 1028 1325 1326 8120 10031 10035 10037 10036 10041 
1292 1326 995 1325 10039 10037 9804 10033 10041 10035 
1293 995 1326 996 9809 10037 10040 9811 7901 10042 
1326 995 1029 996 10037 8126 10038 10042 7901 8127 
996 1029 1327 1030 8127 10043 10044 8133 8135 10045 
1293 1327 1294 996 10046 10047 9821 9811 10044 9816 
996 1029 1326 1327 8127 10038 10042 10044 10043 10048 
1293 1327 996 1326 10046 10044 9811 10040 10048 10042 
1294 996 1327 997 9816 10044 10047 9818 7908 10049 
1327 996 1030 997 10044 8133 10045 10049 7908 8134 
997 1030 1328 1031 8134 10050 10051 8140 8142 10052 
1294 1328 1295 997 10053 10054 9828 9818 10051 9823 
997 1030 1327 1328 8134 10045 10049 10051 10050 10055 
1294 1328 997 1327 10053 10051 9818 10047 10055 10049 
1295 997 1328 998 9823 10051 10054 9825 7915 10056 
1328 997 1031 998 10051 8140 10052 10056 7915 8141 
998 1031 1329 1032 8141 10057 10058 8147 8149 10059 
1295 1329 1296 998 10060 10061 9835 9825 10058 9830 
998 1031 1328 1329 8141 10052 10056 10058 10057 10062 
1295 1329 998 1328 10060 10058 9825 10054 10062 10056 
1296 998 1329 999 9830 10058 10061 9832 7922 10063 
1329 998 1032 999 10058 8147 10059 10063 7922 8148 
999 1032 1330 1033 8148 10064 10065 8154 8156 10066 
1296 1330 1297 999 10067 10068 9842 9832 10065 9837 
999 1032 1329 1330 8148 10059 10063 10065 10064 10069 
1296 1330 999 1329 10067 10065 9832 10061 10069 10063 
1297 999 1330 1000 9837 10065 10068 9839 7929 10070 
1330 999 1033 1000 10065 8154 10066 10070 7929 8155 
1000 1033 1331 1034 8155 10071 10072 8161 8163 10073 
1297 1331 1298 1000 10074 10075 9849 9839 10072 9844 
1000 1033 1330 1331 8155 10066 10070 10072 10071 10076 
1297 1331 1000 1330 10074 10072 9839 10068 10076 10070 
1298 1000 1331 1001 9844 10072 10075 9846 7936 10077 
1331 1000 1034 1001 10072 8161 10073 10077 7936 8162 
1001 1034 1332 1035 8162 10078 10079 8168 8170 10080 
1298 1332 1299 1001 10081 10082 9856 9846 10079 9851 
1001 1034 1331 1332 8162 10073 10077 10079 10078 10083 
1298 1332 1001 1331 10081 10079 9846 10075 10083 10077 
1299 1001 1332 1002 9851 10079 10082 9853 7943 10084 
1332 1001 1035 1002 10079 8168 10080 10084 7943 8169 
1002 1035 1333 1036 8169 10085 10086 8175 8177 10087 
1299 1333 1300 1002 10088 10089 9863 9853 10086 9858 
1002 1035 1332 1333 8169 10080 10084 10086 10085 10090 
1299 1333 1002 1332 10088 10086 9853 10082 10090 10084 
1300 1002 1333 1003 9858 10086 10089 9860 7950 10091 
1333 1002 1036 1003 10086 8175 10087 10091 7950 8176 
1003 1036 1334 1037 8176 10092 10093 8182 8184 10094 
1300 1334 1301 1003 10095 10096 9870 9860 10093 9865 
1003 1036 1333 1334 8176 10087 10091 10093 10092 10097 
1300 1334 1003 1333 10095 10093 9860 10089 10097 10091 
1301 1003 1334 1004 9865 10093 10096 9867 7957 10098 
1334 1003 1037 1004 10093 8182 10094 10098 7957 8183 
1004 1037 1335 1038 8183 10099 10100 8189 8191 10101 
1301 1335 1302 1004 10102 10103 9877 9867 10100 9872 
1004 1037 1334 1335 8183 10094 10098 10100 10099 10104 
1301 1335 1004 1334 10102 10100 9867 10096 10104 10098 
1302 1004 1335 1005 9872 10100 10103 9874 7964 10105 
1335 1004 1038 1005 10100 8189 10101 10105 7964 8190 
1005 1038 1336 1039 8190 10106 10107 8196 8198 10108 
1302 1336 1303 1005 10109 10110 9884 9874 10107 9879 
1005 1038 1335 1336 8190 10101 10105 10107 10106 10111 
1302 1336 1005 1335 10109 10107 9874 10103 10111 10105 
1303 1005 1336 1006 9879 10107 10110 9881 7971 10112 
1336 1005 1039 1006 10107 8196 10108 10112 7971 8197 
1006 1039 1337 1040 8197 10113 10114 8203 8205 10115 
1303 1337 1304 1006 10116 10117 9891 9881 10114 9886 
1006 1039 1336 1337 8197 10108 10112 10114 10113 10118 
1303 1337 1006 1336 10116 10114 9881 10110 10118 10112 
1304 1006 1337 1007 9886 10114 10117 9888 7978 10119 
1337 1006 1040 1007 10114 8203 10115 10119 7978 8204 
1007 1040 1338 1041 8204 10120 10121 8210 8212 10122 
1304 1338 1305 1007 10123 10124 9898 9888 10121 9893 
1007 1040 1337 1338 8204 10115 10119 10121 10120 10125 
1304 1338 1007 1337 10123 10121 9888 10117 10125 10119 
1305 1007 1338 1008 9893 10121 10124 9895 7985 10126 
1338 1007 1041 1008 10121 8210 10122 10126 7985 8211 
1008 1041 1339 1042 8211 10127 10128 8217 8219 10129 
1305 1339 1306 1008 10130 10131 9905 9895 10128 9900 
1008 1041 1338 1339 8211 10122 10126 10128 10127 10132 
1305 1339 1008 1338 10130 10128 9895 10124 10132 10126 
1306 1008 1339 1009 9900 10128 10131 9902 7992 10133 
1339 1008 1042 1009 10128 8217 10129 10133 7992 8218 
1009 1042 1340 1043 8218 10134 10135 8224 8226 10136 
1306 1340 1307 1009 10137 10138 9912 9902 10135 9907 
1009 1042 1339 1340 8218 10129 10133 10135 10134 10139 
1306 1340 1009 1339 10137 10135 9902 10131 10139 10133 
1307 1009 1340 1010 9907 10135 10138 9909 7999 10140 
1340 1009 1043 1010 10135 8224 10136 10140 7999 8225 
1010 1043 1341 1044 8225 10141 10142 8231 8233 10143 
1307 1341 1308 1010 10144 10145 9919 9909 10142 9914 
1010 1043 1340 1341 8225 10136 10140 10142 10141 10146 
1307 1341 1010 1340 10144 10142 9909 10138 10146 10140 
1308 1010 1341 1011 9914 10142 10145 9916 8006 10147 
1341 1010 1044 1011 10142 8231 10143 10147 8006 8232 
1011 1044 1342 1045 8232 10148 10149 8238 8240 10150 
1308 1342 1309 1011 10151 10152 9926 9916 10149 9921 
1011 1044 1341 1342 8232 10143 10147 10149 10148 10153 
1308 1342 1011 1341 10151 10149 9916 10145 10153 10147 
1309 1011 1342 1012 9921 10149 10152 9923 8013 10154 
1342 1011 1045 1012 10149 8238 10150 10154 8013 8239 
1012 1045 1343 1046 8239 10155 10156 8245 8247 10157 
1309 1343 1310 1012 10158 10159 9933 9923 10156 9928 
1012 1045 1342 1343 8239 10150 10154 10156 10155 10160 
1309 1343 1012 1342 10158 10156 9923 10152 10160 10154 
1310 1012 1343 1013 9928 10156 10159 9930 8020 10161 
1343 1012 1046 1013 10156 8245 10157 10161 8020 8246 
1013 1046 1344 1047 8246 10162 10163 8252 8254 10164 
1310 1344 1311 1013 10165 10166 9940 9930 10163 9935 
1013 1046 1343 1344 8246 10157 10161 10163 10162 10167 
1310 1344 1013 1343 10165 10163 9930 10159 10167 10161 
1311 1013 1344 1014 9935 10163 10166 9937 8027 10168 
1344 1013 1047 1014 10163 8252 10164 10168 8027 8253 
1014 1047 1345 1048 8253 10169 10170 8259 8261 10171 
1311 1345 1312 1014 10172 10173 9947 9937 10170 9942 
1014 1047 1344 1345 8253 10164 10168 10170 10169 10174 
1311 1345 1014 1344 10172 10170 9937 10166 10174 10168 
1312 1014 1345 1015 9942 10170 10173 9944 8034 10175 
1345 1014 1048 1015 10170 8259 10171 10175 8034 8260 
1015 1048 1346 1049 8260 10176 10177 8266 8268 10178 
1312 1346 1313 1015 10179 10180 9954 9944 10177 9949 
1015 1048 1345 1346 8260 10171 10175 10177 10176 10181 
1312 1346 1015 1345 10179 10177 9944 10173 10181 10175 
1313 1015 1346 1016 9949 10177 10180 9951 8041 10182 
1346 1015 1049 1016 10177 8266 10178 10182 8041 8267 
1016 1049 1347 1050 8267 10183 10184 8273 8275 10185 
1313 1347 1314 1016 10186 10187 9961 9951 10184 9956 
1016 1049 1346 1347 8267 10178 10182 10184 10183 10188 
1313 1347 1016 1346 10186 10184 9951 10180 10188 10182 
1314 1016 1347 1017 9956 10184 10187 9958 8048 10189 
1347 1016 1050 1017 10184 8273 10185 10189 8048 8274 
1017 1050 1348 1051 8274 10190 10191 8280 8282 10192 
1314 1348 1315 1017 10193 10194 9968 9958 10191 9963 
1017 1050 1347 1348 8274 10185 10189 10191 10190 10195 
1314 1348 1017 1347 10193 10191 9958 10187 10195 10189 
1315 1017 1348 1018 9963 10191 10194 9965 8055 10196 
1348 1017 1051 1018 10191 8280 10192 10196 8055 8281 
1018 1051 1349 1052 8281 10197 10198 8287 8289 10199 
1315 1349 1316 1018 10200 10201 9975 9965 10198 9970 
1018 1051 1348 1349 8281 10192 10196 10198 10197 10202 
1315 1349 1018 1348 10200 10198 9965 10194 10202 10196 
1316 1018 1349 1019 9970 10198 10201 9972 8062 10203 
1349 1018 1052 1019 10198 8287 10199 10203 8062 8288 
1019 1052 1350 1053 8288 10204 10205 8294 8296 10206 
1316 1350 1317 1019 10207 10208 9982 9972 10205 9977 
1019 1052 1349 1350 8288 10199 10203 10205 10204 10209 
1316 1350 1019 1349 10207 10205 9972 10201 10209 10203 
1317 1019 1350 1020 9977 10205 10208 9979 8069 10210 
1350 1019 1053 1020 10205 8294 10206 10210 8069 8295 
1020 1053 1351 1054 8295 10211 10212 8301 8303 10213 
1317 1351 1318 1020 10214 10215 9989 9979 10212 9984 
1020 1053 1350 1351 8295 10206 10210 10212 10211 10216 
1317 1351 1020 1350 10214 10212 9979 10208 10216 10210 
1318 1020 1351 1021 9984 10212 10215 9986 8076 10217 
1351 1020 1054 1021 10212 8301 10213 10217 8076 8302 
1021 1054 1352 1055 8302 10218 10219 8308 8310 10220 
1318 1352 1319 1021 10221 10222 9996 9986 10219 9991 
1021 1054 1351 1352 8302 10213 10217 10219 10218 10223 
1318 1352 1021 1351 10221 10219 9986 10215 10223 10217 
1319 1021 1352 1022 9991 10219 10222 9993 8083 10224 
1352 1021 1055 1022 10219 8308 10220 10224 8083 8309 
1023 1056 1354 1057 8320 10225 10226 8315 8319 10227 
1320 1354 1321 1023 10228 10229 10005 10003 10226 9998 
1023 1056 1353 1354 8320 10230 10231 10226 10225 10232 
1320 1354 1023 1353 10228 10226 10003 10233 10232 10231 
1321 1023 1354 1024 9998 10226 10229 10000 8092 10234 
1354 1023 1057 1024 10226 8315 10227 10234 8092 8316 
1024 1057 1355 1058 8316 10235 10236 8325 8327 10237 
1321 1355 1322 1024 10238 10239 10013 10000 10236 10008 
1024 1057 1354 1355 8316 10227 10234 10236 10235 10240 
1321 1355 1024 1354 10238 10236 10000 10229 10240 10234 
1322 1024 1355 1025 10008 10236 10239 10010 8100 10241 
1355 1024 1058 1025 10236 8325 10237 10241 8100 8326 
1025 1058 1356 1059 8326 10242 10243 8332 8334 10244 
1322 1356 1323 1025 10245 10246 10020 10010 10243 10015 
1025 1058 1355 1356 8326 10237 10241 10243 10242 10247 
1322 1356 1025 1355 10245 10243 10010 10239 10247 10241 
1323 1025 1356 1026 10015 10243 10246 10017 8107 10248 
1356 1025 1059 1026 10243 8332 10244 10248 8107 8333 
1026 1059 1357 1060 8333 10249 10250 8339 8341 10251 
1323 1357 1324 1026 10252 10253 10027 10017 10250 10022 
1026 1059 1356 1357 8333 10244 10248 10250 10249 10254 
1323 1357 1026 1356 10252 10250 10017 10246 10254 10248 
1324 1026 1357 1027 10022 10250 10253 10024 8114 10255 
1357 1026 1060 1027 10250 8339 10251 10255 8114 8340 
1027 1060 1358 1061 8340 10256 10257 8346 8348 10258 
1324 1358 1325 1027 10259 10260 10034 10024 10257 10029 
1027 1060 1357 1358 8340 10251 10255 10257 10256 10261 
1324 1358 1027 1357 10259 10257 10024 10253 10261 10255 
1325 1027 1358 1028 10029 10257 10260 10031 8121 10262 
1358 1027 1061 1028 10257 8346 10258 10262 8121 8347 
1028 1061 1359 1062 8347 10263 10264 8353 8355 10265 
1325 1359 1326 1028 10266 10267 10041 10031 10264 10036 
1028 1061 1358 1359 8347 10258 10262 10264 10263 10268 
1325 1359 1028 1358 10266 10264 10031 10260 10268 10262 
1326 1028 1359 1029 10036 10264 10267 10038 8128 10269 
1359 1028 1062 1029 10264 8353 10265 10269 8128 8354 
1029 1062 1360 1063 8354 10270 10271 8360 8362 10272 
1326 1360 1327 1029 10273 10274 10048 10038 10271 10043 
1029 1062 1359 1360 8354 10265 10269 10271 10270 10275 
1326 1360 1029 1359 10273 10271 10038 10267 10275 10269 
1327 1029 1360 1030 10043 10271 10274 10045 8135 10276 
1360 1029 1063 1030 10271 8360 10272 10276 8135 8361 
1030 1063 1361 1064 8361 10277 10278 8367 8369 10279 
1327 1361 1328 1030 10280 10281 10055 10045 10278 10050 
1030 1063 1360 1361 8361 10272 10276 10278 10277 10282 
1327 1361 1030 1360 10280 10278 10045 10274 10282 10276 
1328 1030 1361 1031 10050 10278 10281 10052 8142 10283 
1361 1030 1064 1031 10278 8367 10279 10283 8142 8368 
1031 1064 1362 1065 8368 10284 10285 8374 8376 10286 
1328 1362 1329 1031 10287 10288 10062 10052 10285 10057 
1031 1064 1361 1362 8368 10279 10283 10285 10284 10289 
1328 1362 1031 1361 10287 10285 10052 10281 10289 10283 
1329 1031 1362 1032 10057 10285 10288 10059 8149 10290 
1362 1031 1065 1032 10285 8374 10286 10290 8149 8375 
1032 1065 1363 1066 8375 10291 10292 8381 8383 10293 
1329 1363 1330 1032 10294 10295 10069 10059 10292 10064 
1032 1065 1362 1363 8375 10286 10290 10292 10291 10296 
1329 1363 1032 1362 10294 10292 10059 10288 10296 10290 
1330 1032 1363 1033 10064 10292 10295 10066 8156 10297 
1363 1032 1066 1033 10292 8381 10293 10297 8156 8382 
1033 1066 1364 1067 8382 10298 10299 8388 8390 10300 
1330 1364 1331 1033 10301 10302 10076 10066 10299 10071 
1033 1066 1363 1364 8382 10293 10297 10299 10298 10303 
1330 1364 1033 1363 10301 10299 10066 10295 10303 10297 
1331 1033 1364 1034 10071 10299 10302 10073 8163 10304 
1364 1033 1067 1034 10299 8388 10300 10304 8163 8389 
1034 1067 1365 1068 8389 10305 10306 8395 8397 10307 
1331 1365 1332 1034 10308 10309 10083 10073 10306 10078 
1034 1067 1364 1365 8389 10300 10304 10306 10305 10310 
1331 1365 1034 1364 10308 10306 10073 10302 10310 10304 
1332 1034 1365 1035 10078 10306 10309 10080 8170 10311 
1365 1034 1068 1035 10306 8395 10307 10311 8170 8396 
1035 1068 1366 1069 8396 10312 10313 8402 8404 10314 
1332 1366 1333 1035 10315 10316 10090 10080 10313 10085 
1035 1068 1365 1366 8396 10307 10311 10313 10312 10317 
1332 1366 1035 1365 10315 10313 10080 10309 10317 10311 
1333 1035 1366 1036 10085 10313 10316 10087 8177 10318 
1366 1035 1069 1036 10313 8402 10314 10318 8177 8403 
1036 1069 1367 1070 8403 10319 10320 8409 8411 10321 
1333 1367 1334 1036 10322 10323 10097 10087 10320 10092 
1036 1069 1366 1367 8403 10314 10318 10320 10319 10324 
1333 1367 1036 1366 10322 10320 10087 10316 10324 10318 
1334 1036 1367 1037 10092 10320 10323 10094 8184 10325 
1367 1036 1070 1037 10320 8409 10321 10325 8184 8410 
1037 1070 1368 1071 8410 10326 10327 8416 8418 10328 
1334 1368 1335 1037 10329 10330 10104 10094 10327 10099 
1037 1070 1367 1368 8410 10321 10325 10327 10326 10331 
1334 1368 1037 1367 10329 10327 10094 10323 10331 10325 
1335 1037 1368 1038 10099 10327 10330 10101 8191 10332 
1368 1037 1071 1038 10327 8416 10328 10332 8191 8417 
1038 1071 1369 1072 8417 10333 10334 8423 8425 10335 
1335 1369 1336 1038 10336 10337 10111 10101 10334 10106 
1038 1071 1368 1369 8417 10328 10332 10334 10333 10338 
1335 1369 1038 1368 10336 10334 10101 10330 10338 10332 
1336 1038 1369 1039 10106 10334 10337 10108 8198 10339 
1369 1038 1072 1039 10334 8423 10335 10339 8198 8424 
1039 1072 1370 1073 8424 10340 10341 8430 8432 10342 
1336 1370 1337 1039 10343 10344 10118 10108 10341 10113 
1039 1072 1369 1370 8424 10335 10339 10341 10340 10345 
1336 1370 1039 1369 10343 10341 10108 10337 10345 10339 
1337 1039 1370 1040 10113 10341 10344 10115 8205 10346 
1370 1039 1073 1040 10341 8430 10342 10346 8205 8431 
1040 1073 1371 1074 8431 10347 10348 8437 8439 10349 
1337 1371 1338 1040 10350 10351 10125 10115 10348 10120 
1040 1073 1370 1371 8431 10342 10346 10348 10347 10352 
1337 1371 1040 1370 10350 10348 10115 10344 10352 10346 
1338 1040 1371 1041 10120 10348 10351 10122 8212 10353 
1371 1040 1074 1041 10348 8437 10349 10353 8212 8438 
1041 1074 1372 1075 8438 10354 10355 8444 8446 10356 
1338 1372 1339 1041 10357 10358 10132 10122 10355 10127 
1041 1074 1371 1372 8438 10349 10353 10355 10354 10359 
1338 1372 1041 1371 10357 10355 10122 10351 10359 10353 
1339 1041 1372 1042 10127 10355 10358 10129 8219 10360 
1372 1041 1075 1042 10355 8444 10356 10360 8219 8445 
1042 1075 1373 1076 8445 10361 10362 8451 8453 10363 
1339 1373 1340 1042 10364 10365 10139 10129 10362 10134 
1042 1075 1372 1373 8445 10356 10360 10362 10361 10366 
1339 1373 1042 1372 10364 10362 10129 10358 10366 10360 
1340 1042 1373 1043 10134 10362 10365 10136 8226 10367 
1373 1042 1076 1043 10362 8451 10363 10367 8226 8452 
1043 1076 1374 1077 8452 10368 10369 8458 8460 10370 
1340 1374 1341 1043 10371 10372 10146 10136 10369 10141 
1043 1076 1373 1374 8452 10363 10367 10369 10368 10373 
1340 1374 1043 1373 10371 10369 10136 10365 10373 10367 
1341 1043 1374 1044 10141 10369 10372 10143 8233 10374 
1374 1043 1077 1044 10369 8458 10370 10374 8233 8459 
1044 1077 1375 1078 8459 10375 10376 8465 8467 10377 
1341 1375 1342 1044 10378 10379 10153 10143 10376 10148 
1044 1077 1374 1375 8459 10370 10374 10376 10375 10380 
1341 1375 1044 1374 10378 10376 10143 10372 10380 10374 
1342 1044 1375 1045 10148 10376 10379 10150 8240 10381 
1375 1044 1078 1045 10376 8465 10377 10381 8240 8466 
1045 1078 1376 1079 8466 10382 10383 8472 8474 10384 
1342 1376 1343 1045 10385 10386 10160 10150 10383 10155 
1045 1078 1375 1376 8466 10377 10381 10383 10382 10387 
1342 1376 1045 1375 10385 10383 10150 10379 10387 10381 
1343 1045 1376 1046 10155 10383 10386 10157 8247 10388 
1376 1045 1079 1046 10383 8472 10384 10388 8247 8473 
1046 1079 1377 1080 8473 10389 10390 8479 8481 10391 
1343 1377 1344 1046 10392 10393 10167 10157 10390 10162 
1046 1079 1376 1377 8473 10384 10388 10390 10389 10394 
1343 1377 1046 1376 10392 10390 10157 10386 10394 10388 
1344 1046 1377 1047 10162 10390 10393 10164 8254 10395 
1377 1046 1080 1047 10390 8479 10391 10395 8254 8480 
1047 1080 1378 1081 8480 10396 10397 8486 8488 10398 
1344 1378 1345 1047 10399 10400 10174 10164 10397 10169 
1047 1080 1377 1378 8480 10391 10395 10397 10396 10401 
1344 1378 1047 1377 10399 10397 10164 10393 10401 10395 
1345 1047 1378 1048 10169 10397 10400 10171 8261 10402 
1378 1047 1081 1048 10397 8486 10398 10402 8261 8487 
1048 1081 1379 1082 8487 10403 10404 8493 8495 10405 
1345 1379 1346 1048 10406 10407 10181 10171 10404 10176 
1048 1081 1378 1379 8487 10398 10402 10404 10403 10408 
1345 1379 1048 1378 10406 10404 10171 10400 10408 10402 
1346 1048 1379 1049 10176 10404 10407 10178 8268 10409 
1379 1048 1082 1049 10404 8493 10405 10409 8268 8494 
1049 1082 1380 1083 8494 10410 10411 8500 8502 10412 
1346 1380 1347 1049 10413 10414 10188 10178 10411 10183 
1049 1082 1379 1380 8494 10405 10409 10411 10410 10415 
1346 1380 1049 1379 10413 10411 10178 10407 10415 10409 
1347 1049 1380 1050 10183 10411 10414 10185 8275 10416 
1380 1049 1083 1050 10411 8500 10412 10416 8275 8501 
1050 1083 1381 1084 8501 10417 10418 8507 8509 10419 
1347 1381 1348 1050 10420 10421 10195 10185 10418 10190 
1050 1083 1380 1381 8501 10412 10416 10418 10417 10422 
1347 1381 1050 1380 10420 10418 10185 10414 10422 10416 
1348 1050 1381 1051 10190 10418 10421 10192 8282 10423 
1381 1050 1084 1051 10418 8507 10419 10423 8282 8508 
1051 1084 1382 1085 8508 10424 10425 8514 8516 10426 
1348 1382 1349 1051 10427 10428 10202 10192 10425 10197 
1051 1084 1381 1382 8508 10419 10423 10425 10424 10429 
1348 1382 1051 1381 10427 10425 10192 10421 10429 10423 
1349 1051 1382 1052 10197 10425 10428 10199 8289 10430 
1382 1051 1085 1052 10425 8514 10426 10430 8289 8515 
1052 1085 1383 1086 8515 10431 10432 8521 8523 10433 
1349 1383 1350 1052 10434 10435 10209 10199 10432 10204 
1052 1085 1382 1383 8515 10426 10430 10432 10431 10436 
1349 1383 1052 1382 10434 10432 10199 10428 10436 10430 
1350 1052 1383 1053 10204 10432 10435 10206 8296 10437 
1383 1052 1086 1053 10432 8521 10433 10437 8296 8522 
1053 1086 1384 1087 8522 10438 10439 8528 8530 10440 
1350 1384 1351 1053 10441 10442 10216 10206 10439 10211 
1053 1086 1383 1384 8522 10433 10437 10439 10438 10443 
1350 1384 1053 1383 10441 10439 10206 10435 10443 10437 
1351 1053 1384 1054 10211 10439 10442 10213 8303 10444 
1384 1053 1087 1054 10439 8528 10440 10444 8303 8529 
1054 1087 1385 1088 8529 10445 10446 8535 8537 10447 
1351 1385 1352 1054 10448 10449 10223 10213 10446 10218 
1054 1087 1384 1385 8529 10440 10444 10446 10445 10450 
1351 1385 1054 1384 10448 10446 10213 10442 10450 10444 
1352 1054 1385 1055 10218 10446 10449 10220 8310 10451 
1385 1054 1088 1055 10446 8535 10447 10451 8310 8536 
1056 1089 1387 1090 8547 10452 10453 8542 8546 10454 
1353 1387 1354 1056 10455 10456 10232 10230 10453 10225 
1056 1089 1386 1387 8547 10457 10458 10453 10452 10459 
1353 1387 1056 1386 10455 10453 10230 10460 10459 10458 
1354 1056 1387 1057 10225 10453 10456 10227 8319 10461 
1387 1056 1090 1057 10453 8542 10454 10461 8319 8543 
1057 1090 1388 1091 8543 10462 10463 8552 8554 10464 
1354 1388 1355 1057 10465 10466 10240 10227 10463 10235 
1057 1090 1387 1388 8543 10454 10461 10463 10462 10467 
1354 1388 1057 1387 10465 10463 10227 10456 10467 10461 
1355 1057 1388 1058 10235 10463 10466 10237 8327 10468 
1388 1057 1091 1058 10463 8552 10464 10468 8327 8553 
1058 1091 1389 1092 8553 10469 10470 8559 8561 10471 
1355 1389 1356 1058 10472 10473 10247 10237 10470 10242 
1058 1091 1388 1389 8553 10464 10468 10470 10469 10474 
1355 1389 1058 1388 10472 10470 10237 10466 10474 10468 
1356 1058 1389 1059 10242 10470 10473 10244 8334 10475 
1389 1058 1092 1059 10470 8559 10471 10475 8334 8560 
1059 1092 1390 1093 8560 10476 10477 8566 8568 10478 
1356 1390 1357 1059 10479 10480 10254 10244 10477 10249 
1059 1092 1389 1390 8560 10471 10475 10477 10476 10481 
1356 1390 1059 1389 10479 10477 10244 10473 10481 10475 
1357 1059 1390 1060 10249 10477 10480 10251 8341 10482 
1390 1059 1093 1060 10477 8566 10478 10482 8341 8567 
1060 1093 1391 1094 8567 10483 10484 8573 8575 10485 
1357 1391 1358 1060 10486 10487 10261 10251 10484 10256 
1060 1093 1390 1391 8567 10478 10482 10484 10483 10488 
1357 1391 1060 1390 10486 10484 10251 10480 10488 10482 
1358 1060 1391 1061 10256 10484 10487 10258 8348 10489 
1391 1060 1094 1061 10484 8573 10485 10489 8348 8574 
1061 1094 1392 1095 8574 10490 10491 8580 8582 10492 
1358 1392 1359 1061 10493 10494 10268 10258 10491 10263 
1061 1094 1391 1392 8574 10485 10489 10491 10490 10495 
1358 1392 1061 1391 10493 10491 10258 10487 10495 10489 
1359 1061 1392 1062 10263 10491 10494 10265 8355 10496 
1392 1061 1095 1062 10491 8580 10492 10496 8355 8581 
1062 1095 1393 1096 8581 10497 10498 8587 8589 10499 
1359 1393 1360 1062 10500 10501 10275 10265 10498 10270 
1062 1095 1392 1393 8581 10492 10496 10498 10497 10502 
1359 1393 1062 1392 10500 10498 10265 10494 10502 10496 
1360 1062 1393 1063 10270 10498 10501 10272 8362 10503 
1393 1062 1096 1063 10498 8587 10499 10503 8362 8588 
1063 1096 1394 1097 8588 10504 10505 8594 8596 10506 
1360 1394 1361 1063 10507 10508 10282 10272 10505 10277 
1063 1096 1393 1394 8588 10499 10503 10505 10504 10509 
1360 1394 1063 1393 10507 10505 10272 10501 10509 10503 
1361 1063 1394 1064 10277 10505 10508 10279 8369 10510 
1394 1063 1097 1064 10505 8594 10506 10510 8369 8595 
1064 1097 1395 1098 8595 10511 10512 8601 8603 10513 
1361 1395 1362 1064 10514 10515 10289 10279 10512 10284 
1064 1097 1394 1395 8595 10506 10510 10512 10511 10516 
1361 1395 1064 1394 10514 10512 10279 10508 10516 10510 
1362 1064 1395 1065 10284 10512 10515 10286 8376 10517 
1395 1064 1098 1065 10512 8601 10513 10517 8376 8602 
1065 1098 1396 1099 8602 10518 10519 8608 8610 10520 
1362 1396 1363 1065 10521 10522 10296 10286 10519 10291 
1065 1098 1395 1396 8602 10513 10517 10519 10518 10523 
1362 1396 1065 1395 10521 10519 10286 10515 10523 10517 
1363 1065 1396 1066 10291 10519 10522 10293 8383 10524 
1396 1065 1099 1066 10519 8608 10520 10524 8383 8609 
1066 1099 1397 1100 8609 10525 10526 8615 8617 10527 
1363 1397 1364 1066 10528 10529 10303 10293 10526 10298 
1066 1099 1396 1397 8609 10520 10524 10526 10525 10530 
1363 1397 1066 1396 10528 10526 10293 10522 10530 10524 
1364 1066 1397 1067 10298 10526 10529 10300 8390 10531 
1397 1066 1100 1067 10526 8615 10527 10531 8390 8616 
1067 1100 1398 1101 8616 10532 10533 8622 8624 10534 
1364 1398 1365 1067 10535 10536 10310 10300 10533 10305 
1067 1100 1397 1398 8616 10527 10531 10533 10532 10537 
1364 1398 1067 1397 10535 10533 10300 10529 10537 10531 
1365 1067 1398 1068 10305 10533 10536 10307 8397 10538 
1398 1067 1101 1068 10533 8622 10534 10538 8397 8623 
1068 1101 1399 1102 8623 10539 10540 8629 8631 10541 
1365 1399 1366 1068 10542 10543 10317 10307 10540 10312 
1068 1101 1398 1399 8623 10534 10538 10540 10539 10544 
1365 1399 1068 1398 10542 10540 10307 10536 10544 10538 
1366 1068 1399 1069 10312 10540 10543 10314 8404 10545 
1399 1068 1102 1069 10540 8629 10541 10545 8404 8630 
1069 1102 1400 1103 8630 10546 10547 8636 8638 10548 
1366 1400 1367 1069 10549 10550 10324 10314 10547 10319 
1069 1102 1399 1400 8630 10541 10545 10547 10546 10551 
1366 1400 1069 1399 10549 10547 10314 10543 10551 10545 
1367 1069 1400 1070 10319 10547 10550 10321 8411 10552 
1400 1069 1103 1070 10547 8636 10548 10552 8411 8637 
1070 1103 1401 1104 8637 10553 10554 8643 8645 10555 
1367 1401 1368 1070 10556 10557 10331 10321 10554 10326 
1070 1103 1400 1401 8637 10548 10552 10554 10553 10558 
1367 1401 1070 1400 10556 10554 10321 10550 10558 10552 
1368 1070 1401 1071 10326 10554 10557 10328 8418 10559 
1401 1070 1104 1071 10554 8643 10555 10559 8418 8644 
1071 1104 1402 1105 8644 10560 10561 8650 8652 10562 
1368 1402 1369 1071 10563 10564 10338 10328 10561 10333 
1071 1104 1401 1402 8644 10555 10559 10561 10560 10565 
1368 1402 1071 1401 10563 10561 10328 10557 10565 10559 
1369 1071 1402 1072 10333 10561 10564 10335 8425 10566 
1402 1071 1105 1072 10561 8650 10562 10566 8425 8651 
1072 1105 1403 1106 8651 10567 10568 8657 8659 10569 
1369 1403 1370 1072 10570 10571 10345 10335 10568 10340 
1072 1105 1402 1403 8651 10562 10566 10568 10567 10572 
1369 1403 1072 1402 10570 10568 10335 10564 10572 10566 
1370 1072 1403 1073 10340 10568 10571 10342 8432 10573 
1403 1072 1106 1073 10568 8657 10569 10573 8432 8658 
1073 1106 1404 1107 8658 10574 10575 8664 8666 10576 
1370 1404 1371 1073 10577 10578 10352 10342 10575 10347 
1073 1106 1403 1404 8658 10569 10573 10575 10574 10579 
1370 1404 1073 1403 10577 10575 10342 10571 10579 10573 
1371 1073 1404 1074 10347 10575 10578 10349 8439 10580 
1404 1073 1107 1074 10575 8664 10576 10580 8439 8665 
1074 1107 1405 1108 8665 10581 10582 8671 8673 10583 
1371 1405 1372 1074 10584 10585 10359 10349 10582 10354 
1074 1107 1404 1405 8665 10576 10580 10582 10581 10586 
1371 1405 1074 1404 10584 10582 10349 10578 10586 10580 
1372 1074 1405 1075 10354 10582 10585 10356 8446 10587 
1405 1074 1108 1075 10582 8671 10583 10587 8446 8672 
1075 1108 1406 1109 8672 10588 10589 8678 8680 10590 
1372 1406 1373 1075 10591 10592 10366 10356 10589 10361 
1075 1108 1405 1406 8672 10583 10587 10589 10588 10593 
1372 1406 1075 1405 10591 10589 10356 10585 10593 10587 
1373 1075 1406 1076 10361 10589 10592 10363 8453 10594 
1406 1075 1109 1076 10589 8678 10590 10594 8453 8679 
1076 1109 1407 1110 8679 10595 10596 8685 8687 10597 
1373 1407 1374 1076 10598 10599 10373 10363 10596 10368 
1076 1109 1406 1407 8679 10590 10594 10596 10595 10600 
1373 1407 1076 1406 10598 10596 10363 10592 10600 10594 
1374 1076 1407 1077 10368 10596 10599 10370 8460 10601 
1407 1076 1110 1077 10596 8685 10597 10601 8460 8686 
1077 1110 1408 1111 8686 10602 10603 8692 8694 10604 
1374 1408 1375 1077 10605 10606 10380 10370 10603 10375 
1077 1110 1407 1408 8686 10597 10601 10603 10602 10607 
1374 1408 1077 1407 10605 10603 10370 10599 10607 10601 
1375 1077 1408 1078 10375 10603 10606 10377 8467 10608 
1408 1077 1111 1078 10603 8692 10604 10608 8467 8693 
1078 1111 1409 1112 8693 10609 10610 8699 8701 10611 
1375 1409 1376 1078 10612 10613 10387 10377 10610 10382 
1078 1111 1408 1409 8693 10604 10608 10610 10609 10614 
1375 1409 1078 1408 10612 10610 10377 10606 10614 10608 
1376 1078 1409 1079 10382 10610 10613 10384 8474 10615 
1409 1078 1112 1079 10610 8699 10611 10615 8474 8700 
1079 1112 1410 1113 8700 10616 10617 8706 8708 10618 
1376 1410 1377 1079 10619 10620 10394 10384 10617 10389 
1079 1112 1409 1410 8700 10611 10615 10617 10616 10621 
1376 1410 1079 1409 10619 10617 10384 10613 10621 10615 
1377 1079 1410 1080 10389 10617 10620 10391 8481 10622 
1410 1079 1113 1080 10617 8706 10618 10622 8481 8707 
1080 1113 1411 1114 8707 10623 10624 8713 8715 10625 
1377 1411 1378 1080 10626 10627 10401 10391 10624 10396 
1080 1113 1410 1411 8707 10618 10622 10624 10623 10628 
1377 1411 1080 1410 10626 10624 10391 10620 10628 10622 
1378 1080 1411 1081 10396 10624 10627 10398 8488 10629 
1411 1080 1114 1081 10624 8713 10625 10629 8488 8714 
1081 1114 1412 1115 8714 10630 10631 8720 8722 10632 
1378 1412 1379 1081 10633 10634 10408 10398 10631 10403 
1081 1114 1411 1412 8714 10625 10629 10631 10630 10635 
1378 1412 1081 1411 10633 10631 10398 10627 10635 10629 
1379 1081 1412 1082 10403 10631 10634 10405 8495 10636 
1412 1081 1115 1082 10631 8720 10632 10636 8495 8721 
1082 1115 1413 1116 8721 10637 10638 8727 8729 10639 
1379 1413 1380 1082 10640 10641 10415 10405 10638 10410 
1082 1115 1412 1413 8721 10632 10636 10638 10637 10642 
1379 1413 1082 1412 10640 10638 10405 10634 10642 10636 
1380 1082 1413 1083 10410 10638 10641 10412 8502 10643 
1413 1082 1116 1083 10638 8727 10639 10643 8502 8728 
1083 1116 1414 1117 8728 10644 10645 8734 8736 10646 
1380 1414 1381 1083 10647 10648 10422 10412 10645 10417 
1083 1116 1413 1414 8728 10639 10643 10645 10644 10649 
1380 1414 1083 1413 10647 10645 10412 10641 10649 10643 
1381 1083 1414 1084 10417 10645 10648 10419 8509 10650 
1414 1083 1117 1084 10645 8734 10646 10650 8509 8735 
1084 1117 1415 1118 8735 10651 10652 8741 8743 10653 
1381 1415 1382 1084 10654 10655 10429 10419 10652 10424 
1084 1117 1414 1415 8735 10646 10650 10652 10651 10656 
1381 1415 1084 1414 10654 10652 10419 10648 10656 10650 
1382 1084 1415 1085 10424 10652 10655 10426 8516 10657 
1415 1084 1118 1085 10652 8741 10653 10657 8516 8742 
1085 1118 1416 1119 8742 10658 10659 8748 8750 10660 
1382 1416 1383 1085 10661 10662 10436 10426 10659 10431 
1085 1118 1415 1416 8742 10653 10657 10659 10658 10663 
1382 1416 1085 1415 10661 10659 10426 10655 10663 10657 
1383 1085 1416 1086 10431 10659 10662 10433 8523 10664 
1416 1085 1119 1086 10659 8748 10660 10664 8523 8749 
1086 1119 1417 1120 8749 10665 10666 8755 8757 10667 
1383 1417 1384 1086 10668 10669 10443 10433 10666 10438 
1086 1119 1416 1417 8749 10660 10664 10666 10665 10670 
1383 1417 1086 1416 10668 10666 10433 10662 10670 10664 
1384 1086 1417 1087 10438 10666 10669 10440 8530 10671 
1417 1086 1120 1087 10666 8755 10667 10671 8530 8756 
1087 1120 1418 1121 8756 10672 10673 8762 8764 10674 
1384 1418 1385 1087 10675 10676 10450 10440 10673 10445 
1087 1120 1417 1418 8756 10667 10671 10673 10672 10677 
1384 1418 1087 1417 10675 10673 10440 10669 10677 10671 
1385 1087 1418 1088 10445 10673 10676 10447 8537 10678 
1418 1087 1121 1088 10673 8762 10674 10678 8537 8763 
1089 1122 1420 1123 8774 10679 10680 8769 8773 10681 
1386 1420 1387 1089 10682 10683 10459 10457 10680 10452 
1089 1122 1419 1420 8774 10684 10685 10680 10679 10686 
1386 1420 1089 1419 10682 10680 10457 10687 10686 10685 
1387 1089 1420 1090 10452 10680 10683 10454 8546 10688 
1420 1089 1123 1090 10680 8769 10681 10688 8546 8770 
1090 1123 1421 1124 8770 10689 10690 8779 8781 10691 
1387 1421 1388 1090 10692 10693 10467 10454 10690 10462 
1090 1123 1420 1421 8770 10681 10688 10690 10689 10694 
1387 1421 1090 1420 10692 10690 10454 10683 10694 10688 
1388 1090 1421 1091 10462 10690 10693 10464 8554 10695 
1421 1090 1124 1091 10690 8779 10691 10695 8554 8780 
1091 1124 1422 1125 8780 10696 10697 8786 8788 10698 
1388 1422 1389 1091 10699 10700 10474 10464 10697 10469 
1091 1124 1421 1422 8780 10691 10695 10697 10696 10701 
1388 1422 1091 1421 10699 10697 10464 10693 10701 10695 
1389 1091 1422 1092 10469 10697 10700 10471 8561 10702 
1422 1091 1125 1092 10697 8786 10698 10702 8561 8787 
1092 1125 1423 1126 8787 10703 10704 8793 8795 10705 
1389 1423 1390 1092 10706 10707 10481 10471 10704 10476 
1092 1125 1422 1423 8787 10698 10702 10704 10703 10708 
1389 1423 1092 1422 10706 10704 10471 10700 10708 10702 
1390 1092 1423 1093 10476 10704 10707 10478 8568 10709 
1423 1092 1126 1093 10704 8793 10705 10709 8568 8794 
1093 1126 1424 1127 8794 10710 10711 8800 8802 10712 
1390 1424 1391 1093 10713 10714 10488 10478 10711 10483 
1093 1126 1423 1424 8794 10705 10709 10711 10710 10715 
1390 1424 1093 1423 10713 10711 10478 10707 10715 10709 
1391 1093 1424 1094 10483 10711 10714 10485 8575 10716 
1424 1093 1127 1094 10711 8800 10712 10716 8575 8801 
1094 1127 1425 1128 8801 10717 10718 8807 8809 10719 
1391 1425 1392 1094 10720 10721 10495 10485 10718 10490 
1094 1127 1424 1425 8801 10712 10716 10718 10717 10722 
1391 1425 1094 1424 10720 10718 10485 10714 10722 10716 
1392 1094 1425 1095 10490 10718 10721 10492 8582 10723 
1425 1094 1128 1095 10718 8807 10719 10723 8582 8808 
1095 1128 1426 1129 8808 10724 10725 8814 8816 10726 
1392 1426 1393 1095 10727 10728 10502 10492 10725 10497 
1095 1128 1425 1426 8808 10719 10723 10725 10724 10729 
1392 1426 1095 1425 10727 10725 10492 10721 10729 10723 
1393 1095 1426 1096 10497 10725 10728 10499 8589 10730 
1426 1095 1129 1096 10725 8814 10726 10730 8589 8815 
1096 1129 1427 1130 8815 10731 10732 8821 8823 10733 
1393 1427 1394 1096 10734 10735 10509 10499 10732 10504 
1096 1129 1426 1427 8815 10726 10730 10732 10731 10736 
1393 1427 1096 1426 10734 10732 10499 10728 10736 10730 
1394 1096 1427 1097 10504 10732 10735 10506 8596 10737 
1427 1096 1130 1097 10732 8821 10733 10737 8596 8822 
1097 1130 1428 1131 8822 10738 10739 8828 8830 10740 
1394 1428 1395 1097 10741 10742 10516 10506 10739 10511 
1097 1130 1427 1428 8822 10733 10737 10739 10738 10743 
1394 1428 1097 1427 10741 10739 10506 10735 10743 10737 
1395 1097 1428 1098 10511 10739 10742 10513 8603 10744 
1428 1097 1131 1098 10739 8828 10740 10744 8603 8829 
1098 1131 1429 1132 8829 10745 10746 8835 8837 10747 
1395 1429 1396 1098 10748 10749 10523 10513 10746 10518 
1098 1131 1428 1429 8829 10740 10744 10746 10745 10750 
1395 1429 1098 1428 10748 10746 10513 10742 10750 10744 
1396 1098 1429 1099 10518 10746 10749 10520 8610 10751 
1429 1098 1132 1099 10746 8835 10747 10751 8610 8836 
1099 1132 1430 1133 8836 10752 10753 8842 8844 10754 
1396 1430 1397 1099 10755 10756 10530 10520 10753 10525 
1099 1132 1429 1430 8836 10747 10751 10753 10752 10757 
1396 1430 1099 1429 10755 10753 10520 10749 10757 10751 
1397 1099 1430 1100 10525 10753 10756 10527 8617 10758 
1430 1099 1133 1100 10753 8842 10754 10758 8617 8843 
1100 1133 1431 1134 8843 10759 10760 8849 8851 10761 
1397 1431 1398 1100 10762 10763 10537 10527 10760 10532 
1100 1133 1430 1431 8843 10754 10758 10760 10759 10764 
1397 1431 1100 1430 10762 10760 10527 10756 10764 10758 
1398 1100 1431 1101 10532 10760 10763 10534 8624 10765 
1431 1100 1134 1101 10760 8849 10761 10765 8624 8850 
1101 1134 1432 1135 8850 10766 10767 8856 8858 10768 
1398 1432 1399 1101 10769 10770 10544 10534 10767 10539 
1101 1134 1431 1432 8850 10761 10765 10767 10766 10771 
1398 1432 1101 1431 10769 10767 10534 10763 10771 10765 
1399 1101 1432 1102 10539 10767 10770 10541 8631 10772 
1432 1101 1135 1102 10767 8856 10768 10772 8631 8857 
1102 1135 1433 1136 8857 10773 10774 8863 8865 10775 
1399 1433 1400 1102 10776 10777 10551 10541 10774 10546 
1102 1135 1432 1433 8857 10768 10772 10774 10773 10778 
1399 1433 1102 1432 10776 10774 10541 10770 10778 10772 
1400 1102 1433 1103 10546 10774 10777 10548 8638 10779 
1433 1102 1136 1103 10774 8863 10775 10779 8638 8864 
1103 1136 1434 1137 8864 10780 10781 8870 8872 10782 
1400 1434 1401 1103 10783 10784 10558 10548 10781 10553 
1103 1136 1433 1434 8864 10775 10779 10781 10780 10785 
1400 1434 1103 1433 10783 10781 10548 10777 10785 10779 
1401 1103 1434 1104 10553 10781 10784 10555 8645 10786 
1434 1103 1137 1104 10781 8870 10782 10786 8645 8871 
1104 1137 1435 1138 8871 10787 10788 8877 8879 10789 
1401 1435 1402 1104 10790 10791 10565 10555 10788 10560 
1104 1137 1434 1435 8871 10782 10786 10788 10787 10792 
1401 1435 1104 1434 10790 10788 10555 10784 10792 10786 
1402 1104 1435 1105 10560 10788 10791 10562 8652 10793 
1435 1104 1138 1105 10788 8877 10789 10793 8652 8878 
1105 1138 1436 1139 8878 10794 10795 8884 8886 10796 
1402 1436 1403 1105 10797 10798 10572 10562 10795 10567 
1105 1138 1435 1436 8878 10789 10793 10795 10794 10799 
1402 1436 1105 1435 10797 10795 10562 10791 10799 10793 
1403 1105 1436 1106 10567 10795 10798 10569 8659 10800 
1436 1105 1139 1106 10795 8884 10796 10800 8659 8885 
1106 1139 1437 1140 8885 10801 10802 8891 8893 10803 
1403 1437 1404 1106 10804 10805 10579 10569 10802 10574 
1106 1139 1436 1437 8885 10796 10800 10802 10801 10806 
1403 1437 1106 1436 10804 10802 10569 10798 10806 10800 
1404 1106 1437 1107 10574 10802 10805 10576 8666 10807 
1437 1106 1140 1107 10802 8891 10803 10807 8666 8892 
1107 1140 1438 1141 8892 10808 10809 8898 8900 10810 
1404 1438 1405 1107 10811 10812 10586 10576 10809 10581 
1107 1140 1437 1438 8892 10803 10807 10809 10808 10813 
1404 1438 1107 1437 10811 10809 10576 10805 10813 10807 
1405 1107 1438 1108 10581 10809 10812 10583 8673 10814 
1438 1107 1141 1108 10809 8898 10810 10814 8673 8899 
1108 1141 1439 1142 8899 10815 10816 8905 8907 10817 
1405 1439 1406 1108 10818 10819 10593 10583 10816 10588 
1108 1141 1438 1439 8899 10810 10814 10816 10815 10820 
1405 1439 1108 1438 10818 10816 10583 10812 10820 10814 
1406 1108 1439 1109 10588 10816 10819 10590 8680 10821 
1439 1108 1142 1109 10816 8905 10817 10821 8680 8906 
1109 1142 1440 1143 8906 10822 10823 8912 8914 10824 
1406 1440 1407 1109 10825 10826 10600 10590 10823 10595 
1109 1142 1439 1440 8906 10817 10821 10823 10822 10827 
1406 1440 1109 1439 10825 10823 10590 10819 10827 10821 
1407 1109 1440 1110 10595 10823 10826 10597 8687 10828 
1440 1109 1143 1110 10823 8912 10824 10828 8687 8913 
1110 1143 1441 1144 8913 10829 10830 8919 8921 10831 
1407 1441 1408 1110 10832 10833 10607 10597 10830 10602 
1110 1143 1440 1441 8913 10824 10828 10830 10829 10834 
1407 1441 1110 1440 10832 10830 10597 10826 10834 10828 
1408 1110 1441 1111 10602 10830 10833 10604 8694 10835 
1441 1110 1144 1111 10830 8919 10831 10835 8694 8920 
1111 1144 1442 1145 8920 10836 10837 8926 8928 10838 
1408 1442 1409 1111 10839 10840 10614 10604 10837 10609 
1111 1144 1441 1442 8920 10831 10835 10837 10836 10841 
1408 1442 1111 1441 10839 10837 10604 10833 10841 10835 
1409 1111 1442 1112 10609 10837 10840 10611 8701 10842 
1442 1111 1145 1112 10837 8926 10838 10842 8701 8927 
1112 1145 1443 1146 8927 10843 10844 8933 8935 10845 
1409 1443 1410 1112 10846 10847 10621 10611 10844 10616 
1112 1145 1442 1443 8927 10838 10842 10844 10843 10848 
1409 1443 1112 1442 10846 10844 10611 10840 10848 10842 
1410 1112 1443 1113 10616 10844 10847 10618 8708 10849 
1443 1112 1146 1113 10844 8933 10845 10849 8708 8934 
1113 1146 1444 1147 8934 10850 10851 8940 8942 10852 
1410 1444 1411 1113 10853 10854 10628 10618 10851 10623 
1113 1146 1443 1444 8934 10845 10849 10851 10850 10855 
1410 1444 1113 1443 10853 10851 10618 10847 10855 10849 
1411 1113 1444 1114 10623 10851 10854 10625 8715 10856 
1444 1113 1147 1114 10851 8940 10852 10856 8715 8941 
1114 1147 1445 1148 8941 10857 10858 8947 8949 10859 
1411 1445 1412 1114 10860 10861 10635 10625 10858 10630 
1114 1147 1444 1445 8941 10852 10856 10858 10857 10862 
1411 1445 1114 1444 10860 10858 10625 10854 10862 10856 
1412 1114 1445 1115 10630 10858 10861 10632 8722 10863 
1445 1114 1148 1115 10858 8947 10859 10863 8722 8948 
1115 1148 1446 1149 8948 10864 10865 8954 8956 10866 
1412 1446 1413 1115 10867 10868 10642 10632 10865 10637 
1115 1148 1445 1446 8948 10859 10863 10865 10864 10869 
1412 1446 1115 1445 10867 10865 10632 10861 10869 10863 
1413 1115 1446 1116 10637 10865 10868 10639 8729 10870 
1446 1115 1149 1116 10865 8954 10866 10870 8729 8955 
1116 1149 1447 1150 8955 10871 10872 8961 8963 10873 
1413 1447 1414 1116 10874 10875 10649 10639 10872 10644 
1116 1149 1446 1447 8955 10866 10870 10872 10871 10876 
1413 1447 1116 1446 10874 10872 10639 10868 10876 10870 
1414 1116 1447 1117 10644 10872 10875 10646 8736 10877 
1447 1116 1150 1117 10872 8961 10873 10877 8736 8962 
1117 1150 1448 1151 8962 10878 10879 8968 8970 10880 
1414 1448 1415 1117 10881 10882 10656 10646 10879 10651 
1117 1150 1447 1448 8962 10873 10877 10879 10878 10883 
1414 1448 1117 1447 10881 10879 10646 10875 10883 10877 
1415 1117 1448 1118 10651 10879 10882 10653 8743 10884 
1448 1117 1151 1118 10879 8968 10880 10884 8743 8969 
1118 1151 1449 1152 8969 10885 10886 8975 8977 10887 
1415 1449 1416 1118 10888 10889 10663 10653 10886 10658 
1118 1151 1448 1449 8969 10880 10884 10886 10885 10890 
1415 1449 1118 1448 10888 10886 10653 10882 10890 10884 
1416 1118 1449 1119 10658 10886 10889 10660 8750 10891 
1449 1118 1152 1119 10886 8975 10887 10891 8750 8976 
1119 1152 1450 1153 8976 10892 10893 8982 8984 10894 
1416 1450 1417 1119 10895 10896 10670 10660 10893 10665 
1119 1152 1449 1450 8976 10887 10891 10893 10892 10897 
1416 1450 1119 1449 10895 10893 10660 10889 10897 10891 
1417 1119 1450 1120 10665 10893 10896 10667 8757 10898 
1450 1119 1153 1120 10893 8982 10894 10898 8757 8983 
1120 1153 1451 1154 8983 10899 10900 8989 8991 10901 
1417 1451 1418 1120 10902 10903 10677 10667 10900 10672 
1120 1153 1450 1451 8983 10894 10898 10900 10899 10904 
1417 1451 1120 1450 10902 10900 10667 10896 10904 10898 
1418 1120 1451 1121 10672 10900 10903 10674 8764 10905 
1451 1120 1154 1121 10900 8989 10901 10905 8764 8990 
1122 1155 1453 1156 9001 10906 10907 8996 9000 10908 
1419 1453 1420 1122 10909 10910 10686 10684 10907 10679 
1122 1155 1452 1453 9001 10911 10912 10907 10906 10913 
1419 1453 1122 1452 10909 10907 10684 10914 10913 10912 
1420 1122 1453 1123 10679 10907 10910 10681 8773 10915 
1453 1122 1156 1123 10907 8996 10908 10915 8773 8997 
1123 1156 1454 1157 8997 10916 10917 9006 9008 10918 
1420 1454 1421 1123 10919 10920 10694 10681 10917 10689 
1123 1156 1453 1454 8997 10908 10915 10917 10916 10921 
1420 1454 1123 1453 10919 10917 10681 10910 10921 10915 
1421 1123 1454 1124 10689 10917 10920 10691 8781 10922 
1454 1123 1157 1124 10917 9006 10918 10922 8781 9007 
1124 1157 1455 1158 9007 10923 10924 9013 9015 10925 
1421 1455 1422 1124 10926 10927 10701 10691 10924 10696 
1124 1157 1454 1455 9007 10918 10922 10924 10923 10928 
1421 1455 1124 1454 10926 10924 10691 10920 10928 10922 
1422 1124 1455 1125 10696 10924 10927 10698 8788 10929 
1455 1124 1158 1125 10924 9013 10925 10929 8788 9014 
1125 1158 1456 1159 9014 10930 10931 9020 9022 10932 
1422 1456 1423 1125 10933 10934 10708 10698 10931 10703 
1125 1158 1455 1456 9014 10925 10929 10931 10930 10935 
1422 1456 1125 1455 10933 10931 10698 10927 10935 10929 
1423 1125 1456 1126 10703 10931 10934 10705 8795 10936 
1456 1125 1159 1126 10931 9020 10932 10936 8795 9021 
1126 1159 1457 1160 9021 10937 10938 9027 9029 10939 
1423 1457 1424 1126 10940 10941 10715 10705 10938 10710 
1126 1159 1456 1457 9021 10932 10936 10938 10937 10942 
1423 1457 1126 1456 10940 10938 10705 10934 10942 10936 
1424 1126 1457 1127 10710 10938 10941 10712 8802 10943 
1457 1126 1160 1127 10938 9027 10939 10943 8802 9028 
1127 1160 1458 1161 9028 10944 10945 9034 9036 10946 
1424 1458 1425 1127 10947 10948 10722 10712 10945 10717 
1127 1160 1457 1458 9028 10939 10943 10945 10944 10949 
1424 1458 1127 1457 10947 10945 10712 10941 10949 10943 
1425 1127 1458 1128 10717 10945 10948 10719 8809 10950 
1458 1127 1161 1128 10945 9034 10946 10950 8809 9035 
1128 1161 1459 1162 9035 10951 10952 9041 9043 10953 
1425 1459 1426 1128 10954 10955 10729 10719 10952 10724 
1128 1161 1458 1459 9035 10946 10950 10952 10951 10956 
1425 1459 1128 1458 10954 10952 10719 10948 10956 10950 
1426 1128 1459 1129 10724 10952 10955 10726 8816 10957 
1459 1128 1162 1129 10952 9041 10953 10957 8816 9042 
1129 1162 1460 1163 9042 10958 10959 9048 9050 10960 
1426 1460 1427 1129 10961 10962 10736 10726 10959 10731 
1129 1162 1459 1460 9042 10953 10957 10959 10958 10963 
1426 1460 1129 1459 10961 10959 10726 10955 10963 10957 
1427 1129 1460 1130 10731 10959 10962 10733 8823 10964 
1460 1129 1163 1130 10959 9048 10960 10964 8823 9049 
1130 1163 1461 1164 9049 10965 10966 9055 9057 10967 
1427 1461 1428 1130 10968 10969 10743 10733 10966 10738 
1130 1163 1460 1461 9049 10960 10964 10966 10965 10970 
1427 1461 1130 1460 10968 10966 10733 10962 10970 10964 
1428 1130 1461 1131 10738 10966 10969 10740 8830 10971 
1461 1130 1164 1131 10966 9055 10967 10971 8830 9056 
1131 1164 1462 1165 9056 10972 10973 9062 9064 10974 
1428 1462 1429 1131 10975 10976 10750 10740 10973 10745 
1131 1164 1461 1462 9056 10967 10971 10973 10972 10977 
1428 1462 1131 1461 10975 10973 10740 10969 10977 10971 
1429 1131 1462 1132 10745 10973 10976 10747 8837 10978 
1462 1131 1165 1132 10973 9062 10974 10978 8837 9063 
1132 1165 1463 1166 9063 10979 10980 9069 9071 10981 
1429 1463 1430 1132 10982 10983 10757 10747 10980 10752 
1132 1165 1462 1463 9063 10974 10978 10980 10979 10984 
1429 1463 1132 1462 10982 10980 10747 10976 10984 10978 
1430 1132 1463 1133 10752 10980 10983 10754 8844 10985 
1463 1132 1166 1133 10980 9069 10981 10985 8844 9070 
1133 1166 1464 1167 9070 10986 10987 9076 9078 10988 
1430 1464 1431 1133 10989 10990 10764 10754 10987 10759 
1133 1166 1463 1464 9070 10981 10985 10987 10986 10991 
1430 1464 1133 1463 10989 10987 10754 10983 10991 10985 
1431 1133 1464 1134 10759 10987 10990 10761 8851 10992 
1464 1133 1167 1134 10987 9076 10988 10992 8851 9077 
1134 1167 1465 1168 9077 10993 10994 9083 9085 10995 
1431 1465 1432 1134 10996 10997 10771 10761 10994 10766 
1134 1167 1464 1465 9077 10988 10992 10994 10993 10998 
1431 1465 1134 1464 10996 10994 10761 10990 10998 10992 
1432 1134 1465 1135 10766 10994 10997 10768 8858 10999 
1465 1134 1168 1135 10994 9083 10995 10999 8858 9084 
1135 1168 1466 1169 9084 11000 11001 9090 9092 11002 
1432 1466 1433 1135 11003 11004 10778 10768 11001 10773 
1135 1168 1465 1466 9084 10995 10999 11001 11000 11005 
1432 1466 1135 1465 11003 11001 10768 10997 11005 10999 
1433 1135 1466 1136 10773 11001 11004 10775 8865 11006 
1466 1135 1169 1136 11001 9090 11002 11006 8865 9091 
1136 1169 1467 1170 9091 11007 11008 9097 9099 11009 
1433 1467 1434 1136 11010 11011 10785 10775 11008 10780 
1136 1169 1466 1467 9091 11002 11006 11008 11007 11012 
1433 1467 1136 1466 11010 11008 10775 11004 11012 11006 
1434 1136 1467 1137 10780 11008 11011 10782 8872 11013 
1467 1136 1170 1137 11008 9097 11009 11013 8872 9098 
1137 1170 1468 1171 9098 11014 11015 9104 9106 11016 
1434 1468 1435 1137 11017 11018 10792 10782 11015 10787 
1137 1170 1467 1468 9098 11009 11013 11015 11014 11019 
1434 1468 1137 1467 11017 11015 10782 11011 11019 11013 
1435 1137 1468 1138 10787 11015 11018 10789 8879 11020 
1468 1137 1171 1138 11015 9104 11016 11020 8879 9105 
1138 1171 1469 1172 9105 11021 11022 9111 9113 11023 
1435 1469 1436 1138 11024 11025 10799 10789 11022 10794 
1138 1171 1468 1469 9105 11016 11020 11022 11021 11026 
1435 1469 1138 1468 11024 11022 10789 11018 11026 11020 
1436 1138 1469 1139 10794 11022 11025 10796 8886 11027 
1469 1138 1172 1139 11022 9111 11023 11027 8886 9112 
1139 1172 1470 1173 9112 11028 11029 9118 9120 11030 
1436 1470 1437 1139 11031 11032 10806 10796 11029 10801 
1139 1172 1469 1470 9112 11023 11027 11029 11028 11033 
1436 1470 1139 1469 11031 11029 10796 11025 11033 11027 
1437 1139 1470 1140 10801 11029 11032 10803 8893 11034 
1470 1139 1173 1140 11029 9118 11030 11034 8893 9119 
1140 1173 1471 1174 9119 11035 11036 9125 9127 11037 
1437 1471 1438 1140 11038 11039 10813 10803 11036 10808 
1140 1173 1470 1471 9119 11030 11034 11036 11035 11040 
1437 1471 1140 1470 11038 11036 10803 11032 11040 11034 
1438 1140 1471 1141 10808 11036 11039 10810 8900 11041 
1471 1140 1174 1141 11036 9125 11037 11041 8900 9126 
1141 1174 1472 1175 9126 11042 11043 9132 9134 11044 
1438 1472 1439 1141 11045 11046 10820 10810 11043 10815 
1141 1174 1471 1472 9126 11037 11041 11043 11042 11047 
1438 1472 1141 1471 11045 11043 10810 11039 11047 11041 
1439 1141 1472 1142 10815 11043 11046 10817 8907 11048 
1472 1141 1175 1142 11043 9132 11044 11048 8907 9133 
1142 1175 1473 1176 9133 11049 11050 9139 9141 11051 
1439 1473 1440 1142 11052 11053 10827 10817 11050 10822 
1142 1175 1472 1473 9133 11044 11048 11050 11049 11054 
1439 1473 1142 1472 11052 11050 10817 11046 11054 11048 
1440 1142 1473 1143 10822 11050 11053 10824 8914 11055 
1473 1142 1176 1143 11050 9139 11051 11055 8914 9140 
1143 1176 1474 1177 9140 11056 11057 9146 9148 11058 
1440 1474 1441 1143 11059 11060 10834 10824 11057 10829 
1143 1176 1473 1474 9140 11051 11055 11057 11056 11061 
1440 1474 1143 1473 11059 11057 10824 11053 11061 11055 
1441 1143 1474 1144 10829 11057 11060 10831 8921 11062 
1474 1143 1177 1144 11057 9146 11058 11062 8921 9147 
1144 1177 1475 1178 9147 11063 11064 9153 9155 11065 
1441 1475 1442 1144 11066 11067 10841 10831 11064 10836 
1144 1177 1474 1475 9147 11058 11062 11064 11063 11068 
1441 1475 1144 1474 11066 11064 10831 11060 11068 11062 
1442 1144 1475 1145 10836 11064 11067 10838 8928 11069 
1475 1144 1178 1145 11064 9153 11065 11069 8928 9154 
1145 1178 1476 1179 9154 11070 11071 9160 9162 11072 
1442 1476 1443 1145 11073 11074 10848 10838 11071 10843 
1145 1178 1475 1476 9154 11065 11069 11071 11070 11075 
1442 1476 1145 1475 11073 11071 10838 11067 11075 11069 
1443 1145 1476 1146 10843 11071 11074 10845 8935 11076 
1476 1145 1179 1146 11071 9160 11072 11076 8935 9161 
1146 1179 1477 1180 9161 11077 11078 9167 9169 11079 
1443 1477 1444 1146 11080 11081 10855 10845 11078 10850 
1146 1179 1476 1477 9161 11072 11076 11078 11077 11082 
1443 1477 1146 1476 11080 11078 10845 11074 11082 11076 
1444 1146 1477 1147 10850 11078 11081 10852 8942 11083 
1477 1146 1180 1147 11078 9167 11079 11083 8942 9168 
1147 1180 1478 1181 9168 11084 11085 9174 9176 11086 
1444 1478 1445 1147 11087 11088 10862 10852 11085 10857 
1147 1180 1477 1478 9168 11079 11083 11085 11084 11089 
1444 1478 1147 1477 11087 11085 10852 11081 11089 11083 
1445 1147 1478 1148 10857 11085 11088 10859 8949 11090 
1478 1147 1181 1148 11085 9174 11086 11090 8949 9175 
1148 1181 1479 1182 9175 11091 11092 9181 9183 11093 
1445 1479 1446 1148 11094 11095 10869 10859 11092 10864 
1148 1181 1478 1479 9175 11086 11090 11092 11091 11096 
1445 1479 1148 1478 11094 11092 10859 11088 11096 11090 
1446 1148 1479 1149 10864 11092 11095 10866 8956 11097 
1479 1148 1182 1149 11092 9181 11093 11097 8956 9182 
1149 1182 1480 1183 9182 11098 11099 9188 9190 11100 
1446 1480 1447 1149 11101 11102 10876 10866 11099 10871 
1149 1182 1479 1480 9182 11093 11097 11099 11098 11103 
1446 1480 1149 1479 11101 11099 10866 11095 11103 11097 
1447 1149 1480 1150 10871 11099 11102 10873 8963 11104 
1480 1149 1183 1150 11099 9188 11100 11104 8963 9189 
1150 1183 1481 1184 9189 11105 11106 9195 9197 11107 
1447 1481 1448 1150 11108 11109 10883 10873 11106 10878 
1150 1183 1480 1481 9189 11100 11104 11106 11105 11110 
1447 1481 1150 1480 11108 11106 10873 11102 11110 11104 
1448 1150 1481 1151 10878 11106 11109 10880 8970 11111 
1481 1150 1184 1151 11106 9195 11107 11111 8970 9196 
1151 1184 1482 1185 9196 11112 11113 9202 9204 11114 
1448 1482 1449 1151 11115 11116 10890 10880 11113 10885 
1151 1184 1481 1482 9196 11107 11111 11113 11112 11117 
1448 1482 1151 1481 11115 11113 10880 11109 11117 11111 
1449 1151 1482 1152 10885 11113 11116 10887 8977 11118 
1482 1151 1185 1152 11113 9202 11114 11118 8977 9203 
1152 1185 1483 1186 9203 11119 11120 9209 9211 11121 
1449 1483 1450 1152 11122 11123 10897 10887 11120 10892 
1152 1185 1482 1483 9203 11114 11118 11120 11119 11124 
1449 1483 1152 1482 11122 11120 10887 11116 11124 11118 
1450 1152 1483 1153 10892 11120 11123 10894 8984 11125 
1483 1152 1186 1153 11120 9209 11121 11125 8984 9210 
1153 1186 1484 1187 9210 11126 11127 9216 9218 11128 
1450 1484 1451 1153 11129 11130 10904 10894 11127 10899 
1153 1186 1483 1484 9210 11121 11125 11127 11126 11131 
1450 1484 1153 1483 11129 11127 10894 11123 11131 11125 
1451 1153 1484 1154 10899 11127 11130 10901 8991 11132 
1484 1153 1187 1154 11127 9216 11128 11132 8991 9217 
1188 1221 1519 1222 9231 11133 11134 9223 9230 11135 
1485 1519 1486 1188 11136 11137 11138 11139 11134 11140 
1188 1221 1518 1519 9231 11141 11142 11134 11133 11143 
1485 1519 1188 1518 11136 11134 11139 11144 11143 11142 
1486 1188 1519 1189 11140 11134 11137 11145 9225 11146 
1519 1188 1222 1189 11134 9223 11135 11146 9225 9224 
1189 1222 1520 1223 9224 11147 11148 9237 9241 11149 
1486 1520 1487 1189 11150 11151 11152 11145 11148 11153 
1189 1222 1519 1520 9224 11135 11146 11148 11147 11154 
1486 1520 1189 1519 11150 11148 11145 11137 11154 11146 
1487 1189 1520 1190 11153 11148 11151 11155 9239 11156 
1520 1189 1223 1190 11148 9237 11149 11156 9239 9238 
1190 1223 1521 1224 9238 11157 11158 9247 9251 11159 
1487 1521 1488 1190 11160 11161 11162 11155 11158 11163 
1190 1223 1520 1521 9238 11149 11156 11158 11157 11164 
1487 1521 1190 1520 11160 11158 11155 11151 11164 11156 
1488 1190 1521 1191 11163 11158 11161 11165 9249 11166 
1521 1190 1224 1191 11158 9247 11159 11166 9249 9248 
1191 1224 1522 1225 9248 11167 11168 9257 9261 11169 
1488 1522 1489 1191 11170 11171 11172 11165 11168 11173 
1191 1224 1521 1522 9248 11159 11166 11168 11167 11174 
1488 1522 1191 1521 11170 11168 11165 11161 11174 11166 
1489 1191 1522 1192 11173 11168 11171 11175 9259 11176 
1522 1191 1225 1192 11168 9257 11169 11176 9259 9258 
1192 1225 1523 1226 9258 11177 11178 9267 9271 11179 
1489 1523 1490 1192 11180 11181 11182 11175 11178 11183 
1192 1225 1522 1523 9258 11169 11176 11178 11177 11184 
1489 1523 1192 1522 11180 11178 11175 11171 11184 11176 
1490 1192 1523 1193 11183 11178 11181 11185 9269 11186 
1523 1192 1226 1193 11178 9267 11179 11186 9269 9268 
1193 1226 1524 1227 9268 11187 11188 9277 9281 11189 
1490 1524 1491 1193 11190 11191 11192 11185 11188 11193 
1193 1226 1523 1524 9268 11179 11186 11188 11187 11194 
1490 1524 1193 1523 11190 11188 11185 11181 11194 11186 
1491 1193 1524 1194 11193 11188 11191 11195 9279 11196 
1524 1193 1227 1194 11188 9277 11189 11196 9279 9278 
1194 1227 1525 1228 9278 11197 11198 9287 9291 11199 
1491 1525 1492 1194 11200 11201 11202 11195 11198 11203 
1194 1227 1524 1525 9278 11189 11196 11198 11197 11204 
1491 1525 1194 1524 11200 11198 11195 11191 11204 11196 
1492 1194 1525 1195 11203 11198 11201 11205 9289 11206 
1525 1194 1228 1195 11198 9287 11199 11206 9289 9288 
1195 1228 1526 1229 9288 11207 11208 9297 9301 11209 
1492 1526 1493 1195 11210 11211 11212 11205 11208 11213 
1195 1228 1525 1526 9288 11199 11206 11208 11207 11214 
1492 1526 1195 1525 11210 11208 11205 11201 11214 11206 
1493 1195 1526 1196 11213 11208 11211 11215 9299 11216 
1526 1195 1229 1196 11208 9297 11209 11216 9299 9298 
1196 1229 1527 1230 9298 11217 11218 9307 9311 11219 
1493 1527 1494 1196 11220 11221 11222 11215 11218 11223 
1196 1229 1526 1527 9298 11209 11216 11218 11217 11224 
1493 1527 1196 1526 11220 11218 11215 11211 11224 11216 
1494 1196 1527 1197 11223 11218 11221 11225 9309 11226 
1527 1196 1230 1197 11218 9307 11219 11226 9309 9308 
1197 1230 1528 1231 9308 11227 11228 9317 9321 11229 
1494 1528 1495 1197 11230 11231 11232 11225 11228 11233 
1197 1230 1527 1528 9308 11219 11226 11228 11227 11234 
1494 1528 1197 1527 11230 11228 11225 11221 11234 11226 
1495 1197 1528 1198 11233 11228 11231 11235 9319 11236 
1528 1197 1231 1198 11228 9317 11229 11236 9319 9318 
1198 1231 1529 1232 9318 11237 11238 9327 9331 11239 
1495 1529 1496 1198 11240 11241 11242 11235 11238 11243 
1198 1231 1528 1529 9318 11229 11236 11238 11237 11244 
1495 1529 1198 1528 11240 11238 11235 11231 11244 11236 
1496 1198 1529 1199 11243 11238 11241 11245 9329 11246 
1529 1198 1232 1199 11238 9327 11239 11246 9329 9328 
1199 1232 1530 1233 9328 11247 11248 9337 9341 11249 
1496 1530 1497 1199 11250 11251 11252 11245 11248 11253 
1199 1232 1529 1530 9328 11239 11246 11248 11247 11254 
1496 1530 1199 1529 11250 11248 11245 11241 11254 11246 
1497 1199 1530 1200 11253 11248 11251 11255 9339 11256 
1530 1199 1233 1200 11248 9337 11249 11256 9339 9338 
1200 1233 1531 1234 9338 11257 11258 9347 9351 11259 
1497 1531 1498 1200 11260 11261 11262 11255 11258 11263 
1200 1233 1530 1531 9338 11249 11256 11258 11257 11264 
1497 1531 1200 1530 11260 11258 11255 11251 11264 11256 
1498 1200 1531 1201 11263 11258 11261 11265 9349 11266 
1531 1200 1234 1201 11258 9347 11259 11266 9349 9348 
1201 1234 1532 1235 9348 11267 11268 9357 9361 11269 
1498 1532 1499 1201 11270 11271 11272 11265 11268 11273 
1201 1234 1531 1532 9348 11259 11266 11268 11267 11274 
1498 1532 1201 1531 11270 11268 11265 11261 11274 11266 
1499 1201 1532 1202 11273 11268 11271 11275 9359 11276 
1532 1201 1235 1202 11268 9357 11269 11276 9359 9358 
1202 1235 1533 1236 9358 11277 11278 9367 9371 11279 
1499 1533 1500 1202 11280 11281 11282 11275 11278 11283 
1202 1235 1532 1533 9358 11269 11276 11278 11277 11284 
1499 1533 1202 1532 11280 11278 11275 11271 11284 11276 
1500 1202 1533 1203 11283 11278 11281 11285 9369 11286 
1533 1202 1236 1203 11278 9367 11279 11286 9369 9368 
1203 1236 1534 1237 9368 11287 11288 9377 9381 11289 
1500 1534 1501 1203 11290 11291 11292 11285 11288 11293 
1203 1236 1533 1534 9368 11279 11286 11288 11287 11294 
1500 1534 1203 1533 11290 11288 11285 11281 11294 11286 
1501 1203 1534 1204 11293 11288 11291 11295 9379 11296 
1534 1203 1237 1204 11288 9377 11289 11296 9379 9378 
1204 1237 1535 1238 9378 11297 11298 9387 9391 11299 
1501 1535 1502 1204 11300 11301 11302 11295 11298 11303 
1204 1237 1534 1535 9378 11289 11296 11298 11297 11304 
1501 1535 1204 1534 11300 11298 11295 11291 11304 11296 
1502 1204 1535 1205 11303 11298 11301 11305 9389 11306 
1535 1204 1238 1205 11298 9387 11299 11306 9389 9388 
1205 1238 1536 1239 9388 11307 11308 9397 9401 11309 
1502 1536 1503 1205 11310 11311 11312 11305 11308 11313 
1205 1238 1535 1536 9388 11299 11306 11308 11307 11314 
1502 1536 1205 1535 11310 11308 11305 11301 11314 11306 
1503 1205 1536 1206 11313 11308 11311 11315 9399 11316 
1536 1205 1239 1206 11308 9397 11309 11316 9399 9398 
1206 1239 1537 1240 9398 11317 11318 9407 9411 11319 
1503 1537 1504 1206 11320 11321 11322 11315 11318 11323 
1206 1239 1536 1537 9398 11309 11316 11318 11317 11324 
1503 1537 1206 1536 11320 11318 11315 11311 11324 11316 
1504 1206 1537 1207 11323 11318 11321 11325 9409 11326 
1537 1206 1240 1207 11318 9407 11319 11326 9409 9408 
1207 1240 1538 1241 9408 11327 11328 9417 9421 11329 
1504 1538 1505 1207 11330 11331 11332 11325 11328 11333 
1207 1240 1537 1538 9408 11319 11326 11328 11327 11334 
1504 1538 1207 1537 11330 11328 11325 11321 11334 11326 
1505 1207 1538 1208 11333 11328 11331 11335 9419 11336 
1538 1207 1241 1208 11328 9417 11329 11336 9419 9418 
1208 1241 1539 1242 9418 11337 11338 9427 9431 11339 
1505 1539 1506 1208 11340 11341 11342 11335 11338 11343 
1208 1241 1538 1539 9418 11329 11336 11338 11337 11344 
1505 1539 1208 1538 11340 11338 11335 11331 11344 11336 
1506 1208 1539 1209 11343 11338 11341 11345 9429 11346 
1539 1208 1242 1209 11338 9427 11339 11346 9429 9428 
1209 1242 1540 1243 9428 11347 11348 9437 9441 11349 
1506 1540 1507 1209 11350 11351 11352 11345 11348 11353 
1209 1242 1539 1540 9428 11339 11346 11348 11347 11354 
1506 1540 1209 1539 11350 11348 11345 11341 11354 11346 
1507 1209 1540 1210 11353 11348 11351 11355 9439 11356 
1540 1209 1243 1210 11348 9437 11349 11356 9439 9438 
1210 1243 1541 1244 9438 11357 11358 9447 9451 11359 
1507 1541 1508 1210 11360 11361 11362 11355 11358 11363 
1210 1243 1540 1541 9438 11349 11356 11358 11357 11364 
1507 1541 1210 1540 11360 11358 11355 11351 11364 11356 
1508 1210 1541 1211 11363 11358 11361 11365 9449 11366 
1541 1210 1244 1211 11358 9447 11359 11366 9449 9448 
1211 1244 1542 1245 9448 11367 11368 9457 9461 11369 
1508 1542 1509 1211 11370 11371 11372 11365 11368 11373 
1211 1244 1541 1542 9448 11359 11366 11368 11367 11374 
1508 1542 1211 1541 11370 11368 11365 11361 11374 11366 
1509 1211 1542 1212 11373 11368 11371 11375 9459 11376 
1542 1211 1245 1212 11368 9457 11369 11376 9459 9458 
1212 1245 1543 1246 9458 11377 11378 9467 9471 11379 
1509 1543 1510 1212 11380 11381 11382 11375 11378 11383 
1212 1245 1542 1543 9458 11369 11376 11378 11377 11384 
1509 1543 1212 1542 11380 11378 11375 11371 11384 11376 
1510 1212 1543 1213 11383 11378 11381 11385 9469 11386 
1543 1212 1246 1213 11378 9467 11379 11386 9469 9468 
1213 1246 1544 1247 9468 11387 11388 9477 9481 11389 
1510 1544 1511 1213 11390 11391 11392 11385 11388 11393 
1213 1246 1543 1544 9468 11379 11386 11388 11387 11394 
1510 1544 1213 1543 11390 11388 11385 11381 11394 11386 
1511 1213 1544 1214 11393 11388 11391 11395 9479 11396 
1544 1213 1247 1214 11388 9477 11389 11396 9479 9478 
1214 1247 1545 1248 9478 11397 11398 9487 9491 11399 
1511 1545 1512 1214 11400 11401 11402 11395 11398 11403 
1214 1247 1544 1545 9478 11389 11396 11398 11397 11404 
1511 1545 1214 1544 11400 11398 11395 11391 11404 11396 
1512 1214 1545 1215 11403 11398 11401 11405 9489 11406 
1545 1214 1248 1215 11398 9487 11399 11406 9489 9488 
1215 1248 1546 1249 9488 11407 11408 9497 9501 11409 
1512 1546 1513 1215 11410 11411 11412 11405 11408 11413 
1215 1248 1545 1546 9488 11399 11406 11408 11407 11414 
1512 1546 1215 1545 11410 11408 11405 11401 11414 11406 
1513 1215 1546 1216 11413 11408 11411 11415 9499 11416 
1546 1215 1249 1216 11408 9497 11409 11416 9499 9498 
1216 1249 1547 1250 9498 11417 11418 9507 9511 11419 
1513 1547 1514 1216 11420 11421 11422 11415 11418 11423 
1216 1249 1546 1547 9498 11409 11416 11418 11417 11424 
1513 1547 1216 1546 11420 11418 11415 11411 11424 11416 
1514 1216 1547 1217 11423 11418 11421 11425 9509 11426 
1547 1216 1250 1217 11418 9507 11419 11426 9509 9508 
1217 1250 1548 1251 9508 11427 11428 9517 9521 11429 
1514 1548 1515 1217 11430 11431 11432 11425 11428 11433 
1217 1250 1547 1548 9508 11419 11426 11428 11427 11434 
1514 1548 1217 1547 11430 11428 11425 11421 11434 11426 
1515 1217 1548 1218 11433 11428 11431 11435 9519 11436 
1548 1217 1251 1218 11428 9517 11429 11436 9519 9518 
1218 1251 1549 1252 9518 11437 11438 9527 9531 11439 
1515 1549 1516 1218 11440 11441 11442 11435 11438 11443 
1218 1251 1548 1549 9518 11429 11436 11438 11437 11444 
1515 1549 1218 1548 11440 11438 11435 11431 11444 11436 
1516 1218 1549 1219 11443 11438 11441 11445 9529 11446 
1549 1218 1252 1219 11438 9527 11439 11446 9529 9528 
1219 1252 1550 1253 9528 11447 11448 9537 9541 11449 
1516 1550 1517 1219 11450 11451 11452 11445 11448 11453 
1219 1252 1549 1550 9528 11439 11446 11448 11447 11454 
1516 1550 1219 1549 11450 11448 11445 11441 11454 11446 
1517 1219 1550 1220 11453 11448 11451 11455 9539 11456 
1550 1219 1253 1220 11448 9537 11449 11456 9539 9538 
1221 1254 1552 1255 9552 11457 11458 9547 9551 11459 
1518 1552 1519 1221 11460 11461 11143 11141 11458 11133 
1221 1254 1551 1552 9552 11462 11463 11458 11457 11464 
1518 1552 1221 1551 11460 11458 11141 11465 11464 11463 
1519 1221 1552 1222 11133 11458 11461 11135 9230 11466 
1552 1221 1255 1222 11458 9547 11459 11466 9230 9548 
1222 1255 1553 1256 9548 11467 11468 9557 9559 11469 
1519 1553 1520 1222 11470 11471 11154 11135 11468 11147 
1222 1255 1552 1553 9548 11459 11466 11468 11467 11472 
1519 1553 1222 1552 11470 11468 11135 11461 11472 11466 
1520 1222 1553 1223 11147 11468 11471 11149 9241 11473 
1553 1222 1256 1223 11468 9557 11469 11473 9241 9558 
1223 1256 1554 1257 9558 11474 11475 9564 9566 11476 
1520 1554 1521 1223 11477 11478 11164 11149 11475 11157 
1223 1256 1553 1554 9558 11469 11473 11475 11474 11479 
1520 1554 1223 1553 11477 11475 11149 11471 11479 11473 
1521 1223 1554 1224 11157 11475 11478 11159 9251 11480 
1554 1223 1257 1224 11475 9564 11476 11480 9251 9565 
1224 1257 1555 1258 9565 11481 11482 9571 9573 11483 
1521 1555 1522 1224 11484 11485 11174 11159 11482 11167 
1224 1257 1554 1555 9565 11476 11480 11482 11481 11486 
1521 1555 1224 1554 11484 11482 11159 11478 11486 11480 
1522 1224 1555 1225 11167 11482 11485 11169 9261 11487 
1555 1224 1258 1225 11482 9571 11483 11487 9261 9572 
1225 1258 1556 1259 9572 11488 11489 9578 9580 11490 
1522 1556 1523 1225 11491 11492 11184 11169 11489 11177 
1225 1258 1555 1556 9572 11483 11487 11489 11488 11493 
1522 1556 1225 1555 11491 11489 11169 11485 11493 11487 
1523 1225 1556 1226 11177 11489 11492 11179 9271 11494 
1556 1225 1259 1226 11489 9578 11490 11494 9271 9579 
1226 1259 1557 1260 9579 11495 11496 9585 9587 11497 
1523 1557 1524 1226 11498 11499 11194 11179 11496 11187 
1226 1259 1556 1557 9579 11490 11494 11496 11495 11500 
1523 1557 1226 1556 11498 11496 11179 11492 11500 11494 
1524 1226 1557 1227 11187 11496 11499 11189 9281 11501 
1557 1226 1260 1227 11496 9585 11497 11501 9281 9586 
1227 1260 1558 1261 9586 11502 11503 9592 9594 11504 
1524 1558 1525 1227 11505 11506 11204 11189 11503 11197 
1227 1260 1557 1558 9586 11497 11501 11503 11502 11507 
1524 1558 1227 1557 11505 11503 11189 11499 11507 11501 
1525 1227 1558 1228 11197 11503 11506 11199 9291 11508 
1558 1227 1261 1228 11503 9592 11504 11508 9291 9593 
1228 1261 1559 1262 9593 11509 11510 9599 9601 11511 
1525 1559 1526 1228 11512 11513 11214 11199 11510 11207 
1228 1261 1558 1559 9593 11504 11508 11510 11509 11514 
1525 1559 1228 1558 11512 11510 11199 11506 11514 11508 
1526 1228 1559 1229 11207 11510 11513 11209 9301 11515 
1559 1228 1262 1229 11510 9599 11511 11515 9301 9600 
1229 1262 1560 1263 9600 11516 11517 9606 9608 11518 
1526 1560 1527 1229 11519 11520 11224 11209 11517 11217 
1229 1262 1559 1560 9600 11511 11515 11517 11516 11521 
1526 1560 1229 1559 11519 11517 11209 11513 11521 11515 
1527 1229 1560 1230 11217 11517 11520 11219 9311 11522 
1560 1229 1263 1230 11517 9606 11518 11522 9311 9607 
1230 1263 1561 1264 9607 11523 11524 9613 9615 11525 
1527 1561 1528 1230 11526 11527 11234 11219 11524 11227 
1230 1263 1560 1561 9607 11518 11522 11524 11523 11528 
1527 1561 1230 1560 11526 11524 11219 11520 11528 11522 
1528 1230 1561 1231 11227 11524 11527 11229 9321 11529 
1561 1230 1264 1231 11524 9613 11525 11529 9321 9614 
1231 1264 1562 1265 9614 11530 11531 9620 9622 11532 
1528 1562 1529 1231 11533 11534 11244 11229 11531 11237 
1231 1264 1561 1562 9614 11525 11529 11531 11530 11535 
1528 1562 1231 1561 11533 11531 11229 11527 11535 11529 
1529 1231 1562 1232 11237 11531 11534 11239 9331 11536 
1562 1231 1265 1232 11531 9620 11532 11536 9331 9621 
1232 1265 1563 1266 9621 11537 11538 9627 9629 11539 
1529 1563 1530 1232 11540 11541 11254 11239 11538 11247 
1232 1265 1562 1563 9621 11532 11536 11538 11537 11542 
1529 1563 1232 1562 11540 11538 11239 11534 11542 11536 
1530 1232 1563 1233 11247 11538 11541 11249 9341 11543 
1563 1232 1266 1233 11538 9627 11539 11543 9341 9628 
1233 1266 1564 1267 9628 11544 11545 9634 9636 11546 
1530 1564 1531 1233 11547 11548 11264 11249 11545 11257 
1233 1266 1563 1564 9628 11539 11543 11545 11544 11549 
1530 1564 1233 1563 11547 11545 11249 11541 11549 11543 
1531 1233 1564 1234 11257 11545 11548 11259 9351 11550 
1564 1233 1267 1234 11545 9634 11546 11550 9351 9635 
1234 1267 1565 1268 9635 11551 11552 9641 9643 11553 
1531 1565 1532 1234 11554 11555 11274 11259 11552 11267 
1234 1267 1564 1565 9635 11546 11550 11552 11551 11556 
1531 1565 1234 1564 11554 11552 11259 11548 11556 11550 
1532 1234 1565 1235 11267 11552 11555 11269 9361 11557 
1565 1234 1268 1235 11552 9641 11553 11557 9361 9642 
1235 1268 1566 1269 9642 11558 11559 9648 9650 11560 
1532 1566 1533 1235 11561 11562 11284 11269 11559 11277 
1235 1268 1565 1566 9642 11553 11557 11559 11558 11563 
1532 1566 1235 1565 11561 11559 11269 11555 11563 11557 
1533 1235 1566 1236 11277 11559 11562 11279 9371 11564 
1566 1235 1269 1236 11559 9648 11560 11564 9371 9649 
1236 1269 1567 1270 9649 11565 11566 9655 9657 11567 
1533 1567 1534 1236 11568 11569 11294 11279 11566 11287 
1236 1269 1566 1567 9649 11560 11564 11566 11565 11570 
1533 1567 1236 1566 11568 11566 11279 11562 11570 11564 
1534 1236 1567 1237 11287 11566 11569 11289 9381 11571 
1567 1236 1270 1237 11566 9655 11567 11571 9381 9656 
1237 1270 1568 1271 9656 11572 11573 9662 9664 11574 
1534 1568 1535 1237 11575 11576 11304 11289 11573 11297 
1237 1270 1567 1568 9656 11567 11571 11573 11572 11577 
1534 1568 1237 1567 11575 11573 11289 11569 11577 11571 
1535 1237 1568 1238 11297 11573 11576 11299 9391 11578 
1568 1237 1271 1238 11573 9662 11574 11578 9391 9663 
1238 1271 1569 1272 9663 11579 11580 9669 9671 11581 
1535 1569 1536 1238 11582 11583 11314 11299 11580 11307 
1238 1271 1568 1569 9663 11574 11578 11580 11579 11584 
1535 1569 1238 1568 11582 11580 11299 11576 11584 11578 
1536 1238 1569 1239 11307 11580 11583 11309 9401 11585 
1569 1238 1272 1239 11580 9669 11581 11585 9401 9670 
1239 1272 1570 1273 9670 11586 11587 9676 9678 11588 
1536 1570 1537 1239 11589 11590 11324 11309 11587 11317 
1239 1272 1569 1570 9670 11581 11585 11587 11586 11591 
1536 1570 1239 1569 11589 11587 11309 11583 11591 11585 
1537 1239 1570 1240 11317 11587 11590 11319 9411 11592 
1570 1239 1273 1240 11587 9676 11588 11592 9411 9677 
1240 1273 1571 1274 9677 11593 11594 9683 9685 11595 
1537 1571 1538 1240 11596 11597 11334 11319 11594 11327 
1240 1273 1570 1571 9677 11588 11592 11594 11593 11598 
1537 1571 1240 1570 11596 11594 11319 11590 11598 11592 
1538 1240 1571 1241 11327 11594 11597 11329 9421 11599 
1571 1240 1274 1241 11594 9683 11595 11599 9421 9684 
1241 1274 1572 1275 9684 11600 11601 9690 9692 11602 
1538 1572 1539 1241 11603 11604 11344 11329 11601 11337 
1241 1274 1571 1572 9684 11595 11599 11601 11600 11605 
1538 1572 1241 1571 11603 11601 11329 11597 11605 11599 
1539 1241 1572 1242 11337 11601 11604 11339 9431 11606 
1572 1241 1275 1242 11601 9690 11602 11606 9431 9691 
1242 1275 1573 1276 9691 11607 11608 9697 9699 11609 
1539 1573 1540 1242 11610 11611 11354 11339 11608 11347 
1242 1275 1572 1573 9691 11602 11606 11608 11607 11612 
1539 1573 1242 1572 11610 11608 11339 11604 11612 11606 
1540 1242 1573 1243 11347 11608 11611 11349 9441 11613 
1573 1242 1276 1243 11608 9697 11609 11613 9441 9698 
1243 1276 1574 1277 9698 11614 11615 9704 9706 11616 
1540 1574 1541 1243 11617 11618 11364 11349 11615 11357 
1243 1276 1573 1574 9698 11609 11613 11615 11614 11619 
1540 1574 1243 1573 11617 11615 11349 11611 11619 11613 
1541 1243 1574 1244 11357 11615 11618 11359 9451 11620 
1574 1243 1277 1244 11615 9704 11616 11620 9451 9705 
1244 1277 1575 1278 9705 11621 11622 9711 9713 11623 
1541 1575 1542 1244 11624 11625 11374 11359 11622 11367 
1244 1277 1574 1575 9705 11616 11620 11622 11621 11626 
1541 1575 1244 1574 11624 11622 11359 11618 11626 11620 
1542 1244 1575 1245 11367 11622 11625 11369 9461 11627 
1575 1244 1278 1245 11622 9711 11623 11627 9461 9712 
1245 1278 1576 1279 9712 11628 11629 9718 9720 11630 
1542 1576 1543 1245 11631 11632 11384 11369 11629 11377 
1245 1278 1575 1576 9712 11623 11627 11629 11628 11633 
1542 1576 1245 1575 11631 11629 11369 11625 11633 11627 
1543 1245 1576 1246 11377 11629 11632 11379 9471 11634 
1576 1245 1279 1246 11629 9718 11630 11634 9471 9719 
1246 1279 1577 1280 9719 11635 11636 9725 9727 11637 
1543 1577 1544 1246 11638 11639 11394 11379 11636 11387 
1246 1279 1576 1577 9719 11630 11634 11636 11635 11640 
1543 1577 1246 1576 11638 11636 11379 11632 11640 11634 
1544 1246 1577 1247 11387 11636 11639 11389 9481 11641 
1577 1246 1280 1247 11636 9725 11637 11641 9481 9726 
1247 1280 1578 1281 9726 11642 11643 9732 9734 11644 
1544 1578 1545 1247 11645 11646 11404 11389 11643 11397 
1247 1280 1577 1578 9726 11637 11641 11643 11642 11647 
1544 1578 1247 1577 11645 11643 11389 11639 11647 11641 
1545 1247 1578 1248 11397 11643 11646 11399 9491 11648 
1578 1247 1281 1248 11643 9732 11644 11648 9491 9733 
1248 1281 1579 1282 9733 11649 11650 9739 9741 11651 
1545 1579 1546 1248 11652 11653 11414 11399 11650 11407 
1248 1281 1578 1579 9733 11644 11648 11650 11649 11654 
1545 1579 1248 1578 11652 11650 11399 11646 11654 11648 
1546 1248 1579 1249 11407 11650 11653 11409 9501 11655 
1579 1248 1282 1249 11650 9739 11651 11655 9501 9740 
1249 1282 1580 1283 9740 11656 11657 9746 9748 11658 
1546 1580 1547 1249 11659 11660 11424 11409 11657 11417 
1249 1282 1579 1580 9740 11651 11655 11657 11656 11661 
1546 1580 1249 1579 11659 11657 11409 11653 11661 11655 
1547 1249 1580 1250 11417 11657 11660 11419 9511 11662 
1580 1249 1283 1250 11657 9746 11658 11662 9511 9747 
1250 1283 1581 1284 9747 11663 11664 9753 9755 11665 
1547 1581 1548 1250 11666 11667 11434 11419 11664 11427 
1250 1283 1580 1581 9747 11658 11662 11664 11663 11668 
1547 1581 1250 1580 11666 11664 11419 11660 11668 11662 
1548 1250 1581 1251 11427 11664 11667 11429 9521 11669 
1581 1250 1284 1251 11664 9753 11665 11669 9521 9754 
1251 1284 1582 1285 9754 11670 11671 9760 9762 11672 
1548 1582 1549 1251 11673 11674 11444 11429 11671 11437 
1251 1284 1581 1582 9754 11665 11669 11671 11670 11675 
1548 1582 1251 1581 11673 11671 11429 11667 11675 11669 
1549 1251 1582 1252 11437 11671 11674 11439 9531 11676 
1582 1251 1285 1252 11671 9760 11672 11676 9531 9761 
1252 1285 1583 1286 9761 11677 11678 9767 9769 11679 
1549 1583 1550 1252 11680 11681 11454 11439 11678 11447 
1252 1285 1582 1583 9761 11672 11676 11678 11677 11682 
1549 1583 1252 1582 11680 11678 11439 11674 11682 11676 
1550 1252 1583 1253 11447 11678 11681 11449 9541 11683 
1583 1252 1286 1253 11678 9767 11679 11683 9541 9768 
1254 1287 1585 1288 9779 11684 11685 9774 9778 11686 
1551 1585 1552 1254 11687 11688 11464 11462 11685 11457 
1254 1287 1584 1585 9779 11689 11690 11685 11684 11691 
1551 1585 1254 1584 11687 11685 11462 11692 11691 11690 
1552 1254 1585 1255 11457 11685 11688 11459 9551 11693 
1585 1254 1288 1255 11685 9774 11686 11693 9551 9775 
1255 1288 1586 1289 9775 11694 11695 9784 9786 11696 
1552 1586 1553 1255 11697 11698 11472 11459 11695 11467 
1255 1288 1585 1586 9775 11686 11693 11695 11694 11699 
1552 1586 1255 1585 11697 11695 11459 11688 11699 11693 
1553 1255 1586 1256 11467 11695 11698 11469 9559 11700 
1586 1255 1289 1256 11695 9784 11696 11700 9559 9785 
1256 1289 1587 1290 9785 11701 11702 9791 9793 11703 
1553 1587 1554 1256 11704 11705 11479 11469 11702 11474 
1256 1289 1586 1587 9785 11696 11700 11702 11701 11706 
1553 1587 1256 1586 11704 11702 11469 11698 11706 11700 
1554 1256 1587 1257 11474 11702 11705 11476 9566 11707 
1587 1256 1290 1257 11702 9791 11703 11707 9566 9792 
1257 1290 1588 1291 9792 11708 11709 9798 9800 11710 
1554 1588 1555 1257 11711 11712 11486 11476 11709 11481 
1257 1290 1587 1588 9792 11703 11707 11709 11708 11713 
1554 1588 1257 1587 11711 11709 11476 11705 11713 11707 
1555 1257 1588 1258 11481 11709 11712 11483 9573 11714 
1588 1257 1291 1258 11709 9798 11710 11714 9573 9799 
1258 1291 1589 1292 9799 11715 11716 9805 9807 11717 
1555 1589 1556 1258 11718 11719 11493 11483 11716 11488 
1258 1291 1588 1589 9799 11710 11714 11716 11715 11720 
1555 1589 1258 1588 11718 11716 11483 11712 11720 11714 
1556 1258 1589 1259 11488 11716 11719 11490 9580 11721 
1589 1258 1292 1259 11716 9805 11717 11721 9580 9806 
1259 1292 1590 1293 9806 11722 11723 9812 9814 11724 
1556 1590 1557 1259 11725 11726 11500 11490 11723 11495 
1259 1292 1589 1590 9806 11717 11721 11723 11722 11727 
1556 1590 1259 1589 11725 11723 11490 11719 11727 11721 
1557 1259 1590 1260 11495 11723 11726 11497 9587 11728 
1590 1259 1293 1260 11723 9812 11724 11728 9587 9813 
1260 1293 1591 1294 9813 11729 11730 9819 9821 11731 
1557 1591 1558 1260 11732 11733 11507 11497 11730 11502 
1260 1293 1590 1591 9813 11724 11728 11730 11729 11734 
1557 1591 1260 1590 11732 11730 11497 11726 11734 11728 
1558 1260 1591 1261 11502 11730 11733 11504 9594 11735 
1591 1260 1294 1261 11730 9819 11731 11735 9594 9820 
1261 1294 1592 1295 9820 11736 11737 9826 9828 11738 
1558 1592 1559 1261 11739 11740 11514 11504 11737 11509 
1261 1294 1591 1592 9820 11731 11735 11737 11736 11741 
1558 1592 1261 1591 11739 11737 11504 11733 11741 11735 
1559 1261 1592 1262 11509 11737 11740 11511 9601 11742 
1592 1261 1295 1262 11737 9826 11738 11742 9601 9827 
1262 1295 1593 1296 9827 11743 11744 9833 9835 11745 
1559 1593 1560 1262 11746 11747 11521 11511 11744 11516 
1262 1295 1592 1593 9827 11738 11742 11744 11743 11748 
1559 1593 1262 1592 11746 11744 11511 11740 11748 11742 
1560 1262 1593 1263 11516 11744 11747 11518 9608 11749 
1593 1262 1296 1263 11744 9833 11745 11749 9608 9834 
1263 1296 1594 1297 9834 11750 11751 9840 9842 11752 
1560 1594 1561 1263 11753 11754 11528 11518 11751 11523 
1263 1296 1593 1594 9834 11745 11749 11751 11750 11755 
1560 1594 1263 1593 11753 11751 11518 11747 11755 11749 
1561 1263 1594 1264 11523 11751 11754 11525 9615 11756 
1594 1263 1297 1264 11751 9840 11752 11756 9615 9841 
1264 1297 1595 1298 9841 11757 11758 9847 9849 11759 
1561 1595 1562 1264 11760 11761 11535 11525 11758 11530 
1264 1297 1594 1595 9841 11752 11756 11758 11757 11762 
1561 1595 1264 1594 11760 11758 11525 11754 11762 11756 
1562 1264 1595 1265 11530 11758 11761 11532 9622 11763 
1595 1264 1298 1265 11758 9847 11759 11763 9622 9848 
1265 1298 1596 1299 9848 11764 11765 9854 9856 11766 
1562 1596 1563 1265 11767 11768 11542 11532 11765 11537 
1265 1298 1595 1596 9848 11759 11763 11765 11764 11769 
1562 1596 1265 1595 11767 11765 11532 11761 11769 11763 
1563 1265 1596 1266 11537 11765 11768 11539 9629 11770 
1596 1265 1299 1266 11765 9854 11766 11770 9629 9855 
1266 1299 1597 1300 9855 11771 11772 9861 9863 11773 
1563 1597 1564 1266 11774 11775 11549 11539 11772 11544 
1266 1299 1596 1597 9855 11766 11770 11772 11771 11776 
1563 1597 1266 1596 11774 11772 11539 11768 11776 11770 
1564 1266 1597 1267 11544 11772 11775 11546 9636 11777 
1597 1266 1300 1267 11772 9861 11773 11777 9636 9862 
1267 1300 1598 1301 9862 11778 11779 9868 9870 11780 
1564 1598 1565 1267 11781 11782 11556 11546 11779 11551 
1267 1300 1597 1598 9862 11773 11777 11779 11778 11783 
1564 1598 1267 1597 11781 11779 11546 11775 11783 11777 
1565 1267 1598 1268 11551 11779 11782 11553 9643 11784 
1598 1267 1301 1268 11779 9868 11780 11784 9643 9869 
1268 1301 1599 1302 9869 11785 11786 9875 9877 11787 
1565 1599 1566 1268 11788 11789 11563 11553 11786 11558 
1268 1301 1598 1599 9869 11780 11784 11786 11785 11790 
1565 1599 1268 1598 11788 11786 11553 11782 11790 11784 
1566 1268 1599 1269 11558 11786 11789 11560 9650 11791 
1599 1268 1302 1269 11786 9875 11787 11791 9650 9876 
1269 1302 1600 1303 9876 11792 11793 9882 9884 11794 
1566 1600 1567 1269 11795 11796 11570 11560 11793 11565 
1269 1302 1599 1600 9876 11787 11791 11793 11792 11797 
1566 1600 1269 1599 11795 11793 11560 11789 11797 11791 
1567 1269 1600 1270 11565 11793 11796 11567 9657 11798 
1600 1269 1303 1270 11793 9882 11794 11798 9657 9883 
1270 1303 1601 1304 9883 11799 11800 9889 9891 11801 
1567 1601 1568 1270 11802 11803 11577 11567 11800 11572 
1270 1303 1600 1601 9883 11794 11798 11800 11799 11804 
1567 1601 1270 1600 11802 11800 11567 11796 11804 11798 
1568 1270 1601 1271 11572 11800 11803 11574 9664 11805 
1601 1270 1304 1271 11800 9889 11801 11805 9664 9890 
1271 1304 1602 1305 9890 11806 11807 9896 9898 11808 
1568 1602 1569 1271 11809 11810 11584 11574 11807 11579 
1271 1304 1601 1602 9890 11801 11805 11807 11806 11811 
1568 1602 1271 1601 11809 11807 11574 11803 11811 11805 
1569 1271 1602 1272 11579 11807 11810 11581 9671 11812 
1602 1271 1305 1272 11807 9896 11808 11812 9671 9897 
1272 1305 1603 1306 9897 11813 11814 9903 9905 11815 
1569 1603 1570 1272 11816 11817 11591 11581 11814 11586 
1272 1305 1602 1603 9897 11808 11812 11814 11813 11818 
1569 1603 1272 1602 11816 11814 11581 11810 11818 11812 
1570 1272 1603 1273 11586 11814 11817 11588 9678 11819 
1603 1272 1306 1273 11814 9903 11815 11819 9678 9904 
1273 1306 1604 1307 9904 11820 11821 9910 9912 11822 
1570 1604 1571 1273 11823 11824 11598 11588 11821 11593 
1273 1306 1603 1604 9904 11815 11819 11821 11820 11825 
1570 1604 1273 1603 11823 11821 11588 11817 11825 11819 
1571 1273 1604 1274 11593 11821 11824 11595 9685 11826 
1604 1273 1307 1274 11821 9910 11822 11826 9685 9911 
1274 1307 1605 1308 9911 11827 11828 9917 9919 11829 
1571 1605 1572 1274 11830 11831 11605 11595 11828 11600 
1274 1307 1604 1605 9911 11822 11826 11828 11827 11832 
1571 1605 1274 1604 11830 11828 11595 11824 11832 11826 
1572 1274 1605 1275 11600 11828 11831 11602 9692 11833 
1605 1274 1308 1275 11828 9917 11829 11833 9692 9918 
1275 1308 1606 1309 9918 11834 11835 9924 9926 11836 
1572 1606 1573 1275 11837 11838 11612 11602 11835 11607 
1275 1308 1605 1606 9918 11829 11833 11835 11834 11839 
1572 1606 1275 1605 11837 11835 11602 11831 11839 11833 
1573 1275 1606 1276 11607 11835 11838 11609 9699 11840 
1606 1275 1309 1276 11835 9924 11836 11840 9699 9925 
1276 1309 1607 1310 9925 11841 11842 9931 9933 11843 
1573 1607 1574 1276 11844 11845 11619 11609 11842 11614 
1276 1309 1606 1607 9925 11836 11840 11842 11841 11846 
1573 1607 1276 1606 11844 11842 11609 11838 11846 11840 
1574 1276 1607 1277 11614 11842 11845 11616 9706 11847 
1607 1276 1310 1277 11842 9931 11843 11847 9706 9932 
1277 1310 1608 1311 9932 11848 11849 9938 9940 11850 
1574 1608 1575 1277 11851 11852 11626 11616 11849 11621 
1277 1310 1607 1608 9932 11843 11847 11849 11848 11853 
1574 1608 1277 1607 11851 11849 11616 11845 11853 11847 
1575 1277 1608 1278 11621 11849 11852 11623 9713 11854 
1608 1277 1311 1278 11849 9938 11850 11854 9713 9939 
1278 1311 1609 1312 9939 11855 11856 9945 9947 11857 
1575 1609 1576 1278 11858 11859 11633 11623 11856 11628 
1278 1311 1608 1609 9939 11850 11854 11856 11855 11860 
1575 1609 1278 1608 11858 11856 11623 11852 11860 11854 
1576 1278 1609 1279 11628 11856 11859 11630 9720 11861 
1609 1278 1312 1279 11856 9945 11857 11861 9720 9946 
1279 1312 1610 1313 9946 11862 11863 9952 9954 11864 
1576 1610 1577 1279 11865 11866 11640 11630 11863 11635 
1279 1312 1609 1610 9946 11857 11861 11863 11862 11867 
1576 1610 1279 1609 11865 11863 11630 11859 11867 11861 
1577 1279 1610 1280 11635 11863 11866 11637 9727 11868 
1610 1279 1313 1280 11863 9952 11864 11868 9727 9953 
1280 1313 1611 1314 9953 11869 11870 9959 9961 11871 
1577 1611 1578 1280 11872 11873 11647 11637 11870 11642 
1280 1313 1610 1611 9953 11864 11868 11870 11869 11874 
1577 1611 1280 1610 11872 11870 11637 11866 11874 11868 
1578 1280 1611 1281 11642 11870 11873 11644 9734 11875 
1611 1280 1314 1281 11870 9959 11871 11875 9734 9960 
1281 1314 1612 1315 9960 11876 11877 9966 9968 11878 
1578 1612 1579 1281 11879 11880 11654 11644 11877 11649 
1281 1314 1611 1612 9960 11871 11875 11877 11876 11881 
1578 1612 1281 1611 11879 11877 11644 11873 11881 11875 
1579 1281 1612 1282 11649 11877 11880 11651 9741 11882 
1612 1281 1315 1282 11877 9966 11878 11882 9741 9967 
1282 1315 1613 1316 9967 11883 11884 9973 9975 11885 
1579 1613 1580 1282 11886 11887 11661 11651 11884 11656 
1282 1315 1612 1613 9967 11878 11882 11884 11883 11888 
1579 1613 1282 1612 11886 11884 11651 11880 11888 11882 
1580 1282 1613 1283 11656 11884 11887 11658 9748 11889 
1613 1282 1316 1283 11884 9973 11885 11889 9748 9974 
1283 1316 1614 1317 9974 11890 11891 9980 9982 11892 
1580 1614 1581 1283 11893 11894 11668 11658 11891 11663 
1283 1316 1613 1614 9974 11885 11889 11891 11890 11895 
1580 1614 1283 1613 11893 11891 11658 11887 11895 11889 
1581 1283 1614 1284 11663 11891 11894 11665 9755 11896 
1614 1283 1317 1284 11891 9980 11892 11896 9755 9981 
1284 1317 1615 1318 9981 11897 11898 9987 9989 11899 
1581 1615 1582 1284 11900 11901 11675 11665 11898 11670 
1284 1317 1614 1615 9981 11892 11896 11898 11897 11902 
1581 1615 1284 1614 11900 11898 11665 11894 11902 11896 
1582 1284 1615 1285 11670 11898 11901 11672 9762 11903 
1615 1284 1318 1285 11898 9987 11899 11903 9762 9988 
1285 1318 1616 1319 9988 11904 11905 9994 9996 11906 
1582 1616 1583 1285 11907 11908 11682 11672 11905 11677 
1285 1318 1615 1616 9988 11899 11903 11905 11904 11909 
1582 1616 1285 1615 11907 11905 11672 11901 11909 11903 
1583 1285 1616 1286 11677 11905 11908 11679 9769 11910 
1616 1285 1319 1286 11905 9994 11906 11910 9769 9995 
1287 1320 1618 1321 10006 11911 11912 10001 10005 11913 
1584 1618 1585 1287 11914 11915 11691 11689 11912 11684 
1287 1320 1617 1618 10006 11916 11917 11912 11911 11918 
1584 1618 1287 1617 11914 11912 11689 11919 11918 11917 
1585 1287 1618 1288 11684 11912 11915 11686 9778 11920 
1618 1287 1321 1288 11912 10001 11913 11920 9778 10002 
1288 1321 1619 1322 10002 11921 11922 10011 10013 11923 
1585 1619 1586 1288 11924 11925 11699 11686 11922 11694 
1288 1321 1618 1619 10002 11913 11920 11922 11921 11926 
1585 1619 1288 1618 11924 11922 11686 11915 11926 11920 
1586 1288 1619 1289 11694 11922 11925 11696 9786 11927 
1619 1288 1322 1289 11922 10011 11923 11927 9786 10012 
1289 1322 1620 1323 10012 11928 11929 10018 10020 11930 
1586 1620 1587 1289 11931 11932 11706 11696 11929 11701 
1289 1322 1619 1620 10012 11923 11927 11929 11928 11933 
1586 1620 1289 1619 11931 11929 11696 11925 11933 11927 
1587 1289 1620 1290 11701 11929 11932 11703 9793 11934 
1620 1289 1323 1290 11929 10018 11930 11934 9793 10019 
1290 1323 1621 1324 10019 11935 11936 10025 10027 11937 
1587 1621 1588 1290 11938 11939 11713 11703 11936 11708 
1290 1323 1620 1621 10019 11930 11934 11936 11935 11940 
1587 1621 1290 1620 11938 11936 11703 11932 11940 11934 
1588 1290 1621 1291 11708 11936 11939 11710 9800 11941 
1621 1290 1324 1291 11936 10025 11937 11941 9800 10026 
1291 1324 1622 1325 10026 11942 11943 10032 10034 11944 
1588 1622 1589 1291 11945 11946 11720 11710 11943 11715 
1291 1324 1621 1622 10026 11937 11941 11943 11942 11947 
1588 1622 1291 1621 11945 11943 11710 11939 11947 11941 
1589 1291 1622 1292 11715 11943 11946 11717 9807 11948 
1622 1291 1325 1292 11943 10032 11944 11948 9807 10033 
1292 1325 1623 1326 10033 11949 11950 10039 10041 11951 
1589 1623 1590 1292 11952 11953 11727 11717 11950 11722 
1292 1325 1622 1623 10033 11944 11948 11950 11949 11954 
1589 1623 1292 1622 11952 11950 11717 11946 11954 11948 
1590 1292 1623 1293 11722 11950 11953 11724 9814 11955 
1623 1292 1326 1293 11950 10039 11951 11955 9814 10040 
1293 1326 1624 1327 10040 11956 11957 10046 10048 11958 
1590 1624 1591 1293 11959 11960 11734 11724 11957 11729 
1293 1326 1623 1624 10040 11951 11955 11957 11956 11961 
1590 1624 1293 1623 11959 11957 11724 11953 11961 11955 
1591 1293 1624 1294 11729 11957 11960 11731 9821 11962 
1624 1293 1327 1294 11957 10046 11958 11962 9821 10047 
1294 1327 1625 1328 10047 11963 11964 10053 10055 11965 
1591 1625 1592 1294 11966 11967 11741 11731 11964 11736 
1294 1327 1624 1625 10047 11958 11962 11964 11963 11968 
1591 1625 1294 1624 11966 11964 11731 11960 11968 11962 
1592 1294 1625 1295 11736 11964 11967 11738 9828 11969 
1625 1294 1328 1295 11964 10053 11965 11969 9828 10054 
1295 1328 1626 1329 10054 11970 11971 10060 10062 11972 
1592 1626 1593 1295 11973 11974 11748 11738 11971 11743 
1295 1328 1625 1626 10054 11965 11969 11971 11970 11975 
1592 1626 1295 1625 11973 11971 11738 11967 11975 11969 
1593 1295 1626 1296 11743 11971 11974 11745 9835 11976 
1626 1295 1329 1296 11971 10060 11972 11976 9835 10061 
1296 1329 1627 1330 10061 11977 11978 10067 10069 11979 
1593 1627 1594 1296 11980 11981 11755 11745 11978 11750 
1296 1329 1626 1627 10061 11972 11976 11978 11977 11982 
1593 1627 1296 1626 11980 11978 11745 11974 11982 11976 
1594 1296 1627 1297 11750 11978 11981 11752 9842 11983 
1627 1296 1330 1297 11978 10067 11979 11983 9842 10068 
1297 1330 1628 1331 10068 11984 11985 10074 10076 11986 
1594 1628 1595 1297 11987 11988 11762 11752 11985 11757 
1297 1330 1627 1628 10068 11979 11983 11985 11984 11989 
1594 1628 1297 1627 11987 11985 11752 11981 11989 11983 
1595 1297 1628 1298 11757 11985 11988 11759 9849 11990 
1628 1297 1331 1298 11985 10074 11986 11990 9849 10075 
1298 1331 1629 1332 10075 11991 11992 10081 10083 11993 
1595 1629 1596 1298 11994 11995 11769 11759 11992 11764 
1298 1331 1628 1629 10075 11986 11990 11992 11991 11996 
1595 1629 1298 1628 11994 11992 11759 11988 11996 11990 
1596 1298 1629 1299 11764 11992 11995 11766 9856 11997 
1629 1298 1332 1299 11992 10081 11993 11997 9856 10082 
1299 1332 1630 1333 10082 11998 11999 10088 10090 12000 
1596 1630 1597 1299 12001 12002 11776 11766 11999 11771 
1299 1332 1629 1630 10082 11993 11997 11999 11998 12003 
1596 1630 1299 1629 12001 11999 11766 11995 12003 11997 
1597 1299 1630 1300 11771 11999 12002 11773 9863 12004 
1630 1299 1333 1300 11999 10088 12000 12004 9863 10089 
1300 1333 1631 1334 10089 12005 12006 10095 10097 12007 
1597 1631 1598 1300 12008 12009 11783 11773 12006 11778 
1300 1333 1630 1631 10089 12000 12004 12006 12005 12010 
1597 1631 1300 1630 12008 12006 11773 12002 12010 12004 
1598 1300 1631 1301 11778 12006 12009 11780 9870 12011 
1631 1300 1334 1301 12006 10095 12007 12011 9870 10096 
1301 1334 1632 1335 10096 12012 12013 10102 10104 12014 
1598 1632 1599 1301 12015 12016 11790 11780 12013 11785 
1301 1334 1631 1632 10096 12007 12011 12013 12012 12017 
1598 1632 1301 1631 12015 12013 11780 12009 12017 12011 
1599 1301 1632 1302 11785 12013 12016 11787 9877 12018 
1632 1301 1335 1302 12013 10102 12014 12018 9877 10103 
1302 1335 1633 1336 10103 12019 12020 10109 10111 12021 
1599 1633 1600 1302 12022 12023 11797 11787 12020 11792 
1302 1335 1632 1633 10103 12014 12018 12020 12019 12024 
1599 1633 1302 1632 12022 12020 11787 12016 12024 12018 
1600 1302 1633 1303 11792 12020 12023 11794 9884 12025 
1633 1302 1336 1303 12020 10109 12021 12025 9884 10110 
1303 1336 1634 1337 10110 12026 12027 10116 10118 12028 
1600 1634 1601 1303 12029 12030 11804 11794 12027 11799 
1303 1336 1633 1634 10110 12021 12025 12027 12026 12031 
1600 1634 1303 1633 12029 12027 11794 12023 12031 12025 
1601 1303 1634 1304 11799 12027 12030 11801 9891 12032 
1634 1303 1337 1304 12027 10116 12028 12032 9891 10117 
1304 1337 1635 1338 10117 12033 12034 10123 10125 12035 
1601 1635 1602 1304 12036 12037 11811 11801 12034 11806 
1304 1337 1634 1635 10117 12028 12032 12034 12033 12038 
1601 1635 1304 1634 12036 12034 11801 12030 12038 12032 
1602 1304 1635 1305 11806 12034 12037 11808 9898 12039 
1635 1304 1338 1305 12034 10123 12035 12039 9898 10124 
1305 1338 1636 1339 10124 12040 12041 10130 10132 12042 
1602 1636 1603 1305 12043 12044 11818 11808 12041 11813 
1305 1338 1635 1636 10124 12035 12039 12041 12040 12045 
1602 1636 1305 1635 12043 12041 11808 12037 12045 12039 
1603 1305 1636 1306 11813 12041 12044 11815 9905 12046 
1636 1305 1339 1306 12041 10130 12042 12046 9905 10131 
1306 1339 1637 1340 10131 12047 12048 10137 10139 12049 
1603 1637 1604 1306 12050 12051 11825 11815 12048 11820 
1306 1339 1636 1637 10131 12042 12046 12048 12047 12052 
1603 1637 1306 1636 12050 12048 11815 12044 12052 12046 
1604 1306 1637 1307 11820 12048 12051 11822 9912 12053 
1637 1306 1340 1307 12048 10137 12049 12053 9912 10138 
1307 1340 1638 1341 10138 12054 12055 10144 10146 12056 
1604 1638 1605 1307 12057 12058 11832 11822 12055 11827 
1307 1340 1637 1638 10138 12049 12053 12055 12054 12059 
1604 1638 1307 1637 12057 12055 11822 12051 12059 12053 
1605 1307 1638 1308 11827 12055 12058 11829 9919 12060 
1638 1307 1341 1308 12055 10144 12056 12060 9919 10145 
1308 1341 1639 1342 10145 12061 12062 10151 10153 12063 
1605 1639 1606 1308 12064 12065 11839 11829 12062 11834 
1308 1341 1638 1639 10145 12056 12060 12062 12061 12066 
1605 1639 1308 1638 12064 12062 11829 12058 12066 12060 
1606 1308 1639 1309 11834 12062 12065 11836 9926 12067 
1639 1308 1342 1309 12062 10151 12063 12067 9926 10152 
1309 1342 1640 1343 10152 12068 12069 10158 10160 12070 
1606 1640 1607 1309 12071 12072 11846 11836 12069 11841 
1309 1342 1639 1640 10152 12063 12067 12069 12068 12073 
1606 1640 1309 1639 12071 12069 11836 12065 12073 12067 
1607 1309 1640 1310 11841 12069 12072 11843 9933 12074 
1640 1309 1343 1310 12069 10158 12070 12074 9933 10159 
1310 1343 1641 1344 10159 12075 12076 10165 10167 12077 
1607 1641 1608 1310 12078 12079 11853 11843 12076 11848 
1310 1343 1640 1641 10159 12070 12074 12076 12075 12080 
1607 1641 1310 1640 12078 12076 11843 12072 12080 12074 
1608 1310 1641 1311 11848 12076 12079 11850 9940 12081 
1641 1310 1344 1311 12076 10165 12077 12081 9940 10166 
1311 1344 1642 1345 10166 12082 12083 10172 10174 12084 
1608 1642 1609 1311 12085 12086 11860 11850 12083 11855 
1311 1344 1641 1642 10166 12077 12081 12083 12082 12087 
1608 1642 1311 1641 12085 12083 11850 12079 12087 12081 
1609 1311 1642 1312 11855 12083 12086 11857 9947 12088 
1642 1311 1345 1312 12083 10172 12084 12088 9947 10173 
1312 1345 1643 1346 10173 12089 12090 10179 10181 12091 
1609 1643 1610 1312 12092 12093 11867 11857 12090 11862 
1312 1345 1642 1643 10173 12084 12088 12090 12089 12094 
1609 1643 1312 1642 12092 12090 11857 12086 12094 12088 
1610 1312 1643 1313 11862 12090 12093 11864 9954 12095 
1643 1312 1346 1313 12090 10179 12091 12095 9954 10180 
1313 1346 1644 1347 10180 12096 12097 10186 10188 12098 
1610 1644 1611 1313 12099 12100 11874 11864 12097 11869 
1313 1346 1643 1644 10180 12091 12095 12097 12096 12101 
1610 1644 1313 1643 12099 12097 11864 12093 12101 12095 
1611 1313 1644 1314 11869 12097 12100 11871 9961 12102 
1644 1313 1347 1314 12097 10186 12098 12102 9961 10187 
1314 1347 1645 1348 10187 12103 12104 10193 10195 12105 
1611 1645 1612 1314 12106 12107 11881 11871 12104 11876 
1314 1347 1644 1645 10187 12098 12102 12104 12103 12108 
1611 1645 1314 1644 12106 12104 11871 12100 12108 12102 
1612 1314 1645 1315 11876 12104 12107 11878 9968 12109 
1645 1314 1348 1315 12104 10193 12105 12109 9968 10194 
1315 1348 1646 1349 10194 12110 12111 10200 10202 12112 
1612 1646 1613 1315 12113 12114 11888 11878 12111 11883 
1315 1348 1645 1646 10194 12105 12109 12111 12110 12115 
1612 1646 1315 1645 12113 12111 11878 12107 12115 12109 
1613 1315 1646 1316 11883 12111 12114 11885 9975 12116 
1646 1315 1349 1316 12111 10200 12112 12116 9975 10201 
1316 1349 1647 1350 10201 12117 12118 10207 10209 12119 
1613 1647 1614 1316 12120 12121 11895 11885 12118 11890 
1316 1349 1646 1647 10201 12112 12116 12118 12117 12122 
1613 1647 1316 1646 12120 12118 11885 12114 12122 12116 
1614 1316 1647 1317 11890 12118 12121 11892 9982 12123 
1647 1316 1350 1317 12118 10207 12119 12123 9982 10208 
1317 1350 1648 1351 10208 12124 12125 10214 10216 12126 
1614 1648 1615 1317 12127 12128 11902 11892 12125 11897 
1317 1350 1647 1648 10208 12119 12123 12125 12124 12129 
1614 1648 1317 1647 12127 12125 11892 12121 12129 12123 
1615 1317 1648 1318 11897 12125 12128 11899 9989 12130 
1648 1317 1351 1318 12125 10214 12126 12130 9989 10215 
1318 1351 1649 1352 10215 12131 12132 10221 10223 12133 
1615 1649 1616 1318 12134 12135 11909 11899 12132 11904 
1318 1351 1648 1649 10215 12126 12130 12132 12131 12136 
1615 1649 1318 1648 12134 12132 11899 12128 12136 12130 
1616 1318 1649 1319 11904 12132 12135 11906 9996 12137 
1649 1318 1352 1319 12132 10221 12133 12137 9996 10222 
1320 1353 1651 1354 10233 12138 12139 10228 10232 12140 
1617 1651 1618 1320 12141 12142 11918 11916 12139 11911 
1320 1353 1650 1651 10233 12143 12144 12139 12138 12145 
1617 1651 1320 1650 12141 12139 11916 12146 12145 12144 
1618 1320 1651 1321 11911 12139 12142 11913 10005 12147 
1651 1320 1354 1321 12139 10228 12140 12147 10005 10229 
1321 1354 1652 1355 10229 12148 12149 10238 10240 12150 
1618 1652 1619 1321 12151 12152 11926 11913 12149 11921 
1321 1354 1651 1652 10229 12140 12147 12149 12148 12153 
1618 1652 1321 1651 12151 12149 11913 12142 12153 12147 
1619 1321 1652 1322 11921 12149 12152 11923 10013 12154 
1652 1321 1355 1322 12149 10238 12150 12154 10013 10239 
1322 1355 1653 1356 10239 12155 12156 10245 10247 12157 
1619 1653 1620 1322 12158 12159 11933 11923 12156 11928 
1322 1355 1652 1653 10239 12150 12154 12156 12155 12160 
1619 1653 1322 1652 12158 12156 11923 12152 12160 12154 
1620 1322 1653 1323 11928 12156 12159 11930 10020 12161 
1653 1322 1356 1323 12156 10245 12157 12161 10020 10246 
1323 1356 1654 1357 10246 12162 12163 10252 10254 12164 
1620 1654 1621 1323 12165 12166 11940 11930 12163 11935 
1323 1356 1653 1654 10246 12157 12161 12163 12162 12167 
1620 1654 1323 1653 12165 12163 11930 12159 12167 12161 
1621 1323 1654 1324 11935 12163 12166 11937 10027 12168 
1654 1323 1357 1324 12163 10252 12164 12168 10027 10253 
1324 1357 1655 1358 10253 12169 12170 10259 10261 12171 
1621 1655 1622 1324 12172 12173 11947 11937 12170 11942 
1324 1357 1654 1655 10253 12164 12168 12170 12169 12174 
1621 1655 1324 1654 12172 12170 11937 12166 12174 12168 
1622 1324 1655 1325 11942 12170 12173 11944 10034 12175 
1655 1324 1358 1325 12170 10259 12171 12175 10034 10260 
1325 1358 1656 1359 10260 12176 12177 10266 10268 12178 
1622 1656 1623 1325 12179 12180 11954 11944 12177 11949 
1325 1358 1655 1656 10260 12171 12175 12177 12176 12181 
1622 1656 1325 1655 12179 12177 11944 12173 12181 12175 
1623 1325 1656 1326 11949 12177 12180 11951 10041 12182 
1656 1325 1359 1326 12177 10266 12178 12182 10041 10267 
1326 1359 1657 1360 10267 12183 12184 10273 10275 12185 
1623 1657 1624 1326 12186 12187 11961 11951 12184 11956 
1326 1359 1656 1657 10267 12178 12182 12184 12183 12188 
1623 1657 1326 1656 12186 12184 11951 12180 12188 12182 
1624 1326 1657 1327 11956 12184 12187 11958 10048 12189 
1657 1326 1360 1327 12184 10273 12185 12189 10048 10274 
1327 1360 1658 1361 10274 12190 12191 10280 10282 12192 
1624 1658 1625 1327 12193 12194 11968 11958 12191 11963 
1327 1360 1657 1658 10274 12185 12189 12191 12190 12195 
1624 1658 1327 1657 12193 12191 11958 12187 12195 12189 
1625 1327 1658 1328 11963 12191 12194 11965 10055 12196 
1658 1327 1361 1328 12191 10280 12192 12196 10055 10281 
1328 1361 1659 1362 10281 12197 12198 10287 10289 12199 
1625 1659 1626 1328 12200 12201 11975 11965 12198 11970 
1328 1361 1658 1659 10281 12192 12196 12198 12197 12202 
1625 1659 1328 1658 12200 12198 11965 12194 12202 12196 
1626 1328 1659 1329 11970 12198 12201 11972 10062 12203 
1659 1328 1362 1329 12198 10287 12199 12203 10062 10288 
1329 1362 1660 1363 10288 12204 12205 10294 10296 12206 
1626 1660 1627 1329 12207 12208 11982 11972 12205 11977 
1329 1362 1659 1660 10288 12199 12203 12205 12204 12209 
1626 1660 1329 1659 12207 12205 11972 12201 12209 12203 
1627 1329 1660 1330 11977 12205 12208 11979 10069 12210 
1660 1329 1363 1330 12205 10294 12206 12210 10069 10295 
1330 1363 1661 1364 10295 12211 12212 10301 10303 12213 
1627 1661 1628 1330 12214 12215 11989 11979 12212 11984 
1330 1363 1660 1661 10295 12206 12210 12212 12211 12216 
1627 1661 1330 1660 12214 12212 11979 12208 12216 12210 
1628 1330 1661 1331 11984 12212 12215 11986 10076 12217 
1661 1330 1364 1331 12212 10301 12213 12217 10076 10302 
1331 1364 1662 1365 10302 12218 12219 10308 10310 12220 
1628 1662 1629 1331 12221 12222 11996 11986 12219 11991 
1331 1364 1661 1662 10302 12213 12217 12219 12218 12223 
1628 1662 1331 1661 12221 12219 11986 12215 12223 12217 
1629 1331 1662 1332 11991 12219 12222 11993 10083 12224 
1662 1331 1365 1332 12219 10308 12220 12224 10083 10309 
1332 1365 1663 1366 10309 12225 12226 10315 10317 12227 
1629 1663 1630 1332 12228 12229 12003 11993 12226 11998 
1332 1365 1662 1663 10309 12220 12224 12226 12225 12230 
1629 1663 1332 1662 12228 12226 11993 12222 12230 12224 
1630 1332 1663 1333 11998 12226 12229 12000 10090 12231 
1663 1332 1366 1333 12226 10315 12227 12231 10090 10316 
1333 1366 1664 1367 10316 12232 12233 10322 10324 12234 
1630 1664 1631 1333 12235 12236 12010 12000 12233 12005 
1333 1366 1663 1664 10316 12227 12231 12233 12232 12237 
1630 1664 1333 1663 12235 12233 12000 12229 12237 12231 
1631 1333 1664 1334 12005 12233 12236 12007 10097 12238 
1664 1333 1367 1334 12233 10322 12234 12238 10097 10323 
1334 1367 1665 1368 10323 12239 12240 10329 10331 12241 
1631 1665 1632 1334 12242 12243 12017 12007 12240 12012 
1334 1367 1664 1665 10323 12234 12238 12240 12239 12244 
1631 1665 1334 1664 12242 12240 12007 12236 12244 12238 
1632 1334 1665 1335 12012 12240 12243 12014 10104 12245 
1665 1334 1368 1335 12240 10329 12241 12245 10104 10330 
1335 1368 1666 1369 10330 12246 12247 10336 10338 12248 
1632 1666 1633 1335 12249 12250 12024 12014 12247 12019 
1335 1368 1665 1666 10330 12241 12245 12247 12246 12251 
1632 1666 1335 1665 12249 12247 12014 12243 12251 12245 
1633 1335 1666 1336 12019 12247 12250 12021 10111 12252 
1666 1335 1369 1336 12247 10336 12248 12252 10111 10337 
1336 1369 1667 1370 10337 12253 12254 10343 10345 12255 
1633 1667 1634 1336 12256 12257 12031 12021 12254 12026 
1336 1369 1666 1667 10337 12248 12252 12254 12253 12258 
1633 1667 1336 1666 12256 12254 12021 12250 12258 12252 
1634 1336 1667 1337 12026 12254 12257 12028 10118 12259 
1667 1336 1370 1337 12254 10343 12255 12259 10118 10344 
1337 1370 1668 1371 10344 12260 12261 10350 10352 12262 
1634 1668 1635 1337 12263 12264 12038 12028 12261 12033 
1337 1370 1667 1668 10344 12255 12259 12261 12260 12265 
1634 1668 1337 1667 12263 12261 12028 12257 12265 12259 
1635 1337 1668 1338 12033 12261 12264 12035 10125 12266 
1668 1337 1371 1338 12261 10350 12262 12266 10125 10351 
1338 1371 1669 1372 10351 12267 12268 10357 10359 12269 
1635 1669 1636 1338 12270 12271 12045 12035 12268 12040 
1338 1371 1668 1669 10351 12262 12266 12268 12267 12272 
1635 1669 1338 1668 12270 12268 12035 12264 12272 12266 
1636 1338 1669 1339 12040 12268 12271 12042 10132 12273 
1669 1338 1372 1339 12268 10357 12269 12273 10132 10358 
1339 1372 1670 1373 10358 12274 12275 10364 10366 12276 
1636 1670 1637 1339 12277 12278 12052 12042 12275 12047 
1339 1372 1669 1670 10358 12269 12273 12275 12274 12279 
1636 1670 1339 1669 12277 12275 12042 12271 12279 12273 
1637 1339 1670 1340 12047 12275 12278 12049 10139 12280 
1670 1339 1373 1340 12275 10364 12276 12280 10139 10365 
1340 1373 1671 1374 10365 12281 12282 10371 10373 12283 
1637 1671 1638 1340 12284 12285 12059 12049 12282 12054 
1340 1373 1670 1671 10365 12276 12280 12282 12281 12286 
1637 1671 1340 1670 12284 12282 12049 12278 12286 12280 
1638 1340 1671 1341 12054 12282 12285 12056 10146 12287 
1671 1340 1374 1341 12282 10371 12283 12287 10146 10372 
1341 1374 1672 1375 10372 12288 12289 10378 10380 12290 
1638 1672 1639 1341 12291 12292 12066 12056 12289 12061 
1341 1374 1671 1672 10372 12283 12287 12289 12288 12293 
1638 1672 1341 1671 12291 12289 12056 12285 12293 12287 
1639 1341 1672 1342 12061 12289 12292 12063 10153 12294 
1672 1341 1375 1342 12289 10378 12290 12294 10153 10379 
1342 1375 1673 1376 10379 12295 12296 10385 10387 12297 
1639 1673 1640 1342 12298 12299 12073 12063 12296 12068 
1342 1375 1672 1673 10379 12290 12294 12296 12295 12300 
1639 1673 1342 1672 12298 12296 12063 12292 12300 12294 
1640 1342 1673 1343 12068 12296 12299 12070 10160 12301 
1673 1342 1376 1343 12296 10385 12297 12301 10160 10386 
1343 1376 1674 1377 10386 12302 12303 10392 10394 12304 
1640 1674 1641 1343 12305 12306 12080 12070 12303 12075 
1343 1376 1673 1674 10386 12297 12301 12303 12302 12307 
1640 1674 1343 1673 12305 12303 12070 12299 12307 12301 
1641 1343 1674 1344 12075 12303 12306 12077 10167 12308 
1674 1343 1377 1344 12303 10392 12304 12308 10167 10393 
1344 1377 1675 1378 10393 12309 12310 10399 10401 12311 
1641 1675 1642 1344 12312 12313 12087 12077 12310 12082 
1344 1377 1674 1675 10393 12304 12308 12310 12309 12314 
1641 1675 1344 1674 12312 12310 12077 12306 12314 12308 
1642 1344 1675 1345 12082 12310 12313 12084 10174 12315 
1675 1344 1378 1345 12310 10399 12311 12315 10174 10400 
1345 1378 1676 1379 10400 12316 12317 10406 10408 12318 
1642 1676 1643 1345 12319 12320 12094 12084 12317 12089 
1345 1378 1675 1676 10400 12311 12315 12317 12316 12321 
1642 1676 1345 1675 12319 12317 12084 12313 12321 12315 
1643 1345 1676 1346 12089 12317 12320 12091 10181 12322 
1676 1345 1379 1346 12317 10406 12318 12322 10181 10407 
1346 1379 1677 1380 10407 12323 12324 10413 10415 12325 
1643 1677 1644 1346 12326 12327 12101 12091 12324 12096 
1346 1379 1676 1677 10407 12318 12322 12324 12323 12328 
1643 1677 1346 1676 12326 12324 12091 12320 12328 12322 
1644 1346 1677 1347 12096 12324 12327 12098 10188 12329 
1677 1346 1380 1347 12324 10413 12325 12329 10188 10414 
1347 1380 1678 1381 10414 12330 12331 10420 10422 12332 
1644 1678 1645 1347 12333 12334 12108 12098 12331 12103 
1347 1380 1677 1678 10414 12325 12329 12331 12330 12335 
1644 1678 1347 1677 12333 12331 12098 12327 12335 12329 
1645 1347 1678 1348 12103 12331 12334 12105 10195 12336 
1678 1347 1381 1348 12331 10420 12332 12336 10195 10421 
1348 1381 1679 1382 10421 12337 12338 10427 10429 12339 
1645 1679 1646 1348 12340 12341 12115 12105 12338 12110 
1348 1381 1678 1679 10421 12332 12336 12338 12337 12342 
1645 1679 1348 1678 12340 12338 12105 12334 12342 12336 
1646 1348 1679 1349 12110 12338 12341 12112 10202 12343 
1679 1348 1382 1349 12338 10427 12339 12343 10202 10428 
1349 1382 1680 1383 10428 12344 12345 10434 10436 12346 
1646 1680 1647 1349 12347 12348 12122 12112 12345 12117 
1349 1382 1679 1680 10428 12339 12343 12345 12344 12349 
1646 1680 1349 1679 12347 12345 12112 12341 12349 12343 
1647 1349 1680 1350 12117 12345 12348 12119 10209 12350 
1680 1349 1383 1350 12345 10434 12346 12350 10209 10435 
1350 1383 1681 1384 10435 12351 12352 10441 10443 12353 
1647 1681 1648 1350 12354 12355 12129 12119 12352 12124 
1350 1383 1680 1681 10435 12346 12350 12352 12351 12356 
1647 1681 1350 1680 12354 12352 12119 12348 12356 12350 
1648 1350 1681 1351 12124 12352 12355 12126 10216 12357 
1681 1350 1384 1351 12352 10441 12353 12357 10216 10442 
1351 1384 1682 1385 10442 12358 12359 10448 10450 12360 
1648 1682 1649 1351 12361 12362 12136 12126 12359 12131 
1351 1384 1681 1682 10442 12353 12357 12359 12358 12363 
1648 1682 1351 1681 12361 12359 12126 12355 12363 12357 
1649 1351 1682 1352 12131 12359 12362 12133 10223 12364 
1682 1351 1385 1352 12359 10448 12360 12364 10223 10449 
1353 1386 1684 1387 10460 12365 12366 10455 10459 12367 
1650 1684 1651 1353 12368 12369 12145 12143 12366 12138 
1353 1386 1683 1684 10460 12370 12371 12366 12365 12372 
1650 1684 1353 1683 12368 12366 12143 12373 12372 12371 
1651 1353 1684 1354 12138 12366 12369 12140 10232 12374 
1684 1353 1387 1354 12366 10455 12367 12374 10232 10456 
1354 1387 1685 1388 10456 12375 12376 10465 10467 12377 
1651 1685 1652 1354 12378 12379 12153 12140 12376 12148 
1354 1387 1684 1685 10456 12367 12374 12376 12375 12380 
1651 1685 1354 1684 12378 12376 12140 12369 12380 12374 
1652 1354 1685 1355 12148 12376 12379 12150 10240 12381 
1685 1354 1388 1355 12376 10465 12377 12381 10240 10466 
1355 1388 1686 1389 10466 12382 12383 10472 10474 12384 
1652 1686 1653 1355 12385 12386 12160 12150 12383 12155 
1355 1388 1685 1686 10466 12377 12381 12383 12382 12387 
1652 1686 1355 1685 12385 12383 12150 12379 12387 12381 
1653 1355 1686 1356 12155 12383 12386 12157 10247 12388 
1686 1355 1389 1356 12383 10472 12384 12388 10247 10473 
1356 1389 1687 1390 10473 12389 12390 10479 10481 12391 
1653 1687 1654 1356 12392 12393 12167 12157 12390 12162 
1356 1389 1686 1687 10473 12384 12388 12390 12389 12394 
1653 1687 1356 1686 12392 12390 12157 12386 12394 12388 
1654 1356 1687 1357 12162 12390 12393 12164 10254 12395 
1687 1356 1390 1357 12390 10479 12391 12395 10254 10480 
1357 1390 1688 1391 10480 12396 12397 10486 10488 12398 
1654 1688 1655 1357 12399 12400 12174 12164 12397 12169 
1357 1390 1687 1688 10480 12391 12395 12397 12396 12401 
1654 1688 1357 1687 12399 12397 12164 12393 12401 12395 
1655 1357 1688 1358 12169 12397 12400 12171 10261 12402 
1688 1357 1391 1358 12397 10486 12398 12402 10261 10487 
1358 1391 1689 1392 10487 12403 12404 10493 10495 12405 
1655 1689 1656 1358 12406 12407 12181 12171 12404 12176 
1358 1391 1688 1689 10487 12398 12402 12404 12403 12408 
1655 1689 1358 1688 12406 12404 12171 12400 12408 12402 
1656 1358 1689 1359 12176 12404 12407 12178 10268 12409 
1689 1358 1392 1359 12404 10493 12405 12409 10268 10494 
1359 1392 1690 1393 10494 12410 12411 10500 10502 12412 
1656 1690 1657 1359 12413 12414 12188 12178 12411 12183 
1359 1392 1689 1690 10494 12405 12409 12411 12410 12415 
1656 1690 1359 1689 12413 12411 12178 12407 12415 12409 
1657 1359 1690 1360 12183 12411 12414 12185 10275 12416 
1690 1359 1393 1360 12411 10500 12412 12416 10275 10501 
1360 1393 1691 1394 10501 12417 12418 10507 10509 12419 
1657 1691 1658 1360 12420 12421 12195 12185 12418 12190 
1360 1393 1690 1691 10501 12412 12416 12418 12417 12422 
1657 1691 1360 1690 12420 12418 12185 12414 12422 12416 
1658 1360 1691 1361 12190 12418 12421 12192 10282 12423 
1691 1360 1394 1361 12418 10507 12419 12423 10282 10508 
1361 1394 1692 1395 10508 12424 12425 10514 10516 12426 
1658 1692 1659 1361 12427 12428 12202 12192 12425 12197 
1361 1394 1691 1692 10508 12419 12423 12425 12424 12429 
1658 1692 1361 1691 12427 12425 12192 12421 12429 12423 
1659 1361 1692 1362 12197 12425 12428 12199 10289 12430 
1692 1361 1395 1362 12425 10514 12426 12430 10289 10515 
1362 1395 1693 1396 10515 12431 12432 10521 10523 12433 
1659 1693 1660 1362 12434 12435 12209 12199 12432 12204 
1362 1395 1692 1693 10515 12426 12430 12432 12431 12436 
1659 1693 1362 1692 12434 12432 12199 12428 12436 12430 
1660 1362 1693 1363 12204 12432 12435 12206 10296 12437 
1693 1362 1396 1363 12432 10521 12433 12437 10296 10522 
1363 1396 1694 1397 10522 12438 12439 10528 10530 12440 
1660 1694 1661 1363 12441 12442 12216 12206 12439 12211 
1363 1396 1693 1694 10522 12433 12437 12439 12438 12443 
1660 1694 1363 1693 12441 12439 12206 12435 12443 12437 
1661 1363 1694 1364 12211 12439 12442 12213 10303 12444 
1694 1363 1397 1364 12439 10528 12440 12444 10303 10529 
1364 1397 1695 1398 10529 12445 12446 10535 10537 12447 
1661 1695 1662 1364 12448 12449 12223 12213 12446 12218 
1364 1397 1694 1695 10529 12440 12444 12446 12445 12450 
1661 1695 1364 1694 12448 12446 12213 12442 12450 12444 
1662 1364 1695 1365 12218 12446 12449 12220 10310 12451 
1695 1364 1398 1365 12446 10535 12447 12451 10310 10536 
1365 1398 1696 1399 10536 12452 12453 10542 10544 12454 
1662 1696 1663 1365 12455 12456 12230 12220 12453 12225 
1365 1398 1695 1696 10536 12447 12451 12453 12452 12457 
1662 1696 1365 1695 12455 12453 12220 12449 12457 12451 
1663 1365 1696 1366 12225 12453 12456 12227 10317 12458 
1696 1365 1399 1366 12453 10542 12454 12458 10317 10543 
1366 1399 1697 1400 10543 12459 12460 10549 10551 12461 
1663 1697 1664 1366 12462 12463 12237 12227 12460 12232 
1366 1399 1696 1697 10543 12454 12458 12460 12459 12464 
1663 1697 1366 1696 12462 12460 12227 12456 12464 12458 
1664 1366 1697 1367 12232 12460 12463 12234 10324 12465 
1697 1366 1400 1367 12460 10549 12461 12465 10324 10550 
1367 1400 1698 1401 10550 12466 12467 10556 10558 12468 
1664 1698 1665 1367 12469 12470 12244 12234 12467 12239 
1367 1400 1697 1698 10550 12461 12465 12467 12466 12471 
1664 1698 1367 1697 12469 12467 12234 12463 12471 12465 
1665 1367 1698 1368 12239 12467 12470 12241 10331 12472 
1698 1367 1401 1368 12467 10556 12468 12472 10331 10557 
1368 1401 1699 1402 10557 12473 12474 10563 10565 12475 
1665 1699 1666 1368 12476 12477 12251 12241 12474 12246 
1368 1401 1698 1699 10557 12468 12472 12474 12473 12478 
1665 1699 1368 1698 12476 12474 12241 12470 12478 12472 
1666 1368 1699 1369 12246 12474 12477 12248 10338 12479 
1699 1368 1402 1369 12474 10563 12475 12479 10338 10564 
1369 1402 1700 1403 10564 12480 12481 10570 10572 12482 
1666 1700 1667 1369 12483 12484 12258 12248 12481 12253 
1369 1402 1699 1700 10564 12475 12479 12481 12480 12485 
1666 1700 1369 1699 12483 12481 12248 12477 12485 12479 
1667 1369 1700 1370 12253 12481 12484 12255 10345 12486 
1700 1369 1403 1370 12481 10570 12482 12486 10345 10571 
1370 1403 1701 1404 10571 12487 12488 10577 10579 12489 
1667 1701 1668 1370 12490 12491 12265 12255 12488 12260 
1370 1403 1700 1701 10571 12482 12486 12488 12487 12492 
1667 1701 1370 1700 12490 12488 12255 12484 12492 12486 
1668 1370 1701 1371 12260 12488 12491 12262 10352 12493 
1701 1370 1404 1371 12488 10577 12489 12493 10352 10578 
1371 1404 1702 1405 10578 12494 12495 10584 10586 12496 
1668 1702 1669 1371 12497 12498 12272 12262 12495 12267 
1371 1404 1701 1702 10578 12489 12493 12495 12494 12499 
1668 1702 1371 1701 12497 12495 12262 12491 12499 12493 
1669 1371 1702 1372 12267 12495 12498 12269 10359 12500 
1702 1371 1405 1372 12495 10584 12496 12500 10359 10585 
1372 1405 1703 1406 10585 12501 12502 10591 10593 12503 
1669 1703 1670 1372 12504 12505 12279 12269 12502 12274 
1372 1405 1702 1703 10585 12496 12500 12502 12501 12506 
1669 1703 1372 1702 12504 12502 12269 12498 12506 12500 
1670 1372 1703 1373 12274 12502 12505 12276 10366 12507 
1703 1372 1406 1373 12502 10591 12503 12507 10366 10592 
1373 1406 1704 1407 10592 12508 12509 10598 10600 12510 
1670 1704 1671 1373 12511 12512 12286 12276 12509 12281 
1373 1406 1703 1704 10592 12503 12507 12509 12508 12513 
1670 1704 1373 1703 12511 12509 12276 12505 12513 12507 
1671 1373 1704 1374 12281 12509 12512 12283 10373 12514 
1704 1373 1407 1374 12509 10598 12510 12514 10373 10599 
1374 1407 1705 1408 10599 12515 12516 10605 10607 12517 
1671 1705 1672 1374 12518 12519 12293 12283 12516 12288 
1374 1407 1704 1705 10599 12510 12514 12516 12515 12520 
1671 1705 1374 1704 12518 12516 12283 12512 12520 12514 
1672 1374 1705 1375 12288 12516 12519 12290 10380 12521 
1705 1374 1408 1375 12516 10605 12517 12521 10380 10606 
1375 1408 1706 1409 10606 12522 12523 10612 10614 12524 
1672 1706 1673 1375 12525 12526 12300 12290 12523 12295 
1375 1408 1705 1706 10606 12517 12521 12523 12522 12527 
1672 1706 1375 1705 12525 12523 12290 12519 12527 12521 
1673 1375 1706 1376 12295 12523 12526 12297 10387 12528 
1706 1375 1409 1376 12523 10612 12524 12528 10387 10613 
1376 1409 1707 1410 10613 12529 12530 10619 10621 12531 
1673 1707 1674 1376 12532 12533 12307 12297 12530 12302 
1376 1409 1706 1707 10613 12524 12528 12530 12529 12534 
1673 1707 1376 1706 12532 12530 12297 12526 12534 12528 
1674 1376 1707 1377 12302 12530 12533 12304 10394 12535 
1707 1376 1410 1377 12530 10619 12531 12535 10394 10620 
1377 1410 1708 1411 10620 12536 12537 10626 10628 12538 
1674 1708 1675 1377 12539 12540 12314 12304 12537 12309 
1377 1410 1707 1708 10620 12531 12535 12537 12536 12541 
1674 1708 1377 1707 12539 12537 12304 12533 12541 12535 
1675 1377 1708 1378 12309 12537 12540 12311 10401 12542 
1708 1377 1411 1378 12537 10626 12538 12542 10401 10627 
1378 1411 1709 1412 10627 12543 12544 10633 10635 12545 
1675 1709 1676 1378 12546 12547 12321 12311 12544 12316 
1378 1411 1708 1709 10627 12538 12542 12544 12543 12548 
1675 1709 1378 1708 12546 12544 12311 12540 12548 12542 
1676 1378 1709 1379 12316 12544 12547 12318 10408 12549 
1709 1378 1412 1379 12544 10633 12545 12549 10408 10634 
1379 1412 1710 1413 10634 12550 12551 10640 10642 12552 
1676 1710 1677 1379 12553 12554 12328 12318 12551 12323 
1379 1412 1709 1710 10634 12545 12549 12551 12550 12555 
1676 1710 1379 1709 12553 12551 12318 12547 12555 12549 
1677 1379 1710 1380 12323 12551 12554 12325 10415 12556 
1710 1379 1413 1380 12551 10640 12552 12556 10415 10641 
1380 1413 1711 1414 10641 12557 12558 10647 10649 12559 
1677 1711 1678 1380 12560 12561 12335 12325 12558 12330 
1380 1413 1710 1711 10641 12552 12556 12558 12557 12562 
1677 1711 1380 1710 12560 12558 12325 12554 12562 12556 
1678 1380 1711 1381 12330 12558 12561 12332 10422 12563 
1711 1380 1414 1381 12558 10647 12559 12563 10422 10648 
1381 1414 1712 1415 10648 12564 12565 10654 10656 12566 
1678 1712 1679 1381 12567 12568 12342 12332 12565 12337 
1381 1414 1711 1712 10648 12559 12563 12565 12564 12569 
1678 1712 1381 1711 12567 12565 12332 12561 12569 12563 
1679 1381 1712 1382 12337 12565 12568 12339 10429 12570 
1712 1381 1415 1382 12565 10654 12566 12570 10429 10655 
1382 1415 1713 1416 10655 12571 12572 10661 10663 12573 
1679 1713 1680 1382 12574 12575 12349 12339 12572 12344 
1382 1415 1712 1713 10655 12566 12570 12572 12571 12576 
1679 1713 1382 1712 12574 12572 12339 12568 12576 12570 
1680 1382 1713 1383 12344 12572 12575 12346 10436 12577 
1713 1382 1416 1383 12572 10661 12573 12577 10436 10662 
1383 1416 1714 1417 10662 12578 12579 10668 10670 12580 
1680 1714 1681 1383 12581 12582 12356 12346 12579 12351 
1383 1416 1713 1714 10662 12573 12577 12579 12578 12583 
1680 1714 1383 1713 12581 12579 12346 12575 12583 12577 
1681 1383 1714 1384 12351 12579 12582 12353 10443 12584 
1714 1383 1417 1384 12579 10668 12580 12584 10443 10669 
1384 1417 1715 1418 10669 12585 12586 10675 10677 12587 
1681 1715 1682 1384 12588 12589 12363 12353 12586 12358 
1384 1417 1714 1715 10669 12580 12584 12586 12585 12590 
1681 1715 1384 1714 12588 12586 12353 12582 12590 12584 
1682 1384 1715 1385 12358 12586 12589 12360 10450 12591 
1715 1384 1418 1385 12586 10675 12587 12591 10450 10676 
1386 1419 1717 1420 10687 12592 12593 10682 10686 12594 
1683 1717 1684 1386 12595 12596 12372 12370 12593 12365 
1386 1419 1716 1717 10687 12597 12598 12593 12592 12599 
1683 1717 1386 1716 12595 12593 12370 12600 12599 12598 
1684 1386 1717 1387 12365 12593 12596 12367 10459 12601 
1717 1386 1420 1387 12593 10682 12594 12601 10459 10683 
1387 1420 1718 1421 10683 12602 12603 10692 10694 12604 
1684 1718 1685 1387 12605 12606 12380 12367 12603 12375 
1387 1420 1717 1718 10683 12594 12601 12603 12602 12607 
1684 1718 1387 1717 12605 12603 12367 12596 12607 12601 
1685 1387 1718 1388 12375 12603 12606 12377 10467 12608 
1718 1387 1421 1388 12603 10692 12604 12608 10467 10693 
1388 1421 1719 1422 10693 12609 12610 10699 10701 12611 
1685 1719 1686 1388 12612 12613 12387 12377 12610 12382 
1388 1421 1718 1719 10693 12604 12608 12610 12609 12614 
1685 1719 1388 1718 12612 12610 12377 12606 12614 12608 
1686 1388 1719 1389 12382 12610 12613 12384 10474 12615 
1719 1388 1422 1389 12610 10699 12611 12615 10474 10700 
1389 1422 1720 1423 10700 12616 12617 10706 10708 12618 
1686 1720 1687 1389 12619 12620 12394 12384 12617 12389 
1389 1422 1719 1720 10700 12611 12615 12617 12616 12621 
1686 1720 1389 1719 12619 12617 12384 12613 12621 12615 
1687 1389 1720 1390 12389 12617 12620 12391 10481 12622 
1720 1389 1423 1390 12617 10706 12618 12622 10481 10707 
1390 1423 1721 1424 10707 12623 12624 10713 10715 12625 
1687 1721 1688 1390 12626 12627 12401 12391 12624 12396 
1390 1423 1720 1721 10707 12618 12622 12624 12623 12628 
1687 1721 1390 1720 12626 12624 12391 12620 12628 12622 
1688 1390 1721 1391 12396 12624 12627 12398 10488 12629 
1721 1390 1424 1391 12624 10713 12625 12629 10488 10714 
1391 1424 1722 1425 10714 12630 12631 10720 10722 12632 
1688 1722 1689 1391 12633 12634 12408 12398 12631 12403 
1391 1424 1721 1722 10714 12625 12629 12631 12630 12635 
1688 1722 1391 1721 12633 12631 12398 12627 12635 12629 
1689 1391 1722 1392 12403 12631 12634 12405 10495 12636 
1722 1391 1425 1392 12631 10720 12632 12636 10495 10721 
1392 1425 1723 1426 10721 12637 12638 10727 10729 12639 
1689 1723 1690 1392 12640 12641 12415 12405 12638 12410 
1392 1425 1722 1723 10721 12632 12636 12638 12637 12642 
1689 1723 1392 1722 12640 12638 12405 12634 12642 12636 
1690 1392 1723 1393 12410 12638 12641 12412 10502 12643 
1723 1392 1426 1393 12638 10727 12639 12643 10502 10728 
1393 1426 1724 1427 10728 12644 12645 10734 10736 12646 
1690 1724 1691 1393 12647 12648 12422 12412 12645 12417 
1393 1426 1723 1724 10728 12639 12643 12645 12644 12649 
1690 1724 1393 1723 12647 12645 12412 12641 12649 12643 
1691 1393 1724 1394 12417 12645 12648 12419 10509 12650 
1724 1393 1427 1394 12645 10734 12646 12650 10509 10735 
1394 1427 1725 1428 10735 12651 12652 10741 10743 12653 
1691 1725 1692 1394 12654 12655 12429 12419 12652 12424 
1394 1427 1724 1725 10735 12646 12650 12652 12651 12656 
1691 1725 1394 1724 12654 12652 12419 12648 12656 12650 
1692 1394 1725 1395 12424 12652 12655 12426 10516 12657 
1725 1394 1428 1395 12652 10741 12653 12657 10516 10742 
1395 1428 1726 1429 10742 12658 12659 10748 10750 12660 
1692 1726 1693 1395 12661 12662 12436 12426 12659 12431 
1395 1428 1725 1726 10742 12653 12657 12659 12658 12663 
1692 1726 1395 1725 12661 12659 12426 12655 12663 12657 
1693 1395 1726 1396 12431 12659 12662 12433 10523 12664 
1726 1395 1429 1396 12659 10748 12660 12664 10523 10749 
1396 1429 1727 1430 10749 12665 12666 10755 10757 12667 
1693 1727 1694 1396 12668 12669 12443 12433 12666 12438 
1396 1429 1726 1727 10749 12660 12664 12666 12665 12670 
1693 1727 1396 1726 12668 12666 12433 12662 12670 12664 
1694 1396 1727 1397 12438 12666 12669 12440 10530 12671 
1727 1396 1430 1397 12666 10755 12667 12671 10530 10756 
1397 1430 1728 1431 10756 12672 12673 10762 10764 12674 
1694 1728 1695 1397 12675 12676 12450 12440 12673 12445 
1397 1430 1727 1728 10756 12667 12671 12673 12672 12677 
1694 1728 1397 1727 12675 12673 12440 12669 12677 12671 
1695 1397 1728 1398 12445 12673 12676 12447 10537 12678 
1728 1397 1431 1398 12673 10762 12674 12678 10537 10763 
1398 1431 1729 1432 10763 12679 12680 10769 10771 12681 
1695 1729 1696 1398 12682 12683 12457 12447 12680 12452 
1398 1431 1728 1729 10763 12674 12678 12680 12679 12684 
1695 1729 1398 1728 12682 12680 12447 12676 12684 12678 
1696 1398 1729 1399 12452 12680 12683 12454 10544 12685 
1729 1398 1432 1399 12680 10769 12681 12685 10544 10770 
1399 1432 1730 1433 10770 12686 12687 10776 10778 12688 
1696 1730 1697 1399 12689 12690 12464 12454 12687 12459 
1399 1432 1729 1730 10770 12681 12685 12687 12686 12691 
1696 1730 1399 1729 12689 12687 12454 12683 12691 12685 
1697 1399 1730 1400 12459 12687 12690 12461 10551 12692 
1730 1399 1433 1400 12687 10776 12688 12692 10551 10777 
1400 1433 1731 1434 10777 12693 12694 10783 10785 12695 
1697 1731 1698 1400 12696 12697 12471 12461 12694 12466 
1400 1433 1730 1731 10777 12688 12692 12694 12693 12698 
1697 1731 1400 1730 12696 12694 12461 12690 12698 12692 
1698 1400 1731 1401 12466 12694 12697 12468 10558 12699 
1731 1400 1434 1401 12694 10783 12695 12699 10558 10784 
1401 1434 1732 1435 10784 12700 12701 10790 10792 12702 
1698 1732 1699 1401 12703 12704 12478 12468 12701 12473 
1401 1434 1731 1732 10784 12695 12699 12701 12700 12705 
1698 1732 1401 1731 12703 12701 12468 12697 12705 12699 
1699 1401 1732 1402 12473 12701 12704 12475 10565 12706 
1732 1401 1435 1402 12701 10790 12702 12706 10565 10791 
1402 1435 1733 1436 10791 12707 12708 10797 10799 12709 
1699 1733 1700 1402 12710 12711 12485 12475 12708 12480 
1402 1435 1732 1733 10791 12702 12706 12708 12707 12712 
1699 1733 1402 1732 12710 12708 12475 12704 12712 12706 
1700 1402 1733 1403 12480 12708 12711 12482 10572 12713 
1733 1402 1436 1403 12708 10797 12709 12713 10572 10798 
1403 1436 1734 1437 10798 12714 12715 10804 10806 12716 
1700 1734 1701 1403 12717 12718 12492 12482 12715 12487 
1403 1436 1733 1734 10798 12709 12713 12715 12714 12719 
1700 1734 1403 1733 12717 12715 12482 12711 12719 12713 
1701 1403 1734 1404 12487 12715 12718 12489 10579 12720 
1734 1403 1437 1404 12715 10804 12716 12720 10579 10805 
1404 1437 1735 1438 10805 12721 12722 10811 10813 12723 
1701 1735 1702 1404 12724 12725 12499 12489 12722 12494 
1404 1437 1734 1735 10805 12716 12720 12722 12721 12726 
1701 1735 1404 1734 12724 12722 12489 12718 12726 12720 
1702 1404 1735 1405 12494 12722 12725 12496 10586 12727 
1735 1404 1438 1405 12722 10811 12723 12727 10586 10812 
1405 1438 1736 1439 10812 12728 12729 10818 10820 12730 
1702 1736 1703 1405 12731 12732 12506 12496 12729 12501 
1405 1438 1735 1736 10812 12723 12727 12729 12728 12733 
1702 1736 1405 1735 12731 12729 12496 12725 12733 12727 
1703 1405 1736 1406 12501 12729 12732 12503 10593 12734 
1736 1405 1439 1406 12729 10818 12730 12734 10593 10819 
1406 1439 1737 1440 10819 12735 12736 10825 10827 12737 
1703 1737 1704 1406 12738 12739 12513 12503 12736 12508 
1406 1439 1736 1737 10819 12730 12734 12736 12735 12740 
1703 1737 1406 1736 12738 12736 12503 12732 12740 12734 
1704 1406 1737 1407 12508 12736 12739 12510 10600 12741 
1737 1406 1440 1407 12736 10825 12737 12741 10600 10826 
1407 1440 1738 1441 10826 12742 12743 10832 10834 12744 
1704 1738 1705 1407 12745 12746 12520 12510 12743 12515 
1407 1440 1737 1738 10826 12737 12741 12743 12742 12747 
1704 1738 1407 1737 12745 12743 12510 12739 12747 12741 
1705 1407 1738 1408 12515 12743 12746 12517 10607 12748 
1738 1407 1441 1408 12743 10832 12744 12748 10607 10833 
1408 1441 1739 1442 10833 12749 12750 10839 10841 12751 
1705 1739 1706 1408 12752 12753 12527 12517 12750 12522 
1408 1441 1738 1739 10833 12744 12748 12750 12749 12754 
1705 1739 1408 1738 12752 12750 12517 12746 12754 12748 
1706 1408 1739 1409 12522 12750 12753 12524 10614 12755 
1739 1408 1442 1409 12750 10839 12751 12755 10614 10840 
1409 1442 1740 1443 10840 12756 12757 10846 10848 12758 
1706 1740 1707 1409 12759 12760 12534 12524 12757 12529 
1409 1442 1739 1740 10840 12751 12755 12757 12756 12761 
1706 1740 1409 1739 12759 12757 12524 12753 12761 12755 
1707 1409 1740 1410 12529 12757 12760 12531 10621 12762 
1740 1409 1443 1410 12757 10846 12758 12762 10621 10847 
1410 1443 1741 1444 10847 12763 12764 10853 10855 12765 
1707 1741 1708 1410 12766 12767 12541 12531 12764 12536 
1410 1443 1740 1741 10847 12758 12762 12764 12763 12768 
1707 1741 1410 1740 12766 12764 12531 12760 12768 12762 
1708 1410 1741 1411 12536 12764 12767 12538 10628 12769 
1741 1410 1444 1411 12764 10853 12765 12769 10628 10854 
1411 1444 1742 1445 10854 12770 12771 10860 10862 12772 
1708 1742 1709 1411 12773 12774 12548 12538 12771 12543 
1411 1444 1741 1742 10854 12765 12769 12771 12770 12775 
1708 1742 1411 1741 12773 12771 12538 12767 12775 12769 
1709 1411 1742 1412 12543 12771 12774 12545 10635 12776 
1742 1411 1445 1412 12771 10860 12772 12776 10635 10861 
1412 1445 1743 1446 10861 12777 12778 10867 10869 12779 
1709 1743 1710 1412 12780 12781 12555 12545 12778 12550 
1412 1445 1742 1743 10861 12772 12776 12778 12777 12782 
1709 1743 1412 1742 12780 12778 12545 12774 12782 12776 
1710 1412 1743 1413 12550 12778 12781 12552 10642 12783 
1743 1412 1446 1413 12778 10867 12779 12783 10642 10868 
1413 1446 1744 1447 10868 12784 12785 10874 10876 12786 
1710 1744 1711 1413 12787 12788 12562 12552 12785 12557 
1413 1446 1743 1744 10868 12779 12783 12785 12784 12789 
1710 1744 1413 1743 12787 12785 12552 12781 12789 12783 
1711 1413 1744 1414 12557 12785 12788 12559 10649 12790 
1744 1413 1447 1414 12785 10874 12786 12790 10649 10875 
1414 1447 1745 1448 10875 12791 12792 10881 10883 12793 
1711 1745 1712 1414 12794 12795 12569 12559 12792 12564 
1414 1447 1744 1745 10875 12786 12790 12792 12791 12796 
1711 1745 1414 1744 12794 12792 12559 12788 12796 12790 
1712 1414 1745 1415 12564 12792 12795 12566 10656 12797 
1745 1414 1448 1415 12792 10881 12793 12797 10656 10882 
1415 1448 1746 1449 10882 12798 12799 10888 10890 12800 
1712 1746 1713 1415 12801 12802 12576 12566 12799 12571 
1415 1448 1745 1746 10882 12793 12797 12799 12798 12803 
1712 1746 1415 1745 12801 12799 12566 12795 12803 12797 
1713 1415 1746 1416 12571 12799 12802 12573 10663 12804 
1746 1415 1449 1416 12799 10888 12800 12804 10663 10889 
1416 1449 1747 1450 10889 12805 12806 10895 10897 12807 
1713 1747 1714 1416 12808 12809 12583 12573 12806 12578 
1416 1449 1746 1747 10889 12800 12804 12806 12805 12810 
1713 1747 1416 1746 12808 12806 12573 12802 12810 12804 
1714 1416 1747 1417 12578 12806 12809 12580 10670 12811 
1747 1416 1450 1417 12806 10895 12807 12811 10670 10896 
1417 1450 1748 1451 10896 12812 12813 10902 10904 12814 
1714 1748 1715 1417 12815 12816 12590 12580 12813 12585 
1417 1450 1747 1748 10896 12807 12811 12813 12812 12817 
1714 1748 1417 1747 12815 12813 12580 12809 12817 12811 
1715 1417 1748 1418 12585 12813 12816 12587 10677 12818 
1748 1417 1451 1418 12813 10902 12814 12818 10677 10903 
1419 1452 1750 1453 10914 12819 12820 10909 10913 12821 
1716 1750 1717 1419 12822 12823 12599 12597 12820 12592 
1419 1452 1749 1750 10914 12824 12825 12820 12819 12826 
1716 1750 1419 1749 12822 12820 12597 12827 12826 12825 
1717 1419 1750 1420 12592 12820 12823 12594 10686 12828 
1750 1419 1453 1420 12820 10909 12821 12828 10686 10910 
1420 1453 1751 1454 10910 12829 12830 10919 10921 12831 
1717 1751 1718 1420 12832 12833 12607 12594 12830 12602 
1420 1453 1750 1751 10910 12821 12828 12830 12829 12834 
1717 1751 1420 1750 12832 12830 12594 12823 12834 12828 
1718 1420 1751 1421 12602 12830 12833 12604 10694 12835 
1751 1420 1454 1421 12830 10919 12831 12835 10694 10920 
1421 1454 1752 1455 10920 12836 12837 10926 10928 12838 
1718 1752 1719 1421 12839 12840 12614 12604 12837 12609 
1421 1454 1751 1752 10920 12831 12835 12837 12836 12841 
1718 1752 1421 1751 12839 12837 12604 12833 12841 12835 
1719 1421 1752 1422 12609 12837 12840 12611 10701 12842 
1752 1421 1455 1422 12837 10926 12838 12842 10701 10927 
1422 1455 1753 1456 10927 12843 12844 10933 10935 12845 
1719 1753 1720 1422 12846 12847 12621 12611 12844 12616 
1422 1455 1752 1753 10927 12838 12842 12844 12843 12848 
1719 1753 1422 1752 12846 12844 12611 12840 12848 12842 
1720 1422 1753 1423 12616 12844 12847 12618 10708 12849 
1753 1422 1456 1423 12844 10933 12845 12849 10708 10934 
1423 1456 1754 1457 10934 12850 12851 10940 10942 12852 
1720 1754 1721 1423 12853 12854 12628 12618 12851 12623 
1423 1456 1753 1754 10934 12845 12849 12851 12850 12855 
1720 1754 1423 1753 12853 12851 12618 12847 12855 12849 
1721 1423 1754 1424 12623 12851 12854 12625 10715 12856 
1754 1423 1457 1424 12851 10940 12852 12856 10715 10941 
1424 1457 1755 1458 10941 12857 12858 10947 10949 12859 
1721 1755 1722 1424 12860 12861 12635 12625 12858 12630 
1424 1457 1754 1755 10941 12852 12856 12858 12857 12862 
1721 1755 1424 1754 12860 12858 12625 12854 12862 12856 
1722 1424 1755 1425 12630 12858 12861 12632 10722 12863 
1755 1424 1458 1425 12858 10947 12859 12863 10722 10948 
1425 1458 1756 1459 10948 12864 12865 10954 10956 12866 
1722 1756 1723 1425 12867 12868 12642 12632 12865 12637 
1425 1458 1755 1756 10948 12859 12863 12865 12864 12869 
1722 1756 1425 1755 12867 12865 12632 12861 12869 12863 
1723 1425 1756 1426 12637 12865 12868 12639 10729 12870 
1756 1425 1459 1426 12865 10954 12866 12870 10729 10955 
1426 1459 1757 1460 10955 12871 12872 10961 10963 12873 
1723 1757 1724 1426 12874 12875 12649 12639 12872 12644 
1426 1459 1756 1757 10955 12866 12870 12872 12871 12876 
1723 1757 1426 1756 12874 12872 12639 12868 12876 12870 
1724 1426 1757 1427 12644 12872 12875 12646 10736 12877 
1757 1426 1460 1427 12872 10961 12873 12877 10736 10962 
1427 1460 1758 1461 10962 12878 12879 10968 10970 12880 
1724 1758 1725 1427 12881 12882 12656 12646 12879 12651 
1427 1460 1757 1758 10962 12873 12877 12879 12878 12883 
1724 1758 1427 1757 12881 12879 12646 12875 12883 12877 
1725 1427 1758 1428 12651 12879 12882 12653 10743 12884 
1758 1427 1461 1428 12879 10968 12880 12884 10743 10969 
1428 1461 1759 1462 10969 12885 12886 10975 10977 12887 
1725 1759 1726 1428 12888 12889 12663 12653 12886 12658 
1428 1461 1758 1759 10969 12880 12884 12886 12885 12890 
1725 1759 1428 1758 12888 12886 12653 12882 12890 12884 
1726 1428 1759 1429 12658 12886 12889 12660 10750 12891 
1759 1428 1462 1429 12886 10975 12887 12891 10750 10976 
1429 1462 1760 1463 10976 12892 12893 10982 10984 12894 
1726 1760 1727 1429 12895 12896 12670 12660 12893 12665 
1429 1462 1759 1760 10976 12887 12891 12893 12892 12897 
1726 1760 1429 1759 12895 12893 12660 12889 12897 12891 
1727 1429 1760 1430 12665 12893 12896 12667 10757 12898 
1760 1429 1463 1430 12893 10982 12894 12898 10757 10983 
1430 1463 1761 1464 10983 12899 12900 10989 10991 12901 
1727 1761 1728 1430 12902 12903 12677 12667 12900 12672 
1430 1463 1760 1761 10983 12894 12898 12900 12899 12904 
1727 1761 1430 1760 12902 12900 12667 12896 12904 12898 
1728 1430 1761 1431 12672 12900 12903 12674 10764 12905 
1761 1430 1464 1431 12900 10989 12901 12905 10764 10990 
1431 1464 1762 1465 10990 12906 12907 10996 10998 12908 
1728 1762 1729 1431 12909 12910 12684 12674 12907 12679 
1431 1464 1761 1762 10990 12901 12905 12907 12906 12911 
1728 1762 1431 1761 12909 12907 12674 12903 12911 12905 
1729 1431 1762 1432 12679 12907 12910 12681 10771 12912 
1762 1431 1465 1432 12907 10996 12908 12912 10771 10997 
1432 1465 1763 1466 10997 12913 12914 11003 11005 12915 
1729 1763 1730 1432 12916 12917 12691 12681 12914 12686 
1432 1465 1762 1763 10997 12908 12912 12914 12913 12918 
1729 1763 1432 1762 12916 12914 12681 12910 12918 12912 
1730 1432 1763 1433 12686 12914 12917 12688 10778 12919 
1763 1432 1466 1433 12914 11003 12915 12919 10778 11004 
1433 1466 1764 1467 11004 12920 12921 11010 11012 12922 
1730 1764 1731 1433 12923 12924 12698 12688 12921 12693 
1433 1466 1763 1764 11004 12915 12919 12921 12920 12925 
1730 1764 1433 1763 12923 12921 12688 12917 12925 12919 
1731 1433 1764 1434 12693 12921 12924 12695 10785 12926 
1764 1433 1467 1434 12921 11010 12922 12926 10785 11011 
1434 1467 1765 1468 11011 12927 12928 11017 11019 12929 
1731 1765 1732 1434 12930 12931 12705 12695 12928 12700 
1434 1467 1764 1765 11011 12922 12926 12928 12927 12932 
1731 1765 1434 1764 12930 12928 12695 12924 12932 12926 
1732 1434 1765 1435 12700 12928 12931 12702 10792 12933 
1765 1434 1468 1435 12928 11017 12929 12933 10792 11018 
1435 1468 1766 1469 11018 12934 12935 11024 11026 12936 
1732 1766 1733 1435 12937 12938 12712 12702 12935 12707 
1435 1468 1765 1766 11018 12929 12933 12935 12934 12939 
1732 1766 1435 1765 12937 12935 12702 12931 12939 12933 
1733 1435 1766 1436 12707 12935 12938 12709 10799 12940 
1766 1435 1469 1436 12935 11024 12936 12940 10799 11025 
1436 1469 1767 1470 11025 12941 12942 11031 11033 12943 
1733 1767 1734 1436 12944 12945 12719 12709 12942 12714 
1436 1469 1766 1767 11025 12936 12940 12942 12941 12946 
1733 1767 1436 1766 12944 12942 12709 12938 12946 12940 
1734 1436 1767 1437 12714 12942 12945 12716 10806 12947 
1767 1436 1470 1437 12942 11031 12943 12947 10806 11032 
1437 1470 1768 1471 11032 12948 12949 11038 11040 12950 
1734 1768 1735 1437 12951 12952 12726 12716 12949 12721 
1437 1470 1767 1768 11032 12943 12947 12949 12948 12953 
1734 1768 1437 1767 12951 12949 12716 12945 12953 12947 
1735 1437 1768 1438 12721 12949 12952 12723 10813 12954 
1768 1437 1471 1438 12949 11038 12950 12954 10813 11039 
1438 1471 1769 1472 11039 12955 12956 11045 11047 12957 
1735 1769 1736 1438 12958 12959 12733 12723 12956 12728 
1438 1471 1768 1769 11039 12950 12954 12956 12955 12960 
1735 1769 1438 1768 12958 12956 12723 12952 12960 12954 
1736 1438 1769 1439 12728 12956 12959 12730 10820 12961 
1769 1438 1472 1439 12956 11045 12957 12961 10820 11046 
1439 1472 1770 1473 11046 12962 12963 11052 11054 12964 
1736 1770 1737 1439 12965 12966 12740 12730 12963 12735 
1439 1472 1769 1770 11046 12957 12961 12963 12962 12967 
1736 1770 1439 1769 12965 12963 12730 12959 12967 12961 
1737 1439 1770 1440 12735 12963 12966 12737 10827 12968 
1770 1439 1473 1440 12963 11052 12964 12968 10827 11053 
1440 1473 1771 1474 11053 12969 12970 11059 11061 12971 
1737 1771 1738 1440 12972 12973 12747 12737 12970 12742 
1440 1473 1770 1771 11053 12964 12968 12970 12969 12974 
1737 1771 1440 1770 12972 12970 12737 12966 12974 12968 
1738 1440 1771 1441 12742 12970 12973 12744 10834 12975 
1771 1440 1474 1441 12970 11059 12971 12975 10834 11060 
1441 1474 1772 1475 11060 12976 12977 11066 11068 12978 
1738 1772 1739 1441 12979 12980 12754 12744 12977 12749 
1441 1474 1771 1772 11060 12971 12975 12977 12976 12981 
1738 1772 1441 1771 12979 12977 12744 12973 12981 12975 
1739 1441 1772 1442 12749 12977 12980 12751 10841 12982 
1772 1441 1475 1442 12977 11066 12978 12982 10841 11067 
1442 1475 1773 1476 11067 12983 12984 11073 11075 12985 
1739 1773 1740 1442 12986 12987 12761 12751 12984 12756 
1442 1475 1772 1773 11067 12978 12982 12984 12983 12988 
1739 1773 1442 1772 12986 12984 12751 12980 12988 12982 
1740 1442 1773 1443 12756 12984 12987 12758 10848 12989 
1773 1442 1476 1443 12984 11073 12985 12989 10848 11074 
1443 1476 1774 1477 11074 12990 12991 11080 11082 12992 
1740 1774 1741 1443 12993 12994 12768 12758 12991 12763 
1443 1476 1773 1774 11074 12985 12989 12991 12990 12995 
1740 1774 1443 1773 12993 12991 12758 12987 12995 12989 
1741 1443 1774 1444 12763 12991 12994 12765 10855 12996 
1774 1443 1477 1444 12991 11080 12992 12996 10855 11081 
1444 1477 1775 1478 11081 12997 12998 11087 11089 12999 
1741 1775 1742 1444 13000 13001 12775 12765 12998 12770 
1444 1477 1774 1775 11081 12992 12996 12998 12997 13002 
1741 1775 1444 1774 13000 12998 12765 12994 13002 12996 
1742 1444 1775 1445 12770 12998 13001 12772 10862 13003 
1775 1444 1478 1445 12998 11087 12999 13003 10862 11088 
1445 1478 1776 1479 11088 13004 13005 11094 11096 13006 
1742 1776 1743 1445 13007 13008 12782 12772 13005 12777 
1445 1478 1775 1776 11088 12999 13003 13005 13004 13009 
1742 1776 1445 1775 13007 13005 12772 13001 13009 13003 
1743 1445 1776 1446 12777 13005 13008 12779 10869 13010 
1776 1445 1479 1446 13005 11094 13006 13010 10869 11095 
1446 1479 1777 1480 11095 13011 13012 11101 11103 13013 
1743 1777 1744 1446 13014 13015 12789 12779 13012 12784 
1446 1479 1776 1777 11095 13006 13010 13012 13011 13016 
1743 1777 1446 1776 13014 13012 12779 13008 13016 13010 
1744 1446 1777 1447 12784 13012 13015 12786 10876 13017 
1777 1446 1480 1447 13012 11101 13013 13017 10876 11102 
1447 1480 1778 1481 11102 13018 13019 11108 11110 13020 
1744 1778 1745 1447 13021 13022 12796 12786 13019 12791 
1447 1480 1777 1778 11102 13013 13017 13019 13018 13023 
1744 1778 1447 1777 13021 13019 12786 13015 13023 13017 
1745 1447 1778 1448 12791 13019 13022 12793 10883 13024 
1778 1447 1481 1448 13019 11108 13020 13024 10883 11109 
1448 1481 1779 1482 11109 13025 13026 11115 11117 13027 
1745 1779 1746 1448 13028 13029 12803 12793 13026 12798 
1448 1481 1778 1779 11109 13020 13024 13026 13025 13030 
1745 1779 1448 1778 13028 13026 12793 13022 13030 13024 
1746 1448 1779 1449 12798 13026 13029 12800 10890 13031 
1779 1448 1482 1449 13026 11115 13027 13031 10890 11116 
1449 1482 1780 1483 11116 13032 13033 11122 11124 13034 
1746 1780 1747 1449 13035 13036 12810 12800 13033 12805 
1449 1482 1779 1780 11116 13027 13031 13033 13032 13037 
1746 1780 1449 1779 13035 13033 12800 13029 13037 13031 
1747 1449 1780 1450 12805 13033 13036 12807 10897 13038 
1780 1449 1483 1450 13033 11122 13034 13038 10897 11123 
1450 1483 1781 1484 11123 13039 13040 11129 11131 13041 
1747 1781 1748 1450 13042 13043 12817 12807 13040 12812 
1450 1483 1780 1781 11123 13034 13038 13040 13039 13044 
1747 1781 1450 1780 13042 13040 12807 13036 13044 13038 
1748 1450 1781 1451 12812 13040 13043 12814 10904 13045 
1781 1450 1484 1451 13040 11129 13041 13045 10904 11130 
1485 1518 1816 1519 11144 13046 13047 11136 11143 13048 
1782 1816 1783 1485 13049 13050 13051 13052 13047 13053 
1485 1518 1815 1816 11144 13054 13055 13047 13046 13056 
1782 1816 1485 1815 13049 13047 13052 13057 13056 13055 
1783 1485 1816 1486 13053 13047 13050 13058 11138 13059 
1816 1485 1519 1486 13047 11136 13048 13059 11138 11137 
1486 1519 1817 1520 11137 13060 13061 11150 11154 13062 
1783 1817 1784 1486 13063 13064 13065 13058 13061 13066 
1486 1519 1816 1817 11137 13048 13059 13061 13060 13067 
1783 1817 1486 1816 13063 13061 13058 13050 13067 13059 
1784 1486 1817 1487 13066 13061 13064 13068 11152 13069 
1817 1486 1520 1487 13061 11150 13062 13069 11152 11151 
1487 1520 1818 1521 11151 13070 13071 11160 11164 13072 
1784 1818 1785 1487 13073 13074 13075 13068 13071 13076 
1487 1520 1817 1818 11151 13062 13069 13071 13070 13077 
1784 1818 1487 1817 13073 13071 13068 13064 13077 13069 
1785 1487 1818 1488 13076 13071 13074 13078 11162 13079 
1818 1487 1521 1488 13071 11160 13072 13079 11162 11161 
1488 1521 1819 1522 11161 13080 13081 11170 11174 13082 
1785 1819 1786 1488 13083 13084 13085 13078 13081 13086 
1488 1521 1818 1819 11161 13072 13079 13081 13080 13087 
1785 1819 1488 1818 13083 13081 13078 13074 13087 13079 
1786 1488 1819 1489 13086 13081 13084 13088 11172 13089 
1819 1488 1522 1489 13081 11170 13082 13089 11172 11171 
1489 1522 1820 1523 11171 13090 13091 11180 11184 13092 
1786 1820 1787 1489 13093 13094 13095 13088 13091 13096 
1489 1522 1819 1820 11171 13082 13089 13091 13090 13097 
1786 1820 1489 1819 13093 13091 13088 13084 13097 13089 
1787 1489 1820 1490 13096 13091 13094 13098 11182 13099 
1820 1489 1523 1490 13091 11180 13092 13099 11182 11181 
1490 1523 1821 1524 11181 13100 13101 11190 11194 13102 
1787 1821 1788 1490 13103 13104 13105 13098 13101 13106 
1490 1523 1820 1821 11181 13092 13099 13101 13100 13107 
1787 1821 1490 1820 13103 13101 13098 13094 13107 13099 
1788 1490 1821 1491 13106 13101 13104 13108 11192 13109 
1821 1490 1524 1491 13101 11190 13102 13109 11192 11191 
1491 1524 1822 1525 11191 13110 13111 11200 11204 13112 
1788 1822 1789 1491 13113 13114 13115 13108 13111 13116 
1491 1524 1821 1822 11191 13102 13109 13111 13110 13117 
1788 1822 1491 1821 13113 13111 13108 13104 13117 13109 
1789 1491 1822 1492 13116 13111 13114 13118 11202 13119 
1822 1491 1525 1492 13111 11200 13112 13119 11202 11201 
1492 1525 1823 1526 11201 13120 13121 11210 11214 13122 
1789 1823 1790 1492 13123 13124 13125 13118 13121 13126 
1492 1525 1822 1823 11201 13112 13119 13121 13120 13127 
1789 1823 1492 1822 13123 13121 13118 13114 13127 13119 
1790 1492 1823 1493 13126 13121 13124 13128 11212 13129 
1823 1492 1526 1493 13121 11210 13122 13129 11212 11211 
1493 1526 1824 1527 11211 13130 13131 11220 11224 13132 
1790 1824 1791 1493 13133 13134 13135 13128 13131 13136 
1493 1526 1823 1824 11211 13122 13129 13131 13130 13137 
1790 1824 1493 1823 13133 13131 13128 13124 13137 13129 
1791 1493 1824 1494 13136 13131 13134 13138 11222 13139 
1824 1493 1527 1494 13131 11220 13132 13139 11222 11221 
1494 1527 1825 1528 11221 13140 13141 11230 11234 13142 
1791 1825 1792 1494 13143 13144 13145 13138 13141 13146 
1494 1527 1824 1825 11221 13132 13139 13141 13140 13147 
1791 1825 1494 1824 13143 13141 13138 13134 13147 13139 
1792 1494 1825 1495 13146 13141 13144 13148 11232 13149 
1825 1494 1528 1495 13141 11230 13142 13149 11232 11231 
1495 1528 1826 1529 11231 13150 13151 11240 11244 13152 
1792 1826 1793 1495 13153 13154 13155 13148 13151 13156 
1495 1528 1825 1826 11231 13142 13149 13151 13150 13157 
1792 1826 1495 1825 13153 13151 13148 13144 13157 13149 
1793 1495 1826 1496 13156 13151 13154 13158 11242 13159 
1826 1495 1529 1496 13151 11240 13152 13159 11242 11241 
1496 1529 1827 1530 11241 13160 13161 11250 11254 13162 
1793 1827 1794 1496 13163 13164 13165 13158 13161 13166 
1496 1529 1826 1827 11241 13152 13159 13161 13160 13167 
1793 1827 1496 1826 13163 13161 13158 13154 13167 13159 
1794 1496 1827 1497 13166 13161 13164 13168 11252 13169 
1827 1496 1530 1497 13161 11250 13162 13169 11252 11251 
1497 1530 1828 1531 11251 13170 13171 11260 11264 13172 
1794 1828 1795 1497 13173 13174 13175 13168 13171 13176 
1497 1530 1827 1828 11251 13162 13169 13171 13170 13177 
1794 1828 1497 1827 13173 13171 13168 13164 13177 13169 
1795 1497 1828 1498 13176 13171 13174 13178 11262 13179 
1828 1497 1531 1498 13171 11260 13172 13179 11262 11261 
1498 1531 1829 1532 11261 13180 13181 11270 11274 13182 
1795 1829 1796 1498 13183 13184 13185 13178 13181 13186 
1498 1531 1828 1829 11261 13172 13179 13181 13180 13187 
1795 1829 1498 1828 13183 13181 13178 13174 13187 13179 
1796 1498 1829 1499 13186 13181 13184 13188 11272 13189 
1829 1498 1532 1499 13181 11270 13182 13189 11272 11271 
1499 1532 1830 1533 11271 13190 13191 11280 11284 13192 
1796 1830 1797 1499 13193 13194 13195 13188 13191 13196 
1499 1532 1829 1830 11271 13182 13189 13191 13190 13197 
1796 1830 1499 1829 13193 13191 13188 13184 13197 13189 
1797 1499 1830 1500 13196 13191 13194 13198 11282 13199 
1830 1499 1533 1500 13191 11280 13192 13199 11282 11281 
1500 1533 1831 1534 11281 13200 13201 11290 11294 13202 
1797 1831 1798 1500 13203 13204 13205 13198 13201 13206 
1500 1533 1830 1831 11281 13192 13199 13201 13200 13207 
1797 1831 1500 1830 13203 13201 13198 13194 13207 13199 
1798 1500 1831 1501 13206 13201 13204 13208 11292 13209 
1831 1500 1534 1501 13201 11290 13202 13209 11292 11291 
1501 1534 1832 1535 11291 13210 13211 11300 11304 13212 
1798 1832 1799 1501 13213 13214 13215 13208 13211 13216 
1501 1534 1831 1832 11291 13202 13209 13211 13210 13217 
1798 1832 1501 1831 13213 13211 13208 13204 13217 13209 
1799 1501 1832 1502 13216 13211 13214 13218 11302 13219 
1832 1501 1535 1502 13211 11300 13212 13219 11302 11301 
1502 1535 1833 1536 11301 13220 13221 11310 11314 13222 
1799 1833 1800 1502 13223 13224 13225 13218 13221 13226 
1502 1535 1832 1833 11301 13212 13219 13221 13220 13227 
1799 1833 1502 1832 13223 13221 13218 13214 13227 13219 
1800 1502 1833 1503 13226 13221 13224 13228 11312 13229 
1833 1502 1536 1503 13221 11310 13222 13229 11312 11311 
1503 1536 1834 1537 11311 13230 13231 11320 11324 13232 
1800 1834 1801 1503 13233 13234 13235 13228 13231 13236 
1503 1536 1833 1834 11311 13222 13229 13231 13230 13237 
1800 1834 1503 1833 13233 13231 13228 13224 13237 13229 
1801 1503 1834 1504 13236 13231 13234 13238 11322 13239 
1834 1503 1537 1504 13231 11320 13232 13239 11322 11321 
1504 1537 1835 1538 11321 13240 13241 11330 11334 13242 
1801 1835 1802 1504 13243 13244 13245 13238 13241 13246 
1504 1537 1834 1835 11321 13232 13239 13241 13240 13247 
1801 1835 1504 1834 13243 13241 13238 13234 13247 13239 
1802 1504 1835 1505 13246 13241 13244 13248 11332 13249 
1835 1504 1538 1505 13241 11330 13242 13249 11332 11331 
1505 1538 1836 1539 11331 13250 13251 11340 11344 13252 
1802 1836 1803 1505 13253 13254 13255 13248 13251 13256 
1505 1538 1835 1836 11331 13242 13249 13251 13250 13257 
1802 1836 1505 1835 13253 13251 13248 13244 13257 13249 
1803 1505 1836 1506 13256 13251 13254 13258 11342 13259 
1836 1505 1539 1506 13251 11340 13252 13259 11342 11341 
1506 1539 1837 1540 11341 13260 13261 11350 11354 13262 
1803 1837 1804 1506 13263 13264 13265 13258 13261 13266 
1506 1539 1836 1837 11341 13252 13259 13261 13260 13267 
1803 1837 1506 1836 13263 13261 13258 13254 13267 13259 
1804 1506 1837 1507 13266 13261 13264 13268 11352 13269 
1837 1506 1540 1507 13261 11350 13262 13269 11352 11351 
1507 1540 1838 1541 11351 13270 13271 11360 11364 13272 
1804 1838 1805 1507 13273 13274 13275 13268 13271 13276 
1507 1540 1837 1838 11351 13262 13269 13271 13270 13277 
1804 1838 1507 1837 13273 13271 13268 13264 13277 13269 
1805 1507 1838 1508 13276 13271 13274 13278 11362 13279 
1838 1507 1541 1508 13271 11360 13272 13279 11362 11361 
1508 1541 1839 1542 11361 13280 13281 11370 11374 13282 
1805 1839 1806 1508 13283 13284 13285 13278 13281 13286 
1508 1541 1838 1839 11361 13272 13279 13281 13280 13287 
1805 1839 1508 1838 13283 13281 13278 13274 13287 13279 
1806 1508 1839 1509 13286 13281 13284 13288 11372 13289 
1839 1508 1542 1509 13281 11370 13282 13289 11372 11371 
1509 1542 1840 1543 11371 13290 13291 11380 11384 13292 
1806 1840 1807 1509 13293 13294 13295 13288 13291 13296 
1509 1542 1839 1840 11371 13282 13289 13291 13290 13297 
1806 1840 1509 1839 13293 13291 13288 13284 13297 13289 
1807 1509 1840 1510 13296 13291 13294 13298 11382 13299 
1840 1509 1543 1510 13291 11380 13292 13299 11382 11381 
1510 1543 1841 1544 11381 13300 13301 11390 11394 13302 
1807 1841 1808 1510 13303 13304 13305 13298 13301 13306 
1510 1543 1840 1841 11381 13292 13299 13301 13300 13307 
1807 1841 1510 1840 13303 13301 13298 13294 13307 13299 
1808 1510 1841 1511 13306 13301 13304 13308 11392 13309 
1841 1510 1544 1511 13301 11390 13302 13309 11392 11391 
1511 1544 1842 1545 11391 13310 13311 11400 11404 13312 
1808 1842 1809 1511 13313 13314 13315 13308 13311 13316 
1511 1544 1841 1842 11391 13302 13309 13311 13310 13317 
1808 1842 1511 1841 13313 13311 13308 13304 13317 13309 
1809 1511 1842 1512 13316 13311 13314 13318 11402 13319 
1842 1511 1545 1512 13311 11400 13312 13319 11402 11401 
1512 1545 1843 1546 11401 13320 13321 11410 11414 13322 
1809 1843 1810 1512 13323 13324 13325 13318 13321 13326 
1512 1545 1842 1843 11401 13312 13319 13321 13320 13327 
1809 1843 1512 1842 13323 13321 13318 13314 13327 13319 
1810 1512 1843 1513 13326 13321 13324 13328 11412 13329 
1843 1512 1546 1513 13321 11410 13322 13329 11412 11411 
1513 1546 1844 1547 11411 13330 13331 11420 11424 13332 
1810 1844 1811 1513 13333 13334 13335 13328 13331 13336 
1513 1546 1843 1844 11411 13322 13329 13331 13330 13337 
1810 1844 1513 1843 13333 13331 13328 13324 13337 13329 
1811 1513 1844 1514 13336 13331 13334 13338 11422 13339 
1844 1513 1547 1514 13331 11420 13332 13339 11422 11421 
1514 1547 1845 1548 11421 13340 13341 11430 11434 13342 
1811 1845 1812 1514 13343 13344 13345 13338 13341 13346 
1514 1547 1844 1845 11421 13332 13339 13341 13340 13347 
1811 1845 1514 1844 13343 13341 13338 13334 13347 13339 
1812 1514 1845 1515 13346 13341 13344 13348 11432 13349 
1845 1514 1548 1515 13341 11430 13342 13349 11432 11431 
1515 1548 1846 1549 11431 13350 13351 11440 11444 13352 
1812 1846 1813 1515 13353 13354 13355 13348 13351 13356 
1515 1548 1845 1846 11431 13342 13349 13351 13350 13357 
1812 1846 1515 1845 13353 13351 13348 13344 13357 13349 
1813 1515 1846 1516 13356 13351 13354 13358 11442 13359 
1846 1515 1549 1516 13351 11440 13352 13359 11442 11441 
1516 1549 1847 1550 11441 13360 13361 11450 11454 13362 
1813 1847 1814 1516 13363 13364 13365 13358 13361 13366 
1516 1549 1846 1847 11441 13352 13359 13361 13360 13367 
1813 1847 1516 1846 13363 13361 13358 13354 13367 13359 
1814 1516 1847 1517 13366 13361 13364 13368 11452 13369 
1847 1516 1550 1517 13361 11450 13362 13369 11452 11451 
1518 1551 1849 1552 11465 13370 13371 11460 11464 13372 
1815 1849 1816 1518 13373 13374 13056 13054 13371 13046 
1518 1551 1848 1849 11465 13375 13376 13371 13370 13377 
1815 1849 1518 1848 13373 13371 13054 13378 13377 13376 
1816 1518 1849 1519 13046 13371 13374 13048 11143 13379 
1849 1518 1552 1519 13371 11460 13372 13379 11143 11461 
1519 1552 1850 1553 11461 13380 13381 11470 11472 13382 
1816 1850 1817 1519 13383 13384 13067 13048 13381 13060 
1519 1552 1849 1850 11461 13372 13379 13381 13380 13385 
1816 1850 1519 1849 13383 13381 13048 13374 13385 13379 
1817 1519 1850 1520 13060 13381 13384 13062 11154 13386 
1850 1519 1553 1520 13381 11470 13382 13386 11154 11471 
1520 1553 1851 1554 11471 13387 13388 11477 11479 13389 
1817 1851 1818 1520 13390 13391 13077 13062 13388 13070 
1520 1553 1850 1851 11471 13382 13386 13388 13387 13392 
1817 1851 1520 1850 13390 13388 13062 13384 13392 13386 
1818 1520 1851 1521 13070 13388 13391 13072 11164 13393 
1851 1520 1554 1521 13388 11477 13389 13393 11164 11478 
1521 1554 1852 1555 11478 13394 13395 11484 11486 13396 
1818 1852 1819 1521 13397 13398 13087 13072 13395 13080 
1521 1554 1851 1852 11478 13389 13393 13395 13394 13399 
1818 1852 1521 1851 13397 13395 13072 13391 13399 13393 
1819 1521 1852 1522 13080 13395 13398 13082 11174 13400 
1852 1521 1555 1522 13395 11484 13396 13400 11174 11485 
1522 1555 1853 1556 11485 13401 13402 11491 11493 13403 
1819 1853 1820 1522 13404 13405 13097 13082 13402 13090 
1522 1555 1852 1853 11485 13396 13400 13402 13401 13406 
1819 1853 1522 1852 13404 13402 13082 13398 13406 13400 
1820 1522 1853 1523 13090 13402 13405 13092 11184 13407 
1853 1522 1556 1523 13402 11491 13403 13407 11184 11492 
1523 1556 1854 1557 11492 13408 13409 11498 11500 13410 
1820 1854 1821 1523 13411 13412 13107 13092 13409 13100 
1523 1556 1853 1854 11492 13403 13407 13409 13408 13413 
1820 1854 1523 1853 13411 13409 13092 13405 13413 13407 
1821 1523 1854 1524 13100 13409 13412 13102 11194 13414 
1854 1523 1557 1524 13409 11498 13410 13414 11194 11499 
1524 1557 1855 1558 11499 13415 13416 11505 11507 13417 
1821 1855 1822 1524 13418 13419 13117 13102 13416 13110 
1524 1557 1854 1855 11499 13410 13414 13416 13415 13420 
1821 1855 1524 1854 13418 13416 13102 13412 13420 13414 
1822 1524 1855 1525 13110 13416 13419 13112 11204 13421 
1855 1524 1558 1525 13416 11505 13417 13421 11204 11506 
1525 1558 1856 1559 11506 13422 13423 11512 11514 13424 
1822 1856 1823 1525 13425 13426 13127 13112 13423 13120 
1525 1558 1855 1856 11506 13417 13421 13423 13422 13427 
1822 1856 1525 1855 13425 13423 13112 13419 13427 13421 
1823 1525 1856 1526 13120 13423 13426 13122 11214 13428 
1856 1525 1559 1526 13423 11512 13424 13428 11214 11513 
1526 1559 1857 1560 11513 13429 13430 11519 11521 13431 
1823 1857 1824 1526 13432 13433 13137 13122 13430 13130 
1526 1559 1856 1857 11513 13424 13428 13430 13429 13434 
1823 1857 1526 1856 13432 13430 13122 13426 13434 13428 
1824 1526 1857 1527 13130 13430 13433 13132 11224 13435 
1857 1526 1560 1527 13430 11519 13431 13435 11224 11520 
1527 1560 1858 1561 11520 13436 13437 11526 11528 13438 
1824 1858 1825 1527 13439 13440 13147 13132 13437 13140 
1527 1560 1857 1858 11520 13431 13435 13437 13436 13441 
1824 1858 1527 1857 13439 13437 13132 13433 13441 13435 
1825 1527 1858 1528 13140 13437 13440 13142 11234 13442 
1858 1527 1561 1528 13437 11526 13438 13442 11234 11527 
1528 1561 1859 1562 11527 13443 13444 11533 11535 13445 
1825 1859 1826 1528 13446 13447 13157 13142 13444 13150 
1528 1561 1858 1859 11527 13438 13442 13444 13443 13448 
1825 1859 1528 1858 13446 13444 13142 13440 13448 13442 
1826 1528 1859 1529 13150 13444 13447 13152 11244 13449 
1859 1528 1562 1529 13444 11533 13445 13449 11244 11534 
1529 1562 1860 1563 11534 13450 13451 11540 11542 13452 
1826 1860 1827 1529 13453 13454 13167 13152 13451 13160 
1529 1562 1859 1860 11534 13445 13449 13451 13450 13455 
1826 1860 1529 1859 13453 13451 13152 13447 13455 13449 
1827 1529 1860 1530 13160 13451 13454 13162 11254 13456 
1860 1529 1563 1530 13451 11540 13452 13456 11254 11541 
1530 1563 1861 1564 11541 13457 13458 11547 11549 13459 
1827 1861 1828 1530 13460 13461 13177 13162 13458 13170 
1530 1563 1860 1861 11541 13452 13456 13458 13457 13462 
1827 1861 1530 1860 13460 13458 13162 13454 13462 13456 
1828 1530 1861 1531 13170 13458 13461 13172 11264 13463 
1861 1530 1564 1531 13458 11547 13459 13463 11264 11548 
1531 1564 1862 1565 11548 13464 13465 11554 11556 13466 
1828 1862 1829 1531 13467 13468 13187 13172 13465 13180 
1531 1564 1861 1862 11548 13459 13463 13465 13464 13469 
1828 1862 1531 1861 13467 13465 13172 13461 13469 13463 
1829 1531 1862 1532 13180 13465 13468 13182 11274 13470 
1862 1531 1565 1532 13465 11554 13466 13470 11274 11555 
1532 1565 1863 1566 11555 13471 13472 11561 11563 13473 
1829 1863 1830 1532 13474 13475 13197 13182 13472 13190 
1532 1565 1862 1863 11555 13466 13470 13472 13471 13476 
1829 1863 1532 1862 13474 13472 13182 13468 13476 13470 
1830 1532 1863 1533 13190 13472 13475 13192 11284 13477 
1863 1532 1566 1533 13472 11561 13473 13477 11284 11562 
1533 1566 1864 1567 11562 13478 13479 11568 11570 13480 
1830 1864 1831 1533 13481 13482 13207 13192 13479 13200 
1533 1566 1863 1864 11562 13473 13477 13479 13478 13483 
1830 1864 1533 1863 13481 13479 13192 13475 13483 13477 
1831 1533 1864 1534 13200 13479 13482 13202 11294 13484 
1864 1533 1567 1534 13479 11568 13480 13484 11294 11569 
1534 1567 1865 1568 11569 13485 13486 11575 11577 13487 
1831 1865 1832 1534 13488 13489 13217 13202 13486 13210 
1534 1567 1864 1865 11569 13480 13484 13486 13485 13490 
1831 1865 1534 1864 13488 13486 13202 13482 13490 13484 
1832 1534 1865 1535 13210 13486 13489 13212 11304 13491 
1865 1534 1568 1535 13486 11575 13487 13491 11304 11576 
1535 1568 1866 1569 11576 13492 13493 11582 11584 13494 
1832 1866 1833 1535 13495 13496 13227 13212 13493 13220 
1535 1568 1865 1866 11576 13487 13491 13493 13492 13497 
1832 1866 1535 1865 13495 13493 13212 13489 13497 13491 
1833 1535 1866 1536 13220 13493 13496 13222 11314 13498 
1866 1535 1569 1536 13493 11582 13494 13498 11314 11583 
1536 1569 1867 1570 11583 13499 13500 11589 11591 13501 
1833 1867 1834 1536 13502 13503 13237 13222 13500 13230 
1536 1569 1866 1867 11583 13494 13498 13500 13499 13504 
1833 1867 1536 1866 13502 13500 13222 13496 13504 13498 
1834 1536 1867 1537 13230 13500 13503 13232 11324 13505 
1867 1536 1570 1537 13500 11589 13501 13505 11324 11590 
1537 1570 1868 1571 11590 13506 13507 11596 11598 13508 
1834 1868 1835 1537 13509 13510 13247 13232 13507 13240 
1537 1570 1867 1868 11590 13501 13505 13507 13506 13511 
1834 1868 1537 1867 13509 13507 13232 13503 13511 13505 
1835 1537 1868 1538 13240 13507 13510 13242 11334 13512 
1868 1537 1571 1538 13507 11596 13508 13512 11334 11597 
1538 1571 1869 1572 11597 13513 13514 11603 11605 13515 
1835 1869 1836 1538 13516 13517 13257 13242 13514 13250 
1538 1571 1868 1869 11597 13508 13512 13514 13513 13518 
1835 1869 1538 1868 13516 13514 13242 13510 13518 13512 
1836 1538 1869 1539 13250 13514 13517 13252 11344 13519 
1869 1538 1572 1539 13514 11603 13515 13519 11344 11604 
1539 1572 1870 1573 11604 13520 13521 11610 11612 13522 
1836 1870 1837 1539 13523 13524 13267 13252 13521 13260 
1539 1572 1869 1870 11604 13515 13519 13521 13520 13525 
1836 1870 1539 1869 13523 13521 13252 13517 13525 13519 
1837 1539 1870 1540 13260 13521 13524 13262 11354 13526 
1870 1539 1573 1540 13521 11610 13522 13526 11354 11611 
1540 1573 1871 1574 11611 13527 13528 11617 11619 13529 
1837 1871 1838 1540 13530 13531 13277 13262 13528 13270 
1540 1573 1870 1871 11611 13522 13526 13528 13527 13532 
1837 1871 1540 1870 13530 13528 13262 13524 13532 13526 
1838 1540 1871 1541 13270 13528 13531 13272 11364 13533 
1871 1540 1574 1541 13528 11617 13529 13533 11364 11618 
1541 1574 1872 1575 11618 13534 13535 11624 11626 13536 
1838 1872 1839 1541 13537 13538 13287 13272 13535 13280 
1541 1574 1871 1872 11618 13529 13533 13535 13534 13539 
1838 1872 1541 1871 13537 13535 13272 13531 13539 13533 
1839 1541 1872 1542 13280 13535 13538 13282 11374 13540 
1872 1541 1575 1542 13535 11624 13536 13540 11374 11625 
1542 1575 1873 1576 11625 13541 13542 11631 11633 13543 
1839 1873 1840 1542 13544 13545 13297 13282 13542 13290 
1542 1575 1872 1873 11625 13536 13540 13542 13541 13546 
1839 1873 1542 1872 13544 13542 13282 13538 13546 13540 
1840 1542 1873 1543 13290 13542 13545 13292 11384 13547 
1873 1542 1576 1543 13542 11631 13543 13547 11384 11632 
1543 1576 1874 1577 11632 13548 13549 11638 11640 13550 
1840 1874 1841 1543 13551 13552 13307 13292 13549 13300 
1543 1576 1873 1874 11632 13543 13547 13549 13548 13553 
1840 1874 1543 1873 13551 13549 13292 13545 13553 13547 
1841 1543 1874 1544 13300 13549 13552 13302 11394 13554 
1874 1543 1577 1544 13549 11638 13550 13554 11394 11639 
1544 1577 1875 1578 11639 13555 13556 11645 11647 13557 
1841 1875 1842 1544 13558 13559 13317 13302 13556 13310 
1544 1577 1874 1875 11639 13550 13554 13556 13555 13560 
1841 1875 1544 1874 13558 13556 13302 13552 13560 13554 
1842 1544 1875 1545 13310 13556 13559 13312 11404 13561 
1875 1544 1578 1545 13556 11645 13557 13561 11404 11646 
1545 1578 1876 1579 11646 13562 13563 11652 11654 13564 
1842 1876 1843 1545 13565 13566 13327 13312 13563 13320 
1545 1578 1875 1876 11646 13557 13561 13563 13562 13567 
1842 1876 1545 1875 13565 13563 13312 13559 13567 13561 
1843 1545 1876 1546 13320 13563 13566 13322 11414 13568 
1876 1545 1579 1546 13563 11652 13564 13568 11414 11653 
1546 1579 1877 1580 11653 13569 13570 11659 11661 13571 
1843 1877 1844 1546 13572 13573 13337 13322 13570 13330 
1546 1579 1876 1877 11653 13564 13568 13570 13569 13574 
1843 1877 1546 1876 13572 13570 13322 13566 13574 13568 
1844 1546 1877 1547 13330 13570 13573 13332 11424 13575 
1877 1546 1580 1547 13570 11659 13571 13575 11424 11660 
1547 1580 1878 1581 11660 13576 13577 11666 11668 13578 
1844 1878 1845 1547 13579 13580 13347 13332 13577 13340 
1547 1580 1877 1878 11660 13571 13575 13577 13576 13581 
1844 1878 1547 1877 13579 13577 13332 13573 13581 13575 
1845 1547 1878 1548 13340 13577 13580 13342 11434 13582 
1878 1547 1581 1548 13577 11666 13578 13582 11434 11667 
1548 1581 1879 1582 11667 13583 13584 11673 11675 13585 
1845 1879 1846 1548 13586 13587 13357 13342 13584 13350 
1548 1581 1878 1879 11667 13578 13582 13584 13583 13588 
1845 1879 1548 1878 13586 13584 13342 13580 13588 13582 
1846 1548 1879 1549 13350 13584 13587 13352 11444 13589 
1879 1548 1582 1549 13584 11673 13585 13589 11444 11674 
1549 1582 1880 1583 11674 13590 13591 11680 11682 13592 
1846 1880 1847 1549 13593 13594 13367 13352 13591 13360 
1549 1582 1879 1880 11674 13585 13589 13591 13590 13595 
1846 1880 1549 1879 13593 13591 13352 13587 13595 13589 
1847 1549 1880 1550 13360 13591 13594 13362 11454 13596 
1880 1549 1583 1550 13591 11680 13592 13596 11454 11681 
1551 1584 1882 1585 11692 13597 13598 11687 11691 13599 
1848 1882 1849 1551 13600 13601 13377 13375 13598 13370 
1551 1584 1881 1882 11692 13602 13603 13598 13597 13604 
1848 1882 1551 1881 13600 13598 13375 13605 13604 13603 
1849 1551 1882 1552 13370 13598 13601 13372 11464 13606 
1882 1551 1585 1552 13598 11687 13599 13606 11464 11688 
1552 1585 1883 1586 11688 13607 13608 11697 11699 13609 
1849 1883 1850 1552 13610 13611 13385 13372 13608 13380 
1552 1585 1882 1883 11688 13599 13606 13608 13607 13612 
1849 1883 1552 1882 13610 13608 13372 13601 13612 13606 
1850 1552 1883 1553 13380 13608 13611 13382 11472 13613 
1883 1552 1586 1553 13608 11697 13609 13613 11472 11698 
1553 1586 1884 1587 11698 13614 13615 11704 11706 13616 
1850 1884 1851 1553 13617 13618 13392 13382 13615 13387 
1553 1586 1883 1884 11698 13609 13613 13615 13614 13619 
1850 1884 1553 1883 13617 13615 13382 13611 13619 13613 
1851 1553 1884 1554 13387 13615 13618 13389 11479 13620 
1884 1553 1587 1554 13615 11704 13616 13620 11479 11705 
1554 1587 1885 1588 11705 13621 13622 11711 11713 13623 
1851 1885 1852 1554 13624 13625 13399 13389 13622 13394 
1554 1587 1884 1885 11705 13616 13620 13622 13621 13626 
1851 1885 1554 1884 13624 13622 13389 13618 13626 13620 
1852 1554 1885 1555 13394 13622 13625 13396 11486 13627 
1885 1554 1588 1555 13622 11711 13623 13627 11486 11712 
1555 1588 1886 1589 11712 13628 13629 11718 11720 13630 
1852 1886 1853 1555 13631 13632 13406 13396 13629 13401 
1555 1588 1885 1886 11712 13623 13627 13629 13628 13633 
1852 1886 1555 1885 13631 13629 13396 13625 13633 13627 
1853 1555 1886 1556 13401 13629 13632 13403 11493 13634 
1886 1555 1589 1556 13629 11718 13630 13634 11493 11719 
1556 1589 1887 1590 11719 13635 13636 11725 11727 13637 
1853 1887 1854 1556 13638 13639 13413 13403 13636 13408 
1556 1589 1886 1887 11719 13630 13634 13636 13635 13640 
1853 1887 1556 1886 13638 13636 13403 13632 13640 13634 
1854 1556 1887 1557 13408 13636 13639 13410 11500 13641 
1887 1556 1590 1557 13636 11725 13637 13641 11500 11726 
1557 1590 1888 1591 11726 13642 13643 11732 11734 13644 
1854 1888 1855 1557 13645 13646 13420 13410 13643 13415 
1557 1590 1887 1888 11726 13637 13641 13643 13642 13647 
1854 1888 1557 1887 13645 13643 13410 13639 13647 13641 
1855 1557 1888 1558 13415 13643 13646 13417 11507 13648 
1888 1557 1591 1558 13643 11732 13644 13648 11507 11733 
1558 1591 1889 1592 11733 13649 13650 11739 11741 13651 
1855 1889 1856 1558 13652 13653 13427 13417 13650 13422 
1558 1591 1888 1889 11733 13644 13648 13650 13649 13654 
1855 1889 1558 1888 13652 13650 13417 13646 13654 13648 
1856 1558 1889 1559 13422 13650 13653 13424 11514 13655 
1889 1558 1592 1559 13650 11739 13651 13655 11514 11740 
1559 1592 1890 1593 11740 13656 13657 11746 11748 13658 
1856 1890 1857 1559 13659 13660 13434 13424 13657 13429 
1559 1592 1889 1890 11740 13651 13655 13657 13656 13661 
1856 1890 1559 1889 13659 13657 13424 13653 13661 13655 
1857 1559 1890 1560 13429 13657 13660 13431 11521 13662 
1890 1559 1593 1560 13657 11746 13658 13662 11521 11747 
1560 1593 1891 1594 11747 13663 13664 11753 11755 13665 
1857 1891 1858 1560 13666 13667 13441 13431 13664 13436 
1560 1593 1890 1891 11747 13658 13662 13664 13663 13668 
1857 1891 1560 1890 13666 13664 13431 13660 13668 13662 
1858 1560 1891 1561 13436 13664 13667 13438 11528 13669 
1891 1560 1594 1561 13664 11753 13665 13669 11528 11754 
1561 1594 1892 1595 11754 13670 13671 11760 11762 13672 
1858 1892 1859 1561 13673 13674 13448 13438 13671 13443 
1561 1594 1891 1892 11754 13665 13669 13671 13670 13675 
1858 1892 1561 1891 13673 13671 13438 13667 13675 13669 
1859 1561 1892 1562 13443 13671 13674 13445 11535 13676 
1892 1561 1595 1562 13671 11760 13672 13676 11535 11761 
1562 1595 1893 1596 11761 13677 13678 11767 11769 13679 
1859 1893 1860 1562 13680 13681 13455 13445 13678 13450 
1562 1595 1892 1893 11761 13672 13676 13678 13677 13682 
1859 1893 1562 1892 13680 13678 13445 13674 13682 13676 
1860 1562 1893 1563 13450 13678 13681 13452 11542 13683 
1893 1562 1596 1563 13678 11767 13679 13683 11542 11768 
1563 1596 1894 1597 11768 13684 13685 11774 11776 13686 
1860 1894 1861 1563 13687 13688 13462 13452 13685 13457 
1563 1596 1893 1894 11768 13679 13683 13685 13684 13689 
1860 1894 1563 1893 13687 13685 13452 13681 13689 13683 
1861 1563 1894 1564 13457 13685 13688 13459 11549 13690 
1894 1563 1597 1564 13685 11774 13686 13690 11549 11775 
1564 1597 1895 1598 11775 13691 13692 11781 11783 13693 
1861 1895 1862 1564 13694 13695 13469 13459 13692 13464 
1564 1597 1894 1895 11775 13686 13690 13692 13691 13696 
1861 1895 1564 1894 13694 13692 13459 13688 13696 13690 
1862 1564 1895 1565 13464 13692 13695 13466 11556 13697 
1895 1564 1598 1565 13692 11781 13693 13697 11556 11782 
1565 1598 1896 1599 11782 13698 13699 11788 11790 13700 
1862 1896 1863 1565 13701 13702 13476 13466 13699 13471 
1565 1598 1895 1896 11782 13693 13697 13699 13698 13703 
1862 1896 1565 1895 13701 13699 13466 13695 13703 13697 
1863 1565 1896 1566 13471 13699 13702 13473 11563 13704 
1896 1565 1599 1566 13699 11788 13700 13704 11563 11789 
1566 1599 1897 1600 11789 13705 13706 11795 11797 13707 
1863 1897 1864 1566 13708 13709 13483 13473 13706 13478 
1566 1599 1896 1897 11789 13700 13704 13706 13705 13710 
1863 1897 1566 1896 13708 13706 13473 13702 13710 13704 
1864 1566 1897 1567 13478 13706 13709 13480 11570 13711 
1897 1566 1600 1567 13706 11795 13707 13711 11570 11796 
1567 1600 1898 1601 11796 13712 13713 11802 11804 13714 
1864 1898 1865 1567 13715 13716 13490 13480 13713 13485 
1567 1600 1897 1898 11796 13707 13711 13713 13712 13717 
1864 1898 1567 1897 13715 13713 13480 13709 13717 13711 
1865 1567 1898 1568 13485 13713 13716 13487 11577 13718 
1898 1567 1601 1568 13713 11802 13714 13718 11577 11803 
1568 1601 1899 1602 11803 13719 13720 11809 11811 13721 
1865 1899 1866 1568 13722 13723 13497 13487 13720 13492 
1568 1601 1898 1899 11803 13714 13718 13720 13719 13724 
1865 1899 1568 1898 13722 13720 13487 13716 13724 13718 
1866 1568 1899 1569 13492 13720 13723 13494 11584 13725 
1899 1568 1602 1569 13720 11809 13721 13725 11584 11810 
1569 1602 1900 1603 11810 13726 13727 11816 11818 13728 
1866 1900 1867 1569 13729 13730 13504 13494 13727 13499 
1569 1602 1899 1900 11810 13721 13725 13727 13726 13731 
1866 1900 1569 1899 13729 13727 13494 13723 13731 13725 
1867 1569 1900 1570 13499 13727 13730 13501 11591 13732 
1900 1569 1603 1570 13727 11816 13728 13732 11591 11817 
1570 1603 1901 1604 11817 13733 13734 11823 11825 13735 
1867 1901 1868 1570 13736 13737 13511 13501 13734 13506 
1570 1603 1900 1901 11817 13728 13732 13734 13733 13738 
1867 1901 1570 1900 13736 13734 13501 13730 13738 13732 
1868 1570 1901 1571 13506 13734 13737 13508 11598 13739 
1901 1570 1604 1571 13734 11823 13735 13739 11598 11824 
1571 1604 1902 1605 11824 13740 13741 11830 11832 13742 
1868 1902 1869 1571 13743 13744 13518 13508 13741 13513 
1571 1604 1901 1902 11824 13735 13739 13741 13740 13745 
1868 1902 1571 1901 13743 13741 13508 13737 13745 13739 
1869 1571 1902 1572 13513 13741 13744 13515 11605 13746 
1902 1571 1605 1572 13741 11830 13742 13746 11605 11831 
1572 1605 1903 1606 11831 13747 13748 11837 11839 13749 
1869 1903 1870 1572 13750 13751 13525 13515 13748 13520 
1572 1605 1902 1903 11831 13742 13746 13748 13747 13752 
1869 1903 1572 1902 13750 13748 13515 13744 13752 13746 
1870 1572 1903 1573 13520 13748 13751 13522 11612 13753 
1903 1572 1606 1573 13748 11837 13749 13753 11612 11838 
1573 1606 1904 1607 11838 13754 13755 11844 11846 13756 
1870 1904 1871 1573 13757 13758 13532 13522 13755 13527 
1573 1606 1903 1904 11838 13749 13753 13755 13754 13759 
1870 1904 1573 1903 13757 13755 13522 13751 13759 13753 
1871 1573 1904 1574 13527 13755 13758 13529 11619 13760 
1904 1573 1607 1574 13755 11844 13756 13760 11619 11845 
1574 1607 1905 1608 11845 13761 13762 11851 11853 13763 
1871 1905 1872 1574 13764 13765 13539 13529 13762 13534 
1574 1607 1904 1905 11845 13756 13760 13762 13761 13766 
1871 1905 1574 1904 13764 13762 13529 13758 13766 13760 
1872 1574 1905 1575 13534 13762 13765 13536 11626 13767 
1905 1574 1608 1575 13762 11851 13763 13767 11626 11852 
1575 1608 1906 1609 11852 13768 13769 11858 11860 13770 
1872 1906 1873 1575 13771 13772 13546 13536 13769 13541 
1575 1608 1905 1906 11852 13763 13767 13769 13768 13773 
1872 1906 1575 1905 13771 13769 13536 13765 13773 13767 
1873 1575 1906 1576 13541 13769 13772 13543 11633 13774 
1906 1575 1609 1576 13769 11858 13770 13774 11633 11859 
1576 1609 1907 1610 11859 13775 13776 11865 11867 13777 
1873 1907 1874 1576 13778 13779 13553 13543 13776 13548 
1576 1609 1906 1907 11859 13770 13774 13776 13775 13780 
1873 1907 1576 1906 13778 13776 13543 13772 13780 13774 
1874 1576 1907 1577 13548 13776 13779 13550 11640 13781 
1907 1576 1610 1577 13776 11865 13777 13781 11640 11866 
1577 1610 1908 1611 11866 13782 13783 11872 11874 13784 
1874 1908 1875 1577 13785 13786 13560 13550 13783 13555 
1577 1610 1907 1908 11866 13777 13781 13783 13782 13787 
1874 1908 1577 1907 13785 13783 13550 13779 13787 13781 
1875 1577 1908 1578 13555 13783 13786 13557 11647 13788 
1908 1577 1611 1578 13783 11872 13784 13788 11647 11873 
1578 1611 1909 1612 11873 13789 13790 11879 11881 13791 
1875 1909 1876 1578 13792 13793 13567 13557 13790 13562 
1578 1611 1908 1909 11873 13784 13788 13790 13789 13794 
1875 1909 1578 1908 13792 13790 13557 13786 13794 13788 
1876 1578 1909 1579 13562 13790 13793 13564 11654 13795 
1909 1578 1612 1579 13790 11879 13791 13795 11654 11880 
1579 1612 1910 1613 11880 13796 13797 11886 11888 13798 
1876 1910 1877 1579 13799 13800 13574 13564 13797 13569 
1579 1612 1909 1910 11880 13791 13795 13797 13796 13801 
1876 1910 1579 1909 13799 13797 13564 13793 13801 13795 
1877 1579 1910 1580 13569 13797 13800 13571 11661 13802 
1910 1579 1613 1580 13797 11886 13798 13802 11661 11887 
1580 1613 1911 1614 11887 13803 13804 11893 11895 13805 
1877 1911 1878 1580 13806 13807 13581 13571 13804 13576 
1580 1613 1910 1911 11887 13798 13802 13804 13803 13808 
1877 1911 1580 1910 13806 13804 13571 13800 13808 13802 
1878 1580 1911 1581 13576 13804 13807 13578 11668 13809 
1911 1580 1614 1581 13804 11893 13805 13809 11668 11894 
1581 1614 1912 1615 11894 13810 13811 11900 11902 13812 
1878 1912 1879 1581 13813 13814 13588 13578 13811 13583 
1581 1614 1911 1912 11894 13805 13809 13811 13810 13815 
1878 1912 1581 1911 13813 13811 13578 13807 13815 13809 
1879 1581 1912 1582 13583 13811 13814 13585 11675 13816 
1912 1581 1615 1582 13811 11900 13812 13816 11675 11901 
1582 1615 1913 1616 11901 13817 13818 11907 11909 13819 
1879 1913 1880 1582 13820 13821 13595 13585 13818 13590 
1582 1615 1912 1913 11901 13812 13816 13818 13817 13822 
1879 1913 1582 1912 13820 13818 13585 13814 13822 13816 
1880 1582 1913 1583 13590 13818 13821 13592 11682 13823 
1913 1582 1616 1583 13818 11907 13819 13823 11682 11908 
1584 1617 1915 1618 11919 13824 13825 11914 11918 13826 
1881 1915 1882 1584 13827 13828 13604 13602 13825 13597 
1584 1617 1914 1915 11919 13829 13830 13825 13824 13831 
1881 1915 1584 1914 13827 13825 13602 13832 13831 13830 
1882 1584 1915 1585 13597 13825 13828 13599 11691 13833 
1915 1584 1618 1585 13825 11914 13826 13833 11691 11915 
1585 1618 1916 1619 11915 13834 13835 11924 11926 13836 
1882 1916 1883 1585 13837 13838 13612 13599 13835 13607 
1585 1618 1915 1916 11915 13826 13833 13835 13834 13839 
1882 1916 1585 1915 13837 13835 13599 13828 13839 13833 
1883 1585 1916 1586 13607 13835 13838 13609 11699 13840 
1916 1585 1619 1586 13835 11924 13836 13840 11699 11925 
1586 1619 1917 1620 11925 13841 13842 11931 11933 13843 
1883 1917 1884 1586 13844 13845 13619 13609 13842 13614 
1586 1619 1916 1917 11925 13836 13840 13842 13841 13846 
1883 1917 1586 1916 13844 13842 13609 13838 13846 13840 
1884 1586 1917 1587 13614 13842 13845 13616 11706 13847 
1917 1586 1620 1587 13842 11931 13843 13847 11706 11932 
1587 1620 1918 1621 11932 13848 13849 11938 11940 13850 
1884 1918 1885 1587 13851 13852 13626 13616 13849 13621 
1587 1620 1917 1918 11932 13843 13847 13849 13848 13853 
1884 1918 1587 1917 13851 13849 13616 13845 13853 13847 
1885 1587 1918 1588 13621 13849 13852 13623 11713 13854 
1918 1587 1621 1588 13849 11938 13850 13854 11713 11939 
1588 1621 1919 1622 11939 13855 13856 11945 11947 13857 
1885 1919 1886 1588 13858 13859 13633 13623 13856 13628 
1588 1621 1918 1919 11939 13850 13854 13856 13855 13860 
1885 1919 1588 1918 13858 13856 13623 13852 13860 13854 
1886 1588 1919 1589 13628 13856 13859 13630 11720 13861 
1919 1588 1622 1589 13856 11945 13857 13861 11720 11946 
1589 1622 1920 1623 11946 13862 13863 11952 11954 13864 
1886 1920 1887 1589 13865 13866 13640 13630 13863 13635 
1589 1622 1919 1920 11946 13857 13861 13863 13862 13867 
1886 1920 1589 1919 13865 13863 13630 13859 13867 13861 
1887 1589 1920 1590 13635 13863 13866 13637 11727 13868 
1920 1589 1623 1590 13863 11952 13864 13868 11727 11953 
1590 1623 1921 1624 11953 13869 13870 11959 11961 13871 
1887 1921 1888 1590 13872 13873 13647 13637 13870 13642 
1590 1623 1920 1921 11953 13864 13868 13870 13869 13874 
1887 1921 1590 1920 13872 13870 13637 13866 13874 13868 
1888 1590 1921 1591 13642 13870 13873 13644 11734 13875 
1921 1590 1624 1591 13870 11959 13871 13875 11734 11960 
1591 1624 1922 1625 11960 13876 13877 11966 11968 13878 
1888 1922 1889 1591 13879 13880 13654 13644 13877 13649 
1591 1624 1921 1922 11960 13871 13875 13877 13876 13881 
1888 1922 1591 1921 13879 13877 13644 13873 13881 13875 
1889 1591 1922 1592 13649 13877 13880 13651 11741 13882 
1922 1591 1625 1592 13877 11966 13878 13882 11741 11967 
1592 1625 1923 1626 11967 13883 13884 11973 11975 13885 
1889 1923 1890 1592 13886 13887 13661 13651 13884 13656 
1592 1625 1922 1923 11967 13878 13882 13884 13883 13888 
1889 1923 1592 1922 13886 13884 13651 13880 13888 13882 
1890 1592 1923 1593 13656 13884 13887 13658 11748 13889 
1923 1592 1626 1593 13884 11973 13885 13889 11748 11974 
1593 1626 1924 1627 11974 13890 13891 11980 11982 13892 
1890 1924 1891 1593 13893 13894 13668 13658 13891 13663 
1593 1626 1923 1924 11974 13885 13889 13891 13890 13895 
1890 1924 1593 1923 13893 13891 13658 13887 13895 13889 
1891 1593 1924 1594 13663 13891 13894 13665 11755 13896 
1924 1593 1627 1594 13891 11980 13892 13896 11755 11981 
1594 1627 1925 1628 11981 13897 13898 11987 11989 13899 
1891 1925 1892 1594 13900 13901 13675 13665 13898 13670 
1594 1627 1924 1925 11981 13892 13896 13898 13897 13902 
1891 1925 1594 1924 13900 13898 13665 13894 13902 13896 
1892 1594 1925 1595 13670 13898 13901 13672 11762 13903 
1925 1594 1628 1595 13898 11987 13899 13903 11762 11988 
1595 1628 1926 1629 11988 13904 13905 11994 11996 13906 
1892 1926 1893 1595 13907 13908 13682 13672 13905 13677 
1595 1628 1925 1926 11988 13899 13903 13905 13904 13909 
1892 1926 1595 1925 13907 13905 13672 13901 13909 13903 
1893 1595 1926 1596 13677 13905 13908 13679 11769 13910 
1926 1595 1629 1596 13905 11994 13906 13910 11769 11995 
1596 1629 1927 1630 11995 13911 13912 12001 12003 13913 
1893 1927 1894 1596 13914 13915 13689 13679 13912 13684 
1596 1629 1926 1927 11995 13906 13910 13912 13911 13916 
1893 1927 1596 1926 13914 13912 13679 13908 13916 13910 
1894 1596 1927 1597 13684 13912 13915 13686 11776 13917 
1927 1596 1630 1597 13912 12001 13913 13917 11776 12002 
1597 1630 1928 1631 12002 13918 13919 12008 12010 13920 
1894 1928 1895 1597 13921 13922 13696 13686 13919 13691 
1597 1630 1927 1928 12002 13913 13917 13919 13918 13923 
1894 1928 1597 1927 13921 13919 13686 13915 13923 13917 
1895 1597 1928 1598 13691 13919 13922 13693 11783 13924 
1928 1597 1631 1598 13919 12008 13920 13924 11783 12009 
1598 1631 1929 1632 12009 13925 13926 12015 12017 13927 
1895 1929 1896 1598 13928 13929 13703 13693 13926 13698 
1598 1631 1928 1929 12009 13920 13924 13926 13925 13930 
1895 1929 1598 1928 13928 13926 13693 13922 13930 13924 
1896 1598 1929 1599 13698 13926 13929 13700 11790 13931 
1929 1598 1632 1599 13926 12015 13927 13931 11790 12016 
1599 1632 1930 1633 12016 13932 13933 12022 12024 13934 
1896 1930 1897 1599 13935 13936 13710 13700 13933 13705 
1599 1632 1929 1930 12016 13927 13931 13933 13932 13937 
1896 1930 1599 1929 13935 13933 13700 13929 13937 13931 
1897 1599 1930 1600 13705 13933 13936 13707 11797 13938 
1930 1599 1633 1600 13933 12022 13934 13938 11797 12023 
1600 1633 1931 1634 12023 13939 13940 12029 12031 13941 
1897 1931 1898 1600 13942 13943 13717 13707 13940 13712 
1600 1633 1930 1931 12023 13934 13938 13940 13939 13944 
1897 1931 1600 1930 13942 13940 13707 13936 13944 13938 
1898 1600 1931 1601 13712 13940 13943 13714 11804 13945 
1931 1600 1634 1601 13940 12029 13941 13945 11804 12030 
1601 1634 1932 1635 12030 13946 13947 12036 12038 13948 
1898 1932 1899 1601 13949 13950 13724 13714 13947 13719 
1601 1634 1931 1932 12030 13941 13945 13947 13946 13951 
1898 1932 1601 1931 13949 13947 13714 13943 13951 13945 
1899 1601 1932 1602 13719 13947 13950 13721 11811 13952 
1932 1601 1635 1602 13947 12036 13948 13952 11811 12037 
1602 1635 1933 1636 12037 13953 13954 12043 12045 13955 
1899 1933 1900 1602 13956 13957 13731 13721 13954 13726 
1602 1635 1932 1933 12037 13948 13952 13954 13953 13958 
1899 1933 1602 1932 13956 13954 13721 13950 13958 13952 
1900 1602 1933 1603 13726 13954 13957 13728 11818 13959 
1933 1602 1636 1603 13954 12043 13955 13959 11818 12044 
1603 1636 1934 1637 12044 13960 13961 12050 12052 13962 
1900 1934 1901 1603 13963 13964 13738 13728 13961 13733 
1603 1636 1933 1934 12044 13955 13959 13961 13960 13965 
1900 1934 1603 1933 13963 13961 13728 13957 13965 13959 
1901 1603 1934 1604 13733 13961 13964 13735 11825 13966 
1934 1603 1637 1604 13961 12050 13962 13966 11825 12051 
1604 1637 1935 1638 12051 13967 13968 12057 12059 13969 
1901 1935 1902 1604 13970 13971 13745 13735 13968 13740 
1604 1637 1934 1935 12051 13962 13966 13968 13967 13972 
1901 1935 1604 1934 13970 13968 13735 13964 13972 13966 
1902 1604 1935 1605 13740 13968 13971 13742 11832 13973 
1935 1604 1638 1605 13968 12057 13969 13973 11832 12058 
1605 1638 1936 1639 12058 13974 13975 12064 12066 13976 
1902 1936 1903 1605 13977 13978 13752 13742 13975 13747 
1605 1638 1935 1936 12058 13969 13973 13975 13974 13979 
1902 1936 1605 1935 13977 13975 13742 13971 13979 13973 
1903 1605 1936 1606 13747 13975 13978 13749 11839 13980 
1936 1605 1639 1606 13975 12064 13976 13980 11839 12065 
1606 1639 1937 1640 12065 13981 13982 12071 12073 13983 
1903 1937 1904 1606 13984 13985 13759 13749 13982 13754 
1606 1639 1936 1937 12065 13976 13980 13982 13981 13986 
1903 1937 1606 1936 13984 13982 13749 13978 13986 13980 
1904 1606 1937 1607 13754 13982 13985 13756 11846 13987 
1937 1606 1640 1607 13982 12071 13983 13987 11846 12072 
1607 1640 1938 1641 12072 13988 13989 12078 12080 13990 
1904 1938 1905 1607 13991 13992 13766 13756 13989 13761 
1607 1640 1937 1938 12072 13983 13987 13989 13988 13993 
1904 1938 1607 1937 13991 13989 13756 13985 13993 13987 
1905 1607 1938 1608 13761 13989 13992 13763 11853 13994 
1938 1607 1641 1608 13989 12078 13990 13994 11853 12079 
1608 1641 1939 1642 12079 13995 13996 12085 12087 13997 
1905 1939 1906 1608 13998 13999 13773 13763 13996 13768 
1608 1641 1938 1939 12079 13990 13994 13996 13995 14000 
1905 1939 1608 1938 13998 13996 13763 13992 14000 13994 
1906 1608 1939 1609 13768 13996 13999 13770 11860 14001 
1939 1608 1642 1609 13996 12085 13997 14001 11860 12086 
1609 1642 1940 1643 12086 14002 14003 12092 12094 14004 
1906 1940 1907 1609 14005 14006 13780 13770 14003 13775 
1609 1642 1939 1940 12086 13997 14001 14003 14002 14007 
1906 1940 1609 1939 14005 14003 13770 13999 14007 14001 
1907 1609 1940 1610 13775 14003 14006 13777 11867 14008 
1940 1609 1643 1610 14003 12092 14004 14008 11867 12093 
1610 1643 1941 1644 12093 14009 14010 12099 12101 14011 
1907 1941 1908 1610 14012 14013 13787 13777 14010 13782 
1610 1643 1940 1941 12093 14004 14008 14010 14009 14014 
1907 1941 1610 1940 14012 14010 13777 14006 14014 14008 
1908 1610 1941 1611 13782 14010 14013 13784 11874 14015 
1941 1610 1644 1611 14010 12099 14011 14015 11874 12100 
1611 1644 1942 1645 12100 14016 14017 12106 12108 14018 
1908 1942 1909 1611 14019 14020 13794 13784 14017 13789 
1611 1644 1941 1942 12100 14011 14015 14017 14016 14021 
1908 1942 1611 1941 14019 14017 13784 14013 14021 14015 
1909 1611 1942 1612 13789 14017 14020 13791 11881 14022 
1942 1611 1645 1612 14017 12106 14018 14022 11881 12107 
1612 1645 1943 1646 12107 14023 14024 12113 12115 14025 
1909 1943 1910 1612 14026 14027 13801 13791 14024 13796 
1612 1645 1942 1943 12107 14018 14022 14024 14023 14028 
1909 1943 1612 1942 14026 14024 13791 14020 14028 14022 
1910 1612 1943 1613 13796 14024 14027 13798 11888 14029 
1943 1612 1646 1613 14024 12113 14025 14029 11888 12114 
1613 1646 1944 1647 12114 14030 14031 12120 12122 14032 
1910 1944 1911 1613 14033 14034 13808 13798 14031 13803 
1613 1646 1943 1944 12114 14025 14029 14031 14030 14035 
1910 1944 1613 1943 14033 14031 13798 14027 14035 14029 
1911 1613 1944 1614 13803 14031 14034 13805 11895 14036 
1944 1613 1647 1614 14031 12120 14032 14036 11895 12121 
1614 1647 1945 1648 12121 14037 14038 12127 12129 14039 
1911 1945 1912 1614 14040 14041 13815 13805 14038 13810 
1614 1647 1944 1945 12121 14032 14036 14038 14037 14042 
1911 1945 1614 1944 14040 14038 13805 14034 14042 14036 
1912 1614 1945 1615 13810 14038 14041 13812 11902 14043 
1945 1614 1648 1615 14038 12127 14039 14043 11902 12128 
1615 1648 1946 1649 12128 14044 14045 12134 12136 14046 
1912 1946 1913 1615 14047 14048 13822 13812 14045 13817 
1615 1648 1945 1946 12128 14039 14043 14045 14044 14049 
1912 1946 1615 1945 14047 14045 13812 14041 14049 14043 
1913 1615 1946 1616 13817 14045 14048 13819 11909 14050 
1946 1615 1649 1616 14045 12134 14046 14050 11909 12135 
1617 1650 1948 1651 12146 14051 14052 12141 12145 14053 
1914 1948 1915 1617 14054 14055 13831 13829 14052 13824 
1617 1650 1947 1948 12146 14056 14057 14052 14051 14058 
1914 1948 1617 1947 14054 14052 13829 14059 14058 14057 
1915 1617 1948 1618 13824 14052 14055 13826 11918 14060 
1948 1617 1651 1618 14052 12141 14053 14060 11918 12142 
1618 1651 1949 1652 12142 14061 14062 12151 12153 14063 
1915 1949 1916 1618 14064 14065 13839 13826 14062 13834 
1618 1651 1948 1949 12142 14053 14060 14062 14061 14066 
1915 1949 1618 1948 14064 14062 13826 14055 14066 14060 
1916 1618 1949 1619 13834 14062 14065 13836 11926 14067 
1949 1618 1652 1619 14062 12151 14063 14067 11926 12152 
1619 1652 1950 1653 12152 14068 14069 12158 12160 14070 
1916 1950 1917 1619 14071 14072 13846 13836 14069 13841 
1619 1652 1949 1950 12152 14063 14067 14069 14068 14073 
1916 1950 1619 1949 14071 14069 13836 14065 14073 14067 
1917 1619 1950 1620 13841 14069 14072 13843 11933 14074 
1950 1619 1653 1620 14069 12158 14070 14074 11933 12159 
1620 1653 1951 1654 12159 14075 14076 12165 12167 14077 
1917 1951 1918 1620 14078 14079 13853 13843 14076 13848 
1620 1653 1950 1951 12159 14070 14074 14076 14075 14080 
1917 1951 1620 1950 14078 14076 13843 14072 14080 14074 
1918 1620 1951 1621 13848 14076 14079 13850 11940 14081 
1951 1620 1654 1621 14076 12165 14077 14081 11940 12166 
1621 1654 1952 1655 12166 14082 14083 12172 12174 14084 
1918 1952 1919 1621 14085 14086 13860 13850 14083 13855 
1621 1654 1951 1952 12166 14077 14081 14083 14082 14087 
1918 1952 1621 1951 14085 14083 13850 14079 14087 14081 
1919 1621 1952 1622 13855 14083 14086 13857 11947 14088 
1952 1621 1655 1622 14083 12172 14084 14088 11947 12173 
1622 1655 1953 1656 12173 14089 14090 12179 12181 14091 
1919 1953 1920 1622 14092 14093 13867 13857 14090 13862 
1622 1655 1952 1953 12173 14084 14088 14090 14089 14094 
1919 1953 1622 1952 14092 14090 13857 14086 14094 14088 
1920 1622 1953 1623 13862 14090 14093 13864 11954 14095 
1953 1622 1656 1623 14090 12179 14091 14095 11954 12180 
1623 1656 1954 1657 12180 14096 14097 12186 12188 14098 
1920 1954 1921 1623 14099 14100 13874 13864 14097 13869 
1623 1656 1953 1954 12180 14091 14095 14097 14096 14101 
1920 1954 1623 1953 14099 14097 13864 14093 14101 14095 
1921 1623 1954 1624 13869 14097 14100 13871 11961 14102 
1954 1623 1657 1624 14097 12186 14098 14102 11961 12187 
1624 1657 1955 1658 12187 14103 14104 12193 12195 14105 
1921 1955 1922 1624 14106 14107 13881 13871 14104 13876 
1624 1657 1954 1955 12187 14098 14102 14104 14103 14108 
1921 1955 1624 1954 14106 14104 13871 14100 14108 14102 
1922 1624 1955 1625 13876 14104 14107 13878 11968 14109 
1955 1624 1658 1625 14104 12193 14105 14109 11968 12194 
1625 1658 1956 1659 12194 14110 14111 12200 12202 14112 
1922 1956 1923 1625 14113 14114 13888 13878 14111 13883 
1625 1658 1955 1956 12194 14105 14109 14111 14110 14115 
1922 1956 1625 1955 14113 14111 13878 14107 14115 14109 
1923 1625 1956 1626 13883 14111 14114 13885 11975 14116 
1956 1625 1659 1626 14111 12200 14112 14116 11975 12201 
1626 1659 1957 1660 12201 14117 14118 12207 12209 14119 
1923 1957 1924 1626 14120 14121 13895 13885 14118 13890 
1626 1659 1956 1957 12201 14112 14116 14118 14117 14122 
1923 1957 1626 1956 14120 14118 13885 14114 14122 14116 
1924 1626 1957 1627 13890 14118 14121 13892 11982 14123 
1957 1626 1660 1627 14118 12207 14119 14123 11982 12208 
1627 1660 1958 1661 12208 14124 14125 12214 12216 14126 
1924 1958 1925 1627 14127 14128 13902 13892 14125 13897 
1627 1660 1957 1958 12208 14119 14123 14125 14124 14129 
1924 1958 1627 1957 14127 14125 13892 14121 14129 14123 
1925 1627 1958 1628 13897 14125 14128 13899 11989 14130 
1958 1627 1661 1628 14125 12214 14126 14130 11989 12215 
1628 1661 1959 1662 12215 14131 14132 12221 12223 14133 
1925 1959 1926 1628 14134 14135 13909 13899 14132 13904 
1628 1661 1958 1959 12215 14126 14130 14132 14131 14136 
1925 1959 1628 1958 14134 14132 13899 14128 14136 14130 
1926 1628 1959 1629 13904 14132 14135 13906 11996 14137 
1959 1628 1662 1629 14132 12221 14133 14137 11996 12222 
1629 1662 1960 1663 12222 14138 14139 12228 12230 14140 
1926 1960 1927 1629 14141 14142 13916 13906 14139 13911 
1629 1662 1959 1960 12222 14133 14137 14139 14138 14143 
1926 1960 1629 1959 14141 14139 13906 14135 14143 14137 
1927 1629 1960 1630 13911 14139 14142 13913 12003 14144 
1960 1629 1663 1630 14139 12228 14140 14144 12003 12229 
1630 1663 1961 1664 12229 14145 14146 12235 12237 14147 
1927 1961 1928 1630 14148 14149 13923 13913 14146 13918 
1630 1663 1960 1961 12229 14140 14144 14146 14145 14150 
1927 1961 1630 1960 14148 14146 13913 14142 14150 14144 
1928 1630 1961 1631 13918 14146 14149 13920 12010 14151 
1961 1630 1664 1631 14146 12235 14147 14151 12010 12236 
1631 1664 1962 1665 12236 14152 14153 12242 12244 14154 
1928 1962 1929 1631 14155 14156 13930 13920 14153 13925 
1631 1664 1961 1962 12236 14147 14151 14153 14152 14157 
1928 1962 1631 1961 14155 14153 13920 14149 14157 14151 
1929 1631 1962 1632 13925 14153 14156 13927 12017 14158 
1962 1631 1665 1632 14153 12242 14154 14158 12017 12243 
1632 1665 1963 1666 12243 14159 14160 12249 12251 14161 
1929 1963 1930 1632 14162 14163 13937 13927 14160 13932 
1632 1665 1962 1963 12243 14154 14158 14160 14159 14164 
1929 1963 1632 1962 14162 14160 13927 14156 14164 14158 
1930 1632 1963 1633 13932 14160 14163 13934 12024 14165 
1963 1632 1666 1633 14160 12249 14161 14165 12024 12250 
1633 1666 1964 1667 12250 14166 14167 12256 12258 14168 
1930 1964 1931 1633 14169 14170 13944 13934 14167 13939 
1633 1666 1963 1964 12250 14161 14165 14167 14166 14171 
1930 1964 1633 1963 14169 14167 13934 14163 14171 14165 
1931 1633 1964 1634 13939 14167 14170 13941 12031 14172 
1964 1633 1667 1634 14167 12256 14168 14172 12031 12257 
1634 1667 1965 1668 12257 14173 14174 12263 12265 14175 
1931 1965 1932 1634 14176 14177 13951 13941 14174 13946 
1634 1667 1964 1965 12257 14168 14172 14174 14173 14178 
1931 1965 1634 1964 14176 14174 13941 14170 14178 14172 
1932 1634 1965 1635 13946 14174 14177 13948 12038 14179 
1965 1634 1668 1635 14174 12263 14175 14179 12038 12264 
1635 1668 1966 1669 12264 14180 14181 12270 12272 14182 
1932 1966 1933 1635 14183 14184 13958 13948 14181 13953 
1635 1668 1965 1966 12264 14175 14179 14181 14180 14185 
1932 1966 1635 1965 14183 14181 13948 14177 14185 14179 
1933 1635 1966 1636 13953 14181 14184 13955 12045 14186 
1966 1635 1669 1636 14181 12270 14182 14186 12045 12271 
1636 1669 1967 1670 12271 14187 14188 12277 12279 14189 
1933 1967 1934 1636 14190 14191 13965 13955 14188 13960 
1636 1669 1966 1967 12271 14182 14186 14188 14187 14192 
1933 1967 1636 1966 14190 14188 13955 14184 14192 14186 
1934 1636 1967 1637 13960 14188 14191 13962 12052 14193 
1967 1636 1670 1637 14188 12277 14189 14193 12052 12278 
1637 1670 1968 1671 12278 14194 14195 12284 12286 14196 
1934 1968 1935 1637 14197 14198 13972 13962 14195 13967 
1637 1670 1967 1968 12278 14189 14193 14195 14194 14199 
1934 1968 1637 1967 14197 14195 13962 14191 14199 14193 
1935 1637 1968 1638 13967 14195 14198 13969 12059 14200 
1968 1637 1671 1638 14195 12284 14196 14200 12059 12285 
1638 1671 1969 1672 12285 14201 14202 12291 12293 14203 
1935 1969 1936 1638 14204 14205 13979 13969 14202 13974 
1638 1671 1968 1969 12285 14196 14200 14202 14201 14206 
1935 1969 1638 1968 14204 14202 13969 14198 14206 14200 
1936 1638 1969 1639 13974 14202 14205 13976 12066 14207 
1969 1638 1672 1639 14202 12291 14203 14207 12066 12292 
1639 1672 1970 1673 12292 14208 14209 12298 12300 14210 
1936 1970 1937 1639 14211 14212 13986 13976 14209 13981 
1639 1672 1969 1970 12292 14203 14207 14209 14208 14213 
1936 1970 1639 1969 14211 14209 13976 14205 14213 14207 
1937 1639 1970 1640 13981 14209 14212 13983 12073 14214 
1970 1639 1673 1640 14209 12298 14210 14214 12073 12299 
1640 1673 1971 1674 12299 14215 14216 12305 12307 14217 
1937 1971 1938 1640 14218 14219 13993 13983 14216 13988 
1640 1673 1970 1971 12299 14210 14214 14216 14215 14220 
1937 1971 1640 1970 14218 14216 13983 14212 14220 14214 
1938 1640 1971 1641 13988 14216 14219 13990 12080 14221 
1971 1640 1674 1641 14216 12305 14217 14221 12080 12306 
1641 1674 1972 1675 12306 14222 14223 12312 12314 14224 
1938 1972 1939 1641 14225 14226 14000 13990 14223 13995 
1641 1674 1971 1972 12306 14217 14221 14223 14222 14227 
1938 1972 1641 1971 14225 14223 13990 14219 14227 14221 
1939 1641 1972 1642 13995 14223 14226 13997 12087 14228 
1972 1641 1675 1642 14223 12312 14224 14228 12087 12313 
1642 1675 1973 1676 12313 14229 14230 12319 12321 14231 
1939 1973 1940 1642 14232 14233 14007 13997 14230 14002 
1642 1675 1972 1973 12313 14224 14228 14230 14229 14234 
1939 1973 1642 1972 14232 14230 13997 14226 14234 14228 
1940 1642 1973 1643 14002 14230 14233 14004 12094 14235 
1973 1642 1676 1643 14230 12319 14231 14235 12094 12320 
1643 1676 1974 1677 12320 14236 14237 12326 12328 14238 
1940 1974 1941 1643 14239 14240 14014 14004 14237 14009 
1643 1676 1973 1974 12320 14231 14235 14237 14236 14241 
1940 1974 1643 1973 14239 14237 14004 14233 14241 14235 
1941 1643 1974 1644 14009 14237 14240 14011 12101 14242 
1974 1643 1677 1644 14237 12326 14238 14242 12101 12327 
1644 1677 1975 1678 12327 14243 14244 12333 12335 14245 
1941 1975 1942 1644 14246 14247 14021 14011 14244 14016 
1644 1677 1974 1975 12327 14238 14242 14244 14243 14248 
1941 1975 1644 1974 14246 14244 14011 14240 14248 14242 
1942 1644 1975 1645 14016 14244 14247 14018 12108 14249 
1975 1644 1678 1645 14244 12333 14245 14249 12108 12334 
1645 1678 1976 1679 12334 14250 14251 12340 12342 14252 
1942 1976 1943 1645 14253 14254 14028 14018 14251 14023 
1645 1678 1975 1976 12334 14245 14249 14251 14250 14255 
1942 1976 1645 1975 14253 14251 14018 14247 14255 14249 
1943 1645 1976 1646 14023 14251 14254 14025 12115 14256 
1976 1645 1679 1646 14251 12340 14252 14256 12115 12341 
1646 1679 1977 1680 12341 14257 14258 12347 12349 14259 
1943 1977 1944 1646 14260 14261 14035 14025 14258 14030 
1646 1679 1976 1977 12341 14252 14256 14258 14257 14262 
1943 1977 1646 1976 14260 14258 14025 14254 14262 14256 
1944 1646 1977 1647 14030 14258 14261 14032 12122 14263 
1977 1646 1680 1647 14258 12347 14259 14263 12122 12348 
1647 1680 1978 1681 12348 14264 14265 12354 12356 14266 
1944 1978 1945 1647 14267 14268 14042 14032 14265 14037 
1647 1680 1977 1978 12348 14259 14263 14265 14264 14269 
1944 1978 1647 1977 14267 14265 14032 14261 14269 14263 
1945 1647 1978 1648 14037 14265 14268 14039 12129 14270 
1978 1647 1681 1648 14265 12354 14266 14270 12129 12355 
1648 1681 1979 1682 12355 14271 14272 12361 12363 14273 
1945 1979 1946 1648 14274 14275 14049 14039 14272 14044 
1648 1681 1978 1979 12355 14266 14270 14272 14271 14276 
1945 1979 1648 1978 14274 14272 14039 14268 14276 14270 
1946 1648 1979 1649 14044 14272 14275 14046 12136 14277 
1979 1648 1682 1649 14272 12361 14273 14277 12136 12362 
1650 1683 1981 1684 12373 14278 14279 12368 12372 14280 
1947 1981 1948 1650 14281 14282 14058 14056 14279 14051 
1650 1683 1980 1981 12373 14283 14284 14279 14278 14285 
1947 1981 1650 1980 14281 14279 14056 14286 14285 14284 
1948 1650 1981 1651 14051 14279 14282 14053 12145 14287 
1981 1650 1684 1651 14279 12368 14280 14287 12145 12369 
1651 1684 1982 1685 12369 14288 14289 12378 12380 14290 
1948 1982 1949 1651 14291 14292 14066 14053 14289 14061 
1651 1684 1981 1982 12369 14280 14287 14289 14288 14293 
1948 1982 1651 1981 14291 14289 14053 14282 14293 14287 
1949 1651 1982 1652 14061 14289 14292 14063 12153 14294 
1982 1651 1685 1652 14289 12378 14290 14294 12153 12379 
1652 1685 1983 1686 12379 14295 14296 12385 12387 14297 
1949 1983 1950 1652 14298 14299 14073 14063 14296 14068 
1652 1685 1982 1983 12379 14290 14294 14296 14295 14300 
1949 1983 1652 1982 14298 14296 14063 14292 14300 14294 
1950 1652 1983 1653 14068 14296 14299 14070 12160 14301 
1983 1652 1686 1653 14296 12385 14297 14301 12160 12386 
1653 1686 1984 1687 12386 14302 14303 12392 12394 14304 
1950 1984 1951 1653 14305 14306 14080 14070 14303 14075 
1653 1686 1983 1984 12386 14297 14301 14303 14302 14307 
1950 1984 1653 1983 14305 14303 14070 14299 14307 14301 
1951 1653 1984 1654 14075 14303 14306 14077 12167 14308 
1984 1653 1687 1654 14303 12392 14304 14308 12167 12393 
1654 1687 1985 1688 12393 14309 14310 12399 12401 14311 
1951 1985 1952 1654 14312 14313 14087 14077 14310 14082 
1654 1687 1984 1985 12393 14304 14308 14310 14309 14314 
1951 1985 1654 1984 14312 14310 14077 14306 14314 14308 
1952 1654 1985 1655 14082 14310 14313 14084 12174 14315 
1985 1654 1688 1655 14310 12399 14311 14315 12174 12400 
1655 1688 1986 1689 12400 14316 14317 12406 12408 14318 
1952 1986 1953 1655 14319 14320 14094 14084 14317 14089 
1655 1688 1985 1986 12400 14311 14315 14317 14316 14321 
1952 1986 1655 1985 14319 14317 14084 14313 14321 14315 
1953 1655 1986 1656 14089 14317 14320 14091 12181 14322 
1986 1655 1689 1656 14317 12406 14318 14322 12181 12407 
1656 1689 1987 1690 12407 14323 14324 12413 12415 14325 
1953 1987 1954 1656 14326 14327 14101 14091 14324 14096 
1656 1689 1986 1987 12407 14318 14322 14324 14323 14328 
1953 1987 1656 1986 14326 14324 14091 14320 14328 14322 
1954 1656 1987 1657 14096 14324 14327 14098 12188 14329 
1987 1656 1690 1657 14324 12413 14325 14329 12188 12414 
1657 1690 1988 1691 12414 14330 14331 12420 12422 14332 
1954 1988 1955 1657 14333 14334 14108 14098 14331 14103 
1657 1690 1987 1988 12414 14325 14329 14331 14330 14335 
1954 1988 1657 1987 14333 14331 14098 14327 14335 14329 
1955 1657 1988 1658 14103 14331 14334 14105 12195 14336 
1988 1657 1691 1658 14331 12420 14332 14336 12195 12421 
1658 1691 1989 1692 12421 14337 14338 12427 12429 14339 
1955 1989 1956 1658 14340 14341 14115 14105 14338 14110 
1658 1691 1988 1989 12421 14332 14336 14338 14337 14342 
1955 1989 1658 1988 14340 14338 14105 14334 14342 14336 
1956 1658 1989 1659 14110 14338 14341 14112 12202 14343 
1989 1658 1692 1659 14338 12427 14339 14343 12202 12428 
1659 1692 1990 1693 12428 14344 14345 12434 12436 14346 
1956 1990 1957 1659 14347 14348 14122 14112 14345 14117 
1659 1692 1989 1990 12428 14339 14343 14345 14344 14349 
1956 1990 1659 1989 14347 14345 14112 14341 14349 14343 
1957 1659 1990 1660 14117 14345 14348 14119 12209 14350 
1990 1659 1693 1660 14345 12434 14346 14350 12209 12435 
1660 1693 1991 1694 12435 14351 14352 12441 12443 14353 
1957 1991 1958 1660 14354 14355 14129 14119 14352 14124 
1660 1693 1990 1991 12435 14346 14350 14352 14351 14356 
1957 1991 1660 1990 14354 14352 14119 14348 14356 14350 
1958 1660 1991 1661 14124 14352 14355 14126 12216 14357 
1991 1660 1694 1661 14352 12441 14353 14357 12216 12442 
1661 1694 1992 1695 12442 14358 14359 12448 12450 14360 
1958 1992 1959 1661 14361 14362 14136 14126 14359 14131 
1661 1694 1991 1992 12442 14353 14357 14359 14358 14363 
1958 1992 1661 1991 14361 14359 14126 14355 14363 14357 
1959 1661 1992 1662 14131 14359 14362 14133 12223 14364 
1992 1661 1695 1662 14359 12448 14360 14364 12223 12449 
1662 1695 1993 1696 12449 14365 14366 12455 12457 14367 
1959 1993 1960 1662 14368 14369 14143 14133 14366 14138 
1662 1695 1992 1993 12449 14360 14364 14366 14365 14370 
1959 1993 1662 1992 14368 14366 14133 14362 14370 14364 
1960 1662 1993 1663 14138 14366 14369 14140 12230 14371 
1993 1662 1696 1663 14366 12455 14367 14371 12230 12456 
1663 1696 1994 1697 12456 14372 14373 12462 12464 14374 
1960 1994 1961 1663 14375 14376 14150 14140 14373 14145 
1663 1696 1993 1994 12456 14367 14371 14373 14372 14377 
1960 1994 1663 1993 14375 14373 14140 14369 14377 14371 
1961 1663 1994 1664 14145 14373 14376 14147 12237 14378 
1994 1663 1697 1664 14373 12462 14374 14378 12237 12463 
1664 1697 1995 1698 12463 14379 14380 12469 12471 14381 
1961 1995 1962 1664 14382 14383 14157 14147 14380 14152 
1664 1697 1994 1995 12463 14374 14378 14380 14379 14384 
1961 1995 1664 1994 14382 14380 14147 14376 14384 14378 
1962 1664 1995 1665 14152 14380 14383 14154 12244 14385 
1995 1664 1698 1665 14380 12469 14381 14385 12244 12470 
1665 1698 1996 1699 12470 14386 14387 12476 12478 14388 
1962 1996 1963 1665 14389 14390 14164 14154 14387 14159 
1665 1698 1995 1996 12470 14381 14385 14387 14386 14391 
1962 1996 1665 1995 14389 14387 14154 14383 14391 14385 
1963 1665 1996 1666 14159 14387 14390 14161 12251 14392 
1996 1665 1699 1666 14387 12476 14388 14392 12251 12477 
1666 1699 1997 1700 12477 14393 14394 12483 12485 14395 
1963 1997 1964 1666 14396 14397 14171 14161 14394 14166 
1666 1699 1996 1997 12477 14388 14392 14394 14393 14398 
1963 1997 1666 1996 14396 14394 14161 14390 14398 14392 
1964 1666 1997 1667 14166 14394 14397 14168 12258 14399 
1997 1666 1700 1667 14394 12483 14395 14399 12258 12484 
1667 1700 1998 1701 12484 14400 14401 12490 12492 14402 
1964 1998 1965 1667 14403 14404 14178 14168 14401 14173 
1667 1700 1997 1998 12484 14395 14399 14401 14400 14405 
1964 1998 1667 1997 14403 14401 14168 14397 14405 14399 
1965 1667 1998 1668 14173 14401 14404 14175 12265 14406 
1998 1667 1701 1668 14401 12490 14402 14406 12265 12491 
1668 1701 1999 1702 12491 14407 14408 12497 12499 14409 
1965 1999 1966 1668 14410 14411 14185 14175 14408 14180 
1668 1701 1998 1999 12491 14402 14406 14408 14407 14412 
1965 1999 1668 1998 14410 14408 14175 14404 14412 14406 
1966 1668 1999 1669 14180 14408 14411 14182 12272 14413 
1999 1668 1702 1669 14408 12497 14409 14413 12272 12498 
1669 1702 2000 1703 12498 14414 14415 12504 12506 14416 
1966 2000 1967 1669 14417 14418 14192 14182 14415 14187 
1669 1702 1999 2000 12498 14409 14413 14415 14414 14419 
1966 2000 1669 1999 14417 14415 14182 14411 14419 14413 
1967 1669 2000 1670 14187 14415 14418 14189 12279 14420 
2000 1669 1703 1670 14415 12504 14416 14420 12279 12505 
1670 1703 2001 1704 12505 14421 14422 12511 12513 14423 
1967 2001 1968 1670 14424 14425 14199 14189 14422 14194 
1670 1703 2000 2001 12505 14416 14420 14422 14421 14426 
1967 2001 1670 2000 14424 14422 14189 14418 14426 14420 
1968 1670 2001 1671 14194 14422 14425 14196 12286 14427 
2001 1670 1704 1671 14422 12511 14423 14427 12286 12512 
1671 1704 2002 1705 12512 14428 14429 12518 12520 14430 
1968 2002 1969 1671 14431 14432 14206 14196 14429 14201 
1671 1704 2001 2002 12512 14423 14427 14429 14428 14433 
1968 2002 1671 2001 14431 14429 14196 14425 14433 14427 
1969 1671 2002 1672 14201 14429 14432 14203 12293 14434 
2002 1671 1705 1672 14429 12518 14430 14434 12293 12519 
1672 1705 2003 1706 12519 14435 14436 12525 12527 14437 
1969 2003 1970 1672 14438 14439 14213 14203 14436 14208 
1672 1705 2002 2003 12519 14430 14434 14436 14435 14440 
1969 2003 1672 2002 14438 14436 14203 14432 14440 14434 
1970 1672 2003 1673 14208 14436 14439 14210 12300 14441 
2003 1672 1706 1673 14436 12525 14437 14441 12300 12526 
1673 1706 2004 1707 12526 14442 14443 12532 12534 14444 
1970 2004 1971 1673 14445 14446 14220 14210 14443 14215 
1673 1706 2003 2004 12526 14437 14441 14443 14442 14447 
1970 2004 1673 2003 14445 14443 14210 14439 14447 14441 
1971 1673 2004 1674 14215 14443 14446 14217 12307 14448 
2004 1673 1707 1674 14443 12532 14444 14448 12307 12533 
1674 1707 2005 1708 12533 14449 14450 12539 12541 14451 
1971 2005 1972 1674 14452 14453 14227 14217 14450 14222 
1674 1707 2004 2005 12533 14444 14448 14450 14449 14454 
1971 2005 1674 2004 14452 14450 14217 14446 14454 14448 
1972 1674 2005 1675 14222 14450 14453 14224 12314 14455 
2005 1674 1708 1675 14450 12539 14451 14455 12314 12540 
1675 1708 2006 1709 12540 14456 14457 12546 12548 14458 
1972 2006 1973 1675 14459 14460 14234 14224 14457 14229 
1675 1708 2005 2006 12540 14451 14455 14457 14456 14461 
1972 2006 1675 2005 14459 14457 14224 14453 14461 14455 
1973 1675 2006 1676 14229 14457 14460 14231 12321 14462 
2006 1675 1709 1676 14457 12546 14458 14462 12321 12547 
1676 1709 2007 1710 12547 14463 14464 12553 12555 14465 
1973 2007 1974 1676 14466 14467 14241 14231 14464 14236 
1676 1709 2006 2007 12547 14458 14462 14464 14463 14468 
1973 2007 1676 2006 14466 14464 14231 14460 14468 14462 
1974 1676 2007 1677 14236 14464 14467 14238 12328 14469 
2007 1676 1710 1677 14464 12553 14465 14469 12328 12554 
1677 1710 2008 1711 12554 14470 14471 12560 12562 14472 
1974 2008 1975 1677 14473 14474 14248 14238 14471 14243 
1677 1710 2007 2008 12554 14465 14469 14471 14470 14475 
1974 2008 1677 2007 14473 14471 14238 14467 14475 14469 
1975 1677 2008 1678 14243 14471 14474 14245 12335 14476 
2008 1677 1711 1678 14471 12560 14472 14476 12335 12561 
1678 1711 2009 1712 12561 14477 14478 12567 12569 14479 
1975 2009 1976 1678 14480 14481 14255 14245 14478 14250 
1678 1711 2008 2009 12561 14472 14476 14478 14477 14482 
1975 2009 1678 2008 14480 14478 14245 14474 14482 14476 
1976 1678 2009 1679 14250 14478 14481 14252 12342 14483 
2009 1678 1712 1679 14478 12567 14479 14483 12342 12568 
1679 1712 2010 1713 12568 14484 14485 12574 12576 14486 
1976 2010 1977 1679 14487 14488 14262 14252 14485 14257 
1679 1712 2009 2010 12568 14479 14483 14485 14484 14489 
1976 2010 1679 2009 14487 14485 14252 14481 14489 14483 
1977 1679 2010 1680 14257 14485 14488 14259 12349 14490 
2010 1679 1713 1680 14485 12574 14486 14490 12349 12575 
1680 1713 2011 1714 12575 14491 14492 12581 12583 14493 
1977 2011 1978 1680 14494 14495 14269 14259 14492 14264 
1680 1713 2010 2011 12575 14486 14490 14492 14491 14496 
1977 2011 1680 2010 14494 14492 14259 14488 14496 14490 
1978 1680 2011 1681 14264 14492 14495 14266 12356 14497 
2011 1680 1714 1681 14492 12581 14493 14497 12356 12582 
1681 1714 2012 1715 12582 14498 14499 12588 12590 14500 
1978 2012 1979 1681 14501 14502 14276 14266 14499 14271 
1681 1714 2011 2012 12582 14493 14497 14499 14498 14503 
1978 2012 1681 2011 14501 14499 14266 14495 14503 14497 
1979 1681 2012 1682 14271 14499 14502 14273 12363 14504 
2012 1681 1715 1682 14499 12588 14500 14504 12363 12589 
1683 1716 2014 1717 12600 14505 14506 12595 12599 14507 
1980 2014 1981 1683 14508 14509 14285 14283 14506 14278 
1683 1716 2013 2014 12600 14510 14511 14506 14505 14512 
1980 2014 1683 2013 14508 14506 14283 14513 14512 14511 
1981 1683 2014 1684 14278 14506 14509 14280 12372 14514 
2014 1683 1717 1684 14506 12595 14507 14514 12372 12596 
1684 1717 2015 1718 12596 14515 14516 12605 12607 14517 
1981 2015 1982 1684 14518 14519 14293 14280 14516 14288 
1684 1717 2014 2015 12596 14507 14514 14516 14515 14520 
1981 2015 1684 2014 14518 14516 14280 14509 14520 14514 
1982 1684 2015 1685 14288 14516 14519 14290 12380 14521 
2015 1684 1718 1685 14516 12605 14517 14521 12380 12606 
1685 1718 2016 1719 12606 14522 14523 12612 12614 14524 
1982 2016 1983 1685 14525 14526 14300 14290 14523 14295 
1685 1718 2015 2016 12606 14517 14521 14523 14522 14527 
1982 2016 1685 2015 14525 14523 14290 14519 14527 14521 
1983 1685 2016 1686 14295 14523 14526 14297 12387 14528 
2016 1685 1719 1686 14523 12612 14524 14528 12387 12613 
1686 1719 2017 1720 12613 14529 14530 12619 12621 14531 
1983 2017 1984 1686 14532 14533 14307 14297 14530 14302 
1686 1719 2016 2017 12613 14524 14528 14530 14529 14534 
1983 2017 1686 2016 14532 14530 14297 14526 14534 14528 
1984 1686 2017 1687 14302 14530 14533 14304 12394 14535 
2017 1686 1720 1687 14530 12619 14531 14535 12394 12620 
1687 1720 2018 1721 12620 14536 14537 12626 12628 14538 
1984 2018 1985 1687 14539 14540 14314 14304 14537 14309 
1687 1720 2017 2018 12620 14531 14535 14537 14536 14541 
1984 2018 1687 2017 14539 14537 14304 14533 14541 14535 
1985 1687 2018 1688 14309 14537 14540 14311 12401 14542 
2018 1687 1721 1688 14537 12626 14538 14542 12401 12627 
1688 1721 2019 1722 12627 14543 14544 12633 12635 14545 
1985 2019 1986 1688 14546 14547 14321 14311 14544 14316 
1688 1721 2018 2019 12627 14538 14542 14544 14543 14548 
1985 2019 1688 2018 14546 14544 14311 14540 14548 14542 
1986 1688 2019 1689 14316 14544 14547 14318 12408 14549 
2019 1688 1722 1689 14544 12633 14545 14549 12408 12634 
1689 1722 2020 1723 12634 14550 14551 12640 12642 14552 
1986 2020 1987 1689 14553 14554 14328 14318 14551 14323 
1689 1722 2019 2020 12634 14545 14549 14551 14550 14555 
1986 2020 1689 2019 14553 14551 14318 14547 14555 14549 
1987 1689 2020 1690 14323 14551 14554 14325 12415 14556 
2020 1689 1723 1690 14551 12640 14552 14556 12415 12641 
1690 1723 2021 1724 12641 14557 14558 12647 12649 14559 
1987 2021 1988 1690 14560 14561 14335 14325 14558 14330 
1690 1723 2020 2021 12641 14552 14556 14558 14557 14562 
1987 2021 1690 2020 14560 14558 14325 14554 14562 14556 
1988 1690 2021 1691 14330 14558 14561 14332 12422 14563 
2021 1690 1724 1691 14558 12647 14559 14563 12422 12648 
1691 1724 2022 1725 12648 14564 14565 12654 12656 14566 
1988 2022 1989 1691 14567 14568 14342 14332 14565 14337 
1691 1724 2021 2022 12648 14559 14563 14565 14564 14569 
1988 2022 1691 2021 14567 14565 14332 14561 14569 14563 
1989 1691 2022 1692 14337 14565 14568 14339 12429 14570 
2022 1691 1725 1692 14565 12654 14566 14570 12429 12655 
1692 1725 2023 1726 12655 14571 14572 12661 12663 14573 
1989 2023 1990 1692 14574 14575 14349 14339 14572 14344 
1692 1725 2022 2023 12655 14566 14570 14572 14571 14576 
1989 2023 1692 2022 14574 14572 14339 14568 14576 14570 
1990 1692 2023 1693 14344 14572 14575 14346 12436 14577 
2023 1692 1726 1693 14572 12661 14573 14577 12436 12662 
1693 1726 2024 1727 12662 14578 14579 12668 12670 14580 
1990 2024 1991 1693 14581 14582 14356 14346 14579 14351 
1693 1726 2023 2024 12662 14573 14577 14579 14578 14583 
1990 2024 1693 2023 14581 14579 14346 14575 14583 14577 
1991 1693 2024 1694 14351 14579 14582 14353 12443 14584 
2024 1693 1727 1694 14579 12668 14580 14584 12443 12669 
1694 1727 2025 1728 12669 14585 14586 12675 12677 14587 
1991 2025 1992 1694 14588 14589 14363 14353 14586 14358 
1694 1727 2024 2025 12669 14580 14584 14586 14585 14590 
1991 2025 1694 2024 14588 14586 14353 14582 14590 14584 
1992 1694 2025 1695 14358 14586 14589 14360 12450 14591 
2025 1694 1728 1695 14586 12675 14587 14591 12450 12676 
1695 1728 2026 1729 12676 14592 14593 12682 12684 14594 
1992 2026 1993 1695 14595 14596 14370 14360 14593 14365 
1695 1728 2025 2026 12676 14587 14591 14593 14592 14597 
1992 2026 1695 2025 14595 14593 14360 14589 14597 14591 
1993 1695 2026 1696 14365 14593 14596 14367 12457 14598 
2026 1695 1729 1696 14593 12682 14594 14598 12457 12683 
1696 1729 2027 1730 12683 14599 14600 12689 12691 14601 
1993 2027 1994 1696 14602 14603 14377 14367 14600 14372 
1696 1729 2026 2027 12683 14594 14598 14600 14599 14604 
1993 2027 1696 2026 14602 14600 14367 14596 14604 14598 
1994 1696 2027 1697 14372 14600 14603 14374 12464 14605 
2027 1696 1730 1697 14600 12689 14601 14605 12464 12690 
1697 1730 2028 1731 12690 14606 14607 12696 12698 14608 
1994 2028 1995 1697 14609 14610 14384 14374 14607 14379 
1697 1730 2027 2028 12690 14601 14605 14607 14606 14611 
1994 2028 1697 2027 14609 14607 14374 14603 14611 14605 
1995 1697 2028 1698 14379 14607 14610 14381 12471 14612 
2028 1697 1731 1698 14607 12696 14608 14612 12471 12697 
1698 1731 2029 1732 12697 14613 14614 12703 12705 14615 
1995 2029 1996 1698 14616 14617 14391 14381 14614 14386 
1698 1731 2028 2029 12697 14608 14612 14614 14613 14618 
1995 2029 1698 2028 14616 14614 14381 14610 14618 14612 
1996 1698 2029 1699 14386 14614 14617 14388 12478 14619 
2029 1698 1732 1699 14614 12703 14615 14619 12478 12704 
1699 1732 2030 1733 12704 14620 14621 12710 12712 14622 
1996 2030 1997 1699 14623 14624 14398 14388 14621 14393 
1699 1732 2029 2030 12704 14615 14619 14621 14620 14625 
1996 2030 1699 2029 14623 14621 14388 14617 14625 14619 
1997 1699 2030 1700 14393 14621 14624 14395 12485 14626 
2030 1699 1733 1700 14621 12710 14622 14626 12485 12711 
1700 1733 2031 1734 12711 14627 14628 12717 12719 14629 
1997 2031 1998 1700 14630 14631 14405 14395 14628 14400 
1700 1733 2030 2031 12711 14622 14626 14628 14627 14632 
1997 2031 1700 2030 14630 14628 14395 14624 14632 14626 
1998 1700 2031 1701 14400 14628 14631 14402 12492 14633 
2031 1700 1734 1701 14628 12717 14629 14633 12492 12718 
1701 1734 2032 1735 12718 14634 14635 12724 12726 14636 
1998 2032 1999 1701 14637 14638 14412 14402 14635 14407 
1701 1734 2031 2032 12718 14629 14633 14635 14634 14639 
1998 2032 1701 2031 14637 14635 14402 14631 14639 14633 
1999 1701 2032 1702 14407 14635 14638 14409 12499 14640 
2032 1701 1735 1702 14635 12724 14636 14640 12499 12725 
1702 1735 2033 1736 12725 14641 14642 12731 12733 14643 
1999 2033 2000 1702 14644 14645 14419 14409 14642 14414 
1702 1735 2032 2033 12725 14636 14640 14642 14641 14646 
1999 2033 1702 2032 14644 14642 14409 14638 14646 14640 
2000 1702 2033 1703 14414 14642 14645 14416 12506 14647 
2033 1702 1736 1703 14642 12731 14643 14647 12506 12732 
1703 1736 2034 1737 12732 14648 14649 12738 12740 14650 
2000 2034 2001 1703 14651 14652 14426 14416 14649 14421 
1703 1736 2033 2034 12732 14643 14647 14649 14648 14653 
2000 2034 1703 2033 14651 14649 14416 14645 14653 14647 
2001 1703 2034 1704 14421 14649 14652 14423 12513 14654 
2034 1703 1737 1704 14649 12738 14650 14654 12513 12739 
1704 1737 2035 1738 12739 14655 14656 12745 12747 14657 
2001 2035 2002 1704 14658 14659 14433 14423 14656 14428 
1704 1737 2034 2035 12739 14650 14654 14656 14655 14660 
2001 2035 1704 2034 14658 14656 14423 14652 14660 14654 
2002 1704 2035 1705 14428 14656 14659 14430 12520 14661 
2035 1704 1738 1705 14656 12745 14657 14661 12520 12746 
1705 1738 2036 1739 12746 14662 14663 12752 12754 14664 
2002 2036 2003 1705 14665 14666 14440 14430 14663 14435 
1705 1738 2035 2036 12746 14657 14661 14663 14662 14667 
2002 2036 1705 2035 14665 14663 14430 14659 14667 14661 
2003 1705 2036 1706 14435 14663 14666 14437 12527 14668 
2036 1705 1739 1706 14663 12752 14664 14668 12527 12753 
1706 1739 2037 1740 12753 14669 14670 12759 12761 14671 
2003 2037 2004 1706 14672 14673 14447 14437 14670 14442 
1706 1739 2036 2037 12753 14664 14668 14670 14669 14674 
2003 2037 1706 2036 14672 14670 14437 14666 14674 14668 
2004 1706 2037 1707 14442 14670 14673 14444 12534 14675 
2037 1706 1740 1707 14670 12759 14671 14675 12534 12760 
1707 1740 2038 1741 12760 14676 14677 12766 12768 14678 
2004 2038 2005 1707 14679 14680 14454 14444 14677 14449 
1707 1740 2037 2038 12760 14671 14675 14677 14676 14681 
2004 2038 1707 2037 14679 14677 14444 14673 14681 14675 
2005 1707 2038 1708 14449 14677 14680 14451 12541 14682 
2038 1707 1741 1708 14677 12766 14678 14682 12541 12767 
1708 1741 2039 1742 12767 14683 14684 12773 12775 14685 
2005 2039 2006 1708 14686 14687 14461 14451 14684 14456 
1708 1741 2038 2039 12767 14678 14682 14684 14683 14688 
2005 2039 1708 2038 14686 14684 14451 14680 14688 14682 
2006 1708 2039 1709 14456 14684 14687 14458 12548 14689 
2039 1708 1742 1709 14684 12773 14685 14689 12548 12774 
1709 1742 2040 1743 12774 14690 14691 12780 12782 14692 
2006 2040 2007 1709 14693 14694 14468 14458 14691 14463 
1709 1742 2039 2040 12774 14685 14689 14691 14690 14695 
2006 2040 1709 2039 14693 14691 14458 14687 14695 14689 
2007 1709 2040 1710 14463 14691 14694 14465 12555 14696 
2040 1709 1743 1710 14691 12780 14692 14696 12555 12781 
1710 1743 2041 1744 12781 14697 14698 12787 12789 14699 
2007 2041 2008 1710 14700 14701 14475 14465 14698 14470 
1710 1743 2040 2041 12781 14692 14696 14698 14697 14702 
2007 2041 1710 2040 14700 14698 14465 14694 14702 14696 
2008 1710 2041 1711 14470 14698 14701 14472 12562 14703 
2041 1710 1744 1711 14698 12787 14699 14703 12562 12788 
1711 1744 2042 1745 12788 14704 14705 12794 12796 14706 
2008 2042 2009 1711 14707 14708 14482 14472 14705 14477 
1711 1744 2041 2042 12788 14699 14703 14705 14704 14709 
2008 2042 1711 2041 14707 14705 14472 14701 14709 14703 
2009 1711 2042 1712 14477 14705 14708 14479 12569 14710 
2042 1711 1745 1712 14705 12794 14706 14710 12569 12795 
1712 1745 2043 1746 12795 14711 14712 12801 12803 14713 
2009 2043 2010 1712 14714 14715 14489 14479 14712 14484 
1712 1745 2042 2043 12795 14706 14710 14712 14711 14716 
2009 2043 1712 2042 14714 14712 14479 14708 14716 14710 
2010 1712 2043 1713 14484 14712 14715 14486 12576 14717 
2043 1712 1746 1713 14712 12801 14713 14717 12576 12802 
1713 1746 2044 1747 12802 14718 14719 12808 12810 14720 
2010 2044 2011 1713 14721 14722 14496 14486 14719 14491 
1713 1746 2043 2044 12802 14713 14717 14719 14718 14723 
2010 2044 1713 2043 14721 14719 14486 14715 14723 14717 
2011 1713 2044 1714 14491 14719 14722 14493 12583 14724 
2044 1713 1747 1714 14719 12808 14720 14724 12583 12809 
1714 1747 2045 1748 12809 14725 14726 12815 12817 14727 
2011 2045 2012 1714 14728 14729 14503 14493 14726 14498 
1714 1747 2044 2045 12809 14720 14724 14726 14725 14730 
2011 2045 1714 2044 14728 14726 14493 14722 14730 14724 
2012 1714 2045 1715 14498 14726 14729 14500 12590 14731 
2045 1714 1748 1715 14726 12815 14727 14731 12590 12816 
1716 1749 2047 1750 12827 14732 14733 12822 12826 14734 
2013 2047 2014 1716 14735 14736 14512 14510 14733 14505 
1716 1749 2046 2047 12827 14737 14738 14733 14732 14739 
2013 2047 1716 2046 14735 14733 14510 14740 14739 14738 
2014 1716 2047 1717 14505 14733 14736 14507 12599 14741 
2047 1716 1750 1717 14733 12822 14734 14741 12599 12823 
1717 1750 2048 1751 12823 14742 14743 12832 12834 14744 
2014 2048 2015 1717 14745 14746 14520 14507 14743 14515 
1717 1750 2047 2048 12823 14734 14741 14743 14742 14747 
2014 2048 1717 2047 14745 14743 14507 14736 14747 14741 
2015 1717 2048 1718 14515 14743 14746 14517 12607 14748 
2048 1717 1751 1718 14743 12832 14744 14748 12607 12833 
1718 1751 2049 1752 12833 14749 14750 12839 12841 14751 
2015 2049 2016 1718 14752 14753 14527 14517 14750 14522 
1718 1751 2048 2049 12833 14744 14748 14750 14749 14754 
2015 2049 1718 2048 14752 14750 14517 14746 14754 14748 
2016 1718 2049 1719 14522 14750 14753 14524 12614 14755 
2049 1718 1752 1719 14750 12839 14751 14755 12614 12840 
1719 1752 2050 1753 12840 14756 14757 12846 12848 14758 
2016 2050 2017 1719 14759 14760 14534 14524 14757 14529 
1719 1752 2049 2050 12840 14751 14755 14757 14756 14761 
2016 2050 1719 2049 14759 14757 14524 14753 14761 14755 
2017 1719 2050 1720 14529 14757 14760 14531 12621 14762 
2050 1719 1753 1720 14757 12846 14758 14762 12621 12847 
1720 1753 2051 1754 12847 14763 14764 12853 12855 14765 
2017 2051 2018 1720 14766 14767 14541 14531 14764 14536 
1720 1753 2050 2051 12847 14758 14762 14764 14763 14768 
2017 2051 1720 2050 14766 14764 14531 14760 14768 14762 
2018 1720 2051 1721 14536 14764 14767 14538 12628 14769 
2051 1720 1754 1721 14764 12853 14765 14769 12628 12854 
1721 1754 2052 1755 12854 14770 14771 12860 12862 14772 
2018 2052 2019 1721 14773 14774 14548 14538 14771 14543 
1721 1754 2051 2052 12854 14765 14769 14771 14770 14775 
2018 2052 1721 2051 14773 14771 14538 14767 14775 14769 
2019 1721 2052 1722 14543 14771 14774 14545 12635 14776 
2052 1721 1755 1722 14771 12860 14772 14776 12635 12861 
1722 1755 2053 1756 12861 14777 14778 12867 12869 14779 
2019 2053 2020 1722 14780 14781 14555 14545 14778 14550 
1722 1755 2052 2053 12861 14772 14776 14778 14777 14782 
2019 2053 1722 2052 14780 14778 14545 14774 14782 14776 
2020 1722 2053 1723 14550 14778 14781 14552 12642 14783 
2053 1722 1756 1723 14778 12867 14779 14783 12642 12868 
1723 1756 2054 1757 12868 14784 14785 12874 12876 14786 
2020 2054 2021 1723 14787 14788 14562 14552 14785 14557 
1723 1756 2053 2054 12868 14779 14783 14785 14784 14789 
2020 2054 1723 2053 14787 14785 14552 14781 14789 14783 
2021 1723 2054 1724 14557 14785 14788 14559 12649 14790 
2054 1723 1757 1724 14785 12874 14786 14790 12649 12875 
1724 1757 2055 1758 12875 14791 14792 12881 12883 14793 
2021 2055 2022 1724 14794 14795 14569 14559 14792 14564 
1724 1757 2054 2055 12875 14786 14790 14792 14791 14796 
2021 2055 1724 2054 14794 14792 14559 14788 14796 14790 
2022 1724 2055 1725 14564 14792 14795 14566 12656 14797 
2055 1724 1758 1725 14792 12881 14793 14797 12656 12882 
1725 1758 2056 1759 12882 14798 14799 12888 12890 14800 
2022 2056 2023 1725 14801 14802 14576 14566 14799 14571 
1725 1758 2055 2056 12882 14793 14797 14799 14798 14803 
2022 2056 1725 2055 14801 14799 14566 14795 14803 14797 
2023 1725 2056 1726 14571 14799 14802 14573 12663 14804 
2056 1725 1759 1726 14799 12888 14800 14804 12663 12889 
1726 1759 2057 1760 12889 14805 14806 12895 12897 14807 
2023 2057 2024 1726 14808 14809 14583 14573 14806 14578 
1726 1759 2056 2057 12889 14800 14804 14806 14805 14810 
2023 2057 1726 2056 14808 14806 14573 14802 14810 14804 
2024 1726 2057 1727 14578 14806 14809 14580 12670 14811 
2057 1726 1760 1727 14806 12895 14807 14811 12670 12896 
1727 1760 2058 1761 12896 14812 14813 12902 12904 14814 
2024 2058 2025 1727 14815 14816 14590 14580 14813 14585 
1727 1760 2057 2058 12896 14807 14811 14813 14812 14817 
2024 2058 1727 2057 14815 14813 14580 14809 14817 14811 
2025 1727 2058 1728 14585 14813 14816 14587 12677 14818 
2058 1727 1761 1728 14813 12902 14814 14818 12677 12903 
1728 1761 2059 1762 12903 14819 14820 12909 12911 14821 
2025 2059 2026 1728 14822 14823 14597 14587 14820 14592 
1728 1761 2058 2059 12903 14814 14818 14820 14819 14824 
2025 2059 1728 2058 14822 14820 14587 14816 14824 14818 
2026 1728 2059 1729 14592 14820 14823 14594 12684 14825 
2059 1728 1762 1729 14820 12909 14821 14825 12684 12910 
1729 1762 2060 1763 12910 14826 14827 12916 12918 14828 
2026 2060 2027 1729 14829 14830 14604 14594 14827 14599 
1729 1762 2059 2060 12910 14821 14825 14827 14826 14831 
2026 2060 1729 2059 14829 14827 14594 14823 14831 14825 
2027 1729 2060 1730 14599 14827 14830 14601 12691 14832 
2060 1729 1763 1730 14827 12916 14828 14832 12691 12917 
1730 1763 2061 1764 12917 14833 14834 12923 12925 14835 
2027 2061 2028 1730 14836 14837 14611 14601 14834 14606 
1730 1763 2060 2061 12917 14828 14832 14834 14833 14838 
2027 2061 1730 2060 14836 14834 14601 14830 14838 14832 
2028 1730 2061 1731 14606 14834 14837 14608 12698 14839 
2061 1730 1764 1731 14834 12923 14835 14839 12698 12924 
1731 1764 2062 1765 12924 14840 14841 12930 12932 14842 
2028 2062 2029 1731 14843 14844 14618 14608 14841 14613 
1731 1764 2061 2062 12924 14835 14839 14841 14840 14845 
2028 2062 1731 2061 14843 14841 14608 14837 14845 14839 
2029 1731 2062 1732 14613 14841 14844 14615 12705 14846 
2062 1731 1765 1732 14841 12930 14842 14846 12705 12931 
1732 1765 2063 1766 12931 14847 14848 12937 12939 14849 
2029 2063 2030 1732 14850 14851 14625 14615 14848 14620 
1732 1765 2062 2063 12931 14842 14846 14848 14847 14852 
2029 2063 1732 2062 14850 14848 14615 14844 14852 14846 
2030 1732 2063 1733 14620 14848 14851 14622 12712 14853 
2063 1732 1766 1733 14848 12937 14849 14853 12712 12938 
1733 1766 2064 1767 12938 14854 14855 12944 12946 14856 
2030 2064 2031 1733 14857 14858 14632 14622 14855 14627 
1733 1766 2063 2064 12938 14849 14853 14855 14854 14859 
2030 2064 1733 2063 14857 14855 14622 14851 14859 14853 
2031 1733 2064 1734 14627 14855 14858 14629 12719 14860 
2064 1733 1767 1734 14855 12944 14856 14860 12719 12945 
1734 1767 2065 1768 12945 14861 14862 12951 12953 14863 
2031 2065 2032 1734 14864 14865 14639 14629 14862 14634 
1734 1767 2064 2065 12945 14856 14860 14862 14861 14866 
2031 2065 1734 2064 14864 14862 14629 14858 14866 14860 
2032 1734 2065 1735 14634 14862 14865 14636 12726 14867 
2065 1734 1768 1735 14862 12951 14863 14867 12726 12952 
1735 1768 2066 1769 12952 14868 14869 12958 12960 14870 
2032 2066 2033 1735 14871 14872 14646 14636 14869 14641 
1735 1768 2065 2066 12952 14863 14867 14869 14868 14873 
2032 2066 1735 2065 14871 14869 14636 14865 14873 14867 
2033 1735 2066 1736 14641 14869 14872 14643 12733 14874 
2066 1735 1769 1736 14869 12958 14870 14874 12733 12959 
1736 1769 2067 1770 12959 14875 14876 12965 12967 14877 
2033 2067 2034 1736 14878 14879 14653 14643 14876 14648 
1736 1769 2066 2067 12959 14870 14874 14876 14875 14880 
2033 2067 1736 2066 14878 14876 14643 14872 14880 14874 
2034 1736 2067 1737 14648 14876 14879 14650 12740 14881 
2067 1736 1770 1737 14876 12965 14877 14881 12740 12966 
1737 1770 2068 1771 12966 14882 14883 12972 12974 14884 
2034 2068 2035 1737 14885 14886 14660 14650 14883 14655 
1737 1770 2067 2068 12966 14877 14881 14883 14882 14887 
2034 2068 1737 2067 14885 14883 14650 14879 14887 14881 
2035 1737 2068 1738 14655 14883 14886 14657 12747 14888 
2068 1737 1771 1738 14883 12972 14884 14888 12747 12973 
1738 1771 2069 1772 12973 14889 14890 12979 12981 14891 
2035 2069 2036 1738 14892 14893 14667 14657 14890 14662 
1738 1771 2068 2069 12973 14884 14888 14890 14889 14894 
2035 2069 1738 2068 14892 14890 14657 14886 14894 14888 
2036 1738 2069 1739 14662 14890 14893 14664 12754 14895 
2069 1738 1772 1739 14890 12979 14891 14895 12754 12980 
1739 1772 2070 1773 12980 14896 14897 12986 12988 14898 
2036 2070 2037 1739 14899 14900 14674 14664 14897 14669 
1739 1772 2069 2070 12980 14891 14895 14897 14896 14901 
2036 2070 1739 2069 14899 14897 14664 14893 14901 14895 
2037 1739 2070 1740 14669 14897 14900 14671 12761 14902 
2070 1739 1773 1740 14897 12986 14898 14902 12761 12987 
1740 1773 2071 1774 12987 14903 14904 12993 12995 14905 
2037 2071 2038 1740 14906 14907 14681 14671 14904 14676 
1740 1773 2070 2071 12987 14898 14902 14904 14903 14908 
2037 2071 1740 2070 14906 14904 14671 14900 14908 14902 
2038 1740 2071 1741 14676 14904 14907 14678 12768 14909 
2071 1740 1774 1741 14904 12993 14905 14909 12768 12994 
1741 1774 2072 1775 12994 14910 14911 13000 13002 14912 
2038 2072 2039 1741 14913 14914 14688 14678 14911 14683 
1741 1774 2071 2072 12994 14905 14909 14911 14910 14915 
2038 2072 1741 2071 14913 14911 14678 14907 14915 14909 
2039 1741 2072 1742 14683 14911 14914 14685 12775 14916 
2072 1741 1775 1742 14911 13000 14912 14916 12775 13001 
1742 1775 2073 1776 13001 14917 14918 13007 13009 14919 
2039 2073 2040 1742 14920 14921 14695 14685 14918 14690 
1742 1775 2072 2073 13001 14912 14916 14918 14917 14922 
2039 2073 1742 2072 14920 14918 14685 14914 14922 14916 
2040 1742 2073 1743 14690 14918 14921 14692 12782 14923 
2073 1742 1776 1743 14918 13007 14919 14923 12782 13008 
1743 1776 2074 1777 13008 14924 14925 13014 13016 14926 
2040 2074 2041 1743 14927 14928 14702 14692 14925 14697 
1743 1776 2073 2074 13008 14919 14923 14925 14924 14929 
2040 2074 1743 2073 14927 14925 14692 14921 14929 14923 
2041 1743 2074 1744 14697 14925 14928 14699 12789 14930 
2074 1743 1777 1744 14925 13014 14926 14930 12789 13015 
1744 1777 2075 1778 13015 14931 14932 13021 13023 14933 
2041 2075 2042 1744 14934 14935 14709 14699 14932 14704 
1744 1777 2074 2075 13015 14926 14930 14932 14931 14936 
2041 2075 1744 2074 14934 14932 14699 14928 14936 14930 
2042 1744 2075 1745 14704 14932 14935 14706 12796 14937 
2075 1744 1778 1745 14932 13021 14933 14937 12796 13022 
1745 1778 2076 1779 13022 14938 14939 13028 13030 14940 
2042 2076 2043 1745 14941 14942 14716 14706 14939 14711 
1745 1778 2075 2076 13022 14933 14937 14939 14938 14943 
2042 2076 1745 2075 14941 14939 14706 14935 14943 14937 
2043 1745 2076 1746 14711 14939 14942 14713 12803 14944 
2076 1745 1779 1746 14939 13028 14940 14944 12803 13029 
1746 1779 2077 1780 13029 14945 14946 13035 13037 14947 
2043 2077 2044 1746 14948 14949 14723 14713 14946 14718 
1746 1779 2076 2077 13029 14940 14944 14946 14945 14950 
2043 2077 1746 2076 14948 14946 14713 14942 14950 14944 
2044 1746 2077 1747 14718 14946 14949 14720 12810 14951 
2077 1746 1780 1747 14946 13035 14947 14951 12810 13036 
1747 1780 2078 1781 13036 14952 14953 13042 13044 14954 
2044 2078 2045 1747 14955 14956 14730 14720 14953 14725 
1747 1780 2077 2078 13036 14947 14951 14953 14952 14957 
2044 2078 1747 2077 14955 14953 14720 14949 14957 14951 
2045 1747 2078 1748 14725 14953 14956 14727 12817 14958 
2078 1747 1781 1748 14953 13042 14954 14958 12817 13043 
1782 1815 2113 1816 13057 14959 14960 13049 13056 14961 
2079 2113 2080 1782 14962 14963 14964 14965 14960 14966 
1782 1815 2112 2113 13057 14967 14968 14960 14959 14969 
2079 2113 1782 2112 14962 14960 14965 14970 14969 14968 
2080 1782 2113 1783 14966 14960 14963 14971 13051 14972 
2113 1782 1816 1783 14960 13049 14961 14972 13051 13050 
1783 1816 2114 1817 13050 14973 14974 13063 13067 14975 
2080 2114 2081 1783 14976 14977 14978 14971 14974 14979 
1783 1816 2113 2114 13050 14961 14972 14974 14973 14980 
2080 2114 1783 2113 14976 14974 14971 14963 14980 14972 
2081 1783 2114 1784 14979 14974 14977 14981 13065 14982 
2114 1783 1817 1784 14974 13063 14975 14982 13065 13064 
1784 1817 2115 1818 13064 14983 14984 13073 13077 14985 
2081 2115 2082 1784 14986 14987 14988 14981 14984 14989 
1784 1817 2114 2115 13064 14975 14982 14984 14983 14990 
2081 2115 1784 2114 14986 14984 14981 14977 14990 14982 
2082 1784 2115 1785 14989 14984 14987 14991 13075 14992 
2115 1784 1818 1785 14984 13073 14985 14992 13075 13074 
1785 1818 2116 1819 13074 14993 14994 13083 13087 14995 
2082 2116 2083 1785 14996 14997 14998 14991 14994 14999 
1785 1818 2115 2116 13074 14985 14992 14994 14993 15000 
2082 2116 1785 2115 14996 14994 14991 14987 15000 14992 
2083 1785 2116 1786 14999 14994 14997 15001 13085 15002 
2116 1785 1819 1786 14994 13083 14995 15002 13085 13084 
1786 1819 2117 1820 13084 15003 15004 13093 13097 15005 
2083 2117 2084 1786 15006 15007 15008 15001 15004 15009 
1786 1819 2116 2117 13084 14995 15002 15004 15003 15010 
2083 2117 1786 2116 15006 15004 15001 14997 15010 15002 
2084 1786 2117 1787 15009 15004 15007 15011 13095 15012 
2117 1786 1820 1787 15004 13093 15005 15012 13095 13094 
1787 1820 2118 1821 13094 15013 15014 13103 13107 15015 
2084 2118 2085 1787 15016 15017 15018 15011 15014 15019 
1787 1820 2117 2118 13094 15005 15012 15014 15013 15020 
2084 2118 1787 2117 15016 15014 15011 15007 15020 15012 
2085 1787 2118 1788 15019 15014 15017 15021 13105 15022 
2118 1787 1821 1788 15014 13103 15015 15022 13105 13104 
1788 1821 2119 1822 13104 15023 15024 13113 13117 15025 
2085 2119 2086 1788 15026 15027 15028 15021 15024 15029 
1788 1821 2118 2119 13104 15015 15022 15024 15023 15030 
2085 2119 1788 2118 15026 15024 15021 15017 15030 15022 
2086 1788 2119 1789 15029 15024 15027 15031 13115 15032 
2119 1788 1822 1789 15024 13113 15025 15032 13115 13114 
1789 1822 2120 1823 13114 15033 15034 13123 13127 15035 
2086 2120 2087 1789 15036 15037 15038 15031 15034 15039 
1789 1822 2119 2120 13114 15025 15032 15034 15033 15040 
2086 2120 1789 2119 15036 15034 15031 15027 15040 15032 
2087 1789 2120 1790 15039 15034 15037 15041 13125 15042 
2120 1789 1823 1790 15034 13123 15035 15042 13125 13124 
1790 1823 2121 1824 13124 15043 15044 13133 13137 15045 
2087 2121 2088 1790 15046 15047 15048 15041 15044 15049 
1790 1823 2120 2121 13124 15035 15042 15044 15043 15050 
2087 2121 1790 2120 15046 15044 15041 15037 15050 15042 
2088 1790 2121 1791 15049 15044 15047 15051 13135 15052 
2121 1790 1824 1791 15044 13133 15045 15052 13135 13134 
1791 1824 2122 1825 13134 15053 15054 13143 13147 15055 
2088 2122 2089 1791 15056 15057 15058 15051 15054 15059 
1791 1824 2121 2122 13134 15045 15052 15054 15053 15060 
2088 2122 1791 2121 15056 15054 15051 15047 15060 15052 
2089 1791 2122 1792 15059 15054 15057 15061 13145 15062 
2122 1791 1825 1792 15054 13143 15055 15062 13145 13144 
1792 1825 2123 1826 13144 15063 15064 13153 13157 15065 
2089 2123 2090 1792 15066 15067 15068 15061 15064 15069 
1792 1825 2122 2123 13144 15055 15062 15064 15063 15070 
2089 2123 1792 2122 15066 15064 15061 15057 15070 15062 
2090 1792 2123 1793 15069 15064 15067 15071 13155 15072 
2123 1792 1826 1793 15064 13153 15065 15072 13155 13154 
1793 1826 2124 1827 13154 15073 15074 13163 13167 15075 
2090 2124 2091 1793 15076 15077 15078 15071 15074 15079 
1793 1826 2123 2124 13154 15065 15072 15074 15073 15080 
2090 2124 1793 2123 15076 15074 15071 15067 15080 15072 
2091 1793 2124 1794 15079 15074 15077 15081 13165 15082 
2124 1793 1827 1794 15074 13163 15075 15082 13165 13164 
1794 1827 2125 1828 13164 15083 15084 13173 13177 15085 
2091 2125 2092 1794 15086 15087 15088 15081 15084 15089 
1794 1827 2124 2125 13164 15075 15082 15084 15083 15090 
2091 2125 1794 2124 15086 15084 15081 15077 15090 15082 
2092 1794 2125 1795 15089 15084 15087 15091 13175 15092 
2125 1794 1828 1795 15084 13173 15085 15092 13175 13174 
1795 1828 2126 1829 13174 15093 15094 13183 13187 15095 
2092 2126 2093 1795 15096 15097 15098 15091 15094 15099 
1795 1828 2125 2126 13174 15085 15092 15094 15093 15100 
2092 2126 1795 2125 15096 15094 15091 15087 15100 15092 
2093 1795 2126 1796 15099 15094 15097 15101 13185 15102 
2126 1795 1829 1796 15094 13183 15095 15102 13185 13184 
1796 1829 2127 1830 13184 15103 15104 13193 13197 15105 
2093 2127 2094 1796 15106 15107 15108 15101 15104 15109 
1796 1829 2126 2127 13184 15095 15102 15104 15103 15110 
2093 2127 1796 2126 15106 15104 15101 15097 15110 15102 
2094 1796 2127 1797 15109 15104 15107 15111 13195 15112 
2127 1796 1830 1797 15104 13193 15105 15112 13195 13194 
1797 1830 2128 1831 13194 15113 15114 13203 13207 15115 
2094 2128 2095 1797 15116 15117 15118 15111 15114 15119 
1797 1830 2127 2128 13194 15105 15112 15114 15113 15120 
2094 2128 1797 2127 15116 15114 15111 15107 15120 15112 
2095 1797 2128 1798 15119 15114 15117 15121 13205 15122 
2128 1797 1831 1798 15114 13203 15115 15122 13205 13204 
1798 1831 2129 1832 13204 15123 15124 13213 13217 15125 
2095 2129 2096 1798 15126 15127 15128 15121 15124 15129 
1798 1831 2128 2129 13204 15115 15122 15124 15123 15130 
2095 2129 1798 2128 15126 15124 15121 15117 15130 15122 
2096 1798 2129 1799 15129 15124 15127 15131 13215 15132 
2129 1798 1832 1799 15124 13213 15125 15132 13215 13214 
1799 1832 2130 1833 13214 15133 15134 13223 13227 15135 
2096 2130 2097 1799 15136 15137 15138 15131 15134 15139 
1799 1832 2129 2130 13214 15125 15132 15134 15133 15140 
2096 2130 1799 2129 15136 15134 15131 15127 15140 15132 
2097 1799 2130 1800 15139 15134 15137 15141 13225 15142 
2130 1799 1833 1800 15134 13223 15135 15142 13225 13224 
1800 1833 2131 1834 13224 15143 15144 13233 13237 15145 
2097 2131 2098 1800 15146 15147 15148 15141 15144 15149 
1800 1833 2130 2131 13224 15135 15142 15144 15143 15150 
2097 2131 1800 2130 15146 15144 15141 15137 15150 15142 
2098 1800 2131 1801 15149 15144 15147 15151 13235 15152 
2131 1800 1834 1801 15144 13233 15145 15152 13235 13234 
1801 1834 2132 1835 13234 15153 15154 13243 13247 15155 
2098 2132 2099 1801 15156 15157 15158 15151 15154 15159 
1801 1834 2131 2132 13234 15145 15152 15154 15153 15160 
2098 2132 1801 2131 15156 15154 15151 15147 15160 15152 
2099 1801 2132 1802 15159 15154 15157 15161 13245 15162 
2132 1801 1835 1802 15154 13243 15155 15162 13245 13244 
1802 1835 2133 1836 13244 15163 15164 13253 13257 15165 
2099 2133 2100 1802 15166 15167 15168 15161 15164 15169 
1802 1835 2132 2133 13244 15155 15162 15164 15163 15170 
2099 2133 1802 2132 15166 15164 15161 15157 15170 15162 
2100 1802 2133 1803 15169 15164 15167 15171 13255 15172 
2133 1802 1836 1803 15164 13253 15165 15172 13255 13254 
1803 1836 2134 1837 13254 15173 15174 13263 13267 15175 
2100 2134 2101 1803 15176 15177 15178 15171 15174 15179 
1803 1836 2133 2134 13254 15165 15172 15174 15173 15180 
2100 2134 1803 2133 15176 15174 15171 15167 15180 15172 
2101 1803 2134 1804 15179 15174 15177 15181 13265 15182 
2134 1803 1837 1804 15174 13263 15175 15182 13265 13264 
1804 1837 2135 1838 13264 15183 15184 13273 13277 15185 
2101 2135 2102 1804 15186 15187 15188 15181 15184 15189 
1804 1837 2134 2135 13264 15175 15182 15184 15183 15190 
2101 2135 1804 2134 15186 15184 15181 15177 15190 15182 
2102 1804 2135 1805 15189 15184 15187 15191 13275 15192 
2135 1804 1838 1805 15184 13273 15185 15192 13275 13274 
1805 1838 2136 1839 13274 15193 15194 13283 13287 15195 
2102 2136 2103 1805 15196 15197 15198 15191 15194 15199 
1805 1838 2135 2136 13274 15185 15192 15194 15193 15200 
2102 2136 1805 2135 15196 15194 15191 15187 15200 15192 
2103 1805 2136 1806 15199 15194 15197 15201 13285 15202 
2136 1805 1839 1806 15194 13283 15195 15202 13285 13284 
1806 1839 2137 1840 13284 15203 15204 13293 13297 15205 
2103 2137 2104 1806 15206 15207 15208 15201 15204 15209 
1806 1839 2136 2137 13284 15195 15202 15204 15203 15210 
2103 2137 1806 2136 15206 15204 15201 15197 15210 15202 
2104 1806 2137 1807 15209 15204 15207 15211 13295 15212 
2137 1806 1840 1807 15204 13293 15205 15212 13295 13294 
1807 1840 2138 1841 13294 15213 15214 13303 13307 15215 
2104 2138 2105 1807 15216 15217 15218 15211 15214 15219 
1807 1840 2137 2138 13294 15205 15212 15214 15213 15220 
2104 2138 1807 2137 15216 15214 15211 15207 15220 15212 
2105 1807 2138 1808 15219 15214 15217 15221 13305 15222 
2138 1807 1841 1808 15214 13303 15215 15222 13305 13304 
1808 1841 2139 1842 13304 15223 15224 13313 13317 15225 
2105 2139 2106 1808 15226 15227 15228 15221 15224 15229 
1808 1841 2138 2139 13304 15215 15222 15224 15223 15230 
2105 2139 1808 2138 15226 15224 15221 15217 15230 15222 
2106 1808 2139 1809 15229 15224 15227 15231 13315 15232 
2139 1808 1842 1809 15224 13313 15225 15232 13315 13314 
1809 1842 2140 1843 13314 15233 15234 13323 13327 15235 
2106 2140 2107 1809 15236 15237 15238 15231 15234 15239 
1809 1842 2139 2140 13314 15225 15232 15234 15233 15240 
2106 2140 1809 2139 15236 15234 15231 15227 15240 15232 
2107 1809 2140 1810 15239 15234 15237 15241 13325 15242 
2140 1809 1843 1810 15234 13323 15235 15242 13325 13324 
1810 1843 2141 1844 13324 15243 15244 13333 13337 15245 
2107 2141 2108 1810 15246 15247 15248 15241 15244 15249 
1810 1843 2140 2141 13324 15235 15242 15244 15243 15250 
2107 2141 1810 2140 15246 15244 15241 15237 15250 15242 
2108 1810 2141 1811 15249 15244 15247 15251 13335 15252 
2141 1810 1844 1811 15244 13333 15245 15252 13335 13334 
1811 1844 2142 1845 13334 15253 15254 13343 13347 15255 
2108 2142 2109 1811 15256 15257 15258 15251 15254 15259 
1811 1844 2141 2142 13334 15245 15252 15254 15253 15260 
2108 2142 1811 2141 15256 15254 15251 15247 15260 15252 
2109 1811 2142 1812 15259 15254 15257 15261 13345 15262 
2142 1811 1845 1812 15254 13343 15255 15262 13345 13344 
1812 1845 2143 1846 13344 15263 15264 13353 13357 15265 
2109 2143 2110 1812 15266 15267 15268 15261 15264 15269 
1812 1845 2142 2143 13344 15255 15262 15264 15263 15270 
2109 2143 1812 2142 15266 15264 15261 15257 15270 15262 
2110 1812 2143 1813 15269 15264 15267 15271 13355 15272 
2143 1812 1846 1813 15264 13353 15265 15272 13355 13354 
1813 1846 2144 1847 13354 15273 15274 13363 13367 15275 
2110 2144 2111 1813 15276 15277 15278 15271 15274 15279 
1813 1846 2143 2144 13354 15265 15272 15274 15273 15280 
2110 2144 1813 2143 15276 15274 15271 15267 15280 15272 
2111 1813 2144 1814 15279 15274 15277 15281 13365 15282 
2144 1813 1847 1814 15274 13363 15275 15282 13365 13364 
1815 1848 2146 1849 13378 15283 15284 13373 13377 15285 
2112 2146 2113 1815 15286 15287 14969 14967 15284 14959 
1815 1848 2145 2146 13378 15288 15289 15284 15283 15290 
2112 2146 1815 2145 15286 15284 14967 15291 15290 15289 
2113 1815 2146 1816 14959 15284 15287 14961 13056 15292 
2146 1815 1849 1816 15284 13373 15285 15292 13056 13374 
1816 1849 2147 1850 13374 15293 15294 13383 13385 15295 
2113 2147 2114 1816 15296 15297 14980 14961 15294 14973 
1816 1849 2146 2147 13374 15285 15292 15294 15293 15298 
2113 2147 1816 2146 15296 15294 14961 15287 15298 15292 
2114 1816 2147 1817 14973 15294 15297 14975 13067 15299 
2147 1816 1850 1817 15294 13383 15295 15299 13067 13384 
1817 1850 2148 1851 13384 15300 15301 13390 13392 15302 
2114 2148 2115 1817 15303 15304 14990 14975 15301 14983 
1817 1850 2147 2148 13384 15295 15299 15301 15300 15305 
2114 2148 1817 2147 15303 15301 14975 15297 15305 15299 
2115 1817 2148 1818 14983 15301 15304 14985 13077 15306 
2148 1817 1851 1818 15301 13390 15302 15306 13077 13391 
1818 1851 2149 1852 13391 15307 15308 13397 13399 15309 
2115 2149 2116 1818 15310 15311 15000 14985 15308 14993 
1818 1851 2148 2149 13391 15302 15306 15308 15307 15312 
2115 2149 1818 2148 15310 15308 14985 15304 15312 15306 
2116 1818 2149 1819 14993 15308 15311 14995 13087 15313 
2149 1818 1852 1819 15308 13397 15309 15313 13087 13398 
1819 1852 2150 1853 13398 15314 15315 13404 13406 15316 
2116 2150 2117 1819 15317 15318 15010 14995 15315 15003 
1819 1852 2149 2150 13398 15309 15313 15315 15314 15319 
2116 2150 1819 2149 15317 15315 14995 15311 15319 15313 
2117 1819 2150 1820 15003 15315 15318 15005 13097 15320 
2150 1819 1853 1820 15315 13404 15316 15320 13097 13405 
1820 1853 2151 1854 13405 15321 15322 13411 13413 15323 
2117 2151 2118 1820 15324 15325 15020 15005 15322 15013 
1820 1853 2150 2151 13405 15316 15320 15322 15321 15326 
2117 2151 1820 2150 15324 15322 15005 15318 15326 15320 
2118 1820 2151 1821 15013 15322 15325 15015 13107 15327 
2151 1820 1854 1821 15322 13411 15323 15327 13107 13412 
1821 1854 2152 1855 13412 15328 15329 13418 13420 15330 
2118 2152 2119 1821 15331 15332 15030 15015 15329 15023 
1821 1854 2151 2152 13412 15323 15327 15329 15328 15333 
2118 2152 1821 2151 15331 15329 15015 15325 15333 15327 
2119 1821 2152 1822 15023 15329 15332 15025 13117 15334 
2152 1821 1855 1822 15329 13418 15330 15334 13117 13419 
1822 1855 2153 1856 13419 15335 15336 13425 13427 15337 
2119 2153 2120 1822 15338 15339 15040 15025 15336 15033 
1822 1855 2152 2153 13419 15330 15334 15336 15335 15340 
2119 2153 1822 2152 15338 15336 15025 15332 15340 15334 
2120 1822 2153 1823 15033 15336 15339 15035 13127 15341 
2153 1822 1856 1823 15336 13425 15337 15341 13127 13426 
1823 1856 2154 1857 13426 15342 15343 13432 13434 15344 
2120 2154 2121 1823 15345 15346 15050 15035 15343 15043 
1823 1856 2153 2154 13426 15337 15341 15343 15342 15347 
2120 2154 1823 2153 15345 15343 15035 15339 15347 15341 
2121 1823 2154 1824 15043 15343 15346 15045 13137 15348 
2154 1823 1857 1824 15343 13432 15344 15348 13137 13433 
1824 1857 2155 1858 13433 15349 15350 13439 13441 15351 
2121 2155 2122 1824 15352 15353 15060 15045 15350 15053 
1824 1857 2154 2155 13433 15344 15348 15350 15349 15354 
2121 2155 1824 2154 15352 15350 15045 15346 15354 15348 
2122 1824 2155 1825 15053 15350 15353 15055 13147 15355 
2155 1824 1858 1825 15350 13439 15351 15355 13147 13440 
1825 1858 2156 1859 13440 15356 15357 13446 13448 15358 
2122 2156 2123 1825 15359 15360 15070 15055 15357 15063 
1825 1858 2155 2156 13440 15351 15355 15357 15356 15361 
2122 2156 1825 2155 15359 15357 15055 15353 15361 15355 
2123 1825 2156 1826 15063 15357 15360 15065 13157 15362 
2156 1825 1859 1826 15357 13446 15358 15362 13157 13447 
1826 1859 2157 1860 13447 15363 15364 13453 13455 15365 
2123 2157 2124 1826 15366 15367 15080 15065 15364 15073 
1826 1859 2156 2157 13447 15358 15362 15364 15363 15368 
2123 2157 1826 2156 15366 15364 15065 15360 15368 15362 
2124 1826 2157 1827 15073 15364 15367 15075 13167 15369 
2157 1826 1860 1827 15364 13453 15365 15369 13167 13454 
1827 1860 2158 1861 13454 15370 15371 13460 13462 15372 
2124 2158 2125 1827 15373 15374 15090 15075 15371 15083 
1827 1860 2157 2158 13454 15365 15369 15371 15370 15375 
2124 2158 1827 2157 15373 15371 15075 15367 15375 15369 
2125 1827 2158 1828 15083 15371 15374 15085 13177 15376 
2158 1827 1861 1828 15371 13460 15372 15376 13177 13461 
1828 1861 2159 1862 13461 15377 15378 13467 13469 15379 
2125 2159 2126 1828 15380 15381 15100 15085 15378 15093 
1828 1861 2158 2159 13461 15372 15376 15378 15377 15382 
2125 2159 1828 2158 15380 15378 15085 15374 15382 15376 
2126 1828 2159 1829 15093 15378 15381 15095 13187 15383 
2159 1828 1862 1829 15378 13467 15379 15383 13187 13468 
1829 1862 2160 1863 13468 15384 15385 13474 13476 15386 
2126 2160 2127 1829 15387 15388 15110 15095 15385 15103 
1829 1862 2159 2160 13468 15379 15383 15385 15384 15389 
2126 2160 1829 2159 15387 15385 15095 15381 15389 15383 
2127 1829 2160 1830 15103 15385 15388 15105 13197 15390 
2160 1829 1863 1830 15385 13474 15386 15390 13197 13475 
1830 1863 2161 1864 13475 15391 15392 13481 13483 15393 
2127 2161 2128 1830 15394 15395 15120 15105 15392 15113 
1830 1863 2160 2161 13475 15386 15390 15392 15391 15396 
2127 2161 1830 2160 15394 15392 15105 15388 15396 15390 
2128 1830 2161 1831 15113 15392 15395 15115 13207 15397 
2161 1830 1864 1831 15392 13481 15393 15397 13207 13482 
1831 1864 2162 1865 13482 15398 15399 13488 13490 15400 
2128 2162 2129 1831 15401 15402 15130 15115 15399 15123 
1831 1864 2161 2162 13482 15393 15397 15399 15398 15403 
2128 2162 1831 2161 15401 15399 15115 15395 15403 15397 
2129 1831 2162 1832 15123 15399 15402 15125 13217 15404 
2162 1831 1865 1832 15399 13488 15400 15404 13217 13489 
1832 1865 2163 1866 13489 15405 15406 13495 13497 15407 
2129 2163 2130 1832 15408 15409 15140 15125 15406 15133 
1832 1865 2162 2163 13489 15400 15404 15406 15405 15410 
2129 2163 1832 2162 15408 15406 15125 15402 15410 15404 
2130 1832 2163 1833 15133 15406 15409 15135 13227 15411 
2163 1832 1866 1833 15406 13495 15407 15411 13227 13496 
1833 1866 2164 1867 13496 15412 15413 13502 13504 15414 
2130 2164 2131 1833 15415 15416 15150 15135 15413 15143 
1833 1866 2163 2164 13496 15407 15411 15413 15412 15417 
2130 2164 1833 2163 15415 15413 15135 15409 15417 15411 
2131 1833 2164 1834 15143 15413 15416 15145 13237 15418 
2164 1833 1867 1834 15413 13502 15414 15418 13237 13503 
1834 1867 2165 1868 13503 15419 15420 13509 13511 15421 
2131 2165 2132 1834 15422 15423 15160 15145 15420 15153 
1834 1867 2164 2165 13503 15414 15418 15420 15419 15424 
2131 2165 1834 2164 15422 15420 15145 15416 15424 15418 
2132 1834 2165 1835 15153 15420 15423 15155 13247 15425 
2165 1834 1868 1835 15420 13509 15421 15425 13247 13510 
1835 1868 2166 1869 13510 15426 15427 13516 13518 15428 
2132 2166 2133 1835 15429 15430 15170 15155 15427 15163 
1835 1868 2165 2166 13510 15421 15425 15427 15426 15431 
2132 2166 1835 2165 15429 15427 15155 15423 15431 15425 
2133 1835 2166 1836 15163 15427 15430 15165 13257 15432 
2166 1835 1869 1836 15427 13516 15428 15432 13257 13517 
1836 1869 2167 1870 13517 15433 15434 13523 13525 15435 
2133 2167 2134 1836 15436 15437 15180 15165 15434 15173 
1836 1869 2166 2167 13517 15428 15432 15434 15433 15438 
2133 2167 1836 2166 15436 15434 15165 15430 15438 15432 
2134 1836 2167 1837 15173 15434 15437 15175 13267 15439 
2167 1836 1870 1837 15434 13523 15435 15439 13267 13524 
1837 1870 2168 1871 13524 15440 15441 13530 13532 15442 
2134 2168 2135 1837 15443 15444 15190 15175 15441 15183 
1837 1870 2167 2168 13524 15435 15439 15441 15440 15445 
2134 2168 1837 2167 15443 15441 15175 15437 15445 15439 
2135 1837 2168 1838 15183 15441 15444 15185 13277 15446 
2168 1837 1871 1838 15441 13530 15442 15446 13277 13531 
1838 1871 2169 1872 13531 15447 15448 13537 13539 15449 
2135 2169 2136 1838 15450 15451 15200 15185 15448 15193 
1838 1871 2168 2169 13531 15442 15446 15448 15447 15452 
2135 2169 1838 2168 15450 15448 15185 15444 15452 15446 
2136 1838 2169 1839 15193 15448 15451 15195 13287 15453 
2169 1838 1872 1839 15448 13537 15449 15453 13287 13538 
1839 1872 2170 1873 13538 15454 15455 13544 13546 15456 
2136 2170 2137 1839 15457 15458 15210 15195 15455 15203 
1839 1872 2169 2170 13538 15449 15453 15455 15454 15459 
2136 2170 1839 2169 15457 15455 15195 15451 15459 15453 
2137 1839 2170 1840 15203 15455 15458 15205 13297 15460 
2170 1839 1873 1840 15455 13544 15456 15460 13297 13545 
1840 1873 2171 1874 13545 15461 15462 13551 13553 15463 
2137 2171 2138 1840 15464 15465 15220 15205 15462 15213 
1840 1873 2170 2171 13545 15456 15460 15462 15461 15466 
2137 2171 1840 2170 15464 15462 15205 15458 15466 15460 
2138 1840 2171 1841 15213 15462 15465 15215 13307 15467 
2171 1840 1874 1841 15462 13551 15463 15467 13307 13552 
1841 1874 2172 1875 13552 15468 15469 13558 13560 15470 
2138 2172 2139 1841 15471 15472 15230 15215 15469 15223 
1841 1874 2171 2172 13552 15463 15467 15469 15468 15473 
2138 2172 1841 2171 15471 15469 15215 15465 15473 15467 
2139 1841 2172 1842 15223 15469 15472 15225 13317 15474 
2172 1841 1875 1842 15469 13558 15470 15474 13317 13559 
1842 1875 2173 1876 13559 15475 15476 13565 13567 15477 
2139 2173 2140 1842 15478 15479 15240 15225 15476 15233 
1842 1875 2172 2173 13559 15470 15474 15476 15475 15480 
2139 2173 1842 2172 15478 15476 15225 15472 15480 15474 
2140 1842 2173 1843 15233 15476 15479 15235 13327 15481 
2173 1842 1876 1843 15476 13565 15477 15481 13327 13566 
1843 1876 2174 1877 13566 15482 15483 13572 13574 15484 
2140 2174 2141 1843 15485 15486 15250 15235 15483 15243 
1843 1876 2173 2174 13566 15477 15481 15483 15482 15487 
2140 2174 1843 2173 15485 15483 15235 15479 15487 15481 
2141 1843 2174 1844 15243 15483 15486 15245 13337 15488 
2174 1843 1877 1844 15483 13572 15484 15488 13337 13573 
1844 1877 2175 1878 13573 15489 15490 13579 13581 15491 
2141 2175 2142 1844 15492 15493 15260 15245 15490 15253 
1844 1877 2174 2175 13573 15484 15488 15490 15489 15494 
2141 2175 1844 2174 15492 15490 15245 15486 15494 15488 
2142 1844 2175 1845 15253 15490 15493 15255 13347 15495 
2175 1844 1878 1845 15490 13579 15491 15495 13347 13580 
1845 1878 2176 1879 13580 15496 15497 13586 13588 15498 
2142 2176 2143 1845 15499 15500 15270 15255 15497 15263 
1845 1878 2175 2176 13580 15491 15495 15497 15496 15501 
2142 2176 1845 2175 15499 15497 15255 15493 15501 15495 
2143 1845 2176 1846 15263 15497 15500 15265 13357 15502 
2176 1845 1879 1846 15497 13586 15498 15502 13357 13587 
1846 1879 2177 1880 13587 15503 15504 13593 13595 15505 
2143 2177 2144 1846 15506 15507 15280 15265 15504 15273 
1846 1879 2176 2177 13587 15498 15502 15504 15503 15508 
2143 2177 1846 2176 15506 15504 15265 15500 15508 15502 
2144 1846 2177 1847 15273 15504 15507 15275 13367 15509 
2177 1846 1880 1847 15504 13593 15505 15509 13367 13594 
1848 1881 2179 1882 13605 15510 15511 13600 13604 15512 
2145 2179 2146 1848 15513 15514 15290 15288 15511 15283 
1848 1881 2178 2179 13605 15515 15516 15511 15510 15517 
2145 2179 1848 2178 15513 15511 15288 15518 15517 15516 
2146 1848 2179 1849 15283 15511 15514 15285 13377 15519 
2179 1848 1882 1849 15511 13600 15512 15519 13377 13601 
1849 1882 2180 1883 13601 15520 15521 13610 13612 15522 
2146 2180 2147 1849 15523 15524 15298 15285 15521 15293 
1849 1882 2179 2180 13601 15512 15519 15521 15520 15525 
2146 2180 1849 2179 15523 15521 15285 15514 15525 15519 
2147 1849 2180 1850 15293 15521 15524 15295 13385 15526 
2180 1849 1883 1850 15521 13610 15522 15526 13385 13611 
1850 1883 2181 1884 13611 15527 15528 13617 13619 15529 
2147 2181 2148 1850 15530 15531 15305 15295 15528 15300 
1850 1883 2180 2181 13611 15522 15526 15528 15527 15532 
2147 2181 1850 2180 15530 15528 15295 15524 15532 15526 
2148 1850 2181 1851 15300 15528 15531 15302 13392 15533 
2181 1850 1884 1851 15528 13617 15529 15533 13392 13618 
1851 1884 2182 1885 13618 15534 15535 13624 13626 15536 
2148 2182 2149 1851 15537 15538 15312 15302 15535 15307 
1851 1884 2181 2182 13618 15529 15533 15535 15534 15539 
2148 2182 1851 2181 15537 15535 15302 15531 15539 15533 
2149 1851 2182 1852 15307 15535 15538 15309 13399 15540 
2182 1851 1885 1852 15535 13624 15536 15540 13399 13625 
1852 1885 2183 1886 13625 15541 15542 13631 13633 15543 
2149 2183 2150 1852 15544 15545 15319 15309 15542 15314 
1852 1885 2182 2183 13625 15536 15540 15542 15541 15546 
2149 2183 1852 2182 15544 15542 15309 15538 15546 15540 
2150 1852 2183 1853 15314 15542 15545 15316 13406 15547 
2183 1852 1886 1853 15542 13631 15543 15547 13406 13632 
1853 1886 2184 1887 13632 15548 15549 13638 13640 15550 
2150 2184 2151 1853 15551 15552 15326 15316 15549 15321 
1853 1886 2183 2184 13632 15543 15547 15549 15548 15553 
2150 2184 1853 2183 15551 15549 15316 15545 15553 15547 
2151 1853 2184 1854 15321 15549 15552 15323 13413 15554 
2184 1853 1887 1854 15549 13638 15550 15554 13413 13639 
1854 1887 2185 1888 13639 15555 15556 13645 13647 15557 
2151 2185 2152 1854 15558 15559 15333 15323 15556 15328 
1854 1887 2184 2185 13639 15550 15554 15556 15555 15560 
2151 2185 1854 2184 15558 15556 15323 15552 15560 15554 
2152 1854 2185 1855 15328 15556 15559 15330 13420 15561 
2185 1854 1888 1855 15556 13645 15557 15561 13420 13646 
1855 1888 2186 1889 13646 15562 15563 13652 13654 15564 
2152 2186 2153 1855 15565 15566 15340 15330 15563 15335 
1855 1888 2185 2186 13646 15557 15561 15563 15562 15567 
2152 2186 1855 2185 15565 15563 15330 15559 15567 15561 
2153 1855 2186 1856 15335 15563 15566 15337 13427 15568 
2186 1855 1889 1856 15563 13652 15564 15568 13427 13653 
1856 1889 2187 1890 13653 15569 15570 13659 13661 15571 
2153 2187 2154 1856 15572 15573 15347 15337 15570 15342 
1856 1889 2186 2187 13653 15564 15568 15570 15569 15574 
2153 2187 1856 2186 15572 15570 15337 15566 15574 15568 
2154 1856 2187 1857 15342 15570 15573 15344 13434 15575 
2187 1856 1890 1857 15570 13659 15571 15575 13434 13660 
1857 1890 2188 1891 13660 15576 15577 13666 13668 15578 
2154 2188 2155 1857 15579 15580 15354 15344 15577 15349 
1857 1890 2187 2188 13660 15571 15575 15577 15576 15581 
2154 2188 1857 2187 15579 15577 15344 15573 15581 15575 
2155 1857 2188 1858 15349 15577 15580 15351 13441 15582 
2188 1857 1891 1858 15577 13666 15578 15582 13441 13667 
1858 1891 2189 1892 13667 15583 15584 13673 13675 15585 
2155 2189 2156 1858 15586 15587 15361 15351 15584 15356 
1858 1891 2188 2189 13667 15578 15582 15584 15583 15588 
2155 2189 1858 2188 15586 15584 15351 15580 15588 15582 
2156 1858 2189 1859 15356 15584 15587 15358 13448 15589 
2189 1858 1892 1859 15584 13673 15585 15589 13448 13674 
1859 1892 2190 1893 13674 15590 15591 13680 13682 15592 
2156 2190 2157 1859 15593 15594 15368 15358 15591 15363 
1859 1892 2189 2190 13674 15585 15589 15591 15590 15595 
2156 2190 1859 2189 15593 15591 15358 15587 15595 15589 
2157 1859 2190 1860 15363 15591 15594 15365 13455 15596 
2190 1859 1893 1860 15591 13680 15592 15596 13455 13681 
1860 1893 2191 1894 13681 15597 15598 13687 13689 15599 
2157 2191 2158 1860 15600 15601 15375 15365 15598 15370 
1860 1893 2190 2191 13681 15592 15596 15598 15597 15602 
2157 2191 1860 2190 15600 15598 15365 15594 15602 15596 
2158 1860 2191 1861 15370 15598 15601 15372 13462 15603 
2191 1860 1894 1861 15598 13687 15599 15603 13462 13688 
1861 1894 2192 1895 13688 15604 15605 13694 13696 15606 
2158 2192 2159 1861 15607 15608 15382 15372 15605 15377 
1861 1894 2191 2192 13688 15599 15603 15605 15604 15609 
2158 2192 1861 2191 15607 15605 15372 15601 15609 15603 
2159 1861 2192 1862 15377 15605 15608 15379 13469 15610 
2192 1861 1895 1862 15605 13694 15606 15610 13469 13695 
1862 1895 2193 1896 13695 15611 15612 13701 13703 15613 
2159 2193 2160 1862 15614 15615 15389 15379 15612 15384 
1862 1895 2192 2193 13695 15606 15610 15612 15611 15616 
2159 2193 1862 2192 15614 15612 15379 15608 15616 15610 
2160 1862 2193 1863 15384 15612 15615 15386 13476 15617 
2193 1862 1896 1863 15612 13701 15613 15617 13476 13702 
1863 1896 2194 1897 13702 15618 15619 13708 13710 15620 
2160 2194 2161 1863 15621 15622 15396 15386 15619 15391 
1863 1896 2193 2194 13702 15613 15617 15619 15618 15623 
2160 2194 1863 2193 15621 15619 15386 15615 15623 15617 
2161 1863 2194 1864 15391 15619 15622 15393 13483 15624 
2194 1863 1897 1864 15619 13708 15620 15624 13483 13709 
1864 1897 2195 1898 13709 15625 15626 13715 13717 15627 
2161 2195 2162 1864 15628 15629 15403 15393 15626 15398 
1864 1897 2194 2195 13709 15620 15624 15626 15625 15630 
2161 2195 1864 2194 15628 15626 15393 15622 15630 15624 
2162 1864 2195 1865 15398 15626 15629 15400 13490 15631 
2195 1864 1898 1865 15626 13715 15627 15631 13490 13716 
1865 1898 2196 1899 13716 15632 15633 13722 13724 15634 
2162 2196 2163 1865 15635 15636 15410 15400 15633 15405 
1865 1898 2195 2196 13716 15627 15631 15633 15632 15637 
2162 2196 1865 2195 15635 15633 15400 15629 15637 15631 
2163 1865 2196 1866 15405 15633 15636 15407 13497 15638 
2196 1865 1899 1866 15633 13722 15634 15638 13497 13723 
1866 1899 2197 1900 13723 15639 15640 13729 13731 15641 
2163 2197 2164 1866 15642 15643 15417 15407 15640 15412 
1866 1899 2196 2197 13723 15634 15638 15640 15639 15644 
2163 2197 1866 2196 15642 15640 15407 15636 15644 15638 
2164 1866 2197 1867 15412 15640 15643 15414 13504 15645 
2197 1866 1900 1867 15640 13729 15641 15645 13504 13730 
1867 1900 2198 1901 13730 15646 15647 13736 13738 15648 
2164 2198 2165 1867 15649 15650 15424 15414 15647 15419 
1867 1900 2197 2198 13730 15641 15645 15647 15646 15651 
2164 2198 1867 2197 15649 15647 15414 15643 15651 15645 
2165 1867 2198 1868 15419 15647 15650 15421 13511 15652 
2198 1867 1901 1868 15647 13736 15648 15652 13511 13737 
1868 1901 2199 1902 13737 15653 15654 13743 13745 15655 
2165 2199 2166 1868 15656 15657 15431 15421 15654 15426 
1868 1901 2198 2199 13737 15648 15652 15654 15653 15658 
2165 2199 1868 2198 15656 15654 15421 15650 15658 15652 
2166 1868 2199 1869 15426 15654 15657 15428 13518 15659 
2199 1868 1902 1869 15654 13743 15655 15659 13518 13744 
1869 1902 2200 1903 13744 15660 15661 13750 13752 15662 
2166 2200 2167 1869 15663 15664 15438 15428 15661 15433 
1869 1902 2199 2200 13744 15655 15659 15661 15660 15665 
2166 2200 1869 2199 15663 15661 15428 15657 15665 15659 
2167 1869 2200 1870 15433 15661 15664 15435 13525 15666 
2200 1869 1903 1870 15661 13750 15662 15666 13525 13751 
1870 1903 2201 1904 13751 15667 15668 13757 13759 15669 
2167 2201 2168 1870 15670 15671 15445 15435 15668 15440 
1870 1903 2200 2201 13751 15662 15666 15668 15667 15672 
2167 2201 1870 2200 15670 15668 15435 15664 15672 15666 
2168 1870 2201 1871 15440 15668 15671 15442 13532 15673 
2201 1870 1904 1871 15668 13757 15669 15673 13532 13758 
1871 1904 2202 1905 13758 15674 15675 13764 13766 15676 
2168 2202 2169 1871 15677 15678 15452 15442 15675 15447 
1871 1904 2201 2202 13758 15669 15673 15675 15674 15679 
2168 2202 1871 2201 15677 15675 15442 15671 15679 15673 
2169 1871 2202 1872 15447 15675 15678 15449 13539 15680 
2202 1871 1905 1872 15675 13764 15676 15680 13539 13765 
1872 1905 2203 1906 13765 15681 15682 13771 13773 15683 
2169 2203 2170 1872 15684 15685 15459 15449 15682 15454 
1872 1905 2202 2203 13765 15676 15680 15682 15681 15686 
2169 2203 1872 2202 15684 15682 15449 15678 15686 15680 
2170 1872 2203 1873 15454 15682 15685 15456 13546 15687 
2203 1872 1906 1873 15682 13771 15683 15687 13546 13772 
1873 1906 2204 1907 13772 15688 15689 13778 13780 15690 
2170 2204 2171 1873 15691 15692 15466 15456 15689 15461 
1873 1906 2203 2204 13772 15683 15687 15689 15688 15693 
2170 2204 1873 2203 15691 15689 15456 15685 15693 15687 
2171 1873 2204 1874 15461 15689 15692 15463 13553 15694 
2204 1873 1907 1874 15689 13778 15690 15694 13553 13779 
1874 1907 2205 1908 13779 15695 15696 13785 13787 15697 
2171 2205 2172 1874 15698 15699 15473 15463 15696 15468 
1874 1907 2204 2205 13779 15690 15694 15696 15695 15700 
2171 2205 1874 2204 15698 15696 15463 15692 15700 15694 
2172 1874 2205 1875 15468 15696 15699 15470 13560 15701 
2205 1874 1908 1875 15696 13785 15697 15701 13560 13786 
1875 1908 2206 1909 13786 15702 15703 13792 13794 15704 
2172 2206 2173 1875 15705 15706 15480 15470 15703 15475 
1875 1908 2205 2206 13786 15697 15701 15703 15702 15707 
2172 2206 1875 2205 15705 15703 15470 15699 15707 15701 
2173 1875 2206 1876 15475 15703 15706 15477 13567 15708 
2206 1875 1909 1876 15703 13792 15704 15708 13567 13793 
1876 1909 2207 1910 13793 15709 15710 13799 13801 15711 
2173 2207 2174 1876 15712 15713 15487 15477 15710 15482 
1876 1909 2206 2207 13793 15704 15708 15710 15709 15714 
2173 2207 1876 2206 15712 15710 15477 15706 15714 15708 
2174 1876 2207 1877 15482 15710 15713 15484 13574 15715 
2207 1876 1910 1877 15710 13799 15711 15715 13574 13800 
1877 1910 2208 1911 13800 15716 15717 13806 13808 15718 
2174 2208 2175 1877 15719 15720 15494 15484 15717 15489 
1877 1910 2207 2208 13800 15711 15715 15717 15716 15721 
2174 2208 1877 2207 15719 15717 15484 15713 15721 15715 
2175 1877 2208 1878 15489 15717 15720 15491 13581 15722 
2208 1877 1911 1878 15717 13806 15718 15722 13581 13807 
1878 1911 2209 1912 13807 15723 15724 13813 13815 15725 
2175 2209 2176 1878 15726 15727 15501 15491 15724 15496 
1878 1911 2208 2209 13807 15718 15722 15724 15723 15728 
2175 2209 1878 2208 15726 15724 15491 15720 15728 15722 
2176 1878 2209 1879 15496 15724 15727 15498 13588 15729 
2209 1878 1912 1879 15724 13813 15725 15729 13588 13814 
1879 1912 2210 1913 13814 15730 15731 13820 13822 15732 
2176 2210 2177 1879 15733 15734 15508 15498 15731 15503 
1879 1912 2209 2210 13814 15725 15729 15731 15730 15735 
2176 2210 1879 2209 15733 15731 15498 15727 15735 15729 
2177 1879 2210 1880 15503 15731 15734 15505 13595 15736 
2210 1879 1913 1880 15731 13820 15732 15736 13595 13821 
1881 1914 2212 1915 13832 15737 15738 13827 13831 15739 
2178 2212 2179 1881 15740 15741 15517 15515 15738 15510 
1881 1914 2211 2212 13832 15742 15743 15738 15737 15744 
2178 2212 1881 2211 15740 15738 15515 15745 15744 15743 
2179 1881 2212 1882 15510 15738 15741 15512 13604 15746 
2212 1881 1915 1882 15738 13827 15739 15746 13604 13828 
1882 1915 2213 1916 13828 15747 15748 13837 13839 15749 
2179 2213 2180 1882 15750 15751 15525 15512 15748 15520 
1882 1915 2212 2213 13828 15739 15746 15748 15747 15752 
2179 2213 1882 2212 15750 15748 15512 15741 15752 15746 
2180 1882 2213 1883 15520 15748 15751 15522 13612 15753 
2213 1882 1916 1883 15748 13837 15749 15753 13612 13838 
1883 1916 2214 1917 13838 15754 15755 13844 13846 15756 
2180 2214 2181 1883 15757 15758 15532 15522 15755 15527 
1883 1916 2213 2214 13838 15749 15753 15755 15754 15759 
2180 2214 1883 2213 15757 15755 15522 15751 15759 15753 
2181 1883 2214 1884 15527 15755 15758 15529 13619 15760 
2214 1883 1917 1884 15755 13844 15756 15760 13619 13845 
1884 1917 2215 1918 13845 15761 15762 13851 13853 15763 
2181 2215 2182 1884 15764 15765 15539 15529 15762 15534 
1884 1917 2214 2215 13845 15756 15760 15762 15761 15766 
2181 2215 1884 2214 15764 15762 15529 15758 15766 15760 
2182 1884 2215 1885 15534 15762 15765 15536 13626 15767 
2215 1884 1918 1885 15762 13851 15763 15767 13626 13852 
1885 1918 2216 1919 13852 15768 15769 13858 13860 15770 
2182 2216 2183 1885 15771 15772 15546 15536 15769 15541 
1885 1918 2215 2216 13852 15763 15767 15769 15768 15773 
2182 2216 1885 2215 15771 15769 15536 15765 15773 15767 
2183 1885 2216 1886 15541 15769 15772 15543 13633 15774 
2216 1885 1919 1886 15769 13858 15770 15774 13633 13859 
1886 1919 2217 1920 13859 15775 15776 13865 13867 15777 
2183 2217 2184 1886 15778 15779 15553 15543 15776 15548 
1886 1919 2216 2217 13859 15770 15774 15776 15775 15780 
2183 2217 1886 2216 15778 15776 15543 15772 15780 15774 
2184 1886 2217 1887 15548 15776 15779 15550 13640 15781 
2217 1886 1920 1887 15776 13865 15777 15781 13640 13866 
1887 1920 2218 1921 13866 15782 15783 13872 13874 15784 
2184 2218 2185 1887 15785 15786 15560 15550 15783 15555 
1887 1920 2217 2218 13866 15777 15781 15783 15782 15787 
2184 2218 1887 2217 15785 15783 15550 15779 15787 15781 
2185 1887 2218 1888 15555 15783 15786 15557 13647 15788 
2218 1887 1921 1888 15783 13872 15784 15788 13647 13873 
1888 1921 2219 1922 13873 15789 15790 13879 13881 15791 
2185 2219 2186 1888 15792 15793 15567 15557 15790 15562 
1888 1921 2218 2219 13873 15784 15788 15790 15789 15794 
2185 2219 1888 2218 15792 15790 15557 15786 15794 15788 
2186 1888 2219 1889 15562 15790 15793 15564 13654 15795 
2219 1888 1922 1889 15790 13879 15791 15795 13654 13880 
1889 1922 2220 1923 13880 15796 15797 13886 13888 15798 
2186 2220 2187 1889 15799 15800 15574 15564 15797 15569 
1889 1922 2219 2220 13880 15791 15795 15797 15796 15801 
2186 2220 1889 2219 15799 15797 15564 15793 15801 15795 
2187 1889 2220 1890 15569 15797 15800 15571 13661 15802 
2220 1889 1923 1890 15797 13886 15798 15802 13661 13887 
1890 1923 2221 1924 13887 15803 15804 13893 13895 15805 
2187 2221 2188 1890 15806 15807 15581 15571 15804 15576 
1890 1923 2220 2221 13887 15798 15802 15804 15803 15808 
2187 2221 1890 2220 15806 15804 15571 15800 15808 15802 
2188 1890 2221 1891 15576 15804 15807 15578 13668 15809 
2221 1890 1924 1891 15804 13893 15805 15809 13668 13894 
1891 1924 2222 1925 13894 15810 15811 13900 13902 15812 
2188 2222 2189 1891 15813 15814 15588 15578 15811 15583 
1891 1924 2221 2222 13894 15805 15809 15811 15810 15815 
2188 2222 1891 2221 15813 15811 15578 15807 15815 15809 
2189 1891 2222 1892 15583 15811 15814 15585 13675 15816 
2222 1891 1925 1892 15811 13900 15812 15816 13675 13901 
1892 1925 2223 1926 13901 15817 15818 13907 13909 15819 
2189 2223 2190 1892 15820 15821 15595 15585 15818 15590 
1892 1925 2222 2223 13901 15812 15816 15818 15817 15822 
2189 2223 1892 2222 15820 15818 15585 15814 15822 15816 
2190 1892 2223 1893 15590 15818 15821 15592 13682 15823 
2223 1892 1926 1893 15818 13907 15819 15823 13682 13908 
1893 1926 2224 1927 13908 15824 15825 13914 13916 15826 
2190 2224 2191 1893 15827 15828 15602 15592 15825 15597 
1893 1926 2223 2224 13908 15819 15823 15825 15824 15829 
2190 2224 1893 2223 15827 15825 15592 15821 15829 15823 
2191 1893 2224 1894 15597 15825 15828 15599 13689 15830 
2224 1893 1927 1894 15825 13914 15826 15830 13689 13915 
1894 1927 2225 1928 13915 15831 15832 13921 13923 15833 
2191 2225 2192 1894 15834 15835 15609 15599 15832 15604 
1894 1927 2224 2225 13915 15826 15830 15832 15831 15836 
2191 2225 1894 2224 15834 15832 15599 15828 15836 15830 
2192 1894 2225 1895 15604 15832 15835 15606 13696 15837 
2225 1894 1928 1895 15832 13921 15833 15837 13696 13922 
1895 1928 2226 1929 13922 15838 15839 13928 13930 15840 
2192 2226 2193 1895 15841 15842 15616 15606 15839 15611 
1895 1928 2225 2226 13922 15833 15837 15839 15838 15843 
2192 2226 1895 2225 15841 15839 15606 15835 15843 15837 
2193 1895 2226 1896 15611 15839 15842 15613 13703 15844 
2226 1895 1929 1896 15839 13928 15840 15844 13703 13929 
1896 1929 2227 1930 13929 15845 15846 13935 13937 15847 
2193 2227 2194 1896 15848 15849 15623 15613 15846 15618 
1896 1929 2226 2227 13929 15840 15844 15846 15845 15850 
2193 2227 1896 2226 15848 15846 15613 15842 15850 15844 
2194 1896 2227 1897 15618 15846 15849 15620 13710 15851 
2227 1896 1930 1897 15846 13935 15847 15851 13710 13936 
1897 1930 2228 1931 13936 15852 15853 13942 13944 15854 
2194 2228 2195 1897 15855 15856 15630 15620 15853 15625 
1897 1930 2227 2228 13936 15847 15851 15853 15852 15857 
2194 2228 1897 2227 15855 15853 15620 15849 15857 15851 
2195 1897 2228 1898 15625 15853 15856 15627 13717 15858 
2228 1897 1931 1898 15853 13942 15854 15858 13717 13943 
1898 1931 2229 1932 13943 15859 15860 13949 13951 15861 
2195 2229 2196 1898 15862 15863 15637 15627 15860 15632 
1898 1931 2228 2229 13943 15854 15858 15860 15859 15864 
2195 2229 1898 2228 15862 15860 15627 15856 15864 15858 
2196 1898 2229 1899 15632 15860 15863 15634 13724 15865 
2229 1898 1932 1899 15860 13949 15861 15865 13724 13950 
1899 1932 2230 1933 13950 15866 15867 13956 13958 15868 
2196 2230 2197 1899 15869 15870 15644 15634 15867 15639 
1899 1932 2229 2230 13950 15861 15865 15867 15866 15871 
2196 2230 1899 2229 15869 15867 15634 15863 15871 15865 
2197 1899 2230 1900 15639 15867 15870 15641 13731 15872 
2230 1899 1933 1900 15867 13956 15868 15872 13731 13957 
1900 1933 2231 1934 13957 15873 15874 13963 13965 15875 
2197 2231 2198 1900 15876 15877 15651 15641 15874 15646 
1900 1933 2230 2231 13957 15868 15872 15874 15873 15878 
2197 2231 1900 2230 15876 15874 15641 15870 15878 15872 
2198 1900 2231 1901 15646 15874 15877 15648 13738 15879 
2231 1900 1934 1901 15874 13963 15875 15879 13738 13964 
1901 1934 2232 1935 13964 15880 15881 13970 13972 15882 
2198 2232 2199 1901 15883 15884 15658 15648 15881 15653 
1901 1934 2231 2232 13964 15875 15879 15881 15880 15885 
2198 2232 1901 2231 15883 15881 15648 15877 15885 15879 
2199 1901 2232 1902 15653 15881 15884 15655 13745 15886 
2232 1901 1935 1902 15881 13970 15882 15886 13745 13971 
1902 1935 2233 1936 13971 15887 15888 13977 13979 15889 
2199 2233 2200 1902 15890 15891 15665 15655 15888 15660 
1902 1935 2232 2233 13971 15882 15886 15888 15887 15892 
2199 2233 1902 2232 15890 15888 15655 15884 15892 15886 
2200 1902 2233 1903 15660 15888 15891 15662 13752 15893 
2233 1902 1936 1903 15888 13977 15889 15893 13752 13978 
1903 1936 2234 1937 13978 15894 15895 13984 13986 15896 
2200 2234 2201 1903 15897 15898 15672 15662 15895 15667 
1903 1936 2233 2234 13978 15889 15893 15895 15894 15899 
2200 2234 1903 2233 15897 15895 15662 15891 15899 15893 
2201 1903 2234 1904 15667 15895 15898 15669 13759 15900 
2234 1903 1937 1904 15895 13984 15896 15900 13759 13985 
1904 1937 2235 1938 13985 15901 15902 13991 13993 15903 
2201 2235 2202 1904 15904 15905 15679 15669 15902 15674 
1904 1937 2234 2235 13985 15896 15900 15902 15901 15906 
2201 2235 1904 2234 15904 15902 15669 15898 15906 15900 
2202 1904 2235 1905 15674 15902 15905 15676 13766 15907 
2235 1904 1938 1905 15902 13991 15903 15907 13766 13992 
1905 1938 2236 1939 13992 15908 15909 13998 14000 15910 
2202 2236 2203 1905 15911 15912 15686 15676 15909 15681 
1905 1938 2235 2236 13992 15903 15907 15909 15908 15913 
2202 2236 1905 2235 15911 15909 15676 15905 15913 15907 
2203 1905 2236 1906 15681 15909 15912 15683 13773 15914 
2236 1905 1939 1906 15909 13998 15910 15914 13773 13999 
1906 1939 2237 1940 13999 15915 15916 14005 14007 15917 
2203 2237 2204 1906 15918 15919 15693 15683 15916 15688 
1906 1939 2236 2237 13999 15910 15914 15916 15915 15920 
2203 2237 1906 2236 15918 15916 15683 15912 15920 15914 
2204 1906 2237 1907 15688 15916 15919 15690 13780 15921 
2237 1906 1940 1907 15916 14005 15917 15921 13780 14006 
1907 1940 2238 1941 14006 15922 15923 14012 14014 15924 
2204 2238 2205 1907 15925 15926 15700 15690 15923 15695 
1907 1940 2237 2238 14006 15917 15921 15923 15922 15927 
2204 2238 1907 2237 15925 15923 15690 15919 15927 15921 
2205 1907 2238 1908 15695 15923 15926 15697 13787 15928 
2238 1907 1941 1908 15923 14012 15924 15928 13787 14013 
1908 1941 2239 1942 14013 15929 15930 14019 14021 15931 
2205 2239 2206 1908 15932 15933 15707 15697 15930 15702 
1908 1941 2238 2239 14013 15924 15928 15930 15929 15934 
2205 2239 1908 2238 15932 15930 15697 15926 15934 15928 
2206 1908 2239 1909 15702 15930 15933 15704 13794 15935 
2239 1908 1942 1909 15930 14019 15931 15935 13794 14020 
1909 1942 2240 1943 14020 15936 15937 14026 14028 15938 
2206 2240 2207 1909 15939 15940 15714 15704 15937 15709 
1909 1942 2239 2240 14020 15931 15935 15937 15936 15941 
2206 2240 1909 2239 15939 15937 15704 15933 15941 15935 
2207 1909 2240 1910 15709 15937 15940 15711 13801 15942 
2240 1909 1943 1910 15937 14026 15938 15942 13801 14027 
1910 1943 2241 1944 14027 15943 15944 14033 14035 15945 
2207 2241 2208 1910 15946 15947 15721 15711 15944 15716 
1910 1943 2240 2241 14027 15938 15942 15944 15943 15948 
2207 2241 1910 2240 15946 15944 15711 15940 15948 15942 
2208 1910 2241 1911 15716 15944 15947 15718 13808 15949 
2241 1910 1944 1911 15944 14033 15945 15949 13808 14034 
1911 1944 2242 1945 14034 15950 15951 14040 14042 15952 
2208 2242 2209 1911 15953 15954 15728 15718 15951 15723 
1911 1944 2241 2242 14034 15945 15949 15951 15950 15955 
2208 2242 1911 2241 15953 15951 15718 15947 15955 15949 
2209 1911 2242 1912 15723 15951 15954 15725 13815 15956 
2242 1911 1945 1912 15951 14040 15952 15956 13815 14041 
1912 1945 2243 1946 14041 15957 15958 14047 14049 15959 
2209 2243 2210 1912 15960 15961 15735 15725 15958 15730 
1912 1945 2242 2243 14041 15952 15956 15958 15957 15962 
2209 2243 1912 2242 15960 15958 15725 15954 15962 15956 
2210 1912 2243 1913 15730 15958 15961 15732 13822 15963 
2243 1912 1946 1913 15958 14047 15959 15963 13822 14048 
1914 1947 2245 1948 14059 15964 15965 14054 14058 15966 
2211 2245 2212 1914 15967 15968 15744 15742 15965 15737 
1914 1947 2244 2245 14059 15969 15970 15965 15964 15971 
2211 2245 1914 2244 15967 15965 15742 15972 15971 15970 
2212 1914 2245 1915 15737 15965 15968 15739 13831 15973 
2245 1914 1948 1915 15965 14054 15966 15973 13831 14055 
1915 1948 2246 1949 14055 15974 15975 14064 14066 15976 
2212 2246 2213 1915 15977 15978 15752 15739 15975 15747 
1915 1948 2245 2246 14055 15966 15973 15975 15974 15979 
2212 2246 1915 2245 15977 15975 15739 15968 15979 15973 
2213 1915 2246 1916 15747 15975 15978 15749 13839 15980 
2246 1915 1949 1916 15975 14064 15976 15980 13839 14065 
1916 1949 2247 1950 14065 15981 15982 14071 14073 15983 
2213 2247 2214 1916 15984 15985 15759 15749 15982 15754 
1916 1949 2246 2247 14065 15976 15980 15982 15981 15986 
2213 2247 1916 2246 15984 15982 15749 15978 15986 15980 
2214 1916 2247 1917 15754 15982 15985 15756 13846 15987 
2247 1916 1950 1917 15982 14071 15983 15987 13846 14072 
1917 1950 2248 1951 14072 15988 15989 14078 14080 15990 
2214 2248 2215 1917 15991 15992 15766 15756 15989 15761 
1917 1950 2247 2248 14072 15983 15987 15989 15988 15993 
2214 2248 1917 2247 15991 15989 15756 15985 15993 15987 
2215 1917 2248 1918 15761 15989 15992 15763 13853 15994 
2248 1917 1951 1918 15989 14078 15990 15994 13853 14079 
1918 1951 2249 1952 14079 15995 15996 14085 14087 15997 
2215 2249 2216 1918 15998 15999 15773 15763 15996 15768 
1918 1951 2248 2249 14079 15990 15994 15996 15995 16000 
2215 2249 1918 2248 15998 15996 15763 15992 16000 15994 
2216 1918 2249 1919 15768 15996 15999 15770 13860 16001 
2249 1918 1952 1919 15996 14085 15997 16001 13860 14086 
1919 1952 2250 1953 14086 16002 16003 14092 14094 16004 
2216 2250 2217 1919 16005 16006 15780 15770 16003 15775 
1919 1952 2249 2250 14086 15997 16001 16003 16002 16007 
2216 2250 1919 2249 16005 16003 15770 15999 16007 16001 
2217 1919 2250 1920 15775 16003 16006 15777 13867 16008 
2250 1919 1953 1920 16003 14092 16004 16008 13867 14093 
1920 1953 2251 1954 14093 16009 16010 14099 14101 16011 
2217 2251 2218 1920 16012 16013 15787 15777 16010 15782 
1920 1953 2250 2251 14093 16004 16008 16010 16009 16014 
2217 2251 1920 2250 16012 16010 15777 16006 16014 16008 
2218 1920 2251 1921 15782 16010 16013 15784 13874 16015 
2251 1920 1954 1921 16010 14099 16011 16015 13874 14100 
1921 1954 2252 1955 14100 16016 16017 14106 14108 16018 
2218 2252 2219 1921 16019 16020 15794 15784 16017 15789 
1921 1954 2251 2252 14100 16011 16015 16017 16016 16021 
2218 2252 1921 2251 16019 16017 15784 16013 16021 16015 
2219 1921 2252 1922 15789 16017 16020 15791 13881 16022 
2252 1921 1955 1922 16017 14106 16018 16022 13881 14107 
1922 1955 2253 1956 14107 16023 16024 14113 14115 16025 
2219 2253 2220 1922 16026 16027 15801 15791 16024 15796 
1922 1955 2252 2253 14107 16018 16022 16024 16023 16028 
2219 2253 1922 2252 16026 16024 15791 16020 16028 16022 
2220 1922 2253 1923 15796 16024 16027 15798 13888 16029 
2253 1922 1956 1923 16024 14113 16025 16029 13888 14114 
1923 1956 2254 1957 14114 16030 16031 14120 14122 16032 
2220 2254 2221 1923 16033 16034 15808 15798 16031 15803 
1923 1956 2253 2254 14114 16025 16029 16031 16030 16035 
2220 2254 1923 2253 16033 16031 15798 16027 16035 16029 
2221 1923 2254 1924 15803 16031 16034 15805 13895 16036 
2254 1923 1957 1924 16031 14120 16032 16036 13895 14121 
1924 1957 2255 1958 14121 16037 16038 14127 14129 16039 
2221 2255 2222 1924 16040 16041 15815 15805 16038 15810 
1924 1957 2254 2255 14121 16032 16036 16038 16037 16042 
2221 2255 1924 2254 16040 16038 15805 16034 16042 16036 
2222 1924 2255 1925 15810 16038 16041 15812 13902 16043 
2255 1924 1958 1925 16038 14127 16039 16043 13902 14128 
1925 1958 2256 1959 14128 16044 16045 14134 14136 16046 
2222 2256 2223 1925 16047 16048 15822 15812 16045 15817 
1925 1958 2255 2256 14128 16039 16043 16045 16044 16049 
2222 2256 1925 2255 16047 16045 15812 16041 16049 16043 
2223 1925 2256 1926 15817 16045 16048 15819 13909 16050 
2256 1925 1959 1926 16045 14134 16046 16050 13909 14135 
1926 1959 2257 1960 14135 16051 16052 14141 14143 16053 
2223 2257 2224 1926 16054 16055 15829 15819 16052 15824 
1926 1959 2256 2257 14135 16046 16050 16052 16051 16056 
2223 2257 1926 2256 16054 16052 15819 16048 16056 16050 
2224 1926 2257 1927 15824 16052 16055 15826 13916 16057 
2257 1926 1960 1927 16052 14141 16053 16057 13916 14142 
1927 1960 2258 1961 14142 16058 16059 14148 14150 16060 
2224 2258 2225 1927 16061 16062 15836 15826 16059 15831 
1927 1960 2257 2258 14142 16053 16057 16059 16058 16063 
2224 2258 1927 2257 16061 16059 15826 16055 16063 16057 
2225 1927 2258 1928 15831 16059 16062 15833 13923 16064 
2258 1927 1961 1928 16059 14148 16060 16064 13923 14149 
1928 1961 2259 1962 14149 16065 16066 14155 14157 16067 
2225 2259 2226 1928 16068 16069 15843 15833 16066 15838 
1928 1961 2258 2259 14149 16060 16064 16066 16065 16070 
2225 2259 1928 2258 16068 16066 15833 16062 16070 16064 
2226 1928 2259 1929 15838 16066 16069 15840 13930 16071 
2259 1928 1962 1929 16066 14155 16067 16071 13930 14156 
1929 1962 2260 1963 14156 16072 16073 14162 14164 16074 
2226 2260 2227 1929 16075 16076 15850 15840 16073 15845 
1929 1962 2259 2260 14156 16067 16071 16073 16072 16077 
2226 2260 1929 2259 16075 16073 15840 16069 16077 16071 
2227 1929 2260 1930 15845 16073 16076 15847 13937 16078 
2260 1929 1963 1930 16073 14162 16074 16078 13937 14163 
1930 1963 2261 1964 14163 16079 16080 14169 14171 16081 
2227 2261 2228 1930 16082 16083 15857 15847 16080 15852 
1930 1963 2260 2261 14163 16074 16078 16080 16079 16084 
2227 2261 1930 2260 16082 16080 15847 16076 16084 16078 
2228 1930 2261 1931 15852 16080 16083 15854 13944 16085 
2261 1930 1964 1931 16080 14169 16081 16085 13944 14170 
1931 1964 2262 1965 14170 16086 16087 14176 14178 16088 
2228 2262 2229 1931 16089 16090 15864 15854 16087 15859 
1931 1964 2261 2262 14170 16081 16085 16087 16086 16091 
2228 2262 1931 2261 16089 16087 15854 16083 16091 16085 
2229 1931 2262 1932 15859 16087 16090 15861 13951 16092 
2262 1931 1965 1932 16087 14176 16088 16092 13951 14177 
1932 1965 2263 1966 14177 16093 16094 14183 14185 16095 
2229 2263 2230 1932 16096 16097 15871 15861 16094 15866 
1932 1965 2262 2263 14177 16088 16092 16094 16093 16098 
2229 2263 1932 2262 16096 16094 15861 16090 16098 16092 
2230 1932 2263 1933 15866 16094 16097 15868 13958 16099 
2263 1932 1966 1933 16094 14183 16095 16099 13958 14184 
1933 1966 2264 1967 14184 16100 16101 14190 14192 16102 
2230 2264 2231 1933 16103 16104 15878 15868 16101 15873 
1933 1966 2263 2264 14184 16095 16099 16101 16100 16105 
2230 2264 1933 2263 16103 16101 15868 16097 16105 16099 
2231 1933 2264 1934 15873 16101 16104 15875 13965 16106 
2264 1933 1967 1934 16101 14190 16102 16106 13965 14191 
1934 1967 2265 1968 14191 16107 16108 14197 14199 16109 
2231 2265 2232 1934 16110 16111 15885 15875 16108 15880 
1934 1967 2264 2265 14191 16102 16106 16108 16107 16112 
2231 2265 1934 2264 16110 16108 15875 16104 16112 16106 
2232 1934 2265 1935 15880 16108 16111 15882 13972 16113 
2265 1934 1968 1935 16108 14197 16109 16113 13972 14198 
1935 1968 2266 1969 14198 16114 16115 14204 14206 16116 
2232 2266 2233 1935 16117 16118 15892 15882 16115 15887 
1935 1968 2265 2266 14198 16109 16113 16115 16114 16119 
2232 2266 1935 2265 16117 16115 15882 16111 16119 16113 
2233 1935 2266 1936 15887 16115 16118 15889 13979 16120 
2266 1935 1969 1936 16115 14204 16116 16120 13979 14205 
1936 1969 2267 1970 14205 16121 16122 14211 14213 16123 
2233 2267 2234 1936 16124 16125 15899 15889 16122 15894 
1936 1969 2266 2267 14205 16116 16120 16122 16121 16126 
2233 2267 1936 2266 16124 16122 15889 16118 16126 16120 
2234 1936 2267 1937 15894 16122 16125 15896 13986 16127 
2267 1936 1970 1937 16122 14211 16123 16127 13986 14212 
1937 1970 2268 1971 14212 16128 16129 14218 14220 16130 
2234 2268 2235 1937 16131 16132 15906 15896 16129 15901 
1937 1970 2267 2268 14212 16123 16127 16129 16128 16133 
2234 2268 1937 2267 16131 16129 15896 16125 16133 16127 
2235 1937 2268 1938 15901 16129 16132 15903 13993 16134 
2268 1937 1971 1938 16129 14218 16130 16134 13993 14219 
1938 1971 2269 1972 14219 16135 16136 14225 14227 16137 
2235 2269 2236 1938 16138 16139 15913 15903 16136 15908 
1938 1971 2268 2269 14219 16130 16134 16136 16135 16140 
2235 2269 1938 2268 16138 16136 15903 16132 16140 16134 
2236 1938 2269 1939 15908 16136 16139 15910 14000 16141 
2269 1938 1972 1939 16136 14225 16137 16141 14000 14226 
1939 1972 2270 1973 14226 16142 16143 14232 14234 16144 
2236 2270 2237 1939 16145 16146 15920 15910 16143 15915 
1939 1972 2269 2270 14226 16137 16141 16143 16142 16147 
2236 2270 1939 2269 16145 16143 15910 16139 16147 16141 
2237 1939 2270 1940 15915 16143 16146 15917 14007 16148 
2270 1939 1973 1940 16143 14232 16144 16148 14007 14233 
1940 1973 2271 1974 14233 16149 16150 14239 14241 16151 
2237 2271 2238 1940 16152 16153 15927 15917 16150 15922 
1940 1973 2270 2271 14233 16144 16148 16150 16149 16154 
2237 2271 1940 2270 16152 16150 15917 16146 16154 16148 
2238 1940 2271 1941 15922 16150 16153 15924 14014 16155 
2271 1940 1974 1941 16150 14239 16151 16155 14014 14240 
1941 1974 2272 1975 14240 16156 16157 14246 14248 16158 
2238 2272 2239 1941 16159 16160 15934 15924 16157 15929 
1941 1974 2271 2272 14240 16151 16155 16157 16156 16161 
2238 2272 1941 2271 16159 16157 15924 16153 16161 16155 
2239 1941 2272 1942 15929 16157 16160 15931 14021 16162 
2272 1941 1975 1942 16157 14246 16158 16162 14021 14247 
1942 1975 2273 1976 14247 16163 16164 14253 14255 16165 
2239 2273 2240 1942 16166 16167 15941 15931 16164 15936 
1942 1975 2272 2273 14247 16158 16162 16164 16163 16168 
2239 2273 1942 2272 16166 16164 15931 16160 16168 16162 
2240 1942 2273 1943 15936 16164 16167 15938 14028 16169 
2273 1942 1976 1943 16164 14253 16165 16169 14028 14254 
1943 1976 2274 1977 14254 16170 16171 14260 14262 16172 
2240 2274 2241 1943 16173 16174 15948 15938 16171 15943 
1943 1976 2273 2274 14254 16165 16169 16171 16170 16175 
2240 2274 1943 2273 16173 16171 15938 16167 16175 16169 
2241 1943 2274 1944 15943 16171 16174 15945 14035 16176 
2274 1943 1977 1944 16171 14260 16172 16176 14035 14261 
1944 1977 2275 1978 14261 16177 16178 14267 14269 16179 
2241 2275 2242 1944 16180 16181 15955 15945 16178 15950 
1944 1977 2274 2275 14261 16172 16176 16178 16177 16182 
2241 2275 1944 2274 16180 16178 15945 16174 16182 16176 
2242 1944 2275 1945 15950 16178 16181 15952 14042 16183 
2275 1944 1978 1945 16178 14267 16179 16183 14042 14268 
1945 1978 2276 1979 14268 16184 16185 14274 14276 16186 
2242 2276 2243 1945 16187 16188 15962 15952 16185 15957 
1945 1978 2275 2276 14268 16179 16183 16185 16184 16189 
2242 2276 1945 2275 16187 16185 15952 16181 16189 16183 
2243 1945 2276 1946 15957 16185 16188 15959 14049 16190 
2276 1945 1979 1946 16185 14274 16186 16190 14049 14275 
1947 1980 2278 1981 14286 16191 16192 14281 14285 16193 
2244 2278 2245 1947 16194 16195 15971 15969 16192 15964 
1947 1980 2277 2278 14286 16196 16197 16192 16191 16198 
2244 2278 1947 2277 16194 16192 15969 16199 16198 16197 
2245 1947 2278 1948 15964 16192 16195 15966 14058 16200 
2278 1947 1981 1948 16192 14281 16193 16200 14058 14282 
1948 1981 2279 1982 14282 16201 16202 14291 14293 16203 
2245 2279 2246 1948 16204 16205 15979 15966 16202 15974 
1948 1981 2278 2279 14282 16193 16200 16202 16201 16206 
2245 2279 1948 2278 16204 16202 15966 16195 16206 16200 
2246 1948 2279 1949 15974 16202 16205 15976 14066 16207 
2279 1948 1982 1949 16202 14291 16203 16207 14066 14292 
1949 1982 2280 1983 14292 16208 16209 14298 14300 16210 
2246 2280 2247 1949 16211 16212 15986 15976 16209 15981 
1949 1982 2279 2280 14292 16203 16207 16209 16208 16213 
2246 2280 1949 2279 16211 16209 15976 16205 16213 16207 
2247 1949 2280 1950 15981 16209 16212 15983 14073 16214 
2280 1949 1983 1950 16209 14298 16210 16214 14073 14299 
1950 1983 2281 1984 14299 16215 16216 14305 14307 16217 
2247 2281 2248 1950 16218 16219 15993 15983 16216 15988 
1950 1983 2280 2281 14299 16210 16214 16216 16215 16220 
2247 2281 1950 2280 16218 16216 15983 16212 16220 16214 
2248 1950 2281 1951 15988 16216 16219 15990 14080 16221 
2281 1950 1984 1951 16216 14305 16217 16221 14080 14306 
1951 1984 2282 1985 14306 16222 16223 14312 14314 16224 
2248 2282 2249 1951 16225 16226 16000 15990 16223 15995 
1951 1984 2281 2282 14306 16217 16221 16223 16222 16227 
2248 2282 1951 2281 16225 16223 15990 16219 16227 16221 
2249 1951 2282 1952 15995 16223 16226 15997 14087 16228 
2282 1951 1985 1952 16223 14312 16224 16228 14087 14313 
1952 1985 2283 1986 14313 16229 16230 14319 14321 16231 
2249 2283 2250 1952 16232 16233 16007 15997 16230 16002 
1952 1985 2282 2283 14313 16224 16228 16230 16229 16234 
2249 2283 1952 2282 16232 16230 15997 16226 16234 16228 
2250 1952 2283 1953 16002 16230 16233 16004 14094 16235 
2283 1952 1986 1953 16230 14319 16231 16235 14094 14320 
1953 1986 2284 1987 14320 16236 16237 14326 14328 16238 
2250 2284 2251 1953 16239 16240 16014 16004 16237 16009 
1953 1986 2283 2284 14320 16231 16235 16237 16236 16241 
2250 2284 1953 2283 16239 16237 16004 16233 16241 16235 
2251 1953 2284 1954 16009 16237 16240 16011 14101 16242 
2284 1953 1987 1954 16237 14326 16238 16242 14101 14327 
1954 1987 2285 1988 14327 16243 16244 14333 14335 16245 
2251 2285 2252 1954 16246 16247 16021 16011 16244 16016 
1954 1987 2284 2285 14327 16238 16242 16244 16243 16248 
2251 2285 1954 2284 16246 16244 16011 16240 16248 16242 
2252 1954 2285 1955 16016 16244 16247 16018 14108 16249 
2285 1954 1988 1955 16244 14333 16245 16249 14108 14334 
1955 1988 2286 1989 14334 16250 16251 14340 14342 16252 
2252 2286 2253 1955 16253 16254 16028 16018 16251 16023 
1955 1988 2285 2286 14334 16245 16249 16251 16250 16255 
2252 2286 1955 2285 16253 16251 16018 16247 16255 16249 
2253 1955 2286 1956 16023 16251 16254 16025 14115 16256 
2286 1955 1989 1956 16251 14340 16252 16256 14115 14341 
1956 1989 2287 1990 14341 16257 16258 14347 14349 16259 
2253 2287 2254 1956 16260 16261 16035 16025 16258 16030 
1956 1989 2286 2287 14341 16252 16256 16258 16257 16262 
2253 2287 1956 2286 16260 16258 16025 16254 16262 16256 
2254 1956 2287 1957 16030 16258 16261 16032 14122 16263 
2287 1956 1990 1957 16258 14347 16259 16263 14122 14348 
1957 1990 2288 1991 14348 16264 16265 14354 14356 16266 
2254 2288 2255 1957 16267 16268 16042 16032 16265 16037 
1957 1990 2287 2288 14348 16259 16263 16265 16264 16269 
2254 2288 1957 2287 16267 16265 16032 16261 16269 16263 
2255 1957 2288 1958 16037 16265 16268 16039 14129 16270 
2288 1957 1991 1958 16265 14354 16266 16270 14129 14355 
1958 1991 2289 1992 14355 16271 16272 14361 14363 16273 
2255 2289 2256 1958 16274 16275 16049 16039 16272 16044 
1958 1991 2288 2289 14355 16266 16270 16272 16271 16276 
2255 2289 1958 2288 16274 16272 16039 16268 16276 16270 
2256 1958 2289 1959 16044 16272 16275 16046 14136 16277 
2289 1958 1992 1959 16272 14361 16273 16277 14136 14362 
1959 1992 2290 1993 14362 16278 16279 14368 14370 16280 
2256 2290 2257 1959 16281 16282 16056 16046 16279 16051 
1959 1992 2289 2290 14362 16273 16277 16279 16278 16283 
2256 2290 1959 2289 16281 16279 16046 16275 16283 16277 
2257 1959 2290 1960 16051 16279 16282 16053 14143 16284 
2290 1959 1993 1960 16279 14368 16280 16284 14143 14369 
1960 1993 2291 1994 14369 16285 16286 14375 14377 16287 
2257 2291 2258 1960 16288 16289 16063 16053 16286 16058 
1960 1993 2290 2291 14369 16280 16284 16286 16285 16290 
2257 2291 1960 2290 16288 16286 16053 16282 16290 16284 
2258 1960 2291 1961 16058 16286 16289 16060 14150 16291 
2291 1960 1994 1961 16286 14375 16287 16291 14150 14376 
1961 1994 2292 1995 14376 16292 16293 14382 14384 16294 
2258 2292 2259 1961 16295 16296 16070 16060 16293 16065 
1961 1994 2291 2292 14376 16287 16291 16293 16292 16297 
2258 2292 1961 2291 16295 16293 16060 16289 16297 16291 
2259 1961 2292 1962 16065 16293 16296 16067 14157 16298 
2292 1961 1995 1962 16293 14382 16294 16298 14157 14383 
1962 1995 2293 1996 14383 16299 16300 14389 14391 16301 
2259 2293 2260 1962 16302 16303 16077 16067 16300 16072 
1962 1995 2292 2293 14383 16294 16298 16300 16299 16304 
2259 2293 1962 2292 16302 16300 16067 16296 16304 16298 
2260 1962 2293 1963 16072 16300 16303 16074 14164 16305 
2293 1962 1996 1963 16300 14389 16301 16305 14164 14390 
1963 1996 2294 1997 14390 16306 16307 14396 14398 16308 
2260 2294 2261 1963 16309 16310 16084 16074 16307 16079 
1963 1996 2293 2294 14390 16301 16305 16307 16306 16311 
2260 2294 1963 2293 16309 16307 16074 16303 16311 16305 
2261 1963 2294 1964 16079 16307 16310 16081 14171 16312 
2294 1963 1997 1964 16307 14396 16308 16312 14171 14397 
1964 1997 2295 1998 14397 16313 16314 14403 14405 16315 
2261 2295 2262 1964 16316 16317 16091 16081 16314 16086 
1964 1997 2294 2295 14397 16308 16312 16314 16313 16318 
2261 2295 1964 2294 16316 16314 16081 16310 16318 16312 
2262 1964 2295 1965 16086 16314 16317 16088 14178 16319 
2295 1964 1998 1965 16314 14403 16315 16319 14178 14404 
1965 1998 2296 1999 14404 16320 16321 14410 14412 16322 
2262 2296 2263 1965 16323 16324 16098 16088 16321 16093 
1965 1998 2295 2296 14404 16315 16319 16321 16320 16325 
2262 2296 1965 2295 16323 16321 16088 16317 16325 16319 
2263 1965 2296 1966 16093 16321 16324 16095 14185 16326 
2296 1965 1999 1966 16321 14410 16322 16326 14185 14411 
1966 1999 2297 2000 14411 16327 16328 14417 14419 16329 
2263 2297 2264 1966 16330 16331 16105 16095 16328 16100 
1966 1999 2296 2297 14411 16322 16326 16328 16327 16332 
2263 2297 1966 2296 16330 16328 16095 16324 16332 16326 
2264 1966 2297 1967 16100 16328 16331 16102 14192 16333 
2297 1966 2000 1967 16328 14417 16329 16333 14192 14418 
1967 2000 2298 2001 14418 16334 16335 14424 14426 16336 
2264 2298 2265 1967 16337 16338 16112 16102 16335 16107 
1967 2000 2297 2298 14418 16329 16333 16335 16334 16339 
2264 2298 1967 2297 16337 16335 16102 16331 16339 16333 
2265 1967 2298 1968 16107 16335 16338 16109 14199 16340 
2298 1967 2001 1968 16335 14424 16336 16340 14199 14425 
1968 2001 2299 2002 14425 16341 16342 14431 14433 16343 
2265 2299 2266 1968 16344 16345 16119 16109 16342 16114 
1968 2001 2298 2299 14425 16336 16340 16342 16341 16346 
2265 2299 1968 2298 16344 16342 16109 16338 16346 16340 
2266 1968 2299 1969 16114 16342 16345 16116 14206 16347 
2299 1968 2002 1969 16342 14431 16343 16347 14206 14432 
1969 2002 2300 2003 14432 16348 16349 14438 14440 16350 
2266 2300 2267 1969 16351 16352 16126 16116 16349 16121 
1969 2002 2299 2300 14432 16343 16347 16349 16348 16353 
2266 2300 1969 2299 16351 16349 16116 16345 16353 16347 
2267 1969 2300 1970 16121 16349 16352 16123 14213 16354 
2300 1969 2003 1970 16349 14438 16350 16354 14213 14439 
1970 2003 2301 2004 14439 16355 16356 14445 14447 16357 
2267 2301 2268 1970 16358 16359 16133 16123 16356 16128 
1970 2003 2300 2301 14439 16350 16354 16356 16355 16360 
2267 2301 1970 2300 16358 16356 16123 16352 16360 16354 
2268 1970 2301 1971 16128 16356 16359 16130 14220 16361 
2301 1970 2004 1971 16356 14445 16357 16361 14220 14446 
1971 2004 2302 2005 14446 16362 16363 14452 14454 16364 
2268 2302 2269 1971 16365 16366 16140 16130 16363 16135 
1971 2004 2301 2302 14446 16357 16361 16363 16362 16367 
2268 2302 1971 2301 16365 16363 16130 16359 16367 16361 
2269 1971 2302 1972 16135 16363 16366 16137 14227 16368 
2302 1971 2005 1972 16363 14452 16364 16368 14227 14453 
1972 2005 2303 2006 14453 16369 16370 14459 14461 16371 
2269 2303 2270 1972 16372 16373 16147 16137 16370 16142 
1972 2005 2302 2303 14453 16364 16368 16370 16369 16374 
2269 2303 1972 2302 16372 16370 16137 16366 16374 16368 
2270 1972 2303 1973 16142 16370 16373 16144 14234 16375 
2303 1972 2006 1973 16370 14459 16371 16375 14234 14460 
1973 2006 2304 2007 14460 16376 16377 14466 14468 16378 
2270 2304 2271 1973 16379 16380 16154 16144 16377 16149 
1973 2006 2303 2304 14460 16371 16375 16377 16376 16381 
2270 2304 1973 2303 16379 16377 16144 16373 16381 16375 
2271 1973 2304 1974 16149 16377 16380 16151 14241 16382 
2304 1973 2007 1974 16377 14466 16378 16382 14241 14467 
1974 2007 2305 2008 14467 16383 16384 14473 14475 16385 
2271 2305 2272 1974 16386 16387 16161 16151 16384 16156 
1974 2007 2304 2305 14467 16378 16382 16384 16383 16388 
2271 2305 1974 2304 16386 16384 16151 16380 16388 16382 
2272 1974 2305 1975 16156 16384 16387 16158 14248 16389 
2305 1974 2008 1975 16384 14473 16385 16389 14248 14474 
1975 2008 2306 2009 14474 16390 16391 14480 14482 16392 
2272 2306 2273 1975 16393 16394 16168 16158 16391 16163 
1975 2008 2305 2306 14474 16385 16389 16391 16390 16395 
2272 2306 1975 2305 16393 16391 16158 16387 16395 16389 
2273 1975 2306 1976 16163 16391 16394 16165 14255 16396 
2306 1975 2009 1976 16391 14480 16392 16396 14255 14481 
1976 2009 2307 2010 14481 16397 16398 14487 14489 16399 
2273 2307 2274 1976 16400 16401 16175 16165 16398 16170 
1976 2009 2306 2307 14481 16392 16396 16398 16397 16402 
2273 2307 1976 2306 16400 16398 16165 16394 16402 16396 
2274 1976 2307 1977 16170 16398 16401 16172 14262 16403 
2307 1976 2010 1977 16398 14487 16399 16403 14262 14488 
1977 2010 2308 2011 14488 16404 16405 14494 14496 16406 
2274 2308 2275 1977 16407 16408 16182 16172 16405 16177 
1977 2010 2307 2308 14488 16399 16403 16405 16404 16409 
2274 2308 1977 2307 16407 16405 16172 16401 16409 16403 
2275 1977 2308 1978 16177 16405 16408 16179 14269 16410 
2308 1977 2011 1978 16405 14494 16406 16410 14269 14495 
1978 2011 2309 2012 14495 16411 16412 14501 14503 16413 
2275 2309 2276 1978 16414 16415 16189 16179 16412 16184 
1978 2011 2308 2309 14495 16406 16410 16412 16411 16416 
2275 2309 1978 2308 16414 16412 16179 16408 16416 16410 
2276 1978 2309 1979 16184 16412 16415 16186 14276 16417 
2309 1978 2012 1979 16412 14501 16413 16417 14276 14502 
1980 2013 2311 2014 14513 16418 16419 14508 14512 16420 
2277 2311 2278 1980 16421 16422 16198 16196 16419 16191 
1980 2013 2310 2311 14513 16423 16424 16419 16418 16425 
2277 2311 1980 2310 16421 16419 16196 16426 16425 16424 
2278 1980 2311 1981 16191 16419 16422 16193 14285 16427 
2311 1980 2014 1981 16419 14508 16420 16427 14285 14509 
1981 2014 2312 2015 14509 16428 16429 14518 14520 16430 
2278 2312 2279 1981 16431 16432 16206 16193 16429 16201 
1981 2014 2311 2312 14509 16420 16427 16429 16428 16433 
2278 2312 1981 2311 16431 16429 16193 16422 16433 16427 
2279 1981 2312 1982 16201 16429 16432 16203 14293 16434 
2312 1981 2015 1982 16429 14518 16430 16434 14293 14519 
1982 2015 2313 2016 14519 16435 16436 14525 14527 16437 
2279 2313 2280 1982 16438 16439 16213 16203 16436 16208 
1982 2015 2312 2313 14519 16430 16434 16436 16435 16440 
2279 2313 1982 2312 16438 16436 16203 16432 16440 16434 
2280 1982 2313 1983 16208 16436 16439 16210 14300 16441 
2313 1982 2016 1983 16436 14525 16437 16441 14300 14526 
1983 2016 2314 2017 14526 16442 16443 14532 14534 16444 
2280 2314 2281 1983 16445 16446 16220 16210 16443 16215 
1983 2016 2313 2314 14526 16437 16441 16443 16442 16447 
2280 2314 1983 2313 16445 16443 16210 16439 16447 16441 
2281 1983 2314 1984 16215 16443 16446 16217 14307 16448 
2314 1983 2017 1984 16443 14532 16444 16448 14307 14533 
1984 2017 2315 2018 14533 16449 16450 14539 14541 16451 
2281 2315 2282 1984 16452 16453 16227 16217 16450 16222 
1984 2017 2314 2315 14533 16444 16448 16450 16449 16454 
2281 2315 1984 2314 16452 16450 16217 16446 16454 16448 
2282 1984 2315 1985 16222 16450 16453 16224 14314 16455 
2315 1984 2018 1985 16450 14539 16451 16455 14314 14540 
1985 2018 2316 2019 14540 16456 16457 14546 14548 16458 
2282 2316 2283 1985 16459 16460 16234 16224 16457 16229 
1985 2018 2315 2316 14540 16451 16455 16457 16456 16461 
2282 2316 1985 2315 16459 16457 16224 16453 16461 16455 
2283 1985 2316 1986 16229 16457 16460 16231 14321 16462 
2316 1985 2019 1986 16457 14546 16458 16462 14321 14547 
1986 2019 2317 2020 14547 16463 16464 14553 14555 16465 
2283 2317 2284 1986 16466 16467 16241 16231 16464 16236 
1986 2019 2316 2317 14547 16458 16462 16464 16463 16468 
2283 2317 1986 2316 16466 16464 16231 16460 16468 16462 
2284 1986 2317 1987 16236 16464 16467 16238 14328 16469 
2317 1986 2020 1987 16464 14553 16465 16469 14328 14554 
1987 2020 2318 2021 14554 16470 16471 14560 14562 16472 
2284 2318 2285 1987 16473 16474 16248 16238 16471 16243 
1987 2020 2317 2318 14554 16465 16469 16471 16470 16475 
2284 2318 1987 2317 16473 16471 16238 16467 16475 16469 
2285 1987 2318 1988 16243 16471 16474 16245 14335 16476 
2318 1987 2021 1988 16471 14560 16472 16476 14335 14561 
1988 2021 2319 2022 14561 16477 16478 14567 14569 16479 
2285 2319 2286 1988 16480 16481 16255 16245 16478 16250 
1988 2021 2318 2319 14561 16472 16476 16478 16477 16482 
2285 2319 1988 2318 16480 16478 16245 16474 16482 16476 
2286 1988 2319 1989 16250 16478 16481 16252 14342 16483 
2319 1988 2022 1989 16478 14567 16479 16483 14342 14568 
1989 2022 2320 2023 14568 16484 16485 14574 14576 16486 
2286 2320 2287 1989 16487 16488 16262 16252 16485 16257 
1989 2022 2319 2320 14568 16479 16483 16485 16484 16489 
2286 2320 1989 2319 16487 16485 16252 16481 16489 16483 
2287 1989 2320 1990 16257 16485 16488 16259 14349 16490 
2320 1989 2023 1990 16485 14574 16486 16490 14349 14575 
1990 2023 2321 2024 14575 16491 16492 14581 14583 16493 
2287 2321 2288 1990 16494 16495 16269 16259 16492 16264 
1990 2023 2320 2321 14575 16486 16490 16492 16491 16496 
2287 2321 1990 2320 16494 16492 16259 16488 16496 16490 
2288 1990 2321 1991 16264 16492 16495 16266 14356 16497 
2321 1990 2024 1991 16492 14581 16493 16497 14356 14582 
1991 2024 2322 2025 14582 16498 16499 14588 14590 16500 
2288 2322 2289 1991 16501 16502 16276 16266 16499 16271 
1991 2024 2321 2322 14582 16493 16497 16499 16498 16503 
2288 2322 1991 2321 16501 16499 16266 16495 16503 16497 
2289 1991 2322 1992 16271 16499 16502 16273 14363 16504 
2322 1991 2025 1992 16499 14588 16500 16504 14363 14589 
1992 2025 2323 2026 14589 16505 16506 14595 14597 16507 
2289 2323 2290 1992 16508 16509 16283 16273 16506 16278 
1992 2025 2322 2323 14589 16500 16504 16506 16505 16510 
2289 2323 1992 2322 16508 16506 16273 16502 16510 16504 
2290 1992 2323 1993 16278 16506 16509 16280 14370 16511 
2323 1992 2026 1993 16506 14595 16507 16511 14370 14596 
1993 2026 2324 2027 14596 16512 16513 14602 14604 16514 
2290 2324 2291 1993 16515 16516 16290 16280 16513 16285 
1993 2026 2323 2324 14596 16507 16511 16513 16512 16517 
2290 2324 1993 2323 16515 16513 16280 16509 16517 16511 
2291 1993 2324 1994 16285 16513 16516 16287 14377 16518 
2324 1993 2027 1994 16513 14602 16514 16518 14377 14603 
1994 2027 2325 2028 14603 16519 16520 14609 14611 16521 
2291 2325 2292 1994 16522 16523 16297 16287 16520 16292 
1994 2027 2324 2325 14603 16514 16518 16520 16519 16524 
2291 2325 1994 2324 16522 16520 16287 16516 16524 16518 
2292 1994 2325 1995 16292 16520 16523 16294 14384 16525 
2325 1994 2028 1995 16520 14609 16521 16525 14384 14610 
1995 2028 2326 2029 14610 16526 16527 14616 14618 16528 
2292 2326 2293 1995 16529 16530 16304 16294 16527 16299 
1995 2028 2325 2326 14610 16521 16525 16527 16526 16531 
2292 2326 1995 2325 16529 16527 16294 16523 16531 16525 
2293 1995 2326 1996 16299 16527 16530 16301 14391 16532 
2326 1995 2029 1996 16527 14616 16528 16532 14391 14617 
1996 2029 2327 2030 14617 16533 16534 14623 14625 16535 
2293 2327 2294 1996 16536 16537 16311 16301 16534 16306 
1996 2029 2326 2327 14617 16528 16532 16534 16533 16538 
2293 2327 1996 2326 16536 16534 16301 16530 16538 16532 
2294 1996 2327 1997 16306 16534 16537 16308 14398 16539 
2327 1996 2030 1997 16534 14623 16535 16539 14398 14624 
1997 2030 2328 2031 14624 16540 16541 14630 14632 16542 
2294 2328 2295 1997 16543 16544 16318 16308 16541 16313 
1997 2030 2327 2328 14624 16535 16539 16541 16540 16545 
2294 2328 1997 2327 16543 16541 16308 16537 16545 16539 
2295 1997 2328 1998 16313 16541 16544 16315 14405 16546 
2328 1997 2031 1998 16541 14630 16542 16546 14405 14631 
1998 2031 2329 2032 14631 16547 16548 14637 14639 16549 
2295 2329 2296 1998 16550 16551 16325 16315 16548 16320 
1998 2031 2328 2329 14631 16542 16546 16548 16547 16552 
2295 2329 1998 2328 16550 16548 16315 16544 16552 16546 
2296 1998 2329 1999 16320 16548 16551 16322 14412 16553 
2329 1998 2032 1999 16548 14637 16549 16553 14412 14638 
1999 2032 2330 2033 14638 16554 16555 14644 14646 16556 
2296 2330 2297 1999 16557 16558 16332 16322 16555 16327 
1999 2032 2329 2330 14638 16549 16553 16555 16554 16559 
2296 2330 1999 2329 16557 16555 16322 16551 16559 16553 
2297 1999 2330 2000 16327 16555 16558 16329 14419 16560 
2330 1999 2033 2000 16555 14644 16556 16560 14419 14645 
2000 2033 2331 2034 14645 16561 16562 14651 14653 16563 
2297 2331 2298 2000 16564 16565 16339 16329 16562 16334 
2000 2033 2330 2331 14645 16556 16560 16562 16561 16566 
2297 2331 2000 2330 16564 16562 16329 16558 16566 16560 
2298 2000 2331 2001 16334 16562 16565 16336 14426 16567 
2331 2000 2034 2001 16562 14651 16563 16567 14426 14652 
2001 2034 2332 2035 14652 16568 16569 14658 14660 16570 
2298 2332 2299 2001 16571 16572 16346 16336 16569 16341 
2001 2034 2331 2332 14652 16563 16567 16569 16568 16573 
2298 2332 2001 2331 16571 16569 16336 16565 16573 16567 
2299 2001 2332 2002 16341 16569 16572 16343 14433 16574 
2332 2001 2035 2002 16569 14658 16570 16574 14433 14659 
2002 2035 2333 2036 14659 16575 16576 14665 14667 16577 
2299 2333 2300 2002 16578 16579 16353 16343 16576 16348 
2002 2035 2332 2333 14659 16570 16574 16576 16575 16580 
2299 2333 2002 2332 16578 16576 16343 16572 16580 16574 
2300 2002 2333 2003 16348 16576 16579 16350 14440 16581 
2333 2002 2036 2003 16576 14665 16577 16581 14440 14666 
2003 2036 2334 2037 14666 16582 16583 14672 14674 16584 
2300 2334 2301 2003 16585 16586 16360 16350 16583 16355 
2003 2036 2333 2334 14666 16577 16581 16583 16582 16587 
2300 2334 2003 2333 16585 16583 16350 16579 16587 16581 
2301 2003 2334 2004 16355 16583 16586 16357 14447 16588 
2334 2003 2037 2004 16583 14672 16584 16588 14447 14673 
2004 2037 2335 2038 14673 16589 16590 14679 14681 16591 
2301 2335 2302 2004 16592 16593 16367 16357 16590 16362 
2004 2037 2334 2335 14673 16584 16588 16590 16589 16594 
2301 2335 2004 2334 16592 16590 16357 16586 16594 16588 
2302 2004 2335 2005 16362 16590 16593 16364 14454 16595 
2335 2004 2038 2005 16590 14679 16591 16595 14454 14680 
2005 2038 2336 2039 14680 16596 16597 14686 14688 16598 
2302 2336 2303 2005 16599 16600 16374 16364 16597 16369 
2005 2038 2335 2336 14680 16591 16595 16597 16596 16601 
2302 2336 2005 2335 16599 16597 16364 16593 16601 16595 
2303 2005 2336 2006 16369 16597 16600 16371 14461 16602 
2336 2005 2039 2006 16597 14686 16598 16602 14461 14687 
2006 2039 2337 2040 14687 16603 16604 14693 14695 16605 
2303 2337 2304 2006 16606 16607 16381 16371 16604 16376 
2006 2039 2336 2337 14687 16598 16602 16604 16603 16608 
2303 2337 2006 2336 16606 16604 16371 16600 16608 16602 
2304 2006 2337 2007 16376 16604 16607 16378 14468 16609 
2337 2006 2040 2007 16604 14693 16605 16609 14468 14694 
2007 2040 2338 2041 14694 16610 16611 14700 14702 16612 
2304 2338 2305 2007 16613 16614 16388 16378 16611 16383 
2007 2040 2337 2338 14694 16605 16609 16611 16610 16615 
2304 2338 2007 2337 16613 16611 16378 16607 16615 16609 
2305 2007 2338 2008 16383 16611 16614 16385 14475 16616 
2338 2007 2041 2008 16611 14700 16612 16616 14475 14701 
2008 2041 2339 2042 14701 16617 16618 14707 14709 16619 
2305 2339 2306 2008 16620 16621 16395 16385 16618 16390 
2008 2041 2338 2339 14701 16612 16616 16618 16617 16622 
2305 2339 2008 2338 16620 16618 16385 16614 16622 16616 
2306 2008 2339 2009 16390 16618 16621 16392 14482 16623 
2339 2008 2042 2009 16618 14707 16619 16623 14482 14708 
2009 2042 2340 2043 14708 16624 16625 14714 14716 16626 
2306 2340 2307 2009 16627 16628 16402 16392 16625 16397 
2009 2042 2339 2340 14708 16619 16623 16625 16624 16629 
2306 2340 2009 2339 16627 16625 16392 16621 16629 16623 
2307 2009 2340 2010 16397 16625 16628 16399 14489 16630 
2340 2009 2043 2010 16625 14714 16626 16630 14489 14715 
2010 2043 2341 2044 14715 16631 16632 14721 14723 16633 
2307 2341 2308 2010 16634 16635 16409 16399 16632 16404 
2010 2043 2340 2341 14715 16626 16630 16632 16631 16636 
2307 2341 2010 2340 16634 16632 16399 16628 16636 16630 
2308 2010 2341 2011 16404 16632 16635 16406 14496 16637 
2341 2010 2044 2011 16632 14721 16633 16637 14496 14722 
2011 2044 2342 2045 14722 16638 16639 14728 14730 16640 
2308 2342 2309 2011 16641 16642 16416 16406 16639 16411 
2011 2044 2341 2342 14722 16633 16637 16639 16638 16643 
2308 2342 2011 2341 16641 16639 16406 16635 16643 16637 
2309 2011 2342 2012 16411 16639 16642 16413 14503 16644 
2342 2011 2045 2012 16639 14728 16640 16644 14503 14729 
2013 2046 2344 2047 14740 16645 16646 14735 14739 16647 
2310 2344 2311 2013 16648 16649 16425 16423 16646 16418 
2013 2046 2343 2344 14740 16650 16651 16646 16645 16652 
2310 2344 2013 2343 16648 16646 16423 16653 16652 16651 
2311 2013 2344 2014 16418 16646 16649 16420 14512 16654 
2344 2013 2047 2014 16646 14735 16647 16654 14512 14736 
2014 2047 2345 2048 14736 16655 16656 14745 14747 16657 
2311 2345 2312 2014 16658 16659 16433 16420 16656 16428 
2014 2047 2344 2345 14736 16647 16654 16656 16655 16660 
2311 2345 2014 2344 16658 16656 16420 16649 16660 16654 
2312 2014 2345 2015 16428 16656 16659 16430 14520 16661 
2345 2014 2048 2015 16656 14745 16657 16661 14520 14746 
2015 2048 2346 2049 14746 16662 16663 14752 14754 16664 
2312 2346 2313 2015 16665 16666 16440 16430 16663 16435 
2015 2048 2345 2346 14746 16657 16661 16663 16662 16667 
2312 2346 2015 2345 16665 16663 16430 16659 16667 16661 
2313 2015 2346 2016 16435 16663 16666 16437 14527 16668 
2346 2015 2049 2016 16663 14752 16664 16668 14527 14753 
2016 2049 2347 2050 14753 16669 16670 14759 14761 16671 
2313 2347 2314 2016 16672 16673 16447 16437 16670 16442 
2016 2049 2346 2347 14753 16664 16668 16670 16669 16674 
2313 2347 2016 2346 16672 16670 16437 16666 16674 16668 
2314 2016 2347 2017 16442 16670 16673 16444 14534 16675 
2347 2016 2050 2017 16670 14759 16671 16675 14534 14760 
2017 2050 2348 2051 14760 16676 16677 14766 14768 16678 
2314 2348 2315 2017 16679 16680 16454 16444 16677 16449 
2017 2050 2347 2348 14760 16671 16675 16677 16676 16681 
2314 2348 2017 2347 16679 16677 16444 16673 16681 16675 
2315 2017 2348 2018 16449 16677 16680 16451 14541 16682 
2348 2017 2051 2018 16677 14766 16678 16682 14541 14767 
2018 2051 2349 2052 14767 16683 16684 14773 14775 16685 
2315 2349 2316 2018 16686 16687 16461 16451 16684 16456 
2018 2051 2348 2349 14767 16678 16682 16684 16683 16688 
2315 2349 2018 2348 16686 16684 16451 16680 16688 16682 
2316 2018 2349 2019 16456 16684 16687 16458 14548 16689 
2349 2018 2052 2019 16684 14773 16685 16689 14548 14774 
2019 2052 2350 2053 14774 16690 16691 14780 14782 16692 
2316 2350 2317 2019 16693 16694 16468 16458 16691 16463 
2019 2052 2349 2350 14774 16685 16689 16691 16690 16695 
2316 2350 2019 2349 16693 16691 16458 16687 16695 16689 
2317 2019 2350 2020 16463 16691 16694 16465 14555 16696 
2350 2019 2053 2020 16691 14780 16692 16696 14555 14781 
2020 2053 2351 2054 14781 16697 16698 14787 14789 16699 
2317 2351 2318 2020 16700 16701 16475 16465 16698 16470 
2020 2053 2350 2351 14781 16692 16696 16698 16697 16702 
2317 2351 2020 2350 16700 16698 16465 16694 16702 16696 
2318 2020 2351 2021 16470 16698 16701 16472 14562 16703 
2351 2020 2054 2021 16698 14787 16699 16703 14562 14788 
2021 2054 2352 2055 14788 16704 16705 14794 14796 16706 
2318 2352 2319 2021 16707 16708 16482 16472 16705 16477 
2021 2054 2351 2352 14788 16699 16703 16705 16704 16709 
2318 2352 2021 2351 16707 16705 16472 16701 16709 16703 
2319 2021 2352 2022 16477 16705 16708 16479 14569 16710 
2352 2021 2055 2022 16705 14794 16706 16710 14569 14795 
2022 2055 2353 2056 14795 16711 16712 14801 14803 16713 
2319 2353 2320 2022 16714 16715 16489 16479 16712 16484 
2022 2055 2352 2353 14795 16706 16710 16712 16711 16716 
2319 2353 2022 2352 16714 16712 16479 16708 16716 16710 
2320 2022 2353 2023 16484 16712 16715 16486 14576 16717 
2353 2022 2056 2023 16712 14801 16713 16717 14576 14802 
2023 2056 2354 2057 14802 16718 16719 14808 14810 16720 
2320 2354 2321 2023 16721 16722 16496 16486 16719 16491 
2023 2056 2353 2354 14802 16713 16717 16719 16718 16723 
2320 2354 2023 2353 16721 16719 16486 16715 16723 16717 
2321 2023 2354 2024 16491 16719 16722 16493 14583 16724 
2354 2023 2057 2024 16719 14808 16720 16724 14583 14809 
2024 2057 2355 2058 14809 16725 16726 14815 14817 16727 
2321 2355 2322 2024 16728 16729 16503 16493 16726 16498 
2024 2057 2354 2355 14809 16720 16724 16726 16725 16730 
2321 2355 2024 2354 16728 16726 16493 16722 16730 16724 
2322 2024 2355 2025 16498 16726 16729 16500 14590 16731 
2355 2024 2058 2025 16726 14815 16727 16731 14590 14816 
2025 2058 2356 2059 14816 16732 16733 14822 14824 16734 
2322 2356 2323 2025 16735 16736 16510 16500 16733 16505 
2025 2058 2355 2356 14816 16727 16731 16733 16732 16737 
2322 2356 2025 2355 16735 16733 16500 16729 16737 16731 
2323 2025 2356 2026 16505 16733 16736 16507 14597 16738 
2356 2025 2059 2026 16733 14822 16734 16738 14597 14823 
2026 2059 2357 2060 14823 16739 16740 14829 14831 16741 
2323 2357 2324 2026 16742 16743 16517 16507 16740 16512 
2026 2059 2356 2357 14823 16734 16738 16740 16739 16744 
2323 2357 2026 2356 16742 16740 16507 16736 16744 16738 
2324 2026 2357 2027 16512 16740 16743 16514 14604 16745 
2357 2026 2060 2027 16740 14829 16741 16745 14604 14830 
2027 2060 2358 2061 14830 16746 16747 14836 14838 16748 
2324 2358 2325 2027 16749 16750 16524 16514 16747 16519 
2027 2060 2357 2358 14830 16741 16745 16747 16746 16751 
2324 2358 2027 2357 16749 16747 16514 16743 16751 16745 
2325 2027 2358 2028 16519 16747 16750 16521 14611 16752 
2358 2027 2061 2028 16747 14836 16748 16752 14611 14837 
2028 2061 2359 2062 14837 16753 16754 14843 14845 16755 
2325 2359 2326 2028 16756 16757 16531 16521 16754 16526 
2028 2061 2358 2359 14837 16748 16752 16754 16753 16758 
2325 2359 2028 2358 16756 16754 16521 16750 16758 16752 
2326 2028 2359 2029 16526 16754 16757 16528 14618 16759 
2359 2028 2062 2029 16754 14843 16755 16759 14618 14844 
2029 2062 2360 2063 14844 16760 16761 14850 14852 16762 
2326 2360 2327 2029 16763 16764 16538 16528 16761 16533 
2029 2062 2359 2360 14844 16755 16759 16761 16760 16765 
2326 2360 2029 2359 16763 16761 16528 16757 16765 16759 
2327 2029 2360 2030 16533 16761 16764 16535 14625 16766 
2360 2029 2063 2030 16761 14850 16762 16766 14625 14851 
2030 2063 2361 2064 14851 16767 16768 14857 14859 16769 
2327 2361 2328 2030 16770 16771 16545 16535 16768 16540 
2030 2063 2360 2361 14851 16762 16766 16768 16767 16772 
2327 2361 2030 2360 16770 16768 16535 16764 16772 16766 
2328 2030 2361 2031 16540 16768 16771 16542 14632 16773 
2361 2030 2064 2031 16768 14857 16769 16773 14632 14858 
2031 2064 2362 2065 14858 16774 16775 14864 14866 16776 
2328 2362 2329 2031 16777 16778 16552 16542 16775 16547 
2031 2064 2361 2362 14858 16769 16773 16775 16774 16779 
2328 2362 2031 2361 16777 16775 16542 16771 16779 16773 
2329 2031 2362 2032 16547 16775 16778 16549 14639 16780 
2362 2031 2065 2032 16775 14864 16776 16780 14639 14865 
2032 2065 2363 2066 14865 16781 16782 14871 14873 16783 
2329 2363 2330 2032 16784 16785 16559 16549 16782 16554 
2032 2065 2362 2363 14865 16776 16780 16782 16781 16786 
2329 2363 2032 2362 16784 16782 16549 16778 16786 16780 
2330 2032 2363 2033 16554 16782 16785 16556 14646 16787 
2363 2032 2066 2033 16782 14871 16783 16787 14646 14872 
2033 2066 2364 2067 14872 16788 16789 14878 14880 16790 
2330 2364 2331 2033 16791 16792 16566 16556 16789 16561 
2033 2066 2363 2364 14872 16783 16787 16789 16788 16793 
2330 2364 2033 2363 16791 16789 16556 16785 16793 16787 
2331 2033 2364 2034 16561 16789 16792 16563 14653 16794 
2364 2033 2067 2034 16789 14878 16790 16794 14653 14879 
2034 2067 2365 2068 14879 16795 16796 14885 14887 16797 
2331 2365 2332 2034 16798 16799 16573 16563 16796 16568 
2034 2067 2364 2365 14879 16790 16794 16796 16795 16800 
2331 2365 2034 2364 16798 16796 16563 16792 16800 16794 
2332 2034 2365 2035 16568 16796 16799 16570 14660 16801 
2365 2034 2068 2035 16796 14885 16797 16801 14660 14886 
2035 2068 2366 2069 14886 16802 16803 14892 14894 16804 
2332 2366 2333 2035 16805 16806 16580 16570 16803 16575 
2035 2068 2365 2366 14886 16797 16801 16803 16802 16807 
2332 2366 2035 2365 16805 16803 16570 16799 16807 16801 
2333 2035 2366 2036 16575 16803 16806 16577 14667 16808 
2366 2035 2069 2036 16803 14892 16804 16808 14667 14893 
2036 2069 2367 2070 14893 16809 16810 14899 14901 16811 
2333 2367 2334 2036 16812 16813 16587 16577 16810 16582 
2036 2069 2366 2367 14893 16804 16808 16810 16809 16814 
2333 2367 2036 2366 16812 16810 16577 16806 16814 16808 
2334 2036 2367 2037 16582 16810 16813 16584 14674 16815 
2367 2036 2070 2037 16810 14899 16811 16815 14674 14900 
2037 2070 2368 2071 14900 16816 16817 14906 14908 16818 
2334 2368 2335 2037 16819 16820 16594 16584 16817 16589 
2037 2070 2367 2368 14900 16811 16815 16817 16816 16821 
2334 2368 2037 2367 16819 16817 16584 16813 16821 16815 
2335 2037 2368 2038 16589 16817 16820 16591 14681 16822 
2368 2037 2071 2038 16817 14906 16818 16822 14681 14907 
2038 2071 2369 2072 14907 16823 16824 14913 14915 16825 
2335 2369 2336 2038 16826 16827 16601 16591 16824 16596 
2038 2071 2368 2369 14907 16818 16822 16824 16823 16828 
2335 2369 2038 2368 16826 16824 16591 16820 16828 16822 
2336 2038 2369 2039 16596 16824 16827 16598 14688 16829 
2369 2038 2072 2039 16824 14913 16825 16829 14688 14914 
2039 2072 2370 2073 14914 16830 16831 14920 14922 16832 
2336 2370 2337 2039 16833 16834 16608 16598 16831 16603 
2039 2072 2369 2370 14914 16825 16829 16831 16830 16835 
2336 2370 2039 2369 16833 16831 16598 16827 16835 16829 
2337 2039 2370 2040 16603 16831 16834 16605 14695 16836 
2370 2039 2073 2040 16831 14920 16832 16836 14695 14921 
2040 2073 2371 2074 14921 16837 16838 14927 14929 16839 
2337 2371 2338 2040 16840 16841 16615 16605 16838 16610 
2040 2073 2370 2371 14921 16832 16836 16838 16837 16842 
2337 2371 2040 2370 16840 16838 16605 16834 16842 16836 
2338 2040 2371 2041 16610 16838 16841 16612 14702 16843 
2371 2040 2074 2041 16838 14927 16839 16843 14702 14928 
2041 2074 2372 2075 14928 16844 16845 14934 14936 16846 
2338 2372 2339 2041 16847 16848 16622 16612 16845 16617 
2041 2074 2371 2372 14928 16839 16843 16845 16844 16849 
2338 2372 2041 2371 16847 16845 16612 16841 16849 16843 
2339 2041 2372 2042 16617 16845 16848 16619 14709 16850 
2372 2041 2075 2042 16845 14934 16846 16850 14709 14935 
2042 2075 2373 2076 14935 16851 16852 14941 14943 16853 
2339 2373 2340 2042 16854 16855 16629 16619 16852 16624 
2042 2075 2372 2373 14935 16846 16850 16852 16851 16856 
2339 2373 2042 2372 16854 16852 16619 16848 16856 16850 
2340 2042 2373 2043 16624 16852 16855 16626 14716 16857 
2373 2042 2076 2043 16852 14941 16853 16857 14716 14942 
2043 2076 2374 2077 14942 16858 16859 14948 14950 16860 
2340 2374 2341 2043 16861 16862 16636 16626 16859 16631 
2043 2076 2373 2374 14942 16853 16857 16859 16858 16863 
2340 2374 2043 2373 16861 16859 16626 16855 16863 16857 
2341 2043 2374 2044 16631 16859 16862 16633 14723 16864 
2374 2043 2077 2044 16859 14948 16860 16864 14723 14949 
2044 2077 2375 2078 14949 16865 16866 14955 14957 16867 
2341 2375 2342 2044 16868 16869 16643 16633 16866 16638 
2044 2077 2374 2375 14949 16860 16864 16866 16865 16870 
2341 2375 2044 2374 16868 16866 16633 16862 16870 16864 
2342 2044 2375 2045 16638 16866 16869 16640 14730 16871 
2375 2044 2078 2045 16866 14955 16867 16871 14730 14956 
2079 2112 2410 2113 14970 16872 16873 14962 14969 16874 
2376 2410 2377 2079 16875 16876 16877 16878 16873 16879 
2079 2112 2409 2410 14970 16880 16881 16873 16872 16882 
2376 2410 2079 2409 16875 16873 16878 16883 16882 16881 
2377 2079 2410 2080 16879 16873 16876 16884 14964 16885 
2410 2079 2113 2080 16873 14962 16874 16885 14964 14963 
2080 2113 2411 2114 14963 16886 16887 14976 14980 16888 
2377 2411 2378 2080 16889 16890 16891 16884 16887 16892 
2080 2113 2410 2411 14963 16874 16885 16887 16886 16893 
2377 2411 2080 2410 16889 16887 16884 16876 16893 16885 
2378 2080 2411 2081 16892 16887 16890 16894 14978 16895 
2411 2080 2114 2081 16887 14976 16888 16895 14978 14977 
2081 2114 2412 2115 14977 16896 16897 14986 14990 16898 
2378 2412 2379 2081 16899 16900 16901 16894 16897 16902 
2081 2114 2411 2412 14977 16888 16895 16897 16896 16903 
2378 2412 2081 2411 16899 16897 16894 16890 16903 16895 
2379 2081 2412 2082 16902 16897 16900 16904 14988 16905 
2412 2081 2115 2082 16897 14986 16898 16905 14988 14987 
2082 2115 2413 2116 14987 16906 16907 14996 15000 16908 
2379 2413 2380 2082 16909 16910 16911 16904 16907 16912 
2082 2115 2412 2413 14987 16898 16905 16907 16906 16913 
2379 2413 2082 2412 16909 16907 16904 16900 16913 16905 
2380 2082 2413 2083 16912 16907 16910 16914 14998 16915 
2413 2082 2116 2083 16907 14996 16908 16915 14998 14997 
2083 2116 2414 2117 14997 16916 16917 15006 15010 16918 
2380 2414 2381 2083 16919 16920 16921 16914 16917 16922 
2083 2116 2413 2414 14997 16908 16915 16917 16916 16923 
2380 2414 2083 2413 16919 16917 16914 16910 16923 16915 
2381 2083 2414 2084 16922 16917 16920 16924 15008 16925 
2414 2083 2117 2084 16917 15006 16918 16925 15008 15007 
2084 2117 2415 2118 15007 16926 16927 15016 15020 16928 
2381 2415 2382 2084 16929 16930 16931 16924 16927 16932 
2084 2117 2414 2415 15007 16918 16925 16927 16926 16933 
2381 2415 2084 2414 16929 16927 16924 16920 16933 16925 
2382 2084 2415 2085 16932 16927 16930 16934 15018 16935 
2415 2084 2118 2085 16927 15016 16928 16935 15018 15017 
2085 2118 2416 2119 15017 16936 16937 15026 15030 16938 
2382 2416 2383 2085 16939 16940 16941 16934 16937 16942 
2085 2118 2415 2416 15017 16928 16935 16937 16936 16943 
2382 2416 2085 2415 16939 16937 16934 16930 16943 16935 
2383 2085 2416 2086 16942 16937 16940 16944 15028 16945 
2416 2085 2119 2086 16937 15026 16938 16945 15028 15027 
2086 2119 2417 2120 15027 16946 16947 15036 15040 16948 
2383 2417 2384 2086 16949 16950 16951 16944 16947 16952 
2086 2119 2416 2417 15027 16938 16945 16947 16946 16953 
2383 2417 2086 2416 16949 16947 16944 16940 16953 16945 
2384 2086 2417 2087 16952 16947 16950 16954 15038 16955 
2417 2086 2120 2087 16947 15036 16948 16955 15038 15037 
2087 2120 2418 2121 15037 16956 16957 15046 15050 16958 
2384 2418 2385 2087 16959 16960 16961 16954 16957 16962 
2087 2120 2417 2418 15037 16948 16955 16957 16956 16963 
2384 2418 2087 2417 16959 16957 16954 16950 16963 16955 
2385 2087 2418 2088 16962 16957 16960 16964 15048 16965 
2418 2087 2121 2088 16957 15046 16958 16965 15048 15047 
2088 2121 2419 2122 15047 16966 16967 15056 15060 16968 
2385 2419 2386 2088 16969 16970 16971 16964 16967 16972 
2088 2121 2418 2419 15047 16958 16965 16967 16966 16973 
2385 2419 2088 2418 16969 16967 16964 16960 16973 16965 
2386 2088 2419 2089 16972 16967 16970 16974 15058 16975 
2419 2088 2122 2089 16967 15056 16968 16975 15058 15057 
2089 2122 2420 2123 15057 16976 16977 15066 15070 16978 
2386 2420 2387 2089 16979 16980 16981 16974 16977 16982 
2089 2122 2419 2420 15057 16968 16975 16977 16976 16983 
2386 2420 2089 2419 16979 16977 16974 16970 16983 16975 
2387 2089 2420 2090 16982 16977 16980 16984 15068 16985 
2420 2089 2123 2090 16977 15066 16978 16985 15068 15067 
2090 2123 2421 2124 15067 16986 16987 15076 15080 16988 
2387 2421 2388 2090 16989 16990 16991 16984 16987 16992 
2090 2123 2420 2421 15067 16978 16985 16987 16986 16993 
2387 2421 2090 2420 16989 16987 16984 16980 16993 16985 
2388 2090 2421 2091 16992 16987 16990 16994 15078 16995 
2421 2090 2124 2091 16987 15076 16988 16995 15078 15077 
2091 2124 2422 2125 15077 16996 16997 15086 15090 16998 
2388 2422 2389 2091 16999 17000 17001 16994 16997 17002 
2091 2124 2421 2422 15077 16988 16995 16997 16996 17003 
2388 2422 2091 2421 16999 16997 16994 16990 17003 16995 
2389 2091 2422 2092 17002 16997 17000 17004 15088 17005 
2422 2091 2125 2092 16997 15086 16998 17005 15088 15087 
2092 2125 2423 2126 15087 17006 17007 15096 15100 17008 
2389 2423 2390 2092 17009 17010 17011 17004 17007 17012 
2092 2125 2422 2423 15087 16998 17005 17007 17006 17013 
2389 2423 2092 2422 17009 17007 17004 17000 17013 17005 
2390 2092 2423 2093 17012 17007 17010 17014 15098 17015 
2423 2092 2126 2093 17007 15096 17008 17015 15098 15097 
2093 2126 2424 2127 15097 17016 17017 15106 15110 17018 
2390 2424 2391 2093 17019 17020 17021 17014 17017 17022 
2093 2126 2423 2424 15097 17008 17015 17017 17016 17023 
2390 2424 2093 2423 17019 17017 17014 17010 17023 17015 
2391 2093 2424 2094 17022 17017 17020 17024 15108 17025 
2424 2093 2127 2094 17017 15106 17018 17025 15108 15107 
2094 2127 2425 2128 15107 17026 17027 15116 15120 17028 
2391 2425 2392 2094 17029 17030 17031 17024 17027 17032 
2094 2127 2424 2425 15107 17018 17025 17027 17026 17033 
2391 2425 2094 2424 17029 17027 17024 17020 17033 17025 
2392 2094 2425 2095 17032 17027 17030 17034 15118 17035 
2425 2094 2128 2095 17027 15116 17028 17035 15118 15117 
2095 2128 2426 2129 15117 17036 17037 15126 15130 17038 
2392 2426 2393 2095 17039 17040 17041 17034 17037 17042 
2095 2128 2425 2426 15117 17028 17035 17037 17036 17043 
2392 2426 2095 2425 17039 17037 17034 17030 17043 17035 
2393 2095 2426 2096 17042 17037 17040 17044 15128 17045 
2426 2095 2129 2096 17037 15126 17038 17045 15128 15127 
2096 2129 2427 2130 15127 17046 17047 15136 15140 17048 
2393 2427 2394 2096 17049 17050 17051 17044 17047 17052 
2096 2129 2426 2427 15127 17038 17045 17047 17046 17053 
2393 2427 2096 2426 17049 17047 17044 17040 17053 17045 
2394 2096 2427 2097 17052 17047 17050 17054 15138 17055 
2427 2096 2130 2097 17047 15136 17048 17055 15138 15137 
2097 2130 2428 2131 15137 17056 17057 15146 15150 17058 
2394 2428 2395 2097 17059 17060 17061 17054 17057 17062 
2097 2130 2427 2428 15137 17048 17055 17057 17056 17063 
2394 2428 2097 2427 17059 17057 17054 17050 17063 17055 
2395 2097 2428 2098 17062 17057 17060 17064 15148 17065 
2428 2097 2131 2098 17057 15146 17058 17065 15148 15147 
2098 2131 2429 2132 15147 17066 17067 15156 15160 17068 
2395 2429 2396 2098 17069 17070 17071 17064 17067 17072 
2098 2131 2428 2429 15147 17058 17065 17067 17066 17073 
2395 2429 2098 2428 17069 17067 17064 17060 17073 17065 
2396 2098 2429 2099 17072 17067 17070 17074 15158 17075 
2429 2098 2132 2099 17067 15156 17068 17075 15158 15157 
2099 2132 2430 2133 15157 17076 17077 15166 15170 17078 
2396 2430 2397 2099 17079 17080 17081 17074 17077 17082 
2099 2132 2429 2430 15157 17068 17075 17077 17076 17083 
2396 2430 2099 2429 17079 17077 17074 17070 17083 17075 
2397 2099 2430 2100 17082 17077 17080 17084 15168 17085 
2430 2099 2133 2100 17077 15166 17078 17085 15168 15167 
2100 2133 2431 2134 15167 17086 17087 15176 15180 17088 
2397 2431 2398 2100 17089 17090 17091 17084 17087 17092 
2100 2133 2430 2431 15167 17078 17085 17087 17086 17093 
2397 2431 2100 2430 17089 17087 17084 17080 17093 17085 
2398 2100 2431 2101 17092 17087 17090 17094 15178 17095 
2431 2100 2134 2101 17087 15176 17088 17095 15178 15177 
2101 2134 2432 2135 15177 17096 17097 15186 15190 17098 
2398 2432 2399 2101 17099 17100 17101 17094 17097 17102 
2101 2134 2431 2432 15177 17088 17095 17097 17096 17103 
2398 2432 2101 2431 17099 17097 17094 17090 17103 17095 
2399 2101 2432 2102 17102 17097 17100 17104 15188 17105 
2432 2101 2135 2102 17097 15186 17098 17105 15188 15187 
2102 2135 2433 2136 15187 17106 17107 15196 15200 17108 
2399 2433 2400 2102 17109 17110 17111 17104 17107 17112 
2102 2135 2432 2433 15187 17098 17105 17107 17106 17113 
2399 2433 2102 2432 17109 17107 17104 17100 17113 17105 
2400 2102 2433 2103 17112 17107 17110 17114 15198 17115 
2433 2102 2136 2103 17107 15196 17108 17115 15198 15197 
2103 2136 2434 2137 15197 17116 17117 15206 15210 17118 
2400 2434 2401 2103 17119 17120 17121 17114 17117 17122 
2103 2136 2433 2434 15197 17108 17115 17117 17116 17123 
2400 2434 2103 2433 17119 17117 17114 17110 17123 17115 
2401 2103 2434 2104 17122 17117 17120 17124 15208 17125 
2434 2103 2137 2104 17117 15206 17118 17125 15208 15207 
2104 2137 2435 2138 15207 17126 17127 15216 15220 17128 
2401 2435 2402 2104 17129 17130 17131 17124 17127 17132 
2104 2137 2434 2435 15207 17118 17125 17127 17126 17133 
2401 2435 2104 2434 17129 17127 17124 17120 17133 17125 
2402 2104 2435 2105 17132 17127 17130 17134 15218 17135 
2435 2104 2138 2105 17127 15216 17128 17135 15218 15217 
2105 2138 2436 2139 15217 17136 17137 15226 15230 17138 
2402 2436 2403 2105 17139 17140 17141 17134 17137 17142 
2105 2138 2435 2436 15217 17128 17135 17137 17136 17143 
2402 2436 2105 2435 17139 17137 17134 17130 17143 17135 
2403 2105 2436 2106 17142 17137 17140 17144 15228 17145 
2436 2105 2139 2106 17137 15226 17138 17145 15228 15227 
2106 2139 2437 2140 15227 17146 17147 15236 15240 17148 
2403 2437 2404 2106 17149 17150 17151 17144 17147 17152 
2106 2139 2436 2437 15227 17138 17145 17147 17146 17153 
2403 2437 2106 2436 17149 17147 17144 17140 17153 17145 
2404 2106 2437 2107 17152 17147 17150 17154 15238 17155 
2437 2106 2140 2107 17147 15236 17148 17155 15238 15237 
2107 2140 2438 2141 15237 17156 17157 15246 15250 17158 
2404 2438 2405 2107 17159 17160 17161 17154 17157 17162 
2107 2140 2437 2438 15237 17148 17155 17157 17156 17163 
2404 2438 2107 2437 17159 17157 17154 17150 17163 17155 
2405 2107 2438 2108 17162 17157 17160 17164 15248 17165 
2438 2107 2141 2108 17157 15246 17158 17165 15248 15247 
2108 2141 2439 2142 15247 17166 17167 15256 15260 17168 
2405 2439 2406 2108 17169 17170 17171 17164 17167 17172 
2108 2141 2438 2439 15247 17158 17165 17167 17166 17173 
2405 2439 2108 2438 17169 17167 17164 17160 17173 17165 
2406 2108 2439 2109 17172 17167 17170 17174 15258 17175 
2439 2108 2142 2109 17167 15256 17168 17175 15258 15257 
2109 2142 2440 2143 15257 17176 17177 15266 15270 17178 
2406 2440 2407 2109 17179 17180 17181 17174 17177 17182 
2109 2142 2439 2440 15257 17168 17175 17177 17176 17183 
2406 2440 2109 2439 17179 17177 17174 17170 17183 17175 
2407 2109 2440 2110 17182 17177 17180 17184 15268 17185 
2440 2109 2143 2110 17177 15266 17178 17185 15268 15267 
2110 2143 2441 2144 15267 17186 17187 15276 15280 17188 
2407 2441 2408 2110 17189 17190 17191 17184 17187 17192 
2110 2143 2440 2441 15267 17178 17185 17187 17186 17193 
2407 2441 2110 2440 17189 17187 17184 17180 17193 17185 
2408 2110 2441 2111 17192 17187 17190 17194 15278 17195 
2441 2110 2144 2111 17187 15276 17188 17195 15278 15277 
2112 2145 2443 2146 15291 17196 17197 15286 15290 17198 
2409 2443 2410 2112 17199 17200 16882 16880 17197 16872 
2112 2145 2442 2443 15291 17201 17202 17197 17196 17203 
2409 2443 2112 2442 17199 17197 16880 17204 17203 17202 
2410 2112 2443 2113 16872 17197 17200 16874 14969 17205 
2443 2112 2146 2113 17197 15286 17198 17205 14969 15287 
2113 2146 2444 2147 15287 17206 17207 15296 15298 17208 
2410 2444 2411 2113 17209 17210 16893 16874 17207 16886 
2113 2146 2443 2444 15287 17198 17205 17207 17206 17211 
2410 2444 2113 2443 17209 17207 16874 17200 17211 17205 
2411 2113 2444 2114 16886 17207 17210 16888 14980 17212 
2444 2113 2147 2114 17207 15296 17208 17212 14980 15297 
2114 2147 2445 2148 15297 17213 17214 15303 15305 17215 
2411 2445 2412 2114 17216 17217 16903 16888 17214 16896 
2114 2147 2444 2445 15297 17208 17212 17214 17213 17218 
2411 2445 2114 2444 17216 17214 16888 17210 17218 17212 
2412 2114 2445 2115 16896 17214 17217 16898 14990 17219 
2445 2114 2148 2115 17214 15303 17215 17219 14990 15304 
2115 2148 2446 2149 15304 17220 17221 15310 15312 17222 
2412 2446 2413 2115 17223 17224 16913 16898 17221 16906 
2115 2148 2445 2446 15304 17215 17219 17221 17220 17225 
2412 2446 2115 2445 17223 17221 16898 17217 17225 17219 
2413 2115 2446 2116 16906 17221 17224 16908 15000 17226 
2446 2115 2149 2116 17221 15310 17222 17226 15000 15311 
2116 2149 2447 2150 15311 17227 17228 15317 15319 17229 
2413 2447 2414 2116 17230 17231 16923 16908 17228 16916 
2116 2149 2446 2447 15311 17222 17226 17228 17227 17232 
2413 2447 2116 2446 17230 17228 16908 17224 17232 17226 
2414 2116 2447 2117 16916 17228 17231 16918 15010 17233 
2447 2116 2150 2117 17228 15317 17229 17233 15010 15318 
2117 2150 2448 2151 15318 17234 17235 15324 15326 17236 
2414 2448 2415 2117 17237 17238 16933 16918 17235 16926 
2117 2150 2447 2448 15318 17229 17233 17235 17234 17239 
2414 2448 2117 2447 17237 17235 16918 17231 17239 17233 
2415 2117 2448 2118 16926 17235 17238 16928 15020 17240 
2448 2117 2151 2118 17235 15324 17236 17240 15020 15325 
2118 2151 2449 2152 15325 17241 17242 15331 15333 17243 
2415 2449 2416 2118 17244 17245 16943 16928 17242 16936 
2118 2151 2448 2449 15325 17236 17240 17242 17241 17246 
2415 2449 2118 2448 17244 17242 16928 17238 17246 17240 
2416 2118 2449 2119 16936 17242 17245 16938 15030 17247 
2449 2118 2152 2119 17242 15331 17243 17247 15030 15332 
2119 2152 2450 2153 15332 17248 17249 15338 15340 17250 
2416 2450 2417 2119 17251 17252 16953 16938 17249 16946 
2119 2152 2449 2450 15332 17243 17247 17249 17248 17253 
2416 2450 2119 2449 17251 17249 16938 17245 17253 17247 
2417 2119 2450 2120 16946 17249 17252 16948 15040 17254 
2450 2119 2153 2120 17249 15338 17250 17254 15040 15339 
2120 2153 2451 2154 15339 17255 17256 15345 15347 17257 
2417 2451 2418 2120 17258 17259 16963 16948 17256 16956 
2120 2153 2450 2451 15339 17250 17254 17256 17255 17260 
2417 2451 2120 2450 17258 17256 16948 17252 17260 17254 
2418 2120 2451 2121 16956 17256 17259 16958 15050 17261 
2451 2120 2154 2121 17256 15345 17257 17261 15050 15346 
2121 2154 2452 2155 15346 17262 17263 15352 15354 17264 
2418 2452 2419 2121 17265 17266 16973 16958 17263 16966 
2121 2154 2451 2452 15346 17257 17261 17263 17262 17267 
2418 2452 2121 2451 17265 17263 16958 17259 17267 17261 
2419 2121 2452 2122 16966 17263 17266 16968 15060 17268 
2452 2121 2155 2122 17263 15352 17264 17268 15060 15353 
2122 2155 2453 2156 15353 17269 17270 15359 15361 17271 
2419 2453 2420 2122 17272 17273 16983 16968 17270 16976 
2122 2155 2452 2453 15353 17264 17268 17270 17269 17274 
2419 2453 2122 2452 17272 17270 16968 17266 17274 17268 
2420 2122 2453 2123 16976 17270 17273 16978 15070 17275 
2453 2122 2156 2123 17270 15359 17271 17275 15070 15360 
2123 2156 2454 2157 15360 17276 17277 15366 15368 17278 
2420 2454 2421 2123 17279 17280 16993 16978 17277 16986 
2123 2156 2453 2454 15360 17271 17275 17277 17276 17281 
2420 2454 2123 2453 17279 17277 16978 17273 17281 17275 
2421 2123 2454 2124 16986 17277 17280 16988 15080 17282 
2454 2123 2157 2124 17277 15366 17278 17282 15080 15367 
2124 2157 2455 2158 15367 17283 17284 15373 15375 17285 
2421 2455 2422 2124 17286 17287 17003 16988 17284 16996 
2124 2157 2454 2455 15367 17278 17282 17284 17283 17288 
2421 2455 2124 2454 17286 17284 16988 17280 17288 17282 
2422 2124 2455 2125 16996 17284 17287 16998 15090 17289 
2455 2124 2158 2125 17284 15373 17285 17289 15090 15374 
2125 2158 2456 2159 15374 17290 17291 15380 15382 17292 
2422 2456 2423 2125 17293 17294 17013 16998 17291 17006 
2125 2158 2455 2456 15374 17285 17289 17291 17290 17295 
2422 2456 2125 2455 17293 17291 16998 17287 17295 17289 
2423 2125 2456 2126 17006 17291 17294 17008 15100 17296 
2456 2125 2159 2126 17291 15380 17292 17296 15100 15381 
2126 2159 2457 2160 15381 17297 17298 15387 15389 17299 
2423 2457 2424 2126 17300 17301 17023 17008 17298 17016 
2126 2159 2456 2457 15381 17292 17296 17298 17297 17302 
2423 2457 2126 2456 17300 17298 17008 17294 17302 17296 
2424 2126 2457 2127 17016 17298 17301 17018 15110 17303 
2457 2126 2160 2127 17298 15387 17299 17303 15110 15388 
2127 2160 2458 2161 15388 17304 17305 15394 15396 17306 
2424 2458 2425 2127 17307 17308 17033 17018 17305 17026 
2127 2160 2457 2458 15388 17299 17303 17305 17304 17309 
2424 2458 2127 2457 17307 17305 17018 17301 17309 17303 
2425 2127 2458 2128 17026 17305 17308 17028 15120 17310 
2458 2127 2161 2128 17305 15394 17306 17310 15120 15395 
2128 2161 2459 2162 15395 17311 17312 15401 15403 17313 
2425 2459 2426 2128 17314 17315 17043 17028 17312 17036 
2128 2161 2458 2459 15395 17306 17310 17312 17311 17316 
2425 2459 2128 2458 17314 17312 17028 17308 17316 17310 
2426 2128 2459 2129 17036 17312 17315 17038 15130 17317 
2459 2128 2162 2129 17312 15401 17313 17317 15130 15402 
2129 2162 2460 2163 15402 17318 17319 15408 15410 17320 
2426 2460 2427 2129 17321 17322 17053 17038 17319 17046 
2129 2162 2459 2460 15402 17313 17317 17319 17318 17323 
2426 2460 2129 2459 17321 17319 17038 17315 17323 17317 
2427 2129 2460 2130 17046 17319 17322 17048 15140 17324 
2460 2129 2163 2130 17319 15408 17320 17324 15140 15409 
2130 2163 2461 2164 15409 17325 17326 15415 15417 17327 
2427 2461 2428 2130 17328 17329 17063 17048 17326 17056 
2130 2163 2460 2461 15409 17320 17324 17326 17325 17330 
2427 2461 2130 2460 17328 17326 17048 17322 17330 17324 
2428 2130 2461 2131 17056 17326 17329 17058 15150 17331 
2461 2130 2164 2131 17326 15415 17327 17331 15150 15416 
2131 2164 2462 2165 15416 17332 17333 15422 15424 17334 
2428 2462 2429 2131 17335 17336 17073 17058 17333 17066 
2131 2164 2461 2462 15416 17327 17331 17333 17332 17337 
2428 2462 2131 2461 17335 17333 17058 17329 17337 17331 
2429 2131 2462 2132 17066 17333 17336 17068 15160 17338 
2462 2131 2165 2132 17333 15422 17334 17338 15160 15423 
2132 2165 2463 2166 15423 17339 17340 15429 15431 17341 
2429 2463 2430 2132 17342 17343 17083 17068 17340 17076 
2132 2165 2462 2463 15423 17334 17338 17340 17339 17344 
2429 2463 2132 2462 17342 17340 17068 17336 17344 17338 
2430 2132 2463 2133 17076 17340 17343 17078 15170 17345 
2463 2132 2166 2133 17340 15429 17341 17345 15170 15430 
2133 2166 2464 2167 15430 17346 17347 15436 15438 17348 
2430 2464 2431 2133 17349 17350 17093 17078 17347 17086 
2133 2166 2463 2464 15430 17341 17345 17347 17346 17351 
2430 2464 2133 2463 17349 17347 17078 17343 17351 17345 
2431 2133 2464 2134 17086 17347 17350 17088 15180 17352 
2464 2133 2167 2134 17347 15436 17348 17352 15180 15437 
2134 2167 2465 2168 15437 17353 17354 15443 15445 17355 
2431 2465 2432 2134 17356 17357 17103 17088 17354 17096 
2134 2167 2464 2465 15437 17348 17352 17354 17353 17358 
2431 2465 2134 2464 17356 17354 17088 17350 17358 17352 
2432 2134 2465 2135 17096 17354 17357 17098 15190 17359 
2465 2134 2168 2135 17354 15443 17355 17359 15190 15444 
2135 2168 2466 2169 15444 17360 17361 15450 15452 17362 
2432 2466 2433 2135 17363 17364 17113 17098 17361 17106 
2135 2168 2465 2466 15444 17355 17359 17361 17360 17365 
2432 2466 2135 2465 17363 17361 17098 17357 17365 17359 
2433 2135 2466 2136 17106 17361 17364 17108 15200 17366 
2466 2135 2169 2136 17361 15450 17362 17366 15200 15451 
2136 2169 2467 2170 15451 17367 17368 15457 15459 17369 
2433 2467 2434 2136 17370 17371 17123 17108 17368 17116 
2136 2169 2466 2467 15451 17362 17366 17368 17367 17372 
2433 2467 2136 2466 17370 17368 17108 17364 17372 17366 
2434 2136 2467 2137 17116 17368 17371 17118 15210 17373 
2467 2136 2170 2137 17368 15457 17369 17373 15210 15458 
2137 2170 2468 2171 15458 17374 17375 15464 15466 17376 
2434 2468 2435 2137 17377 17378 17133 17118 17375 17126 
2137 2170 2467 2468 15458 17369 17373 17375 17374 17379 
2434 2468 2137 2467 17377 17375 17118 17371 17379 17373 
2435 2137 2468 2138 17126 17375 17378 17128 15220 17380 
2468 2137 2171 2138 17375 15464 17376 17380 15220 15465 
2138 2171 2469 2172 15465 17381 17382 15471 15473 17383 
2435 2469 2436 2138 17384 17385 17143 17128 17382 17136 
2138 2171 2468 2469 15465 17376 17380 17382 17381 17386 
2435 2469 2138 2468 17384 17382 17128 17378 17386 17380 
2436 2138 2469 2139 17136 17382 17385 17138 15230 17387 
2469 2138 2172 2139 17382 15471 17383 17387 15230 15472 
2139 2172 2470 2173 15472 17388 17389 15478 15480 17390 
2436 2470 2437 2139 17391 17392 17153 17138 17389 17146 
2139 2172 2469 2470 15472 17383 17387 17389 17388 17393 
2436 2470 2139 2469 17391 17389 17138 17385 17393 17387 
2437 2139 2470 2140 17146 17389 17392 17148 15240 17394 
2470 2139 2173 2140 17389 15478 17390 17394 15240 15479 
2140 2173 2471 2174 15479 17395 17396 15485 15487 17397 
2437 2471 2438 2140 17398 17399 17163 17148 17396 17156 
2140 2173 2470 2471 15479 17390 17394 17396 17395 17400 
2437 2471 2140 2470 17398 17396 17148 17392 17400 17394 
2438 2140 2471 2141 17156 17396 17399 17158 15250 17401 
2471 2140 2174 2141 17396 15485 17397 17401 15250 15486 
2141 2174 2472 2175 15486 17402 17403 15492 15494 17404 
2438 2472 2439 2141 17405 17406 17173 17158 17403 17166 
2141 2174 2471 2472 15486 17397 17401 17403 17402 17407 
2438 2472 2141 2471 17405 17403 17158 17399 17407 17401 
2439 2141 2472 2142 17166 17403 17406 17168 15260 17408 
2472 2141 2175 2142 17403 15492 17404 17408 15260 15493 
2142 2175 2473 2176 15493 17409 17410 15499 15501 17411 
2439 2473 2440 2142 17412 17413 17183 17168 17410 17176 
2142 2175 2472 2473 15493 17404 17408 17410 17409 17414 
2439 2473 2142 2472 17412 17410 17168 17406 17414 17408 
2440 2142 2473 2143 17176 17410 17413 17178 15270 17415 
2473 2142 2176 2143 17410 15499 17411 17415 15270 15500 
2143 2176 2474 2177 15500 17416 17417 15506 15508 17418 
2440 2474 2441 2143 17419 17420 17193 17178 17417 17186 
2143 2176 2473 2474 15500 17411 17415 17417 17416 17421 
2440 2474 2143 2473 17419 17417 17178 17413 17421 17415 
2441 2143 2474 2144 17186 17417 17420 17188 15280 17422 
2474 2143 2177 2144 17417 15506 17418 17422 15280 15507 
2145 2178 2476 2179 15518 17423 17424 15513 15517 17425 
2442 2476 2443 2145 17426 17427 17203 17201 17424 17196 
2145 2178 2475 2476 15518 17428 17429 17424 17423 17430 
2442 2476 2145 2475 17426 17424 17201 17431 17430 17429 
2443 2145 2476 2146 17196 17424 17427 17198 15290 17432 
2476 2145 2179 2146 17424 15513 17425 17432 15290 15514 
2146 2179 2477 2180 15514 17433 17434 15523 15525 17435 
2443 2477 2444 2146 17436 17437 17211 17198 17434 17206 
2146 2179 2476 2477 15514 17425 17432 17434 17433 17438 
2443 2477 2146 2476 17436 17434 17198 17427 17438 17432 
2444 2146 2477 2147 17206 17434 17437 17208 15298 17439 
2477 2146 2180 2147 17434 15523 17435 17439 15298 15524 
2147 2180 2478 2181 15524 17440 17441 15530 15532 17442 
2444 2478 2445 2147 17443 17444 17218 17208 17441 17213 
2147 2180 2477 2478 15524 17435 17439 17441 17440 17445 
2444 2478 2147 2477 17443 17441 17208 17437 17445 17439 
2445 2147 2478 2148 17213 17441 17444 17215 15305 17446 
2478 2147 2181 2148 17441 15530 17442 17446 15305 15531 
2148 2181 2479 2182 15531 17447 17448 15537 15539 17449 
2445 2479 2446 2148 17450 17451 17225 17215 17448 17220 
2148 2181 2478 2479 15531 17442 17446 17448 17447 17452 
2445 2479 2148 2478 17450 17448 17215 17444 17452 17446 
2446 2148 2479 2149 17220 17448 17451 17222 15312 17453 
2479 2148 2182 2149 17448 15537 17449 17453 15312 15538 
2149 2182 2480 2183 15538 17454 17455 15544 15546 17456 
2446 2480 2447 2149 17457 17458 17232 17222 17455 17227 
2149 2182 2479 2480 15538 17449 17453 17455 17454 17459 
2446 2480 2149 2479 17457 17455 17222 17451 17459 17453 
2447 2149 2480 2150 17227 17455 17458 17229 15319 17460 
2480 2149 2183 2150 17455 15544 17456 17460 15319 15545 
2150 2183 2481 2184 15545 17461 17462 15551 15553 17463 
2447 2481 2448 2150 17464 17465 17239 17229 17462 17234 
2150 2183 2480 2481 15545 17456 17460 17462 17461 17466 
2447 2481 2150 2480 17464 17462 17229 17458 17466 17460 
2448 2150 2481 2151 17234 17462 17465 17236 15326 17467 
2481 2150 2184 2151 17462 15551 17463 17467 15326 15552 
2151 2184 2482 2185 15552 17468 17469 15558 15560 17470 
2448 2482 2449 2151 17471 17472 17246 17236 17469 17241 
2151 2184 2481 2482 15552 17463 17467 17469 17468 17473 
2448 2482 2151 2481 17471 17469 17236 17465 17473 17467 
2449 2151 2482 2152 17241 17469 17472 17243 15333 17474 
2482 2151 2185 2152 17469 15558 17470 17474 15333 15559 
2152 2185 2483 2186 15559 17475 17476 15565 15567 17477 
2449 2483 2450 2152 17478 17479 17253 17243 17476 17248 
2152 2185 2482 2483 15559 17470 17474 17476 17475 17480 
2449 2483 2152 2482 17478 17476 17243 17472 17480 17474 
2450 2152 2483 2153 17248 17476 17479 17250 15340 17481 
2483 2152 2186 2153 17476 15565 17477 17481 15340 15566 
2153 2186 2484 2187 15566 17482 17483 15572 15574 17484 
2450 2484 2451 2153 17485 17486 17260 17250 17483 17255 
2153 2186 2483 2484 15566 17477 17481 17483 17482 17487 
2450 2484 2153 2483 17485 17483 17250 17479 17487 17481 
2451 2153 2484 2154 17255 17483 17486 17257 15347 17488 
2484 2153 2187 2154 17483 15572 17484 17488 15347 15573 
2154 2187 2485 2188 15573 17489 17490 15579 15581 17491 
2451 2485 2452 2154 17492 17493 17267 17257 17490 17262 
2154 2187 2484 2485 15573 17484 17488 17490 17489 17494 
2451 2485 2154 2484 17492 17490 17257 17486 17494 17488 
2452 2154 2485 2155 17262 17490 17493 17264 15354 17495 
2485 2154 2188 2155 17490 15579 17491 17495 15354 15580 
2155 2188 2486 2189 15580 17496 17497 15586 15588 17498 
2452 2486 2453 2155 17499 17500 17274 17264 17497 17269 
2155 2188 2485 2486 15580 17491 17495 17497 17496 17501 
2452 2486 2155 2485 17499 17497 17264 17493 17501 17495 
2453 2155 2486 2156 17269 17497 17500 17271 15361 17502 
2486 2155 2189 2156 17497 15586 17498 17502 15361 15587 
2156 2189 2487 2190 15587 17503 17504 15593 15595 17505 
2453 2487 2454 2156 17506 17507 17281 17271 17504 17276 
2156 2189 2486 2487 15587 17498 17502 17504 17503 17508 
2453 2487 2156 2486 17506 17504 17271 17500 17508 17502 
2454 2156 2487 2157 17276 17504 17507 17278 15368 17509 
2487 2156 2190 2157 17504 15593 17505 17509 15368 15594 
2157 2190 2488 2191 15594 17510 17511 15600 15602 17512 
2454 2488 2455 2157 17513 17514 17288 17278 17511 17283 
2157 2190 2487 2488 15594 17505 17509 17511 17510 17515 
2454 2488 2157 2487 17513 17511 17278 17507 17515 17509 
2455 2157 2488 2158 17283 17511 17514 17285 15375 17516 
2488 2157 2191 2158 17511 15600 17512 17516 15375 15601 
2158 2191 2489 2192 15601 17517 17518 15607 15609 17519 
2455 2489 2456 2158 17520 17521 17295 17285 17518 17290 
2158 2191 2488 2489 15601 17512 17516 17518 17517 17522 
2455 2489 2158 2488 17520 17518 17285 17514 17522 17516 
2456 2158 2489 2159 17290 17518 17521 17292 15382 17523 
2489 2158 2192 2159 17518 15607 17519 17523 15382 15608 
2159 2192 2490 2193 15608 17524 17525 15614 15616 17526 
2456 2490 2457 2159 17527 17528 17302 17292 17525 17297 
2159 2192 2489 2490 15608 17519 17523 17525 17524 17529 
2456 2490 2159 2489 17527 17525 17292 17521 17529 17523 
2457 2159 2490 2160 17297 17525 17528 17299 15389 17530 
2490 2159 2193 2160 17525 15614 17526 17530 15389 15615 
2160 2193 2491 2194 15615 17531 17532 15621 15623 17533 
2457 2491 2458 2160 17534 17535 17309 17299 17532 17304 
2160 2193 2490 2491 15615 17526 17530 17532 17531 17536 
2457 2491 2160 2490 17534 17532 17299 17528 17536 17530 
2458 2160 2491 2161 17304 17532 17535 17306 15396 17537 
2491 2160 2194 2161 17532 15621 17533 17537 15396 15622 
2161 2194 2492 2195 15622 17538 17539 15628 15630 17540 
2458 2492 2459 2161 17541 17542 17316 17306 17539 17311 
2161 2194 2491 2492 15622 17533 17537 17539 17538 17543 
2458 2492 2161 2491 17541 17539 17306 17535 17543 17537 
2459 2161 2492 2162 17311 17539 17542 17313 15403 17544 
2492 2161 2195 2162 17539 15628 17540 17544 15403 15629 
2162 2195 2493 2196 15629 17545 17546 15635 15637 17547 
2459 2493 2460 2162 17548 17549 17323 17313 17546 17318 
2162 2195 2492 2493 15629 17540 17544 17546 17545 17550 
2459 2493 2162 2492 17548 17546 17313 17542 17550 17544 
2460 2162 2493 2163 17318 17546 17549 17320 15410 17551 
2493 2162 2196 2163 17546 15635 17547 17551 15410 15636 
2163 2196 2494 2197 15636 17552 17553 15642 15644 17554 
2460 2494 2461 2163 17555 17556 17330 17320 17553 17325 
2163 2196 2493 2494 15636 17547 17551 17553 17552 17557 
2460 2494 2163 2493 17555 17553 17320 17549 17557 17551 
2461 2163 2494 2164 17325 17553 17556 17327 15417 17558 
2494 2163 2197 2164 17553 15642 17554 17558 15417 15643 
2164 2197 2495 2198 15643 17559 17560 15649 15651 17561 
2461 2495 2462 2164 17562 17563 17337 17327 17560 17332 
2164 2197 2494 2495 15643 17554 17558 17560 17559 17564 
2461 2495 2164 2494 17562 17560 17327 17556 17564 17558 
2462 2164 2495 2165 17332 17560 17563 17334 15424 17565 
2495 2164 2198 2165 17560 15649 17561 17565 15424 15650 
2165 2198 2496 2199 15650 17566 17567 15656 15658 17568 
2462 2496 2463 2165 17569 17570 17344 17334 17567 17339 
2165 2198 2495 2496 15650 17561 17565 17567 17566 17571 
2462 2496 2165 2495 17569 17567 17334 17563 17571 17565 
2463 2165 2496 2166 17339 17567 17570 17341 15431 17572 
2496 2165 2199 2166 17567 15656 17568 17572 15431 15657 
2166 2199 2497 2200 15657 17573 17574 15663 15665 17575 
2463 2497 2464 2166 17576 17577 17351 17341 17574 17346 
2166 2199 2496 2497 15657 17568 17572 17574 17573 17578 
2463 2497 2166 2496 17576 17574 17341 17570 17578 17572 
2464 2166 2497 2167 17346 17574 17577 17348 15438 17579 
2497 2166 2200 2167 17574 15663 17575 17579 15438 15664 
2167 2200 2498 2201 15664 17580 17581 15670 15672 17582 
2464 2498 2465 2167 17583 17584 17358 17348 17581 17353 
2167 2200 2497 2498 15664 17575 17579 17581 17580 17585 
2464 2498 2167 2497 17583 17581 17348 17577 17585 17579 
2465 2167 2498 2168 17353 17581 17584 17355 15445 17586 
2498 2167 2201 2168 17581 15670 17582 17586 15445 15671 
2168 2201 2499 2202 15671 17587 17588 15677 15679 17589 
2465 2499 2466 2168 17590 17591 17365 17355 17588 17360 
2168 2201 2498 2499 15671 17582 17586 17588 17587 17592 
2465 2499 2168 2498 17590 17588 17355 17584 17592 17586 
2466 2168 2499 2169 17360 17588 17591 17362 15452 17593 
2499 2168 2202 2169 17588 15677 17589 17593 15452 15678 
2169 2202 2500 2203 15678 17594 17595 15684 15686 17596 
2466 2500 2467 2169 17597 17598 17372 17362 17595 17367 
2169 2202 2499 2500 15678 17589 17593 17595 17594 17599 
2466 2500 2169 2499 17597 17595 17362 17591 17599 17593 
2467 2169 2500 2170 17367 17595 17598 17369 15459 17600 
2500 2169 2203 2170 17595 15684 17596 17600 15459 15685 
2170 2203 2501 2204 15685 17601 17602 15691 15693 17603 
2467 2501 2468 2170 17604 17605 17379 17369 17602 17374 
2170 2203 2500 2501 15685 17596 17600 17602 17601 17606 
2467 2501 2170 2500 17604 17602 17369 17598 17606 17600 
2468 2170 2501 2171 17374 17602 17605 17376 15466 17607 
2501 2170 2204 2171 17602 15691 17603 17607 15466 15692 
2171 2204 2502 2205 15692 17608 17609 15698 15700 17610 
2468 2502 2469 2171 17611 17612 17386 17376 17609 17381 
2171 2204 2501 2502 15692 17603 17607 17609 17608 17613 
2468 2502 2171 2501 17611 17609 17376 17605 17613 17607 
2469 2171 2502 2172 17381 17609 17612 17383 15473 17614 
2502 2171 2205 2172 17609 15698 17610 17614 15473 15699 
2172 2205 2503 2206 15699 17615 17616 15705 15707 17617 
2469 2503 2470 2172 17618 17619 17393 17383 17616 17388 
2172 2205 2502 2503 15699 17610 17614 17616 17615 17620 
2469 2503 2172 2502 17618 17616 17383 17612 17620 17614 
2470 2172 2503 2173 17388 17616 17619 17390 15480 17621 
2503 2172 2206 2173 17616 15705 17617 17621 15480 15706 
2173 2206 2504 2207 15706 17622 17623 15712 15714 17624 
2470 2504 2471 2173 17625 17626 17400 17390 17623 17395 
2173 2206 2503 2504 15706 17617 17621 17623 17622 17627 
2470 2504 2173 2503 17625 17623 17390 17619 17627 17621 
2471 2173 2504 2174 17395 17623 17626 17397 15487 17628 
2504 2173 2207 2174 17623 15712 17624 17628 15487 15713 
2174 2207 2505 2208 15713 17629 17630 15719 15721 17631 
2471 2505 2472 2174 17632 17633 17407 17397 17630 17402 
2174 2207 2504 2505 15713 17624 17628 17630 17629 17634 
2471 2505 2174 2504 17632 17630 17397 17626 17634 17628 
2472 2174 2505 2175 17402 17630 17633 17404 15494 17635 
2505 2174 2208 2175 17630 15719 17631 17635 15494 15720 
2175 2208 2506 2209 15720 17636 17637 15726 15728 17638 
2472 2506 2473 2175 17639 17640 17414 17404 17637 17409 
2175 2208 2505 2506 15720 17631 17635 17637 17636 17641 
2472 2506 2175 2505 17639 17637 17404 17633 17641 17635 
2473 2175 2506 2176 17409 17637 17640 17411 15501 17642 
2506 2175 2209 2176 17637 15726 17638 17642 15501 15727 
2176 2209 2507 2210 15727 17643 17644 15733 15735 17645 
2473 2507 2474 2176 17646 17647 17421 17411 17644 17416 
2176 2209 2506 2507 15727 17638 17642 17644 17643 17648 
2473 2507 2176 2506 17646 17644 17411 17640 17648 17642 
2474 2176 2507 2177 17416 17644 17647 17418 15508 17649 
2507 2176 2210 2177 17644 15733 17645 17649 15508 15734 
2178 2211 2509 2212 15745 17650 17651 15740 15744 17652 
2475 2509 2476 2178 17653 17654 17430 17428 17651 17423 
2178 2211 2508 2509 15745 17655 17656 17651 17650 17657 
2475 2509 2178 2508 17653 17651 17428 17658 17657 17656 
2476 2178 2509 2179 17423 17651 17654 17425 15517 17659 
2509 2178 2212 2179 17651 15740 17652 17659 15517 15741 
2179 2212 2510 2213 15741 17660 17661 15750 15752 17662 
2476 2510 2477 2179 17663 17664 17438 17425 17661 17433 
2179 2212 2509 2510 15741 17652 17659 17661 17660 17665 
2476 2510 2179 2509 17663 17661 17425 17654 17665 17659 
2477 2179 2510 2180 17433 17661 17664 17435 15525 17666 
2510 2179 2213 2180 17661 15750 17662 17666 15525 15751 
2180 2213 2511 2214 15751 17667 17668 15757 15759 17669 
2477 2511 2478 2180 17670 17671 17445 17435 17668 17440 
2180 2213 2510 2511 15751 17662 17666 17668 17667 17672 
2477 2511 2180 2510 17670 17668 17435 17664 17672 17666 
2478 2180 2511 2181 17440 17668 17671 17442 15532 17673 
2511 2180 2214 2181 17668 15757 17669 17673 15532 15758 
2181 2214 2512 2215 15758 17674 17675 15764 15766 17676 
2478 2512 2479 2181 17677 17678 17452 17442 17675 17447 
2181 2214 2511 2512 15758 17669 17673 17675 17674 17679 
2478 2512 2181 2511 17677 17675 17442 17671 17679 17673 
2479 2181 2512 2182 17447 17675 17678 17449 15539 17680 
2512 2181 2215 2182 17675 15764 17676 17680 15539 15765 
2182 2215 2513 2216 15765 17681 17682 15771 15773 17683 
2479 2513 2480 2182 17684 17685 17459 17449 17682 17454 
2182 2215 2512 2513 15765 17676 17680 17682 17681 17686 
2479 2513 2182 2512 17684 17682 17449 17678 17686 17680 
2480 2182 2513 2183 17454 17682 17685 17456 15546 17687 
2513 2182 2216 2183 17682 15771 17683 17687 15546 15772 
2183 2216 2514 2217 15772 17688 17689 15778 15780 17690 
2480 2514 2481 2183 17691 17692 17466 17456 17689 17461 
2183 2216 2513 2514 15772 17683 17687 17689 17688 17693 
2480 2514 2183 2513 17691 17689 17456 17685 17693 17687 
2481 2183 2514 2184 17461 17689 17692 17463 15553 17694 
2514 2183 2217 2184 17689 15778 17690 17694 15553 15779 
2184 2217 2515 2218 15779 17695 17696 15785 15787 17697 
2481 2515 2482 2184 17698 17699 17473 17463 17696 17468 
2184 2217 2514 2515 15779 17690 17694 17696 17695 17700 
2481 2515 2184 2514 17698 17696 17463 17692 17700 17694 
2482 2184 2515 2185 17468 17696 17699 17470 15560 17701 
2515 2184 2218 2185 17696 15785 17697 17701 15560 15786 
2185 2218 2516 2219 15786 17702 17703 15792 15794 17704 
2482 2516 2483 2185 17705 17706 17480 17470 17703 17475 
2185 2218 2515 2516 15786 17697 17701 17703 17702 17707 
2482 2516 2185 2515 17705 17703 17470 17699 17707 17701 
2483 2185 2516 2186 17475 17703 17706 17477 15567 17708 
2516 2185 2219 2186 17703 15792 17704 17708 15567 15793 
2186 2219 2517 2220 15793 17709 17710 15799 15801 17711 
2483 2517 2484 2186 17712 17713 17487 17477 17710 17482 
2186 2219 2516 2517 15793 17704 17708 17710 17709 17714 
2483 2517 2186 2516 17712 17710 17477 17706 17714 17708 
2484 2186 2517 2187 17482 17710 17713 17484 15574 17715 
2517 2186 2220 2187 17710 15799 17711 17715 15574 15800 
2187 2220 2518 2221 15800 17716 17717 15806 15808 17718 
2484 2518 2485 2187 17719 17720 17494 17484 17717 17489 
2187 2220 2517 2518 15800 17711 17715 17717 17716 17721 
2484 2518 2187 2517 17719 17717 17484 17713 17721 17715 
2485 2187 2518 2188 17489 17717 17720 17491 15581 17722 
2518 2187 2221 2188 17717 15806 17718 17722 15581 15807 
2188 2221 2519 2222 15807 17723 17724 15813 15815 17725 
2485 2519 2486 2188 17726 17727 17501 17491 17724 17496 
2188 2221 2518 2519 15807 17718 17722 17724 17723 17728 
2485 2519 2188 2518 17726 17724 17491 17720 17728 17722 
2486 2188 2519 2189 17496 17724 17727 17498 15588 17729 
2519 2188 2222 2189 17724 15813 17725 17729 15588 15814 
2189 2222 2520 2223 15814 17730 17731 15820 15822 17732 
2486 2520 2487 2189 17733 17734 17508 17498 17731 17503 
2189 2222 2519 2520 15814 17725 17729 17731 17730 17735 
2486 2520 2189 2519 17733 17731 17498 17727 17735 17729 
2487 2189 2520 2190 17503 17731 17734 17505 15595 17736 
2520 2189 2223 2190 17731 15820 17732 17736 15595 15821 
2190 2223 2521 2224 15821 17737 17738 15827 15829 17739 
2487 2521 2488 2190 17740 17741 17515 17505 17738 17510 
2190 2223 2520 2521 15821 17732 17736 17738 17737 17742 
2487 2521 2190 2520 17740 17738 17505 17734 17742 17736 
2488 2190 2521 2191 17510 17738 17741 17512 15602 17743 
2521 2190 2224 2191 17738 15827 17739 17743 15602 15828 
2191 2224 2522 2225 15828 17744 17745 15834 15836 17746 
2488 2522 2489 2191 17747 17748 17522 17512 17745 17517 
2191 2224 2521 2522 15828 17739 17743 17745 17744 17749 
2488 2522 2191 2521 17747 17745 17512 17741 17749 17743 
2489 2191 2522 2192 17517 17745 17748 17519 15609 17750 
2522 2191 2225 2192 17745 15834 17746 17750 15609 15835 
2192 2225 2523 2226 15835 17751 17752 15841 15843 17753 
2489 2523 2490 2192 17754 17755 17529 17519 17752 17524 
2192 2225 2522 2523 15835 17746 17750 17752 17751 17756 
2489 2523 2192 2522 17754 17752 17519 17748 17756 17750 
2490 2192 2523 2193 17524 17752 17755 17526 15616 17757 
2523 2192 2226 2193 17752 15841 17753 17757 15616 15842 
2193 2226 2524 2227 15842 17758 17759 15848 15850 17760 
2490 2524 2491 2193 17761 17762 17536 17526 17759 17531 
2193 2226 2523 2524 15842 17753 17757 17759 17758 17763 
2490 2524 2193 2523 17761 17759 17526 17755 17763 17757 
2491 2193 2524 2194 17531 17759 17762 17533 15623 17764 
2524 2193 2227 2194 17759 15848 17760 17764 15623 15849 
2194 2227 2525 2228 15849 17765 17766 15855 15857 17767 
2491 2525 2492 2194 17768 17769 17543 17533 17766 17538 
2194 2227 2524 2525 15849 17760 17764 17766 17765 17770 
2491 2525 2194 2524 17768 17766 17533 17762 17770 17764 
2492 2194 2525 2195 17538 17766 17769 17540 15630 17771 
2525 2194 2228 2195 17766 15855 17767 17771 15630 15856 
2195 2228 2526 2229 15856 17772 17773 15862 15864 17774 
2492 2526 2493 2195 17775 17776 17550 17540 17773 17545 
2195 2228 2525 2526 15856 17767 17771 17773 17772 17777 
2492 2526 2195 2525 17775 17773 17540 17769 17777 17771 
2493 2195 2526 2196 17545 17773 17776 17547 15637 17778 
2526 2195 2229 2196 17773 15862 17774 17778 15637 15863 
2196 2229 2527 2230 15863 17779 17780 15869 15871 17781 
2493 2527 2494 2196 17782 17783 17557 17547 17780 17552 
2196 2229 2526 2527 15863 17774 17778 17780 17779 17784 
2493 2527 2196 2526 17782 17780 17547 17776 17784 17778 
2494 2196 2527 2197 17552 17780 17783 17554 15644 17785 
2527 2196 2230 2197 17780 15869 17781 17785 15644 15870 
2197 2230 2528 2231 15870 17786 17787 15876 15878 17788 
2494 2528 2495 2197 17789 17790 17564 17554 17787 17559 
2197 2230 2527 2528 15870 17781 17785 17787 17786 17791 
2494 2528 2197 2527 17789 17787 17554 17783 17791 17785 
2495 2197 2528 2198 17559 17787 17790 17561 15651 17792 
2528 2197 2231 2198 17787 15876 17788 17792 15651 15877 
2198 2231 2529 2232 15877 17793 17794 15883 15885 17795 
2495 2529 2496 2198 17796 17797 17571 17561 17794 17566 
2198 2231 2528 2529 15877 17788 17792 17794 17793 17798 
2495 2529 2198 2528 17796 17794 17561 17790 17798 17792 
2496 2198 2529 2199 17566 17794 17797 17568 15658 17799 
2529 2198 2232 2199 17794 15883 17795 17799 15658 15884 
2199 2232 2530 2233 15884 17800 17801 15890 15892 17802 
2496 2530 2497 2199 17803 17804 17578 17568 17801 17573 
2199 2232 2529 2530 15884 17795 17799 17801 17800 17805 
2496 2530 2199 2529 17803 17801 17568 17797 17805 17799 
2497 2199 2530 2200 17573 17801 17804 17575 15665 17806 
2530 2199 2233 2200 17801 15890 17802 17806 15665 15891 
2200 2233 2531 2234 15891 17807 17808 15897 15899 17809 
2497 2531 2498 2200 17810 17811 17585 17575 17808 17580 
2200 2233 2530 2531 15891 17802 17806 17808 17807 17812 
2497 2531 2200 2530 17810 17808 17575 17804 17812 17806 
2498 2200 2531 2201 17580 17808 17811 17582 15672 17813 
2531 2200 2234 2201 17808 15897 17809 17813 15672 15898 
2201 2234 2532 2235 15898 17814 17815 15904 15906 17816 
2498 2532 2499 2201 17817 17818 17592 17582 17815 17587 
2201 2234 2531 2532 15898 17809 17813 17815 17814 17819 
2498 2532 2201 2531 17817 17815 17582 17811 17819 17813 
2499 2201 2532 2202 17587 17815 17818 17589 15679 17820 
2532 2201 2235 2202 17815 15904 17816 17820 15679 15905 
2202 2235 2533 2236 15905 17821 17822 15911 15913 17823 
2499 2533 2500 2202 17824 17825 17599 17589 17822 17594 
2202 2235 2532 2533 15905 17816 17820 17822 17821 17826 
2499 2533 2202 2532 17824 17822 17589 17818 17826 17820 
2500 2202 2533 2203 17594 17822 17825 17596 15686 17827 
2533 2202 2236 2203 17822 15911 17823 17827 15686 15912 
2203 2236 2534 2237 15912 17828 17829 15918 15920 17830 
2500 2534 2501 2203 17831 17832 17606 17596 17829 17601 
2203 2236 2533 2534 15912 17823 17827 17829 17828 17833 
2500 2534 2203 2533 17831 17829 17596 17825 17833 17827 
2501 2203 2534 2204 17601 17829 17832 17603 15693 17834 
2534 2203 2237 2204 17829 15918 17830 17834 15693 15919 
2204 2237 2535 2238 15919 17835 17836 15925 15927 17837 
2501 2535 2502 2204 17838 17839 17613 17603 17836 17608 
2204 2237 2534 2535 15919 17830 17834 17836 17835 17840 
2501 2535 2204 2534 17838 17836 17603 17832 17840 17834 
2502 2204 2535 2205 17608 17836 17839 17610 15700 17841 
2535 2204 2238 2205 17836 15925 17837 17841 15700 15926 
2205 2238 2536 2239 15926 17842 17843 15932 15934 17844 
2502 2536 2503 2205 17845 17846 17620 17610 17843 17615 
2205 2238 2535 2536 15926 17837 17841 17843 17842 17847 
2502 2536 2205 2535 17845 17843 17610 17839 17847 17841 
2503 2205 2536 2206 17615 17843 17846 17617 15707 17848 
2536 2205 2239 2206 17843 15932 17844 17848 15707 15933 
2206 2239 2537 2240 15933 17849 17850 15939 15941 17851 
2503 2537 2504 2206 17852 17853 17627 17617 17850 17622 
2206 2239 2536 2537 15933 17844 17848 17850 17849 17854 
2503 2537 2206 2536 17852 17850 17617 17846 17854 17848 
2504 2206 2537 2207 17622 17850 17853 17624 15714 17855 
2537 2206 2240 2207 17850 15939 17851 17855 15714 15940 
2207 2240 2538 2241 15940 17856 17857 15946 15948 17858 
2504 2538 2505 2207 17859 17860 17634 17624 17857 17629 
2207 2240 2537 2538 15940 17851 17855 17857 17856 17861 
2504 2538 2207 2537 17859 17857 17624 17853 17861 17855 
2505 2207 2538 2208 17629 17857 17860 17631 15721 17862 
2538 2207 2241 2208 17857 15946 17858 17862 15721 15947 
2208 2241 2539 2242 15947 17863 17864 15953 15955 17865 
2505 2539 2506 2208 17866 17867 17641 17631 17864 17636 
2208 2241 2538 2539 15947 17858 17862 17864 17863 17868 
2505 2539 2208 2538 17866 17864 17631 17860 17868 17862 
2506 2208 2539 2209 17636 17864 17867 17638 15728 17869 
2539 2208 2242 2209 17864 15953 17865 17869 15728 15954 
2209 2242 2540 2243 15954 17870 17871 15960 15962 17872 
2506 2540 2507 2209 17873 17874 17648 17638 17871 17643 
2209 2242 2539 2540 15954 17865 17869 17871 17870 17875 
2506 2540 2209 2539 17873 17871 17638 17867 17875 17869 
2507 2209 2540 2210 17643 17871 17874 17645 15735 17876 
2540 2209 2243 2210 17871 15960 17872 17876 15735 15961 
2211 2244 2542 2245 15972 17877 17878 15967 15971 17879 
2508 2542 2509 2211 17880 17881 17657 17655 17878 17650 
2211 2244 2541 2542 15972 17882 17883 17878 17877 17884 
2508 2542 2211 2541 17880 17878 17655 17885 17884 17883 
2509 2211 2542 2212 17650 17878 17881 17652 15744 17886 
2542 2211 2245 2212 17878 15967 17879 17886 15744 15968 
2212 2245 2543 2246 15968 17887 17888 15977 15979 17889 
2509 2543 2510 2212 17890 17891 17665 17652 17888 17660 
2212 2245 2542 2543 15968 17879 17886 17888 17887 17892 
2509 2543 2212 2542 17890 17888 17652 17881 17892 17886 
2510 2212 2543 2213 17660 17888 17891 17662 15752 17893 
2543 2212 2246 2213 17888 15977 17889 17893 15752 15978 
2213 2246 2544 2247 15978 17894 17895 15984 15986 17896 
2510 2544 2511 2213 17897 17898 17672 17662 17895 17667 
2213 2246 2543 2544 15978 17889 17893 17895 17894 17899 
2510 2544 2213 2543 17897 17895 17662 17891 17899 17893 
2511 2213 2544 2214 17667 17895 17898 17669 15759 17900 
2544 2213 2247 2214 17895 15984 17896 17900 15759 15985 
2214 2247 2545 2248 15985 17901 17902 15991 15993 17903 
2511 2545 2512 2214 17904 17905 17679 17669 17902 17674 
2214 2247 2544 2545 15985 17896 17900 17902 17901 17906 
2511 2545 2214 2544 17904 17902 17669 17898 17906 17900 
2512 2214 2545 2215 17674 17902 17905 17676 15766 17907 
2545 2214 2248 2215 17902 15991 17903 17907 15766 15992 
2215 2248 2546 2249 15992 17908 17909 15998 16000 17910 
2512 2546 2513 2215 17911 17912 17686 17676 17909 17681 
2215 2248 2545 2546 15992 17903 17907 17909 17908 17913 
2512 2546 2215 2545 17911 17909 17676 17905 17913 17907 
2513 2215 2546 2216 17681 17909 17912 17683 15773 17914 
2546 2215 2249 2216 17909 15998 17910 17914 15773 15999 
2216 2249 2547 2250 15999 17915 17916 16005 16007 17917 
2513 2547 2514 2216 17918 17919 17693 17683 17916 17688 
2216 2249 2546 2547 15999 17910 17914 17916 17915 17920 
2513 2547 2216 2546 17918 17916 17683 17912 17920 17914 
2514 2216 2547 2217 17688 17916 17919 17690 15780 17921 
2547 2216 2250 2217 17916 16005 17917 17921 15780 16006 
2217 2250 2548 2251 16006 17922 17923 16012 16014 17924 
2514 2548 2515 2217 17925 17926 17700 17690 17923 17695 
2217 2250 2547 2548 16006 17917 17921 17923 17922 17927 
2514 2548 2217 2547 17925 17923 17690 17919 17927 17921 
2515 2217 2548 2218 17695 17923 17926 17697 15787 17928 
2548 2217 2251 2218 17923 16012 17924 17928 15787 16013 
2218 2251 2549 2252 16013 17929 17930 16019 16021 17931 
2515 2549 2516 2218 17932 17933 17707 17697 17930 17702 
2218 2251 2548 2549 16013 17924 17928 17930 17929 17934 
2515 2549 2218 2548 17932 17930 17697 17926 17934 17928 
2516 2218 2549 2219 17702 17930 17933 17704 15794 17935 
2549 2218 2252 2219 17930 16019 17931 17935 15794 16020 
2219 2252 2550 2253 16020 17936 17937 16026 16028 17938 
2516 2550 2517 2219 17939 17940 17714 17704 17937 17709 
2219 2252 2549 2550 16020 17931 17935 17937 17936 17941 
2516 2550 2219 2549 17939 17937 17704 17933 17941 17935 
2517 2219 2550 2220 17709 17937 17940 17711 15801 17942 
2550 2219 2253 2220 17937 16026 17938 17942 15801 16027 
2220 2253 2551 2254 16027 17943 17944 16033 16035 17945 
2517 2551 2518 2220 17946 17947 17721 17711 17944 17716 
2220 2253 2550 2551 16027 17938 17942 17944 17943 17948 
2517 2551 2220 2550 17946 17944 17711 17940 17948 17942 
2518 2220 2551 2221 17716 17944 17947 17718 15808 17949 
2551 2220 2254 2221 17944 16033 17945 17949 15808 16034 
2221 2254 2552 2255 16034 17950 17951 16040 16042 17952 
2518 2552 2519 2221 17953 17954 17728 17718 17951 17723 
2221 2254 2551 2552 16034 17945 17949 17951 17950 17955 
2518 2552 2221 2551 17953 17951 17718 17947 17955 17949 
2519 2221 2552 2222 17723 17951 17954 17725 15815 17956 
2552 2221 2255 2222 17951 16040 17952 17956 15815 16041 
2222 2255 2553 2256 16041 17957 17958 16047 16049 17959 
2519 2553 2520 2222 17960 17961 17735 17725 17958 17730 
2222 2255 2552 2553 16041 17952 17956 17958 17957 17962 
2519 2553 2222 2552 17960 17958 17725 17954 17962 17956 
2520 2222 2553 2223 17730 17958 17961 17732 15822 17963 
2553 2222 2256 2223 17958 16047 17959 17963 15822 16048 
2223 2256 2554 2257 16048 17964 17965 16054 16056 17966 
2520 2554 2521 2223 17967 17968 17742 17732 17965 17737 
2223 2256 2553 2554 16048 17959 17963 17965 17964 17969 
2520 2554 2223 2553 17967 17965 17732 17961 17969 17963 
2521 2223 2554 2224 17737 17965 17968 17739 15829 17970 
2554 2223 2257 2224 17965 16054 17966 17970 15829 16055 
2224 2257 2555 2258 16055 17971 17972 16061 16063 17973 
2521 2555 2522 2224 17974 17975 17749 17739 17972 17744 
2224 2257 2554 2555 16055 17966 17970 17972 17971 17976 
2521 2555 2224 2554 17974 17972 17739 17968 17976 17970 
2522 2224 2555 2225 17744 17972 17975 17746 15836 17977 
2555 2224 2258 2225 17972 16061 17973 17977 15836 16062 
2225 2258 2556 2259 16062 17978 17979 16068 16070 17980 
2522 2556 2523 2225 17981 17982 17756 17746 17979 17751 
2225 2258 2555 2556 16062 17973 17977 17979 17978 17983 
2522 2556 2225 2555 17981 17979 17746 17975 17983 17977 
2523 2225 2556 2226 17751 17979 17982 17753 15843 17984 
2556 2225 2259 2226 17979 16068 17980 17984 15843 16069 
2226 2259 2557 2260 16069 17985 17986 16075 16077 17987 
2523 2557 2524 2226 17988 17989 17763 17753 17986 17758 
2226 2259 2556 2557 16069 17980 17984 17986 17985 17990 
2523 2557 2226 2556 17988 17986 17753 17982 17990 17984 
2524 2226 2557 2227 17758 17986 17989 17760 15850 17991 
2557 2226 2260 2227 17986 16075 17987 17991 15850 16076 
2227 2260 2558 2261 16076 17992 17993 16082 16084 17994 
2524 2558 2525 2227 17995 17996 17770 17760 17993 17765 
2227 2260 2557 2558 16076 17987 17991 17993 17992 17997 
2524 2558 2227 2557 17995 17993 17760 17989 17997 17991 
2525 2227 2558 2228 17765 17993 17996 17767 15857 17998 
2558 2227 2261 2228 17993 16082 17994 17998 15857 16083 
2228 2261 2559 2262 16083 17999 18000 16089 16091 18001 
2525 2559 2526 2228 18002 18003 17777 17767 18000 17772 
2228 2261 2558 2559 16083 17994 17998 18000 17999 18004 
2525 2559 2228 2558 18002 18000 17767 17996 18004 17998 
2526 2228 2559 2229 17772 18000 18003 17774 15864 18005 
2559 2228 2262 2229 18000 16089 18001 18005 15864 16090 
2229 2262 2560 2263 16090 18006 18007 16096 16098 18008 
2526 2560 2527 2229 18009 18010 17784 17774 18007 17779 
2229 2262 2559 2560 16090 18001 18005 18007 18006 18011 
2526 2560 2229 2559 18009 18007 17774 18003 18011 18005 
2527 2229 2560 2230 17779 18007 18010 17781 15871 18012 
2560 2229 2263 2230 18007 16096 18008 18012 15871 16097 
2230 2263 2561 2264 16097 18013 18014 16103 16105 18015 
2527 2561 2528 2230 18016 18017 17791 17781 18014 17786 
2230 2263 2560 2561 16097 18008 18012 18014 18013 18018 
2527 2561 2230 2560 18016 18014 17781 18010 18018 18012 
2528 2230 2561 2231 17786 18014 18017 17788 15878 18019 
2561 2230 2264 2231 18014 16103 18015 18019 15878 16104 
2231 2264 2562 2265 16104 18020 18021 16110 16112 18022 
2528 2562 2529 2231 18023 18024 17798 17788 18021 17793 
2231 2264 2561 2562 16104 18015 18019 18021 18020 18025 
2528 2562 2231 2561 18023 18021 17788 18017 18025 18019 
2529 2231 2562 2232 17793 18021 18024 17795 15885 18026 
2562 2231 2265 2232 18021 16110 18022 18026 15885 16111 
2232 2265 2563 2266 16111 18027 18028 16117 16119 18029 
2529 2563 2530 2232 18030 18031 17805 17795 18028 17800 
2232 2265 2562 2563 16111 18022 18026 18028 18027 18032 
2529 2563 2232 2562 18030 18028 17795 18024 18032 18026 
2530 2232 2563 2233 17800 18028 18031 17802 15892 18033 
2563 2232 2266 2233 18028 16117 18029 18033 15892 16118 
2233 2266 2564 2267 16118 18034 18035 16124 16126 18036 
2530 2564 2531 2233 18037 18038 17812 17802 18035 17807 
2233 2266 2563 2564 16118 18029 18033 18035 18034 18039 
2530 2564 2233 2563 18037 18035 17802 18031 18039 18033 
2531 2233 2564 2234 17807 18035 18038 17809 15899 18040 
2564 2233 2267 2234 18035 16124 18036 18040 15899 16125 
2234 2267 2565 2268 16125 18041 18042 16131 16133 18043 
2531 2565 2532 2234 18044 18045 17819 17809 18042 17814 
2234 2267 2564 2565 16125 18036 18040 18042 18041 18046 
2531 2565 2234 2564 18044 18042 17809 18038 18046 18040 
2532 2234 2565 2235 17814 18042 18045 17816 15906 18047 
2565 2234 2268 2235 18042 16131 18043 18047 15906 16132 
2235 2268 2566 2269 16132 18048 18049 16138 16140 18050 
2532 2566 2533 2235 18051 18052 17826 17816 18049 17821 
2235 2268 2565 2566 16132 18043 18047 18049 18048 18053 
2532 2566 2235 2565 18051 18049 17816 18045 18053 18047 
2533 2235 2566 2236 17821 18049 18052 17823 15913 18054 
2566 2235 2269 2236 18049 16138 18050 18054 15913 16139 
2236 2269 2567 2270 16139 18055 18056 16145 16147 18057 
2533 2567 2534 2236 18058 18059 17833 17823 18056 17828 
2236 2269 2566 2567 16139 18050 18054 18056 18055 18060 
2533 2567 2236 2566 18058 18056 17823 18052 18060 18054 
2534 2236 2567 2237 17828 18056 18059 17830 15920 18061 
2567 2236 2270 2237 18056 16145 18057 18061 15920 16146 
2237 2270 2568 2271 16146 18062 18063 16152 16154 18064 
2534 2568 2535 2237 18065 18066 17840 17830 18063 17835 
2237 2270 2567 2568 16146 18057 18061 18063 18062 18067 
2534 2568 2237 2567 18065 18063 17830 18059 18067 18061 
2535 2237 2568 2238 17835 18063 18066 17837 15927 18068 
2568 2237 2271 2238 18063 16152 18064 18068 15927 16153 
2238 2271 2569 2272 16153 18069 18070 16159 16161 18071 
2535 2569 2536 2238 18072 18073 17847 17837 18070 17842 
2238 2271 2568 2569 16153 18064 18068 18070 18069 18074 
2535 2569 2238 2568 18072 18070 17837 18066 18074 18068 
2536 2238 2569 2239 17842 18070 18073 17844 15934 18075 
2569 2238 2272 2239 18070 16159 18071 18075 15934 16160 
2239 2272 2570 2273 16160 18076 18077 16166 16168 18078 
2536 2570 2537 2239 18079 18080 17854 17844 18077 17849 
2239 2272 2569 2570 16160 18071 18075 18077 18076 18081 
2536 2570 2239 2569 18079 18077 17844 18073 18081 18075 
2537 2239 2570 2240 17849 18077 18080 17851 15941 18082 
2570 2239 2273 2240 18077 16166 18078 18082 15941 16167 
2240 2273 2571 2274 16167 18083 18084 16173 16175 18085 
2537 2571 2538 2240 18086 18087 17861 17851 18084 17856 
2240 2273 2570 2571 16167 18078 18082 18084 18083 18088 
2537 2571 2240 2570 18086 18084 17851 18080 18088 18082 
2538 2240 2571 2241 17856 18084 18087 17858 15948 18089 
2571 2240 2274 2241 18084 16173 18085 18089 15948 16174 
2241 2274 2572 2275 16174 18090 18091 16180 16182 18092 
2538 2572 2539 2241 18093 18094 17868 17858 18091 17863 
2241 2274 2571 2572 16174 18085 18089 18091 18090 18095 
2538 2572 2241 2571 18093 18091 17858 18087 18095 18089 
2539 2241 2572 2242 17863 18091 18094 17865 15955 18096 
2572 2241 2275 2242 18091 16180 18092 18096 15955 16181 
2242 2275 2573 2276 16181 18097 18098 16187 16189 18099 
2539 2573 2540 2242 18100 18101 17875 17865 18098 17870 
2242 2275 2572 2573 16181 18092 18096 18098 18097 18102 
2539 2573 2242 2572 18100 18098 17865 18094 18102 18096 
2540 2242 2573 2243 17870 18098 18101 17872 15962 18103 
2573 2242 2276 2243 18098 16187 18099 18103 15962 16188 
2244 2277 2575 2278 16199 18104 18105 16194 16198 18106 
2541 2575 2542 2244 18107 18108 17884 17882 18105 17877 
2244 2277 2574 2575 16199 18109 18110 18105 18104 18111 
2541 2575 2244 2574 18107 18105 17882 18112 18111 18110 
2542 2244 2575 2245 17877 18105 18108 17879 15971 18113 
2575 2244 2278 2245 18105 16194 18106 18113 15971 16195 
2245 2278 2576 2279 16195 18114 18115 16204 16206 18116 
2542 2576 2543 2245 18117 18118 17892 17879 18115 17887 
2245 2278 2575 2576 16195 18106 18113 18115 18114 18119 
2542 2576 2245 2575 18117 18115 17879 18108 18119 18113 
2543 2245 2576 2246 17887 18115 18118 17889 15979 18120 
2576 2245 2279 2246 18115 16204 18116 18120 15979 16205 
2246 2279 2577 2280 16205 18121 18122 16211 16213 18123 
2543 2577 2544 2246 18124 18125 17899 17889 18122 17894 
2246 2279 2576 2577 16205 18116 18120 18122 18121 18126 
2543 2577 2246 2576 18124 18122 17889 18118 18126 18120 
2544 2246 2577 2247 17894 18122 18125 17896 15986 18127 
2577 2246 2280 2247 18122 16211 18123 18127 15986 16212 
2247 2280 2578 2281 16212 18128 18129 16218 16220 18130 
2544 2578 2545 2247 18131 18132 17906 17896 18129 17901 
2247 2280 2577 2578 16212 18123 18127 18129 18128 18133 
2544 2578 2247 2577 18131 18129 17896 18125 18133 18127 
2545 2247 2578 2248 17901 18129 18132 17903 15993 18134 
2578 2247 2281 2248 18129 16218 18130 18134 15993 16219 
2248 2281 2579 2282 16219 18135 18136 16225 16227 18137 
2545 2579 2546 2248 18138 18139 17913 17903 18136 17908 
2248 2281 2578 2579 16219 18130 18134 18136 18135 18140 
2545 2579 2248 2578 18138 18136 17903 18132 18140 18134 
2546 2248 2579 2249 17908 18136 18139 17910 16000 18141 
2579 2248 2282 2249 18136 16225 18137 18141 16000 16226 
2249 2282 2580 2283 16226 18142 18143 16232 16234 18144 
2546 2580 2547 2249 18145 18146 17920 17910 18143 17915 
2249 2282 2579 2580 16226 18137 18141 18143 18142 18147 
2546 2580 2249 2579 18145 18143 17910 18139 18147 18141 
2547 2249 2580 2250 17915 18143 18146 17917 16007 18148 
2580 2249 2283 2250 18143 16232 18144 18148 16007 16233 
2250 2283 2581 2284 16233 18149 18150 16239 16241 18151 
2547 2581 2548 2250 18152 18153 17927 17917 18150 17922 
2250 2283 2580 2581 16233 18144 18148 18150 18149 18154 
2547 2581 2250 2580 18152 18150 17917 18146 18154 18148 
2548 2250 2581 2251 17922 18150 18153 17924 16014 18155 
2581 2250 2284 2251 18150 16239 18151 18155 16014 16240 
2251 2284 2582 2285 16240 18156 18157 16246 16248 18158 
2548 2582 2549 2251 18159 18160 17934 17924 18157 17929 
2251 2284 2581 2582 16240 18151 18155 18157 18156 18161 
2548 2582 2251 2581 18159 18157 17924 18153 18161 18155 
2549 2251 2582 2252 17929 18157 18160 17931 16021 18162 
2582 2251 2285 2252 18157 16246 18158 18162 16021 16247 
2252 2285 2583 2286 16247 18163 18164 16253 16255 18165 
2549 2583 2550 2252 18166 18167 17941 17931 18164 17936 
2252 2285 2582 2583 16247 18158 18162 18164 18163 18168 
2549 2583 2252 2582 18166 18164 17931 18160 18168 18162 
2550 2252 2583 2253 17936 18164 18167 17938 16028 18169 
2583 2252 2286 2253 18164 16253 18165 18169 16028 16254 
2253 2286 2584 2287 16254 18170 18171 16260 16262 18172 
2550 2584 2551 2253 18173 18174 17948 17938 18171 17943 
2253 2286 2583 2584 16254 18165 18169 18171 18170 18175 
2550 2584 2253 2583 18173 18171 17938 18167 18175 18169 
2551 2253 2584 2254 17943 18171 18174 17945 16035 18176 
2584 2253 2287 2254 18171 16260 18172 18176 16035 16261 
2254 2287 2585 2288 16261 18177 18178 16267 16269 18179 
2551 2585 2552 2254 18180 18181 17955 17945 18178 17950 
2254 2287 2584 2585 16261 18172 18176 18178 18177 18182 
2551 2585 2254 2584 18180 18178 17945 18174 18182 18176 
2552 2254 2585 2255 17950 18178 18181 17952 16042 18183 
2585 2254 2288 2255 18178 16267 18179 18183 16042 16268 
2255 2288 2586 2289 16268 18184 18185 16274 16276 18186 
2552 2586 2553 2255 18187 18188 17962 17952 18185 17957 
2255 2288 2585 2586 16268 18179 18183 18185 18184 18189 
2552 2586 2255 2585 18187 18185 17952 18181 18189 18183 
2553 2255 2586 2256 17957 18185 18188 17959 16049 18190 
2586 2255 2289 2256 18185 16274 18186 18190 16049 16275 
2256 2289 2587 2290 16275 18191 18192 16281 16283 18193 
2553 2587 2554 2256 18194 18195 17969 17959 18192 17964 
2256 2289 2586 2587 16275 18186 18190 18192 18191 18196 
2553 2587 2256 2586 18194 18192 17959 18188 18196 18190 
2554 2256 2587 2257 17964 18192 18195 17966 16056 18197 
2587 2256 2290 2257 18192 16281 18193 18197 16056 16282 
2257 2290 2588 2291 16282 18198 18199 16288 16290 18200 
2554 2588 2555 2257 18201 18202 17976 17966 18199 17971 
2257 2290 2587 2588 16282 18193 18197 18199 18198 18203 
2554 2588 2257 2587 18201 18199 17966 18195 18203 18197 
2555 2257 2588 2258 17971 18199 18202 17973 16063 18204 
2588 2257 2291 2258 18199 16288 18200 18204 16063 16289 
2258 2291 2589 2292 16289 18205 18206 16295 16297 18207 
2555 2589 2556 2258 18208 18209 17983 17973 18206 17978 
2258 2291 2588 2589 16289 18200 18204 18206 18205 18210 
2555 2589 2258 2588 18208 18206 17973 18202 18210 18204 
2556 2258 2589 2259 17978 18206 18209 17980 16070 18211 
2589 2258 2292 2259 18206 16295 18207 18211 16070 16296 
2259 2292 2590 2293 16296 18212 18213 16302 16304 18214 
2556 2590 2557 2259 18215 18216 17990 17980 18213 17985 
2259 2292 2589 2590 16296 18207 18211 18213 18212 18217 
2556 2590 2259 2589 18215 18213 17980 18209 18217 18211 
2557 2259 2590 2260 17985 18213 18216 17987 16077 18218 
2590 2259 2293 2260 18213 16302 18214 18218 16077 16303 
2260 2293 2591 2294 16303 18219 18220 16309 16311 18221 
2557 2591 2558 2260 18222 18223 17997 17987 18220 17992 
2260 2293 2590 2591 16303 18214 18218 18220 18219 18224 
2557 2591 2260 2590 18222 18220 17987 18216 18224 18218 
2558 2260 2591 2261 17992 18220 18223 17994 16084 18225 
2591 2260 2294 2261 18220 16309 18221 18225 16084 16310 
2261 2294 2592 2295 16310 18226 18227 16316 16318 18228 
2558 2592 2559 2261 18229 18230 18004 17994 18227 17999 
2261 2294 2591 2592 16310 18221 18225 18227 18226 18231 
2558 2592 2261 2591 18229 18227 17994 18223 18231 18225 
2559 2261 2592 2262 17999 18227 18230 18001 16091 18232 
2592 2261 2295 2262 18227 16316 18228 18232 16091 16317 
2262 2295 2593 2296 16317 18233 18234 16323 16325 18235 
2559 2593 2560 2262 18236 18237 18011 18001 18234 18006 
2262 2295 2592 2593 16317 18228 18232 18234 18233 18238 
2559 2593 2262 2592 18236 18234 18001 18230 18238 18232 
2560 2262 2593 2263 18006 18234 18237 18008 16098 18239 
2593 2262 2296 2263 18234 16323 18235 18239 16098 16324 
2263 2296 2594 2297 16324 18240 18241 16330 16332 18242 
2560 2594 2561 2263 18243 18244 18018 18008 18241 18013 
2263 2296 2593 2594 16324 18235 18239 18241 18240 18245 
2560 2594 2263 2593 18243 18241 18008 18237 18245 18239 
2561 2263 2594 2264 18013 18241 18244 18015 16105 18246 
2594 2263 2297 2264 18241 16330 18242 18246 16105 16331 
2264 2297 2595 2298 16331 18247 18248 16337 16339 18249 
2561 2595 2562 2264 18250 18251 18025 18015 18248 18020 
2264 2297 2594 2595 16331 18242 18246 18248 18247 18252 
2561 2595 2264 2594 18250 18248 18015 18244 18252 18246 
2562 2264 2595 2265 18020 18248 18251 18022 16112 18253 
2595 2264 2298 2265 18248 16337 18249 18253 16112 16338 
2265 2298 2596 2299 16338 18254 18255 16344 16346 18256 
2562 2596 2563 2265 18257 18258 18032 18022 18255 18027 
2265 2298 2595 2596 16338 18249 18253 18255 18254 18259 
2562 2596 2265 2595 18257 18255 18022 18251 18259 18253 
2563 2265 2596 2266 18027 18255 18258 18029 16119 18260 
2596 2265 2299 2266 18255 16344 18256 18260 16119 16345 
2266 2299 2597 2300 16345 18261 18262 16351 16353 18263 
2563 2597 2564 2266 18264 18265 18039 18029 18262 18034 
2266 2299 2596 2597 16345 18256 18260 18262 18261 18266 
2563 2597 2266 2596 18264 18262 18029 18258 18266 18260 
2564 2266 2597 2267 18034 18262 18265 18036 16126 18267 
2597 2266 2300 2267 18262 16351 18263 18267 16126 16352 
2267 2300 2598 2301 16352 18268 18269 16358 16360 18270 
2564 2598 2565 2267 18271 18272 18046 18036 18269 18041 
2267 2300 2597 2598 16352 18263 18267 18269 18268 18273 
2564 2598 2267 2597 18271 18269 18036 18265 18273 18267 
2565 2267 2598 2268 18041 18269 18272 18043 16133 18274 
2598 2267 2301 2268 18269 16358 18270 18274 16133 16359 
2268 2301 2599 2302 16359 18275 18276 16365 16367 18277 
2565 2599 2566 2268 18278 18279 18053 18043 18276 18048 
2268 2301 2598 2599 16359 18270 18274 18276 18275 18280 
2565 2599 2268 2598 18278 18276 18043 18272 18280 18274 
2566 2268 2599 2269 18048 18276 18279 18050 16140 18281 
2599 2268 2302 2269 18276 16365 18277 18281 16140 16366 
2269 2302 2600 2303 16366 18282 18283 16372 16374 18284 
2566 2600 2567 2269 18285 18286 18060 18050 18283 18055 
2269 2302 2599 2600 16366 18277 18281 18283 18282 18287 
2566 2600 2269 2599 18285 18283 18050 18279 18287 18281 
2567 2269 2600 2270 18055 18283 18286 18057 16147 18288 
2600 2269 2303 2270 18283 16372 18284 18288 16147 16373 
2270 2303 2601 2304 16373 18289 18290 16379 16381 18291 
2567 2601 2568 2270 18292 18293 18067 18057 18290 18062 
2270 2303 2600 2601 16373 18284 18288 18290 18289 18294 
2567 2601 2270 2600 18292 18290 18057 18286 18294 18288 
2568 2270 2601 2271 18062 18290 18293 18064 16154 18295 
2601 2270 2304 2271 18290 16379 18291 18295 16154 16380 
2271 2304 2602 2305 16380 18296 18297 16386 16388 18298 
2568 2602 2569 2271 18299 18300 18074 18064 18297 18069 
2271 2304 2601 2602 16380 18291 18295 18297 18296 18301 
2568 2602 2271 2601 18299 18297 18064 18293 18301 18295 
2569 2271 2602 2272 18069 18297 18300 18071 16161 18302 
2602 2271 2305 2272 18297 16386 18298 18302 16161 16387 
2272 2305 2603 2306 16387 18303 18304 16393 16395 18305 
2569 2603 2570 2272 18306 18307 18081 18071 18304 18076 
2272 2305 2602 2603 16387 18298 18302 18304 18303 18308 
2569 2603 2272 2602 18306 18304 18071 18300 18308 18302 
2570 2272 2603 2273 18076 18304 18307 18078 16168 18309 
2603 2272 2306 2273 18304 16393 18305 18309 16168 16394 
2273 2306 2604 2307 16394 18310 18311 16400 16402 18312 
2570 2604 2571 2273 18313 18314 18088 18078 18311 18083 
2273 2306 2603 2604 16394 18305 18309 18311 18310 18315 
2570 2604 2273 2603 18313 18311 18078 18307 18315 18309 
2571 2273 2604 2274 18083 18311 18314 18085 16175 18316 
2604 2273 2307 2274 18311 16400 18312 18316 16175 16401 
2274 2307 2605 2308 16401 18317 18318 16407 16409 18319 
2571 2605 2572 2274 18320 18321 18095 18085 18318 18090 
2274 2307 2604 2605 16401 18312 18316 18318 18317 18322 
2571 2605 2274 2604 18320 18318 18085 18314 18322 18316 
2572 2274 2605 2275 18090 18318 18321 18092 16182 18323 
2605 2274 2308 2275 18318 16407 18319 18323 16182 16408 
2275 2308 2606 2309 16408 18324 18325 16414 16416 18326 
2572 2606 2573 2275 18327 18328 18102 18092 18325 18097 
2275 2308 2605 2606 16408 18319 18323 18325 18324 18329 
2572 2606 2275 2605 18327 18325 18092 18321 18329 18323 
2573 2275 2606 2276 18097 18325 18328 18099 16189 18330 
2606 2275 2309 2276 18325 16414 18326 18330 16189 16415 
2277 2310 2608 2311 16426 18331 18332 16421 16425 18333 
2574 2608 2575 2277 18334 18335 18111 18109 18332 18104 
2277 2310 2607 2608 16426 18336 18337 18332 18331 18338 
2574 2608 2277 2607 18334 18332 18109 18339 18338 18337 
2575 2277 2608 2278 18104 18332 18335 18106 16198 18340 
2608 2277 2311 2278 18332 16421 18333 18340 16198 16422 
2278 2311 2609 2312 16422 18341 18342 16431 16433 18343 
2575 2609 2576 2278 18344 18345 18119 18106 18342 18114 
2278 2311 2608 2609 16422 18333 18340 18342 18341 18346 
2575 2609 2278 2608 18344 18342 18106 18335 18346 18340 
2576 2278 2609 2279 18114 18342 18345 18116 16206 18347 
2609 2278 2312 2279 18342 16431 18343 18347 16206 16432 
2279 2312 2610 2313 16432 18348 18349 16438 16440 18350 
2576 2610 2577 2279 18351 18352 18126 18116 18349 18121 
2279 2312 2609 2610 16432 18343 18347 18349 18348 18353 
2576 2610 2279 2609 18351 18349 18116 18345 18353 18347 
2577 2279 2610 2280 18121 18349 18352 18123 16213 18354 
2610 2279 2313 2280 18349 16438 18350 18354 16213 16439 
2280 2313 2611 2314 16439 18355 18356 16445 16447 18357 
2577 2611 2578 2280 18358 18359 18133 18123 18356 18128 
2280 2313 2610 2611 16439 18350 18354 18356 18355 18360 
2577 2611 2280 2610 18358 18356 18123 18352 18360 18354 
2578 2280 2611 2281 18128 18356 18359 18130 16220 18361 
2611 2280 2314 2281 18356 16445 18357 18361 16220 16446 
2281 2314 2612 2315 16446 18362 18363 16452 16454 18364 
2578 2612 2579 2281 18365 18366 18140 18130 18363 18135 
2281 2314 2611 2612 16446 18357 18361 18363 18362 18367 
2578 2612 2281 2611 18365 18363 18130 18359 18367 18361 
2579 2281 2612 2282 18135 18363 18366 18137 16227 18368 
2612 2281 2315 2282 18363 16452 18364 18368 16227 16453 
2282 2315 2613 2316 16453 18369 18370 16459 16461 18371 
2579 2613 2580 2282 18372 18373 18147 18137 18370 18142 
2282 2315 2612 2613 16453 18364 18368 18370 18369 18374 
2579 2613 2282 2612 18372 18370 18137 18366 18374 18368 
2580 2282 2613 2283 18142 18370 18373 18144 16234 18375 
2613 2282 2316 2283 18370 16459 18371 18375 16234 16460 
2283 2316 2614 2317 16460 18376 18377 16466 16468 18378 
2580 2614 2581 2283 18379 18380 18154 18144 18377 18149 
2283 2316 2613 2614 16460 18371 18375 18377 18376 18381 
2580 2614 2283 2613 18379 18377 18144 18373 18381 18375 
2581 2283 2614 2284 18149 18377 18380 18151 16241 18382 
2614 2283 2317 2284 18377 16466 18378 18382 16241 16467 
2284 2317 2615 2318 16467 18383 18384 16473 16475 18385 
2581 2615 2582 2284 18386 18387 18161 18151 18384 18156 
2284 2317 2614 2615 16467 18378 18382 18384 18383 18388 
2581 2615 2284 2614 18386 18384 18151 18380 18388 18382 
2582 2284 2615 2285 18156 18384 18387 18158 16248 18389 
2615 2284 2318 2285 18384 16473 18385 18389 16248 16474 
2285 2318 2616 2319 16474 18390 18391 16480 16482 18392 
2582 2616 2583 2285 18393 18394 18168 18158 18391 18163 
2285 2318 2615 2616 16474 18385 18389 18391 18390 18395 
2582 2616 2285 2615 18393 18391 18158 18387 18395 18389 
2583 2285 2616 2286 18163 18391 18394 18165 16255 18396 
2616 2285 2319 2286 18391 16480 18392 18396 16255 16481 
2286 2319 2617 2320 16481 18397 18398 16487 16489 18399 
2583 2617 2584 2286 18400 18401 18175 18165 18398 18170 
2286 2319 2616 2617 16481 18392 18396 18398 18397 18402 
2583 2617 2286 2616 18400 18398 18165 18394 18402 18396 
2584 2286 2617 2287 18170 18398 18401 18172 16262 18403 
2617 2286 2320 2287 18398 16487 18399 18403 16262 16488 
2287 2320 2618 2321 16488 18404 18405 16494 16496 18406 
2584 2618 2585 2287 18407 18408 18182 18172 18405 18177 
2287 2320 2617 2618 16488 18399 18403 18405 18404 18409 
2584 2618 2287 2617 18407 18405 18172 18401 18409 18403 
2585 2287 2618 2288 18177 18405 18408 18179 16269 18410 
2618 2287 2321 2288 18405 16494 18406 18410 16269 16495 
2288 2321 2619 2322 16495 18411 18412 16501 16503 18413 
2585 2619 2586 2288 18414 18415 18189 18179 18412 18184 
2288 2321 2618 2619 16495 18406 18410 18412 18411 18416 
2585 2619 2288 2618 18414 18412 18179 18408 18416 18410 
2586 2288 2619 2289 18184 18412 18415 18186 16276 18417 
2619 2288 2322 2289 18412 16501 18413 18417 16276 16502 
2289 2322 2620 2323 16502 18418 18419 16508 16510 18420 
2586 2620 2587 2289 18421 18422 18196 18186 18419 18191 
2289 2322 2619 2620 16502 18413 18417 18419 18418 18423 
2586 2620 2289 2619 18421 18419 18186 18415 18423 18417 
2587 2289 2620 2290 18191 18419 18422 18193 16283 18424 
2620 2289 2323 2290 18419 16508 18420 18424 16283 16509 
2290 2323 2621 2324 16509 18425 18426 16515 16517 18427 
2587 2621 2588 2290 18428 18429 18203 18193 18426 18198 
2290 2323 2620 2621 16509 18420 18424 18426 18425 18430 
2587 2621 2290 2620 18428 18426 18193 18422 18430 18424 
2588 2290 2621 2291 18198 18426 18429 18200 16290 18431 
2621 2290 2324 2291 18426 16515 18427 18431 16290 16516 
2291 2324 2622 2325 16516 18432 18433 16522 16524 18434 
2588 2622 2589 2291 18435 18436 18210 18200 18433 18205 
2291 2324 2621 2622 16516 18427 18431 18433 18432 18437 
2588 2622 2291 2621 18435 18433 18200 18429 18437 18431 
2589 2291 2622 2292 18205 18433 18436 18207 16297 18438 
2622 2291 2325 2292 18433 16522 18434 18438 16297 16523 
2292 2325 2623 2326 16523 18439 18440 16529 16531 18441 
2589 2623 2590 2292 18442 18443 18217 18207 18440 18212 
2292 2325 2622 2623 16523 18434 18438 18440 18439 18444 
2589 2623 2292 2622 18442 18440 18207 18436 18444 18438 
2590 2292 2623 2293 18212 18440 18443 18214 16304 18445 
2623 2292 2326 2293 18440 16529 18441 18445 16304 16530 
2293 2326 2624 2327 16530 18446 18447 16536 16538 18448 
2590 2624 2591 2293 18449 18450 18224 18214 18447 18219 
2293 2326 2623 2624 16530 18441 18445 18447 18446 18451 
2590 2624 2293 2623 18449 18447 18214 18443 18451 18445 
2591 2293 2624 2294 18219 18447 18450 18221 16311 18452 
2624 2293 2327 2294 18447 16536 18448 18452 16311 16537 
2294 2327 2625 2328 16537 18453 18454 16543 16545 18455 
2591 2625 2592 2294 18456 18457 18231 18221 18454 18226 
2294 2327 2624 2625 16537 18448 18452 18454 18453 18458 
2591 2625 2294 2624 18456 18454 18221 18450 18458 18452 
2592 2294 2625 2295 18226 18454 18457 18228 16318 18459 
2625 2294 2328 2295 18454 16543 18455 18459 16318 16544 
2295 2328 2626 2329 16544 18460 18461 16550 16552 18462 
2592 2626 2593 2295 18463 18464 18238 18228 18461 18233 
2295 2328 2625 2626 16544 18455 18459 18461 18460 18465 
2592 2626 2295 2625 18463 18461 18228 18457 18465 18459 
2593 2295 2626 2296 18233 18461 18464 18235 16325 18466 
2626 2295 2329 2296 18461 16550 18462 18466 16325 16551 
2296 2329 2627 2330 16551 18467 18468 16557 16559 18469 
2593 2627 2594 2296 18470 18471 18245 18235 18468 18240 
2296 2329 2626 2627 16551 18462 18466 18468 18467 18472 
2593 2627 2296 2626 18470 18468 18235 18464 18472 18466 
2594 2296 2627 2297 18240 18468 18471 18242 16332 18473 
2627 2296 2330 2297 18468 16557 18469 18473 16332 16558 
2297 2330 2628 2331 16558 18474 18475 16564 16566 18476 
2594 2628 2595 2297 18477 18478 18252 18242 18475 18247 
2297 2330 2627 2628 16558 18469 18473 18475 18474 18479 
2594 2628 2297 2627 18477 18475 18242 18471 18479 18473 
2595 2297 2628 2298 18247 18475 18478 18249 16339 18480 
2628 2297 2331 2298 18475 16564 18476 18480 16339 16565 
2298 2331 2629 2332 16565 18481 18482 16571 16573 18483 
2595 2629 2596 2298 18484 18485 18259 18249 18482 18254 
2298 2331 2628 2629 16565 18476 18480 18482 18481 18486 
2595 2629 2298 2628 18484 18482 18249 18478 18486 18480 
2596 2298 2629 2299 18254 18482 18485 18256 16346 18487 
2629 2298 2332 2299 18482 16571 18483 18487 16346 16572 
2299 2332 2630 2333 16572 18488 18489 16578 16580 18490 
2596 2630 2597 2299 18491 18492 18266 18256 18489 18261 
2299 2332 2629 2630 16572 18483 18487 18489 18488 18493 
2596 2630 2299 2629 18491 18489 18256 18485 18493 18487 
2597 2299 2630 2300 18261 18489 18492 18263 16353 18494 
2630 2299 2333 2300 18489 16578 18490 18494 16353 16579 
2300 2333 2631 2334 16579 18495 18496 16585 16587 18497 
2597 2631 2598 2300 18498 18499 18273 18263 18496 18268 
2300 2333 2630 2631 16579 18490 18494 18496 18495 18500 
2597 2631 2300 2630 18498 18496 18263 18492 18500 18494 
2598 2300 2631 2301 18268 18496 18499 18270 16360 18501 
2631 2300 2334 2301 18496 16585 18497 18501 16360 16586 
2301 2334 2632 2335 16586 18502 18503 16592 16594 18504 
2598 2632 2599 2301 18505 18506 18280 18270 18503 18275 
2301 2334 2631 2632 16586 18497 18501 18503 18502 18507 
2598 2632 2301 2631 18505 18503 18270 18499 18507 18501 
2599 2301 2632 2302 18275 18503 18506 18277 16367 18508 
2632 2301 2335 2302 18503 16592 18504 18508 16367 16593 
2302 2335 2633 2336 16593 18509 18510 16599 16601 18511 
2599 2633 2600 2302 18512 18513 18287 18277 18510 18282 
2302 2335 2632 2633 16593 18504 18508 18510 18509 18514 
2599 2633 2302 2632 18512 18510 18277 18506 18514 18508 
2600 2302 2633 2303 18282 18510 18513 18284 16374 18515 
2633 2302 2336 2303 18510 16599 18511 18515 16374 16600 
2303 2336 2634 2337 16600 18516 18517 16606 16608 18518 
2600 2634 2601 2303 18519 18520 18294 18284 18517 18289 
2303 2336 2633 2634 16600 18511 18515 18517 18516 18521 
2600 2634 2303 2633 18519 18517 18284 18513 18521 18515 
2601 2303 2634 2304 18289 18517 18520 18291 16381 18522 
2634 2303 2337 2304 18517 16606 18518 18522 16381 16607 
2304 2337 2635 2338 16607 18523 18524 16613 16615 18525 
2601 2635 2602 2304 18526 18527 18301 18291 18524 18296 
2304 2337 2634 2635 16607 18518 18522 18524 18523 18528 
2601 2635 2304 2634 18526 18524 18291 18520 18528 18522 
2602 2304 2635 2305 18296 18524 18527 18298 16388 18529 
2635 2304 2338 2305 18524 16613 18525 18529 16388 16614 
2305 2338 2636 2339 16614 18530 18531 16620 16622 18532 
2602 2636 2603 2305 18533 18534 18308 18298 18531 18303 
2305 2338 2635 2636 16614 18525 18529 18531 18530 18535 
2602 2636 2305 2635 18533 18531 18298 18527 18535 18529 
2603 2305 2636 2306 18303 18531 18534 18305 16395 18536 
2636 2305 2339 2306 18531 16620 18532 18536 16395 16621 
2306 2339 2637 2340 16621 18537 18538 16627 16629 18539 
2603 2637 2604 2306 18540 18541 18315 18305 18538 18310 
2306 2339 2636 2637 16621 18532 18536 18538 18537 18542 
2603 2637 2306 2636 18540 18538 18305 18534 18542 18536 
2604 2306 2637 2307 18310 18538 18541 18312 16402 18543 
2637 2306 2340 2307 18538 16627 18539 18543 16402 16628 
2307 2340 2638 2341 16628 18544 18545 16634 16636 18546 
2604 2638 2605 2307 18547 18548 18322 18312 18545 18317 
2307 2340 2637 2638 16628 18539 18543 18545 18544 18549 
2604 2638 2307 2637 18547 18545 18312 18541 18549 18543 
2605 2307 2638 2308 18317 18545 18548 18319 16409 18550 
2638 2307 2341 2308 18545 16634 18546 18550 16409 16635 
2308 2341 2639 2342 16635 18551 18552 16641 16643 18553 
2605 2639 2606 2308 18554 18555 18329 18319 18552 18324 
2308 2341 2638 2639 16635 18546 18550 18552 18551 18556 
2605 2639 2308 2638 18554 18552 18319 18548 18556 18550 
2606 2308 2639 2309 18324 18552 18555 18326 16416 18557 
2639 2308 2342 2309 18552 16641 18553 18557 16416 16642 
2310 2343 2641 2344 16653 18558 18559 16648 16652 18560 
2607 2641 2608 2310 18561 18562 18338 18336 18559 18331 
2310 2343 2640 2641 16653 18563 18564 18559 18558 18565 
2607 2641 2310 2640 18561 18559 18336 18566 18565 18564 
2608 2310 2641 2311 18331 18559 18562 18333 16425 18567 
2641 2310 2344 2311 18559 16648 18560 18567 16425 16649 
2311 2344 2642 2345 16649 18568 18569 16658 16660 18570 
2608 2642 2609 2311 18571 18572 18346 18333 18569 18341 
2311 2344 2641 2642 16649 18560 18567 18569 18568 18573 
2608 2642 2311 2641 18571 18569 18333 18562 18573 18567 
2609 2311 2642 2312 18341 18569 18572 18343 16433 18574 
2642 2311 2345 2312 18569 16658 18570 18574 16433 16659 
2312 2345 2643 2346 16659 18575 18576 16665 16667 18577 
2609 2643 2610 2312 18578 18579 18353 18343 18576 18348 
2312 2345 2642 2643 16659 18570 18574 18576 18575 18580 
2609 2643 2312 2642 18578 18576 18343 18572 18580 18574 
2610 2312 2643 2313 18348 18576 18579 18350 16440 18581 
2643 2312 2346 2313 18576 16665 18577 18581 16440 16666 
2313 2346 2644 2347 16666 18582 18583 16672 16674 18584 
2610 2644 2611 2313 18585 18586 18360 18350 18583 18355 
2313 2346 2643 2644 16666 18577 18581 18583 18582 18587 
2610 2644 2313 2643 18585 18583 18350 18579 18587 18581 
2611 2313 2644 2314 18355 18583 18586 18357 16447 18588 
2644 2313 2347 2314 18583 16672 18584 18588 16447 16673 
2314 2347 2645 2348 16673 18589 18590 16679 16681 18591 
2611 2645 2612 2314 18592 18593 18367 18357 18590 18362 
2314 2347 2644 2645 16673 18584 18588 18590 18589 18594 
2611 2645 2314 2644 18592 18590 18357 18586 18594 18588 
2612 2314 2645 2315 18362 18590 18593 18364 16454 18595 
2645 2314 2348 2315 18590 16679 18591 18595 16454 16680 
2315 2348 2646 2349 16680 18596 18597 16686 16688 18598 
2612 2646 2613 2315 18599 18600 18374 18364 18597 18369 
2315 2348 2645 2646 16680 18591 18595 18597 18596 18601 
2612 2646 2315 2645 18599 18597 18364 18593 18601 18595 
2613 2315 2646 2316 18369 18597 18600 18371 16461 18602 
2646 2315 2349 2316 18597 16686 18598 18602 16461 16687 
2316 2349 2647 2350 16687 18603 18604 16693 16695 18605 
2613 2647 2614 2316 18606 18607 18381 18371 18604 18376 
2316 2349 2646 2647 16687 18598 18602 18604 18603 18608 
2613 2647 2316 2646 18606 18604 18371 18600 18608 18602 
2614 2316 2647 2317 18376 18604 18607 18378 16468 18609 
2647 2316 2350 2317 18604 16693 18605 18609 16468 16694 
2317 2350 2648 2351 16694 18610 18611 16700 16702 18612 
2614 2648 2615 2317 18613 18614 18388 18378 18611 18383 
2317 2350 2647 2648 16694 18605 18609 18611 18610 18615 
2614 2648 2317 2647 18613 18611 18378 18607 18615 18609 
2615 2317 2648 2318 18383 18611 18614 18385 16475 18616 
2648 2317 2351 2318 18611 16700 18612 18616 16475 16701 
2318 2351 2649 2352 16701 18617 18618 16707 16709 18619 
2615 2649 2616 2318 18620 18621 18395 18385 18618 18390 
2318 2351 2648 2649 16701 18612 18616 18618 18617 18622 
2615 2649 2318 2648 18620 18618 18385 18614 18622 18616 
2616 2318 2649 2319 18390 18618 18621 18392 16482 18623 
2649 2318 2352 2319 18618 16707 18619 18623 16482 16708 
2319 2352 2650 2353 16708 18624 18625 16714 16716 18626 
2616 2650 2617 2319 18627 18628 18402 18392 18625 18397 
2319 2352 2649 2650 16708 18619 18623 18625 18624 18629 
2616 2650 2319 2649 18627 18625 18392 18621 18629 18623 
2617 2319 2650 2320 18397 18625 18628 18399 16489 18630 
2650 2319 2353 2320 18625 16714 18626 18630 16489 16715 
2320 2353 2651 2354 16715 18631 18632 16721 16723 18633 
2617 2651 2618 2320 18634 18635 18409 18399 18632 18404 
2320 2353 2650 2651 16715 18626 18630 18632 18631 18636 
2617 2651 2320 2650 18634 18632 18399 18628 18636 18630 
2618 2320 2651 2321 18404 18632 18635 18406 16496 18637 
2651 2320 2354 2321 18632 16721 18633 18637 16496 16722 
2321 2354 2652 2355 16722 18638 18639 16728 16730 18640 
2618 2652 2619 2321 18641 18642 18416 18406 18639 18411 
2321 2354 2651 2652 16722 18633 18637 18639 18638 18643 
2618 2652 2321 2651 18641 18639 18406 18635 18643 18637 
2619 2321 2652 2322 18411 18639 18642 18413 16503 18644 
2652 2321 2355 2322 18639 16728 18640 18644 16503 16729 
2322 2355 2653 2356 16729 18645 18646 16735 16737 18647 
2619 2653 2620 2322 18648 18649 18423 18413 18646 18418 
2322 2355 2652 2653 16729 18640 18644 18646 18645 18650 
2619 2653 2322 2652 18648 18646 18413 18642 18650 18644 
2620 2322 2653 2323 18418 18646 18649 18420 16510 18651 
2653 2322 2356 2323 18646 16735 18647 18651 16510 16736 
2323 2356 2654 2357 16736 18652 18653 16742 16744 18654 
2620 2654 2621 2323 18655 18656 18430 18420 18653 18425 
2323 2356 2653 2654 16736 18647 18651 18653 18652 18657 
2620 2654 2323 2653 18655 18653 18420 18649 18657 18651 
2621 2323 2654 2324 18425 18653 18656 18427 16517 18658 
2654 2323 2357 2324 18653 16742 18654 18658 16517 16743 
2324 2357 2655 2358 16743 18659 18660 16749 16751 18661 
2621 2655 2622 2324 18662 18663 18437 18427 18660 18432 
2324 2357 2654 2655 16743 18654 18658 18660 18659 18664 
2621 2655 2324 2654 18662 18660 18427 18656 18664 18658 
2622 2324 2655 2325 18432 18660 18663 18434 16524 18665 
2655 2324 2358 2325 18660 16749 18661 18665 16524 16750 
2325 2358 2656 2359 16750 18666 18667 16756 16758 18668 
2622 2656 2623 2325 18669 18670 18444 18434 18667 18439 
2325 2358 2655 2656 16750 18661 18665 18667 18666 18671 
2622 2656 2325 2655 18669 18667 18434 18663 18671 18665 
2623 2325 2656 2326 18439 18667 18670 18441 16531 18672 
2656 2325 2359 2326 18667 16756 18668 18672 16531 16757 
2326 2359 2657 2360 16757 18673 18674 16763 16765 18675 
2623 2657 2624 2326 18676 18677 18451 18441 18674 18446 
2326 2359 2656 2657 16757 18668 18672 18674 18673 18678 
2623 2657 2326 2656 18676 18674 18441 18670 18678 18672 
2624 2326 2657 2327 18446 18674 18677 18448 16538 18679 
2657 2326 2360 2327 18674 16763 18675 18679 16538 16764 
2327 2360 2658 2361 16764 18680 18681 16770 16772 18682 
2624 2658 2625 2327 18683 18684 18458 18448 18681 18453 
2327 2360 2657 2658 16764 18675 18679 18681 18680 18685 
2624 2658 2327 2657 18683 18681 18448 18677 18685 18679 
2625 2327 2658 2328 18453 18681 18684 18455 16545 18686 
2658 2327 2361 2328 18681 16770 18682 18686 16545 16771 
2328 2361 2659 2362 16771 18687 18688 16777 16779 18689 
2625 2659 2626 2328 18690 18691 18465 18455 18688 18460 
2328 2361 2658 2659 16771 18682 18686 18688 18687 18692 
2625 2659 2328 2658 18690 18688 18455 18684 18692 18686 
2626 2328 2659 2329 18460 18688 18691 18462 16552 18693 
2659 2328 2362 2329 18688 16777 18689 18693 16552 16778 
2329 2362 2660 2363 16778 18694 18695 16784 16786 18696 
2626 2660 2627 2329 18697 18698 18472 18462 18695 18467 
2329 2362 2659 2660 16778 18689 18693 18695 18694 18699 
2626 2660 2329 2659 18697 18695 18462 18691 18699 18693 
2627 2329 2660 2330 18467 18695 18698 18469 16559 18700 
2660 2329 2363 2330 18695 16784 18696 18700 16559 16785 
2330 2363 2661 2364 16785 18701 18702 16791 16793 18703 
2627 2661 2628 2330 18704 18705 18479 18469 18702 18474 
2330 2363 2660 2661 16785 18696 18700 18702 18701 18706 
2627 2661 2330 2660 18704 18702 18469 18698 18706 18700 
2628 2330 2661 2331 18474 18702 18705 18476 16566 18707 
2661 2330 2364 2331 18702 16791 18703 18707 16566 16792 
2331 2364 2662 2365 16792 18708 18709 16798 16800 18710 
2628 2662 2629 2331 18711 18712 18486 18476 18709 18481 
2331 2364 2661 2662 16792 18703 18707 18709 18708 18713 
2628 2662 2331 2661 18711 18709 18476 18705 18713 18707 
2629 2331 2662 2332 18481 18709 18712 18483 16573 18714 
2662 2331 2365 2332 18709 16798 18710 18714 16573 16799 
2332 2365 2663 2366 16799 18715 18716 16805 16807 18717 
2629 2663 2630 2332 18718 18719 18493 18483 18716 18488 
2332 2365 2662 2663 16799 18710 18714 18716 18715 18720 
2629 2663 2332 2662 18718 18716 18483 18712 18720 18714 
2630 2332 2663 2333 18488 18716 18719 18490 16580 18721 
2663 2332 2366 2333 18716 16805 18717 18721 16580 16806 
2333 2366 2664 2367 16806 18722 18723 16812 16814 18724 
2630 2664 2631 2333 18725 18726 18500 18490 18723 18495 
2333 2366 2663 2664 16806 18717 18721 18723 18722 18727 
2630 2664 2333 2663 18725 18723 18490 18719 18727 18721 
2631 2333 2664 2334 18495 18723 18726 18497 16587 18728 
2664 2333 2367 2334 18723 16812 18724 18728 16587 16813 
2334 2367 2665 2368 16813 18729 18730 16819 16821 18731 
2631 2665 2632 2334 18732 18733 18507 18497 18730 18502 
2334 2367 2664 2665 16813 18724 18728 18730 18729 18734 
2631 2665 2334 2664 18732 18730 18497 18726 18734 18728 
2632 2334 2665 2335 18502 18730 18733 18504 16594 18735 
2665 2334 2368 2335 18730 16819 18731 18735 16594 16820 
2335 2368 2666 2369 16820 18736 18737 16826 16828 18738 
2632 2666 2633 2335 18739 18740 18514 18504 18737 18509 
2335 2368 2665 2666 16820 18731 18735 18737 18736 18741 
2632 2666 2335 2665 18739 18737 18504 18733 18741 18735 
2633 2335 2666 2336 18509 18737 18740 18511 16601 18742 
2666 2335 2369 2336 18737 16826 18738 18742 16601 16827 
2336 2369 2667 2370 16827 18743 18744 16833 16835 18745 
2633 2667 2634 2336 18746 18747 18521 18511 18744 18516 
2336 2369 2666 2667 16827 18738 18742 18744 18743 18748 
2633 2667 2336 2666 18746 18744 18511 18740 18748 18742 
2634 2336 2667 2337 18516 18744 18747 18518 16608 18749 
2667 2336 2370 2337 18744 16833 18745 18749 16608 16834 
2337 2370 2668 2371 16834 18750 18751 16840 16842 18752 
2634 2668 2635 2337 18753 18754 18528 18518 18751 18523 
2337 2370 2667 2668 16834 18745 18749 18751 18750 18755 
2634 2668 2337 2667 18753 18751 18518 18747 18755 18749 
2635 2337 2668 2338 18523 18751 18754 18525 16615 18756 
2668 2337 2371 2338 18751 16840 18752 18756 16615 16841 
2338 2371 2669 2372 16841 18757 18758 16847 16849 18759 
2635 2669 2636 2338 18760 18761 18535 18525 18758 18530 
2338 2371 2668 2669 16841 18752 18756 18758 18757 18762 
2635 2669 2338 2668 18760 18758 18525 18754 18762 18756 
2636 2338 2669 2339 18530 18758 18761 18532 16622 18763 
2669 2338 2372 2339 18758 16847 18759 18763 16622 16848 
2339 2372 2670 2373 16848 18764 18765 16854 16856 18766 
2636 2670 2637 2339 18767 18768 18542 18532 18765 18537 
2339 2372 2669 2670 16848 18759 18763 18765 18764 18769 
2636 2670 2339 2669 18767 18765 18532 18761 18769 18763 
2637 2339 2670 2340 18537 18765 18768 18539 16629 18770 
2670 2339 2373 2340 18765 16854 18766 18770 16629 16855 
2340 2373 2671 2374 16855 18771 18772 16861 16863 18773 
2637 2671 2638 2340 18774 18775 18549 18539 18772 18544 
2340 2373 2670 2671 16855 18766 18770 18772 18771 18776 
2637 2671 2340 2670 18774 18772 18539 18768 18776 18770 
2638 2340 2671 2341 18544 18772 18775 18546 16636 18777 
2671 2340 2374 2341 18772 16861 18773 18777 16636 16862 
2341 2374 2672 2375 16862 18778 18779 16868 16870 18780 
2638 2672 2639 2341 18781 18782 18556 18546 18779 18551 
2341 2374 2671 2672 16862 18773 18777 18779 18778 18783 
2638 2672 2341 2671 18781 18779 18546 18775 18783 18777 
2639 2341 2672 2342 18551 18779 18782 18553 16643 18784 
2672 2341 2375 2342 18779 16868 18780 18784 16643 16869 
CELL_TYPES 12288
24 24 24 24 24 24 24 24 24 24 24 24 24 24 24 24 24 24 24 24 24 24 24 24 24 24 24 24 24 24 24 24 24 24 24 24 24 24 24 24 24 24 24 24 24 24 24 24 24 24 24 24 24 24 24 24 24 24 24 24 24 24 24 24 24 24 24 24 24 24 24 24 24 24 24 24 24 24 24 24 24 24 24 24 24 24 24 24 24 24 24 24 24 24 24 24 24 24 24 24 24 24 24 24 24 24 24 24 24 24 24 24 24 24 24 24 24 24 24 24 24 24 24 24 24 24 24 24 24 24 24 24 24 24 24 24 24 24 24 24 24 24 24 24 24 24 24 24 24 24 24 24 24 24 24 24 24 24 24 24 24 24 24 24 24 24 24 24 24 24 24 24 24 24 24 24 24 24 24 24 24 24 24 24 24 24 24 24 24 24 24 24 24 24 24 24 24 24 24 24 24 24 24 24 24 24 24 24 24 24 24 24 24 24 24 24 24 24 24 24 24 24 24 24 24 24 24 24 24 24 24 24 24 24 24 24 24 24 24 24 24 24 24 24 24 24 24 24 24 24 24 24 24 24 24 24 24 24 24 24 24 24 24 24 24 24 24 24 24 24 24 24 24 24 24 24 24 24 24 24 24 24 24 24 24 24 24 24 24 24 24 24 24 24 24 24 24 24 24 24 24 24 24 24 24 24 24 24 24 24 24 24 24 24 24 24 24 24 24 24 24 24 24 24 24 24 24 24 24 24 24 24 24 24 24 24 24 24 24 24 24 24 24 24 24 24 24 24 24 24 24 24 24 24 24 24 24 24 24 24 24 24 24 24 24 24 24 24 24 24 24 24 24 24 24 24 24 24 24 24 24 24 24 24 24 24 24 24 24 24 24 24 24 24 24 24 24 24 24 24 24 24 24 24 24 24 24 24 24 24 24 24 24 24 24 24 24 24 24 24 24 24 24 24 24 24 24 24 24 24 24 24 24 24 24 24 24 24 24 24 24 24 24 24 24 24 24 24 24 24 24 24 24 24 24 24 24 24 24 24 24 24 24 24 24 24 24 24 24 24 24 24 24 24 24 24 24 24 24 24 24 24 24 24 24 24 24 24 24 24 24 24 24 24 24 24 24 24 24 24 24 24 24 24 24 24 24 24 24 24 24 24 24 24 24 24 24 24 24 24 24 24 24 24 24 24 24 24 24 24 24 24 24 24 24 24 24 24 24 24 24 24 24 24 24 24 24 24 24 24 24 24 24 24 24 24 24 24 24 24 24 24 24 24 24 24 24 24 24 24 24 24 24 24 24 24 24 24 24 24 24 24 24 24 24 24 24 24 24 24 24 24 24 24 24 24 24 24 24 24 24 24 24 24 24 24 24 24 24 24 24 24 24 24 24 24 24 24 24 24 24 24 24 24 24 24 24 24 24 24 24 24 24 24 24 24 24 24 24 24 24 24 24 24 24 24 24 24 24 24 24 24 24 24 24 24 24 24 24 24 24 24 24 24 24 24 24 24 24 24 24 24 24 24 24 24 24 24 24 24 24 24 24 24 24 24 24 24 24 24 24 24 24 24 24 24 24 24 24 24 24 24 24 24 24 24 24 24 24 24 24 24 24 24 24 24 24 24 24 24 24 24 24 24 24 24 24 24 24 24 24 24 24 24 24 24 24 24 24 24 24 24 24 24 24 24 24 24 24 24 24 24 24 24 24 24 24 24 24 24 24 24 24 24 24 24 24 24 24 24 24 24 24 24 24 24 24 24 24 24 24 24 24 24 24 24 24 24 24 24 24 24 24 24 24 24 24 24 24 24 24 24 24 24 24 24 24 24 24 24 24 24 24 24 24 24 24 24 24 24 24 24 24 24 24 24 24 24 24 24 24 24 24 24 24 24 24 24 24 24 24 24 24 24 24 24 24 24 24 24 24 24 24 24 24 24 24 24 24 24 24 24 24 24 24 24 24 24 24 24 24 24 24 24 24 24 24 24 24 24 24 24 24 24 24 24 24 24 24 24 24 24 24 24 24 24 24 24 24 24 24 24 24 24 24 24 24 24 24 24 24 24 24 24 24 24 24 24 24 24 24 24 24 24 24 24 24 24 24 24 24 24 24 24 24 24 24 24 24 24 24 24 24 24 24 24 24 24 24 24 24 24 24 24 24 24 24 24 24 24 24 24 24 24 24 24 24 24 24 24 24 24 24 24 24 24 24 24 24 24 24 24 24 24 24 24 24 24 24 24 24 24 24 24 24 24 24 24 24 24 24 24 24 24 24 24 24 24 24 24 24 24 24 24 24 24 24 24 24 24 24 24 24 24 24 24 24 24 24 24 24 24 24 24 24 24 24 24 24 24 24 24 24 24 24 24 24 24 24 24 24 24 24 24 24 24 24 24 24 24 24 24 24 24 24 24 24 24 24 24 24 24 24 24 24 24 24 24 24 24 24 24 24 24 24 24 24 24 24 24 24 24 24 24 24 24 24 24 24 24 24 24 24 24 24 24 24 24 24 24 24 24 24 24 24 24 24 24 24 24 24 24 24 24 24 24 24 24 24 24 24 24 24 24 24 24 24 24 24 24 24 24 24 24 24 24 24 24 24 24 24 24 24 24 24 24 24 24 24 24 24 24 24 24 24 24 24 24 24 24 24 24 24 24 24 24 24 24 24 24 24 24 24 24 24 24 24 24 24 24 24 24 24 24 24 24 24 24 24 24 24 24 24 24 24 24 24 24 24 24 24 24 24 24 24 24 24 24 24 24 24 24 24 24 24 24 24 24 24 24 24 24 24 24 24 24 24 24 24 24 24 24 24 24 24 24 24 24 24 24 24 24 24 24 24 24 24 24 24 24 24 24 24 24 24 24 24 24 24 24 24 24 24 24 24 24 24 24 24 24 24 24 24 24 24 24 24 24 24 24 24 24 24 24 24 24 24 24 24 24 24 24 24 24 24 24 24 24 24 24 24 24 24 24 24 24 24 24 24 24 24 24 24 24 24 24 24 24 24 24 24 24 24 24 24 24 24 24 24 24 24 24 24 24 24 24 24 24 24 24 24 24 24 24 24 24 24 24 24 24 24 24 24 24 24 24 24 24 24 24 24 24 24 24 24 24 24 24 24 24 24 24 24 24 24 24 24 24 24 24 24 24 24 24 24 24 24 24 24 24 24 24 24 24 24 24 24 24 24 24 24 24 24 24 24 24 24 24 24 24 24 24 24 24 24 24 24 24 24 24 24 24 24 24 24 24 24 24 24 24 24 24 24 24 24 24 24 24 24 24 24 24 24 24 24 24 24 24 24 24 24 24 24 24 24 24 24 24 24 24 24 24 24 24 24 24 24 24 24 24 24 24 24 24 24 24 24 24 24 24 24 24 24 24 24 24 24 24 24 24 24 24 24 24 24 24 24 24 24 24 24 24 24 24 24 24 24 24 24 24 24 24 24 24 24 24 24 24 24 24 24 24 24 24 24 24 24 24 24 24 24 24 24 24 24 24 24 24 24 24 24 24 24 24 24 24 24 24 24 24 24 24 24 24 24 24 24 24 24 24 24 24 24 24 24 24 24 24 24 24 24 24 24 24 24 24 24 24 24 24 24 24 24 24 24 24 24 24 24 24 24 24 24 24 24 24 24 24 24 24 24 24 24 24 24 24 24 24 24 24 24 24 24 24 24 24 24 24 24 24 24 24 24 24 24 24 24 24 24 24 24 24 24 24 24 24 24 24 24 24 24 24 24 24 24 24 24 24 24 24 24 24 24 24 24 24 24 24 24 24 24 24 24 24 24 24 24 24 24 24 24 24 24 24 24 24 24 24 24 24 24 24 24 24 24 24 24 24 24 24 24 24 24 24 24 24 24 24 24 24 24 24 24 24 24 24 24 24 24 24 24 24 24 24 24 24 24 24 24 24 24 24 24 24 24 24 24 24 24 24 24 24 24 24 24 24 24 24 24 24 24 24 24 24 24 24 24 24 24 24 24 24 24 24 24 24 24 24 24 24 24 24 24 24 24 24 24 24 24 24 24 24 24 24 24 24 24 24 24 24 24 24 24 24 24 24 24 24 24 24 24 24 24 24 24 24 24 24 24 24 24 24 24 24 24 24 24 24 24 24 24 24 24 24 24 24 24 24 24 24 24 24 24 24 24 24 24 24 24 24 24 24 24 24 24 24 24 24 24 24 24 24 24 24 24 24 24 24 24 24 24 24 24 24 24 24 24 24 24 24 24 24 24 24 24 24 24 24 24 24 24 24 24 24 24 24 24 24 24 24 24 24 24 24 24 24 24 24 24 24 24 24 24 24 24 24 24 24 24 24 24 24 24 24 24 24 24 24 24 24 24 24 24 24 24 24 24 24 24 24 24 24 24 24 24 24 24 24 24 24 24 24 24 24 24 24 24 24 24 24 24 24 24 24 24 24 24 24 24 24 24 24 24 24 24 24 24 24 24 24 24 24 24 24 24 24 24 24 24 24 24 24 24 24 24 24 24 24 24 24 24 24 24 24 24 24 24 24 24 24 24 24 24 24 24 24 24 24 24 24 24 24 24 24 24 24 24 24 24 24 24 24 24 24 24 24 24 24 24 24 24 24 24 24 24 24 24 24 24 24 24 24 24 24 24 24 24 24 24 24 24 24 24 24 24 24 24 24 24 24 24 24 24 24 24 24 24 24 24 24 24 24 24 24 24 24 24 24 24 24 24 24 24 24 24 24 24 24 24 24 24 24 24 24 24 24 24 24 24 24 24 24 24 24 24 24 24 24 24 24 24 24 24 24 24 24 24 24 24 24 24 24 24 24 24 24 24 24 24 24 24 24 24 24 24 24 24 24 24 24 24 24 24 24 24 24 24 24 24 24 24 24 24 24 24 24 24 24 24 24 24 24 24 24 24 24 24 24 24 24 24 24 24 24 24 24 24 24 24 24 24 24 24 24 24 24 24 24 24 24 24 24 24 24 24 24 24 24 24 24 24 24 24 24 24 24 24 24 24 24 24 24 24 24 24 24 24 24 24 24 24 24 24 24 24 24 24 24 24 24 24 24 24 24 24 24 24 24 24 24 24 24 24 24 24 24 24 24 24 24 24 24 24 24 24 24 24 24 24 24 24 24 24 24 24 24 24 24 24 24 24 24 24 24 24 24 24 24 24 24 24 24 24 24 24 24 24 24 24 24 24 24 24 24 24 24 24 24 24 24 24 24 24 24 24 24 24 24 24 24 24 24 24 24 24 24 24 24 24 24 24 24 24 24 24 24 24 24 24 24 24 24 24 24 24 24 24 24 24 24 24 24 24 24 24 24 24 24 24 24 24 24 24 24 24 24 24 24 24 24 24 24 24 24 24 24 24 24 24 24 24 24 24 24 24 24 24 24 24 24 24 24 24 24 24 24 24 24 24 24 24 24 24 24 24 24 24 24 24 24 24 24 24 24 24 24 24 24 24 24 24 24 24 24 24 24 24 24 24 24 24 24 24 24 24 24 24 24 24 24 24 24 24 24 24 24 24 24 24 24 24 24 24 24 24 24 24 24 24 24 24 24 24 24 24 24 24 24 24 24 24 24 24 24 24 24 24 24 24 24 24 24 24 24 24 24 24 24 24 24 24 24 24 24 24 24 24 24 24 24 24 24 24 24 24 24 24 24 24 24 24 24 24 24 24 24 24 24 24 24 24 24 24 24 24 24 24 24 24 24 24 24 24 24 24 24 24 24 24 24 24 24 24 24 24 24 24 24 24 24 24 24 24 24 24 24 24 24 24 24 24 24 24 24 24 24 24 24 24 24 24 24 24 24 24 24 24 24 24 24 24 24 24 24 24 24 24 24 24 24 24 24 24 24 24 24 24 24 24 24 24 24 24 24 24 24 24 24 24 24 24 24 24 24 24 24 24 24 24 24 24 24 24 24 24 24 24 24 24 24 24 24 24 24 24 24 24 24 24 24 24 24 24 24 24 24 24 24 24 24 24 24 24 24 24 24 24 24 24 24 24 24 24 24 24 24 24 24 24 24 24 24 24 24 24 24 24 24 24 24 24 24 24 24 24 24 24 24 24 24 24 24 24 24 24 24 24 24 24 24 24 24 24 24 24 24 24 24 24 24 24 24 24 24 24 24 24 24 24 24 24 24 24 24 24 24 24 24 24 24 24 24 24 24 24 24 24 24 24 24 24 24 24 24 24 24 24 24 24 24 24 24 24 24 24 24 24 24 24 24 24 24 24 24 24 24 24 24 24 24 24 24 24 24 24 24 24 24 24 24 24 24 24 24 24 24 24 24 24 24 24 24 24 24 24 24 24 24 24 24 24 24 24 24 24 24 24 24 24 24 24 24 24 24 24 24 24 24 24 24 24 24 24 24 24 24 24 24 24 24 24 24 24 24 24 24 24 24 24 24 24 24 24 24 24 24 24 24 24 24 24 24 24 24 24 24 24 24 24 24 24 24 24 24 24 24 24 24 24 24 24 24 24 24 24 24 24 24 24 24 24 24 24 24 24 24 24 24 24 24 24 24 24 24 24 24 24 24 24 24 24 24 24 24 24 24 24 24 24 24 24 24 24 24 24 24 24 24 24 24 24 24 24 24 24 24 24 24 24 24 24 24 24 24 24 24 24 24 24 24 24 24 24 24 24 24 24 24 24 24 24 24 24 24 24 24 24 24 24 24 24 24 24 24 24 24 24 24 24 24 24 24 24 24 24 24 24 24 24 24 24 24 24 24 24 24 24 24 24 24 24 24 24 24 24 24 24 24 24 24 24 24 24 24 24 24 24 24 24 24 24 24 24 24 24 24 24 24 24 24 24 24 24 24 24 24 24 24 24 24 24 24 24 24 24 24 24 24 24 24 24 24 24 24 24 24 24 24 24 24 24 24 24 24 24 24 24 24 24 24 24 24 24 24 24 24 24 24 24 24 24 24 24 24 24 24 24 24 24 24 24 24 24 24 24 24 24 24 24 24 24 24 24 24 24 24 24 24 24 24 24 24 24 24 24 24 24 24 24 24 24 24 24 24 24 24 24 24 24 24 24 24 24 24 24 24 24 24 24 24 24 24 24 24 24 24 24 24 24 24 24 24 24 24 24 24 24 24 24 24 24 24 24 24 24 24 24 24 24 24 24 24 24 24 24 24 24 24 24 24 24 24 24 24 24 24 24 24 24 24 24 24 24 24 24 24 24 24 24 24 24 24 24 24 24 24 24 24 24 24 24 24 24 24 24 24 24 24 24 24 24 24 24 24 24 24 24 24 24 24 24 24 24 24 24 24 24 24 24 24 24 24 24 24 24 24 24 24 24 24 24 24 24 24 24 24 24 24 24 24 24 24 24 24 24 24 24 24 24 24 24 24 24 24 24 24 24 24 24 24 24 24 24 24 24 24 24 24 24 24 24 24 24 24 24 24 24 24 24 24 24 24 24 24 24 24 24 24 24 24 24 24 24 24 24 24 24 24 24 24 24 24 24 24 24 24 24 24 24 24 24 24 24 24 24 24 24 24 24 24 24 24 24 24 24 24 24 24 24 24 24 24 24 24 24 24 24 24 24 24 24 24 24 24 24 24 24 24 24 24 24 24 24 24 24 24 24 24 24 24 24 24 24 24 24 24 24 24 24 24 24 24 24 24 24 24 24 24 24 24 24 24 24 24 24 24 24 24 24 24 24 24 24 24 24 24 24 24 24 24 24 24 24 24 24 24 24 24 24 24 24 24 24 24 24 24 24 24 24 24 24 24 24 24 24 24 24 24 24 24 24 24 24 24 24 24 24 24 24 24 24 24 24 24 24 24 24 24 24 24 24 24 24 24 24 24 24 24 24 24 24 24 24 24 24 24 24 24 24 24 24 24 24 24 24 24 24 24 24 24 24 24 24 24 24 24 24 24 24 24 24 24 24 24 24 24 24 24 24 24 24 24 24 24 24 24 24 24 24 24 24 24 24 24 24 24 24 24 24 24 24 24 24 24 24 24 24 24 24 24 24 24 24 24 24 24 24 24 24 24 24 24 24 24 24 24 24 24 24 24 24 24 24 24 24 24 24 24 24 24 24 24 24 24 24 24 24 24 24 24 24 24 24 24 24 24 24 24 24 24 24 24 24 24 24 24 24 24 24 24 24 24 24 24 24 24 24 24 24 24 24 24 24 24 24 24 24 24 24 24 24 24 24 24 24 24 24 24 24 24 24 24 24 24 24 24 24 24 24 24 24 24 24 24 24 24 24 24 24 24 24 24 24 24 24 24 24 24 24 24 24 24 24 24 24 24 24 24 24 24 24 24 24 24 24 24 24 24 24 24 24 24 24 24 24 24 24 24 24 24 24 24 24 24 24 24 24 24 24 24 24 24 24 24 24 24 24 24 24 24 24 24 24 24 24 24 24 24 24 24 24 24 24 24 24 24 24 24 24 24 24 24 24 24 24 24 24 24 24 24 24 24 24 24 24 24 24 24 24 24 24 24 24 24 24 24 24 24 24 24 24 24 24 24 24 24 24 24 24 24 24 24 24 24 24 24 24 24 24 24 24 24 24 24 24 24 24 24 24 24 24 24 24 24 24 24 24 24 24 24 24 24 24 24 24 24 24 24 24 24 24 24 24 24 24 24 24 24 24 24 24 24 24 24 24 24 24 24 24 24 24 24 24 24 24 24 24 24 24 24 24 24 24 24 24 24 24 24 24 24 24 24 24 24 24 24 24 24 24 24 24 24 24 24 24 24 24 24 24 24 24 24 24 24 24 24 24 24 24 24 24 24 24 24 24 24 24 24 24 24 24 24 24 24 24 24 24 24 24 24 24 24 24 24 24 24 24 24 24 24 24 24 24 24 24 24 24 24 24 24 24 24 24 24 24 24 24 24 24 24 24 24 24 24 24 24 24 24 24 24 24 24 24 24 24 24 24 24 24 24 24 24 24 24 24 24 24 24 24 24 24 24 24 24 24 24 24 24 24 24 24 24 24 24 24 24 24 24 24 24 24 24 24 24 24 24 24 24 24 24 24 24 24 24 24 24 24 24 24 24 24 24 24 24 24 24 24 24 24 24 24 24 24 24 24 24 24 24 24 24 24 24 24 24 24 24 24 24 24 24 24 24 24 24 24 24 24 24 24 24 24 24 24 24 24 24 24 24 24 24 24 24 24 24 24 24 24 24 24 24 24 24 24 24 24 24 24 24 24 24 24 24 24 24 24 24 24 24 24 24 24 24 24 24 24 24 24 24 24 24 24 24 24 24 24 24 24 24 24 24 24 24 24 24 24 24 24 24 24 24 24 24 24 24 24 24 24 24 24 24 24 24 24 24 24 24 24 24 24 24 24 24 24 24 24 24 24 24 24 24 24 24 24 24 24 24 24 24 24 24 24 24 24 24 24 24 24 24 24 24 24 24 24 24 24 24 24 24 24 24 24 24 24 24 24 24 24 24 24 24 24 24 24 24 24 24 24 24 24 24 24 24 24 24 24 24 24 24 24 24 24 24 24 24 24 24 24 24 24 24 24 24 24 24 24 24 24 24 24 24 24 24 24 24 24 24 24 24 24 24 24 24 24 24 24 24 24 24 24 24 24 24 24 24 24 24 24 24 24 24 24 24 24 24 24 24 24 24 24 24 24 24 24 24 24 24 24 24 24 24 24 24 24 24 24 24 24 24 24 24 24 24 24 24 24 24 24 24 24 24 24 24 24 24 24 24 24 24 24 24 24 24 24 24 24 24 24 24 24 24 24 24 24 24 24 24 24 24 24 24 24 24 24 24 24 24 24 24 24 24 24 24 24 24 24 24 24 24 24 24 24 24 24 24 24 24 24 24 24 24 24 24 24 24 24 24 24 24 24 24 24 24 24 24 24 24 24 24 24 24 24 24 24 24 24 24 24 24 24 24 24 24 24 24 24 24 24 24 24 24 24 24 24 24 24 24 24 24 24 24 24 24 24 24 24 24 24 24 24 24 24 24 24 24 24 24 24 24 24 24 24 24 24 24 24 24 24 24 24 24 24 24 24 24 24 24 24 24 24 24 24 24 24 24 24 24 24 24 24 24 24 24 24 24 24 24 24 24 24 24 24 24 24 24 24 24 24 24 24 24 24 24 24 24 24 24 24 24 24 24 24 24 24 24 24 24 24 24 24 24 24 24 24 24 24 24 24 24 24 24 24 24 24 24 24 24 24 24 24 24 24 24 24 24 24 24 24 24 24 24 24 24 24 24 24 24 24 24 24 24 24 24 24 24 24 24 24 24 24 24 24 24 24 24 24 24 24 24 24 24 24 24 24 24 24 24 24 24 24 24 24 24 24 24 24 24 24 24 24 24 24 24 24 24 24 24 24 24 24 24 24 24 24 24 24 24 24 24 24 24 24 24 24 24 24 24 24 24 24 24 24 24 24 24 24 24 24 24 24 24 24 24 24 24 24 24 24 24 24 24 24 24 24 24 24 24 24 24 24 24 24 24 24 24 24 24 24 24 24 24 24 24 24 24 24 24 24 24 24 24 24 24 24 24 24 24 24 24 24 24 24 24 24 24 24 24 24 24 24 24 24 24 24 24 24 24 24 24 24 24 24 24 24 24 24 24 24 24 24 24 24 24 24 24 24 24 24 24 24 24 24 24 24 24 24 24 24 24 24 24 24 24 24 24 24 24 24 24 24 24 24 24 24 24 24 24 24 24 24 24 24 24 24 24 24 24 24 24 24 24 24 24 24 24 24 24 24 24 24 24 24 24 24 24 24 24 24 24 24 24 24 24 24 24 24 24 24 24 24 24 24 24 24 24 24 24 24 24 24 24 24 24 24 24 24 24 24 24 24 24 24 24 24 24 24 24 24 24 24 24 24 24 24 24 24 24 24 24 24 24 24 24 24 24 24 24 24 24 24 24 24 24 24 24 24 24 24 24 24 24 24 24 24 24 24 24 24 24 24 24 24 24 24 24 24 24 24 24 24 24 24 24 24 24 24 24 24 24 24 24 24 24 24 24 24 24 24 24 24 24 24 24 24 24 24 24 24 24 24 24 24 24 24 24 24 24 24 24 24 24 24 24 24 24 24 24 24 24 24 24 24 24 24 24 24 24 24 24 24 24 24 24 24 24 24 24 24 24 24 24 24 24 24 24 24 24 24 24 24 24 24 24 24 24 24 24 24 24 24 24 24 24 24 24 24 24 24 24 24 24 24 24 24 24 24 24 24 24 24 24 24 24 24 24 24 24 24 24 24 24 24 24 24 24 24 24 24 24 24 24 24 24 24 24 24 24 24 24 24 24 24 24 24 24 24 24 24 24 24 24 24 24 24 24 24 24 24 24 24 24 24 24 24 24 24 24 24 24 24 24 24 24 24 24 24 24 24 24 24 24 24 24 24 24 24 24 24 24 24 24 24 24 24 24 24 24 24 24 24 24 24 24 24 24 24 24 24 24 24 24 24 24 24 24 24 24 24 24 24 24 24 24 24 24 24 24 24 24 24 24 24 24 24 24 24 24 24 24 24 24 24 24 24 24 24 24 24 24 24 24 24 24 24 24 24 24 24 24 24 24 24 24 24 24 24 24 24 24 24 24 24 24 24 24 24 24 24 24 24 24 24 24 24 24 24 24 24 24 24 24 24 24 24 24 24 24 24 24 24 24 24 24 24 24 24 24 24 24 24 24 24 24 24 24 24 24 24 24 24 24 24 24 24 24 24 24 24 24 24 24 24 24 24 24 24 24 24 24 24 24 24 24 24 24 24 24 24 24 24 24 24 24 24 24 24 24 24 24 24 24 24 24 24 24 24 24 24 24 24 24 24 24 24 24 24 24 24 24 24 24 24 24 24 24 24 24 24 24 24 24 24 24 24 24 24 24 24 24 24 24 24 24 24 24 24 24 24 24 24 24 24 24 24 24 24 24 24 24 24 24 24 24 24 24 24 24 24 24 24 24 24 24 24 24 24 24 24 24 24 24 24 24 24 24 24 24 24 24 24 24 24 24 24 24 24 24 24 24 24 24 24 24 24 24 24 24 24 24 24 24 24 24 24 24 24 24 24 24 24 24 24 24 24 24 24 24 24 24 24 24 24 24 24 24 24 24 24 24 24 24 24 24 24 24 24 24 24 24 24 24 24 24 24 24 24 24 24 24 24 24 24 24 24 24 24 24 24 24 24 24 24 24 24 24 24 24 24 24 24 24 24 24 24 24 24 24 24 24 24 24 24 24 24 24 24 24 24 24 24 24 24 24 24 24 24 24 24 24 24 24 24 24 24 24 24 24 24 24 24 24 24 24 24 24 24 24 24 24 24 24 24 24 24 24 24 24 24 24 24 24 24 24 24 24 24 24 24 24 24 24 24 24 24 24 24 24 24 24 24 24 24 24 24 24 24 24 24 24 24 24 24 24 24 24 24 24 24 24 24 24 24 24 24 24 24 24 24 24 24 24 24 24 24 24 24 24 24 24 24 24 24 24 24 24 24 24 24 24 24 24 24 24 24 24 24 24 24 24 24 24 24 24 24 24 24 24 24 24 24 24 24 24 24 24 24 24 24 24 24 24 24 24 24 24 24 24 24 24 24 24 24 24 24 24 24 24 24 24 24 24 24 24 24 24 24 24 24 24 24 24 24 24 24 24 24 24 24 24 24 24 24 24 24 24 24 24 24 24 24 24 24 24 24 24 24 24 24 24 24 24 24 24 24 24 24 24 24 24 24 24 24 24 24 24 24 24 24 24 24 24 24 24 24 24 24 24 24 24 24 24 24 24 24 24 24 24 24 24 24 24 24 24 24 24 24 24 24 24 24 24 24 24 24 24 24 24 24 24 24 24 24 24 24 24 24 24 24 24 24 24 24 24 24 24 24 24 24 24 24 24 24 24 24 24 24 24 24 24 24 24 24 24 24 24 24 24 24 24 24 24 24 24 24 24 24 24 24 24 24 24 24 24 24 24 24 24 24 24 24 24 24 24 24 24 24 24 24 24 24 24 24 24 24 24 24 24 24 24 24 24 24 24 24 24 24 24 24 24 24 24 24 24 24 24 24 24 24 24 24 24 24 24 24 24 24 24 24 24 24 24 24 24 24 24 24 24 24 24 24 24 24 24 24 24 24 24 24 24 24 24 24 24 24 24 24 24 24 24 24 24 24 24 24 24 24 24 24 24 24 24 24 24 24 24 24 24 24 24 24 24 24 24 24 24 24 24 24 24 24 24 24 24 24 24 24 24 24 24 24 24 24 24 24 24 24 24 24 24 24 24 24 24 24 24 24 24 24 24 24 24 24 24 24 24 24 24 24 24 24 24 24 24 24 24 24 24 24 24 24 24 24 24 24 24 24 24 24 24 24 24 24 24 24 24 24 24 24 24 24 24 24 24 24 24 24 24 24 24 24 24 24 24 24 24 24 24 24 24 24 24 24 24 24 24 24 24 24 24 24 24 24 24 24 24 24 24 24 24 24 24 24 24 24 24 24 24 24 24 24 24 24 24 24 24 24 24 24 24 24 24 24 24 24 24 24 24 24 24 24 24 24 24 24 24 24 24 24 24 24 24 24 24 24 24 24 24 24 24 24 24 24 24 24 24 24 24 24 24 24 24 24 24 24 24 24 24 24 24 24 24 24 24 24 24 24 24 24 24 24 24 24 24 24 24 24 24 24 24 24 24 24 24 24 24 24 24 24 24 24 24 24 24 24 24 24 24 24 24 24 24 24 24 24 24 24 24 24 24 24 24 24 24 24 24 24 24 24 24 24 24 24 24 24 24 24 24 24 24 24 24 24 24 24 24 24 24 24 24 24 24 24 24 24 24 24 24 24 24 24 24 24 24 24 24 24 24 24 24 24 24 24 24 24 24 24 24 24 24 24 24 24 24 24 24 24 24 24 24 24 24 24 24 24 24 24 24 24 24 24 24 24 24 24 24 24 24 24 24 24 24 24 24 24 24 24 24 24 24 24 24 24 24 24 24 24 24 24 24 24 24 24 24 24 24 24 24 24 24 24 24 24 24 24 24 24 24 24 24 24 24 24 24 24 24 24 24 24 24 24 24 24 24 24 24 24 24 24 24 24 24 24 24 24 24 24 24 24 24 24 24 24 24 24 24 24 24 24 24 24 24 24 24 24 24 24 24 24 24 24 24 24 24 24 24 24 24 24 24 24 24 24 24 24 24 24 24 24 24 24 24 24 24 24 24 24 24 24 24 24 24 24 24 24 24 24 24 24 24 24 24 24 24 24 24 24 24 24 24 24 24 24 24 24 24 24 24 24 24 24 24 24 24 24 24 24 24 24 24 24 24 24 24 24 24 24 24 24 24 24 24 24 24 24 24 24 24 24 24 24 24 24 24 24 24 24 24 24 24 24 24 24 24 24 24 24 24 24 24 24 24 24 24 24 24 24 24 24 24 24 24 24 24 24 24 24 24 24 24 24 24 24 24 24 24 24 24 24 24 24 24 24 24 24 24 24 24 24 24 24 24 24 24 24 24 24 24 24 24 24 24 24 24 24 24 24 24 24 24 24 24 24 24 24 24 24 24 24 24 24 24 24 24 24 24 24 24 24 24 24 24 24 24 24 24 24 24 24 24 24 24 24 24 24 24 24 24 24 24 24 24 24 24 24 24 24 24 24 24 24 24 24 24 24 24 24 24 24 24 24 24 24 24 24 24 24 24 24 24 24 24 24 24 24 24 24 24 24 24 24 24 24 24 24 24 24 24 24 24 24 24 24 24 24 24 24 24 24 24 24 24 24 24 24 24 24 24 24 24 24 24 24 24 24 24 24 24 24 24 24 24 24 24 24 24 24 24 24 24 24 24 24 24 24 24 24 24 24 24 24 24 24 24 24 24 24 24 24 24 24 24 24 24 24 24 24 24 24 24 24 24 24 24 24 24 24 24 24 24 24 24 24 24 24 24 24 24 24 24 24 24 24 24 24 24 24 24 24 24 24 24 24 24 24 24 24 24 24 24 24 24 24 24 24 24 24 24 24 24 24 24 24 24 24 24 24 24 24 24 24 24 24 24 24 24 24 24 24 24 24 24 24 24 24 24 24 24 24 24 24 24 24 24 24 24 24 24 24 24 24 24 24 24 24 24 24 24 24 24 24 24 24 24 24 24 24 24 24 24 24 24 24 24 24 24 24 24 24 24 24 24 24 24 24 24 24 24 24 24 24 24 24 24 24 24 24 24 24 24 24 24 24 24 24 24 24 24 24 24 24 24 24 24 24 24 24 24 24 24 24 24 24 24 24 24 24 24 24 24 24 24 24 24 24 24 24 24 24 24 24 24 24 24 24 24 24 24 24 24 24 24 24 24 24 24 24 24 24 24 24 24 24 24 24 24 24 24 24 24 24 24 24 24 24 24 24 24 24 24 24 24 24 24 24 24 24 24 24 24 24 24 24 24 24 24 24 24 24 24 24 24 24 24 24 24 24 24 24 24 24 24 24 24 24 24 24 24 24 24 24 24 24 24 24 24 24 24 24 24 24 24 24 24 24 24 24 24 24 24 24 24 24 24 24 24 24 24 24 24 24 24 24 24 24 24 24 24 24 24 24 24 24 24 24 24 24 24 24 24 24 24 24 24 24 24 24 24 24 24 24 24 24 24 24 24 24 24 24 24 24 24 24 24 24 24 24 24 24 24 24 24 24 24 24 24 24 24 24 24 24 24 24 24 24 24 24 24 24 24 24 24 24 24 24 24 24 24 24 24 24 24 24 24 24 24 24 24 24 24 24 24 24 24 24 24 24 24 24 24 24 24 24 24 24 24 24 24 24 24 24 24 24 24 24 24 24 24 24 24 24 24 24 24 24 24 24 24 24 24 24 24 24 24 24 24 24 24 24 24 24 24 24 24 24 24 24 24 24 24 24 24 24 24 24 24 24 24 24 24 24 24 24 24 24 24 24 24 24 24 24 24 24 24 24 24 24 24 24 24 24 24 24 24 24 24 24 24 24 24 24 24 24 24 24 24 24 24 24 24 24 24 24 24 24 24 24 24 24 24 24 24 24 24 24 24 24 24 24 24 24 24 24 24 24 24 24 24 24 24 24 24 24 24 24 24 24 24 24 24 24 24 24 24 24 24 24 24 24 24 24 24 24 24 24 24 24 24 24 24 24 24 24 24 24 24 24 24 24 24 24 24 24 24 24 24 24 24 24 24 24 24 24 24 24 24 24 24 24 24 24 24 24 24 24 24 24 24 24 24 24 24 24 24 24 24 24 24 24 24 24 24 24 24 24 24 24 24 24 24 24 24 24 24 24 24 24 24 24 24 24 24 24 24 24 24 24 24 24 24 24 24 24 24 24 24 24 24 24 24 24 24 24 24 24 24 24 24 24 24 24 24 24 24 24 24 24 24 24 24 24 24 24 24 24 24 24 24 24 24 24 24 24 24 24 24 24 24 24 24 24 24 24 24 24 24 24 24 24 24 24 24 24 24 24 24 24 24 24 24 24 24 24 24 24 24 24 24 24 24 24 24 24 24 24 24 24 24 24 24 24 24 24 24 24 24 24 24 24 24 24 24 24 24 24 24 24 24 24 24 24 24 24 24 24 24 24 24 24 24 24 24 24 24 24 24 24 24 24 24 24 24 24 24 24 24 24 24 24 24 24 24 24 24 24 24 24 24 24 24 24 24 24 24 24 24 24 24 24 24 24 24 24 24 24 24 24 24 24 24 24 24 24 24 24 24 24 24 24 24 24 24 24 24 24 24 24 24 24 24 24 24 24 24 24 24 24 24 24 24 24 24 24 24 24 24 24 24 24 24 24 24 24 24 24 24 24 24 24 24 24 24 24 24 24 24 24 24 24 24 24 24 24 24 24 24 24 24 24 24 24 24 24 24 24 24 24 24 24 24 24 24 24 24 24 24 24 24 24 24 24 24 24 24 24 24 24 24 24 24 24 24 24 24 24 24 24 24 24 24 24 24 24 24 24 24 24 24 24 24 24 24 24 24 24 24 24 24 24 24 24 24 24 24 24 24 24 24 24 24 24 24 24 24 24 24 24 24 24 24 24 24 24 24 24 24 24 24 24 24 24 24 24 24 24 24 24 24 24 24 24 24 24 24 24 24 24 24 24 24 24 24 24 24 24 24 24 24 24 24 24 24 24 24 24 24 24 24 24 24 24 24 24 24 24 24 24 24 24 24 24 24 24 24 24 24 24 24 24 24 24 24 24 24 24 24 24 24 24 24 24 24 24 24 24 24 24 24 24 24 24 24 24 24 24 24 24 24 24 24 24 24 24 24 24 24 24 24 24 24 24 24 24 24 24 24 24 24 24 24 24 24 24 24 24 24 24 24 24 24 24 24 24 24 24 24 24 24 24 24 24 24 24 24 24 24 24 24 24 24 24 24 24 24 24 24 24 24 24 24 24 24 24 24 24 24 24 24 24 24 24 24 24 24 24 24 24 24 24 24 24 24 24 24 24 24 24 24 24 24 24 24 24 24 24 24 24 24 24 24 24 24 24 24 24 24 24 24 24 24 24 24 24 24 24 24 24 24 24 24 24 24 24 24 24 24 24 24 24 24 24 24 24 24 24 24 24 24 24 24 24 24 24 24 24 24 24 24 24 24 24 24 24 24 24 24 24 24 24 24 24 24 24 24 24 24 24 24 24 24 24 24 24 24 24 24 24 24 24 24 24 24 24 24 24 24 24 24 24 24 24 24 24 24 24 24 24 24 24 24 24 24 24 24 24 24 24 24 24 24 24 24 24 24 24 24 24 24 24 24 24 24 24 24 24 24 24 24 24 24 24 24 24 24 24 24 24 24 24 24 24 24 24 24 24 24 24 24 24 24 24 24 24 24 24 24 24 24 24 24 24 24 24 24 24 24 24 24 24 24 24 24 24 24 24 24 24 24 24 24 24 24 24 24 24 24 24 24 24 24 24 24 24 24 24 24 24 24 24 24 24 24 24 24 24 24 24 24 24 24 24 24 24 24 24 24 24 24 24 24 24 24 24 24 24 24 24 24 24 24 24 24 24 24 24 24 24 24 24 24 24 24 24 24 24 24 24 24 24 24 24 24 24 24 24 24 24 24 24 24 24 24 24 24 24 24 24 24 24 24 24 24 24 24 24 24 24 24 24 24 24 24 24 24 24 24 24 24 24 24 24 24 24 24 24 24 24 24 24 24 24 24 24 24 24 24 24 24 24 24 24 24 24 24 24 24 24 24 24 24 24 24 24 24 24 24 24 24 24 24 24 24 24 24 24 24 24 24 24 24 24 24 24 24 24 24 24 24 24 24 24 24 24 24 24 24 24 24 24 24 24 24 24 24 24 24 24 24 24 24 24 24 24 24 24 24 24 24 24 24 24 24 24 24 24 24 24 24 24 24 24 24 24 24 24 24 24 24 24 24 24 24 24 24 24 24 24 24 24 24 24 24 24 24 24 24 24 24 24 24 24 24 24 24 24 24 24 24 24 24 24 24 24 24 24 24 24 24 24 24 24 24 24 24 24 24 24 24 24 24 24 24 24 24 24 24 24 24 24 24 24 24 24 24 24 24 24 24 24 24 24 24 24 24 24 24 24 24 24 24 24 24 24 24 24 24 24 24 24 24 24 24 24 24 24 24 24 24 24 24 24 24 24 24 24 24 24 24 24 24 24 24 24 24 24 24 24 24 24 24 24 24 24 24 24 24 24 24 24 24 24 24 24 24 24 24 24 24 24 24 24 24 24 24 24 24 24 24 24 24 24 24 24 24 24 24 24 24 24 24 24 24 24 24 24 24 24 24 24 24 24 24 24 24 24 24 24 24 24 24 24 24 24 24 24 24 24 24 24 24 24 24 24 24 24 24 24 24 24 24 24 24 24 24 24 24 24 24 24 24 24 24 24 24 24 24 24 24 24 24 24 24 24 24 24 24 24 24 24 24 24 24 24 24 24 24 24 24 24 24 24 24 24 24 24 24 24 24 24 24 24 24 24 24 24 24 24 24 24 24 24 24 24 24 24 24 24 24 24 24 24 24 24 24 24 24 24 24 24 24 24 24 24 24 24 24 24 24 24 24 24 24 24 24 24 24 24 24 24 24 24 24 24 24 24 24 24 24 24 24 24 24 24 24 24 24 24 24 24 24 24 24 24 24 24 24 24 24 24 24 24 24 24 24 24 24 24 24 24 24 24 24 24 24 24 24 24 24 24 24 24 24 24 24 24 24 24 24 24 24 24 24 24 24 24 24 24 24 24 24 24 24 24 24 24 24 24 24 24 24 24 24 24 24 24 24 24 24 24 24 24 24 24 24 24 24 24 24 24 24 24 24 24 24 24 24 24 24 24 24 24 24 24 24 24 24 24 24 24 24 24 24 24 24 24 24 24 24 24 24 24 24 24 24 24 24 24 24 24 24 24 24 24 24 24 24 24 24 24 24 24 24 24 24 24 24 24 24 24 24 24 24 24 24 24 24 24 24 24 24 24 24 24 24 24 24 24 24 24 24 24 24 24 24 24 24 24 24 24 24 24 24 24 24 24 24 24 24 24 24 24 24 24 24 24 24 24 24 24 24 24 24 24 24 24 24 24 24 24 24 24 24 24 24 24 24 24 24 24 24 24 24 24 24 24 24 24 24 24 24 24 24 24 24 24 24 24 24 24 24 24 24 24 24 24 24 24 24 24 24 24 24 24 24 24 24 24 24 24 24 24 24 24 24 24 24 24 24 24 24 24 24 24 24 24 24 24 24 24 24 24 24 24 24 24 24 24 24 24 24 24 24 24 24 24 24 24 24 24 24 24 24 24 24 24 24 24 24 24 24 24 24 24 24 24 24 24 24 24 24 24 24 24 24 24 24 24 24 24 24 24 24 24 24 24 24 24 24 24 24 24 24 24 24 24 24 24 24 24 24 24 24 24 24 24 24 24 24 24 24 24 24 24 24 24 24 24 24 24 24 24 24 24 24 24 24 24 24 24 24 24 24 24 24 24 24 24 24 24 24 24 24 24 24 24 24 24 24 24 24 24 24 24 24 24 24 24 24 24 24 24 24 24 24 24 24 24 24 24 24 24 24 24 24 24 24 24 24 24 24 24 24 24 24 24 24 24 24 24 24 24 24 24 24 24 24 24 24 24 24 24 24 24 24 24 24 24 24 24 24 24 24 24 24 24 24 24 24 24 24 24 24 24 24 24 24 24 24 24 24 24 24 24 24 24 24 24 24 24 24 24 24 24 24 24 24 24 24 24 24 24 24 24 24 24 24 24 24 24 24 24 24 24 24 24 24 24 24 24 24 24 24 24 24 24 24 24 24 24 24 24 24 24 24 24 24 24 24 24 24 24 24 24 24 24 24 24 24 24 24 24 24 24 24 24 24 24 24 24 24 24 24 24 24 24 24 24 24 24 24 24 24 24 24 24 24 24 24 24 24 24 24 24 24 24 24 24 24 24 24 24 24 24 24 24 24 24 24 24 24 24 24 24 24 24 24 24 24 24 24 24 24 24 24 24 24 24 24 24 24 24 24 24 24 24 24 24 24 24 24 24 24 24 24 24 24 24 24 24 24 24 24 24 24 24 24 24 24 24 24 24 24 24 24 24 24 24 24 24 24 24 24 24 24 24 24 24 24 24 24 24 24 24 24 24 24 24 24 24 24 24 24 24 24 24 24 24 24 24 24 24 24 24 24 24 24 24 24 24 24 24 24 24 24 24 24 24 24 24 24 24 24 24 24 24 24 24 24 24 24 24 24 24 24 24 24 24 24 24 24 24 24 24 24 24 24 24 24 24 24 24 24 24 24 24 24 24 24 24 24 24 24 24 24 24 24 24 24 24 24 24 24 24 24 24 24 24 24 24 24 24 24 24 24 24 24 24 24 24 24 24 24 24 24 24 24 24 24 24 24 24 24 24 24 24 24 24 24 24 24 24 24 24 24 24 24 24 24 24 24 24 24 24 24 24 24 24 24 24 24 24 24 24 24 24 24 24 24 24 24 24 24 24 24 24 24 24 24 24 24 24 24 24 24 24 24 24 24 24 24 24 24 24 24 24 24 24 24 24 24 24 24 24 24 24 24 24 24 24 24 24 24 24 24 24 24 24 24 24 24 24 24 24 24 24 24 24 24 24 24 24 24 24 24 24 24 24 24 24 24 24 24 24 24 24 24 24 24 24 24 24 24 24 24 24 24 24 24 24 24 24 24 24 24 24 24 24 24 24 24 24 24 24 24 24 24 24 24 24 24 24 24 24 24 24 24 24 24 24 24 24 24 24 24 24 24 24 24 24 24 24 24 24 24 24 24 24 24 24 24 24 24 24 24 24 24 24 24 24 24 24 24 24 24 24 24 24 24 24 24 24 24 24 24 24 24 24 24 24 24 24 24 24 24 24 24 24 24 24 24 24 24 24 24 24 24 24 24 24 24 24 24 24 24 24 24 24 24 24 24 24 24 24 24 24 24 24 24 24 24 24 24 24 24 24 24 24 24 24 24 24 24 24 24 24 24 24 24 24 24 24 24 24 24 24 24 24 24 24 24 24 24 24 24 24 24 24 24 24 24 24 24 24 24 24 24 24 24 24 24 24 24 24 24 24 24 24 24 24 24 24 24 24 24 24 24 24 24 24 24 24 24 24 24 24 24 24 24 24 24 24 24 24 24 24 24 24 24 24 24 24 24 24 24 24 24 24 24 24 24 24 24 24 24 24 24 24 24 24 24 24 24 24 24 24 24 24 24 24 24 24 24 24 24 24 24 24 24 24 24 24 24 24 24 24 24 24 24 24 24 24 24 24 24 24 24 24 24 24 24 24 24 24 24 24 24 24 24 24 24 24 24 24 24 24 24 24 24 24 24 24 24 24 24 24 24 24 24 24 24 24 24 24 24 24 24 24 24 24 24 24 24 24 24 24 24 24 24 24 24 24 24 24 24 24 24 24 24 24 24 24 24 24 24 24 24 24 24 24 24 24 24 24 24 24 24 24 24 24 24 24 24 24 24 24 24 24 24 24 24 24 24 24 24 24 24 24 24 24 24 24 24 24 24 24 24 24 24 24 24 24 24 24 24 24 24 24 24 24 24 24 24 24 24 24 24 24 24 24 24 24 24 24 24 24 24 24 24 24 24 24 24 24 24 24 24 24 24 24 24 24 24 24 24 24 24 24 24 24 24 24 24 24 24 24 24 24 24 24 24 24 24 24 24 24 24 24 24 24 24 24 24 24 24 24 24 24 24 24 24 24 24 24 24 24 24 24 24 24 24 24 24 24 24 24 24 24 24 24 24 24 24 24 24 24 24 24 24 24 24 24 24 24 24 24 24 24 24 24 24 24 24 24 24 24 24 24 24 24 24 24 24 24 24 24 24 24 24 24 24 24 24 24 24 24 24 24 24 24 24 24 24 24 24 24 24 24 24 24 24 24 24 24 24 24 24 24 24 24 24 24 24 24 24 24 24 24 24 24 24 24 24 24 24 24 24 24 24 24 24 24 24 24 24 24 24 24 24 24 24 24 24 24 24 24 24 24 24 24 24 24 24 24 24 24 24 24 24 24 24 24 24 24 24 24 24 24 24 24 24 24 24 24 24 24 24 24 24 24 24 24 24 24 24 24 24 24 24 24 24 24 24 24 24 24 24 24 24 24 24 24 24 24 24 24 24 24 24 24 24 24 24 24 24 24 24 24 24 24 24 24 24 24 24 24 24 24 24 24 24 24 24 24 24 24 24 24 24 24 24 24 24 24 24 24 24 24 24 24 24 24 24 24 24 24 24 24 24 24 24 24 24 24 24 24 24 24 24 24 24 24 24 24 24 24 24 24 24 24 24 24 24 24 24 24 24 24 24 24 24 24 24 24 24 24 24 24 24 24 24 24 24 24 24 24 24 24 24 24 24 24 24 24 24 24 24 24 24 24 24 24 24 24 24 24 24 24 24 24 24 24 24 24 24 24 24 24 24 24 24 24 24 24 24 24 24 24 24 24 24 24 24 24 24 24 24 24 24 24 24 24 24 24 24 24 24 24 24 24 24 24 24 24 24 24 24 24 24 24 24 24 24 24 24 24 24 24 24 24 24 24 24 24 24 24 24 24 24 24 24 24 24 24 24 24 24 24 24 24 24 24 24 24 24 24 24 24 24 24 24 24 24 24 24 24 24 24 24 24 24 24 24 24 24 24 24 24 24 24 24 24 24 24 24 24 24 24 24 24 24 24 24 24 24 24 24 24 24 24 24 24 24 24 24 24 24 24 24 24 24 24 24 24 24 24 24 24 24 24 24 24 24 24 24 24 24 24 24 24 24 24 24 24 24 24 24 24 24 24 24 24 24 24 24 24 24 24 24 24 24 24 24 24 24 24 24 24 24 24 24 24 24 24 24 24 24 24 24 24 24 24 24 24 24 24 24 24 24 24 24 24 24 24 24 24 24 24 24 24 24 24 24 24 24 24 24 24 24 24 24 24 24 24 24 24 24 24 24 24 24 24 24 24 24 24 24 24 24 24 24 24 24 24 24 24 24 24 24 24 24 24 24 24 24 24 24 24 24 24 24 24 24 24 24 24 24 24 24 24 24 24 24 24 24 24 24 24 24 24 24 24 24 24 24 24 24 24 24 24 24 24 24 24 24 24 24 24 24 24 24 24 24 24 24 24 24 24 24 24 24 24 24 24 24 24 24 24 24 24 24 24 24 24 24 24 24 24 24 24 24 24 24 24 24 24 24 24 24 24 24 24 24 24 24 24 24 24 24 24 24 24 24 24 24 24 24 24 24 24 24 24 24 24 24 24 24 24 24 24 24 24 24 24 24 24 24 24 24 24 24 24 24 24 24 24 24 24 24 24 24 24 24 24 24 24 24 24 24 24 24 24 24 24 24 24 24 24 24 24 24 24 24 24 24 24 24 24 24 24 24 24 24 24 24 24 24 24 24 24 24 24 24 24 24 24 24 24 24 24 24 24 24 24 24 24 24 24 24 24 24 24 24 24 24 24 24 24 24 24 24 24 24 24 24 24 24 24 24 24 24 24 24 24 24 24 24 24 24 24 24 24 24 24 24 24 24 24 24 24 24 24 24 24 24 24 24 24 24 24 24 24 24 24 24 24 24 24 24 24 24 24 24 24 24 24 24 24 24 24 24 24 24 24 24 24 24 24 24 24 24 24 24 24 24 24 24 24 24 24 24 24 24 24 24 24 24 24 24 24 24 24 24 24 24 24 24 24 24 24 24 24 24 24 24 24 24 24 24 24 24 24 24 24 24 24 24 24 24 24 24 24 24 24 24 24 24 24 24 24 24 24 24 24 24 24 24 24 24 24 24 24 24 24 24 24 24 24 24 24 24 24 24 24 24 24 24 24 24 24 24 24 24 24 24 24 24 24 24 24 24 24 24 24 24 24 24 24 24 24 24 24 24 24 24 24 24 24 24 24 24 24 24 24 24 24 24 24 24 24 24 24 24 24 24 24 24 24 24 24 24 24 24 24 24 24 24 24 24 24 24 24 24 24 24 24 24 24 24 24 24 24 24 24 24 24 24 24 24 24 24 24 24 24 24 24 24 24 24 24 24 24 24 24 24 24 24 24 24 24 24 24 24 24 24 24 24 24 24 24 24 24 24 24 24 24 24 24 24 24 24 24 24 24 24 24 24 24 24 24 24 24 24 24 24 24 24 24 24 24 24 24 24 24 24 24 24 24 24 24 24 24 24 24 24 24 24 24 24 24 24 24 24 24 24 24 24 24 24 24 24 24 24 24 24 24 24 24 24 24 24 24 24 24 24 24 24 24 24 24 24 24 24 24 24 24 24 24 24 24 24 24 24 24 24 24 24 24 24 24 24 24 24 24 24 24 24 24 24 24 24 24 24 24 24 24 24 24 24 24 24 24 24 24 24 24 24 24 24 24 24 24 24 24 24 24 24 24 24 24 24 24 24 24 24 24 24 24 24 24 24 24 24 24 24 24 24 24 24 24 24 24 24 24 24 24 24 24 24 24 24 24 24 24 24 24 24 24 24 24 24 24 24 24 24 24 24 24 24 24 24 24 24 24 24 24 24 24 24 24 24 24 24 24 24 24 24 24 24 24 24 24 24 24 24 24 24 24 24 24 24 24 24 24 24 24 24 24 24 24 24 24 24 24 24 24 24 24 24 24 24 24 24 24 24 24 24 24 24 24 24 24 24 24 24 24 24 24 24 24 24 24 24 24 24 24 24 24 24 24 24 24 24 24 24 24 24 24 24 24 24 24 24 24 24 24 24 24 24 24 24 24 24 24 24 24 24 24 24 24 24 24 24 24 24 24 24 24 24 24 24 24 24 24 24 24 24 24 24 24 24 24 24 24 24 24 24 24 24 24 24 24 24 24 24 24 24 24 24 24 24 24 24 24 24 24 24 24 24 24 24 24 24 24 24 24 24 24 24 24 24 24 24 24 24 24 24 24 24 24 24 24 24 24 24 24 24 24 24 24 24 24 24 24 24 24 24 24 24 24 24 24 24 24 24 24 24 24 24 24 24 24 24 24 24 24 24 24 24 24 24 24 24 24 24 24 24 24 24 24 24 24 24 24 24 24 24 24 24 24 24 24 24 24 24 24 24 24 24 24 24 24 24 24 24 24 24 24 24 24 24 24 24 24 24 24 24 24 24 24 24 24 24 24 24 24 24 24 24 24 24 24 24 24 24 24 24 24 24 24 24 24 24 24 24 24 24 24 24 24 24 24 24 24 24 24 24 24 24 24 24 24 24 24 24 24 24 24 24 24 24 24 24 24 24 24 24 24 24 24 24 24 24 24 24 24 24 24 24 24 24 24 24 24 24 24 24 24 24 24 24 24 24 24 24 24 24 24 24 24 24 24 24 24 24 24 24 24 24 24 24 24 24 24 24 24 24 24 24 24 24 24 24 24 24 24 24 24 24 24 24 24 24 24 24 24 24 24 24 24 24 24 24 24 24 24 24 24 24 24 24 24 24 24 24 24 24 24 24 24 24 24 24 24 24 24 24 24 24 24 24 24 24 24 24 24 24 24 24 24 24 24 24 24 24 24 24 24 24 24 24 24 24 24 24 24 24 24 24 24 24 24 24 24 24 24 24 24 24 24 24 24 24 24 24 24 24 24 24 24 24 24 24 24 24 24 24 24 24 24 24 24 24 24 24 24 24 24 24 24 24 24 24 24 24 24 24 24 24 24 24 24 24 24 24 24 24 24 24 24 24 24 24 24 24 24 24 24 24 24 24 24 24 24 24 24 24 24 24 24 24 24 24 24 24 24 24 24 24 24 24 24 24 24 24 24 24 24 24 24 24 24 24 24 24 24 24 24 24 24 24 24 24 24 24 24 24 24 24 24 24 24 24 24 24 24 24 24 24 24 24 24 24 24 24 24 24 24 24 24 24 24 24 24 24 24 24 24 24 24 24 24 24 24 24 24 24 24 24 24 24 24 24 24 24 24 24 24 24 24 24 24 24 24 24 24 24 24 24 24 24 24 24 24 24 24 24 24 24 24 24 24 24 24 24 24 24 24 24 24 24 24 24 24 24 24 24 24 24 24 24 24 24 24 24 24 24 24 24 24 24 24 24 24 24 24 24 24 24 24 24 24 24 24 24 24 24 24 24 24 24 24 24 24 24 24 24 24 24 24 24 24 24 24 24 24 24 24 24 24 24 24 24 24 24 24 24 24 24 24 24 24 24 24 24 24 24 24 24 24 24 24 24 24 24 24 24 24 24 24 24 24 24 24 24 24 24 24 24 24 24 24 24 24 24 24 24 24 24 24 24 24 24 24 24 24 24 24 24 24 24 24 24 24 24 24 24 24 24 24 24 24 24 24 24 24 24 24 24 24 24 24 24 24 24 24 24 24 24 24 24 24 24 24 24 24 24 24 24 24 24 24 24 24 24 24 24 24 24 24 24 24 24 24 24 24 24 24 24 24 24 24 24 24 24 24 24 24 24 24 24 24 24 24 24 24 24 24 24 24 24 24 24 24 24 24 24 24 24 24 24 24 24 24 24 24 24 24 24 24 24 24 24 24 24 24 24 24 24 24 24 24 24 24 24 24 24 24 24 24 24 24 24 24 24 24 24 24 24 24 24 24 24 24 24 24 24 24 24 24 24 24 24 24 24 24 24 24 24 24 24 24 24 24 24 24 24 24 24 24 24 24 24 24 24 24 24 24 24 24 24 24 24 24 24 24 24 24 24 24 24 24 24 24 24 24 24 24 24 24 24 24 24 24 24 24 24 24 24 24 24 24 24 24 24 24 24 24 24 24 24 24 24 24 24 24 24 24 24 24 24 24 24 24 24 24 24 24 24 24 24 24 24 24 24 24 24 24 24 24 24 24 24 24 24 24 24 24 24 24 24 24 24 24 24 24 24 24 24 24 24 24 24 24 24 24 24 24 24 24 24 24 24 24 24 24 24 24 24 24 24 24 24 24 24 24 24 24 24 24 24 24 24 24 24 24 24 24 24 24 24 24 24 24 24 24 24 24 24 24 24 24 24 24 24 24 24 24 24 24 24 24 24 24 24 24 24 24 24 24 24 24 24 24 24 24 24 24 24 24 24 24 24 24 24 24 24 24 24 24 24 24 24 24 24 24 24 24 24 24 24 24 24 24 24 24 24 24 24 24 24 24 24 24 24 24 24 24 24 24 24 24 24 24 24 24 24 24 24 24 24 24 24 24 24 24 24 24 24 24 24 24 24 24 24 24 24 24 24 24 24 24 24 24 24 24 24 24 24 24 24 24 24 24 24 24 24 24 24 24 24 24 24 24 24 24 24 24 24 24 24 24 24 24 24 24 24 24 24 24 24 24 24 24 24 24 24 24 24 24 24 

POINT_DATA 18785
SCALARS weights float 1
LOOKUP_TABLE default
0.195312 0.260417 0.260417 0.260417 0.260417 0.260417 0.260417 0.260417 0.260417 0.260416 0.260417 0.260417 0.260417 0.260417 0.260416 0.260417 0.260417 0.260417 0.260417 0.260417 0.260417 0.260417 0.260417 0.260417 0.260416 0.260417 0.260416 0.260417 0.260416 0.260416 0.260417 0.260417 0.0651044 0.260417 0.390625 0.390625 0.390625 0.390625 0.390625 0.390625 0.390625 0.390625 0.390625 0.390625 0.390625 0.390625 0.390625 0.390625 0.390625 0.390625 0.390625 0.390625 0.390625 0.390625 0.390625 0.390625 0.390625 0.390625 0.390625 0.390624 0.390625 0.390625 0.390624 0.390625 0.390625 0.130209 0.260417 0.390625 0.390625 0.390625 0.390625 0.390625 0.390625 0.390625 0.390625 0.390625 0.390625 0.390625 0.390625 0.390625 0.390625 0.390625 0.390625 0.390625 0.390625 0.390625 0.390625 0.390625 0.390625 0.390625 0.390625 0.390625 0.390624 0.390625 0.390625 0.390624 0.390625 0.390625 0.130209 0.260417 0.390625 0.390625 0.390625 0.390625 0.390625 0.390625 0.390625 0.390625 0.390625 0.390625 0.390625 0.390625 0.390625 0.390625 0.390625 0.390625 0.390625 0.390625 0.390625 0.390625 0.390625 0.390625 0.390625 0.390625 0.390625 0.390624 0.390625 0.390625 0.390624 0.390625 0.390625 0.130209 0.260417 0.390625 0.390625 0.390625 0.390625 0.390625 0.390625 0.390625 0.390625 0.390625 0.390625 0.390625 0.390625 0.390625 0.390625 0.390625 0.390625 0.390625 0.390625 0.390625 0.390625 0.390625 0.390625 0.390625 0.390625 0.390625 0.390624 0.390625 0.390625 0.390624 0.390625 0.390625 0.130209 0.260417 0.390625 0.390625 0.390625 0.390625 0.390625 0.390625 0.390625 0.390625 0.390625 0.390625 0.390625 0.390625 0.390625 0.390625 0.390625 0.390625 0.390625 0.390625 0.390625 0.390625 0.390625 0.390625 0.390625 0.390625 0.390625 0.390624 0.390625 0.390625 0.390624 0.390625 0.390625 0.130209 0.260417 0.390625 0.390625 0.390625 0.390625 0.390625 0.390625 0.390625 0.390625 0.390625 0.390625 0.390625 0.390625 0.390625 0.390625 0.390625 0.390625 0.390625 0.390625 0.390626 0.390625 0.390625 0.390625 0.390625 0.390625 0.390625 0.390624 0.390625 0.390625 0.390624 0.390625 0.390625 0.130209 0.260417 0.390625 0.390625 0.390625 0.390625 0.390625 0.390625 0.390625 0.390625 0.390625 0.390625 0.390625 0.390625 0.390625 0.390625 0.390625 0.390625 0.390625 0.390625 0.390625 0.390625 0.390625 0.390625 0.390625 0.390625 0.390625 0.390624 0.390625 0.390625 0.390624 0.390625 0.390625 0.130209 0.0651042 0.130208 0.130208 0.130208 0.130208 0.130208 0.130208 0.130208 0.130208 0.130208 0.130208 0.130208 0.130208 0.130208 0.130208 0.130208 0.130209 0.130208 0.130208 0.130209 0.130208 0.130208 0.130208 0.130208 0.130208 0.130208 0.130208 0.130208 0.130209 0.130208 0.130208 0.130209 0.0651043 0.260417 0.390625 0.390625 0.390625 0.390625 0.390625 0.390625 0.390625 0.390625 0.390625 0.390625 0.390625 0.390625 0.390625 0.390625 0.390625 0.390625 0.390625 0.390625 0.390625 0.390625 0.390625 0.390625 0.390625 0.390625 0.390625 0.390624 0.390625 0.390625 0.390625 0.390625 0.390625 0.130209 0.390625 0.78125 0.78125 0.78125 0.78125 0.78125 0.78125 0.78125 0.78125 0.78125 0.78125 0.78125 0.78125 0.78125 0.78125 0.78125 0.78125 0.781251 0.78125 0.781251 0.78125 0.781251 0.78125 0.78125 0.78125 0.78125 0.781249 0.78125 0.781251 0.781249 0.781251 0.781251 0.390626 0.390625 0.78125 0.78125 0.78125 0.78125 0.78125 0.78125 0.78125 0.78125 0.78125 0.78125 0.78125 0.78125 0.78125 0.78125 0.78125 0.78125 0.781251 0.78125 0.781251 0.781251 0.781251 0.78125 0.78125 0.78125 0.78125 0.781249 0.78125 0.781251 0.781249 0.781251 0.781251 0.390626 0.390625 0.78125 0.78125 0.78125 0.78125 0.78125 0.78125 0.78125 0.78125 0.78125 0.78125 0.78125 0.78125 0.78125 0.78125 0.78125 0.78125 0.781251 0.78125 0.781251 0.78125 0.781251 0.78125 0.78125 0.78125 0.78125 0.781249 0.78125 0.781251 0.781249 0.781251 0.781251 0.390626 0.390625 0.78125 0.78125 0.78125 0.78125 0.78125 0.78125 0.78125 0.78125 0.78125 0.78125 0.78125 0.78125 0.78125 0.78125 0.78125 0.78125 0.78125 0.78125 0.781251 0.78125 0.781251 0.78125 0.78125 0.78125 0.78125 0.781249 0.78125 0.781251 0.781249 0.78125 0.78125 0.390626 0.390625 0.78125 0.78125 0.78125 0.78125 0.78125 0.78125 0.78125 0.78125 0.78125 0.78125 0.78125 0.78125 0.78125 0.78125 0.78125 0.781251 0.781251 0.78125 0.781251 0.781251 0.781251 0.78125 0.78125 0.78125 0.78125 0.781249 0.78125 0.781251 0.781249 0.781251 0.781251 0.390626 0.390625 0.78125 0.78125 0.78125 0.78125 0.78125 0.78125 0.78125 0.78125 0.78125 0.78125 0.781251 0.78125 0.78125 0.78125 0.78125 0.781251 0.781251 0.78125 0.781251 0.781251 0.781251 0.78125 0.78125 0.78125 0.78125 0.781249 0.78125 0.781251 0.781249 0.781251 0.781251 0.390626 0.390625 0.78125 0.78125 0.78125 0.78125 0.78125 0.78125 0.78125 0.78125 0.78125 0.78125 0.78125 0.78125 0.78125 0.78125 0.78125 0.78125 0.78125 0.78125 0.781251 0.78125 0.78125 0.78125 0.78125 0.78125 0.78125 0.781249 0.78125 0.78125 0.781249 0.78125 0.78125 0.390626 0.130208 0.390625 0.390625 0.390625 0.390625 0.390625 0.390625 0.390625 0.390625 0.390625 0.390625 0.390625 0.390625 0.390625 0.390625 0.390625 0.390625 0.390625 0.390625 0.390625 0.390625 0.390625 0.390625 0.390625 0.390625 0.390625 0.390625 0.390625 0.390626 0.390625 0.390625 0.390625 0.260417 0.260417 0.390625 0.390625 0.390625 0.390625 0.390625 0.390625 0.390625 0.390625 0.390625 0.390625 0.390625 0.390625 0.390625 0.390625 0.390625 0.390625 0.390625 0.390625 0.390626 0.390625 0.390625 0.390625 0.390625 0.390625 0.390625 0.390624 0.390625 0.390625 0.390625 0.390625 0.390625 0.130209 0.390625 0.78125 0.78125 0.78125 0.78125 0.78125 0.78125 0.78125 0.78125 0.78125 0.78125 0.781251 0.78125 0.78125 0.78125 0.78125 0.781251 0.781251 0.78125 0.781251 0.781251 0.781251 0.78125 0.781251 0.78125 0.78125 0.781249 0.78125 0.781251 0.78125 0.781251 0.781251 0.390626 0.390625 0.78125 0.78125 0.78125 0.78125 0.78125 0.78125 0.78125 0.78125 0.78125 0.78125 0.781251 0.78125 0.78125 0.78125 0.78125 0.781251 0.781251 0.78125 0.781251 0.781251 0.781251 0.78125 0.78125 0.78125 0.781251 0.78125 0.78125 0.781251 0.78125 0.781251 0.781251 0.390626 0.390625 0.78125 0.78125 0.78125 0.78125 0.78125 0.78125 0.78125 0.78125 0.78125 0.78125 0.781251 0.78125 0.78125 0.78125 0.78125 0.781251 0.781251 0.78125 0.781251 0.781251 0.781251 0.78125 0.78125 0.78125 0.78125 0.781249 0.78125 0.781251 0.78125 0.781251 0.781251 0.390626 0.390625 0.78125 0.78125 0.78125 0.78125 0.78125 0.78125 0.78125 0.78125 0.78125 0.78125 0.781251 0.78125 0.78125 0.78125 0.78125 0.781251 0.781251 0.78125 0.781251 0.781251 0.781251 0.78125 0.78125 0.78125 0.78125 0.781249 0.78125 0.781251 0.781249 0.781251 0.781251 0.390626 0.390625 0.78125 0.78125 0.78125 0.78125 0.78125 0.78125 0.78125 0.78125 0.78125 0.78125 0.781251 0.78125 0.78125 0.78125 0.78125 0.781251 0.781251 0.781251 0.781251 0.781251 0.781251 0.78125 0.781251 0.78125 0.781251 0.781249 0.78125 0.781251 0.78125 0.781251 0.781251 0.390626 0.390625 0.78125 0.78125 0.78125 0.78125 0.78125 0.78125 0.78125 0.78125 0.78125 0.78125 0.781251 0.78125 0.78125 0.78125 0.78125 0.781251 0.781251 0.781251 0.781251 0.781251 0.781251 0.78125 0.781251 0.78125 0.781251 0.78125 0.78125 0.781251 0.78125 0.781251 0.781251 0.390626 0.390625 0.78125 0.78125 0.78125 0.78125 0.78125 0.78125 0.78125 0.78125 0.78125 0.78125 0.781251 0.78125 0.78125 0.78125 0.78125 0.781251 0.781251 0.78125 0.781251 0.78125 0.781251 0.78125 0.78125 0.78125 0.78125 0.781249 0.78125 0.781251 0.781249 0.781251 0.781251 0.390626 0.130208 0.390625 0.390625 0.390625 0.390625 0.390625 0.390625 0.390625 0.390625 0.390625 0.390625 0.390625 0.390625 0.390625 0.390625 0.390625 0.390625 0.390625 0.390625 0.390626 0.390625 0.390625 0.390625 0.390625 0.390625 0.390625 0.390625 0.390625 0.390626 0.390625 0.390625 0.390626 0.260417 0.260417 0.390625 0.390625 0.390625 0.390625 0.390625 0.390625 0.390625 0.390625 0.390625 0.390625 0.390625 0.390625 0.390625 0.390625 0.390625 0.390625 0.390625 0.390625 0.390625 0.390625 0.390625 0.390625 0.390625 0.390625 0.390625 0.390624 0.390625 0.390625 0.390625 0.390625 0.390625 0.130209 0.390625 0.78125 0.78125 0.78125 0.78125 0.78125 0.78125 0.78125 0.78125 0.78125 0.78125 0.781251 0.78125 0.78125 0.78125 0.78125 0.781251 0.781251 0.78125 0.781251 0.781251 0.781251 0.78125 0.78125 0.78125 0.78125 0.781249 0.78125 0.781251 0.78125 0.781251 0.781251 0.390626 0.390625 0.78125 0.78125 0.78125 0.78125 0.78125 0.78125 0.78125 0.78125 0.78125 0.78125 0.781251 0.78125 0.78125 0.78125 0.78125 0.781251 0.781251 0.78125 0.781251 0.781251 0.781251 0.78125 0.78125 0.78125 0.78125 0.78125 0.78125 0.781251 0.78125 0.781251 0.781251 0.390626 0.390625 0.78125 0.78125 0.78125 0.78125 0.78125 0.78125 0.78125 0.78125 0.78125 0.78125 0.781251 0.78125 0.78125 0.78125 0.78125 0.781251 0.781251 0.78125 0.781251 0.781251 0.781251 0.78125 0.78125 0.78125 0.78125 0.781249 0.78125 0.781251 0.781249 0.781251 0.781251 0.390626 0.390625 0.78125 0.78125 0.78125 0.78125 0.78125 0.78125 0.78125 0.78125 0.78125 0.78125 0.781251 0.78125 0.78125 0.78125 0.78125 0.781251 0.781251 0.78125 0.781251 0.781251 0.781251 0.78125 0.78125 0.78125 0.78125 0.781249 0.78125 0.781251 0.781249 0.781251 0.781251 0.390626 0.390625 0.78125 0.78125 0.78125 0.78125 0.78125 0.78125 0.78125 0.78125 0.78125 0.78125 0.781251 0.78125 0.78125 0.78125 0.78125 0.781251 0.781251 0.781251 0.781251 0.781251 0.781251 0.78125 0.781251 0.78125 0.78125 0.78125 0.78125 0.781251 0.78125 0.781251 0.781251 0.390626 0.390625 0.78125 0.78125 0.78125 0.78125 0.78125 0.78125 0.78125 0.78125 0.78125 0.78125 0.781251 0.78125 0.78125 0.78125 0.78125 0.781251 0.781251 0.78125 0.781251 0.781251 0.781251 0.78125 0.781251 0.78125 0.78125 0.78125 0.78125 0.781251 0.78125 0.781251 0.781251 0.390626 0.390625 0.78125 0.78125 0.78125 0.78125 0.78125 0.78125 0.78125 0.78125 0.78125 0.78125 0.78125 0.78125 0.78125 0.78125 0.78125 0.78125 0.781251 0.78125 0.781251 0.78125 0.781251 0.78125 0.78125 0.78125 0.78125 0.781249 0.78125 0.781251 0.781249 0.781251 0.781251 0.390626 0.130208 0.390625 0.390625 0.390625 0.390625 0.390625 0.390625 0.390625 0.390625 0.390625 0.390625 0.390625 0.390625 0.390625 0.390625 0.390625 0.390625 0.390625 0.390625 0.390626 0.390625 0.390625 0.390625 0.390625 0.390625 0.390625 0.390625 0.390625 0.390626 0.390625 0.390625 0.390626 0.260417 0.260417 0.390625 0.390625 0.390625 0.390625 0.390625 0.390625 0.390625 0.390625 0.390625 0.390625 0.390625 0.390625 0.390625 0.390625 0.390625 0.390625 0.390625 0.390625 0.390625 0.390625 0.390625 0.390625 0.390625 0.390625 0.390625 0.390624 0.390625 0.390625 0.390625 0.390625 0.390625 0.130209 0.390625 0.78125 0.78125 0.78125 0.78125 0.78125 0.78125 0.78125 0.78125 0.78125 0.78125 0.78125 0.78125 0.78125 0.78125 0.78125 0.781251 0.781251 0.78125 0.781251 0.781251 0.781251 0.78125 0.78125 0.78125 0.78125 0.781249 0.78125 0.781251 0.781249 0.781251 0.781251 0.390626 0.390625 0.78125 0.78125 0.78125 0.78125 0.78125 0.78125 0.78125 0.78125 0.78125 0.78125 0.781251 0.78125 0.78125 0.78125 0.78125 0.781251 0.781251 0.78125 0.781251 0.781251 0.781251 0.78125 0.78125 0.78125 0.78125 0.781249 0.78125 0.781251 0.781249 0.781251 0.781251 0.390626 0.390625 0.78125 0.78125 0.78125 0.78125 0.78125 0.78125 0.78125 0.78125 0.78125 0.78125 0.781251 0.78125 0.78125 0.78125 0.78125 0.781251 0.781251 0.78125 0.781251 0.781251 0.781251 0.78125 0.78125 0.78125 0.78125 0.781249 0.78125 0.781251 0.781249 0.781251 0.781251 0.390626 0.390625 0.78125 0.78125 0.78125 0.78125 0.78125 0.78125 0.78125 0.78125 0.78125 0.78125 0.78125 0.78125 0.78125 0.78125 0.78125 0.78125 0.781251 0.78125 0.781251 0.78125 0.781251 0.78125 0.78125 0.78125 0.78125 0.781249 0.78125 0.781251 0.781249 0.781251 0.781251 0.390626 0.390625 0.78125 0.78125 0.78125 0.78125 0.78125 0.78125 0.78125 0.78125 0.78125 0.78125 0.781251 0.78125 0.78125 0.78125 0.78125 0.781251 0.781251 0.78125 0.781251 0.781251 0.781251 0.78125 0.781251 0.78125 0.78125 0.78125 0.78125 0.781251 0.781249 0.781251 0.781251 0.390626 0.390625 0.78125 0.78125 0.78125 0.78125 0.78125 0.78125 0.78125 0.78125 0.78125 0.78125 0.781251 0.78125 0.78125 0.78125 0.78125 0.781251 0.781251 0.781251 0.781251 0.781251 0.781251 0.78125 0.781251 0.78125 0.78125 0.781249 0.78125 0.781251 0.78125 0.781251 0.781251 0.390626 0.390625 0.78125 0.78125 0.78125 0.78125 0.78125 0.78125 0.78125 0.78125 0.78125 0.78125 0.78125 0.78125 0.78125 0.78125 0.78125 0.781251 0.781251 0.78125 0.781251 0.78125 0.781251 0.78125 0.78125 0.78125 0.78125 0.781249 0.78125 0.781251 0.781249 0.78125 0.781251 0.390626 0.130208 0.390625 0.390625 0.390625 0.390625 0.390625 0.390625 0.390625 0.390625 0.390625 0.390625 0.390625 0.390625 0.390625 0.390625 0.390625 0.390625 0.390625 0.390625 0.390625 0.390625 0.390625 0.390625 0.390625 0.390625 0.390625 0.390625 0.390625 0.390626 0.390625 0.390625 0.390625 0.260417 0.260417 0.390625 0.390625 0.390625 0.390625 0.390625 0.390625 0.390625 0.390625 0.390625 0.390625 0.390625 0.390625 0.390625 0.390625 0.390625 0.390625 0.390625 0.390625 0.390626 0.390626 0.390626 0.390625 0.390625 0.390625 0.390625 0.390625 0.390625 0.390625 0.390625 0.390625 0.390625 0.130209 0.390625 0.781251 0.781251 0.78125 0.781251 0.781251 0.781251 0.78125 0.78125 0.78125 0.781251 0.781251 0.781251 0.781251 0.78125 0.781251 0.781251 0.781251 0.781251 0.781251 0.781251 0.781251 0.78125 0.781251 0.78125 0.781251 0.78125 0.78125 0.781251 0.78125 0.781251 0.781251 0.390626 0.390625 0.781251 0.781251 0.781251 0.781251 0.781251 0.781251 0.78125 0.78125 0.78125 0.781251 0.781251 0.781251 0.781251 0.78125 0.781251 0.781251 0.781251 0.781251 0.781251 0.781251 0.781251 0.78125 0.781251 0.78125 0.781251 0.78125 0.78125 0.781251 0.78125 0.781251 0.781251 0.390626 0.390625 0.781251 0.781251 0.78125 0.78125 0.781251 0.781251 0.78125 0.78125 0.78125 0.781251 0.781251 0.781251 0.781251 0.78125 0.781251 0.781251 0.781251 0.781251 0.781252 0.781251 0.781251 0.78125 0.781251 0.78125 0.781251 0.78125 0.78125 0.781251 0.78125 0.781251 0.781251 0.390626 0.390625 0.781251 0.781251 0.78125 0.78125 0.78125 0.78125 0.78125 0.78125 0.78125 0.78125 0.781251 0.781251 0.781251 0.78125 0.781251 0.781251 0.781251 0.781251 0.781251 0.781251 0.781251 0.78125 0.781251 0.78125 0.781251 0.78125 0.78125 0.781251 0.78125 0.781251 0.781251 0.390626 0.390625 0.781251 0.781251 0.781251 0.781251 0.781251 0.781251 0.78125 0.78125 0.78125 0.781251 0.781251 0.781251 0.781251 0.78125 0.781251 0.781251 0.781251 0.781251 0.781252 0.781251 0.781251 0.78125 0.781251 0.78125 0.781251 0.78125 0.781251 0.781251 0.78125 0.781251 0.781251 0.390626 0.390625 0.781251 0.781251 0.781251 0.781251 0.781251 0.781251 0.781251 0.78125 0.78125 0.781251 0.781251 0.781251 0.781251 0.78125 0.781251 0.781251 0.781251 0.781251 0.781252 0.781251 0.781251 0.781251 0.781251 0.78125 0.781251 0.78125 0.781251 0.781251 0.78125 0.781251 0.781251 0.390626 0.390625 0.78125 0.78125 0.78125 0.78125 0.78125 0.781251 0.78125 0.78125 0.78125 0.78125 0.781251 0.78125 0.78125 0.78125 0.78125 0.781251 0.781251 0.781251 0.781251 0.781251 0.781251 0.78125 0.781251 0.78125 0.781251 0.78125 0.78125 0.781251 0.78125 0.781251 0.781251 0.390626 0.130208 0.390625 0.390625 0.390625 0.390625 0.390625 0.390625 0.390625 0.390625 0.390625 0.390625 0.390625 0.390625 0.390625 0.390625 0.390625 0.390626 0.390626 0.390625 0.390626 0.390625 0.390626 0.390625 0.390625 0.390625 0.390625 0.390625 0.390625 0.390626 0.390625 0.390625 0.390626 0.260417 0.260417 0.390625 0.390625 0.390625 0.390625 0.390625 0.390625 0.390625 0.390625 0.390625 0.390625 0.390625 0.390625 0.390625 0.390625 0.390625 0.390625 0.390625 0.390625 0.390625 0.390625 0.390625 0.390625 0.390625 0.390625 0.390625 0.390624 0.390625 0.390625 0.390625 0.390625 0.390625 0.130209 0.390625 0.78125 0.78125 0.78125 0.78125 0.78125 0.78125 0.78125 0.78125 0.78125 0.78125 0.78125 0.78125 0.78125 0.78125 0.78125 0.781251 0.781251 0.78125 0.781251 0.781251 0.781251 0.78125 0.78125 0.78125 0.78125 0.781249 0.78125 0.781251 0.781249 0.78125 0.781251 0.390626 0.390625 0.78125 0.78125 0.78125 0.78125 0.78125 0.78125 0.78125 0.78125 0.78125 0.78125 0.781251 0.78125 0.78125 0.78125 0.78125 0.781251 0.781251 0.78125 0.781251 0.781251 0.781251 0.78125 0.78125 0.78125 0.78125 0.781249 0.78125 0.781251 0.781249 0.781251 0.781251 0.390626 0.390625 0.78125 0.78125 0.78125 0.78125 0.78125 0.78125 0.78125 0.78125 0.78125 0.78125 0.781251 0.78125 0.78125 0.78125 0.78125 0.781251 0.781251 0.78125 0.781251 0.781251 0.781251 0.78125 0.78125 0.78125 0.78125 0.781249 0.78125 0.781251 0.781249 0.781251 0.781251 0.390626 0.390625 0.78125 0.78125 0.78125 0.78125 0.78125 0.78125 0.78125 0.78125 0.78125 0.78125 0.781251 0.78125 0.78125 0.78125 0.78125 0.781251 0.781251 0.78125 0.781251 0.781251 0.781251 0.78125 0.78125 0.78125 0.78125 0.781249 0.78125 0.781251 0.781249 0.78125 0.781251 0.390626 0.390625 0.78125 0.78125 0.78125 0.78125 0.78125 0.78125 0.78125 0.78125 0.78125 0.78125 0.781251 0.78125 0.78125 0.78125 0.78125 0.781251 0.781251 0.78125 0.781251 0.781251 0.781251 0.78125 0.781251 0.78125 0.78125 0.781249 0.78125 0.781251 0.781249 0.781251 0.781251 0.390626 0.390625 0.78125 0.78125 0.78125 0.78125 0.78125 0.78125 0.78125 0.78125 0.78125 0.78125 0.781251 0.78125 0.78125 0.78125 0.78125 0.781251 0.781251 0.78125 0.781251 0.781251 0.781251 0.78125 0.781251 0.78125 0.78125 0.781249 0.78125 0.781251 0.78125 0.781251 0.781251 0.390626 0.390625 0.78125 0.78125 0.78125 0.78125 0.78125 0.78125 0.78125 0.78125 0.78125 0.78125 0.781251 0.78125 0.78125 0.78125 0.78125 0.781251 0.781251 0.78125 0.781251 0.78125 0.781251 0.78125 0.78125 0.78125 0.78125 0.781249 0.78125 0.781251 0.781249 0.781251 0.781251 0.390626 0.130208 0.390625 0.390625 0.390625 0.390625 0.390625 0.390625 0.390625 0.390625 0.390625 0.390625 0.390625 0.390625 0.390625 0.390625 0.390625 0.390625 0.390625 0.390625 0.390626 0.390625 0.390625 0.390625 0.390625 0.390625 0.390625 0.390625 0.390625 0.390626 0.390625 0.390625 0.390626 0.260417 0.260417 0.390625 0.390625 0.390625 0.390625 0.390625 0.390625 0.390625 0.390625 0.390625 0.390625 0.390625 0.390625 0.390625 0.390625 0.390625 0.390625 0.390625 0.390625 0.390625 0.390625 0.390625 0.390625 0.390625 0.390625 0.390625 0.390624 0.390625 0.390625 0.390624 0.390625 0.390625 0.130209 0.390625 0.78125 0.78125 0.78125 0.78125 0.78125 0.78125 0.78125 0.78125 0.781249 0.78125 0.78125 0.78125 0.78125 0.78125 0.78125 0.78125 0.78125 0.78125 0.781251 0.78125 0.781251 0.78125 0.78125 0.78125 0.78125 0.781249 0.78125 0.78125 0.781249 0.78125 0.781251 0.390626 0.390625 0.78125 0.78125 0.78125 0.78125 0.78125 0.78125 0.78125 0.78125 0.78125 0.78125 0.78125 0.78125 0.78125 0.78125 0.78125 0.78125 0.781251 0.78125 0.781251 0.78125 0.781251 0.78125 0.78125 0.78125 0.78125 0.781249 0.78125 0.781251 0.781249 0.781251 0.781251 0.390626 0.390625 0.78125 0.78125 0.78125 0.78125 0.78125 0.78125 0.78125 0.78125 0.78125 0.78125 0.78125 0.78125 0.78125 0.78125 0.78125 0.78125 0.78125 0.78125 0.781251 0.78125 0.781251 0.78125 0.78125 0.78125 0.78125 0.781249 0.78125 0.781251 0.781249 0.78125 0.78125 0.390626 0.390625 0.78125 0.78125 0.78125 0.78125 0.78125 0.78125 0.78125 0.78125 0.781249 0.78125 0.78125 0.78125 0.78125 0.78125 0.78125 0.78125 0.78125 0.78125 0.781251 0.78125 0.78125 0.78125 0.78125 0.78125 0.78125 0.781249 0.78125 0.78125 0.781249 0.78125 0.781251 0.390626 0.390625 0.78125 0.78125 0.78125 0.78125 0.78125 0.78125 0.78125 0.78125 0.78125 0.78125 0.781251 0.78125 0.78125 0.78125 0.78125 0.781251 0.781251 0.78125 0.781251 0.78125 0.781251 0.78125 0.78125 0.78125 0.78125 0.781249 0.78125 0.781251 0.781249 0.781251 0.781251 0.390626 0.390625 0.78125 0.78125 0.78125 0.78125 0.78125 0.78125 0.78125 0.78125 0.78125 0.78125 0.78125 0.78125 0.78125 0.78125 0.78125 0.781251 0.781251 0.78125 0.781251 0.781251 0.781251 0.78125 0.78125 0.78125 0.78125 0.781249 0.78125 0.781251 0.781249 0.781251 0.781251 0.390626 0.390625 0.78125 0.78125 0.78125 0.78125 0.78125 0.78125 0.781249 0.781249 0.781249 0.78125 0.78125 0.78125 0.78125 0.781249 0.78125 0.78125 0.78125 0.78125 0.781251 0.78125 0.78125 0.78125 0.78125 0.781249 0.78125 0.781249 0.78125 0.78125 0.781249 0.78125 0.78125 0.390626 0.130208 0.390625 0.390625 0.390625 0.390625 0.390625 0.390625 0.390625 0.390625 0.390625 0.390625 0.390625 0.390625 0.390625 0.390625 0.390625 0.390625 0.390625 0.390625 0.390625 0.390625 0.390625 0.390625 0.390625 0.390625 0.390625 0.390625 0.390625 0.390626 0.390625 0.390625 0.390625 0.260417 0.0651041 0.130208 0.130208 0.130208 0.130208 0.130208 0.130208 0.130208 0.130208 0.130208 0.130208 0.130208 0.130208 0.130208 0.130208 0.130208 0.130208 0.130208 0.130208 0.130208 0.130208 0.130208 0.130208 0.130208 0.130208 0.130208 0.130208 0.130208 0.130208 0.130208 0.130208 0.130208 0.0651043 0.130208 0.390625 0.390625 0.390625 0.390625 0.390625 0.390625 0.390625 0.390625 0.390625 0.390625 0.390625 0.390625 0.390625 0.390625 0.390625 0.390625 0.390625 0.390625 0.390625 0.390625 0.390625 0.390625 0.390625 0.390625 0.390625 0.390625 0.390624 0.390626 0.390625 0.390625 0.390625 0.260417 0.130208 0.390625 0.390625 0.390625 0.390625 0.390625 0.390625 0.390625 0.390625 0.390625 0.390625 0.390625 0.390625 0.390625 0.390625 0.390625 0.390625 0.390625 0.390625 0.390625 0.390625 0.390625 0.390625 0.390625 0.390625 0.390625 0.390625 0.390625 0.390626 0.390625 0.390625 0.390625 0.260417 0.130208 0.390625 0.390625 0.390625 0.390625 0.390625 0.390625 0.390625 0.390625 0.390625 0.390625 0.390625 0.390625 0.390625 0.390625 0.390625 0.390625 0.390625 0.390625 0.390625 0.390625 0.390625 0.390625 0.390625 0.390625 0.390625 0.390625 0.390625 0.390626 0.390625 0.390625 0.390625 0.260417 0.130208 0.390625 0.390625 0.390625 0.390625 0.390625 0.390625 0.390625 0.390625 0.390625 0.390625 0.390625 0.390625 0.390625 0.390625 0.390625 0.390625 0.390625 0.390625 0.390625 0.390625 0.390625 0.390625 0.390625 0.390625 0.390625 0.390625 0.390624 0.390626 0.390625 0.390625 0.390625 0.260417 0.130208 0.390625 0.390625 0.390625 0.390625 0.390625 0.390625 0.390625 0.390625 0.390625 0.390625 0.390625 0.390625 0.390625 0.390625 0.390625 0.390625 0.390625 0.390625 0.390625 0.390625 0.390625 0.390625 0.390625 0.390625 0.390625 0.390625 0.390625 0.390626 0.390625 0.390625 0.390625 0.260417 0.130208 0.390625 0.390625 0.390625 0.390625 0.390625 0.390625 0.390625 0.390625 0.390625 0.390625 0.390625 0.390625 0.390625 0.390625 0.390625 0.390625 0.390625 0.390625 0.390626 0.390625 0.390625 0.390625 0.390625 0.390625 0.390625 0.390625 0.390625 0.390626 0.390625 0.390625 0.390625 0.260417 0.130208 0.390625 0.390625 0.390625 0.390625 0.390625 0.390625 0.390625 0.390625 0.390625 0.390625 0.390625 0.390625 0.390625 0.390625 0.390625 0.390625 0.390625 0.390625 0.390625 0.390625 0.390625 0.390625 0.390625 0.390625 0.390625 0.390625 0.390624 0.390625 0.390625 0.390625 0.390625 0.260417 0.0651041 0.260417 0.260416 0.260417 0.260416 0.260416 0.260416 0.260416 0.260416 0.260416 0.260416 0.260417 0.260417 0.260416 0.260416 0.260416 0.260417 0.260417 0.260417 0.260417 0.260417 0.260417 0.260416 0.260416 0.260417 0.260416 0.260417 0.260416 0.260417 0.260416 0.260417 0.260417 0.195313 0.0651042 0.130208 0.195312 0.0651042 0.0976563 0.195312 0.130208 0.195312 0.0976562 0.0651041 0.0651041 0.0976562 0.0651041 0.195312 0.0976562 0.0976562 0.0651041 0.130208 0.0976563 0.130208 0.195312 0.0651042 0.0976562 0.195312 0.130208 0.195312 0.0976562 0.0651041 0.195312 0.0976562 0.0651041 0.130208 0.0976563 0.130208 0.195312 0.0651042 0.0976563 0.195312 0.130208 0.195312 0.0976562 0.0651041 0.195313 0.0976562 0.0651042 0.130208 0.0976562 0.130208 0.195312 0.0651042 0.0976562 0.195312 0.130208 0.195312 0.0976562 0.0651041 0.195312 0.0976562 0.0651041 0.130208 0.0976563 0.130208 0.195312 0.0651042 0.0976562 0.195312 0.130208 0.195312 0.0976562 0.0651041 0.195312 0.0976562 0.0651041 0.130208 0.0976562 0.130208 0.195312 0.0651042 0.0976563 0.195312 0.130208 0.195312 0.0976563 0.0651042 0.195313 0.0976562 0.0651042 0.130208 0.0976562 0.130208 0.195312 0.0651042 0.0976562 0.195312 0.130208 0.195312 0.0976562 0.0651041 0.195312 0.0976561 0.0651041 0.130208 0.0976562 0.130208 0.195312 0.0651042 0.0976563 0.195312 0.130208 0.195312 0.0976562 0.0651041 0.195312 0.0976562 0.0651041 0.130208 0.0976563 0.130208 0.195312 0.0651041 0.0976562 0.195312 0.130208 0.195312 0.0976561 0.0651041 0.195312 0.0976562 0.0651041 0.130208 0.0976562 0.130208 0.195312 0.0651041 0.0976562 0.195312 0.130208 0.195312 0.0976562 0.0651041 0.195312 0.0976562 0.0651041 0.130208 0.0976563 0.130208 0.195313 0.0651042 0.0976563 0.195313 0.130208 0.195313 0.0976563 0.0651042 0.195313 0.0976562 0.0651042 0.130208 0.0976563 0.130208 0.195313 0.0651042 0.0976563 0.195312 0.130208 0.195312 0.0976562 0.0651041 0.195313 0.0976562 0.0651041 0.130208 0.0976562 0.130208 0.195312 0.0651042 0.0976563 0.195313 0.130208 0.195312 0.0976563 0.0651042 0.195312 0.0976563 0.0651042 0.130208 0.0976563 0.130208 0.195312 0.0651042 0.0976562 0.195312 0.130208 0.195312 0.0976563 0.0651042 0.195312 0.0976562 0.0651041 0.130208 0.0976562 0.130208 0.195312 0.0651041 0.0976562 0.195312 0.130208 0.195313 0.0976562 0.0651041 0.195312 0.0976562 0.0651041 0.130208 0.0976564 0.130208 0.195313 0.0651042 0.0976563 0.195313 0.130208 0.195313 0.0976562 0.0651041 0.195313 0.0976562 0.0651041 0.130208 0.0976563 0.130208 0.195313 0.0651042 0.0976563 0.195313 0.130208 0.195313 0.0976563 0.0651042 0.195313 0.0976563 0.0651042 0.130208 0.0976563 0.130208 0.195312 0.0651041 0.0976562 0.195312 0.130208 0.195312 0.0976562 0.0651041 0.195313 0.0976562 0.065104 0.130208 0.0976562 0.130208 0.195313 0.0651042 0.0976563 0.195313 0.130208 0.195313 0.0976563 0.0651042 0.195313 0.0976564 0.0651042 0.130209 0.0976565 0.130208 0.195313 0.0651041 0.0976561 0.195313 0.130208 0.195312 0.0976561 0.0651041 0.195313 0.0976563 0.065104 0.130208 0.0976562 0.130208 0.195313 0.0651042 0.0976564 0.195313 0.130209 0.195313 0.0976564 0.0651043 0.195313 0.0976563 0.0651043 0.130208 0.0976563 0.130208 0.195312 0.0651041 0.0976562 0.195312 0.130208 0.195312 0.0976562 0.0651042 0.195312 0.0976562 0.0651041 0.130208 0.0976562 0.130208 0.195312 0.0651042 0.0976563 0.195313 0.130208 0.195313 0.0976563 0.0651042 0.195312 0.0976563 0.0651041 0.130208 0.0976563 0.130208 0.195313 0.0651042 0.0976563 0.195312 0.130208 0.195312 0.0976563 0.0651042 0.195313 0.0976562 0.0651041 0.130208 0.0976561 0.130208 0.195312 0.065104 0.0976561 0.195312 0.130208 0.195313 0.0976561 0.0651041 0.195312 0.0976562 0.065104 0.130208 0.0976564 0.130209 0.195313 0.0651042 0.0976562 0.195312 0.130208 0.195312 0.0976562 0.0651041 0.195313 0.097656 0.0651041 0.130208 0.0976561 0.130208 0.195312 0.065104 0.097656 0.195312 0.130208 0.195312 0.097656 0.065104 0.195312 0.0976562 0.065104 0.130208 0.0976564 0.130209 0.195313 0.0651043 0.0976564 0.195313 0.130209 0.195313 0.0976564 0.0651043 0.195313 0.0976563 0.0651042 0.130208 0.0976564 0.130208 0.195312 0.065104 0.0976558 0.195312 0.130208 0.195312 0.0976558 0.0651039 0.195312 0.0976562 0.0651037 0.130208 0.0976561 0.130208 0.195312 0.0651041 0.097656 0.195313 0.130208 0.195313 0.097656 0.0651041 0.195312 0.0976563 0.0651039 0.130208 0.0976563 0.130209 0.195313 0.0651042 0.0976562 0.195312 0.130209 0.195313 0.0976562 0.0651042 0.195313 0.0976561 0.065104 0.130208 0.0976564 0.130209 0.195313 0.0651044 0.0976565 0.0976565 0.130208 0.0976564 0.0976564 0.0651042 0.195313 0.0325522 0.0651044 0.0651044 0.0325522 0.0651042 0.130208 0.195312 0.0651042 0.0976562 0.195312 0.130208 0.195312 0.0976562 0.0651042 0.195312 0.0976562 0.130208 0.0976563 0.130208 0.195312 0.0651042 0.0976562 0.195312 0.130208 0.195312 0.195312 0.130208 0.0976563 0.130208 0.195312 0.0651042 0.0976563 0.195312 0.130208 0.195312 0.195312 0.130208 0.0976562 0.130208 0.195312 0.0651042 0.0976562 0.195312 0.130208 0.195312 0.195312 0.130208 0.0976563 0.130208 0.195312 0.0651042 0.0976562 0.195312 0.130208 0.195312 0.195312 0.130208 0.0976562 0.130208 0.195313 0.0651042 0.0976563 0.195312 0.130208 0.195312 0.195313 0.130208 0.0976562 0.130208 0.195312 0.0651042 0.0976562 0.195312 0.130208 0.195312 0.195312 0.130208 0.0976562 0.130208 0.195312 0.0651042 0.0976562 0.195312 0.130208 0.195312 0.195312 0.130208 0.0976563 0.130208 0.195312 0.0651041 0.0976562 0.195312 0.130208 0.195312 0.195312 0.130208 0.0976562 0.130208 0.195312 0.0651042 0.0976562 0.195312 0.130208 0.195312 0.195312 0.130208 0.0976563 0.130208 0.195313 0.0651042 0.0976563 0.195313 0.130208 0.195313 0.195313 0.130208 0.0976564 0.130208 0.195313 0.0651042 0.0976563 0.195312 0.130208 0.195312 0.195313 0.130208 0.0976562 0.130208 0.195312 0.0651042 0.0976563 0.195313 0.130208 0.195312 0.195312 0.130208 0.0976563 0.130208 0.195312 0.0651042 0.0976562 0.195312 0.130208 0.195312 0.195312 0.130208 0.0976562 0.130208 0.195312 0.0651041 0.0976562 0.195312 0.130208 0.195313 0.195312 0.130208 0.0976564 0.130208 0.195313 0.0651042 0.0976563 0.195313 0.130208 0.195313 0.195313 0.130208 0.0976564 0.130208 0.195313 0.0651042 0.0976563 0.195313 0.130208 0.195313 0.195313 0.130208 0.0976563 0.130208 0.195313 0.0651041 0.0976561 0.195312 0.130208 0.195312 0.195313 0.130208 0.0976562 0.130208 0.195313 0.0651042 0.0976563 0.195313 0.130208 0.195313 0.195313 0.130209 0.0976565 0.130208 0.195313 0.0651041 0.0976561 0.195313 0.130208 0.195312 0.195313 0.130208 0.0976562 0.130208 0.195313 0.0651042 0.0976564 0.195313 0.130209 0.195313 0.195313 0.130208 0.0976563 0.130208 0.195312 0.0651041 0.0976562 0.195312 0.130208 0.195312 0.195312 0.130208 0.0976562 0.130208 0.195312 0.0651042 0.0976563 0.195313 0.130208 0.195313 0.195312 0.130208 0.0976563 0.130208 0.195313 0.0651042 0.0976563 0.195312 0.130208 0.195312 0.195313 0.130208 0.0976561 0.130208 0.195312 0.065104 0.0976561 0.195312 0.130208 0.195313 0.195312 0.130208 0.0976564 0.130209 0.195313 0.0651042 0.0976562 0.195312 0.130208 0.195312 0.195313 0.130208 0.0976561 0.130208 0.195312 0.065104 0.097656 0.195312 0.130208 0.195313 0.195312 0.130208 0.0976564 0.130209 0.195313 0.0651043 0.0976564 0.195313 0.130209 0.195313 0.195313 0.130208 0.0976564 0.130208 0.195312 0.065104 0.0976558 0.195312 0.130208 0.195312 0.195312 0.130208 0.0976561 0.130208 0.195312 0.0651041 0.097656 0.195313 0.130208 0.195313 0.195312 0.130208 0.0976563 0.130209 0.195313 0.0651042 0.0976562 0.195312 0.130209 0.195313 0.195313 0.130208 0.0976564 0.130209 0.195313 0.0651044 0.0976565 0.0976565 0.130208 0.0976564 0.195313 0.0651044 0.0325522 0.0651042 0.130208 0.195312 0.0651042 0.0976562 0.195312 0.130208 0.195313 0.0976562 0.0651042 0.195312 0.0976563 0.130208 0.0976563 0.130208 0.195312 0.0651042 0.0976562 0.195312 0.130208 0.195312 0.195312 0.130208 0.0976563 0.130208 0.195312 0.0651042 0.0976562 0.195312 0.130208 0.195312 0.195313 0.130208 0.0976563 0.130208 0.195312 0.0651042 0.0976562 0.195312 0.130208 0.195312 0.195312 0.130208 0.0976563 0.130208 0.195312 0.0651042 0.0976562 0.195312 0.130208 0.195312 0.195312 0.130208 0.0976563 0.130208 0.195312 0.0651042 0.0976562 0.195312 0.130208 0.195313 0.195313 0.130208 0.0976562 0.130208 0.195312 0.0651042 0.0976562 0.195312 0.130208 0.195312 0.195312 0.130208 0.0976563 0.130208 0.195312 0.0651042 0.0976562 0.195312 0.130208 0.195312 0.195312 0.130208 0.0976563 0.130208 0.195312 0.0651041 0.0976562 0.195312 0.130208 0.195312 0.195312 0.130208 0.0976562 0.130208 0.195312 0.0651042 0.0976562 0.195312 0.130208 0.195313 0.195312 0.130208 0.0976563 0.130208 0.195313 0.0651042 0.0976563 0.195313 0.130208 0.195313 0.195313 0.130208 0.0976564 0.130208 0.195313 0.0651042 0.0976563 0.195312 0.130208 0.195312 0.195313 0.130208 0.0976562 0.130208 0.195312 0.0651042 0.0976563 0.195313 0.130208 0.195313 0.195312 0.130208 0.0976563 0.130208 0.195313 0.0651042 0.0976562 0.195312 0.130208 0.195312 0.195312 0.130208 0.0976562 0.130208 0.195312 0.0651041 0.0976562 0.195312 0.130208 0.195313 0.195312 0.130208 0.0976564 0.130208 0.195313 0.0651042 0.0976563 0.195313 0.130208 0.195313 0.195313 0.130208 0.0976564 0.130208 0.195313 0.0651042 0.0976563 0.195313 0.130208 0.195313 0.195313 0.130208 0.0976563 0.130208 0.195313 0.0651041 0.0976561 0.195312 0.130208 0.195312 0.195313 0.130208 0.0976562 0.130208 0.195313 0.0651042 0.0976563 0.195313 0.130208 0.195313 0.195313 0.130209 0.0976565 0.130209 0.195313 0.0651041 0.0976561 0.195313 0.130208 0.195312 0.195313 0.130208 0.0976562 0.130208 0.195313 0.0651042 0.0976564 0.195313 0.130209 0.195313 0.195313 0.130208 0.0976564 0.130208 0.195313 0.0651041 0.0976562 0.195312 0.130208 0.195312 0.195313 0.130208 0.0976562 0.130208 0.195312 0.0651042 0.0976563 0.195313 0.130208 0.195313 0.195312 0.130208 0.0976563 0.130208 0.195313 0.0651042 0.0976563 0.195312 0.130208 0.195312 0.195313 0.130208 0.0976561 0.130208 0.195312 0.065104 0.097656 0.195312 0.130208 0.195313 0.195312 0.130208 0.0976564 0.130209 0.195313 0.0651042 0.0976562 0.195312 0.130208 0.195312 0.195313 0.130208 0.0976561 0.130208 0.195312 0.065104 0.097656 0.195312 0.130208 0.195313 0.195312 0.130208 0.0976564 0.130209 0.195313 0.0651043 0.0976564 0.195313 0.130209 0.195313 0.195313 0.130208 0.0976564 0.130208 0.195312 0.065104 0.0976558 0.195312 0.130208 0.195312 0.195312 0.130208 0.0976561 0.130208 0.195313 0.0651041 0.097656 0.195313 0.130208 0.195313 0.195313 0.130208 0.0976563 0.130209 0.195313 0.0651042 0.0976562 0.195312 0.130209 0.195313 0.195313 0.130208 0.0976564 0.130209 0.195313 0.0651044 0.0976565 0.0976565 0.130208 0.0976564 0.195313 0.0651044 0.0325522 0.0651042 0.130208 0.195312 0.0651041 0.0976562 0.195312 0.130208 0.195312 0.0976562 0.0651041 0.195312 0.0976562 0.130208 0.0976562 0.130208 0.195312 0.0651041 0.0976562 0.195312 0.130208 0.195312 0.195312 0.130208 0.0976562 0.130208 0.195312 0.0651042 0.0976563 0.195312 0.130208 0.195312 0.195312 0.130208 0.0976562 0.130208 0.195312 0.0651041 0.0976562 0.195312 0.130208 0.195312 0.195312 0.130208 0.0976562 0.130208 0.195312 0.0651041 0.0976562 0.195312 0.130208 0.195312 0.195312 0.130208 0.0976562 0.130208 0.195312 0.0651042 0.0976563 0.195312 0.130208 0.195312 0.195313 0.130208 0.0976562 0.130208 0.195312 0.0651041 0.0976562 0.195312 0.130208 0.195312 0.195312 0.130208 0.0976562 0.130208 0.195312 0.0651042 0.0976562 0.195312 0.130208 0.195312 0.195312 0.130208 0.0976562 0.130208 0.195312 0.0651041 0.0976562 0.195312 0.130208 0.195312 0.195312 0.130208 0.0976562 0.130208 0.195312 0.0651041 0.0976562 0.195312 0.130208 0.195312 0.195312 0.130208 0.0976562 0.130208 0.195313 0.0651042 0.0976563 0.195313 0.130208 0.195313 0.195313 0.130208 0.0976563 0.130208 0.195312 0.0651042 0.0976563 0.195312 0.130208 0.195312 0.195313 0.130208 0.0976562 0.130208 0.195312 0.0651041 0.0976563 0.195312 0.130208 0.195312 0.195312 0.130208 0.0976562 0.130208 0.195312 0.0651041 0.0976562 0.195312 0.130208 0.195312 0.195312 0.130208 0.0976562 0.130208 0.195312 0.0651041 0.0976562 0.195312 0.130208 0.195313 0.195312 0.130208 0.0976563 0.130208 0.195313 0.0651042 0.0976563 0.195313 0.130208 0.195313 0.195313 0.130208 0.0976563 0.130208 0.195313 0.0651042 0.0976563 0.195313 0.130208 0.195313 0.195313 0.130208 0.0976563 0.130208 0.195312 0.0651041 0.0976562 0.195312 0.130208 0.195312 0.195312 0.130208 0.0976562 0.130208 0.195313 0.0651042 0.0976563 0.195313 0.130208 0.195313 0.195313 0.130209 0.0976565 0.130208 0.195313 0.0651041 0.0976561 0.195312 0.130208 0.195312 0.195313 0.130208 0.0976562 0.130208 0.195313 0.0651042 0.0976564 0.195313 0.130209 0.195313 0.195313 0.130208 0.0976563 0.130208 0.195312 0.0651041 0.0976562 0.195312 0.130208 0.195312 0.195312 0.130208 0.0976562 0.130208 0.195312 0.0651042 0.0976563 0.195313 0.130208 0.195313 0.195312 0.130208 0.0976563 0.130208 0.195312 0.0651042 0.0976563 0.195312 0.130208 0.195312 0.195313 0.130208 0.0976561 0.130208 0.195312 0.065104 0.0976561 0.195312 0.130208 0.195313 0.195312 0.130208 0.0976564 0.130209 0.195313 0.0651042 0.0976562 0.195312 0.130208 0.195312 0.195313 0.130208 0.0976561 0.130208 0.195312 0.065104 0.097656 0.195312 0.130208 0.195312 0.195312 0.130208 0.0976564 0.130209 0.195313 0.0651043 0.0976564 0.195313 0.130209 0.195313 0.195313 0.130208 0.0976563 0.130208 0.195312 0.065104 0.0976558 0.195312 0.130208 0.195312 0.195312 0.130208 0.0976561 0.130208 0.195312 0.0651041 0.097656 0.195313 0.130208 0.195313 0.195312 0.130208 0.0976563 0.130209 0.195313 0.0651041 0.0976562 0.195312 0.130209 0.195313 0.195313 0.130208 0.0976563 0.130209 0.195313 0.0651043 0.0976565 0.0976565 0.130208 0.0976564 0.195313 0.0651044 0.0325522 0.0651042 0.130208 0.195312 0.0651042 0.0976563 0.195312 0.130208 0.195312 0.0976562 0.0651041 0.195312 0.0976562 0.130208 0.0976563 0.130208 0.195312 0.0651042 0.0976563 0.195312 0.130208 0.195312 0.195312 0.130208 0.0976563 0.130208 0.195312 0.0651042 0.0976563 0.195312 0.130208 0.195312 0.195312 0.130208 0.0976562 0.130208 0.195312 0.0651042 0.0976562 0.195312 0.130208 0.195312 0.195312 0.130208 0.0976563 0.130208 0.195312 0.0651042 0.0976563 0.195312 0.130208 0.195312 0.195312 0.130208 0.0976563 0.130208 0.195312 0.0651042 0.0976563 0.195312 0.130208 0.195312 0.195313 0.130208 0.0976562 0.130208 0.195312 0.0651042 0.0976563 0.195312 0.130208 0.195312 0.195312 0.130208 0.0976562 0.130208 0.195312 0.0651042 0.0976563 0.195312 0.130208 0.195312 0.195312 0.130208 0.0976563 0.130208 0.195312 0.0651041 0.0976562 0.195312 0.130208 0.195312 0.195312 0.130208 0.0976562 0.130208 0.195312 0.0651041 0.0976562 0.195312 0.130208 0.195312 0.195312 0.130208 0.0976563 0.130208 0.195313 0.0651042 0.0976563 0.195313 0.130208 0.195313 0.195313 0.130208 0.0976564 0.130208 0.195313 0.0651042 0.0976563 0.195312 0.130208 0.195312 0.195313 0.130208 0.0976562 0.130208 0.195312 0.0651042 0.0976563 0.195313 0.130208 0.195312 0.195312 0.130208 0.0976563 0.130208 0.195312 0.0651042 0.0976563 0.195312 0.130208 0.195312 0.195313 0.130208 0.0976562 0.130208 0.195312 0.0651041 0.0976562 0.195312 0.130208 0.195313 0.195312 0.130208 0.0976564 0.130208 0.195313 0.0651042 0.0976563 0.195313 0.130208 0.195313 0.195313 0.130208 0.0976564 0.130209 0.195313 0.0651042 0.0976563 0.195313 0.130208 0.195313 0.195313 0.130208 0.0976563 0.130208 0.195313 0.0651041 0.0976562 0.195312 0.130208 0.195312 0.195313 0.130208 0.0976562 0.130208 0.195313 0.0651042 0.0976563 0.195313 0.130208 0.195313 0.195313 0.130209 0.0976565 0.130208 0.195313 0.0651041 0.0976561 0.195313 0.130208 0.195312 0.195313 0.130208 0.0976562 0.130208 0.195313 0.0651042 0.0976564 0.195313 0.130209 0.195313 0.195313 0.130208 0.0976563 0.130208 0.195312 0.0651041 0.0976562 0.195312 0.130208 0.195312 0.195312 0.130208 0.0976562 0.130208 0.195312 0.0651042 0.0976563 0.195313 0.130208 0.195313 0.195312 0.130208 0.0976563 0.130208 0.195313 0.0651042 0.0976563 0.195312 0.130208 0.195312 0.195313 0.130208 0.0976561 0.130208 0.195312 0.065104 0.0976561 0.195313 0.130208 0.195313 0.195312 0.130208 0.0976564 0.130209 0.195313 0.0651042 0.0976563 0.195312 0.130208 0.195312 0.195313 0.130208 0.0976561 0.130208 0.195312 0.065104 0.0976561 0.195312 0.130208 0.195312 0.195312 0.130208 0.0976564 0.130209 0.195313 0.0651043 0.0976564 0.195313 0.130209 0.195313 0.195313 0.130208 0.0976564 0.130208 0.195312 0.065104 0.0976558 0.195312 0.130208 0.195312 0.195312 0.130208 0.0976561 0.130208 0.195312 0.0651041 0.097656 0.195313 0.130208 0.195313 0.195313 0.130208 0.0976563 0.130209 0.195313 0.0651042 0.0976562 0.195312 0.130209 0.195313 0.195313 0.130208 0.0976564 0.130209 0.195313 0.0651044 0.0976565 0.0976565 0.130208 0.0976564 0.195313 0.0651044 0.0325522 0.0651042 0.130208 0.195313 0.0651042 0.0976563 0.195312 0.130208 0.195313 0.0976562 0.0651042 0.195313 0.0976563 0.130208 0.0976563 0.130208 0.195313 0.0651042 0.0976563 0.195312 0.130208 0.195313 0.195313 0.130208 0.0976563 0.130208 0.195313 0.0651042 0.0976563 0.195312 0.130208 0.195313 0.195313 0.130208 0.0976563 0.130208 0.195312 0.0651042 0.0976563 0.195312 0.130208 0.195313 0.195313 0.130208 0.0976563 0.130208 0.195313 0.0651042 0.0976562 0.195312 0.130208 0.195313 0.195312 0.130208 0.0976563 0.130208 0.195313 0.0651042 0.0976563 0.195312 0.130208 0.195313 0.195313 0.130208 0.0976563 0.130208 0.195312 0.0651042 0.0976563 0.195312 0.130208 0.195312 0.195312 0.130208 0.0976563 0.130208 0.195312 0.0651042 0.0976563 0.195312 0.130208 0.195313 0.195312 0.130208 0.0976563 0.130208 0.195312 0.0651042 0.0976562 0.195312 0.130208 0.195312 0.195312 0.130208 0.0976563 0.130208 0.195312 0.0651042 0.0976562 0.195312 0.130208 0.195313 0.195312 0.130208 0.0976563 0.130208 0.195313 0.0651042 0.0976563 0.195313 0.130208 0.195313 0.195313 0.130208 0.0976564 0.130208 0.195313 0.0651042 0.0976563 0.195312 0.130208 0.195312 0.195313 0.130208 0.0976563 0.130208 0.195313 0.0651042 0.0976563 0.195313 0.130208 0.195313 0.195313 0.130208 0.0976563 0.130208 0.195313 0.0651042 0.0976563 0.195312 0.130208 0.195312 0.195313 0.130208 0.0976562 0.130208 0.195312 0.0651042 0.0976562 0.195312 0.130208 0.195313 0.195312 0.130208 0.0976564 0.130208 0.195313 0.0651043 0.0976563 0.195313 0.130208 0.195313 0.195313 0.130208 0.0976564 0.130209 0.195313 0.0651043 0.0976564 0.195313 0.130208 0.195313 0.195313 0.130208 0.0976564 0.130208 0.195313 0.0651041 0.0976562 0.195312 0.130208 0.195313 0.195313 0.130208 0.0976562 0.130208 0.195313 0.0651042 0.0976564 0.195313 0.130208 0.195313 0.195313 0.130209 0.0976565 0.130209 0.195313 0.0651042 0.0976562 0.195313 0.130208 0.195313 0.195313 0.130208 0.0976562 0.130208 0.195313 0.0651043 0.0976564 0.195313 0.130209 0.195313 0.195313 0.130208 0.0976564 0.130208 0.195313 0.0651041 0.0976562 0.195312 0.130208 0.195313 0.195313 0.130208 0.0976562 0.130208 0.195313 0.0651042 0.0976563 0.195313 0.130208 0.195313 0.195313 0.130208 0.0976563 0.130208 0.195313 0.0651042 0.0976563 0.195312 0.130208 0.195312 0.195313 0.130208 0.0976562 0.130208 0.195312 0.0651041 0.0976561 0.195312 0.130208 0.195313 0.195312 0.130208 0.0976564 0.130209 0.195313 0.0651042 0.0976563 0.195312 0.130208 0.195312 0.195313 0.130208 0.0976561 0.130208 0.195312 0.0651041 0.0976561 0.195312 0.130208 0.195313 0.195312 0.130208 0.0976564 0.130209 0.195313 0.0651043 0.0976565 0.195313 0.130209 0.195313 0.195313 0.130209 0.0976564 0.130208 0.195312 0.065104 0.0976558 0.195312 0.130208 0.195312 0.195312 0.130208 0.0976561 0.130208 0.195313 0.0651041 0.097656 0.195313 0.130208 0.195313 0.195313 0.130208 0.0976563 0.130209 0.195313 0.0651042 0.0976562 0.195312 0.130209 0.195313 0.195313 0.130208 0.0976564 0.130209 0.195313 0.0651044 0.0976566 0.0976566 0.130208 0.0976565 0.195313 0.0651044 0.0325522 0.0651042 0.130208 0.195312 0.0651042 0.0976562 0.195312 0.130208 0.195312 0.0976562 0.0651042 0.195312 0.0976563 0.130208 0.0976563 0.130208 0.195312 0.0651042 0.0976562 0.195312 0.130208 0.195312 0.195312 0.130208 0.0976563 0.130208 0.195313 0.0651042 0.0976562 0.195312 0.130208 0.195313 0.195312 0.130208 0.0976563 0.130208 0.195312 0.0651042 0.0976562 0.195312 0.130208 0.195312 0.195312 0.130208 0.0976563 0.130208 0.195312 0.0651042 0.0976562 0.195312 0.130208 0.195312 0.195312 0.130208 0.0976563 0.130208 0.195313 0.0651042 0.0976562 0.195312 0.130208 0.195312 0.195312 0.130208 0.0976563 0.130208 0.195312 0.0651042 0.0976562 0.195312 0.130208 0.195312 0.195312 0.130208 0.0976563 0.130208 0.195312 0.0651042 0.0976562 0.195312 0.130208 0.195312 0.195312 0.130208 0.0976563 0.130208 0.195312 0.0651041 0.0976561 0.195312 0.130208 0.195312 0.195312 0.130208 0.0976563 0.130208 0.195312 0.0651042 0.0976562 0.195312 0.130208 0.195312 0.195312 0.130208 0.0976563 0.130208 0.195313 0.0651042 0.0976563 0.195313 0.130208 0.195313 0.195313 0.130208 0.0976564 0.130208 0.195313 0.0651042 0.0976562 0.195312 0.130208 0.195312 0.195313 0.130208 0.0976563 0.130208 0.195312 0.0651042 0.0976562 0.195312 0.130208 0.195313 0.195312 0.130208 0.0976563 0.130208 0.195312 0.0651042 0.0976562 0.195312 0.130208 0.195312 0.195312 0.130208 0.0976562 0.130208 0.195312 0.0651042 0.0976562 0.195312 0.130208 0.195313 0.195312 0.130208 0.0976564 0.130208 0.195313 0.0651043 0.0976563 0.195313 0.130208 0.195313 0.195313 0.130208 0.0976564 0.130208 0.195313 0.0651042 0.0976563 0.195313 0.130208 0.195313 0.195313 0.130208 0.0976564 0.130208 0.195313 0.0651041 0.0976561 0.195312 0.130208 0.195312 0.195312 0.130208 0.0976562 0.130208 0.195313 0.0651042 0.0976563 0.195313 0.130208 0.195313 0.195313 0.130209 0.0976565 0.130208 0.195313 0.0651042 0.0976561 0.195312 0.130208 0.195312 0.195313 0.130208 0.0976562 0.130208 0.195313 0.0651043 0.0976563 0.195313 0.130209 0.195313 0.195313 0.130208 0.0976564 0.130208 0.195312 0.0651041 0.0976561 0.195312 0.130208 0.195313 0.195312 0.130208 0.0976562 0.130208 0.195312 0.0651042 0.0976562 0.195313 0.130208 0.195313 0.195312 0.130208 0.0976563 0.130208 0.195313 0.0651042 0.0976562 0.195312 0.130208 0.195312 0.195313 0.130208 0.0976562 0.130208 0.195312 0.0651041 0.097656 0.195312 0.130208 0.195313 0.195312 0.130208 0.0976564 0.130209 0.195313 0.0651042 0.0976562 0.195312 0.130208 0.195312 0.195313 0.130208 0.0976561 0.130208 0.195312 0.0651041 0.097656 0.195312 0.130208 0.195313 0.195312 0.130208 0.0976564 0.130209 0.195313 0.0651043 0.0976564 0.195313 0.130209 0.195313 0.195313 0.130208 0.0976564 0.130208 0.195312 0.065104 0.0976558 0.195312 0.130208 0.195312 0.195312 0.130208 0.0976561 0.130208 0.195312 0.0651041 0.097656 0.195313 0.130208 0.195313 0.195312 0.130208 0.0976563 0.130209 0.195313 0.0651042 0.0976561 0.195312 0.130209 0.195313 0.195313 0.130208 0.0976564 0.130209 0.195313 0.0651044 0.0976565 0.0976565 0.130208 0.0976564 0.195313 0.0651044 0.0325522 0.0651042 0.0651042 0.195312 0.0651041 0.0325521 0.0976562 0.130208 0.195312 0.0325521 0.0651041 0.0976562 0.0976562 0.130208 0.0976562 0.0651042 0.195312 0.0651041 0.0325521 0.0976562 0.130208 0.195312 0.0976562 0.130208 0.0976562 0.0651042 0.195312 0.0651041 0.0325521 0.0976562 0.130208 0.195312 0.0976562 0.130208 0.0976562 0.0651042 0.195312 0.0651041 0.0325521 0.0976562 0.130208 0.195312 0.0976562 0.130208 0.0976562 0.0651042 0.195312 0.0651041 0.0325521 0.0976562 0.130208 0.195312 0.0976562 0.130208 0.0976562 0.0651042 0.195312 0.0651041 0.0325521 0.0976562 0.130208 0.195312 0.0976562 0.130208 0.0976562 0.0651042 0.195312 0.0651041 0.0325521 0.0976562 0.130208 0.195312 0.0976562 0.130208 0.0976562 0.0651042 0.195312 0.0651041 0.0325521 0.0976563 0.130208 0.195312 0.0976562 0.130208 0.0976562 0.0651042 0.195312 0.0651041 0.0325521 0.0976562 0.130208 0.195312 0.0976562 0.130208 0.0976562 0.0651042 0.195312 0.0651041 0.0325521 0.0976562 0.130208 0.195312 0.0976562 0.130208 0.0976562 0.0651042 0.195312 0.0651042 0.0325521 0.0976563 0.130208 0.195313 0.0976563 0.130208 0.0976563 0.0651043 0.195312 0.0651042 0.0325522 0.0976563 0.130208 0.195312 0.0976563 0.130208 0.0976562 0.0651042 0.195312 0.0651041 0.0325521 0.0976562 0.130208 0.195312 0.0976562 0.130208 0.0976562 0.0651042 0.195312 0.0651041 0.0325521 0.0976562 0.130208 0.195312 0.0976562 0.130208 0.0976562 0.0651041 0.195312 0.0651041 0.0325521 0.0976562 0.130208 0.195312 0.0976562 0.130208 0.0976564 0.0651043 0.195312 0.0651042 0.0325522 0.0976564 0.130208 0.195312 0.0976564 0.130208 0.0976563 0.0651043 0.195313 0.0651042 0.0325522 0.0976564 0.130208 0.195313 0.0976564 0.130208 0.0976563 0.0651043 0.195312 0.0651041 0.0325521 0.0976562 0.130208 0.195312 0.0976563 0.130208 0.0976562 0.0651042 0.195313 0.0651042 0.0325521 0.0976564 0.130208 0.195313 0.0976563 0.130208 0.0976565 0.0651044 0.195312 0.0651041 0.0325522 0.0976562 0.130208 0.195312 0.0976565 0.130208 0.0976562 0.0651042 0.195313 0.0651042 0.0325521 0.0976563 0.130208 0.195313 0.0976564 0.130208 0.0976563 0.0651042 0.195312 0.0651041 0.0325521 0.0976561 0.130208 0.195312 0.0976562 0.130208 0.0976562 0.0651042 0.195312 0.0651042 0.0325521 0.0976562 0.130208 0.195312 0.0976562 0.130208 0.0976563 0.0651042 0.195312 0.0651042 0.0325522 0.0976562 0.130208 0.195312 0.0976563 0.130208 0.0976561 0.0651041 0.195312 0.065104 0.032552 0.0976562 0.130208 0.195313 0.0976561 0.130208 0.0976564 0.0651044 0.195313 0.0651042 0.0325522 0.0976562 0.130208 0.195312 0.0976565 0.130208 0.0976561 0.0651041 0.195312 0.065104 0.032552 0.0976562 0.130208 0.195312 0.097656 0.130208 0.0976564 0.0651044 0.195313 0.0651043 0.0325522 0.0976564 0.130209 0.195313 0.0976565 0.130208 0.0976564 0.0651043 0.195312 0.0651039 0.0325521 0.0976561 0.130208 0.195312 0.0976564 0.130208 0.0976561 0.0651043 0.195312 0.065104 0.0325522 0.0976563 0.130208 0.195313 0.0976565 0.130208 0.0976563 0.0651044 0.195313 0.0651041 0.0325522 0.0976563 0.130208 0.195312 0.0976566 0.130208 0.0976564 0.0651044 0.195313 0.0651043 0.0325522 0.0651043 0.130208 0.0976563 0.0976564 0.0651043 0.0325521 0.130208 0.195312 0.195313 0.130208 0.195313 0.0976562 0.0651041 0.0651042 0.0976562 0.0651042 0.195313 0.0976563 0.0976562 0.130208 0.130208 0.195313 0.195313 0.130208 0.195313 0.0976562 0.0651042 0.195313 0.0976562 0.130208 0.130208 0.195313 0.195313 0.130208 0.195313 0.0976563 0.0651042 0.195313 0.0976562 0.130208 0.130208 0.195312 0.195312 0.130208 0.195313 0.0976562 0.0651042 0.195313 0.0976562 0.130208 0.130208 0.195312 0.195313 0.130208 0.195313 0.0976562 0.0651041 0.195313 0.0976562 0.130208 0.130208 0.195313 0.195312 0.130208 0.195313 0.0976563 0.0651042 0.195313 0.0976562 0.130208 0.130208 0.195312 0.195312 0.130208 0.195312 0.0976562 0.0651042 0.195313 0.0976562 0.130208 0.130208 0.195312 0.195312 0.130208 0.195312 0.0976562 0.0651041 0.195312 0.0976562 0.130208 0.130208 0.195312 0.195312 0.130208 0.195312 0.0976562 0.0651041 0.195312 0.0976562 0.130208 0.130208 0.195312 0.195313 0.130208 0.195313 0.0976562 0.0651041 0.195313 0.0976562 0.130208 0.130208 0.195313 0.195313 0.130208 0.195313 0.0976563 0.0651042 0.195313 0.0976563 0.130208 0.130208 0.195313 0.195313 0.130208 0.195312 0.0976562 0.0651042 0.195313 0.0976562 0.130208 0.130208 0.195313 0.195313 0.130208 0.195313 0.0976563 0.0651042 0.195313 0.0976563 0.130208 0.130208 0.195313 0.195312 0.130208 0.195312 0.0976563 0.0651042 0.195313 0.0976562 0.130208 0.130208 0.195312 0.195313 0.130208 0.195313 0.0976562 0.0651041 0.195312 0.0976562 0.130208 0.130208 0.195313 0.195313 0.130208 0.195313 0.0976562 0.0651042 0.195313 0.0976562 0.130208 0.130209 0.195313 0.195313 0.130208 0.195313 0.0976563 0.0651042 0.195313 0.0976563 0.130208 0.130208 0.195313 0.195312 0.130208 0.195313 0.0976562 0.0651042 0.195313 0.0976563 0.130208 0.130208 0.195313 0.195313 0.130209 0.195313 0.0976564 0.0651042 0.195313 0.0976564 0.130209 0.130209 0.195313 0.195313 0.130208 0.195313 0.0976561 0.0651041 0.195313 0.0976563 0.130208 0.130208 0.195313 0.195313 0.130209 0.195313 0.0976564 0.0651043 0.195313 0.0976563 0.130208 0.130208 0.195313 0.195312 0.130208 0.195313 0.0976563 0.0651042 0.195313 0.0976562 0.130208 0.130208 0.195312 0.195313 0.130208 0.195313 0.0976563 0.0651042 0.195313 0.0976563 0.130208 0.130208 0.195313 0.195312 0.130208 0.195312 0.0976563 0.0651042 0.195313 0.0976562 0.130208 0.130208 0.195312 0.195313 0.130208 0.195313 0.0976561 0.0651041 0.195312 0.0976563 0.130208 0.130209 0.195313 0.195312 0.130209 0.195312 0.0976562 0.0651042 0.195313 0.097656 0.130208 0.130208 0.195312 0.195313 0.130208 0.195313 0.097656 0.065104 0.195312 0.0976563 0.130208 0.130209 0.195313 0.195313 0.130209 0.195313 0.0976564 0.0651043 0.195313 0.0976563 0.130209 0.130208 0.195312 0.195312 0.130208 0.195312 0.0976558 0.0651039 0.195312 0.0976562 0.130208 0.130208 0.195313 0.195313 0.130208 0.195313 0.0976561 0.0651041 0.195313 0.0976563 0.130208 0.130209 0.195313 0.195312 0.130209 0.195313 0.0976562 0.0651042 0.195313 0.0976561 0.130208 0.130209 0.195313 0.0976566 0.130208 0.0976564 0.0976565 0.0651042 0.195313 0.0325522 0.0651044 0.130208 0.195312 0.195313 0.130208 0.195313 0.0976562 0.0651042 0.195313 0.0976563 0.130208 0.130208 0.195313 0.195313 0.130208 0.195313 0.195313 0.130208 0.130208 0.195313 0.195313 0.130208 0.195313 0.195313 0.130208 0.130208 0.195312 0.195312 0.130208 0.195313 0.195313 0.130208 0.130208 0.195313 0.195313 0.130208 0.195313 0.195313 0.130208 0.130208 0.195313 0.195313 0.130208 0.195313 0.195313 0.130208 0.130208 0.195312 0.195312 0.130208 0.195313 0.195313 0.130208 0.130208 0.195312 0.195313 0.130208 0.195313 0.195312 0.130208 0.130208 0.195312 0.195312 0.130208 0.195312 0.195312 0.130208 0.130208 0.195312 0.195313 0.130208 0.195313 0.195312 0.130208 0.130208 0.195313 0.195313 0.130208 0.195313 0.195313 0.130208 0.130208 0.195313 0.195313 0.130208 0.195313 0.195313 0.130208 0.130208 0.195313 0.195313 0.130208 0.195313 0.195313 0.130208 0.130208 0.195313 0.195312 0.130208 0.195313 0.195313 0.130208 0.130208 0.195312 0.195313 0.130208 0.195313 0.195312 0.130208 0.130208 0.195313 0.195313 0.130208 0.195313 0.195313 0.130208 0.130209 0.195313 0.195313 0.130208 0.195313 0.195313 0.130208 0.130208 0.195313 0.195312 0.130208 0.195313 0.195313 0.130208 0.130208 0.195313 0.195313 0.130209 0.195313 0.195313 0.130209 0.130209 0.195313 0.195313 0.130208 0.195313 0.195313 0.130208 0.130208 0.195313 0.195313 0.130209 0.195313 0.195313 0.130208 0.130208 0.195313 0.195312 0.130208 0.195313 0.195313 0.130208 0.130208 0.195313 0.195313 0.130208 0.195313 0.195313 0.130208 0.130208 0.195313 0.195312 0.130208 0.195312 0.195313 0.130208 0.130208 0.195312 0.195313 0.130208 0.195313 0.195312 0.130208 0.130209 0.195313 0.195312 0.130209 0.195312 0.195313 0.130208 0.130208 0.195312 0.195313 0.130208 0.195313 0.195312 0.130208 0.130209 0.195313 0.195313 0.130209 0.195313 0.195313 0.130209 0.130208 0.195312 0.195312 0.130208 0.195312 0.195312 0.130208 0.130208 0.195313 0.195313 0.130209 0.195313 0.195313 0.130208 0.130209 0.195313 0.195312 0.130209 0.195313 0.195313 0.130208 0.130209 0.195313 0.0976566 0.130208 0.0976565 0.195313 0.0651044 0.130208 0.195313 0.195312 0.130208 0.195313 0.0976562 0.0651042 0.195313 0.0976563 0.130208 0.130208 0.195313 0.195313 0.130208 0.195313 0.195313 0.130208 0.130208 0.195313 0.195313 0.130208 0.195313 0.195313 0.130208 0.130208 0.195313 0.195312 0.130208 0.195313 0.195313 0.130208 0.130208 0.195312 0.195313 0.130208 0.195313 0.195313 0.130208 0.130208 0.195313 0.195313 0.130208 0.195313 0.195313 0.130208 0.130208 0.195312 0.195312 0.130208 0.195313 0.195313 0.130208 0.130208 0.195312 0.195313 0.130208 0.195313 0.195312 0.130208 0.130208 0.195312 0.195312 0.130208 0.195312 0.195312 0.130208 0.130208 0.195312 0.195313 0.130208 0.195313 0.195313 0.130208 0.130208 0.195313 0.195313 0.130208 0.195313 0.195313 0.130208 0.130208 0.195313 0.195313 0.130208 0.195313 0.195313 0.130208 0.130208 0.195313 0.195313 0.130208 0.195313 0.195313 0.130208 0.130208 0.195313 0.195312 0.130208 0.195313 0.195313 0.130208 0.130208 0.195312 0.195313 0.130208 0.195313 0.195312 0.130208 0.130208 0.195313 0.195313 0.130208 0.195313 0.195313 0.130208 0.130209 0.195313 0.195313 0.130208 0.195313 0.195313 0.130208 0.130208 0.195313 0.195312 0.130208 0.195313 0.195313 0.130208 0.130208 0.195313 0.195313 0.130209 0.195313 0.195313 0.130209 0.130209 0.195313 0.195313 0.130208 0.195313 0.195313 0.130208 0.130209 0.195313 0.195313 0.130209 0.195313 0.195313 0.130209 0.130208 0.195313 0.195312 0.130208 0.195313 0.195313 0.130208 0.130208 0.195313 0.195313 0.130208 0.195313 0.195313 0.130208 0.130208 0.195313 0.195312 0.130208 0.195312 0.195313 0.130208 0.130208 0.195312 0.195313 0.130208 0.195313 0.195312 0.130208 0.130209 0.195313 0.195312 0.130209 0.195312 0.195313 0.130208 0.130208 0.195312 0.195313 0.130208 0.195313 0.195312 0.130208 0.130209 0.195313 0.195313 0.130209 0.195313 0.195313 0.130209 0.130208 0.195312 0.195312 0.130208 0.195312 0.195312 0.130208 0.130208 0.195313 0.195313 0.130209 0.195313 0.195313 0.130208 0.130209 0.195313 0.195312 0.130209 0.195313 0.195313 0.130208 0.130209 0.195313 0.0976566 0.130208 0.0976564 0.195313 0.0651044 0.130208 0.195312 0.195312 0.130208 0.195313 0.0976562 0.0651042 0.195313 0.0976563 0.130208 0.130208 0.195312 0.195312 0.130208 0.195313 0.195313 0.130208 0.130208 0.195312 0.195312 0.130208 0.195313 0.195313 0.130208 0.130208 0.195312 0.195312 0.130208 0.195313 0.195313 0.130208 0.130208 0.195312 0.195312 0.130208 0.195313 0.195313 0.130208 0.130208 0.195313 0.195312 0.130208 0.195313 0.195313 0.130208 0.130208 0.195312 0.195312 0.130208 0.195312 0.195312 0.130208 0.130208 0.195312 0.195312 0.130208 0.195312 0.195312 0.130208 0.130208 0.195312 0.195312 0.130208 0.195312 0.195312 0.130208 0.130208 0.195312 0.195312 0.130208 0.195313 0.195312 0.130208 0.130208 0.195313 0.195313 0.130208 0.195313 0.195313 0.130208 0.130208 0.195313 0.195312 0.130208 0.195312 0.195313 0.130208 0.130208 0.195312 0.195313 0.130208 0.195313 0.195313 0.130208 0.130208 0.195312 0.195312 0.130208 0.195312 0.195313 0.130208 0.130208 0.195312 0.195312 0.130208 0.195313 0.195312 0.130208 0.130208 0.195313 0.195313 0.130208 0.195313 0.195313 0.130208 0.130209 0.195313 0.195313 0.130208 0.195313 0.195313 0.130208 0.130208 0.195313 0.195312 0.130208 0.195313 0.195313 0.130208 0.130208 0.195313 0.195313 0.130208 0.195313 0.195313 0.130209 0.130209 0.195313 0.195313 0.130208 0.195313 0.195313 0.130208 0.130208 0.195313 0.195313 0.130209 0.195313 0.195313 0.130208 0.130208 0.195312 0.195312 0.130208 0.195312 0.195313 0.130208 0.130208 0.195312 0.195313 0.130208 0.195313 0.195313 0.130208 0.130208 0.195313 0.195312 0.130208 0.195312 0.195313 0.130208 0.130208 0.195312 0.195313 0.130208 0.195313 0.195312 0.130208 0.130209 0.195313 0.195312 0.130208 0.195312 0.195313 0.130208 0.130208 0.195312 0.195312 0.130208 0.195313 0.195312 0.130208 0.130209 0.195313 0.195313 0.130209 0.195313 0.195313 0.130208 0.130208 0.195312 0.195312 0.130208 0.195312 0.195312 0.130208 0.130208 0.195312 0.195313 0.130208 0.195313 0.195313 0.130208 0.130209 0.195313 0.195312 0.130209 0.195313 0.195313 0.130208 0.130209 0.195313 0.0976565 0.130208 0.0976564 0.195313 0.0651044 0.130208 0.195312 0.195313 0.130208 0.195313 0.0976563 0.0651042 0.195313 0.0976563 0.130208 0.130208 0.195312 0.195313 0.130208 0.195313 0.195313 0.130208 0.130208 0.195313 0.195313 0.130208 0.195313 0.195313 0.130208 0.130208 0.195312 0.195313 0.130208 0.195313 0.195313 0.130208 0.130208 0.195312 0.195313 0.130208 0.195313 0.195313 0.130208 0.130208 0.195313 0.195313 0.130208 0.195313 0.195313 0.130208 0.130208 0.195312 0.195312 0.130208 0.195312 0.195313 0.130208 0.130208 0.195312 0.195313 0.130208 0.195313 0.195312 0.130208 0.130208 0.195312 0.195312 0.130208 0.195312 0.195312 0.130208 0.130208 0.195312 0.195313 0.130208 0.195313 0.195313 0.130208 0.130208 0.195313 0.195313 0.130208 0.195313 0.195313 0.130208 0.130208 0.195313 0.195313 0.130208 0.195313 0.195313 0.130208 0.130208 0.195313 0.195313 0.130208 0.195313 0.195313 0.130208 0.130208 0.195313 0.195312 0.130208 0.195313 0.195313 0.130208 0.130208 0.195312 0.195313 0.130208 0.195313 0.195312 0.130208 0.130208 0.195313 0.195313 0.130208 0.195313 0.195313 0.130208 0.130209 0.195313 0.195313 0.130208 0.195313 0.195313 0.130208 0.130208 0.195313 0.195313 0.130208 0.195313 0.195313 0.130208 0.130208 0.195313 0.195313 0.130209 0.195313 0.195313 0.130209 0.130209 0.195313 0.195313 0.130208 0.195313 0.195313 0.130208 0.130209 0.195313 0.195313 0.130209 0.195313 0.195313 0.130208 0.130208 0.195313 0.195312 0.130208 0.195313 0.195313 0.130208 0.130208 0.195313 0.195313 0.130208 0.195313 0.195313 0.130208 0.130208 0.195313 0.195313 0.130208 0.195312 0.195313 0.130208 0.130208 0.195312 0.195313 0.130208 0.195313 0.195312 0.130208 0.130209 0.195313 0.195312 0.130209 0.195312 0.195313 0.130208 0.130208 0.195312 0.195313 0.130208 0.195313 0.195312 0.130208 0.130209 0.195313 0.195313 0.130209 0.195313 0.195313 0.130209 0.130208 0.195312 0.195312 0.130208 0.195312 0.195312 0.130208 0.130208 0.195312 0.195313 0.130208 0.195313 0.195313 0.130208 0.130209 0.195313 0.195313 0.130209 0.195313 0.195313 0.130208 0.130209 0.195313 0.0976566 0.130208 0.0976564 0.195313 0.0651044 0.130208 0.195313 0.195313 0.130208 0.195313 0.0976562 0.0651042 0.195313 0.0976564 0.130208 0.130208 0.195313 0.195313 0.130208 0.195313 0.195313 0.130208 0.130208 0.195313 0.195313 0.130208 0.195313 0.195313 0.130208 0.130208 0.195313 0.195313 0.130208 0.195313 0.195313 0.130208 0.130208 0.195313 0.195313 0.130208 0.195313 0.195313 0.130208 0.130208 0.195313 0.195313 0.130208 0.195313 0.195313 0.130208 0.130208 0.195313 0.195312 0.130208 0.195313 0.195313 0.130208 0.130208 0.195312 0.195313 0.130208 0.195313 0.195313 0.130208 0.130208 0.195313 0.195312 0.130208 0.195313 0.195313 0.130208 0.130208 0.195313 0.195313 0.130208 0.195313 0.195313 0.130208 0.130208 0.195313 0.195313 0.130208 0.195313 0.195313 0.130208 0.130208 0.195313 0.195313 0.130208 0.195313 0.195313 0.130208 0.130208 0.195313 0.195313 0.130208 0.195313 0.195313 0.130208 0.130208 0.195313 0.195312 0.130208 0.195313 0.195313 0.130208 0.130208 0.195312 0.195313 0.130208 0.195313 0.195312 0.130208 0.130208 0.195313 0.195313 0.130208 0.195313 0.195313 0.130208 0.130209 0.195313 0.195313 0.130209 0.195313 0.195313 0.130209 0.130208 0.195313 0.195313 0.130208 0.195313 0.195313 0.130208 0.130208 0.195313 0.195313 0.130209 0.195313 0.195313 0.130209 0.130209 0.195313 0.195313 0.130209 0.195313 0.195313 0.130208 0.130209 0.195313 0.195313 0.130209 0.195313 0.195313 0.130209 0.130208 0.195313 0.195312 0.130208 0.195313 0.195313 0.130208 0.130208 0.195313 0.195313 0.130208 0.195313 0.195313 0.130208 0.130208 0.195313 0.195312 0.130209 0.195313 0.195313 0.130208 0.130208 0.195312 0.195313 0.130208 0.195313 0.195312 0.130208 0.130209 0.195313 0.195312 0.130209 0.195312 0.195313 0.130208 0.130208 0.195312 0.195313 0.130208 0.195313 0.195312 0.130208 0.130209 0.195313 0.195313 0.130209 0.195313 0.195313 0.130209 0.130208 0.195312 0.195312 0.130208 0.195312 0.195312 0.130208 0.130208 0.195313 0.195313 0.130209 0.195313 0.195313 0.130208 0.130209 0.195313 0.195313 0.130209 0.195313 0.195313 0.130208 0.130209 0.195313 0.0976566 0.130209 0.0976565 0.195313 0.0651044 0.130208 0.195313 0.195312 0.130208 0.195313 0.0976562 0.0651042 0.195312 0.0976563 0.130208 0.130208 0.195313 0.195312 0.130208 0.195313 0.195312 0.130208 0.130208 0.195313 0.195312 0.130208 0.195313 0.195313 0.130208 0.130208 0.195313 0.195312 0.130208 0.195313 0.195312 0.130208 0.130208 0.195313 0.195312 0.130208 0.195313 0.195312 0.130208 0.130208 0.195313 0.195312 0.130208 0.195313 0.195313 0.130208 0.130208 0.195312 0.195312 0.130208 0.195312 0.195312 0.130208 0.130208 0.195312 0.195312 0.130208 0.195313 0.195312 0.130208 0.130208 0.195312 0.195312 0.130208 0.195312 0.195312 0.130208 0.130208 0.195312 0.195312 0.130208 0.195313 0.195312 0.130208 0.130208 0.195313 0.195313 0.130208 0.195313 0.195313 0.130208 0.130208 0.195313 0.195312 0.130208 0.195313 0.195313 0.130208 0.130208 0.195313 0.195313 0.130208 0.195313 0.195312 0.130208 0.130208 0.195313 0.195312 0.130208 0.195313 0.195313 0.130208 0.130208 0.195312 0.195312 0.130208 0.195313 0.195312 0.130208 0.130208 0.195313 0.195313 0.130208 0.195313 0.195313 0.130208 0.130208 0.195313 0.195313 0.130208 0.195313 0.195313 0.130208 0.130208 0.195313 0.195312 0.130208 0.195313 0.195313 0.130208 0.130208 0.195313 0.195313 0.130209 0.195313 0.195313 0.130209 0.130208 0.195313 0.195313 0.130208 0.195313 0.195313 0.130208 0.130208 0.195313 0.195313 0.130209 0.195313 0.195313 0.130209 0.130208 0.195313 0.195312 0.130208 0.195313 0.195312 0.130208 0.130208 0.195313 0.195313 0.130208 0.195313 0.195312 0.130208 0.130208 0.195313 0.195312 0.130208 0.195312 0.195313 0.130208 0.130208 0.195312 0.195312 0.130208 0.195313 0.195312 0.130208 0.130209 0.195313 0.195312 0.130209 0.195312 0.195313 0.130208 0.130208 0.195312 0.195312 0.130208 0.195313 0.195312 0.130208 0.130209 0.195313 0.195313 0.130209 0.195313 0.195313 0.130209 0.130208 0.195312 0.195312 0.130208 0.195312 0.195312 0.130208 0.130208 0.195313 0.195313 0.130208 0.195313 0.195313 0.130208 0.130209 0.195313 0.195312 0.130209 0.195313 0.195313 0.130208 0.130209 0.195313 0.0976566 0.130208 0.0976564 0.195313 0.0651044 0.0651042 0.195312 0.0976563 0.130208 0.195312 0.0325521 0.0651041 0.0976563 0.0976563 0.130208 0.0651042 0.195312 0.0976563 0.130208 0.195312 0.0976563 0.130208 0.0651042 0.195312 0.0976563 0.130208 0.195312 0.0976563 0.130208 0.0651042 0.195312 0.0976562 0.130208 0.195312 0.0976563 0.130208 0.0651042 0.195312 0.0976562 0.130208 0.195312 0.0976563 0.130208 0.0651042 0.195312 0.0976562 0.130208 0.195312 0.0976563 0.130208 0.0651042 0.195312 0.0976562 0.130208 0.195312 0.0976563 0.130208 0.0651042 0.195312 0.0976563 0.130208 0.195312 0.0976562 0.130208 0.0651042 0.195312 0.0976562 0.130208 0.195312 0.0976563 0.130208 0.0651042 0.195312 0.0976563 0.130208 0.195312 0.0976563 0.130208 0.0651042 0.195313 0.0976563 0.130208 0.195313 0.0976564 0.130208 0.0651043 0.195312 0.0976563 0.130208 0.195312 0.0976564 0.130208 0.0651042 0.195312 0.0976562 0.130208 0.195312 0.0976562 0.130208 0.0651042 0.195312 0.0976562 0.130208 0.195312 0.0976563 0.130208 0.0651041 0.195312 0.0976563 0.130208 0.195313 0.0976562 0.130208 0.0651043 0.195313 0.0976564 0.130208 0.195313 0.0976564 0.130208 0.0651043 0.195313 0.0976564 0.130208 0.195313 0.0976564 0.130208 0.0651043 0.195312 0.0976562 0.130208 0.195312 0.0976564 0.130208 0.0651042 0.195313 0.0976564 0.130208 0.195313 0.0976563 0.130209 0.0651044 0.195313 0.0976562 0.130208 0.195312 0.0976565 0.130208 0.0651042 0.195313 0.0976564 0.130209 0.195313 0.0976564 0.130208 0.0651042 0.195312 0.0976562 0.130208 0.195312 0.0976563 0.130208 0.0651042 0.195312 0.0976563 0.130208 0.195313 0.0976563 0.130208 0.0651042 0.195313 0.0976563 0.130208 0.195312 0.0976563 0.130208 0.0651041 0.195312 0.0976562 0.130208 0.195313 0.0976562 0.130208 0.0651044 0.195313 0.0976562 0.130208 0.195312 0.0976566 0.130208 0.0651041 0.195312 0.0976562 0.130208 0.195312 0.097656 0.130208 0.0651044 0.195313 0.0976565 0.130209 0.195313 0.0976565 0.130208 0.0651043 0.195312 0.0976561 0.130208 0.195312 0.0976564 0.130208 0.0651043 0.195312 0.0976563 0.130208 0.195313 0.0976565 0.130208 0.0651044 0.195313 0.0976564 0.130209 0.195313 0.0976566 0.130208 0.0651044 0.195313 0.0651043 0.130208 0.0976564 0.0976564 0.0651043 0.130208 0.195313 0.195313 0.130208 0.195313 0.0976562 0.0651042 0.0651042 0.0976563 0.0651042 0.195313 0.0976563 0.0976563 0.130208 0.130208 0.195313 0.195313 0.130208 0.195313 0.0976562 0.0651042 0.195313 0.0976563 0.130208 0.130208 0.195313 0.195313 0.130208 0.195313 0.0976562 0.0651042 0.195313 0.0976563 0.130208 0.130208 0.195313 0.195313 0.130208 0.195313 0.0976562 0.0651042 0.195313 0.0976563 0.130208 0.130208 0.195313 0.195313 0.130208 0.195313 0.0976562 0.0651042 0.195313 0.0976563 0.130208 0.130208 0.195313 0.195313 0.130208 0.195313 0.0976562 0.0651042 0.195313 0.0976563 0.130208 0.130208 0.195313 0.195312 0.130208 0.195312 0.0976562 0.0651042 0.195313 0.0976562 0.130208 0.130208 0.195312 0.195313 0.130208 0.195312 0.0976562 0.0651041 0.195312 0.0976562 0.130208 0.130208 0.195312 0.195313 0.130208 0.195312 0.0976561 0.0651041 0.195312 0.0976562 0.130208 0.130208 0.195313 0.195313 0.130208 0.195313 0.0976562 0.0651042 0.195312 0.0976563 0.130208 0.130208 0.195313 0.195313 0.130208 0.195313 0.0976563 0.0651042 0.195313 0.0976563 0.130208 0.130208 0.195313 0.195313 0.130208 0.195312 0.0976562 0.0651042 0.195313 0.0976562 0.130208 0.130208 0.195313 0.195313 0.130208 0.195313 0.0976563 0.0651042 0.195313 0.0976563 0.130208 0.130208 0.195313 0.195313 0.130208 0.195312 0.0976563 0.0651042 0.195313 0.0976562 0.130208 0.130208 0.195312 0.195313 0.130208 0.195313 0.0976562 0.0651041 0.195312 0.0976563 0.130208 0.130209 0.195313 0.195313 0.130208 0.195313 0.0976562 0.0651042 0.195313 0.0976563 0.130208 0.130209 0.195313 0.195313 0.130208 0.195313 0.0976563 0.0651042 0.195313 0.0976564 0.130208 0.130208 0.195313 0.195313 0.130208 0.195313 0.0976562 0.0651042 0.195313 0.0976563 0.130208 0.130208 0.195313 0.195313 0.130208 0.195313 0.0976563 0.0651042 0.195313 0.0976564 0.130209 0.130209 0.195313 0.195313 0.130208 0.195313 0.0976561 0.0651041 0.195313 0.0976563 0.130208 0.130209 0.195313 0.195313 0.130209 0.195313 0.0976564 0.0651043 0.195313 0.0976564 0.130209 0.130208 0.195313 0.195312 0.130208 0.195312 0.0976562 0.0651042 0.195313 0.0976563 0.130208 0.130208 0.195313 0.195313 0.130208 0.195313 0.0976562 0.0651042 0.195313 0.0976564 0.130208 0.130209 0.195313 0.195313 0.130208 0.195312 0.0976562 0.0651042 0.195313 0.0976562 0.130208 0.130208 0.195312 0.195313 0.130208 0.195313 0.0976561 0.0651041 0.195312 0.0976563 0.130208 0.130209 0.195313 0.195312 0.130208 0.195312 0.0976562 0.0651042 0.195313 0.0976561 0.130208 0.130208 0.195312 0.195313 0.130208 0.195313 0.097656 0.065104 0.195312 0.0976563 0.130208 0.130209 0.195313 0.195313 0.130209 0.195313 0.0976564 0.0651043 0.195313 0.0976564 0.130209 0.130208 0.195312 0.195312 0.130208 0.195312 0.0976558 0.065104 0.195312 0.0976563 0.130208 0.130208 0.195313 0.195313 0.130208 0.195313 0.097656 0.0651041 0.195313 0.0976564 0.130208 0.130209 0.195313 0.195313 0.130209 0.195313 0.0976562 0.0651042 0.195313 0.0976561 0.130208 0.130209 0.195313 0.0976566 0.130208 0.0976564 0.0976564 0.0651043 0.195313 0.0325522 0.0651044 0.130208 0.195313 0.195313 0.130208 0.195313 0.0976563 0.0651042 0.195313 0.0976563 0.130208 0.130208 0.195313 0.195313 0.130208 0.195313 0.195313 0.130208 0.130208 0.195313 0.195313 0.130208 0.195313 0.195313 0.130208 0.130208 0.195313 0.195313 0.130208 0.195313 0.195312 0.130208 0.130208 0.195313 0.195313 0.130208 0.195313 0.195312 0.130208 0.130208 0.195313 0.195313 0.130208 0.195313 0.195313 0.130208 0.130208 0.195313 0.195312 0.130208 0.195312 0.195312 0.130208 0.130208 0.195313 0.195313 0.130208 0.195312 0.195312 0.130208 0.130208 0.195313 0.195313 0.130208 0.195312 0.195312 0.130208 0.130208 0.195313 0.195313 0.130208 0.195313 0.195312 0.130208 0.130208 0.195313 0.195313 0.130208 0.195313 0.195313 0.130208 0.130208 0.195313 0.195313 0.130208 0.195312 0.195313 0.130208 0.130208 0.195313 0.195313 0.130208 0.195313 0.195313 0.130208 0.130208 0.195313 0.195313 0.130208 0.195312 0.195313 0.130208 0.130208 0.195312 0.195313 0.130208 0.195313 0.195312 0.130208 0.130209 0.195313 0.195313 0.130208 0.195313 0.195313 0.130208 0.130209 0.195313 0.195313 0.130208 0.195313 0.195313 0.130209 0.130208 0.195313 0.195313 0.130208 0.195313 0.195313 0.130208 0.130208 0.195313 0.195313 0.130208 0.195313 0.195313 0.130209 0.130209 0.195313 0.195313 0.130208 0.195313 0.195313 0.130208 0.130209 0.195313 0.195313 0.130209 0.195313 0.195313 0.130209 0.130208 0.195313 0.195313 0.130208 0.195313 0.195313 0.130208 0.130208 0.195313 0.195313 0.130208 0.195313 0.195313 0.130208 0.130209 0.195313 0.195313 0.130208 0.195312 0.195313 0.130208 0.130208 0.195312 0.195313 0.130208 0.195313 0.195312 0.130208 0.130209 0.195313 0.195312 0.130208 0.195312 0.195313 0.130208 0.130208 0.195312 0.195313 0.130208 0.195313 0.195312 0.130208 0.130209 0.195313 0.195313 0.130209 0.195313 0.195313 0.130209 0.130208 0.195312 0.195312 0.130208 0.195312 0.195312 0.130208 0.130208 0.195313 0.195313 0.130208 0.195313 0.195313 0.130208 0.130209 0.195313 0.195313 0.130209 0.195313 0.195313 0.130208 0.130209 0.195313 0.0976566 0.130208 0.0976564 0.195313 0.0651044 0.130208 0.195313 0.195313 0.130208 0.195313 0.0976563 0.0651042 0.195313 0.0976563 0.130208 0.130208 0.195313 0.195313 0.130208 0.195313 0.195313 0.130208 0.130208 0.195313 0.195313 0.130208 0.195313 0.195313 0.130208 0.130208 0.195313 0.195313 0.130208 0.195313 0.195313 0.130208 0.130208 0.195313 0.195313 0.130208 0.195313 0.195312 0.130208 0.130208 0.195313 0.195313 0.130208 0.195313 0.195313 0.130208 0.130208 0.195313 0.195313 0.130208 0.195312 0.195312 0.130208 0.130208 0.195313 0.195313 0.130208 0.195313 0.195312 0.130208 0.130208 0.195313 0.195313 0.130208 0.195312 0.195312 0.130208 0.130208 0.195313 0.195313 0.130208 0.195313 0.195312 0.130208 0.130209 0.195313 0.195313 0.130208 0.195313 0.195313 0.130208 0.130209 0.195313 0.195313 0.130208 0.195313 0.195313 0.130208 0.130208 0.195313 0.195313 0.130208 0.195313 0.195313 0.130208 0.130208 0.195313 0.195313 0.130208 0.195313 0.195313 0.130208 0.130208 0.195313 0.195313 0.130208 0.195313 0.195312 0.130208 0.130209 0.195313 0.195313 0.130208 0.195313 0.195313 0.130208 0.130209 0.195313 0.195313 0.130208 0.195313 0.195313 0.130209 0.130208 0.195313 0.195313 0.130208 0.195313 0.195313 0.130208 0.130208 0.195313 0.195313 0.130208 0.195313 0.195313 0.130209 0.130209 0.195313 0.195313 0.130208 0.195313 0.195313 0.130208 0.130209 0.195313 0.195313 0.130209 0.195313 0.195313 0.130209 0.130208 0.195313 0.195312 0.130208 0.195313 0.195313 0.130208 0.130208 0.195313 0.195313 0.130208 0.195313 0.195313 0.130208 0.130209 0.195313 0.195313 0.130208 0.195312 0.195313 0.130208 0.130208 0.195312 0.195313 0.130208 0.195313 0.195312 0.130208 0.130209 0.195313 0.195312 0.130208 0.195312 0.195313 0.130208 0.130208 0.195312 0.195313 0.130208 0.195313 0.195312 0.130208 0.130209 0.195313 0.195313 0.130209 0.195313 0.195313 0.130209 0.130208 0.195312 0.195312 0.130208 0.195312 0.195312 0.130208 0.130208 0.195313 0.195313 0.130208 0.195313 0.195313 0.130208 0.130209 0.195313 0.195313 0.130209 0.195313 0.195313 0.130208 0.130209 0.195313 0.0976566 0.130208 0.0976564 0.195313 0.0651044 0.130208 0.195313 0.195313 0.130208 0.195312 0.0976563 0.0651042 0.195312 0.0976563 0.130208 0.130208 0.195313 0.195313 0.130208 0.195312 0.195313 0.130208 0.130208 0.195313 0.195313 0.130208 0.195312 0.195313 0.130208 0.130208 0.195313 0.195313 0.130208 0.195312 0.195312 0.130208 0.130208 0.195313 0.195313 0.130208 0.195313 0.195312 0.130208 0.130208 0.195313 0.195313 0.130208 0.195312 0.195313 0.130208 0.130208 0.195313 0.195312 0.130208 0.195312 0.195312 0.130208 0.130208 0.195312 0.195313 0.130208 0.195312 0.195312 0.130208 0.130208 0.195312 0.195313 0.130208 0.195312 0.195312 0.130208 0.130208 0.195313 0.195313 0.130208 0.195313 0.195312 0.130208 0.130208 0.195313 0.195313 0.130208 0.195313 0.195313 0.130208 0.130208 0.195313 0.195313 0.130208 0.195312 0.195313 0.130208 0.130208 0.195313 0.195313 0.130208 0.195313 0.195313 0.130208 0.130208 0.195313 0.195312 0.130208 0.195312 0.195313 0.130208 0.130208 0.195312 0.195313 0.130208 0.195313 0.195312 0.130208 0.130209 0.195313 0.195313 0.130208 0.195313 0.195313 0.130208 0.130209 0.195313 0.195313 0.130208 0.195313 0.195313 0.130208 0.130208 0.195313 0.195313 0.130208 0.195312 0.195313 0.130208 0.130208 0.195313 0.195313 0.130208 0.195313 0.195313 0.130209 0.130209 0.195313 0.195313 0.130208 0.195312 0.195313 0.130208 0.130209 0.195313 0.195313 0.130209 0.195313 0.195313 0.130209 0.130208 0.195313 0.195312 0.130208 0.195312 0.195313 0.130208 0.130208 0.195313 0.195313 0.130208 0.195313 0.195312 0.130208 0.130208 0.195313 0.195313 0.130208 0.195312 0.195313 0.130208 0.130208 0.195312 0.195313 0.130208 0.195313 0.195312 0.130208 0.130209 0.195313 0.195312 0.130208 0.195312 0.195313 0.130208 0.130208 0.195312 0.195313 0.130208 0.195313 0.195312 0.130208 0.130209 0.195313 0.195313 0.130209 0.195313 0.195313 0.130209 0.130208 0.195312 0.195312 0.130208 0.195312 0.195312 0.130208 0.130208 0.195313 0.195313 0.130208 0.195313 0.195313 0.130208 0.130209 0.195313 0.195313 0.130209 0.195313 0.195313 0.130208 0.130209 0.195313 0.0976566 0.130208 0.0976564 0.195313 0.0651044 0.130208 0.195313 0.195313 0.130208 0.195313 0.0976563 0.0651042 0.195313 0.0976563 0.130208 0.130208 0.195313 0.195313 0.130208 0.195313 0.195313 0.130208 0.130208 0.195313 0.195313 0.130208 0.195313 0.195313 0.130208 0.130208 0.195313 0.195313 0.130208 0.195313 0.195313 0.130208 0.130208 0.195313 0.195313 0.130208 0.195313 0.195313 0.130208 0.130208 0.195313 0.195313 0.130208 0.195313 0.195313 0.130208 0.130208 0.195313 0.195313 0.130208 0.195312 0.195313 0.130208 0.130208 0.195313 0.195313 0.130208 0.195312 0.195312 0.130208 0.130208 0.195313 0.195313 0.130208 0.195312 0.195312 0.130208 0.130208 0.195313 0.195313 0.130208 0.195313 0.195312 0.130208 0.130208 0.195313 0.195313 0.130208 0.195313 0.195313 0.130208 0.130209 0.195313 0.195313 0.130208 0.195312 0.195313 0.130208 0.130208 0.195313 0.195313 0.130208 0.195313 0.195313 0.130208 0.130208 0.195313 0.195313 0.130208 0.195312 0.195313 0.130208 0.130208 0.195312 0.195313 0.130208 0.195313 0.195312 0.130208 0.130209 0.195313 0.195313 0.130208 0.195313 0.195313 0.130208 0.130209 0.195313 0.195313 0.130208 0.195313 0.195313 0.130209 0.130208 0.195313 0.195313 0.130208 0.195313 0.195313 0.130208 0.130208 0.195313 0.195313 0.130208 0.195313 0.195313 0.130209 0.130209 0.195313 0.195313 0.130208 0.195313 0.195313 0.130208 0.130209 0.195313 0.195313 0.130209 0.195313 0.195313 0.130209 0.130208 0.195313 0.195313 0.130208 0.195313 0.195313 0.130208 0.130208 0.195313 0.195313 0.130208 0.195313 0.195313 0.130208 0.130209 0.195313 0.195313 0.130208 0.195312 0.195313 0.130208 0.130208 0.195312 0.195313 0.130208 0.195313 0.195312 0.130208 0.130209 0.195313 0.195312 0.130208 0.195312 0.195313 0.130208 0.130208 0.195312 0.195313 0.130208 0.195313 0.195312 0.130208 0.130209 0.195313 0.195313 0.130209 0.195313 0.195313 0.130209 0.130208 0.195312 0.195312 0.130208 0.195312 0.195312 0.130208 0.130208 0.195313 0.195313 0.130208 0.195313 0.195313 0.130208 0.130209 0.195313 0.195313 0.130209 0.195313 0.195313 0.130208 0.130209 0.195313 0.0976566 0.130208 0.0976564 0.195313 0.0651044 0.130208 0.195313 0.195313 0.130208 0.195313 0.0976563 0.0651042 0.195313 0.0976563 0.130208 0.130208 0.195313 0.195313 0.130208 0.195313 0.195313 0.130208 0.130208 0.195313 0.195313 0.130208 0.195313 0.195313 0.130208 0.130208 0.195313 0.195313 0.130208 0.195313 0.195313 0.130208 0.130208 0.195313 0.195313 0.130208 0.195313 0.195313 0.130208 0.130208 0.195313 0.195313 0.130208 0.195313 0.195313 0.130208 0.130208 0.195313 0.195313 0.130208 0.195313 0.195313 0.130208 0.130208 0.195313 0.195313 0.130208 0.195313 0.195312 0.130208 0.130208 0.195313 0.195313 0.130208 0.195312 0.195312 0.130208 0.130208 0.195313 0.195313 0.130208 0.195313 0.195313 0.130208 0.130209 0.195313 0.195313 0.130208 0.195313 0.195313 0.130209 0.130209 0.195313 0.195313 0.130208 0.195313 0.195313 0.130208 0.130208 0.195313 0.195313 0.130208 0.195313 0.195313 0.130208 0.130208 0.195313 0.195313 0.130208 0.195313 0.195313 0.130208 0.130208 0.195313 0.195313 0.130208 0.195313 0.195312 0.130208 0.130209 0.195313 0.195313 0.130208 0.195313 0.195313 0.130208 0.130209 0.195313 0.195313 0.130208 0.195313 0.195313 0.130209 0.130208 0.195313 0.195313 0.130208 0.195313 0.195313 0.130208 0.130209 0.195313 0.195313 0.130209 0.195313 0.195313 0.130209 0.130209 0.195313 0.195313 0.130208 0.195313 0.195313 0.130208 0.130209 0.195313 0.195313 0.130209 0.195313 0.195313 0.130209 0.130208 0.195313 0.195313 0.130208 0.195313 0.195313 0.130208 0.130208 0.195313 0.195313 0.130208 0.195313 0.195313 0.130208 0.130209 0.195313 0.195313 0.130208 0.195312 0.195313 0.130208 0.130208 0.195312 0.195313 0.130208 0.195313 0.195312 0.130209 0.130209 0.195313 0.195312 0.130209 0.195312 0.195313 0.130208 0.130208 0.195312 0.195313 0.130208 0.195313 0.195312 0.130208 0.130209 0.195313 0.195313 0.130209 0.195313 0.195313 0.130209 0.130208 0.195312 0.195312 0.130208 0.195312 0.195312 0.130208 0.130208 0.195313 0.195313 0.130208 0.195313 0.195313 0.130208 0.130209 0.195313 0.195313 0.130209 0.195313 0.195313 0.130208 0.130209 0.195313 0.0976566 0.130208 0.0976565 0.195313 0.0651044 0.130208 0.195313 0.195313 0.130208 0.195313 0.0976562 0.0651042 0.195312 0.0976563 0.130208 0.130208 0.195313 0.195313 0.130208 0.195313 0.195312 0.130208 0.130208 0.195313 0.195313 0.130208 0.195313 0.195312 0.130208 0.130208 0.195313 0.195313 0.130208 0.195313 0.195312 0.130208 0.130208 0.195313 0.195313 0.130208 0.195313 0.195312 0.130208 0.130208 0.195313 0.195313 0.130208 0.195313 0.195313 0.130208 0.130208 0.195313 0.195312 0.130208 0.195312 0.195312 0.130208 0.130208 0.195313 0.195313 0.130208 0.195313 0.195312 0.130208 0.130208 0.195313 0.195312 0.130208 0.195312 0.195312 0.130208 0.130208 0.195313 0.195313 0.130208 0.195313 0.195312 0.130208 0.130208 0.195313 0.195313 0.130208 0.195313 0.195313 0.130208 0.130208 0.195313 0.195313 0.130208 0.195313 0.195313 0.130208 0.130208 0.195313 0.195313 0.130208 0.195313 0.195312 0.130208 0.130208 0.195313 0.195312 0.130208 0.195313 0.195312 0.130208 0.130208 0.195312 0.195313 0.130208 0.195313 0.195312 0.130208 0.130209 0.195313 0.195313 0.130208 0.195313 0.195313 0.130208 0.130209 0.195313 0.195313 0.130208 0.195313 0.195313 0.130209 0.130208 0.195313 0.195313 0.130208 0.195313 0.195313 0.130208 0.130208 0.195313 0.195313 0.130208 0.195313 0.195313 0.130209 0.130209 0.195313 0.195313 0.130208 0.195313 0.195313 0.130208 0.130209 0.195313 0.195313 0.130209 0.195313 0.195313 0.130209 0.130208 0.195313 0.195312 0.130208 0.195313 0.195312 0.130208 0.130208 0.195313 0.195313 0.130208 0.195313 0.195312 0.130208 0.130208 0.195313 0.195313 0.130208 0.195312 0.195313 0.130208 0.130208 0.195312 0.195313 0.130208 0.195313 0.195312 0.130208 0.130209 0.195313 0.195312 0.130208 0.195312 0.195313 0.130208 0.130208 0.195312 0.195313 0.130208 0.195313 0.195312 0.130208 0.130209 0.195313 0.195313 0.130209 0.195313 0.195313 0.130209 0.130208 0.195312 0.195312 0.130208 0.195312 0.195312 0.130208 0.130208 0.195313 0.195313 0.130208 0.195313 0.195312 0.130208 0.130209 0.195313 0.195313 0.130209 0.195313 0.195313 0.130208 0.130209 0.195313 0.0976566 0.130208 0.0976564 0.195313 0.0651044 0.0651043 0.195312 0.0976563 0.130208 0.195312 0.0325521 0.0651042 0.0976563 0.0976563 0.130208 0.0651043 0.195312 0.0976563 0.130208 0.195312 0.0976563 0.130208 0.0651043 0.195313 0.0976563 0.130208 0.195312 0.0976563 0.130208 0.0651042 0.195312 0.0976563 0.130208 0.195312 0.0976563 0.130208 0.0651043 0.195312 0.0976563 0.130208 0.195312 0.0976563 0.130208 0.0651043 0.195313 0.0976563 0.130208 0.195312 0.0976563 0.130208 0.0651042 0.195312 0.0976563 0.130208 0.195312 0.0976563 0.130208 0.0651042 0.195312 0.0976563 0.130208 0.195312 0.0976562 0.130208 0.0651043 0.195312 0.0976563 0.130208 0.195312 0.0976563 0.130208 0.0651043 0.195312 0.0976563 0.130208 0.195312 0.0976563 0.130208 0.0651043 0.195313 0.0976564 0.130208 0.195313 0.0976564 0.130208 0.0651043 0.195313 0.0976563 0.130208 0.195312 0.0976564 0.130208 0.0651042 0.195313 0.0976563 0.130208 0.195312 0.0976563 0.130208 0.0651042 0.195313 0.0976563 0.130208 0.195312 0.0976563 0.130208 0.0651042 0.195312 0.0976563 0.130208 0.195313 0.0976562 0.130208 0.0651044 0.195313 0.0976564 0.130208 0.195313 0.0976564 0.130208 0.0651044 0.195313 0.0976564 0.130208 0.195313 0.0976564 0.130208 0.0651043 0.195313 0.0976562 0.130208 0.195312 0.0976564 0.130208 0.0651042 0.195313 0.0976565 0.130208 0.195313 0.0976563 0.130209 0.0651044 0.195313 0.0976563 0.130208 0.195312 0.0976565 0.130208 0.0651043 0.195313 0.0976564 0.130208 0.195313 0.0976564 0.130208 0.0651043 0.195313 0.0976562 0.130208 0.195312 0.0976563 0.130208 0.0651042 0.195312 0.0976563 0.130208 0.195313 0.0976563 0.130208 0.0651043 0.195313 0.0976563 0.130208 0.195312 0.0976564 0.130208 0.0651042 0.195312 0.0976563 0.130208 0.195313 0.0976562 0.130208 0.0651045 0.195313 0.0976563 0.130208 0.195312 0.0976566 0.130208 0.0651041 0.195312 0.0976563 0.130208 0.195312 0.097656 0.130208 0.0651045 0.195313 0.0976565 0.130209 0.195313 0.0976565 0.130208 0.0651043 0.195312 0.0976561 0.130208 0.195312 0.0976564 0.130208 0.0651043 0.195313 0.0976563 0.130208 0.195313 0.0976565 0.130208 0.0651044 0.195313 0.0976564 0.130208 0.195313 0.0976566 0.130208 0.0651044 0.195313 0.0651044 0.130208 0.0976563 0.0976564 0.0651044 0.130208 0.195312 0.195312 0.130208 0.195312 0.0976562 0.0651041 0.0651041 0.0976563 0.0651042 0.195312 0.0976563 0.0976562 0.130208 0.130208 0.195312 0.195312 0.130208 0.195312 0.0976562 0.0651041 0.195312 0.0976562 0.130208 0.130208 0.195312 0.195312 0.130208 0.195312 0.0976562 0.0651042 0.195313 0.0976562 0.130208 0.130208 0.195312 0.195312 0.130208 0.195312 0.0976562 0.0651041 0.195312 0.0976562 0.130208 0.130208 0.195312 0.195312 0.130208 0.195312 0.0976562 0.0651041 0.195312 0.0976562 0.130208 0.130208 0.195313 0.195312 0.130208 0.195312 0.0976562 0.0651042 0.195313 0.0976562 0.130208 0.130208 0.195312 0.195312 0.130208 0.195312 0.0976562 0.0651041 0.195312 0.0976562 0.130208 0.130208 0.195312 0.195312 0.130208 0.195312 0.0976562 0.0651041 0.195312 0.0976562 0.130208 0.130208 0.195312 0.195312 0.130208 0.195312 0.0976561 0.0651041 0.195312 0.0976562 0.130208 0.130208 0.195312 0.195313 0.130208 0.195312 0.0976562 0.0651041 0.195312 0.0976562 0.130208 0.130208 0.195313 0.195313 0.130208 0.195313 0.0976563 0.0651042 0.195313 0.0976563 0.130208 0.130208 0.195313 0.195312 0.130208 0.195312 0.0976562 0.0651041 0.195313 0.0976562 0.130208 0.130208 0.195312 0.195313 0.130208 0.195312 0.0976563 0.0651042 0.195313 0.0976563 0.130208 0.130208 0.195313 0.195312 0.130208 0.195312 0.0976563 0.0651042 0.195313 0.0976562 0.130208 0.130208 0.195312 0.195312 0.130208 0.195313 0.0976562 0.0651041 0.195312 0.0976562 0.130208 0.130208 0.195313 0.195313 0.130208 0.195313 0.0976562 0.0651041 0.195313 0.0976562 0.130208 0.130209 0.195313 0.195313 0.130208 0.195313 0.0976563 0.0651042 0.195313 0.0976563 0.130208 0.130208 0.195313 0.195312 0.130208 0.195312 0.0976562 0.0651041 0.195313 0.0976563 0.130208 0.130208 0.195313 0.195313 0.130208 0.195313 0.0976563 0.0651042 0.195313 0.0976564 0.130209 0.130209 0.195313 0.195313 0.130208 0.195312 0.0976561 0.0651041 0.195313 0.0976563 0.130208 0.130208 0.195313 0.195313 0.130209 0.195313 0.0976564 0.0651043 0.195313 0.0976563 0.130208 0.130208 0.195312 0.195312 0.130208 0.195312 0.0976562 0.0651042 0.195313 0.0976562 0.130208 0.130208 0.195312 0.195313 0.130208 0.195313 0.0976562 0.0651042 0.195312 0.0976563 0.130208 0.130208 0.195313 0.195312 0.130208 0.195312 0.0976563 0.0651042 0.195313 0.0976562 0.130208 0.130208 0.195312 0.195313 0.130208 0.195313 0.0976561 0.0651041 0.195312 0.0976563 0.130208 0.130209 0.195313 0.195312 0.130208 0.195312 0.0976562 0.0651041 0.195313 0.097656 0.130208 0.130208 0.195312 0.195312 0.130208 0.195313 0.097656 0.065104 0.195312 0.0976563 0.130208 0.130209 0.195313 0.195313 0.130209 0.195313 0.0976564 0.0651043 0.195313 0.0976563 0.130208 0.130208 0.195312 0.195312 0.130208 0.195312 0.0976558 0.0651039 0.195312 0.0976562 0.130208 0.130208 0.195312 0.195313 0.130208 0.195313 0.097656 0.0651041 0.195313 0.0976563 0.130208 0.130209 0.195313 0.195312 0.130209 0.195313 0.0976562 0.0651042 0.195313 0.0976561 0.130208 0.130209 0.195313 0.0976565 0.130208 0.0976564 0.0976564 0.0651042 0.195313 0.0325522 0.0651044 0.130208 0.195312 0.195312 0.130208 0.195313 0.0976563 0.0651042 0.195312 0.0976563 0.130208 0.130208 0.195313 0.195312 0.130208 0.195313 0.195312 0.130208 0.130208 0.195312 0.195312 0.130208 0.195312 0.195313 0.130208 0.130208 0.195312 0.195312 0.130208 0.195312 0.195312 0.130208 0.130208 0.195312 0.195313 0.130208 0.195312 0.195312 0.130208 0.130208 0.195313 0.195312 0.130208 0.195312 0.195313 0.130208 0.130208 0.195312 0.195312 0.130208 0.195312 0.195312 0.130208 0.130208 0.195312 0.195312 0.130208 0.195312 0.195312 0.130208 0.130208 0.195312 0.195312 0.130208 0.195312 0.195312 0.130208 0.130208 0.195312 0.195312 0.130208 0.195313 0.195312 0.130208 0.130208 0.195313 0.195313 0.130208 0.195313 0.195313 0.130208 0.130208 0.195313 0.195313 0.130208 0.195312 0.195313 0.130208 0.130208 0.195313 0.195313 0.130208 0.195313 0.195313 0.130208 0.130208 0.195313 0.195312 0.130208 0.195312 0.195313 0.130208 0.130208 0.195312 0.195313 0.130208 0.195313 0.195312 0.130208 0.130208 0.195313 0.195313 0.130208 0.195313 0.195313 0.130208 0.130209 0.195313 0.195313 0.130208 0.195313 0.195313 0.130208 0.130208 0.195313 0.195312 0.130208 0.195312 0.195313 0.130208 0.130208 0.195313 0.195313 0.130208 0.195313 0.195313 0.130209 0.130209 0.195313 0.195313 0.130208 0.195312 0.195313 0.130208 0.130208 0.195313 0.195313 0.130209 0.195313 0.195313 0.130208 0.130208 0.195313 0.195312 0.130208 0.195312 0.195313 0.130208 0.130208 0.195312 0.195313 0.130208 0.195313 0.195312 0.130208 0.130208 0.195313 0.195312 0.130208 0.195312 0.195313 0.130208 0.130208 0.195312 0.195313 0.130208 0.195313 0.195312 0.130208 0.130209 0.195313 0.195312 0.130208 0.195312 0.195313 0.130208 0.130208 0.195312 0.195313 0.130208 0.195313 0.195312 0.130208 0.130209 0.195313 0.195313 0.130209 0.195313 0.195313 0.130208 0.130208 0.195312 0.195312 0.130208 0.195312 0.195312 0.130208 0.130208 0.195313 0.195313 0.130208 0.195313 0.195313 0.130208 0.130209 0.195313 0.195312 0.130209 0.195313 0.195313 0.130208 0.130209 0.195313 0.0976565 0.130208 0.0976564 0.195313 0.0651044 0.130208 0.195313 0.195312 0.130208 0.195313 0.0976562 0.0651042 0.195313 0.0976563 0.130208 0.130208 0.195313 0.195312 0.130208 0.195313 0.195313 0.130208 0.130208 0.195313 0.195313 0.130208 0.195313 0.195313 0.130208 0.130208 0.195312 0.195312 0.130208 0.195312 0.195312 0.130208 0.130208 0.195312 0.195313 0.130208 0.195312 0.195312 0.130208 0.130208 0.195313 0.195312 0.130208 0.195313 0.195313 0.130208 0.130208 0.195312 0.195312 0.130208 0.195312 0.195312 0.130208 0.130208 0.195312 0.195312 0.130208 0.195312 0.195312 0.130208 0.130208 0.195312 0.195312 0.130208 0.195312 0.195312 0.130208 0.130208 0.195312 0.195312 0.130208 0.195313 0.195312 0.130208 0.130208 0.195313 0.195313 0.130208 0.195313 0.195313 0.130208 0.130208 0.195313 0.195312 0.130208 0.195312 0.195313 0.130208 0.130208 0.195312 0.195313 0.130208 0.195313 0.195313 0.130208 0.130208 0.195313 0.195312 0.130208 0.195312 0.195313 0.130208 0.130208 0.195312 0.195313 0.130208 0.195313 0.195312 0.130208 0.130208 0.195313 0.195313 0.130208 0.195313 0.195313 0.130208 0.130209 0.195313 0.195313 0.130208 0.195313 0.195313 0.130208 0.130208 0.195313 0.195312 0.130208 0.195312 0.195313 0.130208 0.130208 0.195313 0.195313 0.130208 0.195313 0.195313 0.130209 0.130209 0.195313 0.195313 0.130208 0.195313 0.195313 0.130208 0.130209 0.195313 0.195313 0.130209 0.195313 0.195313 0.130208 0.130208 0.195313 0.195312 0.130208 0.195312 0.195313 0.130208 0.130208 0.195313 0.195313 0.130208 0.195313 0.195313 0.130208 0.130208 0.195313 0.195312 0.130208 0.195312 0.195313 0.130208 0.130208 0.195312 0.195313 0.130208 0.195313 0.195312 0.130208 0.130209 0.195313 0.195312 0.130208 0.195312 0.195313 0.130208 0.130208 0.195312 0.195312 0.130208 0.195313 0.195312 0.130208 0.130209 0.195313 0.195313 0.130209 0.195313 0.195313 0.130209 0.130208 0.195312 0.195312 0.130208 0.195312 0.195312 0.130208 0.130208 0.195313 0.195313 0.130208 0.195313 0.195313 0.130208 0.130209 0.195313 0.195312 0.130209 0.195313 0.195313 0.130208 0.130209 0.195313 0.0976565 0.130208 0.0976564 0.195313 0.0651044 0.130208 0.195312 0.195312 0.130208 0.195312 0.0976562 0.0651042 0.195312 0.0976563 0.130208 0.130208 0.195312 0.195312 0.130208 0.195312 0.195312 0.130208 0.130208 0.195312 0.195312 0.130208 0.195312 0.195313 0.130208 0.130208 0.195312 0.195312 0.130208 0.195312 0.195312 0.130208 0.130208 0.195312 0.195312 0.130208 0.195312 0.195312 0.130208 0.130208 0.195312 0.195312 0.130208 0.195312 0.195313 0.130208 0.130208 0.195312 0.195312 0.130208 0.195312 0.195312 0.130208 0.130208 0.195312 0.195312 0.130208 0.195312 0.195312 0.130208 0.130208 0.195312 0.195312 0.130208 0.195312 0.195312 0.130208 0.130208 0.195312 0.195312 0.130208 0.195312 0.195312 0.130208 0.130208 0.195313 0.195313 0.130208 0.195313 0.195313 0.130208 0.130208 0.195313 0.195312 0.130208 0.195312 0.195313 0.130208 0.130208 0.195312 0.195313 0.130208 0.195312 0.195312 0.130208 0.130208 0.195312 0.195312 0.130208 0.195312 0.195313 0.130208 0.130208 0.195312 0.195312 0.130208 0.195313 0.195312 0.130208 0.130208 0.195313 0.195313 0.130208 0.195313 0.195313 0.130208 0.130208 0.195313 0.195313 0.130208 0.195313 0.195313 0.130208 0.130208 0.195312 0.195312 0.130208 0.195312 0.195313 0.130208 0.130208 0.195313 0.195313 0.130208 0.195313 0.195313 0.130209 0.130209 0.195313 0.195313 0.130208 0.195312 0.195313 0.130208 0.130208 0.195313 0.195313 0.130208 0.195313 0.195313 0.130208 0.130208 0.195312 0.195312 0.130208 0.195312 0.195312 0.130208 0.130208 0.195312 0.195313 0.130208 0.195313 0.195312 0.130208 0.130208 0.195313 0.195312 0.130208 0.195312 0.195313 0.130208 0.130208 0.195312 0.195312 0.130208 0.195313 0.195312 0.130208 0.130209 0.195313 0.195312 0.130208 0.195312 0.195313 0.130208 0.130208 0.195312 0.195312 0.130208 0.195312 0.195312 0.130208 0.130209 0.195313 0.195313 0.130209 0.195313 0.195313 0.130208 0.130208 0.195312 0.195312 0.130208 0.195312 0.195312 0.130208 0.130208 0.195312 0.195313 0.130208 0.195313 0.195312 0.130208 0.130209 0.195313 0.195312 0.130209 0.195313 0.195313 0.130208 0.130209 0.195313 0.0976565 0.130208 0.0976564 0.195313 0.0651043 0.130208 0.195312 0.195313 0.130208 0.195312 0.0976563 0.0651042 0.195313 0.0976563 0.130208 0.130208 0.195312 0.195313 0.130208 0.195312 0.195313 0.130208 0.130208 0.195313 0.195313 0.130208 0.195312 0.195313 0.130208 0.130208 0.195312 0.195312 0.130208 0.195312 0.195313 0.130208 0.130208 0.195312 0.195313 0.130208 0.195312 0.195313 0.130208 0.130208 0.195313 0.195313 0.130208 0.195312 0.195313 0.130208 0.130208 0.195312 0.195312 0.130208 0.195312 0.195313 0.130208 0.130208 0.195312 0.195312 0.130208 0.195312 0.195312 0.130208 0.130208 0.195312 0.195312 0.130208 0.195312 0.195312 0.130208 0.130208 0.195312 0.195313 0.130208 0.195313 0.195312 0.130208 0.130208 0.195313 0.195313 0.130208 0.195313 0.195313 0.130208 0.130208 0.195313 0.195313 0.130208 0.195312 0.195313 0.130208 0.130208 0.195312 0.195313 0.130208 0.195313 0.195313 0.130208 0.130208 0.195313 0.195312 0.130208 0.195312 0.195313 0.130208 0.130208 0.195312 0.195313 0.130208 0.195313 0.195312 0.130208 0.130208 0.195313 0.195313 0.130208 0.195313 0.195313 0.130208 0.130209 0.195313 0.195313 0.130208 0.195313 0.195313 0.130208 0.130208 0.195313 0.195312 0.130208 0.195312 0.195313 0.130208 0.130208 0.195313 0.195313 0.130208 0.195313 0.195313 0.130209 0.130209 0.195313 0.195313 0.130208 0.195312 0.195313 0.130208 0.130209 0.195313 0.195313 0.130209 0.195313 0.195313 0.130208 0.130208 0.195313 0.195312 0.130208 0.195312 0.195313 0.130208 0.130208 0.195312 0.195313 0.130208 0.195313 0.195313 0.130208 0.130208 0.195313 0.195312 0.130208 0.195312 0.195313 0.130208 0.130208 0.195312 0.195313 0.130208 0.195313 0.195312 0.130208 0.130209 0.195313 0.195312 0.130208 0.195312 0.195313 0.130208 0.130208 0.195312 0.195313 0.130208 0.195313 0.195312 0.130208 0.130209 0.195313 0.195313 0.130209 0.195313 0.195313 0.130208 0.130208 0.195312 0.195312 0.130208 0.195312 0.195312 0.130208 0.130208 0.195312 0.195313 0.130208 0.195313 0.195313 0.130208 0.130209 0.195313 0.195313 0.130209 0.195313 0.195313 0.130208 0.130209 0.195313 0.0976565 0.130208 0.0976564 0.195313 0.0651044 0.130208 0.195313 0.195313 0.130208 0.195313 0.0976563 0.0651042 0.195313 0.0976563 0.130208 0.130208 0.195313 0.195313 0.130208 0.195313 0.195313 0.130208 0.130208 0.195313 0.195313 0.130208 0.195313 0.195313 0.130208 0.130208 0.195313 0.195313 0.130208 0.195313 0.195313 0.130208 0.130208 0.195313 0.195313 0.130208 0.195313 0.195313 0.130208 0.130208 0.195313 0.195313 0.130208 0.195313 0.195313 0.130208 0.130208 0.195313 0.195312 0.130208 0.195312 0.195313 0.130208 0.130208 0.195312 0.195313 0.130208 0.195313 0.195312 0.130208 0.130208 0.195312 0.195312 0.130208 0.195312 0.195312 0.130208 0.130208 0.195313 0.195313 0.130208 0.195313 0.195313 0.130208 0.130208 0.195313 0.195313 0.130208 0.195313 0.195313 0.130208 0.130208 0.195313 0.195313 0.130208 0.195313 0.195313 0.130208 0.130208 0.195313 0.195313 0.130208 0.195313 0.195313 0.130208 0.130208 0.195313 0.195312 0.130208 0.195313 0.195313 0.130208 0.130208 0.195312 0.195313 0.130208 0.195313 0.195312 0.130208 0.130209 0.195313 0.195313 0.130208 0.195313 0.195313 0.130208 0.130209 0.195313 0.195313 0.130208 0.195313 0.195313 0.130208 0.130208 0.195313 0.195313 0.130208 0.195313 0.195313 0.130208 0.130208 0.195313 0.195313 0.130208 0.195313 0.195313 0.130209 0.130209 0.195313 0.195313 0.130208 0.195313 0.195313 0.130208 0.130209 0.195313 0.195313 0.130209 0.195313 0.195313 0.130209 0.130208 0.195313 0.195312 0.130208 0.195313 0.195313 0.130208 0.130208 0.195313 0.195313 0.130208 0.195313 0.195313 0.130208 0.130208 0.195313 0.195312 0.130208 0.195312 0.195313 0.130208 0.130208 0.195312 0.195313 0.130208 0.195313 0.195312 0.130208 0.130209 0.195313 0.195312 0.130208 0.195312 0.195313 0.130208 0.130208 0.195312 0.195313 0.130208 0.195313 0.195312 0.130208 0.130209 0.195313 0.195313 0.130209 0.195313 0.195313 0.130209 0.130208 0.195312 0.195312 0.130208 0.195312 0.195312 0.130208 0.130208 0.195313 0.195313 0.130208 0.195313 0.195313 0.130208 0.130209 0.195313 0.195312 0.130209 0.195313 0.195313 0.130208 0.130209 0.195313 0.0976565 0.130208 0.0976564 0.195313 0.0651044 0.130208 0.195313 0.195312 0.130208 0.195312 0.0976562 0.0651042 0.195312 0.0976563 0.130208 0.130208 0.195313 0.195312 0.130208 0.195312 0.195312 0.130208 0.130208 0.195313 0.195312 0.130208 0.195313 0.195312 0.130208 0.130208 0.195312 0.195312 0.130208 0.195313 0.195312 0.130208 0.130208 0.195312 0.195312 0.130208 0.195313 0.195312 0.130208 0.130208 0.195313 0.195312 0.130208 0.195313 0.195312 0.130208 0.130208 0.195312 0.195312 0.130208 0.195312 0.195312 0.130208 0.130208 0.195312 0.195312 0.130208 0.195312 0.195312 0.130208 0.130208 0.195312 0.195312 0.130208 0.195312 0.195312 0.130208 0.130208 0.195312 0.195312 0.130208 0.195313 0.195312 0.130208 0.130208 0.195313 0.195313 0.130208 0.195313 0.195313 0.130208 0.130208 0.195313 0.195312 0.130208 0.195312 0.195313 0.130208 0.130208 0.195313 0.195313 0.130208 0.195313 0.195312 0.130208 0.130208 0.195313 0.195312 0.130208 0.195312 0.195312 0.130208 0.130208 0.195312 0.195312 0.130208 0.195313 0.195312 0.130208 0.130208 0.195313 0.195313 0.130208 0.195313 0.195313 0.130208 0.130208 0.195313 0.195313 0.130208 0.195313 0.195313 0.130208 0.130208 0.195313 0.195312 0.130208 0.195312 0.195312 0.130208 0.130208 0.195313 0.195313 0.130208 0.195313 0.195313 0.130209 0.130209 0.195313 0.195313 0.130208 0.195313 0.195313 0.130208 0.130208 0.195313 0.195313 0.130209 0.195313 0.195313 0.130208 0.130208 0.195313 0.195312 0.130208 0.195313 0.195312 0.130208 0.130208 0.195313 0.195313 0.130208 0.195313 0.195312 0.130208 0.130208 0.195313 0.195312 0.130208 0.195312 0.195313 0.130208 0.130208 0.195312 0.195312 0.130208 0.195313 0.195312 0.130208 0.130209 0.195313 0.195312 0.130208 0.195312 0.195313 0.130208 0.130208 0.195312 0.195312 0.130208 0.195313 0.195312 0.130208 0.130209 0.195313 0.195313 0.130209 0.195313 0.195313 0.130209 0.130208 0.195312 0.195312 0.130208 0.195312 0.195312 0.130208 0.130208 0.195313 0.195313 0.130208 0.195313 0.195312 0.130208 0.130209 0.195313 0.195312 0.130209 0.195313 0.195313 0.130208 0.130209 0.195313 0.0976565 0.130208 0.0976564 0.195313 0.0651044 0.0651042 0.195312 0.0976562 0.130208 0.195312 0.0325521 0.0651042 0.0976563 0.0976563 0.130208 0.0651042 0.195312 0.0976562 0.130208 0.195312 0.0976563 0.130208 0.0651042 0.195312 0.0976562 0.130208 0.195312 0.0976563 0.130208 0.0651042 0.195312 0.0976562 0.130208 0.195312 0.0976563 0.130208 0.0651042 0.195312 0.0976562 0.130208 0.195312 0.0976563 0.130208 0.0651042 0.195312 0.0976562 0.130208 0.195312 0.0976563 0.130208 0.0651042 0.195312 0.0976562 0.130208 0.195312 0.0976562 0.130208 0.0651042 0.195312 0.0976563 0.130208 0.195312 0.0976562 0.130208 0.0651042 0.195312 0.0976562 0.130208 0.195312 0.0976563 0.130208 0.0651042 0.195312 0.0976562 0.130208 0.195312 0.0976563 0.130208 0.0651043 0.195312 0.0976563 0.130208 0.195313 0.0976563 0.130208 0.0651043 0.195312 0.0976563 0.130208 0.195312 0.0976564 0.130208 0.0651042 0.195312 0.0976562 0.130208 0.195312 0.0976562 0.130208 0.0651042 0.195312 0.0976562 0.130208 0.195312 0.0976563 0.130208 0.0651042 0.195312 0.0976562 0.130208 0.195312 0.0976562 0.130208 0.0651044 0.195313 0.0976564 0.130208 0.195312 0.0976564 0.130208 0.0651044 0.195313 0.0976564 0.130208 0.195313 0.0976564 0.130208 0.0651043 0.195312 0.0976562 0.130208 0.195312 0.0976564 0.130208 0.0651042 0.195313 0.0976564 0.130208 0.195313 0.0976563 0.130209 0.0651044 0.195313 0.0976562 0.130208 0.195312 0.0976565 0.130208 0.0651042 0.195313 0.0976563 0.130208 0.195313 0.0976564 0.130208 0.0651042 0.195312 0.0976561 0.130208 0.195312 0.0976563 0.130208 0.0651042 0.195312 0.0976563 0.130208 0.195312 0.0976562 0.130208 0.0651043 0.195312 0.0976563 0.130208 0.195312 0.0976563 0.130208 0.0651041 0.195312 0.0976562 0.130208 0.195313 0.0976561 0.130208 0.0651044 0.195313 0.0976562 0.130208 0.195312 0.0976565 0.130208 0.0651041 0.195312 0.0976562 0.130208 0.195312 0.097656 0.130208 0.0651044 0.195313 0.0976564 0.130208 0.195313 0.0976565 0.130208 0.0651043 0.195312 0.0976561 0.130208 0.195312 0.0976564 0.130208 0.0651043 0.195312 0.0976563 0.130208 0.195313 0.0976565 0.130208 0.0651044 0.195313 0.0976563 0.130208 0.195312 0.0976566 0.130208 0.0651044 0.195313 0.0651043 0.130208 0.0976563 0.0976564 0.0651043 0.130208 0.195313 0.195313 0.130208 0.195313 0.0976563 0.0651042 0.0651042 0.0976564 0.0651042 0.195313 0.0976563 0.0976564 0.130208 0.130208 0.195313 0.195313 0.130208 0.195313 0.0976563 0.0651042 0.195313 0.0976563 0.130208 0.130208 0.195313 0.195313 0.130208 0.195313 0.0976563 0.0651042 0.195313 0.0976564 0.130208 0.130208 0.195313 0.195313 0.130208 0.195313 0.0976563 0.0651042 0.195313 0.0976563 0.130208 0.130208 0.195313 0.195313 0.130208 0.195313 0.0976563 0.0651042 0.195313 0.0976564 0.130208 0.130208 0.195313 0.195313 0.130208 0.195313 0.0976564 0.0651042 0.195313 0.0976564 0.130208 0.130208 0.195313 0.195312 0.130208 0.195313 0.0976563 0.0651042 0.195313 0.0976563 0.130208 0.130208 0.195313 0.195313 0.130208 0.195313 0.0976563 0.0651042 0.195313 0.0976563 0.130208 0.130208 0.195313 0.195313 0.130208 0.195313 0.0976562 0.0651042 0.195313 0.0976563 0.130208 0.130208 0.195313 0.195313 0.130208 0.195313 0.0976563 0.0651042 0.195313 0.0976564 0.130208 0.130208 0.195313 0.195313 0.130209 0.195313 0.0976564 0.0651043 0.195313 0.0976564 0.130208 0.130209 0.195313 0.195313 0.130209 0.195313 0.0976563 0.0651042 0.195313 0.0976563 0.130208 0.130208 0.195313 0.195313 0.130208 0.195313 0.0976564 0.0651042 0.195313 0.0976564 0.130208 0.130208 0.195313 0.195313 0.130208 0.195313 0.0976564 0.0651043 0.195313 0.0976563 0.130208 0.130208 0.195312 0.195313 0.130208 0.195313 0.0976563 0.0651042 0.195313 0.0976564 0.130208 0.130209 0.195313 0.195313 0.130209 0.195313 0.0976563 0.0651042 0.195313 0.0976564 0.130208 0.130209 0.195313 0.195313 0.130209 0.195313 0.0976564 0.0651043 0.195313 0.0976565 0.130209 0.130208 0.195313 0.195313 0.130208 0.195313 0.0976563 0.0651042 0.195313 0.0976564 0.130208 0.130208 0.195313 0.195313 0.130209 0.195313 0.0976564 0.0651043 0.195313 0.0976565 0.130209 0.130209 0.195313 0.195313 0.130209 0.195313 0.0976562 0.0651042 0.195313 0.0976564 0.130208 0.130209 0.195313 0.195313 0.130209 0.195313 0.0976565 0.0651044 0.195313 0.0976565 0.130209 0.130208 0.195313 0.195312 0.130208 0.195313 0.0976564 0.0651043 0.195313 0.0976564 0.130208 0.130208 0.195313 0.195313 0.130209 0.195313 0.0976564 0.0651043 0.195313 0.0976564 0.130208 0.130209 0.195313 0.195313 0.130209 0.195313 0.0976564 0.0651043 0.195313 0.0976563 0.130208 0.130208 0.195312 0.195313 0.130208 0.195313 0.0976562 0.0651042 0.195312 0.0976564 0.130208 0.130209 0.195313 0.195312 0.130209 0.195312 0.0976563 0.0651042 0.195313 0.0976561 0.130208 0.130208 0.195312 0.195313 0.130208 0.195313 0.0976561 0.0651041 0.195312 0.0976564 0.130208 0.130209 0.195313 0.195313 0.130209 0.195313 0.0976565 0.0651044 0.195313 0.0976564 0.130209 0.130208 0.195312 0.195312 0.130208 0.195312 0.0976559 0.065104 0.195312 0.0976564 0.130208 0.130208 0.195313 0.195313 0.130209 0.195313 0.0976562 0.0651042 0.195313 0.0976564 0.130208 0.130209 0.195313 0.195313 0.130209 0.195313 0.0976563 0.0651042 0.195313 0.0976562 0.130208 0.130209 0.195313 0.0976565 0.130209 0.0976565 0.0976565 0.0651043 0.195313 0.0325522 0.0651044 0.130208 0.195313 0.195313 0.130208 0.195313 0.0976564 0.0651042 0.195313 0.0976563 0.130208 0.130208 0.195313 0.195313 0.130208 0.195313 0.195313 0.130208 0.130208 0.195313 0.195313 0.130208 0.195313 0.195313 0.130208 0.130208 0.195313 0.195313 0.130208 0.195313 0.195313 0.130208 0.130208 0.195313 0.195313 0.130208 0.195313 0.195313 0.130208 0.130208 0.195313 0.195313 0.130209 0.195313 0.195313 0.130208 0.130208 0.195313 0.195313 0.130208 0.195313 0.195313 0.130208 0.130208 0.195313 0.195313 0.130208 0.195313 0.195313 0.130208 0.130208 0.195313 0.195313 0.130208 0.195313 0.195313 0.130208 0.130208 0.195313 0.195313 0.130208 0.195313 0.195313 0.130208 0.130208 0.195313 0.195313 0.130209 0.195313 0.195313 0.130208 0.130209 0.195313 0.195313 0.130209 0.195313 0.195313 0.130208 0.130208 0.195313 0.195313 0.130208 0.195313 0.195313 0.130208 0.130208 0.195313 0.195313 0.130209 0.195313 0.195313 0.130208 0.130208 0.195312 0.195313 0.130208 0.195313 0.195313 0.130208 0.130209 0.195313 0.195313 0.130209 0.195313 0.195313 0.130208 0.130209 0.195313 0.195313 0.130209 0.195313 0.195313 0.130209 0.130208 0.195313 0.195313 0.130209 0.195313 0.195313 0.130208 0.130208 0.195313 0.195313 0.130209 0.195313 0.195313 0.130209 0.130209 0.195313 0.195313 0.130209 0.195313 0.195313 0.130208 0.130209 0.195313 0.195313 0.130209 0.195313 0.195313 0.130209 0.130208 0.195313 0.195313 0.130208 0.195313 0.195313 0.130208 0.130208 0.195313 0.195313 0.130209 0.195313 0.195313 0.130208 0.130209 0.195313 0.195313 0.130209 0.195313 0.195313 0.130208 0.130208 0.195312 0.195313 0.130208 0.195313 0.195312 0.130208 0.130209 0.195313 0.195312 0.130209 0.195312 0.195313 0.130208 0.130208 0.195312 0.195313 0.130208 0.195313 0.195312 0.130208 0.130209 0.195313 0.195313 0.130209 0.195313 0.195313 0.130209 0.130208 0.195312 0.195312 0.130208 0.195312 0.195312 0.130208 0.130208 0.195313 0.195313 0.130209 0.195313 0.195313 0.130208 0.130209 0.195313 0.195313 0.130209 0.195313 0.195313 0.130208 0.130209 0.195313 0.0976565 0.130209 0.0976565 0.195313 0.0651044 0.130208 0.195313 0.195313 0.130208 0.195313 0.0976564 0.0651042 0.195313 0.0976564 0.130208 0.130208 0.195313 0.195313 0.130208 0.195313 0.195313 0.130208 0.130208 0.195313 0.195313 0.130208 0.195313 0.195313 0.130208 0.130208 0.195313 0.195313 0.130208 0.195313 0.195313 0.130208 0.130208 0.195313 0.195313 0.130208 0.195313 0.195313 0.130208 0.130208 0.195313 0.195313 0.130209 0.195313 0.195313 0.130208 0.130208 0.195313 0.195313 0.130208 0.195313 0.195313 0.130208 0.130208 0.195313 0.195313 0.130208 0.195313 0.195313 0.130208 0.130208 0.195313 0.195313 0.130208 0.195313 0.195313 0.130208 0.130208 0.195313 0.195313 0.130208 0.195313 0.195313 0.130208 0.130209 0.195313 0.195313 0.130209 0.195313 0.195313 0.130209 0.130209 0.195313 0.195313 0.130209 0.195313 0.195313 0.130208 0.130208 0.195313 0.195313 0.130208 0.195313 0.195313 0.130208 0.130208 0.195313 0.195313 0.130209 0.195313 0.195313 0.130208 0.130208 0.195313 0.195313 0.130208 0.195313 0.195313 0.130208 0.130209 0.195313 0.195313 0.130209 0.195313 0.195313 0.130208 0.130209 0.195313 0.195313 0.130209 0.195313 0.195313 0.130209 0.130208 0.195313 0.195313 0.130209 0.195313 0.195313 0.130208 0.130208 0.195313 0.195313 0.130209 0.195313 0.195313 0.130209 0.130209 0.195313 0.195313 0.130209 0.195313 0.195313 0.130208 0.130209 0.195313 0.195313 0.130209 0.195313 0.195313 0.130209 0.130208 0.195313 0.195312 0.130208 0.195313 0.195313 0.130208 0.130208 0.195313 0.195313 0.130209 0.195313 0.195313 0.130208 0.130209 0.195313 0.195313 0.130209 0.195313 0.195313 0.130208 0.130208 0.195312 0.195313 0.130208 0.195313 0.195312 0.130208 0.130209 0.195313 0.195312 0.130209 0.195312 0.195313 0.130208 0.130208 0.195312 0.195313 0.130208 0.195313 0.195312 0.130208 0.130209 0.195313 0.195313 0.130209 0.195313 0.195313 0.130209 0.130208 0.195312 0.195312 0.130208 0.195312 0.195312 0.130208 0.130208 0.195313 0.195313 0.130209 0.195313 0.195313 0.130208 0.130209 0.195313 0.195313 0.130209 0.195313 0.195313 0.130208 0.130209 0.195313 0.0976565 0.130209 0.0976565 0.195313 0.0651044 0.130208 0.195313 0.195313 0.130208 0.195313 0.0976563 0.0651042 0.195313 0.0976563 0.130208 0.130208 0.195313 0.195313 0.130208 0.195313 0.195313 0.130208 0.130208 0.195313 0.195313 0.130208 0.195313 0.195313 0.130208 0.130208 0.195313 0.195313 0.130208 0.195313 0.195313 0.130208 0.130208 0.195313 0.195313 0.130208 0.195313 0.195313 0.130208 0.130208 0.195313 0.195313 0.130208 0.195313 0.195313 0.130208 0.130208 0.195313 0.195312 0.130208 0.195313 0.195313 0.130208 0.130208 0.195312 0.195313 0.130208 0.195313 0.195313 0.130208 0.130208 0.195312 0.195313 0.130208 0.195313 0.195313 0.130208 0.130208 0.195313 0.195313 0.130208 0.195313 0.195313 0.130208 0.130208 0.195313 0.195313 0.130208 0.195313 0.195313 0.130208 0.130209 0.195313 0.195313 0.130208 0.195313 0.195313 0.130208 0.130208 0.195313 0.195313 0.130208 0.195313 0.195313 0.130208 0.130208 0.195313 0.195312 0.130208 0.195313 0.195313 0.130208 0.130208 0.195312 0.195313 0.130208 0.195313 0.195313 0.130208 0.130209 0.195313 0.195313 0.130208 0.195313 0.195313 0.130208 0.130209 0.195313 0.195313 0.130209 0.195313 0.195313 0.130208 0.130208 0.195313 0.195313 0.130208 0.195313 0.195313 0.130208 0.130208 0.195313 0.195313 0.130209 0.195313 0.195313 0.130209 0.130209 0.195313 0.195313 0.130209 0.195313 0.195313 0.130208 0.130209 0.195313 0.195313 0.130209 0.195313 0.195313 0.130209 0.130208 0.195313 0.195312 0.130208 0.195313 0.195313 0.130208 0.130208 0.195313 0.195313 0.130208 0.195313 0.195313 0.130208 0.130209 0.195313 0.195313 0.130209 0.195313 0.195313 0.130208 0.130208 0.195312 0.195313 0.130208 0.195313 0.195312 0.130208 0.130209 0.195313 0.195312 0.130209 0.195312 0.195313 0.130208 0.130208 0.195312 0.195313 0.130208 0.195313 0.195312 0.130208 0.130209 0.195313 0.195313 0.130209 0.195313 0.195313 0.130209 0.130208 0.195312 0.195312 0.130208 0.195312 0.195312 0.130208 0.130208 0.195313 0.195313 0.130209 0.195313 0.195313 0.130208 0.130209 0.195313 0.195313 0.130209 0.195313 0.195313 0.130208 0.130209 0.195313 0.0976565 0.130209 0.0976565 0.195313 0.0651044 0.130208 0.195313 0.195313 0.130208 0.195313 0.0976564 0.0651042 0.195313 0.0976563 0.130208 0.130208 0.195313 0.195313 0.130208 0.195313 0.195313 0.130208 0.130208 0.195313 0.195313 0.130208 0.195313 0.195313 0.130208 0.130208 0.195313 0.195313 0.130208 0.195313 0.195313 0.130208 0.130208 0.195313 0.195313 0.130208 0.195313 0.195313 0.130208 0.130208 0.195313 0.195313 0.130208 0.195313 0.195313 0.130208 0.130208 0.195313 0.195313 0.130208 0.195313 0.195313 0.130208 0.130208 0.195313 0.195313 0.130208 0.195313 0.195313 0.130208 0.130208 0.195313 0.195313 0.130208 0.195313 0.195313 0.130208 0.130208 0.195313 0.195313 0.130208 0.195313 0.195313 0.130208 0.130209 0.195313 0.195313 0.130209 0.195313 0.195313 0.130208 0.130209 0.195313 0.195313 0.130209 0.195313 0.195313 0.130208 0.130208 0.195313 0.195313 0.130208 0.195313 0.195313 0.130208 0.130208 0.195313 0.195313 0.130208 0.195313 0.195313 0.130208 0.130208 0.195312 0.195313 0.130208 0.195313 0.195313 0.130208 0.130209 0.195313 0.195313 0.130209 0.195313 0.195313 0.130208 0.130209 0.195313 0.195313 0.130209 0.195313 0.195313 0.130209 0.130209 0.195313 0.195313 0.130208 0.195313 0.195313 0.130208 0.130208 0.195313 0.195313 0.130209 0.195313 0.195313 0.130209 0.130209 0.195313 0.195313 0.130209 0.195313 0.195313 0.130208 0.130209 0.195313 0.195313 0.130209 0.195313 0.195313 0.130209 0.130208 0.195313 0.195313 0.130208 0.195313 0.195313 0.130208 0.130208 0.195313 0.195313 0.130209 0.195313 0.195313 0.130208 0.130209 0.195313 0.195313 0.130209 0.195313 0.195313 0.130208 0.130208 0.195312 0.195313 0.130208 0.195313 0.195312 0.130208 0.130209 0.195313 0.195312 0.130209 0.195312 0.195313 0.130208 0.130208 0.195312 0.195313 0.130208 0.195313 0.195312 0.130208 0.130209 0.195313 0.195313 0.130209 0.195313 0.195313 0.130209 0.130208 0.195312 0.195312 0.130208 0.195312 0.195312 0.130208 0.130208 0.195313 0.195313 0.130209 0.195313 0.195313 0.130208 0.130209 0.195313 0.195313 0.130209 0.195313 0.195313 0.130208 0.130209 0.195313 0.0976566 0.130209 0.0976565 0.195313 0.0651044 0.130208 0.195313 0.195313 0.130208 0.195313 0.0976564 0.0651043 0.195313 0.0976564 0.130208 0.130208 0.195313 0.195313 0.130208 0.195313 0.195313 0.130208 0.130208 0.195313 0.195313 0.130209 0.195313 0.195313 0.130208 0.130208 0.195313 0.195313 0.130208 0.195313 0.195313 0.130208 0.130208 0.195313 0.195313 0.130208 0.195313 0.195313 0.130208 0.130208 0.195313 0.195313 0.130209 0.195313 0.195313 0.130208 0.130208 0.195313 0.195313 0.130208 0.195313 0.195313 0.130208 0.130208 0.195313 0.195313 0.130208 0.195313 0.195313 0.130208 0.130208 0.195313 0.195313 0.130208 0.195313 0.195313 0.130208 0.130208 0.195313 0.195313 0.130208 0.195313 0.195313 0.130208 0.130209 0.195313 0.195313 0.130209 0.195313 0.195313 0.130209 0.130209 0.195313 0.195313 0.130209 0.195313 0.195313 0.130208 0.130208 0.195313 0.195313 0.130208 0.195313 0.195313 0.130208 0.130208 0.195313 0.195313 0.130209 0.195313 0.195313 0.130208 0.130208 0.195313 0.195313 0.130208 0.195313 0.195313 0.130208 0.130209 0.195313 0.195313 0.130209 0.195313 0.195313 0.130209 0.130209 0.195313 0.195313 0.130209 0.195313 0.195313 0.130209 0.130209 0.195313 0.195313 0.130209 0.195313 0.195313 0.130208 0.130208 0.195313 0.195313 0.130209 0.195313 0.195313 0.130209 0.130209 0.195313 0.195313 0.130209 0.195313 0.195313 0.130208 0.130209 0.195313 0.195313 0.130209 0.195313 0.195313 0.130209 0.130209 0.195313 0.195313 0.130208 0.195313 0.195313 0.130208 0.130208 0.195313 0.195313 0.130209 0.195313 0.195313 0.130208 0.130209 0.195313 0.195313 0.130209 0.195313 0.195313 0.130208 0.130208 0.195312 0.195313 0.130208 0.195313 0.195312 0.130209 0.130209 0.195313 0.195312 0.130209 0.195312 0.195313 0.130208 0.130208 0.195312 0.195313 0.130208 0.195313 0.195312 0.130208 0.130209 0.195313 0.195313 0.130209 0.195313 0.195313 0.130209 0.130208 0.195312 0.195312 0.130208 0.195312 0.195312 0.130208 0.130208 0.195313 0.195313 0.130209 0.195313 0.195313 0.130208 0.130209 0.195313 0.195313 0.130209 0.195313 0.195313 0.130208 0.130209 0.195313 0.0976566 0.130209 0.0976566 0.195313 0.0651044 0.130208 0.195313 0.195313 0.130208 0.195313 0.0976563 0.0651042 0.195313 0.0976564 0.130208 0.130208 0.195313 0.195313 0.130208 0.195313 0.195313 0.130208 0.130208 0.195313 0.195313 0.130208 0.195313 0.195313 0.130208 0.130208 0.195313 0.195313 0.130208 0.195313 0.195313 0.130208 0.130208 0.195313 0.195313 0.130208 0.195313 0.195313 0.130208 0.130208 0.195313 0.195313 0.130208 0.195313 0.195313 0.130208 0.130208 0.195313 0.195312 0.130208 0.195313 0.195313 0.130208 0.130208 0.195313 0.195313 0.130208 0.195313 0.195313 0.130208 0.130208 0.195313 0.195312 0.130208 0.195313 0.195313 0.130208 0.130208 0.195313 0.195313 0.130208 0.195313 0.195313 0.130208 0.130208 0.195313 0.195313 0.130209 0.195313 0.195313 0.130209 0.130208 0.195313 0.195313 0.130209 0.195313 0.195313 0.130208 0.130208 0.195313 0.195313 0.130208 0.195313 0.195313 0.130208 0.130208 0.195313 0.195312 0.130208 0.195313 0.195313 0.130208 0.130208 0.195312 0.195313 0.130208 0.195313 0.195312 0.130208 0.130209 0.195313 0.195313 0.130209 0.195313 0.195313 0.130208 0.130209 0.195313 0.195313 0.130209 0.195313 0.195313 0.130209 0.130208 0.195313 0.195313 0.130208 0.195313 0.195313 0.130208 0.130208 0.195313 0.195313 0.130209 0.195313 0.195313 0.130209 0.130209 0.195313 0.195313 0.130209 0.195313 0.195313 0.130208 0.130209 0.195313 0.195313 0.130209 0.195313 0.195313 0.130209 0.130208 0.195313 0.195312 0.130208 0.195313 0.195313 0.130208 0.130208 0.195313 0.195313 0.130209 0.195313 0.195313 0.130208 0.130208 0.195313 0.195313 0.130209 0.195313 0.195313 0.130208 0.130208 0.195312 0.195313 0.130208 0.195313 0.195312 0.130208 0.130209 0.195313 0.195312 0.130209 0.195312 0.195313 0.130208 0.130208 0.195312 0.195313 0.130208 0.195313 0.195312 0.130208 0.130209 0.195313 0.195313 0.130209 0.195313 0.195313 0.130209 0.130208 0.195312 0.195312 0.130208 0.195312 0.195312 0.130208 0.130208 0.195313 0.195313 0.130209 0.195313 0.195313 0.130208 0.130209 0.195313 0.195313 0.130209 0.195313 0.195313 0.130208 0.130209 0.195313 0.0976565 0.130209 0.0976565 0.195313 0.0651044 0.0651042 0.195313 0.0976562 0.130208 0.195313 0.0325521 0.0651042 0.0976563 0.0976563 0.130208 0.0651042 0.195313 0.0976562 0.130208 0.195313 0.0976563 0.130208 0.0651042 0.195313 0.0976562 0.130208 0.195313 0.0976563 0.130208 0.0651042 0.195313 0.0976562 0.130208 0.195313 0.0976563 0.130208 0.0651042 0.195312 0.0976562 0.130208 0.195313 0.0976563 0.130208 0.0651042 0.195313 0.0976562 0.130208 0.195313 0.0976563 0.130208 0.0651042 0.195313 0.0976562 0.130208 0.195313 0.0976563 0.130208 0.0651042 0.195312 0.0976563 0.130208 0.195313 0.0976563 0.130208 0.0651042 0.195312 0.0976562 0.130208 0.195312 0.0976563 0.130208 0.0651042 0.195312 0.0976562 0.130208 0.195313 0.0976563 0.130208 0.0651043 0.195313 0.0976563 0.130208 0.195313 0.0976564 0.130208 0.0651043 0.195313 0.0976563 0.130208 0.195313 0.0976564 0.130208 0.0651042 0.195313 0.0976562 0.130208 0.195313 0.0976563 0.130208 0.0651042 0.195313 0.0976562 0.130208 0.195313 0.0976563 0.130208 0.0651041 0.195312 0.0976562 0.130208 0.195313 0.0976562 0.130208 0.0651043 0.195313 0.0976564 0.130208 0.195313 0.0976565 0.130208 0.0651043 0.195313 0.0976563 0.130208 0.195313 0.0976565 0.130208 0.0651043 0.195313 0.0976562 0.130208 0.195313 0.0976564 0.130208 0.0651042 0.195313 0.0976564 0.130209 0.195313 0.0976564 0.130209 0.0651044 0.195313 0.0976562 0.130208 0.195313 0.0976566 0.130208 0.0651042 0.195313 0.0976563 0.130209 0.195313 0.0976564 0.130208 0.0651042 0.195313 0.0976561 0.130208 0.195313 0.0976563 0.130208 0.0651042 0.195313 0.0976563 0.130208 0.195313 0.0976563 0.130208 0.0651043 0.195313 0.0976562 0.130208 0.195312 0.0976564 0.130208 0.0651041 0.195312 0.0976562 0.130208 0.195313 0.0976562 0.130208 0.0651044 0.195313 0.0976562 0.130209 0.195312 0.0976566 0.130208 0.0651041 0.195312 0.0976562 0.130208 0.195313 0.0976561 0.130208 0.0651044 0.195313 0.0976564 0.130209 0.195313 0.0976566 0.130208 0.0651043 0.195312 0.0976561 0.130208 0.195312 0.0976565 0.130208 0.0651043 0.195313 0.0976563 0.130209 0.195313 0.0976565 0.130208 0.0651044 0.195313 0.0976563 0.130209 0.195313 0.0976567 0.130208 0.0651044 0.195313 0.0651043 0.130208 0.0976565 0.0976565 0.0651043 0.130208 0.195313 0.195313 0.130208 0.195313 0.0976563 0.0651042 0.0651042 0.0976563 0.0651042 0.195313 0.0976562 0.0976563 0.130208 0.130208 0.195313 0.195313 0.130208 0.195313 0.0976562 0.0651042 0.195313 0.0976562 0.130208 0.130208 0.195313 0.195313 0.130208 0.195313 0.0976563 0.0651042 0.195313 0.0976563 0.130208 0.130208 0.195313 0.195313 0.130208 0.195312 0.0976562 0.0651042 0.195313 0.0976562 0.130208 0.130208 0.195313 0.195313 0.130208 0.195313 0.0976562 0.0651042 0.195313 0.0976563 0.130208 0.130208 0.195313 0.195313 0.130208 0.195313 0.0976563 0.0651042 0.195313 0.0976563 0.130208 0.130208 0.195313 0.195312 0.130208 0.195312 0.0976562 0.0651042 0.195313 0.0976562 0.130208 0.130208 0.195312 0.195313 0.130208 0.195312 0.0976562 0.0651041 0.195312 0.0976562 0.130208 0.130208 0.195312 0.195312 0.130208 0.195312 0.0976562 0.0651041 0.195312 0.0976562 0.130208 0.130208 0.195313 0.195313 0.130208 0.195313 0.0976562 0.0651042 0.195312 0.0976563 0.130208 0.130208 0.195313 0.195313 0.130208 0.195313 0.0976563 0.0651042 0.195313 0.0976563 0.130208 0.130208 0.195313 0.195313 0.130208 0.195312 0.0976562 0.0651042 0.195313 0.0976562 0.130208 0.130208 0.195313 0.195313 0.130208 0.195313 0.0976563 0.0651042 0.195313 0.0976563 0.130208 0.130208 0.195313 0.195312 0.130208 0.195312 0.0976563 0.0651042 0.195313 0.0976562 0.130208 0.130208 0.195312 0.195313 0.130208 0.195313 0.0976562 0.0651041 0.195312 0.0976563 0.130208 0.130209 0.195313 0.195313 0.130208 0.195313 0.0976562 0.0651042 0.195313 0.0976563 0.130208 0.130209 0.195313 0.195313 0.130208 0.195313 0.0976563 0.0651042 0.195313 0.0976564 0.130209 0.130208 0.195313 0.195313 0.130208 0.195312 0.0976562 0.0651042 0.195313 0.0976563 0.130208 0.130208 0.195313 0.195313 0.130208 0.195313 0.0976564 0.0651042 0.195313 0.0976564 0.130209 0.130209 0.195313 0.195313 0.130208 0.195312 0.0976561 0.0651041 0.195313 0.0976563 0.130208 0.130209 0.195313 0.195313 0.130209 0.195313 0.0976565 0.0651043 0.195313 0.0976564 0.130209 0.130208 0.195313 0.195312 0.130208 0.195312 0.0976563 0.0651042 0.195313 0.0976563 0.130208 0.130208 0.195313 0.195313 0.130208 0.195313 0.0976563 0.0651042 0.195313 0.0976563 0.130208 0.130208 0.195313 0.195313 0.130208 0.195312 0.0976563 0.0651042 0.195313 0.0976562 0.130208 0.130208 0.195312 0.195313 0.130208 0.195313 0.0976561 0.0651041 0.195312 0.0976563 0.130208 0.130209 0.195313 0.195312 0.130208 0.195312 0.0976562 0.0651042 0.195313 0.0976561 0.130208 0.130208 0.195312 0.195313 0.130208 0.195313 0.097656 0.065104 0.195312 0.0976563 0.130208 0.130209 0.195313 0.195313 0.130209 0.195313 0.0976564 0.0651043 0.195313 0.0976564 0.130209 0.130208 0.195312 0.195312 0.130208 0.195312 0.0976558 0.065104 0.195312 0.0976563 0.130208 0.130208 0.195313 0.195313 0.130208 0.195313 0.0976561 0.0651041 0.195313 0.0976564 0.130208 0.130209 0.195313 0.195313 0.130209 0.195313 0.0976562 0.0651042 0.195313 0.0976561 0.130208 0.130209 0.195313 0.0976566 0.130208 0.0976565 0.0976565 0.0651043 0.195313 0.0325522 0.0651044 0.130208 0.195313 0.195313 0.130208 0.195313 0.0976563 0.0651042 0.195313 0.0976562 0.130208 0.130208 0.195313 0.195313 0.130208 0.195313 0.195313 0.130208 0.130208 0.195313 0.195313 0.130208 0.195313 0.195313 0.130208 0.130208 0.195313 0.195313 0.130208 0.195313 0.195313 0.130208 0.130208 0.195313 0.195313 0.130208 0.195313 0.195313 0.130208 0.130208 0.195313 0.195313 0.130208 0.195313 0.195313 0.130208 0.130208 0.195313 0.195312 0.130208 0.195312 0.195312 0.130208 0.130208 0.195313 0.195313 0.130208 0.195312 0.195312 0.130208 0.130208 0.195312 0.195313 0.130208 0.195312 0.195312 0.130208 0.130208 0.195313 0.195313 0.130208 0.195313 0.195312 0.130208 0.130208 0.195313 0.195313 0.130208 0.195313 0.195313 0.130209 0.130208 0.195313 0.195313 0.130208 0.195312 0.195313 0.130208 0.130208 0.195313 0.195313 0.130208 0.195313 0.195313 0.130208 0.130208 0.195313 0.195313 0.130208 0.195312 0.195313 0.130208 0.130208 0.195312 0.195313 0.130208 0.195313 0.195312 0.130208 0.130209 0.195313 0.195313 0.130208 0.195313 0.195313 0.130208 0.130209 0.195313 0.195313 0.130208 0.195313 0.195313 0.130209 0.130208 0.195313 0.195313 0.130208 0.195313 0.195313 0.130208 0.130208 0.195313 0.195313 0.130208 0.195313 0.195313 0.130209 0.130209 0.195313 0.195313 0.130208 0.195313 0.195313 0.130208 0.130209 0.195313 0.195313 0.130209 0.195313 0.195313 0.130209 0.130208 0.195313 0.195312 0.130208 0.195313 0.195313 0.130208 0.130208 0.195313 0.195313 0.130208 0.195313 0.195313 0.130208 0.130208 0.195313 0.195313 0.130208 0.195312 0.195313 0.130208 0.130208 0.195312 0.195313 0.130208 0.195313 0.195312 0.130208 0.130209 0.195313 0.195312 0.130208 0.195312 0.195313 0.130208 0.130208 0.195312 0.195313 0.130208 0.195313 0.195312 0.130208 0.130209 0.195313 0.195313 0.130209 0.195313 0.195313 0.130209 0.130208 0.195312 0.195312 0.130208 0.195312 0.195312 0.130208 0.130208 0.195313 0.195313 0.130208 0.195313 0.195313 0.130208 0.130209 0.195313 0.195313 0.130209 0.195313 0.195313 0.130208 0.130209 0.195313 0.0976566 0.130208 0.0976565 0.195313 0.0651044 0.130208 0.195313 0.195313 0.130208 0.195313 0.0976563 0.0651042 0.195313 0.0976563 0.130208 0.130208 0.195313 0.195313 0.130208 0.195313 0.195313 0.130208 0.130208 0.195313 0.195313 0.130208 0.195313 0.195313 0.130208 0.130208 0.195313 0.195313 0.130208 0.195313 0.195313 0.130208 0.130208 0.195313 0.195313 0.130208 0.195313 0.195313 0.130208 0.130208 0.195313 0.195313 0.130208 0.195313 0.195313 0.130208 0.130208 0.195313 0.195312 0.130208 0.195312 0.195312 0.130208 0.130208 0.195313 0.195313 0.130208 0.195313 0.195312 0.130208 0.130208 0.195313 0.195312 0.130208 0.195312 0.195312 0.130208 0.130208 0.195313 0.195313 0.130208 0.195313 0.195312 0.130208 0.130208 0.195313 0.195313 0.130208 0.195313 0.195313 0.130209 0.130209 0.195313 0.195313 0.130208 0.195312 0.195313 0.130208 0.130208 0.195313 0.195313 0.130208 0.195313 0.195313 0.130208 0.130208 0.195313 0.195313 0.130208 0.195313 0.195313 0.130208 0.130208 0.195312 0.195313 0.130208 0.195313 0.195312 0.130208 0.130209 0.195313 0.195313 0.130208 0.195313 0.195313 0.130208 0.130209 0.195313 0.195313 0.130208 0.195313 0.195313 0.130209 0.130208 0.195313 0.195313 0.130208 0.195313 0.195313 0.130208 0.130208 0.195313 0.195313 0.130208 0.195313 0.195313 0.130209 0.130209 0.195313 0.195313 0.130208 0.195313 0.195313 0.130208 0.130209 0.195313 0.195313 0.130209 0.195313 0.195313 0.130209 0.130208 0.195313 0.195312 0.130208 0.195313 0.195313 0.130208 0.130208 0.195313 0.195313 0.130208 0.195313 0.195313 0.130208 0.130208 0.195313 0.195313 0.130208 0.195312 0.195313 0.130208 0.130208 0.195312 0.195313 0.130208 0.195313 0.195312 0.130208 0.130209 0.195313 0.195312 0.130208 0.195312 0.195313 0.130208 0.130208 0.195312 0.195313 0.130208 0.195313 0.195312 0.130208 0.130209 0.195313 0.195313 0.130209 0.195313 0.195313 0.130209 0.130208 0.195312 0.195312 0.130208 0.195312 0.195312 0.130208 0.130208 0.195313 0.195313 0.130208 0.195313 0.195313 0.130208 0.130209 0.195313 0.195313 0.130209 0.195313 0.195313 0.130208 0.130209 0.195313 0.0976566 0.130208 0.0976565 0.195313 0.0651044 0.130208 0.195313 0.195313 0.130208 0.195312 0.0976562 0.0651042 0.195313 0.0976562 0.130208 0.130208 0.195313 0.195313 0.130208 0.195312 0.195313 0.130208 0.130208 0.195313 0.195313 0.130208 0.195312 0.195313 0.130208 0.130208 0.195313 0.195313 0.130208 0.195312 0.195313 0.130208 0.130208 0.195313 0.195313 0.130208 0.195312 0.195313 0.130208 0.130208 0.195313 0.195313 0.130208 0.195312 0.195313 0.130208 0.130208 0.195313 0.195312 0.130208 0.195312 0.195312 0.130208 0.130208 0.195312 0.195313 0.130208 0.195312 0.195312 0.130208 0.130208 0.195312 0.195312 0.130208 0.195312 0.195312 0.130208 0.130208 0.195312 0.195313 0.130208 0.195312 0.195312 0.130208 0.130208 0.195313 0.195313 0.130208 0.195313 0.195313 0.130208 0.130208 0.195313 0.195313 0.130208 0.195312 0.195313 0.130208 0.130208 0.195313 0.195313 0.130208 0.195312 0.195313 0.130208 0.130208 0.195313 0.195312 0.130208 0.195312 0.195313 0.130208 0.130208 0.195312 0.195313 0.130208 0.195313 0.195312 0.130208 0.130209 0.195313 0.195313 0.130208 0.195313 0.195313 0.130208 0.130209 0.195313 0.195313 0.130208 0.195313 0.195313 0.130209 0.130208 0.195313 0.195313 0.130208 0.195312 0.195313 0.130208 0.130208 0.195313 0.195313 0.130208 0.195313 0.195313 0.130209 0.130209 0.195313 0.195313 0.130208 0.195312 0.195313 0.130208 0.130209 0.195313 0.195313 0.130209 0.195313 0.195313 0.130209 0.130208 0.195313 0.195312 0.130208 0.195312 0.195313 0.130208 0.130208 0.195313 0.195313 0.130208 0.195313 0.195313 0.130208 0.130208 0.195313 0.195313 0.130208 0.195312 0.195313 0.130208 0.130208 0.195312 0.195313 0.130208 0.195313 0.195312 0.130208 0.130209 0.195313 0.195312 0.130208 0.195312 0.195313 0.130208 0.130208 0.195312 0.195313 0.130208 0.195313 0.195312 0.130208 0.130209 0.195313 0.195313 0.130209 0.195313 0.195313 0.130209 0.130208 0.195312 0.195312 0.130208 0.195312 0.195312 0.130208 0.130208 0.195313 0.195313 0.130208 0.195313 0.195313 0.130208 0.130209 0.195313 0.195313 0.130209 0.195313 0.195313 0.130208 0.130209 0.195313 0.0976566 0.130208 0.0976564 0.195313 0.0651044 0.130208 0.195313 0.195313 0.130208 0.195313 0.0976563 0.0651042 0.195313 0.0976562 0.130208 0.130208 0.195313 0.195313 0.130208 0.195313 0.195313 0.130208 0.130208 0.195313 0.195313 0.130208 0.195313 0.195313 0.130208 0.130208 0.195313 0.195313 0.130208 0.195312 0.195313 0.130208 0.130208 0.195313 0.195313 0.130208 0.195313 0.195313 0.130208 0.130208 0.195313 0.195313 0.130208 0.195313 0.195313 0.130208 0.130208 0.195313 0.195313 0.130208 0.195312 0.195313 0.130208 0.130208 0.195312 0.195313 0.130208 0.195312 0.195312 0.130208 0.130208 0.195313 0.195313 0.130208 0.195312 0.195312 0.130208 0.130208 0.195313 0.195313 0.130208 0.195313 0.195312 0.130208 0.130208 0.195313 0.195313 0.130208 0.195313 0.195313 0.130208 0.130208 0.195313 0.195313 0.130208 0.195312 0.195313 0.130208 0.130208 0.195313 0.195313 0.130208 0.195313 0.195313 0.130208 0.130208 0.195313 0.195313 0.130208 0.195312 0.195313 0.130208 0.130208 0.195312 0.195313 0.130208 0.195313 0.195312 0.130208 0.130209 0.195313 0.195313 0.130208 0.195313 0.195313 0.130208 0.130209 0.195313 0.195313 0.130208 0.195313 0.195313 0.130209 0.130208 0.195313 0.195313 0.130208 0.195312 0.195313 0.130208 0.130208 0.195313 0.195313 0.130208 0.195313 0.195313 0.130209 0.130209 0.195313 0.195313 0.130208 0.195312 0.195313 0.130208 0.130209 0.195313 0.195313 0.130209 0.195313 0.195313 0.130209 0.130208 0.195313 0.195312 0.130208 0.195313 0.195313 0.130208 0.130208 0.195313 0.195313 0.130208 0.195313 0.195313 0.130208 0.130208 0.195313 0.195313 0.130208 0.195312 0.195313 0.130208 0.130208 0.195312 0.195313 0.130208 0.195313 0.195312 0.130208 0.130209 0.195313 0.195312 0.130208 0.195312 0.195313 0.130208 0.130208 0.195312 0.195313 0.130208 0.195313 0.195312 0.130208 0.130209 0.195313 0.195313 0.130209 0.195313 0.195313 0.130209 0.130208 0.195312 0.195312 0.130208 0.195312 0.195312 0.130208 0.130208 0.195313 0.195313 0.130208 0.195313 0.195313 0.130208 0.130209 0.195313 0.195313 0.130209 0.195313 0.195313 0.130208 0.130209 0.195313 0.0976566 0.130208 0.0976565 0.195313 0.0651044 0.130208 0.195313 0.195313 0.130208 0.195313 0.0976563 0.0651042 0.195313 0.0976563 0.130208 0.130208 0.195313 0.195313 0.130208 0.195313 0.195313 0.130208 0.130208 0.195313 0.195313 0.130208 0.195313 0.195313 0.130208 0.130208 0.195313 0.195313 0.130208 0.195313 0.195313 0.130208 0.130208 0.195313 0.195313 0.130208 0.195313 0.195313 0.130208 0.130208 0.195313 0.195313 0.130208 0.195313 0.195313 0.130208 0.130208 0.195313 0.195313 0.130208 0.195313 0.195313 0.130208 0.130208 0.195313 0.195313 0.130208 0.195313 0.195312 0.130208 0.130208 0.195313 0.195313 0.130208 0.195312 0.195312 0.130208 0.130208 0.195313 0.195313 0.130208 0.195313 0.195313 0.130208 0.130208 0.195313 0.195313 0.130208 0.195313 0.195313 0.130209 0.130209 0.195313 0.195313 0.130208 0.195313 0.195313 0.130208 0.130208 0.195313 0.195313 0.130208 0.195313 0.195313 0.130208 0.130208 0.195313 0.195313 0.130208 0.195313 0.195313 0.130208 0.130208 0.195313 0.195313 0.130208 0.195313 0.195312 0.130208 0.130209 0.195313 0.195313 0.130208 0.195313 0.195313 0.130209 0.130209 0.195313 0.195313 0.130208 0.195313 0.195313 0.130209 0.130208 0.195313 0.195313 0.130208 0.195313 0.195313 0.130208 0.130208 0.195313 0.195313 0.130209 0.195313 0.195313 0.130209 0.130209 0.195313 0.195313 0.130208 0.195313 0.195313 0.130208 0.130209 0.195313 0.195313 0.130209 0.195313 0.195313 0.130209 0.130208 0.195313 0.195313 0.130208 0.195313 0.195313 0.130208 0.130208 0.195313 0.195313 0.130208 0.195313 0.195313 0.130208 0.130209 0.195313 0.195313 0.130208 0.195312 0.195313 0.130208 0.130208 0.195312 0.195313 0.130208 0.195313 0.195312 0.130209 0.130209 0.195313 0.195312 0.130209 0.195312 0.195313 0.130208 0.130208 0.195312 0.195313 0.130208 0.195313 0.195312 0.130208 0.130209 0.195313 0.195313 0.130209 0.195313 0.195313 0.130209 0.130208 0.195312 0.195312 0.130208 0.195312 0.195312 0.130208 0.130208 0.195313 0.195313 0.130208 0.195313 0.195313 0.130208 0.130209 0.195313 0.195313 0.130209 0.195313 0.195313 0.130208 0.130209 0.195313 0.0976566 0.130208 0.0976565 0.195313 0.0651044 0.130208 0.195313 0.195313 0.130208 0.195313 0.0976562 0.0651042 0.195312 0.0976563 0.130208 0.130208 0.195313 0.195313 0.130208 0.195313 0.195312 0.130208 0.130208 0.195313 0.195313 0.130208 0.195313 0.195312 0.130208 0.130208 0.195313 0.195313 0.130208 0.195313 0.195312 0.130208 0.130208 0.195313 0.195313 0.130208 0.195313 0.195312 0.130208 0.130208 0.195313 0.195313 0.130208 0.195313 0.195313 0.130208 0.130208 0.195313 0.195312 0.130208 0.195312 0.195312 0.130208 0.130208 0.195312 0.195313 0.130208 0.195312 0.195312 0.130208 0.130208 0.195312 0.195312 0.130208 0.195312 0.195312 0.130208 0.130208 0.195313 0.195313 0.130208 0.195313 0.195312 0.130208 0.130208 0.195313 0.195313 0.130208 0.195313 0.195313 0.130209 0.130208 0.195313 0.195313 0.130208 0.195312 0.195313 0.130208 0.130208 0.195313 0.195313 0.130208 0.195313 0.195312 0.130208 0.130208 0.195313 0.195312 0.130208 0.195312 0.195313 0.130208 0.130208 0.195312 0.195313 0.130208 0.195313 0.195312 0.130208 0.130208 0.195313 0.195313 0.130208 0.195313 0.195313 0.130208 0.130209 0.195313 0.195313 0.130208 0.195313 0.195313 0.130209 0.130208 0.195313 0.195313 0.130208 0.195313 0.195313 0.130208 0.130208 0.195313 0.195313 0.130208 0.195313 0.195313 0.130209 0.130209 0.195313 0.195313 0.130208 0.195313 0.195313 0.130208 0.130209 0.195313 0.195313 0.130209 0.195313 0.195313 0.130209 0.130208 0.195313 0.195312 0.130208 0.195313 0.195312 0.130208 0.130208 0.195313 0.195313 0.130208 0.195313 0.195312 0.130208 0.130208 0.195313 0.195313 0.130208 0.195312 0.195313 0.130208 0.130208 0.195312 0.195313 0.130208 0.195313 0.195312 0.130208 0.130209 0.195313 0.195312 0.130208 0.195312 0.195313 0.130208 0.130208 0.195312 0.195313 0.130208 0.195313 0.195312 0.130208 0.130209 0.195313 0.195313 0.130209 0.195313 0.195313 0.130209 0.130208 0.195312 0.195312 0.130208 0.195312 0.195312 0.130208 0.130208 0.195313 0.195313 0.130208 0.195313 0.195312 0.130208 0.130209 0.195313 0.195312 0.130209 0.195313 0.195313 0.130208 0.130209 0.195313 0.0976566 0.130208 0.0976565 0.195313 0.0651044 0.0651042 0.195312 0.0976563 0.130208 0.195312 0.0325521 0.0651042 0.0976563 0.0976562 0.130208 0.0651042 0.195312 0.0976563 0.130208 0.195312 0.0976563 0.130208 0.0651042 0.195312 0.0976563 0.130208 0.195312 0.0976563 0.130208 0.0651042 0.195312 0.0976563 0.130208 0.195312 0.0976563 0.130208 0.0651042 0.195312 0.0976563 0.130208 0.195312 0.0976563 0.130208 0.0651042 0.195313 0.0976563 0.130208 0.195312 0.0976563 0.130208 0.0651042 0.195312 0.0976563 0.130208 0.195312 0.0976563 0.130208 0.0651042 0.195312 0.0976563 0.130208 0.195312 0.0976562 0.130208 0.0651043 0.195312 0.0976563 0.130208 0.195312 0.0976563 0.130208 0.0651042 0.195312 0.0976563 0.130208 0.195312 0.0976563 0.130208 0.0651043 0.195313 0.0976564 0.130208 0.195313 0.0976563 0.130208 0.0651043 0.195313 0.0976563 0.130208 0.195312 0.0976564 0.130208 0.0651042 0.195312 0.0976563 0.130208 0.195312 0.0976562 0.130208 0.0651042 0.195313 0.0976562 0.130208 0.195312 0.0976563 0.130208 0.0651042 0.195312 0.0976563 0.130208 0.195313 0.0976562 0.130208 0.0651044 0.195313 0.0976564 0.130208 0.195313 0.0976564 0.130208 0.0651044 0.195313 0.0976564 0.130208 0.195313 0.0976564 0.130208 0.0651043 0.195313 0.0976562 0.130208 0.195312 0.0976564 0.130208 0.0651042 0.195313 0.0976565 0.130208 0.195313 0.0976563 0.130209 0.0651044 0.195313 0.0976563 0.130208 0.195312 0.0976565 0.130208 0.0651042 0.195313 0.0976564 0.130208 0.195313 0.0976564 0.130208 0.0651042 0.195312 0.0976562 0.130208 0.195312 0.0976563 0.130208 0.0651042 0.195312 0.0976563 0.130208 0.195312 0.0976562 0.130208 0.0651043 0.195313 0.0976563 0.130208 0.195312 0.0976563 0.130208 0.0651041 0.195312 0.0976563 0.130208 0.195313 0.0976561 0.130208 0.0651044 0.195313 0.0976563 0.130208 0.195312 0.0976565 0.130208 0.0651041 0.195312 0.0976562 0.130208 0.195312 0.097656 0.130208 0.0651044 0.195313 0.0976565 0.130209 0.195313 0.0976565 0.130209 0.0651043 0.195312 0.0976561 0.130208 0.195312 0.0976564 0.130208 0.0651043 0.195312 0.0976563 0.130208 0.195313 0.0976565 0.130208 0.0651044 0.195313 0.0976564 0.130208 0.195313 0.0976566 0.130208 0.0651044 0.195313 0.0651044 0.130208 0.0976564 0.0976564 0.0651044 0.130208 0.195312 0.195312 0.130208 0.195312 0.0976562 0.0651041 0.0651041 0.0976562 0.0651041 0.195312 0.0976562 0.0976562 0.130208 0.130208 0.195312 0.195312 0.130208 0.195312 0.0976562 0.0651041 0.195312 0.0976562 0.130208 0.130208 0.195312 0.195312 0.130208 0.195312 0.0976563 0.0651042 0.195312 0.0976562 0.130208 0.130208 0.195312 0.195312 0.130208 0.195312 0.0976562 0.0651041 0.195312 0.0976562 0.130208 0.130208 0.195312 0.195312 0.130208 0.195312 0.0976562 0.0651041 0.195312 0.0976562 0.130208 0.130208 0.195312 0.195312 0.130208 0.195312 0.0976563 0.0651042 0.195313 0.0976562 0.130208 0.130208 0.195312 0.195312 0.130208 0.195312 0.0976562 0.0651041 0.195312 0.0976561 0.130208 0.130208 0.195312 0.195312 0.130208 0.195312 0.0976562 0.0651041 0.195312 0.0976562 0.130208 0.130208 0.195312 0.195312 0.130208 0.195312 0.0976562 0.0651041 0.195312 0.0976562 0.130208 0.130208 0.195312 0.195312 0.130208 0.195312 0.0976562 0.0651041 0.195312 0.0976562 0.130208 0.130208 0.195313 0.195313 0.130208 0.195313 0.0976563 0.0651042 0.195313 0.0976562 0.130208 0.130208 0.195313 0.195312 0.130208 0.195312 0.0976562 0.0651041 0.195313 0.0976562 0.130208 0.130208 0.195312 0.195312 0.130208 0.195312 0.0976563 0.0651042 0.195312 0.0976563 0.130208 0.130208 0.195312 0.195312 0.130208 0.195312 0.0976563 0.0651042 0.195313 0.0976561 0.130208 0.130208 0.195312 0.195312 0.130208 0.195313 0.0976562 0.0651041 0.195312 0.0976562 0.130208 0.130208 0.195313 0.195313 0.130208 0.195313 0.0976562 0.0651041 0.195313 0.0976562 0.130208 0.130208 0.195313 0.195313 0.130208 0.195313 0.0976563 0.0651042 0.195313 0.0976563 0.130208 0.130208 0.195312 0.195312 0.130208 0.195312 0.0976562 0.0651041 0.195313 0.0976562 0.130208 0.130208 0.195313 0.195313 0.130208 0.195313 0.0976564 0.0651042 0.195313 0.0976564 0.130209 0.130208 0.195313 0.195313 0.130208 0.195312 0.0976561 0.0651041 0.195313 0.0976563 0.130208 0.130208 0.195313 0.195313 0.130209 0.195313 0.0976565 0.0651043 0.195313 0.0976563 0.130208 0.130208 0.195312 0.195312 0.130208 0.195312 0.0976563 0.0651042 0.195312 0.0976562 0.130208 0.130208 0.195312 0.195313 0.130208 0.195313 0.0976563 0.0651042 0.195312 0.0976563 0.130208 0.130208 0.195313 0.195312 0.130208 0.195312 0.0976563 0.0651042 0.195313 0.0976562 0.130208 0.130208 0.195312 0.195312 0.130208 0.195313 0.0976561 0.0651041 0.195312 0.0976562 0.130208 0.130208 0.195313 0.195312 0.130208 0.195312 0.0976562 0.0651041 0.195313 0.097656 0.130208 0.130208 0.195312 0.195312 0.130208 0.195312 0.097656 0.065104 0.195312 0.0976562 0.130208 0.130209 0.195313 0.195313 0.130209 0.195313 0.0976564 0.0651043 0.195313 0.0976563 0.130208 0.130208 0.195312 0.195312 0.130208 0.195312 0.0976558 0.0651039 0.195312 0.0976562 0.130208 0.130208 0.195312 0.195313 0.130208 0.195313 0.0976561 0.0651041 0.195312 0.0976563 0.130208 0.130209 0.195313 0.195312 0.130209 0.195313 0.0976562 0.0651042 0.195313 0.0976561 0.130208 0.130209 0.195313 0.0976566 0.130208 0.0976564 0.0976565 0.0651042 0.195313 0.0325522 0.0651044 0.130208 0.195312 0.195312 0.130208 0.195312 0.0976562 0.0651041 0.195312 0.0976562 0.130208 0.130208 0.195312 0.195312 0.130208 0.195312 0.195312 0.130208 0.130208 0.195312 0.195312 0.130208 0.195312 0.195312 0.130208 0.130208 0.195312 0.195312 0.130208 0.195312 0.195312 0.130208 0.130208 0.195312 0.195312 0.130208 0.195312 0.195312 0.130208 0.130208 0.195312 0.195312 0.130208 0.195312 0.195313 0.130208 0.130208 0.195312 0.195312 0.130208 0.195312 0.195312 0.130208 0.130208 0.195312 0.195312 0.130208 0.195312 0.195312 0.130208 0.130208 0.195312 0.195312 0.130208 0.195312 0.195312 0.130208 0.130208 0.195312 0.195312 0.130208 0.195312 0.195312 0.130208 0.130208 0.195313 0.195313 0.130208 0.195313 0.195313 0.130208 0.130208 0.195313 0.195312 0.130208 0.195312 0.195313 0.130208 0.130208 0.195312 0.195313 0.130208 0.195312 0.195312 0.130208 0.130208 0.195312 0.195312 0.130208 0.195312 0.195312 0.130208 0.130208 0.195312 0.195312 0.130208 0.195313 0.195312 0.130208 0.130208 0.195313 0.195313 0.130208 0.195313 0.195313 0.130208 0.130208 0.195313 0.195313 0.130208 0.195313 0.195313 0.130208 0.130208 0.195313 0.195312 0.130208 0.195312 0.195312 0.130208 0.130208 0.195313 0.195313 0.130208 0.195313 0.195313 0.130209 0.130208 0.195313 0.195313 0.130208 0.195312 0.195313 0.130208 0.130208 0.195313 0.195313 0.130209 0.195313 0.195313 0.130208 0.130208 0.195312 0.195312 0.130208 0.195312 0.195312 0.130208 0.130208 0.195312 0.195313 0.130208 0.195313 0.195312 0.130208 0.130208 0.195313 0.195312 0.130208 0.195312 0.195313 0.130208 0.130208 0.195312 0.195312 0.130208 0.195313 0.195312 0.130208 0.130208 0.195313 0.195312 0.130208 0.195312 0.195313 0.130208 0.130208 0.195312 0.195312 0.130208 0.195312 0.195312 0.130208 0.130209 0.195313 0.195313 0.130209 0.195313 0.195313 0.130209 0.130208 0.195312 0.195312 0.130208 0.195312 0.195312 0.130208 0.130208 0.195312 0.195313 0.130208 0.195313 0.195312 0.130208 0.130209 0.195313 0.195312 0.130209 0.195313 0.195313 0.130208 0.130209 0.195313 0.0976566 0.130208 0.0976565 0.195313 0.0651044 0.130208 0.195312 0.195312 0.130208 0.195312 0.0976562 0.0651041 0.195312 0.0976562 0.130208 0.130208 0.195312 0.195312 0.130208 0.195312 0.195312 0.130208 0.130208 0.195312 0.195312 0.130208 0.195312 0.195312 0.130208 0.130208 0.195312 0.195312 0.130208 0.195312 0.195312 0.130208 0.130208 0.195312 0.195312 0.130208 0.195312 0.195312 0.130208 0.130208 0.195313 0.195312 0.130208 0.195312 0.195312 0.130208 0.130208 0.195312 0.195312 0.130208 0.195312 0.195312 0.130208 0.130208 0.195312 0.195312 0.130208 0.195312 0.195312 0.130208 0.130208 0.195312 0.195312 0.130208 0.195312 0.195312 0.130208 0.130208 0.195312 0.195312 0.130208 0.195313 0.195312 0.130208 0.130208 0.195313 0.195313 0.130208 0.195313 0.195313 0.130208 0.130208 0.195313 0.195312 0.130208 0.195312 0.195313 0.130208 0.130208 0.195312 0.195312 0.130208 0.195313 0.195312 0.130208 0.130208 0.195312 0.195312 0.130208 0.195312 0.195312 0.130208 0.130208 0.195312 0.195312 0.130208 0.195313 0.195312 0.130208 0.130208 0.195313 0.195313 0.130208 0.195313 0.195313 0.130208 0.130208 0.195313 0.195313 0.130208 0.195313 0.195313 0.130208 0.130208 0.195313 0.195312 0.130208 0.195312 0.195313 0.130208 0.130208 0.195313 0.195313 0.130208 0.195313 0.195313 0.130209 0.130208 0.195313 0.195313 0.130208 0.195312 0.195313 0.130208 0.130208 0.195313 0.195313 0.130209 0.195313 0.195313 0.130208 0.130208 0.195312 0.195312 0.130208 0.195312 0.195312 0.130208 0.130208 0.195312 0.195313 0.130208 0.195313 0.195312 0.130208 0.130208 0.195313 0.195312 0.130208 0.195312 0.195313 0.130208 0.130208 0.195312 0.195312 0.130208 0.195313 0.195312 0.130208 0.130209 0.195313 0.195312 0.130208 0.195312 0.195313 0.130208 0.130208 0.195312 0.195312 0.130208 0.195312 0.195312 0.130208 0.130209 0.195313 0.195313 0.130209 0.195313 0.195313 0.130208 0.130208 0.195312 0.195312 0.130208 0.195312 0.195312 0.130208 0.130208 0.195312 0.195313 0.130208 0.195313 0.195312 0.130208 0.130209 0.195313 0.195312 0.130209 0.195313 0.195313 0.130208 0.130209 0.195313 0.0976566 0.130208 0.0976565 0.195313 0.0651044 0.130208 0.195312 0.195312 0.130208 0.195312 0.0976562 0.0651041 0.195312 0.0976562 0.130208 0.130208 0.195312 0.195312 0.130208 0.195312 0.195312 0.130208 0.130208 0.195312 0.195312 0.130208 0.195312 0.195312 0.130208 0.130208 0.195312 0.195312 0.130208 0.195312 0.195312 0.130208 0.130208 0.195312 0.195312 0.130208 0.195312 0.195312 0.130208 0.130208 0.195312 0.195312 0.130208 0.195312 0.195312 0.130208 0.130208 0.195312 0.195312 0.130208 0.195312 0.195312 0.130208 0.130208 0.195312 0.195312 0.130208 0.195312 0.195312 0.130208 0.130208 0.195312 0.195312 0.130208 0.195312 0.195312 0.130208 0.130208 0.195312 0.195312 0.130208 0.195312 0.195312 0.130208 0.130208 0.195313 0.195313 0.130208 0.195313 0.195313 0.130208 0.130208 0.195313 0.195312 0.130208 0.195312 0.195313 0.130208 0.130208 0.195312 0.195312 0.130208 0.195312 0.195312 0.130208 0.130208 0.195312 0.195312 0.130208 0.195312 0.195312 0.130208 0.130208 0.195312 0.195312 0.130208 0.195313 0.195312 0.130208 0.130208 0.195313 0.195313 0.130208 0.195313 0.195313 0.130208 0.130208 0.195313 0.195313 0.130208 0.195313 0.195313 0.130208 0.130208 0.195312 0.195312 0.130208 0.195312 0.195312 0.130208 0.130208 0.195313 0.195313 0.130208 0.195313 0.195313 0.130209 0.130208 0.195313 0.195312 0.130208 0.195312 0.195313 0.130208 0.130208 0.195313 0.195313 0.130208 0.195313 0.195313 0.130208 0.130208 0.195312 0.195312 0.130208 0.195312 0.195312 0.130208 0.130208 0.195312 0.195313 0.130208 0.195313 0.195312 0.130208 0.130208 0.195313 0.195312 0.130208 0.195312 0.195313 0.130208 0.130208 0.195312 0.195312 0.130208 0.195313 0.195312 0.130208 0.130208 0.195313 0.195312 0.130208 0.195312 0.195313 0.130208 0.130208 0.195312 0.195312 0.130208 0.195312 0.195312 0.130208 0.130209 0.195313 0.195313 0.130209 0.195313 0.195313 0.130208 0.130208 0.195312 0.195312 0.130208 0.195312 0.195312 0.130208 0.130208 0.195312 0.195313 0.130208 0.195313 0.195312 0.130208 0.130209 0.195313 0.195312 0.130208 0.195313 0.195313 0.130208 0.130209 0.195313 0.0976565 0.130208 0.0976564 0.195313 0.0651044 0.130208 0.195312 0.195312 0.130208 0.195312 0.0976562 0.0651041 0.195312 0.0976562 0.130208 0.130208 0.195312 0.195312 0.130208 0.195312 0.195312 0.130208 0.130208 0.195312 0.195312 0.130208 0.195312 0.195312 0.130208 0.130208 0.195312 0.195312 0.130208 0.195312 0.195312 0.130208 0.130208 0.195312 0.195312 0.130208 0.195312 0.195312 0.130208 0.130208 0.195312 0.195312 0.130208 0.195312 0.195313 0.130208 0.130208 0.195312 0.195312 0.130208 0.195312 0.195312 0.130208 0.130208 0.195312 0.195312 0.130208 0.195312 0.195312 0.130208 0.130208 0.195312 0.195312 0.130208 0.195312 0.195312 0.130208 0.130208 0.195312 0.195312 0.130208 0.195312 0.195312 0.130208 0.130208 0.195313 0.195313 0.130208 0.195313 0.195313 0.130208 0.130208 0.195313 0.195312 0.130208 0.195312 0.195313 0.130208 0.130208 0.195312 0.195313 0.130208 0.195312 0.195312 0.130208 0.130208 0.195312 0.195312 0.130208 0.195312 0.195313 0.130208 0.130208 0.195312 0.195312 0.130208 0.195313 0.195312 0.130208 0.130208 0.195313 0.195313 0.130208 0.195313 0.195313 0.130208 0.130208 0.195313 0.195313 0.130208 0.195313 0.195313 0.130208 0.130208 0.195313 0.195312 0.130208 0.195312 0.195313 0.130208 0.130208 0.195313 0.195313 0.130208 0.195313 0.195313 0.130209 0.130208 0.195313 0.195313 0.130208 0.195312 0.195313 0.130208 0.130208 0.195313 0.195313 0.130208 0.195313 0.195313 0.130208 0.130208 0.195312 0.195312 0.130208 0.195312 0.195312 0.130208 0.130208 0.195312 0.195313 0.130208 0.195313 0.195312 0.130208 0.130208 0.195313 0.195312 0.130208 0.195312 0.195313 0.130208 0.130208 0.195312 0.195312 0.130208 0.195313 0.195312 0.130208 0.130209 0.195313 0.195312 0.130208 0.195312 0.195313 0.130208 0.130208 0.195312 0.195312 0.130208 0.195312 0.195312 0.130208 0.130209 0.195313 0.195313 0.130209 0.195313 0.195313 0.130208 0.130208 0.195312 0.195312 0.130208 0.195312 0.195312 0.130208 0.130208 0.195312 0.195313 0.130208 0.195313 0.195312 0.130208 0.130209 0.195313 0.195312 0.130209 0.195313 0.195313 0.130208 0.130209 0.195313 0.0976566 0.130208 0.0976565 0.195313 0.0651044 0.130208 0.195313 0.195312 0.130208 0.195313 0.0976562 0.0651042 0.195312 0.0976562 0.130208 0.130208 0.195313 0.195312 0.130208 0.195313 0.195313 0.130208 0.130208 0.195313 0.195312 0.130208 0.195313 0.195313 0.130208 0.130208 0.195312 0.195312 0.130208 0.195313 0.195312 0.130208 0.130208 0.195313 0.195312 0.130208 0.195313 0.195312 0.130208 0.130208 0.195313 0.195312 0.130208 0.195313 0.195313 0.130208 0.130208 0.195312 0.195312 0.130208 0.195312 0.195312 0.130208 0.130208 0.195312 0.195312 0.130208 0.195313 0.195312 0.130208 0.130208 0.195312 0.195312 0.130208 0.195312 0.195312 0.130208 0.130208 0.195312 0.195312 0.130208 0.195313 0.195312 0.130208 0.130208 0.195313 0.195313 0.130208 0.195313 0.195313 0.130208 0.130208 0.195313 0.195312 0.130208 0.195312 0.195313 0.130208 0.130208 0.195313 0.195313 0.130208 0.195313 0.195313 0.130208 0.130208 0.195313 0.195312 0.130208 0.195312 0.195313 0.130208 0.130208 0.195312 0.195312 0.130208 0.195313 0.195312 0.130208 0.130208 0.195313 0.195313 0.130208 0.195313 0.195313 0.130208 0.130208 0.195313 0.195313 0.130208 0.195313 0.195313 0.130208 0.130208 0.195313 0.195312 0.130208 0.195313 0.195313 0.130208 0.130208 0.195313 0.195313 0.130208 0.195313 0.195313 0.130209 0.130209 0.195313 0.195313 0.130208 0.195313 0.195313 0.130208 0.130208 0.195313 0.195313 0.130209 0.195313 0.195313 0.130209 0.130208 0.195313 0.195312 0.130208 0.195312 0.195313 0.130208 0.130208 0.195313 0.195313 0.130208 0.195313 0.195312 0.130208 0.130208 0.195313 0.195312 0.130208 0.195312 0.195313 0.130208 0.130208 0.195312 0.195313 0.130208 0.195313 0.195312 0.130208 0.130209 0.195313 0.195312 0.130208 0.195312 0.195313 0.130208 0.130208 0.195312 0.195312 0.130208 0.195313 0.195312 0.130208 0.130209 0.195313 0.195313 0.130209 0.195313 0.195313 0.130209 0.130208 0.195312 0.195312 0.130208 0.195312 0.195312 0.130208 0.130208 0.195313 0.195313 0.130208 0.195313 0.195313 0.130208 0.130209 0.195313 0.195312 0.130209 0.195313 0.195313 0.130208 0.130209 0.195313 0.0976566 0.130208 0.0976565 0.195313 0.0651044 0.130208 0.195312 0.195312 0.130208 0.195312 0.0976561 0.0651041 0.195312 0.0976562 0.130208 0.130208 0.195312 0.195312 0.130208 0.195312 0.195312 0.130208 0.130208 0.195312 0.195312 0.130208 0.195312 0.195312 0.130208 0.130208 0.195312 0.195312 0.130208 0.195312 0.195312 0.130208 0.130208 0.195312 0.195312 0.130208 0.195312 0.195312 0.130208 0.130208 0.195313 0.195312 0.130208 0.195312 0.195312 0.130208 0.130208 0.195312 0.195312 0.130208 0.195312 0.195312 0.130208 0.130208 0.195312 0.195312 0.130208 0.195312 0.195312 0.130208 0.130208 0.195312 0.195312 0.130208 0.195312 0.195312 0.130208 0.130208 0.195312 0.195312 0.130208 0.195312 0.195312 0.130208 0.130208 0.195313 0.195313 0.130208 0.195313 0.195313 0.130208 0.130208 0.195313 0.195312 0.130208 0.195312 0.195312 0.130208 0.130208 0.195312 0.195312 0.130208 0.195312 0.195312 0.130208 0.130208 0.195312 0.195312 0.130208 0.195312 0.195312 0.130208 0.130208 0.195312 0.195312 0.130208 0.195313 0.195312 0.130208 0.130208 0.195313 0.195313 0.130208 0.195313 0.195313 0.130208 0.130208 0.195313 0.195313 0.130208 0.195313 0.195313 0.130208 0.130208 0.195313 0.195312 0.130208 0.195312 0.195312 0.130208 0.130208 0.195313 0.195313 0.130208 0.195313 0.195313 0.130209 0.130208 0.195313 0.195312 0.130208 0.195312 0.195313 0.130208 0.130208 0.195313 0.195313 0.130209 0.195313 0.195313 0.130208 0.130208 0.195312 0.195312 0.130208 0.195312 0.195312 0.130208 0.130208 0.195312 0.195313 0.130208 0.195313 0.195312 0.130208 0.130208 0.195313 0.195312 0.130208 0.195312 0.195312 0.130208 0.130208 0.195312 0.195312 0.130208 0.195313 0.195312 0.130208 0.130208 0.195313 0.195312 0.130208 0.195312 0.195313 0.130208 0.130208 0.195312 0.195312 0.130208 0.195313 0.195312 0.130208 0.130209 0.195313 0.195313 0.130209 0.195313 0.195313 0.130208 0.130208 0.195312 0.195312 0.130208 0.195312 0.195312 0.130208 0.130208 0.195312 0.195313 0.130208 0.195313 0.195312 0.130208 0.130209 0.195313 0.195312 0.130209 0.195313 0.195313 0.130208 0.130209 0.195313 0.0976566 0.130208 0.0976564 0.195313 0.0651044 0.0651042 0.195312 0.0976562 0.130208 0.195312 0.0325521 0.0651041 0.0976562 0.0976562 0.130208 0.0651042 0.195312 0.0976562 0.130208 0.195312 0.0976562 0.130208 0.0651042 0.195312 0.0976562 0.130208 0.195312 0.0976562 0.130208 0.0651042 0.195312 0.0976562 0.130208 0.195312 0.0976562 0.130208 0.0651042 0.195312 0.0976562 0.130208 0.195312 0.0976562 0.130208 0.0651042 0.195312 0.0976562 0.130208 0.195312 0.0976562 0.130208 0.0651042 0.195312 0.0976562 0.130208 0.195312 0.0976562 0.130208 0.0651042 0.195312 0.0976563 0.130208 0.195312 0.0976562 0.130208 0.0651042 0.195312 0.0976562 0.130208 0.195312 0.0976562 0.130208 0.0651042 0.195312 0.0976562 0.130208 0.195312 0.0976562 0.130208 0.0651042 0.195312 0.0976563 0.130208 0.195312 0.0976563 0.130208 0.0651043 0.195312 0.0976562 0.130208 0.195312 0.0976563 0.130208 0.0651042 0.195312 0.0976562 0.130208 0.195312 0.0976562 0.130208 0.0651042 0.195312 0.0976562 0.130208 0.195312 0.0976562 0.130208 0.0651041 0.195312 0.0976562 0.130208 0.195312 0.0976561 0.130208 0.0651043 0.195312 0.0976564 0.130208 0.195312 0.0976563 0.130208 0.0651043 0.195313 0.0976563 0.130208 0.195313 0.0976563 0.130208 0.0651043 0.195312 0.0976562 0.130208 0.195312 0.0976563 0.130208 0.0651042 0.195313 0.0976564 0.130208 0.195313 0.0976562 0.130209 0.0651044 0.195312 0.0976562 0.130208 0.195312 0.0976565 0.130208 0.0651042 0.195313 0.0976563 0.130208 0.195313 0.0976563 0.130208 0.0651042 0.195312 0.0976561 0.130208 0.195312 0.0976562 0.130208 0.0651042 0.195312 0.0976563 0.130208 0.195312 0.0976562 0.130208 0.0651042 0.195312 0.0976562 0.130208 0.195312 0.0976563 0.130208 0.0651041 0.195312 0.0976562 0.130208 0.195313 0.0976561 0.130208 0.0651044 0.195313 0.0976562 0.130208 0.195312 0.0976565 0.130208 0.0651041 0.195312 0.0976562 0.130208 0.195312 0.097656 0.130208 0.0651044 0.195313 0.0976565 0.130208 0.195313 0.0976564 0.130208 0.0651043 0.195312 0.0976561 0.130208 0.195312 0.0976563 0.130208 0.0651043 0.195312 0.0976563 0.130208 0.195313 0.0976564 0.130208 0.0651044 0.195313 0.0976563 0.130208 0.195312 0.0976565 0.130208 0.0651044 0.195313 0.0651043 0.130208 0.0976564 0.0976563 0.0651044 0.130208 0.195312 0.195312 0.0651041 0.0976562 0.0325521 0.0651041 0.0651042 0.0976562 0.0651041 0.0976562 0.032552 0.0976562 0.130208 0.130208 0.195312 0.195312 0.0651041 0.0976562 0.0325521 0.0651042 0.0976562 0.0976562 0.130208 0.130208 0.195312 0.195312 0.0651041 0.0976562 0.0325521 0.0651042 0.0976562 0.0976562 0.130208 0.130208 0.195312 0.195312 0.0651041 0.0976562 0.0325521 0.0651042 0.0976562 0.0976562 0.130208 0.130208 0.195312 0.195312 0.0651041 0.0976562 0.0325521 0.0651042 0.0976562 0.0976562 0.130208 0.130208 0.195313 0.195312 0.0651041 0.0976562 0.0325521 0.0651042 0.0976562 0.0976562 0.130208 0.130208 0.195312 0.195312 0.0651041 0.0976562 0.0325521 0.0651042 0.0976562 0.0976561 0.130208 0.130208 0.195312 0.195312 0.0651041 0.0976562 0.032552 0.0651041 0.0976561 0.0976562 0.130208 0.130208 0.195312 0.195312 0.0651041 0.0976561 0.0325521 0.0651041 0.0976562 0.0976562 0.130208 0.130208 0.195312 0.195312 0.0651041 0.0976562 0.0325521 0.0651042 0.0976562 0.0976562 0.130208 0.130208 0.195313 0.195313 0.0651041 0.0976563 0.0325521 0.0651042 0.0976562 0.0976563 0.130208 0.130208 0.195313 0.195312 0.0651041 0.0976562 0.0325521 0.0651042 0.0976563 0.0976562 0.130208 0.130208 0.195312 0.195313 0.0651041 0.0976562 0.0325521 0.0651042 0.0976562 0.0976563 0.130208 0.130208 0.195312 0.195312 0.0651042 0.0976562 0.0325521 0.0651042 0.0976562 0.0976562 0.130208 0.130208 0.195312 0.195312 0.0651041 0.0976562 0.032552 0.0651041 0.0976561 0.0976562 0.130208 0.130208 0.195313 0.195313 0.0651041 0.0976562 0.0325521 0.0651042 0.0976562 0.0976562 0.130208 0.130208 0.195313 0.195313 0.0651041 0.0976563 0.0325521 0.0651042 0.0976563 0.0976563 0.130208 0.130208 0.195312 0.195312 0.0651042 0.0976563 0.0325521 0.0651042 0.0976563 0.0976563 0.130208 0.130208 0.195313 0.195313 0.0651042 0.0976563 0.0325521 0.0651042 0.0976563 0.0976564 0.130209 0.130208 0.195313 0.195313 0.0651042 0.0976563 0.0325521 0.0651041 0.0976564 0.0976563 0.130208 0.130208 0.195313 0.195313 0.0651043 0.0976563 0.0325521 0.0651043 0.0976564 0.0976563 0.130208 0.130208 0.195312 0.195312 0.0651041 0.0976562 0.0325521 0.0651042 0.0976563 0.0976562 0.130208 0.130208 0.195312 0.195313 0.0651041 0.0976562 0.0325521 0.0651042 0.0976562 0.0976563 0.130208 0.130208 0.195313 0.195312 0.0651042 0.0976562 0.0325521 0.0651042 0.0976562 0.0976562 0.130208 0.130208 0.195312 0.195312 0.0651041 0.0976562 0.0325521 0.0651041 0.0976561 0.0976563 0.130208 0.130209 0.195313 0.195312 0.0651042 0.0976561 0.0325521 0.0651042 0.0976564 0.097656 0.130208 0.130208 0.195312 0.195312 0.0651039 0.0976561 0.032552 0.065104 0.0976559 0.0976562 0.130208 0.130209 0.195313 0.195313 0.0651042 0.0976564 0.0325522 0.0651043 0.0976564 0.0976563 0.130208 0.130208 0.195312 0.195312 0.0651042 0.0976561 0.0325521 0.0651039 0.0976563 0.0976562 0.130208 0.130208 0.195312 0.195313 0.0651043 0.0976563 0.0325522 0.0651041 0.0976565 0.0976563 0.130208 0.130209 0.195313 0.195312 0.0651044 0.0976562 0.0325522 0.0651042 0.0976566 0.0976561 0.130208 0.130209 0.195313 0.0976566 0.065104 0.0651043 0.0325521 0.0651043 0.0976562 0.0325522 0.0651044 0.130208 0.195312 0.195312 0.0651041 0.0976562 0.0976562 0.0651041 0.0976562 0.032552 0.130208 0.130208 0.195312 0.195312 0.0651041 0.0976562 0.0976562 0.130208 0.130208 0.195312 0.195312 0.0651041 0.0976562 0.0976562 0.130208 0.130208 0.195312 0.195312 0.0651041 0.0976562 0.0976562 0.130208 0.130208 0.195312 0.195312 0.0651041 0.0976562 0.0976562 0.130208 0.130208 0.195313 0.195312 0.0651041 0.0976562 0.0976562 0.130208 0.130208 0.195312 0.195312 0.0651041 0.0976562 0.0976562 0.130208 0.130208 0.195312 0.195312 0.0651041 0.0976562 0.0976561 0.130208 0.130208 0.195312 0.195312 0.0651041 0.0976562 0.0976562 0.130208 0.130208 0.195312 0.195312 0.0651041 0.0976562 0.0976562 0.130208 0.130208 0.195313 0.195313 0.0651041 0.0976563 0.0976562 0.130208 0.130208 0.195313 0.195312 0.0651041 0.0976562 0.0976563 0.130208 0.130208 0.195312 0.195313 0.0651041 0.0976562 0.0976562 0.130208 0.130208 0.195313 0.195312 0.0651042 0.0976563 0.0976562 0.130208 0.130208 0.195312 0.195312 0.0651041 0.0976562 0.0976561 0.130208 0.130208 0.195313 0.195313 0.0651041 0.0976562 0.0976562 0.130208 0.130208 0.195313 0.195313 0.0651041 0.0976563 0.0976563 0.130208 0.130208 0.195313 0.195312 0.0651042 0.0976563 0.0976563 0.130208 0.130208 0.195313 0.195313 0.0651042 0.0976564 0.0976563 0.130209 0.130208 0.195313 0.195313 0.0651042 0.0976563 0.0976564 0.130208 0.130208 0.195313 0.195313 0.0651043 0.0976563 0.0976564 0.130208 0.130208 0.195312 0.195312 0.0651042 0.0976562 0.0976563 0.130208 0.130208 0.195312 0.195313 0.0651041 0.0976563 0.0976562 0.130208 0.130208 0.195313 0.195312 0.0651042 0.0976562 0.0976562 0.130208 0.130208 0.195312 0.195312 0.0651041 0.0976562 0.0976561 0.130208 0.130209 0.195313 0.195312 0.0651042 0.0976561 0.0976564 0.130208 0.130208 0.195312 0.195312 0.0651039 0.0976561 0.0976559 0.130208 0.130209 0.195313 0.195313 0.0651042 0.0976564 0.0976564 0.130209 0.130208 0.195312 0.195312 0.0651042 0.0976561 0.0976563 0.130208 0.130208 0.195312 0.195313 0.0651043 0.0976563 0.0976565 0.130208 0.130209 0.195313 0.195312 0.0651044 0.0976562 0.0976566 0.130208 0.130209 0.195313 0.0976566 0.0651041 0.0651043 0.0976562 0.0651044 0.130208 0.195312 0.195312 0.0651041 0.0976562 0.0976562 0.0651041 0.0976562 0.032552 0.130208 0.130208 0.195312 0.195312 0.0651041 0.0976562 0.0976562 0.130208 0.130208 0.195312 0.195312 0.0651041 0.0976562 0.0976562 0.130208 0.130208 0.195312 0.195312 0.0651041 0.0976562 0.0976562 0.130208 0.130208 0.195312 0.195312 0.0651041 0.0976562 0.0976562 0.130208 0.130208 0.195313 0.195312 0.0651041 0.0976562 0.0976562 0.130208 0.130208 0.195312 0.195312 0.0651041 0.0976562 0.0976562 0.130208 0.130208 0.195312 0.195312 0.0651041 0.0976562 0.0976561 0.130208 0.130208 0.195312 0.195312 0.0651041 0.0976562 0.0976562 0.130208 0.130208 0.195312 0.195312 0.0651041 0.0976562 0.0976562 0.130208 0.130208 0.195313 0.195313 0.0651042 0.0976563 0.0976563 0.130208 0.130208 0.195313 0.195312 0.0651041 0.0976562 0.0976563 0.130208 0.130208 0.195312 0.195313 0.0651041 0.0976562 0.0976562 0.130208 0.130208 0.195312 0.195312 0.0651042 0.0976563 0.0976562 0.130208 0.130208 0.195312 0.195312 0.0651041 0.0976562 0.0976561 0.130208 0.130208 0.195313 0.195313 0.0651041 0.0976562 0.0976563 0.130208 0.130208 0.195313 0.195313 0.0651042 0.0976563 0.0976563 0.130208 0.130208 0.195313 0.195312 0.0651042 0.0976563 0.0976563 0.130208 0.130208 0.195313 0.195313 0.0651042 0.0976564 0.0976563 0.130209 0.130209 0.195313 0.195313 0.0651042 0.0976563 0.0976565 0.130208 0.130208 0.195313 0.195313 0.0651043 0.0976563 0.0976564 0.130208 0.130208 0.195312 0.195312 0.0651042 0.0976563 0.0976563 0.130208 0.130208 0.195312 0.195313 0.0651041 0.0976563 0.0976562 0.130208 0.130208 0.195313 0.195312 0.0651042 0.0976562 0.0976563 0.130208 0.130208 0.195312 0.195312 0.0651041 0.0976562 0.0976562 0.130208 0.130209 0.195313 0.195312 0.0651042 0.0976561 0.0976564 0.130208 0.130208 0.195312 0.195312 0.0651039 0.0976561 0.097656 0.130208 0.130209 0.195313 0.195313 0.0651042 0.0976564 0.0976564 0.130209 0.130208 0.195312 0.195312 0.0651042 0.0976561 0.0976563 0.130208 0.130208 0.195313 0.195313 0.0651043 0.0976563 0.0976565 0.130208 0.130209 0.195313 0.195312 0.0651044 0.0976562 0.0976566 0.130208 0.130209 0.195313 0.0976566 0.065104 0.0651043 0.0976562 0.0651044 0.130208 0.195312 0.195312 0.0651041 0.0976562 0.0976562 0.0651041 0.0976562 0.032552 0.130208 0.130208 0.195312 0.195312 0.0651041 0.0976562 0.0976562 0.130208 0.130208 0.195312 0.195312 0.0651041 0.0976562 0.0976562 0.130208 0.130208 0.195312 0.195312 0.0651041 0.0976562 0.0976562 0.130208 0.130208 0.195312 0.195312 0.0651041 0.0976562 0.0976562 0.130208 0.130208 0.195312 0.195312 0.0651041 0.0976562 0.0976562 0.130208 0.130208 0.195312 0.195312 0.0651041 0.0976562 0.0976562 0.130208 0.130208 0.195312 0.195312 0.065104 0.0976562 0.0976561 0.130208 0.130208 0.195312 0.195312 0.0651041 0.0976561 0.0976562 0.130208 0.130208 0.195312 0.195312 0.0651041 0.0976562 0.0976562 0.130208 0.130208 0.195313 0.195313 0.0651041 0.0976562 0.0976562 0.130208 0.130208 0.195313 0.195312 0.0651041 0.0976562 0.0976562 0.130208 0.130208 0.195312 0.195312 0.0651041 0.0976562 0.0976562 0.130208 0.130208 0.195312 0.195312 0.0651041 0.0976562 0.0976562 0.130208 0.130208 0.195312 0.195312 0.0651041 0.0976562 0.0976561 0.130208 0.130208 0.195313 0.195313 0.0651041 0.0976562 0.0976562 0.130208 0.130208 0.195313 0.195313 0.0651041 0.0976563 0.0976563 0.130208 0.130208 0.195312 0.195312 0.0651042 0.0976563 0.0976563 0.130208 0.130208 0.195313 0.195313 0.0651042 0.0976563 0.0976563 0.130209 0.130208 0.195313 0.195312 0.0651042 0.0976563 0.0976564 0.130208 0.130208 0.195313 0.195313 0.0651043 0.0976563 0.0976564 0.130208 0.130208 0.195312 0.195312 0.0651041 0.0976562 0.0976562 0.130208 0.130208 0.195312 0.195313 0.0651041 0.0976562 0.0976561 0.130208 0.130208 0.195313 0.195312 0.0651042 0.0976562 0.0976562 0.130208 0.130208 0.195312 0.195312 0.0651041 0.0976562 0.0976561 0.130208 0.130209 0.195313 0.195312 0.0651042 0.0976561 0.0976564 0.130208 0.130208 0.195312 0.195312 0.0651039 0.0976561 0.0976559 0.130208 0.130209 0.195313 0.195313 0.0651042 0.0976564 0.0976564 0.130208 0.130208 0.195312 0.195312 0.0651042 0.0976561 0.0976563 0.130208 0.130208 0.195312 0.195313 0.0651043 0.0976563 0.0976564 0.130208 0.130209 0.195313 0.195312 0.0651044 0.0976562 0.0976565 0.130208 0.130209 0.195313 0.0976566 0.065104 0.0651043 0.0976562 0.0651044 0.130208 0.195312 0.195312 0.0651041 0.0976562 0.0976562 0.0651041 0.0976562 0.032552 0.130208 0.130208 0.195312 0.195312 0.0651041 0.0976562 0.0976562 0.130208 0.130208 0.195312 0.195312 0.0651041 0.0976562 0.0976562 0.130208 0.130208 0.195312 0.195312 0.0651041 0.0976562 0.0976562 0.130208 0.130208 0.195312 0.195312 0.0651041 0.0976562 0.0976562 0.130208 0.130208 0.195313 0.195312 0.0651041 0.0976562 0.0976562 0.130208 0.130208 0.195312 0.195312 0.0651041 0.0976562 0.0976562 0.130208 0.130208 0.195312 0.195312 0.065104 0.0976562 0.0976561 0.130208 0.130208 0.195312 0.195312 0.0651041 0.0976561 0.0976562 0.130208 0.130208 0.195312 0.195312 0.0651041 0.0976562 0.0976562 0.130208 0.130208 0.195313 0.195313 0.0651041 0.0976562 0.0976562 0.130208 0.130208 0.195313 0.195312 0.0651041 0.0976562 0.0976563 0.130208 0.130208 0.195312 0.195313 0.0651041 0.0976562 0.0976562 0.130208 0.130208 0.195312 0.195312 0.0651041 0.0976562 0.0976562 0.130208 0.130208 0.195312 0.195313 0.0651041 0.0976562 0.0976561 0.130208 0.130208 0.195313 0.195313 0.0651041 0.0976562 0.0976562 0.130208 0.130209 0.195313 0.195313 0.0651041 0.0976563 0.0976563 0.130208 0.130208 0.195312 0.195312 0.0651042 0.0976563 0.0976563 0.130208 0.130208 0.195313 0.195313 0.0651042 0.0976563 0.0976563 0.130209 0.130209 0.195313 0.195313 0.0651042 0.0976563 0.0976565 0.130208 0.130208 0.195313 0.195313 0.0651043 0.0976563 0.0976564 0.130208 0.130208 0.195312 0.195312 0.0651041 0.0976562 0.0976563 0.130208 0.130208 0.195312 0.195313 0.0651041 0.0976562 0.0976562 0.130208 0.130208 0.195313 0.195312 0.0651042 0.0976562 0.0976563 0.130208 0.130208 0.195312 0.195313 0.0651041 0.0976562 0.0976562 0.130208 0.130209 0.195313 0.195312 0.0651042 0.0976561 0.0976564 0.130208 0.130208 0.195312 0.195313 0.0651039 0.0976561 0.0976559 0.130208 0.130209 0.195313 0.195313 0.0651042 0.0976564 0.0976564 0.130208 0.130208 0.195312 0.195312 0.0651042 0.0976561 0.0976563 0.130208 0.130208 0.195312 0.195313 0.0651043 0.0976563 0.0976565 0.130208 0.130209 0.195313 0.195312 0.0651044 0.0976562 0.0976566 0.130208 0.130209 0.195313 0.0976566 0.065104 0.0651043 0.0976562 0.0651044 0.130208 0.195313 0.195313 0.0651041 0.0976562 0.0976562 0.0651042 0.0976562 0.0325521 0.130208 0.130208 0.195313 0.195313 0.0651041 0.0976562 0.0976562 0.130208 0.130208 0.195313 0.195312 0.0651041 0.0976562 0.0976562 0.130208 0.130208 0.195313 0.195312 0.0651041 0.0976562 0.0976562 0.130208 0.130208 0.195313 0.195313 0.0651041 0.0976562 0.0976562 0.130208 0.130208 0.195313 0.195312 0.0651042 0.0976563 0.0976562 0.130208 0.130208 0.195313 0.195312 0.0651041 0.0976562 0.0976562 0.130208 0.130208 0.195312 0.195312 0.0651041 0.0976562 0.0976561 0.130208 0.130208 0.195312 0.195312 0.0651041 0.0976562 0.0976562 0.130208 0.130208 0.195312 0.195313 0.0651041 0.0976562 0.0976562 0.130208 0.130208 0.195313 0.195313 0.0651042 0.0976563 0.0976563 0.130208 0.130208 0.195313 0.195312 0.0651042 0.0976562 0.0976563 0.130208 0.130208 0.195313 0.195313 0.0651041 0.0976562 0.0976562 0.130208 0.130208 0.195313 0.195312 0.0651042 0.0976563 0.0976562 0.130208 0.130208 0.195312 0.195312 0.0651041 0.0976562 0.0976561 0.130208 0.130208 0.195313 0.195313 0.0651041 0.0976562 0.0976563 0.130208 0.130208 0.195313 0.195313 0.0651042 0.0976563 0.0976563 0.130208 0.130208 0.195313 0.195312 0.0651042 0.0976563 0.0976564 0.130208 0.130208 0.195313 0.195313 0.0651042 0.0976564 0.0976563 0.130209 0.130209 0.195313 0.195313 0.0651043 0.0976563 0.0976565 0.130208 0.130208 0.195313 0.195313 0.0651043 0.0976563 0.0976564 0.130209 0.130208 0.195313 0.195312 0.0651042 0.0976563 0.0976563 0.130208 0.130208 0.195313 0.195313 0.0651042 0.0976563 0.0976562 0.130208 0.130208 0.195313 0.195312 0.0651042 0.0976563 0.0976563 0.130208 0.130208 0.195312 0.195313 0.0651041 0.0976563 0.0976562 0.130208 0.130209 0.195313 0.195312 0.0651042 0.0976561 0.0976564 0.130208 0.130208 0.195312 0.195312 0.065104 0.0976561 0.097656 0.130208 0.130209 0.195313 0.195313 0.0651043 0.0976564 0.0976564 0.130209 0.130208 0.195312 0.195312 0.0651042 0.0976562 0.0976563 0.130208 0.130208 0.195313 0.195313 0.0651044 0.0976563 0.0976565 0.130208 0.130209 0.195313 0.195312 0.0651044 0.0976562 0.0976566 0.130208 0.130209 0.195313 0.0976566 0.0651041 0.0651043 0.0976562 0.0651044 0.130208 0.195312 0.195312 0.0651041 0.0976562 0.0976561 0.0651041 0.0976562 0.032552 0.130208 0.130208 0.195312 0.195312 0.0651041 0.0976562 0.0976562 0.130208 0.130208 0.195312 0.195312 0.0651041 0.0976562 0.0976562 0.130208 0.130208 0.195312 0.195312 0.0651041 0.0976562 0.0976562 0.130208 0.130208 0.195312 0.195312 0.0651041 0.0976562 0.0976562 0.130208 0.130208 0.195313 0.195312 0.0651041 0.0976562 0.0976562 0.130208 0.130208 0.195312 0.195312 0.0651041 0.0976562 0.0976561 0.130208 0.130208 0.195312 0.195312 0.065104 0.0976561 0.0976561 0.130208 0.130208 0.195312 0.195312 0.0651041 0.0976561 0.0976562 0.130208 0.130208 0.195312 0.195312 0.0651041 0.0976562 0.0976562 0.130208 0.130208 0.195313 0.195313 0.0651041 0.0976562 0.0976562 0.130208 0.130208 0.195313 0.195312 0.0651041 0.0976562 0.0976562 0.130208 0.130208 0.195312 0.195312 0.0651041 0.0976562 0.0976562 0.130208 0.130208 0.195313 0.195312 0.0651041 0.0976562 0.0976562 0.130208 0.130208 0.195312 0.195312 0.0651041 0.0976562 0.0976561 0.130208 0.130208 0.195313 0.195313 0.0651041 0.0976562 0.0976562 0.130208 0.130208 0.195313 0.195313 0.0651041 0.0976563 0.0976563 0.130208 0.130208 0.195313 0.195312 0.0651042 0.0976563 0.0976563 0.130208 0.130208 0.195313 0.195313 0.0651042 0.0976563 0.0976562 0.130209 0.130208 0.195313 0.195312 0.0651042 0.0976563 0.0976564 0.130208 0.130208 0.195313 0.195313 0.0651042 0.0976563 0.0976563 0.130208 0.130208 0.195312 0.195312 0.0651041 0.0976562 0.0976562 0.130208 0.130208 0.195312 0.195313 0.0651041 0.0976562 0.0976561 0.130208 0.130208 0.195313 0.195312 0.0651042 0.0976562 0.0976562 0.130208 0.130208 0.195312 0.195312 0.0651041 0.0976562 0.0976561 0.130208 0.130208 0.195313 0.195312 0.0651042 0.0976561 0.0976564 0.130208 0.130208 0.195312 0.195312 0.0651039 0.0976561 0.0976559 0.130208 0.130209 0.195313 0.195313 0.0651042 0.0976564 0.0976564 0.130209 0.130208 0.195312 0.195312 0.0651041 0.0976561 0.0976563 0.130208 0.130208 0.195313 0.195313 0.0651043 0.0976563 0.0976564 0.130208 0.130209 0.195313 0.195312 0.0651043 0.0976562 0.0976565 0.130208 0.130209 0.195313 0.0976566 0.065104 0.0651042 0.0976562 0.0651044 0.0651042 0.195312 0.0976562 0.065104 0.0976561 0.0325521 0.0651041 0.0651041 0.032552 0.130208 0.0651042 0.195312 0.0976562 0.0651041 0.0976561 0.0651041 0.130208 0.0651042 0.195312 0.0976562 0.0651041 0.0976562 0.0651041 0.130208 0.0651042 0.195312 0.0976562 0.0651041 0.0976561 0.0651041 0.130208 0.0651042 0.195312 0.0976562 0.065104 0.0976561 0.0651041 0.130208 0.0651042 0.195312 0.0976562 0.0651041 0.0976562 0.0651041 0.130208 0.0651042 0.195312 0.0976562 0.0651041 0.0976561 0.0651041 0.130208 0.0651042 0.195312 0.0976563 0.065104 0.0976561 0.065104 0.130208 0.0651042 0.195312 0.0976562 0.065104 0.0976561 0.0651041 0.130208 0.0651042 0.195312 0.0976562 0.0651041 0.0976561 0.0651041 0.130208 0.0651042 0.195312 0.0976563 0.0651041 0.0976562 0.0651041 0.130208 0.0651043 0.195312 0.0976563 0.0651041 0.0976561 0.0651042 0.130208 0.0651042 0.195312 0.0976562 0.065104 0.0976561 0.0651041 0.130208 0.0651042 0.195312 0.0976562 0.0651041 0.0976562 0.0651041 0.130208 0.0651041 0.195312 0.0976562 0.065104 0.0976561 0.0651041 0.130208 0.0651043 0.195312 0.0976564 0.0651041 0.0976561 0.0651041 0.130208 0.0651043 0.195313 0.0976564 0.0651041 0.0976562 0.0651042 0.130208 0.0651042 0.195312 0.0976562 0.0651041 0.0976562 0.0651042 0.130208 0.0651042 0.195313 0.0976564 0.0651042 0.0976563 0.0651041 0.130209 0.0651044 0.195313 0.0976562 0.0651042 0.0976562 0.0651043 0.130208 0.0651042 0.195313 0.0976563 0.0651042 0.0976562 0.0651042 0.130208 0.0651042 0.195312 0.0976561 0.0651041 0.0976562 0.0651041 0.130208 0.0651041 0.195312 0.0976563 0.0651041 0.0976562 0.065104 0.130208 0.0651042 0.195312 0.0976563 0.0651041 0.0976562 0.0651041 0.130208 0.0651041 0.195312 0.0976562 0.065104 0.0976562 0.0651041 0.130208 0.0651044 0.195313 0.0976562 0.0651042 0.097656 0.0651043 0.130208 0.065104 0.195312 0.0976562 0.0651039 0.097656 0.0651039 0.130208 0.0651044 0.195313 0.0976565 0.0651042 0.0976563 0.0651042 0.130208 0.0651043 0.195312 0.0976561 0.0651041 0.0976561 0.0651042 0.130208 0.0651042 0.195312 0.0976563 0.0651043 0.0976562 0.0651043 0.130208 0.0651044 0.195313 0.0976563 0.0651043 0.0976561 0.0651044 0.130208 0.0651044 0.195313 0.0651043 0.065104 0.0651042 0.0651042 0.0651044 
VECTORS u float
0 0 0  -0.0517181 -0.0103408 -0.0555253  -0.0783219 -0.0210852 -0.0740128  -0.106686 -0.0477497 -0.0775487  -0.139648 -0.0866526 -0.0738558  -0.17621 -0.134184 -0.067313  -0.215061 -0.188024 -0.0600535  -0.255394 -0.246916 -0.0530807  -0.296783 -0.310211 -0.046782  -0.339066 -0.377538 -0.0412324  -0.382211 -0.448613 -0.036377  -0.426185 -0.523172 -0.0321031  -0.471006 -0.600956 -0.0283417  -0.516655 -0.681715 -0.0249911  -0.563085 -0.765181 -0.0220143  -0.610244 -0.851077 -0.019335  -0.658054 -0.939153 -0.0169361  -0.706439 -1.02919 -0.0147834  -0.755304 -1.12095 -0.0128647  -0.804553 -1.21421 -0.011147  -0.854094 -1.30878 -0.00963396  -0.903844 -1.40446 -0.00830227  -0.953707 -1.50108 -0.00714302  -1.00361 -1.5985 -0.00614172  -1.05349 -1.69655 -0.00529695  -1.10326 -1.79508 -0.00461823  -1.15288 -1.89395 -0.00409085  -1.20232 -1.99308 -0.00370133  -1.25154 -2.09232 -0.00346613  -1.30052 -2.19159 -0.00337231  -1.34922 -2.29077 -0.00342  -1.3977 -2.38981 -0.00355542  -1.44606 -2.48867 -0.00372714  0 0 0  -0.0288435 0.00181895 -0.0389217  -0.0468047 -0.0146417 -0.0523052  -0.0659578 -0.0451106 -0.0547348  -0.0893293 -0.0874297 -0.0526154  -0.117236 -0.138652 -0.04846  -0.148886 -0.19641 -0.0435935  -0.183363 -0.259298 -0.0387346  -0.219981 -0.326504 -0.0342221  -0.258333 -0.397576 -0.0301694  -0.298188 -0.472172 -0.0265936  -0.339404 -0.550025 -0.0234447  -0.381881 -0.630853 -0.0206646  -0.425553 -0.714376 -0.0182132  -0.470317 -0.800344 -0.0160342  -0.516064 -0.888486 -0.0140892  -0.562716 -0.978571 -0.012363  -0.610145 -1.07036 -0.0108252  -0.658219 -1.16365 -0.0094589  -0.706843 -1.25823 -0.00824779  -0.755894 -1.35391 -0.00718433  -0.805273 -1.45053 -0.00627518  -0.854871 -1.54792 -0.00547916  -0.904594 -1.64594 -0.00481749  -0.95436 -1.74444 -0.00427461  -1.0041 -1.84331 -0.00384778  -1.05373 -1.94241 -0.00352329  -1.10321 -2.04164 -0.00333291  -1.15249 -2.14093 -0.00322944  -1.20155 -2.24016 -0.00323808  -1.25035 -2.33928 -0.00333881  -1.2989 -2.43824 -0.00348723  -1.34727 -2.537 -0.003618  0 0 0  -0.0141476 0.00586182 -0.0248487  -0.0228887 -0.0124133 -0.0331069  -0.0341397 -0.0455792 -0.0347654  -0.0494483 -0.0902835 -0.0335535  -0.0692047 -0.144025 -0.0310798  -0.0931717 -0.204746 -0.0280792  -0.120819 -0.270944 -0.0249777  -0.15157 -0.341642 -0.0220324  -0.184935 -0.416208 -0.0193519  -0.220576 -0.494199 -0.0169696  -0.258229 -0.575258 -0.0148777  -0.297689 -0.659075 -0.0130462  -0.338799 -0.745362 -0.0114481  -0.381378 -0.833838 -0.0100471  -0.425295 -0.924265 -0.00881708  -0.470382 -1.0164 -0.00774509  -0.516498 -1.11 -0.00679964  -0.563478 -1.20488 -0.00597656  -0.611203 -1.30085 -0.0052681  -0.659517 -1.39773 -0.00467288  -0.708285 -1.49537 -0.00415927  -0.757403 -1.59361 -0.00374013  -0.806756 -1.69232 -0.00340408  -0.856237 -1.79138 -0.00315899  -0.905756 -1.89068 -0.002985  -0.955246 -1.9901 -0.00289392  -1.00463 -2.08957 -0.002877  -1.05386 -2.189 -0.00292313  -1.10289 -2.28832 -0.00303411  -1.15168 -2.38749 -0.00319546  -1.20023 -2.48645 -0.00337923  -1.24849 -2.58513 -0.00352865  0 0 0  -0.00373407 0.00469789 -0.0106504  -0.00480971 -0.0144956 -0.0150208  -0.008102 -0.0495248 -0.0162069  -0.0153417 -0.0962493 -0.015844  -0.0270969 -0.152099 -0.0147119  -0.0434192 -0.215184 -0.0132236  -0.0640497 -0.284084 -0.0116168  -0.0885575 -0.357727 -0.0100698  -0.116478 -0.435358 -0.0086478  -0.147431 -0.516412 -0.00739986  -0.181056 -0.600424 -0.00632405  -0.217078 -0.687062 -0.00542337  -0.255232 -0.775982 -0.00466073  -0.295291 -0.866891 -0.00402939  -0.337049 -0.95952 -0.00350493  -0.380311 -1.05364 -0.00307792  -0.42485 -1.14904 -0.00271904  -0.470516 -1.2455 -0.00245351  -0.517126 -1.34287 -0.00223881  -0.564505 -1.44096 -0.00208944  -0.612504 -1.53963 -0.0019871  -0.660983 -1.63873 -0.00193369  -0.709812 -1.73817 -0.00193685  -0.758884 -1.83782 -0.00198936  -0.808074 -1.93759 -0.00207156  -0.857315 -2.03739 -0.00219846  -0.9065 -2.13713 -0.00235981  -0.955589 -2.23676 -0.002572  -1.00452 -2.33622 -0.00279886  -1.05325 -2.43548 -0.00304824  -1.10174 -2.53446 -0.00331742  -1.14992 -2.6331 -0.00353491  0 0 0  0.00456643 0.000683308 0.00306231  0.0104638 -0.0206769 0.00213629  0.0149312 -0.0574253 0.0013172  0.0157214 -0.105807 0.00096339  0.0118383 -0.163389 0.000957608  0.00299853 -0.228443 0.00116211  -0.0106841 -0.299585 0.00145817  -0.0289044 -0.375731 0.00175381  -0.0512464 -0.456029 0.00199777  -0.0772901 -0.539801 0.00216496  -0.10665 -0.626522 0.00224149  -0.138971 -0.715748 0.00223666  -0.173941 -0.807117 0.00216836  -0.211258 -0.900311 0.00204003  -0.250643 -0.995044 0.00185561  -0.291854 -1.09108 0.00164515  -0.33467 -1.18818 0.0013957  -0.378843 -1.28617 0.00112498  -0.424188 -1.38487 0.000838578  -0.47049 -1.48412 0.000535488  -0.517604 -1.58378 0.000231683  -0.565329 -1.68375 -0.000108361  -0.613533 -1.7839 -0.000434518  -0.662088 -1.88414 -0.000781834  -0.710867 -1.98437 -0.00111842  -0.75977 -2.08455 -0.00147772  -0.808701 -2.18457 -0.00182968  -0.857582 -2.2844 -0.00218731  -0.906357 -2.384 -0.00254607  -0.954992 -2.48333 -0.00290316  -1.00341 -2.58235 -0.00326896  -1.05149 -2.68096 -0.00360447  0 0 0  0.011993 -0.00561136 0.0160592  0.0250986 -0.0305499 0.0181373  0.0373151 -0.0692558 0.0177796  0.0459425 -0.119068 0.0169479  0.0496819 -0.178099 0.0160542  0.0480814 -0.244815 0.0151758  0.0411398 -0.317908 0.0143092  0.0290858 -0.396248 0.0134539  0.0122931 -0.478896 0.0125893  -0.00882626 -0.565112 0.0117172  -0.0338479 -0.654273 0.010824  -0.0623779 -0.745885 0.00992042  -0.0940416 -0.839516 0.00902152  -0.128479 -0.934819 0.00812703  -0.165394 -1.03151 0.00724524  -0.204454 -1.12931 0.00638431  -0.245414 -1.22801 0.00553936  -0.287995 -1.32742 0.00472921  -0.33197 -1.42736 0.00394458  -0.377121 -1.5277 0.00318158  -0.423233 -1.6283 0.0024485  -0.470143 -1.72905 0.00175059  -0.517661 -1.82986 0.00107569  -0.565639 -1.93064 0.000441492  -0.613955 -2.0313 -0.00016284  -0.662481 -2.1318 -0.000741541  -0.711087 -2.23207 -0.0012868  -0.759737 -2.33208 -0.00179821  -0.808332 -2.43179 -0.00228906  -0.85681 -2.53117 -0.00275862  -0.905142 -2.63021 -0.00322527  -0.953212 -2.72883 -0.00366294  0 0 0  0.0196574 -0.0145732 0.0279964  0.0409045 -0.0441081 0.0326805  0.0609562 -0.084784 0.0330933  0.077153 -0.135849 0.0321516  0.0881658 -0.196162 0.0306278  0.0934765 -0.26441 0.0288411  0.0929949 -0.339294 0.0269428  0.0868816 -0.419639 0.0250133  0.075479 -0.504456 0.0230915  0.0591835 -0.592907 0.021197  0.0384459 -0.684301 0.0193582  0.0136982 -0.77808 0.0175717  -0.014652 -0.873779 0.0158501  -0.0462016 -0.971017 0.0141954  -0.0805846 -1.06948 0.0126151  -0.117462 -1.16891 0.011101  -0.156512 -1.26906 0.00966525  -0.19746 -1.36976 0.00831258  -0.240031 -1.47083 0.00702536  -0.283969 -1.57213 0.00580961  -0.32907 -1.67355 0.00466174  -0.375104 -1.775 0.00359523  -0.421908 -1.87637 0.00258374  -0.469293 -1.97759 0.00164551  -0.517107 -2.07861 0.000771821  -0.565229 -2.17937 -3.72529e-05  -0.613539 -2.27983 -0.000758529  -0.661922 -2.37996 -0.00143576  -0.710312 -2.47973 -0.00203681  -0.758643 -2.57913 -0.00260592  -0.806868 -2.67814 -0.00313032  -0.854918 -2.77679 -0.00366354  0 0 0  0.0292939 -0.0275202 0.0382295  0.0595829 -0.0613115 0.0456313  0.0873267 -0.103489 0.0474063  0.11075 -0.155721 0.0466966  0.128699 -0.217377 0.0447288  0.140605 -0.287226 0.0421407  0.146283 -0.363922 0.039279  0.145863 -0.446245 0.0363356  0.139616 -0.533127 0.0333936  0.127961 -0.623676 0.0305266  0.111356 -0.717141 0.0277514  0.0902699 -0.81291 0.0250984  0.0651455 -0.910499 0.0225663  0.0364274 -1.00949 0.0201679  0.00452065 -1.10955 0.0178957  -0.0301909 -1.21042 0.0157495  -0.0673699 -1.31185 0.0137302  -0.106685 -1.41367 0.0118322  -0.147867 -1.51571 0.0100537  -0.190598 -1.61784 0.00838816  -0.234678 -1.71996 0.00683165  -0.279857 -1.82195 0.00538892  -0.325944 -1.92375 0.00403744  -0.372723 -2.02531 0.00280488  -0.420066 -2.12656 0.0016703  -0.467808 -2.22747 0.000638783  -0.515808 -2.32802 -0.000279725  -0.563976 -2.42817 -0.00110263  -0.612178 -2.52792 -0.00182015  -0.660366 -2.62727 -0.00244647  -0.708491 -2.72624 -0.00302684  -0.756562 -2.82488 -0.00359398  0 0 0  0.0429089 -0.0463735 0.0462256  0.0818013 -0.0813607 0.0583357  0.117066 -0.12448 0.0615175  0.147716 -0.178171 0.0608644  0.172544 -0.241583 0.0583719  0.190896 -0.313351 0.0549709  0.202525 -0.392074 0.0511734  0.207502 -0.476476 0.0472489  0.206152 -0.565439 0.0433436  0.198866 -0.658025 0.0395343  0.186155 -0.753443 0.0358807  0.168498 -0.851054 0.0323827  0.146415 -0.950343 0.0290733  0.120373 -1.05089 0.0259555  0.0908108 -1.15236 0.0230175  0.058146 -1.25447 0.0202639  0.0227575 -1.35699 0.0176794  -0.0150189 -1.45974 0.0152512  -0.054858 -1.56256 0.012975  -0.0964577 -1.66532 0.0108737  -0.13957 -1.76795 0.00891393  -0.183931 -1.87033 0.00709784  -0.229337 -1.9724 0.0054208  -0.275593 -2.0741 0.00388503  -0.322497 -2.17542 0.00249237  -0.36992 -2.27633 0.00123906  -0.417692 -2.3768 0.000137508  -0.465689 -2.47683 -0.000837445  -0.513809 -2.57642 -0.00166863  -0.561935 -2.6756 -0.00233912  -0.610025 -2.77441 -0.00291944  -0.658077 -2.87303 -0.00344133  0 0 0  -0.0364832 -0.0298513 -0.0373428  -0.0731503 -0.0460429 -0.0554759  -0.110575 -0.0702282 -0.0601164  -0.14857 -0.104888 -0.0581065  -0.187204 -0.148362 -0.0532247  -0.226438 -0.198944 -0.0474643  -0.266298 -0.255438 -0.0418211  -0.306856 -0.317006 -0.0366962  -0.348207 -0.383063 -0.0322079  -0.390428 -0.453181 -0.0283242  -0.433552 -0.526999 -0.0249643  -0.477585 -0.604183 -0.0220357  -0.522513 -0.684431 -0.0194607  -0.56828 -0.767463 -0.0171845  -0.614824 -0.852989 -0.0151525  -0.66208 -0.940751 -0.01335  -0.709941 -1.03051 -0.0117328  -0.758339 -1.12203 -0.0102997  -0.807154 -1.21508 -0.00902605  -0.856308 -1.30947 -0.00789803  -0.905691 -1.40501 -0.00692588  -0.955235 -1.50151 -0.00606662  -1.00483 -1.59882 -0.00534809  -1.05446 -1.69679 -0.0047465  -1.10399 -1.79525 -0.00425971  -1.15341 -1.89409 -0.00389457  -1.20268 -1.99318 -0.0036338  -1.25174 -2.09241 -0.00349897  -1.30059 -2.19169 -0.00346678  -1.34924 -2.29089 -0.00351918  -1.39772 -2.38995 -0.0036431  -1.44609 -2.48882 -0.00379002  0 0 0  -0.0149552 -0.0112605 -0.0268252  -0.0419343 -0.0320332 -0.0395325  -0.0694734 -0.0624565 -0.0429912  -0.0976122 -0.102757 -0.0419008  -0.127624 -0.151391 -0.0386633  -0.15978 -0.206754 -0.0346587  -0.193915 -0.267666 -0.0306321  -0.229802 -0.333343 -0.0269122  -0.267289 -0.403235 -0.0236184  -0.306269 -0.47691 -0.0207505  -0.346651 -0.554015 -0.0182745  -0.388372 -0.634226 -0.0161186  -0.431337 -0.71724 -0.014234  -0.475456 -0.802767 -0.0125796  -0.52062 -0.890536 -0.0111147  -0.566719 -0.980291 -0.0098204  -0.613634 -1.0718 -0.00867712  -0.661257 -1.16484 -0.00766265  -0.709453 -1.25921 -0.00677633  -0.75812 -1.35472 -0.0059979  -0.807142 -1.45118 -0.00533324  -0.856413 -1.54844 -0.00476986  -0.905845 -1.64636 -0.00429231  -0.955355 -1.74477 -0.0039174  -1.00484 -1.84357 -0.00362706  -1.05427 -1.94262 -0.00341761  -1.10358 -2.04183 -0.00330126  -1.15271 -2.1411 -0.00326639  -1.20165 -2.24033 -0.00330728  -1.25038 -2.33945 -0.00340605  -1.2989 -2.43841 -0.00354326  -1.34727 -2.53717 -0.00368845  0 0 0  -0.00703601 -0.00413369 -0.0171866  -0.0208008 -0.0267441 -0.0255398  -0.0375504 -0.0607392 -0.0278794  -0.0563568 -0.104451 -0.0272619  -0.0778623 -0.156462 -0.0252317  -0.102428 -0.215326 -0.0226629  -0.129973 -0.279838 -0.020025  -0.160235 -0.349115 -0.0175468  -0.192957 -0.422514 -0.0153407  -0.227892 -0.499552 -0.0134177  -0.264847 -0.579822 -0.0117589  -0.30365 -0.662984 -0.0103359  -0.344132 -0.74871 -0.00910592  -0.386142 -0.836719 -0.0080418  -0.429516 -0.926728 -0.00711817  -0.474107 -1.01849 -0.00632411  -0.519756 -1.11179 -0.0056206  -0.566317 -1.2064 -0.00502872  -0.613639 -1.30214 -0.00451589  -0.661586 -1.39882 -0.00408328  -0.710029 -1.49627 -0.00372404  -0.758845 -1.59436 -0.00343966  -0.80792 -1.69295 -0.00321358  -0.85715 -1.79191 -0.00305313  -0.906457 -1.89111 -0.00295854  -0.955754 -1.99046 -0.00291997  -1.00497 -2.08988 -0.00293708  -1.05406 -2.18927 -0.00300652  -1.10298 -2.28856 -0.00311995  -1.15171 -2.38771 -0.00327969  -1.20022 -2.48666 -0.00345182  -1.2485 -2.58534 -0.00361449  0 0 0  -0.00167803 -0.0041047 -0.0078913  -0.00536701 -0.0272268 -0.0122215  -0.0118089 -0.0634388 -0.0137182  -0.0213038 -0.109707 -0.0135782  -0.0343409 -0.164339 -0.012583  -0.0512006 -0.225962 -0.0112277  -0.0718513 -0.293405 -0.00978833  -0.0960634 -0.365744 -0.00842345  -0.123519 -0.442249 -0.00721496  -0.153926 -0.522343 -0.00617915  -0.186988 -0.605561 -0.00530845  -0.222444 -0.691506 -0.00458676  -0.260066 -0.779831 -0.00399697  -0.299613 -0.870231 -0.0035128  -0.34089 -0.962422 -0.00312138  -0.383691 -1.05616 -0.00280488  -0.427824 -1.15121 -0.00255603  -0.473095 -1.24738 -0.00236607  -0.519338 -1.34447 -0.00222749  -0.56638 -1.44233 -0.00213343  -0.614072 -1.54079 -0.00208414  -0.662277 -1.63973 -0.0020746  -0.710852 -1.73902 -0.00210851  -0.759691 -1.83854 -0.00216466  -0.808684 -1.93819 -0.00225633  -0.857748 -2.0379 -0.00238109  -0.906784 -2.13757 -0.00253844  -0.955748 -2.23714 -0.00272602  -1.00457 -2.33655 -0.00292414  -1.05323 -2.43576 -0.00315154  -1.10167 -2.53472 -0.00338018  -1.14987 -2.63335 -0.00360131  0 0 0  0.00275309 -0.00723273 0.00103825  0.00785512 -0.0323004 0.000426054  0.0109105 -0.0704456 -0.000280499  0.0104058 -0.118714 -0.000567257  0.00567299 -0.175442 -0.000478029  -0.00357288 -0.239314 -0.000168383  -0.0173188 -0.309213 0.000203252  -0.0353534 -0.384182 0.000555575  -0.0573624 -0.463408 0.0008412  -0.0829908 -0.546248 0.00103569  -0.111895 -0.632153 0.00114638  -0.143756 -0.720683 0.00116795  -0.178262 -0.811441 0.00112897  -0.215129 -0.904097 0.0010379  -0.254093 -0.998356 0.000903904  -0.294912 -1.09397 0.000731945  -0.337333 -1.19072 0.000534415  -0.381152 -1.28838 0.000319004  -0.426157 -1.38679 8.47578e-05  -0.472154 -1.48578 -0.000159681  -0.518969 -1.58523 -0.000422299  -0.566443 -1.68499 -0.000690341  -0.614426 -1.78496 -0.00096786  -0.662768 -1.88504 -0.00125122  -0.711368 -1.98515 -0.00153518  -0.760103 -2.0852 -0.00183648  -0.808899 -2.18513 -0.00213081  -0.857675 -2.28487 -0.00242668  -0.906364 -2.38441 -0.00273246  -0.954922 -2.48368 -0.00302798  -1.00328 -2.58266 -0.00332779  -1.05139 -2.68128 -0.00360978  0 0 0  0.00720711 -0.012717 0.00946921  0.0208973 -0.0412241 0.0121837  0.0330093 -0.0815127 0.0122916  0.041101 -0.131486 0.0117575  0.044366 -0.189929 0.0111507  0.0424943 -0.255699 0.0105635  0.0354894 -0.327715 0.00999659  0.0235556 -0.40499 0.009431  0.00700462 -0.486649 0.00884604  -0.0137939 -0.571965 0.00823003  -0.0384488 -0.660326 0.00759238  -0.0665926 -0.751229 0.00694448  -0.0978577 -0.844239 0.00627899  -0.131912 -0.938992 0.00561076  -0.168439 -1.03519 0.0049451  -0.207151 -1.13256 0.00429022  -0.247759 -1.23087 0.00364506  -0.290018 -1.32993 0.00302249  -0.333692 -1.42957 0.00241488  -0.378556 -1.52963 0.00182301  -0.424415 -1.62997 0.00124872  -0.471082 -1.73051 0.000706434  -0.518379 -1.83111 0.000176072  -0.566183 -1.93171 -0.000334322  -0.614325 -2.03222 -0.000815213  -0.662703 -2.13258 -0.001275  -0.711214 -2.23274 -0.00171143  -0.759757 -2.33265 -0.00212914  -0.808267 -2.43228 -0.00252241  -0.856691 -2.53161 -0.00290263  -0.90497 -2.63059 -0.00326949  -0.953025 -2.72924 -0.00364161  0 0 0  0.0126615 -0.0210359 0.0170819  0.0354725 -0.0540466 0.0227271  0.0564019 -0.0964245 0.0238256  0.0726545 -0.147822 0.0233514  0.0835081 -0.207735 0.0222793  0.0886846 -0.275206 0.0209767  0.0881697 -0.34916 0.019586  0.0821475 -0.428553 0.0181762  0.0709292 -0.512447 0.0167719  0.0548933 -0.600046 0.0153839  0.0344465 -0.690666 0.0140141  0.0100214 -0.783751 0.0126901  -0.017992 -0.878829 0.0114069  -0.0491974 -0.975511 0.0101672  -0.0832536 -1.07348 0.00897312  -0.119804 -1.17245 0.00783557  -0.15855 -1.2722 0.00674623  -0.199202 -1.37253 0.00571436  -0.241489 -1.47328 0.00473368  -0.285188 -1.57429 0.00379848  -0.330033 -1.67545 0.00292069  -0.37586 -1.77665 0.0020839  -0.422463 -1.8778 0.00131083  -0.469674 -1.97883 0.000582576  -0.517347 -2.07967 -0.000101626  -0.565344 -2.18027 -0.000730276  -0.613541 -2.28059 -0.00130594  -0.661853 -2.38061 -0.00183618  -0.710182 -2.48029 -0.00231797  -0.758475 -2.57962 -0.00276828  -0.806668 -2.6786 -0.00319028  -0.854721 -2.77727 -0.00362122  0 0 0  0.0208954 -0.0341403 0.0235196  0.0533778 -0.0711789 0.0318815  0.0826339 -0.114843 0.0343734  0.106515 -0.167359 0.0342584  0.124536 -0.22867 0.0329154  0.136425 -0.29784 0.0310199  0.142122 -0.373716 0.0289024  0.141773 -0.455176 0.0267136  0.135682 -0.541209 0.0245314  0.124231 -0.630955 0.0223984  0.107876 -0.723677 0.0203367  0.0870568 -0.818779 0.0183504  0.0622251 -0.915752 0.0164616  0.0338097 -1.01419 0.0146596  0.00219321 -1.11376 0.0129502  -0.0322298 -1.21417 0.0113338  -0.0691278 -1.3152 0.00980926  -0.108185 -1.41665 0.00836611  -0.149092 -1.51836 0.00702149  -0.191603 -1.62018 0.00574821  -0.235463 -1.72201 0.00456107  -0.280438 -1.82375 0.00344813  -0.326334 -1.92532 0.00242001  -0.372972 -2.02666 0.00147086  -0.420179 -2.12772 0.00058955  -0.467804 -2.22846 -0.000202298  -0.515723 -2.32885 -0.000927866  -0.563818 -2.42887 -0.00156337  -0.61199 -2.52851 -0.00212669  -0.660165 -2.6278 -0.00262845  -0.708285 -2.72673 -0.00308704  -0.756355 -2.82541 -0.00353831  0 0 0  0.0358508 -0.0561271 0.0289934  0.0761718 -0.0923763 0.040554  0.112568 -0.135994 0.0444477  0.14362 -0.189592 0.0446126  0.168575 -0.252522 0.042996  0.186959 -0.323599 0.0405568  0.198627 -0.401535 0.0377762  0.203693 -0.485129 0.0348805  0.202476 -0.573299 0.0319895  0.195372 -0.66513 0.0291653  0.182883 -0.759846 0.0264488  0.165491 -0.85682 0.0238467  0.14368 -0.955526 0.0213776  0.117905 -1.05554 0.0190377  0.0886213 -1.15654 0.0168303  0.0562341 -1.25821 0.0147549  0.021101 -1.36033 0.0128008  -0.0164113 -1.46273 0.0109727  -0.0559921 -1.56521 0.00926191  -0.0973721 -1.66768 0.00765663  -0.140262 -1.77001 0.00616628  -0.184439 -1.87213 0.00478464  -0.22967 -1.97397 0.0035066  -0.275759 -2.07548 0.00232172  -0.322547 -2.17661 0.00126421  -0.369849 -2.27733 0.000302672  -0.417536 -2.37764 -0.000550032  -0.465471 -2.47753 -0.00130516  -0.513553 -2.57702 -0.00194842  -0.561687 -2.67613 -0.00248969  -0.609782 -2.77494 -0.00296426  -0.657891 -2.87359 -0.0034191  0 0 0  -0.0395907 -0.0386162 -0.0224023  -0.0750497 -0.059891 -0.0352487  -0.113078 -0.0853225 -0.0399778  -0.152401 -0.118729 -0.0396654  -0.192108 -0.160157 -0.0368338  -0.231938 -0.208683 -0.0330496  -0.271987 -0.263376 -0.0291846  -0.312448 -0.323484 -0.0256194  -0.353523 -0.388396 -0.0224867  -0.395363 -0.457617 -0.0197887  -0.438072 -0.530733 -0.0174681  -0.481679 -0.607345 -0.0154687  -0.526188 -0.687127 -0.0137305  -0.571551 -0.769768 -0.012197  -0.617731 -0.854964 -0.0108545  -0.664629 -0.942441 -0.009664  -0.712173 -1.03195 -0.00861132  -0.760254 -1.12326 -0.00767344  -0.8088 -1.21613 -0.00684887  -0.857691 -1.31036 -0.00613832  -0.906841 -1.40575 -0.00551105  -0.956171 -1.50215 -0.00497252  -1.00559 -1.59935 -0.00453019  -1.05502 -1.69722 -0.00416249  -1.10444 -1.79562 -0.0038892  -1.15371 -1.8944 -0.00367606  -1.20287 -1.99344 -0.00355643  -1.25186 -2.09264 -0.0035004  -1.30065 -2.19188 -0.00351679  -1.34927 -2.29107 -0.00359607  -1.39775 -2.39012 -0.00371867  -1.44614 -2.489 -0.00384718  0 0 0  -0.0138452 -0.0180232 -0.0157931  -0.0410508 -0.0430818 -0.0255956  -0.0705919 -0.0745236 -0.029144  -0.100962 -0.114175 -0.0290449  -0.132539 -0.161447 -0.027076  -0.165527 -0.215277 -0.0243615  -0.199933 -0.274774 -0.0215321  -0.235737 -0.339246 -0.0189052  -0.272926 -0.408145 -0.0165858  -0.311499 -0.481027 -0.0145866  -0.351439 -0.557499 -0.0128812  -0.392698 -0.637182 -0.0114143  -0.435222 -0.719759 -0.0101469  -0.478924 -0.804918 -0.0090512  -0.523691 -0.892374 -0.00809127  -0.569429 -0.981864 -0.00724655  -0.616001 -1.07314 -0.00650233  -0.663311 -1.16598 -0.00586265  -0.711219 -1.26018 -0.00529909  -0.759623 -1.35554 -0.0048151  -0.808396 -1.45187 -0.00440228  -0.857452 -1.54902 -0.00406289  -0.906681 -1.64684 -0.00377631  -0.956009 -1.74518 -0.00356919  -1.00535 -1.84391 -0.00341529  -1.05464 -1.94292 -0.00331867  -1.10383 -2.04208 -0.00327939  -1.15287 -2.14132 -0.00329912  -1.20174 -2.24053 -0.00336754  -1.25042 -2.33964 -0.00347495  -1.29892 -2.43859 -0.0036096  -1.34731 -2.53737 -0.00374699  0 0 0  -0.00651202 -0.0090701 -0.010281  -0.0202465 -0.0349638 -0.0168045  -0.0385779 -0.0704752 -0.0192983  -0.0593718 -0.114223 -0.0192397  -0.0823711 -0.165482 -0.0179371  -0.107761 -0.223281 -0.0161398  -0.135611 -0.286693 -0.0142568  -0.165836 -0.354962 -0.0124937  -0.198306 -0.427482 -0.0109322  -0.232883 -0.503782 -0.00959206  -0.269427 -0.583443 -0.00845385  -0.307806 -0.666085 -0.00749022  -0.347871 -0.751377 -0.00667763  -0.389483 -0.83901 -0.00598145  -0.432485 -0.928703 -0.00538176  -0.476728 -1.0202 -0.00487417  -0.52205 -1.11325 -0.00443745  -0.568305 -1.20766 -0.00407094  -0.615351 -1.30321 -0.0037623  -0.66304 -1.39972 -0.00350463  -0.711254 -1.49705 -0.00330281  -0.759856 -1.59502 -0.00314862  -0.808738 -1.69351 -0.00303698  -0.857796 -1.79238 -0.00296795  -0.906946 -1.89151 -0.00293922  -0.956111 -1.99081 -0.0029496  -1.00522 -2.09018 -0.00300354  -1.05422 -2.18954 -0.00309902  -1.10307 -2.28881 -0.00321621  -1.15174 -2.38794 -0.00336039  -1.20022 -2.48687 -0.00352407  -1.24853 -2.58557 -0.00368309  0 0 0  -0.00180392 -0.00774965 -0.00495946  -0.00593816 -0.0336654 -0.0083881  -0.0134622 -0.0715723 -0.00985759  -0.0243226 -0.118382 -0.00993526  -0.038464 -0.172735 -0.00927794  -0.0559803 -0.233648 -0.00830764  -0.076896 -0.300233 -0.00726765  -0.101089 -0.371716 -0.00628358  -0.128349 -0.447424 -0.00542182  -0.158453 -0.526826 -0.00469583  -0.191167 -0.609443 -0.0041064  -0.226253 -0.694871 -0.00362039  -0.263499 -0.782755 -0.00323904  -0.302695 -0.872772 -0.00293291  -0.34364 -0.964627 -0.00269812  -0.386117 -1.05808 -0.0025115  -0.429943 -1.15288 -0.00237131  -0.474942 -1.24882 -0.00227469  -0.520917 -1.34572 -0.00221771  -0.567721 -1.44341 -0.00218672  -0.615199 -1.54172 -0.00218773  -0.663197 -1.64053 -0.00221598  -0.711597 -1.7397 -0.00227278  -0.760275 -1.83913 -0.00235134  -0.809121 -1.9387 -0.00245309  -0.858056 -2.03833 -0.00257576  -0.906996 -2.13794 -0.00272447  -0.955868 -2.23746 -0.00288463  -1.00464 -2.33684 -0.0030663  -1.05323 -2.43602 -0.00325316  -1.10166 -2.53497 -0.00344735  -1.14987 -2.63363 -0.00363946  0 0 0  0.00201546 -0.0101124 0.000128508  0.00614488 -0.0377978 -0.000293136  0.00848269 -0.0776812 -0.000837982  0.00721693 -0.126719 -0.00106579  0.00183326 -0.183431 -0.000995934  -0.00783831 -0.246835 -0.000757813  -0.0217631 -0.316049 -0.000468671  -0.0397731 -0.390273 -0.000195742  -0.0616244 -0.468787 2.10404e-05  -0.0870088 -0.550976 0.000160515  -0.115625 -0.636302 0.000234842  -0.147164 -0.724317 0.00024718  -0.181351 -0.814627 0.000204325  -0.217908 -0.906893 0.000119209  -0.256571 -1.00081 8.28505e-06  -0.297092 -1.09612 -0.000128448  -0.33925 -1.19259 -0.00029248  -0.382813 -1.29002 -0.000466049  -0.427578 -1.38822 -0.000652969  -0.473357 -1.48703 -0.000857294  -0.519978 -1.58632 -0.00106478  -0.567261 -1.68593 -0.00127655  -0.615076 -1.78577 -0.00149822  -0.663274 -1.88575 -0.00172132  -0.711738 -1.98576 -0.00195575  -0.760365 -2.08572 -0.00218803  -0.809067 -2.18558 -0.00242954  -0.857759 -2.28527 -0.00266325  -0.906387 -2.38476 -0.00291103  -0.954895 -2.484 -0.00314659  -1.00324 -2.58297 -0.00338894  -1.05136 -2.6816 -0.00363219  0 0 0  0.0059045 -0.0152425 0.0049125  0.0181976 -0.0463279 0.00725001  0.0298926 -0.0883244 0.00760376  0.0377335 -0.139113 0.00732094  0.0407292 -0.19765 0.00692409  0.0386691 -0.263081 0.00654441  0.031589 -0.334539 0.00617146  0.0196877 -0.411165 0.00579739  0.00327504 -0.492175 0.00540954  -0.0173216 -0.576885 0.00500017  -0.0417391 -0.664689 0.00456393  -0.0696183 -0.75509 0.00411713  -0.100611 -0.847652 0.00365198  -0.134393 -0.942011 0.00318718  -0.170656 -1.03786 0.00271761  -0.209105 -1.13492 0.00225419  -0.249463 -1.23295 0.00179994  -0.291497 -1.33177 0.00135207  -0.334951 -1.43118 0.000911713  -0.379614 -1.53104 0.000482798  -0.425289 -1.63122 6.97374e-05  -0.471782 -1.73158 -0.000331879  -0.51894 -1.83205 -0.000717521  -0.566596 -1.93252 -0.00110233  -0.614625 -2.03292 -0.00145048  -0.662888 -2.13318 -0.00179732  -0.711312 -2.23326 -0.00212616  -0.759791 -2.33311 -0.00244397  -0.808248 -2.43269 -0.00274676  -0.856634 -2.53197 -0.00304598  -0.904888 -2.63094 -0.0033223  -0.952957 -2.72961 -0.00359994  0 0 0  0.0108864 -0.023729 0.00919712  0.0320157 -0.0593058 0.0140023  0.0527893 -0.103218 0.015306  0.0691699 -0.155293 0.0151464  0.0800487 -0.215276 0.0144563  0.085214 -0.28245 0.013579  0.0847039 -0.355917 0.0126392  0.07875 -0.434733 0.0116894  0.0676451 -0.518035 0.0107399  0.0517758 -0.605061 0.00979817  0.0315412 -0.69515 0.00887644  0.00733387 -0.787753 0.00797033  -0.0204378 -0.882393 0.0070973  -0.0514131 -0.978691 0.00624424  -0.0852268 -1.0763 0.00542343  -0.121548 -1.17496 0.00463796  -0.160072 -1.27444 0.00388753  -0.200511 -1.37451 0.00316471  -0.24261 -1.47503 0.00247908  -0.286103 -1.57583 0.00182432  -0.330788 -1.67681 0.00120032  -0.376457 -1.77784 0.000611067  -0.422913 -1.87884 5.84126e-05  -0.469996 -1.97973 -0.000459135  -0.517563 -2.08045 -0.000960767  -0.565464 -2.18094 -0.00141293  -0.613588 -2.28118 -0.00183034  -0.661837 -2.38111 -0.00222743  -0.710121 -2.48073 -0.00258464  -0.758375 -2.58002 -0.0029164  -0.806551 -2.67899 -0.00324428  -0.854612 -2.77768 -0.00357074  0 0 0  0.0188066 -0.037888 0.012845  0.049531 -0.0773424 0.0198729  0.0787861 -0.122006 0.0222717  0.102979 -0.174827 0.0224214  0.121193 -0.236062 0.0215763  0.133173 -0.304899 0.020313  0.138933 -0.380307 0.0188845  0.138664 -0.46123 0.0174119  0.132685 -0.546719 0.0159436  0.121385 -0.635928 0.0145028  0.105209 -0.728152 0.0131128  0.0845895 -0.822795 0.0117743  0.0599678 -0.919344 0.0104863  0.031762 -1.01741 0.00926131  0.000373602 -1.11663 0.00810045  -0.0338384 -1.21674 0.00699669  -0.070534 -1.31749 0.00595176  -0.109385 -1.41868 0.00495821  -0.150111 -1.52016 0.00402683  -0.192442 -1.62177 0.00314856  -0.236129 -1.72342 0.0023182  -0.280959 -1.82498 0.00154525  -0.326724 -1.9264 0.000824928  -0.373238 -2.0276 0.000155568  -0.420347 -2.12853 -0.000466764  -0.467882 -2.22916 -0.00102943  -0.515724 -2.32945 -0.00154817  -0.563761 -2.42939 -0.00201154  -0.611892 -2.52899 -0.00242162  -0.660037 -2.62822 -0.00279671  -0.708145 -2.72714 -0.00314903  -0.756226 -2.82584 -0.00349325  0 0 0  0.03337 -0.0626382 0.0157432  0.072322 -0.0999758 0.0253609  0.108662 -0.143648 0.0288263  0.139992 -0.197098 0.0291979  0.165137 -0.25974 0.028209  0.183631 -0.330386 0.0266178  0.195379 -0.40782 0.0247726  0.200539 -0.490878 0.0228463  0.19944 -0.578511 0.0209152  0.192493 -0.669824 0.0190249  0.180182 -0.764066 0.0172036  0.162988 -0.860607 0.0154553  0.141381 -0.95891 0.0137895  0.11583 -1.05858 0.0122074  0.0867633 -1.15923 0.0107173  0.0545893 -1.26061 0.00931215  0.0196707 -1.36247 0.00798136  -0.0176387 -1.46462 0.00672746  -0.0570397 -1.56689 0.00556129  -0.0982258 -1.66916 0.00445658  -0.140952 -1.77132 0.0034337  -0.184987 -1.87328 0.00247139  -0.230073 -1.97496 0.00158715  -0.276039 -2.07633 0.000772834  -0.322719 -2.17734 2.5332e-05  -0.369935 -2.27796 -0.000653625  -0.417531 -2.37818 -0.00125813  -0.465421 -2.47802 -0.00179303  -0.513451 -2.57746 -0.00226432  -0.561538 -2.67655 -0.00265771  -0.609634 -2.77537 -0.00301856  -0.657738 -2.87404 -0.00337964  0 0 0  -0.0419409 -0.0427038 -0.0109388  -0.0771669 -0.0670068 -0.0173774  -0.114832 -0.0936293 -0.0201753  -0.154268 -0.126915 -0.0204313  -0.194333 -0.167531 -0.0192474  -0.234517 -0.215012 -0.0174534  -0.274791 -0.26868 -0.0155311  -0.315322 -0.327883 -0.0137367  -0.356337 -0.392045 -0.0121502  -0.39805 -0.460674 -0.0107919  -0.440571 -0.533303 -0.0096364  -0.483968 -0.609539 -0.0086571  -0.528247 -0.689009 -0.00780857  -0.573402 -0.771389 -0.00708079  -0.619371 -0.856364 -0.00645113  -0.666067 -0.943654 -0.00589526  -0.713425 -1.03301 -0.00541151  -0.761341 -1.12417 -0.00499034  -0.809719 -1.21691 -0.00463963  -0.858465 -1.31104 -0.0043236  -0.907488 -1.40635 -0.00406861  -0.956697 -1.50265 -0.00385761  -1.00601 -1.59979 -0.00368905  -1.05535 -1.6976 -0.00355828  -1.10466 -1.79594 -0.00347197  -1.15389 -1.89468 -0.00344336  -1.20298 -1.99368 -0.00344145  -1.25191 -2.09285 -0.00346172  -1.30069 -2.19207 -0.00354099  -1.34929 -2.29124 -0.00364351  -1.39777 -2.39028 -0.00376451  -1.4462 -2.48916 -0.00389504  0 0 0  -0.0137971 -0.0211629 -0.00766516  -0.0412427 -0.0489093 -0.0126927  -0.0714436 -0.0813867 -0.0148848  -0.102549 -0.120984 -0.0151616  -0.134799 -0.167689 -0.0143474  -0.168278 -0.220747 -0.0130409  -0.202963 -0.279441 -0.0116175  -0.238853 -0.34318 -0.0102872  -0.275982 -0.411455 -0.00911522  -0.314401 -0.48382 -0.00811052  -0.354134 -0.559864 -0.00727606  -0.395162 -0.639207 -0.00656509  -0.437446 -0.721493 -0.00596416  -0.480912 -0.806412 -0.00545156  -0.525456 -0.893663 -0.00501239  -0.570982 -0.982975 -0.00463808  -0.617363 -1.0741 -0.00431502  -0.664488 -1.16682 -0.00404465  -0.712229 -1.26089 -0.00381303  -0.76048 -1.35615 -0.00362682  -0.809118 -1.45241 -0.00347507  -0.858045 -1.54949 -0.00335276  -0.907164 -1.64724 -0.0032711  -0.956383 -1.74552 -0.00321853  -1.00563 -1.84421 -0.00320315  -1.05485 -1.94319 -0.00322032  -1.10397 -2.04231 -0.00325632  -1.15297 -2.14153 -0.00332844  -1.20179 -2.24072 -0.00342536  -1.25045 -2.33982 -0.00354242  -1.29895 -2.43878 -0.00367165  -1.34734 -2.53756 -0.00379169  0 0 0  -0.006337 -0.0112974 -0.00504792  -0.0204095 -0.0392688 -0.00842929  -0.039272 -0.0759256 -0.0100166  -0.0608404 -0.119962 -0.0102283  -0.0845491 -0.17096 -0.00969219  -0.110445 -0.228238 -0.00882339  -0.138578 -0.291043 -0.00787807  -0.168886 -0.358717 -0.00698531  -0.201294 -0.430701 -0.00620246  -0.235723 -0.506539 -0.00554669  -0.272069 -0.585806 -0.0049994  -0.31022 -0.668118 -0.00454628  -0.350057 -0.753132 -0.00417781  -0.391446 -0.840531 -0.00387371  -0.434226 -0.93002 -0.00361431  -0.478264 -1.02134 -0.00341249  -0.523394 -1.11425 -0.00324345  -0.569476 -1.20852 -0.00311184  -0.61636 -1.30396 -0.00300956  -0.663896 -1.40037 -0.00293088  -0.711967 -1.49761 -0.00288117  -0.760441 -1.59551 -0.00286424  -0.809217 -1.69393 -0.00286305  -0.858178 -1.79274 -0.00288749  -0.907238 -1.89183 -0.00293279  -0.956319 -1.9911 -0.00299299  -1.00536 -2.09043 -0.00308859  -1.05431 -2.18977 -0.00319123  -1.10312 -2.28902 -0.00331569  -1.15177 -2.38814 -0.00344527  -1.20024 -2.48707 -0.00358784  -1.24855 -2.58578 -0.00372565  0 0 0  -0.00187638 -0.00939274 -0.00250995  -0.00642939 -0.0369001 -0.00436473  -0.0144118 -0.07594 -0.00530767  -0.0258743 -0.123284 -0.00549972  -0.0405743 -0.17766 -0.00524688  -0.0585074 -0.238279 -0.00478733  -0.0796499 -0.304422 -0.00427568  -0.10391 -0.375418 -0.00379133  -0.13112 -0.450669 -0.00337398  -0.161088 -0.529648 -0.00303912  -0.193616 -0.611896 -0.002774  -0.2285 -0.697008 -0.00256658  -0.265543 -0.784616 -0.00241601  -0.304534 -0.874397 -0.00231075  -0.345269 -0.966045 -0.00223899  -0.387564 -1.05931 -0.0021944  -0.431211 -1.15396 -0.00217533  -0.476036 -1.24977 -0.00218046  -0.521861 -1.34655 -0.0022037  -0.568522 -1.44413 -0.0022403  -0.615873 -1.54236 -0.002298  -0.663757 -1.64108 -0.0023663  -0.71204 -1.74018 -0.00245059  -0.760617 -1.83955 -0.00254309  -0.80939 -1.93907 -0.00265276  -0.858249 -2.03866 -0.00277853  -0.907119 -2.13824 -0.00290465  -0.955941 -2.23773 -0.00305009  -1.00466 -2.33709 -0.00320077  -1.05325 -2.43626 -0.00335932  -1.10166 -2.53519 -0.00351632  -1.14988 -2.63385 -0.0036732  0 0 0  0.00167562 -0.0113815 -0.000137091  0.00521326 -0.040413 -0.000437379  0.00711167 -0.0814047 -0.000785828  0.00546771 -0.13109 -0.000970364  -0.000264108 -0.187993 -0.000987172  -0.0101975 -0.251254 -0.000902176  -0.0242686 -0.320153 -0.000778556  -0.042315 -0.39398 -0.000667453  -0.0641053 -0.472088 -0.000594854  -0.0893759 -0.553895 -0.000558138  -0.117829 -0.638874 -0.000559568  -0.1492 -0.726576 -0.000591516  -0.183195 -0.816616 -0.000655532  -0.219575 -0.908644 -0.000746846  -0.258059 -1.00235 -0.000855803  -0.298414 -1.09748 -0.000976562  -0.340401 -1.19379 -0.00110102  -0.383809 -1.29107 -0.00124311  -0.428435 -1.38915 -0.0013932  -0.474084 -1.48785 -0.00154662  -0.520576 -1.58703 -0.00170803  -0.567761 -1.68656 -0.00186229  -0.615466 -1.78633 -0.00202572  -0.663579 -1.88623 -0.00220072  -0.711956 -1.98618 -0.00237465  -0.760522 -2.08609 -0.0025419  -0.809166 -2.18591 -0.00273263  -0.857807 -2.28557 -0.00290406  -0.906402 -2.38504 -0.00308704  -0.954885 -2.48426 -0.0032661  -1.00322 -2.58322 -0.00344622  -1.05135 -2.68188 -0.00362682  0 0 0  0.00531319 -0.0163961 0.00206804  0.0168183 -0.0487273 0.00322127  0.0281112 -0.09179 0.003461  0.0357623 -0.143229 0.00331128  0.0386286 -0.201999 0.003075  0.0364514 -0.267363 0.0028429  0.0293167 -0.338572 0.00261736  0.0174245 -0.414861 0.00239205  0.00106835 -0.495515 0.00215721  -0.0194229 -0.579868 0.00191069  -0.043707 -0.667346 0.00164771  -0.0714325 -0.75745 0.0013783  -0.102265 -0.849746 0.00110209  -0.135884 -0.943873 0.00082469  -0.17199 -1.0395 0.000537038  -0.210284 -1.13638 0.000249267  -0.250506 -1.23425 -2.8491e-05  -0.292393 -1.33291 -0.000301361  -0.335717 -1.4322 -0.00057447  -0.380253 -1.53194 -0.000838399  -0.42582 -1.63201 -0.00110543  -0.472217 -1.73229 -0.00135672  -0.51927 -1.83267 -0.00160468  -0.566846 -1.93307 -0.00185335  -0.614794 -2.0334 -0.00208569  -0.663014 -2.13361 -0.00231481  -0.71138 -2.23364 -0.00253975  -0.75981 -2.33345 -0.00275636  -0.808238 -2.43299 -0.00297499  -0.856601 -2.53226 -0.00317633  -0.904851 -2.63123 -0.00337958  -0.952935 -2.72991 -0.00358427  0 0 0  0.0100736 -0.0250775 0.00403631  0.030282 -0.061919 0.00651264  0.0506881 -0.106764 0.00732601  0.067035 -0.15936 0.00729537  0.0779423 -0.219511 0.00692499  0.0831168 -0.286615 0.00644028  0.0826213 -0.359861 0.00591993  0.0767031 -0.43838 0.00539613  0.0656667 -0.521359 0.00487447  0.0498909 -0.608063 0.00435686  0.0297691 -0.697844 0.00384355  0.00569606 -0.790162 0.0033406  -0.021937 -0.884545 0.00285804  -0.0527709 -0.98061 0.00237966  -0.0864409 -1.07802 0.00191951  -0.122623 -1.17649 0.00147641  -0.161012 -1.2758 0.00105023  -0.201325 -1.37573 0.000638962  -0.243299 -1.47611 0.00024116  -0.28668 -1.57679 -0.000137925  -0.331263 -1.67766 -0.000505328  -0.376828 -1.77858 -0.000851154  -0.423209 -1.8795 -0.00118709  -0.470215 -1.98031 -0.00150049  -0.517707 -2.08096 -0.00180018  -0.565552 -2.1814 -0.00208855  -0.613631 -2.28158 -0.00235176  -0.661835 -2.38147 -0.00261414  -0.710089 -2.48106 -0.00284946  -0.758323 -2.58033 -0.00308025  -0.806493 -2.6793 -0.00330174  -0.854552 -2.77799 -0.00352752  0 0 0  0.0178557 -0.0398374 0.00571012  0.0476095 -0.0806102 0.0093751  0.0765199 -0.125909 0.010818  0.100743 -0.178979 0.0109695  0.119061 -0.24023 0.0105394  0.131124 -0.308943 0.00985873  0.136943 -0.384125 0.00908983  0.136729 -0.464769 0.00830221  0.130819 -0.549946 0.00751424  0.119622 -0.63886 0.00674534  0.10355 -0.730795 0.00599873  0.0830449 -0.825166 0.00528109  0.0585492 -0.921475 0.00458646  0.0304865 -1.01931 0.00392377  -0.000777483 -1.11834 0.00329101  -0.0348556 -1.21827 0.00269437  -0.0714257 -1.31885 0.0021193  -0.110156 -1.4199 0.00156772  -0.15076 -1.52124 0.00105274  -0.192988 -1.62274 0.000553966  -0.236574 -1.72426 9.10759e-05  -0.281312 -1.82573 -0.000353456  -0.326991 -1.92706 -0.00076592  -0.373426 -2.02819 -0.00115466  -0.420467 -2.12905 -0.00152314  -0.467953 -2.22961 -0.00186074  -0.515749 -2.32986 -0.00217223  -0.563748 -2.42976 -0.00246251  -0.611842 -2.52932 -0.00273073  -0.65997 -2.62854 -0.00298011  -0.708072 -2.72746 -0.00321352  -0.756156 -2.82616 -0.00344801  0 0 0  0.032331 -0.0658718 0.00697017  0.0705495 -0.104222 0.0119588  0.106351 -0.14804 0.0140436  0.137633 -0.201398 0.0143667  0.162889 -0.263874 0.0138698  0.181482 -0.3343 0.0130358  0.193306 -0.411464 0.012062  0.198539 -0.494225 0.0110484  0.197523 -0.581554 0.0100336  0.190676 -0.672577 0.00903749  0.178476 -0.766538 0.00808299  0.161401 -0.862816 0.00715685  0.139923 -0.960892 0.00627267  0.114506 -1.06034 0.00543094  0.0855725 -1.16082 0.00463331  0.0535305 -1.26202 0.00388134  0.0187445 -1.36373 0.00316703  -0.0184455 -1.46574 0.00249004  -0.0577304 -1.56788 0.00185108  -0.0988107 -1.67003 0.00124693  -0.141431 -1.77209 0.000680923  -0.185351 -1.87395 0.000153542  -0.230362 -1.97556 -0.000340939  -0.276253 -2.07686 -0.000811815  -0.322853 -2.17781 -0.00123775  -0.370003 -2.27837 -0.00162959  -0.417568 -2.37856 -0.00199151  -0.465395 -2.47836 -0.00231099  -0.513392 -2.57777 -0.00260067  -0.561468 -2.67687 -0.00286651  -0.609536 -2.77569 -0.00311124  -0.657643 -2.87438 -0.00335348  0 0 0  -0.0426504 -0.0440032 -0.000660777  -0.0778895 -0.0692844 -0.00102913  -0.115429 -0.0963651 -0.00118756  -0.154815 -0.129682 -0.00126302  -0.19494 -0.170094 -0.0012964  -0.235224 -0.217261 -0.0013293  -0.275583 -0.270603 -0.00135994  -0.316162 -0.329501 -0.00141108  -0.35719 -0.393411 -0.00145996  -0.398879 -0.46183 -0.0015341  -0.441346 -0.534298 -0.00160587  -0.484681 -0.610394 -0.00169241  -0.528906 -0.68976 -0.00178349  -0.573988 -0.772041 -0.00188088  -0.619883 -0.856938 -0.00197244  -0.666527 -0.944164 -0.00207162  -0.713815 -1.03346 -0.00216925  -0.761678 -1.12456 -0.00227523  -0.810007 -1.21727 -0.00238287  -0.858706 -1.31136 -0.00249386  -0.907683 -1.40663 -0.00259864  -0.956848 -1.50291 -0.00271332  -1.00613 -1.60003 -0.00282419  -1.05544 -1.69783 -0.0029397  -1.10473 -1.79615 -0.00306034  -1.15393 -1.89487 -0.00318599  -1.203 -1.99387 -0.00329983  -1.25194 -2.09302 -0.00342083  -1.30068 -2.19223 -0.00354445  -1.34929 -2.29139 -0.0036788  -1.39777 -2.39043 -0.0037992  -1.44621 -2.48932 -0.00392056  0 0 0  -0.0137871 -0.0221438 -0.000373125  -0.04131 -0.050776 -0.000818491  -0.0717055 -0.0836592 -0.00102031  -0.102994 -0.123302 -0.00113046  -0.13541 -0.169856 -0.00118399  -0.16904 -0.222688 -0.00121987  -0.203835 -0.281135 -0.00125849  -0.239776 -0.344629 -0.00131202  -0.276908 -0.412688 -0.00137377  -0.3153 -0.484878 -0.00144458  -0.354981 -0.560776 -0.00152957  -0.395943 -0.639991 -0.00162029  -0.438154 -0.722179 -0.00171173  -0.481547 -0.807011 -0.0018096  -0.526022 -0.894193 -0.00190246  -0.571476 -0.983446 -0.00199914  -0.617797 -1.07452 -0.00210655  -0.664862 -1.16718 -0.00221205  -0.712555 -1.26123 -0.00231457  -0.760747 -1.35645 -0.00242352  -0.80934 -1.45267 -0.00253713  -0.85822 -1.54973 -0.0026443  -0.907307 -1.64746 -0.00275528  -0.956496 -1.74573 -0.00287461  -1.00572 -1.8444 -0.00298893  -1.05491 -1.94336 -0.00311089  -1.10401 -2.04249 -0.00323009  -1.15299 -2.14169 -0.00335014  -1.20181 -2.24089 -0.00347495  -1.25046 -2.33998 -0.00360012  -1.29896 -2.43892 -0.00371838  -1.34736 -2.53772 -0.00383687  0 0 0  -0.00628415 -0.011983 -0.000399947  -0.0204383 -0.040658 -0.000666618  -0.0394792 -0.0777465 -0.000864387  -0.0612493 -0.121913 -0.000960588  -0.0851623 -0.17285 -0.00102985  -0.111222 -0.229979 -0.00108159  -0.139452 -0.292594 -0.00113726  -0.16981 -0.360074 -0.00120592  -0.202223 -0.431883 -0.00127947  -0.236616 -0.507566 -0.00136423  -0.272905 -0.5867 -0.00144553  -0.310998 -0.668898 -0.00154221  -0.35076 -0.753817 -0.00163615  -0.392076 -0.841135 -0.00173783  -0.434787 -0.930555 -0.00183225  -0.478756 -1.02181 -0.00194287  -0.523825 -1.11467 -0.00203538  -0.569848 -1.20889 -0.00214529  -0.61668 -1.3043 -0.00225055  -0.664164 -1.40068 -0.00235891  -0.712192 -1.49789 -0.00246692  -0.760623 -1.59576 -0.00258207  -0.80936 -1.69416 -0.00268888  -0.858289 -1.79295 -0.00281239  -0.907318 -1.89203 -0.00292492  -0.956383 -1.99128 -0.00304615  -1.0054 -2.09061 -0.00316155  -1.05433 -2.18994 -0.00328469  -1.10313 -2.28919 -0.00340986  -1.15177 -2.3883 -0.00352776  -1.20024 -2.48723 -0.00364792  -1.24856 -2.58594 -0.00376248  0 0 0  -0.00189183 -0.00989127 -0.000279188  -0.00656927 -0.0379291 -0.000529885  -0.0146998 -0.0773768 -0.000690937  -0.0263354 -0.124925 -0.000789881  -0.0412045 -0.179338 -0.000866532  -0.0592677 -0.239883 -0.000941277  -0.0804926 -0.305898 -0.0010221  -0.104786 -0.376749 -0.00110602  -0.131988 -0.451845 -0.00118816  -0.161922 -0.530686 -0.00128055  -0.194404 -0.612812 -0.00137246  -0.229227 -0.697816 -0.00146925  -0.266199 -0.785328 -0.00156903  -0.305124 -0.875022 -0.00166893  -0.345798 -0.966609 -0.00176799  -0.388027 -1.05982 -0.0018785  -0.431614 -1.15441 -0.00197434  -0.476389 -1.25017 -0.00208628  -0.522169 -1.34691 -0.00219059  -0.568777 -1.44446 -0.00229192  -0.616079 -1.54265 -0.00240493  -0.663919 -1.64135 -0.00251687  -0.712173 -1.74043 -0.00262594  -0.760729 -1.83978 -0.00274146  -0.809466 -1.93928 -0.00286055  -0.858299 -2.03886 -0.00297403  -0.907153 -2.13843 -0.00309336  -0.955961 -2.23791 -0.00321567  -1.00467 -2.33726 -0.00333083  -1.05325 -2.43643 -0.00345457  -1.10166 -2.53537 -0.00358081  -1.14989 -2.63404 -0.00370705  0 0 0  0.00156255 -0.0117593 -0.000203967  0.00493208 -0.0412249 -0.000371933  0.00668654 -0.0826014 -0.000515103  0.00491947 -0.13253 -0.000622153  -0.000919163 -0.189527 -0.000714779  -0.0109328 -0.252773 -0.000807524  -0.0250529 -0.321581 -0.000905991  -0.0431173 -0.395293 -0.000999093  -0.0648963 -0.473271 -0.00109839  -0.0901309 -0.554947 -0.001194  -0.118539 -0.639815 -0.00129735  -0.149853 -0.727419 -0.00139523  -0.183798 -0.817363 -0.00149524  -0.22011 -0.90931 -0.00159252  -0.258538 -1.00295 -0.00170016  -0.29883 -1.09802 -0.00180221  -0.34077 -1.19427 -0.00190723  -0.384132 -1.29151 -0.00201356  -0.42871 -1.38954 -0.00212359  -0.474315 -1.48821 -0.00223017  -0.520771 -1.58736 -0.00233877  -0.567915 -1.68685 -0.00244689  -0.615586 -1.78659 -0.00256205  -0.663668 -1.88648 -0.00267053  -0.71203 -1.98641 -0.00278699  -0.76057 -2.0863 -0.00290835  -0.809191 -2.18612 -0.00302577  -0.857819 -2.28577 -0.00314462  -0.906398 -2.38522 -0.00326669  -0.954873 -2.48445 -0.00339234  -1.0032 -2.58341 -0.00351143  -1.05134 -2.68207 -0.00363553  0 0 0  0.00510684 -0.0167456 -0.000142455  0.0164078 -0.0494685 -0.000239253  0.0275393 -0.0928878 -0.000351071  0.0351226 -0.144573 -0.000464797  0.037944 -0.203452 -0.000578284  0.0357435 -0.268823 -0.00069046  0.028592 -0.339964 -0.000794172  0.0167024 -0.416159 -0.00090301  0.000362158 -0.496699 -0.00100815  -0.0200982 -0.580937 -0.00111377  -0.0443428 -0.668308 -0.00121713  -0.0720183 -0.758315 -0.00132072  -0.102807 -0.850524 -0.00142086  -0.136368 -0.944566 -0.00152564  -0.17242 -1.04013 -0.00162852  -0.210669 -1.13694 -0.00173819  -0.250834 -1.23476 -0.0018425  -0.292681 -1.33337 -0.00194466  -0.335962 -1.43262 -0.00205719  -0.38046 -1.53232 -0.00216138  -0.425989 -1.63236 -0.0022707  -0.472352 -1.7326 -0.00238061  -0.519377 -1.83296 -0.00249457  -0.566926 -1.93333 -0.00260937  -0.614857 -2.03365 -0.00271487  -0.663042 -2.13384 -0.00282872  -0.711392 -2.23386 -0.00294971  -0.759812 -2.33365 -0.00306904  -0.808226 -2.43318 -0.00319624  -0.856587 -2.53245 -0.0033145  -0.904834 -2.63142 -0.0034405  -0.952914 -2.7301 -0.00357342  0 0 0  0.00978571 -0.0255048 -0.000101924  0.0297517 -0.0627394 -0.000128746  0.0500057 -0.1079 -0.000218868  0.0663189 -0.160699 -0.000340104  0.0772387 -0.220934 -0.000464201  0.0824244 -0.288034 -0.000582218  0.0819429 -0.361219 -0.000701427  0.0760334 -0.439649 -0.000812888  0.0650277 -0.52253 -0.000916958  0.0492797 -0.609129 -0.0010277  0.0291954 -0.698813 -0.00114131  0.00516343 -0.791035 -0.00124562  -0.0224261 -0.88534 -0.00135064  -0.0532055 -0.981324 -0.00145435  -0.0868273 -1.07867 -0.00156128  -0.122971 -1.17708 -0.00166965  -0.161315 -1.27633 -0.00177336  -0.201582 -1.37621 -0.00188005  -0.243512 -1.47654 -0.00198793  -0.286862 -1.57719 -0.00209439  -0.331405 -1.67802 -0.00220346  -0.376947 -1.77892 -0.00231338  -0.42329 -1.8798 -0.00242531  -0.470275 -1.98059 -0.00253594  -0.51775 -2.08123 -0.00264764  -0.565572 -2.18164 -0.00276661  -0.613627 -2.28181 -0.00287807  -0.661828 -2.38169 -0.00300324  -0.710073 -2.48127 -0.00312221  -0.758302 -2.58054 -0.00324523  -0.806464 -2.67951 -0.00336421  -0.854536 -2.77821 -0.00349593  0 0 0  0.017515 -0.0404513 -9.7394e-05  0.0470181 -0.081659 -7.21216e-05  0.0757771 -0.127185 -0.000116706  0.0999898 -0.180356 -0.000231981  0.118337 -0.241637 -0.000359774  0.130435 -0.310319 -0.000483036  0.13628 -0.385437 -0.000608206  0.136093 -0.465992 -0.000721693  0.130212 -0.55108 -0.000837445  0.119037 -0.639891 -0.00095129  0.103001 -0.731735 -0.00106168  0.082544 -0.826019 -0.00116897  0.0580922 -0.92225 -0.00128055  0.0300655 -1.02002 -0.00138569  -0.00115287 -1.11898 -0.00149715  -0.035193 -1.21884 -0.00160182  -0.0717103 -1.31938 -0.00170445  -0.110398 -1.42037 -0.00181365  -0.150979 -1.52168 -0.00191903  -0.193157 -1.62313 -0.00202918  -0.236716 -1.72463 -0.00213981  -0.281419 -1.82606 -0.00224316  -0.327075 -1.92737 -0.00235915  -0.373484 -2.02846 -0.0024693  -0.420506 -2.12931 -0.00257933  -0.467968 -2.22986 -0.00269687  -0.515743 -2.33008 -0.00280595  -0.563729 -2.42998 -0.00292027  -0.611821 -2.52953 -0.00304246  -0.659945 -2.62875 -0.00316632  -0.708039 -2.72767 -0.0032922  -0.756121 -2.82637 -0.00342095  0 0 0  0.0319461 -0.0669124 -0.000251174  0.0699968 -0.105628 -7.27177e-05  0.105588 -0.149508 2.38419e-07  0.136832 -0.202845 -9.95398e-05  0.162118 -0.265276 -0.000238538  0.180755 -0.335644 -0.000376701  0.192617 -0.412725 -0.000502825  0.197873 -0.495388 -0.000626326  0.196877 -0.582626 -0.000753641  0.190072 -0.673554 -0.000866294  0.177904 -0.767421 -0.000986457  0.160875 -0.863615 -0.00109935  0.139446 -0.961612 -0.00120795  0.114063 -1.061 -0.00131583  0.0851873 -1.16141 -0.00142515  0.0531828 -1.26257 -0.00153291  0.0184469 -1.36421 -0.00164199  -0.0187099 -1.46617 -0.00174356  -0.0579472 -1.56829 -0.00185323  -0.0989954 -1.67041 -0.00196266  -0.141581 -1.77243 -0.00206792  -0.185469 -1.87427 -0.0021708  -0.230446 -1.97584 -0.00228333  -0.276316 -2.07712 -0.00240016  -0.322891 -2.17805 -0.00251281  -0.370019 -2.27861 -0.00261855  -0.417563 -2.37877 -0.00273287  -0.465374 -2.47856 -0.00285244  -0.513372 -2.57798 -0.0029701  -0.561439 -2.67708 -0.00308645  -0.609508 -2.7759 -0.00321698  -0.657614 -2.87459 -0.0033474  0 0 0  -0.0416605 -0.0428741 0.00954282  -0.0770087 -0.0673513 0.0151995  -0.114728 -0.094 0.0176951  -0.154112 -0.127261 0.0178549  -0.194141 -0.167845 0.016645  -0.234321 -0.21531 0.0148153  -0.274611 -0.268958 0.0128348  -0.315173 -0.328145 0.0109513  -0.356234 -0.392311 0.00923645  -0.397966 -0.460928 0.00773132  -0.440494 -0.533547 0.00642204  -0.483913 -0.609787 0.00526333  -0.528195 -0.689256 0.00424504  -0.573362 -0.771635 0.0033195  -0.619323 -0.856611 0.00250137  -0.666032 -0.943896 0.00175047  -0.713383 -1.03325 0.00106847  -0.761303 -1.12441 0.000446916  -0.809687 -1.21716 -0.000131488  -0.85844 -1.31129 -0.000648737  -0.907459 -1.40659 -0.00113213  -0.956662 -1.5029 -0.00155938  -1.00597 -1.60004 -0.00195909  -1.05532 -1.69785 -0.00232291  -1.10462 -1.7962 -0.00262713  -1.15385 -1.89494 -0.00291431  -1.20296 -1.99395 -0.00315845  -1.2519 -2.09312 -0.00337315  -1.30066 -2.19234 -0.00354707  -1.34927 -2.29151 -0.00369906  -1.39776 -2.39055 -0.00382853  -1.44619 -2.48944 -0.00393999  0 0 0  -0.013688 -0.0213205 0.00686264  -0.0410714 -0.0491595 0.0109413  -0.0713111 -0.0816645 0.0127609  -0.102396 -0.12124 0.0128875  -0.134613 -0.167926 0.0119962  -0.168089 -0.220987 0.0106286  -0.202795 -0.279685 0.00913239  -0.238715 -0.343426 0.00768852  -0.275876 -0.411704 0.00638187  -0.314316 -0.48407 0.00522327  -0.354064 -0.56011 0.00421488  -0.395106 -0.639447 0.00332463  -0.437398 -0.721734 0.00254118  -0.480859 -0.806652 0.00183725  -0.525416 -0.893902 0.0012058  -0.570941 -0.983216 0.000629067  -0.617326 -1.07434 0.000102997  -0.664454 -1.16706 -0.000376701  -0.712194 -1.26114 -0.000819206  -0.760445 -1.3564 -0.00122023  -0.809084 -1.45265 -0.00159431  -0.858013 -1.54973 -0.00193429  -0.907127 -1.64749 -0.00224364  -0.956352 -1.74578 -0.00252318  -1.0056 -1.84447 -0.00277376  -1.05482 -1.94344 -0.0030061  -1.10395 -2.04258 -0.00320566  -1.15294 -2.1418 -0.00337672  -1.20177 -2.24099 -0.00353003  -1.25043 -2.3401 -0.00365543  -1.29894 -2.43905 -0.0037744  -1.34733 -2.53783 -0.00388598  0 0 0  -0.00624211 -0.011414 0.00420678  -0.0203199 -0.0394844 0.00700879  -0.0391961 -0.0761767 0.00824034  -0.060724 -0.120194 0.00830328  -0.0844031 -0.171171 0.00765955  -0.110297 -0.22845 0.00668597  -0.138437 -0.291264 0.00561881  -0.168762 -0.358946 0.0045892  -0.201194 -0.430944 0.0036509  -0.235637 -0.506782 0.00282335  -0.271998 -0.58605 0.00209951  -0.310158 -0.668362 0.00146151  -0.350003 -0.753376 0.00090003  -0.391392 -0.840776 0.000398636  -0.434181 -0.930265 -5.51939e-05  -0.47822 -1.02158 -0.000468135  -0.523357 -1.11449 -0.000838757  -0.569434 -1.20876 -0.00117826  -0.616316 -1.3042 -0.00149739  -0.663862 -1.40062 -0.00178993  -0.711933 -1.49786 -0.00205123  -0.760408 -1.59576 -0.00229895  -0.80918 -1.69419 -0.00252521  -0.858138 -1.793 -0.00272858  -0.907204 -1.89209 -0.00292361  -0.956282 -1.99136 -0.00308561  -1.00534 -2.09071 -0.003245  -1.05428 -2.19004 -0.0033797  -1.10309 -2.28929 -0.003497  -1.15174 -2.38841 -0.00361252  -1.20022 -2.48735 -0.00371528  -1.24855 -2.58606 -0.0038116  0 0 0  -0.00182731 -0.00947073 0.00190651  -0.00638968 -0.0370492 0.00324571  -0.0143678 -0.0761276 0.00390756  -0.0258005 -0.123474 0.0039376  -0.0404825 -0.177856 0.00353932  -0.0584004 -0.238483 0.00292873  -0.0795423 -0.304638 0.00225031  -0.103807 -0.375645 0.00159895  -0.131026 -0.450903 0.000998139  -0.161009 -0.529887 0.00047946  -0.193544 -0.612141 2.71797e-05  -0.228439 -0.697248 -0.000372529  -0.265484 -0.784858 -0.00071919  -0.304478 -0.874637 -0.00102746  -0.34522 -0.966293 -0.00129628  -0.387512 -1.05956 -0.00154912  -0.431162 -1.15421 -0.00177276  -0.475994 -1.25001 -0.00198078  -0.521824 -1.3468 -0.00217617  -0.568487 -1.44438 -0.00234747  -0.615831 -1.5426 -0.002514  -0.663708 -1.64133 -0.00266278  -0.712008 -1.74044 -0.00280714  -0.760589 -1.83981 -0.00294209  -0.809348 -1.93933 -0.00306475  -0.858214 -2.03892 -0.00317836  -0.907084 -2.1385 -0.00327849  -0.955917 -2.238 -0.00337899  -1.00464 -2.33736 -0.00347137  -1.05322 -2.43653 -0.00355351  -1.10163 -2.53548 -0.0036453  -1.14986 -2.63415 -0.00372875  0 0 0  0.00165246 -0.0114249 -0.000298023  0.00523707 -0.0405033 -0.000324368  0.00714219 -0.0815289 -0.000232577  0.00550687 -0.131249 -0.00024426  -0.000211477 -0.188174 -0.000416517  -0.0101256 -0.251455 -0.000698209  -0.0241872 -0.320368 -0.00101614  -0.042234 -0.394208 -0.00132477  -0.0640302 -0.472321 -0.00160158  -0.0892993 -0.554125 -0.00183296  -0.117767 -0.639109 -0.00203311  -0.149138 -0.72682 -0.00219703  -0.183146 -0.816858 -0.00233364  -0.219518 -0.908881 -0.00244558  -0.258005 -1.0026 -0.002545  -0.298359 -1.09773 -0.00263405  -0.340359 -1.19403 -0.00271392  -0.383769 -1.29132 -0.00278842  -0.428398 -1.3894 -0.00285351  -0.47405 -1.4881 -0.00291848  -0.520542 -1.58728 -0.00297904  -0.567715 -1.68681 -0.00303698  -0.615432 -1.78659 -0.00308907  -0.663538 -1.88649 -0.00314903  -0.711925 -1.98644 -0.00320959  -0.760492 -2.08636 -0.00326407  -0.809128 -2.18618 -0.00332379  -0.857777 -2.28585 -0.00338686  -0.906365 -2.38531 -0.00344431  -0.954855 -2.48455 -0.00351012  -1.0032 -2.58351 -0.00357485  -1.05132 -2.68216 -0.00363791  0 0 0  0.00522998 -0.0164163 -0.00235844  0.0168341 -0.048781 -0.00367296  0.0281247 -0.0918878 -0.00413311  0.0357772 -0.143378 -0.00422025  0.0386534 -0.202185 -0.00422132  0.0364978 -0.267562 -0.00421226  0.0293812 -0.338786 -0.00420415  0.0174953 -0.415086 -0.00419426  0.00114572 -0.495744 -0.00417268  -0.0193527 -0.580106 -0.00413764  -0.0436358 -0.667584 -0.00408554  -0.0713701 -0.757688 -0.0040164  -0.10221 -0.849989 -0.00394475  -0.135828 -0.944112 -0.0038749  -0.171938 -1.03975 -0.00379562  -0.210236 -1.13662 -0.00372279  -0.250455 -1.23449 -0.00365853  -0.292343 -1.33316 -0.0035919  -0.33567 -1.43245 -0.00353551  -0.380215 -1.53219 -0.0034858  -0.425778 -1.63226 -0.00343847  -0.472172 -1.73254 -0.00340486  -0.519238 -1.83293 -0.00338233  -0.566813 -1.93333 -0.00336421  -0.614763 -2.03367 -0.00335407  -0.662976 -2.13388 -0.0033536  -0.711345 -2.23392 -0.00336742  -0.759779 -2.33372 -0.00339007  -0.808215 -2.43328 -0.00341558  -0.856571 -2.53255 -0.00346196  -0.904824 -2.63153 -0.00350261  -0.952917 -2.7302 -0.00355875  0 0 0  0.00992736 -0.0251036 -0.00419915  0.030264 -0.061978 -0.00670433  0.0506886 -0.106883 -0.00773585  0.0670387 -0.159528 -0.00796258  0.0779657 -0.219709 -0.00784802  0.0831574 -0.286826 -0.00760114  0.0826802 -0.360077 -0.00731361  0.0767657 -0.4386 -0.0070169  0.0657332 -0.521581 -0.00671363  0.0499598 -0.608287 -0.00641382  0.0298355 -0.698072 -0.00612319  0.00575626 -0.790397 -0.00583506  -0.0218796 -0.884783 -0.00555694  -0.052707 -0.98085 -0.00529468  -0.0863856 -1.07826 -0.00505042  -0.122572 -1.17674 -0.00481296  -0.160963 -1.27604 -0.00459385  -0.201277 -1.37597 -0.00439525  -0.24324 -1.47636 -0.00421453  -0.286642 -1.57705 -0.00405681  -0.331218 -1.67791 -0.00390494  -0.376791 -1.77885 -0.00377512  -0.42316 -1.87976 -0.00366306  -0.470178 -1.98058 -0.00356972  -0.517669 -2.08123 -0.00349939  -0.565511 -2.18168 -0.00344312  -0.613593 -2.28186 -0.00340378  -0.661797 -2.38176 -0.00338876  -0.710052 -2.48135 -0.0033859  -0.758295 -2.58063 -0.00340438  -0.806468 -2.6796 -0.00343442  -0.854527 -2.77829 -0.00346124  0 0 0  0.0176499 -0.0398983 -0.0058285  0.0475583 -0.0807204 -0.00941837  0.0765007 -0.126071 -0.0110259  0.10075 -0.179166 -0.0114416  0.119092 -0.240432 -0.0112642  0.13117 -0.30915 -0.0108297  0.136996 -0.384337 -0.0103068  0.136792 -0.464981 -0.00974774  0.13089 -0.550168 -0.00919163  0.119687 -0.639084 -0.00864506  0.103613 -0.731018 -0.00812554  0.0831102 -0.825396 -0.00762141  0.058615 -0.921708 -0.00714421  0.0305408 -1.01955 -0.00669956  -0.000722647 -1.11858 -0.00628173  -0.0348057 -1.21851 -0.00588977  -0.071377 -1.31909 -0.00553346  -0.110104 -1.42014 -0.00519419  -0.150713 -1.52149 -0.00489259  -0.19294 -1.62299 -0.00461471  -0.236528 -1.72452 -0.00436878  -0.281268 -1.826 -0.00414598  -0.326952 -1.92733 -0.00394738  -0.373389 -2.02846 -0.00377882  -0.420428 -2.12933 -0.00363326  -0.467911 -2.22989 -0.00352621  -0.515709 -2.33014 -0.00343812  -0.56371 -2.43005 -0.00337756  -0.611807 -2.52961 -0.00335467  -0.659939 -2.62884 -0.00335121  -0.708043 -2.72776 -0.00336623  -0.756121 -2.82646 -0.00338912  0 0 0  0.0319477 -0.0661045 -0.00740421  0.0704689 -0.10445 -0.011965  0.106322 -0.148242 -0.01403  0.137634 -0.201591 -0.0145931  0.162917 -0.264065 -0.0143707  0.181524 -0.334503 -0.0137999  0.193362 -0.411677 -0.0130756  0.198598 -0.494441 -0.0123065  0.197582 -0.581778 -0.0115353  0.19074 -0.672798 -0.0107723  0.178536 -0.766757 -0.0100498  0.161453 -0.863043 -0.00935113  0.139983 -0.961127 -0.00868869  0.114562 -1.06058 -0.00806665  0.0856365 -1.16105 -0.00748968  0.0535836 -1.26226 -0.00695097  0.0187924 -1.36397 -0.00644004  -0.0183978 -1.46598 -0.00598013  -0.0576789 -1.56813 -0.0055635  -0.0987632 -1.67029 -0.00517845  -0.141384 -1.77235 -0.00481689  -0.185307 -1.87422 -0.00450563  -0.230313 -1.97583 -0.00423515  -0.276214 -2.07713 -0.00398564  -0.322814 -2.17808 -0.00378823  -0.369972 -2.27866 -0.00361454  -0.417526 -2.37884 -0.00347531  -0.465359 -2.47865 -0.00338197  -0.513368 -2.57807 -0.00332665  -0.561432 -2.67717 -0.00329971  -0.609509 -2.776 -0.00331533  -0.657621 -2.87468 -0.00333583  0 0 0  -0.0392006 -0.0390117 0.0207335  -0.0749109 -0.0606789 0.0325509  -0.112842 -0.0861328 0.0371808  -0.152 -0.119471 0.0369982  -0.191642 -0.160815 0.034272  -0.231504 -0.209276 0.0305067  -0.271631 -0.263924 0.0265723  -0.312171 -0.324012 0.0228914  -0.353307 -0.388909 0.0196096  -0.395196 -0.458122 0.0167491  -0.437938 -0.531224 0.0142586  -0.481567 -0.607835 0.0120802  -0.526081 -0.687621 0.010162  -0.571464 -0.770256 0.00845158  -0.617649 -0.855454 0.00690854  -0.664548 -0.942927 0.00552762  -0.712098 -1.03244 0.00426352  -0.760188 -1.12374 0.00313008  -0.808726 -1.21662 0.00209057  -0.857621 -1.31085 0.00115645  -0.906778 -1.40624 0.000321507  -0.956104 -1.50264 -0.000429392  -1.00552 -1.59985 -0.00111473  -1.05496 -1.69772 -0.00170755  -1.10437 -1.79613 -0.00223112  -1.15366 -1.89492 -0.0026623  -1.20282 -1.99397 -0.0030365  -1.25181 -2.09316 -0.00333357  -1.30061 -2.1924 -0.00356805  -1.34924 -2.29159 -0.00374627  -1.39772 -2.39066 -0.00387049  -1.44614 -2.48954 -0.00397372  0 0 0  -0.0136751 -0.0184709 0.0148237  -0.0407948 -0.0437517 0.0234033  -0.0703212 -0.0751451 0.0268205  -0.100589 -0.114687 0.0267646  -0.132122 -0.161913 0.0248065  -0.165136 -0.215746 0.0220461  -0.199612 -0.275254 0.0191178  -0.235487 -0.33973 0.0163537  -0.272729 -0.408632 0.013878  -0.311346 -0.48152 0.0117067  -0.351309 -0.557986 0.00982285  -0.39259 -0.637671 0.00817335  -0.435127 -0.720249 0.00672686  -0.478832 -0.805403 0.00543058  -0.523608 -0.892859 0.00427973  -0.569346 -0.982348 0.00323701  -0.615928 -1.07363 0.00229669  -0.663233 -1.16646 0.00143635  -0.711146 -1.26066 0.000669599  -0.759552 -1.35602 -3.40939e-05  -0.808329 -1.45236 -0.000667095  -0.857385 -1.54952 -0.00122559  -0.906616 -1.64735 -0.00173557  -0.955941 -1.74569 -0.00218332  -1.00528 -1.84442 -0.00256455  -1.05458 -1.94344 -0.00290263  -1.10377 -2.04261 -0.00318408  -1.15282 -2.14185 -0.00340986  -1.20169 -2.24107 -0.00358701  -1.25038 -2.34018 -0.00372231  -1.2989 -2.43914 -0.00383055  -1.34729 -2.53792 -0.00392365  0 0 0  -0.00628994 -0.00939399 0.00922835  -0.0202191 -0.0354879 0.015092  -0.0384564 -0.0710024 0.0174603  -0.0591317 -0.114691 0.0173975  -0.082067 -0.165907 0.0160201  -0.107457 -0.223708 0.014096  -0.135333 -0.28714 0.0120554  -0.165598 -0.355426 0.0101225  -0.198113 -0.427962 0.00838554  -0.232721 -0.50427 0.00686777  -0.269295 -0.583928 0.00554526  -0.307687 -0.666568 0.00439894  -0.347769 -0.751868 0.00339019  -0.389384 -0.839497 0.00249994  -0.432396 -0.929188 0.00170982  -0.476637 -1.02068 0.000993967  -0.521966 -1.11374 0.000354648  -0.568224 -1.20815 -0.000224352  -0.615273 -1.3037 -0.000748396  -0.662964 -1.40023 -0.00121164  -0.711177 -1.49754 -0.00163734  -0.759779 -1.59553 -0.00201929  -0.808665 -1.69402 -0.00235522  -0.857727 -1.79289 -0.00265503  -0.906882 -1.89203 -0.00291312  -0.956043 -1.99134 -0.00313485  -1.00515 -2.09071 -0.00332391  -1.05416 -2.19007 -0.00347722  -1.10301 -2.28936 -0.00359094  -1.15169 -2.38849 -0.00369012  -1.20018 -2.48744 -0.00377786  -1.24849 -2.58614 -0.00385857  0 0 0  -0.00168715 -0.00794485 0.00417662  -0.00592068 -0.0339989 0.00713587  -0.0133971 -0.0719456 0.00849044  -0.0241865 -0.118765 0.00848544  -0.0382707 -0.17313 0.00768399  -0.0557663 -0.234059 0.00651896  -0.0766818 -0.300672 0.00527799  -0.100889 -0.372168 0.00410056  -0.128172 -0.447898 0.00304961  -0.158302 -0.527304 0.00213349  -0.191031 -0.609928 0.00134647  -0.226128 -0.695355 0.000678658  -0.263392 -0.783239 9.94205e-05  -0.302596 -0.873252 -0.000408292  -0.343544 -0.965113 -0.000849843  -0.386029 -1.05856 -0.00123203  -0.429866 -1.15336 -0.00158417  -0.474856 -1.24931 -0.00188744  -0.520841 -1.34621 -0.00216436  -0.567643 -1.44391 -0.00240564  -0.615114 -1.54223 -0.0026201  -0.663126 -1.64104 -0.00281477  -0.711524 -1.74021 -0.00298429  -0.760202 -1.83964 -0.00313151  -0.809056 -1.93923 -0.00326812  -0.857988 -2.03887 -0.00337029  -0.90693 -2.13848 -0.00347185  -0.9558 -2.23801 -0.00354517  -1.00457 -2.3374 -0.00360858  -1.05318 -2.43659 -0.00365102  -1.10161 -2.53555 -0.00370991  -1.14984 -2.63421 -0.00376713  0 0 0  0.0020273 -0.0102093 -0.000643969  0.00618914 -0.0379719 -0.000466108  0.0085184 -0.0779333 -9.95398e-05  0.00728589 -0.127038 -5.126e-05  0.00194174 -0.183806 -0.000328422  -0.00769126 -0.247246 -0.000793815  -0.021601 -0.31649 -0.00130761  -0.0396138 -0.390729 -0.00178897  -0.0614647 -0.469259 -0.00221038  -0.0868653 -0.551451 -0.00255418  -0.115486 -0.636782 -0.00282681  -0.147043 -0.724799 -0.00303793  -0.181238 -0.815109 -0.00319862  -0.217803 -0.907377 -0.00331545  -0.256476 -1.0013 -0.00340748  -0.296999 -1.09662 -0.00347531  -0.339163 -1.19309 -0.00352263  -0.382727 -1.29052 -0.00356019  -0.4275 -1.38872 -0.00358808  -0.473282 -1.48753 -0.00360429  -0.519902 -1.58682 -0.00361633  -0.567191 -1.68644 -0.00362289  -0.615004 -1.78629 -0.00362408  -0.663197 -1.88627 -0.00362504  -0.711669 -1.98629 -0.00362539  -0.76029 -2.08626 -0.00362885  -0.808997 -2.18612 -0.00362802  -0.857698 -2.28582 -0.00362062  -0.906323 -2.38532 -0.00362575  -0.954834 -2.48457 -0.00362384  -1.00319 -2.58355 -0.00363803  -1.05131 -2.6822 -0.00364625  0 0 0  0.00582924 -0.0152711 -0.00517058  0.0182424 -0.0464106 -0.00758767  0.0299051 -0.0885257 -0.00819528  0.0377565 -0.139426 -0.00816417  0.0407979 -0.198035 -0.00802362  0.0387711 -0.263506 -0.00787985  0.031716 -0.334984 -0.00774705  0.0198312 -0.411621 -0.00759661  0.00341272 -0.492641 -0.00742364  -0.0171852 -0.577352 -0.0072242  -0.0416077 -0.665159 -0.00699937  -0.069495 -0.755565 -0.00675595  -0.100496 -0.848128 -0.00649953  -0.134284 -0.942494 -0.0062412  -0.170555 -1.03834 -0.00597656  -0.209005 -1.1354 -0.0057224  -0.249375 -1.23344 -0.00548089  -0.291408 -1.33226 -0.00524354  -0.334868 -1.43168 -0.005023  -0.379533 -1.53155 -0.00481153  -0.425208 -1.63173 -0.00461185  -0.471703 -1.7321 -0.00443161  -0.518858 -1.83258 -0.00427103  -0.566516 -1.93305 -0.00412333  -0.614547 -2.03347 -0.00398803  -0.66282 -2.13374 -0.00387621  -0.711241 -2.23382 -0.00378001  -0.759723 -2.33367 -0.00370157  -0.808185 -2.43326 -0.0036341  -0.856568 -2.53255 -0.00359178  -0.90484 -2.63154 -0.00356257  -0.95291 -2.73021 -0.00352776  0 0 0  0.0107198 -0.02373 -0.00919497  0.0320327 -0.0593985 -0.0140017  0.0527866 -0.103461 -0.0156432  0.0691856 -0.155648 -0.0157981  0.0801104 -0.215686 -0.0153708  0.0853052 -0.282884 -0.0147367  0.0848255 -0.356354 -0.0140263  0.0788767 -0.43518 -0.0133058  0.0677836 -0.518489 -0.0125785  0.0519098 -0.605521 -0.0118603  0.0316668 -0.695616 -0.011151  0.00745726 -0.788223 -0.010463  -0.0203187 -0.882867 -0.00979269  -0.0513021 -0.979167 -0.0091598  -0.0851233 -1.07679 -0.0085448  -0.121453 -1.17545 -0.00797307  -0.159976 -1.27492 -0.00742853  -0.200421 -1.37501 -0.00692487  -0.242518 -1.47554 -0.00644791  -0.28602 -1.57634 -0.00601518  -0.330703 -1.67732 -0.00560927  -0.376373 -1.77836 -0.00523794  -0.422837 -1.87936 -0.0049057  -0.469924 -1.98027 -0.00460994  -0.517484 -2.08099 -0.00434721  -0.565394 -2.18149 -0.00411916  -0.613519 -2.28174 -0.00392592  -0.661766 -2.38169 -0.00377548  -0.710057 -2.48132 -0.00365376  -0.758316 -2.58062 -0.00356376  -0.806497 -2.67959 -0.00349426  -0.85456 -2.77829 -0.00343966  0 0 0  0.0184916 -0.0379795 -0.0125883  0.0494836 -0.0775853 -0.0196545  0.0787851 -0.122364 -0.022451  0.103015 -0.175237 -0.0229198  0.121268 -0.236478 -0.0223235  0.133274 -0.305327 -0.0212984  0.139052 -0.380737 -0.0201025  0.13879 -0.461671 -0.0188558  0.132817 -0.547162 -0.0176173  0.121521 -0.636376 -0.0164013  0.105339 -0.728606 -0.0152329  0.0847155 -0.82325 -0.0141133  0.0600936 -0.919815 -0.0130373  0.0318781 -1.01788 -0.012035  0.000479817 -1.11711 -0.0110856  -0.0337373 -1.21722 -0.0101918  -0.0704322 -1.31798 -0.00935709  -0.109288 -1.41918 -0.00858366  -0.150016 -1.52066 -0.00786555  -0.192348 -1.62228 -0.00720179  -0.236044 -1.72393 -0.00659823  -0.280876 -1.82551 -0.0060389  -0.326644 -1.92693 -0.00554132  -0.373162 -2.02814 -0.00509357  -0.420265 -2.12908 -0.00469732  -0.467802 -2.22972 -0.00435793  -0.515645 -2.33002 -0.00406647  -0.563697 -2.42998 -0.00383735  -0.611823 -2.52957 -0.00366175  -0.659969 -2.62883 -0.00353014  -0.708079 -2.72776 -0.00343049  -0.756168 -2.82645 -0.00335503  0 0 0  0.032582 -0.0631773 -0.0157156  0.0722491 -0.100493 -0.025059  0.108656 -0.144091 -0.0288429  0.140029 -0.197506 -0.0295402  0.165226 -0.260146 -0.028785  0.183742 -0.330809 -0.0274101  0.195499 -0.408251 -0.0258021  0.200667 -0.491315 -0.0241039  0.199565 -0.578953 -0.0224162  0.192631 -0.670278 -0.0207666  0.180312 -0.764518 -0.0191647  0.163116 -0.861061 -0.0176411  0.141497 -0.959371 -0.016207  0.115948 -1.05904 -0.0148431  0.0868745 -1.15971 -0.0135584  0.0546937 -1.2611 -0.0123684  0.0197699 -1.36297 -0.0112513  -0.0175476 -1.46512 -0.0102171  -0.0569479 -1.5674 -0.00925457  -0.0981386 -1.66967 -0.00837779  -0.140865 -1.77184 -0.00756109  -0.184893 -1.8738 -0.0068301  -0.229982 -1.97549 -0.00616276  -0.275961 -2.07688 -0.00556576  -0.322627 -2.1779 -0.0050348  -0.369845 -2.27853 -0.00458431  -0.417453 -2.37876 -0.00420356  -0.465331 -2.47861 -0.00389743  -0.513375 -2.57806 -0.00366819  -0.561471 -2.67717 -0.00349998  -0.609568 -2.77599 -0.00339556  -0.65767 -2.87465 -0.00330269  0 0 0  -0.037159 -0.0311688 0.0343652  -0.0729121 -0.0474856 0.0517863  -0.109677 -0.0716538 0.0571656  -0.147543 -0.106046 0.0556362  -0.186307 -0.149304 0.0508931  -0.225742 -0.199785 0.0450915  -0.265785 -0.256216 0.0393069  -0.306491 -0.317754 0.0340158  -0.347939 -0.383803 0.0293493  -0.390224 -0.453916 0.0252924  -0.433382 -0.527732 0.0217588  -0.477431 -0.604904 0.0186546  -0.522381 -0.68516 0.0158933  -0.568153 -0.768181 0.0134304  -0.614716 -0.853707 0.0112149  -0.661966 -0.94147 0.00921154  -0.709834 -1.03122 0.00739813  -0.758233 -1.12273 0.00576067  -0.807048 -1.2158 0.00427747  -0.856199 -1.31019 0.00293517  -0.905591 -1.40574 0.00173604  -0.955136 -1.50225 0.00067091  -1.00474 -1.59956 -0.000295997  -1.05436 -1.69753 -0.00111961  -1.10391 -1.796 -0.00184417  -1.15333 -1.89486 -0.00244868  -1.20259 -1.99396 -0.00294769  -1.25166 -2.09319 -0.00334013  -1.30052 -2.19247 -0.00361919  -1.34917 -2.29168 -0.00380707  -1.39768 -2.39075 -0.00391638  -1.44609 -2.48964 -0.00403619  0 0 0  -0.0151007 -0.0126791 0.0246929  -0.0416105 -0.0334197 0.0370101  -0.0687562 -0.0634188 0.0408465  -0.0968255 -0.103501 0.039878  -0.126921 -0.15209 0.0365882  -0.159209 -0.20746 0.0324571  -0.19347 -0.268389 0.0282619  -0.229466 -0.334079 0.0243679  -0.26703 -0.403969 0.0208983  -0.306058 -0.477644 0.0178566  -0.346478 -0.55475 0.0151998  -0.388219 -0.634956 0.0128652  -0.431201 -0.71797 0.0108018  -0.475329 -0.80349 0.0089525  -0.520498 -0.891255 0.00730073  -0.566604 -0.981009 0.0058049  -0.613523 -1.07252 0.00446105  -0.661138 -1.16557 0.00324011  -0.709344 -1.25994 0.00214326  -0.758014 -1.35545 0.00114775  -0.807035 -1.45192 0.000263572  -0.856313 -1.54919 -0.000525236  -0.905741 -1.64711 -0.00122511  -0.955246 -1.74553 -0.0018369  -1.00475 -1.84434 -0.00235891  -1.05418 -1.9434 -0.00280321  -1.10348 -2.04261 -0.00316787  -1.15262 -2.14188 -0.00344455  -1.20158 -2.24113 -0.00364935  -1.2503 -2.34027 -0.00379038  -1.29885 -2.43924 -0.00388741  -1.34725 -2.53802 -0.00399709  0 0 0  -0.00711869 -0.00496934 0.0153511  -0.0207091 -0.0276501 0.0238053  -0.0371892 -0.0615463 0.0264387  -0.0559064 -0.105121 0.0257157  -0.0774168 -0.15708 0.0234681  -0.102017 -0.21596 0.0206708  -0.129604 -0.280511 0.0178216  -0.159923 -0.34982 0.0151601  -0.192696 -0.423236 0.0127708  -0.22767 -0.50028 0.010675  -0.264658 -0.580553 0.00883758  -0.303485 -0.663714 0.00722575  -0.343984 -0.749436 0.00581157  -0.386 -0.837443 0.00455856  -0.429385 -0.927453 0.00343907  -0.473981 -1.01922 0.00243664  -0.519633 -1.11252 0.00154042  -0.566197 -1.20713 0.000732899  -0.613521 -1.30287 6.67572e-06  -0.661473 -1.39955 -0.000642896  -0.70992 -1.49702 -0.00121379  -0.758731 -1.59511 -0.00173473  -0.807813 -1.69371 -0.00217509  -0.857042 -1.79266 -0.00256896  -0.906351 -1.89188 -0.00289571  -0.955653 -1.99125 -0.00317228  -1.00487 -2.09067 -0.00339842  -1.05396 -2.19007 -0.00356627  -1.10289 -2.28938 -0.00369132  -1.15162 -2.38854 -0.00376713  -1.20014 -2.4875 -0.00384676  -1.24845 -2.58621 -0.00392783  0 0 0  -0.00164022 -0.00439799 0.00673485  -0.00531501 -0.0276956 0.0111436  -0.0116304 -0.0639835 0.0126987  -0.0210781 -0.110294 0.0123498  -0.0340865 -0.16495 0.0110716  -0.0509298 -0.226598 0.00945199  -0.0715756 -0.294076 0.00778663  -0.0957961 -0.366441 0.00622797  -0.12328 -0.442961 0.00482762  -0.153708 -0.523067 0.00360191  -0.186797 -0.606286 0.0025456  -0.222273 -0.692236 0.00164127  -0.259904 -0.780562 0.000854492  -0.29947 -0.87096 0.000178695  -0.340758 -0.963149 -0.000419974  -0.383559 -1.05689 -0.000932693  -0.427698 -1.15194 -0.00139487  -0.472973 -1.24812 -0.00179207  -0.51921 -1.34522 -0.00214624  -0.56626 -1.44308 -0.00245082  -0.613954 -1.54155 -0.00272655  -0.662157 -1.6405 -0.00295758  -0.710741 -1.73979 -0.0031538  -0.759577 -1.83932 -0.00331891  -0.808576 -1.93898 -0.00346398  -0.857635 -2.0387 -0.00357139  -0.906679 -2.13837 -0.00365233  -0.955641 -2.23796 -0.0037055  -1.00447 -2.33738 -0.00374424  -1.05314 -2.4366 -0.00376058  -1.10159 -2.53558 -0.00378108  -1.14979 -2.63423 -0.00381732  0 0 0  0.00287895 -0.00728172 -0.00149894  0.00789264 -0.0325499 -0.00100911  0.0109532 -0.0708509 -0.000438809  0.0105028 -0.119253 -0.000426292  0.00581872 -0.176055 -0.000812411  -0.00338513 -0.239968 -0.00138187  -0.0171057 -0.309889 -0.00198901  -0.0351313 -0.384872 -0.00254858  -0.0571468 -0.464114 -0.003034  -0.0827888 -0.546966 -0.00343013  -0.111709 -0.632874 -0.00373578  -0.143579 -0.721404 -0.00395894  -0.178097 -0.812165 -0.00411701  -0.214977 -0.904823 -0.00422955  -0.253955 -0.999086 -0.00430131  -0.294774 -1.0947 -0.00434017  -0.337203 -1.19144 -0.00434875  -0.381025 -1.28911 -0.00434613  -0.426034 -1.38753 -0.00432611  -0.47204 -1.48653 -0.00429058  -0.518858 -1.58598 -0.00424993  -0.566342 -1.68576 -0.00420952  -0.614312 -1.78574 -0.0041492  -0.662665 -1.88583 -0.00410187  -0.711259 -1.98594 -0.00404632  -0.76001 -2.086 -0.00398886  -0.8088 -2.18594 -0.0039252  -0.857578 -2.2857 -0.00386727  -0.906267 -2.38525 -0.00379992  -0.954826 -2.48454 -0.00374925  -1.0032 -2.58354 -0.00369513  -1.05131 -2.68217 -0.00366974  0 0 0  0.00741062 -0.0126576 -0.00930929  0.0209146 -0.0413938 -0.0124086  0.0329811 -0.0818802 -0.0128244  0.0411422 -0.132032 -0.0125735  0.0444676 -0.190556 -0.0122359  0.0426457 -0.256366 -0.011903  0.0356704 -0.328403 -0.0115737  0.0237483 -0.405681 -0.0112271  0.00720465 -0.487346 -0.0108528  -0.0136008 -0.572669 -0.0104502  -0.0382608 -0.661037 -0.0100234  -0.0664191 -0.751942 -0.00957024  -0.0976994 -0.844952 -0.0091182  -0.13176 -0.939716 -0.00865352  -0.168304 -1.03591 -0.00819683  -0.20701 -1.13329 -0.00775313  -0.247628 -1.2316 -0.00732744  -0.289891 -1.33067 -0.00691128  -0.333573 -1.43031 -0.00652289  -0.37844 -1.53038 -0.00614655  -0.424296 -1.63074 -0.00579429  -0.470968 -1.73128 -0.00546348  -0.518279 -1.83189 -0.00516367  -0.56607 -1.93251 -0.00488591  -0.614216 -2.03302 -0.00462508  -0.662603 -2.1334 -0.00440061  -0.711104 -2.23357 -0.00419915  -0.759651 -2.3335 -0.00401533  -0.808176 -2.43314 -0.00386691  -0.856601 -2.53248 -0.00373042  -0.904892 -2.63148 -0.00361395  -0.952956 -2.73015 -0.00351071  0 0 0  0.0129021 -0.0209078 -0.0163728  0.0354801 -0.0542313 -0.0227115  0.0563789 -0.0968654 -0.0242431  0.072714 -0.148423 -0.0240289  0.0836233 -0.20839 -0.0231957  0.0888392 -0.275882 -0.0221249  0.088352 -0.349846 -0.0209663  0.0823405 -0.429243 -0.0197854  0.0711186 -0.513139 -0.018597  0.0550801 -0.600738 -0.0174259  0.0346321 -0.691369 -0.0162833  0.0102003 -0.784455 -0.0151706  -0.0178272 -0.879535 -0.0140952  -0.0490481 -0.976228 -0.0130733  -0.0831031 -1.0742 -0.0120904  -0.119672 -1.17318 -0.011168  -0.158422 -1.27294 -0.0102947  -0.199073 -1.37328 -0.00947165  -0.241366 -1.47403 -0.00870025  -0.285063 -1.57505 -0.00798845  -0.329922 -1.67622 -0.00733042  -0.375743 -1.77743 -0.00671899  -0.422352 -1.87859 -0.00615704  -0.469568 -1.97963 -0.00565326  -0.517239 -2.08048 -0.00520551  -0.565234 -2.1811 -0.00480425  -0.613439 -2.28144 -0.00446165  -0.661758 -2.38147 -0.00416553  -0.710081 -2.48116 -0.00392103  -0.75838 -2.58051 -0.00371945  -0.806584 -2.67952 -0.00354779  -0.854646 -2.7782 -0.00339472  0 0 0  0.0210819 -0.0341251 -0.0221474  0.0534488 -0.0716093 -0.0317051  0.0827066 -0.115469 -0.0347277  0.106644 -0.168022 -0.0348308  0.124697 -0.229334 -0.0336803  0.1366 -0.298502 -0.0320016  0.142305 -0.374383 -0.0301071  0.141963 -0.455843 -0.0281528  0.135873 -0.541884 -0.026197  0.124424 -0.631634 -0.0242923  0.108066 -0.72437 -0.0224512  0.0872374 -0.819474 -0.0206901  0.062392 -0.916457 -0.0190109  0.0339644 -1.01491 -0.0174285  0.00234461 -1.11448 -0.0159352  -0.0320879 -1.21491 -0.0145326  -0.0689943 -1.31594 -0.0132207  -0.108049 -1.4174 -0.0119958  -0.148965 -1.51911 -0.0108598  -0.19148 -1.62095 -0.00980735  -0.235332 -1.72278 -0.00883245  -0.280313 -1.82453 -0.00794113  -0.326221 -1.92612 -0.00713587  -0.372858 -2.02748 -0.00640643  -0.420062 -2.12855 -0.00575626  -0.467697 -2.2293 -0.00518894  -0.515615 -2.32971 -0.0046984  -0.56371 -2.42974 -0.00428653  -0.611888 -2.52941 -0.0039624  -0.660069 -2.62871 -0.00370514  -0.708193 -2.72766 -0.00349247  -0.756271 -2.82636 -0.00332987  0 0 0  0.0349952 -0.0574142 -0.0267383  0.0761998 -0.0932115 -0.040527  0.112738 -0.136635 -0.0449182  0.143834 -0.1902 -0.045148  0.168781 -0.253154 -0.0436387  0.187157 -0.324246 -0.0413752  0.198814 -0.402195 -0.0388076  0.203887 -0.485788 -0.0361453  0.202662 -0.573965 -0.0334867  0.195569 -0.665801 -0.0309001  0.183072 -0.76053 -0.0284091  0.165668 -0.857509 -0.0260317  0.143849 -0.95623 -0.0237826  0.118074 -1.05626 -0.0216572  0.0887816 -1.15726 -0.019671  0.0563831 -1.25894 -0.0178103  0.021256 -1.36108 -0.0160707  -0.0162764 -1.46347 -0.0144525  -0.0558572 -1.56598 -0.0129534  -0.0972283 -1.66846 -0.0115671  -0.140124 -1.7708 -0.0103012  -0.184308 -1.87293 -0.00913286  -0.229549 -1.97479 -0.00807858  -0.275638 -2.0763 -0.00711691  -0.32243 -2.17745 -0.0062809  -0.369736 -2.27819 -0.00553393  -0.417428 -2.37851 -0.00490773  -0.465367 -2.47842 -0.00438881  -0.513447 -2.57793 -0.00397635  -0.561577 -2.67708 -0.00366783  -0.609681 -2.77591 -0.00344431  -0.657787 -2.87456 -0.0032717  0 0 0  -0.0446827 -0.0153706 0.0520185  -0.0736914 -0.0256075 0.0711693  -0.103457 -0.050434 0.0750326  -0.137547 -0.0882082 0.0714632  -0.174906 -0.135216 0.0649139  -0.214294 -0.188883 0.0575716  -0.254922 -0.247752 0.0504981  -0.296483 -0.311073 0.0440578  -0.338859 -0.378414 0.0383563  -0.382042 -0.449495 0.0333322  -0.426042 -0.524058 0.0289006  -0.470876 -0.601851 0.0249723  -0.516539 -0.68261 0.0214415  -0.562966 -0.766066 0.0182786  -0.610131 -0.851964 0.0154165  -0.657932 -0.940053 0.0128206  -0.706311 -1.03008 0.0104717  -0.755175 -1.12184 0.00833797  -0.804429 -1.2151 0.00641561  -0.85396 -1.30967 0.00468922  -0.903716 -1.40537 0.0031302  -0.953582 -1.502 0.00173867  -1.00349 -1.59943 0.00050652  -1.05337 -1.69748 -0.000562787  -1.10314 -1.79602 -0.00146329  -1.15278 -1.89492 -0.00224102  -1.20222 -1.99404 -0.00287962  -1.25143 -2.0933 -0.00334764  -1.30042 -2.19257 -0.0036962  -1.34914 -2.29178 -0.00388801  -1.39762 -2.39083 -0.00397611  -1.44606 -2.48974 -0.00409126  0 0 0  -0.0257463 -0.00131006 0.0372201  -0.0462021 -0.0161146 0.0497869  -0.0654986 -0.045924 0.0524186  -0.0887449 -0.0881555 0.050336  -0.116641 -0.139448 0.0461284  -0.148367 -0.197275 0.0411904  -0.182948 -0.2602 0.0362304  -0.21966 -0.327439 0.0316066  -0.258079 -0.398523 0.0274135  -0.297967 -0.473126 0.023687  -0.339207 -0.550972 0.0203686  -0.381708 -0.631796 0.0174206  -0.425389 -0.715319 0.0147808  -0.470156 -0.801281 0.0124154  -0.515918 -0.889427 0.01028  -0.562564 -0.979506 0.00835299  -0.609989 -1.0713 0.00661254  -0.658073 -1.1646 0.00503433  -0.706696 -1.25918 0.00361991  -0.755742 -1.35487 0.00234091  -0.805124 -1.4515 0.00120163  -0.854723 -1.5489 0.000187397  -0.904451 -1.64693 -0.000703931  -0.954216 -1.74543 -0.00147605  -1.00395 -1.84431 -0.00213575  -1.05359 -1.94343 -0.00269163  -1.10307 -2.04268 -0.00313807  -1.15236 -2.14197 -0.00346744  -1.20142 -2.24122 -0.00370944  -1.25023 -2.34035 -0.00384986  -1.29879 -2.43934 -0.00394833  -1.3472 -2.53815 -0.00407636  0 0 0  -0.0128369 0.00505832 0.0235485  -0.0226124 -0.0135964 0.0315278  -0.0340819 -0.0466754 0.0330095  -0.0492922 -0.0911921 0.0316244  -0.0689191 -0.14487 0.0290215  -0.0928285 -0.20561 0.0259055  -0.120474 -0.271846 0.0226932  -0.151255 -0.342577 0.0196106  -0.18466 -0.417165 0.0167813  -0.22033 -0.495155 0.0142387  -0.25801 -0.57622 0.0119759  -0.297495 -0.660034 0.00995791  -0.338609 -0.746311 0.00816584  -0.381208 -0.834795 0.00657475  -0.425134 -0.925216 0.00514877  -0.470221 -1.01734 0.00387192  -0.516338 -1.11096 0.00271952  -0.563326 -1.20584 0.00169015  -0.61105 -1.30182 0.000771403  -0.659357 -1.39871 -4.76837e-05  -0.708137 -1.49636 -0.000780344  -0.757258 -1.5946 -0.00142395  -0.806614 -1.69333 -0.00197935  -0.856086 -1.79239 -0.00246239  -0.905618 -1.89171 -0.00286949  -0.9551 -1.99115 -0.00319123  -1.0045 -2.09062 -0.00345361  -1.05373 -2.19007 -0.00364602  -1.10276 -2.2894 -0.00377178  -1.15156 -2.38859 -0.00385189  -1.20012 -2.48758 -0.00391078  -1.24843 -2.58632 -0.00402808  0 0 0  -0.00362676 0.00429147 0.0100148  -0.0048641 -0.0152215 0.0140523  -0.00809801 -0.0504461 0.0149527  -0.0152473 -0.0971777 0.0143214  -0.0269164 -0.153006 0.0129896  -0.0431787 -0.216092 0.0113283  -0.063776 -0.285005 0.00956559  -0.0882741 -0.358669 0.00785708  -0.116221 -0.436308 0.00626838  -0.14719 -0.517364 0.00483966  -0.180835 -0.601389 0.00358498  -0.216873 -0.688023 0.00248945  -0.255042 -0.776941 0.00153649  -0.295117 -0.867845 0.000705838  -0.336882 -0.96048 -2.45571e-05  -0.380141 -1.05461 -0.000664353  -0.424686 -1.15001 -0.00121295  -0.470364 -1.24648 -0.00170338  -0.516969 -1.34384 -0.0021317  -0.564353 -1.44194 -0.00250041  -0.612356 -1.54062 -0.00282049  -0.66084 -1.63974 -0.00308788  -0.709674 -1.7392 -0.00331795  -0.758734 -1.83886 -0.00349605  -0.807937 -1.93865 -0.00364435  -0.857167 -2.03845 -0.00375366  -0.906361 -2.1382 -0.00382268  -0.955452 -2.23785 -0.00386679  -1.00438 -2.33733 -0.00386858  -1.05312 -2.43659 -0.00385916  -1.10162 -2.53561 -0.00385857  -1.14982 -2.63431 -0.00388193  0 0 0  0.00393979 0.000328302 -0.00311577  0.0102965 -0.0211895 -0.00269222  0.0149299 -0.0581691 -0.00222576  0.0158028 -0.106684 -0.00215423  0.0119926 -0.164309 -0.00237918  0.00319988 -0.229376 -0.00278533  -0.0104508 -0.300527 -0.00326741  -0.0286621 -0.376676 -0.00375307  -0.0509981 -0.456972 -0.00418043  -0.0770551 -0.540754 -0.00453627  -0.106436 -0.627475 -0.00481427  -0.138773 -0.716702 -0.00501406  -0.173756 -0.808083 -0.00514603  -0.211077 -0.901273 -0.0052135  -0.25048 -0.996009 -0.00525403  -0.291696 -1.09204 -0.00524378  -0.334514 -1.18915 -0.00520408  -0.378693 -1.28714 -0.00514317  -0.424038 -1.38585 -0.00507545  -0.470351 -1.48511 -0.00498807  -0.517451 -1.58479 -0.00489378  -0.565178 -1.68477 -0.00479019  -0.613399 -1.78493 -0.00468206  -0.661957 -1.88518 -0.00457966  -0.710734 -1.98544 -0.00446177  -0.759634 -2.08562 -0.00433588  -0.808565 -2.18565 -0.00422239  -0.857455 -2.28551 -0.00409949  -0.906216 -2.38511 -0.00397825  -0.954864 -2.48447 -0.00386441  -1.00328 -2.58352 -0.00376213  -1.05142 -2.6822 -0.00368953  0 0 0  0.0108648 -0.00592893 -0.0157671  0.0248793 -0.0309502 -0.0184293  0.0373406 -0.0699217 -0.0184134  0.0460579 -0.119919 -0.0178516  0.0498491 -0.179025 -0.0171987  0.0482807 -0.245761 -0.0165466  0.0413586 -0.318854 -0.0158944  0.0293163 -0.397185 -0.0152472  0.0125214 -0.479838 -0.0145907  -0.00860441 -0.566051 -0.0139225  -0.0336449 -0.655222 -0.0132343  -0.062181 -0.746823 -0.0125387  -0.093856 -0.840466 -0.0118519  -0.128311 -0.935775 -0.011163  -0.16523 -1.03247 -0.0104847  -0.204308 -1.13028 -0.00983799  -0.245261 -1.22898 -0.00921905  -0.287848 -1.32839 -0.00860846  -0.331833 -1.42835 -0.00803602  -0.376979 -1.5287 -0.00749707  -0.423094 -1.62931 -0.00698614  -0.470005 -1.73007 -0.00650942  -0.517528 -1.83089 -0.00606477  -0.565515 -1.93168 -0.00565279  -0.613829 -2.03237 -0.00527489  -0.662348 -2.13288 -0.00494015  -0.710971 -2.23317 -0.00461972  -0.759611 -2.3332 -0.00434613  -0.808199 -2.43293 -0.00410187  -0.856678 -2.53233 -0.00387645  -0.905021 -2.63141 -0.00367212  -0.953097 -2.7301 -0.00349092  0 0 0  0.018188 -0.0147187 -0.0275285  0.0406851 -0.0445036 -0.0327984  0.0610787 -0.0855425 -0.0334811  0.0773557 -0.136759 -0.0328035  0.0883889 -0.197111 -0.0315348  0.0937032 -0.26536 -0.0299876  0.0932208 -0.340235 -0.0283176  0.0871108 -0.420571 -0.0266137  0.0757051 -0.505383 -0.024909  0.0594032 -0.593834 -0.0232431  0.0386524 -0.685234 -0.0216113  0.013888 -0.779014 -0.0200392  -0.0144688 -0.874725 -0.0185266  -0.0460261 -0.97197 -0.0170827  -0.0804222 -1.07045 -0.0157217  -0.117306 -1.16987 -0.0144284  -0.156366 -1.27004 -0.0132041  -0.197318 -1.37074 -0.0120625  -0.239892 -1.47182 -0.0109882  -0.283834 -1.57313 -0.00999391  -0.328931 -1.67457 -0.00906372  -0.374979 -1.77603 -0.00821376  -0.421772 -1.87742 -0.00742483  -0.469162 -1.97866 -0.00671756  -0.516988 -2.07969 -0.0060792  -0.565103 -2.18047 -0.00550508  -0.613408 -2.28095 -0.00499964  -0.66179 -2.3811 -0.00457036  -0.710177 -2.48089 -0.00419676  -0.758511 -2.58031 -0.00387979  -0.806743 -2.67937 -0.00359893  -0.854815 -2.77809 -0.00333118  0 0 0  0.0277652 -0.0273202 -0.0376383  0.0597243 -0.0620525 -0.0455481  0.0877374 -0.104488 -0.0475923  0.111095 -0.156684 -0.0471635  0.128983 -0.218319 -0.0454441  0.140854 -0.288146 -0.043097  0.146524 -0.364839 -0.0404739  0.146088 -0.44716 -0.0377724  0.139842 -0.534042 -0.0350589  0.128183 -0.624593 -0.0324128  0.111565 -0.718063 -0.0298647  0.0904584 -0.813839 -0.027426  0.0653313 -0.91143 -0.0251107  0.0366045 -1.01044 -0.0229253  0.00468695 -1.11052 -0.0208707  -0.0300384 -1.21139 -0.0189406  -0.0672214 -1.31284 -0.0171363  -0.10655 -1.41466 -0.0154481  -0.147718 -1.51671 -0.0138853  -0.190468 -1.61886 -0.0124465  -0.234545 -1.72099 -0.0110996  -0.279719 -1.823 -0.0098666  -0.325809 -1.92483 -0.00875044  -0.372602 -2.02639 -0.00773787  -0.419946 -2.12766 -0.00683403  -0.467686 -2.2286 -0.00603294  -0.515686 -2.32916 -0.00533938  -0.563844 -2.42933 -0.00475025  -0.612051 -2.52911 -0.00427222  -0.660235 -2.6285 -0.00387669  -0.70837 -2.7275 -0.00355351  -0.756463 -2.82622 -0.00328422  0 0 0  0.0446008 -0.0475805 -0.0442917  0.0834277 -0.0827739 -0.058441  0.118023 -0.125457 -0.0618187  0.148266 -0.179034 -0.061305  0.172912 -0.242459 -0.0589811  0.191179 -0.314234 -0.0557942  0.202772 -0.392969 -0.0522383  0.207748 -0.477384 -0.0485494  0.206395 -0.566348 -0.0448723  0.199112 -0.658947 -0.0412939  0.186391 -0.754378 -0.0378472  0.168729 -0.852005 -0.0345842  0.146638 -0.951304 -0.0314903  0.120585 -1.05187 -0.0285901  0.0910096 -1.15336 -0.0258616  0.0583344 -1.25549 -0.0233126  0.0229344 -1.35802 -0.020932  -0.0148358 -1.46078 -0.0187242  -0.0546794 -1.56363 -0.0166857  -0.096282 -1.6664 -0.0147816  -0.1394 -1.76903 -0.0130352  -0.183766 -1.87142 -0.0114415  -0.229192 -1.97351 -0.00999796  -0.275439 -2.07525 -0.00867331  -0.322358 -2.1766 -0.00750089  -0.369765 -2.27752 -0.00646663  -0.417539 -2.37801 -0.00560021  -0.465526 -2.47807 -0.00485969  -0.513641 -2.57768 -0.00426292  -0.561778 -2.6769 -0.00381398  -0.609868 -2.77578 -0.00349057  -0.657979 -2.87446 -0.00325346  0 0 0  -0.00500322 -0.000667006 -0.0177212  -0.00540632 -0.00512986 -0.0208642  -0.0215839 0.000293024 -0.0324169  -0.0163917 0.00334494 -0.0271177  -0.0188971 -0.00561991 -0.0336247  -0.00543179 -0.00751637 -0.0167838  -0.0216001 -0.0198114 -0.0317518  -0.0184939 -0.0200751 -0.0198279  0 0 0  -0.018147 -0.0178816 -0.024296  0 0 0  0 0 0  -0.00404982 -0.00283112 -0.0137197  0 0 0  -0.0398663 -0.0219028 -0.046888  -0.0295507 -0.00740324 -0.0355135  -0.0260129 -0.0129445 -0.0402915  -0.0387576 -0.00301318 -0.0472139  -0.0315346 -0.013775 -0.0418452  -0.0426768 -0.0194705 -0.0503585  -0.0499931 -0.00914469 -0.054866  -0.0373781 -0.00505294 -0.0460817  -0.0435737 -0.0242959 -0.0470105  -0.0383108 -0.0278647 -0.041633  -0.054983 -0.0385575 -0.0471422  -0.0542354 -0.0358155 -0.0486976  -0.0572529 -0.0258324 -0.0587057  -0.0286537 -0.0208181 -0.0350023  -0.0740422 -0.034517 -0.0655635  -0.0639103 -0.0136531 -0.0650823  -0.0571084 -0.0287413 -0.055784  -0.0613906 -0.0172406 -0.0626816  -0.05564 -0.0380116 -0.0488079  -0.0718912 -0.0408987 -0.0586186  -0.0722405 -0.0303389 -0.0634609  -0.0556558 -0.0285331 -0.0529802  -0.0677544 -0.0545833 -0.0496086  -0.0716788 -0.0506585 -0.0506301  -0.0880336 -0.0658069 -0.0512628  -0.0915203 -0.0560787 -0.059145  -0.0913832 -0.0452562 -0.068893  -0.0560564 -0.0460868 -0.0424104  -0.108321 -0.0596742 -0.0693598  -0.0915381 -0.0331406 -0.075171  -0.0863958 -0.0565847 -0.0591666  -0.084721 -0.0459877 -0.0657722  -0.0805207 -0.0738095 -0.0488259  -0.101756 -0.0746702 -0.0584655  -0.0979025 -0.0653517 -0.0636286  -0.0769459 -0.0651019 -0.0531973  -0.0939202 -0.0956427 -0.0477306  -0.104623 -0.0833559 -0.0512351  -0.121372 -0.103432 -0.0497771  -0.129413 -0.086237 -0.059725  -0.126639 -0.0766748 -0.068597  -0.083485 -0.081407 -0.0430393  -0.14457 -0.0961793 -0.0663331  -0.122612 -0.0663663 -0.0750298  -0.117542 -0.0956298 -0.0568131  -0.112666 -0.0868798 -0.0629574  -0.108126 -0.119476 -0.0458236  -0.134083 -0.118434 -0.0545828  -0.128207 -0.110849 -0.0598187  -0.102733 -0.112138 -0.0502302  -0.123049 -0.145347 -0.043853  -0.138456 -0.125594 -0.0480716  -0.15589 -0.149692 -0.0457793  -0.167824 -0.125738 -0.055876  -0.163677 -0.117901 -0.0637747  -0.112385 -0.126064 -0.0405439  -0.1825 -0.141433 -0.060517  -0.157633 -0.109779 -0.0700987  -0.151139 -0.143357 -0.0520275  -0.144925 -0.136497 -0.057665  -0.138713 -0.172775 -0.041561  -0.168761 -0.169761 -0.0492847  -0.162243 -0.163801 -0.0543901  -0.132672 -0.166831 -0.0458508  -0.154974 -0.201752 -0.0392986  -0.173649 -0.175512 -0.0434293  -0.191766 -0.202835 -0.0409467  -0.206783 -0.172978 -0.0503522  -0.202116 -0.166734 -0.0573509  -0.143448 -0.178269 -0.0367414  -0.221617 -0.193484 -0.0539357  -0.195458 -0.160536 -0.0633838  -0.186811 -0.197748 -0.0465006  -0.180347 -0.192444 -0.0516582  -0.171875 -0.232038 -0.0370155  -0.205307 -0.227019 -0.0437613  -0.198899 -0.222359 -0.0486022  -0.165853 -0.22728 -0.0410765  -0.189234 -0.263555 -0.0347841  -0.210184 -0.231626 -0.0385029  -0.228929 -0.261645 -0.0361382  -0.246317 -0.226621 -0.0445641  -0.241621 -0.22168 -0.0507628  -0.176619 -0.236561 -0.0326342  -0.261657 -0.251095 -0.0475707  -0.235104 -0.216944 -0.056405  -0.224138 -0.257542 -0.0410857  -0.217958 -0.253402 -0.045783  -0.20714 -0.296234 -0.0326748  -0.243347 -0.289232 -0.0385706  -0.237382 -0.285533 -0.0430619  -0.20147 -0.292397 -0.0364448  -0.225417 -0.329944 -0.0306243  -0.247969 -0.292956 -0.0338606  -0.267302 -0.325325 -0.0317367  -0.286505 -0.285712 -0.0391571  -0.28203 -0.281763 -0.0446548  -0.211655 -0.299956 -0.0287264  -0.302532 -0.313493 -0.041821  -0.275989 -0.278065 -0.0498538  -0.262837 -0.321977 -0.0361524  -0.257164 -0.318676 -0.0404096  -0.244177 -0.364716 -0.0287504  -0.282676 -0.355801 -0.0339348  -0.277266 -0.352813 -0.0380276  -0.238989 -0.36158 -0.0321927  -0.263265 -0.400399 -0.0269271  -0.286942 -0.358858 -0.0297248  -0.306852 -0.393331 -0.0278596  -0.32745 -0.349573 -0.0343609  -0.323304 -0.346356 -0.0392507  -0.248359 -0.367805 -0.0252129  -0.344255 -0.380174 -0.036778  -0.317832 -0.343406 -0.0439749  -0.302773 -0.390563 -0.0318024  -0.297655 -0.387877 -0.0356377  -0.282793 -0.437053 -0.0252903  -0.323204 -0.426326 -0.0298699  -0.318346 -0.423861 -0.033561  -0.278109 -0.434454 -0.0283903  -0.30262 -0.474524 -0.0236906  -0.327083 -0.428861 -0.0261205  -0.347567 -0.465245 -0.0244994  -0.369229 -0.417697 -0.0301934  -0.365457 -0.415045 -0.0345411  -0.286603 -0.439637 -0.0221387  -0.386844 -0.450772 -0.0323891  -0.360549 -0.412639 -0.0387979  -0.343873 -0.462928 -0.0280013  -0.339297 -0.460703 -0.0314314  -0.322848 -0.512884 -0.0222691  -0.364868 -0.500458 -0.0263238  -0.360537 -0.498407 -0.0296175  -0.318653 -0.510709 -0.02503  -0.343365 -0.551994 -0.0208699  -0.368366 -0.502587 -0.022997  -0.389417 -0.540714 -0.0215864  -0.411895 -0.489697 -0.0265903  -0.408489 -0.487475 -0.0304475  -0.326298 -0.515068 -0.0194808  -0.43032 -0.52496 -0.028559  -0.404108 -0.485487 -0.0342447  -0.386092 -0.538756 -0.0246841  -0.382016 -0.5369 -0.0277329  -0.364259 -0.591909 -0.0196307  -0.407635 -0.577906 -0.0232228  -0.403774 -0.576185 -0.0261409  -0.360507 -0.590084 -0.0220742  -0.385422 -0.632506 -0.0183969  -0.410776 -0.579706 -0.0202843  -0.432378 -0.619412 -0.0190476  -0.455476 -0.565232 -0.0234568  -0.452411 -0.563352 -0.0268598  -0.367355 -0.593763 -0.0171708  -0.474687 -0.602452 -0.0252052  -0.448513 -0.561693 -0.0302313  -0.4294 -0.617753 -0.021777  -0.425769 -0.616195 -0.0244746  -0.406938 -0.673832 -0.0173094  -0.451464 -0.658376 -0.0204943  -0.448026 -0.656929 -0.0230674  -0.403592 -0.672289 -0.0194632  -0.428702 -0.715767 -0.0162264  -0.454276 -0.659902 -0.0179151  -0.476394 -0.701039 -0.0168238  -0.49996 -0.643982 -0.0207155  -0.497225 -0.642383 -0.0237061  -0.409708 -0.675411 -0.0151587  -0.519927 -0.682956 -0.0222369  -0.493749 -0.640998 -0.0266765  -0.473735 -0.69963 -0.0192152  -0.470515 -0.698325 -0.0215843  -0.450791 -0.758363 -0.0152717  -0.496291 -0.741586 -0.0180791  -0.493247 -0.740379 -0.0203332  -0.447812 -0.757068 -0.0171417  -0.473114 -0.80151 -0.0143089  -0.498798 -0.742883 -0.0158309  -0.521403 -0.785315 -0.0148606  -0.54531 -0.72565 -0.0182989  -0.542881 -0.72429 -0.0209119  -0.45326 -0.759711 -0.0133956  -0.565984 -0.766202 -0.0196077  -0.5398 -0.723143 -0.0235073  -0.519044 -0.784117 -0.0169451  -0.516182 -0.783027 -0.0190005  -0.495718 -0.845241 -0.0134562  -0.542042 -0.827273 -0.0159321  -0.539343 -0.82626 -0.0178843  -0.49308 -0.84415 -0.0150814  -0.518542 -0.889461 -0.0126052  -0.544268 -0.828369 -0.0139813  -0.567317 -0.871955 -0.0131209  -0.591475 -0.809957 -0.016151  -0.589319 -0.808796 -0.0184249  -0.497915 -0.84639 -0.0118411  -0.612798 -0.851918 -0.0172488  -0.586594 -0.807852 -0.0206856  -0.565225 -0.87094 -0.0149207  -0.562703 -0.870033 -0.016702  -0.541623 -0.934201 -0.0118465  -0.588637 -0.915167 -0.0140197  -0.586256 -0.914329 -0.0157009  -0.539297 -0.933294 -0.0132446  -0.564892 -0.979377 -0.0110897  -0.590595 -0.916094 -0.0123407  -0.614041 -0.96071 -0.0115734  -0.63839 -0.896628 -0.014239  -0.636486 -0.895646 -0.0161916  -0.543559 -0.935178 -0.010464  -0.660298 -0.939841 -0.0151478  -0.634086 -0.894863 -0.0181487  -0.612201 -0.959847 -0.0131144  -0.609987 -0.959104 -0.0146449  -0.588385 -1.02501 -0.0104213  -0.635967 -1.00503 -0.0123128  -0.633888 -1.00434 -0.0137533  -0.58635 -1.02426 -0.0116125  -0.612042 -1.07102 -0.009749  -0.637683 -1.00581 -0.0108792  -0.661475 -1.05133 -0.0101992  -0.685953 -0.985414 -0.0125287  -0.6843 -0.984579 -0.0141997  -0.590084 -1.02584 -0.00924528  -0.708394 -1.02973 -0.0132621  -0.682194 -0.983949 -0.0158643  -0.659872 -1.05061 -0.0115083  -0.657938 -1.05001 -0.0128017  -0.635888 -1.11744 -0.00915432  -0.683942 -1.09663 -0.0107901  -0.682127 -1.09607 -0.0120062  -0.63411 -1.11682 -0.0101555  -0.659872 -1.16418 -0.00855941  -0.68544 -1.09728 -0.00958288  -0.709523 -1.1436 -0.00897348  -0.734094 -1.07608 -0.0110057  -0.732647 -1.07537 -0.0124153  -0.637365 -1.11814 -0.0081678  -0.756993 -1.12137 -0.0115794  -0.730821 -1.07487 -0.0138366  -0.708126 -1.143 -0.0100736  -0.70645 -1.14251 -0.0111574  -0.684011 -1.21128 -0.00803179  -0.732454 -1.18975 -0.00943738  -0.730888 -1.1893 -0.0104522  -0.682476 -1.21078 -0.00886452  -0.708264 -1.25866 -0.00751084  -0.733743 -1.19029 -0.00843054  -0.758064 -1.2373 -0.00789785  -0.782704 -1.16839 -0.00965071  -0.781466 -1.1678 -0.0108292  -0.685289 -1.21187 -0.00721747  -0.806006 -1.21453 -0.0100874  -0.779889 -1.1674 -0.0120128  -0.756867 -1.2368 -0.00880152  -0.755432 -1.23642 -0.00969481  -0.732641 -1.30633 -0.00704771  -0.781392 -1.28419 -0.00824106  -0.780053 -1.28382 -0.00907391  -0.731328 -1.30593 -0.00773382  -0.757104 -1.35425 -0.00658911  -0.782499 -1.28463 -0.00741917  -0.807003 -1.33224 -0.00694221  -0.831704 -1.26213 -0.00846028  -0.830642 -1.26164 -0.00941819  -0.733732 -1.30683 -0.0063839  -0.85533 -1.30902 -0.00876379  -0.829288 -1.26134 -0.0103939  -0.805984 -1.33183 -0.00768471  -0.804758 -1.33153 -0.00840706  -0.781665 -1.40242 -0.00619107  -0.83066 -1.37975 -0.00719798  -0.829525 -1.37947 -0.00787318  -0.780547 -1.4021 -0.00673711  -0.806291 -1.45079 -0.00580317  -0.831598 -1.38012 -0.00653064  -0.856238 -1.42823 -0.00612432  -0.880978 -1.35712 -0.00741023  -0.880082 -1.3567 -0.00818294  -0.782593 -1.40284 -0.0056622  -0.904878 -1.40463 -0.00761074  -0.878942 -1.35648 -0.00897789  -0.855386 -1.42789 -0.006715  -0.854352 -1.42766 -0.00728726  -0.830985 -1.49937 -0.00545728  -0.880165 -1.47627 -0.0062874  -0.879218 -1.47605 -0.0068143  -0.830049 -1.49912 -0.00588548  -0.855712 -1.54812 -0.00512034  -0.880937 -1.47657 -0.00577205  -0.905672 -1.52511 -0.00541538  -0.930448 -1.45316 -0.00648904  -0.929713 -1.45282 -0.00710016  -0.831752 -1.49971 -0.00504982  -0.954569 -1.5012 -0.00660515  -0.928766 -1.45266 -0.00773001  -0.904971 -1.52482 -0.00586879  -0.904116 -1.52465 -0.00631028  -0.880486 -1.59703 -0.00483197  -0.929801 -1.57357 -0.00551504  -0.929024 -1.57341 -0.0059225  -0.879717 -1.59685 -0.00515914  -0.905279 -1.64608 -0.00455314  -0.930434 -1.57382 -0.00511873  -0.95521 -1.6227 -0.00482255  -0.980024 -1.55008 -0.00570238  -0.979428 -1.5498 -0.00616848  -0.881112 -1.59732 -0.00452888  -1.0043 -1.59856 -0.00574249  -0.978647 -1.54969 -0.00665075  -0.954645 -1.62247 -0.00515783  -0.95396 -1.62235 -0.00548315  -0.930089 -1.69526 -0.00431734  -0.979502 -1.67153 -0.00486004  -0.978882 -1.67141 -0.00515628  -0.929481 -1.69512 -0.00455672  -0.954904 -1.74454 -0.00409395  -0.980002 -1.67172 -0.00457346  -1.0048 -1.72088 -0.00432771  -1.02964 -1.64773 -0.00504041  -1.02917 -1.6475 -0.00537533  -0.930583 -1.6955 -0.00410253  -1.05404 -1.69657 -0.00502145  -1.02854 -1.64745 -0.00572801  -1.00435 -1.72069 -0.00456655  -1.0038 -1.72061 -0.00478739  -0.979709 -1.79392 -0.00390619  -1.02918 -1.76997 -0.0043245  -1.0287 -1.76989 -0.00453186  -0.97923 -1.79382 -0.00406361  -1.0045 -1.84337 -0.00373495  -1.02957 -1.77013 -0.0041346  -1.05433 -1.8195 -0.00393951  -1.07923 -1.74596 -0.00449789  -1.07886 -1.74578 -0.0047192  -0.980098 -1.79412 -0.00377005  -1.10368 -1.79507 -0.0044409  -1.07838 -1.74574 -0.00496668  -1.05399 -1.81934 -0.0040974  -1.05359 -1.81929 -0.00423843  -1.02928 -1.89289 -0.00359803  -1.07877 -1.8688 -0.00391269  -1.07842 -1.86873 -0.00404346  -1.02892 -1.89282 -0.00369734  -1.05403 -1.94245 -0.00347048  -1.07907 -1.86892 -0.00379801  -1.10378 -1.91843 -0.0036577  -1.12871 -1.84463 -0.00407422  -1.12845 -1.84447 -0.00420952  -1.02956 -1.89306 -0.00352341  -1.15319 -1.89394 -0.00399268  -1.12808 -1.84446 -0.00436509  -1.10353 -1.9183 -0.00374335  -1.10323 -1.91827 -0.00381088  -1.07874 -1.99205 -0.00338477  -1.12824 -1.96786 -0.00361311  -1.12799 -1.96782 -0.00368351  -1.07847 -1.992 -0.003434  -1.10341 -2.04168 -0.00331306  -1.12844 -1.96797 -0.00356287  -1.15307 -2.01757 -0.00346744  -1.17806 -1.9436 -0.00376463  -1.17787 -1.94347 -0.00382364  -1.07893 -1.9922 -0.0033586  -1.20253 -1.99305 -0.00366843  -1.17761 -1.94348 -0.00390559  -1.15291 -2.01745 -0.00350171  -1.15271 -2.01743 -0.00351983  -1.12803 -2.09132 -0.00327605  -1.17752 -2.06708 -0.00342679  -1.17737 -2.06703 -0.00344729  -1.12786 -2.09127 -0.00328708  -1.15261 -2.14095 -0.00324672  -1.17765 -2.06717 -0.00342208  -1.20219 -2.11681 -0.00337774  -1.22722 -2.04277 -0.00356346  -1.22711 -2.04267 -0.00356531  -1.12816 -2.09145 -0.00328213  -1.25167 -2.09229 -0.00348634  -1.22694 -2.04268 -0.00358462  -1.20209 -2.1167 -0.00337279  -1.20198 -2.11668 -0.00335133  -1.17713 -2.19058 -0.00324601  -1.22659 -2.16633 -0.0033502  -1.22652 -2.16628 -0.00333995  -1.17703 -2.19054 -0.00323635  -1.2016 -2.24019 -0.00327277  -1.22666 -2.16641 -0.0033769  -1.2511 -2.21604 -0.00338495  -1.27617 -2.14204 -0.00346893  -1.27612 -2.14194 -0.00343472  -1.1772 -2.19071 -0.00328147  -1.30056 -2.19157 -0.00342339  -1.27604 -2.14194 -0.00342643  -1.25105 -2.21594 -0.00335699  -1.25101 -2.21591 -0.00330508  -1.226 -2.28977 -0.00331217  -1.27544 -2.26553 -0.00338334  -1.27542 -2.26546 -0.00335586  -1.22597 -2.28972 -0.00329649  -1.25036 -2.33931 -0.00337511  -1.27546 -2.26561 -0.00342196  -1.2998 -2.31519 -0.00345773  -1.32491 -2.24129 -0.00349206  -1.3249 -2.24119 -0.00343233  -1.22603 -2.28989 -0.00335485  -1.34923 -2.29077 -0.00347394  -1.32487 -2.24117 -0.00339538  -1.29978 -2.31508 -0.00342512  -1.29978 -2.31504 -0.00337613  -1.27465 -2.38882 -0.00343871  -1.32406 -2.3646 -0.003488  -1.32406 -2.36453 -0.00345892  -1.27464 -2.38876 -0.003416  -1.2989 -2.43827 -0.00351685  -1.32407 -2.36469 -0.00352794  -1.34831 -2.41418 -0.00359488  -1.37347 -2.34042 -0.0035851  -1.37347 -2.34032 -0.00353038  -1.27465 -2.38894 -0.0034762  -1.39771 -2.38983 -0.00360465  -1.37346 -2.34029 -0.00349587  -1.3483 -2.41407 -0.00356823  -1.34831 -2.41402 -0.0035159  -1.32309 -2.48768 -0.00358605  -1.3725 -2.4635 -0.00363618  -1.37251 -2.46342 -0.00361401  -1.32309 -2.48763 -0.00356209  -1.34726 -2.53703 -0.00365591  -1.37251 -2.4636 -0.00367445  -1.3967 -2.51299 -0.00374067  -1.4219 -2.43939 -0.00373054  -1.42189 -2.43929 -0.00368679  -1.32309 -2.4878 -0.00362366  -1.44607 -2.48871 -0.00376302  -1.42188 -2.43923 -0.00366247  -1.39668 -2.51288 -0.00371951  -1.39669 -2.51282 -0.00368327  0 0 0  -0.00231816 0.00278619 -0.0113049  -0.00261422 0.00186855 -0.0135694  -0.011848 0.00552934 -0.0214919  -0.0082959 0.00612637 -0.0169874  -0.0088961 -2.51532e-05 -0.0214576  -0.00242703 -0.000829399 -0.0109667  -0.00937749 -0.00651075 -0.0222759  0 0 0  0 0 0  -0.00194461 0.000381082 -0.00865483  0 0 0  -0.0130355 -0.00155219 -0.027626  -0.0207979 0.00491223 -0.032201  -0.0148751 -0.00838818 -0.0267103  -0.0224551 -0.0101777 -0.0342771  -0.0268674 -0.00245638 -0.0371169  -0.017933 -0.00134304 -0.0294351  -0.0216085 -0.0205111 -0.0301339  -0.0194694 -0.0161643 -0.0287672  -0.0300992 -0.0286323 -0.0325373  -0.0134035 -0.0136662 -0.0223868  -0.0315384 -0.0216999 -0.0384998  -0.0338373 -0.0128322 -0.0424314  -0.0285265 -0.0357029 -0.031448  -0.0411353 -0.0363201 -0.0401211  -0.0408736 -0.0275619 -0.0429028  -0.0278237 -0.0275143 -0.0337757  -0.0360794 -0.0539007 -0.0318884  -0.0413414 -0.0435094 -0.0351152  -0.0524652 -0.0611094 -0.0353739  -0.0291021 -0.0422925 -0.0276047  -0.0508313 -0.0538152 -0.0406274  -0.0490269 -0.044879 -0.0444722  -0.0443274 -0.0746997 -0.0315109  -0.0614305 -0.0738776 -0.040095  -0.0581149 -0.0655607 -0.0432148  -0.0411539 -0.0667432 -0.0339412  -0.0533214 -0.0979238 -0.0307603  -0.0640666 -0.0809515 -0.0355633  -0.0759693 -0.10322 -0.0344712  -0.0467726 -0.0813942 -0.0280761  -0.0725442 -0.0964717 -0.0391052  -0.0683968 -0.0885068 -0.0428611  -0.0632444 -0.123306 -0.0296422  -0.0846505 -0.121096 -0.0376337  -0.0797293 -0.113851 -0.0409414  -0.0587531 -0.116199 -0.0321703  -0.0740105 -0.150643 -0.028375  -0.0885854 -0.127427 -0.0334567  -0.101754 -0.153628 -0.0318366  -0.0667927 -0.129462 -0.0264859  -0.097483 -0.147766 -0.0359858  -0.0922502 -0.141078 -0.0396035  -0.0857285 -0.179685 -0.0269694  -0.111197 -0.176015 -0.0341688  -0.105661 -0.169975 -0.0375021  -0.0806929 -0.173614 -0.0294998  -0.098272 -0.210313 -0.0255058  -0.115657 -0.181425 -0.0303125  -0.130176 -0.210829 -0.0285708  -0.0897734 -0.185074 -0.0240397  -0.125645 -0.205881 -0.032304  -0.120111 -0.200398 -0.0357174  -0.111676 -0.242294 -0.024055  -0.140813 -0.237035 -0.0304576  -0.135251 -0.232074 -0.0336798  -0.106586 -0.237208 -0.0265025  -0.125828 -0.275582 -0.0225832  -0.145336 -0.241563 -0.0269271  -0.161097 -0.273621 -0.0252546  -0.115829 -0.246896 -0.0213627  -0.156641 -0.269487 -0.028605  -0.151255 -0.265015 -0.0317689  -0.140732 -0.309998 -0.0212173  -0.173058 -0.303054 -0.026886  -0.167783 -0.298976 -0.0299081  -0.135851 -0.305748 -0.0235106  -0.156287 -0.345511 -0.0198382  -0.177398 -0.306828 -0.0236919  -0.194256 -0.341164 -0.0221726  -0.144758 -0.313894 -0.0187715  -0.190058 -0.337706 -0.0251752  -0.185022 -0.334024 -0.0280606  -0.172499 -0.382008 -0.0186134  -0.207557 -0.373352 -0.0236461  -0.202688 -0.369974 -0.0264127  -0.167963 -0.378446 -0.0207133  -0.189283 -0.419459 -0.0173759  -0.211592 -0.376517 -0.020777  -0.229443 -0.412858 -0.0194385  -0.176281 -0.385307 -0.0164225  -0.225572 -0.409948 -0.0221102  -0.220971 -0.406886 -0.0247158  -0.206654 -0.457782 -0.0163032  -0.244029 -0.447448 -0.020772  -0.239615 -0.444616 -0.0232703  -0.2025 -0.454772 -0.0181885  -0.224533 -0.496943 -0.0152145  -0.247721 -0.450112 -0.0182164  -0.26648 -0.488248 -0.017054  -0.21014 -0.460587 -0.014358  -0.262951 -0.485783 -0.0194209  -0.258785 -0.48321 -0.0217412  -0.242935 -0.536894 -0.014283  -0.282282 -0.524946 -0.0182641  -0.278303 -0.522559 -0.0204885  -0.239169 -0.534344 -0.0159556  -0.261801 -0.577593 -0.0133289  -0.28563 -0.527208 -0.0160055  -0.305217 -0.566959 -0.0149922  -0.246115 -0.539292 -0.0125756  -0.302034 -0.564864 -0.0170768  -0.298292 -0.562687 -0.0191283  -0.28114 -0.618996 -0.0125247  -0.322159 -0.60553 -0.0160754  -0.318594 -0.603507 -0.0180359  -0.277748 -0.616819 -0.0139936  -0.300903 -0.661063 -0.0116999  -0.325178 -0.607456 -0.0140913  -0.345542 -0.648662 -0.0132084  -0.284013 -0.62105 -0.0110372  -0.342673 -0.646873 -0.015034  -0.339321 -0.645026 -0.0168332  -0.321097 -0.703767 -0.0110047  -0.363537 -0.688891 -0.0141572  -0.360353 -0.687168 -0.0158818  -0.318049 -0.701907 -0.0122802  -0.341671 -0.74706 -0.0102834  -0.366248 -0.690535 -0.0124298  -0.38732 -0.733044 -0.0116555  -0.323678 -0.705534 -0.00971782  -0.384755 -0.731512 -0.0132428  -0.381766 -0.72994 -0.0148071  -0.362633 -0.790917 -0.00967711  -0.40629 -0.774741 -0.0124766  -0.403446 -0.773271 -0.0139664  -0.359914 -0.789321 -0.0107774  -0.383941 -0.835291 -0.00904804  -0.408708 -0.776146 -0.0109813  -0.430434 -0.819819 -0.0102984  -0.364945 -0.792434 -0.00857639  -0.428147 -0.818504 -0.0116687  -0.425484 -0.817167 -0.013018  -0.405599 -0.880164 -0.00852078  -0.45029 -0.862806 -0.010995  -0.447765 -0.861561 -0.0122777  -0.403185 -0.878807 -0.0094645  -0.427565 -0.925494 -0.00796825  -0.45244 -0.864012 -0.00971025  -0.474745 -0.90871 -0.00910676  -0.407659 -0.881479 -0.00758421  -0.472718 -0.907583 -0.0102794  -0.470362 -0.906456 -0.0114397  -0.449845 -0.971265 -0.00751877  -0.495401 -0.95284 -0.00969034  -0.493176 -0.951789 -0.0107909  -0.447702 -0.970113 -0.00831026  -0.472387 -1.01743 -0.00703537  -0.497301 -0.953866 -0.00859666  -0.520128 -0.999474 -0.0080657  -0.451659 -0.972393 -0.00672865  -0.518344 -0.998515 -0.0090614  -0.51627 -0.997563 -0.0100402  -0.4952 -1.06399 -0.00663257  -0.541502 -1.0446 -0.00853908  -0.539546 -1.04372 -0.00946498  -0.493316 -1.06301 -0.0072974  -0.518252 -1.11088 -0.00621086  -0.543173 -1.04548 -0.00761247  -0.566449 -1.09188 -0.0071438  -0.496801 -1.06495 -0.00598139  -0.564887 -1.09106 -0.00797838  -0.563071 -1.09027 -0.00879908  -0.54153 -1.1581 -0.00586802  -0.588453 -1.13788 -0.00752205  -0.586748 -1.13713 -0.00829941  -0.539886 -1.15727 -0.00641495  -0.565007 -1.20562 -0.00550151  -0.589908 -1.13862 -0.00675297  -0.613568 -1.1857 -0.00634319  -0.542922 -1.15893 -0.00533229  -0.61221 -1.18501 -0.00703579  -0.610638 -1.18434 -0.00771171  -0.588679 -1.25341 -0.00520682  -0.636119 -1.23245 -0.00663412  -0.634646 -1.23184 -0.00726962  -0.587258 -1.25272 -0.00564408  -0.61251 -1.30146 -0.00489002  -0.63738 -1.23308 -0.0060041  -0.661355 -1.28075 -0.00564265  -0.589882 -1.25413 -0.00477594  -0.660188 -1.28017 -0.00620455  -0.658832 -1.27962 -0.00674975  -0.636503 -1.34975 -0.00463694  -0.684375 -1.32814 -0.00585562  -0.683113 -1.32763 -0.00637466  -0.635285 -1.34917 -0.00499111  -0.66063 -1.39824 -0.00437605  -0.685452 -1.32867 -0.0053488  -0.709692 -1.37684 -0.00503886  -0.637535 -1.35036 -0.00430441  -0.708693 -1.37634 -0.00548732  -0.707541 -1.37589 -0.00592244  -0.684873 -1.44692 -0.00416011  -0.733098 -1.42477 -0.00519043  -0.732031 -1.42434 -0.0056026  -0.68384 -1.44645 -0.00442803  -0.709225 -1.49578 -0.00394148  -0.734014 -1.42521 -0.00479233  -0.758446 -1.4738 -0.00453061  -0.685744 -1.44744 -0.00390822  -0.757607 -1.47338 -0.00487942  -0.756638 -1.47302 -0.00521034  -0.733664 -1.54479 -0.00376713  -0.782178 -1.52218 -0.00463009  -0.781279 -1.52183 -0.00493926  -0.732803 -1.5444 -0.00396609  -0.75818 -1.59394 -0.00358766  -0.782936 -1.52254 -0.00432372  -0.807514 -1.57146 -0.00410169  -0.73439 -1.54523 -0.00358951  -0.80682 -1.57112 -0.00435764  -0.806018 -1.57083 -0.00459695  -0.782754 -1.64321 -0.00344753  -0.831493 -1.62021 -0.00415349  -0.830771 -1.61993 -0.00438815  -0.782052 -1.6429 -0.00358629  -0.807382 -1.69259 -0.00330621  -0.832117 -1.62051 -0.00393653  -0.856781 -1.66971 -0.00375402  -0.783345 -1.64359 -0.00333142  -0.85622 -1.66942 -0.00393909  -0.855575 -1.66919 -0.00410622  -0.83204 -1.74206 -0.00320065  -0.880955 -1.71874 -0.00377375  -0.880377 -1.71852 -0.00393504  -0.831483 -1.7418 -0.00329506  -0.856726 -1.79159 -0.00310504  -0.881452 -1.71899 -0.00362629  -0.906168 -1.76839 -0.00348431  -0.832512 -1.74237 -0.00313681  -0.905727 -1.76814 -0.0036087  -0.905218 -1.76795 -0.00371134  -0.881425 -1.84119 -0.00303268  -0.930482 -1.81763 -0.00348914  -0.930023 -1.81745 -0.00358665  -0.88098 -1.84098 -0.0030781  -0.906135 -1.89084 -0.00297236  -0.930866 -1.81784 -0.00339437  -0.955587 -1.86738 -0.00329155  -0.881791 -1.84146 -0.00300968  -0.955249 -1.86717 -0.00336158  -0.954862 -1.86703 -0.00341135  -0.930832 -1.94052 -0.00293589  -0.979984 -1.91677 -0.00328261  -0.97965 -1.91663 -0.00333703  -0.930507 -1.94036 -0.00295347  -0.95552 -1.99023 -0.00290698  -0.980268 -1.91694 -0.00323582  -1.00496 -1.96658 -0.00316787  -0.931098 -1.94075 -0.00294316  -1.00471 -1.9664 -0.00319755  -1.00443 -1.96629 -0.00320226  -0.980177 -2.03995 -0.0029009  -1.0294 -2.01606 -0.00315577  -1.02916 -2.01594 -0.00316948  -0.979946 -2.03982 -0.00289392  -1.00481 -2.08967 -0.00290447  -1.0296 -2.01621 -0.00314814  -1.05424 -2.06588 -0.00311458  -0.980363 -2.04015 -0.00293142  -1.05406 -2.06573 -0.00311399  -1.05388 -2.06564 -0.00310057  -1.02941 -2.13939 -0.00292796  -1.07868 -2.1154 -0.00311428  -1.07853 -2.1153 -0.00310546  -1.02926 -2.13928 -0.00290442  -1.05397 -2.18909 -0.00296545  -1.07881 -2.11553 -0.00313032  -1.10336 -2.1652 -0.00313574  -1.02953 -2.13957 -0.00297242  -1.10326 -2.16506 -0.00311238  -1.10315 -2.16498 -0.00307608  -1.07848 -2.23875 -0.00301331  -1.12777 -2.21471 -0.00314343  -1.12769 -2.21461 -0.00312781  -1.07839 -2.23866 -0.0029844  -1.10294 -2.28839 -0.00307912  -1.12785 -2.21483 -0.00317806  -1.1523 -2.26446 -0.00321192  -1.07854 -2.23892 -0.00306159  -1.15225 -2.26432 -0.00318366  -1.1522 -2.26425 -0.00313395  -1.12734 -2.33799 -0.0031566  -1.17666 -2.31391 -0.0032469  -1.17662 -2.31382 -0.00321662  -1.1273 -2.3379 -0.00312775  -1.1517 -2.38755 -0.00323683  -1.17668 -2.31403 -0.0032838  -1.20104 -2.36358 -0.0033412  -1.12736 -2.33814 -0.00320536  -1.20102 -2.36345 -0.00331038  -1.20101 -2.36338 -0.00325882  -1.17597 -2.43705 -0.00332499  -1.2253 -2.41296 -0.00339144  -1.2253 -2.41287 -0.0033558  -1.17597 -2.43698 -0.00330013  -1.20021 -2.4865 -0.00341749  -1.22531 -2.41307 -0.00342858  -1.24956 -2.46254 -0.00349671  -1.17597 -2.43719 -0.00337148  -1.24955 -2.4624 -0.00346649  -1.24956 -2.46235 -0.00342089  -1.22437 -2.53588 -0.00349665  -1.27372 -2.5118 -0.00354397  -1.27374 -2.51171 -0.00351429  -1.22438 -2.53582 -0.00347066  -1.24849 -2.58519 -0.00357521  -1.27373 -2.5119 -0.00357646  -1.2979 -2.56125 -0.00364351  -1.22437 -2.53601 -0.00354385  -1.29789 -2.56112 -0.00361681  -1.29788 -2.56105 -0.00355715  0 0 0  -0.000490006 0.00260863 -0.00496727  -0.000885982 0.00300047 -0.00725996  -0.00541545 0.00616422 -0.0116954  -0.00251931 0.00560978 -0.00713956  -0.0020557 -0.000580519 -0.00949621  -0.000841636 0.000587285 -0.00605297  -0.00353453 -0.00367728 -0.0127768  0 0 0  0 0 0  -0.000416376 0.000428885 -0.00384766  0 0 0  -0.00517751 0.000247538 -0.0155396  -0.00876768 0.00591135 -0.0176971  -0.00321656 -0.00922427 -0.012112  -0.00882567 -0.00829872 -0.0193538  -0.0106298 -0.00154492 -0.0206013  -0.00390428 -0.00281113 -0.0130457  -0.00506967 -0.0218142 -0.0141  -0.00758766 -0.0133716 -0.0164694  -0.0122537 -0.0264008 -0.0189883  -0.00314446 -0.0138894 -0.0104053  -0.0126444 -0.0205279 -0.0220479  -0.0132187 -0.012796 -0.0238004  -0.0072318 -0.0380251 -0.0149413  -0.0173562 -0.03638 -0.0231509  -0.0163649 -0.0284942 -0.0242007  -0.00586584 -0.0304558 -0.0155426  -0.0102023 -0.0572561 -0.0153402  -0.018042 -0.0425953 -0.0205919  -0.0240491 -0.0615792 -0.0208103  -0.00832343 -0.0438987 -0.0134312  -0.0224433 -0.055098 -0.0235363  -0.0204853 -0.0470235 -0.0252619  -0.0139864 -0.079216 -0.0152864  -0.0285712 -0.0765409 -0.0233318  -0.0255992 -0.0687627 -0.0246361  -0.0111077 -0.0716659 -0.0159286  -0.0186726 -0.103576 -0.0149661  -0.0308763 -0.0829118 -0.0210054  -0.0382506 -0.106634 -0.0203671  -0.0162205 -0.0853786 -0.0139621  -0.0353548 -0.100358 -0.0227758  -0.0318204 -0.0928324 -0.0245382  -0.0243907 -0.130138 -0.014468  -0.0432147 -0.126349 -0.0219755  -0.0391148 -0.119284 -0.023498  -0.0206163 -0.123177 -0.0152199  -0.0310945 -0.158673 -0.0138149  -0.0464934 -0.132328 -0.0198066  -0.0555257 -0.160017 -0.0188324  -0.0273876 -0.136018 -0.0132475  -0.0519431 -0.154325 -0.021017  -0.0476086 -0.147694 -0.0227857  -0.0388867 -0.188978 -0.0131212  -0.0616955 -0.184007 -0.0199749  -0.0570962 -0.177856 -0.0215899  -0.0346933 -0.182821 -0.0139425  -0.0476742 -0.220915 -0.0123373  -0.065445 -0.189339 -0.0179437  -0.0762402 -0.220323 -0.0168779  -0.0422915 -0.194306 -0.0119814  -0.0723807 -0.215333 -0.0188587  -0.06777 -0.209654 -0.0205741  -0.0575054 -0.254274 -0.0115908  -0.0839888 -0.248017 -0.0177716  -0.0793007 -0.242773 -0.0193776  -0.0532271 -0.248947 -0.012428  -0.0682887 -0.289002 -0.0107796  -0.0878706 -0.252645 -0.0158949  -0.100361 -0.286359 -0.0148516  -0.0610467 -0.258971 -0.0105373  -0.0964933 -0.282065 -0.0166317  -0.0919285 -0.277263 -0.0182464  -0.0800158 -0.324893 -0.0100632  -0.109796 -0.317233 -0.0156004  -0.105271 -0.312793 -0.0171331  -0.0758514 -0.320322 -0.0108693  -0.092614 -0.361935 -0.00929612  -0.113599 -0.3212 -0.0139032  -0.127633 -0.357224 -0.0129443  -0.0835044 -0.328969 -0.00911421  -0.123923 -0.353546 -0.0145306  -0.119582 -0.349483 -0.0160093  -0.106049 -0.399954 -0.00865752  -0.138738 -0.390819 -0.0136092  -0.134503 -0.387054 -0.0150182  -0.102115 -0.396042 -0.00939453  -0.120275 -0.43896 -0.00796872  -0.142329 -0.39421 -0.012093  -0.157764 -0.432224 -0.0112463  -0.109377 -0.403476 -0.00782418  -0.154297 -0.429076 -0.012646  -0.150266 -0.425624 -0.0139661  -0.135244 -0.478802 -0.00741643  -0.170461 -0.468171 -0.0118453  -0.166558 -0.464968 -0.01311  -0.131598 -0.47545 -0.00806332  -0.150918 -0.519499 -0.00681192  -0.17379 -0.471079 -0.0105109  -0.190479 -0.510828 -0.0097754  -0.138347 -0.481845 -0.00669742  -0.187289 -0.508125 -0.0109941  -0.1836 -0.505186 -0.0121602  -0.167261 -0.560929 -0.0063473  -0.204658 -0.548827 -0.0103126  -0.201108 -0.546085 -0.0114287  -0.163929 -0.558035 -0.00690871  -0.184239 -0.603091 -0.00583464  -0.207705 -0.551321 -0.0091508  -0.225531 -0.592601 -0.00851679  -0.170118 -0.56356 -0.00574666  -0.222625 -0.590278 -0.00957161  -0.219277 -0.58775 -0.0105835  -0.201814 -0.645906 -0.00545126  -0.24108 -0.632393 -0.00899154  -0.23787 -0.630036 -0.00995916  -0.198782 -0.643407 -0.00591528  -0.219953 -0.689362 -0.00501698  -0.243841 -0.634541 -0.00799108  -0.262703 -0.67718 -0.00744927  -0.204411 -0.648189 -0.00495464  -0.260073 -0.675169 -0.00834894  -0.257057 -0.673001 -0.00921804  -0.238633 -0.733384 -0.00470513  -0.279509 -0.718541 -0.00785875  -0.27662 -0.716509 -0.00868887  -0.235898 -0.731224 -0.00508434  -0.257821 -0.777966 -0.00433725  -0.282 -0.720394 -0.00700796  -0.301793 -0.764223 -0.00654209  -0.24098 -0.735369 -0.00430185  -0.299433 -0.762489 -0.00730693  -0.296725 -0.760619 -0.00804216  -0.277492 -0.823043 -0.00408059  -0.319745 -0.806961 -0.00688553  -0.317162 -0.805207 -0.00758833  -0.275031 -0.821176 -0.00438327  -0.29761 -0.868603 -0.00377816  -0.321974 -0.80856 -0.00617188  -0.342606 -0.853443 -0.00577062  -0.279594 -0.824767 -0.00376546  -0.340497 -0.851936 -0.00640851  -0.338079 -0.850325 -0.00702482  -0.318159 -0.914595 -0.00356764  -0.361597 -0.897374 -0.00605339  -0.359302 -0.895867 -0.00664365  -0.315968 -0.912982 -0.00380272  -0.339107 -0.961005 -0.00331628  -0.363588 -0.898764 -0.00546157  -0.384961 -0.944556 -0.00511408  -0.320035 -0.916098 -0.00332886  -0.383092 -0.943251 -0.00564295  -0.380941 -0.941863 -0.00614715  -0.360438 -1.00779 -0.00314552  -0.404891 -0.989531 -0.00534445  -0.402857 -0.988233 -0.00582719  -0.358495 -1.00638 -0.00331879  -0.382123 -1.05492 -0.0029465  -0.406648 -0.990726 -0.00485563  -0.428688 -1.03732 -0.00455886  -0.362098 -1.00909 -0.00297475  -0.427036 -1.03619 -0.00498897  -0.425144 -1.035 -0.00540173  -0.404134 -1.10238 -0.00281358  -0.449446 -1.08319 -0.00473416  -0.447656 -1.08208 -0.00513119  -0.402424 -1.10118 -0.00293106  -0.426445 -1.15013 -0.00264156  -0.450992 -1.08423 -0.00434208  -0.473606 -1.13149 -0.00408804  -0.40559 -1.10351 -0.00269657  -0.472154 -1.13052 -0.00442976  -0.470497 -1.12951 -0.00475162  -0.449039 -1.19816 -0.00253844  -0.495091 -1.17815 -0.00421643  -0.493529 -1.1772 -0.00452894  -0.447553 -1.19713 -0.00261551  -0.471896 -1.24644 -0.00240976  -0.496443 -1.17904 -0.00390965  -0.519544 -1.22689 -0.00369287  -0.450315 -1.19915 -0.00247347  -0.518285 -1.22605 -0.00395817  -0.516845 -1.22518 -0.00421131  -0.494995 -1.29495 -0.00233728  -0.541663 -1.2742 -0.00377822  -0.540312 -1.27339 -0.00401604  -0.493703 -1.29406 -0.00237244  -0.518308 -1.34366 -0.00223309  -0.542833 -1.27496 -0.0035466  -0.566352 -1.3233 -0.00336856  -0.496095 -1.2958 -0.00231379  -0.56526 -1.32259 -0.00356245  -0.564029 -1.32186 -0.0037424  -0.541817 -1.39256 -0.00218278  -0.589009 -1.37118 -0.00342053  -0.587857 -1.37049 -0.00360209  -0.540717 -1.39181 -0.00218749  -0.565506 -1.44162 -0.00210726  -0.590011 -1.37183 -0.00325227  -0.613865 -1.42058 -0.00310719  -0.542755 -1.3933 -0.00219029  -0.612945 -1.41996 -0.00324792  -0.611896 -1.41934 -0.00337017  -0.589357 -1.49084 -0.00208342  -0.636984 -1.46891 -0.00313646  -0.636015 -1.46833 -0.00325793  -0.588428 -1.49021 -0.00206506  -0.613344 -1.54018 -0.00203723  -0.637826 -1.46946 -0.003021  -0.661947 -1.51854 -0.00290394  -0.590145 -1.49147 -0.00212073  -0.661168 -1.51801 -0.00298971  -0.660291 -1.5175 -0.00306553  -0.637452 -1.58964 -0.00203037  -0.685444 -1.56725 -0.00291348  -0.684633 -1.56676 -0.00298792  -0.636678 -1.58911 -0.00198662  -0.661673 -1.63921 -0.00200254  -0.68615 -1.56772 -0.00284564  -0.710473 -1.61705 -0.00275248  -0.63811 -1.59019 -0.00209087  -0.709832 -1.6166 -0.00280052  -0.709111 -1.61617 -0.00283629  -0.685982 -1.68885 -0.00201881  -0.734273 -1.66606 -0.00274861  -0.733611 -1.66566 -0.0027833  -0.685354 -1.6884 -0.00195485  -0.710364 -1.73856 -0.00202096  -0.734844 -1.66646 -0.00272131  -0.759312 -1.71599 -0.00266093  -0.686516 -1.68932 -0.00210077  -0.758794 -1.7156 -0.00267088  -0.758218 -1.71525 -0.00266969  -0.734814 -1.78834 -0.00204897  -0.783349 -1.76523 -0.00264436  -0.782827 -1.76489 -0.00265366  -0.734317 -1.78796 -0.00197554  -0.759316 -1.83814 -0.00207615  -0.783802 -1.76556 -0.00264651  -0.808366 -1.81523 -0.00260955  -0.735232 -1.78874 -0.00214398  -0.807956 -1.8149 -0.00259513  -0.807506 -1.8146 -0.0025664  -0.783845 -1.88799 -0.00212491  -0.832564 -1.86462 -0.00259197  -0.832164 -1.86433 -0.0025776  -0.783457 -1.88768 -0.00204122  -0.808397 -1.93785 -0.00216299  -0.832919 -1.86491 -0.00261742  -0.857522 -1.91465 -0.00260633  -0.78416 -1.88834 -0.00221843  -0.857205 -1.91437 -0.00256902  -0.85687 -1.91413 -0.00252002  -0.832965 -1.98772 -0.0022316  -0.881842 -1.96415 -0.00259286  -0.881541 -1.96391 -0.00255728  -0.832678 -1.98747 -0.00215077  -0.857539 -2.0376 -0.00228858  -0.882104 -1.96439 -0.00263834  -0.906717 -2.01418 -0.00265002  -0.833196 -1.98803 -0.00232619  -0.906489 -2.01393 -0.0026018  -0.906248 -2.01374 -0.00254089  -0.882101 -2.08746 -0.00236785  -0.931097 -2.06373 -0.00264269  -0.930887 -2.06354 -0.00259316  -0.881912 -2.08725 -0.00229311  -0.906649 -2.1373 -0.0024479  -0.931279 -2.06393 -0.00269967  -0.955858 -2.11372 -0.00273633  -0.88226 -2.08772 -0.00246418  -0.955702 -2.11351 -0.00268173  -0.95554 -2.11335 -0.00261068  -0.931172 -2.18712 -0.00254571  -0.980259 -2.16327 -0.00274873  -0.980128 -2.16311 -0.0026992  -0.931049 -2.18695 -0.00247759  -0.955669 -2.2369 -0.00264829  -0.980376 -2.16345 -0.0028066  -1.00489 -2.2132 -0.00285703  -0.931267 -2.18735 -0.00263578  -1.00479 -2.21301 -0.00280458  -1.00471 -2.21287 -0.00273752  -0.980124 -2.28664 -0.00275099  -1.02927 -2.26272 -0.00288898  -1.02921 -2.26257 -0.00284284  -0.980067 -2.28649 -0.00269157  -1.00455 -2.33634 -0.00286233  -1.02933 -2.26288 -0.00294763  -1.05377 -2.31255 -0.00302094  -0.980169 -2.28684 -0.00283247  -1.05372 -2.31238 -0.00297332  -1.05369 -2.31226 -0.00291234  -1.02891 -2.38597 -0.00297987  -1.0781 -2.362 -0.0030756  -1.07809 -2.36187 -0.0030297  -1.0289 -2.38585 -0.00293612  -1.05324 -2.43556 -0.00309956  -1.07812 -2.36215 -0.00312436  -1.10246 -2.41173 -0.0032112  -1.02891 -2.38616 -0.00304699  -1.10246 -2.41157 -0.00317556  -1.10247 -2.41147 -0.00312293  -1.07749 -2.48508 -0.00322407  -1.12672 -2.46108 -0.00328165  -1.12674 -2.46097 -0.00325596  -1.07752 -2.48499 -0.00319415  -1.1017 -2.53453 -0.00334734  -1.12671 -2.46121 -0.00332284  -1.15094 -2.51068 -0.00340974  -1.07747 -2.48525 -0.0032779  -1.15095 -2.51052 -0.00338393  -1.15099 -2.51045 -0.0033443  -1.12582 -2.58389 -0.00346333  -1.17508 -2.55989 -0.00348246  -1.17512 -2.5598 -0.00345242  -1.12586 -2.58381 -0.00343561  -1.14987 -2.63317 -0.00356477  -1.17507 -2.56002 -0.00351411  -1.19918 -2.60933 -0.00359482  -1.12578 -2.58405 -0.00349712  -1.19919 -2.60918 -0.00357127  -1.1992 -2.60911 -0.00352329  0 0 0  0.000960827 0.000670493 0.00120902  0.000501074 0.00176153 -0.0011571  -0.000441875 0.00458816 -0.00218946  0.00195543 0.00334817 0.00233752  0.00345911 -0.00413755 0.00189471  0.000432007 -0.000282794 -0.00127363  0.00105135 -0.00539121 -0.00357449  0 0 0  0 0 0  0.000849448 -0.00123596 0.000872612  0 0 0  0.000877082 -0.00198448 -0.00381976  0.00047636 0.0031718 -0.00367868  0.00647178 -0.0139576 0.00165677  0.00163756 -0.0112377 -0.00518149  0.00182107 -0.00502047 -0.00482517  0.00763875 -0.00798395 0.0026328  0.00901169 -0.0274262 0.00105244  0.0015347 -0.0157226 -0.00475132  0.00169343 -0.0293241 -0.00594413  0.00548311 -0.0181282 0.000923097  0.0023106 -0.0241262 -0.00643325  0.00310016 -0.0170341 -0.00618881  0.0112569 -0.0446467 0.000639737  0.00221378 -0.0408931 -0.00709689  0.00377396 -0.0335263 -0.00657099  0.013153 -0.0375215 0.00176197  0.0127038 -0.0647136 0.000299871  0.00100622 -0.0465586 -0.00674123  -0.000163198 -0.0664695 -0.00697458  0.00971299 -0.0500587 -3.73125e-05  0.00157848 -0.0605196 -0.00742221  0.00368464 -0.0529627 -0.0072425  0.013247 -0.0876128 7.93338e-05  -0.000109851 -0.082967 -0.00752503  0.00261196 -0.0755504 -0.00715524  0.0159207 -0.0803742 0.00116658  0.0127953 -0.112884 2.7597e-05  -0.00228113 -0.088935 -0.00722659  -0.00519371 -0.11375 -0.00700897  0.0110968 -0.0934212 -0.000581563  -0.00264287 -0.107801 -0.00738239  0.000422299 -0.100566 -0.0073083  0.0111933 -0.140388 -8.34465e-07  -0.00631493 -0.134846 -0.00715816  -0.00284582 -0.127919 -0.00696629  0.0144145 -0.133558 0.000968397  0.00846785 -0.169903 0.000113904  -0.00913084 -0.140598 -0.00687015  -0.0140658 -0.169464 -0.00646025  0.00857133 -0.146066 -0.000635147  -0.0110194 -0.163901 -0.00678337  -0.00740367 -0.157327 -0.006791  0.00452811 -0.201233 0.000205159  -0.0168705 -0.194726 -0.00639611  -0.013025 -0.188521 -0.00633347  0.00804639 -0.195049 0.00105298  -0.000568867 -0.234262 0.000404954  -0.0200449 -0.200005 -0.00612319  -0.027097 -0.232257 -0.00564045  0.00162476 -0.206506 -0.000389218  -0.0238243 -0.227241 -0.00591612  -0.0199715 -0.221438 -0.00597107  -0.0068571 -0.268764 0.000537574  -0.0318552 -0.261181 -0.00548112  -0.0279105 -0.255745 -0.00549644  -0.0032478 -0.263285 0.00128621  -0.0142722 -0.304702 0.000761509  -0.0351607 -0.265891 -0.00523192  -0.0442824 -0.300974 -0.00474924  -0.00987619 -0.273525 -2.21133e-05  -0.0409738 -0.296544 -0.00497282  -0.0371161 -0.291503 -0.00504082  -0.0227982 -0.34185 0.000895143  -0.051074 -0.333077 -0.00455487  -0.0472121 -0.328357 -0.00459856  -0.0192492 -0.337047 0.00157452  -0.0323753 -0.380201 0.00110567  -0.0543487 -0.33721 -0.0043481  -0.0654078 -0.374672 -0.00390214  -0.0257941 -0.346069 0.000356019  -0.0621958 -0.370804 -0.00407565  -0.0584745 -0.366435 -0.00412732  -0.0429682 -0.419551 0.00120854  -0.0741918 -0.409499 -0.00371194  -0.0705202 -0.405421 -0.00374883  -0.0395794 -0.415363 0.0018394  -0.0545279 -0.459917 0.00138336  -0.0773242 -0.413099 -0.00355208  -0.0901576 -0.452578 -0.00316554  -0.0458548 -0.423261 0.000681102  -0.0871136 -0.449207 -0.00327343  -0.0836169 -0.445437 -0.00330299  -0.0669984 -0.50112 0.00144136  -0.100816 -0.489742 -0.00297761  -0.0974011 -0.48622 -0.00299472  -0.063826 -0.497475 0.00203621  -0.0803473 -0.543185 0.00156987  -0.103753 -0.492876 -0.00287682  -0.118192 -0.534079 -0.00255775  -0.0697194 -0.504372 0.00091958  -0.115362 -0.531145 -0.00261277  -0.112123 -0.527884 -0.00260073  -0.0945097 -0.585964 0.00158703  -0.130601 -0.573259 -0.00237828  -0.12746 -0.570201 -0.00236404  -0.0915734 -0.582782 0.00215685  -0.10946 -0.62947 0.00167185  -0.133312 -0.575986 -0.00233102  -0.149194 -0.618671 -0.00207061  -0.0970268 -0.58881 0.00107443  -0.146597 -0.616111 -0.00207239  -0.143632 -0.613279 -0.00202644  -0.125142 -0.673589 0.00164855  -0.163216 -0.659589 -0.00190496  -0.160351 -0.65693 -0.00185943  -0.122457 -0.67081 0.00219363  -0.141529 -0.718326 0.00168467  -0.165692 -0.661963 -0.00190711  -0.182877 -0.705933 -0.00170106  -0.127452 -0.676085 0.00114185  -0.180518 -0.703701 -0.00166118  -0.177824 -0.701238 -0.00157607  -0.158576 -0.763581 0.00163174  -0.198368 -0.748351 -0.00154024  -0.19578 -0.746035 -0.00146163  -0.156143 -0.761153 0.0021553  -0.176251 -0.809367 0.00163674  -0.200611 -0.750422 -0.00158638  -0.218961 -0.795498 -0.00142419  -0.160672 -0.765775 0.00113285  -0.216832 -0.793547 -0.00134808  -0.214409 -0.7914 -0.00123441  -0.194514 -0.855597 0.00155246  -0.235786 -0.839209 -0.00127351  -0.233464 -0.837193 -0.00116664  -0.192317 -0.853473 0.00206113  -0.21333 -0.902274 0.00152779  -0.237801 -0.841017 -0.00135708  -0.257194 -0.887041 -0.00123388  -0.1964 -0.857523 0.00106353  -0.255285 -0.885337 -0.00112385  -0.253113 -0.883474 -0.000985265  -0.232664 -0.949328 0.00142211  -0.275218 -0.931868 -0.00108188  -0.273142 -0.930115 -0.000955641  -0.230707 -0.947475 0.0019033  -0.252489 -0.996756 0.00137168  -0.277015 -0.933445 -0.00119096  -0.297334 -0.980284 -0.00110567  -0.234348 -0.951017 0.000951469  -0.295634 -0.978793 -0.00096947  -0.2937 -0.977171 -0.000813067  -0.272771 -1.0445 0.00125551  -0.316435 -1.02606 -0.000959277  -0.314591 -1.02454 -0.000813723  -0.271031 -1.04289 0.00171244  -0.293487 -1.09257 0.00118643  -0.318026 -1.02744 -0.00109112  -0.339161 -1.07497 -0.00103211  -0.274266 -1.04599 0.000802457  -0.337658 -1.07367 -0.000879169  -0.335954 -1.07226 -0.000705183  -0.314602 -1.14089 0.00104994  -0.359218 -1.12157 -0.000895679  -0.357599 -1.12024 -0.00073427  -0.313076 -1.13948 0.00147659  -0.336093 -1.18947 0.000963211  -0.360617 -1.12277 -0.00104547  -0.382458 -1.17088 -0.00100559  -0.315917 -1.14219 0.000615716  -0.381142 -1.16975 -0.00084269  -0.379649 -1.16852 -0.000655174  -0.357926 -1.23828 0.000822961  -0.403344 -1.21817 -0.000868976  -0.401938 -1.21701 -0.000701487  -0.356595 -1.23705 0.00122285  -0.380079 -1.28729 0.000718415  -0.404571 -1.21921 -0.00103742  -0.427018 -1.26781 -0.0010184  -0.359067 -1.23942 0.000412345  -0.425876 -1.26682 -0.000847399  -0.42458 -1.26576 -0.000652015  -0.402521 -1.33648 0.000573397  -0.448639 -1.31567 -0.000891924  -0.447422 -1.31467 -0.000719666  -0.401374 -1.33541 0.000951052  -0.425237 -1.38583 0.0004614  -0.449691 -1.31657 -0.00106472  -0.472658 -1.36557 -0.00106889  -0.403505 -1.33747 0.000186741  -0.471675 -1.36471 -0.0008834  -0.470574 -1.3638 -0.000686824  -0.448197 -1.43532 0.000308275  -0.494904 -1.4139 -0.000946403  -0.493864 -1.41305 -0.00076431  -0.447226 -1.43441 0.000660241  -0.47138 -1.48495 0.000187278  -0.495801 -1.41469 -0.00112504  -0.519193 -1.464 -0.00114763  -0.449027 -1.4362 -5.29885e-05  -0.518361 -1.46325 -0.000962973  -0.517427 -1.46248 -0.000765741  -0.494769 -1.53467 2.94447e-05  -0.541971 -1.51273 -0.00103837  -0.54111 -1.51199 -0.000863016  -0.493957 -1.53388 0.000350177  -0.518333 -1.5845 -9.64999e-05  -0.54272 -1.5134 -0.00121695  -0.56646 -1.56296 -0.00125188  -0.49546 -1.53543 -0.000303447  -0.565769 -1.56232 -0.00106734  -0.564995 -1.56165 -0.000869691  -0.542056 -1.63439 -0.000261903  -0.589676 -1.612 -0.00115633  -0.588954 -1.61137 -0.000981808  -0.541389 -1.63371 3.23653e-05  -0.56592 -1.68435 -0.000396848  -0.590303 -1.61258 -0.00133604  -0.61431 -1.66232 -0.00137734  -0.542622 -1.63505 -0.000570953  -0.61374 -1.66176 -0.00120085  -0.613107 -1.66119 -0.00101209  -0.589909 -1.73436 -0.000559628  -0.637878 -1.71159 -0.00129777  -0.637302 -1.71105 -0.00112921  -0.589374 -1.73379 -0.000295937  -0.614004 -1.78441 -0.000700176  -0.638386 -1.71209 -0.00147069  -0.6626 -1.76195 -0.00153756  -0.590365 -1.73493 -0.000838995  -0.662136 -1.76147 -0.00136483  -0.661638 -1.76099 -0.00118405  -0.638192 -1.83448 -0.00086993  -0.686441 -1.81139 -0.00146443  -0.685989 -1.81094 -0.00130576  -0.637764 -1.83399 -0.000628769  -0.662451 -1.88456 -0.00101829  -0.686842 -1.81182 -0.00163221  -0.711193 -1.86176 -0.0017007  -0.638548 -1.83497 -0.00112265  -0.710839 -1.86135 -0.00154549  -0.710458 -1.86094 -0.00137895  -0.68677 -1.93465 -0.00118011  -0.735263 -1.91131 -0.001661  -0.734925 -1.91092 -0.00151545  -0.686458 -1.93424 -0.000972509  -0.711131 -1.98472 -0.00132769  -0.735559 -1.91167 -0.00181192  -0.76 -1.96164 -0.00189555  -0.687031 -1.93508 -0.00140715  -0.759728 -1.96128 -0.00174993  -0.759449 -1.96094 -0.00159055  -0.735525 -2.0348 -0.00149667  -0.784208 -2.01125 -0.00187343  -0.783964 -2.01093 -0.0017367  -0.735304 -2.03445 -0.00132018  -0.759944 -2.08484 -0.00165683  -0.784424 -2.01157 -0.00201291  -0.808909 -2.06152 -0.00210583  -0.735709 -2.03517 -0.00169379  -0.808721 -2.06121 -0.00197625  -0.808537 -2.06093 -0.00183302  -0.784376 -2.13484 -0.00182194  -0.833205 -2.11115 -0.00210148  -0.833046 -2.11087 -0.00197977  -0.784228 -2.13456 -0.00166935  -0.808808 -2.18481 -0.0019837  -0.833357 -2.11141 -0.00222725  -0.857833 -2.16132 -0.00233191  -0.784487 -2.13516 -0.00198984  -0.857716 -2.16105 -0.00222123  -0.857599 -2.16082 -0.0020923  -0.833224 -2.23473 -0.00214881  -0.882173 -2.21092 -0.0023576  -0.88208 -2.21069 -0.00225461  -0.833144 -2.23449 -0.00202745  -0.857628 -2.28459 -0.00230843  -0.882266 -2.21115 -0.00246602  -0.906708 -2.26098 -0.00257236  -0.833282 -2.23501 -0.00228685  -0.906636 -2.26074 -0.00247866  -0.906585 -2.26055 -0.00237298  -0.882006 -2.3344 -0.00247508  -0.931049 -2.31052 -0.00261688  -0.93101 -2.31033 -0.0025329  -0.881978 -2.33421 -0.00238019  -0.906359 -2.38416 -0.00263959  -0.931084 -2.31072 -0.00270754  -0.955471 -2.36045 -0.0028252  -0.882018 -2.33465 -0.00258577  -0.955449 -2.36024 -0.00275892  -0.955444 -2.36008 -0.00266963  -0.930667 -2.43384 -0.00280327  -0.979783 -2.4099 -0.00290257  -0.979788 -2.40974 -0.00283593  -0.930685 -2.43367 -0.0027405  -0.954949 -2.48346 -0.00296754  -0.979779 -2.41008 -0.00296485  -1.00408 -2.45969 -0.00308514  -0.93065 -2.43406 -0.00288504  -1.00409 -2.4595 -0.00304395  -1.00413 -2.45938 -0.00297856  -0.979161 -2.53299 -0.00312972  -1.02832 -2.50903 -0.00318098  -1.02837 -2.50889 -0.00314289  -0.979216 -2.53286 -0.00309378  -1.00333 -2.58245 -0.00329834  -1.02829 -2.50919 -0.00322324  -1.05249 -2.55866 -0.00334817  -0.97911 -2.53319 -0.00318325  -1.05252 -2.55849 -0.00332731  -1.05259 -2.55837 -0.00328743  -1.02741 -2.6318 -0.00345033  -1.07661 -2.60784 -0.00346041  -1.07668 -2.60772 -0.00344199  -1.02749 -2.63169 -0.00344557  -1.05142 -2.68106 -0.00360966  -1.07658 -2.60799 -0.00348639  -1.10063 -2.65729 -0.00359964  -1.02735 -2.63199 -0.00347668  -1.10065 -2.65711 -0.00359237  -1.10071 -2.657 -0.00356019  0 0 0  0.00233219 -0.00261945 0.00712675  0.00181118 -0.00088644 0.00474167  0.00364595 0.00160217 0.00695163  0.00570764 -0.000258565 0.0113711  0.00870271 -0.00996685 0.0125826  0.0016802 -0.00262272 0.00337768  0.00538372 -0.00967747 0.00522351  0 0 0  0 0 0  0.00212591 -0.00432354 0.00543165  0 0 0  0.00629053 -0.0066756 0.00729853  0.00838104 -0.00201052 0.00969684  0.0158352 -0.021874 0.0144101  0.0110656 -0.0175685 0.00809652  0.012795 -0.0118644 0.0101138  0.0184662 -0.0163478 0.0173348  0.0227216 -0.0367361 0.0151033  0.0099245 -0.0215907 0.0062449  0.0144978 -0.0363537 0.00635457  0.0140356 -0.0256454 0.0114263  0.0159144 -0.0316358 0.00820279  0.0177622 -0.025121 0.0103469  0.0292417 -0.0551566 0.0151188  0.0201906 -0.0494573 0.00796515  0.0221752 -0.0425601 0.0100434  0.0315522 -0.0484694 0.0179661  0.0349739 -0.076111 0.0149336  0.0185524 -0.0547036 0.00625932  0.0219288 -0.075522 0.00609195  0.0273243 -0.060199 0.0123832  0.0238261 -0.0699641 0.00773364  0.0260474 -0.0628572 0.00971204  0.039704 -0.0998378 0.0145578  0.0264483 -0.0932721 0.00741392  0.0289758 -0.0861772 0.00942087  0.0422175 -0.0929115 0.0173472  0.0433293 -0.125884 0.0142487  0.0243348 -0.0989277 0.00579864  0.0257238 -0.124638 0.00568479  0.0375865 -0.105362 0.0119858  0.0280595 -0.118949 0.00722849  0.0307668 -0.111977 0.0090645  0.0457078 -0.154165 0.0138254  0.028462 -0.146844 0.00699127  0.0314451 -0.140072 0.00885409  0.0484906 -0.147503 0.0164794  0.0468156 -0.184511 0.013513  0.0259723 -0.152417 0.00546014  0.025034 -0.182246 0.00541204  0.0433574 -0.159671 0.0113876  0.0276676 -0.1768 0.006872  0.030729 -0.170313 0.00857544  0.0465982 -0.216703 0.0130998  0.025625 -0.208563 0.00670701  0.0288664 -0.202363 0.00841141  0.0495745 -0.210543 0.0155935  0.0450729 -0.250666 0.0127946  0.022901 -0.213785 0.00526798  0.0195173 -0.247097 0.00524884  0.0440865 -0.22191 0.0107998  0.0223127 -0.242085 0.00663209  0.0255537 -0.236224 0.00821286  0.0422312 -0.286159 0.0123976  0.0177808 -0.277089 0.00649959  0.0211179 -0.271535 0.00806206  0.0452784 -0.280598 0.0147112  0.0381041 -0.323148 0.0120936  0.0149564 -0.28184 0.00514841  0.00917131 -0.318086 0.0051381  0.0396443 -0.29094 0.0102378  0.0120052 -0.313572 0.00645083  0.0152712 -0.308367 0.00791335  0.0327195 -0.361396 0.011702  0.00508243 -0.351279 0.00631726  0.00837576 -0.346367 0.00774956  0.03574 -0.356438 0.0138476  0.0261204 -0.400894 0.0113955  0.00227255 -0.355527 0.00504088  -0.00579572 -0.394239 0.00501686  0.0301464 -0.365704 0.00967908  -0.00302202 -0.390223 0.00626409  0.000155568 -0.385638 0.00762725  0.0183535 -0.44143 0.011001  -0.0121731 -0.430174 0.00611007  -0.00900984 -0.425857 0.00743616  0.0212625 -0.437039 0.0129833  0.00945985 -0.483005 0.010678  -0.0148834 -0.433937 0.00491029  -0.0250646 -0.474712 0.00486106  0.0158572 -0.445275 0.0091117  -0.0224183 -0.471163 0.00604141  -0.0194002 -0.46714 0.00731099  -0.000497937 -0.525432 0.0102674  -0.0336107 -0.512987 0.00585335  -0.0306371 -0.509204 0.00708646  0.00225222 -0.521559 0.0121055  -0.0114843 -0.56873 0.00994301  -0.0361719 -0.516309 0.00472194  -0.0482764 -0.558817 0.00464517  -0.00286174 -0.528849 0.00851166  -0.0458012 -0.555688 0.0057615  -0.0429735 -0.552162 0.00695491  -0.0234349 -0.612736 0.00952566  -0.0588349 -0.59909 0.00555372  -0.0560768 -0.595764 0.00669676  -0.020876 -0.609316 0.011219  -0.0363091 -0.657462 0.009184  -0.0612185 -0.602009 0.00448185  -0.0750657 -0.645974 0.00437891  -0.0256374 -0.61576 0.00788873  -0.0727726 -0.643222 0.00542945  -0.0701696 -0.640122 0.00654924  -0.0500529 -0.702777 0.00876451  -0.0874687 -0.687948 0.0052008  -0.0849385 -0.685027 0.00626588  -0.0476966 -0.699765 0.0103242  -0.0646294 -0.748694 0.00841171  -0.0896623 -0.690518 0.00419003  -0.105072 -0.735716 0.00406229  -0.0520856 -0.705454 0.00724441  -0.102974 -0.733283 0.00505215  -0.100598 -0.730567 0.0060907  -0.07998 -0.795092 0.00798917  -0.119156 -0.779122 0.0048036  -0.11686 -0.776558 0.00578773  -0.0778359 -0.792435 0.00942224  -0.0960776 -0.84199 0.00763482  -0.12115 -0.781388 0.00385773  -0.137966 -0.827621 0.00371075  -0.0818341 -0.79746 0.00658715  -0.13607 -0.825475 0.0046401  -0.13392 -0.823089 0.00560755  -0.112867 -0.889289 0.0072121  -0.153576 -0.87225 0.00437725  -0.151504 -0.869999 0.0052914  -0.110933 -0.886945 0.00852513  -0.130313 -0.937002 0.0068571  -0.155371 -0.874248 0.0034942  -0.173438 -0.921347 0.00333142  -0.114536 -0.891385 0.00592172  -0.171735 -0.919456 0.00419748  -0.169804 -0.917358 0.00509864  -0.148373 -0.985042 0.00644314  -0.190418 -0.967013 0.0039261  -0.188571 -0.965035 0.00477588  -0.146651 -0.982974 0.00763649  -0.167018 -1.03342 0.00608629  -0.192021 -0.968768 0.003102  -0.211196 -1.01659 0.00292927  -0.149866 -0.986897 0.00525516  -0.209677 -1.01493 0.00373274  -0.207964 -1.01309 0.00456429  -0.186201 -1.08207 0.00568026  -0.229393 -1.06313 0.00345814  -0.227756 -1.06139 0.00423688  -0.184665 -1.08025 0.00677192  -0.205892 -1.13099 0.00533086  -0.230819 -1.06468 0.00269657  -0.250965 -1.1131 0.00252026  -0.187523 -1.08371 0.00459534  -0.249622 -1.11163 0.00326139  -0.248112 -1.11002 0.00402582  -0.226054 -1.18013 0.0049367  -0.270245 -1.16037 0.00298679  -0.268807 -1.15885 0.00370258  -0.224706 -1.17852 0.00592238  -0.246662 -1.22949 0.00458747  -0.271498 -1.16174 0.00228161  -0.292491 -1.21065 0.00209546  -0.227215 -1.18158 0.00394893  -0.291322 -1.20935 0.00277442  -0.290002 -1.20794 0.00347948  -0.267679 -1.27901 0.00420666  -0.312729 -1.25852 0.00250381  -0.311481 -1.25719 0.00315726  -0.266515 -1.27761 0.00509602  -0.289075 -1.3287 0.00387156  -0.313813 -1.25972 0.00186002  -0.335538 -1.30902 0.00167423  -0.268679 -1.28029 0.00331229  -0.334527 -1.30789 0.0022952  -0.333384 -1.30665 0.00293946  -0.310817 -1.37853 0.00350213  -0.356606 -1.3574 0.00203013  -0.355538 -1.35623 0.00261813  -0.30982 -1.37731 0.00429493  -0.332887 -1.42848 0.0031758  -0.357542 -1.35844 0.00144202  -0.379891 -1.40805 0.00125349  -0.311677 -1.37966 0.00269675  -0.37902 -1.40706 0.00181633  -0.378055 -1.40598 0.00239879  -0.355247 -1.47853 0.00281632  -0.401668 -1.45683 0.00155044  -0.400763 -1.45582 0.00208676  -0.354408 -1.47747 0.00352281  -0.377883 -1.52868 0.00250053  -0.402461 -1.45775 0.00101799  -0.425328 -1.50759 0.000833094  -0.355972 -1.47953 0.00209725  -0.424602 -1.50672 0.00133973  -0.423791 -1.50579 0.00186253  -0.40076 -1.57888 0.00215578  -0.447714 -1.55669 0.00108612  -0.446966 -1.55581 0.00155902  -0.400065 -1.57795 0.00278151  -0.423864 -1.62914 0.00184482  -0.448375 -1.55749 0.000607193  -0.471676 -1.6075 0.000418663  -0.40136 -1.57975 0.00151777  -0.471073 -1.60674 0.000877261  -0.470407 -1.60594 0.00135201  -0.447161 -1.67944 0.00152063  -0.494569 -1.65685 0.000625014  -0.493959 -1.65608 0.00104868  -0.446594 -1.67864 0.00206876  -0.470643 -1.72977 0.00122595  -0.495107 -1.65754 0.000193357  -0.518747 -1.70766 1.27554e-05  -0.447644 -1.6802 0.000960469  -0.518263 -1.707 0.000411391  -0.517726 -1.70631 0.000832319  -0.494268 -1.78012 0.000915408  -0.542054 -1.75718 0.000168741  -0.541575 -1.75653 0.000541866  -0.493833 -1.77943 0.00138474  -0.518042 -1.83047 0.000624955  -0.542482 -1.75778 -0.000208259  -0.566394 -1.80796 -0.000393212  -0.494647 -1.78078 0.000424743  -0.566009 -1.80738 -4.04716e-05  -0.565599 -1.80679 0.000326574  -0.541932 -1.88081 0.000325501  -0.590033 -1.85759 -0.000273526  -0.589659 -1.85704 5.16772e-05  -0.541597 -1.88023 0.00072974  -0.565923 -1.93115 5.17368e-05  -0.590368 -1.85811 -0.000605762  -0.614476 -1.9083 -0.000789046  -0.542215 -1.88139 -9.20892e-05  -0.61418 -1.90781 -0.000481725  -0.61387 -1.90731 -0.000161409  -0.589998 -1.98146 -0.000230253  -0.638363 -1.95801 -0.000716925  -0.638089 -1.95753 -0.000434875  -0.589755 -1.98096 0.000110269  -0.614147 -2.03174 -0.000492752  -0.638608 -1.95845 -0.000996888  -0.662852 -2.00862 -0.00117236  -0.590209 -1.98196 -0.000589252  -0.662636 -2.00819 -0.000911236  -0.662416 -2.00777 -0.00063467  -0.638345 -2.08197 -0.000755847  -0.686924 -2.05835 -0.00113463  -0.68674 -2.05794 -0.000899196  -0.638195 -2.08155 -0.000480175  -0.662598 -2.13216 -0.00101155  -0.687098 -2.05872 -0.0013746  -0.71141 -2.10883 -0.00154722  -0.638478 -2.08241 -0.00105768  -0.711271 -2.10846 -0.0013352  -0.711133 -2.10811 -0.00109977  -0.686858 -2.1823 -0.001261  -0.735605 -2.15854 -0.00154483  -0.73549 -2.1582 -0.00135112  -0.686772 -2.18194 -0.00103205  -0.711149 -2.23237 -0.00150084  -0.735714 -2.15886 -0.00174326  -0.760063 -2.20888 -0.00191522  -0.686934 -2.18267 -0.00150681  -0.759986 -2.20856 -0.00174636  -0.75991 -2.20827 -0.00155377  -0.735447 -2.28238 -0.00174046  -0.784329 -2.25852 -0.00194657  -0.784277 -2.25824 -0.00179112  -0.735414 -2.28209 -0.00156707  -0.759744 -2.33232 -0.00196695  -0.784379 -2.25881 -0.00210571  -0.808728 -2.30871 -0.00227255  -0.735471 -2.2827 -0.00193077  -0.808693 -2.30844 -0.00213742  -0.808675 -2.30819 -0.00198334  -0.784025 -2.38219 -0.00218695  -0.83301 -2.35828 -0.00233305  -0.83301 -2.35804 -0.00221455  -0.784032 -2.38195 -0.0020538  -0.808288 -2.43199 -0.00240672  -0.833018 -2.35852 -0.00245297  -0.857332 -2.4083 -0.00262004  -0.784004 -2.38248 -0.00233203  -0.857335 -2.40805 -0.00252688  -0.857365 -2.40785 -0.00241095  -0.832527 -2.48171 -0.00262201  -0.881598 -2.45775 -0.00271553  -0.881636 -2.45754 -0.00263685  -0.832572 -2.4815 -0.00254017  -0.85675 -2.53135 -0.00283742  -0.881574 -2.45797 -0.00280005  -0.90583 -2.5076 -0.00296402  -0.832479 -2.48196 -0.00272363  -0.905863 -2.50738 -0.0029074  -0.905921 -2.50721 -0.00283152  -0.880915 -2.58089 -0.00303817  -0.930044 -2.55692 -0.00308925  -0.930108 -2.55674 -0.0030424  -0.880987 -2.58071 -0.00299406  -0.905043 -2.63035 -0.00325054  -0.92999 -2.55711 -0.00313622  -0.954145 -2.60658 -0.00329381  -0.880841 -2.58112 -0.00309443  -0.954201 -2.60638 -0.00327754  -0.954301 -2.60623 -0.00324309  -0.929101 -2.67971 -0.00344628  -0.978263 -2.65574 -0.00345951  -0.97836 -2.65558 -0.0034464  -0.929209 -2.67954 -0.00345403  -0.953096 -2.72898 -0.00365275  -0.978194 -2.65593 -0.00346905  -1.00221 -2.70523 -0.00362849  -0.929023 -2.67993 -0.00346249  -1.00226 -2.70501 -0.00363994  -1.00236 -2.70486 -0.00363386  0 0 0  0.00388983 -0.00769871 0.01256  0.00330538 -0.00494456 0.0103049  0.00724734 -0.00283891 0.0155023  0.00918776 -0.00557756 0.0197451  0.0146933 -0.0184665 0.0222607  0.00316 -0.00652319 0.00775898  0.0102051 -0.0164744 0.0133863  0 0 0  0 0 0  0.00368051 -0.00934839 0.00961244  0 0 0  0.0118929 -0.0137589 0.0175982  0.0159052 -0.00960559 0.0221934  0.0263119 -0.0331733 0.0258239  0.0208622 -0.0270774 0.020249  0.023789 -0.0219023 0.0239652  0.0300711 -0.0280593 0.0307007  0.0378173 -0.0497719 0.0277349  0.0189227 -0.0307699 0.0162726  0.027933 -0.0471923 0.0176088  0.0238905 -0.0366896 0.0207689  0.0299637 -0.0427913 0.0215929  0.0326174 -0.0368624 0.0255559  0.0486258 -0.0693702 0.0282989  0.0385985 -0.0617906 0.0218344  0.0409387 -0.0553559 0.0255232  0.0512482 -0.0630996 0.0328899  0.0585141 -0.0912382 0.0284281  0.0366308 -0.0667045 0.0181836  0.0443733 -0.0885083 0.0182064  0.0464168 -0.0741567 0.0236168  0.0464089 -0.0832373 0.0218092  0.0487269 -0.0765705 0.0255481  0.0672767 -0.115652 0.0280915  0.0532019 -0.107303 0.0214285  0.0555971 -0.100529 0.0250928  0.0696648 -0.109042 0.0325977  0.0747656 -0.142399 0.0276932  0.0511186 -0.112699 0.0179672  0.0566128 -0.139203 0.0176644  0.0651789 -0.120963 0.0236593  0.0587946 -0.133724 0.0210504  0.0612336 -0.127025 0.0246227  0.0809364 -0.17135 0.0270145  0.0631092 -0.162341 0.0204901  0.0657094 -0.155752 0.024018  0.0833862 -0.164883 0.0313672  0.0856891 -0.202436 0.0263906  0.0608591 -0.167746 0.0171887  0.0637459 -0.198397 0.0167887  0.0787984 -0.176704 0.0227956  0.0660701 -0.193073 0.0199941  0.0686932 -0.186706 0.0233892  0.089034 -0.235411 0.0255775  0.0676676 -0.225653 0.019382  0.0704257 -0.219504 0.0227162  0.0915742 -0.229333 0.0297086  0.0909222 -0.270226 0.0248504  0.0653006 -0.230797 0.0162573  0.0654559 -0.265035 0.0158198  0.0868335 -0.240531 0.021589  0.0678659 -0.260056 0.018848  0.0706065 -0.254198 0.0220452  0.0913863 -0.30663 0.0239872  0.0667087 -0.296004 0.0182134  0.0695346 -0.290406 0.0213303  0.0939732 -0.301058 0.0278618  0.0904247 -0.344585 0.0232154  0.0642865 -0.300756 0.0152776  0.0617381 -0.338036 0.0148249  0.0891532 -0.311388 0.0202424  0.0641672 -0.33349 0.0176666  0.0669291 -0.328195 0.0206507  0.0880724 -0.383851 0.0223396  0.0603335 -0.372246 0.0170259  0.0631371 -0.367213 0.0199191  0.0906342 -0.378806 0.0259395  0.0843604 -0.424403 0.0215504  0.0579208 -0.376556 0.0142847  0.0527878 -0.416388 0.0138251  0.0858521 -0.388191 0.0188436  0.0551721 -0.412282 0.0164804  0.0578805 -0.407552 0.0192525  0.0793421 -0.466028 0.0206793  0.0488108 -0.453366 0.0158417  0.0515226 -0.448882 0.0185141  0.0818243 -0.461505 0.0240095  0.0730568 -0.508712 0.0198961  0.0464729 -0.457236 0.0132867  0.0389227 -0.499182 0.0128256  0.0771915 -0.469945 0.0174389  0.0412085 -0.495508 0.0152936  0.0437998 -0.491298 0.0178564  0.0655622 -0.552271 0.0190365  0.0325152 -0.538505 0.0146531  0.0350815 -0.534526 0.017117  0.0679204 -0.548233 0.0221006  0.0569041 -0.596699 0.0182617  0.0302901 -0.541961 0.0122826  0.0205213 -0.585658 0.0118201  0.063509 -0.555786 0.0160425  0.022676 -0.582381 0.0141055  0.0251113 -0.578649 0.016468  0.0471418 -0.641826 0.0174214  0.0118493 -0.626957 0.0134712  0.0142519 -0.623424 0.0157377  0.0493494 -0.638228 0.020231  0.0363238 -0.687673 0.0166636  0.0097692 -0.63003 0.0112845  -0.00202322 -0.675169 0.0108171  0.0452192 -0.644974 0.0146677  -1.8239e-05 -0.672256 0.0129282  0.00224423 -0.668949 0.0151042  0.0245134 -0.734084 0.0158505  -0.012764 -0.718127 0.0123025  -0.0105577 -0.714997 0.014376  0.0265498 -0.730884 0.0184152  0.0117477 -0.781077 0.0151135  -0.0146885 -0.720856 0.0102875  -0.0283043 -0.767184 0.00982654  0.0227321 -0.73689 0.0133231  -0.0264622 -0.764594 0.0117653  -0.0243886 -0.761661 0.0137605  -0.00191045 -0.82852 0.0143249  -0.0409384 -0.811525 0.0111522  -0.0389249 -0.808751 0.0130478  -4.8995e-05 -0.825674 0.0166597  -0.0164241 -0.876441 0.0136132  -0.0426993 -0.813947 0.00930417  -0.0579398 -0.861246 0.00885338  -0.00353777 -0.831029 0.0120206  -0.0562645 -0.858946 0.0106297  -0.0543858 -0.856349 0.012448  -0.0317255 -0.924722 0.0128555  -0.0722862 -0.906744 0.0100311  -0.0704738 -0.904287 0.0117546  -0.0300511 -0.922192 0.0149699  -0.0477895 -0.973383 0.0121688  -0.0738684 -0.908895 0.00834262  -0.0905699 -0.956985 0.00789881  -0.0331931 -0.926953 0.0107591  -0.089066 -0.95494 0.0095163  -0.0873779 -0.952642 0.0111724  -0.0645577 -1.02233 0.0114433  -0.106454 -1.00344 0.00893623  -0.104827 -1.00127 0.0105023  -0.0630552 -1.02008 0.0133578  -0.0819967 -1.07158 0.0107847  -0.107871 -1.00535 0.00740004  -0.125858 -1.05409 0.00696725  -0.0658714 -1.02432 0.00954193  -0.124522 -1.05227 0.0084334  -0.123023 -1.05024 0.00993878  -0.100052 -1.12105 0.010089  -0.143116 -1.10134 0.00788128  -0.141682 -1.09942 0.00929463  -0.0987298 -1.11905 0.0118073  -0.118703 -1.17076 0.00945961  -0.14437 -1.10303 0.00649005  -0.16349 -1.15228 0.00607276  -0.101213 -1.12282 0.00837487  -0.162308 -1.15067 0.00739974  -0.160991 -1.14887 0.00875282  -0.137885 -1.22064 0.00880402  -0.181961 -1.20018 0.00686723  -0.180703 -1.19848 0.00813287  -0.136724 -1.21887 0.0103447  -0.157592 -1.2707 0.00819856  -0.183065 -1.20168 0.00561088  -0.203172 -1.25133 0.0052079  -0.138902 -1.22221 0.00726646  -0.202139 -1.2499 0.00640601  -0.200995 -1.24832 0.0076223  -0.177759 -1.32088 0.0075767  -0.222715 -1.29976 0.00589031  -0.221636 -1.29826 0.00702274  -0.176762 -1.31932 0.00894558  -0.19838 -1.3712 0.00700724  -0.223663 -1.30108 0.0047642  -0.244625 -1.35104 0.0043788  -0.17863 -1.32227 0.00620759  -0.243746 -1.34978 0.00543934  -0.242769 -1.34838 0.00652844  -0.219401 -1.4216 0.00641817  -0.265101 -1.3999 0.00495261  -0.264183 -1.39858 0.00596172  -0.218558 -1.42022 0.00762492  -0.240801 -1.47209 0.00587273  -0.265918 -1.40106 0.00394613  -0.287612 -1.45125 0.00358158  -0.220138 -1.42283 0.00520116  -0.28686 -1.45013 0.00452638  -0.286036 -1.44891 0.00549102  -0.262539 -1.52264 0.00531399  -0.308896 -1.50044 0.00406122  -0.308123 -1.49928 0.00495023  -0.261836 -1.52143 0.00637794  -0.28461 -1.57324 0.00479907  -0.309582 -1.50146 0.00317609  -0.331896 -1.5518 0.00281656  -0.26316 -1.52373 0.00424165  -0.331267 -1.55082 0.00364858  -0.330584 -1.54975 0.00450224  -0.306956 -1.62386 0.00427574  -0.353862 -1.60124 0.00321347  -0.35323 -1.60023 0.00399697  -0.306386 -1.62281 0.00520271  -0.329571 -1.67452 0.00379062  -0.354423 -1.60214 0.00243443  -0.377251 -1.65257 0.00209332  -0.307456 -1.62483 0.00334036  -0.376743 -1.6517 0.00282258  -0.376189 -1.65077 0.00356996  -0.352425 -1.72517 0.00329757  -0.399799 -1.70219 0.00240123  -0.399288 -1.7013 0.00308454  -0.351972 -1.72425 0.00409341  -0.375499 -1.77583 0.00283504  -0.400248 -1.70298 0.00172824  -0.423499 -1.75345 0.00140482  -0.352826 -1.72603 0.00248295  -0.42309 -1.75269 0.00203294  -0.422664 -1.75189 0.00268126  -0.398754 -1.82647 0.00237501  -0.446523 -1.80319 0.00163668  -0.446131 -1.80243 0.00222182  -0.398414 -1.82567 0.00305009  -0.422197 -1.87708 0.0019415  -0.446873 -1.80387 0.00105733  -0.470453 -1.85434 0.000750065  -0.399055 -1.82721 0.00168067  -0.470144 -1.85368 0.0012821  -0.469826 -1.85299 0.00183314  -0.445775 -1.92766 0.00150621  -0.49386 -1.90415 0.000913978  -0.493575 -1.90349 0.00140727  -0.445523 -1.92697 0.00208318  -0.469486 -1.9782 0.00111139  -0.494113 -1.90474 0.000423193  -0.517961 -1.95516 0.000131428  -0.445984 -1.9283 0.000925601  -0.517732 -1.95459 0.00058198  -0.517502 -1.954 0.00105625  -0.493303 -2.02869 0.000707507  -0.541659 -2.00499 0.000239253  -0.541464 -2.00443 0.000646889  -0.493147 -2.0281 0.00117666  -0.517228 -2.07912 0.000329554  -0.54185 -2.00551 -0.000176907  -0.565871 -2.05585 -0.000451505  -0.493447 -2.02925 0.000223935  -0.565711 -2.05535 -7.39694e-05  -0.565571 -2.05485 0.000318348  -0.541218 -2.12949 -3.95179e-05  -0.589796 -2.10567 -0.000401378  -0.589671 -2.10519 -6.00815e-05  -0.541128 -2.129 0.000345826  -0.565279 -2.1798 -0.000382841  -0.589911 -2.1061 -0.000741005  -0.614053 -2.15634 -0.000996232  -0.541294 -2.12998 -0.000431776  -0.613967 -2.15592 -0.000697315  -0.613895 -2.15549 -0.000379384  -0.589382 -2.23003 -0.000722826  -0.638135 -2.2061 -0.000989914  -0.638086 -2.2057 -0.000718594  -0.589356 -2.22962 -0.000423014  -0.613534 -2.28019 -0.00103462  -0.63819 -2.20648 -0.00126362  -0.662412 -2.25659 -0.00150245  -0.589408 -2.23044 -0.00103462  -0.662368 -2.25623 -0.0012657  -0.662354 -2.25587 -0.00101686  -0.637696 -2.33026 -0.00134581  -0.686579 -2.30627 -0.00154334  -0.68657 -2.30593 -0.00133681  -0.637716 -2.32991 -0.00112456  -0.66188 -2.38025 -0.00164014  -0.686597 -2.30659 -0.00175202  -0.710838 -2.35656 -0.00197321  -0.637673 -2.33062 -0.00158346  -0.710836 -2.35625 -0.00179851  -0.710867 -2.35595 -0.00160944  -0.686059 -2.43015 -0.00191706  -0.735049 -2.40614 -0.00205302  -0.73509 -2.40586 -0.00190574  -0.686116 -2.42987 -0.00175643  -0.71024 -2.47997 -0.00218362  -0.735027 -2.40641 -0.00220561  -0.759258 -2.45623 -0.00241435  -0.686005 -2.43047 -0.00208962  -0.759286 -2.45595 -0.00229472  -0.759353 -2.45571 -0.00215858  -0.734394 -2.5297 -0.00243545  -0.783476 -2.50567 -0.00253224  -0.783541 -2.50543 -0.00243181  -0.734477 -2.52945 -0.00233513  -0.758546 -2.57933 -0.00268596  -0.78342 -2.50591 -0.00263023  -0.807613 -2.55556 -0.00282663  -0.734317 -2.52997 -0.00255156  -0.807673 -2.55531 -0.00276619  -0.807764 -2.55509 -0.00268489  -0.782659 -2.62887 -0.00292522  -0.831801 -2.60485 -0.0029878  -0.831893 -2.60464 -0.00293809  -0.782758 -2.62866 -0.00287974  -0.806758 -2.67833 -0.00316352  -0.831735 -2.60507 -0.00303721  -0.855853 -2.65454 -0.00323224  -0.782567 -2.62913 -0.00298363  -0.855926 -2.65431 -0.0032174  -0.856039 -2.65413 -0.00318062  -0.830797 -2.72769 -0.00339949  -0.879965 -2.70368 -0.00343746  -0.880073 -2.70347 -0.00342947  -0.830913 -2.72748 -0.00341749  -0.854798 -2.77699 -0.00364661  -0.879888 -2.70389 -0.003438  -0.903887 -2.75321 -0.00362736  -0.8307 -2.72795 -0.00340742  -0.903955 -2.75297 -0.00366199  -0.904075 -2.75277 -0.0036701  0 0 0  0.0060555 -0.0162117 0.0171477  0.00541515 -0.0112742 0.0152664  0.0108948 -0.0093894 0.0231051  0.012959 -0.0137061 0.0270112  0.023215 -0.0313514 0.0303856  0.00526717 -0.0129665 0.0116212  0.0165332 -0.026977 0.0205283  0 0 0  0 0 0  0.00590035 -0.0179829 0.0131858  0 0 0  0.0187148 -0.0242654 0.0266242  0.0241028 -0.0204964 0.0332456  0.0398753 -0.0484936 0.0355676  0.0325485 -0.0402437 0.0309073  0.0363915 -0.0353909 0.0364469  0.0443355 -0.0434608 0.0423625  0.0560367 -0.0667911 0.0387706  0.030064 -0.043807 0.0249863  0.0436935 -0.0621126 0.0275105  0.0370795 -0.0520922 0.0286878  0.0461532 -0.0577951 0.0334294  0.0493913 -0.0522808 0.0392103  0.0710847 -0.0870275 0.0401995  0.0592163 -0.0777411 0.0343723  0.0618652 -0.0716359 0.0398169  0.0738738 -0.0810009 0.0466094  0.0848069 -0.109704 0.0408764  0.0570252 -0.0824815 0.028864  0.0689482 -0.105182 0.0292597  0.0687504 -0.0918207 0.0336601  0.0710775 -0.100069 0.0347391  0.0735056 -0.0937434 0.0402891  0.0974106 -0.134639 0.0407839  0.0818479 -0.124752 0.034521  0.0841719 -0.118258 0.0399225  0.0997031 -0.128271 0.0470834  0.108525 -0.162057 0.0404367  0.0797935 -0.129971 0.0292416  0.0891593 -0.157164 0.0289133  0.0953693 -0.139859 0.0345089  0.0912198 -0.15185 0.0341122  0.0934822 -0.145394 0.0394635  0.118301 -0.191672 0.0396297  0.0992318 -0.18113 0.0333729  0.101549 -0.17473 0.0386043  0.120486 -0.185394 0.0457124  0.126521 -0.223499 0.0387741  0.0971697 -0.186381 0.0283142  0.10368 -0.217783 0.0276707  0.116325 -0.196893 0.0336306  0.105764 -0.212586 0.0326105  0.108054 -0.206367 0.0377131  0.133257 -0.257288 0.0376356  0.110823 -0.245957 0.0316346  0.1132 -0.239908 0.0366076  0.135448 -0.251327 0.0434209  0.138415 -0.292959 0.0365322  0.108734 -0.250995 0.0268352  0.112264 -0.286103 0.0260515  0.131282 -0.262288 0.0319547  0.114376 -0.2812 0.0307133  0.116709 -0.275398 0.0355257  0.142038 -0.330291 0.0352603  0.11644 -0.31806 0.0296392  0.118839 -0.312474 0.0343018  0.144237 -0.324765 0.0406869  0.144101 -0.369196 0.034047  0.114331 -0.322757 0.0251271  0.114895 -0.361017 0.0242836  0.140062 -0.334963 0.0299304  0.117001 -0.35649 0.0286453  0.119341 -0.351177 0.0331401  0.144655 -0.409469 0.0327311  0.116133 -0.396253 0.0275409  0.118514 -0.391167 0.031877  0.146833 -0.404413 0.037775  0.143715 -0.451041 0.0314857  0.114045 -0.400558 0.0233378  0.111742 -0.441446 0.0224748  0.142707 -0.413766 0.0277727  0.113805 -0.437317 0.0265282  0.116101 -0.432505 0.0306962  0.141338 -0.493719 0.0301684  0.110137 -0.479466 0.0254254  0.112453 -0.47488 0.0294334  0.143451 -0.489135 0.0348224  0.137551 -0.537458 0.028931  0.108113 -0.483372 0.021532  0.103111 -0.526414 0.0206779  0.139445 -0.49763 0.025584  0.105096 -0.522685 0.0244219  0.10731 -0.518361 0.0282681  0.132429 -0.582082 0.0276423  0.0988249 -0.566778 0.0233417  0.101025 -0.562667 0.0270228  0.134445 -0.57795 0.0319163  0.126006 -0.627569 0.0264343  0.0968879 -0.570297 0.019753  0.0893897 -0.615098 0.0189134  0.130623 -0.58562 0.0234265  0.0912731 -0.611743 0.0223573  0.0933609 -0.607873 0.025883  0.118367 -0.673751 0.0251906  0.0826075 -0.657403 0.0213084  0.0846728 -0.653722 0.0246739  0.120263 -0.670038 0.0290958  0.109535 -0.720634 0.0240216  0.0807846 -0.660562 0.0180145  0.0710135 -0.706783 0.0171977  0.116665 -0.676938 0.0213338  0.072765 -0.703775 0.0203501  0.0747112 -0.700317 0.0235738  0.0996031 -0.768055 0.022827  0.0619283 -0.7507 0.0193403  0.0638405 -0.74741 0.022409  0.101355 -0.764724 0.0263783  0.0885899 -0.816041 0.0217059  0.0602407 -0.753525 0.0163304  0.0484059 -0.800894 0.0155397  0.098022 -0.770918 0.0193117  0.0500219 -0.798199 0.0184157  0.0518103 -0.795106 0.021351  0.0765959 -0.864442 0.0205674  0.0372279 -0.846132 0.0174474  0.0389774 -0.843191 0.0202361  0.0781997 -0.861457 0.0237876  0.0636204 -0.913295 0.0194989  0.0356842 -0.848662 0.0147086  0.021997 -0.896941 0.0139498  0.0751462 -0.867012 0.017373  0.0234705 -0.894529 0.016565  0.0250885 -0.891768 0.019225  0.0497754 -0.962462 0.0184173  0.00892687 -0.943263 0.0156386  0.0104946 -0.94064 0.0181574  0.0512226 -0.959795 0.0213207  0.0350586 -1.01199 0.0173996  0.00752962 -0.945523 0.0131546  -0.00780439 -0.994522 0.0124283  0.0484711 -0.964768 0.0155316  -0.00648308 -0.992365 0.0147916  -0.0050298 -0.989905 0.017198  0.0195792 -1.06175 0.0163774  -0.0225803 -1.04173 0.0139079  -0.0211757 -1.03939 0.016183  0.0208607 -1.05936 0.0189826  0.00330901 -1.11178 0.015411  -0.0238303 -1.04375 0.0116692  -0.0406324 -1.09331 0.010974  0.0184048 -1.06381 0.0137753  -0.039449 -1.09138 0.0131029  -0.03816 -1.08919 0.0152658  -0.0136269 -1.16199 0.014442  -0.0569179 -1.14123 0.0122684  -0.0556787 -1.13915 0.014308  -0.0124898 -1.15986 0.0167788  -0.0312487 -1.21241 0.0135338  -0.0580232 -1.14303 0.0102561  -0.0761108 -1.19302 0.00959909  -0.0146569 -1.16384 0.0121143  -0.0750744 -1.19131 0.011502  -0.0739492 -1.18936 0.01344  -0.0494666 -1.26293 0.0126215  -0.093748 -1.24152 0.0107128  -0.092678 -1.23967 0.0125293  -0.0484774 -1.26104 0.0147011  -0.0682847 -1.31362 0.0117622  -0.0947132 -1.24312 0.00891304  -0.113926 -1.29343 0.00829178  -0.0503647 -1.26458 0.0105443  -0.113029 -1.29191 0.00998563  -0.112052 -1.29018 0.0117117  -0.0876079 -1.36438 0.010903  -0.132753 -1.34239 0.00924122  -0.131821 -1.34074 0.0108618  -0.0867639 -1.36268 0.0127413  -0.107455 -1.41524 0.0100933  -0.133581 -1.3438 0.00764292  -0.153773 -1.39435 0.00705367  -0.0883775 -1.36584 0.0090636  -0.153007 -1.39298 0.00855404  -0.152181 -1.39146 0.01008  -0.127747 -1.46613 0.00928682  -0.173637 -1.44364 0.0078547  -0.172861 -1.44219 0.00927377  -0.127047 -1.46463 0.0109053  -0.148494 -1.5171 0.00853175  -0.174338 -1.44491 0.00644422  -0.195375 -1.49559 0.00588602  -0.128396 -1.46744 0.00766402  -0.194732 -1.49438 0.00720602  -0.194052 -1.49303 0.00855154  -0.169611 -1.56806 0.00777417  -0.216133 -1.54515 0.00654233  -0.21549 -1.54386 0.00779182  -0.169031 -1.56674 0.00918883  -0.191109 -1.61906 0.00706387  -0.216717 -1.54626 0.00530642  -0.238469 -1.59703 0.00478822  -0.17014 -1.56922 0.0063585  -0.237936 -1.59596 0.00593996  -0.23738 -1.59477 0.00711  -0.212926 -1.67003 0.00635761  -0.259997 -1.64677 0.00531423  -0.259487 -1.64564 0.00639212  -0.212476 -1.66887 0.00757545  -0.23507 -1.72102 0.00569195  -0.260476 -1.64775 0.00424284  -0.282825 -1.69854 0.00375372  -0.21335 -1.67106 0.00513548  -0.282399 -1.6976 0.00474411  -0.28197 -1.69655 0.00575525  -0.257472 -1.77196 0.00502896  -0.305008 -1.7484 0.00416368  -0.304608 -1.74741 0.00508976  -0.257127 -1.77093 0.00607055  -0.280144 -1.82288 0.00441378  -0.305372 -1.74927 0.00324225  -0.328217 -1.80003 0.00277972  -0.257794 -1.77286 0.0039807  -0.327891 -1.7992 0.00362718  -0.327574 -1.79829 0.00449663  -0.303023 -1.87373 0.00380367  -0.350941 -1.84996 0.00309199  -0.350655 -1.84909 0.00387371  -0.302781 -1.87284 0.00468361  -0.326129 -1.92456 0.0032264  -0.351217 -1.85071 0.00230545  -0.374464 -1.90141 0.00187552  -0.303254 -1.87453 0.00291437  -0.374229 -1.90069 0.00258732  -0.374007 -1.89989 0.00331962  -0.349392 -1.9753 0.0026632  -0.39763 -1.95135 0.00208831  -0.397433 -1.95061 0.00274563  -0.349239 -1.97453 0.00339371  -0.372838 -2.02599 0.00213391  -0.397826 -1.952 0.00143313  -0.421395 -2.00261 0.00103283  -0.349548 -1.97599 0.00192279  -0.421228 -2.00198 0.00162613  -0.421089 -2.0013 0.00223786  -0.396402 -2.07659 0.00161481  -0.444903 -2.05253 0.00116265  -0.444779 -2.05189 0.00170863  -0.396322 -2.07594 0.00220507  -0.42011 -2.12714 0.00112718  -0.445024 -2.0531 0.000623703  -0.468826 -2.10358 0.000254989  -0.396489 -2.0772 0.00101388  -0.468724 -2.10303 0.000735283  -0.468661 -2.10245 0.00123316  -0.443901 -2.17758 0.000657082  -0.4926 -2.15345 0.000310838  -0.492552 -2.1529 0.000747263  -0.44388 -2.17703 0.00113171  -0.467794 -2.22796 0.000215471  -0.492668 -2.15393 -0.000121593  -0.516635 -2.20426 -0.000457227  -0.443925 -2.17811 0.000179112  -0.516594 -2.2038 -8.27909e-05  -0.516585 -2.20331 0.000313222  -0.491734 -2.27822 -0.000207782  -0.540599 -2.25405 -0.000465333  -0.5406 -2.25359 -0.000119865  -0.491764 -2.27776 0.000157118  -0.515749 -2.32841 -0.000606179  -0.540612 -2.25446 -0.000796914  -0.564688 -2.30463 -0.00110704  -0.491717 -2.27867 -0.000581086  -0.56469 -2.30423 -0.000818968  -0.564738 -2.30383 -0.000512183  -0.539786 -2.37849 -0.000980556  -0.588778 -2.35431 -0.00115961  -0.58883 -2.35393 -0.000904083  -0.539865 -2.37812 -0.000714958  -0.563879 -2.42849 -0.00133342  -0.588752 -2.35467 -0.0014112  -0.612888 -2.40466 -0.00169086  -0.539738 -2.37888 -0.0012579  -0.612928 -2.40432 -0.00148284  -0.61301 -2.40398 -0.00125802  -0.587965 -2.47838 -0.00166726  -0.637042 -2.45422 -0.0017904  -0.637119 -2.4539 -0.00160891  -0.588061 -2.47807 -0.00148016  -0.612072 -2.52818 -0.00197673  -0.63699 -2.45452 -0.00196654  -0.661139 -2.50433 -0.00221866  -0.587887 -2.47872 -0.0018627  -0.661195 -2.50403 -0.00207859  -0.661296 -2.50375 -0.00192082  -0.63616 -2.57788 -0.0022648  -0.685305 -2.55375 -0.00235021  -0.685401 -2.55347 -0.00222921  -0.636264 -2.57762 -0.00215012  -0.660254 -2.62749 -0.00253975  -0.685234 -2.55401 -0.00246465  -0.709362 -2.60365 -0.00268966  -0.636067 -2.57818 -0.00239217  -0.709435 -2.60338 -0.0026148  -0.709546 -2.60314 -0.00251782  -0.684314 -2.677 -0.00279772  -0.733516 -2.65291 -0.00286645  -0.733619 -2.65266 -0.00281066  -0.684422 -2.67677 -0.00274563  -0.708382 -2.72643 -0.0030629  -0.733426 -2.65315 -0.0029214  -0.757514 -2.70261 -0.00313753  -0.684209 -2.67728 -0.00286472  -0.757597 -2.70235 -0.00311875  -0.75773 -2.70214 -0.00308573  -0.732414 -2.77579 -0.00330329  -0.781628 -2.75172 -0.00335538  -0.781746 -2.75148 -0.00336128  -0.732529 -2.77556 -0.00331467  -0.756446 -2.8251 -0.00356996  -0.78154 -2.75196 -0.00336057  -0.805565 -2.80129 -0.00358522  -0.732309 -2.77607 -0.00331795  -0.805639 -2.80103 -0.00362182  -0.805768 -2.8008 -0.00363851  0 0 0  0.00989201 -0.0311164 0.0227542  0.00912754 -0.0222223 0.0200487  0.0155344 -0.0192304 0.0302801  0.0191855 -0.0255129 0.0374195  0.0376389 -0.0522639 0.0367065  0.00881779 -0.0242898 0.0150821  0.0262806 -0.0442911 0.0263216  0 0 0  0 0 0  0.00926857 -0.0334098 0.0168177  0 0 0  0.028499 -0.0408176 0.0339749  0.0342271 -0.0365251 0.0421633  0.059234 -0.067576 0.0444092  0.048199 -0.0576414 0.039953  0.0527437 -0.0523882 0.0477664  0.0630444 -0.0623783 0.053279  0.0785543 -0.0871388 0.0496152  0.0457869 -0.061661 0.032436  0.0637796 -0.0812958 0.036237  0.057579 -0.0725881 0.0362009  0.0663171 -0.0766504 0.0439609  0.0697918 -0.0709823 0.05178  0.0973472 -0.107304 0.0516148  0.0834844 -0.0968719 0.0458633  0.0863475 -0.0908065 0.0533271  0.100089 -0.101305 0.0600397  0.114674 -0.130668 0.0530248  0.0813391 -0.101807 0.0385697  0.0970627 -0.12503 0.0394891  0.0956827 -0.112599 0.0433062  0.0991688 -0.119911 0.0468525  0.101641 -0.113672 0.0543953  0.130881 -0.156199 0.0529843  0.113613 -0.145124 0.0469096  0.115878 -0.138793 0.0541861  0.133115 -0.149968 0.0612538  0.145623 -0.184382 0.0527068  0.111619 -0.1503 0.0397897  0.124606 -0.178101 0.0395209  0.129053 -0.16145 0.0448495  0.126578 -0.172903 0.0465632  0.128717 -0.166599 0.0537924  0.158866 -0.214833 0.0517141  0.138096 -0.202912 0.0457133  0.140195 -0.196681 0.0527153  0.160924 -0.208728 0.0596493  0.170523 -0.247546 0.0506293  0.136149 -0.208025 0.0388641  0.146108 -0.240203 0.0380332  0.156958 -0.219904 0.0439006  0.148043 -0.235157 0.0447316  0.150099 -0.22908 0.0516002  0.180543 -0.282298 0.0491738  0.156429 -0.269401 0.0434487  0.158507 -0.26348 0.0500844  0.182552 -0.2765 0.0566751  0.188886 -0.318934 0.0477027  0.154501 -0.274281 0.036951  0.161268 -0.310302 0.0358554  0.178616 -0.287078 0.0417846  0.163187 -0.305535 0.042159  0.165229 -0.299839 0.0486121  0.195555 -0.357295 0.046056  0.168348 -0.343363 0.0406914  0.170427 -0.337859 0.0469087  0.197553 -0.351906 0.0530639  0.200526 -0.397224 0.0444168  0.166433 -0.347924 0.0346007  0.169975 -0.387185 0.0333984  0.193634 -0.361741 0.0391421  0.171876 -0.382767 0.0392776  0.173907 -0.377513 0.0452877  0.203873 -0.438559 0.0427064  0.173843 -0.423558 0.0377439  0.1759 -0.418506 0.0435178  0.205837 -0.4336 0.0491945  0.205552 -0.481182 0.0410143  0.171952 -0.427759 0.0320827  0.172363 -0.469699 0.0308462  0.201979 -0.442643 0.0362945  0.174226 -0.46565 0.0362895  0.176218 -0.460854 0.0418435  0.205703 -0.524922 0.0393057  0.173135 -0.508851 0.0347587  0.175133 -0.504251 0.0400755  0.207608 -0.5204 0.0452679  0.204263 -0.569712 0.0376202  0.171297 -0.512681 0.0295322  0.168739 -0.556793 0.028303  0.203871 -0.528645 0.0334002  0.170534 -0.553118 0.033312  0.172451 -0.548765 0.0384206  0.201419 -0.615374 0.0359529  0.16657 -0.598258 0.0318156  0.168482 -0.594095 0.0366946  0.20324 -0.611275 0.041407  0.19708 -0.661886 0.0343131  0.164814 -0.601726 0.0270216  0.159498 -0.647588 0.0258196  0.199667 -0.618745 0.0305437  0.161206 -0.644262 0.0304042  0.163019 -0.640335 0.0350752  0.191475 -0.709059 0.0327061  0.154599 -0.690943 0.0289624  0.156401 -0.687191 0.0334159  0.193189 -0.705359 0.037673  0.184477 -0.756921 0.0311331  0.152944 -0.694072 0.0245799  0.145103 -0.741317 0.0234237  0.189819 -0.712104 0.0277734  0.146704 -0.738323 0.0276057  0.148396 -0.734786 0.0318558  0.176357 -0.805276 0.0295933  0.137693 -0.786217 0.0262205  0.139358 -0.782838 0.0302655  0.177947 -0.801942 0.0340903  0.166963 -0.854182 0.0280896  0.136152 -0.789034 0.0222341  0.126025 -0.837371 0.0211253  0.174823 -0.808021 0.0251141  0.127504 -0.834671 0.0249205  0.129059 -0.831492 0.0287737  0.156572 -0.903453 0.0266277  0.116323 -0.883515 0.0236099  0.117849 -0.880476 0.0272664  0.158022 -0.900444 0.0306886  0.145021 -0.95316 0.0252014  0.114911 -0.886045 0.0199967  0.10273 -0.935229 0.0189418  0.155166 -0.90592 0.0225777  0.104072 -0.932804 0.0223697  0.105482 -0.929949 0.0258486  0.132595 -1.00311 0.0238224  0.0909469 -0.982379 0.0211282  0.0923271 -0.979652 0.024428  0.133895 -1.00041 0.0274697  0.119116 -1.05342 0.0224752  0.0896691 -0.984648 0.0178699  0.0756556 -1.03448 0.0168655  0.131321 -1.00533 0.0201771  0.0768646 -1.0323 0.019953  0.0781289 -1.02975 0.0230866  0.104881 -1.10389 0.0211734  0.0620149 -1.08243 0.0187798  0.0632398 -1.07998 0.0217395  0.106052 -1.10146 0.0244443  0.0897028 -1.15462 0.0199071  0.0608716 -1.08447 0.0158537  0.0452242 -1.13478 0.0149087  0.103741 -1.10588 0.017902  0.0463042 -1.13283 0.017674  0.0474226 -1.13053 0.02048  0.0738688 -1.20546 0.0186842  0.0299231 -1.18336 0.0165681  0.0310032 -1.18117 0.0192153  0.0748796 -1.20328 0.0215936  0.0571856 -1.25649 0.0174946  0.0289091 -1.18518 0.0139493  0.011831 -1.23585 0.0130619  0.0728593 -1.20725 0.015765  0.0127773 -1.2341 0.0155234  0.0137503 -1.23205 0.0180236  0.0399323 -1.30757 0.0163487  -0.00494981 -1.28492 0.0144846  -0.00401187 -1.28295 0.0168375  0.0408015 -1.30562 0.0189273  0.0219235 -1.3588 0.0152258  -0.00582552 -1.28655 0.0121592  -0.0241659 -1.33745 0.0113177  0.039052 -1.30917 0.0137537  -0.0233505 -1.33588 0.0135008  -0.0225186 -1.33405 0.0157169  0.00343704 -1.41002 0.014151  -0.0422499 -1.38689 0.0125276  -0.0414512 -1.38513 0.0146073  0.00418711 -1.40828 0.0164244  -0.0157089 -1.46135 0.0131019  -0.0430021 -1.38834 0.0104696  -0.0624421 -1.43939 0.00968564  0.00268745 -1.41145 0.0118597  -0.0617454 -1.438 0.0116044  -0.0610464 -1.43636 0.0135587  -0.035264 -1.51264 0.012094  -0.0816574 -1.4891 0.0106961  -0.0810013 -1.48754 0.0125117  -0.0346529 -1.51109 0.014078  -0.0554166 -1.56399 0.0111076  -0.0822952 -1.49039 0.00889152  -0.102677 -1.54151 0.00815082  -0.0359013 -1.51391 0.0100898  -0.102101 -1.54026 0.00982755  -0.101539 -1.53882 0.0115324  -0.0758982 -1.61528 0.0101712  -0.122903 -1.5914 0.00897235  -0.122366 -1.59002 0.0105591  -0.0754197 -1.6139 0.0118867  -0.0968969 -1.66659 0.00926059  -0.123413 -1.59255 0.00740618  -0.144614 -1.64368 0.00671381  -0.0764165 -1.61641 0.00843328  -0.144145 -1.64257 0.0081659  -0.143698 -1.64129 0.00964552  -0.11817 -1.71782 0.0083878  -0.16568 -1.69369 0.00737149  -0.165269 -1.69247 0.00873649  -0.117801 -1.71661 0.00986099  -0.13989 -1.76905 0.00753528  -0.166092 -1.6947 0.00601941  -0.187983 -1.74578 0.00536907  -0.118583 -1.71882 0.00689089  -0.187615 -1.74481 0.00660956  -0.187285 -1.74368 0.00787807  -0.161833 -1.82018 0.0067209  -0.209778 -1.79585 0.005876  -0.209469 -1.79478 0.00703728  -0.161563 -1.81912 0.00797182  -0.184163 -1.87129 0.00593483  -0.210098 -1.79674 0.00472099  -0.232554 -1.84773 0.00411975  -0.162152 -1.82106 0.0054462  -0.232274 -1.84687 0.00517493  -0.232045 -1.84589 0.00624806  -0.206649 -1.92228 0.00518882  -0.254952 -1.89781 0.00449401  -0.254739 -1.89688 0.00547403  -0.206464 -1.92136 0.00623852  -0.229476 -1.97323 0.00445777  -0.255182 -1.89859 0.00352299  -0.278107 -1.94946 0.00297463  -0.206878 -1.92305 0.00412452  -0.277915 -1.94871 0.00385171  -0.277779 -1.94786 0.00474262  -0.25242 -2.02405 0.00377357  -0.301019 -1.9995 0.00321716  -0.300897 -1.99869 0.00402963  -0.252331 -2.02325 0.00462359  -0.275652 -2.07483 0.0030964  -0.30116 -2.00019 0.00241965  -0.324466 -2.0509 0.00190479  -0.252563 -2.02473 0.00289744  -0.324347 -2.05025 0.00262153  -0.324282 -2.04952 0.00336528  -0.298948 -2.12547 0.00248438  -0.347776 -2.10089 0.002051  -0.347728 -2.10019 0.00270194  -0.298941 -2.12478 0.00316745  -0.322496 -2.17604 0.00187224  -0.347863 -2.10147 0.00140095  -0.371459 -2.15202 0.000938416  -0.299023 -2.12605 0.00177699  -0.371398 -2.15146 0.00150406  -0.371401 -2.15082 0.00209159  -0.346079 -2.22647 0.00131798  -0.39508 -2.20191 0.000990808  -0.395092 -2.20131 0.00150913  -0.346132 -2.22589 0.00183976  -0.369859 -2.27684 0.000763237  -0.395108 -2.20241 0.000477135  -0.418914 -2.25277 5.53131e-05  -0.346096 -2.22698 0.000765443  -0.418911 -2.25229 0.000493288  -0.418968 -2.25176 0.000950217  -0.393644 -2.32706 0.000273347  -0.442772 -2.30254 3.31998e-05  -0.442832 -2.30204 0.00043273  -0.393736 -2.32659 0.000664294  -0.417581 -2.37722 -0.00020498  -0.442754 -2.30297 -0.000356615  -0.466709 -2.35314 -0.000731885  -0.393607 -2.3275 -0.000145078  -0.466745 -2.35272 -0.000404119  -0.466842 -2.35229 -5.79953e-05  -0.441504 -2.42723 -0.000647128  -0.490719 -2.40278 -0.000812173  -0.490817 -2.40237 -0.000519931  -0.441632 -2.42683 -0.000376403  -0.465557 -2.47716 -0.00107896  -0.490667 -2.40315 -0.00109947  -0.514717 -2.45311 -0.00142419  -0.441434 -2.42761 -0.000947654  -0.514786 -2.45275 -0.00119853  -0.514913 -2.4524 -0.000955284  -0.489564 -2.52697 -0.00143409  -0.538833 -2.50261 -0.00154924  -0.538937 -2.50227 -0.0013423  -0.489712 -2.52664 -0.00126648  -0.513664 -2.57669 -0.00180858  -0.538742 -2.50293 -0.00174177  -0.562831 -2.5527 -0.00202763  -0.48947 -2.52729 -0.00164253  -0.562919 -2.55239 -0.00188702  -0.563061 -2.55209 -0.00172913  -0.537702 -2.6263 -0.00211269  -0.586981 -2.60205 -0.00218678  -0.587099 -2.60176 -0.00206  -0.53785 -2.62602 -0.00201797  -0.561792 -2.67582 -0.00241512  -0.586888 -2.60233 -0.00230557  -0.610973 -2.65191 -0.00255179  -0.537588 -2.6266 -0.00223273  -0.611064 -2.65162 -0.00247931  -0.611197 -2.65138 -0.0023858  -0.585831 -2.72527 -0.00267798  -0.635108 -2.70111 -0.00274032  -0.635229 -2.70085 -0.00268185  -0.585972 -2.72502 -0.00265366  -0.609896 -2.77464 -0.00294459  -0.63501 -2.70136 -0.00279832  -0.659068 -2.75079 -0.00302285  -0.585723 -2.72555 -0.00274187  -0.65916 -2.75052 -0.00300503  -0.659288 -2.75029 -0.00296587  -0.633924 -2.82397 -0.00317681  -0.68319 -2.79987 -0.00324839  -0.683305 -2.79961 -0.00324386  -0.634023 -2.82372 -0.00317359  -0.657979 -2.87327 -0.00343746  -0.683097 -2.80012 -0.00325257  -0.707153 -2.84946 -0.0034852  -0.633814 -2.82426 -0.00318819  -0.707231 -2.84918 -0.00351858  -0.707352 -2.84893 -0.00352192  -0.0039393 -0.00519124 -0.0111012  -0.00493781 -0.00982832 -0.0133786  -0.0139008 -0.0152077 -0.0208409  -0.00526169 -0.0110464 -0.0105537  -0.0217694 -0.0277646 -0.0190266  -0.0209555 -0.0250053 -0.0124052  0 0 0  -0.0195627 -0.0227333 -0.0157327  0 0 0  0 0 0  -0.00387544 -0.00595934 -0.00844395  0 0 0  -0.0377617 -0.035213 -0.029533  -0.0211066 -0.024524 -0.0249895  -0.0273055 -0.0261903 -0.0277906  -0.0375095 -0.0344301 -0.0330942  -0.0411469 -0.0381184 -0.0323845  -0.0381132 -0.0388567 -0.0255409  -0.0550937 -0.0512535 -0.0302208  -0.0563383 -0.0476608 -0.029841  -0.0543613 -0.0427486 -0.0382759  -0.0270304 -0.0301353 -0.0214169  -0.0735642 -0.0537727 -0.0451553  -0.0545495 -0.0456247 -0.038536  -0.0557831 -0.052896 -0.0350556  -0.0716759 -0.058325 -0.0416772  -0.0700354 -0.0691259 -0.0362596  -0.0722938 -0.0643858 -0.032935  -0.0895803 -0.0794803 -0.0343823  -0.0934964 -0.0710023 -0.0383214  -0.0921057 -0.0645385 -0.0484981  -0.0559537 -0.0582163 -0.0278158  -0.11165 -0.078494 -0.050097  -0.0887683 -0.0732748 -0.0429198  -0.0846561 -0.0881102 -0.036355  -0.106023 -0.090675 -0.043144  -0.0994949 -0.10903 -0.0357456  -0.107228 -0.0967915 -0.0347216  -0.124878 -0.116039 -0.0342216  -0.132543 -0.100847 -0.0402529  -0.131074 -0.0943004 -0.0501886  -0.0857503 -0.0934796 -0.0294045  -0.150614 -0.112379 -0.0490395  -0.123362 -0.110251 -0.0421938  -0.114704 -0.132046 -0.0345623  -0.140955 -0.131995 -0.0409027  -0.130403 -0.15687 -0.0331083  -0.14283 -0.137438 -0.0332603  -0.160851 -0.160534 -0.0318602  -0.172235 -0.138586 -0.0384483  -0.170389 -0.132713 -0.0474744  -0.116592 -0.13693 -0.0282326  -0.189952 -0.154702 -0.045189  -0.158734 -0.155529 -0.0390187  -0.14647 -0.183354 -0.0314311  -0.176791 -0.180864 -0.0371065  -0.163024 -0.211363 -0.0296887  -0.17911 -0.185468 -0.030333  -0.197504 -0.211855 -0.0286416  -0.212041 -0.183734 -0.0349891  -0.20987 -0.178746 -0.0429666  -0.148842 -0.187583 -0.0257933  -0.229555 -0.204148 -0.0403898  -0.19504 -0.20767 -0.0349577  -0.179955 -0.240779 -0.0279339  -0.213589 -0.236008 -0.0329263  -0.1973 -0.271477 -0.026205  -0.216122 -0.239826 -0.0269786  -0.234915 -0.269054 -0.0253111  -0.251962 -0.235436 -0.0310898  -0.249609 -0.231301 -0.0380707  -0.182544 -0.244358 -0.0229639  -0.269523 -0.259657 -0.0356049  -0.232322 -0.265601 -0.0308504  -0.21504 -0.303425 -0.0245722  -0.251383 -0.296528 -0.0289411  -0.233132 -0.336483 -0.0229903  -0.253954 -0.299678 -0.0237361  -0.27319 -0.331413 -0.0222226  -0.292183 -0.292893 -0.0273498  -0.289788 -0.289497 -0.0334371  -0.217661 -0.306429 -0.020209  -0.310022 -0.320426 -0.0312359  -0.270625 -0.328562 -0.0270744  -0.251626 -0.370664 -0.0215439  -0.29021 -0.361784 -0.0253785  -0.270442 -0.405826 -0.0201526  -0.292705 -0.364388 -0.0208229  -0.312442 -0.398362 -0.0195055  -0.332923 -0.35545 -0.0239934  -0.330585 -0.35265 -0.0293097  -0.254165 -0.373181 -0.0177256  -0.351205 -0.38587 -0.0273994  -0.309992 -0.395995 -0.023746  -0.28966 -0.442008 -0.0189031  -0.330126 -0.431277 -0.0222808  -0.309188 -0.479069 -0.0177004  -0.332476 -0.433451 -0.0182927  -0.352745 -0.469438 -0.0171623  -0.374362 -0.422564 -0.0210827  -0.372155 -0.420233 -0.0257338  -0.292049 -0.444128 -0.0155632  -0.393206 -0.455501 -0.0240957  -0.350467 -0.467457 -0.0208787  -0.329108 -0.517055 -0.0166324  -0.371158 -0.504606 -0.0196124  -0.34932 -0.55583 -0.0155987  -0.373333 -0.506437 -0.0161263  -0.394157 -0.544248 -0.0151532  -0.416629 -0.493771 -0.0185866  -0.414587 -0.491812 -0.0226587  -0.331308 -0.518851 -0.0137129  -0.436087 -0.528934 -0.0212414  -0.392062 -0.542567 -0.0184036  -0.369911 -0.595438 -0.0146755  -0.413311 -0.581405 -0.0173104  -0.390779 -0.635755 -0.013778  -0.415292 -0.582957 -0.0142627  -0.436659 -0.622404 -0.0134237  -0.459787 -0.568673 -0.0164328  -0.457912 -0.567006 -0.0199923  -0.371918 -0.596971 -0.012132  -0.479882 -0.605812 -0.0187682  -0.43476 -0.620976 -0.0162598  -0.412005 -0.676824 -0.0129783  -0.456549 -0.66134 -0.0153106  -0.433498 -0.718532 -0.0121986  -0.458337 -0.662665 -0.0126533  -0.480237 -0.703588 -0.0119214  -0.503842 -0.6469 -0.0145734  -0.502154 -0.645479 -0.017681  -0.41381 -0.678136 -0.0107678  -0.524569 -0.685809 -0.016607  -0.478535 -0.702364 -0.0143946  -0.455316 -0.760911 -0.011501  -0.50083 -0.744107 -0.0135639  -0.477384 -0.803858 -0.0108205  -0.502432 -0.745237 -0.0112561  -0.52483 -0.78749 -0.0106132  -0.548779 -0.728143 -0.0129455  -0.547272 -0.726921 -0.0156478  -0.456938 -0.762039 -0.0095939  -0.570107 -0.768631 -0.014697  -0.523307 -0.786436 -0.0127525  -0.499741 -0.847405 -0.0102046  -0.546071 -0.829409 -0.0120178  -0.522327 -0.89146 -0.00960582  -0.547491 -0.830384 -0.010025  -0.570353 -0.873816 -0.00946259  -0.594565 -0.812092 -0.0115131  -0.593217 -0.811035 -0.0138553  -0.501182 -0.848377 -0.008564  -0.61645 -0.853979 -0.0130081  -0.569 -0.872907 -0.0113044  -0.545172 -0.936042 -0.00906378  -0.592187 -0.916976 -0.0106552  -0.568223 -0.981072 -0.00853413  -0.593448 -0.917817 -0.00894654  -0.616713 -0.962297 -0.00844616  -0.641111 -0.898461 -0.0102488  -0.639924 -0.897542 -0.0122607  -0.546448 -0.936882 -0.00766343  -0.663505 -0.941587 -0.0115094  -0.615527 -0.961515 -0.0100239  -0.5915 -1.02657 -0.00805736  -0.639081 -1.00656 -0.00944304  -0.614949 -1.07245 -0.00758833  -0.640188 -1.00728 -0.00799137  -0.663808 -1.05268 -0.00755006  -0.688338 -0.986979 -0.00912738  -0.687301 -0.986187 -0.0108397  -0.592619 -1.02729 -0.00687379  -0.71119 -1.03121 -0.0101743  -0.662769 -1.05201 -0.00888342  -0.638603 -1.11875 -0.00717217  -0.686653 -1.09791 -0.00837445  -0.662394 -1.16539 -0.00675964  -0.687617 -1.09853 -0.00715095  -0.711543 -1.14475 -0.00676537  -0.736161 -1.07741 -0.00813222  -0.735263 -1.07673 -0.00957531  -0.639575 -1.11938 -0.00618219  -0.759408 -1.12261 -0.00898701  -0.710643 -1.14417 -0.00788099  -0.686357 -1.21238 -0.00639343  -0.73479 -1.19082 -0.00742888  -0.710435 -1.25967 -0.00603598  -0.735614 -1.19135 -0.00641245  -0.7598 -1.23828 -0.00606698  -0.784485 -1.16952 -0.00725567  -0.783707 -1.16893 -0.00845665  -0.687193 -1.21292 -0.00557834  -0.808072 -1.21557 -0.00793481  -0.759024 -1.23778 -0.00699073  -0.734647 -1.30726 -0.00571239  -0.783393 -1.28508 -0.00659651  -0.758955 -1.35509 -0.00540447  -0.784096 -1.28553 -0.00576741  -0.808477 -1.33307 -0.0054732  -0.833212 -1.2631 -0.00648993  -0.83256 -1.26259 -0.00747842  -0.735365 -1.30772 -0.00505817  -0.857088 -1.30988 -0.00702  -0.807819 -1.33264 -0.00621712  -0.783364 -1.40319 -0.00512755  -0.832349 -1.38049 -0.00587422  -0.807842 -1.45149 -0.00486696  -0.832941 -1.38087 -0.00520837  -0.857462 -1.42892 -0.00495231  -0.882243 -1.35793 -0.00582093  -0.881695 -1.35749 -0.00661761  -0.783965 -1.40359 -0.00460416  -0.906333 -1.40534 -0.00621343  -0.856918 -1.42856 -0.00554782  -0.832393 -1.5 -0.00463319  -0.881563 -1.47687 -0.0052557  -0.856994 -1.54869 -0.00441623  -0.882051 -1.4772 -0.00473011  -0.906678 -1.52568 -0.00451589  -0.931492 -1.45384 -0.00523853  -0.931036 -1.45346 -0.00586069  -0.83289 -1.50034 -0.00422984  -0.955762 -1.50179 -0.00551796  -0.906231 -1.52537 -0.00497347  -0.88164 -1.59756 -0.00421464  -0.930942 -1.57407 -0.00472784  -0.906313 -1.64655 -0.00403452  -0.931343 -1.57435 -0.00433338  -0.95603 -1.62319 -0.00415564  -0.980873 -1.55065 -0.0047493  -0.980508 -1.55033 -0.00522351  -0.882047 -1.59785 -0.00392145  -1.00526 -1.59904 -0.00493813  -0.955662 -1.62292 -0.00449246  -0.931007 -1.69569 -0.00387961  -0.980407 -1.67193 -0.00429285  -0.955717 -1.74493 -0.00374126  -0.980727 -1.67216 -0.00400651  -1.00543 -1.72128 -0.0038619  -1.03031 -1.64821 -0.00434279  -1.03002 -1.64793 -0.00468791  -0.931332 -1.69594 -0.00367641  -1.05478 -1.69696 -0.00445366  -1.00515 -1.72106 -0.00410587  -0.980423 -1.79427 -0.0036217  -1.02988 -1.7703 -0.00394332  -1.00513 -1.84369 -0.00352091  -1.03012 -1.77051 -0.00375003  -1.05482 -1.81984 -0.00364655  -1.07973 -1.74637 -0.00402218  -1.07951 -1.74612 -0.00425553  -0.980674 -1.79449 -0.00348914  -1.10424 -1.79538 -0.00407374  -1.0546 -1.81964 -0.00380677  -1.02981 -1.89318 -0.00343913  -1.0793 -1.86906 -0.00368196  -1.05448 -1.94272 -0.00337094  -1.07948 -1.86923 -0.00356728  -1.10413 -1.91872 -0.00349671  -1.12907 -1.84496 -0.00377864  -1.12893 -1.84475 -0.00392395  -1.03 -1.89337 -0.00336748  -1.15359 -1.89419 -0.00378346  -1.10397 -1.91855 -0.00358671  -1.07911 -1.9923 -0.00332266  -1.1286 -1.96809 -0.00351119  -1.10372 -2.04191 -0.00328934  -1.12873 -1.96824 -0.00345582  -1.15331 -2.01782 -0.00341487  -1.1783 -1.94389 -0.00361222  -1.1782 -1.9437 -0.00368321  -1.07924 -1.99247 -0.00329942  -1.2028 -1.99326 -0.00360048  -1.1532 -2.01766 -0.00344551  -1.12828 -2.09154 -0.00327784  -1.17776 -2.06727 -0.00341254  -1.1528 -2.14116 -0.0032832  -1.17783 -2.0674 -0.00340122  -1.20234 -2.11702 -0.00339496  -1.22737 -2.04302 -0.00352198  -1.22731 -2.04286 -0.00353789  -1.12836 -2.09168 -0.00328857  -1.2518 -2.09247 -0.00349867  -1.20227 -2.11689 -0.00339782  -1.17727 -2.19078 -0.00330001  -1.22673 -2.1665 -0.00339937  -1.2017 -2.24038 -0.00333607  -1.22677 -2.16662 -0.00341523  -1.25118 -2.21623 -0.00343639  -1.27625 -2.14225 -0.003506  -1.27623 -2.14211 -0.00348139  -1.17732 -2.19092 -0.00333667  -1.30063 -2.19174 -0.00349122  -1.25115 -2.21611 -0.00342214  -1.22608 -2.28995 -0.00337982  -1.2755 -2.26569 -0.00345999  -1.2504 -2.33949 -0.00343877  -1.27553 -2.2658 -0.00348598  -1.29985 -2.31537 -0.00353366  -1.32495 -2.24147 -0.00355405  -1.32494 -2.24134 -0.00352335  -1.2261 -2.29009 -0.00342107  -1.34926 -2.29093 -0.00356048  -1.29983 -2.31525 -0.00350642  -1.27468 -2.389 -0.00350267  -1.32409 -2.36477 -0.00356489  -1.29891 -2.43846 -0.00357527  -1.3241 -2.36487 -0.00359714  -1.34834 -2.41436 -0.00365871  -1.3735 -2.3406 -0.003658  -1.37349 -2.34048 -0.00361586  -1.27469 -2.38913 -0.00354356  -1.39773 -2.38999 -0.00368547  -1.34832 -2.41424 -0.00363529  -1.32311 -2.48786 -0.00364363  -1.37251 -2.46368 -0.00370193  -1.34729 -2.53722 -0.00371861  -1.37253 -2.46377 -0.00372624  -1.39674 -2.51317 -0.00379425  -1.42193 -2.43957 -0.00379264  -1.42191 -2.43945 -0.00375354  -1.32312 -2.48799 -0.00368416  -1.44611 -2.48887 -0.00382525  -1.39671 -2.51307 -0.00377744  -0.00185076 -0.00121355 -0.00697368  -0.00227128 -0.0026084 -0.0089106  -0.00626098 -0.00694697 -0.0133067  -0.00234999 -0.00355311 -0.00691831  -0.00862312 -0.0121751 -0.0130264  0 0 0  0 0 0  -0.00193527 -0.0021103 -0.00533813  0 0 0  -0.00822012 -0.00951818 -0.0168955  -0.0126023 -0.0174907 -0.0179654  -0.0184331 -0.0207568 -0.0227962  -0.0205233 -0.031382 -0.021175  -0.0181122 -0.0240074 -0.0175276  -0.0293285 -0.0380752 -0.0211403  -0.0122505 -0.0203498 -0.0138084  -0.029607 -0.0339503 -0.0268506  -0.028993 -0.0474998 -0.0229209  -0.0409831 -0.049382 -0.0288816  -0.0382916 -0.0661495 -0.0238616  -0.0410492 -0.0539236 -0.0229757  -0.0534775 -0.0719166 -0.0241541  -0.0290197 -0.0514931 -0.0183456  -0.0531192 -0.0671401 -0.0300553  -0.0478763 -0.0869621 -0.0238995  -0.0651004 -0.0869848 -0.0300386  -0.0581591 -0.109839 -0.0235425  -0.0660711 -0.0918187 -0.0244018  -0.0791258 -0.113751 -0.0240586  -0.048766 -0.0913314 -0.0195267  -0.0778192 -0.109038 -0.0295763  -0.0689243 -0.134728 -0.0227649  -0.0907727 -0.132988 -0.0285782  -0.0804396 -0.161399 -0.0218158  -0.0925874 -0.137532 -0.0234511  -0.106476 -0.163105 -0.022426  -0.0706325 -0.138954 -0.0187718  -0.104439 -0.158819 -0.0273784  -0.0925496 -0.189761 -0.0207156  -0.118552 -0.186272 -0.0259954  -0.105421 -0.219651 -0.0195585  -0.120893 -0.190284 -0.0214214  -0.135748 -0.219012 -0.0201837  -0.0947789 -0.193591 -0.0171505  -0.133305 -0.215284 -0.0245555  -0.118913 -0.250938 -0.0184064  -0.148556 -0.245673 -0.0231095  -0.133115 -0.283539 -0.0172442  -0.151133 -0.249114 -0.0190687  -0.166966 -0.280554 -0.0178456  -0.12138 -0.254297 -0.0152557  -0.164367 -0.277372 -0.02167  -0.147911 -0.317324 -0.0161601  -0.180678 -0.310271 -0.0203224  -0.16335 -0.352251 -0.0150874  -0.183297 -0.313191 -0.016771  -0.200071 -0.346996 -0.0156626  -0.150422 -0.320226 -0.0133988  -0.197487 -0.344302 -0.0189999  -0.179346 -0.388206 -0.0141227  -0.214771 -0.379393 -0.0178046  -0.195922 -0.425161 -0.0131767  -0.217304 -0.38186 -0.0146965  -0.23498 -0.417758 -0.0137336  -0.181784 -0.390692 -0.0117202  -0.232514 -0.415481 -0.0166422  -0.213028 -0.463035 -0.0123458  -0.25071 -0.452525 -0.0156018  -0.230654 -0.501793 -0.0115275  -0.25309 -0.454615 -0.0128905  -0.271625 -0.492391 -0.0120671  -0.215324 -0.465166 -0.0102591  -0.269326 -0.490453 -0.0145959  -0.24878 -0.541374 -0.0108184  -0.288383 -0.529247 -0.0137122  -0.267381 -0.58173 -0.0101216  -0.290576 -0.531028 -0.0113508  -0.309936 -0.570483 -0.0106535  -0.250905 -0.5432 -0.00901902  -0.30783 -0.568826 -0.0128484  -0.286446 -0.622826 -0.00951678  -0.327682 -0.609185 -0.0120863  -0.305949 -0.664609 -0.00892204  -0.32968 -0.610708 -0.0100391  -0.349811 -0.651667 -0.00944215  -0.288386 -0.624396 -0.00797266  -0.347899 -0.650244 -0.0113419  -0.325875 -0.707049 -0.00840992  -0.368501 -0.692004 -0.0106921  -0.346198 -0.7501 -0.0078966  -0.370299 -0.693311 -0.00891805  -0.391154 -0.735614 -0.00840241  -0.327626 -0.708405 -0.00708634  -0.389441 -0.734392 -0.0100453  -0.366916 -0.793731 -0.00745785  -0.410725 -0.7774 -0.00947666  -0.38799 -0.837903 -0.00701433  -0.412341 -0.778523 -0.00795233  -0.433859 -0.82202 -0.00751072  -0.368486 -0.794906 -0.00633091  -0.432323 -0.820968 -0.00891733  -0.409414 -0.882586 -0.00663126  -0.454232 -0.865086 -0.00842047  -0.431158 -0.927739 -0.00624901  -0.455674 -0.866049 -0.00711817  -0.477785 -0.910599 -0.00673062  -0.410813 -0.883604 -0.00568455  -0.476421 -0.909691 -0.00792938  -0.453215 -0.973343 -0.00592649  -0.498891 -0.954784 -0.00750047  -0.475557 -1.01936 -0.00559801  -0.500168 -0.955616 -0.00639504  -0.52281 -1.00109 -0.00605536  -0.454453 -0.974228 -0.00512964  -0.52161 -1.00031 -0.00707155  -0.498172 -1.06576 -0.0053187  -0.544568 -1.04626 -0.00668949  -0.521027 -1.11252 -0.00503027  -0.545686 -1.04697 -0.00576377  -0.568789 -1.09326 -0.00546592  -0.499255 -1.06653 -0.00466126  -0.567742 -1.09258 -0.00631601  -0.544119 -1.15962 -0.00478894  -0.591123 -1.13928 -0.00598866  -0.567417 -1.20702 -0.00454849  -0.592097 -1.1399 -0.00521916  -0.615606 -1.18688 -0.00496739  -0.545065 -1.16029 -0.00425941  -0.614688 -1.1863 -0.00566155  -0.590914 -1.25471 -0.00434172  -0.638428 -1.23364 -0.00537622  -0.614587 -1.30266 -0.00413734  -0.639269 -1.23417 -0.00474906  -0.663108 -1.28176 -0.00452954  -0.591726 -1.25529 -0.0039171  -0.662319 -1.28125 -0.00509393  -0.638416 -1.35084 -0.00396323  -0.68635 -1.32914 -0.00484312  -0.662391 -1.39925 -0.00379181  -0.68707 -1.32959 -0.0043447  -0.711179 -1.37769 -0.00415653  -0.639114 -1.35134 -0.00363898  -0.710505 -1.37726 -0.00460178  -0.686492 -1.44785 -0.00364733  -0.734773 -1.42561 -0.00440055  -0.710706 -1.49663 -0.00351304  -0.735381 -1.42599 -0.004008  -0.759696 -1.47451 -0.00385237  -0.687081 -1.44828 -0.00340652  -0.75913 -1.47414 -0.00419682  -0.735013 -1.54558 -0.0034011  -0.783568 -1.52287 -0.00402254  -0.759398 -1.59466 -0.00328994  -0.784076 -1.5232 -0.0037294  -0.808539 -1.57208 -0.00360334  -0.735502 -1.54595 -0.00322741  -0.808074 -1.57175 -0.00385916  -0.783859 -1.64387 -0.003205  -0.832636 -1.6208 -0.00372076  -0.808371 -1.69319 -0.0031234  -0.833048 -1.62107 -0.0035091  -0.857618 -1.67022 -0.00340587  -0.784257 -1.64419 -0.00309497  -0.85724 -1.66995 -0.0035888  -0.832922 -1.74261 -0.00305998  -0.881866 -1.71922 -0.0034793  -0.857505 -1.79209 -0.00301003  -0.882202 -1.71946 -0.00333929  -0.906824 -1.76882 -0.00326407  -0.83324 -1.74288 -0.00300306  -0.906526 -1.76858 -0.00338244  -0.882109 -1.84166 -0.00297064  -0.931187 -1.81803 -0.00330412  -0.906725 -1.89127 -0.00294822  -0.931443 -1.81824 -0.00322032  -0.95609 -1.86775 -0.00317508  -0.882358 -1.8419 -0.00295538  -0.955862 -1.86754 -0.00324291  -0.93134 -1.94092 -0.0029341  -0.980511 -1.91711 -0.00319332  -0.955951 -1.99059 -0.0029338  -0.980707 -1.91729 -0.0031547  -1.00534 -1.9669 -0.00313455  -0.931524 -1.94113 -0.00295007  -1.00516 -1.96671 -0.00315821  -0.980536 -2.04029 -0.00294387  -1.02977 -2.01635 -0.00314015  -1.00511 -2.08998 -0.00296605  -1.02992 -2.01651 -0.00314105  -1.0545 -2.06616 -0.00314313  -0.980668 -2.04048 -0.00298071  -1.05437 -2.06599 -0.00313812  -1.02964 -2.13968 -0.00300151  -1.07892 -2.11565 -0.0031513  -1.05415 -2.18935 -0.00305372  -1.07902 -2.11579 -0.00317132  -1.10353 -2.16545 -0.00319821  -1.02973 -2.13985 -0.00304925  -1.10345 -2.1653 -0.00317639  -1.07861 -2.23901 -0.00310075  -1.12791 -2.21493 -0.00321221  -1.10303 -2.28864 -0.00317127  -1.12797 -2.21506 -0.00324774  -1.1524 -2.26468 -0.00328803  -1.07866 -2.23917 -0.00316143  -1.15235 -2.26454 -0.00326055  -1.1274 -2.33823 -0.00323755  -1.17672 -2.31412 -0.00331789  -1.15172 -2.38777 -0.00331926  -1.17675 -2.31424 -0.00335783  -1.20108 -2.36379 -0.00341427  -1.12742 -2.33838 -0.00329161  -1.20105 -2.36366 -0.00338453  -1.17599 -2.43727 -0.00340408  -1.22532 -2.41316 -0.0034554  -1.20022 -2.48671 -0.00348914  -1.22534 -2.41327 -0.00349361  -1.24958 -2.46273 -0.00355965  -1.17599 -2.43741 -0.00344735  -1.24956 -2.4626 -0.00353664  -1.22438 -2.53609 -0.00356781  -1.27373 -2.512 -0.00360537  -1.24851 -2.58541 -0.00365114  -1.27374 -2.51211 -0.00363541  -1.29793 -2.56147 -0.00370282  -1.22438 -2.53623 -0.00360489  -1.29791 -2.56133 -0.00368464  -0.000440724 -0.000713229 -0.00318575  -0.000838608 -0.000701755 -0.00502306  -0.00145715 -0.00618213 -0.00622922  -0.000913717 -0.0015403 -0.00391674  -0.00337102 -0.00776032 -0.00751621  0 0 0  0 0 0  -0.000529941 -0.00151747 -0.00245649  0 0 0  -0.00300195 -0.00589463 -0.00971037  -0.00315313 -0.0168563 -0.00862145  -0.00730531 -0.0166606 -0.013148  -0.00570159 -0.0309516 -0.0103731  -0.00717819 -0.0192173 -0.0101383  -0.0122043 -0.03354 -0.0125754  -0.00321862 -0.0190792 -0.0067203  -0.012265 -0.0304398 -0.0157834  -0.00880569 -0.048179 -0.0113952  -0.0182005 -0.0472343 -0.0170623  -0.0128538 -0.0680126 -0.0120103  -0.0184161 -0.0507716 -0.0137041  -0.0253206 -0.0703812 -0.0145173  -0.00922966 -0.051342 -0.00925416  -0.0248897 -0.0664824 -0.0178801  -0.0175017 -0.090212 -0.0121164  -0.0320055 -0.0880362 -0.0179101  -0.0230795 -0.11451 -0.011979  -0.0329852 -0.092042 -0.0147402  -0.04125 -0.115782 -0.0145293  -0.0185243 -0.0939133 -0.0100693  -0.0399951 -0.111702 -0.0176957  -0.0294001 -0.140827 -0.0116146  -0.0485178 -0.137328 -0.0171037  -0.0366783 -0.168944 -0.0111026  -0.0502143 -0.141314 -0.0142177  -0.0598449 -0.168682 -0.0135523  -0.0310135 -0.144628 -0.00975674  -0.0579477 -0.164789 -0.0163916  -0.0447919 -0.198764 -0.0105335  -0.0680556 -0.193904 -0.0155624  -0.0538669 -0.230148 -0.00988555  -0.0702194 -0.197599 -0.0129851  -0.0813082 -0.228117 -0.0121764  -0.0468079 -0.202374 -0.0088954  -0.0790456 -0.224591 -0.0146698  -0.0637928 -0.262949 -0.00926667  -0.0907715 -0.256662 -0.0137948  -0.074646 -0.297104 -0.00860631  -0.0931465 -0.259956 -0.0115185  -0.10571 -0.293184 -0.0107232  -0.0660114 -0.266231 -0.00784898  -0.103306 -0.290078 -0.0128846  -0.08631 -0.332449 -0.00801611  -0.116566 -0.32467 -0.0120613  -0.0988395 -0.368963 -0.00740552  -0.118988 -0.327549 -0.0100772  -0.132956 -0.36312 -0.00936031  -0.0885742 -0.335357 -0.00680828  -0.130559 -0.36042 -0.0112188  -0.112117 -0.406486 -0.00688624  -0.145228 -0.397183 -0.0104877  -0.126185 -0.445024 -0.00635231  -0.147579 -0.399672 -0.00877452  -0.162863 -0.437283 -0.00815499  -0.114322 -0.409032 -0.00586927  -0.160568 -0.434955 -0.00974756  -0.140948 -0.484441 -0.00591022  -0.176526 -0.473618 -0.0091207  -0.156423 -0.524736 -0.00545728  -0.178747 -0.475765 -0.00765091  -0.195248 -0.515176 -0.0071274  -0.143036 -0.486658 -0.00506717  -0.193101 -0.513166 -0.00848323  -0.172532 -0.565797 -0.0050922  -0.210244 -0.553501 -0.00795591  -0.189288 -0.607624 -0.00471729  -0.212297 -0.555354 -0.00670362  -0.22992 -0.596347 -0.00626969  -0.174476 -0.567729 -0.00440753  -0.227943 -0.594606 -0.00741553  -0.206624 -0.650123 -0.00441986  -0.246162 -0.636414 -0.00697339  -0.224541 -0.693286 -0.00410998  -0.248039 -0.638017 -0.00591427  -0.266691 -0.680405 -0.00554788  -0.208404 -0.651801 -0.00386447  -0.264896 -0.678901 -0.0065155  -0.242987 -0.737038 -0.00387013  -0.284098 -0.722006 -0.00614524  -0.26196 -0.781371 -0.00362265  -0.285796 -0.723392 -0.00525439  -0.305385 -0.767012 -0.0049507  -0.2446 -0.738503 -0.00343263  -0.303767 -0.765706 -0.00575948  -0.281398 -0.826215 -0.00343096  -0.323859 -0.809952 -0.00544697  -0.301314 -0.87156 -0.00322789  -0.325386 -0.811154 -0.00470942  -0.345824 -0.855854 -0.0044533  -0.282848 -0.827491 -0.00309527  -0.344375 -0.854715 -0.00512314  -0.321653 -0.917349 -0.00307637  -0.365268 -0.89996 -0.00486261  -0.342407 -0.96357 -0.00291228  -0.36663 -0.901004 -0.00425214  -0.387825 -0.94664 -0.00403422  -0.322945 -0.918465 -0.00282013  -0.386538 -0.945653 -0.0045836  -0.363535 -1.01017 -0.00278974  -0.408138 -0.991763 -0.00436497  -0.385027 -1.05715 -0.00266027  -0.409343 -0.992668 -0.0038681  -0.431216 -1.03912 -0.00369269  -0.364684 -1.01115 -0.00261146  -0.430074 -1.03826 -0.00413293  -0.40685 -1.10445 -0.00256687  -0.452301 -1.08512 -0.0039494  -0.428994 -1.15206 -0.00246584  -0.453364 -1.0859 -0.00355393  -0.475819 -1.13305 -0.00340158  -0.407858 -1.1053 -0.00244957  -0.47482 -1.13231 -0.00375354  -0.451418 -1.19996 -0.00239635  -0.497583 -1.17981 -0.00359911  -0.474115 -1.24811 -0.00232267  -0.498509 -1.18048 -0.00329572  -0.521467 -1.22824 -0.00316995  -0.452293 -1.2007 -0.00233173  -0.520599 -1.22758 -0.00344026  -0.497046 -1.29649 -0.0022769  -0.543819 -1.27562 -0.00331604  -0.520207 -1.3451 -0.00222158  -0.544613 -1.27621 -0.00308496  -0.567998 -1.32447 -0.0029875  -0.497802 -1.29715 -0.00225276  -0.567252 -1.3239 -0.00318348  -0.54357 -1.39389 -0.00219327  -0.590852 -1.37239 -0.00308657  -0.567119 -1.44286 -0.00216043  -0.591533 -1.3729 -0.00292015  -0.615263 -1.42157 -0.00284511  -0.544214 -1.39446 -0.00220567  -0.614631 -1.42108 -0.00298393  -0.590833 -1.49198 -0.00214803  -0.638542 -1.46995 -0.00291061  -0.614694 -1.54124 -0.00213599  -0.639115 -1.47038 -0.00279915  -0.663124 -1.51939 -0.00274402  -0.591373 -1.49248 -0.0021919  -0.662589 -1.51896 -0.00282836  -0.638677 -1.59063 -0.00214088  -0.68674 -1.56813 -0.00278026  -0.662782 -1.64011 -0.00214314  -0.687222 -1.56851 -0.00272244  -0.711447 -1.61778 -0.00268483  -0.639127 -1.59106 -0.00220847  -0.711006 -1.61741 -0.00272709  -0.686976 -1.68969 -0.00216544  -0.735327 -1.66681 -0.00269544  -0.711261 -1.73933 -0.00219053  -0.735718 -1.66713 -0.00267267  -0.7601 -1.71661 -0.00265294  -0.687343 -1.69006 -0.0022521  -0.75974 -1.71629 -0.0026623  -0.735609 -1.78904 -0.00222176  -0.78419 -1.76585 -0.0026499  -0.760011 -1.8388 -0.00225705  -0.784503 -1.76613 -0.00265956  -0.808983 -1.81575 -0.002657  -0.735896 -1.78937 -0.00231868  -0.808696 -1.81547 -0.00264156  -0.784452 -1.88859 -0.00230324  -0.833218 -1.86515 -0.00264621  -0.808926 -1.93841 -0.00235444  -0.833457 -1.86539 -0.0026831  -0.857995 -1.91511 -0.00269794  -0.784671 -1.88888 -0.00240767  -0.857778 -1.91486 -0.00266105  -0.833415 -1.98824 -0.0024156  -0.882327 -1.9646 -0.00268221  -0.857916 -2.03807 -0.00247794  -0.882506 -1.96481 -0.00273263  -0.907054 -2.01457 -0.00276226  -0.833575 -1.9885 -0.00251955  -0.906893 -2.01435 -0.00271142  -0.882412 -2.0879 -0.0025503  -0.931438 -2.06412 -0.00275719  -0.906896 -2.13772 -0.00262958  -0.931562 -2.0643 -0.00281799  -0.956087 -2.11406 -0.00286472  -0.882517 -2.08813 -0.00265241  -0.955974 -2.11387 -0.00280684  -0.931361 -2.1875 -0.00271243  -0.980473 -2.16361 -0.00286627  -0.955811 -2.23726 -0.00280344  -0.980559 -2.16377 -0.00292629  -1.00503 -2.2135 -0.00298893  -0.931433 -2.1877 -0.00280857  -1.00496 -2.21332 -0.00292879  -0.980224 -2.28697 -0.00289583  -1.02939 -2.26301 -0.00300741  -1.0046 -2.33665 -0.00299531  -1.02945 -2.26316 -0.00306851  -1.05384 -2.31282 -0.00313812  -0.980254 -2.28715 -0.00297785  -1.0538 -2.31266 -0.00308543  -1.02894 -2.38627 -0.00309819  -1.07815 -2.36227 -0.00317192  -1.05323 -2.43584 -0.00320345  -1.07817 -2.3624 -0.0032236  -1.10249 -2.41197 -0.00330478  -1.02894 -2.38644 -0.00316453  -1.10247 -2.41182 -0.00326574  -1.07747 -2.48535 -0.00330776  -1.12672 -2.46132 -0.00336087  -1.10167 -2.53479 -0.00341821  -1.12672 -2.46145 -0.00339949  -1.15094 -2.51091 -0.00348407  -1.07746 -2.48551 -0.00335604  -1.15094 -2.51076 -0.00345773  -1.12578 -2.58415 -0.00351268  -1.17507 -2.56013 -0.00354058  -1.14987 -2.63344 -0.00362235  -1.17507 -2.56026 -0.00357383  -1.19921 -2.60958 -0.00365907  -1.12577 -2.58431 -0.00355184  -1.19919 -2.60943 -0.00363332  0.000697523 -0.00209934 0.000507653  0.000300124 -0.00127855 -0.00127178  0.00241821 -0.0088529 0.000561833  0.00023105 -0.00198099 -0.00106388  0.000567928 -0.00851026 -0.00232708  0 0 0  0 0 0  0.000628658 -0.00280941 0.000331163  0 0 0  0.00096263 -0.00712433 -0.00283575  0.00473702 -0.0206493 0.000326216  0.0010571 -0.0183685 -0.00397807  0.0068965 -0.0355122 -2.82526e-05  0.000796616 -0.0204242 -0.003178  0.000584513 -0.0351814 -0.00429565  0.0042491 -0.0224919 6.82473e-05  0.00103679 -0.032681 -0.0051502  0.00858843 -0.0538195 -0.000406265  0.000198841 -0.050483 -0.00576758  0.0095022 -0.0745425 -0.000710785  -0.000437587 -0.0534535 -0.00480783  -0.00216028 -0.0740819 -0.0052985  0.00770479 -0.0565607 -0.000565767  -0.00135824 -0.0707397 -0.00628287  0.00955033 -0.0978165 -0.00090009  -0.00365236 -0.0934892 -0.00640303  0.00858754 -0.123158 -0.000965118  -0.00480494 -0.0970118 -0.00549442  -0.00828186 -0.122049 -0.00544977  0.00830394 -0.101152 -0.00103545  -0.00695366 -0.118355 -0.0064007  0.00661695 -0.150577 -0.000962675  -0.0110758 -0.145237 -0.00620872  0.00352228 -0.179831 -0.000851572  -0.0127003 -0.148899 -0.00539529  -0.0180441 -0.177636 -0.00509369  0.00502521 -0.154128 -0.00113022  -0.0162737 -0.17397 -0.00592023  -0.000634491 -0.210817 -0.000740945  -0.0223942 -0.204392 -0.0055865  -0.00594002 -0.243419 -0.000547409  -0.0243475 -0.207915 -0.00489157  -0.0316145 -0.239851 -0.00449467  -0.0024699 -0.21429 -0.000954688  -0.0295855 -0.236423 -0.00517744  -0.0122944 -0.277469 -0.000397325  -0.0377261 -0.269868 -0.00480187  -0.0197755 -0.312927 -0.000193536  -0.0398417 -0.273109 -0.00423163  -0.0490231 -0.307802 -0.00383943  -0.014263 -0.280708 -0.000668049  -0.0468857 -0.304705 -0.00437504  -0.0282534 -0.3496 -4.673e-05  -0.056967 -0.340733 -0.00401556  -0.0377896 -0.387477 0.000138402  -0.0591148 -0.34363 -0.00356871  -0.0701305 -0.380701 -0.00321925  -0.0302483 -0.352527 -0.000366449  -0.0679955 -0.377951 -0.00361413  -0.0482594 -0.426378 0.000255585  -0.0798873 -0.416183 -0.0033074  -0.0597082 -0.466308 0.000402331  -0.0819824 -0.41874 -0.00297701  -0.0946959 -0.457854 -0.00268608  -0.0502104 -0.428986 -0.000110924  -0.0926429 -0.455437 -0.00296456  -0.0720104 -0.507106 0.000474572  -0.10619 -0.495562 -0.00271708  -0.0852005 -0.548787 0.000579953  -0.10818 -0.497805 -0.00248975  -0.12246 -0.538686 -0.00225598  -0.0738647 -0.509414 7.2062e-05  -0.120529 -0.536568 -0.00243551  -0.099169 -0.591205 0.000614882  -0.135586 -0.578322 -0.0022428  -0.113948 -0.634375 0.000675738  -0.137439 -0.580284 -0.002105  -0.153144 -0.622685 -0.00192535  -0.100904 -0.593239 0.00018549  -0.151359 -0.620836 -0.00202107  -0.129425 -0.678176 0.000674784  -0.167776 -0.663999 -0.00187975  -0.14563 -0.722622 0.000697076  -0.169481 -0.665711 -0.00181621  -0.186485 -0.709431 -0.00168121  -0.131021 -0.679965 0.000228345  -0.184851 -0.707814 -0.00170785  -0.162471 -0.767605 0.000668705  -0.202504 -0.752195 -0.00160873  -0.17996 -0.81313 0.000659525  -0.204051 -0.753689 -0.00160879  -0.222222 -0.798552 -0.00151145  -0.163922 -0.769176 0.000216067  -0.220746 -0.797131 -0.00148135  -0.198019 -0.859121 0.000606358  -0.239507 -0.842558 -0.00142235  -0.216656 -0.905573 0.000573695  -0.240899 -0.84387 -0.00147045  -0.260122 -0.889709 -0.00140017  -0.199327 -0.860507 0.000152349  -0.258797 -0.888466 -0.0013296  -0.235797 -0.952417 0.000503242  -0.27854 -0.934789 -0.00129086  -0.25545 -0.99965 0.000453651  -0.279791 -0.935936 -0.00138175  -0.299946 -0.982615 -0.00133985  -0.23697 -0.953638 5.56707e-05  -0.298762 -0.981524 -0.00123137  -0.275554 -1.04721 0.000369549  -0.319381 -1.02862 -0.00121659  -0.29611 -1.0951 0.000299811  -0.32049 -1.02962 -0.00133914  -0.341465 -1.07701 -0.00131661  -0.276597 -1.04829 -7.08103e-05  -0.34042 -1.07605 -0.00118321  -0.317053 -1.14326 0.00019896  -0.361806 -1.12379 -0.0011887  -0.338386 -1.19169 0.000119567  -0.362779 -1.12467 -0.00133324  -0.384478 -1.17266 -0.00132972  -0.317965 -1.1442 -0.000222623  -0.383557 -1.17181 -0.00117224  -0.360055 -1.24035 1.93119e-05  -0.405609 -1.2201 -0.00119811  -0.382066 -1.28922 -7.64728e-05  -0.406459 -1.22086 -0.00136209  -0.428772 -1.26935 -0.00136721  -0.360852 -1.24118 -0.000387967  -0.427977 -1.26861 -0.00120229  -0.404359 -1.33828 -0.000183523  -0.450589 -1.31734 -0.00123638  -0.426942 -1.38752 -0.000286937  -0.451326 -1.31801 -0.00141251  -0.474161 -1.36691 -0.00143403  -0.405047 -1.33901 -0.000572324  -0.473478 -1.36627 -0.00125796  -0.449761 -1.4369 -0.000405073  -0.496566 -1.41536 -0.001306  -0.472816 -1.48641 -0.000508547  -0.497188 -1.41594 -0.00148815  -0.520464 -1.46516 -0.00151855  -0.450337 -1.43754 -0.000766993  -0.519886 -1.4646 -0.00134206  -0.496073 -1.53603 -0.000629246  -0.543366 -1.51398 -0.00139773  -0.519526 -1.58577 -0.000745773  -0.543897 -1.51449 -0.00158274  -0.567526 -1.56397 -0.00162297  -0.49656 -1.5366 -0.000969648  -0.567042 -1.56348 -0.00144625  -0.543134 -1.63557 -0.000868142  -0.590834 -1.61308 -0.00151229  -0.566895 -1.68545 -0.000984669  -0.591267 -1.61352 -0.00169528  -0.615179 -1.66319 -0.00174427  -0.543536 -1.63607 -0.00118387  -0.614781 -1.66276 -0.0015682  -0.590775 -1.73537 -0.00111008  -0.638817 -1.71251 -0.00164485  -0.614779 -1.78535 -0.00123322  -0.639171 -1.71289 -0.00182033  -0.663295 -1.7627 -0.00188226  -0.591098 -1.73581 -0.00139534  -0.662972 -1.76232 -0.00171763  -0.638869 -1.83535 -0.00135976  -0.687191 -1.81218 -0.00179964  -0.663051 -1.88537 -0.00148886  -0.687467 -1.81252 -0.00197071  -0.711744 -1.8624 -0.00203162  -0.639124 -1.83573 -0.00162083  -0.711493 -1.86207 -0.00187582  -0.687276 -1.9354 -0.00161564  -0.735822 -1.91198 -0.00196677  -0.71157 -1.98542 -0.00174654  -0.736037 -1.91227 -0.00212646  -0.76041 -1.96219 -0.00220209  -0.687465 -1.93573 -0.00184476  -0.760216 -1.96191 -0.00205678  -0.735888 -2.03544 -0.00187433  -0.784616 -2.01183 -0.00215012  -0.760247 -2.08543 -0.00201195  -0.784775 -2.01208 -0.0022952  -0.809196 -2.062 -0.0023787  -0.736025 -2.03573 -0.00207829  -0.809061 -2.06174 -0.0022493  -0.784616 -2.13538 -0.0021463  -0.833488 -2.11164 -0.00235337  -0.808991 -2.18532 -0.00228041  -0.83359 -2.11186 -0.00248402  -0.858022 -2.16173 -0.00257272  -0.784697 -2.13565 -0.00231284  -0.857933 -2.16151 -0.00246173  -0.833358 -2.2352 -0.00241166  -0.882343 -2.21134 -0.00256801  -0.857722 -2.28503 -0.0025481  -0.882405 -2.21154 -0.00267625  -0.906809 -2.26134 -0.00276887  -0.833403 -2.23543 -0.00255257  -0.906758 -2.26114 -0.00268322  -0.882055 -2.33481 -0.00267881  -0.931127 -2.31089 -0.00279498  -0.906376 -2.38454 -0.0028221  -0.931157 -2.31106 -0.00288361  -0.955513 -2.36077 -0.00298417  -0.88207 -2.33502 -0.00279337  -0.955487 -2.36059 -0.00291413  -0.930648 -2.4342 -0.00294995  -0.979785 -2.41023 -0.00302988  -0.954902 -2.48379 -0.00308621  -0.979793 -2.41039 -0.00309509  -1.00407 -2.45999 -0.00319779  -0.930645 -2.43439 -0.00303811  -1.00407 -2.45982 -0.00314814  -0.979098 -2.53332 -0.00321978  -1.02828 -2.50933 -0.00326723  -1.00325 -2.58276 -0.00335449  -1.02826 -2.50948 -0.00330859  -1.05246 -2.55894 -0.00341344  -0.979072 -2.5335 -0.00327134  -1.05246 -2.55877 -0.00339264  -1.02734 -2.63212 -0.003488  -1.07655 -2.60813 -0.00350761  -1.05137 -2.6814 -0.00362527  -1.07655 -2.60828 -0.00352991  -1.10061 -2.65759 -0.00362617  -1.02731 -2.6323 -0.00351465  -1.10061 -2.65741 -0.00362587  0.00182784 -0.00502414 0.00404036  0.00141202 -0.00342721 0.0023641  0.00632899 -0.0141014 0.00696266  0.0013679 -0.00406426 0.00168735  0.00430056 -0.0122809 0.00263554  0 0 0  0 0 0  0.00180562 -0.00571376 0.00299311  0 0 0  0.00471132 -0.011143 0.00376844  0.0126501 -0.0280003 0.00866866  0.00878939 -0.0239269 0.00469953  0.0193966 -0.0442027 0.00960195  0.00815512 -0.0256971 0.00342506  0.0123115 -0.0415862 0.00356352  0.0117829 -0.0296673 0.00640345  0.0132452 -0.0393786 0.00488961  0.0256468 -0.0637322 0.00982559  0.0171395 -0.0582744 0.00488245  0.0312802 -0.0853657 0.00985634  0.0160693 -0.0609503 0.00361037  0.0191755 -0.0825098 0.00345194  0.0243467 -0.0662855 0.00752848  0.0203669 -0.0794567 0.00467956  0.035801 -0.109517 0.00964665  0.0226904 -0.103164 0.00449574  0.0392281 -0.13572 0.00945598  0.021335 -0.106421 0.00328517  0.0224464 -0.132439 0.00318187  0.034341 -0.112678 0.00744832  0.0238956 -0.128975 0.00432307  0.0414302 -0.163994 0.00917548  0.0240549 -0.156829 0.00418103  0.0423509 -0.194172 0.00896549  0.0224553 -0.160299 0.00302297  0.0212972 -0.190093 0.00300878  0.0398448 -0.167404 0.00706929  0.0229724 -0.186578 0.00410801  0.0420309 -0.22611 0.00869828  0.0207587 -0.218054 0.00402099  0.0403804 -0.259731 0.00849801  0.0189868 -0.221461 0.00289738  0.0154792 -0.254547 0.0029254  0.0403396 -0.229489 0.00668019  0.0173004 -0.251188 0.00400531  0.0375094 -0.294851 0.00824147  0.0126962 -0.285789 0.00394148  0.0333389 -0.331427 0.00804132  0.0108277 -0.288989 0.00284481  0.00501168 -0.324919 0.0028773  0.0357631 -0.298049 0.00631189  0.00689203 -0.321827 0.00394195  0.0279984 -0.369265 0.00778425  -2.04444e-05 -0.359095 0.00387526  0.021428 -0.408339 0.0075801  -0.00190437 -0.362012 0.00280619  -0.00992656 -0.400376 0.0028193  0.0262458 -0.372203 0.0059498  -0.00805652 -0.397586 0.00386882  0.0137614 -0.448465 0.00732261  -0.017127 -0.437115 0.00379038  0.0049541 -0.489638 0.00710231  -0.0189649 -0.439728 0.00274593  -0.0290447 -0.480171 0.00272799  0.0120523 -0.451119 0.00557768  -0.0272416 -0.477681 0.00375551  -0.00486493 -0.531687 0.00682986  -0.0383089 -0.51912 0.00365084  -0.0157323 -0.574618 0.00659508  -0.0400649 -0.521443 0.00263625  -0.0520431 -0.563647 0.00258988  -0.00649488 -0.534063 0.00518304  -0.050335 -0.561439 0.00358719  -0.0275202 -0.618276 0.00631368  -0.0632198 -0.604488 0.00345975  -0.0402526 -0.662673 0.0060662  -0.0648599 -0.606544 0.00248176  -0.0785614 -0.650238 0.00240785  -0.0290474 -0.620391 0.00476682  -0.0769758 -0.648285 0.00336832  -0.0538267 -0.707679 0.00577408  -0.0915047 -0.6927 0.0032177  -0.0682558 -0.753297 0.00551707  -0.0930235 -0.694516 0.00227898  -0.108281 -0.73947 0.00218582  -0.0552454 -0.709557 0.00432229  -0.106826 -0.737744 0.00310469  -0.0834253 -0.79942 0.00522286  -0.122836 -0.783309 0.00293726  -0.0993676 -0.84606 0.00495625  -0.124214 -0.784911 0.00204551  -0.140879 -0.830927 0.00193429  -0.0847211 -0.80109 0.00386584  -0.139558 -0.829402 0.00280243  -0.115979 -0.893116 0.00466198  -0.156893 -0.875935 0.00262845  -0.133273 -0.940598 0.00439167  -0.158146 -0.877348 0.00178158  -0.176061 -0.924258 0.00165951  -0.117148 -0.894596 0.00340825  -0.17487 -0.922909 0.00248039  -0.151163 -0.988424 0.00409806  -0.193387 -0.970257 0.00229234  -0.169655 -1.0366 0.00382513  -0.194506 -0.9715 0.00149715  -0.213536 -1.01916 0.00137144  -0.15221 -0.989737 0.00293851  -0.212465 -1.01797 0.0021413  -0.188669 -1.08506 0.00353622  -0.232029 -1.06598 0.00194889  -0.20822 -1.1338 0.00326997  -0.233023 -1.06709 0.00120586  -0.253029 -1.11536 0.00106889  -0.1896 -1.08622 0.00247079  -0.252091 -1.11431 0.00178111  -0.228227 -1.18276 0.00298572  -0.272563 -1.16288 0.0015859  -0.248693 -1.23196 0.00271833  -0.273433 -1.16385 0.000899255  -0.294302 -1.21263 0.000757396  -0.22904 -1.1838 0.0020147  -0.293475 -1.2117 0.00141656  -0.269561 -1.28133 0.00243849  -0.314743 -1.26072 0.00122124  -0.290831 -1.33088 0.00218433  -0.315503 -1.26157 0.000586987  -0.337103 -1.31076 0.000444829  -0.270268 -1.28224 0.00155813  -0.336392 -1.30994 0.00105017  -0.312436 -1.38057 0.00191545  -0.358341 -1.35932 0.000858665  -0.334382 -1.4304 0.00166142  -0.358994 -1.36008 0.000275791  -0.381226 -1.40959 0.000128508  -0.313042 -1.38138 0.00112039  -0.380615 -1.40886 0.000683248  -0.356616 -1.48032 0.00139701  -0.403139 -1.45852 0.000490129  -0.379134 -1.53035 0.00115126  -0.403693 -1.45918 -3.74913e-05  -0.426455 -1.50893 -0.000181556  -0.357127 -1.48104 0.000687301  -0.425935 -1.50829 0.000318766  -0.401891 -1.58044 0.000901937  -0.44894 -1.55816 0.000129223  -0.424893 -1.6306 0.00065583  -0.449408 -1.55874 -0.000348747  -0.472613 -1.60867 -0.000493169  -0.402316 -1.58107 0.000266552  -0.472177 -1.60811 -4.41074e-05  -0.448083 -1.6808 0.000415266  -0.49557 -1.65812 -0.000233173  -0.471466 -1.73104 0.000186741  -0.495958 -1.65862 -0.000659704  -0.519508 -1.70867 -0.000798821  -0.448431 -1.68136 -0.000141621  -0.519161 -1.70818 -0.000405014  -0.494996 -1.7813 -4.84586e-05  -0.542855 -1.75828 -0.000582337  -0.518683 -1.83157 -0.000272691  -0.543166 -1.75872 -0.000960171  -0.566998 -1.80884 -0.00110662  -0.495274 -1.78179 -0.00053364  -0.566714 -1.8084 -0.000757992  -0.542482 -1.88184 -0.000494063  -0.590658 -1.85854 -0.000938237  -0.566406 -1.9321 -0.000719011  -0.590896 -1.85893 -0.001266  -0.614928 -1.90907 -0.00140673  -0.542699 -1.88227 -0.000916481  -0.614717 -1.90869 -0.00110775  -0.590405 -1.98234 -0.000927448  -0.638827 -1.95882 -0.00127691  -0.614485 -2.03255 -0.00113183  -0.639006 -1.95916 -0.00156206  -0.663185 -2.00928 -0.00170016  -0.590557 -1.98271 -0.00128758  -0.663018 -2.00895 -0.00143963  -0.638619 -2.08272 -0.00134259  -0.687243 -2.05904 -0.00161254  -0.662811 -2.13286 -0.00154054  -0.687368 -2.05933 -0.00185513  -0.711631 -2.1094 -0.00198656  -0.638719 -2.08305 -0.00163496  -0.711528 -2.10911 -0.00177675  -0.687018 -2.18293 -0.00173014  -0.735806 -2.15913 -0.00194031  -0.711265 -2.23296 -0.00192052  -0.735889 -2.15938 -0.00213987  -0.760199 -2.20937 -0.00227547  -0.687073 -2.18323 -0.00197291  -0.76013 -2.20911 -0.00210565  -0.735512 -2.28294 -0.00210011  -0.784432 -2.25904 -0.00226027  -0.759773 -2.33285 -0.00228739  -0.784474 -2.25926 -0.00241894  -0.808785 -2.30914 -0.00254589  -0.735538 -2.2832 -0.00229239  -0.808751 -2.30891 -0.00241858  -0.784015 -2.38268 -0.00245857  -0.833037 -2.35873 -0.0025726  -0.808253 -2.43244 -0.00263482  -0.83305 -2.35892 -0.00269407  -0.857332 -2.40868 -0.00282174  -0.784009 -2.38291 -0.00260323  -0.857327 -2.40847 -0.0027321  -0.832459 -2.48213 -0.00280249  -0.881562 -2.45814 -0.00288606  -0.856655 -2.53175 -0.00297511  -0.881552 -2.45833 -0.00296688  -0.905779 -2.50795 -0.00308847  -0.832441 -2.48234 -0.00290579  -0.905797 -2.50775 -0.00303745  -0.880804 -2.58127 -0.00313145  -0.929958 -2.55727 -0.00317752  -0.904924 -2.63073 -0.00329655  -0.929933 -2.55745 -0.00322771  -0.954082 -2.60691 -0.00335002  -0.880766 -2.58147 -0.00319034  -0.954107 -2.60672 -0.00333256  -0.928977 -2.68009 -0.00345087  -0.978159 -2.65609 -0.00347507  -0.952988 -2.72938 -0.00362402  -0.978136 -2.65626 -0.00349104  -1.00216 -2.70557 -0.00362337  -0.928936 -2.68029 -0.00346881  -1.00217 -2.70537 -0.00363195  0.00321718 -0.01009 0.0072279  0.00275467 -0.007236 0.00576854  0.0112785 -0.0224932 0.0126884  0.00274799 -0.00794232 0.00424957  0.00859299 -0.018998 0.00721949  0 0 0  0 0 0  0.00327251 -0.0108588 0.00540388  0 0 0  0.00896586 -0.017906 0.00987709  0.0219779 -0.0392157 0.0160781  0.0172508 -0.0330823 0.012641  0.0335609 -0.0570964 0.0182063  0.0162748 -0.0347863 0.00945866  0.0248412 -0.0523154 0.0107632  0.020795 -0.0409257 0.0120372  0.0261771 -0.0501536 0.0140694  0.0443318 -0.0777115 0.0190723  0.03472 -0.0701971 0.0146588  0.0544479 -0.10025 0.0195101  0.0332848 -0.0727729 0.0113425  0.0409921 -0.0952888 0.0115469  0.0427102 -0.0802951 0.0148317  0.0425084 -0.0923286 0.0148083  0.0632295 -0.125024 0.0194135  0.0492476 -0.116799 0.0146564  0.0707493 -0.151959 0.0192095  0.0477204 -0.119934 0.0114636  0.0531744 -0.146744 0.0113007  0.0616208 -0.128165 0.015281  0.0547227 -0.1434 0.014405  0.0769085 -0.180904 0.0187673  0.0589585 -0.172022 0.0140407  0.0816087 -0.211874 0.0183288  0.0573789 -0.175375 0.0109967  0.0602005 -0.206028 0.010739  0.0753392 -0.184249 0.0147993  0.0618042 -0.202612 0.0136899  0.0849407 -0.244634 0.017767  0.0633333 -0.234969 0.0132648  0.0867775 -0.279165 0.0172426  0.061703 -0.238295 0.0103762  0.061817 -0.27235 0.010098  0.0833716 -0.247947 0.0139917  0.063466 -0.269059 0.0128911  0.0872506 -0.315248 0.0166368  0.0622783 -0.304667 0.0124537  0.0862693 -0.352845 0.0160827  0.0606136 -0.30782 0.00972199  0.0580694 -0.344832 0.0094322  0.0856825 -0.318398 0.0130805  0.0597333 -0.341765 0.0120729  0.0839705 -0.391745 0.0154707  0.0559167 -0.380141 0.0116317  0.0802847 -0.431913 0.0149052  0.0542637 -0.383049 0.00905973  0.0491712 -0.422574 0.00876361  0.0824158 -0.394659 0.0121336  0.050814 -0.41977 0.0112495  0.0753511 -0.473168 0.0142932  0.0445149 -0.460468 0.0108083  0.0691301 -0.515479 0.0137328  0.0429033 -0.463109 0.00839591  0.0354359 -0.50475 0.0080899  0.073844 -0.475824 0.0111858  0.0370176 -0.502219 0.0104209  0.0617507 -0.558682 0.0131286  0.0284212 -0.544856 0.00997478  0.0531859 -0.602762 0.0125726  0.0268825 -0.547227 0.00772405  0.0172137 -0.590636 0.00741196  0.0603095 -0.561082 0.0102439  0.0187172 -0.588369 0.00958508  0.0435691 -0.647563 0.0119854  0.00801468 -0.632609 0.00914538  0.0328578 -0.693089 0.0114323  0.00656366 -0.634726 0.00704563  -0.00510848 -0.679603 0.00673193  0.0422076 -0.649716 0.00931561  -0.00370359 -0.677579 0.00875163  0.0211918 -0.739199 0.0108544  -0.0163165 -0.723148 0.0083127  0.0085516 -0.785905 0.0103173  -0.0176595 -0.725038 0.00636899  -0.0311424 -0.771126 0.00605565  0.0199331 -0.741128 0.00840384  -0.0298502 -0.769322 0.00792032  -0.00495052 -0.83308 0.00976402  -0.0441823 -0.81598 0.0074926  -0.019327 -0.880739 0.00924236  -0.0454156 -0.817662 0.00569904  -0.0605248 -0.864747 0.00538474  -0.00610542 -0.834805 0.00751388  -0.0593464 -0.863138 0.00709885  -0.0344764 -0.928779 0.00870275  -0.0752212 -0.910699 0.00667804  -0.0504079 -0.977208 0.00819808  -0.0763376 -0.912191 0.00503403  -0.0929024 -0.960095 0.00472677  -0.0355252 -0.930319 0.00664806  -0.0918361 -0.958664 0.00629795  -0.0670205 -1.02594 0.00768191  -0.109083 -1.00695 0.00588512  -0.0843306 -1.07498 0.00719237  -0.110085 -1.00828 0.00438112  -0.127941 -1.05684 0.00407964  -0.0679603 -1.02731 0.00581622  -0.126993 -1.05557 0.00550759  -0.102234 -1.12426 0.00669807  -0.145445 -1.10445 0.00511503  -0.120757 -1.17378 0.00623214  -0.146337 -1.10562 0.00374669  -0.165331 -1.15472 0.00345528  -0.103069 -1.12548 0.00501186  -0.16449 -1.15359 0.00474882  -0.1398 -1.22349 0.00575978  -0.184007 -1.20293 0.00436908  -0.159381 -1.27338 0.00531101  -0.18479 -1.20398 0.00313473  -0.204777 -1.2535 0.00284839  -0.140532 -1.22458 0.00424224  -0.204043 -1.25249 0.00401616  -0.179416 -1.3234 0.00485903  -0.224483 -1.30219 0.00364643  -0.199918 -1.37357 0.00443441  -0.225161 -1.30312 0.00253564  -0.246016 -1.35295 0.00226378  -0.180047 -1.32438 0.00350904  -0.245379 -1.35206 0.00330913  -0.220806 -1.42383 0.00400919  -0.266622 -1.40204 0.0029543  -0.2421 -1.47419 0.00360197  -0.267203 -1.40286 0.0019685  -0.288795 -1.45293 0.00169969  -0.221351 -1.42469 0.00280488  -0.288252 -1.45214 0.00262785  -0.263719 -1.5246 0.003196  -0.310173 -1.50232 0.00229478  -0.285687 -1.57509 0.0028097  -0.31066 -1.50305 0.00141549  -0.332874 -1.55328 0.00115842  -0.264175 -1.52537 0.00213373  -0.332423 -1.55258 0.00197846  -0.30792 -1.6256 0.00242531  -0.354911 -1.60289 0.00165921  -0.330445 -1.67615 0.00205749  -0.355313 -1.60353 0.000888944  -0.378059 -1.65387 0.000640273  -0.308291 -1.62628 0.00149983  -0.37769 -1.65325 0.00135714  -0.353194 -1.72669 0.00169766  -0.40065 -1.70363 0.00105786  -0.376182 -1.77725 0.00134635  -0.40098 -1.7042 0.000384986  -0.42414 -1.75459 0.000149012  -0.353491 -1.72729 0.000895739  -0.423844 -1.75404 0.000767469  -0.399346 -1.82779 0.00101125  -0.447182 -1.80444 0.000479162  -0.422705 -1.87832 0.000684679  -0.44744 -1.80494 -0.000101745  -0.470955 -1.85533 -0.000326037  -0.399577 -1.82832 0.000325143  -0.470719 -1.85485 0.000203371  -0.446198 -1.9288 0.000366211  -0.494352 -1.90523 -6.9797e-05  -0.469846 -1.97927 5.91278e-05  -0.494556 -1.90567 -0.000563145  -0.518319 -1.95603 -0.000770926  -0.446373 -1.92928 -0.000214934  -0.518146 -1.9556 -0.000326335  -0.493597 -2.02967 -0.000240743  -0.542014 -2.00593 -0.000590205  -0.517467 -2.08004 -0.000533879  -0.542154 -2.00631 -0.00100124  -0.566124 -2.0566 -0.00119942  -0.493713 -2.03009 -0.000722349  -0.566002 -2.05623 -0.000837147  -0.541394 -2.13034 -0.000810146  -0.590019 -2.10647 -0.00107545  -0.565408 -2.18059 -0.00107521  -0.590117 -2.10679 -0.00141042  -0.614208 -2.15698 -0.00159854  -0.541465 -2.1307 -0.00119889  -0.614127 -2.15666 -0.00130635  -0.589456 -2.23075 -0.00132638  -0.638254 -2.20679 -0.0015285  -0.613566 -2.28086 -0.00157285  -0.638304 -2.20707 -0.00179666  -0.662476 -2.25715 -0.00197315  -0.589487 -2.23107 -0.00163221  -0.662439 -2.25686 -0.00174665  -0.637687 -2.33088 -0.00180584  -0.686616 -2.30686 -0.00195545  -0.661842 -2.38083 -0.00203323  -0.686636 -2.30712 -0.00215936  -0.710845 -2.35705 -0.00232863  -0.63769 -2.33116 -0.00204349  -0.710835 -2.35679 -0.00216055  -0.68599 -2.43069 -0.00224221  -0.735019 -2.40664 -0.00235742  -0.710146 -2.48047 -0.00245386  -0.73501 -2.40687 -0.00250733  -0.759216 -2.45665 -0.0026632  -0.685963 -2.43094 -0.00241375  -0.759223 -2.45642 -0.00254726  -0.73428 -2.53017 -0.00264424  -0.783388 -2.50612 -0.0027262  -0.758422 -2.57978 -0.0028441  -0.783363 -2.50631 -0.00282747  -0.807535 -2.55594 -0.00297326  -0.734237 -2.5304 -0.00275701  -0.807563 -2.55573 -0.00290608  -0.782515 -2.62931 -0.00302702  -0.831676 -2.60526 -0.00308323  -0.806603 -2.67876 -0.00321674  -0.831632 -2.60545 -0.00313389  -0.855752 -2.65492 -0.00328153  -0.782455 -2.62952 -0.00308603  -0.855789 -2.65472 -0.00326622  -0.830641 -2.72813 -0.00339842  -0.879827 -2.70409 -0.00343543  -0.854659 -2.77744 -0.0035935  -0.879784 -2.70427 -0.00343901  -0.903802 -2.7536 -0.00358379  -0.830585 -2.72835 -0.00340891  -0.903832 -2.75339 -0.00362027  0.00525437 -0.0191731 0.00988871  0.00477931 -0.0138174 0.00876832  0.0191335 -0.036202 0.0174977  0.00478114 -0.0147456 0.00648636  0.0144891 -0.0301114 0.0111986  0 0 0  0 0 0  0.00539929 -0.0201012 0.0074634  0 0 0  0.0147523 -0.0287611 0.0151696  0.034901 -0.055223 0.0224031  0.0280104 -0.0465071 0.0195205  0.0512802 -0.074717 0.025658  0.0267643 -0.0484213 0.0146754  0.0399732 -0.0677737 0.0170759  0.0334771 -0.0573533 0.016862  0.0415945 -0.065361 0.0221083  0.0665033 -0.0956089 0.0273252  0.0548002 -0.0861511 0.0233768  0.0805824 -0.118847 0.0282781  0.0531234 -0.0888724 0.0182312  0.0651797 -0.112149 0.0188771  0.0646994 -0.0985544 0.0213388  0.0669056 -0.109108 0.0239905  0.0933473 -0.143929 0.028434  0.0777851 -0.134069 0.0240206  0.104598 -0.171483 0.0283183  0.0761571 -0.137234 0.0189747  0.0856438 -0.164635 0.0188512  0.0916726 -0.147207 0.0224761  0.0872456 -0.161324 0.0238163  0.114462 -0.201014 0.0278124  0.0952941 -0.19058 0.0233411  0.12271 -0.23273 0.02722  0.093742 -0.193881 0.0184901  0.100295 -0.225254 0.0180696  0.112911 -0.20435 0.0220442  0.101836 -0.221918 0.0228069  0.129495 -0.26629 0.0264333  0.106903 -0.255081 0.0221294  0.134649 -0.301705 0.0256391  0.105378 -0.25833 0.0175207  0.10893 -0.293263 0.0169903  0.128001 -0.269529 0.0209469  0.110448 -0.29005 0.0214639  0.138311 -0.338736 0.0247403  0.112521 -0.326607 0.0207074  0.140381 -0.377319 0.0238655  0.11101 -0.329691 0.0163678  0.111597 -0.367703 0.0157974  0.136847 -0.341794 0.0195801  0.113101 -0.364694 0.0199916  0.140988 -0.417254 0.0229328  0.112258 -0.404114 0.0192136  0.140076 -0.458477 0.0220369  0.11077 -0.406971 0.0151598  0.108516 -0.447578 0.014578  0.13956 -0.42009 0.0181224  0.109987 -0.44481 0.0184829  0.137779 -0.500814 0.0211062  0.106374 -0.486607 0.0177068  0.134048 -0.544208 0.0202165  0.104936 -0.489219 0.0139421  0.100003 -0.531983 0.0133638  0.136392 -0.503408 0.0166489  0.101419 -0.529463 0.0169828  0.129027 -0.588502 0.0193022  0.0952266 -0.573216 0.0162225  0.122682 -0.633656 0.0184329  0.0938456 -0.575582 0.0127408  0.0864371 -0.620112 0.01217  0.1277 -0.590855 0.0151954  0.0877849 -0.61784 0.0155102  0.11516 -0.67953 0.0175537  0.0792233 -0.663183 0.014771  0.106424 -0.726103 0.0167106  0.0779202 -0.66531 0.0115643  0.0682532 -0.711284 0.0110112  0.11391 -0.681652 0.0137815  0.0695121 -0.709243 0.0140752  0.0966229 -0.773243 0.0158626  0.0587867 -0.755877 0.0133621  0.0857137 -0.82095 0.0150484  0.0575784 -0.757782 0.0104243  0.04585 -0.804922 0.00988668  0.0954591 -0.775154 0.0124169  0.0470198 -0.803089 0.0126877  0.0738571 -0.869092 0.0142383  0.0343469 -0.850759 0.0120019  0.0610006 -0.91769 0.0134643  0.0332296 -0.852465 0.0093202  0.0196638 -0.900534 0.0088048  0.0727861 -0.870807 0.0111059  0.020732 -0.898897 0.011354  0.0472933 -0.966624 0.0126914  0.00631654 -0.947396 0.0106978  0.0326983 -1.01592 0.0119512  0.00530338 -0.948921 0.00826275  -0.00991333 -0.997738 0.00776851  0.0463202 -0.968165 0.00985152  -0.00894618 -0.996267 0.0100791  0.0173525 -1.06547 0.0112211  -0.024915 -1.04542 0.00945216  0.00120604 -1.1153 0.0105168  -0.0258267 -1.04678 0.00724739  -0.0425078 -1.09618 0.0067727  0.0164733 -1.06685 0.00865495  -0.0416451 -1.09486 0.00885707  -0.0155946 -1.16531 0.00982445  -0.0589902 -1.14452 0.00826228  -0.033105 -1.21554 0.00915694  -0.059796 -1.14574 0.00627875  -0.0777709 -1.19558 0.00582856  -0.0163704 -1.16655 0.00752503  -0.0770079 -1.19441 0.0077002  -0.0511858 -1.2659 0.00850362  -0.0955608 -1.24445 0.00713134  -0.0698915 -1.31642 0.00787443  -0.0962698 -1.24553 0.00535941  -0.115378 -1.29571 0.00492537  -0.0518637 -1.267 0.00645477  -0.114707 -1.29466 0.00659376  -0.0890853 -1.36701 0.00725925  -0.134313 -1.34498 0.00605989  -0.108834 -1.41773 0.00665885  -0.134932 -1.34595 0.00447839  -0.155021 -1.39636 0.00407106  -0.0896766 -1.368 0.00543994  -0.154443 -1.39543 0.00555134  -0.128999 -1.46848 0.00607663  -0.174966 -1.44594 0.00504375  -0.14964 -1.5193 0.00551975  -0.175489 -1.44681 0.00364673  -0.196426 -1.49738 0.00325978  -0.129501 -1.46936 0.00447476  -0.195937 -1.49655 0.0045622  -0.170642 -1.57014 0.00497508  -0.21724 -1.54718 0.00408202  -0.192055 -1.62101 0.00444478  -0.217682 -1.54794 0.00285804  -0.239341 -1.5986 0.00249231  -0.171059 -1.57092 0.00357074  -0.238931 -1.59787 0.00363064  -0.21376 -1.67186 0.00393683  -0.2609 -1.64856 0.00317866  -0.235818 -1.72273 0.0034374  -0.261257 -1.64923 0.00211453  -0.283524 -1.69993 0.00177079  -0.214098 -1.67256 0.00271869  -0.283195 -1.69928 0.00274938  -0.258119 -1.77356 0.00295413  -0.305711 -1.74998 0.00232661  -0.280717 -1.82438 0.00249463  -0.305999 -1.75057 0.0014137  -0.32877 -1.80125 0.00108516  -0.258388 -1.77418 0.0019117  -0.328508 -1.80067 0.00192034  -0.303501 -1.87513 0.00205266  -0.351477 -1.85133 0.00152934  -0.326539 -1.92586 0.00162101  -0.351701 -1.85185 0.00075531  -0.37488 -1.90248 0.000449479  -0.30371 -1.87568 0.00117201  -0.374681 -1.90196 0.00115091  -0.349725 -1.97652 0.00120926  -0.398016 -1.95254 0.000784636  -0.373107 -2.02712 0.000812411  -0.398173 -1.953 0.000136673  -0.421676 -2.00353 -0.000146091  -0.349868 -1.977 0.000475883  -0.421534 -2.00308 0.000432134  -0.396607 -2.07765 0.000430524  -0.445152 -2.05356 9.26852e-05  -0.420263 -2.12812 5.87106e-05  -0.445261 -2.05396 -0.000437677  -0.469011 -2.10438 -0.000706732  -0.396704 -2.07807 -0.000171363  -0.468918 -2.10398 -0.00023514  -0.443991 -2.17849 -0.000283301  -0.492737 -2.15433 -0.000543296  -0.467838 -2.22879 -0.000619054  -0.492805 -2.15468 -0.000973761  -0.516732 -2.20495 -0.00121778  -0.444043 -2.17886 -0.000757873  -0.516676 -2.20461 -0.000846684  -0.491737 -2.27899 -0.000930846  -0.540638 -2.2548 -0.0011282  -0.515716 -2.32913 -0.0012359  -0.54067 -2.2551 -0.00146425  -0.564713 -2.30523 -0.00168884  -0.491751 -2.27932 -0.00130028  -0.564691 -2.30492 -0.00140613  -0.539718 -2.37915 -0.00151241  -0.58874 -2.35495 -0.00166035  -0.563782 -2.4291 -0.0017854  -0.58874 -2.35522 -0.00191075  -0.612844 -2.40518 -0.00211167  -0.539709 -2.37944 -0.00179231  -0.612855 -2.40491 -0.00191009  -0.587846 -2.47895 -0.00203705  -0.636951 -2.45477 -0.0021382  -0.611938 -2.52872 -0.0022772  -0.636921 -2.45501 -0.00231421  -0.661048 -2.5048 -0.00249898  -0.587804 -2.47921 -0.00223297  -0.66108 -2.50455 -0.00236893  -0.636007 -2.57838 -0.00249952  -0.685175 -2.55424 -0.00257409  -0.660089 -2.62797 -0.00271344  -0.685131 -2.55445 -0.00268537  -0.709245 -2.60407 -0.00285107  -0.635947 -2.57862 -0.00262296  -0.709289 -2.60384 -0.00278103  -0.684142 -2.67747 -0.0029127  -0.733358 -2.65336 -0.00297773  -0.708205 -2.72689 -0.00311691  -0.733303 -2.65356 -0.00303173  -0.757386 -2.70301 -0.00319326  -0.68408 -2.6777 -0.00298095  -0.757435 -2.70279 -0.00317436  -0.732241 -2.77626 -0.00330848  -0.78147 -2.75217 -0.00336397  -0.756279 -2.82558 -0.00351697  -0.781413 -2.75237 -0.00336784  -0.805445 -2.80172 -0.00353318  -0.732172 -2.77649 -0.0033198  -0.805485 -2.80149 -0.00356388  0.0090124 -0.0356936 0.0128924  0.00831518 -0.0258098 0.0114153  0.0337164 -0.0600536 0.0212139  0.00818966 -0.0270892 0.00834519  0.023868 -0.0491875 0.0143827  0 0 0  0 0 0  0.00876908 -0.0368803 0.00943935  0 0 0  0.0239127 -0.0470925 0.0193873  0.0557605 -0.0760933 0.0285554  0.0436251 -0.0651497 0.0253933  0.0740344 -0.0964493 0.0328496  0.0422411 -0.0676967 0.0191869  0.059856 -0.0881959 0.0226163  0.0540933 -0.0796824 0.0214141  0.0616132 -0.0852075 0.0291367  0.0931345 -0.116633 0.0351956  0.0790371 -0.105808 0.0312656  0.11043 -0.140182 0.0366355  0.0772575 -0.109022 0.0244555  0.0931998 -0.132469 0.0255674  0.0914124 -0.120318 0.0274774  0.0950013 -0.129214 0.0324253  0.126786 -0.165614 0.0369118  0.109556 -0.154476 0.0327149  0.141626 -0.193743 0.0368753  0.107884 -0.157805 0.0259048  0.12106 -0.185601 0.0258653  0.12516 -0.169094 0.0291985  0.122693 -0.182289 0.0326263  0.154981 -0.224 0.0362805  0.13427 -0.212176 0.0321037  0.166682 -0.256524 0.0355482  0.132708 -0.215457 0.0254924  0.142771 -0.247516 0.0249583  0.153422 -0.227293 0.0287855  0.144293 -0.244265 0.0314338  0.176777 -0.290991 0.0345671  0.152715 -0.27827 0.0305583  0.185123 -0.327361 0.0335238  0.151213 -0.281419 0.0242593  0.158033 -0.317238 0.0235269  0.175256 -0.294086 0.0274324  0.159505 -0.314141 0.0296347  0.191855 -0.365397 0.0323799  0.164692 -0.35167 0.0286092  0.196832 -0.405012 0.0312155  0.16323 -0.354623 0.022693  0.166815 -0.393644 0.0218827  0.190366 -0.368269 0.0256816  0.168253 -0.390755 0.0275895  0.200248 -0.446008 0.0300179  0.170256 -0.431214 0.0265146  0.201952 -0.488302 0.0288085  0.16883 -0.433949 0.0210034  0.169293 -0.475628 0.0201707  0.198793 -0.448651 0.0237851  0.170692 -0.472968 0.0254632  0.202193 -0.531704 0.0276105  0.169657 -0.515837 0.0243906  0.200801 -0.576164 0.0264051  0.168276 -0.518337 0.0192903  0.165784 -0.562192 0.0184642  0.200783 -0.534113 0.0218513  0.167134 -0.559764 0.0233433  0.19806 -0.621509 0.0252344  0.163243 -0.604586 0.0222908  0.193795 -0.667706 0.0240573  0.161923 -0.606852 0.0175996  0.156693 -0.652459 0.0167944  0.196715 -0.623686 0.0199407  0.157976 -0.650265 0.0212736  0.188307 -0.714589 0.0229254  0.15146 -0.69665 0.0202534  0.181403 -0.762156 0.0217955  0.150212 -0.698689 0.0159605  0.142474 -0.745704 0.0151846  0.187033 -0.71655 0.0180827  0.143683 -0.743726 0.0192766  0.173411 -0.810246 0.0207069  0.134772 -0.791348 0.0182957  0.164119 -0.858885 0.0196242  0.133612 -0.793185 0.0143826  0.123588 -0.841309 0.0136372  0.172226 -0.812012 0.0162986  0.124707 -0.839529 0.0173553  0.15386 -0.907905 0.0185894  0.113637 -0.888119 0.0164227  0.142425 -0.957365 0.0175632  0.112568 -0.889768 0.0128668  0.100497 -0.938755 0.0121554  0.152773 -0.909492 0.0145972  0.101526 -0.937159 0.015526  0.130137 -1.00711 0.0165835  0.0885171 -0.986508 0.0146437  0.116777 -1.05719 0.0156063  0.0875401 -0.987985 0.0114286  0.0736359 -1.03764 0.0107521  0.129141 -1.00853 0.0129727  0.0745672 -1.03621 0.0137874  0.102678 -1.10746 0.0146786  0.0598364 -1.08613 0.0129534  0.087615 -1.15799 0.0137641  0.0589563 -1.08745 0.0100614  0.0434192 -1.1376 0.00941771  0.101781 -1.10873 0.0114387  0.0442573 -1.13632 0.0121448  0.0719097 -1.20865 0.0128871  0.0279931 -1.18667 0.0113573  0.0553398 -1.2595 0.0120209  0.0272112 -1.18785 0.00876629  0.0102367 -1.23837 0.00816262  0.0711091 -1.20979 0.00998551  0.010978 -1.23722 0.0105952  0.0382192 -1.31042 0.0112011  -0.00663042 -1.28787 0.00985008  0.0203266 -1.36148 0.0103824  -0.00732279 -1.28892 0.00754333  -0.0255587 -1.33969 0.00697505  0.037514 -1.31144 0.00862372  -0.0249109 -1.33867 0.00913221  0.00197172 -1.41255 0.00961071  -0.0436974 -1.38951 0.00843143  -0.0170798 -1.46373 0.00884271  -0.0442967 -1.39045 0.00639099  -0.0636318 -1.44138 0.00585115  0.00135875 -1.41347 0.0073331  -0.0630758 -1.44047 0.00775641  -0.0365138 -1.51489 0.00812095  -0.0828934 -1.49144 0.00710028  -0.0565619 -1.5661 0.00740349  -0.0833981 -1.49226 0.00530452  -0.103689 -1.54328 0.00479978  -0.0370324 -1.51569 0.00612116  -0.103214 -1.54246 0.00646317  -0.0769327 -1.61726 0.00672549  -0.123906 -1.59347 0.0058462  -0.0978322 -1.66845 0.00605327  -0.12433 -1.59421 0.00428289  -0.145442 -1.64524 0.00380969  -0.0773685 -1.61798 0.00498492  -0.145049 -1.64452 0.00525177  -0.118998 -1.71957 0.00542516  -0.166494 -1.69551 0.00467503  -0.14063 -1.77069 0.00479668  -0.166845 -1.69617 0.00332588  -0.188643 -1.74716 0.0028801  -0.119353 -1.72021 0.00392681  -0.188327 -1.74652 0.00411403  -0.16248 -1.82171 0.00420082  -0.210412 -1.79745 0.00357574  -0.184725 -1.87272 0.00362647  -0.210685 -1.79803 0.00242996  -0.233068 -1.84894 0.00201505  -0.16276 -1.82228 0.00293458  -0.232818 -1.84838 0.00305665  -0.207125 -1.92361 0.00308383  -0.25542 -1.89921 0.00256032  -0.229879 -1.97447 0.0025447  -0.255632 -1.89972 0.00159538  -0.27849 -1.95051 0.00121307  -0.207351 -1.92411 0.00201565  -0.278297 -1.95001 0.00208497  -0.252743 -2.02522 0.00204849  -0.30133 -2.00072 0.00162351  -0.275904 -2.0759 0.00154406  -0.301484 -2.00116 0.000825465  -0.324724 -2.05182 0.000469923  -0.252904 -2.02565 0.00116259  -0.324594 -2.05138 0.00117826  -0.299146 -2.12646 0.00108844  -0.347969 -2.10193 0.000757098  -0.322629 -2.17696 0.000645936  -0.348067 -2.10232 0.000110328  -0.371613 -2.15281 -0.000211418  -0.299249 -2.12684 0.000378072  -0.371529 -2.15242 0.000352383  -0.34616 -2.22733 0.000231147  -0.39516 -2.2028 -3.11732e-05  -0.369883 -2.27762 -0.000175953  -0.395223 -2.20314 -0.000544906  -0.418983 -2.25345 -0.000837564  -0.34622 -2.22766 -0.000331342  -0.418933 -2.25311 -0.000397444  -0.393621 -2.3278 -0.000545442  -0.442755 -2.30331 -0.000742257  -0.417533 -2.37789 -0.000905216  -0.44278 -2.3036 -0.00113505  -0.466699 -2.35372 -0.00139892  -0.393645 -2.32809 -0.000971854  -0.466692 -2.35343 -0.00107402  -0.441414 -2.42786 -0.00122952  -0.49064 -2.40344 -0.00137991  -0.465438 -2.47774 -0.0015521  -0.490631 -2.40369 -0.00166547  -0.514651 -2.45363 -0.00189251  -0.441407 -2.42812 -0.00154388  -0.514665 -2.45337 -0.00166702  -0.489419 -2.52751 -0.00182575  -0.538693 -2.50318 -0.00193995  -0.513493 -2.5772 -0.00209898  -0.538654 -2.50342 -0.00213319  -0.562729 -2.55316 -0.00233716  -0.489383 -2.52775 -0.00204283  -0.562766 -2.55292 -0.00219119  -0.537519 -2.62679 -0.00233591  -0.586808 -2.60256 -0.00242072  -0.561603 -2.6763 -0.00257063  -0.586762 -2.60277 -0.00254446  -0.610836 -2.65234 -0.00272572  -0.537465 -2.62702 -0.00247246  -0.610885 -2.65211 -0.00264841  -0.58564 -2.72574 -0.0027802  -0.634926 -2.70158 -0.00285214  -0.609703 -2.77512 -0.00299132  -0.634871 -2.70179 -0.00291127  -0.65892 -2.75121 -0.00308341  -0.585573 -2.72597 -0.00284642  -0.658971 -2.75099 -0.00305969  -0.633732 -2.82446 -0.00318229  -0.683016 -2.80035 -0.00325733  -0.657804 -2.87376 -0.00340003  -0.682951 -2.80056 -0.00326431  -0.707012 -2.8499 -0.00343841  -0.633658 -2.8247 -0.00320315  -0.707057 -2.84966 -0.00346869  -0.00395218 -0.00725978 -0.00644314  -0.00498014 -0.0122389 -0.00778043  -0.0136554 -0.0198627 -0.0116539  -0.0053477 -0.0127953 -0.0053674  -0.0224383 -0.0315079 -0.00931549  -0.0226135 -0.0275632 -0.0062362  0 0 0  -0.0217927 -0.0261836 -0.00911045  0 0 0  0 0 0  -0.00385653 -0.0073735 -0.00413966  0 0 0  -0.0407868 -0.041241 -0.0166051  -0.0219506 -0.0300179 -0.0141  -0.0267907 -0.033 -0.0158048  -0.0383446 -0.0422583 -0.0188413  -0.0407948 -0.0464649 -0.0188673  -0.0390135 -0.0443002 -0.012553  -0.0560583 -0.0579053 -0.0149672  -0.0585597 -0.0534168 -0.0146642  -0.0569208 -0.0509908 -0.021631  -0.0270774 -0.0348014 -0.0105275  -0.0758324 -0.0640986 -0.0261374  -0.0552541 -0.0551326 -0.0223724  -0.0560841 -0.0620876 -0.0208496  -0.0726101 -0.0686442 -0.0245296  -0.0708944 -0.0785492 -0.0219367  -0.0733187 -0.0717192 -0.016422  -0.0907507 -0.0871627 -0.0174537  -0.0952965 -0.0787801 -0.0190588  -0.0940401 -0.0755425 -0.0283597  -0.0564692 -0.064767 -0.0139511  -0.113794 -0.09016 -0.0299763  -0.0900469 -0.0839248 -0.0257993  -0.0863814 -0.0975804 -0.0223039  -0.107902 -0.101215 -0.0261933  -0.101806 -0.118151 -0.0221407  -0.108595 -0.104505 -0.0177176  -0.126514 -0.123566 -0.0177387  -0.134254 -0.109131 -0.0204566  -0.133334 -0.105672 -0.0302998  -0.0869973 -0.100479 -0.0151324  -0.153344 -0.123448 -0.0300447  -0.125759 -0.120365 -0.0259717  -0.117704 -0.140793 -0.0216041  -0.143934 -0.141578 -0.0253553  -0.133838 -0.165061 -0.0207986  -0.144763 -0.144675 -0.01731  -0.163057 -0.167331 -0.0167599  -0.174244 -0.146389 -0.0199009  -0.173384 -0.143092 -0.0292742  -0.118558 -0.14356 -0.01482  -0.19335 -0.164371 -0.0280884  -0.162122 -0.164426 -0.0243658  -0.150332 -0.191013 -0.019855  -0.180575 -0.189117 -0.0232851  -0.167138 -0.218422 -0.0187939  -0.181588 -0.191843 -0.0160127  -0.200171 -0.217725 -0.0152169  -0.21445 -0.190593 -0.0183618  -0.213505 -0.187662 -0.0268312  -0.151388 -0.193492 -0.0137269  -0.233427 -0.212286 -0.0253099  -0.199068 -0.215215 -0.0220088  -0.184278 -0.247296 -0.0177474  -0.217818 -0.242927 -0.0207967  -0.201718 -0.27744 -0.0166566  -0.21897 -0.245249 -0.0143884  -0.23786 -0.274004 -0.013555  -0.254673 -0.241248 -0.0164713  -0.253622 -0.238742 -0.0239367  -0.185471 -0.249444 -0.0123444  -0.273619 -0.266381 -0.0224094  -0.236639 -0.27188 -0.0195078  -0.219497 -0.308899 -0.0156572  -0.255752 -0.302264 -0.018353  -0.237568 -0.341479 -0.0146592  -0.256979 -0.304216 -0.0127702  -0.276226 -0.33554 -0.0119973  -0.295045 -0.297738 -0.0146065  -0.293926 -0.295628 -0.0211109  -0.220761 -0.310731 -0.0109582  -0.314128 -0.32596 -0.0197165  -0.274968 -0.333762 -0.017174  -0.256001 -0.375248 -0.0137711  -0.294505 -0.366539 -0.0161386  -0.274719 -0.410011 -0.0128954  -0.295739 -0.368167 -0.0112978  -0.31542 -0.401803 -0.0106164  -0.335786 -0.359469 -0.0129123  -0.334661 -0.357706 -0.0185622  -0.257268 -0.376796 -0.00970531  -0.355171 -0.390444 -0.0173467  -0.314183 -0.400316 -0.0151108  -0.293816 -0.445855 -0.0121275  -0.33421 -0.435239 -0.0142165  -0.313203 -0.482594 -0.0113796  -0.335402 -0.436606 -0.0100182  -0.355583 -0.472326 -0.00943804  -0.377126 -0.425907 -0.0114481  -0.376036 -0.424432 -0.0163502  -0.295038 -0.447169 -0.00861228  -0.396937 -0.459317 -0.0153081  -0.3544 -0.471074 -0.0133373  -0.332963 -0.520297 -0.0107303  -0.374954 -0.507934 -0.0125732  -0.353019 -0.558812 -0.0100996  -0.376077 -0.509087 -0.00893366  -0.396788 -0.546681 -0.00844145  -0.419233 -0.496573 -0.0102005  -0.418194 -0.495323 -0.014451  -0.33411 -0.521418 -0.00769341  -0.439535 -0.53215 -0.0135634  -0.395691 -0.545615 -0.011825  -0.373439 -0.598193 -0.00954199  -0.416784 -0.584222 -0.0111709  -0.394144 -0.638295 -0.00900435  -0.417819 -0.585205 -0.00801694  -0.439071 -0.624483 -0.00759828  -0.462185 -0.571044 -0.00913751  -0.461225 -0.56998 -0.0128288  -0.374491 -0.599154 -0.00691712  -0.48302 -0.608546 -0.0120679  -0.438067 -0.623566 -0.0105342  -0.415197 -0.679174 -0.00852537  -0.459695 -0.663737 -0.00996804  -0.436528 -0.720701 -0.00806475  -0.460632 -0.664584 -0.00723267  -0.482413 -0.705368 -0.00687778  -0.506024 -0.648935 -0.00822163  -0.505147 -0.648011 -0.0114257  -0.416156 -0.680007 -0.0062623  -0.527397 -0.688143 -0.0107728  -0.481506 -0.704575 -0.00941527  -0.45818 -0.762925 -0.00765371  -0.503649 -0.746159 -0.00892699  -0.480088 -0.805719 -0.00725842  -0.504493 -0.746892 -0.00656414  -0.526773 -0.789023 -0.00625479  -0.550749 -0.729896 -0.00743914  -0.549956 -0.729088 -0.010213  -0.459039 -0.763649 -0.00570333  -0.57264 -0.770637 -0.00964141  -0.525961 -0.788334 -0.00844717  -0.502294 -0.849134 -0.00689733  -0.548572 -0.831168 -0.00801885  -0.52473 -0.893055 -0.00655663  -0.54933 -0.831807 -0.00598931  -0.572074 -0.875137 -0.00572062  -0.596307 -0.8136 -0.00675905  -0.595608 -0.812899 -0.00915706  -0.503062 -0.849766 -0.00522959  -0.618694 -0.855703 -0.00865328  -0.571359 -0.874536 -0.00760591  -0.547434 -0.937524 -0.00624609  -0.594403 -0.918491 -0.00722885  -0.570342 -0.982444 -0.00594413  -0.595067 -0.919043 -0.00549078  -0.618228 -0.963436 -0.00526011  -0.642646 -0.899762 -0.00616288  -0.642025 -0.899149 -0.00821638  -0.548109 -0.938076 -0.00482738  -0.665474 -0.943073 -0.00777769  -0.617594 -0.962914 -0.00686407  -0.593479 -1.02784 -0.00567293  -0.641023 -1.00786 -0.00653088  -0.616804 -1.07363 -0.00541115  -0.641607 -1.00834 -0.00505757  -0.665135 -1.05367 -0.00485802  -0.689686 -0.988111 -0.00564778  -0.689144 -0.987568 -0.00739694  -0.594073 -1.02832 -0.00447631  -0.712908 -1.03249 -0.00700951  -0.66458 -1.05321 -0.0062139  -0.640326 -1.11984 -0.00517511  -0.688344 -1.09903 -0.00592661  -0.664 -1.1664 -0.00495279  -0.68885 -1.09945 -0.004686  -0.712691 -1.14561 -0.00451231  -0.73733 -1.07839 -0.00519645  -0.73686 -1.07791 -0.00667226  -0.64084 -1.12027 -0.00417912  -0.760886 -1.12371 -0.00632596  -0.712208 -1.1452 -0.00564742  -0.687847 -1.21332 -0.00475144  -0.736245 -1.19178 -0.00539458  -0.711812 -1.26053 -0.00455844  -0.736683 -1.19214 -0.00436497  -0.760776 -1.23901 -0.00422025  -0.785489 -1.17037 -0.00480807  -0.785078 -1.16995 -0.00603127  -0.688288 -1.21369 -0.00392783  -0.809338 -1.21651 -0.00574148  -0.760366 -1.23866 -0.00515378  -0.735919 -1.30805 -0.00438476  -0.784628 -1.28589 -0.00493729  -0.760126 -1.35583 -0.00422072  -0.785001 -1.28621 -0.00409377  -0.809308 -1.3337 -0.0039686  -0.834061 -1.26383 -0.00447977  -0.833716 -1.26346 -0.00548768  -0.736297 -1.30838 -0.0037185  -0.858142 -1.31069 -0.00522661  -0.808957 -1.33339 -0.00472951  -0.784438 -1.40387 -0.00406945  -0.833392 -1.38118 -0.00454259  -0.808818 -1.45212 -0.00393772  -0.833706 -1.38146 -0.00386858  -0.858162 -1.42947 -0.00376427  -0.882954 -1.35857 -0.00418985  -0.882667 -1.35824 -0.00500727  -0.784756 -1.40416 -0.00354826  -0.907224 -1.40603 -0.00478661  -0.857869 -1.4292 -0.00436723  -0.833282 -1.50059 -0.00381112  -0.882424 -1.47747 -0.00420988  -0.857799 -1.54922 -0.00370729  -0.882684 -1.47771 -0.00368404  -0.90725 -1.52616 -0.00360382  -0.932074 -1.45439 -0.00396168  -0.931845 -1.4541 -0.00460255  -0.833549 -1.50084 -0.00341439  -0.956479 -1.50237 -0.00441551  -0.907008 -1.52592 -0.00407076  -0.88237 -1.59804 -0.00361133  -0.931642 -1.57457 -0.00393772  -0.906967 -1.64701 -0.00352561  -0.931856 -1.57479 -0.00353837  -0.956484 -1.6236 -0.00347245  -0.981339 -1.55113 -0.00377035  -0.981156 -1.55087 -0.00426018  -0.882581 -1.59828 -0.00331175  -1.00584 -1.59954 -0.004107  -0.956294 -1.62338 -0.00382376  -0.931592 -1.69611 -0.00345182  -0.980965 -1.67235 -0.00371897  -0.956229 -1.74531 -0.00339413  -0.981133 -1.67255 -0.00343215  -1.00578 -1.72164 -0.00338459  -1.03067 -1.64862 -0.00362599  -1.03053 -1.64839 -0.00398409  -0.931763 -1.69631 -0.00324893  -1.05522 -1.69738 -0.00386381  -1.00563 -1.72145 -0.00363243  -0.980874 -1.79463 -0.00334179  -1.03031 -1.77067 -0.00356138  -1.00552 -1.84402 -0.00330901  -1.03044 -1.77083 -0.00336647  -1.05508 -1.82014 -0.00333428  -1.08001 -1.74671 -0.0035224  -1.0799 -1.74651 -0.00376451  -0.981004 -1.79481 -0.00321436  -1.10457 -1.79574 -0.00367618  -1.05497 -1.81997 -0.00350296  -1.03015 -1.89349 -0.00327861  -1.07962 -1.86937 -0.00345552  -1.05476 -1.94301 -0.00326848  -1.07971 -1.86952 -0.00333285  -1.10432 -1.91899 -0.00332677  -1.12928 -1.84526 -0.00345218  -1.1292 -1.84508 -0.00361538  -1.03024 -1.89366 -0.00321293  -1.15382 -1.8945 -0.00356233  -1.10423 -1.91883 -0.00342  -1.07935 -1.99257 -0.00326312  -1.12883 -1.96835 -0.0033952  -1.10391 -2.04216 -0.00326788  -1.12889 -1.96849 -0.00333428  -1.15344 -2.01805 -0.00334728  -1.17844 -1.94415 -0.00343704  -1.17839 -1.94399 -0.00352287  -1.07941 -1.99272 -0.00323963  -1.20293 -1.99353 -0.00349832  -1.15339 -2.01791 -0.00338936  -1.12844 -2.09177 -0.00328279  -1.1779 -2.0675 -0.00338912  -1.15292 -2.14138 -0.00331426  -1.17794 -2.06762 -0.00336957  -1.20241 -2.11722 -0.00339031  -1.22745 -2.04325 -0.00345242  -1.22742 -2.0431 -0.00348508  -1.12848 -2.09191 -0.00329328  -1.25189 -2.0927 -0.00348079  -1.20238 -2.1171 -0.00340879  -1.17737 -2.19099 -0.00334835  -1.22681 -2.1667 -0.0034312  -1.20177 -2.24058 -0.0033977  -1.22683 -2.16681 -0.0034368  -1.25123 -2.21642 -0.00347686  -1.27629 -2.14245 -0.00350308  -1.27628 -2.14231 -0.00350046  -1.1774 -2.19111 -0.00337696  -1.30067 -2.19193 -0.00352871  -1.25121 -2.2163 -0.00346565  -1.22613 -2.29015 -0.00344074  -1.27555 -2.26588 -0.0035131  -1.25045 -2.33969 -0.00350809  -1.27556 -2.26598 -0.00353742  -1.29988 -2.31554 -0.00358713  -1.32498 -2.24165 -0.00359464  -1.32499 -2.24153 -0.00357378  -1.22614 -2.29027 -0.00348282  -1.34929 -2.2911 -0.00362313  -1.29986 -2.31543 -0.00357056  -1.27472 -2.38918 -0.00356805  -1.32412 -2.36495 -0.0036273  -1.29894 -2.43864 -0.00364184  -1.32412 -2.36503 -0.00365341  -1.34837 -2.41453 -0.00371408  -1.37352 -2.34076 -0.00370574  -1.37352 -2.34065 -0.00367713  -1.27471 -2.3893 -0.00360882  -1.39776 -2.39016 -0.00374591  -1.34835 -2.41442 -0.00369847  -1.32314 -2.48805 -0.00370443  -1.37255 -2.46385 -0.00375295  -1.34732 -2.53742 -0.00376761  -1.37256 -2.46394 -0.00377858  -1.39678 -2.51335 -0.00383401  -1.42197 -2.43972 -0.00383413  -1.42196 -2.43961 -0.00381351  -1.32314 -2.48817 -0.00374007  -1.44617 -2.48904 -0.00386727  -1.39676 -2.51324 -0.00382066  -0.00184089 -0.00283632 -0.00400221  -0.00227311 -0.00443062 -0.00515807  -0.00608454 -0.0102654 -0.00742817  -0.00229465 -0.00476053 -0.00345767  -0.00849735 -0.0148585 -0.00641203  0 0 0  0 0 0  -0.0018853 -0.00314863 -0.00262308  0 0 0  -0.00805949 -0.0135663 -0.00940835  -0.0121639 -0.0223308 -0.0103463  -0.017795 -0.0264843 -0.012989  -0.0201443 -0.037462 -0.0124326  -0.0180424 -0.0280026 -0.00863969  -0.0293704 -0.0430837 -0.0104928  -0.0122153 -0.0237154 -0.0068208  -0.0289521 -0.0410374 -0.015618  -0.0291284 -0.0544092 -0.0137592  -0.0410167 -0.0573633 -0.017234  -0.0389524 -0.0736155 -0.0146239  -0.0413149 -0.0596134 -0.0115352  -0.0541635 -0.0780441 -0.01238  -0.0293251 -0.0564448 -0.00928879  -0.0537135 -0.0755188 -0.0182265  -0.0493575 -0.0946559 -0.0148573  -0.0665871 -0.0955211 -0.0185032  -0.0602609 -0.117529 -0.0147946  -0.0671132 -0.0981186 -0.0125939  -0.0806312 -0.120015 -0.0126357  -0.0497927 -0.0970172 -0.010195  -0.079969 -0.117406 -0.0184077  -0.0717046 -0.142262 -0.0144337  -0.0936347 -0.141091 -0.0179608  -0.0836837 -0.168633 -0.0139105  -0.0944253 -0.143648 -0.0123695  -0.108696 -0.16895 -0.0119662  -0.0724501 -0.14463 -0.0100219  -0.107784 -0.16649 -0.0172963  -0.0962182 -0.196645 -0.0132807  -0.122344 -0.193503 -0.0165247  -0.10936 -0.226124 -0.0125739  -0.123381 -0.195839 -0.011485  -0.138483 -0.224201 -0.0108895  -0.0972255 -0.19885 -0.00930798  -0.137366 -0.222004 -0.0156404  -0.123051 -0.257 -0.0118721  -0.152838 -0.251921 -0.0147814  -0.137363 -0.289174 -0.0111418  -0.154043 -0.253966 -0.0103451  -0.169994 -0.285036 -0.00972247  -0.124229 -0.25897 -0.00838661  -0.168746 -0.283127 -0.0138699  -0.152199 -0.322561 -0.0104717  -0.185111 -0.315585 -0.0130429  -0.167628 -0.357088 -0.00979507  -0.186394 -0.317342 -0.00919867  -0.203184 -0.350815 -0.00862014  -0.153451 -0.32428 -0.0074594  -0.201895 -0.349176 -0.0122091  -0.183568 -0.392686 -0.00919962  -0.219123 -0.383887 -0.0114684  -0.20006 -0.429296 -0.00860417  -0.220411 -0.385383 -0.00814927  -0.238033 -0.421 -0.00764358  -0.184819 -0.394174 -0.00661254  -0.236767 -0.419604 -0.0107384  -0.217047 -0.466862 -0.00809681  -0.254844 -0.456326 -0.0101006  -0.234548 -0.505326 -0.00759482  -0.256083 -0.457604 -0.00724304  -0.274524 -0.495144 -0.00682056  -0.218251 -0.468145 -0.00588632  -0.273323 -0.493949 -0.00948119  -0.252522 -0.544643 -0.00716245  -0.292222 -0.532475 -0.00894022  -0.270973 -0.584756 -0.00674129  -0.293384 -0.533566 -0.00648284  -0.312622 -0.57283 -0.00612962  -0.253652 -0.54575 -0.00528038  -0.311504 -0.571803 -0.00841784  -0.289876 -0.62563 -0.00638461  -0.331193 -0.61194 -0.00796092  -0.309222 -0.667206 -0.00602889  -0.332263 -0.612878 -0.00584626  -0.352268 -0.653678 -0.0055505  -0.290917 -0.626589 -0.00478268  -0.351245 -0.652792 -0.00751662  -0.328984 -0.709458 -0.00572932  -0.371676 -0.694364 -0.0071274  -0.349151 -0.752333 -0.00543356  -0.372649 -0.695174 -0.0053122  -0.393378 -0.737343 -0.00506604  -0.329929 -0.710295 -0.00436747  -0.392449 -0.736574 -0.00674927  -0.36971 -0.795811 -0.0051806  -0.413579 -0.779428 -0.00641596  -0.39063 -0.839829 -0.0049324  -0.414453 -0.78013 -0.00486505  -0.435848 -0.823512 -0.00465965  -0.370557 -0.796538 -0.0040288  -0.435017 -0.822841 -0.00609887  -0.411904 -0.88438 -0.00471222  -0.456775 -0.866825 -0.0058068  -0.433509 -0.929406 -0.00450277  -0.457554 -0.867437 -0.00448596  -0.479552 -0.911889 -0.00431287  -0.412666 -0.885019 -0.00374901  -0.478816 -0.911305 -0.00553286  -0.455421 -0.974893 -0.00432074  -0.501142 -0.956286 -0.00528657  -0.477629 -1.0208 -0.00414371  -0.501828 -0.956815 -0.00417042  -0.524368 -1.00221 -0.00402176  -0.456091 -0.975453 -0.00352025  -0.523717 -1.0017 -0.00504804  -0.500106 -1.0671 -0.0039885  -0.546545 -1.04755 -0.0048368  -0.52284 -1.11376 -0.00384176  -0.547144 -1.04801 -0.00390065  -0.570155 -1.09422 -0.00377429  -0.500693 -1.06759 -0.00332999  -0.569586 -1.09378 -0.00463045  -0.545806 -1.16077 -0.00371301  -0.592846 -1.14039 -0.00444818  -0.568993 -1.20809 -0.00359178  -0.593371 -1.14079 -0.0036763  -0.616788 -1.18772 -0.00357366  -0.546317 -1.16121 -0.00318217  -0.616298 -1.18733 -0.00427926  -0.592378 -1.25571 -0.00348461  -0.639919 -1.23459 -0.00412238  -0.615942 -1.30358 -0.00338554  -0.64037 -1.23494 -0.00349367  -0.664126 -1.28248 -0.00341213  -0.592816 -1.25609 -0.00306284  -0.663696 -1.28213 -0.00397825  -0.639666 -1.3517 -0.00329852  -0.687623 -1.32996 -0.00384617  -0.663544 -1.40004 -0.00321889  -0.688016 -1.33026 -0.00334644  -0.712042 -1.37831 -0.00327587  -0.640045 -1.35204 -0.00297606  -0.711681 -1.37801 -0.00372744  -0.68755 -1.44859 -0.00314879  -0.73585 -1.4263 -0.00361907  -0.711673 -1.49731 -0.00309253  -0.736174 -1.42657 -0.00322843  -0.76042 -1.47506 -0.00317538  -0.687868 -1.44889 -0.00291133  -0.760114 -1.47479 -0.00351822  -0.735895 -1.54621 -0.00304687  -0.784464 -1.52347 -0.00343454  -0.760201 -1.59524 -0.00300562  -0.784733 -1.5237 -0.00314355  -0.809139 -1.57254 -0.00310779  -0.736151 -1.54647 -0.00288022  -0.808882 -1.5723 -0.00336123  -0.784575 -1.64441 -0.00297165  -0.833365 -1.6213 -0.00329947  -0.809016 -1.69369 -0.00294721  -0.833593 -1.62151 -0.00309026  -0.858107 -1.67063 -0.00306487  -0.78479 -1.64465 -0.00286651  -0.857901 -1.67042 -0.00324321  -0.833501 -1.74307 -0.00293255  -0.882453 -1.71965 -0.00319779  -0.858023 -1.79252 -0.00293028  -0.882635 -1.71984 -0.00306177  -0.907213 -1.76917 -0.00305188  -0.833672 -1.74328 -0.00287962  -0.907046 -1.76898 -0.00316882  -0.882561 -1.84206 -0.00292087  -0.931644 -1.8184 -0.00313795  -0.907115 -1.89164 -0.00293303  -0.931783 -1.81856 -0.0030582  -0.956383 -1.86805 -0.00306308  -0.882692 -1.84224 -0.00291002  -0.956258 -1.86789 -0.00312841  -0.931675 -1.94126 -0.00294852  -0.98085 -1.91743 -0.00311828  -0.956233 -1.99091 -0.00297236  -0.980959 -1.91757 -0.00308466  -1.00555 -1.96717 -0.00309813  -0.931773 -1.94143 -0.00296724  -1.00545 -1.96701 -0.00312376  -0.98078 -2.04059 -0.00300372  -1.03002 -2.01662 -0.00313818  -1.00531 -2.09026 -0.00304854  -1.03009 -2.01676 -0.00313735  -1.05464 -2.06639 -0.00317049  -0.980842 -2.04074 -0.00304568  -1.05458 -2.06625 -0.00316322  -1.0298 -2.13995 -0.00308561  -1.07909 -2.1159 -0.00319254  -1.05427 -2.18961 -0.00314355  -1.07913 -2.11601 -0.00321579  -1.10362 -2.16566 -0.00325596  -1.02984 -2.14009 -0.00314367  -1.10358 -2.16553 -0.00323522  -1.0787 -2.23926 -0.00319827  -1.12801 -2.21515 -0.00328112  -1.1031 -2.28887 -0.003268  -1.12804 -2.21527 -0.00331402  -1.15245 -2.26488 -0.00336599  -1.07873 -2.23939 -0.00325596  -1.15243 -2.26475 -0.00333834  -1.12745 -2.33845 -0.0033263  -1.17677 -2.31433 -0.00339305  -1.15176 -2.38799 -0.00340223  -1.17679 -2.31443 -0.00343144  -1.20111 -2.36398 -0.00348997  -1.12745 -2.33858 -0.00338316  -1.20109 -2.36386 -0.00346172  -1.17601 -2.43748 -0.00347495  -1.22535 -2.41336 -0.00352693  -1.20023 -2.48692 -0.00355625  -1.22535 -2.41346 -0.0035603  -1.2496 -2.46292 -0.00361979  -1.17601 -2.43761 -0.00351596  -1.24958 -2.4628 -0.00359917  -1.2244 -2.53631 -0.00362587  -1.27376 -2.5122 -0.00366342  -1.24855 -2.58563 -0.00370777  -1.27377 -2.5123 -0.00369704  -1.29795 -2.56166 -0.00375473  -1.2244 -2.53643 -0.00366247  -1.29794 -2.56154 -0.00373983  -0.000505291 -0.00196233 -0.0018692  -0.00088729 -0.00211903 -0.00294244  -0.00162054 -0.00863808 -0.00358725  -0.00092252 -0.00245693 -0.0019629  -0.00335288 -0.00969642 -0.00372183  0 0 0  0 0 0  -0.000551309 -0.00228748 -0.00122201  0 0 0  -0.00304144 -0.00882632 -0.00546336  -0.00332642 -0.0204917 -0.00511742  -0.00713722 -0.0209151 -0.00764441  -0.00605479 -0.0355548 -0.00626361  -0.00721081 -0.0220694 -0.00503516  -0.0124221 -0.0372396 -0.00633311  -0.00347662 -0.0215498 -0.00340605  -0.0120467 -0.0357015 -0.00929463  -0.00955141 -0.0536239 -0.00704491  -0.018575 -0.0533872 -0.010331  -0.0139987 -0.0741179 -0.00758421  -0.0188267 -0.0551373 -0.00694752  -0.026061 -0.0752212 -0.00757611  -0.00985762 -0.0552097 -0.00482523  -0.025683 -0.073223 -0.0110499  -0.0192116 -0.0966902 -0.00776494  -0.0335622 -0.0950878 -0.0112461  -0.025266 -0.121217 -0.00778222  -0.0340525 -0.0971861 -0.0077374  -0.0427152 -0.121051 -0.00779223  -0.0197205 -0.0986195 -0.00544775  -0.04211 -0.118855 -0.0112371  -0.0320745 -0.147546 -0.0076195  -0.0512381 -0.144415 -0.0109744  -0.0397367 -0.175566 -0.00734627  -0.0520096 -0.146591 -0.00767064  -0.0619825 -0.173848 -0.00741851  -0.0328238 -0.149593 -0.00543082  -0.0611127 -0.171677 -0.0105852  -0.0481698 -0.20518 -0.00701869  -0.0715979 -0.20052 -0.0101117  -0.0574849 -0.236295 -0.00662565  -0.0726089 -0.2026 -0.00715482  -0.0839248 -0.232882 -0.00677025  -0.0491319 -0.207186 -0.00507116  -0.0828506 -0.230868 -0.0095681  -0.0675633 -0.268792 -0.00624573  -0.0947508 -0.262588 -0.00903404  -0.0785187 -0.302618 -0.00582886  -0.0959188 -0.264476 -0.00646079  -0.108593 -0.297431 -0.00605071  -0.06867 -0.270652 -0.0045805  -0.107395 -0.295629 -0.00846589  -0.0902138 -0.337633 -0.00546467  -0.120689 -0.329861 -0.00795102  -0.102743 -0.373815 -0.00508153  -0.121927 -0.331531 -0.00575089  -0.13591 -0.366831 -0.00537181  -0.0913828 -0.339305 -0.00406933  -0.134677 -0.365244 -0.00742483  -0.115968 -0.411024 -0.00475657  -0.149291 -0.401678 -0.00697136  -0.129969 -0.449254 -0.00442541  -0.150524 -0.403134 -0.00510287  -0.165761 -0.440503 -0.00477588  -0.117137 -0.412501 -0.00361085  -0.164549 -0.439121 -0.0065093  -0.144623 -0.488384 -0.00415671  -0.180399 -0.477492 -0.00612497  -0.159991 -0.528407 -0.00388634  -0.181582 -0.478757 -0.00455046  -0.197999 -0.517956 -0.00428569  -0.145749 -0.489682 -0.00322318  -0.196847 -0.516752 -0.00573659  -0.175972 -0.569219 -0.00366771  -0.21385 -0.556837 -0.00541735  -0.1926 -0.61081 -0.00345159  -0.21496 -0.557934 -0.00409603  -0.232475 -0.598746 -0.00388014  -0.177024 -0.570359 -0.00291657  -0.231409 -0.597703 -0.00509739  -0.20979 -0.653091 -0.00327623  -0.249474 -0.639294 -0.00483179  -0.227568 -0.696053 -0.00310075  -0.250494 -0.64025 -0.00372458  -0.269034 -0.682484 -0.00355434  -0.210758 -0.65409 -0.00268149  -0.268055 -0.681575 -0.00456977  -0.245866 -0.739618 -0.00296676  -0.287103 -0.724496 -0.00435114  -0.264696 -0.783773 -0.0028317  -0.288033 -0.725325 -0.0034318  -0.307509 -0.768817 -0.00329506  -0.246748 -0.740495 -0.00249934  -0.30662 -0.768018 -0.00413752  -0.283995 -0.82846 -0.00273049  -0.326565 -0.812108 -0.00395894  -0.303772 -0.873653 -0.00262606  -0.327401 -0.812834 -0.00319982  -0.34773 -0.85742 -0.00308812  -0.284791 -0.82923 -0.00237238  -0.346934 -0.856721 -0.00378478  -0.32397 -0.919304 -0.00254393  -0.367682 -0.901828 -0.00363421  -0.344593 -0.965392 -0.00247037  -0.36843 -0.902464 -0.0030117  -0.389519 -0.948003 -0.00292444  -0.324684 -0.919983 -0.00228214  -0.388811 -0.94739 -0.00348914  -0.365594 -1.01188 -0.0024122  -0.41028 -0.993382 -0.00337017  -0.386962 -1.05874 -0.00235379  -0.41094 -0.993937 -0.00286722  -0.432713 -1.04031 -0.00280142  -0.366222 -1.01247 -0.00222313  -0.432084 -1.03977 -0.00325489  -0.408661 -1.10593 -0.0023129  -0.454187 -1.08652 -0.00315905  -0.430686 -1.15345 -0.00227427  -0.454762 -1.08701 -0.00275922  -0.477124 -1.13409 -0.00270641  -0.409216 -1.10646 -0.00219214  -0.476578 -1.13361 -0.00306106  -0.452994 -1.20125 -0.00225019  -0.499225 -1.18102 -0.00298631  -0.475583 -1.24931 -0.00222802  -0.499726 -1.18145 -0.0026778  -0.522604 -1.22913 -0.00264347  -0.453475 -1.20171 -0.00218165  -0.522131 -1.22871 -0.00291634  -0.498412 -1.29762 -0.00221586  -0.545238 -1.27668 -0.0028547  -0.521472 -1.34614 -0.00221169  -0.545671 -1.27705 -0.00262618  -0.568978 -1.32525 -0.00260162  -0.498822 -1.29803 -0.00219584  -0.568568 -1.32488 -0.00280297  -0.544734 -1.39486 -0.00220847  -0.592064 -1.3733 -0.00275779  -0.568192 -1.44376 -0.00221252  -0.59244 -1.37363 -0.00259924  -0.616098 -1.42225 -0.00258327  -0.545086 -1.39523 -0.00222898  -0.615744 -1.42192 -0.00272083  -0.591814 -1.49283 -0.00222063  -0.639567 -1.47073 -0.00269127  -0.615594 -1.54202 -0.00224161  -0.639881 -1.47102 -0.00258493  -0.663826 -1.51998 -0.00258601  -0.59211 -1.49315 -0.00227332  -0.66353 -1.5197 -0.00267696  -0.639496 -1.59135 -0.00226521  -0.687595 -1.56881 -0.00266516  -0.663525 -1.64079 -0.00229073  -0.687858 -1.56905 -0.00260854  -0.712018 -1.61829 -0.00261045  -0.63974 -1.59164 -0.0023402  -0.711774 -1.61804 -0.00265479  -0.687645 -1.69032 -0.0023222  -0.736026 -1.66739 -0.00265527  -0.711855 -1.73992 -0.00235868  -0.736236 -1.66761 -0.00263965  -0.76056 -1.71706 -0.00265324  -0.687842 -1.69057 -0.00241315  -0.760366 -1.71683 -0.00266135  -0.736139 -1.78959 -0.0024029  -0.784744 -1.76635 -0.0026722  -0.760478 -1.83931 -0.00244915  -0.784918 -1.76655 -0.00268769  -0.809348 -1.81614 -0.00271416  -0.736293 -1.78982 -0.00250399  -0.809188 -1.81594 -0.00269234  -0.784859 -1.88907 -0.0024935  -0.833652 -1.86559 -0.00271702  -0.80928 -1.93885 -0.00255334  -0.833788 -1.86576 -0.002756  -0.858275 -1.91545 -0.00278938  -0.784977 -1.88928 -0.0026058  -0.858155 -1.91527 -0.0027535  -0.833718 -1.98865 -0.00261164  -0.882649 -1.96498 -0.00278366  -0.858163 -2.03846 -0.00267541  -0.882746 -1.96514 -0.00283825  -0.907257 -2.01487 -0.00288427  -0.833804 -1.98884 -0.00271952  -0.907167 -2.0147 -0.00283265  -0.882617 -2.08826 -0.00273848  -0.931662 -2.06444 -0.00288129  -0.90707 -2.13805 -0.00281346  -0.931726 -2.06458 -0.00294387  -0.956219 -2.11433 -0.00299335  -0.882675 -2.08843 -0.002846  -0.956161 -2.11418 -0.00293827  -0.931498 -2.18782 -0.00288606  -0.980619 -2.1639 -0.00299001  -0.955916 -2.23756 -0.00296926  -0.980667 -2.16403 -0.00305867  -1.00511 -2.21374 -0.00311685  -0.931531 -2.18798 -0.00298679  -1.00508 -2.2136 -0.0030607  -0.980297 -2.28726 -0.00304592  -1.02948 -2.26327 -0.00312603  -1.00466 -2.33692 -0.00313628  -1.0295 -2.26339 -0.0031873  -1.05389 -2.31304 -0.00325167  -0.980306 -2.28741 -0.00312781  -1.05387 -2.31291 -0.00320327  -1.02896 -2.38654 -0.00321805  -1.07819 -2.36251 -0.00327373  -1.05324 -2.4361 -0.00330663  -1.0782 -2.36262 -0.0033294  -1.10251 -2.41219 -0.00339508  -1.02897 -2.38668 -0.00328743  -1.1025 -2.41205 -0.00336289  -1.07747 -2.4856 -0.0033915  -1.12673 -2.46155 -0.00343704  -1.10166 -2.53504 -0.00348485  -1.12673 -2.46166 -0.00347888  -1.15095 -2.51112 -0.00354779  -1.07747 -2.48573 -0.0034436  -1.15094 -2.51099 -0.00352716  -1.12579 -2.5844 -0.00356925  -1.17508 -2.56036 -0.00360286  -1.14988 -2.6337 -0.00365853  -1.17508 -2.56047 -0.00362837  -1.19923 -2.6098 -0.0037024  -1.12578 -2.58454 -0.00359964  -1.19921 -2.60967 -0.00368786  0.000569768 -0.00309086 0.00015676  0.000186808 -0.00236747 -0.000867009  0.00193815 -0.0107893 4.55379e-05  0.000154667 -0.00266784 -0.000578046  0.000346199 -0.00994715 -0.00125551  0 0 0  0 0 0  0.000534534 -0.00340515 0.000102282  0 0 0  0.000632823 -0.00931779 -0.00174451  0.00387567 -0.0236228 -0.000145316  0.000564203 -0.0216888 -0.00252581  0.00568989 -0.0393455 -0.00035131  0.000387937 -0.0225865 -0.00169253  -8.13305e-05 -0.0380447 -0.00232017  0.0036103 -0.0244613 -0.000177264  0.000366539 -0.0368761 -0.0032506  0.00706226 -0.0585061 -0.000621557  -0.00091657 -0.0555467 -0.00373924  0.00770187 -0.0798746 -0.000841498  -0.00129765 -0.0569648 -0.0025866  -0.00326961 -0.0780631 -0.00296986  0.00657591 -0.0598082 -0.000568271  -0.00276566 -0.0764289 -0.00415468  0.00741634 -0.10361 -0.000997186  -0.00556764 -0.0996062 -0.00431025  0.00617456 -0.129258 -0.00107658  -0.00615072 -0.101374 -0.00309157  -0.00990137 -0.126635 -0.00316954  0.00676903 -0.105269 -0.000894427  -0.00924113 -0.124724 -0.00437808  0.00391448 -0.156791 -0.00110137  -0.0137691 -0.151676 -0.00430965  0.000581801 -0.186054 -0.00105453  -0.014558 -0.153603 -0.00317478  -0.0201381 -0.182343 -0.00306988  0.00311399 -0.158643 -0.00102508  -0.0192844 -0.180362 -0.00416303  -0.0037719 -0.216929 -0.000998735  -0.0256662 -0.210634 -0.00397778  -0.00923353 -0.24936 -0.00088644  -0.0266327 -0.212552 -0.00300157  -0.0340624 -0.244351 -0.00281215  -0.00470203 -0.218811 -0.000991344  -0.033052 -0.242444 -0.0037297  -0.0156857 -0.283185 -0.000796318  -0.0413191 -0.275635 -0.00350237  -0.0232346 -0.318385 -0.000666022  -0.0424061 -0.277437 -0.00271106  -0.0516618 -0.311932 -0.00250626  -0.0167053 -0.284982 -0.000883341  -0.0505597 -0.310177 -0.0032351  -0.0317273 -0.35478 -0.000578284  -0.060666 -0.345909 -0.00301349  -0.0412625 -0.392374 -0.000462413  -0.0617979 -0.347547 -0.00240207  -0.0728159 -0.384399 -0.00221813  -0.0327835 -0.356435 -0.000757933  -0.0716901 -0.382821 -0.00276768  -0.0516853 -0.430993 -0.000397801  -0.0835329 -0.420758 -0.00257432  -0.063076 -0.47065 -0.000308871  -0.0846568 -0.422219 -0.00212729  -0.0973295 -0.461121 -0.0019753  -0.0527337 -0.432485 -0.000658035  -0.0962244 -0.45972 -0.00236583  -0.0752859 -0.511186 -0.00026691  -0.109681 -0.499573 -0.00221777  -0.0883917 -0.552612 -0.000213385  -0.110761 -0.500864 -0.0019052  -0.124963 -0.541551 -0.00178969  -0.0762962 -0.512517 -0.000598192  -0.123914 -0.540314 -0.00205207  -0.102246 -0.594794 -0.000196576  -0.138848 -0.58183 -0.00193548  -0.116914 -0.637737 -0.000172853  -0.139863 -0.582965 -0.00173962  -0.15548 -0.625197 -0.0016619  -0.103195 -0.595975 -0.000573874  -0.1545 -0.624111 -0.00181544  -0.132267 -0.681331 -0.000180006  -0.170791 -0.66706 -0.00173509  -0.148351 -0.725574 -0.000177503  -0.171725 -0.66806 -0.00163043  -0.188628 -0.711632 -0.00157857  -0.133146 -0.682373 -0.000589132  -0.187728 -0.710673 -0.00164688  -0.165064 -0.77037 -0.00020659  -0.205245 -0.754866 -0.00159502  -0.182431 -0.815723 -0.000230789  -0.206098 -0.755747 -0.00156569  -0.224168 -0.800475 -0.00153375  -0.165865 -0.771297 -0.000633121  -0.223357 -0.79963 -0.00153768  -0.200368 -0.861552 -0.000276089  -0.241986 -0.844898 -0.0015074  -0.218884 -0.907849 -0.000315666  -0.242754 -0.845669 -0.00153697  -0.261878 -0.891396 -0.00152767  -0.201087 -0.862372 -0.00071156  -0.261142 -0.890651 -0.00147688  -0.237901 -0.954547 -0.000370741  -0.280759 -0.936837 -0.00146568  -0.257439 -1.00165 -0.000424385  -0.281449 -0.937516 -0.0015415  -0.301505 -0.984094 -0.00154054  -0.238549 -0.955278 -0.000810742  -0.300854 -0.983436 -0.00145149  -0.277427 -1.04908 -0.000489473  -0.321353 -1.03041 -0.00146008  -0.297866 -1.09685 -0.000554204  -0.321959 -1.031 -0.00156987  -0.342851 -1.07831 -0.00158334  -0.277999 -1.04973 -0.000922561  -0.342271 -1.07772 -0.00146198  -0.318694 -1.1449 -0.000624657  -0.363538 -1.12535 -0.00147557  -0.339923 -1.19323 -0.00069797  -0.364078 -1.12588 -0.00161624  -0.385685 -1.1738 -0.00163782  -0.3192 -1.14548 -0.00104821  -0.385176 -1.17328 -0.0014919  -0.361491 -1.24179 -0.000777721  -0.407118 -1.22146 -0.0015173  -0.383401 -1.29057 -0.000857711  -0.407583 -1.22193 -0.00167942  -0.429819 -1.27035 -0.00170851  -0.361926 -1.2423 -0.00118172  -0.42938 -1.26989 -0.00154781  -0.405598 -1.33955 -0.000940919  -0.451896 -1.31854 -0.00158477  -0.428084 -1.3887 -0.00102723  -0.452293 -1.31895 -0.00175822  -0.475061 -1.36779 -0.00179625  -0.40597 -1.34 -0.00132525  -0.474681 -1.36738 -0.00162125  -0.450812 -1.438 -0.00111008  -0.49768 -1.41639 -0.00166786  -0.473784 -1.48745 -0.00120223  -0.498017 -1.41676 -0.00184703  -0.521228 -1.46593 -0.00188851  -0.451128 -1.43841 -0.00147355  -0.520907 -1.46557 -0.00171006  -0.496958 -1.537 -0.00129247  -0.544308 -1.51489 -0.00176334  -0.520332 -1.58667 -0.00138569  -0.544592 -1.5152 -0.0019474  -0.568162 -1.56464 -0.00199533  -0.497217 -1.53737 -0.00163221  -0.567896 -1.56432 -0.00181973  -0.543859 -1.63642 -0.00147426  -0.591613 -1.61386 -0.00188029  -0.56755 -1.68623 -0.00156939  -0.591847 -1.61414 -0.00205994  -0.615707 -1.66377 -0.00211132  -0.544076 -1.63674 -0.00178885  -0.615484 -1.66349 -0.00193954  -0.591369 -1.73611 -0.00166368  -0.639449 -1.7132 -0.00199568  -0.61531 -1.78603 -0.00176513  -0.639642 -1.71344 -0.00217843  -0.663715 -1.76322 -0.00223219  -0.591541 -1.7364 -0.00195372  -0.663537 -1.76296 -0.00206506  -0.639333 -1.83598 -0.00186241  -0.687686 -1.81277 -0.0021373  -0.663455 -1.88597 -0.00196052  -0.687837 -1.813 -0.00230801  -0.71207 -1.86285 -0.00237203  -0.639467 -1.83625 -0.00212264  -0.711929 -1.86263 -0.00221062  -0.687629 -1.93595 -0.00205779  -0.736201 -1.9125 -0.00228405  -0.711871 -1.98594 -0.0021677  -0.736322 -1.9127 -0.00244629  -0.760652 -1.96259 -0.00250602  -0.687727 -1.93619 -0.00229216  -0.760549 -1.96239 -0.0023638  -0.736142 -2.03592 -0.00226164  -0.784899 -2.01228 -0.00243843  -0.76046 -2.08588 -0.00236666  -0.784986 -2.01245 -0.00258791  -0.809368 -2.06235 -0.00265646  -0.736216 -2.03612 -0.00247002  -0.809291 -2.06216 -0.00252569  -0.784781 -2.13581 -0.00246787  -0.833676 -2.11203 -0.00261164  -0.809128 -2.18571 -0.00258338  -0.83373 -2.11219 -0.00273967  -0.858133 -2.16205 -0.00281  -0.784825 -2.136 -0.00264275  -0.858084 -2.16188 -0.0026989  -0.833456 -2.23557 -0.00267601  -0.882462 -2.21169 -0.00278795  -0.857786 -2.28538 -0.00278425  -0.882492 -2.21183 -0.0028975  -0.906875 -2.26162 -0.00297391  -0.833476 -2.23574 -0.00282395  -0.906842 -2.26146 -0.0028795  -0.882096 -2.33515 -0.00288463  -0.931185 -2.3112 -0.00296926  -0.906391 -2.38486 -0.00299835  -0.931204 -2.31134 -0.00306308  -0.955533 -2.36104 -0.00314164  -0.882105 -2.33531 -0.00299931  -0.955524 -2.36089 -0.00307405  -0.930648 -2.43451 -0.00309849  -0.979802 -2.41051 -0.00316262  -0.954886 -2.48409 -0.00320518  -0.979804 -2.41064 -0.00323308  -1.00407 -2.46023 -0.00330889  -0.930645 -2.43466 -0.0031842  -1.00407 -2.46009 -0.00326097  -0.979071 -2.5336 -0.00330758  -1.02826 -2.5096 -0.00335157  -1.00322 -2.58305 -0.00341666  -1.02826 -2.50972 -0.00340235  -1.05244 -2.55919 -0.00347674  -0.979057 -2.53375 -0.00336599  -1.05244 -2.55904 -0.00345576  -1.02732 -2.63241 -0.00352097  -1.07654 -2.60841 -0.00354147  -1.05136 -2.68169 -0.00363314  -1.07654 -2.60853 -0.00357008  -1.10062 -2.65784 -0.00365067  -1.02729 -2.63257 -0.00354505  -1.10061 -2.65769 -0.00365174  0.00165911 -0.00594324 0.00206876  0.00124112 -0.00434041 0.0011251  0.00556707 -0.0158613 0.00343227  0.0012243 -0.00464123 0.00073278  0.00383002 -0.0134639 0.00105977  0 0 0  0 0 0  0.00164964 -0.00626916 0.00135362  0 0 0  0.00409672 -0.0129569 0.00178695  0.0111297 -0.0307496 0.00446939  0.007634 -0.0267795 0.0023098  0.0174059 -0.0477573 0.00516391  0.00734511 -0.0275407 0.00145006  0.0111586 -0.0440423 0.00148249  0.0107553 -0.0314908 0.00282061  0.0116961 -0.0430571 0.00248277  0.0233878 -0.068131 0.00537682  0.0152586 -0.0628015 0.00250649  0.0288607 -0.0903697 0.00547445  0.0146961 -0.0640341 0.0015285  0.0176108 -0.0860523 0.00141323  0.0227189 -0.0693101 0.00340235  0.0182798 -0.0846019 0.00239015  0.0332497 -0.114993 0.00537229  0.0203446 -0.108779 0.00227368  0.0365795 -0.141503 0.00526834  0.0196223 -0.110367 0.00131798  0.0205935 -0.136646 0.00122464  0.0324605 -0.116535 0.00338459  0.0213607 -0.134888 0.00214922  0.0386672 -0.169924 0.00509536  0.0213184 -0.16288 0.00204945  0.039488 -0.200149 0.00495684  0.0204839 -0.164663 0.00111914  0.0191991 -0.194525 0.00108469  0.0378159 -0.171679 0.00316668  0.0200672 -0.192656 0.00198722  0.0390863 -0.232018 0.00478864  0.0177167 -0.224051 0.00192273  0.037365 -0.265526 0.00465775  0.0167863 -0.225875 0.000996709  0.0131919 -0.258886 0.000998497  0.0381831 -0.233829 0.00292635  0.0141454 -0.257045 0.00190449  0.0344571 -0.300462 0.0044955  0.00947535 -0.291449 0.00186324  0.0302544 -0.336831 0.00436401  0.00848025 -0.293202 0.000926495  0.00262362 -0.328981 0.000938654  0.0335164 -0.302218 0.0026983  0.0036236 -0.327251 0.00185883  0.024927 -0.37443 0.00420916  -0.0032931 -0.364269 0.00181913  0.0183663 -0.413262 0.00407267  -0.00430739 -0.365894 0.000873089  -0.012324 -0.404076 0.000876665  0.0239769 -0.376068 0.00247931  -0.011317 -0.402499 0.0018096  0.0107483 -0.453136 0.00391221  -0.0203458 -0.441764 0.00175798  0.00198698 -0.494061 0.00376928  -0.0213487 -0.443238 0.000810266  -0.0313898 -0.48349 0.00079298  0.00981176 -0.454635 0.00225306  -0.0304053 -0.482069 0.00172877  -0.0077554 -0.535868 0.00359881  -0.0413961 -0.523254 0.00166035  -0.0185472 -0.57856 0.00344455  -0.042358 -0.524574 0.000717044  -0.0542719 -0.566599 0.000686049  -0.00865209 -0.537218 0.0020175  -0.0533333 -0.565328 0.00161314  -0.0302429 -0.621995 0.00326514  -0.0661218 -0.608151 0.00152755  -0.0428871 -0.666175 0.00309873  -0.0670273 -0.609322 0.000602365  -0.0806472 -0.652852 0.000553727  -0.031086 -0.623206 0.00176489  -0.0797709 -0.651723 0.00145996  -0.0563521 -0.710978 0.00291634  -0.094192 -0.695933 0.00136113  -0.0706785 -0.756403 0.00274193  -0.0950267 -0.696975 0.000459671  -0.110202 -0.741782 0.000398755  -0.0571344 -0.712059 0.00150049  -0.109393 -0.740778 0.00127852  -0.0857404 -0.802346 0.0025512  -0.125289 -0.786158 0.00116622  -0.101577 -0.848813 0.00237501  -0.126054 -0.787084 0.000302792  -0.142629 -0.832972 0.000227571  -0.086455 -0.803311 0.00122797  -0.141893 -0.83208 0.0010668  -0.118076 -0.895709 0.00218391  -0.159116 -0.878452 0.000947356  -0.135264 -0.943036 0.0020026  -0.159806 -0.879272 0.000123262  -0.177638 -0.92607 4.22001e-05  -0.118723 -0.896568 0.000950933  -0.176979 -0.925273 0.000837684  -0.153046 -0.990717 0.00180781  -0.19538 -0.972473 0.000711203  -0.171436 -1.03876 0.00162566  -0.195998 -0.973202 -6.77109e-05  -0.214942 -1.02076 -0.000154018  -0.153627 -0.991484 0.000664353  -0.214347 -1.02005 0.000599027  -0.190345 -1.08709 0.0014354  -0.233801 -1.06794 0.000468373  -0.209792 -1.13571 0.00124848  -0.234352 -1.06859 -0.000262618  -0.254278 -1.11677 -0.000357032  -0.19086 -1.08777 0.000386596  -0.253751 -1.11614 0.000346184  -0.229695 -1.18456 0.00106657  -0.274122 -1.16461 0.000215769  -0.250068 -1.23365 0.000885248  -0.274609 -1.16518 -0.000466585  -0.295393 -1.21388 -0.000556707  -0.23015 -1.18517 0.000101805  -0.294932 -1.21332 8.88109e-05  -0.270841 -1.28292 0.000698924  -0.316101 -1.26224 -4.33922e-05  -0.29202 -1.33237 0.000523806  -0.316522 -1.26275 -0.000672698  -0.338048 -1.31187 -0.000766158  -0.271234 -1.28346 -0.000175118  -0.337653 -1.31136 -0.000172019  -0.313536 -1.38197 0.00034678  -0.359511 -1.36066 -0.000303268  -0.335401 -1.43171 0.000165701  -0.359871 -1.36111 -0.00088203  -0.382036 -1.41056 -0.000979066  -0.313874 -1.38246 -0.000445247  -0.381696 -1.41011 -0.000438094  -0.35755 -1.48155 -8.10623e-06  -0.404129 -1.45969 -0.000560164  -0.37999 -1.5315 -0.000178218  -0.404438 -1.46009 -0.00109291  -0.427138 -1.50979 -0.00118828  -0.357831 -1.48199 -0.000716209  -0.426851 -1.50939 -0.000696182  -0.402676 -1.58152 -0.000348568  -0.449774 -1.55919 -0.000825644  -0.425597 -1.63162 -0.000517488  -0.450031 -1.55954 -0.00130117  -0.473177 -1.60942 -0.00139868  -0.402904 -1.58191 -0.000979543  -0.472937 -1.60907 -0.000956178  -0.448716 -1.68175 -0.000681639  -0.496259 -1.65902 -0.0010848  -0.472039 -1.73193 -0.000845075  -0.496464 -1.65933 -0.00151169  -0.519969 -1.70934 -0.00160217  -0.44891 -1.6821 -0.00123954  -0.519777 -1.70902 -0.00121462  -0.495507 -1.78213 -0.000999808  -0.543407 -1.75907 -0.00133574  -0.519135 -1.83235 -0.00116301  -0.543576 -1.75934 -0.00171614  -0.567359 -1.80942 -0.0018121  -0.495656 -1.78245 -0.00148773  -0.567201 -1.80914 -0.00146747  -0.542876 -1.88256 -0.00131953  -0.591082 -1.85923 -0.00159454  -0.566742 -1.93278 -0.00147593  -0.591217 -1.85947 -0.00192833  -0.615207 -1.90958 -0.00202119  -0.54299 -1.88285 -0.00173843  -0.615092 -1.90933 -0.00172448  -0.590691 -1.98297 -0.00162375  -0.639146 -1.95942 -0.00184262  -0.614726 -2.03314 -0.00176811  -0.639242 -1.95964 -0.00212932  -0.663378 -2.00973 -0.00222254  -0.590769 -1.98323 -0.00197792  -0.663297 -2.0095 -0.00197113  -0.638817 -2.08328 -0.00191545  -0.68747 -2.05956 -0.00209367  -0.662967 -2.13338 -0.00205898  -0.687537 -2.05975 -0.00233603  -0.71177 -2.1098 -0.00242519  -0.638865 -2.0835 -0.00221002  -0.711712 -2.10959 -0.00222027  -0.687144 -2.18342 -0.00219846  -0.735955 -2.15959 -0.00233746  -0.711354 -2.23342 -0.00233757  -0.736 -2.15976 -0.00253618  -0.760278 -2.20973 -0.00262821  -0.687172 -2.18363 -0.00243604  -0.760239 -2.20953 -0.00246131  -0.735567 -2.28336 -0.00246549  -0.784511 -2.25944 -0.00257301  -0.759803 -2.33324 -0.00260031  -0.784529 -2.2596 -0.00273287  -0.808821 -2.30946 -0.00282693  -0.735578 -2.28355 -0.00265372  -0.808802 -2.30929 -0.00269747  -0.78402 -2.38306 -0.00272644  -0.833061 -2.35908 -0.0028106  -0.808247 -2.4328 -0.00286472  -0.833065 -2.35923 -0.00293314  -0.857337 -2.40897 -0.00302601  -0.784014 -2.38323 -0.00287318  -0.857332 -2.40881 -0.00293362  -0.832435 -2.48247 -0.00298274  -0.881549 -2.45847 -0.00304759  -0.856613 -2.53207 -0.0031122  -0.881539 -2.45861 -0.00312948  -0.905758 -2.50822 -0.00321412  -0.832412 -2.48264 -0.00308073  -0.905761 -2.50806 -0.00316131  -0.880751 -2.5816 -0.00322688  -0.929917 -2.55758 -0.0032742  -0.90487 -2.63105 -0.00335026  -0.929904 -2.55771 -0.00332355  -0.954056 -2.60719 -0.00341344  -0.88073 -2.58176 -0.00328612  -0.95406 -2.60703 -0.00339031  -0.928923 -2.68041 -0.00346947  -0.978124 -2.6564 -0.00350368  -0.952946 -2.72972 -0.00359428  -0.978113 -2.65654 -0.00351453  -1.00215 -2.70585 -0.00360811  -0.928901 -2.68058 -0.00348711  -1.00215 -2.70569 -0.00362265  0.00301979 -0.0111897 0.00376642  0.00254454 -0.00819135 0.00298703  0.010288 -0.0244797 0.00643229  0.0025489 -0.00856179 0.00194228  0.00788647 -0.0202209 0.0031693  0 0 0  0 0 0  0.00305468 -0.0115509 0.00247824  0 0 0  0.00809866 -0.0197066 0.00502241  0.0198981 -0.0422121 0.00856841  0.0154829 -0.0359105 0.0067178  0.0309476 -0.0608659 0.0101012  0.0150944 -0.0366812 0.00429606  0.0232576 -0.0547763 0.00496912  0.0194331 -0.0429935 0.00548768  0.0238598 -0.0537857 0.00774133  0.0415098 -0.0822374 0.010795  0.0321855 -0.0746157 0.00823843  0.0515654 -0.105298 0.0112362  0.0314571 -0.0758209 0.0053041  0.0390304 -0.0987544 0.0054673  0.0406976 -0.0834706 0.00699246  0.0398398 -0.0973227 0.00843918  0.0603829 -0.130462 0.0112605  0.0465394 -0.122224 0.00840616  0.0679313 -0.157641 0.0111834  0.0456925 -0.123758 0.00542641  0.0511127 -0.15081 0.00535488  0.0594803 -0.132023 0.00733149  0.0519738 -0.149107 0.00827694  0.0741136 -0.186697 0.0109359  0.0561796 -0.177863 0.0080651  0.0788198 -0.217701 0.0106657  0.0552959 -0.179585 0.00517809  0.0580945 -0.210306 0.00503623  0.0732177 -0.188433 0.0071038  0.0589745 -0.208497 0.00784242  0.0821552 -0.250393 0.0103217  0.0604712 -0.240797 0.00757957  0.0839849 -0.284825 0.00999057  0.0595723 -0.242565 0.0048238  0.059664 -0.27657 0.00466692  0.0812757 -0.252166 0.00666475  0.0605648 -0.274779 0.00733936  0.0844656 -0.320742 0.00961912  0.0593626 -0.310222 0.00706518  0.083483 -0.358154 0.00926244  0.0584465 -0.311936 0.00444829  0.0558989 -0.34882 0.00428975  0.0835917 -0.322461 0.00616002  0.0568097 -0.34712 0.00682342  0.08121 -0.396846 0.00888348  0.0530074 -0.385278 0.00654757  0.0775521 -0.4368 0.00852787  0.052096 -0.386882 0.00407171  0.0470284 -0.426247 0.0039103  0.0803511 -0.398457 0.00563514  0.0479287 -0.424679 0.00630367  0.0726669 -0.47783 0.00814927  0.0416741 -0.465144 0.00602901  0.0664909 -0.519914 0.00779629  0.040781 -0.46661 0.00369358  0.0333508 -0.508085 0.00352848  0.0718293 -0.479308 0.00511336  0.034228 -0.506659 0.0057801  0.0591774 -0.562893 0.0074203  0.0256971 -0.549065 0.0055058  0.0506771 -0.606751 0.00706971  0.0248413 -0.550389 0.0033164  0.0152307 -0.593636 0.00314534  0.0583755 -0.56424 0.00459516  0.0160682 -0.592347 0.0052557  0.0411332 -0.651341 0.00670099  0.00544584 -0.636372 0.00497687  0.0305077 -0.696662 0.00635266  0.00463963 -0.637564 0.00293148  -0.00696433 -0.682285 0.00275636  0.0403764 -0.652559 0.0040834  -0.00618327 -0.681132 0.00472343  0.018932 -0.742581 0.00599468  -0.0187062 -0.726502 0.00444746  0.0063746 -0.789099 0.00564849  -0.0194527 -0.727568 0.00254691  -0.0328608 -0.773516 0.00236785  0.0182294 -0.743675 0.00357628  -0.0321413 -0.772483 0.00419164  -0.00702739 -0.836099 0.00530541  -0.0463735 -0.818965 0.0039252  -0.0213149 -0.883592 0.00497282  -0.0470607 -0.819915 0.00216556  -0.0620954 -0.866876 0.00198579  -0.00767386 -0.837079 0.00308645  -0.0614359 -0.865954 0.00366759  -0.0363618 -0.931472 0.00463283  -0.0772129 -0.913351 0.00340259  -0.052204 -0.979752 0.00430715  -0.0778325 -0.914202 0.00178659  -0.0943218 -0.961992 0.00161028  -0.0369511 -0.932351 0.00260484  -0.0937256 -0.961162 0.00315344  -0.0687139 -1.02834 0.00398445  -0.110872 -1.00931 0.00289071  -0.0859361 -1.07725 0.00366795  -0.111429 -1.01007 0.00140882  -0.12921 -1.05853 0.00123549  -0.069244 -1.02913 0.00213683  -0.128681 -1.05779 0.00264323  -0.103745 -1.1264 0.00335693  -0.147038 -1.10654 0.00239098  -0.122173 -1.1758 0.00305426  -0.147535 -1.10722 0.00104165  -0.166453 -1.15622 0.000869989  -0.104215 -1.1271 0.0016849  -0.165981 -1.15556 0.00214887  -0.141126 -1.22539 0.00275624  -0.185406 -1.20479 0.00190759  -0.160623 -1.27517 0.00246394  -0.185842 -1.20539 0.000681877  -0.205759 -1.25482 0.00051713  -0.141541 -1.22602 0.0012511  -0.205347 -1.25423 0.00166965  -0.180566 -1.32509 0.0021801  -0.225698 -1.30384 0.00143576  -0.200989 -1.37516 0.00189805  -0.22608 -1.30437 0.000333905  -0.246868 -1.35414 0.0001719  -0.180923 -1.32566 0.000832081  -0.246505 -1.35361 0.0012095  -0.221793 -1.42532 0.00162435  -0.267664 -1.4035 0.000983477  -0.243011 -1.4756 0.00135994  -0.267988 -1.40398 -2.86102e-06  -0.289515 -1.45399 -0.000159502  -0.222097 -1.42583 0.000424981  -0.28921 -1.45351 0.000762463  -0.264549 -1.52593 0.0010978  -0.31105 -1.5036 0.000541449  -0.286443 -1.57633 0.000841141  -0.311324 -1.50404 -0.000333309  -0.333483 -1.55421 -0.000485539  -0.264804 -1.52639 4.20809e-05  -0.333229 -1.55379 0.000325203  -0.308605 -1.62676 0.000594735  -0.355646 -1.60402 0.000116944  -0.331062 -1.67724 0.000347972  -0.355871 -1.6044 -0.000651479  -0.378558 -1.6547 -0.00079906  -0.308816 -1.62718 -0.000332713  -0.378342 -1.65431 -8.82149e-05  -0.353746 -1.72772 0.000113368  -0.401238 -1.70463 -0.000285029  -0.376675 -1.77821 -0.000120044  -0.401424 -1.70497 -0.000958323  -0.424541 -1.75531 -0.00109708  -0.353912 -1.72809 -0.000686288  -0.424373 -1.75497 -0.000484586  -0.399781 -1.82869 -0.000343442  -0.447654 -1.80532 -0.000678539  -0.423085 -1.87916 -0.000565171  -0.447798 -1.80562 -0.0012536  -0.471262 -1.85598 -0.00138891  -0.399912 -1.82902 -0.00102699  -0.471132 -1.85567 -0.000867844  -0.446528 -1.9296 -0.000774622  -0.494713 -1.906 -0.00104952  -0.470127 -1.98001 -0.000981927  -0.494825 -1.90627 -0.00153911  -0.518556 -1.95659 -0.00166941  -0.446622 -1.9299 -0.00135267  -0.518457 -1.95631 -0.00123453  -0.493823 -2.03037 -0.00117683  -0.542273 -2.0066 -0.00140536  -0.517653 -2.08069 -0.00138462  -0.542354 -2.00683 -0.0018146  -0.56628 -2.05709 -0.00193942  -0.493889 -2.03063 -0.00166011  -0.566211 -2.05684 -0.00157726  -0.541541 -2.13094 -0.00156677  -0.590196 -2.10705 -0.00174296  -0.565518 -2.18115 -0.00175309  -0.590244 -2.10726 -0.0020771  -0.614313 -2.15743 -0.00219917  -0.541578 -2.13119 -0.00195253  -0.614266 -2.1572 -0.00190747  -0.589535 -2.23128 -0.00192082  -0.638352 -2.2073 -0.00205743  -0.613616 -2.28135 -0.00209272  -0.638389 -2.20749 -0.00232983  -0.662538 -2.25754 -0.00244582  -0.589552 -2.2315 -0.00222874  -0.662506 -2.25733 -0.00221884  -0.637707 -2.33134 -0.00225604  -0.68665 -2.30731 -0.00236201  -0.661839 -2.38126 -0.00242293  -0.686665 -2.30748 -0.00256968  -0.710856 -2.3574 -0.00268328  -0.637704 -2.33154 -0.00248897  -0.710844 -2.35721 -0.0025152  -0.685964 -2.4311 -0.00256848  -0.735011 -2.40704 -0.00265312  -0.710104 -2.48086 -0.00271964  -0.735002 -2.4072 -0.00280023  -0.759192 -2.45697 -0.00290763  -0.685947 -2.43128 -0.00274134  -0.759197 -2.4568 -0.00279403  -0.734221 -2.53053 -0.00285268  -0.783343 -2.50647 -0.00292313  -0.758348 -2.58014 -0.00299823  -0.783328 -2.50662 -0.00302708  -0.807494 -2.55624 -0.00312603  -0.734199 -2.53071 -0.00297475  -0.807507 -2.55608 -0.00306284  -0.782435 -2.62966 -0.00312841  -0.83161 -2.6056 -0.00318933  -0.806521 -2.67911 -0.00327218  -0.831591 -2.60575 -0.00323963  -0.8557 -2.65522 -0.00333703  -0.782409 -2.62983 -0.00319529  -0.855717 -2.65506 -0.00331581  -0.830555 -2.72848 -0.0034045  -0.879752 -2.70443 -0.00344193  -0.854577 -2.7778 -0.00354874  -0.879732 -2.70458 -0.00345314  -0.903759 -2.75391 -0.00355554  -0.830526 -2.72865 -0.00342214  -0.903764 -2.75374 -0.00357437  0.0050347 -0.0207248 0.00517845  0.00455058 -0.0150966 0.00461626  0.0180297 -0.0389742 0.0089767  0.00453267 -0.0156108 0.00297344  0.0135856 -0.0317305 0.00498497  0 0 0  0 0 0  0.005135 -0.0211546 0.00343668  0 0 0  0.0137034 -0.0310363 0.00780535  0.0324739 -0.059028 0.0121176  0.0257719 -0.049832 0.0105217  0.0483263 -0.0792549 0.014419  0.0252967 -0.0507705 0.0067457  0.0380787 -0.0706685 0.00803339  0.0318994 -0.060095 0.00776255  0.0387226 -0.0694776 0.0123523  0.06342 -0.100687 0.015654  0.0518424 -0.0908936 0.0133463  0.0774656 -0.124254 0.0164605  0.0509902 -0.0922457 0.00867939  0.0629572 -0.115847 0.00913239  0.0625081 -0.102216 0.010197  0.0638629 -0.114306 0.0139023  0.0903618 -0.149547 0.0166625  0.0748676 -0.139565 0.0140313  0.101688 -0.177208 0.016664  0.0739255 -0.14117 0.00919282  0.083451 -0.16873 0.00917828  0.0893904 -0.151268 0.0109413  0.0843772 -0.167012 0.0139565  0.111645 -0.20676 0.0163909  0.0925003 -0.196336 0.013705  0.11995 -0.238445 0.0160412  0.0915862 -0.198053 0.00898302  0.0981823 -0.229454 0.00876868  0.110723 -0.208528 0.0107691  0.0990705 -0.227681 0.0133771  0.126783 -0.271911 0.0155668  0.104172 -0.260772 0.012969  0.13197 -0.307205 0.0150727  0.103295 -0.262497 0.00846612  0.106868 -0.29737 0.00817955  0.125912 -0.27365 0.0101942  0.10773 -0.295632 0.0125455  0.135665 -0.344072 0.0145195  0.109825 -0.332029 0.0120827  0.137761 -0.38248 0.0139729  0.108968 -0.333692 0.00783861  0.109575 -0.371589 0.00753045  0.13483 -0.345731 0.00946093  0.110421 -0.369939 0.0116295  0.138407 -0.422218 0.0133998  0.109607 -0.409159 0.0111517  0.137527 -0.463241 0.012844  0.10877 -0.410713 0.00718081  0.10654 -0.451178 0.00686812  0.137598 -0.423766 0.00867903  0.107366 -0.449646 0.0106922  0.135275 -0.505363 0.0122715  0.103799 -0.491226 0.0102148  0.131591 -0.548549 0.0117177  0.102989 -0.492659 0.00652075  0.098096 -0.535267 0.00621319  0.134492 -0.506788 0.00789058  0.0988965 -0.533866 0.00976217  0.126634 -0.592631 0.0111568  0.0927616 -0.577402 0.00929272  0.12035 -0.637584 0.0106158  0.0919852 -0.578708 0.00586832  0.0846297 -0.623089 0.00556409  0.125885 -0.593932 0.00711  0.0853896 -0.621816 0.00884414  0.112902 -0.683255 0.0100721  0.0768981 -0.666956 0.00838733  0.104236 -0.72964 0.00954604  0.0761607 -0.668132 0.00523365  0.0665479 -0.713962 0.00493598  0.112195 -0.684437 0.00635326  0.0672636 -0.712814 0.00795114  0.0945166 -0.77659 0.00902677  0.0566188 -0.759258 0.00750852  0.0836854 -0.824121 0.00852072  0.0559353 -0.760319 0.00461376  0.0442739 -0.807325 0.00432432  0.0938542 -0.777659 0.00562227  0.0449334 -0.806291 0.00708616  0.0719136 -0.872094 0.00802147  0.0323488 -0.853787 0.00666058  0.0591387 -0.92053 0.00753164  0.0317229 -0.85474 0.00401449  0.0182217 -0.902692 0.00373411  0.0713017 -0.873055 0.00491738  0.0188254 -0.901759 0.00625122  0.0455261 -0.969315 0.00705469  0.00450265 -0.950102 0.005844  0.0310163 -1.01846 0.00658703  0.00393248 -0.950956 0.00343335  -0.0112193 -0.999662 0.00316381  0.0449708 -0.970179 0.00424004  -0.010672 -0.998826 0.00544667  0.0157592 -1.06787 0.00613391  -0.0265515 -1.04784 0.0050565  -0.0002985 -1.11757 0.00569272  -0.0270699 -1.0486 0.00287461  -0.0436814 -1.0979 0.00261521  0.0152612 -1.06865 0.00359023  -0.0431857 -1.09715 0.00467861  -0.0170068 -1.16746 0.00526226  -0.0604433 -1.14668 0.0043081  -0.0344329 -1.21757 0.00484252  -0.0609037 -1.14736 0.00234032  -0.078811 -1.19712 0.00209069  -0.0174541 -1.16816 0.00297606  -0.07837 -1.19644 0.00394785  -0.0524297 -1.26781 0.00443411  -0.096839 -1.24637 0.0035913  -0.0710521 -1.31822 0.00403523  -0.0972444 -1.24698 0.00183046  -0.116284 -1.29708 0.00159097  -0.0528193 -1.26845 0.00239015  -0.1159 -1.29647 0.00324309  -0.0901659 -1.36871 0.00364423  -0.135421 -1.34669 0.00290799  -0.109835 -1.41933 0.00326216  -0.135775 -1.34724 0.00133598  -0.155805 -1.39759 0.00111294  -0.0905044 -1.36928 0.00182998  -0.155471 -1.39704 0.00257921  -0.12992 -1.46999 0.00289667  -0.175907 -1.44746 0.00225854  -0.150494 -1.52073 0.00253654  -0.176213 -1.44796 0.000869751  -0.19709 -1.49847 0.000651956  -0.130212 -1.4705 0.00129712  -0.196808 -1.49798 0.00194561  -0.171414 -1.57148 0.0021956  -0.21804 -1.54853 0.00164056  -0.192762 -1.62227 0.00184965  -0.218291 -1.54897 0.000423431  -0.23989 -1.59957 0.000217557  -0.171659 -1.57194 0.00079155  -0.239661 -1.59913 0.00133955  -0.214398 -1.67305 0.00152707  -0.261553 -1.64975 0.00105751  -0.23639 -1.72385 0.00120234  -0.26176 -1.65014 -3.69549e-06  -0.283977 -1.70079 -0.000198245  -0.214595 -1.67346 0.000308037  -0.283783 -1.70039 0.00077498  -0.258628 -1.77461 0.000897765  -0.306235 -1.75102 0.000501394  -0.28116 -1.82536 0.000597835  -0.306406 -1.75137 -0.000409961  -0.329129 -1.802 -0.000594974  -0.258787 -1.77498 -0.000141263  -0.328975 -1.80165 0.000234723  -0.303895 -1.87606 0.000314713  -0.351889 -1.85225 -2.07424e-05  -0.32688 -1.92673 2.99215e-05  -0.352018 -1.85256 -0.000792384  -0.375161 -1.90314 -0.000970244  -0.304018 -1.87639 -0.000567913  -0.375035 -1.90282 -0.000268936  -0.350014 -1.97732 -0.000234962  -0.398313 -1.95335 -0.000507355  -0.373351 -2.02788 -0.000499606  -0.398416 -1.95363 -0.00116086  -0.42188 -2.00412 -0.00132346  -0.350098 -1.97762 -0.00097096  -0.421791 -2.00384 -0.000745177  -0.396801 -2.07835 -0.000747442  -0.445358 -2.05427 -0.000968814  -0.420416 -2.12877 -0.000995755  -0.445425 -2.05451 -0.00149906  -0.469139 -2.1049 -0.00165427  -0.39686 -2.07862 -0.00134718  -0.469084 -2.10464 -0.00118983  -0.44411 -2.1791 -0.00121891  -0.492869 -2.15494 -0.00139832  -0.467923 -2.22937 -0.00144482  -0.492911 -2.15516 -0.00182199  -0.5168 -2.20541 -0.00196826  -0.44414 -2.17934 -0.0017029  -0.516768 -2.20518 -0.00160098  -0.491784 -2.27953 -0.00165224  -0.540702 -2.25534 -0.00179005  -0.51574 -2.32962 -0.00186372  -0.540721 -2.25554 -0.00212181  -0.564739 -2.30564 -0.0022589  -0.491794 -2.27975 -0.0020256  -0.564719 -2.30542 -0.00198007  -0.539719 -2.37962 -0.00205278  -0.588751 -2.35542 -0.00216019  -0.563755 -2.42954 -0.00223875  -0.588749 -2.3556 -0.00240636  -0.612839 -2.40554 -0.00253642  -0.539709 -2.37982 -0.00232983  -0.612839 -2.40535 -0.00233281  -0.587793 -2.47937 -0.00240719  -0.636912 -2.45519 -0.00248933  -0.611866 -2.52912 -0.00257659  -0.636898 -2.45535 -0.00267017  -0.66101 -2.50513 -0.00278652  -0.587768 -2.47956 -0.00260401  -0.66102 -2.50495 -0.00265086  -0.635919 -2.57877 -0.00273061  -0.685103 -2.55462 -0.00280023  -0.659996 -2.62835 -0.00288582  -0.685081 -2.55477 -0.00290966  -0.709183 -2.60438 -0.00302005  -0.635888 -2.57895 -0.00286317  -0.709204 -2.60421 -0.00294435  -0.684039 -2.67784 -0.00302708  -0.733264 -2.65372 -0.00308573  -0.708105 -2.72727 -0.00318134  -0.733239 -2.65387 -0.00314522  -0.75732 -2.70333 -0.00325835  -0.684005 -2.67801 -0.00310159  -0.757342 -2.70316 -0.00323331  -0.732136 -2.77663 -0.00331807  -0.78137 -2.75254 -0.00336897  -0.756186 -2.82596 -0.00347137  -0.781343 -2.75269 -0.00337648  -0.805372 -2.80204 -0.00348818  -0.732102 -2.77681 -0.00333619  -0.805395 -2.80186 -0.00352216  0.00874256 -0.0381364 0.00666845  0.00805555 -0.0277382 0.00599563  0.0328154 -0.0646448 0.0108593  0.00789432 -0.028491 0.00378001  0.0228563 -0.0516667 0.00644779  0 0 0  0 0 0  0.00851677 -0.0386172 0.0043304  0 0 0  0.0228209 -0.0505635 0.0100126  0.0536878 -0.0814187 0.0156703  0.0412616 -0.0695949 0.0137775  0.0711168 -0.10222 0.0185232  0.0407097 -0.0708963 0.00888085  0.0579029 -0.0919003 0.0107321  0.0526683 -0.0835291 0.00983107  0.0585537 -0.0903402 0.016374  0.0901228 -0.122542 0.0202634  0.0759714 -0.111284 0.0179607  0.107198 -0.146086 0.0213479  0.0750439 -0.112984 0.01175  0.0908846 -0.136598 0.0124632  0.0892893 -0.12466 0.0131638  0.0918292 -0.134863 0.0188696  0.123699 -0.171525 0.0216713  0.106538 -0.160226 0.0192089  0.138562 -0.199573 0.0217198  0.105538 -0.162005 0.0126613  0.118778 -0.189819 0.0127068  0.122749 -0.173461 0.0142701  0.119739 -0.188054 0.019218  0.152029 -0.229744 0.0214139  0.13142 -0.217909 0.0189567  0.163793 -0.262144 0.0209845  0.130467 -0.219658 0.0125045  0.140601 -0.251665 0.0122442  0.151086 -0.231528 0.0141379  0.141506 -0.249925 0.0185573  0.173952 -0.296465 0.020411  0.149979 -0.283814 0.0180399  0.182338 -0.33267 0.0197742  0.149086 -0.285496 0.0118695  0.155957 -0.32122 0.0114818  0.173048 -0.298121 0.0134522  0.156818 -0.319546 0.0174707  0.189122 -0.370515 0.0190915  0.162039 -0.356902 0.0168478  0.194129 -0.40994 0.0183661  0.161189 -0.358488 0.0110387  0.164808 -0.397382 0.0106077  0.188257 -0.372053 0.0125365  0.165633 -0.395806 0.0162109  0.197595 -0.450724 0.017648  0.167675 -0.43607 0.0155592  0.199334 -0.492817 0.0169027  0.166856 -0.437542 0.0101366  0.16735 -0.479081 0.00969863  0.196762 -0.452143 0.011531  0.168152 -0.477621 0.0149053  0.199631 -0.536008 0.0161811  0.167159 -0.520283 0.0142504  0.198287 -0.580266 0.0154361  0.166366 -0.521634 0.00922835  0.163916 -0.565337 0.00879681  0.19883 -0.537303 0.0105183  0.164688 -0.564004 0.0136036  0.195611 -0.625398 0.0147257  0.160858 -0.608618 0.012959  0.1914 -0.671404 0.0139984  0.160104 -0.609849 0.00833297  0.15492 -0.655312 0.00791049  0.194846 -0.626582 0.00951076  0.155652 -0.654103 0.012327  0.185994 -0.718088 0.0133169  0.14921 -0.700287 0.0117072  0.179159 -0.765475 0.0126121  0.148499 -0.701399 0.00746369  0.140811 -0.748275 0.00705922  0.185274 -0.719156 0.00853622  0.141501 -0.747177 0.011099  0.171259 -0.813384 0.0119549  0.132672 -0.794616 0.0105011  0.162041 -0.861855 0.0112836  0.132005 -0.795623 0.00662565  0.122045 -0.843617 0.00623477  0.170576 -0.814352 0.00759232  0.122686 -0.842626 0.00991333  0.151874 -0.910719 0.0106584  0.111701 -0.891053 0.0093416  0.140515 -0.960026 0.010012  0.111087 -0.891955 0.00581825  0.0990748 -0.94083 0.00544286  0.151248 -0.911584 0.00669384  0.0996689 -0.939936 0.00878179  0.128323 -1.00962 0.00941682  0.0867449 -0.989134 0.00823641  0.115045 -1.05956 0.00880587  0.0861881 -0.989945 0.00504673  0.0723476 -1.03949 0.00468743  0.127746 -1.0104 0.00582993  0.0728885 -1.03869 0.00770366  0.101042 -1.1097 0.0082444  0.0582385 -1.08847 0.00718665  0.0860568 -1.16011 0.0076642  0.0577366 -1.0892 0.00431442  0.0422653 -1.13926 0.00397408  0.100521 -1.1104 0.00501752  0.0427469 -1.13854 0.0066787  0.0704451 -1.21064 0.00712967  0.0265754 -1.18876 0.00619304  0.0539622 -1.26138 0.00658572  0.0261188 -1.18942 0.003618  0.00921607 -1.23985 0.00329459  0.0699859 -1.21128 0.00424242  0.00964713 -1.2392 0.00571501  0.036937 -1.31219 0.00608182  -0.00787854 -1.28974 0.00525475  0.0191259 -1.36315 0.00556672  -0.00828004 -1.29032 0.00295854  -0.0264525 -1.34101 0.0026505  0.036531 -1.31276 0.00350523  -0.0260751 -1.34043 0.00479794  0.000849485 -1.41414 0.00509059  -0.04478 -1.39118 0.00436413  -0.0181184 -1.46522 0.00460076  -0.0451269 -1.3917 0.00232911  -0.0644088 -1.44256 0.00203598  0.000496864 -1.41464 0.00281274  -0.0640802 -1.44204 0.003932  -0.0374792 -1.51629 0.00415492  -0.0838172 -1.49291 0.0035187  -0.0574412 -1.56742 0.00370193  -0.0841105 -1.49338 0.00173366  -0.104347 -1.54432 0.00145781  -0.0377786 -1.51674 0.00215971  -0.104067 -1.54386 0.00311399  -0.0777354 -1.6185 0.0032804  -0.124688 -1.59478 0.00272763  -0.0985706 -1.66961 0.00284743  -0.124941 -1.5952 0.00116944  -0.145994 -1.64617 0.000910401  -0.0779967 -1.61891 0.00153828  -0.145757 -1.64575 0.00234818  -0.119668 -1.72066 0.00245512  -0.167139 -1.69667 0.00198007  -0.141229 -1.77171 0.00205731  -0.167342 -1.69704 0.000639081  -0.189094 -1.74798 0.00039041  -0.119884 -1.72103 0.000950694  -0.188903 -1.7476 0.00162435  -0.163009 -1.82267 0.00169361  -0.210919 -1.79848 0.00128675  -0.185199 -1.87361 0.00131345  -0.211089 -1.7988 0.000135183  -0.233421 -1.84967 -9.50098e-05  -0.163185 -1.823 0.0004071  -0.233263 -1.84933 0.000955343  -0.207546 -1.92445 0.00096941  -0.255816 -1.9001 0.000633717  -0.230241 -1.97526 0.000622988  -0.255943 -1.9004 -0.000327468  -0.278757 -1.95116 -0.00054729  -0.207681 -1.92475 -0.00010407  -0.278641 -1.95085 0.000321269  -0.253051 -2.02594 0.000302911  -0.301623 -2.00151 2.44379e-05  -0.276162 -2.07658 -1.65701e-05  -0.301718 -2.00177 -0.000775695  -0.324919 -2.05238 -0.000978351  -0.25315 -2.02621 -0.000593305  -0.324834 -2.05211 -0.000264645  -0.299361 -2.1271 -0.000311375  -0.348164 -2.10262 -0.000536203  -0.322796 -2.17755 -0.000608921  -0.348226 -2.10285 -0.00118709  -0.371735 -2.15331 -0.00137365  -0.299426 -2.12734 -0.0010339  -0.371679 -2.15306 -0.000804901  -0.346278 -2.22788 -0.000872731  -0.395277 -2.2034 -0.00105309  -0.369977 -2.27814 -0.00114274  -0.39531 -2.20361 -0.00156581  -0.41905 -2.25389 -0.00174081  -0.34632 -2.2281 -0.00144899  -0.41902 -2.25367 -0.00129867  -0.393681 -2.32828 -0.00137985  -0.442809 -2.30382 -0.00152636  -0.417549 -2.37834 -0.00162411  -0.442829 -2.30402 -0.00191939  -0.46672 -2.35412 -0.00207746  -0.393698 -2.32848 -0.00181901  -0.466707 -2.35391 -0.00174904  -0.441414 -2.42828 -0.00184345  -0.490631 -2.40389 -0.00194955  -0.465404 -2.47815 -0.00205135  -0.490632 -2.40407 -0.00224292  -0.514632 -2.45398 -0.00237989  -0.441406 -2.42847 -0.00216269  -0.514633 -2.4538 -0.00214601  -0.489362 -2.52791 -0.00223267  -0.538637 -2.50359 -0.0023309  -0.513418 -2.57758 -0.00243044  -0.538626 -2.50375 -0.0025363  -0.562673 -2.55349 -0.00266206  -0.489344 -2.52808 -0.00246811  -0.562687 -2.55331 -0.00250602  -0.537431 -2.62716 -0.00259566  -0.58672 -2.60294 -0.00266886  -0.561492 -2.67667 -0.00275743  -0.586698 -2.60309 -0.00279748  -0.610762 -2.65266 -0.00291693  -0.537395 -2.62733 -0.00274038  -0.610781 -2.65249 -0.00282896  -0.585525 -2.72611 -0.00290453  -0.634818 -2.70196 -0.00297356  -0.60958 -2.77549 -0.00306177  -0.634784 -2.70211 -0.00304294  -0.658835 -2.75153 -0.00315881  -0.585486 -2.72629 -0.00299478  -0.658866 -2.75136 -0.0031296  -0.633616 -2.82484 -0.00320482  -0.682902 -2.80072 -0.00327706  -0.657688 -2.87416 -0.00336647  -0.682866 -2.80088 -0.00328839  -0.706937 -2.85023 -0.00340378  -0.633575 -2.82503 -0.00324059  -0.706959 -2.85005 -0.0034281  -0.00397229 -0.00808331 -0.00236773  -0.00499757 -0.0132131 -0.00277817  -0.013716 -0.0218667 -0.00407612  -0.00538649 -0.0133619 -0.000566125  -0.0226295 -0.0326933 -0.000542164  -0.0231299 -0.0283959 -0.00056386  0 0 0  -0.0229244 -0.0277575 -0.00325167  0 0 0  0 0 0  -0.0038489 -0.00779552 -0.00020206  0 0 0  -0.0424659 -0.04383 -0.00584877  -0.0225523 -0.0323597 -0.00495815  -0.0269151 -0.0359955 -0.00550652  -0.0391575 -0.0456949 -0.00658703  -0.0410307 -0.0502557 -0.00662303  -0.0393111 -0.046029 -0.000752449  -0.0563964 -0.0600448 -0.000927448  -0.0592901 -0.0552533 -0.000959277  -0.0585873 -0.0545707 -0.00741053  -0.0271046 -0.0362655 -0.000605106  -0.0774266 -0.0686795 -0.00919676  -0.0560835 -0.0594097 -0.00786388  -0.0564701 -0.0664029 -0.00741458  -0.0734141 -0.073426 -0.00861311  -0.0714328 -0.0830758 -0.0078845  -0.0736709 -0.0741017 -0.000893354  -0.0911401 -0.0897067 -0.00110531  -0.0959182 -0.0812999 -0.00106144  -0.0953597 -0.0805421 -0.00986147  -0.0566527 -0.0669126 -0.000817657  -0.115024 -0.0956355 -0.0106424  -0.09084 -0.0889998 -0.00919986  -0.0871547 -0.102242 -0.00809467  -0.108771 -0.106352 -0.00936747  -0.102738 -0.122701 -0.00812376  -0.108997 -0.107084 -0.0010277  -0.126973 -0.126118 -0.00119257  -0.134777 -0.111879 -0.00113463  -0.134443 -0.111135 -0.0107474  -0.0873693 -0.102844 -0.00099802  -0.154516 -0.128935 -0.010818  -0.126723 -0.125422 -0.00942147  -0.118887 -0.145254 -0.00800228  -0.145079 -0.146467 -0.00925052  -0.135176 -0.169282 -0.00777173  -0.145274 -0.147157 -0.00114417  -0.163638 -0.169695 -0.0012399  -0.174791 -0.149051 -0.0012095  -0.174595 -0.148347 -0.0105991  -0.119103 -0.145848 -0.00112045  -0.194688 -0.169382 -0.0102531  -0.163415 -0.169048 -0.0089885  -0.151881 -0.195028 -0.0074985  -0.182056 -0.193468 -0.00866008  -0.168809 -0.222158 -0.00715041  -0.182249 -0.19409 -0.00122821  -0.2009 -0.219812 -0.00127721  -0.215103 -0.193011 -0.00126886  -0.21495 -0.192353 -0.00989223  -0.152094 -0.195575 -0.00119662  -0.234989 -0.216616 -0.00938129  -0.20067 -0.219236 -0.00825584  -0.186085 -0.250787 -0.00683355  -0.219564 -0.246667 -0.00788653  -0.203599 -0.280659 -0.00646281  -0.219769 -0.247207 -0.00129223  -0.238693 -0.2758 -0.00131202  -0.255435 -0.243346 -0.00132513  -0.255282 -0.242758 -0.00897932  -0.186305 -0.251278 -0.00125396  -0.275344 -0.270036 -0.00843394  -0.238457 -0.275298 -0.0074513  -0.221447 -0.311878 -0.00616205  -0.257643 -0.305417 -0.00710344  -0.239541 -0.344208 -0.00582349  -0.257856 -0.305884 -0.001351  -0.277117 -0.337063 -0.00136113  -0.295877 -0.299517 -0.00137854  -0.295716 -0.298997 -0.00806558  -0.22167 -0.312308 -0.00130498  -0.315927 -0.32901 -0.00756586  -0.276876 -0.336629 -0.00669813  -0.257981 -0.377762 -0.00555515  -0.296431 -0.369172 -0.0063926  -0.276679 -0.412316 -0.00526392  -0.296649 -0.369573 -0.00140965  -0.316324 -0.40309 -0.00141871  -0.336652 -0.360961 -0.001441  -0.336476 -0.360512 -0.00723624  -0.258204 -0.378142 -0.00136459  -0.356963 -0.392982 -0.00679862  -0.316079 -0.402711 -0.00603044  -0.29574 -0.44798 -0.00503647  -0.336085 -0.437447 -0.00577283  -0.315077 -0.484546 -0.00479174  -0.336303 -0.437796 -0.00147307  -0.356459 -0.473422 -0.00149298  -0.377985 -0.427165 -0.0015074  -0.377802 -0.426767 -0.00652134  -0.295954 -0.448311 -0.00142705  -0.398659 -0.461451 -0.00615442  -0.356226 -0.473091 -0.00547791  -0.334783 -0.522105 -0.00460815  -0.37673 -0.509797 -0.00526226  -0.354771 -0.560475 -0.00441277  -0.376935 -0.510104 -0.00154543  -0.397612 -0.547624 -0.00156999  -0.42004 -0.497648 -0.00157571  -0.419872 -0.497295 -0.00591779  -0.334987 -0.522401 -0.00150168  -0.441147 -0.533952 -0.00561321  -0.397399 -0.547326 -0.00501871  -0.375119 -0.599732 -0.00425839  -0.418425 -0.585806 -0.00483632  -0.395754 -0.639719 -0.00410056  -0.418615 -0.586079 -0.00162458  -0.43983 -0.625294 -0.00165653  -0.462937 -0.571971 -0.00165808  -0.462772 -0.571648 -0.0054189  -0.375307 -0.599999 -0.0015862  -0.484495 -0.610085 -0.00516534  -0.439633 -0.625029 -0.0046382  -0.416731 -0.680499 -0.00396895  -0.461187 -0.665101 -0.00448465  -0.437982 -0.72193 -0.00384188  -0.461357 -0.665343 -0.00170946  -0.483103 -0.706078 -0.00174594  -0.506715 -0.649735 -0.00174618  -0.50656 -0.649446 -0.00499618  -0.4169 -0.68074 -0.00167382  -0.528735 -0.689476 -0.00478745  -0.482926 -0.705837 -0.00432384  -0.45956 -0.764065 -0.00373542  -0.504991 -0.747334 -0.00419331  -0.481392 -0.806784 -0.00362992  -0.50515 -0.747553 -0.00180185  -0.527393 -0.78964 -0.00184155  -0.551368 -0.730595 -0.0018357  -0.55123 -0.73033 -0.00464761  -0.459713 -0.764288 -0.00176716  -0.573843 -0.771787 -0.004475  -0.527235 -0.789424 -0.00405669  -0.503521 -0.850125 -0.00354159  -0.549774 -0.832189 -0.00394917  -0.525885 -0.893977 -0.00345957  -0.549916 -0.832385 -0.00189412  -0.572626 -0.875682 -0.00193644  -0.596863 -0.81421 -0.00193012  -0.596737 -0.813975 -0.00435054  -0.503655 -0.850329 -0.0018568  -0.619752 -0.856706 -0.00420153  -0.572481 -0.875486 -0.00383675  -0.548517 -0.938387 -0.00338686  -0.595461 -0.919375 -0.00374734  -0.57136 -0.983247 -0.00332057  -0.595583 -0.919559 -0.00199044  -0.618712 -0.963922 -0.00203431  -0.643141 -0.900306 -0.00202537  -0.643031 -0.900085 -0.00410128  -0.548638 -0.938578 -0.00195706  -0.666407 -0.943946 -0.00397539  -0.618581 -0.963739 -0.00365376  -0.594432 -1.02859 -0.00326288  -0.641948 -1.00863 -0.00358176  -0.617691 -1.07433 -0.0032109  -0.64206 -1.0088 -0.00209212  -0.665556 -1.0541 -0.00213563  -0.690112 -0.98859 -0.00212467  -0.690018 -0.988385 -0.00389147  -0.594536 -1.02877 -0.00205851  -0.713714 -1.03325 -0.00378287  -0.665444 -1.05394 -0.00350678  -0.641155 -1.1205 -0.00316799  -0.689145 -1.0997 -0.0034405  -0.664772 -1.16701 -0.00312865  -0.68924 -1.09985 -0.00218773  -0.713047 -1.14598 -0.0022409  -0.737697 -1.07882 -0.00222671  -0.73762 -1.07863 -0.0037142  -0.641243 -1.12066 -0.00216234  -0.761593 -1.12438 -0.00362515  -0.712954 -1.14583 -0.00338411  -0.68856 -1.21389 -0.00309241  -0.73694 -1.19237 -0.00333428  -0.712479 -1.26106 -0.00306606  -0.737016 -1.1925 -0.0022974  -0.761088 -1.23936 -0.00234401  -0.785802 -1.17075 -0.00233161  -0.785734 -1.17058 -0.00356913  -0.688636 -1.21404 -0.00226641  -0.809931 -1.21709 -0.00350237  -0.761008 -1.23921 -0.00329328  -0.736525 -1.30855 -0.00303912  -0.785218 -1.2864 -0.00325656  -0.760683 -1.35629 -0.00302589  -0.78528 -1.28654 -0.00240326  -0.809565 -1.33401 -0.00245297  -0.834322 -1.26416 -0.00243938  -0.834265 -1.264 -0.0034585  -0.736591 -1.3087 -0.00237525  -0.858644 -1.31119 -0.00340295  -0.809494 -1.33387 -0.00321758  -0.78495 -1.4043 -0.00301099  -0.833883 -1.38163 -0.00319672  -0.809287 -1.45252 -0.00300574  -0.833935 -1.38175 -0.00251341  -0.85837 -1.42975 -0.0025636  -0.883169 -1.35887 -0.00254989  -0.883127 -1.35871 -0.00336683  -0.784999 -1.40444 -0.00248361  -0.907629 -1.40647 -0.00332928  -0.858312 -1.42962 -0.00317264  -0.833706 -1.50097 -0.00299633  -0.882829 -1.47786 -0.00315583  -0.858187 -1.54959 -0.00300097  -0.882875 -1.47797 -0.00262189  -0.907419 -1.5264 -0.00267625  -0.93225 -1.45467 -0.00265515  -0.932215 -1.45452 -0.00330782  -0.833745 -1.5011 -0.00259137  -0.956808 -1.50276 -0.00327766  -0.907376 -1.52628 -0.00314867  -0.88271 -1.59838 -0.00299799  -0.931976 -1.57492 -0.00313604  -0.907279 -1.64733 -0.00301373  -0.932004 -1.57503 -0.00273132  -0.956622 -1.62383 -0.00278604  -0.981486 -1.55138 -0.00277078  -0.981457 -1.55124 -0.00326765  -0.882742 -1.59851 -0.00270319  -1.0061 -1.59988 -0.00325382  -0.956579 -1.62371 -0.00313509  -0.931864 -1.69641 -0.00302374  -0.981224 -1.67266 -0.00314415  -0.956471 -1.7456 -0.00304615  -0.981252 -1.67277 -0.00285006  -1.00589 -1.72185 -0.00290585  -1.03078 -1.64885 -0.0028801  -1.03076 -1.64872 -0.00324535  -0.931887 -1.69653 -0.00281751  -1.05542 -1.69768 -0.00324619  -1.00586 -1.72174 -0.00315428  -0.98109 -1.7949 -0.00306761  -1.03051 -1.77094 -0.00316763  -1.0057 -1.84427 -0.00309861  -1.03052 -1.77104 -0.00296521  -1.05516 -1.82034 -0.00302017  -1.08009 -1.74693 -0.00300241  -1.08008 -1.7468 -0.00325477  -0.9811 -1.79502 -0.00293589  -1.10472 -1.79601 -0.00326729  -1.05514 -1.82023 -0.00318599  -1.0303 -1.89373 -0.00312364  -1.07976 -1.86961 -0.00320661  -1.0549 -1.94323 -0.00316548  -1.07977 -1.86971 -0.00308692  -1.10437 -1.91917 -0.00314164  -1.12933 -1.84546 -0.00312459  -1.12933 -1.84535 -0.0032829  -1.03031 -1.89384 -0.00305569  -1.15392 -1.89474 -0.0033139  -1.10435 -1.91906 -0.00324023  -1.07946 -1.99279 -0.00320029  -1.12892 -1.96857 -0.00327373  -1.104 -2.04236 -0.0032444  -1.12893 -1.96866 -0.00320625  -1.15348 -2.01822 -0.00325942  -1.17847 -1.94433 -0.00324082  -1.17846 -1.94421 -0.00333309  -1.07946 -1.99289 -0.00317419  -1.203 -1.99373 -0.00337231  -1.15347 -2.01812 -0.00331295  -1.12851 -2.09197 -0.00328588  -1.17797 -2.06769 -0.00334883  -1.15299 -2.14157 -0.00333917  -1.17797 -2.06778 -0.00332892  -1.20244 -2.11739 -0.00337863  -1.22747 -2.04342 -0.00336802  -1.22748 -2.04331 -0.00340772  -1.12851 -2.09207 -0.00329661  -1.25192 -2.09289 -0.00343561  -1.20243 -2.11729 -0.00339127  -1.17741 -2.19117 -0.00338781  -1.22685 -2.16689 -0.00344133  -1.20181 -2.24076 -0.00345135  -1.22685 -2.16697 -0.00344646  -1.25124 -2.21658 -0.00350451  -1.27631 -2.14261 -0.00349045  -1.27631 -2.1425 -0.00349224  -1.17741 -2.19128 -0.00341856  -1.30069 -2.19211 -0.00354278  -1.25124 -2.21647 -0.00350165  -1.22615 -2.29032 -0.00350344  -1.27558 -2.26604 -0.0035584  -1.25046 -2.33985 -0.0035733  -1.27557 -2.26613 -0.00357401  -1.29988 -2.31569 -0.00363362  -1.32499 -2.24181 -0.0036149  -1.32499 -2.24169 -0.00359714  -1.22614 -2.29043 -0.00353968  -1.34929 -2.29127 -0.00366008  -1.29988 -2.31559 -0.00362039  -1.27473 -2.38935 -0.00362635  -1.32413 -2.3651 -0.00367403  -1.29896 -2.4388 -0.00369513  -1.32413 -2.36519 -0.00369906  -1.34837 -2.41468 -0.00375283  -1.37352 -2.34091 -0.00373995  -1.37352 -2.34081 -0.00371408  -1.27472 -2.38945 -0.00365961  -1.39778 -2.39032 -0.00378489  -1.34837 -2.41458 -0.00374198  -1.32317 -2.48822 -0.00375056  -1.37257 -2.46401 -0.00380075  -1.34736 -2.53759 -0.00381505  -1.37258 -2.46409 -0.00381947  -1.39681 -2.51351 -0.00386846  -1.42198 -2.43987 -0.00385916  -1.42198 -2.43977 -0.00384343  -1.32316 -2.48832 -0.00378633  -1.44621 -2.4892 -0.00391209  -1.39679 -2.51341 -0.00385904  -0.00184746 -0.00347392 -0.00145006  -0.00227416 -0.00515515 -0.00186944  -0.00606805 -0.011671 -0.00258088  -0.00227533 -0.00511736 -0.000275016  -0.00844231 -0.0156862 -0.000480294  0 0 0  0 0 0  -0.00187057 -0.00345159 -0.000163317  0 0 0  -0.00806952 -0.0152542 -0.0032233  -0.0121625 -0.0244881 -0.00368893  -0.0178022 -0.0290176 -0.00455177  -0.0202551 -0.0402222 -0.0044241  -0.0180333 -0.0292689 -0.000508428  -0.0293764 -0.0446888 -0.000696421  -0.0121991 -0.0247744 -0.000409722  -0.0290277 -0.0442784 -0.00549257  -0.0293269 -0.0576253 -0.00497413  -0.0412062 -0.0610842 -0.00614393  -0.0393249 -0.077189 -0.005373  -0.0414068 -0.0614826 -0.000697374  -0.0543719 -0.0800843 -0.000895619  -0.0294114 -0.0580728 -0.000667453  -0.0541005 -0.0795595 -0.00658607  -0.0499745 -0.098407 -0.00552309  -0.0672101 -0.099705 -0.00674713  -0.0611006 -0.121347 -0.00557899  -0.0673943 -0.100239 -0.000883937  -0.0810517 -0.122151 -0.00101209  -0.0500813 -0.098928 -0.000858307  -0.0808312 -0.121593 -0.00681877  -0.0728208 -0.146052 -0.00551307  -0.0947406 -0.145201 -0.00671589  -0.0849904 -0.172315 -0.005373  -0.0949258 -0.145757 -0.00102246  -0.109311 -0.170979 -0.0010854  -0.0729667 -0.146583 -0.000985026  -0.109107 -0.170442 -0.00655138  -0.0977483 -0.200186 -0.00520384  -0.123869 -0.197269 -0.0063293  -0.111027 -0.229481 -0.00497818  -0.124068 -0.19779 -0.00112128  -0.139257 -0.226042 -0.00114214  -0.0979353 -0.200687 -0.00107503  -0.139044 -0.225542 -0.00605321  -0.124855 -0.26017 -0.00477374  -0.15465 -0.255235 -0.00579238  -0.139241 -0.292142 -0.00453579  -0.154868 -0.255703 -0.00119197  -0.170871 -0.286652 -0.00119197  -0.125069 -0.260625 -0.00113952  -0.170646 -0.286202 -0.00549352  -0.15414 -0.325334 -0.00434303  -0.187075 -0.31844 -0.00524902  -0.169588 -0.359666 -0.00412154  -0.187307 -0.318851 -0.00125945  -0.204116 -0.352209 -0.00125587  -0.154364 -0.325742 -0.00120497  -0.203882 -0.351809 -0.00497079  -0.185531 -0.395083 -0.0039494  -0.22112 -0.386324 -0.00475073  -0.201999 -0.431518 -0.00375879  -0.221359 -0.386683 -0.00132334  -0.238969 -0.4222 -0.00132692  -0.185757 -0.395446 -0.00127125  -0.238739 -0.421847 -0.00451243  -0.218952 -0.468925 -0.00362027  -0.256779 -0.458403 -0.0043267  -0.236403 -0.507234 -0.00347066  -0.257011 -0.458718 -0.00139368  -0.27543 -0.49618 -0.00140584  -0.219167 -0.469248 -0.00134516  -0.275205 -0.495862 -0.00413513  -0.254318 -0.54642 -0.00335133  -0.294048 -0.53425 -0.00398099  -0.272708 -0.586399 -0.00323451  -0.294266 -0.534529 -0.00147033  -0.313477 -0.573724 -0.00148857  -0.254525 -0.546709 -0.00142479  -0.313265 -0.573441 -0.00382853  -0.291537 -0.627157 -0.00314391  -0.332886 -0.613459 -0.00370538  -0.310813 -0.668626 -0.00305176  -0.333088 -0.61371 -0.00155377  -0.353056 -0.654454 -0.00158191  -0.291728 -0.627422 -0.00151014  -0.352861 -0.654201 -0.00358117  -0.330498 -0.710784 -0.00297892  -0.37322 -0.695677 -0.00347948  -0.350594 -0.753566 -0.00291193  -0.373403 -0.695899 -0.00163889  -0.394092 -0.738021 -0.00167143  -0.330669 -0.711025 -0.00160122  -0.393915 -0.737791 -0.00338137  -0.371073 -0.796961 -0.00285506  -0.414966 -0.780563 -0.00330365  -0.391924 -0.840901 -0.00280726  -0.415132 -0.780762 -0.00173175  -0.436486 -0.824106 -0.00177085  -0.371229 -0.797179 -0.00169659  -0.436326 -0.823899 -0.00322378  -0.413128 -0.885382 -0.00276554  -0.458011 -0.867813 -0.00315702  -0.434658 -0.93034 -0.00272596  -0.45816 -0.867996 -0.00182831  -0.480117 -0.912418 -0.00186872  -0.413258 -0.885586 -0.0017941  -0.47998 -0.912224 -0.0031023  -0.456502 -0.975768 -0.00270236  -0.502236 -0.957145 -0.00304937  -0.478641 -1.02161 -0.00267911  -0.502361 -0.957313 -0.00192642  -0.524867 -1.00268 -0.00196862  -0.456616 -0.975957 -0.00189531  -0.524742 -1.0025 -0.00300407  -0.501053 -1.06787 -0.00265372  -0.5475 -1.0483 -0.00296378  -0.523723 -1.11448 -0.00264084  -0.547615 -1.04845 -0.00202608  -0.570591 -1.09464 -0.00206935  -0.501156 -1.06804 -0.00199223  -0.570479 -1.09448 -0.00292945  -0.546633 -1.16145 -0.00263035  -0.59368 -1.14105 -0.00290406  -0.569762 -1.20872 -0.00262952  -0.593777 -1.14119 -0.00212884  -0.617161 -1.18809 -0.00217426  -0.546718 -1.16161 -0.00209606  -0.617069 -1.18794 -0.00288486  -0.593089 -1.25629 -0.00262427  -0.64064 -1.23516 -0.00286412  -0.616603 -1.30413 -0.00262892  -0.640723 -1.2353 -0.00223517  -0.664447 -1.28282 -0.00228298  -0.59316 -1.25644 -0.00220263  -0.664365 -1.28267 -0.00285506  -0.640275 -1.35222 -0.00263357  -0.688239 -1.33046 -0.00284302  -0.664103 -1.40052 -0.0026468  -0.68831 -1.33058 -0.00234127  -0.712313 -1.37862 -0.00239122  -0.640337 -1.35236 -0.00231194  -0.712243 -1.37848 -0.00284255  -0.688061 -1.44904 -0.00265193  -0.736365 -1.42675 -0.00283992  -0.712145 -1.49774 -0.00267625  -0.736424 -1.42686 -0.00244892  -0.760643 -1.47533 -0.0024972  -0.688111 -1.44918 -0.00241673  -0.760587 -1.4752 -0.00284839  -0.736317 -1.54661 -0.00269365  -0.784891 -1.52386 -0.00285196  -0.760587 -1.59562 -0.00272477  -0.784938 -1.52396 -0.00255787  -0.809322 -1.57279 -0.00261164  -0.736353 -1.54674 -0.00252676  -0.809274 -1.57267 -0.00286853  -0.784922 -1.64476 -0.00274396  -0.833715 -1.62164 -0.00287783  -0.809333 -1.69402 -0.00277781  -0.833753 -1.62174 -0.00266945  -0.858252 -1.67085 -0.00272226  -0.784952 -1.64489 -0.00263858  -0.858211 -1.67074 -0.00289929  -0.833781 -1.74338 -0.00280797  -0.88274 -1.71995 -0.00292456  -0.85827 -1.79282 -0.00285125  -0.882768 -1.72005 -0.00278461  -0.907324 -1.76938 -0.00283635  -0.833797 -1.7435 -0.00275397  -0.907296 -1.76927 -0.00295031  -0.882781 -1.84234 -0.00288057  -0.931865 -1.81867 -0.00297594  -0.907302 -1.8919 -0.00292838  -0.93188 -1.81877 -0.00289953  -0.956462 -1.86825 -0.00295472  -0.882789 -1.84245 -0.00287151  -0.956443 -1.86814 -0.00301981  -0.931837 -1.94151 -0.002967  -0.981014 -1.91768 -0.00305331  -0.956369 -1.99115 -0.00302124  -0.98103 -1.91776 -0.003021  -1.0056 -1.96735 -0.00307107  -0.931844 -1.94163 -0.00299132  -1.00559 -1.96725 -0.0030973  -0.980891 -2.04082 -0.00306642  -1.03013 -2.01685 -0.00313485  -1.0054 -2.09048 -0.00312674  -1.03013 -2.01693 -0.00313544  -1.05468 -2.06657 -0.00319195  -0.980887 -2.04092 -0.0031091  -1.05466 -2.06646 -0.00318813  -1.02988 -2.14015 -0.0031774  -1.07916 -2.1161 -0.00323856  -1.05434 -2.18981 -0.00324023  -1.07916 -2.11618 -0.00326228  -1.10365 -2.16583 -0.0033145  -1.02987 -2.14026 -0.0032264  -1.10364 -2.16572 -0.00329423  -1.07875 -2.23945 -0.00329769  -1.12806 -2.21534 -0.00334692  -1.10313 -2.28906 -0.00336123  -1.12806 -2.21543 -0.0033803  -1.15246 -2.26504 -0.00343716  -1.07874 -2.23956 -0.00335383  -1.15246 -2.26494 -0.00341439  -1.12747 -2.33863 -0.00341797  -1.1768 -2.3145 -0.00346839  -1.15177 -2.38817 -0.00349021  -1.17679 -2.31459 -0.00350654  -1.20112 -2.36414 -0.00355959  -1.12746 -2.33874 -0.00347531  -1.20111 -2.36404 -0.00353432  -1.17602 -2.43766 -0.00354469  -1.22536 -2.41353 -0.00359476  -1.20024 -2.48711 -0.00361919  -1.22536 -2.41361 -0.00362527  -1.2496 -2.46308 -0.00367808  -1.17601 -2.43777 -0.00359142  -1.2496 -2.46298 -0.0036602  -1.22441 -2.53649 -0.00368059  -1.27378 -2.51237 -0.00371969  -1.24856 -2.58582 -0.00374973  -1.27377 -2.51246 -0.00374305  -1.29798 -2.56182 -0.00379694  -1.2244 -2.5366 -0.0037148  -1.29797 -2.56171 -0.00378525  -0.000530794 -0.00244966 -0.00068748  -0.000909876 -0.00267577 -0.00106549  -0.0017058 -0.00967202 -0.00129211  -0.00091907 -0.0027205 -0.000137448  -0.00333551 -0.0102911 -0.000312924  0 0 0  0 0 0  -0.000552282 -0.00250453 -7.03335e-05  0 0 0  -0.00308296 -0.0100465 -0.001917  -0.0034871 -0.0220785 -0.00191545  -0.00715959 -0.0227449 -0.00275981  -0.00633062 -0.037595 -0.00233161  -0.00722425 -0.0229761 -0.000313044  -0.0124712 -0.0384234 -0.000543475  -0.00355995 -0.0223255 -0.000300527  -0.0121497 -0.0380729 -0.00331807  -0.00993809 -0.0561008 -0.00269175  -0.0188138 -0.0562291 -0.00378108  -0.014535 -0.0769408 -0.00295126  -0.0189398 -0.0565597 -0.000513911  -0.0262781 -0.0768233 -0.000706196  -0.010042 -0.0564589 -0.000514269  -0.0260605 -0.0763963 -0.00411892  -0.0199463 -0.0997506 -0.00307107  -0.0342039 -0.0984847 -0.00424993  -0.0261893 -0.124442 -0.00313818  -0.0343519 -0.098899 -0.000717402  -0.0431418 -0.12283 -0.000825167  -0.0200715 -0.100178 -0.000704169  -0.0429589 -0.12236 -0.00432563  -0.0332124 -0.150815 -0.00312638  -0.0523543 -0.147934 -0.00428891  -0.0410466 -0.178848 -0.00307083  -0.0525226 -0.148388 -0.000870466  -0.0626051 -0.175619 -0.000916004  -0.0333616 -0.151271 -0.000831485  -0.0624189 -0.175144 -0.00420105  -0.0496506 -0.208383 -0.00300002  -0.0731083 -0.203879 -0.00408435  -0.0590839 -0.23941 -0.00288427  -0.0733045 -0.20433 -0.000980854  -0.0846999 -0.234546 -0.000995159  -0.0498297 -0.208837 -0.000929475  -0.0844957 -0.234089 -0.0039233  -0.0692704 -0.27177 -0.00279379  -0.0965225 -0.265648 -0.00377989  -0.0802914 -0.305453 -0.00267017  -0.0967401 -0.266068 -0.00106716  -0.109457 -0.298938 -0.0010668  -0.0694749 -0.2722 -0.00101185  -0.10924 -0.298514 -0.00359762  -0.0920317 -0.340312 -0.00257838  -0.12259 -0.332573 -0.00346386  -0.104578 -0.376334 -0.00246632  -0.122819 -0.332955 -0.00114679  -0.136819 -0.368167 -0.00114906  -0.092244 -0.34071 -0.00109184  -0.136592 -0.367782 -0.00329459  -0.117799 -0.413388 -0.00238955  -0.151205 -0.404045 -0.00317168  -0.131781 -0.451471 -0.00229418  -0.151439 -0.404388 -0.00122249  -0.166667 -0.441677 -0.00123191  -0.118009 -0.413754 -0.0011735  -0.166442 -0.441328 -0.00303054  -0.146399 -0.490459 -0.0022347  -0.182254 -0.479551 -0.00293124  -0.161725 -0.530345 -0.00217032  -0.182476 -0.479858 -0.00129807  -0.198869 -0.518984 -0.00132048  -0.146605 -0.490789 -0.00125408  -0.198654 -0.518667 -0.00282407  -0.177648 -0.571034 -0.00212514  -0.215601 -0.558623 -0.00274301  -0.194215 -0.612502 -0.00208127  -0.21581 -0.558898 -0.0013845  -0.233293 -0.599649 -0.00140965  -0.17784 -0.571333 -0.00134337  -0.233092 -0.599361 -0.00266337  -0.21134 -0.654676 -0.00205243  -0.251094 -0.640843 -0.00260437  -0.229055 -0.697531 -0.00202239  -0.251286 -0.641088 -0.00147355  -0.269791 -0.683274 -0.00150442  -0.211517 -0.654948 -0.00143719  -0.269604 -0.683018 -0.00254333  -0.247286 -0.741004 -0.00200629  -0.288579 -0.725844 -0.00249898  -0.266046 -0.785067 -0.00199616  -0.288757 -0.726067 -0.00156546  -0.308192 -0.76951 -0.00159848  -0.247441 -0.741253 -0.00152838  -0.308023 -0.769275 -0.00246012  -0.285276 -0.829672 -0.00199318  -0.327898 -0.813284 -0.00242913  -0.304985 -0.874785 -0.00199306  -0.328053 -0.813485 -0.00165987  -0.348343 -0.858034 -0.00169957  -0.285413 -0.829897 -0.00162709  -0.34819 -0.857817 -0.00240254  -0.325117 -0.920369 -0.00199342  -0.368872 -0.902858 -0.00238454  -0.345674 -0.966389 -0.00200367  -0.369012 -0.90304 -0.00175571  -0.390069 -0.948547 -0.00179899  -0.32524 -0.920574 -0.00172436  -0.389933 -0.948352 -0.0023737  -0.366608 -1.01281 -0.00201619  -0.411332 -0.994283 -0.00236201  -0.387917 -1.05961 -0.00203645  -0.411454 -0.99445 -0.0018568  -0.433192 -1.04079 -0.00190639  -0.366716 -1.013 -0.00182521  -0.433073 -1.04061 -0.00236332  -0.409556 -1.10675 -0.0020535  -0.455109 -1.08731 -0.00235772  -0.431525 -1.15421 -0.00207865  -0.455215 -1.08747 -0.00196004  -0.477546 -1.13453 -0.00200391  -0.409647 -1.10694 -0.00193083  -0.477442 -1.13435 -0.00236547  -0.453773 -1.20197 -0.0020982  -0.500031 -1.18172 -0.00237226  -0.476306 -1.24999 -0.00213206  -0.500122 -1.18186 -0.00206065  -0.522966 -1.22952 -0.00210977  -0.453853 -1.20214 -0.00203216  -0.522877 -1.22937 -0.00238562  -0.499084 -1.29825 -0.00215995  -0.545933 -1.27729 -0.00239694  -0.522096 -1.34674 -0.00219727  -0.546012 -1.27742 -0.00216591  -0.569294 -1.3256 -0.00221813  -0.499151 -1.29841 -0.00214195  -0.569215 -1.32545 -0.0024209  -0.545309 -1.39542 -0.00222707  -0.592661 -1.37384 -0.00243509  -0.568722 -1.44429 -0.00226772  -0.592727 -1.37396 -0.00227666  -0.616364 -1.42257 -0.00232351  -0.545363 -1.39557 -0.00224543  -0.616293 -1.42243 -0.00246203  -0.592297 -1.49332 -0.00230372  -0.640066 -1.4712 -0.00248361  -0.616035 -1.54249 -0.00235307  -0.64012 -1.47132 -0.00237858  -0.664041 -1.52027 -0.00243092  -0.592343 -1.49346 -0.00235438  -0.663986 -1.52014 -0.00251639  -0.639898 -1.59179 -0.00239503  -0.688008 -1.56922 -0.00254703  -0.663887 -1.6412 -0.00244236  -0.688048 -1.56933 -0.00249386  -0.712195 -1.61856 -0.00254416  -0.63993 -1.59193 -0.00246906  -0.712151 -1.61843 -0.00258911  -0.687967 -1.6907 -0.00248671  -0.736362 -1.66776 -0.00262439  -0.712147 -1.74029 -0.00254095  -0.736397 -1.66786 -0.00260925  -0.760704 -1.7173 -0.0026561  -0.687991 -1.69083 -0.00257957  -0.760671 -1.71717 -0.00266719  -0.736392 -1.78993 -0.00258529  -0.78502 -1.76668 -0.0027014  -0.760706 -1.83964 -0.00264513  -0.785046 -1.76678 -0.00272036  -0.809458 -1.81637 -0.00277519  -0.736413 -1.79006 -0.00269163  -0.809433 -1.81625 -0.00275576  -0.78506 -1.88938 -0.00269711  -0.833864 -1.86588 -0.00279284  -0.809453 -1.93915 -0.00275767  -0.833879 -1.86597 -0.00283873  -0.858354 -1.91566 -0.00288987  -0.785069 -1.88949 -0.00280869  -0.858332 -1.91554 -0.00284576  -0.833859 -1.98894 -0.00281024  -0.882803 -1.96524 -0.00289214  -0.85829 -2.03873 -0.00287485  -0.882811 -1.96534 -0.00294805  -0.907307 -2.01507 -0.00300312  -0.833864 -1.98905 -0.00292087  -0.907295 -2.01496 -0.00295269  -0.882719 -2.08852 -0.0029335  -0.931767 -2.06468 -0.0030055  -0.907154 -2.13829 -0.0030005  -0.931768 -2.06477 -0.0030694  -0.956258 -2.11451 -0.003124  -0.882716 -2.08863 -0.00304043  -0.956249 -2.1144 -0.00306904  -0.93156 -2.18805 -0.00306284  -0.98069 -2.16412 -0.0031215  -0.955961 -2.23778 -0.00313401  -0.980691 -2.16421 -0.00318861  -1.00514 -2.21392 -0.00324881  -0.931554 -2.18816 -0.00315928  -1.00513 -2.21381 -0.00319052  -0.980329 -2.28748 -0.00319183  -1.02952 -2.26348 -0.00324845  -1.00467 -2.33713 -0.00326717  -1.02951 -2.26357 -0.00331223  -1.05389 -2.31322 -0.00336373  -0.98032 -2.28759 -0.00328076  -1.05389 -2.31311 -0.0033164  -1.02898 -2.38674 -0.00333357  -1.07821 -2.3627 -0.00337863  -1.05325 -2.4363 -0.00340807  -1.0782 -2.36279 -0.0034306  -1.10251 -2.41235 -0.00349081  -1.02896 -2.38684 -0.00340128  -1.10251 -2.41224 -0.00345516  -1.07747 -2.48579 -0.00347435  -1.12674 -2.46174 -0.00351667  -1.10167 -2.53524 -0.0035491  -1.12673 -2.46183 -0.00355768  -1.15095 -2.51129 -0.00360835  -1.07746 -2.4859 -0.00352347  -1.15094 -2.51118 -0.00358558  -1.12579 -2.58461 -0.00361681  -1.17509 -2.56056 -0.00365341  -1.14989 -2.6339 -0.00369036  -1.17509 -2.56064 -0.00367796  -1.19923 -2.60997 -0.00373054  -1.12578 -2.58472 -0.00364923  -1.19923 -2.60986 -0.00372887  0.000522874 -0.00348106 4.88758e-06  0.000138067 -0.0027931 -0.000334501  0.00174481 -0.0115861 -9.94205e-05  0.00013192 -0.00286609 -2.70605e-05  0.000287071 -0.0103809 -0.000196815  0 0 0  0 0 0  0.000508107 -0.00356689 1.78814e-06  0 0 0  0.000500664 -0.0102137 -0.000670791  0.00350654 -0.0248699 -0.000255585  0.000337675 -0.0230705 -0.00102139  0.00514874 -0.0409706 -0.000346065  0.000267535 -0.023259 -0.00020206  -0.000275999 -0.0389445 -0.000387907  0.00341278 -0.0250622 -0.000215292  2.80142e-06 -0.0386906 -0.00129151  0.0063577 -0.0605552 -0.000514746  -0.0014371 -0.0578025 -0.00154459  0.00686494 -0.0822505 -0.000628471  -0.00155109 -0.0580842 -0.000387073  -0.00360563 -0.0793559 -0.000541568  0.00622776 -0.060835 -0.000394225  -0.00339863 -0.07901 -0.0017463  0.00644171 -0.106254 -0.000726938  -0.00640914 -0.102452 -0.00185764  0.00507778 -0.132109 -0.000798821  -0.00655314 -0.102805 -0.000573874  -0.0103944 -0.128156 -0.000659585  0.00629368 -0.106607 -0.000547767  -0.0102243 -0.127747 -0.0019393  0.00268698 -0.159742 -0.000843883  -0.0149519 -0.154779 -0.00196362  -0.000756264 -0.189072 -0.000863552  -0.0151185 -0.155176 -0.000721216  -0.0207758 -0.183933 -0.000760078  0.00252384 -0.160144 -0.000675082  -0.0206034 -0.183501 -0.0019505  -0.00521499 -0.219923 -0.000879884  -0.0271368 -0.213726 -0.00193024  -0.0107606 -0.252315 -0.000871778  -0.027326 -0.214131 -0.000835776  -0.0348126 -0.245903 -0.000854135  -0.00539142 -0.220341 -0.000782013  -0.034623 -0.245466 -0.00187099  -0.0172775 -0.286042 -0.000878453  -0.0429837 -0.278543 -0.00183296  -0.0248699 -0.321144 -0.000858307  -0.0431866 -0.27894 -0.000935793  -0.0524791 -0.313376 -0.000950575  -0.0174648 -0.286458 -0.00088191  -0.0522766 -0.312963 -0.00176358  -0.0333803 -0.357412 -0.000859618  -0.0624154 -0.348557 -0.00172365  -0.0429273 -0.394883 -0.000846624  -0.0626358 -0.348929 -0.00103092  -0.073657 -0.385713 -0.00104284  -0.0335764 -0.357806 -0.000977993  -0.0734511 -0.385328 -0.00166249  -0.0533364 -0.433366 -0.000856519  -0.0852826 -0.423122 -0.00162756  -0.0647091 -0.472893 -0.000857472  -0.0854983 -0.423464 -0.00111902  -0.0981613 -0.462297 -0.00114036  -0.0535313 -0.433733 -0.00107038  -0.0979538 -0.461946 -0.00158179  -0.0768883 -0.513299 -0.000875473  -0.111374 -0.501665 -0.00156271  -0.0899529 -0.554602 -0.000881195  -0.111579 -0.501973 -0.00120735  -0.125762 -0.542594 -0.00123286  -0.0770729 -0.513635 -0.00116515  -0.125566 -0.542276 -0.00153232  -0.103761 -0.596664 -0.000909448  -0.140447 -0.583668 -0.00152254  -0.118372 -0.639495 -0.000932574  -0.140641 -0.583947 -0.00130045  -0.15623 -0.626125 -0.00133073  -0.103931 -0.596972 -0.00126123  -0.156044 -0.62583 -0.00151217  -0.133671 -0.682984 -0.000961781  -0.172272 -0.668677 -0.00151324  -0.149703 -0.727123 -0.000997066  -0.172448 -0.668931 -0.00139201  -0.18932 -0.712454 -0.00142753  -0.13383 -0.683264 -0.00135708  -0.189151 -0.712187 -0.0015173  -0.166352 -0.771829 -0.00103796  -0.206603 -0.756289 -0.00152886  -0.183655 -0.817094 -0.00107706  -0.206764 -0.756519 -0.00148773  -0.224799 -0.801206 -0.0015285  -0.166496 -0.772088 -0.00145888  -0.224645 -0.800963 -0.00154459  -0.201526 -0.862841 -0.00112176  -0.243208 -0.846149 -0.00156093  -0.219987 -0.90906 -0.00117111  -0.243348 -0.846356 -0.00158358  -0.262439 -0.892045 -0.00162995  -0.201655 -0.863075 -0.00155413  -0.2623 -0.891823 -0.00158954  -0.238947 -0.955689 -0.00122225  -0.281858 -0.93794 -0.00161648  -0.258431 -1.00272 -0.00127888  -0.281981 -0.938129 -0.00168717  -0.30201 -0.984675 -0.00173032  -0.239055 -0.955909 -0.00165367  -0.301887 -0.98447 -0.00164592  -0.278353 -1.05009 -0.00133121  -0.32232 -1.03138 -0.00167799  -0.298735 -1.0978 -0.00139225  -0.322435 -1.03155 -0.00178874  -0.343292 -1.07883 -0.00183713  -0.278448 -1.0503 -0.00175869  -0.343178 -1.07863 -0.00171793  -0.319515 -1.1458 -0.00144935  -0.364395 -1.12621 -0.00175369  -0.340685 -1.19407 -0.00150669  -0.364489 -1.12637 -0.00189245  -0.386073 -1.17426 -0.00193596  -0.319595 -1.14599 -0.00186467  -0.385978 -1.17408 -0.00179589  -0.362199 -1.24258 -0.00156415  -0.407866 -1.22222 -0.00183678  -0.384055 -1.29132 -0.00162864  -0.407951 -1.22237 -0.00199723  -0.430155 -1.27077 -0.00204384  -0.362274 -1.24276 -0.0019666  -0.430072 -1.2706 -0.00188518  -0.406205 -1.34025 -0.00168955  -0.452536 -1.3192 -0.00193  -0.428651 -1.38936 -0.00176013  -0.452606 -1.31934 -0.0021019  -0.475353 -1.36816 -0.00215399  -0.406264 -1.34041 -0.00207412  -0.475278 -1.36801 -0.00198221  -0.451336 -1.43862 -0.00182045  -0.49823 -1.41699 -0.00202703  -0.474265 -1.48803 -0.00188863  -0.498289 -1.41712 -0.00220776  -0.521474 -1.46627 -0.00226164  -0.451383 -1.43878 -0.00218403  -0.521413 -1.46613 -0.00208473  -0.497395 -1.53755 -0.00195217  -0.544765 -1.51541 -0.00213206  -0.520729 -1.58719 -0.00202537  -0.544819 -1.51553 -0.00231838  -0.568366 -1.56495 -0.00237155  -0.497434 -1.53771 -0.00229025  -0.568312 -1.56482 -0.00219655  -0.544223 -1.6369 -0.00208354  -0.591997 -1.61433 -0.00224495  -0.567878 -1.68669 -0.00215161  -0.592032 -1.61444 -0.00243044  -0.61587 -1.66406 -0.00247693  -0.544251 -1.63704 -0.00239766  -0.615826 -1.66392 -0.00230217  -0.59166 -1.73654 -0.00222206  -0.639761 -1.7136 -0.00235975  -0.615562 -1.78645 -0.00229442  -0.639781 -1.71372 -0.00253987  -0.663838 -1.76348 -0.00259042  -0.591676 -1.73667 -0.00250804  -0.663809 -1.76335 -0.00241971  -0.639555 -1.83638 -0.00235987  -0.687928 -1.81314 -0.00248086  -0.66365 -1.88633 -0.00243628  -0.68795 -1.81324 -0.00265467  -0.712167 -1.8631 -0.00270247  -0.639568 -1.8365 -0.00262213  -0.712144 -1.86297 -0.00254667  -0.687801 -1.9363 -0.00250626  -0.736388 -1.91283 -0.00260758  -0.712017 -1.98627 -0.00258434  -0.736407 -1.91292 -0.00276697  -0.760727 -1.96281 -0.00282025  -0.687807 -1.93642 -0.00273681  -0.760711 -1.96269 -0.00267267  -0.736268 -2.03622 -0.00265121  -0.785034 -2.01257 -0.00273573  -0.760566 -2.08617 -0.00272846  -0.785045 -2.01267 -0.00288546  -0.809419 -2.06255 -0.00293839  -0.736271 -2.03634 -0.00285351  -0.809408 -2.06244 -0.00280869  -0.784863 -2.13609 -0.00279689  -0.833769 -2.1123 -0.00287163  -0.809187 -2.18598 -0.00288033  -0.83377 -2.11239 -0.00300288  -0.858163 -2.16224 -0.0030551  -0.784862 -2.1362 -0.00297546  -0.858156 -2.16213 -0.00294328  -0.833497 -2.23583 -0.00294554  -0.882511 -2.21194 -0.0030092  -0.857823 -2.28563 -0.00302577  -0.882514 -2.21203 -0.00312102  -0.90689 -2.26181 -0.00317645  -0.833497 -2.23594 -0.00309014  -0.906887 -2.26171 -0.00308752  -0.882117 -2.33539 -0.00309443  -0.93121 -2.31143 -0.00315189  -0.906406 -2.38509 -0.0031786  -0.931209 -2.31152 -0.0032413  -0.955537 -2.36121 -0.0032959  -0.882111 -2.3355 -0.00321126  -0.955535 -2.36111 -0.00323033  -0.930653 -2.43473 -0.00324833  -0.979804 -2.41074 -0.00329578  -0.954881 -2.48431 -0.00332963  -0.979794 -2.41082 -0.0033623  -1.00407 -2.46041 -0.00341821  -0.930635 -2.43484 -0.00333548  -1.00407 -2.4603 -0.00337708  -0.979056 -2.53382 -0.00339913  -1.02826 -2.50981 -0.00343895  -1.00321 -2.58327 -0.00348043  -1.02825 -2.5099 -0.00348496  -1.05244 -2.55936 -0.00354433  -0.979045 -2.53394 -0.00345707  -1.05244 -2.55925 -0.00352311  -1.0273 -2.63264 -0.00355327  -1.07654 -2.60862 -0.00358784  -1.05135 -2.68193 -0.0036335  -1.07654 -2.60871 -0.00361156  -1.10062 -2.65803 -0.00366938  -1.02728 -2.63275 -0.00358367  -1.10062 -2.65791 -0.00366998  0.00159271 -0.00632542 0.000640392  0.00116836 -0.00470686 0.000356674  0.00527032 -0.0165938 0.000990391  0.00117676 -0.00481135 6.62804e-05  0.00368391 -0.0138194 -0.000114799  0 0 0  0 0 0  0.00159722 -0.00642765 6.61612e-05  0 0 0  0.00386912 -0.0136904 0.000488043  0.0105504 -0.0318992 0.00126505  0.00718631 -0.0279441 0.000595927  0.0165876 -0.0492502 0.00148809  0.00710908 -0.028106 -0.00012517  0.010813 -0.0448035 -0.000251174  0.0104492 -0.0320469 -0.000154257  0.0110299 -0.0445969 0.000619173  0.022363 -0.0700302 0.00150883  0.0144072 -0.064758 0.000572205  0.0277247 -0.0925728 0.00154471  0.0142755 -0.0649988 -0.000296831  0.0171204 -0.0871821 -0.000386596  0.0222034 -0.0702553 -0.000298738  0.0173106 -0.086875 0.000500441  0.0320233 -0.117466 0.00147104  0.0192441 -0.111327 0.00041461  0.0352942 -0.144178 0.00141048  0.0190867 -0.111639 -0.000450134  0.0200051 -0.138021 -0.000508666  0.0318496 -0.117776 -0.000415802  0.0201772 -0.137638 0.000333667  0.0373315 -0.172712 0.00132  0.020028 -0.165742 0.000255108  0.0381099 -0.203015 0.00123787  0.0198545 -0.166106 -0.000585079  0.0185325 -0.196006 -0.000624657  0.0371588 -0.173089 -0.000535488  0.018703 -0.195588 0.000198483  0.0376658 -0.234884 0.00114679  0.0162743 -0.226975 0.00013721  0.0359063 -0.268378 0.00106609  0.0160901 -0.227361 -0.00070405  0.0124705 -0.260366 -0.000730991  0.0374953 -0.235292 -0.000650764  0.0126496 -0.259941 0.000104785  0.0329776 -0.303238 0.000978112  0.00793165 -0.294261 5.17368e-05  0.028758 -0.339531 0.000902176  0.00773966 -0.294645 -0.000808358  0.00186712 -0.330384 -0.000836372  0.0328036 -0.303646 -0.00075841  0.00205052 -0.329975 2.3365e-05  0.0234263 -0.377023 0.000813603  -0.00487858 -0.366879 -2.57492e-05  0.0168701 -0.41575 0.000738382  -0.00506943 -0.367245 -0.000912905  -0.0130882 -0.405377 -0.000941157  0.0232497 -0.377414 -0.00086987  -0.0129012 -0.404994 -5.67436e-05  0.00926661 -0.455507 0.000648379  -0.0219166 -0.444134 -0.000106692  0.000530481 -0.496319 0.000569701  -0.0221107 -0.444476 -0.00101292  -0.0321417 -0.484672 -0.00104403  0.00909805 -0.455873 -0.000971675  -0.0319574 -0.484316 -0.000146389  -0.00918543 -0.538008 0.000481248  -0.0429121 -0.525383 -0.00020206  -0.0199409 -0.580586 0.000393748  -0.0430951 -0.525693 -0.00111341  -0.0549883 -0.567659 -0.00114655  -0.00934601 -0.538344 -0.00107312  -0.0548134 -0.567339 -0.000252366  -0.0315926 -0.623911 0.000302434  -0.0675535 -0.610044 -0.000308871  -0.044193 -0.667988 0.000212431  -0.0677245 -0.610329 -0.00121272  -0.0813164 -0.653807 -0.00124955  -0.0317446 -0.624221 -0.00117636  -0.0811504 -0.653508 -0.000362635  -0.057605 -0.712686 0.000118256  -0.0955206 -0.697616 -0.000428915  -0.0718821 -0.758014 2.53916e-05  -0.0956748 -0.697875 -0.00130999  -0.110823 -0.742635 -0.00134969  -0.0577463 -0.712971 -0.00127983  -0.110671 -0.74236 -0.000490308  -0.0868917 -0.803869 -6.56843e-05  -0.12651 -0.787651 -0.000558496  -0.102676 -0.850248 -0.000159979  -0.126652 -0.787886 -0.00141168  -0.143198 -0.833733 -0.00145233  -0.0870199 -0.804129 -0.00138021  -0.143058 -0.833485 -0.000626206  -0.119119 -0.897062 -0.000257492  -0.160218 -0.879774 -0.000695825  -0.136255 -0.944313 -0.000353217  -0.160347 -0.879987 -0.00151157  -0.178146 -0.926747 -0.00155389  -0.119235 -0.8973 -0.00148273  -0.178021 -0.92652 -0.000769258  -0.153983 -0.991926 -0.000448346  -0.196371 -0.973652 -0.000844002  -0.172322 -1.0399 -0.000548482  -0.196483 -0.973845 -0.00161541  -0.215398 -1.02137 -0.00166106  -0.154086 -0.992146 -0.00158525  -0.215286 -1.02116 -0.000920057  -0.191182 -1.08816 -0.000641346  -0.234683 -1.06899 -0.000990272  -0.210581 -1.13672 -0.000745296  -0.234782 -1.06917 -0.00171649  -0.254679 -1.11732 -0.00176501  -0.191271 -1.08837 -0.00169039  -0.25458 -1.11713 -0.00107515  -0.230434 -1.18552 -0.000836134  -0.274899 -1.16553 -0.00114644  -0.250758 -1.23455 -0.000935078  -0.274983 -1.1657 -0.00182593  -0.295745 -1.21438 -0.0018729  -0.230507 -1.18571 -0.00179744  -0.295657 -1.21419 -0.00122464  -0.27148 -1.28377 -0.00102723  -0.316774 -1.26306 -0.00129986  -0.292617 -1.33318 -0.00112522  -0.316851 -1.26322 -0.00193059  -0.338355 -1.31231 -0.0019778  -0.271543 -1.28395 -0.00190043  -0.338279 -1.31214 -0.00138211  -0.314083 -1.38273 -0.00121307  -0.360087 -1.36139 -0.00145674  -0.335906 -1.43243 -0.00131524  -0.360148 -1.36154 -0.00203347  -0.382294 -1.41097 -0.00208461  -0.314136 -1.3829 -0.00200498  -0.382234 -1.4108 -0.00154495  -0.358013 -1.48223 -0.00140405  -0.404625 -1.46034 -0.00161624  -0.38042 -1.53214 -0.00150418  -0.404678 -1.46048 -0.00214291  -0.42736 -1.51016 -0.00219238  -0.358057 -1.48239 -0.00211489  -0.427307 -1.51 -0.001701  -0.40306 -1.58213 -0.00158966  -0.450191 -1.55976 -0.0017761  -0.425951 -1.63218 -0.00168991  -0.450231 -1.5599 -0.002249  -0.47336 -1.60976 -0.00230122  -0.403094 -1.58228 -0.00222087  -0.473311 -1.60961 -0.00186014  -0.449032 -1.68229 -0.00177348  -0.496597 -1.65953 -0.00193655  -0.472317 -1.73244 -0.00186658  -0.496635 -1.65965 -0.00236475  -0.520113 -1.70964 -0.00240993  -0.44906 -1.68243 -0.00233316  -0.520075 -1.7095 -0.00201464  -0.495758 -1.78261 -0.00195312  -0.543684 -1.75952 -0.00209415  -0.519355 -1.8328 -0.00205076  -0.543708 -1.75963 -0.0024718  -0.56747 -1.8097 -0.00252604  -0.495771 -1.78275 -0.00243974  -0.567445 -1.80957 -0.00217927  -0.54307 -1.88299 -0.00213838  -0.591293 -1.85964 -0.00225341  -0.566912 -1.93318 -0.00223494  -0.591307 -1.85974 -0.00258482  -0.615292 -1.90984 -0.00263679  -0.543079 -1.88313 -0.0025562  -0.615273 -1.90971 -0.00234401  -0.590831 -1.98335 -0.00231159  -0.6393 -1.95978 -0.00241315  -0.614846 -2.03351 -0.00240266  -0.639313 -1.95989 -0.00269961  -0.663445 -2.00997 -0.00275421  -0.590838 -1.98348 -0.00266993  -0.663426 -2.00984 -0.00249541  -0.638911 -2.08362 -0.00248432  -0.687578 -2.05989 -0.00257409  -0.663042 -2.1337 -0.00257385  -0.687585 -2.05999 -0.00281584  -0.711809 -2.11002 -0.00286818  -0.638907 -2.08374 -0.00277746  -0.711802 -2.1099 -0.00265598  -0.687197 -2.18374 -0.00265563  -0.736027 -2.15988 -0.00273061  -0.711396 -2.23372 -0.00274813  -0.736028 -2.15998 -0.00293136  -0.760302 -2.20994 -0.00298786  -0.687191 -2.18386 -0.00289655  -0.760292 -2.20982 -0.00281394  -0.735592 -2.28364 -0.00282347  -0.784548 -2.25971 -0.0028913  -0.759817 -2.33351 -0.00291276  -0.784545 -2.25981 -0.00305092  -0.808826 -2.30966 -0.00310433  -0.735582 -2.28376 -0.0030154  -0.808824 -2.30955 -0.00297356  -0.784024 -2.38331 -0.00299513  -0.833069 -2.35933 -0.003052  -0.808238 -2.43305 -0.0030874  -0.833066 -2.35942 -0.0031724  -0.85733 -2.40916 -0.00322795  -0.784009 -2.38343 -0.00313568  -0.857331 -2.40905 -0.0031352  -0.832421 -2.48272 -0.00316012  -0.88154 -2.45871 -0.00320971  -0.856595 -2.53231 -0.00324523  -0.881535 -2.45879 -0.00329471  -0.905748 -2.50841 -0.00335038  -0.832402 -2.48283 -0.00326002  -0.905751 -2.5083 -0.00329304  -0.880729 -2.58183 -0.00332117  -0.929898 -2.55781 -0.00336933  -0.904844 -2.63129 -0.00341141  -0.929893 -2.55791 -0.00341809  -0.954033 -2.60738 -0.00347352  -0.880712 -2.58195 -0.0033803  -0.954039 -2.60726 -0.00345433  -0.928897 -2.68066 -0.00348973  -0.978102 -2.65663 -0.00352812  -0.952925 -2.72997 -0.00358117  -0.978094 -2.65673 -0.00354207  -1.00213 -2.70605 -0.00359547  -0.928884 -2.68078 -0.00350952  -1.00214 -2.70593 -0.00361216  0.00294641 -0.0116612 0.00119066  0.00245432 -0.00859946 0.000994921  0.00991794 -0.025344 0.00193465  0.00247274 -0.00876009 0.000127435  0.0076443 -0.0206026 -6.48499e-05  0 0 0  0 0 0  0.00298011 -0.0117639 0.000115395  0 0 0  0.00778262 -0.0204644 0.00153363  0.0191322 -0.043511 0.00260174  0.0148228 -0.0371024 0.0020529  0.0298968 -0.0625066 0.00313151  0.0147439 -0.0372682 -8.4281e-05  0.0227687 -0.0555431 -0.00013721  0.0190216 -0.0436432 -0.000121951  0.0229108 -0.055326 0.0023663  0.0402313 -0.0842432 0.00333619  0.0310332 -0.0765412 0.00250316  0.0501912 -0.107566 0.00352037  0.0308771 -0.076773 -0.000234485  0.0383943 -0.0998571 -0.000253201  0.0400454 -0.0844791 -0.00022614  0.0385725 -0.0995433 0.00257075  0.0589612 -0.132951 0.00349987  0.0452102 -0.124692 0.00252271  0.0664993 -0.160293 0.00346279  0.0450265 -0.124995 -0.00034821  0.0504377 -0.152144 -0.000377893  0.0587678 -0.133279 -0.000304699  0.0506131 -0.15176 0.00245631  0.0726971 -0.189435 0.00335121  0.0547954 -0.180622 0.00234532  0.0774072 -0.220497 0.00322545  0.0546122 -0.180979 -0.000465274  0.0574067 -0.211738 -0.000504136  0.0725127 -0.189822 -0.00041461  0.0575777 -0.211327 0.00223649  0.080753 -0.253185 0.00307679  0.0590604 -0.243626 0.00211108  0.0825849 -0.287596 0.00292456  0.0588782 -0.244004 -0.000581026  0.0589657 -0.278004 -0.000623107  0.0805837 -0.253591 -0.000534058  0.059138 -0.27759 0.00199628  0.083072 -0.323451 0.00276375  0.0579268 -0.312965 0.00186884  0.0820987 -0.360794 0.0026058  0.0577521 -0.313342 -0.000695229  0.0552 -0.350195 -0.00073576  0.0829121 -0.323852 -0.000650883  0.0553692 -0.349792 0.00175166  0.0798361 -0.399386 0.00244451  0.0515729 -0.38785 0.00162363  0.0761873 -0.439248 0.00228882  0.0513991 -0.388212 -0.000808001  0.0463347 -0.42753 -0.000846744  0.0796788 -0.399772 -0.000767827  0.0465039 -0.427152 0.0015105  0.0713284 -0.480171 0.00213003  0.0402654 -0.467505 0.00138247  0.0651729 -0.522153 0.00197709  0.0400999 -0.46784 -0.000915408  0.0326792 -0.509263 -0.00095582  0.0711778 -0.480528 -0.000878334  0.0328432 -0.508909 0.00126791  0.0578892 -0.565021 0.00181484  0.0243413 -0.551201 0.00114167  0.0494214 -0.608776 0.00166452  0.0241792 -0.55151 -0.00102222  0.0145901 -0.594704 -0.0010612  0.0577499 -0.565356 -0.000986814  0.0147438 -0.594376 0.00102389  0.0399181 -0.653266 0.00150621  0.00416219 -0.638296 0.000895739  0.0293278 -0.698489 0.00135243  0.00401425 -0.638581 -0.00112927  -0.00756919 -0.683252 -0.00117266  0.0397838 -0.653575 -0.00109661  -0.00742292 -0.682953 0.00077641  0.0177982 -0.744308 0.0011977  -0.0198971 -0.728224 0.000653505  0.00528693 -0.790735 0.00104737  -0.020036 -0.728485 -0.0012331  -0.0334167 -0.774388 -0.00127459  0.017678 -0.744593 -0.00120151  -0.0332824 -0.77411 0.00053072  -0.00806737 -0.837648 0.000903726  -0.0474699 -0.820504 0.000412464  -0.0223129 -0.885057 0.000752807  -0.0475944 -0.820743 -0.00133622  -0.0626056 -0.867665 -0.00137746  -0.00818431 -0.837912 -0.00130618  -0.0624828 -0.867405 0.000288486  -0.0373119 -0.932859 0.000607014  -0.0782074 -0.914721 0.000173688  -0.0531062 -0.981065 0.00046277  -0.0783181 -0.914946 -0.00143647  -0.0947782 -0.962697 -0.00148189  -0.037415 -0.933103 -0.0014112  -0.0946711 -0.962461 5.28097e-05  -0.0695726 -1.02958 0.000319362  -0.111765 -1.01054 -6.62804e-05  -0.0867448 -1.07842 0.000175714  -0.111863 -1.01074 -0.00154388  -0.12962 -1.05917 -0.00159144  -0.0696586 -1.02981 -0.00152004  -0.129524 -1.05895 -0.000190258  -0.104506 -1.12751 4.1604e-05  -0.147831 -1.10764 -0.000303984  -0.122894 -1.17685 -0.000100017  -0.147921 -1.10783 -0.00164866  -0.166816 -1.1568 -0.00169837  -0.104583 -1.12772 -0.0016216  -0.166729 -1.1566 -0.000427246  -0.141798 -1.22638 -0.000227213  -0.186106 -1.20577 -0.000536919  -0.161248 -1.27611 -0.000360966  -0.186181 -1.20594 -0.00175667  -0.206075 -1.25535 -0.00180471  -0.141863 -1.22658 -0.00172818  -0.206 -1.25516 -0.000656962  -0.181147 -1.32598 -0.000489235  -0.226308 -1.30471 -0.000764847  -0.201527 -1.376 -0.000623345  -0.226371 -1.30488 -0.00186193  -0.247133 -1.35461 -0.00190711  -0.181202 -1.32617 -0.00183344  -0.247068 -1.35443 -0.000877261  -0.222294 -1.42612 -0.000743866  -0.268184 -1.40428 -0.000986338  -0.243472 -1.47635 -0.00087738  -0.26824 -1.40443 -0.00196767  -0.289746 -1.45442 -0.00201464  -0.222338 -1.4263 -0.00193989  -0.28969 -1.45425 -0.00109851  -0.264971 -1.52664 -0.000991821  -0.311492 -1.50431 -0.00119996  -0.286826 -1.57701 -0.00111699  -0.311535 -1.50445 -0.00207531  -0.333676 -1.55461 -0.00212455  -0.265004 -1.52681 -0.0020473  -0.333629 -1.55445 -0.00131369  -0.308956 -1.6274 -0.00123274  -0.356009 -1.60465 -0.00141263  -0.33138 -1.67785 -0.00135493  -0.356046 -1.60478 -0.00218368  -0.378716 -1.65506 -0.00223517  -0.30898 -1.62756 -0.00215459  -0.378675 -1.6549 -0.00152755  -0.354028 -1.72829 -0.00146532  -0.401537 -1.70519 -0.00162542  -0.376925 -1.77875 -0.00158525  -0.401565 -1.70531 -0.00229466  -0.424667 -1.75564 -0.00234127  -0.354045 -1.72844 -0.00226378  -0.424639 -1.7555 -0.0017308  -0.400001 -1.8292 -0.00169039  -0.447889 -1.80581 -0.00182867  -0.423279 -1.87964 -0.00180852  -0.447906 -1.80593 -0.00240481  -0.471355 -1.85627 -0.00245512  -0.400011 -1.82934 -0.00237608  -0.471334 -1.85613 -0.00193083  -0.446691 -1.93005 -0.00190735  -0.494889 -1.90644 -0.00202513  -0.470266 -1.98044 -0.00201881  -0.494903 -1.90655 -0.00251639  -0.518627 -1.95687 -0.0025692  -0.446695 -1.93019 -0.00248837  -0.518609 -1.95674 -0.00213301  -0.493945 -2.03077 -0.00211763  -0.542401 -2.007 -0.00222099  -0.517745 -2.08107 -0.00222433  -0.542405 -2.0071 -0.00263119  -0.566331 -2.05735 -0.00267935  -0.493948 -2.03091 -0.00260127  -0.566319 -2.05722 -0.00232244  -0.541612 -2.13131 -0.002321  -0.590276 -2.10741 -0.00240874  -0.565575 -2.18149 -0.00242877  -0.590282 -2.10751 -0.00274253  -0.614338 -2.15767 -0.00279486  -0.54161 -2.13144 -0.00271428  -0.614332 -2.15754 -0.00250602  -0.589575 -2.23161 -0.00252008  -0.638401 -2.20762 -0.00259161  -0.61364 -2.28166 -0.00262094  -0.6384 -2.20772 -0.00285971  -0.662539 -2.25776 -0.00290954  -0.589562 -2.23173 -0.00282919  -0.66254 -2.25764 -0.00268924  -0.637715 -2.33164 -0.00270689  -0.686672 -2.3076 -0.00277185  -0.661838 -2.38155 -0.00280941  -0.686665 -2.3077 -0.00297689  -0.710847 -2.35761 -0.00303364  -0.637702 -2.33176 -0.00294566  -0.71085 -2.3575 -0.00286818  -0.685946 -2.43137 -0.00289786  -0.735002 -2.40732 -0.00295007  -0.71008 -2.48113 -0.00298452  -0.734991 -2.40741 -0.00309515  -0.759176 -2.45717 -0.00315273  -0.685929 -2.4315 -0.00307441  -0.759181 -2.45706 -0.00304401  -0.734189 -2.5308 -0.00307095  -0.783318 -2.50673 -0.00312471  -0.758307 -2.5804 -0.00316346  -0.783315 -2.50682 -0.003227  -0.807473 -2.55644 -0.00327468  -0.734172 -2.53092 -0.00318933  -0.807477 -2.55633 -0.00321162  -0.782396 -2.62991 -0.0032444  -0.831577 -2.60585 -0.00328708  -0.80648 -2.67936 -0.00333393  -0.831566 -2.60594 -0.00334132  -0.855684 -2.65542 -0.00340414  -0.782378 -2.63003 -0.00331247  -0.855686 -2.6553 -0.00337815  -0.830518 -2.72874 -0.00341606  -0.879725 -2.70468 -0.00346208  -0.854545 -2.77806 -0.0035131  -0.879715 -2.70478 -0.00347304  -0.903737 -2.75412 -0.00352788  -0.830498 -2.72886 -0.00343776  -0.903738 -2.754 -0.00355196  0.00495192 -0.0213845 0.00161529  0.00445563 -0.0156514 0.00154519  0.0176153 -0.0401983 0.00271237  0.00443435 -0.0158928 0.000139117  0.0132724 -0.0322431 -4.20809e-05  0 0 0  0 0 0  0.00504718 -0.021486 0.000135899  0 0 0  0.0133211 -0.0320306 0.00240409  0.0315885 -0.0607221 0.00376427  0.0249436 -0.0512921 0.00329041  0.0471399 -0.0813178 0.00456583  0.0248546 -0.0515148 -8.61883e-05  0.0374953 -0.0715871 -5.57899e-05  0.0314294 -0.0609659 -0.000140786  0.0375609 -0.0712993 0.00389135  0.0620092 -0.103026 0.00498998  0.0504829 -0.0930339 0.00422192  0.0759556 -0.126777 0.00531769  0.0503038 -0.0933217 -0.000178814  0.0622262 -0.117044 -0.000139952  0.0617894 -0.103402 -0.000176787  0.0623904 -0.116687 0.00443494  0.0888344 -0.152196 0.00536215  0.0733847 -0.142121 0.00445449  0.100165 -0.179922 0.00535882  0.0731792 -0.142459 -0.000252247  0.0827134 -0.170083 -0.000265479  0.0886201 -0.152607 -0.000219703  0.0828975 -0.169686 0.0044204  0.110163 -0.209514 0.00523877  0.0910489 -0.199079 0.00430036  0.118499 -0.241198 0.00508749  0.0908542 -0.199444 -0.000356078  0.0974716 -0.230864 -0.000395179  0.109981 -0.209925 -0.000312328  0.0976471 -0.230456 0.00415969  0.125369 -0.274641 0.0048939  0.102768 -0.263533 0.00398552  0.130585 -0.309894 0.00468779  0.102594 -0.263906 -0.000470757  0.106181 -0.298765 -0.000519037  0.12521 -0.275044 -0.000429273  0.106349 -0.298361 0.00380886  0.134305 -0.346693 0.0044663  0.108456 -0.334699 0.00361526  0.136422 -0.385028 0.00423884  0.108292 -0.335061 -0.000590205  0.108908 -0.372924 -0.000640988  0.134156 -0.347079 -0.000553846  0.109067 -0.372535 0.00342047  0.137092 -0.424673 0.00401473  0.108273 -0.411662 0.00322747  0.13623 -0.465608 0.00378621  0.108114 -0.412007 -0.000710607  0.105895 -0.452428 -0.000755548  0.136949 -0.425036 -0.000675917  0.106048 -0.452061 0.00303805  0.134006 -0.507631 0.00356257  0.102507 -0.49354 0.00284362  0.130342 -0.550721 0.00333428  0.102357 -0.493862 -0.000822425  0.0974762 -0.536422 -0.000868082  0.133865 -0.507968 -0.000791669  0.0976226 -0.536079 0.00265396  0.125417 -0.594699 0.00311255  0.0915215 -0.579511 0.00245965  0.119163 -0.639556 0.0028913  0.0913812 -0.579808 -0.000935912  0.0840377 -0.624141 -0.000978947  0.125287 -0.595012 -0.000905991  0.0841774 -0.623823 0.00227344  0.111753 -0.685132 0.00268197  0.0757197 -0.668863 0.00209129  0.10312 -0.731423 0.00246453  0.0755891 -0.669138 -0.00104535  0.0659943 -0.71492 -0.00109065  0.111628 -0.685419 -0.00101912  0.0661253 -0.714626 0.00190747  0.0934408 -0.778282 0.00226176  0.0555252 -0.760977 0.00172639  0.0826517 -0.825726 0.00205433  0.0554005 -0.76123 -0.00115454  0.0437626 -0.808192 -0.00119853  0.0933285 -0.778554 -0.00112653  0.0438844 -0.807921 0.00154698  0.0709257 -0.873614 0.00185537  0.0313431 -0.85533 0.00137448  0.0581963 -0.921976 0.00165319  0.0312324 -0.855565 -0.00125921  0.017753 -0.903479 -0.00130594  0.0708227 -0.873869 -0.00123703  0.0178633 -0.903221 0.00120056  0.0446258 -0.97068 0.00146317  0.0035826 -0.951487 0.00103319  0.0301545 -1.01976 0.00126636  0.00348353 -0.951704 -0.00136817  -0.0116465 -1.00037 -0.00141382  0.0445324 -0.970915 -0.0013442  -0.0115465 -1.00014 0.000859499  0.0149441 -1.0691 0.00108385  -0.0273831 -1.04908 0.000698209  -0.00106931 -1.11873 0.000897169  -0.0274674 -1.04928 -0.00147247  -0.0440581 -1.09855 -0.00152278  0.0148602 -1.06932 -0.00145245  -0.0439733 -1.09832 0.000530481  -0.0177372 -1.16856 0.000721455  -0.0611829 -1.14779 0.000377297  -0.0351198 -1.21861 0.000544906  -0.0612622 -1.14798 -0.00158596  -0.0791469 -1.1977 -0.00162947  -0.0178114 -1.16877 -0.00155711  -0.0790656 -1.1975 0.000217676  -0.0530689 -1.2688 0.000377059  -0.0974889 -1.24737 7.12872e-05  -0.0716498 -1.31916 0.000207663  -0.0975608 -1.24754 -0.00168729  -0.116574 -1.29761 -0.00173199  -0.0531297 -1.269 -0.00166178  -0.116507 -1.29742 -8.32081e-05  -0.0907245 -1.3696 4.22001e-05  -0.135986 -1.34759 -0.000227332  -0.11035 -1.42017 -0.000124335  -0.13604 -1.34775 -0.00179374  -0.156051 -1.39807 -0.00184083  -0.0907683 -1.36979 -0.00176811  -0.155992 -1.39789 -0.000372887  -0.130402 -1.47078 -0.000276327  -0.176396 -1.44827 -0.000513077  -0.150931 -1.52148 -0.000434995  -0.176445 -1.44842 -0.00189865  -0.197304 -1.49891 -0.0019486  -0.130439 -1.47096 -0.00187564  -0.197253 -1.49874 -0.000662923  -0.171818 -1.57219 -0.000583768  -0.218443 -1.54925 -0.000792742  -0.193124 -1.62295 -0.000738263  -0.218481 -1.54939 -0.00201118  -0.240069 -1.59997 -0.0020597  -0.171854 -1.57235 -0.00198257  -0.240028 -1.59982 -0.000934124  -0.214724 -1.67369 -0.000876665  -0.261886 -1.6504 -0.00105894  -0.236688 -1.72445 -0.0010258  -0.261918 -1.65053 -0.00211859  -0.28412 -1.70116 -0.00216293  -0.214754 -1.67384 -0.00209177  -0.284092 -1.701 -0.0011934  -0.258896 -1.77518 -0.00115931  -0.306508 -1.7516 -0.00131321  -0.281399 -1.8259 -0.00129902  -0.306532 -1.75172 -0.00222611  -0.329239 -1.80234 -0.0022738  -0.258911 -1.77532 -0.00220001  -0.329211 -1.80219 -0.00144482  -0.304102 -1.87656 -0.00142789  -0.352098 -1.85276 -0.00156164  -0.327057 -1.92721 -0.0015614  -0.352116 -1.85288 -0.00233638  -0.37524 -1.90345 -0.00238681  -0.304115 -1.8767 -0.00230789  -0.37522 -1.90331 -0.00168884  -0.350163 -1.97778 -0.00168383  -0.398473 -1.95381 -0.00180495  -0.373479 -2.0283 -0.00181484  -0.398484 -1.95392 -0.00245035  -0.421937 -2.0044 -0.0024966  -0.350175 -1.97792 -0.0024215  -0.421923 -2.00427 -0.00192368  -0.396908 -2.07876 -0.00192738  -0.445468 -2.05468 -0.00202668  -0.420499 -2.12915 -0.00205052  -0.445476 -2.05478 -0.00255978  -0.469184 -2.10516 -0.00260949  -0.396908 -2.07889 -0.00253057  -0.469173 -2.10503 -0.00214207  -0.444172 -2.17946 -0.00215757  -0.492935 -2.15531 -0.00224614  -0.467967 -2.22971 -0.00227857  -0.492936 -2.15541 -0.00267267  -0.516822 -2.20565 -0.00272357  -0.444166 -2.17959 -0.00264394  -0.516815 -2.20553 -0.00235701  -0.491812 -2.27986 -0.00238049  -0.540735 -2.25567 -0.00245273  -0.515754 -2.32994 -0.00248933  -0.540729 -2.25577 -0.00278735  -0.564735 -2.30586 -0.00283968  -0.491802 -2.27998 -0.00275743  -0.564739 -2.30574 -0.00255966  -0.539711 -2.37992 -0.00258803  -0.588745 -2.35573 -0.00265229  -0.563737 -2.42983 -0.00269055  -0.588741 -2.35583 -0.00290442  -0.612826 -2.40576 -0.00295663  -0.539693 -2.38004 -0.00287032  -0.612831 -2.40564 -0.00275719  -0.587766 -2.47965 -0.00278544  -0.636886 -2.45547 -0.00284421  -0.611832 -2.52939 -0.0028882  -0.636881 -2.45557 -0.00302505  -0.660987 -2.50534 -0.00307405  -0.58775 -2.47977 -0.00298822  -0.660997 -2.50522 -0.00294137  -0.635882 -2.57904 -0.00297296  -0.685065 -2.55488 -0.00302482  -0.65995 -2.62861 -0.00307095  -0.68505 -2.55498 -0.00314045  -0.709159 -2.60459 -0.00320137  -0.635862 -2.57915 -0.00310814  -0.709165 -2.60447 -0.00312436  -0.683987 -2.6781 -0.00315452  -0.733215 -2.65398 -0.00320852  -0.708049 -2.72753 -0.00325203  -0.73321 -2.65408 -0.00327241  -0.757289 -2.70354 -0.0033263  -0.683974 -2.67822 -0.00323236  -0.757293 -2.70342 -0.00330126  -0.732085 -2.77689 -0.00333667  -0.781322 -2.7528 -0.00338376  -0.756137 -2.82623 -0.00343752  -0.781313 -2.75289 -0.00339317  -0.805346 -2.80225 -0.00344658  -0.732068 -2.77702 -0.00336111  -0.80535 -2.80213 -0.00347769  0.0086194 -0.0391299 0.0020268  0.00794222 -0.0285532 0.00197268  0.0325382 -0.0665962 0.00319314  0.00778972 -0.0289484 8.11815e-05  0.0225119 -0.0524532 -6.29425e-05  0 0 0  0 0 0  0.00843286 -0.0391867 0.000134826  0 0 0  0.0224467 -0.0520805 0.0030452  0.0530184 -0.0838673 0.00503576  0.0404167 -0.0715896 0.00431824  0.0700063 -0.105004 0.00590444  0.0402588 -0.0719259 -8.28505e-05  0.0573033 -0.0931076 1.41859e-05  0.0522754 -0.0847748 -0.000232816  0.0573247 -0.0927192 0.00518787  0.0887979 -0.125407 0.00658631  0.0745615 -0.113865 0.00577462  0.10564 -0.148962 0.00698364  0.0743225 -0.114279 -9.60827e-05  0.0901238 -0.137958 -2.47955e-05  0.0885747 -0.126108 -0.000135064  0.0902832 -0.13755 0.00612497  0.122105 -0.174418 0.00708807  0.104976 -0.16299 0.00623763  0.136942 -0.202394 0.00709403  0.104742 -0.163398 -0.000142097  0.118004 -0.191224 -0.000149965  0.121922 -0.174931 -0.000116944  0.118185 -0.190816 0.00623465  0.15045 -0.232558 0.00696278  0.129902 -0.220689 0.00612175  0.162242 -0.264881 0.00677514  0.1297 -0.221068 -0.000245929  0.139863 -0.253066 -0.00028789  0.15028 -0.232959 -0.000203371  0.140027 -0.252667 0.00595295  0.172454 -0.299151 0.00656056  0.14854 -0.286523 0.00574684  0.180876 -0.335272 0.00629115  0.148366 -0.28688 -0.00036943  0.155254 -0.322578 -0.00042522  0.172291 -0.299498 -0.000328898  0.155409 -0.322192 0.00550878  0.187691 -0.373039 0.00604165  0.160662 -0.359474 0.0052712  0.192727 -0.412374 0.00574183  0.160505 -0.359812 -0.000495791  0.164139 -0.398669 -0.000550747  0.187547 -0.373357 -0.000454903  0.164283 -0.3983 0.00501192  0.196223 -0.453062 0.00547588  0.166349 -0.438469 0.00476038  0.197983 -0.49506 0.00517631  0.166201 -0.438784 -0.00062263  0.166706 -0.480276 -0.000671864  0.19608 -0.453353 -0.000586629  0.166844 -0.47993 0.00449622  0.198312 -0.538145 0.00491321  0.165876 -0.52249 0.00424409  0.196995 -0.582312 0.0046134  0.165734 -0.522784 -0.000743151  0.163299 -0.566443 -0.000791311  0.198173 -0.53842 -0.00070703  0.163433 -0.56612 0.00398588  0.194353 -0.627345 0.00435114  0.159635 -0.610632 0.00373709  0.190181 -0.673255 0.00406206  0.159503 -0.610903 -0.000862002  0.154335 -0.656324 -0.000905156  0.194229 -0.627601 -0.000829816  0.154462 -0.65602 0.00348425  0.184806 -0.71984 0.00380659  0.148054 -0.702109 0.00324643  0.17801 -0.767144 0.00352907  0.147927 -0.702359 -0.000975847  0.14026 -0.749194 -0.00101995  0.184688 -0.720083 -0.00094533  0.140381 -0.748913 0.00300288  0.170148 -0.81496 0.00328505  0.131594 -0.796262 0.00277174  0.160972 -0.863353 0.00301111  0.131476 -0.796496 -0.00108504  0.121538 -0.84445 -0.0011301  0.170031 -0.81519 -0.00105858  0.121647 -0.844188 0.00253582  0.150851 -0.912133 0.00277913  0.110708 -0.892532 0.00231469  0.139533 -0.961369 0.0025177  0.110601 -0.892745 -0.00119567  0.0986135 -0.941581 -0.00123847  0.150748 -0.912344 -0.0011704  0.0987127 -0.94134 0.00208557  0.127379 -1.01089 0.00229204  0.0858384 -0.990463 0.00187135  0.114146 -1.06077 0.00204217  0.0857435 -0.990657 -0.00130498  0.0719252 -1.04018 -0.00134242  0.127288 -1.01108 -0.00128007  0.072019 -1.03995 0.00165868  0.10019 -1.11084 0.00183165  0.0574219 -1.08967 0.00145376  0.0852565 -1.16119 0.00159454  0.0573363 -1.08985 -0.00140846  0.0418876 -1.13988 -0.0014528  0.100105 -1.11103 -0.00138903  0.0419747 -1.13967 0.00124669  0.0696933 -1.21166 0.00138998  0.025843 -1.18984 0.00105381  0.0532515 -1.26235 0.00116718  0.0257645 -1.19001 -0.0015192  0.00888038 -1.24041 -0.00155938  0.0696242 -1.21185 -0.00149274  0.00895739 -1.24022 0.000852704  0.0362649 -1.31311 0.000968218  -0.00852704 -1.2907 0.000671506  0.0184994 -1.36402 0.000752926  -0.00859237 -1.29086 -0.0016253  -0.0267425 -1.34153 -0.00166667  0.036206 -1.31328 -0.00160253  -0.0266783 -1.34134 0.000478506  0.000269651 -1.41495 0.000573277  -0.0453436 -1.39204 0.000301123  -0.0186629 -1.46599 0.000364661  -0.0453951 -1.39219 -0.00172651  -0.0646601 -1.44302 -0.00177586  0.000216722 -1.41511 -0.00170326  -0.0646048 -1.44285 0.000116944  -0.0379782 -1.51701 0.000195384  -0.0842979 -1.49368 -4.8995e-05  -0.0579071 -1.5681 -4.17233e-06  -0.0843422 -1.49382 -0.00183797  -0.10456 -1.54475 -0.00187993  -0.0380228 -1.51716 -0.00180709  -0.104514 -1.54458 -0.000224948  -0.0781662 -1.61916 -0.000172615  -0.125099 -1.59547 -0.000383496  -0.0989621 -1.67023 -0.000360012  -0.125136 -1.5956 -0.00194323  -0.14617 -1.64656 -0.0019902  -0.0782001 -1.6193 -0.00191677  -0.146132 -1.6464 -0.000554085  -0.120018 -1.72124 -0.000519753  -0.167476 -1.69728 -0.000705361  -0.141554 -1.77226 -0.000693083  -0.167499 -1.69741 -0.00205028  -0.189238 -1.74834 -0.00209999  -0.120045 -1.72138 -0.00202203  -0.189205 -1.74818 -0.000865221  -0.163298 -1.82319 -0.000845909  -0.21119 -1.79902 -0.00100839  -0.185456 -1.87411 -0.00101495  -0.211211 -1.79914 -0.00215697  -0.233532 -1.84999 -0.00220561  -0.163317 -1.82333 -0.00212896  -0.233506 -1.84985 -0.0011611  -0.207761 -1.92491 -0.00115538  -0.256025 -1.9006 -0.00129533  -0.230437 -1.9757 -0.00131118  -0.256042 -1.90071 -0.00226629  -0.278843 -1.95145 -0.00231969  -0.207772 -1.92505 -0.00223768  -0.278822 -1.95132 -0.00144184  -0.25322 -2.02636 -0.00145745  -0.301777 -2.00194 -0.00157619  -0.276304 -2.07697 -0.00160611  -0.301789 -2.00206 -0.00237906  -0.324974 -2.05266 -0.00242913  -0.253222 -2.02649 -0.00234818  -0.324961 -2.05253 -0.0017153  -0.299469 -2.12746 -0.00173163  -0.348267 -2.10301 -0.00183904  -0.322884 -2.1779 -0.00187278  -0.348272 -2.10311 -0.00249135  -0.371773 -2.15356 -0.00253642  -0.299468 -2.12759 -0.00245798  -0.371763 -2.15343 -0.00196588  -0.346354 -2.22822 -0.0019865  -0.395341 -2.20376 -0.00208294  -0.370029 -2.27845 -0.0021292  -0.395338 -2.20385 -0.00260293  -0.419065 -2.25413 -0.00265324  -0.346352 -2.22834 -0.00257277  -0.419062 -2.25401 -0.00220406  -0.393716 -2.32857 -0.0022372  -0.442835 -2.30415 -0.00231576  -0.417572 -2.37863 -0.00235963  -0.442832 -2.30425 -0.0027132  -0.466714 -2.35434 -0.00276482  -0.393704 -2.3287 -0.0026834  -0.466717 -2.35422 -0.00242865  -0.44141 -2.42856 -0.00246596  -0.490626 -2.40418 -0.0025332  -0.465387 -2.47842 -0.00258231  -0.490612 -2.40428 -0.00282717  -0.514614 -2.4542 -0.0028832  -0.441399 -2.42868 -0.00279641  -0.51462 -2.45408 -0.00264275  -0.48934 -2.52817 -0.00267625  -0.538613 -2.50386 -0.00274217  -0.513378 -2.57784 -0.00278187  -0.538598 -2.50396 -0.00294578  -0.562649 -2.5537 -0.00300181  -0.48932 -2.52829 -0.00290847  -0.562654 -2.55358 -0.00284326  -0.537382 -2.62742 -0.00287116  -0.58668 -2.6032 -0.00293124  -0.561444 -2.67693 -0.00297463  -0.586662 -2.6033 -0.00306225  -0.610735 -2.65287 -0.00311995  -0.537365 -2.62754 -0.00302839  -0.610733 -2.65275 -0.00302672  -0.585471 -2.72637 -0.00306201  -0.634764 -2.70222 -0.00311494  -0.609516 -2.77575 -0.00316143  -0.63475 -2.70232 -0.00318778  -0.658803 -2.75174 -0.00325131  -0.58545 -2.72649 -0.00315428  -0.658803 -2.75163 -0.00321352  -0.633557 -2.82511 -0.0032537  -0.682847 -2.80099 -0.00330341  -0.657617 -2.87444 -0.0033468  -0.682831 -2.80109 -0.00331688  -0.706894 -2.85044 -0.00337505  -0.633532 -2.82524 -0.00328279  -0.706905 -2.85032 -0.00340223  -0.003956 -0.00806119 0.00152516  -0.00495839 -0.0131582 0.00200963  -0.0137207 -0.0219561 0.00307679  -0.00534562 -0.0129132 0.00419807  -0.0222583 -0.0316681 0.0081743  -0.0224836 -0.0276834 0.00507224  0 0 0  -0.022928 -0.0278307 0.00234425  0 0 0  0 0 0  -0.00381719 -0.00741545 0.00368607  0 0 0  -0.0425147 -0.0439066 0.00423717  -0.0226212 -0.0324076 0.00366592  -0.026892 -0.0360827 0.00429153  -0.0392161 -0.0457706 0.0050683  -0.0409935 -0.0504029 0.00508249  -0.0388325 -0.0445119 0.011008  -0.0559039 -0.0582159 0.0130066  -0.0583543 -0.0536935 0.0126902  -0.058646 -0.0546359 0.00609159  -0.0269279 -0.0349683 0.00927365  -0.0774796 -0.0688422 0.00693703  -0.056111 -0.059556 0.00599992  -0.0564241 -0.0665785 0.00560427  -0.0733964 -0.0736037 0.00675011  -0.0713565 -0.0832317 0.00589859  -0.0731389 -0.072014 0.0145506  -0.0906259 -0.0874966 0.015154  -0.0951438 -0.07912 0.0168521  -0.0953735 -0.0806656 0.00794411  -0.0563308 -0.0650573 0.0122452  -0.114995 -0.0958497 0.00821853  -0.0907679 -0.0892069 0.00703752  -0.0870805 -0.102425 0.00598013  -0.108671 -0.106566 0.0072211  -0.102626 -0.122843 0.00591898  -0.108407 -0.104821 0.0155613  -0.126341 -0.12387 0.0153085  -0.134082 -0.109463 0.0180898  -0.13438 -0.111324 0.00845289  -0.0868736 -0.100792 0.0130638  -0.154405 -0.129148 0.00832772  -0.126585 -0.125625 0.00709867  -0.118783 -0.145417 0.00570285  -0.144942 -0.146673 0.00689375  -0.135046 -0.169412 0.0054456  -0.144551 -0.144979 0.0149587  -0.162842 -0.167608 0.014279  -0.174045 -0.146712 0.0174286  -0.174482 -0.148556 0.00807297  -0.118411 -0.143847 0.0125414  -0.194552 -0.169573 0.00773656  -0.163261 -0.16923 0.00656569  -0.151768 -0.195178 0.00508034  -0.181923 -0.193655 0.00615871  -0.168689 -0.222285 0.00473928  -0.181378 -0.192137 0.0135319  -0.199966 -0.217996 0.0126894  -0.214253 -0.190912 0.0158012  -0.214833 -0.192558 0.00723672  -0.151224 -0.193762 0.0113286  -0.234862 -0.216787 0.00681031  -0.200538 -0.219397 0.00574625  -0.185986 -0.250927 0.00432289  -0.219455 -0.246829 0.00527239  -0.203504 -0.280779 0.00396335  -0.218792 -0.245536 0.0118093  -0.237678 -0.274264 0.0109571  -0.254502 -0.241557 0.0138257  -0.255185 -0.242943 0.00623143  -0.185313 -0.249708 0.00985479  -0.275243 -0.270177 0.00579774  -0.238354 -0.275434 0.00485182  -0.221371 -0.31201 0.0035522  -0.257562 -0.305562 0.00438166  -0.239467 -0.344329 0.00320601  -0.256837 -0.304489 0.0100832  -0.276085 -0.335795 0.0092957  -0.294907 -0.298026 0.0118639  -0.295637 -0.299162 0.00523186  -0.220624 -0.310987 0.00836694  -0.315849 -0.329134 0.00482094  -0.276801 -0.336751 0.00398958  -0.257922 -0.377891 0.00283587  -0.296376 -0.369305 0.00355542  -0.276624 -0.412436 0.00251627  -0.295636 -0.368434 0.008497  -0.315316 -0.402057 0.00779176  -0.335691 -0.359748 0.0100508  -0.336422 -0.360653 0.0042994  -0.257159 -0.37705 0.00699437  -0.356907 -0.393099 0.0039295  -0.316032 -0.40283 0.0032022  -0.295698 -0.448105 0.00218451  -0.336045 -0.437574 0.00281596  -0.315041 -0.484663 0.00189555  -0.335324 -0.436864 0.00708461  -0.355502 -0.472576 0.006464  -0.377056 -0.426175 0.00845063  -0.377765 -0.426901 0.00346935  -0.294949 -0.447419 0.00576723  -0.39862 -0.461565 0.00313222  -0.356192 -0.473206 0.00249469  -0.334749 -0.522224 0.00160789  -0.3767 -0.509918 0.00215781  -0.354742 -0.560591 0.00134861  -0.376015 -0.509338 0.00584924  -0.396718 -0.546926 0.00530696  -0.419171 -0.49683 0.00704741  -0.419837 -0.497418 0.00273156  -0.334039 -0.521666 0.00469053  -0.441114 -0.534067 0.00243163  -0.397365 -0.547441 0.00187337  -0.375093 -0.59985 0.00109243  -0.418399 -0.585928 0.00157595  -0.39573 -0.639837 0.000855565  -0.417765 -0.585453 0.00476956  -0.439012 -0.624728 0.00428462  -0.462132 -0.571298 0.00581896  -0.462747 -0.571772 0.00208461  -0.374431 -0.599397 0.00375044  -0.484472 -0.610201 0.00180924  -0.439605 -0.625144 0.0013181  -0.416707 -0.680616 0.000629187  -0.46116 -0.665219 0.00105548  -0.437962 -0.722049 0.000417352  -0.460585 -0.664832 0.00381589  -0.482362 -0.705613 0.00338316  -0.505979 -0.649184 0.00473571  -0.506538 -0.649568 0.00149679  -0.416102 -0.680246 0.00291836  -0.528711 -0.68959 0.00124848  -0.482901 -0.705956 0.000817418  -0.459536 -0.764185 0.000214934  -0.504966 -0.747454 0.000580072  -0.48137 -0.806902 1.5378e-05  -0.504446 -0.747133 0.00296474  -0.526729 -0.789263 0.0025723  -0.550705 -0.730141 0.00376689  -0.551209 -0.730449 0.000969648  -0.458992 -0.763887 0.00217772  -0.573815 -0.771899 0.00073874  -0.527207 -0.789541 0.0003649  -0.503499 -0.850243 -0.000166059  -0.549752 -0.832309 0.00015521  -0.525867 -0.894099 -0.000348091  -0.549291 -0.832049 0.00220335  -0.572037 -0.875379 0.00184965  -0.596272 -0.813848 0.00290108  -0.596719 -0.814094 0.000489235  -0.50301 -0.850005 0.00151491  -0.619734 -0.856819 0.000276089  -0.572458 -0.875602 -4.50611e-05  -0.548496 -0.938505 -0.000518918  -0.595441 -0.919497 -0.000243664  -0.571339 -0.983367 -0.000683308  -0.595029 -0.919283 0.00150859  -0.618191 -0.963678 0.00118852  -0.642612 -0.900004 0.0021174  -0.643007 -0.900203 5.04255e-05  -0.548062 -0.938316 0.000909925  -0.666385 -0.944067 -0.000145912  -0.618565 -0.963859 -0.000427485  -0.594416 -1.02871 -0.000842929  -0.641931 -1.00875 -0.000607729  -0.617674 -1.07445 -0.00100076  -0.64157 -1.00858 0.000878692  -0.665095 -1.05391 0.000585794  -0.689647 -0.988351 0.00140083  -0.689997 -0.98851 -0.00035727  -0.594031 -1.02856 0.000358462  -0.713695 -1.03337 -0.000538945  -0.665423 -1.05406 -0.00077939  -0.641136 -1.12062 -0.00114405  -0.689124 -1.09982 -0.000943661  -0.664757 -1.16713 -0.00129211  -0.688814 -1.09969 0.000303388  -0.712654 -1.14585 3.38554e-05  -0.737293 -1.07863 0.000750422  -0.737595 -1.07875 -0.000735164  -0.640804 -1.12051 -0.000142813  -0.761573 -1.1245 -0.000904322  -0.712935 -1.14596 -0.00110817  -0.688542 -1.21401 -0.00142837  -0.736918 -1.19249 -0.00126421  -0.712457 -1.26119 -0.00156653  -0.736646 -1.19239 -0.00022471  -0.760745 -1.23926 -0.000473022  -0.785454 -1.17061 0.000146985  -0.785714 -1.17069 -0.00108647  -0.68825 -1.21393 -0.000604868  -0.809916 -1.21721 -0.00125146  -0.760987 -1.23933 -0.00141275  -0.73651 -1.30867 -0.00169218  -0.785196 -1.28653 -0.00155592  -0.760666 -1.35642 -0.00182092  -0.784973 -1.28646 -0.000711918  -0.809274 -1.33395 -0.000933528  -0.834032 -1.26407 -0.000398278  -0.834245 -1.26412 -0.0014112  -0.736261 -1.30863 -0.00102651  -0.858627 -1.31131 -0.00156403  -0.809475 -1.33399 -0.00169921  -0.784932 -1.40443 -0.00194228  -0.833863 -1.38175 -0.00183606  -0.809273 -1.45265 -0.00206447  -0.833673 -1.38171 -0.00115204  -0.858128 -1.42972 -0.00136447  -0.882924 -1.35881 -0.000899553  -0.883105 -1.35883 -0.0017184  -0.784719 -1.4044 -0.00141561  -0.907616 -1.4066 -0.00185633  -0.858296 -1.42974 -0.00196815  -0.833691 -1.50109 -0.0021739  -0.882813 -1.47798 -0.00209212  -0.858167 -1.54971 -0.00229037  -0.882655 -1.47795 -0.00156069  -0.907217 -1.52641 -0.00174391  -0.932041 -1.45464 -0.00135362  -0.9322 -1.45464 -0.00199652  -0.833514 -1.50109 -0.00177038  -0.95679 -1.50289 -0.00212801  -0.907357 -1.52641 -0.00221646  -0.882696 -1.59851 -0.00238883  -0.931955 -1.57504 -0.00233352  -0.907256 -1.64745 -0.00250018  -0.93182 -1.57504 -0.00193202  -0.95645 -1.62385 -0.00209892  -0.981307 -1.55137 -0.00176513  -0.981434 -1.55136 -0.00225914  -0.882544 -1.59852 -0.00209165  -1.00608 -1.6 -0.00238705  -0.956565 -1.62383 -0.00245011  -0.931847 -1.69654 -0.002599  -0.981207 -1.67279 -0.00255811  -0.956455 -1.74573 -0.00269866  -0.9811 -1.6728 -0.00226748  -1.00575 -1.72189 -0.00242114  -1.03065 -1.64887 -0.00214553  -1.03075 -1.64884 -0.00250936  -0.931721 -1.69657 -0.00239217  -1.0554 -1.69781 -0.00262761  -1.00584 -1.72186 -0.00267208  -0.981073 -1.79503 -0.00279069  -1.03049 -1.77107 -0.00276697  -1.00569 -1.8444 -0.00288284  -1.03041 -1.77109 -0.00256801  -1.05505 -1.8204 -0.00270212  -1.07998 -1.74697 -0.00248373  -1.08006 -1.74692 -0.00273478  -0.980973 -1.79507 -0.0026567  -1.10469 -1.79613 -0.00283694  -1.05512 -1.82036 -0.00287104  -1.03029 -1.89386 -0.0029676  -1.07974 -1.86974 -0.00296164  -1.05488 -1.94336 -0.00305879  -1.07967 -1.86978 -0.00283432  -1.10428 -1.91924 -0.00295663  -1.12924 -1.84552 -0.00278306  -1.1293 -1.84546 -0.00294101  -1.03021 -1.89391 -0.00289559  -1.1539 -1.89486 -0.00304842  -1.10434 -1.91919 -0.00305712  -1.07944 -1.99292 -0.00313365  -1.12891 -1.9687 -0.00314307  -1.10399 -2.0425 -0.00321853  -1.12887 -1.96874 -0.00308025  -1.15342 -2.01831 -0.00317872  -1.17841 -1.94441 -0.00304472  -1.17846 -1.94434 -0.00313449  -1.07939 -1.99298 -0.00311184  -1.20299 -1.99386 -0.00322425  -1.15345 -2.01825 -0.00322688  -1.12849 -2.0921 -0.00328398  -1.17795 -2.06783 -0.00330007  -1.15297 -2.1417 -0.00336635  -1.17792 -2.06788 -0.00327885  -1.2024 -2.11749 -0.00337124  -1.22743 -2.04351 -0.00327063  -1.22746 -2.04343 -0.0033052  -1.12845 -2.09217 -0.00329649  -1.25192 -2.09302 -0.00339139  -1.20242 -2.11742 -0.0033859  -1.1774 -2.1913 -0.00342929  -1.22684 -2.16702 -0.00345695  -1.2018 -2.24089 -0.00350273  -1.22681 -2.16707 -0.00346422  -1.25121 -2.21668 -0.00353956  -1.27628 -2.14271 -0.00346768  -1.2763 -2.14263 -0.00346422  -1.17736 -2.19138 -0.00346136  -1.30068 -2.19224 -0.00354779  -1.25123 -2.2166 -0.00352859  -1.22614 -2.29046 -0.00355732  -1.27556 -2.26618 -0.00359178  -1.25045 -2.33999 -0.00362873  -1.27554 -2.26624 -0.00361443  -1.29986 -2.31582 -0.00367522  -1.32496 -2.24192 -0.00362945  -1.32499 -2.24183 -0.00361323  -1.22612 -2.29054 -0.00359821  -1.34929 -2.2914 -0.00369012  -1.29987 -2.31572 -0.00366306  -1.27472 -2.38948 -0.0036782  -1.32413 -2.36524 -0.00372374  -1.29896 -2.43894 -0.00374818  -1.32411 -2.3653 -0.0037446  -1.34836 -2.4148 -0.00379622  -1.37351 -2.34103 -0.00377476  -1.37353 -2.34094 -0.00374341  -1.2747 -2.38957 -0.00371754  -1.39777 -2.39045 -0.00381339  -1.34837 -2.41471 -0.00378168  -1.32316 -2.48836 -0.00379956  -1.37257 -2.46415 -0.00383639  -1.34735 -2.53773 -0.00386  -1.37256 -2.46422 -0.00385725  -1.39677 -2.51363 -0.00390399  -1.42196 -2.44 -0.00388801  -1.42198 -2.4399 -0.00386441  -1.32313 -2.48845 -0.00383413  -1.4462 -2.48933 -0.0039264  -1.39678 -2.51355 -0.00388968  -0.00184634 -0.00348909 0.000985742  -0.00226903 -0.00516747 0.00127637  -0.00607374 -0.0117231 0.00198889  -0.00225676 -0.00479516 0.00288594  -0.00835569 -0.0149869 0.00541019  0 0 0  0 0 0  -0.00185064 -0.00317007 0.00227261  0 0 0  -0.00805986 -0.0153158 0.00261819  -0.0121495 -0.0245596 0.00265396  -0.0177721 -0.0291017 0.00349224  -0.0202362 -0.0403199 0.00323248  -0.0179443 -0.0282018 0.00759494  -0.0292181 -0.0432986 0.00899303  -0.0121288 -0.0238751 0.00596619  -0.0289803 -0.0444018 0.00416493  -0.0292719 -0.0577188 0.00357425  -0.041135 -0.0612067 0.00460315  -0.0392551 -0.0773158 0.00374424  -0.0411671 -0.0598607 0.010083  -0.0540583 -0.0783052 0.010518  -0.0292084 -0.0566683 0.00790358  -0.0540197 -0.0797083 0.00482929  -0.0498928 -0.0985235 0.00377584  -0.0671109 -0.0998485 0.00489795  -0.0609994 -0.121469 0.00371146  -0.0669487 -0.0983777 0.0107491  -0.0805051 -0.120267 0.0105909  -0.0496675 -0.0972585 0.00843298  -0.0807211 -0.121738 0.00480938  -0.0727259 -0.146174 0.00354099  -0.0946258 -0.145343 0.00462985  -0.0848861 -0.172424 0.00334489  -0.0942467 -0.1439 0.0102798  -0.108537 -0.169182 0.00981247  -0.0723162 -0.144866 0.00804031  -0.108988 -0.17057 0.00437939  -0.0976576 -0.200303 0.00307226  -0.123759 -0.197404 0.004071  -0.110933 -0.22959 0.00282311  -0.123202 -0.196084 0.00922978  -0.138315 -0.224434 0.00864244  -0.0970897 -0.199077 0.00716698  -0.138943 -0.225664 0.00376141  -0.12478 -0.260289 0.00252116  -0.154562 -0.255363 0.00340986  -0.139165 -0.292253 0.00225401  -0.153877 -0.254208 0.00796688  -0.169835 -0.285269 0.00735915  -0.124096 -0.259194 0.00611925  -0.170565 -0.286321 0.00308776  -0.154076 -0.32545 0.00195885  -0.187003 -0.318566 0.0027411  -0.169527 -0.35978 0.00170004  -0.186254 -0.317584 0.00669599  -0.203053 -0.351051 0.00612271  -0.153328 -0.32451 0.00506377  -0.203821 -0.351927 0.00243533  -0.185476 -0.395204 0.00143349  -0.221068 -0.386447 0.00211775  -0.201954 -0.431634 0.0011915  -0.220304 -0.385627 0.00552142  -0.237931 -0.421243 0.00500512  -0.184714 -0.394412 0.00408185  -0.238692 -0.421963 0.00183904  -0.218911 -0.469044 0.000949621  -0.256742 -0.458523 0.00155759  -0.236368 -0.507352 0.000730753  -0.255999 -0.457846 0.00447309  -0.274441 -0.495386 0.00401449  -0.218162 -0.468388 0.00320423  -0.27517 -0.495978 0.0013032  -0.254285 -0.546536 0.00052321  -0.294018 -0.534368 0.00105476  -0.272677 -0.586518 0.000326991  -0.293316 -0.533807 0.00355303  -0.312557 -0.573071 0.00315034  -0.253576 -0.545993 0.00243509  -0.313236 -0.573558 0.000826478  -0.291511 -0.627278 0.000140548  -0.332858 -0.61358 0.000607848  -0.310786 -0.668746 -4.04119e-05  -0.332204 -0.613116 0.00274944  -0.352214 -0.653919 0.00238836  -0.290853 -0.626829 0.00176215  -0.352835 -0.654317 0.000400543  -0.330475 -0.710905 -0.00020504  -0.373195 -0.695796 0.000204921  -0.35057 -0.753688 -0.000368237  -0.372597 -0.695413 0.00203943  -0.393331 -0.737583 0.00171721  -0.32987 -0.710536 0.00116801  -0.393891 -0.737912 1.7643e-05  -0.37105 -0.797083 -0.000514984  -0.414944 -0.780684 -0.000158906  -0.391905 -0.841025 -0.000671387  -0.414409 -0.78037 0.00140476  -0.435798 -0.823754 0.00111711  -0.370509 -0.796783 0.000639915  -0.436305 -0.824018 -0.000334978  -0.413103 -0.885502 -0.000805616  -0.457992 -0.867933 -0.000494957  -0.434635 -0.93046 -0.000945687  -0.457509 -0.867678 0.000836611  -0.479508 -0.912131 0.000573993  -0.412616 -0.885264 0.000163078  -0.479954 -0.912344 -0.000654578  -0.456481 -0.97589 -0.00107145  -0.502212 -0.957264 -0.000800967  -0.478618 -1.02173 -0.0012058  -0.501787 -0.957055 0.000322104  -0.524326 -1.00245 8.24928e-05  -0.456046 -0.975696 -0.000264525  -0.524719 -1.00262 -0.00094974  -0.501035 -1.06799 -0.00131738  -0.547483 -1.04842 -0.00108492  -0.523709 -1.1146 -0.00143862  -0.547108 -1.04825 -0.000148773  -0.570116 -1.09447 -0.000365376  -0.500653 -1.06783 -0.000658631  -0.570463 -1.0946 -0.00122571  -0.546614 -1.16156 -0.00154769  -0.593659 -1.14117 -0.00134933  -0.569742 -1.20884 -0.00166154  -0.593334 -1.14104 -0.000576735  -0.616748 -1.18796 -0.00077641  -0.54628 -1.16145 -0.00101411  -0.617049 -1.18806 -0.00148189  -0.593072 -1.25642 -0.00176549  -0.64062 -1.23529 -0.00160134  -0.616584 -1.30425 -0.00187588  -0.640334 -1.23519 -0.00097096  -0.664088 -1.28272 -0.00115716  -0.592777 -1.25633 -0.00134361  -0.664348 -1.28279 -0.00172842  -0.64026 -1.35234 -0.00197232  -0.688223 -1.33058 -0.00183725  -0.664086 -1.40065 -0.00207663  -0.687978 -1.33051 -0.00133717  -0.712008 -1.37856 -0.00150239  -0.640004 -1.35228 -0.0016495  -0.712231 -1.3786 -0.0019573  -0.688045 -1.44916 -0.00216079  -0.736347 -1.42687 -0.00205505  -0.712127 -1.49786 -0.0022614  -0.73614 -1.42682 -0.00166678  -0.760385 -1.47531 -0.00181949  -0.687831 -1.44913 -0.00192714  -0.760574 -1.47533 -0.00216889  -0.736301 -1.54673 -0.0023452  -0.784878 -1.52398 -0.0022639  -0.760568 -1.59574 -0.00244141  -0.7847 -1.52395 -0.00197136  -0.809105 -1.57279 -0.00211358  -0.736122 -1.54672 -0.00218093  -0.809255 -1.57279 -0.00236928  -0.784907 -1.64489 -0.00251806  -0.833699 -1.62177 -0.00245774  -0.809311 -1.69415 -0.00260854  -0.833556 -1.62176 -0.00225163  -0.858068 -1.67088 -0.00237882  -0.784754 -1.6449 -0.00241673  -0.858196 -1.67086 -0.00255883  -0.83376 -1.74351 -0.00268173  -0.88272 -1.72008 -0.00264418  -0.858249 -1.79295 -0.00277221  -0.882598 -1.72009 -0.00250888  -0.907175 -1.76943 -0.00262654  -0.833631 -1.74353 -0.00263143  -0.907279 -1.76939 -0.00274122  -0.882765 -1.84246 -0.00284588  -0.931848 -1.8188 -0.00282192  -0.907286 -1.89203 -0.00292599  -0.93175 -1.81882 -0.00274241  -0.95635 -1.86832 -0.00284743  -0.882654 -1.8425 -0.00283146  -0.956429 -1.86827 -0.0029124  -0.931819 -1.94164 -0.00299001  -0.980998 -1.9178 -0.00298738  -0.956355 -1.99128 -0.00306952  -0.980921 -1.91783 -0.00295162  -1.00551 -1.96743 -0.00304163  -0.931738 -1.9417 -0.00301313  -1.00557 -1.96737 -0.00306618  -0.980875 -2.04095 -0.0031302  -1.03012 -2.01697 -0.00313938  -1.00538 -2.09062 -0.00320184  -1.03006 -2.01702 -0.00313759  -1.05462 -2.06666 -0.00322092  -0.98081 -2.04101 -0.00317156  -1.05466 -2.0666 -0.00321805  -1.02986 -2.14029 -0.0032649  -1.07914 -2.11623 -0.00327921  -1.05432 -2.18995 -0.00333571  -1.0791 -2.11628 -0.00330424  -1.10359 -2.16593 -0.00337327  -1.02982 -2.14036 -0.00332212  -1.10362 -2.16586 -0.00335276  -1.07873 -2.23959 -0.00338995  -1.12805 -2.21547 -0.00341344  -1.10312 -2.2892 -0.00345659  -1.12802 -2.21553 -0.00345159  -1.15242 -2.26515 -0.00350976  -1.07869 -2.23966 -0.00344586  -1.15245 -2.26507 -0.00348687  -1.12746 -2.33877 -0.00351238  -1.17678 -2.31464 -0.00354099  -1.15176 -2.38831 -0.00357008  -1.17676 -2.3147 -0.0035764  -1.20109 -2.36426 -0.00362897  -1.12743 -2.33886 -0.003564  -1.2011 -2.36417 -0.00360215  -1.17601 -2.4378 -0.00361574  -1.22535 -2.41367 -0.00365222  -1.20023 -2.48725 -0.00368166  -1.22533 -2.41373 -0.00369012  -1.24958 -2.4632 -0.00374115  -1.17599 -2.43789 -0.00366497  -1.24959 -2.46311 -0.00371885  -1.2244 -2.53663 -0.00373256  -1.27377 -2.51251 -0.00377047  -1.24856 -2.58595 -0.00378609  -1.27376 -2.51258 -0.00379312  -1.29795 -2.56194 -0.00384295  -1.22438 -2.53672 -0.00376832  -1.29796 -2.56185 -0.00382972  -0.000523642 -0.00247803 0.000448108  -0.000905797 -0.00270194 0.000736117  -0.00169759 -0.00971916 0.000897646  -0.000902202 -0.00248322 0.00167024  -0.00326434 -0.00979179 0.00306487  0 0 0  0 0 0  -0.000529934 -0.00229728 0.00105286  0 0 0  -0.00306439 -0.010103 0.00143683  -0.00346549 -0.0221413 0.00116384  -0.00710985 -0.0228215 0.00191379  -0.00630964 -0.0376499 0.00145388  -0.00713395 -0.0222098 0.00438261  -0.0123243 -0.0374017 0.00516045  -0.00344507 -0.0216678 0.00276995  -0.0120877 -0.0381607 0.00237799  -0.00989038 -0.0561604 0.00158358  -0.0187394 -0.0563236 0.00258541  -0.014477 -0.0770161 0.00166595  -0.0187166 -0.0553258 0.00586402  -0.0259811 -0.0754223 0.00611448  -0.00978604 -0.0553727 0.00375533  -0.0259638 -0.0765044 0.00271869  -0.0198758 -0.0998203 0.00166869  -0.0341193 -0.0985842 0.00272965  -0.0261133 -0.124529 0.00160933  -0.0339305 -0.0973859 0.00624812  -0.0426201 -0.121253 0.00613606  -0.0196281 -0.0988016 0.00402415  -0.0428645 -0.122466 0.0026598  -0.0331415 -0.150897 0.00149429  -0.0522716 -0.148034 0.00251603  -0.0409751 -0.178944 0.00135958  -0.0518849 -0.146793 0.00590718  -0.0618697 -0.174044 0.00560427  -0.032724 -0.149786 0.00377178  -0.0623378 -0.175246 0.00234616  -0.0495853 -0.208481 0.00117934  -0.0730362 -0.203982 0.00211644  -0.0590181 -0.239511 0.00101042  -0.0724812 -0.202801 0.00518906  -0.0838032 -0.233085 0.00480425  -0.049027 -0.207384 0.00322604  -0.084426 -0.23419 0.00190437  -0.069215 -0.271872 0.000808954  -0.0964612 -0.265753 0.00165451  -0.0802373 -0.305562 0.00062561  -0.095795 -0.264686 0.00433421  -0.10847 -0.297646 0.0039295  -0.0685586 -0.270861 0.00256598  -0.109182 -0.298621 0.00142789  -0.0919815 -0.340419 0.000430107  -0.122533 -0.332681 0.00118196  -0.104528 -0.37645 0.000254035  -0.121814 -0.331751 0.00347102  -0.1358 -0.367055 0.00308871  -0.0912763 -0.339527 0.00189412  -0.136547 -0.36789 0.000965118  -0.117753 -0.413504 7.48634e-05  -0.151162 -0.404158 0.000740767  -0.13174 -0.451589 -9.04799e-05  -0.150426 -0.403365 0.00267208  -0.165665 -0.440738 0.00232375  -0.117038 -0.412734 0.00127208  -0.166405 -0.441442 0.000538468  -0.146363 -0.490577 -0.000246763  -0.18222 -0.479667 0.000343323  -0.16169 -0.530462 -0.000398278  -0.181502 -0.478992 0.00196385  -0.197919 -0.518191 0.00164711  -0.145665 -0.489919 0.000718594  -0.198624 -0.518784 0.000156164  -0.177613 -0.571151 -0.000535369  -0.215567 -0.558739 -1.56164e-05  -0.194185 -0.612621 -0.000671029  -0.21489 -0.55817 0.00133359  -0.232406 -0.598989 0.00106049  -0.17695 -0.570597 0.000233054  -0.233066 -0.599481 -0.000183105  -0.211312 -0.654796 -0.000796914  -0.251063 -0.640962 -0.000332713  -0.229029 -0.697651 -0.000920415  -0.250433 -0.640487 0.000791192  -0.268971 -0.682725 0.000544548  -0.210694 -0.654331 -0.000186443  -0.269578 -0.683135 -0.000488997  -0.247256 -0.741128 -0.00102925  -0.288553 -0.725964 -0.000624657  -0.266017 -0.785191 -0.00114465  -0.287977 -0.725565 0.000308752  -0.307457 -0.769055 9.26256e-05  -0.246693 -0.740736 -0.00055635  -0.307998 -0.769396 -0.000759721  -0.285248 -0.829794 -0.00124228  -0.327871 -0.813406 -0.000886202  -0.30496 -0.874906 -0.00134826  -0.327351 -0.813072 -0.000120401  -0.347678 -0.85766 -0.00031352  -0.284736 -0.829471 -0.000880241  -0.348171 -0.857941 -0.00101697  -0.325092 -0.920488 -0.00143492  -0.36885 -0.902976 -0.001122  -0.345654 -0.966508 -0.00153637  -0.368385 -0.902704 -0.00049746  -0.389474 -0.948246 -0.000673532  -0.324632 -0.920224 -0.00116885  -0.389911 -0.94847 -0.00124431  -0.366585 -1.01293 -0.00161803  -0.411312 -0.994404 -0.00134802  -0.387893 -1.05973 -0.00171328  -0.410893 -0.994177 -0.000843883  -0.432666 -1.04055 -0.00100243  -0.366169 -1.01271 -0.00142944  -0.433051 -1.04073 -0.0014627  -0.409535 -1.10687 -0.00179052  -0.455087 -1.08743 -0.00155663  -0.431501 -1.15434 -0.00187683  -0.45472 -1.08725 -0.00115991  -0.477083 -1.13433 -0.00130141  -0.409168 -1.1067 -0.00166619  -0.477422 -1.13447 -0.00166333  -0.453754 -1.20209 -0.00194561  -0.500012 -1.18184 -0.0017494  -0.476288 -1.25011 -0.0020349  -0.49969 -1.18169 -0.0014447  -0.52256 -1.22938 -0.00157368  -0.453432 -1.20196 -0.00188017  -0.522859 -1.22949 -0.00185072  -0.499065 -1.29838 -0.00210369  -0.545918 -1.27741 -0.00193679  -0.522078 -1.34686 -0.00218415  -0.545634 -1.2773 -0.00170743  -0.568938 -1.32549 -0.00183129  -0.498783 -1.29827 -0.00208163  -0.569194 -1.32557 -0.00203216  -0.545293 -1.39555 -0.00225043  -0.592642 -1.37396 -0.00211191  -0.568708 -1.44442 -0.00232446  -0.5924 -1.37388 -0.0019486  -0.616064 -1.4225 -0.00206375  -0.545051 -1.39548 -0.00226617  -0.61628 -1.42255 -0.00220561  -0.592279 -1.49345 -0.00238335  -0.640047 -1.47133 -0.00227475  -0.616015 -1.54262 -0.00246179  -0.63984 -1.47127 -0.00217307  -0.663782 -1.52023 -0.00227714  -0.592072 -1.4934 -0.00243473  -0.663969 -1.52026 -0.00236535  -0.639874 -1.59192 -0.00251901  -0.68799 -1.56935 -0.00243902  -0.663866 -1.64132 -0.00259221  -0.687821 -1.56931 -0.00238621  -0.71198 -1.61854 -0.0024755  -0.639702 -1.59189 -0.00259554  -0.712131 -1.61855 -0.00251758  -0.687952 -1.69083 -0.00264728  -0.736347 -1.66788 -0.00259137  -0.712132 -1.74041 -0.00271964  -0.736204 -1.66786 -0.00257289  -0.760531 -1.71731 -0.00265992  -0.687804 -1.69082 -0.00273991  -0.760651 -1.7173 -0.00266671  -0.736379 -1.79006 -0.00277531  -0.785001 -1.76681 -0.00273371  -0.760694 -1.83977 -0.00284338  -0.784878 -1.76681 -0.00275028  -0.809312 -1.8164 -0.00283086  -0.736257 -1.79008 -0.00287783  -0.809414 -1.81638 -0.00281155  -0.785041 -1.88951 -0.00289881  -0.833842 -1.86601 -0.00287712  -0.809433 -1.93928 -0.0029639  -0.833747 -1.86602 -0.00291681  -0.858237 -1.91571 -0.00299072  -0.784938 -1.88954 -0.00300741  -0.858315 -1.91567 -0.00294936  -0.833844 -1.98906 -0.00301576  -0.882784 -1.96538 -0.00300801  -0.858278 -2.03886 -0.00307775  -0.88271 -1.9654 -0.00306225  -0.90722 -2.01514 -0.00312889  -0.833765 -1.98911 -0.00312412  -0.907278 -2.01509 -0.0030756  -0.8827 -2.08865 -0.00312817  -0.931748 -2.06482 -0.00313175  -0.907129 -2.13843 -0.00318456  -0.931698 -2.06485 -0.00320029  -0.956191 -2.1146 -0.00325406  -0.88264 -2.0887 -0.00323534  -0.956236 -2.11454 -0.00319886  -0.931549 -2.18819 -0.00323546  -0.980675 -2.16425 -0.00325572  -0.955946 -2.23792 -0.0032984  -0.980634 -2.1643 -0.00332189  -1.00509 -2.21401 -0.00337803  -0.931499 -2.18825 -0.00333178  -1.00511 -2.21395 -0.00331926  -0.980314 -2.28762 -0.00334501  -1.0295 -2.26361 -0.00337327  -1.00466 -2.33727 -0.00340378  -1.02947 -2.26367 -0.00343609  -1.05386 -2.31332 -0.00348318  -0.980277 -2.28768 -0.00342727  -1.05388 -2.31325 -0.0034343  -1.02896 -2.38688 -0.00344574  -1.0782 -2.36284 -0.0034833  -1.05324 -2.43643 -0.00350642  -1.07818 -2.3629 -0.00353587  -1.10248 -2.41246 -0.00358033  -1.02894 -2.38695 -0.00351608  -1.10249 -2.41238 -0.0035466  -1.07746 -2.48594 -0.00355518  -1.12672 -2.46188 -0.00358939  -1.10166 -2.53538 -0.00361407  -1.12671 -2.46194 -0.0036298  -1.15093 -2.5114 -0.00367403  -1.07744 -2.48602 -0.00360632  -1.15094 -2.51132 -0.00364947  -1.12577 -2.58475 -0.00365663  -1.17507 -2.5607 -0.00369906  -1.14988 -2.63404 -0.00371861  -1.17506 -2.56076 -0.00372446  -1.19921 -2.61009 -0.00376725  -1.12576 -2.58483 -0.0036906  -1.19922 -2.61001 -0.00375807  0.000537388 -0.00351483 -9.34601e-05  0.000144526 -0.00282487 0.000214577  0.00176315 -0.0116191 -0.000152349  0.000156231 -0.00269076 0.000507832  0.000377759 -0.0100046 0.00082922  0 0 0  0 0 0  0.000537962 -0.00340354 -0.00012362  0 0 0  0.000531092 -0.0102536 0.000379443  0.00353652 -0.0249147 -0.000280857  0.000390843 -0.0231258 0.000467539  0.00518093 -0.0409978 -0.000270128  0.00043273 -0.0226758 0.00125372  -2.77609e-05 -0.0381523 0.00149512  0.00360899 -0.0245325 -0.000288367  5.87404e-05 -0.0387411 0.000605702  0.00639573 -0.0605958 -0.000326037  -0.00137118 -0.0578664 0.000630736  0.00691056 -0.0822902 -0.000328541  -0.00122395 -0.0570922 0.00176835  -0.00321174 -0.0782036 0.00186396  0.00660774 -0.059922 -0.000226974  -0.00332204 -0.0790707 0.000678658  0.00648701 -0.1063 -0.000361919  -0.00634506 -0.102521 0.000644803  0.0051226 -0.132175 -0.000407934  -0.0060761 -0.101527 0.00191152  -0.00983602 -0.126797 0.00186062  0.00681955 -0.10541 -0.00019443  -0.0101557 -0.127826 0.000597119  0.00272864 -0.159804 -0.000471115  -0.0148972 -0.154854 0.000499368  -0.000715494 -0.18916 -0.000548363  -0.0144787 -0.153771 0.00172329  -0.0200644 -0.182522 0.00156462  0.00317806 -0.158807 -0.000314236  -0.0205488 -0.18359 0.000395894  -0.00517178 -0.220002 -0.000641942  -0.0270912 -0.213812 0.000254512  -0.0107185 -0.252415 -0.000741124  -0.0265467 -0.212734 0.00132823  -0.033978 -0.244545 0.00111687  -0.00462514 -0.218994 -0.000561476  -0.0345784 -0.245563 0.000124812  -0.0172326 -0.28614 -0.000844598  -0.0429395 -0.27864 -3.19481e-05  -0.0248284 -0.321253 -0.000952601  -0.0423105 -0.277633 0.000845432  -0.0515714 -0.312142 0.000618219  -0.0166189 -0.285183 -0.000871062  -0.0522371 -0.313068 -0.000172496  -0.0333423 -0.357517 -0.00105703  -0.0623786 -0.348658 -0.000327229  -0.0428918 -0.394995 -0.00115716  -0.0617095 -0.347759 0.000353098  -0.0727272 -0.384618 0.000136733  -0.032695 -0.356652 -0.00118697  -0.0734156 -0.385439 -0.000464916  -0.0532988 -0.433479 -0.00124896  -0.0852522 -0.423234 -0.000600576  -0.064676 -0.47301 -0.00134528  -0.0845731 -0.422443 -9.97782e-05  -0.0972434 -0.461352 -0.0002985  -0.0526493 -0.432714 -0.00147784  -0.0979214 -0.462058 -0.000726938  -0.0768526 -0.513414 -0.00142694  -0.111341 -0.501777 -0.000846148  -0.0899202 -0.554719 -0.00151074  -0.110679 -0.501094 -0.000501037  -0.124886 -0.541784 -0.000672579  -0.0762181 -0.512746 -0.00172913  -0.125538 -0.542391 -0.000963688  -0.103731 -0.596782 -0.00158703  -0.140419 -0.583786 -0.00106871  -0.118345 -0.639612 -0.00166428  -0.139795 -0.583198 -0.000849605  -0.15541 -0.625433 -0.000997305  -0.103128 -0.596208 -0.00194418  -0.156016 -0.625949 -0.00117576  -0.133644 -0.683101 -0.00172687  -0.172245 -0.668798 -0.00126648  -0.14967 -0.727244 -0.00179517  -0.171661 -0.668294 -0.00114787  -0.188567 -0.71187 -0.00127935  -0.133084 -0.682612 -0.0021255  -0.189127 -0.712306 -0.00136709  -0.166324 -0.77195 -0.0018512  -0.206579 -0.756409 -0.00144434  -0.183634 -0.817215 -0.00191438  -0.206045 -0.755985 -0.00140953  -0.224115 -0.800719 -0.00152123  -0.165811 -0.771536 -0.0022738  -0.224621 -0.801081 -0.00153482  -0.201502 -0.862962 -0.0019629  -0.243181 -0.846268 -0.00160635  -0.219957 -0.90918 -0.00201988  -0.242695 -0.845911 -0.00162983  -0.261819 -0.891638 -0.00173342  -0.201036 -0.862609 -0.00239837  -0.262271 -0.891942 -0.00168967  -0.238919 -0.955811 -0.00206649  -0.281831 -0.93806 -0.00175452  -0.258401 -1.00284 -0.00212359  -0.281396 -0.937758 -0.00182962  -0.301456 -0.984338 -0.00191724  -0.238495 -0.955517 -0.00250077  -0.30186 -0.984589 -0.00183308  -0.278329 -1.05022 -0.00216472  -0.322299 -1.0315 -0.00189686  -0.298714 -1.09792 -0.00221992  -0.321912 -1.03124 -0.00200772  -0.342802 -1.07855 -0.00208914  -0.277948 -1.04997 -0.00259209  -0.343161 -1.07876 -0.00197339  -0.319489 -1.14592 -0.00226271  -0.364378 -1.12633 -0.00203311  -0.340665 -1.19419 -0.00231087  -0.36403 -1.12612 -0.0021683  -0.38564 -1.17404 -0.00223994  -0.319151 -1.14572 -0.00267959  -0.385955 -1.1742 -0.00209832  -0.362179 -1.2427 -0.00234795  -0.407845 -1.22235 -0.00215364  -0.384038 -1.29144 -0.0024004  -0.407541 -1.22217 -0.00231397  -0.429778 -1.2706 -0.00238264  -0.361883 -1.24254 -0.00275564  -0.430053 -1.27073 -0.00222433  -0.406186 -1.34037 -0.00243568  -0.452519 -1.31933 -0.00227499  -0.428631 -1.38948 -0.00248802  -0.452257 -1.31919 -0.00244939  -0.475021 -1.36803 -0.00250983  -0.405929 -1.34025 -0.00282323  -0.475259 -1.36813 -0.00234056  -0.451316 -1.43875 -0.00252926  -0.49821 -1.41711 -0.00238991  -0.474243 -1.48816 -0.00257254  -0.497985 -1.41701 -0.00257468  -0.521194 -1.46618 -0.00262916  -0.451091 -1.43865 -0.00289083  -0.521397 -1.46625 -0.00245559  -0.497379 -1.53768 -0.00261462  -0.54475 -1.51554 -0.00250185  -0.520709 -1.58731 -0.00266075  -0.544558 -1.51545 -0.00268877  -0.568127 -1.56489 -0.00274444  -0.497186 -1.53761 -0.00295234  -0.568296 -1.56494 -0.00256634  -0.544204 -1.63703 -0.00269592  -0.591975 -1.61445 -0.00261045  -0.567857 -1.68683 -0.00274158  -0.59181 -1.61439 -0.00279987  -0.61566 -1.66403 -0.00284982  -0.544041 -1.63698 -0.00301147  -0.615806 -1.66405 -0.00267553  -0.591638 -1.73668 -0.00277913  -0.639738 -1.71374 -0.00271881  -0.615544 -1.78657 -0.0028286  -0.639603 -1.7137 -0.00290132  -0.663678 -1.76348 -0.00294542  -0.591498 -1.73665 -0.00306642  -0.66379 -1.76348 -0.00277853  -0.63954 -1.8365 -0.00286674  -0.68791 -1.81327 -0.00282216  -0.663635 -1.88646 -0.00291371  -0.687802 -1.81326 -0.0029999  -0.712039 -1.86311 -0.00304663  -0.639429 -1.8365 -0.00312686  -0.712129 -1.8631 -0.00288463  -0.687781 -1.93643 -0.00294876  -0.736374 -1.91296 -0.00292671  -0.712001 -1.9864 -0.00300002  -0.736289 -1.91296 -0.00309086  -0.760617 -1.96285 -0.0031352  -0.68769 -1.93644 -0.00318146  -0.760692 -1.96282 -0.00298786  -0.736253 -2.03636 -0.00303245  -0.785016 -2.0127 -0.0030334  -0.760543 -2.08631 -0.00308514  -0.784948 -2.01271 -0.00318086  -0.809341 -2.06261 -0.00321901  -0.736179 -2.03639 -0.00323796  -0.809392 -2.06257 -0.00308847  -0.784847 -2.13622 -0.00312877  -0.83375 -2.11243 -0.00313258  -0.809172 -2.18612 -0.00317645  -0.833702 -2.11245 -0.00327003  -0.858096 -2.16231 -0.00329781  -0.784792 -2.13627 -0.00330329  -0.858139 -2.16226 -0.00318885  -0.833485 -2.23597 -0.00321388  -0.882502 -2.21207 -0.00323069  -0.857805 -2.28577 -0.00326574  -0.882459 -2.2121 -0.00334322  -0.906847 -2.2619 -0.00337839  -0.833438 -2.23601 -0.00335765  -0.906871 -2.26184 -0.00328457  -0.882105 -2.33553 -0.0033046  -0.931198 -2.31156 -0.00333047  -0.906387 -2.38523 -0.00335598  -0.931169 -2.31161 -0.00342178  -0.955504 -2.36131 -0.00345373  -0.882072 -2.33559 -0.00341809  -0.955524 -2.36124 -0.00338542  -0.930636 -2.43487 -0.00340104  -0.979789 -2.41087 -0.00342727  -0.954866 -2.48445 -0.00345266  -0.979773 -2.41092 -0.00349712  -1.00404 -2.46051 -0.00352979  -0.930613 -2.43494 -0.00348246  -1.00406 -2.46044 -0.00348508  -0.979047 -2.53397 -0.00349319  -1.02825 -2.50995 -0.00352764  -1.0032 -2.58342 -0.00354743  -1.02824 -2.51001 -0.00357258  -1.05242 -2.55947 -0.00360942  -0.979033 -2.53404 -0.00354815  -1.05243 -2.5594 -0.00358629  -1.02729 -2.63278 -0.00359106  -1.07653 -2.60876 -0.00363088  -1.05134 -2.68207 -0.00364316  -1.07651 -2.60882 -0.00365067  -1.1006 -2.65813 -0.00367236  -1.02727 -2.63286 -0.00361514  -1.10061 -2.65805 -0.00368178  0.0016164 -0.00635386 -0.000621796  0.00118361 -0.00473726 -0.000288367  0.00530137 -0.0166099 -0.00114977  0.0012065 -0.0046615 -0.000623107  0.00379542 -0.0134963 -0.00130856  0 0 0  0 0 0  0.00163368 -0.00626981 -0.00124788  0 0 0  0.0039137 -0.01371 -0.000634551  0.0105873 -0.0319288 -0.00165284  0.0072353 -0.0279784 -0.000934005  0.0166238 -0.0492617 -0.00190103  0.00735475 -0.0275956 -0.00173223  0.011173 -0.0441118 -0.00199699  0.0107239 -0.031536 -0.00315237  0.0110778 -0.0446187 -0.00108159  0.0223816 -0.0700591 -0.00212944  0.0144521 -0.0647967 -0.0012269  0.0277416 -0.0926031 -0.00221705  0.0147271 -0.0641225 -0.00213718  0.0176367 -0.0861561 -0.00218582  0.0227099 -0.0694003 -0.00397372  0.017352 -0.0869134 -0.0012753  0.032038 -0.117502 -0.00228763  0.0192764 -0.111373 -0.00134194  0.0353073 -0.144241 -0.00232792  0.0196573 -0.110493 -0.002226  0.02063 -0.136787 -0.0022347  0.0324723 -0.116664 -0.00419021  0.0202139 -0.137707 -0.00137806  0.0373505 -0.172774 -0.00235486  0.0200561 -0.16581 -0.001436  0.0381272 -0.203107 -0.00238717  0.0205213 -0.164822 -0.00228739  0.0192428 -0.1947 -0.00232148  0.0378492 -0.171841 -0.00422025  0.0187343 -0.195681 -0.00148356  0.0376899 -0.234969 -0.00240874  0.0163036 -0.227058 -0.00154614  0.0359334 -0.268477 -0.00244105  0.0168396 -0.226054 -0.00239754  0.0132548 -0.259076 -0.00245225  0.0382325 -0.234017 -0.00421655  0.012678 -0.260038 -0.0016017  0.03301 -0.303337 -0.00245917  0.00796252 -0.29436 -0.00166523  0.0287885 -0.339644 -0.00249231  0.00854713 -0.293395 -0.00254202  0.00269467 -0.329189 -0.00260901  0.0335823 -0.302419 -0.00421369  0.00208384 -0.330086 -0.00173104  0.0234588 -0.377129 -0.00251293  -0.00484365 -0.366985 -0.00179625  0.0168999 -0.415864 -0.00254285  -0.00423515 -0.366105 -0.00269246  -0.0122505 -0.404297 -0.00275552  0.0240477 -0.376285 -0.00420737  -0.012872 -0.405105 -0.00185871  0.00930226 -0.455617 -0.00256062  -0.021886 -0.444243 -0.00191545  0.000558972 -0.496434 -0.00258696  -0.0212767 -0.443456 -0.00283003  -0.0313164 -0.483714 -0.00287998  0.00988889 -0.454857 -0.00419402  -0.0319269 -0.484429 -0.0019722  -0.00915039 -0.538121 -0.00260174  -0.0428836 -0.525496 -0.0020231  -0.0199052 -0.580702 -0.00262082  -0.0422882 -0.524798 -0.00293994  -0.054199 -0.56683 -0.0029794  -0.00857687 -0.537449 -0.00416505  -0.0547807 -0.567452 -0.00207245  -0.0315582 -0.624026 -0.00262868  -0.0675216 -0.610161 -0.00211465  -0.0441593 -0.668101 -0.00264728  -0.0669572 -0.609556 -0.00302351  -0.0805811 -0.65309 -0.00305569  -0.0310147 -0.623443 -0.00411785  -0.0811267 -0.653625 -0.00216508  -0.0575746 -0.7128 -0.00265133  -0.0954912 -0.697732 -0.00219333  -0.0718515 -0.758132 -0.00266588  -0.0949665 -0.697209 -0.00308013  -0.110144 -0.74202 -0.00309944  -0.0570682 -0.712295 -0.00405586  -0.110647 -0.742478 -0.00223684  -0.0868641 -0.803986 -0.00266731  -0.126483 -0.787771 -0.00226426  -0.102651 -0.850365 -0.00268018  -0.126 -0.78732 -0.0031209  -0.142572 -0.833213 -0.00313199  -0.0863997 -0.80355 -0.00398648  -0.143036 -0.833602 -0.00230515  -0.119095 -0.897179 -0.00268292  -0.160195 -0.879893 -0.00232649  -0.136232 -0.944432 -0.00269973  -0.159752 -0.879508 -0.00314462  -0.17758 -0.926305 -0.00315464  -0.118671 -0.896809 -0.00391233  -0.177999 -0.926638 -0.00236607  -0.153958 -0.992043 -0.00269699  -0.196343 -0.973769 -0.00238872  -0.172296 -1.04002 -0.00271153  -0.195947 -0.97344 -0.00316358  -0.21489 -1.021 -0.00316763  -0.153569 -0.991727 -0.00383377  -0.215261 -1.02128 -0.0024246  -0.191154 -1.08828 -0.00271451  -0.234658 -1.06911 -0.00244224  -0.210556 -1.13684 -0.00273073  -0.234302 -1.06883 -0.00317121  -0.254228 -1.11702 -0.00317562  -0.190811 -1.08801 -0.00376463  -0.254557 -1.11725 -0.002478  -0.23041 -1.18564 -0.00273657  -0.274871 -1.16565 -0.00250173  -0.250734 -1.23467 -0.00275147  -0.274558 -1.16542 -0.00317967  -0.295346 -1.21412 -0.0031811  -0.230101 -1.18542 -0.00369394  -0.295635 -1.21431 -0.00253832  -0.27146 -1.28389 -0.00275421  -0.31675 -1.26319 -0.00255799  -0.292588 -1.3333 -0.00276804  -0.316474 -1.26299 -0.00318503  -0.338006 -1.31211 -0.00318384  -0.271189 -1.28371 -0.00362861  -0.338259 -1.31226 -0.00259364  -0.314061 -1.38286 -0.00277591  -0.36007 -1.36151 -0.00260997  -0.335885 -1.43256 -0.00279689  -0.359826 -1.36135 -0.00318789  -0.381991 -1.4108 -0.00319052  -0.313826 -1.38271 -0.00356734  -0.382211 -1.41092 -0.00264645  -0.35799 -1.48236 -0.00280261  -0.404607 -1.46047 -0.00266838  -0.380399 -1.53227 -0.00282681  -0.404399 -1.46034 -0.00319731  -0.427099 -1.51004 -0.00319588  -0.357786 -1.48225 -0.00351381  -0.427283 -1.51013 -0.00270438  -0.403037 -1.58225 -0.00283194  -0.450167 -1.55989 -0.00272381  -0.42593 -1.63231 -0.00285506  -0.449992 -1.55979 -0.00320017  -0.473138 -1.60968 -0.00320351  -0.402864 -1.58217 -0.00346506  -0.473289 -1.60974 -0.00276244  -0.449019 -1.68242 -0.00287235  -0.496574 -1.65966 -0.00278461  -0.472301 -1.73257 -0.00289667  -0.496429 -1.65958 -0.00321305  -0.519927 -1.70959 -0.00321496  -0.448869 -1.68236 -0.00342607  -0.520058 -1.70963 -0.00282502  -0.495738 -1.78274 -0.00291002  -0.543663 -1.75965 -0.00284505  -0.519338 -1.83293 -0.00294006  -0.543539 -1.7596 -0.00322556  -0.567326 -1.80968 -0.00323486  -0.495616 -1.7827 -0.00339592  -0.567426 -1.8097 -0.00289023  -0.543049 -1.88313 -0.00295234  -0.591276 -1.85976 -0.0029155  -0.566889 -1.93332 -0.00298524  -0.591181 -1.85973 -0.00324535  -0.615175 -1.90984 -0.00325143  -0.542955 -1.88311 -0.00337672  -0.615252 -1.90984 -0.00295353  -0.590814 -1.98349 -0.00300479  -0.639282 -1.95992 -0.00298119  -0.614824 -2.03364 -0.00303566  -0.639206 -1.9599 -0.00326669  -0.663345 -2.00999 -0.0032742  -0.590733 -1.98349 -0.00335956  -0.66341 -2.00998 -0.00302315  -0.638895 -2.08375 -0.00305951  -0.687565 -2.06002 -0.0030514  -0.663025 -2.13384 -0.00309217  -0.687501 -2.06002 -0.00329387  -0.71174 -2.11007 -0.0033083  -0.638831 -2.08377 -0.0033592  -0.711786 -2.11003 -0.00309765  -0.687177 -2.18387 -0.00311744  -0.736009 -2.16002 -0.00312841  -0.711378 -2.23386 -0.00316131  -0.735961 -2.16003 -0.00332773  -0.760247 -2.21 -0.00334322  -0.687131 -2.1839 -0.00336325  -0.760282 -2.20996 -0.0031755  -0.735579 -2.28378 -0.00319099  -0.78453 -2.25985 -0.0032084  -0.759798 -2.33365 -0.00323045  -0.784495 -2.25988 -0.00336671  -0.808788 -2.30974 -0.00338686  -0.735544 -2.28383 -0.00338233  -0.808807 -2.30969 -0.00325465  -0.784004 -2.38345 -0.00326025  -0.833058 -2.35947 -0.00329101  -0.808223 -2.43319 -0.00330722  -0.833034 -2.35951 -0.00340807  -0.857305 -2.40925 -0.00342774  -0.783981 -2.38351 -0.00340676  -0.857315 -2.40919 -0.00334072  -0.832407 -2.48286 -0.00334311  -0.881526 -2.45885 -0.00337338  -0.856586 -2.53245 -0.0033921  -0.881505 -2.45889 -0.00345945  -0.905734 -2.50851 -0.0034796  -0.832387 -2.48293 -0.00344539  -0.905735 -2.50844 -0.00342715  -0.880716 -2.58198 -0.00342143  -0.929883 -2.55796 -0.00346255  -0.90483 -2.63143 -0.00347328  -0.929879 -2.55801 -0.00351191  -0.954034 -2.60748 -0.00353646  -0.880703 -2.58205 -0.00348508  -0.954029 -2.60741 -0.00351655  -0.928885 -2.68081 -0.00351143  -0.978092 -2.65678 -0.00355458  -0.952907 -2.73011 -0.00356555  -0.978092 -2.65683 -0.00357127  -1.00212 -2.70615 -0.0035919  -0.928881 -2.68088 -0.00353456  -1.00212 -2.70608 -0.00360107  0.00297509 -0.0116842 -0.00112271  0.00247037 -0.00862461 -0.000761628  0.00994998 -0.0253542 -0.00207019  0.00250345 -0.00859094 -0.00169826  0.00778082 -0.0202451 -0.00327826  0 0 0  0 0 0  0.00302394 -0.0115645 -0.00226402  0 0 0  0.00783369 -0.0204643 -0.00158131  0.0191608 -0.0435346 -0.00290692  0.0148605 -0.0371241 -0.00223362  0.0299204 -0.0625207 -0.00338697  0.0150575 -0.0367216 -0.00448358  0.0232365 -0.0548326 -0.00520766  0.0193586 -0.0430444 -0.00572848  0.0229411 -0.0553356 -0.00264239  0.0402251 -0.0842768 -0.00378013  0.0310493 -0.076567 -0.00295627  0.0501806 -0.107609 -0.0039643  0.0314377 -0.0759019 -0.0057565  0.039026 -0.0988593 -0.0059588  0.0406466 -0.0835708 -0.00739312  0.038568 -0.0995825 -0.00310731  0.0589494 -0.133005 -0.00408483  0.0452145 -0.124738 -0.00321209  0.0664924 -0.16037 -0.00413978  0.0456892 -0.123891 -0.00610709  0.0511237 -0.150965 -0.00610614  0.0594646 -0.132172 -0.00791633  0.050617 -0.151832 -0.00325024  0.0726983 -0.189512 -0.00414336  0.0548052 -0.180695 -0.00327587  0.0774127 -0.220591 -0.00414312  0.0553147 -0.179754 -0.00609958  0.0581238 -0.210492 -0.0060389  0.07324 -0.188613 -0.00792277  0.0575904 -0.211419 -0.00328243  0.0807654 -0.253279 -0.00410521  0.0590735 -0.243719 -0.00327802  0.0826021 -0.287701 -0.0040791  0.059611 -0.242754 -0.00598288  0.059711 -0.27677 -0.00590646  0.0813165 -0.252364 -0.00772679  0.0591608 -0.277694 -0.00327396  0.0830974 -0.323554 -0.00403118  0.0579515 -0.313067 -0.00326324  0.0821264 -0.360907 -0.00399661  0.0585058 -0.312139 -0.00583673  0.0559654 -0.349033 -0.00575674  0.083653 -0.32267 -0.00745714  0.0553962 -0.349905 -0.00325739  0.0798646 -0.399495 -0.0039469  0.0516039 -0.387959 -0.00324309  0.0762186 -0.439361 -0.00390434  0.0521629 -0.387095 -0.00568461  0.0470939 -0.426469 -0.00560212  0.080417 -0.398673 -0.00716627  0.04653 -0.427266 -0.00323629  0.0713565 -0.480276 -0.0038538  0.0402972 -0.467613 -0.00321829  0.065204 -0.522266 -0.00380886  0.04085 -0.466832 -0.00552166  0.033422 -0.508309 -0.00543761  0.0718983 -0.479528 -0.00686717  0.032871 -0.509022 -0.00320792  0.0579226 -0.565133 -0.00375855  0.0243735 -0.55131 -0.00318635  0.0494548 -0.608892 -0.0037154  0.0249109 -0.550613 -0.00535727  0.0152975 -0.593864 -0.00526929  0.0584437 -0.564461 -0.00656629  0.0147769 -0.594489 -0.0031749  0.039951 -0.653378 -0.00366592  0.004197 -0.638407 -0.0031538  0.0293592 -0.698603 -0.00362957  0.00470638 -0.637792 -0.00518477  -0.00689685 -0.682515 -0.00509691  0.0404439 -0.652785 -0.00626802  -0.00738835 -0.683065 -0.00314367  0.0178339 -0.744424 -0.00357687  -0.019866 -0.728337 -0.00311983  0.00531459 -0.790853 -0.00353885  -0.0193899 -0.727799 -0.00500989  -0.032799 -0.773753 -0.00491869  0.0182931 -0.743904 -0.00598252  -0.0332574 -0.774227 -0.0031085  -0.00803995 -0.837765 -0.0034852  -0.0474405 -0.820623 -0.00308383  -0.0222832 -0.885175 -0.00345087  -0.0469996 -0.820154 -0.0048337  -0.0620379 -0.867114 -0.00474465  -0.00761545 -0.837316 -0.00569808  -0.062456 -0.867525 -0.00307405  -0.037286 -0.932977 -0.00340438  -0.0781779 -0.914847 -0.00304615  -0.0530788 -0.981181 -0.00337338  -0.0777748 -0.914436 -0.00466013  -0.0942633 -0.962229 -0.00457573  -0.0368943 -0.932588 -0.00542867  -0.0946444 -0.962581 -0.00304008  -0.0695463 -1.0297 -0.00333321  -0.111739 -1.01066 -0.00302136  -0.0867181 -1.07854 -0.00330639  -0.111372 -1.01031 -0.00449705  -0.129157 -1.05877 -0.00441587  -0.0691888 -1.02937 -0.00517368  -0.129499 -1.05907 -0.00301647  -0.10448 -1.12763 -0.00326324  -0.147805 -1.10776 -0.00299048  -0.122866 -1.17697 -0.0032413  -0.147484 -1.10746 -0.00433922  -0.166403 -1.15647 -0.00426257  -0.104162 -1.12735 -0.00493515  -0.166706 -1.15672 -0.00299335  -0.141772 -1.2265 -0.00320375  -0.186081 -1.20589 -0.00297368  -0.161222 -1.27623 -0.00318551  -0.185795 -1.20564 -0.0041945  -0.205711 -1.25507 -0.00412297  -0.141492 -1.22627 -0.0047065  -0.205977 -1.25528 -0.00297558  -0.181122 -1.3261 -0.00315249  -0.226285 -1.30483 -0.00295842  -0.2015 -1.37613 -0.00313675  -0.226031 -1.30462 -0.00405765  -0.246816 -1.35439 -0.00399077  -0.180877 -1.32591 -0.00449872  -0.247045 -1.35456 -0.00295925  -0.222266 -1.42625 -0.00311089  -0.268159 -1.4044 -0.00294507  -0.243442 -1.47648 -0.00310075  -0.267937 -1.40423 -0.0039314  -0.289468 -1.45424 -0.00387335  -0.222048 -1.42609 -0.00430882  -0.28967 -1.45437 -0.00295591  -0.264948 -1.52677 -0.00308156  -0.311471 -1.50443 -0.00294876  -0.286804 -1.57713 -0.00307739  -0.311284 -1.50429 -0.00381875  -0.333441 -1.55447 -0.00376689  -0.264761 -1.52664 -0.00413597  -0.333612 -1.55458 -0.0029583  -0.308931 -1.62753 -0.003057  -0.355986 -1.60478 -0.00295007  -0.331356 -1.67797 -0.00305533  -0.355829 -1.60466 -0.00371933  -0.378515 -1.65495 -0.00366926  -0.308775 -1.62743 -0.00398278  -0.378651 -1.65503 -0.00296044  -0.354008 -1.72842 -0.00304103  -0.401516 -1.70532 -0.00295818  -0.376906 -1.77888 -0.00304711  -0.401385 -1.70523 -0.00362945  -0.424502 -1.75557 -0.00358701  -0.353873 -1.72835 -0.00384128  -0.424615 -1.75563 -0.00297666  -0.399977 -1.82933 -0.003034  -0.447865 -1.80594 -0.0029794  -0.423256 -1.87977 -0.00304902  -0.447758 -1.80588 -0.00355768  -0.471225 -1.85623 -0.00352037  -0.399871 -1.82929 -0.003721  -0.471316 -1.85627 -0.00300038  -0.446672 -1.93018 -0.00304329  -0.494872 -1.90657 -0.00300431  -0.470247 -1.98057 -0.00305367  -0.494786 -1.90653 -0.00349462  -0.518523 -1.95686 -0.0034641  -0.446584 -1.93016 -0.00361955  -0.51859 -1.95687 -0.00302649  -0.493926 -2.03091 -0.00305772  -0.542384 -2.00713 -0.00304067  -0.517722 -2.08121 -0.0030725  -0.542315 -2.0071 -0.00344694  -0.566243 -2.05736 -0.00342023  -0.493859 -2.0309 -0.00353909  -0.566299 -2.05736 -0.00305986  -0.541593 -2.13144 -0.00308323  -0.590255 -2.10754 -0.00307512  -0.565553 -2.18163 -0.00310671  -0.590205 -2.10753 -0.0034107  -0.614273 -2.1577 -0.0033952  -0.54154 -2.13146 -0.00347292  -0.614308 -2.15768 -0.00310194  -0.589554 -2.23175 -0.0031184  -0.638381 -2.20776 -0.00312519  -0.61362 -2.2818 -0.00314403  -0.638342 -2.20777 -0.00338948  -0.662493 -2.25782 -0.00337613  -0.58951 -2.23178 -0.00342679  -0.662519 -2.25778 -0.00315487  -0.637696 -2.33178 -0.00316167  -0.686652 -2.30774 -0.00317895  -0.66182 -2.38169 -0.00319934  -0.686626 -2.30776 -0.00338531  -0.710816 -2.35768 -0.00338173  -0.637666 -2.33182 -0.00340044  -0.710829 -2.35763 -0.00321615  -0.685928 -2.43152 -0.00322211  -0.734979 -2.40745 -0.00324309  -0.710063 -2.48127 -0.00325274  -0.734964 -2.40748 -0.00339043  -0.759164 -2.45726 -0.00340056  -0.685911 -2.43157 -0.00339532  -0.759163 -2.4572 -0.00328767  -0.734172 -2.53095 -0.00328195  -0.783306 -2.50688 -0.00331974  -0.758297 -2.58054 -0.00332761  -0.783303 -2.50691 -0.00341737  -0.807466 -2.55654 -0.00342655  -0.734166 -2.53101 -0.00340116  -0.807462 -2.55647 -0.00336194  -0.782386 -2.63006 -0.00335944  -0.831567 -2.60599 -0.0033927  -0.806464 -2.67951 -0.00340044  -0.831565 -2.60604 -0.00345075  -0.855676 -2.65551 -0.00346577  -0.782376 -2.63012 -0.0034225  -0.855668 -2.65545 -0.00344467  -0.830503 -2.72889 -0.00343454  -0.879709 -2.70483 -0.00347888  -0.854532 -2.77821 -0.0034833  -0.879708 -2.70487 -0.00349033  -0.903734 -2.75421 -0.00350046  -0.830498 -2.72895 -0.0034554  -0.903725 -2.75414 -0.00352168  0.00497794 -0.0213888 -0.0016129  0.00446826 -0.0156666 -0.00120044  0.0176309 -0.040222 -0.00292218  0.00446993 -0.0156624 -0.00269008  0.0134217 -0.031774 -0.00501168  0 0 0  0 0 0  0.0050945 -0.0212001 -0.00316346  0 0 0  0.0133701 -0.0320287 -0.00244629  0.0315926 -0.0607495 -0.00401115  0.0249564 -0.0513107 -0.00340486  0.047137 -0.0813606 -0.00471926  0.0252061 -0.0508378 -0.00691497  0.038027 -0.0707534 -0.00807607  0.0317861 -0.0601847 -0.00801826  0.0375609 -0.0713165 -0.00405359  0.0619798 -0.103092 -0.00525928  0.050472 -0.0930755 -0.0045259  0.0759261 -0.126843 -0.00554419  0.0509271 -0.0923525 -0.00900233  0.0629332 -0.115989 -0.00939858  0.0624228 -0.102352 -0.010486  0.0623612 -0.116742 -0.00477552  0.0888045 -0.152285 -0.00573599  0.0733736 -0.142192 -0.00494051  0.10015 -0.18001 -0.00581574  0.073905 -0.141328 -0.00968277  0.0834563 -0.16891 -0.00971365  0.0893655 -0.15144 -0.0113529  0.082885 -0.169773 -0.00500107  0.110159 -0.209612 -0.00581896  0.0910499 -0.199172 -0.00501299  0.118503 -0.241298 -0.0057956  0.0915976 -0.198242 -0.00968766  0.0982119 -0.229651 -0.00956202  0.110738 -0.208722 -0.0113958  0.0976555 -0.230556 -0.00499082  0.125383 -0.274744 -0.00571668  0.102784 -0.263636 -0.00493503  0.130601 -0.310001 -0.00564444  0.103332 -0.262696 -0.00940573  0.106911 -0.297579 -0.00922  0.125953 -0.273851 -0.0110598  0.106365 -0.298472 -0.00488043  0.134328 -0.3468 -0.00553668  0.108476 -0.334806 -0.00480413  0.136447 -0.385138 -0.00544691  0.10902 -0.333901 -0.0090183  0.109633 -0.371802 -0.00881255  0.134883 -0.345941 -0.0105722  0.109094 -0.372646 -0.00473535  0.137118 -0.424781 -0.00532866  0.108298 -0.411771 -0.00465453  0.136258 -0.465716 -0.00522816  0.108834 -0.410926 -0.00859714  0.106604 -0.451393 -0.00838184  0.13766 -0.42398 -0.0100272  0.106077 -0.452172 -0.00457788  0.134033 -0.507734 -0.00511098  0.102534 -0.493645 -0.00449407  0.130377 -0.550828 -0.00500941  0.103057 -0.492877 -0.00816619  0.0981638 -0.535489 -0.0079509  0.134558 -0.507006 -0.00947165  0.0976548 -0.536189 -0.0044179  0.125453 -0.594807 -0.00489104  0.0915555 -0.57962 -0.004336  0.119198 -0.639665 -0.00479424  0.0920558 -0.578929 -0.00773859  0.0846941 -0.623312 -0.00752747  0.125954 -0.594154 -0.00891995  0.0842091 -0.623934 -0.0042634  0.111782 -0.685237 -0.00468576  0.0757518 -0.668972 -0.00418365  0.103152 -0.73153 -0.00459003  0.076232 -0.668357 -0.0073241  0.066615 -0.714188 -0.00711787  0.112264 -0.684658 -0.0083878  0.0661527 -0.714737 -0.00411677  0.0934715 -0.778391 -0.00448275  0.0555528 -0.761086 -0.00403655  0.0826852 -0.825839 -0.00439215  0.0560007 -0.760547 -0.00692117  0.0443381 -0.807557 -0.00672388  0.0939152 -0.777883 -0.00787973  0.0439126 -0.808034 -0.00397325  0.0709571 -0.87373 -0.00429344  0.0313709 -0.855446 -0.00389779  0.0582234 -0.922091 -0.00420988  0.0317831 -0.854973 -0.00653529  0.0182822 -0.902924 -0.00634801  0.0713654 -0.873289 -0.00738716  0.0178893 -0.903341 -0.00384068  0.0446562 -0.970795 -0.00411725  0.00361156 -0.951605 -0.00376809  0.0301863 -1.01988 -0.0040406  0.00398755 -0.951191 -0.00617003  -0.0111616 -0.999899 -0.00599217  0.0450336 -0.970411 -0.00692594  -0.0115179 -1.00026 -0.0037148  0.0149722 -1.06922 -0.00395584  -0.0273535 -1.0492 -0.00364876  -0.00104511 -1.11885 -0.00388801  -0.0270066 -1.04884 -0.00582623  -0.0436256 -1.09814 -0.00566244  0.0153178 -1.06889 -0.00649345  -0.0439469 -1.09845 -0.00360405  -0.0177121 -1.16868 -0.00380659  -0.0611542 -1.14791 -0.00354135  -0.0350928 -1.21874 -0.00374377  -0.0608468 -1.14761 -0.00550199  -0.0787561 -1.19736 -0.00534761  -0.0174013 -1.1684 -0.00608778  -0.0790412 -1.19762 -0.0035001  -0.0530477 -1.26892 -0.00367534  -0.0974652 -1.24749 -0.00344563  -0.0716259 -1.31928 -0.00361907  -0.0971929 -1.24723 -0.00520158  -0.116232 -1.29733 -0.0050559  -0.0527706 -1.26869 -0.00571048  -0.116483 -1.29754 -0.00340939  -0.0906968 -1.36973 -0.0035522  -0.135963 -1.34771 -0.00336242  -0.110325 -1.4203 -0.00350451  -0.135727 -1.34749 -0.00492978  -0.155754 -1.39783 -0.00479066  -0.0904579 -1.36953 -0.00536644  -0.15597 -1.39801 -0.00332546  -0.130374 -1.47091 -0.00344753  -0.176369 -1.44839 -0.00328493  -0.150905 -1.52161 -0.00340664  -0.176162 -1.4482 -0.00466847  -0.19704 -1.49872 -0.00454736  -0.130163 -1.47075 -0.00504518  -0.19723 -1.49886 -0.00325966  -0.171793 -1.57232 -0.00335312  -0.218418 -1.54937 -0.00322306  -0.193102 -1.62307 -0.00332546  -0.218239 -1.54922 -0.00443852  -0.239846 -1.59983 -0.00433111  -0.171612 -1.57219 -0.00475717  -0.240003 -1.59994 -0.00320578  -0.214704 -1.67382 -0.00328052  -0.261866 -1.65052 -0.00317645  -0.236665 -1.72458 -0.00325441  -0.261716 -1.6504 -0.00423205  -0.283931 -1.70104 -0.00413156  -0.214549 -1.67372 -0.00449216  -0.284064 -1.70113 -0.00315952  -0.258875 -1.77531 -0.00321794  -0.306484 -1.75173 -0.00313187  -0.281376 -1.82603 -0.00319648  -0.306362 -1.75163 -0.00404346  -0.329088 -1.80227 -0.00395751  -0.258741 -1.77524 -0.0042578  -0.329189 -1.80233 -0.00312614  -0.30408 -1.8767 -0.00316417  -0.352078 -1.85289 -0.00310516  -0.32704 -1.92734 -0.0031544  -0.351979 -1.85282 -0.00387728  -0.375114 -1.9034 -0.00380147  -0.303978 -1.87665 -0.00404692  -0.375196 -1.90344 -0.00310445  -0.350145 -1.97791 -0.00313389  -0.398453 -1.95394 -0.00309062  -0.373456 -2.02844 -0.0031265  -0.398373 -1.95389 -0.00374091  -0.421841 -2.00439 -0.00367343  -0.350064 -1.97789 -0.00386739  -0.421902 -2.00441 -0.00309575  -0.396888 -2.0789 -0.00310707  -0.44545 -2.05482 -0.00308704  -0.42048 -2.12929 -0.00310874  -0.445391 -2.05479 -0.0036186  -0.469106 -2.10517 -0.00356317  -0.396823 -2.0789 -0.00371242  -0.469155 -2.10517 -0.00310099  -0.444148 -2.1796 -0.0031004  -0.492912 -2.15544 -0.00309956  -0.467952 -2.22985 -0.00311267  -0.492866 -2.15544 -0.00352645  -0.516763 -2.20569 -0.00347996  -0.444103 -2.17962 -0.00358617  -0.516797 -2.20567 -0.00311172  -0.491792 -2.28 -0.00310802  -0.540709 -2.25581 -0.00311875  -0.515733 -2.33008 -0.00312626  -0.540676 -2.25582 -0.00345063  -0.564698 -2.30592 -0.0034169  -0.491755 -2.28003 -0.00348198  -0.564716 -2.30588 -0.00314009  -0.539695 -2.38007 -0.00313234  -0.588728 -2.35587 -0.00315177  -0.563721 -2.42998 -0.00314987  -0.588712 -2.35589 -0.00340104  -0.612797 -2.40584 -0.00337946  -0.539671 -2.38011 -0.00341439  -0.61281 -2.40579 -0.00318062  -0.58775 -2.4798 -0.0031687  -0.63687 -2.45562 -0.00320029  -0.611815 -2.52953 -0.0032022  -0.636862 -2.45564 -0.00337946  -0.660974 -2.50542 -0.00336564  -0.587735 -2.47985 -0.00337005  -0.660978 -2.50537 -0.00323582  -0.635867 -2.57918 -0.0032208  -0.685053 -2.55503 -0.00325906  -0.659939 -2.62876 -0.00325739  -0.685044 -2.55507 -0.00336957  -0.70915 -2.60468 -0.00336981  -0.635858 -2.57924 -0.00335014  -0.709144 -2.60462 -0.00329626  -0.683977 -2.67825 -0.00328863  -0.733209 -2.65413 -0.00332987  -0.70804 -2.72767 -0.00333309  -0.73321 -2.65417 -0.00338864  -0.757294 -2.70363 -0.00339496  -0.683976 -2.67831 -0.00336647  -0.757282 -2.70357 -0.00336981  -0.732075 -2.77704 -0.00336468  -0.781314 -2.75295 -0.00339818  -0.75612 -2.82638 -0.00340521  -0.781317 -2.75299 -0.00341308  -0.805341 -2.80234 -0.00342071  -0.732072 -2.77711 -0.00338912  -0.805333 -2.80228 -0.00344813  0.00861143 -0.0390336 -0.00213253  0.00793698 -0.0285287 -0.00164342  0.0325294 -0.0666025 -0.0037961  0.00780997 -0.0286049 -0.00361633  0.0226344 -0.0517981 -0.00650311  0 0 0  0 0 0  0.00844166 -0.0387588 -0.0040884  0 0 0  0.0224691 -0.0520935 -0.00326741  0.0530229 -0.0839296 -0.00487578  0.0404067 -0.0716202 -0.0044961  0.0699948 -0.105095 -0.00591981  0.0405902 -0.0710369 -0.0090251  0.0578261 -0.092064 -0.0106075  0.0525133 -0.0837457 -0.0102702  0.057299 -0.092779 -0.00535071  0.088784 -0.125513 -0.00654054  0.0745361 -0.113949 -0.00594115  0.105601 -0.149042 -0.00697017  0.0749528 -0.113141 -0.0118983  0.0908472 -0.136779 -0.0125118  0.0891573 -0.124867 -0.0133781  0.0902369 -0.137629 -0.0062964  0.122075 -0.17453 -0.00720108  0.10495 -0.163097 -0.00650561  0.136922 -0.20247 -0.00733733  0.105499 -0.162185 -0.0129398  0.118779 -0.190007 -0.0130311  0.122684 -0.173657 -0.014492  0.118164 -0.190908 -0.00660241  0.150443 -0.232663 -0.00732744  0.129898 -0.220794 -0.00660157  0.162247 -0.26496 -0.00731301  0.130472 -0.219851 -0.013006  0.140631 -0.251861 -0.0128397  0.151078 -0.231721 -0.0145533  0.140035 -0.252763 -0.00656891  0.172458 -0.299248 -0.00718904  0.148553 -0.286627 -0.00647759  0.180891 -0.335363 -0.0071032  0.149124 -0.285695 -0.0126177  0.156004 -0.321424 -0.012334  0.173074 -0.298319 -0.0141153  0.155429 -0.322294 -0.00638199  0.187711 -0.373145 -0.0069313  0.160687 -0.359582 -0.00625122  0.192758 -0.412475 -0.00680768  0.161237 -0.358696 -0.0120367  0.164864 -0.397592 -0.0117096  0.188299 -0.372263 -0.0134568  0.164309 -0.398407 -0.00613487  0.19625 -0.453167 -0.00662172  0.166378 -0.438577 -0.00599051  0.198016 -0.495165 -0.00648606  0.166917 -0.437755 -0.0113837  0.167411 -0.479294 -0.0110425  0.196816 -0.452357 -0.0127072  0.166877 -0.480039 -0.00586069  0.198347 -0.538248 -0.00629401  0.165914 -0.522596 -0.00571549  0.197022 -0.582422 -0.00616026  0.166433 -0.52185 -0.0107139  0.163984 -0.565561 -0.0103749  0.19889 -0.537522 -0.0119321  0.163468 -0.566231 -0.00558829  0.194387 -0.627447 -0.00597751  0.159674 -0.610739 -0.005445  0.190209 -0.673366 -0.00583518  0.160173 -0.610071 -0.0100522  0.154989 -0.655537 -0.0097177  0.194914 -0.626802 -0.0111661  0.154495 -0.65613 -0.00532067  0.184839 -0.719946 -0.0056628  0.148088 -0.702216 -0.00518274  0.178038 -0.767249 -0.00553417  0.148565 -0.701621 -0.00940943  0.140874 -0.748497 -0.009094  0.185335 -0.719377 -0.0104213  0.140412 -0.749021 -0.00506723  0.170176 -0.815067 -0.0053606  0.131624 -0.796372 -0.00493181  0.160996 -0.863466 -0.00523877  0.13207 -0.795842 -0.00879323  0.122101 -0.843844 -0.00848842  0.170639 -0.814568 -0.00971103  0.121679 -0.844301 -0.00481796  0.15088 -0.912245 -0.005077  0.110735 -0.892646 -0.00469387  0.139558 -0.961487 -0.00496006  0.111151 -0.892186 -0.00820696  0.0991365 -0.941062 -0.00791597  0.151308 -0.911815 -0.00902808  0.0987444 -0.941457 -0.00458825  0.127411 -1.011 -0.00481331  0.0858674 -0.990575 -0.004475  0.114178 -1.06088 -0.00470042  0.0862486 -0.990174 -0.00765419  0.0724092 -1.03973 -0.00738263  0.127812 -1.01063 -0.00838268  0.072049 -1.04007 -0.0043751  0.100223 -1.11096 -0.00456345  0.0574492 -1.08979 -0.00426841  0.0852898 -1.16131 -0.00446379  0.0577976 -1.08944 -0.00713575  0.0423241 -1.1395 -0.00688374  0.100584 -1.11064 -0.00778365  0.0419978 -1.13979 -0.00418198  0.0697229 -1.21179 -0.0043391  0.025869 -1.18995 -0.00408328  0.0532751 -1.26248 -0.00425231  0.0261786 -1.18965 -0.00665188  0.00926638 -1.24009 -0.00641763  0.070044 -1.21152 -0.00722623  0.00898099 -1.24034 -0.00400245  0.0362976 -1.31323 -0.00413227  -0.00850105 -1.29082 -0.00391054  0.0185227 -1.36414 -0.0040518  -0.00822735 -1.29056 -0.00620294  -0.0264068 -1.34126 -0.00598478  0.0365827 -1.31301 -0.00669909  -0.0266545 -1.34146 -0.00383782  0.000291348 -1.41507 -0.00394237  -0.0453198 -1.39216 -0.00375307  -0.018635 -1.46611 -0.00386703  -0.045078 -1.39195 -0.0057869  -0.0643568 -1.44281 -0.00558519  0.000541687 -1.41489 -0.00621617  -0.064579 -1.44297 -0.00369298  -0.0379531 -1.51714 -0.00377774  -0.084275 -1.49381 -0.00361848  -0.0578856 -1.56823 -0.0037154  -0.0840647 -1.49363 -0.00540566  -0.104298 -1.54458 -0.00522161  -0.0377314 -1.51699 -0.00577867  -0.104487 -1.54471 -0.0035634  -0.078141 -1.61928 -0.00362694  -0.125072 -1.5956 -0.00349915  -0.0989363 -1.67037 -0.00357413  -0.12489 -1.59545 -0.00505924  -0.145949 -1.64643 -0.00489092  -0.077944 -1.61916 -0.00537181  -0.146108 -1.64653 -0.0034529  -0.119989 -1.72137 -0.00349593  -0.167447 -1.69742 -0.00339472  -0.141532 -1.77239 -0.0034467  -0.167299 -1.6973 -0.00474334  -0.189048 -1.74824 -0.00458777  -0.119828 -1.72129 -0.00500655  -0.189183 -1.74832 -0.00335681  -0.163274 -1.82332 -0.00338376  -0.211166 -1.79915 -0.00330234  -0.185422 -1.87424 -0.00334156  -0.21104 -1.79906 -0.00445569  -0.233375 -1.84993 -0.00432312  -0.163134 -1.82326 -0.00466812  -0.233483 -1.84998 -0.00327551  -0.207743 -1.92505 -0.00329256  -0.256006 -1.90073 -0.00323474  -0.230412 -1.97583 -0.003263  -0.255898 -1.90066 -0.00420451  -0.278714 -1.95142 -0.00408614  -0.207628 -1.92501 -0.00437379  -0.278804 -1.95145 -0.00321674  -0.2532 -2.02649 -0.0032208  -0.301759 -2.00208 -0.0031817  -0.276289 -2.07711 -0.00319576  -0.30168 -2.00203 -0.00398624  -0.324885 -2.05265 -0.00388122  -0.253107 -2.02648 -0.00411415  -0.324945 -2.05266 -0.00316465  -0.299443 -2.1276 -0.00315821  -0.34825 -2.10314 -0.00314057  -0.322874 -2.17804 -0.00315154  -0.348186 -2.10313 -0.0037936  -0.371695 -2.15359 -0.00370538  -0.299377 -2.12761 -0.00388706  -0.371748 -2.15357 -0.00313711  -0.346329 -2.22835 -0.00312448  -0.395315 -2.20389 -0.00311959  -0.370007 -2.2786 -0.00311828  -0.395275 -2.20389 -0.00363803  -0.41901 -2.25417 -0.00356185  -0.346279 -2.22838 -0.00369918  -0.419048 -2.25414 -0.00312388  -0.393695 -2.32873 -0.00310218  -0.442822 -2.30429 -0.00311267  -0.417549 -2.37877 -0.00310493  -0.44278 -2.3043 -0.00350785  -0.466682 -2.3544 -0.00345445  -0.393664 -2.32876 -0.0035497  -0.466697 -2.35436 -0.00311768  -0.441392 -2.42871 -0.00309837  -0.490612 -2.40433 -0.0031215  -0.465372 -2.47857 -0.00311875  -0.490588 -2.40435 -0.0034138  -0.514596 -2.45427 -0.00337899  -0.441367 -2.42876 -0.0034306  -0.514601 -2.45422 -0.00314045  -0.489322 -2.52831 -0.0031234  -0.538597 -2.50401 -0.00315249  -0.513365 -2.57799 -0.00314713  -0.538586 -2.50405 -0.00335395  -0.562635 -2.55378 -0.00333297  -0.489306 -2.52838 -0.00335014  -0.562637 -2.55373 -0.0031805  -0.537368 -2.62756 -0.00315976  -0.586663 -2.60335 -0.00319684  -0.561433 -2.67708 -0.00319183  -0.586662 -2.60339 -0.0033313  -0.61073 -2.65296 -0.00332105  -0.537359 -2.62763 -0.00331426  -0.610723 -2.6529 -0.00323236  -0.585458 -2.72652 -0.00322115  -0.634753 -2.70237 -0.00326073  -0.609503 -2.77591 -0.00326586  -0.634753 -2.70241 -0.00332975  -0.658804 -2.75184 -0.0033325  -0.585454 -2.72659 -0.00330853  -0.658795 -2.75178 -0.00330615  -0.63354 -2.82526 -0.00330138  -0.682832 -2.80114 -0.00333512  -0.657618 -2.87459 -0.00333953  -0.682837 -2.80118 -0.00335085  -0.706899 -2.85053 -0.00335634  -0.633541 -2.82533 -0.00333488  -0.706887 -2.85048 -0.00337541  -0.00394735 -0.00720028 0.00556064  -0.00491139 -0.0120878 0.00693989  -0.0137328 -0.0201652 0.0105351  -0.00526604 -0.0113117 0.00940382  -0.0214996 -0.0281588 0.017755  -0.0207121 -0.0252487 0.0112969  0 0 0  -0.0218482 -0.0263942 0.00813556  0 0 0  0 0 0  -0.00380342 -0.00611108 0.00794268  0 0 0  -0.04104 -0.0415152 0.0146582  -0.0222236 -0.0301854 0.0126208  -0.0267642 -0.0333147 0.0144578  -0.0385836 -0.0425394 0.0171689  -0.0406954 -0.0469839 0.0171428  -0.0378301 -0.0393772 0.0238055  -0.0548976 -0.052007 0.0278524  -0.0560856 -0.0483004 0.0276133  -0.0571797 -0.0511921 0.0201608  -0.0267851 -0.0306204 0.0199755  -0.0759898 -0.0646633 0.0236342  -0.0553369 -0.0556656 0.0202973  -0.0559065 -0.0626637 0.0188618  -0.0725035 -0.0692421 0.0224376  -0.0706074 -0.0790596 0.0198328  -0.0719294 -0.0650909 0.0306671  -0.0892925 -0.0802266 0.031824  -0.093235 -0.0717779 0.0356939  -0.0940442 -0.0759957 0.026197  -0.0556827 -0.0589059 0.025799  -0.113604 -0.0908417 0.0274354  -0.0897429 -0.0846062 0.0234959  -0.0860962 -0.0981514 0.0200624  -0.107513 -0.101899 0.0238458  -0.101412 -0.118583 0.0199034  -0.106769 -0.0975005 0.0322379  -0.124436 -0.116683 0.031733  -0.13215 -0.101614 0.037576  -0.133059 -0.106295 0.0277773  -0.0854643 -0.0941497 0.027127  -0.152936 -0.124109 0.0275275  -0.125267 -0.121006 0.0235889  -0.117359 -0.14129 0.0192645  -0.143475 -0.142218 0.0228913  -0.133434 -0.16545 0.0184882  -0.142345 -0.138101 0.0307584  -0.160362 -0.161106 0.0294319  -0.171777 -0.139308 0.0358425  -0.172998 -0.143763 0.0266336  -0.116252 -0.137515 0.0258855  -0.192905 -0.164948 0.0255877  -0.161637 -0.16497 0.0219439  -0.149998 -0.191458 0.0174552  -0.180175 -0.189675 0.0207559  -0.166793 -0.218796 0.0164175  -0.178678 -0.186078 0.0278286  -0.197066 -0.212389 0.0261991  -0.211618 -0.1844 0.0324225  -0.213142 -0.188288 0.024146  -0.148488 -0.188114 0.0234137  -0.233045 -0.212769 0.0227859  -0.198673 -0.215671 0.019532  -0.183995 -0.247707 0.0152761  -0.217516 -0.243411 0.0182066  -0.201449 -0.277803 0.0141903  -0.215776 -0.240391 0.0244412  -0.234567 -0.269569 0.0227901  -0.251623 -0.236047 0.0284892  -0.253331 -0.239287 0.0212102  -0.182227 -0.244867 0.0205251  -0.273325 -0.266796 0.0198117  -0.236353 -0.272278 0.0169469  -0.219282 -0.309291 0.0130957  -0.255536 -0.302692 0.0156723  -0.237376 -0.341836 0.0120721  -0.253696 -0.300216 0.0211115  -0.27293 -0.331915 0.0195774  -0.291928 -0.293469 0.0246584  -0.293709 -0.296104 0.0183181  -0.217403 -0.306929 0.0176725  -0.313914 -0.326336 0.0170071  -0.274765 -0.334126 0.0144986  -0.255844 -0.375623 0.0110874  -0.294352 -0.366928 0.0133485  -0.274582 -0.410368 0.0101646  -0.292515 -0.364907 0.0180759  -0.31224 -0.398859 0.0167066  -0.332732 -0.355997 0.0211771  -0.334497 -0.358129 0.0156659  -0.253959 -0.373676 0.0150617  -0.355019 -0.390798 0.0144891  -0.314038 -0.400662 0.0122954  -0.293695 -0.446221 0.00930214  -0.334097 -0.435609 0.0112864  -0.313096 -0.482945 0.0084908  -0.332329 -0.433954 0.0154005  -0.352592 -0.469935 0.0142019  -0.374218 -0.423086 0.0181181  -0.375909 -0.424818 0.0133253  -0.291881 -0.444616 0.01275  -0.396821 -0.459664 0.0122906  -0.354297 -0.471413 0.0103643  -0.332869 -0.520659 0.00774515  -0.374866 -0.508292 0.00949121  -0.352934 -0.559163 0.00703597  -0.373212 -0.506929 0.0130689  -0.394027 -0.544732 0.0120208  -0.416513 -0.494276 0.0154595  -0.418094 -0.495695 0.011283  -0.331171 -0.519336 0.0107323  -0.439439 -0.532492 0.0103796  -0.395605 -0.545956 0.00868595  -0.373358 -0.598551 0.00638735  -0.416706 -0.584576 0.00792599  -0.394071 -0.638647 0.00576198  -0.415191 -0.583444 0.0110393  -0.436554 -0.622889 0.0101126  -0.459688 -0.569168 0.0131397  -0.461132 -0.570338 0.00950503  -0.371796 -0.597454 0.00897551  -0.482939 -0.608893 0.00870454  -0.43799 -0.623912 0.00721252  -0.415126 -0.679534 0.00519526  -0.459625 -0.664093 0.00654721  -0.436463 -0.721061 0.00464308  -0.458249 -0.663149 0.0092504  -0.480141 -0.704079 0.00843215  -0.503755 -0.647398 0.0110947  -0.505066 -0.64837 0.00793695  -0.41371 -0.678622 0.00743186  -0.527321 -0.688499 0.00722671  -0.481439 -0.704928 0.00591564  -0.458116 -0.763283 0.00413406  -0.503577 -0.746517 0.00532591  -0.480025 -0.806079 0.00364041  -0.502343 -0.745724 0.00766516  -0.524736 -0.787975 0.00693369  -0.548708 -0.728639 0.00928259  -0.549881 -0.729452 0.00654519  -0.456839 -0.762522 0.00606441  -0.57257 -0.770986 0.00590694  -0.525898 -0.788689 0.00475347  -0.50223 -0.849491 0.00319088  -0.548515 -0.831529 0.00422978  -0.524671 -0.893412 0.00274742  -0.547415 -0.830869 0.00624812  -0.570268 -0.874301 0.00559175  -0.594487 -0.812582 0.00766194  -0.595542 -0.813259 0.0052954  -0.501096 -0.848862 0.00484371  -0.618627 -0.856053 0.00472295  -0.571294 -0.874891 0.00372291  -0.547369 -0.93788 0.00233996  -0.59434 -0.918847 0.00324738  -0.570282 -0.982804 0.00193596  -0.593369 -0.918299 0.00497615  -0.616632 -0.962782 0.00437665  -0.641035 -0.898947 0.00620389  -0.641959 -0.899505 0.00417495  -0.546361 -0.937361 0.00374937  -0.665417 -0.943431 0.00364876  -0.617536 -0.963271 0.00278223  -0.593423 -1.0282 0.00156868  -0.640969 -1.00822 0.00235152  -0.616748 -1.074 0.00120091  -0.640117 -1.00776 0.0038178  -0.663735 -1.05317 0.00328004  -0.688269 -0.987468 0.00487792  -0.689087 -0.987932 0.00314653  -0.592541 -1.02777 0.00275731  -0.71285 -1.03285 0.00267959  -0.664524 -1.05357 0.00193143  -0.640269 -1.12021 0.000866055  -0.688287 -1.09939 0.00154102  -0.663949 -1.16676 0.000530005  -0.687542 -1.09902 0.00277114  -0.711466 -1.14524 0.0022831  -0.736096 -1.0779 0.00368607  -0.736801 -1.07828 0.00222993  -0.639497 -1.11986 0.00185835  -0.760835 -1.12407 0.00179982  -0.71215 -1.14557 0.00115633  -0.687786 -1.21368 0.000230908  -0.736189 -1.19214 0.000802875  -0.711761 -1.26089 -7.53403e-05  -0.735546 -1.19183 0.00182688  -0.759731 -1.23877 0.00138199  -0.784416 -1.17001 0.00259709  -0.785029 -1.17031 0.00138247  -0.687114 -1.2134 0.00104439  -0.809282 -1.21687 0.000990033  -0.760315 -1.23902 0.000450015  -0.735868 -1.30842 -0.00035131  -0.784578 -1.28626 0.000127077  -0.760077 -1.3562 -0.000628352  -0.784031 -1.28602 0.000964522  -0.808405 -1.33355 0.000564218  -0.833147 -1.26359 0.00161457  -0.833664 -1.26382 0.000617623  -0.735294 -1.3082 0.000309587  -0.858097 -1.31105 0.00025928  -0.808907 -1.33375 -0.000190377  -0.784383 -1.40423 -0.000877023  -0.83334 -1.38155 -0.000480175  -0.808772 -1.45249 -0.00113046  -0.832873 -1.38136 0.000188589  -0.857398 -1.42942 -0.000170946  -0.882177 -1.35842 0.000728846  -0.882613 -1.3586 -7.71284e-05  -0.783897 -1.40407 -0.000359297  -0.907171 -1.4064 -0.000398636  -0.857813 -1.42957 -0.000773191  -0.833233 -1.50096 -0.00135374  -0.882377 -1.47783 -0.00103247  -0.857753 -1.5496 -0.00158095  -0.881993 -1.47769 -0.000509858  -0.906615 -1.52618 -0.000824332  -0.931425 -1.45433 -6.83069e-05  -0.931788 -1.45447 -0.00070405  -0.832824 -1.50084 -0.000953436  -0.956428 -1.50274 -0.00098896  -0.906957 -1.52629 -0.00129199  -0.882318 -1.59842 -0.00178361  -0.931594 -1.57495 -0.00153041  -0.906918 -1.64739 -0.00199366  -0.931282 -1.57485 -0.00113547  -0.955966 -1.62369 -0.00142109  -0.98081 -1.55115 -0.000784397  -0.981107 -1.55124 -0.00126851  -0.88198 -1.59835 -0.00149107  -1.00578 -1.59991 -0.00153363  -0.956239 -1.62376 -0.00176787  -0.931537 -1.69649 -0.0021708  -0.980914 -1.67273 -0.00197935  -0.956182 -1.7457 -0.00235522  -0.98066 -1.67267 -0.00169218  -1.00536 -1.72179 -0.00193942  -1.03024 -1.64871 -0.0014236  -1.03049 -1.64877 -0.00177658  -0.931266 -1.69645 -0.00196755  -1.05516 -1.69775 -0.00200725  -1.00559 -1.72183 -0.00219131  -0.980824 -1.79501 -0.00251067  -1.03026 -1.77104 -0.00237298  -1.00547 -1.8444 -0.00267136  -1.03006 -1.77101 -0.00217509  -1.05475 -1.82035 -0.00239444  -1.07967 -1.74687 -0.0019778  -1.07984 -1.74688 -0.00221872  -0.980607 -1.795 -0.00238299  -1.10452 -1.79612 -0.00242436  -1.05491 -1.82035 -0.00254953  -1.0301 -1.89388 -0.00280952  -1.07956 -1.86976 -0.00271118  -1.05471 -1.94339 -0.00295305  -1.07941 -1.86975 -0.00259781  -1.10406 -1.91924 -0.00277758  -1.12902 -1.84547 -0.00246179  -1.12914 -1.84547 -0.00260699  -1.02993 -1.89389 -0.00274324  -1.15377 -1.89488 -0.00278604  -1.10418 -1.91922 -0.00287557  -1.0793 -1.99296 -0.00307226  -1.12878 -1.96875 -0.00301385  -1.10387 -2.04255 -0.00319731  -1.12867 -1.96875 -0.00295234  -1.15326 -2.01834 -0.00310528  -1.17825 -1.9444 -0.00286877  -1.17834 -1.94437 -0.00294197  -1.07918 -1.993 -0.00305021  -1.2029 -1.99391 -0.00309312  -1.15334 -2.0183 -0.00314987  -1.12839 -2.09216 -0.00328875  -1.17786 -2.06789 -0.00326264  -1.15289 -2.14177 -0.00339675  -1.17779 -2.06792 -0.0032469  -1.20229 -2.11754 -0.00336766  -1.22732 -2.04354 -0.00319755  -1.22738 -2.04349 -0.00322008  -1.1283 -2.09221 -0.00330424  -1.25185 -2.09309 -0.00334966  -1.20234 -2.11749 -0.00337625  -1.17733 -2.19139 -0.00347567  -1.22677 -2.16709 -0.00347304  -1.20174 -2.24098 -0.00355792  -1.22673 -2.16713 -0.00348365  -1.25114 -2.21675 -0.00357342  -1.27621 -2.14276 -0.00346816  -1.27625 -2.1427 -0.00345504  -1.17726 -2.19145 -0.00350738  -1.30063 -2.19232 -0.00355303  -1.25117 -2.21669 -0.00356555  -1.2261 -2.29055 -0.00362337  -1.27551 -2.26627 -0.0036335  -1.25041 -2.34009 -0.00369215  -1.27548 -2.26632 -0.00366056  -1.29981 -2.3159 -0.00372648  -1.32492 -2.24199 -0.00366366  -1.32495 -2.24192 -0.00363874  -1.22605 -2.29062 -0.00366199  -1.34926 -2.2915 -0.0037185  -1.29983 -2.31583 -0.00370812  -1.27469 -2.38959 -0.00373793  -1.3241 -2.36535 -0.00376499  -1.29892 -2.43905 -0.00380361  -1.32407 -2.3654 -0.00379038  -1.34832 -2.4149 -0.00384378  -1.37347 -2.34112 -0.00380778  -1.37349 -2.34105 -0.00377262  -1.27465 -2.38967 -0.00377965  -1.39774 -2.39056 -0.00384974  -1.34834 -2.41482 -0.00383043  -1.32313 -2.48846 -0.0038476  -1.37254 -2.46426 -0.00387526  -1.34732 -2.53783 -0.00390649  -1.37252 -2.46432 -0.00390267  -1.39673 -2.51373 -0.00394762  -1.42193 -2.4401 -0.00391972  -1.42195 -2.44002 -0.00389552  -1.3231 -2.48854 -0.00388336  -1.44616 -2.48945 -0.00395596  -1.39675 -2.51365 -0.00393224  -0.00185248 -0.00289273 0.00350344  -0.00228186 -0.00448266 0.00452685  -0.00611988 -0.0104574 0.00673795  -0.00225419 -0.00366965 0.00633323  -0.00834642 -0.0125455 0.0118667  0 0 0  0 0 0  -0.00184789 -0.00220212 0.00492191  0 0 0  -0.00806579 -0.013811 0.00866973  -0.0121331 -0.0225947 0.00920463  -0.0177116 -0.0268009 0.0118164  -0.0200947 -0.0377804 0.0110853  -0.0179518 -0.0245413 0.0163531  -0.0291052 -0.0386291 0.0192409  -0.0121374 -0.0207798 0.0128185  -0.0287755 -0.0414745 0.0140797  -0.0289452 -0.0547128 0.012253  -0.0407512 -0.0577829 0.0155189  -0.0386951 -0.0740006 0.0129236  -0.0407361 -0.0544883 0.0212255  -0.0532614 -0.0724816 0.0221158  -0.0288185 -0.0519773 0.016737  -0.0533945 -0.0759959 0.0163397  -0.0490747 -0.0950152 0.0130458  -0.0662459 -0.095972 0.0165167  -0.0599275 -0.117899 0.0129263  -0.0657118 -0.0923695 0.0223196  -0.0788366 -0.114255 0.0220325  -0.0485036 -0.0918285 0.0176437  -0.0796022 -0.117836 0.0163634  -0.0714097 -0.142624 0.0124629  -0.0932749 -0.14151 0.0158197  -0.0833635 -0.168971 0.0119094  -0.0921967 -0.138035 0.021255  -0.106126 -0.163564 0.0203552  -0.0703372 -0.139423 0.0167674  -0.107432 -0.166874 0.0151432  -0.0959566 -0.196993 0.0111851  -0.122025 -0.193894 0.0142801  -0.109095 -0.22645 0.0104504  -0.120524 -0.190765 0.0191667  -0.135403 -0.219464 0.0180182  -0.0944788 -0.194041 0.0150428  -0.137072 -0.22236 0.0133839  -0.122829 -0.257338 0.00965929  -0.152582 -0.252286 0.0124304  -0.137151 -0.289506 0.00888562  -0.150822 -0.249587 0.0167334  -0.166669 -0.281013 0.0155431  -0.121102 -0.254749 0.0130359  -0.16852 -0.283468 0.0114963  -0.152018 -0.322904 0.00812566  -0.184919 -0.315942 0.0105805  -0.167462 -0.35743 0.00739253  -0.183049 -0.313663 0.0143267  -0.199829 -0.347463 0.0132055  -0.150176 -0.320688 0.0110492  -0.20173 -0.349514 0.00969875  -0.18342 -0.393038 0.00670505  -0.218989 -0.38424 0.00887287  -0.199933 -0.429648 0.00604343  -0.217114 -0.382339 0.0121167  -0.234787 -0.418237 0.011108  -0.18158 -0.391168 0.00921571  -0.236646 -0.419944 0.00808012  -0.216927 -0.46722 0.00544488  -0.254737 -0.456679 0.00735486  -0.234444 -0.505679 0.00486124  -0.252933 -0.455092 0.0101613  -0.271473 -0.492874 0.00926733  -0.215155 -0.465647 0.00759804  -0.273223 -0.494291 0.00665402  -0.252422 -0.545 0.00434339  -0.292135 -0.532828 0.00602853  -0.270889 -0.585109 0.00383437  -0.290452 -0.531502 0.00844991  -0.309807 -0.570963 0.00767541  -0.250759 -0.543679 0.00618577  -0.311421 -0.572149 0.00542021  -0.28979 -0.625986 0.00338709  -0.331118 -0.612293 0.00487578  -0.309143 -0.667562 0.00293815  -0.329573 -0.611186 0.00696206  -0.349696 -0.652146 0.00628066  -0.288262 -0.62488 0.00496185  -0.351172 -0.653139 0.00434053  -0.328909 -0.709822 0.00254631  -0.371615 -0.694722 0.0038619  -0.349084 -0.752697 0.00214994  -0.370206 -0.693792 0.00565958  -0.391056 -0.736101 0.00505733  -0.327518 -0.708891 0.00388575  -0.392388 -0.736932 0.00338495  -0.369639 -0.796173 0.00180447  -0.413515 -0.779787 0.00296175  -0.390566 -0.840193 0.00145197  -0.412251 -0.779005 0.00450242  -0.433765 -0.822501 0.00396442  -0.368385 -0.795392 0.00294006  -0.434954 -0.823201 0.00253808  -0.41184 -0.884742 0.00114644  -0.456709 -0.867185 0.0021646  -0.433447 -0.929767 0.000827312  -0.455588 -0.866529 0.00347662  -0.477696 -0.911083 0.00299609  -0.410719 -0.884087 0.00210249  -0.478749 -0.911663 0.00178373  -0.455359 -0.975253 0.000554323  -0.501081 -0.956645 0.00144303  -0.477569 -1.02116 0.000262856  -0.500078 -0.956097 0.00255251  -0.522723 -1.00158 0.00211644  -0.454361 -0.974708 0.0013479  -0.523655 -1.00206 0.00109458  -0.500046 -1.06746 1.80006e-05  -0.546482 -1.04791 0.000787139  -0.522778 -1.11413 -0.000241041  -0.545607 -1.04746 0.00171602  -0.568712 -1.09375 0.00132704  -0.499168 -1.06701 0.000670552  -0.569531 -1.09414 0.000474215  -0.545751 -1.16114 -0.000465631  -0.592788 -1.14075 0.00019455  -0.568934 -1.20846 -0.000702739  -0.592023 -1.14038 0.000963688  -0.615523 -1.18737 0.000613809  -0.544984 -1.16077 6.36578e-05  -0.616236 -1.18769 -8.9407e-05  -0.592316 -1.25607 -0.000906706  -0.639863 -1.23496 -0.000341296  -0.615884 -1.30395 -0.00112224  -0.639193 -1.23465 0.000284672  -0.663028 -1.28225 -3.37362e-05  -0.591649 -1.25577 -0.000490189  -0.663643 -1.2825 -0.000604033  -0.639611 -1.35207 -0.0013082  -0.687571 -1.33033 -0.000832796  -0.663491 -1.40041 -0.0015043  -0.687 -1.33008 -0.000330806  -0.711106 -1.37818 -0.000619888  -0.639035 -1.35184 -0.000985265  -0.711625 -1.37838 -0.00106752  -0.687499 -1.44896 -0.00167322  -0.735793 -1.42668 -0.00127721  -0.711618 -1.49768 -0.00184608  -0.73531 -1.42649 -0.000885367  -0.759621 -1.47501 -0.00114512  -0.687004 -1.44878 -0.00142944  -0.760059 -1.47516 -0.00149024  -0.735842 -1.54658 -0.00200021  -0.784409 -1.52385 -0.00167727  -0.760148 -1.59562 -0.00216186  -0.784004 -1.5237 -0.00138593  -0.808473 -1.57258 -0.00161612  -0.735431 -1.54645 -0.00183177  -0.808832 -1.57268 -0.00187099  -0.784525 -1.64479 -0.00229645  -0.833315 -1.62168 -0.00203955  -0.808963 -1.69407 -0.00244236  -0.832983 -1.62158 -0.00183594  -0.85755 -1.67073 -0.00204027  -0.784186 -1.6447 -0.00219107  -0.857845 -1.67079 -0.00221741  -0.833444 -1.74345 -0.00256062  -0.882402 -1.72003 -0.00236869  -0.857965 -1.79291 -0.0026921  -0.882133 -1.71996 -0.00222969  -0.906759 -1.76933 -0.00241125  -0.833168 -1.74339 -0.00250947  -0.906995 -1.76937 -0.00252879  -0.882506 -1.84244 -0.00280166  -0.931592 -1.81879 -0.00266135  -0.907068 -1.89203 -0.00292075  -0.931381 -1.81875 -0.00257993  -0.956024 -1.86827 -0.00273359  -0.882288 -1.84242 -0.00279188  -0.956208 -1.86827 -0.00279748  -0.931627 -1.94165 -0.0030154  -0.980803 -1.91782 -0.00291407  -0.956181 -1.99131 -0.00311184  -0.980637 -1.9178 -0.00287974  -1.00527 -1.96741 -0.00301349  -0.931453 -1.94165 -0.00302923  -1.0054 -1.9674 -0.00303781  -0.980728 -2.04098 -0.00319529  -1.02997 -2.01702 -0.00313663  -1.00526 -2.09067 -0.00328434  -1.02985 -2.01703 -0.00313663  -1.05443 -2.06668 -0.00324953  -0.9806 -2.041 -0.00323439  -1.05453 -2.06665 -0.00324202  -1.02976 -2.14034 -0.00335455  -1.07904 -2.1163 -0.00332582  -1.05423 -2.19001 -0.00342989  -1.07895 -2.11631 -0.00334942  -1.10347 -2.16598 -0.00343668  -1.02966 -2.14038 -0.00340879  -1.10353 -2.16593 -0.0034126  -1.07866 -2.23966 -0.00348556  -1.12797 -2.21556 -0.00348032  -1.10306 -2.28928 -0.00354612  -1.12791 -2.21559 -0.00351834  -1.15234 -2.26522 -0.00358486  -1.07859 -2.23971 -0.00354183  -1.15238 -2.26516 -0.00355709  -1.12741 -2.33886 -0.00359833  -1.17674 -2.31473 -0.00361085  -1.15172 -2.38841 -0.00365222  -1.1767 -2.31478 -0.00364649  -1.20103 -2.36434 -0.00370026  -1.12737 -2.33893 -0.0036478  -1.20106 -2.36427 -0.00367439  -1.17598 -2.4379 -0.00369394  -1.22532 -2.41377 -0.00372016  -1.2002 -2.48734 -0.00375044  -1.22529 -2.41382 -0.00375652  -1.24954 -2.46329 -0.00379896  -1.17595 -2.43797 -0.00374055  -1.24956 -2.46322 -0.00378358  -1.22437 -2.53673 -0.00378668  -1.27374 -2.51261 -0.00381923  -1.24852 -2.58605 -0.00383651  -1.27371 -2.51267 -0.00384831  -1.29791 -2.56203 -0.00389564  -1.22434 -2.5368 -0.0038234  -1.29792 -2.56196 -0.00387263  -0.000488229 -0.00205475 0.00157893  -0.000881966 -0.00220317 0.00257397  -0.00160103 -0.00878349 0.0031122  -0.000863228 -0.00164187 0.00357354  -0.00316805 -0.00800639 0.00668705  0 0 0  0 0 0  -0.000477485 -0.00156936 0.00220108  0 0 0  -0.0029854 -0.00901818 0.00487971  -0.00325386 -0.0206933 0.00428653  -0.00695698 -0.0211669 0.00670254  -0.0059709 -0.0357201 0.0052824  -0.00699177 -0.0195253 0.00935602  -0.0120667 -0.0339165 0.011113  -0.0031547 -0.0193413 0.00596094  -0.0118262 -0.0359801 0.00816917  -0.00939465 -0.053811 0.00588191  -0.0183271 -0.0536971 0.00901127  -0.0138 -0.0743446 0.0062753  -0.0182065 -0.0511816 0.0123682  -0.0251653 -0.0707901 0.0129668  -0.00908872 -0.0516812 0.00807619  -0.0253529 -0.0735524 0.0095669  -0.0189991 -0.0969017 0.00635028  -0.0332997 -0.0954019 0.00964653  -0.0250359 -0.121488 0.00628006  -0.0327407 -0.0924524 0.0130843  -0.0410442 -0.116181 0.0129107  -0.018338 -0.0942748 0.00862134  -0.0418076 -0.11918 0.00956547  -0.031863 -0.147791 0.00601029  -0.0510002 -0.144717 0.00919425  -0.0395226 -0.175865 0.00567114  -0.049956 -0.141716 0.0123941  -0.0596067 -0.169075 0.0118123  -0.0307971 -0.145006 0.00812459  -0.0608662 -0.171984 0.00875485  -0.0479768 -0.205454 0.00523543  -0.0713912 -0.200817 0.0081718  -0.0573016 -0.236608 0.00477231  -0.0699632 -0.198 0.0110261  -0.0810653 -0.228521 0.010273  -0.0465824 -0.202773 0.0070982  -0.0826527 -0.231173 0.00757825  -0.0673944 -0.269095 0.00429463  -0.0945798 -0.262892 0.00694704  -0.0783646 -0.302946 0.00380087  -0.0929122 -0.260373 0.00943315  -0.10548 -0.29361 0.00864136  -0.0657889 -0.266649 0.00588429  -0.107241 -0.29594 0.00631368  -0.0900648 -0.337955 0.00333822  -0.120549 -0.330177 0.00570965  -0.102607 -0.37415 0.00287902  -0.118775 -0.327982 0.00784171  -0.132748 -0.363564 0.00709367  -0.0883671 -0.335797 0.00466907  -0.134552 -0.365569 0.00510979  -0.115837 -0.411362 0.00246334  -0.149171 -0.402009 0.00456941  -0.129854 -0.449602 0.0020448  -0.147397 -0.400124 0.00638461  -0.162683 -0.437748 0.00571096  -0.11414 -0.409492 0.00355601  -0.164442 -0.439458 0.00402844  -0.144515 -0.488732 0.00168431  -0.180299 -0.477839 0.00355744  -0.159895 -0.528755 0.00132084  -0.178595 -0.476229 0.00509119  -0.195088 -0.515651 0.00449872  -0.142877 -0.48713 0.00257826  -0.196752 -0.517095 0.00307715  -0.175871 -0.569573 0.00101137  -0.213759 -0.557188 0.00266838  -0.19251 -0.611165 0.000694871  -0.212162 -0.555822 0.00396359  -0.229783 -0.596823 0.00345147  -0.17433 -0.568201 0.00172937  -0.231322 -0.598052 0.00225651  -0.209697 -0.653453 0.000433326  -0.249395 -0.639649 0.00190496  -0.227485 -0.696413 0.000158906  -0.247919 -0.638491 0.0029912  -0.266569 -0.680885 0.00254107  -0.208275 -0.652281 0.00100565  -0.267976 -0.681928 0.00153959  -0.245783 -0.739982 -6.60419e-05  -0.287029 -0.724856 0.00123632  -0.26462 -0.784134 -0.000306487  -0.285691 -0.72387 0.00214171  -0.305279 -0.767496 0.00174868  -0.244491 -0.738983 0.000382662  -0.30655 -0.768378 0.00091815  -0.283921 -0.82882 -0.000505567  -0.326496 -0.812468 0.000644922  -0.303703 -0.874009 -0.000717521  -0.325286 -0.811634 0.00139689  -0.345724 -0.856334 0.0010488  -0.28275 -0.827972 -0.000158668  -0.346868 -0.857078 0.000359535  -0.323901 -0.919665 -0.000885606  -0.367619 -0.902189 0.000126243  -0.344528 -0.965754 -0.00107157  -0.366535 -0.901484 0.000742078  -0.387732 -0.947125 0.000434518  -0.322855 -0.918946 -0.000631809  -0.38875 -0.947752 -0.000128865  -0.365523 -1.01224 -0.00122273  -0.410216 -0.993744 -0.000339866  -0.386897 -1.0591 -0.00139225  -0.409254 -0.993148 0.000159621  -0.431124 -1.0396 -0.000113368  -0.364593 -1.01163 -0.00104403  -0.432025 -1.04013 -0.000567555  -0.4086 -1.1063 -0.00152564  -0.454124 -1.08689 -0.000760913  -0.430625 -1.15381 -0.00167966  -0.453276 -1.08638 -0.000359297  -0.475732 -1.13354 -0.000608802  -0.407779 -1.10578 -0.00140917  -0.476519 -1.13398 -0.000966549  -0.452935 -1.20161 -0.0017978  -0.499166 -1.18139 -0.00113511  -0.475522 -1.24968 -0.00193632  -0.498427 -1.18097 -0.000828624  -0.521383 -1.22872 -0.00105  -0.452211 -1.20119 -0.00173378  -0.522069 -1.22908 -0.00132406  -0.498349 -1.29798 -0.00204408  -0.545176 -1.27705 -0.0014776  -0.521413 -1.34651 -0.00217068  -0.544535 -1.2767 -0.0012486  -0.567919 -1.32496 -0.00144804  -0.497722 -1.29763 -0.00202632  -0.568508 -1.32525 -0.00164962  -0.544675 -1.39523 -0.0022639  -0.592009 -1.37368 -0.00178611  -0.568136 -1.44414 -0.00237763  -0.591454 -1.37339 -0.00162613  -0.615185 -1.42207 -0.00180101  -0.544139 -1.39495 -0.00228572  -0.61569 -1.4223 -0.00194073  -0.591753 -1.4932 -0.0024631  -0.639506 -1.4711 -0.00206733  -0.615535 -1.5424 -0.00257123  -0.639042 -1.47088 -0.00196469  -0.66305 -1.51989 -0.00212431  -0.591295 -1.49298 -0.00251424  -0.663476 -1.52007 -0.00221014  -0.639441 -1.59173 -0.00264895  -0.687541 -1.56918 -0.00232673  -0.663469 -1.64116 -0.00274408  -0.687149 -1.56901 -0.00226986  -0.711372 -1.61828 -0.00241148  -0.639055 -1.59156 -0.0027231  -0.711722 -1.61842 -0.00245476  -0.687591 -1.69069 -0.00281179  -0.735971 -1.66777 -0.00255609  -0.711807 -1.7403 -0.00289893  -0.735649 -1.66764 -0.0025394  -0.760027 -1.71711 -0.00266147  -0.687274 -1.69057 -0.00290263  -0.760311 -1.71721 -0.00267076  -0.736082 -1.78998 -0.00295818  -0.784689 -1.76674 -0.00276363  -0.760423 -1.8397 -0.00303733  -0.78443 -1.76664 -0.00277781  -0.808911 -1.81627 -0.00288713  -0.735826 -1.78988 -0.0030632  -0.809134 -1.81633 -0.00286829  -0.784806 -1.88946 -0.00310099  -0.833595 -1.86598 -0.00295377  -0.809224 -1.93924 -0.0031687  -0.83339 -1.86591 -0.00299227  -0.857929 -1.91563 -0.00308406  -0.7846 -1.8894 -0.00320423  -0.858101 -1.91566 -0.0030483  -0.833666 -1.98905 -0.00321317  -0.882595 -1.96538 -0.00311482  -0.85812 -2.03886 -0.00327706  -0.882441 -1.96534 -0.00316799  -0.906987 -2.0151 -0.00324702  -0.833505 -1.98902 -0.00332403  -0.907115 -2.0151 -0.00319839  -0.882569 -2.08866 -0.00332522  -0.931608 -2.06484 -0.00325835  -0.907023 -2.13845 -0.00338018  -0.931494 -2.06483 -0.00332212  -0.956017 -2.11459 -0.00339496  -0.882448 -2.08866 -0.00342703  -0.956114 -2.11458 -0.00333869  -0.931443 -2.18822 -0.00341308  -0.98057 -2.16431 -0.00338852  -0.955865 -2.23797 -0.00346518  -0.980485 -2.16431 -0.00345421  -1.00497 -2.21403 -0.00350559  -0.931365 -2.18824 -0.00351441  -1.00503 -2.21401 -0.00345075  -0.980246 -2.28767 -0.00349593  -1.02943 -2.26368 -0.00349271  -1.00461 -2.33734 -0.00354218  -1.02938 -2.2637 -0.00355995  -1.05378 -2.31337 -0.00359595  -0.980191 -2.2877 -0.00358367  -1.05382 -2.31332 -0.00355101  -1.02892 -2.38696 -0.00356722  -1.07815 -2.36292 -0.00358498  -1.0532 -2.43652 -0.00360286  -1.07811 -2.36296 -0.00364208  -1.10244 -2.41253 -0.0036695  -1.02889 -2.387 -0.00363958  -1.10246 -2.41247 -0.0036341  -1.07743 -2.48602 -0.00363338  -1.1267 -2.46197 -0.00367033  -1.10163 -2.53547 -0.00367916  -1.12668 -2.46201 -0.00371122  -1.1509 -2.51148 -0.00373983  -1.07741 -2.48608 -0.00368667  -1.15091 -2.51142 -0.00371885  -1.12576 -2.58483 -0.00370443  -1.17505 -2.56079 -0.00375199  -1.14985 -2.63413 -0.00374675  -1.17503 -2.56084 -0.0037781  -1.19917 -2.61016 -0.0038048  -1.12574 -2.58489 -0.00374067  -1.19918 -2.6101 -0.00378966  0.000626899 -0.00319681 -0.00029242  0.000220321 -0.00246179 0.000705242  0.00201289 -0.010882 -0.000339866  0.0002468 -0.00205505 0.000909805  0.000660107 -0.00864735 0.0017643  0 0 0  0 0 0  0.000647582 -0.00283301 -0.000453949  0 0 0  0.00074096 -0.00944003 0.00135744  0.00398144 -0.0237523 -0.000436187  0.000752836 -0.0218521 0.00188994  0.00579834 -0.0394177 -0.00030148  0.000924066 -0.0205941 0.00261343  0.000672132 -0.0354021 0.00331509  0.00426744 -0.0226406 -0.000593901  0.000558645 -0.0370295 0.00245106  0.00717378 -0.0586231 -0.000212669  -0.000727415 -0.0557469 0.0027523  0.00782165 -0.0800035 -0.00010097  -0.000297695 -0.0537251 0.00384021  -0.00205392 -0.0743582 0.00415707  0.00777167 -0.0567932 -0.000222206  -0.00252452 -0.0766338 0.00303984  0.00753742 -0.103749 -6.86646e-05  -0.0053924 -0.0998178 0.0030663  0.00629944 -0.129473 -9.66787e-05  -0.00465947 -0.0973202 0.00422978  -0.00815454 -0.122369 0.00417745  0.00840053 -0.101433 -1.37091e-05  -0.00903252 -0.124975 0.00304794  0.00403994 -0.156992 -0.00018394  -0.0136209 -0.151914 0.00285876  0.000699937 -0.186333 -0.00032711  -0.0125493 -0.149238 0.00392878  -0.0178903 -0.177995 0.00364292  0.00515527 -0.154459 -0.000162125  -0.0191247 -0.180644 0.00263238  -0.00364488 -0.217184 -0.000498056  -0.0255365 -0.210896 0.00233006  -0.00911701 -0.24967 -0.000708342  -0.0241845 -0.208282 0.00324035  -0.0314449 -0.240239 0.00283968  -0.00231564 -0.21467 -0.000551581  -0.0329229 -0.24274 0.00200534  -0.0155626 -0.283478 -0.000907183  -0.0412059 -0.275921 0.00166821  -0.0231212 -0.318712 -0.00113153  -0.0396711 -0.273503 0.00239813  -0.0488485 -0.308223 0.00196922  -0.014093 -0.28112 -0.00105309  -0.0504499 -0.310486 0.00131273  -0.031609 -0.355099 -0.00132251  -0.0605577 -0.346219 0.00099194  -0.0411531 -0.392712 -0.00153267  -0.0589483 -0.344051 0.00155473  -0.0699542 -0.38114 0.00115001  -0.0300776 -0.352964 -0.00155342  -0.0715861 -0.383143 0.000654459  -0.0515693 -0.43133 -0.00169981  -0.083428 -0.421086 0.000369072  -0.0629712 -0.470998 -0.00188875  -0.0818189 -0.419183 0.000781655  -0.0945354 -0.458315 0.000420332  -0.0500482 -0.429443 -0.00200593  -0.0961285 -0.460058 6.50883e-05  -0.0751793 -0.51153 -0.00202346  -0.109581 -0.499912 -0.000180006  -0.088291 -0.552964 -0.00218105  -0.108032 -0.498261 0.000103951  -0.122312 -0.539151 -0.00020504  -0.0737138 -0.509881 -0.00238538  -0.123822 -0.540657 -0.000441432  -0.102145 -0.595147 -0.0022912  -0.13876 -0.58218 -0.000643969  -0.116818 -0.63809 -0.00242007  -0.137298 -0.580746 -0.000468612  -0.153008 -0.623161 -0.000732183  -0.100763 -0.593708 -0.00269401  -0.154412 -0.624458 -0.000869155  -0.132178 -0.681685 -0.00250793  -0.170703 -0.667418 -0.00103939  -0.148269 -0.72593 -0.00261056  -0.169359 -0.666182 -0.000952363  -0.186359 -0.709909 -0.00116992  -0.130895 -0.680442 -0.00293338  -0.187649 -0.71103 -0.0012306  -0.164983 -0.770731 -0.00267625  -0.20517 -0.755226 -0.00137675  -0.182352 -0.816082 -0.00276327  -0.20394 -0.754167 -0.00135827  -0.222111 -0.799032 -0.0015403  -0.163807 -0.769658 -0.0031153  -0.223284 -0.799989 -0.00153995  -0.200284 -0.861915 -0.00280869  -0.241909 -0.845258 -0.00165904  -0.218805 -0.908209 -0.00287902  -0.2408 -0.844347 -0.00169599  -0.260016 -0.89019 -0.0018537  -0.199228 -0.860987 -0.00325906  -0.261068 -0.891009 -0.00180387  -0.237825 -0.954914 -0.0029161  -0.280688 -0.937199 -0.00190413  -0.257369 -1.00201 -0.00297701  -0.279694 -0.936415 -0.00198722  -0.299849 -0.983099 -0.00212193  -0.236871 -0.954117 -0.00336301  -0.300784 -0.983797 -0.00202918  -0.277352 -1.04945 -0.00300503  -0.321278 -1.03077 -0.00211298  -0.297794 -1.09722 -0.00305486  -0.320394 -1.0301 -0.00223112  -0.341376 -1.07749 -0.00234771  -0.276505 -1.04877 -0.00344574  -0.342201 -1.07809 -0.00222826  -0.318627 -1.14527 -0.00307465  -0.363474 -1.12572 -0.0023042  -0.339859 -1.19359 -0.00311887  -0.362696 -1.12515 -0.0024457  -0.38439 -1.17314 -0.00254488  -0.317877 -1.14469 -0.00350106  -0.385112 -1.17364 -0.00240159  -0.361423 -1.24216 -0.00313807  -0.407054 -1.22183 -0.00246763  -0.383337 -1.29094 -0.00317633  -0.406377 -1.22135 -0.00263226  -0.428684 -1.26984 -0.00271833  -0.360765 -1.24167 -0.00354052  -0.429316 -1.27026 -0.0025605  -0.405534 -1.33991 -0.00318766  -0.451831 -1.31891 -0.00261652  -0.428022 -1.38907 -0.00322211  -0.45124 -1.3185 -0.002792  -0.474077 -1.3674 -0.0028708  -0.404961 -1.33951 -0.00357533  -0.474624 -1.36775 -0.00270307  -0.450754 -1.43837 -0.00323462  -0.497619 -1.41677 -0.00275159  -0.473729 -1.48782 -0.00326526  -0.497114 -1.41644 -0.00293195  -0.520387 -1.46566 -0.00299776  -0.450264 -1.43804 -0.00359666  -0.520852 -1.46594 -0.00282311  -0.4969 -1.53738 -0.00327051  -0.544249 -1.51526 -0.0028702  -0.520271 -1.58705 -0.00330007  -0.543814 -1.51499 -0.00305259  -0.567446 -1.56447 -0.0031147  -0.496486 -1.5371 -0.00361061  -0.567835 -1.5647 -0.00294375  -0.543805 -1.63679 -0.00330508  -0.591556 -1.61424 -0.00298142  -0.567499 -1.68661 -0.00333428  -0.591192 -1.61402 -0.00316584  -0.615108 -1.6637 -0.00321722  -0.54346 -1.63657 -0.00362217  -0.615426 -1.66387 -0.00304532  -0.591314 -1.73649 -0.00333643  -0.639393 -1.71358 -0.00307953  -0.615254 -1.78642 -0.00335836  -0.639099 -1.7134 -0.00325894  -0.663221 -1.76322 -0.00330174  -0.591029 -1.73632 -0.0036267  -0.663482 -1.76335 -0.00313485  -0.639278 -1.83638 -0.00336719  -0.687629 -1.81317 -0.00316763  -0.663396 -1.88636 -0.0033896  -0.687394 -1.81303 -0.00333881  -0.71167 -1.86292 -0.0033747  -0.639047 -1.83625 -0.00362682  -0.711876 -1.86301 -0.00322473  -0.687578 -1.93635 -0.00339687  -0.736154 -1.91289 -0.00325155  -0.711818 -1.98633 -0.00342023  -0.735965 -1.9128 -0.00341201  -0.760339 -1.96272 -0.00344312  -0.687399 -1.93626 -0.0036304  -0.76049 -1.96278 -0.00329757  -0.736092 -2.03631 -0.00342596  -0.784845 -2.01268 -0.00332415  -0.760405 -2.08628 -0.00344539  -0.784704 -2.01261 -0.00347435  -0.809126 -2.06253 -0.00349641  -0.735952 -2.03626 -0.00363255  -0.809243 -2.06256 -0.00336862  -0.784732 -2.13621 -0.00345528  -0.833626 -2.11243 -0.00339639  -0.809074 -2.18611 -0.0034796  -0.833522 -2.11239 -0.00352156  -0.857955 -2.16227 -0.00354528  -0.784631 -2.13618 -0.00362945  -0.858032 -2.16228 -0.00343406  -0.833399 -2.23598 -0.00348198  -0.882405 -2.21209 -0.00345063  -0.857745 -2.2858 -0.0035063  -0.882345 -2.21208 -0.00356722  -0.906748 -2.26189 -0.003582  -0.833337 -2.23597 -0.0036273  -0.906794 -2.26188 -0.00349021  -0.882051 -2.33556 -0.0035131  -0.931135 -2.31162 -0.00351012  -0.906347 -2.38527 -0.00353849  -0.931089 -2.31161 -0.00360322  -0.955447 -2.36133 -0.00361276  -0.882005 -2.33558 -0.0036236  -0.955471 -2.3613 -0.00354338  -0.930604 -2.43493 -0.00354266  -0.979755 -2.41094 -0.00356197  -0.954845 -2.48451 -0.00356746  -0.979732 -2.41095 -0.00363076  -1.00402 -2.46056 -0.00363803  -0.930579 -2.43495 -0.00363076  -1.00402 -2.46051 -0.00359297  -0.979033 -2.53403 -0.00358176  -1.02823 -2.51003 -0.00361371  -1.00319 -2.58349 -0.0036093  -1.02822 -2.51005 -0.00365853  -1.05241 -2.55952 -0.00366902  -0.979019 -2.53408 -0.0036366  -1.05241 -2.55947 -0.00364947  -1.02727 -2.63285 -0.00361967  -1.07651 -2.60884 -0.00366712  -1.05132 -2.68214 -0.00363982  -1.0765 -2.60887 -0.00369179  -1.10058 -2.65817 -0.0036999  -1.02727 -2.63289 -0.00365222  -1.10059 -2.65813 -0.00369608  0.00176737 -0.00605595 -0.00209177  0.00131151 -0.00443679 -0.00109899  0.00570261 -0.0159093 -0.00358808  0.0013476 -0.00411719 -0.00169373  0.00428227 -0.0123456 -0.00293148  0 0 0  0 0 0  0.00180122 -0.00571793 -0.00300825  0 0 0  0.00425497 -0.0130129 -0.00199425  0.0112553 -0.0308335 -0.00486279  0.00780706 -0.0268782 -0.00269949  0.017506 -0.0477817 -0.00553584  0.00819996 -0.025791 -0.00379407  0.0123489 -0.0417076 -0.00409603  0.0117342 -0.029752 -0.00672865  0.0118341 -0.0431243 -0.00298071  0.0234303 -0.0682135 -0.00593531  0.0153714 -0.0629181 -0.00316978  0.0288969 -0.0904721 -0.00611162  0.0161214 -0.0611326 -0.00425744  0.0192149 -0.0827171 -0.0042218  0.0243259 -0.0664676 -0.00800431  0.0183921 -0.0847344 -0.00317156  0.0332809 -0.115128 -0.00614369  0.0204231 -0.108936 -0.00319159  0.0366137 -0.141714 -0.00615191  0.0213894 -0.106681 -0.00420141  0.0225108 -0.132735 -0.00416374  0.0343645 -0.112941 -0.00818658  0.0214556 -0.13511 -0.00317776  0.0387194 -0.170135 -0.00610507  0.0213916 -0.163097 -0.00320578  0.039547 -0.200437 -0.00608742  0.022539 -0.160622 -0.00417972  0.0213926 -0.190456 -0.00421131  0.0399182 -0.16774 -0.00807774  0.0201533 -0.192939 -0.00324798  0.0391635 -0.232288 -0.00602925  0.017795 -0.224317 -0.00330484  0.0374386 -0.265844 -0.00601494  0.0190932 -0.221836 -0.00427353  0.0156037 -0.254949 -0.00435483  0.0404506 -0.229881 -0.00793767  0.0142289 -0.257354 -0.00339079  0.034547 -0.300762 -0.00596571  0.00955927 -0.291744 -0.00346196  0.0303454 -0.337165 -0.0059514  0.0109582 -0.289392 -0.00443661  0.00515091 -0.325347 -0.0045321  0.0358989 -0.298472 -0.00780451  0.00371295 -0.327574 -0.00355995  0.0250288 -0.374752 -0.00589526  -0.00320214 -0.364585 -0.0036248  0.0184605 -0.413602 -0.00587559  -0.00176036 -0.362434 -0.00460482  -0.00977594 -0.40082 -0.00469232  0.0263975 -0.372641 -0.0076648  -0.0112252 -0.402829 -0.00371718  0.0108508 -0.45347 -0.0058167  -0.020255 -0.442095 -0.00377011  0.00208139 -0.494405 -0.00578392  -0.018823 -0.440172 -0.00474429  -0.0288988 -0.480629 -0.00481391  0.0122021 -0.451572 -0.00750697  -0.0303152 -0.482408 -0.003847  -0.00765693 -0.53621 -0.00571549  -0.0413023 -0.523595 -0.00387943  -0.0184538 -0.578911 -0.00566876  -0.0399215 -0.521896 -0.00484133  -0.0518982 -0.56411 -0.00488222  -0.00635445 -0.534523 -0.00732088  -0.0532434 -0.565673 -0.00393319  -0.0301434 -0.622345 -0.00558829  -0.0660255 -0.608496 -0.00394523  -0.0427933 -0.666527 -0.00553405  -0.0647296 -0.607005 -0.00488997  -0.0784261 -0.650707 -0.00490582  -0.0289111 -0.620855 -0.00710785  -0.0796795 -0.652072 -0.0039829  -0.05626 -0.711332 -0.0054425  -0.0941031 -0.696287 -0.00398064  -0.0705869 -0.756758 -0.00538063  -0.0928963 -0.694982 -0.00489342  -0.108155 -0.739944 -0.0048877  -0.0551145 -0.710025 -0.00687397  -0.109312 -0.741133 -0.00400186  -0.085654 -0.802703 -0.00528622  -0.125208 -0.78652 -0.00398457  -0.101493 -0.849168 -0.00521779  -0.124105 -0.785384 -0.00485826  -0.140764 -0.831403 -0.0048418  -0.0846051 -0.801565 -0.00662518  -0.141815 -0.832436 -0.00399494  -0.117993 -0.896066 -0.00512052  -0.159037 -0.878813 -0.00397003  -0.13518 -0.943392 -0.00505316  -0.158035 -0.877825 -0.00480294  -0.175954 -0.92474 -0.00477183  -0.117043 -0.895072 -0.00636744  -0.176898 -0.925631 -0.00397348  -0.152969 -0.991075 -0.00495374  -0.195305 -0.972836 -0.00394237  -0.171363 -1.03912 -0.00488317  -0.194405 -0.971981 -0.00472522  -0.213433 -1.01964 -0.004686  -0.152109 -0.990217 -0.00610149  -0.214278 -1.02041 -0.00393653  -0.190271 -1.08745 -0.00479317  -0.233725 -1.0683 -0.00389993  -0.209721 -1.13607 -0.00472152  -0.23293 -1.06757 -0.00463367  -0.252936 -1.11585 -0.00459445  -0.189506 -1.0867 -0.00585008  -0.253683 -1.11651 -0.00389516  -0.229626 -1.18493 -0.00463343  -0.27405 -1.16497 -0.00385857  -0.249998 -1.23401 -0.00456643  -0.273343 -1.16433 -0.00454402  -0.294209 -1.21312 -0.00449848  -0.22895 -1.18428 -0.00560188  -0.294867 -1.21368 -0.00384784  -0.270776 -1.28329 -0.00448203  -0.316038 -1.26261 -0.00381351  -0.291951 -1.33274 -0.00441718  -0.315418 -1.26206 -0.0044421  -0.337018 -1.31125 -0.00439632  -0.270183 -1.28274 -0.00535917  -0.337587 -1.31173 -0.00380051  -0.313468 -1.38234 -0.00433517  -0.359445 -1.36103 -0.00376582  -0.335332 -1.43208 -0.00427997  -0.358913 -1.36056 -0.00434613  -0.381143 -1.41008 -0.00429988  -0.312956 -1.38188 -0.00513101  -0.381632 -1.41048 -0.003757  -0.357485 -1.48193 -0.00420558  -0.404073 -1.46007 -0.00372362  -0.379925 -1.53188 -0.00414908  -0.403617 -1.45968 -0.0042516  -0.426377 -1.50943 -0.00420678  -0.357046 -1.48154 -0.00491762  -0.426792 -1.50976 -0.00371218  -0.402609 -1.5819 -0.00407648  -0.449718 -1.55956 -0.00367463  -0.425537 -1.632 -0.00402546  -0.449334 -1.55924 -0.00415325  -0.472531 -1.60918 -0.00411272  -0.402241 -1.58158 -0.00471342  -0.472876 -1.60945 -0.00366676  -0.448653 -1.68214 -0.0039618  -0.496197 -1.6594 -0.00363719  -0.471975 -1.73232 -0.00391924  -0.495877 -1.65913 -0.00406563  -0.519431 -1.70919 -0.00402427  -0.448346 -1.68187 -0.00451958  -0.519712 -1.7094 -0.00362909  -0.495444 -1.78252 -0.0038625  -0.543349 -1.75945 -0.00360286  -0.519075 -1.83274 -0.00382674  -0.543094 -1.75924 -0.00398588  -0.56692 -1.80936 -0.00394166  -0.495195 -1.78231 -0.00435221  -0.567151 -1.80953 -0.00359762  -0.542822 -1.88296 -0.0037787  -0.591032 -1.85962 -0.00357234  -0.566687 -1.93318 -0.00374603  -0.590818 -1.85945 -0.00390542  -0.614853 -1.90959 -0.00386989  -0.542622 -1.8828 -0.00419891  -0.615033 -1.90972 -0.00357258  -0.590633 -1.98337 -0.00369394  -0.639089 -1.95982 -0.00355065  -0.614668 -2.03354 -0.0036701  -0.638928 -1.95968 -0.00383639  -0.663113 -2.00981 -0.00380182  -0.59048 -1.98325 -0.00405562  -0.663237 -2.0099 -0.00354934  -0.638756 -2.08368 -0.00363433  -0.687414 -2.05996 -0.00353324  -0.662909 -2.13378 -0.00361717  -0.687297 -2.05987 -0.00377548  -0.711559 -2.10994 -0.00374866  -0.638646 -2.0836 -0.00393546  -0.711657 -2.11 -0.0035398  -0.687086 -2.18383 -0.00358701  -0.735904 -2.16 -0.00352538  -0.711299 -2.23383 -0.00357437  -0.735815 -2.15993 -0.00372291  -0.760123 -2.20992 -0.00369668  -0.687008 -2.18378 -0.00383031  -0.760187 -2.20995 -0.00353277  -0.735515 -2.28378 -0.00355041  -0.784456 -2.25986 -0.00352108  -0.759758 -2.33366 -0.00354731  -0.784405 -2.25982 -0.00368214  -0.808719 -2.3097 -0.00365555  -0.735466 -2.28375 -0.00374389  -0.808754 -2.30971 -0.00352991  -0.783973 -2.38348 -0.00352931  -0.833012 -2.3595 -0.0035274  -0.808196 -2.43323 -0.00352454  -0.832984 -2.35948 -0.00364602  -0.857269 -2.40925 -0.00362766  -0.783945 -2.38348 -0.00367427  -0.857281 -2.40923 -0.00354016  -0.832386 -2.4829 -0.00352299  -0.881493 -2.4589 -0.00353622  -0.856567 -2.53251 -0.00352931  -0.88149 -2.4589 -0.00362337  -0.90572 -2.50852 -0.0036056  -0.832376 -2.48292 -0.00362086  -0.905717 -2.50849 -0.00354993  -0.880713 -2.58204 -0.00352645  -0.929879 -2.55802 -0.00355792  -0.904828 -2.63149 -0.00353312  -0.929878 -2.55803 -0.00360501  -0.954032 -2.6075 -0.00359082  -0.880712 -2.58206 -0.0035826  -0.954027 -2.60747 -0.00357425  -0.928893 -2.68087 -0.00353289  -0.978084 -2.65684 -0.00357759  -0.95291 -2.73017 -0.00354624  -0.978085 -2.65686 -0.00359476  -1.00211 -2.70617 -0.00357616  -0.928891 -2.68089 -0.00355327  -1.00212 -2.70614 -0.00359392  0.00316998 -0.0112769 -0.00373638  0.00264605 -0.00828403 -0.00278473  0.010455 -0.0244949 -0.00650048  0.00269412 -0.00798905 -0.00414121  0.00846212 -0.0190246 -0.00724733  0 0 0  0 0 0  0.003241 -0.0108711 -0.00532031  0 0 0  0.00828649 -0.019709 -0.00508308  0.0199929 -0.0422727 -0.008829  0.0156169 -0.035966 -0.0069052  0.0309997 -0.0609 -0.0102563  0.0162197 -0.03485 -0.0096668  0.02483 -0.0524113 -0.0109159  0.0206504 -0.0410057 -0.0122041  0.0239262 -0.0538127 -0.00797355  0.0414819 -0.0823444 -0.0111371  0.0322187 -0.074702 -0.00864267  0.0515248 -0.105443 -0.0116405  0.0332541 -0.072944 -0.0117289  0.0409842 -0.0955071 -0.0120146  0.0426196 -0.080504 -0.0150753  0.0398289 -0.0974553 -0.00895059  0.0603471 -0.130648 -0.0117918  0.0465468 -0.122388 -0.00906146  0.0679117 -0.157893 -0.0118451  0.0477189 -0.12021 -0.0121064  0.0532008 -0.147071 -0.0120398  0.0616072 -0.128469 -0.015792  0.0519873 -0.149346 -0.00905704  0.0741272 -0.186954 -0.0117121  0.0562094 -0.17811 -0.00897157  0.078846 -0.218008 -0.0115787  0.0574295 -0.175728 -0.0118937  0.0602723 -0.206419 -0.0117272  0.0753924 -0.184624 -0.0155921  0.0590186 -0.208801 -0.00887167  0.0822085 -0.250693 -0.0113429  0.0605243 -0.241089 -0.00873327  0.0840465 -0.285159 -0.0111412  0.0617892 -0.238693 -0.0115167  0.0619197 -0.272774 -0.0113231  0.0834689 -0.248359 -0.0150418  0.0606317 -0.275105 -0.00860453  0.0845478 -0.321063 -0.0108761  0.0594377 -0.310535 -0.00844932  0.0835676 -0.358497 -0.0106477  0.0607319 -0.30824 -0.0110934  0.0581931 -0.345266 -0.0108931  0.085806 -0.318825 -0.0143685  0.0568911 -0.347456 -0.00831926  0.0813066 -0.397171 -0.0103757  0.0530947 -0.385603 -0.0081557  0.0776393 -0.437142 -0.0101428  0.054392 -0.383479 -0.0106591  0.0493102 -0.423019 -0.0104523  0.0825493 -0.395094 -0.0136561  0.0480182 -0.425019 -0.00802338  0.0727659 -0.47816 -0.00987053  0.0417675 -0.465475 -0.00785339  0.0665901 -0.520255 -0.00963092  0.0430428 -0.463552 -0.0102135  0.0355755 -0.505203 -0.0100007  0.0739819 -0.476271 -0.0129333  0.0343237 -0.506997 -0.00771642  0.059279 -0.563232 -0.00936139  0.0257902 -0.549402 -0.00754571  0.0507727 -0.607097 -0.00912666  0.0270166 -0.547678 -0.00975502  0.01735 -0.591095 -0.00953865  0.06045 -0.561534 -0.0122089  0.0161579 -0.592693 -0.00740731  0.0412321 -0.651688 -0.00885892  0.00553584 -0.636719 -0.00723243  0.0306028 -0.69701 -0.0086273  0.00669515 -0.635185 -0.00929332  -0.00497437 -0.680067 -0.00906992  0.0423362 -0.650177 -0.0114979  -0.00609148 -0.681478 -0.00708842  0.0190294 -0.742928 -0.00836945  -0.0186138 -0.726851 -0.00691211  0.00646698 -0.789448 -0.00814259  -0.0175375 -0.7255 -0.00882757  -0.03102 -0.771595 -0.00860429  0.0200597 -0.741593 -0.0108008  -0.0320534 -0.772833 -0.00676882  -0.0069375 -0.83645 -0.00788927  -0.046286 -0.819319 -0.00659132  -0.0212287 -0.883942 -0.00766957  -0.0452976 -0.818131 -0.00836265  -0.060406 -0.865219 -0.00814116  -0.00598586 -0.835276 -0.010123  -0.0613517 -0.866307 -0.00645137  -0.0362785 -0.931823 -0.00742888  -0.0771272 -0.913708 -0.0062834  -0.0521199 -0.980103 -0.0072242  -0.076226 -0.912665 -0.00790918  -0.0927922 -0.96057 -0.00769162  -0.0354109 -0.930795 -0.00946701  -0.0936452 -0.961519 -0.00614429  -0.0686355 -1.0287 -0.00699341  -0.110791 -1.00967 -0.00597799  -0.0858557 -1.0776 -0.00679433  -0.109981 -1.00875 -0.0074662  -0.127841 -1.05733 -0.00725973  -0.0678573 -1.02779 -0.00884795  -0.128597 -1.05815 -0.00584507  -0.103667 -1.12675 -0.00657868  -0.146961 -1.1069 -0.00568962  -0.122103 -1.17616 -0.00639045  -0.146242 -1.10611 -0.0070461  -0.165232 -1.15521 -0.00684679  -0.102974 -1.12597 -0.00825191  -0.165908 -1.15592 -0.00556302  -0.141053 -1.22575 -0.00618505  -0.185331 -1.20516 -0.00541425  -0.16055 -1.27554 -0.00601172  -0.184696 -1.20446 -0.00664294  -0.204681 -1.25398 -0.0064528  -0.140437 -1.22506 -0.00769532  -0.205275 -1.2546 -0.00529766  -0.180492 -1.32546 -0.00582266  -0.225629 -1.30421 -0.00515711  -0.200916 -1.37553 -0.00565994  -0.225071 -1.30361 -0.00626123  -0.245923 -1.35345 -0.00608194  -0.179954 -1.32487 -0.00717306  -0.246437 -1.35398 -0.00504839  -0.221725 -1.4257 -0.0054816  -0.267594 -1.40387 -0.00491428  -0.242941 -1.47598 -0.00533438  -0.267114 -1.40336 -0.00590134  -0.288704 -1.45344 -0.00573254  -0.221259 -1.42519 -0.00668216  -0.289142 -1.45389 -0.0048157  -0.264482 -1.5263 -0.00517225  -0.310984 -1.50399 -0.00469053  -0.286374 -1.57671 -0.00503552  -0.310578 -1.50355 -0.00556707  -0.332795 -1.55379 -0.00541174  -0.264089 -1.52588 -0.00623012  -0.333156 -1.55417 -0.00459862  -0.308541 -1.62715 -0.00488114  -0.355576 -1.60441 -0.00448382  -0.331002 -1.67762 -0.00476015  -0.355234 -1.60404 -0.00525463  -0.377977 -1.65438 -0.00510919  -0.308209 -1.62679 -0.00580668  -0.378282 -1.6547 -0.00439882  -0.353685 -1.72811 -0.00462317  -0.401176 -1.70502 -0.00429666  -0.376614 -1.7786 -0.00451005  -0.400894 -1.70471 -0.00496638  -0.424064 -1.7551 -0.00483453  -0.353412 -1.72781 -0.00542545  -0.42431 -1.75536 -0.0042181  -0.399717 -1.82908 -0.00438464  -0.447591 -1.8057 -0.00412905  -0.423023 -1.87956 -0.00428462  -0.447365 -1.80545 -0.00470853  -0.470872 -1.85586 -0.00458813  -0.399498 -1.82884 -0.00507092  -0.47107 -1.85606 -0.00406122  -0.446465 -1.92999 -0.00417495  -0.494659 -1.9064 -0.00398397  -0.470065 -1.98041 -0.00408888  -0.494476 -1.90619 -0.00447237  -0.518247 -1.95656 -0.00436509  -0.446293 -1.92981 -0.00475502  -0.5184 -1.95671 -0.00392544  -0.493771 -2.03077 -0.00399804  -0.542212 -2.007 -0.00385177  -0.517591 -2.08109 -0.00392556  -0.542081 -2.00684 -0.00426352  -0.566044 -2.05714 -0.00416505  -0.493637 -2.03063 -0.00447869  -0.56615 -2.05725 -0.00380301  -0.541479 -2.13135 -0.00384021  -0.590135 -2.10746 -0.00374472  -0.565459 -2.18156 -0.00378203  -0.590034 -2.10734 -0.00407636  -0.614137 -2.15754 -0.00399697  -0.541386 -2.13125 -0.0042311  -0.614209 -2.15761 -0.00370705  -0.589478 -2.2317 -0.00371385  -0.638299 -2.20771 -0.00365555  -0.613561 -2.28177 -0.00366497  -0.638236 -2.20763 -0.00392556  -0.662408 -2.25771 -0.00385189  -0.589423 -2.23163 -0.00402689  -0.662452 -2.25776 -0.00362337  -0.637648 -2.33176 -0.00361478  -0.686597 -2.30773 -0.00358808  -0.661779 -2.38169 -0.00358236  -0.68656 -2.30767 -0.00378883  -0.710774 -2.35762 -0.00373447  -0.637617 -2.33173 -0.00385344  -0.710792 -2.35764 -0.00357258  -0.685908 -2.43153 -0.00354123  -0.734958 -2.40747 -0.00354159  -0.71005 -2.4813 -0.00351965  -0.734945 -2.40744 -0.00369346  -0.759149 -2.45723 -0.0036422  -0.685897 -2.43152 -0.0037154  -0.759148 -2.45723 -0.00353169  -0.734178 -2.53098 -0.00349939  -0.783301 -2.50691 -0.00351572  -0.758302 -2.58059 -0.00348508  -0.7833 -2.5069 -0.00360954  -0.807472 -2.55653 -0.00357497  -0.734178 -2.53098 -0.00361121  -0.807462 -2.55652 -0.00351334  -0.782391 -2.63011 -0.00346851  -0.831567 -2.60605 -0.00349987  -0.806478 -2.67956 -0.00346673  -0.831578 -2.60604 -0.00355339  -0.855697 -2.65552 -0.00352442  -0.782399 -2.63012 -0.00353241  -0.855675 -2.6555 -0.00350654  -0.830519 -2.72893 -0.0034554  -0.87972 -2.70488 -0.00349748  -0.854545 -2.77825 -0.00345147  -0.879729 -2.70488 -0.00350666  -0.903758 -2.75421 -0.00348616  -0.830532 -2.72895 -0.00347412  -0.90373 -2.7542 -0.0035032  0.00518192 -0.0207423 -0.00518489  0.00465216 -0.0151458 -0.00426888  0.018132 -0.0390293 -0.00903988  0.00468372 -0.0148258 -0.00629306  0.0142513 -0.0301607 -0.01096  0 0 0  0 0 0  0.00533991 -0.0201763 -0.00724697  0 0 0  0.0138801 -0.0310075 -0.00777292  0.0324737 -0.0591173 -0.0122733  0.0258127 -0.0498773 -0.0105907  0.0482875 -0.0793875 -0.0144237  0.0265833 -0.0485278 -0.0147681  0.0399024 -0.0679445 -0.0169349  0.0332031 -0.0575282 -0.0169276  0.0386819 -0.0695356 -0.0124004  0.0633204 -0.100903 -0.0158157  0.0517938 -0.0910301 -0.0135683  0.0773698 -0.124486 -0.0166659  0.0530218 -0.0891156 -0.0184292  0.0651467 -0.112455 -0.0191202  0.064577 -0.0988659 -0.0214504  0.0637658 -0.114498 -0.0142221  0.0902922 -0.149833 -0.0170033  0.0748334 -0.139801 -0.0144835  0.101646 -0.177496 -0.0171337  0.0761387 -0.137575 -0.0194051  0.0856681 -0.165019 -0.019405  0.0916604 -0.147591 -0.0228335  0.0843483 -0.167291 -0.0145446  0.111642 -0.207071 -0.016976  0.092514 -0.196629 -0.0144069  0.119971 -0.238758 -0.0167618  0.0937882 -0.194278 -0.0191818  0.100372 -0.225669 -0.0188756  0.112964 -0.204758 -0.0226674  0.0991066 -0.228001 -0.0142124  0.126827 -0.272233 -0.0163972  0.104222 -0.261091 -0.0139191  0.132034 -0.307536 -0.0160365  0.105467 -0.258748 -0.0184588  0.109029 -0.293696 -0.0180372  0.128096 -0.269949 -0.021818  0.107799 -0.295969 -0.0136209  0.135743 -0.344399 -0.0155959  0.1099 -0.332358 -0.0132705  0.137846 -0.382813 -0.015182  0.111124 -0.330115 -0.0175456  0.111717 -0.368136 -0.0170814  0.136968 -0.34222 -0.020692  0.110503 -0.370279 -0.0129433  0.138499 -0.422542 -0.0147161  0.109697 -0.409486 -0.0125723  0.137623 -0.463576 -0.014282  0.110897 -0.407401 -0.0165702  0.108645 -0.44802 -0.0160897  0.139687 -0.420521 -0.0194722  0.10746 -0.449985 -0.0122325  0.135374 -0.505692 -0.0138184  0.103895 -0.491558 -0.0118642  0.131689 -0.548887 -0.0133916  0.105065 -0.48966 -0.0155822  0.100138 -0.532427 -0.0151005  0.136525 -0.503847 -0.0182246  0.0989908 -0.534207 -0.0115279  0.126737 -0.592961 -0.0129335  0.0928596 -0.577738 -0.0111617  0.12045 -0.637922 -0.0125121  0.0939821 -0.576025 -0.0146028  0.0865747 -0.620563 -0.0141336  0.127837 -0.591299 -0.0170008  0.0854846 -0.622155 -0.0108317  0.113002 -0.683592 -0.0120752  0.0769931 -0.667293 -0.0104792  0.104333 -0.72998 -0.01167  0.0780503 -0.665763 -0.0136539  0.068377 -0.711742 -0.0131944  0.114042 -0.682101 -0.0158132  0.0673575 -0.713156 -0.0101597  0.0946107 -0.77693 -0.0112475  0.0567148 -0.7596 -0.00981998  0.0837814 -0.824465 -0.0108603  0.0577025 -0.758239 -0.0127281  0.0459756 -0.805384 -0.012287  0.0955834 -0.775609 -0.014666  0.0450277 -0.806636 -0.00951362  0.072009 -0.87244 -0.0104535  0.0324423 -0.854136 -0.00918186  0.0592299 -0.920883 -0.010087  0.0333537 -0.852929 -0.0118426  0.0197868 -0.901006 -0.0114163  0.0729058 -0.871271 -0.0135694  0.0189134 -0.902111 -0.00888956  0.0456185 -0.969664 -0.00970709  0.00458658 -0.950451 -0.00857842  0.0311009 -1.01882 -0.00936377  0.00541818 -0.94939 -0.0109946  -0.00980103 -0.99821 -0.0105978  0.0464387 -0.968634 -0.0125319  -0.0105866 -0.999179 -0.00830185  0.0158437 -1.06823 -0.00900626  -0.0264655 -1.04819 -0.008008  -0.000219822 -1.11793 -0.00868273  -0.0257188 -1.04726 -0.0101986  -0.0424048 -1.09666 -0.00981486  0.0165879 -1.06732 -0.0115554  -0.0431055 -1.09751 -0.00774813  -0.0169308 -1.16782 -0.00834286  -0.0603672 -1.14704 -0.00746882  -0.0343554 -1.21793 -0.00803769  -0.0596982 -1.14622 -0.00943995  -0.0776714 -1.19606 -0.00907993  -0.0162677 -1.16703 -0.0106329  -0.078297 -1.1968 -0.00722337  -0.0523522 -1.26818 -0.00772297  -0.0967624 -1.24673 -0.00696087  -0.0709779 -1.31859 -0.0074445  -0.0961744 -1.24602 -0.00872755  -0.115279 -1.2962 -0.00839221  -0.0517678 -1.26749 -0.00977087  -0.115827 -1.29684 -0.00673378  -0.0900936 -1.36909 -0.00715208  -0.13535 -1.34706 -0.00649405  -0.109761 -1.41971 -0.00689101  -0.134834 -1.34644 -0.0080682  -0.154923 -1.39686 -0.0077529  -0.0895784 -1.36849 -0.00896907  -0.1554 -1.39741 -0.00628424  -0.12985 -1.47037 -0.00661814  -0.175841 -1.44784 -0.00605619  -0.150421 -1.52111 -0.00637865  -0.175397 -1.4473 -0.00745106  -0.196334 -1.49789 -0.0071547  -0.129402 -1.46986 -0.008219  -0.196739 -1.49836 -0.00586164  -0.171347 -1.57186 -0.00613129  -0.217963 -1.54891 -0.00565362  -0.192692 -1.62265 -0.00591111  -0.21759 -1.54845 -0.00687528  -0.239251 -1.59912 -0.00660563  -0.170969 -1.57142 -0.00753093  -0.239586 -1.59951 -0.00547779  -0.214328 -1.67344 -0.00568104  -0.261487 -1.65014 -0.00528896  -0.23632 -1.72424 -0.00548494  -0.26117 -1.64974 -0.00634837  -0.28344 -1.70044 -0.00610018  -0.214013 -1.67307 -0.00689662  -0.283721 -1.70078 -0.00513005  -0.258559 -1.775 -0.00527143  -0.306173 -1.75141 -0.00494921  -0.281104 -1.82575 -0.00509596  -0.305916 -1.75108 -0.00586343  -0.328687 -1.80177 -0.00563514  -0.258308 -1.7747 -0.00631785  -0.328911 -1.80204 -0.00480545  -0.303832 -1.87645 -0.00490463  -0.351823 -1.85264 -0.00465047  -0.326817 -1.92712 -0.00474405  -0.351621 -1.85237 -0.00542796  -0.374801 -1.903 -0.00522208  -0.303626 -1.87621 -0.00578654  -0.374979 -1.90322 -0.00452626  -0.349951 -1.97772 -0.00457752  -0.398254 -1.95375 -0.00438619  -0.37329 -2.02829 -0.00443947  -0.398097 -1.95353 -0.00503123  -0.421599 -2.00407 -0.00484633  -0.3498 -1.97753 -0.00531554  -0.421733 -2.00424 -0.00427091  -0.39674 -2.07876 -0.00429058  -0.445302 -2.05467 -0.00415111  -0.420353 -2.12919 -0.00416756  -0.44518 -2.0545 -0.00467861  -0.468935 -2.10492 -0.00452185  -0.396627 -2.07862 -0.00489354  -0.469024 -2.10505 -0.00405145  -0.444045 -2.17952 -0.00403845  -0.492806 -2.15535 -0.00395012  -0.46786 -2.22978 -0.00394261  -0.492724 -2.15522 -0.00437784  -0.516653 -2.20551 -0.00423634  -0.443962 -2.17941 -0.00452089  -0.516708 -2.2056 -0.00387073  -0.491724 -2.27995 -0.00383627  -0.540641 -2.25576 -0.00378084  -0.51568 -2.33005 -0.00375295  -0.540596 -2.25567 -0.00411296  -0.564637 -2.30579 -0.00399482  -0.491675 -2.27989 -0.00420952  -0.564667 -2.30585 -0.00371802  -0.539657 -2.38005 -0.00367165  -0.588694 -2.35585 -0.00364769  -0.563697 -2.42998 -0.00360835  -0.588673 -2.3558 -0.00389576  -0.612779 -2.40576 -0.00380397  -0.539634 -2.38002 -0.00394928  -0.612783 -2.40578 -0.00360751  -0.587734 -2.47981 -0.00354779  -0.636856 -2.45563 -0.0035516  -0.611812 -2.52956 -0.00350928  -0.636853 -2.45559 -0.00372672  -0.660981 -2.50538 -0.00365674  -0.587733 -2.47979 -0.00374413  -0.660972 -2.50539 -0.00352216  -0.635875 -2.57922 -0.0034622  -0.685053 -2.55507 -0.00348258  -0.659945 -2.6288 -0.00344121  -0.685065 -2.55504 -0.0035969  -0.709182 -2.60467 -0.00354409  -0.635881 -2.57922 -0.00359368  -0.709158 -2.60466 -0.00346971  -0.68399 -2.67829 -0.0034163  -0.733219 -2.65417 -0.00344372  -0.708056 -2.72772 -0.00340235  -0.733242 -2.65416 -0.00350034  -0.757331 -2.70362 -0.00346065  -0.684012 -2.67831 -0.00348568  -0.757299 -2.70361 -0.00343788  -0.732094 -2.77709 -0.00338507  -0.781331 -2.75299 -0.00342  -0.756143 -2.82642 -0.0033766  -0.781358 -2.75298 -0.00342858  -0.80538 -2.80233 -0.00338626  -0.732115 -2.7771 -0.00340223  -0.805354 -2.80232 -0.00341499  0.00877394 -0.0378657 -0.00667906  0.00808566 -0.0276598 -0.00564587  0.0328123 -0.0647221 -0.0113798  0.00803553 -0.0273113 -0.00822186  0.0234528 -0.0494657 -0.01406  0 0 0  0 0 0  0.00861288 -0.037172 -0.0092603  0 0 0  0.0229123 -0.0505979 -0.0100975  0.0536721 -0.0816545 -0.0154202  0.0412086 -0.0697196 -0.013878  0.0710358 -0.102517 -0.0182618  0.04194 -0.0679946 -0.019154  0.0597272 -0.0885633 -0.0222598  0.0536469 -0.080198 -0.0216361  0.0584159 -0.0905448 -0.0163753  0.0900555 -0.122914 -0.0201161  0.075882 -0.111581 -0.0180382  0.107081 -0.14633 -0.0213046  0.0771129 -0.10938 -0.0244856  0.093163 -0.132875 -0.0256275  0.0912459 -0.120767 -0.0275478  0.0916979 -0.135132 -0.0190443  0.123614 -0.171882 -0.0217766  0.106479 -0.160566 -0.0194737  0.138516 -0.199809 -0.0220045  0.107855 -0.158208 -0.0261662  0.1211 -0.186013 -0.0262555  0.125071 -0.169521 -0.0294163  0.119698 -0.188344 -0.0196266  0.152015 -0.230076 -0.0217981  0.131425 -0.218246 -0.0194613  0.163816 -0.26241 -0.0215536  0.132756 -0.215873 -0.0260084  0.142854 -0.247931 -0.0256001  0.15343 -0.227712 -0.0292397  0.141541 -0.250233 -0.0192071  0.173998 -0.296785 -0.0210545  0.150036 -0.284146 -0.0187887  0.182408 -0.332963 -0.0205954  0.151302 -0.281842 -0.025027  0.15814 -0.317664 -0.0243982  0.17533 -0.294507 -0.0281253  0.156884 -0.319869 -0.0183563  0.189201 -0.37083 -0.0199891  0.162119 -0.357228 -0.0178399  0.194217 -0.410251 -0.0194371  0.163342 -0.355052 -0.023701  0.166937 -0.394075 -0.0229919  0.190472 -0.368699 -0.0266231  0.165724 -0.396135 -0.0173436  0.197693 -0.451045 -0.0187883  0.167771 -0.436395 -0.0167937  0.199436 -0.49314 -0.0182031  0.168957 -0.434378 -0.0222501  0.169421 -0.476066 -0.0215102  0.198915 -0.449081 -0.024963  0.168248 -0.477952 -0.0162696  0.199732 -0.536326 -0.0175599  0.167256 -0.520609 -0.0157214  0.198385 -0.580595 -0.0169772  0.168406 -0.518774 -0.0207721  0.165915 -0.562633 -0.0200415  0.200919 -0.534548 -0.0232639  0.164785 -0.564337 -0.0152047  0.195719 -0.625724 -0.0163442  0.160959 -0.608947 -0.0146683  0.191513 -0.671737 -0.0157701  0.162058 -0.607295 -0.0193174  0.156828 -0.652907 -0.0186023  0.19685 -0.624134 -0.0215912  0.155753 -0.654438 -0.0141631  0.1861 -0.718419 -0.0151587  0.149312 -0.70062 -0.0136398  0.179263 -0.765815 -0.0146129  0.150347 -0.699137 -0.0179021  0.142603 -0.746155 -0.0172153  0.187171 -0.717 -0.0199648  0.141598 -0.747518 -0.013157  0.171355 -0.813718 -0.0140258  0.132769 -0.794955 -0.0126559  0.162133 -0.862198 -0.0135019  0.13374 -0.793637 -0.0165441  0.123717 -0.841764 -0.0158892  0.172357 -0.812465 -0.0184036  0.122777 -0.84297 -0.0121961  0.151967 -0.911053 -0.0129515  0.111794 -0.891395 -0.0117226  0.140602 -0.960375 -0.0124527  0.112693 -0.890229 -0.0152535  0.100617 -0.939221 -0.0146307  0.152895 -0.90995 -0.0169227  0.0997561 -0.940287 -0.0112803  0.12841 -1.00996 -0.0119267  0.08684 -0.989481 -0.0108328  0.115132 -1.05991 -0.011463  0.0876625 -0.988449 -0.0140284  0.073752 -1.03811 -0.0134456  0.129259 -1.00899 -0.0155188  0.0729734 -1.03904 -0.0104233  0.101133 -1.11005 -0.0109665  0.0583282 -1.08883 -0.0100015  0.0861422 -1.16047 -0.0105313  0.0590665 -1.08792 -0.0128789  0.0435288 -1.13808 -0.0123254  0.101898 -1.1092 -0.0141977  0.0428329 -1.1389 -0.00961435  0.070529 -1.211 -0.0100754  0.0266529 -1.18912 -0.00922048  0.0540407 -1.26175 -0.00966763  0.0273166 -1.18832 -0.0117977  0.0103402 -1.23885 -0.0112828  0.071219 -1.21027 -0.0129607  0.00972199 -1.23956 -0.00885963  0.0370133 -1.31256 -0.00923753  -0.00780702 -1.2901 -0.00849187  0.0191934 -1.36353 -0.00885487  -0.0072186 -1.28941 -0.0107864  -0.0254581 -1.34018 -0.0103036  0.0376239 -1.31193 -0.0118077  -0.0260046 -1.3408 -0.00815558  0.000918627 -1.41451 -0.00845921  -0.0447152 -1.39155 -0.00781596  -0.0180473 -1.4656 -0.00810587  -0.0441968 -1.39094 -0.00984919  -0.0635393 -1.44188 -0.00940049  0.00146031 -1.41396 -0.010733  -0.0640094 -1.44241 -0.00750422  -0.0374041 -1.51666 -0.00773942  -0.083746 -1.49328 -0.00718522  -0.0573771 -1.5678 -0.00741231  -0.083302 -1.49277 -0.00897157  -0.103593 -1.54378 -0.00855803  -0.0369356 -1.5162 -0.00973201  -0.103998 -1.54423 -0.00690186  -0.0776739 -1.61888 -0.00708032  -0.12462 -1.59516 -0.00661278  -0.0985057 -1.67 -0.00678647  -0.124239 -1.59472 -0.00816941  -0.14535 -1.64575 -0.0077883  -0.0772774 -1.61849 -0.0088166  -0.145692 -1.64613 -0.00635397  -0.119602 -1.72105 -0.00647783  -0.167068 -1.69705 -0.00608277  -0.141168 -1.7721 -0.0061965  -0.166755 -1.69668 -0.00742745  -0.188557 -1.74768 -0.00707519  -0.119268 -1.72073 -0.00797069  -0.188836 -1.74799 -0.00584209  -0.162944 -1.82307 -0.00591695  -0.210853 -1.79887 -0.00560105  -0.185132 -1.87401 -0.00567305  -0.210597 -1.79855 -0.00675023  -0.232975 -1.84947 -0.00642824  -0.162672 -1.8228 -0.00719678  -0.2332 -1.84973 -0.00538957  -0.207475 -1.92485 -0.00542092  -0.255747 -1.9005 -0.00516856  -0.230176 -1.97566 -0.00520694  -0.255547 -1.90025 -0.0061363  -0.278402 -1.95105 -0.00584948  -0.207256 -1.92464 -0.00649571  -0.278576 -1.95125 -0.00497997  -0.252987 -2.02635 -0.00497282  -0.301561 -2.00191 -0.00478446  -0.276106 -2.07699 -0.00478423  -0.301405 -2.0017 -0.00558531  -0.324644 -2.05236 -0.00532186  -0.252818 -2.02619 -0.00586247  -0.324774 -2.05252 -0.00461471  -0.299296 -2.12752 -0.00458491  -0.348096 -2.10303 -0.0044409  -0.322737 -2.17798 -0.00441837  -0.347989 -2.10287 -0.00509453  -0.371527 -2.15336 -0.00486434  -0.299167 -2.1274 -0.00530183  -0.371618 -2.15348 -0.00429595  -0.346222 -2.2283 -0.00424552  -0.395212 -2.20382 -0.0041461  -0.369913 -2.27857 -0.0041033  -0.395135 -2.2037 -0.00466239  -0.418898 -2.25402 -0.0044657  -0.346129 -2.22823 -0.004812  -0.418954 -2.25409 -0.00402355  -0.39362 -2.32871 -0.00395453  -0.442747 -2.30425 -0.00390184  -0.417494 -2.37878 -0.0038439  -0.442697 -2.30418 -0.0042938  -0.466623 -2.3543 -0.0041374  -0.393562 -2.32867 -0.00438809  -0.466647 -2.35435 -0.00380588  -0.441352 -2.42872 -0.00373089  -0.490571 -2.40433 -0.00370359  -0.465345 -2.47859 -0.00364542  -0.490555 -2.40428 -0.00399828  -0.514575 -2.45422 -0.00386298  -0.441322 -2.4287 -0.00404656  -0.514577 -2.45423 -0.00363171  -0.489312 -2.52834 -0.00355613  -0.538583 -2.50403 -0.00355482  -0.513365 -2.57803 -0.00349748  -0.538581 -2.504 -0.00375652  -0.562649 -2.55376 -0.00366008  -0.489303 -2.52835 -0.00377619  -0.562635 -2.55376 -0.00351167  -0.537375 -2.62762 -0.00343847  -0.586672 -2.60339 -0.0034529  -0.561451 -2.67713 -0.0034039  -0.586689 -2.60337 -0.00358319  -0.610767 -2.65295 -0.00351501  -0.537385 -2.62763 -0.003582  -0.610733 -2.65294 -0.00342917  -0.585479 -2.72657 -0.003371  -0.634771 -2.70241 -0.00339949  -0.609533 -2.77595 -0.0033586  -0.634798 -2.70241 -0.00346172  -0.658851 -2.75184 -0.00340486  -0.5855 -2.72659 -0.0034461  -0.65882 -2.75182 -0.00338602  -0.633573 -2.8253 -0.00333691  -0.682858 -2.80118 -0.00336218  -0.657644 -2.87463 -0.00332105  -0.682884 -2.80117 -0.00337088  -0.706946 -2.85052 -0.00333118  -0.633592 -2.82531 -0.00335336  -0.706911 -2.85051 -0.00335312  -0.00425956 -0.00517754 0.0102537  -0.00517928 -0.00974689 0.0125691  -0.0143126 -0.0159353 0.0193077  -0.00557689 -0.00792781 0.0164443  -0.0218439 -0.0210811 0.0295907  -0.0185978 -0.02059 0.0197701  0 0 0  -0.0200867 -0.0230062 0.0148962  0 0 0  0 0 0  -0.00421699 -0.0033489 0.0137188  0 0 0  -0.0386287 -0.0359012 0.0268296  -0.0218698 -0.0250869 0.023095  -0.0271452 -0.0269935 0.0258281  -0.037897 -0.0352097 0.0307388  -0.0406311 -0.0392874 0.030341  -0.0378654 -0.02934 0.038499  -0.0546688 -0.0400588 0.0441786  -0.0541867 -0.0374031 0.0448916  -0.0549063 -0.0433056 0.036061  -0.0280369 -0.0221082 0.0321957  -0.0734323 -0.0550055 0.042182  -0.0542773 -0.0468781 0.036038  -0.0551762 -0.0540416 0.0327162  -0.0710506 -0.0595932 0.0389305  -0.0692022 -0.0700683 0.0340325  -0.0707458 -0.0522326 0.0472969  -0.0871443 -0.0670632 0.0486712  -0.0908233 -0.057812 0.0554625  -0.0916851 -0.0656755 0.0455647  -0.0553418 -0.0475253 0.0396414  -0.110834 -0.0798266 0.047415  -0.0878142 -0.0745993 0.0404066  -0.0839839 -0.0891078 0.0340118  -0.105099 -0.0919679 0.0404341  -0.0987101 -0.109752 0.0334994  -0.103655 -0.084651 0.0483905  -0.120397 -0.104399 0.0474684  -0.128469 -0.0876897 0.0567741  -0.130262 -0.0956193 0.0472624  -0.0827677 -0.0824922 0.0405927  -0.149699 -0.113522 0.0465624  -0.122373 -0.111334 0.0397629  -0.1141 -0.132853 0.0322667  -0.14015 -0.133073 0.0383366  -0.129765 -0.157492 0.0308473  -0.137649 -0.12662 0.0455544  -0.15506 -0.150502 0.0435394  -0.166973 -0.126905 0.053321  -0.169616 -0.133905 0.0447232  -0.11171 -0.126912 0.0382531  -0.189182 -0.155601 0.0427988  -0.157947 -0.156367 0.0366381  -0.145968 -0.184047 0.0291332  -0.176189 -0.181739 0.034619  -0.16254 -0.211942 0.0273749  -0.173031 -0.176376 0.0410408  -0.191127 -0.203586 0.0386444  -0.206117 -0.173955 0.0479201  -0.209261 -0.179743 0.040337  -0.142862 -0.179025 0.0344813  -0.228986 -0.204879 0.0379713  -0.194475 -0.208352 0.0325552  -0.179563 -0.241415 0.0255735  -0.213167 -0.236742 0.03043  -0.196945 -0.272052 0.0237883  -0.209733 -0.23241 0.0360997  -0.228457 -0.262375 0.0336978  -0.245831 -0.227486 0.0420992  -0.249166 -0.232132 0.0354537  -0.17614 -0.237288 0.0303096  -0.269117 -0.260281 0.0330739  -0.231933 -0.266199 0.028354  -0.214738 -0.30404 0.0220931  -0.251089 -0.297181 0.0263581  -0.232872 -0.337059 0.0204338  -0.247638 -0.293707 0.031357  -0.266959 -0.326052 0.0291303  -0.28616 -0.286514 0.0365711  -0.289472 -0.290215 0.0307425  -0.211278 -0.300681 0.0262759  -0.309737 -0.321009 0.0285538  -0.270354 -0.329128 0.0244358  -0.251399 -0.37127 0.0189185  -0.290004 -0.362399 0.0226587  -0.270251 -0.40641 0.0174369  -0.286696 -0.359593 0.0270652  -0.306592 -0.394056 0.0250821  -0.327195 -0.350337 0.031613  -0.330355 -0.353308 0.0264992  -0.248068 -0.368534 0.0226034  -0.350998 -0.386431 0.0245522  -0.309793 -0.396552 0.0209554  -0.289481 -0.442608 0.0161133  -0.329966 -0.431874 0.0194067  -0.309034 -0.479657 0.0148178  -0.326882 -0.429587 0.0232879  -0.347357 -0.465969 0.0215459  -0.36903 -0.418443 0.0272775  -0.371971 -0.420852 0.0227767  -0.286369 -0.440363 0.0193592  -0.393038 -0.456063 0.0210774  -0.350307 -0.468016 0.0179161  -0.328954 -0.517649 0.0136667  -0.371022 -0.505196 0.0165693  -0.349188 -0.556419 0.0125357  -0.368206 -0.503312 0.0199842  -0.389246 -0.541439 0.0184588  -0.411735 -0.490435 0.0234938  -0.414426 -0.492413 0.0195373  -0.326098 -0.515795 0.0165174  -0.435954 -0.529505 0.0180485  -0.391929 -0.543134 0.0152665  -0.369776 -0.596035 0.0115328  -0.41319 -0.581993 0.0140932  -0.390665 -0.636351 0.0105362  -0.41064 -0.580423 0.0170919  -0.432227 -0.620132 0.0157434  -0.455333 -0.565957 0.0201831  -0.45778 -0.567596 0.0167027  -0.367186 -0.594487 0.0140275  -0.479754 -0.606384 0.015401  -0.434644 -0.621552 0.0129446  -0.411883 -0.677423 0.00965166  -0.456437 -0.66193 0.0119114  -0.433392 -0.71913 0.00877583  -0.454144 -0.660619 0.0145346  -0.476263 -0.701767 0.0133367  -0.499825 -0.644704 0.0172615  -0.502025 -0.646067 0.0142081  -0.409557 -0.676132 0.0118277  -0.524453 -0.686391 0.0130532  -0.478423 -0.70295 0.0108945  -0.455204 -0.761509 0.00798762  -0.50072 -0.7447 0.0099746  -0.477282 -0.804457 0.00719953  -0.498672 -0.743601 0.0122588  -0.521272 -0.786036 0.0111889  -0.545188 -0.726367 0.0146509  -0.547151 -0.727513 0.0119919  -0.453125 -0.760432 0.00987232  -0.570002 -0.769214 0.0109619  -0.523202 -0.787026 0.00906563  -0.499634 -0.848002 0.00649881  -0.545966 -0.830004 0.00824225  -0.522231 -0.892059 0.005795  -0.544142 -0.829087 0.010221  -0.567197 -0.872676 0.00925291  -0.591361 -0.810671 0.0123134  -0.593107 -0.811629 0.0100086  -0.497785 -0.847107 0.00812316  -0.616353 -0.854566 0.00907469  -0.568903 -0.873502 0.00742412  -0.545072 -0.936639 0.00515842  -0.592089 -0.917575 0.00668275  -0.56813 -0.981671 0.00452232  -0.590483 -0.916808 0.00838065  -0.613926 -0.961427 0.00751042  -0.638273 -0.897339 0.0102025  -0.639813 -0.898139 0.00822222  -0.543437 -0.935893 0.00654674  -0.663409 -0.94218 0.00738144  -0.615424 -0.96211 0.00594592  -0.591404 -1.02717 0.0039531  -0.638985 -1.00716 0.00527215  -0.614862 -1.07306 0.00337732  -0.637573 -1.00653 0.00671744  -0.661362 -1.05205 0.00592995  -0.685843 -0.986126 0.00829601  -0.687189 -0.986784 0.00660419  -0.589963 -1.02655 0.00512898  -0.711095 -1.03181 0.00584149  -0.662678 -1.05261 0.00460064  -0.638503 -1.11936 0.00286257  -0.686557 -1.09851 0.00399244  -0.662305 -1.16599 0.00233686  -0.685326 -1.09799 0.00520992  -0.709408 -1.14432 0.00450444  -0.733984 -1.07678 0.00656748  -0.735159 -1.07732 0.00514042  -0.637245 -1.11886 0.00384402  -0.75932 -1.1232 0.00445175  -0.710545 -1.14477 0.00339079  -0.68626 -1.21299 0.00187039  -0.734699 -1.19142 0.0028404  -0.710346 -1.26028 0.00140727  -0.733639 -1.19101 0.00385404  -0.757958 -1.23803 0.00321257  -0.782604 -1.1691 0.00500405  -0.783607 -1.16953 0.00381625  -0.685173 -1.2126 0.00268316  -0.807982 -1.21617 0.00319123  -0.758935 -1.23838 0.00229406  -0.734558 -1.30786 0.000980616  -0.783301 -1.28568 0.0017941  -0.758871 -1.3557 0.000554681  -0.782393 -1.28536 0.0026257  -0.8069 -1.33297 0.00204563  -0.831593 -1.26285 0.00360024  -0.832458 -1.26319 0.00261939  -0.733624 -1.30756 0.00163853  -0.856991 -1.31048 0.00204968  -0.80773 -1.33325 0.00129557  -0.783273 -1.40379 0.000177264  -0.832254 -1.3811 0.000854015  -0.807756 -1.4521 -0.000203729  -0.831491 -1.38084 0.00152147  -0.856133 -1.42897 0.00100708  -0.880875 -1.35783 0.00231993  -0.881598 -1.35809 0.00153732  -0.782482 -1.40356 0.00069797  -0.906255 -1.40595 0.00103462  -0.856831 -1.42917 0.000411868  -0.832307 -1.50062 -0.000539184  -0.88148 -1.47748 1.38283e-05  -0.856912 -1.54931 -0.000877976  -0.880832 -1.4773 0.000532627  -0.905572 -1.52585 7.65324e-05  -0.930348 -1.45388 0.00118828  -0.930949 -1.45407 0.000573635  -0.831641 -1.50045 -0.000141025  -0.955678 -1.50239 0.000121832  -0.906145 -1.52599 -0.000380993  -0.881554 -1.59818 -0.00117838  -0.930857 -1.57469 -0.000736833  -0.906234 -1.64718 -0.00148559  -0.930338 -1.57456 -0.000344992  -0.955112 -1.62345 -0.000752449  -0.979934 -1.55081 0.0001719  -0.980422 -1.55094 -0.00029397  -0.881006 -1.59807 -0.00088346  -1.00518 -1.59965 -0.000701904  -0.955583 -1.62354 -0.00109458  -0.930924 -1.69632 -0.00174499  -0.980326 -1.67255 -0.00140488  -0.955637 -1.74556 -0.00201368  -0.9799 -1.67247 -0.00112081  -1.00469 -1.72163 -0.00146973  -1.02955 -1.64847 -0.000717521  -1.02994 -1.64855 -0.00105762  -0.930482 -1.69625 -0.00154102  -1.05469 -1.69757 -0.00141191  -1.00506 -1.72168 -0.00171351  -0.980341 -1.79491 -0.00223613  -1.0298 -1.77093 -0.00198233  -1.00505 -1.84433 -0.00246382  -1.02947 -1.77089 -0.00178945  -1.05424 -1.82026 -0.00209212  -1.07914 -1.7467 -0.0014981  -1.07943 -1.74674 -0.00172746  -0.979991 -1.79488 -0.0021075  -1.10416 -1.79601 -0.00203717  -1.05452 -1.82027 -0.00225139  -1.02973 -1.89382 -0.00266075  -1.07922 -1.8697 -0.00248289  -1.0544 -1.94337 -0.0028553  -1.07897 -1.86969 -0.00236607  -1.10369 -1.9192 -0.00261688  -1.12862 -1.84537 -0.00216365  -1.12885 -1.84538 -0.00229871  -1.02947 -1.89383 -0.00259233  -1.15352 -1.89483 -0.00255609  -1.1039 -1.91919 -0.00270462  -1.07904 -1.99295 -0.00301504  -1.12853 -1.96873 -0.00289321  -1.10364 -2.04256 -0.00317752  -1.12835 -1.96874 -0.00284266  -1.15299 -2.01834 -0.0030539  -1.17797 -1.94437 -0.00271285  -1.17813 -1.94435 -0.00277793  -1.07884 -1.99298 -0.0029974  -1.20272 -1.9939 -0.00298929  -1.15314 -2.01831 -0.00308907  -1.1282 -2.09219 -0.00329697  -1.17768 -2.06792 -0.00323296  -1.15273 -2.14181 -0.00342739  -1.17757 -2.06794 -0.00322902  -1.2021 -2.11759 -0.00338376  -1.22713 -2.04355 -0.00315917  -1.22724 -2.04351 -0.00316477  -1.12807 -2.09223 -0.0033145  -1.25174 -2.09312 -0.00333643  -1.2022 -2.11753 -0.00338495  -1.17721 -2.19144 -0.00352633  -1.22666 -2.16715 -0.00349772  -1.20164 -2.24105 -0.00361812  -1.22658 -2.1672 -0.00351608  -1.25103 -2.21683 -0.00362623  -1.27609 -2.14282 -0.00349188  -1.27616 -2.14276 -0.00346494  -1.17712 -2.1915 -0.00355721  -1.30056 -2.19238 -0.00359368  -1.25108 -2.21676 -0.00360811  -1.22601 -2.29063 -0.00368488  -1.27544 -2.26635 -0.0036881  -1.25034 -2.34017 -0.0037564  -1.2754 -2.2664 -0.00372314  -1.29974 -2.31599 -0.00379479  -1.32484 -2.24207 -0.00372291  -1.32488 -2.242 -0.00368249  -1.22595 -2.2907 -0.00372791  -1.3492 -2.29159 -0.00377607  -1.29977 -2.31592 -0.00376916  -1.27463 -2.38968 -0.00380051  -1.32404 -2.36544 -0.00381982  -1.29887 -2.43914 -0.00385869  -1.32401 -2.36549 -0.00385356  -1.34827 -2.415 -0.00390303  -1.37342 -2.34122 -0.00386798  -1.37345 -2.34114 -0.00382769  -1.27458 -2.38976 -0.00384581  -1.3977 -2.39065 -0.00389504  -1.34829 -2.41492 -0.0038811  -1.32308 -2.48856 -0.00390542  -1.37249 -2.46436 -0.00393319  -1.34726 -2.53793 -0.00395942  -1.37248 -2.46442 -0.00396025  -1.39668 -2.51383 -0.00401533  -1.42188 -2.4402 -0.00397456  -1.42191 -2.44012 -0.0039413  -1.32305 -2.48864 -0.00394666  -1.44612 -2.48955 -0.00400412  -1.3967 -2.51376 -0.00398362  -0.00203783 -0.00136162 0.00640512  -0.0024909 -0.00278106 0.00822711  -0.00648366 -0.00735049 0.012256  -0.00245379 -0.00112879 0.0107933  -0.00929195 -0.00741483 0.0197997  0 0 0  0 0 0  -0.00205683 3.30508e-05 0.00843072  0 0 0  -0.00840095 -0.010202 0.0157069  -0.0124243 -0.0179936 0.0164555  -0.0180312 -0.0214956 0.0210745  -0.0200934 -0.0320029 0.0195812  -0.0190535 -0.0172741 0.0262973  -0.0298965 -0.0296581 0.0303521  -0.012928 -0.0144492 0.0205392  -0.0287702 -0.0348673 0.0248575  -0.0284679 -0.0480524 0.0212071  -0.0402743 -0.0502479 0.0268278  -0.0376276 -0.0667983 0.0221393  -0.0406115 -0.0445276 0.0324646  -0.0519808 -0.0619791 0.0335405  -0.0285391 -0.0431232 0.0255808  -0.0522577 -0.0679536 0.0279859  -0.0473433 -0.0875369 0.0220847  -0.0644454 -0.0877439 0.0279194  -0.0575976 -0.110419 0.0217204  -0.0633689 -0.081794 0.0332248  -0.0754043 -0.103934 0.0326601  -0.0462572 -0.0821422 0.0262209  -0.077161 -0.109699 0.0274948  -0.068488 -0.135275 0.0208728  -0.0902544 -0.133632 0.0264559  -0.0800055 -0.161925 0.019873  -0.0879933 -0.128143 0.0312757  -0.101202 -0.154278 0.0298998  -0.0663408 -0.130116 0.0246193  -0.103949 -0.159381 0.0252538  -0.092195 -0.190287 0.0187199  -0.118155 -0.18685 0.0238373  -0.105085 -0.220171 0.0174839  -0.115168 -0.182094 0.0281625  -0.129687 -0.211477 0.0264645  -0.0893632 -0.185701 0.0220722  -0.132932 -0.215808 0.0223427  -0.118613 -0.251475 0.0162733  -0.148245 -0.246232 0.0208619  -0.132837 -0.284078 0.0150135  -0.144937 -0.24223 0.0247053  -0.160683 -0.274296 0.0229723  -0.115454 -0.247544 0.0192456  -0.164087 -0.277899 0.0193323  -0.147649 -0.317881 0.0138692  -0.180435 -0.310834 0.0179373  -0.163119 -0.352809 0.0126957  -0.177072 -0.307511 0.0213437  -0.193926 -0.341861 0.0197204  -0.14443 -0.314573 0.0164881  -0.197268 -0.344842 0.0165173  -0.179127 -0.388783 0.0116667  -0.214582 -0.379966 0.0152621  -0.195735 -0.42574 0.0106168  -0.211335 -0.377215 0.0182695  -0.229175 -0.413568 0.0168108  -0.176003 -0.386012 0.0139687  -0.232338 -0.416038 0.0139965  -0.212844 -0.463627 0.00971556  -0.250549 -0.453108 0.0128988  -0.230494 -0.502381 0.00879812  -0.24751 -0.45082 0.0155368  -0.266256 -0.488966 0.0142494  -0.209903 -0.461303 0.0117265  -0.269181 -0.491027 0.0117793  -0.248621 -0.541967 0.00801075  -0.288239 -0.529834 0.0108266  -0.267241 -0.582323 0.00720882  -0.285447 -0.527923 0.0131394  -0.305028 -0.567685 0.0120088  -0.245912 -0.540014 0.00975943  -0.307694 -0.56941 0.00985515  -0.286303 -0.62342 0.00652611  -0.327551 -0.609781 0.00902045  -0.30582 -0.665203 0.00582445  -0.325017 -0.608173 0.0110363  -0.345373 -0.649388 0.010043  -0.283839 -0.621772 0.00803518  -0.34778 -0.650839 0.00816607  -0.325746 -0.707647 0.00522625  -0.368383 -0.692603 0.00743449  -0.346082 -0.7507 0.00460851  -0.3661 -0.691254 0.00918376  -0.387166 -0.73377 0.00830483  -0.323521 -0.706255 0.00652564  -0.389325 -0.734987 0.00668406  -0.366791 -0.794335 0.00408149  -0.410615 -0.778002 0.00603187  -0.387877 -0.838502 0.00353396  -0.408573 -0.776864 0.00753939  -0.430288 -0.82054 0.00675774  -0.364801 -0.793154 0.00518537  -0.432213 -0.821564 0.00535953  -0.409299 -0.883188 0.00306654  -0.454127 -0.865684 0.00477779  -0.431053 -0.92834 0.00257766  -0.45231 -0.864728 0.0060724  -0.47461 -0.909435 0.00537097  -0.407523 -0.882197 0.00400114  -0.476319 -0.910288 0.00418186  -0.453105 -0.973946 0.0021559  -0.498789 -0.955383 0.003654  -0.475453 -1.01996 0.0017153  -0.497178 -0.954585 0.0047555  -0.520002 -1.0002 0.00412488  -0.451531 -0.973114 0.00294268  -0.521505 -1.00091 0.00311518  -0.498062 -1.06637 0.00134099  -0.544467 -1.04686 0.00264657  -0.520923 -1.11313 0.000947356  -0.543054 -1.0462 0.00356972  -0.566325 -1.0926 0.0030005  -0.496675 -1.06567 0.00199115  -0.567644 -1.09318 0.00215697  -0.544016 -1.16023 0.000610471  -0.591026 -1.13989 0.00173628  -0.567319 -1.20763 0.00025475  -0.589792 -1.13934 0.00250268  -0.613446 -1.18643 0.00199521  -0.542797 -1.15966 0.00113869  -0.614594 -1.1869 0.00129306  -0.590815 -1.25532 -5.07832e-05  -0.638331 -1.23425 0.000912189  -0.614493 -1.30327 -0.000372052  -0.637261 -1.2338 0.00153947  -0.66124 -1.28148 0.00108123  -0.589766 -1.25485 0.000368118  -0.662226 -1.28186 0.000515938  -0.638319 -1.35146 -0.000642061  -0.686261 -1.32975 0.00017035  -0.662302 -1.39987 -0.000930905  -0.685341 -1.3294 0.000676274  -0.709577 -1.37757 0.000261784  -0.637418 -1.35108 -0.000318289  -0.71042 -1.37787 -0.000189424  -0.686396 -1.44847 -0.00116873  -0.73468 -1.42622 -0.000496626  -0.710612 -1.49725 -0.00142813  -0.733905 -1.42594 -0.000107884  -0.758336 -1.47454 -0.000468135  -0.685631 -1.44818 -0.000925899  -0.759042 -1.47476 -0.000815988  -0.734922 -1.5462 -0.00164604  -0.783482 -1.52349 -0.0010922  -0.759314 -1.59529 -0.00188136  -0.782822 -1.52328 -0.000794649  -0.807401 -1.57221 -0.001122  -0.734278 -1.54597 -0.00147581  -0.807991 -1.57238 -0.00138009  -0.78377 -1.6445 -0.00206733  -0.832547 -1.62142 -0.00162172  -0.808286 -1.69382 -0.0022676  -0.832013 -1.62126 -0.00140667  -0.856677 -1.67046 -0.00169587  -0.783235 -1.64434 -0.00195634  -0.857154 -1.67058 -0.00187874  -0.832835 -1.74323 -0.00243473  -0.881782 -1.71985 -0.00208962  -0.857422 -1.79273 -0.00261331  -0.881348 -1.71974 -0.00194442  -0.906064 -1.76915 -0.00219762  -0.832406 -1.74313 -0.00237405  -0.906444 -1.76922 -0.00231278  -0.882024 -1.8423 -0.00275385  -0.931103 -1.81867 -0.00249684  -0.906644 -1.89191 -0.00290656  -0.930764 -1.8186 -0.0024122  -0.955482 -1.86815 -0.00262022  -0.881684 -1.84223 -0.00273716  -0.955777 -1.86818 -0.00268495  -0.931257 -1.94157 -0.00302637  -0.98043 -1.91776 -0.00284004  -0.955869 -1.99125 -0.00315678  -0.980171 -1.91772 -0.00280416  -1.00487 -1.96736 -0.00298023  -0.930997 -1.94153 -0.00304008  -1.00508 -1.96736 -0.00300527  -0.980455 -2.04095 -0.00325477  -1.0297 -2.017 -0.00313568  -1.00503 -2.09065 -0.00336576  -1.0295 -2.01699 -0.00313115  -1.05414 -2.06667 -0.00327444  -0.980264 -2.04094 -0.00329161  -1.05429 -2.06665 -0.00327098  -1.02956 -2.14034 -0.00344074  -1.07885 -2.11631 -0.00336969  -1.05407 -2.19003 -0.00352347  -1.07871 -2.11632 -0.00339103  -1.10327 -2.166 -0.00349855  -1.02943 -2.14036 -0.00349212  -1.10337 -2.16596 -0.00347769  -1.07853 -2.23969 -0.00358224  -1.12784 -2.2156 -0.00355268  -1.10295 -2.28932 -0.0036428  -1.12775 -2.21563 -0.00358808  -1.15222 -2.26527 -0.00366104  -1.07844 -2.23973 -0.00363994  -1.15228 -2.26521 -0.00363278  -1.12733 -2.33892 -0.00367725  -1.17665 -2.3148 -0.0036819  -1.15166 -2.38846 -0.00372899  -1.1766 -2.31484 -0.00372112  -1.20095 -2.36441 -0.00377488  -1.12728 -2.33897 -0.00373507  -1.20099 -2.36434 -0.00374448  -1.17593 -2.43797 -0.00376201  -1.22526 -2.41385 -0.0037868  -1.20016 -2.48742 -0.00381339  -1.22523 -2.4139 -0.0038209  -1.24949 -2.46337 -0.00386333  -1.17589 -2.43803 -0.00380862  -1.24951 -2.4633 -0.0038451  -1.22433 -2.5368 -0.00384116  -1.27369 -2.5127 -0.00388229  -1.24847 -2.58613 -0.00389385  -1.27367 -2.51275 -0.00391567  -1.29785 -2.56212 -0.00395823  -1.2243 -2.53687 -0.00388658  -1.29787 -2.56204 -0.00393057  -0.000464164 -0.000874788 0.00277472  -0.000880621 -0.000862628 0.00456429  -0.00147381 -0.00639024 0.00552309  -0.000833832 0.000423133 0.00581634  -0.00341582 -0.0040108 0.0109702  0 0 0  0 0 0  -0.00044512 0.00023061 0.00354016  0 0 0  -0.00295173 -0.00631112 0.00875914  -0.00292572 -0.0171504 0.00758564  -0.00685827 -0.0171919 0.0118794  -0.00537458 -0.031199 0.00927782  -0.00721529 -0.0139171 0.0147663  -0.0120555 -0.0269523 0.0173948  -0.00288504 -0.0142876 0.0093497  -0.0115073 -0.0309317 0.0143468  -0.00844577 -0.0484606 0.0101651  -0.0176585 -0.0477749 0.0155343  -0.0124311 -0.0684103 0.0107465  -0.0175782 -0.0432232 0.0187185  -0.0237156 -0.0621837 0.0194581  -0.00798291 -0.0443814 0.012163  -0.0241893 -0.0670515 0.0163397  -0.0171539 -0.0905621 0.0107455  -0.0315903 -0.0885453 0.0162902  -0.0227433 -0.114986 0.0105541  -0.0304922 -0.0835305 0.019282  -0.0379179 -0.107227 0.0189191  -0.0159142 -0.0859134 0.0126213  -0.0395531 -0.112218 0.0160446  -0.0291144 -0.141243 0.0100818  -0.0482278 -0.137795 0.0153815  -0.0364193 -0.169448 0.00948668  -0.0461739 -0.132909 0.0180773  -0.0552018 -0.160604 0.0171722  -0.0271103 -0.136581 0.0117556  -0.0576658 -0.165266 0.0146027  -0.0445434 -0.19923 0.00882697  -0.0678267 -0.194368 0.0137043  -0.0536479 -0.230668 0.00806952  -0.0651509 -0.189922 0.0161072  -0.0759204 -0.220929 0.0149945  -0.0420125 -0.194898 0.0102907  -0.0788333 -0.225066 0.0127151  -0.0635653 -0.263455 0.00737166  -0.0905666 -0.257152 0.0117798  -0.074443 -0.297643 0.00659561  -0.087588 -0.253256 0.0139045  -0.100048 -0.287005 0.0127633  -0.0607663 -0.2596 0.0086422  -0.103119 -0.290578 0.0107594  -0.0860915 -0.332986 0.00593483  -0.116374 -0.32519 0.00987041  -0.0986462 -0.369519 0.0052098  -0.113326 -0.321848 0.011741  -0.127341 -0.357901 0.0106698  -0.0832288 -0.329635 0.00702775  -0.130383 -0.360946 0.00891733  -0.111916 -0.40705 0.0046159  -0.145049 -0.397737 0.00812352  -0.126005 -0.4456 0.00397372  -0.142089 -0.394888 0.00975299  -0.157506 -0.432919 0.00879073  -0.109124 -0.404167 0.00554323  -0.160405 -0.435512 0.00727165  -0.14076 -0.485023 0.00345695  -0.176366 -0.474197 0.00657475  -0.156259 -0.525323 0.00289071  -0.173573 -0.471772 0.00798368  -0.190253 -0.511539 0.00713551  -0.13812 -0.482552 0.00423086  -0.192952 -0.513739 0.00582528  -0.172362 -0.56639 0.00244772  -0.210094 -0.55409 0.00522339  -0.18914 -0.608216 0.00196385  -0.207512 -0.552027 0.00643432  -0.225332 -0.593319 0.00569761  -0.169913 -0.564274 0.00308609  -0.227802 -0.595192 0.00457823  -0.20647 -0.650719 0.00158572  -0.246023 -0.637009 0.00405228  -0.224405 -0.693883 0.00117195  -0.243671 -0.635253 0.00508332  -0.262523 -0.677903 0.00443995  -0.204227 -0.648908 0.00210619  -0.26476 -0.679493 0.00349128  -0.242847 -0.73764 0.000845551  -0.283969 -0.722608 0.00303292  -0.26183 -0.781968 0.000483274  -0.281841 -0.721112 0.00390482  -0.301627 -0.764948 0.00333941  -0.240812 -0.736091 0.00125909  -0.303645 -0.766304 0.00253677  -0.281273 -0.826814 0.000200868  -0.323739 -0.810555 0.00213742  -0.301196 -0.872158 -0.000110388  -0.321827 -0.809278 0.00287092  -0.342455 -0.854165 0.00237417  -0.279443 -0.825492 0.000523567  -0.344257 -0.855317 0.00170493  -0.321534 -0.917952 -0.000355363  -0.365153 -0.900565 0.00135279  -0.342294 -0.964168 -0.000633001  -0.36345 -0.899478 0.00196171  -0.384821 -0.945278 0.0015192  -0.319897 -0.91682 -0.000115037  -0.386425 -0.946253 0.000969887  -0.36342 -1.01078 -0.000843644  -0.408027 -0.992369 0.000657201  -0.384919 -1.05775 -0.00108171  -0.406515 -0.991446 0.00114942  -0.428551 -1.03804 0.00076139  -0.361968 -1.00981 -0.000672698  -0.429964 -1.03886 0.000314832  -0.406741 -1.10506 -0.00126815  -0.452197 -1.08573 3.71933e-05  -0.428886 -1.15267 -0.00148737  -0.450867 -1.08495 0.00043118  -0.473475 -1.13222 8.01086e-05  -0.405462 -1.10424 -0.00115883  -0.474714 -1.13292 -0.000274062  -0.451308 -1.20056 -0.00164819  -0.497476 -1.18041 -0.000519991  -0.47401 -1.24872 -0.0018419  -0.496314 -1.17976 -0.00021112  -0.519418 -1.22762 -0.000522733  -0.450191 -1.19988 -0.0015893  -0.5205 -1.22819 -0.000799775  -0.496944 -1.29711 -0.00198448  -0.543719 -1.27624 -0.00101459  -0.520112 -1.34571 -0.00215876  -0.542708 -1.2757 -0.000783205  -0.56622 -1.32404 -0.00106525  -0.495971 -1.29654 -0.00196862  -0.567152 -1.32451 -0.00126767  -0.543471 -1.39451 -0.00228214  -0.590754 -1.37301 -0.00146258  -0.56702 -1.44348 -0.00242913  -0.589891 -1.37257 -0.00129592  -0.613743 -1.42132 -0.00154114  -0.542635 -1.39404 -0.00229931  -0.614535 -1.4217 -0.00168145  -0.590735 -1.4926 -0.00254273  -0.638443 -1.47057 -0.00185502  -0.614593 -1.54187 -0.00267601  -0.637712 -1.47021 -0.0017463  -0.661829 -1.51929 -0.00196242  -0.590025 -1.49223 -0.00258732  -0.662496 -1.51959 -0.00205445  -0.638585 -1.59125 -0.00277174  -0.68665 -1.56876 -0.00220895  -0.662691 -1.64074 -0.00288904  -0.68603 -1.56847 -0.00214577  -0.710354 -1.61781 -0.00233591  -0.637991 -1.59095 -0.00284147  -0.710913 -1.61804 -0.00238621  -0.686885 -1.69032 -0.00296688  -0.735236 -1.66744 -0.00251567  -0.711169 -1.73997 -0.00307167  -0.734733 -1.66722 -0.00249279  -0.759207 -1.71676 -0.00265849  -0.6864 -1.69009 -0.0030551  -0.759653 -1.71692 -0.00267386  -0.735518 -1.78969 -0.00314152  -0.784101 -1.76649 -0.00279176  -0.759919 -1.83945 -0.00322878  -0.783696 -1.76632 -0.00279999  -0.80825 -1.81599 -0.00293624  -0.735126 -1.78951 -0.00323868  -0.808611 -1.81612 -0.00292408  -0.784363 -1.88925 -0.00329387  -0.833135 -1.8658 -0.00302732  -0.808839 -1.93907 -0.00336778  -0.832813 -1.86568 -0.00306022  -0.857415 -1.91543 -0.00317228  -0.784052 -1.88912 -0.00339568  -0.857693 -1.91551 -0.00313938  -0.833326 -1.9889 -0.00341249  -0.88224 -1.96526 -0.0032177  -0.857829 -2.03874 -0.00347424  -0.882002 -1.96518 -0.00326967  -0.906609 -2.01497 -0.00336361  -0.833093 -1.98882 -0.00352025  -0.906807 -2.01502 -0.00331199  -0.882322 -2.08857 -0.00351083  -0.931349 -2.06478 -0.00338244  -0.906815 -2.13839 -0.00356293  -0.931172 -2.06473 -0.00344229  -0.955749 -2.11452 -0.0035224  -0.882151 -2.08853 -0.00361514  -0.955891 -2.11454 -0.00346816  -0.931279 -2.18818 -0.00358963  -0.980384 -2.16428 -0.00351584  -0.955728 -2.23794 -0.00362897  -0.98027 -2.16426 -0.00358033  -1.00478 -2.21401 -0.00363004  -0.931162 -2.18816 -0.00368214  -1.00488 -2.214 -0.0035795  -0.980143 -2.28767 -0.0036478  -1.02931 -2.26369 -0.00361598  -1.00452 -2.33734 -0.00368035  -1.02923 -2.26369 -0.00367558  -1.05367 -2.31338 -0.00371158  -0.980064 -2.28767 -0.00373185  -1.05372 -2.31334 -0.00366497  -1.02886 -2.38697 -0.00368977  -1.07808 -2.36296 -0.00369012  -1.05317 -2.43654 -0.00371063  -1.07803 -2.36298 -0.00373685  -1.10238 -2.41256 -0.00376225  -1.02882 -2.387 -0.0037595  -1.10241 -2.41252 -0.00372434  -1.0774 -2.48606 -0.00371766  -1.12665 -2.46203 -0.00374639  -1.10161 -2.53551 -0.00374901  -1.12663 -2.46206 -0.00378966  -1.15086 -2.51153 -0.00381196  -1.07738 -2.4861 -0.00377285  -1.15088 -2.51148 -0.00378621  -1.12573 -2.58488 -0.00375652  -1.17501 -2.56086 -0.00380397  -1.14981 -2.63417 -0.00378799  -1.175 -2.56089 -0.00384259  -1.19913 -2.61021 -0.00387061  -1.12571 -2.58492 -0.00379765  -1.19914 -2.61016 -0.00383949  0.000841565 -0.00228626 -0.000791073  0.000421077 -0.00141588 0.00100803  0.00259639 -0.00896254 -0.000922799  0.000468008 -0.000395775 0.000997066  0.00116235 -0.00544629 0.00256348  0 0 0  0 0 0  0.00088916 -0.00137115 -0.0012306  0 0 0  0.00118361 -0.00733376 0.00220537  0.00494029 -0.0208357 -0.000931501  0.00145689 -0.01868 0.00317335  0.00709087 -0.0356201 -0.000629187  0.00174032 -0.0159825 0.00376797  0.00180337 -0.0296235 0.00494766  0.0055404 -0.0183637 -0.00134254  0.0015237 -0.0329421 0.00420773  0.00876844 -0.0540239 -0.000388384  0.000532091 -0.0508327 0.00471139  0.00970116 -0.0748248 -0.000159979  0.00124869 -0.0469539 0.00555468  1.75536e-05 -0.066911 0.00599563  0.00982496 -0.0503799 -0.000671864  -0.000925899 -0.0711233 0.00517988  0.00971735 -0.0981075 -0.000101924  -0.00342602 -0.0938674 0.00518954  0.00875288 -0.12359 -0.000138998  -0.00208226 -0.0894246 0.00598752  -0.00501019 -0.114289 0.00585186  0.0112306 -0.0938628 -0.000376105  -0.00669017 -0.118805 0.00511491  0.00677615 -0.15097 -0.000259995  -0.0109199 -0.145654 0.00482154  0.00366604 -0.180334 -0.000484109  -0.00895786 -0.141141 0.00550556  -0.013866 -0.170054 0.00505269  0.00873208 -0.146603 -0.000571132  -0.0161093 -0.174444 0.00443244  -0.000464857 -0.211279 -0.000703335  -0.0222559 -0.204843 0.00400496  -0.00579077 -0.243953 -0.001019  -0.0198566 -0.200582 0.00456953  -0.0268695 -0.232877 0.00398958  0.00181866 -0.207103 -0.00105536  -0.0294446 -0.236911 0.00347757  -0.0121145 -0.27798 -0.00126576  -0.0375757 -0.270356 0.00301898  -0.0196137 -0.313479 -0.00159574  -0.0349549 -0.266502 0.00347626  -0.044041 -0.301622 0.00287437  -0.00965363 -0.27416 -0.00164807  -0.0467385 -0.30522 0.00246537  -0.0280673 -0.35014 -0.00182843  -0.0568047 -0.341256 0.0020324  -0.0376209 -0.388041 -0.00212765  -0.0541287 -0.337851 0.00238931  -0.0651606 -0.375342 0.00182843  -0.0255652 -0.346734 -0.00224137  -0.0678422 -0.378489 0.00151622  -0.0480736 -0.426938 -0.00233066  -0.0797241 -0.416737 0.00112784  -0.0595398 -0.466882 -0.00259089  -0.0771079 -0.413766 0.0013926  -0.0899184 -0.453267 0.000896692  -0.0456278 -0.423945 -0.00276911  -0.0924885 -0.455997 0.000674486  -0.0718316 -0.507683 -0.00275314  -0.106031 -0.496137 0.000342727  -0.0850419 -0.549367 -0.00296831  -0.103547 -0.493564 0.000522375  -0.117969 -0.534786 9.04799e-05  -0.0695035 -0.505074 -0.00321317  -0.120378 -0.537143 -5.24521e-05  -0.0990025 -0.591787 -0.00309193  -0.135431 -0.578908 -0.000328898  -0.113793 -0.63496 -0.00326443  -0.133119 -0.576683 -0.00022459  -0.148992 -0.619382 -0.000588655  -0.0968294 -0.589519 -0.0035665  -0.151211 -0.621421 -0.000661373  -0.129269 -0.678769 -0.00335121  -0.167636 -0.664593 -0.00088644  -0.145486 -0.723212 -0.00348604  -0.165516 -0.662669 -0.000846982  -0.182692 -0.706651 -0.00115156  -0.127268 -0.676798 -0.00383139  -0.184713 -0.708405 -0.00116324  -0.162323 -0.7682 -0.00354159  -0.202367 -0.752794 -0.00135016  -0.17983 -0.813724 -0.00365102  -0.200446 -0.751132 -0.00136769  -0.21879 -0.796218 -0.00162196  -0.160503 -0.766491 -0.00402355  -0.220617 -0.797726 -0.00158763  -0.197885 -0.859718 -0.00368798  -0.239379 -0.843159 -0.00174308  -0.21653 -0.906171 -0.00376761  -0.237647 -0.841732 -0.00180316  -0.257038 -0.887766 -0.00202096  -0.196239 -0.858242 -0.00415909  -0.258677 -0.889064 -0.00194585  -0.235674 -0.953019 -0.00378847  -0.278429 -0.935398 -0.00207484  -0.255338 -1.00025 -0.00385141  -0.276877 -0.934163 -0.00217116  -0.297187 -0.981009 -0.00235045  -0.234202 -0.95174 -0.00425386  -0.298648 -0.982124 -0.00224602  -0.27544 -1.04781 -0.00386262  -0.319271 -1.02922 -0.002352  -0.295996 -1.0957 -0.00390637  -0.317898 -1.02816 -0.00247884  -0.33902 -1.0757 -0.00263119  -0.274131 -1.04671 -0.00431299  -0.34031 -1.07666 -0.00249875  -0.316941 -1.14387 -0.0039047  -0.361699 -1.1244 -0.00258434  -0.338277 -1.1923 -0.00393581  -0.360486 -1.12349 -0.00273323  -0.38232 -1.17161 -0.00286257  -0.315785 -1.14292 -0.00433648  -0.383455 -1.17242 -0.00271559  -0.359944 -1.24096 -0.00392771  -0.405504 -1.22071 -0.0027914  -0.381961 -1.28984 -0.00395405  -0.404444 -1.21994 -0.002949  -0.426887 -1.26854 -0.00306106  -0.358939 -1.24015 -0.00434244  -0.427873 -1.26923 -0.00290179  -0.404256 -1.3389 -0.00393987  -0.450491 -1.31796 -0.0029608  -0.42684 -1.38813 -0.00395954  -0.449575 -1.31731 -0.00313401  -0.47253 -1.36631 -0.00323284  -0.403377 -1.33822 -0.00432718  -0.473378 -1.36688 -0.00306237  -0.449658 -1.43752 -0.00393713  -0.496473 -1.41598 -0.00311065  -0.472721 -1.48703 -0.00394845  -0.495686 -1.41543 -0.00328958  -0.519073 -1.46475 -0.00336814  -0.448908 -1.43694 -0.00430393  -0.51979 -1.46522 -0.00319529  -0.495976 -1.53666 -0.00392997  -0.543271 -1.51461 -0.00323451  -0.519427 -1.58639 -0.00393403  -0.542614 -1.51415 -0.00341713  -0.566341 -1.56371 -0.0034852  -0.495347 -1.53618 -0.00427091  -0.566938 -1.5641 -0.00330663  -0.54304 -1.6362 -0.00391471  -0.590742 -1.61371 -0.00334477  -0.566804 -1.68608 -0.0039171  -0.590191 -1.61333 -0.00352407  -0.614196 -1.66308 -0.00358105  -0.54251 -1.63581 -0.00422597  -0.61469 -1.66339 -0.00340927  -0.590686 -1.73602 -0.00389135  -0.638727 -1.71315 -0.00343192  -0.614689 -1.78599 -0.0038898  -0.638276 -1.71285 -0.00360894  -0.662483 -1.76272 -0.00364971  -0.590257 -1.7357 -0.00417805  -0.662881 -1.76296 -0.00348818  -0.638776 -1.836 -0.00386441  -0.687101 -1.81283 -0.00350523  -0.662956 -1.88602 -0.00386608  -0.686739 -1.81259 -0.0036751  -0.711089 -1.86254 -0.00370538  -0.638436 -1.83575 -0.00412357  -0.711403 -1.86272 -0.00355196  -0.687189 -1.93605 -0.00384223  -0.735736 -1.91264 -0.00356746  -0.711483 -1.98608 -0.00383735  -0.735453 -1.91246 -0.00372553  -0.759892 -1.96243 -0.00374842  -0.686924 -1.93587 -0.0040735  -0.760129 -1.96257 -0.00360644  -0.735806 -2.0361 -0.00381279  -0.784533 -2.01249 -0.00361657  -0.760164 -2.08609 -0.00381339  -0.784325 -2.01236 -0.00375569  -0.808802 -2.06232 -0.0037719  -0.73561 -2.03596 -0.00401473  -0.80897 -2.06241 -0.00364351  -0.784523 -2.13606 -0.0037781  -0.8334 -2.11231 -0.00364554  -0.808908 -2.18599 -0.00377882  -0.833248 -2.11222 -0.00377333  -0.857726 -2.16213 -0.00378442  -0.784393 -2.13597 -0.00395894  -0.857846 -2.16219 -0.00367594  -0.833271 -2.23588 -0.00375259  -0.882259 -2.21203 -0.00367844  -0.857641 -2.28572 -0.00374424  -0.882157 -2.21197 -0.00378203  -0.906607 -2.2618 -0.00378525  -0.833181 -2.23583 -0.00389433  -0.906671 -2.26183 -0.00369072  -0.881978 -2.33551 -0.00371885  -0.931042 -2.31159 -0.00368679  -0.906297 -2.38524 -0.00371635  -0.930986 -2.31156 -0.00377619  -0.955369 -2.36129 -0.00376713  -0.88192 -2.33549 -0.00383568  -0.955403 -2.36129 -0.00370276  -0.93057 -2.43491 -0.00369513  -0.979705 -2.41094 -0.00369918  -0.954826 -2.48451 -0.0036912  -0.979681 -2.41093 -0.0037632  -1.00399 -2.46054 -0.00375056  -0.930556 -2.43491 -0.00377893  -1.00399 -2.46053 -0.00370157  -0.979022 -2.53404 -0.00366962  -1.02821 -2.51005 -0.00369692  -1.00319 -2.5835 -0.00367045  -1.0282 -2.51005 -0.00374389  -1.05241 -2.55953 -0.00373316  -0.979023 -2.53405 -0.00372815  -1.0524 -2.5595 -0.00371349  -1.02727 -2.63286 -0.00365889  -1.07649 -2.60886 -0.00371277  -1.0513 -2.68214 -0.00366199  -1.07649 -2.60887 -0.00374115  -1.10055 -2.65817 -0.00373626  -1.02728 -2.63288 -0.00368345  -1.10056 -2.65815 -0.00372207  0.0021475 -0.00525934 -0.00425112  0.00168852 -0.0035789 -0.00247979  0.00668837 -0.0141682 -0.00701904  0.00173378 -0.00274146 -0.00372994  0.00549461 -0.00965005 -0.00549841  0 0 0  0 0 0  0.00221764 -0.00442523 -0.00585032  0 0 0  0.0050723 -0.0112498 -0.00407863  0.0127899 -0.0281373 -0.00891304  0.00909419 -0.0241237 -0.0051142  0.019437 -0.0442666 -0.00990033  0.00996332 -0.0217401 -0.00666618  0.0145319 -0.0365731 -0.00689042  0.0139116 -0.0258117 -0.0113689  0.0134574 -0.0395288 -0.00541365  0.0256511 -0.0639164 -0.0102689  0.0172794 -0.0585209 -0.00552309  0.0312828 -0.0856352 -0.0104363  0.0186096 -0.0550073 -0.00691342  0.0219776 -0.0759126 -0.00679457  0.0272552 -0.0604745 -0.0127012  0.0205244 -0.0797653 -0.00542951  0.0358287 -0.109828 -0.0103565  0.0227691 -0.103499 -0.00536656  0.0392753 -0.136164 -0.0102998  0.0244103 -0.0993791 -0.00666249  0.0258144 -0.125178 -0.00660801  0.0376175 -0.105799 -0.0126773  0.0240084 -0.12941 -0.00531268  0.0415142 -0.164419 -0.0101433  0.0241362 -0.157246 -0.00528491  0.042438 -0.194698 -0.0100658  0.0260768 -0.152965 -0.00654054  0.0251669 -0.182853 -0.00658715  0.043466 -0.160226 -0.0123649  0.0230718 -0.187074 -0.00533819  0.0421544 -0.226598 -0.00990868  0.0208613 -0.218524 -0.00535452  0.0404953 -0.260287 -0.0098356  0.0230383 -0.214385 -0.00657463  0.0196947 -0.247742 -0.0066762  0.0442478 -0.222527 -0.0120292  0.0174134 -0.251714 -0.00546801  0.0376614 -0.295376 -0.00968528  0.0128242 -0.286303 -0.00550437  0.0334786 -0.331995 -0.00961471  0.0151305 -0.282473 -0.00668657  0.00937831 -0.318752 -0.0067929  0.0398363 -0.291589 -0.0117034  0.00702506 -0.322367 -0.00563085  0.0281674 -0.369813 -0.00945747  0.000128627 -0.359633 -0.00565827  0.0215842 -0.408909 -0.00937414  0.00246501 -0.35618 -0.00680077  -0.00557584 -0.394915 -0.00689197  0.0303512 -0.366373 -0.0113664  -0.0079065 -0.398139 -0.00576997  0.0139385 -0.449027 -0.00920975  -0.0169698 -0.437673 -0.00578165  0.00511575 -0.490212 -0.00910902  -0.0146873 -0.434608 -0.00688219  -0.0248446 -0.475401 -0.00694442  0.0160682 -0.445956 -0.0110139  -0.0270884 -0.478247 -0.00586677  -0.00469089 -0.532259 -0.00893259  -0.0381528 -0.519689 -0.00584984  -0.0155729 -0.575195 -0.00881469  -0.0359783 -0.516994 -0.00690722  -0.0480672 -0.559519 -0.00693738  -0.00265777 -0.529541 -0.0106276  -0.0501821 -0.562011 -0.00590265  -0.0273516 -0.618854 -0.0086273  -0.0630639 -0.605069 -0.00586522  -0.0401014 -0.663253 -0.00849628  -0.0610272 -0.602704 -0.00687766  -0.074862 -0.646685 -0.00687242  -0.025444 -0.61646 -0.0102166  -0.0768253 -0.648863 -0.00588882  -0.0536673 -0.708262 -0.00829661  -0.0913603 -0.693288 -0.00582802  -0.0681077 -0.753883 -0.00815201  -0.0894828 -0.691219 -0.00678992  -0.104886 -0.736425 -0.00675941  -0.0519001 -0.706158 -0.00977767  -0.106682 -0.738328 -0.00582647  -0.0832773 -0.800013 -0.00794983  -0.122699 -0.783901 -0.00574934  -0.0992305 -0.84665 -0.00779855  -0.120987 -0.782093 -0.00666034  -0.137793 -0.828336 -0.00661159  -0.0816658 -0.798167 -0.00932634  -0.139422 -0.829994 -0.00573266  -0.115839 -0.893714 -0.00759375  -0.156766 -0.876533 -0.00564408  -0.133143 -0.941194 -0.00744116  -0.15522 -0.874958 -0.00650394  -0.173278 -0.922068 -0.00643647  -0.114376 -0.892099 -0.00886941  -0.174744 -0.923505 -0.00560987  -0.151031 -0.989023 -0.00723577  -0.193268 -0.970855 -0.00551605  -0.169534 -1.0372 -0.00708151  -0.191877 -0.969487 -0.0063175  -0.211043 -1.01732 -0.00624394  -0.149722 -0.987617 -0.0084095  -0.21235 -1.01856 -0.0054723  -0.18855 -1.08566 -0.00688851  -0.231915 -1.06659 -0.00537419  -0.208104 -1.1344 -0.00673664  -0.230681 -1.0654 -0.00612497  -0.25082 -1.11383 -0.00604391  -0.18738 -1.08443 -0.00796258  -0.251978 -1.11491 -0.00532973  -0.228109 -1.18337 -0.00654757  -0.272451 -1.16349 -0.0052309  -0.248583 -1.23257 -0.00640333  -0.271369 -1.16246 -0.00592399  -0.292354 -1.21137 -0.00583565  -0.22708 -1.18231 -0.00752652  -0.293368 -1.21231 -0.00517678  -0.269448 -1.28194 -0.00621903  -0.314634 -1.26133 -0.00507569  -0.290721 -1.3315 -0.0060761  -0.313689 -1.26044 -0.00571406  -0.335405 -1.30975 -0.0056262  -0.268551 -1.28102 -0.00710857  -0.336283 -1.31056 -0.00502062  -0.312326 -1.38119 -0.00590611  -0.358236 -1.35994 -0.00492609  -0.334279 -1.43101 -0.00577199  -0.35742 -1.35918 -0.00550914  -0.37976 -1.4088 -0.00541675  -0.31155 -1.3804 -0.00670552  -0.380516 -1.40948 -0.00487113  -0.356516 -1.48095 -0.00561178  -0.40304 -1.45914 -0.00477552  -0.379038 -1.53098 -0.00548112  -0.402342 -1.45849 -0.0053041  -0.425205 -1.50834 -0.00521564  -0.355857 -1.48027 -0.00632989  -0.425842 -1.50892 -0.00472212  -0.401795 -1.58107 -0.00532722  -0.448846 -1.55879 -0.00462782  -0.424795 -1.63124 -0.00520527  -0.448262 -1.55824 -0.00510848  -0.471554 -1.60826 -0.00502419  -0.401242 -1.58051 -0.00596428  -0.472083 -1.60874 -0.00457823  -0.447983 -1.68144 -0.0050621  -0.495478 -1.65875 -0.00449073  -0.47137 -1.73169 -0.004951  -0.494997 -1.6583 -0.0049175  -0.518637 -1.70843 -0.00483632  -0.447528 -1.68097 -0.00562215  -0.519065 -1.70882 -0.00444138  -0.494905 -1.78195 -0.00482178  -0.542768 -1.75892 -0.00435865  -0.518592 -1.83222 -0.0047195  -0.542382 -1.75855 -0.00473952  -0.566281 -1.80874 -0.00465417  -0.494537 -1.78156 -0.00530958  -0.566624 -1.80905 -0.00430822  -0.542392 -1.8825 -0.00459552  -0.590566 -1.8592 -0.00423431  -0.566316 -1.93276 -0.00450647  -0.590258 -1.85889 -0.00456834  -0.614359 -1.9091 -0.00448704  -0.542106 -1.88218 -0.00501847  -0.614627 -1.90934 -0.00418937  -0.590308 -1.983 -0.00439167  -0.638732 -1.95948 -0.0041182  -0.614396 -2.03322 -0.00430954  -0.638502 -1.95925 -0.00440502  -0.66274 -2.00942 -0.0043335  -0.590093 -1.98276 -0.00475156  -0.662932 -2.00961 -0.00407887  -0.63853 -2.0834 -0.00421131  -0.687155 -2.05972 -0.00401306  -0.662716 -2.13354 -0.0041393  -0.686987 -2.05953 -0.00425577  -0.71131 -2.10964 -0.00419104  -0.638373 -2.08321 -0.00450814  -0.711436 -2.10978 -0.00397623  -0.686932 -2.18362 -0.004053  -0.735722 -2.15981 -0.00391912  -0.71118 -2.23366 -0.00399089  -0.735607 -2.15968 -0.00411856  -0.759957 -2.2097 -0.00405777  -0.686829 -2.18349 -0.00429833  -0.760039 -2.2098 -0.00388563  -0.735425 -2.28363 -0.00391257  -0.784344 -2.25973 -0.00383699  -0.759685 -2.33354 -0.00385869  -0.784278 -2.25963 -0.00399756  -0.808623 -2.30955 -0.00393355  -0.735363 -2.28354 -0.00410438  -0.808664 -2.30961 -0.00380373  -0.783933 -2.38338 -0.00379586  -0.832958 -2.35943 -0.00376201  -0.80818 -2.43315 -0.00375247  -0.83292 -2.35936 -0.00388169  -0.857235 -2.40915 -0.0038327  -0.783904 -2.38333 -0.0039413  -0.857246 -2.40918 -0.0037415  -0.832387 -2.48285 -0.00369596  -0.881482 -2.45886 -0.00370181  -0.856586 -2.53247 -0.00366843  -0.88148 -2.45883 -0.00378168  -0.905731 -2.50847 -0.00373304  -0.832389 -2.48283 -0.00379956  -0.905715 -2.50847 -0.00367737  -0.880735 -2.582 -0.00362134  -0.929885 -2.558 -0.00364852  -0.904864 -2.63147 -0.00359297  -0.929902 -2.55799 -0.00369167  -0.954063 -2.60747 -0.00364757  -0.880752 -2.582 -0.00367332  -0.954037 -2.60746 -0.00362933  -0.928918 -2.68084 -0.00355303  -0.978099 -2.65684 -0.00360489  -0.952925 -2.73013 -0.0035224  -0.978125 -2.65682 -0.00361598  -1.00213 -2.70612 -0.00357628  -0.928945 -2.68083 -0.00356996  -1.00211 -2.70612 -0.0035876  0.00369529 -0.0103158 -0.00742614  0.00316076 -0.00741637 -0.00576949  0.0117677 -0.0225004 -0.0124867  0.00320626 -0.0066424 -0.00822616  0.0103127 -0.0164269 -0.0130235  0 0 0  0 0 0  0.00380185 -0.00939095 -0.0101039  0 0 0  0.0094298 -0.0179197 -0.00989437  0.0220041 -0.0393144 -0.0160372  0.0174108 -0.0331994 -0.0127168  0.0334319 -0.0571795 -0.0182456  0.0188161 -0.030878 -0.0162708  0.0279166 -0.0474142 -0.0178125  0.0235847 -0.0368331 -0.0203588  0.0261226 -0.0502589 -0.0142577  0.0441973 -0.0779405 -0.0192487  0.0347027 -0.0704017 -0.0149723  0.054322 -0.100585 -0.0198795  0.0365489 -0.0670127 -0.0184438  0.0443474 -0.0889363 -0.018708  0.0462486 -0.0744792 -0.0236722  0.042446 -0.0926468 -0.0152985  0.0631933 -0.125416 -0.0199023  0.0492486 -0.117151 -0.015264  0.0707498 -0.152458 -0.0198565  0.0511395 -0.113182 -0.0185522  0.0566702 -0.139784 -0.0183973  0.0652059 -0.121464 -0.0241622  0.0547463 -0.143869 -0.0151677  0.076971 -0.18139 -0.0195336  0.0590201 -0.172479 -0.0149177  0.0816858 -0.212435 -0.0192295  0.0609554 -0.168329 -0.0180404  0.063867 -0.199037 -0.0177641  0.078923 -0.177305 -0.0235983  0.061884 -0.203148 -0.0147036  0.0850549 -0.245162 -0.0187801  0.0634378 -0.235482 -0.0143906  0.0868955 -0.279739 -0.0183829  0.0654325 -0.231429 -0.0173566  0.0656204 -0.265699 -0.0170387  0.0869973 -0.241179 -0.0226336  0.0635775 -0.269617 -0.014149  0.0873969 -0.315793 -0.0178874  0.0624084 -0.305208 -0.013817  0.0864097 -0.353415 -0.0174562  0.0644508 -0.301407 -0.0166178  0.0619292 -0.338713 -0.0162822  0.0893412 -0.312051 -0.0215192  0.0598723 -0.342327 -0.0135622  0.0841274 -0.392297 -0.0169529  0.0560622 -0.380692 -0.0132256  0.0804344 -0.432486 -0.0165135  0.0581039 -0.37722 -0.0158561  0.0529923 -0.417068 -0.0155139  0.0860581 -0.388865 -0.0203462  0.0509632 -0.420335 -0.0129642  0.0755193 -0.473727 -0.0160074  0.0446712 -0.46103 -0.0126224  0.0692879 -0.516051 -0.015561  0.0466572 -0.457908 -0.0150794  0.0391287 -0.499866 -0.0147285  0.0773915 -0.470626 -0.0191647  0.0371733 -0.502787 -0.0123541  0.0619197 -0.559247 -0.0150598  0.0285766 -0.545423 -0.012007  0.0533426 -0.603333 -0.0146209  0.0304757 -0.542641 -0.0143006  0.0207206 -0.586349 -0.013941  0.0637071 -0.556469 -0.017988  0.0188708 -0.588939 -0.0117322  0.0437247 -0.648136 -0.01413  0.00816512 -0.633184 -0.0113863  0.0330099 -0.693664 -0.0137001  0.00994945 -0.630719 -0.0135163  -0.00182521 -0.675871 -0.0131551  0.0454111 -0.645663 -0.0168322  -0.00355017 -0.678158 -0.0111098  0.0213523 -0.739779 -0.0132238  -0.0161664 -0.723731 -0.0107652  0.00869811 -0.786486 -0.0128063  -0.0145077 -0.721552 -0.0127307  -0.0281152 -0.767887 -0.012369  0.0229189 -0.73759 -0.0157049  -0.0297041 -0.769904 -0.0104874  -0.00479996 -0.833666 -0.0123429  -0.0440447 -0.816569 -0.01015  -0.0191895 -0.881327 -0.0119342  -0.0425285 -0.814647 -0.01196  -0.0577658 -0.861955 -0.011606  -0.00336277 -0.831727 -0.0146122  -0.0592096 -0.863727 -0.00987685  -0.0343366 -0.92937 -0.0114919  -0.0750909 -0.911293 -0.00955081  -0.050277 -0.977802 -0.0111074  -0.073716 -0.9096 -0.0112088  -0.090408 -0.957701 -0.0108604  -0.033033 -0.927661 -0.0135642  -0.0917122 -0.959257 -0.00928426  -0.0668865 -1.02653 -0.010682  -0.108957 -1.00755 -0.00896645  -0.0842067 -1.07558 -0.0103133  -0.107727 -1.00607 -0.0104784  -0.125707 -1.05481 -0.0101411  -0.0657212 -1.02503 -0.0125618  -0.126868 -1.05617 -0.00870633  -0.102115 -1.12486 -0.00991201  -0.145333 -1.10505 -0.00840604  -0.120638 -1.17439 -0.00956559  -0.144237 -1.10375 -0.00977957  -0.163347 -1.153 -0.00945687  -0.101069 -1.12354 -0.0116111  -0.164373 -1.15419 -0.00816083  -0.13968 -1.22409 -0.00918865  -0.183893 -1.20354 -0.00787342  -0.159264 -1.27399 -0.00885928  -0.182933 -1.20241 -0.00911438  -0.203033 -1.25206 -0.00880945  -0.138767 -1.22294 -0.0107135  -0.203929 -1.2531 -0.00764096  -0.179298 -1.32402 -0.00850475  -0.224373 -1.30281 -0.00736833  -0.199803 -1.37419 -0.00819504  -0.223538 -1.30182 -0.00848269  -0.244493 -1.35178 -0.00819278  -0.178503 -1.32301 -0.00986946  -0.245267 -1.35268 -0.0071454  -0.220691 -1.42445 -0.00786364  -0.266511 -1.40266 -0.00689065  -0.241992 -1.47482 -0.00757384  -0.265796 -1.40181 -0.00788593  -0.287483 -1.45199 -0.00761342  -0.220008 -1.42358 -0.00907147  -0.288146 -1.45277 -0.00668442  -0.263615 -1.52523 -0.00726879  -0.310068 -1.50295 -0.00644171  -0.285582 -1.57572 -0.00700271  -0.309461 -1.50221 -0.00732636  -0.331773 -1.55256 -0.00706744  -0.263036 -1.52448 -0.00833595  -0.332323 -1.55321 -0.00624812  -0.307822 -1.62623 -0.00671554  -0.354817 -1.60353 -0.00602722  -0.330344 -1.67678 -0.00646877  -0.354311 -1.6029 -0.00680113  -0.377131 -1.65333 -0.0065614  -0.307343 -1.6256 -0.00764894  -0.377588 -1.65389 -0.00584722  -0.353089 -1.72733 -0.00620544  -0.400548 -1.70428 -0.00563776  -0.376083 -1.77789 -0.00597918  -0.400134 -1.70375 -0.00631666  -0.42338 -1.75422 -0.00609231  -0.352706 -1.7268 -0.00701547  -0.423744 -1.75468 -0.00547206  -0.39925 -1.82844 -0.00573778  -0.447089 -1.8051 -0.00528431  -0.422616 -1.87897 -0.00553238  -0.446764 -1.80465 -0.00586772  -0.47034 -1.85513 -0.00566459  -0.39894 -1.82799 -0.00643039  -0.470621 -1.85551 -0.00513542  -0.446109 -1.92947 -0.005319  -0.494261 -1.9059 -0.00496256  -0.46975 -1.97993 -0.00512791  -0.494019 -1.90553 -0.00545692  -0.517848 -1.95596 -0.00526798  -0.445877 -1.9291 -0.00589848  -0.518055 -1.95627 -0.00482714  -0.493504 -2.03035 -0.00493729  -0.541922 -2.0066 -0.00466967  -0.517369 -2.08072 -0.00477648  -0.541738 -2.00631 -0.00508296  -0.565756 -2.05666 -0.00491321  -0.493341 -2.03006 -0.00542355  -0.565908 -2.0569 -0.00455225  -0.5413 -2.13102 -0.00460219  -0.58993 -2.10715 -0.00441206  -0.565311 -2.18127 -0.00446022  -0.589804 -2.10692 -0.00475454  -0.61395 -2.15717 -0.00460148  -0.541187 -2.1308 -0.00499976  -0.614043 -2.15734 -0.00430679  -0.589373 -2.23145 -0.00431406  -0.638165 -2.20748 -0.0041883  -0.613477 -2.28156 -0.00419378  -0.638088 -2.20731 -0.00445473  -0.662301 -2.25743 -0.00432861  -0.589305 -2.23128 -0.00462723  -0.662352 -2.25756 -0.0041008  -0.637602 -2.33159 -0.00406909  -0.686533 -2.30757 -0.00399435  -0.661753 -2.38155 -0.00396705  -0.6865 -2.30744 -0.00420439  -0.710731 -2.35742 -0.00409007  -0.637575 -2.33147 -0.00430882  -0.710746 -2.3575 -0.00392473  -0.6859 -2.43141 -0.00386548  -0.734933 -2.40736 -0.00384045  -0.710063 -2.4812 -0.00378942  -0.734925 -2.40727 -0.00398529  -0.759158 -2.45709 -0.00389457  -0.685907 -2.43134 -0.00404143  -0.759144 -2.45714 -0.00377882  -0.734198 -2.5309 -0.00370038  -0.783313 -2.50685 -0.00370598  -0.75834 -2.58052 -0.00364184  -0.783334 -2.50679 -0.00380766  -0.807522 -2.55644 -0.00372279  -0.734224 -2.53086 -0.0038197  -0.807483 -2.55647 -0.00365579  -0.782444 -2.63006 -0.00357544  -0.831602 -2.60601 -0.00360096  -0.806535 -2.67951 -0.00352538  -0.831641 -2.60597 -0.00364745  -0.855768 -2.65545 -0.00357342  -0.78248 -2.63004 -0.00363243  -0.855722 -2.65547 -0.00356293  -0.830574 -2.72889 -0.00346649  -0.879764 -2.70485 -0.00350809  -0.854594 -2.7782 -0.00341797  -0.879805 -2.70481 -0.00350928  -0.903809 -2.75413 -0.00344217  -0.830619 -2.72887 -0.00347519  -0.903767 -2.75416 -0.0034771  0.00580555 -0.0192206 -0.0100762  0.00525336 -0.0139309 -0.00861132  0.0195684 -0.0362168 -0.017025  0.00529073 -0.0130652 -0.0121198  0.0166324 -0.0269623 -0.0194936  0 0 0  0 0 0  0.00602514 -0.018007 -0.0135746  0 0 0  0.0152467 -0.0286719 -0.014872  0.0347284 -0.055392 -0.0220914  0.0279779 -0.046584 -0.0193022  0.0509986 -0.0749652 -0.0255218  0.0298466 -0.0439641 -0.0246098  0.0436757 -0.0624703 -0.0274502  0.0366431 -0.0523831 -0.0279825  0.0412926 -0.0655189 -0.0220406  0.0663047 -0.096024 -0.027324  0.0546889 -0.0864322 -0.0234663  0.0804148 -0.119305 -0.0284984  0.0569195 -0.0829061 -0.0288332  0.068949 -0.10575 -0.0296061  0.0686505 -0.0923311 -0.0335683  0.066726 -0.109512 -0.0243043  0.0933138 -0.144453 -0.0287621  0.07779 -0.13452 -0.024444  0.10461 -0.17202 -0.0288087  0.0798503 -0.13055 -0.0296197  0.0892648 -0.157813 -0.0294911  0.0954691 -0.140475 -0.0348902  0.0872644 -0.161854 -0.0244113  0.114536 -0.201565 -0.0284081  0.0953802 -0.191101 -0.0240463  0.122812 -0.233291 -0.0279486  0.0973077 -0.18702 -0.0289874  0.103836 -0.21845 -0.0284766  0.116494 -0.197539 -0.0342848  0.101941 -0.222486 -0.023647  0.129617 -0.266843 -0.0272719  0.107027 -0.25563 -0.0230788  0.134782 -0.302274 -0.0266056  0.108897 -0.251653 -0.0277621  0.112445 -0.286775 -0.0270882  0.131471 -0.26294 -0.032837  0.110582 -0.290625 -0.0225359  0.138456 -0.339286 -0.0258141  0.112661 -0.327161 -0.0218912  0.140529 -0.377884 -0.0250671  0.114506 -0.323419 -0.0262929  0.115088 -0.361692 -0.0255589  0.14026 -0.335618 -0.0310365  0.113249 -0.365262 -0.0212969  0.141148 -0.417804 -0.0242441  0.11241 -0.404667 -0.0206261  0.140233 -0.459044 -0.0234729  0.11423 -0.401225 -0.0247356  0.11194 -0.442121 -0.0239849  0.14291 -0.414426 -0.0291076  0.110139 -0.445377 -0.020021  0.137945 -0.501368 -0.0226444  0.106534 -0.487164 -0.0193468  0.134207 -0.544776 -0.0218825  0.108301 -0.484043 -0.0231608  0.103312 -0.527096 -0.0224102  0.139646 -0.498296 -0.0271473  0.10158 -0.53003 -0.0187435  0.129199 -0.589059 -0.0210717  0.0953871 -0.573778 -0.0180831  0.122844 -0.634225 -0.0203259  0.0970745 -0.570969 -0.0216055  0.0895908 -0.615781 -0.0208696  0.130824 -0.58629 -0.0252178  0.0879451 -0.61841 -0.0174959  0.115326 -0.680095 -0.0195465  0.0793778 -0.663754 -0.0168548  0.10658 -0.726676 -0.0188267  0.0809706 -0.661242 -0.0200907  0.0712024 -0.707478 -0.019376  0.116861 -0.677618 -0.0233506  0.0696651 -0.709815 -0.0162816  0.0967827 -0.773813 -0.0180753  0.0589375 -0.756449 -0.0156639  0.0858653 -0.821525 -0.0173913  0.0604177 -0.754218 -0.0186251  0.0485893 -0.801591 -0.0179365  0.0982131 -0.771608 -0.0215459  0.0471659 -0.803666 -0.0151143  0.0740087 -0.86967 -0.0166713  0.0344907 -0.851342 -0.0145211  0.061143 -0.918276 -0.0160151  0.0358474 -0.849353 -0.0172228  0.022168 -0.897641 -0.0165582  0.0753249 -0.867707 -0.0198286  0.0208732 -0.899482 -0.0139921  0.0474421 -0.967212 -0.0153384  0.00645459 -0.947985 -0.0134265  0.0328344 -1.01651 -0.0147241  0.00768352 -0.946223 -0.0158764  -0.0076462 -0.995233 -0.0152527  0.0486336 -0.965475 -0.0181992  -0.0088141 -0.996858 -0.0129315  0.017487 -1.06606 -0.0140882  -0.0247934 -1.04601 -0.0123974  0.00133324 -1.1159 -0.0135044  -0.0236863 -1.04445 -0.0146085  -0.0404742 -1.09403 -0.014014  0.0185612 -1.06453 -0.0166665  -0.0415206 -1.09546 -0.0119199  -0.0154662 -1.16591 -0.0129039  -0.0588721 -1.14512 -0.0114197  -0.032982 -1.21615 -0.012359  -0.0578877 -1.14375 -0.0134138  -0.0759711 -1.19375 -0.0128522  -0.0145069 -1.16456 -0.015215  -0.0768909 -1.19501 -0.0109731  -0.05106 -1.26651 -0.0117967  -0.095446 -1.24505 -0.0104995  -0.0697689 -1.31703 -0.0112864  -0.0945835 -1.24385 -0.0122826  -0.113792 -1.29417 -0.0117564  -0.0502198 -1.26532 -0.0138593  -0.114592 -1.29527 -0.0100842  -0.0889676 -1.36763 -0.0107625  -0.134203 -1.3456 -0.00964308  -0.108715 -1.41834 -0.0102885  -0.133452 -1.34454 -0.0112269  -0.153639 -1.39509 -0.0107365  -0.0882425 -1.36659 -0.0125923  -0.154331 -1.39605 -0.0092541  -0.128883 -1.4691 -0.00979984  -0.174853 -1.44657 -0.00884354  -0.149529 -1.51993 -0.0093627  -0.17421 -1.44565 -0.0102403  -0.195241 -1.49634 -0.00978124  -0.12826 -1.46819 -0.0114129  -0.19583 -1.49718 -0.00848079  -0.17053 -1.57077 -0.00890994  -0.217137 -1.54781 -0.00809634  -0.191944 -1.62165 -0.00850284  -0.216593 -1.54701 -0.00932169  -0.238343 -1.59779 -0.0088979  -0.17001 -1.56998 -0.0103183  -0.238828 -1.5985 -0.00776184  -0.213654 -1.67251 -0.00808513  -0.260795 -1.6492 -0.00740647  -0.235711 -1.72338 -0.00771582  -0.260357 -1.64852 -0.00847507  -0.2827 -1.69931 -0.00808096  -0.213227 -1.67184 -0.00930536  -0.283091 -1.69992 -0.00709784  -0.258014 -1.77421 -0.00733471  -0.305608 -1.75062 -0.00677288  -0.280611 -1.82503 -0.006989  -0.305254 -1.75004 -0.00768995  -0.328095 -1.80081 -0.00732934  -0.257672 -1.77364 -0.00837898  -0.328408 -1.80132 -0.00649285  -0.303403 -1.8758 -0.00664508  -0.351376 -1.85198 -0.00619745  -0.326441 -1.92653 -0.00633931  -0.351106 -1.85149 -0.00697994  -0.374352 -1.9022 -0.00664961  -0.303135 -1.87532 -0.00752795  -0.374583 -1.90262 -0.00594258  -0.349624 -1.97719 -0.00602436  -0.397921 -1.95321 -0.00567746  -0.373012 -2.0278 -0.00574958  -0.397718 -1.95281 -0.00633168  -0.421276 -2.00342 -0.00602961  -0.349431 -1.9768 -0.00676143  -0.421441 -2.00376 -0.00545073  -0.396509 -2.07833 -0.0054692  -0.445055 -2.05424 -0.00520957  -0.420161 -2.12881 -0.00522685  -0.444912 -2.05391 -0.00574315  -0.468712 -2.10439 -0.00548017  -0.396377 -2.07802 -0.00607526  -0.468819 -2.10467 -0.0050087  -0.443893 -2.17918 -0.00498056  -0.49264 -2.15502 -0.00480008  -0.467746 -2.22949 -0.00477386  -0.492553 -2.15476 -0.00522947  -0.516524 -2.2051 -0.00499535  -0.443813 -2.17894 -0.0054636  -0.51658 -2.2053 -0.00462687  -0.491641 -2.27971 -0.00455904  -0.540551 -2.25551 -0.00444639  -0.515627 -2.32984 -0.00438392  -0.540506 -2.2553 -0.00478041  -0.564582 -2.30548 -0.00458026  -0.491605 -2.27952 -0.00493693  -0.564601 -2.30563 -0.00429893  -0.539632 -2.37987 -0.00420821  -0.588658 -2.35568 -0.00414336  -0.563699 -2.42983 -0.0040617  -0.588647 -2.35553 -0.00439644  -0.612781 -2.40553 -0.00422478  -0.539627 -2.37975 -0.00448906  -0.612769 -2.40564 -0.00402784  -0.587749 -2.47968 -0.00391817  -0.636861 -2.4555 -0.00389826  -0.611854 -2.52946 -0.00381386  -0.636888 -2.45539 -0.00407505  -0.66103 -2.50522 -0.00393832  -0.587777 -2.4796 -0.00411773  -0.660996 -2.50529 -0.00380981  -0.63592 -2.57913 -0.00370193  -0.685093 -2.55498 -0.0037117  -0.660012 -2.62873 -0.0036186  -0.685134 -2.55491 -0.00382507  -0.70926 -2.60455 -0.003708  -0.635964 -2.57908 -0.00383139  -0.709207 -2.60459 -0.00363791  -0.684069 -2.67823 -0.00353265  -0.733282 -2.65412 -0.00355482  -0.708127 -2.72766 -0.00346458  -0.733337 -2.65406 -0.0036118  -0.757431 -2.70354 -0.00351512  -0.684121 -2.6782 -0.00359964  -0.757362 -2.70356 -0.00349522  -0.732165 -2.77703 -0.00339627  -0.781396 -2.75294 -0.00343204  -0.756205 -2.82636 -0.00334072  -0.781456 -2.7529 -0.00343621  -0.805475 -2.80224 -0.0033493  -0.732228 -2.77701 -0.00341189  -0.805412 -2.80227 -0.00338149  0.00936641 -0.0354201 -0.0126684  0.00865663 -0.0257027 -0.0110815  0.0338907 -0.0605299 -0.0209219  0.00873855 -0.0246006 -0.0151973  0.0260942 -0.0447665 -0.0244253  0 0 0  0 0 0  0.00921936 -0.0339738 -0.0167841  0 0 0  0.0242837 -0.0471349 -0.018819  0.0554871 -0.0766955 -0.0279423  0.0434039 -0.065459 -0.025032  0.0736597 -0.0969172 -0.0324228  0.0454412 -0.0621065 -0.0316976  0.0637829 -0.0819938 -0.0359761  0.0568503 -0.0734484 -0.0355525  0.0611462 -0.085617 -0.0289903  0.0929487 -0.117308 -0.0350176  0.0789243 -0.106367 -0.0312464  0.110263 -0.140577 -0.0367002  0.0812854 -0.102444 -0.0383849  0.0971889 -0.125721 -0.039758  0.0953979 -0.113337 -0.0432693  0.0948223 -0.129711 -0.0326495  0.126774 -0.166218 -0.0370986  0.109589 -0.155064 -0.0330256  0.141664 -0.194181 -0.0372552  0.111746 -0.150964 -0.0400555  0.124795 -0.17876 -0.0400028  0.129057 -0.162111 -0.0451887  0.122739 -0.182816 -0.0330967  0.155077 -0.224561 -0.0367212  0.134376 -0.212749 -0.0326583  0.16681 -0.257008 -0.0361593  0.136327 -0.208683 -0.0394112  0.14631 -0.240857 -0.0387044  0.157105 -0.220542 -0.0444477  0.144422 -0.244809 -0.0321236  0.176916 -0.291532 -0.0352367  0.152854 -0.278827 -0.0313345  0.185274 -0.32788 -0.0343583  0.154686 -0.274935 -0.0377319  0.161462 -0.310957 -0.0367409  0.178806 -0.28772 -0.0425266  0.159659 -0.314697 -0.0305433  0.192019 -0.365934 -0.033282  0.16485 -0.352219 -0.0296158  0.196989 -0.40555 -0.0322808  0.166616 -0.348577 -0.0356129  0.170169 -0.38785 -0.0345094  0.193833 -0.362386 -0.0400945  0.168413 -0.39131 -0.0287261  0.200417 -0.446541 -0.0311517  0.17042 -0.431763 -0.0277551  0.202116 -0.488844 -0.0301062  0.172144 -0.428414 -0.0333303  0.172564 -0.470361 -0.032195  0.202184 -0.443293 -0.0374707  0.170857 -0.473526 -0.0268342  0.202365 -0.532242 -0.0289791  0.169821 -0.516388 -0.0258573  0.200961 -0.576719 -0.0279396  0.17149 -0.513341 -0.0310066  0.168936 -0.557467 -0.0298808  0.204077 -0.5293 -0.0348048  0.167299 -0.560326 -0.0249468  0.198233 -0.622055 -0.0268394  0.163409 -0.605136 -0.0239913  0.193952 -0.668265 -0.0258268  0.165007 -0.602392 -0.0287234  0.159701 -0.648263 -0.0276264  0.199871 -0.619407 -0.0321817  0.158142 -0.650828 -0.023105  0.188476 -0.715139 -0.0247608  0.151622 -0.697205 -0.0221841  0.181559 -0.762723 -0.0237831  0.153137 -0.694748 -0.0265102  0.145301 -0.742005 -0.0254556  0.190026 -0.712777 -0.0296398  0.143837 -0.744296 -0.0213314  0.173573 -0.810806 -0.0227674  0.134927 -0.791913 -0.0204496  0.164273 -0.859457 -0.021834  0.136336 -0.78972 -0.0243914  0.126216 -0.838065 -0.0233833  0.175023 -0.808702 -0.0272024  0.124861 -0.840104 -0.0196375  0.154022 -0.90848 -0.0208732  0.113793 -0.888697 -0.0187945  0.142565 -0.95795 -0.0199951  0.115089 -0.886739 -0.0223693  0.102907 -0.935933 -0.0214127  0.155351 -0.906611 -0.0248905  0.101668 -0.937744 -0.0180248  0.130284 -1.00769 -0.0190842  0.0886593 -0.987091 -0.0172278  0.116908 -1.05778 -0.0182561  0.0898384 -0.985354 -0.0204569  0.0758231 -1.0352 -0.0195577  0.131499 -1.00604 -0.0227077  0.0747056 -1.03679 -0.0165051  0.102817 -1.10805 -0.0174036  0.0599653 -1.08672 -0.0157607  0.0877429 -1.15859 -0.0166185  0.0610303 -1.08518 -0.0186621  0.0453832 -1.1355 -0.0178118  0.103913 -1.10659 -0.0206548  0.0443864 -1.13692 -0.0150737  0.0720429 -1.20925 -0.0158187  0.0281192 -1.18727 -0.014377  0.0554669 -1.26011 -0.0150962  0.0290625 -1.18591 -0.0169712  0.0119839 -1.23658 -0.0161768  0.0730164 -1.20797 -0.018724  0.0111022 -1.23782 -0.0137365  0.0383458 -1.31103 -0.0143489  -0.00651097 -1.28847 -0.0130802  0.0204506 -1.3621 -0.013667  -0.00567794 -1.28728 -0.0153944  -0.0240164 -1.33819 -0.0146508  0.0392122 -1.3099 -0.0169277  -0.0247912 -1.33928 -0.0124857  0.00209212 -1.41318 -0.0129746  -0.0435846 -1.39013 -0.0118767  -0.0169683 -1.46436 -0.0123422  -0.0428636 -1.38908 -0.0139176  -0.0622995 -1.44013 -0.0132266  0.00283647 -1.4122 -0.0152513  -0.0629609 -1.44109 -0.0113246  -0.0363948 -1.51551 -0.0117  -0.0827708 -1.49206 -0.0107545  -0.0564458 -1.56674 -0.0111092  -0.0821619 -1.49114 -0.0125523  -0.102544 -1.54227 -0.0119082  -0.0357585 -1.51466 -0.0136997  -0.103097 -1.54309 -0.0102427  -0.0768089 -1.6179 -0.0105146  -0.123795 -1.59411 -0.00972021  -0.0977292 -1.6691 -0.00998056  -0.123283 -1.59332 -0.0112833  -0.144478 -1.64445 -0.0106891  -0.0762739 -1.61718 -0.0122557  -0.144938 -1.64516 -0.00924754  -0.118895 -1.72022 -0.00943768  -0.166391 -1.69616 -0.00876701  -0.140522 -1.77134 -0.0089376  -0.165967 -1.69548 -0.0101135  -0.187848 -1.74656 -0.0095669  -0.118439 -1.7196 -0.0109265  -0.188218 -1.74717 -0.00833058  -0.162368 -1.82237 -0.00843775  -0.210304 -1.79811 -0.00789058  -0.184625 -1.87338 -0.00798905  -0.209972 -1.79752 -0.00903392  -0.232421 -1.84852 -0.0085367  -0.162018 -1.82185 -0.00970995  -0.232712 -1.84903 -0.00749516  -0.207022 -1.92428 -0.00753391  -0.255319 -1.89987 -0.00709653  -0.229784 -1.97515 -0.00712955  -0.25506 -1.89939 -0.00806141  -0.277986 -1.95027 -0.00760746  -0.206745 -1.92385 -0.00859559  -0.278201 -1.95069 -0.00673974  -0.25265 -2.02589 -0.00671875  -0.301233 -2.0014 -0.00637805  -0.275812 -2.07659 -0.00635028  -0.301046 -2.00099 -0.00717604  -0.32434 -2.05172 -0.0067637  -0.25244 -2.02554 -0.00759184  -0.324491 -2.05206 -0.00605714  -0.299052 -2.12716 -0.00598705  -0.347873 -2.10263 -0.00573826  -0.322533 -2.17767 -0.00566649  -0.347747 -2.10229 -0.00638342  -0.371337 -2.15285 -0.00601912  -0.298905 -2.12688 -0.0066905  -0.371427 -2.15312 -0.00545466  -0.346054 -2.22804 -0.00534701  -0.395061 -2.20351 -0.00517058  -0.369787 -2.27834 -0.00506485  -0.394986 -2.20325 -0.00567579  -0.418797 -2.25362 -0.00535762  -0.345971 -2.22783 -0.00589955  -0.418838 -2.25382 -0.00492597  -0.393533 -2.32852 -0.00478947  -0.442667 -2.30403 -0.00468361  -0.417435 -2.37862 -0.00455999  -0.442638 -2.30383 -0.00506926  -0.466594 -2.354 -0.00480187  -0.393496 -2.32837 -0.00520837  -0.466593 -2.35416 -0.00447786  -0.441325 -2.42859 -0.00433946  -0.490545 -2.40417 -0.00427723  -0.465353 -2.47849 -0.00415611  -0.490557 -2.40402 -0.00455904  -0.514605 -2.454 -0.00433838  -0.441327 -2.42849 -0.00463867  -0.514579 -2.4541 -0.00411308  -0.489325 -2.52827 -0.0039643  -0.538604 -2.50392 -0.00395179  -0.513408 -2.57797 -0.00382662  -0.538633 -2.50382 -0.00414848  -0.562721 -2.5536 -0.00396645  -0.48935 -2.52819 -0.00417399  -0.562675 -2.55367 -0.00382328  -0.537434 -2.62756 -0.00369346  -0.586724 -2.60331 -0.0036993  -0.561522 -2.67709 -0.00359404  -0.586778 -2.60324 -0.00381827  -0.610868 -2.65284 -0.00367939  -0.537478 -2.62752 -0.00381577  -0.610801 -2.65288 -0.00361097  -0.585555 -2.72653 -0.00349867  -0.634848 -2.70236 -0.0035156  -0.609618 -2.77591 -0.00342155  -0.634912 -2.70231 -0.00357127  -0.658973 -2.75174 -0.00346839  -0.585617 -2.72651 -0.00356007  -0.658899 -2.75177 -0.00345135  -0.633655 -2.82525 -0.003353  -0.682937 -2.80113 -0.00337684  -0.657719 -2.87456 -0.0032891  -0.683008 -2.80108 -0.00338256  -0.707055 -2.85042 -0.00328696  -0.633713 -2.82523 -0.00336027  -0.706984 -2.85045 -0.00331879  -0.00680757 -0.000811055 0.0168304  -0.00756219 -0.00569763 0.0203342  -0.0183606 -0.00748421 0.0314188  -0.0100568 -0.000414237 0.0315255  -0.0325212 -0.00788033 0.044753  -0.0256628 -0.0178552 0.0309435  0 0 0  -0.0198372 -0.0160666 0.0254142  0 0 0  0 0 0  -0.00762523 0.0036791 0.0260758  0 0 0  -0.037732 -0.0245561 0.0443856  -0.0242873 -0.0154904 0.0377917  -0.0304058 -0.015508 0.0385075  -0.0397148 -0.0218929 0.0458901  -0.0423848 -0.0257514 0.0443628  -0.0453869 -0.0121982 0.0519671  -0.0584021 -0.0207274 0.059796  -0.0588149 -0.0178601 0.0614291  -0.0542831 -0.0291508 0.0539439  -0.0366347 -0.00751553 0.043027  -0.0711207 -0.0375003 0.0628499  -0.0547818 -0.0314978 0.0529729  -0.0547999 -0.039647 0.04609  -0.069733 -0.0433684 0.0550973  -0.0669674 -0.0555541 0.0471839  -0.0704761 -0.0326182 0.0609547  -0.0826297 -0.0477333 0.0631108  -0.0878469 -0.0357963 0.0728467  -0.0887796 -0.0483849 0.0648302  -0.0563701 -0.0299176 0.0505326  -0.1063 -0.0617421 0.0668908  -0.0848232 -0.0583266 0.0564255  -0.079879 -0.0749604 0.0466141  -0.100487 -0.0764183 0.0557058  -0.0933172 -0.0964055 0.0454459  -0.0968681 -0.066761 0.061547  -0.11112 -0.0878815 0.0604547  -0.120084 -0.0680649 0.0732162  -0.12493 -0.0789014 0.0655406  -0.0770246 -0.0658532 0.0512496  -0.143313 -0.0974717 0.0640389  -0.116523 -0.0966697 0.0543084  -0.107527 -0.120369 0.0437496  -0.133309 -0.11965 0.0522151  -0.122533 -0.146073 0.041592  -0.127415 -0.111862 0.0578654  -0.143829 -0.137302 0.0552316  -0.156051 -0.110991 0.0683224  -0.162601 -0.119403 0.0612779  -0.102271 -0.112799 0.0483644  -0.181709 -0.142319 0.0582261  -0.15044 -0.144099 0.0496445  -0.138177 -0.173582 0.0394518  -0.168247 -0.170703 0.0470216  -0.15454 -0.202498 0.0369889  -0.161596 -0.16471 0.0523785  -0.179594 -0.193251 0.0492002  -0.194536 -0.161543 0.0614187  -0.201425 -0.167836 0.0550234  -0.132038 -0.167597 0.0438867  -0.221103 -0.194232 0.0515441  -0.186307 -0.198423 0.0441186  -0.171424 -0.23283 0.0347748  -0.204934 -0.22785 0.0414472  -0.188875 -0.264336 0.0323607  -0.198372 -0.223263 0.046432  -0.217436 -0.254252 0.04325  -0.234565 -0.217876 0.0541975  -0.241151 -0.222588 0.0484115  -0.165264 -0.228143 0.0389279  -0.2613 -0.251821 0.0450404  -0.223759 -0.258239 0.0386145  -0.206775 -0.297036 0.0302758  -0.24306 -0.290036 0.036127  -0.225129 -0.330756 0.0280668  -0.236967 -0.286467 0.0406947  -0.25679 -0.319575 0.0377584  -0.275656 -0.278992 0.0474097  -0.281692 -0.282588 0.0421695  -0.20099 -0.293323 0.0340897  -0.302272 -0.314245 0.0391299  -0.262545 -0.322721 0.0335408  -0.24389 -0.365534 0.0261744  -0.282451 -0.35661 0.0313082  -0.263029 -0.401225 0.0242116  -0.276934 -0.353764 0.0354531  -0.297368 -0.388795 0.0328361  -0.317605 -0.344334 0.041298  -0.323049 -0.347168 0.036577  -0.238616 -0.362539 0.029634  -0.344045 -0.380954 0.0339121  -0.302536 -0.391347 0.02902  -0.282548 -0.437872 0.0225338  -0.322999 -0.427133 0.0270565  -0.302414 -0.475357 0.0208071  -0.318078 -0.424817 0.0307773  -0.339057 -0.461635 0.0284798  -0.36037 -0.413556 0.0359118  -0.365243 -0.415843 0.0316684  -0.27781 -0.43542 0.0256375  -0.386666 -0.451565 0.0293525  -0.343666 -0.463731 0.0250516  -0.322639 -0.513711 0.0193248  -0.364686 -0.501272 0.0233184  -0.343186 -0.552832 0.0178074  -0.360302 -0.49936 0.0266351  -0.381806 -0.537833 0.0246124  -0.403966 -0.486397 0.0311606  -0.4083 -0.488275 0.0273786  -0.318404 -0.511676 0.0220872  -0.430164 -0.525771 0.0253588  -0.385913 -0.539575 0.0215601  -0.364071 -0.592739 0.0164974  -0.407473 -0.578726 0.0200337  -0.385259 -0.633346 0.01516  -0.403568 -0.577135 0.0229698  -0.425573 -0.617131 0.0211853  -0.448379 -0.562604 0.0269632  -0.452243 -0.564158 0.0236098  -0.360289 -0.59104 0.0189371  -0.474542 -0.603262 0.0218333  -0.429234 -0.618575 0.0184779  -0.406763 -0.674659 0.0139906  -0.451311 -0.659196 0.0171155  -0.428551 -0.716607 0.0128037  -0.447842 -0.657877 0.0196958  -0.470329 -0.699263 0.0181086  -0.49362 -0.641905 0.0232297  -0.497065 -0.64319 0.0202705  -0.40339 -0.67324 0.0161322  -0.519788 -0.683775 0.0186838  -0.473583 -0.70046 0.015729  -0.450627 -0.759191 0.0117568  -0.496145 -0.742411 0.0145131  -0.47297 -0.802344 0.0106919  -0.493068 -0.741319 0.0167706  -0.516002 -0.78396 0.0153481  -0.539672 -0.724042 0.0198718  -0.542724 -0.725097 0.0172858  -0.447631 -0.758013 0.01362  -0.565848 -0.767015 0.0158648  -0.518892 -0.784943 0.0132686  -0.495567 -0.846064 0.00975466  -0.541901 -0.828094 0.0121747  -0.518404 -0.890293 0.00879574  -0.53918 -0.827201 0.0141325  -0.56253 -0.87097 0.0128511  -0.586469 -0.808746 0.0168566  -0.589176 -0.809605 0.0146021  -0.492909 -0.845094 0.0113645  -0.61268 -0.852725 0.0133221  -0.565084 -0.871766 0.0110501  -0.541477 -0.935027 0.00794554  -0.588501 -0.915985 0.0100629  -0.56476 -0.980208 0.00707924  -0.586097 -0.915264 0.0117548  -0.609818 -0.960037 0.0105904  -0.633955 -0.89576 0.0141199  -0.636343 -0.89645 0.0121803  -0.539129 -0.934235 0.0093286  -0.660169 -0.940652 0.0110216  -0.612067 -0.960673 0.00904572  -0.588243 -1.02584 0.00631547  -0.635838 -1.00585 0.0081507  -0.611911 -1.07186 0.00553524  -0.633724 -1.00528 0.00959671  -0.657775 -1.05094 0.00854743  -0.682063 -0.984848 0.0116488  -0.684155 -0.985387 0.00998437  -0.58618 -1.0252 0.00749063  -0.708268 -1.03055 0.00893748  -0.659738 -1.05143 0.00723279  -0.635751 -1.11827 0.00484216  -0.683812 -1.09745 0.00642204  -0.659743 -1.16502 0.00413322  -0.681973 -1.097 0.00764394  -0.706293 -1.14345 0.00669456  -0.730693 -1.07576 0.00941062  -0.732517 -1.07618 0.00799608  -0.633946 -1.11777 0.00582969  -0.756873 -1.12218 0.00704813  -0.707997 -1.14382 0.00559247  -0.683873 -1.21212 0.00351191  -0.732323 -1.19057 0.00486088  -0.708136 -1.2595 0.00287819  -0.73073 -1.19024 0.00588083  -0.755275 -1.23736 0.00502288  -0.77976 -1.1683 0.00737607  -0.781333 -1.1686 0.00619435  -0.682313 -1.21173 0.00433338  -0.805881 -1.21535 0.00534475  -0.756739 -1.23763 0.00411224  -0.732509 -1.30717 0.0023154  -0.78126 -1.28501 0.00345755  -0.756978 -1.3551 0.00174117  -0.779899 -1.28477 0.00429213  -0.804603 -1.33247 0.00352299  -0.829165 -1.26224 0.00555086  -0.830508 -1.26245 0.00458324  -0.731164 -1.30689 0.00297964  -0.855207 -1.30984 0.00380909  -0.805858 -1.33266 0.00277734  -0.781533 -1.40326 0.00124252  -0.830532 -1.38058 0.00218999  -0.806168 -1.45164 0.000726461  -0.82937 -1.38042 0.00287271  -0.854205 -1.42862 0.00217247  -0.878814 -1.35739 0.00390267  -0.879951 -1.35752 0.00312233  -0.780394 -1.40307 0.00177443  -0.904759 -1.40545 0.0024302  -0.855259 -1.42873 0.00157881  -0.830852 -1.50022 0.000280023  -0.880034 -1.47711 0.00105393  -0.855588 -1.54898 -0.000171781  -0.879065 -1.47701 0.00159061  -0.90396 -1.52562 0.000975013  -0.928634 -1.45357 0.00242996  -0.929584 -1.45364 0.00181842  -0.829897 -1.5001 0.000692368  -0.954451 -1.50203 0.00120127  -0.90484 -1.52567 0.000515938  -0.880361 -1.5979 -0.000569224  -0.929678 -1.57443 5.126e-05  -0.90516 -1.64695 -0.000969052  -0.928878 -1.57439 0.000456691  -0.953812 -1.62333 -8.13007e-05  -0.97853 -1.55063 0.00111806  -0.979309 -1.55064 0.000657678  -0.879573 -1.59783 -0.000263095  -1.00419 -1.59941 0.000105381  -0.954523 -1.62334 -0.000426173  -0.929963 -1.69613 -0.00131607  -0.979378 -1.67239 -0.000832081  -0.954776 -1.74542 -0.00165987  -0.978732 -1.67239 -0.000528932  -1.00366 -1.72159 -0.00100303  -1.02843 -1.64838 -2.6226e-05  -1.02906 -1.64835 -0.000364184  -0.929323 -1.69612 -0.00109518  -1.05392 -1.69742 -0.000843883  -1.00422 -1.72156 -0.00124574  -0.979584 -1.7948 -0.00195456  -1.02906 -1.77084 -0.00159276  -1.00439 -1.84425 -0.00225365  -1.02855 -1.77088 -0.00138652  -1.05344 -1.82028 -0.00178897  -1.07825 -1.74668 -0.00101984  -1.07875 -1.74663 -0.00124741  -0.979084 -1.79482 -0.00181067  -1.10357 -1.79592 -0.0016582  -1.05387 -1.82021 -0.00195646  -1.02916 -1.89378 -0.00250375  -1.07866 -1.86967 -0.00224674  -1.05391 -1.94335 -0.00275147  -1.07827 -1.86973 -0.00211513  -1.1031 -1.91927 -0.00245702  -1.12798 -1.84542 -0.00186741  -1.12833 -1.84533 -0.00200117  -1.02878 -1.89383 -0.00242436  -1.15309 -1.89481 -0.00234663  -1.10342 -1.91919 -0.00255013  -1.07862 -1.99295 -0.00295472  -1.12812 -1.96875 -0.00278592  -1.10329 -2.04258 -0.00315928  -1.12784 -1.96883 -0.00271416  -1.15257 -2.01844 -0.00299084  -1.17751 -1.94444 -0.0025655  -1.17776 -1.94434 -0.00262988  -1.07834 -1.99303 -0.00292122  -1.20243 -1.99393 -0.00292063  -1.1528 -2.01835 -0.00303137  -1.12792 -2.09222 -0.00331032  -1.17741 -2.06796 -0.00321734  -1.1525 -2.14187 -0.00346255  -1.17722 -2.06805 -0.00319517  -1.20185 -2.1177 -0.00339758  -1.22683 -2.04364 -0.00313187  -1.227 -2.04354 -0.00313497  -1.12773 -2.09231 -0.00331295  -1.25156 -2.09318 -0.00334942  -1.20199 -2.11759 -0.00340343  -1.17701 -2.1915 -0.00357115  -1.22649 -2.16722 -0.00353634  -1.20149 -2.24112 -0.00367808  -1.22638 -2.16731 -0.00355041  -1.2509 -2.21694 -0.00370288  -1.27594 -2.14292 -0.00353444  -1.27602 -2.14281 -0.00351381  -1.1769 -2.19158 -0.00359976  -1.30047 -2.19246 -0.00365746  -1.25095 -2.21684 -0.00366592  -1.2259 -2.2907 -0.00375283  -1.27534 -2.26644 -0.00375235  -1.25026 -2.34025 -0.00382221  -1.27528 -2.26651 -0.00377727  -1.29968 -2.31609 -0.00386369  -1.32478 -2.24216 -0.00381696  -1.32481 -2.24208 -0.00375593  -1.22584 -2.29078 -0.00379145  -1.34915 -2.29168 -0.00385201  -1.2997 -2.316 -0.00383556  -1.27457 -2.38977 -0.00386822  -1.32397 -2.36553 -0.00388372  -1.29882 -2.43923 -0.00392246  -1.32395 -2.36559 -0.00391459  -1.34822 -2.41509 -0.00395942  -1.37339 -2.34129 -0.00394809  -1.37339 -2.34123 -0.00388992  -1.27454 -2.38985 -0.0039134  -1.39765 -2.39075 -0.00395453  -1.34823 -2.41502 -0.00393534  -1.32303 -2.48866 -0.00397325  -1.37244 -2.46446 -0.00398719  -1.34722 -2.53803 -0.00403869  -1.37242 -2.46452 -0.0040158  -1.39665 -2.51394 -0.00407314  -1.42183 -2.44028 -0.00402188  -1.42186 -2.44022 -0.00399089  -1.323 -2.48875 -0.00401449  -1.44607 -2.48965 -0.00406325  -1.39666 -2.51386 -0.00405359  -0.00337022 0.00242987 0.0105201  -0.00378937 0.00114737 0.0131748  -0.00860037 -0.000577211 0.0197716  -0.00477153 0.00568338 0.0194792  -0.0166981 0.004004 0.0310761  0 0 0  0 0 0  -0.00377039 0.00634447 0.015594  0 0 0  -0.0106855 -0.00272883 0.0255567  -0.0141268 -0.00911516 0.0243218  -0.0203995 -0.0116315 0.0313148  -0.0209349 -0.0214491 0.0283018  -0.02568 -0.00432457 0.0347191  -0.0330846 -0.0144154 0.0404378  -0.017528 -0.00216962 0.0270667  -0.0301227 -0.0230962 0.0361065  -0.0279478 -0.0365597 0.029471  -0.0401438 -0.0374952 0.0374978  -0.0357146 -0.0548443 0.0302088  -0.0409572 -0.0288142 0.0410687  -0.0487801 -0.0461945 0.0422796  -0.0282187 -0.0284635 0.032034  -0.050415 -0.0548094 0.0384576  -0.043972 -0.0754977 0.0298102  -0.0609748 -0.0747247 0.0379621  -0.053076 -0.0987284 0.0289901  -0.0580781 -0.0664792 0.0416168  -0.0680611 -0.0895004 0.0405972  -0.0412938 -0.0675759 0.0324328  -0.0723435 -0.0971782 0.0369998  -0.0629225 -0.124027 0.0279268  -0.0843249 -0.121798 0.0356485  -0.0737478 -0.151378 0.0264527  -0.079491 -0.114662 0.0392642  -0.0917964 -0.141914 0.0373213  -0.0585628 -0.116971 0.0305803  -0.0972446 -0.148387 0.0338472  -0.0853726 -0.1804 0.0251145  -0.11089 -0.176708 0.032151  -0.0979758 -0.211054 0.0234264  -0.105314 -0.170791 0.0356414  -0.119619 -0.201216 0.0334041  -0.080311 -0.174409 0.0277281  -0.125352 -0.206532 0.0300798  -0.11131 -0.243038 0.0220182  -0.14051 -0.237762 0.0283111  -0.125528 -0.276352 0.0203475  -0.134867 -0.232932 0.0316178  -0.150793 -0.265863 0.0293868  -0.106142 -0.23806 0.0245178  -0.156336 -0.270198 0.0262684  -0.140385 -0.310776 0.018993  -0.172781 -0.303823 0.0245788  -0.156008 -0.346313 0.0174482  -0.167425 -0.299881 0.0276424  -0.184625 -0.334921 0.0255692  -0.13543 -0.306655 0.0213189  -0.189774 -0.338473 0.0226996  -0.172193 -0.382817 0.0162066  -0.20731 -0.374163 0.0211539  -0.189037 -0.420282 0.0148191  -0.202376 -0.370917 0.0239468  -0.220627 -0.407819 0.0220811  -0.167593 -0.37939 0.0183184  -0.225317 -0.410754 0.0194798  -0.206387 -0.458606 0.0137037  -0.243807 -0.448273 0.0180937  -0.224305 -0.497777 0.0124866  -0.239334 -0.445575 0.0206068  -0.258493 -0.484156 0.018954  -0.202184 -0.455734 0.0155945  -0.26272 -0.48661 0.0166209  -0.242703 -0.537731 0.011494  -0.282081 -0.525789 0.0153977  -0.2616 -0.578428 0.0104249  -0.27806 -0.523522 0.017633  -0.29803 -0.563643 0.0161684  -0.238901 -0.535308 0.0131633  -0.301824 -0.565701 0.0140966  -0.280933 -0.619835 0.0095495  -0.321978 -0.606373 0.013018  -0.300721 -0.661905 0.00860488  -0.318375 -0.604468 0.0149845  -0.33909 -0.645985 0.01369  -0.277514 -0.617781 0.0110085  -0.342489 -0.647714 0.0118698  -0.320905 -0.704604 0.00782967  -0.363371 -0.68973 0.0109085  -0.341501 -0.747896 0.0069989  -0.360145 -0.688126 0.012633  -0.381545 -0.730898 0.0114737  -0.317837 -0.702864 0.00909722  -0.384578 -0.732354 0.00988936  -0.36246 -0.79175 0.00630641  -0.406128 -0.775579 0.00903475  -0.383787 -0.836128 0.00557005  -0.403259 -0.774233 0.0105311  -0.425283 -0.818129 0.00949574  -0.359718 -0.790281 0.00739753  -0.427981 -0.819347 0.00812209  -0.405439 -0.881002 0.00495744  -0.450139 -0.863648 0.00735795  -0.427418 -0.926335 0.00429547  -0.447587 -0.862518 0.00865114  -0.470174 -0.907414 0.00771785  -0.403 -0.879762 0.0058856  -0.472564 -0.908427 0.00653839  -0.449685 -0.972105 0.00374556  -0.495257 -0.953681 0.00585198  -0.47224 -1.01827 0.00315392  -0.492999 -0.952741 0.00695348  -0.516082 -0.998522 0.00611436  -0.44753 -0.971062 0.00452268  -0.518191 -0.999353 0.00511336  -0.495048 -1.06482 0.00266016  -0.541359 -1.04545 0.00449598  -0.518109 -1.11172 0.00212753  -0.53938 -1.04468 0.00542438  -0.562891 -1.09123 0.00467002  -0.493152 -1.06396 0.00330913  -0.56474 -1.0919 0.00382638  -0.541384 -1.15894 0.00168478  -0.588314 -1.13872 0.00327373  -0.56487 -1.20646 0.0012095  -0.586581 -1.1381 0.00404871  -0.610464 -1.18532 0.0033685  -0.539723 -1.15824 0.00221264  -0.612069 -1.18585 0.00267208  -0.588534 -1.25427 0.000812531  -0.635982 -1.2333 0.00217283  -0.612379 -1.30231 0.000385523  -0.634487 -1.2328 0.00281119  -0.65867 -1.28059 0.00220156  -0.587096 -1.25369 0.00123549  -0.660048 -1.28101 0.001634  -0.636369 -1.3506 3.02792e-05  -0.684244 -1.32899 0.00118423  -0.660496 -1.39909 -0.000349641  -0.682955 -1.3286 0.00169969  -0.707379 -1.37688 0.00115526  -0.635126 -1.35014 0.000364184  -0.708559 -1.3772 0.00069654  -0.684738 -1.44778 -0.000659943  -0.732967 -1.42562 0.000296712  -0.709094 -1.49664 -0.00100183  -0.73187 -1.42533 0.000705123  -0.756478 -1.47401 0.000215769  -0.683688 -1.44743 -0.000408292  -0.757476 -1.47424 -0.000137448  -0.733531 -1.54566 -0.00128067  -0.782044 -1.52304 -0.000489831  -0.758047 -1.59481 -0.0015837  -0.781131 -1.52282 -0.000176907  -0.805863 -1.57182 -0.000614405  -0.732652 -1.54539 -0.00109923  -0.806686 -1.57198 -0.000879288  -0.78263 -1.64409 -0.00182498  -0.831372 -1.62108 -0.00118721  -0.807258 -1.69347 -0.00208223  -0.830614 -1.62093 -0.000961661  -0.855422 -1.6702 -0.00133526  -0.781906 -1.64389 -0.0017029  -0.856094 -1.67029 -0.00152564  -0.831911 -1.74294 -0.00228643  -0.88083 -1.71962 -0.00179017  -0.856599 -1.79248 -0.00251961  -0.880221 -1.71952 -0.00163364  -0.905064 -1.76897 -0.00196552  -0.831329 -1.74281 -0.00222063  -0.905598 -1.76902 -0.00209391  -0.881305 -1.84209 -0.00270271  -0.930355 -1.81852 -0.00231957  -0.906011 -1.89174 -0.00288808  -0.92988 -1.81847 -0.00222254  -0.954714 -1.86806 -0.00249517  -0.880845 -1.84201 -0.00267589  -0.955121 -1.86807 -0.00257206  -0.930702 -1.94144 -0.00302947  -0.979858 -1.91767 -0.00275862  -0.955397 -1.99115 -0.00318682  -0.979496 -1.91766 -0.00270498  -1.00429 -1.96732 -0.00293374  -0.930362 -1.9414 -0.00303745  -1.00459 -1.96731 -0.00296474  -0.980055 -2.04087 -0.00330853  -1.02928 -2.01697 -0.00311935  -1.0047 -2.0906 -0.00343001  -1.02902 -2.01698 -0.00310338  -1.05374 -2.06668 -0.00328577  -0.979803 -2.04087 -0.00333166  -1.05395 -2.06664 -0.00328958  -1.02929 -2.14032 -0.0035181  -1.07856 -2.11632 -0.0034095  -1.05385 -2.19002 -0.0036099  -1.07839 -2.11635 -0.00341833  -1.10302 -2.16604 -0.00355017  -1.02913 -2.14034 -0.00355661  -1.10314 -2.16599 -0.00353575  -1.07836 -2.2397 -0.00367069  -1.12765 -2.21564 -0.00361741  -1.10283 -2.28934 -0.00373721  -1.12755 -2.21568 -0.00364244  -1.15207 -2.26532 -0.00373113  -1.07826 -2.23973 -0.00371587  -1.15214 -2.26526 -0.00370502  -1.12723 -2.33895 -0.00377333  -1.17655 -2.31486 -0.00375915  -1.15159 -2.38851 -0.00381327  -1.17648 -2.3149 -0.00379324  -1.20089 -2.36448 -0.00384736  -1.12718 -2.339 -0.00382054  -1.20091 -2.36441 -0.00382078  -1.17588 -2.43803 -0.00383675  -1.22521 -2.41393 -0.0038569  -1.20012 -2.48748 -0.0038774  -1.22518 -2.41398 -0.00389624  -1.24945 -2.46346 -0.00393736  -1.17586 -2.43808 -0.00389671  -1.24946 -2.46338 -0.00390625  -1.2243 -2.53688 -0.00391746  -1.27365 -2.51279 -0.00395513  -1.24843 -2.58621 -0.00397384  -1.27363 -2.51286 -0.00398958  -1.29783 -2.56223 -0.0040499  -1.22429 -2.53696 -0.00396991  -1.29783 -2.56214 -0.00401533  -0.000899535 0.00229201 0.00430644  -0.00129063 0.00257626 0.00697362  -0.00193315 -0.000807613 0.00855052  -0.00164326 0.00646374 0.00977945  -0.00689156 0.00556746 0.0170026  0 0 0  0 0 0  -0.00101724 0.00564224 0.00620472  0 0 0  -0.00374284 -0.000256389 0.0139636  -0.00291358 -0.00970596 0.0108196  -0.0076282 -0.00913647 0.0172688  -0.00473319 -0.022353 0.0130086  -0.0101545 -0.00263038 0.0189443  -0.0126381 -0.0138541 0.0226367  -0.00416 -0.0033778 0.0116088  -0.0116258 -0.0213358 0.020502  -0.00692016 -0.0386351 0.013672  -0.0167926 -0.0371931 0.0213585  -0.0100144 -0.058001 0.0141776  -0.0165298 -0.02952 0.0229917  -0.0203328 -0.0481578 0.0237029  -0.00618556 -0.0311833 0.0143142  -0.0221598 -0.0559071 0.0220056  -0.013765 -0.0798736 0.0140282  -0.0283607 -0.077238 0.0217541  -0.0185452 -0.104345 0.0135925  -0.0256923 -0.069663 0.0234264  -0.031687 -0.0938024 0.0227487  -0.0111717 -0.0724587 0.0147418  -0.0352885 -0.10106 0.0211354  -0.0241671 -0.130814 0.0130655  -0.0430636 -0.126991 0.0203762  -0.030935 -0.15943 0.0122077  -0.0390371 -0.12011 0.0220913  -0.0473667 -0.14856 0.020843  -0.0204642 -0.123992 0.0138767  -0.0518402 -0.154976 0.0192078  -0.0386206 -0.189676 0.0115094  -0.0615057 -0.184666 0.0182244  -0.0474719 -0.221676 0.0105131  -0.0568936 -0.17868 0.019943  -0.0674368 -0.210499 0.018521  -0.0344071 -0.183657 0.0123804  -0.0721954 -0.216004 0.0168839  -0.057212 -0.255012 0.00975895  -0.0837613 -0.248725 0.0158279  -0.0680488 -0.289783 0.00876141  -0.0790302 -0.243628 0.0174966  -0.0915495 -0.278129 0.0160758  -0.0528783 -0.24982 0.010631  -0.0962507 -0.282783 0.0144943  -0.0797085 -0.325665 0.00802994  -0.10955 -0.317994 0.0134673  -0.092363 -0.362735 0.00710058  -0.104985 -0.313688 0.015036  -0.119214 -0.350385 0.0137062  -0.0754888 -0.321232 0.00885463  -0.123661 -0.354312 0.0122311  -0.105758 -0.400754 0.00642514  -0.138503 -0.39162 0.0112853  -0.120037 -0.439773 0.00559127  -0.134224 -0.38798 0.0127171  -0.149926 -0.426557 0.0115117  -0.101778 -0.396974 0.00717199  -0.154047 -0.429873 0.0101739  -0.134978 -0.47962 0.00498688  -0.170239 -0.468996 0.0093224  -0.150695 -0.520323 0.00425208  -0.166305 -0.465908 0.0106078  -0.183293 -0.506124 0.00953698  -0.131296 -0.476393 0.00563765  -0.187057 -0.508943 0.00834811  -0.167023 -0.561755 0.00372291  -0.204454 -0.549665 0.00759864  -0.184036 -0.603922 0.003088  -0.200872 -0.547034 0.00872231  -0.219 -0.588711 0.007779  -0.163651 -0.55899 0.00427532  -0.22241 -0.591106 0.00674236  -0.201594 -0.646739 0.0026294  -0.24089 -0.633237 0.00608313  -0.219765 -0.690197 0.00208282  -0.237659 -0.630995 0.00705886  -0.256808 -0.673964 0.00622463  -0.198537 -0.644368 0.00308621  -0.259882 -0.676008 0.00532997  -0.238434 -0.73422 0.00168252  -0.279336 -0.719384 0.00475705  -0.257647 -0.7788 0.00120592  -0.276422 -0.717465 0.00559175  -0.296491 -0.761581 0.00485778  -0.235676 -0.732181 0.0020504  -0.299246 -0.763325 0.00409508  -0.277303 -0.823879 0.000864387  -0.319583 -0.807802 0.00358629  -0.297448 -0.869441 0.000450969  -0.316974 -0.806166 0.00429475  -0.337869 -0.851291 0.00363815  -0.27483 -0.822133 0.0011543  -0.340326 -0.852776 0.00300026  -0.317987 -0.915435 0.000149131  -0.361444 -0.898221 0.00255644  -0.338958 -0.961841 -0.000219107  -0.359123 -0.896822 0.00314569  -0.380746 -0.942834 0.00256622  -0.315779 -0.913937 0.000367761  -0.382928 -0.944092 0.00203395  -0.360273 -1.00862 -0.000479221  -0.404742 -0.990375 0.00163734  -0.381973 -1.05576 -0.00079608  -0.402683 -0.989192 0.00212538  -0.424949 -1.03597 0.00160599  -0.35832 -1.00735 -0.000325561  -0.426876 -1.03703 0.001176  -0.403968 -1.10322 -0.00102079  -0.449295 -1.08404 0.00082922  -0.426297 -1.15098 -0.00130296  -0.447489 -1.08305 0.00121868  -0.470309 -1.13048 0.000754714  -0.402244 -1.10214 -0.00091958  -0.472001 -1.13137 0.000406384  -0.448889 -1.19901 -0.00150383  -0.494947 -1.179 9.7394e-05  -0.471758 -1.24729 -0.00174737  -0.493371 -1.17817 0.000409126  -0.516667 -1.22617 4.76837e-07  -0.447381 -1.1981 -0.00144851  -0.518135 -1.22691 -0.000272155  -0.494847 -1.2958 -0.00192106  -0.541522 -1.27506 -0.000549436  -0.51817 -1.34452 -0.00214171  -0.540155 -1.27437 -0.000307322  -0.563855 -1.32284 -0.000676513  -0.493544 -1.29504 -0.00190353  -0.565117 -1.32344 -0.000883579  -0.541677 -1.39342 -0.00229168  -0.588878 -1.37205 -0.00112498  -0.565372 -1.44249 -0.0024761  -0.587703 -1.37147 -0.000949264  -0.611724 -1.42034 -0.00126982  -0.540558 -1.39279 -0.00230908  -0.612802 -1.42082 -0.00141966  -0.589211 -1.49171 -0.00260544  -0.636849 -1.46978 -0.00162697  -0.613212 -1.54106 -0.00277793  -0.635855 -1.46932 -0.00150561  -0.660131 -1.5185 -0.00179255  -0.588268 -1.49119 -0.00264859  -0.661036 -1.51888 -0.00189102  -0.637316 -1.59052 -0.00288534  -0.685316 -1.56812 -0.00207603  -0.661546 -1.64009 -0.00302672  -0.684483 -1.56776 -0.00200284  -0.708955 -1.61718 -0.00225234  -0.636533 -1.59011 -0.00294697  -0.7097 -1.61748 -0.0023061  -0.685849 -1.68974 -0.00311768  -0.734147 -1.66695 -0.00246108  -0.710242 -1.73946 -0.0032382  -0.733465 -1.66666 -0.00242746  -0.758065 -1.71627 -0.00264215  -0.685209 -1.68941 -0.00319934  -0.75867 -1.7165 -0.00266218  -0.734686 -1.78923 -0.00330877  -0.783218 -1.76612 -0.00280011  -0.759184 -1.83905 -0.00341213  -0.782676 -1.76591 -0.00279593  -0.807342 -1.81564 -0.00297081  -0.734176 -1.78899 -0.00340307  -0.807823 -1.81579 -0.0029639  -0.783715 -1.8889 -0.00347376  -0.832439 -1.86552 -0.00308013  -0.808274 -1.93877 -0.00355625  -0.832017 -1.86537 -0.00309503  -0.85673 -1.91518 -0.00325143  -0.783309 -1.88872 -0.00357008  -0.85709 -1.91529 -0.00322545  -0.83284 -1.98865 -0.00360227  -0.881716 -1.96507 -0.00330818  -0.857414 -2.03853 -0.00366783  -0.881402 -1.96497 -0.0033499  -0.906097 -2.0148 -0.00346231  -0.832537 -1.98852 -0.00369871  -0.906366 -2.01486 -0.00342882  -0.881976 -2.0884 -0.0036968  -0.930969 -2.06465 -0.0034976  -0.906529 -2.13825 -0.0037415  -0.930743 -2.0646 -0.00354743  -0.955403 -2.11441 -0.00364017  -0.88177 -2.08832 -0.00378931  -0.955579 -2.11444 -0.00358891  -0.931048 -2.18807 -0.00375855  -0.980137 -2.16421 -0.00363433  -0.955545 -2.23785 -0.00378811  -0.97999 -2.16418 -0.00369215  -1.00457 -2.21396 -0.00375438  -0.93091 -2.18802 -0.00385141  -1.00468 -2.21395 -0.00370359  -0.980004 -2.28761 -0.00379145  -1.02915 -2.26367 -0.00372994  -1.00443 -2.3373 -0.00381041  -1.02907 -2.26366 -0.00378203  -1.05356 -2.31336 -0.00381792  -0.979929 -2.28759 -0.00387597  -1.05361 -2.31334 -0.00377691  -1.0288 -2.38695 -0.00380385  -1.078 -2.36297 -0.00378931  -1.05313 -2.43654 -0.00381148  -1.07796 -2.36297 -0.00383353  -1.10233 -2.41258 -0.00384569  -1.02877 -2.38697 -0.00386918  -1.10235 -2.41254 -0.00381517  -1.07739 -2.48608 -0.00380778  -1.12661 -2.46207 -0.00382602  -1.1016 -2.53554 -0.00382221  -1.12661 -2.4621 -0.00386035  -1.15086 -2.51159 -0.00387812  -1.07739 -2.48611 -0.00386298  -1.15085 -2.51153 -0.00385737  -1.12573 -2.58492 -0.00382078  -1.175 -2.56091 -0.00387526  -1.1498 -2.6342 -0.00385296  -1.17501 -2.56096 -0.00390947  -1.19913 -2.6103 -0.00394857  -1.12575 -2.58498 -0.00386572  -1.19912 -2.61021 -0.00391912  0.00111526 0.000343919 -0.00182545  0.000713199 0.00152022 0.00089097  0.00348391 -0.00426137 -0.00217831  0.000761628 0.00482559 0.000716925  0.000935987 0.00264657 0.00339723  0 0 0  0 0 0  0.00116479 0.00330353 -0.00255191  0 0 0  0.00164436 -0.00232679 0.00298953  0.00644663 -0.0143402 -0.00209141  0.00225152 -0.0117728 0.00405324  0.00910917 -0.0278073 -0.00162673  0.00198349 -0.00575852 0.0039624  0.00333115 -0.0177861 0.0055182  0.00705701 -0.00854605 -0.00329566  0.00282487 -0.0246659 0.00551534  0.0113381 -0.0451602 -0.00136673  0.00247568 -0.0415141 0.00596321  0.0127798 -0.065329 -0.00110114  0.00368452 -0.0343413 0.00580621  0.0038183 -0.0538442 0.00618315  0.0129117 -0.038192 -0.00257254  0.00174177 -0.0611744 0.00637627  0.0133688 -0.0882251 -0.00101233  -9.53674e-07 -0.0836068 0.00638521  0.0128694 -0.113609 -0.00110543  0.00256673 -0.0763708 0.00624084  0.000568926 -0.101458 0.00594473  0.0159002 -0.0811393 -0.00211537  -0.00259081 -0.108493 0.00611269  0.0113634 -0.141061 -0.00115454  -0.00621343 -0.135503 0.00586605  0.00858873 -0.170669 -0.00145602  -0.00278193 -0.128747 0.00579727  -0.00719148 -0.158205 0.00520694  0.0145563 -0.134388 -0.00211537  -0.0109324 -0.164596 0.00528181  0.00475091 -0.201951 -0.00159502  -0.0167281 -0.195415 0.0048933  -0.000402391 -0.235043 -0.00197709  -0.0128829 -0.189368 0.00490582  -0.01969 -0.222317 0.00421321  0.00828886 -0.195911 -0.00242329  -0.0236687 -0.227955 0.00420284  -0.00660241 -0.26952 -0.00215757  -0.0316726 -0.261914 0.00375903  -0.0140691 -0.305494 -0.00254893  -0.0277109 -0.25662 0.00381875  -0.0367906 -0.292397 0.00311089  -0.00295138 -0.264177 -0.00288343  -0.0407642 -0.297287 0.00305927  -0.0225256 -0.342626 -0.0027318  -0.0508665 -0.333843 0.00261629  -0.0321589 -0.381001 -0.0030911  -0.0469831 -0.329262 0.00269556  -0.0581385 -0.367351 0.00203121  -0.0189335 -0.337958 -0.00339079  -0.0619574 -0.371571 0.00197065  -0.0426979 -0.420347 -0.00324929  -0.073964 -0.410294 0.00156474  -0.054304 -0.460725 -0.00356126  -0.0702849 -0.406339 0.00162768  -0.0832901 -0.446365 0.00103307  -0.0392687 -0.416286 -0.0038693  -0.0868729 -0.45 0.00098896  -0.0667427 -0.501934 -0.00369334  -0.1006 -0.490561 0.000633836  -0.0801314 -0.544004 -0.00394976  -0.0971702 -0.487149 0.000666738  -0.111822 -0.528824 0.00014925  -0.0635325 -0.498407 -0.00428271  -0.115132 -0.531953 0.000132918  -0.0942699 -0.586783 -0.00404346  -0.130398 -0.574085 -0.000167251  -0.109263 -0.630293 -0.0042516  -0.127246 -0.571142 -0.000166297  -0.143355 -0.614235 -0.000619531  -0.0913045 -0.583725 -0.00461483  -0.146383 -0.616936 -0.000598669  -0.124922 -0.674412 -0.0043093  -0.163026 -0.660425 -0.000844955  -0.141345 -0.719151 -0.00446737  -0.160149 -0.657876 -0.000881314  -0.177569 -0.702194 -0.00126505  -0.122211 -0.671755 -0.00486457  -0.180313 -0.704531 -0.00120628  -0.158371 -0.764414 -0.00449514  -0.19819 -0.749191 -0.00140953  -0.176077 -0.8102 -0.00461781  -0.195589 -0.746985 -0.00147569  -0.21417 -0.792369 -0.00179923  -0.155914 -0.762106 -0.00503254  -0.216642 -0.794383 -0.00171542  -0.194318 -0.856433 -0.00461948  -0.235615 -0.840053 -0.00188041  -0.213164 -0.903109 -0.00471294  -0.233279 -0.838148 -0.00197923  -0.252891 -0.884438 -0.00225151  -0.19211 -0.854433 -0.00513959  -0.255107 -0.886178 -0.00214052  -0.232487 -0.950165 -0.00470066  -0.27506 -0.932713 -0.00227821  -0.252334 -0.997596 -0.00477052  -0.272969 -0.931069 -0.00239635  -0.293494 -0.978139 -0.0026325  -0.230506 -0.948432 -0.00519347  -0.295473 -0.979636 -0.00250268  -0.272602 -1.04535 -0.00474155  -0.31628 -1.02691 -0.00260794  -0.293339 -1.09341 -0.00478959  -0.314427 -1.02549 -0.00274861  -0.335755 -1.07323 -0.00294924  -0.27085 -1.04385 -0.00521481  -0.3375 -1.07452 -0.00279844  -0.31444 -1.14174 -0.00474548  -0.359065 -1.12242 -0.00288212  -0.335951 -1.19032 -0.00477636  -0.357441 -1.1212 -0.00303543  -0.37946 -1.1695 -0.00320148  -0.3129 -1.14045 -0.00519443  -0.380984 -1.1706 -0.00304174  -0.357767 -1.23913 -0.00472844  -0.403204 -1.21902 -0.00311244  -0.379936 -1.28814 -0.00474703  -0.401785 -1.21799 -0.00327694  -0.424406 -1.26675 -0.00342059  -0.356423 -1.23802 -0.00514948  -0.425727 -1.26767 -0.00325346  -0.402372 -1.33734 -0.00469613  -0.448501 -1.31653 -0.0033046  -0.425102 -1.3867 -0.004704  -0.447274 -1.31565 -0.00348067  -0.470397 -1.36479 -0.00360155  -0.401211 -1.33639 -0.00509059  -0.471531 -1.36557 -0.00342739  -0.448052 -1.43619 -0.00464511  -0.494769 -1.41478 -0.00346518  -0.471249 -1.48582 -0.00464082  -0.49372 -1.41403 -0.00364065  -0.517263 -1.46347 -0.00373852  -0.447062 -1.4354 -0.00501466  -0.518225 -1.46412 -0.00356686  -0.494627 -1.53555 -0.00458765  -0.541837 -1.5136 -0.00359237  -0.5182 -1.58538 -0.00457633  -0.540953 -1.51298 -0.00376689  -0.564826 -1.56266 -0.00385213  -0.493794 -1.53488 -0.00492895  -0.565631 -1.56319 -0.00368237  -0.541917 -1.63528 -0.00451851  -0.589544 -1.61288 -0.00369596  -0.565794 -1.68524 -0.00450158  -0.588816 -1.61237 -0.00387764  -0.612947 -1.66222 -0.00393486  -0.541232 -1.63473 -0.00483501  -0.613606 -1.66265 -0.00377035  -0.589778 -1.73526 -0.00444221  -0.63775 -1.71248 -0.00377691  -0.613884 -1.78531 -0.00442064  -0.637162 -1.71207 -0.00395048  -0.661485 -1.76203 -0.00399363  -0.589221 -1.73481 -0.00472879  -0.662014 -1.76237 -0.00383663  -0.638059 -1.83539 -0.00435936  -0.686325 -1.8123 -0.00383735  -0.662331 -1.88548 -0.00434339  -0.685846 -1.81197 -0.00400031  -0.710307 -1.86199 -0.00403142  -0.637629 -1.83502 -0.00462544  -0.710718 -1.86225 -0.00388241  -0.686643 -1.93557 -0.00428009  -0.735136 -1.91223 -0.003878  -0.711015 -1.98565 -0.00425839  -0.734769 -1.91197 -0.00402868  -0.759303 -1.96201 -0.00404394  -0.68631 -1.93529 -0.00451291  -0.759611 -1.96221 -0.00390995  -0.735406 -2.03573 -0.00419223  -0.784088 -2.01219 -0.00389242  -0.759825 -2.08577 -0.00416267  -0.783819 -2.01199 -0.00402951  -0.808379 -2.062 -0.00404155  -0.735164 -2.03552 -0.00439513  -0.808594 -2.06214 -0.00391853  -0.784248 -2.13578 -0.00410831  -0.833085 -2.11209 -0.00389707  -0.808684 -2.18576 -0.00407696  -0.832905 -2.11195 -0.00401628  -0.857452 -2.1619 -0.0040226  -0.784086 -2.13564 -0.00427449  -0.857585 -2.162 -0.00391054  -0.833098 -2.23569 -0.00401163  -0.882054 -2.21187 -0.00388813  -0.857515 -2.28557 -0.00398588  -0.881946 -2.21178 -0.00399506  -0.906443 -2.26165 -0.00397456  -0.833005 -2.23559 -0.00415945  -0.906514 -2.26171 -0.00389087  -0.881884 -2.33538 -0.00393105  -0.930926 -2.31149 -0.00386095  -0.906243 -2.38514 -0.00389338  -0.930873 -2.31143 -0.0039525  -0.955296 -2.3612 -0.00392139  -0.881838 -2.33532 -0.00404084  -0.955328 -2.36122 -0.00385284  -0.93055 -2.43484 -0.00383353  -0.979667 -2.4109 -0.00382459  -0.954835 -2.48446 -0.00380564  -0.979654 -2.41086 -0.00388944  -1.00399 -2.46051 -0.00385809  -0.930552 -2.43481 -0.00392509  -1.00397 -2.4605 -0.00381279  -0.979051 -2.53401 -0.00375938  -1.02821 -2.51004 -0.00378549  -1.00323 -2.58348 -0.00372982  -1.02823 -2.51004 -0.00383294  -1.05246 -2.55954 -0.00380242  -0.979079 -2.53401 -0.00381613  -1.05242 -2.55951 -0.00377762  -1.02732 -2.63285 -0.00369096  -1.07652 -2.60888 -0.00376046  -1.05135 -2.68212 -0.00368094  -1.07656 -2.60891 -0.00378156  -1.10063 -2.65822 -0.00378835  -1.02737 -2.63288 -0.00372386  -1.10056 -2.65816 -0.00376737  0.00295773 -0.00303352 -0.00782502  0.00252686 -0.00108331 -0.00512898  0.00867438 -0.0100533 -0.0123893  0.00281942 0.00179034 -0.00776768  0.00791742 -0.00269628 -0.00969613  0 0 0  0 0 0  0.00307824 -0.000353515 -0.0107634  0 0 0  0.00658104 -0.00698733 -0.00751424  0.0156022 -0.022204 -0.0142205  0.0112694 -0.0179802 -0.00849247  0.0226609 -0.0370547 -0.0153189  0.0129145 -0.0123821 -0.0103544  0.0177452 -0.0256968 -0.0107292  0.0177566 -0.016946 -0.0174233  0.0160432 -0.0320801 -0.0086813  0.0291775 -0.0556256 -0.0154444  0.0202606 -0.0499748 -0.0085845  0.0350024 -0.0766909 -0.0154892  0.0222133 -0.043222 -0.0104936  0.026158 -0.0635541 -0.0104427  0.0313984 -0.0491518 -0.0184652  0.0238849 -0.0705547 -0.00845933  0.0397804 -0.100443 -0.0152442  0.0265092 -0.0938844 -0.00823247  0.043405 -0.126613 -0.0150886  0.029002 -0.0869247 -0.0101318  0.0309345 -0.112802 -0.0100878  0.0422622 -0.0936787 -0.018095  0.0281109 -0.11964 -0.00820839  0.0458656 -0.154865 -0.0147709  0.0285581 -0.147527 -0.00802863  0.0469355 -0.185295 -0.0146098  0.0315147 -0.140897 -0.00982523  0.0309632 -0.171189 -0.00984299  0.0486561 -0.148343 -0.0174429  0.0277696 -0.177534 -0.00811219  0.0468078 -0.217446 -0.0142868  0.0257619 -0.209292 -0.00798965  0.0452333 -0.251463 -0.0141358  0.0289943 -0.203228 -0.00964522  0.0258226 -0.237126 -0.00970006  0.0498128 -0.211423 -0.0167732  0.0224697 -0.242838 -0.00810921  0.0424688 -0.286928 -0.0138159  0.017957 -0.277847 -0.00801802  0.0382893 -0.32395 -0.0136633  0.0212867 -0.27243 -0.00954318  0.015569 -0.309284 -0.0096004  0.0455512 -0.281493 -0.0161262  0.0122031 -0.314341 -0.00813961  0.0329739 -0.362181 -0.0133412  0.00528109 -0.352059 -0.00805938  0.026323 -0.401697 -0.0131798  0.00857311 -0.347276 -0.00946176  0.000467062 -0.386562 -0.00951111  0.036026 -0.357348 -0.0154822  -0.00279891 -0.391002 -0.00815868  0.0186076 -0.442228 -0.0128591  -0.0119675 -0.430971 -0.00807118  0.00966668 -0.483811 -0.0126766  -0.0088042 -0.426775 -0.00936866  -0.0190907 -0.468068 -0.00939369  0.0215563 -0.437955 -0.0148389  -0.0221919 -0.471955 -0.00814116  -0.000251651 -0.526239 -0.0123527  -0.0334035 -0.513801 -0.00803244  -0.011281 -0.569543 -0.0121528  -0.0304264 -0.510128 -0.00924146  -0.0426842 -0.553099 -0.00923789  0.0025326 -0.522483 -0.0141877  -0.0455729 -0.556494 -0.00806868  -0.0231974 -0.61355 -0.0118198  -0.0586342 -0.59991 -0.00793993  -0.036117 -0.658277 -0.011605  -0.0558753 -0.596698 -0.00906634  -0.0698963 -0.641075 -0.00902712  -0.0206065 -0.610249 -0.0135193  -0.0725583 -0.644035 -0.00794017  -0.0498339 -0.703594 -0.0112668  -0.0872805 -0.688771 -0.00779104  -0.0644469 -0.749509 -0.0110317  -0.0847461 -0.685964 -0.00883889  -0.100345 -0.731515 -0.00877917  -0.0474508 -0.700696 -0.0128344  -0.102774 -0.734107 -0.00776374  -0.0797799 -0.795913 -0.0106997  -0.118977 -0.779957 -0.00760138  -0.0959073 -0.842812 -0.0104704  -0.116677 -0.7775 -0.00857854  -0.133685 -0.824048 -0.00849509  -0.0776078 -0.793372 -0.0121443  -0.135879 -0.826306 -0.00755286  -0.112675 -0.890116 -0.0101372  -0.153404 -0.873088 -0.00738275  -0.130153 -0.937828 -0.0098995  -0.151337 -0.870941 -0.00828803  -0.169587 -0.918317 -0.00818586  -0.110719 -0.887892 -0.0114623  -0.171556 -0.920291 -0.00731456  -0.148198 -0.985878 -0.00957167  -0.190258 -0.967857 -0.00713587  -0.166866 -1.03426 -0.00933146  -0.188411 -0.965979 -0.00797749  -0.207757 -1.01405 -0.00786269  -0.146446 -0.983929 -0.0107851  -0.209509 -1.01577 -0.00705957  -0.18603 -1.08291 -0.00902104  -0.229246 -1.06398 -0.00688541  -0.205743 -1.13183 -0.00879073  -0.2276 -1.06235 -0.00765657  -0.247915 -1.11099 -0.00753963  -0.184482 -1.08121 -0.0101264  -0.249461 -1.11248 -0.00679958  -0.225891 -1.18098 -0.00848913  -0.270102 -1.16122 -0.00662231  -0.246517 -1.23033 -0.00827098  -0.268655 -1.15981 -0.00733268  -0.289813 -1.20892 -0.00720906  -0.224528 -1.1795 -0.00949144  -0.291164 -1.2102 -0.00653267  -0.267518 -1.27987 -0.00797808  -0.312587 -1.25938 -0.00635374  -0.288934 -1.32956 -0.00775981  -0.311329 -1.25816 -0.0070045  -0.333205 -1.30764 -0.00687659  -0.266341 -1.27858 -0.00888705  -0.334378 -1.30874 -0.00626659  -0.310667 -1.3794 -0.00748646  -0.356472 -1.35826 -0.00609386  -0.332754 -1.42935 -0.00727761  -0.355392 -1.3572 -0.00668871  -0.377884 -1.40698 -0.00655437  -0.309653 -1.37828 -0.00829899  -0.378875 -1.40792 -0.00599301  -0.355103 -1.4794 -0.00702083  -0.401534 -1.45771 -0.00583303  -0.377752 -1.52955 -0.00682032  -0.400618 -1.45681 -0.00636756  -0.423619 -1.5068 -0.00623798  -0.354248 -1.47846 -0.00774157  -0.424461 -1.50759 -0.00573909  -0.400618 -1.57976 -0.00657868  -0.447587 -1.55758 -0.00558329  -0.423732 -1.63003 -0.00639188  -0.446819 -1.55681 -0.00606275  -0.470239 -1.60695 -0.00594091  -0.39991 -1.57895 -0.00722778  -0.470933 -1.60762 -0.005494  -0.447024 -1.68033 -0.00616491  -0.494441 -1.65774 -0.0053426  -0.470511 -1.73067 -0.00598872  -0.493813 -1.65709 -0.00577068  -0.517567 -1.70733 -0.00564981  -0.446443 -1.67966 -0.00673175  -0.518126 -1.70789 -0.00525522  -0.494137 -1.78102 -0.00577784  -0.541934 -1.75808 -0.00511193  -0.517923 -1.83138 -0.00561714  -0.541424 -1.75755 -0.00548804  -0.565443 -1.80783 -0.00537014  -0.493673 -1.78045 -0.00627029  -0.565882 -1.80829 -0.00502586  -0.541804 -1.88173 -0.00542176  -0.589911 -1.85851 -0.0048933  -0.565808 -1.93207 -0.00527382  -0.589528 -1.85807 -0.00522339  -0.613724 -1.90836 -0.00511026  -0.541452 -1.88127 -0.00584829  -0.614057 -1.90873 -0.00481176  -0.589875 -1.98239 -0.00509298  -0.638247 -1.95894 -0.00468588  -0.614031 -2.03267 -0.00495183  -0.637959 -1.95859 -0.00496972  -0.662274 -2.00884 -0.00485778  -0.589622 -1.98202 -0.00545633  -0.662518 -2.00912 -0.00460899  -0.638227 -2.08291 -0.00478911  -0.68681 -2.05928 -0.00449765  -0.662474 -2.1331 -0.00467026  -0.686604 -2.05901 -0.00473487  -0.710994 -2.10919 -0.00463343  -0.638058 -2.08262 -0.00509608  -0.71115 -2.1094 -0.00442481  -0.686741 -2.18325 -0.00452209  -0.735491 -2.15949 -0.00431645  -0.711036 -2.23333 -0.00441027  -0.735363 -2.15927 -0.00451756  -0.75977 -2.20936 -0.00441742  -0.686634 -2.18303 -0.00477672  -0.75986 -2.20952 -0.00425065  -0.735326 -2.28335 -0.004282  -0.78421 -2.2595 -0.00415492  -0.759625 -2.33331 -0.00418055  -0.784145 -2.25934 -0.00431526  -0.808538 -2.30931 -0.00421989  -0.735278 -2.2832 -0.0044781  -0.808573 -2.30941 -0.00408721  -0.783896 -2.38319 -0.00406706  -0.832896 -2.35926 -0.00400507  -0.808178 -2.43299 -0.00398159  -0.832883 -2.35916 -0.00412619  -0.857222 -2.40898 -0.00403619  -0.783896 -2.38308 -0.00422037  -0.857219 -2.40904 -0.00394583  -0.832415 -2.48272 -0.00388193  -0.881486 -2.45876 -0.0038631  -0.856636 -2.53236 -0.00380492  -0.881503 -2.45868 -0.00395393  -0.905786 -2.50836 -0.00387406  -0.832441 -2.48265 -0.00399232  -0.905746 -2.50839 -0.00380945  -0.880802 -2.58192 -0.00370586  -0.929937 -2.55795 -0.00373912  -0.904947 -2.6314 -0.00364041  -0.929989 -2.55791 -0.00378418  -0.954165 -2.60742 -0.00370073  -0.880859 -2.58189 -0.0037744  -0.954098 -2.60742 -0.00368261  -0.929003 -2.68077 -0.0035603  -0.978164 -2.65679 -0.00362074  -0.953006 -2.73006 -0.00350177  -0.978239 -2.65679 -0.00363469  -1.00227 -2.7061 -0.00358057  -0.929074 -2.68077 -0.00357759  -1.00217 -2.70607 -0.00358748  0.00492258 -0.00823551 -0.0134335  0.00441011 -0.00520557 -0.0109308  0.0146506 -0.018477 -0.0217284  0.00483851 -0.00264651 -0.0156045  0.0147974 -0.0102844 -0.0220939  0 0 0  0 0 0  0.00501779 -0.00576705 -0.0182571  0 0 0  0.0118096 -0.0140212 -0.0173584  0.0259627 -0.0334471 -0.0251702  0.0207926 -0.0274299 -0.0200973  0.037664 -0.0501028 -0.0277188  0.0240002 -0.0222743 -0.023754  0.0324715 -0.0372951 -0.0257975  0.0293572 -0.0287328 -0.0303596  0.0298377 -0.0432232 -0.0217952  0.0485285 -0.0698429 -0.0283341  0.0385904 -0.0622813 -0.0220888  0.0585715 -0.0918953 -0.028793  0.0411006 -0.0559493 -0.0257537  0.0488727 -0.0772128 -0.0260276  0.0512776 -0.0638609 -0.0331421  0.0464325 -0.0838692 -0.022316  0.0674018 -0.116297 -0.0285785  0.0532896 -0.107933 -0.0220129  0.0749041 -0.143188 -0.0283309  0.0557108 -0.101272 -0.0256412  0.0614656 -0.127841 -0.02537  0.0698699 -0.109876 -0.0331535  0.0588898 -0.134469 -0.0218141  0.0811428 -0.172086 -0.0277826  0.0632469 -0.163062 -0.0213332  0.0858538 -0.203249 -0.0272814  0.0658318 -0.156593 -0.0248286  0.068959 -0.1876 -0.0243908  0.0836371 -0.165758 -0.0321538  0.0662149 -0.193852 -0.0210079  0.0892648 -0.236179 -0.0265837  0.0678347 -0.226415 -0.020472  0.0911047 -0.271037 -0.0259823  0.0705781 -0.220391 -0.0237712  0.0708936 -0.255116 -0.0232825  0.0918409 -0.230227 -0.0307227  0.0680467 -0.260843 -0.0201015  0.09163 -0.307415 -0.0252212  0.066895 -0.296786 -0.019545  0.0906113 -0.34539 -0.0245806  0.0697111 -0.291307 -0.0226278  0.0672283 -0.329122 -0.0221181  0.0942489 -0.301956 -0.0290951  0.0643712 -0.334275 -0.0191525  0.0883158 -0.384639 -0.0238003  0.0605318 -0.373036 -0.0185895  0.0845569 -0.425204 -0.0231487  0.0633252 -0.368123 -0.0214528  0.0581831 -0.408473 -0.0209366  0.0909157 -0.379709 -0.0273999  0.0553911 -0.413073 -0.0181881  0.0795854 -0.466823 -0.0223651  0.0490143 -0.454166 -0.0176232  0.0732543 -0.509513 -0.0217103  0.0517192 -0.449791 -0.020274  0.0441039 -0.492225 -0.0197564  0.0821074 -0.462407 -0.0256959  0.0414343 -0.496302 -0.0172153  0.0657998 -0.553067 -0.0209469  0.0327166 -0.539313 -0.0166582  0.0570966 -0.597499 -0.0203036  0.0352795 -0.535439 -0.0191002  0.0254035 -0.579579 -0.0185853  0.0681959 -0.549141 -0.0240117  0.0228952 -0.583183 -0.0162474  0.0473704 -0.642636 -0.0195533  0.0120484 -0.62777 -0.0156953  0.0365101 -0.688482 -0.0189226  0.0144383 -0.624343 -0.0179425  0.00251317 -0.669886 -0.0174223  0.0496151 -0.639147 -0.0223671  0.000194311 -0.673064 -0.0152786  0.0247275 -0.734896 -0.0182002  -0.0125788 -0.718945 -0.0147362  0.0119272 -0.781889 -0.0175834  -0.0103776 -0.715917 -0.0167956  -0.0241294 -0.762602 -0.0162892  0.0267934 -0.731806 -0.0207747  -0.0262605 -0.765406 -0.0143236  -0.00170791 -0.829342 -0.0168831  -0.0407645 -0.812351 -0.0137988  -0.0162542 -0.877259 -0.0162948  -0.0387452 -0.80968 -0.0156776  -0.0541463 -0.857301 -0.0151862  0.000178695 -0.82661 -0.0192291  -0.0560771 -0.859765 -0.0133951  -0.0315353 -0.925546 -0.0156313  -0.0721189 -0.907573 -0.0128906  -0.0476295 -0.974209 -0.0150665  -0.0703032 -0.905221 -0.0146046  -0.0871581 -0.953596 -0.01412  -0.0298288 -0.923133 -0.0177587  -0.0888863 -0.955767 -0.0124917  -0.0643802 -1.02316 -0.0144346  -0.106297 -1.00429 -0.0120065  -0.0818434 -1.07242 -0.0138961  -0.104677 -1.00221 -0.0135679  -0.122813 -1.0512 -0.0130987  -0.0628529 -1.02103 -0.0163592  -0.124352 -1.05311 -0.0116273  -0.0998827 -1.12189 -0.0132989  -0.142969 -1.10219 -0.0111662  -0.118551 -1.1716 -0.0127904  -0.141531 -1.10037 -0.0125738  -0.160795 -1.14984 -0.0121305  -0.0985301 -1.12002 -0.0150299  -0.162147 -1.15151 -0.0107998  -0.137721 -1.22149 -0.0122222  -0.181816 -1.20104 -0.0103612  -0.157449 -1.27155 -0.0117463  -0.180566 -1.19944 -0.0116282  -0.200806 -1.2493 -0.0112069  -0.136543 -1.21984 -0.0137771  -0.201983 -1.25075 -0.0100172  -0.177604 -1.32174 -0.0112144  -0.22257 -1.30062 -0.00960052  -0.198239 -1.37206 -0.010764  -0.221483 -1.29923 -0.0107306  -0.242579 -1.34937 -0.0103369  -0.176587 -1.3203 -0.0125996  -0.243588 -1.35064 -0.00927484  -0.219246 -1.42246 -0.0102662  -0.26497 -1.40077 -0.00888455  -0.240669 -1.47296 -0.00984311  -0.26404 -1.39956 -0.00989211  -0.285864 -1.44991 -0.00951052  -0.218387 -1.42121 -0.0114975  -0.286716 -1.451 -0.00857294  -0.262396 -1.52351 -0.0093857  -0.308766 -1.50131 -0.00820935  -0.284478 -1.57412 -0.0089916  -0.307986 -1.50027 -0.00909948  -0.330418 -1.55075 -0.00874484  -0.261677 -1.52243 -0.0104684  -0.331127 -1.55169 -0.00791538  -0.306817 -1.62475 -0.00856411  -0.353731 -1.60212 -0.00757396  -0.329448 -1.67541 -0.0081979  -0.353093 -1.60123 -0.00835538  -0.376024 -1.65179 -0.0080235  -0.306228 -1.62382 -0.00950789  -0.376604 -1.65259 -0.00730276  -0.352289 -1.72607 -0.00780153  -0.399671 -1.70309 -0.00699043  -0.375376 -1.77673 -0.00746822  -0.399161 -1.70232 -0.00767064  -0.422507 -1.75292 -0.00736165  -0.351823 -1.72528 -0.00861514  -0.422962 -1.75359 -0.00674069  -0.39862 -1.82738 -0.00710142  -0.446394 -1.8041 -0.00644529  -0.42207 -1.878 -0.00679302  -0.445993 -1.80345 -0.0070349  -0.469665 -1.85404 -0.00673962  -0.398267 -1.82671 -0.00780523  -0.470016 -1.85459 -0.00621367  -0.445639 -1.92858 -0.00646186  -0.493742 -1.90507 -0.00594544  -0.469369 -1.97913 -0.00618804  -0.493447 -1.90454 -0.00644147  -0.517359 -1.95506 -0.00618148  -0.445381 -1.92803 -0.00705731  -0.51761 -1.95552 -0.00573587  -0.49318 -2.02963 -0.00588846  -0.541546 -2.00593 -0.00549614  -0.51711 -2.08007 -0.00564146  -0.541346 -2.00549 -0.00591516  -0.565426 -2.05593 -0.00567269  -0.493006 -2.02918 -0.00637865  -0.565588 -2.0563 -0.00530326  -0.541094 -2.13045 -0.0053761  -0.589678 -2.10661 -0.00508726  -0.565163 -2.18076 -0.00515532  -0.589548 -2.10627 -0.00542688  -0.613745 -2.15659 -0.00521779  -0.540992 -2.13009 -0.00577426  -0.613836 -2.15687 -0.00491941  -0.589257 -2.231 -0.0049212  -0.638021 -2.20707 -0.00472438  -0.613415 -2.28116 -0.00473011  -0.637953 -2.2068 -0.00499809  -0.66221 -2.25699 -0.00480461  -0.589217 -2.23073 -0.00523984  -0.662248 -2.2572 -0.00457752  -0.637573 -2.33124 -0.00452912  -0.686465 -2.30725 -0.00440705  -0.661764 -2.38125 -0.00436866  -0.686455 -2.30705 -0.00462031  -0.710725 -2.35708 -0.00445509  -0.637579 -2.33104 -0.00477457  -0.710714 -2.35724 -0.004282  -0.68593 -2.43116 -0.0041939  -0.734934 -2.40714 -0.00413501  -0.71012 -2.48099 -0.00405967  -0.734957 -2.40699 -0.00429153  -0.759211 -2.45685 -0.00414431  -0.685973 -2.43102 -0.00438094  -0.759168 -2.45695 -0.00402856  -0.734277 -2.53073 -0.00391531  -0.783364 -2.50669 -0.00390792  -0.758433 -2.58037 -0.00379884  -0.78341 -2.50658 -0.00400937  -0.807621 -2.55627 -0.00387466  -0.734332 -2.53062 -0.00403678  -0.807559 -2.55633 -0.00381136  -0.782551 -2.62993 -0.00367594  -0.831695 -2.6059 -0.00369418  -0.806652 -2.6794 -0.00357103  -0.831768 -2.60582 -0.00375354  -0.855909 -2.65533 -0.00362539  -0.782627 -2.62987 -0.00374115  -0.855819 -2.65537 -0.00360346  -0.830695 -2.72879 -0.00345552  -0.879871 -2.70475 -0.00350547  -0.854716 -2.77809 -0.0033648  -0.879966 -2.70471 -0.0035156  -0.903975 -2.75405 -0.0034076  -0.830781 -2.72874 -0.00346911  -0.903859 -2.75406 -0.00342631  0.00742648 -0.016562 -0.0181494  0.00680079 -0.0116197 -0.0160965  0.0231491 -0.0311204 -0.0294605  0.0072978 -0.00923675 -0.0225214  0.0226716 -0.0209294 -0.0332466  0 0 0  0 0 0  0.00744867 -0.0142518 -0.0246807  0 0 0  0.018379 -0.024332 -0.0259582  0.0396046 -0.0487872 -0.0344728  0.032395 -0.0405419 -0.0302889  0.0560192 -0.0673314 -0.0385537  0.0368102 -0.0358078 -0.0358374  0.0493796 -0.0527611 -0.0393229  0.0440515 -0.0443378 -0.0416056  0.0459697 -0.0583273 -0.0334257  0.0712159 -0.0876344 -0.0400251  0.0593194 -0.0782919 -0.0343608  0.0850561 -0.11051 -0.0410877  0.0622275 -0.0723421 -0.0398605  0.0738111 -0.0945207 -0.0405537  0.0744965 -0.081947 -0.0466061  0.071211 -0.10084 -0.0350866  0.0976953 -0.135369 -0.041114  0.0820649 -0.125456 -0.0349301  0.108782 -0.16288 -0.0409188  0.0844427 -0.119091 -0.0403309  0.0938262 -0.146275 -0.0399901  0.100203 -0.129197 -0.0474659  0.0914357 -0.152666 -0.034703  0.118579 -0.192435 -0.0402366  0.0994595 -0.181893 -0.0340623  0.126747 -0.224313 -0.0394902  0.101768 -0.175611 -0.0392697  0.108381 -0.207279 -0.0384946  0.120845 -0.186286 -0.0463504  0.105981 -0.2134 -0.033439  0.133515 -0.258062 -0.0384732  0.111038 -0.246739 -0.0325662  0.138618 -0.29376 -0.0374883  0.113398 -0.240801 -0.037509  0.117019 -0.276316 -0.0365551  0.135741 -0.252206 -0.0442758  0.114585 -0.281999 -0.0317764  0.142277 -0.33107 -0.0363235  0.116647 -0.318847 -0.030799  0.144298 -0.369993 -0.0352397  0.11904 -0.313373 -0.0354363  0.119645 -0.352099 -0.0344137  0.14451 -0.32564 -0.0417629  0.117217 -0.357281 -0.0299461  0.144896 -0.41025 -0.0340281  0.116337 -0.397042 -0.0289367  0.143915 -0.451836 -0.032918  0.118708 -0.392068 -0.0332457  0.116399 -0.433424 -0.0321996  0.147105 -0.405295 -0.0390816  0.114025 -0.43811 -0.0280594  0.141577 -0.494505 -0.031697  0.110342 -0.48026 -0.0270476  0.137753 -0.538257 -0.030589  0.112645 -0.475782 -0.0310307  0.107603 -0.519277 -0.029992  0.143721 -0.490025 -0.0363637  0.105314 -0.523477 -0.026177  0.132668 -0.582877 -0.0293989  0.0990232 -0.567576 -0.0251884  0.126208 -0.628369 -0.0283234  0.101217 -0.563563 -0.0288509  0.093644 -0.608792 -0.0278364  0.134718 -0.578847 -0.0336844  0.0914899 -0.612536 -0.0243354  0.118598 -0.674554 -0.027172  0.0828024 -0.658208 -0.0233756  0.109725 -0.721438 -0.0261365  0.0848562 -0.654628 -0.0267289  0.0749776 -0.701242 -0.0257441  0.120523 -0.670944 -0.0310854  0.0729749 -0.704581 -0.0225494  0.0998192 -0.768867 -0.0250317  0.0621132 -0.751513 -0.0216236  0.0887692 -0.816851 -0.0240386  0.0640119 -0.748322 -0.0246818  0.0520644 -0.796042 -0.0237342  0.101599 -0.765638 -0.0285957  0.0502245 -0.799009 -0.0208299  0.0767968 -0.86526 -0.0229889  0.0374055 -0.846953 -0.0199466  0.0637932 -0.914113 -0.0220475  0.0391424 -0.844117 -0.0227212  0.0253289 -0.892711 -0.0218233  0.0784243 -0.862385 -0.02622  0.0236615 -0.895344 -0.0191879  0.0499732 -0.963294 -0.0210522  0.00909114 -0.944092 -0.0183504  0.0352263 -1.01282 -0.0201653  0.010659 -0.941569 -0.0208665  -0.00480628 -0.990862 -0.0200083  0.0514475 -0.960729 -0.0239742  -0.00630343 -0.993195 -0.0176318  0.0197595 -1.06259 -0.0192312  -0.0224253 -1.04257 -0.0168415  0.00346887 -1.11263 -0.0183932  -0.021021 -1.04034 -0.0191044  -0.0379524 -1.09016 -0.0183007  0.0210711 -1.06032 -0.0218556  -0.0392808 -1.09222 -0.0161616  -0.0134513 -1.16284 -0.0175164  -0.056771 -1.14208 -0.0154177  -0.0311018 -1.21325 -0.0167315  -0.0555307 -1.1401 -0.0174493  -0.0737475 -1.19034 -0.0166879  -0.0122952 -1.16082 -0.0198658  -0.0749102 -1.19215 -0.014774  -0.0493 -1.26379 -0.0159085  -0.0936089 -1.24238 -0.0140772  -0.0681391 -1.31448 -0.0151753  -0.0925261 -1.24063 -0.0158873  -0.111862 -1.29116 -0.0151665  -0.0482924 -1.26201 -0.0180004  -0.112873 -1.29276 -0.0134715  -0.0874522 -1.36524 -0.0144058  -0.132617 -1.34325 -0.0128204  -0.107319 -1.4161 -0.0137157  -0.131693 -1.34171 -0.0144321  -0.152001 -1.39244 -0.0137564  -0.0865865 -1.36367 -0.0162584  -0.152853 -1.39385 -0.0122542  -0.127595 -1.467 -0.0130076  -0.173502 -1.44452 -0.0116462  -0.148353 -1.51797 -0.0123671  -0.172726 -1.44317 -0.0130658  -0.193869 -1.49403 -0.0124341  -0.126877 -1.46563 -0.0146384  -0.194581 -1.49525 -0.0111164  -0.169461 -1.56895 -0.0117081  -0.216007 -1.54603 -0.0105556  -0.19098 -1.61995 -0.0111223  -0.215365 -1.54485 -0.0117953  -0.237216 -1.59578 -0.0112122  -0.168871 -1.56775 -0.0131339  -0.237797 -1.59685 -0.0100672  -0.212781 -1.67094 -0.0105078  -0.259871 -1.64767 -0.0095439  -0.23494 -1.72193 -0.0099659  -0.259361 -1.64665 -0.0106231  -0.281804 -1.69758 -0.0100781  -0.212317 -1.6699 -0.0117447  -0.282267 -1.6985 -0.00909615  -0.257327 -1.77287 -0.00940466  -0.304876 -1.74931 -0.00861073  -0.28001 -1.82379 -0.00890338  -0.304479 -1.74843 -0.00953889  -0.327411 -1.79934 -0.00904143  -0.256968 -1.77198 -0.010462  -0.327758 -1.80011 -0.00819588  -0.302883 -1.87466 -0.00839543  -0.350823 -1.85088 -0.00775647  -0.326007 -1.92549 -0.00794458  -0.350527 -1.85013 -0.00854003  -0.373847 -1.90096 -0.00808597  -0.302629 -1.87391 -0.00929451  -0.374096 -1.90161 -0.00738037  -0.34926 -1.97624 -0.00748181  -0.397508 -1.95229 -0.00697768  -0.372715 -2.02694 -0.00707209  -0.397312 -1.95166 -0.00764036  -0.420937 -2.00238 -0.00722289  -0.349087 -1.97561 -0.00822341  -0.421098 -2.00292 -0.00663912  -0.396273 -2.07755 -0.0066582  -0.444784 -2.05348 -0.00627983  -0.419989 -2.1281 -0.00629723  -0.444662 -2.05297 -0.0068264  -0.468521 -2.10355 -0.00645328  -0.396179 -2.07703 -0.00727046  -0.468606 -2.10398 -0.00597978  -0.443765 -2.17856 -0.00592291  -0.492486 -2.15441 -0.00566089  -0.467671 -2.22894 -0.00560892  -0.492438 -2.154 -0.00610447  -0.516441 -2.20443 -0.0057658  -0.443744 -2.17815 -0.00641906  -0.516467 -2.20477 -0.00539052  -0.491605 -2.27922 -0.00529158  -0.54048 -2.25503 -0.00511336  -0.515636 -2.32941 -0.00502157  -0.540485 -2.25471 -0.00545609  -0.564591 -2.30496 -0.00516403  -0.491627 -2.2789 -0.00567162  -0.564565 -2.30522 -0.00488222  -0.539663 -2.37951 -0.00474596  -0.588665 -2.35531 -0.00464869  -0.563762 -2.42951 -0.0045191  -0.588706 -2.35506 -0.00490952  -0.61286 -2.40513 -0.00465584  -0.539721 -2.37927 -0.00503397  -0.612803 -2.40532 -0.00444794  -0.587837 -2.47941 -0.00429082  -0.636927 -2.45524 -0.00425649  -0.611955 -2.52923 -0.00411665  -0.636992 -2.45505 -0.00444257  -0.661148 -2.50493 -0.0042299  -0.587921 -2.47925 -0.00449646  -0.661075 -2.50506 -0.00409591  -0.636042 -2.57894 -0.00393701  -0.685188 -2.55479 -0.00393665  -0.660136 -2.62856 -0.00378966  -0.685272 -2.55466 -0.00405586  -0.70941 -2.60434 -0.00387347  -0.636127 -2.57883 -0.00406873  -0.70932 -2.60443 -0.00380266  -0.684204 -2.67809 -0.00364232  -0.733405 -2.65398 -0.00366652  -0.708273 -2.72754 -0.00352371  -0.733504 -2.65388 -0.00373077  -0.757596 -2.70338 -0.00356877  -0.684299 -2.67802 -0.00371134  -0.757495 -2.70344 -0.00355041  -0.732313 -2.77692 -0.00340605  -0.781537 -2.75282 -0.00343752  -0.756353 -2.82625 -0.00330806  -0.781639 -2.75275 -0.0034343  -0.805661 -2.80211 -0.00330222  -0.732409 -2.77687 -0.00341475  -0.805547 -2.80215 -0.00333452  0.0116222 -0.0314548 -0.0221916  0.0108259 -0.0223895 -0.0200864  0.0382245 -0.0529547 -0.0348278  0.0113665 -0.0201414 -0.028019  0.0343012 -0.0369428 -0.0417447  0 0 0  0 0 0  0.0112672 -0.0293763 -0.0303729  0 0 0  0.0284387 -0.0408469 -0.0321873  0.0602575 -0.0685443 -0.043418  0.0485622 -0.0581772 -0.03908  0.0790353 -0.0879396 -0.0491525  0.0539779 -0.0533267 -0.0466274  0.0705435 -0.0719429 -0.0516636  0.066858 -0.0635049 -0.0519663  0.0664611 -0.0774657 -0.0438482  0.0979742 -0.108218 -0.0515093  0.0839914 -0.097644 -0.0457927  0.115127 -0.13136 -0.053237  0.0872994 -0.0917803 -0.0532523  0.102311 -0.114609 -0.0545481  0.101993 -0.102344 -0.0600919  0.0995885 -0.12074 -0.0471586  0.131285 -0.157002 -0.0532786  0.114013 -0.14592 -0.0472516  0.145969 -0.185079 -0.05314  0.116427 -0.139686 -0.0545335  0.129206 -0.167484 -0.0542089  0.133871 -0.150838 -0.0616393  0.12694 -0.173697 -0.0470748  0.15919 -0.215596 -0.0522076  0.138396 -0.203696 -0.0462919  0.170793 -0.248284 -0.0512426  0.140542 -0.197551 -0.0532902  0.150474 -0.229975 -0.0522434  0.161334 -0.209562 -0.0602107  0.148331 -0.235944 -0.0454303  0.180828 -0.283046 -0.0498638  0.156677 -0.270174 -0.0442346  0.18911 -0.319691 -0.0485308  0.158767 -0.264352 -0.0508658  0.165555 -0.300737 -0.0494899  0.18287 -0.277334 -0.0574161  0.163428 -0.30632 -0.0430747  0.195812 -0.358047 -0.046959  0.16857 -0.344136 -0.0417007  0.200731 -0.397996 -0.0454783  0.170643 -0.338736 -0.047913  0.174206 -0.378421 -0.0464059  0.197829 -0.35275 -0.054013  0.172105 -0.383554 -0.0404185  0.204122 -0.439317 -0.0438421  0.174061 -0.424336 -0.038981  0.20576 -0.481959 -0.0423123  0.176106 -0.419394 -0.0447434  0.176508 -0.461767 -0.0432026  0.206116 -0.434471 -0.0503724  0.174457 -0.466437 -0.0376664  0.205955 -0.525684 -0.0406708  0.173353 -0.509634 -0.0362223  0.204471 -0.570494 -0.0391508  0.175339 -0.505147 -0.0415344  0.172742 -0.549682 -0.0399981  0.207903 -0.521288 -0.0466737  0.170764 -0.553909 -0.0349121  0.201662 -0.616153 -0.0375558  0.166786 -0.599046 -0.0335054  0.19729 -0.662676 -0.0360757  0.168692 -0.594998 -0.0383735  0.163307 -0.641258 -0.0368804  0.203536 -0.612174 -0.0430456  0.161432 -0.645055 -0.0322362  0.191716 -0.709855 -0.0345315  0.154809 -0.691741 -0.0308774  0.184684 -0.757725 -0.0331117  0.156593 -0.688097 -0.0353234  0.148668 -0.735719 -0.0338788  0.19348 -0.706275 -0.0395316  0.146921 -0.739126 -0.0296552  0.176586 -0.806085 -0.031648  0.137893 -0.787028 -0.0283625  0.167156 -0.854998 -0.030297  0.13954 -0.783761 -0.0324029  0.129322 -0.832439 -0.0310256  0.178227 -0.802875 -0.0361784  0.127713 -0.83549 -0.027197  0.156791 -0.90427 -0.0289066  0.116512 -0.884338 -0.0259668  0.145207 -0.953982 -0.027627  0.118023 -0.881414 -0.0296203  0.105737 -0.930905 -0.0283206  0.158295 -0.901402 -0.0330009  0.104275 -0.933629 -0.0248609  0.132806 -1.00395 -0.0263231  0.0911288 -0.983211 -0.0237055  0.119297 -1.05425 -0.0251184  0.0924987 -0.980597 -0.0270023  0.0783659 -1.03071 -0.0257729  0.13417 -1.00138 -0.030008  0.077055 -1.03314 -0.0226636  0.105078 -1.10474 -0.023891  0.0621839 -1.08328 -0.0215771  0.0898738 -1.15548 -0.0227629  0.0634021 -1.08094 -0.0245349  0.0476403 -1.13152 -0.0233754  0.106297 -1.10245 -0.0271894  0.0464818 -1.13368 -0.0205958  0.074055 -1.20632 -0.0216122  0.0300862 -1.18422 -0.0195771  0.0573471 -1.25736 -0.020559  0.0311574 -1.18214 -0.0222175  0.0139575 -1.23304 -0.0211295  0.0751252 -1.20429 -0.0245558  0.0129528 -1.23496 -0.0186584  0.0401118 -1.30845 -0.0194843  -0.00479054 -1.28578 -0.0177093  0.0220811 -1.35967 -0.0185033  -0.0038693 -1.28394 -0.0200545  -0.0223219 -1.33506 -0.0190442  0.0410378 -1.30665 -0.0220895  -0.023185 -1.33675 -0.0168524  0.00361609 -1.41091 -0.0175047  -0.0421014 -1.38776 -0.0159662  -0.0155566 -1.46224 -0.0165857  -0.0413091 -1.38613 -0.0180417  -0.0608587 -1.43737 -0.0170958  0.00441074 -1.40932 -0.0198051  -0.0615876 -1.43887 -0.0151663  -0.0351007 -1.51354 -0.0156726  -0.0815198 -1.48998 -0.0143481  -0.0552704 -1.56489 -0.0148231  -0.0808675 -1.48855 -0.0161679  -0.10135 -1.53985 -0.0152869  -0.0344362 -1.51214 -0.0176908  -0.101948 -1.54116 -0.0136068  -0.0757375 -1.61619 -0.0139688  -0.122755 -1.59231 -0.0128459  -0.0967472 -1.66751 -0.0131749  -0.12223 -1.59105 -0.0144273  -0.14352 -1.64234 -0.0136169  -0.0751915 -1.61498 -0.0157095  -0.143992 -1.64348 -0.0121627  -0.118015 -1.71875 -0.01239  -0.165549 -1.6946 -0.011461  -0.139753 -1.76998 -0.0116735  -0.165136 -1.69351 -0.0128264  -0.187109 -1.74474 -0.0120686  -0.117592 -1.71769 -0.0138841  -0.187466 -1.74572 -0.0108266  -0.16168 -1.82112 -0.0109477  -0.209644 -1.79677 -0.010178  -0.184018 -1.87223 -0.0102887  -0.209342 -1.79583 -0.0113456  -0.231874 -1.84696 -0.0106574  -0.161366 -1.82021 -0.012225  -0.232131 -1.8478 -0.00960648  -0.206509 -1.92322 -0.00963569  -0.254825 -1.89875 -0.00902748  -0.229341 -1.97418 -0.00903904  -0.254622 -1.89794 -0.010006  -0.277614 -1.94895 -0.00937307  -0.206295 -1.92246 -0.0107015  -0.277776 -1.94965 -0.00850213  -0.252284 -2.02502 -0.00843811  -0.30089 -2.00046 -0.00797296  -0.275515 -2.0758 -0.00789964  -0.300771 -1.99978 -0.00878596  -0.324132 -2.05062 -0.00821173  -0.252155 -2.02438 -0.00932193  -0.324212 -2.05121 -0.00749838  -0.298819 -2.12645 -0.00736797  -0.347656 -2.10185 -0.00702274  -0.322373 -2.17703 -0.00689733  -0.347608 -2.10129 -0.00768268  -0.371254 -2.15196 -0.00716865  -0.29876 -2.12593 -0.00807381  -0.371268 -2.15243 -0.00660217  -0.345942 -2.22749 -0.00642133  -0.394959 -2.20289 -0.00618339  -0.36973 -2.27786 -0.00600493  -0.394972 -2.20244 -0.00670922  -0.418822 -2.25291 -0.00625575  -0.345945 -2.22707 -0.00697768  -0.418781 -2.25328 -0.005813  -0.393503 -2.32809 -0.00559998  -0.442651 -2.30355 -0.00545883  -0.417457 -2.37826 -0.00525391  -0.442713 -2.3032 -0.00585628  -0.466692 -2.35346 -0.00546885  -0.393565 -2.32779 -0.00602591  -0.466617 -2.35374 -0.00514185  -0.441369 -2.42828 -0.00490987  -0.490601 -2.40381 -0.00483894  -0.465429 -2.47823 -0.00462842  -0.490695 -2.40355 -0.00513327  -0.514752 -2.4536 -0.00479937  -0.441459 -2.42806 -0.00522411  -0.514658 -2.4538 -0.00458169  -0.489428 -2.52804 -0.00435328  -0.538703 -2.50367 -0.00433266  -0.513534 -2.57778 -0.00412583  -0.53881 -2.50347 -0.00453711  -0.562909 -2.55332 -0.00427258  -0.489528 -2.52789 -0.00456119  -0.562791 -2.55345 -0.0041306  -0.537569 -2.6274 -0.00391638  -0.586861 -2.60313 -0.00393379  -0.561673 -2.67694 -0.00374436  -0.586972 -2.603 -0.00405991  -0.611061 -2.65264 -0.00385082  -0.537676 -2.62731 -0.00403869  -0.610941 -2.65272 -0.00377548  -0.585704 -2.7264 -0.00358963  -0.634993 -2.70222 -0.00362778  -0.60977 -2.77579 -0.00346589  -0.635099 -2.70213 -0.00369048  -0.659162 -2.75159 -0.0035255  -0.585798 -2.72635 -0.00364959  -0.659049 -2.75165 -0.00350392  -0.633806 -2.82513 -0.00335979  -0.68309 -2.80101 -0.00339091  -0.657865 -2.87445 -0.00325882  -0.683197 -2.80095 -0.00339961  -0.707249 -2.8503 -0.0032562  -0.633897 -2.82512 -0.00337124  -0.707133 -2.85034 -0.0032891  
SCALARS smooth_stress float 1
LOOKUP_TABLE default
287.091 333.561 264.206 251.816 242.318 229.351 213.675 196.636 179.296 162.226 145.761 130.193 115.632 102.045 89.4533 77.9452 67.312 57.6246 48.768 40.7561 33.6055 27.2086 21.5168 16.612 12.4102 8.94879 6.18693 4.19853 2.89969 2.16552 1.58267 1.01668 0.203668 253.453 366.388 276.973 268.608 269.621 266.319 255.936 240.266 221.758 202.229 182.759 164.032 146.467 130.141 115.037 101.229 88.5676 77.0632 66.5708 57.1617 48.6734 41.1136 34.4028 28.5903 23.5015 19.1154 15.2803 12.0755 9.21233 6.64119 4.12466 2.09852 0.484024 142.377 203.599 169.054 182.551 193.388 197.203 193.539 184.459 172.183 158.625 144.813 131.566 119.036 107.462 96.857 87.1751 78.2839 70.1633 62.832 56.0599 49.8494 44.2674 39.0914 34.3051 29.8226 25.7003 21.7751 18.0045 14.3061 10.6492 7.01425 3.44097 0.743167 62.3701 132.405 151.079 177.969 187.744 187.717 181.54 171.751 160.084 147.944 136.012 124.773 114.35 104.812 96.0271 88.0454 80.6168 73.739 67.4378 61.4462 55.7712 50.4706 45.3244 40.4634 35.662 31.0345 26.4305 21.9809 17.6517 13.4066 9.15563 4.62 1.0037 84.896 176.004 225.524 246.775 246.212 236.213 222.096 206.264 190.097 174.435 159.75 146.177 133.685 122.394 112.007 102.576 93.7714 85.5994 78.0677 70.9515 64.16 57.7842 51.7429 45.9465 40.3156 34.9561 29.6133 24.4056 19.5259 14.7093 10.074 5.24395 1.14811 183.142 307.741 340.337 348.39 336.612 316.794 294.195 270.83 247.884 226.052 205.676 186.897 169.649 153.863 139.417 126.153 114.042 102.815 92.4948 82.895 73.9565 65.6567 57.8939 50.6545 43.7772 37.3794 31.2723 25.4392 19.9797 14.7582 9.73107 5.16223 1.17174 309.228 473.479 470.931 461.811 439.576 411.531 381.157 350.095 319.622 290.619 263.36 237.975 214.628 193.161 173.448 155.394 138.786 123.575 109.467 96.6808 84.7856 73.956 63.9818 54.7446 46.3708 38.7166 31.6223 25.1144 19.1046 13.6755 8.50665 4.38127 1.03257 493.123 659.407 606.956 580.691 550.252 515.195 477.211 438.151 399.562 362.539 327.693 295.139 265.038 237.242 211.754 188.373 166.858 147.178 128.993 112.426 97.2789 83.3444 70.7003 59.1997 48.8144 39.4117 31.1262 23.7017 17.2015 11.5482 6.87568 3.35677 0.731033 154.759 273.475 227.468 216.022 205.403 193.068 179.36 164.995 150.627 136.719 123.516 111.204 99.8064 89.2171 79.544 70.652 62.4495 54.9575 48.1092 41.7803 36.0344 30.7517 25.9769 21.5763 17.6768 14.1063 10.988 8.23575 5.85151 3.81533 2.23407 1.13867 0.310543 319.065 561.092 494.657 453.987 414.86 376.639 340.067 306.143 275.041 246.568 220.332 196.131 173.829 153.153 134.092 116.582 100.567 85.9141 72.5017 60.3783 49.4425 39.8064 31.208 23.703 17.3742 12.1651 8.06736 5.21312 3.66036 2.97333 2.4822 1.68243 0.432688 276.109 851.567 766.977 701.57 651.883 608.388 563.663 517.44 471.188 426.365 383.619 343.291 305.737 270.99 238.768 209.229 182.25 157.499 135.032 114.733 96.5464 80.326 65.9887 53.4363 42.7587 33.6947 26.0866 19.9929 15.0935 10.9879 7.38121 4.27794 1.45389 154.578 491.32 475.204 457.969 439.909 423.795 403.46 378.066 349.575 320.131 291.112 263.382 237.367 213.266 191.141 170.867 152.407 135.48 120.191 106.235 93.6452 82.1873 71.924 62.6087 54.1133 46.3475 39.1914 32.3482 25.9035 19.4363 13.0595 6.8555 2.04751 82.077 308.594 345.631 370.069 370.155 361.093 345.582 325.419 302.762 279.546 256.798 235.386 215.45 197.036 180.193 164.81 150.656 137.484 125.326 113.999 103.436 93.4738 84.063 75.0072 66.2256 57.7126 49.4701 41.3663 33.4382 25.5133 17.6746 9.62787 2.78299 104.877 319.09 432.686 464.522 457.065 435.771 408.761 379.588 350.107 321.613 294.944 270.277 247.67 226.965 208.064 190.772 174.787 159.781 145.914 132.858 120.546 108.832 97.6455 86.9245 76.6229 66.5551 56.7585 47.1211 37.8677 28.7835 19.9949 11.2391 3.23361 213.827 535.128 652.241 664.439 635.874 595.104 550.986 506.706 463.847 423.339 385.629 350.864 319.061 289.84 263.074 238.527 216.086 195.246 176.045 158.094 141.532 125.852 111.328 97.6479 84.7736 72.5716 61.1017 50.0157 39.5675 29.6481 20.0645 11.5274 3.54202 369.398 840.061 921.415 899.832 847.913 788.7 727.979 667.864 609.729 554.618 503.129 455.195 411.126 370.613 333.241 299.045 267.579 238.736 212.196 187.62 165.081 144.353 125.206 107.508 91.4216 76.4989 62.8983 50.3366 38.7443 28.1231 18.305 10.3359 3.3293 616.13 1204.32 1206.13 1144.32 1073.13 998.932 922.937 846.816 772.485 701.381 634.626 572.302 514.606 461.421 412.434 367.409 326.055 288.086 253.279 221.095 191.785 164.876 140.441 118.049 97.788 79.5054 63.2282 48.6964 35.8148 24.712 15.362 8.15462 2.67054 264.344 770.792 695.262 650.841 613.188 574.074 532.594 489.819 447.378 406.349 367.513 331.192 297.465 266.318 237.637 211.274 187.068 164.778 144.476 125.683 108.55 92.8041 78.5654 65.5743 53.7732 43.1687 33.7591 25.5094 18.3396 12.2357 7.37137 3.87029 1.41478 309.942 547.03 513.009 487.491 448.354 403.812 359.846 319.341 283.175 251.19 222.624 197.063 173.896 152.733 133.44 115.818 99.6051 84.9103 71.5327 59.4292 48.489 38.7861 30.2532 22.7489 16.4308 11.2468 7.23715 4.54768 3.33079 2.90035 2.39473 1.65156 0.405882 228.289 778.618 852.399 804.986 735.434 666.273 599.866 537.599 480.565 428.98 382.211 339.807 301.138 265.926 233.554 203.995 176.982 152.439 130.161 109.947 91.9251 75.8508 61.7974 49.3868 38.9169 30.2192 23.0398 17.3705 13.0584 9.75226 6.57177 4.0142 1.40698 121.237 424.772 554.665 541.504 498.104 455.798 416.052 378.135 342.226 308.871 278.119 249.969 224.144 200.608 179.135 159.518 141.679 125.471 110.758 97.4095 85.5004 74.7094 65.0023 56.3405 48.5291 41.4825 35.0478 28.9377 23.1308 17.4269 11.5688 6.09478 1.95596 80.6271 300.454 417.984 424.37 395.539 364.222 334.989 307.462 281.443 257.286 235.062 214.757 196.196 179.326 163.897 149.851 136.842 124.933 113.893 103.589 94.0073 85.0193 76.4493 68.2482 60.3688 52.6322 45.2396 37.8039 30.4368 23.1632 15.8337 8.50397 2.50665 107.83 337.172 481.792 492.58 461.274 424.172 388.785 355.97 325.744 298.036 272.797 249.939 229.056 210.034 192.697 176.738 161.925 148.142 135.345 123.225 111.773 100.931 90.5971 80.6601 71.0108 61.6716 52.5629 43.6576 34.9557 26.4518 18.2366 10.1016 2.91285 197.426 517.435 680.378 683.906 637.834 584.911 534.406 487.562 444.376 404.733 368.267 335.06 304.635 276.79 251.243 227.793 206.175 186.154 167.688 150.412 134.454 119.444 105.488 92.3523 79.9398 68.2864 57.2742 46.8539 36.8587 27.3974 18.4642 10.4307 3.25939 340.003 775.957 938.345 919.694 854.19 784.115 717.289 654.59 595.839 541.256 490.69 443.911 400.883 361.411 324.954 291.466 260.677 232.392 206.288 182.207 160.075 139.636 120.769 103.525 87.5905 73.0626 59.708 47.6535 36.4349 26.252 17.0488 9.71416 3.32899 588.005 1108.51 1213.74 1163.4 1081.75 998.178 916.395 837.649 762.638 691.865 625.785 564.442 507.577 455.28 407.031 362.593 321.712 284.163 249.676 217.948 188.789 162.158 137.717 115.564 95.3979 77.3106 61.1055 46.8665 34.3381 23.5444 14.587 7.91028 2.81572 256.762 704.895 701.126 661.401 617.882 574.169 529.726 485.605 442.809 401.915 363.491 327.687 294.375 263.702 235.429 209.376 185.436 163.291 143.111 124.551 107.472 91.8632 77.5822 64.7126 52.9673 42.3911 33.0651 24.864 17.7806 11.7946 7.15014 3.80579 1.48966 311.501 552.438 507.146 490.174 457.927 415.535 370.59 327.889 289.263 255.152 225.082 198.417 174.546 152.985 133.377 115.607 99.32 84.5927 71.0907 58.9532 48.0319 38.3118 29.7494 22.283 15.9794 10.7943 6.84734 4.26307 3.16546 2.90238 2.35889 1.50982 0.353571 209.349 774.418 853.951 823.902 764.421 695.569 624.202 555.435 492.222 435.73 385.495 340.707 300.688 264.558 231.781 202.043 174.848 150.227 127.979 107.785 89.7428 73.6941 59.693 47.5436 37.1424 28.4952 21.5495 16.1502 12.114 9.17457 6.28387 3.73498 1.34017 106.676 408.201 567.55 566.924 525.358 477.88 430.795 386.039 344.789 307.593 274.509 244.983 218.526 194.772 173.396 153.903 136.255 120.344 105.99 92.8689 81.1887 70.7222 61.3875 53.0316 45.5423 38.8889 32.8471 27.1391 21.6505 16.2455 10.8109 5.49881 1.75489 80.7527 303.096 440.951 449.571 414.259 373.613 336.339 303.1 273.523 247.392 224.439 204.023 185.886 169.616 154.843 141.446 129.19 117.839 107.48 97.7495 88.6546 80.1995 72.153 64.4326 57.0045 49.8096 42.7334 35.7242 28.7618 21.8419 14.848 7.73646 2.20276 113.221 353.258 504.417 512.972 471.652 424.392 382.02 345.351 313.391 285.252 260.445 238.223 218.159 200.132 183.641 168.504 154.468 141.391 129.222 117.746 106.777 96.4423 86.5579 77.0469 67.8436 58.8912 50.2057 41.6712 33.2525 25.1446 17.236 9.38978 2.58571 194.287 517.038 689.651 697.462 645.128 584.033 528.021 478.303 434.057 394.372 358.472 325.961 296.307 269.186 244.391 221.581 200.482 180.97 162.9 146.118 130.419 115.813 102.161 89.3305 77.2871 65.871 55.171 44.9819 35.2929 26.1498 17.573 9.9378 2.96221 332.1 756.808 933.391 927.98 861.209 785.206 713.68 648.387 588.699 533.976 483.729 437.445 395.095 356.135 320.321 287.304 256.875 228.872 203.016 179.309 157.308 137.107 118.499 101.382 85.6377 71.276 58.2195 46.1895 35.315 25.3264 16.4363 9.25494 3.12432 582.313 1078.57 1195.8 1166.4 1087.65 1000.17 914.639 833.568 757.592 686.688 620.91 559.87 503.592 451.711 403.953 359.879 319.301 282.008 247.731 216.181 187.253 160.707 136.456 114.299 94.2312 76.2615 60.1929 46.0295 33.7154 23.1053 14.3832 7.73816 2.73156 257.25 689.371 683.642 660.051 620.307 575.259 528.98 483.643 440.336 399.372 361.092 325.521 292.555 262.055 234.013 208.183 184.43 162.488 142.375 123.859 106.913 91.3806 77.1807 64.2232 52.5551 42.0178 32.6839 24.6123 17.6114 11.768 7.1613 3.90476 1.53669 311.738 555.95 504.737 488.593 458.52 417.662 373.236 330.308 291.21 256.57 225.953 198.954 174.854 153.153 133.506 115.606 99.3176 84.5149 71.0424 58.8693 47.989 38.193 29.6643 22.1892 15.8685 10.7465 6.78051 4.22094 3.1561 2.88364 2.35573 1.47795 0.328523 203.096 775.384 854.49 825.539 769.756 703.686 632.828 562.896 497.832 439.458 387.707 341.94 301.155 264.599 231.506 201.603 174.402 149.717 127.42 107.181 89.179 73.094 59.0554 46.9596 36.6093 28.0203 21.0782 15.7542 11.8368 8.94762 6.16703 3.57712 1.21599 101.216 401.12 572.75 573.217 532.604 485.289 437.251 390.792 347.691 308.871 274.533 244.251 217.252 193.292 171.803 152.3 134.697 118.796 104.491 91.5213 79.8479 69.3837 60.2073 52.0217 44.5714 38.0417 32.1232 26.4964 21.2069 15.7981 10.4756 5.23858 1.66541 79.6603 302.842 448.985 457.612 420.983 378.182 338.688 303.462 272.395 245.233 221.588 200.944 182.722 166.464 151.911 138.689 126.586 115.493 105.278 95.7598 86.86 78.5335 70.6351 63.1984 55.8776 48.8183 42.0178 35.053 28.1949 21.3604 14.5208 7.42593 2.0406 114.978 359.146 511.774 520.758 476.896 426.289 381.215 342.676 309.725 281.184 256.207 234.182 214.409 196.631 180.479 165.625 151.84 138.994 126.954 115.749 104.936 94.8307 85.1441 75.8439 66.7449 57.9217 49.3162 40.9599 32.6432 24.6577 16.8846 9.05971 2.3982 194.362 518.841 692.579 702.45 649.063 585.283 526.842 475.571 430.645 390.786 354.961 322.713 293.284 266.422 241.885 219.293 198.439 179.11 161.192 144.592 128.98 114.475 100.948 88.2896 76.3665 65.0637 54.3712 44.3949 34.7989 25.6343 17.2713 9.77345 2.91504 330.986 753.382 931.522 930.034 864.256 786.714 713.264 646.641 586.388 531.437 481.213 435.198 392.995 354.22 318.593 285.79 255.541 227.658 201.909 178.233 156.376 136.207 117.631 100.653 85.0221 70.6952 57.6377 45.7277 34.9078 24.9962 16.1154 9.18772 3.10392 581.479 1072.63 1189.36 1165.7 1089.71 1001.72 914.81 832.546 755.989 684.947 619.087 558.324 502.152 450.444 402.851 358.93 318.476 281.312 247.035 215.584 186.688 160.13 135.958 113.88 93.8566 75.8504 59.8753 45.8193 33.4275 23.0338 14.3268 7.72403 2.67294 257.74 686.384 676.323 657.388 620.516 575.856 529.09 483.103 439.375 398.358 360.064 324.595 291.721 261.353 233.435 207.651 183.97 162.133 142.012 123.602 106.662 91.1241 76.9577 64.0618 52.3864 41.8955 32.571 24.5238 17.5421 11.8037 7.227 3.9576 1.51523 309.635 553.446 503.816 485.665 453.963 412.773 368.921 326.936 288.792 254.979 225.044 198.399 174.595 153.077 133.602 115.785 99.4931 84.6972 71.2939 59.1196 48.1716 38.4316 29.8273 22.4294 16.1423 11.0061 7.07854 4.39757 3.29179 3.03661 2.40343 1.50854 0.342491 207.925 770.666 848.629 819.205 762.911 697.571 628.051 559.642 495.97 438.531 387.549 342.091 301.681 265.223 232.298 202.412 175.266 150.528 128.201 108 89.9798 73.937 59.7326 47.559 37.2392 28.6137 21.6306 16.1438 12.0906 9.22665 6.34378 3.6418 1.22929 104.165 395.835 565.636 566.7 527.131 481.568 435.35 390.359 348.31 310.23 276.311 246.166 219.332 195.306 173.703 154.09 136.454 120.399 105.976 92.9371 81.1352 70.6299 61.2638 52.9178 45.4867 38.7982 32.6801 27.025 21.5426 16.1723 10.6807 5.4236 1.65897 77.2892 296.214 441.92 452.198 418.184 377.863 340.146 306.042 275.598 248.668 225.012 204.222 185.821 169.347 154.538 141.043 128.692 117.479 107.112 97.4197 88.3299 79.8567 71.8167 64.1844 56.7391 49.5733 42.5779 35.6794 28.72 21.7967 14.737 7.61502 2.03264 113.522 355.551 507.148 517.236 475.895 427.468 383.796 346.021 313.293 284.731 259.57 237.207 217.247 199.252 182.818 167.698 153.685 140.68 128.574 117.156 106.264 96.0071 86.2363 76.7322 67.5446 58.6085 49.9585 41.4994 33.1699 25.0468 17.1203 9.26416 2.43246 196.248 519.74 691.177 700.37 648.382 586.157 528.815 478.205 433.33 393.405 357.423 324.84 295.298 268.273 243.518 220.811 199.777 180.32 162.303 145.585 129.997 115.414 101.82 89.0463 76.9411 65.5983 54.9528 44.8048 35.1878 26.0626 17.4712 9.81919 2.91196 334.222 758.201 933.315 929.189 863.699 787.043 714.415 648.311 588.095 533.193 482.863 436.684 394.392 355.383 319.648 286.709 256.338 228.459 202.724 178.876 156.983 136.85 118.253 101.155 85.4231 71.1464 58.0219 46.0756 35.1999 25.2291 16.1856 9.23388 3.13736 582.918 1080.95 1194.57 1166.65 1089.8 1002.04 915.591 833.84 757.231 686.248 620.266 559.281 503.088 451.197 403.492 359.489 318.933 281.811 247.48 215.99 187.045 160.484 136.239 114.203 94.2073 76.1363 60.1001 45.9326 33.5551 23.0708 14.2619 7.6574 2.78235 256.759 688.517 678.849 658.196 620.882 576.158 529.375 483.474 439.701 398.657 360.371 324.798 291.965 261.576 233.621 207.83 184.093 162.234 142.135 123.669 106.754 91.1932 76.9812 64.0995 52.4616 41.9978 32.6576 24.5539 17.5774 11.7701 7.21396 3.9418 1.54705 311.235 545.05 498.657 475.047 440.055 398.922 357.23 318.084 282.634 251.062 222.791 197.29 174.156 153.074 133.842 116.152 100.016 85.2507 71.8607 59.7647 48.7843 39.0835 30.4919 23.0787 16.7653 11.5992 7.64317 4.90457 3.56768 3.04839 2.41429 1.58739 0.364538 229.541 761.796 830.668 797.95 740.018 676.204 610.698 547.138 487.999 434.178 385.865 342.237 302.863 267.085 234.496 204.784 177.668 152.959 130.57 110.408 92.2053 76.1236 61.8924 49.5629 39.0767 30.3036 23.1655 17.4498 13.134 9.81431 6.73719 3.86854 1.32234 117.824 392.483 543.144 543.893 507.908 467.51 426.76 386.63 348.541 313.128 280.911 251.698 225.245 201.366 179.625 159.786 141.817 125.541 110.717 97.3724 85.2404 74.4478 64.7186 55.9812 48.2217 41.1928 34.746 28.7271 22.9414 17.2599 11.4954 5.88422 1.78511 72.8982 281.374 418.157 432.928 406.899 374.215 342.372 312.289 284.316 258.633 235.391 214.479 195.552 178.556 163.085 148.948 135.957 124.053 113.084 102.858 93.2668 84.3252 75.7355 67.6523 59.8343 52.248 44.7628 37.4831 30.2779 23.0369 15.7505 8.26356 2.27184 110.761 340.911 489.03 503.109 470.18 429.546 391.151 356.318 324.823 296.406 270.804 247.828 226.985 208.094 190.878 175.082 160.361 146.746 134.118 122.221 110.884 100.189 89.8698 80.0127 70.4733 61.1737 52.1399 43.2737 34.7567 26.3051 18.113 9.88167 2.66853 205.828 519.204 682.803 690.914 644.135 587.969 534.884 486.552 442.582 402.546 366.172 332.963 302.604 274.883 249.523 226.273 204.733 184.851 166.476 149.469 133.52 118.657 104.77 91.7209 79.4888 67.9011 56.9053 46.5136 36.5508 27.1638 18.2828 10.3768 3.09215 349.775 771.272 934.696 923.835 859.523 786.948 717.873 653.791 594.49 539.581 488.885 442.205 399.341 359.861 323.617 290.284 259.657 231.423 205.443 181.464 159.318 138.976 120.308 103.059 87.225 72.6855 59.4463 47.3763 36.2311 26.1161 16.9026 9.56333 3.20381 594.892 1104.02 1206.48 1166.51 1087.03 1001.32 917.526 837.496 761.773 690.768 624.537 563.201 506.446 454.121 405.991 361.711 320.96 283.55 249.148 217.41 188.3 161.647 137.451 115.344 95.2477 77.0931 60.8952 46.5718 34.1304 23.4648 14.4708 7.78403 2.76885 256.015 696.82 689.933 661.806 620.99 576.016 529.956 484.78 441.423 400.354 362.005 326.282 293.151 262.64 234.498 208.57 184.711 162.823 142.696 124.116 107.113 91.5329 77.3217 64.4497 52.7753 42.2807 32.9233 24.7098 17.648 11.8253 7.19149 3.85314 1.50979 346.785 514.888 462.718 435.656 405.959 372.996 339.158 306.491 275.945 247.559 221.373 197.125 174.692 154.028 134.996 117.452 101.308 86.597 73.192 61.0505 50.1681 40.4064 31.7892 24.4013 18.0548 12.7557 8.59036 5.67362 3.9696 3.15049 2.42872 1.55583 0.378486 298.655 746.935 774.94 735.17 686.268 636.029 583.629 530.926 480.033 431.855 387.092 345.649 307.405 272.164 239.814 210.11 182.87 158.087 135.574 115.226 96.9413 80.553 66.1976 53.5361 42.7709 33.5466 25.89 19.7519 14.8766 10.9763 7.34986 4.16959 1.42109 159.509 387.538 490.906 491.793 470.046 445.615 417.846 387.007 354.977 323.109 292.681 264.186 237.751 213.39 191.084 170.655 152.038 135.121 119.709 105.729 93.0102 81.5477 71.3107 61.7989 53.4233 45.7335 38.525 31.7723 25.3961 19.0956 12.8644 6.69523 2.01519 73.7103 254.853 371.982 399.093 390.993 373.609 352.199 328.32 303.485 278.942 255.496 233.671 213.585 195.245 178.462 163.083 148.96 135.947 123.929 112.696 102.201 92.3738 83.0025 74.0542 65.4228 57.073 48.8451 40.8107 32.9633 25.1669 17.4223 9.29628 2.55777 115.621 310.15 454.306 482.093 466.645 439.204 408.658 377.457 347.02 318.233 291.441 266.865 244.546 224.071 205.414 188.228 172.474 157.858 144.202 131.323 119.152 107.659 96.6357 86.0654 75.8452 65.8557 56.1119 46.6787 37.5427 28.6248 19.8274 10.9231 2.96401 241.231 516.12 661.898 675.194 641.357 596.042 549.349 503.816 460.451 419.816 382.278 347.699 316.161 287.206 260.777 236.456 214.151 193.448 174.443 156.755 140.234 124.814 110.411 96.8471 84.1804 72.1013 60.5562 49.6466 39.2706 29.3912 19.8984 11.291 3.37138 405.583 794.069 924.308 909.413 853.508 790.005 726.944 665.699 607.069 551.895 500.472 452.797 408.788 368.487 331.387 297.379 266.15 237.331 210.83 186.541 164.15 143.367 124.356 106.88 90.8408 76.1233 62.4606 49.9673 38.5566 27.9214 18.1658 10.2261 3.41783 654.289 1139.33 1206.31 1155.03 1079.67 1001.14 922.694 845.484 770.629 699.466 632.631 570.323 512.849 459.778 410.948 366.113 324.92 287.06 252.356 220.344 191.058 164.23 139.788 117.582 97.3403 79.1807 62.8712 48.4327 35.6347 24.6333 15.3287 8.24121 2.87656 264.834 718.452 702.491 661.351 618.176 575.121 531.314 487.53 444.768 403.752 365.151 328.964 295.621 264.682 236.226 210.108 186.005 163.943 143.642 125.075 107.907 92.2546 77.9974 65.1122 53.3605 42.8401 33.4025 25.1769 18.03 12.0651 7.32903 3.90819 1.55366 104.248 176.842 139.811 132.816 127.758 120.762 112.165 102.887 93.5778 84.489 75.8572 67.7255 60.109 53.0655 46.5709 40.5891 35.0868 30.0521 25.4701 21.3058 17.5872 14.22 11.2465 8.71999 6.53445 4.67649 3.17636 2.0824 1.36565 1.035 0.828922 0.574129 0.185592 141.737 436.168 376.954 355.438 339.267 322.344 301.915 278.929 255.032 231.276 208.337 186.619 166.347 147.468 130.09 114.031 99.2901 85.8266 73.5619 62.4713 52.5072 43.5842 35.6654 28.706 22.7932 17.6334 13.3654 9.97799 7.32399 5.38694 3.75672 2.21711 0.912988 79.2634 238.759 229.473 230.191 227.976 225.403 218.269 206.494 191.935 176.069 160.135 144.791 130.381 116.939 104.615 93.2797 82.9229 73.5003 64.9051 57.2 50.1644 43.8451 38.1762 32.9661 28.3312 24.1688 20.3068 16.7921 13.4486 10.1935 7.0648 3.88502 1.42247 34.1243 128.191 154.597 179.449 186.572 187.055 182.302 173.531 162.326 150.134 137.866 126.181 115.286 105.177 95.9149 87.4685 79.7251 72.6072 66.0644 59.9954 54.2959 49.0266 44.0536 39.3033 34.6689 30.3149 26.0117 21.8146 17.7282 13.7117 9.74368 5.68757 1.89869 37.9182 115.103 187.517 217.646 222.056 216.143 205.408 192.217 178.058 163.957 150.5 137.976 126.491 115.981 106.44 97.6504 89.5358 82.0887 75.0916 68.5276 62.3216 56.4552 50.8559 45.4366 40.2165 35.0693 30.0468 25.1452 20.4213 15.8412 11.3647 6.72267 2.22828 86.8097 225.037 291.579 313.065 306.931 290.775 271.122 250.406 229.799 210.064 191.621 174.554 159.002 144.701 131.685 119.735 108.773 98.6553 89.3024 80.5992 72.4316 64.8022 57.6945 50.8834 44.5207 38.3736 32.5623 26.9409 21.6005 16.4972 11.6631 6.94373 2.46241 148.549 378.062 424.333 429.573 410.564 384.593 356.634 328.094 300.126 273.372 248.241 224.908 203.384 183.594 165.494 148.871 133.615 119.641 106.699 94.8367 83.8912 73.7624 64.468 55.8442 47.8541 40.5532 33.6682 27.3126 21.4553 15.9627 10.7647 6.3216 2.48073 232.955 563.633 570.809 552.364 521.37 487.539 452.176 416.01 380.115 345.546 312.923 282.454 254.247 228.197 204.347 182.307 162.151 143.614 126.677 111.006 96.7225 83.6596 71.6369 60.7853 50.8275 41.8718 33.7952 26.5534 20.091 14.3488 9.25902 5.10033 2.11151 144.958 507.434 462.578 432.276 406.884 381.664 354.746 326.744 298.685 271.431 245.585 221.305 198.813 178.09 158.979 141.43 125.279 110.432 96.8721 84.4579 72.9459 62.5347 53.0302 44.4157 36.5539 29.5145 23.2896 17.7517 12.9399 8.81706 5.50294 2.94183 1.27358 82.0067 147.918 287.091 104.323 122.821 230.431 164.36 286.247 153.228 86.1869 114.682 79.5557 68.0865 166.414 86.1583 148.956 118.898 194.79 116.157 112.897 214.663 58.1299 69.8926 160.009 169.537 237.504 136.179 80.6416 206.29 112.68 68.4484 135.412 86.1737 101.475 195.757 54.6891 65.1157 149.024 154.407 216.323 126.365 74.105 187.932 103.836 65.3519 126.788 83.24 97.5495 186.464 55.299 66.3582 146.189 139.989 199.145 115.501 69.7287 170.388 97.1213 64.7401 122.262 82.6415 95.66 177.578 55.0505 67.7583 142.712 127.467 182.728 104.686 65.0056 157.762 90.0811 62.5555 116.271 80.2925 92.3479 166.796 53.1884 66.9126 136.346 115.833 166.559 94.2683 59.8917 146.199 82.7644 58.9775 108.704 76.1436 87.2649 154.697 50.178 64.0175 127.651 104.931 151.097 84.6329 54.7928 134.532 75.5362 54.767 100.359 70.8291 80.9534 141.869 46.4643 59.7665 117.708 94.7516 136.508 75.9178 49.8134 122.768 68.5454 50.2711 91.754 65.0254 74.1428 129.025 42.4833 54.902 107.3 85.3377 122.874 68.0464 45.0592 111.355 61.8662 45.7257 83.203 59.0553 67.228 116.5 38.4673 49.8555 96.9474 76.6215 110.155 60.9052 40.5558 100.393 55.5162 41.3045 74.9264 53.223 60.4567 104.456 34.5355 44.8811 86.9871 68.4739 98.3003 54.321 36.299 90.0033 49.5769 37.0218 67.0644 47.6082 54.0616 93.1717 30.8019 40.133 77.5783 60.9404 87.2986 48.2699 32.3272 80.336 44.0007 33.0084 59.6642 42.3854 48.1114 82.624 27.356 35.7702 68.8773 53.9401 77.1069 42.68 28.6122 71.3291 38.8196 29.2463 52.7664 37.4847 42.5495 72.7986 24.1155 31.6551 60.7439 47.4802 67.6636 37.4974 25.1629 63.0121 33.9885 25.7406 46.3462 32.9442 37.419 63.7128 21.1394 27.8981 53.3321 41.4904 58.9687 32.7064 21.9677 55.3165 29.5867 22.5206 40.4788 28.8047 32.7681 55.4246 18.4032 24.4778 46.544 36.0107 51.0217 28.3501 19.0632 48.2932 25.5472 19.5538 35.062 24.9588 28.4594 47.7582 15.881 21.3076 40.3223 30.9743 43.7424 24.3512 16.369 41.834 21.811 16.8061 30.1135 21.4995 24.5888 40.8185 13.5955 18.4559 34.6408 26.3992 37.0654 20.6816 13.9157 36.0126 18.4348 14.3141 25.5794 18.2961 21.0358 34.4539 11.512 15.8722 29.5527 22.1863 31.045 17.3261 11.6766 30.6438 15.3436 12.0372 21.4669 15.4334 17.9012 28.719 9.64491 13.5681 24.9981 18.4253 25.5821 14.3066 9.64437 25.9274 12.5842 9.97906 17.78 12.8469 15.0493 23.6264 7.97143 11.4567 20.9027 15.0316 20.7583 11.5806 7.85402 21.6565 10.1549 8.17436 14.5003 10.534 12.5039 19.0343 6.45079 9.59666 17.2669 12.0532 16.4866 9.22235 6.2575 17.8589 7.97533 6.51966 11.5636 8.48252 10.3033 14.9971 5.13154 7.97509 14.1086 9.38632 12.7184 7.06295 4.82165 14.5557 6.09131 5.05894 9.01738 6.72372 8.4228 11.5531 3.99672 6.62037 11.4202 7.13039 9.51657 5.23739 3.59792 11.7028 4.45142 3.79699 6.79812 5.19332 6.78581 8.61324 3.04572 5.38286 9.09038 5.18314 6.88433 3.68293 2.56639 9.30822 3.15448 2.76548 5.00036 3.93226 5.3984 6.1833 2.2376 4.33474 7.10605 3.66835 4.73774 2.44209 1.71083 7.32435 2.10019 1.86204 3.49295 2.89133 4.24282 4.32489 1.61709 3.437 5.50662 2.47934 3.19679 1.4955 1.07689 5.66503 1.36103 1.19542 2.39714 2.10739 3.31801 3.00311 1.14912 2.70469 4.15393 1.69598 2.1231 0.892153 0.652273 4.41669 0.895683 0.730115 1.59022 1.48677 2.47059 2.16958 0.819098 2.03023 3.0102 1.27075 1.56978 0.74608 0.490372 3.32188 0.701895 0.517242 1.14303 1.0242 1.7383 1.64827 0.555999 1.38839 1.95512 1.02655 1.25961 0.743019 0.466492 2.34406 0.57501 0.439422 0.836228 0.643761 0.993303 1.14325 0.34903 0.779927 1.04618 0.749742 0.946206 0.622099 0.397417 1.4165 0.418476 0.363904 0.597449 0.394533 0.51831 0.652772 0.193771 0.386996 0.319298 0.444392 0.332334 0.326048 0.225456 0.802254 0.106639 0.203668 0.203668 0.097028 51.0766 87.6813 171.446 63.6133 70.3266 133.06 84.3661 160.14 46.5805 41.922 96.4015 49.273 116.206 66.064 60.895 127.411 32.9623 36.2827 94.6928 106.636 152.373 118.992 84.0829 51.8488 62.5961 120.907 33.2859 40.9592 96.1494 99.7934 139.991 118.926 80.2645 53.226 65.4979 120.253 36.1054 45.9848 100.051 91.0692 130.845 112.811 80.4296 55.674 67.3517 120.621 38.2323 49.0502 101.952 85.318 124.013 107.9 80.3753 56.6942 67.0281 118.268 38.545 49.6521 100.29 80.1138 116.726 102.827 78.1422 55.5726 64.6475 112.88 37.3408 48.3065 95.8211 74.5233 108.431 96.6804 74.0125 52.8489 60.8771 105.42 35.1223 45.6698 89.5478 68.5515 99.5714 89.7388 68.73 49.1481 56.3935 96.9664 32.4213 42.3985 82.5324 62.5219 90.6352 82.4273 62.953 45.0726 51.6603 88.2712 29.5642 38.8832 75.2953 56.6219 81.9189 75.1291 57.104 40.9305 46.9617 79.6804 26.731 35.3815 68.2834 50.9716 73.571 68.1293 51.4187 36.912 42.4955 71.5428 24.0162 32.0503 61.6236 45.6711 65.8156 61.5033 46.0491 33.119 38.3031 63.949 21.505 28.9352 55.4527 40.7214 58.6229 55.3181 41.08 29.6085 34.4368 56.8859 19.1554 26.0714 49.7818 36.1842 51.9677 49.6139 36.4839 26.3954 30.9151 50.4381 17.019 23.4673 44.6168 31.9723 45.8735 44.4108 32.2612 23.4191 27.6866 44.5263 15.0604 21.0539 39.8711 28.1535 40.3524 39.6491 28.4271 20.7159 24.7194 39.1309 13.2778 18.8516 35.52 24.6806 35.2447 35.3192 24.9086 18.285 22.0671 34.2561 11.6847 16.8845 31.6283 21.5089 30.6612 31.3735 21.731 16.0577 19.6272 29.8188 10.2085 15.0719 28.0224 18.6237 26.515 27.814 18.8547 14.0409 17.42 25.8561 8.89381 13.419 24.7686 16.0886 22.8299 24.5733 16.2816 12.2186 15.3741 22.2584 7.69758 11.8998 21.8149 13.7858 19.5342 21.6091 13.9744 10.6142 13.5985 19.1228 6.66382 10.5705 19.1756 11.7704 16.6125 19.0056 11.9312 9.16081 11.9269 16.3236 5.71753 9.28961 16.7344 10.0026 14.0981 16.5941 10.1417 7.86135 10.4098 13.8915 4.8943 8.12095 14.4846 8.45207 11.8465 14.4714 8.58376 6.69846 8.97132 11.6878 4.1352 7.0244 12.4216 7.0983 9.8977 12.4826 7.1941 5.69032 7.72785 9.80031 3.47721 6.05149 10.5226 5.95258 8.19248 10.6926 5.93344 4.73725 6.4963 8.05423 2.86644 5.09489 8.72095 4.88107 6.66101 8.96383 4.82112 3.86421 5.30804 6.53113 2.3193 4.1659 6.96977 3.96189 5.29275 7.31704 3.8147 3.02816 4.10132 5.02087 1.77791 3.21462 5.19905 3.07578 3.93864 5.71289 2.84021 2.2426 2.96389 3.58676 1.24358 2.33925 3.50177 2.18555 2.60402 4.10858 1.86185 1.38962 1.79182 2.09251 0.713503 1.40496 1.81729 1.29499 1.30654 2.51008 0.934107 0.665342 0.75962 0.924062 0.297076 0.578442 0.501407 0.597743 0.469715 1.07639 0.290253 0.164725 25.4703 40.8207 91.3008 32.6793 29.6516 75.2583 45.0061 92.5539 22.8881 22.0169 49.9594 24.565 62.9167 34.2564 38.5671 67.2085 16.174 26.4857 69.4857 61.5268 94.4172 77.988 49.7162 33.4022 52.7932 80.9227 23.7795 39.0121 83.437 65.319 94.7545 90.6843 55.4012 40.4173 58.8366 88.3664 28.3665 44.5438 89.6997 63.5295 93.06 91.8851 59.3742 44.2873 60.6044 91.7293 30.5569 46.3229 91.0012 61.5958 90.7085 90.1958 60.9937 45.599 59.8108 91.4591 30.9494 45.867 88.9321 59.2124 87.0567 86.8544 60.2472 44.9427 57.362 88.3148 30.0997 44.041 84.7015 56.0389 82.1329 82.2 57.7575 42.9681 53.9743 83.3035 28.4836 41.4524 79.2724 52.3032 76.4409 76.7718 54.1829 40.237 50.1322 77.3654 26.4846 38.5121 73.4258 48.2954 70.4702 71.0635 50.1853 37.2099 46.2343 71.1544 24.3586 35.5118 67.5429 44.2941 64.5033 65.4468 46.0188 34.1365 42.4491 64.9997 22.2687 32.6076 61.958 40.441 58.8527 60.0456 42.0269 31.232 38.9585 59.2721 20.3122 29.9075 56.7325 36.8366 53.5349 55.0619 38.2295 28.477 35.696 53.8666 18.4869 27.4335 51.9278 33.4492 48.5805 50.4104 34.7136 25.9374 32.6823 48.9179 16.8061 25.135 47.4745 30.3452 44.1161 46.1552 31.4971 23.6079 29.9412 44.3903 15.2895 23.043 43.4886 27.5333 39.9704 42.2827 28.5869 21.5044 27.4637 40.2887 13.8826 21.1376 39.7422 24.9685 36.2466 38.7428 25.9096 19.5612 25.1233 36.5141 12.5945 19.3605 36.2671 22.6303 32.7704 35.447 23.3972 17.7588 22.9711 33.0267 11.4212 17.7346 33.1223 20.473 29.6129 32.3752 21.1617 16.1318 20.9965 29.8897 10.3584 16.2196 30.1434 18.4866 26.7017 29.5457 19.0869 14.6185 19.1141 26.9471 9.34452 14.7597 27.3502 16.6684 24.0713 26.8877 17.1675 13.1811 17.3101 24.2119 8.41401 13.394 24.7391 14.9812 21.5686 24.3865 15.4126 11.882 15.683 21.7534 7.55874 12.1014 22.2219 13.4505 19.2815 22.0901 13.7684 10.6263 14.0467 19.3601 6.73227 10.8594 19.846 11.9889 17.131 19.7921 12.2155 9.44977 12.506 17.1541 5.96223 9.66336 17.5218 10.6318 15.0573 17.6292 10.7403 8.31353 10.9842 15.0032 5.21667 8.48327 15.267 9.28521 13.1153 15.4649 9.3257 7.22719 9.51595 12.9855 4.5115 7.35635 13.0559 8.05817 11.2482 13.3962 7.99996 6.15761 8.03348 10.9864 3.80167 6.22049 10.9349 6.80527 9.39906 11.3532 6.70335 5.11766 6.62641 9.04541 3.12668 5.09495 8.83054 5.60738 7.59529 9.39594 5.42554 4.12167 5.25281 7.11201 2.45991 4.03929 6.77015 4.40639 5.74476 7.41543 4.10937 3.11094 3.89233 5.19202 1.79807 2.9968 4.707 3.18175 3.90166 5.46811 2.84226 2.10751 2.49662 3.28538 1.13659 1.93553 2.57482 1.98662 2.08169 3.46617 1.52303 1.04523 1.00943 1.37067 0.444814 0.761939 0.713942 0.816995 0.646661 1.42239 0.446091 0.24176 9.83043 31.9536 36.8998 12.881 26.8789 75.4903 23.1712 66.6422 28.1875 8.66842 45.771 11.4287 40.1081 30.6609 59.9012 68.4968 21.0504 45.7041 99.6049 55.3662 89.6545 99.1865 51.6426 42.5814 75.0088 91.1913 30.4693 57.7357 113.471 64.7344 96.9844 115.079 61.5351 49.9883 78.4437 98.5397 33.8178 60.6536 115.312 65.4908 96.6756 115.459 64.5267 51.7216 76.8095 98.9131 34.2466 59.438 111.778 63.6634 93.3748 110.977 64.071 50.8489 73.0786 95.7952 33.2784 56.5548 105.776 60.5994 88.5329 104.561 61.6685 48.5664 68.383 90.7298 31.5596 52.8962 98.7098 56.8579 82.8331 97.3621 58.2072 45.5969 63.3449 84.7416 29.4696 48.9525 91.2495 52.8371 76.8168 89.9851 54.2113 42.2992 58.2984 78.3943 27.2565 45.0439 83.9219 48.7651 70.9096 82.6993 50.1347 39.0062 53.506 72.2219 25.0904 41.3023 76.973 44.9192 65.24 75.9271 46.18 35.8611 49.0178 66.3633 23.0239 37.8261 70.5216 41.2761 59.9886 69.5902 42.4294 32.9076 44.9467 60.9334 21.1165 34.6527 64.5827 37.966 55.1386 63.8444 38.9519 30.1838 41.1506 55.9653 19.3897 31.7339 59.2077 34.8964 50.7084 58.5033 35.8253 27.7492 37.7756 51.4411 17.8174 29.0864 54.2716 32.0888 46.6071 53.7013 32.9105 25.5096 34.6521 47.2843 16.3693 26.6883 49.7711 29.5328 42.896 49.2819 30.251 23.4193 31.7913 43.498 15.0413 24.4736 45.601 27.2092 39.4681 45.2354 27.8062 21.5141 29.1047 39.918 13.8048 22.3748 41.6797 24.9755 36.1902 41.4359 25.5094 19.7373 26.6201 36.6197 12.6639 20.4776 38.109 22.9092 33.2029 37.898 23.4078 18.0959 24.3092 33.5713 11.6123 18.6786 34.716 21.0058 30.3377 34.6097 21.3947 16.543 22.1319 30.6081 10.579 16.9926 31.5034 19.167 27.6862 31.5002 19.5013 15.027 20.0202 27.8304 9.61526 15.3375 28.4413 17.4539 25.0733 28.5635 17.6958 13.6301 18.053 25.1946 8.67781 13.8318 25.5219 15.8085 22.6326 25.7506 15.9306 12.2431 16.1442 22.5967 7.78829 12.3749 22.7376 14.1805 20.2611 22.9923 14.2811 10.9541 14.3334 20.1542 6.94399 10.9794 20.0432 12.6519 17.9185 20.4411 12.6238 9.65691 12.5226 17.6851 6.09169 9.60546 17.4443 11.1121 15.6467 17.8652 11.0341 8.41123 10.8192 15.3241 5.26787 8.27634 14.8676 9.60041 13.3771 15.4549 9.44263 7.1541 9.07973 12.9165 4.44283 6.92492 12.3479 8.10079 11.1626 12.9785 7.9138 5.95104 7.44994 10.6428 3.63904 5.68035 9.95232 6.67914 9.03093 10.6185 6.39083 4.78186 5.86839 8.43506 2.88137 4.46595 7.56949 5.25269 6.8816 8.3618 4.91081 3.63968 4.31017 6.2564 2.14358 3.31085 5.32358 3.874 4.84561 6.11164 3.47433 2.5131 2.79968 4.05131 1.38662 2.13759 3.02159 2.46141 2.65875 3.91268 1.94956 1.28324 1.14063 1.63923 0.524414 0.858353 0.818235 0.990777 0.794491 1.62089 0.558886 0.289758 29.8296 77.2685 75.0655 29.2007 66.4745 138.735 47.0827 102.413 59.0001 23.7417 97.5938 33.4547 64.4872 54.8094 101.285 118.464 38.7344 76.0495 156.567 85.3242 133.532 158.072 83.1498 68.1834 111.349 137.239 46.315 84.6577 163.944 93.8398 138.656 169.086 90.2546 72.6505 110.507 139.051 47.607 84.5584 159.899 91.8856 134.046 163.605 89.5094 71.4617 105.222 133.836 46.0749 80.699 151.125 86.9706 126.228 153.806 85.4342 67.8804 98.3433 125.927 43.4541 75.495 140.703 81.0757 117.27 142.797 80.0317 63.4236 90.9625 116.975 40.4032 69.8381 129.78 74.9161 108.179 131.585 74.1385 58.602 83.5378 107.771 37.2214 64.1212 118.958 68.8601 99.2836 120.67 68.2051 53.8039 76.3621 98.8456 34.1243 58.5715 108.616 63.0847 90.8522 110.252 62.4804 49.2108 69.608 90.3849 31.1921 53.3887 98.9727 57.6607 83.0427 100.491 57.1564 44.951 63.3753 82.5866 28.4855 48.5452 90.0567 52.6576 75.8206 91.4977 52.215 41.0027 57.6209 75.4434 25.9915 44.1388 81.8907 48.1169 69.3079 83.2087 47.7153 37.3687 52.3585 68.8487 23.7029 40.0776 74.3677 43.9521 63.2761 75.6827 43.5925 34.0998 47.5548 62.9108 21.6361 36.3912 67.5306 40.1337 57.7846 68.7061 39.7976 31.0469 43.1261 57.4108 19.7398 32.9783 61.2481 36.6333 52.7522 62.3423 36.3906 28.3308 39.1083 52.4679 18.0244 29.8937 55.5021 33.4575 48.1751 56.5083 33.233 25.7956 35.3777 47.7838 16.3924 27.038 50.1789 30.4901 43.8072 51.1655 30.2525 23.4421 31.9773 43.4873 14.922 24.3988 45.3156 27.7149 39.8368 46.2063 27.5646 21.2801 28.7836 39.4942 13.53 21.9418 40.7023 25.1607 36.0672 41.6054 24.9718 19.2429 25.8481 35.7298 12.2354 19.6983 36.4566 22.7697 32.5894 37.3264 22.5719 17.3191 23.0629 32.1404 10.9889 17.5757 32.4567 20.4862 29.2509 33.3105 20.2567 15.511 20.4838 28.8165 9.85914 15.6295 28.7509 18.3515 26.1139 29.5407 18.1411 13.8461 18.0902 25.668 8.77978 13.7557 25.2924 16.2917 23.0984 26.0665 16.0955 12.2294 15.8034 22.6176 7.72936 12.0257 21.9865 14.3419 20.266 22.7232 14.1343 10.6669 13.6168 19.6792 6.7147 10.34 18.8687 12.4759 17.481 19.6365 12.2698 9.23541 11.6293 16.9394 5.77537 8.796 15.9075 10.6901 14.8599 16.6923 10.4407 7.82071 9.6773 14.1828 4.82499 7.33117 13.0252 8.9665 12.301 13.861 8.58956 6.37729 7.76601 11.5296 3.92325 5.89579 10.3432 7.26967 9.82107 11.1396 6.94427 5.10759 6.0447 9.06366 3.07417 4.56718 7.7852 5.68355 7.3928 8.6708 5.27882 3.82893 4.34261 6.60365 2.23892 3.25513 5.3004 4.07745 5.04994 6.19199 3.69675 2.61287 2.73159 4.25008 1.43403 2.05933 3.05775 2.5554 2.89548 3.83939 2.1283 1.36401 1.20178 1.82313 0.588403 0.841869 0.872918 1.11536 0.85878 1.81032 0.623697 0.329876 57.6674 135.874 153.312 58.7058 115.308 223.975 90.0935 172.29 100.7 47.1677 169.81 65.6358 116.362 92.9562 151.099 186.457 60.893 112.24 223.215 130.293 196.536 232.266 124.856 99.1117 152.514 196.104 65.3973 114.708 221.373 134.081 195.003 232.701 126.985 99.8881 146.865 191.082 64.5832 111.301 211.599 127.539 184.68 219.721 122.357 96.014 138.384 180.592 61.4264 105.246 198.408 119 171.964 204.711 114.99 90.1738 128.804 168.215 57.3862 98.1326 183.968 110.063 158.759 189.344 106.733 83.6543 118.842 155.276 53.0451 90.5853 169.171 101.206 145.644 174.151 98.2313 76.9286 108.859 142.39 48.6578 82.9517 154.593 92.6256 133.08 159.298 89.899 70.3539 99.2502 129.959 44.4013 75.6234 140.688 84.4585 121.188 145.148 81.9129 64.0478 90.1559 118.27 40.4072 68.6794 127.649 76.8503 110.131 131.837 74.4713 58.158 81.6441 107.336 36.6372 62.1503 115.472 69.7361 99.8831 119.425 67.5717 52.7017 73.8201 97.3493 33.2191 56.1496 104.278 63.214 90.4914 107.979 61.2386 47.6804 66.5723 88.1413 30.0602 50.6363 94.0115 57.2737 81.8963 97.4051 55.4348 43.1043 59.9256 79.6858 27.1707 45.5322 84.538 51.7221 73.9511 87.7004 50.1263 38.9085 53.8384 71.9793 24.529 40.9235 75.8907 46.7142 66.7005 78.7794 45.214 35.0113 48.2278 64.8439 22.091 36.6169 67.935 42.051 60.0119 70.6097 40.7635 31.5024 43.1236 58.3532 19.8769 32.7296 60.6692 37.7873 53.8925 63.0689 36.6556 28.2376 38.406 52.3354 17.7901 29.0861 53.9146 33.8978 48.2554 56.1986 32.8644 25.2375 34.0456 46.8158 15.9248 25.7736 47.7678 30.2664 42.9853 49.8069 29.3591 22.4943 30.0596 41.7103 14.1577 22.7419 42.0152 26.918 38.1937 43.9461 26.1059 19.9242 26.3971 36.9392 12.5523 19.9532 36.837 23.8087 33.674 38.5615 23.1158 17.5706 23.0233 32.57 11.0683 17.3885 32.0362 20.9143 29.4847 33.584 20.3148 15.3873 19.8983 28.4184 9.62978 14.9997 27.4952 18.2413 25.652 29.0009 17.7022 13.3364 17.0334 24.6694 8.36909 12.8575 23.4927 15.7639 22.0537 24.7675 15.2878 11.4507 14.3999 21.0846 7.14323 10.839 19.7001 13.4634 18.7093 20.9111 13.0106 9.71476 12.0121 17.804 6.02484 9.04998 16.2391 11.3176 15.6077 17.341 10.8557 8.03361 9.72327 14.6556 4.96391 7.3354 13.0538 9.29931 12.632 14.079 8.88206 6.51826 7.68382 11.7308 3.96617 5.7536 10.0755 7.38342 9.86138 11.0893 6.96941 5.06929 5.75247 8.97633 3.04235 4.29443 7.39052 5.62751 7.28697 8.27724 5.21975 3.71787 4.01667 6.36209 2.12166 2.97465 4.78194 3.93608 4.83259 5.73955 3.4648 2.37133 2.32033 3.86307 1.29576 1.68094 2.67431 2.36906 2.73258 3.36439 1.98577 1.26261 1.0667 1.73889 0.540652 0.733747 0.788416 1.14005 0.891824 1.64906 0.583342 0.298827 93.2209 211.759 251.561 95.1373 176.05 321.555 148.136 256.155 162.313 78.2172 271.371 112.511 177.405 137.264 205.277 265.215 86.2686 151.659 293.573 182.58 267.477 312.843 171.653 133.008 194.963 259.579 85.871 145.853 281.356 177.418 255.764 297.746 166.647 129.137 185.154 247.215 82.9019 139.621 266.925 165.861 239.755 278.226 158.203 122.731 174.188 232.261 78.4053 131.838 250.142 154.204 222.824 259.247 148.111 114.991 162.261 216.111 73.1897 122.997 231.961 142.601 205.647 240.204 137.333 106.604 149.726 199.37 67.5965 113.542 213.203 131.137 188.621 221.068 126.257 97.9724 137.116 182.581 61.9351 103.984 194.637 119.918 172.072 202.198 115.293 89.4055 124.798 166.316 56.4212 94.608 176.766 109.13 156.357 183.951 104.861 81.2514 113.14 150.947 51.2004 85.7162 159.951 98.9974 141.635 166.733 95.0289 73.561 102.195 136.523 46.2797 77.4115 144.2 89.5452 127.911 150.61 85.7939 66.3535 91.9729 123.123 41.7242 69.644 129.634 80.7655 115.257 135.599 77.3021 59.7144 82.5473 110.798 37.5349 62.4527 116.217 72.6637 103.579 121.758 69.5151 53.6171 73.9011 99.4202 33.6599 55.8749 103.859 65.2044 92.8146 109.015 62.3103 47.9863 65.9089 89.007 30.1284 49.8006 92.5044 58.3412 82.9267 97.2754 55.7426 42.8867 58.6388 79.4595 26.8949 44.3037 82.142 52.0508 73.8803 86.4915 49.6638 38.1214 51.9026 70.6667 23.9076 39.1657 72.6134 46.2447 65.5449 76.5644 44.1431 33.8196 45.7633 62.6076 21.1489 34.4865 63.7898 40.9715 57.9517 67.5006 39.0075 29.7784 40.0464 55.143 18.6234 30.1547 55.7028 36.0594 50.8407 59.1497 34.334 26.1712 34.9391 48.4129 16.3624 26.3198 48.4032 31.5782 44.3532 51.4473 29.9997 22.8172 30.1291 42.1195 14.2311 22.6673 41.6491 27.4314 38.5046 44.3752 26.0838 19.7305 25.8034 36.4323 12.2965 19.3698 35.483 23.6801 33.0599 38.036 22.4967 16.9459 21.8554 31.206 10.5185 16.3816 29.8568 20.2431 28.1013 32.1792 19.1509 14.3919 18.2921 26.4085 8.93051 13.7413 24.8192 17.0477 23.6125 26.7834 16.166 12.0391 14.9871 22.0626 7.43585 11.2003 20.2122 14.221 19.4882 22.0197 13.4369 9.96653 12.1343 18.1628 6.12442 9.05062 16.1489 11.5857 15.7894 17.7161 10.9631 8.04784 9.51735 14.5388 4.91119 7.08133 12.4879 9.26471 12.4289 13.8721 8.69004 6.30696 7.18674 11.2607 3.77658 5.3338 9.24237 7.14062 9.39568 10.4465 6.6113 4.7347 5.1603 8.28171 2.77467 3.79947 6.39867 5.21306 6.65718 7.44073 4.72492 3.31032 3.37383 5.66318 1.89154 2.45568 4.018 3.52047 4.21441 4.8568 3.03935 2.04378 1.82684 3.16067 1.02531 1.30472 2.0573 1.96747 2.31005 2.66682 1.60211 0.973212 0.787783 1.43772 0.416694 0.486874 0.585265 1.02025 0.782468 1.3028 0.491923 0.244159 154.759 154.759 399.902 148.413 87.2815 213.536 240.219 357.189 67.4779 132.952 200.067 196.867 246.164 186.193 125.062 346.093 112.828 59.9384 171.16 233.35 337.983 186.118 218.62 167.529 114.639 322.289 107.104 56.3076 162.108 218.986 316.775 171.958 207.106 159.715 108.918 305.701 102.56 53.9138 154.391 205.111 297.355 161.442 196.216 151.489 102.843 287.9 96.9465 51.0118 145.415 191.653 277.262 151.397 184.026 142.056 96.121 268.366 90.5024 47.6523 135.329 177.761 256.372 140.893 170.723 131.708 88.8576 247.61 83.5733 44.0312 124.685 163.555 235.2 129.934 156.936 120.964 81.4216 226.636 76.5024 40.3099 113.965 149.492 214.492 118.921 143.253 110.317 74.1247 206.173 69.577 36.6624 103.533 135.918 194.58 108.236 130.002 100.057 67.142 186.679 62.9758 33.1856 93.6071 123.04 175.897 98.0091 117.495 90.3307 60.5406 168.416 56.8029 29.9092 84.3488 110.986 158.432 88.4109 105.855 81.295 54.4014 151.374 51.0315 26.8554 75.7397 99.7768 142.245 79.4798 95.0523 72.9511 48.7749 135.68 45.7144 24.0668 67.7674 89.445 127.287 71.2638 85.0011 65.1503 43.5027 121.172 40.8049 21.4497 60.4569 79.895 113.576 63.605 75.8633 58.0943 38.7391 107.892 36.3215 19.087 53.7527 71.1154 100.875 56.6465 67.4024 51.5649 34.3305 95.6857 32.2035 16.8992 47.5703 63.0623 89.29 50.2077 59.6785 45.5503 30.246 84.4328 28.3819 14.8792 41.897 55.6307 78.6112 44.2698 52.5856 40.0783 26.5756 74.193 24.9218 13.0605 36.732 48.867 68.8508 38.893 46.0658 35.0486 23.1873 64.7282 21.7321 11.3771 31.9544 42.6075 59.8071 33.9213 40.0273 30.4032 20.0482 56.0999 18.836 9.82599 27.6082 36.8364 51.6055 29.3367 34.6329 26.2084 17.1984 48.1419 16.1545 8.42619 23.6106 31.6164 44.0252 25.1684 29.5809 22.3255 14.5972 40.9465 13.7291 7.14118 20.0021 26.8464 37.2181 21.3452 25.0268 18.8357 12.2478 34.3846 11.5216 5.97473 16.6943 22.5028 30.9825 17.8975 20.8744 15.6016 10.0547 28.4262 9.5147 4.88205 13.7195 18.5067 25.34 14.7137 17.1899 12.7948 8.16215 23.034 7.70689 3.95737 11.0143 14.9772 20.2476 11.9067 13.7452 10.1489 6.39939 18.2448 6.0964 3.09197 8.6322 11.7964 15.7867 9.34014 10.7952 7.89599 4.89155 14.0278 4.68924 2.35576 6.54387 8.99632 11.8731 7.09242 8.16263 5.87999 3.5465 10.3134 3.44112 1.69188 4.72998 6.5624 8.45123 5.15844 5.91979 4.15964 2.4104 7.13296 2.3448 1.12153 3.13422 4.47138 5.58775 3.51374 3.93942 2.6938 1.47053 4.43836 1.46023 0.681114 1.908 2.7543 3.33028 2.13309 2.39966 1.55296 0.773841 2.37622 0.757636 0.32607 0.973894 1.47893 1.73498 1.16142 1.23313 0.812599 0.381033 1.07884 0.310543 0.164775 0.310543 0.71941 0.54531 0.558928 0.314339 0.145768 94.3013 232.878 198.046 157.472 275.172 156.021 79.6789 101.011 60.4213 53.6941 137.872 74.0192 138.665 185.023 142.532 258.908 212.008 169.217 254.033 132.63 91.8495 214.398 130.787 171.824 135.684 245.797 195.432 164.137 240.108 130.703 87.7847 209.194 122.163 159.073 121.444 223.786 176.811 152.816 220.668 123.237 80.8198 191.324 111.03 144.709 110.045 202.238 160.597 138.769 199.219 112.213 72.9555 173.703 99.6429 130.628 100.068 181.873 145.609 124.357 178.042 100.291 65.1733 156.941 88.8743 117.231 90.7191 163.034 131.543 110.756 158.434 88.9961 58.0128 141.02 79.1284 104.962 81.9121 145.974 118.393 98.444 140.834 78.8073 51.637 126.304 70.4873 93.8863 73.7151 130.578 106.312 87.493 125.213 69.8493 46.0039 112.834 62.7893 83.9235 66.0903 116.656 95.1969 77.7309 111.176 61.8994 40.9643 100.602 55.8551 74.8815 59.0843 103.91 84.9273 68.9424 98.6071 54.859 36.4204 89.4837 49.5606 66.617 52.5654 92.2329 75.4203 61.0315 87.1886 48.4943 32.2744 79.4141 43.8504 59.0785 46.5941 81.5583 66.7308 53.8196 76.7231 42.7054 28.4831 70.2086 38.5483 52.0817 41.0929 71.653 58.6853 47.1927 67.1522 37.4013 24.9785 61.8004 33.7217 45.6507 36.0405 62.6059 51.3493 41.196 58.4209 32.6429 21.7877 54.0583 29.2637 39.749 31.4067 54.2893 44.6395 35.6248 50.3774 28.1825 18.855 47.0101 25.1938 34.3629 27.1802 46.6695 38.4839 30.5712 43.0963 24.1462 16.1663 40.5957 21.4901 29.4374 23.3439 39.7519 32.9082 25.9717 36.4389 20.4416 13.7085 34.8185 18.1101 24.9242 19.8225 33.3853 27.8364 21.805 30.4204 17.1541 11.4755 29.4769 15.0268 20.8183 16.7219 27.7086 23.341 18.0159 24.9766 14.0967 9.45811 24.7621 12.2798 17.1374 13.9085 22.5516 19.3066 14.6336 20.1224 11.4011 7.62914 20.5143 9.8258 13.8407 11.4434 18.0709 15.7862 11.6646 15.8799 8.98972 6.05852 16.7919 7.65842 10.9555 9.27891 14.0103 12.6383 9.01226 12.1018 6.88341 4.60861 13.5176 5.74716 8.35382 7.38542 10.5487 10.0509 6.7246 8.93339 5.03252 3.39713 10.687 4.1747 6.22248 5.89493 7.6854 7.85944 4.84645 6.31115 3.51111 2.37066 8.38215 2.83866 4.3916 4.61209 5.32767 6.04582 3.2807 4.2209 2.23612 1.53875 6.46457 1.83412 2.95786 3.55445 3.52508 4.59029 2.16284 2.72132 1.33335 0.919328 4.95908 1.12418 1.90926 2.78316 2.35659 3.47578 1.45584 1.81764 0.795085 0.530989 3.81827 0.791182 1.25046 2.12688 1.87253 2.53565 1.15635 1.48166 0.758548 0.486888 2.91778 0.660524 0.975961 1.45577 1.52535 1.71241 0.928796 1.22108 0.71711 0.480447 2.04559 0.600483 0.863447 0.888415 1.16417 1.0259 0.705554 0.933461 0.600144 0.402515 1.25503 0.410176 0.641895 0.525037 0.641856 0.331398 0.41649 0.300396 0.305528 0.198727 0.775185 0.100354 0.207232 52.5003 110.395 108.327 67.9769 136.278 33.6119 29.3548 73.4921 37.5991 95.3307 85.2129 168.474 134.45 111.796 170.964 130.1 113.653 86.7817 163.174 129.497 111.512 163.665 135.895 106.387 80.227 148.29 118.696 102.836 149.331 127.665 96.7185 74.2586 136.161 109.639 94.0023 135.889 117.547 88.8076 68.8512 125.185 101.455 85.4503 123.252 107.513 81.5352 63.5821 114.558 93.3143 77.2499 111.264 97.9371 74.4211 58.2992 104.16 85.2868 69.5171 100.024 88.7397 67.4924 53.1368 94.2045 77.565 62.3338 89.7009 80.0958 60.9692 48.2106 84.8357 70.2078 55.7668 80.2029 72.1818 54.7878 43.5768 76.1241 63.3455 49.7931 71.5608 64.8834 49.0593 39.2472 68 56.9712 44.3286 63.6351 58.2019 43.755 35.2577 60.5239 51.1222 39.318 56.4406 52.089 38.8949 31.6096 53.6766 45.7282 34.8028 49.8368 46.5734 34.3793 28.2446 47.3484 40.809 30.6118 43.7885 41.496 30.2803 25.1899 41.6114 36.3146 26.8243 38.3155 36.8907 26.549 22.4179 36.3916 32.205 23.4024 33.3102 32.7409 23.0996 19.8633 31.6008 28.5079 20.2912 28.8082 28.9351 20.018 17.597 27.3128 25.1413 17.4555 24.7527 25.4959 17.2334 15.546 23.4913 22.1087 14.963 21.152 22.4225 14.7455 13.6548 20.0388 19.3547 12.7465 17.9638 19.668 12.531 11.9924 17.0085 16.9255 10.7567 15.1474 17.1684 10.5864 10.4898 14.3763 14.6826 9.06483 12.6992 14.9853 8.8918 9.14363 12.0535 12.6819 7.58103 10.6016 12.9955 7.41415 7.89623 10.1192 10.8518 6.35381 8.81947 11.1934 6.16075 6.73453 8.41181 9.1791 5.27915 7.25376 9.55641 5.09141 5.66964 6.91849 7.57788 4.34088 5.88261 8.039 4.12853 4.61801 5.62444 6.06419 3.497 4.67487 6.55682 3.28663 3.6276 4.39979 4.56207 2.74933 3.49846 5.14989 2.46227 2.60618 3.08608 3.06101 1.91374 2.24743 3.66763 1.59672 1.57951 1.82241 1.60491 1.10712 1.15358 2.23559 0.814667 0.687682 0.869047 0.476791 0.581066 0.454642 1.02453 0.287517 28.8432 58.725 72.6629 36.8363 83.1049 20.6888 15.1501 44.3802 19.7173 56.3264 59.7186 101.718 98.0837 69.8358 111.515 95.3503 71.4888 66.5568 109.146 100.277 75.8535 111.717 105.702 71.5588 63.8801 102.903 94.9175 71.4502 103.521 100.299 67.0579 60.2576 96.2021 89.1345 65.6023 94.9775 92.6106 62.6865 56.5398 89.9296 83.3899 60.0688 87.082 85.1809 58.5548 52.6996 83.6169 77.4997 54.9551 79.6129 78.2411 54.2803 48.7608 77.1334 71.5777 50.0557 72.5252 71.6333 49.9837 44.9241 70.7166 65.8242 45.4806 65.9389 65.4828 45.7575 41.2381 64.5358 60.3575 41.2806 59.8614 59.8441 41.7076 37.8285 58.7683 55.3357 37.4225 54.2879 54.6822 37.9462 34.6474 53.3983 50.629 33.9048 49.2006 49.9893 34.4443 31.7329 48.4245 46.3058 30.7028 44.5478 45.7376 31.2064 29.0869 43.8719 42.3857 27.7921 40.309 41.8569 28.2583 26.6874 39.7776 38.7813 25.1496 36.4742 38.348 25.5595 24.4283 35.9654 35.4524 22.744 32.9273 35.0933 23.0914 22.3964 32.5342 32.4042 20.547 29.7269 32.1318 20.835 20.5108 29.396 29.5502 18.539 26.8278 29.3684 18.8003 18.6933 26.5278 26.884 16.7429 24.1558 26.7889 16.9151 17.0443 23.8837 24.4158 15.062 21.7228 24.4066 15.2191 15.4915 21.4734 22.0985 13.5604 19.499 22.1863 13.6101 14.0259 19.2292 19.8849 12.1478 17.3753 20.0526 12.1452 12.5787 17.1303 17.7567 10.8293 15.4309 17.9831 10.762 11.2187 15.1821 15.6881 9.59292 13.6105 16.0473 9.48624 9.82602 13.3107 13.6665 8.408 11.8322 14.1409 8.29105 8.54467 11.5456 11.7542 7.28053 10.173 12.2421 7.10266 7.25915 9.78372 9.82128 6.20688 8.50785 10.4404 5.92433 5.96924 8.00242 7.9464 5.08141 6.81975 8.54615 4.78488 4.72307 6.32395 6.05157 4.00108 5.16827 6.76697 3.63105 3.45267 4.58569 4.17075 2.85242 3.47323 4.9271 2.48209 2.17808 2.84513 2.26136 1.76403 1.84539 3.07194 1.32991 0.908246 1.22159 0.617832 0.763822 0.623654 1.26516 0.399899 28.8741 34.6239 80.5906 28.0424 72.7955 25.6511 8.04564 48.3378 15.8437 44.7656 72.1439 90.8223 115.578 64.86 104.108 111.685 64.5296 81.3123 103.74 119.217 72.4468 105.998 125.067 67.1845 78.7641 101.193 113.503 68.9765 99.11 119.183 64.494 73.8223 95.5105 106.069 63.4723 91.2481 109.648 60.7599 68.4625 89.1875 98.3331 58.1327 83.8384 100.296 56.7539 63.1424 82.7387 90.6939 53.2633 76.952 91.7181 52.6629 58.0463 76.3849 83.3822 48.7733 70.5422 83.8645 48.6119 53.2076 70.2764 76.4395 44.6626 64.6984 76.6901 44.7757 48.7632 64.5865 70.0897 40.9351 59.3347 70.1936 41.1458 44.6841 59.3045 64.2486 37.5593 54.5238 64.2841 37.8553 40.9963 54.5296 58.9255 34.516 50.0808 58.9747 34.7962 37.5858 50.1208 54.0225 31.7519 46.0854 54.108 32.0016 34.4977 46.1173 49.5567 29.239 42.4452 49.678 29.4485 31.686 42.4475 45.5001 26.9356 39.0721 45.6546 27.1114 29.0824 39.0686 41.6776 24.7881 35.9543 41.8722 24.9426 26.6392 35.9247 38.1573 22.8337 33.0618 38.3809 22.913 24.387 32.9992 34.8475 20.9947 30.3732 35.1502 21.0207 22.2561 30.2152 31.7189 19.2256 27.774 32.1063 19.2178 20.2393 27.6082 28.7852 17.5866 25.3334 29.2081 17.5403 18.3501 25.1264 25.9997 15.9978 23.0096 26.4771 15.9355 16.5151 22.7796 23.3448 14.528 20.805 23.8664 14.4019 14.7676 20.4695 20.7883 13.0741 18.6432 21.3452 12.8856 13.1148 18.2381 18.3375 11.6578 16.4876 18.9554 11.4094 11.4926 16.0173 15.934 10.248 14.3796 16.5835 9.97237 9.91747 13.8655 13.5961 8.83656 12.3371 14.2891 8.53604 8.32024 11.7698 11.2851 7.51723 10.3306 12.0481 7.17577 6.79679 9.67912 9.04205 6.16069 8.29015 9.85011 5.80309 5.3385 7.61641 6.84397 4.83718 6.30963 7.70089 4.41804 3.89039 5.58294 4.77587 3.51093 4.36395 5.57866 3.11874 2.48394 3.59778 2.67144 2.22999 2.39397 3.57151 1.72257 1.02153 1.50519 0.7356 0.899672 0.721464 1.45578 0.510469 60.6021 65.2606 129.701 46.8718 104.695 50.5973 20.2514 89.4038 31.849 66.3892 109.289 131.187 168.155 89.9837 142.098 162.418 90.6239 116.725 144.24 168.593 98.679 143.763 175.693 92.5942 111.092 138.988 158.337 93.7249 134.182 166.503 87.8115 103.038 129.619 146.507 86.0064 123.089 152.812 81.6893 94.7976 119.642 134.716 78.4721 112.484 139.491 75.3558 86.896 109.89 123.417 71.541 102.694 127.185 69.2338 79.418 100.683 112.744 65.2505 93.7497 115.882 63.421 72.4354 92.0553 102.815 59.5525 85.5567 105.557 57.9911 65.9691 84.0824 93.6164 54.3327 78.088 96.0655 52.9976 60.0249 76.8044 85.186 49.6055 71.3488 87.4145 48.4404 54.5909 70.1765 77.4435 45.3455 65.184 79.5311 44.2677 49.6074 64.1045 70.3893 41.4107 59.5314 72.2853 40.4613 45.0481 58.5457 63.87 37.8376 54.3829 65.6893 36.9702 40.8657 53.4843 57.907 34.584 49.6868 59.6002 33.7961 36.9968 48.8229 52.4411 31.54 45.322 53.9786 30.8506 33.492 44.482 47.3632 28.715 41.2095 48.8692 28.089 30.1926 40.4748 42.6973 26.1385 37.4702 44.0397 25.5598 27.1526 36.7037 38.2883 23.7067 33.9287 39.6366 23.1389 24.3259 33.1942 34.2975 21.4274 30.5859 35.507 20.9097 21.707 29.8565 30.4969 19.2591 27.4412 31.6412 18.7952 19.2432 26.7534 26.9599 17.2126 24.4687 28.046 16.7941 16.9382 23.7404 23.6048 15.291 21.6675 24.6926 14.8619 14.7362 20.9334 20.4659 13.4813 18.9334 21.5365 13.0453 12.7031 18.2201 17.4908 11.6979 16.3658 18.4824 11.2787 10.7408 15.5989 14.6936 9.99799 13.8712 15.675 9.60953 8.93454 13.0589 12.0613 8.36863 11.4405 13.0115 7.96034 7.18924 10.6321 9.50568 6.77833 9.08237 10.4698 6.32573 5.55387 8.26594 7.10545 5.23891 6.82945 8.00775 4.78373 3.93719 5.97058 4.78889 3.74727 4.6741 5.69136 3.29706 2.39157 3.71406 2.73446 2.34594 2.60724 3.49998 1.89158 1.15874 1.6461 0.827064 1.01785 0.776587 1.65574 0.543322 104.8 121.372 198.327 81.5572 160.996 87.0778 39.3896 151.574 59.4022 106.709 157.708 196.386 234.78 130.813 201.63 230.823 131.676 159.013 204.07 228.244 137.686 199.975 237.642 130.364 148.899 192.754 212.365 129.571 185.759 223.035 121.934 137.628 178.325 195.941 118.773 170.183 204.938 112.616 126.606 163.944 179.967 108.414 155.403 187.529 103.434 116.024 150.217 164.669 98.8768 141.733 171.221 94.6457 105.921 137.161 150.119 90.0164 128.979 156.019 86.3506 96.4061 124.935 136.466 81.8889 117.296 141.819 78.5925 87.5152 113.619 123.799 74.3889 106.477 128.714 71.4434 79.2763 103.123 111.969 67.5099 96.5874 116.577 64.8116 71.6155 93.4895 101.115 61.2061 87.4991 105.348 58.727 64.6218 84.6537 91.1922 55.3946 79.1378 95.0562 53.167 58.1744 76.5139 81.9616 50.0854 71.5098 85.5863 48.0082 52.2318 69.053 73.5289 45.1821 64.4626 76.8616 43.3289 46.7837 62.1841 65.7859 40.6768 57.937 68.8633 39.0083 41.7613 55.901 58.6398 36.5587 52.004 61.5038 35.0351 37.1555 50.0941 52.1018 32.6998 46.4684 54.6948 31.3695 32.9132 44.6866 46.0173 29.1846 41.3572 48.4448 27.9342 28.9775 39.7193 40.4561 25.8908 36.669 42.6657 24.8262 25.4117 35.1591 35.325 22.8806 32.2785 37.3795 21.8886 22.052 30.8339 30.5753 20.0499 28.2364 32.4193 19.1716 19.0204 26.922 26.2213 17.4863 24.4836 27.9882 16.6705 16.168 23.1907 22.2287 15.0501 20.9716 23.7822 14.3276 13.6306 19.7979 18.5851 12.7905 17.7059 20.0276 12.1507 11.2591 16.5855 15.2259 10.698 14.6728 16.5208 10.1078 9.13512 13.642 12.1628 8.76457 11.9207 13.3565 8.20965 7.14534 10.8285 9.34063 6.95212 9.23123 10.455 6.40614 5.31082 8.26354 6.75 5.2491 6.79417 7.74679 4.76772 3.62446 5.79926 4.36413 3.67638 4.5342 5.32407 3.18708 2.15491 3.52218 2.5137 2.21025 2.52398 3.13779 1.81336 1.09748 1.73482 0.807942 1.10834 0.880461 1.64058 0.601181 172.269 203.063 282.724 134.807 233.444 147.893 69.2954 250.986 105.381 157.444 210.596 273.987 305.184 180.089 270.268 306.953 178.736 202.194 269.398 289.739 180.189 261.107 301.098 171.492 187.963 250.756 269.309 168.073 241.984 281.208 159.321 174.362 231.913 249.204 154.698 222.39 260.146 147.12 160.98 213.618 229.386 141.827 203.683 239.343 135.219 147.82 195.909 210.047 129.64 185.94 219.177 123.746 135.015 178.898 191.461 118.147 169.249 199.905 112.81 122.78 162.758 173.752 107.368 153.622 181.662 102.484 111.244 147.594 157.172 97.312 139.081 164.539 92.8301 100.472 133.513 141.749 88.0099 125.633 148.614 83.8623 90.4757 120.415 127.479 79.3639 113.16 133.843 75.5682 81.2653 108.378 114.32 71.3973 101.749 120.196 67.9534 72.7385 97.2999 102.163 64.1198 91.1671 107.687 60.8944 64.8941 87.052 91.0349 57.3535 81.4539 96.0454 54.4436 57.6895 77.674 80.7416 51.1467 72.5417 85.4212 48.5307 51.0526 69.0225 71.3076 45.4503 64.3175 75.609 43.0429 44.9702 61.1059 62.6709 40.2104 56.7885 66.6209 38.0549 39.4016 53.8271 54.6978 35.3931 49.8257 58.3622 33.3931 34.2171 47.06 47.3918 30.9129 43.4368 50.7068 29.1546 29.5302 40.9261 40.6955 26.8651 37.5912 43.7737 25.299 25.252 35.2803 34.612 23.1021 32.1744 37.3917 21.6902 21.3095 30.1012 29.0772 19.6947 27.3006 31.5448 18.4508 17.7399 25.3604 24.0198 16.5355 22.7943 26.2817 15.485 14.5376 21.1077 19.479 13.7456 18.7999 21.4943 12.7804 11.6367 17.1785 15.4066 11.1674 15.0996 17.2054 10.313 9.0642 13.7104 11.838 8.86403 11.8779 13.389 8.14604 6.79205 10.5719 8.6621 6.80968 8.92132 10.065 6.18379 4.81133 7.71813 5.98569 4.92642 6.27895 7.09624 4.3784 3.12249 5.16833 3.70172 3.28439 3.95528 4.62872 2.76509 1.71582 2.95094 1.95616 1.86165 2.2119 2.56098 1.54299 0.878608 1.5646 0.687505 1.02678 0.818286 1.30993 0.5392 131.393 341.306 184.772 227.342 328.055 64.2776 125.425 192.069 192.485 223.073 129.65 355.237 177.211 228.683 338.09 185.824 225.437 118.23 332.234 167.11 220.271 321.226 173.065 212.218 110.108 309.454 156.09 206.603 299.521 162.271 197.891 102.943 288.219 145.281 192.097 277.268 151.62 183.688 95.5514 266.719 134.294 177.206 255.019 140.413 169.368 87.9892 245.125 123.287 162.46 233.266 129.052 155.19 80.4699 223.924 112.506 148.202 212.416 117.887 141.461 73.2117 203.577 102.167 134.618 192.563 107.185 128.307 66.3043 184.308 92.423 121.814 174.053 97.0155 116.001 59.8354 166.307 83.2958 109.91 156.843 87.5477 104.516 53.8098 149.581 74.8265 98.8311 140.811 78.7371 93.8549 48.2341 134.116 67.0333 88.5967 126.101 70.5673 84.061 43.097 119.867 59.8187 79.2046 112.522 63.089 75.009 38.3764 106.746 53.1743 70.5159 100.022 56.1801 66.6641 34.0176 94.7022 47.1124 62.5585 88.5113 49.8124 59.0188 29.9966 83.5417 41.4522 55.1557 77.9062 43.9323 51.9584 26.3157 73.3634 36.3615 48.4339 68.1924 38.5568 45.5276 22.9674 64.0369 31.6178 42.2375 59.2874 33.6463 39.602 19.8606 55.402 27.2821 36.5523 51.0948 29.0947 34.1218 17.0328 47.5816 23.3171 31.3539 43.5901 24.956 29.1335 14.4085 40.3474 19.7214 26.5284 36.7633 21.0975 24.649 12.095 33.8626 16.4759 22.2126 30.553 17.6837 20.5531 9.94932 27.9118 13.4403 18.3154 24.9494 14.5776 16.7674 8.02189 22.573 10.7945 14.731 19.8785 11.7181 13.4273 6.28413 17.7853 8.42182 11.5692 15.472 9.1713 10.4847 4.76805 13.5738 6.32322 8.82263 11.5435 6.99724 7.86986 3.45892 9.90757 4.51252 6.40969 8.21411 5.05395 5.59339 2.31095 6.73018 2.96965 4.32712 5.42605 3.39894 3.73687 1.4145 4.21536 1.77159 2.72844 3.25084 2.12772 2.2336 0.746868 2.27277 0.935147 1.48006 1.72543 1.14521 1.16018 0.384398 1.12046 0.335946 0.734679 0.566318 0.587394 0.370582 83.5294 230.263 195.064 159.051 281.504 161.793 79.9014 104.434 52.8186 48.0356 128.255 69.4911 139.228 188.706 141.128 252.344 213.333 167.768 250.605 130.087 88.0961 215.167 128.274 169.358 140.778 249.592 204.2 164.409 241.938 129.587 87.6648 213.937 124.146 163.495 129.698 234.625 188.613 155.856 226.762 124.567 83.3951 198.488 115.473 152.493 117.93 214.087 171.205 143.249 206.51 114.903 76.2722 181.437 104.302 138.301 106.279 191.956 153.722 128.818 184.624 103.206 68.1979 163.701 92.8082 123.479 95.079 170.681 136.997 114.495 163.641 91.5358 60.4383 146.251 82.0988 109.516 84.6601 151.216 121.734 101.24 144.517 80.7553 53.3682 129.873 72.4915 96.9128 75.2443 133.88 108.099 89.3559 127.584 71.1773 47.1319 114.997 64.0777 85.7937 66.7971 118.551 95.8687 78.9137 112.624 62.7886 41.6613 101.781 56.5886 75.9079 59.1801 104.869 84.9223 69.6192 99.3776 55.3822 36.8092 89.9356 49.9618 67.1344 52.3887 92.6436 75.0612 61.3609 87.5323 48.7878 32.4769 79.3928 44.0023 59.2455 46.1936 81.5516 66.1262 53.9401 76.8254 42.8463 28.5568 69.9397 38.6085 52.0731 40.624 71.4792 58.0054 47.2128 67.0891 37.4864 24.984 61.372 33.6452 45.5101 35.5123 62.3173 50.5903 41.0676 58.2874 32.5842 21.7557 53.5789 29.2149 39.6036 30.8386 53.9118 43.782 35.5376 50.1853 28.1314 18.8024 46.5301 25.0815 34.0938 26.5835 46.2287 37.6411 30.428 42.879 24.0895 16.0851 40.0481 21.3724 29.1601 22.768 39.274 32.1236 25.839 36.1661 20.3988 13.6123 34.2415 17.9397 24.626 19.2908 32.981 27.0466 21.6128 30.1238 17.0257 11.3932 28.974 14.9121 20.5681 16.1572 27.2484 22.5502 17.8445 24.6951 14.002 9.36971 24.1952 12.1113 16.8493 13.3665 22.1125 18.5435 14.4354 19.8361 11.287 7.54806 19.9599 9.67397 13.5521 10.9196 17.5592 15.0615 11.4476 15.5594 8.88564 5.94029 16.2317 7.48989 10.6505 8.78258 13.6051 11.9904 8.81703 11.8443 6.75787 4.53191 13.0313 5.61456 8.12029 6.93947 10.1183 9.38442 6.56248 8.66349 4.92154 3.29537 10.2599 3.98629 5.92576 5.40929 7.22357 7.24981 4.62212 6.00554 3.37765 2.26146 7.92939 2.69951 4.16458 4.205 4.897 5.49934 3.13108 3.95577 2.16521 1.43083 6.08608 1.68291 2.70522 3.23741 3.16691 4.14455 1.9878 2.52202 1.24943 0.830346 4.5941 1.03128 1.6866 2.47955 2.09016 3.10911 1.3423 1.71123 0.735826 0.485922 3.52537 0.754598 1.13337 1.8505 1.74452 2.33568 1.13127 1.47505 0.742683 0.510072 2.68061 0.701584 0.996006 1.35316 1.48128 1.54396 0.948482 1.22024 0.756086 0.488659 2.00007 0.573507 0.824412 0.788833 1.07714 0.921261 0.66152 0.882617 0.551434 0.38432 1.20007 0.412569 0.638308 0.487944 0.641237 0.310482 0.387837 0.277443 0.248085 0.194244 0.752248 0.105486 0.207155 42.928 93.849 101.173 62.3246 132.738 28.0281 23.0891 64.1492 31.7619 88.8971 85.0088 167.528 138.781 113.138 173.347 132.492 116.535 92.309 171.959 138.949 115.466 169.798 142.071 113.558 87.5962 160.251 128.746 107.471 156.512 134.835 104.531 80.2329 146.63 117.148 98.474 142.473 123.673 95.1021 72.6448 132.753 105.847 89.1182 128.347 111.94 85.8815 65.4459 119.275 95.2246 79.8888 114.645 100.552 76.9845 58.7452 106.602 85.4441 71.0935 101.933 89.8441 68.7446 52.6413 95.0343 76.5455 63.0709 90.4991 80.1032 61.2849 47.1597 84.6221 68.5388 55.9667 80.2977 71.4307 54.5353 42.2221 75.2359 61.3547 49.5826 71.125 63.7104 48.4462 37.7709 66.7892 54.854 43.8936 62.9306 56.813 42.9508 33.7366 59.1149 48.9631 38.7692 55.5792 50.6279 38.0033 30.1287 52.263 43.6533 34.1995 48.9348 45.0833 33.4933 26.8263 45.9156 38.8046 30.0044 42.8683 40.0244 29.3463 23.8193 40.1662 34.3992 26.202 37.3606 35.4596 25.6021 21.1336 34.9555 30.417 22.7678 32.3926 31.3666 22.1912 18.6811 30.2634 26.8337 19.6747 27.937 27.6561 19.1745 16.4375 25.9949 23.5184 16.8941 23.8895 24.3161 16.3807 14.4445 22.2131 20.6184 14.3766 20.3127 21.2871 13.937 12.6797 18.8454 18.0033 12.1755 17.1441 18.6078 11.7919 11.0757 15.9076 15.6333 10.2715 14.4097 16.2128 9.88646 9.67903 13.3394 13.5377 8.5902 11.9918 14.0948 8.22134 8.39111 11.1291 11.6717 7.14546 9.9342 12.1643 6.82134 7.25608 9.24567 9.97467 5.91836 8.21841 10.4785 5.60212 6.20049 7.6665 8.42403 4.92392 6.78526 8.95308 4.6109 5.20755 6.30856 6.95456 4.06845 5.5305 7.52626 3.76743 4.24734 5.09983 5.53674 3.29145 4.37522 6.15807 2.96907 3.31609 3.94666 4.19118 2.5306 3.19701 4.80008 2.22617 2.37733 2.81717 2.77391 1.82248 2.09495 3.44697 1.42781 1.43037 1.5927 1.40245 1.01572 1.05856 2.04239 0.709322 0.636112 0.799811 0.463262 0.524349 0.409141 0.882487 0.258221 27.191 50.0264 73.5832 34.5143 82.6362 20.4032 12.1183 42.7751 17.3735 54.1193 65.0516 106.674 106.457 73.2243 116.287 100.98 75.8405 73.3533 119.152 108.927 80.3844 117.878 113.027 77.7777 69.0152 112.448 100.916 75.5995 109.18 106.01 72.4876 62.6656 102.411 91.5909 68.5766 98.843 95.754 66.0163 56.7094 92.7234 82.9804 61.7608 88.9982 86.0888 59.8141 51.3879 83.8317 75.26 55.465 79.9423 77.4729 54.0812 46.5869 75.6203 68.285 49.7132 71.7393 69.7826 48.795 42.2909 68.1755 62.0275 44.6143 64.3801 63.0262 43.9907 38.5016 61.509 56.5092 40.0218 57.8937 57.0852 39.7094 35.1002 55.5267 51.4757 35.9928 52.169 51.8658 35.8638 32.0582 50.179 46.9794 32.4722 47.0466 47.2666 32.3733 29.3385 45.3354 42.9594 29.288 42.4424 43.1511 29.2167 26.8707 40.9563 39.2318 26.4139 38.3117 39.4513 26.3672 24.5974 36.9965 35.9075 23.8574 34.583 36.0914 23.8179 22.572 33.4245 32.7902 21.5557 31.1997 33.0672 21.435 20.6495 30.158 29.969 19.4596 28.1295 30.2279 19.3306 18.8956 27.2144 27.3346 17.5562 25.3657 27.6421 17.4053 17.2808 24.5071 24.8811 15.8113 22.7727 25.2709 15.6171 15.7695 22.0196 22.6039 14.2029 20.4423 22.995 14.0057 14.358 19.8172 20.4837 12.7667 18.3175 20.9037 12.5537 12.9894 17.7229 18.4321 11.4101 16.3267 18.8838 11.1585 11.6429 15.7611 16.4274 10.1844 14.5076 17.003 9.91004 10.4026 13.9734 14.5581 9.0185 12.7614 15.1543 8.72622 9.17304 12.25 12.6997 7.92243 11.1581 13.3576 7.59068 7.91817 10.6178 10.9165 6.88654 9.55622 11.5915 6.52828 6.77354 9.05854 9.14345 5.82939 8.00574 9.83923 5.46992 5.55182 7.43823 7.37729 4.79193 6.42912 8.09459 4.41201 4.36429 5.83493 5.60251 3.73856 4.85404 6.35419 3.35791 3.18995 4.21645 3.81216 2.70627 3.29541 4.64318 2.25777 1.95369 2.59273 1.99971 1.68262 1.72513 2.86434 1.19355 0.76739 1.1007 0.563592 0.666762 0.564749 1.07442 0.399699 33.0217 40.221 86.1678 31.0205 77.4568 27.6435 10.2436 52.444 17.9961 48.5365 77.1385 100.306 123.805 69.0811 110.74 116.723 71.1412 86.6965 113.036 125.895 76.6677 111.686 130.903 72.4089 81.6459 106.674 116.251 71.7583 102.277 122.925 67.0134 73.9602 96.8028 105.277 64.4785 91.8486 110.602 60.8336 66.8004 87.4994 95.3952 57.7227 82.5704 99.1475 55.1749 60.5867 79.3367 86.6732 51.8982 74.5421 89.3031 50.1669 55.0683 72.1086 78.9193 46.893 67.5581 80.8408 45.6896 50.1676 65.7072 72.0093 42.58 61.4404 73.4738 41.6876 45.833 60.0405 65.8388 38.8084 56.1799 66.9945 38.1761 41.9602 54.9989 60.3107 35.5258 51.4153 61.2979 34.9858 38.4547 50.4513 55.2343 32.5589 47.2014 56.1253 32.1091 35.2721 46.3772 50.7034 29.9626 43.4578 51.5168 29.5744 32.3915 42.7349 46.5417 27.619 40.0354 47.3333 27.2266 29.7676 39.3454 42.7311 25.4322 36.8663 43.4848 25.0939 27.317 36.2471 39.1532 23.4561 33.988 39.9444 23.0948 25.0732 33.3688 35.8571 21.5809 31.2521 36.6379 21.2648 22.9258 30.6705 32.7689 19.869 28.71 33.5653 19.5363 20.9592 28.1463 29.8732 18.2693 26.3385 30.6974 17.8821 19.077 25.7609 27.1019 16.7142 24.0133 27.9416 16.3261 17.2814 23.4622 24.4967 15.2211 21.8429 25.3079 14.8399 15.5769 21.2355 22.0037 13.7881 19.7437 22.7885 13.4135 13.9285 19.1365 19.5677 12.4373 17.6675 20.4286 12.0178 12.3739 17.0775 17.2557 11.0645 15.6422 18.1194 10.6499 10.8011 15.0228 14.9994 9.74466 13.713 15.8435 9.35238 9.30636 12.9926 12.7781 8.44567 11.7391 13.6551 8.02102 7.8438 11.0704 10.5972 7.1739 9.81053 11.5535 6.70107 6.39182 9.03439 8.49336 5.86165 7.89985 9.37155 5.39982 4.98671 7.12453 6.42724 4.61143 5.99788 7.34373 4.10711 3.62047 5.17638 4.40808 3.34599 4.13027 5.29917 2.86288 2.29219 3.26266 2.44077 2.07132 2.17305 3.36821 1.56489 0.936909 1.32528 0.631072 0.76353 0.6076 1.34704 0.43468 58.5125 66.3355 128.761 48.0156 107.459 48.6205 19.8912 88.107 32.1007 68.3678 109.697 135.448 171.869 91.8873 146.015 163.069 94.8829 120.032 150.421 173.187 101.398 147.676 179.182 96.2659 113.288 142.299 160.276 95.5465 136.044 169.202 89.0729 103.121 129.478 145.618 86.3492 122.668 153.486 80.8455 93.5112 117.208 132.176 77.6349 110.587 138.465 73.3082 84.8601 106.318 120.056 70.0362 100.019 125.201 66.5825 77.0997 96.6059 109.157 63.4097 90.7851 113.46 60.5925 70.099 87.9552 99.3158 57.6306 82.5792 103.025 55.2243 63.7478 80.208 90.2929 52.5018 75.2978 93.6223 50.3875 57.9485 73.1794 82.1368 47.8955 68.7458 85.1082 46.0396 52.7219 66.8821 74.6742 43.7328 62.7633 77.4345 42.0644 47.8877 61.0747 67.8584 39.9536 57.3697 70.3288 38.4653 43.5119 55.8177 61.587 36.5146 52.388 63.9686 35.1597 39.4504 51.0166 55.867 33.3499 47.871 57.9904 32.1477 35.7114 46.5107 50.5456 30.4588 43.6515 52.5807 29.3234 32.3296 42.4206 45.6284 27.7509 39.7547 47.5219 26.6914 29.1021 38.5415 41.108 25.221 36.1035 42.8215 24.2763 26.1776 34.9737 36.8437 22.8841 32.6927 38.5494 22.0213 23.4155 31.6259 32.9498 20.6614 29.4531 34.4579 19.8663 20.8711 28.4463 29.2633 18.5771 26.4384 30.7209 17.8578 18.4535 25.4443 25.8053 16.6241 23.5882 27.1956 15.9326 16.2339 22.581 22.5917 14.7577 20.8007 23.8957 14.0777 14.1378 19.8835 19.5523 12.9572 18.2033 20.8156 12.3298 12.1257 17.2303 16.6854 11.2324 15.6692 17.8864 10.6542 10.2689 14.7744 13.991 9.59742 13.2979 15.1332 9.06037 8.49032 12.3406 11.4045 8.02712 10.9369 12.5158 7.47424 6.79946 9.99381 8.98762 6.47649 8.6828 10.0229 5.96955 5.21036 7.77342 6.64593 5.01849 6.51257 7.69203 4.49031 3.68241 5.59729 4.45941 3.6056 4.4621 5.44898 3.07844 2.27589 3.51815 2.53694 2.25653 2.46863 3.34586 1.71031 1.02149 1.46465 0.732824 0.934185 0.701583 1.5278 0.481174 98.7159 114.98 190.318 79.4559 158.538 83.0479 37.1053 146.361 57.8187 103.062 153.577 193.635 234.049 129.829 201.853 226.921 132.764 160.746 207.707 231.481 139.097 202.436 239.197 133.048 151.058 195.857 214.515 131.069 187.497 225.326 123.312 138.247 178.812 195.871 119.298 170.196 205.956 112.252 125.97 162.503 178.441 107.991 154.207 187.141 102.044 114.705 147.715 162.414 97.8457 139.841 169.987 92.7751 104.357 134.266 147.609 88.7633 126.913 154.366 84.2985 94.7588 122 133.985 80.5479 115.179 140.066 76.6171 85.9632 110.805 121.413 73.1129 104.47 127.013 69.5094 77.7886 100.497 109.806 66.2698 94.7191 114.914 63.061 70.2965 91.1104 99.1768 60.1058 85.8051 103.901 57.1486 63.4371 82.4765 89.4227 54.3576 77.5785 93.7256 51.7132 57.1057 74.584 80.4111 49.1625 70.103 84.4091 46.7543 51.2799 67.3004 72.0954 44.3461 63.1982 75.8418 42.1585 45.9121 60.5985 64.4478 39.942 56.8373 67.9143 37.8991 40.9481 54.4331 57.4782 35.8494 50.9621 60.5757 34.0562 36.4024 48.7121 50.961 32.0727 45.5097 53.8905 30.4348 32.2296 43.4806 45.0285 28.6177 40.5318 47.6861 27.107 28.3754 38.5581 39.5397 25.3499 35.8199 42.0052 24.0396 24.8194 34.0639 34.4666 22.3743 31.5219 36.717 21.1796 21.5307 29.865 29.7726 19.6097 27.549 31.8939 18.5176 18.5317 26.0131 25.5198 17.0439 23.8477 27.4248 16.0731 15.7388 22.3874 21.5779 14.6648 20.3732 23.3184 13.7608 13.2056 19.004 17.944 12.4451 17.2215 19.5443 11.6398 10.8926 15.9474 14.6664 10.428 14.2462 16.1681 9.671 8.76398 13.0343 11.6787 8.49359 11.4803 13.0029 7.8388 6.86747 10.3406 8.93835 6.69442 8.88345 10.1529 6.10592 5.07131 7.80087 6.38543 5.06862 6.50139 7.54041 4.4621 3.47224 5.45474 4.15651 3.52619 4.3102 5.14198 2.99651 2.02996 3.30982 2.33949 2.12116 2.43648 3.03169 1.6718 1.04657 1.58903 0.775882 1.04654 0.801509 1.54693 0.539478 166.339 193.523 270.441 131.132 226.826 144.534 67.0911 245.897 103.671 149.225 202.371 265.06 300.562 176.615 267.381 298.74 177.213 202.425 271.112 291.566 180.534 262.459 300.878 173.5 189.831 253.833 271.322 169.353 243.63 283.032 160.841 175.204 233.031 249.654 155.348 222.88 261.085 147.301 160.81 213.055 228.581 141.736 203.093 239.31 134.492 146.995 194.39 208.569 129.039 184.761 218.406 122.54 133.933 176.967 189.662 117.3 167.832 198.768 111.424 121.625 160.722 172.005 106.439 152.162 180.404 101.094 110.13 145.675 155.524 96.4277 137.722 163.338 91.5439 99.4416 131.699 140.242 87.1435 124.307 147.48 82.6524 89.5766 118.778 126.155 78.6005 112.007 132.832 74.4999 80.4387 106.921 113.114 70.7227 100.731 119.294 67.0024 72.0508 96.025 101.164 63.5285 90.2751 106.893 60.0524 64.2935 85.896 90.0985 56.8254 80.6507 95.3944 53.664 57.1425 76.6125 79.9175 50.6801 71.7982 84.8186 47.8102 50.5719 68.0911 70.6134 45.0039 63.6698 75.0721 42.4235 44.5612 60.244 62.0159 39.8261 56.1595 66.1528 37.441 38.9955 53.0235 54.1267 35.0033 49.2713 57.8805 32.8864 33.8984 46.3873 46.8606 30.631 42.9547 50.381 28.6963 29.2443 40.2845 40.2503 26.5573 37.1185 43.4035 24.8223 24.96 34.6531 34.1287 22.8576 31.7961 37.0798 21.2692 21.0301 29.5381 28.6281 19.4313 26.8915 31.266 18.0731 17.4837 24.8315 23.5938 16.3306 22.4604 25.9858 15.0934 14.2931 20.6079 19.119 13.5268 18.4315 21.2294 12.4309 11.4118 16.744 15.066 10.9743 14.8343 16.9651 10.0152 8.86043 13.2885 11.5475 8.6827 11.5666 13.204 7.86702 6.64066 10.2134 8.45587 6.63844 8.70453 9.8556 5.93361 4.67257 7.40808 5.77154 4.8451 6.09208 7.03706 4.16772 3.05292 4.96105 3.60683 3.19963 3.89901 4.5323 2.66932 1.70024 2.82645 1.92397 1.82505 2.10601 2.56422 1.46229 0.872067 1.53869 0.684807 0.985831 0.796438 1.25031 0.52198 131.337 334.731 177.766 224.69 319.58 64.6937 125.028 192.025 192.557 212.939 123.087 341.358 172.824 222.864 332.2 178.619 221.62 117.355 331.332 166.896 219.204 320.865 172.289 213.09 110.682 311.454 156.809 207.176 300.583 162.915 199.087 103.28 289.244 145.537 192.525 277.689 152.034 183.981 95.4408 266.438 133.956 177.154 254.673 140.352 168.914 87.6005 243.983 122.593 161.997 232.4 128.649 154.309 79.9663 222.486 111.701 147.537 211.303 117.332 140.424 72.6765 202.022 101.322 133.895 191.483 106.566 127.289 65.7785 182.828 91.6355 121.136 173.016 96.4404 115.047 59.3716 164.994 82.643 109.27 155.844 87.0341 103.69 53.4257 148.445 74.2266 98.2859 140.039 78.2895 93.1341 47.8792 133.095 66.497 88.1187 125.361 70.1972 83.4082 42.8097 119.014 59.3823 78.762 111.884 62.7462 74.4692 38.1189 106.014 52.8179 70.1689 99.4891 55.8761 66.2014 33.8199 94.0592 46.8017 62.2354 88.0623 49.5663 58.6173 29.8412 83.0073 41.1922 54.9234 77.5352 43.7603 51.6221 26.18 72.929 36.1011 48.2284 67.8747 38.399 45.2079 22.8335 63.596 31.4198 42.022 58.9582 33.4808 39.3094 19.7446 55.0623 27.1134 36.3912 50.8357 28.9637 33.9063 16.9368 47.2537 23.1841 31.1643 43.3682 24.8284 28.9754 14.343 40.0979 19.5512 26.45 36.573 21.0565 24.43 11.9963 33.539 16.2724 22.0864 30.3662 17.5847 20.3099 9.85194 27.6414 13.3374 18.1798 24.7527 14.465 16.6134 7.9352 22.3021 10.6468 14.6338 19.7332 11.6378 13.266 6.21087 17.5374 8.28259 11.468 15.2869 9.11447 10.3053 4.72707 13.3939 6.23628 8.74523 11.4559 6.92016 7.74185 3.40344 9.7616 4.47407 6.34405 8.13424 5.00312 5.55293 2.31858 6.68968 2.93674 4.35881 5.39974 3.43148 3.64693 1.41969 4.18356 1.78957 2.6938 3.27762 2.0941 2.23472 0.773593 2.30126 0.945626 1.5249 1.76909 1.19005 1.18307 0.41869 1.18124 0.369203 0.746857 0.549018 0.618467 0.37114 79.1206 231.599 196.251 159.849 285.206 163.992 80.2169 107.201 49.3327 45.2483 124.391 68.1484 140.847 193.391 142.401 251.417 214.323 167.558 249.197 129.497 86.8453 216.057 126.954 167.938 142.2 248.785 206.024 163.929 241.043 128.903 86.7028 214.695 123.669 163.108 131.865 236.441 191.847 156.085 227.456 124.439 83.5445 199.827 116.263 154.109 120.751 217.887 175.307 144.197 208.281 115.304 77.1743 183.429 105.819 141.05 109.139 196.33 157.647 130.125 186.777 103.905 69.3946 165.939 94.4307 126.371 97.517 174.576 140.236 115.769 165.548 92.2347 61.5265 148.291 83.4927 111.962 86.4864 154.254 124.076 102.27 146.03 81.3771 54.2482 131.42 73.5695 98.7678 76.4239 136.017 109.569 90.1426 128.671 71.6667 47.7715 116.065 64.7797 87.0431 67.4827 119.897 96.7102 79.4018 113.307 63.1119 42.0631 102.41 57.0755 76.7194 59.5444 105.705 85.3201 69.9257 99.8002 55.5521 37.0818 90.3046 50.2512 67.6194 52.4766 93.0726 75.1741 61.5444 87.7443 48.9131 32.6271 79.5535 44.1677 59.4855 46.1911 81.7562 66.0556 54.0234 76.9541 42.9241 28.6439 69.9346 38.673 52.1702 40.466 71.5299 57.7882 47.2463 67.1455 37.5185 25.045 61.3132 33.7041 45.5648 35.3109 62.2457 50.3271 41.0879 58.2679 32.6193 21.761 53.4412 29.188 39.5387 30.671 53.8077 43.5278 35.491 50.155 28.1448 18.7748 46.3822 25.0452 34.0327 26.3856 46.1072 37.3641 30.4088 42.8142 24.077 16.057 39.9058 21.3149 29.0834 22.5409 39.1308 31.7939 25.7705 36.1057 20.3757 13.5852 34.0904 17.8989 24.5285 19.0555 32.7522 26.7188 21.5615 30.0372 17.0071 11.3371 28.7846 14.8275 20.393 15.9064 27.0154 22.2218 17.7914 24.6376 14.0031 9.32252 24.021 12.0498 16.7195 13.124 21.9187 18.2057 14.3929 19.7337 11.2684 7.50732 19.8127 9.59003 13.4218 10.6713 17.3508 14.6927 11.3743 15.4664 8.86221 5.89436 16.0539 7.43213 10.5067 8.54971 13.3739 11.6868 8.77474 11.7665 6.76508 4.48541 12.8401 5.5172 7.95954 6.74592 9.9106 9.1605 6.45432 8.53242 4.87016 3.22911 10.0829 3.93829 5.81825 5.24837 7.0716 6.96709 4.59222 5.97135 3.38979 2.24368 7.78495 2.62354 4.00818 3.99414 4.71714 5.27315 3.06066 3.89932 2.141 1.39357 5.90709 1.64214 2.62521 3.04287 2.99922 3.92744 1.9528 2.4608 1.22432 0.803497 4.51156 1.00522 1.62719 2.38124 1.98235 2.96801 1.3206 1.66257 0.787241 0.463229 3.44788 0.711541 1.07813 1.79652 1.67503 2.23297 1.08064 1.40313 0.742224 0.470133 2.66529 0.671245 0.935108 1.27749 1.45811 1.50758 0.923857 1.23306 0.746609 0.508715 1.89758 0.587219 0.847972 0.767874 1.0293 0.847031 0.652532 0.836691 0.546344 0.360738 1.16578 0.379121 0.566372 0.458309 0.54582 0.289795 0.341118 0.24005 0.252395 0.171294 0.686148 0.0761279 0.159327 38.4643 87.0398 99.2229 60.404 131.643 25.1538 19.8686 60.0583 30.0151 87.5929 86.8308 169.596 141.664 113.741 174.341 133.68 118.031 94.0724 174.846 142.252 116.418 171.232 143.507 115.884 89.8722 163.828 132.254 108.515 158.305 136.534 107.149 82.5376 150.558 120.466 99.6463 144.455 125.534 97.8303 74.6396 136.417 108.491 90.329 130.226 113.673 88.2206 66.8275 122.155 96.9773 80.9081 116.2 101.84 78.7657 59.5168 108.547 86.3448 71.8499 103.016 90.6776 69.914 52.8876 96.098 76.7478 63.5443 91.1132 80.5198 61.8867 47.0269 85.0508 68.2827 56.1751 80.5533 71.4659 54.749 41.8419 75.2205 60.7656 49.6455 71.213 63.5068 48.4032 37.246 66.4716 54.0625 43.8537 62.8548 56.4899 42.7324 33.1538 58.7016 48.131 38.6805 55.4293 50.1765 37.686 29.5033 51.6671 42.7968 34.035 48.6743 44.6396 33.119 26.2049 45.3146 37.9443 29.8023 42.6009 39.5956 28.9864 23.1982 39.5862 33.5222 26.0522 37.1229 35.0543 25.2249 20.5068 34.3509 29.6028 22.5866 32.1202 30.9486 21.8398 18.1047 29.6587 26.0444 19.483 27.6822 27.2426 18.7962 15.9251 25.4477 22.8142 16.7388 23.6544 23.9221 16.03 13.9565 21.6401 19.9256 14.2098 20.0702 20.9089 13.5923 12.2214 18.3022 17.3465 12.0159 16.8614 18.2631 11.3972 10.6459 15.3545 15.0585 10.0702 14.1361 15.8679 9.53538 9.27896 12.8404 13.0203 8.42213 11.7764 13.8103 7.93232 8.03072 10.6776 11.1733 7.00763 9.76039 11.9368 6.54792 6.90989 8.83455 9.53205 5.81006 8.06258 10.2362 5.38111 5.93519 7.31042 8.09811 4.81696 6.57875 8.76974 4.39689 4.988 6.00832 6.66676 3.9596 5.36338 7.33774 3.56571 4.07347 4.88954 5.32148 3.23148 4.24453 6.02235 2.83165 3.1829 3.76829 3.99778 2.47509 3.15183 4.68666 2.09682 2.26152 2.68323 2.65593 1.75636 2.04108 3.33455 1.37423 1.32685 1.5196 1.29849 0.992694 1.02813 1.95928 0.663659 0.560141 0.731036 0.390329 0.508194 0.421079 0.853997 0.257238 26.4329 46.8865 74.6321 33.6943 82.392 19.9815 10.6088 41.5737 16.6278 53.9957 67.6382 110.141 110.509 74.341 118.086 102.907 78.4114 76.3013 122.93 112.722 81.6712 119.53 115.323 80.1194 71.3857 116.107 103.78 76.8137 110.819 107.96 74.645 64.1183 105.264 93.2645 69.5806 100.236 97.0821 67.6705 57.2967 94.5861 83.5723 62.4651 90.0012 86.7678 60.8577 51.2709 84.6602 74.9438 55.86 80.4681 77.5737 54.4894 45.9704 75.6166 67.3183 49.8414 71.8558 69.5059 48.7037 41.3573 67.5673 60.6908 44.4807 64.2079 62.4219 43.5471 37.3414 60.445 54.884 39.7743 57.5028 56.3183 39.0125 33.8991 54.2416 49.8148 35.6538 51.6072 51.0493 35.0144 30.8733 48.7934 45.3543 32.0636 46.4105 46.4142 31.4691 28.1759 43.9287 41.3719 28.8203 41.7791 42.3013 28.3453 25.7833 39.6015 37.7596 25.9957 37.7113 38.6525 25.5122 23.6251 35.7245 34.5158 23.4859 33.9806 35.3636 22.9717 21.6325 32.2053 31.5496 21.1681 30.609 32.3591 20.6648 19.8486 29.0352 28.7863 19.0891 27.597 29.6158 18.5904 18.1337 26.1677 26.2851 17.2148 24.8538 27.0566 16.723 16.6093 23.5628 23.9089 15.5002 22.3358 24.7296 14.9972 15.1306 21.145 21.718 13.9288 20.0376 22.5266 13.4426 13.7519 18.9705 19.6556 12.5041 17.9205 20.472 12.019 12.4324 16.9671 17.6835 11.1998 15.9957 18.516 10.6904 11.2383 15.1316 15.8497 9.99746 14.2224 16.6355 9.49183 10.0307 13.4073 14.0313 8.86167 12.4919 14.8637 8.3521 8.82553 11.7721 12.2551 7.75958 10.9231 13.0877 7.29065 7.65947 10.2174 10.5373 6.75887 9.43143 11.3731 6.29439 6.50331 8.68472 8.76054 5.76083 7.83132 9.72984 5.23028 5.34448 7.12779 7.06954 4.70347 6.30995 7.93081 4.22118 4.18423 5.58049 5.36588 3.68666 4.74631 6.24337 3.20482 3.06041 4.0572 3.63694 2.64793 3.22067 4.54411 2.17379 1.89278 2.49506 1.89625 1.61313 1.5968 2.80291 1.11649 0.698112 0.995411 0.494466 0.625242 0.517016 1.02911 0.336208 34.9064 42.976 88.8549 31.9449 79.0217 28.6764 11.181 53.8937 18.5395 50.5518 79.1913 104.101 127.192 70.3989 112.821 118.397 73.8657 89.2844 117.227 129.335 78.0627 113.651 132.957 74.9116 83.548 109.739 118.332 72.7849 103.573 124.528 68.5596 74.6763 98.1527 105.773 64.9712 92.4028 111.323 61.3351 66.5059 87.425 94.6301 57.7712 82.5145 99.0669 54.8858 59.6102 78.2717 85.1554 51.6231 74.002 88.7065 49.3027 53.7874 70.425 77.0237 46.4163 66.7773 79.913 44.4906 48.7878 63.716 69.9711 41.9699 60.5143 72.4403 40.3463 44.4004 57.9583 63.8084 38.1691 55.1295 65.9345 36.781 40.6185 52.9507 58.353 34.8574 50.4415 60.2473 33.6344 37.178 48.513 53.4278 31.9709 46.2757 55.1833 30.8437 34.1306 44.5932 49.0523 29.4055 42.5486 50.642 28.3707 31.3598 41.0634 45.033 27.0641 39.2123 46.5186 26.1336 28.8176 37.8479 41.3435 24.9604 36.1363 42.7601 24.0844 26.467 34.8639 37.9311 23.0191 33.2773 39.2971 22.1977 24.2758 32.133 34.7018 21.2274 30.6442 36.0662 20.3961 22.2289 29.5121 31.7508 19.4839 28.128 32.9725 18.7448 20.3284 27.138 28.9657 17.9339 25.7961 30.1736 17.1957 18.516 24.8249 26.2556 16.3932 23.5522 27.4617 15.7035 16.7518 22.6135 23.7533 14.9431 21.4172 24.8748 14.3006 15.1046 20.4945 21.3056 13.5585 19.3554 22.4499 12.9195 13.5308 18.5104 18.9903 12.2178 17.4068 20.1055 11.6 11.9926 16.4946 16.7193 10.9289 15.4144 17.8502 10.287 10.5071 14.5307 14.5442 9.58652 13.4592 15.5846 9.01834 9.03182 12.5941 12.3617 8.31571 11.5451 13.4267 7.72321 7.62565 10.6692 10.2924 7.07281 9.63413 11.3326 6.44522 6.19797 8.73579 8.19161 5.75343 7.74089 9.21905 5.21039 4.82571 6.86082 6.20834 4.501 5.85362 7.18547 3.9747 3.50479 5.03113 4.22934 3.29773 4.0209 5.25038 2.72993 2.19834 3.09726 2.31145 2.02311 2.08336 3.25746 1.44496 0.860755 1.14728 0.55885 0.720169 0.563595 1.27575 0.368913 58.3498 67.5815 129.095 48.5739 108.631 48.3611 20.0554 88.2244 32.3423 69.6009 110.078 137.19 173.168 92.5256 147.171 163.54 96.3741 121.38 153.149 175.403 102.28 149.158 180.185 98.104 114.606 144.487 161.845 96.2912 137.01 170.346 90.2083 103.673 130.199 145.895 86.6416 122.929 154.017 80.979 93.203 116.664 131.405 77.521 110.229 138.36 72.6755 84.0702 104.907 118.684 69.6321 99.2769 124.637 65.5026 76.053 94.833 107.513 62.883 89.8555 112.668 59.3219 68.9977 86.0729 97.6155 57.0448 81.6327 102.153 53.9148 62.6666 78.3286 88.6855 51.8896 74.3085 92.779 49.1131 56.9544 71.4313 80.6277 47.3361 67.8473 84.3134 44.8405 51.773 65.1991 73.291 43.2215 61.9052 76.7181 40.9523 47.0495 59.5983 66.5646 39.4731 56.5825 69.6985 37.4489 42.7365 54.4544 60.4799 36.0676 51.7028 63.2855 34.2361 38.7396 49.7304 54.7857 32.9753 47.2372 57.4795 31.2848 35.1069 45.4222 49.6121 30.1027 43.1027 52.0436 28.5731 31.707 41.382 44.7655 27.434 39.2067 47.0795 26.022 28.5867 37.6436 40.2992 24.9121 35.6007 42.4389 23.6786 25.6882 34.1779 36.1544 22.6222 32.2628 38.1631 21.4583 22.955 30.8372 32.2522 20.4235 29.0413 34.1415 19.3311 20.4444 27.7207 28.6491 18.33 26.0717 30.3823 17.3712 18.0735 24.7948 25.2719 16.4204 23.2438 26.8718 15.4909 15.8917 22.0221 22.0862 14.5665 20.5507 23.6624 13.7136 13.8246 19.3831 19.1441 12.8187 17.9572 20.574 12.0158 11.8677 16.8263 16.2859 11.1099 15.4833 17.6738 10.3638 9.98833 14.3353 13.6347 9.47638 13.0445 14.9274 8.77984 8.29169 12.0334 11.138 7.90512 10.7822 12.3779 7.27793 6.64624 9.70988 8.72359 6.39155 8.53774 9.91344 5.75504 5.03993 7.48777 6.42599 4.90843 6.38651 7.53473 4.32898 3.55589 5.37576 4.31967 3.54791 4.38043 5.33774 2.95183 2.20108 3.39851 2.45536 2.20687 2.42753 3.32261 1.66644 1.00989 1.40774 0.696049 0.924498 0.683875 1.53511 0.450589 97.2002 113.566 188.081 79.1044 158.21 82.0673 36.59 145.381 57.5906 102.235 152.237 192.71 233.177 129.624 201.803 226.054 132.707 160.88 208.698 232.488 139.404 203.24 239.22 134.092 151.916 197.417 215.766 131.645 188.319 226.099 124.25 138.835 179.606 196.373 119.631 170.533 206.514 112.524 125.979 162.26 178.096 107.975 154.001 187.218 101.651 114.258 146.793 161.545 97.5971 139.298 169.682 92.0083 103.66 133.027 146.535 88.3643 126.223 153.853 83.4095 94.0227 120.655 132.801 80.1289 114.431 139.539 75.6383 85.1762 109.451 120.289 72.6761 103.787 126.374 68.6106 77.1058 99.2589 108.74 65.8847 94.0592 114.411 62.1983 69.6719 89.9698 98.2524 59.7163 85.2173 103.363 56.3809 62.8496 81.4352 88.5183 54.0596 77.0605 93.2943 50.9809 56.5774 73.6296 79.62 48.8412 69.6312 83.9848 46.1192 50.823 66.4474 71.4382 44.0959 62.7668 75.4613 41.5842 45.5001 59.8527 63.903 39.6731 56.4214 67.5603 37.4321 40.6083 53.7043 56.8791 35.6237 50.563 60.3469 33.5385 36.0748 48.0647 50.458 31.87 45.1615 53.6379 29.9946 31.9152 42.8669 44.5517 28.4057 40.174 47.4755 26.7298 28.0982 38.032 39.0782 25.1921 35.5474 41.7926 23.6568 24.5167 33.5581 34.0308 22.2264 31.2731 36.5337 20.8238 21.27 29.3904 29.4133 19.4469 27.2807 31.6733 18.2152 18.3095 25.5718 25.1593 16.9188 23.6254 27.2577 15.7717 15.5403 22.0423 21.2457 14.5493 20.2387 23.1773 13.5494 13.0032 18.7158 17.6724 12.367 17.0461 19.415 11.4422 10.7329 15.6301 14.4348 10.3115 14.0727 16.009 9.45904 8.62605 12.7489 11.4356 8.42407 11.3834 12.8701 7.64951 6.70608 10.1246 8.72942 6.67128 8.82887 10.0389 5.93883 4.97374 7.59955 6.29147 4.98293 6.3879 7.43088 4.34854 3.38749 5.29925 4.0509 3.45266 4.23809 5.07396 2.88431 1.97455 3.20252 2.29217 2.107 2.4 2.96336 1.63864 1.02295 1.58637 0.73885 1.04205 0.805277 1.55979 0.525366 165.128 191.233 266.731 130.343 225.382 143.859 66.662 245.023 103.339 146.722 199.243 261.59 297.661 175.663 266.313 296.463 175.806 201.447 270.568 291.393 180.378 262.679 300.013 173.821 190.269 254.866 272.151 169.758 244.253 283.451 161.589 175.678 233.872 250.139 155.679 223.279 261.608 147.695 160.926 213.183 228.506 141.829 203.097 239.485 134.377 146.74 193.892 208.011 128.91 184.465 218.249 122.101 133.466 176.145 188.919 117.061 167.366 198.436 110.818 121.099 159.81 171.145 106.186 151.676 180.028 100.448 109.608 144.746 154.739 96.1186 137.179 162.901 90.8944 98.9762 130.833 139.496 86.8827 123.902 147.085 82.0534 89.1157 118.006 125.482 78.3616 111.595 132.493 73.972 80.0439 106.212 112.536 70.5083 100.353 118.994 66.521 71.7124 95.408 100.649 63.3134 89.9559 106.615 59.65 63.9835 85.3976 89.6753 56.6503 80.4088 95.1314 53.339 56.8979 76.1682 79.5544 50.5138 71.5592 84.6391 47.51 50.3452 67.6759 70.2285 44.925 63.4643 74.9354 42.1178 44.3297 59.8564 61.7314 39.6872 55.9512 65.9647 37.1873 38.8327 52.6545 53.8181 34.8988 49.0837 57.791 32.6253 33.7443 46.0624 46.6259 30.5117 42.7739 50.2189 28.4689 29.0806 39.9432 39.9748 26.4545 36.9493 43.2974 24.6062 24.8034 34.4016 33.9635 22.755 31.6252 36.9212 21.1004 20.9391 29.2837 28.4089 19.3545 26.7859 31.1715 17.8628 17.359 24.5901 23.4176 16.2568 22.3257 25.8965 14.9432 14.17 20.3682 18.9553 13.4349 18.3008 21.1369 12.2783 11.3315 16.5662 14.958 10.9002 14.722 16.8826 9.91911 8.79923 13.1387 11.4295 8.63538 11.5053 13.1389 7.74859 6.55404 10.0276 8.3307 6.58827 8.60164 9.83495 5.82834 4.66209 7.34026 5.76516 4.80651 6.09441 6.95267 4.13725 3.01474 4.89917 3.58032 3.21102 3.84277 4.54274 2.6418 1.71497 2.82765 1.89232 1.80446 2.11217 2.55193 1.42323 0.824248 1.44728 0.643846 0.990306 0.764823 1.26428 0.491724 132.222 334.109 176.021 224.214 317.765 65.2257 125.404 192.598 192.514 209.772 120.405 335.41 169.995 221.208 330.009 176.32 218.948 116.07 329.115 165.803 218.451 320.34 171.245 212.498 110.401 311.499 156.819 207.281 300.898 162.799 199.424 103.363 289.668 145.663 192.743 277.993 152.2 184.235 95.4728 266.549 133.893 177.262 254.741 140.456 168.864 87.4707 243.656 122.328 161.94 232.181 128.595 153.992 79.7353 221.833 111.283 147.35 210.948 117.144 139.94 72.4086 201.33 100.909 133.667 191.122 106.327 126.786 65.5123 182.117 91.2293 120.902 172.632 96.2021 114.562 59.1298 164.326 82.2377 109.061 155.568 86.7897 103.231 53.1893 147.841 73.9126 98.0974 139.718 78.0907 92.7525 47.7094 132.599 66.2137 87.9582 125.109 70.0308 83.0731 42.6486 118.573 59.1222 78.634 111.703 62.6099 74.1684 37.9718 105.62 52.6027 70.0354 99.2837 55.7647 65.963 33.6939 93.7354 46.6108 62.1448 87.8973 49.4616 58.3999 29.7577 82.767 41.0813 54.8297 77.3941 43.6572 51.4502 26.101 72.6524 35.965 48.1121 67.7116 38.3353 45.0475 22.7584 63.4023 31.299 41.9928 58.8828 33.4197 39.1601 19.6939 54.9023 27.0222 36.3148 50.7326 28.9069 33.782 16.8708 47.0561 23.0704 31.1149 43.2892 24.7645 28.8299 14.3042 39.9349 19.4981 26.3604 36.4473 21.0123 24.3433 11.9577 33.451 16.2193 22.0567 30.288 17.5546 20.2256 9.83064 27.5135 13.2758 18.1275 24.6994 14.4112 16.5196 7.90988 22.1912 10.6012 14.5897 19.6836 11.6107 13.2112 6.18284 17.4816 8.22633 11.4742 15.2348 9.10983 10.2471 4.6997 13.3275 6.21527 8.69553 11.4295 6.87908 7.72125 3.39816 9.71143 4.41835 6.36425 8.11131 5.01245 5.48181 2.31101 6.69943 2.98417 4.32986 5.41313 3.40638 3.71136 1.44364 4.2046 1.78769 2.72693 3.2927 2.1466 2.22146 0.813086 2.34507 0.98503 1.53501 1.75804 1.21453 1.17948 0.423193 1.14396 0.355449 0.740355 0.551269 0.608508 0.351678 77.9964 231.521 196.084 158.437 283.262 161.689 79.5972 107.423 48.6905 44.4663 124.346 69.41 141.247 194.523 142.293 251.111 214.037 167.132 248.315 129.826 86.6677 214.522 126.637 167.561 142.168 248.287 205.694 163.584 239.901 129.011 86.4012 213.337 123.112 162.572 131.804 236.022 191.582 155.232 225.847 123.817 83.2347 198.314 115.76 153.801 120.814 217.819 175.405 143.056 206.62 114.288 76.9775 181.828 105.476 141.081 109.325 196.539 157.981 129.006 185.302 102.832 69.2809 164.535 94.2244 126.601 97.7688 174.9 140.701 114.807 164.423 91.3136 61.4713 147.15 83.383 112.281 86.7162 154.581 124.496 101.567 145.23 80.6573 54.231 130.683 73.5135 99.0493 76.6224 136.263 109.918 89.6294 128.139 71.1701 47.7699 115.593 64.7862 87.284 67.6096 120.123 96.9523 79.0953 113.048 62.7804 42.1121 102.149 57.0938 76.8979 59.6098 105.765 85.4689 69.7457 99.6208 55.3677 37.066 90.197 50.2403 67.6887 52.543 93.1502 75.2932 61.4338 87.6768 48.7683 32.6386 79.5825 44.1853 59.5518 46.1875 81.7729 66.1007 53.9803 76.9301 42.869 28.6513 70.0223 38.6802 52.2158 40.5037 71.5558 57.8602 47.2397 67.2092 37.5093 25.0469 61.3966 33.7409 45.5791 35.3086 62.2832 50.3745 41.1371 58.3532 32.6446 21.7938 53.6032 29.1931 39.5718 30.6665 53.7984 43.5655 35.5446 50.2536 28.1773 18.782 46.5423 25.0856 34.0716 26.388 46.1277 37.3987 30.4509 42.8885 24.1015 16.0625 40.0863 21.325 29.0926 22.5564 39.1229 31.8222 25.8334 36.1884 20.4087 13.5948 34.249 17.9296 24.5401 19.0515 32.7677 26.7535 21.6297 30.1599 17.0694 11.3555 28.9432 14.8291 20.4216 15.938 27.0348 22.2806 17.837 24.7091 14.0236 9.31914 24.2154 12.083 16.7576 13.1692 21.9362 18.2601 14.4577 19.8544 11.3064 7.51602 20.0046 9.59706 13.4301 10.6795 17.3345 14.7284 11.424 15.5369 8.87638 5.88125 16.2346 7.43283 10.5161 8.54848 13.3699 11.7265 8.80949 11.8256 6.78294 4.47909 12.9812 5.55256 8.00564 6.75642 9.90696 9.15341 6.54785 8.65812 4.95881 3.24387 10.2303 3.94633 5.80368 5.21975 7.0601 6.97906 4.6573 6.052 3.42992 2.24354 7.95053 2.63418 4.02651 4.00344 4.7332 5.27073 3.12247 4.04283 2.20889 1.41567 6.05615 1.65687 2.64976 3.07407 2.99737 3.94373 2.02938 2.51634 1.29684 0.784376 4.62534 0.972904 1.59759 2.33513 1.9914 2.94467 1.34262 1.75744 0.808934 0.499255 3.48554 0.751308 1.10798 1.77431 1.65732 2.22318 1.11324 1.53594 0.765739 0.504263 2.66462 0.733895 0.986901 1.26247 1.47017 1.50206 1.01533 1.25078 0.777671 0.502746 2.0062 0.576327 0.819302 0.747135 1.0219 0.833549 0.638196 0.873491 0.544722 0.375182 1.14629 0.388865 0.595027 0.421132 0.552485 0.249094 0.389164 0.270612 0.254019 0.181067 0.709587 0.0884722 0.157228 37.2705 85.6153 98.0083 61.101 130.736 24.5299 19.4477 60.3576 32.1823 86.9893 86.7721 169.536 141.561 112.732 172.779 132.095 118.007 93.9838 174.913 142.306 115.403 169.673 141.777 115.982 89.8159 163.776 132.423 107.387 156.674 134.919 107.237 82.6896 150.626 120.821 98.5223 143.065 124.258 98.0336 74.8952 136.669 108.993 89.4061 129.156 112.831 88.5158 67.1028 122.465 97.4909 80.2263 115.483 101.388 79.0823 59.7571 108.822 86.769 71.4186 102.665 90.5266 70.1412 53.0725 96.3062 77.0993 63.3558 91.0153 80.5976 62.064 47.1326 85.1527 68.4726 56.1201 80.6094 71.7469 54.8477 41.8985 75.2799 60.9336 49.7064 71.3373 63.879 48.4537 37.2974 66.515 54.1935 43.9516 63.0817 56.8787 42.7808 33.151 58.6833 48.1717 38.8334 55.6813 50.65 37.676 29.521 51.6552 42.8286 34.1834 48.9656 45.0679 33.1177 26.1822 45.2587 37.9508 30.0124 42.8765 40.0142 28.9472 23.209 39.5671 33.553 26.2261 37.4378 35.46 25.2327 20.5182 34.3369 29.6054 22.7885 32.4052 31.3321 21.7994 18.0742 29.6324 26.0563 19.6658 27.9593 27.5705 18.7895 15.906 25.4298 22.8289 16.9025 23.9002 24.2898 16.0234 13.9414 21.6407 19.907 14.4011 20.3427 21.251 13.5766 12.1879 18.2985 17.2931 12.1948 17.1641 18.565 11.4056 10.6045 15.3419 15.0467 10.2631 14.3964 16.1427 9.53256 9.27215 12.8424 13.0221 8.58551 11.9635 14.0589 7.9116 8.03143 10.6662 11.1656 7.14542 9.96516 12.136 6.56104 6.89377 8.83356 9.51428 5.9631 8.22519 10.4701 5.35116 5.92749 7.29694 8.04357 4.9223 6.71827 8.92084 4.3645 4.95784 5.99862 6.63444 4.04328 5.49517 7.49526 3.56474 4.06101 4.85441 5.32074 3.27107 4.30761 6.11335 2.80748 3.17006 3.75838 3.94892 2.51357 3.22638 4.77123 2.11652 2.2138 2.64623 2.61241 1.81246 2.09096 3.41037 1.37787 1.32659 1.52881 1.26819 1.02755 1.05498 2.05627 0.66102 0.558996 0.727623 0.417354 0.485292 0.375981 0.865633 0.257239 25.905 46.047 74.027 33.6643 81.0469 19.547 10.3825 40.5242 17.3181 53.5459 67.7142 110.195 110.701 73.1997 116.204 101.111 78.492 76.5019 123.064 113.071 80.4292 117.844 113.6 80.2128 71.5938 116.226 104.221 75.7682 109.582 106.761 74.7982 64.3672 105.511 93.7469 68.8661 99.5385 96.5749 67.9141 57.5062 94.8324 84.0137 62.0836 89.7677 86.7851 61.099 51.4287 84.8609 75.2936 55.7526 80.6185 77.9896 54.6916 46.0781 75.7746 67.579 49.97 72.2415 70.1301 48.8576 41.3994 67.6526 60.833 44.7569 64.7784 63.2073 43.6456 37.3746 60.4902 54.9638 40.1605 58.1467 57.1387 39.0296 33.8915 54.2311 49.8466 36.0908 52.2787 51.847 34.9996 30.8404 48.7658 45.351 32.4977 47.0962 47.1943 31.4488 28.1453 43.8449 41.3346 29.3027 42.4316 43.0812 28.2548 25.7367 39.555 37.734 26.4318 38.3055 39.3283 25.4773 23.5896 35.6919 34.4696 23.8543 34.5227 36.0042 22.9296 21.581 32.1594 31.4876 21.5351 31.1302 32.9076 20.6142 19.7979 28.9974 28.7569 19.4152 28.0821 30.1352 18.5738 18.1164 26.1242 26.253 17.5154 25.2834 27.5495 16.7008 16.5747 23.5216 23.8743 15.805 22.7261 25.1898 14.9571 15.1209 21.1306 21.6908 14.2073 20.377 22.9143 13.3973 13.7648 18.9431 19.6297 12.7389 18.2471 20.8227 11.945 12.4338 16.9127 17.6772 11.3802 16.2628 18.8069 10.6861 11.1878 15.1448 15.7962 10.2015 14.4675 16.9623 9.49515 9.99365 13.4147 13.9681 9.01727 12.7439 15.0781 8.33175 8.78828 11.7008 12.2139 7.90311 11.1124 13.2705 7.25427 7.64879 10.2109 10.5255 6.87572 9.52029 11.5686 6.25545 6.54063 8.67655 8.80329 5.83103 7.98268 9.83283 5.21865 5.33417 7.12855 7.08281 4.8129 6.40837 8.12579 4.21356 4.22427 5.61853 5.38222 3.75627 4.86658 6.34909 3.18152 3.02942 3.96179 3.63978 2.67805 3.22884 4.61369 2.14376 1.88603 2.44405 1.81839 1.64749 1.67223 2.86787 1.07114 0.653736 0.952681 0.481591 0.645656 0.519997 1.03106 0.339834 35.1248 43.051 89.1424 31.1267 77.6025 28.7421 11.2016 53.0621 17.7589 50.6057 79.4242 104.244 127.544 69.2909 111.086 117.338 74.0302 89.5997 117.484 129.845 76.9204 112.273 131.762 75.1411 83.8859 110.036 118.825 72.0486 102.982 123.831 68.7998 74.901 98.4233 106.14 64.7783 92.4914 111.256 61.535 66.6136 87.5988 94.8538 57.9563 83.0462 99.4935 55.0167 59.662 78.3466 85.2149 52.0809 74.8493 89.435 49.3469 53.7523 70.4761 77.0046 47.0217 67.7005 80.8072 44.51 48.7273 63.7148 69.901 42.6421 61.4974 73.3432 40.3041 44.3569 57.9123 63.6928 38.8417 56.066 66.8442 36.7105 40.5079 52.8824 58.2002 35.4914 51.3127 61.0674 33.5652 37.1227 48.4725 53.349 32.5736 47.1008 55.937 30.7648 34.0688 44.5426 48.937 29.9635 43.3408 51.3387 28.3222 31.2966 41.012 44.9525 27.598 39.8734 47.1656 26.0703 28.7643 37.7881 41.2426 25.4282 36.7375 43.3611 24.0066 26.437 34.8294 37.8076 23.428 33.7924 39.8309 22.0952 24.2278 32.0683 34.6818 21.5795 31.1364 36.4712 20.3645 22.2013 29.4938 31.6678 19.8541 28.6163 33.4298 18.6981 20.2959 27.0827 28.8866 18.2328 26.2188 30.5722 17.1391 18.468 24.7855 26.1952 16.6854 23.9021 27.8291 15.6501 16.7054 22.5778 23.6956 15.1837 21.7733 25.1747 14.2662 15.0708 20.4853 21.3004 13.7863 19.6694 22.7551 12.907 13.5183 18.4399 18.9326 12.438 17.611 20.4078 11.5483 11.9975 16.4909 16.7084 11.0613 15.5981 18.0433 10.2583 10.456 14.4906 14.481 9.7257 13.6495 15.7914 8.97808 9.0269 12.5524 12.3451 8.45634 11.7048 13.6305 7.69167 7.61644 10.6761 10.2895 7.1412 9.78682 11.4429 6.47095 6.18521 8.73125 8.18424 5.88878 7.88172 9.37753 5.20047 4.82711 6.88456 6.15998 4.61315 6.00117 7.33125 3.95759 3.48832 5.00489 4.21554 3.34909 4.12772 5.28189 2.72951 2.16969 3.11906 2.25917 2.08464 2.153 3.34272 1.42962 0.83148 1.12997 0.56704 0.742158 0.555345 1.31008 0.381036 58.5656 67.7622 129.51 48.2747 108.132 48.5467 20.0983 88.4329 32.4098 69.7934 110.368 137.376 173.402 92.0869 146.269 163.559 96.4376 121.538 153.363 175.715 101.611 148.333 179.597 98.3222 114.843 144.815 162.239 95.857 136.761 169.846 90.4613 103.834 130.464 146.191 86.6164 123.18 153.954 81.1715 93.3065 116.79 131.539 77.801 110.828 138.669 72.7577 84.0903 105.003 118.698 70.1596 100.073 125.229 65.5053 76.006 94.8127 107.436 63.4661 90.6729 113.344 59.259 68.9319 86.0114 97.5028 57.6291 82.442 102.841 53.8337 62.592 78.2584 88.5317 52.489 75.0827 93.4788 49.0122 56.8724 71.3345 80.505 47.8213 68.4813 84.8945 44.727 51.7399 65.1398 73.1686 43.6621 62.5663 77.224 40.8747 46.9519 59.5223 66.4773 39.9443 57.1859 70.1841 37.3602 42.6661 54.3884 60.3195 36.4755 52.244 63.7876 34.1816 38.7302 49.7148 54.7526 33.3471 47.6796 57.8879 31.2227 35.0726 45.3848 49.5164 30.4208 43.4815 52.4568 28.4947 31.6878 41.3349 44.7264 27.6876 39.5928 47.3769 25.9813 28.5553 37.5818 40.2241 25.1832 35.9475 42.7594 23.5785 25.6514 34.103 36.0984 22.8592 32.5896 38.4012 21.3995 22.9575 30.8136 32.2129 20.6416 29.3516 34.4096 19.288 20.4087 27.6667 28.609 18.529 26.341 30.6247 17.3439 18.0623 24.7854 25.2101 16.6151 23.4816 27.1665 15.4768 15.8864 22.0333 22.0681 14.7722 20.7756 23.8775 13.6791 13.8109 19.3414 19.071 12.94 18.1325 20.7543 11.9706 11.8466 16.7609 16.264 11.221 15.6244 17.7989 10.3065 9.99208 14.3337 13.5853 9.6181 13.2539 15.0632 8.72391 8.25779 11.9827 11.0647 8.0193 10.931 12.4982 7.2395 6.60362 9.70089 8.72545 6.49807 8.66693 9.97952 5.7459 5.05172 7.49169 6.4209 5.01337 6.49773 7.67393 4.32005 3.56687 5.41025 4.33484 3.58615 4.39279 5.45112 2.97555 2.22497 3.38394 2.43982 2.22991 2.4269 3.35944 1.63733 1.01688 1.40743 0.702015 0.929587 0.695851 1.51409 0.448359 97.3561 113.658 188.381 79.4043 158.817 82.2654 36.6362 146.293 58.1563 102.324 152.452 192.892 233.278 129.99 201.895 227.053 132.658 160.859 208.7 232.558 139.226 202.877 239.2 134.197 152.094 197.704 216.072 131.374 188.112 225.826 124.492 138.994 179.862 196.611 119.563 170.647 206.403 112.708 126.045 162.442 178.224 108.133 154.389 187.357 101.755 114.295 146.847 161.53 97.9263 139.841 170.033 91.9959 103.617 132.972 146.455 88.7652 126.767 154.273 83.3261 93.9948 120.609 132.731 80.5405 115.003 139.969 75.5605 85.1182 109.385 120.172 73.0962 104.327 126.807 68.5347 77.0516 99.1881 108.674 66.2518 94.5351 114.824 62.1263 69.6301 89.9251 98.1359 60.0641 85.6837 103.765 56.3252 62.8042 81.3692 88.4475 54.3547 77.443 93.631 50.9427 56.546 73.5759 79.5466 49.1542 69.9503 84.3194 46.0183 50.7911 66.4164 71.3736 44.3291 63.09 75.7135 41.548 45.4707 59.7911 63.782 39.9278 56.7231 67.8138 37.3452 40.5807 53.681 56.8513 35.8263 50.8474 60.5268 33.522 36.0836 48.0585 50.418 32.0818 45.4545 53.8616 29.9578 31.8967 42.8535 44.4897 28.5893 40.3857 47.6609 26.6735 28.0459 38.0116 39.0359 25.3601 35.7947 41.93 23.6349 24.5378 33.5446 34.0266 22.3673 31.4811 36.6724 20.8196 21.2581 29.3715 29.3581 19.6306 27.4679 31.8836 18.1581 18.2826 25.5605 25.1178 17.0395 23.7702 27.4204 15.7576 15.5231 21.9904 21.2391 14.6563 20.3419 23.275 13.4939 13.0168 18.6912 17.6695 12.4444 17.2015 19.5541 11.4186 10.7104 15.6207 14.4155 10.4146 14.1895 16.1446 9.4448 8.61108 12.7646 11.4346 8.51351 11.4824 12.9911 7.64529 6.71144 10.0968 8.75065 6.70495 8.89121 10.1364 5.97146 4.98127 7.62416 6.22825 5.08459 6.4952 7.55613 4.33745 3.3706 5.28708 4.01 3.52385 4.25022 5.10778 2.88371 1.96895 3.23346 2.31323 2.0949 2.42196 2.97844 1.64013 1.04475 1.56795 0.752725 1.03244 0.79962 1.58502 0.530061 165.378 191.328 267.17 130.887 226.959 143.942 66.6965 245.978 103.669 146.728 199.362 261.71 297.75 176.723 267.329 298.367 175.717 201.341 270.488 291.344 180.692 262.744 300.639 173.807 190.367 255.086 272.336 169.67 244.173 283.496 161.773 175.823 234.071 250.372 155.627 223.292 261.603 147.851 161.025 213.294 228.637 141.867 203.242 239.571 134.453 146.784 193.948 208.037 129.107 184.801 218.501 122.099 133.442 176.116 188.868 117.307 167.735 198.745 110.773 121.059 159.777 171.114 106.447 152.063 180.324 100.41 109.544 144.665 154.624 96.3834 137.537 163.234 90.8153 98.8864 130.762 139.429 87.1308 124.195 147.38 82.0175 89.1075 117.989 125.433 78.5874 111.898 132.726 73.9137 80.0159 106.163 112.508 70.7012 100.569 119.21 66.4706 71.6952 95.3469 100.608 63.4744 90.1778 106.784 59.6142 63.9581 85.3574 89.6101 56.8076 80.581 95.3262 53.3026 56.8659 76.1239 79.4753 50.6588 71.7134 84.7609 47.4298 50.3251 67.656 70.2777 44.9968 63.5982 75.0187 42.1165 44.3599 59.8688 61.676 39.8173 56.1326 66.1276 37.1746 38.8145 52.6521 53.8278 35.0078 49.2271 57.8776 32.6247 33.7305 46.0317 46.5957 30.6183 42.8808 50.3522 28.4361 29.0849 39.9573 39.9761 26.5221 37.0586 43.3905 24.6272 24.799 34.3697 33.9372 22.8362 31.7239 37.0294 21.0622 20.9413 29.264 28.4113 19.4303 26.8834 31.2686 17.873 17.3838 24.6104 23.4301 16.3288 22.4093 26.002 14.9314 14.1779 20.3605 18.9161 13.5172 18.4109 21.2196 12.2721 11.3072 16.5616 14.9354 10.9677 14.7959 16.955 9.88773 8.77858 13.1212 11.4162 8.71703 11.5368 13.2122 7.72841 6.56976 10.0385 8.33597 6.63124 8.66339 9.8309 5.80382 4.64034 7.31063 5.73771 4.84331 6.11292 7.00582 4.10935 3.02974 4.88592 3.583 3.19534 3.81917 4.53694 2.61752 1.68453 2.75243 1.87407 1.78234 2.0964 2.54118 1.43247 0.86207 1.53219 0.674396 1.02638 0.804428 1.30353 0.513554 132.336 334.28 175.956 224.351 320.283 65.1418 125.224 192.278 191.617 209.867 120.176 335.494 169.668 223.077 331.975 177.206 218.858 115.762 328.925 165.474 219.365 320.967 171.755 212.409 110.369 311.618 156.817 207.518 301.021 163.044 199.526 103.409 289.853 145.732 192.808 278.112 152.313 184.382 95.5164 266.696 133.946 177.327 254.9 140.529 168.955 87.4914 243.722 122.304 162.084 232.504 128.666 154.001 79.7014 221.82 111.216 147.558 211.234 117.251 139.917 72.3492 201.268 100.825 133.867 191.412 106.419 126.768 65.4961 182.098 91.1572 121.111 172.898 96.3154 114.519 59.0871 164.268 82.1779 109.232 155.739 86.8806 103.207 53.1734 147.841 73.8501 98.2476 139.947 78.1679 92.7286 47.6822 132.582 66.1444 88.12 125.308 70.1234 83.0413 42.6125 118.561 59.0979 78.7738 111.862 62.6611 74.1813 37.9844 105.631 52.5696 70.1512 99.4322 55.828 65.947 33.6808 93.715 46.5771 62.2144 87.9984 49.5174 58.3998 29.7311 82.7236 41.0303 54.8882 77.4992 43.7047 51.4524 26.095 72.6842 35.9398 48.2435 67.8095 38.3855 45.0235 22.7513 63.3877 31.2923 42.0032 58.9589 33.4175 39.1819 19.6902 54.8912 26.995 36.3887 50.8026 28.9564 33.7634 16.8711 47.0694 23.0556 31.1711 43.3306 24.807 28.829 14.3085 39.9082 19.4683 26.3906 36.5075 21.0054 24.3006 11.9499 33.4476 16.1996 22.1069 30.3341 17.5658 20.2119 9.82181 27.5131 13.2623 18.1486 24.7898 14.4095 16.5301 7.90867 22.2167 10.5945 14.6774 19.7359 11.6674 13.1858 6.18474 17.4574 8.2103 11.5056 15.3177 9.1296 10.2504 4.6668 13.3127 6.18391 8.76461 11.4529 6.91712 7.70211 3.40734 9.74563 4.4243 6.36641 8.12744 5.0257 5.4867 2.29788 6.66026 2.95765 4.36585 5.41079 3.40168 3.6713 1.45146 4.22158 1.80786 2.7214 3.27428 2.13181 2.2397 0.834966 2.36097 1.00402 1.50867 1.73973 1.19805 1.17893 0.430018 1.16761 0.37127 0.750361 0.563533 0.612243 0.366667 80.1607 230.037 193.887 156.077 276.315 155.653 78.536 105.204 51.3971 45.9937 129.977 74.7407 140.358 191.648 140.285 250.51 211.403 166.631 246.675 130.976 87.2441 210.313 126.49 167.175 140.229 247.352 202.931 162.005 236.465 128.536 86.389 208.15 121.947 161.663 129.646 233.542 188.387 151.955 220.496 121.397 82.3691 192.477 113.827 151.998 118.471 214.385 172.152 139.038 200.775 111.021 75.6735 175.94 103.321 138.866 107.176 193.009 155.206 125.117 180.071 99.6488 67.9244 159.333 92.3061 124.518 96.0135 171.865 138.576 111.614 160.335 88.6912 60.3152 143.122 81.8553 110.567 85.4687 152.239 123.132 99.1576 142.3 78.6743 53.3302 127.847 72.3924 97.7929 75.8096 134.621 109.104 87.9602 126.221 69.7652 47.1389 113.82 64.06 86.4439 67.1684 119.023 96.6196 78.0635 111.898 61.9226 41.6703 101.232 56.628 76.3588 59.4457 105.17 85.4057 69.1898 99.0561 54.8875 36.8273 89.8675 50.0099 67.4069 52.5204 92.791 75.4268 61.1606 87.455 48.5031 32.4923 79.5927 44.0487 59.405 46.2977 81.641 66.3723 53.9022 76.9176 42.7379 28.5707 70.3123 38.6375 52.1717 40.6628 71.5277 58.173 47.2678 67.2998 37.4695 25.0143 61.8423 33.7486 45.6241 35.5302 62.3521 50.71 41.2297 58.5331 32.6721 21.7942 54.1033 29.2542 39.629 30.875 53.947 43.9436 35.6631 50.5002 28.2283 18.8172 47.0395 25.1381 34.1689 26.6304 46.2302 37.7459 30.6075 43.1424 24.1977 16.0913 40.6267 21.3999 29.162 22.7665 39.2707 32.1754 25.995 36.4911 20.5154 13.6393 34.7671 18.036 24.6492 19.2625 32.9556 27.1166 21.8257 30.4928 17.1734 11.4203 29.4648 14.9361 20.5464 16.1642 27.221 22.5977 18.037 24.9994 14.1376 9.3806 24.7605 12.1561 16.8365 13.3653 22.065 18.6021 14.6475 20.1459 11.4387 7.55825 20.4794 9.70087 13.5545 10.8999 17.5282 15.0204 11.6286 15.8519 9.01578 5.93716 16.7634 7.50747 10.6048 8.73646 13.5181 11.9953 9.00558 12.1143 6.9173 4.53173 13.4843 5.64501 8.08112 6.9155 10.0939 9.41655 6.7306 8.97205 5.09153 3.32131 10.6846 4.05426 5.95286 5.41167 7.23716 7.27224 4.85168 6.35067 3.54415 2.28827 8.36558 2.74524 4.15504 4.1928 4.94202 5.55381 3.33509 4.29932 2.32461 1.48507 6.47037 1.73887 2.77372 3.23717 3.21278 4.16569 2.19089 2.78298 1.42902 0.859765 4.97186 1.0723 1.73847 2.45601 2.12783 3.12693 1.48532 1.92202 0.89575 0.532109 3.79329 0.768616 1.17425 1.8662 1.73155 2.33675 1.16043 1.5697 0.773681 0.505047 2.87865 0.723002 1.02423 1.36391 1.53697 1.63637 0.985749 1.23807 0.751293 0.492785 2.0853 0.607936 0.87293 0.76907 1.04944 0.855337 0.687254 0.902121 0.580898 0.389563 1.24384 0.381026 0.571458 0.486152 0.574949 0.300827 0.400292 0.274151 0.292659 0.172732 0.74736 0.0718788 0.161424 39.5635 89.825 97.0784 65.3661 130.508 26.4894 22.1975 66.189 38.5398 86.6932 84.7336 166.974 138.119 110.173 167.927 127.479 116.011 91.6565 171.756 139.024 111.603 163.777 135.976 113.849 87.584 160.273 129.516 103.272 150.852 129.343 105.08 80.8065 147.168 118.572 94.6865 137.966 119.729 96.037 73.5231 133.718 107.525 86.275 125.296 109.632 86.879 66.2706 120.233 96.7486 78.0114 112.954 99.5287 77.8978 59.3877 107.369 86.6495 70.0851 101.319 89.8432 69.4713 53.0999 95.561 77.3989 62.7284 90.5202 80.8431 61.7072 47.4118 84.8814 69.1321 56.0166 80.7851 72.5121 54.7941 42.3684 75.3998 61.7286 49.9507 71.8935 65.0459 48.5745 37.8212 66.8042 55.0708 44.378 63.8515 58.222 43.0214 33.7609 59.1285 49.1231 39.3875 56.5523 52.0922 37.9934 30.1178 52.1699 43.7278 34.8172 49.9007 46.5144 33.4325 26.7928 45.8315 38.8481 30.629 43.8319 41.4245 29.2933 23.7859 40.0811 34.4245 26.8388 38.3322 36.7867 25.5646 21.0657 34.9047 30.409 23.4113 33.3538 32.6206 22.1639 18.5973 30.1542 26.7702 20.2782 28.8255 28.84 19.106 16.4121 25.9412 23.5302 17.4672 24.736 25.4208 16.3319 14.3949 22.1432 20.5525 14.961 21.1102 22.325 13.8871 12.6169 18.7747 17.9415 12.7011 17.9177 19.5465 11.717 11.04 15.8179 15.6002 10.7571 15.0813 17.0715 9.7911 9.61231 13.2326 13.4719 9.03756 12.6354 14.8709 8.13449 8.32316 11.0258 11.6066 7.58606 10.5461 12.867 6.75647 7.21172 9.1974 9.93133 6.32511 8.72366 11.1453 5.59503 6.16155 7.63211 8.36762 5.26115 7.22749 9.47896 4.57451 5.17426 6.26091 6.93037 4.35372 5.8552 7.97379 3.71565 4.21728 5.05835 5.50859 3.50215 4.64065 6.51932 2.92507 3.28092 3.90292 4.13695 2.72863 3.44181 5.10945 2.17583 2.36966 2.80291 2.74934 1.92504 2.26741 3.65424 1.45005 1.39548 1.58474 1.35693 1.11157 1.12438 2.2004 0.690002 0.593002 0.788477 0.411348 0.552116 0.4413 0.932461 0.261769 25.4791 47.453 71.4538 34.8299 78.4796 19.006 11.4896 39.618 19.4607 52.5412 65.1985 106.733 107.039 69.5403 110.084 95.0709 76.0389 74.008 119.202 110.099 76.1211 112.13 107.531 77.9783 69.823 112.943 102.401 72.1855 105.293 102.554 73.019 63.4573 103.115 93.0761 66.4454 96.9724 94.4953 66.7153 57.3377 93.4237 84.2775 60.8272 88.7657 86.5092 60.5095 51.8436 84.3704 76.2021 55.4839 80.8355 79.0451 54.59 46.8442 75.9971 68.9154 50.4278 73.3864 72.0364 49.1364 42.4077 68.3499 62.3795 45.7398 66.4444 65.6113 44.1657 38.4701 61.5181 56.6086 41.3859 60.102 59.7656 39.751 35.0312 55.4816 51.4841 37.492 54.352 54.5311 35.7884 31.9383 50.0161 46.873 33.9076 49.1736 49.7566 32.2385 29.2039 45.1781 42.8329 30.6985 44.4871 45.4898 29.096 26.7149 40.803 39.1056 27.8094 40.2576 41.6398 26.2334 24.4871 36.8406 35.7063 25.1683 36.366 38.1219 23.6268 22.3958 33.2482 32.6046 22.7289 32.857 34.8531 21.3053 20.529 30.0031 29.7956 20.5405 29.6059 31.9114 19.1798 18.8014 27.0559 27.1815 18.5555 26.6963 29.1933 17.2292 17.2076 24.3896 24.765 16.7161 24.0546 26.6164 15.503 15.6706 21.9183 22.4745 15.0627 21.563 24.2555 13.8602 14.2528 19.6344 20.3334 13.506 19.335 22.0137 12.4213 12.8994 17.6077 18.2723 12.1049 17.2299 19.913 11.0498 11.5889 15.6779 16.3506 10.8026 15.3217 17.8425 9.80809 10.3196 13.8733 14.4559 9.56923 13.4863 15.9297 8.63396 9.1064 12.2199 12.6543 8.42593 11.7676 14.0363 7.55286 7.93198 10.5886 10.8295 7.27718 10.0709 12.1696 6.46052 6.7149 8.99743 9.09026 6.17413 8.451 10.31 5.42898 5.56102 7.40016 7.36061 5.09597 6.79448 8.53372 4.36586 4.36268 5.80091 5.56328 4.00352 5.18537 6.72307 3.32443 3.18787 4.22577 3.7796 2.91221 3.48254 4.94094 2.23357 1.95715 2.56693 1.98691 1.75576 1.8282 3.06063 1.16978 0.751509 1.04416 0.524619 0.699188 0.537858 1.20937 0.35744 33.8882 40.424 87.0301 28.3624 72.5982 28.0496 10.301 49.9704 15.3974 48.6099 77.7995 100.616 124.874 65.3328 105.046 112.982 71.5859 87.7593 113.905 127.588 73.0836 107.657 127.184 73.1827 82.6808 107.684 117.841 69.6957 100.832 121.073 67.7877 74.6296 97.6199 106.371 64.1023 92.5594 110.788 61.4219 67.1026 88.003 95.935 58.5883 84.6441 100.798 55.5325 60.5835 79.5793 86.7941 53.5623 77.3498 91.7916 50.3036 54.9515 72.1407 78.8008 48.9184 70.6341 83.6939 45.6422 49.99 65.6472 71.7301 44.7509 64.5471 76.4095 41.5545 45.617 59.8496 65.5076 40.9256 59.0788 69.7857 37.9246 41.7332 54.7626 59.9058 37.537 54.1785 63.906 34.7285 38.2329 50.2499 54.8694 34.4686 49.7521 58.5827 31.8665 35.0661 46.1792 50.3578 31.6742 45.7516 53.7176 29.331 32.206 42.4994 46.2009 29.186 42.1058 49.3409 26.9772 29.6076 39.1705 42.3997 26.8788 38.7766 45.3355 24.846 27.1783 36.0469 38.9027 24.7465 35.6485 41.5876 22.8527 24.9184 33.1661 35.589 22.7435 32.7679 38.1308 21.0366 22.8067 30.5047 32.5609 20.9282 30.1203 34.9135 19.3388 20.8583 28.0258 29.6551 19.2251 27.5866 31.9419 17.7269 18.9914 25.6295 26.9517 17.5725 25.1708 29.0402 16.168 17.2039 23.3478 24.3331 16.0287 22.9048 26.3464 14.7223 15.5061 21.1571 21.8616 14.5163 20.6399 23.7463 13.2897 13.88 19.0697 19.4734 13.0323 18.469 21.2418 11.919 12.2863 16.9584 17.1299 11.6118 16.4028 18.8201 10.5644 10.7471 14.9491 14.863 10.2521 14.3154 16.5079 9.23928 9.25219 12.9764 12.7092 8.85882 12.2434 14.1831 7.94187 7.79085 10.9635 10.5148 7.46884 10.2338 11.9696 6.63931 6.37913 9.06063 8.44047 6.17324 8.29977 9.79752 5.38351 4.98071 7.103 6.38261 4.86319 6.32036 7.65919 4.09765 3.61393 5.19878 4.37992 3.55218 4.34947 5.60515 2.84396 2.28996 3.25466 2.40812 2.21623 2.32181 3.54927 1.51669 0.921313 1.25653 0.606639 0.850317 0.637936 1.42396 0.393419 59.2356 67.0206 129.602 47.6172 105.921 49.659 20.1571 89.8095 33.3324 68.8071 110.213 135.744 172.309 90.2767 142.847 162.593 95.0331 120.556 151.181 174.284 99.2134 145.337 176.885 97.0368 113.993 143.356 161.501 94.3879 135.603 167.851 89.9141 103.63 130.256 146.376 86.5022 123.798 153.618 81.3498 93.6677 117.58 132.406 78.7447 112.677 139.693 73.4666 84.8302 106.403 120.017 71.6923 102.542 127.081 66.5131 76.9698 96.5213 108.91 65.2851 93.4059 115.626 60.39 69.902 87.7807 98.911 59.5159 85.1332 105.198 54.9516 63.5558 79.9895 89.9426 54.2824 77.6471 95.7279 50.1064 57.7558 72.967 81.7462 49.5615 70.928 87.0728 45.7471 52.5239 66.6262 74.2903 45.2574 64.7359 79.2102 41.7756 47.7237 60.8602 67.5201 41.3197 59.1461 71.9483 38.2159 43.3559 55.6355 61.2918 37.7832 54.0187 65.3716 34.8984 39.2992 50.8265 55.5498 34.5239 49.3667 59.3198 31.9001 35.6029 46.3572 50.2924 31.4805 44.9842 53.7488 29.1186 32.1593 42.2539 45.3779 28.684 40.9513 48.5948 26.5182 28.9857 38.3904 40.8653 26.0761 37.1955 43.8417 24.1034 26.0658 34.8604 36.6863 23.6776 33.7147 39.4576 21.8556 23.3347 31.479 32.7644 21.3599 30.3836 35.3336 19.7271 20.7831 28.3373 29.0993 19.2544 27.3063 31.518 17.7305 18.4107 25.3634 25.6892 17.2109 24.3428 27.9264 15.8201 16.1754 22.5114 22.4885 15.2928 21.5009 24.5812 14.0013 14.0572 19.7809 19.459 13.4429 18.8449 21.3915 12.2594 12.0713 17.1948 16.5728 11.7124 16.2574 18.4918 10.5784 10.2275 14.6866 13.9314 9.96623 13.7656 15.6122 8.97339 8.46907 12.2781 11.3602 8.36073 11.3664 12.9487 7.3936 6.76191 9.98013 8.92174 6.77445 9.03016 10.3903 5.90136 5.20169 7.72641 6.62459 5.23948 6.80289 7.97572 4.44888 3.68567 5.5544 4.45131 3.7581 4.65441 5.65003 3.03352 2.25805 3.49517 2.4992 2.37761 2.60953 3.54642 1.72931 1.00889 1.50927 0.704907 1.0254 0.744665 1.64258 0.47779 99.2609 115.292 190.531 81.5044 160.555 84.2599 37.51 150.881 61.2553 102.903 153.762 193.665 233.894 130.597 201.405 229.236 132.502 160.771 207.947 231.919 138.099 201.087 238.27 133.531 151.518 196.725 215.419 130.262 186.99 224.341 124.028 138.687 179.535 196.532 119.272 170.801 205.786 112.734 126.19 162.832 178.697 108.644 155.539 187.778 102.193 114.726 147.779 162.391 98.942 141.534 171.182 92.715 104.259 134.204 147.418 90.0657 128.747 155.81 84.1567 94.6422 121.878 133.713 81.8957 116.919 141.586 76.3578 85.7796 110.619 121.117 74.3493 106.137 128.402 69.3221 77.6527 100.33 109.536 67.4721 96.2428 116.244 62.8312 70.1806 90.959 98.9374 61.1489 87.1502 105.087 56.9428 63.3178 82.3389 89.1261 55.3337 78.8257 94.8288 51.5066 56.9847 74.4257 80.1812 50.0078 71.1859 85.3583 46.5668 51.1832 67.1672 71.898 45.1256 64.1721 76.6727 41.9807 45.8136 60.4914 64.3069 40.632 57.7509 68.6676 37.8035 40.9104 54.3225 57.3177 36.492 51.7632 61.337 33.8954 36.3748 48.6234 50.8719 32.66 46.2875 54.5655 30.3307 32.1987 43.3718 44.8655 29.1719 41.2103 48.3742 26.9798 28.2819 38.4954 39.4179 25.8845 36.5283 42.5226 23.9596 24.7723 34.0232 34.3634 22.8766 32.1469 37.2628 21.0905 21.5266 29.8389 29.737 20.0442 28.0923 32.3913 18.4509 18.51 25.9618 25.4356 17.4372 24.4046 27.8763 15.9952 15.7004 22.3251 21.4694 15.0417 20.9008 23.7466 13.7039 13.1735 18.9834 17.8997 12.8239 17.6445 19.9611 11.5822 10.8844 15.9111 14.6142 10.7122 14.6618 16.4736 9.63609 8.74942 13.0504 11.6378 8.78954 11.8713 13.3268 7.82131 6.83556 10.3109 8.88363 6.95844 9.17319 10.4435 6.0539 5.06031 7.81586 6.38426 5.27039 6.7532 7.757 4.46792 3.43696 5.47003 4.10093 3.65829 4.48818 5.32327 2.9897 1.99734 3.29247 2.319 2.24483 2.52289 3.13852 1.68565 1.06015 1.59303 0.764987 1.08029 0.803439 1.63539 0.517129 167.09 193.8 270.969 134.152 232.202 145.323 67.4376 250.507 106.367 148.631 202.127 264.71 300.244 179.529 269.533 303.797 176.75 202.256 271.089 291.697 180.791 262.053 301.834 173.719 190.256 254.554 272.094 168.877 243.111 282.765 161.425 175.636 233.688 250.285 155.177 223.012 261.018 147.722 161.038 213.382 228.896 142.011 203.832 239.674 134.649 147.054 194.445 208.643 129.694 185.839 219.201 122.529 133.909 176.907 189.558 118.147 169.046 199.798 111.298 121.53 160.6 171.824 107.327 153.342 181.464 100.934 110.038 145.489 155.322 97.2768 138.788 164.341 91.3307 99.3744 131.557 140.054 87.9255 125.32 148.398 82.4868 89.4565 118.651 125.943 79.3011 112.906 133.644 74.3533 80.3673 106.807 112.942 71.3659 101.455 120.029 66.8226 71.9284 95.8618 100.957 64.0302 90.9595 107.433 59.9391 64.2039 85.832 89.9384 57.3191 81.2756 95.9334 53.5687 57.0871 76.5321 79.7924 51.1046 72.3604 85.278 47.6873 50.5367 68.0194 70.528 45.4314 64.1868 75.5096 42.3375 44.5345 60.2331 61.9241 40.2038 56.6609 66.5624 37.3943 38.9729 52.9899 54.0273 35.3752 49.7323 58.257 32.8165 33.8717 46.3399 46.8206 30.9061 43.3091 50.6506 28.6475 29.2126 40.2221 40.1668 26.8092 37.454 43.6945 24.7626 24.9217 34.6702 34.093 23.129 32.1552 37.3439 21.2656 21.0491 29.5432 28.6031 19.7032 27.2579 31.5578 18.0455 17.498 24.8461 23.5875 16.57 22.7749 26.271 15.0591 14.2707 20.5671 19.0849 13.7486 18.7295 21.4926 12.4145 11.3944 16.7213 15.0086 11.1623 15.0765 17.2036 9.98571 8.86409 13.2723 11.5275 8.84894 11.7836 13.3546 7.83892 6.59157 10.1675 8.38333 6.80618 8.88361 10.0352 5.90845 4.69792 7.42164 5.81247 4.95269 6.27218 7.12049 4.19352 3.04613 4.94955 3.56051 3.32879 3.95211 4.6609 2.62779 1.69603 2.81763 1.86171 1.87891 2.17703 2.58289 1.44336 0.847719 1.52024 0.686631 1.02187 0.805623 1.2766 0.53011 131.535 335.308 177.031 226.452 328.04 64.4806 124.78 191.748 191.535 212.75 121.964 340.84 171.6 228.457 337.105 181.228 221.146 116.737 331.123 166.228 221.233 321.938 173.64 213.034 110.66 311.921 156.952 207.464 300.643 163.396 199.552 103.469 289.8 145.776 192.582 277.942 152.299 184.374 95.5582 266.772 134.012 177.441 255.321 140.622 169.108 87.5767 244.14 122.501 162.556 233.328 128.951 154.382 79.898 222.5 111.461 148.238 212.274 117.688 140.312 72.5247 201.884 101.073 134.555 192.444 106.837 127.184 65.6725 182.747 91.3928 121.794 173.86 96.7528 114.918 59.2455 164.871 82.3619 109.85 156.65 87.2708 103.542 53.2722 148.276 74.0008 98.8119 140.645 78.5058 92.9925 47.8157 133.031 66.3332 88.5566 125.936 70.3709 83.3069 42.7325 118.91 59.2317 79.1393 112.353 62.9132 74.3533 38.0528 105.922 52.6812 70.4854 99.857 56.0319 66.1192 33.7473 93.9715 46.6733 62.4698 88.3807 49.6568 58.5541 29.7979 82.9838 41.125 55.156 77.8426 43.8558 51.5943 26.1625 72.9161 36.0331 48.4508 68.1648 38.4985 45.152 22.7728 63.5438 31.3246 42.2365 59.2322 33.5593 39.283 19.7324 55.0579 27.0559 36.5153 51.0237 29.0337 33.8767 16.9118 47.2167 23.1184 31.3068 43.5326 24.8819 28.9376 14.3219 40.0588 19.5072 26.5581 36.7193 21.0952 24.3854 11.9814 33.5484 16.2424 22.2344 30.5687 17.6386 20.3119 9.8308 27.6398 13.281 18.3271 24.9663 14.528 16.6152 7.96111 22.3659 10.6515 14.7861 19.9133 11.7158 13.2691 6.22597 17.5897 8.28307 11.6232 15.4549 9.18536 10.3088 4.71687 13.4138 6.21554 8.82325 11.5149 6.97931 7.7506 3.42043 9.76744 4.43013 6.4247 8.18075 5.03712 5.48654 2.31699 6.72487 2.97806 4.36129 5.45187 3.39538 3.71031 1.43509 4.21439 1.79433 2.75359 3.25829 2.13887 2.2146 0.801397 2.32277 0.96858 1.48088 1.71694 1.16762 1.15998 0.419231 1.14575 0.379435 0.710222 0.544039 0.586319 0.380341 89.1092 232.699 190.938 160.753 267.282 150.552 80.8408 102.661 61.024 52.4968 149.701 91.9843 137.759 185.454 136.139 249.039 204.081 163.189 237.152 128.95 87.7602 200.26 123.446 164.985 134.035 241.191 194.344 152.437 221.719 121.117 84.4238 191.477 117.186 157.614 123.088 224.564 179.684 141.178 205.592 112.717 79.0881 176.486 108.538 146.47 112.438 204.832 164.521 129.505 188.332 103.376 72.178 163.06 98.498 133.245 102.263 184.579 149.271 117.657 170.809 93.6495 64.8862 150.017 88.4678 119.719 92.4066 165.275 134.473 106.27 153.986 84.3675 57.9724 136.987 79.0748 106.927 83.1284 147.537 120.621 95.6766 138.417 75.8532 51.6837 124.312 70.5691 95.2922 74.4904 131.567 107.804 85.9244 124.019 68.0304 46.0516 112.229 62.9184 84.8226 66.5618 117.237 96.1895 76.9828 110.888 60.9497 41.0369 100.825 56.0055 75.4576 59.3367 104.24 85.5805 68.7077 98.7549 54.3697 36.4732 90.2402 49.7304 66.9855 52.7265 92.3921 75.9079 61.1013 87.5884 48.3291 32.3161 80.4295 43.9631 59.2276 46.6665 81.6042 67.0498 54.0512 77.2983 42.7286 28.5339 71.3371 38.6872 52.1874 41.1343 71.6989 58.9647 47.5394 67.8352 37.5699 25.0484 62.9731 33.8698 45.7388 36.0452 62.6237 51.5606 41.5773 59.134 32.8339 21.8589 55.2792 29.3902 39.8078 31.4114 54.2252 44.7622 36.045 51.0826 28.4144 18.8864 48.2506 25.3178 34.3783 27.1777 46.6494 38.6077 31.0061 43.7996 24.4019 16.2128 41.7979 21.5929 29.4212 23.3105 39.6531 33.0086 26.3985 37.1394 20.728 13.7432 35.9216 18.1962 24.9047 19.8066 33.3092 27.9558 22.2153 31.0595 17.3682 11.491 30.6645 15.1343 20.8061 16.7273 27.6552 23.3947 18.4594 25.6695 14.4007 9.50133 25.8738 12.3462 17.0843 13.8655 22.4907 19.3774 15.0378 20.7963 11.6556 7.67198 21.5511 9.92178 13.8245 11.4008 17.9439 15.7985 12.0565 16.5062 9.26012 6.07216 17.7942 7.72275 10.8941 9.25764 13.9687 12.7248 9.3667 12.7486 7.11221 4.65508 14.448 5.87295 8.36855 7.38544 10.5164 10.0712 7.14088 9.57986 5.33518 3.44786 11.6185 4.24909 6.19629 5.83588 7.6195 7.87242 5.2233 6.9103 3.79164 2.39601 9.20094 2.9239 4.39893 4.55786 5.30979 6.02413 3.66054 4.75696 2.51223 1.57689 7.21728 1.91482 2.97751 3.53086 3.57968 4.58856 2.48819 3.21423 1.59216 0.989699 5.57719 1.22584 1.95472 2.73436 2.40325 3.48691 1.70404 2.18863 0.999253 0.604768 4.27083 0.871977 1.3411 2.07342 1.90331 2.55565 1.31413 1.66988 0.825553 0.534042 3.26467 0.727394 1.05369 1.44635 1.55171 1.68896 1.02259 1.28407 0.743295 0.503907 2.29799 0.595329 0.859369 0.843379 1.05506 0.947363 0.677578 0.877973 0.559687 0.374886 1.35266 0.392608 0.601141 0.501285 0.625464 0.30609 0.406157 0.296497 0.2881 0.196392 0.818501 0.0903863 0.191805 46.6203 103.403 96.6994 78.5678 133.645 32.174 29.0718 81.9936 53.2809 87.5986 80.3232 161.617 130.11 104.341 155.1 117.161 110.94 85.7862 162.278 130.665 100.473 147.66 121.435 107.695 82.0254 150.404 122.613 92.8145 137.523 116.791 99.2944 76.5188 138.658 113.738 86.944 128.834 111.316 91.2909 70.7366 127.337 104.747 81.3259 119.869 105.182 83.4691 64.9069 116.088 95.719 75.327 110.376 98.1251 75.7301 59.1272 105.106 86.9425 69.0846 100.762 90.5039 68.3612 53.6185 94.7203 78.6108 62.8506 91.2535 82.7798 61.3856 48.4545 85.0329 70.8821 56.7786 82.2224 75.2083 54.9869 43.6611 76.1162 63.7243 51.0819 73.7631 68.0401 49.0896 39.2347 67.9071 57.175 45.7419 65.9086 61.3684 43.7229 35.2121 60.3883 51.2364 40.7727 58.6158 55.1549 38.7623 31.5271 53.4832 45.7727 36.1938 51.956 49.4417 34.2676 28.1474 47.1815 40.8014 32.0016 45.8272 44.2236 30.1449 25.0744 41.4377 36.2579 28.1706 40.2831 39.4407 26.3722 22.2994 36.1849 32.1905 24.6625 35.1627 35.1142 22.9703 19.8038 31.4439 28.4453 21.4733 30.5871 31.1728 19.8851 17.486 27.1359 25.0517 18.6641 26.4667 27.5971 17.085 15.421 23.3338 21.9877 16.0857 22.7589 24.3368 14.601 13.5274 19.8477 19.2667 13.7622 19.4025 21.4119 12.3985 11.8974 16.8961 16.7998 11.7584 16.5476 18.8042 10.4639 10.3954 14.2567 14.5599 9.96877 13.9321 16.4366 8.76822 9.02458 11.9689 12.5643 8.42528 11.7518 14.2653 7.31672 7.81623 10.0035 10.7489 7.09435 9.80556 12.351 6.06621 6.65887 8.31511 9.06918 5.92762 8.05481 10.5544 4.97931 5.61184 6.84199 7.49587 4.85769 6.5608 8.83459 4.0468 4.55979 5.52931 5.97907 3.93496 5.21034 7.20012 3.2164 3.58766 4.29179 4.51734 3.03445 3.84228 5.62798 2.39206 2.56045 3.02921 3.00955 2.15074 2.51666 4.06184 1.55965 1.55353 1.77746 1.53881 1.26693 1.29514 2.47083 0.787359 0.675521 0.867244 0.458774 0.621772 0.46887 1.08755 0.27447 24.913 52.7945 66.2522 39.959 74.7544 17.8829 14.1761 39.7706 25.6317 50.9962 59.3148 98.7075 98.847 61.1205 96.7516 81.8583 70.3185 68.3383 109.619 103.515 66.425 100.253 95.6508 72.5733 66.0427 105.115 98.6286 65.1032 97.7922 95.5691 69.0084 61.7897 98.1977 92.0314 62.7885 93.8582 92.2857 64.4161 57.4218 91.2433 85.2594 59.9223 88.9377 87.8129 59.6922 53.0958 84.3076 78.5321 56.4637 83.1517 82.5309 54.8956 48.8602 77.3995 72.0738 52.5377 76.9262 76.7325 50.2385 44.8406 70.729 65.9706 48.4507 70.5643 70.8499 45.7523 41.0642 64.366 60.2628 44.3567 64.4357 65.0526 41.5358 37.5662 58.4821 55.0624 40.4519 58.6316 59.6307 37.6621 34.3796 53.0299 50.2939 36.8079 53.2668 54.5995 34.1138 31.5012 48.1006 45.9864 33.422 48.337 49.975 30.8882 28.8452 43.5989 42.0546 30.3458 43.8342 45.7462 27.9415 26.4543 39.4818 38.4773 27.5085 39.6918 41.8919 25.2672 24.2331 35.681 35.1486 24.9163 35.8894 38.3694 22.7873 22.2132 32.2731 32.0885 22.5617 32.4836 35.097 20.5408 20.3105 29.1577 29.2911 20.4307 29.3623 32.0538 18.533 18.5385 26.281 26.626 18.4198 26.463 29.2499 16.6775 16.9119 23.6854 24.164 16.6136 23.7632 26.6759 14.964 15.3543 21.2527 21.873 14.9307 21.3281 24.1809 13.4104 13.8919 19.042 19.6454 13.4 19.0489 21.8682 11.9324 12.4492 16.9656 17.5757 11.9604 16.8915 19.6009 10.603 11.1224 15.0029 15.522 10.5608 14.8755 17.4396 9.31384 9.77572 13.2021 13.5431 9.29594 12.9887 15.3427 8.12488 8.45328 11.3925 11.6208 8.02706 11.0824 13.2942 6.96278 7.17887 9.67189 9.71814 6.79838 9.23633 11.2811 5.82772 5.93937 7.96774 7.85487 5.56061 7.45998 9.28372 4.70567 4.65018 6.2728 5.97473 4.38387 5.66859 7.31669 3.60183 3.43807 4.57165 4.11466 3.19604 3.88797 5.37389 2.44136 2.1471 2.82442 2.16546 1.99771 2.04615 3.43818 1.31245 0.86056 1.20251 0.589746 0.812972 0.619338 1.34869 0.378222 31.2643 34.4315 81.5837 23.1889 62.2606 27.4582 8.13328 44.6634 13.348 43.8766 73.4635 91.823 118.383 56.699 93.3668 103.172 65.9572 83.4686 105.963 122.794 66.2043 100.56 118.971 69.082 80.3574 103.169 116.105 66.6301 98.9458 117.751 65.9796 74.4904 96.6513 107.33 64.3171 94.4952 111.809 61.5867 68.5549 89.6711 98.6792 60.93 88.8775 104.594 57.0399 62.9429 82.82 90.5036 57 82.7213 96.977 52.5925 57.6936 76.2058 82.8669 52.8786 76.4713 89.3872 48.3164 52.8378 69.9782 75.8395 48.7853 70.4198 82.0779 44.3302 48.3566 64.198 69.4013 44.8739 64.6674 75.2871 40.6805 44.3054 58.9146 63.5551 41.1994 59.3637 68.9625 37.3193 40.6305 54.112 58.2811 37.8535 54.53 63.2415 34.292 37.2845 49.7487 53.4274 34.7964 50.145 57.9842 31.5264 34.2171 45.7462 49.0244 32.0038 46.074 53.2115 28.9946 31.3941 42.0824 44.9575 29.4216 42.3555 48.7933 26.6857 28.825 38.7534 41.1992 27.0791 38.9779 44.7878 24.5699 26.4061 35.6421 37.715 24.9222 35.8289 41.0618 22.5649 24.1762 32.7399 34.4762 22.885 32.856 37.5718 20.734 22.1035 30.0126 31.4404 20.9548 30.0196 34.335 18.9466 20.1132 27.4217 28.524 19.161 27.3904 31.2438 17.2903 18.212 24.9737 25.7885 17.4251 24.8771 28.2975 15.7369 16.4307 22.6432 23.128 15.7882 22.4447 25.5366 14.1999 14.6743 20.3203 20.622 14.1827 20.0587 22.8494 12.7184 13.0402 18.1375 18.1621 12.6357 17.7944 20.3061 11.2836 11.3998 15.9624 15.7842 11.1148 15.5185 17.7371 9.85074 9.81218 13.7899 13.4283 9.60041 13.2882 15.2856 8.44543 8.274 11.6929 11.1462 8.14212 11.0971 12.9062 7.05249 6.75066 9.63186 9.00672 6.68381 8.98734 10.5531 5.74164 5.32354 7.58905 6.79404 5.26441 6.8585 8.34296 4.35605 3.85383 5.56522 4.7105 3.8668 4.7747 6.0856 3.05356 2.46664 3.54745 2.59352 2.46092 2.57767 3.91632 1.66999 0.974754 1.38782 0.667337 0.937635 0.698492 1.59818 0.463706 62.5714 67.314 129.036 48.6142 101.548 54.7636 21.5785 97.1372 38.4746 66.3106 108.867 131.313 168.77 85.6854 135.784 158.357 91.6301 117.74 146.129 170.796 94.8675 140.828 171.264 94.3379 112.213 140.68 160.171 92.7875 135.128 165.266 89.0237 103.507 130.434 147.218 87.447 126.389 154.4 82.0928 94.8006 119.828 134.685 81.2915 117.014 142.738 75.2923 86.6743 109.774 122.989 74.9942 107.63 131.217 68.8902 79.1028 100.383 112.117 68.835 98.6277 120.119 62.9572 72.0894 91.6942 102.118 62.9955 90.157 109.663 57.4711 65.6498 83.7189 92.9726 57.5818 82.3627 99.9047 52.4699 59.7223 76.4319 84.5431 52.5667 75.1884 90.9367 47.9419 54.33 69.838 76.8794 48.0287 68.7214 82.7108 43.8124 49.3432 63.7805 69.8257 43.8917 62.7393 75.2076 40.0219 44.8128 58.2665 63.3814 40.0557 57.3278 68.2978 36.5908 40.6584 53.2304 57.526 36.5775 52.2871 61.9895 33.4445 36.8516 48.5704 52.0304 33.3838 47.6947 56.2214 30.4934 33.2712 44.2223 46.9924 30.4048 43.4587 50.8341 27.7951 30.0435 40.2583 42.3405 27.6965 39.4872 45.9351 25.2633 27.0066 36.5235 38.0644 25.1242 35.8163 41.3344 22.9377 24.2028 33.0376 33.9949 22.7355 32.3113 37.0978 20.6853 21.5754 29.7208 30.2459 20.4486 29.0174 33.1052 18.5924 19.1272 26.6046 26.7336 18.3266 25.8904 29.4065 16.5906 16.8463 23.622 23.4135 16.2693 22.9539 25.9079 14.6984 14.6583 20.8285 20.3153 14.3872 20.1273 22.6606 12.8986 12.6821 18.1205 17.4496 12.4645 17.3681 19.5571 11.1568 10.743 15.4873 14.6082 10.6903 14.7132 16.6245 9.45231 8.9 13.0042 11.9739 8.93405 12.1789 13.7908 7.84961 7.17954 10.5555 9.42174 7.25601 9.70619 11.1663 6.25779 5.48635 8.21894 7.03413 5.68461 7.39029 8.60768 4.7516 3.91983 5.94292 4.69386 4.10873 5.05747 6.20601 3.25864 2.42621 3.77843 2.71613 2.59779 2.85766 3.84514 1.85863 1.13901 1.60247 0.779442 1.11074 0.801767 1.79017 0.503483 106.437 122.837 194.543 90.2618 164.897 92.5265 41.5955 167.33 72.6162 104.08 155.085 193.871 233.228 129.573 197.987 229.575 131.441 159.313 205.055 229.494 134.895 197.061 234.202 131.633 149.986 194.409 213.901 128.455 185.713 221.403 123.061 138.157 179.18 196.622 119.45 172.135 205.323 113.042 126.692 164.177 180.028 110.247 158.439 189.382 103.389 115.908 150.108 164.362 101.235 145.152 173.871 94.3485 105.688 136.913 149.654 92.5733 132.471 158.907 85.9523 96.1552 124.64 135.96 84.3643 120.595 144.663 78.1773 87.2542 113.304 123.235 76.7263 109.572 131.394 71.0334 79.0052 102.855 111.469 69.6561 99.3639 119.025 64.4198 71.4096 93.2161 100.648 63.1139 89.9879 107.591 58.3703 64.4181 84.3677 90.7081 57.1332 81.4198 97.031 52.8032 57.9822 76.2687 81.5594 51.6667 73.5479 87.408 47.701 52.0688 68.8404 73.1736 46.6293 66.3237 78.5346 43.0667 46.6576 62.0372 65.4678 42.0296 59.7233 70.3932 38.768 41.6258 55.7078 58.3486 37.7447 53.5571 62.868 34.7863 37.0328 49.9273 51.784 33.8268 47.9514 55.9707 31.1325 32.8092 44.5736 45.8377 30.2078 42.7666 49.5955 27.7823 28.8949 39.61 40.251 26.8809 37.9338 43.8132 24.6466 25.3234 35.0386 35.1078 23.7801 33.4713 38.4249 21.7171 21.9647 30.733 30.4377 20.9026 29.3335 33.3932 19.0453 18.9497 26.812 26.0928 18.2362 25.4935 28.9 16.5516 16.1844 23.1504 22.1639 15.768 21.9629 24.6728 14.2233 13.6 19.7935 18.4989 13.5138 18.655 20.8512 12.0838 11.2279 16.5792 15.1319 11.3395 15.5195 17.2985 10.0487 9.08507 13.5961 12.0987 9.30212 12.571 14.0207 8.15226 7.1276 10.8384 9.27962 7.44392 9.86053 11.0541 6.35633 5.30005 8.20855 6.70481 5.64383 7.24235 8.30859 4.6956 3.65048 5.76056 4.34196 3.96856 4.82216 5.71621 3.13452 2.13955 3.5271 2.45845 2.39168 2.72189 3.38189 1.79249 1.0916 1.72162 0.805159 1.1759 0.903929 1.70875 0.580076 174.227 204.259 278.378 146.87 243.822 152.851 71.6755 268.108 119.235 152.99 206.552 269.306 302.833 181.523 268.812 308.766 177.731 202.47 270.161 290.721 178.35 258.18 299.523 172.569 189.158 252.56 270.818 166.776 241.006 279.857 160.381 174.996 232.773 250.02 154.573 223.068 259.907 147.553 161.166 213.829 229.622 142.691 205.454 240.246 135.244 147.758 195.859 209.926 131.146 188.247 220.878 123.572 134.872 178.685 191.128 119.857 171.64 201.889 112.526 122.593 162.515 173.383 109.076 155.901 183.658 102.155 111.073 147.363 156.79 98.9336 141.186 166.42 92.5034 100.259 133.229 141.35 89.4492 127.489 150.251 83.5384 90.3119 120.182 127.122 80.6718 114.829 135.308 75.2847 81.0792 108.167 113.946 72.5666 103.23 121.482 67.6901 72.5694 97.0801 101.843 65.1476 92.493 108.752 60.6699 64.7689 86.892 90.7445 58.2825 82.677 97.0139 54.2323 57.5856 77.5412 80.5378 52.0018 73.6584 86.3057 48.3503 51.0187 68.9312 71.1255 46.2173 65.3293 76.4407 42.8889 44.8894 61.0055 62.4932 40.9321 57.7064 67.3525 37.8926 39.3119 53.7176 54.5371 36.0242 50.6835 59.0492 33.313 34.1928 47.0144 47.2422 31.565 44.2864 51.3543 29.0595 29.4817 40.8494 40.5483 27.4598 38.3391 44.3637 25.1432 25.1843 35.2032 34.5041 23.6388 32.9165 37.9251 21.6336 21.2972 30.0876 28.9607 20.2437 28.029 32.1151 18.3623 17.7144 25.3426 23.9427 17.0738 23.5138 26.7894 15.4305 14.5514 21.1082 19.4092 14.2172 19.3944 22.0146 12.7156 11.5977 17.1802 15.3644 11.6204 15.719 17.6624 10.2796 9.07253 13.6966 11.7494 9.28847 12.3675 13.8903 8.08228 6.77242 10.5405 8.66164 7.14512 9.34364 10.4152 6.13051 4.83383 7.73078 5.93042 5.26688 6.67556 7.43926 4.33824 3.13159 5.22166 3.68011 3.54817 4.26437 4.87704 2.7992 1.74154 2.99024 1.97287 2.01642 2.28504 2.70972 1.52203 0.884645 1.58293 0.704568 1.04592 0.829878 1.34211 0.546243 131.235 343.201 180.284 237.454 342.993 64.2673 126.775 195.175 200.566 219.134 126.084 350.34 175.453 234.415 339.578 187.46 224.373 118.366 332.908 167.288 220.416 319.419 174.644 213.126 110.802 310.93 156.77 205.759 298.638 162.768 198.895 103.314 289.062 145.594 191.874 277.704 151.823 184.183 95.5911 267.009 134.232 177.793 256.323 140.759 169.515 87.849 245.124 122.952 163.552 235.015 129.563 155.109 80.2656 223.813 112.086 149.491 214.214 118.468 141.27 72.9751 203.372 101.717 135.876 194.291 107.743 128.109 66.0898 184.139 91.9875 123.016 175.616 97.5471 115.784 59.6215 166.087 82.9059 110.912 158.07 87.9882 104.29 53.6449 149.429 74.504 99.7138 142.002 79.1151 93.6997 48.0746 133.954 66.6958 89.4001 127.046 70.9402 83.8565 42.9605 119.695 59.5561 79.832 113.332 63.3383 74.8393 38.2727 106.642 52.9908 71.0515 100.717 56.3999 66.5644 33.9126 94.564 46.8834 63.0254 89.1033 50.0183 58.9065 29.9396 83.5295 41.3411 55.6252 78.4755 44.126 51.9042 26.2751 73.3256 36.2211 48.8012 68.6958 38.7254 45.467 22.9312 64.0007 31.5386 42.6117 59.7464 33.7904 39.5369 19.8238 55.3931 27.1735 36.8634 51.487 29.2461 34.0864 16.989 47.52 23.221 31.6037 43.9691 25.0646 29.1199 14.3768 40.3316 19.6243 26.8262 37.1327 21.2404 24.6037 12.0563 33.8593 16.3733 22.5064 30.924 17.8149 20.5042 9.92198 27.9247 13.4196 18.5626 25.2793 14.6615 16.7832 8.00222 22.6144 10.7294 15.0031 20.2764 11.8343 13.4385 6.26437 17.7862 8.35428 11.8111 15.7496 9.29868 10.4571 4.76532 13.6066 6.25883 9.04694 11.8503 7.06777 7.82273 3.41904 9.90606 4.48518 6.5755 8.44353 5.10127 5.62905 2.31632 6.82818 2.96157 4.52276 5.61187 3.49165 3.73552 1.43673 4.25968 1.80948 2.81136 3.3792 2.14035 2.24572 0.788221 2.29732 0.944047 1.50213 1.78758 1.17656 1.17087 0.410892 1.16241 0.364039 0.773626 0.570991 0.618635 0.369146 120.321 265.944 180.331 104.248 141.48 58.1848 104.248 107.845 95.6732 78.1859 114.357 46.0634 118.657 170.923 119.365 226.577 179.325 68.9964 108.214 35.3615 78.1164 89.4154 104.449 150.178 113.814 210.322 169.833 61.6942 102.049 31.5966 72.3422 83.5565 101.22 140.991 106.538 197.354 161.122 60.4741 98.0105 30.767 69.064 80.1344 96.991 132.285 101.053 184.703 152.346 58.6939 92.5783 29.7475 65.0804 77.4204 91.0148 122.848 95.2965 171.123 142.194 55.6819 85.9291 28.184 60.3138 73.7918 83.981 112.736 88.7181 157.041 130.963 51.8512 78.8071 26.2359 55.2656 69.1594 76.6513 102.595 81.6047 143.048 119.505 47.6216 71.6791 24.0801 50.2472 63.8481 69.4977 92.9233 74.3576 129.523 108.209 43.3306 64.7476 21.8987 45.4137 58.3195 62.5903 83.6853 67.2076 116.611 97.3931 39.0753 58.1728 19.7414 40.8396 52.771 56.1158 75.1018 60.3657 104.418 87.2161 35.0176 51.9919 17.6844 36.527 47.4109 50.0411 67.059 53.9442 93.025 77.7671 31.1986 46.2029 15.7337 32.4915 42.3772 44.3754 59.5962 47.9742 82.4002 68.971 27.6175 40.8217 13.9061 28.7289 37.6757 39.1594 52.6645 42.4406 72.6118 60.8801 24.3366 35.8849 12.2438 25.2898 33.325 34.3271 46.2686 37.3173 63.5565 53.4085 21.2811 31.3261 10.6859 22.102 29.2965 29.9032 40.4014 32.6633 55.2275 46.5642 18.4871 27.1041 9.26307 19.1463 25.6218 25.8238 34.9481 28.3449 47.576 40.3532 15.9405 23.2664 7.98274 16.4677 22.207 22.0694 29.982 24.4603 40.6022 34.6694 13.5844 19.7545 6.78571 14.0037 19.138 18.6844 25.4618 20.9405 34.2678 29.5766 11.4664 16.5615 5.71557 11.7717 16.3332 15.5903 21.3363 17.7573 28.5479 24.9762 9.53418 13.7173 4.74432 9.76374 13.8138 12.8429 17.6821 14.9376 23.4212 20.8656 7.82347 11.1443 3.86995 7.94681 11.5743 10.35 14.3655 12.3875 18.829 17.2581 6.27317 8.84399 3.07569 6.31253 9.56336 8.17077 11.4591 10.1921 14.8063 14.0169 4.93392 6.8688 2.40246 4.89123 7.82035 6.31752 8.89281 8.27569 11.4162 11.3017 3.82876 5.19111 1.85119 3.71255 6.30033 4.68326 6.72136 6.63539 8.47048 8.90427 2.82189 3.74138 1.34333 2.66223 4.98771 3.33316 4.90044 5.25096 6.04014 6.94819 2.01426 2.55409 0.935114 1.79869 3.86315 2.24124 3.38168 4.12099 4.16331 5.34063 1.37767 1.67217 0.622264 1.1436 2.96519 1.46014 2.27615 3.18914 2.85563 3.99832 0.938805 1.06796 0.410233 0.703736 2.25771 0.955422 1.51459 2.3947 2.09837 2.93272 0.661918 0.791039 0.297689 0.536118 1.66318 0.737308 1.12722 1.65339 1.59754 1.92884 0.498879 0.644553 0.243958 0.466633 1.18332 0.584964 0.884349 0.94245 1.0901 1.00088 0.362289 0.470526 0.184369 0.362887 0.745704 0.38976 0.589198 0.519651 0.603538 0.326753 0.211242 0.185592 0.103603 0.185592 0.400642 0.081989 0.182095 67.3667 145.647 92.2196 63.5508 80.8088 51.8836 47.2694 65.7308 27.3798 87.9129 66.5221 139.014 111.102 40.6759 66.8209 51.5497 96.3412 70.9041 133.446 112.471 38.4152 64.982 52.738 91.7308 70.6522 127.63 110.534 38.9394 64.4921 52.95 87.5354 70.1356 124.506 107.916 39.9698 63.8494 53.6383 84.2182 68.412 120.116 103.445 39.7498 61.6331 53.1908 79.9461 65.2019 113.531 97.2627 38.2009 58.0407 51.1903 74.6322 60.9995 105.48 90.1654 35.7655 53.6639 48.1061 68.7272 56.2817 96.6824 82.6163 32.8823 48.9822 44.4704 62.6312 51.4117 87.8024 75.1724 29.9025 44.3154 40.6471 56.6426 46.7159 79.1902 68.0702 26.9522 39.8236 36.8972 50.9329 42.2488 71.0734 61.422 24.1765 35.6465 33.312 45.6025 38.0481 63.4789 55.2234 21.6082 31.7432 29.9728 40.6247 34.2109 56.479 49.5433 19.2122 28.1817 26.8903 36.0827 30.6875 50.041 44.3412 17.0442 24.8527 24.0857 31.8458 27.4488 44.1362 39.5964 15.0313 21.8556 21.4708 28.0283 24.514 38.775 35.2801 13.1916 19.1126 19.1076 24.5484 21.8241 33.8816 31.3062 11.5592 16.6265 16.9724 21.3558 19.4177 29.5045 27.7931 10.0554 14.3897 15.0172 18.5552 17.2124 25.5465 24.5013 8.72807 12.385 13.2781 15.9705 15.219 22.0033 21.5677 7.53356 10.5997 11.6777 13.6793 13.4072 18.8283 18.9291 6.45767 9.01604 10.2311 11.6854 11.7789 16.0987 16.3853 5.54562 7.59936 8.98141 9.84226 10.2197 13.6147 14.2279 4.68715 6.38928 7.71403 8.31854 8.89092 11.5014 12.1869 3.96736 5.29972 6.68213 6.90993 7.59613 9.56295 10.2929 3.27563 4.3601 5.65382 5.71541 6.36436 7.89162 8.49382 2.71854 3.55697 4.7413 4.65408 5.18442 6.37196 6.77881 2.20318 2.80519 3.86457 3.66793 4.0387 4.93021 5.07341 1.68146 2.10524 3.01488 2.73093 2.91252 3.48609 3.47644 1.2031 1.41347 2.17489 1.81216 1.79755 2.07884 1.78408 0.720101 0.726372 1.37458 0.906069 0.777457 0.991598 0.528612 0.323174 0.30945 0.584409 0.321841 27.4882 74.0541 57.9395 31.994 41.5624 20.5917 23.1115 28.6888 13.5326 47.109 46.7937 75.2001 84.2571 19.9287 37.7206 32.6189 57.9732 58.5429 88.5354 93.3451 25.9336 43.7956 42.308 62.0838 61.0847 92.0333 94.6458 29.1412 46.7079 45.218 62.9877 61.1935 93.1196 93.1033 30.8488 47.7069 46.2447 62.5266 59.7383 91.7269 89.5471 31.0798 46.9631 45.7921 60.6482 57.0564 88.0471 84.5584 30.1615 44.8561 44.1169 57.5054 53.5649 82.7868 78.7645 28.4586 41.9849 41.577 53.6718 49.6958 76.7688 72.7409 26.4432 38.7395 38.6536 49.4861 45.7656 70.4652 66.832 24.2739 35.4354 35.5986 45.2934 42.0386 64.3684 61.2252 22.1781 32.2887 32.6669 41.2971 38.5249 58.659 56.0497 20.19 29.3343 29.902 37.5812 35.2936 53.2989 51.2534 18.3526 26.5701 27.3537 34.0867 32.3135 48.3832 46.8969 16.6583 24.0506 24.9674 30.8999 29.6292 43.9139 42.8765 15.1095 21.7678 22.8242 27.9963 27.1241 39.803 39.2037 13.7021 19.6791 20.8423 25.3448 24.8348 36.056 35.7911 12.4145 17.7528 19.0633 22.9344 22.7123 32.654 32.6658 11.2462 16.0062 17.3923 20.7097 20.7584 29.5043 29.7192 10.1661 14.4173 15.8589 18.6678 18.921 26.6134 26.9442 9.17166 12.9403 14.4114 16.7527 17.16 23.9268 24.3757 8.25346 11.6107 13.0402 15.0524 15.4993 21.4666 21.9149 7.41324 10.3665 11.7721 13.4517 13.921 19.1591 19.5903 6.62591 9.1534 10.5596 11.8861 12.3625 16.8703 17.2829 5.79931 8.03441 9.35162 10.4699 10.8804 14.8419 15.0583 5.10586 7.01354 8.24307 9.13348 9.42708 12.8281 12.8833 4.40059 6.00254 7.1259 7.79643 7.96975 10.8466 10.758 3.71963 5.0359 6.02065 6.51091 6.55564 8.88099 8.69148 3.05511 4.06171 4.975 5.26235 5.20466 7.00655 6.66175 2.39304 3.08843 3.96149 3.97291 3.80936 5.10804 4.63774 1.74244 2.20414 2.9018 2.79834 2.48425 3.27639 2.54549 1.13702 1.22178 1.9203 1.49698 0.993955 1.39044 0.65677 0.461305 0.430873 0.811048 0.443431 30.2013 30.1956 70.9984 11.0129 21.5178 32.4827 8.85712 22.5866 5.43552 35.4921 64.2609 74.0759 107.728 21.5996 37.0885 42.7002 56.4813 77.4176 94.5255 117.55 29.901 45.6954 54.4008 64.0421 79.0482 99.6751 116.54 32.8884 48.2937 57.222 65.3279 76.6474 99.0029 111.57 33.3582 48.1432 56.4297 63.9465 72.5829 95.4337 104.996 32.4859 46.4586 53.9536 61.1061 67.8145 90.1888 97.6203 30.836 43.9073 50.689 57.4211 62.7513 84.1051 90.1086 28.8082 40.886 47.0636 53.3676 57.7572 77.7527 82.8106 26.6311 37.7666 43.3802 49.2592 53.0052 71.5574 75.9175 24.5089 34.734 39.8483 45.3015 48.5544 65.745 69.5204 22.5331 31.9104 36.5448 41.6121 44.5134 60.3459 63.7286 20.667 29.2734 33.4886 38.1932 40.7788 55.4243 58.3715 18.9899 26.9109 30.6986 35.1163 37.4214 50.9467 53.5466 17.4442 24.7075 28.186 32.2783 34.325 46.8266 49.0703 16.0431 22.7123 25.8678 29.6499 31.4622 43.0222 44.9644 14.7335 20.8588 23.7126 27.2658 28.8417 39.5522 41.1852 13.5541 19.1589 21.7446 25.0338 26.3919 36.2778 37.6396 12.4235 17.5515 19.9005 22.942 24.1089 33.2223 34.2503 11.3962 16.0797 18.1975 20.978 21.9211 30.3569 31.1215 10.4032 14.6424 16.5577 19.1263 19.8514 27.5977 28.1318 9.45056 13.3277 14.9957 17.3908 17.9203 24.9918 25.2528 8.56081 12.0273 13.5758 15.6746 16.04 22.44 22.4851 7.68932 10.7926 12.1589 14.0434 14.2273 19.9861 19.8433 6.87027 9.5555 10.8177 12.4306 12.4476 17.5858 17.2395 6.03726 8.34711 9.4827 10.849 10.7379 15.1986 14.7026 5.19518 7.16298 8.18127 9.29011 9.04986 12.8477 12.2538 4.38759 5.99295 6.89848 7.76629 7.44618 10.5751 9.8617 3.61426 4.88571 5.67391 6.28853 5.84732 8.36467 7.55988 2.85509 3.80334 4.47799 4.8549 4.34578 6.20693 5.28841 2.14108 2.71534 3.36095 3.40163 2.8001 4.04575 2.91979 1.39353 1.60013 2.20275 1.90743 1.15294 1.64649 0.774426 0.569325 0.508248 0.945606 0.506018 73.9475 74.8145 125.551 29.0611 42.2068 71.4781 28.672 57.2787 15.3316 61.8737 102.732 121.642 161.335 38.3964 59.0401 71.204 85.9007 113.098 139.383 166.739 45.1749 65.8988 80.4265 91.5019 111.116 139.768 160.564 46.2858 65.9512 80.4151 89.5836 105.164 133.843 150.735 44.7913 63.1863 76.8534 84.9354 98.0179 125.57 139.866 42.1907 59.2855 71.9707 79.3244 90.527 116.507 128.772 39.2333 54.9642 66.67 73.3355 83.0801 107.255 117.933 36.145 50.5729 61.2933 67.3787 75.9518 98.2947 107.622 33.1312 46.3564 56.0855 61.6924 69.2224 89.8956 98.0507 30.31 42.3976 51.1724 56.4085 63.0119 82.085 89.1918 27.6841 38.742 46.62 51.4988 57.302 74.9835 81.1271 25.2761 35.4461 42.4291 47.0997 52.0925 68.4936 73.708 23.117 32.3707 38.6222 42.9867 47.2846 62.5144 66.9726 21.096 29.6256 35.0867 39.296 42.948 57.1041 60.6804 19.2961 27.1111 31.9435 35.8802 38.8978 52.1212 55.0229 17.6323 24.769 28.9809 32.7539 35.2182 47.5094 49.734 16.0744 22.636 26.2853 29.8762 31.8009 43.2521 44.8994 14.6591 20.6163 23.7867 27.1735 28.6529 39.2977 40.3672 13.3341 18.7477 21.4843 24.6615 25.6996 35.528 36.1576 12.0445 16.969 19.305 22.2876 22.9534 31.9939 32.2158 10.871 15.2817 17.3047 20.0386 20.4163 28.6964 28.5652 9.76247 13.7052 15.4241 17.9076 17.9889 25.5264 25.0711 8.70028 12.179 13.6333 15.8755 15.7457 22.5353 21.832 7.66389 10.7477 11.941 13.9736 13.5923 19.5826 18.7014 6.68828 9.30226 10.3699 12.0621 11.5691 16.8159 15.7586 5.73548 7.9498 8.85383 10.27 9.6253 14.1098 12.9052 4.82367 6.62359 7.41216 8.50793 7.75967 11.5292 10.2469 3.94148 5.36823 5.9854 6.83467 6.0112 8.99553 7.72394 3.07235 4.11558 4.6577 5.22631 4.35478 6.62932 5.28822 2.2839 2.95502 3.41985 3.65534 2.75175 4.25661 3.0005 1.47622 1.73132 2.21192 2.06185 1.25289 1.83558 0.864988 0.621604 0.581793 1.01563 0.587918 127.845 147.993 197.835 58.1377 79.018 119.018 55.4437 101.209 29.531 106.319 151.155 188.399 227.424 60.1543 89.5105 107.399 127.722 154.898 198.987 224.775 64.5501 93.2661 111.532 128.678 147.885 192.306 212.77 63.2895 90.3093 107.484 122.719 138.5 180.792 198.374 59.9453 84.9613 101.257 114.731 128.622 168.035 183.442 55.8841 78.8819 94.3101 106.203 118.509 154.913 168.437 51.5887 72.6051 87.0514 97.604 108.57 141.98 153.853 47.31 66.4587 79.8147 89.2396 98.9437 129.588 139.961 43.1956 60.5971 72.8145 81.3109 89.8865 117.877 126.957 39.2889 55.1051 66.1792 73.9084 81.4419 107.038 114.863 35.6798 50.0396 60.0056 67.0517 73.6253 97.0303 103.712 32.359 45.3966 54.2762 60.7638 66.3464 87.849 93.4816 29.3245 41.1205 48.9917 54.9979 59.7801 79.4334 84.0909 26.5047 37.227 44.1766 49.74 53.6899 71.7695 75.4687 24.0083 33.6499 39.7521 44.848 48.1299 64.6532 67.5862 21.6107 30.3663 35.6624 40.459 43.0147 58.2042 60.3232 19.4888 27.3592 31.9587 36.3495 38.311 52.1632 53.6004 17.4865 24.5659 28.5329 32.5794 33.9744 46.6807 47.471 15.6688 21.9964 25.3693 29.1062 30.0211 41.5401 41.8286 13.9506 19.5989 22.4636 25.8771 26.3427 36.8303 36.5959 12.4 17.3842 19.7823 22.8793 22.9467 32.4459 31.8062 10.9392 15.3647 17.2971 20.1418 19.8644 28.3808 27.3667 9.60814 13.416 15.0615 17.5195 16.979 24.5718 23.3254 8.31867 11.6155 12.9132 15.1303 14.3925 21.0773 19.637 7.13755 9.93711 10.9792 12.8895 11.9774 17.7266 16.1418 6.03088 8.3342 9.1922 10.7432 9.72264 14.6103 12.9496 4.98774 6.84572 7.51731 8.75937 7.68286 11.7031 10.0661 3.98401 5.41364 5.97561 6.9222 5.79969 8.97637 7.32108 3.06468 4.08184 4.55982 5.14536 3.98951 6.35915 4.75894 2.18737 2.82185 3.18387 3.46781 2.37877 3.9411 2.70521 1.36908 1.67149 1.9449 1.97958 1.20868 1.87205 0.866337 0.653906 0.626831 0.98756 0.618142 200.201 240.441 283.307 93.1056 122.671 185.615 89.2733 157.655 47.34 160.612 205.129 267.298 297.9 85.7615 124.402 148.507 174.961 197.851 263.518 285.591 85.3012 123.101 143.672 168.911 186.181 248.656 268.565 81.4469 117 135.805 158.933 174.34 232.49 250.416 76.67 109.491 127.633 148.043 162.09 215.924 231.663 71.4172 101.548 118.965 136.962 149.532 199.095 212.72 65.9257 93.3658 109.924 125.78 136.895 182.313 194.072 60.3916 85.3314 100.711 114.835 124.606 166.037 176.24 55.0061 77.6053 91.7005 104.378 112.928 150.677 159.401 49.922 70.3587 83.1633 94.5673 101.972 136.272 143.717 45.1577 63.5937 75.1439 85.4186 91.8251 122.939 129.184 40.7344 57.3624 67.7012 76.9809 82.4144 110.562 115.813 36.6363 51.5682 60.8161 69.2046 73.7894 99.328 103.522 32.9249 46.3089 54.5162 62.0649 65.823 88.8718 92.1983 29.4697 41.4388 48.6702 55.4828 58.537 79.3475 81.8351 26.3245 37.003 43.3126 49.4626 51.8294 70.5656 72.3007 23.4153 32.904 38.4088 43.931 45.689 62.5573 63.6055 20.788 29.1668 33.9052 38.8388 40.0695 55.1235 55.5254 18.3222 25.6924 29.7879 34.1562 34.8335 48.3416 48.1931 16.0872 22.5688 25.9605 29.9252 30.1446 42.152 41.4867 14.0425 19.635 22.538 25.9606 25.7941 36.3627 35.3371 12.1404 16.9606 19.3392 22.3351 21.8485 31.1913 29.7809 10.4404 14.5502 16.4542 19.0903 18.2585 26.3941 24.7037 8.85212 12.3032 13.8207 16.0555 15.016 22.0412 20.1337 7.42614 10.2837 11.4544 13.328 12.125 18.1182 16.0511 6.13371 8.4243 9.31983 10.8335 9.53503 14.5108 12.4705 4.9167 6.72672 7.35617 8.59988 7.23527 11.2769 9.21141 3.84286 5.19239 5.68715 6.56221 5.16771 8.36237 6.41359 2.86624 3.80251 4.13268 4.74425 3.4229 5.66565 4.01808 1.95302 2.46061 2.78033 3.01702 1.90572 3.28543 2.12128 1.11997 1.39294 1.58611 1.64778 0.947078 1.66386 0.722635 0.594173 0.608675 0.780198 0.570257 138.059 382.204 187.79 143.681 174.685 69.6591 144.958 144.958 75.2994 225.694 130.629 349.017 177.508 109.714 159.84 125.23 222.235 117.62 325.896 165.674 104.958 153.041 113.56 209.698 109.442 306.604 155.424 100.301 145.08 106.379 197.141 102.721 287.989 145.3 94.8082 136.084 100.28 184.135 95.7501 268.144 134.743 88.4862 126.328 93.6754 170.51 88.4146 247.371 123.938 81.7079 116.204 86.602 156.622 81.0201 226.432 113.211 74.7732 106.101 79.3729 142.892 73.741 205.972 102.833 67.9926 96.3453 72.2528 129.697 66.7915 186.523 93.0239 61.5562 87.1015 65.4592 117.237 60.2608 168.236 83.7624 55.5059 78.4806 59.0615 105.538 54.1406 151.233 75.2517 49.9059 70.4923 53.069 94.7665 48.5626 135.591 67.39 44.7067 63.1196 47.5803 84.8205 43.3509 121.121 60.1312 39.9421 56.3491 42.4989 75.6863 38.5942 107.86 53.448 35.5681 50.1229 37.8586 67.2673 34.2194 95.6779 47.3151 31.5319 44.3944 33.5698 59.528 30.1606 84.4184 41.6877 27.8266 39.1428 29.6014 52.4447 26.4735 74.1644 36.5262 24.4378 34.3323 26.0136 45.9607 23.0988 64.8038 31.8285 21.3616 29.9217 22.7077 39.9975 19.9956 56.0738 27.4489 18.4578 25.8429 19.6541 34.4926 17.133 48.1753 23.4941 15.8765 22.1684 16.8721 29.5251 14.5419 40.9792 19.8509 13.5119 18.8199 14.3593 24.9764 12.1908 34.4422 16.5914 11.3672 15.7733 12.051 20.8577 10.0454 28.4772 13.6014 9.40615 12.979 9.97348 17.1024 8.09274 23.0943 10.927 7.66146 10.5107 8.07677 13.7603 6.39641 18.3625 8.54859 6.10163 8.32083 6.42018 10.7916 4.86997 14.1254 6.4691 4.70305 6.35549 4.92707 8.17863 3.54195 10.4255 4.63226 3.50181 4.68139 3.62625 5.89614 2.40637 7.21418 3.09656 2.45061 3.20607 2.51443 3.96008 1.49048 4.58804 1.89279 1.57059 2.00726 1.60288 2.44187 0.835229 2.50716 0.992235 0.866087 1.0347 0.9149 1.24052 0.446976 1.27358 0.391259 0.426857 0.447647 0.434672 0.399744 
CELL_DATA 12288
SCALARS stress float 1
LOOKUP_TABLE default
49.736 50.371 32.2706 35.8159 64.3107 54.5868 27.006 43.3171 34.5639 41.328 37.3245 31.1239 24.518 38.9242 30.5317 36.4317 35.1808 30.171 24.7537 35.5339 28.3152 33.1212 34.1948 30.5453 25.0515 32.4491 27.0448 30.4774 32.5565 29.999 24.5888 29.5137 25.7047 28.011 30.378 28.5996 23.4507 26.753 24.0933 25.6334 28.0398 26.7273 21.8416 24.165 22.2602 23.3314 25.6484 24.6227 20.0467 21.7701 20.356 21.1268 23.2891 22.4366 18.1753 19.5432 18.4435 19.0339 21.0125 20.292 16.3455 17.4673 16.5855 17.0364 18.8318 18.19 14.5824 15.5384 14.8358 15.2068 16.7888 16.2195 12.9744 13.7475 13.1915 13.4644 14.8647 14.3815 11.4527 12.0851 11.6505 11.8697 13.0778 12.6628 10.0541 10.5324 10.2274 10.3782 11.4353 11.0854 8.78267 9.12992 8.93661 9.02154 9.93327 9.62057 7.59444 7.84948 7.74378 7.76441 8.51948 8.28659 6.53599 6.66107 6.67693 6.63045 7.25459 7.0595 5.56023 5.59122 5.67635 5.58897 6.0854 5.95176 4.70327 4.60695 4.77841 4.65129 5.03743 4.94164 3.91325 3.73785 3.99202 3.80894 4.11618 4.05819 3.20239 2.98624 3.27347 3.0525 3.27126 3.2484 2.58537 2.30888 2.64875 2.39518 2.51277 2.54617 2.07976 1.71789 2.09779 1.86064 1.88003 1.91696 1.62367 1.22296 1.6527 1.34844 1.34343 1.42206 1.24646 0.839926 1.26375 0.971128 0.870905 0.991139 0.940755 0.557809 0.959433 0.671471 0.519081 0.676338 0.69417 0.37711 0.736881 0.464838 0.275163 0.454952 0.493163 0.299065 0.538653 0.321455 0.191307 0.325935 0.314496 0.268573 0.383768 0.242015 0.197919 0.241503 0.166281 0.216262 0.235977 0.160829 0.181154 0.182749 0.0967429 0.118816 0.115041 0.118505 0.106639 0.097028 29.8521 26.5875 21.2245 20.6975 39.3235 33.7611 14.1016 27.301 18.2012 24.9202 24.0259 18.8607 14.9013 24.2117 18.0868 23.1095 22.2132 18.3846 16.5379 22.4436 18.3035 21.3632 22.037 19.5675 17.6451 21.4441 18.4614 20.3638 22.1197 20.5872 17.8721 20.4034 18.2349 19.4335 21.6509 20.6729 17.3822 19.1128 17.5176 18.3008 20.6081 19.9586 16.4122 17.6367 16.4781 16.9677 19.2149 18.71 15.1964 16.1097 15.2417 15.5634 17.6304 17.2248 13.8952 14.598 13.9525 14.1452 16.0112 15.669 12.6071 13.114 12.6543 12.7694 14.4116 14.1239 11.3642 11.7448 11.4239 11.4593 12.8985 12.6521 10.2024 10.4523 10.2645 10.234 11.4931 11.3026 9.12581 9.27355 9.18004 9.10417 10.1728 10.0296 8.14847 8.16402 8.21733 8.06423 8.97357 8.87052 7.24303 7.171 7.30556 7.11154 7.87779 7.81739 6.4236 6.26222 6.47491 6.25701 6.85896 6.85425 5.7034 5.43726 5.72734 5.4681 5.93865 5.9813 5.01785 4.67788 5.05859 4.75245 5.12137 5.19064 4.40793 4.04064 4.44238 4.10033 4.3789 4.48588 3.85395 3.44422 3.87876 3.53803 3.69982 3.84363 3.38101 2.91664 3.3896 3.04134 3.11146 3.28282 2.92882 2.46816 2.94917 2.58777 2.60101 2.78871 2.5244 2.07455 2.54824 2.20373 2.1707 2.3699 2.14593 1.73953 2.18263 1.86052 1.76992 1.98928 1.83241 1.44471 1.86863 1.56628 1.44348 1.6448 1.52624 1.18659 1.56621 1.27895 1.15604 1.3402 1.2338 0.961942 1.29022 1.03466 0.92502 1.0855 0.937536 0.742081 1.00513 0.799056 0.696692 0.840379 0.668164 0.541568 0.734059 0.569077 0.498471 0.57542 0.367708 0.323194 0.446488 0.341476 0.267852 0.345795 0.13235 0.180999 0.187197 0.133263 0.125527 0.164725 14.1148 14.6947 11.3556 10.6614 21.91 18.5645 7.04187 15.5433 8.65007 13.7922 13.0488 9.13216 11.735 15.5946 12.535 15.0002 14.0134 12.0444 14.0568 15.5193 14.3161 15.0273 15.1372 14.3098 15.0038 15.3931 14.9737 14.9536 15.8521 15.553 15.0907 14.9999 14.9553 14.6333 15.9212 15.8588 14.6223 14.3008 14.4617 14.0056 15.4469 15.4774 13.8212 13.3916 13.6694 13.1637 14.5952 14.6624 12.8538 12.3841 12.7208 12.2046 13.5713 13.6307 11.8318 11.3514 11.7474 11.2358 12.4612 12.5268 10.8432 10.3513 10.7665 10.2643 11.349 11.4255 9.92139 9.41215 9.88516 9.36731 10.2953 10.3908 9.06099 8.52941 9.02526 8.51814 9.30684 9.42593 8.2659 7.72557 8.24553 7.73525 8.40538 8.54022 7.54759 6.97237 7.52006 7.0314 7.57696 7.74187 6.88748 6.32221 6.87501 6.3931 6.81581 6.99507 6.28318 5.70429 6.28299 5.81572 6.11662 6.31134 5.72837 5.14806 5.7191 5.25011 5.4883 5.6928 5.21635 4.63873 5.22266 4.75797 4.91202 5.14203 4.73143 4.17177 4.74507 4.28778 4.39793 4.61309 4.2761 3.73351 4.29187 3.86458 3.90789 4.13792 3.85233 3.34481 3.89175 3.47503 3.48307 3.70641 3.4444 2.97602 3.47545 3.10347 3.07292 3.28787 3.05783 2.64501 3.10407 2.75067 2.69215 2.9044 2.67698 2.30398 2.73215 2.41157 2.33878 2.5397 2.31726 2.00198 2.37024 2.07699 2.02483 2.19424 1.94922 1.68765 2.01415 1.76673 1.7162 1.85245 1.59539 1.38322 1.66982 1.46488 1.40081 1.53129 1.25679 1.08469 1.3336 1.15984 1.07396 1.20312 0.913422 0.775222 0.994396 0.837892 0.786445 0.884644 0.575519 0.501435 0.647349 0.523822 0.476186 0.561067 0.203054 0.235741 0.281111 0.204667 0.204331 0.24176 5.5993 7.09523 4.23113 4.43729 8.25513 7.28171 11.5944 12.8874 11.7848 12.7865 9.9878 9.45602 16.5943 15.1212 16.531 15.6677 13.402 13.875 18.1602 15.6344 17.9531 16.305 14.8294 15.6576 18.1389 15.4155 17.925 16.1146 15.2114 16.1076 17.4662 14.8007 17.275 15.4769 14.9641 15.8122 16.4603 13.9586 16.2939 14.5983 14.3194 15.0993 15.3066 13.0154 15.191 13.5975 13.4683 14.1629 14.1172 12.0387 14.019 12.5611 12.5189 13.1393 12.9672 11.0982 12.8996 11.5768 11.557 12.1231 11.888 10.211 11.85 10.6499 10.6285 11.1359 10.8942 9.38815 10.8775 9.78753 9.76377 10.2223 9.99228 8.63472 9.96923 8.99655 8.97501 9.39746 9.1765 7.9427 9.17525 8.27761 8.22819 8.64087 8.43802 7.30936 8.43066 7.61082 7.56414 7.93129 7.73901 6.75342 7.74903 7.00651 6.94774 7.30234 7.09416 6.19039 7.11755 6.43854 6.36677 6.71059 6.50326 5.67803 6.52341 5.90868 5.84558 6.16069 5.95607 5.21051 5.97919 5.42235 5.34695 5.65628 5.43092 4.75739 5.45585 4.93561 4.8802 5.14809 4.9184 4.32102 4.96047 4.51257 4.42109 4.69686 4.43864 3.92896 4.4946 4.08326 4.00993 4.23916 3.97332 3.52685 4.03062 3.65091 3.60002 3.81497 3.53661 3.14595 3.60248 3.26366 3.19815 3.40738 3.09415 2.76636 3.15538 2.86288 2.80875 2.99754 2.66196 2.39527 2.75172 2.47604 2.43318 2.6059 2.23535 2.00632 2.31284 2.0907 2.06379 2.20748 1.8269 1.67378 1.91666 1.72587 1.68743 1.81214 1.44168 1.31961 1.52803 1.36323 1.34282 1.43969 1.06158 0.983125 1.13841 0.989897 1.00138 1.082 0.671815 0.628542 0.759288 0.631657 0.645209 0.714803 0.234657 0.25614 0.333776 0.255773 0.269128 0.289758 17.8541 12.1901 11.9755 11.7662 9.93307 11.3466 21.1813 19.9654 22.2815 20.926 16.5566 17.5531 25.0825 21.9746 25.5478 23.4923 19.9089 21.2325 25.6478 21.7963 25.7702 23.343 20.5342 21.9592 24.7462 20.7751 24.7563 22.2597 19.9704 21.3287 23.2711 19.4317 23.2806 20.8546 18.9056 20.183 21.6039 17.9921 21.6367 19.3065 17.6367 18.7992 19.8694 16.5534 19.9334 17.7692 16.2939 17.352 18.1851 15.1746 18.2668 16.2924 14.9875 15.9392 16.5949 13.9012 16.6767 14.877 13.738 14.5971 15.1265 12.7007 15.2274 13.594 12.5791 13.359 13.7722 11.6358 13.8716 12.4053 11.5393 12.2193 12.5248 10.6256 12.6246 11.3322 10.5635 11.1781 11.4124 9.7376 11.5094 10.3415 9.68623 10.2237 10.3713 8.90164 10.4519 9.43567 8.8818 9.36851 9.43486 8.15817 9.52743 8.61282 8.14511 8.5895 8.56061 7.44411 8.64546 7.85291 7.44885 7.83182 7.76176 6.77931 7.84848 7.12338 6.81414 7.1602 7.00764 6.17375 7.1123 6.47794 6.20015 6.5224 6.31877 5.60006 6.4017 5.84759 5.64506 5.91665 5.66047 5.05064 5.74195 5.26819 5.09068 5.32843 5.05517 4.53058 5.12743 4.7102 4.58919 4.80397 4.48297 4.03553 4.55915 4.18879 4.10475 4.29681 3.92553 3.55528 4.00707 3.68683 3.63901 3.80383 3.38312 3.09333 3.47996 3.2115 3.17973 3.33158 2.89709 2.66942 3.00674 2.75176 2.73609 2.87828 2.4304 2.23656 2.51203 2.31427 2.29498 2.39458 1.95486 1.82132 2.02785 1.87214 1.88505 1.9684 1.5206 1.42797 1.61859 1.47222 1.4707 1.55357 1.08422 1.0156 1.19114 1.06341 1.09457 1.1547 0.682462 0.654372 0.775707 0.67177 0.714204 0.751568 0.258527 0.278373 0.353915 0.308615 0.293821 0.329876 33.8775 23.6468 23.7899 23.3778 23.7921 24.8283 32.9076 30.9392 35.2204 32.5213 26.8828 27.9854 34.9336 31.6076 36.1928 33.7946 29.1115 30.4637 34.3979 30.3635 35.0265 32.3834 28.7253 30.1854 32.7321 28.4611 33.0965 30.3494 27.2585 28.6943 30.5943 26.3596 30.8852 28.1516 25.432 26.7919 28.2951 24.2377 28.5673 25.9421 23.4842 24.75 25.949 22.1921 26.2296 23.7676 21.5429 22.7088 23.6833 20.2418 23.9617 21.6855 19.6684 20.718 21.5321 18.4178 21.7977 19.7289 17.9186 18.8751 19.5116 16.7283 19.7713 17.9062 16.2931 17.1256 17.6589 15.1708 17.9173 16.2358 14.8063 15.5603 15.9463 13.7702 16.1739 14.6982 13.4389 14.1138 14.3809 12.4441 14.6095 13.2725 12.189 12.7898 12.9666 11.2582 13.1521 11.9954 11.0447 11.5624 11.6316 10.1466 11.8173 10.7896 9.99943 10.4594 10.4333 9.13779 10.6097 9.69502 9.03383 9.44352 9.30472 8.21532 9.48936 8.68888 8.15173 8.48535 8.29011 7.36425 8.46204 7.76531 7.29941 7.63473 7.34087 6.56495 7.51875 6.90624 6.56263 6.81687 6.48031 5.81722 6.62706 6.09932 5.84323 6.07204 5.67382 5.12138 5.82471 5.37578 5.17983 5.39446 4.91943 4.48573 5.07343 4.66708 4.56236 4.71035 4.25406 3.88564 4.37198 4.05753 3.98516 4.11502 3.60355 3.33654 3.73211 3.45547 3.41723 3.53968 3.0288 2.82262 3.14628 2.90739 2.90288 2.99603 2.47726 2.32075 2.56032 2.39648 2.41412 2.48665 1.95977 1.84877 2.07184 1.90945 1.93454 2.0064 1.49103 1.41025 1.57187 1.4566 1.49525 1.55133 1.02468 0.993324 1.14186 1.03131 1.07392 1.09699 0.587036 0.605276 0.687308 0.606576 0.668147 0.708723 0.241824 0.304825 0.312061 0.296833 0.284514 0.298827 53.9236 37.99 39.2973 38.9199 40.2163 41.2137 46.1637 43.744 49.8867 46.0882 39.2274 40.1049 45.3778 42.1061 47.525 44.7961 39.2812 40.4932 43.7557 39.6838 44.8881 41.9841 37.7567 39.1462 41.4371 37.0097 42.1478 39.1526 35.5459 36.9682 38.7291 34.2465 39.2933 36.3035 33.0778 34.4606 35.8 31.4858 36.3436 33.4506 30.4937 31.7965 32.8386 28.7737 33.3373 30.629 27.9062 29.0965 29.9094 26.1768 30.3996 27.8905 25.4284 26.5117 27.1347 23.7446 27.605 25.3157 23.0816 24.0657 24.5216 21.4807 24.9737 22.908 20.8805 21.7581 22.0947 19.3828 22.5007 20.6545 18.8612 19.6295 19.851 17.446 20.2339 18.5774 17.0061 17.6839 17.7813 15.6626 18.1519 16.6732 15.2726 15.8787 15.8743 14.0168 16.2333 14.9257 13.7029 14.254 14.1657 12.5229 14.467 13.3187 12.2561 12.7292 12.5509 11.141 12.8413 11.8372 10.9396 11.3567 11.0969 9.88261 11.366 10.4808 9.72934 10.052 9.73557 8.69781 9.99082 9.23537 8.5956 8.88785 8.52896 7.63239 8.75437 8.09619 7.56759 7.83344 7.39615 6.65179 7.58762 7.01106 6.63797 6.83492 6.34853 5.7581 6.5471 6.06387 5.76671 5.94796 5.40643 4.93725 5.59151 5.19053 4.96816 5.11211 4.57247 4.16198 4.70735 4.3633 4.24539 4.35805 3.76926 3.49531 3.91177 3.65081 3.56889 3.66659 3.08074 2.85948 3.2192 2.98221 2.9775 3.04368 2.44742 2.29133 2.55675 2.38513 2.39437 2.46377 1.86226 1.7727 1.98093 1.85097 1.87951 1.91432 1.35993 1.30091 1.46046 1.35701 1.38866 1.41474 0.8979 0.893799 0.997674 0.92384 0.956333 0.993639 0.471827 0.505568 0.578313 0.511063 0.540419 0.553484 0.172535 0.265051 0.247193 0.261019 0.247764 0.244159 87.2815 57.5421 67.4779 65.4739 60.9957 61.1311 59.9384 56.6214 65.1237 58.9137 52.6055 52.89 56.3076 52.3811 58.3318 54.793 49.6787 50.7965 53.9138 49.2909 55.0042 51.627 47.2194 48.6457 51.0118 46.1366 51.8316 48.519 44.4664 45.9347 47.6523 42.8213 48.4687 45.1558 41.4175 42.8502 44.0312 39.3817 44.8264 41.6285 38.2004 39.5421 40.3099 35.9869 41.1118 38.0816 34.9531 36.1926 36.6624 32.7048 37.4623 34.6446 31.784 32.9146 33.1856 29.6088 33.9564 31.347 28.7914 29.7902 29.9092 26.7034 30.6313 28.2824 25.9962 26.8937 26.8554 24.0044 27.546 25.4191 23.3732 24.1761 24.0668 21.5083 24.7082 22.7948 20.9541 21.6476 21.4497 19.2296 22.0531 20.3463 18.7384 19.3552 19.087 17.1095 19.652 18.1176 16.6919 17.2344 16.8992 15.1723 17.4313 16.0448 14.8338 15.3043 14.8792 13.3983 15.3668 14.1736 13.1121 13.5027 13.0605 11.772 13.5151 12.4557 11.5284 11.8613 11.3771 10.2559 11.8102 10.8659 10.0641 10.355 9.82599 8.87491 10.2222 9.38595 8.78085 9.00997 8.42619 7.60244 8.77222 8.06988 7.54288 7.72831 7.14118 6.47443 7.45606 6.85362 6.43334 6.58792 5.97473 5.42914 6.27304 5.73253 5.4283 5.54689 4.88205 4.47613 5.17267 4.72651 4.53618 4.63266 3.95737 3.6245 4.20477 3.81626 3.68157 3.74952 3.09197 2.86888 3.30742 3.00668 2.96544 3.00443 2.35576 2.21276 2.5358 2.28954 2.30042 2.33349 1.69188 1.62125 1.85463 1.67409 1.7223 1.74924 1.12153 1.12364 1.28886 1.15939 1.21628 1.22326 0.681114 0.699589 0.789418 0.710461 0.778667 0.779115 0.32607 0.375374 0.447771 0.394111 0.401327 0.431566 0.164775 0.199485 0.216258 0.183979 0.168571 0.145768 27.4138 48.9135 22.9287 30.7655 52.0973 50.7594 39.8454 44.0336 39.6322 42.5346 47.8158 45.0466 37.0141 42.3804 38.3706 40.5911 45.4042 42.0368 32.9011 39.2862 34.1593 37.4726 41.5337 38.4331 29.7159 35.5436 30.7901 33.9523 37.4119 34.8246 26.9665 31.7605 27.9206 30.4705 33.4129 31.3418 24.4293 28.2486 25.2633 27.2128 29.7642 28.1157 22.0504 25.089 22.8065 24.2752 26.548 25.2048 19.8583 22.3102 20.5044 21.6292 23.6938 22.5825 17.829 19.8176 18.3693 19.278 21.1467 20.2153 15.9428 17.5941 16.4051 17.1143 18.8263 18.0275 14.1773 15.5608 14.5897 15.1735 16.7136 16.018 12.5664 13.7124 12.9225 13.4244 14.7707 14.1618 11.0781 12.0135 11.3852 11.764 12.9649 12.4473 9.71127 10.4821 9.96382 10.2746 11.3056 10.8684 8.43689 9.05719 8.67413 8.90092 9.79784 9.42232 7.27128 7.75367 7.50046 7.64232 8.41262 8.08911 6.22694 6.56868 6.42691 6.50879 7.13981 6.88073 5.24379 5.5029 5.43628 5.46739 5.97264 5.76227 4.40159 4.52394 4.55318 4.53017 4.93418 4.76551 3.62104 3.65014 3.74221 3.69547 3.979 3.86377 2.93866 2.89826 3.04935 2.94854 3.16026 3.07585 2.32651 2.21028 2.43155 2.28788 2.39833 2.35574 1.79975 1.62973 1.88065 1.7191 1.76739 1.7521 1.37386 1.14857 1.44425 1.25874 1.22209 1.23788 1.03022 0.763652 1.07872 0.852915 0.775094 0.827075 0.739295 0.492404 0.789067 0.566624 0.426924 0.510767 0.54776 0.322223 0.596531 0.375036 0.208766 0.306277 0.394254 0.295846 0.448844 0.28657 0.191042 0.255973 0.269984 0.251976 0.311439 0.217507 0.228471 0.245975 0.16831 0.201019 0.218008 0.170993 0.201496 0.204341 0.100192 0.0983729 0.125751 0.110307 0.100354 0.106878 15.3206 21.3927 13.2549 16.0999 22.5662 21.7605 24.05 30.1684 23.4982 27.5059 32.8863 30.3652 23.9501 29.0788 23.621 26.7809 31.2208 28.5222 21.7146 26.3245 21.9666 24.6771 28.0596 25.5478 20.0242 23.945 20.4288 22.6823 25.5943 23.4859 18.5684 21.7762 18.9616 20.7658 23.4049 21.7085 17.1377 19.7357 17.5251 18.8968 21.2909 19.9721 15.7127 17.8002 16.0578 17.1004 19.255 18.2344 14.314 15.9831 14.608 15.395 17.3694 16.5349 12.9728 14.3098 13.2423 13.8227 15.5822 14.906 11.7117 12.7883 11.9227 12.3769 13.9481 13.3765 10.5124 11.3816 10.6971 11.0376 12.4167 11.9546 9.40514 10.0806 9.5785 9.80522 11.0246 10.6299 8.39384 8.90192 8.54953 8.69096 9.72771 9.41261 7.45525 7.81864 7.58921 7.6498 8.54673 8.28881 6.60831 6.83125 6.72726 6.71746 7.46444 7.26269 5.83712 5.94028 5.94677 5.87508 6.46813 6.32419 5.11948 5.13305 5.21179 5.09547 5.55697 5.48407 4.48438 4.39468 4.56438 4.41256 4.74779 4.70904 3.91551 3.74367 3.99089 3.78568 4.02343 4.03208 3.39162 3.16683 3.44862 3.24139 3.37838 3.41195 2.93782 2.65243 2.99903 2.7416 2.803 2.8746 2.53139 2.21903 2.59066 2.31811 2.30182 2.41531 2.18006 1.82872 2.22979 1.94488 1.87629 1.99373 1.84341 1.53796 1.90361 1.64052 1.53885 1.65484 1.55864 1.27156 1.6085 1.35856 1.23159 1.38295 1.29511 1.03828 1.34728 1.12959 0.987811 1.12043 1.04882 0.850066 1.11447 0.90582 0.788801 0.916473 0.817214 0.675779 0.873041 0.708318 0.608007 0.717428 0.575037 0.467477 0.63833 0.498502 0.406866 0.499864 0.325713 0.278509 0.396931 0.293063 0.223586 0.304607 0.120292 0.174765 0.15733 0.129143 0.124328 0.163189 7.49199 11.6186 6.41166 8.73841 12.3062 12.1581 14.9633 18.6154 15.0357 16.8265 19.0493 17.228 16.6126 19.1375 16.9843 18.2272 20.0732 18.1116 15.797 17.8214 16.2106 17.1635 18.7244 17.1859 14.9766 16.4207 15.2874 15.8601 17.3848 16.2725 14.1828 15.1277 14.3747 14.6545 16.1934 15.3965 13.3045 13.9239 13.429 13.5359 14.9955 14.428 12.3488 12.7391 12.4447 12.4121 13.7896 13.3991 11.3931 11.6043 11.4573 11.3378 12.6104 12.3137 10.4632 10.532 10.502 10.3314 11.4635 11.2436 9.5757 9.54953 9.60707 9.39334 10.3929 10.2497 8.75612 8.64312 8.77932 8.52417 9.39451 9.30103 7.98774 7.80292 8.02054 7.72824 8.47116 8.41393 7.28666 7.05368 7.30842 7.01287 7.61258 7.59773 6.66898 6.35904 6.68709 6.36089 6.84108 6.86055 6.07236 5.73372 6.09508 5.76283 6.12063 6.18081 5.53739 5.16096 5.57468 5.21527 5.47302 5.57288 5.05279 4.64352 5.07375 4.71538 4.88853 5.02204 4.57987 4.1784 4.61665 4.27305 4.36981 4.51007 4.15704 3.74802 4.19612 3.83914 3.89154 4.05181 3.76715 3.36332 3.81805 3.45766 3.4512 3.61597 3.40038 2.99389 3.43587 3.10703 3.0617 3.23029 3.04439 2.68302 3.07546 2.7777 2.68475 2.86502 2.70869 2.36685 2.75768 2.45454 2.36692 2.52747 2.35284 2.07399 2.42823 2.16362 2.07522 2.21683 2.05355 1.79596 2.12516 1.87384 1.77143 1.92566 1.72513 1.51711 1.80387 1.6017 1.51015 1.62576 1.41562 1.23825 1.48894 1.29948 1.21647 1.34365 1.11062 0.981771 1.19713 1.02762 0.955578 1.05122 0.802808 0.703449 0.894182 0.730068 0.68936 0.765823 0.477732 0.445528 0.57262 0.454286 0.411336 0.483632 0.169998 0.216749 0.24577 0.189176 0.193311 0.206588 4.94103 8.28192 2.05039 5.99525 6.65767 6.69761 15.9714 15.7455 15.8364 15.574 13.9741 13.7209 18.3395 17.1506 19.0512 17.7834 15.8093 15.606 17.9408 16.3727 18.6093 17.1598 15.4998 15.6106 17.033 15.2174 17.4537 15.9299 14.7762 15.1004 15.965 14.0568 16.2056 14.6777 13.9255 14.3569 14.8434 12.9541 14.9695 13.502 13.0121 13.4576 13.7103 11.9068 13.7897 12.4036 12.0605 12.514 12.5933 10.9393 12.6648 11.3726 11.1344 11.572 11.5839 10.0311 11.6193 10.45 10.2418 10.6604 10.6149 9.21789 10.6597 9.58389 9.42779 9.80032 9.76303 8.47417 9.79829 8.82893 8.6378 9.02732 8.95569 7.78954 9.00712 8.12399 7.93505 8.30946 8.23204 7.18317 8.27957 7.47751 7.3086 7.63643 7.57667 6.61444 7.61232 6.89117 6.71691 7.036 6.96686 6.0944 7.01312 6.34535 6.16646 6.4824 6.39797 5.61242 6.44804 5.8457 5.67189 5.94864 5.85611 5.1754 5.9196 5.37291 5.20884 5.46637 5.36624 4.72874 5.42437 4.92112 4.768 5.00669 4.8921 4.33265 4.94581 4.49727 4.35848 4.5819 4.4443 3.94039 4.50984 4.09003 3.96591 4.17598 4.0012 3.59074 4.07078 3.72285 3.59888 3.79508 3.59216 3.22746 3.65553 3.35241 3.23138 3.41059 3.20046 2.87421 3.25956 2.98405 2.87808 3.04178 2.80061 2.52523 2.86907 2.62041 2.51972 2.68223 2.41161 2.18325 2.50169 2.26873 2.18271 2.31749 2.03017 1.86293 2.11031 1.92552 1.86722 1.9736 1.64745 1.52488 1.74561 1.58934 1.5398 1.63205 1.28878 1.20463 1.38568 1.24557 1.21068 1.28108 0.935397 0.87137 1.0128 0.913481 0.88431 0.965584 0.579596 0.560612 0.684268 0.584578 0.567116 0.621612 0.209641 0.251232 0.297971 0.235874 0.241246 0.269223 12.47 12.5677 9.21848 11.033 9.31498 10.6564 24.6365 21.4539 24.0712 22.3467 18.8822 19.7962 26.6213 23.1068 27.1001 24.8453 20.8149 21.7516 25.4756 22.021 26.2019 23.8258 20.193 21.2707 23.8 20.3423 24.3847 21.963 18.9934 20.1358 22.0256 18.6432 22.4668 20.0934 17.6487 18.7638 20.2663 17.0462 20.5964 18.3469 16.2833 17.3511 18.5818 15.569 18.8484 16.7509 14.9773 15.9557 16.9892 14.2268 17.199 15.289 13.7227 14.6285 15.4862 12.9907 15.6984 13.9415 12.5693 13.3963 14.1113 11.8864 14.302 12.7299 11.5231 12.2516 12.8532 10.8769 13.0306 11.6351 10.5581 11.2225 11.7137 9.94737 11.8645 10.6226 9.67558 10.2807 10.6571 9.10478 10.8076 9.69741 8.88133 9.39749 9.68396 8.34689 9.84365 8.84771 8.15014 8.612 8.79573 7.6384 8.94819 8.08575 7.46406 7.89078 7.99728 6.95124 8.13081 7.36498 6.84192 7.19579 7.23751 6.35549 7.35754 6.69371 6.25582 6.57472 6.53273 5.77353 6.65797 6.07127 5.69194 5.97627 5.87932 5.22761 5.99008 5.48063 5.17382 5.44273 5.25923 4.70859 5.37417 4.91895 4.68736 4.90817 4.69056 4.2223 4.80064 4.39899 4.2208 4.42014 4.14004 3.76417 4.24516 3.908 3.75569 3.92736 3.61494 3.32036 3.729 3.44989 3.33445 3.4848 3.13123 2.90985 3.24418 2.98189 2.91308 3.03987 2.65107 2.47592 2.76528 2.56052 2.52825 2.61787 2.20568 2.08157 2.31659 2.14682 2.09819 2.20999 1.78452 1.68823 1.90282 1.74934 1.7155 1.79169 1.3748 1.31882 1.47598 1.34257 1.34523 1.40855 0.963165 0.945136 1.059 0.970945 0.997057 1.03527 0.568053 0.593505 0.664672 0.600058 0.626568 0.661202 0.241782 0.257182 0.315306 0.288508 0.256737 0.286586 23.0875 21.1597 19.1705 20.2191 17.7539 19.9814 36.5388 31.5856 35.8092 33.164 28.9953 30.2934 37.1903 32.6753 37.4359 34.9518 30.3285 31.4886 34.8266 30.7279 35.5849 32.9621 28.6868 29.9655 32.2589 28.255 33.0175 30.2646 26.5985 27.9304 29.7517 25.8285 30.4105 27.6771 24.4767 25.7998 27.336 23.5854 27.8896 25.2676 22.448 23.69 24.984 21.4762 25.4803 23.0274 20.5115 21.6821 22.7737 19.5432 23.2041 20.9529 18.7039 19.7574 20.6979 17.7573 21.0938 19.0373 17.0272 18.0058 18.7511 16.1253 19.131 17.2793 15.4862 16.3504 16.9732 14.6335 17.3022 15.6728 14.0736 14.8342 15.3377 13.2547 15.6442 14.1749 12.7745 13.4676 13.8268 12.0082 14.1203 12.8046 11.5752 12.1788 12.4403 10.8459 12.7035 11.5507 10.4922 11.0203 11.1679 9.77404 11.4198 10.3966 9.47884 9.94691 9.985 8.80132 10.2389 9.34366 8.56262 8.96949 8.92463 7.88481 9.13789 8.36513 7.71269 8.06897 7.92333 7.05729 8.13074 7.45711 6.90465 7.21349 6.99936 6.27104 7.2025 6.61351 6.18545 6.44741 6.17786 5.56406 6.34155 5.85179 5.50955 5.71431 5.37965 4.89835 5.5438 5.12094 4.85365 5.03748 4.66652 4.28229 4.81236 4.46812 4.27077 4.42199 3.99027 3.69399 4.1341 3.84365 3.69826 3.83042 3.37802 3.14375 3.51896 3.27996 3.18391 3.29333 2.8109 2.64101 2.94394 2.7295 2.68341 2.77672 2.29827 2.18781 2.41073 2.2369 2.22446 2.28382 1.7951 1.72567 1.90873 1.79264 1.77624 1.8301 1.34365 1.32517 1.44771 1.35209 1.37792 1.41701 0.912178 0.933348 1.02097 0.951827 0.981675 0.99927 0.535681 0.561783 0.623814 0.582318 0.597059 0.621526 0.235911 0.302954 0.304888 0.289886 0.298697 0.302484 38.9176 33.2855 34.6737 34.6217 29.2563 32.3081 49.9457 43.9206 49.6071 46.2725 41.4392 42.8018 48.2403 43.2455 48.6677 45.8275 41.1415 42.2757 44.6453 40.2351 45.4714 42.6034 38.2528 39.5482 41.3546 37.0421 42.2593 39.2607 35.309 36.6876 38.2108 33.9743 39.0665 36.0574 32.469 33.8398 35.1336 31.0454 35.8992 33.0112 29.7528 31.0668 32.1311 28.2976 32.8144 30.1124 27.1593 28.3837 29.2354 25.7056 29.8826 27.384 24.7227 25.8275 26.4977 23.2954 27.1104 24.8234 22.4281 23.4394 23.9482 21.087 24.5131 22.4495 20.3072 21.2082 21.593 19.0052 22.0942 20.2527 18.3349 19.1351 19.4124 17.1182 19.888 18.2102 16.5216 17.2278 17.3893 15.3775 17.8366 16.3675 14.8497 15.4793 15.539 13.7728 15.9354 14.63 13.3151 13.8596 13.8126 12.2806 14.2161 13.0526 11.9154 12.3966 12.2481 10.9177 12.6194 11.5992 10.6197 11.0184 10.817 9.67098 11.148 10.2567 9.42199 9.79111 9.50503 8.52184 9.80823 9.03358 8.33726 8.62116 8.28191 7.45401 8.54804 7.88667 7.32163 7.5677 7.15687 6.4985 7.41763 6.84764 6.39382 6.61166 6.15159 5.58936 6.38769 5.90586 5.53922 5.70654 5.21222 4.78796 5.42575 5.01864 4.75355 4.90304 4.35982 4.02057 4.56968 4.22456 4.0231 4.16264 3.60432 3.35403 3.78732 3.51193 3.37956 3.47058 2.90143 2.72983 3.0698 2.86046 2.77441 2.84258 2.29505 2.18676 2.42969 2.26637 2.23937 2.2932 1.73752 1.68068 1.86148 1.75199 1.76084 1.77943 1.24319 1.22721 1.36385 1.27967 1.29225 1.31196 0.810521 0.823227 0.921292 0.852898 0.868085 0.89231 0.435288 0.481712 0.525622 0.479069 0.513707 0.515547 0.224526 0.287138 0.262972 0.250761 0.269547 0.269653 67.1151 52.0718 64.2776 61.1474 46.6062 50.0875 62.081 56.4754 67.569 58.8101 54.5679 55.7335 58.833 53.4617 59.397 55.7389 51.8239 52.9793 54.8108 49.8104 55.2977 52.1171 48.0359 49.3819 51.046 46.2452 51.8974 48.5755 44.5033 45.9518 47.2679 42.6431 48.2835 44.9492 41.0595 42.5157 43.4792 39.0941 44.5101 41.2825 37.6928 39.0661 39.7277 35.6512 40.7422 37.6885 34.4185 35.6955 36.129 32.3809 37.0827 34.2643 31.2809 32.4396 32.7057 29.3099 33.5986 30.9881 28.3265 29.379 29.4971 26.4376 30.3383 27.9574 25.5728 26.5036 26.5147 23.7809 27.2952 25.1442 23.0076 23.8386 23.7608 21.3203 24.4733 22.5355 20.6446 21.3811 21.2056 19.055 21.8914 20.1439 18.4576 19.1135 18.8768 16.9633 19.4996 17.9384 16.4564 17.0115 16.7316 15.0535 17.286 15.9102 14.6073 15.1136 14.7294 13.2749 15.2672 14.0307 12.9101 13.3293 12.9222 11.6575 13.3935 12.3254 11.3476 11.7171 11.2452 10.1663 11.7222 10.7407 9.9221 10.2405 9.72852 8.79418 10.1321 9.30731 8.59294 8.84702 8.32625 7.55631 8.70656 7.97529 7.39943 7.61779 7.03548 6.39652 7.37301 6.7433 6.3162 6.48284 5.89191 5.36497 6.20305 5.6469 5.3065 5.44926 4.81456 4.42316 5.13476 4.6626 4.3872 4.48954 3.88569 3.56837 4.1362 3.75441 3.57757 3.65075 3.02604 2.81585 3.25808 2.94091 2.84958 2.89481 2.26708 2.144 2.50097 2.2393 2.19546 2.22694 1.62972 1.57453 1.8292 1.61827 1.61852 1.63733 1.06549 1.07072 1.24546 1.09207 1.13357 1.12287 0.633213 0.676535 0.781291 0.69914 0.714139 0.71104 0.319535 0.378037 0.427334 0.381089 0.376873 0.389905 0.158691 0.197783 0.225707 0.167693 0.193326 0.177255 24.6017 50.5179 18.6521 29.3835 53.9164 53.1912 39.0862 43.0625 39.3493 42.2493 45.0336 43.5626 38.1642 42.3436 39.8657 40.8964 45.3212 43.001 35.3042 40.1974 36.5457 38.6269 43.1976 40.7535 32.0454 36.8304 33.0971 35.4449 39.4418 37.2272 28.8012 32.992 29.7642 31.8682 35.2059 33.3249 25.7184 29.2671 26.6126 28.3352 31.1711 29.5764 22.8892 25.8405 23.6809 25.0871 27.5277 26.1906 20.3493 22.7971 21.0278 22.1667 24.3348 23.2044 18.0732 20.1417 18.6533 19.6012 21.5196 20.5621 16.0176 17.7607 16.5178 17.3083 19.0485 18.2164 14.19 15.6506 14.6068 15.2627 16.8262 16.1072 12.5052 13.7412 12.8773 13.4348 14.8155 14.1775 10.9929 12.0184 11.3056 11.7746 12.9656 12.4222 9.59135 10.4428 9.88555 10.2368 11.3129 10.8479 8.31338 9.0303 8.57101 8.87177 9.77207 9.35327 7.15063 7.7171 7.37616 7.59229 8.36795 8.0246 6.09849 6.53506 6.29812 6.46941 7.0772 6.79572 5.12423 5.45254 5.34306 5.41 5.94068 5.71048 4.26912 4.48959 4.43507 4.48182 4.88012 4.69265 3.48642 3.5986 3.64397 3.63256 3.94946 3.80153 2.81879 2.84779 2.92441 2.87672 3.0925 2.99897 2.20997 2.16291 2.32458 2.23449 2.369 2.30413 1.68967 1.57867 1.78027 1.66688 1.71669 1.68609 1.25602 1.08204 1.33542 1.18756 1.17942 1.18312 0.911606 0.710891 0.992846 0.809194 0.71994 0.752527 0.655259 0.437953 0.707744 0.525013 0.392393 0.448549 0.472943 0.298693 0.505462 0.340194 0.187228 0.285634 0.328496 0.29281 0.38595 0.27456 0.217262 0.24544 0.227063 0.255776 0.304758 0.228547 0.232883 0.232251 0.140905 0.177831 0.196485 0.162793 0.206488 0.192637 0.106142 0.0887577 0.12186 0.117324 0.105486 0.101668 12.3205 20.256 9.17865 13.9105 20.0196 18.1637 23.5123 30.3255 23.1372 27.5765 32.3673 30.6094 25.0468 30.3646 25.4718 28.0868 32.3839 30.6054 23.7299 27.8888 24.3526 26.2162 29.9592 28.1044 21.7918 25.4003 22.3689 24.0986 27.3875 25.5831 19.7441 22.9055 20.2563 21.8751 24.8078 23.1642 17.7768 20.4992 18.2334 19.676 22.2488 20.8406 15.9399 18.2333 16.3563 17.5389 19.8567 18.6766 14.2659 16.1892 14.6309 15.5804 17.678 16.6897 12.7672 14.3658 13.0689 13.8482 15.7048 14.8672 11.3955 12.7188 11.6713 12.2919 13.926 13.2324 10.1662 11.2559 10.3882 10.8996 12.336 11.7432 9.04361 9.92388 9.24474 9.62683 10.8872 10.3886 8.03685 8.74222 8.21911 8.50839 9.58338 9.17303 7.11422 7.65468 7.27012 7.46672 8.38067 8.02918 6.27065 6.66874 6.40582 6.53059 7.28548 7.0049 5.512 5.76978 5.62779 5.68391 6.28695 6.07506 4.81732 4.96557 4.91397 4.91523 5.40585 5.24541 4.16943 4.24798 4.29074 4.23248 4.5755 4.47882 3.63018 3.59052 3.71554 3.61082 3.86247 3.80352 3.12979 3.02122 3.2102 3.06081 3.21493 3.20844 2.69284 2.52338 2.7757 2.59285 2.653 2.66979 2.31399 2.09255 2.39003 2.17363 2.15548 2.21369 1.98103 1.72709 2.03875 1.81342 1.74244 1.8264 1.68363 1.42437 1.74606 1.50643 1.39348 1.4917 1.41874 1.18106 1.47365 1.24328 1.11949 1.23028 1.16219 0.975369 1.22853 1.0326 0.899037 1.01082 0.932629 0.785931 1.00726 0.850314 0.715216 0.808482 0.726968 0.596223 0.792236 0.653141 0.539829 0.638266 0.496878 0.450114 0.581025 0.467047 0.371226 0.450879 0.278054 0.262325 0.351096 0.254612 0.189117 0.257493 0.121609 0.157271 0.14324 0.119472 0.102672 0.155549 6.63306 11.077 4.34582 7.77249 10.3519 9.84624 16.3941 19.3913 16.1133 17.8079 18.9679 17.9998 18.4756 20.4944 19.1473 19.7255 21.296 20.0131 17.3625 19.1464 17.9673 18.5014 20.3673 19.1028 15.7849 17.385 16.2269 16.7906 18.6872 17.5365 14.3314 15.6861 14.6496 15.143 16.9582 15.9551 13.0093 14.1072 13.2605 13.6402 15.3284 14.486 11.796 12.6551 11.9993 12.2675 13.794 13.1085 10.6995 11.3609 10.8508 11.0418 12.3835 11.839 9.71728 10.2059 9.83657 9.93155 11.1178 10.6999 8.83071 9.16549 8.94186 8.94982 9.98986 9.64891 8.04301 8.25309 8.12933 8.09571 8.96335 8.69452 7.33559 7.42561 7.40463 7.31077 8.02267 7.83608 6.6724 6.68354 6.75242 6.60557 7.18919 7.05315 6.08199 6.00593 6.14668 5.97819 6.43599 6.34771 5.54417 5.4045 5.61934 5.41489 5.73834 5.70331 5.04184 4.87666 5.11249 4.8809 5.11719 5.12892 4.58385 4.37909 4.66479 4.41971 4.57074 4.59626 4.17598 3.92166 4.25048 3.98783 4.05565 4.11549 3.79456 3.51137 3.85838 3.58758 3.58739 3.68031 3.44213 3.15223 3.50311 3.23486 3.18751 3.29734 3.10598 2.80705 3.17409 2.89477 2.8001 2.94088 2.76786 2.49619 2.83324 2.5843 2.47882 2.6007 2.46948 2.20041 2.53843 2.29209 2.17092 2.30205 2.16879 1.93631 2.24231 2.01095 1.89008 2.0016 1.8649 1.67928 1.94267 1.75633 1.62882 1.74582 1.58769 1.43438 1.67036 1.48328 1.38245 1.50038 1.31015 1.17533 1.37058 1.21651 1.13212 1.23354 1.01452 0.914259 1.08934 0.957012 0.882624 0.977165 0.717422 0.670434 0.806269 0.691857 0.62899 0.701481 0.423043 0.420381 0.501614 0.425683 0.380842 0.44117 0.144303 0.185159 0.213879 0.157657 0.186104 0.213595 6.51409 9.14808 3.33436 6.90928 7.064 7.25116 17.7477 16.9885 17.2831 16.9382 15.5558 15.7929 20.0655 18.3134 20.7464 19.0462 17.4169 17.4472 18.8359 17.1042 19.5949 17.95 16.5812 16.6081 17.0556 15.4624 17.6439 16.1802 15.1914 15.2694 15.4444 13.9188 15.863 14.5098 13.8096 13.9538 14.0521 12.5603 14.3481 13.0633 12.5578 12.755 12.8062 11.3745 13.021 11.8331 11.4171 11.6566 11.6941 10.3483 11.8514 10.7644 10.3924 10.6566 10.6964 9.44311 10.8218 9.81687 9.50465 9.75771 9.80704 8.64499 9.9132 9.00051 8.68264 8.95052 8.99276 7.93737 9.1059 8.2467 7.94847 8.22012 8.27237 7.30065 8.3524 7.58809 7.29768 7.56598 7.61204 6.73209 7.70524 7.0055 6.71375 6.96627 7.00668 6.18853 7.0893 6.45731 6.18023 6.4233 6.43506 5.72491 6.53708 5.95329 5.68354 5.91325 5.91876 5.26441 6.01577 5.48224 5.23077 5.45685 5.42651 4.84681 5.52127 5.05587 4.80015 5.01986 4.97345 4.46213 5.07455 4.64178 4.39217 4.60225 4.54351 4.08566 4.63426 4.25338 4.03088 4.21321 4.12482 3.72725 4.21425 3.86777 3.68555 3.84252 3.72648 3.38431 3.81149 3.50032 3.32503 3.48791 3.34201 3.05945 3.43301 3.16751 2.98231 3.15225 2.98719 2.71564 3.06083 2.82241 2.67908 2.81236 2.60481 2.40448 2.69774 2.46072 2.35746 2.49754 2.22804 2.07222 2.34037 2.157 2.03838 2.15654 1.89227 1.76777 1.99681 1.82929 1.74772 1.8365 1.54349 1.45136 1.63113 1.48571 1.41972 1.50298 1.1837 1.14065 1.29323 1.18388 1.11978 1.20329 0.842158 0.836124 0.935392 0.848652 0.830137 0.88392 0.528756 0.523693 0.611017 0.537809 0.505339 0.556046 0.18358 0.203513 0.290738 0.212763 0.205695 0.228986 12.1767 13.0573 8.63927 11.2519 10.116 11.0943 25.1323 22.0853 24.2394 22.9181 20.0223 21.0508 27.7062 23.845 28.1593 25.6505 22.0395 23.0208 26.1083 22.4282 26.8863 24.3193 20.787 21.7699 23.7605 20.3351 24.4748 22.0412 18.9256 19.9407 21.5686 18.3353 22.1506 19.8286 17.1577 18.1668 19.5954 16.5906 20.0831 17.9006 15.5958 16.5525 17.8317 15.044 18.2289 16.2053 14.1971 15.0989 16.2485 13.6784 16.567 14.7295 12.9437 13.7881 14.7992 12.479 15.0784 13.4141 11.8358 12.6014 13.4736 11.4085 13.7231 12.2272 10.8314 11.5156 12.2796 10.4322 12.509 11.1836 9.92385 10.5539 11.1891 9.54184 11.3833 10.2033 9.10551 9.65164 10.1794 8.72617 10.38 9.32811 8.34808 8.85601 9.26383 7.99956 9.42922 8.52642 7.67201 8.12559 8.39565 7.32475 8.58283 7.76725 7.02008 7.42019 7.62674 6.69351 7.80765 7.07548 6.44511 6.77206 6.89928 6.09224 7.0513 6.4229 5.88575 6.18999 6.22268 5.53666 6.37492 5.82563 5.3746 5.63924 5.6068 5.01773 5.73652 5.27091 4.88155 5.11236 5.00775 4.52233 5.14539 4.72705 4.42001 4.62378 4.4481 4.05821 4.57437 4.23965 3.9807 4.14325 3.92683 3.61447 4.0475 3.7611 3.53903 3.69203 3.44909 3.18356 3.5566 3.29001 3.14233 3.26191 2.96088 2.76444 3.07392 2.85168 2.73414 2.84524 2.51257 2.37224 2.62452 2.45034 2.36571 2.44899 2.07776 1.97882 2.19349 2.05219 1.97591 2.06248 1.66545 1.60907 1.78349 1.65236 1.60813 1.67531 1.26914 1.25104 1.39162 1.2945 1.25874 1.30838 0.886404 0.922615 0.999673 0.923511 0.920303 0.944783 0.546123 0.578265 0.640942 0.572415 0.574156 0.606251 0.209489 0.244084 0.28292 0.246985 0.218506 0.262667 21.4836 20.5754 17.6995 19.4059 17.1211 18.6948 35.7353 31.3719 34.4881 32.7578 28.9537 30.3283 37.733 33.1267 38.0359 35.4461 31.0399 32.3258 35.4267 31.1089 36.2571 33.4253 29.1846 30.4544 32.3795 28.311 33.2456 30.427 26.5744 27.8745 29.5109 25.6554 30.2667 27.5363 24.1366 25.3975 26.8852 23.2589 27.5479 24.9621 21.9226 23.1386 24.4722 21.1046 25.0616 22.6524 19.9345 21.0406 22.2393 19.1599 22.7588 20.5647 18.1236 19.1535 20.1962 17.3992 20.6621 18.678 16.4711 17.398 18.3014 15.772 18.7141 16.9261 14.9798 15.8039 16.5599 14.3208 16.9393 15.338 13.6125 14.3399 14.9602 12.9657 15.317 13.8793 12.3496 13.0048 13.4826 11.7458 13.8166 12.5423 11.2068 11.79 12.1343 10.6094 12.4513 11.3063 10.1479 10.6511 10.8982 9.56586 11.1785 10.181 9.16702 9.60794 9.74961 8.61391 9.98297 9.14118 8.28125 8.66415 8.68686 7.71011 8.92388 8.18691 7.44142 7.76295 7.71249 6.9103 7.93838 7.29206 6.66967 6.9577 6.80444 6.11554 7.01961 6.45999 5.95665 6.20181 5.98024 5.42618 6.17872 5.70241 5.29178 5.48454 5.19729 4.76442 5.40213 5.0012 4.6666 4.83337 4.50772 4.15743 4.67521 4.34245 4.10217 4.22815 3.85 3.58007 4.00874 3.73403 3.55208 3.66248 3.24422 3.06181 3.39273 3.15353 3.02911 3.12258 2.69103 2.57261 2.83511 2.65303 2.55924 2.63643 2.17038 2.10607 2.30466 2.17068 2.113 2.16948 1.70207 1.65574 1.84428 1.71204 1.69477 1.73173 1.25699 1.26956 1.38851 1.2909 1.28004 1.31486 0.849989 0.89589 0.974407 0.892794 0.900448 0.941215 0.496167 0.531458 0.599473 0.555379 0.557363 0.569982 0.236692 0.268408 0.268576 0.275875 0.260668 0.27881 37.1068 31.9099 33.6526 33.4385 27.6229 29.7925 48.0648 42.9918 46.7723 45.0371 40.3623 41.8313 48.3075 43.5098 48.9424 46.077 41.467 42.8086 45.1419 40.6403 46.1664 43.0583 38.7335 40.093 41.5888 37.1938 42.5533 39.461 35.4278 36.8061 38.1373 33.8936 39.0386 36.0286 32.2988 33.6579 34.8689 30.8526 35.7021 32.8328 29.4191 30.714 31.7743 28.0443 32.5407 29.8657 26.7785 27.9631 28.8777 25.4444 29.5677 27.1149 24.3163 25.4006 26.1532 23.0534 26.8163 24.5604 22.0515 23.04 23.6363 20.8322 24.2318 22.2206 19.9409 20.8371 21.3056 18.7902 21.8437 20.0307 18.007 18.8004 19.1483 16.9219 19.6614 18.0311 16.238 16.9206 17.1739 15.2061 17.6467 16.197 14.6004 15.2008 15.3334 13.6112 15.7756 14.4757 13.083 13.6172 13.6399 12.1409 14.0562 12.9076 11.6946 12.1735 12.105 10.7899 12.468 11.4742 10.4256 10.8284 10.6817 9.55882 11.0134 10.1562 9.23288 9.60105 9.37541 8.4184 9.68553 8.92153 8.16032 8.46227 8.16 7.37227 8.45769 7.80612 7.17908 7.41217 7.0647 6.40725 7.33668 6.7684 6.25315 6.45428 6.04912 5.52119 6.2896 5.82531 5.41011 5.55781 5.12238 4.70239 5.34703 4.95425 4.64636 4.76568 4.27822 3.95834 4.4906 4.17046 3.92174 4.01219 3.52029 3.29768 3.70626 3.45326 3.27102 3.3594 2.835 2.68201 3.01141 2.7891 2.6844 2.74207 2.21198 2.13611 2.3749 2.2138 2.15282 2.19892 1.68222 1.64504 1.81859 1.69669 1.67608 1.69479 1.18178 1.20079 1.32357 1.23917 1.22502 1.23776 0.76848 0.809564 0.900356 0.804584 0.838281 0.839782 0.420279 0.46113 0.524839 0.466422 0.473186 0.480591 0.227275 0.280925 0.257857 0.250654 0.260379 0.261601 66.6435 50.5463 64.6937 60.3346 45.0327 47.4797 59.4449 54.9534 63.6425 56.7838 52.5807 53.953 57.9294 53.4821 59.4258 55.6609 51.693 53.141 54.856 50.1608 55.8258 52.43 48.3617 49.8192 51.1467 46.3997 52.1334 48.7725 44.6625 46.1292 47.1802 42.6295 48.2606 44.9285 41.005 42.4339 43.2591 38.9449 44.3414 41.1337 37.479 38.8245 39.4567 35.4699 40.5096 37.4963 34.1479 35.4053 35.8377 32.1771 36.8388 34.0317 31.0022 32.1347 32.4287 29.106 33.3498 30.8018 28.0549 29.0872 29.252 26.2587 30.1196 27.7854 25.3149 26.263 26.2977 23.6261 27.128 24.9841 22.8011 23.6083 23.5586 21.1819 24.3206 22.4041 20.4472 21.1824 21.0537 18.9283 21.756 20.0226 18.3019 18.9519 18.7421 16.8732 19.3767 17.8387 16.3113 16.8721 16.6162 14.966 17.2036 15.8144 14.4803 14.9786 14.6343 13.2043 15.2069 13.9515 12.7946 13.2157 12.8379 11.6024 13.3421 12.2696 11.2638 11.6132 11.1834 10.103 11.6501 10.6809 9.83155 10.1471 9.65528 8.75837 10.0893 9.24146 8.52233 8.79556 8.27419 7.50362 8.6626 7.92585 7.33928 7.54812 6.98122 6.37618 7.36174 6.72626 6.24515 6.40739 5.83372 5.31467 6.16255 5.61496 5.24605 5.36703 4.78029 4.37823 5.07165 4.62519 4.33667 4.44941 3.82749 3.54087 4.10771 3.71962 3.52568 3.58074 2.97231 2.78127 3.23856 2.921 2.78412 2.84017 2.25696 2.11891 2.47011 2.21095 2.15463 2.18236 1.60649 1.55544 1.79695 1.60791 1.58441 1.6104 1.0614 1.06993 1.25718 1.10094 1.09729 1.10293 0.647285 0.680053 0.772406 0.674306 0.704031 0.705481 0.33679 0.381291 0.436803 0.388407 0.373832 0.384139 0.193994 0.191003 0.224697 0.200404 0.195931 0.175209 23.6302 51.4461 16.4774 28.7708 55.7553 55.5196 39.5299 42.7468 39.7707 42.3449 44.0985 42.9259 38.5455 42.0829 40.1412 40.7723 44.6199 42.6235 35.9208 40.2859 37.1016 38.763 43.2586 41.1113 32.9151 37.161 33.8957 35.8431 40.0132 38.0589 29.702 33.4364 30.6088 32.3689 35.9582 34.2558 26.4969 29.6536 27.3379 28.819 31.8729 30.3958 23.4841 26.1618 24.2353 25.458 28.0865 26.8283 20.7448 23.0386 21.4086 22.4445 24.7329 23.6473 18.3207 20.2663 18.8824 19.7805 21.7968 20.8501 16.1567 17.8538 16.6477 17.4248 19.228 18.3935 14.2473 15.6902 14.6649 15.333 16.9369 16.2003 12.5292 13.7736 12.8911 13.4572 14.8703 14.2348 10.964 12.0328 11.2952 11.7699 13.0122 12.4558 9.55923 10.4484 9.85333 10.2435 11.3126 10.8288 8.29075 9.01847 8.54041 8.85697 9.75629 9.34477 7.10503 7.69815 7.34087 7.59073 8.35885 8.01355 6.04482 6.51128 6.26622 6.44477 7.07395 6.78974 5.0873 5.42693 5.26679 5.39807 5.91021 5.66292 4.21198 4.4712 4.37381 4.44605 4.85132 4.66108 3.43372 3.58944 3.59806 3.60902 3.91788 3.77055 2.7604 2.8192 2.88039 2.85295 3.07517 2.96268 2.16157 2.14851 2.26039 2.20845 2.3369 2.25807 1.66202 1.54115 1.72541 1.63916 1.68796 1.6549 1.21748 1.08312 1.30818 1.16721 1.16056 1.13505 0.874021 0.676221 0.925818 0.786756 0.717348 0.736976 0.598709 0.418144 0.66424 0.506647 0.385353 0.426128 0.444535 0.284974 0.480819 0.334894 0.178255 0.258878 0.31886 0.265301 0.373014 0.267985 0.204832 0.245041 0.216436 0.256128 0.27495 0.210285 0.252587 0.247724 0.139034 0.168997 0.182026 0.165635 0.191741 0.181862 0.0985568 0.0951661 0.100555 0.0922142 0.0761279 0.0831994 10.9767 19.8614 6.87474 12.9939 19.1516 17.1815 24.1946 30.4287 23.5098 27.75 32.6716 31.0412 25.6023 30.6599 25.9236 28.3946 32.8531 31.412 24.3946 28.3084 25.0266 26.5923 30.5344 28.9714 22.4784 25.8577 23.1158 24.5268 28.0829 26.4966 20.36 23.3445 20.9537 22.297 25.4839 23.9776 18.237 20.8517 18.7429 20.0161 22.8306 21.4767 16.2169 18.4836 16.6648 17.7936 20.2834 19.1045 14.3784 16.3253 14.7802 15.746 17.9453 16.9229 12.7651 14.4266 13.0956 13.9229 15.853 14.9875 11.3347 12.7432 11.613 12.2955 13.9969 13.2372 10.0524 11.23 10.2909 10.8782 12.3344 11.6856 8.90963 9.9051 9.11654 9.5958 10.8657 10.3088 7.88098 8.68901 8.06981 8.44168 9.51775 9.06791 6.94703 7.59153 7.12757 7.40574 8.30677 7.93594 6.09744 6.61725 6.26893 6.47473 7.22256 6.90526 5.33589 5.71306 5.4813 5.61573 6.22665 5.97824 4.65455 4.90557 4.78786 4.84707 5.32431 5.13931 4.04266 4.18677 4.15108 4.18148 4.51469 4.37099 3.48553 3.53446 3.5987 3.54563 3.78613 3.68969 3.00362 2.9537 3.10562 3.01086 3.13855 3.08985 2.57477 2.46422 2.65051 2.51828 2.56624 2.58053 2.20116 2.03247 2.27804 2.11057 2.09529 2.12286 1.86239 1.67741 1.94507 1.7691 1.68108 1.74256 1.56174 1.38397 1.65394 1.47035 1.33874 1.42582 1.33133 1.13358 1.40013 1.21642 1.06071 1.16825 1.10815 0.944977 1.17571 0.992219 0.834942 0.952326 0.888395 0.773461 0.965062 0.813383 0.682429 0.766814 0.689928 0.590935 0.764184 0.618222 0.513712 0.591306 0.463316 0.427895 0.539285 0.452516 0.358213 0.442007 0.248908 0.257259 0.328083 0.245924 0.189555 0.249872 0.098408 0.151159 0.139366 0.0848654 0.108039 0.149199 6.34299 10.9283 3.25803 7.35073 9.68461 9.32186 17.2865 19.6723 16.7911 18.1982 19.4542 18.7385 19.4307 20.8649 20.0332 20.1854 21.6816 20.7339 18.1066 19.5709 18.7457 18.9582 20.88 19.8452 16.2573 17.7452 16.7727 17.147 19.1982 18.1437 14.5513 15.9435 14.9329 15.3958 17.3824 16.3804 13.0155 14.2511 13.3178 13.7772 15.5965 14.7021 11.6406 12.708 11.8965 12.2943 13.927 13.15 10.4566 11.3314 10.6418 10.9848 12.3977 11.755 9.38657 10.1214 9.56254 9.83194 11.0448 10.4978 8.47665 9.04809 8.6457 8.82424 9.84612 9.40085 7.68772 8.11863 7.82935 7.93809 8.78398 8.43566 6.97911 7.27913 7.10462 7.14483 7.84854 7.57251 6.34059 6.54541 6.47547 6.44877 7.00714 6.78415 5.78332 5.88562 5.89332 5.82759 6.24466 6.08995 5.26163 5.28523 5.37456 5.26253 5.54664 5.47466 4.80664 4.74266 4.89467 4.74887 4.9469 4.89544 4.36344 4.26296 4.45709 4.29098 4.39933 4.39392 3.97403 3.83054 4.06008 3.86963 3.90078 3.92774 3.59373 3.41872 3.6863 3.48233 3.4536 3.51026 3.25233 3.0585 3.34604 3.13272 3.05367 3.12723 2.92792 2.73857 3.02783 2.81031 2.68209 2.78036 2.63447 2.43547 2.72039 2.50757 2.3643 2.46945 2.34709 2.1528 2.42398 2.2341 2.07046 2.17892 2.05136 1.89007 2.14882 1.9539 1.80414 1.9238 1.7913 1.63782 1.86031 1.7024 1.56591 1.65963 1.50004 1.39323 1.60517 1.46368 1.31091 1.41169 1.24345 1.13989 1.31726 1.19042 1.08012 1.15665 0.95501 0.890555 1.053 0.93141 0.838237 0.912281 0.68036 0.657388 0.772661 0.681637 0.601535 0.663617 0.416267 0.402762 0.490416 0.418226 0.347101 0.420292 0.13046 0.179644 0.215502 0.133598 0.142722 0.193486 7.14514 9.48414 3.94164 7.23937 7.34775 7.81797 18.5339 17.397 17.9547 17.4314 16.1636 16.6205 20.9864 18.7487 21.543 19.5385 18.0887 18.3218 19.4858 17.4207 20.1985 18.3026 17.1127 17.2184 17.3017 15.6057 17.891 16.3375 15.4825 15.5342 15.3522 13.9282 15.7986 14.5198 13.8843 13.9419 13.7419 12.4739 14.0948 12.9648 12.4637 12.5326 12.3866 11.2313 12.6717 11.6347 11.2019 11.2988 11.2387 10.1587 11.4646 10.5252 10.1002 10.2285 10.2267 9.22666 10.4277 9.58986 9.16563 9.32174 9.37 8.43459 9.53992 8.75373 8.34218 8.51027 8.58417 7.73035 8.74656 8.03542 7.62584 7.79064 7.89943 7.11058 8.03737 7.38985 6.98155 7.17444 7.2725 6.55558 7.40702 6.80772 6.41166 6.60894 6.69481 6.04541 6.82851 6.2845 5.90307 6.09159 6.15582 5.57196 6.2968 5.79292 5.42434 5.62206 5.66724 5.15096 5.80805 5.34329 4.99637 5.16706 5.20732 4.72479 5.32665 4.90602 4.58841 4.75895 4.78137 4.36277 4.88093 4.5165 4.21245 4.38397 4.37299 3.98304 4.4739 4.12534 3.86748 4.00211 3.95819 3.63522 4.06864 3.76527 3.51831 3.66785 3.57154 3.30583 3.6904 3.42404 3.17078 3.33196 3.2131 2.98906 3.32176 3.09497 2.89434 2.99721 2.84943 2.67565 2.95671 2.75179 2.58397 2.67704 2.50722 2.34903 2.60248 2.42347 2.27631 2.37223 2.15521 2.04011 2.26661 2.10318 1.96775 2.06123 1.82027 1.73689 1.91771 1.77653 1.6612 1.75657 1.47854 1.41712 1.57422 1.45323 1.36665 1.44604 1.14779 1.10316 1.25106 1.14664 1.07307 1.13911 0.819868 0.820165 0.92983 0.83269 0.787228 0.841348 0.493417 0.505411 0.591439 0.509913 0.480684 0.516398 0.148862 0.181629 0.265997 0.181879 0.170521 0.198392 12.2111 13.317 8.63766 11.4178 10.5027 11.4953 25.406 22.2981 24.4665 23.1364 20.4046 21.4778 28.2472 24.1307 28.5322 25.9595 22.6243 23.6552 26.5657 22.6312 27.2513 24.5732 21.2324 22.2333 23.9248 20.391 24.6296 22.113 19.0927 20.0481 21.4593 18.2797 22.0717 19.7666 17.0753 18.0118 19.3277 16.4317 19.8543 17.7341 15.3418 16.2173 17.4809 14.8525 17.9286 16.0149 13.8766 14.6795 15.8782 13.4881 16.2567 14.5091 12.5964 13.3444 14.4298 12.2746 14.7689 13.2051 11.4714 12.1788 13.1412 11.2215 13.4357 12.0272 10.4871 11.1186 11.9587 10.2493 12.245 10.9898 9.59795 10.1584 10.8894 9.37785 11.1561 10.0398 8.81598 9.31908 9.92509 8.59168 10.1501 9.16375 8.08862 8.53521 9.00271 7.87166 9.24945 8.36279 7.42257 7.82125 8.20411 7.20355 8.40683 7.63419 6.81081 7.16269 7.4307 6.57255 7.63782 6.96177 6.22795 6.55117 6.72608 5.98604 6.91596 6.3269 5.7089 5.97974 6.06989 5.45501 6.25026 5.7397 5.21112 5.45197 5.44113 4.93763 5.61746 5.17775 4.73153 4.93166 4.86769 4.43973 5.02738 4.64055 4.28528 4.46004 4.3224 3.99958 4.47394 4.15198 3.84305 4.00386 3.81672 3.56081 3.96757 3.67646 3.43512 3.56544 3.32836 3.13855 3.46344 3.24955 3.04787 3.15531 2.86584 2.73452 3.00461 2.80799 2.66291 2.75042 2.42197 2.33263 2.54785 2.40265 2.27737 2.35287 2.00602 1.94944 2.14886 2.00074 1.93824 1.9901 1.60323 1.58996 1.73648 1.61312 1.55526 1.61183 1.21819 1.21385 1.34108 1.24686 1.21302 1.25477 0.854176 0.887748 0.970333 0.890856 0.867345 0.905298 0.516781 0.554843 0.624687 0.554497 0.558641 0.589065 0.204123 0.2343 0.276035 0.242698 0.211596 0.238993 21.0496 20.4967 17.3632 19.2267 17.0043 18.425 35.4923 31.2789 34.1669 32.6385 28.927 30.2069 37.8762 33.2505 37.9983 35.5747 31.3498 32.648 35.7169 31.2845 36.4787 33.6151 29.504 30.8179 32.545 28.3981 33.4137 30.5146 26.72 28.0145 29.489 25.6116 30.2707 27.5184 24.0604 25.3104 26.7279 23.1539 27.4141 24.8657 21.7343 22.8969 24.244 20.9654 24.866 22.511 19.6781 20.7623 21.9836 19.0118 22.5634 20.4057 17.8509 18.8397 19.9397 17.2632 20.4378 18.5098 16.2048 17.096 18.0539 15.6504 18.5239 16.786 14.7271 15.5177 16.3585 14.1954 16.753 15.2004 13.3739 14.0885 14.7549 12.8748 15.1493 13.7692 12.1293 12.7578 13.3096 11.6366 13.6536 12.4402 11.0248 11.5648 11.9778 10.5173 12.3015 11.2281 9.97013 10.4525 10.7508 9.47972 11.0565 10.105 9.01625 9.44438 9.61371 8.52494 9.90519 9.06633 8.11353 8.48058 8.56219 7.64704 8.83721 8.10715 7.29758 7.61352 7.5922 6.82252 7.8604 7.22306 6.54551 6.82316 6.71434 6.06271 6.95431 6.40684 5.83374 6.06005 5.87966 5.36082 6.10557 5.65746 5.18854 5.36604 5.11376 4.71265 5.32297 4.94621 4.56452 4.73029 4.42376 4.11469 4.62152 4.29886 3.99272 4.12023 3.77679 3.54615 3.95704 3.70176 3.48667 3.57389 3.17345 3.02046 3.34013 3.14869 2.97684 3.05627 2.63674 2.52041 2.78457 2.62457 2.4981 2.56566 2.11493 2.08066 2.26304 2.13225 2.05616 2.1019 1.65409 1.65099 1.79315 1.69829 1.65554 1.67256 1.22705 1.2436 1.34243 1.26831 1.23706 1.28111 0.828274 0.864882 0.949611 0.880759 0.866496 0.909233 0.480609 0.52907 0.56864 0.539944 0.530542 0.553719 0.229827 0.276798 0.288237 0.266142 0.252933 0.272433 36.6959 31.5785 33.5364 33.1256 27.2089 29.0877 47.323 42.6505 45.8451 44.5802 39.9273 41.2635 48.1076 43.5166 48.5792 46.0358 41.4888 42.8401 45.3079 40.7803 46.2762 43.2161 38.9399 40.3461 41.7197 37.3041 42.7291 39.5738 35.5718 36.9731 38.1632 33.9146 39.0936 36.0564 32.3048 33.6503 34.7773 30.796 35.6399 32.782 29.3201 30.5763 31.6228 27.9536 32.4243 29.7803 26.5965 27.7677 28.6887 25.3518 29.4376 27.0167 24.1239 25.1911 25.9899 22.9428 26.6597 24.4732 21.8559 22.8241 23.4703 20.7612 24.1022 22.1123 19.7668 20.6204 21.1626 18.7024 21.7205 19.9457 17.8579 18.6171 19.0043 16.8583 19.5571 17.9399 16.0872 16.7654 17.0643 15.1406 17.5442 16.1243 14.4736 15.0609 15.2392 13.5478 15.6928 14.4226 12.9958 13.4994 13.5713 12.09 13.9783 12.8655 11.6028 12.0604 12.0225 10.7587 12.4057 11.4412 10.3308 10.7172 10.6143 9.51356 10.9666 10.1033 9.16183 9.49683 9.29956 8.3813 9.64985 8.87875 8.08125 8.36379 8.11307 7.33003 8.40957 7.77074 7.09949 7.3395 7.00599 6.35828 7.28944 6.74052 6.17324 6.37569 5.99807 5.49069 6.25904 5.79818 5.34255 5.51306 5.07695 4.681 5.32057 4.92424 4.58319 4.69775 4.23135 3.93643 4.44315 4.13866 3.87003 3.97049 3.47585 3.26281 3.68069 3.422 3.22686 3.30001 2.79514 2.6584 2.97854 2.77288 2.65321 2.70803 2.18423 2.12011 2.36185 2.19602 2.12797 2.14856 1.63943 1.61863 1.793 1.67906 1.64021 1.65729 1.18262 1.19363 1.30434 1.22651 1.21064 1.22253 0.758811 0.79933 0.88035 0.823734 0.81027 0.826675 0.425772 0.461928 0.532294 0.472559 0.463371 0.471725 0.199117 0.2683 0.250202 0.237937 0.23659 0.255134 66.9964 50.1444 65.2257 60.1782 44.7513 46.8126 58.1923 54.3559 62.2122 55.9956 51.719 52.935 57.2027 53.3497 58.8672 55.4268 51.4101 52.8584 54.6595 50.2713 55.7417 52.4873 48.4138 49.9252 51.1278 46.5037 52.2347 48.8507 44.7259 46.2253 47.1629 42.653 48.3098 44.9735 41.0164 42.4335 43.174 38.9192 44.2968 41.1171 37.4041 38.7448 39.3263 35.3951 40.4089 37.4337 34.0242 35.2445 35.696 32.1071 36.7126 33.9591 30.8658 31.9898 32.2888 29.0333 33.2236 30.7064 27.9252 28.9399 29.1291 26.2017 30.0007 27.6962 25.202 26.0966 26.1773 23.5623 27.012 24.9202 22.6705 23.4984 23.4725 21.1275 24.2369 22.3468 20.355 21.0602 20.9676 18.8903 21.681 19.9768 18.2136 18.8435 18.6607 16.817 19.3111 17.8003 16.2346 16.7963 16.5483 14.9374 17.1456 15.7865 14.4108 14.9067 14.6019 13.1797 15.1558 13.9265 12.7374 13.1657 12.7873 11.5514 13.3137 12.2334 11.1974 11.5691 11.1499 10.1007 11.6086 10.6724 9.7826 10.0883 9.633 8.73423 10.0609 9.22834 8.48744 8.75835 8.23994 7.49118 8.63089 7.90529 7.29397 7.49485 6.96853 6.3347 7.33565 6.70539 6.2116 6.37904 5.80715 5.31817 6.15056 5.60205 5.22342 5.34963 4.76815 4.37757 5.06249 4.59007 4.30692 4.40828 3.8105 3.52312 4.09938 3.70506 3.49033 3.56281 2.95491 2.78047 3.22793 2.93011 2.77736 2.81083 2.23911 2.11726 2.46059 2.19836 2.13589 2.17625 1.59825 1.55862 1.79991 1.6092 1.563 1.58245 1.07335 1.06794 1.23765 1.09871 1.10719 1.11458 0.647392 0.679122 0.796243 0.693347 0.696453 0.692048 0.364836 0.381374 0.44825 0.384712 0.375534 0.390367 0.193366 0.185334 0.229827 0.183751 0.189595 0.162084 23.3824 51.1261 15.9951 28.4711 56.2964 56.2497 39.6591 42.7253 39.7509 42.2255 43.9423 42.8074 38.6198 42.0358 40.1525 40.659 44.3654 42.4545 35.9687 40.149 37.1536 38.598 43.0857 41.067 33.0316 36.996 33.9697 35.6787 39.9815 38.1612 29.8699 33.2629 30.7065 32.2318 36.018 34.4503 26.6803 29.5061 27.4326 28.7004 31.9652 30.6159 23.6338 26.0317 24.3137 25.386 28.1993 27.016 20.8617 22.9397 21.4595 22.3745 24.8303 23.7978 18.3999 20.2216 18.9215 19.7344 21.8905 20.9551 16.207 17.8077 16.6567 17.3955 19.2583 18.44 14.2706 15.6663 14.6747 15.3158 16.9724 16.2505 12.5309 13.7626 12.8787 13.4503 14.8887 14.2618 10.9809 12.0238 11.2976 11.7677 13.0231 12.4627 9.55563 10.4633 9.83877 10.2545 11.3305 10.8405 8.26829 9.00297 8.54127 8.85959 9.77904 9.34728 7.09967 7.70383 7.34254 7.60271 8.35864 8.02026 6.03505 6.50977 6.25714 6.45656 7.08503 6.77938 5.07453 5.43734 5.26847 5.40725 5.9182 5.66193 4.20922 4.45225 4.38284 4.45863 4.8669 4.66497 3.44061 3.59088 3.60052 3.62518 3.92514 3.75386 2.7396 2.80079 2.88002 2.87112 3.08046 2.96256 2.14622 2.13408 2.25478 2.21829 2.345 2.27156 1.63436 1.55452 1.73604 1.65304 1.68935 1.63966 1.19873 1.08003 1.29771 1.17696 1.16352 1.14315 0.863602 0.684974 0.934154 0.785686 0.7307 0.734082 0.599178 0.407032 0.665841 0.519141 0.377344 0.42883 0.429034 0.268685 0.464541 0.326875 0.23057 0.271697 0.309357 0.265333 0.350303 0.255405 0.23893 0.237994 0.209016 0.260693 0.275705 0.234273 0.242053 0.248428 0.132735 0.182999 0.177546 0.151275 0.192183 0.185164 0.084981 0.0925951 0.113593 0.104087 0.0884722 0.0687563 10.5836 19.6853 6.43765 13.0101 18.9336 16.965 24.385 30.2071 23.5303 27.5604 32.6761 31.1771 25.7457 30.511 25.9238 28.2306 32.8846 31.6175 24.4559 28.1549 25.0531 26.427 30.5272 29.1581 22.5858 25.6888 23.191 24.3602 28.1244 26.6761 20.5018 23.188 21.0401 22.193 25.5609 24.1858 18.3657 20.7284 18.8298 19.9394 22.9275 21.6746 16.3235 18.4087 16.7256 17.7545 20.3601 19.2492 14.4517 16.2975 14.8025 15.7294 18.0036 17.0213 12.7893 14.4037 13.1091 13.9299 15.8843 15.0363 11.3397 12.7312 11.6021 12.325 14.0149 13.267 10.038 11.2502 10.2897 10.8821 12.3476 11.7075 8.87688 9.93031 9.11019 9.6156 10.8476 10.3027 7.85433 8.69699 8.05978 8.46585 9.52822 9.04998 6.90478 7.61724 7.10709 7.43238 8.29699 7.90026 6.07795 6.63989 6.2497 6.50027 7.21701 6.88232 5.31166 5.73043 5.47334 5.66 6.21538 5.9461 4.62167 4.93404 4.76567 4.87222 5.33011 5.1087 4.01037 4.21025 4.15177 4.19897 4.49822 4.36019 3.45782 3.56036 3.58932 3.57566 3.78561 3.67188 2.98051 2.98754 3.08638 3.03274 3.14055 3.07079 2.53651 2.4943 2.64354 2.55077 2.56555 2.55118 2.17185 2.06215 2.27204 2.14379 2.08534 2.10724 1.84008 1.70053 1.93226 1.78677 1.68549 1.72104 1.55132 1.40087 1.65919 1.49532 1.32244 1.40442 1.32035 1.15495 1.39868 1.22563 1.05073 1.14661 1.08132 0.953612 1.16431 1.00286 0.855438 0.941076 0.882609 0.773914 0.946391 0.82183 0.667639 0.76203 0.661665 0.594916 0.746727 0.631082 0.51973 0.604264 0.451377 0.426894 0.53903 0.453497 0.350859 0.424573 0.242765 0.255474 0.341705 0.260737 0.181379 0.246745 0.110288 0.127201 0.13942 0.0934756 0.095357 0.161882 6.21425 10.7725 3.06276 7.31971 9.47671 9.20104 17.5241 19.4403 16.8558 18.0123 19.4164 18.9464 19.6937 20.6631 20.1336 19.9956 21.6512 20.9272 18.2774 19.4254 18.8211 18.8133 20.8815 20.0072 16.38 17.6603 16.8337 17.0758 19.2525 18.3083 14.6051 15.897 14.9838 15.3694 17.4564 16.5207 13.0319 14.243 13.3456 13.7764 15.6643 14.7998 11.6338 12.7256 11.8924 12.335 13.9824 13.2052 10.3977 11.3744 10.6329 11.037 12.4439 11.7667 9.34092 10.1775 9.53925 9.89585 11.0567 10.48 8.41986 9.10792 8.61255 8.88034 9.84874 9.36165 7.62211 8.19034 7.79115 7.99805 8.77934 8.3848 6.90156 7.3505 7.07672 7.20795 7.81345 7.49475 6.27209 6.60801 6.4358 6.51084 6.99891 6.7294 5.72934 5.94176 5.87241 5.87653 6.22856 6.04332 5.20575 5.34848 5.33871 5.31898 5.53286 5.41464 4.74194 4.79153 4.87167 4.79504 4.94166 4.8556 4.32424 4.30038 4.4366 4.33992 4.38644 4.33665 3.92652 3.86881 4.05875 3.91892 3.87507 3.8735 3.56745 3.46657 3.68122 3.52732 3.42774 3.46032 3.22748 3.09871 3.34475 3.16445 3.02229 3.08537 2.90299 2.74833 3.00969 2.82762 2.67612 2.74794 2.60583 2.46253 2.71372 2.54835 2.36573 2.44859 2.31858 2.18548 2.42134 2.25949 2.0736 2.15618 2.02955 1.89878 2.12905 1.97291 1.78448 1.88606 1.77816 1.65395 1.8623 1.72143 1.55452 1.6405 1.50885 1.41201 1.61466 1.44578 1.3002 1.39506 1.22251 1.16125 1.31919 1.2042 1.07076 1.15064 0.954377 0.919958 1.05351 0.938652 0.841713 0.91032 0.660895 0.637421 0.764665 0.664827 0.585969 0.648013 0.392914 0.401602 0.502594 0.407187 0.340516 0.399233 0.11735 0.164104 0.196754 0.134638 0.145184 0.194649 7.2531 9.32974 4.04708 7.15452 7.29824 7.96831 18.7355 17.173 18.0545 17.2846 16.1613 16.835 21.2309 18.5574 21.6561 19.3779 18.1172 18.5446 19.6825 17.3163 20.2837 18.1956 17.179 17.379 17.4019 15.603 17.9214 16.3204 15.5505 15.6261 15.3595 13.9751 15.8092 14.5492 13.9422 13.9637 13.6989 12.5638 14.0746 13.0363 12.4874 12.4855 12.3087 11.3435 12.6355 11.7385 11.2083 11.2416 11.1483 10.2675 11.4288 10.6312 10.1013 10.1376 10.1394 9.35145 10.3886 9.67661 9.14304 9.21325 9.26274 8.54056 9.50748 8.84672 8.31853 8.40636 8.50337 7.83464 8.71954 8.12073 7.5925 7.70176 7.82845 7.20388 7.99946 7.47105 6.96311 7.07662 7.19012 6.63894 7.38198 6.90045 6.38984 6.51071 6.62796 6.12237 6.82193 6.34786 5.86548 6.00249 6.10609 5.64039 6.28631 5.85232 5.39618 5.54809 5.62566 5.21238 5.76393 5.38696 4.97188 5.10746 5.16127 4.78783 5.3221 4.96305 4.56777 4.69176 4.7315 4.40203 4.87501 4.56354 4.18745 4.32312 4.31781 4.03171 4.45462 4.17389 3.84049 3.96698 3.92031 3.68428 4.04911 3.79355 3.50825 3.62232 3.53848 3.34211 3.67882 3.45683 3.17897 3.29011 3.17016 3.01923 3.32354 3.11435 2.84901 2.96363 2.84786 2.69589 2.96017 2.77554 2.55784 2.65359 2.47341 2.36385 2.60433 2.44257 2.26582 2.34061 2.13292 2.05573 2.25717 2.11448 1.9526 2.03949 1.81027 1.751 1.91098 1.7886 1.66612 1.74912 1.45738 1.43467 1.5763 1.4794 1.3578 1.4257 1.13812 1.12803 1.24666 1.17031 1.08835 1.11308 0.818286 0.821694 0.91334 0.842814 0.782162 0.826592 0.486703 0.515658 0.590298 0.530461 0.474864 0.521079 0.145216 0.170041 0.249095 0.184586 0.169591 0.211445 12.2289 13.2923 8.6956 11.4027 10.5324 11.6103 25.522 22.2256 24.5423 23.1084 20.4085 21.569 28.3684 24.0204 28.5716 25.8883 22.6922 23.8218 26.7074 22.5859 27.3008 24.5074 21.3338 22.3794 24.0033 20.4107 24.6508 22.0973 19.1671 20.1344 21.4736 18.3366 22.0709 19.7991 17.1083 18.0011 19.2993 16.5392 19.8398 17.8086 15.3493 16.167 17.4194 14.9588 17.9021 16.0869 13.8493 14.5962 15.7962 13.5876 16.225 14.5886 12.5626 13.2515 14.3491 12.3868 14.7426 13.2771 11.4422 12.0607 13.0647 11.2911 13.41 12.0994 10.4466 11.0228 11.9083 10.3252 12.2178 11.0398 9.57456 10.0741 10.8264 9.46145 11.1176 10.1084 8.77945 9.22903 9.86265 8.652 10.1332 9.21847 8.0725 8.44956 8.98336 7.92448 9.22676 8.43275 7.38994 7.75749 8.15405 7.25779 8.3972 7.67806 6.78679 7.11092 7.40539 6.61591 7.61026 6.98674 6.22234 6.49429 6.68714 6.03746 6.89787 6.36683 5.68047 5.91201 6.02921 5.49814 6.22485 5.76119 5.1913 5.39832 5.41615 4.98053 5.6044 5.20551 4.71504 4.89193 4.83361 4.47127 5.00608 4.67494 4.26472 4.41609 4.30332 4.02164 4.47528 4.18783 3.83188 3.96549 3.79714 3.59896 3.96205 3.71741 3.42564 3.53213 3.3109 3.15384 3.46216 3.25917 3.03564 3.11968 2.84991 2.74494 2.99325 2.82206 2.63329 2.71746 2.41977 2.36678 2.54597 2.40978 2.27003 2.32133 1.99212 1.97939 2.12029 2.01226 1.9158 1.96282 1.60002 1.59572 1.71858 1.64231 1.55581 1.58845 1.21349 1.24076 1.34372 1.25792 1.20156 1.23423 0.857459 0.88671 0.977098 0.907157 0.869982 0.911845 0.522323 0.553331 0.636671 0.55705 0.539358 0.575207 0.209521 0.226789 0.286616 0.236147 0.21038 0.237979 20.9812 20.5975 17.3826 19.2536 17.0436 18.3997 35.507 31.3675 34.1635 32.7176 28.9365 30.1995 37.8754 33.2277 37.9471 35.5753 31.3706 32.7034 35.8064 31.2448 36.5149 33.6084 29.5899 30.9392 32.629 28.3967 33.448 30.5152 26.7836 28.0893 29.5162 25.6546 30.2911 27.5439 24.1074 25.3291 26.7176 23.2153 27.4166 24.9016 21.7359 22.8599 24.2011 21.0318 24.8377 22.5624 19.6526 20.6869 21.9567 19.0865 22.5305 20.4561 17.8242 18.7547 19.8865 17.3241 20.4174 18.5642 16.1763 17.0165 18.0092 15.7015 18.5077 16.8342 14.6963 15.4392 16.296 14.2588 16.7462 15.2446 13.3551 14.0245 14.7233 12.8989 15.1309 13.8147 12.1091 12.6923 13.2706 11.6917 13.6534 12.4879 10.9786 11.4938 11.9456 10.5584 12.3023 11.2436 9.96171 10.4049 10.7153 9.52551 11.0541 10.1273 8.99579 9.37304 9.59209 8.56297 9.89399 9.08239 8.10919 8.44036 8.54291 7.68138 8.8341 8.13832 7.28895 7.57288 7.58416 6.85189 7.83678 7.25923 6.54543 6.77598 6.69636 6.0957 6.92679 6.42532 5.84125 6.0262 5.86231 5.39493 6.10493 5.66252 5.17408 5.34583 5.10202 4.73982 5.32965 4.97009 4.5439 4.68603 4.39999 4.12586 4.61862 4.30951 4.00131 4.10521 3.76323 3.57209 3.94783 3.70329 3.46572 3.5382 3.17055 3.03985 3.34841 3.14158 2.9636 3.02725 2.61516 2.54101 2.78178 2.646 2.48533 2.55141 2.10568 2.09531 2.26482 2.14324 2.05007 2.10548 1.64822 1.64596 1.79462 1.69512 1.63906 1.67378 1.21381 1.26203 1.36645 1.29217 1.23248 1.25721 0.814449 0.870669 0.954826 0.892929 0.86164 0.892565 0.478418 0.53351 0.595787 0.533716 0.532467 0.559566 0.223559 0.266232 0.291125 0.256972 0.254515 0.275546 36.6612 31.7388 33.5526 33.1439 27.2534 28.978 47.2621 42.8605 45.774 44.7228 39.9209 41.1698 48.0168 43.5901 48.5129 46.113 41.4462 42.809 45.3307 40.7845 46.3181 43.2339 38.9878 40.4311 41.7623 37.3025 42.7654 39.5886 35.6142 37.0384 38.1821 33.9149 39.1264 36.0721 32.3225 33.6755 34.7684 30.8365 35.652 32.8028 29.3245 30.564 31.6006 27.9838 32.4045 29.8063 26.5943 27.7265 28.6703 25.3929 29.4027 27.0497 24.1146 25.147 25.9376 22.9819 26.6426 24.5057 21.8324 22.765 23.4263 20.7874 24.0768 22.1411 19.7474 20.5829 21.1368 18.7537 21.7083 19.9788 17.8344 18.5766 18.9862 16.8796 19.5322 17.9706 16.0703 16.7239 17.0215 15.1691 17.5373 16.139 14.4529 15.027 15.2078 13.577 15.6843 14.45 12.9662 13.4721 13.5487 12.1174 13.9788 12.8855 11.5839 12.0096 12.0223 10.7729 12.3934 11.4429 10.3217 10.7029 10.6003 9.53957 10.9685 10.1235 9.16703 9.47006 9.29106 8.39682 9.63596 8.90159 8.07892 8.3477 8.09274 7.33577 8.41 7.78812 7.08694 7.31816 6.99234 6.38381 7.29335 6.73766 6.18675 6.36334 5.98626 5.49498 6.27003 5.80704 5.33149 5.47991 5.06 4.69694 5.32779 4.92297 4.56707 4.68924 4.23187 3.94298 4.46199 4.15472 3.86907 3.94979 3.47198 3.28313 3.67551 3.43703 3.21473 3.27811 2.77974 2.67631 2.9804 2.79888 2.6371 2.6892 2.17626 2.13451 2.34891 2.21252 2.10607 2.14298 1.63896 1.63964 1.79621 1.68315 1.62895 1.65163 1.16623 1.20845 1.29844 1.2248 1.19256 1.22015 0.763572 0.795902 0.882697 0.813941 0.805421 0.824385 0.408958 0.441333 0.527269 0.460441 0.453408 0.461019 0.224136 0.276451 0.263783 0.254262 0.25362 0.259934 67.194 50.3065 65.1418 60.0825 44.8581 46.6975 58.1119 54.6516 62.0641 56.2472 51.6746 52.745 56.951 53.5029 58.811 55.6277 51.308 52.7239 54.5701 50.3137 55.799 52.5782 48.4041 49.9526 51.1146 46.53 52.2947 48.8748 44.7649 46.2738 47.1724 42.6806 48.344 44.9993 41.0363 42.4635 43.1812 38.9463 44.3102 41.1446 37.4174 38.7223 39.301 35.4219 40.4003 37.4612 34.0156 35.2204 35.6548 32.1357 36.6944 33.9866 30.8501 31.9464 32.2721 29.0567 33.2239 30.7474 27.9068 28.8907 29.0927 26.2109 29.9944 27.727 25.1724 26.0704 26.1585 23.5906 27.0148 24.9489 22.6717 23.4565 23.4471 21.1505 24.2351 22.3653 20.3469 21.0368 20.9521 18.9169 21.6605 19.9971 18.2194 18.8148 18.6534 16.8396 19.331 17.8161 16.2263 16.7648 16.5295 14.9206 17.1514 15.8045 14.4177 14.8914 14.5748 13.1714 15.1562 13.9345 12.7381 13.1486 12.7882 11.5871 13.3069 12.2589 11.2041 11.5391 11.1388 10.0979 11.6125 10.6678 9.78964 10.0811 9.61767 8.7507 10.0725 9.23866 8.47706 8.73459 8.2283 7.5054 8.64276 7.90901 7.29383 7.4901 6.9713 6.34869 7.3372 6.70791 6.19405 6.34901 5.80194 5.33952 6.14794 5.60964 5.21404 5.33452 4.75863 4.38587 5.06318 4.60013 4.30407 4.40121 3.80625 3.54653 4.10242 3.72236 3.48387 3.55527 2.95179 2.78794 3.23295 2.91375 2.75912 2.81184 2.22012 2.12567 2.44667 2.23272 2.12774 2.15978 1.60334 1.56237 1.80401 1.61059 1.57222 1.5931 1.07002 1.0812 1.22787 1.09352 1.09446 1.09319 0.657011 0.684962 0.794445 0.689206 0.698505 0.697452 0.381566 0.378922 0.4534 0.390342 0.369379 0.387362 0.19493 0.183824 0.235088 0.187102 0.190327 0.17634 23.6734 49.8078 17.2655 28.7282 55.3964 55.1662 39.2755 43.0486 39.1724 41.9127 44.1954 42.9052 38.3096 41.9935 39.7731 40.3013 44.3955 42.5794 35.5863 39.5996 36.7363 37.9517 42.7696 40.8989 32.5796 36.1831 33.4557 34.8743 39.4903 37.8018 29.4534 32.4127 30.1557 31.4181 35.5118 34.0574 26.3266 28.7822 26.9364 28.0122 31.5331 30.2744 23.3848 25.4695 23.9064 24.8528 27.8608 26.7648 20.6939 22.5298 21.1654 22.0019 24.6091 23.6213 18.2941 19.9567 18.7194 19.4941 21.7135 20.8453 16.1553 17.6546 16.54 17.2599 19.1728 18.3872 14.254 15.5881 14.5978 15.2491 16.9042 16.1978 12.5263 13.7054 12.8638 13.4391 14.8653 14.2411 10.9831 11.9938 11.2869 11.7783 13.0205 12.465 9.57755 10.4547 9.86521 10.2734 11.3395 10.8418 8.30307 9.02187 8.55493 8.89282 9.79535 9.37897 7.12755 7.71049 7.36231 7.63223 8.38085 8.01682 6.07387 6.5335 6.27878 6.48559 7.10576 6.79317 5.09957 5.47369 5.29363 5.4566 5.94658 5.68553 4.24932 4.48607 4.4109 4.50343 4.89453 4.67679 3.47363 3.61073 3.6144 3.65079 3.94752 3.76797 2.77835 2.83528 2.92092 2.91806 3.10188 2.97371 2.17909 2.1609 2.28456 2.24469 2.37083 2.27803 1.66378 1.59354 1.75162 1.68064 1.72777 1.67652 1.236 1.10269 1.32477 1.2238 1.18558 1.16431 0.8921 0.720861 0.966354 0.838794 0.764207 0.759705 0.640365 0.432805 0.707946 0.54186 0.42696 0.462845 0.447329 0.291592 0.494913 0.353748 0.240517 0.299732 0.329654 0.267492 0.373391 0.260606 0.237555 0.262852 0.24651 0.24966 0.288039 0.235788 0.243125 0.273853 0.127266 0.204495 0.195636 0.160316 0.185067 0.176656 0.102937 0.100854 0.11463 0.0951049 0.0718788 0.0895448 11.1077 19.9987 8.06457 14.1329 19.2231 17.298 24.0891 29.6493 23.1696 27.0025 32.1878 30.8754 25.3432 29.7599 25.4466 27.5014 32.3861 31.3186 24.0116 27.2958 24.5204 25.6244 30.0272 28.7937 22.1723 24.8265 22.6662 23.5925 27.6097 26.3011 20.1805 22.4562 20.5774 21.5489 25.1107 23.8447 18.1542 20.1933 18.4689 19.4547 22.5572 21.4044 16.1879 18.0555 16.4807 17.4555 20.122 19.0675 14.4086 16.1033 14.6904 15.5914 17.8469 16.9203 12.8023 14.3442 13.0616 13.8784 15.8108 14.9841 11.3826 12.7598 11.6296 12.3696 13.9906 13.2675 10.0979 11.3021 10.3436 10.9727 12.3664 11.7214 8.94846 10.0098 9.19854 9.73495 10.8978 10.339 7.93701 8.8251 8.16152 8.59508 9.56761 9.08354 7.00767 7.72738 7.21675 7.5646 8.36005 7.95508 6.15468 6.74969 6.3522 6.62598 7.26728 6.93125 5.40108 5.85449 5.58862 5.77746 6.28604 5.99701 4.70853 5.0374 4.88163 4.99926 5.37645 5.15098 4.09371 4.31123 4.25153 4.32705 4.55804 4.3996 3.53547 3.66927 3.68098 3.69323 3.83467 3.72957 3.05254 3.08155 3.1819 3.14096 3.1957 3.12202 2.61762 2.59016 2.74559 2.6537 2.61046 2.60038 2.24195 2.14349 2.3504 2.22985 2.12932 2.13762 1.89701 1.78433 1.99461 1.87294 1.71576 1.76112 1.60931 1.46951 1.71339 1.5662 1.38138 1.4576 1.35998 1.22682 1.45868 1.29737 1.10752 1.18174 1.11878 1.01049 1.2092 1.07606 0.878369 0.968016 0.898284 0.817925 0.99799 0.87127 0.695842 0.777042 0.682077 0.63431 0.775854 0.676329 0.52885 0.605496 0.486522 0.452091 0.566215 0.475268 0.377272 0.445547 0.258319 0.264463 0.348601 0.278633 0.181705 0.253021 0.111193 0.160239 0.160435 0.0948406 0.108346 0.153423 6.22446 10.7092 3.77396 7.71562 9.6821 9.34761 17.1125 18.6348 16.3252 17.1863 18.8401 18.6345 19.2218 19.7987 19.4951 19.0692 21.068 20.5487 17.8957 18.6838 18.2716 18.09 20.3683 19.6338 16.1229 17.1012 16.4421 16.5747 18.8669 18.0071 14.495 15.5674 14.7541 15.0873 17.1979 16.3221 13.037 14.1225 13.2788 13.7108 15.525 14.6963 11.7261 12.7694 11.9538 12.4149 13.9497 13.1832 10.5376 11.526 10.7756 11.228 12.4749 11.8079 9.51108 10.396 9.74535 10.1376 11.152 10.5761 8.61635 9.38094 8.8398 9.18321 9.97516 9.48618 7.80609 8.46431 8.03169 8.2954 8.91538 8.50321 7.10302 7.62995 7.31238 7.50757 7.98394 7.64127 6.44999 6.88493 6.66555 6.80527 7.13436 6.86291 5.8826 6.19655 6.07655 6.1596 6.37182 6.15344 5.34972 5.5901 5.53025 5.57127 5.68893 5.51793 4.8768 5.02169 5.05909 5.03938 5.05432 4.95182 4.4379 4.52064 4.6193 4.55435 4.48654 4.43718 4.04507 4.06255 4.19543 4.11007 4.00434 3.97216 3.66433 3.64347 3.81838 3.70813 3.53495 3.54904 3.30808 3.25549 3.46108 3.31516 3.12701 3.16762 2.99689 2.9017 3.13399 2.99268 2.77513 2.80736 2.68121 2.59079 2.80145 2.66585 2.42917 2.50943 2.36696 2.3024 2.50334 2.36614 2.12914 2.20534 2.08871 2.02426 2.21784 2.08164 1.86476 1.94271 1.82017 1.74045 1.94486 1.80052 1.60243 1.68017 1.53832 1.48391 1.64756 1.53036 1.36237 1.43492 1.26417 1.21869 1.36718 1.26451 1.10231 1.18329 0.967315 0.961951 1.08711 0.993144 0.861036 0.930346 0.699264 0.699559 0.810476 0.722569 0.617366 0.676536 0.411145 0.422211 0.51058 0.429088 0.366352 0.427555 0.136206 0.174641 0.231713 0.14416 0.146732 0.210708 6.92219 8.6133 3.68223 6.61875 6.86733 7.72023 18.3897 16.2467 17.5799 16.4424 15.5141 16.4435 20.8424 17.7423 21.0879 18.5405 17.5487 18.1427 19.4246 16.8528 19.8357 17.6555 16.8029 17.1121 17.3282 15.4794 17.7262 16.1466 15.4129 15.5266 15.4384 14.1205 15.8237 14.6586 13.9681 13.9937 13.8566 12.8851 14.2424 13.3284 12.6427 12.6242 12.5325 11.7385 12.9028 12.134 11.4258 11.4071 11.3834 10.7223 11.727 11.0823 10.3722 10.36 10.3929 9.79333 10.6991 10.1232 9.42036 9.42071 9.49574 8.98612 9.80829 9.2752 8.58889 8.60835 8.71301 8.24126 9.01152 8.51972 7.85924 7.90517 8.01767 7.56977 8.27976 7.82233 7.21874 7.27091 7.38392 6.98137 7.61849 7.2229 6.61803 6.67466 6.79411 6.44158 7.02797 6.65655 6.08642 6.16385 6.26706 5.92422 6.46641 6.12935 5.5916 5.66823 5.74231 5.45164 5.95834 5.63457 5.14145 5.23783 5.27891 5.02124 5.47237 5.18494 4.72294 4.82434 4.84472 4.62462 5.02808 4.7634 4.34253 4.42248 4.42867 4.22921 4.60422 4.35768 3.95863 4.0511 4.00465 3.86372 4.18056 3.97774 3.61996 3.70118 3.63286 3.49241 3.7899 3.61129 3.27614 3.35451 3.26625 3.14464 3.41325 3.2458 2.96161 3.03817 2.88877 2.81601 3.04023 2.87896 2.63331 2.70108 2.52251 2.48069 2.67821 2.55175 2.31916 2.39677 2.1868 2.15728 2.32179 2.20156 2.00967 2.09932 1.8305 1.81705 1.97804 1.85484 1.71197 1.77111 1.49783 1.50299 1.62136 1.53488 1.42668 1.47689 1.16038 1.2011 1.28168 1.19826 1.10716 1.15442 0.829455 0.870017 0.958098 0.877968 0.808116 0.855124 0.510781 0.531882 0.627494 0.553224 0.503546 0.527735 0.171818 0.205884 0.27834 0.207068 0.177705 0.215713 12.1571 13.0603 8.85003 11.307 10.2234 11.4226 25.4029 21.7966 24.3734 22.7877 20.0332 21.35 28.1425 23.5233 28.2539 25.396 22.3056 23.5593 26.5371 22.3058 27.0166 24.1553 21.1147 22.2266 23.9801 20.428 24.5372 22.0356 19.1472 20.1284 21.5587 18.5869 22.1163 19.9579 17.2536 18.1065 19.4651 16.903 20.0026 18.1039 15.5815 16.3468 17.6112 15.3835 18.1393 16.4455 14.1326 14.8093 15.9921 14.0284 16.475 14.9731 12.8513 13.4609 14.5583 12.7926 14.9956 13.6438 11.7325 12.2669 13.2339 11.6998 13.6536 12.4534 10.7294 11.1969 12.0558 10.6911 12.4511 11.3697 9.81723 10.2412 10.9828 9.77118 11.3341 10.383 8.99751 9.39156 10.009 8.95237 10.326 9.50082 8.25124 8.59603 9.10044 8.20221 9.39027 8.66086 7.58329 7.88947 8.26948 7.49285 8.52815 7.89923 6.952 7.21545 7.48567 6.85497 7.74905 7.20208 6.36283 6.59927 6.77341 6.23262 7.01506 6.54104 5.82284 6.00548 6.11123 5.68333 6.35169 5.92344 5.30213 5.48862 5.49146 5.13126 5.7146 5.35029 4.82721 4.96414 4.90153 4.64383 5.1154 4.82037 4.37486 4.4813 4.36942 4.1546 4.56645 4.30794 3.92876 4.0362 3.84951 3.70208 4.02494 3.83017 3.49841 3.60628 3.35541 3.26393 3.53016 3.3664 3.09338 3.17161 2.88238 2.84099 3.06695 2.92749 2.70544 2.77159 2.45317 2.42671 2.6116 2.48982 2.31689 2.38837 2.03617 2.04033 2.18027 2.08786 1.94198 1.99148 1.62819 1.66351 1.77382 1.68633 1.59643 1.63186 1.24819 1.29201 1.37744 1.29563 1.24663 1.2665 0.874609 0.93447 1.00714 0.928605 0.891903 0.917673 0.528709 0.58467 0.63267 0.591276 0.56702 0.590825 0.207969 0.252047 0.299269 0.272199 0.219107 0.258682 21.1124 21.0893 17.7903 19.7197 17.1392 18.4408 35.6597 31.5445 34.3576 32.9651 28.892 30.2455 37.8221 32.9939 37.9481 35.4161 31.1658 32.6013 35.6881 31.0162 36.3808 33.3834 29.4235 30.8329 32.579 28.3559 33.3503 30.4211 26.7571 28.0718 29.5481 25.7928 30.3034 27.6018 24.1999 25.3861 26.8193 23.4519 27.52 25.0869 21.9107 22.9901 24.3356 21.3429 25.0021 22.8121 19.8764 20.8354 22.0876 19.3969 22.7034 20.7415 18.0381 18.9102 20.0286 17.6045 20.5896 18.8199 16.3975 17.1792 18.1457 15.9888 18.6678 17.0775 14.8794 15.5704 16.4238 14.502 16.8985 15.4829 13.5149 14.1369 14.8382 13.1334 15.2801 14.0108 12.2734 12.8029 13.3716 11.8886 13.7726 12.6576 11.1323 11.603 12.0295 10.7366 12.404 11.4276 10.0719 10.4976 10.8009 9.69284 11.1441 10.267 9.11246 9.47413 9.66052 8.71379 9.98474 9.2322 8.2108 8.52045 8.6071 7.81233 8.90937 8.25475 7.38492 7.65497 7.64569 6.98329 7.92425 7.36652 6.61963 6.83244 6.73974 6.21535 6.99088 6.53685 5.91324 6.0993 5.91854 5.51039 6.17736 5.76973 5.25584 5.39134 5.16896 4.83249 5.3817 5.06166 4.64238 4.75175 4.45267 4.22971 4.67025 4.38653 4.07119 4.15149 3.79807 3.64901 3.9902 3.78234 3.5226 3.58284 3.20283 3.1208 3.37687 3.2216 3.00115 3.06018 2.66058 2.61645 2.83126 2.6896 2.54627 2.56698 2.14218 2.15123 2.31077 2.21207 2.10139 2.13277 1.67368 1.70561 1.83545 1.75169 1.65429 1.69019 1.24083 1.30354 1.38299 1.32643 1.27252 1.28956 0.839195 0.903401 0.979001 0.926846 0.900526 0.921057 0.464453 0.556392 0.598682 0.569439 0.540281 0.563222 0.23036 0.263394 0.305428 0.276722 0.238256 0.278873 36.8172 32.7394 33.7075 33.7302 27.6187 29.1871 47.6776 43.5556 46.3797 45.4455 40.1894 41.4619 48.1386 43.5863 48.8338 46.265 41.415 42.8507 45.2834 40.5865 46.3401 43.1132 38.8622 40.3683 41.7302 37.2046 42.7134 39.4813 35.5527 37.0057 38.1931 33.9658 39.1042 36.0596 32.3723 33.687 34.8316 30.9642 35.6836 32.9065 29.4228 30.6361 31.694 28.1902 32.5035 29.9661 26.7309 27.8225 28.7639 25.5891 29.5207 27.224 24.2621 25.24 26.0481 23.1938 26.7618 24.67 21.9675 22.8477 23.5323 20.9601 24.2015 22.3139 19.8791 20.67 21.2033 18.9132 21.808 20.1296 17.9451 18.6516 19.0543 17.0287 19.6338 18.1228 16.1708 16.7967 17.0741 15.2952 17.6088 16.2463 14.5452 15.0921 15.2599 13.7093 15.7537 14.548 13.0404 13.5207 13.5949 12.2155 14.0367 12.9708 11.6531 12.0611 12.0543 10.8748 12.4539 11.5193 10.3903 10.7267 10.6359 9.63419 11.0176 10.2029 9.22412 9.51841 9.32342 8.49235 9.68261 8.96914 8.1364 8.38595 8.13142 7.41188 8.44589 7.84823 7.13944 7.36299 7.02097 6.45345 7.33643 6.80866 6.22295 6.37961 6.01277 5.57744 6.28862 5.87144 5.39853 5.52141 5.09407 4.76082 5.35898 4.98666 4.62631 4.71633 4.25515 4.00527 4.49321 4.20969 3.90685 3.97596 3.48136 3.33136 3.70286 3.47339 3.26247 3.31568 2.79454 2.71054 3.00394 2.83238 2.68199 2.69793 2.20307 2.1571 2.36898 2.23682 2.13937 2.16694 1.63869 1.66282 1.80743 1.72518 1.66361 1.66975 1.17405 1.22427 1.32621 1.24888 1.21222 1.23601 0.7672 0.812125 0.894754 0.850535 0.806635 0.818296 0.411915 0.459702 0.527199 0.475657 0.474506 0.468648 0.221314 0.268611 0.257431 0.242777 0.255753 0.274357 67.0541 51.3161 64.4806 60.2996 45.2493 46.9081 58.8945 55.8122 63.0692 57.523 52.257 53.2842 57.316 53.8302 59.4213 56.1834 51.4536 52.9181 54.6664 50.2454 55.9937 52.6682 48.3875 49.9595 51.1437 46.4624 52.3256 48.8791 44.7296 46.2596 47.186 42.7032 48.3723 45.0124 41.0372 42.4615 43.2117 39.0512 44.3649 41.2441 37.4872 38.7811 39.3896 35.5789 40.5084 37.6051 34.1329 35.2855 35.7384 32.2799 36.7863 34.1075 30.9651 32.0065 32.3442 29.2087 33.3283 30.8846 28.019 28.9623 29.1592 26.3559 30.0863 27.8499 25.2847 26.1347 26.2041 23.704 27.068 25.055 22.7412 23.504 23.523 21.258 24.2927 22.4546 20.4213 21.0812 21.0035 18.9851 21.729 20.0755 18.2603 18.8563 18.6809 16.9124 19.3719 17.8648 16.2779 16.8146 16.5616 15.0022 17.1857 15.8411 14.4533 14.9277 14.614 13.2401 15.184 13.9891 12.7883 13.1684 12.8198 11.646 13.3426 12.295 11.235 11.5777 11.1371 10.1485 11.6357 10.7037 9.81843 10.1004 9.64525 8.77654 10.0871 9.27706 8.51788 8.75411 8.25519 7.52369 8.65657 7.94817 7.33154 7.50153 6.96031 6.40317 7.36164 6.7429 6.21711 6.37373 5.80824 5.36133 6.17315 5.62141 5.23468 5.34956 4.74624 4.42173 5.08456 4.64305 4.32789 4.41635 3.84267 3.57308 4.11844 3.75251 3.51339 3.5658 2.9829 2.82368 3.24307 2.94684 2.77222 2.82103 2.23773 2.13849 2.47914 2.23641 2.15356 2.16849 1.61111 1.57732 1.80932 1.61922 1.56813 1.58234 1.0803 1.08117 1.23669 1.09939 1.11649 1.11083 0.648158 0.695107 0.786928 0.696051 0.689066 0.699078 0.354305 0.379385 0.447092 0.379362 0.377533 0.385097 0.190053 0.178015 0.229178 0.168168 0.190959 0.189382 24.9397 49.4168 21.0728 31.424 53.2438 52.6018 38.3148 43.1879 38.2816 41.3273 44.5723 43.3547 37.1969 40.394 38.5775 38.4801 44.0298 42.5128 34.3272 37.3678 35.2839 35.788 41.7203 40.0769 31.3152 34.0053 31.8603 32.8126 38.1727 36.6657 28.3321 30.6043 28.6857 29.7211 34.282 32.9542 25.4426 27.4408 25.7377 26.745 30.5315 29.3775 22.7503 24.5639 23.039 23.9793 27.1197 26.0851 20.2837 21.9609 20.5989 21.4884 24.0907 23.1448 18.0599 19.6238 18.3832 19.2039 21.4131 20.5528 16.044 17.4716 16.3709 17.1208 19.0016 18.2314 14.2165 15.508 14.5318 15.2208 16.8081 16.1069 12.5547 13.7044 12.8619 13.4506 14.8296 14.203 11.0359 12.0325 11.3296 11.8252 13.0159 12.4598 9.63918 10.5039 9.91318 10.35 11.355 10.8624 8.35651 9.07197 8.62713 8.96321 9.81444 9.39195 7.20802 7.7823 7.45081 7.72109 8.43045 8.05671 6.1431 6.59411 6.36568 6.56835 7.14908 6.83284 5.17415 5.51257 5.38824 5.53452 5.97843 5.7213 4.33076 4.56656 4.51702 4.58934 4.93477 4.71671 3.55727 3.67269 3.69403 3.73878 3.9993 3.82867 2.85558 2.91135 2.98539 3.01113 3.16081 3.01968 2.27249 2.22618 2.37783 2.33576 2.4289 2.3275 1.73914 1.66714 1.83525 1.77691 1.78072 1.71727 1.31275 1.16698 1.39692 1.30139 1.22903 1.21243 0.968515 0.780061 1.04266 0.91481 0.796834 0.806918 0.703792 0.505916 0.761686 0.612071 0.483783 0.512435 0.506035 0.334551 0.550995 0.407506 0.270217 0.333941 0.364984 0.295199 0.430379 0.306561 0.238843 0.267346 0.244111 0.258465 0.317411 0.230085 0.245442 0.256191 0.133026 0.187899 0.195749 0.161987 0.186987 0.189416 0.102915 0.106005 0.125123 0.0996159 0.0903863 0.101419 12.7197 22.5666 11.6872 17.3846 20.5302 18.5148 23.2877 28.5123 22.4807 26.0729 31.0299 30.2338 24.1514 27.3312 24.203 25.4732 30.929 30.1899 22.7843 24.8785 23.0326 23.5431 28.5986 27.5671 21.1299 22.9317 21.2392 21.8895 26.3305 25.1376 19.3789 21.1653 19.464 20.3588 24.0795 22.891 17.6375 19.4147 17.7457 18.7529 21.8116 20.726 15.9301 17.7008 16.0915 17.101 19.6383 18.644 14.3524 16.0237 14.5539 15.525 17.5841 16.6812 12.8789 14.4198 13.1314 13.9889 15.6989 14.9151 11.5372 12.9422 11.8082 12.5648 13.9796 13.2842 10.3059 11.5483 10.5803 11.2455 12.4299 11.7973 9.19077 10.2569 9.45997 10.0357 10.9929 10.452 8.17651 9.0733 8.42115 8.89627 9.69547 9.22052 7.23575 7.99597 7.48715 7.86442 8.49689 8.10129 6.38782 7.01762 6.62942 6.91734 7.41017 7.07533 5.63247 6.09601 5.82993 6.05678 6.42283 6.14684 4.93879 5.28217 5.12838 5.27228 5.51952 5.30273 4.29297 4.55095 4.4889 4.5739 4.69323 4.53598 3.73069 3.90117 3.90683 3.94894 3.97834 3.86779 3.22407 3.29331 3.3734 3.38151 3.32092 3.25451 2.78669 2.80767 2.94558 2.87748 2.75213 2.72653 2.38972 2.3427 2.53459 2.45061 2.26462 2.27449 2.04447 1.96653 2.17074 2.05837 1.84452 1.88432 1.7463 1.63457 1.84915 1.73873 1.49164 1.5431 1.45921 1.35455 1.57308 1.45839 1.19213 1.27775 1.2146 1.11018 1.32474 1.18469 0.955198 1.05258 0.969381 0.900237 1.07312 0.965903 0.777093 0.843573 0.759314 0.69138 0.847661 0.748078 0.586682 0.658675 0.523978 0.493256 0.620727 0.525974 0.391575 0.4737 0.291396 0.301285 0.394322 0.300054 0.213319 0.27708 0.124322 0.171491 0.181973 0.114988 0.101756 0.172714 6.44172 11.6141 5.30338 8.87272 10.5993 9.96331 15.9418 16.9482 14.9969 15.4367 17.6066 17.7775 17.8783 17.7287 17.8844 17.0501 19.703 19.375 16.8586 17.0318 16.9392 16.5561 19.1768 18.553 15.5364 16.1438 15.577 15.7016 18.0059 17.2331 14.3008 15.2065 14.3832 14.7939 16.6873 15.8718 13.1243 14.2049 13.2936 13.8395 15.3189 14.5264 12.0119 13.1297 12.2348 12.8155 13.976 13.2316 10.9701 12.0451 11.2376 11.7934 12.6671 12.0157 10.0001 10.9992 10.2901 10.7794 11.445 10.8522 9.11618 9.99877 9.40243 9.83608 10.3169 9.8117 8.29329 9.06763 8.59546 8.93798 9.28095 8.85456 7.57612 8.20824 7.85566 8.12264 8.35309 7.98484 6.9154 7.43687 7.16771 7.38254 7.49257 7.2038 6.31974 6.70606 6.55518 6.68991 6.71843 6.49245 5.73965 6.05436 5.99423 6.06213 6.00277 5.82785 5.24716 5.46889 5.46353 5.49318 5.3681 5.23223 4.77361 4.94395 4.96974 4.97073 4.79272 4.70693 4.33313 4.4278 4.53901 4.49436 4.27634 4.21038 3.93806 3.97986 4.13111 4.05967 3.80364 3.77301 3.55842 3.56284 3.73802 3.64933 3.36709 3.37696 3.20795 3.18393 3.3749 3.29147 2.9812 3.00258 2.86378 2.84309 3.02088 2.92769 2.62795 2.68222 2.54791 2.50959 2.70547 2.58738 2.29978 2.35278 2.2392 2.20645 2.38115 2.28012 2.01433 2.08083 1.93677 1.90275 2.06043 1.96929 1.72382 1.79943 1.63004 1.6123 1.76817 1.67136 1.4602 1.52983 1.34286 1.3252 1.46752 1.37018 1.19209 1.2699 1.04279 1.05031 1.16764 1.07605 0.930366 1.00564 0.763075 0.753538 0.8711 0.794722 0.662212 0.727003 0.445393 0.467329 0.564132 0.488013 0.400487 0.459067 0.163902 0.207489 0.272507 0.18039 0.161738 0.216484 6.06856 7.15631 2.71006 5.42322 6.01159 7.06178 17.3319 14.3169 16.2814 14.5218 14.0593 15.3117 19.7515 16.2794 19.6816 16.9047 16.2963 17.0494 18.7586 16.1926 18.9027 16.8337 16.0522 16.4287 17.1712 15.5188 17.4297 16.0689 15.1576 15.3051 15.6754 14.625 16.0279 15.0961 14.1128 14.1338 14.3401 13.6406 14.7533 14.0399 13.0373 13.0088 13.1234 12.6188 13.5559 12.9905 11.9947 11.9227 12.0263 11.6375 12.4386 11.9605 10.9953 10.92 11.0016 10.6922 11.4077 11.0072 10.0818 10.0074 10.0972 9.82028 10.4853 10.106 9.22731 9.17848 9.27037 9.03318 9.63494 9.27858 8.45768 8.43725 8.53034 8.29724 8.86163 8.53548 7.77221 7.7518 7.84255 7.62902 8.14589 7.85652 7.13309 7.13916 7.20828 7.02734 7.50245 7.21985 6.55208 6.57236 6.63525 6.46917 6.91169 6.64959 6.03002 6.05767 6.08731 5.95842 6.35313 6.1291 5.54413 5.57002 5.59333 5.47107 5.82654 5.6242 5.0961 5.12871 5.13265 5.01765 5.35134 5.15782 4.64869 4.70444 4.67311 4.59342 4.88417 4.70928 4.24927 4.3125 4.24929 4.18054 4.44344 4.2851 3.87734 3.93797 3.84071 3.7949 4.03111 3.89046 3.51415 3.57184 3.43751 3.4021 3.61615 3.49774 3.16246 3.2043 3.04305 3.04656 3.23643 3.11521 2.82249 2.87378 2.68437 2.67381 2.84356 2.74381 2.48156 2.53532 2.30891 2.31701 2.46978 2.36408 2.13906 2.19107 1.93375 1.95888 2.09683 2.01847 1.82179 1.8632 1.58492 1.62327 1.7218 1.6457 1.50572 1.55045 1.23422 1.27045 1.38716 1.2983 1.1693 1.22962 0.896277 0.93701 1.00824 0.948888 0.866884 0.907917 0.53744 0.587567 0.672753 0.606002 0.550008 0.593681 0.183017 0.214791 0.30261 0.223695 0.20936 0.254347 12.2465 12.9485 9.77884 11.7996 9.53714 11.0034 24.9682 20.7432 23.8785 21.8916 19.107 20.7242 27.4502 22.5982 27.4464 24.3526 21.4373 22.8438 26.0927 22.0125 26.4157 23.641 20.6836 21.8341 23.9121 20.6995 24.4007 22.1053 19.1899 20.1266 21.7875 19.2104 22.3506 20.4257 17.6412 18.4124 19.8675 17.6896 20.4529 18.7859 16.1599 16.8179 18.1012 16.219 18.6924 17.22 14.7954 15.3549 16.5013 14.8404 17.0605 15.7465 13.5325 14.013 15.0498 13.5742 15.5468 14.3788 12.3731 12.7962 13.696 12.4097 14.1765 13.1241 11.3133 11.7123 12.4842 11.3475 12.9326 11.9837 10.3776 10.7124 11.3622 10.3818 11.77 10.9524 9.51072 9.8033 10.3521 9.5021 10.7213 9.98657 8.72656 8.97798 9.41958 8.68413 9.75669 9.12954 7.99922 8.24123 8.55645 7.94623 8.88428 8.31974 7.33178 7.53196 7.74722 7.24983 8.05809 7.57157 6.71585 6.87973 7.01739 6.61111 7.29534 6.9042 6.14522 6.285 6.34005 6.01598 6.5915 6.24161 5.60359 5.73081 5.69625 5.46412 5.95188 5.65141 5.09181 5.18208 5.0937 4.92071 5.32901 5.08243 4.59851 4.69648 4.53593 4.4215 4.74728 4.55009 4.13741 4.21239 4.01175 3.92627 4.20517 4.03562 3.69434 3.74884 3.4981 3.48121 3.68704 3.56818 3.27953 3.31444 3.04004 3.0232 3.20559 3.09902 2.84869 2.90392 2.56571 2.59337 2.75148 2.65267 2.44011 2.48398 2.13983 2.17346 2.3103 2.21792 2.06995 2.09272 1.72049 1.7552 1.8846 1.80235 1.68873 1.70412 1.30996 1.39103 1.46052 1.40442 1.31113 1.34188 0.913361 0.992639 1.0804 1.01819 0.95667 0.981662 0.574335 0.637335 0.680762 0.639548 0.619114 0.627332 0.227645 0.259153 0.330667 0.281518 0.229973 0.27351 21.8793 23.0455 19.6563 21.9392 17.5005 18.8161 35.8149 31.3736 34.7302 33.0333 28.6465 30.2726 37.4955 32.2466 37.7842 34.7377 30.597 32.1938 35.3568 30.6402 35.9929 32.8493 29.0647 30.5053 32.4673 28.445 33.1562 30.3342 26.749 28.0279 29.6689 26.2042 30.3893 27.8757 24.4584 25.5805 27.0812 24.0211 27.7978 25.5525 22.3328 23.3221 24.6731 21.9493 25.3639 23.3296 20.3599 21.2374 22.4472 19.9863 23.1011 21.2538 18.5414 19.31 20.3658 18.1781 20.9884 19.3375 16.8751 17.5592 18.4573 16.5173 19.0415 17.5577 15.3324 15.9485 16.6998 14.9742 17.2434 15.8955 13.939 14.4642 15.0866 13.5783 15.5716 14.3955 12.6326 13.103 13.6082 12.2888 14.0501 13.0175 11.4506 11.8534 12.2278 11.1033 12.6562 11.7407 10.3788 10.7336 10.9811 10.0297 11.3818 10.5725 9.38117 9.69101 9.82627 9.00305 10.1962 9.49965 8.46286 8.71979 8.76242 8.1053 9.10168 8.50198 7.62545 7.83047 7.79881 7.23909 8.09449 7.58207 6.83593 7.02325 6.87707 6.45282 7.17021 6.75287 6.10184 6.25523 6.05124 5.71969 6.32347 5.966 5.43295 5.5452 5.26705 5.04331 5.50677 5.23223 4.80066 4.88297 4.54744 4.41823 4.80048 4.56118 4.21111 4.27351 3.91469 3.82096 4.13312 3.93381 3.6522 3.6956 3.30345 3.27803 3.50859 3.3669 3.15844 3.17809 2.73509 2.76821 2.91973 2.82751 2.65755 2.6711 2.22353 2.26308 2.39242 2.3276 2.18679 2.20271 1.7503 1.8212 1.91402 1.84875 1.75326 1.75083 1.28817 1.37898 1.44786 1.40438 1.33689 1.35226 0.870151 0.986438 1.02789 0.978565 0.939631 0.957893 0.514092 0.584272 0.642825 0.594171 0.586838 0.604908 0.238386 0.302414 0.306203 0.29454 0.278287 0.301789 37.5761 36.2558 35.061 36.6144 28.6459 30.1062 48.4677 44.0576 47.8239 46.4144 40.4819 42.0607 48.2039 42.9453 49.2588 45.9294 41.0883 42.7355 45.0788 40.1027 46.1246 42.6209 38.534 40.099 41.5983 37.0848 42.4837 39.2643 35.4491 36.8933 38.2243 34.1562 39.0778 36.1326 32.4772 33.761 34.9894 31.3341 35.8367 33.1696 29.6951 30.8343 31.91 28.5988 32.7417 30.3012 27.0522 28.0806 29.0124 26.0041 29.8074 27.5859 24.6027 25.5021 26.2829 23.5972 27.0354 25.0146 22.3028 23.13 23.7379 21.3392 24.4443 22.6263 20.1673 20.9136 21.3856 19.2468 22.0519 20.4056 18.2197 18.8726 19.2164 17.3353 19.8354 18.357 16.4246 16.998 17.2255 15.5624 17.7861 16.4814 14.7614 15.2632 15.3982 13.9444 15.9096 14.7357 13.2404 13.6637 13.7096 12.4435 14.1818 13.1465 11.8512 12.2086 12.1674 11.0544 12.5965 11.694 10.549 10.87 10.726 9.80468 11.1228 10.3472 9.36406 9.64071 9.40769 8.62975 9.78505 9.10283 8.28619 8.50607 8.20371 7.58403 8.54553 7.97522 7.26355 7.44232 7.08764 6.59717 7.41914 6.9345 6.35152 6.45948 6.07498 5.6925 6.37169 5.96056 5.49834 5.60511 5.15634 4.88982 5.43113 5.09903 4.71192 4.79936 4.3093 4.12815 4.55237 4.29869 4.00842 4.0457 3.55697 3.44692 3.78668 3.58972 3.34103 3.38684 2.85566 2.82961 3.06076 2.92702 2.74345 2.76369 2.24449 2.25636 2.43899 2.33347 2.21275 2.21053 1.68913 1.74904 1.86233 1.79667 1.71424 1.72904 1.20813 1.30027 1.37111 1.31612 1.26375 1.2714 0.797441 0.885983 0.916322 0.886766 0.86646 0.868688 0.440435 0.489146 0.54857 0.515483 0.493488 0.503114 0.229227 0.282031 0.267699 0.257729 0.264984 0.281259 66.9679 55.2817 64.2673 62.5078 46.3087 47.868 60.6356 57.0549 65.4484 59.5086 53.2057 54.4864 58.0352 53.4907 60.3312 56.3496 51.5168 53.1847 54.7335 49.7836 56.0681 52.3569 48.1705 49.8172 51.0942 46.2974 52.2195 48.6882 44.6162 46.1464 47.2375 42.768 48.3536 45.0665 41.0955 42.4875 43.3418 39.2798 44.5071 41.425 37.6517 38.9186 39.5741 35.8614 40.6915 37.8474 34.3591 35.4799 35.9428 32.5716 37.0323 34.3988 31.2019 32.2247 32.5398 29.4986 33.5499 31.1329 28.2565 29.1608 29.3346 26.5967 30.2869 28.0797 25.4797 26.3091 26.3827 23.9274 27.2621 25.2395 22.947 23.6702 23.6235 21.4497 24.451 22.6314 20.5777 21.2204 21.1087 19.1609 21.8518 20.2066 18.3969 18.97 18.7952 17.0529 19.4774 17.995 16.4081 16.913 16.63 15.1321 17.2826 15.9607 14.5621 14.9965 14.6827 13.3699 15.2569 14.091 12.8849 13.2441 12.8609 11.7196 13.4142 12.361 11.3209 11.6489 11.2199 10.2345 11.7113 10.7859 9.88469 10.1644 9.66953 8.85953 10.1543 9.33357 8.58407 8.79215 8.27718 7.59456 8.71182 7.99838 7.3804 7.55771 6.99069 6.45332 7.38607 6.79576 6.28433 6.42137 5.84403 5.42282 6.21222 5.68574 5.28686 5.40766 4.80034 4.47771 5.12164 4.68801 4.37506 4.46197 3.84489 3.63708 4.15733 3.78885 3.57067 3.61562 2.99545 2.85067 3.26892 2.98325 2.83062 2.85726 2.26376 2.20785 2.50156 2.26762 2.18119 2.1846 1.60857 1.60436 1.81047 1.64647 1.6166 1.61959 1.05931 1.1199 1.25701 1.13585 1.13468 1.12142 0.655895 0.7013 0.780838 0.698586 0.716526 0.706535 0.341169 0.373278 0.447052 0.375603 0.379258 0.38096 0.188974 0.193637 0.221918 0.18873 0.194081 0.175065 28.4378 58.1848 32.1225 46.0634 49.6606 51.4747 35.6665 35.3615 36.1525 33.6348 42.7548 43.007 33.5864 31.5966 34.3188 30.0976 40.7456 39.977 30.9694 30.767 30.5611 29.7072 38.2971 37.0524 28.65 29.7475 27.989 28.9464 35.3329 34.0374 26.4158 28.184 25.9797 27.4979 32.1298 30.9154 24.1875 26.2359 24.0752 25.6153 29.0297 27.8969 22.0112 24.0801 22.1264 23.5415 26.1671 25.1222 19.9206 21.8987 20.2022 21.4319 23.515 22.5545 17.9274 19.7414 18.2819 19.3339 21.0982 20.2277 16.0598 17.6844 16.4427 17.3332 18.8425 18.0555 14.3094 15.7337 14.696 15.4649 16.7579 16.0632 12.6947 13.9061 13.0638 13.7114 14.8228 14.2014 11.1903 12.2438 11.5475 12.0928 13.046 12.4915 9.80944 10.6859 10.136 10.5952 11.4161 10.914 8.55066 9.26307 8.84729 9.22406 9.88326 9.45918 7.36805 7.98274 7.64788 7.95776 8.48495 8.1346 6.32019 6.78571 6.5637 6.79874 7.21801 6.91587 5.36869 5.71557 5.5771 5.75083 6.05609 5.79955 4.4888 4.74432 4.69083 4.78987 5.01943 4.81468 3.72024 3.86995 3.8945 3.95352 4.07686 3.90609 3.02204 3.07569 3.18504 3.19748 3.23685 3.11193 2.40749 2.40246 2.57888 2.53146 2.48877 2.39726 1.89015 1.85119 2.02922 1.97757 1.86136 1.80668 1.44917 1.34333 1.57476 1.47856 1.3189 1.30576 1.09708 0.935114 1.19664 1.07915 0.863573 0.868592 0.805294 0.622264 0.894106 0.755407 0.521333 0.564906 0.590785 0.410233 0.661334 0.528572 0.293504 0.371198 0.420442 0.297689 0.485659 0.364229 0.238429 0.291925 0.271887 0.243958 0.341946 0.25492 0.222674 0.262156 0.134421 0.184369 0.221598 0.17792 0.178518 0.19327 0.10043 0.103603 0.109771 0.107639 0.081989 0.100106 16.0066 36.171 19.8896 27.3798 23.59 22.6099 21.2004 19.6281 20.6652 21.0478 27.9176 28.555 20.9357 19.1401 20.5934 19.2752 26.7688 26.7327 19.9676 19.8662 19.1561 19.0732 25.1411 24.4253 19.2464 20.485 18.4842 19.4848 23.9289 22.8764 18.3593 20.3143 17.9774 19.4356 22.5868 21.4426 17.2439 19.4689 17.1846 18.7321 20.9865 19.9154 15.988 18.1803 16.145 17.5853 19.2869 18.2947 14.6543 16.6854 14.9488 16.1968 17.5494 16.6477 13.3225 15.1552 13.6868 14.7474 15.8431 15.0475 12.0567 13.635 12.4349 13.3171 14.2282 13.5183 10.8514 12.2163 11.2262 11.9603 12.7225 12.0968 9.72238 10.9005 10.0755 10.7077 11.3152 10.7576 8.68763 9.68469 9.02445 9.5275 10.0181 9.53658 7.73705 8.56538 8.04913 8.47886 8.80647 8.40414 6.85858 7.55045 7.15432 7.48089 7.71487 7.37708 6.07542 6.60131 6.34602 6.59032 6.72765 6.43433 5.33445 5.77553 5.60279 5.78365 5.80084 5.58439 4.70666 5.00526 4.92043 5.0501 4.98946 4.83263 4.10279 4.33309 4.33813 4.39498 4.24462 4.13284 3.57924 3.72629 3.78581 3.80728 3.59655 3.50813 3.10485 3.18084 3.29779 3.27683 2.99959 2.96838 2.68693 2.71001 2.88186 2.83561 2.49574 2.48853 2.31354 2.29354 2.46439 2.39361 2.06278 2.08684 1.97922 1.93439 2.13596 2.03296 1.67707 1.74183 1.67637 1.58736 1.80277 1.68827 1.36988 1.43831 1.38077 1.31568 1.50436 1.40286 1.10591 1.18205 1.11673 1.0678 1.23075 1.13538 0.869212 0.952097 0.854389 0.813291 0.978445 0.868173 0.675304 0.740606 0.599262 0.586459 0.698372 0.616644 0.453098 0.532251 0.346625 0.346185 0.452896 0.373916 0.240246 0.318968 0.139669 0.183233 0.206915 0.139941 0.126217 0.195623 7.18018 18.4614 9.57885 13.5326 13.0091 12.292 13.0964 9.83675 11.7159 10.092 14.8197 15.6393 15.0574 12.8694 14.4501 13.0641 16.5056 16.5887 15.107 14.7207 14.569 14.4206 16.8078 16.4084 14.8817 15.6693 14.592 15.1794 16.7357 16.0614 14.4256 15.7779 14.4277 15.3019 16.2974 15.4964 13.7414 15.2736 13.9666 14.8878 15.4998 14.6779 12.8895 14.3759 13.245 14.0827 14.4907 13.703 11.9644 13.3248 12.3597 13.1183 13.3538 12.6477 11.0012 12.2129 11.4237 12.061 12.1895 11.5769 10.0845 11.1452 10.4941 11.0329 11.0791 10.5326 9.22432 10.1256 9.62099 10.0644 10.0457 9.57797 8.42311 9.18955 8.7945 9.1631 9.06066 8.66799 7.68702 8.33834 8.0381 8.31994 8.16045 7.83938 7.02726 7.5577 7.34824 7.55183 7.3436 7.08528 6.41903 6.8356 6.70088 6.86653 6.60026 6.38074 5.83773 6.17126 6.12059 6.24321 5.92133 5.76187 5.32309 5.58599 5.59093 5.66024 5.30083 5.19291 4.84177 5.04665 5.09657 5.11942 4.74399 4.65586 4.40209 4.54502 4.64127 4.62664 4.22641 4.17196 3.97295 4.08461 4.18548 4.16885 3.76933 3.74559 3.58036 3.65647 3.78071 3.75676 3.3481 3.34423 3.21447 3.26394 3.39739 3.36197 2.94618 2.97516 2.83642 2.85603 3.02151 2.94328 2.58572 2.62738 2.49447 2.51321 2.66412 2.59265 2.26253 2.31489 2.16545 2.16279 2.31826 2.2378 1.95421 1.98957 1.82777 1.83409 1.96711 1.88554 1.64515 1.68695 1.48456 1.49844 1.62214 1.55667 1.3385 1.38067 1.16757 1.16827 1.31841 1.22477 1.0376 1.08994 0.840448 0.859877 0.962807 0.882566 0.755007 0.807329 0.530129 0.547765 0.646744 0.589255 0.450263 0.512236 0.174982 0.237553 0.310725 0.223752 0.19332 0.250111 4.50317 5.57735 3.4216 5.43552 5.15182 6.10617 15.0192 10.811 13.4456 10.7886 11.1704 12.8411 17.8823 14.7938 17.3627 15.1071 14.2416 15.138 18.0099 16.2285 18.0025 16.6599 15.1803 15.594 17.3693 16.4732 17.6687 16.885 15.2466 15.3601 16.4461 16.0626 16.9165 16.4233 14.8225 14.7627 15.3896 15.2625 15.9474 15.5735 14.0859 13.9299 14.2766 14.2493 14.8463 14.5589 13.1812 12.9927 13.1665 13.1755 13.7382 13.4555 12.1961 12.0209 12.1117 12.114 12.6472 12.395 11.2267 11.0629 11.1058 11.1398 11.6187 11.3933 10.3202 10.1672 10.1961 10.2166 10.6742 10.4504 9.46301 9.34558 9.36724 9.39609 9.79082 9.5938 8.67993 8.59641 8.61749 8.60935 9.00512 8.83489 7.97908 7.90081 7.9118 7.92411 8.2794 8.11903 7.32963 7.2626 7.26476 7.27493 7.59918 7.45853 6.72926 6.69553 6.66766 6.69949 6.9864 6.8546 6.17702 6.16707 6.12771 6.14116 6.40737 6.28239 5.65709 5.66205 5.59934 5.64296 5.86966 5.75322 5.17714 5.17994 5.10277 5.14354 5.36125 5.25963 4.73411 4.75556 4.63516 4.68584 4.87192 4.76472 4.31569 4.32434 4.17984 4.23465 4.42461 4.32615 3.90361 3.92299 3.75599 3.80026 3.95891 3.88907 3.50889 3.52687 3.32784 3.38684 3.52421 3.48343 3.1177 3.14608 2.91952 2.9863 3.1159 3.05096 2.73547 2.77765 2.51081 2.56984 2.71054 2.62534 2.37354 2.4085 2.11668 2.16799 2.28847 2.2196 2.00689 2.04809 1.72939 1.79619 1.89324 1.81807 1.65275 1.68545 1.36105 1.41832 1.51355 1.43677 1.30037 1.33461 0.999975 1.05643 1.13527 1.08465 0.949682 0.980926 0.62209 0.684299 0.761788 0.709235 0.623078 0.645259 0.224808 0.276572 0.346336 0.292754 0.231676 0.274341 13.3346 13.7295 13.3404 15.3316 8.547 10.5315 23.774 18.4661 22.8649 19.9304 17.3301 19.2767 26.2545 21.931 26.0501 23.2439 20.2417 21.6622 25.6178 22.5596 25.8718 23.7262 20.4763 21.5162 24.1345 21.876 24.6758 22.9153 19.7334 20.5077 22.4486 20.6138 23.1173 21.5769 18.6065 19.2068 20.7237 19.1681 21.4459 20.0653 17.3095 17.795 19.0207 17.6584 19.7443 18.4867 15.9699 16.3753 17.4027 16.1865 18.0889 16.9446 14.6661 15.0059 15.8828 14.8061 16.5166 15.5038 13.4402 13.7461 14.4742 13.5328 15.071 14.1513 12.297 12.5587 13.1921 12.364 13.731 12.9121 11.279 11.5053 12.0262 11.314 12.5123 11.803 10.3068 10.5313 10.9303 10.346 11.3986 10.75 9.45279 9.63671 9.95317 9.46936 10.3797 9.82679 8.6644 8.81069 9.04567 8.65493 9.4277 8.97738 7.9433 8.07221 8.20528 7.90364 8.56763 8.17076 7.28395 7.37815 7.44501 7.21074 7.7657 7.44837 6.64609 6.7362 6.72135 6.57464 7.03176 6.75948 6.0653 6.14522 6.05684 5.93678 6.34327 6.10771 5.52026 5.56317 5.41759 5.35906 5.69216 5.51197 4.98525 5.02784 4.83207 4.82507 5.08814 4.9374 4.49077 4.52295 4.26837 4.31096 4.50452 4.38932 4.01417 4.03907 3.75757 3.81003 3.96844 3.85387 3.5652 3.5802 3.23155 3.31584 3.45577 3.37244 3.09633 3.1107 2.76782 2.84539 2.96502 2.89008 2.67115 2.67643 2.29619 2.39041 2.48916 2.43326 2.2543 2.24648 1.85839 1.9626 2.02827 1.97889 1.86095 1.84007 1.42879 1.52766 1.58897 1.54469 1.44505 1.46037 1.03155 1.14103 1.17802 1.14287 1.0695 1.06635 0.627262 0.731731 0.774996 0.744487 0.684496 0.693642 0.257432 0.306515 0.368623 0.315089 0.275277 0.312641 24.7643 28.6067 25.9127 29.531 18.6657 20.5128 35.4108 28.4088 35.3945 31.7455 27.6842 29.7553 36.6082 31.1325 36.8654 33.4176 29.6613 31.3024 34.8238 30.8171 35.2417 32.4724 28.8092 30.142 32.4469 29.2623 33.0849 30.683 27.0914 28.2235 30.034 27.2765 30.8082 28.6077 25.1755 26.133 27.6267 25.1588 28.4643 26.4299 23.1987 24.0347 25.3109 23.0624 26.123 24.2476 21.2528 21.9835 23.0648 21.052 23.8598 22.1436 19.4082 20.0593 20.9636 19.152 21.7066 20.1369 17.6711 18.2472 19.0055 17.3977 19.7081 18.2821 16.0689 16.5756 17.2088 15.786 17.8343 16.573 14.5929 15.0353 15.526 14.3068 16.1179 15.0177 13.2472 13.6334 14.0072 12.9381 14.5508 13.5665 12.0176 12.3533 12.6166 11.737 13.0979 12.2713 10.8781 11.1686 11.334 10.5759 11.7664 11.0348 9.84855 10.0935 10.1443 9.54693 10.575 9.94191 8.89837 9.09772 9.05195 8.57258 9.43952 8.91392 8.01763 8.16758 8.05254 7.69307 8.41849 7.97572 7.20677 7.33407 7.13584 6.85407 7.46884 7.09653 6.44543 6.53938 6.28093 6.10056 6.59284 6.29944 5.74305 5.81347 5.4908 5.39858 5.78221 5.54059 5.0975 5.13625 4.75277 4.73948 5.03937 4.86865 4.47658 4.50397 4.08729 4.11872 4.33905 4.19995 3.90092 3.92589 3.48924 3.54169 3.70766 3.59587 3.36327 3.37961 2.89695 2.99872 3.11443 3.03216 2.83748 2.84681 2.35839 2.48974 2.5609 2.49799 2.35021 2.35306 1.86901 1.97824 2.05034 2.00577 1.89477 1.90496 1.39489 1.52404 1.58184 1.54063 1.46939 1.46557 0.960354 1.09897 1.12198 1.0884 1.04624 1.0432 0.556998 0.692434 0.701722 0.676643 0.657063 0.656235 0.255714 0.331917 0.34429 0.32199 0.294914 0.323228 40.6872 45.7656 41.9333 47.34 31.4019 33.3124 48.7983 40.2585 50.3948 45.503 40.0907 42.2523 47.5255 41.2488 48.5651 44.0525 40.1761 41.9503 44.4666 39.7704 45.1083 41.6765 38.0491 39.5854 41.4015 37.4894 42.1182 39.1806 35.4784 36.8221 38.3601 34.8943 39.2197 36.523 32.8853 34.0418 35.3435 32.1571 36.2658 33.7685 30.2612 31.2985 32.346 29.4441 33.2725 30.9475 27.6922 28.6112 29.4554 26.8111 30.3368 28.1951 25.208 26.031 26.6955 24.3357 27.5529 25.5862 22.8807 23.6263 24.1151 22.0154 24.9181 23.1423 20.7128 21.3686 21.7365 19.869 22.4717 20.8654 18.7132 19.2829 19.5182 17.8561 20.2046 18.7802 16.8465 17.3561 17.4958 16.0593 18.1364 16.8656 15.1629 15.608 15.6182 14.3829 16.2073 15.0868 13.5925 13.9841 13.9189 12.8611 14.4428 13.4633 12.1684 12.493 12.3491 11.4418 12.8276 11.9735 10.8536 11.1199 10.9099 10.1794 11.3489 10.6086 9.64016 9.87025 9.5834 8.97505 9.98121 9.3472 8.52836 8.70824 8.35354 7.89827 8.7306 8.18897 7.51811 7.65216 7.24968 6.89004 7.60252 7.15243 6.57887 6.67847 6.21422 5.97433 6.53721 6.1661 5.69941 5.77149 5.27786 5.15347 5.5773 5.28689 4.91877 4.97698 4.435 4.3742 4.71659 4.47792 4.17845 4.21197 3.66101 3.67564 3.91458 3.7505 3.51997 3.51955 2.95946 3.04561 3.20038 3.0881 2.9204 2.90428 2.35765 2.45842 2.55052 2.45829 2.34493 2.34099 1.77012 1.9195 1.99059 1.92336 1.84401 1.82929 1.27493 1.43735 1.46003 1.42888 1.38561 1.37557 0.845682 0.973481 1.00352 0.979541 0.93369 0.929736 0.466546 0.566537 0.600157 0.553438 0.553511 0.545243 0.2233 0.32128 0.276131 0.272893 0.287395 0.282862 68.3996 68.3818 69.6591 75.2994 49.1991 51.2649 62.5034 52.6094 68.1256 57.1044 53.3269 55.3478 57.963 51.0541 59.6566 53.9037 50.706 52.6128 54.3433 49.0203 55.0984 51.2808 47.5862 49.2747 50.9151 46.3343 51.8058 48.474 44.4861 45.9737 47.3387 43.2222 48.4114 45.264 41.2877 42.62 43.6305 39.89 44.7841 41.8179 38.0323 39.2166 39.9291 36.4913 41.091 38.2819 34.7856 35.8535 36.3122 33.1687 37.4288 34.824 31.6446 32.5933 32.8643 30.0242 33.9272 31.532 28.655 29.5205 29.6216 27.0835 30.6392 28.4223 25.8551 26.6137 26.6135 24.364 27.5271 25.5419 23.2529 23.9333 23.8577 21.8313 24.7049 22.8754 20.8604 21.4612 21.2799 19.5142 22.071 20.4279 18.643 19.1846 18.9275 17.3762 19.6667 18.1919 16.6213 17.0761 16.775 15.4065 17.4444 16.1254 14.7689 15.1576 14.7781 13.6076 15.3824 14.219 13.045 13.3862 12.9501 11.9477 13.5234 12.4902 11.4825 11.7705 11.2932 10.4595 11.8056 10.9021 10.0454 10.298 9.75829 9.04097 10.2373 9.41679 8.7084 8.91204 8.35438 7.78301 8.77861 8.09351 7.50938 7.65642 7.05862 6.63588 7.4833 6.87605 6.40684 6.5185 5.91695 5.59002 6.27382 5.77722 5.40333 5.48091 4.85185 4.62618 5.19352 4.77997 4.48067 4.54497 3.88815 3.78928 4.20459 3.87218 3.65116 3.68897 3.04651 3.03135 3.3499 3.07028 2.9338 2.9307 2.29859 2.34737 2.57139 2.35568 2.2795 2.27288 1.64432 1.77319 1.89763 1.72862 1.70136 1.68035 1.09878 1.24378 1.3076 1.20684 1.18898 1.16822 0.660924 0.797268 0.82956 0.773321 0.776421 0.750546 0.353906 0.432511 0.481324 0.433576 0.406504 0.39934 0.207987 0.231175 0.238989 0.195683 0.216472 0.183272 
SCALARS volume float 1
LOOKUP_TABLE default
0.00801927 0.00804853 0.00800678 0.00799069 0.00803189 0.00806595 0.00810224 0.00806967 0.00807392 0.00806744 0.00807603 0.00810316 0.00810783 0.00808574 0.00809507 0.00809244 0.00808903 0.00810827 0.00810591 0.00809389 0.00809874 0.00809831 0.00809446 0.00810694 0.0081062 0.00809878 0.00810153 0.00810145 0.0080989 0.00810649 0.00810754 0.00810252 0.00810491 0.00810451 0.00810252 0.0081072 0.00811011 0.00810599 0.00810853 0.00810725 0.00810608 0.00810908 0.00811242 0.0081092 0.0081118 0.00811038 0.00810952 0.00811165 0.00811533 0.00811228 0.00811513 0.00811346 0.00811266 0.00811421 0.00811763 0.00811509 0.00811778 0.00811623 0.00811582 0.00811681 0.0081202 0.00811788 0.00812019 0.0081188 0.00811843 0.00811934 0.00812213 0.00812026 0.00812225 0.00812113 0.00812029 0.0081215 0.00812428 0.00812216 0.00812425 0.00812303 0.00812299 0.00812381 0.00812623 0.00812451 0.0081264 0.00812496 0.00812489 0.00812583 0.00812767 0.00812636 0.00812818 0.00812672 0.00812644 0.0081273 0.00812931 0.00812785 0.00812935 0.00812838 0.00812838 0.00812852 0.00813053 0.00812937 0.00813068 0.00813012 0.00812984 0.00813 0.00813182 0.00813076 0.00813196 0.00813108 0.00813143 0.00813113 0.00813249 0.00813203 0.00813296 0.00813245 0.00813189 0.00813234 0.00813358 0.00813304 0.00813413 0.00813327 0.00813354 0.00813363 0.00813446 0.00813411 0.00813459 0.00813447 0.00813438 0.00813439 0.00813519 0.00813475 0.00813529 0.00813493 0.00813482 0.00813517 0.00813581 0.00813561 0.0081359 0.00813574 0.0081355 0.00813584 0.00813666 0.0081363 0.00813693 0.00813637 0.00813684 0.00813637 0.00813679 0.00813706 0.00813699 0.00813689 0.00813719 0.00813679 0.00813716 0.00813748 0.00813751 0.00813752 0.0081373 0.00813715 0.00813777 0.00813736 0.00813785 0.00813752 0.00813796 0.00813769 0.00813798 0.0081379 0.0081385 0.00813801 0.00813812 0.00813803 0.00813841 0.00813808 0.00813806 0.00813817 0.0081384 0.00813795 0.00813833 0.00813833 0.00813834 0.00813833 0.00813809 0.00813861 0.00813861 0.00813808 0.00813844 0.00813812 0.00813813 0.00813796 0.0081381 0.00813796 0.00813842 0.00813811 0.0081381 0.00813807 0.00806864 0.0080783 0.00805304 0.00806051 0.00804353 0.00809718 0.00811888 0.00809587 0.00808945 0.00808698 0.00809247 0.00812181 0.00812081 0.00810894 0.00810762 0.00810742 0.00810338 0.00812156 0.00811859 0.00811086 0.00811244 0.00811173 0.00810639 0.00811783 0.00811759 0.00811135 0.00811431 0.00811323 0.00810901 0.00811663 0.00811783 0.00811278 0.00811584 0.00811479 0.00811208 0.00811685 0.00811899 0.00811439 0.0081178 0.00811698 0.008115 0.0081182 0.0081206 0.00811674 0.00811972 0.00811935 0.00811766 0.00811977 0.00812214 0.00811875 0.00812188 0.00812125 0.00812002 0.00812125 0.00812411 0.00812081 0.00812421 0.00812304 0.00812227 0.00812329 0.00812551 0.00812292 0.00812553 0.00812477 0.00812386 0.00812497 0.00812745 0.00812475 0.00812739 0.00812674 0.0081262 0.00812685 0.00812913 0.00812649 0.00812892 0.00812821 0.00812773 0.00812803 0.00813016 0.00812812 0.00813033 0.00812953 0.00812874 0.00812942 0.00813121 0.0081295 0.00813143 0.00813065 0.00813033 0.00813073 0.00813199 0.00813056 0.00813242 0.00813183 0.0081316 0.00813162 0.00813308 0.00813194 0.00813337 0.0081329 0.00813256 0.00813278 0.00813376 0.00813297 0.00813448 0.00813366 0.00813365 0.00813382 0.00813473 0.00813405 0.00813521 0.00813447 0.00813447 0.00813455 0.00813531 0.00813434 0.00813575 0.008135 0.00813514 0.00813517 0.00813597 0.00813549 0.00813618 0.0081359 0.00813577 0.0081358 0.00813614 0.00813584 0.00813648 0.00813644 0.00813625 0.00813592 0.00813706 0.00813633 0.00813716 0.00813665 0.00813696 0.00813688 0.00813713 0.00813676 0.00813724 0.00813697 0.00813741 0.00813683 0.00813782 0.00813726 0.00813802 0.00813766 0.00813731 0.00813756 0.00813773 0.00813775 0.00813808 0.00813809 0.00813786 0.00813793 0.00813788 0.00813775 0.00813812 0.00813778 0.00813834 0.00813798 0.00813777 0.00813836 0.00813837 0.0081382 0.0081382 0.0081381 0.00813803 0.00813791 0.00813825 0.00813812 0.00813811 0.00813818 0.00813847 0.00813802 0.00813809 0.00813833 0.00813822 0.00813815 0.00813837 0.00813807 0.00813829 0.00813853 0.00813836 0.00813836 0.00813813 0.00813832 0.00813826 0.00813807 0.00813804 0.00813822 0.00810544 0.00810333 0.00810162 0.00809904 0.0080871 0.00811458 0.00812913 0.00811597 0.00811538 0.0081107 0.00810767 0.0081301 0.00813037 0.00812158 0.00812184 0.00812099 0.00811515 0.00812984 0.00812844 0.00812225 0.00812456 0.00812325 0.00811821 0.00812738 0.0081276 0.00812209 0.00812546 0.00812369 0.00812013 0.00812619 0.00812722 0.00812254 0.00812616 0.00812468 0.008122 0.00812623 0.00812777 0.00812326 0.00812713 0.00812598 0.00812374 0.00812687 0.00812892 0.00812465 0.00812825 0.00812727 0.00812554 0.00812767 0.00812978 0.00812593 0.00812967 0.00812871 0.00812737 0.00812875 0.00813086 0.0081273 0.00813066 0.00813002 0.00812856 0.00812986 0.00813177 0.00812876 0.008132 0.00813102 0.00813007 0.00813096 0.00813276 0.00813004 0.008133 0.00813227 0.00813129 0.00813211 0.00813358 0.00813124 0.00813399 0.00813304 0.00813224 0.00813279 0.00813426 0.00813233 0.00813471 0.00813386 0.008133 0.00813371 0.00813525 0.00813293 0.00813543 0.00813465 0.00813384 0.00813451 0.00813543 0.00813407 0.00813572 0.00813511 0.00813472 0.00813497 0.00813602 0.00813444 0.00813645 0.00813592 0.00813527 0.00813578 0.00813646 0.00813541 0.00813681 0.00813628 0.00813584 0.00813609 0.00813685 0.00813576 0.0081375 0.00813696 0.00813639 0.00813658 0.00813733 0.00813651 0.00813759 0.00813721 0.00813665 0.00813697 0.00813752 0.00813692 0.00813797 0.00813765 0.00813745 0.00813749 0.0081375 0.00813701 0.00813797 0.00813772 0.00813755 0.00813755 0.00813811 0.00813724 0.00813803 0.00813786 0.00813781 0.00813776 0.0081382 0.00813752 0.00813824 0.0081382 0.0081378 0.00813762 0.00813807 0.00813789 0.00813845 0.00813826 0.00813826 0.0081381 0.00813839 0.00813793 0.00813839 0.00813788 0.00813795 0.00813823 0.0081382 0.00813795 0.00813865 0.00813825 0.00813812 0.00813803 0.00813845 0.00813821 0.0081386 0.00813847 0.00813853 0.00813864 0.00813839 0.00813824 0.0081386 0.00813852 0.00813819 0.00813806 0.00813827 0.00813803 0.00813807 0.00813835 0.00813832 0.00813832 0.00813836 0.00813847 0.00813842 0.00813819 0.00813826 0.00813845 0.00813793 0.00813796 0.00813839 0.00813839 0.00813818 0.00813872 0.00813432 0.00812681 0.0081456 0.00813369 0.00812136 0.00813052 0.00813847 0.00813158 0.00813811 0.00813047 0.00812522 0.00813735 0.00813814 0.00813247 0.0081364 0.00813256 0.008128 0.00813736 0.00813711 0.00813227 0.00813583 0.00813357 0.00812939 0.00813626 0.00813674 0.00813174 0.00813578 0.00813394 0.0081306 0.00813567 0.00813673 0.00813178 0.00813598 0.00813431 0.00813122 0.0081351 0.00813697 0.0081324 0.0081363 0.00813445 0.00813234 0.00813557 0.00813698 0.00813269 0.00813656 0.00813538 0.00813336 0.00813599 0.00813748 0.00813323 0.0081373 0.0081359 0.00813404 0.00813615 0.00813764 0.00813409 0.00813769 0.00813655 0.00813519 0.00813644 0.00813763 0.00813484 0.00813801 0.00813758 0.00813587 0.00813706 0.00813841 0.00813554 0.00813867 0.00813763 0.0081363 0.00813747 0.00813853 0.00813604 0.00813888 0.00813807 0.00813688 0.00813767 0.00813876 0.0081361 0.00813892 0.00813819 0.00813733 0.00813777 0.00813877 0.00813692 0.00813919 0.00813861 0.00813773 0.00813819 0.00813907 0.00813713 0.00813961 0.00813858 0.00813803 0.0081384 0.00813911 0.00813757 0.00813941 0.00813892 0.00813832 0.00813858 0.00813901 0.00813763 0.00813937 0.00813891 0.00813832 0.00813884 0.00813895 0.00813797 0.00813921 0.00813896 0.00813856 0.00813871 0.00813911 0.00813817 0.00813921 0.00813884 0.00813858 0.00813853 0.00813873 0.00813826 0.00813932 0.0081392 0.00813848 0.00813927 0.00813876 0.0081385 0.00813943 0.00813889 0.00813863 0.00813873 0.00813891 0.00813837 0.00813944 0.00813928 0.00813881 0.00813883 0.00813883 0.00813865 0.00813911 0.00813883 0.00813886 0.0081387 0.00813866 0.00813856 0.00813876 0.00813863 0.00813856 0.00813898 0.00813859 0.00813858 0.00813881 0.00813882 0.00813865 0.00813835 0.00813841 0.00813867 0.00813875 0.00813879 0.00813851 0.00813854 0.00813844 0.00813848 0.00813893 0.00813869 0.00813868 0.00813857 0.00813841 0.00813842 0.00813877 0.00813834 0.00813848 0.00813855 0.00813872 0.00813809 0.00813856 0.00813861 0.00813887 0.00813812 0.00813782 0.00813845 0.00813844 0.00813867 0.00813837 0.00813825 0.0081381 0.00813803 0.00813783 0.00813809 0.00813839 0.00813808 0.0081564 0.00814806 0.00818763 0.00816702 0.00814772 0.00814487 0.00814719 0.00814456 0.00815806 0.00814867 0.00814196 0.00814452 0.00814609 0.00814255 0.00814972 0.00814426 0.00814012 0.00814513 0.00814581 0.00814126 0.00814677 0.00814352 0.0081403 0.00814472 0.00814567 0.00814074 0.00814554 0.00814329 0.00814016 0.0081441 0.00814542 0.0081407 0.00814492 0.00814341 0.00814056 0.0081439 0.00814521 0.00814048 0.00814473 0.00814314 0.00814072 0.00814377 0.00814504 0.00814038 0.00814444 0.00814331 0.00814111 0.00814363 0.00814476 0.00814066 0.00814443 0.00814323 0.00814131 0.00814326 0.00814417 0.0081409 0.00814445 0.00814333 0.0081413 0.00814319 0.00814397 0.00814068 0.00814421 0.00814303 0.00814168 0.00814277 0.00814401 0.00814076 0.00814371 0.0081432 0.00814181 0.00814258 0.00814318 0.0081407 0.00814337 0.00814306 0.00814123 0.00814263 0.00814323 0.00814083 0.00814333 0.00814293 0.00814144 0.00814214 0.00814269 0.0081408 0.00814289 0.00814249 0.00814135 0.00814187 0.00814236 0.00814072 0.00814249 0.00814213 0.00814117 0.0081416 0.00814231 0.00814038 0.00814238 0.00814199 0.00814088 0.00814129 0.00814147 0.0081405 0.00814185 0.00814174 0.00814115 0.00814136 0.00814114 0.00814023 0.00814161 0.00814121 0.00814079 0.0081409 0.00814105 0.00813992 0.00814129 0.0081413 0.00814043 0.0081407 0.00814048 0.00814009 0.00814121 0.00814084 0.00814024 0.00814029 0.00814031 0.00813981 0.0081408 0.00814061 0.00814018 0.00814049 0.00814017 0.00813958 0.00814062 0.00814021 0.00813989 0.00813987 0.0081402 0.00813947 0.00813996 0.00813978 0.00813968 0.00813972 0.00813948 0.00813903 0.00813974 0.00813965 0.00813927 0.0081398 0.00813891 0.00813913 0.00813954 0.00813974 0.00813943 0.00813946 0.00813895 0.008139 0.00813898 0.00813921 0.00813916 0.00813904 0.00813892 0.00813888 0.00813862 0.00813873 0.00813892 0.00813871 0.00813869 0.00813855 0.00813863 0.00813854 0.00813871 0.00813823 0.00813849 0.00813825 0.00813835 0.00813885 0.00813834 0.00813858 0.0081381 0.00813827 0.00813805 0.00813834 0.00813856 0.00813846 0.0081379 0.00813813 0.00813799 0.00813812 0.00813776 0.00813806 0.00817244 0.0081685 0.00823145 0.00820238 0.00816832 0.00815705 0.00815592 0.00815593 0.00817533 0.00816501 0.00815694 0.00815295 0.00815434 0.00815202 0.0081609 0.00815529 0.00815194 0.00815303 0.00815456 0.00815051 0.0081564 0.00815327 0.00815044 0.00815324 0.00815451 0.00814975 0.00815487 0.00815257 0.00814989 0.00815284 0.00815362 0.00814938 0.008154 0.00815206 0.00814944 0.00815246 0.00815342 0.00814872 0.0081532 0.00815145 0.00814918 0.0081518 0.00815268 0.00814825 0.00815238 0.00815079 0.00814854 0.00815092 0.00815169 0.00814768 0.00815149 0.00815027 0.00814826 0.00815 0.00815082 0.00814737 0.00815101 0.00814952 0.00814761 0.00814916 0.00814993 0.00814661 0.00814998 0.00814892 0.00814737 0.00814876 0.00814911 0.00814618 0.00814931 0.00814848 0.00814685 0.00814785 0.00814832 0.00814566 0.00814863 0.00814766 0.00814607 0.00814724 0.00814722 0.00814496 0.00814772 0.00814688 0.00814574 0.00814639 0.00814632 0.0081444 0.00814654 0.0081463 0.00814523 0.00814556 0.00814575 0.00814395 0.00814597 0.00814565 0.00814452 0.00814492 0.00814505 0.00814351 0.00814541 0.00814469 0.00814391 0.00814423 0.00814416 0.0081427 0.0081447 0.00814408 0.00814335 0.00814381 0.0081435 0.0081425 0.00814381 0.00814396 0.00814288 0.00814311 0.00814288 0.00814196 0.00814325 0.00814292 0.00814215 0.00814248 0.00814247 0.00814153 0.0081425 0.00814274 0.00814126 0.00814184 0.00814142 0.00814102 0.008142 0.00814199 0.00814138 0.00814178 0.00814128 0.00814056 0.00814127 0.00814161 0.00814108 0.00814113 0.00814055 0.00814039 0.00814062 0.00814111 0.0081406 0.0081409 0.00813992 0.00813986 0.00814015 0.00814062 0.0081397 0.00813995 0.00813977 0.00813941 0.0081401 0.00814018 0.00813952 0.00813987 0.00813949 0.00813891 0.00813987 0.00813942 0.00813902 0.00813943 0.00813897 0.00813865 0.00813917 0.00813939 0.00813887 0.0081395 0.00813901 0.00813882 0.0081388 0.00813879 0.00813903 0.00813881 0.00813821 0.00813835 0.00813878 0.00813883 0.0081389 0.00813825 0.00813868 0.00813857 0.00813867 0.00813879 0.00813824 0.00813829 0.00813827 0.00813784 0.0081379 0.0081379 0.00813801 0.00813768 0.00818694 0.0081882 0.00828174 0.00824341 0.00818357 0.0081678 0.00816482 0.00816566 0.00818585 0.00817944 0.00816949 0.00816185 0.00816359 0.00816105 0.00816865 0.00816571 0.00816278 0.0081619 0.00816393 0.00815959 0.00816502 0.00816275 0.00816006 0.00816157 0.00816324 0.0081587 0.00816409 0.00816166 0.00815871 0.00816118 0.0081622 0.00815793 0.00816295 0.00816068 0.00815819 0.00816016 0.00816109 0.0081566 0.00816151 0.00815934 0.00815694 0.00815932 0.00815981 0.0081558 0.00816014 0.00815824 0.00815601 0.00815791 0.00815856 0.00815459 0.00815879 0.008157 0.00815495 0.00815691 0.00815705 0.00815357 0.00815712 0.00815614 0.00815402 0.00815526 0.00815565 0.0081523 0.00815594 0.00815482 0.00815282 0.00815426 0.00815426 0.00815129 0.0081546 0.00815341 0.00815168 0.00815314 0.00815275 0.00815018 0.00815332 0.00815228 0.0081505 0.00815171 0.00815162 0.00814932 0.00815174 0.00815099 0.0081497 0.00815055 0.00815049 0.00814804 0.00815084 0.00814987 0.00814858 0.00814891 0.00814922 0.00814724 0.00814941 0.00814882 0.0081478 0.00814818 0.00814816 0.00814643 0.00814794 0.00814778 0.00814667 0.00814717 0.00814705 0.00814555 0.00814729 0.0081466 0.00814564 0.00814601 0.00814556 0.00814467 0.00814614 0.00814594 0.00814522 0.00814543 0.00814463 0.00814396 0.00814513 0.00814493 0.00814386 0.00814451 0.00814378 0.00814308 0.0081443 0.00814411 0.00814317 0.00814338 0.00814327 0.00814212 0.0081434 0.00814342 0.00814264 0.00814258 0.00814233 0.00814173 0.00814189 0.00814212 0.00814174 0.0081422 0.00814167 0.0081412 0.00814151 0.00814161 0.00814113 0.00814141 0.00814074 0.00814064 0.00814109 0.008141 0.00814093 0.00814086 0.00814024 0.00813989 0.00814015 0.00814068 0.00813986 0.0081404 0.00813965 0.0081396 0.00813973 0.00814004 0.00813976 0.00813982 0.00813923 0.00813933 0.00813942 0.00813954 0.00813947 0.00813946 0.00813883 0.00813873 0.00813916 0.008139 0.00813862 0.00813903 0.00813846 0.0081385 0.00813864 0.00813881 0.00813859 0.0081388 0.0081382 0.00813817 0.00813809 0.00813841 0.00813813 0.00813857 0.00813807 0.00813796 0.00813773 0.00813766 0.00813811 0.00813825 0.00817196 0.00821072 0.00833528 0.00830475 0.00818751 0.00817636 0.00817548 0.00817399 0.0081722 0.00818736 0.00817887 0.00817213 0.00817492 0.00817024 0.00817406 0.008174 0.00817244 0.00817126 0.00817378 0.00816885 0.00817439 0.0081718 0.00816972 0.00817066 0.00817255 0.00816756 0.00817311 0.00817061 0.00816771 0.00816967 0.00817077 0.00816624 0.00817186 0.00816897 0.00816632 0.00816837 0.00816921 0.00816474 0.00816999 0.00816746 0.00816485 0.00816657 0.00816712 0.00816311 0.00816795 0.00816585 0.00816335 0.00816498 0.00816521 0.0081614 0.00816591 0.00816394 0.00816145 0.00816314 0.00816309 0.0081598 0.0081636 0.00816216 0.00815984 0.00816118 0.00816112 0.00815814 0.00816175 0.00816024 0.0081582 0.00815921 0.0081593 0.0081567 0.00815949 0.00815846 0.00815672 0.00815762 0.0081574 0.00815504 0.00815779 0.00815661 0.00815469 0.00815583 0.00815573 0.00815343 0.00815608 0.00815507 0.00815342 0.00815407 0.00815418 0.00815188 0.00815404 0.00815366 0.008152 0.00815268 0.00815233 0.00815037 0.00815269 0.00815195 0.00815074 0.00815129 0.00815076 0.00814915 0.0081512 0.00815045 0.0081493 0.00814962 0.00814941 0.00814806 0.00814943 0.00814896 0.00814793 0.00814841 0.00814786 0.00814686 0.00814832 0.00814786 0.00814675 0.00814698 0.0081465 0.0081457 0.00814697 0.00814707 0.00814561 0.00814604 0.00814593 0.00814478 0.00814555 0.00814566 0.00814482 0.00814523 0.00814444 0.00814355 0.00814437 0.00814432 0.00814397 0.008144 0.00814374 0.00814272 0.00814344 0.0081437 0.00814304 0.00814264 0.00814258 0.00814202 0.00814238 0.00814275 0.00814217 0.0081424 0.00814139 0.00814107 0.00814142 0.00814169 0.00814135 0.00814128 0.00814128 0.00814068 0.00814079 0.00814101 0.00814068 0.00814053 0.00814044 0.00814006 0.00813992 0.00814041 0.00813976 0.0081399 0.00813957 0.0081396 0.00813931 0.00813974 0.00813943 0.00813966 0.0081393 0.00813921 0.0081388 0.00813925 0.00813895 0.00813888 0.00813866 0.00813859 0.00813827 0.008139 0.00813864 0.00813865 0.00813814 0.00813838 0.00813811 0.00813846 0.00813825 0.00813847 0.00813844 0.00813803 0.00813805 0.00813857 0.00813768 0.00813775 0.00808905 0.00803579 0.00802765 0.00798341 0.00805883 0.00802833 0.00808831 0.00807693 0.00807196 0.00805996 0.00807138 0.00807122 0.00809352 0.00808044 0.00809231 0.00807903 0.00807991 0.00808724 0.00809591 0.00808688 0.00809441 0.00808906 0.00808789 0.00809671 0.00809964 0.00809381 0.00809695 0.0080964 0.00809491 0.00810233 0.00810382 0.00809951 0.00810144 0.00810203 0.00810078 0.00810611 0.00810789 0.00810475 0.00810624 0.00810659 0.0081058 0.00810927 0.00811168 0.00810861 0.00811066 0.00811022 0.00810977 0.00811222 0.00811479 0.00811226 0.00811448 0.00811392 0.00811284 0.00811535 0.0081173 0.00811507 0.00811781 0.00811649 0.00811591 0.00811761 0.00811979 0.00811786 0.00812041 0.00811913 0.00811882 0.00812005 0.00812191 0.00812039 0.00812246 0.00812095 0.00812103 0.00812228 0.0081241 0.00812242 0.00812448 0.00812351 0.00812313 0.00812407 0.00812597 0.00812446 0.0081263 0.00812526 0.0081254 0.00812594 0.00812781 0.00812622 0.00812819 0.00812705 0.00812703 0.00812769 0.0081291 0.00812803 0.00812942 0.00812878 0.00812855 0.00812929 0.00813055 0.00812942 0.00813091 0.00813011 0.00813012 0.00813058 0.0081316 0.00813097 0.00813216 0.00813149 0.00813121 0.00813153 0.00813246 0.00813204 0.00813311 0.00813238 0.00813241 0.00813271 0.00813379 0.00813333 0.00813396 0.00813349 0.00813363 0.00813381 0.0081342 0.00813432 0.00813493 0.0081343 0.00813429 0.00813457 0.00813498 0.00813517 0.00813576 0.00813525 0.00813525 0.00813539 0.00813572 0.00813575 0.00813622 0.00813602 0.00813609 0.00813608 0.00813667 0.00813636 0.00813707 0.00813662 0.00813671 0.00813648 0.0081368 0.00813674 0.00813727 0.00813714 0.00813734 0.00813724 0.00813728 0.00813748 0.00813743 0.00813761 0.00813772 0.00813756 0.00813776 0.00813763 0.00813781 0.00813764 0.0081381 0.00813808 0.00813788 0.00813818 0.00813825 0.00813812 0.00813796 0.00813833 0.00813791 0.00813833 0.00813833 0.008138 0.00813833 0.00813832 0.00813803 0.00813824 0.00813838 0.00813835 0.00813828 0.00813817 0.00813831 0.00813836 0.00813831 0.00813849 0.00813821 0.00813841 0.00813807 0.00813823 0.00813839 0.00813817 0.00813776 0.00813782 0.00810264 0.00808786 0.00806671 0.00806222 0.00805 0.00807138 0.00810271 0.00809568 0.00808067 0.00808091 0.00808452 0.00809881 0.00810525 0.00809893 0.00809826 0.00809463 0.00809771 0.00810814 0.0081092 0.00810272 0.00810588 0.0081029 0.00810255 0.00811162 0.0081119 0.00810585 0.00810957 0.00810874 0.00810628 0.00811403 0.00811444 0.00810959 0.00811246 0.00811274 0.0081102 0.00811622 0.00811681 0.00811269 0.00811571 0.00811624 0.00811377 0.00811815 0.00811897 0.00811559 0.00811845 0.00811871 0.00811689 0.00812015 0.00812127 0.00811812 0.00812099 0.00812108 0.00811959 0.00812195 0.00812326 0.00812053 0.00812375 0.00812311 0.0081221 0.00812388 0.00812507 0.00812261 0.00812567 0.00812507 0.00812413 0.00812574 0.00812675 0.00812465 0.00812766 0.00812675 0.00812626 0.00812711 0.00812823 0.00812636 0.00812878 0.0081282 0.00812784 0.00812871 0.00812977 0.00812798 0.00813036 0.00812947 0.00812941 0.0081299 0.00813116 0.00812925 0.00813152 0.00813082 0.00813072 0.00813118 0.00813209 0.00813061 0.00813276 0.0081318 0.00813171 0.00813218 0.00813291 0.00813165 0.0081337 0.00813306 0.00813273 0.00813308 0.00813365 0.00813255 0.00813445 0.00813356 0.00813365 0.00813393 0.00813447 0.00813349 0.00813536 0.00813454 0.00813464 0.00813466 0.00813504 0.00813426 0.00813551 0.00813515 0.0081353 0.00813513 0.00813587 0.00813534 0.0081361 0.00813591 0.00813615 0.00813592 0.00813624 0.0081358 0.00813664 0.00813638 0.00813654 0.00813666 0.00813706 0.00813621 0.00813749 0.00813689 0.00813702 0.00813712 0.00813706 0.00813678 0.00813759 0.00813741 0.00813741 0.0081372 0.00813724 0.0081374 0.00813784 0.00813746 0.00813765 0.0081375 0.00813777 0.00813781 0.00813816 0.00813811 0.00813815 0.00813804 0.00813808 0.00813751 0.0081384 0.00813804 0.00813831 0.0081379 0.00813777 0.00813833 0.00813831 0.00813823 0.0081383 0.00813808 0.00813803 0.00813818 0.00813818 0.00813817 0.00813846 0.00813833 0.00813854 0.00813787 0.00813842 0.00813833 0.00813837 0.00813849 0.00813845 0.00813795 0.00813837 0.00813797 0.00813868 0.00813838 0.00813832 0.00813838 0.0081382 0.00813845 0.00813809 0.0081383 0.00812268 0.00810993 0.00810552 0.00810215 0.00808324 0.00810184 0.00812257 0.00811239 0.00811114 0.00810756 0.00810051 0.00811446 0.00812142 0.00811306 0.0081163 0.00811342 0.00811012 0.00812066 0.00812252 0.00811565 0.00811943 0.00811763 0.00811445 0.00812305 0.00812358 0.00811788 0.00812146 0.00812066 0.00811705 0.00812412 0.00812472 0.00811987 0.00812324 0.00812329 0.00811987 0.00812543 0.00812582 0.00812171 0.00812488 0.00812519 0.00812249 0.00812662 0.0081271 0.0081235 0.00812661 0.00812696 0.0081245 0.00812786 0.00812849 0.00812517 0.00812852 0.00812858 0.00812651 0.00812899 0.00812967 0.00812694 0.00813008 0.00813007 0.00812837 0.00813028 0.00813102 0.00812808 0.00813167 0.00813096 0.00812974 0.00813134 0.00813173 0.00812942 0.00813289 0.00813216 0.00813117 0.00813249 0.00813286 0.00813082 0.00813406 0.00813324 0.00813216 0.00813304 0.00813357 0.00813155 0.0081347 0.00813368 0.00813325 0.00813414 0.00813444 0.00813244 0.00813524 0.00813487 0.00813415 0.0081349 0.00813496 0.00813368 0.00813583 0.00813521 0.00813469 0.00813529 0.00813537 0.00813432 0.00813652 0.00813592 0.00813556 0.00813571 0.00813584 0.00813494 0.00813706 0.00813639 0.00813606 0.00813643 0.00813674 0.00813563 0.00813748 0.00813674 0.00813663 0.00813671 0.00813679 0.00813605 0.00813748 0.00813716 0.00813697 0.00813742 0.00813723 0.0081366 0.00813792 0.00813746 0.00813748 0.00813763 0.0081376 0.00813668 0.00813811 0.00813769 0.0081375 0.00813774 0.0081377 0.00813732 0.00813842 0.008138 0.00813788 0.00813814 0.00813781 0.00813736 0.00813829 0.00813826 0.00813824 0.00813805 0.00813816 0.00813757 0.0081384 0.00813832 0.00813823 0.00813825 0.00813786 0.00813788 0.00813851 0.00813831 0.00813873 0.00813857 0.00813807 0.00813788 0.00813856 0.00813831 0.00813834 0.00813839 0.00813861 0.00813854 0.00813864 0.00813851 0.00813843 0.0081385 0.00813819 0.00813776 0.00813814 0.00813826 0.00813851 0.00813859 0.00813828 0.00813828 0.00813823 0.00813863 0.00813849 0.00813793 0.00813801 0.00813848 0.00813824 0.00813857 0.00813833 0.00813834 0.00813856 0.00813804 0.00813841 0.00813793 0.00813807 0.00813823 0.00814448 0.0081328 0.00814284 0.0081367 0.00811663 0.00813087 0.0081386 0.0081298 0.00813889 0.00813149 0.00812214 0.00813107 0.00813524 0.00812786 0.00813485 0.00813014 0.00812502 0.00813268 0.00813388 0.00812776 0.00813345 0.00813079 0.0081267 0.00813364 0.00813385 0.00812877 0.0081333 0.00813209 0.00812795 0.00813382 0.00813436 0.00812965 0.00813338 0.00813325 0.00812959 0.00813438 0.00813479 0.00813035 0.00813426 0.00813398 0.00813103 0.00813483 0.0081354 0.00813132 0.00813517 0.00813507 0.00813216 0.00813542 0.00813581 0.00813232 0.00813595 0.00813559 0.00813361 0.00813613 0.00813659 0.00813337 0.00813675 0.00813637 0.00813493 0.00813663 0.00813707 0.00813376 0.00813762 0.00813676 0.00813574 0.00813721 0.00813714 0.00813486 0.00813823 0.00813769 0.00813639 0.00813746 0.00813769 0.00813512 0.00813855 0.00813798 0.00813694 0.00813788 0.00813779 0.00813569 0.00813874 0.00813845 0.00813732 0.00813819 0.00813809 0.00813635 0.00813939 0.00813838 0.00813782 0.00813865 0.00813823 0.00813668 0.00813942 0.00813881 0.00813817 0.00813859 0.00813863 0.008137 0.00813911 0.0081388 0.00813821 0.00813879 0.00813851 0.00813761 0.00813926 0.00813881 0.00813847 0.00813871 0.00813832 0.00813795 0.00813942 0.00813916 0.00813883 0.00813887 0.00813837 0.00813791 0.00813964 0.00813914 0.00813864 0.00813885 0.00813864 0.00813786 0.00813953 0.00813914 0.00813893 0.00813892 0.00813893 0.00813823 0.00813932 0.00813888 0.00813895 0.00813914 0.00813869 0.00813837 0.00813931 0.0081392 0.00813896 0.00813919 0.00813869 0.00813806 0.00813919 0.00813869 0.00813914 0.00813906 0.0081384 0.00813829 0.00813936 0.00813883 0.00813902 0.00813882 0.00813877 0.00813865 0.00813895 0.00813895 0.00813869 0.00813887 0.00813845 0.00813834 0.00813856 0.00813857 0.00813899 0.00813873 0.00813838 0.00813818 0.00813864 0.00813875 0.00813873 0.0081388 0.00813854 0.00813825 0.00813856 0.00813852 0.00813873 0.0081388 0.00813797 0.00813817 0.0081381 0.00813843 0.00813829 0.00813836 0.00813775 0.00813813 0.00813826 0.00813825 0.00813856 0.00813833 0.00813795 0.00813813 0.00813795 0.00813828 0.00813842 0.00813778 0.00816607 0.00815482 0.00817995 0.00816939 0.00814822 0.00815895 0.00815261 0.00814636 0.0081639 0.00815432 0.00814234 0.00814671 0.00814683 0.00814128 0.0081519 0.00814608 0.00813984 0.00814441 0.00814434 0.00813933 0.00814623 0.00814358 0.00813872 0.00814384 0.00814361 0.00813886 0.00814397 0.00814287 0.00813858 0.00814344 0.00814342 0.00813871 0.00814324 0.00814245 0.00813901 0.00814322 0.00814347 0.00813883 0.00814321 0.00814275 0.00813966 0.00814308 0.0081435 0.00813901 0.00814343 0.00814263 0.00814017 0.00814286 0.00814319 0.0081396 0.00814344 0.00814288 0.00814073 0.00814266 0.00814322 0.00813963 0.00814332 0.00814286 0.00814128 0.00814296 0.00814307 0.00814006 0.00814346 0.00814294 0.00814118 0.00814275 0.00814243 0.00813999 0.00814334 0.00814284 0.00814111 0.00814256 0.00814247 0.00814012 0.00814333 0.0081426 0.00814147 0.00814228 0.0081422 0.00814004 0.00814283 0.00814249 0.00814147 0.00814202 0.00814206 0.00814026 0.00814276 0.00814238 0.0081413 0.00814211 0.00814173 0.00813985 0.00814243 0.00814208 0.00814115 0.00814195 0.00814165 0.00813982 0.00814197 0.00814205 0.0081413 0.00814169 0.00814099 0.00814025 0.00814172 0.00814165 0.00814097 0.00814145 0.00814096 0.00813984 0.00814139 0.00814105 0.00814062 0.00814108 0.00814097 0.00813964 0.00814133 0.00814109 0.00814076 0.00814089 0.00814023 0.00813942 0.00814076 0.00814117 0.00814036 0.00814048 0.00813998 0.00813958 0.00814057 0.00814053 0.0081401 0.0081401 0.00813959 0.00813925 0.00814053 0.00814063 0.00813976 0.00814006 0.00813957 0.00813921 0.00814002 0.00814003 0.00813989 0.00813977 0.00813933 0.00813902 0.00813946 0.00813961 0.0081397 0.00814008 0.00813896 0.0081389 0.00813969 0.00813933 0.00813926 0.00813917 0.00813898 0.00813875 0.00813932 0.00813918 0.00813916 0.00813893 0.00813876 0.00813871 0.00813915 0.00813889 0.00813903 0.00813889 0.00813849 0.00813838 0.00813862 0.00813885 0.00813872 0.00813852 0.00813861 0.0081383 0.00813835 0.00813854 0.00813841 0.00813847 0.00813838 0.00813826 0.0081382 0.00813811 0.00813843 0.00813839 0.00813786 0.00813788 0.00813792 0.00813824 0.00813817 0.0081379 0.00818806 0.00817604 0.00821977 0.00820287 0.00817817 0.00818684 0.00816457 0.00816062 0.00818554 0.00817546 0.00816022 0.00816192 0.00815692 0.00815321 0.00816522 0.008161 0.00815294 0.00815571 0.00815404 0.00815006 0.00815693 0.00815533 0.00815007 0.00815367 0.00815347 0.00814846 0.00815429 0.00815304 0.00814869 0.0081527 0.00815252 0.00814806 0.0081528 0.0081517 0.00814874 0.00815167 0.00815183 0.00814732 0.00815205 0.00815087 0.0081483 0.00815085 0.0081513 0.00814709 0.00815152 0.00815018 0.00814798 0.0081501 0.00815063 0.00814645 0.00815082 0.00814997 0.00814761 0.00814965 0.00814974 0.00814628 0.00815027 0.00814939 0.00814738 0.00814898 0.00814908 0.00814588 0.00814955 0.00814864 0.00814701 0.00814829 0.00814826 0.00814565 0.00814895 0.00814808 0.00814645 0.00814793 0.00814759 0.0081448 0.00814778 0.00814721 0.00814607 0.00814719 0.00814667 0.00814452 0.00814722 0.00814697 0.00814557 0.00814629 0.00814599 0.00814363 0.00814644 0.00814618 0.00814492 0.00814566 0.00814532 0.00814343 0.00814596 0.00814552 0.00814448 0.00814512 0.00814437 0.00814312 0.00814507 0.0081451 0.00814367 0.00814455 0.00814375 0.00814212 0.00814461 0.00814409 0.00814335 0.00814359 0.00814319 0.0081424 0.0081437 0.00814397 0.00814297 0.00814349 0.00814219 0.0081418 0.00814321 0.00814304 0.00814241 0.00814264 0.00814196 0.00814126 0.00814259 0.0081424 0.00814153 0.0081422 0.00814152 0.00814082 0.00814199 0.00814205 0.00814133 0.00814154 0.00814102 0.00814066 0.00814124 0.00814129 0.00814071 0.00814121 0.00814025 0.00814014 0.00814071 0.00814068 0.00814053 0.00814057 0.00813992 0.00813963 0.0081403 0.00814051 0.00814026 0.00814005 0.0081394 0.00813971 0.0081401 0.00813988 0.0081398 0.00814 0.00813935 0.00813918 0.00813944 0.00813975 0.00813923 0.00813951 0.00813913 0.00813912 0.00813901 0.00813932 0.00813917 0.00813915 0.00813855 0.00813861 0.00813876 0.00813915 0.00813897 0.00813875 0.00813863 0.00813813 0.00813858 0.00813848 0.00813826 0.00813855 0.008138 0.00813806 0.00813852 0.00813838 0.00813813 0.00813811 0.00813816 0.00813768 0.00813802 0.00813798 0.00813811 0.0081376 0.00821227 0.00819561 0.00826346 0.00824201 0.00820644 0.00821621 0.008173 0.00817251 0.0081968 0.00819286 0.00817436 0.00817621 0.0081662 0.00816369 0.00817269 0.00817363 0.00816433 0.00816652 0.0081642 0.00816003 0.00816647 0.00816606 0.00816042 0.00816302 0.00816287 0.00815817 0.00816414 0.00816265 0.00815863 0.00816112 0.00816177 0.00815702 0.00816234 0.00816057 0.00815758 0.00815976 0.00816052 0.0081558 0.00816084 0.0081591 0.00815661 0.00815856 0.00815896 0.00815468 0.00815925 0.00815787 0.00815549 0.00815755 0.0081578 0.00815388 0.00815824 0.00815671 0.00815452 0.00815594 0.00815628 0.00815253 0.00815669 0.00815558 0.00815339 0.00815491 0.00815501 0.00815156 0.00815538 0.00815442 0.00815264 0.00815396 0.0081535 0.00815073 0.00815415 0.00815313 0.00815173 0.00815265 0.00815233 0.00814933 0.00815282 0.00815218 0.00815032 0.00815146 0.00815087 0.00814868 0.00815139 0.008151 0.00814928 0.00815022 0.0081498 0.0081476 0.00815009 0.00814973 0.00814855 0.00814917 0.00814843 0.00814662 0.00814912 0.00814894 0.00814756 0.0081484 0.00814721 0.00814612 0.00814801 0.00814779 0.00814664 0.00814729 0.00814636 0.00814512 0.00814681 0.00814639 0.00814581 0.00814624 0.0081453 0.00814435 0.0081458 0.00814589 0.00814471 0.0081455 0.00814456 0.0081435 0.00814472 0.00814465 0.00814405 0.00814454 0.00814383 0.00814284 0.00814376 0.00814411 0.00814319 0.00814353 0.00814291 0.00814203 0.00814315 0.00814346 0.00814262 0.00814296 0.00814196 0.00814165 0.00814215 0.00814268 0.00814214 0.00814233 0.00814137 0.00814097 0.00814161 0.00814194 0.00814128 0.0081414 0.00814101 0.0081402 0.0081407 0.0081413 0.00814042 0.0081408 0.00813996 0.00813986 0.00814031 0.00814077 0.00813981 0.00814013 0.00813983 0.00813948 0.00813957 0.00813995 0.00813974 0.00813994 0.00813897 0.00813925 0.00813905 0.00813943 0.00813933 0.0081393 0.00813872 0.00813864 0.00813859 0.00813884 0.00813903 0.00813874 0.00813874 0.00813828 0.0081385 0.00813868 0.00813851 0.00813828 0.00813824 0.00813845 0.00813813 0.00813849 0.00813806 0.00813786 0.00813777 0.00813817 0.00813801 0.00813839 0.00813816 0.00813802 0.00825784 0.0082163 0.00832731 0.00830287 0.00822873 0.00824943 0.008178 0.00818115 0.00817196 0.00819889 0.00818203 0.00818508 0.00817685 0.00817327 0.00817641 0.00818128 0.00817379 0.00817485 0.00817511 0.00817011 0.00817663 0.00817531 0.00817041 0.00817186 0.00817304 0.00816793 0.00817449 0.0081718 0.00816809 0.00816949 0.00817106 0.00816585 0.00817205 0.00816939 0.00816662 0.00816802 0.00816871 0.00816435 0.00816984 0.00816768 0.00816484 0.00816618 0.00816697 0.0081625 0.00816757 0.00816536 0.0081632 0.00816432 0.00816496 0.00816096 0.00816535 0.00816354 0.00816168 0.00816256 0.00816301 0.00815926 0.00816329 0.00816197 0.00815954 0.00816053 0.00816074 0.00815763 0.00816144 0.00816008 0.00815807 0.00815889 0.0081591 0.00815612 0.00815921 0.0081585 0.00815641 0.00815738 0.00815712 0.00815444 0.00815737 0.00815657 0.00815487 0.00815585 0.00815529 0.00815294 0.0081556 0.00815502 0.00815327 0.00815412 0.00815343 0.00815124 0.0081539 0.00815338 0.00815189 0.00815254 0.0081522 0.00815014 0.0081522 0.00815184 0.00815054 0.00815091 0.00815026 0.00814898 0.00815067 0.00815054 0.00814915 0.00814963 0.00814918 0.00814796 0.00814939 0.00814926 0.00814807 0.00814853 0.00814764 0.00814658 0.00814829 0.00814757 0.00814668 0.00814729 0.00814643 0.00814543 0.00814638 0.00814641 0.00814577 0.00814601 0.00814542 0.00814425 0.00814554 0.00814555 0.00814476 0.00814491 0.00814441 0.00814337 0.00814442 0.00814413 0.00814352 0.00814397 0.00814334 0.00814271 0.00814335 0.0081432 0.00814267 0.00814285 0.00814228 0.00814183 0.00814221 0.00814266 0.00814173 0.00814185 0.00814101 0.00814109 0.00814152 0.00814164 0.00814097 0.00814136 0.0081405 0.00814055 0.00814066 0.00814102 0.00814041 0.00814066 0.00813964 0.00814016 0.00814029 0.00814032 0.00814031 0.00814011 0.00813951 0.00813905 0.00813941 0.00813953 0.00813927 0.00813955 0.00813873 0.00813905 0.00813881 0.00813933 0.00813889 0.00813893 0.00813859 0.00813864 0.00813881 0.00813891 0.00813848 0.00813828 0.00813826 0.00813836 0.00813862 0.00813862 0.0081384 0.00813826 0.0081381 0.00813805 0.00813824 0.00813841 0.008138 0.00813777 0.00808108 0.00802344 0.00802481 0.00797497 0.00805223 0.0080189 0.0080848 0.00807282 0.00806468 0.00805141 0.00806882 0.00805952 0.00809089 0.00807747 0.00808921 0.00807306 0.00807654 0.00807681 0.00809297 0.0080837 0.00809416 0.00808452 0.00808479 0.00808953 0.00809671 0.00809107 0.00809688 0.00809308 0.00809262 0.00809793 0.00810161 0.00809788 0.00810113 0.00810007 0.00809926 0.00810391 0.00810623 0.00810335 0.008106 0.00810553 0.00810499 0.00810852 0.00811071 0.00810795 0.00811031 0.00810991 0.00810915 0.00811186 0.00811398 0.00811209 0.00811398 0.00811369 0.008113 0.00811519 0.00811708 0.00811518 0.00811736 0.00811668 0.00811619 0.00811795 0.00811992 0.00811762 0.00812013 0.00811909 0.0081188 0.00812021 0.00812184 0.00812021 0.00812261 0.00812162 0.00812111 0.00812261 0.0081241 0.00812268 0.00812459 0.00812359 0.00812333 0.00812412 0.00812588 0.00812459 0.00812685 0.00812544 0.00812575 0.00812649 0.00812752 0.00812654 0.00812804 0.00812707 0.00812702 0.00812749 0.00812915 0.008128 0.00812981 0.00812882 0.00812863 0.00812912 0.00813055 0.00812966 0.00813088 0.00813011 0.00813036 0.00813051 0.00813187 0.00813097 0.00813183 0.00813139 0.00813163 0.00813187 0.00813263 0.00813196 0.00813317 0.00813245 0.00813249 0.00813278 0.00813375 0.00813354 0.00813416 0.00813357 0.00813367 0.0081343 0.00813444 0.00813431 0.00813497 0.00813438 0.00813446 0.00813472 0.00813547 0.00813493 0.00813571 0.00813521 0.00813525 0.0081354 0.00813591 0.00813592 0.00813625 0.00813593 0.00813572 0.00813629 0.00813684 0.00813636 0.008137 0.00813637 0.00813661 0.00813694 0.00813702 0.0081366 0.00813753 0.00813701 0.0081374 0.00813693 0.0081375 0.00813752 0.00813774 0.00813728 0.00813766 0.00813732 0.00813809 0.008138 0.00813783 0.008138 0.008138 0.00813818 0.00813789 0.00813818 0.00813806 0.00813808 0.00813836 0.00813791 0.00813834 0.00813837 0.00813842 0.00813816 0.00813831 0.00813852 0.00813814 0.00813828 0.00813834 0.00813814 0.00813817 0.00813797 0.00813857 0.008138 0.00813848 0.00813822 0.00813839 0.00813812 0.0081379 0.0081383 0.00813845 0.0081382 0.00813782 0.00813821 0.00810076 0.00808372 0.00806447 0.00805804 0.00804673 0.00806303 0.00810055 0.00809422 0.00807596 0.00807496 0.00807898 0.00808662 0.00810122 0.00809695 0.00809424 0.00809057 0.00809436 0.00809914 0.00810501 0.00809975 0.00810448 0.00809961 0.00810066 0.00810577 0.00810868 0.00810319 0.00810877 0.00810626 0.00810526 0.00811051 0.00811187 0.00810741 0.00811176 0.00811131 0.0081095 0.00811446 0.00811483 0.00811151 0.0081149 0.00811534 0.00811329 0.00811771 0.00811782 0.00811454 0.00811794 0.00811814 0.00811676 0.00812017 0.00812043 0.0081177 0.0081209 0.00812121 0.00811953 0.00812237 0.00812258 0.00812017 0.00812358 0.00812322 0.00812209 0.00812415 0.00812495 0.00812217 0.0081255 0.008125 0.00812414 0.00812579 0.00812633 0.00812451 0.00812745 0.00812675 0.00812625 0.00812729 0.00812819 0.00812633 0.00812909 0.0081282 0.00812785 0.00812859 0.00812924 0.00812798 0.00813037 0.00812972 0.00812945 0.00813026 0.00813085 0.00812955 0.00813186 0.00813091 0.00813097 0.00813121 0.0081318 0.0081307 0.00813293 0.00813192 0.00813193 0.00813234 0.00813272 0.00813152 0.00813372 0.00813281 0.00813287 0.00813311 0.00813358 0.00813272 0.0081342 0.0081339 0.00813397 0.0081343 0.00813429 0.00813357 0.00813544 0.00813478 0.00813483 0.00813482 0.00813531 0.00813456 0.00813583 0.00813517 0.00813545 0.00813523 0.00813578 0.00813547 0.00813632 0.00813579 0.00813616 0.0081361 0.00813612 0.00813555 0.00813687 0.0081364 0.00813678 0.00813664 0.00813675 0.00813645 0.00813713 0.00813671 0.00813691 0.00813719 0.00813678 0.00813691 0.00813778 0.00813704 0.00813805 0.00813727 0.00813743 0.00813697 0.0081376 0.00813744 0.00813751 0.00813776 0.00813784 0.0081378 0.00813814 0.00813774 0.00813825 0.00813805 0.00813796 0.0081378 0.00813831 0.00813807 0.00813827 0.00813812 0.00813789 0.00813806 0.00813857 0.00813811 0.00813797 0.00813833 0.00813804 0.00813818 0.00813886 0.00813816 0.00813834 0.00813827 0.00813851 0.00813804 0.00813839 0.00813818 0.00813857 0.00813831 0.00813829 0.00813819 0.00813883 0.00813841 0.00813835 0.00813799 0.0081382 0.00813816 0.00813829 0.00813805 0.00813829 0.00813826 0.00812297 0.00810936 0.00810389 0.00809955 0.00808146 0.00809862 0.0081213 0.0081123 0.00810734 0.00810459 0.00809595 0.0081069 0.00811808 0.00811125 0.00811352 0.00811141 0.00810723 0.00811475 0.00811856 0.00811277 0.00811792 0.0081159 0.00811286 0.00811902 0.00812001 0.00811517 0.00812024 0.00811942 0.00811668 0.00812186 0.00812218 0.00811737 0.00812221 0.00812233 0.00811963 0.00812441 0.008124 0.00811993 0.00812421 0.00812466 0.00812213 0.00812621 0.00812578 0.00812212 0.00812606 0.00812665 0.00812425 0.0081276 0.0081275 0.00812419 0.00812778 0.00812831 0.00812636 0.00812901 0.00812887 0.00812616 0.00812991 0.00812995 0.00812808 0.00813027 0.00813029 0.00812772 0.00813114 0.00813092 0.0081298 0.00813137 0.00813154 0.00812921 0.00813272 0.00813234 0.00813114 0.00813242 0.00813241 0.00813061 0.00813376 0.00813297 0.00813252 0.00813321 0.00813373 0.0081315 0.00813471 0.00813373 0.00813336 0.00813427 0.00813449 0.00813275 0.0081352 0.00813453 0.00813448 0.008135 0.00813482 0.00813329 0.00813586 0.00813524 0.00813487 0.00813555 0.00813583 0.00813455 0.00813659 0.00813584 0.0081356 0.00813587 0.00813597 0.00813473 0.0081369 0.00813633 0.00813597 0.00813665 0.00813625 0.00813568 0.00813745 0.00813704 0.0081365 0.00813686 0.00813661 0.00813583 0.00813768 0.00813705 0.00813725 0.00813728 0.0081371 0.00813677 0.00813806 0.00813757 0.00813761 0.00813767 0.00813748 0.0081369 0.00813813 0.00813768 0.00813788 0.00813784 0.00813775 0.00813728 0.00813837 0.00813794 0.00813766 0.00813806 0.00813777 0.00813765 0.00813827 0.00813788 0.00813825 0.00813779 0.00813802 0.00813782 0.00813823 0.00813828 0.00813849 0.0081382 0.008138 0.00813769 0.00813842 0.00813823 0.00813863 0.00813853 0.0081381 0.00813812 0.00813875 0.00813844 0.0081387 0.00813849 0.00813822 0.00813822 0.00813821 0.00813846 0.00813837 0.00813854 0.00813833 0.00813813 0.00813844 0.00813797 0.00813856 0.00813841 0.00813821 0.00813805 0.00813875 0.00813826 0.00813856 0.00813816 0.00813804 0.0081383 0.00813825 0.00813831 0.00813827 0.00813818 0.00813801 0.00813817 0.00813812 0.00813807 0.00813834 0.00813804 0.00814661 0.00813431 0.00814148 0.00813542 0.0081156 0.00813025 0.00813959 0.00813074 0.00813732 0.00813122 0.00811944 0.00812857 0.00813381 0.00812698 0.0081341 0.00813027 0.00812358 0.00812986 0.00813184 0.00812589 0.00813263 0.00813047 0.00812582 0.00813157 0.00813158 0.00812652 0.00813243 0.00813147 0.0081277 0.00813251 0.00813243 0.00812771 0.00813271 0.00813247 0.00812898 0.00813356 0.00813319 0.00812881 0.00813353 0.00813356 0.00813071 0.00813452 0.00813416 0.00813027 0.00813444 0.00813456 0.00813214 0.00813515 0.00813485 0.00813108 0.00813555 0.00813527 0.00813344 0.00813583 0.00813555 0.00813264 0.00813651 0.00813619 0.00813441 0.00813625 0.00813604 0.00813328 0.00813741 0.00813706 0.00813552 0.00813714 0.00813668 0.00813403 0.008138 0.00813744 0.00813624 0.00813735 0.00813723 0.0081351 0.00813827 0.00813794 0.00813671 0.00813797 0.00813765 0.00813569 0.00813871 0.00813801 0.00813733 0.00813807 0.00813796 0.00813614 0.00813905 0.00813859 0.0081375 0.00813841 0.00813805 0.0081366 0.00813946 0.00813866 0.00813813 0.00813845 0.0081386 0.00813677 0.00813942 0.00813883 0.00813861 0.00813861 0.00813845 0.00813716 0.00813926 0.00813879 0.0081385 0.00813893 0.00813841 0.00813765 0.00813944 0.00813927 0.00813873 0.00813897 0.00813887 0.00813742 0.00813936 0.00813905 0.00813868 0.00813924 0.00813875 0.00813809 0.00813936 0.00813902 0.00813875 0.0081391 0.00813869 0.00813797 0.00813974 0.00813907 0.00813865 0.00813898 0.00813852 0.00813809 0.00813951 0.00813944 0.00813891 0.00813927 0.00813877 0.00813814 0.0081394 0.00813908 0.00813913 0.00813897 0.00813846 0.00813832 0.00813876 0.00813884 0.00813916 0.00813892 0.0081385 0.00813848 0.00813905 0.00813888 0.00813869 0.00813874 0.00813846 0.00813838 0.00813903 0.00813871 0.00813853 0.00813866 0.00813841 0.00813818 0.0081388 0.00813862 0.00813881 0.00813871 0.00813848 0.00813825 0.00813856 0.00813876 0.00813858 0.00813884 0.0081382 0.0081385 0.00813824 0.00813792 0.00813819 0.00813843 0.00813823 0.0081379 0.00813833 0.00813797 0.00813861 0.00813788 0.00813797 0.00813819 0.00813778 0.00813805 0.00813893 0.00813808 0.00817053 0.00815831 0.00817975 0.00816923 0.00814814 0.00816038 0.00815575 0.00814812 0.00816501 0.00815629 0.00814222 0.00814959 0.00814758 0.00814159 0.00815265 0.00814803 0.00813948 0.00814495 0.00814387 0.00813822 0.0081462 0.00814414 0.00813832 0.0081433 0.00814238 0.00813739 0.00814358 0.00814276 0.0081384 0.00814265 0.00814228 0.00813748 0.0081427 0.00814241 0.00813868 0.00814246 0.00814237 0.00813774 0.00814254 0.00814241 0.00813923 0.00814242 0.0081425 0.00813812 0.00814286 0.00814248 0.00813983 0.00814237 0.00814237 0.00813859 0.0081431 0.00814256 0.0081403 0.00814272 0.00814216 0.00813892 0.00814324 0.00814263 0.00814091 0.00814259 0.00814222 0.00813946 0.00814349 0.00814275 0.00814093 0.00814262 0.00814219 0.00813951 0.00814344 0.00814278 0.00814124 0.00814278 0.00814206 0.00813987 0.00814322 0.00814256 0.00814161 0.00814242 0.00814175 0.00813986 0.00814295 0.00814255 0.00814116 0.0081421 0.00814151 0.00813959 0.00814277 0.00814224 0.00814132 0.00814213 0.00814185 0.00813969 0.00814256 0.00814199 0.00814111 0.00814179 0.00814104 0.0081397 0.00814226 0.00814156 0.00814136 0.00814161 0.0081411 0.00814003 0.00814201 0.00814159 0.00814104 0.00814161 0.00814063 0.00813972 0.00814154 0.00814135 0.00814097 0.0081411 0.00814036 0.00813952 0.00814119 0.00814115 0.008141 0.00814066 0.00814026 0.00813936 0.00814078 0.00814089 0.00814043 0.00814069 0.00813992 0.00813925 0.00814081 0.00814042 0.00814004 0.00814018 0.00814012 0.00813944 0.00814028 0.00814013 0.00814021 0.00813998 0.00813929 0.00813925 0.00813989 0.00813971 0.00813986 0.00814009 0.00813928 0.00813885 0.00813983 0.00813951 0.00813959 0.00813979 0.00813899 0.00813896 0.00813971 0.00813956 0.00813949 0.00813911 0.00813855 0.00813862 0.00813881 0.00813954 0.00813909 0.00813895 0.00813863 0.00813836 0.00813923 0.00813909 0.00813893 0.00813866 0.00813847 0.00813833 0.00813835 0.00813893 0.00813852 0.00813867 0.00813827 0.00813839 0.0081383 0.00813836 0.00813873 0.00813853 0.00813807 0.00813802 0.008138 0.00813803 0.00813813 0.00813802 0.00813818 0.00813814 0.00813822 0.0081379 0.0081379 0.00813825 0.00819352 0.00818108 0.00822062 0.00820376 0.00817953 0.00819004 0.00816953 0.00816358 0.00818936 0.00818 0.0081624 0.00816921 0.00815896 0.00815429 0.008167 0.00816423 0.00815402 0.0081591 0.00815474 0.00814997 0.00815716 0.0081571 0.00815017 0.0081548 0.00815301 0.00814797 0.00815388 0.00815332 0.00814862 0.00815238 0.00815204 0.00814713 0.00815262 0.00815178 0.00814813 0.00815113 0.00815111 0.00814656 0.00815155 0.00815068 0.00814796 0.00815032 0.00815074 0.00814637 0.00815121 0.00815029 0.00814794 0.00814974 0.0081498 0.00814585 0.00815046 0.0081495 0.00814752 0.00814922 0.00814902 0.00814562 0.00815007 0.00814911 0.00814709 0.00814864 0.00814854 0.00814528 0.00814923 0.00814845 0.00814655 0.0081482 0.00814785 0.00814496 0.00814865 0.00814776 0.00814636 0.00814742 0.00814694 0.00814483 0.00814783 0.00814715 0.00814614 0.00814693 0.00814639 0.0081442 0.0081474 0.00814689 0.0081453 0.0081462 0.00814547 0.0081435 0.00814651 0.008146 0.00814475 0.00814566 0.00814495 0.00814343 0.00814586 0.00814524 0.00814445 0.00814508 0.00814424 0.00814272 0.00814485 0.00814436 0.00814378 0.00814433 0.00814376 0.00814225 0.00814414 0.0081442 0.00814334 0.00814394 0.00814279 0.00814207 0.00814382 0.00814345 0.00814276 0.00814348 0.00814251 0.00814148 0.00814319 0.00814285 0.00814227 0.0081426 0.00814173 0.00814108 0.00814256 0.00814227 0.00814226 0.00814219 0.00814146 0.0081406 0.00814211 0.00814201 0.00814125 0.00814163 0.0081407 0.00814043 0.00814134 0.00814147 0.00814121 0.00814135 0.00814049 0.00814002 0.00814085 0.0081411 0.00814071 0.00814092 0.00814005 0.00813967 0.00814004 0.00814079 0.00814021 0.00814031 0.00813978 0.00813936 0.00814007 0.00813994 0.0081395 0.00813998 0.00813911 0.00813905 0.00813949 0.00813949 0.00813954 0.00813982 0.00813894 0.00813881 0.00813906 0.00813955 0.00813898 0.00813893 0.00813873 0.00813847 0.00813877 0.00813891 0.0081387 0.00813914 0.00813838 0.00813845 0.00813846 0.0081385 0.00813883 0.00813866 0.00813852 0.00813836 0.00813827 0.00813832 0.00813808 0.00813821 0.00813796 0.00813804 0.00813792 0.00813781 0.00813791 0.00813776 0.00821786 0.0082021 0.00826438 0.00824335 0.00820829 0.00821936 0.00817813 0.00817626 0.00820271 0.00819881 0.00817872 0.00818614 0.00816852 0.00816528 0.00817444 0.00817717 0.00816567 0.00817147 0.00816538 0.00816037 0.00816666 0.00816787 0.00816096 0.008165 0.00816335 0.00815816 0.0081639 0.00816338 0.00815858 0.00816165 0.00816168 0.00815649 0.0081624 0.00816082 0.00815732 0.00815965 0.00816024 0.00815533 0.00816074 0.00815902 0.00815633 0.00815814 0.00815876 0.00815429 0.00815958 0.0081576 0.00815524 0.00815685 0.00815748 0.00815322 0.00815802 0.00815642 0.00815463 0.00815588 0.00815579 0.0081523 0.0081564 0.00815524 0.00815368 0.00815473 0.00815474 0.00815142 0.00815542 0.00815406 0.00815239 0.00815351 0.00815306 0.00815028 0.0081537 0.008153 0.00815131 0.00815243 0.00815218 0.00814941 0.00815265 0.00815185 0.00815051 0.00815144 0.0081507 0.00814839 0.00815157 0.00815077 0.00814946 0.00815025 0.0081496 0.00814748 0.00814993 0.00814982 0.0081483 0.00814918 0.00814874 0.00814659 0.00814895 0.00814862 0.00814759 0.00814822 0.00814711 0.00814588 0.00814781 0.00814762 0.00814671 0.008147 0.00814615 0.00814476 0.00814686 0.00814691 0.00814584 0.00814608 0.00814545 0.00814422 0.00814578 0.00814583 0.00814489 0.00814534 0.00814449 0.00814346 0.00814487 0.00814483 0.00814394 0.00814423 0.00814391 0.00814259 0.00814364 0.00814405 0.00814318 0.00814361 0.00814269 0.00814182 0.00814284 0.00814311 0.00814248 0.00814268 0.00814181 0.0081412 0.00814219 0.00814271 0.00814191 0.00814204 0.00814139 0.00814061 0.00814139 0.00814173 0.00814109 0.00814163 0.00814053 0.0081402 0.00814093 0.00814134 0.00814057 0.00814105 0.00813977 0.00814003 0.00814017 0.00814071 0.00814014 0.00814019 0.00813955 0.00813955 0.00813975 0.00813973 0.00813959 0.00814007 0.00813886 0.00813929 0.00813934 0.00813962 0.00813915 0.00813912 0.00813858 0.00813857 0.00813876 0.00813893 0.00813868 0.00813873 0.00813839 0.00813843 0.00813836 0.00813875 0.00813822 0.00813854 0.00813796 0.00813823 0.00813831 0.00813848 0.00813805 0.00813801 0.00813794 0.00813798 0.00813793 0.00813818 0.0081378 0.00813767 0.00826309 0.0082237 0.00833414 0.00830636 0.00823084 0.0082513 0.00818243 0.00818466 0.00817749 0.00820506 0.00818685 0.0081941 0.00817876 0.00817508 0.00817793 0.00818385 0.0081753 0.00817898 0.00817646 0.00817099 0.0081775 0.00817695 0.00817124 0.00817371 0.00817387 0.00816817 0.00817505 0.00817272 0.00816879 0.00817049 0.00817127 0.00816605 0.00817243 0.00816996 0.00816672 0.00816818 0.00816945 0.00816435 0.00816966 0.00816744 0.00816492 0.00816607 0.00816707 0.00816229 0.00816766 0.00816546 0.00816321 0.00816439 0.00816481 0.00816033 0.0081654 0.00816363 0.00816135 0.0081625 0.00816273 0.00815879 0.00816318 0.00816186 0.00815954 0.00816065 0.00816077 0.00815742 0.00816124 0.00815999 0.00815817 0.00815871 0.0081588 0.00815567 0.00815934 0.00815821 0.00815656 0.00815706 0.00815701 0.0081542 0.00815718 0.00815661 0.0081548 0.00815561 0.00815521 0.00815262 0.00815575 0.00815494 0.0081534 0.00815388 0.00815342 0.00815136 0.00815394 0.00815318 0.00815199 0.00815238 0.00815219 0.00814998 0.00815207 0.00815205 0.00815041 0.00815097 0.00815038 0.00814882 0.00815066 0.00815064 0.00814919 0.00814962 0.00814895 0.00814763 0.00814909 0.00814919 0.00814774 0.00814835 0.00814776 0.00814646 0.00814775 0.00814773 0.00814673 0.00814721 0.00814637 0.00814521 0.00814629 0.00814658 0.00814541 0.00814603 0.0081455 0.0081445 0.00814539 0.00814555 0.00814457 0.00814484 0.00814418 0.00814337 0.00814425 0.00814421 0.0081436 0.00814401 0.00814292 0.00814269 0.00814331 0.00814314 0.00814267 0.00814295 0.00814231 0.00814168 0.0081421 0.00814259 0.00814189 0.00814184 0.00814104 0.00814091 0.00814147 0.00814138 0.00814079 0.00814104 0.00814051 0.00814054 0.00814056 0.00814094 0.00814028 0.00814034 0.00814026 0.00813995 0.00814002 0.00814044 0.00813966 0.00814014 0.00813908 0.00813962 0.00813973 0.00813987 0.00813942 0.00813964 0.00813894 0.00813887 0.00813863 0.00813898 0.00813885 0.00813876 0.0081384 0.00813871 0.00813842 0.00813899 0.00813854 0.00813856 0.00813813 0.00813838 0.00813796 0.00813806 0.00813836 0.00813839 0.0081381 0.00813829 0.00813804 0.00813808 0.0081376 0.00813755 0.00807688 0.00801657 0.00802332 0.00797099 0.00804744 0.00801363 0.00808224 0.00807114 0.00806106 0.00804726 0.00806665 0.00805533 0.00809021 0.00807727 0.00808738 0.00807086 0.00807411 0.00807264 0.00809204 0.00808295 0.00809315 0.00808297 0.00808308 0.00808602 0.00809562 0.0080904 0.00809641 0.00809228 0.00809132 0.00809539 0.00810084 0.00809671 0.00810075 0.00809943 0.00809858 0.00810257 0.00810548 0.00810287 0.00810558 0.00810515 0.00810418 0.00810749 0.00810983 0.00810732 0.00811031 0.00810979 0.00810929 0.00811176 0.00811386 0.00811195 0.008114 0.00811356 0.00811299 0.00811514 0.00811678 0.00811485 0.0081176 0.00811669 0.00811611 0.00811765 0.00811949 0.00811801 0.00812011 0.00811921 0.00811921 0.00812004 0.00812193 0.00812053 0.00812264 0.00812159 0.00812139 0.00812254 0.00812399 0.00812246 0.00812463 0.00812365 0.00812359 0.00812451 0.00812612 0.00812455 0.00812648 0.00812571 0.00812522 0.00812635 0.00812731 0.00812663 0.00812849 0.00812742 0.00812723 0.00812805 0.00812902 0.00812823 0.00812981 0.00812863 0.00812923 0.0081294 0.0081306 0.00812967 0.00813111 0.0081304 0.00813041 0.00813067 0.00813193 0.00813072 0.00813237 0.00813159 0.00813176 0.00813204 0.00813268 0.00813196 0.00813314 0.00813236 0.00813256 0.0081329 0.00813349 0.00813312 0.00813407 0.0081337 0.00813371 0.00813369 0.00813455 0.00813425 0.00813498 0.00813443 0.0081348 0.0081349 0.00813536 0.00813496 0.00813588 0.00813531 0.00813544 0.00813545 0.00813618 0.00813602 0.00813647 0.00813618 0.00813649 0.00813638 0.00813694 0.00813656 0.00813688 0.00813658 0.00813692 0.00813665 0.00813677 0.00813697 0.00813726 0.00813737 0.00813723 0.00813722 0.00813738 0.00813755 0.00813795 0.00813738 0.00813759 0.00813808 0.00813771 0.00813785 0.00813809 0.00813814 0.00813785 0.00813782 0.00813772 0.00813841 0.00813816 0.00813797 0.00813856 0.00813838 0.00813795 0.00813877 0.00813846 0.00813797 0.00813844 0.00813813 0.00813842 0.00813823 0.00813858 0.00813846 0.00813844 0.00813833 0.00813851 0.00813824 0.00813843 0.00813812 0.00813813 0.00813823 0.00813828 0.00813822 0.00813812 0.00813815 0.00813834 0.0081381 0.00809951 0.00808142 0.0080639 0.00805584 0.00804499 0.00805941 0.00809957 0.00809337 0.00807326 0.00807284 0.00807673 0.00808257 0.00810006 0.00809715 0.00809155 0.00808887 0.00809189 0.0080959 0.0081033 0.00809934 0.0081025 0.00809864 0.00809939 0.00810331 0.00810704 0.00810249 0.00810811 0.00810555 0.00810464 0.00810897 0.00811049 0.00810665 0.00811156 0.00811102 0.00810924 0.00811314 0.00811362 0.00811038 0.00811462 0.00811515 0.00811328 0.00811698 0.00811695 0.00811404 0.00811795 0.00811807 0.00811685 0.00811997 0.00811995 0.00811708 0.0081207 0.00812115 0.00811966 0.00812219 0.00812219 0.00811986 0.00812321 0.00812309 0.00812223 0.00812416 0.00812436 0.00812204 0.00812569 0.00812501 0.00812457 0.00812595 0.00812627 0.00812419 0.0081275 0.00812691 0.00812631 0.00812744 0.00812781 0.0081261 0.00812904 0.00812836 0.00812818 0.00812889 0.00812953 0.00812787 0.00813065 0.00812988 0.00812945 0.00813025 0.00813038 0.00812947 0.00813165 0.00813071 0.00813057 0.0081313 0.00813183 0.00813049 0.00813304 0.00813187 0.00813192 0.00813255 0.00813255 0.00813168 0.00813395 0.00813296 0.00813296 0.00813315 0.00813365 0.0081329 0.00813467 0.00813384 0.00813379 0.00813396 0.00813491 0.00813391 0.00813539 0.00813443 0.00813494 0.00813495 0.00813519 0.00813459 0.00813597 0.00813531 0.00813539 0.00813558 0.00813556 0.00813532 0.00813673 0.008136 0.00813606 0.00813585 0.00813635 0.00813593 0.00813714 0.00813668 0.00813659 0.00813664 0.00813687 0.00813618 0.00813717 0.00813673 0.00813727 0.00813724 0.00813703 0.00813704 0.00813744 0.00813745 0.00813774 0.00813745 0.00813747 0.00813715 0.00813788 0.00813731 0.00813771 0.00813774 0.00813779 0.0081377 0.0081383 0.0081379 0.00813805 0.00813789 0.00813814 0.00813805 0.00813827 0.00813821 0.00813835 0.00813802 0.00813819 0.008138 0.00813846 0.00813789 0.00813851 0.00813851 0.00813821 0.00813856 0.00813864 0.0081385 0.00813833 0.00813815 0.00813851 0.00813819 0.00813864 0.00813832 0.00813846 0.00813822 0.008138 0.00813868 0.00813821 0.00813816 0.00813837 0.00813799 0.008138 0.00813807 0.00813832 0.00813816 0.00813867 0.00813835 0.00812359 0.0081088 0.00810349 0.00809783 0.00808054 0.00809674 0.00812124 0.00811261 0.00810563 0.00810334 0.0080936 0.00810478 0.00811731 0.00811167 0.00811136 0.00811063 0.00810495 0.00811254 0.00811701 0.00811224 0.00811657 0.00811575 0.00811152 0.00811774 0.00811854 0.00811407 0.00811962 0.0081193 0.00811605 0.00812087 0.00812082 0.00811629 0.00812184 0.00812214 0.00811936 0.00812335 0.00812287 0.00811905 0.00812397 0.00812465 0.00812186 0.00812559 0.00812502 0.00812161 0.0081261 0.00812667 0.00812439 0.00812734 0.00812679 0.00812378 0.00812798 0.00812825 0.00812647 0.0081288 0.00812866 0.00812565 0.0081299 0.00813004 0.00812822 0.00813027 0.00812993 0.00812753 0.00813117 0.00813079 0.00812994 0.00813156 0.00813111 0.00812901 0.00813251 0.00813198 0.0081311 0.00813226 0.00813218 0.00813011 0.00813351 0.00813305 0.00813254 0.00813355 0.00813329 0.00813143 0.00813466 0.00813404 0.00813336 0.00813422 0.00813415 0.00813246 0.0081353 0.00813461 0.00813447 0.00813488 0.00813464 0.00813346 0.00813587 0.00813546 0.00813487 0.00813553 0.00813538 0.00813428 0.00813702 0.00813589 0.00813566 0.00813603 0.00813574 0.00813479 0.00813691 0.00813638 0.00813632 0.00813629 0.00813626 0.00813537 0.00813702 0.00813675 0.00813672 0.00813681 0.00813695 0.00813586 0.00813783 0.00813724 0.00813727 0.00813747 0.00813678 0.00813659 0.0081379 0.00813752 0.00813762 0.00813754 0.00813715 0.00813744 0.00813825 0.00813765 0.00813795 0.0081378 0.00813756 0.00813731 0.00813824 0.00813793 0.00813807 0.0081378 0.00813797 0.00813754 0.00813824 0.0081381 0.00813865 0.00813824 0.00813815 0.00813758 0.00813835 0.00813821 0.0081385 0.00813856 0.00813799 0.00813786 0.00813862 0.00813821 0.00813869 0.00813833 0.00813791 0.00813782 0.00813845 0.00813845 0.00813868 0.00813856 0.0081387 0.00813821 0.00813873 0.00813879 0.00813883 0.00813852 0.00813829 0.00813856 0.00813854 0.00813845 0.0081388 0.00813854 0.00813818 0.0081381 0.0081381 0.00813837 0.00813844 0.00813788 0.00813801 0.00813794 0.00813814 0.00813838 0.00813805 0.00813817 0.0081378 0.00813817 0.00813829 0.00813792 0.00813812 0.00813812 0.00814836 0.00813473 0.00814108 0.00813423 0.00811509 0.00812967 0.00814041 0.00813168 0.00813662 0.00813092 0.00811769 0.00812811 0.00813388 0.00812756 0.008133 0.00813032 0.00812213 0.0081292 0.00813077 0.00812558 0.00813182 0.00813065 0.00812528 0.00813106 0.00813037 0.00812554 0.00813173 0.00813165 0.00812731 0.00813201 0.00813104 0.00812663 0.00813222 0.00813239 0.00812897 0.00813297 0.00813209 0.00812794 0.00813299 0.0081335 0.00813081 0.00813404 0.00813325 0.00812957 0.00813422 0.00813467 0.00813209 0.00813485 0.00813437 0.00813059 0.00813529 0.0081353 0.0081333 0.00813579 0.00813513 0.00813224 0.0081363 0.008136 0.00813445 0.00813645 0.00813588 0.00813334 0.00813701 0.0081367 0.00813551 0.00813684 0.00813653 0.00813391 0.00813786 0.00813736 0.00813612 0.0081373 0.00813697 0.00813485 0.00813822 0.00813766 0.00813708 0.0081378 0.00813722 0.00813548 0.00813861 0.00813797 0.00813733 0.00813816 0.00813781 0.00813596 0.00813924 0.00813856 0.00813784 0.00813836 0.00813774 0.00813629 0.00813925 0.0081387 0.00813805 0.0081386 0.00813822 0.00813696 0.0081393 0.00813859 0.00813816 0.00813884 0.00813861 0.00813719 0.00813955 0.00813878 0.00813877 0.00813904 0.00813857 0.0081377 0.00813958 0.00813918 0.008139 0.00813912 0.00813866 0.00813745 0.00813947 0.00813907 0.00813871 0.00813879 0.00813876 0.00813805 0.00813966 0.0081392 0.0081391 0.00813904 0.0081387 0.00813797 0.00813931 0.00813906 0.00813894 0.008139 0.00813899 0.00813846 0.00813923 0.00813931 0.0081393 0.00813909 0.00813856 0.00813831 0.00813917 0.00813911 0.00813906 0.00813874 0.00813835 0.00813856 0.00813924 0.00813938 0.00813904 0.00813863 0.00813834 0.0081385 0.00813922 0.00813902 0.00813917 0.00813881 0.00813815 0.0081383 0.00813879 0.0081385 0.00813871 0.00813879 0.0081382 0.00813836 0.00813908 0.00813881 0.00813869 0.00813863 0.00813839 0.00813801 0.00813879 0.00813869 0.00813851 0.00813817 0.00813807 0.00813832 0.00813837 0.00813875 0.00813858 0.00813849 0.00813867 0.00813809 0.0081385 0.00813842 0.00813865 0.00813827 0.00813812 0.00813813 0.00813797 0.00813821 0.00813795 0.00813811 0.00817294 0.00816005 0.00817923 0.00816889 0.00814802 0.00816082 0.0081574 0.00814954 0.00816516 0.00815742 0.00814139 0.00815075 0.00814802 0.00814207 0.00815288 0.00814911 0.00813889 0.00814556 0.00814346 0.00813806 0.00814602 0.00814492 0.0081383 0.00814361 0.00814189 0.00813698 0.00814331 0.00814293 0.0081385 0.00814253 0.0081415 0.00813679 0.00814256 0.00814234 0.00813889 0.0081422 0.00814164 0.00813745 0.00814259 0.00814202 0.00813927 0.00814206 0.00814179 0.00813756 0.00814293 0.00814226 0.00813991 0.00814246 0.00814173 0.00813804 0.00814278 0.00814236 0.00814035 0.00814216 0.00814187 0.00813865 0.00814298 0.00814255 0.00814082 0.00814247 0.00814175 0.00813913 0.00814313 0.00814251 0.0081415 0.00814252 0.00814189 0.00813937 0.00814303 0.00814247 0.00814134 0.00814225 0.00814182 0.00813963 0.00814305 0.00814244 0.00814129 0.00814227 0.00814158 0.00813982 0.00814299 0.00814222 0.00814165 0.00814219 0.00814173 0.00813984 0.00814265 0.00814226 0.0081415 0.0081419 0.00814131 0.00813996 0.00814233 0.00814214 0.00814142 0.00814174 0.00814114 0.00813973 0.00814219 0.00814199 0.00814116 0.00814169 0.00814078 0.00813976 0.008142 0.00814128 0.00814086 0.00814146 0.00814056 0.00813955 0.00814149 0.00814116 0.0081406 0.00814114 0.00814038 0.00813957 0.00814151 0.00814103 0.00814045 0.00814087 0.00814028 0.00813945 0.00814113 0.00814095 0.00814048 0.00814056 0.0081401 0.00813921 0.00814084 0.00814068 0.00814012 0.00814032 0.00813952 0.00813923 0.00814025 0.00814026 0.0081401 0.00814042 0.00813935 0.00813912 0.00814013 0.00813983 0.00813985 0.00813997 0.00813908 0.00813909 0.00813946 0.00813974 0.00813945 0.0081396 0.00813894 0.0081387 0.0081394 0.0081393 0.0081391 0.0081395 0.00813871 0.00813866 0.00813935 0.00813909 0.00813903 0.00813944 0.00813852 0.00813857 0.008139 0.00813888 0.00813886 0.0081389 0.00813837 0.00813856 0.00813867 0.00813885 0.00813843 0.00813863 0.00813841 0.00813849 0.00813855 0.00813866 0.00813849 0.00813876 0.00813809 0.0081383 0.00813827 0.00813838 0.00813818 0.00813831 0.00813792 0.00813819 0.00813806 0.00813782 0.00813821 0.00813763 0.00819682 0.00818359 0.0082207 0.00820425 0.00817908 0.00819084 0.00817156 0.00816521 0.00819004 0.0081821 0.00816275 0.00817203 0.0081598 0.00815486 0.00816807 0.00816594 0.00815428 0.00816108 0.00815485 0.00814995 0.00815779 0.00815788 0.00815045 0.00815515 0.00815282 0.00814758 0.00815393 0.00815377 0.00814904 0.00815252 0.00815166 0.00814665 0.00815232 0.00815168 0.00814833 0.00815093 0.00815069 0.00814629 0.00815166 0.00815072 0.00814793 0.00815008 0.00815011 0.00814596 0.00815099 0.00815012 0.00814768 0.00814952 0.00814943 0.00814563 0.00815052 0.00814944 0.00814738 0.00814927 0.00814877 0.00814527 0.00814969 0.00814861 0.00814704 0.00814837 0.00814808 0.00814487 0.00814937 0.00814843 0.0081466 0.00814782 0.00814752 0.00814479 0.0081486 0.00814797 0.00814624 0.00814742 0.00814675 0.00814449 0.00814785 0.00814697 0.00814615 0.00814679 0.00814624 0.00814401 0.00814722 0.0081466 0.0081453 0.0081464 0.00814542 0.00814355 0.00814641 0.00814575 0.00814506 0.00814554 0.00814461 0.00814316 0.00814575 0.00814545 0.00814421 0.00814476 0.00814413 0.00814271 0.00814501 0.00814485 0.00814391 0.00814431 0.00814359 0.00814222 0.00814448 0.00814429 0.00814337 0.00814367 0.00814311 0.0081418 0.00814352 0.00814376 0.00814281 0.00814328 0.00814258 0.00814142 0.0081432 0.00814299 0.00814229 0.00814259 0.00814192 0.00814105 0.00814215 0.00814246 0.00814214 0.00814232 0.00814131 0.00814054 0.0081416 0.00814189 0.00814124 0.00814161 0.00814059 0.00814045 0.00814148 0.0081413 0.00814092 0.00814107 0.00814031 0.00813983 0.00814064 0.00814089 0.00814058 0.0081406 0.00814014 0.00813944 0.00814001 0.00814029 0.00814018 0.00814016 0.00813959 0.00813922 0.00813989 0.00814049 0.0081397 0.00813992 0.00813939 0.0081394 0.00813964 0.00813953 0.00813945 0.00813941 0.00813905 0.00813857 0.008139 0.00813932 0.00813885 0.00813913 0.00813846 0.00813864 0.0081388 0.00813898 0.00813875 0.00813868 0.0081382 0.00813829 0.00813838 0.00813871 0.00813848 0.00813848 0.00813799 0.00813823 0.00813821 0.00813834 0.0081381 0.00813845 0.00813821 0.00813799 0.0081378 0.00813782 0.00813817 0.00813794 0.00822153 0.00820543 0.00826465 0.00824451 0.00820848 0.00822025 0.00818047 0.00817772 0.00820435 0.00820177 0.00817998 0.00819017 0.00816991 0.00816577 0.008176 0.00817914 0.00816656 0.00817369 0.00816591 0.0081607 0.00816701 0.00816875 0.00816138 0.00816606 0.00816346 0.00815811 0.00816412 0.00816389 0.0081589 0.00816205 0.00816159 0.00815631 0.00816247 0.00816082 0.00815783 0.00815965 0.00816023 0.00815506 0.00816093 0.00815902 0.00815638 0.00815804 0.00815853 0.00815391 0.00815937 0.00815781 0.00815512 0.00815691 0.00815708 0.0081528 0.0081583 0.00815633 0.00815412 0.00815541 0.00815567 0.00815202 0.00815668 0.00815521 0.0081536 0.00815458 0.00815436 0.00815075 0.00815536 0.00815422 0.0081524 0.00815367 0.00815295 0.00815011 0.00815376 0.00815309 0.00815156 0.0081523 0.00815187 0.00814928 0.00815236 0.00815181 0.00815027 0.00815116 0.00815047 0.0081483 0.00815107 0.00815057 0.0081494 0.00815032 0.0081495 0.00814755 0.00814992 0.00814965 0.00814847 0.00814902 0.00814813 0.00814641 0.00814905 0.00814847 0.00814744 0.00814798 0.00814711 0.00814576 0.00814793 0.00814748 0.0081464 0.00814739 0.00814619 0.00814484 0.00814661 0.00814662 0.00814548 0.00814614 0.0081451 0.00814394 0.00814566 0.00814576 0.00814517 0.00814507 0.00814436 0.00814323 0.00814505 0.00814476 0.00814394 0.00814413 0.00814352 0.0081427 0.0081439 0.00814399 0.00814323 0.00814384 0.00814273 0.00814198 0.00814313 0.00814319 0.00814257 0.0081427 0.00814217 0.00814123 0.00814239 0.0081425 0.0081417 0.00814215 0.00814123 0.00814067 0.00814148 0.00814132 0.00814145 0.00814153 0.00814031 0.0081401 0.00814104 0.00814129 0.00814045 0.00814091 0.00814032 0.00813963 0.00814009 0.00814036 0.00814015 0.00814029 0.00813918 0.00813917 0.00813947 0.00813989 0.00813938 0.00813983 0.008139 0.00813932 0.00813912 0.00813961 0.00813924 0.00813956 0.00813855 0.00813872 0.00813904 0.00813922 0.00813848 0.00813902 0.00813828 0.00813867 0.00813847 0.00813886 0.00813839 0.00813821 0.00813831 0.00813796 0.00813831 0.00813841 0.00813825 0.00813809 0.00813802 0.00813805 0.00813761 0.008138 0.00813816 0.00813794 0.00826635 0.00822711 0.00833671 0.00830781 0.00823186 0.00825204 0.00818547 0.00818595 0.00818052 0.00820791 0.00818918 0.00819786 0.00818062 0.00817561 0.00817908 0.00818592 0.00817675 0.00818096 0.00817744 0.00817105 0.00817861 0.00817755 0.00817179 0.00817481 0.00817446 0.00816834 0.00817574 0.00817328 0.00816901 0.00817099 0.00817186 0.00816584 0.00817289 0.00817009 0.0081667 0.00816839 0.00816936 0.00816424 0.00816998 0.00816764 0.00816503 0.00816618 0.00816714 0.00816205 0.00816794 0.00816531 0.00816304 0.00816421 0.00816529 0.00816042 0.0081656 0.00816351 0.00816107 0.00816237 0.00816284 0.00815891 0.00816311 0.0081617 0.00815958 0.00816043 0.00816084 0.00815713 0.00816122 0.00815989 0.00815796 0.00815871 0.00815889 0.00815551 0.00815901 0.00815811 0.00815633 0.00815688 0.00815669 0.00815388 0.00815702 0.00815618 0.0081546 0.0081556 0.00815506 0.00815243 0.00815537 0.00815472 0.00815317 0.00815373 0.00815331 0.00815136 0.00815372 0.0081532 0.00815185 0.00815257 0.00815191 0.00814983 0.00815242 0.00815182 0.00815041 0.00815102 0.00815044 0.00814852 0.00815065 0.00815024 0.00814906 0.00814955 0.0081489 0.00814749 0.00814894 0.00814923 0.00814779 0.00814813 0.00814764 0.0081463 0.00814769 0.00814782 0.00814661 0.00814713 0.00814605 0.00814515 0.00814669 0.00814648 0.0081453 0.00814579 0.00814488 0.00814428 0.00814528 0.00814538 0.00814451 0.00814482 0.00814406 0.00814352 0.00814417 0.00814434 0.00814404 0.00814393 0.00814321 0.00814262 0.00814312 0.00814337 0.0081425 0.0081429 0.00814193 0.00814168 0.00814198 0.00814241 0.00814158 0.00814214 0.00814123 0.00814109 0.00814146 0.00814164 0.0081407 0.0081412 0.00814053 0.00813997 0.00814057 0.00814075 0.00814007 0.00814032 0.00814002 0.00813993 0.00813998 0.00813995 0.00813991 0.00813991 0.00813936 0.00813938 0.00813927 0.00813932 0.00813907 0.00813928 0.00813884 0.00813871 0.00813888 0.00813892 0.00813876 0.00813898 0.00813834 0.00813842 0.00813858 0.00813865 0.00813841 0.0081385 0.00813854 0.00813784 0.008138 0.0081384 0.00813835 0.00813828 0.00813786 0.00813784 0.00813789 0.00813832 0.0081379 0.0081383 0.00807548 0.00801439 0.00802399 0.00797219 0.00804533 0.00801237 0.00808222 0.00807253 0.00806034 0.00804645 0.00806562 0.00805429 0.00809074 0.0080791 0.00808685 0.00807052 0.00807378 0.00807242 0.00809241 0.0080842 0.00809275 0.00808365 0.00808226 0.00808545 0.00809553 0.00809106 0.00809637 0.00809318 0.00809122 0.00809526 0.00809998 0.00809725 0.00810091 0.00810007 0.00809866 0.00810233 0.00810506 0.00810281 0.00810596 0.00810583 0.00810459 0.00810735 0.00810961 0.00810747 0.00811028 0.00811021 0.00810926 0.00811158 0.0081136 0.00811142 0.00811425 0.00811404 0.00811321 0.0081151 0.00811662 0.00811471 0.00811769 0.00811668 0.00811641 0.00811775 0.00811938 0.00811776 0.00812035 0.0081192 0.008119 0.00812034 0.00812202 0.00812001 0.00812261 0.00812163 0.00812139 0.0081225 0.00812403 0.00812274 0.00812487 0.00812375 0.00812375 0.00812445 0.00812608 0.00812461 0.00812654 0.00812557 0.00812539 0.00812601 0.00812757 0.00812645 0.00812846 0.00812727 0.00812734 0.00812786 0.00812915 0.00812815 0.00812991 0.00812883 0.00812903 0.00812932 0.00813051 0.0081298 0.0081308 0.00813021 0.00813089 0.00813085 0.00813174 0.00813106 0.00813226 0.00813129 0.00813148 0.00813186 0.00813279 0.00813217 0.00813334 0.00813257 0.00813263 0.00813305 0.00813385 0.00813343 0.00813406 0.00813336 0.00813373 0.00813398 0.00813448 0.0081345 0.008135 0.00813465 0.00813469 0.00813507 0.0081355 0.00813515 0.00813599 0.00813509 0.0081357 0.00813543 0.0081363 0.00813571 0.00813664 0.00813579 0.00813618 0.00813611 0.0081365 0.00813673 0.008137 0.00813658 0.00813683 0.00813694 0.00813706 0.0081369 0.00813736 0.00813715 0.00813713 0.00813719 0.00813749 0.00813743 0.00813755 0.00813752 0.00813765 0.00813775 0.00813774 0.00813793 0.00813802 0.00813735 0.00813808 0.00813767 0.00813858 0.0081382 0.0081383 0.00813825 0.0081383 0.00813809 0.00813799 0.00813827 0.00813838 0.00813823 0.0081384 0.0081383 0.00813816 0.00813854 0.00813848 0.00813794 0.00813887 0.00813822 0.00813821 0.00813838 0.00813822 0.00813818 0.00813856 0.00813822 0.00813798 0.00813817 0.00813834 0.00813817 0.00813816 0.00813814 0.0080995 0.00808131 0.00806426 0.00805567 0.00804488 0.00805828 0.00810023 0.00809493 0.008073 0.00807273 0.00807624 0.00808209 0.00810007 0.00809852 0.00809039 0.00808933 0.0080913 0.0080957 0.00810334 0.00810028 0.00810149 0.00809972 0.00809881 0.00810314 0.00810663 0.00810268 0.00810792 0.00810657 0.00810439 0.00810864 0.00811003 0.00810655 0.00811211 0.00811201 0.00810904 0.00811327 0.00811311 0.00811023 0.00811507 0.00811571 0.00811346 0.00811671 0.00811632 0.0081138 0.00811804 0.00811885 0.00811694 0.0081197 0.0081195 0.00811691 0.0081211 0.00812132 0.00812007 0.00812235 0.00812203 0.00811971 0.00812346 0.00812323 0.00812234 0.00812426 0.00812444 0.00812198 0.00812572 0.0081251 0.00812437 0.00812583 0.00812644 0.00812413 0.00812742 0.00812677 0.00812636 0.00812746 0.00812785 0.00812596 0.00812915 0.00812853 0.00812793 0.00812859 0.00812928 0.00812758 0.00813047 0.0081297 0.00812964 0.00813009 0.00813079 0.00812907 0.00813153 0.00813097 0.00813068 0.00813142 0.0081318 0.00813065 0.00813271 0.00813204 0.00813194 0.00813247 0.00813268 0.00813165 0.00813384 0.00813286 0.0081329 0.00813326 0.00813371 0.00813268 0.00813458 0.00813369 0.00813417 0.00813435 0.00813468 0.0081337 0.00813531 0.00813466 0.00813486 0.00813522 0.00813511 0.00813433 0.0081357 0.0081352 0.00813557 0.0081357 0.00813587 0.00813499 0.00813668 0.00813622 0.00813585 0.00813603 0.0081361 0.00813596 0.00813701 0.00813611 0.00813694 0.00813692 0.00813691 0.00813633 0.00813726 0.00813686 0.0081372 0.00813701 0.00813732 0.00813681 0.00813741 0.00813679 0.00813756 0.00813743 0.0081374 0.00813732 0.00813764 0.00813772 0.00813769 0.00813753 0.00813762 0.00813766 0.00813821 0.00813818 0.00813807 0.00813757 0.00813828 0.0081378 0.00813824 0.00813789 0.00813827 0.00813794 0.00813784 0.00813805 0.00813833 0.00813799 0.00813855 0.00813836 0.00813829 0.00813809 0.00813858 0.00813791 0.00813854 0.0081381 0.00813799 0.00813856 0.00813844 0.00813842 0.00813828 0.00813837 0.00813848 0.00813804 0.00813836 0.0081381 0.00813804 0.00813851 0.00813808 0.00813804 0.00813836 0.00813812 0.00813811 0.00813805 0.00812414 0.00810937 0.00810344 0.00809767 0.00808067 0.00809649 0.00812178 0.0081138 0.00810545 0.00810333 0.008093 0.00810444 0.00811742 0.00811264 0.00811044 0.00811125 0.00810442 0.00811265 0.00811664 0.00811266 0.00811574 0.00811676 0.00811126 0.00811762 0.00811809 0.00811417 0.00811919 0.00812024 0.00811592 0.00812087 0.0081201 0.00811642 0.00812184 0.0081228 0.00811943 0.00812345 0.0081223 0.00811879 0.00812399 0.00812499 0.00812225 0.00812563 0.00812447 0.00812136 0.00812615 0.00812689 0.00812466 0.00812727 0.00812653 0.00812344 0.00812827 0.00812856 0.00812675 0.00812895 0.00812829 0.00812553 0.00812988 0.00812994 0.00812822 0.00813021 0.00812977 0.00812747 0.00813155 0.00813084 0.0081299 0.00813151 0.00813091 0.00812894 0.00813281 0.0081319 0.00813129 0.00813246 0.00813226 0.00813027 0.00813377 0.00813312 0.00813273 0.00813335 0.00813324 0.00813161 0.00813462 0.00813383 0.00813338 0.00813423 0.00813409 0.00813244 0.0081353 0.00813444 0.00813441 0.00813488 0.00813482 0.0081337 0.0081361 0.00813541 0.00813524 0.00813567 0.00813546 0.0081342 0.00813638 0.00813569 0.00813594 0.00813598 0.00813582 0.00813501 0.00813679 0.00813642 0.00813621 0.00813632 0.00813613 0.00813564 0.00813756 0.00813694 0.0081368 0.00813666 0.00813683 0.00813599 0.00813802 0.00813706 0.00813721 0.00813719 0.00813735 0.00813637 0.0081381 0.00813761 0.0081374 0.00813742 0.00813729 0.00813721 0.00813831 0.00813767 0.00813776 0.00813801 0.00813763 0.00813739 0.00813837 0.00813813 0.00813808 0.00813823 0.00813794 0.00813723 0.00813864 0.00813814 0.00813819 0.00813835 0.0081381 0.00813796 0.00813868 0.00813853 0.00813853 0.00813818 0.00813793 0.00813803 0.0081386 0.0081383 0.00813864 0.00813817 0.00813799 0.00813809 0.00813871 0.00813798 0.00813871 0.00813847 0.00813865 0.00813817 0.00813882 0.00813852 0.00813864 0.00813823 0.00813824 0.00813842 0.00813848 0.0081385 0.00813866 0.0081384 0.00813819 0.0081383 0.00813833 0.00813816 0.00813835 0.00813814 0.00813831 0.00813842 0.00813848 0.0081382 0.00813864 0.0081385 0.00813803 0.0081378 0.00813837 0.00813826 0.00813832 0.00813851 0.00814937 0.0081356 0.00814074 0.00813452 0.00811478 0.00812994 0.00814092 0.00813236 0.00813595 0.00813117 0.00811701 0.00812835 0.00813422 0.00812826 0.00813242 0.00813099 0.00812134 0.00812926 0.00813045 0.00812597 0.00813146 0.00813148 0.00812487 0.00813076 0.00812982 0.00812552 0.00813153 0.00813233 0.00812742 0.00813205 0.00813057 0.00812674 0.00813225 0.00813322 0.00812926 0.00813297 0.00813178 0.00812771 0.00813332 0.00813397 0.00813076 0.00813389 0.00813277 0.00812944 0.0081344 0.00813471 0.00813253 0.00813491 0.00813393 0.00813062 0.00813541 0.00813557 0.00813354 0.00813556 0.00813495 0.00813211 0.00813628 0.00813627 0.00813459 0.00813648 0.00813573 0.00813293 0.00813718 0.00813686 0.00813565 0.00813721 0.0081365 0.00813408 0.00813805 0.0081375 0.00813612 0.00813724 0.00813692 0.00813484 0.00813832 0.00813757 0.0081369 0.00813781 0.00813705 0.00813556 0.00813844 0.00813835 0.00813755 0.00813788 0.00813786 0.00813591 0.00813888 0.00813846 0.00813794 0.00813845 0.00813809 0.00813651 0.00813915 0.00813866 0.00813805 0.00813851 0.00813803 0.00813703 0.00813931 0.00813857 0.00813848 0.00813865 0.00813843 0.00813731 0.00813937 0.0081389 0.00813865 0.00813873 0.00813841 0.00813763 0.00813957 0.00813913 0.00813868 0.00813911 0.00813849 0.00813777 0.00813957 0.00813898 0.00813907 0.008139 0.00813842 0.0081379 0.00813934 0.00813907 0.00813896 0.00813935 0.00813859 0.00813781 0.00813945 0.00813887 0.00813901 0.00813913 0.00813839 0.00813837 0.00813931 0.00813909 0.00813926 0.00813905 0.00813874 0.00813809 0.00813942 0.00813891 0.00813888 0.00813901 0.00813837 0.00813834 0.00813919 0.00813937 0.00813889 0.00813867 0.00813889 0.0081385 0.00813874 0.00813888 0.00813872 0.00813872 0.0081386 0.00813853 0.00813899 0.00813852 0.00813866 0.00813863 0.0081384 0.00813818 0.00813861 0.0081386 0.00813869 0.00813864 0.00813816 0.00813857 0.00813872 0.00813859 0.00813902 0.00813831 0.00813807 0.00813822 0.00813861 0.00813856 0.00813816 0.00813828 0.00813804 0.00813836 0.00813858 0.00813821 0.00813819 0.00813793 0.0081379 0.00813803 0.00813818 0.00813798 0.00813792 0.00813791 0.00817419 0.00816097 0.00817867 0.0081695 0.00814709 0.00816109 0.00815787 0.00814962 0.00816434 0.00815774 0.00814076 0.0081514 0.00814808 0.00814239 0.00815229 0.00814937 0.00813856 0.00814609 0.00814342 0.00813846 0.00814597 0.00814492 0.00813833 0.00814354 0.0081415 0.00813669 0.0081433 0.00814319 0.00813842 0.0081425 0.00814096 0.00813659 0.00814241 0.00814255 0.00813908 0.00814212 0.00814115 0.00813673 0.0081428 0.00814245 0.00813953 0.0081422 0.00814144 0.00813748 0.00814262 0.00814235 0.0081399 0.00814214 0.00814156 0.00813796 0.00814288 0.00814253 0.00814072 0.00814205 0.0081416 0.00813862 0.00814311 0.00814273 0.00814098 0.00814274 0.0081419 0.00813906 0.00814313 0.00814261 0.00814122 0.00814249 0.00814199 0.00813944 0.00814329 0.00814274 0.0081412 0.00814232 0.00814163 0.00813964 0.00814327 0.00814256 0.00814131 0.00814242 0.00814179 0.0081399 0.00814303 0.00814233 0.0081412 0.0081423 0.0081414 0.00813975 0.00814266 0.00814205 0.00814129 0.00814196 0.00814112 0.00813988 0.00814249 0.00814194 0.00814125 0.00814186 0.0081412 0.00813981 0.00814225 0.00814173 0.00814104 0.00814155 0.00814094 0.00813977 0.00814211 0.00814165 0.00814089 0.00814118 0.0081407 0.00814006 0.00814174 0.00814133 0.00814082 0.00814113 0.00814038 0.00813978 0.00814135 0.00814087 0.00814087 0.00814084 0.00814019 0.0081396 0.00814102 0.00814069 0.00814061 0.00814048 0.00813983 0.00813945 0.0081406 0.00814042 0.00814015 0.00814027 0.00813954 0.0081394 0.00814043 0.00814007 0.00813982 0.00814007 0.00813933 0.00813915 0.00813986 0.00813994 0.0081399 0.00813998 0.00813923 0.00813911 0.0081397 0.00813974 0.00813955 0.00813971 0.00813898 0.00813893 0.0081393 0.00813938 0.00813969 0.00813944 0.00813873 0.00813876 0.00813918 0.00813924 0.00813948 0.00813955 0.00813865 0.00813851 0.00813909 0.00813894 0.00813887 0.00813904 0.00813843 0.00813873 0.00813881 0.00813903 0.00813894 0.00813843 0.00813856 0.00813782 0.00813853 0.00813865 0.0081384 0.00813866 0.00813819 0.00813806 0.00813787 0.0081383 0.00813837 0.00813818 0.00813781 0.00813804 0.00813771 0.00813794 0.00813829 0.00813827 0.00819829 0.00818453 0.00821971 0.0082049 0.00817826 0.00819114 0.00817192 0.00816533 0.00818964 0.00818275 0.0081623 0.00817298 0.00815967 0.00815461 0.0081678 0.00816596 0.00815425 0.0081618 0.00815501 0.00814989 0.00815787 0.00815779 0.00815043 0.00815551 0.00815261 0.0081476 0.00815401 0.00815364 0.00814925 0.00815254 0.0081514 0.00814661 0.00815244 0.00815177 0.00814855 0.00815118 0.00815063 0.00814619 0.00815178 0.0081508 0.00814816 0.0081501 0.00814987 0.00814569 0.00815121 0.00815001 0.00814795 0.0081494 0.00814924 0.00814556 0.00815045 0.00814979 0.00814759 0.0081489 0.00814848 0.00814521 0.00814977 0.00814904 0.00814715 0.00814872 0.00814811 0.00814492 0.00814924 0.00814834 0.0081471 0.0081479 0.00814727 0.00814477 0.00814853 0.00814778 0.00814639 0.00814736 0.00814648 0.00814417 0.00814783 0.00814731 0.00814593 0.00814684 0.00814595 0.00814406 0.00814725 0.00814676 0.00814528 0.00814614 0.00814524 0.00814364 0.00814659 0.0081459 0.00814499 0.0081455 0.00814481 0.00814311 0.0081458 0.0081453 0.00814427 0.00814519 0.00814405 0.00814293 0.00814477 0.00814458 0.00814395 0.00814433 0.00814382 0.00814239 0.00814454 0.00814398 0.00814349 0.00814379 0.00814295 0.00814196 0.00814353 0.00814333 0.00814292 0.00814332 0.00814219 0.00814138 0.00814296 0.00814299 0.00814229 0.00814271 0.00814179 0.0081411 0.00814266 0.00814221 0.00814176 0.00814237 0.00814118 0.00814083 0.00814198 0.0081417 0.00814131 0.00814143 0.00814074 0.0081405 0.00814117 0.00814104 0.00814075 0.00814111 0.00814027 0.00814003 0.00814102 0.00814084 0.00814048 0.00814059 0.0081399 0.00813977 0.00814037 0.00814044 0.00814005 0.0081403 0.00813944 0.0081391 0.00813999 0.00813999 0.00814 0.00813963 0.00813902 0.00813932 0.00813963 0.00813979 0.00813947 0.00813928 0.00813868 0.00813887 0.00813906 0.00813932 0.00813891 0.00813906 0.00813861 0.0081388 0.00813858 0.00813886 0.00813867 0.00813831 0.00813854 0.00813841 0.00813858 0.00813889 0.00813832 0.0081383 0.00813824 0.00813817 0.00813827 0.00813841 0.00813858 0.00813827 0.00813801 0.00813808 0.00813752 0.00813825 0.00813785 0.00813809 0.00822292 0.00820617 0.00826387 0.00824587 0.0082074 0.00822064 0.00818082 0.00817751 0.00820374 0.00820216 0.00817997 0.00819159 0.00816953 0.00816538 0.00817615 0.00817931 0.00816693 0.00817468 0.00816604 0.00816074 0.0081674 0.00816841 0.00816145 0.00816599 0.00816364 0.00815784 0.00816442 0.00816348 0.00815881 0.00816205 0.00816172 0.00815646 0.00816225 0.00816065 0.00815779 0.00815961 0.00816031 0.00815513 0.00816094 0.00815891 0.00815663 0.00815815 0.00815851 0.00815401 0.00815936 0.00815767 0.00815524 0.00815699 0.00815703 0.00815287 0.00815803 0.00815626 0.00815458 0.00815562 0.00815559 0.00815207 0.00815681 0.00815539 0.00815358 0.00815463 0.00815427 0.00815108 0.00815538 0.0081542 0.00815241 0.00815343 0.00815303 0.00815023 0.00815366 0.00815306 0.00815141 0.00815243 0.00815175 0.00814917 0.0081527 0.00815186 0.00815033 0.00815121 0.00815055 0.00814833 0.00815141 0.00815087 0.00814933 0.00815012 0.00814919 0.00814736 0.00815022 0.00814963 0.00814811 0.00814907 0.00814831 0.00814654 0.00814897 0.00814866 0.00814746 0.00814843 0.00814704 0.00814587 0.0081479 0.00814745 0.00814657 0.008147 0.00814617 0.00814483 0.00814678 0.00814672 0.00814532 0.00814599 0.0081451 0.00814422 0.00814582 0.00814558 0.00814494 0.00814528 0.00814431 0.00814349 0.00814481 0.00814503 0.00814382 0.0081442 0.00814335 0.0081428 0.00814396 0.00814404 0.00814306 0.00814348 0.00814271 0.00814201 0.00814289 0.00814302 0.00814252 0.00814296 0.00814191 0.0081416 0.00814223 0.0081424 0.00814212 0.00814198 0.00814115 0.00814084 0.00814144 0.00814152 0.00814125 0.00814147 0.00814069 0.00814032 0.00814081 0.00814132 0.00814059 0.00814068 0.00813995 0.00813978 0.00813999 0.00814052 0.00814014 0.00814022 0.00813942 0.00813971 0.00813976 0.00813987 0.00813948 0.00813966 0.00813901 0.00813944 0.00813897 0.00813965 0.0081391 0.00813936 0.00813836 0.00813871 0.00813876 0.00813903 0.00813863 0.00813855 0.0081381 0.00813876 0.00813842 0.00813887 0.00813854 0.00813857 0.00813807 0.0081383 0.00813805 0.00813843 0.00813813 0.0081381 0.00813804 0.00813761 0.00813792 0.008138 0.0081378 0.008138 0.00826646 0.00822805 0.00833611 0.00830812 0.00823187 0.008252 0.00818651 0.00818546 0.00818068 0.00820861 0.00818951 0.00819906 0.00818118 0.00817517 0.00817936 0.00818591 0.00817699 0.00818195 0.0081777 0.0081708 0.00817853 0.00817742 0.00817198 0.00817492 0.0081744 0.00816833 0.00817565 0.00817288 0.00816891 0.00817112 0.00817196 0.00816606 0.00817262 0.00817007 0.0081669 0.00816835 0.00816916 0.00816397 0.00817024 0.00816772 0.00816516 0.0081664 0.00816713 0.00816219 0.00816763 0.00816576 0.00816315 0.00816431 0.00816511 0.0081606 0.00816541 0.00816351 0.00816138 0.00816255 0.00816289 0.00815882 0.00816306 0.00816152 0.00815954 0.00816052 0.00816057 0.00815699 0.00816092 0.0081596 0.00815792 0.00815876 0.00815889 0.0081554 0.00815904 0.00815817 0.00815639 0.00815707 0.008157 0.00815391 0.00815737 0.00815636 0.00815476 0.00815565 0.00815503 0.00815263 0.00815534 0.00815471 0.00815316 0.00815378 0.00815339 0.00815119 0.00815362 0.00815323 0.00815186 0.00815229 0.008152 0.00814996 0.00815197 0.00815174 0.00815059 0.00815079 0.00815038 0.00814879 0.00815081 0.00815051 0.00814927 0.00814954 0.00814867 0.00814745 0.00814917 0.00814888 0.00814798 0.00814802 0.00814744 0.00814611 0.00814792 0.00814774 0.00814681 0.00814715 0.00814639 0.00814502 0.00814643 0.00814644 0.00814556 0.00814582 0.008145 0.00814448 0.00814536 0.00814542 0.00814454 0.0081448 0.00814409 0.00814337 0.00814432 0.00814427 0.00814322 0.00814354 0.00814304 0.00814258 0.00814334 0.00814316 0.00814266 0.0081429 0.00814179 0.00814177 0.00814197 0.00814251 0.00814174 0.00814206 0.0081412 0.00814105 0.00814145 0.0081419 0.00814119 0.00814102 0.00814055 0.00814022 0.00814079 0.00814056 0.00814074 0.00814052 0.00813962 0.00813976 0.00813991 0.0081403 0.0081398 0.00813995 0.00813955 0.00813945 0.00813932 0.00813948 0.00813933 0.00813944 0.00813857 0.00813909 0.00813911 0.0081391 0.00813881 0.00813878 0.00813854 0.00813856 0.00813841 0.0081388 0.00813844 0.00813842 0.00813838 0.0081384 0.00813842 0.0081384 0.00813827 0.00813828 0.00813769 0.00813796 0.00813828 0.00813826 0.00813764 0.00813774 0.0080776 0.00801709 0.00802699 0.00797879 0.0080458 0.00801561 0.00808451 0.00807694 0.00806224 0.00804926 0.00806681 0.00805679 0.00809282 0.00808316 0.00808826 0.0080742 0.00807534 0.00807487 0.00809397 0.00808751 0.00809416 0.0080873 0.00808392 0.00808745 0.00809667 0.00809328 0.00809785 0.00809597 0.00809246 0.00809658 0.00810063 0.00809855 0.00810181 0.00810192 0.00809971 0.00810334 0.00810525 0.00810365 0.0081065 0.00810658 0.0081054 0.00810783 0.0081095 0.00810765 0.00811082 0.00811088 0.00810971 0.00811171 0.00811365 0.00811149 0.00811457 0.00811397 0.00811347 0.00811495 0.00811646 0.00811486 0.00811772 0.00811687 0.00811627 0.00811765 0.00811944 0.00811767 0.0081205 0.0081192 0.00811874 0.00812018 0.00812177 0.00812011 0.00812286 0.00812139 0.00812157 0.0081227 0.00812408 0.00812252 0.00812467 0.00812349 0.00812388 0.00812444 0.00812575 0.00812469 0.00812644 0.0081254 0.00812565 0.00812635 0.00812749 0.00812616 0.00812803 0.00812705 0.00812725 0.00812772 0.00812961 0.00812814 0.00812999 0.0081289 0.0081289 0.00812946 0.0081306 0.00812989 0.00813081 0.00812994 0.00813046 0.00813084 0.00813164 0.00813089 0.00813229 0.00813122 0.00813143 0.00813185 0.00813304 0.00813206 0.00813319 0.00813222 0.00813304 0.00813298 0.00813373 0.00813332 0.00813422 0.00813354 0.00813396 0.00813384 0.00813487 0.00813387 0.00813487 0.00813447 0.00813501 0.00813493 0.00813557 0.00813483 0.00813562 0.00813505 0.00813562 0.00813564 0.00813608 0.00813577 0.00813605 0.00813598 0.00813628 0.00813605 0.00813665 0.00813654 0.00813679 0.00813644 0.00813684 0.00813666 0.00813677 0.00813681 0.00813733 0.00813687 0.00813754 0.00813732 0.00813745 0.00813702 0.00813784 0.00813751 0.00813774 0.00813796 0.0081379 0.00813795 0.00813823 0.0081378 0.00813822 0.00813808 0.00813812 0.00813798 0.0081382 0.00813777 0.00813831 0.00813823 0.00813812 0.00813854 0.00813851 0.00813819 0.00813852 0.0081385 0.00813803 0.00813875 0.00813837 0.0081384 0.00813851 0.00813835 0.00813821 0.00813829 0.00813828 0.0081385 0.00813823 0.00813831 0.00813841 0.00813853 0.00813822 0.00813794 0.008138 0.00813827 0.00810113 0.00808346 0.00806592 0.00805732 0.00804696 0.00805958 0.00810203 0.00809885 0.00807428 0.00807462 0.00807806 0.00808422 0.00810155 0.00810189 0.00809182 0.00809245 0.00809227 0.00809764 0.00810436 0.00810246 0.00810275 0.00810274 0.00809977 0.00810492 0.0081072 0.00810405 0.00810867 0.00810934 0.00810531 0.00811012 0.00811026 0.00810692 0.00811232 0.00811344 0.0081101 0.0081142 0.00811334 0.00811043 0.00811568 0.00811677 0.00811423 0.00811741 0.00811666 0.00811411 0.00811853 0.00811921 0.00811755 0.00811997 0.00811955 0.00811681 0.00812141 0.00812135 0.0081203 0.00812215 0.00812196 0.00811993 0.00812381 0.0081234 0.00812254 0.00812383 0.00812422 0.00812184 0.00812565 0.00812519 0.00812485 0.00812581 0.00812636 0.00812415 0.00812765 0.00812674 0.0081263 0.00812748 0.00812818 0.00812593 0.00812926 0.00812807 0.00812823 0.00812856 0.00812946 0.00812755 0.00813059 0.00812965 0.0081294 0.00812993 0.00813063 0.00812937 0.00813147 0.00813067 0.00813073 0.00813113 0.00813201 0.00813034 0.00813243 0.00813181 0.00813201 0.00813233 0.0081331 0.00813188 0.00813372 0.00813288 0.008133 0.00813323 0.00813341 0.00813264 0.0081347 0.00813372 0.0081339 0.00813386 0.00813465 0.00813332 0.00813527 0.00813449 0.00813477 0.00813505 0.00813532 0.00813474 0.0081362 0.00813541 0.00813561 0.0081358 0.00813574 0.00813512 0.00813627 0.00813605 0.00813628 0.00813586 0.00813587 0.00813603 0.00813706 0.00813648 0.00813672 0.00813685 0.00813705 0.0081361 0.0081372 0.00813629 0.0081373 0.00813721 0.0081372 0.00813719 0.00813763 0.00813745 0.00813757 0.00813751 0.00813744 0.00813727 0.00813775 0.00813773 0.0081375 0.00813773 0.00813778 0.00813752 0.0081384 0.00813749 0.00813819 0.00813798 0.00813797 0.00813806 0.00813836 0.00813818 0.00813824 0.00813787 0.00813837 0.00813798 0.00813826 0.00813806 0.00813821 0.00813827 0.00813808 0.00813804 0.00813846 0.00813836 0.00813822 0.00813862 0.00813794 0.00813867 0.00813851 0.00813796 0.00813843 0.00813841 0.00813831 0.00813819 0.0081383 0.00813812 0.00813873 0.0081383 0.00813791 0.00813809 0.00813827 0.00813851 0.00813805 0.00813798 0.00812494 0.00811086 0.00810381 0.0080987 0.00808116 0.00809761 0.00812266 0.00811677 0.00810574 0.00810447 0.00809407 0.00810533 0.00811856 0.00811497 0.00811107 0.00811303 0.00810538 0.00811373 0.0081173 0.00811456 0.00811646 0.00811887 0.00811231 0.00811901 0.00811837 0.00811499 0.00811971 0.0081221 0.00811668 0.00812181 0.00812024 0.00811703 0.00812235 0.00812411 0.00812047 0.00812404 0.00812235 0.0081191 0.00812459 0.008126 0.00812286 0.0081259 0.00812448 0.00812156 0.00812677 0.00812734 0.00812504 0.00812761 0.0081267 0.00812376 0.00812852 0.00812848 0.00812704 0.00812916 0.00812816 0.00812594 0.0081301 0.00812945 0.00812887 0.00813028 0.00812975 0.00812739 0.00813168 0.00813126 0.00813006 0.00813164 0.00813101 0.00812916 0.00813275 0.0081322 0.00813156 0.00813248 0.00813222 0.00813049 0.0081336 0.0081329 0.00813241 0.0081333 0.00813319 0.0081317 0.00813473 0.00813372 0.00813339 0.00813424 0.0081342 0.00813256 0.00813534 0.00813462 0.00813462 0.00813479 0.00813497 0.00813317 0.00813585 0.00813519 0.00813479 0.00813534 0.00813547 0.00813425 0.00813653 0.00813589 0.0081357 0.00813599 0.00813589 0.00813525 0.00813708 0.00813627 0.00813603 0.00813632 0.00813632 0.0081355 0.00813727 0.0081368 0.00813674 0.00813697 0.0081367 0.00813607 0.00813779 0.00813685 0.00813722 0.00813724 0.00813727 0.00813641 0.0081382 0.00813737 0.00813729 0.00813776 0.00813734 0.0081373 0.0081383 0.00813755 0.00813795 0.00813817 0.00813768 0.00813725 0.00813838 0.00813782 0.00813817 0.00813793 0.00813797 0.00813754 0.00813804 0.00813807 0.00813827 0.00813822 0.00813797 0.00813781 0.00813872 0.00813802 0.00813829 0.00813831 0.00813792 0.00813807 0.00813855 0.00813866 0.0081384 0.00813832 0.00813818 0.00813827 0.00813843 0.00813834 0.0081385 0.00813824 0.00813819 0.00813797 0.00813877 0.00813825 0.00813892 0.00813847 0.00813825 0.00813828 0.00813845 0.00813824 0.00813868 0.00813825 0.00813812 0.00813837 0.00813829 0.00813837 0.00813881 0.00813837 0.00813812 0.00813844 0.00813845 0.00813831 0.0081385 0.00813834 0.00813815 0.00813799 0.00813813 0.00813806 0.00813823 0.00813826 0.0081498 0.00813626 0.00814023 0.00813545 0.00811431 0.00813049 0.00814089 0.0081334 0.00813561 0.00813157 0.00811707 0.00812859 0.00813402 0.00812962 0.00813201 0.00813142 0.00812216 0.00813007 0.00813076 0.00812664 0.00813173 0.00813238 0.00812569 0.00813167 0.00812989 0.0081261 0.00813196 0.00813324 0.00812839 0.00813258 0.00813068 0.00812677 0.00813289 0.00813395 0.00812991 0.00813357 0.00813176 0.00812805 0.00813373 0.00813418 0.00813164 0.00813438 0.00813296 0.0081297 0.00813472 0.00813541 0.00813251 0.00813514 0.00813415 0.00813099 0.00813569 0.0081359 0.00813394 0.00813595 0.00813502 0.00813238 0.00813658 0.00813631 0.0081349 0.00813611 0.00813593 0.0081333 0.00813745 0.00813708 0.00813553 0.00813707 0.00813645 0.00813422 0.00813782 0.00813744 0.00813614 0.00813757 0.00813697 0.00813494 0.00813829 0.00813768 0.00813677 0.00813805 0.00813742 0.00813572 0.00813893 0.00813801 0.00813736 0.00813796 0.00813778 0.00813618 0.00813904 0.00813841 0.00813768 0.00813836 0.00813815 0.00813641 0.00813931 0.00813864 0.00813797 0.00813872 0.00813842 0.00813704 0.0081394 0.00813871 0.00813861 0.00813887 0.00813848 0.00813745 0.00813968 0.0081389 0.00813895 0.00813926 0.00813876 0.00813785 0.00813942 0.00813885 0.00813871 0.00813917 0.0081387 0.00813751 0.00813971 0.00813906 0.00813848 0.00813905 0.00813873 0.00813804 0.00813956 0.00813899 0.00813903 0.00813901 0.00813881 0.00813805 0.00813909 0.00813911 0.00813868 0.00813898 0.00813857 0.00813836 0.00813899 0.00813919 0.00813919 0.00813924 0.0081386 0.0081384 0.00813933 0.00813888 0.00813932 0.00813888 0.00813875 0.00813832 0.00813889 0.0081391 0.00813873 0.00813878 0.00813848 0.00813833 0.00813892 0.00813883 0.00813917 0.00813906 0.00813854 0.00813845 0.00813858 0.00813881 0.00813883 0.00813897 0.00813811 0.00813823 0.0081388 0.00813879 0.00813853 0.00813868 0.00813848 0.00813848 0.00813849 0.00813823 0.00813842 0.00813844 0.00813841 0.00813844 0.00813853 0.00813871 0.00813845 0.00813845 0.00813838 0.00813831 0.00813843 0.00813846 0.00813844 0.00813846 0.00813807 0.00813817 0.00813797 0.00813795 0.0081382 0.00813797 0.00817409 0.00816045 0.00817769 0.00817048 0.00814571 0.0081615 0.00815725 0.00814924 0.00816313 0.00815717 0.00814041 0.00815122 0.00814761 0.00814247 0.00815176 0.0081485 0.00813894 0.00814594 0.00814328 0.00813844 0.00814556 0.00814493 0.00813872 0.0081439 0.00814142 0.00813706 0.00814352 0.00814353 0.00813926 0.00814274 0.00814115 0.00813696 0.00814279 0.00814313 0.0081394 0.00814221 0.00814123 0.00813726 0.00814289 0.00814287 0.00814 0.00814234 0.00814142 0.00813776 0.0081431 0.00814272 0.00814053 0.00814228 0.00814174 0.00813861 0.00814314 0.00814291 0.00814087 0.00814235 0.00814154 0.00813902 0.00814329 0.00814273 0.00814101 0.00814246 0.0081418 0.00813946 0.00814333 0.00814284 0.00814131 0.00814275 0.00814187 0.00813968 0.00814328 0.00814258 0.00814153 0.00814229 0.00814193 0.00813989 0.00814322 0.00814263 0.00814139 0.00814258 0.00814151 0.00813982 0.00814295 0.00814231 0.00814156 0.00814221 0.00814151 0.00813984 0.0081425 0.00814239 0.00814129 0.00814188 0.0081415 0.00814002 0.00814251 0.00814231 0.00814113 0.00814185 0.00814137 0.00814004 0.00814232 0.00814178 0.00814077 0.00814153 0.0081407 0.00814003 0.00814197 0.00814124 0.00814092 0.00814154 0.00814063 0.00813989 0.00814176 0.00814137 0.00814084 0.00814144 0.00814029 0.00813967 0.00814122 0.00814098 0.00814039 0.00814099 0.00814027 0.00813979 0.00814096 0.00814092 0.00814053 0.00814061 0.00814018 0.00813947 0.00814089 0.00814045 0.00814042 0.00814035 0.00813965 0.00813921 0.00814021 0.00814016 0.00813986 0.00814014 0.0081394 0.00813936 0.00814036 0.00813969 0.00813983 0.00813975 0.00813932 0.00813914 0.00813939 0.00813961 0.00813966 0.00813936 0.00813898 0.00813897 0.00813933 0.00813957 0.00813939 0.00813953 0.00813888 0.00813874 0.00813898 0.00813929 0.00813945 0.00813926 0.00813873 0.00813858 0.00813878 0.00813904 0.00813846 0.00813892 0.00813857 0.00813861 0.00813876 0.00813861 0.00813886 0.00813831 0.0081385 0.00813809 0.00813845 0.00813858 0.00813853 0.00813849 0.00813811 0.00813806 0.00813811 0.00813835 0.00813827 0.00813817 0.00813801 0.00813807 0.00813801 0.00813813 0.00813796 0.0081379 0.00819764 0.00818327 0.00821872 0.00820669 0.00817627 0.00819163 0.00817068 0.00816337 0.00818786 0.00818151 0.00816133 0.00817229 0.00815929 0.00815385 0.00816674 0.00816394 0.00815394 0.0081612 0.00815475 0.00814984 0.00815735 0.0081565 0.00815101 0.00815521 0.00815287 0.0081479 0.00815406 0.00815345 0.00814945 0.00815256 0.00815152 0.00814692 0.0081528 0.00815191 0.00814883 0.00815123 0.00815065 0.00814635 0.00815196 0.00815101 0.00814855 0.00815023 0.00814998 0.00814602 0.00815102 0.00815025 0.00814811 0.00814982 0.00814942 0.00814561 0.00815049 0.00814952 0.00814771 0.00814927 0.00814863 0.0081458 0.00814991 0.0081491 0.00814748 0.00814861 0.00814803 0.00814525 0.0081492 0.00814853 0.00814683 0.00814822 0.00814737 0.00814496 0.00814873 0.00814803 0.00814644 0.00814741 0.00814675 0.00814456 0.00814786 0.00814733 0.00814596 0.00814687 0.00814615 0.00814425 0.00814734 0.00814667 0.00814534 0.00814634 0.00814526 0.00814368 0.00814658 0.00814573 0.00814519 0.00814574 0.00814479 0.00814319 0.00814589 0.00814515 0.00814428 0.00814507 0.00814412 0.00814288 0.00814504 0.00814465 0.00814384 0.00814436 0.00814339 0.00814248 0.00814456 0.00814416 0.00814347 0.00814373 0.00814293 0.00814194 0.00814349 0.00814367 0.00814307 0.00814314 0.00814236 0.00814135 0.00814288 0.00814315 0.00814238 0.00814241 0.00814167 0.00814091 0.00814213 0.00814241 0.00814176 0.00814227 0.00814108 0.00814086 0.00814177 0.00814171 0.00814103 0.00814153 0.0081406 0.00814041 0.00814134 0.0081413 0.00814068 0.0081414 0.00814039 0.00814018 0.00814092 0.00814074 0.0081404 0.008141 0.00813995 0.00813961 0.00814034 0.00814051 0.0081402 0.00814015 0.00813978 0.00813963 0.00813991 0.00813998 0.00813969 0.00813934 0.00813915 0.00813906 0.00813928 0.00813944 0.00813937 0.00813977 0.00813896 0.00813911 0.00813939 0.00813898 0.008139 0.00813902 0.00813866 0.00813866 0.00813892 0.00813918 0.00813872 0.00813877 0.00813811 0.00813844 0.00813873 0.00813865 0.00813829 0.00813843 0.00813814 0.00813817 0.00813821 0.00813829 0.0081384 0.00813828 0.00813787 0.00813754 0.0081376 0.00813787 0.00813791 0.00813764 0.00822191 0.0082046 0.00826327 0.00824762 0.00820555 0.0082203 0.00817919 0.00817481 0.00820226 0.00820058 0.00817875 0.00819015 0.00816854 0.00816387 0.00817506 0.00817675 0.0081667 0.00817376 0.0081656 0.00816011 0.008167 0.0081669 0.00816153 0.00816558 0.00816339 0.0081578 0.00816408 0.00816256 0.00815928 0.00816187 0.00816146 0.00815643 0.00816225 0.00816073 0.0081579 0.00815981 0.00815996 0.00815512 0.00816107 0.00815904 0.00815639 0.00815821 0.00815846 0.00815397 0.00815948 0.00815775 0.0081555 0.00815717 0.00815703 0.00815308 0.00815804 0.00815677 0.0081545 0.00815574 0.00815558 0.00815224 0.00815666 0.00815522 0.00815357 0.00815471 0.00815417 0.00815127 0.00815524 0.00815431 0.00815263 0.00815357 0.008153 0.00815066 0.00815363 0.00815325 0.00815168 0.0081522 0.00815189 0.00814937 0.00815258 0.00815205 0.00815034 0.00815136 0.00815063 0.00814856 0.00815125 0.00815083 0.00814943 0.00815039 0.00814926 0.00814757 0.00815008 0.00814965 0.00814859 0.0081493 0.00814845 0.00814664 0.00814904 0.00814869 0.00814739 0.00814821 0.00814715 0.00814598 0.00814809 0.00814772 0.00814678 0.0081472 0.00814601 0.00814504 0.00814683 0.00814682 0.00814556 0.00814626 0.00814501 0.00814435 0.00814584 0.00814574 0.00814503 0.00814539 0.00814422 0.00814345 0.00814484 0.00814455 0.0081442 0.00814434 0.00814321 0.0081427 0.00814387 0.00814416 0.00814349 0.00814339 0.0081427 0.00814205 0.00814307 0.00814328 0.00814248 0.00814296 0.00814181 0.00814154 0.00814258 0.00814262 0.00814202 0.0081422 0.00814116 0.00814104 0.00814176 0.00814166 0.00814114 0.00814133 0.00814046 0.00814039 0.0081409 0.00814105 0.00814072 0.0081407 0.00814003 0.00813972 0.00814019 0.00814032 0.00814026 0.00814035 0.00813918 0.00813947 0.0081398 0.00813975 0.00813954 0.00813969 0.00813909 0.00813884 0.00813931 0.00813983 0.008139 0.0081393 0.00813871 0.00813889 0.00813911 0.00813918 0.00813877 0.00813914 0.00813823 0.00813857 0.0081387 0.00813866 0.00813815 0.00813853 0.00813805 0.00813821 0.00813845 0.00813835 0.00813804 0.00813784 0.00813811 0.00813806 0.00813748 0.00813767 0.00813814 0.00813784 0.00826411 0.00822583 0.00833311 0.00830734 0.00823063 0.00825143 0.00818559 0.00818236 0.0081797 0.00820705 0.0081883 0.00819787 0.00818019 0.00817271 0.00817834 0.00818324 0.00817621 0.00818124 0.00817711 0.00817003 0.00817796 0.00817557 0.00817154 0.00817435 0.00817413 0.00816802 0.00817493 0.00817208 0.00816871 0.00817102 0.00817159 0.00816577 0.00817231 0.00816959 0.00816661 0.00816825 0.00816919 0.008164 0.00817009 0.00816733 0.00816498 0.00816633 0.00816699 0.0081624 0.00816758 0.00816547 0.00816313 0.00816432 0.0081649 0.00816045 0.00816546 0.00816379 0.00816126 0.00816272 0.00816283 0.00815876 0.00816348 0.00816195 0.00815939 0.00816071 0.00816059 0.00815714 0.00816087 0.00815975 0.00815789 0.00815878 0.00815899 0.00815566 0.00815917 0.00815826 0.00815654 0.00815719 0.00815694 0.00815424 0.00815737 0.00815659 0.00815496 0.00815548 0.00815529 0.00815282 0.00815535 0.0081547 0.00815345 0.00815394 0.00815339 0.00815129 0.00815383 0.00815345 0.00815223 0.00815228 0.00815195 0.0081502 0.0081523 0.00815183 0.00815049 0.00815084 0.00815027 0.00814854 0.00815084 0.00815063 0.00814909 0.00814948 0.00814889 0.0081475 0.00814912 0.00814895 0.00814799 0.00814809 0.0081479 0.00814648 0.00814784 0.00814803 0.00814685 0.00814716 0.00814618 0.00814544 0.00814637 0.00814629 0.00814571 0.0081458 0.00814533 0.00814448 0.0081453 0.00814562 0.00814438 0.00814508 0.00814421 0.0081433 0.00814435 0.00814414 0.00814372 0.0081439 0.00814299 0.00814255 0.00814285 0.00814358 0.00814277 0.0081429 0.00814261 0.0081419 0.0081423 0.00814259 0.00814186 0.00814212 0.0081415 0.0081412 0.00814156 0.00814152 0.00814086 0.00814104 0.00814078 0.00814043 0.00814044 0.00814079 0.00814045 0.00814097 0.00813992 0.00813981 0.00813986 0.00814017 0.00813968 0.00813983 0.00813924 0.00813917 0.0081393 0.00813962 0.00813931 0.00813926 0.00813897 0.00813874 0.00813877 0.00813906 0.00813879 0.0081388 0.00813854 0.0081383 0.00813814 0.0081385 0.00813858 0.00813867 0.00813819 0.00813846 0.0081379 0.00813827 0.0081383 0.00813806 0.00813816 0.00813821 0.00813824 0.00813823 0.00813799 0.0081379 0.00808336 0.00802652 0.00803342 0.0079881 0.00804849 0.00802367 0.00809007 0.00808457 0.00806812 0.00805987 0.00807107 0.00806373 0.00809677 0.00808894 0.00809306 0.00808504 0.0080806 0.00808114 0.00809639 0.00809268 0.00809792 0.00809518 0.0080888 0.00809238 0.00809824 0.00809649 0.00810003 0.00810088 0.00809591 0.00809942 0.00810169 0.00810064 0.00810365 0.00810487 0.00810177 0.00810473 0.00810607 0.00810453 0.00810774 0.00810816 0.00810655 0.00810854 0.00811008 0.00810833 0.00811162 0.00811096 0.00811039 0.00811194 0.00811378 0.00811183 0.00811483 0.00811399 0.00811348 0.00811478 0.00811687 0.00811493 0.00811796 0.00811647 0.00811639 0.00811742 0.00811965 0.00811774 0.00812039 0.00811901 0.00811894 0.00811974 0.00812193 0.00812005 0.00812269 0.0081212 0.00812137 0.00812197 0.00812396 0.00812237 0.00812453 0.00812316 0.00812343 0.00812455 0.00812593 0.00812462 0.00812629 0.00812511 0.00812521 0.00812637 0.00812796 0.00812635 0.00812827 0.00812703 0.00812712 0.00812756 0.00812927 0.00812796 0.00812973 0.00812847 0.00812888 0.00812938 0.00813052 0.0081295 0.00813087 0.00813012 0.00813034 0.0081305 0.00813168 0.00813089 0.00813202 0.00813135 0.00813155 0.00813197 0.00813312 0.0081323 0.00813335 0.00813243 0.00813252 0.00813272 0.00813366 0.00813306 0.00813405 0.00813341 0.00813404 0.00813372 0.00813467 0.00813426 0.00813479 0.00813437 0.00813441 0.00813444 0.00813548 0.00813468 0.0081357 0.00813505 0.00813537 0.00813539 0.00813614 0.00813549 0.00813604 0.00813575 0.00813605 0.00813614 0.00813681 0.00813664 0.00813701 0.00813638 0.00813677 0.00813644 0.00813715 0.00813719 0.00813714 0.00813719 0.0081373 0.0081373 0.00813774 0.00813706 0.0081379 0.0081374 0.00813776 0.00813742 0.00813756 0.00813772 0.00813788 0.00813738 0.00813758 0.00813776 0.00813816 0.00813797 0.00813833 0.00813785 0.00813859 0.00813805 0.00813827 0.00813817 0.00813841 0.00813809 0.00813843 0.00813841 0.00813848 0.00813837 0.00813829 0.00813829 0.0081382 0.00813819 0.00813844 0.00813817 0.0081381 0.00813794 0.00813854 0.00813806 0.00813819 0.0081384 0.0081386 0.00813814 0.00813761 0.00813832 0.00810442 0.00808908 0.00806791 0.00805892 0.00804939 0.00806411 0.0081055 0.00810613 0.00807886 0.00808149 0.00808253 0.00808911 0.00810491 0.00810704 0.00809664 0.00810092 0.00809664 0.00810268 0.00810649 0.00810613 0.00810616 0.00810956 0.00810338 0.00810864 0.00810859 0.00810657 0.00811093 0.00811371 0.00810793 0.00811254 0.00811125 0.00810902 0.00811392 0.00811595 0.00811174 0.00811549 0.00811431 0.00811176 0.00811658 0.00811769 0.00811526 0.0081181 0.00811704 0.00811474 0.00811941 0.00811976 0.00811782 0.00812039 0.00811999 0.00811786 0.00812183 0.00812132 0.0081206 0.00812215 0.00812239 0.00812009 0.00812396 0.00812311 0.00812258 0.00812395 0.00812467 0.00812256 0.00812593 0.00812503 0.00812449 0.00812564 0.00812662 0.00812456 0.00812772 0.00812634 0.00812641 0.00812711 0.00812829 0.00812646 0.00812927 0.00812791 0.00812779 0.00812859 0.00812949 0.00812786 0.00813055 0.00812922 0.00812964 0.00813001 0.00813052 0.00812947 0.00813157 0.00813062 0.00813057 0.00813129 0.00813174 0.00813059 0.00813287 0.00813158 0.00813188 0.00813198 0.00813316 0.00813158 0.00813394 0.00813302 0.00813291 0.00813337 0.0081338 0.00813291 0.00813453 0.00813378 0.00813383 0.008134 0.00813464 0.00813378 0.00813517 0.00813455 0.00813464 0.00813478 0.00813522 0.00813469 0.00813583 0.00813498 0.00813546 0.00813551 0.00813573 0.00813506 0.00813643 0.00813552 0.00813603 0.0081358 0.0081359 0.00813612 0.00813654 0.00813612 0.00813661 0.00813647 0.00813698 0.0081364 0.00813732 0.00813714 0.00813683 0.00813701 0.00813747 0.00813702 0.00813747 0.00813685 0.00813741 0.00813749 0.00813767 0.00813732 0.008138 0.00813744 0.00813784 0.00813752 0.00813775 0.0081373 0.00813819 0.00813744 0.00813801 0.00813792 0.00813797 0.00813756 0.00813839 0.00813792 0.00813844 0.00813807 0.00813841 0.0081379 0.00813817 0.00813793 0.00813828 0.0081382 0.00813841 0.00813848 0.00813839 0.00813825 0.00813852 0.00813803 0.00813834 0.00813844 0.00813846 0.00813852 0.00813848 0.00813835 0.00813829 0.00813821 0.00813818 0.008138 0.00813866 0.00813796 0.00813832 0.00813864 0.00813803 0.00813854 0.00813809 0.00813843 0.00812648 0.00811307 0.00810483 0.00809987 0.00808185 0.00809992 0.00812392 0.00812111 0.00810788 0.00810823 0.00809733 0.00810865 0.00812013 0.00811878 0.00811434 0.00811818 0.00810933 0.00811683 0.00811874 0.00811729 0.00811903 0.00812318 0.00811566 0.00812115 0.00811958 0.00811733 0.00812191 0.00812504 0.00811897 0.00812359 0.00812135 0.00811866 0.00812382 0.00812578 0.00812171 0.00812514 0.0081235 0.00812059 0.00812553 0.00812679 0.00812393 0.00812662 0.0081254 0.00812284 0.00812734 0.00812795 0.0081257 0.00812783 0.00812737 0.00812484 0.00812865 0.00812899 0.00812723 0.00812937 0.00812884 0.00812658 0.00813046 0.00812974 0.00812866 0.00813059 0.00813032 0.00812809 0.00813187 0.00813099 0.00813013 0.0081313 0.00813165 0.00812969 0.00813281 0.00813191 0.00813116 0.00813251 0.00813263 0.00813067 0.00813373 0.00813275 0.00813234 0.00813316 0.00813358 0.00813206 0.00813445 0.0081338 0.00813314 0.00813407 0.00813419 0.00813316 0.00813511 0.00813469 0.00813389 0.00813485 0.00813496 0.00813404 0.00813626 0.00813525 0.00813494 0.00813535 0.00813575 0.00813452 0.00813645 0.00813559 0.00813534 0.00813598 0.0081362 0.00813506 0.00813674 0.00813615 0.00813613 0.00813632 0.00813659 0.0081357 0.00813724 0.00813675 0.00813677 0.00813687 0.00813689 0.00813624 0.00813754 0.00813713 0.00813691 0.00813719 0.00813749 0.00813695 0.00813766 0.00813712 0.00813744 0.00813725 0.00813769 0.00813718 0.00813804 0.00813754 0.00813787 0.0081378 0.00813796 0.00813731 0.00813842 0.0081377 0.00813786 0.00813785 0.00813779 0.00813752 0.00813832 0.00813813 0.00813809 0.00813798 0.00813766 0.00813758 0.00813837 0.00813783 0.0081384 0.00813819 0.00813819 0.00813784 0.00813836 0.00813843 0.00813836 0.00813842 0.00813833 0.00813807 0.00813874 0.00813794 0.00813824 0.00813838 0.00813815 0.00813827 0.00813843 0.00813838 0.0081389 0.00813823 0.00813838 0.00813831 0.00813843 0.00813843 0.00813838 0.00813837 0.00813812 0.00813841 0.00813812 0.00813851 0.00813834 0.00813831 0.00813832 0.00813818 0.00813865 0.00813776 0.00813844 0.00813832 0.00813842 0.00813811 0.00813828 0.0081383 0.00813823 0.00813815 0.00814931 0.0081359 0.00814059 0.00813602 0.00811394 0.0081308 0.00814014 0.00813449 0.00813545 0.00813183 0.00811913 0.00812946 0.0081345 0.00813138 0.00813353 0.00813316 0.00812456 0.00813119 0.00813146 0.00812859 0.00813318 0.00813431 0.00812818 0.00813266 0.00813115 0.00812793 0.00813342 0.00813506 0.00812974 0.00813371 0.0081315 0.00812832 0.0081339 0.00813522 0.00813112 0.00813438 0.00813254 0.00812966 0.00813475 0.00813543 0.00813234 0.00813519 0.00813369 0.008131 0.00813541 0.00813554 0.00813304 0.00813552 0.00813475 0.00813206 0.0081364 0.00813597 0.00813413 0.00813606 0.00813552 0.00813318 0.00813706 0.00813654 0.00813503 0.00813667 0.00813637 0.00813421 0.00813751 0.00813694 0.00813581 0.00813697 0.00813687 0.00813505 0.00813805 0.00813743 0.0081362 0.00813747 0.00813749 0.0081357 0.0081385 0.00813783 0.00813685 0.00813777 0.00813768 0.00813623 0.00813877 0.00813838 0.00813736 0.00813797 0.00813792 0.00813634 0.00813909 0.00813827 0.00813763 0.00813856 0.00813812 0.00813704 0.0081393 0.00813849 0.00813804 0.00813848 0.00813853 0.00813716 0.00813933 0.0081386 0.00813826 0.00813906 0.00813853 0.00813766 0.00813949 0.00813907 0.00813859 0.00813882 0.00813868 0.00813767 0.00813951 0.00813921 0.00813847 0.00813928 0.00813869 0.00813807 0.00813943 0.00813894 0.00813894 0.00813898 0.00813862 0.00813814 0.00813944 0.00813896 0.00813908 0.0081392 0.00813862 0.00813798 0.0081391 0.00813881 0.00813877 0.00813924 0.0081389 0.00813806 0.00813939 0.0081392 0.008139 0.00813887 0.00813866 0.00813855 0.00813953 0.00813914 0.00813907 0.00813904 0.00813879 0.00813843 0.00813917 0.00813895 0.00813903 0.00813906 0.00813875 0.00813833 0.00813881 0.00813884 0.0081388 0.00813894 0.00813856 0.00813851 0.00813878 0.00813874 0.00813857 0.00813858 0.00813846 0.0081386 0.00813913 0.00813864 0.00813883 0.00813877 0.0081382 0.00813828 0.0081383 0.00813841 0.00813861 0.00813862 0.0081382 0.00813838 0.0081382 0.00813815 0.00813833 0.00813836 0.00813817 0.00813805 0.0081385 0.00813836 0.00813824 0.00813834 0.00813765 0.00813842 0.00813786 0.00813794 0.00813802 0.00813862 0.00817201 0.00815796 0.00817727 0.00817089 0.00814458 0.00816063 0.0081545 0.00814739 0.00816134 0.00815409 0.0081406 0.00814927 0.00814656 0.00814205 0.00815095 0.0081473 0.00813987 0.00814549 0.00814328 0.00813925 0.00814616 0.00814481 0.00814026 0.00814374 0.00814204 0.00813829 0.00814415 0.00814432 0.00814046 0.00814328 0.00814176 0.00813835 0.0081435 0.00814401 0.00814027 0.00814316 0.00814207 0.00813862 0.00814353 0.00814355 0.00814056 0.00814266 0.00814224 0.00813898 0.00814351 0.00814345 0.00814075 0.00814272 0.00814237 0.00813928 0.00814357 0.00814328 0.00814107 0.00814286 0.00814207 0.00813986 0.00814352 0.00814297 0.00814116 0.00814289 0.00814228 0.00814011 0.00814366 0.00814293 0.0081415 0.00814261 0.00814231 0.00814028 0.00814362 0.00814308 0.00814153 0.00814274 0.00814207 0.00814038 0.00814334 0.00814271 0.00814149 0.00814256 0.0081422 0.0081405 0.00814303 0.00814256 0.00814131 0.00814251 0.00814187 0.0081403 0.00814286 0.00814223 0.00814123 0.00814196 0.00814169 0.00814043 0.00814243 0.0081419 0.00814115 0.0081418 0.00814129 0.0081404 0.00814231 0.00814169 0.00814104 0.00814178 0.00814066 0.00814023 0.00814201 0.00814128 0.00814074 0.00814119 0.00814075 0.00814002 0.0081414 0.00814119 0.00814065 0.00814121 0.00814042 0.00813992 0.00814128 0.00814095 0.00814037 0.0081409 0.00814029 0.00813982 0.00814095 0.00814062 0.00814038 0.00814078 0.00813977 0.00813972 0.00814077 0.00814034 0.00814037 0.00814038 0.0081399 0.00813947 0.00814005 0.00814019 0.00813998 0.00814029 0.00813954 0.00813951 0.00814004 0.00813993 0.00813959 0.00813969 0.00813958 0.00813892 0.00813981 0.00813964 0.00813963 0.00813952 0.0081393 0.008139 0.00813932 0.00813956 0.00813919 0.00813977 0.00813858 0.00813872 0.00813906 0.00813927 0.00813913 0.00813917 0.00813873 0.00813889 0.00813874 0.00813846 0.00813887 0.00813894 0.00813863 0.00813864 0.00813857 0.00813888 0.00813862 0.00813842 0.00813806 0.00813837 0.0081385 0.00813903 0.0081381 0.0081382 0.00813804 0.00813827 0.00813831 0.00813826 0.00813843 0.008138 0.00813811 0.00813862 0.00813773 0.00813799 0.00813779 0.00813757 0.00819459 0.00817895 0.00821773 0.00820729 0.0081739 0.00818956 0.00816702 0.00815922 0.00818411 0.00817506 0.0081605 0.00816884 0.00815693 0.00815219 0.00816477 0.00815996 0.00815377 0.00815896 0.00815395 0.00814958 0.00815685 0.00815498 0.00815112 0.00815459 0.00815255 0.00814857 0.00815418 0.00815341 0.00814994 0.00815224 0.00815179 0.00814775 0.00815286 0.00815216 0.00814913 0.00815147 0.00815131 0.00814719 0.00815228 0.00815164 0.0081489 0.00815068 0.00815065 0.00814715 0.00815156 0.00815063 0.00814827 0.00814992 0.00814997 0.00814683 0.00815098 0.00815011 0.00814807 0.00814934 0.00814924 0.0081463 0.00815012 0.00814949 0.00814741 0.00814881 0.00814846 0.0081459 0.00814941 0.00814884 0.00814686 0.00814827 0.00814787 0.00814581 0.00814899 0.00814799 0.00814651 0.00814774 0.00814715 0.00814526 0.00814832 0.00814742 0.00814591 0.00814717 0.00814638 0.00814463 0.00814728 0.00814688 0.00814537 0.0081463 0.00814544 0.00814429 0.00814672 0.00814613 0.00814477 0.00814574 0.00814522 0.00814348 0.00814584 0.00814546 0.0081445 0.00814528 0.0081445 0.00814334 0.00814511 0.00814492 0.00814391 0.00814468 0.0081438 0.00814279 0.00814455 0.00814408 0.00814313 0.00814392 0.00814304 0.00814219 0.00814394 0.00814379 0.0081425 0.00814282 0.00814248 0.00814184 0.00814292 0.00814289 0.00814203 0.00814253 0.00814176 0.00814139 0.00814248 0.00814237 0.00814178 0.00814196 0.00814146 0.00814109 0.00814206 0.00814161 0.00814123 0.00814159 0.0081411 0.00814073 0.00814123 0.00814129 0.00814105 0.00814142 0.00814034 0.00813994 0.0081411 0.00814073 0.00814057 0.00814074 0.00814033 0.00813937 0.00814033 0.00814059 0.00814024 0.00814056 0.00813967 0.00813949 0.00813996 0.00814006 0.00813954 0.00814021 0.0081392 0.00813913 0.00813929 0.00813968 0.00813933 0.00813964 0.00813862 0.00813889 0.00813899 0.00813912 0.00813907 0.0081392 0.00813862 0.00813873 0.00813862 0.00813906 0.00813865 0.00813884 0.00813858 0.00813867 0.00813862 0.0081387 0.00813835 0.00813843 0.00813818 0.00813826 0.00813837 0.00813827 0.0081382 0.00813818 0.00813784 0.00813764 0.00813791 0.00813813 0.00813771 0.00813813 0.00821818 0.00819947 0.00826392 0.0082501 0.0082027 0.00821847 0.0081756 0.00816961 0.00819802 0.00819256 0.0081768 0.00818538 0.0081666 0.00816195 0.00817255 0.00817081 0.00816557 0.00817068 0.00816455 0.00815944 0.00816564 0.00816439 0.00816098 0.00816415 0.00816315 0.00815817 0.00816364 0.00816201 0.00815929 0.00816149 0.00816145 0.00815718 0.0081622 0.00816082 0.00815795 0.00815983 0.00816013 0.00815566 0.00816107 0.00815945 0.00815689 0.00815842 0.00815865 0.00815477 0.00815959 0.0081582 0.0081559 0.00815733 0.0081574 0.0081539 0.00815823 0.00815698 0.00815485 0.00815601 0.00815579 0.00815284 0.00815683 0.00815563 0.00815395 0.00815507 0.00815493 0.00815192 0.00815549 0.00815459 0.00815289 0.00815411 0.00815315 0.00815099 0.00815439 0.00815352 0.00815177 0.00815255 0.00815203 0.0081498 0.00815304 0.00815234 0.00815038 0.00815147 0.00815077 0.00814877 0.00815137 0.00815113 0.00814955 0.0081504 0.00814952 0.00814819 0.0081502 0.00814995 0.00814837 0.00814942 0.00814859 0.00814688 0.00814922 0.00814872 0.00814756 0.00814817 0.00814738 0.00814595 0.00814818 0.00814759 0.00814649 0.00814724 0.0081464 0.00814525 0.00814683 0.00814658 0.00814545 0.00814637 0.0081452 0.00814474 0.0081458 0.00814596 0.00814472 0.0081455 0.00814454 0.00814397 0.00814509 0.00814471 0.00814403 0.0081446 0.00814384 0.00814282 0.00814411 0.00814426 0.00814328 0.0081437 0.0081428 0.00814224 0.00814289 0.00814295 0.00814247 0.00814303 0.00814204 0.00814147 0.00814207 0.00814207 0.00814206 0.00814224 0.0081413 0.00814123 0.00814175 0.00814183 0.00814094 0.00814155 0.00814092 0.00814051 0.00814115 0.00814135 0.00814068 0.00814081 0.00814007 0.00814 0.00814031 0.00814068 0.00814017 0.00814005 0.00813932 0.00813953 0.00813968 0.0081401 0.00813995 0.00813956 0.00813917 0.00813904 0.00813932 0.00813955 0.00813943 0.00813902 0.00813869 0.00813915 0.00813912 0.00813929 0.00813882 0.00813879 0.00813849 0.00813811 0.00813844 0.00813879 0.00813842 0.00813836 0.00813832 0.00813845 0.00813793 0.00813846 0.00813814 0.0081383 0.00813821 0.00813806 0.00813814 0.00813791 0.00813791 0.00813803 0.00825902 0.00822203 0.00833043 0.00830803 0.00822924 0.00824864 0.00818255 0.00817691 0.00817623 0.00819923 0.00818547 0.0081939 0.0081779 0.00817082 0.00817622 0.00817798 0.00817449 0.00817873 0.00817551 0.00816906 0.00817625 0.00817333 0.00817052 0.00817321 0.00817316 0.00816753 0.00817431 0.00817102 0.00816842 0.00817055 0.00817102 0.00816587 0.0081718 0.00816941 0.00816681 0.00816825 0.00816892 0.00816423 0.00816948 0.00816756 0.00816487 0.00816611 0.00816674 0.00816247 0.00816748 0.00816572 0.00816324 0.00816438 0.00816505 0.00816086 0.00816528 0.00816386 0.00816153 0.00816266 0.00816267 0.00815932 0.0081631 0.00816199 0.00815993 0.00816086 0.00816069 0.0081576 0.00816107 0.00816023 0.00815825 0.00815902 0.0081589 0.00815583 0.00815915 0.0081585 0.00815649 0.00815724 0.00815692 0.00815452 0.00815729 0.00815661 0.00815498 0.00815559 0.00815541 0.00815285 0.00815556 0.00815505 0.00815321 0.00815398 0.00815348 0.00815141 0.00815402 0.00815338 0.00815178 0.00815252 0.008152 0.00815034 0.00815228 0.00815187 0.00815052 0.00815124 0.0081506 0.00814916 0.00815062 0.00815036 0.00814898 0.00814974 0.00814905 0.00814782 0.00814952 0.00814876 0.00814811 0.00814817 0.00814782 0.00814656 0.00814783 0.0081479 0.00814694 0.00814687 0.00814661 0.00814541 0.0081465 0.00814676 0.00814568 0.00814586 0.00814526 0.00814465 0.00814536 0.00814559 0.0081447 0.00814508 0.00814408 0.00814369 0.00814439 0.00814393 0.00814383 0.00814405 0.00814311 0.00814287 0.00814325 0.00814345 0.0081429 0.0081429 0.00814207 0.00814196 0.00814239 0.00814259 0.0081419 0.00814205 0.00814128 0.00814085 0.00814126 0.00814158 0.00814105 0.00814138 0.00814054 0.00814022 0.00814078 0.00814114 0.00814061 0.00814068 0.00813976 0.00814 0.00813987 0.00814036 0.00813984 0.00814015 0.00813931 0.00813947 0.00813949 0.00813946 0.00813922 0.00813929 0.00813868 0.00813863 0.00813881 0.00813912 0.00813857 0.00813915 0.00813855 0.00813839 0.00813858 0.00813876 0.00813881 0.00813867 0.00813849 0.00813815 0.00813821 0.00813853 0.00813839 0.00813799 0.00813795 0.00813792 0.00813822 0.0081382 0.00813775 0.00813838 0.00809689 0.00808169 0.00806727 0.00800502 0.00805077 0.00804238 0.00809954 0.00809291 0.00809136 0.00810317 0.00808664 0.00808053 0.00810298 0.00810068 0.00811044 0.00811563 0.00809323 0.00809269 0.00810054 0.008101 0.0081059 0.00810956 0.00809764 0.00809967 0.00810146 0.00810156 0.00810425 0.00810689 0.00810137 0.00810363 0.00810401 0.00810362 0.00810565 0.00810741 0.00810469 0.00810646 0.00810762 0.00810623 0.00810867 0.00810898 0.00810788 0.00810935 0.00811141 0.00810919 0.00811204 0.00811113 0.00811069 0.0081121 0.00811466 0.00811224 0.00811495 0.0081139 0.00811353 0.00811497 0.00811747 0.00811527 0.00811792 0.00811599 0.00811619 0.00811729 0.00811995 0.00811801 0.00812013 0.00811861 0.00811863 0.00811973 0.0081221 0.00812047 0.00812238 0.00812096 0.00812061 0.00812193 0.00812423 0.00812252 0.00812443 0.00812311 0.00812327 0.00812402 0.00812615 0.00812437 0.00812626 0.00812493 0.00812512 0.00812581 0.00812794 0.00812625 0.00812757 0.00812658 0.00812676 0.00812741 0.0081293 0.00812798 0.00812918 0.0081282 0.00812842 0.00812886 0.00813054 0.00812913 0.00813067 0.00812967 0.00813001 0.00813021 0.00813164 0.008131 0.00813167 0.00813119 0.00813115 0.00813152 0.00813263 0.00813251 0.00813283 0.00813185 0.00813235 0.00813271 0.00813379 0.00813304 0.00813351 0.00813328 0.00813316 0.00813368 0.00813463 0.00813418 0.00813462 0.00813424 0.00813441 0.00813468 0.0081354 0.00813531 0.00813499 0.00813491 0.00813536 0.00813524 0.00813591 0.00813526 0.00813569 0.00813537 0.00813611 0.00813618 0.00813675 0.00813625 0.00813679 0.00813624 0.00813659 0.00813679 0.0081373 0.00813683 0.00813722 0.00813655 0.00813744 0.00813683 0.00813743 0.00813707 0.00813745 0.00813754 0.00813759 0.0081372 0.00813765 0.00813747 0.00813792 0.00813725 0.00813775 0.00813785 0.00813786 0.00813735 0.00813778 0.00813793 0.00813813 0.00813805 0.00813841 0.00813784 0.00813826 0.00813795 0.00813762 0.00813782 0.00813842 0.00813803 0.00813783 0.00813832 0.00813801 0.00813827 0.00813828 0.00813795 0.0081385 0.00813791 0.00813874 0.0081384 0.00813794 0.00813809 0.00813817 0.0081381 0.00813827 0.0081383 0.00810921 0.00810805 0.00807698 0.00804621 0.00805226 0.00807467 0.00811077 0.00812082 0.00809447 0.00811194 0.00809582 0.00809994 0.00811006 0.00811876 0.00811035 0.00812308 0.00810826 0.00811074 0.00811035 0.00811283 0.00811404 0.00811993 0.00811108 0.00811395 0.008112 0.00811127 0.00811509 0.00811793 0.00811226 0.00811556 0.00811382 0.00811241 0.00811655 0.00811755 0.00811409 0.00811693 0.00811619 0.00811451 0.00811796 0.00811819 0.00811616 0.00811874 0.00811869 0.0081166 0.0081202 0.00811937 0.00811804 0.00812024 0.00812147 0.00811899 0.00812237 0.00812128 0.00812012 0.00812207 0.00812332 0.00812138 0.00812413 0.00812284 0.00812248 0.00812385 0.00812521 0.0081235 0.00812592 0.00812461 0.00812428 0.00812558 0.00812721 0.00812517 0.00812744 0.00812635 0.00812586 0.00812716 0.00812849 0.00812714 0.00812912 0.00812786 0.00812775 0.0081288 0.00812993 0.00812848 0.00813006 0.00812913 0.00812925 0.00813008 0.00813127 0.00812947 0.00813123 0.00813047 0.00813024 0.00813134 0.00813206 0.0081314 0.00813229 0.00813137 0.00813161 0.00813216 0.0081333 0.00813231 0.00813376 0.00813251 0.00813237 0.00813296 0.00813388 0.00813306 0.008134 0.00813338 0.00813372 0.00813405 0.00813461 0.00813417 0.00813494 0.00813417 0.00813428 0.00813489 0.00813527 0.00813471 0.00813542 0.00813493 0.00813541 0.00813531 0.00813607 0.00813562 0.00813612 0.00813567 0.00813588 0.00813637 0.00813637 0.00813603 0.00813672 0.00813589 0.00813647 0.00813652 0.00813703 0.00813661 0.00813699 0.00813659 0.00813671 0.00813697 0.00813745 0.00813715 0.00813719 0.00813678 0.00813713 0.00813733 0.00813747 0.00813727 0.0081377 0.00813728 0.00813749 0.0081375 0.00813779 0.00813763 0.00813805 0.00813759 0.00813763 0.00813781 0.00813787 0.00813814 0.00813818 0.00813788 0.00813805 0.00813818 0.00813781 0.00813784 0.0081381 0.00813771 0.00813832 0.00813817 0.00813816 0.00813802 0.00813831 0.00813805 0.00813816 0.00813807 0.00813803 0.00813781 0.00813825 0.00813805 0.00813825 0.00813841 0.00813816 0.00813843 0.00813801 0.00813822 0.00813797 0.00813809 0.00813788 0.00813837 0.00813856 0.0081382 0.00813816 0.00813831 0.00812605 0.00811476 0.00810636 0.00808809 0.00808305 0.00810422 0.00812554 0.00812716 0.00811519 0.00812457 0.00810851 0.00811465 0.00812273 0.00812649 0.00812311 0.00813117 0.0081193 0.00812219 0.00812194 0.00812318 0.00812539 0.00812955 0.00812213 0.00812479 0.00812248 0.0081221 0.00812572 0.00812761 0.00812286 0.0081257 0.00812366 0.00812253 0.00812645 0.00812698 0.00812386 0.00812645 0.00812534 0.0081241 0.00812716 0.00812719 0.00812478 0.00812738 0.00812699 0.00812529 0.00812837 0.00812796 0.00812596 0.00812833 0.00812846 0.00812673 0.00812943 0.0081287 0.00812741 0.00812938 0.00812995 0.00812846 0.00813066 0.00812999 0.00812873 0.00813053 0.00813119 0.00812961 0.00813215 0.00813114 0.00812983 0.00813141 0.0081323 0.0081308 0.00813298 0.00813187 0.0081311 0.00813249 0.0081332 0.00813167 0.00813365 0.00813263 0.00813215 0.00813336 0.00813394 0.00813261 0.00813456 0.00813347 0.00813307 0.00813398 0.00813465 0.00813374 0.00813497 0.00813417 0.00813405 0.00813462 0.00813534 0.00813425 0.00813569 0.00813505 0.00813451 0.00813558 0.00813603 0.00813495 0.00813643 0.00813545 0.00813523 0.00813582 0.00813627 0.00813553 0.00813656 0.00813614 0.00813588 0.00813606 0.00813676 0.00813624 0.00813692 0.00813672 0.00813664 0.00813678 0.00813723 0.00813674 0.0081372 0.00813693 0.00813672 0.00813707 0.00813747 0.00813715 0.00813781 0.00813729 0.00813713 0.00813732 0.00813756 0.00813698 0.00813801 0.0081375 0.00813741 0.00813779 0.00813797 0.0081376 0.00813813 0.00813744 0.00813785 0.00813803 0.00813836 0.00813772 0.00813815 0.008138 0.00813781 0.00813833 0.00813824 0.00813803 0.00813816 0.00813835 0.00813783 0.00813832 0.00813824 0.00813811 0.00813849 0.00813833 0.00813809 0.00813828 0.00813815 0.00813796 0.00813825 0.00813817 0.00813818 0.00813822 0.00813822 0.00813857 0.00813838 0.00813813 0.00813821 0.00813845 0.00813814 0.00813806 0.00813853 0.00813823 0.0081384 0.00813856 0.00813778 0.00813877 0.00813821 0.00813831 0.00813819 0.00813834 0.00813805 0.00813831 0.00813843 0.00813861 0.00813819 0.00813818 0.00813821 0.00813802 0.00813817 0.00813795 0.00813804 0.00813816 0.00814512 0.00813016 0.00814019 0.0081295 0.00811434 0.00813031 0.0081383 0.00813547 0.00813654 0.00813587 0.00812558 0.00813057 0.00813471 0.00813462 0.00813694 0.00813832 0.00813132 0.00813361 0.00813337 0.00813283 0.00813649 0.00813768 0.00813256 0.00813496 0.0081333 0.00813195 0.00813609 0.00813653 0.00813285 0.00813511 0.00813374 0.00813203 0.00813579 0.00813599 0.00813257 0.00813539 0.00813423 0.0081329 0.00813618 0.00813583 0.00813334 0.00813587 0.00813515 0.00813345 0.00813639 0.00813599 0.0081336 0.00813599 0.00813613 0.00813431 0.00813696 0.00813624 0.0081343 0.00813658 0.00813664 0.00813485 0.00813751 0.00813668 0.0081353 0.00813693 0.00813713 0.00813567 0.0081377 0.00813727 0.00813602 0.00813732 0.00813762 0.0081363 0.00813828 0.00813747 0.00813626 0.00813771 0.00813799 0.00813687 0.00813869 0.00813773 0.00813684 0.00813811 0.00813834 0.00813705 0.00813869 0.00813796 0.00813748 0.00813838 0.00813875 0.0081375 0.00813911 0.00813837 0.00813752 0.00813823 0.00813864 0.00813792 0.00813918 0.00813824 0.0081379 0.00813878 0.0081389 0.0081379 0.0081395 0.00813879 0.00813819 0.00813896 0.00813903 0.00813788 0.00813937 0.00813891 0.00813848 0.00813888 0.00813872 0.00813831 0.00813941 0.00813853 0.00813874 0.008139 0.0081391 0.00813827 0.00813938 0.00813872 0.00813857 0.00813909 0.00813886 0.00813885 0.00813942 0.00813883 0.00813855 0.00813909 0.00813887 0.00813866 0.00813929 0.00813908 0.00813907 0.00813918 0.00813899 0.00813848 0.00813926 0.00813911 0.00813878 0.00813894 0.00813894 0.00813826 0.00813906 0.00813864 0.00813873 0.00813898 0.00813872 0.00813891 0.00813886 0.00813874 0.00813891 0.00813858 0.00813882 0.00813842 0.0081389 0.00813868 0.00813873 0.00813893 0.00813866 0.00813893 0.00813906 0.00813865 0.00813886 0.00813884 0.00813863 0.00813844 0.00813862 0.00813851 0.00813873 0.00813848 0.00813861 0.00813882 0.00813852 0.00813837 0.00813867 0.00813818 0.00813862 0.00813833 0.00813844 0.00813824 0.00813819 0.00813824 0.00813837 0.00813807 0.00813804 0.00813811 0.00813824 0.00813825 0.00813797 0.00813837 0.00813834 0.0081382 0.00813803 0.00813813 0.00816528 0.00814894 0.0081764 0.00816991 0.00814315 0.00815463 0.00814988 0.00814417 0.00815639 0.00814664 0.00814245 0.00814637 0.00814523 0.00814276 0.00814976 0.00814553 0.00814295 0.00814485 0.0081437 0.00814168 0.0081466 0.00814557 0.00814237 0.00814463 0.00814332 0.00814137 0.00814565 0.00814506 0.00814209 0.00814416 0.00814319 0.00814125 0.00814474 0.00814477 0.00814128 0.00814378 0.00814365 0.00814124 0.00814458 0.00814419 0.00814132 0.00814347 0.00814358 0.00814147 0.00814451 0.00814377 0.00814131 0.00814345 0.00814346 0.0081415 0.00814449 0.00814375 0.00814152 0.00814324 0.00814344 0.00814179 0.00814429 0.00814343 0.00814172 0.0081434 0.00814319 0.00814157 0.00814403 0.00814321 0.0081417 0.00814312 0.00814308 0.0081415 0.00814383 0.00814322 0.00814157 0.00814306 0.00814291 0.00814143 0.00814347 0.00814292 0.00814136 0.00814269 0.0081426 0.00814168 0.0081433 0.00814249 0.00814141 0.00814251 0.00814217 0.00814127 0.00814314 0.0081422 0.00814145 0.00814194 0.00814219 0.00814104 0.00814271 0.00814203 0.00814109 0.00814212 0.00814176 0.00814082 0.00814242 0.00814163 0.00814109 0.00814165 0.00814144 0.00814084 0.00814196 0.0081414 0.00814099 0.0081413 0.00814114 0.00814049 0.00814155 0.00814098 0.00814051 0.00814115 0.00814085 0.00814036 0.00814143 0.00814088 0.00814045 0.00814075 0.00814078 0.00814022 0.00814097 0.0081408 0.00814053 0.00814067 0.00814033 0.00813999 0.00814047 0.00814045 0.00814005 0.00814031 0.00814005 0.00813984 0.00814035 0.00814013 0.00813982 0.00813993 0.00813979 0.00813969 0.00813962 0.00813968 0.00813956 0.00813986 0.00813919 0.00813917 0.00813971 0.00813956 0.00813924 0.00813947 0.00813922 0.00813919 0.00813975 0.0081393 0.00813929 0.00813931 0.00813904 0.00813885 0.00813924 0.00813929 0.00813886 0.00813912 0.00813847 0.00813866 0.00813877 0.00813891 0.00813892 0.00813896 0.0081382 0.00813869 0.00813883 0.00813893 0.00813865 0.00813858 0.00813818 0.00813855 0.00813814 0.00813859 0.00813834 0.00813835 0.00813805 0.00813825 0.00813817 0.00813829 0.00813852 0.00813821 0.00813819 0.00813841 0.00813794 0.00813818 0.00813827 0.0081379 0.00818628 0.00816961 0.00821737 0.00821028 0.00817128 0.00817962 0.00816055 0.00815338 0.00817514 0.00815731 0.00815786 0.00816157 0.00815455 0.00815145 0.00816051 0.00815344 0.0081536 0.00815627 0.00815363 0.00815074 0.00815586 0.00815368 0.0081516 0.00815381 0.008153 0.00815039 0.00815422 0.00815366 0.00815072 0.008153 0.00815261 0.00815011 0.00815357 0.0081531 0.00815012 0.00815212 0.00815194 0.0081493 0.00815318 0.00815224 0.00814951 0.00815128 0.00815138 0.00814915 0.00815239 0.00815154 0.00814909 0.0081508 0.00815086 0.00814858 0.0081517 0.00815075 0.00814841 0.00814989 0.00815004 0.00814802 0.00815092 0.0081499 0.00814791 0.00814917 0.00814919 0.00814745 0.00814997 0.00814934 0.00814738 0.00814868 0.00814833 0.00814718 0.00814906 0.00814832 0.00814648 0.00814792 0.00814806 0.00814634 0.00814846 0.00814746 0.00814612 0.00814733 0.00814698 0.00814564 0.00814772 0.00814659 0.0081457 0.00814642 0.00814603 0.00814494 0.00814676 0.00814613 0.00814497 0.00814608 0.00814535 0.00814437 0.00814603 0.0081454 0.00814434 0.0081452 0.00814467 0.00814385 0.00814539 0.00814494 0.00814385 0.00814448 0.00814421 0.00814349 0.00814466 0.00814429 0.00814328 0.00814403 0.0081434 0.00814272 0.00814357 0.00814318 0.00814295 0.00814332 0.00814271 0.00814218 0.0081431 0.00814299 0.00814243 0.00814292 0.00814215 0.00814172 0.00814249 0.00814243 0.00814191 0.00814218 0.00814163 0.00814126 0.00814197 0.00814186 0.00814133 0.00814146 0.00814101 0.00814086 0.00814137 0.00814108 0.00814083 0.0081414 0.0081406 0.0081404 0.00814109 0.00814093 0.0081401 0.00814063 0.00813987 0.00814024 0.00814052 0.00814021 0.00814009 0.00813996 0.00813981 0.00813997 0.00813993 0.0081401 0.00813981 0.00813969 0.0081395 0.00813936 0.0081396 0.0081396 0.00813958 0.00813938 0.00813901 0.00813939 0.00813933 0.0081391 0.00813936 0.0081395 0.00813843 0.00813847 0.00813877 0.0081387 0.00813863 0.00813883 0.00813849 0.00813902 0.00813876 0.00813898 0.00813842 0.00813836 0.00813811 0.00813815 0.00813838 0.00813833 0.00813818 0.00813814 0.00813823 0.00813791 0.00813799 0.00813805 0.00813788 0.00813774 0.00821209 0.00819327 0.00826762 0.00825523 0.0081994 0.00820679 0.00816884 0.00816345 0.00818844 0.00816737 0.00817125 0.00817563 0.00816382 0.00816041 0.00816755 0.00816168 0.00816272 0.00816675 0.00816353 0.00815948 0.00816402 0.0081622 0.00816012 0.0081631 0.00816287 0.00815891 0.00816337 0.00816181 0.00815938 0.00816131 0.00816183 0.00815811 0.00816257 0.00816099 0.00815834 0.0081602 0.00816065 0.00815719 0.00816138 0.00816009 0.00815733 0.00815906 0.00815924 0.00815648 0.00816003 0.00815883 0.00815634 0.00815772 0.00815806 0.00815527 0.00815889 0.00815742 0.00815527 0.00815664 0.00815641 0.00815429 0.0081573 0.00815605 0.00815371 0.00815517 0.00815506 0.00815308 0.00815596 0.00815491 0.0081529 0.00815411 0.00815371 0.00815197 0.00815456 0.0081534 0.00815183 0.00815283 0.00815275 0.00815076 0.00815301 0.00815255 0.00815078 0.00815169 0.00815136 0.00814974 0.00815176 0.00815114 0.00814947 0.00815048 0.00815009 0.0081485 0.00815052 0.00814987 0.00814851 0.00814942 0.0081487 0.00814784 0.00814921 0.00814871 0.00814743 0.00814821 0.00814776 0.00814671 0.00814806 0.00814768 0.00814655 0.00814705 0.00814635 0.00814558 0.008147 0.00814664 0.00814569 0.00814632 0.00814584 0.00814502 0.00814614 0.00814573 0.00814476 0.00814549 0.00814447 0.0081444 0.00814498 0.00814495 0.00814401 0.00814462 0.00814365 0.00814328 0.00814401 0.00814418 0.00814312 0.00814332 0.00814295 0.00814284 0.00814327 0.00814346 0.00814243 0.00814274 0.00814187 0.00814204 0.00814218 0.00814272 0.00814184 0.00814223 0.00814161 0.00814123 0.00814151 0.00814185 0.0081414 0.00814172 0.00814075 0.00814085 0.00814069 0.00814107 0.00814074 0.00814089 0.00814025 0.00814065 0.00814042 0.00814045 0.00814046 0.00814045 0.00813967 0.00813987 0.0081397 0.00813972 0.00813967 0.00813989 0.00813936 0.00813951 0.00813923 0.00813947 0.00813911 0.0081393 0.00813878 0.00813902 0.00813917 0.00813904 0.00813854 0.00813908 0.00813845 0.00813873 0.00813853 0.00813872 0.00813839 0.0081388 0.00813833 0.00813831 0.00813821 0.00813784 0.00813809 0.00813845 0.00813795 0.00813825 0.00813797 0.00813799 0.00813781 0.00813768 0.00825895 0.00822905 0.00833924 0.00832055 0.00822919 0.00823962 0.00817621 0.00817204 0.00817363 0.00817694 0.00817825 0.00818494 0.00817485 0.00816929 0.00817342 0.00817013 0.0081711 0.00817483 0.00817398 0.00816884 0.00817458 0.00817097 0.00816925 0.00817159 0.00817251 0.00816781 0.00817324 0.00817038 0.00816787 0.00816997 0.00817066 0.00816651 0.00817158 0.00816925 0.0081664 0.00816819 0.00816884 0.00816509 0.00816959 0.00816762 0.00816511 0.0081665 0.00816686 0.00816337 0.00816751 0.0081657 0.00816332 0.00816472 0.00816488 0.00816185 0.00816547 0.00816397 0.00816156 0.0081629 0.0081628 0.00815998 0.00816348 0.00816232 0.00816008 0.008161 0.00816114 0.00815851 0.00816133 0.00816032 0.00815863 0.00815945 0.00815897 0.00815694 0.00815944 0.00815877 0.00815666 0.00815749 0.00815711 0.00815529 0.00815741 0.00815669 0.00815488 0.00815569 0.00815555 0.00815351 0.00815584 0.00815477 0.00815368 0.00815422 0.00815382 0.00815214 0.00815411 0.00815346 0.00815207 0.00815251 0.00815224 0.00815067 0.00815276 0.00815203 0.0081504 0.00815107 0.00815084 0.00814944 0.00815102 0.00815047 0.00814903 0.00814992 0.00814923 0.00814824 0.00814941 0.00814908 0.00814794 0.00814839 0.00814783 0.00814689 0.00814821 0.00814815 0.00814678 0.00814721 0.00814657 0.00814585 0.00814689 0.00814663 0.00814608 0.00814566 0.00814563 0.00814495 0.00814585 0.00814568 0.00814471 0.00814495 0.0081445 0.00814359 0.0081445 0.00814447 0.00814371 0.00814399 0.00814316 0.00814291 0.00814336 0.00814337 0.00814294 0.00814312 0.00814247 0.00814201 0.00814237 0.00814255 0.00814184 0.00814221 0.00814165 0.00814106 0.00814148 0.00814169 0.00814113 0.00814151 0.0081409 0.00814051 0.00814108 0.00814071 0.00814044 0.0081405 0.00814014 0.00814029 0.0081402 0.00813981 0.00813972 0.00814024 0.00813969 0.00813972 0.00813943 0.00813975 0.00813943 0.00813927 0.00813935 0.00813894 0.00813901 0.00813923 0.00813901 0.00813905 0.00813819 0.00813856 0.00813855 0.00813889 0.00813868 0.00813845 0.00813868 0.00813832 0.00813855 0.00813845 0.00813843 0.00813812 0.00813822 0.00813813 0.00813822 0.00813819 0.00813824 0.00813787 
SCALARS volume_diff float 1
LOOKUP_TABLE default
0.00769375 0.00772301 0.00768126 0.00766517 0.00770637 0.00774043 0.00777672 0.00774415 0.0077484 0.00774192 0.00775051 0.00777764 0.00778231 0.00776022 0.00776955 0.00776692 0.00776351 0.00778275 0.00778039 0.00776837 0.00777322 0.00777279 0.00776894 0.00778142 0.00778068 0.00777326 0.00777601 0.00777593 0.00777338 0.00778097 0.00778202 0.007777 0.00777939 0.00777899 0.007777 0.00778168 0.00778459 0.00778047 0.00778301 0.00778173 0.00778056 0.00778356 0.0077869 0.00778368 0.00778628 0.00778486 0.007784 0.00778613 0.00778981 0.00778676 0.00778961 0.00778794 0.00778714 0.00778869 0.00779211 0.00778957 0.00779226 0.00779071 0.0077903 0.00779129 0.00779468 0.00779236 0.00779467 0.00779328 0.00779291 0.00779382 0.00779661 0.00779474 0.00779673 0.00779561 0.00779476 0.00779598 0.00779876 0.00779664 0.00779873 0.00779751 0.00779747 0.00779829 0.00780071 0.00779899 0.00780088 0.00779944 0.00779937 0.00780031 0.00780215 0.00780084 0.00780266 0.0078012 0.00780092 0.00780178 0.00780378 0.00780233 0.00780383 0.00780286 0.00780286 0.007803 0.00780501 0.00780385 0.00780516 0.0078046 0.00780432 0.00780448 0.0078063 0.00780524 0.00780644 0.00780556 0.00780591 0.00780561 0.00780697 0.00780651 0.00780743 0.00780693 0.00780637 0.00780682 0.00780806 0.00780752 0.00780861 0.00780775 0.00780802 0.00780811 0.00780894 0.00780859 0.00780907 0.00780894 0.00780885 0.00780887 0.00780967 0.00780923 0.00780977 0.00780941 0.0078093 0.00780965 0.00781029 0.00781009 0.00781038 0.00781022 0.00780998 0.00781032 0.00781114 0.00781078 0.00781141 0.00781085 0.00781132 0.00781085 0.00781127 0.00781154 0.00781147 0.00781137 0.00781167 0.00781128 0.00781164 0.00781196 0.00781199 0.007812 0.00781178 0.00781163 0.00781225 0.00781184 0.00781233 0.007812 0.00781244 0.00781217 0.00781246 0.00781238 0.00781297 0.00781249 0.0078126 0.00781251 0.00781288 0.00781256 0.00781254 0.00781265 0.00781289 0.00781243 0.00781281 0.00781281 0.00781282 0.00781281 0.00781257 0.00781309 0.00781308 0.00781256 0.00781292 0.0078126 0.00781261 0.00781244 0.00781258 0.00781244 0.0078129 0.00781259 0.00781258 0.00781254 0.00774312 0.00775278 0.00772752 0.00773499 0.00771801 0.00777166 0.00779336 0.00777035 0.00776393 0.00776145 0.00776695 0.00779629 0.00779529 0.00778342 0.0077821 0.0077819 0.00777785 0.00779603 0.00779307 0.00778534 0.00778692 0.0077862 0.00778087 0.00779231 0.00779207 0.00778583 0.00778879 0.00778771 0.00778349 0.00779111 0.00779231 0.00778726 0.00779032 0.00778927 0.00778656 0.00779133 0.00779347 0.00778887 0.00779227 0.00779146 0.00778948 0.00779268 0.00779508 0.00779122 0.0077942 0.00779383 0.00779214 0.00779425 0.00779662 0.00779323 0.00779636 0.00779573 0.0077945 0.00779573 0.00779859 0.00779529 0.00779869 0.00779752 0.00779675 0.00779777 0.00779999 0.0077974 0.00780001 0.00779925 0.00779834 0.00779945 0.00780193 0.00779923 0.00780187 0.00780122 0.00780068 0.00780133 0.00780361 0.00780097 0.0078034 0.00780269 0.00780221 0.00780251 0.00780464 0.0078026 0.00780481 0.007804 0.00780322 0.0078039 0.00780569 0.00780398 0.00780591 0.00780513 0.00780481 0.00780521 0.00780647 0.00780504 0.0078069 0.00780631 0.00780608 0.0078061 0.00780756 0.00780642 0.00780785 0.00780738 0.00780704 0.00780726 0.00780824 0.00780745 0.00780896 0.00780814 0.00780813 0.0078083 0.00780921 0.00780853 0.00780969 0.00780895 0.00780895 0.00780903 0.00780979 0.00780882 0.00781023 0.00780948 0.00780962 0.00780965 0.00781044 0.00780996 0.00781066 0.00781038 0.00781025 0.00781028 0.00781062 0.00781032 0.00781095 0.00781092 0.00781073 0.0078104 0.00781154 0.00781081 0.00781164 0.00781113 0.00781144 0.00781136 0.00781161 0.00781124 0.00781172 0.00781145 0.00781189 0.00781131 0.0078123 0.00781174 0.0078125 0.00781214 0.00781179 0.00781204 0.0078122 0.00781223 0.00781255 0.00781257 0.00781234 0.00781241 0.00781236 0.00781223 0.0078126 0.00781226 0.00781283 0.00781246 0.00781225 0.00781284 0.00781285 0.00781268 0.00781268 0.00781258 0.00781251 0.00781239 0.00781273 0.0078126 0.00781259 0.00781266 0.00781295 0.0078125 0.00781257 0.00781281 0.0078127 0.00781263 0.00781284 0.00781255 0.00781276 0.00781301 0.00781284 0.00781284 0.00781261 0.0078128 0.00781274 0.00781255 0.00781252 0.0078127 0.00777992 0.00777781 0.0077761 0.00777352 0.00776158 0.00778906 0.00780361 0.00779045 0.00778986 0.00778518 0.00778215 0.00780458 0.00780485 0.00779606 0.00779632 0.00779547 0.00778963 0.00780432 0.00780292 0.00779673 0.00779904 0.00779773 0.00779269 0.00780186 0.00780208 0.00779657 0.00779994 0.00779817 0.00779461 0.00780067 0.0078017 0.00779702 0.00780064 0.00779916 0.00779648 0.00780071 0.00780225 0.00779774 0.00780161 0.00780046 0.00779822 0.00780135 0.0078034 0.00779913 0.00780273 0.00780175 0.00780002 0.00780215 0.00780426 0.00780041 0.00780415 0.00780319 0.00780185 0.00780323 0.00780534 0.00780177 0.00780514 0.0078045 0.00780304 0.00780434 0.00780625 0.00780324 0.00780648 0.0078055 0.00780455 0.00780544 0.00780724 0.00780452 0.00780748 0.00780674 0.00780577 0.00780659 0.00780806 0.00780572 0.00780847 0.00780752 0.00780672 0.00780727 0.00780874 0.00780681 0.00780919 0.00780834 0.00780748 0.00780819 0.00780973 0.00780741 0.00780991 0.00780913 0.00780832 0.00780899 0.00780991 0.00780855 0.00781019 0.00780959 0.0078092 0.00780945 0.0078105 0.00780892 0.00781093 0.0078104 0.00780975 0.00781026 0.00781094 0.00780989 0.00781129 0.00781076 0.00781032 0.00781057 0.00781133 0.00781024 0.00781198 0.00781144 0.00781087 0.00781106 0.00781181 0.00781098 0.00781207 0.00781169 0.00781113 0.00781145 0.007812 0.0078114 0.00781245 0.00781213 0.00781193 0.00781197 0.00781198 0.00781149 0.00781245 0.0078122 0.00781203 0.00781203 0.00781259 0.00781172 0.00781251 0.00781234 0.00781229 0.00781224 0.00781268 0.007812 0.00781272 0.00781268 0.00781228 0.0078121 0.00781255 0.00781237 0.00781292 0.00781274 0.00781274 0.00781258 0.00781287 0.00781241 0.00781287 0.00781236 0.00781243 0.00781271 0.00781268 0.00781243 0.00781313 0.00781273 0.00781259 0.00781251 0.00781293 0.00781269 0.00781308 0.00781295 0.00781301 0.00781312 0.00781287 0.00781272 0.00781308 0.00781299 0.00781267 0.00781254 0.00781275 0.0078125 0.00781255 0.00781283 0.0078128 0.0078128 0.00781284 0.00781295 0.0078129 0.00781266 0.00781274 0.00781293 0.00781241 0.00781244 0.00781287 0.00781287 0.00781266 0.00781319 0.00780879 0.00780129 0.00782008 0.00780817 0.00779584 0.007805 0.00781295 0.00780606 0.00781259 0.00780495 0.0077997 0.00781183 0.00781262 0.00780695 0.00781088 0.00780704 0.00780248 0.00781184 0.00781158 0.00780675 0.00781031 0.00780805 0.00780387 0.00781074 0.00781122 0.00780621 0.00781026 0.00780842 0.00780508 0.00781015 0.00781121 0.00780626 0.00781046 0.00780879 0.0078057 0.00780958 0.00781145 0.00780688 0.00781078 0.00780893 0.00780682 0.00781005 0.00781146 0.00780717 0.00781104 0.00780986 0.00780784 0.00781047 0.00781196 0.0078077 0.00781178 0.00781038 0.00780852 0.00781063 0.00781212 0.00780857 0.00781217 0.00781103 0.00780967 0.00781092 0.00781211 0.00780932 0.00781249 0.00781206 0.00781035 0.00781154 0.00781289 0.00781002 0.00781315 0.0078121 0.00781077 0.00781195 0.00781301 0.00781052 0.00781336 0.00781255 0.00781136 0.00781215 0.00781324 0.00781058 0.0078134 0.00781267 0.00781181 0.00781225 0.00781325 0.0078114 0.00781367 0.00781309 0.00781221 0.00781268 0.00781355 0.00781161 0.00781409 0.00781306 0.00781251 0.00781288 0.00781359 0.00781205 0.00781389 0.0078134 0.0078128 0.00781306 0.00781349 0.00781211 0.00781385 0.00781339 0.0078128 0.00781332 0.00781343 0.00781245 0.00781369 0.00781344 0.00781303 0.00781319 0.00781359 0.00781265 0.00781368 0.00781332 0.00781306 0.007813 0.00781321 0.00781274 0.0078138 0.00781368 0.00781296 0.00781375 0.00781324 0.00781298 0.00781391 0.00781337 0.00781311 0.00781321 0.00781339 0.00781285 0.00781392 0.00781376 0.00781329 0.00781331 0.00781331 0.00781313 0.00781359 0.0078133 0.00781334 0.00781318 0.00781314 0.00781304 0.00781324 0.00781311 0.00781304 0.00781346 0.00781307 0.00781306 0.00781329 0.00781329 0.00781313 0.00781283 0.00781289 0.00781315 0.00781323 0.00781327 0.00781299 0.00781302 0.00781292 0.00781296 0.00781341 0.00781316 0.00781316 0.00781304 0.00781288 0.0078129 0.00781325 0.00781282 0.00781297 0.00781303 0.0078132 0.00781257 0.00781304 0.00781309 0.00781335 0.0078126 0.0078123 0.00781293 0.00781291 0.00781314 0.00781285 0.00781273 0.00781257 0.00781251 0.00781231 0.00781257 0.00781287 0.00781256 0.00783087 0.00782254 0.00786211 0.0078415 0.0078222 0.00781935 0.00782167 0.00781904 0.00783254 0.00782315 0.00781644 0.007819 0.00782057 0.00781703 0.0078242 0.00781874 0.0078146 0.00781961 0.00782029 0.00781574 0.00782125 0.00781799 0.00781478 0.0078192 0.00782015 0.00781522 0.00782002 0.00781777 0.00781464 0.00781858 0.0078199 0.00781518 0.00781939 0.00781789 0.00781504 0.00781838 0.00781969 0.00781496 0.0078192 0.00781762 0.0078152 0.00781825 0.00781952 0.00781486 0.00781891 0.00781779 0.00781559 0.00781811 0.00781924 0.00781514 0.00781891 0.00781771 0.00781579 0.00781774 0.00781865 0.00781538 0.00781893 0.00781781 0.00781578 0.00781767 0.00781845 0.00781516 0.00781869 0.00781751 0.00781616 0.00781725 0.00781849 0.00781524 0.00781819 0.00781768 0.00781629 0.00781706 0.00781766 0.00781517 0.00781785 0.00781754 0.00781571 0.00781711 0.00781771 0.00781531 0.00781781 0.00781741 0.00781592 0.00781662 0.00781717 0.00781528 0.00781737 0.00781697 0.00781583 0.00781635 0.00781684 0.0078152 0.00781697 0.00781661 0.00781565 0.00781608 0.00781679 0.00781486 0.00781685 0.00781647 0.00781535 0.00781577 0.00781595 0.00781498 0.00781633 0.00781622 0.00781563 0.00781584 0.00781562 0.00781471 0.00781609 0.00781569 0.00781527 0.00781538 0.00781553 0.0078144 0.00781577 0.00781577 0.00781491 0.00781518 0.00781496 0.00781456 0.00781569 0.00781532 0.00781472 0.00781477 0.00781479 0.00781429 0.00781528 0.00781509 0.00781466 0.00781497 0.00781465 0.00781406 0.0078151 0.00781469 0.00781437 0.00781435 0.00781468 0.00781394 0.00781444 0.00781426 0.00781416 0.0078142 0.00781396 0.00781351 0.00781422 0.00781413 0.00781375 0.00781428 0.00781339 0.00781361 0.00781402 0.00781422 0.00781391 0.00781394 0.00781343 0.00781348 0.00781346 0.00781369 0.00781364 0.00781352 0.00781339 0.00781336 0.0078131 0.00781321 0.0078134 0.00781319 0.00781317 0.00781303 0.00781311 0.00781302 0.00781319 0.00781271 0.00781297 0.00781273 0.00781283 0.00781333 0.00781282 0.00781307 0.00781258 0.00781275 0.00781252 0.00781282 0.00781304 0.00781294 0.00781238 0.00781261 0.00781247 0.0078126 0.00781223 0.00781254 0.00784692 0.00784298 0.00790593 0.00787686 0.0078428 0.00783153 0.0078304 0.0078304 0.00784981 0.00783949 0.00783142 0.00782743 0.00782882 0.0078265 0.00783538 0.00782976 0.00782642 0.00782751 0.00782904 0.00782499 0.00783087 0.00782775 0.00782492 0.00782771 0.00782899 0.00782423 0.00782935 0.00782705 0.00782437 0.00782732 0.0078281 0.00782386 0.00782848 0.00782654 0.00782392 0.00782694 0.0078279 0.0078232 0.00782767 0.00782593 0.00782366 0.00782628 0.00782716 0.00782273 0.00782686 0.00782527 0.00782302 0.0078254 0.00782616 0.00782216 0.00782597 0.00782475 0.00782274 0.00782448 0.0078253 0.00782185 0.00782549 0.007824 0.00782209 0.00782364 0.00782441 0.00782109 0.00782446 0.0078234 0.00782185 0.00782324 0.00782359 0.00782066 0.00782378 0.00782296 0.00782133 0.00782233 0.0078228 0.00782014 0.00782311 0.00782213 0.00782055 0.00782172 0.0078217 0.00781944 0.0078222 0.00782136 0.00782022 0.00782087 0.00782079 0.00781888 0.00782102 0.00782078 0.00781971 0.00782004 0.00782023 0.00781843 0.00782045 0.00782013 0.007819 0.0078194 0.00781953 0.00781799 0.00781989 0.00781917 0.00781839 0.00781871 0.00781863 0.00781718 0.00781918 0.00781856 0.00781783 0.00781829 0.00781798 0.00781698 0.00781829 0.00781844 0.00781736 0.00781759 0.00781736 0.00781644 0.00781773 0.0078174 0.00781663 0.00781696 0.00781695 0.00781601 0.00781698 0.00781721 0.00781574 0.00781632 0.0078159 0.0078155 0.00781648 0.00781647 0.00781586 0.00781626 0.00781576 0.00781504 0.00781575 0.00781609 0.00781556 0.00781561 0.00781503 0.00781487 0.0078151 0.00781559 0.00781508 0.00781538 0.0078144 0.00781434 0.00781463 0.0078151 0.00781418 0.00781443 0.00781425 0.00781389 0.00781458 0.00781466 0.007814 0.00781434 0.00781397 0.00781339 0.00781435 0.0078139 0.0078135 0.00781391 0.00781345 0.00781313 0.00781365 0.00781387 0.00781334 0.00781398 0.00781349 0.0078133 0.00781328 0.00781327 0.00781351 0.00781329 0.00781269 0.00781283 0.00781326 0.0078133 0.00781338 0.00781273 0.00781316 0.00781305 0.00781315 0.00781327 0.00781272 0.00781277 0.00781275 0.00781232 0.00781238 0.00781238 0.00781248 0.00781216 0.00786141 0.00786268 0.00795622 0.00791789 0.00785805 0.00784228 0.0078393 0.00784014 0.00786033 0.00785392 0.00784397 0.00783633 0.00783807 0.00783553 0.00784312 0.00784019 0.00783726 0.00783638 0.00783841 0.00783407 0.0078395 0.00783723 0.00783454 0.00783605 0.00783772 0.00783318 0.00783857 0.00783614 0.00783319 0.00783566 0.00783668 0.00783241 0.00783743 0.00783516 0.00783267 0.00783464 0.00783557 0.00783108 0.00783599 0.00783382 0.00783142 0.0078338 0.00783429 0.00783028 0.00783462 0.00783272 0.00783049 0.00783239 0.00783303 0.00782906 0.00783327 0.00783148 0.00782943 0.00783139 0.00783152 0.00782805 0.0078316 0.00783062 0.0078285 0.00782974 0.00783013 0.00782678 0.00783042 0.0078293 0.0078273 0.00782874 0.00782874 0.00782577 0.00782908 0.00782789 0.00782616 0.00782762 0.00782722 0.00782465 0.0078278 0.00782676 0.00782498 0.00782619 0.0078261 0.0078238 0.00782622 0.00782547 0.00782418 0.00782503 0.00782497 0.00782252 0.00782532 0.00782435 0.00782306 0.00782339 0.0078237 0.00782172 0.00782388 0.0078233 0.00782228 0.00782266 0.00782264 0.00782091 0.00782242 0.00782226 0.00782115 0.00782165 0.00782153 0.00782003 0.00782177 0.00782108 0.00782012 0.00782049 0.00782004 0.00781915 0.00782062 0.00782042 0.0078197 0.00781991 0.00781911 0.00781844 0.00781961 0.00781941 0.00781834 0.007819 0.00781826 0.00781756 0.00781877 0.00781859 0.00781764 0.00781786 0.00781775 0.0078166 0.00781788 0.0078179 0.00781712 0.00781706 0.00781681 0.00781621 0.00781637 0.0078166 0.00781622 0.00781668 0.00781615 0.00781568 0.00781599 0.00781608 0.00781561 0.00781589 0.00781522 0.00781512 0.00781557 0.00781547 0.00781541 0.00781534 0.00781471 0.00781437 0.00781463 0.00781516 0.00781434 0.00781488 0.00781413 0.00781408 0.00781421 0.00781452 0.00781424 0.0078143 0.0078137 0.00781381 0.00781389 0.00781402 0.00781394 0.00781394 0.0078133 0.00781321 0.00781364 0.00781348 0.0078131 0.00781351 0.00781294 0.00781298 0.00781312 0.00781328 0.00781307 0.00781329 0.00781268 0.00781265 0.00781257 0.00781288 0.00781261 0.00781305 0.00781254 0.00781244 0.00781221 0.00781214 0.00781259 0.00781273 0.00784644 0.0078852 0.00800976 0.00797923 0.00786199 0.00785085 0.00784996 0.00784847 0.00784668 0.00786185 0.00785335 0.00784661 0.0078494 0.00784472 0.00784853 0.00784848 0.00784692 0.00784574 0.00784826 0.00784333 0.00784887 0.00784628 0.0078442 0.00784514 0.00784703 0.00784204 0.00784759 0.00784509 0.00784219 0.00784415 0.00784525 0.00784072 0.00784633 0.00784345 0.0078408 0.00784285 0.00784369 0.00783922 0.00784447 0.00784194 0.00783933 0.00784105 0.0078416 0.00783759 0.00784243 0.00784033 0.00783783 0.00783946 0.00783969 0.00783588 0.00784038 0.00783842 0.00783592 0.00783762 0.00783757 0.00783428 0.00783807 0.00783664 0.00783432 0.00783566 0.0078356 0.00783262 0.00783622 0.00783472 0.00783268 0.00783369 0.00783378 0.00783118 0.00783397 0.00783294 0.0078312 0.0078321 0.00783188 0.00782952 0.00783227 0.00783109 0.00782917 0.00783031 0.00783021 0.00782791 0.00783056 0.00782955 0.00782789 0.00782855 0.00782866 0.00782636 0.00782852 0.00782814 0.00782648 0.00782716 0.0078268 0.00782485 0.00782716 0.00782643 0.00782522 0.00782577 0.00782524 0.00782362 0.00782567 0.00782493 0.00782378 0.0078241 0.00782388 0.00782254 0.00782391 0.00782344 0.00782241 0.00782289 0.00782234 0.00782134 0.0078228 0.00782233 0.00782123 0.00782146 0.00782098 0.00782018 0.00782145 0.00782155 0.00782009 0.00782052 0.00782041 0.00781926 0.00782003 0.00782014 0.0078193 0.00781971 0.00781892 0.00781803 0.00781884 0.0078188 0.00781845 0.00781848 0.00781822 0.0078172 0.00781792 0.00781818 0.00781752 0.00781712 0.00781706 0.0078165 0.00781686 0.00781723 0.00781665 0.00781688 0.00781588 0.00781555 0.0078159 0.00781617 0.00781583 0.00781576 0.00781576 0.00781516 0.00781527 0.00781549 0.00781516 0.00781501 0.00781492 0.00781454 0.0078144 0.00781489 0.00781424 0.00781438 0.00781404 0.00781408 0.00781379 0.00781421 0.00781391 0.00781414 0.00781378 0.00781369 0.00781328 0.00781373 0.00781344 0.00781336 0.00781314 0.00781307 0.00781274 0.00781348 0.00781312 0.00781313 0.00781262 0.00781286 0.00781259 0.00781294 0.00781273 0.00781295 0.00781292 0.00781251 0.00781252 0.00781305 0.00781215 0.00781223 0.00776353 0.00771027 0.00770213 0.00765789 0.00773331 0.00770281 0.00776279 0.00775141 0.00774644 0.00773444 0.00774586 0.0077457 0.007768 0.00775491 0.00776679 0.00775351 0.00775439 0.00776172 0.00777039 0.00776136 0.00776889 0.00776354 0.00776237 0.00777119 0.00777412 0.00776829 0.00777142 0.00777088 0.00776939 0.00777681 0.0077783 0.00777399 0.00777592 0.00777651 0.00777526 0.00778059 0.00778237 0.00777923 0.00778072 0.00778107 0.00778028 0.00778375 0.00778616 0.00778309 0.00778514 0.0077847 0.00778424 0.0077867 0.00778927 0.00778674 0.00778896 0.00778839 0.00778732 0.00778983 0.00779178 0.00778955 0.00779229 0.00779097 0.00779038 0.00779209 0.00779427 0.00779234 0.00779489 0.00779361 0.0077933 0.00779453 0.00779639 0.00779487 0.00779694 0.00779543 0.00779551 0.00779676 0.00779858 0.0077969 0.00779895 0.00779799 0.00779761 0.00779855 0.00780045 0.00779894 0.00780078 0.00779974 0.00779988 0.00780042 0.00780229 0.0078007 0.00780267 0.00780153 0.00780151 0.00780217 0.00780357 0.00780251 0.0078039 0.00780326 0.00780303 0.00780377 0.00780503 0.0078039 0.00780538 0.00780458 0.0078046 0.00780506 0.00780608 0.00780545 0.00780663 0.00780597 0.00780569 0.00780601 0.00780694 0.00780652 0.00780759 0.00780686 0.00780689 0.00780719 0.00780827 0.00780781 0.00780844 0.00780797 0.00780811 0.00780829 0.00780868 0.0078088 0.00780941 0.00780878 0.00780877 0.00780905 0.00780946 0.00780965 0.00781023 0.00780973 0.00780973 0.00780987 0.0078102 0.00781023 0.0078107 0.0078105 0.00781057 0.00781056 0.00781114 0.00781084 0.00781155 0.0078111 0.00781119 0.00781096 0.00781128 0.00781122 0.00781175 0.00781162 0.00781182 0.00781172 0.00781176 0.00781196 0.00781191 0.00781209 0.0078122 0.00781204 0.00781224 0.00781211 0.00781229 0.00781212 0.00781258 0.00781256 0.00781236 0.00781266 0.00781273 0.0078126 0.00781243 0.00781281 0.00781239 0.00781281 0.00781281 0.00781248 0.00781281 0.0078128 0.0078125 0.00781271 0.00781286 0.00781283 0.00781276 0.00781265 0.00781279 0.00781284 0.00781278 0.00781297 0.00781269 0.00781289 0.00781255 0.00781271 0.00781287 0.00781265 0.00781224 0.0078123 0.00777712 0.00776234 0.00774119 0.0077367 0.00772448 0.00774586 0.00777719 0.00777016 0.00775515 0.00775539 0.007759 0.00777329 0.00777973 0.00777341 0.00777274 0.00776911 0.00777219 0.00778262 0.00778368 0.00777719 0.00778036 0.00777738 0.00777703 0.0077861 0.00778638 0.00778033 0.00778404 0.00778322 0.00778076 0.00778851 0.00778892 0.00778407 0.00778694 0.00778722 0.00778467 0.0077907 0.00779129 0.00778717 0.00779019 0.00779072 0.00778825 0.00779263 0.00779345 0.00779007 0.00779293 0.00779319 0.00779137 0.00779463 0.00779575 0.0077926 0.00779547 0.00779556 0.00779407 0.00779643 0.00779774 0.00779501 0.00779823 0.00779759 0.00779658 0.00779836 0.00779955 0.00779709 0.00780014 0.00779955 0.00779861 0.00780021 0.00780123 0.00779913 0.00780214 0.00780123 0.00780074 0.00780159 0.00780271 0.00780084 0.00780326 0.00780268 0.00780232 0.00780319 0.00780425 0.00780245 0.00780484 0.00780395 0.00780389 0.00780438 0.00780564 0.00780373 0.007806 0.0078053 0.0078052 0.00780565 0.00780657 0.00780509 0.00780723 0.00780628 0.00780619 0.00780666 0.00780739 0.00780612 0.00780818 0.00780754 0.00780721 0.00780756 0.00780812 0.00780703 0.00780892 0.00780804 0.00780813 0.00780841 0.00780895 0.00780797 0.00780983 0.00780902 0.00780912 0.00780913 0.00780952 0.00780874 0.00780998 0.00780963 0.00780978 0.00780961 0.00781035 0.00780982 0.00781058 0.00781039 0.00781063 0.0078104 0.00781072 0.00781028 0.00781112 0.00781086 0.00781102 0.00781114 0.00781154 0.00781068 0.00781197 0.00781137 0.0078115 0.00781159 0.00781154 0.00781126 0.00781207 0.00781189 0.00781189 0.00781168 0.00781172 0.00781188 0.00781232 0.00781194 0.00781213 0.00781198 0.00781225 0.00781229 0.00781264 0.00781258 0.00781263 0.00781252 0.00781257 0.00781199 0.00781288 0.00781252 0.00781279 0.00781238 0.00781225 0.00781281 0.00781279 0.00781271 0.00781278 0.00781256 0.00781251 0.00781266 0.00781266 0.00781265 0.00781294 0.00781281 0.00781302 0.00781235 0.0078129 0.00781281 0.00781285 0.00781297 0.00781293 0.00781243 0.00781285 0.00781245 0.00781316 0.00781286 0.0078128 0.00781286 0.00781268 0.00781293 0.00781257 0.00781278 0.00779716 0.00778441 0.00777999 0.00777663 0.00775772 0.00777631 0.00779705 0.00778687 0.00778562 0.00778204 0.00777499 0.00778894 0.0077959 0.00778754 0.00779078 0.0077879 0.0077846 0.00779514 0.007797 0.00779013 0.00779391 0.0077921 0.00778893 0.00779753 0.00779806 0.00779236 0.00779594 0.00779513 0.00779153 0.0077986 0.0077992 0.00779435 0.00779772 0.00779777 0.00779435 0.00779991 0.0078003 0.00779619 0.00779936 0.00779967 0.00779697 0.0078011 0.00780158 0.00779798 0.00780109 0.00780144 0.00779898 0.00780234 0.00780297 0.00779965 0.007803 0.00780306 0.00780099 0.00780347 0.00780415 0.00780142 0.00780456 0.00780455 0.00780285 0.00780476 0.0078055 0.00780256 0.00780615 0.00780543 0.00780422 0.00780582 0.00780621 0.0078039 0.00780736 0.00780664 0.00780564 0.00780697 0.00780734 0.0078053 0.00780854 0.00780772 0.00780664 0.00780752 0.00780805 0.00780603 0.00780918 0.00780816 0.00780773 0.00780862 0.00780892 0.00780691 0.00780972 0.00780935 0.00780863 0.00780938 0.00780944 0.00780816 0.00781031 0.00780969 0.00780917 0.00780977 0.00780985 0.0078088 0.007811 0.0078104 0.00781004 0.00781019 0.00781032 0.00780942 0.00781154 0.00781087 0.00781054 0.00781091 0.00781122 0.00781011 0.00781196 0.00781121 0.00781111 0.00781118 0.00781127 0.00781053 0.00781196 0.00781164 0.00781145 0.0078119 0.00781171 0.00781108 0.00781239 0.00781194 0.00781196 0.00781211 0.00781207 0.00781116 0.00781259 0.00781217 0.00781198 0.00781222 0.00781218 0.0078118 0.0078129 0.00781248 0.00781235 0.00781262 0.00781228 0.00781184 0.00781277 0.00781274 0.00781272 0.00781253 0.00781264 0.00781205 0.00781288 0.0078128 0.00781271 0.00781273 0.00781234 0.00781236 0.00781299 0.00781279 0.00781321 0.00781305 0.00781255 0.00781236 0.00781304 0.00781279 0.00781282 0.00781287 0.00781309 0.00781301 0.00781312 0.00781299 0.00781291 0.00781298 0.00781267 0.00781224 0.00781262 0.00781273 0.00781299 0.00781307 0.00781276 0.00781276 0.00781271 0.0078131 0.00781297 0.00781241 0.00781249 0.00781296 0.00781272 0.00781304 0.00781281 0.00781282 0.00781303 0.00781252 0.00781289 0.00781241 0.00781255 0.0078127 0.00781896 0.00780728 0.00781732 0.00781118 0.00779111 0.00780535 0.00781308 0.00780428 0.00781337 0.00780597 0.00779662 0.00780555 0.00780972 0.00780234 0.00780933 0.00780462 0.0077995 0.00780716 0.00780836 0.00780224 0.00780793 0.00780527 0.00780117 0.00780812 0.00780833 0.00780325 0.00780778 0.00780657 0.00780243 0.0078083 0.00780884 0.00780413 0.00780786 0.00780773 0.00780407 0.00780886 0.00780927 0.00780483 0.00780873 0.00780846 0.00780551 0.00780931 0.00780988 0.00780579 0.00780965 0.00780955 0.00780663 0.0078099 0.00781029 0.0078068 0.00781043 0.00781007 0.00780809 0.00781061 0.00781107 0.00780785 0.00781122 0.00781084 0.00780941 0.00781111 0.00781155 0.00780824 0.0078121 0.00781124 0.00781021 0.00781169 0.00781162 0.00780934 0.00781271 0.00781217 0.00781086 0.00781194 0.00781216 0.0078096 0.00781303 0.00781246 0.00781142 0.00781236 0.00781227 0.00781017 0.00781322 0.00781293 0.0078118 0.00781267 0.00781257 0.00781083 0.00781387 0.00781286 0.0078123 0.00781313 0.00781271 0.00781116 0.0078139 0.00781329 0.00781265 0.00781307 0.00781311 0.00781148 0.00781359 0.00781328 0.00781269 0.00781327 0.00781299 0.00781209 0.00781374 0.00781329 0.00781295 0.00781319 0.0078128 0.00781242 0.0078139 0.00781364 0.00781331 0.00781335 0.00781285 0.00781239 0.00781412 0.00781362 0.00781312 0.00781333 0.00781312 0.00781234 0.00781401 0.00781362 0.00781341 0.0078134 0.00781341 0.0078127 0.00781379 0.00781335 0.00781343 0.00781362 0.00781316 0.00781284 0.00781379 0.00781368 0.00781344 0.00781367 0.00781317 0.00781254 0.00781367 0.00781317 0.00781362 0.00781353 0.00781288 0.00781277 0.00781384 0.00781331 0.0078135 0.0078133 0.00781325 0.00781313 0.00781343 0.00781343 0.00781317 0.00781335 0.00781293 0.00781282 0.00781304 0.00781305 0.00781347 0.00781321 0.00781286 0.00781266 0.00781312 0.00781323 0.00781321 0.00781328 0.00781302 0.00781273 0.00781304 0.00781299 0.00781321 0.00781329 0.00781245 0.00781265 0.00781257 0.00781291 0.00781277 0.00781285 0.00781223 0.00781261 0.00781274 0.00781273 0.00781304 0.00781281 0.00781243 0.00781261 0.00781242 0.00781276 0.0078129 0.00781226 0.00784055 0.0078293 0.00785443 0.00784387 0.0078227 0.00783343 0.00782709 0.00782084 0.00783838 0.0078288 0.00781682 0.00782119 0.00782131 0.00781576 0.00782637 0.00782056 0.00781432 0.00781889 0.00781882 0.00781381 0.00782071 0.00781806 0.0078132 0.00781832 0.00781809 0.00781334 0.00781845 0.00781735 0.00781306 0.00781791 0.0078179 0.00781319 0.00781772 0.00781692 0.00781349 0.0078177 0.00781795 0.00781331 0.00781768 0.00781723 0.00781414 0.00781756 0.00781798 0.00781349 0.00781791 0.00781711 0.00781465 0.00781734 0.00781767 0.00781408 0.00781792 0.00781736 0.00781521 0.00781714 0.00781769 0.00781411 0.0078178 0.00781734 0.00781575 0.00781744 0.00781755 0.00781454 0.00781794 0.00781741 0.00781566 0.00781723 0.00781691 0.00781447 0.00781782 0.00781732 0.00781558 0.00781703 0.00781695 0.0078146 0.00781781 0.00781708 0.00781595 0.00781676 0.00781668 0.00781452 0.00781731 0.00781697 0.00781595 0.0078165 0.00781654 0.00781474 0.00781724 0.00781686 0.00781578 0.00781659 0.0078162 0.00781433 0.00781691 0.00781656 0.00781563 0.00781643 0.00781612 0.0078143 0.00781645 0.00781653 0.00781578 0.00781617 0.00781547 0.00781473 0.00781619 0.00781613 0.00781545 0.00781593 0.00781544 0.00781432 0.00781587 0.00781553 0.0078151 0.00781556 0.00781545 0.00781412 0.0078158 0.00781557 0.00781524 0.00781537 0.00781471 0.0078139 0.00781524 0.00781565 0.00781484 0.00781496 0.00781446 0.00781406 0.00781504 0.00781501 0.00781458 0.00781458 0.00781407 0.00781373 0.00781501 0.00781511 0.00781424 0.00781454 0.00781405 0.00781369 0.0078145 0.00781451 0.00781437 0.00781425 0.00781381 0.0078135 0.00781394 0.00781409 0.00781418 0.00781456 0.00781344 0.00781338 0.00781417 0.00781381 0.00781374 0.00781365 0.00781346 0.00781323 0.0078138 0.00781366 0.00781364 0.00781341 0.00781324 0.00781319 0.00781363 0.00781337 0.00781351 0.00781337 0.00781297 0.00781286 0.00781309 0.00781333 0.0078132 0.007813 0.00781309 0.00781278 0.00781283 0.00781302 0.00781289 0.00781295 0.00781286 0.00781274 0.00781267 0.00781259 0.00781291 0.00781287 0.00781234 0.00781236 0.0078124 0.00781272 0.00781265 0.00781238 0.00786254 0.00785052 0.00789424 0.00787735 0.00785265 0.00786132 0.00783905 0.0078351 0.00786002 0.00784994 0.0078347 0.00783639 0.0078314 0.00782769 0.0078397 0.00783548 0.00782742 0.00783018 0.00782852 0.00782453 0.0078314 0.00782981 0.00782455 0.00782815 0.00782795 0.00782294 0.00782876 0.00782752 0.00782317 0.00782718 0.007827 0.00782254 0.00782728 0.00782618 0.00782322 0.00782615 0.00782631 0.00782179 0.00782653 0.00782535 0.00782278 0.00782533 0.00782578 0.00782157 0.007826 0.00782466 0.00782246 0.00782458 0.00782511 0.00782093 0.0078253 0.00782445 0.00782209 0.00782413 0.00782421 0.00782076 0.00782475 0.00782387 0.00782186 0.00782346 0.00782356 0.00782036 0.00782403 0.00782312 0.00782149 0.00782277 0.00782274 0.00782013 0.00782343 0.00782256 0.00782093 0.0078224 0.00782207 0.00781928 0.00782225 0.00782169 0.00782055 0.00782167 0.00782115 0.007819 0.0078217 0.00782145 0.00782005 0.00782077 0.00782047 0.00781811 0.00782092 0.00782066 0.0078194 0.00782014 0.0078198 0.0078179 0.00782044 0.00782 0.00781896 0.0078196 0.00781885 0.0078176 0.00781955 0.00781958 0.00781815 0.00781902 0.00781823 0.0078166 0.00781909 0.00781857 0.00781783 0.00781807 0.00781767 0.00781688 0.00781817 0.00781845 0.00781745 0.00781797 0.00781667 0.00781628 0.00781769 0.00781752 0.00781689 0.00781712 0.00781644 0.00781573 0.00781707 0.00781688 0.00781601 0.00781668 0.00781599 0.0078153 0.00781647 0.00781653 0.00781581 0.00781602 0.0078155 0.00781513 0.00781572 0.00781576 0.00781519 0.00781569 0.00781472 0.00781462 0.00781519 0.00781516 0.00781501 0.00781504 0.0078144 0.00781411 0.00781478 0.00781499 0.00781474 0.00781453 0.00781387 0.00781419 0.00781457 0.00781436 0.00781428 0.00781448 0.00781383 0.00781365 0.00781391 0.00781423 0.00781371 0.00781399 0.00781361 0.0078136 0.00781349 0.0078138 0.00781365 0.00781363 0.00781303 0.00781309 0.00781324 0.00781363 0.00781345 0.00781323 0.00781311 0.00781261 0.00781306 0.00781296 0.00781274 0.00781303 0.00781248 0.00781254 0.007813 0.00781286 0.00781261 0.00781258 0.00781264 0.00781216 0.0078125 0.00781246 0.00781258 0.00781208 0.00788675 0.00787009 0.00793794 0.00791649 0.00788092 0.00789069 0.00784748 0.00784699 0.00787128 0.00786734 0.00784884 0.00785069 0.00784068 0.00783817 0.00784717 0.0078481 0.00783881 0.007841 0.00783868 0.00783451 0.00784095 0.00784054 0.0078349 0.0078375 0.00783735 0.00783265 0.00783862 0.00783713 0.00783311 0.0078356 0.00783625 0.0078315 0.00783681 0.00783505 0.00783205 0.00783424 0.007835 0.00783028 0.00783532 0.00783358 0.00783109 0.00783304 0.00783344 0.00782916 0.00783373 0.00783234 0.00782997 0.00783203 0.00783228 0.00782836 0.00783272 0.00783119 0.007829 0.00783042 0.00783076 0.00782701 0.00783117 0.00783006 0.00782787 0.00782939 0.00782948 0.00782604 0.00782986 0.0078289 0.00782712 0.00782844 0.00782798 0.00782521 0.00782863 0.00782761 0.00782621 0.00782713 0.00782681 0.00782381 0.00782729 0.00782666 0.0078248 0.00782594 0.00782535 0.00782316 0.00782587 0.00782548 0.00782376 0.0078247 0.00782428 0.00782208 0.00782457 0.00782421 0.00782303 0.00782364 0.0078229 0.0078211 0.0078236 0.00782342 0.00782204 0.00782288 0.00782169 0.0078206 0.00782249 0.00782227 0.00782112 0.00782177 0.00782084 0.0078196 0.00782129 0.00782087 0.00782029 0.00782072 0.00781978 0.00781883 0.00782028 0.00782037 0.00781919 0.00781998 0.00781904 0.00781798 0.0078192 0.00781913 0.00781853 0.00781902 0.00781831 0.00781732 0.00781824 0.00781859 0.00781767 0.00781801 0.00781739 0.00781651 0.00781763 0.00781794 0.0078171 0.00781744 0.00781644 0.00781613 0.00781663 0.00781715 0.00781662 0.00781681 0.00781585 0.00781545 0.00781609 0.00781642 0.00781576 0.00781588 0.00781549 0.00781468 0.00781518 0.00781578 0.0078149 0.00781528 0.00781444 0.00781433 0.00781479 0.00781524 0.00781429 0.00781461 0.00781431 0.00781396 0.00781405 0.00781443 0.00781422 0.00781442 0.00781344 0.00781373 0.00781353 0.00781391 0.00781381 0.00781378 0.0078132 0.00781311 0.00781307 0.00781331 0.00781352 0.00781322 0.00781322 0.00781276 0.00781298 0.00781316 0.00781299 0.00781276 0.00781272 0.00781293 0.00781261 0.00781296 0.00781254 0.00781234 0.00781224 0.00781265 0.00781249 0.00781287 0.00781263 0.0078125 0.00793232 0.00789078 0.00800179 0.00797735 0.00790321 0.00792391 0.00785248 0.00785563 0.00784644 0.00787337 0.00785651 0.00785956 0.00785133 0.00784775 0.00785089 0.00785576 0.00784827 0.00784933 0.00784959 0.00784459 0.00785111 0.00784978 0.00784488 0.00784633 0.00784752 0.00784241 0.00784897 0.00784628 0.00784257 0.00784397 0.00784554 0.00784033 0.00784653 0.00784387 0.0078411 0.0078425 0.00784319 0.00783883 0.00784432 0.00784216 0.00783932 0.00784066 0.00784145 0.00783698 0.00784205 0.00783984 0.00783768 0.0078388 0.00783943 0.00783544 0.00783983 0.00783802 0.00783616 0.00783704 0.00783749 0.00783374 0.00783777 0.00783645 0.00783402 0.007835 0.00783521 0.00783211 0.00783592 0.00783456 0.00783255 0.00783337 0.00783357 0.0078306 0.00783369 0.00783298 0.00783089 0.00783186 0.0078316 0.00782892 0.00783185 0.00783104 0.00782935 0.00783033 0.00782977 0.00782742 0.00783008 0.0078295 0.00782775 0.0078286 0.00782791 0.00782572 0.00782838 0.00782786 0.00782636 0.00782702 0.00782668 0.00782462 0.00782667 0.00782632 0.00782502 0.00782539 0.00782474 0.00782346 0.00782515 0.00782502 0.00782362 0.00782411 0.00782366 0.00782244 0.00782387 0.00782374 0.00782255 0.00782301 0.00782212 0.00782106 0.00782277 0.00782205 0.00782115 0.00782177 0.00782091 0.00781991 0.00782085 0.00782089 0.00782025 0.00782049 0.0078199 0.00781873 0.00782002 0.00782003 0.00781924 0.00781939 0.00781889 0.00781785 0.00781889 0.00781861 0.007818 0.00781845 0.00781782 0.00781719 0.00781783 0.00781768 0.00781715 0.00781733 0.00781676 0.00781631 0.00781669 0.00781714 0.00781621 0.00781632 0.00781549 0.00781557 0.007816 0.00781612 0.00781545 0.00781584 0.00781498 0.00781502 0.00781514 0.0078155 0.00781489 0.00781514 0.00781412 0.00781464 0.00781477 0.0078148 0.00781479 0.00781459 0.00781399 0.00781353 0.00781389 0.00781401 0.00781375 0.00781403 0.00781321 0.00781353 0.00781329 0.0078138 0.00781337 0.00781341 0.00781307 0.00781312 0.00781329 0.00781339 0.00781296 0.00781276 0.00781273 0.00781284 0.0078131 0.0078131 0.00781288 0.00781274 0.00781258 0.00781253 0.00781272 0.00781289 0.00781248 0.00781224 0.00775556 0.00769792 0.00769929 0.00764945 0.00772671 0.00769338 0.00775928 0.0077473 0.00773916 0.00772589 0.0077433 0.007734 0.00776536 0.00775195 0.00776369 0.00774754 0.00775102 0.00775129 0.00776745 0.00775818 0.00776863 0.007759 0.00775927 0.00776401 0.00777119 0.00776555 0.00777136 0.00776756 0.0077671 0.00777241 0.00777609 0.00777236 0.00777561 0.00777454 0.00777374 0.00777839 0.00778071 0.00777783 0.00778048 0.00778001 0.00777947 0.007783 0.00778519 0.00778243 0.00778479 0.00778439 0.00778362 0.00778634 0.00778845 0.00778657 0.00778846 0.00778817 0.00778748 0.00778967 0.00779156 0.00778966 0.00779184 0.00779116 0.00779067 0.00779243 0.0077944 0.0077921 0.00779461 0.00779357 0.00779328 0.00779469 0.00779632 0.00779469 0.00779709 0.0077961 0.00779559 0.00779709 0.00779858 0.00779716 0.00779907 0.00779807 0.00779781 0.0077986 0.00780035 0.00779907 0.00780133 0.00779992 0.00780023 0.00780097 0.007802 0.00780102 0.00780252 0.00780155 0.00780149 0.00780197 0.00780362 0.00780248 0.00780429 0.0078033 0.00780311 0.0078036 0.00780503 0.00780414 0.00780536 0.00780459 0.00780484 0.00780499 0.00780635 0.00780545 0.00780631 0.00780587 0.0078061 0.00780635 0.00780711 0.00780644 0.00780765 0.00780693 0.00780697 0.00780726 0.00780823 0.00780802 0.00780864 0.00780805 0.00780815 0.00780878 0.00780892 0.00780879 0.00780945 0.00780886 0.00780893 0.0078092 0.00780995 0.00780941 0.00781018 0.00780969 0.00780972 0.00780988 0.00781039 0.0078104 0.00781073 0.00781041 0.0078102 0.00781077 0.00781132 0.00781084 0.00781148 0.00781085 0.00781109 0.00781142 0.0078115 0.00781108 0.00781201 0.00781149 0.00781188 0.0078114 0.00781198 0.007812 0.00781222 0.00781176 0.00781214 0.0078118 0.00781257 0.00781248 0.00781231 0.00781248 0.00781248 0.00781266 0.00781237 0.00781266 0.00781254 0.00781256 0.00781284 0.00781239 0.00781282 0.00781285 0.0078129 0.00781264 0.00781279 0.007813 0.00781262 0.00781276 0.00781282 0.00781262 0.00781265 0.00781245 0.00781305 0.00781247 0.00781295 0.00781269 0.00781287 0.0078126 0.00781238 0.00781277 0.00781292 0.00781268 0.0078123 0.00781269 0.00777524 0.00775819 0.00773895 0.00773252 0.00772121 0.00773751 0.00777503 0.0077687 0.00775043 0.00774944 0.00775346 0.0077611 0.0077757 0.00777143 0.00776871 0.00776505 0.00776884 0.00777362 0.00777949 0.00777423 0.00777896 0.00777408 0.00777514 0.00778024 0.00778316 0.00777766 0.00778325 0.00778074 0.00777974 0.00778499 0.00778635 0.00778189 0.00778624 0.00778579 0.00778398 0.00778894 0.00778931 0.00778599 0.00778938 0.00778982 0.00778777 0.00779219 0.0077923 0.00778901 0.00779242 0.00779262 0.00779124 0.00779465 0.0077949 0.00779218 0.00779537 0.00779569 0.00779401 0.00779685 0.00779706 0.00779465 0.00779806 0.00779769 0.00779657 0.00779863 0.00779943 0.00779665 0.00779998 0.00779948 0.00779862 0.00780027 0.00780081 0.00779899 0.00780193 0.00780123 0.00780073 0.00780177 0.00780267 0.00780081 0.00780357 0.00780268 0.00780233 0.00780307 0.00780372 0.00780246 0.00780485 0.0078042 0.00780393 0.00780474 0.00780533 0.00780403 0.00780634 0.00780538 0.00780545 0.00780569 0.00780628 0.00780518 0.00780741 0.0078064 0.00780641 0.00780682 0.0078072 0.007806 0.0078082 0.00780729 0.00780735 0.00780759 0.00780806 0.0078072 0.00780868 0.00780838 0.00780845 0.00780878 0.00780877 0.00780805 0.00780992 0.00780926 0.00780931 0.0078093 0.00780979 0.00780904 0.00781031 0.00780965 0.00780993 0.00780971 0.00781026 0.00780995 0.0078108 0.00781027 0.00781064 0.00781057 0.0078106 0.00781003 0.00781135 0.00781088 0.00781126 0.00781112 0.00781123 0.00781093 0.00781161 0.00781119 0.00781139 0.00781167 0.00781126 0.00781139 0.00781226 0.00781152 0.00781253 0.00781175 0.00781191 0.00781144 0.00781207 0.00781192 0.00781199 0.00781224 0.00781231 0.00781227 0.00781261 0.00781222 0.00781273 0.00781253 0.00781244 0.00781228 0.00781279 0.00781255 0.00781275 0.0078126 0.00781237 0.00781254 0.00781305 0.00781259 0.00781245 0.00781281 0.00781252 0.00781266 0.00781334 0.00781264 0.00781283 0.00781275 0.00781299 0.00781251 0.00781287 0.00781266 0.00781305 0.00781279 0.00781277 0.00781267 0.00781331 0.00781289 0.00781283 0.00781247 0.00781268 0.00781264 0.00781277 0.00781253 0.00781276 0.00781274 0.00779745 0.00778384 0.00777837 0.00777403 0.00775594 0.0077731 0.00779578 0.00778678 0.00778181 0.00777906 0.00777043 0.00778138 0.00779256 0.00778573 0.00778799 0.00778589 0.00778171 0.00778923 0.00779304 0.00778725 0.0077924 0.00779037 0.00778733 0.0077935 0.00779449 0.00778965 0.00779472 0.0077939 0.00779116 0.00779634 0.00779666 0.00779185 0.00779669 0.00779681 0.0077941 0.00779889 0.00779848 0.0077944 0.00779868 0.00779914 0.00779661 0.00780069 0.00780026 0.0077966 0.00780054 0.00780113 0.00779873 0.00780207 0.00780198 0.00779867 0.00780226 0.00780279 0.00780084 0.00780348 0.00780334 0.00780064 0.00780439 0.00780443 0.00780256 0.00780475 0.00780477 0.0078022 0.00780562 0.0078054 0.00780428 0.00780585 0.00780602 0.00780369 0.0078072 0.00780682 0.00780562 0.0078069 0.00780689 0.00780509 0.00780823 0.00780745 0.007807 0.00780769 0.00780821 0.00780598 0.00780919 0.00780821 0.00780784 0.00780875 0.00780897 0.00780723 0.00780967 0.00780901 0.00780896 0.00780948 0.0078093 0.00780777 0.00781034 0.00780972 0.00780934 0.00781003 0.00781031 0.00780902 0.00781107 0.00781032 0.00781008 0.00781035 0.00781045 0.00780921 0.00781137 0.00781081 0.00781045 0.00781113 0.00781073 0.00781016 0.00781192 0.00781152 0.00781097 0.00781134 0.00781109 0.00781031 0.00781215 0.00781153 0.00781173 0.00781176 0.00781158 0.00781125 0.00781254 0.00781205 0.00781209 0.00781215 0.00781196 0.00781138 0.00781261 0.00781216 0.00781236 0.00781232 0.00781223 0.00781176 0.00781285 0.00781242 0.00781214 0.00781254 0.00781225 0.00781213 0.00781275 0.00781236 0.00781273 0.00781227 0.0078125 0.0078123 0.00781271 0.00781276 0.00781297 0.00781268 0.00781248 0.00781217 0.0078129 0.00781271 0.00781311 0.007813 0.00781258 0.0078126 0.00781323 0.00781292 0.00781318 0.00781297 0.00781269 0.0078127 0.00781269 0.00781294 0.00781285 0.00781302 0.00781281 0.0078126 0.00781292 0.00781245 0.00781304 0.00781289 0.00781269 0.00781253 0.00781322 0.00781273 0.00781304 0.00781264 0.00781251 0.00781278 0.00781273 0.00781279 0.00781275 0.00781266 0.00781248 0.00781265 0.00781259 0.00781255 0.00781282 0.00781252 0.00782109 0.00780879 0.00781595 0.0078099 0.00779008 0.00780473 0.00781407 0.00780522 0.0078118 0.0078057 0.00779392 0.00780305 0.00780829 0.00780146 0.00780858 0.00780475 0.00779806 0.00780434 0.00780632 0.00780037 0.00780711 0.00780495 0.0078003 0.00780605 0.00780606 0.007801 0.0078069 0.00780595 0.00780218 0.00780699 0.00780691 0.00780219 0.00780719 0.00780694 0.00780346 0.00780804 0.00780767 0.00780329 0.00780801 0.00780804 0.00780519 0.007809 0.00780864 0.00780475 0.00780892 0.00780904 0.00780662 0.00780963 0.00780933 0.00780556 0.00781003 0.00780975 0.00780792 0.00781031 0.00781003 0.00780712 0.00781099 0.00781067 0.00780889 0.00781073 0.00781051 0.00780776 0.00781189 0.00781154 0.00781 0.00781162 0.00781116 0.00780851 0.00781248 0.00781192 0.00781072 0.00781183 0.00781171 0.00780958 0.00781275 0.00781242 0.00781119 0.00781245 0.00781213 0.00781017 0.00781318 0.00781249 0.00781181 0.00781255 0.00781244 0.00781062 0.00781353 0.00781307 0.00781198 0.00781289 0.00781253 0.00781108 0.00781394 0.00781314 0.00781261 0.00781293 0.00781307 0.00781124 0.0078139 0.00781331 0.00781308 0.00781309 0.00781293 0.00781164 0.00781374 0.00781326 0.00781298 0.00781341 0.00781289 0.00781213 0.00781392 0.00781375 0.00781321 0.00781344 0.00781335 0.0078119 0.00781384 0.00781353 0.00781316 0.00781372 0.00781323 0.00781257 0.00781383 0.0078135 0.00781323 0.00781358 0.00781317 0.00781245 0.00781422 0.00781355 0.00781313 0.00781346 0.00781299 0.00781257 0.00781399 0.00781392 0.00781339 0.00781375 0.00781325 0.00781261 0.00781387 0.00781356 0.00781361 0.00781345 0.00781294 0.0078128 0.00781324 0.00781332 0.00781364 0.0078134 0.00781298 0.00781296 0.00781353 0.00781336 0.00781316 0.00781322 0.00781294 0.00781285 0.00781351 0.00781319 0.00781301 0.00781314 0.00781289 0.00781266 0.00781327 0.0078131 0.00781328 0.00781319 0.00781296 0.00781273 0.00781304 0.00781324 0.00781306 0.00781332 0.00781268 0.00781298 0.00781272 0.00781239 0.00781267 0.00781291 0.00781271 0.00781238 0.00781281 0.00781245 0.00781309 0.00781236 0.00781244 0.00781267 0.00781226 0.00781253 0.00781341 0.00781256 0.00784501 0.00783279 0.00785423 0.0078437 0.00782262 0.00783486 0.00783023 0.0078226 0.00783949 0.00783077 0.0078167 0.00782407 0.00782205 0.00781607 0.00782713 0.00782251 0.00781396 0.00781943 0.00781835 0.0078127 0.00782068 0.00781862 0.0078128 0.00781778 0.00781686 0.00781187 0.00781806 0.00781724 0.00781288 0.00781713 0.00781676 0.00781196 0.00781717 0.00781689 0.00781316 0.00781694 0.00781685 0.00781222 0.00781702 0.00781689 0.00781371 0.0078169 0.00781698 0.0078126 0.00781734 0.00781696 0.00781431 0.00781685 0.00781684 0.00781307 0.00781758 0.00781704 0.00781478 0.0078172 0.00781664 0.0078134 0.00781772 0.00781711 0.00781539 0.00781707 0.0078167 0.00781394 0.00781797 0.00781723 0.00781541 0.0078171 0.00781666 0.00781399 0.00781791 0.00781726 0.00781572 0.00781726 0.00781654 0.00781435 0.0078177 0.00781704 0.00781609 0.0078169 0.00781623 0.00781434 0.00781743 0.00781702 0.00781563 0.00781658 0.00781599 0.00781406 0.00781725 0.00781672 0.0078158 0.00781661 0.00781633 0.00781417 0.00781704 0.00781647 0.00781559 0.00781627 0.00781552 0.00781418 0.00781674 0.00781604 0.00781584 0.00781609 0.00781558 0.00781451 0.00781649 0.00781607 0.00781552 0.00781609 0.00781511 0.0078142 0.00781602 0.00781583 0.00781544 0.00781558 0.00781484 0.007814 0.00781567 0.00781562 0.00781548 0.00781514 0.00781473 0.00781383 0.00781526 0.00781537 0.00781491 0.00781517 0.0078144 0.00781373 0.00781529 0.0078149 0.00781452 0.00781466 0.0078146 0.00781392 0.00781476 0.00781461 0.00781469 0.00781446 0.00781377 0.00781373 0.00781437 0.00781419 0.00781433 0.00781457 0.00781376 0.00781333 0.00781431 0.00781398 0.00781407 0.00781427 0.00781347 0.00781344 0.00781419 0.00781404 0.00781397 0.00781359 0.00781303 0.0078131 0.00781329 0.00781402 0.00781357 0.00781343 0.00781311 0.00781284 0.00781371 0.00781357 0.00781341 0.00781314 0.00781294 0.00781281 0.00781283 0.00781341 0.007813 0.00781315 0.00781274 0.00781287 0.00781278 0.00781284 0.00781322 0.00781302 0.00781255 0.00781249 0.00781247 0.00781251 0.00781261 0.0078125 0.00781266 0.00781262 0.00781269 0.00781238 0.00781238 0.00781273 0.007868 0.00785556 0.0078951 0.00787824 0.00785401 0.00786451 0.00784401 0.00783806 0.00786384 0.00785448 0.00783687 0.00784369 0.00783344 0.00782877 0.00784148 0.00783871 0.0078285 0.00783358 0.00782922 0.00782445 0.00783163 0.00783158 0.00782465 0.00782928 0.00782749 0.00782245 0.00782836 0.0078278 0.0078231 0.00782686 0.00782652 0.00782161 0.0078271 0.00782626 0.00782261 0.00782561 0.00782559 0.00782104 0.00782603 0.00782516 0.00782244 0.0078248 0.00782522 0.00782085 0.00782569 0.00782476 0.00782242 0.00782422 0.00782428 0.00782033 0.00782494 0.00782398 0.00782199 0.00782369 0.0078235 0.0078201 0.00782455 0.00782359 0.00782157 0.00782312 0.00782302 0.00781976 0.00782371 0.00782293 0.00782103 0.00782268 0.00782233 0.00781944 0.00782313 0.00782224 0.00782084 0.0078219 0.00782142 0.00781931 0.00782231 0.00782163 0.00782061 0.00782141 0.00782086 0.00781868 0.00782187 0.00782137 0.00781977 0.00782068 0.00781995 0.00781798 0.00782099 0.00782048 0.00781923 0.00782014 0.00781943 0.00781791 0.00782034 0.00781972 0.00781893 0.00781956 0.00781871 0.0078172 0.00781933 0.00781884 0.00781826 0.00781881 0.00781824 0.00781673 0.00781862 0.00781868 0.00781782 0.00781842 0.00781727 0.00781655 0.0078183 0.00781793 0.00781724 0.00781796 0.00781699 0.00781596 0.00781766 0.00781733 0.00781675 0.00781708 0.0078162 0.00781556 0.00781704 0.00781675 0.00781674 0.00781667 0.00781594 0.00781507 0.00781659 0.00781649 0.00781573 0.00781611 0.00781518 0.00781491 0.00781582 0.00781595 0.00781568 0.00781583 0.00781497 0.0078145 0.00781533 0.00781558 0.00781519 0.00781539 0.00781453 0.00781415 0.00781452 0.00781527 0.00781469 0.00781478 0.00781425 0.00781384 0.00781455 0.00781441 0.00781398 0.00781446 0.00781358 0.00781353 0.00781397 0.00781397 0.00781402 0.0078143 0.00781341 0.00781329 0.00781354 0.00781403 0.00781345 0.00781341 0.00781321 0.00781295 0.00781324 0.00781339 0.00781318 0.00781362 0.00781286 0.00781292 0.00781294 0.00781297 0.00781331 0.00781314 0.007813 0.00781283 0.00781275 0.00781279 0.00781256 0.00781269 0.00781244 0.00781251 0.0078124 0.00781229 0.00781239 0.00781224 0.00789234 0.00787658 0.00793886 0.00791783 0.00788277 0.00789384 0.00785261 0.00785074 0.00787718 0.00787329 0.0078532 0.00786062 0.007843 0.00783976 0.00784892 0.00785165 0.00784015 0.00784595 0.00783985 0.00783485 0.00784114 0.00784235 0.00783543 0.00783948 0.00783783 0.00783264 0.00783838 0.00783786 0.00783306 0.00783613 0.00783616 0.00783097 0.00783688 0.0078353 0.0078318 0.00783413 0.00783471 0.00782981 0.00783522 0.0078335 0.00783081 0.00783261 0.00783324 0.00782877 0.00783406 0.00783208 0.00782972 0.00783133 0.00783196 0.0078277 0.00783249 0.0078309 0.00782911 0.00783036 0.00783027 0.00782678 0.00783088 0.00782972 0.00782816 0.00782921 0.00782921 0.0078259 0.0078299 0.00782854 0.00782687 0.00782799 0.00782754 0.00782476 0.00782817 0.00782747 0.00782579 0.00782691 0.00782666 0.00782389 0.00782713 0.00782633 0.00782499 0.00782592 0.00782518 0.00782287 0.00782605 0.00782525 0.00782394 0.00782473 0.00782408 0.00782196 0.00782441 0.0078243 0.00782278 0.00782366 0.00782322 0.00782107 0.00782343 0.0078231 0.00782206 0.0078227 0.00782159 0.00782035 0.00782229 0.0078221 0.00782119 0.00782148 0.00782062 0.00781924 0.00782134 0.00782139 0.00782032 0.00782056 0.00781993 0.0078187 0.00782026 0.00782031 0.00781937 0.00781981 0.00781897 0.00781794 0.00781935 0.00781931 0.00781842 0.00781871 0.00781839 0.00781706 0.00781812 0.00781853 0.00781766 0.00781809 0.00781717 0.0078163 0.00781732 0.00781759 0.00781696 0.00781716 0.00781629 0.00781568 0.00781667 0.00781719 0.00781639 0.00781651 0.00781587 0.00781509 0.00781587 0.00781621 0.00781557 0.00781611 0.00781501 0.00781468 0.00781541 0.00781582 0.00781505 0.00781553 0.00781425 0.00781451 0.00781464 0.00781519 0.00781462 0.00781467 0.00781403 0.00781403 0.00781422 0.00781421 0.00781407 0.00781455 0.00781334 0.00781377 0.00781382 0.00781409 0.00781363 0.0078136 0.00781306 0.00781305 0.00781323 0.00781341 0.00781316 0.00781322 0.00781287 0.0078129 0.00781284 0.00781323 0.0078127 0.00781302 0.00781244 0.00781271 0.00781278 0.00781296 0.00781253 0.00781249 0.00781242 0.00781246 0.00781241 0.00781266 0.00781228 0.00781214 0.00793757 0.00789818 0.00800862 0.00798084 0.00790532 0.00792578 0.00785691 0.00785914 0.00785197 0.00787954 0.00786133 0.00786858 0.00785324 0.00784955 0.00785241 0.00785833 0.00784978 0.00785346 0.00785093 0.00784547 0.00785198 0.00785143 0.00784572 0.00784819 0.00784834 0.00784265 0.00784953 0.0078472 0.00784327 0.00784497 0.00784575 0.00784053 0.00784691 0.00784444 0.0078412 0.00784266 0.00784393 0.00783883 0.00784414 0.00784192 0.0078394 0.00784055 0.00784155 0.00783677 0.00784214 0.00783993 0.00783769 0.00783887 0.00783929 0.00783481 0.00783988 0.00783811 0.00783583 0.00783698 0.00783721 0.00783327 0.00783766 0.00783634 0.00783402 0.00783513 0.00783525 0.0078319 0.00783572 0.00783447 0.00783265 0.00783319 0.00783328 0.00783015 0.00783382 0.00783269 0.00783104 0.00783154 0.00783149 0.00782868 0.00783166 0.00783109 0.00782928 0.00783009 0.00782969 0.0078271 0.00783023 0.00782942 0.00782788 0.00782836 0.0078279 0.00782584 0.00782842 0.00782766 0.00782647 0.00782686 0.00782667 0.00782445 0.00782655 0.00782653 0.00782489 0.00782545 0.00782485 0.0078233 0.00782514 0.00782512 0.00782367 0.0078241 0.00782343 0.00782211 0.00782357 0.00782366 0.00782221 0.00782282 0.00782224 0.00782094 0.00782223 0.00782221 0.00782121 0.00782169 0.00782084 0.00781969 0.00782077 0.00782105 0.00781989 0.00782051 0.00781998 0.00781898 0.00781987 0.00782003 0.00781905 0.00781932 0.00781866 0.00781785 0.00781872 0.00781869 0.00781808 0.00781849 0.0078174 0.00781717 0.00781779 0.00781762 0.00781715 0.00781743 0.00781678 0.00781616 0.00781658 0.00781707 0.00781637 0.00781632 0.00781552 0.00781539 0.00781595 0.00781586 0.00781527 0.00781552 0.00781498 0.00781502 0.00781504 0.00781542 0.00781476 0.00781482 0.00781474 0.00781443 0.0078145 0.00781492 0.00781414 0.00781463 0.00781355 0.0078141 0.00781421 0.00781435 0.0078139 0.00781412 0.00781342 0.00781335 0.00781311 0.00781346 0.00781333 0.00781324 0.00781288 0.00781318 0.0078129 0.00781347 0.00781302 0.00781304 0.00781261 0.00781286 0.00781244 0.00781253 0.00781284 0.00781287 0.00781258 0.00781277 0.00781252 0.00781256 0.00781208 0.00781202 0.00775136 0.00769105 0.00769779 0.00764547 0.00772192 0.00768811 0.00775672 0.00774562 0.00773554 0.00772174 0.00774113 0.00772981 0.00776469 0.00775175 0.00776186 0.00774533 0.00774859 0.00774712 0.00776652 0.00775743 0.00776763 0.00775745 0.00775756 0.00776049 0.0077701 0.00776488 0.00777089 0.00776676 0.0077658 0.00776987 0.00777532 0.00777119 0.00777523 0.00777391 0.00777306 0.00777705 0.00777996 0.00777735 0.00778005 0.00777963 0.00777866 0.00778197 0.00778431 0.0077818 0.00778479 0.00778427 0.00778377 0.00778624 0.00778834 0.00778643 0.00778848 0.00778804 0.00778747 0.00778962 0.00779126 0.00778933 0.00779208 0.00779117 0.00779059 0.00779213 0.00779397 0.00779249 0.00779459 0.00779369 0.00779368 0.00779452 0.0077964 0.00779501 0.00779712 0.00779607 0.00779587 0.00779702 0.00779847 0.00779694 0.00779911 0.00779813 0.00779807 0.00779899 0.00780059 0.00779903 0.00780096 0.00780019 0.0077997 0.00780083 0.00780179 0.00780111 0.00780297 0.0078019 0.00780171 0.00780253 0.00780349 0.00780271 0.00780429 0.00780311 0.00780371 0.00780388 0.00780508 0.00780415 0.00780559 0.00780488 0.00780489 0.00780515 0.00780641 0.00780519 0.00780684 0.00780607 0.00780624 0.00780652 0.00780716 0.00780644 0.00780762 0.00780684 0.00780704 0.00780738 0.00780797 0.0078076 0.00780855 0.00780818 0.00780819 0.00780817 0.00780903 0.00780873 0.00780946 0.0078089 0.00780928 0.00780937 0.00780984 0.00780944 0.00781036 0.00780979 0.00780992 0.00780993 0.00781066 0.0078105 0.00781095 0.00781066 0.00781097 0.00781086 0.00781142 0.00781104 0.00781136 0.00781105 0.00781139 0.00781113 0.00781125 0.00781145 0.00781174 0.00781185 0.00781171 0.0078117 0.00781186 0.00781203 0.00781243 0.00781186 0.00781206 0.00781256 0.00781219 0.00781232 0.00781257 0.00781262 0.00781233 0.00781231 0.00781219 0.00781289 0.00781264 0.00781245 0.00781304 0.00781286 0.00781243 0.00781325 0.00781294 0.00781245 0.00781292 0.00781261 0.0078129 0.00781271 0.00781306 0.00781294 0.00781292 0.00781281 0.00781299 0.00781272 0.0078129 0.0078126 0.00781261 0.00781271 0.00781276 0.0078127 0.0078126 0.00781263 0.00781281 0.00781258 0.00777399 0.0077559 0.00773838 0.00773031 0.00771947 0.00773389 0.00777404 0.00776785 0.00774774 0.00774732 0.00775121 0.00775705 0.00777454 0.00777163 0.00776603 0.00776335 0.00776637 0.00777038 0.00777778 0.00777382 0.00777698 0.00777312 0.00777387 0.00777779 0.00778152 0.00777697 0.00778259 0.00778002 0.00777911 0.00778345 0.00778497 0.00778113 0.00778604 0.0077855 0.00778372 0.00778762 0.0077881 0.00778486 0.0077891 0.00778963 0.00778776 0.00779145 0.00779143 0.00778852 0.00779243 0.00779255 0.00779133 0.00779445 0.00779443 0.00779156 0.00779517 0.00779563 0.00779414 0.00779666 0.00779667 0.00779434 0.00779769 0.00779757 0.00779671 0.00779864 0.00779883 0.00779652 0.00780017 0.00779949 0.00779905 0.00780043 0.00780075 0.00779867 0.00780198 0.00780139 0.00780079 0.00780192 0.00780229 0.00780058 0.00780352 0.00780284 0.00780266 0.00780337 0.00780401 0.00780235 0.00780513 0.00780435 0.00780393 0.00780473 0.00780486 0.00780395 0.00780613 0.00780519 0.00780505 0.00780578 0.0078063 0.00780497 0.00780752 0.00780635 0.0078064 0.00780703 0.00780703 0.00780616 0.00780843 0.00780744 0.00780744 0.00780763 0.00780813 0.00780738 0.00780915 0.00780832 0.00780827 0.00780844 0.00780939 0.00780839 0.00780987 0.00780891 0.00780942 0.00780943 0.00780967 0.00780906 0.00781045 0.00780979 0.00780987 0.00781006 0.00781004 0.0078098 0.00781121 0.00781048 0.00781054 0.00781033 0.00781082 0.00781041 0.00781162 0.00781116 0.00781107 0.00781112 0.00781135 0.00781066 0.00781165 0.00781121 0.00781175 0.00781172 0.0078115 0.00781152 0.00781192 0.00781193 0.00781222 0.00781193 0.00781195 0.00781163 0.00781236 0.00781179 0.00781219 0.00781222 0.00781227 0.00781218 0.00781278 0.00781238 0.00781253 0.00781237 0.00781262 0.00781253 0.00781275 0.00781269 0.00781283 0.0078125 0.00781267 0.00781248 0.00781294 0.00781237 0.00781299 0.00781298 0.00781268 0.00781304 0.00781312 0.00781298 0.00781281 0.00781263 0.00781298 0.00781267 0.00781312 0.0078128 0.00781294 0.0078127 0.00781248 0.00781316 0.00781269 0.00781264 0.00781284 0.00781246 0.00781248 0.00781254 0.00781279 0.00781264 0.00781315 0.00781283 0.00779807 0.00778328 0.00777797 0.00777231 0.00775502 0.00777121 0.00779572 0.00778709 0.00778011 0.00777782 0.00776808 0.00777926 0.00779179 0.00778614 0.00778584 0.00778511 0.00777943 0.00778702 0.00779149 0.00778672 0.00779105 0.00779023 0.007786 0.00779222 0.00779302 0.00778855 0.0077941 0.00779378 0.00779052 0.00779535 0.0077953 0.00779077 0.00779632 0.00779662 0.00779384 0.00779783 0.00779735 0.00779353 0.00779844 0.00779913 0.00779634 0.00780007 0.0077995 0.00779609 0.00780058 0.00780115 0.00779887 0.00780182 0.00780127 0.00779826 0.00780246 0.00780273 0.00780095 0.00780328 0.00780314 0.00780013 0.00780438 0.00780451 0.0078027 0.00780475 0.00780441 0.00780201 0.00780565 0.00780527 0.00780442 0.00780604 0.00780558 0.00780349 0.00780699 0.00780646 0.00780558 0.00780674 0.00780666 0.00780459 0.00780799 0.00780753 0.00780702 0.00780803 0.00780777 0.00780591 0.00780914 0.00780852 0.00780784 0.0078087 0.00780863 0.00780694 0.00780978 0.00780909 0.00780895 0.00780936 0.00780912 0.00780793 0.00781035 0.00780994 0.00780934 0.00781001 0.00780986 0.00780876 0.00781149 0.00781037 0.00781014 0.00781051 0.00781022 0.00780927 0.00781139 0.00781086 0.0078108 0.00781077 0.00781073 0.00780985 0.0078115 0.00781123 0.0078112 0.00781129 0.00781143 0.00781034 0.00781231 0.00781172 0.00781175 0.00781195 0.00781126 0.00781107 0.00781238 0.007812 0.0078121 0.00781202 0.00781163 0.00781192 0.00781273 0.00781213 0.00781243 0.00781228 0.00781204 0.00781179 0.00781272 0.00781241 0.00781255 0.00781228 0.00781245 0.00781201 0.00781271 0.00781258 0.00781313 0.00781272 0.00781263 0.00781206 0.00781283 0.00781269 0.00781298 0.00781303 0.00781247 0.00781234 0.0078131 0.00781269 0.00781317 0.00781281 0.00781239 0.0078123 0.00781293 0.00781293 0.00781316 0.00781304 0.00781318 0.00781269 0.00781321 0.00781327 0.00781331 0.007813 0.00781277 0.00781303 0.00781302 0.00781293 0.00781328 0.00781302 0.00781265 0.00781258 0.00781258 0.00781285 0.00781292 0.00781236 0.00781249 0.00781242 0.00781262 0.00781286 0.00781253 0.00781265 0.00781228 0.00781265 0.00781277 0.0078124 0.0078126 0.0078126 0.00782284 0.00780921 0.00781556 0.0078087 0.00778957 0.00780415 0.00781489 0.00780616 0.0078111 0.0078054 0.00779217 0.00780259 0.00780836 0.00780204 0.00780748 0.0078048 0.00779661 0.00780368 0.00780525 0.00780006 0.0078063 0.00780512 0.00779976 0.00780554 0.00780485 0.00780002 0.00780621 0.00780613 0.00780179 0.00780649 0.00780552 0.00780111 0.0078067 0.00780687 0.00780344 0.00780745 0.00780657 0.00780242 0.00780747 0.00780798 0.00780529 0.00780852 0.00780773 0.00780405 0.0078087 0.00780915 0.00780657 0.00780933 0.00780885 0.00780507 0.00780977 0.00780978 0.00780778 0.00781027 0.00780961 0.00780672 0.00781078 0.00781048 0.00780893 0.00781093 0.00781036 0.00780782 0.00781149 0.00781118 0.00780998 0.00781132 0.00781101 0.00780839 0.00781234 0.00781184 0.0078106 0.00781178 0.00781145 0.00780933 0.0078127 0.00781214 0.00781156 0.00781228 0.0078117 0.00780996 0.00781309 0.00781245 0.00781181 0.00781264 0.00781229 0.00781044 0.00781372 0.00781304 0.00781232 0.00781284 0.00781221 0.00781076 0.00781373 0.00781318 0.00781253 0.00781307 0.0078127 0.00781144 0.00781378 0.00781307 0.00781264 0.00781332 0.00781309 0.00781167 0.00781403 0.00781326 0.00781325 0.00781352 0.00781305 0.00781218 0.00781406 0.00781366 0.00781348 0.0078136 0.00781314 0.00781193 0.00781395 0.00781355 0.00781319 0.00781327 0.00781324 0.00781253 0.00781414 0.00781368 0.00781358 0.00781352 0.00781318 0.00781245 0.00781379 0.00781354 0.00781342 0.00781348 0.00781346 0.00781294 0.00781371 0.00781379 0.00781378 0.00781357 0.00781304 0.00781279 0.00781365 0.00781358 0.00781354 0.00781322 0.00781283 0.00781304 0.00781372 0.00781386 0.00781352 0.00781311 0.00781282 0.00781298 0.0078137 0.00781349 0.00781365 0.00781329 0.00781264 0.00781278 0.00781327 0.00781298 0.00781319 0.00781327 0.00781268 0.00781284 0.00781356 0.00781329 0.00781317 0.00781311 0.00781287 0.00781249 0.00781327 0.00781316 0.007813 0.00781265 0.00781255 0.0078128 0.00781285 0.00781322 0.00781307 0.00781297 0.00781315 0.00781257 0.00781298 0.0078129 0.00781313 0.00781275 0.0078126 0.00781261 0.00781245 0.00781269 0.00781243 0.00781259 0.00784742 0.00783453 0.00785371 0.00784337 0.0078225 0.0078353 0.00783187 0.00782402 0.00783964 0.0078319 0.00781587 0.00782523 0.0078225 0.00781655 0.00782736 0.00782359 0.00781337 0.00782004 0.00781794 0.00781254 0.0078205 0.00781939 0.00781277 0.00781809 0.00781637 0.00781146 0.00781779 0.00781741 0.00781298 0.00781701 0.00781598 0.00781127 0.00781704 0.00781682 0.00781337 0.00781668 0.00781612 0.00781193 0.00781707 0.0078165 0.00781375 0.00781654 0.00781627 0.00781204 0.00781741 0.00781674 0.00781439 0.00781694 0.00781621 0.00781252 0.00781726 0.00781684 0.00781483 0.00781664 0.00781635 0.00781313 0.00781746 0.00781703 0.0078153 0.00781695 0.00781623 0.00781361 0.00781761 0.00781699 0.00781598 0.007817 0.00781636 0.00781385 0.00781751 0.00781695 0.00781582 0.00781673 0.0078163 0.00781411 0.00781753 0.00781692 0.00781577 0.00781675 0.00781606 0.0078143 0.00781747 0.0078167 0.00781613 0.00781667 0.00781621 0.00781432 0.00781713 0.00781674 0.00781598 0.00781638 0.00781579 0.00781444 0.00781681 0.00781662 0.0078159 0.00781623 0.00781562 0.00781421 0.00781667 0.00781647 0.00781563 0.00781617 0.00781525 0.00781424 0.00781648 0.00781576 0.00781534 0.00781594 0.00781504 0.00781403 0.00781597 0.00781564 0.00781508 0.00781562 0.00781485 0.00781405 0.00781599 0.00781551 0.00781493 0.00781535 0.00781476 0.00781393 0.00781561 0.00781543 0.00781496 0.00781504 0.00781458 0.00781369 0.00781532 0.00781516 0.0078146 0.0078148 0.007814 0.00781371 0.00781473 0.00781474 0.00781458 0.0078149 0.00781383 0.0078136 0.00781461 0.00781431 0.00781433 0.00781445 0.00781356 0.00781357 0.00781394 0.00781421 0.00781393 0.00781408 0.00781341 0.00781318 0.00781388 0.00781378 0.00781357 0.00781398 0.00781319 0.00781314 0.00781383 0.00781357 0.00781351 0.00781392 0.00781299 0.00781305 0.00781348 0.00781336 0.00781334 0.00781338 0.00781284 0.00781304 0.00781315 0.00781333 0.00781291 0.00781311 0.00781288 0.00781297 0.00781303 0.00781314 0.00781297 0.00781325 0.00781257 0.00781278 0.00781275 0.00781286 0.00781266 0.00781279 0.0078124 0.00781266 0.00781254 0.0078123 0.00781269 0.00781211 0.0078713 0.00785806 0.00789518 0.00787873 0.00785356 0.00786532 0.00784604 0.00783969 0.00786452 0.00785658 0.00783723 0.0078465 0.00783428 0.00782933 0.00784255 0.00784042 0.00782875 0.00783555 0.00782933 0.00782443 0.00783226 0.00783236 0.00782493 0.00782963 0.0078273 0.00782206 0.00782841 0.00782825 0.00782352 0.007827 0.00782614 0.00782113 0.0078268 0.00782616 0.00782281 0.00782541 0.00782517 0.00782077 0.00782614 0.0078252 0.00782241 0.00782456 0.00782459 0.00782044 0.00782547 0.0078246 0.00782215 0.007824 0.0078239 0.00782011 0.007825 0.00782392 0.00782186 0.00782375 0.00782324 0.00781975 0.00782417 0.00782309 0.00782152 0.00782285 0.00782256 0.00781935 0.00782385 0.00782291 0.00782108 0.0078223 0.007822 0.00781927 0.00782308 0.00782244 0.00782072 0.0078219 0.00782122 0.00781897 0.00782233 0.00782145 0.00782063 0.00782127 0.00782072 0.00781848 0.0078217 0.00782108 0.00781978 0.00782088 0.0078199 0.00781803 0.00782089 0.00782023 0.00781954 0.00782002 0.00781909 0.00781764 0.00782022 0.00781993 0.00781869 0.00781924 0.00781861 0.00781718 0.00781948 0.00781933 0.00781838 0.00781879 0.00781807 0.0078167 0.00781896 0.00781876 0.00781784 0.00781815 0.00781759 0.00781628 0.007818 0.00781824 0.00781729 0.00781776 0.00781706 0.0078159 0.00781768 0.00781747 0.00781677 0.00781707 0.0078164 0.00781553 0.00781662 0.00781694 0.00781662 0.0078168 0.00781579 0.00781502 0.00781608 0.00781637 0.00781572 0.00781609 0.00781507 0.00781493 0.00781596 0.00781578 0.0078154 0.00781555 0.00781479 0.00781431 0.00781512 0.00781537 0.00781506 0.00781508 0.00781462 0.00781392 0.00781449 0.00781476 0.00781466 0.00781464 0.00781407 0.0078137 0.00781437 0.00781497 0.00781418 0.0078144 0.00781387 0.00781388 0.00781411 0.00781401 0.00781393 0.00781389 0.00781353 0.00781305 0.00781347 0.00781379 0.00781333 0.0078136 0.00781294 0.00781312 0.00781328 0.00781345 0.00781323 0.00781316 0.00781268 0.00781277 0.00781286 0.00781319 0.00781296 0.00781296 0.00781247 0.00781271 0.00781269 0.00781281 0.00781257 0.00781293 0.00781269 0.00781247 0.00781228 0.0078123 0.00781265 0.00781242 0.007896 0.00787991 0.00793913 0.00791899 0.00788296 0.00789472 0.00785495 0.0078522 0.00787883 0.00787625 0.00785446 0.00786465 0.00784439 0.00784025 0.00785048 0.00785362 0.00784104 0.00784817 0.00784039 0.00783518 0.00784149 0.00784323 0.00783586 0.00784054 0.00783794 0.00783258 0.0078386 0.00783836 0.00783337 0.00783653 0.00783607 0.00783079 0.00783694 0.0078353 0.00783231 0.00783413 0.00783471 0.00782954 0.00783541 0.00783349 0.00783086 0.00783252 0.00783301 0.00782839 0.00783385 0.00783229 0.0078296 0.00783139 0.00783156 0.00782728 0.00783278 0.00783081 0.0078286 0.00782989 0.00783015 0.0078265 0.00783116 0.00782969 0.00782808 0.00782906 0.00782884 0.00782523 0.00782983 0.0078287 0.00782688 0.00782815 0.00782743 0.00782459 0.00782823 0.00782757 0.00782603 0.00782678 0.00782635 0.00782376 0.00782683 0.00782629 0.00782475 0.00782564 0.00782495 0.00782278 0.00782555 0.00782505 0.00782388 0.0078248 0.00782398 0.00782203 0.0078244 0.00782413 0.00782295 0.0078235 0.00782261 0.00782089 0.00782353 0.00782295 0.00782192 0.00782246 0.00782159 0.00782024 0.00782241 0.00782196 0.00782088 0.00782187 0.00782067 0.00781932 0.00782109 0.0078211 0.00781996 0.00782062 0.00781958 0.00781842 0.00782014 0.00782024 0.00781965 0.00781955 0.00781884 0.00781771 0.00781952 0.00781924 0.00781842 0.00781861 0.007818 0.00781718 0.00781837 0.00781847 0.00781771 0.00781832 0.00781721 0.00781646 0.00781761 0.00781767 0.00781705 0.00781718 0.00781665 0.00781571 0.00781687 0.00781698 0.00781618 0.00781663 0.00781571 0.00781515 0.00781596 0.0078158 0.00781593 0.00781601 0.00781479 0.00781458 0.00781551 0.00781577 0.00781493 0.00781539 0.0078148 0.00781411 0.00781457 0.00781484 0.00781463 0.00781476 0.00781365 0.00781365 0.00781395 0.00781437 0.00781386 0.00781431 0.00781347 0.0078138 0.0078136 0.00781409 0.00781372 0.00781404 0.00781302 0.0078132 0.00781351 0.00781369 0.00781296 0.0078135 0.00781276 0.00781315 0.00781295 0.00781334 0.00781287 0.00781269 0.00781279 0.00781244 0.00781279 0.00781289 0.00781273 0.00781257 0.0078125 0.00781253 0.00781209 0.00781248 0.00781264 0.00781242 0.00794082 0.00790159 0.00801119 0.00798229 0.00790634 0.00792652 0.00785995 0.00786043 0.007855 0.00788239 0.00786366 0.00787234 0.0078551 0.00785009 0.00785356 0.0078604 0.00785122 0.00785544 0.00785192 0.00784553 0.00785309 0.00785203 0.00784627 0.00784929 0.00784894 0.00784282 0.00785022 0.00784776 0.00784349 0.00784547 0.00784634 0.00784031 0.00784737 0.00784457 0.00784118 0.00784287 0.00784384 0.00783872 0.00784446 0.00784212 0.00783951 0.00784066 0.00784162 0.00783653 0.00784242 0.00783979 0.00783752 0.00783869 0.00783977 0.0078349 0.00784008 0.00783799 0.00783555 0.00783685 0.00783732 0.00783339 0.00783759 0.00783618 0.00783406 0.00783491 0.00783532 0.00783161 0.0078357 0.00783437 0.00783244 0.00783319 0.00783337 0.00782999 0.00783349 0.00783259 0.00783081 0.00783136 0.00783117 0.00782835 0.0078315 0.00783066 0.00782908 0.00783008 0.00782954 0.00782691 0.00782985 0.0078292 0.00782765 0.00782821 0.00782779 0.00782584 0.0078282 0.00782768 0.00782633 0.00782705 0.00782639 0.00782431 0.0078269 0.0078263 0.00782489 0.0078255 0.00782492 0.007823 0.00782513 0.00782472 0.00782354 0.00782403 0.00782338 0.00782197 0.00782342 0.00782371 0.00782227 0.00782262 0.00782212 0.00782078 0.00782217 0.0078223 0.00782109 0.00782161 0.00782053 0.00781963 0.00782117 0.00782096 0.00781978 0.00782027 0.00781935 0.00781876 0.00781976 0.00781986 0.00781899 0.0078193 0.00781853 0.007818 0.00781865 0.00781882 0.00781852 0.00781841 0.00781769 0.0078171 0.0078176 0.00781785 0.00781698 0.00781738 0.00781641 0.00781616 0.00781645 0.00781689 0.00781606 0.00781662 0.00781571 0.00781557 0.00781593 0.00781612 0.00781518 0.00781569 0.00781501 0.00781445 0.00781505 0.00781523 0.00781455 0.0078148 0.0078145 0.00781441 0.00781446 0.00781443 0.0078144 0.00781439 0.00781383 0.00781386 0.00781375 0.0078138 0.00781355 0.00781376 0.00781332 0.00781319 0.00781336 0.0078134 0.00781324 0.00781346 0.00781282 0.0078129 0.00781306 0.00781313 0.00781289 0.00781298 0.00781302 0.00781232 0.00781248 0.00781288 0.00781283 0.00781276 0.00781234 0.00781232 0.00781237 0.0078128 0.00781238 0.00781278 0.00774996 0.00768886 0.00769847 0.00764666 0.00771981 0.00768685 0.0077567 0.00774701 0.00773481 0.00772093 0.0077401 0.00772877 0.00776522 0.00775358 0.00776133 0.00774499 0.00774826 0.0077469 0.00776689 0.00775868 0.00776723 0.00775813 0.00775674 0.00775993 0.00777001 0.00776554 0.00777085 0.00776766 0.0077657 0.00776974 0.00777446 0.00777172 0.00777539 0.00777455 0.00777314 0.00777681 0.00777954 0.00777729 0.00778044 0.00778031 0.00777907 0.00778183 0.00778409 0.00778195 0.00778476 0.00778469 0.00778374 0.00778606 0.00778808 0.0077859 0.00778873 0.00778852 0.00778769 0.00778958 0.00779109 0.00778919 0.00779217 0.00779116 0.00779089 0.00779223 0.00779386 0.00779224 0.00779483 0.00779368 0.00779347 0.00779482 0.0077965 0.00779449 0.00779709 0.00779611 0.00779587 0.00779698 0.00779851 0.00779722 0.00779935 0.00779823 0.00779823 0.00779893 0.00780056 0.00779909 0.00780102 0.00780005 0.00779987 0.00780049 0.00780205 0.00780093 0.00780293 0.00780175 0.00780182 0.00780234 0.00780363 0.00780263 0.00780439 0.00780331 0.00780351 0.0078038 0.00780499 0.00780428 0.00780528 0.00780469 0.00780537 0.00780533 0.00780622 0.00780554 0.00780674 0.00780577 0.00780596 0.00780634 0.00780727 0.00780665 0.00780782 0.00780705 0.00780711 0.00780753 0.00780833 0.0078079 0.00780854 0.00780784 0.0078082 0.00780846 0.00780896 0.00780897 0.00780948 0.00780913 0.00780917 0.00780955 0.00780998 0.00780963 0.00781047 0.00780957 0.00781018 0.00780991 0.00781078 0.00781019 0.00781112 0.00781027 0.00781066 0.00781058 0.00781098 0.00781121 0.00781148 0.00781106 0.00781131 0.00781142 0.00781154 0.00781138 0.00781184 0.00781163 0.00781161 0.00781167 0.00781196 0.00781191 0.00781203 0.007812 0.00781213 0.00781223 0.00781222 0.00781241 0.0078125 0.00781183 0.00781256 0.00781215 0.00781306 0.00781268 0.00781278 0.00781273 0.00781277 0.00781257 0.00781247 0.00781275 0.00781286 0.00781271 0.00781288 0.00781278 0.00781264 0.00781302 0.00781296 0.00781241 0.00781335 0.0078127 0.00781269 0.00781286 0.0078127 0.00781266 0.00781304 0.0078127 0.00781246 0.00781265 0.00781282 0.00781265 0.00781263 0.00781262 0.00777398 0.00775579 0.00773874 0.00773015 0.00771936 0.00773276 0.00777471 0.00776941 0.00774748 0.00774721 0.00775072 0.00775657 0.00777455 0.00777299 0.00776487 0.00776381 0.00776577 0.00777018 0.00777781 0.00777476 0.00777597 0.0077742 0.00777329 0.00777762 0.00778111 0.00777716 0.0077824 0.00778105 0.00777887 0.00778312 0.00778451 0.00778103 0.00778659 0.00778649 0.00778352 0.00778775 0.00778759 0.00778471 0.00778955 0.00779019 0.00778794 0.00779119 0.0077908 0.00778828 0.00779252 0.00779333 0.00779141 0.00779418 0.00779398 0.00779139 0.00779558 0.0077958 0.00779455 0.00779683 0.0077965 0.00779418 0.00779794 0.00779771 0.00779681 0.00779874 0.00779891 0.00779646 0.0078002 0.00779958 0.00779885 0.00780031 0.00780092 0.00779861 0.0078019 0.00780125 0.00780084 0.00780194 0.00780233 0.00780044 0.00780363 0.00780301 0.00780241 0.00780307 0.00780376 0.00780205 0.00780495 0.00780418 0.00780411 0.00780457 0.00780527 0.00780355 0.00780601 0.00780545 0.00780516 0.0078059 0.00780628 0.00780513 0.00780719 0.00780652 0.00780641 0.00780695 0.00780716 0.00780613 0.00780832 0.00780734 0.00780738 0.00780774 0.00780819 0.00780716 0.00780906 0.00780817 0.00780865 0.00780883 0.00780916 0.00780818 0.00780979 0.00780913 0.00780934 0.0078097 0.00780959 0.00780881 0.00781018 0.00780968 0.00781005 0.00781018 0.00781035 0.00780947 0.00781116 0.0078107 0.00781033 0.00781051 0.00781058 0.00781044 0.00781148 0.00781059 0.00781142 0.0078114 0.00781139 0.00781081 0.00781174 0.00781134 0.00781168 0.00781149 0.0078118 0.00781129 0.00781189 0.00781127 0.00781203 0.00781191 0.00781188 0.00781179 0.00781212 0.0078122 0.00781217 0.00781201 0.0078121 0.00781214 0.00781269 0.00781266 0.00781254 0.00781205 0.00781276 0.00781228 0.00781272 0.00781237 0.00781275 0.00781242 0.00781232 0.00781253 0.00781281 0.00781247 0.00781303 0.00781284 0.00781277 0.00781257 0.00781306 0.00781238 0.00781302 0.00781258 0.00781247 0.00781304 0.00781292 0.00781289 0.00781276 0.00781285 0.00781296 0.00781251 0.00781284 0.00781258 0.00781252 0.00781299 0.00781256 0.00781252 0.00781284 0.0078126 0.00781258 0.00781253 0.00779862 0.00778385 0.00777792 0.00777215 0.00775515 0.00777096 0.00779626 0.00778828 0.00777993 0.00777781 0.00776748 0.00777892 0.00779189 0.00778712 0.00778492 0.00778573 0.0077789 0.00778713 0.00779112 0.00778714 0.00779022 0.00779123 0.00778574 0.0077921 0.00779257 0.00778865 0.00779367 0.00779472 0.0077904 0.00779535 0.00779458 0.00779089 0.00779632 0.00779727 0.00779391 0.00779793 0.00779678 0.00779327 0.00779846 0.00779947 0.00779673 0.00780011 0.00779895 0.00779584 0.00780063 0.00780137 0.00779914 0.00780175 0.00780101 0.00779792 0.00780274 0.00780304 0.00780123 0.00780343 0.00780277 0.00780001 0.00780436 0.00780442 0.0078027 0.00780469 0.00780425 0.00780195 0.00780603 0.00780532 0.00780438 0.00780599 0.00780539 0.00780341 0.00780729 0.00780637 0.00780577 0.00780694 0.00780674 0.00780475 0.00780825 0.0078076 0.00780721 0.00780783 0.00780772 0.00780609 0.0078091 0.00780831 0.00780786 0.00780871 0.00780857 0.00780692 0.00780978 0.00780892 0.00780889 0.00780936 0.0078093 0.00780818 0.00781057 0.00780989 0.00780972 0.00781015 0.00780994 0.00780868 0.00781086 0.00781017 0.00781042 0.00781046 0.0078103 0.00780949 0.00781127 0.0078109 0.00781069 0.0078108 0.00781061 0.00781012 0.00781204 0.00781142 0.00781128 0.00781114 0.00781131 0.00781047 0.00781249 0.00781154 0.00781169 0.00781167 0.00781183 0.00781085 0.00781258 0.00781209 0.00781188 0.0078119 0.00781177 0.00781169 0.00781279 0.00781215 0.00781224 0.00781249 0.00781211 0.00781187 0.00781285 0.00781261 0.00781256 0.00781271 0.00781241 0.00781171 0.00781312 0.00781262 0.00781267 0.00781283 0.00781258 0.00781244 0.00781316 0.00781301 0.007813 0.00781266 0.0078124 0.00781251 0.00781308 0.00781278 0.00781312 0.00781265 0.00781246 0.00781257 0.00781319 0.00781246 0.00781319 0.00781295 0.00781313 0.00781264 0.0078133 0.007813 0.00781312 0.00781271 0.00781272 0.0078129 0.00781295 0.00781297 0.00781315 0.00781288 0.00781266 0.00781278 0.00781281 0.00781264 0.00781283 0.00781262 0.00781279 0.0078129 0.00781295 0.00781268 0.00781312 0.00781298 0.00781251 0.00781228 0.00781285 0.00781274 0.0078128 0.00781299 0.00782385 0.00781008 0.00781522 0.007809 0.00778926 0.00780442 0.0078154 0.00780684 0.00781043 0.00780565 0.00779149 0.00780283 0.0078087 0.00780274 0.0078069 0.00780547 0.00779581 0.00780374 0.00780493 0.00780044 0.00780593 0.00780596 0.00779935 0.00780524 0.0078043 0.00779999 0.00780601 0.00780681 0.0078019 0.00780653 0.00780505 0.00780122 0.00780673 0.0078077 0.00780374 0.00780745 0.00780626 0.00780219 0.00780779 0.00780845 0.00780524 0.00780837 0.00780725 0.00780392 0.00780888 0.00780919 0.00780701 0.00780939 0.00780841 0.0078051 0.00780989 0.00781005 0.00780802 0.00781004 0.00780943 0.00780659 0.00781076 0.00781075 0.00780907 0.00781096 0.0078102 0.00780741 0.00781166 0.00781134 0.00781013 0.00781169 0.00781098 0.00780856 0.00781253 0.00781198 0.0078106 0.00781172 0.0078114 0.00780932 0.0078128 0.00781205 0.00781138 0.00781229 0.00781153 0.00781004 0.00781292 0.00781283 0.00781203 0.00781236 0.00781234 0.00781039 0.00781336 0.00781294 0.00781241 0.00781293 0.00781257 0.00781099 0.00781362 0.00781314 0.00781253 0.00781299 0.00781251 0.00781151 0.00781379 0.00781304 0.00781295 0.00781313 0.00781291 0.00781179 0.00781385 0.00781338 0.00781313 0.00781321 0.00781288 0.0078121 0.00781405 0.00781361 0.00781315 0.00781359 0.00781297 0.00781225 0.00781405 0.00781345 0.00781355 0.00781348 0.0078129 0.00781238 0.00781382 0.00781354 0.00781344 0.00781383 0.00781307 0.00781228 0.00781392 0.00781335 0.00781349 0.00781361 0.00781287 0.00781285 0.00781379 0.00781357 0.00781374 0.00781353 0.00781322 0.00781257 0.0078139 0.00781339 0.00781336 0.00781349 0.00781285 0.00781282 0.00781367 0.00781385 0.00781337 0.00781315 0.00781336 0.00781297 0.00781322 0.00781336 0.0078132 0.0078132 0.00781308 0.00781301 0.00781347 0.007813 0.00781314 0.00781311 0.00781288 0.00781266 0.00781309 0.00781307 0.00781317 0.00781312 0.00781264 0.00781304 0.00781319 0.00781307 0.0078135 0.00781279 0.00781255 0.0078127 0.00781309 0.00781303 0.00781264 0.00781276 0.00781252 0.00781284 0.00781306 0.00781269 0.00781267 0.00781241 0.00781238 0.00781251 0.00781266 0.00781246 0.0078124 0.00781238 0.00784867 0.00783545 0.00785314 0.00784398 0.00782157 0.00783557 0.00783235 0.0078241 0.00783882 0.00783221 0.00781524 0.00782588 0.00782256 0.00781687 0.00782677 0.00782385 0.00781304 0.00782057 0.00781789 0.00781294 0.00782045 0.0078194 0.00781281 0.00781802 0.00781598 0.00781117 0.00781778 0.00781767 0.0078129 0.00781698 0.00781544 0.00781107 0.00781689 0.00781703 0.00781356 0.0078166 0.00781563 0.0078112 0.00781727 0.00781693 0.00781401 0.00781668 0.00781592 0.00781196 0.0078171 0.00781683 0.00781437 0.00781661 0.00781604 0.00781244 0.00781736 0.00781701 0.0078152 0.00781653 0.00781608 0.00781309 0.00781759 0.00781721 0.00781546 0.00781722 0.00781638 0.00781354 0.00781761 0.00781709 0.0078157 0.00781697 0.00781647 0.00781392 0.00781776 0.00781722 0.00781568 0.0078168 0.00781611 0.00781412 0.00781775 0.00781704 0.00781579 0.0078169 0.00781627 0.00781438 0.00781751 0.00781681 0.00781568 0.00781677 0.00781588 0.00781423 0.00781714 0.00781653 0.00781577 0.00781644 0.0078156 0.00781436 0.00781697 0.00781642 0.00781573 0.00781634 0.00781568 0.00781429 0.00781673 0.00781621 0.00781552 0.00781603 0.00781542 0.00781425 0.00781659 0.00781613 0.00781536 0.00781566 0.00781517 0.00781454 0.00781622 0.00781581 0.0078153 0.00781561 0.00781486 0.00781426 0.00781583 0.00781535 0.00781535 0.00781532 0.00781467 0.00781408 0.00781549 0.00781517 0.00781509 0.00781496 0.00781431 0.00781393 0.00781508 0.0078149 0.00781463 0.00781475 0.00781402 0.00781388 0.00781491 0.00781454 0.0078143 0.00781455 0.00781381 0.00781363 0.00781434 0.00781442 0.00781438 0.00781446 0.00781371 0.00781359 0.00781418 0.00781421 0.00781403 0.00781419 0.00781345 0.00781341 0.00781377 0.00781386 0.00781417 0.00781392 0.00781321 0.00781324 0.00781366 0.00781372 0.00781396 0.00781403 0.00781313 0.00781299 0.00781356 0.00781342 0.00781335 0.00781352 0.0078129 0.00781321 0.00781329 0.00781351 0.00781342 0.00781291 0.00781304 0.00781229 0.007813 0.00781312 0.00781288 0.00781314 0.00781267 0.00781254 0.00781235 0.00781277 0.00781285 0.00781266 0.00781229 0.00781252 0.00781219 0.00781242 0.00781277 0.00781275 0.00787277 0.00785901 0.00789419 0.00787938 0.00785273 0.00786562 0.00784639 0.00783981 0.00786412 0.00785723 0.00783678 0.00784746 0.00783415 0.00782909 0.00784228 0.00784044 0.00782873 0.00783627 0.00782949 0.00782437 0.00783235 0.00783226 0.00782491 0.00782999 0.00782709 0.00782208 0.00782849 0.00782812 0.00782372 0.00782702 0.00782587 0.00782109 0.00782692 0.00782624 0.00782303 0.00782566 0.00782511 0.00782067 0.00782626 0.00782528 0.00782263 0.00782458 0.00782435 0.00782017 0.00782569 0.00782449 0.00782242 0.00782388 0.00782372 0.00782004 0.00782493 0.00782426 0.00782207 0.00782338 0.00782296 0.00781968 0.00782425 0.00782351 0.00782163 0.0078232 0.00782259 0.0078194 0.00782371 0.00782282 0.00782158 0.00782238 0.00782175 0.00781925 0.00782301 0.00782226 0.00782087 0.00782184 0.00782096 0.00781865 0.00782231 0.00782179 0.00782041 0.00782132 0.00782043 0.00781854 0.00782173 0.00782124 0.00781976 0.00782061 0.00781972 0.00781812 0.00782107 0.00782038 0.00781947 0.00781998 0.00781929 0.00781759 0.00782028 0.00781978 0.00781875 0.00781966 0.00781853 0.00781741 0.00781925 0.00781906 0.00781843 0.00781881 0.0078183 0.00781687 0.00781902 0.00781846 0.00781797 0.00781827 0.00781742 0.00781644 0.00781801 0.00781781 0.0078174 0.0078178 0.00781667 0.00781586 0.00781744 0.00781747 0.00781676 0.00781719 0.00781627 0.00781558 0.00781714 0.00781669 0.00781623 0.00781685 0.00781566 0.0078153 0.00781646 0.00781618 0.00781579 0.00781591 0.00781522 0.00781498 0.00781565 0.00781552 0.00781523 0.00781559 0.00781475 0.00781451 0.0078155 0.00781531 0.00781496 0.00781507 0.00781438 0.00781425 0.00781485 0.00781491 0.00781453 0.00781478 0.00781392 0.00781358 0.00781446 0.00781447 0.00781448 0.00781411 0.00781349 0.0078138 0.00781411 0.00781427 0.00781395 0.00781376 0.00781315 0.00781335 0.00781354 0.0078138 0.00781338 0.00781354 0.00781309 0.00781328 0.00781306 0.00781334 0.00781315 0.0078128 0.00781302 0.00781289 0.00781305 0.00781337 0.0078128 0.00781278 0.00781272 0.00781265 0.00781275 0.00781289 0.00781306 0.00781275 0.00781249 0.00781256 0.007812 0.00781273 0.00781233 0.00781256 0.0078974 0.00788064 0.00793834 0.00792035 0.00788188 0.00789512 0.0078553 0.00785199 0.00787822 0.00787664 0.00785445 0.00786607 0.00784401 0.00783986 0.00785063 0.00785379 0.00784141 0.00784916 0.00784052 0.00783522 0.00784187 0.00784289 0.00783593 0.00784047 0.00783812 0.00783232 0.0078389 0.00783796 0.00783329 0.00783653 0.0078362 0.00783094 0.00783673 0.00783513 0.00783227 0.00783409 0.00783479 0.00782961 0.00783542 0.00783339 0.00783111 0.00783263 0.00783299 0.00782849 0.00783384 0.00783215 0.00782972 0.00783147 0.00783151 0.00782735 0.00783251 0.00783074 0.00782906 0.0078301 0.00783007 0.00782655 0.00783129 0.00782986 0.00782806 0.00782911 0.00782875 0.00782556 0.00782986 0.00782868 0.00782689 0.00782791 0.00782751 0.00782471 0.00782814 0.00782754 0.00782589 0.00782691 0.00782623 0.00782365 0.00782718 0.00782633 0.00782481 0.00782568 0.00782503 0.00782281 0.00782589 0.00782535 0.00782381 0.0078246 0.00782367 0.00782184 0.0078247 0.00782411 0.00782259 0.00782355 0.00782278 0.00782102 0.00782345 0.00782314 0.00782194 0.00782291 0.00782152 0.00782035 0.00782238 0.00782192 0.00782104 0.00782148 0.00782065 0.00781931 0.00782126 0.0078212 0.0078198 0.00782047 0.00781958 0.0078187 0.0078203 0.00782006 0.00781942 0.00781976 0.00781879 0.00781797 0.00781928 0.00781951 0.0078183 0.00781868 0.00781783 0.00781728 0.00781843 0.00781852 0.00781754 0.00781795 0.00781719 0.00781649 0.00781737 0.0078175 0.007817 0.00781744 0.00781639 0.00781607 0.0078167 0.00781688 0.0078166 0.00781646 0.00781562 0.00781532 0.00781592 0.007816 0.00781573 0.00781595 0.00781517 0.0078148 0.00781529 0.0078158 0.00781506 0.00781516 0.00781442 0.00781426 0.00781447 0.007815 0.00781462 0.0078147 0.0078139 0.00781419 0.00781424 0.00781435 0.00781396 0.00781414 0.00781349 0.00781391 0.00781345 0.00781413 0.00781358 0.00781384 0.00781284 0.00781318 0.00781324 0.00781351 0.00781311 0.00781303 0.00781258 0.00781324 0.00781289 0.00781335 0.00781302 0.00781305 0.00781254 0.00781278 0.00781253 0.0078129 0.00781261 0.00781258 0.00781252 0.00781209 0.00781239 0.00781248 0.00781228 0.00781248 0.00794094 0.00790253 0.00801059 0.0079826 0.00790635 0.00792648 0.00786099 0.00785994 0.00785515 0.00788309 0.00786399 0.00787354 0.00785566 0.00784965 0.00785384 0.00786039 0.00785147 0.00785643 0.00785218 0.00784528 0.00785301 0.0078519 0.00784646 0.0078494 0.00784887 0.00784281 0.00785013 0.00784736 0.00784339 0.0078456 0.00784644 0.00784053 0.0078471 0.00784455 0.00784138 0.00784283 0.00784364 0.00783845 0.00784472 0.0078422 0.00783964 0.00784088 0.0078416 0.00783667 0.00784211 0.00784024 0.00783763 0.00783879 0.00783958 0.00783507 0.00783989 0.00783799 0.00783586 0.00783703 0.00783737 0.0078333 0.00783754 0.007836 0.00783402 0.007835 0.00783505 0.00783147 0.0078354 0.00783408 0.0078324 0.00783324 0.00783337 0.00782988 0.00783352 0.00783264 0.00783087 0.00783155 0.00783148 0.00782839 0.00783185 0.00783084 0.00782924 0.00783013 0.00782951 0.00782711 0.00782982 0.00782919 0.00782764 0.00782826 0.00782787 0.00782567 0.0078281 0.00782771 0.00782634 0.00782677 0.00782647 0.00782443 0.00782645 0.00782622 0.00782507 0.00782527 0.00782486 0.00782327 0.00782529 0.00782499 0.00782375 0.00782402 0.00782315 0.00782193 0.00782365 0.00782336 0.00782246 0.0078225 0.00782192 0.00782059 0.0078224 0.00782221 0.00782129 0.00782163 0.00782087 0.0078195 0.00782091 0.00782092 0.00782004 0.0078203 0.00781948 0.00781896 0.00781984 0.0078199 0.00781902 0.00781928 0.00781857 0.00781785 0.0078188 0.00781875 0.00781769 0.00781802 0.00781752 0.00781706 0.00781782 0.00781764 0.00781714 0.00781738 0.00781627 0.00781624 0.00781645 0.00781699 0.00781622 0.00781654 0.00781568 0.00781553 0.00781593 0.00781638 0.00781567 0.0078155 0.00781502 0.0078147 0.00781527 0.00781504 0.00781522 0.007815 0.0078141 0.00781424 0.00781439 0.00781478 0.00781428 0.00781443 0.00781403 0.00781392 0.0078138 0.00781396 0.00781381 0.00781392 0.00781305 0.00781357 0.00781359 0.00781358 0.00781329 0.00781326 0.00781301 0.00781303 0.00781289 0.00781328 0.00781292 0.0078129 0.00781286 0.00781288 0.0078129 0.00781288 0.00781275 0.00781276 0.00781217 0.00781244 0.00781276 0.00781274 0.00781212 0.00781222 0.00775208 0.00769157 0.00770147 0.00765327 0.00772028 0.00769009 0.00775899 0.00775142 0.00773672 0.00772374 0.00774129 0.00773127 0.0077673 0.00775764 0.00776274 0.00774868 0.00774982 0.00774934 0.00776844 0.00776199 0.00776864 0.00776178 0.0077584 0.00776193 0.00777115 0.00776775 0.00777232 0.00777045 0.00776694 0.00777106 0.00777511 0.00777303 0.00777629 0.0077764 0.00777419 0.00777782 0.00777973 0.00777813 0.00778098 0.00778106 0.00777988 0.00778231 0.00778398 0.00778213 0.0077853 0.00778536 0.00778419 0.00778619 0.00778813 0.00778596 0.00778905 0.00778845 0.00778795 0.00778943 0.00779094 0.00778934 0.00779219 0.00779135 0.00779075 0.00779213 0.00779391 0.00779215 0.00779498 0.00779368 0.00779322 0.00779466 0.00779625 0.00779459 0.00779733 0.00779587 0.00779605 0.00779718 0.00779856 0.007797 0.00779915 0.00779797 0.00779836 0.00779892 0.00780023 0.00779917 0.00780092 0.00779988 0.00780013 0.00780083 0.00780197 0.00780064 0.00780251 0.00780153 0.00780173 0.0078022 0.00780408 0.00780262 0.00780447 0.00780338 0.00780337 0.00780394 0.00780508 0.00780437 0.00780529 0.00780442 0.00780494 0.00780532 0.00780612 0.00780537 0.00780677 0.0078057 0.00780591 0.00780633 0.00780752 0.00780654 0.00780767 0.0078067 0.00780752 0.00780746 0.00780821 0.0078078 0.0078087 0.00780802 0.00780844 0.00780832 0.00780935 0.00780835 0.00780935 0.00780895 0.00780949 0.00780941 0.00781005 0.00780931 0.0078101 0.00780953 0.0078101 0.00781012 0.00781056 0.00781025 0.00781053 0.00781046 0.00781076 0.00781053 0.00781113 0.00781102 0.00781127 0.00781092 0.00781131 0.00781114 0.00781125 0.00781129 0.00781181 0.00781135 0.00781202 0.0078118 0.00781193 0.0078115 0.00781231 0.00781199 0.00781222 0.00781244 0.00781238 0.00781243 0.00781271 0.00781228 0.0078127 0.00781256 0.0078126 0.00781246 0.00781268 0.00781225 0.00781279 0.00781271 0.0078126 0.00781302 0.00781299 0.00781267 0.007813 0.00781298 0.00781251 0.00781323 0.00781285 0.00781288 0.00781299 0.00781283 0.00781269 0.00781277 0.00781276 0.00781298 0.00781271 0.00781279 0.00781288 0.00781301 0.00781269 0.00781242 0.00781248 0.00781275 0.00777561 0.00775794 0.0077404 0.0077318 0.00772144 0.00773406 0.00777651 0.00777333 0.00774876 0.0077491 0.00775254 0.0077587 0.00777603 0.00777637 0.0077663 0.00776693 0.00776675 0.00777212 0.00777884 0.00777694 0.00777723 0.00777722 0.00777425 0.0077794 0.00778168 0.00777853 0.00778315 0.00778382 0.00777979 0.0077846 0.00778474 0.0077814 0.0077868 0.00778792 0.00778458 0.00778867 0.00778782 0.00778491 0.00779015 0.00779125 0.0077887 0.00779188 0.00779114 0.00778859 0.007793 0.00779369 0.00779203 0.00779445 0.00779403 0.00779129 0.00779589 0.00779583 0.00779478 0.00779663 0.00779644 0.00779441 0.00779829 0.00779788 0.00779702 0.00779831 0.0077987 0.00779632 0.00780013 0.00779967 0.00779933 0.00780029 0.00780083 0.00779863 0.00780213 0.00780122 0.00780078 0.00780196 0.00780266 0.00780041 0.00780374 0.00780255 0.00780271 0.00780303 0.00780394 0.00780203 0.00780507 0.00780413 0.00780388 0.00780441 0.00780511 0.00780385 0.00780595 0.00780515 0.00780521 0.00780561 0.00780649 0.00780482 0.00780691 0.00780629 0.00780649 0.00780681 0.00780758 0.00780636 0.0078082 0.00780736 0.00780748 0.00780771 0.00780789 0.00780712 0.00780917 0.0078082 0.00780838 0.00780834 0.00780913 0.0078078 0.00780975 0.00780897 0.00780925 0.00780952 0.00780979 0.00780922 0.00781068 0.00780988 0.00781009 0.00781028 0.00781022 0.0078096 0.00781075 0.00781053 0.00781076 0.00781033 0.00781035 0.00781051 0.00781154 0.00781096 0.0078112 0.00781132 0.00781152 0.00781058 0.00781168 0.00781077 0.00781177 0.00781168 0.00781168 0.00781166 0.00781211 0.00781193 0.00781205 0.00781199 0.00781192 0.00781175 0.00781223 0.0078122 0.00781198 0.00781221 0.00781226 0.007812 0.00781287 0.00781197 0.00781267 0.00781246 0.00781245 0.00781254 0.00781284 0.00781266 0.00781272 0.00781235 0.00781285 0.00781246 0.00781274 0.00781254 0.00781269 0.00781275 0.00781256 0.00781252 0.00781294 0.00781284 0.0078127 0.0078131 0.00781242 0.00781314 0.00781299 0.00781243 0.00781292 0.00781289 0.00781279 0.00781267 0.00781278 0.00781259 0.00781321 0.00781277 0.00781239 0.00781257 0.00781275 0.00781299 0.00781253 0.00781246 0.00779942 0.00778534 0.00777829 0.00777317 0.00775564 0.00777209 0.00779714 0.00779125 0.00778021 0.00777895 0.00776855 0.00777981 0.00779304 0.00778944 0.00778555 0.00778751 0.00777985 0.00778821 0.00779178 0.00778904 0.00779094 0.00779335 0.00778679 0.00779349 0.00779284 0.00778947 0.00779419 0.00779658 0.00779116 0.00779629 0.00779471 0.00779151 0.00779683 0.00779858 0.00779494 0.00779852 0.00779683 0.00779358 0.00779907 0.00780048 0.00779734 0.00780038 0.00779896 0.00779604 0.00780125 0.00780182 0.00779952 0.00780209 0.00780118 0.00779824 0.007803 0.00780296 0.00780152 0.00780364 0.00780264 0.00780042 0.00780458 0.00780393 0.00780335 0.00780476 0.00780423 0.00780187 0.00780616 0.00780574 0.00780453 0.00780612 0.00780549 0.00780363 0.00780723 0.00780667 0.00780604 0.00780696 0.0078067 0.00780497 0.00780807 0.00780738 0.00780689 0.00780778 0.00780767 0.00780618 0.00780921 0.0078082 0.00780787 0.00780872 0.00780868 0.00780704 0.00780982 0.0078091 0.0078091 0.00780927 0.00780945 0.00780765 0.00781033 0.00780967 0.00780927 0.00780982 0.00780995 0.00780873 0.00781101 0.00781037 0.00781018 0.00781047 0.00781037 0.00780973 0.00781156 0.00781075 0.00781051 0.0078108 0.0078108 0.00780998 0.00781175 0.00781128 0.00781122 0.00781145 0.00781118 0.00781055 0.00781227 0.00781133 0.0078117 0.00781172 0.00781174 0.00781088 0.00781268 0.00781185 0.00781177 0.00781224 0.00781182 0.00781178 0.00781278 0.00781203 0.00781243 0.00781265 0.00781216 0.00781173 0.00781286 0.0078123 0.00781265 0.00781241 0.00781245 0.00781202 0.00781252 0.00781255 0.00781275 0.0078127 0.00781245 0.00781229 0.0078132 0.0078125 0.00781277 0.00781279 0.0078124 0.00781255 0.00781303 0.00781314 0.00781288 0.0078128 0.00781266 0.00781275 0.00781291 0.00781282 0.00781299 0.00781272 0.00781266 0.00781245 0.00781324 0.00781273 0.0078134 0.00781295 0.00781273 0.00781276 0.00781293 0.00781272 0.00781316 0.00781273 0.00781259 0.00781285 0.00781277 0.00781285 0.00781329 0.00781285 0.0078126 0.00781292 0.00781293 0.00781278 0.00781298 0.00781282 0.00781263 0.00781246 0.00781261 0.00781254 0.0078127 0.00781274 0.00782428 0.00781074 0.00781471 0.00780993 0.00778878 0.00780497 0.00781537 0.00780788 0.00781009 0.00780605 0.00779155 0.00780307 0.0078085 0.0078041 0.00780649 0.0078059 0.00779664 0.00780454 0.00780524 0.00780112 0.00780621 0.00780686 0.00780017 0.00780615 0.00780437 0.00780058 0.00780644 0.00780772 0.00780287 0.00780705 0.00780515 0.00780124 0.00780737 0.00780843 0.00780439 0.00780805 0.00780624 0.00780253 0.00780821 0.00780865 0.00780612 0.00780885 0.00780744 0.00780418 0.0078092 0.00780989 0.00780699 0.00780962 0.00780863 0.00780547 0.00781016 0.00781038 0.00780842 0.00781043 0.00780949 0.00780686 0.00781106 0.00781078 0.00780938 0.00781059 0.00781041 0.00780778 0.00781192 0.00781156 0.00781001 0.00781155 0.00781092 0.0078087 0.0078123 0.00781192 0.00781062 0.00781205 0.00781144 0.00780942 0.00781277 0.00781216 0.00781125 0.00781253 0.0078119 0.0078102 0.00781341 0.00781249 0.00781184 0.00781244 0.00781226 0.00781066 0.00781352 0.00781289 0.00781216 0.00781284 0.00781263 0.00781089 0.00781379 0.00781312 0.00781245 0.0078132 0.0078129 0.00781152 0.00781388 0.00781318 0.00781309 0.00781335 0.00781296 0.00781193 0.00781416 0.00781337 0.00781343 0.00781374 0.00781324 0.00781232 0.0078139 0.00781333 0.00781319 0.00781365 0.00781318 0.00781199 0.00781418 0.00781354 0.00781296 0.00781353 0.00781321 0.00781252 0.00781404 0.00781347 0.00781351 0.00781349 0.00781329 0.00781253 0.00781356 0.00781359 0.00781316 0.00781345 0.00781305 0.00781284 0.00781347 0.00781367 0.00781367 0.00781371 0.00781308 0.00781288 0.00781381 0.00781336 0.0078138 0.00781336 0.00781323 0.0078128 0.00781337 0.00781358 0.00781321 0.00781326 0.00781295 0.00781281 0.0078134 0.00781331 0.00781365 0.00781354 0.00781301 0.00781293 0.00781306 0.00781329 0.00781331 0.00781345 0.00781259 0.00781271 0.00781328 0.00781327 0.00781301 0.00781316 0.00781296 0.00781295 0.00781297 0.00781271 0.0078129 0.00781292 0.00781289 0.00781292 0.00781301 0.00781319 0.00781294 0.00781293 0.00781285 0.00781279 0.00781291 0.00781294 0.00781292 0.00781294 0.00781254 0.00781265 0.00781244 0.00781243 0.00781268 0.00781245 0.00784857 0.00783493 0.00785217 0.00784495 0.00782019 0.00783597 0.00783173 0.00782371 0.00783761 0.00783165 0.00781489 0.0078257 0.00782209 0.00781695 0.00782624 0.00782298 0.00781342 0.00782042 0.00781776 0.00781292 0.00782004 0.00781941 0.00781319 0.00781838 0.0078159 0.00781154 0.007818 0.007818 0.00781373 0.00781722 0.00781563 0.00781144 0.00781727 0.00781761 0.00781388 0.00781669 0.00781571 0.00781174 0.00781737 0.00781735 0.00781448 0.00781682 0.0078159 0.00781224 0.00781758 0.0078172 0.00781501 0.00781676 0.00781622 0.00781309 0.00781762 0.00781739 0.00781535 0.00781683 0.00781601 0.0078135 0.00781777 0.00781721 0.00781549 0.00781694 0.00781628 0.00781394 0.00781781 0.00781732 0.00781579 0.00781722 0.00781635 0.00781416 0.00781776 0.00781706 0.00781601 0.00781676 0.00781641 0.00781437 0.0078177 0.00781711 0.00781587 0.00781706 0.00781599 0.0078143 0.00781743 0.00781679 0.00781604 0.00781669 0.00781599 0.00781432 0.00781698 0.00781687 0.00781577 0.00781636 0.00781598 0.00781449 0.00781698 0.00781679 0.00781561 0.00781633 0.00781585 0.00781452 0.0078168 0.00781626 0.00781524 0.00781601 0.00781518 0.00781451 0.00781645 0.00781572 0.0078154 0.00781602 0.00781511 0.00781437 0.00781624 0.00781585 0.00781531 0.00781592 0.00781477 0.00781415 0.0078157 0.00781546 0.00781487 0.00781547 0.00781475 0.00781427 0.00781544 0.0078154 0.00781501 0.00781509 0.00781466 0.00781395 0.00781537 0.00781493 0.0078149 0.00781483 0.00781413 0.00781369 0.00781469 0.00781463 0.00781434 0.00781462 0.00781388 0.00781384 0.00781484 0.00781417 0.0078143 0.00781423 0.00781379 0.00781362 0.00781387 0.00781409 0.00781414 0.00781384 0.00781345 0.00781345 0.00781381 0.00781404 0.00781387 0.00781401 0.00781336 0.00781322 0.00781346 0.00781377 0.00781392 0.00781374 0.00781321 0.00781306 0.00781325 0.00781352 0.00781294 0.0078134 0.00781305 0.00781309 0.00781324 0.00781309 0.00781334 0.00781279 0.00781298 0.00781257 0.00781292 0.00781306 0.00781301 0.00781297 0.00781259 0.00781254 0.00781259 0.00781283 0.00781275 0.00781265 0.00781249 0.00781255 0.00781249 0.00781261 0.00781244 0.00781237 0.00787212 0.00785775 0.0078932 0.00788117 0.00785075 0.00786611 0.00784516 0.00783785 0.00786234 0.00785599 0.00783581 0.00784677 0.00783376 0.00782833 0.00784122 0.00783841 0.00782842 0.00783568 0.00782923 0.00782432 0.00783183 0.00783098 0.00782549 0.00782969 0.00782735 0.00782238 0.00782854 0.00782792 0.00782393 0.00782703 0.007826 0.0078214 0.00782728 0.00782638 0.00782331 0.00782571 0.00782513 0.00782083 0.00782644 0.00782549 0.00782303 0.00782471 0.00782446 0.0078205 0.0078255 0.00782473 0.00782259 0.0078243 0.0078239 0.00782009 0.00782496 0.007824 0.00782219 0.00782375 0.00782311 0.00782028 0.00782439 0.00782358 0.00782196 0.00782309 0.00782251 0.00781973 0.00782368 0.00782301 0.00782131 0.0078227 0.00782185 0.00781944 0.00782321 0.00782251 0.00782092 0.00782189 0.00782122 0.00781904 0.00782234 0.00782181 0.00782044 0.00782134 0.00782063 0.00781873 0.00782182 0.00782115 0.00781982 0.00782082 0.00781974 0.00781816 0.00782106 0.00782021 0.00781967 0.00782022 0.00781926 0.00781767 0.00782037 0.00781962 0.00781876 0.00781955 0.00781859 0.00781736 0.00781952 0.00781913 0.00781831 0.00781884 0.00781787 0.00781696 0.00781904 0.00781863 0.00781795 0.00781821 0.00781741 0.00781642 0.00781797 0.00781814 0.00781755 0.00781761 0.00781683 0.00781583 0.00781736 0.00781763 0.00781686 0.00781689 0.00781615 0.00781539 0.00781661 0.00781689 0.00781623 0.00781675 0.00781556 0.00781533 0.00781625 0.00781619 0.00781551 0.007816 0.00781508 0.00781489 0.00781582 0.00781578 0.00781516 0.00781588 0.00781487 0.00781466 0.0078154 0.00781522 0.00781488 0.00781548 0.00781443 0.00781409 0.00781482 0.00781499 0.00781468 0.00781463 0.00781426 0.00781411 0.00781439 0.00781446 0.00781417 0.00781382 0.00781363 0.00781354 0.00781376 0.00781392 0.00781385 0.00781425 0.00781344 0.00781359 0.00781387 0.00781346 0.00781348 0.0078135 0.00781314 0.00781314 0.0078134 0.00781366 0.0078132 0.00781325 0.00781259 0.00781292 0.00781321 0.00781313 0.00781277 0.00781291 0.00781261 0.00781265 0.00781269 0.00781277 0.00781288 0.00781276 0.00781235 0.00781202 0.00781207 0.00781235 0.00781238 0.00781212 0.00789639 0.00787908 0.00793775 0.0079221 0.00788003 0.00789478 0.00785367 0.00784929 0.00787674 0.00787506 0.00785323 0.00786463 0.00784302 0.00783835 0.00784954 0.00785123 0.00784118 0.00784824 0.00784008 0.00783459 0.00784148 0.00784138 0.00783601 0.00784006 0.00783787 0.00783228 0.00783855 0.00783704 0.00783376 0.00783635 0.00783594 0.0078309 0.00783673 0.00783521 0.00783238 0.00783429 0.00783443 0.0078296 0.00783555 0.00783352 0.00783087 0.00783269 0.00783294 0.00782845 0.00783396 0.00783223 0.00782998 0.00783165 0.00783151 0.00782756 0.00783252 0.00783125 0.00782898 0.00783022 0.00783006 0.00782672 0.00783114 0.0078297 0.00782805 0.00782919 0.00782865 0.00782575 0.00782971 0.00782879 0.00782711 0.00782804 0.00782747 0.00782514 0.00782811 0.00782773 0.00782616 0.00782668 0.00782637 0.00782385 0.00782705 0.00782653 0.00782482 0.00782584 0.00782511 0.00782304 0.00782573 0.00782531 0.00782391 0.00782487 0.00782374 0.00782205 0.00782456 0.00782413 0.00782307 0.00782378 0.00782293 0.00782111 0.00782352 0.00782317 0.00782187 0.00782269 0.00782163 0.00782046 0.00782257 0.0078222 0.00782126 0.00782168 0.00782049 0.00781951 0.00782131 0.0078213 0.00782004 0.00782073 0.00781949 0.00781883 0.00782032 0.00782022 0.00781951 0.00781987 0.0078187 0.00781793 0.00781931 0.00781903 0.00781868 0.00781882 0.00781769 0.00781718 0.00781835 0.00781863 0.00781797 0.00781787 0.00781718 0.00781653 0.00781755 0.00781776 0.00781696 0.00781744 0.00781628 0.00781602 0.00781706 0.0078171 0.0078165 0.00781668 0.00781563 0.00781552 0.00781623 0.00781614 0.00781562 0.00781581 0.00781494 0.00781487 0.00781538 0.00781552 0.0078152 0.00781518 0.00781451 0.0078142 0.00781467 0.00781479 0.00781474 0.00781483 0.00781366 0.00781395 0.00781428 0.00781424 0.00781402 0.00781417 0.00781357 0.00781332 0.00781379 0.00781431 0.00781348 0.00781378 0.00781319 0.00781337 0.00781359 0.00781365 0.00781325 0.00781362 0.0078127 0.00781305 0.00781318 0.00781314 0.00781263 0.00781301 0.00781253 0.00781269 0.00781293 0.00781282 0.00781252 0.00781232 0.00781259 0.00781254 0.00781196 0.00781215 0.00781262 0.00781232 0.00793859 0.00790031 0.00800759 0.00798182 0.00790511 0.00792591 0.00786007 0.00785684 0.00785418 0.00788153 0.00786278 0.00787235 0.00785467 0.00784719 0.00785282 0.00785772 0.00785069 0.00785572 0.00785159 0.00784451 0.00785244 0.00785005 0.00784602 0.00784883 0.00784861 0.0078425 0.00784941 0.00784656 0.00784318 0.0078455 0.00784607 0.00784025 0.00784679 0.00784407 0.00784109 0.00784273 0.00784367 0.00783848 0.00784457 0.00784181 0.00783946 0.00784081 0.00784147 0.00783688 0.00784206 0.00783995 0.00783761 0.00783879 0.00783938 0.00783493 0.00783993 0.00783827 0.00783574 0.0078372 0.00783731 0.00783324 0.00783796 0.00783643 0.00783387 0.00783519 0.00783507 0.00783162 0.00783535 0.00783423 0.00783237 0.00783326 0.00783347 0.00783014 0.00783365 0.00783274 0.00783102 0.00783167 0.00783142 0.00782872 0.00783185 0.00783107 0.00782944 0.00782995 0.00782977 0.00782729 0.00782983 0.00782918 0.00782793 0.00782842 0.00782787 0.00782577 0.00782831 0.00782793 0.00782671 0.00782676 0.00782643 0.00782468 0.00782678 0.00782631 0.00782497 0.00782532 0.00782475 0.00782302 0.00782532 0.00782511 0.00782357 0.00782396 0.00782336 0.00782198 0.0078236 0.00782343 0.00782247 0.00782257 0.00782238 0.00782096 0.00782232 0.00782251 0.00782132 0.00782164 0.00782066 0.00781992 0.00782085 0.00782076 0.00782019 0.00782028 0.00781981 0.00781895 0.00781978 0.0078201 0.00781886 0.00781955 0.00781869 0.00781778 0.00781883 0.00781862 0.0078182 0.00781838 0.00781746 0.00781703 0.00781733 0.00781806 0.00781725 0.00781738 0.00781708 0.00781638 0.00781678 0.00781707 0.00781634 0.00781661 0.00781598 0.00781568 0.00781604 0.007816 0.00781534 0.00781552 0.00781525 0.00781491 0.00781491 0.00781527 0.00781493 0.00781545 0.0078144 0.00781429 0.00781433 0.00781465 0.00781416 0.00781431 0.00781372 0.00781365 0.00781378 0.0078141 0.00781379 0.00781374 0.00781345 0.00781322 0.00781325 0.00781353 0.00781327 0.00781328 0.00781302 0.00781278 0.00781261 0.00781297 0.00781306 0.00781315 0.00781267 0.00781294 0.00781238 0.00781275 0.00781278 0.00781254 0.00781264 0.00781269 0.00781272 0.00781271 0.00781246 0.00781238 0.00775784 0.007701 0.0077079 0.00766258 0.00772297 0.00769815 0.00776455 0.00775905 0.00774259 0.00773435 0.00774555 0.00773821 0.00777125 0.00776342 0.00776754 0.00775952 0.00775508 0.00775562 0.00777086 0.00776716 0.0077724 0.00776966 0.00776328 0.00776685 0.00777272 0.00777097 0.00777451 0.00777536 0.00777039 0.0077739 0.00777617 0.00777511 0.00777813 0.00777935 0.00777625 0.00777921 0.00778055 0.00777901 0.00778222 0.00778264 0.00778103 0.00778302 0.00778456 0.00778281 0.0077861 0.00778544 0.00778487 0.00778642 0.00778825 0.00778631 0.00778931 0.00778847 0.00778796 0.00778926 0.00779135 0.00778941 0.00779243 0.00779095 0.00779087 0.0077919 0.00779413 0.00779222 0.00779486 0.00779349 0.00779342 0.00779422 0.00779641 0.00779453 0.00779717 0.00779568 0.00779585 0.00779645 0.00779844 0.00779685 0.00779901 0.00779764 0.00779791 0.00779903 0.0078004 0.0077991 0.00780077 0.00779959 0.00779969 0.00780085 0.00780244 0.00780083 0.00780275 0.00780151 0.0078016 0.00780204 0.00780375 0.00780244 0.00780421 0.00780295 0.00780336 0.00780386 0.007805 0.00780398 0.00780535 0.00780459 0.00780481 0.00780498 0.00780616 0.00780537 0.0078065 0.00780583 0.00780603 0.00780645 0.00780759 0.00780678 0.00780783 0.00780691 0.007807 0.0078072 0.00780814 0.00780754 0.00780852 0.00780789 0.00780852 0.0078082 0.00780915 0.00780873 0.00780927 0.00780884 0.00780889 0.00780892 0.00780996 0.00780916 0.00781018 0.00780953 0.00780985 0.00780987 0.00781062 0.00780997 0.00781052 0.00781023 0.00781053 0.00781062 0.00781128 0.00781112 0.00781149 0.00781086 0.00781124 0.00781092 0.00781163 0.00781167 0.00781162 0.00781167 0.00781178 0.00781177 0.00781221 0.00781154 0.00781238 0.00781188 0.00781224 0.0078119 0.00781204 0.0078122 0.00781236 0.00781186 0.00781206 0.00781224 0.00781264 0.00781245 0.00781281 0.00781233 0.00781307 0.00781253 0.00781275 0.00781265 0.00781288 0.00781257 0.00781291 0.00781289 0.00781296 0.00781285 0.00781277 0.00781277 0.00781268 0.00781267 0.00781292 0.00781265 0.00781258 0.00781242 0.00781302 0.00781254 0.00781267 0.00781288 0.00781308 0.00781262 0.00781209 0.0078128 0.0077789 0.00776356 0.00774239 0.0077334 0.00772387 0.00773859 0.00777998 0.00778061 0.00775333 0.00775597 0.00775701 0.00776359 0.00777939 0.00778152 0.00777112 0.0077754 0.00777112 0.00777716 0.00778097 0.00778061 0.00778064 0.00778404 0.00777786 0.00778311 0.00778307 0.00778105 0.00778541 0.00778819 0.00778241 0.00778702 0.00778573 0.00778349 0.0077884 0.00779043 0.00778622 0.00778996 0.00778878 0.00778624 0.00779106 0.00779217 0.00778974 0.00779258 0.00779152 0.00778922 0.00779389 0.00779424 0.0077923 0.00779487 0.00779447 0.00779234 0.00779631 0.0077958 0.00779508 0.00779663 0.00779687 0.00779456 0.00779844 0.00779759 0.00779706 0.00779843 0.00779915 0.00779704 0.00780041 0.00779951 0.00779897 0.00780012 0.0078011 0.00779904 0.0078022 0.00780082 0.00780089 0.00780159 0.00780277 0.00780094 0.00780374 0.00780239 0.00780227 0.00780307 0.00780397 0.00780234 0.00780503 0.0078037 0.00780412 0.00780449 0.007805 0.00780395 0.00780605 0.0078051 0.00780505 0.00780576 0.00780622 0.00780507 0.00780735 0.00780606 0.00780636 0.00780646 0.00780764 0.00780606 0.00780842 0.00780749 0.00780739 0.00780785 0.00780828 0.00780739 0.00780901 0.00780826 0.00780831 0.00780848 0.00780912 0.00780826 0.00780965 0.00780903 0.00780912 0.00780926 0.0078097 0.00780917 0.00781031 0.00780946 0.00780994 0.00780999 0.00781021 0.00780954 0.00781091 0.00781 0.00781051 0.00781028 0.00781038 0.0078106 0.00781101 0.0078106 0.00781109 0.00781095 0.00781146 0.00781088 0.0078118 0.00781162 0.00781131 0.00781149 0.00781195 0.0078115 0.00781195 0.00781133 0.00781189 0.00781197 0.00781215 0.0078118 0.00781248 0.00781192 0.00781232 0.007812 0.00781222 0.00781178 0.00781267 0.00781192 0.00781249 0.0078124 0.00781245 0.00781204 0.00781287 0.0078124 0.00781292 0.00781255 0.00781288 0.00781238 0.00781265 0.00781241 0.00781276 0.00781268 0.00781289 0.00781296 0.00781287 0.00781273 0.007813 0.00781251 0.00781282 0.00781292 0.00781294 0.007813 0.00781296 0.00781283 0.00781277 0.00781269 0.00781266 0.00781248 0.00781314 0.00781244 0.0078128 0.00781312 0.00781251 0.00781302 0.00781257 0.00781291 0.00780096 0.00778755 0.0077793 0.00777435 0.00775633 0.00777439 0.0077984 0.00779559 0.00778236 0.00778271 0.00777181 0.00778313 0.0077946 0.00779326 0.00778881 0.00779266 0.00778381 0.00779131 0.00779322 0.00779177 0.00779351 0.00779766 0.00779014 0.00779563 0.00779406 0.00779181 0.00779639 0.00779952 0.00779345 0.00779807 0.00779583 0.00779314 0.0077983 0.00780026 0.00779619 0.00779962 0.00779798 0.00779507 0.00780001 0.00780127 0.00779841 0.0078011 0.00779988 0.00779732 0.00780182 0.00780243 0.00780017 0.00780231 0.00780185 0.00779932 0.00780312 0.00780347 0.00780171 0.00780385 0.00780332 0.00780106 0.00780494 0.00780422 0.00780314 0.00780507 0.0078048 0.00780257 0.00780635 0.00780547 0.00780461 0.00780578 0.00780613 0.00780417 0.00780729 0.00780639 0.00780564 0.00780699 0.00780711 0.00780515 0.00780821 0.00780723 0.00780682 0.00780763 0.00780806 0.00780654 0.00780893 0.00780828 0.00780762 0.00780854 0.00780867 0.00780764 0.00780959 0.00780917 0.00780837 0.00780933 0.00780944 0.00780852 0.00781074 0.00780973 0.00780942 0.00780983 0.00781023 0.007809 0.00781093 0.00781006 0.00780982 0.00781045 0.00781068 0.00780954 0.00781121 0.00781063 0.00781061 0.0078108 0.00781107 0.00781017 0.00781172 0.00781122 0.00781125 0.00781135 0.00781137 0.00781072 0.00781202 0.00781161 0.00781139 0.00781167 0.00781197 0.00781143 0.00781213 0.0078116 0.00781192 0.00781172 0.00781217 0.00781166 0.00781252 0.00781202 0.00781235 0.00781228 0.00781244 0.00781179 0.0078129 0.00781218 0.00781234 0.00781232 0.00781227 0.00781199 0.0078128 0.00781261 0.00781257 0.00781246 0.00781214 0.00781206 0.00781285 0.00781231 0.00781288 0.00781267 0.00781267 0.00781232 0.00781284 0.00781291 0.00781284 0.0078129 0.00781281 0.00781255 0.00781322 0.00781242 0.00781272 0.00781286 0.00781262 0.00781275 0.00781291 0.00781286 0.00781338 0.00781271 0.00781286 0.00781279 0.00781291 0.00781291 0.00781286 0.00781285 0.0078126 0.00781289 0.0078126 0.00781299 0.00781282 0.00781279 0.0078128 0.00781266 0.00781312 0.00781224 0.00781292 0.0078128 0.0078129 0.00781259 0.00781276 0.00781278 0.00781271 0.00781263 0.00782378 0.00781038 0.00781507 0.00781049 0.00778842 0.00780527 0.00781462 0.00780897 0.00780993 0.00780631 0.00779361 0.00780394 0.00780898 0.00780586 0.00780801 0.00780764 0.00779904 0.00780567 0.00780594 0.00780307 0.00780766 0.0078088 0.00780266 0.00780714 0.00780563 0.00780241 0.0078079 0.00780954 0.00780422 0.00780819 0.00780598 0.0078028 0.00780838 0.0078097 0.0078056 0.00780886 0.00780702 0.00780414 0.00780923 0.0078099 0.00780682 0.00780967 0.00780817 0.00780548 0.00780989 0.00781002 0.00780752 0.00781 0.00780923 0.00780654 0.00781087 0.00781045 0.00780861 0.00781054 0.00781 0.00780766 0.00781154 0.00781102 0.00780951 0.00781115 0.00781085 0.00780869 0.00781199 0.00781142 0.00781029 0.00781145 0.00781135 0.00780953 0.00781253 0.00781191 0.00781068 0.00781194 0.00781197 0.00781018 0.00781297 0.00781231 0.00781133 0.00781225 0.00781215 0.0078107 0.00781325 0.00781286 0.00781184 0.00781245 0.0078124 0.00781082 0.00781357 0.00781275 0.00781211 0.00781304 0.00781259 0.00781152 0.00781378 0.00781297 0.00781252 0.00781296 0.00781301 0.00781164 0.00781381 0.00781308 0.00781274 0.00781353 0.00781301 0.00781214 0.00781397 0.00781355 0.00781307 0.0078133 0.00781315 0.00781215 0.00781398 0.00781369 0.00781295 0.00781376 0.00781317 0.00781254 0.00781391 0.00781342 0.00781342 0.00781346 0.0078131 0.00781261 0.00781391 0.00781344 0.00781356 0.00781367 0.0078131 0.00781246 0.00781358 0.00781329 0.00781325 0.00781372 0.00781337 0.00781253 0.00781387 0.00781368 0.00781348 0.00781335 0.00781314 0.00781303 0.00781401 0.00781362 0.00781355 0.00781352 0.00781327 0.00781291 0.00781365 0.00781343 0.00781351 0.00781354 0.00781322 0.0078128 0.00781329 0.00781332 0.00781328 0.00781341 0.00781304 0.00781299 0.00781326 0.00781322 0.00781305 0.00781306 0.00781294 0.00781307 0.0078136 0.00781312 0.00781331 0.00781325 0.00781267 0.00781276 0.00781278 0.00781289 0.00781309 0.0078131 0.00781268 0.00781286 0.00781268 0.00781263 0.00781281 0.00781284 0.00781265 0.00781253 0.00781298 0.00781284 0.00781272 0.00781282 0.00781213 0.0078129 0.00781234 0.00781242 0.0078125 0.0078131 0.00784649 0.00783244 0.00785175 0.00784537 0.00781906 0.00783511 0.00782898 0.00782187 0.00783582 0.00782857 0.00781508 0.00782375 0.00782104 0.00781653 0.00782543 0.00782178 0.00781435 0.00781997 0.00781775 0.00781373 0.00782064 0.00781929 0.00781474 0.00781822 0.00781651 0.00781277 0.00781863 0.0078188 0.00781494 0.00781776 0.00781623 0.00781283 0.00781798 0.00781849 0.00781475 0.00781764 0.00781655 0.0078131 0.00781801 0.00781803 0.00781504 0.00781714 0.00781672 0.00781346 0.00781799 0.00781792 0.00781523 0.00781719 0.00781685 0.00781376 0.00781805 0.00781776 0.00781555 0.00781734 0.00781655 0.00781434 0.007818 0.00781745 0.00781564 0.00781737 0.00781676 0.00781458 0.00781814 0.00781741 0.00781598 0.00781709 0.00781679 0.00781476 0.0078181 0.00781756 0.00781601 0.00781722 0.00781655 0.00781486 0.00781782 0.00781719 0.00781597 0.00781704 0.00781668 0.00781498 0.00781751 0.00781704 0.00781579 0.00781699 0.00781635 0.00781478 0.00781734 0.00781671 0.00781571 0.00781644 0.00781617 0.00781491 0.00781691 0.00781638 0.00781563 0.00781628 0.00781577 0.00781488 0.00781679 0.00781617 0.00781551 0.00781626 0.00781514 0.00781471 0.00781649 0.00781576 0.00781522 0.00781567 0.00781523 0.0078145 0.00781588 0.00781567 0.00781512 0.00781569 0.0078149 0.0078144 0.00781576 0.00781543 0.00781485 0.00781538 0.00781477 0.0078143 0.00781543 0.0078151 0.00781486 0.00781526 0.00781425 0.0078142 0.00781525 0.00781482 0.00781485 0.00781486 0.00781438 0.00781395 0.00781452 0.00781467 0.00781446 0.00781477 0.00781402 0.00781399 0.00781452 0.00781441 0.00781407 0.00781417 0.00781406 0.0078134 0.00781429 0.00781412 0.00781411 0.007814 0.00781378 0.00781348 0.0078138 0.00781403 0.00781367 0.00781425 0.00781306 0.0078132 0.00781354 0.00781375 0.00781361 0.00781365 0.00781321 0.00781337 0.00781322 0.00781294 0.00781335 0.00781341 0.00781311 0.00781312 0.00781305 0.00781336 0.0078131 0.0078129 0.00781254 0.00781285 0.00781298 0.0078135 0.00781258 0.00781269 0.00781251 0.00781274 0.00781278 0.00781273 0.00781291 0.00781248 0.00781259 0.0078131 0.00781221 0.00781247 0.00781226 0.00781204 0.00786907 0.00785343 0.00789221 0.00788177 0.00784838 0.00786404 0.00784149 0.0078337 0.00785859 0.00784954 0.00783498 0.00784332 0.00783141 0.00782667 0.00783924 0.00783444 0.00782824 0.00783344 0.00782843 0.00782406 0.00783133 0.00782946 0.0078256 0.00782907 0.00782702 0.00782305 0.00782866 0.00782789 0.00782442 0.00782671 0.00782626 0.00782223 0.00782734 0.00782664 0.00782361 0.00782594 0.00782579 0.00782167 0.00782676 0.00782612 0.00782338 0.00782516 0.00782513 0.00782163 0.00782604 0.00782511 0.00782275 0.0078244 0.00782445 0.0078213 0.00782546 0.00782459 0.00782255 0.00782382 0.00782372 0.00782078 0.0078246 0.00782397 0.00782189 0.00782329 0.00782294 0.00782038 0.00782389 0.00782332 0.00782134 0.00782275 0.00782235 0.00782029 0.00782347 0.00782247 0.00782099 0.00782222 0.00782162 0.00781974 0.0078228 0.0078219 0.00782039 0.00782165 0.00782086 0.00781911 0.00782176 0.00782136 0.00781985 0.00782078 0.00781992 0.00781877 0.0078212 0.00782061 0.00781925 0.00782021 0.0078197 0.00781796 0.00782032 0.00781994 0.00781897 0.00781976 0.00781898 0.00781782 0.00781959 0.0078194 0.00781839 0.00781916 0.00781828 0.00781727 0.00781903 0.00781856 0.00781761 0.0078184 0.00781752 0.00781667 0.00781842 0.00781826 0.00781698 0.0078173 0.00781695 0.00781632 0.0078174 0.00781737 0.00781651 0.00781701 0.00781624 0.00781586 0.00781696 0.00781685 0.00781626 0.00781644 0.00781594 0.00781557 0.00781653 0.00781609 0.00781571 0.00781607 0.00781558 0.00781521 0.0078157 0.00781577 0.00781553 0.0078159 0.00781482 0.00781442 0.00781558 0.00781521 0.00781505 0.00781521 0.00781481 0.00781385 0.00781481 0.00781507 0.00781472 0.00781504 0.00781415 0.00781397 0.00781444 0.00781454 0.00781402 0.00781469 0.00781368 0.00781361 0.00781377 0.00781416 0.00781381 0.00781412 0.0078131 0.00781337 0.00781347 0.0078136 0.00781355 0.00781368 0.0078131 0.00781321 0.0078131 0.00781354 0.00781313 0.00781332 0.00781306 0.00781315 0.00781309 0.00781318 0.00781283 0.00781291 0.00781265 0.00781274 0.00781284 0.00781275 0.00781268 0.00781266 0.00781232 0.00781212 0.00781239 0.00781261 0.00781219 0.00781261 0.00789266 0.00787395 0.0079384 0.00792458 0.00787718 0.00789295 0.00785008 0.00784409 0.0078725 0.00786704 0.00785127 0.00785986 0.00784108 0.00783643 0.00784703 0.00784529 0.00784005 0.00784515 0.00783903 0.00783392 0.00784012 0.00783887 0.00783546 0.00783863 0.00783763 0.00783265 0.00783811 0.00783649 0.00783377 0.00783597 0.00783593 0.00783166 0.00783668 0.0078353 0.00783243 0.00783431 0.00783461 0.00783014 0.00783555 0.00783393 0.00783136 0.0078329 0.00783313 0.00782925 0.00783407 0.00783268 0.00783038 0.00783181 0.00783188 0.00782838 0.00783271 0.00783146 0.00782933 0.00783049 0.00783027 0.00782732 0.00783131 0.00783011 0.00782843 0.00782955 0.00782941 0.0078264 0.00782997 0.00782907 0.00782737 0.00782859 0.00782763 0.00782547 0.00782887 0.007828 0.00782625 0.00782703 0.00782651 0.00782428 0.00782752 0.00782682 0.00782486 0.00782595 0.00782525 0.00782325 0.00782585 0.00782561 0.00782403 0.00782488 0.007824 0.00782267 0.00782468 0.00782443 0.00782285 0.0078239 0.00782307 0.00782136 0.0078237 0.0078232 0.00782204 0.00782265 0.00782186 0.00782043 0.00782266 0.00782207 0.00782097 0.00782172 0.00782088 0.00781973 0.00782131 0.00782106 0.00781993 0.00782084 0.00781967 0.00781922 0.00782028 0.00782044 0.0078192 0.00781998 0.00781901 0.00781845 0.00781957 0.00781919 0.00781851 0.00781908 0.00781832 0.0078173 0.00781859 0.00781874 0.00781775 0.00781818 0.00781727 0.00781671 0.00781737 0.00781743 0.00781695 0.00781751 0.00781652 0.00781595 0.00781655 0.00781655 0.00781654 0.00781672 0.00781577 0.00781571 0.00781623 0.00781631 0.00781542 0.00781603 0.0078154 0.00781499 0.00781562 0.00781583 0.00781516 0.00781529 0.00781455 0.00781448 0.00781478 0.00781516 0.00781465 0.00781453 0.0078138 0.00781401 0.00781416 0.00781458 0.00781443 0.00781404 0.00781365 0.00781352 0.0078138 0.00781403 0.00781391 0.0078135 0.00781317 0.00781363 0.0078136 0.00781376 0.0078133 0.00781327 0.00781297 0.00781259 0.00781292 0.00781327 0.00781289 0.00781284 0.0078128 0.00781293 0.00781241 0.00781294 0.00781262 0.00781278 0.00781269 0.00781254 0.00781262 0.00781239 0.00781239 0.00781251 0.0079335 0.00789651 0.00800491 0.00798251 0.00790372 0.00792312 0.00785703 0.00785139 0.00785071 0.00787371 0.00785995 0.00786838 0.00785238 0.0078453 0.0078507 0.00785246 0.00784897 0.00785321 0.00784999 0.00784354 0.00785073 0.00784781 0.007845 0.00784769 0.00784763 0.00784201 0.00784879 0.0078455 0.0078429 0.00784503 0.0078455 0.00784035 0.00784628 0.00784389 0.00784129 0.00784273 0.0078434 0.0078387 0.00784396 0.00784204 0.00783935 0.00784059 0.00784122 0.00783695 0.00784196 0.0078402 0.00783772 0.00783886 0.00783953 0.00783534 0.00783976 0.00783834 0.00783601 0.00783714 0.00783715 0.0078338 0.00783758 0.00783647 0.0078344 0.00783534 0.00783517 0.00783208 0.00783555 0.0078347 0.00783273 0.0078335 0.00783338 0.00783031 0.00783362 0.00783298 0.00783097 0.00783172 0.0078314 0.007829 0.00783177 0.00783109 0.00782946 0.00783007 0.00782988 0.00782733 0.00783004 0.00782953 0.00782769 0.00782846 0.00782796 0.00782589 0.0078285 0.00782786 0.00782626 0.007827 0.00782648 0.00782482 0.00782675 0.00782635 0.007825 0.00782572 0.00782507 0.00782364 0.0078251 0.00782484 0.00782346 0.00782422 0.00782353 0.0078223 0.007824 0.00782323 0.00782259 0.00782265 0.0078223 0.00782104 0.00782231 0.00782237 0.00782142 0.00782135 0.00782108 0.00781989 0.00782098 0.00782124 0.00782016 0.00782034 0.00781974 0.00781913 0.00781984 0.00782006 0.00781918 0.00781956 0.00781856 0.00781817 0.00781886 0.00781841 0.00781831 0.00781853 0.00781759 0.00781734 0.00781773 0.00781793 0.00781738 0.00781738 0.00781655 0.00781644 0.00781687 0.00781707 0.00781638 0.00781653 0.00781576 0.00781533 0.00781574 0.00781606 0.00781553 0.00781586 0.00781501 0.0078147 0.00781525 0.00781562 0.00781509 0.00781516 0.00781424 0.00781448 0.00781435 0.00781484 0.00781432 0.00781463 0.00781379 0.00781395 0.00781397 0.00781394 0.0078137 0.00781377 0.00781315 0.00781311 0.00781329 0.0078136 0.00781305 0.00781363 0.00781303 0.00781287 0.00781306 0.00781324 0.00781329 0.00781315 0.00781296 0.00781263 0.00781269 0.00781301 0.00781287 0.00781247 0.00781243 0.0078124 0.0078127 0.00781269 0.00781223 0.00781286 0.00777137 0.00775617 0.00774174 0.0076795 0.00772525 0.00771686 0.00777402 0.00776739 0.00776584 0.00777765 0.00776112 0.00775501 0.00777746 0.00777516 0.00778492 0.00779011 0.00776771 0.00776717 0.00777502 0.00777548 0.00778038 0.00778404 0.00777212 0.00777414 0.00777594 0.00777604 0.00777873 0.00778137 0.00777585 0.00777811 0.00777849 0.0077781 0.00778013 0.00778189 0.00777917 0.00778093 0.0077821 0.00778071 0.00778315 0.00778346 0.00778236 0.00778382 0.00778588 0.00778367 0.00778652 0.00778561 0.00778517 0.00778658 0.00778914 0.00778672 0.00778943 0.00778838 0.00778801 0.00778945 0.00779195 0.00778975 0.0077924 0.00779047 0.00779067 0.00779176 0.00779443 0.00779248 0.0077946 0.00779309 0.00779311 0.00779421 0.00779658 0.00779495 0.00779686 0.00779544 0.00779509 0.00779641 0.00779871 0.007797 0.00779891 0.00779758 0.00779775 0.0077985 0.00780063 0.00779885 0.00780074 0.00779941 0.00779959 0.00780029 0.00780242 0.00780073 0.00780205 0.00780106 0.00780124 0.00780189 0.00780378 0.00780246 0.00780366 0.00780268 0.0078029 0.00780334 0.00780502 0.0078036 0.00780515 0.00780415 0.00780449 0.00780469 0.00780612 0.00780548 0.00780615 0.00780567 0.00780563 0.007806 0.00780711 0.00780699 0.00780731 0.00780633 0.00780682 0.00780719 0.00780827 0.00780752 0.00780799 0.00780776 0.00780764 0.00780816 0.00780911 0.00780866 0.0078091 0.00780872 0.00780889 0.00780916 0.00780988 0.00780979 0.00780947 0.00780939 0.00780984 0.00780972 0.00781039 0.00780974 0.00781017 0.00780985 0.00781059 0.00781066 0.00781123 0.00781073 0.00781127 0.00781072 0.00781107 0.00781127 0.00781178 0.00781131 0.0078117 0.00781103 0.00781192 0.00781131 0.00781191 0.00781154 0.00781192 0.00781202 0.00781207 0.00781168 0.00781213 0.00781195 0.0078124 0.00781173 0.00781223 0.00781233 0.00781234 0.00781182 0.00781226 0.00781241 0.0078126 0.00781253 0.00781289 0.00781232 0.00781274 0.00781243 0.0078121 0.0078123 0.0078129 0.00781251 0.00781231 0.0078128 0.00781249 0.00781275 0.00781276 0.00781242 0.00781298 0.00781239 0.00781322 0.00781288 0.00781242 0.00781257 0.00781265 0.00781257 0.00781275 0.00781278 0.00778369 0.00778253 0.00775146 0.00772069 0.00772674 0.00774915 0.00778525 0.0077953 0.00776895 0.00778642 0.0077703 0.00777442 0.00778454 0.00779324 0.00778483 0.00779756 0.00778274 0.00778521 0.00778483 0.00778731 0.00778852 0.00779441 0.00778556 0.00778843 0.00778648 0.00778575 0.00778957 0.00779241 0.00778674 0.00779004 0.0077883 0.00778689 0.00779103 0.00779203 0.00778857 0.00779141 0.00779067 0.00778899 0.00779244 0.00779267 0.00779064 0.00779322 0.00779317 0.00779107 0.00779468 0.00779385 0.00779252 0.00779472 0.00779594 0.00779347 0.00779685 0.00779576 0.0077946 0.00779655 0.0077978 0.00779586 0.00779861 0.00779732 0.00779696 0.00779833 0.00779969 0.00779798 0.0078004 0.00779909 0.00779876 0.00780006 0.00780168 0.00779965 0.00780191 0.00780083 0.00780034 0.00780164 0.00780297 0.00780162 0.0078036 0.00780234 0.00780223 0.00780328 0.0078044 0.00780296 0.00780454 0.00780361 0.00780373 0.00780456 0.00780575 0.00780395 0.00780571 0.00780495 0.00780472 0.00780582 0.00780654 0.00780588 0.00780677 0.00780585 0.00780609 0.00780664 0.00780777 0.00780679 0.00780824 0.00780699 0.00780685 0.00780744 0.00780836 0.00780754 0.00780847 0.00780786 0.0078082 0.00780853 0.00780908 0.00780865 0.00780942 0.00780864 0.00780876 0.00780937 0.00780975 0.00780919 0.00780989 0.00780941 0.00780989 0.00780979 0.00781055 0.0078101 0.0078106 0.00781015 0.00781036 0.00781085 0.00781085 0.00781051 0.0078112 0.00781037 0.00781095 0.007811 0.00781151 0.00781109 0.00781147 0.00781107 0.00781119 0.00781144 0.00781193 0.00781163 0.00781167 0.00781126 0.00781161 0.00781181 0.00781195 0.00781175 0.00781218 0.00781176 0.00781197 0.00781198 0.00781227 0.00781211 0.00781253 0.00781207 0.00781211 0.00781229 0.00781235 0.00781262 0.00781266 0.00781236 0.00781253 0.00781266 0.00781229 0.00781232 0.00781258 0.00781219 0.0078128 0.00781265 0.00781264 0.0078125 0.00781279 0.00781253 0.00781264 0.00781255 0.00781251 0.00781229 0.00781273 0.00781253 0.00781273 0.00781289 0.00781264 0.00781291 0.00781249 0.0078127 0.00781245 0.00781257 0.00781235 0.00781285 0.00781304 0.00781268 0.00781264 0.00781279 0.00780053 0.00778924 0.00778084 0.00776257 0.00775753 0.0077787 0.00780002 0.00780164 0.00778967 0.00779905 0.00778299 0.00778913 0.00779721 0.00780097 0.00779759 0.00780565 0.00779377 0.00779667 0.00779642 0.00779766 0.00779987 0.00780403 0.00779661 0.00779927 0.00779696 0.00779658 0.0078002 0.00780209 0.00779734 0.00780018 0.00779814 0.00779701 0.00780093 0.00780146 0.00779833 0.00780093 0.00779982 0.00779858 0.00780164 0.00780167 0.00779926 0.00780186 0.00780147 0.00779977 0.00780285 0.00780244 0.00780044 0.00780281 0.00780294 0.00780121 0.00780391 0.00780318 0.00780189 0.00780386 0.00780443 0.00780294 0.00780514 0.00780447 0.00780321 0.00780501 0.00780567 0.00780409 0.00780663 0.00780562 0.00780431 0.00780589 0.00780678 0.00780528 0.00780746 0.00780634 0.00780558 0.00780697 0.00780768 0.00780615 0.00780813 0.00780711 0.00780663 0.00780784 0.00780842 0.00780709 0.00780904 0.00780795 0.00780755 0.00780846 0.00780913 0.00780821 0.00780945 0.00780865 0.00780853 0.0078091 0.00780982 0.00780873 0.00781017 0.00780953 0.00780899 0.00781006 0.00781051 0.00780943 0.00781091 0.00780993 0.00780971 0.0078103 0.00781075 0.00781001 0.00781104 0.00781062 0.00781036 0.00781054 0.00781124 0.00781072 0.0078114 0.0078112 0.00781111 0.00781126 0.00781171 0.00781122 0.00781168 0.00781141 0.0078112 0.00781155 0.00781195 0.00781163 0.00781229 0.00781177 0.0078116 0.00781179 0.00781204 0.00781146 0.00781249 0.00781198 0.00781189 0.00781227 0.00781245 0.00781208 0.00781261 0.00781192 0.00781233 0.00781251 0.00781284 0.0078122 0.00781263 0.00781248 0.00781229 0.00781281 0.00781272 0.00781251 0.00781264 0.00781283 0.00781231 0.0078128 0.00781272 0.00781259 0.00781297 0.00781281 0.00781257 0.00781276 0.00781263 0.00781244 0.00781273 0.00781265 0.00781266 0.0078127 0.0078127 0.00781305 0.00781286 0.00781261 0.00781268 0.00781293 0.00781262 0.00781254 0.00781301 0.00781271 0.00781288 0.00781305 0.00781226 0.00781325 0.00781269 0.00781279 0.00781267 0.00781282 0.00781253 0.00781279 0.0078129 0.00781309 0.00781267 0.00781266 0.00781269 0.0078125 0.00781265 0.00781243 0.00781252 0.00781264 0.0078196 0.00780464 0.00781467 0.00780398 0.00778882 0.00780478 0.00781278 0.00780995 0.00781102 0.00781035 0.00780005 0.00780505 0.00780919 0.0078091 0.00781142 0.0078128 0.00780579 0.00780809 0.00780785 0.00780731 0.00781097 0.00781216 0.00780704 0.00780944 0.00780778 0.00780643 0.00781057 0.00781101 0.00780733 0.00780959 0.00780822 0.00780651 0.00781027 0.00781047 0.00780705 0.00780987 0.00780871 0.00780738 0.00781066 0.00781031 0.00780782 0.00781035 0.00780963 0.00780793 0.00781087 0.00781047 0.00780808 0.00781047 0.0078106 0.00780879 0.00781144 0.00781072 0.00780878 0.00781106 0.00781112 0.00780933 0.00781199 0.00781116 0.00780978 0.00781141 0.00781161 0.00781015 0.00781217 0.00781175 0.0078105 0.0078118 0.0078121 0.00781078 0.00781276 0.00781195 0.00781074 0.00781219 0.00781247 0.00781135 0.00781317 0.00781221 0.00781131 0.00781259 0.00781282 0.00781153 0.00781317 0.00781244 0.00781196 0.00781285 0.00781323 0.00781198 0.00781359 0.00781285 0.007812 0.00781271 0.00781312 0.0078124 0.00781366 0.00781272 0.00781238 0.00781326 0.00781338 0.00781238 0.00781398 0.00781326 0.00781266 0.00781344 0.0078135 0.00781235 0.00781385 0.00781338 0.00781296 0.00781336 0.00781319 0.00781279 0.00781389 0.00781301 0.00781322 0.00781348 0.00781358 0.00781275 0.00781386 0.0078132 0.00781305 0.00781357 0.00781334 0.00781333 0.0078139 0.0078133 0.00781303 0.00781357 0.00781335 0.00781314 0.00781377 0.00781356 0.00781354 0.00781366 0.00781347 0.00781296 0.00781374 0.00781359 0.00781326 0.00781341 0.00781341 0.00781274 0.00781353 0.00781312 0.00781321 0.00781346 0.0078132 0.00781339 0.00781334 0.00781322 0.00781339 0.00781306 0.0078133 0.00781289 0.00781338 0.00781316 0.00781321 0.00781341 0.00781314 0.00781341 0.00781354 0.00781313 0.00781334 0.00781332 0.00781311 0.00781292 0.0078131 0.00781299 0.00781321 0.00781295 0.00781309 0.0078133 0.007813 0.00781284 0.00781315 0.00781266 0.0078131 0.00781281 0.00781292 0.00781272 0.00781267 0.00781272 0.00781285 0.00781254 0.00781252 0.00781259 0.00781272 0.00781273 0.00781245 0.00781285 0.00781281 0.00781268 0.0078125 0.00781261 0.00783976 0.00782342 0.00785088 0.00784439 0.00781763 0.00782911 0.00782436 0.00781865 0.00783087 0.00782112 0.00781693 0.00782085 0.0078197 0.00781723 0.00782424 0.00782001 0.00781743 0.00781932 0.00781818 0.00781616 0.00782108 0.00782005 0.00781685 0.00781911 0.0078178 0.00781585 0.00782012 0.00781954 0.00781657 0.00781864 0.00781767 0.00781573 0.00781922 0.00781924 0.00781576 0.00781826 0.00781813 0.00781572 0.00781906 0.00781867 0.0078158 0.00781795 0.00781806 0.00781595 0.00781899 0.00781825 0.00781579 0.00781793 0.00781794 0.00781598 0.00781897 0.00781823 0.007816 0.00781772 0.00781792 0.00781627 0.00781877 0.00781791 0.00781619 0.00781788 0.00781767 0.00781605 0.00781851 0.00781769 0.00781618 0.0078176 0.00781756 0.00781598 0.0078183 0.0078177 0.00781605 0.00781754 0.00781739 0.00781591 0.00781795 0.0078174 0.00781584 0.00781717 0.00781707 0.00781616 0.00781778 0.00781697 0.00781589 0.00781699 0.00781665 0.00781575 0.00781762 0.00781668 0.00781593 0.00781642 0.00781666 0.00781551 0.00781719 0.00781651 0.00781557 0.0078166 0.00781624 0.0078153 0.0078169 0.00781611 0.00781557 0.00781612 0.00781592 0.00781532 0.00781644 0.00781588 0.00781547 0.00781578 0.00781562 0.00781497 0.00781603 0.00781546 0.00781498 0.00781563 0.00781533 0.00781484 0.00781591 0.00781536 0.00781493 0.00781523 0.00781526 0.00781469 0.00781545 0.00781528 0.00781501 0.00781515 0.00781481 0.00781447 0.00781495 0.00781493 0.00781453 0.00781479 0.00781453 0.00781432 0.00781483 0.00781461 0.0078143 0.00781441 0.00781427 0.00781417 0.0078141 0.00781416 0.00781403 0.00781434 0.00781367 0.00781365 0.00781419 0.00781404 0.00781372 0.00781395 0.0078137 0.00781367 0.00781423 0.00781377 0.00781377 0.00781379 0.00781352 0.00781333 0.00781372 0.00781377 0.00781334 0.0078136 0.00781295 0.00781314 0.00781325 0.00781339 0.0078134 0.00781344 0.00781268 0.00781317 0.00781331 0.00781341 0.00781313 0.00781306 0.00781266 0.00781302 0.00781261 0.00781306 0.00781282 0.00781283 0.00781252 0.00781272 0.00781264 0.00781277 0.007813 0.00781269 0.00781267 0.00781289 0.00781242 0.00781266 0.00781275 0.00781238 0.00786076 0.00784409 0.00789185 0.00788476 0.00784575 0.0078541 0.00783503 0.00782786 0.00784962 0.00783179 0.00783234 0.00783605 0.00782903 0.00782593 0.00783499 0.00782792 0.00782808 0.00783075 0.00782811 0.00782522 0.00783034 0.00782816 0.00782608 0.00782829 0.00782748 0.00782487 0.0078287 0.00782814 0.0078252 0.00782748 0.00782709 0.00782459 0.00782805 0.00782758 0.0078246 0.0078266 0.00782642 0.00782378 0.00782766 0.00782672 0.00782399 0.00782575 0.00782586 0.00782363 0.00782687 0.00782602 0.00782357 0.00782528 0.00782534 0.00782306 0.00782618 0.00782523 0.00782289 0.00782437 0.00782452 0.0078225 0.0078254 0.00782438 0.00782239 0.00782365 0.00782366 0.00782193 0.00782445 0.00782382 0.00782186 0.00782315 0.00782281 0.00782166 0.00782354 0.0078228 0.00782096 0.0078224 0.00782254 0.00782082 0.00782294 0.00782194 0.0078206 0.00782181 0.00782146 0.00782012 0.0078222 0.00782107 0.00782017 0.0078209 0.00782051 0.00781942 0.00782124 0.00782061 0.00781945 0.00782056 0.00781983 0.00781885 0.00782051 0.00781988 0.00781882 0.00781968 0.00781915 0.00781833 0.00781987 0.00781942 0.00781832 0.00781896 0.00781869 0.00781797 0.00781914 0.00781877 0.00781776 0.00781851 0.00781788 0.0078172 0.00781805 0.00781766 0.00781743 0.00781779 0.00781719 0.00781665 0.00781758 0.00781746 0.00781691 0.0078174 0.00781663 0.00781619 0.00781697 0.00781691 0.00781639 0.00781666 0.00781611 0.00781574 0.00781644 0.00781634 0.00781581 0.00781593 0.00781549 0.00781534 0.00781585 0.00781556 0.00781531 0.00781588 0.00781508 0.00781487 0.00781557 0.00781541 0.00781458 0.00781511 0.00781435 0.00781471 0.007815 0.00781468 0.00781456 0.00781444 0.00781429 0.00781445 0.00781441 0.00781458 0.00781429 0.00781417 0.00781398 0.00781384 0.00781408 0.00781408 0.00781406 0.00781387 0.00781349 0.00781386 0.00781381 0.00781358 0.00781384 0.00781398 0.00781291 0.00781295 0.00781325 0.00781318 0.00781312 0.00781331 0.00781297 0.0078135 0.00781324 0.00781346 0.0078129 0.00781284 0.00781259 0.00781263 0.00781285 0.00781281 0.00781266 0.00781261 0.00781271 0.00781239 0.00781247 0.00781253 0.00781236 0.00781221 0.00788657 0.00786775 0.0079421 0.00792971 0.00787388 0.00788127 0.00784332 0.00783793 0.00786292 0.00784185 0.00784573 0.00785011 0.0078383 0.00783489 0.00784203 0.00783616 0.0078372 0.00784123 0.00783801 0.00783396 0.0078385 0.00783668 0.00783459 0.00783758 0.00783735 0.00783339 0.00783785 0.00783629 0.00783385 0.00783579 0.00783631 0.00783259 0.00783705 0.00783547 0.00783282 0.00783468 0.00783513 0.00783167 0.00783586 0.00783457 0.00783181 0.00783353 0.00783372 0.00783096 0.00783451 0.00783331 0.00783082 0.0078322 0.00783254 0.00782975 0.00783337 0.0078319 0.00782975 0.00783112 0.00783089 0.00782877 0.00783178 0.00783053 0.00782819 0.00782965 0.00782954 0.00782756 0.00783044 0.00782939 0.00782738 0.00782859 0.00782819 0.00782645 0.00782904 0.00782788 0.00782631 0.00782731 0.00782723 0.00782524 0.00782749 0.00782702 0.00782526 0.00782617 0.00782583 0.00782422 0.00782624 0.00782562 0.00782395 0.00782496 0.00782457 0.00782298 0.007825 0.00782435 0.00782299 0.0078239 0.00782318 0.00782232 0.00782369 0.00782319 0.00782191 0.00782269 0.00782224 0.00782118 0.00782254 0.00782216 0.00782103 0.00782153 0.00782083 0.00782006 0.00782148 0.00782112 0.00782017 0.0078208 0.00782032 0.0078195 0.00782061 0.00782021 0.00781924 0.00781997 0.00781894 0.00781888 0.00781946 0.00781943 0.00781849 0.0078191 0.00781813 0.00781776 0.00781848 0.00781865 0.00781759 0.0078178 0.00781743 0.00781732 0.00781775 0.00781794 0.00781691 0.00781722 0.00781635 0.00781652 0.00781666 0.0078172 0.00781632 0.00781671 0.00781609 0.0078157 0.00781599 0.00781633 0.00781588 0.0078162 0.00781523 0.00781533 0.00781517 0.00781555 0.00781522 0.00781537 0.00781473 0.00781513 0.00781489 0.00781493 0.00781494 0.00781493 0.00781415 0.00781435 0.00781418 0.0078142 0.00781415 0.00781437 0.00781384 0.00781399 0.00781371 0.00781395 0.00781359 0.00781378 0.00781326 0.0078135 0.00781364 0.00781352 0.00781302 0.00781356 0.00781293 0.00781321 0.007813 0.0078132 0.00781287 0.00781328 0.00781281 0.00781279 0.00781269 0.00781232 0.00781257 0.00781293 0.00781243 0.00781273 0.00781245 0.00781247 0.00781229 0.00781215 0.00793343 0.00790352 0.00801372 0.00799503 0.00790367 0.0079141 0.00785069 0.00784652 0.00784811 0.00785142 0.00785273 0.00785942 0.00784932 0.00784377 0.0078479 0.00784461 0.00784557 0.00784931 0.00784846 0.00784332 0.00784905 0.00784545 0.00784373 0.00784606 0.00784699 0.00784228 0.00784772 0.00784486 0.00784235 0.00784445 0.00784513 0.00784099 0.00784606 0.00784373 0.00784088 0.00784267 0.00784332 0.00783957 0.00784407 0.0078421 0.00783958 0.00784098 0.00784134 0.00783785 0.00784199 0.00784018 0.0078378 0.0078392 0.00783936 0.00783633 0.00783995 0.00783845 0.00783603 0.00783738 0.00783728 0.00783446 0.00783795 0.00783679 0.00783456 0.00783548 0.00783561 0.00783299 0.00783581 0.0078348 0.00783311 0.00783393 0.00783345 0.00783142 0.00783392 0.00783325 0.00783113 0.00783197 0.00783159 0.00782977 0.00783189 0.00783117 0.00782936 0.00783017 0.00783002 0.00782799 0.00783032 0.00782925 0.00782816 0.0078287 0.0078283 0.00782662 0.00782859 0.00782795 0.00782655 0.00782699 0.00782672 0.00782514 0.00782724 0.00782651 0.00782488 0.00782555 0.00782532 0.00782392 0.0078255 0.00782495 0.00782351 0.00782439 0.00782371 0.00782272 0.00782389 0.00782356 0.00782242 0.00782287 0.00782231 0.00782137 0.00782268 0.00782263 0.00782126 0.00782169 0.00782105 0.00782033 0.00782137 0.00782111 0.00782056 0.00782014 0.00782011 0.00781943 0.00782033 0.00782016 0.00781919 0.00781943 0.00781897 0.00781806 0.00781897 0.00781895 0.00781819 0.00781847 0.00781764 0.00781738 0.00781784 0.00781785 0.00781742 0.0078176 0.00781695 0.00781649 0.00781685 0.00781703 0.00781632 0.00781669 0.00781613 0.00781553 0.00781596 0.00781617 0.00781561 0.00781599 0.00781537 0.00781499 0.00781556 0.00781519 0.00781492 0.00781497 0.00781462 0.00781477 0.00781468 0.00781429 0.0078142 0.00781471 0.00781417 0.0078142 0.00781391 0.00781423 0.0078139 0.00781375 0.00781383 0.00781342 0.00781349 0.00781371 0.00781349 0.00781353 0.00781266 0.00781304 0.00781303 0.00781337 0.00781316 0.00781293 0.00781316 0.0078128 0.00781303 0.00781292 0.00781291 0.0078126 0.0078127 0.00781261 0.0078127 0.00781267 0.00781272 0.00781235 
