# vtk DataFile Version 5.1
vtk output
ASCII

DATASET UNSTRUCTURED_GRID
POINTS 18785 float
0 0 0.7
0.125 0 0.7
0.25 0 0.7
0.375 0 0.7
0.5 0 0.7
0.625 0 0.7
0.75 0 0.7
0.875 0 0.7
1 0 0.7
1.125 0 0.7
1.25 0 0.7
1.375 0 0.7
1.5 0 0.7
1.625 0 0.7
1.75 0 0.7
1.875 0 0.7
2 0 0.7
2.125 0 0.7
2.25 0 0.7
2.375 0 0.7
2.5 0 0.7
2.625 0 0.7
2.75 0 0.7
2.875 0 0.7
3 0 0.7
3.125 0 0.7
3.25 0 0.7
3.375 0 0.7
3.5 0 0.7
3.625 0 0.7
3.75 0 0.7
3.875 0 0.7
4 0 0.7
0 0.125 0.7
0.125 0.125 0.7
0.25 0.125 0.7
0.375 0.125 0.7
0.5 0.125 0.7
0.625 0.125 0.7
0.75 0.125 0.7
0.875 0.125 0.7
1 0.125 0.7
1.125 0.125 0.7
1.25 0.125 0.7
1.375 0.125 0.7
1.5 0.125 0.7
1.625 0.125 0.7
1.75 0.125 0.7
1.875 0.125 0.7
2 0.125 0.7
2.125 0.125 0.7
2.25 0.125 0.7
2.375 0.125 0.7
2.5 0.125 0.7
2.625 0.125 0.7
2.75 0.125 0.7
2.875 0.125 0.7
3 0.125 0.7
3.125 0.125 0.7
3.25 0.125 0.7
3.375 0.125 0.7
3.5 0.125 0.7
3.625 0.125 0.7
3.75 0.125 0.7
3.875 0.125 0.7
4 0.125 0.7
0 0.25 0.7
0.125 0.25 0.7
0.25 0.25 0.7
0.375 0.25 0.7
0.5 0.25 0.7
0.625 0.25 0.7
0.75 0.25 0.7
0.875 0.25 0.7
1 0.25 0.7
1.125 0.25 0.7
1.25 0.25 0.7
1.375 0.25 0.7
1.5 0.25 0.7
1.625 0.25 0.7
1.75 0.25 0.7
1.875 0.25 0.7
2 0.25 0.7
2.125 0.25 0.7
2.25 0.25 0.7
2.375 0.25 0.7
2.5 0.25 0.7
2.625 0.25 0.7
2.75 0.25 0.7
2.875 0.25 0.7
3 0.25 0.7
3.125 0.25 0.7
3.25 0.25 0.7
3.375 0.25 0.7
3.5 0.25 0.7
3.625 0.25 0.7
3.75 0.25 0.7
3.875 0.25 0.7
4 0.25 0.7
0 0.375 0.7
0.125 0.375 0.7
0.25 0.375 0.7
0.375 0.375 0.7
0.5 0.375 0.7
0.625 0.375 0.7
0.75 0.375 0.7
0.875 0.375 0.7
1 0.375 0.7
1.125 0.375 0.7
1.25 0.375 0.7
1.375 0.375 0.7
1.5 0.375 0.7
1.625 0.375 0.7
1.75 0.375 0.7
1.875 0.375 0.7
2 0.375 0.7
2.125 0.375 0.7
2.25 0.375 0.7
2.375 0.375 0.7
2.5 0.375 0.7
2.625 0.375 0.7
2.75 0.375 0.7
2.875 0.375 0.7
3 0.375 0.7
3.125 0.375 0.7
3.25 0.375 0.7
3.375 0.375 0.7
3.5 0.375 0.7
3.625 0.375 0.7
3.75 0.375 0.7
3.875 0.375 0.7
4 0.375 0.7
0 0.5 0.7
0.125 0.5 0.7
0.25 0.5 0.7
0.375 0.5 0.7
0.5 0.5 0.7
0.625 0.5 0.7
0.75 0.5 0.7
0.875 0.5 0.7
1 0.5 0.7
1.125 0.5 0.7
1.25 0.5 0.7
1.375 0.5 0.7
1.5 0.5 0.7
1.625 0.5 0.7
1.75 0.5 0.7
1.875 0.5 0.7
2 0.5 0.7
2.125 0.5 0.7
2.25 0.5 0.7
2.375 0.5 0.7
2.5 0.5 0.7
2.625 0.5 0.7
2.75 0.5 0.7
2.875 0.5 0.7
3 0.5 0.7
3.125 0.5 0.7
3.25 0.5 0.7
3.375 0.5 0.7
3.5 0.5 0.7
3.625 0.5 0.7
3.75 0.5 0.7
3.875 0.5 0.7
4 0.5 0.7
0 0.625 0.7
0.125 0.625 0.7
0.25 0.625 0.7
0.375 0.625 0.7
0.5 0.625 0.7
0.625 0.625 0.7
0.75 0.625 0.7
0.875 0.625 0.7
1 0.625 0.7
1.125 0.625 0.7
1.25 0.625 0.7
1.375 0.625 0.7
1.5 0.625 0.7
1.625 0.625 0.7
1.75 0.625 0.7
1.875 0.625 0.7
2 0.625 0.7
2.125 0.625 0.7
2.25 0.625 0.7
2.375 0.625 0.7
2.5 0.625 0.7
2.625 0.625 0.7
2.75 0.625 0.7
2.875 0.625 0.7
3 0.625 0.7
3.125 0.625 0.7
3.25 0.625 0.7
3.375 0.625 0.7
3.5 0.625 0.7
3.625 0.625 0.7
3.75 0.625 0.7
3.875 0.625 0.7
4 0.625 0.7
0 0.75 0.7
0.125 0.75 0.7
0.25 0.75 0.7
0.375 0.75 0.7
0.5 0.75 0.7
0.625 0.75 0.7
0.75 0.75 0.7
0.875 0.75 0.7
1 0.75 0.7
1.125 0.75 0.7
1.25 0.75 0.7
1.375 0.75 0.7
1.5 0.75 0.7
1.625 0.75 0.7
1.75 0.75 0.7
1.875 0.75 0.7
2 0.75 0.7
2.125 0.75 0.7
2.25 0.75 0.7
2.375 0.75 0.7
2.5 0.75 0.7
2.625 0.75 0.7
2.75 0.75 0.7
2.875 0.75 0.7
3 0.75 0.7
3.125 0.75 0.7
3.25 0.75 0.7
3.375 0.75 0.7
3.5 0.75 0.7
3.625 0.75 0.7
3.75 0.75 0.7
3.875 0.75 0.7
4 0.75 0.7
0 0.875 0.7
0.125 0.875 0.7
0.25 0.875 0.7
0.375 0.875 0.7
0.5 0.875 0.7
0.625 0.875 0.7
0.75 0.875 0.7
0.875 0.875 0.7
1 0.875 0.7
1.125 0.875 0.7
1.25 0.875 0.7
1.375 0.875 0.7
1.5 0.875 0.7
1.625 0.875 0.7
1.75 0.875 0.7
1.875 0.875 0.7
2 0.875 0.7
2.125 0.875 0.7
2.25 0.875 0.7
2.375 0.875 0.7
2.5 0.875 0.7
2.625 0.875 0.7
2.75 0.875 0.7
2.875 0.875 0.7
3 0.875 0.7
3.125 0.875 0.7
3.25 0.875 0.7
3.375 0.875 0.7
3.5 0.875 0.7
3.625 0.875 0.7
3.75 0.875 0.7
3.875 0.875 0.7
4 0.875 0.7
0 1 0.7
0.125 1 0.7
0.25 1 0.7
0.375 1 0.7
0.5 1 0.7
0.625 1 0.7
0.75 1 0.7
0.875 1 0.7
1 1 0.7
1.125 1 0.7
1.25 1 0.7
1.375 1 0.7
1.5 1 0.7
1.625 1 0.7
1.75 1 0.7
1.875 1 0.7
2 1 0.7
2.125 1 0.7
2.25 1 0.7
2.375 1 0.7
2.5 1 0.7
2.625 1 0.7
2.75 1 0.7
2.875 1 0.7
3 1 0.7
3.125 1 0.7
3.25 1 0.7
3.375 1 0.7
3.5 1 0.7
3.625 1 0.7
3.75 1 0.7
3.875 1 0.7
4 1 0.7
0 0 0.825
0.125 0 0.825
0.25 0 0.825
0.375 0 0.825
0.5 0 0.825
0.625 0 0.825
0.75 0 0.825
0.875 0 0.825
1 0 0.825
1.125 0 0.825
1.25 0 0.825
1.375 0 0.825
1.5 0 0.825
1.625 0 0.825
1.75 0 0.825
1.875 0 0.825
2 0 0.825
2.125 0 0.825
2.25 0 0.825
2.375 0 0.825
2.5 0 0.825
2.625 0 0.825
2.75 0 0.825
2.875 0 0.825
3 0 0.825
3.125 0 0.825
3.25 0 0.825
3.375 0 0.825
3.5 0 0.825
3.625 0 0.825
3.75 0 0.825
3.875 0 0.825
4 0 0.825
0 0.125 0.825
0.125 0.125 0.825
0.25 0.125 0.825
0.375 0.125 0.825
0.5 0.125 0.825
0.625 0.125 0.825
0.75 0.125 0.825
0.875 0.125 0.825
1 0.125 0.825
1.125 0.125 0.825
1.25 0.125 0.825
1.375 0.125 0.825
1.5 0.125 0.825
1.625 0.125 0.825
1.75 0.125 0.825
1.875 0.125 0.825
2 0.125 0.825
2.125 0.125 0.825
2.25 0.125 0.825
2.375 0.125 0.825
2.5 0.125 0.825
2.625 0.125 0.825
2.75 0.125 0.825
2.875 0.125 0.825
3 0.125 0.825
3.125 0.125 0.825
3.25 0.125 0.825
3.375 0.125 0.825
3.5 0.125 0.825
3.625 0.125 0.825
3.75 0.125 0.825
3.875 0.125 0.825
4 0.125 0.825
0 0.25 0.825
0.125 0.25 0.825
0.25 0.25 0.825
0.375 0.25 0.825
0.5 0.25 0.825
0.625 0.25 0.825
0.75 0.25 0.825
0.875 0.25 0.825
1 0.25 0.825
1.125 0.25 0.825
1.25 0.25 0.825
1.375 0.25 0.825
1.5 0.25 0.825
1.625 0.25 0.825
1.75 0.25 0.825
1.875 0.25 0.825
2 0.25 0.825
2.125 0.25 0.825
2.25 0.25 0.825
2.375 0.25 0.825
2.5 0.25 0.825
2.625 0.25 0.825
2.75 0.25 0.825
2.875 0.25 0.825
3 0.25 0.825
3.125 0.25 0.825
3.25 0.25 0.825
3.375 0.25 0.825
3.5 0.25 0.825
3.625 0.25 0.825
3.75 0.25 0.825
3.875 0.25 0.825
4 0.25 0.825
0 0.375 0.825
0.125 0.375 0.825
0.25 0.375 0.825
0.375 0.375 0.825
0.5 0.375 0.825
0.625 0.375 0.825
0.75 0.375 0.825
0.875 0.375 0.825
1 0.375 0.825
1.125 0.375 0.825
1.25 0.375 0.825
1.375 0.375 0.825
1.5 0.375 0.825
1.625 0.375 0.825
1.75 0.375 0.825
1.875 0.375 0.825
2 0.375 0.825
2.125 0.375 0.825
2.25 0.375 0.825
2.375 0.375 0.825
2.5 0.375 0.825
2.625 0.375 0.825
2.75 0.375 0.825
2.875 0.375 0.825
3 0.375 0.825
3.125 0.375 0.825
3.25 0.375 0.825
3.375 0.375 0.825
3.5 0.375 0.825
3.625 0.375 0.825
3.75 0.375 0.825
3.875 0.375 0.825
4 0.375 0.825
0 0.5 0.825
0.125 0.5 0.825
0.25 0.5 0.825
0.375 0.5 0.825
0.5 0.5 0.825
0.625 0.5 0.825
0.75 0.5 0.825
0.875 0.5 0.825
1 0.5 0.825
1.125 0.5 0.825
1.25 0.5 0.825
1.375 0.5 0.825
1.5 0.5 0.825
1.625 0.5 0.825
1.75 0.5 0.825
1.875 0.5 0.825
2 0.5 0.825
2.125 0.5 0.825
2.25 0.5 0.825
2.375 0.5 0.825
2.5 0.5 0.825
2.625 0.5 0.825
2.75 0.5 0.825
2.875 0.5 0.825
3 0.5 0.825
3.125 0.5 0.825
3.25 0.5 0.825
3.375 0.5 0.825
3.5 0.5 0.825
3.625 0.5 0.825
3.75 0.5 0.825
3.875 0.5 0.825
4 0.5 0.825
0 0.625 0.825
0.125 0.625 0.825
0.25 0.625 0.825
0.375 0.625 0.825
0.5 0.625 0.825
0.625 0.625 0.825
0.75 0.625 0.825
0.875 0.625 0.825
1 0.625 0.825
1.125 0.625 0.825
1.25 0.625 0.825
1.375 0.625 0.825
1.5 0.625 0.825
1.625 0.625 0.825
1.75 0.625 0.825
1.875 0.625 0.825
2 0.625 0.825
2.125 0.625 0.825
2.25 0.625 0.825
2.375 0.625 0.825
2.5 0.625 0.825
2.625 0.625 0.825
2.75 0.625 0.825
2.875 0.625 0.825
3 0.625 0.825
3.125 0.625 0.825
3.25 0.625 0.825
3.375 0.625 0.825
3.5 0.625 0.825
3.625 0.625 0.825
3.75 0.625 0.825
3.875 0.625 0.825
4 0.625 0.825
0 0.75 0.825
0.125 0.75 0.825
0.25 0.75 0.825
0.375 0.75 0.825
0.5 0.75 0.825
0.625 0.75 0.825
0.75 0.75 0.825
0.875 0.75 0.825
1 0.75 0.825
1.125 0.75 0.825
1.25 0.75 0.825
1.375 0.75 0.825
1.5 0.75 0.825
1.625 0.75 0.825
1.75 0.75 0.825
1.875 0.75 0.825
2 0.75 0.825
2.125 0.75 0.825
2.25 0.75 0.825
2.375 0.75 0.825
2.5 0.75 0.825
2.625 0.75 0.825
2.75 0.75 0.825
2.875 0.75 0.825
3 0.75 0.825
3.125 0.75 0.825
3.25 0.75 0.825
3.375 0.75 0.825
3.5 0.75 0.825
3.625 0.75 0.825
3.75 0.75 0.825
3.875 0.75 0.825
4 0.75 0.825
0 0.875 0.825
0.125 0.875 0.825
0.25 0.875 0.825
0.375 0.875 0.825
0.5 0.875 0.825
0.625 0.875 0.825
0.75 0.875 0.825
0.875 0.875 0.825
1 0.875 0.825
1.125 0.875 0.825
1.25 0.875 0.825
1.375 0.875 0.825
1.5 0.875 0.825
1.625 0.875 0.825
1.75 0.875 0.825
1.875 0.875 0.825
2 0.875 0.825
2.125 0.875 0.825
2.25 0.875 0.825
2.375 0.875 0.825
2.5 0.875 0.825
2.625 0.875 0.825
2.75 0.875 0.825
2.875 0.875 0.825
3 0.875 0.825
3.125 0.875 0.825
3.25 0.875 0.825
3.375 0.875 0.825
3.5 0.875 0.825
3.625 0.875 0.825
3.75 0.875 0.825
3.875 0.875 0.825
4 0.875 0.825
0 1 0.825
0.125 1 0.825
0.25 1 0.825
0.375 1 0.825
0.5 1 0.825
0.625 1 0.825
0.75 1 0.825
0.875 1 0.825
1 1 0.825
1.125 1 0.825
1.25 1 0.825
1.375 1 0.825
1.5 1 0.825
1.625 1 0.825
1.75 1 0.825
1.875 1 0.825
2 1 0.825
2.125 1 0.825
2.25 1 0.825
2.375 1 0.825
2.5 1 0.825
2.625 1 0.825
2.75 1 0.825
2.875 1 0.825
3 1 0.825
3.125 1 0.825
3.25 1 0.825
3.375 1 0.825
3.5 1 0.825
3.625 1 0.825
3.75 1 0.825
3.875 1 0.825
4 1 0.825
0 0 0.95
0.125 0 0.95
0.25 0 0.95
0.375 0 0.95
0.5 0 0.95
0.625 0 0.95
0.75 0 0.95
0.875 0 0.95
1 0 0.95
1.125 0 0.95
1.25 0 0.95
1.375 0 0.95
1.5 0 0.95
1.625 0 0.95
1.75 0 0.95
1.875 0 0.95
2 0 0.95
2.125 0 0.95
2.25 0 0.95
2.375 0 0.95
2.5 0 0.95
2.625 0 0.95
2.75 0 0.95
2.875 0 0.95
3 0 0.95
3.125 0 0.95
3.25 0 0.95
3.375 0 0.95
3.5 0 0.95
3.625 0 0.95
3.75 0 0.95
3.875 0 0.95
4 0 0.95
0 0.125 0.95
0.125 0.125 0.95
0.25 0.125 0.95
0.375 0.125 0.95
0.5 0.125 0.95
0.625 0.125 0.95
0.75 0.125 0.95
0.875 0.125 0.95
1 0.125 0.95
1.125 0.125 0.95
1.25 0.125 0.95
1.375 0.125 0.95
1.5 0.125 0.95
1.625 0.125 0.95
1.75 0.125 0.95
1.875 0.125 0.95
2 0.125 0.95
2.125 0.125 0.95
2.25 0.125 0.95
2.375 0.125 0.95
2.5 0.125 0.95
2.625 0.125 0.95
2.75 0.125 0.95
2.875 0.125 0.95
3 0.125 0.95
3.125 0.125 0.95
3.25 0.125 0.95
3.375 0.125 0.95
3.5 0.125 0.95
3.625 0.125 0.95
3.75 0.125 0.95
3.875 0.125 0.95
4 0.125 0.95
0 0.25 0.95
0.125 0.25 0.95
0.25 0.25 0.95
0.375 0.25 0.95
0.5 0.25 0.95
0.625 0.25 0.95
0.75 0.25 0.95
0.875 0.25 0.95
1 0.25 0.95
1.125 0.25 0.95
1.25 0.25 0.95
1.375 0.25 0.95
1.5 0.25 0.95
1.625 0.25 0.95
1.75 0.25 0.95
1.875 0.25 0.95
2 0.25 0.95
2.125 0.25 0.95
2.25 0.25 0.95
2.375 0.25 0.95
2.5 0.25 0.95
2.625 0.25 0.95
2.75 0.25 0.95
2.875 0.25 0.95
3 0.25 0.95
3.125 0.25 0.95
3.25 0.25 0.95
3.375 0.25 0.95
3.5 0.25 0.95
3.625 0.25 0.95
3.75 0.25 0.95
3.875 0.25 0.95
4 0.25 0.95
0 0.375 0.95
0.125 0.375 0.95
0.25 0.375 0.95
0.375 0.375 0.95
0.5 0.375 0.95
0.625 0.375 0.95
0.75 0.375 0.95
0.875 0.375 0.95
1 0.375 0.95
1.125 0.375 0.95
1.25 0.375 0.95
1.375 0.375 0.95
1.5 0.375 0.95
1.625 0.375 0.95
1.75 0.375 0.95
1.875 0.375 0.95
2 0.375 0.95
2.125 0.375 0.95
2.25 0.375 0.95
2.375 0.375 0.95
2.5 0.375 0.95
2.625 0.375 0.95
2.75 0.375 0.95
2.875 0.375 0.95
3 0.375 0.95
3.125 0.375 0.95
3.25 0.375 0.95
3.375 0.375 0.95
3.5 0.375 0.95
3.625 0.375 0.95
3.75 0.375 0.95
3.875 0.375 0.95
4 0.375 0.95
0 0.5 0.95
0.125 0.5 0.95
0.25 0.5 0.95
0.375 0.5 0.95
0.5 0.5 0.95
0.625 0.5 0.95
0.75 0.5 0.95
0.875 0.5 0.95
1 0.5 0.95
1.125 0.5 0.95
1.25 0.5 0.95
1.375 0.5 0.95
1.5 0.5 0.95
1.625 0.5 0.95
1.75 0.5 0.95
1.875 0.5 0.95
2 0.5 0.95
2.125 0.5 0.95
2.25 0.5 0.95
2.375 0.5 0.95
2.5 0.5 0.95
2.625 0.5 0.95
2.75 0.5 0.95
2.875 0.5 0.95
3 0.5 0.95
3.125 0.5 0.95
3.25 0.5 0.95
3.375 0.5 0.95
3.5 0.5 0.95
3.625 0.5 0.95
3.75 0.5 0.95
3.875 0.5 0.95
4 0.5 0.95
0 0.625 0.95
0.125 0.625 0.95
0.25 0.625 0.95
0.375 0.625 0.95
0.5 0.625 0.95
0.625 0.625 0.95
0.75 0.625 0.95
0.875 0.625 0.95
1 0.625 0.95
1.125 0.625 0.95
1.25 0.625 0.95
1.375 0.625 0.95
1.5 0.625 0.95
1.625 0.625 0.95
1.75 0.625 0.95
1.875 0.625 0.95
2 0.625 0.95
2.125 0.625 0.95
2.25 0.625 0.95
2.375 0.625 0.95
2.5 0.625 0.95
2.625 0.625 0.95
2.75 0.625 0.95
2.875 0.625 0.95
3 0.625 0.95
3.125 0.625 0.95
3.25 0.625 0.95
3.375 0.625 0.95
3.5 0.625 0.95
3.625 0.625 0.95
3.75 0.625 0.95
3.875 0.625 0.95
4 0.625 0.95
0 0.75 0.95
0.125 0.75 0.95
0.25 0.75 0.95
0.375 0.75 0.95
0.5 0.75 0.95
0.625 0.75 0.95
0.75 0.75 0.95
0.875 0.75 0.95
1 0.75 0.95
1.125 0.75 0.95
1.25 0.75 0.95
1.375 0.75 0.95
1.5 0.75 0.95
1.625 0.75 0.95
1.75 0.75 0.95
1.875 0.75 0.95
2 0.75 0.95
2.125 0.75 0.95
2.25 0.75 0.95
2.375 0.75 0.95
2.5 0.75 0.95
2.625 0.75 0.95
2.75 0.75 0.95
2.875 0.75 0.95
3 0.75 0.95
3.125 0.75 0.95
3.25 0.75 0.95
3.375 0.75 0.95
3.5 0.75 0.95
3.625 0.75 0.95
3.75 0.75 0.95
3.875 0.75 0.95
4 0.75 0.95
0 0.875 0.95
0.125 0.875 0.95
0.25 0.875 0.95
0.375 0.875 0.95
0.5 0.875 0.95
0.625 0.875 0.95
0.75 0.875 0.95
0.875 0.875 0.95
1 0.875 0.95
1.125 0.875 0.95
1.25 0.875 0.95
1.375 0.875 0.95
1.5 0.875 0.95
1.625 0.875 0.95
1.75 0.875 0.95
1.875 0.875 0.95
2 0.875 0.95
2.125 0.875 0.95
2.25 0.875 0.95
2.375 0.875 0.95
2.5 0.875 0.95
2.625 0.875 0.95
2.75 0.875 0.95
2.875 0.875 0.95
3 0.875 0.95
3.125 0.875 0.95
3.25 0.875 0.95
3.375 0.875 0.95
3.5 0.875 0.95
3.625 0.875 0.95
3.75 0.875 0.95
3.875 0.875 0.95
4 0.875 0.95
0 1 0.95
0.125 1 0.95
0.25 1 0.95
0.375 1 0.95
0.5 1 0.95
0.625 1 0.95
0.75 1 0.95
0.875 1 0.95
1 1 0.95
1.125 1 0.95
1.25 1 0.95
1.375 1 0.95
1.5 1 0.95
1.625 1 0.95
1.75 1 0.95
1.875 1 0.95
2 1 0.95
2.125 1 0.95
2.25 1 0.95
2.375 1 0.95
2.5 1 0.95
2.625 1 0.95
2.75 1 0.95
2.875 1 0.95
3 1 0.95
3.125 1 0.95
3.25 1 0.95
3.375 1 0.95
3.5 1 0.95
3.625 1 0.95
3.75 1 0.95
3.875 1 0.95
4 1 0.95
0 0 1.075
0.125 0 1.075
0.25 0 1.075
0.375 0 1.075
0.5 0 1.075
0.625 0 1.075
0.75 0 1.075
0.875 0 1.075
1 0 1.075
1.125 0 1.075
1.25 0 1.075
1.375 0 1.075
1.5 0 1.075
1.625 0 1.075
1.75 0 1.075
1.875 0 1.075
2 0 1.075
2.125 0 1.075
2.25 0 1.075
2.375 0 1.075
2.5 0 1.075
2.625 0 1.075
2.75 0 1.075
2.875 0 1.075
3 0 1.075
3.125 0 1.075
3.25 0 1.075
3.375 0 1.075
3.5 0 1.075
3.625 0 1.075
3.75 0 1.075
3.875 0 1.075
4 0 1.075
0 0.125 1.075
0.125 0.125 1.075
0.25 0.125 1.075
0.375 0.125 1.075
0.5 0.125 1.075
0.625 0.125 1.075
0.75 0.125 1.075
0.875 0.125 1.075
1 0.125 1.075
1.125 0.125 1.075
1.25 0.125 1.075
1.375 0.125 1.075
1.5 0.125 1.075
1.625 0.125 1.075
1.75 0.125 1.075
1.875 0.125 1.075
2 0.125 1.075
2.125 0.125 1.075
2.25 0.125 1.075
2.375 0.125 1.075
2.5 0.125 1.075
2.625 0.125 1.075
2.75 0.125 1.075
2.875 0.125 1.075
3 0.125 1.075
3.125 0.125 1.075
3.25 0.125 1.075
3.375 0.125 1.075
3.5 0.125 1.075
3.625 0.125 1.075
3.75 0.125 1.075
3.875 0.125 1.075
4 0.125 1.075
0 0.25 1.075
0.125 0.25 1.075
0.25 0.25 1.075
0.375 0.25 1.075
0.5 0.25 1.075
0.625 0.25 1.075
0.75 0.25 1.075
0.875 0.25 1.075
1 0.25 1.075
1.125 0.25 1.075
1.25 0.25 1.075
1.375 0.25 1.075
1.5 0.25 1.075
1.625 0.25 1.075
1.75 0.25 1.075
1.875 0.25 1.075
2 0.25 1.075
2.125 0.25 1.075
2.25 0.25 1.075
2.375 0.25 1.075
2.5 0.25 1.075
2.625 0.25 1.075
2.75 0.25 1.075
2.875 0.25 1.075
3 0.25 1.075
3.125 0.25 1.075
3.25 0.25 1.075
3.375 0.25 1.075
3.5 0.25 1.075
3.625 0.25 1.075
3.75 0.25 1.075
3.875 0.25 1.075
4 0.25 1.075
0 0.375 1.075
0.125 0.375 1.075
0.25 0.375 1.075
0.375 0.375 1.075
0.5 0.375 1.075
0.625 0.375 1.075
0.75 0.375 1.075
0.875 0.375 1.075
1 0.375 1.075
1.125 0.375 1.075
1.25 0.375 1.075
1.375 0.375 1.075
1.5 0.375 1.075
1.625 0.375 1.075
1.75 0.375 1.075
1.875 0.375 1.075
2 0.375 1.075
2.125 0.375 1.075
2.25 0.375 1.075
2.375 0.375 1.075
2.5 0.375 1.075
2.625 0.375 1.075
2.75 0.375 1.075
2.875 0.375 1.075
3 0.375 1.075
3.125 0.375 1.075
3.25 0.375 1.075
3.375 0.375 1.075
3.5 0.375 1.075
3.625 0.375 1.075
3.75 0.375 1.075
3.875 0.375 1.075
4 0.375 1.075
0 0.5 1.075
0.125 0.5 1.075
0.25 0.5 1.075
0.375 0.5 1.075
0.5 0.5 1.075
0.625 0.5 1.075
0.75 0.5 1.075
0.875 0.5 1.075
1 0.5 1.075
1.125 0.5 1.075
1.25 0.5 1.075
1.375 0.5 1.075
1.5 0.5 1.075
1.625 0.5 1.075
1.75 0.5 1.075
1.875 0.5 1.075
2 0.5 1.075
2.125 0.5 1.075
2.25 0.5 1.075
2.375 0.5 1.075
2.5 0.5 1.075
2.625 0.5 1.075
2.75 0.5 1.075
2.875 0.5 1.075
3 0.5 1.075
3.125 0.5 1.075
3.25 0.5 1.075
3.375 0.5 1.075
3.5 0.5 1.075
3.625 0.5 1.075
3.75 0.5 1.075
3.875 0.5 1.075
4 0.5 1.075
0 0.625 1.075
0.125 0.625 1.075
0.25 0.625 1.075
0.375 0.625 1.075
0.5 0.625 1.075
0.625 0.625 1.075
0.75 0.625 1.075
0.875 0.625 1.075
1 0.625 1.075
1.125 0.625 1.075
1.25 0.625 1.075
1.375 0.625 1.075
1.5 0.625 1.075
1.625 0.625 1.075
1.75 0.625 1.075
1.875 0.625 1.075
2 0.625 1.075
2.125 0.625 1.075
2.25 0.625 1.075
2.375 0.625 1.075
2.5 0.625 1.075
2.625 0.625 1.075
2.75 0.625 1.075
2.875 0.625 1.075
3 0.625 1.075
3.125 0.625 1.075
3.25 0.625 1.075
3.375 0.625 1.075
3.5 0.625 1.075
3.625 0.625 1.075
3.75 0.625 1.075
3.875 0.625 1.075
4 0.625 1.075
0 0.75 1.075
0.125 0.75 1.075
0.25 0.75 1.075
0.375 0.75 1.075
0.5 0.75 1.075
0.625 0.75 1.075
0.75 0.75 1.075
0.875 0.75 1.075
1 0.75 1.075
1.125 0.75 1.075
1.25 0.75 1.075
1.375 0.75 1.075
1.5 0.75 1.075
1.625 0.75 1.075
1.75 0.75 1.075
1.875 0.75 1.075
2 0.75 1.075
2.125 0.75 1.075
2.25 0.75 1.075
2.375 0.75 1.075
2.5 0.75 1.075
2.625 0.75 1.075
2.75 0.75 1.075
2.875 0.75 1.075
3 0.75 1.075
3.125 0.75 1.075
3.25 0.75 1.075
3.375 0.75 1.075
3.5 0.75 1.075
3.625 0.75 1.075
3.75 0.75 1.075
3.875 0.75 1.075
4 0.75 1.075
0 0.875 1.075
0.125 0.875 1.075
0.25 0.875 1.075
0.375 0.875 1.075
0.5 0.875 1.075
0.625 0.875 1.075
0.75 0.875 1.075
0.875 0.875 1.075
1 0.875 1.075
1.125 0.875 1.075
1.25 0.875 1.075
1.375 0.875 1.075
1.5 0.875 1.075
1.625 0.875 1.075
1.75 0.875 1.075
1.875 0.875 1.075
2 0.875 1.075
2.125 0.875 1.075
2.25 0.875 1.075
2.375 0.875 1.075
2.5 0.875 1.075
2.625 0.875 1.075
2.75 0.875 1.075
2.875 0.875 1.075
3 0.875 1.075
3.125 0.875 1.075
3.25 0.875 1.075
3.375 0.875 1.075
3.5 0.875 1.075
3.625 0.875 1.075
3.75 0.875 1.075
3.875 0.875 1.075
4 0.875 1.075
0 1 1.075
0.125 1 1.075
0.25 1 1.075
0.375 1 1.075
0.5 1 1.075
0.625 1 1.075
0.75 1 1.075
0.875 1 1.075
1 1 1.075
1.125 1 1.075
1.25 1 1.075
1.375 1 1.075
1.5 1 1.075
1.625 1 1.075
1.75 1 1.075
1.875 1 1.075
2 1 1.075
2.125 1 1.075
2.25 1 1.075
2.375 1 1.075
2.5 1 1.075
2.625 1 1.075
2.75 1 1.075
2.875 1 1.075
3 1 1.075
3.125 1 1.075
3.25 1 1.075
3.375 1 1.075
3.5 1 1.075
3.625 1 1.075
3.75 1 1.075
3.875 1 1.075
4 1 1.075
0 0 1.2
0.125 0 1.2
0.25 0 1.2
0.375 0 1.2
0.5 0 1.2
0.625 0 1.2
0.75 0 1.2
0.875 0 1.2
1 0 1.2
1.125 0 1.2
1.25 0 1.2
1.375 0 1.2
1.5 0 1.2
1.625 0 1.2
1.75 0 1.2
1.875 0 1.2
2 0 1.2
2.125 0 1.2
2.25 0 1.2
2.375 0 1.2
2.5 0 1.2
2.625 0 1.2
2.75 0 1.2
2.875 0 1.2
3 0 1.2
3.125 0 1.2
3.25 0 1.2
3.375 0 1.2
3.5 0 1.2
3.625 0 1.2
3.75 0 1.2
3.875 0 1.2
4 0 1.2
0 0.125 1.2
0.125 0.125 1.2
0.25 0.125 1.2
0.375 0.125 1.2
0.5 0.125 1.2
0.625 0.125 1.2
0.75 0.125 1.2
0.875 0.125 1.2
1 0.125 1.2
1.125 0.125 1.2
1.25 0.125 1.2
1.375 0.125 1.2
1.5 0.125 1.2
1.625 0.125 1.2
1.75 0.125 1.2
1.875 0.125 1.2
2 0.125 1.2
2.125 0.125 1.2
2.25 0.125 1.2
2.375 0.125 1.2
2.5 0.125 1.2
2.625 0.125 1.2
2.75 0.125 1.2
2.875 0.125 1.2
3 0.125 1.2
3.125 0.125 1.2
3.25 0.125 1.2
3.375 0.125 1.2
3.5 0.125 1.2
3.625 0.125 1.2
3.75 0.125 1.2
3.875 0.125 1.2
4 0.125 1.2
0 0.25 1.2
0.125 0.25 1.2
0.25 0.25 1.2
0.375 0.25 1.2
0.5 0.25 1.2
0.625 0.25 1.2
0.75 0.25 1.2
0.875 0.25 1.2
1 0.25 1.2
1.125 0.25 1.2
1.25 0.25 1.2
1.375 0.25 1.2
1.5 0.25 1.2
1.625 0.25 1.2
1.75 0.25 1.2
1.875 0.25 1.2
2 0.25 1.2
2.125 0.25 1.2
2.25 0.25 1.2
2.375 0.25 1.2
2.5 0.25 1.2
2.625 0.25 1.2
2.75 0.25 1.2
2.875 0.25 1.2
3 0.25 1.2
3.125 0.25 1.2
3.25 0.25 1.2
3.375 0.25 1.2
3.5 0.25 1.2
3.625 0.25 1.2
3.75 0.25 1.2
3.875 0.25 1.2
4 0.25 1.2
0 0.375 1.2
0.125 0.375 1.2
0.25 0.375 1.2
0.375 0.375 1.2
0.5 0.375 1.2
0.625 0.375 1.2
0.75 0.375 1.2
0.875 0.375 1.2
1 0.375 1.2
1.125 0.375 1.2
1.25 0.375 1.2
1.375 0.375 1.2
1.5 0.375 1.2
1.625 0.375 1.2
1.75 0.375 1.2
1.875 0.375 1.2
2 0.375 1.2
2.125 0.375 1.2
2.25 0.375 1.2
2.375 0.375 1.2
2.5 0.375 1.2
2.625 0.375 1.2
2.75 0.375 1.2
2.875 0.375 1.2
3 0.375 1.2
3.125 0.375 1.2
3.25 0.375 1.2
3.375 0.375 1.2
3.5 0.375 1.2
3.625 0.375 1.2
3.75 0.375 1.2
3.875 0.375 1.2
4 0.375 1.2
0 0.5 1.2
0.125 0.5 1.2
0.25 0.5 1.2
0.375 0.5 1.2
0.5 0.5 1.2
0.625 0.5 1.2
0.75 0.5 1.2
0.875 0.5 1.2
1 0.5 1.2
1.125 0.5 1.2
1.25 0.5 1.2
1.375 0.5 1.2
1.5 0.5 1.2
1.625 0.5 1.2
1.75 0.5 1.2
1.875 0.5 1.2
2 0.5 1.2
2.125 0.5 1.2
2.25 0.5 1.2
2.375 0.5 1.2
2.5 0.5 1.2
2.625 0.5 1.2
2.75 0.5 1.2
2.875 0.5 1.2
3 0.5 1.2
3.125 0.5 1.2
3.25 0.5 1.2
3.375 0.5 1.2
3.5 0.5 1.2
3.625 0.5 1.2
3.75 0.5 1.2
3.875 0.5 1.2
4 0.5 1.2
0 0.625 1.2
0.125 0.625 1.2
0.25 0.625 1.2
0.375 0.625 1.2
0.5 0.625 1.2
0.625 0.625 1.2
0.75 0.625 1.2
0.875 0.625 1.2
1 0.625 1.2
1.125 0.625 1.2
1.25 0.625 1.2
1.375 0.625 1.2
1.5 0.625 1.2
1.625 0.625 1.2
1.75 0.625 1.2
1.875 0.625 1.2
2 0.625 1.2
2.125 0.625 1.2
2.25 0.625 1.2
2.375 0.625 1.2
2.5 0.625 1.2
2.625 0.625 1.2
2.75 0.625 1.2
2.875 0.625 1.2
3 0.625 1.2
3.125 0.625 1.2
3.25 0.625 1.2
3.375 0.625 1.2
3.5 0.625 1.2
3.625 0.625 1.2
3.75 0.625 1.2
3.875 0.625 1.2
4 0.625 1.2
0 0.75 1.2
0.125 0.75 1.2
0.25 0.75 1.2
0.375 0.75 1.2
0.5 0.75 1.2
0.625 0.75 1.2
0.75 0.75 1.2
0.875 0.75 1.2
1 0.75 1.2
1.125 0.75 1.2
1.25 0.75 1.2
1.375 0.75 1.2
1.5 0.75 1.2
1.625 0.75 1.2
1.75 0.75 1.2
1.875 0.75 1.2
2 0.75 1.2
2.125 0.75 1.2
2.25 0.75 1.2
2.375 0.75 1.2
2.5 0.75 1.2
2.625 0.75 1.2
2.75 0.75 1.2
2.875 0.75 1.2
3 0.75 1.2
3.125 0.75 1.2
3.25 0.75 1.2
3.375 0.75 1.2
3.5 0.75 1.2
3.625 0.75 1.2
3.75 0.75 1.2
3.875 0.75 1.2
4 0.75 1.2
0 0.875 1.2
0.125 0.875 1.2
0.25 0.875 1.2
0.375 0.875 1.2
0.5 0.875 1.2
0.625 0.875 1.2
0.75 0.875 1.2
0.875 0.875 1.2
1 0.875 1.2
1.125 0.875 1.2
1.25 0.875 1.2
1.375 0.875 1.2
1.5 0.875 1.2
1.625 0.875 1.2
1.75 0.875 1.2
1.875 0.875 1.2
2 0.875 1.2
2.125 0.875 1.2
2.25 0.875 1.2
2.375 0.875 1.2
2.5 0.875 1.2
2.625 0.875 1.2
2.75 0.875 1.2
2.875 0.875 1.2
3 0.875 1.2
3.125 0.875 1.2
3.25 0.875 1.2
3.375 0.875 1.2
3.5 0.875 1.2
3.625 0.875 1.2
3.75 0.875 1.2
3.875 0.875 1.2
4 0.875 1.2
0 1 1.2
0.125 1 1.2
0.25 1 1.2
0.375 1 1.2
0.5 1 1.2
0.625 1 1.2
0.75 1 1.2
0.875 1 1.2
1 1 1.2
1.125 1 1.2
1.25 1 1.2
1.375 1 1.2
1.5 1 1.2
1.625 1 1.2
1.75 1 1.2
1.875 1 1.2
2 1 1.2
2.125 1 1.2
2.25 1 1.2
2.375 1 1.2
2.5 1 1.2
2.625 1 1.2
2.75 1 1.2
2.875 1 1.2
3 1 1.2
3.125 1 1.2
3.25 1 1.2
3.375 1 1.2
3.5 1 1.2
3.625 1 1.2
3.75 1 1.2
3.875 1 1.2
4 1 1.2
0 0 1.325
0.125 0 1.325
0.25 0 1.325
0.375 0 1.325
0.5 0 1.325
0.625 0 1.325
0.75 0 1.325
0.875 0 1.325
1 0 1.325
1.125 0 1.325
1.25 0 1.325
1.375 0 1.325
1.5 0 1.325
1.625 0 1.325
1.75 0 1.325
1.875 0 1.325
2 0 1.325
2.125 0 1.325
2.25 0 1.325
2.375 0 1.325
2.5 0 1.325
2.625 0 1.325
2.75 0 1.325
2.875 0 1.325
3 0 1.325
3.125 0 1.325
3.25 0 1.325
3.375 0 1.325
3.5 0 1.325
3.625 0 1.325
3.75 0 1.325
3.875 0 1.325
4 0 1.325
0 0.125 1.325
0.125 0.125 1.325
0.25 0.125 1.325
0.375 0.125 1.325
0.5 0.125 1.325
0.625 0.125 1.325
0.75 0.125 1.325
0.875 0.125 1.325
1 0.125 1.325
1.125 0.125 1.325
1.25 0.125 1.325
1.375 0.125 1.325
1.5 0.125 1.325
1.625 0.125 1.325
1.75 0.125 1.325
1.875 0.125 1.325
2 0.125 1.325
2.125 0.125 1.325
2.25 0.125 1.325
2.375 0.125 1.325
2.5 0.125 1.325
2.625 0.125 1.325
2.75 0.125 1.325
2.875 0.125 1.325
3 0.125 1.325
3.125 0.125 1.325
3.25 0.125 1.325
3.375 0.125 1.325
3.5 0.125 1.325
3.625 0.125 1.325
3.75 0.125 1.325
3.875 0.125 1.325
4 0.125 1.325
0 0.25 1.325
0.125 0.25 1.325
0.25 0.25 1.325
0.375 0.25 1.325
0.5 0.25 1.325
0.625 0.25 1.325
0.75 0.25 1.325
0.875 0.25 1.325
1 0.25 1.325
1.125 0.25 1.325
1.25 0.25 1.325
1.375 0.25 1.325
1.5 0.25 1.325
1.625 0.25 1.325
1.75 0.25 1.325
1.875 0.25 1.325
2 0.25 1.325
2.125 0.25 1.325
2.25 0.25 1.325
2.375 0.25 1.325
2.5 0.25 1.325
2.625 0.25 1.325
2.75 0.25 1.325
2.875 0.25 1.325
3 0.25 1.325
3.125 0.25 1.325
3.25 0.25 1.325
3.375 0.25 1.325
3.5 0.25 1.325
3.625 0.25 1.325
3.75 0.25 1.325
3.875 0.25 1.325
4 0.25 1.325
0 0.375 1.325
0.125 0.375 1.325
0.25 0.375 1.325
0.375 0.375 1.325
0.5 0.375 1.325
0.625 0.375 1.325
0.75 0.375 1.325
0.875 0.375 1.325
1 0.375 1.325
1.125 0.375 1.325
1.25 0.375 1.325
1.375 0.375 1.325
1.5 0.375 1.325
1.625 0.375 1.325
1.75 0.375 1.325
1.875 0.375 1.325
2 0.375 1.325
2.125 0.375 1.325
2.25 0.375 1.325
2.375 0.375 1.325
2.5 0.375 1.325
2.625 0.375 1.325
2.75 0.375 1.325
2.875 0.375 1.325
3 0.375 1.325
3.125 0.375 1.325
3.25 0.375 1.325
3.375 0.375 1.325
3.5 0.375 1.325
3.625 0.375 1.325
3.75 0.375 1.325
3.875 0.375 1.325
4 0.375 1.325
0 0.5 1.325
0.125 0.5 1.325
0.25 0.5 1.325
0.375 0.5 1.325
0.5 0.5 1.325
0.625 0.5 1.325
0.75 0.5 1.325
0.875 0.5 1.325
1 0.5 1.325
1.125 0.5 1.325
1.25 0.5 1.325
1.375 0.5 1.325
1.5 0.5 1.325
1.625 0.5 1.325
1.75 0.5 1.325
1.875 0.5 1.325
2 0.5 1.325
2.125 0.5 1.325
2.25 0.5 1.325
2.375 0.5 1.325
2.5 0.5 1.325
2.625 0.5 1.325
2.75 0.5 1.325
2.875 0.5 1.325
3 0.5 1.325
3.125 0.5 1.325
3.25 0.5 1.325
3.375 0.5 1.325
3.5 0.5 1.325
3.625 0.5 1.325
3.75 0.5 1.325
3.875 0.5 1.325
4 0.5 1.325
0 0.625 1.325
0.125 0.625 1.325
0.25 0.625 1.325
0.375 0.625 1.325
0.5 0.625 1.325
0.625 0.625 1.325
0.75 0.625 1.325
0.875 0.625 1.325
1 0.625 1.325
1.125 0.625 1.325
1.25 0.625 1.325
1.375 0.625 1.325
1.5 0.625 1.325
1.625 0.625 1.325
1.75 0.625 1.325
1.875 0.625 1.325
2 0.625 1.325
2.125 0.625 1.325
2.25 0.625 1.325
2.375 0.625 1.325
2.5 0.625 1.325
2.625 0.625 1.325
2.75 0.625 1.325
2.875 0.625 1.325
3 0.625 1.325
3.125 0.625 1.325
3.25 0.625 1.325
3.375 0.625 1.325
3.5 0.625 1.325
3.625 0.625 1.325
3.75 0.625 1.325
3.875 0.625 1.325
4 0.625 1.325
0 0.75 1.325
0.125 0.75 1.325
0.25 0.75 1.325
0.375 0.75 1.325
0.5 0.75 1.325
0.625 0.75 1.325
0.75 0.75 1.325
0.875 0.75 1.325
1 0.75 1.325
1.125 0.75 1.325
1.25 0.75 1.325
1.375 0.75 1.325
1.5 0.75 1.325
1.625 0.75 1.325
1.75 0.75 1.325
1.875 0.75 1.325
2 0.75 1.325
2.125 0.75 1.325
2.25 0.75 1.325
2.375 0.75 1.325
2.5 0.75 1.325
2.625 0.75 1.325
2.75 0.75 1.325
2.875 0.75 1.325
3 0.75 1.325
3.125 0.75 1.325
3.25 0.75 1.325
3.375 0.75 1.325
3.5 0.75 1.325
3.625 0.75 1.325
3.75 0.75 1.325
3.875 0.75 1.325
4 0.75 1.325
0 0.875 1.325
0.125 0.875 1.325
0.25 0.875 1.325
0.375 0.875 1.325
0.5 0.875 1.325
0.625 0.875 1.325
0.75 0.875 1.325
0.875 0.875 1.325
1 0.875 1.325
1.125 0.875 1.325
1.25 0.875 1.325
1.375 0.875 1.325
1.5 0.875 1.325
1.625 0.875 1.325
1.75 0.875 1.325
1.875 0.875 1.325
2 0.875 1.325
2.125 0.875 1.325
2.25 0.875 1.325
2.375 0.875 1.325
2.5 0.875 1.325
2.625 0.875 1.325
2.75 0.875 1.325
2.875 0.875 1.325
3 0.875 1.325
3.125 0.875 1.325
3.25 0.875 1.325
3.375 0.875 1.325
3.5 0.875 1.325
3.625 0.875 1.325
3.75 0.875 1.325
3.875 0.875 1.325
4 0.875 1.325
0 1 1.325
0.125 1 1.325
0.25 1 1.325
0.375 1 1.325
0.5 1 1.325
0.625 1 1.325
0.75 1 1.325
0.875 1 1.325
1 1 1.325
1.125 1 1.325
1.25 1 1.325
1.375 1 1.325
1.5 1 1.325
1.625 1 1.325
1.75 1 1.325
1.875 1 1.325
2 1 1.325
2.125 1 1.325
2.25 1 1.325
2.375 1 1.325
2.5 1 1.325
2.625 1 1.325
2.75 1 1.325
2.875 1 1.325
3 1 1.325
3.125 1 1.325
3.25 1 1.325
3.375 1 1.325
3.5 1 1.325
3.625 1 1.325
3.75 1 1.325
3.875 1 1.325
4 1 1.325
0 0 1.45
0.125 0 1.45
0.25 0 1.45
0.375 0 1.45
0.5 0 1.45
0.625 0 1.45
0.75 0 1.45
0.875 0 1.45
1 0 1.45
1.125 0 1.45
1.25 0 1.45
1.375 0 1.45
1.5 0 1.45
1.625 0 1.45
1.75 0 1.45
1.875 0 1.45
2 0 1.45
2.125 0 1.45
2.25 0 1.45
2.375 0 1.45
2.5 0 1.45
2.625 0 1.45
2.75 0 1.45
2.875 0 1.45
3 0 1.45
3.125 0 1.45
3.25 0 1.45
3.375 0 1.45
3.5 0 1.45
3.625 0 1.45
3.75 0 1.45
3.875 0 1.45
4 0 1.45
0 0.125 1.45
0.125 0.125 1.45
0.25 0.125 1.45
0.375 0.125 1.45
0.5 0.125 1.45
0.625 0.125 1.45
0.75 0.125 1.45
0.875 0.125 1.45
1 0.125 1.45
1.125 0.125 1.45
1.25 0.125 1.45
1.375 0.125 1.45
1.5 0.125 1.45
1.625 0.125 1.45
1.75 0.125 1.45
1.875 0.125 1.45
2 0.125 1.45
2.125 0.125 1.45
2.25 0.125 1.45
2.375 0.125 1.45
2.5 0.125 1.45
2.625 0.125 1.45
2.75 0.125 1.45
2.875 0.125 1.45
3 0.125 1.45
3.125 0.125 1.45
3.25 0.125 1.45
3.375 0.125 1.45
3.5 0.125 1.45
3.625 0.125 1.45
3.75 0.125 1.45
3.875 0.125 1.45
4 0.125 1.45
0 0.25 1.45
0.125 0.25 1.45
0.25 0.25 1.45
0.375 0.25 1.45
0.5 0.25 1.45
0.625 0.25 1.45
0.75 0.25 1.45
0.875 0.25 1.45
1 0.25 1.45
1.125 0.25 1.45
1.25 0.25 1.45
1.375 0.25 1.45
1.5 0.25 1.45
1.625 0.25 1.45
1.75 0.25 1.45
1.875 0.25 1.45
2 0.25 1.45
2.125 0.25 1.45
2.25 0.25 1.45
2.375 0.25 1.45
2.5 0.25 1.45
2.625 0.25 1.45
2.75 0.25 1.45
2.875 0.25 1.45
3 0.25 1.45
3.125 0.25 1.45
3.25 0.25 1.45
3.375 0.25 1.45
3.5 0.25 1.45
3.625 0.25 1.45
3.75 0.25 1.45
3.875 0.25 1.45
4 0.25 1.45
0 0.375 1.45
0.125 0.375 1.45
0.25 0.375 1.45
0.375 0.375 1.45
0.5 0.375 1.45
0.625 0.375 1.45
0.75 0.375 1.45
0.875 0.375 1.45
1 0.375 1.45
1.125 0.375 1.45
1.25 0.375 1.45
1.375 0.375 1.45
1.5 0.375 1.45
1.625 0.375 1.45
1.75 0.375 1.45
1.875 0.375 1.45
2 0.375 1.45
2.125 0.375 1.45
2.25 0.375 1.45
2.375 0.375 1.45
2.5 0.375 1.45
2.625 0.375 1.45
2.75 0.375 1.45
2.875 0.375 1.45
3 0.375 1.45
3.125 0.375 1.45
3.25 0.375 1.45
3.375 0.375 1.45
3.5 0.375 1.45
3.625 0.375 1.45
3.75 0.375 1.45
3.875 0.375 1.45
4 0.375 1.45
0 0.5 1.45
0.125 0.5 1.45
0.25 0.5 1.45
0.375 0.5 1.45
0.5 0.5 1.45
0.625 0.5 1.45
0.75 0.5 1.45
0.875 0.5 1.45
1 0.5 1.45
1.125 0.5 1.45
1.25 0.5 1.45
1.375 0.5 1.45
1.5 0.5 1.45
1.625 0.5 1.45
1.75 0.5 1.45
1.875 0.5 1.45
2 0.5 1.45
2.125 0.5 1.45
2.25 0.5 1.45
2.375 0.5 1.45
2.5 0.5 1.45
2.625 0.5 1.45
2.75 0.5 1.45
2.875 0.5 1.45
3 0.5 1.45
3.125 0.5 1.45
3.25 0.5 1.45
3.375 0.5 1.45
3.5 0.5 1.45
3.625 0.5 1.45
3.75 0.5 1.45
3.875 0.5 1.45
4 0.5 1.45
0 0.625 1.45
0.125 0.625 1.45
0.25 0.625 1.45
0.375 0.625 1.45
0.5 0.625 1.45
0.625 0.625 1.45
0.75 0.625 1.45
0.875 0.625 1.45
1 0.625 1.45
1.125 0.625 1.45
1.25 0.625 1.45
1.375 0.625 1.45
1.5 0.625 1.45
1.625 0.625 1.45
1.75 0.625 1.45
1.875 0.625 1.45
2 0.625 1.45
2.125 0.625 1.45
2.25 0.625 1.45
2.375 0.625 1.45
2.5 0.625 1.45
2.625 0.625 1.45
2.75 0.625 1.45
2.875 0.625 1.45
3 0.625 1.45
3.125 0.625 1.45
3.25 0.625 1.45
3.375 0.625 1.45
3.5 0.625 1.45
3.625 0.625 1.45
3.75 0.625 1.45
3.875 0.625 1.45
4 0.625 1.45
0 0.75 1.45
0.125 0.75 1.45
0.25 0.75 1.45
0.375 0.75 1.45
0.5 0.75 1.45
0.625 0.75 1.45
0.75 0.75 1.45
0.875 0.75 1.45
1 0.75 1.45
1.125 0.75 1.45
1.25 0.75 1.45
1.375 0.75 1.45
1.5 0.75 1.45
1.625 0.75 1.45
1.75 0.75 1.45
1.875 0.75 1.45
2 0.75 1.45
2.125 0.75 1.45
2.25 0.75 1.45
2.375 0.75 1.45
2.5 0.75 1.45
2.625 0.75 1.45
2.75 0.75 1.45
2.875 0.75 1.45
3 0.75 1.45
3.125 0.75 1.45
3.25 0.75 1.45
3.375 0.75 1.45
3.5 0.75 1.45
3.625 0.75 1.45
3.75 0.75 1.45
3.875 0.75 1.45
4 0.75 1.45
0 0.875 1.45
0.125 0.875 1.45
0.25 0.875 1.45
0.375 0.875 1.45
0.5 0.875 1.45
0.625 0.875 1.45
0.75 0.875 1.45
0.875 0.875 1.45
1 0.875 1.45
1.125 0.875 1.45
1.25 0.875 1.45
1.375 0.875 1.45
1.5 0.875 1.45
1.625 0.875 1.45
1.75 0.875 1.45
1.875 0.875 1.45
2 0.875 1.45
2.125 0.875 1.45
2.25 0.875 1.45
2.375 0.875 1.45
2.5 0.875 1.45
2.625 0.875 1.45
2.75 0.875 1.45
2.875 0.875 1.45
3 0.875 1.45
3.125 0.875 1.45
3.25 0.875 1.45
3.375 0.875 1.45
3.5 0.875 1.45
3.625 0.875 1.45
3.75 0.875 1.45
3.875 0.875 1.45
4 0.875 1.45
0 1 1.45
0.125 1 1.45
0.25 1 1.45
0.375 1 1.45
0.5 1 1.45
0.625 1 1.45
0.75 1 1.45
0.875 1 1.45
1 1 1.45
1.125 1 1.45
1.25 1 1.45
1.375 1 1.45
1.5 1 1.45
1.625 1 1.45
1.75 1 1.45
1.875 1 1.45
2 1 1.45
2.125 1 1.45
2.25 1 1.45
2.375 1 1.45
2.5 1 1.45
2.625 1 1.45
2.75 1 1.45
2.875 1 1.45
3 1 1.45
3.125 1 1.45
3.25 1 1.45
3.375 1 1.45
3.5 1 1.45
3.625 1 1.45
3.75 1 1.45
3.875 1 1.45
4 1 1.45
0 0 1.575
0.125 0 1.575
0.25 0 1.575
0.375 0 1.575
0.5 0 1.575
0.625 0 1.575
0.75 0 1.575
0.875 0 1.575
1 0 1.575
1.125 0 1.575
1.25 0 1.575
1.375 0 1.575
1.5 0 1.575
1.625 0 1.575
1.75 0 1.575
1.875 0 1.575
2 0 1.575
2.125 0 1.575
2.25 0 1.575
2.375 0 1.575
2.5 0 1.575
2.625 0 1.575
2.75 0 1.575
2.875 0 1.575
3 0 1.575
3.125 0 1.575
3.25 0 1.575
3.375 0 1.575
3.5 0 1.575
3.625 0 1.575
3.75 0 1.575
3.875 0 1.575
4 0 1.575
0 0.125 1.575
0.125 0.125 1.575
0.25 0.125 1.575
0.375 0.125 1.575
0.5 0.125 1.575
0.625 0.125 1.575
0.75 0.125 1.575
0.875 0.125 1.575
1 0.125 1.575
1.125 0.125 1.575
1.25 0.125 1.575
1.375 0.125 1.575
1.5 0.125 1.575
1.625 0.125 1.575
1.75 0.125 1.575
1.875 0.125 1.575
2 0.125 1.575
2.125 0.125 1.575
2.25 0.125 1.575
2.375 0.125 1.575
2.5 0.125 1.575
2.625 0.125 1.575
2.75 0.125 1.575
2.875 0.125 1.575
3 0.125 1.575
3.125 0.125 1.575
3.25 0.125 1.575
3.375 0.125 1.575
3.5 0.125 1.575
3.625 0.125 1.575
3.75 0.125 1.575
3.875 0.125 1.575
4 0.125 1.575
0 0.25 1.575
0.125 0.25 1.575
0.25 0.25 1.575
0.375 0.25 1.575
0.5 0.25 1.575
0.625 0.25 1.575
0.75 0.25 1.575
0.875 0.25 1.575
1 0.25 1.575
1.125 0.25 1.575
1.25 0.25 1.575
1.375 0.25 1.575
1.5 0.25 1.575
1.625 0.25 1.575
1.75 0.25 1.575
1.875 0.25 1.575
2 0.25 1.575
2.125 0.25 1.575
2.25 0.25 1.575
2.375 0.25 1.575
2.5 0.25 1.575
2.625 0.25 1.575
2.75 0.25 1.575
2.875 0.25 1.575
3 0.25 1.575
3.125 0.25 1.575
3.25 0.25 1.575
3.375 0.25 1.575
3.5 0.25 1.575
3.625 0.25 1.575
3.75 0.25 1.575
3.875 0.25 1.575
4 0.25 1.575
0 0.375 1.575
0.125 0.375 1.575
0.25 0.375 1.575
0.375 0.375 1.575
0.5 0.375 1.575
0.625 0.375 1.575
0.75 0.375 1.575
0.875 0.375 1.575
1 0.375 1.575
1.125 0.375 1.575
1.25 0.375 1.575
1.375 0.375 1.575
1.5 0.375 1.575
1.625 0.375 1.575
1.75 0.375 1.575
1.875 0.375 1.575
2 0.375 1.575
2.125 0.375 1.575
2.25 0.375 1.575
2.375 0.375 1.575
2.5 0.375 1.575
2.625 0.375 1.575
2.75 0.375 1.575
2.875 0.375 1.575
3 0.375 1.575
3.125 0.375 1.575
3.25 0.375 1.575
3.375 0.375 1.575
3.5 0.375 1.575
3.625 0.375 1.575
3.75 0.375 1.575
3.875 0.375 1.575
4 0.375 1.575
0 0.5 1.575
0.125 0.5 1.575
0.25 0.5 1.575
0.375 0.5 1.575
0.5 0.5 1.575
0.625 0.5 1.575
0.75 0.5 1.575
0.875 0.5 1.575
1 0.5 1.575
1.125 0.5 1.575
1.25 0.5 1.575
1.375 0.5 1.575
1.5 0.5 1.575
1.625 0.5 1.575
1.75 0.5 1.575
1.875 0.5 1.575
2 0.5 1.575
2.125 0.5 1.575
2.25 0.5 1.575
2.375 0.5 1.575
2.5 0.5 1.575
2.625 0.5 1.575
2.75 0.5 1.575
2.875 0.5 1.575
3 0.5 1.575
3.125 0.5 1.575
3.25 0.5 1.575
3.375 0.5 1.575
3.5 0.5 1.575
3.625 0.5 1.575
3.75 0.5 1.575
3.875 0.5 1.575
4 0.5 1.575
0 0.625 1.575
0.125 0.625 1.575
0.25 0.625 1.575
0.375 0.625 1.575
0.5 0.625 1.575
0.625 0.625 1.575
0.75 0.625 1.575
0.875 0.625 1.575
1 0.625 1.575
1.125 0.625 1.575
1.25 0.625 1.575
1.375 0.625 1.575
1.5 0.625 1.575
1.625 0.625 1.575
1.75 0.625 1.575
1.875 0.625 1.575
2 0.625 1.575
2.125 0.625 1.575
2.25 0.625 1.575
2.375 0.625 1.575
2.5 0.625 1.575
2.625 0.625 1.575
2.75 0.625 1.575
2.875 0.625 1.575
3 0.625 1.575
3.125 0.625 1.575
3.25 0.625 1.575
3.375 0.625 1.575
3.5 0.625 1.575
3.625 0.625 1.575
3.75 0.625 1.575
3.875 0.625 1.575
4 0.625 1.575
0 0.75 1.575
0.125 0.75 1.575
0.25 0.75 1.575
0.375 0.75 1.575
0.5 0.75 1.575
0.625 0.75 1.575
0.75 0.75 1.575
0.875 0.75 1.575
1 0.75 1.575
1.125 0.75 1.575
1.25 0.75 1.575
1.375 0.75 1.575
1.5 0.75 1.575
1.625 0.75 1.575
1.75 0.75 1.575
1.875 0.75 1.575
2 0.75 1.575
2.125 0.75 1.575
2.25 0.75 1.575
2.375 0.75 1.575
2.5 0.75 1.575
2.625 0.75 1.575
2.75 0.75 1.575
2.875 0.75 1.575
3 0.75 1.575
3.125 0.75 1.575
3.25 0.75 1.575
3.375 0.75 1.575
3.5 0.75 1.575
3.625 0.75 1.575
3.75 0.75 1.575
3.875 0.75 1.575
4 0.75 1.575
0 0.875 1.575
0.125 0.875 1.575
0.25 0.875 1.575
0.375 0.875 1.575
0.5 0.875 1.575
0.625 0.875 1.575
0.75 0.875 1.575
0.875 0.875 1.575
1 0.875 1.575
1.125 0.875 1.575
1.25 0.875 1.575
1.375 0.875 1.575
1.5 0.875 1.575
1.625 0.875 1.575
1.75 0.875 1.575
1.875 0.875 1.575
2 0.875 1.575
2.125 0.875 1.575
2.25 0.875 1.575
2.375 0.875 1.575
2.5 0.875 1.575
2.625 0.875 1.575
2.75 0.875 1.575
2.875 0.875 1.575
3 0.875 1.575
3.125 0.875 1.575
3.25 0.875 1.575
3.375 0.875 1.575
3.5 0.875 1.575
3.625 0.875 1.575
3.75 0.875 1.575
3.875 0.875 1.575
4 0.875 1.575
0 1 1.575
0.125 1 1.575
0.25 1 1.575
0.375 1 1.575
0.5 1 1.575
0.625 1 1.575
0.75 1 1.575
0.875 1 1.575
1 1 1.575
1.125 1 1.575
1.25 1 1.575
1.375 1 1.575
1.5 1 1.575
1.625 1 1.575
1.75 1 1.575
1.875 1 1.575
2 1 1.575
2.125 1 1.575
2.25 1 1.575
2.375 1 1.575
2.5 1 1.575
2.625 1 1.575
2.75 1 1.575
2.875 1 1.575
3 1 1.575
3.125 1 1.575
3.25 1 1.575
3.375 1 1.575
3.5 1 1.575
3.625 1 1.575
3.75 1 1.575
3.875 1 1.575
4 1 1.575
0 0 1.7
0.125 0 1.7
0.25 0 1.7
0.375 0 1.7
0.5 0 1.7
0.625 0 1.7
0.75 0 1.7
0.875 0 1.7
1 0 1.7
1.125 0 1.7
1.25 0 1.7
1.375 0 1.7
1.5 0 1.7
1.625 0 1.7
1.75 0 1.7
1.875 0 1.7
2 0 1.7
2.125 0 1.7
2.25 0 1.7
2.375 0 1.7
2.5 0 1.7
2.625 0 1.7
2.75 0 1.7
2.875 0 1.7
3 0 1.7
3.125 0 1.7
3.25 0 1.7
3.375 0 1.7
3.5 0 1.7
3.625 0 1.7
3.75 0 1.7
3.875 0 1.7
4 0 1.7
0 0.125 1.7
0.125 0.125 1.7
0.25 0.125 1.7
0.375 0.125 1.7
0.5 0.125 1.7
0.625 0.125 1.7
0.75 0.125 1.7
0.875 0.125 1.7
1 0.125 1.7
1.125 0.125 1.7
1.25 0.125 1.7
1.375 0.125 1.7
1.5 0.125 1.7
1.625 0.125 1.7
1.75 0.125 1.7
1.875 0.125 1.7
2 0.125 1.7
2.125 0.125 1.7
2.25 0.125 1.7
2.375 0.125 1.7
2.5 0.125 1.7
2.625 0.125 1.7
2.75 0.125 1.7
2.875 0.125 1.7
3 0.125 1.7
3.125 0.125 1.7
3.25 0.125 1.7
3.375 0.125 1.7
3.5 0.125 1.7
3.625 0.125 1.7
3.75 0.125 1.7
3.875 0.125 1.7
4 0.125 1.7
0 0.25 1.7
0.125 0.25 1.7
0.25 0.25 1.7
0.375 0.25 1.7
0.5 0.25 1.7
0.625 0.25 1.7
0.75 0.25 1.7
0.875 0.25 1.7
1 0.25 1.7
1.125 0.25 1.7
1.25 0.25 1.7
1.375 0.25 1.7
1.5 0.25 1.7
1.625 0.25 1.7
1.75 0.25 1.7
1.875 0.25 1.7
2 0.25 1.7
2.125 0.25 1.7
2.25 0.25 1.7
2.375 0.25 1.7
2.5 0.25 1.7
2.625 0.25 1.7
2.75 0.25 1.7
2.875 0.25 1.7
3 0.25 1.7
3.125 0.25 1.7
3.25 0.25 1.7
3.375 0.25 1.7
3.5 0.25 1.7
3.625 0.25 1.7
3.75 0.25 1.7
3.875 0.25 1.7
4 0.25 1.7
0 0.375 1.7
0.125 0.375 1.7
0.25 0.375 1.7
0.375 0.375 1.7
0.5 0.375 1.7
0.625 0.375 1.7
0.75 0.375 1.7
0.875 0.375 1.7
1 0.375 1.7
1.125 0.375 1.7
1.25 0.375 1.7
1.375 0.375 1.7
1.5 0.375 1.7
1.625 0.375 1.7
1.75 0.375 1.7
1.875 0.375 1.7
2 0.375 1.7
2.125 0.375 1.7
2.25 0.375 1.7
2.375 0.375 1.7
2.5 0.375 1.7
2.625 0.375 1.7
2.75 0.375 1.7
2.875 0.375 1.7
3 0.375 1.7
3.125 0.375 1.7
3.25 0.375 1.7
3.375 0.375 1.7
3.5 0.375 1.7
3.625 0.375 1.7
3.75 0.375 1.7
3.875 0.375 1.7
4 0.375 1.7
0 0.5 1.7
0.125 0.5 1.7
0.25 0.5 1.7
0.375 0.5 1.7
0.5 0.5 1.7
0.625 0.5 1.7
0.75 0.5 1.7
0.875 0.5 1.7
1 0.5 1.7
1.125 0.5 1.7
1.25 0.5 1.7
1.375 0.5 1.7
1.5 0.5 1.7
1.625 0.5 1.7
1.75 0.5 1.7
1.875 0.5 1.7
2 0.5 1.7
2.125 0.5 1.7
2.25 0.5 1.7
2.375 0.5 1.7
2.5 0.5 1.7
2.625 0.5 1.7
2.75 0.5 1.7
2.875 0.5 1.7
3 0.5 1.7
3.125 0.5 1.7
3.25 0.5 1.7
3.375 0.5 1.7
3.5 0.5 1.7
3.625 0.5 1.7
3.75 0.5 1.7
3.875 0.5 1.7
4 0.5 1.7
0 0.625 1.7
0.125 0.625 1.7
0.25 0.625 1.7
0.375 0.625 1.7
0.5 0.625 1.7
0.625 0.625 1.7
0.75 0.625 1.7
0.875 0.625 1.7
1 0.625 1.7
1.125 0.625 1.7
1.25 0.625 1.7
1.375 0.625 1.7
1.5 0.625 1.7
1.625 0.625 1.7
1.75 0.625 1.7
1.875 0.625 1.7
2 0.625 1.7
2.125 0.625 1.7
2.25 0.625 1.7
2.375 0.625 1.7
2.5 0.625 1.7
2.625 0.625 1.7
2.75 0.625 1.7
2.875 0.625 1.7
3 0.625 1.7
3.125 0.625 1.7
3.25 0.625 1.7
3.375 0.625 1.7
3.5 0.625 1.7
3.625 0.625 1.7
3.75 0.625 1.7
3.875 0.625 1.7
4 0.625 1.7
0 0.75 1.7
0.125 0.75 1.7
0.25 0.75 1.7
0.375 0.75 1.7
0.5 0.75 1.7
0.625 0.75 1.7
0.75 0.75 1.7
0.875 0.75 1.7
1 0.75 1.7
1.125 0.75 1.7
1.25 0.75 1.7
1.375 0.75 1.7
1.5 0.75 1.7
1.625 0.75 1.7
1.75 0.75 1.7
1.875 0.75 1.7
2 0.75 1.7
2.125 0.75 1.7
2.25 0.75 1.7
2.375 0.75 1.7
2.5 0.75 1.7
2.625 0.75 1.7
2.75 0.75 1.7
2.875 0.75 1.7
3 0.75 1.7
3.125 0.75 1.7
3.25 0.75 1.7
3.375 0.75 1.7
3.5 0.75 1.7
3.625 0.75 1.7
3.75 0.75 1.7
3.875 0.75 1.7
4 0.75 1.7
0 0.875 1.7
0.125 0.875 1.7
0.25 0.875 1.7
0.375 0.875 1.7
0.5 0.875 1.7
0.625 0.875 1.7
0.75 0.875 1.7
0.875 0.875 1.7
1 0.875 1.7
1.125 0.875 1.7
1.25 0.875 1.7
1.375 0.875 1.7
1.5 0.875 1.7
1.625 0.875 1.7
1.75 0.875 1.7
1.875 0.875 1.7
2 0.875 1.7
2.125 0.875 1.7
2.25 0.875 1.7
2.375 0.875 1.7
2.5 0.875 1.7
2.625 0.875 1.7
2.75 0.875 1.7
2.875 0.875 1.7
3 0.875 1.7
3.125 0.875 1.7
3.25 0.875 1.7
3.375 0.875 1.7
3.5 0.875 1.7
3.625 0.875 1.7
3.75 0.875 1.7
3.875 0.875 1.7
4 0.875 1.7
0 1 1.7
0.125 1 1.7
0.25 1 1.7
0.375 1 1.7
0.5 1 1.7
0.625 1 1.7
0.75 1 1.7
0.875 1 1.7
1 1 1.7
1.125 1 1.7
1.25 1 1.7
1.375 1 1.7
1.5 1 1.7
1.625 1 1.7
1.75 1 1.7
1.875 1 1.7
2 1 1.7
2.125 1 1.7
2.25 1 1.7
2.375 1 1.7
2.5 1 1.7
2.625 1 1.7
2.75 1 1.7
2.875 1 1.7
3 1 1.7
3.125 1 1.7
3.25 1 1.7
3.375 1 1.7
3.5 1 1.7
3.625 1 1.7
3.75 1 1.7
3.875 1 1.7
4 1 1.7
0 0.0625 0.7
0.0625 0.125 0.7625
0.0625 0.0625 0.7625
0.0625 0.0625 0.7
0.0625 0.125 0.7
0.125 0.125 0.7625
0.0625 0.0625 0.825
0.125 0.0625 0.825
0.0625 0 0.825
0 0 0.7625
0.0625 0 0.7625
0 0.125 0.7625
0 0.0625 0.7625
0.0625 0.125 0.825
0 0.0625 0.825
0.125 0 0.7625
0.0625 0 0.7
0.125 0.0625 0.7625
0.125 0.0625 0.7
0.1875 0.125 0.7625
0.1875 0.0625 0.7625
0.1875 0.0625 0.7
0.1875 0.125 0.7
0.25 0.125 0.7625
0.1875 0.0625 0.825
0.25 0.0625 0.825
0.1875 0 0.825
0.1875 0 0.7625
0.1875 0.125 0.825
0.25 0 0.7625
0.1875 0 0.7
0.25 0.0625 0.7625
0.25 0.0625 0.7
0.3125 0.125 0.7625
0.3125 0.0625 0.7625
0.3125 0.0625 0.7
0.3125 0.125 0.7
0.375 0.125 0.7625
0.3125 0.0625 0.825
0.375 0.0625 0.825
0.3125 0 0.825
0.3125 0 0.7625
0.3125 0.125 0.825
0.375 0 0.7625
0.3125 0 0.7
0.375 0.0625 0.7625
0.375 0.0625 0.7
0.4375 0.125 0.7625
0.4375 0.0625 0.7625
0.4375 0.0625 0.7
0.4375 0.125 0.7
0.5 0.125 0.7625
0.4375 0.0625 0.825
0.5 0.0625 0.825
0.4375 0 0.825
0.4375 0 0.7625
0.4375 0.125 0.825
0.5 0 0.7625
0.4375 0 0.7
0.5 0.0625 0.7625
0.5 0.0625 0.7
0.5625 0.125 0.7625
0.5625 0.0625 0.7625
0.5625 0.0625 0.7
0.5625 0.125 0.7
0.625 0.125 0.7625
0.5625 0.0625 0.825
0.625 0.0625 0.825
0.5625 0 0.825
0.5625 0 0.7625
0.5625 0.125 0.825
0.625 0 0.7625
0.5625 0 0.7
0.625 0.0625 0.7625
0.625 0.0625 0.7
0.6875 0.125 0.7625
0.6875 0.0625 0.7625
0.6875 0.0625 0.7
0.6875 0.125 0.7
0.75 0.125 0.7625
0.6875 0.0625 0.825
0.75 0.0625 0.825
0.6875 0 0.825
0.6875 0 0.7625
0.6875 0.125 0.825
0.75 0 0.7625
0.6875 0 0.7
0.75 0.0625 0.7625
0.75 0.0625 0.7
0.8125 0.125 0.7625
0.8125 0.0625 0.7625
0.8125 0.0625 0.7
0.8125 0.125 0.7
0.875 0.125 0.7625
0.8125 0.0625 0.825
0.875 0.0625 0.825
0.8125 0 0.825
0.8125 0 0.7625
0.8125 0.125 0.825
0.875 0 0.7625
0.8125 0 0.7
0.875 0.0625 0.7625
0.875 0.0625 0.7
0.9375 0.125 0.7625
0.9375 0.0625 0.7625
0.9375 0.0625 0.7
0.9375 0.125 0.7
1 0.125 0.7625
0.9375 0.0625 0.825
1 0.0625 0.825
0.9375 0 0.825
0.9375 0 0.7625
0.9375 0.125 0.825
1 0 0.7625
0.9375 0 0.7
1 0.0625 0.7625
1 0.0625 0.7
1.0625 0.125 0.7625
1.0625 0.0625 0.7625
1.0625 0.0625 0.7
1.0625 0.125 0.7
1.125 0.125 0.7625
1.0625 0.0625 0.825
1.125 0.0625 0.825
1.0625 0 0.825
1.0625 0 0.7625
1.0625 0.125 0.825
1.125 0 0.7625
1.0625 0 0.7
1.125 0.0625 0.7625
1.125 0.0625 0.7
1.1875 0.125 0.7625
1.1875 0.0625 0.7625
1.1875 0.0625 0.7
1.1875 0.125 0.7
1.25 0.125 0.7625
1.1875 0.0625 0.825
1.25 0.0625 0.825
1.1875 0 0.825
1.1875 0 0.7625
1.1875 0.125 0.825
1.25 0 0.7625
1.1875 0 0.7
1.25 0.0625 0.7625
1.25 0.0625 0.7
1.3125 0.125 0.7625
1.3125 0.0625 0.7625
1.3125 0.0625 0.7
1.3125 0.125 0.7
1.375 0.125 0.7625
1.3125 0.0625 0.825
1.375 0.0625 0.825
1.3125 0 0.825
1.3125 0 0.7625
1.3125 0.125 0.825
1.375 0 0.7625
1.3125 0 0.7
1.375 0.0625 0.7625
1.375 0.0625 0.7
1.4375 0.125 0.7625
1.4375 0.0625 0.7625
1.4375 0.0625 0.7
1.4375 0.125 0.7
1.5 0.125 0.7625
1.4375 0.0625 0.825
1.5 0.0625 0.825
1.4375 0 0.825
1.4375 0 0.7625
1.4375 0.125 0.825
1.5 0 0.7625
1.4375 0 0.7
1.5 0.0625 0.7625
1.5 0.0625 0.7
1.5625 0.125 0.7625
1.5625 0.0625 0.7625
1.5625 0.0625 0.7
1.5625 0.125 0.7
1.625 0.125 0.7625
1.5625 0.0625 0.825
1.625 0.0625 0.825
1.5625 0 0.825
1.5625 0 0.7625
1.5625 0.125 0.825
1.625 0 0.7625
1.5625 0 0.7
1.625 0.0625 0.7625
1.625 0.0625 0.7
1.6875 0.125 0.7625
1.6875 0.0625 0.7625
1.6875 0.0625 0.7
1.6875 0.125 0.7
1.75 0.125 0.7625
1.6875 0.0625 0.825
1.75 0.0625 0.825
1.6875 0 0.825
1.6875 0 0.7625
1.6875 0.125 0.825
1.75 0 0.7625
1.6875 0 0.7
1.75 0.0625 0.7625
1.75 0.0625 0.7
1.8125 0.125 0.7625
1.8125 0.0625 0.7625
1.8125 0.0625 0.7
1.8125 0.125 0.7
1.875 0.125 0.7625
1.8125 0.0625 0.825
1.875 0.0625 0.825
1.8125 0 0.825
1.8125 0 0.7625
1.8125 0.125 0.825
1.875 0 0.7625
1.8125 0 0.7
1.875 0.0625 0.7625
1.875 0.0625 0.7
1.9375 0.125 0.7625
1.9375 0.0625 0.7625
1.9375 0.0625 0.7
1.9375 0.125 0.7
2 0.125 0.7625
1.9375 0.0625 0.825
2 0.0625 0.825
1.9375 0 0.825
1.9375 0 0.7625
1.9375 0.125 0.825
2 0 0.7625
1.9375 0 0.7
2 0.0625 0.7625
2 0.0625 0.7
2.0625 0.125 0.7625
2.0625 0.0625 0.7625
2.0625 0.0625 0.7
2.0625 0.125 0.7
2.125 0.125 0.7625
2.0625 0.0625 0.825
2.125 0.0625 0.825
2.0625 0 0.825
2.0625 0 0.7625
2.0625 0.125 0.825
2.125 0 0.7625
2.0625 0 0.7
2.125 0.0625 0.7625
2.125 0.0625 0.7
2.1875 0.125 0.7625
2.1875 0.0625 0.7625
2.1875 0.0625 0.7
2.1875 0.125 0.7
2.25 0.125 0.7625
2.1875 0.0625 0.825
2.25 0.0625 0.825
2.1875 0 0.825
2.1875 0 0.7625
2.1875 0.125 0.825
2.25 0 0.7625
2.1875 0 0.7
2.25 0.0625 0.7625
2.25 0.0625 0.7
2.3125 0.125 0.7625
2.3125 0.0625 0.7625
2.3125 0.0625 0.7
2.3125 0.125 0.7
2.375 0.125 0.7625
2.3125 0.0625 0.825
2.375 0.0625 0.825
2.3125 0 0.825
2.3125 0 0.7625
2.3125 0.125 0.825
2.375 0 0.7625
2.3125 0 0.7
2.375 0.0625 0.7625
2.375 0.0625 0.7
2.4375 0.125 0.7625
2.4375 0.0625 0.7625
2.4375 0.0625 0.7
2.4375 0.125 0.7
2.5 0.125 0.7625
2.4375 0.0625 0.825
2.5 0.0625 0.825
2.4375 0 0.825
2.4375 0 0.7625
2.4375 0.125 0.825
2.5 0 0.7625
2.4375 0 0.7
2.5 0.0625 0.7625
2.5 0.0625 0.7
2.5625 0.125 0.7625
2.5625 0.0625 0.7625
2.5625 0.0625 0.7
2.5625 0.125 0.7
2.625 0.125 0.7625
2.5625 0.0625 0.825
2.625 0.0625 0.825
2.5625 0 0.825
2.5625 0 0.7625
2.5625 0.125 0.825
2.625 0 0.7625
2.5625 0 0.7
2.625 0.0625 0.7625
2.625 0.0625 0.7
2.6875 0.125 0.7625
2.6875 0.0625 0.7625
2.6875 0.0625 0.7
2.6875 0.125 0.7
2.75 0.125 0.7625
2.6875 0.0625 0.825
2.75 0.0625 0.825
2.6875 0 0.825
2.6875 0 0.7625
2.6875 0.125 0.825
2.75 0 0.7625
2.6875 0 0.7
2.75 0.0625 0.7625
2.75 0.0625 0.7
2.8125 0.125 0.7625
2.8125 0.0625 0.7625
2.8125 0.0625 0.7
2.8125 0.125 0.7
2.875 0.125 0.7625
2.8125 0.0625 0.825
2.875 0.0625 0.825
2.8125 0 0.825
2.8125 0 0.7625
2.8125 0.125 0.825
2.875 0 0.7625
2.8125 0 0.7
2.875 0.0625 0.7625
2.875 0.0625 0.7
2.9375 0.125 0.7625
2.9375 0.0625 0.7625
2.9375 0.0625 0.7
2.9375 0.125 0.7
3 0.125 0.7625
2.9375 0.0625 0.825
3 0.0625 0.825
2.9375 0 0.825
2.9375 0 0.7625
2.9375 0.125 0.825
3 0 0.7625
2.9375 0 0.7
3 0.0625 0.7625
3 0.0625 0.7
3.0625 0.125 0.7625
3.0625 0.0625 0.7625
3.0625 0.0625 0.7
3.0625 0.125 0.7
3.125 0.125 0.7625
3.0625 0.0625 0.825
3.125 0.0625 0.825
3.0625 0 0.825
3.0625 0 0.7625
3.0625 0.125 0.825
3.125 0 0.7625
3.0625 0 0.7
3.125 0.0625 0.7625
3.125 0.0625 0.7
3.1875 0.125 0.7625
3.1875 0.0625 0.7625
3.1875 0.0625 0.7
3.1875 0.125 0.7
3.25 0.125 0.7625
3.1875 0.0625 0.825
3.25 0.0625 0.825
3.1875 0 0.825
3.1875 0 0.7625
3.1875 0.125 0.825
3.25 0 0.7625
3.1875 0 0.7
3.25 0.0625 0.7625
3.25 0.0625 0.7
3.3125 0.125 0.7625
3.3125 0.0625 0.7625
3.3125 0.0625 0.7
3.3125 0.125 0.7
3.375 0.125 0.7625
3.3125 0.0625 0.825
3.375 0.0625 0.825
3.3125 0 0.825
3.3125 0 0.7625
3.3125 0.125 0.825
3.375 0 0.7625
3.3125 0 0.7
3.375 0.0625 0.7625
3.375 0.0625 0.7
3.4375 0.125 0.7625
3.4375 0.0625 0.7625
3.4375 0.0625 0.7
3.4375 0.125 0.7
3.5 0.125 0.7625
3.4375 0.0625 0.825
3.5 0.0625 0.825
3.4375 0 0.825
3.4375 0 0.7625
3.4375 0.125 0.825
3.5 0 0.7625
3.4375 0 0.7
3.5 0.0625 0.7625
3.5 0.0625 0.7
3.5625 0.125 0.7625
3.5625 0.0625 0.7625
3.5625 0.0625 0.7
3.5625 0.125 0.7
3.625 0.125 0.7625
3.5625 0.0625 0.825
3.625 0.0625 0.825
3.5625 0 0.825
3.5625 0 0.7625
3.5625 0.125 0.825
3.625 0 0.7625
3.5625 0 0.7
3.625 0.0625 0.7625
3.625 0.0625 0.7
3.6875 0.125 0.7625
3.6875 0.0625 0.7625
3.6875 0.0625 0.7
3.6875 0.125 0.7
3.75 0.125 0.7625
3.6875 0.0625 0.825
3.75 0.0625 0.825
3.6875 0 0.825
3.6875 0 0.7625
3.6875 0.125 0.825
3.75 0 0.7625
3.6875 0 0.7
3.75 0.0625 0.7625
3.75 0.0625 0.7
3.8125 0.125 0.7625
3.8125 0.0625 0.7625
3.8125 0.0625 0.7
3.8125 0.125 0.7
3.875 0.125 0.7625
3.8125 0.0625 0.825
3.875 0.0625 0.825
3.8125 0 0.825
3.8125 0 0.7625
3.8125 0.125 0.825
3.875 0 0.7625
3.8125 0 0.7
3.875 0.0625 0.7625
3.875 0.0625 0.7
3.9375 0.125 0.7625
3.9375 0.0625 0.7625
3.9375 0.0625 0.7
3.9375 0.125 0.7
4 0.125 0.7625
3.9375 0.0625 0.825
4 0.0625 0.825
3.9375 0 0.825
3.9375 0 0.7625
3.9375 0.125 0.825
4 0 0.7625
3.9375 0 0.7
4 0.0625 0.7625
4 0.0625 0.7
0 0.1875 0.7
0.0625 0.25 0.7625
0.0625 0.1875 0.7625
0.0625 0.1875 0.7
0.0625 0.25 0.7
0.125 0.25 0.7625
0.0625 0.1875 0.825
0.125 0.1875 0.825
0 0.25 0.7625
0 0.1875 0.7625
0.0625 0.25 0.825
0 0.1875 0.825
0.125 0.1875 0.7625
0.125 0.1875 0.7
0.1875 0.25 0.7625
0.1875 0.1875 0.7625
0.1875 0.1875 0.7
0.1875 0.25 0.7
0.25 0.25 0.7625
0.1875 0.1875 0.825
0.25 0.1875 0.825
0.1875 0.25 0.825
0.25 0.1875 0.7625
0.25 0.1875 0.7
0.3125 0.25 0.7625
0.3125 0.1875 0.7625
0.3125 0.1875 0.7
0.3125 0.25 0.7
0.375 0.25 0.7625
0.3125 0.1875 0.825
0.375 0.1875 0.825
0.3125 0.25 0.825
0.375 0.1875 0.7625
0.375 0.1875 0.7
0.4375 0.25 0.7625
0.4375 0.1875 0.7625
0.4375 0.1875 0.7
0.4375 0.25 0.7
0.5 0.25 0.7625
0.4375 0.1875 0.825
0.5 0.1875 0.825
0.4375 0.25 0.825
0.5 0.1875 0.7625
0.5 0.1875 0.7
0.5625 0.25 0.7625
0.5625 0.1875 0.7625
0.5625 0.1875 0.7
0.5625 0.25 0.7
0.625 0.25 0.7625
0.5625 0.1875 0.825
0.625 0.1875 0.825
0.5625 0.25 0.825
0.625 0.1875 0.7625
0.625 0.1875 0.7
0.6875 0.25 0.7625
0.6875 0.1875 0.7625
0.6875 0.1875 0.7
0.6875 0.25 0.7
0.75 0.25 0.7625
0.6875 0.1875 0.825
0.75 0.1875 0.825
0.6875 0.25 0.825
0.75 0.1875 0.7625
0.75 0.1875 0.7
0.8125 0.25 0.7625
0.8125 0.1875 0.7625
0.8125 0.1875 0.7
0.8125 0.25 0.7
0.875 0.25 0.7625
0.8125 0.1875 0.825
0.875 0.1875 0.825
0.8125 0.25 0.825
0.875 0.1875 0.7625
0.875 0.1875 0.7
0.9375 0.25 0.7625
0.9375 0.1875 0.7625
0.9375 0.1875 0.7
0.9375 0.25 0.7
1 0.25 0.7625
0.9375 0.1875 0.825
1 0.1875 0.825
0.9375 0.25 0.825
1 0.1875 0.7625
1 0.1875 0.7
1.0625 0.25 0.7625
1.0625 0.1875 0.7625
1.0625 0.1875 0.7
1.0625 0.25 0.7
1.125 0.25 0.7625
1.0625 0.1875 0.825
1.125 0.1875 0.825
1.0625 0.25 0.825
1.125 0.1875 0.7625
1.125 0.1875 0.7
1.1875 0.25 0.7625
1.1875 0.1875 0.7625
1.1875 0.1875 0.7
1.1875 0.25 0.7
1.25 0.25 0.7625
1.1875 0.1875 0.825
1.25 0.1875 0.825
1.1875 0.25 0.825
1.25 0.1875 0.7625
1.25 0.1875 0.7
1.3125 0.25 0.7625
1.3125 0.1875 0.7625
1.3125 0.1875 0.7
1.3125 0.25 0.7
1.375 0.25 0.7625
1.3125 0.1875 0.825
1.375 0.1875 0.825
1.3125 0.25 0.825
1.375 0.1875 0.7625
1.375 0.1875 0.7
1.4375 0.25 0.7625
1.4375 0.1875 0.7625
1.4375 0.1875 0.7
1.4375 0.25 0.7
1.5 0.25 0.7625
1.4375 0.1875 0.825
1.5 0.1875 0.825
1.4375 0.25 0.825
1.5 0.1875 0.7625
1.5 0.1875 0.7
1.5625 0.25 0.7625
1.5625 0.1875 0.7625
1.5625 0.1875 0.7
1.5625 0.25 0.7
1.625 0.25 0.7625
1.5625 0.1875 0.825
1.625 0.1875 0.825
1.5625 0.25 0.825
1.625 0.1875 0.7625
1.625 0.1875 0.7
1.6875 0.25 0.7625
1.6875 0.1875 0.7625
1.6875 0.1875 0.7
1.6875 0.25 0.7
1.75 0.25 0.7625
1.6875 0.1875 0.825
1.75 0.1875 0.825
1.6875 0.25 0.825
1.75 0.1875 0.7625
1.75 0.1875 0.7
1.8125 0.25 0.7625
1.8125 0.1875 0.7625
1.8125 0.1875 0.7
1.8125 0.25 0.7
1.875 0.25 0.7625
1.8125 0.1875 0.825
1.875 0.1875 0.825
1.8125 0.25 0.825
1.875 0.1875 0.7625
1.875 0.1875 0.7
1.9375 0.25 0.7625
1.9375 0.1875 0.7625
1.9375 0.1875 0.7
1.9375 0.25 0.7
2 0.25 0.7625
1.9375 0.1875 0.825
2 0.1875 0.825
1.9375 0.25 0.825
2 0.1875 0.7625
2 0.1875 0.7
2.0625 0.25 0.7625
2.0625 0.1875 0.7625
2.0625 0.1875 0.7
2.0625 0.25 0.7
2.125 0.25 0.7625
2.0625 0.1875 0.825
2.125 0.1875 0.825
2.0625 0.25 0.825
2.125 0.1875 0.7625
2.125 0.1875 0.7
2.1875 0.25 0.7625
2.1875 0.1875 0.7625
2.1875 0.1875 0.7
2.1875 0.25 0.7
2.25 0.25 0.7625
2.1875 0.1875 0.825
2.25 0.1875 0.825
2.1875 0.25 0.825
2.25 0.1875 0.7625
2.25 0.1875 0.7
2.3125 0.25 0.7625
2.3125 0.1875 0.7625
2.3125 0.1875 0.7
2.3125 0.25 0.7
2.375 0.25 0.7625
2.3125 0.1875 0.825
2.375 0.1875 0.825
2.3125 0.25 0.825
2.375 0.1875 0.7625
2.375 0.1875 0.7
2.4375 0.25 0.7625
2.4375 0.1875 0.7625
2.4375 0.1875 0.7
2.4375 0.25 0.7
2.5 0.25 0.7625
2.4375 0.1875 0.825
2.5 0.1875 0.825
2.4375 0.25 0.825
2.5 0.1875 0.7625
2.5 0.1875 0.7
2.5625 0.25 0.7625
2.5625 0.1875 0.7625
2.5625 0.1875 0.7
2.5625 0.25 0.7
2.625 0.25 0.7625
2.5625 0.1875 0.825
2.625 0.1875 0.825
2.5625 0.25 0.825
2.625 0.1875 0.7625
2.625 0.1875 0.7
2.6875 0.25 0.7625
2.6875 0.1875 0.7625
2.6875 0.1875 0.7
2.6875 0.25 0.7
2.75 0.25 0.7625
2.6875 0.1875 0.825
2.75 0.1875 0.825
2.6875 0.25 0.825
2.75 0.1875 0.7625
2.75 0.1875 0.7
2.8125 0.25 0.7625
2.8125 0.1875 0.7625
2.8125 0.1875 0.7
2.8125 0.25 0.7
2.875 0.25 0.7625
2.8125 0.1875 0.825
2.875 0.1875 0.825
2.8125 0.25 0.825
2.875 0.1875 0.7625
2.875 0.1875 0.7
2.9375 0.25 0.7625
2.9375 0.1875 0.7625
2.9375 0.1875 0.7
2.9375 0.25 0.7
3 0.25 0.7625
2.9375 0.1875 0.825
3 0.1875 0.825
2.9375 0.25 0.825
3 0.1875 0.7625
3 0.1875 0.7
3.0625 0.25 0.7625
3.0625 0.1875 0.7625
3.0625 0.1875 0.7
3.0625 0.25 0.7
3.125 0.25 0.7625
3.0625 0.1875 0.825
3.125 0.1875 0.825
3.0625 0.25 0.825
3.125 0.1875 0.7625
3.125 0.1875 0.7
3.1875 0.25 0.7625
3.1875 0.1875 0.7625
3.1875 0.1875 0.7
3.1875 0.25 0.7
3.25 0.25 0.7625
3.1875 0.1875 0.825
3.25 0.1875 0.825
3.1875 0.25 0.825
3.25 0.1875 0.7625
3.25 0.1875 0.7
3.3125 0.25 0.7625
3.3125 0.1875 0.7625
3.3125 0.1875 0.7
3.3125 0.25 0.7
3.375 0.25 0.7625
3.3125 0.1875 0.825
3.375 0.1875 0.825
3.3125 0.25 0.825
3.375 0.1875 0.7625
3.375 0.1875 0.7
3.4375 0.25 0.7625
3.4375 0.1875 0.7625
3.4375 0.1875 0.7
3.4375 0.25 0.7
3.5 0.25 0.7625
3.4375 0.1875 0.825
3.5 0.1875 0.825
3.4375 0.25 0.825
3.5 0.1875 0.7625
3.5 0.1875 0.7
3.5625 0.25 0.7625
3.5625 0.1875 0.7625
3.5625 0.1875 0.7
3.5625 0.25 0.7
3.625 0.25 0.7625
3.5625 0.1875 0.825
3.625 0.1875 0.825
3.5625 0.25 0.825
3.625 0.1875 0.7625
3.625 0.1875 0.7
3.6875 0.25 0.7625
3.6875 0.1875 0.7625
3.6875 0.1875 0.7
3.6875 0.25 0.7
3.75 0.25 0.7625
3.6875 0.1875 0.825
3.75 0.1875 0.825
3.6875 0.25 0.825
3.75 0.1875 0.7625
3.75 0.1875 0.7
3.8125 0.25 0.7625
3.8125 0.1875 0.7625
3.8125 0.1875 0.7
3.8125 0.25 0.7
3.875 0.25 0.7625
3.8125 0.1875 0.825
3.875 0.1875 0.825
3.8125 0.25 0.825
3.875 0.1875 0.7625
3.875 0.1875 0.7
3.9375 0.25 0.7625
3.9375 0.1875 0.7625
3.9375 0.1875 0.7
3.9375 0.25 0.7
4 0.25 0.7625
3.9375 0.1875 0.825
4 0.1875 0.825
3.9375 0.25 0.825
4 0.1875 0.7625
4 0.1875 0.7
0 0.3125 0.7
0.0625 0.375 0.7625
0.0625 0.3125 0.7625
0.0625 0.3125 0.7
0.0625 0.375 0.7
0.125 0.375 0.7625
0.0625 0.3125 0.825
0.125 0.3125 0.825
0 0.375 0.7625
0 0.3125 0.7625
0.0625 0.375 0.825
0 0.3125 0.825
0.125 0.3125 0.7625
0.125 0.3125 0.7
0.1875 0.375 0.7625
0.1875 0.3125 0.7625
0.1875 0.3125 0.7
0.1875 0.375 0.7
0.25 0.375 0.7625
0.1875 0.3125 0.825
0.25 0.3125 0.825
0.1875 0.375 0.825
0.25 0.3125 0.7625
0.25 0.3125 0.7
0.3125 0.375 0.7625
0.3125 0.3125 0.7625
0.3125 0.3125 0.7
0.3125 0.375 0.7
0.375 0.375 0.7625
0.3125 0.3125 0.825
0.375 0.3125 0.825
0.3125 0.375 0.825
0.375 0.3125 0.7625
0.375 0.3125 0.7
0.4375 0.375 0.7625
0.4375 0.3125 0.7625
0.4375 0.3125 0.7
0.4375 0.375 0.7
0.5 0.375 0.7625
0.4375 0.3125 0.825
0.5 0.3125 0.825
0.4375 0.375 0.825
0.5 0.3125 0.7625
0.5 0.3125 0.7
0.5625 0.375 0.7625
0.5625 0.3125 0.7625
0.5625 0.3125 0.7
0.5625 0.375 0.7
0.625 0.375 0.7625
0.5625 0.3125 0.825
0.625 0.3125 0.825
0.5625 0.375 0.825
0.625 0.3125 0.7625
0.625 0.3125 0.7
0.6875 0.375 0.7625
0.6875 0.3125 0.7625
0.6875 0.3125 0.7
0.6875 0.375 0.7
0.75 0.375 0.7625
0.6875 0.3125 0.825
0.75 0.3125 0.825
0.6875 0.375 0.825
0.75 0.3125 0.7625
0.75 0.3125 0.7
0.8125 0.375 0.7625
0.8125 0.3125 0.7625
0.8125 0.3125 0.7
0.8125 0.375 0.7
0.875 0.375 0.7625
0.8125 0.3125 0.825
0.875 0.3125 0.825
0.8125 0.375 0.825
0.875 0.3125 0.7625
0.875 0.3125 0.7
0.9375 0.375 0.7625
0.9375 0.3125 0.7625
0.9375 0.3125 0.7
0.9375 0.375 0.7
1 0.375 0.7625
0.9375 0.3125 0.825
1 0.3125 0.825
0.9375 0.375 0.825
1 0.3125 0.7625
1 0.3125 0.7
1.0625 0.375 0.7625
1.0625 0.3125 0.7625
1.0625 0.3125 0.7
1.0625 0.375 0.7
1.125 0.375 0.7625
1.0625 0.3125 0.825
1.125 0.3125 0.825
1.0625 0.375 0.825
1.125 0.3125 0.7625
1.125 0.3125 0.7
1.1875 0.375 0.7625
1.1875 0.3125 0.7625
1.1875 0.3125 0.7
1.1875 0.375 0.7
1.25 0.375 0.7625
1.1875 0.3125 0.825
1.25 0.3125 0.825
1.1875 0.375 0.825
1.25 0.3125 0.7625
1.25 0.3125 0.7
1.3125 0.375 0.7625
1.3125 0.3125 0.7625
1.3125 0.3125 0.7
1.3125 0.375 0.7
1.375 0.375 0.7625
1.3125 0.3125 0.825
1.375 0.3125 0.825
1.3125 0.375 0.825
1.375 0.3125 0.7625
1.375 0.3125 0.7
1.4375 0.375 0.7625
1.4375 0.3125 0.7625
1.4375 0.3125 0.7
1.4375 0.375 0.7
1.5 0.375 0.7625
1.4375 0.3125 0.825
1.5 0.3125 0.825
1.4375 0.375 0.825
1.5 0.3125 0.7625
1.5 0.3125 0.7
1.5625 0.375 0.7625
1.5625 0.3125 0.7625
1.5625 0.3125 0.7
1.5625 0.375 0.7
1.625 0.375 0.7625
1.5625 0.3125 0.825
1.625 0.3125 0.825
1.5625 0.375 0.825
1.625 0.3125 0.7625
1.625 0.3125 0.7
1.6875 0.375 0.7625
1.6875 0.3125 0.7625
1.6875 0.3125 0.7
1.6875 0.375 0.7
1.75 0.375 0.7625
1.6875 0.3125 0.825
1.75 0.3125 0.825
1.6875 0.375 0.825
1.75 0.3125 0.7625
1.75 0.3125 0.7
1.8125 0.375 0.7625
1.8125 0.3125 0.7625
1.8125 0.3125 0.7
1.8125 0.375 0.7
1.875 0.375 0.7625
1.8125 0.3125 0.825
1.875 0.3125 0.825
1.8125 0.375 0.825
1.875 0.3125 0.7625
1.875 0.3125 0.7
1.9375 0.375 0.7625
1.9375 0.3125 0.7625
1.9375 0.3125 0.7
1.9375 0.375 0.7
2 0.375 0.7625
1.9375 0.3125 0.825
2 0.3125 0.825
1.9375 0.375 0.825
2 0.3125 0.7625
2 0.3125 0.7
2.0625 0.375 0.7625
2.0625 0.3125 0.7625
2.0625 0.3125 0.7
2.0625 0.375 0.7
2.125 0.375 0.7625
2.0625 0.3125 0.825
2.125 0.3125 0.825
2.0625 0.375 0.825
2.125 0.3125 0.7625
2.125 0.3125 0.7
2.1875 0.375 0.7625
2.1875 0.3125 0.7625
2.1875 0.3125 0.7
2.1875 0.375 0.7
2.25 0.375 0.7625
2.1875 0.3125 0.825
2.25 0.3125 0.825
2.1875 0.375 0.825
2.25 0.3125 0.7625
2.25 0.3125 0.7
2.3125 0.375 0.7625
2.3125 0.3125 0.7625
2.3125 0.3125 0.7
2.3125 0.375 0.7
2.375 0.375 0.7625
2.3125 0.3125 0.825
2.375 0.3125 0.825
2.3125 0.375 0.825
2.375 0.3125 0.7625
2.375 0.3125 0.7
2.4375 0.375 0.7625
2.4375 0.3125 0.7625
2.4375 0.3125 0.7
2.4375 0.375 0.7
2.5 0.375 0.7625
2.4375 0.3125 0.825
2.5 0.3125 0.825
2.4375 0.375 0.825
2.5 0.3125 0.7625
2.5 0.3125 0.7
2.5625 0.375 0.7625
2.5625 0.3125 0.7625
2.5625 0.3125 0.7
2.5625 0.375 0.7
2.625 0.375 0.7625
2.5625 0.3125 0.825
2.625 0.3125 0.825
2.5625 0.375 0.825
2.625 0.3125 0.7625
2.625 0.3125 0.7
2.6875 0.375 0.7625
2.6875 0.3125 0.7625
2.6875 0.3125 0.7
2.6875 0.375 0.7
2.75 0.375 0.7625
2.6875 0.3125 0.825
2.75 0.3125 0.825
2.6875 0.375 0.825
2.75 0.3125 0.7625
2.75 0.3125 0.7
2.8125 0.375 0.7625
2.8125 0.3125 0.7625
2.8125 0.3125 0.7
2.8125 0.375 0.7
2.875 0.375 0.7625
2.8125 0.3125 0.825
2.875 0.3125 0.825
2.8125 0.375 0.825
2.875 0.3125 0.7625
2.875 0.3125 0.7
2.9375 0.375 0.7625
2.9375 0.3125 0.7625
2.9375 0.3125 0.7
2.9375 0.375 0.7
3 0.375 0.7625
2.9375 0.3125 0.825
3 0.3125 0.825
2.9375 0.375 0.825
3 0.3125 0.7625
3 0.3125 0.7
3.0625 0.375 0.7625
3.0625 0.3125 0.7625
3.0625 0.3125 0.7
3.0625 0.375 0.7
3.125 0.375 0.7625
3.0625 0.3125 0.825
3.125 0.3125 0.825
3.0625 0.375 0.825
3.125 0.3125 0.7625
3.125 0.3125 0.7
3.1875 0.375 0.7625
3.1875 0.3125 0.7625
3.1875 0.3125 0.7
3.1875 0.375 0.7
3.25 0.375 0.7625
3.1875 0.3125 0.825
3.25 0.3125 0.825
3.1875 0.375 0.825
3.25 0.3125 0.7625
3.25 0.3125 0.7
3.3125 0.375 0.7625
3.3125 0.3125 0.7625
3.3125 0.3125 0.7
3.3125 0.375 0.7
3.375 0.375 0.7625
3.3125 0.3125 0.825
3.375 0.3125 0.825
3.3125 0.375 0.825
3.375 0.3125 0.7625
3.375 0.3125 0.7
3.4375 0.375 0.7625
3.4375 0.3125 0.7625
3.4375 0.3125 0.7
3.4375 0.375 0.7
3.5 0.375 0.7625
3.4375 0.3125 0.825
3.5 0.3125 0.825
3.4375 0.375 0.825
3.5 0.3125 0.7625
3.5 0.3125 0.7
3.5625 0.375 0.7625
3.5625 0.3125 0.7625
3.5625 0.3125 0.7
3.5625 0.375 0.7
3.625 0.375 0.7625
3.5625 0.3125 0.825
3.625 0.3125 0.825
3.5625 0.375 0.825
3.625 0.3125 0.7625
3.625 0.3125 0.7
3.6875 0.375 0.7625
3.6875 0.3125 0.7625
3.6875 0.3125 0.7
3.6875 0.375 0.7
3.75 0.375 0.7625
3.6875 0.3125 0.825
3.75 0.3125 0.825
3.6875 0.375 0.825
3.75 0.3125 0.7625
3.75 0.3125 0.7
3.8125 0.375 0.7625
3.8125 0.3125 0.7625
3.8125 0.3125 0.7
3.8125 0.375 0.7
3.875 0.375 0.7625
3.8125 0.3125 0.825
3.875 0.3125 0.825
3.8125 0.375 0.825
3.875 0.3125 0.7625
3.875 0.3125 0.7
3.9375 0.375 0.7625
3.9375 0.3125 0.7625
3.9375 0.3125 0.7
3.9375 0.375 0.7
4 0.375 0.7625
3.9375 0.3125 0.825
4 0.3125 0.825
3.9375 0.375 0.825
4 0.3125 0.7625
4 0.3125 0.7
0 0.4375 0.7
0.0625 0.5 0.7625
0.0625 0.4375 0.7625
0.0625 0.4375 0.7
0.0625 0.5 0.7
0.125 0.5 0.7625
0.0625 0.4375 0.825
0.125 0.4375 0.825
0 0.5 0.7625
0 0.4375 0.7625
0.0625 0.5 0.825
0 0.4375 0.825
0.125 0.4375 0.7625
0.125 0.4375 0.7
0.1875 0.5 0.7625
0.1875 0.4375 0.7625
0.1875 0.4375 0.7
0.1875 0.5 0.7
0.25 0.5 0.7625
0.1875 0.4375 0.825
0.25 0.4375 0.825
0.1875 0.5 0.825
0.25 0.4375 0.7625
0.25 0.4375 0.7
0.3125 0.5 0.7625
0.3125 0.4375 0.7625
0.3125 0.4375 0.7
0.3125 0.5 0.7
0.375 0.5 0.7625
0.3125 0.4375 0.825
0.375 0.4375 0.825
0.3125 0.5 0.825
0.375 0.4375 0.7625
0.375 0.4375 0.7
0.4375 0.5 0.7625
0.4375 0.4375 0.7625
0.4375 0.4375 0.7
0.4375 0.5 0.7
0.5 0.5 0.7625
0.4375 0.4375 0.825
0.5 0.4375 0.825
0.4375 0.5 0.825
0.5 0.4375 0.7625
0.5 0.4375 0.7
0.5625 0.5 0.7625
0.5625 0.4375 0.7625
0.5625 0.4375 0.7
0.5625 0.5 0.7
0.625 0.5 0.7625
0.5625 0.4375 0.825
0.625 0.4375 0.825
0.5625 0.5 0.825
0.625 0.4375 0.7625
0.625 0.4375 0.7
0.6875 0.5 0.7625
0.6875 0.4375 0.7625
0.6875 0.4375 0.7
0.6875 0.5 0.7
0.75 0.5 0.7625
0.6875 0.4375 0.825
0.75 0.4375 0.825
0.6875 0.5 0.825
0.75 0.4375 0.7625
0.75 0.4375 0.7
0.8125 0.5 0.7625
0.8125 0.4375 0.7625
0.8125 0.4375 0.7
0.8125 0.5 0.7
0.875 0.5 0.7625
0.8125 0.4375 0.825
0.875 0.4375 0.825
0.8125 0.5 0.825
0.875 0.4375 0.7625
0.875 0.4375 0.7
0.9375 0.5 0.7625
0.9375 0.4375 0.7625
0.9375 0.4375 0.7
0.9375 0.5 0.7
1 0.5 0.7625
0.9375 0.4375 0.825
1 0.4375 0.825
0.9375 0.5 0.825
1 0.4375 0.7625
1 0.4375 0.7
1.0625 0.5 0.7625
1.0625 0.4375 0.7625
1.0625 0.4375 0.7
1.0625 0.5 0.7
1.125 0.5 0.7625
1.0625 0.4375 0.825
1.125 0.4375 0.825
1.0625 0.5 0.825
1.125 0.4375 0.7625
1.125 0.4375 0.7
1.1875 0.5 0.7625
1.1875 0.4375 0.7625
1.1875 0.4375 0.7
1.1875 0.5 0.7
1.25 0.5 0.7625
1.1875 0.4375 0.825
1.25 0.4375 0.825
1.1875 0.5 0.825
1.25 0.4375 0.7625
1.25 0.4375 0.7
1.3125 0.5 0.7625
1.3125 0.4375 0.7625
1.3125 0.4375 0.7
1.3125 0.5 0.7
1.375 0.5 0.7625
1.3125 0.4375 0.825
1.375 0.4375 0.825
1.3125 0.5 0.825
1.375 0.4375 0.7625
1.375 0.4375 0.7
1.4375 0.5 0.7625
1.4375 0.4375 0.7625
1.4375 0.4375 0.7
1.4375 0.5 0.7
1.5 0.5 0.7625
1.4375 0.4375 0.825
1.5 0.4375 0.825
1.4375 0.5 0.825
1.5 0.4375 0.7625
1.5 0.4375 0.7
1.5625 0.5 0.7625
1.5625 0.4375 0.7625
1.5625 0.4375 0.7
1.5625 0.5 0.7
1.625 0.5 0.7625
1.5625 0.4375 0.825
1.625 0.4375 0.825
1.5625 0.5 0.825
1.625 0.4375 0.7625
1.625 0.4375 0.7
1.6875 0.5 0.7625
1.6875 0.4375 0.7625
1.6875 0.4375 0.7
1.6875 0.5 0.7
1.75 0.5 0.7625
1.6875 0.4375 0.825
1.75 0.4375 0.825
1.6875 0.5 0.825
1.75 0.4375 0.7625
1.75 0.4375 0.7
1.8125 0.5 0.7625
1.8125 0.4375 0.7625
1.8125 0.4375 0.7
1.8125 0.5 0.7
1.875 0.5 0.7625
1.8125 0.4375 0.825
1.875 0.4375 0.825
1.8125 0.5 0.825
1.875 0.4375 0.7625
1.875 0.4375 0.7
1.9375 0.5 0.7625
1.9375 0.4375 0.7625
1.9375 0.4375 0.7
1.9375 0.5 0.7
2 0.5 0.7625
1.9375 0.4375 0.825
2 0.4375 0.825
1.9375 0.5 0.825
2 0.4375 0.7625
2 0.4375 0.7
2.0625 0.5 0.7625
2.0625 0.4375 0.7625
2.0625 0.4375 0.7
2.0625 0.5 0.7
2.125 0.5 0.7625
2.0625 0.4375 0.825
2.125 0.4375 0.825
2.0625 0.5 0.825
2.125 0.4375 0.7625
2.125 0.4375 0.7
2.1875 0.5 0.7625
2.1875 0.4375 0.7625
2.1875 0.4375 0.7
2.1875 0.5 0.7
2.25 0.5 0.7625
2.1875 0.4375 0.825
2.25 0.4375 0.825
2.1875 0.5 0.825
2.25 0.4375 0.7625
2.25 0.4375 0.7
2.3125 0.5 0.7625
2.3125 0.4375 0.7625
2.3125 0.4375 0.7
2.3125 0.5 0.7
2.375 0.5 0.7625
2.3125 0.4375 0.825
2.375 0.4375 0.825
2.3125 0.5 0.825
2.375 0.4375 0.7625
2.375 0.4375 0.7
2.4375 0.5 0.7625
2.4375 0.4375 0.7625
2.4375 0.4375 0.7
2.4375 0.5 0.7
2.5 0.5 0.7625
2.4375 0.4375 0.825
2.5 0.4375 0.825
2.4375 0.5 0.825
2.5 0.4375 0.7625
2.5 0.4375 0.7
2.5625 0.5 0.7625
2.5625 0.4375 0.7625
2.5625 0.4375 0.7
2.5625 0.5 0.7
2.625 0.5 0.7625
2.5625 0.4375 0.825
2.625 0.4375 0.825
2.5625 0.5 0.825
2.625 0.4375 0.7625
2.625 0.4375 0.7
2.6875 0.5 0.7625
2.6875 0.4375 0.7625
2.6875 0.4375 0.7
2.6875 0.5 0.7
2.75 0.5 0.7625
2.6875 0.4375 0.825
2.75 0.4375 0.825
2.6875 0.5 0.825
2.75 0.4375 0.7625
2.75 0.4375 0.7
2.8125 0.5 0.7625
2.8125 0.4375 0.7625
2.8125 0.4375 0.7
2.8125 0.5 0.7
2.875 0.5 0.7625
2.8125 0.4375 0.825
2.875 0.4375 0.825
2.8125 0.5 0.825
2.875 0.4375 0.7625
2.875 0.4375 0.7
2.9375 0.5 0.7625
2.9375 0.4375 0.7625
2.9375 0.4375 0.7
2.9375 0.5 0.7
3 0.5 0.7625
2.9375 0.4375 0.825
3 0.4375 0.825
2.9375 0.5 0.825
3 0.4375 0.7625
3 0.4375 0.7
3.0625 0.5 0.7625
3.0625 0.4375 0.7625
3.0625 0.4375 0.7
3.0625 0.5 0.7
3.125 0.5 0.7625
3.0625 0.4375 0.825
3.125 0.4375 0.825
3.0625 0.5 0.825
3.125 0.4375 0.7625
3.125 0.4375 0.7
3.1875 0.5 0.7625
3.1875 0.4375 0.7625
3.1875 0.4375 0.7
3.1875 0.5 0.7
3.25 0.5 0.7625
3.1875 0.4375 0.825
3.25 0.4375 0.825
3.1875 0.5 0.825
3.25 0.4375 0.7625
3.25 0.4375 0.7
3.3125 0.5 0.7625
3.3125 0.4375 0.7625
3.3125 0.4375 0.7
3.3125 0.5 0.7
3.375 0.5 0.7625
3.3125 0.4375 0.825
3.375 0.4375 0.825
3.3125 0.5 0.825
3.375 0.4375 0.7625
3.375 0.4375 0.7
3.4375 0.5 0.7625
3.4375 0.4375 0.7625
3.4375 0.4375 0.7
3.4375 0.5 0.7
3.5 0.5 0.7625
3.4375 0.4375 0.825
3.5 0.4375 0.825
3.4375 0.5 0.825
3.5 0.4375 0.7625
3.5 0.4375 0.7
3.5625 0.5 0.7625
3.5625 0.4375 0.7625
3.5625 0.4375 0.7
3.5625 0.5 0.7
3.625 0.5 0.7625
3.5625 0.4375 0.825
3.625 0.4375 0.825
3.5625 0.5 0.825
3.625 0.4375 0.7625
3.625 0.4375 0.7
3.6875 0.5 0.7625
3.6875 0.4375 0.7625
3.6875 0.4375 0.7
3.6875 0.5 0.7
3.75 0.5 0.7625
3.6875 0.4375 0.825
3.75 0.4375 0.825
3.6875 0.5 0.825
3.75 0.4375 0.7625
3.75 0.4375 0.7
3.8125 0.5 0.7625
3.8125 0.4375 0.7625
3.8125 0.4375 0.7
3.8125 0.5 0.7
3.875 0.5 0.7625
3.8125 0.4375 0.825
3.875 0.4375 0.825
3.8125 0.5 0.825
3.875 0.4375 0.7625
3.875 0.4375 0.7
3.9375 0.5 0.7625
3.9375 0.4375 0.7625
3.9375 0.4375 0.7
3.9375 0.5 0.7
4 0.5 0.7625
3.9375 0.4375 0.825
4 0.4375 0.825
3.9375 0.5 0.825
4 0.4375 0.7625
4 0.4375 0.7
0 0.5625 0.7
0.0625 0.625 0.7625
0.0625 0.5625 0.7625
0.0625 0.5625 0.7
0.0625 0.625 0.7
0.125 0.625 0.7625
0.0625 0.5625 0.825
0.125 0.5625 0.825
0 0.625 0.7625
0 0.5625 0.7625
0.0625 0.625 0.825
0 0.5625 0.825
0.125 0.5625 0.7625
0.125 0.5625 0.7
0.1875 0.625 0.7625
0.1875 0.5625 0.7625
0.1875 0.5625 0.7
0.1875 0.625 0.7
0.25 0.625 0.7625
0.1875 0.5625 0.825
0.25 0.5625 0.825
0.1875 0.625 0.825
0.25 0.5625 0.7625
0.25 0.5625 0.7
0.3125 0.625 0.7625
0.3125 0.5625 0.7625
0.3125 0.5625 0.7
0.3125 0.625 0.7
0.375 0.625 0.7625
0.3125 0.5625 0.825
0.375 0.5625 0.825
0.3125 0.625 0.825
0.375 0.5625 0.7625
0.375 0.5625 0.7
0.4375 0.625 0.7625
0.4375 0.5625 0.7625
0.4375 0.5625 0.7
0.4375 0.625 0.7
0.5 0.625 0.7625
0.4375 0.5625 0.825
0.5 0.5625 0.825
0.4375 0.625 0.825
0.5 0.5625 0.7625
0.5 0.5625 0.7
0.5625 0.625 0.7625
0.5625 0.5625 0.7625
0.5625 0.5625 0.7
0.5625 0.625 0.7
0.625 0.625 0.7625
0.5625 0.5625 0.825
0.625 0.5625 0.825
0.5625 0.625 0.825
0.625 0.5625 0.7625
0.625 0.5625 0.7
0.6875 0.625 0.7625
0.6875 0.5625 0.7625
0.6875 0.5625 0.7
0.6875 0.625 0.7
0.75 0.625 0.7625
0.6875 0.5625 0.825
0.75 0.5625 0.825
0.6875 0.625 0.825
0.75 0.5625 0.7625
0.75 0.5625 0.7
0.8125 0.625 0.7625
0.8125 0.5625 0.7625
0.8125 0.5625 0.7
0.8125 0.625 0.7
0.875 0.625 0.7625
0.8125 0.5625 0.825
0.875 0.5625 0.825
0.8125 0.625 0.825
0.875 0.5625 0.7625
0.875 0.5625 0.7
0.9375 0.625 0.7625
0.9375 0.5625 0.7625
0.9375 0.5625 0.7
0.9375 0.625 0.7
1 0.625 0.7625
0.9375 0.5625 0.825
1 0.5625 0.825
0.9375 0.625 0.825
1 0.5625 0.7625
1 0.5625 0.7
1.0625 0.625 0.7625
1.0625 0.5625 0.7625
1.0625 0.5625 0.7
1.0625 0.625 0.7
1.125 0.625 0.7625
1.0625 0.5625 0.825
1.125 0.5625 0.825
1.0625 0.625 0.825
1.125 0.5625 0.7625
1.125 0.5625 0.7
1.1875 0.625 0.7625
1.1875 0.5625 0.7625
1.1875 0.5625 0.7
1.1875 0.625 0.7
1.25 0.625 0.7625
1.1875 0.5625 0.825
1.25 0.5625 0.825
1.1875 0.625 0.825
1.25 0.5625 0.7625
1.25 0.5625 0.7
1.3125 0.625 0.7625
1.3125 0.5625 0.7625
1.3125 0.5625 0.7
1.3125 0.625 0.7
1.375 0.625 0.7625
1.3125 0.5625 0.825
1.375 0.5625 0.825
1.3125 0.625 0.825
1.375 0.5625 0.7625
1.375 0.5625 0.7
1.4375 0.625 0.7625
1.4375 0.5625 0.7625
1.4375 0.5625 0.7
1.4375 0.625 0.7
1.5 0.625 0.7625
1.4375 0.5625 0.825
1.5 0.5625 0.825
1.4375 0.625 0.825
1.5 0.5625 0.7625
1.5 0.5625 0.7
1.5625 0.625 0.7625
1.5625 0.5625 0.7625
1.5625 0.5625 0.7
1.5625 0.625 0.7
1.625 0.625 0.7625
1.5625 0.5625 0.825
1.625 0.5625 0.825
1.5625 0.625 0.825
1.625 0.5625 0.7625
1.625 0.5625 0.7
1.6875 0.625 0.7625
1.6875 0.5625 0.7625
1.6875 0.5625 0.7
1.6875 0.625 0.7
1.75 0.625 0.7625
1.6875 0.5625 0.825
1.75 0.5625 0.825
1.6875 0.625 0.825
1.75 0.5625 0.7625
1.75 0.5625 0.7
1.8125 0.625 0.7625
1.8125 0.5625 0.7625
1.8125 0.5625 0.7
1.8125 0.625 0.7
1.875 0.625 0.7625
1.8125 0.5625 0.825
1.875 0.5625 0.825
1.8125 0.625 0.825
1.875 0.5625 0.7625
1.875 0.5625 0.7
1.9375 0.625 0.7625
1.9375 0.5625 0.7625
1.9375 0.5625 0.7
1.9375 0.625 0.7
2 0.625 0.7625
1.9375 0.5625 0.825
2 0.5625 0.825
1.9375 0.625 0.825
2 0.5625 0.7625
2 0.5625 0.7
2.0625 0.625 0.7625
2.0625 0.5625 0.7625
2.0625 0.5625 0.7
2.0625 0.625 0.7
2.125 0.625 0.7625
2.0625 0.5625 0.825
2.125 0.5625 0.825
2.0625 0.625 0.825
2.125 0.5625 0.7625
2.125 0.5625 0.7
2.1875 0.625 0.7625
2.1875 0.5625 0.7625
2.1875 0.5625 0.7
2.1875 0.625 0.7
2.25 0.625 0.7625
2.1875 0.5625 0.825
2.25 0.5625 0.825
2.1875 0.625 0.825
2.25 0.5625 0.7625
2.25 0.5625 0.7
2.3125 0.625 0.7625
2.3125 0.5625 0.7625
2.3125 0.5625 0.7
2.3125 0.625 0.7
2.375 0.625 0.7625
2.3125 0.5625 0.825
2.375 0.5625 0.825
2.3125 0.625 0.825
2.375 0.5625 0.7625
2.375 0.5625 0.7
2.4375 0.625 0.7625
2.4375 0.5625 0.7625
2.4375 0.5625 0.7
2.4375 0.625 0.7
2.5 0.625 0.7625
2.4375 0.5625 0.825
2.5 0.5625 0.825
2.4375 0.625 0.825
2.5 0.5625 0.7625
2.5 0.5625 0.7
2.5625 0.625 0.7625
2.5625 0.5625 0.7625
2.5625 0.5625 0.7
2.5625 0.625 0.7
2.625 0.625 0.7625
2.5625 0.5625 0.825
2.625 0.5625 0.825
2.5625 0.625 0.825
2.625 0.5625 0.7625
2.625 0.5625 0.7
2.6875 0.625 0.7625
2.6875 0.5625 0.7625
2.6875 0.5625 0.7
2.6875 0.625 0.7
2.75 0.625 0.7625
2.6875 0.5625 0.825
2.75 0.5625 0.825
2.6875 0.625 0.825
2.75 0.5625 0.7625
2.75 0.5625 0.7
2.8125 0.625 0.7625
2.8125 0.5625 0.7625
2.8125 0.5625 0.7
2.8125 0.625 0.7
2.875 0.625 0.7625
2.8125 0.5625 0.825
2.875 0.5625 0.825
2.8125 0.625 0.825
2.875 0.5625 0.7625
2.875 0.5625 0.7
2.9375 0.625 0.7625
2.9375 0.5625 0.7625
2.9375 0.5625 0.7
2.9375 0.625 0.7
3 0.625 0.7625
2.9375 0.5625 0.825
3 0.5625 0.825
2.9375 0.625 0.825
3 0.5625 0.7625
3 0.5625 0.7
3.0625 0.625 0.7625
3.0625 0.5625 0.7625
3.0625 0.5625 0.7
3.0625 0.625 0.7
3.125 0.625 0.7625
3.0625 0.5625 0.825
3.125 0.5625 0.825
3.0625 0.625 0.825
3.125 0.5625 0.7625
3.125 0.5625 0.7
3.1875 0.625 0.7625
3.1875 0.5625 0.7625
3.1875 0.5625 0.7
3.1875 0.625 0.7
3.25 0.625 0.7625
3.1875 0.5625 0.825
3.25 0.5625 0.825
3.1875 0.625 0.825
3.25 0.5625 0.7625
3.25 0.5625 0.7
3.3125 0.625 0.7625
3.3125 0.5625 0.7625
3.3125 0.5625 0.7
3.3125 0.625 0.7
3.375 0.625 0.7625
3.3125 0.5625 0.825
3.375 0.5625 0.825
3.3125 0.625 0.825
3.375 0.5625 0.7625
3.375 0.5625 0.7
3.4375 0.625 0.7625
3.4375 0.5625 0.7625
3.4375 0.5625 0.7
3.4375 0.625 0.7
3.5 0.625 0.7625
3.4375 0.5625 0.825
3.5 0.5625 0.825
3.4375 0.625 0.825
3.5 0.5625 0.7625
3.5 0.5625 0.7
3.5625 0.625 0.7625
3.5625 0.5625 0.7625
3.5625 0.5625 0.7
3.5625 0.625 0.7
3.625 0.625 0.7625
3.5625 0.5625 0.825
3.625 0.5625 0.825
3.5625 0.625 0.825
3.625 0.5625 0.7625
3.625 0.5625 0.7
3.6875 0.625 0.7625
3.6875 0.5625 0.7625
3.6875 0.5625 0.7
3.6875 0.625 0.7
3.75 0.625 0.7625
3.6875 0.5625 0.825
3.75 0.5625 0.825
3.6875 0.625 0.825
3.75 0.5625 0.7625
3.75 0.5625 0.7
3.8125 0.625 0.7625
3.8125 0.5625 0.7625
3.8125 0.5625 0.7
3.8125 0.625 0.7
3.875 0.625 0.7625
3.8125 0.5625 0.825
3.875 0.5625 0.825
3.8125 0.625 0.825
3.875 0.5625 0.7625
3.875 0.5625 0.7
3.9375 0.625 0.7625
3.9375 0.5625 0.7625
3.9375 0.5625 0.7
3.9375 0.625 0.7
4 0.625 0.7625
3.9375 0.5625 0.825
4 0.5625 0.825
3.9375 0.625 0.825
4 0.5625 0.7625
4 0.5625 0.7
0 0.6875 0.7
0.0625 0.75 0.7625
0.0625 0.6875 0.7625
0.0625 0.6875 0.7
0.0625 0.75 0.7
0.125 0.75 0.7625
0.0625 0.6875 0.825
0.125 0.6875 0.825
0 0.75 0.7625
0 0.6875 0.7625
0.0625 0.75 0.825
0 0.6875 0.825
0.125 0.6875 0.7625
0.125 0.6875 0.7
0.1875 0.75 0.7625
0.1875 0.6875 0.7625
0.1875 0.6875 0.7
0.1875 0.75 0.7
0.25 0.75 0.7625
0.1875 0.6875 0.825
0.25 0.6875 0.825
0.1875 0.75 0.825
0.25 0.6875 0.7625
0.25 0.6875 0.7
0.3125 0.75 0.7625
0.3125 0.6875 0.7625
0.3125 0.6875 0.7
0.3125 0.75 0.7
0.375 0.75 0.7625
0.3125 0.6875 0.825
0.375 0.6875 0.825
0.3125 0.75 0.825
0.375 0.6875 0.7625
0.375 0.6875 0.7
0.4375 0.75 0.7625
0.4375 0.6875 0.7625
0.4375 0.6875 0.7
0.4375 0.75 0.7
0.5 0.75 0.7625
0.4375 0.6875 0.825
0.5 0.6875 0.825
0.4375 0.75 0.825
0.5 0.6875 0.7625
0.5 0.6875 0.7
0.5625 0.75 0.7625
0.5625 0.6875 0.7625
0.5625 0.6875 0.7
0.5625 0.75 0.7
0.625 0.75 0.7625
0.5625 0.6875 0.825
0.625 0.6875 0.825
0.5625 0.75 0.825
0.625 0.6875 0.7625
0.625 0.6875 0.7
0.6875 0.75 0.7625
0.6875 0.6875 0.7625
0.6875 0.6875 0.7
0.6875 0.75 0.7
0.75 0.75 0.7625
0.6875 0.6875 0.825
0.75 0.6875 0.825
0.6875 0.75 0.825
0.75 0.6875 0.7625
0.75 0.6875 0.7
0.8125 0.75 0.7625
0.8125 0.6875 0.7625
0.8125 0.6875 0.7
0.8125 0.75 0.7
0.875 0.75 0.7625
0.8125 0.6875 0.825
0.875 0.6875 0.825
0.8125 0.75 0.825
0.875 0.6875 0.7625
0.875 0.6875 0.7
0.9375 0.75 0.7625
0.9375 0.6875 0.7625
0.9375 0.6875 0.7
0.9375 0.75 0.7
1 0.75 0.7625
0.9375 0.6875 0.825
1 0.6875 0.825
0.9375 0.75 0.825
1 0.6875 0.7625
1 0.6875 0.7
1.0625 0.75 0.7625
1.0625 0.6875 0.7625
1.0625 0.6875 0.7
1.0625 0.75 0.7
1.125 0.75 0.7625
1.0625 0.6875 0.825
1.125 0.6875 0.825
1.0625 0.75 0.825
1.125 0.6875 0.7625
1.125 0.6875 0.7
1.1875 0.75 0.7625
1.1875 0.6875 0.7625
1.1875 0.6875 0.7
1.1875 0.75 0.7
1.25 0.75 0.7625
1.1875 0.6875 0.825
1.25 0.6875 0.825
1.1875 0.75 0.825
1.25 0.6875 0.7625
1.25 0.6875 0.7
1.3125 0.75 0.7625
1.3125 0.6875 0.7625
1.3125 0.6875 0.7
1.3125 0.75 0.7
1.375 0.75 0.7625
1.3125 0.6875 0.825
1.375 0.6875 0.825
1.3125 0.75 0.825
1.375 0.6875 0.7625
1.375 0.6875 0.7
1.4375 0.75 0.7625
1.4375 0.6875 0.7625
1.4375 0.6875 0.7
1.4375 0.75 0.7
1.5 0.75 0.7625
1.4375 0.6875 0.825
1.5 0.6875 0.825
1.4375 0.75 0.825
1.5 0.6875 0.7625
1.5 0.6875 0.7
1.5625 0.75 0.7625
1.5625 0.6875 0.7625
1.5625 0.6875 0.7
1.5625 0.75 0.7
1.625 0.75 0.7625
1.5625 0.6875 0.825
1.625 0.6875 0.825
1.5625 0.75 0.825
1.625 0.6875 0.7625
1.625 0.6875 0.7
1.6875 0.75 0.7625
1.6875 0.6875 0.7625
1.6875 0.6875 0.7
1.6875 0.75 0.7
1.75 0.75 0.7625
1.6875 0.6875 0.825
1.75 0.6875 0.825
1.6875 0.75 0.825
1.75 0.6875 0.7625
1.75 0.6875 0.7
1.8125 0.75 0.7625
1.8125 0.6875 0.7625
1.8125 0.6875 0.7
1.8125 0.75 0.7
1.875 0.75 0.7625
1.8125 0.6875 0.825
1.875 0.6875 0.825
1.8125 0.75 0.825
1.875 0.6875 0.7625
1.875 0.6875 0.7
1.9375 0.75 0.7625
1.9375 0.6875 0.7625
1.9375 0.6875 0.7
1.9375 0.75 0.7
2 0.75 0.7625
1.9375 0.6875 0.825
2 0.6875 0.825
1.9375 0.75 0.825
2 0.6875 0.7625
2 0.6875 0.7
2.0625 0.75 0.7625
2.0625 0.6875 0.7625
2.0625 0.6875 0.7
2.0625 0.75 0.7
2.125 0.75 0.7625
2.0625 0.6875 0.825
2.125 0.6875 0.825
2.0625 0.75 0.825
2.125 0.6875 0.7625
2.125 0.6875 0.7
2.1875 0.75 0.7625
2.1875 0.6875 0.7625
2.1875 0.6875 0.7
2.1875 0.75 0.7
2.25 0.75 0.7625
2.1875 0.6875 0.825
2.25 0.6875 0.825
2.1875 0.75 0.825
2.25 0.6875 0.7625
2.25 0.6875 0.7
2.3125 0.75 0.7625
2.3125 0.6875 0.7625
2.3125 0.6875 0.7
2.3125 0.75 0.7
2.375 0.75 0.7625
2.3125 0.6875 0.825
2.375 0.6875 0.825
2.3125 0.75 0.825
2.375 0.6875 0.7625
2.375 0.6875 0.7
2.4375 0.75 0.7625
2.4375 0.6875 0.7625
2.4375 0.6875 0.7
2.4375 0.75 0.7
2.5 0.75 0.7625
2.4375 0.6875 0.825
2.5 0.6875 0.825
2.4375 0.75 0.825
2.5 0.6875 0.7625
2.5 0.6875 0.7
2.5625 0.75 0.7625
2.5625 0.6875 0.7625
2.5625 0.6875 0.7
2.5625 0.75 0.7
2.625 0.75 0.7625
2.5625 0.6875 0.825
2.625 0.6875 0.825
2.5625 0.75 0.825
2.625 0.6875 0.7625
2.625 0.6875 0.7
2.6875 0.75 0.7625
2.6875 0.6875 0.7625
2.6875 0.6875 0.7
2.6875 0.75 0.7
2.75 0.75 0.7625
2.6875 0.6875 0.825
2.75 0.6875 0.825
2.6875 0.75 0.825
2.75 0.6875 0.7625
2.75 0.6875 0.7
2.8125 0.75 0.7625
2.8125 0.6875 0.7625
2.8125 0.6875 0.7
2.8125 0.75 0.7
2.875 0.75 0.7625
2.8125 0.6875 0.825
2.875 0.6875 0.825
2.8125 0.75 0.825
2.875 0.6875 0.7625
2.875 0.6875 0.7
2.9375 0.75 0.7625
2.9375 0.6875 0.7625
2.9375 0.6875 0.7
2.9375 0.75 0.7
3 0.75 0.7625
2.9375 0.6875 0.825
3 0.6875 0.825
2.9375 0.75 0.825
3 0.6875 0.7625
3 0.6875 0.7
3.0625 0.75 0.7625
3.0625 0.6875 0.7625
3.0625 0.6875 0.7
3.0625 0.75 0.7
3.125 0.75 0.7625
3.0625 0.6875 0.825
3.125 0.6875 0.825
3.0625 0.75 0.825
3.125 0.6875 0.7625
3.125 0.6875 0.7
3.1875 0.75 0.7625
3.1875 0.6875 0.7625
3.1875 0.6875 0.7
3.1875 0.75 0.7
3.25 0.75 0.7625
3.1875 0.6875 0.825
3.25 0.6875 0.825
3.1875 0.75 0.825
3.25 0.6875 0.7625
3.25 0.6875 0.7
3.3125 0.75 0.7625
3.3125 0.6875 0.7625
3.3125 0.6875 0.7
3.3125 0.75 0.7
3.375 0.75 0.7625
3.3125 0.6875 0.825
3.375 0.6875 0.825
3.3125 0.75 0.825
3.375 0.6875 0.7625
3.375 0.6875 0.7
3.4375 0.75 0.7625
3.4375 0.6875 0.7625
3.4375 0.6875 0.7
3.4375 0.75 0.7
3.5 0.75 0.7625
3.4375 0.6875 0.825
3.5 0.6875 0.825
3.4375 0.75 0.825
3.5 0.6875 0.7625
3.5 0.6875 0.7
3.5625 0.75 0.7625
3.5625 0.6875 0.7625
3.5625 0.6875 0.7
3.5625 0.75 0.7
3.625 0.75 0.7625
3.5625 0.6875 0.825
3.625 0.6875 0.825
3.5625 0.75 0.825
3.625 0.6875 0.7625
3.625 0.6875 0.7
3.6875 0.75 0.7625
3.6875 0.6875 0.7625
3.6875 0.6875 0.7
3.6875 0.75 0.7
3.75 0.75 0.7625
3.6875 0.6875 0.825
3.75 0.6875 0.825
3.6875 0.75 0.825
3.75 0.6875 0.7625
3.75 0.6875 0.7
3.8125 0.75 0.7625
3.8125 0.6875 0.7625
3.8125 0.6875 0.7
3.8125 0.75 0.7
3.875 0.75 0.7625
3.8125 0.6875 0.825
3.875 0.6875 0.825
3.8125 0.75 0.825
3.875 0.6875 0.7625
3.875 0.6875 0.7
3.9375 0.75 0.7625
3.9375 0.6875 0.7625
3.9375 0.6875 0.7
3.9375 0.75 0.7
4 0.75 0.7625
3.9375 0.6875 0.825
4 0.6875 0.825
3.9375 0.75 0.825
4 0.6875 0.7625
4 0.6875 0.7
0 0.8125 0.7
0.0625 0.875 0.7625
0.0625 0.8125 0.7625
0.0625 0.8125 0.7
0.0625 0.875 0.7
0.125 0.875 0.7625
0.0625 0.8125 0.825
0.125 0.8125 0.825
0 0.875 0.7625
0 0.8125 0.7625
0.0625 0.875 0.825
0 0.8125 0.825
0.125 0.8125 0.7625
0.125 0.8125 0.7
0.1875 0.875 0.7625
0.1875 0.8125 0.7625
0.1875 0.8125 0.7
0.1875 0.875 0.7
0.25 0.875 0.7625
0.1875 0.8125 0.825
0.25 0.8125 0.825
0.1875 0.875 0.825
0.25 0.8125 0.7625
0.25 0.8125 0.7
0.3125 0.875 0.7625
0.3125 0.8125 0.7625
0.3125 0.8125 0.7
0.3125 0.875 0.7
0.375 0.875 0.7625
0.3125 0.8125 0.825
0.375 0.8125 0.825
0.3125 0.875 0.825
0.375 0.8125 0.7625
0.375 0.8125 0.7
0.4375 0.875 0.7625
0.4375 0.8125 0.7625
0.4375 0.8125 0.7
0.4375 0.875 0.7
0.5 0.875 0.7625
0.4375 0.8125 0.825
0.5 0.8125 0.825
0.4375 0.875 0.825
0.5 0.8125 0.7625
0.5 0.8125 0.7
0.5625 0.875 0.7625
0.5625 0.8125 0.7625
0.5625 0.8125 0.7
0.5625 0.875 0.7
0.625 0.875 0.7625
0.5625 0.8125 0.825
0.625 0.8125 0.825
0.5625 0.875 0.825
0.625 0.8125 0.7625
0.625 0.8125 0.7
0.6875 0.875 0.7625
0.6875 0.8125 0.7625
0.6875 0.8125 0.7
0.6875 0.875 0.7
0.75 0.875 0.7625
0.6875 0.8125 0.825
0.75 0.8125 0.825
0.6875 0.875 0.825
0.75 0.8125 0.7625
0.75 0.8125 0.7
0.8125 0.875 0.7625
0.8125 0.8125 0.7625
0.8125 0.8125 0.7
0.8125 0.875 0.7
0.875 0.875 0.7625
0.8125 0.8125 0.825
0.875 0.8125 0.825
0.8125 0.875 0.825
0.875 0.8125 0.7625
0.875 0.8125 0.7
0.9375 0.875 0.7625
0.9375 0.8125 0.7625
0.9375 0.8125 0.7
0.9375 0.875 0.7
1 0.875 0.7625
0.9375 0.8125 0.825
1 0.8125 0.825
0.9375 0.875 0.825
1 0.8125 0.7625
1 0.8125 0.7
1.0625 0.875 0.7625
1.0625 0.8125 0.7625
1.0625 0.8125 0.7
1.0625 0.875 0.7
1.125 0.875 0.7625
1.0625 0.8125 0.825
1.125 0.8125 0.825
1.0625 0.875 0.825
1.125 0.8125 0.7625
1.125 0.8125 0.7
1.1875 0.875 0.7625
1.1875 0.8125 0.7625
1.1875 0.8125 0.7
1.1875 0.875 0.7
1.25 0.875 0.7625
1.1875 0.8125 0.825
1.25 0.8125 0.825
1.1875 0.875 0.825
1.25 0.8125 0.7625
1.25 0.8125 0.7
1.3125 0.875 0.7625
1.3125 0.8125 0.7625
1.3125 0.8125 0.7
1.3125 0.875 0.7
1.375 0.875 0.7625
1.3125 0.8125 0.825
1.375 0.8125 0.825
1.3125 0.875 0.825
1.375 0.8125 0.7625
1.375 0.8125 0.7
1.4375 0.875 0.7625
1.4375 0.8125 0.7625
1.4375 0.8125 0.7
1.4375 0.875 0.7
1.5 0.875 0.7625
1.4375 0.8125 0.825
1.5 0.8125 0.825
1.4375 0.875 0.825
1.5 0.8125 0.7625
1.5 0.8125 0.7
1.5625 0.875 0.7625
1.5625 0.8125 0.7625
1.5625 0.8125 0.7
1.5625 0.875 0.7
1.625 0.875 0.7625
1.5625 0.8125 0.825
1.625 0.8125 0.825
1.5625 0.875 0.825
1.625 0.8125 0.7625
1.625 0.8125 0.7
1.6875 0.875 0.7625
1.6875 0.8125 0.7625
1.6875 0.8125 0.7
1.6875 0.875 0.7
1.75 0.875 0.7625
1.6875 0.8125 0.825
1.75 0.8125 0.825
1.6875 0.875 0.825
1.75 0.8125 0.7625
1.75 0.8125 0.7
1.8125 0.875 0.7625
1.8125 0.8125 0.7625
1.8125 0.8125 0.7
1.8125 0.875 0.7
1.875 0.875 0.7625
1.8125 0.8125 0.825
1.875 0.8125 0.825
1.8125 0.875 0.825
1.875 0.8125 0.7625
1.875 0.8125 0.7
1.9375 0.875 0.7625
1.9375 0.8125 0.7625
1.9375 0.8125 0.7
1.9375 0.875 0.7
2 0.875 0.7625
1.9375 0.8125 0.825
2 0.8125 0.825
1.9375 0.875 0.825
2 0.8125 0.7625
2 0.8125 0.7
2.0625 0.875 0.7625
2.0625 0.8125 0.7625
2.0625 0.8125 0.7
2.0625 0.875 0.7
2.125 0.875 0.7625
2.0625 0.8125 0.825
2.125 0.8125 0.825
2.0625 0.875 0.825
2.125 0.8125 0.7625
2.125 0.8125 0.7
2.1875 0.875 0.7625
2.1875 0.8125 0.7625
2.1875 0.8125 0.7
2.1875 0.875 0.7
2.25 0.875 0.7625
2.1875 0.8125 0.825
2.25 0.8125 0.825
2.1875 0.875 0.825
2.25 0.8125 0.7625
2.25 0.8125 0.7
2.3125 0.875 0.7625
2.3125 0.8125 0.7625
2.3125 0.8125 0.7
2.3125 0.875 0.7
2.375 0.875 0.7625
2.3125 0.8125 0.825
2.375 0.8125 0.825
2.3125 0.875 0.825
2.375 0.8125 0.7625
2.375 0.8125 0.7
2.4375 0.875 0.7625
2.4375 0.8125 0.7625
2.4375 0.8125 0.7
2.4375 0.875 0.7
2.5 0.875 0.7625
2.4375 0.8125 0.825
2.5 0.8125 0.825
2.4375 0.875 0.825
2.5 0.8125 0.7625
2.5 0.8125 0.7
2.5625 0.875 0.7625
2.5625 0.8125 0.7625
2.5625 0.8125 0.7
2.5625 0.875 0.7
2.625 0.875 0.7625
2.5625 0.8125 0.825
2.625 0.8125 0.825
2.5625 0.875 0.825
2.625 0.8125 0.7625
2.625 0.8125 0.7
2.6875 0.875 0.7625
2.6875 0.8125 0.7625
2.6875 0.8125 0.7
2.6875 0.875 0.7
2.75 0.875 0.7625
2.6875 0.8125 0.825
2.75 0.8125 0.825
2.6875 0.875 0.825
2.75 0.8125 0.7625
2.75 0.8125 0.7
2.8125 0.875 0.7625
2.8125 0.8125 0.7625
2.8125 0.8125 0.7
2.8125 0.875 0.7
2.875 0.875 0.7625
2.8125 0.8125 0.825
2.875 0.8125 0.825
2.8125 0.875 0.825
2.875 0.8125 0.7625
2.875 0.8125 0.7
2.9375 0.875 0.7625
2.9375 0.8125 0.7625
2.9375 0.8125 0.7
2.9375 0.875 0.7
3 0.875 0.7625
2.9375 0.8125 0.825
3 0.8125 0.825
2.9375 0.875 0.825
3 0.8125 0.7625
3 0.8125 0.7
3.0625 0.875 0.7625
3.0625 0.8125 0.7625
3.0625 0.8125 0.7
3.0625 0.875 0.7
3.125 0.875 0.7625
3.0625 0.8125 0.825
3.125 0.8125 0.825
3.0625 0.875 0.825
3.125 0.8125 0.7625
3.125 0.8125 0.7
3.1875 0.875 0.7625
3.1875 0.8125 0.7625
3.1875 0.8125 0.7
3.1875 0.875 0.7
3.25 0.875 0.7625
3.1875 0.8125 0.825
3.25 0.8125 0.825
3.1875 0.875 0.825
3.25 0.8125 0.7625
3.25 0.8125 0.7
3.3125 0.875 0.7625
3.3125 0.8125 0.7625
3.3125 0.8125 0.7
3.3125 0.875 0.7
3.375 0.875 0.7625
3.3125 0.8125 0.825
3.375 0.8125 0.825
3.3125 0.875 0.825
3.375 0.8125 0.7625
3.375 0.8125 0.7
3.4375 0.875 0.7625
3.4375 0.8125 0.7625
3.4375 0.8125 0.7
3.4375 0.875 0.7
3.5 0.875 0.7625
3.4375 0.8125 0.825
3.5 0.8125 0.825
3.4375 0.875 0.825
3.5 0.8125 0.7625
3.5 0.8125 0.7
3.5625 0.875 0.7625
3.5625 0.8125 0.7625
3.5625 0.8125 0.7
3.5625 0.875 0.7
3.625 0.875 0.7625
3.5625 0.8125 0.825
3.625 0.8125 0.825
3.5625 0.875 0.825
3.625 0.8125 0.7625
3.625 0.8125 0.7
3.6875 0.875 0.7625
3.6875 0.8125 0.7625
3.6875 0.8125 0.7
3.6875 0.875 0.7
3.75 0.875 0.7625
3.6875 0.8125 0.825
3.75 0.8125 0.825
3.6875 0.875 0.825
3.75 0.8125 0.7625
3.75 0.8125 0.7
3.8125 0.875 0.7625
3.8125 0.8125 0.7625
3.8125 0.8125 0.7
3.8125 0.875 0.7
3.875 0.875 0.7625
3.8125 0.8125 0.825
3.875 0.8125 0.825
3.8125 0.875 0.825
3.875 0.8125 0.7625
3.875 0.8125 0.7
3.9375 0.875 0.7625
3.9375 0.8125 0.7625
3.9375 0.8125 0.7
3.9375 0.875 0.7
4 0.875 0.7625
3.9375 0.8125 0.825
4 0.8125 0.825
3.9375 0.875 0.825
4 0.8125 0.7625
4 0.8125 0.7
0 0.9375 0.7
0.0625 1 0.7625
0.0625 0.9375 0.7625
0.0625 0.9375 0.7
0.0625 1 0.7
0.125 1 0.7625
0.0625 0.9375 0.825
0.125 0.9375 0.825
0 1 0.7625
0 0.9375 0.7625
0.0625 1 0.825
0 0.9375 0.825
0.125 0.9375 0.7625
0.125 0.9375 0.7
0.1875 1 0.7625
0.1875 0.9375 0.7625
0.1875 0.9375 0.7
0.1875 1 0.7
0.25 1 0.7625
0.1875 0.9375 0.825
0.25 0.9375 0.825
0.1875 1 0.825
0.25 0.9375 0.7625
0.25 0.9375 0.7
0.3125 1 0.7625
0.3125 0.9375 0.7625
0.3125 0.9375 0.7
0.3125 1 0.7
0.375 1 0.7625
0.3125 0.9375 0.825
0.375 0.9375 0.825
0.3125 1 0.825
0.375 0.9375 0.7625
0.375 0.9375 0.7
0.4375 1 0.7625
0.4375 0.9375 0.7625
0.4375 0.9375 0.7
0.4375 1 0.7
0.5 1 0.7625
0.4375 0.9375 0.825
0.5 0.9375 0.825
0.4375 1 0.825
0.5 0.9375 0.7625
0.5 0.9375 0.7
0.5625 1 0.7625
0.5625 0.9375 0.7625
0.5625 0.9375 0.7
0.5625 1 0.7
0.625 1 0.7625
0.5625 0.9375 0.825
0.625 0.9375 0.825
0.5625 1 0.825
0.625 0.9375 0.7625
0.625 0.9375 0.7
0.6875 1 0.7625
0.6875 0.9375 0.7625
0.6875 0.9375 0.7
0.6875 1 0.7
0.75 1 0.7625
0.6875 0.9375 0.825
0.75 0.9375 0.825
0.6875 1 0.825
0.75 0.9375 0.7625
0.75 0.9375 0.7
0.8125 1 0.7625
0.8125 0.9375 0.7625
0.8125 0.9375 0.7
0.8125 1 0.7
0.875 1 0.7625
0.8125 0.9375 0.825
0.875 0.9375 0.825
0.8125 1 0.825
0.875 0.9375 0.7625
0.875 0.9375 0.7
0.9375 1 0.7625
0.9375 0.9375 0.7625
0.9375 0.9375 0.7
0.9375 1 0.7
1 1 0.7625
0.9375 0.9375 0.825
1 0.9375 0.825
0.9375 1 0.825
1 0.9375 0.7625
1 0.9375 0.7
1.0625 1 0.7625
1.0625 0.9375 0.7625
1.0625 0.9375 0.7
1.0625 1 0.7
1.125 1 0.7625
1.0625 0.9375 0.825
1.125 0.9375 0.825
1.0625 1 0.825
1.125 0.9375 0.7625
1.125 0.9375 0.7
1.1875 1 0.7625
1.1875 0.9375 0.7625
1.1875 0.9375 0.7
1.1875 1 0.7
1.25 1 0.7625
1.1875 0.9375 0.825
1.25 0.9375 0.825
1.1875 1 0.825
1.25 0.9375 0.7625
1.25 0.9375 0.7
1.3125 1 0.7625
1.3125 0.9375 0.7625
1.3125 0.9375 0.7
1.3125 1 0.7
1.375 1 0.7625
1.3125 0.9375 0.825
1.375 0.9375 0.825
1.3125 1 0.825
1.375 0.9375 0.7625
1.375 0.9375 0.7
1.4375 1 0.7625
1.4375 0.9375 0.7625
1.4375 0.9375 0.7
1.4375 1 0.7
1.5 1 0.7625
1.4375 0.9375 0.825
1.5 0.9375 0.825
1.4375 1 0.825
1.5 0.9375 0.7625
1.5 0.9375 0.7
1.5625 1 0.7625
1.5625 0.9375 0.7625
1.5625 0.9375 0.7
1.5625 1 0.7
1.625 1 0.7625
1.5625 0.9375 0.825
1.625 0.9375 0.825
1.5625 1 0.825
1.625 0.9375 0.7625
1.625 0.9375 0.7
1.6875 1 0.7625
1.6875 0.9375 0.7625
1.6875 0.9375 0.7
1.6875 1 0.7
1.75 1 0.7625
1.6875 0.9375 0.825
1.75 0.9375 0.825
1.6875 1 0.825
1.75 0.9375 0.7625
1.75 0.9375 0.7
1.8125 1 0.7625
1.8125 0.9375 0.7625
1.8125 0.9375 0.7
1.8125 1 0.7
1.875 1 0.7625
1.8125 0.9375 0.825
1.875 0.9375 0.825
1.8125 1 0.825
1.875 0.9375 0.7625
1.875 0.9375 0.7
1.9375 1 0.7625
1.9375 0.9375 0.7625
1.9375 0.9375 0.7
1.9375 1 0.7
2 1 0.7625
1.9375 0.9375 0.825
2 0.9375 0.825
1.9375 1 0.825
2 0.9375 0.7625
2 0.9375 0.7
2.0625 1 0.7625
2.0625 0.9375 0.7625
2.0625 0.9375 0.7
2.0625 1 0.7
2.125 1 0.7625
2.0625 0.9375 0.825
2.125 0.9375 0.825
2.0625 1 0.825
2.125 0.9375 0.7625
2.125 0.9375 0.7
2.1875 1 0.7625
2.1875 0.9375 0.7625
2.1875 0.9375 0.7
2.1875 1 0.7
2.25 1 0.7625
2.1875 0.9375 0.825
2.25 0.9375 0.825
2.1875 1 0.825
2.25 0.9375 0.7625
2.25 0.9375 0.7
2.3125 1 0.7625
2.3125 0.9375 0.7625
2.3125 0.9375 0.7
2.3125 1 0.7
2.375 1 0.7625
2.3125 0.9375 0.825
2.375 0.9375 0.825
2.3125 1 0.825
2.375 0.9375 0.7625
2.375 0.9375 0.7
2.4375 1 0.7625
2.4375 0.9375 0.7625
2.4375 0.9375 0.7
2.4375 1 0.7
2.5 1 0.7625
2.4375 0.9375 0.825
2.5 0.9375 0.825
2.4375 1 0.825
2.5 0.9375 0.7625
2.5 0.9375 0.7
2.5625 1 0.7625
2.5625 0.9375 0.7625
2.5625 0.9375 0.7
2.5625 1 0.7
2.625 1 0.7625
2.5625 0.9375 0.825
2.625 0.9375 0.825
2.5625 1 0.825
2.625 0.9375 0.7625
2.625 0.9375 0.7
2.6875 1 0.7625
2.6875 0.9375 0.7625
2.6875 0.9375 0.7
2.6875 1 0.7
2.75 1 0.7625
2.6875 0.9375 0.825
2.75 0.9375 0.825
2.6875 1 0.825
2.75 0.9375 0.7625
2.75 0.9375 0.7
2.8125 1 0.7625
2.8125 0.9375 0.7625
2.8125 0.9375 0.7
2.8125 1 0.7
2.875 1 0.7625
2.8125 0.9375 0.825
2.875 0.9375 0.825
2.8125 1 0.825
2.875 0.9375 0.7625
2.875 0.9375 0.7
2.9375 1 0.7625
2.9375 0.9375 0.7625
2.9375 0.9375 0.7
2.9375 1 0.7
3 1 0.7625
2.9375 0.9375 0.825
3 0.9375 0.825
2.9375 1 0.825
3 0.9375 0.7625
3 0.9375 0.7
3.0625 1 0.7625
3.0625 0.9375 0.7625
3.0625 0.9375 0.7
3.0625 1 0.7
3.125 1 0.7625
3.0625 0.9375 0.825
3.125 0.9375 0.825
3.0625 1 0.825
3.125 0.9375 0.7625
3.125 0.9375 0.7
3.1875 1 0.7625
3.1875 0.9375 0.7625
3.1875 0.9375 0.7
3.1875 1 0.7
3.25 1 0.7625
3.1875 0.9375 0.825
3.25 0.9375 0.825
3.1875 1 0.825
3.25 0.9375 0.7625
3.25 0.9375 0.7
3.3125 1 0.7625
3.3125 0.9375 0.7625
3.3125 0.9375 0.7
3.3125 1 0.7
3.375 1 0.7625
3.3125 0.9375 0.825
3.375 0.9375 0.825
3.3125 1 0.825
3.375 0.9375 0.7625
3.375 0.9375 0.7
3.4375 1 0.7625
3.4375 0.9375 0.7625
3.4375 0.9375 0.7
3.4375 1 0.7
3.5 1 0.7625
3.4375 0.9375 0.825
3.5 0.9375 0.825
3.4375 1 0.825
3.5 0.9375 0.7625
3.5 0.9375 0.7
3.5625 1 0.7625
3.5625 0.9375 0.7625
3.5625 0.9375 0.7
3.5625 1 0.7
3.625 1 0.7625
3.5625 0.9375 0.825
3.625 0.9375 0.825
3.5625 1 0.825
3.625 0.9375 0.7625
3.625 0.9375 0.7
3.6875 1 0.7625
3.6875 0.9375 0.7625
3.6875 0.9375 0.7
3.6875 1 0.7
3.75 1 0.7625
3.6875 0.9375 0.825
3.75 0.9375 0.825
3.6875 1 0.825
3.75 0.9375 0.7625
3.75 0.9375 0.7
3.8125 1 0.7625
3.8125 0.9375 0.7625
3.8125 0.9375 0.7
3.8125 1 0.7
3.875 1 0.7625
3.8125 0.9375 0.825
3.875 0.9375 0.825
3.8125 1 0.825
3.875 0.9375 0.7625
3.875 0.9375 0.7
3.9375 1 0.7625
3.9375 0.9375 0.7625
3.9375 0.9375 0.7
3.9375 1 0.7
4 1 0.7625
3.9375 0.9375 0.825
4 0.9375 0.825
3.9375 1 0.825
4 0.9375 0.7625
4 0.9375 0.7
0.0625 0.125 0.8875
0.0625 0.0625 0.8875
0.125 0.125 0.8875
0.0625 0.0625 0.95
0.125 0.0625 0.95
0.0625 0 0.95
0 0 0.8875
0.0625 0 0.8875
0 0.125 0.8875
0 0.0625 0.8875
0.0625 0.125 0.95
0 0.0625 0.95
0.125 0 0.8875
0.125 0.0625 0.8875
0.1875 0.125 0.8875
0.1875 0.0625 0.8875
0.25 0.125 0.8875
0.1875 0.0625 0.95
0.25 0.0625 0.95
0.1875 0 0.95
0.1875 0 0.8875
0.1875 0.125 0.95
0.25 0 0.8875
0.25 0.0625 0.8875
0.3125 0.125 0.8875
0.3125 0.0625 0.8875
0.375 0.125 0.8875
0.3125 0.0625 0.95
0.375 0.0625 0.95
0.3125 0 0.95
0.3125 0 0.8875
0.3125 0.125 0.95
0.375 0 0.8875
0.375 0.0625 0.8875
0.4375 0.125 0.8875
0.4375 0.0625 0.8875
0.5 0.125 0.8875
0.4375 0.0625 0.95
0.5 0.0625 0.95
0.4375 0 0.95
0.4375 0 0.8875
0.4375 0.125 0.95
0.5 0 0.8875
0.5 0.0625 0.8875
0.5625 0.125 0.8875
0.5625 0.0625 0.8875
0.625 0.125 0.8875
0.5625 0.0625 0.95
0.625 0.0625 0.95
0.5625 0 0.95
0.5625 0 0.8875
0.5625 0.125 0.95
0.625 0 0.8875
0.625 0.0625 0.8875
0.6875 0.125 0.8875
0.6875 0.0625 0.8875
0.75 0.125 0.8875
0.6875 0.0625 0.95
0.75 0.0625 0.95
0.6875 0 0.95
0.6875 0 0.8875
0.6875 0.125 0.95
0.75 0 0.8875
0.75 0.0625 0.8875
0.8125 0.125 0.8875
0.8125 0.0625 0.8875
0.875 0.125 0.8875
0.8125 0.0625 0.95
0.875 0.0625 0.95
0.8125 0 0.95
0.8125 0 0.8875
0.8125 0.125 0.95
0.875 0 0.8875
0.875 0.0625 0.8875
0.9375 0.125 0.8875
0.9375 0.0625 0.8875
1 0.125 0.8875
0.9375 0.0625 0.95
1 0.0625 0.95
0.9375 0 0.95
0.9375 0 0.8875
0.9375 0.125 0.95
1 0 0.8875
1 0.0625 0.8875
1.0625 0.125 0.8875
1.0625 0.0625 0.8875
1.125 0.125 0.8875
1.0625 0.0625 0.95
1.125 0.0625 0.95
1.0625 0 0.95
1.0625 0 0.8875
1.0625 0.125 0.95
1.125 0 0.8875
1.125 0.0625 0.8875
1.1875 0.125 0.8875
1.1875 0.0625 0.8875
1.25 0.125 0.8875
1.1875 0.0625 0.95
1.25 0.0625 0.95
1.1875 0 0.95
1.1875 0 0.8875
1.1875 0.125 0.95
1.25 0 0.8875
1.25 0.0625 0.8875
1.3125 0.125 0.8875
1.3125 0.0625 0.8875
1.375 0.125 0.8875
1.3125 0.0625 0.95
1.375 0.0625 0.95
1.3125 0 0.95
1.3125 0 0.8875
1.3125 0.125 0.95
1.375 0 0.8875
1.375 0.0625 0.8875
1.4375 0.125 0.8875
1.4375 0.0625 0.8875
1.5 0.125 0.8875
1.4375 0.0625 0.95
1.5 0.0625 0.95
1.4375 0 0.95
1.4375 0 0.8875
1.4375 0.125 0.95
1.5 0 0.8875
1.5 0.0625 0.8875
1.5625 0.125 0.8875
1.5625 0.0625 0.8875
1.625 0.125 0.8875
1.5625 0.0625 0.95
1.625 0.0625 0.95
1.5625 0 0.95
1.5625 0 0.8875
1.5625 0.125 0.95
1.625 0 0.8875
1.625 0.0625 0.8875
1.6875 0.125 0.8875
1.6875 0.0625 0.8875
1.75 0.125 0.8875
1.6875 0.0625 0.95
1.75 0.0625 0.95
1.6875 0 0.95
1.6875 0 0.8875
1.6875 0.125 0.95
1.75 0 0.8875
1.75 0.0625 0.8875
1.8125 0.125 0.8875
1.8125 0.0625 0.8875
1.875 0.125 0.8875
1.8125 0.0625 0.95
1.875 0.0625 0.95
1.8125 0 0.95
1.8125 0 0.8875
1.8125 0.125 0.95
1.875 0 0.8875
1.875 0.0625 0.8875
1.9375 0.125 0.8875
1.9375 0.0625 0.8875
2 0.125 0.8875
1.9375 0.0625 0.95
2 0.0625 0.95
1.9375 0 0.95
1.9375 0 0.8875
1.9375 0.125 0.95
2 0 0.8875
2 0.0625 0.8875
2.0625 0.125 0.8875
2.0625 0.0625 0.8875
2.125 0.125 0.8875
2.0625 0.0625 0.95
2.125 0.0625 0.95
2.0625 0 0.95
2.0625 0 0.8875
2.0625 0.125 0.95
2.125 0 0.8875
2.125 0.0625 0.8875
2.1875 0.125 0.8875
2.1875 0.0625 0.8875
2.25 0.125 0.8875
2.1875 0.0625 0.95
2.25 0.0625 0.95
2.1875 0 0.95
2.1875 0 0.8875
2.1875 0.125 0.95
2.25 0 0.8875
2.25 0.0625 0.8875
2.3125 0.125 0.8875
2.3125 0.0625 0.8875
2.375 0.125 0.8875
2.3125 0.0625 0.95
2.375 0.0625 0.95
2.3125 0 0.95
2.3125 0 0.8875
2.3125 0.125 0.95
2.375 0 0.8875
2.375 0.0625 0.8875
2.4375 0.125 0.8875
2.4375 0.0625 0.8875
2.5 0.125 0.8875
2.4375 0.0625 0.95
2.5 0.0625 0.95
2.4375 0 0.95
2.4375 0 0.8875
2.4375 0.125 0.95
2.5 0 0.8875
2.5 0.0625 0.8875
2.5625 0.125 0.8875
2.5625 0.0625 0.8875
2.625 0.125 0.8875
2.5625 0.0625 0.95
2.625 0.0625 0.95
2.5625 0 0.95
2.5625 0 0.8875
2.5625 0.125 0.95
2.625 0 0.8875
2.625 0.0625 0.8875
2.6875 0.125 0.8875
2.6875 0.0625 0.8875
2.75 0.125 0.8875
2.6875 0.0625 0.95
2.75 0.0625 0.95
2.6875 0 0.95
2.6875 0 0.8875
2.6875 0.125 0.95
2.75 0 0.8875
2.75 0.0625 0.8875
2.8125 0.125 0.8875
2.8125 0.0625 0.8875
2.875 0.125 0.8875
2.8125 0.0625 0.95
2.875 0.0625 0.95
2.8125 0 0.95
2.8125 0 0.8875
2.8125 0.125 0.95
2.875 0 0.8875
2.875 0.0625 0.8875
2.9375 0.125 0.8875
2.9375 0.0625 0.8875
3 0.125 0.8875
2.9375 0.0625 0.95
3 0.0625 0.95
2.9375 0 0.95
2.9375 0 0.8875
2.9375 0.125 0.95
3 0 0.8875
3 0.0625 0.8875
3.0625 0.125 0.8875
3.0625 0.0625 0.8875
3.125 0.125 0.8875
3.0625 0.0625 0.95
3.125 0.0625 0.95
3.0625 0 0.95
3.0625 0 0.8875
3.0625 0.125 0.95
3.125 0 0.8875
3.125 0.0625 0.8875
3.1875 0.125 0.8875
3.1875 0.0625 0.8875
3.25 0.125 0.8875
3.1875 0.0625 0.95
3.25 0.0625 0.95
3.1875 0 0.95
3.1875 0 0.8875
3.1875 0.125 0.95
3.25 0 0.8875
3.25 0.0625 0.8875
3.3125 0.125 0.8875
3.3125 0.0625 0.8875
3.375 0.125 0.8875
3.3125 0.0625 0.95
3.375 0.0625 0.95
3.3125 0 0.95
3.3125 0 0.8875
3.3125 0.125 0.95
3.375 0 0.8875
3.375 0.0625 0.8875
3.4375 0.125 0.8875
3.4375 0.0625 0.8875
3.5 0.125 0.8875
3.4375 0.0625 0.95
3.5 0.0625 0.95
3.4375 0 0.95
3.4375 0 0.8875
3.4375 0.125 0.95
3.5 0 0.8875
3.5 0.0625 0.8875
3.5625 0.125 0.8875
3.5625 0.0625 0.8875
3.625 0.125 0.8875
3.5625 0.0625 0.95
3.625 0.0625 0.95
3.5625 0 0.95
3.5625 0 0.8875
3.5625 0.125 0.95
3.625 0 0.8875
3.625 0.0625 0.8875
3.6875 0.125 0.8875
3.6875 0.0625 0.8875
3.75 0.125 0.8875
3.6875 0.0625 0.95
3.75 0.0625 0.95
3.6875 0 0.95
3.6875 0 0.8875
3.6875 0.125 0.95
3.75 0 0.8875
3.75 0.0625 0.8875
3.8125 0.125 0.8875
3.8125 0.0625 0.8875
3.875 0.125 0.8875
3.8125 0.0625 0.95
3.875 0.0625 0.95
3.8125 0 0.95
3.8125 0 0.8875
3.8125 0.125 0.95
3.875 0 0.8875
3.875 0.0625 0.8875
3.9375 0.125 0.8875
3.9375 0.0625 0.8875
4 0.125 0.8875
3.9375 0.0625 0.95
4 0.0625 0.95
3.9375 0 0.95
3.9375 0 0.8875
3.9375 0.125 0.95
4 0 0.8875
4 0.0625 0.8875
0.0625 0.25 0.8875
0.0625 0.1875 0.8875
0.125 0.25 0.8875
0.0625 0.1875 0.95
0.125 0.1875 0.95
0 0.25 0.8875
0 0.1875 0.8875
0.0625 0.25 0.95
0 0.1875 0.95
0.125 0.1875 0.8875
0.1875 0.25 0.8875
0.1875 0.1875 0.8875
0.25 0.25 0.8875
0.1875 0.1875 0.95
0.25 0.1875 0.95
0.1875 0.25 0.95
0.25 0.1875 0.8875
0.3125 0.25 0.8875
0.3125 0.1875 0.8875
0.375 0.25 0.8875
0.3125 0.1875 0.95
0.375 0.1875 0.95
0.3125 0.25 0.95
0.375 0.1875 0.8875
0.4375 0.25 0.8875
0.4375 0.1875 0.8875
0.5 0.25 0.8875
0.4375 0.1875 0.95
0.5 0.1875 0.95
0.4375 0.25 0.95
0.5 0.1875 0.8875
0.5625 0.25 0.8875
0.5625 0.1875 0.8875
0.625 0.25 0.8875
0.5625 0.1875 0.95
0.625 0.1875 0.95
0.5625 0.25 0.95
0.625 0.1875 0.8875
0.6875 0.25 0.8875
0.6875 0.1875 0.8875
0.75 0.25 0.8875
0.6875 0.1875 0.95
0.75 0.1875 0.95
0.6875 0.25 0.95
0.75 0.1875 0.8875
0.8125 0.25 0.8875
0.8125 0.1875 0.8875
0.875 0.25 0.8875
0.8125 0.1875 0.95
0.875 0.1875 0.95
0.8125 0.25 0.95
0.875 0.1875 0.8875
0.9375 0.25 0.8875
0.9375 0.1875 0.8875
1 0.25 0.8875
0.9375 0.1875 0.95
1 0.1875 0.95
0.9375 0.25 0.95
1 0.1875 0.8875
1.0625 0.25 0.8875
1.0625 0.1875 0.8875
1.125 0.25 0.8875
1.0625 0.1875 0.95
1.125 0.1875 0.95
1.0625 0.25 0.95
1.125 0.1875 0.8875
1.1875 0.25 0.8875
1.1875 0.1875 0.8875
1.25 0.25 0.8875
1.1875 0.1875 0.95
1.25 0.1875 0.95
1.1875 0.25 0.95
1.25 0.1875 0.8875
1.3125 0.25 0.8875
1.3125 0.1875 0.8875
1.375 0.25 0.8875
1.3125 0.1875 0.95
1.375 0.1875 0.95
1.3125 0.25 0.95
1.375 0.1875 0.8875
1.4375 0.25 0.8875
1.4375 0.1875 0.8875
1.5 0.25 0.8875
1.4375 0.1875 0.95
1.5 0.1875 0.95
1.4375 0.25 0.95
1.5 0.1875 0.8875
1.5625 0.25 0.8875
1.5625 0.1875 0.8875
1.625 0.25 0.8875
1.5625 0.1875 0.95
1.625 0.1875 0.95
1.5625 0.25 0.95
1.625 0.1875 0.8875
1.6875 0.25 0.8875
1.6875 0.1875 0.8875
1.75 0.25 0.8875
1.6875 0.1875 0.95
1.75 0.1875 0.95
1.6875 0.25 0.95
1.75 0.1875 0.8875
1.8125 0.25 0.8875
1.8125 0.1875 0.8875
1.875 0.25 0.8875
1.8125 0.1875 0.95
1.875 0.1875 0.95
1.8125 0.25 0.95
1.875 0.1875 0.8875
1.9375 0.25 0.8875
1.9375 0.1875 0.8875
2 0.25 0.8875
1.9375 0.1875 0.95
2 0.1875 0.95
1.9375 0.25 0.95
2 0.1875 0.8875
2.0625 0.25 0.8875
2.0625 0.1875 0.8875
2.125 0.25 0.8875
2.0625 0.1875 0.95
2.125 0.1875 0.95
2.0625 0.25 0.95
2.125 0.1875 0.8875
2.1875 0.25 0.8875
2.1875 0.1875 0.8875
2.25 0.25 0.8875
2.1875 0.1875 0.95
2.25 0.1875 0.95
2.1875 0.25 0.95
2.25 0.1875 0.8875
2.3125 0.25 0.8875
2.3125 0.1875 0.8875
2.375 0.25 0.8875
2.3125 0.1875 0.95
2.375 0.1875 0.95
2.3125 0.25 0.95
2.375 0.1875 0.8875
2.4375 0.25 0.8875
2.4375 0.1875 0.8875
2.5 0.25 0.8875
2.4375 0.1875 0.95
2.5 0.1875 0.95
2.4375 0.25 0.95
2.5 0.1875 0.8875
2.5625 0.25 0.8875
2.5625 0.1875 0.8875
2.625 0.25 0.8875
2.5625 0.1875 0.95
2.625 0.1875 0.95
2.5625 0.25 0.95
2.625 0.1875 0.8875
2.6875 0.25 0.8875
2.6875 0.1875 0.8875
2.75 0.25 0.8875
2.6875 0.1875 0.95
2.75 0.1875 0.95
2.6875 0.25 0.95
2.75 0.1875 0.8875
2.8125 0.25 0.8875
2.8125 0.1875 0.8875
2.875 0.25 0.8875
2.8125 0.1875 0.95
2.875 0.1875 0.95
2.8125 0.25 0.95
2.875 0.1875 0.8875
2.9375 0.25 0.8875
2.9375 0.1875 0.8875
3 0.25 0.8875
2.9375 0.1875 0.95
3 0.1875 0.95
2.9375 0.25 0.95
3 0.1875 0.8875
3.0625 0.25 0.8875
3.0625 0.1875 0.8875
3.125 0.25 0.8875
3.0625 0.1875 0.95
3.125 0.1875 0.95
3.0625 0.25 0.95
3.125 0.1875 0.8875
3.1875 0.25 0.8875
3.1875 0.1875 0.8875
3.25 0.25 0.8875
3.1875 0.1875 0.95
3.25 0.1875 0.95
3.1875 0.25 0.95
3.25 0.1875 0.8875
3.3125 0.25 0.8875
3.3125 0.1875 0.8875
3.375 0.25 0.8875
3.3125 0.1875 0.95
3.375 0.1875 0.95
3.3125 0.25 0.95
3.375 0.1875 0.8875
3.4375 0.25 0.8875
3.4375 0.1875 0.8875
3.5 0.25 0.8875
3.4375 0.1875 0.95
3.5 0.1875 0.95
3.4375 0.25 0.95
3.5 0.1875 0.8875
3.5625 0.25 0.8875
3.5625 0.1875 0.8875
3.625 0.25 0.8875
3.5625 0.1875 0.95
3.625 0.1875 0.95
3.5625 0.25 0.95
3.625 0.1875 0.8875
3.6875 0.25 0.8875
3.6875 0.1875 0.8875
3.75 0.25 0.8875
3.6875 0.1875 0.95
3.75 0.1875 0.95
3.6875 0.25 0.95
3.75 0.1875 0.8875
3.8125 0.25 0.8875
3.8125 0.1875 0.8875
3.875 0.25 0.8875
3.8125 0.1875 0.95
3.875 0.1875 0.95
3.8125 0.25 0.95
3.875 0.1875 0.8875
3.9375 0.25 0.8875
3.9375 0.1875 0.8875
4 0.25 0.8875
3.9375 0.1875 0.95
4 0.1875 0.95
3.9375 0.25 0.95
4 0.1875 0.8875
0.0625 0.375 0.8875
0.0625 0.3125 0.8875
0.125 0.375 0.8875
0.0625 0.3125 0.95
0.125 0.3125 0.95
0 0.375 0.8875
0 0.3125 0.8875
0.0625 0.375 0.95
0 0.3125 0.95
0.125 0.3125 0.8875
0.1875 0.375 0.8875
0.1875 0.3125 0.8875
0.25 0.375 0.8875
0.1875 0.3125 0.95
0.25 0.3125 0.95
0.1875 0.375 0.95
0.25 0.3125 0.8875
0.3125 0.375 0.8875
0.3125 0.3125 0.8875
0.375 0.375 0.8875
0.3125 0.3125 0.95
0.375 0.3125 0.95
0.3125 0.375 0.95
0.375 0.3125 0.8875
0.4375 0.375 0.8875
0.4375 0.3125 0.8875
0.5 0.375 0.8875
0.4375 0.3125 0.95
0.5 0.3125 0.95
0.4375 0.375 0.95
0.5 0.3125 0.8875
0.5625 0.375 0.8875
0.5625 0.3125 0.8875
0.625 0.375 0.8875
0.5625 0.3125 0.95
0.625 0.3125 0.95
0.5625 0.375 0.95
0.625 0.3125 0.8875
0.6875 0.375 0.8875
0.6875 0.3125 0.8875
0.75 0.375 0.8875
0.6875 0.3125 0.95
0.75 0.3125 0.95
0.6875 0.375 0.95
0.75 0.3125 0.8875
0.8125 0.375 0.8875
0.8125 0.3125 0.8875
0.875 0.375 0.8875
0.8125 0.3125 0.95
0.875 0.3125 0.95
0.8125 0.375 0.95
0.875 0.3125 0.8875
0.9375 0.375 0.8875
0.9375 0.3125 0.8875
1 0.375 0.8875
0.9375 0.3125 0.95
1 0.3125 0.95
0.9375 0.375 0.95
1 0.3125 0.8875
1.0625 0.375 0.8875
1.0625 0.3125 0.8875
1.125 0.375 0.8875
1.0625 0.3125 0.95
1.125 0.3125 0.95
1.0625 0.375 0.95
1.125 0.3125 0.8875
1.1875 0.375 0.8875
1.1875 0.3125 0.8875
1.25 0.375 0.8875
1.1875 0.3125 0.95
1.25 0.3125 0.95
1.1875 0.375 0.95
1.25 0.3125 0.8875
1.3125 0.375 0.8875
1.3125 0.3125 0.8875
1.375 0.375 0.8875
1.3125 0.3125 0.95
1.375 0.3125 0.95
1.3125 0.375 0.95
1.375 0.3125 0.8875
1.4375 0.375 0.8875
1.4375 0.3125 0.8875
1.5 0.375 0.8875
1.4375 0.3125 0.95
1.5 0.3125 0.95
1.4375 0.375 0.95
1.5 0.3125 0.8875
1.5625 0.375 0.8875
1.5625 0.3125 0.8875
1.625 0.375 0.8875
1.5625 0.3125 0.95
1.625 0.3125 0.95
1.5625 0.375 0.95
1.625 0.3125 0.8875
1.6875 0.375 0.8875
1.6875 0.3125 0.8875
1.75 0.375 0.8875
1.6875 0.3125 0.95
1.75 0.3125 0.95
1.6875 0.375 0.95
1.75 0.3125 0.8875
1.8125 0.375 0.8875
1.8125 0.3125 0.8875
1.875 0.375 0.8875
1.8125 0.3125 0.95
1.875 0.3125 0.95
1.8125 0.375 0.95
1.875 0.3125 0.8875
1.9375 0.375 0.8875
1.9375 0.3125 0.8875
2 0.375 0.8875
1.9375 0.3125 0.95
2 0.3125 0.95
1.9375 0.375 0.95
2 0.3125 0.8875
2.0625 0.375 0.8875
2.0625 0.3125 0.8875
2.125 0.375 0.8875
2.0625 0.3125 0.95
2.125 0.3125 0.95
2.0625 0.375 0.95
2.125 0.3125 0.8875
2.1875 0.375 0.8875
2.1875 0.3125 0.8875
2.25 0.375 0.8875
2.1875 0.3125 0.95
2.25 0.3125 0.95
2.1875 0.375 0.95
2.25 0.3125 0.8875
2.3125 0.375 0.8875
2.3125 0.3125 0.8875
2.375 0.375 0.8875
2.3125 0.3125 0.95
2.375 0.3125 0.95
2.3125 0.375 0.95
2.375 0.3125 0.8875
2.4375 0.375 0.8875
2.4375 0.3125 0.8875
2.5 0.375 0.8875
2.4375 0.3125 0.95
2.5 0.3125 0.95
2.4375 0.375 0.95
2.5 0.3125 0.8875
2.5625 0.375 0.8875
2.5625 0.3125 0.8875
2.625 0.375 0.8875
2.5625 0.3125 0.95
2.625 0.3125 0.95
2.5625 0.375 0.95
2.625 0.3125 0.8875
2.6875 0.375 0.8875
2.6875 0.3125 0.8875
2.75 0.375 0.8875
2.6875 0.3125 0.95
2.75 0.3125 0.95
2.6875 0.375 0.95
2.75 0.3125 0.8875
2.8125 0.375 0.8875
2.8125 0.3125 0.8875
2.875 0.375 0.8875
2.8125 0.3125 0.95
2.875 0.3125 0.95
2.8125 0.375 0.95
2.875 0.3125 0.8875
2.9375 0.375 0.8875
2.9375 0.3125 0.8875
3 0.375 0.8875
2.9375 0.3125 0.95
3 0.3125 0.95
2.9375 0.375 0.95
3 0.3125 0.8875
3.0625 0.375 0.8875
3.0625 0.3125 0.8875
3.125 0.375 0.8875
3.0625 0.3125 0.95
3.125 0.3125 0.95
3.0625 0.375 0.95
3.125 0.3125 0.8875
3.1875 0.375 0.8875
3.1875 0.3125 0.8875
3.25 0.375 0.8875
3.1875 0.3125 0.95
3.25 0.3125 0.95
3.1875 0.375 0.95
3.25 0.3125 0.8875
3.3125 0.375 0.8875
3.3125 0.3125 0.8875
3.375 0.375 0.8875
3.3125 0.3125 0.95
3.375 0.3125 0.95
3.3125 0.375 0.95
3.375 0.3125 0.8875
3.4375 0.375 0.8875
3.4375 0.3125 0.8875
3.5 0.375 0.8875
3.4375 0.3125 0.95
3.5 0.3125 0.95
3.4375 0.375 0.95
3.5 0.3125 0.8875
3.5625 0.375 0.8875
3.5625 0.3125 0.8875
3.625 0.375 0.8875
3.5625 0.3125 0.95
3.625 0.3125 0.95
3.5625 0.375 0.95
3.625 0.3125 0.8875
3.6875 0.375 0.8875
3.6875 0.3125 0.8875
3.75 0.375 0.8875
3.6875 0.3125 0.95
3.75 0.3125 0.95
3.6875 0.375 0.95
3.75 0.3125 0.8875
3.8125 0.375 0.8875
3.8125 0.3125 0.8875
3.875 0.375 0.8875
3.8125 0.3125 0.95
3.875 0.3125 0.95
3.8125 0.375 0.95
3.875 0.3125 0.8875
3.9375 0.375 0.8875
3.9375 0.3125 0.8875
4 0.375 0.8875
3.9375 0.3125 0.95
4 0.3125 0.95
3.9375 0.375 0.95
4 0.3125 0.8875
0.0625 0.5 0.8875
0.0625 0.4375 0.8875
0.125 0.5 0.8875
0.0625 0.4375 0.95
0.125 0.4375 0.95
0 0.5 0.8875
0 0.4375 0.8875
0.0625 0.5 0.95
0 0.4375 0.95
0.125 0.4375 0.8875
0.1875 0.5 0.8875
0.1875 0.4375 0.8875
0.25 0.5 0.8875
0.1875 0.4375 0.95
0.25 0.4375 0.95
0.1875 0.5 0.95
0.25 0.4375 0.8875
0.3125 0.5 0.8875
0.3125 0.4375 0.8875
0.375 0.5 0.8875
0.3125 0.4375 0.95
0.375 0.4375 0.95
0.3125 0.5 0.95
0.375 0.4375 0.8875
0.4375 0.5 0.8875
0.4375 0.4375 0.8875
0.5 0.5 0.8875
0.4375 0.4375 0.95
0.5 0.4375 0.95
0.4375 0.5 0.95
0.5 0.4375 0.8875
0.5625 0.5 0.8875
0.5625 0.4375 0.8875
0.625 0.5 0.8875
0.5625 0.4375 0.95
0.625 0.4375 0.95
0.5625 0.5 0.95
0.625 0.4375 0.8875
0.6875 0.5 0.8875
0.6875 0.4375 0.8875
0.75 0.5 0.8875
0.6875 0.4375 0.95
0.75 0.4375 0.95
0.6875 0.5 0.95
0.75 0.4375 0.8875
0.8125 0.5 0.8875
0.8125 0.4375 0.8875
0.875 0.5 0.8875
0.8125 0.4375 0.95
0.875 0.4375 0.95
0.8125 0.5 0.95
0.875 0.4375 0.8875
0.9375 0.5 0.8875
0.9375 0.4375 0.8875
1 0.5 0.8875
0.9375 0.4375 0.95
1 0.4375 0.95
0.9375 0.5 0.95
1 0.4375 0.8875
1.0625 0.5 0.8875
1.0625 0.4375 0.8875
1.125 0.5 0.8875
1.0625 0.4375 0.95
1.125 0.4375 0.95
1.0625 0.5 0.95
1.125 0.4375 0.8875
1.1875 0.5 0.8875
1.1875 0.4375 0.8875
1.25 0.5 0.8875
1.1875 0.4375 0.95
1.25 0.4375 0.95
1.1875 0.5 0.95
1.25 0.4375 0.8875
1.3125 0.5 0.8875
1.3125 0.4375 0.8875
1.375 0.5 0.8875
1.3125 0.4375 0.95
1.375 0.4375 0.95
1.3125 0.5 0.95
1.375 0.4375 0.8875
1.4375 0.5 0.8875
1.4375 0.4375 0.8875
1.5 0.5 0.8875
1.4375 0.4375 0.95
1.5 0.4375 0.95
1.4375 0.5 0.95
1.5 0.4375 0.8875
1.5625 0.5 0.8875
1.5625 0.4375 0.8875
1.625 0.5 0.8875
1.5625 0.4375 0.95
1.625 0.4375 0.95
1.5625 0.5 0.95
1.625 0.4375 0.8875
1.6875 0.5 0.8875
1.6875 0.4375 0.8875
1.75 0.5 0.8875
1.6875 0.4375 0.95
1.75 0.4375 0.95
1.6875 0.5 0.95
1.75 0.4375 0.8875
1.8125 0.5 0.8875
1.8125 0.4375 0.8875
1.875 0.5 0.8875
1.8125 0.4375 0.95
1.875 0.4375 0.95
1.8125 0.5 0.95
1.875 0.4375 0.8875
1.9375 0.5 0.8875
1.9375 0.4375 0.8875
2 0.5 0.8875
1.9375 0.4375 0.95
2 0.4375 0.95
1.9375 0.5 0.95
2 0.4375 0.8875
2.0625 0.5 0.8875
2.0625 0.4375 0.8875
2.125 0.5 0.8875
2.0625 0.4375 0.95
2.125 0.4375 0.95
2.0625 0.5 0.95
2.125 0.4375 0.8875
2.1875 0.5 0.8875
2.1875 0.4375 0.8875
2.25 0.5 0.8875
2.1875 0.4375 0.95
2.25 0.4375 0.95
2.1875 0.5 0.95
2.25 0.4375 0.8875
2.3125 0.5 0.8875
2.3125 0.4375 0.8875
2.375 0.5 0.8875
2.3125 0.4375 0.95
2.375 0.4375 0.95
2.3125 0.5 0.95
2.375 0.4375 0.8875
2.4375 0.5 0.8875
2.4375 0.4375 0.8875
2.5 0.5 0.8875
2.4375 0.4375 0.95
2.5 0.4375 0.95
2.4375 0.5 0.95
2.5 0.4375 0.8875
2.5625 0.5 0.8875
2.5625 0.4375 0.8875
2.625 0.5 0.8875
2.5625 0.4375 0.95
2.625 0.4375 0.95
2.5625 0.5 0.95
2.625 0.4375 0.8875
2.6875 0.5 0.8875
2.6875 0.4375 0.8875
2.75 0.5 0.8875
2.6875 0.4375 0.95
2.75 0.4375 0.95
2.6875 0.5 0.95
2.75 0.4375 0.8875
2.8125 0.5 0.8875
2.8125 0.4375 0.8875
2.875 0.5 0.8875
2.8125 0.4375 0.95
2.875 0.4375 0.95
2.8125 0.5 0.95
2.875 0.4375 0.8875
2.9375 0.5 0.8875
2.9375 0.4375 0.8875
3 0.5 0.8875
2.9375 0.4375 0.95
3 0.4375 0.95
2.9375 0.5 0.95
3 0.4375 0.8875
3.0625 0.5 0.8875
3.0625 0.4375 0.8875
3.125 0.5 0.8875
3.0625 0.4375 0.95
3.125 0.4375 0.95
3.0625 0.5 0.95
3.125 0.4375 0.8875
3.1875 0.5 0.8875
3.1875 0.4375 0.8875
3.25 0.5 0.8875
3.1875 0.4375 0.95
3.25 0.4375 0.95
3.1875 0.5 0.95
3.25 0.4375 0.8875
3.3125 0.5 0.8875
3.3125 0.4375 0.8875
3.375 0.5 0.8875
3.3125 0.4375 0.95
3.375 0.4375 0.95
3.3125 0.5 0.95
3.375 0.4375 0.8875
3.4375 0.5 0.8875
3.4375 0.4375 0.8875
3.5 0.5 0.8875
3.4375 0.4375 0.95
3.5 0.4375 0.95
3.4375 0.5 0.95
3.5 0.4375 0.8875
3.5625 0.5 0.8875
3.5625 0.4375 0.8875
3.625 0.5 0.8875
3.5625 0.4375 0.95
3.625 0.4375 0.95
3.5625 0.5 0.95
3.625 0.4375 0.8875
3.6875 0.5 0.8875
3.6875 0.4375 0.8875
3.75 0.5 0.8875
3.6875 0.4375 0.95
3.75 0.4375 0.95
3.6875 0.5 0.95
3.75 0.4375 0.8875
3.8125 0.5 0.8875
3.8125 0.4375 0.8875
3.875 0.5 0.8875
3.8125 0.4375 0.95
3.875 0.4375 0.95
3.8125 0.5 0.95
3.875 0.4375 0.8875
3.9375 0.5 0.8875
3.9375 0.4375 0.8875
4 0.5 0.8875
3.9375 0.4375 0.95
4 0.4375 0.95
3.9375 0.5 0.95
4 0.4375 0.8875
0.0625 0.625 0.8875
0.0625 0.5625 0.8875
0.125 0.625 0.8875
0.0625 0.5625 0.95
0.125 0.5625 0.95
0 0.625 0.8875
0 0.5625 0.8875
0.0625 0.625 0.95
0 0.5625 0.95
0.125 0.5625 0.8875
0.1875 0.625 0.8875
0.1875 0.5625 0.8875
0.25 0.625 0.8875
0.1875 0.5625 0.95
0.25 0.5625 0.95
0.1875 0.625 0.95
0.25 0.5625 0.8875
0.3125 0.625 0.8875
0.3125 0.5625 0.8875
0.375 0.625 0.8875
0.3125 0.5625 0.95
0.375 0.5625 0.95
0.3125 0.625 0.95
0.375 0.5625 0.8875
0.4375 0.625 0.8875
0.4375 0.5625 0.8875
0.5 0.625 0.8875
0.4375 0.5625 0.95
0.5 0.5625 0.95
0.4375 0.625 0.95
0.5 0.5625 0.8875
0.5625 0.625 0.8875
0.5625 0.5625 0.8875
0.625 0.625 0.8875
0.5625 0.5625 0.95
0.625 0.5625 0.95
0.5625 0.625 0.95
0.625 0.5625 0.8875
0.6875 0.625 0.8875
0.6875 0.5625 0.8875
0.75 0.625 0.8875
0.6875 0.5625 0.95
0.75 0.5625 0.95
0.6875 0.625 0.95
0.75 0.5625 0.8875
0.8125 0.625 0.8875
0.8125 0.5625 0.8875
0.875 0.625 0.8875
0.8125 0.5625 0.95
0.875 0.5625 0.95
0.8125 0.625 0.95
0.875 0.5625 0.8875
0.9375 0.625 0.8875
0.9375 0.5625 0.8875
1 0.625 0.8875
0.9375 0.5625 0.95
1 0.5625 0.95
0.9375 0.625 0.95
1 0.5625 0.8875
1.0625 0.625 0.8875
1.0625 0.5625 0.8875
1.125 0.625 0.8875
1.0625 0.5625 0.95
1.125 0.5625 0.95
1.0625 0.625 0.95
1.125 0.5625 0.8875
1.1875 0.625 0.8875
1.1875 0.5625 0.8875
1.25 0.625 0.8875
1.1875 0.5625 0.95
1.25 0.5625 0.95
1.1875 0.625 0.95
1.25 0.5625 0.8875
1.3125 0.625 0.8875
1.3125 0.5625 0.8875
1.375 0.625 0.8875
1.3125 0.5625 0.95
1.375 0.5625 0.95
1.3125 0.625 0.95
1.375 0.5625 0.8875
1.4375 0.625 0.8875
1.4375 0.5625 0.8875
1.5 0.625 0.8875
1.4375 0.5625 0.95
1.5 0.5625 0.95
1.4375 0.625 0.95
1.5 0.5625 0.8875
1.5625 0.625 0.8875
1.5625 0.5625 0.8875
1.625 0.625 0.8875
1.5625 0.5625 0.95
1.625 0.5625 0.95
1.5625 0.625 0.95
1.625 0.5625 0.8875
1.6875 0.625 0.8875
1.6875 0.5625 0.8875
1.75 0.625 0.8875
1.6875 0.5625 0.95
1.75 0.5625 0.95
1.6875 0.625 0.95
1.75 0.5625 0.8875
1.8125 0.625 0.8875
1.8125 0.5625 0.8875
1.875 0.625 0.8875
1.8125 0.5625 0.95
1.875 0.5625 0.95
1.8125 0.625 0.95
1.875 0.5625 0.8875
1.9375 0.625 0.8875
1.9375 0.5625 0.8875
2 0.625 0.8875
1.9375 0.5625 0.95
2 0.5625 0.95
1.9375 0.625 0.95
2 0.5625 0.8875
2.0625 0.625 0.8875
2.0625 0.5625 0.8875
2.125 0.625 0.8875
2.0625 0.5625 0.95
2.125 0.5625 0.95
2.0625 0.625 0.95
2.125 0.5625 0.8875
2.1875 0.625 0.8875
2.1875 0.5625 0.8875
2.25 0.625 0.8875
2.1875 0.5625 0.95
2.25 0.5625 0.95
2.1875 0.625 0.95
2.25 0.5625 0.8875
2.3125 0.625 0.8875
2.3125 0.5625 0.8875
2.375 0.625 0.8875
2.3125 0.5625 0.95
2.375 0.5625 0.95
2.3125 0.625 0.95
2.375 0.5625 0.8875
2.4375 0.625 0.8875
2.4375 0.5625 0.8875
2.5 0.625 0.8875
2.4375 0.5625 0.95
2.5 0.5625 0.95
2.4375 0.625 0.95
2.5 0.5625 0.8875
2.5625 0.625 0.8875
2.5625 0.5625 0.8875
2.625 0.625 0.8875
2.5625 0.5625 0.95
2.625 0.5625 0.95
2.5625 0.625 0.95
2.625 0.5625 0.8875
2.6875 0.625 0.8875
2.6875 0.5625 0.8875
2.75 0.625 0.8875
2.6875 0.5625 0.95
2.75 0.5625 0.95
2.6875 0.625 0.95
2.75 0.5625 0.8875
2.8125 0.625 0.8875
2.8125 0.5625 0.8875
2.875 0.625 0.8875
2.8125 0.5625 0.95
2.875 0.5625 0.95
2.8125 0.625 0.95
2.875 0.5625 0.8875
2.9375 0.625 0.8875
2.9375 0.5625 0.8875
3 0.625 0.8875
2.9375 0.5625 0.95
3 0.5625 0.95
2.9375 0.625 0.95
3 0.5625 0.8875
3.0625 0.625 0.8875
3.0625 0.5625 0.8875
3.125 0.625 0.8875
3.0625 0.5625 0.95
3.125 0.5625 0.95
3.0625 0.625 0.95
3.125 0.5625 0.8875
3.1875 0.625 0.8875
3.1875 0.5625 0.8875
3.25 0.625 0.8875
3.1875 0.5625 0.95
3.25 0.5625 0.95
3.1875 0.625 0.95
3.25 0.5625 0.8875
3.3125 0.625 0.8875
3.3125 0.5625 0.8875
3.375 0.625 0.8875
3.3125 0.5625 0.95
3.375 0.5625 0.95
3.3125 0.625 0.95
3.375 0.5625 0.8875
3.4375 0.625 0.8875
3.4375 0.5625 0.8875
3.5 0.625 0.8875
3.4375 0.5625 0.95
3.5 0.5625 0.95
3.4375 0.625 0.95
3.5 0.5625 0.8875
3.5625 0.625 0.8875
3.5625 0.5625 0.8875
3.625 0.625 0.8875
3.5625 0.5625 0.95
3.625 0.5625 0.95
3.5625 0.625 0.95
3.625 0.5625 0.8875
3.6875 0.625 0.8875
3.6875 0.5625 0.8875
3.75 0.625 0.8875
3.6875 0.5625 0.95
3.75 0.5625 0.95
3.6875 0.625 0.95
3.75 0.5625 0.8875
3.8125 0.625 0.8875
3.8125 0.5625 0.8875
3.875 0.625 0.8875
3.8125 0.5625 0.95
3.875 0.5625 0.95
3.8125 0.625 0.95
3.875 0.5625 0.8875
3.9375 0.625 0.8875
3.9375 0.5625 0.8875
4 0.625 0.8875
3.9375 0.5625 0.95
4 0.5625 0.95
3.9375 0.625 0.95
4 0.5625 0.8875
0.0625 0.75 0.8875
0.0625 0.6875 0.8875
0.125 0.75 0.8875
0.0625 0.6875 0.95
0.125 0.6875 0.95
0 0.75 0.8875
0 0.6875 0.8875
0.0625 0.75 0.95
0 0.6875 0.95
0.125 0.6875 0.8875
0.1875 0.75 0.8875
0.1875 0.6875 0.8875
0.25 0.75 0.8875
0.1875 0.6875 0.95
0.25 0.6875 0.95
0.1875 0.75 0.95
0.25 0.6875 0.8875
0.3125 0.75 0.8875
0.3125 0.6875 0.8875
0.375 0.75 0.8875
0.3125 0.6875 0.95
0.375 0.6875 0.95
0.3125 0.75 0.95
0.375 0.6875 0.8875
0.4375 0.75 0.8875
0.4375 0.6875 0.8875
0.5 0.75 0.8875
0.4375 0.6875 0.95
0.5 0.6875 0.95
0.4375 0.75 0.95
0.5 0.6875 0.8875
0.5625 0.75 0.8875
0.5625 0.6875 0.8875
0.625 0.75 0.8875
0.5625 0.6875 0.95
0.625 0.6875 0.95
0.5625 0.75 0.95
0.625 0.6875 0.8875
0.6875 0.75 0.8875
0.6875 0.6875 0.8875
0.75 0.75 0.8875
0.6875 0.6875 0.95
0.75 0.6875 0.95
0.6875 0.75 0.95
0.75 0.6875 0.8875
0.8125 0.75 0.8875
0.8125 0.6875 0.8875
0.875 0.75 0.8875
0.8125 0.6875 0.95
0.875 0.6875 0.95
0.8125 0.75 0.95
0.875 0.6875 0.8875
0.9375 0.75 0.8875
0.9375 0.6875 0.8875
1 0.75 0.8875
0.9375 0.6875 0.95
1 0.6875 0.95
0.9375 0.75 0.95
1 0.6875 0.8875
1.0625 0.75 0.8875
1.0625 0.6875 0.8875
1.125 0.75 0.8875
1.0625 0.6875 0.95
1.125 0.6875 0.95
1.0625 0.75 0.95
1.125 0.6875 0.8875
1.1875 0.75 0.8875
1.1875 0.6875 0.8875
1.25 0.75 0.8875
1.1875 0.6875 0.95
1.25 0.6875 0.95
1.1875 0.75 0.95
1.25 0.6875 0.8875
1.3125 0.75 0.8875
1.3125 0.6875 0.8875
1.375 0.75 0.8875
1.3125 0.6875 0.95
1.375 0.6875 0.95
1.3125 0.75 0.95
1.375 0.6875 0.8875
1.4375 0.75 0.8875
1.4375 0.6875 0.8875
1.5 0.75 0.8875
1.4375 0.6875 0.95
1.5 0.6875 0.95
1.4375 0.75 0.95
1.5 0.6875 0.8875
1.5625 0.75 0.8875
1.5625 0.6875 0.8875
1.625 0.75 0.8875
1.5625 0.6875 0.95
1.625 0.6875 0.95
1.5625 0.75 0.95
1.625 0.6875 0.8875
1.6875 0.75 0.8875
1.6875 0.6875 0.8875
1.75 0.75 0.8875
1.6875 0.6875 0.95
1.75 0.6875 0.95
1.6875 0.75 0.95
1.75 0.6875 0.8875
1.8125 0.75 0.8875
1.8125 0.6875 0.8875
1.875 0.75 0.8875
1.8125 0.6875 0.95
1.875 0.6875 0.95
1.8125 0.75 0.95
1.875 0.6875 0.8875
1.9375 0.75 0.8875
1.9375 0.6875 0.8875
2 0.75 0.8875
1.9375 0.6875 0.95
2 0.6875 0.95
1.9375 0.75 0.95
2 0.6875 0.8875
2.0625 0.75 0.8875
2.0625 0.6875 0.8875
2.125 0.75 0.8875
2.0625 0.6875 0.95
2.125 0.6875 0.95
2.0625 0.75 0.95
2.125 0.6875 0.8875
2.1875 0.75 0.8875
2.1875 0.6875 0.8875
2.25 0.75 0.8875
2.1875 0.6875 0.95
2.25 0.6875 0.95
2.1875 0.75 0.95
2.25 0.6875 0.8875
2.3125 0.75 0.8875
2.3125 0.6875 0.8875
2.375 0.75 0.8875
2.3125 0.6875 0.95
2.375 0.6875 0.95
2.3125 0.75 0.95
2.375 0.6875 0.8875
2.4375 0.75 0.8875
2.4375 0.6875 0.8875
2.5 0.75 0.8875
2.4375 0.6875 0.95
2.5 0.6875 0.95
2.4375 0.75 0.95
2.5 0.6875 0.8875
2.5625 0.75 0.8875
2.5625 0.6875 0.8875
2.625 0.75 0.8875
2.5625 0.6875 0.95
2.625 0.6875 0.95
2.5625 0.75 0.95
2.625 0.6875 0.8875
2.6875 0.75 0.8875
2.6875 0.6875 0.8875
2.75 0.75 0.8875
2.6875 0.6875 0.95
2.75 0.6875 0.95
2.6875 0.75 0.95
2.75 0.6875 0.8875
2.8125 0.75 0.8875
2.8125 0.6875 0.8875
2.875 0.75 0.8875
2.8125 0.6875 0.95
2.875 0.6875 0.95
2.8125 0.75 0.95
2.875 0.6875 0.8875
2.9375 0.75 0.8875
2.9375 0.6875 0.8875
3 0.75 0.8875
2.9375 0.6875 0.95
3 0.6875 0.95
2.9375 0.75 0.95
3 0.6875 0.8875
3.0625 0.75 0.8875
3.0625 0.6875 0.8875
3.125 0.75 0.8875
3.0625 0.6875 0.95
3.125 0.6875 0.95
3.0625 0.75 0.95
3.125 0.6875 0.8875
3.1875 0.75 0.8875
3.1875 0.6875 0.8875
3.25 0.75 0.8875
3.1875 0.6875 0.95
3.25 0.6875 0.95
3.1875 0.75 0.95
3.25 0.6875 0.8875
3.3125 0.75 0.8875
3.3125 0.6875 0.8875
3.375 0.75 0.8875
3.3125 0.6875 0.95
3.375 0.6875 0.95
3.3125 0.75 0.95
3.375 0.6875 0.8875
3.4375 0.75 0.8875
3.4375 0.6875 0.8875
3.5 0.75 0.8875
3.4375 0.6875 0.95
3.5 0.6875 0.95
3.4375 0.75 0.95
3.5 0.6875 0.8875
3.5625 0.75 0.8875
3.5625 0.6875 0.8875
3.625 0.75 0.8875
3.5625 0.6875 0.95
3.625 0.6875 0.95
3.5625 0.75 0.95
3.625 0.6875 0.8875
3.6875 0.75 0.8875
3.6875 0.6875 0.8875
3.75 0.75 0.8875
3.6875 0.6875 0.95
3.75 0.6875 0.95
3.6875 0.75 0.95
3.75 0.6875 0.8875
3.8125 0.75 0.8875
3.8125 0.6875 0.8875
3.875 0.75 0.8875
3.8125 0.6875 0.95
3.875 0.6875 0.95
3.8125 0.75 0.95
3.875 0.6875 0.8875
3.9375 0.75 0.8875
3.9375 0.6875 0.8875
4 0.75 0.8875
3.9375 0.6875 0.95
4 0.6875 0.95
3.9375 0.75 0.95
4 0.6875 0.8875
0.0625 0.875 0.8875
0.0625 0.8125 0.8875
0.125 0.875 0.8875
0.0625 0.8125 0.95
0.125 0.8125 0.95
0 0.875 0.8875
0 0.8125 0.8875
0.0625 0.875 0.95
0 0.8125 0.95
0.125 0.8125 0.8875
0.1875 0.875 0.8875
0.1875 0.8125 0.8875
0.25 0.875 0.8875
0.1875 0.8125 0.95
0.25 0.8125 0.95
0.1875 0.875 0.95
0.25 0.8125 0.8875
0.3125 0.875 0.8875
0.3125 0.8125 0.8875
0.375 0.875 0.8875
0.3125 0.8125 0.95
0.375 0.8125 0.95
0.3125 0.875 0.95
0.375 0.8125 0.8875
0.4375 0.875 0.8875
0.4375 0.8125 0.8875
0.5 0.875 0.8875
0.4375 0.8125 0.95
0.5 0.8125 0.95
0.4375 0.875 0.95
0.5 0.8125 0.8875
0.5625 0.875 0.8875
0.5625 0.8125 0.8875
0.625 0.875 0.8875
0.5625 0.8125 0.95
0.625 0.8125 0.95
0.5625 0.875 0.95
0.625 0.8125 0.8875
0.6875 0.875 0.8875
0.6875 0.8125 0.8875
0.75 0.875 0.8875
0.6875 0.8125 0.95
0.75 0.8125 0.95
0.6875 0.875 0.95
0.75 0.8125 0.8875
0.8125 0.875 0.8875
0.8125 0.8125 0.8875
0.875 0.875 0.8875
0.8125 0.8125 0.95
0.875 0.8125 0.95
0.8125 0.875 0.95
0.875 0.8125 0.8875
0.9375 0.875 0.8875
0.9375 0.8125 0.8875
1 0.875 0.8875
0.9375 0.8125 0.95
1 0.8125 0.95
0.9375 0.875 0.95
1 0.8125 0.8875
1.0625 0.875 0.8875
1.0625 0.8125 0.8875
1.125 0.875 0.8875
1.0625 0.8125 0.95
1.125 0.8125 0.95
1.0625 0.875 0.95
1.125 0.8125 0.8875
1.1875 0.875 0.8875
1.1875 0.8125 0.8875
1.25 0.875 0.8875
1.1875 0.8125 0.95
1.25 0.8125 0.95
1.1875 0.875 0.95
1.25 0.8125 0.8875
1.3125 0.875 0.8875
1.3125 0.8125 0.8875
1.375 0.875 0.8875
1.3125 0.8125 0.95
1.375 0.8125 0.95
1.3125 0.875 0.95
1.375 0.8125 0.8875
1.4375 0.875 0.8875
1.4375 0.8125 0.8875
1.5 0.875 0.8875
1.4375 0.8125 0.95
1.5 0.8125 0.95
1.4375 0.875 0.95
1.5 0.8125 0.8875
1.5625 0.875 0.8875
1.5625 0.8125 0.8875
1.625 0.875 0.8875
1.5625 0.8125 0.95
1.625 0.8125 0.95
1.5625 0.875 0.95
1.625 0.8125 0.8875
1.6875 0.875 0.8875
1.6875 0.8125 0.8875
1.75 0.875 0.8875
1.6875 0.8125 0.95
1.75 0.8125 0.95
1.6875 0.875 0.95
1.75 0.8125 0.8875
1.8125 0.875 0.8875
1.8125 0.8125 0.8875
1.875 0.875 0.8875
1.8125 0.8125 0.95
1.875 0.8125 0.95
1.8125 0.875 0.95
1.875 0.8125 0.8875
1.9375 0.875 0.8875
1.9375 0.8125 0.8875
2 0.875 0.8875
1.9375 0.8125 0.95
2 0.8125 0.95
1.9375 0.875 0.95
2 0.8125 0.8875
2.0625 0.875 0.8875
2.0625 0.8125 0.8875
2.125 0.875 0.8875
2.0625 0.8125 0.95
2.125 0.8125 0.95
2.0625 0.875 0.95
2.125 0.8125 0.8875
2.1875 0.875 0.8875
2.1875 0.8125 0.8875
2.25 0.875 0.8875
2.1875 0.8125 0.95
2.25 0.8125 0.95
2.1875 0.875 0.95
2.25 0.8125 0.8875
2.3125 0.875 0.8875
2.3125 0.8125 0.8875
2.375 0.875 0.8875
2.3125 0.8125 0.95
2.375 0.8125 0.95
2.3125 0.875 0.95
2.375 0.8125 0.8875
2.4375 0.875 0.8875
2.4375 0.8125 0.8875
2.5 0.875 0.8875
2.4375 0.8125 0.95
2.5 0.8125 0.95
2.4375 0.875 0.95
2.5 0.8125 0.8875
2.5625 0.875 0.8875
2.5625 0.8125 0.8875
2.625 0.875 0.8875
2.5625 0.8125 0.95
2.625 0.8125 0.95
2.5625 0.875 0.95
2.625 0.8125 0.8875
2.6875 0.875 0.8875
2.6875 0.8125 0.8875
2.75 0.875 0.8875
2.6875 0.8125 0.95
2.75 0.8125 0.95
2.6875 0.875 0.95
2.75 0.8125 0.8875
2.8125 0.875 0.8875
2.8125 0.8125 0.8875
2.875 0.875 0.8875
2.8125 0.8125 0.95
2.875 0.8125 0.95
2.8125 0.875 0.95
2.875 0.8125 0.8875
2.9375 0.875 0.8875
2.9375 0.8125 0.8875
3 0.875 0.8875
2.9375 0.8125 0.95
3 0.8125 0.95
2.9375 0.875 0.95
3 0.8125 0.8875
3.0625 0.875 0.8875
3.0625 0.8125 0.8875
3.125 0.875 0.8875
3.0625 0.8125 0.95
3.125 0.8125 0.95
3.0625 0.875 0.95
3.125 0.8125 0.8875
3.1875 0.875 0.8875
3.1875 0.8125 0.8875
3.25 0.875 0.8875
3.1875 0.8125 0.95
3.25 0.8125 0.95
3.1875 0.875 0.95
3.25 0.8125 0.8875
3.3125 0.875 0.8875
3.3125 0.8125 0.8875
3.375 0.875 0.8875
3.3125 0.8125 0.95
3.375 0.8125 0.95
3.3125 0.875 0.95
3.375 0.8125 0.8875
3.4375 0.875 0.8875
3.4375 0.8125 0.8875
3.5 0.875 0.8875
3.4375 0.8125 0.95
3.5 0.8125 0.95
3.4375 0.875 0.95
3.5 0.8125 0.8875
3.5625 0.875 0.8875
3.5625 0.8125 0.8875
3.625 0.875 0.8875
3.5625 0.8125 0.95
3.625 0.8125 0.95
3.5625 0.875 0.95
3.625 0.8125 0.8875
3.6875 0.875 0.8875
3.6875 0.8125 0.8875
3.75 0.875 0.8875
3.6875 0.8125 0.95
3.75 0.8125 0.95
3.6875 0.875 0.95
3.75 0.8125 0.8875
3.8125 0.875 0.8875
3.8125 0.8125 0.8875
3.875 0.875 0.8875
3.8125 0.8125 0.95
3.875 0.8125 0.95
3.8125 0.875 0.95
3.875 0.8125 0.8875
3.9375 0.875 0.8875
3.9375 0.8125 0.8875
4 0.875 0.8875
3.9375 0.8125 0.95
4 0.8125 0.95
3.9375 0.875 0.95
4 0.8125 0.8875
0.0625 1 0.8875
0.0625 0.9375 0.8875
0.125 1 0.8875
0.0625 0.9375 0.95
0.125 0.9375 0.95
0 1 0.8875
0 0.9375 0.8875
0.0625 1 0.95
0 0.9375 0.95
0.125 0.9375 0.8875
0.1875 1 0.8875
0.1875 0.9375 0.8875
0.25 1 0.8875
0.1875 0.9375 0.95
0.25 0.9375 0.95
0.1875 1 0.95
0.25 0.9375 0.8875
0.3125 1 0.8875
0.3125 0.9375 0.8875
0.375 1 0.8875
0.3125 0.9375 0.95
0.375 0.9375 0.95
0.3125 1 0.95
0.375 0.9375 0.8875
0.4375 1 0.8875
0.4375 0.9375 0.8875
0.5 1 0.8875
0.4375 0.9375 0.95
0.5 0.9375 0.95
0.4375 1 0.95
0.5 0.9375 0.8875
0.5625 1 0.8875
0.5625 0.9375 0.8875
0.625 1 0.8875
0.5625 0.9375 0.95
0.625 0.9375 0.95
0.5625 1 0.95
0.625 0.9375 0.8875
0.6875 1 0.8875
0.6875 0.9375 0.8875
0.75 1 0.8875
0.6875 0.9375 0.95
0.75 0.9375 0.95
0.6875 1 0.95
0.75 0.9375 0.8875
0.8125 1 0.8875
0.8125 0.9375 0.8875
0.875 1 0.8875
0.8125 0.9375 0.95
0.875 0.9375 0.95
0.8125 1 0.95
0.875 0.9375 0.8875
0.9375 1 0.8875
0.9375 0.9375 0.8875
1 1 0.8875
0.9375 0.9375 0.95
1 0.9375 0.95
0.9375 1 0.95
1 0.9375 0.8875
1.0625 1 0.8875
1.0625 0.9375 0.8875
1.125 1 0.8875
1.0625 0.9375 0.95
1.125 0.9375 0.95
1.0625 1 0.95
1.125 0.9375 0.8875
1.1875 1 0.8875
1.1875 0.9375 0.8875
1.25 1 0.8875
1.1875 0.9375 0.95
1.25 0.9375 0.95
1.1875 1 0.95
1.25 0.9375 0.8875
1.3125 1 0.8875
1.3125 0.9375 0.8875
1.375 1 0.8875
1.3125 0.9375 0.95
1.375 0.9375 0.95
1.3125 1 0.95
1.375 0.9375 0.8875
1.4375 1 0.8875
1.4375 0.9375 0.8875
1.5 1 0.8875
1.4375 0.9375 0.95
1.5 0.9375 0.95
1.4375 1 0.95
1.5 0.9375 0.8875
1.5625 1 0.8875
1.5625 0.9375 0.8875
1.625 1 0.8875
1.5625 0.9375 0.95
1.625 0.9375 0.95
1.5625 1 0.95
1.625 0.9375 0.8875
1.6875 1 0.8875
1.6875 0.9375 0.8875
1.75 1 0.8875
1.6875 0.9375 0.95
1.75 0.9375 0.95
1.6875 1 0.95
1.75 0.9375 0.8875
1.8125 1 0.8875
1.8125 0.9375 0.8875
1.875 1 0.8875
1.8125 0.9375 0.95
1.875 0.9375 0.95
1.8125 1 0.95
1.875 0.9375 0.8875
1.9375 1 0.8875
1.9375 0.9375 0.8875
2 1 0.8875
1.9375 0.9375 0.95
2 0.9375 0.95
1.9375 1 0.95
2 0.9375 0.8875
2.0625 1 0.8875
2.0625 0.9375 0.8875
2.125 1 0.8875
2.0625 0.9375 0.95
2.125 0.9375 0.95
2.0625 1 0.95
2.125 0.9375 0.8875
2.1875 1 0.8875
2.1875 0.9375 0.8875
2.25 1 0.8875
2.1875 0.9375 0.95
2.25 0.9375 0.95
2.1875 1 0.95
2.25 0.9375 0.8875
2.3125 1 0.8875
2.3125 0.9375 0.8875
2.375 1 0.8875
2.3125 0.9375 0.95
2.375 0.9375 0.95
2.3125 1 0.95
2.375 0.9375 0.8875
2.4375 1 0.8875
2.4375 0.9375 0.8875
2.5 1 0.8875
2.4375 0.9375 0.95
2.5 0.9375 0.95
2.4375 1 0.95
2.5 0.9375 0.8875
2.5625 1 0.8875
2.5625 0.9375 0.8875
2.625 1 0.8875
2.5625 0.9375 0.95
2.625 0.9375 0.95
2.5625 1 0.95
2.625 0.9375 0.8875
2.6875 1 0.8875
2.6875 0.9375 0.8875
2.75 1 0.8875
2.6875 0.9375 0.95
2.75 0.9375 0.95
2.6875 1 0.95
2.75 0.9375 0.8875
2.8125 1 0.8875
2.8125 0.9375 0.8875
2.875 1 0.8875
2.8125 0.9375 0.95
2.875 0.9375 0.95
2.8125 1 0.95
2.875 0.9375 0.8875
2.9375 1 0.8875
2.9375 0.9375 0.8875
3 1 0.8875
2.9375 0.9375 0.95
3 0.9375 0.95
2.9375 1 0.95
3 0.9375 0.8875
3.0625 1 0.8875
3.0625 0.9375 0.8875
3.125 1 0.8875
3.0625 0.9375 0.95
3.125 0.9375 0.95
3.0625 1 0.95
3.125 0.9375 0.8875
3.1875 1 0.8875
3.1875 0.9375 0.8875
3.25 1 0.8875
3.1875 0.9375 0.95
3.25 0.9375 0.95
3.1875 1 0.95
3.25 0.9375 0.8875
3.3125 1 0.8875
3.3125 0.9375 0.8875
3.375 1 0.8875
3.3125 0.9375 0.95
3.375 0.9375 0.95
3.3125 1 0.95
3.375 0.9375 0.8875
3.4375 1 0.8875
3.4375 0.9375 0.8875
3.5 1 0.8875
3.4375 0.9375 0.95
3.5 0.9375 0.95
3.4375 1 0.95
3.5 0.9375 0.8875
3.5625 1 0.8875
3.5625 0.9375 0.8875
3.625 1 0.8875
3.5625 0.9375 0.95
3.625 0.9375 0.95
3.5625 1 0.95
3.625 0.9375 0.8875
3.6875 1 0.8875
3.6875 0.9375 0.8875
3.75 1 0.8875
3.6875 0.9375 0.95
3.75 0.9375 0.95
3.6875 1 0.95
3.75 0.9375 0.8875
3.8125 1 0.8875
3.8125 0.9375 0.8875
3.875 1 0.8875
3.8125 0.9375 0.95
3.875 0.9375 0.95
3.8125 1 0.95
3.875 0.9375 0.8875
3.9375 1 0.8875
3.9375 0.9375 0.8875
4 1 0.8875
3.9375 0.9375 0.95
4 0.9375 0.95
3.9375 1 0.95
4 0.9375 0.8875
0.0625 0.125 1.0125
0.0625 0.0625 1.0125
0.125 0.125 1.0125
0.0625 0.0625 1.075
0.125 0.0625 1.075
0.0625 0 1.075
0 0 1.0125
0.0625 0 1.0125
0 0.125 1.0125
0 0.0625 1.0125
0.0625 0.125 1.075
0 0.0625 1.075
0.125 0 1.0125
0.125 0.0625 1.0125
0.1875 0.125 1.0125
0.1875 0.0625 1.0125
0.25 0.125 1.0125
0.1875 0.0625 1.075
0.25 0.0625 1.075
0.1875 0 1.075
0.1875 0 1.0125
0.1875 0.125 1.075
0.25 0 1.0125
0.25 0.0625 1.0125
0.3125 0.125 1.0125
0.3125 0.0625 1.0125
0.375 0.125 1.0125
0.3125 0.0625 1.075
0.375 0.0625 1.075
0.3125 0 1.075
0.3125 0 1.0125
0.3125 0.125 1.075
0.375 0 1.0125
0.375 0.0625 1.0125
0.4375 0.125 1.0125
0.4375 0.0625 1.0125
0.5 0.125 1.0125
0.4375 0.0625 1.075
0.5 0.0625 1.075
0.4375 0 1.075
0.4375 0 1.0125
0.4375 0.125 1.075
0.5 0 1.0125
0.5 0.0625 1.0125
0.5625 0.125 1.0125
0.5625 0.0625 1.0125
0.625 0.125 1.0125
0.5625 0.0625 1.075
0.625 0.0625 1.075
0.5625 0 1.075
0.5625 0 1.0125
0.5625 0.125 1.075
0.625 0 1.0125
0.625 0.0625 1.0125
0.6875 0.125 1.0125
0.6875 0.0625 1.0125
0.75 0.125 1.0125
0.6875 0.0625 1.075
0.75 0.0625 1.075
0.6875 0 1.075
0.6875 0 1.0125
0.6875 0.125 1.075
0.75 0 1.0125
0.75 0.0625 1.0125
0.8125 0.125 1.0125
0.8125 0.0625 1.0125
0.875 0.125 1.0125
0.8125 0.0625 1.075
0.875 0.0625 1.075
0.8125 0 1.075
0.8125 0 1.0125
0.8125 0.125 1.075
0.875 0 1.0125
0.875 0.0625 1.0125
0.9375 0.125 1.0125
0.9375 0.0625 1.0125
1 0.125 1.0125
0.9375 0.0625 1.075
1 0.0625 1.075
0.9375 0 1.075
0.9375 0 1.0125
0.9375 0.125 1.075
1 0 1.0125
1 0.0625 1.0125
1.0625 0.125 1.0125
1.0625 0.0625 1.0125
1.125 0.125 1.0125
1.0625 0.0625 1.075
1.125 0.0625 1.075
1.0625 0 1.075
1.0625 0 1.0125
1.0625 0.125 1.075
1.125 0 1.0125
1.125 0.0625 1.0125
1.1875 0.125 1.0125
1.1875 0.0625 1.0125
1.25 0.125 1.0125
1.1875 0.0625 1.075
1.25 0.0625 1.075
1.1875 0 1.075
1.1875 0 1.0125
1.1875 0.125 1.075
1.25 0 1.0125
1.25 0.0625 1.0125
1.3125 0.125 1.0125
1.3125 0.0625 1.0125
1.375 0.125 1.0125
1.3125 0.0625 1.075
1.375 0.0625 1.075
1.3125 0 1.075
1.3125 0 1.0125
1.3125 0.125 1.075
1.375 0 1.0125
1.375 0.0625 1.0125
1.4375 0.125 1.0125
1.4375 0.0625 1.0125
1.5 0.125 1.0125
1.4375 0.0625 1.075
1.5 0.0625 1.075
1.4375 0 1.075
1.4375 0 1.0125
1.4375 0.125 1.075
1.5 0 1.0125
1.5 0.0625 1.0125
1.5625 0.125 1.0125
1.5625 0.0625 1.0125
1.625 0.125 1.0125
1.5625 0.0625 1.075
1.625 0.0625 1.075
1.5625 0 1.075
1.5625 0 1.0125
1.5625 0.125 1.075
1.625 0 1.0125
1.625 0.0625 1.0125
1.6875 0.125 1.0125
1.6875 0.0625 1.0125
1.75 0.125 1.0125
1.6875 0.0625 1.075
1.75 0.0625 1.075
1.6875 0 1.075
1.6875 0 1.0125
1.6875 0.125 1.075
1.75 0 1.0125
1.75 0.0625 1.0125
1.8125 0.125 1.0125
1.8125 0.0625 1.0125
1.875 0.125 1.0125
1.8125 0.0625 1.075
1.875 0.0625 1.075
1.8125 0 1.075
1.8125 0 1.0125
1.8125 0.125 1.075
1.875 0 1.0125
1.875 0.0625 1.0125
1.9375 0.125 1.0125
1.9375 0.0625 1.0125
2 0.125 1.0125
1.9375 0.0625 1.075
2 0.0625 1.075
1.9375 0 1.075
1.9375 0 1.0125
1.9375 0.125 1.075
2 0 1.0125
2 0.0625 1.0125
2.0625 0.125 1.0125
2.0625 0.0625 1.0125
2.125 0.125 1.0125
2.0625 0.0625 1.075
2.125 0.0625 1.075
2.0625 0 1.075
2.0625 0 1.0125
2.0625 0.125 1.075
2.125 0 1.0125
2.125 0.0625 1.0125
2.1875 0.125 1.0125
2.1875 0.0625 1.0125
2.25 0.125 1.0125
2.1875 0.0625 1.075
2.25 0.0625 1.075
2.1875 0 1.075
2.1875 0 1.0125
2.1875 0.125 1.075
2.25 0 1.0125
2.25 0.0625 1.0125
2.3125 0.125 1.0125
2.3125 0.0625 1.0125
2.375 0.125 1.0125
2.3125 0.0625 1.075
2.375 0.0625 1.075
2.3125 0 1.075
2.3125 0 1.0125
2.3125 0.125 1.075
2.375 0 1.0125
2.375 0.0625 1.0125
2.4375 0.125 1.0125
2.4375 0.0625 1.0125
2.5 0.125 1.0125
2.4375 0.0625 1.075
2.5 0.0625 1.075
2.4375 0 1.075
2.4375 0 1.0125
2.4375 0.125 1.075
2.5 0 1.0125
2.5 0.0625 1.0125
2.5625 0.125 1.0125
2.5625 0.0625 1.0125
2.625 0.125 1.0125
2.5625 0.0625 1.075
2.625 0.0625 1.075
2.5625 0 1.075
2.5625 0 1.0125
2.5625 0.125 1.075
2.625 0 1.0125
2.625 0.0625 1.0125
2.6875 0.125 1.0125
2.6875 0.0625 1.0125
2.75 0.125 1.0125
2.6875 0.0625 1.075
2.75 0.0625 1.075
2.6875 0 1.075
2.6875 0 1.0125
2.6875 0.125 1.075
2.75 0 1.0125
2.75 0.0625 1.0125
2.8125 0.125 1.0125
2.8125 0.0625 1.0125
2.875 0.125 1.0125
2.8125 0.0625 1.075
2.875 0.0625 1.075
2.8125 0 1.075
2.8125 0 1.0125
2.8125 0.125 1.075
2.875 0 1.0125
2.875 0.0625 1.0125
2.9375 0.125 1.0125
2.9375 0.0625 1.0125
3 0.125 1.0125
2.9375 0.0625 1.075
3 0.0625 1.075
2.9375 0 1.075
2.9375 0 1.0125
2.9375 0.125 1.075
3 0 1.0125
3 0.0625 1.0125
3.0625 0.125 1.0125
3.0625 0.0625 1.0125
3.125 0.125 1.0125
3.0625 0.0625 1.075
3.125 0.0625 1.075
3.0625 0 1.075
3.0625 0 1.0125
3.0625 0.125 1.075
3.125 0 1.0125
3.125 0.0625 1.0125
3.1875 0.125 1.0125
3.1875 0.0625 1.0125
3.25 0.125 1.0125
3.1875 0.0625 1.075
3.25 0.0625 1.075
3.1875 0 1.075
3.1875 0 1.0125
3.1875 0.125 1.075
3.25 0 1.0125
3.25 0.0625 1.0125
3.3125 0.125 1.0125
3.3125 0.0625 1.0125
3.375 0.125 1.0125
3.3125 0.0625 1.075
3.375 0.0625 1.075
3.3125 0 1.075
3.3125 0 1.0125
3.3125 0.125 1.075
3.375 0 1.0125
3.375 0.0625 1.0125
3.4375 0.125 1.0125
3.4375 0.0625 1.0125
3.5 0.125 1.0125
3.4375 0.0625 1.075
3.5 0.0625 1.075
3.4375 0 1.075
3.4375 0 1.0125
3.4375 0.125 1.075
3.5 0 1.0125
3.5 0.0625 1.0125
3.5625 0.125 1.0125
3.5625 0.0625 1.0125
3.625 0.125 1.0125
3.5625 0.0625 1.075
3.625 0.0625 1.075
3.5625 0 1.075
3.5625 0 1.0125
3.5625 0.125 1.075
3.625 0 1.0125
3.625 0.0625 1.0125
3.6875 0.125 1.0125
3.6875 0.0625 1.0125
3.75 0.125 1.0125
3.6875 0.0625 1.075
3.75 0.0625 1.075
3.6875 0 1.075
3.6875 0 1.0125
3.6875 0.125 1.075
3.75 0 1.0125
3.75 0.0625 1.0125
3.8125 0.125 1.0125
3.8125 0.0625 1.0125
3.875 0.125 1.0125
3.8125 0.0625 1.075
3.875 0.0625 1.075
3.8125 0 1.075
3.8125 0 1.0125
3.8125 0.125 1.075
3.875 0 1.0125
3.875 0.0625 1.0125
3.9375 0.125 1.0125
3.9375 0.0625 1.0125
4 0.125 1.0125
3.9375 0.0625 1.075
4 0.0625 1.075
3.9375 0 1.075
3.9375 0 1.0125
3.9375 0.125 1.075
4 0 1.0125
4 0.0625 1.0125
0.0625 0.25 1.0125
0.0625 0.1875 1.0125
0.125 0.25 1.0125
0.0625 0.1875 1.075
0.125 0.1875 1.075
0 0.25 1.0125
0 0.1875 1.0125
0.0625 0.25 1.075
0 0.1875 1.075
0.125 0.1875 1.0125
0.1875 0.25 1.0125
0.1875 0.1875 1.0125
0.25 0.25 1.0125
0.1875 0.1875 1.075
0.25 0.1875 1.075
0.1875 0.25 1.075
0.25 0.1875 1.0125
0.3125 0.25 1.0125
0.3125 0.1875 1.0125
0.375 0.25 1.0125
0.3125 0.1875 1.075
0.375 0.1875 1.075
0.3125 0.25 1.075
0.375 0.1875 1.0125
0.4375 0.25 1.0125
0.4375 0.1875 1.0125
0.5 0.25 1.0125
0.4375 0.1875 1.075
0.5 0.1875 1.075
0.4375 0.25 1.075
0.5 0.1875 1.0125
0.5625 0.25 1.0125
0.5625 0.1875 1.0125
0.625 0.25 1.0125
0.5625 0.1875 1.075
0.625 0.1875 1.075
0.5625 0.25 1.075
0.625 0.1875 1.0125
0.6875 0.25 1.0125
0.6875 0.1875 1.0125
0.75 0.25 1.0125
0.6875 0.1875 1.075
0.75 0.1875 1.075
0.6875 0.25 1.075
0.75 0.1875 1.0125
0.8125 0.25 1.0125
0.8125 0.1875 1.0125
0.875 0.25 1.0125
0.8125 0.1875 1.075
0.875 0.1875 1.075
0.8125 0.25 1.075
0.875 0.1875 1.0125
0.9375 0.25 1.0125
0.9375 0.1875 1.0125
1 0.25 1.0125
0.9375 0.1875 1.075
1 0.1875 1.075
0.9375 0.25 1.075
1 0.1875 1.0125
1.0625 0.25 1.0125
1.0625 0.1875 1.0125
1.125 0.25 1.0125
1.0625 0.1875 1.075
1.125 0.1875 1.075
1.0625 0.25 1.075
1.125 0.1875 1.0125
1.1875 0.25 1.0125
1.1875 0.1875 1.0125
1.25 0.25 1.0125
1.1875 0.1875 1.075
1.25 0.1875 1.075
1.1875 0.25 1.075
1.25 0.1875 1.0125
1.3125 0.25 1.0125
1.3125 0.1875 1.0125
1.375 0.25 1.0125
1.3125 0.1875 1.075
1.375 0.1875 1.075
1.3125 0.25 1.075
1.375 0.1875 1.0125
1.4375 0.25 1.0125
1.4375 0.1875 1.0125
1.5 0.25 1.0125
1.4375 0.1875 1.075
1.5 0.1875 1.075
1.4375 0.25 1.075
1.5 0.1875 1.0125
1.5625 0.25 1.0125
1.5625 0.1875 1.0125
1.625 0.25 1.0125
1.5625 0.1875 1.075
1.625 0.1875 1.075
1.5625 0.25 1.075
1.625 0.1875 1.0125
1.6875 0.25 1.0125
1.6875 0.1875 1.0125
1.75 0.25 1.0125
1.6875 0.1875 1.075
1.75 0.1875 1.075
1.6875 0.25 1.075
1.75 0.1875 1.0125
1.8125 0.25 1.0125
1.8125 0.1875 1.0125
1.875 0.25 1.0125
1.8125 0.1875 1.075
1.875 0.1875 1.075
1.8125 0.25 1.075
1.875 0.1875 1.0125
1.9375 0.25 1.0125
1.9375 0.1875 1.0125
2 0.25 1.0125
1.9375 0.1875 1.075
2 0.1875 1.075
1.9375 0.25 1.075
2 0.1875 1.0125
2.0625 0.25 1.0125
2.0625 0.1875 1.0125
2.125 0.25 1.0125
2.0625 0.1875 1.075
2.125 0.1875 1.075
2.0625 0.25 1.075
2.125 0.1875 1.0125
2.1875 0.25 1.0125
2.1875 0.1875 1.0125
2.25 0.25 1.0125
2.1875 0.1875 1.075
2.25 0.1875 1.075
2.1875 0.25 1.075
2.25 0.1875 1.0125
2.3125 0.25 1.0125
2.3125 0.1875 1.0125
2.375 0.25 1.0125
2.3125 0.1875 1.075
2.375 0.1875 1.075
2.3125 0.25 1.075
2.375 0.1875 1.0125
2.4375 0.25 1.0125
2.4375 0.1875 1.0125
2.5 0.25 1.0125
2.4375 0.1875 1.075
2.5 0.1875 1.075
2.4375 0.25 1.075
2.5 0.1875 1.0125
2.5625 0.25 1.0125
2.5625 0.1875 1.0125
2.625 0.25 1.0125
2.5625 0.1875 1.075
2.625 0.1875 1.075
2.5625 0.25 1.075
2.625 0.1875 1.0125
2.6875 0.25 1.0125
2.6875 0.1875 1.0125
2.75 0.25 1.0125
2.6875 0.1875 1.075
2.75 0.1875 1.075
2.6875 0.25 1.075
2.75 0.1875 1.0125
2.8125 0.25 1.0125
2.8125 0.1875 1.0125
2.875 0.25 1.0125
2.8125 0.1875 1.075
2.875 0.1875 1.075
2.8125 0.25 1.075
2.875 0.1875 1.0125
2.9375 0.25 1.0125
2.9375 0.1875 1.0125
3 0.25 1.0125
2.9375 0.1875 1.075
3 0.1875 1.075
2.9375 0.25 1.075
3 0.1875 1.0125
3.0625 0.25 1.0125
3.0625 0.1875 1.0125
3.125 0.25 1.0125
3.0625 0.1875 1.075
3.125 0.1875 1.075
3.0625 0.25 1.075
3.125 0.1875 1.0125
3.1875 0.25 1.0125
3.1875 0.1875 1.0125
3.25 0.25 1.0125
3.1875 0.1875 1.075
3.25 0.1875 1.075
3.1875 0.25 1.075
3.25 0.1875 1.0125
3.3125 0.25 1.0125
3.3125 0.1875 1.0125
3.375 0.25 1.0125
3.3125 0.1875 1.075
3.375 0.1875 1.075
3.3125 0.25 1.075
3.375 0.1875 1.0125
3.4375 0.25 1.0125
3.4375 0.1875 1.0125
3.5 0.25 1.0125
3.4375 0.1875 1.075
3.5 0.1875 1.075
3.4375 0.25 1.075
3.5 0.1875 1.0125
3.5625 0.25 1.0125
3.5625 0.1875 1.0125
3.625 0.25 1.0125
3.5625 0.1875 1.075
3.625 0.1875 1.075
3.5625 0.25 1.075
3.625 0.1875 1.0125
3.6875 0.25 1.0125
3.6875 0.1875 1.0125
3.75 0.25 1.0125
3.6875 0.1875 1.075
3.75 0.1875 1.075
3.6875 0.25 1.075
3.75 0.1875 1.0125
3.8125 0.25 1.0125
3.8125 0.1875 1.0125
3.875 0.25 1.0125
3.8125 0.1875 1.075
3.875 0.1875 1.075
3.8125 0.25 1.075
3.875 0.1875 1.0125
3.9375 0.25 1.0125
3.9375 0.1875 1.0125
4 0.25 1.0125
3.9375 0.1875 1.075
4 0.1875 1.075
3.9375 0.25 1.075
4 0.1875 1.0125
0.0625 0.375 1.0125
0.0625 0.3125 1.0125
0.125 0.375 1.0125
0.0625 0.3125 1.075
0.125 0.3125 1.075
0 0.375 1.0125
0 0.3125 1.0125
0.0625 0.375 1.075
0 0.3125 1.075
0.125 0.3125 1.0125
0.1875 0.375 1.0125
0.1875 0.3125 1.0125
0.25 0.375 1.0125
0.1875 0.3125 1.075
0.25 0.3125 1.075
0.1875 0.375 1.075
0.25 0.3125 1.0125
0.3125 0.375 1.0125
0.3125 0.3125 1.0125
0.375 0.375 1.0125
0.3125 0.3125 1.075
0.375 0.3125 1.075
0.3125 0.375 1.075
0.375 0.3125 1.0125
0.4375 0.375 1.0125
0.4375 0.3125 1.0125
0.5 0.375 1.0125
0.4375 0.3125 1.075
0.5 0.3125 1.075
0.4375 0.375 1.075
0.5 0.3125 1.0125
0.5625 0.375 1.0125
0.5625 0.3125 1.0125
0.625 0.375 1.0125
0.5625 0.3125 1.075
0.625 0.3125 1.075
0.5625 0.375 1.075
0.625 0.3125 1.0125
0.6875 0.375 1.0125
0.6875 0.3125 1.0125
0.75 0.375 1.0125
0.6875 0.3125 1.075
0.75 0.3125 1.075
0.6875 0.375 1.075
0.75 0.3125 1.0125
0.8125 0.375 1.0125
0.8125 0.3125 1.0125
0.875 0.375 1.0125
0.8125 0.3125 1.075
0.875 0.3125 1.075
0.8125 0.375 1.075
0.875 0.3125 1.0125
0.9375 0.375 1.0125
0.9375 0.3125 1.0125
1 0.375 1.0125
0.9375 0.3125 1.075
1 0.3125 1.075
0.9375 0.375 1.075
1 0.3125 1.0125
1.0625 0.375 1.0125
1.0625 0.3125 1.0125
1.125 0.375 1.0125
1.0625 0.3125 1.075
1.125 0.3125 1.075
1.0625 0.375 1.075
1.125 0.3125 1.0125
1.1875 0.375 1.0125
1.1875 0.3125 1.0125
1.25 0.375 1.0125
1.1875 0.3125 1.075
1.25 0.3125 1.075
1.1875 0.375 1.075
1.25 0.3125 1.0125
1.3125 0.375 1.0125
1.3125 0.3125 1.0125
1.375 0.375 1.0125
1.3125 0.3125 1.075
1.375 0.3125 1.075
1.3125 0.375 1.075
1.375 0.3125 1.0125
1.4375 0.375 1.0125
1.4375 0.3125 1.0125
1.5 0.375 1.0125
1.4375 0.3125 1.075
1.5 0.3125 1.075
1.4375 0.375 1.075
1.5 0.3125 1.0125
1.5625 0.375 1.0125
1.5625 0.3125 1.0125
1.625 0.375 1.0125
1.5625 0.3125 1.075
1.625 0.3125 1.075
1.5625 0.375 1.075
1.625 0.3125 1.0125
1.6875 0.375 1.0125
1.6875 0.3125 1.0125
1.75 0.375 1.0125
1.6875 0.3125 1.075
1.75 0.3125 1.075
1.6875 0.375 1.075
1.75 0.3125 1.0125
1.8125 0.375 1.0125
1.8125 0.3125 1.0125
1.875 0.375 1.0125
1.8125 0.3125 1.075
1.875 0.3125 1.075
1.8125 0.375 1.075
1.875 0.3125 1.0125
1.9375 0.375 1.0125
1.9375 0.3125 1.0125
2 0.375 1.0125
1.9375 0.3125 1.075
2 0.3125 1.075
1.9375 0.375 1.075
2 0.3125 1.0125
2.0625 0.375 1.0125
2.0625 0.3125 1.0125
2.125 0.375 1.0125
2.0625 0.3125 1.075
2.125 0.3125 1.075
2.0625 0.375 1.075
2.125 0.3125 1.0125
2.1875 0.375 1.0125
2.1875 0.3125 1.0125
2.25 0.375 1.0125
2.1875 0.3125 1.075
2.25 0.3125 1.075
2.1875 0.375 1.075
2.25 0.3125 1.0125
2.3125 0.375 1.0125
2.3125 0.3125 1.0125
2.375 0.375 1.0125
2.3125 0.3125 1.075
2.375 0.3125 1.075
2.3125 0.375 1.075
2.375 0.3125 1.0125
2.4375 0.375 1.0125
2.4375 0.3125 1.0125
2.5 0.375 1.0125
2.4375 0.3125 1.075
2.5 0.3125 1.075
2.4375 0.375 1.075
2.5 0.3125 1.0125
2.5625 0.375 1.0125
2.5625 0.3125 1.0125
2.625 0.375 1.0125
2.5625 0.3125 1.075
2.625 0.3125 1.075
2.5625 0.375 1.075
2.625 0.3125 1.0125
2.6875 0.375 1.0125
2.6875 0.3125 1.0125
2.75 0.375 1.0125
2.6875 0.3125 1.075
2.75 0.3125 1.075
2.6875 0.375 1.075
2.75 0.3125 1.0125
2.8125 0.375 1.0125
2.8125 0.3125 1.0125
2.875 0.375 1.0125
2.8125 0.3125 1.075
2.875 0.3125 1.075
2.8125 0.375 1.075
2.875 0.3125 1.0125
2.9375 0.375 1.0125
2.9375 0.3125 1.0125
3 0.375 1.0125
2.9375 0.3125 1.075
3 0.3125 1.075
2.9375 0.375 1.075
3 0.3125 1.0125
3.0625 0.375 1.0125
3.0625 0.3125 1.0125
3.125 0.375 1.0125
3.0625 0.3125 1.075
3.125 0.3125 1.075
3.0625 0.375 1.075
3.125 0.3125 1.0125
3.1875 0.375 1.0125
3.1875 0.3125 1.0125
3.25 0.375 1.0125
3.1875 0.3125 1.075
3.25 0.3125 1.075
3.1875 0.375 1.075
3.25 0.3125 1.0125
3.3125 0.375 1.0125
3.3125 0.3125 1.0125
3.375 0.375 1.0125
3.3125 0.3125 1.075
3.375 0.3125 1.075
3.3125 0.375 1.075
3.375 0.3125 1.0125
3.4375 0.375 1.0125
3.4375 0.3125 1.0125
3.5 0.375 1.0125
3.4375 0.3125 1.075
3.5 0.3125 1.075
3.4375 0.375 1.075
3.5 0.3125 1.0125
3.5625 0.375 1.0125
3.5625 0.3125 1.0125
3.625 0.375 1.0125
3.5625 0.3125 1.075
3.625 0.3125 1.075
3.5625 0.375 1.075
3.625 0.3125 1.0125
3.6875 0.375 1.0125
3.6875 0.3125 1.0125
3.75 0.375 1.0125
3.6875 0.3125 1.075
3.75 0.3125 1.075
3.6875 0.375 1.075
3.75 0.3125 1.0125
3.8125 0.375 1.0125
3.8125 0.3125 1.0125
3.875 0.375 1.0125
3.8125 0.3125 1.075
3.875 0.3125 1.075
3.8125 0.375 1.075
3.875 0.3125 1.0125
3.9375 0.375 1.0125
3.9375 0.3125 1.0125
4 0.375 1.0125
3.9375 0.3125 1.075
4 0.3125 1.075
3.9375 0.375 1.075
4 0.3125 1.0125
0.0625 0.5 1.0125
0.0625 0.4375 1.0125
0.125 0.5 1.0125
0.0625 0.4375 1.075
0.125 0.4375 1.075
0 0.5 1.0125
0 0.4375 1.0125
0.0625 0.5 1.075
0 0.4375 1.075
0.125 0.4375 1.0125
0.1875 0.5 1.0125
0.1875 0.4375 1.0125
0.25 0.5 1.0125
0.1875 0.4375 1.075
0.25 0.4375 1.075
0.1875 0.5 1.075
0.25 0.4375 1.0125
0.3125 0.5 1.0125
0.3125 0.4375 1.0125
0.375 0.5 1.0125
0.3125 0.4375 1.075
0.375 0.4375 1.075
0.3125 0.5 1.075
0.375 0.4375 1.0125
0.4375 0.5 1.0125
0.4375 0.4375 1.0125
0.5 0.5 1.0125
0.4375 0.4375 1.075
0.5 0.4375 1.075
0.4375 0.5 1.075
0.5 0.4375 1.0125
0.5625 0.5 1.0125
0.5625 0.4375 1.0125
0.625 0.5 1.0125
0.5625 0.4375 1.075
0.625 0.4375 1.075
0.5625 0.5 1.075
0.625 0.4375 1.0125
0.6875 0.5 1.0125
0.6875 0.4375 1.0125
0.75 0.5 1.0125
0.6875 0.4375 1.075
0.75 0.4375 1.075
0.6875 0.5 1.075
0.75 0.4375 1.0125
0.8125 0.5 1.0125
0.8125 0.4375 1.0125
0.875 0.5 1.0125
0.8125 0.4375 1.075
0.875 0.4375 1.075
0.8125 0.5 1.075
0.875 0.4375 1.0125
0.9375 0.5 1.0125
0.9375 0.4375 1.0125
1 0.5 1.0125
0.9375 0.4375 1.075
1 0.4375 1.075
0.9375 0.5 1.075
1 0.4375 1.0125
1.0625 0.5 1.0125
1.0625 0.4375 1.0125
1.125 0.5 1.0125
1.0625 0.4375 1.075
1.125 0.4375 1.075
1.0625 0.5 1.075
1.125 0.4375 1.0125
1.1875 0.5 1.0125
1.1875 0.4375 1.0125
1.25 0.5 1.0125
1.1875 0.4375 1.075
1.25 0.4375 1.075
1.1875 0.5 1.075
1.25 0.4375 1.0125
1.3125 0.5 1.0125
1.3125 0.4375 1.0125
1.375 0.5 1.0125
1.3125 0.4375 1.075
1.375 0.4375 1.075
1.3125 0.5 1.075
1.375 0.4375 1.0125
1.4375 0.5 1.0125
1.4375 0.4375 1.0125
1.5 0.5 1.0125
1.4375 0.4375 1.075
1.5 0.4375 1.075
1.4375 0.5 1.075
1.5 0.4375 1.0125
1.5625 0.5 1.0125
1.5625 0.4375 1.0125
1.625 0.5 1.0125
1.5625 0.4375 1.075
1.625 0.4375 1.075
1.5625 0.5 1.075
1.625 0.4375 1.0125
1.6875 0.5 1.0125
1.6875 0.4375 1.0125
1.75 0.5 1.0125
1.6875 0.4375 1.075
1.75 0.4375 1.075
1.6875 0.5 1.075
1.75 0.4375 1.0125
1.8125 0.5 1.0125
1.8125 0.4375 1.0125
1.875 0.5 1.0125
1.8125 0.4375 1.075
1.875 0.4375 1.075
1.8125 0.5 1.075
1.875 0.4375 1.0125
1.9375 0.5 1.0125
1.9375 0.4375 1.0125
2 0.5 1.0125
1.9375 0.4375 1.075
2 0.4375 1.075
1.9375 0.5 1.075
2 0.4375 1.0125
2.0625 0.5 1.0125
2.0625 0.4375 1.0125
2.125 0.5 1.0125
2.0625 0.4375 1.075
2.125 0.4375 1.075
2.0625 0.5 1.075
2.125 0.4375 1.0125
2.1875 0.5 1.0125
2.1875 0.4375 1.0125
2.25 0.5 1.0125
2.1875 0.4375 1.075
2.25 0.4375 1.075
2.1875 0.5 1.075
2.25 0.4375 1.0125
2.3125 0.5 1.0125
2.3125 0.4375 1.0125
2.375 0.5 1.0125
2.3125 0.4375 1.075
2.375 0.4375 1.075
2.3125 0.5 1.075
2.375 0.4375 1.0125
2.4375 0.5 1.0125
2.4375 0.4375 1.0125
2.5 0.5 1.0125
2.4375 0.4375 1.075
2.5 0.4375 1.075
2.4375 0.5 1.075
2.5 0.4375 1.0125
2.5625 0.5 1.0125
2.5625 0.4375 1.0125
2.625 0.5 1.0125
2.5625 0.4375 1.075
2.625 0.4375 1.075
2.5625 0.5 1.075
2.625 0.4375 1.0125
2.6875 0.5 1.0125
2.6875 0.4375 1.0125
2.75 0.5 1.0125
2.6875 0.4375 1.075
2.75 0.4375 1.075
2.6875 0.5 1.075
2.75 0.4375 1.0125
2.8125 0.5 1.0125
2.8125 0.4375 1.0125
2.875 0.5 1.0125
2.8125 0.4375 1.075
2.875 0.4375 1.075
2.8125 0.5 1.075
2.875 0.4375 1.0125
2.9375 0.5 1.0125
2.9375 0.4375 1.0125
3 0.5 1.0125
2.9375 0.4375 1.075
3 0.4375 1.075
2.9375 0.5 1.075
3 0.4375 1.0125
3.0625 0.5 1.0125
3.0625 0.4375 1.0125
3.125 0.5 1.0125
3.0625 0.4375 1.075
3.125 0.4375 1.075
3.0625 0.5 1.075
3.125 0.4375 1.0125
3.1875 0.5 1.0125
3.1875 0.4375 1.0125
3.25 0.5 1.0125
3.1875 0.4375 1.075
3.25 0.4375 1.075
3.1875 0.5 1.075
3.25 0.4375 1.0125
3.3125 0.5 1.0125
3.3125 0.4375 1.0125
3.375 0.5 1.0125
3.3125 0.4375 1.075
3.375 0.4375 1.075
3.3125 0.5 1.075
3.375 0.4375 1.0125
3.4375 0.5 1.0125
3.4375 0.4375 1.0125
3.5 0.5 1.0125
3.4375 0.4375 1.075
3.5 0.4375 1.075
3.4375 0.5 1.075
3.5 0.4375 1.0125
3.5625 0.5 1.0125
3.5625 0.4375 1.0125
3.625 0.5 1.0125
3.5625 0.4375 1.075
3.625 0.4375 1.075
3.5625 0.5 1.075
3.625 0.4375 1.0125
3.6875 0.5 1.0125
3.6875 0.4375 1.0125
3.75 0.5 1.0125
3.6875 0.4375 1.075
3.75 0.4375 1.075
3.6875 0.5 1.075
3.75 0.4375 1.0125
3.8125 0.5 1.0125
3.8125 0.4375 1.0125
3.875 0.5 1.0125
3.8125 0.4375 1.075
3.875 0.4375 1.075
3.8125 0.5 1.075
3.875 0.4375 1.0125
3.9375 0.5 1.0125
3.9375 0.4375 1.0125
4 0.5 1.0125
3.9375 0.4375 1.075
4 0.4375 1.075
3.9375 0.5 1.075
4 0.4375 1.0125
0.0625 0.625 1.0125
0.0625 0.5625 1.0125
0.125 0.625 1.0125
0.0625 0.5625 1.075
0.125 0.5625 1.075
0 0.625 1.0125
0 0.5625 1.0125
0.0625 0.625 1.075
0 0.5625 1.075
0.125 0.5625 1.0125
0.1875 0.625 1.0125
0.1875 0.5625 1.0125
0.25 0.625 1.0125
0.1875 0.5625 1.075
0.25 0.5625 1.075
0.1875 0.625 1.075
0.25 0.5625 1.0125
0.3125 0.625 1.0125
0.3125 0.5625 1.0125
0.375 0.625 1.0125
0.3125 0.5625 1.075
0.375 0.5625 1.075
0.3125 0.625 1.075
0.375 0.5625 1.0125
0.4375 0.625 1.0125
0.4375 0.5625 1.0125
0.5 0.625 1.0125
0.4375 0.5625 1.075
0.5 0.5625 1.075
0.4375 0.625 1.075
0.5 0.5625 1.0125
0.5625 0.625 1.0125
0.5625 0.5625 1.0125
0.625 0.625 1.0125
0.5625 0.5625 1.075
0.625 0.5625 1.075
0.5625 0.625 1.075
0.625 0.5625 1.0125
0.6875 0.625 1.0125
0.6875 0.5625 1.0125
0.75 0.625 1.0125
0.6875 0.5625 1.075
0.75 0.5625 1.075
0.6875 0.625 1.075
0.75 0.5625 1.0125
0.8125 0.625 1.0125
0.8125 0.5625 1.0125
0.875 0.625 1.0125
0.8125 0.5625 1.075
0.875 0.5625 1.075
0.8125 0.625 1.075
0.875 0.5625 1.0125
0.9375 0.625 1.0125
0.9375 0.5625 1.0125
1 0.625 1.0125
0.9375 0.5625 1.075
1 0.5625 1.075
0.9375 0.625 1.075
1 0.5625 1.0125
1.0625 0.625 1.0125
1.0625 0.5625 1.0125
1.125 0.625 1.0125
1.0625 0.5625 1.075
1.125 0.5625 1.075
1.0625 0.625 1.075
1.125 0.5625 1.0125
1.1875 0.625 1.0125
1.1875 0.5625 1.0125
1.25 0.625 1.0125
1.1875 0.5625 1.075
1.25 0.5625 1.075
1.1875 0.625 1.075
1.25 0.5625 1.0125
1.3125 0.625 1.0125
1.3125 0.5625 1.0125
1.375 0.625 1.0125
1.3125 0.5625 1.075
1.375 0.5625 1.075
1.3125 0.625 1.075
1.375 0.5625 1.0125
1.4375 0.625 1.0125
1.4375 0.5625 1.0125
1.5 0.625 1.0125
1.4375 0.5625 1.075
1.5 0.5625 1.075
1.4375 0.625 1.075
1.5 0.5625 1.0125
1.5625 0.625 1.0125
1.5625 0.5625 1.0125
1.625 0.625 1.0125
1.5625 0.5625 1.075
1.625 0.5625 1.075
1.5625 0.625 1.075
1.625 0.5625 1.0125
1.6875 0.625 1.0125
1.6875 0.5625 1.0125
1.75 0.625 1.0125
1.6875 0.5625 1.075
1.75 0.5625 1.075
1.6875 0.625 1.075
1.75 0.5625 1.0125
1.8125 0.625 1.0125
1.8125 0.5625 1.0125
1.875 0.625 1.0125
1.8125 0.5625 1.075
1.875 0.5625 1.075
1.8125 0.625 1.075
1.875 0.5625 1.0125
1.9375 0.625 1.0125
1.9375 0.5625 1.0125
2 0.625 1.0125
1.9375 0.5625 1.075
2 0.5625 1.075
1.9375 0.625 1.075
2 0.5625 1.0125
2.0625 0.625 1.0125
2.0625 0.5625 1.0125
2.125 0.625 1.0125
2.0625 0.5625 1.075
2.125 0.5625 1.075
2.0625 0.625 1.075
2.125 0.5625 1.0125
2.1875 0.625 1.0125
2.1875 0.5625 1.0125
2.25 0.625 1.0125
2.1875 0.5625 1.075
2.25 0.5625 1.075
2.1875 0.625 1.075
2.25 0.5625 1.0125
2.3125 0.625 1.0125
2.3125 0.5625 1.0125
2.375 0.625 1.0125
2.3125 0.5625 1.075
2.375 0.5625 1.075
2.3125 0.625 1.075
2.375 0.5625 1.0125
2.4375 0.625 1.0125
2.4375 0.5625 1.0125
2.5 0.625 1.0125
2.4375 0.5625 1.075
2.5 0.5625 1.075
2.4375 0.625 1.075
2.5 0.5625 1.0125
2.5625 0.625 1.0125
2.5625 0.5625 1.0125
2.625 0.625 1.0125
2.5625 0.5625 1.075
2.625 0.5625 1.075
2.5625 0.625 1.075
2.625 0.5625 1.0125
2.6875 0.625 1.0125
2.6875 0.5625 1.0125
2.75 0.625 1.0125
2.6875 0.5625 1.075
2.75 0.5625 1.075
2.6875 0.625 1.075
2.75 0.5625 1.0125
2.8125 0.625 1.0125
2.8125 0.5625 1.0125
2.875 0.625 1.0125
2.8125 0.5625 1.075
2.875 0.5625 1.075
2.8125 0.625 1.075
2.875 0.5625 1.0125
2.9375 0.625 1.0125
2.9375 0.5625 1.0125
3 0.625 1.0125
2.9375 0.5625 1.075
3 0.5625 1.075
2.9375 0.625 1.075
3 0.5625 1.0125
3.0625 0.625 1.0125
3.0625 0.5625 1.0125
3.125 0.625 1.0125
3.0625 0.5625 1.075
3.125 0.5625 1.075
3.0625 0.625 1.075
3.125 0.5625 1.0125
3.1875 0.625 1.0125
3.1875 0.5625 1.0125
3.25 0.625 1.0125
3.1875 0.5625 1.075
3.25 0.5625 1.075
3.1875 0.625 1.075
3.25 0.5625 1.0125
3.3125 0.625 1.0125
3.3125 0.5625 1.0125
3.375 0.625 1.0125
3.3125 0.5625 1.075
3.375 0.5625 1.075
3.3125 0.625 1.075
3.375 0.5625 1.0125
3.4375 0.625 1.0125
3.4375 0.5625 1.0125
3.5 0.625 1.0125
3.4375 0.5625 1.075
3.5 0.5625 1.075
3.4375 0.625 1.075
3.5 0.5625 1.0125
3.5625 0.625 1.0125
3.5625 0.5625 1.0125
3.625 0.625 1.0125
3.5625 0.5625 1.075
3.625 0.5625 1.075
3.5625 0.625 1.075
3.625 0.5625 1.0125
3.6875 0.625 1.0125
3.6875 0.5625 1.0125
3.75 0.625 1.0125
3.6875 0.5625 1.075
3.75 0.5625 1.075
3.6875 0.625 1.075
3.75 0.5625 1.0125
3.8125 0.625 1.0125
3.8125 0.5625 1.0125
3.875 0.625 1.0125
3.8125 0.5625 1.075
3.875 0.5625 1.075
3.8125 0.625 1.075
3.875 0.5625 1.0125
3.9375 0.625 1.0125
3.9375 0.5625 1.0125
4 0.625 1.0125
3.9375 0.5625 1.075
4 0.5625 1.075
3.9375 0.625 1.075
4 0.5625 1.0125
0.0625 0.75 1.0125
0.0625 0.6875 1.0125
0.125 0.75 1.0125
0.0625 0.6875 1.075
0.125 0.6875 1.075
0 0.75 1.0125
0 0.6875 1.0125
0.0625 0.75 1.075
0 0.6875 1.075
0.125 0.6875 1.0125
0.1875 0.75 1.0125
0.1875 0.6875 1.0125
0.25 0.75 1.0125
0.1875 0.6875 1.075
0.25 0.6875 1.075
0.1875 0.75 1.075
0.25 0.6875 1.0125
0.3125 0.75 1.0125
0.3125 0.6875 1.0125
0.375 0.75 1.0125
0.3125 0.6875 1.075
0.375 0.6875 1.075
0.3125 0.75 1.075
0.375 0.6875 1.0125
0.4375 0.75 1.0125
0.4375 0.6875 1.0125
0.5 0.75 1.0125
0.4375 0.6875 1.075
0.5 0.6875 1.075
0.4375 0.75 1.075
0.5 0.6875 1.0125
0.5625 0.75 1.0125
0.5625 0.6875 1.0125
0.625 0.75 1.0125
0.5625 0.6875 1.075
0.625 0.6875 1.075
0.5625 0.75 1.075
0.625 0.6875 1.0125
0.6875 0.75 1.0125
0.6875 0.6875 1.0125
0.75 0.75 1.0125
0.6875 0.6875 1.075
0.75 0.6875 1.075
0.6875 0.75 1.075
0.75 0.6875 1.0125
0.8125 0.75 1.0125
0.8125 0.6875 1.0125
0.875 0.75 1.0125
0.8125 0.6875 1.075
0.875 0.6875 1.075
0.8125 0.75 1.075
0.875 0.6875 1.0125
0.9375 0.75 1.0125
0.9375 0.6875 1.0125
1 0.75 1.0125
0.9375 0.6875 1.075
1 0.6875 1.075
0.9375 0.75 1.075
1 0.6875 1.0125
1.0625 0.75 1.0125
1.0625 0.6875 1.0125
1.125 0.75 1.0125
1.0625 0.6875 1.075
1.125 0.6875 1.075
1.0625 0.75 1.075
1.125 0.6875 1.0125
1.1875 0.75 1.0125
1.1875 0.6875 1.0125
1.25 0.75 1.0125
1.1875 0.6875 1.075
1.25 0.6875 1.075
1.1875 0.75 1.075
1.25 0.6875 1.0125
1.3125 0.75 1.0125
1.3125 0.6875 1.0125
1.375 0.75 1.0125
1.3125 0.6875 1.075
1.375 0.6875 1.075
1.3125 0.75 1.075
1.375 0.6875 1.0125
1.4375 0.75 1.0125
1.4375 0.6875 1.0125
1.5 0.75 1.0125
1.4375 0.6875 1.075
1.5 0.6875 1.075
1.4375 0.75 1.075
1.5 0.6875 1.0125
1.5625 0.75 1.0125
1.5625 0.6875 1.0125
1.625 0.75 1.0125
1.5625 0.6875 1.075
1.625 0.6875 1.075
1.5625 0.75 1.075
1.625 0.6875 1.0125
1.6875 0.75 1.0125
1.6875 0.6875 1.0125
1.75 0.75 1.0125
1.6875 0.6875 1.075
1.75 0.6875 1.075
1.6875 0.75 1.075
1.75 0.6875 1.0125
1.8125 0.75 1.0125
1.8125 0.6875 1.0125
1.875 0.75 1.0125
1.8125 0.6875 1.075
1.875 0.6875 1.075
1.8125 0.75 1.075
1.875 0.6875 1.0125
1.9375 0.75 1.0125
1.9375 0.6875 1.0125
2 0.75 1.0125
1.9375 0.6875 1.075
2 0.6875 1.075
1.9375 0.75 1.075
2 0.6875 1.0125
2.0625 0.75 1.0125
2.0625 0.6875 1.0125
2.125 0.75 1.0125
2.0625 0.6875 1.075
2.125 0.6875 1.075
2.0625 0.75 1.075
2.125 0.6875 1.0125
2.1875 0.75 1.0125
2.1875 0.6875 1.0125
2.25 0.75 1.0125
2.1875 0.6875 1.075
2.25 0.6875 1.075
2.1875 0.75 1.075
2.25 0.6875 1.0125
2.3125 0.75 1.0125
2.3125 0.6875 1.0125
2.375 0.75 1.0125
2.3125 0.6875 1.075
2.375 0.6875 1.075
2.3125 0.75 1.075
2.375 0.6875 1.0125
2.4375 0.75 1.0125
2.4375 0.6875 1.0125
2.5 0.75 1.0125
2.4375 0.6875 1.075
2.5 0.6875 1.075
2.4375 0.75 1.075
2.5 0.6875 1.0125
2.5625 0.75 1.0125
2.5625 0.6875 1.0125
2.625 0.75 1.0125
2.5625 0.6875 1.075
2.625 0.6875 1.075
2.5625 0.75 1.075
2.625 0.6875 1.0125
2.6875 0.75 1.0125
2.6875 0.6875 1.0125
2.75 0.75 1.0125
2.6875 0.6875 1.075
2.75 0.6875 1.075
2.6875 0.75 1.075
2.75 0.6875 1.0125
2.8125 0.75 1.0125
2.8125 0.6875 1.0125
2.875 0.75 1.0125
2.8125 0.6875 1.075
2.875 0.6875 1.075
2.8125 0.75 1.075
2.875 0.6875 1.0125
2.9375 0.75 1.0125
2.9375 0.6875 1.0125
3 0.75 1.0125
2.9375 0.6875 1.075
3 0.6875 1.075
2.9375 0.75 1.075
3 0.6875 1.0125
3.0625 0.75 1.0125
3.0625 0.6875 1.0125
3.125 0.75 1.0125
3.0625 0.6875 1.075
3.125 0.6875 1.075
3.0625 0.75 1.075
3.125 0.6875 1.0125
3.1875 0.75 1.0125
3.1875 0.6875 1.0125
3.25 0.75 1.0125
3.1875 0.6875 1.075
3.25 0.6875 1.075
3.1875 0.75 1.075
3.25 0.6875 1.0125
3.3125 0.75 1.0125
3.3125 0.6875 1.0125
3.375 0.75 1.0125
3.3125 0.6875 1.075
3.375 0.6875 1.075
3.3125 0.75 1.075
3.375 0.6875 1.0125
3.4375 0.75 1.0125
3.4375 0.6875 1.0125
3.5 0.75 1.0125
3.4375 0.6875 1.075
3.5 0.6875 1.075
3.4375 0.75 1.075
3.5 0.6875 1.0125
3.5625 0.75 1.0125
3.5625 0.6875 1.0125
3.625 0.75 1.0125
3.5625 0.6875 1.075
3.625 0.6875 1.075
3.5625 0.75 1.075
3.625 0.6875 1.0125
3.6875 0.75 1.0125
3.6875 0.6875 1.0125
3.75 0.75 1.0125
3.6875 0.6875 1.075
3.75 0.6875 1.075
3.6875 0.75 1.075
3.75 0.6875 1.0125
3.8125 0.75 1.0125
3.8125 0.6875 1.0125
3.875 0.75 1.0125
3.8125 0.6875 1.075
3.875 0.6875 1.075
3.8125 0.75 1.075
3.875 0.6875 1.0125
3.9375 0.75 1.0125
3.9375 0.6875 1.0125
4 0.75 1.0125
3.9375 0.6875 1.075
4 0.6875 1.075
3.9375 0.75 1.075
4 0.6875 1.0125
0.0625 0.875 1.0125
0.0625 0.8125 1.0125
0.125 0.875 1.0125
0.0625 0.8125 1.075
0.125 0.8125 1.075
0 0.875 1.0125
0 0.8125 1.0125
0.0625 0.875 1.075
0 0.8125 1.075
0.125 0.8125 1.0125
0.1875 0.875 1.0125
0.1875 0.8125 1.0125
0.25 0.875 1.0125
0.1875 0.8125 1.075
0.25 0.8125 1.075
0.1875 0.875 1.075
0.25 0.8125 1.0125
0.3125 0.875 1.0125
0.3125 0.8125 1.0125
0.375 0.875 1.0125
0.3125 0.8125 1.075
0.375 0.8125 1.075
0.3125 0.875 1.075
0.375 0.8125 1.0125
0.4375 0.875 1.0125
0.4375 0.8125 1.0125
0.5 0.875 1.0125
0.4375 0.8125 1.075
0.5 0.8125 1.075
0.4375 0.875 1.075
0.5 0.8125 1.0125
0.5625 0.875 1.0125
0.5625 0.8125 1.0125
0.625 0.875 1.0125
0.5625 0.8125 1.075
0.625 0.8125 1.075
0.5625 0.875 1.075
0.625 0.8125 1.0125
0.6875 0.875 1.0125
0.6875 0.8125 1.0125
0.75 0.875 1.0125
0.6875 0.8125 1.075
0.75 0.8125 1.075
0.6875 0.875 1.075
0.75 0.8125 1.0125
0.8125 0.875 1.0125
0.8125 0.8125 1.0125
0.875 0.875 1.0125
0.8125 0.8125 1.075
0.875 0.8125 1.075
0.8125 0.875 1.075
0.875 0.8125 1.0125
0.9375 0.875 1.0125
0.9375 0.8125 1.0125
1 0.875 1.0125
0.9375 0.8125 1.075
1 0.8125 1.075
0.9375 0.875 1.075
1 0.8125 1.0125
1.0625 0.875 1.0125
1.0625 0.8125 1.0125
1.125 0.875 1.0125
1.0625 0.8125 1.075
1.125 0.8125 1.075
1.0625 0.875 1.075
1.125 0.8125 1.0125
1.1875 0.875 1.0125
1.1875 0.8125 1.0125
1.25 0.875 1.0125
1.1875 0.8125 1.075
1.25 0.8125 1.075
1.1875 0.875 1.075
1.25 0.8125 1.0125
1.3125 0.875 1.0125
1.3125 0.8125 1.0125
1.375 0.875 1.0125
1.3125 0.8125 1.075
1.375 0.8125 1.075
1.3125 0.875 1.075
1.375 0.8125 1.0125
1.4375 0.875 1.0125
1.4375 0.8125 1.0125
1.5 0.875 1.0125
1.4375 0.8125 1.075
1.5 0.8125 1.075
1.4375 0.875 1.075
1.5 0.8125 1.0125
1.5625 0.875 1.0125
1.5625 0.8125 1.0125
1.625 0.875 1.0125
1.5625 0.8125 1.075
1.625 0.8125 1.075
1.5625 0.875 1.075
1.625 0.8125 1.0125
1.6875 0.875 1.0125
1.6875 0.8125 1.0125
1.75 0.875 1.0125
1.6875 0.8125 1.075
1.75 0.8125 1.075
1.6875 0.875 1.075
1.75 0.8125 1.0125
1.8125 0.875 1.0125
1.8125 0.8125 1.0125
1.875 0.875 1.0125
1.8125 0.8125 1.075
1.875 0.8125 1.075
1.8125 0.875 1.075
1.875 0.8125 1.0125
1.9375 0.875 1.0125
1.9375 0.8125 1.0125
2 0.875 1.0125
1.9375 0.8125 1.075
2 0.8125 1.075
1.9375 0.875 1.075
2 0.8125 1.0125
2.0625 0.875 1.0125
2.0625 0.8125 1.0125
2.125 0.875 1.0125
2.0625 0.8125 1.075
2.125 0.8125 1.075
2.0625 0.875 1.075
2.125 0.8125 1.0125
2.1875 0.875 1.0125
2.1875 0.8125 1.0125
2.25 0.875 1.0125
2.1875 0.8125 1.075
2.25 0.8125 1.075
2.1875 0.875 1.075
2.25 0.8125 1.0125
2.3125 0.875 1.0125
2.3125 0.8125 1.0125
2.375 0.875 1.0125
2.3125 0.8125 1.075
2.375 0.8125 1.075
2.3125 0.875 1.075
2.375 0.8125 1.0125
2.4375 0.875 1.0125
2.4375 0.8125 1.0125
2.5 0.875 1.0125
2.4375 0.8125 1.075
2.5 0.8125 1.075
2.4375 0.875 1.075
2.5 0.8125 1.0125
2.5625 0.875 1.0125
2.5625 0.8125 1.0125
2.625 0.875 1.0125
2.5625 0.8125 1.075
2.625 0.8125 1.075
2.5625 0.875 1.075
2.625 0.8125 1.0125
2.6875 0.875 1.0125
2.6875 0.8125 1.0125
2.75 0.875 1.0125
2.6875 0.8125 1.075
2.75 0.8125 1.075
2.6875 0.875 1.075
2.75 0.8125 1.0125
2.8125 0.875 1.0125
2.8125 0.8125 1.0125
2.875 0.875 1.0125
2.8125 0.8125 1.075
2.875 0.8125 1.075
2.8125 0.875 1.075
2.875 0.8125 1.0125
2.9375 0.875 1.0125
2.9375 0.8125 1.0125
3 0.875 1.0125
2.9375 0.8125 1.075
3 0.8125 1.075
2.9375 0.875 1.075
3 0.8125 1.0125
3.0625 0.875 1.0125
3.0625 0.8125 1.0125
3.125 0.875 1.0125
3.0625 0.8125 1.075
3.125 0.8125 1.075
3.0625 0.875 1.075
3.125 0.8125 1.0125
3.1875 0.875 1.0125
3.1875 0.8125 1.0125
3.25 0.875 1.0125
3.1875 0.8125 1.075
3.25 0.8125 1.075
3.1875 0.875 1.075
3.25 0.8125 1.0125
3.3125 0.875 1.0125
3.3125 0.8125 1.0125
3.375 0.875 1.0125
3.3125 0.8125 1.075
3.375 0.8125 1.075
3.3125 0.875 1.075
3.375 0.8125 1.0125
3.4375 0.875 1.0125
3.4375 0.8125 1.0125
3.5 0.875 1.0125
3.4375 0.8125 1.075
3.5 0.8125 1.075
3.4375 0.875 1.075
3.5 0.8125 1.0125
3.5625 0.875 1.0125
3.5625 0.8125 1.0125
3.625 0.875 1.0125
3.5625 0.8125 1.075
3.625 0.8125 1.075
3.5625 0.875 1.075
3.625 0.8125 1.0125
3.6875 0.875 1.0125
3.6875 0.8125 1.0125
3.75 0.875 1.0125
3.6875 0.8125 1.075
3.75 0.8125 1.075
3.6875 0.875 1.075
3.75 0.8125 1.0125
3.8125 0.875 1.0125
3.8125 0.8125 1.0125
3.875 0.875 1.0125
3.8125 0.8125 1.075
3.875 0.8125 1.075
3.8125 0.875 1.075
3.875 0.8125 1.0125
3.9375 0.875 1.0125
3.9375 0.8125 1.0125
4 0.875 1.0125
3.9375 0.8125 1.075
4 0.8125 1.075
3.9375 0.875 1.075
4 0.8125 1.0125
0.0625 1 1.0125
0.0625 0.9375 1.0125
0.125 1 1.0125
0.0625 0.9375 1.075
0.125 0.9375 1.075
0 1 1.0125
0 0.9375 1.0125
0.0625 1 1.075
0 0.9375 1.075
0.125 0.9375 1.0125
0.1875 1 1.0125
0.1875 0.9375 1.0125
0.25 1 1.0125
0.1875 0.9375 1.075
0.25 0.9375 1.075
0.1875 1 1.075
0.25 0.9375 1.0125
0.3125 1 1.0125
0.3125 0.9375 1.0125
0.375 1 1.0125
0.3125 0.9375 1.075
0.375 0.9375 1.075
0.3125 1 1.075
0.375 0.9375 1.0125
0.4375 1 1.0125
0.4375 0.9375 1.0125
0.5 1 1.0125
0.4375 0.9375 1.075
0.5 0.9375 1.075
0.4375 1 1.075
0.5 0.9375 1.0125
0.5625 1 1.0125
0.5625 0.9375 1.0125
0.625 1 1.0125
0.5625 0.9375 1.075
0.625 0.9375 1.075
0.5625 1 1.075
0.625 0.9375 1.0125
0.6875 1 1.0125
0.6875 0.9375 1.0125
0.75 1 1.0125
0.6875 0.9375 1.075
0.75 0.9375 1.075
0.6875 1 1.075
0.75 0.9375 1.0125
0.8125 1 1.0125
0.8125 0.9375 1.0125
0.875 1 1.0125
0.8125 0.9375 1.075
0.875 0.9375 1.075
0.8125 1 1.075
0.875 0.9375 1.0125
0.9375 1 1.0125
0.9375 0.9375 1.0125
1 1 1.0125
0.9375 0.9375 1.075
1 0.9375 1.075
0.9375 1 1.075
1 0.9375 1.0125
1.0625 1 1.0125
1.0625 0.9375 1.0125
1.125 1 1.0125
1.0625 0.9375 1.075
1.125 0.9375 1.075
1.0625 1 1.075
1.125 0.9375 1.0125
1.1875 1 1.0125
1.1875 0.9375 1.0125
1.25 1 1.0125
1.1875 0.9375 1.075
1.25 0.9375 1.075
1.1875 1 1.075
1.25 0.9375 1.0125
1.3125 1 1.0125
1.3125 0.9375 1.0125
1.375 1 1.0125
1.3125 0.9375 1.075
1.375 0.9375 1.075
1.3125 1 1.075
1.375 0.9375 1.0125
1.4375 1 1.0125
1.4375 0.9375 1.0125
1.5 1 1.0125
1.4375 0.9375 1.075
1.5 0.9375 1.075
1.4375 1 1.075
1.5 0.9375 1.0125
1.5625 1 1.0125
1.5625 0.9375 1.0125
1.625 1 1.0125
1.5625 0.9375 1.075
1.625 0.9375 1.075
1.5625 1 1.075
1.625 0.9375 1.0125
1.6875 1 1.0125
1.6875 0.9375 1.0125
1.75 1 1.0125
1.6875 0.9375 1.075
1.75 0.9375 1.075
1.6875 1 1.075
1.75 0.9375 1.0125
1.8125 1 1.0125
1.8125 0.9375 1.0125
1.875 1 1.0125
1.8125 0.9375 1.075
1.875 0.9375 1.075
1.8125 1 1.075
1.875 0.9375 1.0125
1.9375 1 1.0125
1.9375 0.9375 1.0125
2 1 1.0125
1.9375 0.9375 1.075
2 0.9375 1.075
1.9375 1 1.075
2 0.9375 1.0125
2.0625 1 1.0125
2.0625 0.9375 1.0125
2.125 1 1.0125
2.0625 0.9375 1.075
2.125 0.9375 1.075
2.0625 1 1.075
2.125 0.9375 1.0125
2.1875 1 1.0125
2.1875 0.9375 1.0125
2.25 1 1.0125
2.1875 0.9375 1.075
2.25 0.9375 1.075
2.1875 1 1.075
2.25 0.9375 1.0125
2.3125 1 1.0125
2.3125 0.9375 1.0125
2.375 1 1.0125
2.3125 0.9375 1.075
2.375 0.9375 1.075
2.3125 1 1.075
2.375 0.9375 1.0125
2.4375 1 1.0125
2.4375 0.9375 1.0125
2.5 1 1.0125
2.4375 0.9375 1.075
2.5 0.9375 1.075
2.4375 1 1.075
2.5 0.9375 1.0125
2.5625 1 1.0125
2.5625 0.9375 1.0125
2.625 1 1.0125
2.5625 0.9375 1.075
2.625 0.9375 1.075
2.5625 1 1.075
2.625 0.9375 1.0125
2.6875 1 1.0125
2.6875 0.9375 1.0125
2.75 1 1.0125
2.6875 0.9375 1.075
2.75 0.9375 1.075
2.6875 1 1.075
2.75 0.9375 1.0125
2.8125 1 1.0125
2.8125 0.9375 1.0125
2.875 1 1.0125
2.8125 0.9375 1.075
2.875 0.9375 1.075
2.8125 1 1.075
2.875 0.9375 1.0125
2.9375 1 1.0125
2.9375 0.9375 1.0125
3 1 1.0125
2.9375 0.9375 1.075
3 0.9375 1.075
2.9375 1 1.075
3 0.9375 1.0125
3.0625 1 1.0125
3.0625 0.9375 1.0125
3.125 1 1.0125
3.0625 0.9375 1.075
3.125 0.9375 1.075
3.0625 1 1.075
3.125 0.9375 1.0125
3.1875 1 1.0125
3.1875 0.9375 1.0125
3.25 1 1.0125
3.1875 0.9375 1.075
3.25 0.9375 1.075
3.1875 1 1.075
3.25 0.9375 1.0125
3.3125 1 1.0125
3.3125 0.9375 1.0125
3.375 1 1.0125
3.3125 0.9375 1.075
3.375 0.9375 1.075
3.3125 1 1.075
3.375 0.9375 1.0125
3.4375 1 1.0125
3.4375 0.9375 1.0125
3.5 1 1.0125
3.4375 0.9375 1.075
3.5 0.9375 1.075
3.4375 1 1.075
3.5 0.9375 1.0125
3.5625 1 1.0125
3.5625 0.9375 1.0125
3.625 1 1.0125
3.5625 0.9375 1.075
3.625 0.9375 1.075
3.5625 1 1.075
3.625 0.9375 1.0125
3.6875 1 1.0125
3.6875 0.9375 1.0125
3.75 1 1.0125
3.6875 0.9375 1.075
3.75 0.9375 1.075
3.6875 1 1.075
3.75 0.9375 1.0125
3.8125 1 1.0125
3.8125 0.9375 1.0125
3.875 1 1.0125
3.8125 0.9375 1.075
3.875 0.9375 1.075
3.8125 1 1.075
3.875 0.9375 1.0125
3.9375 1 1.0125
3.9375 0.9375 1.0125
4 1 1.0125
3.9375 0.9375 1.075
4 0.9375 1.075
3.9375 1 1.075
4 0.9375 1.0125
0.0625 0.125 1.1375
0.0625 0.0625 1.1375
0.125 0.125 1.1375
0.0625 0.0625 1.2
0.125 0.0625 1.2
0.0625 0 1.2
0 0 1.1375
0.0625 0 1.1375
0 0.125 1.1375
0 0.0625 1.1375
0.0625 0.125 1.2
0 0.0625 1.2
0.125 0 1.1375
0.125 0.0625 1.1375
0.1875 0.125 1.1375
0.1875 0.0625 1.1375
0.25 0.125 1.1375
0.1875 0.0625 1.2
0.25 0.0625 1.2
0.1875 0 1.2
0.1875 0 1.1375
0.1875 0.125 1.2
0.25 0 1.1375
0.25 0.0625 1.1375
0.3125 0.125 1.1375
0.3125 0.0625 1.1375
0.375 0.125 1.1375
0.3125 0.0625 1.2
0.375 0.0625 1.2
0.3125 0 1.2
0.3125 0 1.1375
0.3125 0.125 1.2
0.375 0 1.1375
0.375 0.0625 1.1375
0.4375 0.125 1.1375
0.4375 0.0625 1.1375
0.5 0.125 1.1375
0.4375 0.0625 1.2
0.5 0.0625 1.2
0.4375 0 1.2
0.4375 0 1.1375
0.4375 0.125 1.2
0.5 0 1.1375
0.5 0.0625 1.1375
0.5625 0.125 1.1375
0.5625 0.0625 1.1375
0.625 0.125 1.1375
0.5625 0.0625 1.2
0.625 0.0625 1.2
0.5625 0 1.2
0.5625 0 1.1375
0.5625 0.125 1.2
0.625 0 1.1375
0.625 0.0625 1.1375
0.6875 0.125 1.1375
0.6875 0.0625 1.1375
0.75 0.125 1.1375
0.6875 0.0625 1.2
0.75 0.0625 1.2
0.6875 0 1.2
0.6875 0 1.1375
0.6875 0.125 1.2
0.75 0 1.1375
0.75 0.0625 1.1375
0.8125 0.125 1.1375
0.8125 0.0625 1.1375
0.875 0.125 1.1375
0.8125 0.0625 1.2
0.875 0.0625 1.2
0.8125 0 1.2
0.8125 0 1.1375
0.8125 0.125 1.2
0.875 0 1.1375
0.875 0.0625 1.1375
0.9375 0.125 1.1375
0.9375 0.0625 1.1375
1 0.125 1.1375
0.9375 0.0625 1.2
1 0.0625 1.2
0.9375 0 1.2
0.9375 0 1.1375
0.9375 0.125 1.2
1 0 1.1375
1 0.0625 1.1375
1.0625 0.125 1.1375
1.0625 0.0625 1.1375
1.125 0.125 1.1375
1.0625 0.0625 1.2
1.125 0.0625 1.2
1.0625 0 1.2
1.0625 0 1.1375
1.0625 0.125 1.2
1.125 0 1.1375
1.125 0.0625 1.1375
1.1875 0.125 1.1375
1.1875 0.0625 1.1375
1.25 0.125 1.1375
1.1875 0.0625 1.2
1.25 0.0625 1.2
1.1875 0 1.2
1.1875 0 1.1375
1.1875 0.125 1.2
1.25 0 1.1375
1.25 0.0625 1.1375
1.3125 0.125 1.1375
1.3125 0.0625 1.1375
1.375 0.125 1.1375
1.3125 0.0625 1.2
1.375 0.0625 1.2
1.3125 0 1.2
1.3125 0 1.1375
1.3125 0.125 1.2
1.375 0 1.1375
1.375 0.0625 1.1375
1.4375 0.125 1.1375
1.4375 0.0625 1.1375
1.5 0.125 1.1375
1.4375 0.0625 1.2
1.5 0.0625 1.2
1.4375 0 1.2
1.4375 0 1.1375
1.4375 0.125 1.2
1.5 0 1.1375
1.5 0.0625 1.1375
1.5625 0.125 1.1375
1.5625 0.0625 1.1375
1.625 0.125 1.1375
1.5625 0.0625 1.2
1.625 0.0625 1.2
1.5625 0 1.2
1.5625 0 1.1375
1.5625 0.125 1.2
1.625 0 1.1375
1.625 0.0625 1.1375
1.6875 0.125 1.1375
1.6875 0.0625 1.1375
1.75 0.125 1.1375
1.6875 0.0625 1.2
1.75 0.0625 1.2
1.6875 0 1.2
1.6875 0 1.1375
1.6875 0.125 1.2
1.75 0 1.1375
1.75 0.0625 1.1375
1.8125 0.125 1.1375
1.8125 0.0625 1.1375
1.875 0.125 1.1375
1.8125 0.0625 1.2
1.875 0.0625 1.2
1.8125 0 1.2
1.8125 0 1.1375
1.8125 0.125 1.2
1.875 0 1.1375
1.875 0.0625 1.1375
1.9375 0.125 1.1375
1.9375 0.0625 1.1375
2 0.125 1.1375
1.9375 0.0625 1.2
2 0.0625 1.2
1.9375 0 1.2
1.9375 0 1.1375
1.9375 0.125 1.2
2 0 1.1375
2 0.0625 1.1375
2.0625 0.125 1.1375
2.0625 0.0625 1.1375
2.125 0.125 1.1375
2.0625 0.0625 1.2
2.125 0.0625 1.2
2.0625 0 1.2
2.0625 0 1.1375
2.0625 0.125 1.2
2.125 0 1.1375
2.125 0.0625 1.1375
2.1875 0.125 1.1375
2.1875 0.0625 1.1375
2.25 0.125 1.1375
2.1875 0.0625 1.2
2.25 0.0625 1.2
2.1875 0 1.2
2.1875 0 1.1375
2.1875 0.125 1.2
2.25 0 1.1375
2.25 0.0625 1.1375
2.3125 0.125 1.1375
2.3125 0.0625 1.1375
2.375 0.125 1.1375
2.3125 0.0625 1.2
2.375 0.0625 1.2
2.3125 0 1.2
2.3125 0 1.1375
2.3125 0.125 1.2
2.375 0 1.1375
2.375 0.0625 1.1375
2.4375 0.125 1.1375
2.4375 0.0625 1.1375
2.5 0.125 1.1375
2.4375 0.0625 1.2
2.5 0.0625 1.2
2.4375 0 1.2
2.4375 0 1.1375
2.4375 0.125 1.2
2.5 0 1.1375
2.5 0.0625 1.1375
2.5625 0.125 1.1375
2.5625 0.0625 1.1375
2.625 0.125 1.1375
2.5625 0.0625 1.2
2.625 0.0625 1.2
2.5625 0 1.2
2.5625 0 1.1375
2.5625 0.125 1.2
2.625 0 1.1375
2.625 0.0625 1.1375
2.6875 0.125 1.1375
2.6875 0.0625 1.1375
2.75 0.125 1.1375
2.6875 0.0625 1.2
2.75 0.0625 1.2
2.6875 0 1.2
2.6875 0 1.1375
2.6875 0.125 1.2
2.75 0 1.1375
2.75 0.0625 1.1375
2.8125 0.125 1.1375
2.8125 0.0625 1.1375
2.875 0.125 1.1375
2.8125 0.0625 1.2
2.875 0.0625 1.2
2.8125 0 1.2
2.8125 0 1.1375
2.8125 0.125 1.2
2.875 0 1.1375
2.875 0.0625 1.1375
2.9375 0.125 1.1375
2.9375 0.0625 1.1375
3 0.125 1.1375
2.9375 0.0625 1.2
3 0.0625 1.2
2.9375 0 1.2
2.9375 0 1.1375
2.9375 0.125 1.2
3 0 1.1375
3 0.0625 1.1375
3.0625 0.125 1.1375
3.0625 0.0625 1.1375
3.125 0.125 1.1375
3.0625 0.0625 1.2
3.125 0.0625 1.2
3.0625 0 1.2
3.0625 0 1.1375
3.0625 0.125 1.2
3.125 0 1.1375
3.125 0.0625 1.1375
3.1875 0.125 1.1375
3.1875 0.0625 1.1375
3.25 0.125 1.1375
3.1875 0.0625 1.2
3.25 0.0625 1.2
3.1875 0 1.2
3.1875 0 1.1375
3.1875 0.125 1.2
3.25 0 1.1375
3.25 0.0625 1.1375
3.3125 0.125 1.1375
3.3125 0.0625 1.1375
3.375 0.125 1.1375
3.3125 0.0625 1.2
3.375 0.0625 1.2
3.3125 0 1.2
3.3125 0 1.1375
3.3125 0.125 1.2
3.375 0 1.1375
3.375 0.0625 1.1375
3.4375 0.125 1.1375
3.4375 0.0625 1.1375
3.5 0.125 1.1375
3.4375 0.0625 1.2
3.5 0.0625 1.2
3.4375 0 1.2
3.4375 0 1.1375
3.4375 0.125 1.2
3.5 0 1.1375
3.5 0.0625 1.1375
3.5625 0.125 1.1375
3.5625 0.0625 1.1375
3.625 0.125 1.1375
3.5625 0.0625 1.2
3.625 0.0625 1.2
3.5625 0 1.2
3.5625 0 1.1375
3.5625 0.125 1.2
3.625 0 1.1375
3.625 0.0625 1.1375
3.6875 0.125 1.1375
3.6875 0.0625 1.1375
3.75 0.125 1.1375
3.6875 0.0625 1.2
3.75 0.0625 1.2
3.6875 0 1.2
3.6875 0 1.1375
3.6875 0.125 1.2
3.75 0 1.1375
3.75 0.0625 1.1375
3.8125 0.125 1.1375
3.8125 0.0625 1.1375
3.875 0.125 1.1375
3.8125 0.0625 1.2
3.875 0.0625 1.2
3.8125 0 1.2
3.8125 0 1.1375
3.8125 0.125 1.2
3.875 0 1.1375
3.875 0.0625 1.1375
3.9375 0.125 1.1375
3.9375 0.0625 1.1375
4 0.125 1.1375
3.9375 0.0625 1.2
4 0.0625 1.2
3.9375 0 1.2
3.9375 0 1.1375
3.9375 0.125 1.2
4 0 1.1375
4 0.0625 1.1375
0.0625 0.25 1.1375
0.0625 0.1875 1.1375
0.125 0.25 1.1375
0.0625 0.1875 1.2
0.125 0.1875 1.2
0 0.25 1.1375
0 0.1875 1.1375
0.0625 0.25 1.2
0 0.1875 1.2
0.125 0.1875 1.1375
0.1875 0.25 1.1375
0.1875 0.1875 1.1375
0.25 0.25 1.1375
0.1875 0.1875 1.2
0.25 0.1875 1.2
0.1875 0.25 1.2
0.25 0.1875 1.1375
0.3125 0.25 1.1375
0.3125 0.1875 1.1375
0.375 0.25 1.1375
0.3125 0.1875 1.2
0.375 0.1875 1.2
0.3125 0.25 1.2
0.375 0.1875 1.1375
0.4375 0.25 1.1375
0.4375 0.1875 1.1375
0.5 0.25 1.1375
0.4375 0.1875 1.2
0.5 0.1875 1.2
0.4375 0.25 1.2
0.5 0.1875 1.1375
0.5625 0.25 1.1375
0.5625 0.1875 1.1375
0.625 0.25 1.1375
0.5625 0.1875 1.2
0.625 0.1875 1.2
0.5625 0.25 1.2
0.625 0.1875 1.1375
0.6875 0.25 1.1375
0.6875 0.1875 1.1375
0.75 0.25 1.1375
0.6875 0.1875 1.2
0.75 0.1875 1.2
0.6875 0.25 1.2
0.75 0.1875 1.1375
0.8125 0.25 1.1375
0.8125 0.1875 1.1375
0.875 0.25 1.1375
0.8125 0.1875 1.2
0.875 0.1875 1.2
0.8125 0.25 1.2
0.875 0.1875 1.1375
0.9375 0.25 1.1375
0.9375 0.1875 1.1375
1 0.25 1.1375
0.9375 0.1875 1.2
1 0.1875 1.2
0.9375 0.25 1.2
1 0.1875 1.1375
1.0625 0.25 1.1375
1.0625 0.1875 1.1375
1.125 0.25 1.1375
1.0625 0.1875 1.2
1.125 0.1875 1.2
1.0625 0.25 1.2
1.125 0.1875 1.1375
1.1875 0.25 1.1375
1.1875 0.1875 1.1375
1.25 0.25 1.1375
1.1875 0.1875 1.2
1.25 0.1875 1.2
1.1875 0.25 1.2
1.25 0.1875 1.1375
1.3125 0.25 1.1375
1.3125 0.1875 1.1375
1.375 0.25 1.1375
1.3125 0.1875 1.2
1.375 0.1875 1.2
1.3125 0.25 1.2
1.375 0.1875 1.1375
1.4375 0.25 1.1375
1.4375 0.1875 1.1375
1.5 0.25 1.1375
1.4375 0.1875 1.2
1.5 0.1875 1.2
1.4375 0.25 1.2
1.5 0.1875 1.1375
1.5625 0.25 1.1375
1.5625 0.1875 1.1375
1.625 0.25 1.1375
1.5625 0.1875 1.2
1.625 0.1875 1.2
1.5625 0.25 1.2
1.625 0.1875 1.1375
1.6875 0.25 1.1375
1.6875 0.1875 1.1375
1.75 0.25 1.1375
1.6875 0.1875 1.2
1.75 0.1875 1.2
1.6875 0.25 1.2
1.75 0.1875 1.1375
1.8125 0.25 1.1375
1.8125 0.1875 1.1375
1.875 0.25 1.1375
1.8125 0.1875 1.2
1.875 0.1875 1.2
1.8125 0.25 1.2
1.875 0.1875 1.1375
1.9375 0.25 1.1375
1.9375 0.1875 1.1375
2 0.25 1.1375
1.9375 0.1875 1.2
2 0.1875 1.2
1.9375 0.25 1.2
2 0.1875 1.1375
2.0625 0.25 1.1375
2.0625 0.1875 1.1375
2.125 0.25 1.1375
2.0625 0.1875 1.2
2.125 0.1875 1.2
2.0625 0.25 1.2
2.125 0.1875 1.1375
2.1875 0.25 1.1375
2.1875 0.1875 1.1375
2.25 0.25 1.1375
2.1875 0.1875 1.2
2.25 0.1875 1.2
2.1875 0.25 1.2
2.25 0.1875 1.1375
2.3125 0.25 1.1375
2.3125 0.1875 1.1375
2.375 0.25 1.1375
2.3125 0.1875 1.2
2.375 0.1875 1.2
2.3125 0.25 1.2
2.375 0.1875 1.1375
2.4375 0.25 1.1375
2.4375 0.1875 1.1375
2.5 0.25 1.1375
2.4375 0.1875 1.2
2.5 0.1875 1.2
2.4375 0.25 1.2
2.5 0.1875 1.1375
2.5625 0.25 1.1375
2.5625 0.1875 1.1375
2.625 0.25 1.1375
2.5625 0.1875 1.2
2.625 0.1875 1.2
2.5625 0.25 1.2
2.625 0.1875 1.1375
2.6875 0.25 1.1375
2.6875 0.1875 1.1375
2.75 0.25 1.1375
2.6875 0.1875 1.2
2.75 0.1875 1.2
2.6875 0.25 1.2
2.75 0.1875 1.1375
2.8125 0.25 1.1375
2.8125 0.1875 1.1375
2.875 0.25 1.1375
2.8125 0.1875 1.2
2.875 0.1875 1.2
2.8125 0.25 1.2
2.875 0.1875 1.1375
2.9375 0.25 1.1375
2.9375 0.1875 1.1375
3 0.25 1.1375
2.9375 0.1875 1.2
3 0.1875 1.2
2.9375 0.25 1.2
3 0.1875 1.1375
3.0625 0.25 1.1375
3.0625 0.1875 1.1375
3.125 0.25 1.1375
3.0625 0.1875 1.2
3.125 0.1875 1.2
3.0625 0.25 1.2
3.125 0.1875 1.1375
3.1875 0.25 1.1375
3.1875 0.1875 1.1375
3.25 0.25 1.1375
3.1875 0.1875 1.2
3.25 0.1875 1.2
3.1875 0.25 1.2
3.25 0.1875 1.1375
3.3125 0.25 1.1375
3.3125 0.1875 1.1375
3.375 0.25 1.1375
3.3125 0.1875 1.2
3.375 0.1875 1.2
3.3125 0.25 1.2
3.375 0.1875 1.1375
3.4375 0.25 1.1375
3.4375 0.1875 1.1375
3.5 0.25 1.1375
3.4375 0.1875 1.2
3.5 0.1875 1.2
3.4375 0.25 1.2
3.5 0.1875 1.1375
3.5625 0.25 1.1375
3.5625 0.1875 1.1375
3.625 0.25 1.1375
3.5625 0.1875 1.2
3.625 0.1875 1.2
3.5625 0.25 1.2
3.625 0.1875 1.1375
3.6875 0.25 1.1375
3.6875 0.1875 1.1375
3.75 0.25 1.1375
3.6875 0.1875 1.2
3.75 0.1875 1.2
3.6875 0.25 1.2
3.75 0.1875 1.1375
3.8125 0.25 1.1375
3.8125 0.1875 1.1375
3.875 0.25 1.1375
3.8125 0.1875 1.2
3.875 0.1875 1.2
3.8125 0.25 1.2
3.875 0.1875 1.1375
3.9375 0.25 1.1375
3.9375 0.1875 1.1375
4 0.25 1.1375
3.9375 0.1875 1.2
4 0.1875 1.2
3.9375 0.25 1.2
4 0.1875 1.1375
0.0625 0.375 1.1375
0.0625 0.3125 1.1375
0.125 0.375 1.1375
0.0625 0.3125 1.2
0.125 0.3125 1.2
0 0.375 1.1375
0 0.3125 1.1375
0.0625 0.375 1.2
0 0.3125 1.2
0.125 0.3125 1.1375
0.1875 0.375 1.1375
0.1875 0.3125 1.1375
0.25 0.375 1.1375
0.1875 0.3125 1.2
0.25 0.3125 1.2
0.1875 0.375 1.2
0.25 0.3125 1.1375
0.3125 0.375 1.1375
0.3125 0.3125 1.1375
0.375 0.375 1.1375
0.3125 0.3125 1.2
0.375 0.3125 1.2
0.3125 0.375 1.2
0.375 0.3125 1.1375
0.4375 0.375 1.1375
0.4375 0.3125 1.1375
0.5 0.375 1.1375
0.4375 0.3125 1.2
0.5 0.3125 1.2
0.4375 0.375 1.2
0.5 0.3125 1.1375
0.5625 0.375 1.1375
0.5625 0.3125 1.1375
0.625 0.375 1.1375
0.5625 0.3125 1.2
0.625 0.3125 1.2
0.5625 0.375 1.2
0.625 0.3125 1.1375
0.6875 0.375 1.1375
0.6875 0.3125 1.1375
0.75 0.375 1.1375
0.6875 0.3125 1.2
0.75 0.3125 1.2
0.6875 0.375 1.2
0.75 0.3125 1.1375
0.8125 0.375 1.1375
0.8125 0.3125 1.1375
0.875 0.375 1.1375
0.8125 0.3125 1.2
0.875 0.3125 1.2
0.8125 0.375 1.2
0.875 0.3125 1.1375
0.9375 0.375 1.1375
0.9375 0.3125 1.1375
1 0.375 1.1375
0.9375 0.3125 1.2
1 0.3125 1.2
0.9375 0.375 1.2
1 0.3125 1.1375
1.0625 0.375 1.1375
1.0625 0.3125 1.1375
1.125 0.375 1.1375
1.0625 0.3125 1.2
1.125 0.3125 1.2
1.0625 0.375 1.2
1.125 0.3125 1.1375
1.1875 0.375 1.1375
1.1875 0.3125 1.1375
1.25 0.375 1.1375
1.1875 0.3125 1.2
1.25 0.3125 1.2
1.1875 0.375 1.2
1.25 0.3125 1.1375
1.3125 0.375 1.1375
1.3125 0.3125 1.1375
1.375 0.375 1.1375
1.3125 0.3125 1.2
1.375 0.3125 1.2
1.3125 0.375 1.2
1.375 0.3125 1.1375
1.4375 0.375 1.1375
1.4375 0.3125 1.1375
1.5 0.375 1.1375
1.4375 0.3125 1.2
1.5 0.3125 1.2
1.4375 0.375 1.2
1.5 0.3125 1.1375
1.5625 0.375 1.1375
1.5625 0.3125 1.1375
1.625 0.375 1.1375
1.5625 0.3125 1.2
1.625 0.3125 1.2
1.5625 0.375 1.2
1.625 0.3125 1.1375
1.6875 0.375 1.1375
1.6875 0.3125 1.1375
1.75 0.375 1.1375
1.6875 0.3125 1.2
1.75 0.3125 1.2
1.6875 0.375 1.2
1.75 0.3125 1.1375
1.8125 0.375 1.1375
1.8125 0.3125 1.1375
1.875 0.375 1.1375
1.8125 0.3125 1.2
1.875 0.3125 1.2
1.8125 0.375 1.2
1.875 0.3125 1.1375
1.9375 0.375 1.1375
1.9375 0.3125 1.1375
2 0.375 1.1375
1.9375 0.3125 1.2
2 0.3125 1.2
1.9375 0.375 1.2
2 0.3125 1.1375
2.0625 0.375 1.1375
2.0625 0.3125 1.1375
2.125 0.375 1.1375
2.0625 0.3125 1.2
2.125 0.3125 1.2
2.0625 0.375 1.2
2.125 0.3125 1.1375
2.1875 0.375 1.1375
2.1875 0.3125 1.1375
2.25 0.375 1.1375
2.1875 0.3125 1.2
2.25 0.3125 1.2
2.1875 0.375 1.2
2.25 0.3125 1.1375
2.3125 0.375 1.1375
2.3125 0.3125 1.1375
2.375 0.375 1.1375
2.3125 0.3125 1.2
2.375 0.3125 1.2
2.3125 0.375 1.2
2.375 0.3125 1.1375
2.4375 0.375 1.1375
2.4375 0.3125 1.1375
2.5 0.375 1.1375
2.4375 0.3125 1.2
2.5 0.3125 1.2
2.4375 0.375 1.2
2.5 0.3125 1.1375
2.5625 0.375 1.1375
2.5625 0.3125 1.1375
2.625 0.375 1.1375
2.5625 0.3125 1.2
2.625 0.3125 1.2
2.5625 0.375 1.2
2.625 0.3125 1.1375
2.6875 0.375 1.1375
2.6875 0.3125 1.1375
2.75 0.375 1.1375
2.6875 0.3125 1.2
2.75 0.3125 1.2
2.6875 0.375 1.2
2.75 0.3125 1.1375
2.8125 0.375 1.1375
2.8125 0.3125 1.1375
2.875 0.375 1.1375
2.8125 0.3125 1.2
2.875 0.3125 1.2
2.8125 0.375 1.2
2.875 0.3125 1.1375
2.9375 0.375 1.1375
2.9375 0.3125 1.1375
3 0.375 1.1375
2.9375 0.3125 1.2
3 0.3125 1.2
2.9375 0.375 1.2
3 0.3125 1.1375
3.0625 0.375 1.1375
3.0625 0.3125 1.1375
3.125 0.375 1.1375
3.0625 0.3125 1.2
3.125 0.3125 1.2
3.0625 0.375 1.2
3.125 0.3125 1.1375
3.1875 0.375 1.1375
3.1875 0.3125 1.1375
3.25 0.375 1.1375
3.1875 0.3125 1.2
3.25 0.3125 1.2
3.1875 0.375 1.2
3.25 0.3125 1.1375
3.3125 0.375 1.1375
3.3125 0.3125 1.1375
3.375 0.375 1.1375
3.3125 0.3125 1.2
3.375 0.3125 1.2
3.3125 0.375 1.2
3.375 0.3125 1.1375
3.4375 0.375 1.1375
3.4375 0.3125 1.1375
3.5 0.375 1.1375
3.4375 0.3125 1.2
3.5 0.3125 1.2
3.4375 0.375 1.2
3.5 0.3125 1.1375
3.5625 0.375 1.1375
3.5625 0.3125 1.1375
3.625 0.375 1.1375
3.5625 0.3125 1.2
3.625 0.3125 1.2
3.5625 0.375 1.2
3.625 0.3125 1.1375
3.6875 0.375 1.1375
3.6875 0.3125 1.1375
3.75 0.375 1.1375
3.6875 0.3125 1.2
3.75 0.3125 1.2
3.6875 0.375 1.2
3.75 0.3125 1.1375
3.8125 0.375 1.1375
3.8125 0.3125 1.1375
3.875 0.375 1.1375
3.8125 0.3125 1.2
3.875 0.3125 1.2
3.8125 0.375 1.2
3.875 0.3125 1.1375
3.9375 0.375 1.1375
3.9375 0.3125 1.1375
4 0.375 1.1375
3.9375 0.3125 1.2
4 0.3125 1.2
3.9375 0.375 1.2
4 0.3125 1.1375
0.0625 0.5 1.1375
0.0625 0.4375 1.1375
0.125 0.5 1.1375
0.0625 0.4375 1.2
0.125 0.4375 1.2
0 0.5 1.1375
0 0.4375 1.1375
0.0625 0.5 1.2
0 0.4375 1.2
0.125 0.4375 1.1375
0.1875 0.5 1.1375
0.1875 0.4375 1.1375
0.25 0.5 1.1375
0.1875 0.4375 1.2
0.25 0.4375 1.2
0.1875 0.5 1.2
0.25 0.4375 1.1375
0.3125 0.5 1.1375
0.3125 0.4375 1.1375
0.375 0.5 1.1375
0.3125 0.4375 1.2
0.375 0.4375 1.2
0.3125 0.5 1.2
0.375 0.4375 1.1375
0.4375 0.5 1.1375
0.4375 0.4375 1.1375
0.5 0.5 1.1375
0.4375 0.4375 1.2
0.5 0.4375 1.2
0.4375 0.5 1.2
0.5 0.4375 1.1375
0.5625 0.5 1.1375
0.5625 0.4375 1.1375
0.625 0.5 1.1375
0.5625 0.4375 1.2
0.625 0.4375 1.2
0.5625 0.5 1.2
0.625 0.4375 1.1375
0.6875 0.5 1.1375
0.6875 0.4375 1.1375
0.75 0.5 1.1375
0.6875 0.4375 1.2
0.75 0.4375 1.2
0.6875 0.5 1.2
0.75 0.4375 1.1375
0.8125 0.5 1.1375
0.8125 0.4375 1.1375
0.875 0.5 1.1375
0.8125 0.4375 1.2
0.875 0.4375 1.2
0.8125 0.5 1.2
0.875 0.4375 1.1375
0.9375 0.5 1.1375
0.9375 0.4375 1.1375
1 0.5 1.1375
0.9375 0.4375 1.2
1 0.4375 1.2
0.9375 0.5 1.2
1 0.4375 1.1375
1.0625 0.5 1.1375
1.0625 0.4375 1.1375
1.125 0.5 1.1375
1.0625 0.4375 1.2
1.125 0.4375 1.2
1.0625 0.5 1.2
1.125 0.4375 1.1375
1.1875 0.5 1.1375
1.1875 0.4375 1.1375
1.25 0.5 1.1375
1.1875 0.4375 1.2
1.25 0.4375 1.2
1.1875 0.5 1.2
1.25 0.4375 1.1375
1.3125 0.5 1.1375
1.3125 0.4375 1.1375
1.375 0.5 1.1375
1.3125 0.4375 1.2
1.375 0.4375 1.2
1.3125 0.5 1.2
1.375 0.4375 1.1375
1.4375 0.5 1.1375
1.4375 0.4375 1.1375
1.5 0.5 1.1375
1.4375 0.4375 1.2
1.5 0.4375 1.2
1.4375 0.5 1.2
1.5 0.4375 1.1375
1.5625 0.5 1.1375
1.5625 0.4375 1.1375
1.625 0.5 1.1375
1.5625 0.4375 1.2
1.625 0.4375 1.2
1.5625 0.5 1.2
1.625 0.4375 1.1375
1.6875 0.5 1.1375
1.6875 0.4375 1.1375
1.75 0.5 1.1375
1.6875 0.4375 1.2
1.75 0.4375 1.2
1.6875 0.5 1.2
1.75 0.4375 1.1375
1.8125 0.5 1.1375
1.8125 0.4375 1.1375
1.875 0.5 1.1375
1.8125 0.4375 1.2
1.875 0.4375 1.2
1.8125 0.5 1.2
1.875 0.4375 1.1375
1.9375 0.5 1.1375
1.9375 0.4375 1.1375
2 0.5 1.1375
1.9375 0.4375 1.2
2 0.4375 1.2
1.9375 0.5 1.2
2 0.4375 1.1375
2.0625 0.5 1.1375
2.0625 0.4375 1.1375
2.125 0.5 1.1375
2.0625 0.4375 1.2
2.125 0.4375 1.2
2.0625 0.5 1.2
2.125 0.4375 1.1375
2.1875 0.5 1.1375
2.1875 0.4375 1.1375
2.25 0.5 1.1375
2.1875 0.4375 1.2
2.25 0.4375 1.2
2.1875 0.5 1.2
2.25 0.4375 1.1375
2.3125 0.5 1.1375
2.3125 0.4375 1.1375
2.375 0.5 1.1375
2.3125 0.4375 1.2
2.375 0.4375 1.2
2.3125 0.5 1.2
2.375 0.4375 1.1375
2.4375 0.5 1.1375
2.4375 0.4375 1.1375
2.5 0.5 1.1375
2.4375 0.4375 1.2
2.5 0.4375 1.2
2.4375 0.5 1.2
2.5 0.4375 1.1375
2.5625 0.5 1.1375
2.5625 0.4375 1.1375
2.625 0.5 1.1375
2.5625 0.4375 1.2
2.625 0.4375 1.2
2.5625 0.5 1.2
2.625 0.4375 1.1375
2.6875 0.5 1.1375
2.6875 0.4375 1.1375
2.75 0.5 1.1375
2.6875 0.4375 1.2
2.75 0.4375 1.2
2.6875 0.5 1.2
2.75 0.4375 1.1375
2.8125 0.5 1.1375
2.8125 0.4375 1.1375
2.875 0.5 1.1375
2.8125 0.4375 1.2
2.875 0.4375 1.2
2.8125 0.5 1.2
2.875 0.4375 1.1375
2.9375 0.5 1.1375
2.9375 0.4375 1.1375
3 0.5 1.1375
2.9375 0.4375 1.2
3 0.4375 1.2
2.9375 0.5 1.2
3 0.4375 1.1375
3.0625 0.5 1.1375
3.0625 0.4375 1.1375
3.125 0.5 1.1375
3.0625 0.4375 1.2
3.125 0.4375 1.2
3.0625 0.5 1.2
3.125 0.4375 1.1375
3.1875 0.5 1.1375
3.1875 0.4375 1.1375
3.25 0.5 1.1375
3.1875 0.4375 1.2
3.25 0.4375 1.2
3.1875 0.5 1.2
3.25 0.4375 1.1375
3.3125 0.5 1.1375
3.3125 0.4375 1.1375
3.375 0.5 1.1375
3.3125 0.4375 1.2
3.375 0.4375 1.2
3.3125 0.5 1.2
3.375 0.4375 1.1375
3.4375 0.5 1.1375
3.4375 0.4375 1.1375
3.5 0.5 1.1375
3.4375 0.4375 1.2
3.5 0.4375 1.2
3.4375 0.5 1.2
3.5 0.4375 1.1375
3.5625 0.5 1.1375
3.5625 0.4375 1.1375
3.625 0.5 1.1375
3.5625 0.4375 1.2
3.625 0.4375 1.2
3.5625 0.5 1.2
3.625 0.4375 1.1375
3.6875 0.5 1.1375
3.6875 0.4375 1.1375
3.75 0.5 1.1375
3.6875 0.4375 1.2
3.75 0.4375 1.2
3.6875 0.5 1.2
3.75 0.4375 1.1375
3.8125 0.5 1.1375
3.8125 0.4375 1.1375
3.875 0.5 1.1375
3.8125 0.4375 1.2
3.875 0.4375 1.2
3.8125 0.5 1.2
3.875 0.4375 1.1375
3.9375 0.5 1.1375
3.9375 0.4375 1.1375
4 0.5 1.1375
3.9375 0.4375 1.2
4 0.4375 1.2
3.9375 0.5 1.2
4 0.4375 1.1375
0.0625 0.625 1.1375
0.0625 0.5625 1.1375
0.125 0.625 1.1375
0.0625 0.5625 1.2
0.125 0.5625 1.2
0 0.625 1.1375
0 0.5625 1.1375
0.0625 0.625 1.2
0 0.5625 1.2
0.125 0.5625 1.1375
0.1875 0.625 1.1375
0.1875 0.5625 1.1375
0.25 0.625 1.1375
0.1875 0.5625 1.2
0.25 0.5625 1.2
0.1875 0.625 1.2
0.25 0.5625 1.1375
0.3125 0.625 1.1375
0.3125 0.5625 1.1375
0.375 0.625 1.1375
0.3125 0.5625 1.2
0.375 0.5625 1.2
0.3125 0.625 1.2
0.375 0.5625 1.1375
0.4375 0.625 1.1375
0.4375 0.5625 1.1375
0.5 0.625 1.1375
0.4375 0.5625 1.2
0.5 0.5625 1.2
0.4375 0.625 1.2
0.5 0.5625 1.1375
0.5625 0.625 1.1375
0.5625 0.5625 1.1375
0.625 0.625 1.1375
0.5625 0.5625 1.2
0.625 0.5625 1.2
0.5625 0.625 1.2
0.625 0.5625 1.1375
0.6875 0.625 1.1375
0.6875 0.5625 1.1375
0.75 0.625 1.1375
0.6875 0.5625 1.2
0.75 0.5625 1.2
0.6875 0.625 1.2
0.75 0.5625 1.1375
0.8125 0.625 1.1375
0.8125 0.5625 1.1375
0.875 0.625 1.1375
0.8125 0.5625 1.2
0.875 0.5625 1.2
0.8125 0.625 1.2
0.875 0.5625 1.1375
0.9375 0.625 1.1375
0.9375 0.5625 1.1375
1 0.625 1.1375
0.9375 0.5625 1.2
1 0.5625 1.2
0.9375 0.625 1.2
1 0.5625 1.1375
1.0625 0.625 1.1375
1.0625 0.5625 1.1375
1.125 0.625 1.1375
1.0625 0.5625 1.2
1.125 0.5625 1.2
1.0625 0.625 1.2
1.125 0.5625 1.1375
1.1875 0.625 1.1375
1.1875 0.5625 1.1375
1.25 0.625 1.1375
1.1875 0.5625 1.2
1.25 0.5625 1.2
1.1875 0.625 1.2
1.25 0.5625 1.1375
1.3125 0.625 1.1375
1.3125 0.5625 1.1375
1.375 0.625 1.1375
1.3125 0.5625 1.2
1.375 0.5625 1.2
1.3125 0.625 1.2
1.375 0.5625 1.1375
1.4375 0.625 1.1375
1.4375 0.5625 1.1375
1.5 0.625 1.1375
1.4375 0.5625 1.2
1.5 0.5625 1.2
1.4375 0.625 1.2
1.5 0.5625 1.1375
1.5625 0.625 1.1375
1.5625 0.5625 1.1375
1.625 0.625 1.1375
1.5625 0.5625 1.2
1.625 0.5625 1.2
1.5625 0.625 1.2
1.625 0.5625 1.1375
1.6875 0.625 1.1375
1.6875 0.5625 1.1375
1.75 0.625 1.1375
1.6875 0.5625 1.2
1.75 0.5625 1.2
1.6875 0.625 1.2
1.75 0.5625 1.1375
1.8125 0.625 1.1375
1.8125 0.5625 1.1375
1.875 0.625 1.1375
1.8125 0.5625 1.2
1.875 0.5625 1.2
1.8125 0.625 1.2
1.875 0.5625 1.1375
1.9375 0.625 1.1375
1.9375 0.5625 1.1375
2 0.625 1.1375
1.9375 0.5625 1.2
2 0.5625 1.2
1.9375 0.625 1.2
2 0.5625 1.1375
2.0625 0.625 1.1375
2.0625 0.5625 1.1375
2.125 0.625 1.1375
2.0625 0.5625 1.2
2.125 0.5625 1.2
2.0625 0.625 1.2
2.125 0.5625 1.1375
2.1875 0.625 1.1375
2.1875 0.5625 1.1375
2.25 0.625 1.1375
2.1875 0.5625 1.2
2.25 0.5625 1.2
2.1875 0.625 1.2
2.25 0.5625 1.1375
2.3125 0.625 1.1375
2.3125 0.5625 1.1375
2.375 0.625 1.1375
2.3125 0.5625 1.2
2.375 0.5625 1.2
2.3125 0.625 1.2
2.375 0.5625 1.1375
2.4375 0.625 1.1375
2.4375 0.5625 1.1375
2.5 0.625 1.1375
2.4375 0.5625 1.2
2.5 0.5625 1.2
2.4375 0.625 1.2
2.5 0.5625 1.1375
2.5625 0.625 1.1375
2.5625 0.5625 1.1375
2.625 0.625 1.1375
2.5625 0.5625 1.2
2.625 0.5625 1.2
2.5625 0.625 1.2
2.625 0.5625 1.1375
2.6875 0.625 1.1375
2.6875 0.5625 1.1375
2.75 0.625 1.1375
2.6875 0.5625 1.2
2.75 0.5625 1.2
2.6875 0.625 1.2
2.75 0.5625 1.1375
2.8125 0.625 1.1375
2.8125 0.5625 1.1375
2.875 0.625 1.1375
2.8125 0.5625 1.2
2.875 0.5625 1.2
2.8125 0.625 1.2
2.875 0.5625 1.1375
2.9375 0.625 1.1375
2.9375 0.5625 1.1375
3 0.625 1.1375
2.9375 0.5625 1.2
3 0.5625 1.2
2.9375 0.625 1.2
3 0.5625 1.1375
3.0625 0.625 1.1375
3.0625 0.5625 1.1375
3.125 0.625 1.1375
3.0625 0.5625 1.2
3.125 0.5625 1.2
3.0625 0.625 1.2
3.125 0.5625 1.1375
3.1875 0.625 1.1375
3.1875 0.5625 1.1375
3.25 0.625 1.1375
3.1875 0.5625 1.2
3.25 0.5625 1.2
3.1875 0.625 1.2
3.25 0.5625 1.1375
3.3125 0.625 1.1375
3.3125 0.5625 1.1375
3.375 0.625 1.1375
3.3125 0.5625 1.2
3.375 0.5625 1.2
3.3125 0.625 1.2
3.375 0.5625 1.1375
3.4375 0.625 1.1375
3.4375 0.5625 1.1375
3.5 0.625 1.1375
3.4375 0.5625 1.2
3.5 0.5625 1.2
3.4375 0.625 1.2
3.5 0.5625 1.1375
3.5625 0.625 1.1375
3.5625 0.5625 1.1375
3.625 0.625 1.1375
3.5625 0.5625 1.2
3.625 0.5625 1.2
3.5625 0.625 1.2
3.625 0.5625 1.1375
3.6875 0.625 1.1375
3.6875 0.5625 1.1375
3.75 0.625 1.1375
3.6875 0.5625 1.2
3.75 0.5625 1.2
3.6875 0.625 1.2
3.75 0.5625 1.1375
3.8125 0.625 1.1375
3.8125 0.5625 1.1375
3.875 0.625 1.1375
3.8125 0.5625 1.2
3.875 0.5625 1.2
3.8125 0.625 1.2
3.875 0.5625 1.1375
3.9375 0.625 1.1375
3.9375 0.5625 1.1375
4 0.625 1.1375
3.9375 0.5625 1.2
4 0.5625 1.2
3.9375 0.625 1.2
4 0.5625 1.1375
0.0625 0.75 1.1375
0.0625 0.6875 1.1375
0.125 0.75 1.1375
0.0625 0.6875 1.2
0.125 0.6875 1.2
0 0.75 1.1375
0 0.6875 1.1375
0.0625 0.75 1.2
0 0.6875 1.2
0.125 0.6875 1.1375
0.1875 0.75 1.1375
0.1875 0.6875 1.1375
0.25 0.75 1.1375
0.1875 0.6875 1.2
0.25 0.6875 1.2
0.1875 0.75 1.2
0.25 0.6875 1.1375
0.3125 0.75 1.1375
0.3125 0.6875 1.1375
0.375 0.75 1.1375
0.3125 0.6875 1.2
0.375 0.6875 1.2
0.3125 0.75 1.2
0.375 0.6875 1.1375
0.4375 0.75 1.1375
0.4375 0.6875 1.1375
0.5 0.75 1.1375
0.4375 0.6875 1.2
0.5 0.6875 1.2
0.4375 0.75 1.2
0.5 0.6875 1.1375
0.5625 0.75 1.1375
0.5625 0.6875 1.1375
0.625 0.75 1.1375
0.5625 0.6875 1.2
0.625 0.6875 1.2
0.5625 0.75 1.2
0.625 0.6875 1.1375
0.6875 0.75 1.1375
0.6875 0.6875 1.1375
0.75 0.75 1.1375
0.6875 0.6875 1.2
0.75 0.6875 1.2
0.6875 0.75 1.2
0.75 0.6875 1.1375
0.8125 0.75 1.1375
0.8125 0.6875 1.1375
0.875 0.75 1.1375
0.8125 0.6875 1.2
0.875 0.6875 1.2
0.8125 0.75 1.2
0.875 0.6875 1.1375
0.9375 0.75 1.1375
0.9375 0.6875 1.1375
1 0.75 1.1375
0.9375 0.6875 1.2
1 0.6875 1.2
0.9375 0.75 1.2
1 0.6875 1.1375
1.0625 0.75 1.1375
1.0625 0.6875 1.1375
1.125 0.75 1.1375
1.0625 0.6875 1.2
1.125 0.6875 1.2
1.0625 0.75 1.2
1.125 0.6875 1.1375
1.1875 0.75 1.1375
1.1875 0.6875 1.1375
1.25 0.75 1.1375
1.1875 0.6875 1.2
1.25 0.6875 1.2
1.1875 0.75 1.2
1.25 0.6875 1.1375
1.3125 0.75 1.1375
1.3125 0.6875 1.1375
1.375 0.75 1.1375
1.3125 0.6875 1.2
1.375 0.6875 1.2
1.3125 0.75 1.2
1.375 0.6875 1.1375
1.4375 0.75 1.1375
1.4375 0.6875 1.1375
1.5 0.75 1.1375
1.4375 0.6875 1.2
1.5 0.6875 1.2
1.4375 0.75 1.2
1.5 0.6875 1.1375
1.5625 0.75 1.1375
1.5625 0.6875 1.1375
1.625 0.75 1.1375
1.5625 0.6875 1.2
1.625 0.6875 1.2
1.5625 0.75 1.2
1.625 0.6875 1.1375
1.6875 0.75 1.1375
1.6875 0.6875 1.1375
1.75 0.75 1.1375
1.6875 0.6875 1.2
1.75 0.6875 1.2
1.6875 0.75 1.2
1.75 0.6875 1.1375
1.8125 0.75 1.1375
1.8125 0.6875 1.1375
1.875 0.75 1.1375
1.8125 0.6875 1.2
1.875 0.6875 1.2
1.8125 0.75 1.2
1.875 0.6875 1.1375
1.9375 0.75 1.1375
1.9375 0.6875 1.1375
2 0.75 1.1375
1.9375 0.6875 1.2
2 0.6875 1.2
1.9375 0.75 1.2
2 0.6875 1.1375
2.0625 0.75 1.1375
2.0625 0.6875 1.1375
2.125 0.75 1.1375
2.0625 0.6875 1.2
2.125 0.6875 1.2
2.0625 0.75 1.2
2.125 0.6875 1.1375
2.1875 0.75 1.1375
2.1875 0.6875 1.1375
2.25 0.75 1.1375
2.1875 0.6875 1.2
2.25 0.6875 1.2
2.1875 0.75 1.2
2.25 0.6875 1.1375
2.3125 0.75 1.1375
2.3125 0.6875 1.1375
2.375 0.75 1.1375
2.3125 0.6875 1.2
2.375 0.6875 1.2
2.3125 0.75 1.2
2.375 0.6875 1.1375
2.4375 0.75 1.1375
2.4375 0.6875 1.1375
2.5 0.75 1.1375
2.4375 0.6875 1.2
2.5 0.6875 1.2
2.4375 0.75 1.2
2.5 0.6875 1.1375
2.5625 0.75 1.1375
2.5625 0.6875 1.1375
2.625 0.75 1.1375
2.5625 0.6875 1.2
2.625 0.6875 1.2
2.5625 0.75 1.2
2.625 0.6875 1.1375
2.6875 0.75 1.1375
2.6875 0.6875 1.1375
2.75 0.75 1.1375
2.6875 0.6875 1.2
2.75 0.6875 1.2
2.6875 0.75 1.2
2.75 0.6875 1.1375
2.8125 0.75 1.1375
2.8125 0.6875 1.1375
2.875 0.75 1.1375
2.8125 0.6875 1.2
2.875 0.6875 1.2
2.8125 0.75 1.2
2.875 0.6875 1.1375
2.9375 0.75 1.1375
2.9375 0.6875 1.1375
3 0.75 1.1375
2.9375 0.6875 1.2
3 0.6875 1.2
2.9375 0.75 1.2
3 0.6875 1.1375
3.0625 0.75 1.1375
3.0625 0.6875 1.1375
3.125 0.75 1.1375
3.0625 0.6875 1.2
3.125 0.6875 1.2
3.0625 0.75 1.2
3.125 0.6875 1.1375
3.1875 0.75 1.1375
3.1875 0.6875 1.1375
3.25 0.75 1.1375
3.1875 0.6875 1.2
3.25 0.6875 1.2
3.1875 0.75 1.2
3.25 0.6875 1.1375
3.3125 0.75 1.1375
3.3125 0.6875 1.1375
3.375 0.75 1.1375
3.3125 0.6875 1.2
3.375 0.6875 1.2
3.3125 0.75 1.2
3.375 0.6875 1.1375
3.4375 0.75 1.1375
3.4375 0.6875 1.1375
3.5 0.75 1.1375
3.4375 0.6875 1.2
3.5 0.6875 1.2
3.4375 0.75 1.2
3.5 0.6875 1.1375
3.5625 0.75 1.1375
3.5625 0.6875 1.1375
3.625 0.75 1.1375
3.5625 0.6875 1.2
3.625 0.6875 1.2
3.5625 0.75 1.2
3.625 0.6875 1.1375
3.6875 0.75 1.1375
3.6875 0.6875 1.1375
3.75 0.75 1.1375
3.6875 0.6875 1.2
3.75 0.6875 1.2
3.6875 0.75 1.2
3.75 0.6875 1.1375
3.8125 0.75 1.1375
3.8125 0.6875 1.1375
3.875 0.75 1.1375
3.8125 0.6875 1.2
3.875 0.6875 1.2
3.8125 0.75 1.2
3.875 0.6875 1.1375
3.9375 0.75 1.1375
3.9375 0.6875 1.1375
4 0.75 1.1375
3.9375 0.6875 1.2
4 0.6875 1.2
3.9375 0.75 1.2
4 0.6875 1.1375
0.0625 0.875 1.1375
0.0625 0.8125 1.1375
0.125 0.875 1.1375
0.0625 0.8125 1.2
0.125 0.8125 1.2
0 0.875 1.1375
0 0.8125 1.1375
0.0625 0.875 1.2
0 0.8125 1.2
0.125 0.8125 1.1375
0.1875 0.875 1.1375
0.1875 0.8125 1.1375
0.25 0.875 1.1375
0.1875 0.8125 1.2
0.25 0.8125 1.2
0.1875 0.875 1.2
0.25 0.8125 1.1375
0.3125 0.875 1.1375
0.3125 0.8125 1.1375
0.375 0.875 1.1375
0.3125 0.8125 1.2
0.375 0.8125 1.2
0.3125 0.875 1.2
0.375 0.8125 1.1375
0.4375 0.875 1.1375
0.4375 0.8125 1.1375
0.5 0.875 1.1375
0.4375 0.8125 1.2
0.5 0.8125 1.2
0.4375 0.875 1.2
0.5 0.8125 1.1375
0.5625 0.875 1.1375
0.5625 0.8125 1.1375
0.625 0.875 1.1375
0.5625 0.8125 1.2
0.625 0.8125 1.2
0.5625 0.875 1.2
0.625 0.8125 1.1375
0.6875 0.875 1.1375
0.6875 0.8125 1.1375
0.75 0.875 1.1375
0.6875 0.8125 1.2
0.75 0.8125 1.2
0.6875 0.875 1.2
0.75 0.8125 1.1375
0.8125 0.875 1.1375
0.8125 0.8125 1.1375
0.875 0.875 1.1375
0.8125 0.8125 1.2
0.875 0.8125 1.2
0.8125 0.875 1.2
0.875 0.8125 1.1375
0.9375 0.875 1.1375
0.9375 0.8125 1.1375
1 0.875 1.1375
0.9375 0.8125 1.2
1 0.8125 1.2
0.9375 0.875 1.2
1 0.8125 1.1375
1.0625 0.875 1.1375
1.0625 0.8125 1.1375
1.125 0.875 1.1375
1.0625 0.8125 1.2
1.125 0.8125 1.2
1.0625 0.875 1.2
1.125 0.8125 1.1375
1.1875 0.875 1.1375
1.1875 0.8125 1.1375
1.25 0.875 1.1375
1.1875 0.8125 1.2
1.25 0.8125 1.2
1.1875 0.875 1.2
1.25 0.8125 1.1375
1.3125 0.875 1.1375
1.3125 0.8125 1.1375
1.375 0.875 1.1375
1.3125 0.8125 1.2
1.375 0.8125 1.2
1.3125 0.875 1.2
1.375 0.8125 1.1375
1.4375 0.875 1.1375
1.4375 0.8125 1.1375
1.5 0.875 1.1375
1.4375 0.8125 1.2
1.5 0.8125 1.2
1.4375 0.875 1.2
1.5 0.8125 1.1375
1.5625 0.875 1.1375
1.5625 0.8125 1.1375
1.625 0.875 1.1375
1.5625 0.8125 1.2
1.625 0.8125 1.2
1.5625 0.875 1.2
1.625 0.8125 1.1375
1.6875 0.875 1.1375
1.6875 0.8125 1.1375
1.75 0.875 1.1375
1.6875 0.8125 1.2
1.75 0.8125 1.2
1.6875 0.875 1.2
1.75 0.8125 1.1375
1.8125 0.875 1.1375
1.8125 0.8125 1.1375
1.875 0.875 1.1375
1.8125 0.8125 1.2
1.875 0.8125 1.2
1.8125 0.875 1.2
1.875 0.8125 1.1375
1.9375 0.875 1.1375
1.9375 0.8125 1.1375
2 0.875 1.1375
1.9375 0.8125 1.2
2 0.8125 1.2
1.9375 0.875 1.2
2 0.8125 1.1375
2.0625 0.875 1.1375
2.0625 0.8125 1.1375
2.125 0.875 1.1375
2.0625 0.8125 1.2
2.125 0.8125 1.2
2.0625 0.875 1.2
2.125 0.8125 1.1375
2.1875 0.875 1.1375
2.1875 0.8125 1.1375
2.25 0.875 1.1375
2.1875 0.8125 1.2
2.25 0.8125 1.2
2.1875 0.875 1.2
2.25 0.8125 1.1375
2.3125 0.875 1.1375
2.3125 0.8125 1.1375
2.375 0.875 1.1375
2.3125 0.8125 1.2
2.375 0.8125 1.2
2.3125 0.875 1.2
2.375 0.8125 1.1375
2.4375 0.875 1.1375
2.4375 0.8125 1.1375
2.5 0.875 1.1375
2.4375 0.8125 1.2
2.5 0.8125 1.2
2.4375 0.875 1.2
2.5 0.8125 1.1375
2.5625 0.875 1.1375
2.5625 0.8125 1.1375
2.625 0.875 1.1375
2.5625 0.8125 1.2
2.625 0.8125 1.2
2.5625 0.875 1.2
2.625 0.8125 1.1375
2.6875 0.875 1.1375
2.6875 0.8125 1.1375
2.75 0.875 1.1375
2.6875 0.8125 1.2
2.75 0.8125 1.2
2.6875 0.875 1.2
2.75 0.8125 1.1375
2.8125 0.875 1.1375
2.8125 0.8125 1.1375
2.875 0.875 1.1375
2.8125 0.8125 1.2
2.875 0.8125 1.2
2.8125 0.875 1.2
2.875 0.8125 1.1375
2.9375 0.875 1.1375
2.9375 0.8125 1.1375
3 0.875 1.1375
2.9375 0.8125 1.2
3 0.8125 1.2
2.9375 0.875 1.2
3 0.8125 1.1375
3.0625 0.875 1.1375
3.0625 0.8125 1.1375
3.125 0.875 1.1375
3.0625 0.8125 1.2
3.125 0.8125 1.2
3.0625 0.875 1.2
3.125 0.8125 1.1375
3.1875 0.875 1.1375
3.1875 0.8125 1.1375
3.25 0.875 1.1375
3.1875 0.8125 1.2
3.25 0.8125 1.2
3.1875 0.875 1.2
3.25 0.8125 1.1375
3.3125 0.875 1.1375
3.3125 0.8125 1.1375
3.375 0.875 1.1375
3.3125 0.8125 1.2
3.375 0.8125 1.2
3.3125 0.875 1.2
3.375 0.8125 1.1375
3.4375 0.875 1.1375
3.4375 0.8125 1.1375
3.5 0.875 1.1375
3.4375 0.8125 1.2
3.5 0.8125 1.2
3.4375 0.875 1.2
3.5 0.8125 1.1375
3.5625 0.875 1.1375
3.5625 0.8125 1.1375
3.625 0.875 1.1375
3.5625 0.8125 1.2
3.625 0.8125 1.2
3.5625 0.875 1.2
3.625 0.8125 1.1375
3.6875 0.875 1.1375
3.6875 0.8125 1.1375
3.75 0.875 1.1375
3.6875 0.8125 1.2
3.75 0.8125 1.2
3.6875 0.875 1.2
3.75 0.8125 1.1375
3.8125 0.875 1.1375
3.8125 0.8125 1.1375
3.875 0.875 1.1375
3.8125 0.8125 1.2
3.875 0.8125 1.2
3.8125 0.875 1.2
3.875 0.8125 1.1375
3.9375 0.875 1.1375
3.9375 0.8125 1.1375
4 0.875 1.1375
3.9375 0.8125 1.2
4 0.8125 1.2
3.9375 0.875 1.2
4 0.8125 1.1375
0.0625 1 1.1375
0.0625 0.9375 1.1375
0.125 1 1.1375
0.0625 0.9375 1.2
0.125 0.9375 1.2
0 1 1.1375
0 0.9375 1.1375
0.0625 1 1.2
0 0.9375 1.2
0.125 0.9375 1.1375
0.1875 1 1.1375
0.1875 0.9375 1.1375
0.25 1 1.1375
0.1875 0.9375 1.2
0.25 0.9375 1.2
0.1875 1 1.2
0.25 0.9375 1.1375
0.3125 1 1.1375
0.3125 0.9375 1.1375
0.375 1 1.1375
0.3125 0.9375 1.2
0.375 0.9375 1.2
0.3125 1 1.2
0.375 0.9375 1.1375
0.4375 1 1.1375
0.4375 0.9375 1.1375
0.5 1 1.1375
0.4375 0.9375 1.2
0.5 0.9375 1.2
0.4375 1 1.2
0.5 0.9375 1.1375
0.5625 1 1.1375
0.5625 0.9375 1.1375
0.625 1 1.1375
0.5625 0.9375 1.2
0.625 0.9375 1.2
0.5625 1 1.2
0.625 0.9375 1.1375
0.6875 1 1.1375
0.6875 0.9375 1.1375
0.75 1 1.1375
0.6875 0.9375 1.2
0.75 0.9375 1.2
0.6875 1 1.2
0.75 0.9375 1.1375
0.8125 1 1.1375
0.8125 0.9375 1.1375
0.875 1 1.1375
0.8125 0.9375 1.2
0.875 0.9375 1.2
0.8125 1 1.2
0.875 0.9375 1.1375
0.9375 1 1.1375
0.9375 0.9375 1.1375
1 1 1.1375
0.9375 0.9375 1.2
1 0.9375 1.2
0.9375 1 1.2
1 0.9375 1.1375
1.0625 1 1.1375
1.0625 0.9375 1.1375
1.125 1 1.1375
1.0625 0.9375 1.2
1.125 0.9375 1.2
1.0625 1 1.2
1.125 0.9375 1.1375
1.1875 1 1.1375
1.1875 0.9375 1.1375
1.25 1 1.1375
1.1875 0.9375 1.2
1.25 0.9375 1.2
1.1875 1 1.2
1.25 0.9375 1.1375
1.3125 1 1.1375
1.3125 0.9375 1.1375
1.375 1 1.1375
1.3125 0.9375 1.2
1.375 0.9375 1.2
1.3125 1 1.2
1.375 0.9375 1.1375
1.4375 1 1.1375
1.4375 0.9375 1.1375
1.5 1 1.1375
1.4375 0.9375 1.2
1.5 0.9375 1.2
1.4375 1 1.2
1.5 0.9375 1.1375
1.5625 1 1.1375
1.5625 0.9375 1.1375
1.625 1 1.1375
1.5625 0.9375 1.2
1.625 0.9375 1.2
1.5625 1 1.2
1.625 0.9375 1.1375
1.6875 1 1.1375
1.6875 0.9375 1.1375
1.75 1 1.1375
1.6875 0.9375 1.2
1.75 0.9375 1.2
1.6875 1 1.2
1.75 0.9375 1.1375
1.8125 1 1.1375
1.8125 0.9375 1.1375
1.875 1 1.1375
1.8125 0.9375 1.2
1.875 0.9375 1.2
1.8125 1 1.2
1.875 0.9375 1.1375
1.9375 1 1.1375
1.9375 0.9375 1.1375
2 1 1.1375
1.9375 0.9375 1.2
2 0.9375 1.2
1.9375 1 1.2
2 0.9375 1.1375
2.0625 1 1.1375
2.0625 0.9375 1.1375
2.125 1 1.1375
2.0625 0.9375 1.2
2.125 0.9375 1.2
2.0625 1 1.2
2.125 0.9375 1.1375
2.1875 1 1.1375
2.1875 0.9375 1.1375
2.25 1 1.1375
2.1875 0.9375 1.2
2.25 0.9375 1.2
2.1875 1 1.2
2.25 0.9375 1.1375
2.3125 1 1.1375
2.3125 0.9375 1.1375
2.375 1 1.1375
2.3125 0.9375 1.2
2.375 0.9375 1.2
2.3125 1 1.2
2.375 0.9375 1.1375
2.4375 1 1.1375
2.4375 0.9375 1.1375
2.5 1 1.1375
2.4375 0.9375 1.2
2.5 0.9375 1.2
2.4375 1 1.2
2.5 0.9375 1.1375
2.5625 1 1.1375
2.5625 0.9375 1.1375
2.625 1 1.1375
2.5625 0.9375 1.2
2.625 0.9375 1.2
2.5625 1 1.2
2.625 0.9375 1.1375
2.6875 1 1.1375
2.6875 0.9375 1.1375
2.75 1 1.1375
2.6875 0.9375 1.2
2.75 0.9375 1.2
2.6875 1 1.2
2.75 0.9375 1.1375
2.8125 1 1.1375
2.8125 0.9375 1.1375
2.875 1 1.1375
2.8125 0.9375 1.2
2.875 0.9375 1.2
2.8125 1 1.2
2.875 0.9375 1.1375
2.9375 1 1.1375
2.9375 0.9375 1.1375
3 1 1.1375
2.9375 0.9375 1.2
3 0.9375 1.2
2.9375 1 1.2
3 0.9375 1.1375
3.0625 1 1.1375
3.0625 0.9375 1.1375
3.125 1 1.1375
3.0625 0.9375 1.2
3.125 0.9375 1.2
3.0625 1 1.2
3.125 0.9375 1.1375
3.1875 1 1.1375
3.1875 0.9375 1.1375
3.25 1 1.1375
3.1875 0.9375 1.2
3.25 0.9375 1.2
3.1875 1 1.2
3.25 0.9375 1.1375
3.3125 1 1.1375
3.3125 0.9375 1.1375
3.375 1 1.1375
3.3125 0.9375 1.2
3.375 0.9375 1.2
3.3125 1 1.2
3.375 0.9375 1.1375
3.4375 1 1.1375
3.4375 0.9375 1.1375
3.5 1 1.1375
3.4375 0.9375 1.2
3.5 0.9375 1.2
3.4375 1 1.2
3.5 0.9375 1.1375
3.5625 1 1.1375
3.5625 0.9375 1.1375
3.625 1 1.1375
3.5625 0.9375 1.2
3.625 0.9375 1.2
3.5625 1 1.2
3.625 0.9375 1.1375
3.6875 1 1.1375
3.6875 0.9375 1.1375
3.75 1 1.1375
3.6875 0.9375 1.2
3.75 0.9375 1.2
3.6875 1 1.2
3.75 0.9375 1.1375
3.8125 1 1.1375
3.8125 0.9375 1.1375
3.875 1 1.1375
3.8125 0.9375 1.2
3.875 0.9375 1.2
3.8125 1 1.2
3.875 0.9375 1.1375
3.9375 1 1.1375
3.9375 0.9375 1.1375
4 1 1.1375
3.9375 0.9375 1.2
4 0.9375 1.2
3.9375 1 1.2
4 0.9375 1.1375
0.0625 0.125 1.2625
0.0625 0.0625 1.2625
0.125 0.125 1.2625
0.0625 0.0625 1.325
0.125 0.0625 1.325
0.0625 0 1.325
0 0 1.2625
0.0625 0 1.2625
0 0.125 1.2625
0 0.0625 1.2625
0.0625 0.125 1.325
0 0.0625 1.325
0.125 0 1.2625
0.125 0.0625 1.2625
0.1875 0.125 1.2625
0.1875 0.0625 1.2625
0.25 0.125 1.2625
0.1875 0.0625 1.325
0.25 0.0625 1.325
0.1875 0 1.325
0.1875 0 1.2625
0.1875 0.125 1.325
0.25 0 1.2625
0.25 0.0625 1.2625
0.3125 0.125 1.2625
0.3125 0.0625 1.2625
0.375 0.125 1.2625
0.3125 0.0625 1.325
0.375 0.0625 1.325
0.3125 0 1.325
0.3125 0 1.2625
0.3125 0.125 1.325
0.375 0 1.2625
0.375 0.0625 1.2625
0.4375 0.125 1.2625
0.4375 0.0625 1.2625
0.5 0.125 1.2625
0.4375 0.0625 1.325
0.5 0.0625 1.325
0.4375 0 1.325
0.4375 0 1.2625
0.4375 0.125 1.325
0.5 0 1.2625
0.5 0.0625 1.2625
0.5625 0.125 1.2625
0.5625 0.0625 1.2625
0.625 0.125 1.2625
0.5625 0.0625 1.325
0.625 0.0625 1.325
0.5625 0 1.325
0.5625 0 1.2625
0.5625 0.125 1.325
0.625 0 1.2625
0.625 0.0625 1.2625
0.6875 0.125 1.2625
0.6875 0.0625 1.2625
0.75 0.125 1.2625
0.6875 0.0625 1.325
0.75 0.0625 1.325
0.6875 0 1.325
0.6875 0 1.2625
0.6875 0.125 1.325
0.75 0 1.2625
0.75 0.0625 1.2625
0.8125 0.125 1.2625
0.8125 0.0625 1.2625
0.875 0.125 1.2625
0.8125 0.0625 1.325
0.875 0.0625 1.325
0.8125 0 1.325
0.8125 0 1.2625
0.8125 0.125 1.325
0.875 0 1.2625
0.875 0.0625 1.2625
0.9375 0.125 1.2625
0.9375 0.0625 1.2625
1 0.125 1.2625
0.9375 0.0625 1.325
1 0.0625 1.325
0.9375 0 1.325
0.9375 0 1.2625
0.9375 0.125 1.325
1 0 1.2625
1 0.0625 1.2625
1.0625 0.125 1.2625
1.0625 0.0625 1.2625
1.125 0.125 1.2625
1.0625 0.0625 1.325
1.125 0.0625 1.325
1.0625 0 1.325
1.0625 0 1.2625
1.0625 0.125 1.325
1.125 0 1.2625
1.125 0.0625 1.2625
1.1875 0.125 1.2625
1.1875 0.0625 1.2625
1.25 0.125 1.2625
1.1875 0.0625 1.325
1.25 0.0625 1.325
1.1875 0 1.325
1.1875 0 1.2625
1.1875 0.125 1.325
1.25 0 1.2625
1.25 0.0625 1.2625
1.3125 0.125 1.2625
1.3125 0.0625 1.2625
1.375 0.125 1.2625
1.3125 0.0625 1.325
1.375 0.0625 1.325
1.3125 0 1.325
1.3125 0 1.2625
1.3125 0.125 1.325
1.375 0 1.2625
1.375 0.0625 1.2625
1.4375 0.125 1.2625
1.4375 0.0625 1.2625
1.5 0.125 1.2625
1.4375 0.0625 1.325
1.5 0.0625 1.325
1.4375 0 1.325
1.4375 0 1.2625
1.4375 0.125 1.325
1.5 0 1.2625
1.5 0.0625 1.2625
1.5625 0.125 1.2625
1.5625 0.0625 1.2625
1.625 0.125 1.2625
1.5625 0.0625 1.325
1.625 0.0625 1.325
1.5625 0 1.325
1.5625 0 1.2625
1.5625 0.125 1.325
1.625 0 1.2625
1.625 0.0625 1.2625
1.6875 0.125 1.2625
1.6875 0.0625 1.2625
1.75 0.125 1.2625
1.6875 0.0625 1.325
1.75 0.0625 1.325
1.6875 0 1.325
1.6875 0 1.2625
1.6875 0.125 1.325
1.75 0 1.2625
1.75 0.0625 1.2625
1.8125 0.125 1.2625
1.8125 0.0625 1.2625
1.875 0.125 1.2625
1.8125 0.0625 1.325
1.875 0.0625 1.325
1.8125 0 1.325
1.8125 0 1.2625
1.8125 0.125 1.325
1.875 0 1.2625
1.875 0.0625 1.2625
1.9375 0.125 1.2625
1.9375 0.0625 1.2625
2 0.125 1.2625
1.9375 0.0625 1.325
2 0.0625 1.325
1.9375 0 1.325
1.9375 0 1.2625
1.9375 0.125 1.325
2 0 1.2625
2 0.0625 1.2625
2.0625 0.125 1.2625
2.0625 0.0625 1.2625
2.125 0.125 1.2625
2.0625 0.0625 1.325
2.125 0.0625 1.325
2.0625 0 1.325
2.0625 0 1.2625
2.0625 0.125 1.325
2.125 0 1.2625
2.125 0.0625 1.2625
2.1875 0.125 1.2625
2.1875 0.0625 1.2625
2.25 0.125 1.2625
2.1875 0.0625 1.325
2.25 0.0625 1.325
2.1875 0 1.325
2.1875 0 1.2625
2.1875 0.125 1.325
2.25 0 1.2625
2.25 0.0625 1.2625
2.3125 0.125 1.2625
2.3125 0.0625 1.2625
2.375 0.125 1.2625
2.3125 0.0625 1.325
2.375 0.0625 1.325
2.3125 0 1.325
2.3125 0 1.2625
2.3125 0.125 1.325
2.375 0 1.2625
2.375 0.0625 1.2625
2.4375 0.125 1.2625
2.4375 0.0625 1.2625
2.5 0.125 1.2625
2.4375 0.0625 1.325
2.5 0.0625 1.325
2.4375 0 1.325
2.4375 0 1.2625
2.4375 0.125 1.325
2.5 0 1.2625
2.5 0.0625 1.2625
2.5625 0.125 1.2625
2.5625 0.0625 1.2625
2.625 0.125 1.2625
2.5625 0.0625 1.325
2.625 0.0625 1.325
2.5625 0 1.325
2.5625 0 1.2625
2.5625 0.125 1.325
2.625 0 1.2625
2.625 0.0625 1.2625
2.6875 0.125 1.2625
2.6875 0.0625 1.2625
2.75 0.125 1.2625
2.6875 0.0625 1.325
2.75 0.0625 1.325
2.6875 0 1.325
2.6875 0 1.2625
2.6875 0.125 1.325
2.75 0 1.2625
2.75 0.0625 1.2625
2.8125 0.125 1.2625
2.8125 0.0625 1.2625
2.875 0.125 1.2625
2.8125 0.0625 1.325
2.875 0.0625 1.325
2.8125 0 1.325
2.8125 0 1.2625
2.8125 0.125 1.325
2.875 0 1.2625
2.875 0.0625 1.2625
2.9375 0.125 1.2625
2.9375 0.0625 1.2625
3 0.125 1.2625
2.9375 0.0625 1.325
3 0.0625 1.325
2.9375 0 1.325
2.9375 0 1.2625
2.9375 0.125 1.325
3 0 1.2625
3 0.0625 1.2625
3.0625 0.125 1.2625
3.0625 0.0625 1.2625
3.125 0.125 1.2625
3.0625 0.0625 1.325
3.125 0.0625 1.325
3.0625 0 1.325
3.0625 0 1.2625
3.0625 0.125 1.325
3.125 0 1.2625
3.125 0.0625 1.2625
3.1875 0.125 1.2625
3.1875 0.0625 1.2625
3.25 0.125 1.2625
3.1875 0.0625 1.325
3.25 0.0625 1.325
3.1875 0 1.325
3.1875 0 1.2625
3.1875 0.125 1.325
3.25 0 1.2625
3.25 0.0625 1.2625
3.3125 0.125 1.2625
3.3125 0.0625 1.2625
3.375 0.125 1.2625
3.3125 0.0625 1.325
3.375 0.0625 1.325
3.3125 0 1.325
3.3125 0 1.2625
3.3125 0.125 1.325
3.375 0 1.2625
3.375 0.0625 1.2625
3.4375 0.125 1.2625
3.4375 0.0625 1.2625
3.5 0.125 1.2625
3.4375 0.0625 1.325
3.5 0.0625 1.325
3.4375 0 1.325
3.4375 0 1.2625
3.4375 0.125 1.325
3.5 0 1.2625
3.5 0.0625 1.2625
3.5625 0.125 1.2625
3.5625 0.0625 1.2625
3.625 0.125 1.2625
3.5625 0.0625 1.325
3.625 0.0625 1.325
3.5625 0 1.325
3.5625 0 1.2625
3.5625 0.125 1.325
3.625 0 1.2625
3.625 0.0625 1.2625
3.6875 0.125 1.2625
3.6875 0.0625 1.2625
3.75 0.125 1.2625
3.6875 0.0625 1.325
3.75 0.0625 1.325
3.6875 0 1.325
3.6875 0 1.2625
3.6875 0.125 1.325
3.75 0 1.2625
3.75 0.0625 1.2625
3.8125 0.125 1.2625
3.8125 0.0625 1.2625
3.875 0.125 1.2625
3.8125 0.0625 1.325
3.875 0.0625 1.325
3.8125 0 1.325
3.8125 0 1.2625
3.8125 0.125 1.325
3.875 0 1.2625
3.875 0.0625 1.2625
3.9375 0.125 1.2625
3.9375 0.0625 1.2625
4 0.125 1.2625
3.9375 0.0625 1.325
4 0.0625 1.325
3.9375 0 1.325
3.9375 0 1.2625
3.9375 0.125 1.325
4 0 1.2625
4 0.0625 1.2625
0.0625 0.25 1.2625
0.0625 0.1875 1.2625
0.125 0.25 1.2625
0.0625 0.1875 1.325
0.125 0.1875 1.325
0 0.25 1.2625
0 0.1875 1.2625
0.0625 0.25 1.325
0 0.1875 1.325
0.125 0.1875 1.2625
0.1875 0.25 1.2625
0.1875 0.1875 1.2625
0.25 0.25 1.2625
0.1875 0.1875 1.325
0.25 0.1875 1.325
0.1875 0.25 1.325
0.25 0.1875 1.2625
0.3125 0.25 1.2625
0.3125 0.1875 1.2625
0.375 0.25 1.2625
0.3125 0.1875 1.325
0.375 0.1875 1.325
0.3125 0.25 1.325
0.375 0.1875 1.2625
0.4375 0.25 1.2625
0.4375 0.1875 1.2625
0.5 0.25 1.2625
0.4375 0.1875 1.325
0.5 0.1875 1.325
0.4375 0.25 1.325
0.5 0.1875 1.2625
0.5625 0.25 1.2625
0.5625 0.1875 1.2625
0.625 0.25 1.2625
0.5625 0.1875 1.325
0.625 0.1875 1.325
0.5625 0.25 1.325
0.625 0.1875 1.2625
0.6875 0.25 1.2625
0.6875 0.1875 1.2625
0.75 0.25 1.2625
0.6875 0.1875 1.325
0.75 0.1875 1.325
0.6875 0.25 1.325
0.75 0.1875 1.2625
0.8125 0.25 1.2625
0.8125 0.1875 1.2625
0.875 0.25 1.2625
0.8125 0.1875 1.325
0.875 0.1875 1.325
0.8125 0.25 1.325
0.875 0.1875 1.2625
0.9375 0.25 1.2625
0.9375 0.1875 1.2625
1 0.25 1.2625
0.9375 0.1875 1.325
1 0.1875 1.325
0.9375 0.25 1.325
1 0.1875 1.2625
1.0625 0.25 1.2625
1.0625 0.1875 1.2625
1.125 0.25 1.2625
1.0625 0.1875 1.325
1.125 0.1875 1.325
1.0625 0.25 1.325
1.125 0.1875 1.2625
1.1875 0.25 1.2625
1.1875 0.1875 1.2625
1.25 0.25 1.2625
1.1875 0.1875 1.325
1.25 0.1875 1.325
1.1875 0.25 1.325
1.25 0.1875 1.2625
1.3125 0.25 1.2625
1.3125 0.1875 1.2625
1.375 0.25 1.2625
1.3125 0.1875 1.325
1.375 0.1875 1.325
1.3125 0.25 1.325
1.375 0.1875 1.2625
1.4375 0.25 1.2625
1.4375 0.1875 1.2625
1.5 0.25 1.2625
1.4375 0.1875 1.325
1.5 0.1875 1.325
1.4375 0.25 1.325
1.5 0.1875 1.2625
1.5625 0.25 1.2625
1.5625 0.1875 1.2625
1.625 0.25 1.2625
1.5625 0.1875 1.325
1.625 0.1875 1.325
1.5625 0.25 1.325
1.625 0.1875 1.2625
1.6875 0.25 1.2625
1.6875 0.1875 1.2625
1.75 0.25 1.2625
1.6875 0.1875 1.325
1.75 0.1875 1.325
1.6875 0.25 1.325
1.75 0.1875 1.2625
1.8125 0.25 1.2625
1.8125 0.1875 1.2625
1.875 0.25 1.2625
1.8125 0.1875 1.325
1.875 0.1875 1.325
1.8125 0.25 1.325
1.875 0.1875 1.2625
1.9375 0.25 1.2625
1.9375 0.1875 1.2625
2 0.25 1.2625
1.9375 0.1875 1.325
2 0.1875 1.325
1.9375 0.25 1.325
2 0.1875 1.2625
2.0625 0.25 1.2625
2.0625 0.1875 1.2625
2.125 0.25 1.2625
2.0625 0.1875 1.325
2.125 0.1875 1.325
2.0625 0.25 1.325
2.125 0.1875 1.2625
2.1875 0.25 1.2625
2.1875 0.1875 1.2625
2.25 0.25 1.2625
2.1875 0.1875 1.325
2.25 0.1875 1.325
2.1875 0.25 1.325
2.25 0.1875 1.2625
2.3125 0.25 1.2625
2.3125 0.1875 1.2625
2.375 0.25 1.2625
2.3125 0.1875 1.325
2.375 0.1875 1.325
2.3125 0.25 1.325
2.375 0.1875 1.2625
2.4375 0.25 1.2625
2.4375 0.1875 1.2625
2.5 0.25 1.2625
2.4375 0.1875 1.325
2.5 0.1875 1.325
2.4375 0.25 1.325
2.5 0.1875 1.2625
2.5625 0.25 1.2625
2.5625 0.1875 1.2625
2.625 0.25 1.2625
2.5625 0.1875 1.325
2.625 0.1875 1.325
2.5625 0.25 1.325
2.625 0.1875 1.2625
2.6875 0.25 1.2625
2.6875 0.1875 1.2625
2.75 0.25 1.2625
2.6875 0.1875 1.325
2.75 0.1875 1.325
2.6875 0.25 1.325
2.75 0.1875 1.2625
2.8125 0.25 1.2625
2.8125 0.1875 1.2625
2.875 0.25 1.2625
2.8125 0.1875 1.325
2.875 0.1875 1.325
2.8125 0.25 1.325
2.875 0.1875 1.2625
2.9375 0.25 1.2625
2.9375 0.1875 1.2625
3 0.25 1.2625
2.9375 0.1875 1.325
3 0.1875 1.325
2.9375 0.25 1.325
3 0.1875 1.2625
3.0625 0.25 1.2625
3.0625 0.1875 1.2625
3.125 0.25 1.2625
3.0625 0.1875 1.325
3.125 0.1875 1.325
3.0625 0.25 1.325
3.125 0.1875 1.2625
3.1875 0.25 1.2625
3.1875 0.1875 1.2625
3.25 0.25 1.2625
3.1875 0.1875 1.325
3.25 0.1875 1.325
3.1875 0.25 1.325
3.25 0.1875 1.2625
3.3125 0.25 1.2625
3.3125 0.1875 1.2625
3.375 0.25 1.2625
3.3125 0.1875 1.325
3.375 0.1875 1.325
3.3125 0.25 1.325
3.375 0.1875 1.2625
3.4375 0.25 1.2625
3.4375 0.1875 1.2625
3.5 0.25 1.2625
3.4375 0.1875 1.325
3.5 0.1875 1.325
3.4375 0.25 1.325
3.5 0.1875 1.2625
3.5625 0.25 1.2625
3.5625 0.1875 1.2625
3.625 0.25 1.2625
3.5625 0.1875 1.325
3.625 0.1875 1.325
3.5625 0.25 1.325
3.625 0.1875 1.2625
3.6875 0.25 1.2625
3.6875 0.1875 1.2625
3.75 0.25 1.2625
3.6875 0.1875 1.325
3.75 0.1875 1.325
3.6875 0.25 1.325
3.75 0.1875 1.2625
3.8125 0.25 1.2625
3.8125 0.1875 1.2625
3.875 0.25 1.2625
3.8125 0.1875 1.325
3.875 0.1875 1.325
3.8125 0.25 1.325
3.875 0.1875 1.2625
3.9375 0.25 1.2625
3.9375 0.1875 1.2625
4 0.25 1.2625
3.9375 0.1875 1.325
4 0.1875 1.325
3.9375 0.25 1.325
4 0.1875 1.2625
0.0625 0.375 1.2625
0.0625 0.3125 1.2625
0.125 0.375 1.2625
0.0625 0.3125 1.325
0.125 0.3125 1.325
0 0.375 1.2625
0 0.3125 1.2625
0.0625 0.375 1.325
0 0.3125 1.325
0.125 0.3125 1.2625
0.1875 0.375 1.2625
0.1875 0.3125 1.2625
0.25 0.375 1.2625
0.1875 0.3125 1.325
0.25 0.3125 1.325
0.1875 0.375 1.325
0.25 0.3125 1.2625
0.3125 0.375 1.2625
0.3125 0.3125 1.2625
0.375 0.375 1.2625
0.3125 0.3125 1.325
0.375 0.3125 1.325
0.3125 0.375 1.325
0.375 0.3125 1.2625
0.4375 0.375 1.2625
0.4375 0.3125 1.2625
0.5 0.375 1.2625
0.4375 0.3125 1.325
0.5 0.3125 1.325
0.4375 0.375 1.325
0.5 0.3125 1.2625
0.5625 0.375 1.2625
0.5625 0.3125 1.2625
0.625 0.375 1.2625
0.5625 0.3125 1.325
0.625 0.3125 1.325
0.5625 0.375 1.325
0.625 0.3125 1.2625
0.6875 0.375 1.2625
0.6875 0.3125 1.2625
0.75 0.375 1.2625
0.6875 0.3125 1.325
0.75 0.3125 1.325
0.6875 0.375 1.325
0.75 0.3125 1.2625
0.8125 0.375 1.2625
0.8125 0.3125 1.2625
0.875 0.375 1.2625
0.8125 0.3125 1.325
0.875 0.3125 1.325
0.8125 0.375 1.325
0.875 0.3125 1.2625
0.9375 0.375 1.2625
0.9375 0.3125 1.2625
1 0.375 1.2625
0.9375 0.3125 1.325
1 0.3125 1.325
0.9375 0.375 1.325
1 0.3125 1.2625
1.0625 0.375 1.2625
1.0625 0.3125 1.2625
1.125 0.375 1.2625
1.0625 0.3125 1.325
1.125 0.3125 1.325
1.0625 0.375 1.325
1.125 0.3125 1.2625
1.1875 0.375 1.2625
1.1875 0.3125 1.2625
1.25 0.375 1.2625
1.1875 0.3125 1.325
1.25 0.3125 1.325
1.1875 0.375 1.325
1.25 0.3125 1.2625
1.3125 0.375 1.2625
1.3125 0.3125 1.2625
1.375 0.375 1.2625
1.3125 0.3125 1.325
1.375 0.3125 1.325
1.3125 0.375 1.325
1.375 0.3125 1.2625
1.4375 0.375 1.2625
1.4375 0.3125 1.2625
1.5 0.375 1.2625
1.4375 0.3125 1.325
1.5 0.3125 1.325
1.4375 0.375 1.325
1.5 0.3125 1.2625
1.5625 0.375 1.2625
1.5625 0.3125 1.2625
1.625 0.375 1.2625
1.5625 0.3125 1.325
1.625 0.3125 1.325
1.5625 0.375 1.325
1.625 0.3125 1.2625
1.6875 0.375 1.2625
1.6875 0.3125 1.2625
1.75 0.375 1.2625
1.6875 0.3125 1.325
1.75 0.3125 1.325
1.6875 0.375 1.325
1.75 0.3125 1.2625
1.8125 0.375 1.2625
1.8125 0.3125 1.2625
1.875 0.375 1.2625
1.8125 0.3125 1.325
1.875 0.3125 1.325
1.8125 0.375 1.325
1.875 0.3125 1.2625
1.9375 0.375 1.2625
1.9375 0.3125 1.2625
2 0.375 1.2625
1.9375 0.3125 1.325
2 0.3125 1.325
1.9375 0.375 1.325
2 0.3125 1.2625
2.0625 0.375 1.2625
2.0625 0.3125 1.2625
2.125 0.375 1.2625
2.0625 0.3125 1.325
2.125 0.3125 1.325
2.0625 0.375 1.325
2.125 0.3125 1.2625
2.1875 0.375 1.2625
2.1875 0.3125 1.2625
2.25 0.375 1.2625
2.1875 0.3125 1.325
2.25 0.3125 1.325
2.1875 0.375 1.325
2.25 0.3125 1.2625
2.3125 0.375 1.2625
2.3125 0.3125 1.2625
2.375 0.375 1.2625
2.3125 0.3125 1.325
2.375 0.3125 1.325
2.3125 0.375 1.325
2.375 0.3125 1.2625
2.4375 0.375 1.2625
2.4375 0.3125 1.2625
2.5 0.375 1.2625
2.4375 0.3125 1.325
2.5 0.3125 1.325
2.4375 0.375 1.325
2.5 0.3125 1.2625
2.5625 0.375 1.2625
2.5625 0.3125 1.2625
2.625 0.375 1.2625
2.5625 0.3125 1.325
2.625 0.3125 1.325
2.5625 0.375 1.325
2.625 0.3125 1.2625
2.6875 0.375 1.2625
2.6875 0.3125 1.2625
2.75 0.375 1.2625
2.6875 0.3125 1.325
2.75 0.3125 1.325
2.6875 0.375 1.325
2.75 0.3125 1.2625
2.8125 0.375 1.2625
2.8125 0.3125 1.2625
2.875 0.375 1.2625
2.8125 0.3125 1.325
2.875 0.3125 1.325
2.8125 0.375 1.325
2.875 0.3125 1.2625
2.9375 0.375 1.2625
2.9375 0.3125 1.2625
3 0.375 1.2625
2.9375 0.3125 1.325
3 0.3125 1.325
2.9375 0.375 1.325
3 0.3125 1.2625
3.0625 0.375 1.2625
3.0625 0.3125 1.2625
3.125 0.375 1.2625
3.0625 0.3125 1.325
3.125 0.3125 1.325
3.0625 0.375 1.325
3.125 0.3125 1.2625
3.1875 0.375 1.2625
3.1875 0.3125 1.2625
3.25 0.375 1.2625
3.1875 0.3125 1.325
3.25 0.3125 1.325
3.1875 0.375 1.325
3.25 0.3125 1.2625
3.3125 0.375 1.2625
3.3125 0.3125 1.2625
3.375 0.375 1.2625
3.3125 0.3125 1.325
3.375 0.3125 1.325
3.3125 0.375 1.325
3.375 0.3125 1.2625
3.4375 0.375 1.2625
3.4375 0.3125 1.2625
3.5 0.375 1.2625
3.4375 0.3125 1.325
3.5 0.3125 1.325
3.4375 0.375 1.325
3.5 0.3125 1.2625
3.5625 0.375 1.2625
3.5625 0.3125 1.2625
3.625 0.375 1.2625
3.5625 0.3125 1.325
3.625 0.3125 1.325
3.5625 0.375 1.325
3.625 0.3125 1.2625
3.6875 0.375 1.2625
3.6875 0.3125 1.2625
3.75 0.375 1.2625
3.6875 0.3125 1.325
3.75 0.3125 1.325
3.6875 0.375 1.325
3.75 0.3125 1.2625
3.8125 0.375 1.2625
3.8125 0.3125 1.2625
3.875 0.375 1.2625
3.8125 0.3125 1.325
3.875 0.3125 1.325
3.8125 0.375 1.325
3.875 0.3125 1.2625
3.9375 0.375 1.2625
3.9375 0.3125 1.2625
4 0.375 1.2625
3.9375 0.3125 1.325
4 0.3125 1.325
3.9375 0.375 1.325
4 0.3125 1.2625
0.0625 0.5 1.2625
0.0625 0.4375 1.2625
0.125 0.5 1.2625
0.0625 0.4375 1.325
0.125 0.4375 1.325
0 0.5 1.2625
0 0.4375 1.2625
0.0625 0.5 1.325
0 0.4375 1.325
0.125 0.4375 1.2625
0.1875 0.5 1.2625
0.1875 0.4375 1.2625
0.25 0.5 1.2625
0.1875 0.4375 1.325
0.25 0.4375 1.325
0.1875 0.5 1.325
0.25 0.4375 1.2625
0.3125 0.5 1.2625
0.3125 0.4375 1.2625
0.375 0.5 1.2625
0.3125 0.4375 1.325
0.375 0.4375 1.325
0.3125 0.5 1.325
0.375 0.4375 1.2625
0.4375 0.5 1.2625
0.4375 0.4375 1.2625
0.5 0.5 1.2625
0.4375 0.4375 1.325
0.5 0.4375 1.325
0.4375 0.5 1.325
0.5 0.4375 1.2625
0.5625 0.5 1.2625
0.5625 0.4375 1.2625
0.625 0.5 1.2625
0.5625 0.4375 1.325
0.625 0.4375 1.325
0.5625 0.5 1.325
0.625 0.4375 1.2625
0.6875 0.5 1.2625
0.6875 0.4375 1.2625
0.75 0.5 1.2625
0.6875 0.4375 1.325
0.75 0.4375 1.325
0.6875 0.5 1.325
0.75 0.4375 1.2625
0.8125 0.5 1.2625
0.8125 0.4375 1.2625
0.875 0.5 1.2625
0.8125 0.4375 1.325
0.875 0.4375 1.325
0.8125 0.5 1.325
0.875 0.4375 1.2625
0.9375 0.5 1.2625
0.9375 0.4375 1.2625
1 0.5 1.2625
0.9375 0.4375 1.325
1 0.4375 1.325
0.9375 0.5 1.325
1 0.4375 1.2625
1.0625 0.5 1.2625
1.0625 0.4375 1.2625
1.125 0.5 1.2625
1.0625 0.4375 1.325
1.125 0.4375 1.325
1.0625 0.5 1.325
1.125 0.4375 1.2625
1.1875 0.5 1.2625
1.1875 0.4375 1.2625
1.25 0.5 1.2625
1.1875 0.4375 1.325
1.25 0.4375 1.325
1.1875 0.5 1.325
1.25 0.4375 1.2625
1.3125 0.5 1.2625
1.3125 0.4375 1.2625
1.375 0.5 1.2625
1.3125 0.4375 1.325
1.375 0.4375 1.325
1.3125 0.5 1.325
1.375 0.4375 1.2625
1.4375 0.5 1.2625
1.4375 0.4375 1.2625
1.5 0.5 1.2625
1.4375 0.4375 1.325
1.5 0.4375 1.325
1.4375 0.5 1.325
1.5 0.4375 1.2625
1.5625 0.5 1.2625
1.5625 0.4375 1.2625
1.625 0.5 1.2625
1.5625 0.4375 1.325
1.625 0.4375 1.325
1.5625 0.5 1.325
1.625 0.4375 1.2625
1.6875 0.5 1.2625
1.6875 0.4375 1.2625
1.75 0.5 1.2625
1.6875 0.4375 1.325
1.75 0.4375 1.325
1.6875 0.5 1.325
1.75 0.4375 1.2625
1.8125 0.5 1.2625
1.8125 0.4375 1.2625
1.875 0.5 1.2625
1.8125 0.4375 1.325
1.875 0.4375 1.325
1.8125 0.5 1.325
1.875 0.4375 1.2625
1.9375 0.5 1.2625
1.9375 0.4375 1.2625
2 0.5 1.2625
1.9375 0.4375 1.325
2 0.4375 1.325
1.9375 0.5 1.325
2 0.4375 1.2625
2.0625 0.5 1.2625
2.0625 0.4375 1.2625
2.125 0.5 1.2625
2.0625 0.4375 1.325
2.125 0.4375 1.325
2.0625 0.5 1.325
2.125 0.4375 1.2625
2.1875 0.5 1.2625
2.1875 0.4375 1.2625
2.25 0.5 1.2625
2.1875 0.4375 1.325
2.25 0.4375 1.325
2.1875 0.5 1.325
2.25 0.4375 1.2625
2.3125 0.5 1.2625
2.3125 0.4375 1.2625
2.375 0.5 1.2625
2.3125 0.4375 1.325
2.375 0.4375 1.325
2.3125 0.5 1.325
2.375 0.4375 1.2625
2.4375 0.5 1.2625
2.4375 0.4375 1.2625
2.5 0.5 1.2625
2.4375 0.4375 1.325
2.5 0.4375 1.325
2.4375 0.5 1.325
2.5 0.4375 1.2625
2.5625 0.5 1.2625
2.5625 0.4375 1.2625
2.625 0.5 1.2625
2.5625 0.4375 1.325
2.625 0.4375 1.325
2.5625 0.5 1.325
2.625 0.4375 1.2625
2.6875 0.5 1.2625
2.6875 0.4375 1.2625
2.75 0.5 1.2625
2.6875 0.4375 1.325
2.75 0.4375 1.325
2.6875 0.5 1.325
2.75 0.4375 1.2625
2.8125 0.5 1.2625
2.8125 0.4375 1.2625
2.875 0.5 1.2625
2.8125 0.4375 1.325
2.875 0.4375 1.325
2.8125 0.5 1.325
2.875 0.4375 1.2625
2.9375 0.5 1.2625
2.9375 0.4375 1.2625
3 0.5 1.2625
2.9375 0.4375 1.325
3 0.4375 1.325
2.9375 0.5 1.325
3 0.4375 1.2625
3.0625 0.5 1.2625
3.0625 0.4375 1.2625
3.125 0.5 1.2625
3.0625 0.4375 1.325
3.125 0.4375 1.325
3.0625 0.5 1.325
3.125 0.4375 1.2625
3.1875 0.5 1.2625
3.1875 0.4375 1.2625
3.25 0.5 1.2625
3.1875 0.4375 1.325
3.25 0.4375 1.325
3.1875 0.5 1.325
3.25 0.4375 1.2625
3.3125 0.5 1.2625
3.3125 0.4375 1.2625
3.375 0.5 1.2625
3.3125 0.4375 1.325
3.375 0.4375 1.325
3.3125 0.5 1.325
3.375 0.4375 1.2625
3.4375 0.5 1.2625
3.4375 0.4375 1.2625
3.5 0.5 1.2625
3.4375 0.4375 1.325
3.5 0.4375 1.325
3.4375 0.5 1.325
3.5 0.4375 1.2625
3.5625 0.5 1.2625
3.5625 0.4375 1.2625
3.625 0.5 1.2625
3.5625 0.4375 1.325
3.625 0.4375 1.325
3.5625 0.5 1.325
3.625 0.4375 1.2625
3.6875 0.5 1.2625
3.6875 0.4375 1.2625
3.75 0.5 1.2625
3.6875 0.4375 1.325
3.75 0.4375 1.325
3.6875 0.5 1.325
3.75 0.4375 1.2625
3.8125 0.5 1.2625
3.8125 0.4375 1.2625
3.875 0.5 1.2625
3.8125 0.4375 1.325
3.875 0.4375 1.325
3.8125 0.5 1.325
3.875 0.4375 1.2625
3.9375 0.5 1.2625
3.9375 0.4375 1.2625
4 0.5 1.2625
3.9375 0.4375 1.325
4 0.4375 1.325
3.9375 0.5 1.325
4 0.4375 1.2625
0.0625 0.625 1.2625
0.0625 0.5625 1.2625
0.125 0.625 1.2625
0.0625 0.5625 1.325
0.125 0.5625 1.325
0 0.625 1.2625
0 0.5625 1.2625
0.0625 0.625 1.325
0 0.5625 1.325
0.125 0.5625 1.2625
0.1875 0.625 1.2625
0.1875 0.5625 1.2625
0.25 0.625 1.2625
0.1875 0.5625 1.325
0.25 0.5625 1.325
0.1875 0.625 1.325
0.25 0.5625 1.2625
0.3125 0.625 1.2625
0.3125 0.5625 1.2625
0.375 0.625 1.2625
0.3125 0.5625 1.325
0.375 0.5625 1.325
0.3125 0.625 1.325
0.375 0.5625 1.2625
0.4375 0.625 1.2625
0.4375 0.5625 1.2625
0.5 0.625 1.2625
0.4375 0.5625 1.325
0.5 0.5625 1.325
0.4375 0.625 1.325
0.5 0.5625 1.2625
0.5625 0.625 1.2625
0.5625 0.5625 1.2625
0.625 0.625 1.2625
0.5625 0.5625 1.325
0.625 0.5625 1.325
0.5625 0.625 1.325
0.625 0.5625 1.2625
0.6875 0.625 1.2625
0.6875 0.5625 1.2625
0.75 0.625 1.2625
0.6875 0.5625 1.325
0.75 0.5625 1.325
0.6875 0.625 1.325
0.75 0.5625 1.2625
0.8125 0.625 1.2625
0.8125 0.5625 1.2625
0.875 0.625 1.2625
0.8125 0.5625 1.325
0.875 0.5625 1.325
0.8125 0.625 1.325
0.875 0.5625 1.2625
0.9375 0.625 1.2625
0.9375 0.5625 1.2625
1 0.625 1.2625
0.9375 0.5625 1.325
1 0.5625 1.325
0.9375 0.625 1.325
1 0.5625 1.2625
1.0625 0.625 1.2625
1.0625 0.5625 1.2625
1.125 0.625 1.2625
1.0625 0.5625 1.325
1.125 0.5625 1.325
1.0625 0.625 1.325
1.125 0.5625 1.2625
1.1875 0.625 1.2625
1.1875 0.5625 1.2625
1.25 0.625 1.2625
1.1875 0.5625 1.325
1.25 0.5625 1.325
1.1875 0.625 1.325
1.25 0.5625 1.2625
1.3125 0.625 1.2625
1.3125 0.5625 1.2625
1.375 0.625 1.2625
1.3125 0.5625 1.325
1.375 0.5625 1.325
1.3125 0.625 1.325
1.375 0.5625 1.2625
1.4375 0.625 1.2625
1.4375 0.5625 1.2625
1.5 0.625 1.2625
1.4375 0.5625 1.325
1.5 0.5625 1.325
1.4375 0.625 1.325
1.5 0.5625 1.2625
1.5625 0.625 1.2625
1.5625 0.5625 1.2625
1.625 0.625 1.2625
1.5625 0.5625 1.325
1.625 0.5625 1.325
1.5625 0.625 1.325
1.625 0.5625 1.2625
1.6875 0.625 1.2625
1.6875 0.5625 1.2625
1.75 0.625 1.2625
1.6875 0.5625 1.325
1.75 0.5625 1.325
1.6875 0.625 1.325
1.75 0.5625 1.2625
1.8125 0.625 1.2625
1.8125 0.5625 1.2625
1.875 0.625 1.2625
1.8125 0.5625 1.325
1.875 0.5625 1.325
1.8125 0.625 1.325
1.875 0.5625 1.2625
1.9375 0.625 1.2625
1.9375 0.5625 1.2625
2 0.625 1.2625
1.9375 0.5625 1.325
2 0.5625 1.325
1.9375 0.625 1.325
2 0.5625 1.2625
2.0625 0.625 1.2625
2.0625 0.5625 1.2625
2.125 0.625 1.2625
2.0625 0.5625 1.325
2.125 0.5625 1.325
2.0625 0.625 1.325
2.125 0.5625 1.2625
2.1875 0.625 1.2625
2.1875 0.5625 1.2625
2.25 0.625 1.2625
2.1875 0.5625 1.325
2.25 0.5625 1.325
2.1875 0.625 1.325
2.25 0.5625 1.2625
2.3125 0.625 1.2625
2.3125 0.5625 1.2625
2.375 0.625 1.2625
2.3125 0.5625 1.325
2.375 0.5625 1.325
2.3125 0.625 1.325
2.375 0.5625 1.2625
2.4375 0.625 1.2625
2.4375 0.5625 1.2625
2.5 0.625 1.2625
2.4375 0.5625 1.325
2.5 0.5625 1.325
2.4375 0.625 1.325
2.5 0.5625 1.2625
2.5625 0.625 1.2625
2.5625 0.5625 1.2625
2.625 0.625 1.2625
2.5625 0.5625 1.325
2.625 0.5625 1.325
2.5625 0.625 1.325
2.625 0.5625 1.2625
2.6875 0.625 1.2625
2.6875 0.5625 1.2625
2.75 0.625 1.2625
2.6875 0.5625 1.325
2.75 0.5625 1.325
2.6875 0.625 1.325
2.75 0.5625 1.2625
2.8125 0.625 1.2625
2.8125 0.5625 1.2625
2.875 0.625 1.2625
2.8125 0.5625 1.325
2.875 0.5625 1.325
2.8125 0.625 1.325
2.875 0.5625 1.2625
2.9375 0.625 1.2625
2.9375 0.5625 1.2625
3 0.625 1.2625
2.9375 0.5625 1.325
3 0.5625 1.325
2.9375 0.625 1.325
3 0.5625 1.2625
3.0625 0.625 1.2625
3.0625 0.5625 1.2625
3.125 0.625 1.2625
3.0625 0.5625 1.325
3.125 0.5625 1.325
3.0625 0.625 1.325
3.125 0.5625 1.2625
3.1875 0.625 1.2625
3.1875 0.5625 1.2625
3.25 0.625 1.2625
3.1875 0.5625 1.325
3.25 0.5625 1.325
3.1875 0.625 1.325
3.25 0.5625 1.2625
3.3125 0.625 1.2625
3.3125 0.5625 1.2625
3.375 0.625 1.2625
3.3125 0.5625 1.325
3.375 0.5625 1.325
3.3125 0.625 1.325
3.375 0.5625 1.2625
3.4375 0.625 1.2625
3.4375 0.5625 1.2625
3.5 0.625 1.2625
3.4375 0.5625 1.325
3.5 0.5625 1.325
3.4375 0.625 1.325
3.5 0.5625 1.2625
3.5625 0.625 1.2625
3.5625 0.5625 1.2625
3.625 0.625 1.2625
3.5625 0.5625 1.325
3.625 0.5625 1.325
3.5625 0.625 1.325
3.625 0.5625 1.2625
3.6875 0.625 1.2625
3.6875 0.5625 1.2625
3.75 0.625 1.2625
3.6875 0.5625 1.325
3.75 0.5625 1.325
3.6875 0.625 1.325
3.75 0.5625 1.2625
3.8125 0.625 1.2625
3.8125 0.5625 1.2625
3.875 0.625 1.2625
3.8125 0.5625 1.325
3.875 0.5625 1.325
3.8125 0.625 1.325
3.875 0.5625 1.2625
3.9375 0.625 1.2625
3.9375 0.5625 1.2625
4 0.625 1.2625
3.9375 0.5625 1.325
4 0.5625 1.325
3.9375 0.625 1.325
4 0.5625 1.2625
0.0625 0.75 1.2625
0.0625 0.6875 1.2625
0.125 0.75 1.2625
0.0625 0.6875 1.325
0.125 0.6875 1.325
0 0.75 1.2625
0 0.6875 1.2625
0.0625 0.75 1.325
0 0.6875 1.325
0.125 0.6875 1.2625
0.1875 0.75 1.2625
0.1875 0.6875 1.2625
0.25 0.75 1.2625
0.1875 0.6875 1.325
0.25 0.6875 1.325
0.1875 0.75 1.325
0.25 0.6875 1.2625
0.3125 0.75 1.2625
0.3125 0.6875 1.2625
0.375 0.75 1.2625
0.3125 0.6875 1.325
0.375 0.6875 1.325
0.3125 0.75 1.325
0.375 0.6875 1.2625
0.4375 0.75 1.2625
0.4375 0.6875 1.2625
0.5 0.75 1.2625
0.4375 0.6875 1.325
0.5 0.6875 1.325
0.4375 0.75 1.325
0.5 0.6875 1.2625
0.5625 0.75 1.2625
0.5625 0.6875 1.2625
0.625 0.75 1.2625
0.5625 0.6875 1.325
0.625 0.6875 1.325
0.5625 0.75 1.325
0.625 0.6875 1.2625
0.6875 0.75 1.2625
0.6875 0.6875 1.2625
0.75 0.75 1.2625
0.6875 0.6875 1.325
0.75 0.6875 1.325
0.6875 0.75 1.325
0.75 0.6875 1.2625
0.8125 0.75 1.2625
0.8125 0.6875 1.2625
0.875 0.75 1.2625
0.8125 0.6875 1.325
0.875 0.6875 1.325
0.8125 0.75 1.325
0.875 0.6875 1.2625
0.9375 0.75 1.2625
0.9375 0.6875 1.2625
1 0.75 1.2625
0.9375 0.6875 1.325
1 0.6875 1.325
0.9375 0.75 1.325
1 0.6875 1.2625
1.0625 0.75 1.2625
1.0625 0.6875 1.2625
1.125 0.75 1.2625
1.0625 0.6875 1.325
1.125 0.6875 1.325
1.0625 0.75 1.325
1.125 0.6875 1.2625
1.1875 0.75 1.2625
1.1875 0.6875 1.2625
1.25 0.75 1.2625
1.1875 0.6875 1.325
1.25 0.6875 1.325
1.1875 0.75 1.325
1.25 0.6875 1.2625
1.3125 0.75 1.2625
1.3125 0.6875 1.2625
1.375 0.75 1.2625
1.3125 0.6875 1.325
1.375 0.6875 1.325
1.3125 0.75 1.325
1.375 0.6875 1.2625
1.4375 0.75 1.2625
1.4375 0.6875 1.2625
1.5 0.75 1.2625
1.4375 0.6875 1.325
1.5 0.6875 1.325
1.4375 0.75 1.325
1.5 0.6875 1.2625
1.5625 0.75 1.2625
1.5625 0.6875 1.2625
1.625 0.75 1.2625
1.5625 0.6875 1.325
1.625 0.6875 1.325
1.5625 0.75 1.325
1.625 0.6875 1.2625
1.6875 0.75 1.2625
1.6875 0.6875 1.2625
1.75 0.75 1.2625
1.6875 0.6875 1.325
1.75 0.6875 1.325
1.6875 0.75 1.325
1.75 0.6875 1.2625
1.8125 0.75 1.2625
1.8125 0.6875 1.2625
1.875 0.75 1.2625
1.8125 0.6875 1.325
1.875 0.6875 1.325
1.8125 0.75 1.325
1.875 0.6875 1.2625
1.9375 0.75 1.2625
1.9375 0.6875 1.2625
2 0.75 1.2625
1.9375 0.6875 1.325
2 0.6875 1.325
1.9375 0.75 1.325
2 0.6875 1.2625
2.0625 0.75 1.2625
2.0625 0.6875 1.2625
2.125 0.75 1.2625
2.0625 0.6875 1.325
2.125 0.6875 1.325
2.0625 0.75 1.325
2.125 0.6875 1.2625
2.1875 0.75 1.2625
2.1875 0.6875 1.2625
2.25 0.75 1.2625
2.1875 0.6875 1.325
2.25 0.6875 1.325
2.1875 0.75 1.325
2.25 0.6875 1.2625
2.3125 0.75 1.2625
2.3125 0.6875 1.2625
2.375 0.75 1.2625
2.3125 0.6875 1.325
2.375 0.6875 1.325
2.3125 0.75 1.325
2.375 0.6875 1.2625
2.4375 0.75 1.2625
2.4375 0.6875 1.2625
2.5 0.75 1.2625
2.4375 0.6875 1.325
2.5 0.6875 1.325
2.4375 0.75 1.325
2.5 0.6875 1.2625
2.5625 0.75 1.2625
2.5625 0.6875 1.2625
2.625 0.75 1.2625
2.5625 0.6875 1.325
2.625 0.6875 1.325
2.5625 0.75 1.325
2.625 0.6875 1.2625
2.6875 0.75 1.2625
2.6875 0.6875 1.2625
2.75 0.75 1.2625
2.6875 0.6875 1.325
2.75 0.6875 1.325
2.6875 0.75 1.325
2.75 0.6875 1.2625
2.8125 0.75 1.2625
2.8125 0.6875 1.2625
2.875 0.75 1.2625
2.8125 0.6875 1.325
2.875 0.6875 1.325
2.8125 0.75 1.325
2.875 0.6875 1.2625
2.9375 0.75 1.2625
2.9375 0.6875 1.2625
3 0.75 1.2625
2.9375 0.6875 1.325
3 0.6875 1.325
2.9375 0.75 1.325
3 0.6875 1.2625
3.0625 0.75 1.2625
3.0625 0.6875 1.2625
3.125 0.75 1.2625
3.0625 0.6875 1.325
3.125 0.6875 1.325
3.0625 0.75 1.325
3.125 0.6875 1.2625
3.1875 0.75 1.2625
3.1875 0.6875 1.2625
3.25 0.75 1.2625
3.1875 0.6875 1.325
3.25 0.6875 1.325
3.1875 0.75 1.325
3.25 0.6875 1.2625
3.3125 0.75 1.2625
3.3125 0.6875 1.2625
3.375 0.75 1.2625
3.3125 0.6875 1.325
3.375 0.6875 1.325
3.3125 0.75 1.325
3.375 0.6875 1.2625
3.4375 0.75 1.2625
3.4375 0.6875 1.2625
3.5 0.75 1.2625
3.4375 0.6875 1.325
3.5 0.6875 1.325
3.4375 0.75 1.325
3.5 0.6875 1.2625
3.5625 0.75 1.2625
3.5625 0.6875 1.2625
3.625 0.75 1.2625
3.5625 0.6875 1.325
3.625 0.6875 1.325
3.5625 0.75 1.325
3.625 0.6875 1.2625
3.6875 0.75 1.2625
3.6875 0.6875 1.2625
3.75 0.75 1.2625
3.6875 0.6875 1.325
3.75 0.6875 1.325
3.6875 0.75 1.325
3.75 0.6875 1.2625
3.8125 0.75 1.2625
3.8125 0.6875 1.2625
3.875 0.75 1.2625
3.8125 0.6875 1.325
3.875 0.6875 1.325
3.8125 0.75 1.325
3.875 0.6875 1.2625
3.9375 0.75 1.2625
3.9375 0.6875 1.2625
4 0.75 1.2625
3.9375 0.6875 1.325
4 0.6875 1.325
3.9375 0.75 1.325
4 0.6875 1.2625
0.0625 0.875 1.2625
0.0625 0.8125 1.2625
0.125 0.875 1.2625
0.0625 0.8125 1.325
0.125 0.8125 1.325
0 0.875 1.2625
0 0.8125 1.2625
0.0625 0.875 1.325
0 0.8125 1.325
0.125 0.8125 1.2625
0.1875 0.875 1.2625
0.1875 0.8125 1.2625
0.25 0.875 1.2625
0.1875 0.8125 1.325
0.25 0.8125 1.325
0.1875 0.875 1.325
0.25 0.8125 1.2625
0.3125 0.875 1.2625
0.3125 0.8125 1.2625
0.375 0.875 1.2625
0.3125 0.8125 1.325
0.375 0.8125 1.325
0.3125 0.875 1.325
0.375 0.8125 1.2625
0.4375 0.875 1.2625
0.4375 0.8125 1.2625
0.5 0.875 1.2625
0.4375 0.8125 1.325
0.5 0.8125 1.325
0.4375 0.875 1.325
0.5 0.8125 1.2625
0.5625 0.875 1.2625
0.5625 0.8125 1.2625
0.625 0.875 1.2625
0.5625 0.8125 1.325
0.625 0.8125 1.325
0.5625 0.875 1.325
0.625 0.8125 1.2625
0.6875 0.875 1.2625
0.6875 0.8125 1.2625
0.75 0.875 1.2625
0.6875 0.8125 1.325
0.75 0.8125 1.325
0.6875 0.875 1.325
0.75 0.8125 1.2625
0.8125 0.875 1.2625
0.8125 0.8125 1.2625
0.875 0.875 1.2625
0.8125 0.8125 1.325
0.875 0.8125 1.325
0.8125 0.875 1.325
0.875 0.8125 1.2625
0.9375 0.875 1.2625
0.9375 0.8125 1.2625
1 0.875 1.2625
0.9375 0.8125 1.325
1 0.8125 1.325
0.9375 0.875 1.325
1 0.8125 1.2625
1.0625 0.875 1.2625
1.0625 0.8125 1.2625
1.125 0.875 1.2625
1.0625 0.8125 1.325
1.125 0.8125 1.325
1.0625 0.875 1.325
1.125 0.8125 1.2625
1.1875 0.875 1.2625
1.1875 0.8125 1.2625
1.25 0.875 1.2625
1.1875 0.8125 1.325
1.25 0.8125 1.325
1.1875 0.875 1.325
1.25 0.8125 1.2625
1.3125 0.875 1.2625
1.3125 0.8125 1.2625
1.375 0.875 1.2625
1.3125 0.8125 1.325
1.375 0.8125 1.325
1.3125 0.875 1.325
1.375 0.8125 1.2625
1.4375 0.875 1.2625
1.4375 0.8125 1.2625
1.5 0.875 1.2625
1.4375 0.8125 1.325
1.5 0.8125 1.325
1.4375 0.875 1.325
1.5 0.8125 1.2625
1.5625 0.875 1.2625
1.5625 0.8125 1.2625
1.625 0.875 1.2625
1.5625 0.8125 1.325
1.625 0.8125 1.325
1.5625 0.875 1.325
1.625 0.8125 1.2625
1.6875 0.875 1.2625
1.6875 0.8125 1.2625
1.75 0.875 1.2625
1.6875 0.8125 1.325
1.75 0.8125 1.325
1.6875 0.875 1.325
1.75 0.8125 1.2625
1.8125 0.875 1.2625
1.8125 0.8125 1.2625
1.875 0.875 1.2625
1.8125 0.8125 1.325
1.875 0.8125 1.325
1.8125 0.875 1.325
1.875 0.8125 1.2625
1.9375 0.875 1.2625
1.9375 0.8125 1.2625
2 0.875 1.2625
1.9375 0.8125 1.325
2 0.8125 1.325
1.9375 0.875 1.325
2 0.8125 1.2625
2.0625 0.875 1.2625
2.0625 0.8125 1.2625
2.125 0.875 1.2625
2.0625 0.8125 1.325
2.125 0.8125 1.325
2.0625 0.875 1.325
2.125 0.8125 1.2625
2.1875 0.875 1.2625
2.1875 0.8125 1.2625
2.25 0.875 1.2625
2.1875 0.8125 1.325
2.25 0.8125 1.325
2.1875 0.875 1.325
2.25 0.8125 1.2625
2.3125 0.875 1.2625
2.3125 0.8125 1.2625
2.375 0.875 1.2625
2.3125 0.8125 1.325
2.375 0.8125 1.325
2.3125 0.875 1.325
2.375 0.8125 1.2625
2.4375 0.875 1.2625
2.4375 0.8125 1.2625
2.5 0.875 1.2625
2.4375 0.8125 1.325
2.5 0.8125 1.325
2.4375 0.875 1.325
2.5 0.8125 1.2625
2.5625 0.875 1.2625
2.5625 0.8125 1.2625
2.625 0.875 1.2625
2.5625 0.8125 1.325
2.625 0.8125 1.325
2.5625 0.875 1.325
2.625 0.8125 1.2625
2.6875 0.875 1.2625
2.6875 0.8125 1.2625
2.75 0.875 1.2625
2.6875 0.8125 1.325
2.75 0.8125 1.325
2.6875 0.875 1.325
2.75 0.8125 1.2625
2.8125 0.875 1.2625
2.8125 0.8125 1.2625
2.875 0.875 1.2625
2.8125 0.8125 1.325
2.875 0.8125 1.325
2.8125 0.875 1.325
2.875 0.8125 1.2625
2.9375 0.875 1.2625
2.9375 0.8125 1.2625
3 0.875 1.2625
2.9375 0.8125 1.325
3 0.8125 1.325
2.9375 0.875 1.325
3 0.8125 1.2625
3.0625 0.875 1.2625
3.0625 0.8125 1.2625
3.125 0.875 1.2625
3.0625 0.8125 1.325
3.125 0.8125 1.325
3.0625 0.875 1.325
3.125 0.8125 1.2625
3.1875 0.875 1.2625
3.1875 0.8125 1.2625
3.25 0.875 1.2625
3.1875 0.8125 1.325
3.25 0.8125 1.325
3.1875 0.875 1.325
3.25 0.8125 1.2625
3.3125 0.875 1.2625
3.3125 0.8125 1.2625
3.375 0.875 1.2625
3.3125 0.8125 1.325
3.375 0.8125 1.325
3.3125 0.875 1.325
3.375 0.8125 1.2625
3.4375 0.875 1.2625
3.4375 0.8125 1.2625
3.5 0.875 1.2625
3.4375 0.8125 1.325
3.5 0.8125 1.325
3.4375 0.875 1.325
3.5 0.8125 1.2625
3.5625 0.875 1.2625
3.5625 0.8125 1.2625
3.625 0.875 1.2625
3.5625 0.8125 1.325
3.625 0.8125 1.325
3.5625 0.875 1.325
3.625 0.8125 1.2625
3.6875 0.875 1.2625
3.6875 0.8125 1.2625
3.75 0.875 1.2625
3.6875 0.8125 1.325
3.75 0.8125 1.325
3.6875 0.875 1.325
3.75 0.8125 1.2625
3.8125 0.875 1.2625
3.8125 0.8125 1.2625
3.875 0.875 1.2625
3.8125 0.8125 1.325
3.875 0.8125 1.325
3.8125 0.875 1.325
3.875 0.8125 1.2625
3.9375 0.875 1.2625
3.9375 0.8125 1.2625
4 0.875 1.2625
3.9375 0.8125 1.325
4 0.8125 1.325
3.9375 0.875 1.325
4 0.8125 1.2625
0.0625 1 1.2625
0.0625 0.9375 1.2625
0.125 1 1.2625
0.0625 0.9375 1.325
0.125 0.9375 1.325
0 1 1.2625
0 0.9375 1.2625
0.0625 1 1.325
0 0.9375 1.325
0.125 0.9375 1.2625
0.1875 1 1.2625
0.1875 0.9375 1.2625
0.25 1 1.2625
0.1875 0.9375 1.325
0.25 0.9375 1.325
0.1875 1 1.325
0.25 0.9375 1.2625
0.3125 1 1.2625
0.3125 0.9375 1.2625
0.375 1 1.2625
0.3125 0.9375 1.325
0.375 0.9375 1.325
0.3125 1 1.325
0.375 0.9375 1.2625
0.4375 1 1.2625
0.4375 0.9375 1.2625
0.5 1 1.2625
0.4375 0.9375 1.325
0.5 0.9375 1.325
0.4375 1 1.325
0.5 0.9375 1.2625
0.5625 1 1.2625
0.5625 0.9375 1.2625
0.625 1 1.2625
0.5625 0.9375 1.325
0.625 0.9375 1.325
0.5625 1 1.325
0.625 0.9375 1.2625
0.6875 1 1.2625
0.6875 0.9375 1.2625
0.75 1 1.2625
0.6875 0.9375 1.325
0.75 0.9375 1.325
0.6875 1 1.325
0.75 0.9375 1.2625
0.8125 1 1.2625
0.8125 0.9375 1.2625
0.875 1 1.2625
0.8125 0.9375 1.325
0.875 0.9375 1.325
0.8125 1 1.325
0.875 0.9375 1.2625
0.9375 1 1.2625
0.9375 0.9375 1.2625
1 1 1.2625
0.9375 0.9375 1.325
1 0.9375 1.325
0.9375 1 1.325
1 0.9375 1.2625
1.0625 1 1.2625
1.0625 0.9375 1.2625
1.125 1 1.2625
1.0625 0.9375 1.325
1.125 0.9375 1.325
1.0625 1 1.325
1.125 0.9375 1.2625
1.1875 1 1.2625
1.1875 0.9375 1.2625
1.25 1 1.2625
1.1875 0.9375 1.325
1.25 0.9375 1.325
1.1875 1 1.325
1.25 0.9375 1.2625
1.3125 1 1.2625
1.3125 0.9375 1.2625
1.375 1 1.2625
1.3125 0.9375 1.325
1.375 0.9375 1.325
1.3125 1 1.325
1.375 0.9375 1.2625
1.4375 1 1.2625
1.4375 0.9375 1.2625
1.5 1 1.2625
1.4375 0.9375 1.325
1.5 0.9375 1.325
1.4375 1 1.325
1.5 0.9375 1.2625
1.5625 1 1.2625
1.5625 0.9375 1.2625
1.625 1 1.2625
1.5625 0.9375 1.325
1.625 0.9375 1.325
1.5625 1 1.325
1.625 0.9375 1.2625
1.6875 1 1.2625
1.6875 0.9375 1.2625
1.75 1 1.2625
1.6875 0.9375 1.325
1.75 0.9375 1.325
1.6875 1 1.325
1.75 0.9375 1.2625
1.8125 1 1.2625
1.8125 0.9375 1.2625
1.875 1 1.2625
1.8125 0.9375 1.325
1.875 0.9375 1.325
1.8125 1 1.325
1.875 0.9375 1.2625
1.9375 1 1.2625
1.9375 0.9375 1.2625
2 1 1.2625
1.9375 0.9375 1.325
2 0.9375 1.325
1.9375 1 1.325
2 0.9375 1.2625
2.0625 1 1.2625
2.0625 0.9375 1.2625
2.125 1 1.2625
2.0625 0.9375 1.325
2.125 0.9375 1.325
2.0625 1 1.325
2.125 0.9375 1.2625
2.1875 1 1.2625
2.1875 0.9375 1.2625
2.25 1 1.2625
2.1875 0.9375 1.325
2.25 0.9375 1.325
2.1875 1 1.325
2.25 0.9375 1.2625
2.3125 1 1.2625
2.3125 0.9375 1.2625
2.375 1 1.2625
2.3125 0.9375 1.325
2.375 0.9375 1.325
2.3125 1 1.325
2.375 0.9375 1.2625
2.4375 1 1.2625
2.4375 0.9375 1.2625
2.5 1 1.2625
2.4375 0.9375 1.325
2.5 0.9375 1.325
2.4375 1 1.325
2.5 0.9375 1.2625
2.5625 1 1.2625
2.5625 0.9375 1.2625
2.625 1 1.2625
2.5625 0.9375 1.325
2.625 0.9375 1.325
2.5625 1 1.325
2.625 0.9375 1.2625
2.6875 1 1.2625
2.6875 0.9375 1.2625
2.75 1 1.2625
2.6875 0.9375 1.325
2.75 0.9375 1.325
2.6875 1 1.325
2.75 0.9375 1.2625
2.8125 1 1.2625
2.8125 0.9375 1.2625
2.875 1 1.2625
2.8125 0.9375 1.325
2.875 0.9375 1.325
2.8125 1 1.325
2.875 0.9375 1.2625
2.9375 1 1.2625
2.9375 0.9375 1.2625
3 1 1.2625
2.9375 0.9375 1.325
3 0.9375 1.325
2.9375 1 1.325
3 0.9375 1.2625
3.0625 1 1.2625
3.0625 0.9375 1.2625
3.125 1 1.2625
3.0625 0.9375 1.325
3.125 0.9375 1.325
3.0625 1 1.325
3.125 0.9375 1.2625
3.1875 1 1.2625
3.1875 0.9375 1.2625
3.25 1 1.2625
3.1875 0.9375 1.325
3.25 0.9375 1.325
3.1875 1 1.325
3.25 0.9375 1.2625
3.3125 1 1.2625
3.3125 0.9375 1.2625
3.375 1 1.2625
3.3125 0.9375 1.325
3.375 0.9375 1.325
3.3125 1 1.325
3.375 0.9375 1.2625
3.4375 1 1.2625
3.4375 0.9375 1.2625
3.5 1 1.2625
3.4375 0.9375 1.325
3.5 0.9375 1.325
3.4375 1 1.325
3.5 0.9375 1.2625
3.5625 1 1.2625
3.5625 0.9375 1.2625
3.625 1 1.2625
3.5625 0.9375 1.325
3.625 0.9375 1.325
3.5625 1 1.325
3.625 0.9375 1.2625
3.6875 1 1.2625
3.6875 0.9375 1.2625
3.75 1 1.2625
3.6875 0.9375 1.325
3.75 0.9375 1.325
3.6875 1 1.325
3.75 0.9375 1.2625
3.8125 1 1.2625
3.8125 0.9375 1.2625
3.875 1 1.2625
3.8125 0.9375 1.325
3.875 0.9375 1.325
3.8125 1 1.325
3.875 0.9375 1.2625
3.9375 1 1.2625
3.9375 0.9375 1.2625
4 1 1.2625
3.9375 0.9375 1.325
4 0.9375 1.325
3.9375 1 1.325
4 0.9375 1.2625
0.0625 0.125 1.3875
0.0625 0.0625 1.3875
0.125 0.125 1.3875
0.0625 0.0625 1.45
0.125 0.0625 1.45
0.0625 0 1.45
0 0 1.3875
0.0625 0 1.3875
0 0.125 1.3875
0 0.0625 1.3875
0.0625 0.125 1.45
0 0.0625 1.45
0.125 0 1.3875
0.125 0.0625 1.3875
0.1875 0.125 1.3875
0.1875 0.0625 1.3875
0.25 0.125 1.3875
0.1875 0.0625 1.45
0.25 0.0625 1.45
0.1875 0 1.45
0.1875 0 1.3875
0.1875 0.125 1.45
0.25 0 1.3875
0.25 0.0625 1.3875
0.3125 0.125 1.3875
0.3125 0.0625 1.3875
0.375 0.125 1.3875
0.3125 0.0625 1.45
0.375 0.0625 1.45
0.3125 0 1.45
0.3125 0 1.3875
0.3125 0.125 1.45
0.375 0 1.3875
0.375 0.0625 1.3875
0.4375 0.125 1.3875
0.4375 0.0625 1.3875
0.5 0.125 1.3875
0.4375 0.0625 1.45
0.5 0.0625 1.45
0.4375 0 1.45
0.4375 0 1.3875
0.4375 0.125 1.45
0.5 0 1.3875
0.5 0.0625 1.3875
0.5625 0.125 1.3875
0.5625 0.0625 1.3875
0.625 0.125 1.3875
0.5625 0.0625 1.45
0.625 0.0625 1.45
0.5625 0 1.45
0.5625 0 1.3875
0.5625 0.125 1.45
0.625 0 1.3875
0.625 0.0625 1.3875
0.6875 0.125 1.3875
0.6875 0.0625 1.3875
0.75 0.125 1.3875
0.6875 0.0625 1.45
0.75 0.0625 1.45
0.6875 0 1.45
0.6875 0 1.3875
0.6875 0.125 1.45
0.75 0 1.3875
0.75 0.0625 1.3875
0.8125 0.125 1.3875
0.8125 0.0625 1.3875
0.875 0.125 1.3875
0.8125 0.0625 1.45
0.875 0.0625 1.45
0.8125 0 1.45
0.8125 0 1.3875
0.8125 0.125 1.45
0.875 0 1.3875
0.875 0.0625 1.3875
0.9375 0.125 1.3875
0.9375 0.0625 1.3875
1 0.125 1.3875
0.9375 0.0625 1.45
1 0.0625 1.45
0.9375 0 1.45
0.9375 0 1.3875
0.9375 0.125 1.45
1 0 1.3875
1 0.0625 1.3875
1.0625 0.125 1.3875
1.0625 0.0625 1.3875
1.125 0.125 1.3875
1.0625 0.0625 1.45
1.125 0.0625 1.45
1.0625 0 1.45
1.0625 0 1.3875
1.0625 0.125 1.45
1.125 0 1.3875
1.125 0.0625 1.3875
1.1875 0.125 1.3875
1.1875 0.0625 1.3875
1.25 0.125 1.3875
1.1875 0.0625 1.45
1.25 0.0625 1.45
1.1875 0 1.45
1.1875 0 1.3875
1.1875 0.125 1.45
1.25 0 1.3875
1.25 0.0625 1.3875
1.3125 0.125 1.3875
1.3125 0.0625 1.3875
1.375 0.125 1.3875
1.3125 0.0625 1.45
1.375 0.0625 1.45
1.3125 0 1.45
1.3125 0 1.3875
1.3125 0.125 1.45
1.375 0 1.3875
1.375 0.0625 1.3875
1.4375 0.125 1.3875
1.4375 0.0625 1.3875
1.5 0.125 1.3875
1.4375 0.0625 1.45
1.5 0.0625 1.45
1.4375 0 1.45
1.4375 0 1.3875
1.4375 0.125 1.45
1.5 0 1.3875
1.5 0.0625 1.3875
1.5625 0.125 1.3875
1.5625 0.0625 1.3875
1.625 0.125 1.3875
1.5625 0.0625 1.45
1.625 0.0625 1.45
1.5625 0 1.45
1.5625 0 1.3875
1.5625 0.125 1.45
1.625 0 1.3875
1.625 0.0625 1.3875
1.6875 0.125 1.3875
1.6875 0.0625 1.3875
1.75 0.125 1.3875
1.6875 0.0625 1.45
1.75 0.0625 1.45
1.6875 0 1.45
1.6875 0 1.3875
1.6875 0.125 1.45
1.75 0 1.3875
1.75 0.0625 1.3875
1.8125 0.125 1.3875
1.8125 0.0625 1.3875
1.875 0.125 1.3875
1.8125 0.0625 1.45
1.875 0.0625 1.45
1.8125 0 1.45
1.8125 0 1.3875
1.8125 0.125 1.45
1.875 0 1.3875
1.875 0.0625 1.3875
1.9375 0.125 1.3875
1.9375 0.0625 1.3875
2 0.125 1.3875
1.9375 0.0625 1.45
2 0.0625 1.45
1.9375 0 1.45
1.9375 0 1.3875
1.9375 0.125 1.45
2 0 1.3875
2 0.0625 1.3875
2.0625 0.125 1.3875
2.0625 0.0625 1.3875
2.125 0.125 1.3875
2.0625 0.0625 1.45
2.125 0.0625 1.45
2.0625 0 1.45
2.0625 0 1.3875
2.0625 0.125 1.45
2.125 0 1.3875
2.125 0.0625 1.3875
2.1875 0.125 1.3875
2.1875 0.0625 1.3875
2.25 0.125 1.3875
2.1875 0.0625 1.45
2.25 0.0625 1.45
2.1875 0 1.45
2.1875 0 1.3875
2.1875 0.125 1.45
2.25 0 1.3875
2.25 0.0625 1.3875
2.3125 0.125 1.3875
2.3125 0.0625 1.3875
2.375 0.125 1.3875
2.3125 0.0625 1.45
2.375 0.0625 1.45
2.3125 0 1.45
2.3125 0 1.3875
2.3125 0.125 1.45
2.375 0 1.3875
2.375 0.0625 1.3875
2.4375 0.125 1.3875
2.4375 0.0625 1.3875
2.5 0.125 1.3875
2.4375 0.0625 1.45
2.5 0.0625 1.45
2.4375 0 1.45
2.4375 0 1.3875
2.4375 0.125 1.45
2.5 0 1.3875
2.5 0.0625 1.3875
2.5625 0.125 1.3875
2.5625 0.0625 1.3875
2.625 0.125 1.3875
2.5625 0.0625 1.45
2.625 0.0625 1.45
2.5625 0 1.45
2.5625 0 1.3875
2.5625 0.125 1.45
2.625 0 1.3875
2.625 0.0625 1.3875
2.6875 0.125 1.3875
2.6875 0.0625 1.3875
2.75 0.125 1.3875
2.6875 0.0625 1.45
2.75 0.0625 1.45
2.6875 0 1.45
2.6875 0 1.3875
2.6875 0.125 1.45
2.75 0 1.3875
2.75 0.0625 1.3875
2.8125 0.125 1.3875
2.8125 0.0625 1.3875
2.875 0.125 1.3875
2.8125 0.0625 1.45
2.875 0.0625 1.45
2.8125 0 1.45
2.8125 0 1.3875
2.8125 0.125 1.45
2.875 0 1.3875
2.875 0.0625 1.3875
2.9375 0.125 1.3875
2.9375 0.0625 1.3875
3 0.125 1.3875
2.9375 0.0625 1.45
3 0.0625 1.45
2.9375 0 1.45
2.9375 0 1.3875
2.9375 0.125 1.45
3 0 1.3875
3 0.0625 1.3875
3.0625 0.125 1.3875
3.0625 0.0625 1.3875
3.125 0.125 1.3875
3.0625 0.0625 1.45
3.125 0.0625 1.45
3.0625 0 1.45
3.0625 0 1.3875
3.0625 0.125 1.45
3.125 0 1.3875
3.125 0.0625 1.3875
3.1875 0.125 1.3875
3.1875 0.0625 1.3875
3.25 0.125 1.3875
3.1875 0.0625 1.45
3.25 0.0625 1.45
3.1875 0 1.45
3.1875 0 1.3875
3.1875 0.125 1.45
3.25 0 1.3875
3.25 0.0625 1.3875
3.3125 0.125 1.3875
3.3125 0.0625 1.3875
3.375 0.125 1.3875
3.3125 0.0625 1.45
3.375 0.0625 1.45
3.3125 0 1.45
3.3125 0 1.3875
3.3125 0.125 1.45
3.375 0 1.3875
3.375 0.0625 1.3875
3.4375 0.125 1.3875
3.4375 0.0625 1.3875
3.5 0.125 1.3875
3.4375 0.0625 1.45
3.5 0.0625 1.45
3.4375 0 1.45
3.4375 0 1.3875
3.4375 0.125 1.45
3.5 0 1.3875
3.5 0.0625 1.3875
3.5625 0.125 1.3875
3.5625 0.0625 1.3875
3.625 0.125 1.3875
3.5625 0.0625 1.45
3.625 0.0625 1.45
3.5625 0 1.45
3.5625 0 1.3875
3.5625 0.125 1.45
3.625 0 1.3875
3.625 0.0625 1.3875
3.6875 0.125 1.3875
3.6875 0.0625 1.3875
3.75 0.125 1.3875
3.6875 0.0625 1.45
3.75 0.0625 1.45
3.6875 0 1.45
3.6875 0 1.3875
3.6875 0.125 1.45
3.75 0 1.3875
3.75 0.0625 1.3875
3.8125 0.125 1.3875
3.8125 0.0625 1.3875
3.875 0.125 1.3875
3.8125 0.0625 1.45
3.875 0.0625 1.45
3.8125 0 1.45
3.8125 0 1.3875
3.8125 0.125 1.45
3.875 0 1.3875
3.875 0.0625 1.3875
3.9375 0.125 1.3875
3.9375 0.0625 1.3875
4 0.125 1.3875
3.9375 0.0625 1.45
4 0.0625 1.45
3.9375 0 1.45
3.9375 0 1.3875
3.9375 0.125 1.45
4 0 1.3875
4 0.0625 1.3875
0.0625 0.25 1.3875
0.0625 0.1875 1.3875
0.125 0.25 1.3875
0.0625 0.1875 1.45
0.125 0.1875 1.45
0 0.25 1.3875
0 0.1875 1.3875
0.0625 0.25 1.45
0 0.1875 1.45
0.125 0.1875 1.3875
0.1875 0.25 1.3875
0.1875 0.1875 1.3875
0.25 0.25 1.3875
0.1875 0.1875 1.45
0.25 0.1875 1.45
0.1875 0.25 1.45
0.25 0.1875 1.3875
0.3125 0.25 1.3875
0.3125 0.1875 1.3875
0.375 0.25 1.3875
0.3125 0.1875 1.45
0.375 0.1875 1.45
0.3125 0.25 1.45
0.375 0.1875 1.3875
0.4375 0.25 1.3875
0.4375 0.1875 1.3875
0.5 0.25 1.3875
0.4375 0.1875 1.45
0.5 0.1875 1.45
0.4375 0.25 1.45
0.5 0.1875 1.3875
0.5625 0.25 1.3875
0.5625 0.1875 1.3875
0.625 0.25 1.3875
0.5625 0.1875 1.45
0.625 0.1875 1.45
0.5625 0.25 1.45
0.625 0.1875 1.3875
0.6875 0.25 1.3875
0.6875 0.1875 1.3875
0.75 0.25 1.3875
0.6875 0.1875 1.45
0.75 0.1875 1.45
0.6875 0.25 1.45
0.75 0.1875 1.3875
0.8125 0.25 1.3875
0.8125 0.1875 1.3875
0.875 0.25 1.3875
0.8125 0.1875 1.45
0.875 0.1875 1.45
0.8125 0.25 1.45
0.875 0.1875 1.3875
0.9375 0.25 1.3875
0.9375 0.1875 1.3875
1 0.25 1.3875
0.9375 0.1875 1.45
1 0.1875 1.45
0.9375 0.25 1.45
1 0.1875 1.3875
1.0625 0.25 1.3875
1.0625 0.1875 1.3875
1.125 0.25 1.3875
1.0625 0.1875 1.45
1.125 0.1875 1.45
1.0625 0.25 1.45
1.125 0.1875 1.3875
1.1875 0.25 1.3875
1.1875 0.1875 1.3875
1.25 0.25 1.3875
1.1875 0.1875 1.45
1.25 0.1875 1.45
1.1875 0.25 1.45
1.25 0.1875 1.3875
1.3125 0.25 1.3875
1.3125 0.1875 1.3875
1.375 0.25 1.3875
1.3125 0.1875 1.45
1.375 0.1875 1.45
1.3125 0.25 1.45
1.375 0.1875 1.3875
1.4375 0.25 1.3875
1.4375 0.1875 1.3875
1.5 0.25 1.3875
1.4375 0.1875 1.45
1.5 0.1875 1.45
1.4375 0.25 1.45
1.5 0.1875 1.3875
1.5625 0.25 1.3875
1.5625 0.1875 1.3875
1.625 0.25 1.3875
1.5625 0.1875 1.45
1.625 0.1875 1.45
1.5625 0.25 1.45
1.625 0.1875 1.3875
1.6875 0.25 1.3875
1.6875 0.1875 1.3875
1.75 0.25 1.3875
1.6875 0.1875 1.45
1.75 0.1875 1.45
1.6875 0.25 1.45
1.75 0.1875 1.3875
1.8125 0.25 1.3875
1.8125 0.1875 1.3875
1.875 0.25 1.3875
1.8125 0.1875 1.45
1.875 0.1875 1.45
1.8125 0.25 1.45
1.875 0.1875 1.3875
1.9375 0.25 1.3875
1.9375 0.1875 1.3875
2 0.25 1.3875
1.9375 0.1875 1.45
2 0.1875 1.45
1.9375 0.25 1.45
2 0.1875 1.3875
2.0625 0.25 1.3875
2.0625 0.1875 1.3875
2.125 0.25 1.3875
2.0625 0.1875 1.45
2.125 0.1875 1.45
2.0625 0.25 1.45
2.125 0.1875 1.3875
2.1875 0.25 1.3875
2.1875 0.1875 1.3875
2.25 0.25 1.3875
2.1875 0.1875 1.45
2.25 0.1875 1.45
2.1875 0.25 1.45
2.25 0.1875 1.3875
2.3125 0.25 1.3875
2.3125 0.1875 1.3875
2.375 0.25 1.3875
2.3125 0.1875 1.45
2.375 0.1875 1.45
2.3125 0.25 1.45
2.375 0.1875 1.3875
2.4375 0.25 1.3875
2.4375 0.1875 1.3875
2.5 0.25 1.3875
2.4375 0.1875 1.45
2.5 0.1875 1.45
2.4375 0.25 1.45
2.5 0.1875 1.3875
2.5625 0.25 1.3875
2.5625 0.1875 1.3875
2.625 0.25 1.3875
2.5625 0.1875 1.45
2.625 0.1875 1.45
2.5625 0.25 1.45
2.625 0.1875 1.3875
2.6875 0.25 1.3875
2.6875 0.1875 1.3875
2.75 0.25 1.3875
2.6875 0.1875 1.45
2.75 0.1875 1.45
2.6875 0.25 1.45
2.75 0.1875 1.3875
2.8125 0.25 1.3875
2.8125 0.1875 1.3875
2.875 0.25 1.3875
2.8125 0.1875 1.45
2.875 0.1875 1.45
2.8125 0.25 1.45
2.875 0.1875 1.3875
2.9375 0.25 1.3875
2.9375 0.1875 1.3875
3 0.25 1.3875
2.9375 0.1875 1.45
3 0.1875 1.45
2.9375 0.25 1.45
3 0.1875 1.3875
3.0625 0.25 1.3875
3.0625 0.1875 1.3875
3.125 0.25 1.3875
3.0625 0.1875 1.45
3.125 0.1875 1.45
3.0625 0.25 1.45
3.125 0.1875 1.3875
3.1875 0.25 1.3875
3.1875 0.1875 1.3875
3.25 0.25 1.3875
3.1875 0.1875 1.45
3.25 0.1875 1.45
3.1875 0.25 1.45
3.25 0.1875 1.3875
3.3125 0.25 1.3875
3.3125 0.1875 1.3875
3.375 0.25 1.3875
3.3125 0.1875 1.45
3.375 0.1875 1.45
3.3125 0.25 1.45
3.375 0.1875 1.3875
3.4375 0.25 1.3875
3.4375 0.1875 1.3875
3.5 0.25 1.3875
3.4375 0.1875 1.45
3.5 0.1875 1.45
3.4375 0.25 1.45
3.5 0.1875 1.3875
3.5625 0.25 1.3875
3.5625 0.1875 1.3875
3.625 0.25 1.3875
3.5625 0.1875 1.45
3.625 0.1875 1.45
3.5625 0.25 1.45
3.625 0.1875 1.3875
3.6875 0.25 1.3875
3.6875 0.1875 1.3875
3.75 0.25 1.3875
3.6875 0.1875 1.45
3.75 0.1875 1.45
3.6875 0.25 1.45
3.75 0.1875 1.3875
3.8125 0.25 1.3875
3.8125 0.1875 1.3875
3.875 0.25 1.3875
3.8125 0.1875 1.45
3.875 0.1875 1.45
3.8125 0.25 1.45
3.875 0.1875 1.3875
3.9375 0.25 1.3875
3.9375 0.1875 1.3875
4 0.25 1.3875
3.9375 0.1875 1.45
4 0.1875 1.45
3.9375 0.25 1.45
4 0.1875 1.3875
0.0625 0.375 1.3875
0.0625 0.3125 1.3875
0.125 0.375 1.3875
0.0625 0.3125 1.45
0.125 0.3125 1.45
0 0.375 1.3875
0 0.3125 1.3875
0.0625 0.375 1.45
0 0.3125 1.45
0.125 0.3125 1.3875
0.1875 0.375 1.3875
0.1875 0.3125 1.3875
0.25 0.375 1.3875
0.1875 0.3125 1.45
0.25 0.3125 1.45
0.1875 0.375 1.45
0.25 0.3125 1.3875
0.3125 0.375 1.3875
0.3125 0.3125 1.3875
0.375 0.375 1.3875
0.3125 0.3125 1.45
0.375 0.3125 1.45
0.3125 0.375 1.45
0.375 0.3125 1.3875
0.4375 0.375 1.3875
0.4375 0.3125 1.3875
0.5 0.375 1.3875
0.4375 0.3125 1.45
0.5 0.3125 1.45
0.4375 0.375 1.45
0.5 0.3125 1.3875
0.5625 0.375 1.3875
0.5625 0.3125 1.3875
0.625 0.375 1.3875
0.5625 0.3125 1.45
0.625 0.3125 1.45
0.5625 0.375 1.45
0.625 0.3125 1.3875
0.6875 0.375 1.3875
0.6875 0.3125 1.3875
0.75 0.375 1.3875
0.6875 0.3125 1.45
0.75 0.3125 1.45
0.6875 0.375 1.45
0.75 0.3125 1.3875
0.8125 0.375 1.3875
0.8125 0.3125 1.3875
0.875 0.375 1.3875
0.8125 0.3125 1.45
0.875 0.3125 1.45
0.8125 0.375 1.45
0.875 0.3125 1.3875
0.9375 0.375 1.3875
0.9375 0.3125 1.3875
1 0.375 1.3875
0.9375 0.3125 1.45
1 0.3125 1.45
0.9375 0.375 1.45
1 0.3125 1.3875
1.0625 0.375 1.3875
1.0625 0.3125 1.3875
1.125 0.375 1.3875
1.0625 0.3125 1.45
1.125 0.3125 1.45
1.0625 0.375 1.45
1.125 0.3125 1.3875
1.1875 0.375 1.3875
1.1875 0.3125 1.3875
1.25 0.375 1.3875
1.1875 0.3125 1.45
1.25 0.3125 1.45
1.1875 0.375 1.45
1.25 0.3125 1.3875
1.3125 0.375 1.3875
1.3125 0.3125 1.3875
1.375 0.375 1.3875
1.3125 0.3125 1.45
1.375 0.3125 1.45
1.3125 0.375 1.45
1.375 0.3125 1.3875
1.4375 0.375 1.3875
1.4375 0.3125 1.3875
1.5 0.375 1.3875
1.4375 0.3125 1.45
1.5 0.3125 1.45
1.4375 0.375 1.45
1.5 0.3125 1.3875
1.5625 0.375 1.3875
1.5625 0.3125 1.3875
1.625 0.375 1.3875
1.5625 0.3125 1.45
1.625 0.3125 1.45
1.5625 0.375 1.45
1.625 0.3125 1.3875
1.6875 0.375 1.3875
1.6875 0.3125 1.3875
1.75 0.375 1.3875
1.6875 0.3125 1.45
1.75 0.3125 1.45
1.6875 0.375 1.45
1.75 0.3125 1.3875
1.8125 0.375 1.3875
1.8125 0.3125 1.3875
1.875 0.375 1.3875
1.8125 0.3125 1.45
1.875 0.3125 1.45
1.8125 0.375 1.45
1.875 0.3125 1.3875
1.9375 0.375 1.3875
1.9375 0.3125 1.3875
2 0.375 1.3875
1.9375 0.3125 1.45
2 0.3125 1.45
1.9375 0.375 1.45
2 0.3125 1.3875
2.0625 0.375 1.3875
2.0625 0.3125 1.3875
2.125 0.375 1.3875
2.0625 0.3125 1.45
2.125 0.3125 1.45
2.0625 0.375 1.45
2.125 0.3125 1.3875
2.1875 0.375 1.3875
2.1875 0.3125 1.3875
2.25 0.375 1.3875
2.1875 0.3125 1.45
2.25 0.3125 1.45
2.1875 0.375 1.45
2.25 0.3125 1.3875
2.3125 0.375 1.3875
2.3125 0.3125 1.3875
2.375 0.375 1.3875
2.3125 0.3125 1.45
2.375 0.3125 1.45
2.3125 0.375 1.45
2.375 0.3125 1.3875
2.4375 0.375 1.3875
2.4375 0.3125 1.3875
2.5 0.375 1.3875
2.4375 0.3125 1.45
2.5 0.3125 1.45
2.4375 0.375 1.45
2.5 0.3125 1.3875
2.5625 0.375 1.3875
2.5625 0.3125 1.3875
2.625 0.375 1.3875
2.5625 0.3125 1.45
2.625 0.3125 1.45
2.5625 0.375 1.45
2.625 0.3125 1.3875
2.6875 0.375 1.3875
2.6875 0.3125 1.3875
2.75 0.375 1.3875
2.6875 0.3125 1.45
2.75 0.3125 1.45
2.6875 0.375 1.45
2.75 0.3125 1.3875
2.8125 0.375 1.3875
2.8125 0.3125 1.3875
2.875 0.375 1.3875
2.8125 0.3125 1.45
2.875 0.3125 1.45
2.8125 0.375 1.45
2.875 0.3125 1.3875
2.9375 0.375 1.3875
2.9375 0.3125 1.3875
3 0.375 1.3875
2.9375 0.3125 1.45
3 0.3125 1.45
2.9375 0.375 1.45
3 0.3125 1.3875
3.0625 0.375 1.3875
3.0625 0.3125 1.3875
3.125 0.375 1.3875
3.0625 0.3125 1.45
3.125 0.3125 1.45
3.0625 0.375 1.45
3.125 0.3125 1.3875
3.1875 0.375 1.3875
3.1875 0.3125 1.3875
3.25 0.375 1.3875
3.1875 0.3125 1.45
3.25 0.3125 1.45
3.1875 0.375 1.45
3.25 0.3125 1.3875
3.3125 0.375 1.3875
3.3125 0.3125 1.3875
3.375 0.375 1.3875
3.3125 0.3125 1.45
3.375 0.3125 1.45
3.3125 0.375 1.45
3.375 0.3125 1.3875
3.4375 0.375 1.3875
3.4375 0.3125 1.3875
3.5 0.375 1.3875
3.4375 0.3125 1.45
3.5 0.3125 1.45
3.4375 0.375 1.45
3.5 0.3125 1.3875
3.5625 0.375 1.3875
3.5625 0.3125 1.3875
3.625 0.375 1.3875
3.5625 0.3125 1.45
3.625 0.3125 1.45
3.5625 0.375 1.45
3.625 0.3125 1.3875
3.6875 0.375 1.3875
3.6875 0.3125 1.3875
3.75 0.375 1.3875
3.6875 0.3125 1.45
3.75 0.3125 1.45
3.6875 0.375 1.45
3.75 0.3125 1.3875
3.8125 0.375 1.3875
3.8125 0.3125 1.3875
3.875 0.375 1.3875
3.8125 0.3125 1.45
3.875 0.3125 1.45
3.8125 0.375 1.45
3.875 0.3125 1.3875
3.9375 0.375 1.3875
3.9375 0.3125 1.3875
4 0.375 1.3875
3.9375 0.3125 1.45
4 0.3125 1.45
3.9375 0.375 1.45
4 0.3125 1.3875
0.0625 0.5 1.3875
0.0625 0.4375 1.3875
0.125 0.5 1.3875
0.0625 0.4375 1.45
0.125 0.4375 1.45
0 0.5 1.3875
0 0.4375 1.3875
0.0625 0.5 1.45
0 0.4375 1.45
0.125 0.4375 1.3875
0.1875 0.5 1.3875
0.1875 0.4375 1.3875
0.25 0.5 1.3875
0.1875 0.4375 1.45
0.25 0.4375 1.45
0.1875 0.5 1.45
0.25 0.4375 1.3875
0.3125 0.5 1.3875
0.3125 0.4375 1.3875
0.375 0.5 1.3875
0.3125 0.4375 1.45
0.375 0.4375 1.45
0.3125 0.5 1.45
0.375 0.4375 1.3875
0.4375 0.5 1.3875
0.4375 0.4375 1.3875
0.5 0.5 1.3875
0.4375 0.4375 1.45
0.5 0.4375 1.45
0.4375 0.5 1.45
0.5 0.4375 1.3875
0.5625 0.5 1.3875
0.5625 0.4375 1.3875
0.625 0.5 1.3875
0.5625 0.4375 1.45
0.625 0.4375 1.45
0.5625 0.5 1.45
0.625 0.4375 1.3875
0.6875 0.5 1.3875
0.6875 0.4375 1.3875
0.75 0.5 1.3875
0.6875 0.4375 1.45
0.75 0.4375 1.45
0.6875 0.5 1.45
0.75 0.4375 1.3875
0.8125 0.5 1.3875
0.8125 0.4375 1.3875
0.875 0.5 1.3875
0.8125 0.4375 1.45
0.875 0.4375 1.45
0.8125 0.5 1.45
0.875 0.4375 1.3875
0.9375 0.5 1.3875
0.9375 0.4375 1.3875
1 0.5 1.3875
0.9375 0.4375 1.45
1 0.4375 1.45
0.9375 0.5 1.45
1 0.4375 1.3875
1.0625 0.5 1.3875
1.0625 0.4375 1.3875
1.125 0.5 1.3875
1.0625 0.4375 1.45
1.125 0.4375 1.45
1.0625 0.5 1.45
1.125 0.4375 1.3875
1.1875 0.5 1.3875
1.1875 0.4375 1.3875
1.25 0.5 1.3875
1.1875 0.4375 1.45
1.25 0.4375 1.45
1.1875 0.5 1.45
1.25 0.4375 1.3875
1.3125 0.5 1.3875
1.3125 0.4375 1.3875
1.375 0.5 1.3875
1.3125 0.4375 1.45
1.375 0.4375 1.45
1.3125 0.5 1.45
1.375 0.4375 1.3875
1.4375 0.5 1.3875
1.4375 0.4375 1.3875
1.5 0.5 1.3875
1.4375 0.4375 1.45
1.5 0.4375 1.45
1.4375 0.5 1.45
1.5 0.4375 1.3875
1.5625 0.5 1.3875
1.5625 0.4375 1.3875
1.625 0.5 1.3875
1.5625 0.4375 1.45
1.625 0.4375 1.45
1.5625 0.5 1.45
1.625 0.4375 1.3875
1.6875 0.5 1.3875
1.6875 0.4375 1.3875
1.75 0.5 1.3875
1.6875 0.4375 1.45
1.75 0.4375 1.45
1.6875 0.5 1.45
1.75 0.4375 1.3875
1.8125 0.5 1.3875
1.8125 0.4375 1.3875
1.875 0.5 1.3875
1.8125 0.4375 1.45
1.875 0.4375 1.45
1.8125 0.5 1.45
1.875 0.4375 1.3875
1.9375 0.5 1.3875
1.9375 0.4375 1.3875
2 0.5 1.3875
1.9375 0.4375 1.45
2 0.4375 1.45
1.9375 0.5 1.45
2 0.4375 1.3875
2.0625 0.5 1.3875
2.0625 0.4375 1.3875
2.125 0.5 1.3875
2.0625 0.4375 1.45
2.125 0.4375 1.45
2.0625 0.5 1.45
2.125 0.4375 1.3875
2.1875 0.5 1.3875
2.1875 0.4375 1.3875
2.25 0.5 1.3875
2.1875 0.4375 1.45
2.25 0.4375 1.45
2.1875 0.5 1.45
2.25 0.4375 1.3875
2.3125 0.5 1.3875
2.3125 0.4375 1.3875
2.375 0.5 1.3875
2.3125 0.4375 1.45
2.375 0.4375 1.45
2.3125 0.5 1.45
2.375 0.4375 1.3875
2.4375 0.5 1.3875
2.4375 0.4375 1.3875
2.5 0.5 1.3875
2.4375 0.4375 1.45
2.5 0.4375 1.45
2.4375 0.5 1.45
2.5 0.4375 1.3875
2.5625 0.5 1.3875
2.5625 0.4375 1.3875
2.625 0.5 1.3875
2.5625 0.4375 1.45
2.625 0.4375 1.45
2.5625 0.5 1.45
2.625 0.4375 1.3875
2.6875 0.5 1.3875
2.6875 0.4375 1.3875
2.75 0.5 1.3875
2.6875 0.4375 1.45
2.75 0.4375 1.45
2.6875 0.5 1.45
2.75 0.4375 1.3875
2.8125 0.5 1.3875
2.8125 0.4375 1.3875
2.875 0.5 1.3875
2.8125 0.4375 1.45
2.875 0.4375 1.45
2.8125 0.5 1.45
2.875 0.4375 1.3875
2.9375 0.5 1.3875
2.9375 0.4375 1.3875
3 0.5 1.3875
2.9375 0.4375 1.45
3 0.4375 1.45
2.9375 0.5 1.45
3 0.4375 1.3875
3.0625 0.5 1.3875
3.0625 0.4375 1.3875
3.125 0.5 1.3875
3.0625 0.4375 1.45
3.125 0.4375 1.45
3.0625 0.5 1.45
3.125 0.4375 1.3875
3.1875 0.5 1.3875
3.1875 0.4375 1.3875
3.25 0.5 1.3875
3.1875 0.4375 1.45
3.25 0.4375 1.45
3.1875 0.5 1.45
3.25 0.4375 1.3875
3.3125 0.5 1.3875
3.3125 0.4375 1.3875
3.375 0.5 1.3875
3.3125 0.4375 1.45
3.375 0.4375 1.45
3.3125 0.5 1.45
3.375 0.4375 1.3875
3.4375 0.5 1.3875
3.4375 0.4375 1.3875
3.5 0.5 1.3875
3.4375 0.4375 1.45
3.5 0.4375 1.45
3.4375 0.5 1.45
3.5 0.4375 1.3875
3.5625 0.5 1.3875
3.5625 0.4375 1.3875
3.625 0.5 1.3875
3.5625 0.4375 1.45
3.625 0.4375 1.45
3.5625 0.5 1.45
3.625 0.4375 1.3875
3.6875 0.5 1.3875
3.6875 0.4375 1.3875
3.75 0.5 1.3875
3.6875 0.4375 1.45
3.75 0.4375 1.45
3.6875 0.5 1.45
3.75 0.4375 1.3875
3.8125 0.5 1.3875
3.8125 0.4375 1.3875
3.875 0.5 1.3875
3.8125 0.4375 1.45
3.875 0.4375 1.45
3.8125 0.5 1.45
3.875 0.4375 1.3875
3.9375 0.5 1.3875
3.9375 0.4375 1.3875
4 0.5 1.3875
3.9375 0.4375 1.45
4 0.4375 1.45
3.9375 0.5 1.45
4 0.4375 1.3875
0.0625 0.625 1.3875
0.0625 0.5625 1.3875
0.125 0.625 1.3875
0.0625 0.5625 1.45
0.125 0.5625 1.45
0 0.625 1.3875
0 0.5625 1.3875
0.0625 0.625 1.45
0 0.5625 1.45
0.125 0.5625 1.3875
0.1875 0.625 1.3875
0.1875 0.5625 1.3875
0.25 0.625 1.3875
0.1875 0.5625 1.45
0.25 0.5625 1.45
0.1875 0.625 1.45
0.25 0.5625 1.3875
0.3125 0.625 1.3875
0.3125 0.5625 1.3875
0.375 0.625 1.3875
0.3125 0.5625 1.45
0.375 0.5625 1.45
0.3125 0.625 1.45
0.375 0.5625 1.3875
0.4375 0.625 1.3875
0.4375 0.5625 1.3875
0.5 0.625 1.3875
0.4375 0.5625 1.45
0.5 0.5625 1.45
0.4375 0.625 1.45
0.5 0.5625 1.3875
0.5625 0.625 1.3875
0.5625 0.5625 1.3875
0.625 0.625 1.3875
0.5625 0.5625 1.45
0.625 0.5625 1.45
0.5625 0.625 1.45
0.625 0.5625 1.3875
0.6875 0.625 1.3875
0.6875 0.5625 1.3875
0.75 0.625 1.3875
0.6875 0.5625 1.45
0.75 0.5625 1.45
0.6875 0.625 1.45
0.75 0.5625 1.3875
0.8125 0.625 1.3875
0.8125 0.5625 1.3875
0.875 0.625 1.3875
0.8125 0.5625 1.45
0.875 0.5625 1.45
0.8125 0.625 1.45
0.875 0.5625 1.3875
0.9375 0.625 1.3875
0.9375 0.5625 1.3875
1 0.625 1.3875
0.9375 0.5625 1.45
1 0.5625 1.45
0.9375 0.625 1.45
1 0.5625 1.3875
1.0625 0.625 1.3875
1.0625 0.5625 1.3875
1.125 0.625 1.3875
1.0625 0.5625 1.45
1.125 0.5625 1.45
1.0625 0.625 1.45
1.125 0.5625 1.3875
1.1875 0.625 1.3875
1.1875 0.5625 1.3875
1.25 0.625 1.3875
1.1875 0.5625 1.45
1.25 0.5625 1.45
1.1875 0.625 1.45
1.25 0.5625 1.3875
1.3125 0.625 1.3875
1.3125 0.5625 1.3875
1.375 0.625 1.3875
1.3125 0.5625 1.45
1.375 0.5625 1.45
1.3125 0.625 1.45
1.375 0.5625 1.3875
1.4375 0.625 1.3875
1.4375 0.5625 1.3875
1.5 0.625 1.3875
1.4375 0.5625 1.45
1.5 0.5625 1.45
1.4375 0.625 1.45
1.5 0.5625 1.3875
1.5625 0.625 1.3875
1.5625 0.5625 1.3875
1.625 0.625 1.3875
1.5625 0.5625 1.45
1.625 0.5625 1.45
1.5625 0.625 1.45
1.625 0.5625 1.3875
1.6875 0.625 1.3875
1.6875 0.5625 1.3875
1.75 0.625 1.3875
1.6875 0.5625 1.45
1.75 0.5625 1.45
1.6875 0.625 1.45
1.75 0.5625 1.3875
1.8125 0.625 1.3875
1.8125 0.5625 1.3875
1.875 0.625 1.3875
1.8125 0.5625 1.45
1.875 0.5625 1.45
1.8125 0.625 1.45
1.875 0.5625 1.3875
1.9375 0.625 1.3875
1.9375 0.5625 1.3875
2 0.625 1.3875
1.9375 0.5625 1.45
2 0.5625 1.45
1.9375 0.625 1.45
2 0.5625 1.3875
2.0625 0.625 1.3875
2.0625 0.5625 1.3875
2.125 0.625 1.3875
2.0625 0.5625 1.45
2.125 0.5625 1.45
2.0625 0.625 1.45
2.125 0.5625 1.3875
2.1875 0.625 1.3875
2.1875 0.5625 1.3875
2.25 0.625 1.3875
2.1875 0.5625 1.45
2.25 0.5625 1.45
2.1875 0.625 1.45
2.25 0.5625 1.3875
2.3125 0.625 1.3875
2.3125 0.5625 1.3875
2.375 0.625 1.3875
2.3125 0.5625 1.45
2.375 0.5625 1.45
2.3125 0.625 1.45
2.375 0.5625 1.3875
2.4375 0.625 1.3875
2.4375 0.5625 1.3875
2.5 0.625 1.3875
2.4375 0.5625 1.45
2.5 0.5625 1.45
2.4375 0.625 1.45
2.5 0.5625 1.3875
2.5625 0.625 1.3875
2.5625 0.5625 1.3875
2.625 0.625 1.3875
2.5625 0.5625 1.45
2.625 0.5625 1.45
2.5625 0.625 1.45
2.625 0.5625 1.3875
2.6875 0.625 1.3875
2.6875 0.5625 1.3875
2.75 0.625 1.3875
2.6875 0.5625 1.45
2.75 0.5625 1.45
2.6875 0.625 1.45
2.75 0.5625 1.3875
2.8125 0.625 1.3875
2.8125 0.5625 1.3875
2.875 0.625 1.3875
2.8125 0.5625 1.45
2.875 0.5625 1.45
2.8125 0.625 1.45
2.875 0.5625 1.3875
2.9375 0.625 1.3875
2.9375 0.5625 1.3875
3 0.625 1.3875
2.9375 0.5625 1.45
3 0.5625 1.45
2.9375 0.625 1.45
3 0.5625 1.3875
3.0625 0.625 1.3875
3.0625 0.5625 1.3875
3.125 0.625 1.3875
3.0625 0.5625 1.45
3.125 0.5625 1.45
3.0625 0.625 1.45
3.125 0.5625 1.3875
3.1875 0.625 1.3875
3.1875 0.5625 1.3875
3.25 0.625 1.3875
3.1875 0.5625 1.45
3.25 0.5625 1.45
3.1875 0.625 1.45
3.25 0.5625 1.3875
3.3125 0.625 1.3875
3.3125 0.5625 1.3875
3.375 0.625 1.3875
3.3125 0.5625 1.45
3.375 0.5625 1.45
3.3125 0.625 1.45
3.375 0.5625 1.3875
3.4375 0.625 1.3875
3.4375 0.5625 1.3875
3.5 0.625 1.3875
3.4375 0.5625 1.45
3.5 0.5625 1.45
3.4375 0.625 1.45
3.5 0.5625 1.3875
3.5625 0.625 1.3875
3.5625 0.5625 1.3875
3.625 0.625 1.3875
3.5625 0.5625 1.45
3.625 0.5625 1.45
3.5625 0.625 1.45
3.625 0.5625 1.3875
3.6875 0.625 1.3875
3.6875 0.5625 1.3875
3.75 0.625 1.3875
3.6875 0.5625 1.45
3.75 0.5625 1.45
3.6875 0.625 1.45
3.75 0.5625 1.3875
3.8125 0.625 1.3875
3.8125 0.5625 1.3875
3.875 0.625 1.3875
3.8125 0.5625 1.45
3.875 0.5625 1.45
3.8125 0.625 1.45
3.875 0.5625 1.3875
3.9375 0.625 1.3875
3.9375 0.5625 1.3875
4 0.625 1.3875
3.9375 0.5625 1.45
4 0.5625 1.45
3.9375 0.625 1.45
4 0.5625 1.3875
0.0625 0.75 1.3875
0.0625 0.6875 1.3875
0.125 0.75 1.3875
0.0625 0.6875 1.45
0.125 0.6875 1.45
0 0.75 1.3875
0 0.6875 1.3875
0.0625 0.75 1.45
0 0.6875 1.45
0.125 0.6875 1.3875
0.1875 0.75 1.3875
0.1875 0.6875 1.3875
0.25 0.75 1.3875
0.1875 0.6875 1.45
0.25 0.6875 1.45
0.1875 0.75 1.45
0.25 0.6875 1.3875
0.3125 0.75 1.3875
0.3125 0.6875 1.3875
0.375 0.75 1.3875
0.3125 0.6875 1.45
0.375 0.6875 1.45
0.3125 0.75 1.45
0.375 0.6875 1.3875
0.4375 0.75 1.3875
0.4375 0.6875 1.3875
0.5 0.75 1.3875
0.4375 0.6875 1.45
0.5 0.6875 1.45
0.4375 0.75 1.45
0.5 0.6875 1.3875
0.5625 0.75 1.3875
0.5625 0.6875 1.3875
0.625 0.75 1.3875
0.5625 0.6875 1.45
0.625 0.6875 1.45
0.5625 0.75 1.45
0.625 0.6875 1.3875
0.6875 0.75 1.3875
0.6875 0.6875 1.3875
0.75 0.75 1.3875
0.6875 0.6875 1.45
0.75 0.6875 1.45
0.6875 0.75 1.45
0.75 0.6875 1.3875
0.8125 0.75 1.3875
0.8125 0.6875 1.3875
0.875 0.75 1.3875
0.8125 0.6875 1.45
0.875 0.6875 1.45
0.8125 0.75 1.45
0.875 0.6875 1.3875
0.9375 0.75 1.3875
0.9375 0.6875 1.3875
1 0.75 1.3875
0.9375 0.6875 1.45
1 0.6875 1.45
0.9375 0.75 1.45
1 0.6875 1.3875
1.0625 0.75 1.3875
1.0625 0.6875 1.3875
1.125 0.75 1.3875
1.0625 0.6875 1.45
1.125 0.6875 1.45
1.0625 0.75 1.45
1.125 0.6875 1.3875
1.1875 0.75 1.3875
1.1875 0.6875 1.3875
1.25 0.75 1.3875
1.1875 0.6875 1.45
1.25 0.6875 1.45
1.1875 0.75 1.45
1.25 0.6875 1.3875
1.3125 0.75 1.3875
1.3125 0.6875 1.3875
1.375 0.75 1.3875
1.3125 0.6875 1.45
1.375 0.6875 1.45
1.3125 0.75 1.45
1.375 0.6875 1.3875
1.4375 0.75 1.3875
1.4375 0.6875 1.3875
1.5 0.75 1.3875
1.4375 0.6875 1.45
1.5 0.6875 1.45
1.4375 0.75 1.45
1.5 0.6875 1.3875
1.5625 0.75 1.3875
1.5625 0.6875 1.3875
1.625 0.75 1.3875
1.5625 0.6875 1.45
1.625 0.6875 1.45
1.5625 0.75 1.45
1.625 0.6875 1.3875
1.6875 0.75 1.3875
1.6875 0.6875 1.3875
1.75 0.75 1.3875
1.6875 0.6875 1.45
1.75 0.6875 1.45
1.6875 0.75 1.45
1.75 0.6875 1.3875
1.8125 0.75 1.3875
1.8125 0.6875 1.3875
1.875 0.75 1.3875
1.8125 0.6875 1.45
1.875 0.6875 1.45
1.8125 0.75 1.45
1.875 0.6875 1.3875
1.9375 0.75 1.3875
1.9375 0.6875 1.3875
2 0.75 1.3875
1.9375 0.6875 1.45
2 0.6875 1.45
1.9375 0.75 1.45
2 0.6875 1.3875
2.0625 0.75 1.3875
2.0625 0.6875 1.3875
2.125 0.75 1.3875
2.0625 0.6875 1.45
2.125 0.6875 1.45
2.0625 0.75 1.45
2.125 0.6875 1.3875
2.1875 0.75 1.3875
2.1875 0.6875 1.3875
2.25 0.75 1.3875
2.1875 0.6875 1.45
2.25 0.6875 1.45
2.1875 0.75 1.45
2.25 0.6875 1.3875
2.3125 0.75 1.3875
2.3125 0.6875 1.3875
2.375 0.75 1.3875
2.3125 0.6875 1.45
2.375 0.6875 1.45
2.3125 0.75 1.45
2.375 0.6875 1.3875
2.4375 0.75 1.3875
2.4375 0.6875 1.3875
2.5 0.75 1.3875
2.4375 0.6875 1.45
2.5 0.6875 1.45
2.4375 0.75 1.45
2.5 0.6875 1.3875
2.5625 0.75 1.3875
2.5625 0.6875 1.3875
2.625 0.75 1.3875
2.5625 0.6875 1.45
2.625 0.6875 1.45
2.5625 0.75 1.45
2.625 0.6875 1.3875
2.6875 0.75 1.3875
2.6875 0.6875 1.3875
2.75 0.75 1.3875
2.6875 0.6875 1.45
2.75 0.6875 1.45
2.6875 0.75 1.45
2.75 0.6875 1.3875
2.8125 0.75 1.3875
2.8125 0.6875 1.3875
2.875 0.75 1.3875
2.8125 0.6875 1.45
2.875 0.6875 1.45
2.8125 0.75 1.45
2.875 0.6875 1.3875
2.9375 0.75 1.3875
2.9375 0.6875 1.3875
3 0.75 1.3875
2.9375 0.6875 1.45
3 0.6875 1.45
2.9375 0.75 1.45
3 0.6875 1.3875
3.0625 0.75 1.3875
3.0625 0.6875 1.3875
3.125 0.75 1.3875
3.0625 0.6875 1.45
3.125 0.6875 1.45
3.0625 0.75 1.45
3.125 0.6875 1.3875
3.1875 0.75 1.3875
3.1875 0.6875 1.3875
3.25 0.75 1.3875
3.1875 0.6875 1.45
3.25 0.6875 1.45
3.1875 0.75 1.45
3.25 0.6875 1.3875
3.3125 0.75 1.3875
3.3125 0.6875 1.3875
3.375 0.75 1.3875
3.3125 0.6875 1.45
3.375 0.6875 1.45
3.3125 0.75 1.45
3.375 0.6875 1.3875
3.4375 0.75 1.3875
3.4375 0.6875 1.3875
3.5 0.75 1.3875
3.4375 0.6875 1.45
3.5 0.6875 1.45
3.4375 0.75 1.45
3.5 0.6875 1.3875
3.5625 0.75 1.3875
3.5625 0.6875 1.3875
3.625 0.75 1.3875
3.5625 0.6875 1.45
3.625 0.6875 1.45
3.5625 0.75 1.45
3.625 0.6875 1.3875
3.6875 0.75 1.3875
3.6875 0.6875 1.3875
3.75 0.75 1.3875
3.6875 0.6875 1.45
3.75 0.6875 1.45
3.6875 0.75 1.45
3.75 0.6875 1.3875
3.8125 0.75 1.3875
3.8125 0.6875 1.3875
3.875 0.75 1.3875
3.8125 0.6875 1.45
3.875 0.6875 1.45
3.8125 0.75 1.45
3.875 0.6875 1.3875
3.9375 0.75 1.3875
3.9375 0.6875 1.3875
4 0.75 1.3875
3.9375 0.6875 1.45
4 0.6875 1.45
3.9375 0.75 1.45
4 0.6875 1.3875
0.0625 0.875 1.3875
0.0625 0.8125 1.3875
0.125 0.875 1.3875
0.0625 0.8125 1.45
0.125 0.8125 1.45
0 0.875 1.3875
0 0.8125 1.3875
0.0625 0.875 1.45
0 0.8125 1.45
0.125 0.8125 1.3875
0.1875 0.875 1.3875
0.1875 0.8125 1.3875
0.25 0.875 1.3875
0.1875 0.8125 1.45
0.25 0.8125 1.45
0.1875 0.875 1.45
0.25 0.8125 1.3875
0.3125 0.875 1.3875
0.3125 0.8125 1.3875
0.375 0.875 1.3875
0.3125 0.8125 1.45
0.375 0.8125 1.45
0.3125 0.875 1.45
0.375 0.8125 1.3875
0.4375 0.875 1.3875
0.4375 0.8125 1.3875
0.5 0.875 1.3875
0.4375 0.8125 1.45
0.5 0.8125 1.45
0.4375 0.875 1.45
0.5 0.8125 1.3875
0.5625 0.875 1.3875
0.5625 0.8125 1.3875
0.625 0.875 1.3875
0.5625 0.8125 1.45
0.625 0.8125 1.45
0.5625 0.875 1.45
0.625 0.8125 1.3875
0.6875 0.875 1.3875
0.6875 0.8125 1.3875
0.75 0.875 1.3875
0.6875 0.8125 1.45
0.75 0.8125 1.45
0.6875 0.875 1.45
0.75 0.8125 1.3875
0.8125 0.875 1.3875
0.8125 0.8125 1.3875
0.875 0.875 1.3875
0.8125 0.8125 1.45
0.875 0.8125 1.45
0.8125 0.875 1.45
0.875 0.8125 1.3875
0.9375 0.875 1.3875
0.9375 0.8125 1.3875
1 0.875 1.3875
0.9375 0.8125 1.45
1 0.8125 1.45
0.9375 0.875 1.45
1 0.8125 1.3875
1.0625 0.875 1.3875
1.0625 0.8125 1.3875
1.125 0.875 1.3875
1.0625 0.8125 1.45
1.125 0.8125 1.45
1.0625 0.875 1.45
1.125 0.8125 1.3875
1.1875 0.875 1.3875
1.1875 0.8125 1.3875
1.25 0.875 1.3875
1.1875 0.8125 1.45
1.25 0.8125 1.45
1.1875 0.875 1.45
1.25 0.8125 1.3875
1.3125 0.875 1.3875
1.3125 0.8125 1.3875
1.375 0.875 1.3875
1.3125 0.8125 1.45
1.375 0.8125 1.45
1.3125 0.875 1.45
1.375 0.8125 1.3875
1.4375 0.875 1.3875
1.4375 0.8125 1.3875
1.5 0.875 1.3875
1.4375 0.8125 1.45
1.5 0.8125 1.45
1.4375 0.875 1.45
1.5 0.8125 1.3875
1.5625 0.875 1.3875
1.5625 0.8125 1.3875
1.625 0.875 1.3875
1.5625 0.8125 1.45
1.625 0.8125 1.45
1.5625 0.875 1.45
1.625 0.8125 1.3875
1.6875 0.875 1.3875
1.6875 0.8125 1.3875
1.75 0.875 1.3875
1.6875 0.8125 1.45
1.75 0.8125 1.45
1.6875 0.875 1.45
1.75 0.8125 1.3875
1.8125 0.875 1.3875
1.8125 0.8125 1.3875
1.875 0.875 1.3875
1.8125 0.8125 1.45
1.875 0.8125 1.45
1.8125 0.875 1.45
1.875 0.8125 1.3875
1.9375 0.875 1.3875
1.9375 0.8125 1.3875
2 0.875 1.3875
1.9375 0.8125 1.45
2 0.8125 1.45
1.9375 0.875 1.45
2 0.8125 1.3875
2.0625 0.875 1.3875
2.0625 0.8125 1.3875
2.125 0.875 1.3875
2.0625 0.8125 1.45
2.125 0.8125 1.45
2.0625 0.875 1.45
2.125 0.8125 1.3875
2.1875 0.875 1.3875
2.1875 0.8125 1.3875
2.25 0.875 1.3875
2.1875 0.8125 1.45
2.25 0.8125 1.45
2.1875 0.875 1.45
2.25 0.8125 1.3875
2.3125 0.875 1.3875
2.3125 0.8125 1.3875
2.375 0.875 1.3875
2.3125 0.8125 1.45
2.375 0.8125 1.45
2.3125 0.875 1.45
2.375 0.8125 1.3875
2.4375 0.875 1.3875
2.4375 0.8125 1.3875
2.5 0.875 1.3875
2.4375 0.8125 1.45
2.5 0.8125 1.45
2.4375 0.875 1.45
2.5 0.8125 1.3875
2.5625 0.875 1.3875
2.5625 0.8125 1.3875
2.625 0.875 1.3875
2.5625 0.8125 1.45
2.625 0.8125 1.45
2.5625 0.875 1.45
2.625 0.8125 1.3875
2.6875 0.875 1.3875
2.6875 0.8125 1.3875
2.75 0.875 1.3875
2.6875 0.8125 1.45
2.75 0.8125 1.45
2.6875 0.875 1.45
2.75 0.8125 1.3875
2.8125 0.875 1.3875
2.8125 0.8125 1.3875
2.875 0.875 1.3875
2.8125 0.8125 1.45
2.875 0.8125 1.45
2.8125 0.875 1.45
2.875 0.8125 1.3875
2.9375 0.875 1.3875
2.9375 0.8125 1.3875
3 0.875 1.3875
2.9375 0.8125 1.45
3 0.8125 1.45
2.9375 0.875 1.45
3 0.8125 1.3875
3.0625 0.875 1.3875
3.0625 0.8125 1.3875
3.125 0.875 1.3875
3.0625 0.8125 1.45
3.125 0.8125 1.45
3.0625 0.875 1.45
3.125 0.8125 1.3875
3.1875 0.875 1.3875
3.1875 0.8125 1.3875
3.25 0.875 1.3875
3.1875 0.8125 1.45
3.25 0.8125 1.45
3.1875 0.875 1.45
3.25 0.8125 1.3875
3.3125 0.875 1.3875
3.3125 0.8125 1.3875
3.375 0.875 1.3875
3.3125 0.8125 1.45
3.375 0.8125 1.45
3.3125 0.875 1.45
3.375 0.8125 1.3875
3.4375 0.875 1.3875
3.4375 0.8125 1.3875
3.5 0.875 1.3875
3.4375 0.8125 1.45
3.5 0.8125 1.45
3.4375 0.875 1.45
3.5 0.8125 1.3875
3.5625 0.875 1.3875
3.5625 0.8125 1.3875
3.625 0.875 1.3875
3.5625 0.8125 1.45
3.625 0.8125 1.45
3.5625 0.875 1.45
3.625 0.8125 1.3875
3.6875 0.875 1.3875
3.6875 0.8125 1.3875
3.75 0.875 1.3875
3.6875 0.8125 1.45
3.75 0.8125 1.45
3.6875 0.875 1.45
3.75 0.8125 1.3875
3.8125 0.875 1.3875
3.8125 0.8125 1.3875
3.875 0.875 1.3875
3.8125 0.8125 1.45
3.875 0.8125 1.45
3.8125 0.875 1.45
3.875 0.8125 1.3875
3.9375 0.875 1.3875
3.9375 0.8125 1.3875
4 0.875 1.3875
3.9375 0.8125 1.45
4 0.8125 1.45
3.9375 0.875 1.45
4 0.8125 1.3875
0.0625 1 1.3875
0.0625 0.9375 1.3875
0.125 1 1.3875
0.0625 0.9375 1.45
0.125 0.9375 1.45
0 1 1.3875
0 0.9375 1.3875
0.0625 1 1.45
0 0.9375 1.45
0.125 0.9375 1.3875
0.1875 1 1.3875
0.1875 0.9375 1.3875
0.25 1 1.3875
0.1875 0.9375 1.45
0.25 0.9375 1.45
0.1875 1 1.45
0.25 0.9375 1.3875
0.3125 1 1.3875
0.3125 0.9375 1.3875
0.375 1 1.3875
0.3125 0.9375 1.45
0.375 0.9375 1.45
0.3125 1 1.45
0.375 0.9375 1.3875
0.4375 1 1.3875
0.4375 0.9375 1.3875
0.5 1 1.3875
0.4375 0.9375 1.45
0.5 0.9375 1.45
0.4375 1 1.45
0.5 0.9375 1.3875
0.5625 1 1.3875
0.5625 0.9375 1.3875
0.625 1 1.3875
0.5625 0.9375 1.45
0.625 0.9375 1.45
0.5625 1 1.45
0.625 0.9375 1.3875
0.6875 1 1.3875
0.6875 0.9375 1.3875
0.75 1 1.3875
0.6875 0.9375 1.45
0.75 0.9375 1.45
0.6875 1 1.45
0.75 0.9375 1.3875
0.8125 1 1.3875
0.8125 0.9375 1.3875
0.875 1 1.3875
0.8125 0.9375 1.45
0.875 0.9375 1.45
0.8125 1 1.45
0.875 0.9375 1.3875
0.9375 1 1.3875
0.9375 0.9375 1.3875
1 1 1.3875
0.9375 0.9375 1.45
1 0.9375 1.45
0.9375 1 1.45
1 0.9375 1.3875
1.0625 1 1.3875
1.0625 0.9375 1.3875
1.125 1 1.3875
1.0625 0.9375 1.45
1.125 0.9375 1.45
1.0625 1 1.45
1.125 0.9375 1.3875
1.1875 1 1.3875
1.1875 0.9375 1.3875
1.25 1 1.3875
1.1875 0.9375 1.45
1.25 0.9375 1.45
1.1875 1 1.45
1.25 0.9375 1.3875
1.3125 1 1.3875
1.3125 0.9375 1.3875
1.375 1 1.3875
1.3125 0.9375 1.45
1.375 0.9375 1.45
1.3125 1 1.45
1.375 0.9375 1.3875
1.4375 1 1.3875
1.4375 0.9375 1.3875
1.5 1 1.3875
1.4375 0.9375 1.45
1.5 0.9375 1.45
1.4375 1 1.45
1.5 0.9375 1.3875
1.5625 1 1.3875
1.5625 0.9375 1.3875
1.625 1 1.3875
1.5625 0.9375 1.45
1.625 0.9375 1.45
1.5625 1 1.45
1.625 0.9375 1.3875
1.6875 1 1.3875
1.6875 0.9375 1.3875
1.75 1 1.3875
1.6875 0.9375 1.45
1.75 0.9375 1.45
1.6875 1 1.45
1.75 0.9375 1.3875
1.8125 1 1.3875
1.8125 0.9375 1.3875
1.875 1 1.3875
1.8125 0.9375 1.45
1.875 0.9375 1.45
1.8125 1 1.45
1.875 0.9375 1.3875
1.9375 1 1.3875
1.9375 0.9375 1.3875
2 1 1.3875
1.9375 0.9375 1.45
2 0.9375 1.45
1.9375 1 1.45
2 0.9375 1.3875
2.0625 1 1.3875
2.0625 0.9375 1.3875
2.125 1 1.3875
2.0625 0.9375 1.45
2.125 0.9375 1.45
2.0625 1 1.45
2.125 0.9375 1.3875
2.1875 1 1.3875
2.1875 0.9375 1.3875
2.25 1 1.3875
2.1875 0.9375 1.45
2.25 0.9375 1.45
2.1875 1 1.45
2.25 0.9375 1.3875
2.3125 1 1.3875
2.3125 0.9375 1.3875
2.375 1 1.3875
2.3125 0.9375 1.45
2.375 0.9375 1.45
2.3125 1 1.45
2.375 0.9375 1.3875
2.4375 1 1.3875
2.4375 0.9375 1.3875
2.5 1 1.3875
2.4375 0.9375 1.45
2.5 0.9375 1.45
2.4375 1 1.45
2.5 0.9375 1.3875
2.5625 1 1.3875
2.5625 0.9375 1.3875
2.625 1 1.3875
2.5625 0.9375 1.45
2.625 0.9375 1.45
2.5625 1 1.45
2.625 0.9375 1.3875
2.6875 1 1.3875
2.6875 0.9375 1.3875
2.75 1 1.3875
2.6875 0.9375 1.45
2.75 0.9375 1.45
2.6875 1 1.45
2.75 0.9375 1.3875
2.8125 1 1.3875
2.8125 0.9375 1.3875
2.875 1 1.3875
2.8125 0.9375 1.45
2.875 0.9375 1.45
2.8125 1 1.45
2.875 0.9375 1.3875
2.9375 1 1.3875
2.9375 0.9375 1.3875
3 1 1.3875
2.9375 0.9375 1.45
3 0.9375 1.45
2.9375 1 1.45
3 0.9375 1.3875
3.0625 1 1.3875
3.0625 0.9375 1.3875
3.125 1 1.3875
3.0625 0.9375 1.45
3.125 0.9375 1.45
3.0625 1 1.45
3.125 0.9375 1.3875
3.1875 1 1.3875
3.1875 0.9375 1.3875
3.25 1 1.3875
3.1875 0.9375 1.45
3.25 0.9375 1.45
3.1875 1 1.45
3.25 0.9375 1.3875
3.3125 1 1.3875
3.3125 0.9375 1.3875
3.375 1 1.3875
3.3125 0.9375 1.45
3.375 0.9375 1.45
3.3125 1 1.45
3.375 0.9375 1.3875
3.4375 1 1.3875
3.4375 0.9375 1.3875
3.5 1 1.3875
3.4375 0.9375 1.45
3.5 0.9375 1.45
3.4375 1 1.45
3.5 0.9375 1.3875
3.5625 1 1.3875
3.5625 0.9375 1.3875
3.625 1 1.3875
3.5625 0.9375 1.45
3.625 0.9375 1.45
3.5625 1 1.45
3.625 0.9375 1.3875
3.6875 1 1.3875
3.6875 0.9375 1.3875
3.75 1 1.3875
3.6875 0.9375 1.45
3.75 0.9375 1.45
3.6875 1 1.45
3.75 0.9375 1.3875
3.8125 1 1.3875
3.8125 0.9375 1.3875
3.875 1 1.3875
3.8125 0.9375 1.45
3.875 0.9375 1.45
3.8125 1 1.45
3.875 0.9375 1.3875
3.9375 1 1.3875
3.9375 0.9375 1.3875
4 1 1.3875
3.9375 0.9375 1.45
4 0.9375 1.45
3.9375 1 1.45
4 0.9375 1.3875
0.0625 0.125 1.5125
0.0625 0.0625 1.5125
0.125 0.125 1.5125
0.0625 0.0625 1.575
0.125 0.0625 1.575
0.0625 0 1.575
0 0 1.5125
0.0625 0 1.5125
0 0.125 1.5125
0 0.0625 1.5125
0.0625 0.125 1.575
0 0.0625 1.575
0.125 0 1.5125
0.125 0.0625 1.5125
0.1875 0.125 1.5125
0.1875 0.0625 1.5125
0.25 0.125 1.5125
0.1875 0.0625 1.575
0.25 0.0625 1.575
0.1875 0 1.575
0.1875 0 1.5125
0.1875 0.125 1.575
0.25 0 1.5125
0.25 0.0625 1.5125
0.3125 0.125 1.5125
0.3125 0.0625 1.5125
0.375 0.125 1.5125
0.3125 0.0625 1.575
0.375 0.0625 1.575
0.3125 0 1.575
0.3125 0 1.5125
0.3125 0.125 1.575
0.375 0 1.5125
0.375 0.0625 1.5125
0.4375 0.125 1.5125
0.4375 0.0625 1.5125
0.5 0.125 1.5125
0.4375 0.0625 1.575
0.5 0.0625 1.575
0.4375 0 1.575
0.4375 0 1.5125
0.4375 0.125 1.575
0.5 0 1.5125
0.5 0.0625 1.5125
0.5625 0.125 1.5125
0.5625 0.0625 1.5125
0.625 0.125 1.5125
0.5625 0.0625 1.575
0.625 0.0625 1.575
0.5625 0 1.575
0.5625 0 1.5125
0.5625 0.125 1.575
0.625 0 1.5125
0.625 0.0625 1.5125
0.6875 0.125 1.5125
0.6875 0.0625 1.5125
0.75 0.125 1.5125
0.6875 0.0625 1.575
0.75 0.0625 1.575
0.6875 0 1.575
0.6875 0 1.5125
0.6875 0.125 1.575
0.75 0 1.5125
0.75 0.0625 1.5125
0.8125 0.125 1.5125
0.8125 0.0625 1.5125
0.875 0.125 1.5125
0.8125 0.0625 1.575
0.875 0.0625 1.575
0.8125 0 1.575
0.8125 0 1.5125
0.8125 0.125 1.575
0.875 0 1.5125
0.875 0.0625 1.5125
0.9375 0.125 1.5125
0.9375 0.0625 1.5125
1 0.125 1.5125
0.9375 0.0625 1.575
1 0.0625 1.575
0.9375 0 1.575
0.9375 0 1.5125
0.9375 0.125 1.575
1 0 1.5125
1 0.0625 1.5125
1.0625 0.125 1.5125
1.0625 0.0625 1.5125
1.125 0.125 1.5125
1.0625 0.0625 1.575
1.125 0.0625 1.575
1.0625 0 1.575
1.0625 0 1.5125
1.0625 0.125 1.575
1.125 0 1.5125
1.125 0.0625 1.5125
1.1875 0.125 1.5125
1.1875 0.0625 1.5125
1.25 0.125 1.5125
1.1875 0.0625 1.575
1.25 0.0625 1.575
1.1875 0 1.575
1.1875 0 1.5125
1.1875 0.125 1.575
1.25 0 1.5125
1.25 0.0625 1.5125
1.3125 0.125 1.5125
1.3125 0.0625 1.5125
1.375 0.125 1.5125
1.3125 0.0625 1.575
1.375 0.0625 1.575
1.3125 0 1.575
1.3125 0 1.5125
1.3125 0.125 1.575
1.375 0 1.5125
1.375 0.0625 1.5125
1.4375 0.125 1.5125
1.4375 0.0625 1.5125
1.5 0.125 1.5125
1.4375 0.0625 1.575
1.5 0.0625 1.575
1.4375 0 1.575
1.4375 0 1.5125
1.4375 0.125 1.575
1.5 0 1.5125
1.5 0.0625 1.5125
1.5625 0.125 1.5125
1.5625 0.0625 1.5125
1.625 0.125 1.5125
1.5625 0.0625 1.575
1.625 0.0625 1.575
1.5625 0 1.575
1.5625 0 1.5125
1.5625 0.125 1.575
1.625 0 1.5125
1.625 0.0625 1.5125
1.6875 0.125 1.5125
1.6875 0.0625 1.5125
1.75 0.125 1.5125
1.6875 0.0625 1.575
1.75 0.0625 1.575
1.6875 0 1.575
1.6875 0 1.5125
1.6875 0.125 1.575
1.75 0 1.5125
1.75 0.0625 1.5125
1.8125 0.125 1.5125
1.8125 0.0625 1.5125
1.875 0.125 1.5125
1.8125 0.0625 1.575
1.875 0.0625 1.575
1.8125 0 1.575
1.8125 0 1.5125
1.8125 0.125 1.575
1.875 0 1.5125
1.875 0.0625 1.5125
1.9375 0.125 1.5125
1.9375 0.0625 1.5125
2 0.125 1.5125
1.9375 0.0625 1.575
2 0.0625 1.575
1.9375 0 1.575
1.9375 0 1.5125
1.9375 0.125 1.575
2 0 1.5125
2 0.0625 1.5125
2.0625 0.125 1.5125
2.0625 0.0625 1.5125
2.125 0.125 1.5125
2.0625 0.0625 1.575
2.125 0.0625 1.575
2.0625 0 1.575
2.0625 0 1.5125
2.0625 0.125 1.575
2.125 0 1.5125
2.125 0.0625 1.5125
2.1875 0.125 1.5125
2.1875 0.0625 1.5125
2.25 0.125 1.5125
2.1875 0.0625 1.575
2.25 0.0625 1.575
2.1875 0 1.575
2.1875 0 1.5125
2.1875 0.125 1.575
2.25 0 1.5125
2.25 0.0625 1.5125
2.3125 0.125 1.5125
2.3125 0.0625 1.5125
2.375 0.125 1.5125
2.3125 0.0625 1.575
2.375 0.0625 1.575
2.3125 0 1.575
2.3125 0 1.5125
2.3125 0.125 1.575
2.375 0 1.5125
2.375 0.0625 1.5125
2.4375 0.125 1.5125
2.4375 0.0625 1.5125
2.5 0.125 1.5125
2.4375 0.0625 1.575
2.5 0.0625 1.575
2.4375 0 1.575
2.4375 0 1.5125
2.4375 0.125 1.575
2.5 0 1.5125
2.5 0.0625 1.5125
2.5625 0.125 1.5125
2.5625 0.0625 1.5125
2.625 0.125 1.5125
2.5625 0.0625 1.575
2.625 0.0625 1.575
2.5625 0 1.575
2.5625 0 1.5125
2.5625 0.125 1.575
2.625 0 1.5125
2.625 0.0625 1.5125
2.6875 0.125 1.5125
2.6875 0.0625 1.5125
2.75 0.125 1.5125
2.6875 0.0625 1.575
2.75 0.0625 1.575
2.6875 0 1.575
2.6875 0 1.5125
2.6875 0.125 1.575
2.75 0 1.5125
2.75 0.0625 1.5125
2.8125 0.125 1.5125
2.8125 0.0625 1.5125
2.875 0.125 1.5125
2.8125 0.0625 1.575
2.875 0.0625 1.575
2.8125 0 1.575
2.8125 0 1.5125
2.8125 0.125 1.575
2.875 0 1.5125
2.875 0.0625 1.5125
2.9375 0.125 1.5125
2.9375 0.0625 1.5125
3 0.125 1.5125
2.9375 0.0625 1.575
3 0.0625 1.575
2.9375 0 1.575
2.9375 0 1.5125
2.9375 0.125 1.575
3 0 1.5125
3 0.0625 1.5125
3.0625 0.125 1.5125
3.0625 0.0625 1.5125
3.125 0.125 1.5125
3.0625 0.0625 1.575
3.125 0.0625 1.575
3.0625 0 1.575
3.0625 0 1.5125
3.0625 0.125 1.575
3.125 0 1.5125
3.125 0.0625 1.5125
3.1875 0.125 1.5125
3.1875 0.0625 1.5125
3.25 0.125 1.5125
3.1875 0.0625 1.575
3.25 0.0625 1.575
3.1875 0 1.575
3.1875 0 1.5125
3.1875 0.125 1.575
3.25 0 1.5125
3.25 0.0625 1.5125
3.3125 0.125 1.5125
3.3125 0.0625 1.5125
3.375 0.125 1.5125
3.3125 0.0625 1.575
3.375 0.0625 1.575
3.3125 0 1.575
3.3125 0 1.5125
3.3125 0.125 1.575
3.375 0 1.5125
3.375 0.0625 1.5125
3.4375 0.125 1.5125
3.4375 0.0625 1.5125
3.5 0.125 1.5125
3.4375 0.0625 1.575
3.5 0.0625 1.575
3.4375 0 1.575
3.4375 0 1.5125
3.4375 0.125 1.575
3.5 0 1.5125
3.5 0.0625 1.5125
3.5625 0.125 1.5125
3.5625 0.0625 1.5125
3.625 0.125 1.5125
3.5625 0.0625 1.575
3.625 0.0625 1.575
3.5625 0 1.575
3.5625 0 1.5125
3.5625 0.125 1.575
3.625 0 1.5125
3.625 0.0625 1.5125
3.6875 0.125 1.5125
3.6875 0.0625 1.5125
3.75 0.125 1.5125
3.6875 0.0625 1.575
3.75 0.0625 1.575
3.6875 0 1.575
3.6875 0 1.5125
3.6875 0.125 1.575
3.75 0 1.5125
3.75 0.0625 1.5125
3.8125 0.125 1.5125
3.8125 0.0625 1.5125
3.875 0.125 1.5125
3.8125 0.0625 1.575
3.875 0.0625 1.575
3.8125 0 1.575
3.8125 0 1.5125
3.8125 0.125 1.575
3.875 0 1.5125
3.875 0.0625 1.5125
3.9375 0.125 1.5125
3.9375 0.0625 1.5125
4 0.125 1.5125
3.9375 0.0625 1.575
4 0.0625 1.575
3.9375 0 1.575
3.9375 0 1.5125
3.9375 0.125 1.575
4 0 1.5125
4 0.0625 1.5125
0.0625 0.25 1.5125
0.0625 0.1875 1.5125
0.125 0.25 1.5125
0.0625 0.1875 1.575
0.125 0.1875 1.575
0 0.25 1.5125
0 0.1875 1.5125
0.0625 0.25 1.575
0 0.1875 1.575
0.125 0.1875 1.5125
0.1875 0.25 1.5125
0.1875 0.1875 1.5125
0.25 0.25 1.5125
0.1875 0.1875 1.575
0.25 0.1875 1.575
0.1875 0.25 1.575
0.25 0.1875 1.5125
0.3125 0.25 1.5125
0.3125 0.1875 1.5125
0.375 0.25 1.5125
0.3125 0.1875 1.575
0.375 0.1875 1.575
0.3125 0.25 1.575
0.375 0.1875 1.5125
0.4375 0.25 1.5125
0.4375 0.1875 1.5125
0.5 0.25 1.5125
0.4375 0.1875 1.575
0.5 0.1875 1.575
0.4375 0.25 1.575
0.5 0.1875 1.5125
0.5625 0.25 1.5125
0.5625 0.1875 1.5125
0.625 0.25 1.5125
0.5625 0.1875 1.575
0.625 0.1875 1.575
0.5625 0.25 1.575
0.625 0.1875 1.5125
0.6875 0.25 1.5125
0.6875 0.1875 1.5125
0.75 0.25 1.5125
0.6875 0.1875 1.575
0.75 0.1875 1.575
0.6875 0.25 1.575
0.75 0.1875 1.5125
0.8125 0.25 1.5125
0.8125 0.1875 1.5125
0.875 0.25 1.5125
0.8125 0.1875 1.575
0.875 0.1875 1.575
0.8125 0.25 1.575
0.875 0.1875 1.5125
0.9375 0.25 1.5125
0.9375 0.1875 1.5125
1 0.25 1.5125
0.9375 0.1875 1.575
1 0.1875 1.575
0.9375 0.25 1.575
1 0.1875 1.5125
1.0625 0.25 1.5125
1.0625 0.1875 1.5125
1.125 0.25 1.5125
1.0625 0.1875 1.575
1.125 0.1875 1.575
1.0625 0.25 1.575
1.125 0.1875 1.5125
1.1875 0.25 1.5125
1.1875 0.1875 1.5125
1.25 0.25 1.5125
1.1875 0.1875 1.575
1.25 0.1875 1.575
1.1875 0.25 1.575
1.25 0.1875 1.5125
1.3125 0.25 1.5125
1.3125 0.1875 1.5125
1.375 0.25 1.5125
1.3125 0.1875 1.575
1.375 0.1875 1.575
1.3125 0.25 1.575
1.375 0.1875 1.5125
1.4375 0.25 1.5125
1.4375 0.1875 1.5125
1.5 0.25 1.5125
1.4375 0.1875 1.575
1.5 0.1875 1.575
1.4375 0.25 1.575
1.5 0.1875 1.5125
1.5625 0.25 1.5125
1.5625 0.1875 1.5125
1.625 0.25 1.5125
1.5625 0.1875 1.575
1.625 0.1875 1.575
1.5625 0.25 1.575
1.625 0.1875 1.5125
1.6875 0.25 1.5125
1.6875 0.1875 1.5125
1.75 0.25 1.5125
1.6875 0.1875 1.575
1.75 0.1875 1.575
1.6875 0.25 1.575
1.75 0.1875 1.5125
1.8125 0.25 1.5125
1.8125 0.1875 1.5125
1.875 0.25 1.5125
1.8125 0.1875 1.575
1.875 0.1875 1.575
1.8125 0.25 1.575
1.875 0.1875 1.5125
1.9375 0.25 1.5125
1.9375 0.1875 1.5125
2 0.25 1.5125
1.9375 0.1875 1.575
2 0.1875 1.575
1.9375 0.25 1.575
2 0.1875 1.5125
2.0625 0.25 1.5125
2.0625 0.1875 1.5125
2.125 0.25 1.5125
2.0625 0.1875 1.575
2.125 0.1875 1.575
2.0625 0.25 1.575
2.125 0.1875 1.5125
2.1875 0.25 1.5125
2.1875 0.1875 1.5125
2.25 0.25 1.5125
2.1875 0.1875 1.575
2.25 0.1875 1.575
2.1875 0.25 1.575
2.25 0.1875 1.5125
2.3125 0.25 1.5125
2.3125 0.1875 1.5125
2.375 0.25 1.5125
2.3125 0.1875 1.575
2.375 0.1875 1.575
2.3125 0.25 1.575
2.375 0.1875 1.5125
2.4375 0.25 1.5125
2.4375 0.1875 1.5125
2.5 0.25 1.5125
2.4375 0.1875 1.575
2.5 0.1875 1.575
2.4375 0.25 1.575
2.5 0.1875 1.5125
2.5625 0.25 1.5125
2.5625 0.1875 1.5125
2.625 0.25 1.5125
2.5625 0.1875 1.575
2.625 0.1875 1.575
2.5625 0.25 1.575
2.625 0.1875 1.5125
2.6875 0.25 1.5125
2.6875 0.1875 1.5125
2.75 0.25 1.5125
2.6875 0.1875 1.575
2.75 0.1875 1.575
2.6875 0.25 1.575
2.75 0.1875 1.5125
2.8125 0.25 1.5125
2.8125 0.1875 1.5125
2.875 0.25 1.5125
2.8125 0.1875 1.575
2.875 0.1875 1.575
2.8125 0.25 1.575
2.875 0.1875 1.5125
2.9375 0.25 1.5125
2.9375 0.1875 1.5125
3 0.25 1.5125
2.9375 0.1875 1.575
3 0.1875 1.575
2.9375 0.25 1.575
3 0.1875 1.5125
3.0625 0.25 1.5125
3.0625 0.1875 1.5125
3.125 0.25 1.5125
3.0625 0.1875 1.575
3.125 0.1875 1.575
3.0625 0.25 1.575
3.125 0.1875 1.5125
3.1875 0.25 1.5125
3.1875 0.1875 1.5125
3.25 0.25 1.5125
3.1875 0.1875 1.575
3.25 0.1875 1.575
3.1875 0.25 1.575
3.25 0.1875 1.5125
3.3125 0.25 1.5125
3.3125 0.1875 1.5125
3.375 0.25 1.5125
3.3125 0.1875 1.575
3.375 0.1875 1.575
3.3125 0.25 1.575
3.375 0.1875 1.5125
3.4375 0.25 1.5125
3.4375 0.1875 1.5125
3.5 0.25 1.5125
3.4375 0.1875 1.575
3.5 0.1875 1.575
3.4375 0.25 1.575
3.5 0.1875 1.5125
3.5625 0.25 1.5125
3.5625 0.1875 1.5125
3.625 0.25 1.5125
3.5625 0.1875 1.575
3.625 0.1875 1.575
3.5625 0.25 1.575
3.625 0.1875 1.5125
3.6875 0.25 1.5125
3.6875 0.1875 1.5125
3.75 0.25 1.5125
3.6875 0.1875 1.575
3.75 0.1875 1.575
3.6875 0.25 1.575
3.75 0.1875 1.5125
3.8125 0.25 1.5125
3.8125 0.1875 1.5125
3.875 0.25 1.5125
3.8125 0.1875 1.575
3.875 0.1875 1.575
3.8125 0.25 1.575
3.875 0.1875 1.5125
3.9375 0.25 1.5125
3.9375 0.1875 1.5125
4 0.25 1.5125
3.9375 0.1875 1.575
4 0.1875 1.575
3.9375 0.25 1.575
4 0.1875 1.5125
0.0625 0.375 1.5125
0.0625 0.3125 1.5125
0.125 0.375 1.5125
0.0625 0.3125 1.575
0.125 0.3125 1.575
0 0.375 1.5125
0 0.3125 1.5125
0.0625 0.375 1.575
0 0.3125 1.575
0.125 0.3125 1.5125
0.1875 0.375 1.5125
0.1875 0.3125 1.5125
0.25 0.375 1.5125
0.1875 0.3125 1.575
0.25 0.3125 1.575
0.1875 0.375 1.575
0.25 0.3125 1.5125
0.3125 0.375 1.5125
0.3125 0.3125 1.5125
0.375 0.375 1.5125
0.3125 0.3125 1.575
0.375 0.3125 1.575
0.3125 0.375 1.575
0.375 0.3125 1.5125
0.4375 0.375 1.5125
0.4375 0.3125 1.5125
0.5 0.375 1.5125
0.4375 0.3125 1.575
0.5 0.3125 1.575
0.4375 0.375 1.575
0.5 0.3125 1.5125
0.5625 0.375 1.5125
0.5625 0.3125 1.5125
0.625 0.375 1.5125
0.5625 0.3125 1.575
0.625 0.3125 1.575
0.5625 0.375 1.575
0.625 0.3125 1.5125
0.6875 0.375 1.5125
0.6875 0.3125 1.5125
0.75 0.375 1.5125
0.6875 0.3125 1.575
0.75 0.3125 1.575
0.6875 0.375 1.575
0.75 0.3125 1.5125
0.8125 0.375 1.5125
0.8125 0.3125 1.5125
0.875 0.375 1.5125
0.8125 0.3125 1.575
0.875 0.3125 1.575
0.8125 0.375 1.575
0.875 0.3125 1.5125
0.9375 0.375 1.5125
0.9375 0.3125 1.5125
1 0.375 1.5125
0.9375 0.3125 1.575
1 0.3125 1.575
0.9375 0.375 1.575
1 0.3125 1.5125
1.0625 0.375 1.5125
1.0625 0.3125 1.5125
1.125 0.375 1.5125
1.0625 0.3125 1.575
1.125 0.3125 1.575
1.0625 0.375 1.575
1.125 0.3125 1.5125
1.1875 0.375 1.5125
1.1875 0.3125 1.5125
1.25 0.375 1.5125
1.1875 0.3125 1.575
1.25 0.3125 1.575
1.1875 0.375 1.575
1.25 0.3125 1.5125
1.3125 0.375 1.5125
1.3125 0.3125 1.5125
1.375 0.375 1.5125
1.3125 0.3125 1.575
1.375 0.3125 1.575
1.3125 0.375 1.575
1.375 0.3125 1.5125
1.4375 0.375 1.5125
1.4375 0.3125 1.5125
1.5 0.375 1.5125
1.4375 0.3125 1.575
1.5 0.3125 1.575
1.4375 0.375 1.575
1.5 0.3125 1.5125
1.5625 0.375 1.5125
1.5625 0.3125 1.5125
1.625 0.375 1.5125
1.5625 0.3125 1.575
1.625 0.3125 1.575
1.5625 0.375 1.575
1.625 0.3125 1.5125
1.6875 0.375 1.5125
1.6875 0.3125 1.5125
1.75 0.375 1.5125
1.6875 0.3125 1.575
1.75 0.3125 1.575
1.6875 0.375 1.575
1.75 0.3125 1.5125
1.8125 0.375 1.5125
1.8125 0.3125 1.5125
1.875 0.375 1.5125
1.8125 0.3125 1.575
1.875 0.3125 1.575
1.8125 0.375 1.575
1.875 0.3125 1.5125
1.9375 0.375 1.5125
1.9375 0.3125 1.5125
2 0.375 1.5125
1.9375 0.3125 1.575
2 0.3125 1.575
1.9375 0.375 1.575
2 0.3125 1.5125
2.0625 0.375 1.5125
2.0625 0.3125 1.5125
2.125 0.375 1.5125
2.0625 0.3125 1.575
2.125 0.3125 1.575
2.0625 0.375 1.575
2.125 0.3125 1.5125
2.1875 0.375 1.5125
2.1875 0.3125 1.5125
2.25 0.375 1.5125
2.1875 0.3125 1.575
2.25 0.3125 1.575
2.1875 0.375 1.575
2.25 0.3125 1.5125
2.3125 0.375 1.5125
2.3125 0.3125 1.5125
2.375 0.375 1.5125
2.3125 0.3125 1.575
2.375 0.3125 1.575
2.3125 0.375 1.575
2.375 0.3125 1.5125
2.4375 0.375 1.5125
2.4375 0.3125 1.5125
2.5 0.375 1.5125
2.4375 0.3125 1.575
2.5 0.3125 1.575
2.4375 0.375 1.575
2.5 0.3125 1.5125
2.5625 0.375 1.5125
2.5625 0.3125 1.5125
2.625 0.375 1.5125
2.5625 0.3125 1.575
2.625 0.3125 1.575
2.5625 0.375 1.575
2.625 0.3125 1.5125
2.6875 0.375 1.5125
2.6875 0.3125 1.5125
2.75 0.375 1.5125
2.6875 0.3125 1.575
2.75 0.3125 1.575
2.6875 0.375 1.575
2.75 0.3125 1.5125
2.8125 0.375 1.5125
2.8125 0.3125 1.5125
2.875 0.375 1.5125
2.8125 0.3125 1.575
2.875 0.3125 1.575
2.8125 0.375 1.575
2.875 0.3125 1.5125
2.9375 0.375 1.5125
2.9375 0.3125 1.5125
3 0.375 1.5125
2.9375 0.3125 1.575
3 0.3125 1.575
2.9375 0.375 1.575
3 0.3125 1.5125
3.0625 0.375 1.5125
3.0625 0.3125 1.5125
3.125 0.375 1.5125
3.0625 0.3125 1.575
3.125 0.3125 1.575
3.0625 0.375 1.575
3.125 0.3125 1.5125
3.1875 0.375 1.5125
3.1875 0.3125 1.5125
3.25 0.375 1.5125
3.1875 0.3125 1.575
3.25 0.3125 1.575
3.1875 0.375 1.575
3.25 0.3125 1.5125
3.3125 0.375 1.5125
3.3125 0.3125 1.5125
3.375 0.375 1.5125
3.3125 0.3125 1.575
3.375 0.3125 1.575
3.3125 0.375 1.575
3.375 0.3125 1.5125
3.4375 0.375 1.5125
3.4375 0.3125 1.5125
3.5 0.375 1.5125
3.4375 0.3125 1.575
3.5 0.3125 1.575
3.4375 0.375 1.575
3.5 0.3125 1.5125
3.5625 0.375 1.5125
3.5625 0.3125 1.5125
3.625 0.375 1.5125
3.5625 0.3125 1.575
3.625 0.3125 1.575
3.5625 0.375 1.575
3.625 0.3125 1.5125
3.6875 0.375 1.5125
3.6875 0.3125 1.5125
3.75 0.375 1.5125
3.6875 0.3125 1.575
3.75 0.3125 1.575
3.6875 0.375 1.575
3.75 0.3125 1.5125
3.8125 0.375 1.5125
3.8125 0.3125 1.5125
3.875 0.375 1.5125
3.8125 0.3125 1.575
3.875 0.3125 1.575
3.8125 0.375 1.575
3.875 0.3125 1.5125
3.9375 0.375 1.5125
3.9375 0.3125 1.5125
4 0.375 1.5125
3.9375 0.3125 1.575
4 0.3125 1.575
3.9375 0.375 1.575
4 0.3125 1.5125
0.0625 0.5 1.5125
0.0625 0.4375 1.5125
0.125 0.5 1.5125
0.0625 0.4375 1.575
0.125 0.4375 1.575
0 0.5 1.5125
0 0.4375 1.5125
0.0625 0.5 1.575
0 0.4375 1.575
0.125 0.4375 1.5125
0.1875 0.5 1.5125
0.1875 0.4375 1.5125
0.25 0.5 1.5125
0.1875 0.4375 1.575
0.25 0.4375 1.575
0.1875 0.5 1.575
0.25 0.4375 1.5125
0.3125 0.5 1.5125
0.3125 0.4375 1.5125
0.375 0.5 1.5125
0.3125 0.4375 1.575
0.375 0.4375 1.575
0.3125 0.5 1.575
0.375 0.4375 1.5125
0.4375 0.5 1.5125
0.4375 0.4375 1.5125
0.5 0.5 1.5125
0.4375 0.4375 1.575
0.5 0.4375 1.575
0.4375 0.5 1.575
0.5 0.4375 1.5125
0.5625 0.5 1.5125
0.5625 0.4375 1.5125
0.625 0.5 1.5125
0.5625 0.4375 1.575
0.625 0.4375 1.575
0.5625 0.5 1.575
0.625 0.4375 1.5125
0.6875 0.5 1.5125
0.6875 0.4375 1.5125
0.75 0.5 1.5125
0.6875 0.4375 1.575
0.75 0.4375 1.575
0.6875 0.5 1.575
0.75 0.4375 1.5125
0.8125 0.5 1.5125
0.8125 0.4375 1.5125
0.875 0.5 1.5125
0.8125 0.4375 1.575
0.875 0.4375 1.575
0.8125 0.5 1.575
0.875 0.4375 1.5125
0.9375 0.5 1.5125
0.9375 0.4375 1.5125
1 0.5 1.5125
0.9375 0.4375 1.575
1 0.4375 1.575
0.9375 0.5 1.575
1 0.4375 1.5125
1.0625 0.5 1.5125
1.0625 0.4375 1.5125
1.125 0.5 1.5125
1.0625 0.4375 1.575
1.125 0.4375 1.575
1.0625 0.5 1.575
1.125 0.4375 1.5125
1.1875 0.5 1.5125
1.1875 0.4375 1.5125
1.25 0.5 1.5125
1.1875 0.4375 1.575
1.25 0.4375 1.575
1.1875 0.5 1.575
1.25 0.4375 1.5125
1.3125 0.5 1.5125
1.3125 0.4375 1.5125
1.375 0.5 1.5125
1.3125 0.4375 1.575
1.375 0.4375 1.575
1.3125 0.5 1.575
1.375 0.4375 1.5125
1.4375 0.5 1.5125
1.4375 0.4375 1.5125
1.5 0.5 1.5125
1.4375 0.4375 1.575
1.5 0.4375 1.575
1.4375 0.5 1.575
1.5 0.4375 1.5125
1.5625 0.5 1.5125
1.5625 0.4375 1.5125
1.625 0.5 1.5125
1.5625 0.4375 1.575
1.625 0.4375 1.575
1.5625 0.5 1.575
1.625 0.4375 1.5125
1.6875 0.5 1.5125
1.6875 0.4375 1.5125
1.75 0.5 1.5125
1.6875 0.4375 1.575
1.75 0.4375 1.575
1.6875 0.5 1.575
1.75 0.4375 1.5125
1.8125 0.5 1.5125
1.8125 0.4375 1.5125
1.875 0.5 1.5125
1.8125 0.4375 1.575
1.875 0.4375 1.575
1.8125 0.5 1.575
1.875 0.4375 1.5125
1.9375 0.5 1.5125
1.9375 0.4375 1.5125
2 0.5 1.5125
1.9375 0.4375 1.575
2 0.4375 1.575
1.9375 0.5 1.575
2 0.4375 1.5125
2.0625 0.5 1.5125
2.0625 0.4375 1.5125
2.125 0.5 1.5125
2.0625 0.4375 1.575
2.125 0.4375 1.575
2.0625 0.5 1.575
2.125 0.4375 1.5125
2.1875 0.5 1.5125
2.1875 0.4375 1.5125
2.25 0.5 1.5125
2.1875 0.4375 1.575
2.25 0.4375 1.575
2.1875 0.5 1.575
2.25 0.4375 1.5125
2.3125 0.5 1.5125
2.3125 0.4375 1.5125
2.375 0.5 1.5125
2.3125 0.4375 1.575
2.375 0.4375 1.575
2.3125 0.5 1.575
2.375 0.4375 1.5125
2.4375 0.5 1.5125
2.4375 0.4375 1.5125
2.5 0.5 1.5125
2.4375 0.4375 1.575
2.5 0.4375 1.575
2.4375 0.5 1.575
2.5 0.4375 1.5125
2.5625 0.5 1.5125
2.5625 0.4375 1.5125
2.625 0.5 1.5125
2.5625 0.4375 1.575
2.625 0.4375 1.575
2.5625 0.5 1.575
2.625 0.4375 1.5125
2.6875 0.5 1.5125
2.6875 0.4375 1.5125
2.75 0.5 1.5125
2.6875 0.4375 1.575
2.75 0.4375 1.575
2.6875 0.5 1.575
2.75 0.4375 1.5125
2.8125 0.5 1.5125
2.8125 0.4375 1.5125
2.875 0.5 1.5125
2.8125 0.4375 1.575
2.875 0.4375 1.575
2.8125 0.5 1.575
2.875 0.4375 1.5125
2.9375 0.5 1.5125
2.9375 0.4375 1.5125
3 0.5 1.5125
2.9375 0.4375 1.575
3 0.4375 1.575
2.9375 0.5 1.575
3 0.4375 1.5125
3.0625 0.5 1.5125
3.0625 0.4375 1.5125
3.125 0.5 1.5125
3.0625 0.4375 1.575
3.125 0.4375 1.575
3.0625 0.5 1.575
3.125 0.4375 1.5125
3.1875 0.5 1.5125
3.1875 0.4375 1.5125
3.25 0.5 1.5125
3.1875 0.4375 1.575
3.25 0.4375 1.575
3.1875 0.5 1.575
3.25 0.4375 1.5125
3.3125 0.5 1.5125
3.3125 0.4375 1.5125
3.375 0.5 1.5125
3.3125 0.4375 1.575
3.375 0.4375 1.575
3.3125 0.5 1.575
3.375 0.4375 1.5125
3.4375 0.5 1.5125
3.4375 0.4375 1.5125
3.5 0.5 1.5125
3.4375 0.4375 1.575
3.5 0.4375 1.575
3.4375 0.5 1.575
3.5 0.4375 1.5125
3.5625 0.5 1.5125
3.5625 0.4375 1.5125
3.625 0.5 1.5125
3.5625 0.4375 1.575
3.625 0.4375 1.575
3.5625 0.5 1.575
3.625 0.4375 1.5125
3.6875 0.5 1.5125
3.6875 0.4375 1.5125
3.75 0.5 1.5125
3.6875 0.4375 1.575
3.75 0.4375 1.575
3.6875 0.5 1.575
3.75 0.4375 1.5125
3.8125 0.5 1.5125
3.8125 0.4375 1.5125
3.875 0.5 1.5125
3.8125 0.4375 1.575
3.875 0.4375 1.575
3.8125 0.5 1.575
3.875 0.4375 1.5125
3.9375 0.5 1.5125
3.9375 0.4375 1.5125
4 0.5 1.5125
3.9375 0.4375 1.575
4 0.4375 1.575
3.9375 0.5 1.575
4 0.4375 1.5125
0.0625 0.625 1.5125
0.0625 0.5625 1.5125
0.125 0.625 1.5125
0.0625 0.5625 1.575
0.125 0.5625 1.575
0 0.625 1.5125
0 0.5625 1.5125
0.0625 0.625 1.575
0 0.5625 1.575
0.125 0.5625 1.5125
0.1875 0.625 1.5125
0.1875 0.5625 1.5125
0.25 0.625 1.5125
0.1875 0.5625 1.575
0.25 0.5625 1.575
0.1875 0.625 1.575
0.25 0.5625 1.5125
0.3125 0.625 1.5125
0.3125 0.5625 1.5125
0.375 0.625 1.5125
0.3125 0.5625 1.575
0.375 0.5625 1.575
0.3125 0.625 1.575
0.375 0.5625 1.5125
0.4375 0.625 1.5125
0.4375 0.5625 1.5125
0.5 0.625 1.5125
0.4375 0.5625 1.575
0.5 0.5625 1.575
0.4375 0.625 1.575
0.5 0.5625 1.5125
0.5625 0.625 1.5125
0.5625 0.5625 1.5125
0.625 0.625 1.5125
0.5625 0.5625 1.575
0.625 0.5625 1.575
0.5625 0.625 1.575
0.625 0.5625 1.5125
0.6875 0.625 1.5125
0.6875 0.5625 1.5125
0.75 0.625 1.5125
0.6875 0.5625 1.575
0.75 0.5625 1.575
0.6875 0.625 1.575
0.75 0.5625 1.5125
0.8125 0.625 1.5125
0.8125 0.5625 1.5125
0.875 0.625 1.5125
0.8125 0.5625 1.575
0.875 0.5625 1.575
0.8125 0.625 1.575
0.875 0.5625 1.5125
0.9375 0.625 1.5125
0.9375 0.5625 1.5125
1 0.625 1.5125
0.9375 0.5625 1.575
1 0.5625 1.575
0.9375 0.625 1.575
1 0.5625 1.5125
1.0625 0.625 1.5125
1.0625 0.5625 1.5125
1.125 0.625 1.5125
1.0625 0.5625 1.575
1.125 0.5625 1.575
1.0625 0.625 1.575
1.125 0.5625 1.5125
1.1875 0.625 1.5125
1.1875 0.5625 1.5125
1.25 0.625 1.5125
1.1875 0.5625 1.575
1.25 0.5625 1.575
1.1875 0.625 1.575
1.25 0.5625 1.5125
1.3125 0.625 1.5125
1.3125 0.5625 1.5125
1.375 0.625 1.5125
1.3125 0.5625 1.575
1.375 0.5625 1.575
1.3125 0.625 1.575
1.375 0.5625 1.5125
1.4375 0.625 1.5125
1.4375 0.5625 1.5125
1.5 0.625 1.5125
1.4375 0.5625 1.575
1.5 0.5625 1.575
1.4375 0.625 1.575
1.5 0.5625 1.5125
1.5625 0.625 1.5125
1.5625 0.5625 1.5125
1.625 0.625 1.5125
1.5625 0.5625 1.575
1.625 0.5625 1.575
1.5625 0.625 1.575
1.625 0.5625 1.5125
1.6875 0.625 1.5125
1.6875 0.5625 1.5125
1.75 0.625 1.5125
1.6875 0.5625 1.575
1.75 0.5625 1.575
1.6875 0.625 1.575
1.75 0.5625 1.5125
1.8125 0.625 1.5125
1.8125 0.5625 1.5125
1.875 0.625 1.5125
1.8125 0.5625 1.575
1.875 0.5625 1.575
1.8125 0.625 1.575
1.875 0.5625 1.5125
1.9375 0.625 1.5125
1.9375 0.5625 1.5125
2 0.625 1.5125
1.9375 0.5625 1.575
2 0.5625 1.575
1.9375 0.625 1.575
2 0.5625 1.5125
2.0625 0.625 1.5125
2.0625 0.5625 1.5125
2.125 0.625 1.5125
2.0625 0.5625 1.575
2.125 0.5625 1.575
2.0625 0.625 1.575
2.125 0.5625 1.5125
2.1875 0.625 1.5125
2.1875 0.5625 1.5125
2.25 0.625 1.5125
2.1875 0.5625 1.575
2.25 0.5625 1.575
2.1875 0.625 1.575
2.25 0.5625 1.5125
2.3125 0.625 1.5125
2.3125 0.5625 1.5125
2.375 0.625 1.5125
2.3125 0.5625 1.575
2.375 0.5625 1.575
2.3125 0.625 1.575
2.375 0.5625 1.5125
2.4375 0.625 1.5125
2.4375 0.5625 1.5125
2.5 0.625 1.5125
2.4375 0.5625 1.575
2.5 0.5625 1.575
2.4375 0.625 1.575
2.5 0.5625 1.5125
2.5625 0.625 1.5125
2.5625 0.5625 1.5125
2.625 0.625 1.5125
2.5625 0.5625 1.575
2.625 0.5625 1.575
2.5625 0.625 1.575
2.625 0.5625 1.5125
2.6875 0.625 1.5125
2.6875 0.5625 1.5125
2.75 0.625 1.5125
2.6875 0.5625 1.575
2.75 0.5625 1.575
2.6875 0.625 1.575
2.75 0.5625 1.5125
2.8125 0.625 1.5125
2.8125 0.5625 1.5125
2.875 0.625 1.5125
2.8125 0.5625 1.575
2.875 0.5625 1.575
2.8125 0.625 1.575
2.875 0.5625 1.5125
2.9375 0.625 1.5125
2.9375 0.5625 1.5125
3 0.625 1.5125
2.9375 0.5625 1.575
3 0.5625 1.575
2.9375 0.625 1.575
3 0.5625 1.5125
3.0625 0.625 1.5125
3.0625 0.5625 1.5125
3.125 0.625 1.5125
3.0625 0.5625 1.575
3.125 0.5625 1.575
3.0625 0.625 1.575
3.125 0.5625 1.5125
3.1875 0.625 1.5125
3.1875 0.5625 1.5125
3.25 0.625 1.5125
3.1875 0.5625 1.575
3.25 0.5625 1.575
3.1875 0.625 1.575
3.25 0.5625 1.5125
3.3125 0.625 1.5125
3.3125 0.5625 1.5125
3.375 0.625 1.5125
3.3125 0.5625 1.575
3.375 0.5625 1.575
3.3125 0.625 1.575
3.375 0.5625 1.5125
3.4375 0.625 1.5125
3.4375 0.5625 1.5125
3.5 0.625 1.5125
3.4375 0.5625 1.575
3.5 0.5625 1.575
3.4375 0.625 1.575
3.5 0.5625 1.5125
3.5625 0.625 1.5125
3.5625 0.5625 1.5125
3.625 0.625 1.5125
3.5625 0.5625 1.575
3.625 0.5625 1.575
3.5625 0.625 1.575
3.625 0.5625 1.5125
3.6875 0.625 1.5125
3.6875 0.5625 1.5125
3.75 0.625 1.5125
3.6875 0.5625 1.575
3.75 0.5625 1.575
3.6875 0.625 1.575
3.75 0.5625 1.5125
3.8125 0.625 1.5125
3.8125 0.5625 1.5125
3.875 0.625 1.5125
3.8125 0.5625 1.575
3.875 0.5625 1.575
3.8125 0.625 1.575
3.875 0.5625 1.5125
3.9375 0.625 1.5125
3.9375 0.5625 1.5125
4 0.625 1.5125
3.9375 0.5625 1.575
4 0.5625 1.575
3.9375 0.625 1.575
4 0.5625 1.5125
0.0625 0.75 1.5125
0.0625 0.6875 1.5125
0.125 0.75 1.5125
0.0625 0.6875 1.575
0.125 0.6875 1.575
0 0.75 1.5125
0 0.6875 1.5125
0.0625 0.75 1.575
0 0.6875 1.575
0.125 0.6875 1.5125
0.1875 0.75 1.5125
0.1875 0.6875 1.5125
0.25 0.75 1.5125
0.1875 0.6875 1.575
0.25 0.6875 1.575
0.1875 0.75 1.575
0.25 0.6875 1.5125
0.3125 0.75 1.5125
0.3125 0.6875 1.5125
0.375 0.75 1.5125
0.3125 0.6875 1.575
0.375 0.6875 1.575
0.3125 0.75 1.575
0.375 0.6875 1.5125
0.4375 0.75 1.5125
0.4375 0.6875 1.5125
0.5 0.75 1.5125
0.4375 0.6875 1.575
0.5 0.6875 1.575
0.4375 0.75 1.575
0.5 0.6875 1.5125
0.5625 0.75 1.5125
0.5625 0.6875 1.5125
0.625 0.75 1.5125
0.5625 0.6875 1.575
0.625 0.6875 1.575
0.5625 0.75 1.575
0.625 0.6875 1.5125
0.6875 0.75 1.5125
0.6875 0.6875 1.5125
0.75 0.75 1.5125
0.6875 0.6875 1.575
0.75 0.6875 1.575
0.6875 0.75 1.575
0.75 0.6875 1.5125
0.8125 0.75 1.5125
0.8125 0.6875 1.5125
0.875 0.75 1.5125
0.8125 0.6875 1.575
0.875 0.6875 1.575
0.8125 0.75 1.575
0.875 0.6875 1.5125
0.9375 0.75 1.5125
0.9375 0.6875 1.5125
1 0.75 1.5125
0.9375 0.6875 1.575
1 0.6875 1.575
0.9375 0.75 1.575
1 0.6875 1.5125
1.0625 0.75 1.5125
1.0625 0.6875 1.5125
1.125 0.75 1.5125
1.0625 0.6875 1.575
1.125 0.6875 1.575
1.0625 0.75 1.575
1.125 0.6875 1.5125
1.1875 0.75 1.5125
1.1875 0.6875 1.5125
1.25 0.75 1.5125
1.1875 0.6875 1.575
1.25 0.6875 1.575
1.1875 0.75 1.575
1.25 0.6875 1.5125
1.3125 0.75 1.5125
1.3125 0.6875 1.5125
1.375 0.75 1.5125
1.3125 0.6875 1.575
1.375 0.6875 1.575
1.3125 0.75 1.575
1.375 0.6875 1.5125
1.4375 0.75 1.5125
1.4375 0.6875 1.5125
1.5 0.75 1.5125
1.4375 0.6875 1.575
1.5 0.6875 1.575
1.4375 0.75 1.575
1.5 0.6875 1.5125
1.5625 0.75 1.5125
1.5625 0.6875 1.5125
1.625 0.75 1.5125
1.5625 0.6875 1.575
1.625 0.6875 1.575
1.5625 0.75 1.575
1.625 0.6875 1.5125
1.6875 0.75 1.5125
1.6875 0.6875 1.5125
1.75 0.75 1.5125
1.6875 0.6875 1.575
1.75 0.6875 1.575
1.6875 0.75 1.575
1.75 0.6875 1.5125
1.8125 0.75 1.5125
1.8125 0.6875 1.5125
1.875 0.75 1.5125
1.8125 0.6875 1.575
1.875 0.6875 1.575
1.8125 0.75 1.575
1.875 0.6875 1.5125
1.9375 0.75 1.5125
1.9375 0.6875 1.5125
2 0.75 1.5125
1.9375 0.6875 1.575
2 0.6875 1.575
1.9375 0.75 1.575
2 0.6875 1.5125
2.0625 0.75 1.5125
2.0625 0.6875 1.5125
2.125 0.75 1.5125
2.0625 0.6875 1.575
2.125 0.6875 1.575
2.0625 0.75 1.575
2.125 0.6875 1.5125
2.1875 0.75 1.5125
2.1875 0.6875 1.5125
2.25 0.75 1.5125
2.1875 0.6875 1.575
2.25 0.6875 1.575
2.1875 0.75 1.575
2.25 0.6875 1.5125
2.3125 0.75 1.5125
2.3125 0.6875 1.5125
2.375 0.75 1.5125
2.3125 0.6875 1.575
2.375 0.6875 1.575
2.3125 0.75 1.575
2.375 0.6875 1.5125
2.4375 0.75 1.5125
2.4375 0.6875 1.5125
2.5 0.75 1.5125
2.4375 0.6875 1.575
2.5 0.6875 1.575
2.4375 0.75 1.575
2.5 0.6875 1.5125
2.5625 0.75 1.5125
2.5625 0.6875 1.5125
2.625 0.75 1.5125
2.5625 0.6875 1.575
2.625 0.6875 1.575
2.5625 0.75 1.575
2.625 0.6875 1.5125
2.6875 0.75 1.5125
2.6875 0.6875 1.5125
2.75 0.75 1.5125
2.6875 0.6875 1.575
2.75 0.6875 1.575
2.6875 0.75 1.575
2.75 0.6875 1.5125
2.8125 0.75 1.5125
2.8125 0.6875 1.5125
2.875 0.75 1.5125
2.8125 0.6875 1.575
2.875 0.6875 1.575
2.8125 0.75 1.575
2.875 0.6875 1.5125
2.9375 0.75 1.5125
2.9375 0.6875 1.5125
3 0.75 1.5125
2.9375 0.6875 1.575
3 0.6875 1.575
2.9375 0.75 1.575
3 0.6875 1.5125
3.0625 0.75 1.5125
3.0625 0.6875 1.5125
3.125 0.75 1.5125
3.0625 0.6875 1.575
3.125 0.6875 1.575
3.0625 0.75 1.575
3.125 0.6875 1.5125
3.1875 0.75 1.5125
3.1875 0.6875 1.5125
3.25 0.75 1.5125
3.1875 0.6875 1.575
3.25 0.6875 1.575
3.1875 0.75 1.575
3.25 0.6875 1.5125
3.3125 0.75 1.5125
3.3125 0.6875 1.5125
3.375 0.75 1.5125
3.3125 0.6875 1.575
3.375 0.6875 1.575
3.3125 0.75 1.575
3.375 0.6875 1.5125
3.4375 0.75 1.5125
3.4375 0.6875 1.5125
3.5 0.75 1.5125
3.4375 0.6875 1.575
3.5 0.6875 1.575
3.4375 0.75 1.575
3.5 0.6875 1.5125
3.5625 0.75 1.5125
3.5625 0.6875 1.5125
3.625 0.75 1.5125
3.5625 0.6875 1.575
3.625 0.6875 1.575
3.5625 0.75 1.575
3.625 0.6875 1.5125
3.6875 0.75 1.5125
3.6875 0.6875 1.5125
3.75 0.75 1.5125
3.6875 0.6875 1.575
3.75 0.6875 1.575
3.6875 0.75 1.575
3.75 0.6875 1.5125
3.8125 0.75 1.5125
3.8125 0.6875 1.5125
3.875 0.75 1.5125
3.8125 0.6875 1.575
3.875 0.6875 1.575
3.8125 0.75 1.575
3.875 0.6875 1.5125
3.9375 0.75 1.5125
3.9375 0.6875 1.5125
4 0.75 1.5125
3.9375 0.6875 1.575
4 0.6875 1.575
3.9375 0.75 1.575
4 0.6875 1.5125
0.0625 0.875 1.5125
0.0625 0.8125 1.5125
0.125 0.875 1.5125
0.0625 0.8125 1.575
0.125 0.8125 1.575
0 0.875 1.5125
0 0.8125 1.5125
0.0625 0.875 1.575
0 0.8125 1.575
0.125 0.8125 1.5125
0.1875 0.875 1.5125
0.1875 0.8125 1.5125
0.25 0.875 1.5125
0.1875 0.8125 1.575
0.25 0.8125 1.575
0.1875 0.875 1.575
0.25 0.8125 1.5125
0.3125 0.875 1.5125
0.3125 0.8125 1.5125
0.375 0.875 1.5125
0.3125 0.8125 1.575
0.375 0.8125 1.575
0.3125 0.875 1.575
0.375 0.8125 1.5125
0.4375 0.875 1.5125
0.4375 0.8125 1.5125
0.5 0.875 1.5125
0.4375 0.8125 1.575
0.5 0.8125 1.575
0.4375 0.875 1.575
0.5 0.8125 1.5125
0.5625 0.875 1.5125
0.5625 0.8125 1.5125
0.625 0.875 1.5125
0.5625 0.8125 1.575
0.625 0.8125 1.575
0.5625 0.875 1.575
0.625 0.8125 1.5125
0.6875 0.875 1.5125
0.6875 0.8125 1.5125
0.75 0.875 1.5125
0.6875 0.8125 1.575
0.75 0.8125 1.575
0.6875 0.875 1.575
0.75 0.8125 1.5125
0.8125 0.875 1.5125
0.8125 0.8125 1.5125
0.875 0.875 1.5125
0.8125 0.8125 1.575
0.875 0.8125 1.575
0.8125 0.875 1.575
0.875 0.8125 1.5125
0.9375 0.875 1.5125
0.9375 0.8125 1.5125
1 0.875 1.5125
0.9375 0.8125 1.575
1 0.8125 1.575
0.9375 0.875 1.575
1 0.8125 1.5125
1.0625 0.875 1.5125
1.0625 0.8125 1.5125
1.125 0.875 1.5125
1.0625 0.8125 1.575
1.125 0.8125 1.575
1.0625 0.875 1.575
1.125 0.8125 1.5125
1.1875 0.875 1.5125
1.1875 0.8125 1.5125
1.25 0.875 1.5125
1.1875 0.8125 1.575
1.25 0.8125 1.575
1.1875 0.875 1.575
1.25 0.8125 1.5125
1.3125 0.875 1.5125
1.3125 0.8125 1.5125
1.375 0.875 1.5125
1.3125 0.8125 1.575
1.375 0.8125 1.575
1.3125 0.875 1.575
1.375 0.8125 1.5125
1.4375 0.875 1.5125
1.4375 0.8125 1.5125
1.5 0.875 1.5125
1.4375 0.8125 1.575
1.5 0.8125 1.575
1.4375 0.875 1.575
1.5 0.8125 1.5125
1.5625 0.875 1.5125
1.5625 0.8125 1.5125
1.625 0.875 1.5125
1.5625 0.8125 1.575
1.625 0.8125 1.575
1.5625 0.875 1.575
1.625 0.8125 1.5125
1.6875 0.875 1.5125
1.6875 0.8125 1.5125
1.75 0.875 1.5125
1.6875 0.8125 1.575
1.75 0.8125 1.575
1.6875 0.875 1.575
1.75 0.8125 1.5125
1.8125 0.875 1.5125
1.8125 0.8125 1.5125
1.875 0.875 1.5125
1.8125 0.8125 1.575
1.875 0.8125 1.575
1.8125 0.875 1.575
1.875 0.8125 1.5125
1.9375 0.875 1.5125
1.9375 0.8125 1.5125
2 0.875 1.5125
1.9375 0.8125 1.575
2 0.8125 1.575
1.9375 0.875 1.575
2 0.8125 1.5125
2.0625 0.875 1.5125
2.0625 0.8125 1.5125
2.125 0.875 1.5125
2.0625 0.8125 1.575
2.125 0.8125 1.575
2.0625 0.875 1.575
2.125 0.8125 1.5125
2.1875 0.875 1.5125
2.1875 0.8125 1.5125
2.25 0.875 1.5125
2.1875 0.8125 1.575
2.25 0.8125 1.575
2.1875 0.875 1.575
2.25 0.8125 1.5125
2.3125 0.875 1.5125
2.3125 0.8125 1.5125
2.375 0.875 1.5125
2.3125 0.8125 1.575
2.375 0.8125 1.575
2.3125 0.875 1.575
2.375 0.8125 1.5125
2.4375 0.875 1.5125
2.4375 0.8125 1.5125
2.5 0.875 1.5125
2.4375 0.8125 1.575
2.5 0.8125 1.575
2.4375 0.875 1.575
2.5 0.8125 1.5125
2.5625 0.875 1.5125
2.5625 0.8125 1.5125
2.625 0.875 1.5125
2.5625 0.8125 1.575
2.625 0.8125 1.575
2.5625 0.875 1.575
2.625 0.8125 1.5125
2.6875 0.875 1.5125
2.6875 0.8125 1.5125
2.75 0.875 1.5125
2.6875 0.8125 1.575
2.75 0.8125 1.575
2.6875 0.875 1.575
2.75 0.8125 1.5125
2.8125 0.875 1.5125
2.8125 0.8125 1.5125
2.875 0.875 1.5125
2.8125 0.8125 1.575
2.875 0.8125 1.575
2.8125 0.875 1.575
2.875 0.8125 1.5125
2.9375 0.875 1.5125
2.9375 0.8125 1.5125
3 0.875 1.5125
2.9375 0.8125 1.575
3 0.8125 1.575
2.9375 0.875 1.575
3 0.8125 1.5125
3.0625 0.875 1.5125
3.0625 0.8125 1.5125
3.125 0.875 1.5125
3.0625 0.8125 1.575
3.125 0.8125 1.575
3.0625 0.875 1.575
3.125 0.8125 1.5125
3.1875 0.875 1.5125
3.1875 0.8125 1.5125
3.25 0.875 1.5125
3.1875 0.8125 1.575
3.25 0.8125 1.575
3.1875 0.875 1.575
3.25 0.8125 1.5125
3.3125 0.875 1.5125
3.3125 0.8125 1.5125
3.375 0.875 1.5125
3.3125 0.8125 1.575
3.375 0.8125 1.575
3.3125 0.875 1.575
3.375 0.8125 1.5125
3.4375 0.875 1.5125
3.4375 0.8125 1.5125
3.5 0.875 1.5125
3.4375 0.8125 1.575
3.5 0.8125 1.575
3.4375 0.875 1.575
3.5 0.8125 1.5125
3.5625 0.875 1.5125
3.5625 0.8125 1.5125
3.625 0.875 1.5125
3.5625 0.8125 1.575
3.625 0.8125 1.575
3.5625 0.875 1.575
3.625 0.8125 1.5125
3.6875 0.875 1.5125
3.6875 0.8125 1.5125
3.75 0.875 1.5125
3.6875 0.8125 1.575
3.75 0.8125 1.575
3.6875 0.875 1.575
3.75 0.8125 1.5125
3.8125 0.875 1.5125
3.8125 0.8125 1.5125
3.875 0.875 1.5125
3.8125 0.8125 1.575
3.875 0.8125 1.575
3.8125 0.875 1.575
3.875 0.8125 1.5125
3.9375 0.875 1.5125
3.9375 0.8125 1.5125
4 0.875 1.5125
3.9375 0.8125 1.575
4 0.8125 1.575
3.9375 0.875 1.575
4 0.8125 1.5125
0.0625 1 1.5125
0.0625 0.9375 1.5125
0.125 1 1.5125
0.0625 0.9375 1.575
0.125 0.9375 1.575
0 1 1.5125
0 0.9375 1.5125
0.0625 1 1.575
0 0.9375 1.575
0.125 0.9375 1.5125
0.1875 1 1.5125
0.1875 0.9375 1.5125
0.25 1 1.5125
0.1875 0.9375 1.575
0.25 0.9375 1.575
0.1875 1 1.575
0.25 0.9375 1.5125
0.3125 1 1.5125
0.3125 0.9375 1.5125
0.375 1 1.5125
0.3125 0.9375 1.575
0.375 0.9375 1.575
0.3125 1 1.575
0.375 0.9375 1.5125
0.4375 1 1.5125
0.4375 0.9375 1.5125
0.5 1 1.5125
0.4375 0.9375 1.575
0.5 0.9375 1.575
0.4375 1 1.575
0.5 0.9375 1.5125
0.5625 1 1.5125
0.5625 0.9375 1.5125
0.625 1 1.5125
0.5625 0.9375 1.575
0.625 0.9375 1.575
0.5625 1 1.575
0.625 0.9375 1.5125
0.6875 1 1.5125
0.6875 0.9375 1.5125
0.75 1 1.5125
0.6875 0.9375 1.575
0.75 0.9375 1.575
0.6875 1 1.575
0.75 0.9375 1.5125
0.8125 1 1.5125
0.8125 0.9375 1.5125
0.875 1 1.5125
0.8125 0.9375 1.575
0.875 0.9375 1.575
0.8125 1 1.575
0.875 0.9375 1.5125
0.9375 1 1.5125
0.9375 0.9375 1.5125
1 1 1.5125
0.9375 0.9375 1.575
1 0.9375 1.575
0.9375 1 1.575
1 0.9375 1.5125
1.0625 1 1.5125
1.0625 0.9375 1.5125
1.125 1 1.5125
1.0625 0.9375 1.575
1.125 0.9375 1.575
1.0625 1 1.575
1.125 0.9375 1.5125
1.1875 1 1.5125
1.1875 0.9375 1.5125
1.25 1 1.5125
1.1875 0.9375 1.575
1.25 0.9375 1.575
1.1875 1 1.575
1.25 0.9375 1.5125
1.3125 1 1.5125
1.3125 0.9375 1.5125
1.375 1 1.5125
1.3125 0.9375 1.575
1.375 0.9375 1.575
1.3125 1 1.575
1.375 0.9375 1.5125
1.4375 1 1.5125
1.4375 0.9375 1.5125
1.5 1 1.5125
1.4375 0.9375 1.575
1.5 0.9375 1.575
1.4375 1 1.575
1.5 0.9375 1.5125
1.5625 1 1.5125
1.5625 0.9375 1.5125
1.625 1 1.5125
1.5625 0.9375 1.575
1.625 0.9375 1.575
1.5625 1 1.575
1.625 0.9375 1.5125
1.6875 1 1.5125
1.6875 0.9375 1.5125
1.75 1 1.5125
1.6875 0.9375 1.575
1.75 0.9375 1.575
1.6875 1 1.575
1.75 0.9375 1.5125
1.8125 1 1.5125
1.8125 0.9375 1.5125
1.875 1 1.5125
1.8125 0.9375 1.575
1.875 0.9375 1.575
1.8125 1 1.575
1.875 0.9375 1.5125
1.9375 1 1.5125
1.9375 0.9375 1.5125
2 1 1.5125
1.9375 0.9375 1.575
2 0.9375 1.575
1.9375 1 1.575
2 0.9375 1.5125
2.0625 1 1.5125
2.0625 0.9375 1.5125
2.125 1 1.5125
2.0625 0.9375 1.575
2.125 0.9375 1.575
2.0625 1 1.575
2.125 0.9375 1.5125
2.1875 1 1.5125
2.1875 0.9375 1.5125
2.25 1 1.5125
2.1875 0.9375 1.575
2.25 0.9375 1.575
2.1875 1 1.575
2.25 0.9375 1.5125
2.3125 1 1.5125
2.3125 0.9375 1.5125
2.375 1 1.5125
2.3125 0.9375 1.575
2.375 0.9375 1.575
2.3125 1 1.575
2.375 0.9375 1.5125
2.4375 1 1.5125
2.4375 0.9375 1.5125
2.5 1 1.5125
2.4375 0.9375 1.575
2.5 0.9375 1.575
2.4375 1 1.575
2.5 0.9375 1.5125
2.5625 1 1.5125
2.5625 0.9375 1.5125
2.625 1 1.5125
2.5625 0.9375 1.575
2.625 0.9375 1.575
2.5625 1 1.575
2.625 0.9375 1.5125
2.6875 1 1.5125
2.6875 0.9375 1.5125
2.75 1 1.5125
2.6875 0.9375 1.575
2.75 0.9375 1.575
2.6875 1 1.575
2.75 0.9375 1.5125
2.8125 1 1.5125
2.8125 0.9375 1.5125
2.875 1 1.5125
2.8125 0.9375 1.575
2.875 0.9375 1.575
2.8125 1 1.575
2.875 0.9375 1.5125
2.9375 1 1.5125
2.9375 0.9375 1.5125
3 1 1.5125
2.9375 0.9375 1.575
3 0.9375 1.575
2.9375 1 1.575
3 0.9375 1.5125
3.0625 1 1.5125
3.0625 0.9375 1.5125
3.125 1 1.5125
3.0625 0.9375 1.575
3.125 0.9375 1.575
3.0625 1 1.575
3.125 0.9375 1.5125
3.1875 1 1.5125
3.1875 0.9375 1.5125
3.25 1 1.5125
3.1875 0.9375 1.575
3.25 0.9375 1.575
3.1875 1 1.575
3.25 0.9375 1.5125
3.3125 1 1.5125
3.3125 0.9375 1.5125
3.375 1 1.5125
3.3125 0.9375 1.575
3.375 0.9375 1.575
3.3125 1 1.575
3.375 0.9375 1.5125
3.4375 1 1.5125
3.4375 0.9375 1.5125
3.5 1 1.5125
3.4375 0.9375 1.575
3.5 0.9375 1.575
3.4375 1 1.575
3.5 0.9375 1.5125
3.5625 1 1.5125
3.5625 0.9375 1.5125
3.625 1 1.5125
3.5625 0.9375 1.575
3.625 0.9375 1.575
3.5625 1 1.575
3.625 0.9375 1.5125
3.6875 1 1.5125
3.6875 0.9375 1.5125
3.75 1 1.5125
3.6875 0.9375 1.575
3.75 0.9375 1.575
3.6875 1 1.575
3.75 0.9375 1.5125
3.8125 1 1.5125
3.8125 0.9375 1.5125
3.875 1 1.5125
3.8125 0.9375 1.575
3.875 0.9375 1.575
3.8125 1 1.575
3.875 0.9375 1.5125
3.9375 1 1.5125
3.9375 0.9375 1.5125
4 1 1.5125
3.9375 0.9375 1.575
4 0.9375 1.575
3.9375 1 1.575
4 0.9375 1.5125
0.0625 0.125 1.6375
0.0625 0.0625 1.6375
0.125 0.125 1.6375
0.0625 0.0625 1.7
0.125 0.0625 1.7
0.0625 0 1.7
0 0 1.6375
0.0625 0 1.6375
0 0.125 1.6375
0 0.0625 1.6375
0.0625 0.125 1.7
0 0.0625 1.7
0.125 0 1.6375
0.125 0.0625 1.6375
0.1875 0.125 1.6375
0.1875 0.0625 1.6375
0.25 0.125 1.6375
0.1875 0.0625 1.7
0.25 0.0625 1.7
0.1875 0 1.7
0.1875 0 1.6375
0.1875 0.125 1.7
0.25 0 1.6375
0.25 0.0625 1.6375
0.3125 0.125 1.6375
0.3125 0.0625 1.6375
0.375 0.125 1.6375
0.3125 0.0625 1.7
0.375 0.0625 1.7
0.3125 0 1.7
0.3125 0 1.6375
0.3125 0.125 1.7
0.375 0 1.6375
0.375 0.0625 1.6375
0.4375 0.125 1.6375
0.4375 0.0625 1.6375
0.5 0.125 1.6375
0.4375 0.0625 1.7
0.5 0.0625 1.7
0.4375 0 1.7
0.4375 0 1.6375
0.4375 0.125 1.7
0.5 0 1.6375
0.5 0.0625 1.6375
0.5625 0.125 1.6375
0.5625 0.0625 1.6375
0.625 0.125 1.6375
0.5625 0.0625 1.7
0.625 0.0625 1.7
0.5625 0 1.7
0.5625 0 1.6375
0.5625 0.125 1.7
0.625 0 1.6375
0.625 0.0625 1.6375
0.6875 0.125 1.6375
0.6875 0.0625 1.6375
0.75 0.125 1.6375
0.6875 0.0625 1.7
0.75 0.0625 1.7
0.6875 0 1.7
0.6875 0 1.6375
0.6875 0.125 1.7
0.75 0 1.6375
0.75 0.0625 1.6375
0.8125 0.125 1.6375
0.8125 0.0625 1.6375
0.875 0.125 1.6375
0.8125 0.0625 1.7
0.875 0.0625 1.7
0.8125 0 1.7
0.8125 0 1.6375
0.8125 0.125 1.7
0.875 0 1.6375
0.875 0.0625 1.6375
0.9375 0.125 1.6375
0.9375 0.0625 1.6375
1 0.125 1.6375
0.9375 0.0625 1.7
1 0.0625 1.7
0.9375 0 1.7
0.9375 0 1.6375
0.9375 0.125 1.7
1 0 1.6375
1 0.0625 1.6375
1.0625 0.125 1.6375
1.0625 0.0625 1.6375
1.125 0.125 1.6375
1.0625 0.0625 1.7
1.125 0.0625 1.7
1.0625 0 1.7
1.0625 0 1.6375
1.0625 0.125 1.7
1.125 0 1.6375
1.125 0.0625 1.6375
1.1875 0.125 1.6375
1.1875 0.0625 1.6375
1.25 0.125 1.6375
1.1875 0.0625 1.7
1.25 0.0625 1.7
1.1875 0 1.7
1.1875 0 1.6375
1.1875 0.125 1.7
1.25 0 1.6375
1.25 0.0625 1.6375
1.3125 0.125 1.6375
1.3125 0.0625 1.6375
1.375 0.125 1.6375
1.3125 0.0625 1.7
1.375 0.0625 1.7
1.3125 0 1.7
1.3125 0 1.6375
1.3125 0.125 1.7
1.375 0 1.6375
1.375 0.0625 1.6375
1.4375 0.125 1.6375
1.4375 0.0625 1.6375
1.5 0.125 1.6375
1.4375 0.0625 1.7
1.5 0.0625 1.7
1.4375 0 1.7
1.4375 0 1.6375
1.4375 0.125 1.7
1.5 0 1.6375
1.5 0.0625 1.6375
1.5625 0.125 1.6375
1.5625 0.0625 1.6375
1.625 0.125 1.6375
1.5625 0.0625 1.7
1.625 0.0625 1.7
1.5625 0 1.7
1.5625 0 1.6375
1.5625 0.125 1.7
1.625 0 1.6375
1.625 0.0625 1.6375
1.6875 0.125 1.6375
1.6875 0.0625 1.6375
1.75 0.125 1.6375
1.6875 0.0625 1.7
1.75 0.0625 1.7
1.6875 0 1.7
1.6875 0 1.6375
1.6875 0.125 1.7
1.75 0 1.6375
1.75 0.0625 1.6375
1.8125 0.125 1.6375
1.8125 0.0625 1.6375
1.875 0.125 1.6375
1.8125 0.0625 1.7
1.875 0.0625 1.7
1.8125 0 1.7
1.8125 0 1.6375
1.8125 0.125 1.7
1.875 0 1.6375
1.875 0.0625 1.6375
1.9375 0.125 1.6375
1.9375 0.0625 1.6375
2 0.125 1.6375
1.9375 0.0625 1.7
2 0.0625 1.7
1.9375 0 1.7
1.9375 0 1.6375
1.9375 0.125 1.7
2 0 1.6375
2 0.0625 1.6375
2.0625 0.125 1.6375
2.0625 0.0625 1.6375
2.125 0.125 1.6375
2.0625 0.0625 1.7
2.125 0.0625 1.7
2.0625 0 1.7
2.0625 0 1.6375
2.0625 0.125 1.7
2.125 0 1.6375
2.125 0.0625 1.6375
2.1875 0.125 1.6375
2.1875 0.0625 1.6375
2.25 0.125 1.6375
2.1875 0.0625 1.7
2.25 0.0625 1.7
2.1875 0 1.7
2.1875 0 1.6375
2.1875 0.125 1.7
2.25 0 1.6375
2.25 0.0625 1.6375
2.3125 0.125 1.6375
2.3125 0.0625 1.6375
2.375 0.125 1.6375
2.3125 0.0625 1.7
2.375 0.0625 1.7
2.3125 0 1.7
2.3125 0 1.6375
2.3125 0.125 1.7
2.375 0 1.6375
2.375 0.0625 1.6375
2.4375 0.125 1.6375
2.4375 0.0625 1.6375
2.5 0.125 1.6375
2.4375 0.0625 1.7
2.5 0.0625 1.7
2.4375 0 1.7
2.4375 0 1.6375
2.4375 0.125 1.7
2.5 0 1.6375
2.5 0.0625 1.6375
2.5625 0.125 1.6375
2.5625 0.0625 1.6375
2.625 0.125 1.6375
2.5625 0.0625 1.7
2.625 0.0625 1.7
2.5625 0 1.7
2.5625 0 1.6375
2.5625 0.125 1.7
2.625 0 1.6375
2.625 0.0625 1.6375
2.6875 0.125 1.6375
2.6875 0.0625 1.6375
2.75 0.125 1.6375
2.6875 0.0625 1.7
2.75 0.0625 1.7
2.6875 0 1.7
2.6875 0 1.6375
2.6875 0.125 1.7
2.75 0 1.6375
2.75 0.0625 1.6375
2.8125 0.125 1.6375
2.8125 0.0625 1.6375
2.875 0.125 1.6375
2.8125 0.0625 1.7
2.875 0.0625 1.7
2.8125 0 1.7
2.8125 0 1.6375
2.8125 0.125 1.7
2.875 0 1.6375
2.875 0.0625 1.6375
2.9375 0.125 1.6375
2.9375 0.0625 1.6375
3 0.125 1.6375
2.9375 0.0625 1.7
3 0.0625 1.7
2.9375 0 1.7
2.9375 0 1.6375
2.9375 0.125 1.7
3 0 1.6375
3 0.0625 1.6375
3.0625 0.125 1.6375
3.0625 0.0625 1.6375
3.125 0.125 1.6375
3.0625 0.0625 1.7
3.125 0.0625 1.7
3.0625 0 1.7
3.0625 0 1.6375
3.0625 0.125 1.7
3.125 0 1.6375
3.125 0.0625 1.6375
3.1875 0.125 1.6375
3.1875 0.0625 1.6375
3.25 0.125 1.6375
3.1875 0.0625 1.7
3.25 0.0625 1.7
3.1875 0 1.7
3.1875 0 1.6375
3.1875 0.125 1.7
3.25 0 1.6375
3.25 0.0625 1.6375
3.3125 0.125 1.6375
3.3125 0.0625 1.6375
3.375 0.125 1.6375
3.3125 0.0625 1.7
3.375 0.0625 1.7
3.3125 0 1.7
3.3125 0 1.6375
3.3125 0.125 1.7
3.375 0 1.6375
3.375 0.0625 1.6375
3.4375 0.125 1.6375
3.4375 0.0625 1.6375
3.5 0.125 1.6375
3.4375 0.0625 1.7
3.5 0.0625 1.7
3.4375 0 1.7
3.4375 0 1.6375
3.4375 0.125 1.7
3.5 0 1.6375
3.5 0.0625 1.6375
3.5625 0.125 1.6375
3.5625 0.0625 1.6375
3.625 0.125 1.6375
3.5625 0.0625 1.7
3.625 0.0625 1.7
3.5625 0 1.7
3.5625 0 1.6375
3.5625 0.125 1.7
3.625 0 1.6375
3.625 0.0625 1.6375
3.6875 0.125 1.6375
3.6875 0.0625 1.6375
3.75 0.125 1.6375
3.6875 0.0625 1.7
3.75 0.0625 1.7
3.6875 0 1.7
3.6875 0 1.6375
3.6875 0.125 1.7
3.75 0 1.6375
3.75 0.0625 1.6375
3.8125 0.125 1.6375
3.8125 0.0625 1.6375
3.875 0.125 1.6375
3.8125 0.0625 1.7
3.875 0.0625 1.7
3.8125 0 1.7
3.8125 0 1.6375
3.8125 0.125 1.7
3.875 0 1.6375
3.875 0.0625 1.6375
3.9375 0.125 1.6375
3.9375 0.0625 1.6375
4 0.125 1.6375
3.9375 0.0625 1.7
4 0.0625 1.7
3.9375 0 1.7
3.9375 0 1.6375
3.9375 0.125 1.7
4 0 1.6375
4 0.0625 1.6375
0.0625 0.25 1.6375
0.0625 0.1875 1.6375
0.125 0.25 1.6375
0.0625 0.1875 1.7
0.125 0.1875 1.7
0 0.25 1.6375
0 0.1875 1.6375
0.0625 0.25 1.7
0 0.1875 1.7
0.125 0.1875 1.6375
0.1875 0.25 1.6375
0.1875 0.1875 1.6375
0.25 0.25 1.6375
0.1875 0.1875 1.7
0.25 0.1875 1.7
0.1875 0.25 1.7
0.25 0.1875 1.6375
0.3125 0.25 1.6375
0.3125 0.1875 1.6375
0.375 0.25 1.6375
0.3125 0.1875 1.7
0.375 0.1875 1.7
0.3125 0.25 1.7
0.375 0.1875 1.6375
0.4375 0.25 1.6375
0.4375 0.1875 1.6375
0.5 0.25 1.6375
0.4375 0.1875 1.7
0.5 0.1875 1.7
0.4375 0.25 1.7
0.5 0.1875 1.6375
0.5625 0.25 1.6375
0.5625 0.1875 1.6375
0.625 0.25 1.6375
0.5625 0.1875 1.7
0.625 0.1875 1.7
0.5625 0.25 1.7
0.625 0.1875 1.6375
0.6875 0.25 1.6375
0.6875 0.1875 1.6375
0.75 0.25 1.6375
0.6875 0.1875 1.7
0.75 0.1875 1.7
0.6875 0.25 1.7
0.75 0.1875 1.6375
0.8125 0.25 1.6375
0.8125 0.1875 1.6375
0.875 0.25 1.6375
0.8125 0.1875 1.7
0.875 0.1875 1.7
0.8125 0.25 1.7
0.875 0.1875 1.6375
0.9375 0.25 1.6375
0.9375 0.1875 1.6375
1 0.25 1.6375
0.9375 0.1875 1.7
1 0.1875 1.7
0.9375 0.25 1.7
1 0.1875 1.6375
1.0625 0.25 1.6375
1.0625 0.1875 1.6375
1.125 0.25 1.6375
1.0625 0.1875 1.7
1.125 0.1875 1.7
1.0625 0.25 1.7
1.125 0.1875 1.6375
1.1875 0.25 1.6375
1.1875 0.1875 1.6375
1.25 0.25 1.6375
1.1875 0.1875 1.7
1.25 0.1875 1.7
1.1875 0.25 1.7
1.25 0.1875 1.6375
1.3125 0.25 1.6375
1.3125 0.1875 1.6375
1.375 0.25 1.6375
1.3125 0.1875 1.7
1.375 0.1875 1.7
1.3125 0.25 1.7
1.375 0.1875 1.6375
1.4375 0.25 1.6375
1.4375 0.1875 1.6375
1.5 0.25 1.6375
1.4375 0.1875 1.7
1.5 0.1875 1.7
1.4375 0.25 1.7
1.5 0.1875 1.6375
1.5625 0.25 1.6375
1.5625 0.1875 1.6375
1.625 0.25 1.6375
1.5625 0.1875 1.7
1.625 0.1875 1.7
1.5625 0.25 1.7
1.625 0.1875 1.6375
1.6875 0.25 1.6375
1.6875 0.1875 1.6375
1.75 0.25 1.6375
1.6875 0.1875 1.7
1.75 0.1875 1.7
1.6875 0.25 1.7
1.75 0.1875 1.6375
1.8125 0.25 1.6375
1.8125 0.1875 1.6375
1.875 0.25 1.6375
1.8125 0.1875 1.7
1.875 0.1875 1.7
1.8125 0.25 1.7
1.875 0.1875 1.6375
1.9375 0.25 1.6375
1.9375 0.1875 1.6375
2 0.25 1.6375
1.9375 0.1875 1.7
2 0.1875 1.7
1.9375 0.25 1.7
2 0.1875 1.6375
2.0625 0.25 1.6375
2.0625 0.1875 1.6375
2.125 0.25 1.6375
2.0625 0.1875 1.7
2.125 0.1875 1.7
2.0625 0.25 1.7
2.125 0.1875 1.6375
2.1875 0.25 1.6375
2.1875 0.1875 1.6375
2.25 0.25 1.6375
2.1875 0.1875 1.7
2.25 0.1875 1.7
2.1875 0.25 1.7
2.25 0.1875 1.6375
2.3125 0.25 1.6375
2.3125 0.1875 1.6375
2.375 0.25 1.6375
2.3125 0.1875 1.7
2.375 0.1875 1.7
2.3125 0.25 1.7
2.375 0.1875 1.6375
2.4375 0.25 1.6375
2.4375 0.1875 1.6375
2.5 0.25 1.6375
2.4375 0.1875 1.7
2.5 0.1875 1.7
2.4375 0.25 1.7
2.5 0.1875 1.6375
2.5625 0.25 1.6375
2.5625 0.1875 1.6375
2.625 0.25 1.6375
2.5625 0.1875 1.7
2.625 0.1875 1.7
2.5625 0.25 1.7
2.625 0.1875 1.6375
2.6875 0.25 1.6375
2.6875 0.1875 1.6375
2.75 0.25 1.6375
2.6875 0.1875 1.7
2.75 0.1875 1.7
2.6875 0.25 1.7
2.75 0.1875 1.6375
2.8125 0.25 1.6375
2.8125 0.1875 1.6375
2.875 0.25 1.6375
2.8125 0.1875 1.7
2.875 0.1875 1.7
2.8125 0.25 1.7
2.875 0.1875 1.6375
2.9375 0.25 1.6375
2.9375 0.1875 1.6375
3 0.25 1.6375
2.9375 0.1875 1.7
3 0.1875 1.7
2.9375 0.25 1.7
3 0.1875 1.6375
3.0625 0.25 1.6375
3.0625 0.1875 1.6375
3.125 0.25 1.6375
3.0625 0.1875 1.7
3.125 0.1875 1.7
3.0625 0.25 1.7
3.125 0.1875 1.6375
3.1875 0.25 1.6375
3.1875 0.1875 1.6375
3.25 0.25 1.6375
3.1875 0.1875 1.7
3.25 0.1875 1.7
3.1875 0.25 1.7
3.25 0.1875 1.6375
3.3125 0.25 1.6375
3.3125 0.1875 1.6375
3.375 0.25 1.6375
3.3125 0.1875 1.7
3.375 0.1875 1.7
3.3125 0.25 1.7
3.375 0.1875 1.6375
3.4375 0.25 1.6375
3.4375 0.1875 1.6375
3.5 0.25 1.6375
3.4375 0.1875 1.7
3.5 0.1875 1.7
3.4375 0.25 1.7
3.5 0.1875 1.6375
3.5625 0.25 1.6375
3.5625 0.1875 1.6375
3.625 0.25 1.6375
3.5625 0.1875 1.7
3.625 0.1875 1.7
3.5625 0.25 1.7
3.625 0.1875 1.6375
3.6875 0.25 1.6375
3.6875 0.1875 1.6375
3.75 0.25 1.6375
3.6875 0.1875 1.7
3.75 0.1875 1.7
3.6875 0.25 1.7
3.75 0.1875 1.6375
3.8125 0.25 1.6375
3.8125 0.1875 1.6375
3.875 0.25 1.6375
3.8125 0.1875 1.7
3.875 0.1875 1.7
3.8125 0.25 1.7
3.875 0.1875 1.6375
3.9375 0.25 1.6375
3.9375 0.1875 1.6375
4 0.25 1.6375
3.9375 0.1875 1.7
4 0.1875 1.7
3.9375 0.25 1.7
4 0.1875 1.6375
0.0625 0.375 1.6375
0.0625 0.3125 1.6375
0.125 0.375 1.6375
0.0625 0.3125 1.7
0.125 0.3125 1.7
0 0.375 1.6375
0 0.3125 1.6375
0.0625 0.375 1.7
0 0.3125 1.7
0.125 0.3125 1.6375
0.1875 0.375 1.6375
0.1875 0.3125 1.6375
0.25 0.375 1.6375
0.1875 0.3125 1.7
0.25 0.3125 1.7
0.1875 0.375 1.7
0.25 0.3125 1.6375
0.3125 0.375 1.6375
0.3125 0.3125 1.6375
0.375 0.375 1.6375
0.3125 0.3125 1.7
0.375 0.3125 1.7
0.3125 0.375 1.7
0.375 0.3125 1.6375
0.4375 0.375 1.6375
0.4375 0.3125 1.6375
0.5 0.375 1.6375
0.4375 0.3125 1.7
0.5 0.3125 1.7
0.4375 0.375 1.7
0.5 0.3125 1.6375
0.5625 0.375 1.6375
0.5625 0.3125 1.6375
0.625 0.375 1.6375
0.5625 0.3125 1.7
0.625 0.3125 1.7
0.5625 0.375 1.7
0.625 0.3125 1.6375
0.6875 0.375 1.6375
0.6875 0.3125 1.6375
0.75 0.375 1.6375
0.6875 0.3125 1.7
0.75 0.3125 1.7
0.6875 0.375 1.7
0.75 0.3125 1.6375
0.8125 0.375 1.6375
0.8125 0.3125 1.6375
0.875 0.375 1.6375
0.8125 0.3125 1.7
0.875 0.3125 1.7
0.8125 0.375 1.7
0.875 0.3125 1.6375
0.9375 0.375 1.6375
0.9375 0.3125 1.6375
1 0.375 1.6375
0.9375 0.3125 1.7
1 0.3125 1.7
0.9375 0.375 1.7
1 0.3125 1.6375
1.0625 0.375 1.6375
1.0625 0.3125 1.6375
1.125 0.375 1.6375
1.0625 0.3125 1.7
1.125 0.3125 1.7
1.0625 0.375 1.7
1.125 0.3125 1.6375
1.1875 0.375 1.6375
1.1875 0.3125 1.6375
1.25 0.375 1.6375
1.1875 0.3125 1.7
1.25 0.3125 1.7
1.1875 0.375 1.7
1.25 0.3125 1.6375
1.3125 0.375 1.6375
1.3125 0.3125 1.6375
1.375 0.375 1.6375
1.3125 0.3125 1.7
1.375 0.3125 1.7
1.3125 0.375 1.7
1.375 0.3125 1.6375
1.4375 0.375 1.6375
1.4375 0.3125 1.6375
1.5 0.375 1.6375
1.4375 0.3125 1.7
1.5 0.3125 1.7
1.4375 0.375 1.7
1.5 0.3125 1.6375
1.5625 0.375 1.6375
1.5625 0.3125 1.6375
1.625 0.375 1.6375
1.5625 0.3125 1.7
1.625 0.3125 1.7
1.5625 0.375 1.7
1.625 0.3125 1.6375
1.6875 0.375 1.6375
1.6875 0.3125 1.6375
1.75 0.375 1.6375
1.6875 0.3125 1.7
1.75 0.3125 1.7
1.6875 0.375 1.7
1.75 0.3125 1.6375
1.8125 0.375 1.6375
1.8125 0.3125 1.6375
1.875 0.375 1.6375
1.8125 0.3125 1.7
1.875 0.3125 1.7
1.8125 0.375 1.7
1.875 0.3125 1.6375
1.9375 0.375 1.6375
1.9375 0.3125 1.6375
2 0.375 1.6375
1.9375 0.3125 1.7
2 0.3125 1.7
1.9375 0.375 1.7
2 0.3125 1.6375
2.0625 0.375 1.6375
2.0625 0.3125 1.6375
2.125 0.375 1.6375
2.0625 0.3125 1.7
2.125 0.3125 1.7
2.0625 0.375 1.7
2.125 0.3125 1.6375
2.1875 0.375 1.6375
2.1875 0.3125 1.6375
2.25 0.375 1.6375
2.1875 0.3125 1.7
2.25 0.3125 1.7
2.1875 0.375 1.7
2.25 0.3125 1.6375
2.3125 0.375 1.6375
2.3125 0.3125 1.6375
2.375 0.375 1.6375
2.3125 0.3125 1.7
2.375 0.3125 1.7
2.3125 0.375 1.7
2.375 0.3125 1.6375
2.4375 0.375 1.6375
2.4375 0.3125 1.6375
2.5 0.375 1.6375
2.4375 0.3125 1.7
2.5 0.3125 1.7
2.4375 0.375 1.7
2.5 0.3125 1.6375
2.5625 0.375 1.6375
2.5625 0.3125 1.6375
2.625 0.375 1.6375
2.5625 0.3125 1.7
2.625 0.3125 1.7
2.5625 0.375 1.7
2.625 0.3125 1.6375
2.6875 0.375 1.6375
2.6875 0.3125 1.6375
2.75 0.375 1.6375
2.6875 0.3125 1.7
2.75 0.3125 1.7
2.6875 0.375 1.7
2.75 0.3125 1.6375
2.8125 0.375 1.6375
2.8125 0.3125 1.6375
2.875 0.375 1.6375
2.8125 0.3125 1.7
2.875 0.3125 1.7
2.8125 0.375 1.7
2.875 0.3125 1.6375
2.9375 0.375 1.6375
2.9375 0.3125 1.6375
3 0.375 1.6375
2.9375 0.3125 1.7
3 0.3125 1.7
2.9375 0.375 1.7
3 0.3125 1.6375
3.0625 0.375 1.6375
3.0625 0.3125 1.6375
3.125 0.375 1.6375
3.0625 0.3125 1.7
3.125 0.3125 1.7
3.0625 0.375 1.7
3.125 0.3125 1.6375
3.1875 0.375 1.6375
3.1875 0.3125 1.6375
3.25 0.375 1.6375
3.1875 0.3125 1.7
3.25 0.3125 1.7
3.1875 0.375 1.7
3.25 0.3125 1.6375
3.3125 0.375 1.6375
3.3125 0.3125 1.6375
3.375 0.375 1.6375
3.3125 0.3125 1.7
3.375 0.3125 1.7
3.3125 0.375 1.7
3.375 0.3125 1.6375
3.4375 0.375 1.6375
3.4375 0.3125 1.6375
3.5 0.375 1.6375
3.4375 0.3125 1.7
3.5 0.3125 1.7
3.4375 0.375 1.7
3.5 0.3125 1.6375
3.5625 0.375 1.6375
3.5625 0.3125 1.6375
3.625 0.375 1.6375
3.5625 0.3125 1.7
3.625 0.3125 1.7
3.5625 0.375 1.7
3.625 0.3125 1.6375
3.6875 0.375 1.6375
3.6875 0.3125 1.6375
3.75 0.375 1.6375
3.6875 0.3125 1.7
3.75 0.3125 1.7
3.6875 0.375 1.7
3.75 0.3125 1.6375
3.8125 0.375 1.6375
3.8125 0.3125 1.6375
3.875 0.375 1.6375
3.8125 0.3125 1.7
3.875 0.3125 1.7
3.8125 0.375 1.7
3.875 0.3125 1.6375
3.9375 0.375 1.6375
3.9375 0.3125 1.6375
4 0.375 1.6375
3.9375 0.3125 1.7
4 0.3125 1.7
3.9375 0.375 1.7
4 0.3125 1.6375
0.0625 0.5 1.6375
0.0625 0.4375 1.6375
0.125 0.5 1.6375
0.0625 0.4375 1.7
0.125 0.4375 1.7
0 0.5 1.6375
0 0.4375 1.6375
0.0625 0.5 1.7
0 0.4375 1.7
0.125 0.4375 1.6375
0.1875 0.5 1.6375
0.1875 0.4375 1.6375
0.25 0.5 1.6375
0.1875 0.4375 1.7
0.25 0.4375 1.7
0.1875 0.5 1.7
0.25 0.4375 1.6375
0.3125 0.5 1.6375
0.3125 0.4375 1.6375
0.375 0.5 1.6375
0.3125 0.4375 1.7
0.375 0.4375 1.7
0.3125 0.5 1.7
0.375 0.4375 1.6375
0.4375 0.5 1.6375
0.4375 0.4375 1.6375
0.5 0.5 1.6375
0.4375 0.4375 1.7
0.5 0.4375 1.7
0.4375 0.5 1.7
0.5 0.4375 1.6375
0.5625 0.5 1.6375
0.5625 0.4375 1.6375
0.625 0.5 1.6375
0.5625 0.4375 1.7
0.625 0.4375 1.7
0.5625 0.5 1.7
0.625 0.4375 1.6375
0.6875 0.5 1.6375
0.6875 0.4375 1.6375
0.75 0.5 1.6375
0.6875 0.4375 1.7
0.75 0.4375 1.7
0.6875 0.5 1.7
0.75 0.4375 1.6375
0.8125 0.5 1.6375
0.8125 0.4375 1.6375
0.875 0.5 1.6375
0.8125 0.4375 1.7
0.875 0.4375 1.7
0.8125 0.5 1.7
0.875 0.4375 1.6375
0.9375 0.5 1.6375
0.9375 0.4375 1.6375
1 0.5 1.6375
0.9375 0.4375 1.7
1 0.4375 1.7
0.9375 0.5 1.7
1 0.4375 1.6375
1.0625 0.5 1.6375
1.0625 0.4375 1.6375
1.125 0.5 1.6375
1.0625 0.4375 1.7
1.125 0.4375 1.7
1.0625 0.5 1.7
1.125 0.4375 1.6375
1.1875 0.5 1.6375
1.1875 0.4375 1.6375
1.25 0.5 1.6375
1.1875 0.4375 1.7
1.25 0.4375 1.7
1.1875 0.5 1.7
1.25 0.4375 1.6375
1.3125 0.5 1.6375
1.3125 0.4375 1.6375
1.375 0.5 1.6375
1.3125 0.4375 1.7
1.375 0.4375 1.7
1.3125 0.5 1.7
1.375 0.4375 1.6375
1.4375 0.5 1.6375
1.4375 0.4375 1.6375
1.5 0.5 1.6375
1.4375 0.4375 1.7
1.5 0.4375 1.7
1.4375 0.5 1.7
1.5 0.4375 1.6375
1.5625 0.5 1.6375
1.5625 0.4375 1.6375
1.625 0.5 1.6375
1.5625 0.4375 1.7
1.625 0.4375 1.7
1.5625 0.5 1.7
1.625 0.4375 1.6375
1.6875 0.5 1.6375
1.6875 0.4375 1.6375
1.75 0.5 1.6375
1.6875 0.4375 1.7
1.75 0.4375 1.7
1.6875 0.5 1.7
1.75 0.4375 1.6375
1.8125 0.5 1.6375
1.8125 0.4375 1.6375
1.875 0.5 1.6375
1.8125 0.4375 1.7
1.875 0.4375 1.7
1.8125 0.5 1.7
1.875 0.4375 1.6375
1.9375 0.5 1.6375
1.9375 0.4375 1.6375
2 0.5 1.6375
1.9375 0.4375 1.7
2 0.4375 1.7
1.9375 0.5 1.7
2 0.4375 1.6375
2.0625 0.5 1.6375
2.0625 0.4375 1.6375
2.125 0.5 1.6375
2.0625 0.4375 1.7
2.125 0.4375 1.7
2.0625 0.5 1.7
2.125 0.4375 1.6375
2.1875 0.5 1.6375
2.1875 0.4375 1.6375
2.25 0.5 1.6375
2.1875 0.4375 1.7
2.25 0.4375 1.7
2.1875 0.5 1.7
2.25 0.4375 1.6375
2.3125 0.5 1.6375
2.3125 0.4375 1.6375
2.375 0.5 1.6375
2.3125 0.4375 1.7
2.375 0.4375 1.7
2.3125 0.5 1.7
2.375 0.4375 1.6375
2.4375 0.5 1.6375
2.4375 0.4375 1.6375
2.5 0.5 1.6375
2.4375 0.4375 1.7
2.5 0.4375 1.7
2.4375 0.5 1.7
2.5 0.4375 1.6375
2.5625 0.5 1.6375
2.5625 0.4375 1.6375
2.625 0.5 1.6375
2.5625 0.4375 1.7
2.625 0.4375 1.7
2.5625 0.5 1.7
2.625 0.4375 1.6375
2.6875 0.5 1.6375
2.6875 0.4375 1.6375
2.75 0.5 1.6375
2.6875 0.4375 1.7
2.75 0.4375 1.7
2.6875 0.5 1.7
2.75 0.4375 1.6375
2.8125 0.5 1.6375
2.8125 0.4375 1.6375
2.875 0.5 1.6375
2.8125 0.4375 1.7
2.875 0.4375 1.7
2.8125 0.5 1.7
2.875 0.4375 1.6375
2.9375 0.5 1.6375
2.9375 0.4375 1.6375
3 0.5 1.6375
2.9375 0.4375 1.7
3 0.4375 1.7
2.9375 0.5 1.7
3 0.4375 1.6375
3.0625 0.5 1.6375
3.0625 0.4375 1.6375
3.125 0.5 1.6375
3.0625 0.4375 1.7
3.125 0.4375 1.7
3.0625 0.5 1.7
3.125 0.4375 1.6375
3.1875 0.5 1.6375
3.1875 0.4375 1.6375
3.25 0.5 1.6375
3.1875 0.4375 1.7
3.25 0.4375 1.7
3.1875 0.5 1.7
3.25 0.4375 1.6375
3.3125 0.5 1.6375
3.3125 0.4375 1.6375
3.375 0.5 1.6375
3.3125 0.4375 1.7
3.375 0.4375 1.7
3.3125 0.5 1.7
3.375 0.4375 1.6375
3.4375 0.5 1.6375
3.4375 0.4375 1.6375
3.5 0.5 1.6375
3.4375 0.4375 1.7
3.5 0.4375 1.7
3.4375 0.5 1.7
3.5 0.4375 1.6375
3.5625 0.5 1.6375
3.5625 0.4375 1.6375
3.625 0.5 1.6375
3.5625 0.4375 1.7
3.625 0.4375 1.7
3.5625 0.5 1.7
3.625 0.4375 1.6375
3.6875 0.5 1.6375
3.6875 0.4375 1.6375
3.75 0.5 1.6375
3.6875 0.4375 1.7
3.75 0.4375 1.7
3.6875 0.5 1.7
3.75 0.4375 1.6375
3.8125 0.5 1.6375
3.8125 0.4375 1.6375
3.875 0.5 1.6375
3.8125 0.4375 1.7
3.875 0.4375 1.7
3.8125 0.5 1.7
3.875 0.4375 1.6375
3.9375 0.5 1.6375
3.9375 0.4375 1.6375
4 0.5 1.6375
3.9375 0.4375 1.7
4 0.4375 1.7
3.9375 0.5 1.7
4 0.4375 1.6375
0.0625 0.625 1.6375
0.0625 0.5625 1.6375
0.125 0.625 1.6375
0.0625 0.5625 1.7
0.125 0.5625 1.7
0 0.625 1.6375
0 0.5625 1.6375
0.0625 0.625 1.7
0 0.5625 1.7
0.125 0.5625 1.6375
0.1875 0.625 1.6375
0.1875 0.5625 1.6375
0.25 0.625 1.6375
0.1875 0.5625 1.7
0.25 0.5625 1.7
0.1875 0.625 1.7
0.25 0.5625 1.6375
0.3125 0.625 1.6375
0.3125 0.5625 1.6375
0.375 0.625 1.6375
0.3125 0.5625 1.7
0.375 0.5625 1.7
0.3125 0.625 1.7
0.375 0.5625 1.6375
0.4375 0.625 1.6375
0.4375 0.5625 1.6375
0.5 0.625 1.6375
0.4375 0.5625 1.7
0.5 0.5625 1.7
0.4375 0.625 1.7
0.5 0.5625 1.6375
0.5625 0.625 1.6375
0.5625 0.5625 1.6375
0.625 0.625 1.6375
0.5625 0.5625 1.7
0.625 0.5625 1.7
0.5625 0.625 1.7
0.625 0.5625 1.6375
0.6875 0.625 1.6375
0.6875 0.5625 1.6375
0.75 0.625 1.6375
0.6875 0.5625 1.7
0.75 0.5625 1.7
0.6875 0.625 1.7
0.75 0.5625 1.6375
0.8125 0.625 1.6375
0.8125 0.5625 1.6375
0.875 0.625 1.6375
0.8125 0.5625 1.7
0.875 0.5625 1.7
0.8125 0.625 1.7
0.875 0.5625 1.6375
0.9375 0.625 1.6375
0.9375 0.5625 1.6375
1 0.625 1.6375
0.9375 0.5625 1.7
1 0.5625 1.7
0.9375 0.625 1.7
1 0.5625 1.6375
1.0625 0.625 1.6375
1.0625 0.5625 1.6375
1.125 0.625 1.6375
1.0625 0.5625 1.7
1.125 0.5625 1.7
1.0625 0.625 1.7
1.125 0.5625 1.6375
1.1875 0.625 1.6375
1.1875 0.5625 1.6375
1.25 0.625 1.6375
1.1875 0.5625 1.7
1.25 0.5625 1.7
1.1875 0.625 1.7
1.25 0.5625 1.6375
1.3125 0.625 1.6375
1.3125 0.5625 1.6375
1.375 0.625 1.6375
1.3125 0.5625 1.7
1.375 0.5625 1.7
1.3125 0.625 1.7
1.375 0.5625 1.6375
1.4375 0.625 1.6375
1.4375 0.5625 1.6375
1.5 0.625 1.6375
1.4375 0.5625 1.7
1.5 0.5625 1.7
1.4375 0.625 1.7
1.5 0.5625 1.6375
1.5625 0.625 1.6375
1.5625 0.5625 1.6375
1.625 0.625 1.6375
1.5625 0.5625 1.7
1.625 0.5625 1.7
1.5625 0.625 1.7
1.625 0.5625 1.6375
1.6875 0.625 1.6375
1.6875 0.5625 1.6375
1.75 0.625 1.6375
1.6875 0.5625 1.7
1.75 0.5625 1.7
1.6875 0.625 1.7
1.75 0.5625 1.6375
1.8125 0.625 1.6375
1.8125 0.5625 1.6375
1.875 0.625 1.6375
1.8125 0.5625 1.7
1.875 0.5625 1.7
1.8125 0.625 1.7
1.875 0.5625 1.6375
1.9375 0.625 1.6375
1.9375 0.5625 1.6375
2 0.625 1.6375
1.9375 0.5625 1.7
2 0.5625 1.7
1.9375 0.625 1.7
2 0.5625 1.6375
2.0625 0.625 1.6375
2.0625 0.5625 1.6375
2.125 0.625 1.6375
2.0625 0.5625 1.7
2.125 0.5625 1.7
2.0625 0.625 1.7
2.125 0.5625 1.6375
2.1875 0.625 1.6375
2.1875 0.5625 1.6375
2.25 0.625 1.6375
2.1875 0.5625 1.7
2.25 0.5625 1.7
2.1875 0.625 1.7
2.25 0.5625 1.6375
2.3125 0.625 1.6375
2.3125 0.5625 1.6375
2.375 0.625 1.6375
2.3125 0.5625 1.7
2.375 0.5625 1.7
2.3125 0.625 1.7
2.375 0.5625 1.6375
2.4375 0.625 1.6375
2.4375 0.5625 1.6375
2.5 0.625 1.6375
2.4375 0.5625 1.7
2.5 0.5625 1.7
2.4375 0.625 1.7
2.5 0.5625 1.6375
2.5625 0.625 1.6375
2.5625 0.5625 1.6375
2.625 0.625 1.6375
2.5625 0.5625 1.7
2.625 0.5625 1.7
2.5625 0.625 1.7
2.625 0.5625 1.6375
2.6875 0.625 1.6375
2.6875 0.5625 1.6375
2.75 0.625 1.6375
2.6875 0.5625 1.7
2.75 0.5625 1.7
2.6875 0.625 1.7
2.75 0.5625 1.6375
2.8125 0.625 1.6375
2.8125 0.5625 1.6375
2.875 0.625 1.6375
2.8125 0.5625 1.7
2.875 0.5625 1.7
2.8125 0.625 1.7
2.875 0.5625 1.6375
2.9375 0.625 1.6375
2.9375 0.5625 1.6375
3 0.625 1.6375
2.9375 0.5625 1.7
3 0.5625 1.7
2.9375 0.625 1.7
3 0.5625 1.6375
3.0625 0.625 1.6375
3.0625 0.5625 1.6375
3.125 0.625 1.6375
3.0625 0.5625 1.7
3.125 0.5625 1.7
3.0625 0.625 1.7
3.125 0.5625 1.6375
3.1875 0.625 1.6375
3.1875 0.5625 1.6375
3.25 0.625 1.6375
3.1875 0.5625 1.7
3.25 0.5625 1.7
3.1875 0.625 1.7
3.25 0.5625 1.6375
3.3125 0.625 1.6375
3.3125 0.5625 1.6375
3.375 0.625 1.6375
3.3125 0.5625 1.7
3.375 0.5625 1.7
3.3125 0.625 1.7
3.375 0.5625 1.6375
3.4375 0.625 1.6375
3.4375 0.5625 1.6375
3.5 0.625 1.6375
3.4375 0.5625 1.7
3.5 0.5625 1.7
3.4375 0.625 1.7
3.5 0.5625 1.6375
3.5625 0.625 1.6375
3.5625 0.5625 1.6375
3.625 0.625 1.6375
3.5625 0.5625 1.7
3.625 0.5625 1.7
3.5625 0.625 1.7
3.625 0.5625 1.6375
3.6875 0.625 1.6375
3.6875 0.5625 1.6375
3.75 0.625 1.6375
3.6875 0.5625 1.7
3.75 0.5625 1.7
3.6875 0.625 1.7
3.75 0.5625 1.6375
3.8125 0.625 1.6375
3.8125 0.5625 1.6375
3.875 0.625 1.6375
3.8125 0.5625 1.7
3.875 0.5625 1.7
3.8125 0.625 1.7
3.875 0.5625 1.6375
3.9375 0.625 1.6375
3.9375 0.5625 1.6375
4 0.625 1.6375
3.9375 0.5625 1.7
4 0.5625 1.7
3.9375 0.625 1.7
4 0.5625 1.6375
0.0625 0.75 1.6375
0.0625 0.6875 1.6375
0.125 0.75 1.6375
0.0625 0.6875 1.7
0.125 0.6875 1.7
0 0.75 1.6375
0 0.6875 1.6375
0.0625 0.75 1.7
0 0.6875 1.7
0.125 0.6875 1.6375
0.1875 0.75 1.6375
0.1875 0.6875 1.6375
0.25 0.75 1.6375
0.1875 0.6875 1.7
0.25 0.6875 1.7
0.1875 0.75 1.7
0.25 0.6875 1.6375
0.3125 0.75 1.6375
0.3125 0.6875 1.6375
0.375 0.75 1.6375
0.3125 0.6875 1.7
0.375 0.6875 1.7
0.3125 0.75 1.7
0.375 0.6875 1.6375
0.4375 0.75 1.6375
0.4375 0.6875 1.6375
0.5 0.75 1.6375
0.4375 0.6875 1.7
0.5 0.6875 1.7
0.4375 0.75 1.7
0.5 0.6875 1.6375
0.5625 0.75 1.6375
0.5625 0.6875 1.6375
0.625 0.75 1.6375
0.5625 0.6875 1.7
0.625 0.6875 1.7
0.5625 0.75 1.7
0.625 0.6875 1.6375
0.6875 0.75 1.6375
0.6875 0.6875 1.6375
0.75 0.75 1.6375
0.6875 0.6875 1.7
0.75 0.6875 1.7
0.6875 0.75 1.7
0.75 0.6875 1.6375
0.8125 0.75 1.6375
0.8125 0.6875 1.6375
0.875 0.75 1.6375
0.8125 0.6875 1.7
0.875 0.6875 1.7
0.8125 0.75 1.7
0.875 0.6875 1.6375
0.9375 0.75 1.6375
0.9375 0.6875 1.6375
1 0.75 1.6375
0.9375 0.6875 1.7
1 0.6875 1.7
0.9375 0.75 1.7
1 0.6875 1.6375
1.0625 0.75 1.6375
1.0625 0.6875 1.6375
1.125 0.75 1.6375
1.0625 0.6875 1.7
1.125 0.6875 1.7
1.0625 0.75 1.7
1.125 0.6875 1.6375
1.1875 0.75 1.6375
1.1875 0.6875 1.6375
1.25 0.75 1.6375
1.1875 0.6875 1.7
1.25 0.6875 1.7
1.1875 0.75 1.7
1.25 0.6875 1.6375
1.3125 0.75 1.6375
1.3125 0.6875 1.6375
1.375 0.75 1.6375
1.3125 0.6875 1.7
1.375 0.6875 1.7
1.3125 0.75 1.7
1.375 0.6875 1.6375
1.4375 0.75 1.6375
1.4375 0.6875 1.6375
1.5 0.75 1.6375
1.4375 0.6875 1.7
1.5 0.6875 1.7
1.4375 0.75 1.7
1.5 0.6875 1.6375
1.5625 0.75 1.6375
1.5625 0.6875 1.6375
1.625 0.75 1.6375
1.5625 0.6875 1.7
1.625 0.6875 1.7
1.5625 0.75 1.7
1.625 0.6875 1.6375
1.6875 0.75 1.6375
1.6875 0.6875 1.6375
1.75 0.75 1.6375
1.6875 0.6875 1.7
1.75 0.6875 1.7
1.6875 0.75 1.7
1.75 0.6875 1.6375
1.8125 0.75 1.6375
1.8125 0.6875 1.6375
1.875 0.75 1.6375
1.8125 0.6875 1.7
1.875 0.6875 1.7
1.8125 0.75 1.7
1.875 0.6875 1.6375
1.9375 0.75 1.6375
1.9375 0.6875 1.6375
2 0.75 1.6375
1.9375 0.6875 1.7
2 0.6875 1.7
1.9375 0.75 1.7
2 0.6875 1.6375
2.0625 0.75 1.6375
2.0625 0.6875 1.6375
2.125 0.75 1.6375
2.0625 0.6875 1.7
2.125 0.6875 1.7
2.0625 0.75 1.7
2.125 0.6875 1.6375
2.1875 0.75 1.6375
2.1875 0.6875 1.6375
2.25 0.75 1.6375
2.1875 0.6875 1.7
2.25 0.6875 1.7
2.1875 0.75 1.7
2.25 0.6875 1.6375
2.3125 0.75 1.6375
2.3125 0.6875 1.6375
2.375 0.75 1.6375
2.3125 0.6875 1.7
2.375 0.6875 1.7
2.3125 0.75 1.7
2.375 0.6875 1.6375
2.4375 0.75 1.6375
2.4375 0.6875 1.6375
2.5 0.75 1.6375
2.4375 0.6875 1.7
2.5 0.6875 1.7
2.4375 0.75 1.7
2.5 0.6875 1.6375
2.5625 0.75 1.6375
2.5625 0.6875 1.6375
2.625 0.75 1.6375
2.5625 0.6875 1.7
2.625 0.6875 1.7
2.5625 0.75 1.7
2.625 0.6875 1.6375
2.6875 0.75 1.6375
2.6875 0.6875 1.6375
2.75 0.75 1.6375
2.6875 0.6875 1.7
2.75 0.6875 1.7
2.6875 0.75 1.7
2.75 0.6875 1.6375
2.8125 0.75 1.6375
2.8125 0.6875 1.6375
2.875 0.75 1.6375
2.8125 0.6875 1.7
2.875 0.6875 1.7
2.8125 0.75 1.7
2.875 0.6875 1.6375
2.9375 0.75 1.6375
2.9375 0.6875 1.6375
3 0.75 1.6375
2.9375 0.6875 1.7
3 0.6875 1.7
2.9375 0.75 1.7
3 0.6875 1.6375
3.0625 0.75 1.6375
3.0625 0.6875 1.6375
3.125 0.75 1.6375
3.0625 0.6875 1.7
3.125 0.6875 1.7
3.0625 0.75 1.7
3.125 0.6875 1.6375
3.1875 0.75 1.6375
3.1875 0.6875 1.6375
3.25 0.75 1.6375
3.1875 0.6875 1.7
3.25 0.6875 1.7
3.1875 0.75 1.7
3.25 0.6875 1.6375
3.3125 0.75 1.6375
3.3125 0.6875 1.6375
3.375 0.75 1.6375
3.3125 0.6875 1.7
3.375 0.6875 1.7
3.3125 0.75 1.7
3.375 0.6875 1.6375
3.4375 0.75 1.6375
3.4375 0.6875 1.6375
3.5 0.75 1.6375
3.4375 0.6875 1.7
3.5 0.6875 1.7
3.4375 0.75 1.7
3.5 0.6875 1.6375
3.5625 0.75 1.6375
3.5625 0.6875 1.6375
3.625 0.75 1.6375
3.5625 0.6875 1.7
3.625 0.6875 1.7
3.5625 0.75 1.7
3.625 0.6875 1.6375
3.6875 0.75 1.6375
3.6875 0.6875 1.6375
3.75 0.75 1.6375
3.6875 0.6875 1.7
3.75 0.6875 1.7
3.6875 0.75 1.7
3.75 0.6875 1.6375
3.8125 0.75 1.6375
3.8125 0.6875 1.6375
3.875 0.75 1.6375
3.8125 0.6875 1.7
3.875 0.6875 1.7
3.8125 0.75 1.7
3.875 0.6875 1.6375
3.9375 0.75 1.6375
3.9375 0.6875 1.6375
4 0.75 1.6375
3.9375 0.6875 1.7
4 0.6875 1.7
3.9375 0.75 1.7
4 0.6875 1.6375
0.0625 0.875 1.6375
0.0625 0.8125 1.6375
0.125 0.875 1.6375
0.0625 0.8125 1.7
0.125 0.8125 1.7
0 0.875 1.6375
0 0.8125 1.6375
0.0625 0.875 1.7
0 0.8125 1.7
0.125 0.8125 1.6375
0.1875 0.875 1.6375
0.1875 0.8125 1.6375
0.25 0.875 1.6375
0.1875 0.8125 1.7
0.25 0.8125 1.7
0.1875 0.875 1.7
0.25 0.8125 1.6375
0.3125 0.875 1.6375
0.3125 0.8125 1.6375
0.375 0.875 1.6375
0.3125 0.8125 1.7
0.375 0.8125 1.7
0.3125 0.875 1.7
0.375 0.8125 1.6375
0.4375 0.875 1.6375
0.4375 0.8125 1.6375
0.5 0.875 1.6375
0.4375 0.8125 1.7
0.5 0.8125 1.7
0.4375 0.875 1.7
0.5 0.8125 1.6375
0.5625 0.875 1.6375
0.5625 0.8125 1.6375
0.625 0.875 1.6375
0.5625 0.8125 1.7
0.625 0.8125 1.7
0.5625 0.875 1.7
0.625 0.8125 1.6375
0.6875 0.875 1.6375
0.6875 0.8125 1.6375
0.75 0.875 1.6375
0.6875 0.8125 1.7
0.75 0.8125 1.7
0.6875 0.875 1.7
0.75 0.8125 1.6375
0.8125 0.875 1.6375
0.8125 0.8125 1.6375
0.875 0.875 1.6375
0.8125 0.8125 1.7
0.875 0.8125 1.7
0.8125 0.875 1.7
0.875 0.8125 1.6375
0.9375 0.875 1.6375
0.9375 0.8125 1.6375
1 0.875 1.6375
0.9375 0.8125 1.7
1 0.8125 1.7
0.9375 0.875 1.7
1 0.8125 1.6375
1.0625 0.875 1.6375
1.0625 0.8125 1.6375
1.125 0.875 1.6375
1.0625 0.8125 1.7
1.125 0.8125 1.7
1.0625 0.875 1.7
1.125 0.8125 1.6375
1.1875 0.875 1.6375
1.1875 0.8125 1.6375
1.25 0.875 1.6375
1.1875 0.8125 1.7
1.25 0.8125 1.7
1.1875 0.875 1.7
1.25 0.8125 1.6375
1.3125 0.875 1.6375
1.3125 0.8125 1.6375
1.375 0.875 1.6375
1.3125 0.8125 1.7
1.375 0.8125 1.7
1.3125 0.875 1.7
1.375 0.8125 1.6375
1.4375 0.875 1.6375
1.4375 0.8125 1.6375
1.5 0.875 1.6375
1.4375 0.8125 1.7
1.5 0.8125 1.7
1.4375 0.875 1.7
1.5 0.8125 1.6375
1.5625 0.875 1.6375
1.5625 0.8125 1.6375
1.625 0.875 1.6375
1.5625 0.8125 1.7
1.625 0.8125 1.7
1.5625 0.875 1.7
1.625 0.8125 1.6375
1.6875 0.875 1.6375
1.6875 0.8125 1.6375
1.75 0.875 1.6375
1.6875 0.8125 1.7
1.75 0.8125 1.7
1.6875 0.875 1.7
1.75 0.8125 1.6375
1.8125 0.875 1.6375
1.8125 0.8125 1.6375
1.875 0.875 1.6375
1.8125 0.8125 1.7
1.875 0.8125 1.7
1.8125 0.875 1.7
1.875 0.8125 1.6375
1.9375 0.875 1.6375
1.9375 0.8125 1.6375
2 0.875 1.6375
1.9375 0.8125 1.7
2 0.8125 1.7
1.9375 0.875 1.7
2 0.8125 1.6375
2.0625 0.875 1.6375
2.0625 0.8125 1.6375
2.125 0.875 1.6375
2.0625 0.8125 1.7
2.125 0.8125 1.7
2.0625 0.875 1.7
2.125 0.8125 1.6375
2.1875 0.875 1.6375
2.1875 0.8125 1.6375
2.25 0.875 1.6375
2.1875 0.8125 1.7
2.25 0.8125 1.7
2.1875 0.875 1.7
2.25 0.8125 1.6375
2.3125 0.875 1.6375
2.3125 0.8125 1.6375
2.375 0.875 1.6375
2.3125 0.8125 1.7
2.375 0.8125 1.7
2.3125 0.875 1.7
2.375 0.8125 1.6375
2.4375 0.875 1.6375
2.4375 0.8125 1.6375
2.5 0.875 1.6375
2.4375 0.8125 1.7
2.5 0.8125 1.7
2.4375 0.875 1.7
2.5 0.8125 1.6375
2.5625 0.875 1.6375
2.5625 0.8125 1.6375
2.625 0.875 1.6375
2.5625 0.8125 1.7
2.625 0.8125 1.7
2.5625 0.875 1.7
2.625 0.8125 1.6375
2.6875 0.875 1.6375
2.6875 0.8125 1.6375
2.75 0.875 1.6375
2.6875 0.8125 1.7
2.75 0.8125 1.7
2.6875 0.875 1.7
2.75 0.8125 1.6375
2.8125 0.875 1.6375
2.8125 0.8125 1.6375
2.875 0.875 1.6375
2.8125 0.8125 1.7
2.875 0.8125 1.7
2.8125 0.875 1.7
2.875 0.8125 1.6375
2.9375 0.875 1.6375
2.9375 0.8125 1.6375
3 0.875 1.6375
2.9375 0.8125 1.7
3 0.8125 1.7
2.9375 0.875 1.7
3 0.8125 1.6375
3.0625 0.875 1.6375
3.0625 0.8125 1.6375
3.125 0.875 1.6375
3.0625 0.8125 1.7
3.125 0.8125 1.7
3.0625 0.875 1.7
3.125 0.8125 1.6375
3.1875 0.875 1.6375
3.1875 0.8125 1.6375
3.25 0.875 1.6375
3.1875 0.8125 1.7
3.25 0.8125 1.7
3.1875 0.875 1.7
3.25 0.8125 1.6375
3.3125 0.875 1.6375
3.3125 0.8125 1.6375
3.375 0.875 1.6375
3.3125 0.8125 1.7
3.375 0.8125 1.7
3.3125 0.875 1.7
3.375 0.8125 1.6375
3.4375 0.875 1.6375
3.4375 0.8125 1.6375
3.5 0.875 1.6375
3.4375 0.8125 1.7
3.5 0.8125 1.7
3.4375 0.875 1.7
3.5 0.8125 1.6375
3.5625 0.875 1.6375
3.5625 0.8125 1.6375
3.625 0.875 1.6375
3.5625 0.8125 1.7
3.625 0.8125 1.7
3.5625 0.875 1.7
3.625 0.8125 1.6375
3.6875 0.875 1.6375
3.6875 0.8125 1.6375
3.75 0.875 1.6375
3.6875 0.8125 1.7
3.75 0.8125 1.7
3.6875 0.875 1.7
3.75 0.8125 1.6375
3.8125 0.875 1.6375
3.8125 0.8125 1.6375
3.875 0.875 1.6375
3.8125 0.8125 1.7
3.875 0.8125 1.7
3.8125 0.875 1.7
3.875 0.8125 1.6375
3.9375 0.875 1.6375
3.9375 0.8125 1.6375
4 0.875 1.6375
3.9375 0.8125 1.7
4 0.8125 1.7
3.9375 0.875 1.7
4 0.8125 1.6375
0.0625 1 1.6375
0.0625 0.9375 1.6375
0.125 1 1.6375
0.0625 0.9375 1.7
0.125 0.9375 1.7
0 1 1.6375
0 0.9375 1.6375
0.0625 1 1.7
0 0.9375 1.7
0.125 0.9375 1.6375
0.1875 1 1.6375
0.1875 0.9375 1.6375
0.25 1 1.6375
0.1875 0.9375 1.7
0.25 0.9375 1.7
0.1875 1 1.7
0.25 0.9375 1.6375
0.3125 1 1.6375
0.3125 0.9375 1.6375
0.375 1 1.6375
0.3125 0.9375 1.7
0.375 0.9375 1.7
0.3125 1 1.7
0.375 0.9375 1.6375
0.4375 1 1.6375
0.4375 0.9375 1.6375
0.5 1 1.6375
0.4375 0.9375 1.7
0.5 0.9375 1.7
0.4375 1 1.7
0.5 0.9375 1.6375
0.5625 1 1.6375
0.5625 0.9375 1.6375
0.625 1 1.6375
0.5625 0.9375 1.7
0.625 0.9375 1.7
0.5625 1 1.7
0.625 0.9375 1.6375
0.6875 1 1.6375
0.6875 0.9375 1.6375
0.75 1 1.6375
0.6875 0.9375 1.7
0.75 0.9375 1.7
0.6875 1 1.7
0.75 0.9375 1.6375
0.8125 1 1.6375
0.8125 0.9375 1.6375
0.875 1 1.6375
0.8125 0.9375 1.7
0.875 0.9375 1.7
0.8125 1 1.7
0.875 0.9375 1.6375
0.9375 1 1.6375
0.9375 0.9375 1.6375
1 1 1.6375
0.9375 0.9375 1.7
1 0.9375 1.7
0.9375 1 1.7
1 0.9375 1.6375
1.0625 1 1.6375
1.0625 0.9375 1.6375
1.125 1 1.6375
1.0625 0.9375 1.7
1.125 0.9375 1.7
1.0625 1 1.7
1.125 0.9375 1.6375
1.1875 1 1.6375
1.1875 0.9375 1.6375
1.25 1 1.6375
1.1875 0.9375 1.7
1.25 0.9375 1.7
1.1875 1 1.7
1.25 0.9375 1.6375
1.3125 1 1.6375
1.3125 0.9375 1.6375
1.375 1 1.6375
1.3125 0.9375 1.7
1.375 0.9375 1.7
1.3125 1 1.7
1.375 0.9375 1.6375
1.4375 1 1.6375
1.4375 0.9375 1.6375
1.5 1 1.6375
1.4375 0.9375 1.7
1.5 0.9375 1.7
1.4375 1 1.7
1.5 0.9375 1.6375
1.5625 1 1.6375
1.5625 0.9375 1.6375
1.625 1 1.6375
1.5625 0.9375 1.7
1.625 0.9375 1.7
1.5625 1 1.7
1.625 0.9375 1.6375
1.6875 1 1.6375
1.6875 0.9375 1.6375
1.75 1 1.6375
1.6875 0.9375 1.7
1.75 0.9375 1.7
1.6875 1 1.7
1.75 0.9375 1.6375
1.8125 1 1.6375
1.8125 0.9375 1.6375
1.875 1 1.6375
1.8125 0.9375 1.7
1.875 0.9375 1.7
1.8125 1 1.7
1.875 0.9375 1.6375
1.9375 1 1.6375
1.9375 0.9375 1.6375
2 1 1.6375
1.9375 0.9375 1.7
2 0.9375 1.7
1.9375 1 1.7
2 0.9375 1.6375
2.0625 1 1.6375
2.0625 0.9375 1.6375
2.125 1 1.6375
2.0625 0.9375 1.7
2.125 0.9375 1.7
2.0625 1 1.7
2.125 0.9375 1.6375
2.1875 1 1.6375
2.1875 0.9375 1.6375
2.25 1 1.6375
2.1875 0.9375 1.7
2.25 0.9375 1.7
2.1875 1 1.7
2.25 0.9375 1.6375
2.3125 1 1.6375
2.3125 0.9375 1.6375
2.375 1 1.6375
2.3125 0.9375 1.7
2.375 0.9375 1.7
2.3125 1 1.7
2.375 0.9375 1.6375
2.4375 1 1.6375
2.4375 0.9375 1.6375
2.5 1 1.6375
2.4375 0.9375 1.7
2.5 0.9375 1.7
2.4375 1 1.7
2.5 0.9375 1.6375
2.5625 1 1.6375
2.5625 0.9375 1.6375
2.625 1 1.6375
2.5625 0.9375 1.7
2.625 0.9375 1.7
2.5625 1 1.7
2.625 0.9375 1.6375
2.6875 1 1.6375
2.6875 0.9375 1.6375
2.75 1 1.6375
2.6875 0.9375 1.7
2.75 0.9375 1.7
2.6875 1 1.7
2.75 0.9375 1.6375
2.8125 1 1.6375
2.8125 0.9375 1.6375
2.875 1 1.6375
2.8125 0.9375 1.7
2.875 0.9375 1.7
2.8125 1 1.7
2.875 0.9375 1.6375
2.9375 1 1.6375
2.9375 0.9375 1.6375
3 1 1.6375
2.9375 0.9375 1.7
3 0.9375 1.7
2.9375 1 1.7
3 0.9375 1.6375
3.0625 1 1.6375
3.0625 0.9375 1.6375
3.125 1 1.6375
3.0625 0.9375 1.7
3.125 0.9375 1.7
3.0625 1 1.7
3.125 0.9375 1.6375
3.1875 1 1.6375
3.1875 0.9375 1.6375
3.25 1 1.6375
3.1875 0.9375 1.7
3.25 0.9375 1.7
3.1875 1 1.7
3.25 0.9375 1.6375
3.3125 1 1.6375
3.3125 0.9375 1.6375
3.375 1 1.6375
3.3125 0.9375 1.7
3.375 0.9375 1.7
3.3125 1 1.7
3.375 0.9375 1.6375
3.4375 1 1.6375
3.4375 0.9375 1.6375
3.5 1 1.6375
3.4375 0.9375 1.7
3.5 0.9375 1.7
3.4375 1 1.7
3.5 0.9375 1.6375
3.5625 1 1.6375
3.5625 0.9375 1.6375
3.625 1 1.6375
3.5625 0.9375 1.7
3.625 0.9375 1.7
3.5625 1 1.7
3.625 0.9375 1.6375
3.6875 1 1.6375
3.6875 0.9375 1.6375
3.75 1 1.6375
3.6875 0.9375 1.7
3.75 0.9375 1.7
3.6875 1 1.7
3.75 0.9375 1.6375
3.8125 1 1.6375
3.8125 0.9375 1.6375
3.875 1 1.6375
3.8125 0.9375 1.7
3.875 0.9375 1.7
3.8125 1 1.7
3.875 0.9375 1.6375
3.9375 1 1.6375
3.9375 0.9375 1.6375
4 1 1.6375
3.9375 0.9375 1.7
4 0.9375 1.7
3.9375 1 1.7
4 0.9375 1.6375

CELLS 12289 122880
OFFSETS vtktypeint64
0 10 20 30 40 50 60 70 80 90 100 110 120 130 140 150 160 170 180 190 200 210 220 230 240 250 260 270 280 290 300 310 320 330 340 350 360 370 380 390 400 410 420 430 440 450 460 470 480 490 500 510 520 530 540 550 560 570 580 590 600 610 620 630 640 650 660 670 680 690 700 710 720 730 740 750 760 770 780 790 800 810 820 830 840 850 860 870 880 890 900 910 920 930 940 950 960 970 980 990 1000 1010 1020 1030 1040 1050 1060 1070 1080 1090 1100 1110 1120 1130 1140 1150 1160 1170 1180 1190 1200 1210 1220 1230 1240 1250 1260 1270 1280 1290 1300 1310 1320 1330 1340 1350 1360 1370 1380 1390 1400 1410 1420 1430 1440 1450 1460 1470 1480 1490 1500 1510 1520 1530 1540 1550 1560 1570 1580 1590 1600 1610 1620 1630 1640 1650 1660 1670 1680 1690 1700 1710 1720 1730 1740 1750 1760 1770 1780 1790 1800 1810 1820 1830 1840 1850 1860 1870 1880 1890 1900 1910 1920 1930 1940 1950 1960 1970 1980 1990 2000 2010 2020 2030 2040 2050 2060 2070 2080 2090 2100 2110 2120 2130 2140 2150 2160 2170 2180 2190 2200 2210 2220 2230 2240 2250 2260 2270 2280 2290 2300 2310 2320 2330 2340 2350 2360 2370 2380 2390 2400 2410 2420 2430 2440 2450 2460 2470 2480 2490 2500 2510 2520 2530 2540 2550 2560 2570 2580 2590 2600 2610 2620 2630 2640 2650 2660 2670 2680 2690 2700 2710 2720 2730 2740 2750 2760 2770 2780 2790 2800 2810 2820 2830 2840 2850 2860 2870 2880 2890 2900 2910 2920 2930 2940 2950 2960 2970 2980 2990 3000 3010 3020 3030 3040 3050 3060 3070 3080 3090 3100 3110 3120 3130 3140 3150 3160 3170 3180 3190 3200 3210 3220 3230 3240 3250 3260 3270 3280 3290 3300 3310 3320 3330 3340 3350 3360 3370 3380 3390 3400 3410 3420 3430 3440 3450 3460 3470 3480 3490 3500 3510 3520 3530 3540 3550 3560 3570 3580 3590 3600 3610 3620 3630 3640 3650 3660 3670 3680 3690 3700 3710 3720 3730 3740 3750 3760 3770 3780 3790 3800 3810 3820 3830 3840 3850 3860 3870 3880 3890 3900 3910 3920 3930 3940 3950 3960 3970 3980 3990 4000 4010 4020 4030 4040 4050 4060 4070 4080 4090 4100 4110 4120 4130 4140 4150 4160 4170 4180 4190 4200 4210 4220 4230 4240 4250 4260 4270 4280 4290 4300 4310 4320 4330 4340 4350 4360 4370 4380 4390 4400 4410 4420 4430 4440 4450 4460 4470 4480 4490 4500 4510 4520 4530 4540 4550 4560 4570 4580 4590 4600 4610 4620 4630 4640 4650 4660 4670 4680 4690 4700 4710 4720 4730 4740 4750 4760 4770 4780 4790 4800 4810 4820 4830 4840 4850 4860 4870 4880 4890 4900 4910 4920 4930 4940 4950 4960 4970 4980 4990 5000 5010 5020 5030 5040 5050 5060 5070 5080 5090 5100 5110 5120 5130 5140 5150 5160 5170 5180 5190 5200 5210 5220 5230 5240 5250 5260 5270 5280 5290 5300 5310 5320 5330 5340 5350 5360 5370 5380 5390 5400 5410 5420 5430 5440 5450 5460 5470 5480 5490 5500 5510 5520 5530 5540 5550 5560 5570 5580 5590 5600 5610 5620 5630 5640 5650 5660 5670 5680 5690 5700 5710 5720 5730 5740 5750 5760 5770 5780 5790 5800 5810 5820 5830 5840 5850 5860 5870 5880 5890 5900 5910 5920 5930 5940 5950 5960 5970 5980 5990 6000 6010 6020 6030 6040 6050 6060 6070 6080 6090 6100 6110 6120 6130 6140 6150 6160 6170 6180 6190 6200 6210 6220 6230 6240 6250 6260 6270 6280 6290 6300 6310 6320 6330 6340 6350 6360 6370 6380 6390 6400 6410 6420 6430 6440 6450 6460 6470 6480 6490 6500 6510 6520 6530 6540 6550 6560 6570 6580 6590 6600 6610 6620 6630 6640 6650 6660 6670 6680 6690 6700 6710 6720 6730 6740 6750 6760 6770 6780 6790 6800 6810 6820 6830 6840 6850 6860 6870 6880 6890 6900 6910 6920 6930 6940 6950 6960 6970 6980 6990 7000 7010 7020 7030 7040 7050 7060 7070 7080 7090 7100 7110 7120 7130 7140 7150 7160 7170 7180 7190 7200 7210 7220 7230 7240 7250 7260 7270 7280 7290 7300 7310 7320 7330 7340 7350 7360 7370 7380 7390 7400 7410 7420 7430 7440 7450 7460 7470 7480 7490 7500 7510 7520 7530 7540 7550 7560 7570 7580 7590 7600 7610 7620 7630 7640 7650 7660 7670 7680 7690 7700 7710 7720 7730 7740 7750 7760 7770 7780 7790 7800 7810 7820 7830 7840 7850 7860 7870 7880 7890 7900 7910 7920 7930 7940 7950 7960 7970 7980 7990 8000 8010 8020 8030 8040 8050 8060 8070 8080 8090 8100 8110 8120 8130 8140 8150 8160 8170 8180 8190 8200 8210 8220 8230 8240 8250 8260 8270 8280 8290 8300 8310 8320 8330 8340 8350 8360 8370 8380 8390 8400 8410 8420 8430 8440 8450 8460 8470 8480 8490 8500 8510 8520 8530 8540 8550 8560 8570 8580 8590 8600 8610 8620 8630 8640 8650 8660 8670 8680 8690 8700 8710 8720 8730 8740 8750 8760 8770 8780 8790 8800 8810 8820 8830 8840 8850 8860 8870 8880 8890 8900 8910 8920 8930 8940 8950 8960 8970 8980 8990 9000 9010 9020 9030 9040 9050 9060 9070 9080 9090 9100 9110 9120 9130 9140 9150 9160 9170 9180 9190 9200 9210 9220 9230 9240 9250 9260 9270 9280 9290 9300 9310 9320 9330 9340 9350 9360 9370 9380 9390 9400 9410 9420 9430 9440 9450 9460 9470 9480 9490 9500 9510 9520 9530 9540 9550 9560 9570 9580 9590 9600 9610 9620 9630 9640 9650 9660 9670 9680 9690 9700 9710 9720 9730 9740 9750 9760 9770 9780 9790 9800 9810 9820 9830 9840 9850 9860 9870 9880 9890 9900 9910 9920 9930 9940 9950 9960 9970 9980 9990 10000 10010 10020 10030 10040 10050 10060 10070 10080 10090 10100 10110 10120 10130 10140 10150 10160 10170 10180 10190 10200 10210 10220 10230 10240 10250 10260 10270 10280 10290 10300 10310 10320 10330 10340 10350 10360 10370 10380 10390 10400 10410 10420 10430 10440 10450 10460 10470 10480 10490 10500 10510 10520 10530 10540 10550 10560 10570 10580 10590 10600 10610 10620 10630 10640 10650 10660 10670 10680 10690 10700 10710 10720 10730 10740 10750 10760 10770 10780 10790 10800 10810 10820 10830 10840 10850 10860 10870 10880 10890 10900 10910 10920 10930 10940 10950 10960 10970 10980 10990 11000 11010 11020 11030 11040 11050 11060 11070 11080 11090 11100 11110 11120 11130 11140 11150 11160 11170 11180 11190 11200 11210 11220 11230 11240 11250 11260 11270 11280 11290 11300 11310 11320 11330 11340 11350 11360 11370 11380 11390 11400 11410 11420 11430 11440 11450 11460 11470 11480 11490 11500 11510 11520 11530 11540 11550 11560 11570 11580 11590 11600 11610 11620 11630 11640 11650 11660 11670 11680 11690 11700 11710 11720 11730 11740 11750 11760 11770 11780 11790 11800 11810 11820 11830 11840 11850 11860 11870 11880 11890 11900 11910 11920 11930 11940 11950 11960 11970 11980 11990 12000 12010 12020 12030 12040 12050 12060 12070 12080 12090 12100 12110 12120 12130 12140 12150 12160 12170 12180 12190 12200 12210 12220 12230 12240 12250 12260 12270 12280 12290 12300 12310 12320 12330 12340 12350 12360 12370 12380 12390 12400 12410 12420 12430 12440 12450 12460 12470 12480 12490 12500 12510 12520 12530 12540 12550 12560 12570 12580 12590 12600 12610 12620 12630 12640 12650 12660 12670 12680 12690 12700 12710 12720 12730 12740 12750 12760 12770 12780 12790 12800 12810 12820 12830 12840 12850 12860 12870 12880 12890 12900 12910 12920 12930 12940 12950 12960 12970 12980 12990 13000 13010 13020 13030 13040 13050 13060 13070 13080 13090 13100 13110 13120 13130 13140 13150 13160 13170 13180 13190 13200 13210 13220 13230 13240 13250 13260 13270 13280 13290 13300 13310 13320 13330 13340 13350 13360 13370 13380 13390 13400 13410 13420 13430 13440 13450 13460 13470 13480 13490 13500 13510 13520 13530 13540 13550 13560 13570 13580 13590 13600 13610 13620 13630 13640 13650 13660 13670 13680 13690 13700 13710 13720 13730 13740 13750 13760 13770 13780 13790 13800 13810 13820 13830 13840 13850 13860 13870 13880 13890 13900 13910 13920 13930 13940 13950 13960 13970 13980 13990 14000 14010 14020 14030 14040 14050 14060 14070 14080 14090 14100 14110 14120 14130 14140 14150 14160 14170 14180 14190 14200 14210 14220 14230 14240 14250 14260 14270 14280 14290 14300 14310 14320 14330 14340 14350 14360 14370 14380 14390 14400 14410 14420 14430 14440 14450 14460 14470 14480 14490 14500 14510 14520 14530 14540 14550 14560 14570 14580 14590 14600 14610 14620 14630 14640 14650 14660 14670 14680 14690 14700 14710 14720 14730 14740 14750 14760 14770 14780 14790 14800 14810 14820 14830 14840 14850 14860 14870 14880 14890 14900 14910 14920 14930 14940 14950 14960 14970 14980 14990 15000 15010 15020 15030 15040 15050 15060 15070 15080 15090 15100 15110 15120 15130 15140 15150 15160 15170 15180 15190 15200 15210 15220 15230 15240 15250 15260 15270 15280 15290 15300 15310 15320 15330 15340 15350 15360 15370 15380 15390 15400 15410 15420 15430 15440 15450 15460 15470 15480 15490 15500 15510 15520 15530 15540 15550 15560 15570 15580 15590 15600 15610 15620 15630 15640 15650 15660 15670 15680 15690 15700 15710 15720 15730 15740 15750 15760 15770 15780 15790 15800 15810 15820 15830 15840 15850 15860 15870 15880 15890 15900 15910 15920 15930 15940 15950 15960 15970 15980 15990 16000 16010 16020 16030 16040 16050 16060 16070 16080 16090 16100 16110 16120 16130 16140 16150 16160 16170 16180 16190 16200 16210 16220 16230 16240 16250 16260 16270 16280 16290 16300 16310 16320 16330 16340 16350 16360 16370 16380 16390 16400 16410 16420 16430 16440 16450 16460 16470 16480 16490 16500 16510 16520 16530 16540 16550 16560 16570 16580 16590 16600 16610 16620 16630 16640 16650 16660 16670 16680 16690 16700 16710 16720 16730 16740 16750 16760 16770 16780 16790 16800 16810 16820 16830 16840 16850 16860 16870 16880 16890 16900 16910 16920 16930 16940 16950 16960 16970 16980 16990 17000 17010 17020 17030 17040 17050 17060 17070 17080 17090 17100 17110 17120 17130 17140 17150 17160 17170 17180 17190 17200 17210 17220 17230 17240 17250 17260 17270 17280 17290 17300 17310 17320 17330 17340 17350 17360 17370 17380 17390 17400 17410 17420 17430 17440 17450 17460 17470 17480 17490 17500 17510 17520 17530 17540 17550 17560 17570 17580 17590 17600 17610 17620 17630 17640 17650 17660 17670 17680 17690 17700 17710 17720 17730 17740 17750 17760 17770 17780 17790 17800 17810 17820 17830 17840 17850 17860 17870 17880 17890 17900 17910 17920 17930 17940 17950 17960 17970 17980 17990 18000 18010 18020 18030 18040 18050 18060 18070 18080 18090 18100 18110 18120 18130 18140 18150 18160 18170 18180 18190 18200 18210 18220 18230 18240 18250 18260 18270 18280 18290 18300 18310 18320 18330 18340 18350 18360 18370 18380 18390 18400 18410 18420 18430 18440 18450 18460 18470 18480 18490 18500 18510 18520 18530 18540 18550 18560 18570 18580 18590 18600 18610 18620 18630 18640 18650 18660 18670 18680 18690 18700 18710 18720 18730 18740 18750 18760 18770 18780 18790 18800 18810 18820 18830 18840 18850 18860 18870 18880 18890 18900 18910 18920 18930 18940 18950 18960 18970 18980 18990 19000 19010 19020 19030 19040 19050 19060 19070 19080 19090 19100 19110 19120 19130 19140 19150 19160 19170 19180 19190 19200 19210 19220 19230 19240 19250 19260 19270 19280 19290 19300 19310 19320 19330 19340 19350 19360 19370 19380 19390 19400 19410 19420 19430 19440 19450 19460 19470 19480 19490 19500 19510 19520 19530 19540 19550 19560 19570 19580 19590 19600 19610 19620 19630 19640 19650 19660 19670 19680 19690 19700 19710 19720 19730 19740 19750 19760 19770 19780 19790 19800 19810 19820 19830 19840 19850 19860 19870 19880 19890 19900 19910 19920 19930 19940 19950 19960 19970 19980 19990 20000 20010 20020 20030 20040 20050 20060 20070 20080 20090 20100 20110 20120 20130 20140 20150 20160 20170 20180 20190 20200 20210 20220 20230 20240 20250 20260 20270 20280 20290 20300 20310 20320 20330 20340 20350 20360 20370 20380 20390 20400 20410 20420 20430 20440 20450 20460 20470 20480 20490 20500 20510 20520 20530 20540 20550 20560 20570 20580 20590 20600 20610 20620 20630 20640 20650 20660 20670 20680 20690 20700 20710 20720 20730 20740 20750 20760 20770 20780 20790 20800 20810 20820 20830 20840 20850 20860 20870 20880 20890 20900 20910 20920 20930 20940 20950 20960 20970 20980 20990 21000 21010 21020 21030 21040 21050 21060 21070 21080 21090 21100 21110 21120 21130 21140 21150 21160 21170 21180 21190 21200 21210 21220 21230 21240 21250 21260 21270 21280 21290 21300 21310 21320 21330 21340 21350 21360 21370 21380 21390 21400 21410 21420 21430 21440 21450 21460 21470 21480 21490 21500 21510 21520 21530 21540 21550 21560 21570 21580 21590 21600 21610 21620 21630 21640 21650 21660 21670 21680 21690 21700 21710 21720 21730 21740 21750 21760 21770 21780 21790 21800 21810 21820 21830 21840 21850 21860 21870 21880 21890 21900 21910 21920 21930 21940 21950 21960 21970 21980 21990 22000 22010 22020 22030 22040 22050 22060 22070 22080 22090 22100 22110 22120 22130 22140 22150 22160 22170 22180 22190 22200 22210 22220 22230 22240 22250 22260 22270 22280 22290 22300 22310 22320 22330 22340 22350 22360 22370 22380 22390 22400 22410 22420 22430 22440 22450 22460 22470 22480 22490 22500 22510 22520 22530 22540 22550 22560 22570 22580 22590 22600 22610 22620 22630 22640 22650 22660 22670 22680 22690 22700 22710 22720 22730 22740 22750 22760 22770 22780 22790 22800 22810 22820 22830 22840 22850 22860 22870 22880 22890 22900 22910 22920 22930 22940 22950 22960 22970 22980 22990 23000 23010 23020 23030 23040 23050 23060 23070 23080 23090 23100 23110 23120 23130 23140 23150 23160 23170 23180 23190 23200 23210 23220 23230 23240 23250 23260 23270 23280 23290 23300 23310 23320 23330 23340 23350 23360 23370 23380 23390 23400 23410 23420 23430 23440 23450 23460 23470 23480 23490 23500 23510 23520 23530 23540 23550 23560 23570 23580 23590 23600 23610 23620 23630 23640 23650 23660 23670 23680 23690 23700 23710 23720 23730 23740 23750 23760 23770 23780 23790 23800 23810 23820 23830 23840 23850 23860 23870 23880 23890 23900 23910 23920 23930 23940 23950 23960 23970 23980 23990 24000 24010 24020 24030 24040 24050 24060 24070 24080 24090 24100 24110 24120 24130 24140 24150 24160 24170 24180 24190 24200 24210 24220 24230 24240 24250 24260 24270 24280 24290 24300 24310 24320 24330 24340 24350 24360 24370 24380 24390 24400 24410 24420 24430 24440 24450 24460 24470 24480 24490 24500 24510 24520 24530 24540 24550 24560 24570 24580 24590 24600 24610 24620 24630 24640 24650 24660 24670 24680 24690 24700 24710 24720 24730 24740 24750 24760 24770 24780 24790 24800 24810 24820 24830 24840 24850 24860 24870 24880 24890 24900 24910 24920 24930 24940 24950 24960 24970 24980 24990 25000 25010 25020 25030 25040 25050 25060 25070 25080 25090 25100 25110 25120 25130 25140 25150 25160 25170 25180 25190 25200 25210 25220 25230 25240 25250 25260 25270 25280 25290 25300 25310 25320 25330 25340 25350 25360 25370 25380 25390 25400 25410 25420 25430 25440 25450 25460 25470 25480 25490 25500 25510 25520 25530 25540 25550 25560 25570 25580 25590 25600 25610 25620 25630 25640 25650 25660 25670 25680 25690 25700 25710 25720 25730 25740 25750 25760 25770 25780 25790 25800 25810 25820 25830 25840 25850 25860 25870 25880 25890 25900 25910 25920 25930 25940 25950 25960 25970 25980 25990 26000 26010 26020 26030 26040 26050 26060 26070 26080 26090 26100 26110 26120 26130 26140 26150 26160 26170 26180 26190 26200 26210 26220 26230 26240 26250 26260 26270 26280 26290 26300 26310 26320 26330 26340 26350 26360 26370 26380 26390 26400 26410 26420 26430 26440 26450 26460 26470 26480 26490 26500 26510 26520 26530 26540 26550 26560 26570 26580 26590 26600 26610 26620 26630 26640 26650 26660 26670 26680 26690 26700 26710 26720 26730 26740 26750 26760 26770 26780 26790 26800 26810 26820 26830 26840 26850 26860 26870 26880 26890 26900 26910 26920 26930 26940 26950 26960 26970 26980 26990 27000 27010 27020 27030 27040 27050 27060 27070 27080 27090 27100 27110 27120 27130 27140 27150 27160 27170 27180 27190 27200 27210 27220 27230 27240 27250 27260 27270 27280 27290 27300 27310 27320 27330 27340 27350 27360 27370 27380 27390 27400 27410 27420 27430 27440 27450 27460 27470 27480 27490 27500 27510 27520 27530 27540 27550 27560 27570 27580 27590 27600 27610 27620 27630 27640 27650 27660 27670 27680 27690 27700 27710 27720 27730 27740 27750 27760 27770 27780 27790 27800 27810 27820 27830 27840 27850 27860 27870 27880 27890 27900 27910 27920 27930 27940 27950 27960 27970 27980 27990 28000 28010 28020 28030 28040 28050 28060 28070 28080 28090 28100 28110 28120 28130 28140 28150 28160 28170 28180 28190 28200 28210 28220 28230 28240 28250 28260 28270 28280 28290 28300 28310 28320 28330 28340 28350 28360 28370 28380 28390 28400 28410 28420 28430 28440 28450 28460 28470 28480 28490 28500 28510 28520 28530 28540 28550 28560 28570 28580 28590 28600 28610 28620 28630 28640 28650 28660 28670 28680 28690 28700 28710 28720 28730 28740 28750 28760 28770 28780 28790 28800 28810 28820 28830 28840 28850 28860 28870 28880 28890 28900 28910 28920 28930 28940 28950 28960 28970 28980 28990 29000 29010 29020 29030 29040 29050 29060 29070 29080 29090 29100 29110 29120 29130 29140 29150 29160 29170 29180 29190 29200 29210 29220 29230 29240 29250 29260 29270 29280 29290 29300 29310 29320 29330 29340 29350 29360 29370 29380 29390 29400 29410 29420 29430 29440 29450 29460 29470 29480 29490 29500 29510 29520 29530 29540 29550 29560 29570 29580 29590 29600 29610 29620 29630 29640 29650 29660 29670 29680 29690 29700 29710 29720 29730 29740 29750 29760 29770 29780 29790 29800 29810 29820 29830 29840 29850 29860 29870 29880 29890 29900 29910 29920 29930 29940 29950 29960 29970 29980 29990 30000 30010 30020 30030 30040 30050 30060 30070 30080 30090 30100 30110 30120 30130 30140 30150 30160 30170 30180 30190 30200 30210 30220 30230 30240 30250 30260 30270 30280 30290 30300 30310 30320 30330 30340 30350 30360 30370 30380 30390 30400 30410 30420 30430 30440 30450 30460 30470 30480 30490 30500 30510 30520 30530 30540 30550 30560 30570 30580 30590 30600 30610 30620 30630 30640 30650 30660 30670 30680 30690 30700 30710 30720 30730 30740 30750 30760 30770 30780 30790 30800 30810 30820 30830 30840 30850 30860 30870 30880 30890 30900 30910 30920 30930 30940 30950 30960 30970 30980 30990 31000 31010 31020 31030 31040 31050 31060 31070 31080 31090 31100 31110 31120 31130 31140 31150 31160 31170 31180 31190 31200 31210 31220 31230 31240 31250 31260 31270 31280 31290 31300 31310 31320 31330 31340 31350 31360 31370 31380 31390 31400 31410 31420 31430 31440 31450 31460 31470 31480 31490 31500 31510 31520 31530 31540 31550 31560 31570 31580 31590 31600 31610 31620 31630 31640 31650 31660 31670 31680 31690 31700 31710 31720 31730 31740 31750 31760 31770 31780 31790 31800 31810 31820 31830 31840 31850 31860 31870 31880 31890 31900 31910 31920 31930 31940 31950 31960 31970 31980 31990 32000 32010 32020 32030 32040 32050 32060 32070 32080 32090 32100 32110 32120 32130 32140 32150 32160 32170 32180 32190 32200 32210 32220 32230 32240 32250 32260 32270 32280 32290 32300 32310 32320 32330 32340 32350 32360 32370 32380 32390 32400 32410 32420 32430 32440 32450 32460 32470 32480 32490 32500 32510 32520 32530 32540 32550 32560 32570 32580 32590 32600 32610 32620 32630 32640 32650 32660 32670 32680 32690 32700 32710 32720 32730 32740 32750 32760 32770 32780 32790 32800 32810 32820 32830 32840 32850 32860 32870 32880 32890 32900 32910 32920 32930 32940 32950 32960 32970 32980 32990 33000 33010 33020 33030 33040 33050 33060 33070 33080 33090 33100 33110 33120 33130 33140 33150 33160 33170 33180 33190 33200 33210 33220 33230 33240 33250 33260 33270 33280 33290 33300 33310 33320 33330 33340 33350 33360 33370 33380 33390 33400 33410 33420 33430 33440 33450 33460 33470 33480 33490 33500 33510 33520 33530 33540 33550 33560 33570 33580 33590 33600 33610 33620 33630 33640 33650 33660 33670 33680 33690 33700 33710 33720 33730 33740 33750 33760 33770 33780 33790 33800 33810 33820 33830 33840 33850 33860 33870 33880 33890 33900 33910 33920 33930 33940 33950 33960 33970 33980 33990 34000 34010 34020 34030 34040 34050 34060 34070 34080 34090 34100 34110 34120 34130 34140 34150 34160 34170 34180 34190 34200 34210 34220 34230 34240 34250 34260 34270 34280 34290 34300 34310 34320 34330 34340 34350 34360 34370 34380 34390 34400 34410 34420 34430 34440 34450 34460 34470 34480 34490 34500 34510 34520 34530 34540 34550 34560 34570 34580 34590 34600 34610 34620 34630 34640 34650 34660 34670 34680 34690 34700 34710 34720 34730 34740 34750 34760 34770 34780 34790 34800 34810 34820 34830 34840 34850 34860 34870 34880 34890 34900 34910 34920 34930 34940 34950 34960 34970 34980 34990 35000 35010 35020 35030 35040 35050 35060 35070 35080 35090 35100 35110 35120 35130 35140 35150 35160 35170 35180 35190 35200 35210 35220 35230 35240 35250 35260 35270 35280 35290 35300 35310 35320 35330 35340 35350 35360 35370 35380 35390 35400 35410 35420 35430 35440 35450 35460 35470 35480 35490 35500 35510 35520 35530 35540 35550 35560 35570 35580 35590 35600 35610 35620 35630 35640 35650 35660 35670 35680 35690 35700 35710 35720 35730 35740 35750 35760 35770 35780 35790 35800 35810 35820 35830 35840 35850 35860 35870 35880 35890 35900 35910 35920 35930 35940 35950 35960 35970 35980 35990 36000 36010 36020 36030 36040 36050 36060 36070 36080 36090 36100 36110 36120 36130 36140 36150 36160 36170 36180 36190 36200 36210 36220 36230 36240 36250 36260 36270 36280 36290 36300 36310 36320 36330 36340 36350 36360 36370 36380 36390 36400 36410 36420 36430 36440 36450 36460 36470 36480 36490 36500 36510 36520 36530 36540 36550 36560 36570 36580 36590 36600 36610 36620 36630 36640 36650 36660 36670 36680 36690 36700 36710 36720 36730 36740 36750 36760 36770 36780 36790 36800 36810 36820 36830 36840 36850 36860 36870 36880 36890 36900 36910 36920 36930 36940 36950 36960 36970 36980 36990 37000 37010 37020 37030 37040 37050 37060 37070 37080 37090 37100 37110 37120 37130 37140 37150 37160 37170 37180 37190 37200 37210 37220 37230 37240 37250 37260 37270 37280 37290 37300 37310 37320 37330 37340 37350 37360 37370 37380 37390 37400 37410 37420 37430 37440 37450 37460 37470 37480 37490 37500 37510 37520 37530 37540 37550 37560 37570 37580 37590 37600 37610 37620 37630 37640 37650 37660 37670 37680 37690 37700 37710 37720 37730 37740 37750 37760 37770 37780 37790 37800 37810 37820 37830 37840 37850 37860 37870 37880 37890 37900 37910 37920 37930 37940 37950 37960 37970 37980 37990 38000 38010 38020 38030 38040 38050 38060 38070 38080 38090 38100 38110 38120 38130 38140 38150 38160 38170 38180 38190 38200 38210 38220 38230 38240 38250 38260 38270 38280 38290 38300 38310 38320 38330 38340 38350 38360 38370 38380 38390 38400 38410 38420 38430 38440 38450 38460 38470 38480 38490 38500 38510 38520 38530 38540 38550 38560 38570 38580 38590 38600 38610 38620 38630 38640 38650 38660 38670 38680 38690 38700 38710 38720 38730 38740 38750 38760 38770 38780 38790 38800 38810 38820 38830 38840 38850 38860 38870 38880 38890 38900 38910 38920 38930 38940 38950 38960 38970 38980 38990 39000 39010 39020 39030 39040 39050 39060 39070 39080 39090 39100 39110 39120 39130 39140 39150 39160 39170 39180 39190 39200 39210 39220 39230 39240 39250 39260 39270 39280 39290 39300 39310 39320 39330 39340 39350 39360 39370 39380 39390 39400 39410 39420 39430 39440 39450 39460 39470 39480 39490 39500 39510 39520 39530 39540 39550 39560 39570 39580 39590 39600 39610 39620 39630 39640 39650 39660 39670 39680 39690 39700 39710 39720 39730 39740 39750 39760 39770 39780 39790 39800 39810 39820 39830 39840 39850 39860 39870 39880 39890 39900 39910 39920 39930 39940 39950 39960 39970 39980 39990 40000 40010 40020 40030 40040 40050 40060 40070 40080 40090 40100 40110 40120 40130 40140 40150 40160 40170 40180 40190 40200 40210 40220 40230 40240 40250 40260 40270 40280 40290 40300 40310 40320 40330 40340 40350 40360 40370 40380 40390 40400 40410 40420 40430 40440 40450 40460 40470 40480 40490 40500 40510 40520 40530 40540 40550 40560 40570 40580 40590 40600 40610 40620 40630 40640 40650 40660 40670 40680 40690 40700 40710 40720 40730 40740 40750 40760 40770 40780 40790 40800 40810 40820 40830 40840 40850 40860 40870 40880 40890 40900 40910 40920 40930 40940 40950 40960 40970 40980 40990 41000 41010 41020 41030 41040 41050 41060 41070 41080 41090 41100 41110 41120 41130 41140 41150 41160 41170 41180 41190 41200 41210 41220 41230 41240 41250 41260 41270 41280 41290 41300 41310 41320 41330 41340 41350 41360 41370 41380 41390 41400 41410 41420 41430 41440 41450 41460 41470 41480 41490 41500 41510 41520 41530 41540 41550 41560 41570 41580 41590 41600 41610 41620 41630 41640 41650 41660 41670 41680 41690 41700 41710 41720 41730 41740 41750 41760 41770 41780 41790 41800 41810 41820 41830 41840 41850 41860 41870 41880 41890 41900 41910 41920 41930 41940 41950 41960 41970 41980 41990 42000 42010 42020 42030 42040 42050 42060 42070 42080 42090 42100 42110 42120 42130 42140 42150 42160 42170 42180 42190 42200 42210 42220 42230 42240 42250 42260 42270 42280 42290 42300 42310 42320 42330 42340 42350 42360 42370 42380 42390 42400 42410 42420 42430 42440 42450 42460 42470 42480 42490 42500 42510 42520 42530 42540 42550 42560 42570 42580 42590 42600 42610 42620 42630 42640 42650 42660 42670 42680 42690 42700 42710 42720 42730 42740 42750 42760 42770 42780 42790 42800 42810 42820 42830 42840 42850 42860 42870 42880 42890 42900 42910 42920 42930 42940 42950 42960 42970 42980 42990 43000 43010 43020 43030 43040 43050 43060 43070 43080 43090 43100 43110 43120 43130 43140 43150 43160 43170 43180 43190 43200 43210 43220 43230 43240 43250 43260 43270 43280 43290 43300 43310 43320 43330 43340 43350 43360 43370 43380 43390 43400 43410 43420 43430 43440 43450 43460 43470 43480 43490 43500 43510 43520 43530 43540 43550 43560 43570 43580 43590 43600 43610 43620 43630 43640 43650 43660 43670 43680 43690 43700 43710 43720 43730 43740 43750 43760 43770 43780 43790 43800 43810 43820 43830 43840 43850 43860 43870 43880 43890 43900 43910 43920 43930 43940 43950 43960 43970 43980 43990 44000 44010 44020 44030 44040 44050 44060 44070 44080 44090 44100 44110 44120 44130 44140 44150 44160 44170 44180 44190 44200 44210 44220 44230 44240 44250 44260 44270 44280 44290 44300 44310 44320 44330 44340 44350 44360 44370 44380 44390 44400 44410 44420 44430 44440 44450 44460 44470 44480 44490 44500 44510 44520 44530 44540 44550 44560 44570 44580 44590 44600 44610 44620 44630 44640 44650 44660 44670 44680 44690 44700 44710 44720 44730 44740 44750 44760 44770 44780 44790 44800 44810 44820 44830 44840 44850 44860 44870 44880 44890 44900 44910 44920 44930 44940 44950 44960 44970 44980 44990 45000 45010 45020 45030 45040 45050 45060 45070 45080 45090 45100 45110 45120 45130 45140 45150 45160 45170 45180 45190 45200 45210 45220 45230 45240 45250 45260 45270 45280 45290 45300 45310 45320 45330 45340 45350 45360 45370 45380 45390 45400 45410 45420 45430 45440 45450 45460 45470 45480 45490 45500 45510 45520 45530 45540 45550 45560 45570 45580 45590 45600 45610 45620 45630 45640 45650 45660 45670 45680 45690 45700 45710 45720 45730 45740 45750 45760 45770 45780 45790 45800 45810 45820 45830 45840 45850 45860 45870 45880 45890 45900 45910 45920 45930 45940 45950 45960 45970 45980 45990 46000 46010 46020 46030 46040 46050 46060 46070 46080 46090 46100 46110 46120 46130 46140 46150 46160 46170 46180 46190 46200 46210 46220 46230 46240 46250 46260 46270 46280 46290 46300 46310 46320 46330 46340 46350 46360 46370 46380 46390 46400 46410 46420 46430 46440 46450 46460 46470 46480 46490 46500 46510 46520 46530 46540 46550 46560 46570 46580 46590 46600 46610 46620 46630 46640 46650 46660 46670 46680 46690 46700 46710 46720 46730 46740 46750 46760 46770 46780 46790 46800 46810 46820 46830 46840 46850 46860 46870 46880 46890 46900 46910 46920 46930 46940 46950 46960 46970 46980 46990 47000 47010 47020 47030 47040 47050 47060 47070 47080 47090 47100 47110 47120 47130 47140 47150 47160 47170 47180 47190 47200 47210 47220 47230 47240 47250 47260 47270 47280 47290 47300 47310 47320 47330 47340 47350 47360 47370 47380 47390 47400 47410 47420 47430 47440 47450 47460 47470 47480 47490 47500 47510 47520 47530 47540 47550 47560 47570 47580 47590 47600 47610 47620 47630 47640 47650 47660 47670 47680 47690 47700 47710 47720 47730 47740 47750 47760 47770 47780 47790 47800 47810 47820 47830 47840 47850 47860 47870 47880 47890 47900 47910 47920 47930 47940 47950 47960 47970 47980 47990 48000 48010 48020 48030 48040 48050 48060 48070 48080 48090 48100 48110 48120 48130 48140 48150 48160 48170 48180 48190 48200 48210 48220 48230 48240 48250 48260 48270 48280 48290 48300 48310 48320 48330 48340 48350 48360 48370 48380 48390 48400 48410 48420 48430 48440 48450 48460 48470 48480 48490 48500 48510 48520 48530 48540 48550 48560 48570 48580 48590 48600 48610 48620 48630 48640 48650 48660 48670 48680 48690 48700 48710 48720 48730 48740 48750 48760 48770 48780 48790 48800 48810 48820 48830 48840 48850 48860 48870 48880 48890 48900 48910 48920 48930 48940 48950 48960 48970 48980 48990 49000 49010 49020 49030 49040 49050 49060 49070 49080 49090 49100 49110 49120 49130 49140 49150 49160 49170 49180 49190 49200 49210 49220 49230 49240 49250 49260 49270 49280 49290 49300 49310 49320 49330 49340 49350 49360 49370 49380 49390 49400 49410 49420 49430 49440 49450 49460 49470 49480 49490 49500 49510 49520 49530 49540 49550 49560 49570 49580 49590 49600 49610 49620 49630 49640 49650 49660 49670 49680 49690 49700 49710 49720 49730 49740 49750 49760 49770 49780 49790 49800 49810 49820 49830 49840 49850 49860 49870 49880 49890 49900 49910 49920 49930 49940 49950 49960 49970 49980 49990 50000 50010 50020 50030 50040 50050 50060 50070 50080 50090 50100 50110 50120 50130 50140 50150 50160 50170 50180 50190 50200 50210 50220 50230 50240 50250 50260 50270 50280 50290 50300 50310 50320 50330 50340 50350 50360 50370 50380 50390 50400 50410 50420 50430 50440 50450 50460 50470 50480 50490 50500 50510 50520 50530 50540 50550 50560 50570 50580 50590 50600 50610 50620 50630 50640 50650 50660 50670 50680 50690 50700 50710 50720 50730 50740 50750 50760 50770 50780 50790 50800 50810 50820 50830 50840 50850 50860 50870 50880 50890 50900 50910 50920 50930 50940 50950 50960 50970 50980 50990 51000 51010 51020 51030 51040 51050 51060 51070 51080 51090 51100 51110 51120 51130 51140 51150 51160 51170 51180 51190 51200 51210 51220 51230 51240 51250 51260 51270 51280 51290 51300 51310 51320 51330 51340 51350 51360 51370 51380 51390 51400 51410 51420 51430 51440 51450 51460 51470 51480 51490 51500 51510 51520 51530 51540 51550 51560 51570 51580 51590 51600 51610 51620 51630 51640 51650 51660 51670 51680 51690 51700 51710 51720 51730 51740 51750 51760 51770 51780 51790 51800 51810 51820 51830 51840 51850 51860 51870 51880 51890 51900 51910 51920 51930 51940 51950 51960 51970 51980 51990 52000 52010 52020 52030 52040 52050 52060 52070 52080 52090 52100 52110 52120 52130 52140 52150 52160 52170 52180 52190 52200 52210 52220 52230 52240 52250 52260 52270 52280 52290 52300 52310 52320 52330 52340 52350 52360 52370 52380 52390 52400 52410 52420 52430 52440 52450 52460 52470 52480 52490 52500 52510 52520 52530 52540 52550 52560 52570 52580 52590 52600 52610 52620 52630 52640 52650 52660 52670 52680 52690 52700 52710 52720 52730 52740 52750 52760 52770 52780 52790 52800 52810 52820 52830 52840 52850 52860 52870 52880 52890 52900 52910 52920 52930 52940 52950 52960 52970 52980 52990 53000 53010 53020 53030 53040 53050 53060 53070 53080 53090 53100 53110 53120 53130 53140 53150 53160 53170 53180 53190 53200 53210 53220 53230 53240 53250 53260 53270 53280 53290 53300 53310 53320 53330 53340 53350 53360 53370 53380 53390 53400 53410 53420 53430 53440 53450 53460 53470 53480 53490 53500 53510 53520 53530 53540 53550 53560 53570 53580 53590 53600 53610 53620 53630 53640 53650 53660 53670 53680 53690 53700 53710 53720 53730 53740 53750 53760 53770 53780 53790 53800 53810 53820 53830 53840 53850 53860 53870 53880 53890 53900 53910 53920 53930 53940 53950 53960 53970 53980 53990 54000 54010 54020 54030 54040 54050 54060 54070 54080 54090 54100 54110 54120 54130 54140 54150 54160 54170 54180 54190 54200 54210 54220 54230 54240 54250 54260 54270 54280 54290 54300 54310 54320 54330 54340 54350 54360 54370 54380 54390 54400 54410 54420 54430 54440 54450 54460 54470 54480 54490 54500 54510 54520 54530 54540 54550 54560 54570 54580 54590 54600 54610 54620 54630 54640 54650 54660 54670 54680 54690 54700 54710 54720 54730 54740 54750 54760 54770 54780 54790 54800 54810 54820 54830 54840 54850 54860 54870 54880 54890 54900 54910 54920 54930 54940 54950 54960 54970 54980 54990 55000 55010 55020 55030 55040 55050 55060 55070 55080 55090 55100 55110 55120 55130 55140 55150 55160 55170 55180 55190 55200 55210 55220 55230 55240 55250 55260 55270 55280 55290 55300 55310 55320 55330 55340 55350 55360 55370 55380 55390 55400 55410 55420 55430 55440 55450 55460 55470 55480 55490 55500 55510 55520 55530 55540 55550 55560 55570 55580 55590 55600 55610 55620 55630 55640 55650 55660 55670 55680 55690 55700 55710 55720 55730 55740 55750 55760 55770 55780 55790 55800 55810 55820 55830 55840 55850 55860 55870 55880 55890 55900 55910 55920 55930 55940 55950 55960 55970 55980 55990 56000 56010 56020 56030 56040 56050 56060 56070 56080 56090 56100 56110 56120 56130 56140 56150 56160 56170 56180 56190 56200 56210 56220 56230 56240 56250 56260 56270 56280 56290 56300 56310 56320 56330 56340 56350 56360 56370 56380 56390 56400 56410 56420 56430 56440 56450 56460 56470 56480 56490 56500 56510 56520 56530 56540 56550 56560 56570 56580 56590 56600 56610 56620 56630 56640 56650 56660 56670 56680 56690 56700 56710 56720 56730 56740 56750 56760 56770 56780 56790 56800 56810 56820 56830 56840 56850 56860 56870 56880 56890 56900 56910 56920 56930 56940 56950 56960 56970 56980 56990 57000 57010 57020 57030 57040 57050 57060 57070 57080 57090 57100 57110 57120 57130 57140 57150 57160 57170 57180 57190 57200 57210 57220 57230 57240 57250 57260 57270 57280 57290 57300 57310 57320 57330 57340 57350 57360 57370 57380 57390 57400 57410 57420 57430 57440 57450 57460 57470 57480 57490 57500 57510 57520 57530 57540 57550 57560 57570 57580 57590 57600 57610 57620 57630 57640 57650 57660 57670 57680 57690 57700 57710 57720 57730 57740 57750 57760 57770 57780 57790 57800 57810 57820 57830 57840 57850 57860 57870 57880 57890 57900 57910 57920 57930 57940 57950 57960 57970 57980 57990 58000 58010 58020 58030 58040 58050 58060 58070 58080 58090 58100 58110 58120 58130 58140 58150 58160 58170 58180 58190 58200 58210 58220 58230 58240 58250 58260 58270 58280 58290 58300 58310 58320 58330 58340 58350 58360 58370 58380 58390 58400 58410 58420 58430 58440 58450 58460 58470 58480 58490 58500 58510 58520 58530 58540 58550 58560 58570 58580 58590 58600 58610 58620 58630 58640 58650 58660 58670 58680 58690 58700 58710 58720 58730 58740 58750 58760 58770 58780 58790 58800 58810 58820 58830 58840 58850 58860 58870 58880 58890 58900 58910 58920 58930 58940 58950 58960 58970 58980 58990 59000 59010 59020 59030 59040 59050 59060 59070 59080 59090 59100 59110 59120 59130 59140 59150 59160 59170 59180 59190 59200 59210 59220 59230 59240 59250 59260 59270 59280 59290 59300 59310 59320 59330 59340 59350 59360 59370 59380 59390 59400 59410 59420 59430 59440 59450 59460 59470 59480 59490 59500 59510 59520 59530 59540 59550 59560 59570 59580 59590 59600 59610 59620 59630 59640 59650 59660 59670 59680 59690 59700 59710 59720 59730 59740 59750 59760 59770 59780 59790 59800 59810 59820 59830 59840 59850 59860 59870 59880 59890 59900 59910 59920 59930 59940 59950 59960 59970 59980 59990 60000 60010 60020 60030 60040 60050 60060 60070 60080 60090 60100 60110 60120 60130 60140 60150 60160 60170 60180 60190 60200 60210 60220 60230 60240 60250 60260 60270 60280 60290 60300 60310 60320 60330 60340 60350 60360 60370 60380 60390 60400 60410 60420 60430 60440 60450 60460 60470 60480 60490 60500 60510 60520 60530 60540 60550 60560 60570 60580 60590 60600 60610 60620 60630 60640 60650 60660 60670 60680 60690 60700 60710 60720 60730 60740 60750 60760 60770 60780 60790 60800 60810 60820 60830 60840 60850 60860 60870 60880 60890 60900 60910 60920 60930 60940 60950 60960 60970 60980 60990 61000 61010 61020 61030 61040 61050 61060 61070 61080 61090 61100 61110 61120 61130 61140 61150 61160 61170 61180 61190 61200 61210 61220 61230 61240 61250 61260 61270 61280 61290 61300 61310 61320 61330 61340 61350 61360 61370 61380 61390 61400 61410 61420 61430 61440 61450 61460 61470 61480 61490 61500 61510 61520 61530 61540 61550 61560 61570 61580 61590 61600 61610 61620 61630 61640 61650 61660 61670 61680 61690 61700 61710 61720 61730 61740 61750 61760 61770 61780 61790 61800 61810 61820 61830 61840 61850 61860 61870 61880 61890 61900 61910 61920 61930 61940 61950 61960 61970 61980 61990 62000 62010 62020 62030 62040 62050 62060 62070 62080 62090 62100 62110 62120 62130 62140 62150 62160 62170 62180 62190 62200 62210 62220 62230 62240 62250 62260 62270 62280 62290 62300 62310 62320 62330 62340 62350 62360 62370 62380 62390 62400 62410 62420 62430 62440 62450 62460 62470 62480 62490 62500 62510 62520 62530 62540 62550 62560 62570 62580 62590 62600 62610 62620 62630 62640 62650 62660 62670 62680 62690 62700 62710 62720 62730 62740 62750 62760 62770 62780 62790 62800 62810 62820 62830 62840 62850 62860 62870 62880 62890 62900 62910 62920 62930 62940 62950 62960 62970 62980 62990 63000 63010 63020 63030 63040 63050 63060 63070 63080 63090 63100 63110 63120 63130 63140 63150 63160 63170 63180 63190 63200 63210 63220 63230 63240 63250 63260 63270 63280 63290 63300 63310 63320 63330 63340 63350 63360 63370 63380 63390 63400 63410 63420 63430 63440 63450 63460 63470 63480 63490 63500 63510 63520 63530 63540 63550 63560 63570 63580 63590 63600 63610 63620 63630 63640 63650 63660 63670 63680 63690 63700 63710 63720 63730 63740 63750 63760 63770 63780 63790 63800 63810 63820 63830 63840 63850 63860 63870 63880 63890 63900 63910 63920 63930 63940 63950 63960 63970 63980 63990 64000 64010 64020 64030 64040 64050 64060 64070 64080 64090 64100 64110 64120 64130 64140 64150 64160 64170 64180 64190 64200 64210 64220 64230 64240 64250 64260 64270 64280 64290 64300 64310 64320 64330 64340 64350 64360 64370 64380 64390 64400 64410 64420 64430 64440 64450 64460 64470 64480 64490 64500 64510 64520 64530 64540 64550 64560 64570 64580 64590 64600 64610 64620 64630 64640 64650 64660 64670 64680 64690 64700 64710 64720 64730 64740 64750 64760 64770 64780 64790 64800 64810 64820 64830 64840 64850 64860 64870 64880 64890 64900 64910 64920 64930 64940 64950 64960 64970 64980 64990 65000 65010 65020 65030 65040 65050 65060 65070 65080 65090 65100 65110 65120 65130 65140 65150 65160 65170 65180 65190 65200 65210 65220 65230 65240 65250 65260 65270 65280 65290 65300 65310 65320 65330 65340 65350 65360 65370 65380 65390 65400 65410 65420 65430 65440 65450 65460 65470 65480 65490 65500 65510 65520 65530 65540 65550 65560 65570 65580 65590 65600 65610 65620 65630 65640 65650 65660 65670 65680 65690 65700 65710 65720 65730 65740 65750 65760 65770 65780 65790 65800 65810 65820 65830 65840 65850 65860 65870 65880 65890 65900 65910 65920 65930 65940 65950 65960 65970 65980 65990 66000 66010 66020 66030 66040 66050 66060 66070 66080 66090 66100 66110 66120 66130 66140 66150 66160 66170 66180 66190 66200 66210 66220 66230 66240 66250 66260 66270 66280 66290 66300 66310 66320 66330 66340 66350 66360 66370 66380 66390 66400 66410 66420 66430 66440 66450 66460 66470 66480 66490 66500 66510 66520 66530 66540 66550 66560 66570 66580 66590 66600 66610 66620 66630 66640 66650 66660 66670 66680 66690 66700 66710 66720 66730 66740 66750 66760 66770 66780 66790 66800 66810 66820 66830 66840 66850 66860 66870 66880 66890 66900 66910 66920 66930 66940 66950 66960 66970 66980 66990 67000 67010 67020 67030 67040 67050 67060 67070 67080 67090 67100 67110 67120 67130 67140 67150 67160 67170 67180 67190 67200 67210 67220 67230 67240 67250 67260 67270 67280 67290 67300 67310 67320 67330 67340 67350 67360 67370 67380 67390 67400 67410 67420 67430 67440 67450 67460 67470 67480 67490 67500 67510 67520 67530 67540 67550 67560 67570 67580 67590 67600 67610 67620 67630 67640 67650 67660 67670 67680 67690 67700 67710 67720 67730 67740 67750 67760 67770 67780 67790 67800 67810 67820 67830 67840 67850 67860 67870 67880 67890 67900 67910 67920 67930 67940 67950 67960 67970 67980 67990 68000 68010 68020 68030 68040 68050 68060 68070 68080 68090 68100 68110 68120 68130 68140 68150 68160 68170 68180 68190 68200 68210 68220 68230 68240 68250 68260 68270 68280 68290 68300 68310 68320 68330 68340 68350 68360 68370 68380 68390 68400 68410 68420 68430 68440 68450 68460 68470 68480 68490 68500 68510 68520 68530 68540 68550 68560 68570 68580 68590 68600 68610 68620 68630 68640 68650 68660 68670 68680 68690 68700 68710 68720 68730 68740 68750 68760 68770 68780 68790 68800 68810 68820 68830 68840 68850 68860 68870 68880 68890 68900 68910 68920 68930 68940 68950 68960 68970 68980 68990 69000 69010 69020 69030 69040 69050 69060 69070 69080 69090 69100 69110 69120 69130 69140 69150 69160 69170 69180 69190 69200 69210 69220 69230 69240 69250 69260 69270 69280 69290 69300 69310 69320 69330 69340 69350 69360 69370 69380 69390 69400 69410 69420 69430 69440 69450 69460 69470 69480 69490 69500 69510 69520 69530 69540 69550 69560 69570 69580 69590 69600 69610 69620 69630 69640 69650 69660 69670 69680 69690 69700 69710 69720 69730 69740 69750 69760 69770 69780 69790 69800 69810 69820 69830 69840 69850 69860 69870 69880 69890 69900 69910 69920 69930 69940 69950 69960 69970 69980 69990 70000 70010 70020 70030 70040 70050 70060 70070 70080 70090 70100 70110 70120 70130 70140 70150 70160 70170 70180 70190 70200 70210 70220 70230 70240 70250 70260 70270 70280 70290 70300 70310 70320 70330 70340 70350 70360 70370 70380 70390 70400 70410 70420 70430 70440 70450 70460 70470 70480 70490 70500 70510 70520 70530 70540 70550 70560 70570 70580 70590 70600 70610 70620 70630 70640 70650 70660 70670 70680 70690 70700 70710 70720 70730 70740 70750 70760 70770 70780 70790 70800 70810 70820 70830 70840 70850 70860 70870 70880 70890 70900 70910 70920 70930 70940 70950 70960 70970 70980 70990 71000 71010 71020 71030 71040 71050 71060 71070 71080 71090 71100 71110 71120 71130 71140 71150 71160 71170 71180 71190 71200 71210 71220 71230 71240 71250 71260 71270 71280 71290 71300 71310 71320 71330 71340 71350 71360 71370 71380 71390 71400 71410 71420 71430 71440 71450 71460 71470 71480 71490 71500 71510 71520 71530 71540 71550 71560 71570 71580 71590 71600 71610 71620 71630 71640 71650 71660 71670 71680 71690 71700 71710 71720 71730 71740 71750 71760 71770 71780 71790 71800 71810 71820 71830 71840 71850 71860 71870 71880 71890 71900 71910 71920 71930 71940 71950 71960 71970 71980 71990 72000 72010 72020 72030 72040 72050 72060 72070 72080 72090 72100 72110 72120 72130 72140 72150 72160 72170 72180 72190 72200 72210 72220 72230 72240 72250 72260 72270 72280 72290 72300 72310 72320 72330 72340 72350 72360 72370 72380 72390 72400 72410 72420 72430 72440 72450 72460 72470 72480 72490 72500 72510 72520 72530 72540 72550 72560 72570 72580 72590 72600 72610 72620 72630 72640 72650 72660 72670 72680 72690 72700 72710 72720 72730 72740 72750 72760 72770 72780 72790 72800 72810 72820 72830 72840 72850 72860 72870 72880 72890 72900 72910 72920 72930 72940 72950 72960 72970 72980 72990 73000 73010 73020 73030 73040 73050 73060 73070 73080 73090 73100 73110 73120 73130 73140 73150 73160 73170 73180 73190 73200 73210 73220 73230 73240 73250 73260 73270 73280 73290 73300 73310 73320 73330 73340 73350 73360 73370 73380 73390 73400 73410 73420 73430 73440 73450 73460 73470 73480 73490 73500 73510 73520 73530 73540 73550 73560 73570 73580 73590 73600 73610 73620 73630 73640 73650 73660 73670 73680 73690 73700 73710 73720 73730 73740 73750 73760 73770 73780 73790 73800 73810 73820 73830 73840 73850 73860 73870 73880 73890 73900 73910 73920 73930 73940 73950 73960 73970 73980 73990 74000 74010 74020 74030 74040 74050 74060 74070 74080 74090 74100 74110 74120 74130 74140 74150 74160 74170 74180 74190 74200 74210 74220 74230 74240 74250 74260 74270 74280 74290 74300 74310 74320 74330 74340 74350 74360 74370 74380 74390 74400 74410 74420 74430 74440 74450 74460 74470 74480 74490 74500 74510 74520 74530 74540 74550 74560 74570 74580 74590 74600 74610 74620 74630 74640 74650 74660 74670 74680 74690 74700 74710 74720 74730 74740 74750 74760 74770 74780 74790 74800 74810 74820 74830 74840 74850 74860 74870 74880 74890 74900 74910 74920 74930 74940 74950 74960 74970 74980 74990 75000 75010 75020 75030 75040 75050 75060 75070 75080 75090 75100 75110 75120 75130 75140 75150 75160 75170 75180 75190 75200 75210 75220 75230 75240 75250 75260 75270 75280 75290 75300 75310 75320 75330 75340 75350 75360 75370 75380 75390 75400 75410 75420 75430 75440 75450 75460 75470 75480 75490 75500 75510 75520 75530 75540 75550 75560 75570 75580 75590 75600 75610 75620 75630 75640 75650 75660 75670 75680 75690 75700 75710 75720 75730 75740 75750 75760 75770 75780 75790 75800 75810 75820 75830 75840 75850 75860 75870 75880 75890 75900 75910 75920 75930 75940 75950 75960 75970 75980 75990 76000 76010 76020 76030 76040 76050 76060 76070 76080 76090 76100 76110 76120 76130 76140 76150 76160 76170 76180 76190 76200 76210 76220 76230 76240 76250 76260 76270 76280 76290 76300 76310 76320 76330 76340 76350 76360 76370 76380 76390 76400 76410 76420 76430 76440 76450 76460 76470 76480 76490 76500 76510 76520 76530 76540 76550 76560 76570 76580 76590 76600 76610 76620 76630 76640 76650 76660 76670 76680 76690 76700 76710 76720 76730 76740 76750 76760 76770 76780 76790 76800 76810 76820 76830 76840 76850 76860 76870 76880 76890 76900 76910 76920 76930 76940 76950 76960 76970 76980 76990 77000 77010 77020 77030 77040 77050 77060 77070 77080 77090 77100 77110 77120 77130 77140 77150 77160 77170 77180 77190 77200 77210 77220 77230 77240 77250 77260 77270 77280 77290 77300 77310 77320 77330 77340 77350 77360 77370 77380 77390 77400 77410 77420 77430 77440 77450 77460 77470 77480 77490 77500 77510 77520 77530 77540 77550 77560 77570 77580 77590 77600 77610 77620 77630 77640 77650 77660 77670 77680 77690 77700 77710 77720 77730 77740 77750 77760 77770 77780 77790 77800 77810 77820 77830 77840 77850 77860 77870 77880 77890 77900 77910 77920 77930 77940 77950 77960 77970 77980 77990 78000 78010 78020 78030 78040 78050 78060 78070 78080 78090 78100 78110 78120 78130 78140 78150 78160 78170 78180 78190 78200 78210 78220 78230 78240 78250 78260 78270 78280 78290 78300 78310 78320 78330 78340 78350 78360 78370 78380 78390 78400 78410 78420 78430 78440 78450 78460 78470 78480 78490 78500 78510 78520 78530 78540 78550 78560 78570 78580 78590 78600 78610 78620 78630 78640 78650 78660 78670 78680 78690 78700 78710 78720 78730 78740 78750 78760 78770 78780 78790 78800 78810 78820 78830 78840 78850 78860 78870 78880 78890 78900 78910 78920 78930 78940 78950 78960 78970 78980 78990 79000 79010 79020 79030 79040 79050 79060 79070 79080 79090 79100 79110 79120 79130 79140 79150 79160 79170 79180 79190 79200 79210 79220 79230 79240 79250 79260 79270 79280 79290 79300 79310 79320 79330 79340 79350 79360 79370 79380 79390 79400 79410 79420 79430 79440 79450 79460 79470 79480 79490 79500 79510 79520 79530 79540 79550 79560 79570 79580 79590 79600 79610 79620 79630 79640 79650 79660 79670 79680 79690 79700 79710 79720 79730 79740 79750 79760 79770 79780 79790 79800 79810 79820 79830 79840 79850 79860 79870 79880 79890 79900 79910 79920 79930 79940 79950 79960 79970 79980 79990 80000 80010 80020 80030 80040 80050 80060 80070 80080 80090 80100 80110 80120 80130 80140 80150 80160 80170 80180 80190 80200 80210 80220 80230 80240 80250 80260 80270 80280 80290 80300 80310 80320 80330 80340 80350 80360 80370 80380 80390 80400 80410 80420 80430 80440 80450 80460 80470 80480 80490 80500 80510 80520 80530 80540 80550 80560 80570 80580 80590 80600 80610 80620 80630 80640 80650 80660 80670 80680 80690 80700 80710 80720 80730 80740 80750 80760 80770 80780 80790 80800 80810 80820 80830 80840 80850 80860 80870 80880 80890 80900 80910 80920 80930 80940 80950 80960 80970 80980 80990 81000 81010 81020 81030 81040 81050 81060 81070 81080 81090 81100 81110 81120 81130 81140 81150 81160 81170 81180 81190 81200 81210 81220 81230 81240 81250 81260 81270 81280 81290 81300 81310 81320 81330 81340 81350 81360 81370 81380 81390 81400 81410 81420 81430 81440 81450 81460 81470 81480 81490 81500 81510 81520 81530 81540 81550 81560 81570 81580 81590 81600 81610 81620 81630 81640 81650 81660 81670 81680 81690 81700 81710 81720 81730 81740 81750 81760 81770 81780 81790 81800 81810 81820 81830 81840 81850 81860 81870 81880 81890 81900 81910 81920 81930 81940 81950 81960 81970 81980 81990 82000 82010 82020 82030 82040 82050 82060 82070 82080 82090 82100 82110 82120 82130 82140 82150 82160 82170 82180 82190 82200 82210 82220 82230 82240 82250 82260 82270 82280 82290 82300 82310 82320 82330 82340 82350 82360 82370 82380 82390 82400 82410 82420 82430 82440 82450 82460 82470 82480 82490 82500 82510 82520 82530 82540 82550 82560 82570 82580 82590 82600 82610 82620 82630 82640 82650 82660 82670 82680 82690 82700 82710 82720 82730 82740 82750 82760 82770 82780 82790 82800 82810 82820 82830 82840 82850 82860 82870 82880 82890 82900 82910 82920 82930 82940 82950 82960 82970 82980 82990 83000 83010 83020 83030 83040 83050 83060 83070 83080 83090 83100 83110 83120 83130 83140 83150 83160 83170 83180 83190 83200 83210 83220 83230 83240 83250 83260 83270 83280 83290 83300 83310 83320 83330 83340 83350 83360 83370 83380 83390 83400 83410 83420 83430 83440 83450 83460 83470 83480 83490 83500 83510 83520 83530 83540 83550 83560 83570 83580 83590 83600 83610 83620 83630 83640 83650 83660 83670 83680 83690 83700 83710 83720 83730 83740 83750 83760 83770 83780 83790 83800 83810 83820 83830 83840 83850 83860 83870 83880 83890 83900 83910 83920 83930 83940 83950 83960 83970 83980 83990 84000 84010 84020 84030 84040 84050 84060 84070 84080 84090 84100 84110 84120 84130 84140 84150 84160 84170 84180 84190 84200 84210 84220 84230 84240 84250 84260 84270 84280 84290 84300 84310 84320 84330 84340 84350 84360 84370 84380 84390 84400 84410 84420 84430 84440 84450 84460 84470 84480 84490 84500 84510 84520 84530 84540 84550 84560 84570 84580 84590 84600 84610 84620 84630 84640 84650 84660 84670 84680 84690 84700 84710 84720 84730 84740 84750 84760 84770 84780 84790 84800 84810 84820 84830 84840 84850 84860 84870 84880 84890 84900 84910 84920 84930 84940 84950 84960 84970 84980 84990 85000 85010 85020 85030 85040 85050 85060 85070 85080 85090 85100 85110 85120 85130 85140 85150 85160 85170 85180 85190 85200 85210 85220 85230 85240 85250 85260 85270 85280 85290 85300 85310 85320 85330 85340 85350 85360 85370 85380 85390 85400 85410 85420 85430 85440 85450 85460 85470 85480 85490 85500 85510 85520 85530 85540 85550 85560 85570 85580 85590 85600 85610 85620 85630 85640 85650 85660 85670 85680 85690 85700 85710 85720 85730 85740 85750 85760 85770 85780 85790 85800 85810 85820 85830 85840 85850 85860 85870 85880 85890 85900 85910 85920 85930 85940 85950 85960 85970 85980 85990 86000 86010 86020 86030 86040 86050 86060 86070 86080 86090 86100 86110 86120 86130 86140 86150 86160 86170 86180 86190 86200 86210 86220 86230 86240 86250 86260 86270 86280 86290 86300 86310 86320 86330 86340 86350 86360 86370 86380 86390 86400 86410 86420 86430 86440 86450 86460 86470 86480 86490 86500 86510 86520 86530 86540 86550 86560 86570 86580 86590 86600 86610 86620 86630 86640 86650 86660 86670 86680 86690 86700 86710 86720 86730 86740 86750 86760 86770 86780 86790 86800 86810 86820 86830 86840 86850 86860 86870 86880 86890 86900 86910 86920 86930 86940 86950 86960 86970 86980 86990 87000 87010 87020 87030 87040 87050 87060 87070 87080 87090 87100 87110 87120 87130 87140 87150 87160 87170 87180 87190 87200 87210 87220 87230 87240 87250 87260 87270 87280 87290 87300 87310 87320 87330 87340 87350 87360 87370 87380 87390 87400 87410 87420 87430 87440 87450 87460 87470 87480 87490 87500 87510 87520 87530 87540 87550 87560 87570 87580 87590 87600 87610 87620 87630 87640 87650 87660 87670 87680 87690 87700 87710 87720 87730 87740 87750 87760 87770 87780 87790 87800 87810 87820 87830 87840 87850 87860 87870 87880 87890 87900 87910 87920 87930 87940 87950 87960 87970 87980 87990 88000 88010 88020 88030 88040 88050 88060 88070 88080 88090 88100 88110 88120 88130 88140 88150 88160 88170 88180 88190 88200 88210 88220 88230 88240 88250 88260 88270 88280 88290 88300 88310 88320 88330 88340 88350 88360 88370 88380 88390 88400 88410 88420 88430 88440 88450 88460 88470 88480 88490 88500 88510 88520 88530 88540 88550 88560 88570 88580 88590 88600 88610 88620 88630 88640 88650 88660 88670 88680 88690 88700 88710 88720 88730 88740 88750 88760 88770 88780 88790 88800 88810 88820 88830 88840 88850 88860 88870 88880 88890 88900 88910 88920 88930 88940 88950 88960 88970 88980 88990 89000 89010 89020 89030 89040 89050 89060 89070 89080 89090 89100 89110 89120 89130 89140 89150 89160 89170 89180 89190 89200 89210 89220 89230 89240 89250 89260 89270 89280 89290 89300 89310 89320 89330 89340 89350 89360 89370 89380 89390 89400 89410 89420 89430 89440 89450 89460 89470 89480 89490 89500 89510 89520 89530 89540 89550 89560 89570 89580 89590 89600 89610 89620 89630 89640 89650 89660 89670 89680 89690 89700 89710 89720 89730 89740 89750 89760 89770 89780 89790 89800 89810 89820 89830 89840 89850 89860 89870 89880 89890 89900 89910 89920 89930 89940 89950 89960 89970 89980 89990 90000 90010 90020 90030 90040 90050 90060 90070 90080 90090 90100 90110 90120 90130 90140 90150 90160 90170 90180 90190 90200 90210 90220 90230 90240 90250 90260 90270 90280 90290 90300 90310 90320 90330 90340 90350 90360 90370 90380 90390 90400 90410 90420 90430 90440 90450 90460 90470 90480 90490 90500 90510 90520 90530 90540 90550 90560 90570 90580 90590 90600 90610 90620 90630 90640 90650 90660 90670 90680 90690 90700 90710 90720 90730 90740 90750 90760 90770 90780 90790 90800 90810 90820 90830 90840 90850 90860 90870 90880 90890 90900 90910 90920 90930 90940 90950 90960 90970 90980 90990 91000 91010 91020 91030 91040 91050 91060 91070 91080 91090 91100 91110 91120 91130 91140 91150 91160 91170 91180 91190 91200 91210 91220 91230 91240 91250 91260 91270 91280 91290 91300 91310 91320 91330 91340 91350 91360 91370 91380 91390 91400 91410 91420 91430 91440 91450 91460 91470 91480 91490 91500 91510 91520 91530 91540 91550 91560 91570 91580 91590 91600 91610 91620 91630 91640 91650 91660 91670 91680 91690 91700 91710 91720 91730 91740 91750 91760 91770 91780 91790 91800 91810 91820 91830 91840 91850 91860 91870 91880 91890 91900 91910 91920 91930 91940 91950 91960 91970 91980 91990 92000 92010 92020 92030 92040 92050 92060 92070 92080 92090 92100 92110 92120 92130 92140 92150 92160 92170 92180 92190 92200 92210 92220 92230 92240 92250 92260 92270 92280 92290 92300 92310 92320 92330 92340 92350 92360 92370 92380 92390 92400 92410 92420 92430 92440 92450 92460 92470 92480 92490 92500 92510 92520 92530 92540 92550 92560 92570 92580 92590 92600 92610 92620 92630 92640 92650 92660 92670 92680 92690 92700 92710 92720 92730 92740 92750 92760 92770 92780 92790 92800 92810 92820 92830 92840 92850 92860 92870 92880 92890 92900 92910 92920 92930 92940 92950 92960 92970 92980 92990 93000 93010 93020 93030 93040 93050 93060 93070 93080 93090 93100 93110 93120 93130 93140 93150 93160 93170 93180 93190 93200 93210 93220 93230 93240 93250 93260 93270 93280 93290 93300 93310 93320 93330 93340 93350 93360 93370 93380 93390 93400 93410 93420 93430 93440 93450 93460 93470 93480 93490 93500 93510 93520 93530 93540 93550 93560 93570 93580 93590 93600 93610 93620 93630 93640 93650 93660 93670 93680 93690 93700 93710 93720 93730 93740 93750 93760 93770 93780 93790 93800 93810 93820 93830 93840 93850 93860 93870 93880 93890 93900 93910 93920 93930 93940 93950 93960 93970 93980 93990 94000 94010 94020 94030 94040 94050 94060 94070 94080 94090 94100 94110 94120 94130 94140 94150 94160 94170 94180 94190 94200 94210 94220 94230 94240 94250 94260 94270 94280 94290 94300 94310 94320 94330 94340 94350 94360 94370 94380 94390 94400 94410 94420 94430 94440 94450 94460 94470 94480 94490 94500 94510 94520 94530 94540 94550 94560 94570 94580 94590 94600 94610 94620 94630 94640 94650 94660 94670 94680 94690 94700 94710 94720 94730 94740 94750 94760 94770 94780 94790 94800 94810 94820 94830 94840 94850 94860 94870 94880 94890 94900 94910 94920 94930 94940 94950 94960 94970 94980 94990 95000 95010 95020 95030 95040 95050 95060 95070 95080 95090 95100 95110 95120 95130 95140 95150 95160 95170 95180 95190 95200 95210 95220 95230 95240 95250 95260 95270 95280 95290 95300 95310 95320 95330 95340 95350 95360 95370 95380 95390 95400 95410 95420 95430 95440 95450 95460 95470 95480 95490 95500 95510 95520 95530 95540 95550 95560 95570 95580 95590 95600 95610 95620 95630 95640 95650 95660 95670 95680 95690 95700 95710 95720 95730 95740 95750 95760 95770 95780 95790 95800 95810 95820 95830 95840 95850 95860 95870 95880 95890 95900 95910 95920 95930 95940 95950 95960 95970 95980 95990 96000 96010 96020 96030 96040 96050 96060 96070 96080 96090 96100 96110 96120 96130 96140 96150 96160 96170 96180 96190 96200 96210 96220 96230 96240 96250 96260 96270 96280 96290 96300 96310 96320 96330 96340 96350 96360 96370 96380 96390 96400 96410 96420 96430 96440 96450 96460 96470 96480 96490 96500 96510 96520 96530 96540 96550 96560 96570 96580 96590 96600 96610 96620 96630 96640 96650 96660 96670 96680 96690 96700 96710 96720 96730 96740 96750 96760 96770 96780 96790 96800 96810 96820 96830 96840 96850 96860 96870 96880 96890 96900 96910 96920 96930 96940 96950 96960 96970 96980 96990 97000 97010 97020 97030 97040 97050 97060 97070 97080 97090 97100 97110 97120 97130 97140 97150 97160 97170 97180 97190 97200 97210 97220 97230 97240 97250 97260 97270 97280 97290 97300 97310 97320 97330 97340 97350 97360 97370 97380 97390 97400 97410 97420 97430 97440 97450 97460 97470 97480 97490 97500 97510 97520 97530 97540 97550 97560 97570 97580 97590 97600 97610 97620 97630 97640 97650 97660 97670 97680 97690 97700 97710 97720 97730 97740 97750 97760 97770 97780 97790 97800 97810 97820 97830 97840 97850 97860 97870 97880 97890 97900 97910 97920 97930 97940 97950 97960 97970 97980 97990 98000 98010 98020 98030 98040 98050 98060 98070 98080 98090 98100 98110 98120 98130 98140 98150 98160 98170 98180 98190 98200 98210 98220 98230 98240 98250 98260 98270 98280 98290 98300 98310 98320 98330 98340 98350 98360 98370 98380 98390 98400 98410 98420 98430 98440 98450 98460 98470 98480 98490 98500 98510 98520 98530 98540 98550 98560 98570 98580 98590 98600 98610 98620 98630 98640 98650 98660 98670 98680 98690 98700 98710 98720 98730 98740 98750 98760 98770 98780 98790 98800 98810 98820 98830 98840 98850 98860 98870 98880 98890 98900 98910 98920 98930 98940 98950 98960 98970 98980 98990 99000 99010 99020 99030 99040 99050 99060 99070 99080 99090 99100 99110 99120 99130 99140 99150 99160 99170 99180 99190 99200 99210 99220 99230 99240 99250 99260 99270 99280 99290 99300 99310 99320 99330 99340 99350 99360 99370 99380 99390 99400 99410 99420 99430 99440 99450 99460 99470 99480 99490 99500 99510 99520 99530 99540 99550 99560 99570 99580 99590 99600 99610 99620 99630 99640 99650 99660 99670 99680 99690 99700 99710 99720 99730 99740 99750 99760 99770 99780 99790 99800 99810 99820 99830 99840 99850 99860 99870 99880 99890 99900 99910 99920 99930 99940 99950 99960 99970 99980 99990 100000 100010 100020 100030 100040 100050 100060 100070 100080 100090 100100 100110 100120 100130 100140 100150 100160 100170 100180 100190 100200 100210 100220 100230 100240 100250 100260 100270 100280 100290 100300 100310 100320 100330 100340 100350 100360 100370 100380 100390 100400 100410 100420 100430 100440 100450 100460 100470 100480 100490 100500 100510 100520 100530 100540 100550 100560 100570 100580 100590 100600 100610 100620 100630 100640 100650 100660 100670 100680 100690 100700 100710 100720 100730 100740 100750 100760 100770 100780 100790 100800 100810 100820 100830 100840 100850 100860 100870 100880 100890 100900 100910 100920 100930 100940 100950 100960 100970 100980 100990 101000 101010 101020 101030 101040 101050 101060 101070 101080 101090 101100 101110 101120 101130 101140 101150 101160 101170 101180 101190 101200 101210 101220 101230 101240 101250 101260 101270 101280 101290 101300 101310 101320 101330 101340 101350 101360 101370 101380 101390 101400 101410 101420 101430 101440 101450 101460 101470 101480 101490 101500 101510 101520 101530 101540 101550 101560 101570 101580 101590 101600 101610 101620 101630 101640 101650 101660 101670 101680 101690 101700 101710 101720 101730 101740 101750 101760 101770 101780 101790 101800 101810 101820 101830 101840 101850 101860 101870 101880 101890 101900 101910 101920 101930 101940 101950 101960 101970 101980 101990 102000 102010 102020 102030 102040 102050 102060 102070 102080 102090 102100 102110 102120 102130 102140 102150 102160 102170 102180 102190 102200 102210 102220 102230 102240 102250 102260 102270 102280 102290 102300 102310 102320 102330 102340 102350 102360 102370 102380 102390 102400 102410 102420 102430 102440 102450 102460 102470 102480 102490 102500 102510 102520 102530 102540 102550 102560 102570 102580 102590 102600 102610 102620 102630 102640 102650 102660 102670 102680 102690 102700 102710 102720 102730 102740 102750 102760 102770 102780 102790 102800 102810 102820 102830 102840 102850 102860 102870 102880 102890 102900 102910 102920 102930 102940 102950 102960 102970 102980 102990 103000 103010 103020 103030 103040 103050 103060 103070 103080 103090 103100 103110 103120 103130 103140 103150 103160 103170 103180 103190 103200 103210 103220 103230 103240 103250 103260 103270 103280 103290 103300 103310 103320 103330 103340 103350 103360 103370 103380 103390 103400 103410 103420 103430 103440 103450 103460 103470 103480 103490 103500 103510 103520 103530 103540 103550 103560 103570 103580 103590 103600 103610 103620 103630 103640 103650 103660 103670 103680 103690 103700 103710 103720 103730 103740 103750 103760 103770 103780 103790 103800 103810 103820 103830 103840 103850 103860 103870 103880 103890 103900 103910 103920 103930 103940 103950 103960 103970 103980 103990 104000 104010 104020 104030 104040 104050 104060 104070 104080 104090 104100 104110 104120 104130 104140 104150 104160 104170 104180 104190 104200 104210 104220 104230 104240 104250 104260 104270 104280 104290 104300 104310 104320 104330 104340 104350 104360 104370 104380 104390 104400 104410 104420 104430 104440 104450 104460 104470 104480 104490 104500 104510 104520 104530 104540 104550 104560 104570 104580 104590 104600 104610 104620 104630 104640 104650 104660 104670 104680 104690 104700 104710 104720 104730 104740 104750 104760 104770 104780 104790 104800 104810 104820 104830 104840 104850 104860 104870 104880 104890 104900 104910 104920 104930 104940 104950 104960 104970 104980 104990 105000 105010 105020 105030 105040 105050 105060 105070 105080 105090 105100 105110 105120 105130 105140 105150 105160 105170 105180 105190 105200 105210 105220 105230 105240 105250 105260 105270 105280 105290 105300 105310 105320 105330 105340 105350 105360 105370 105380 105390 105400 105410 105420 105430 105440 105450 105460 105470 105480 105490 105500 105510 105520 105530 105540 105550 105560 105570 105580 105590 105600 105610 105620 105630 105640 105650 105660 105670 105680 105690 105700 105710 105720 105730 105740 105750 105760 105770 105780 105790 105800 105810 105820 105830 105840 105850 105860 105870 105880 105890 105900 105910 105920 105930 105940 105950 105960 105970 105980 105990 106000 106010 106020 106030 106040 106050 106060 106070 106080 106090 106100 106110 106120 106130 106140 106150 106160 106170 106180 106190 106200 106210 106220 106230 106240 106250 106260 106270 106280 106290 106300 106310 106320 106330 106340 106350 106360 106370 106380 106390 106400 106410 106420 106430 106440 106450 106460 106470 106480 106490 106500 106510 106520 106530 106540 106550 106560 106570 106580 106590 106600 106610 106620 106630 106640 106650 106660 106670 106680 106690 106700 106710 106720 106730 106740 106750 106760 106770 106780 106790 106800 106810 106820 106830 106840 106850 106860 106870 106880 106890 106900 106910 106920 106930 106940 106950 106960 106970 106980 106990 107000 107010 107020 107030 107040 107050 107060 107070 107080 107090 107100 107110 107120 107130 107140 107150 107160 107170 107180 107190 107200 107210 107220 107230 107240 107250 107260 107270 107280 107290 107300 107310 107320 107330 107340 107350 107360 107370 107380 107390 107400 107410 107420 107430 107440 107450 107460 107470 107480 107490 107500 107510 107520 107530 107540 107550 107560 107570 107580 107590 107600 107610 107620 107630 107640 107650 107660 107670 107680 107690 107700 107710 107720 107730 107740 107750 107760 107770 107780 107790 107800 107810 107820 107830 107840 107850 107860 107870 107880 107890 107900 107910 107920 107930 107940 107950 107960 107970 107980 107990 108000 108010 108020 108030 108040 108050 108060 108070 108080 108090 108100 108110 108120 108130 108140 108150 108160 108170 108180 108190 108200 108210 108220 108230 108240 108250 108260 108270 108280 108290 108300 108310 108320 108330 108340 108350 108360 108370 108380 108390 108400 108410 108420 108430 108440 108450 108460 108470 108480 108490 108500 108510 108520 108530 108540 108550 108560 108570 108580 108590 108600 108610 108620 108630 108640 108650 108660 108670 108680 108690 108700 108710 108720 108730 108740 108750 108760 108770 108780 108790 108800 108810 108820 108830 108840 108850 108860 108870 108880 108890 108900 108910 108920 108930 108940 108950 108960 108970 108980 108990 109000 109010 109020 109030 109040 109050 109060 109070 109080 109090 109100 109110 109120 109130 109140 109150 109160 109170 109180 109190 109200 109210 109220 109230 109240 109250 109260 109270 109280 109290 109300 109310 109320 109330 109340 109350 109360 109370 109380 109390 109400 109410 109420 109430 109440 109450 109460 109470 109480 109490 109500 109510 109520 109530 109540 109550 109560 109570 109580 109590 109600 109610 109620 109630 109640 109650 109660 109670 109680 109690 109700 109710 109720 109730 109740 109750 109760 109770 109780 109790 109800 109810 109820 109830 109840 109850 109860 109870 109880 109890 109900 109910 109920 109930 109940 109950 109960 109970 109980 109990 110000 110010 110020 110030 110040 110050 110060 110070 110080 110090 110100 110110 110120 110130 110140 110150 110160 110170 110180 110190 110200 110210 110220 110230 110240 110250 110260 110270 110280 110290 110300 110310 110320 110330 110340 110350 110360 110370 110380 110390 110400 110410 110420 110430 110440 110450 110460 110470 110480 110490 110500 110510 110520 110530 110540 110550 110560 110570 110580 110590 110600 110610 110620 110630 110640 110650 110660 110670 110680 110690 110700 110710 110720 110730 110740 110750 110760 110770 110780 110790 110800 110810 110820 110830 110840 110850 110860 110870 110880 110890 110900 110910 110920 110930 110940 110950 110960 110970 110980 110990 111000 111010 111020 111030 111040 111050 111060 111070 111080 111090 111100 111110 111120 111130 111140 111150 111160 111170 111180 111190 111200 111210 111220 111230 111240 111250 111260 111270 111280 111290 111300 111310 111320 111330 111340 111350 111360 111370 111380 111390 111400 111410 111420 111430 111440 111450 111460 111470 111480 111490 111500 111510 111520 111530 111540 111550 111560 111570 111580 111590 111600 111610 111620 111630 111640 111650 111660 111670 111680 111690 111700 111710 111720 111730 111740 111750 111760 111770 111780 111790 111800 111810 111820 111830 111840 111850 111860 111870 111880 111890 111900 111910 111920 111930 111940 111950 111960 111970 111980 111990 112000 112010 112020 112030 112040 112050 112060 112070 112080 112090 112100 112110 112120 112130 112140 112150 112160 112170 112180 112190 112200 112210 112220 112230 112240 112250 112260 112270 112280 112290 112300 112310 112320 112330 112340 112350 112360 112370 112380 112390 112400 112410 112420 112430 112440 112450 112460 112470 112480 112490 112500 112510 112520 112530 112540 112550 112560 112570 112580 112590 112600 112610 112620 112630 112640 112650 112660 112670 112680 112690 112700 112710 112720 112730 112740 112750 112760 112770 112780 112790 112800 112810 112820 112830 112840 112850 112860 112870 112880 112890 112900 112910 112920 112930 112940 112950 112960 112970 112980 112990 113000 113010 113020 113030 113040 113050 113060 113070 113080 113090 113100 113110 113120 113130 113140 113150 113160 113170 113180 113190 113200 113210 113220 113230 113240 113250 113260 113270 113280 113290 113300 113310 113320 113330 113340 113350 113360 113370 113380 113390 113400 113410 113420 113430 113440 113450 113460 113470 113480 113490 113500 113510 113520 113530 113540 113550 113560 113570 113580 113590 113600 113610 113620 113630 113640 113650 113660 113670 113680 113690 113700 113710 113720 113730 113740 113750 113760 113770 113780 113790 113800 113810 113820 113830 113840 113850 113860 113870 113880 113890 113900 113910 113920 113930 113940 113950 113960 113970 113980 113990 114000 114010 114020 114030 114040 114050 114060 114070 114080 114090 114100 114110 114120 114130 114140 114150 114160 114170 114180 114190 114200 114210 114220 114230 114240 114250 114260 114270 114280 114290 114300 114310 114320 114330 114340 114350 114360 114370 114380 114390 114400 114410 114420 114430 114440 114450 114460 114470 114480 114490 114500 114510 114520 114530 114540 114550 114560 114570 114580 114590 114600 114610 114620 114630 114640 114650 114660 114670 114680 114690 114700 114710 114720 114730 114740 114750 114760 114770 114780 114790 114800 114810 114820 114830 114840 114850 114860 114870 114880 114890 114900 114910 114920 114930 114940 114950 114960 114970 114980 114990 115000 115010 115020 115030 115040 115050 115060 115070 115080 115090 115100 115110 115120 115130 115140 115150 115160 115170 115180 115190 115200 115210 115220 115230 115240 115250 115260 115270 115280 115290 115300 115310 115320 115330 115340 115350 115360 115370 115380 115390 115400 115410 115420 115430 115440 115450 115460 115470 115480 115490 115500 115510 115520 115530 115540 115550 115560 115570 115580 115590 115600 115610 115620 115630 115640 115650 115660 115670 115680 115690 115700 115710 115720 115730 115740 115750 115760 115770 115780 115790 115800 115810 115820 115830 115840 115850 115860 115870 115880 115890 115900 115910 115920 115930 115940 115950 115960 115970 115980 115990 116000 116010 116020 116030 116040 116050 116060 116070 116080 116090 116100 116110 116120 116130 116140 116150 116160 116170 116180 116190 116200 116210 116220 116230 116240 116250 116260 116270 116280 116290 116300 116310 116320 116330 116340 116350 116360 116370 116380 116390 116400 116410 116420 116430 116440 116450 116460 116470 116480 116490 116500 116510 116520 116530 116540 116550 116560 116570 116580 116590 116600 116610 116620 116630 116640 116650 116660 116670 116680 116690 116700 116710 116720 116730 116740 116750 116760 116770 116780 116790 116800 116810 116820 116830 116840 116850 116860 116870 116880 116890 116900 116910 116920 116930 116940 116950 116960 116970 116980 116990 117000 117010 117020 117030 117040 117050 117060 117070 117080 117090 117100 117110 117120 117130 117140 117150 117160 117170 117180 117190 117200 117210 117220 117230 117240 117250 117260 117270 117280 117290 117300 117310 117320 117330 117340 117350 117360 117370 117380 117390 117400 117410 117420 117430 117440 117450 117460 117470 117480 117490 117500 117510 117520 117530 117540 117550 117560 117570 117580 117590 117600 117610 117620 117630 117640 117650 117660 117670 117680 117690 117700 117710 117720 117730 117740 117750 117760 117770 117780 117790 117800 117810 117820 117830 117840 117850 117860 117870 117880 117890 117900 117910 117920 117930 117940 117950 117960 117970 117980 117990 118000 118010 118020 118030 118040 118050 118060 118070 118080 118090 118100 118110 118120 118130 118140 118150 118160 118170 118180 118190 118200 118210 118220 118230 118240 118250 118260 118270 118280 118290 118300 118310 118320 118330 118340 118350 118360 118370 118380 118390 118400 118410 118420 118430 118440 118450 118460 118470 118480 118490 118500 118510 118520 118530 118540 118550 118560 118570 118580 118590 118600 118610 118620 118630 118640 118650 118660 118670 118680 118690 118700 118710 118720 118730 118740 118750 118760 118770 118780 118790 118800 118810 118820 118830 118840 118850 118860 118870 118880 118890 118900 118910 118920 118930 118940 118950 118960 118970 118980 118990 119000 119010 119020 119030 119040 119050 119060 119070 119080 119090 119100 119110 119120 119130 119140 119150 119160 119170 119180 119190 119200 119210 119220 119230 119240 119250 119260 119270 119280 119290 119300 119310 119320 119330 119340 119350 119360 119370 119380 119390 119400 119410 119420 119430 119440 119450 119460 119470 119480 119490 119500 119510 119520 119530 119540 119550 119560 119570 119580 119590 119600 119610 119620 119630 119640 119650 119660 119670 119680 119690 119700 119710 119720 119730 119740 119750 119760 119770 119780 119790 119800 119810 119820 119830 119840 119850 119860 119870 119880 119890 119900 119910 119920 119930 119940 119950 119960 119970 119980 119990 120000 120010 120020 120030 120040 120050 120060 120070 120080 120090 120100 120110 120120 120130 120140 120150 120160 120170 120180 120190 120200 120210 120220 120230 120240 120250 120260 120270 120280 120290 120300 120310 120320 120330 120340 120350 120360 120370 120380 120390 120400 120410 120420 120430 120440 120450 120460 120470 120480 120490 120500 120510 120520 120530 120540 120550 120560 120570 120580 120590 120600 120610 120620 120630 120640 120650 120660 120670 120680 120690 120700 120710 120720 120730 120740 120750 120760 120770 120780 120790 120800 120810 120820 120830 120840 120850 120860 120870 120880 120890 120900 120910 120920 120930 120940 120950 120960 120970 120980 120990 121000 121010 121020 121030 121040 121050 121060 121070 121080 121090 121100 121110 121120 121130 121140 121150 121160 121170 121180 121190 121200 121210 121220 121230 121240 121250 121260 121270 121280 121290 121300 121310 121320 121330 121340 121350 121360 121370 121380 121390 121400 121410 121420 121430 121440 121450 121460 121470 121480 121490 121500 121510 121520 121530 121540 121550 121560 121570 121580 121590 121600 121610 121620 121630 121640 121650 121660 121670 121680 121690 121700 121710 121720 121730 121740 121750 121760 121770 121780 121790 121800 121810 121820 121830 121840 121850 121860 121870 121880 121890 121900 121910 121920 121930 121940 121950 121960 121970 121980 121990 122000 122010 122020 122030 122040 122050 122060 122070 122080 122090 122100 122110 122120 122130 122140 122150 122160 122170 122180 122190 122200 122210 122220 122230 122240 122250 122260 122270 122280 122290 122300 122310 122320 122330 122340 122350 122360 122370 122380 122390 122400 122410 122420 122430 122440 122450 122460 122470 122480 122490 122500 122510 122520 122530 122540 122550 122560 122570 122580 122590 122600 122610 122620 122630 122640 122650 122660 122670 122680 122690 122700 122710 122720 122730 122740 122750 122760 122770 122780 122790 122800 122810 122820 122830 122840 122850 122860 122870 122880 
CONNECTIVITY vtktypeint64
0 33 331 34 2673 2674 2675 2676 2677 2678 
297 331 298 0 2679 2680 2681 2682 2675 2683 
0 33 330 331 2673 2684 2685 2675 2674 2686 
297 331 0 330 2679 2675 2682 2687 2686 2685 
298 0 331 1 2683 2675 2680 2688 2689 2690 
331 0 34 1 2675 2676 2678 2690 2689 2691 
1 34 332 35 2691 2692 2693 2694 2695 2696 
298 332 299 1 2697 2698 2699 2688 2693 2700 
1 34 331 332 2691 2678 2690 2693 2692 2701 
298 332 1 331 2697 2693 2688 2680 2701 2690 
299 1 332 2 2700 2693 2698 2702 2703 2704 
332 1 35 2 2693 2694 2696 2704 2703 2705 
2 35 333 36 2705 2706 2707 2708 2709 2710 
299 333 300 2 2711 2712 2713 2702 2707 2714 
2 35 332 333 2705 2696 2704 2707 2706 2715 
299 333 2 332 2711 2707 2702 2698 2715 2704 
300 2 333 3 2714 2707 2712 2716 2717 2718 
333 2 36 3 2707 2708 2710 2718 2717 2719 
3 36 334 37 2719 2720 2721 2722 2723 2724 
300 334 301 3 2725 2726 2727 2716 2721 2728 
3 36 333 334 2719 2710 2718 2721 2720 2729 
300 334 3 333 2725 2721 2716 2712 2729 2718 
301 3 334 4 2728 2721 2726 2730 2731 2732 
334 3 37 4 2721 2722 2724 2732 2731 2733 
4 37 335 38 2733 2734 2735 2736 2737 2738 
301 335 302 4 2739 2740 2741 2730 2735 2742 
4 37 334 335 2733 2724 2732 2735 2734 2743 
301 335 4 334 2739 2735 2730 2726 2743 2732 
302 4 335 5 2742 2735 2740 2744 2745 2746 
335 4 38 5 2735 2736 2738 2746 2745 2747 
5 38 336 39 2747 2748 2749 2750 2751 2752 
302 336 303 5 2753 2754 2755 2744 2749 2756 
5 38 335 336 2747 2738 2746 2749 2748 2757 
302 336 5 335 2753 2749 2744 2740 2757 2746 
303 5 336 6 2756 2749 2754 2758 2759 2760 
336 5 39 6 2749 2750 2752 2760 2759 2761 
6 39 337 40 2761 2762 2763 2764 2765 2766 
303 337 304 6 2767 2768 2769 2758 2763 2770 
6 39 336 337 2761 2752 2760 2763 2762 2771 
303 337 6 336 2767 2763 2758 2754 2771 2760 
304 6 337 7 2770 2763 2768 2772 2773 2774 
337 6 40 7 2763 2764 2766 2774 2773 2775 
7 40 338 41 2775 2776 2777 2778 2779 2780 
304 338 305 7 2781 2782 2783 2772 2777 2784 
7 40 337 338 2775 2766 2774 2777 2776 2785 
304 338 7 337 2781 2777 2772 2768 2785 2774 
305 7 338 8 2784 2777 2782 2786 2787 2788 
338 7 41 8 2777 2778 2780 2788 2787 2789 
8 41 339 42 2789 2790 2791 2792 2793 2794 
305 339 306 8 2795 2796 2797 2786 2791 2798 
8 41 338 339 2789 2780 2788 2791 2790 2799 
305 339 8 338 2795 2791 2786 2782 2799 2788 
306 8 339 9 2798 2791 2796 2800 2801 2802 
339 8 42 9 2791 2792 2794 2802 2801 2803 
9 42 340 43 2803 2804 2805 2806 2807 2808 
306 340 307 9 2809 2810 2811 2800 2805 2812 
9 42 339 340 2803 2794 2802 2805 2804 2813 
306 340 9 339 2809 2805 2800 2796 2813 2802 
307 9 340 10 2812 2805 2810 2814 2815 2816 
340 9 43 10 2805 2806 2808 2816 2815 2817 
10 43 341 44 2817 2818 2819 2820 2821 2822 
307 341 308 10 2823 2824 2825 2814 2819 2826 
10 43 340 341 2817 2808 2816 2819 2818 2827 
307 341 10 340 2823 2819 2814 2810 2827 2816 
308 10 341 11 2826 2819 2824 2828 2829 2830 
341 10 44 11 2819 2820 2822 2830 2829 2831 
11 44 342 45 2831 2832 2833 2834 2835 2836 
308 342 309 11 2837 2838 2839 2828 2833 2840 
11 44 341 342 2831 2822 2830 2833 2832 2841 
308 342 11 341 2837 2833 2828 2824 2841 2830 
309 11 342 12 2840 2833 2838 2842 2843 2844 
342 11 45 12 2833 2834 2836 2844 2843 2845 
12 45 343 46 2845 2846 2847 2848 2849 2850 
309 343 310 12 2851 2852 2853 2842 2847 2854 
12 45 342 343 2845 2836 2844 2847 2846 2855 
309 343 12 342 2851 2847 2842 2838 2855 2844 
310 12 343 13 2854 2847 2852 2856 2857 2858 
343 12 46 13 2847 2848 2850 2858 2857 2859 
13 46 344 47 2859 2860 2861 2862 2863 2864 
310 344 311 13 2865 2866 2867 2856 2861 2868 
13 46 343 344 2859 2850 2858 2861 2860 2869 
310 344 13 343 2865 2861 2856 2852 2869 2858 
311 13 344 14 2868 2861 2866 2870 2871 2872 
344 13 47 14 2861 2862 2864 2872 2871 2873 
14 47 345 48 2873 2874 2875 2876 2877 2878 
311 345 312 14 2879 2880 2881 2870 2875 2882 
14 47 344 345 2873 2864 2872 2875 2874 2883 
311 345 14 344 2879 2875 2870 2866 2883 2872 
312 14 345 15 2882 2875 2880 2884 2885 2886 
345 14 48 15 2875 2876 2878 2886 2885 2887 
15 48 346 49 2887 2888 2889 2890 2891 2892 
312 346 313 15 2893 2894 2895 2884 2889 2896 
15 48 345 346 2887 2878 2886 2889 2888 2897 
312 346 15 345 2893 2889 2884 2880 2897 2886 
313 15 346 16 2896 2889 2894 2898 2899 2900 
346 15 49 16 2889 2890 2892 2900 2899 2901 
16 49 347 50 2901 2902 2903 2904 2905 2906 
313 347 314 16 2907 2908 2909 2898 2903 2910 
16 49 346 347 2901 2892 2900 2903 2902 2911 
313 347 16 346 2907 2903 2898 2894 2911 2900 
314 16 347 17 2910 2903 2908 2912 2913 2914 
347 16 50 17 2903 2904 2906 2914 2913 2915 
17 50 348 51 2915 2916 2917 2918 2919 2920 
314 348 315 17 2921 2922 2923 2912 2917 2924 
17 50 347 348 2915 2906 2914 2917 2916 2925 
314 348 17 347 2921 2917 2912 2908 2925 2914 
315 17 348 18 2924 2917 2922 2926 2927 2928 
348 17 51 18 2917 2918 2920 2928 2927 2929 
18 51 349 52 2929 2930 2931 2932 2933 2934 
315 349 316 18 2935 2936 2937 2926 2931 2938 
18 51 348 349 2929 2920 2928 2931 2930 2939 
315 349 18 348 2935 2931 2926 2922 2939 2928 
316 18 349 19 2938 2931 2936 2940 2941 2942 
349 18 52 19 2931 2932 2934 2942 2941 2943 
19 52 350 53 2943 2944 2945 2946 2947 2948 
316 350 317 19 2949 2950 2951 2940 2945 2952 
19 52 349 350 2943 2934 2942 2945 2944 2953 
316 350 19 349 2949 2945 2940 2936 2953 2942 
317 19 350 20 2952 2945 2950 2954 2955 2956 
350 19 53 20 2945 2946 2948 2956 2955 2957 
20 53 351 54 2957 2958 2959 2960 2961 2962 
317 351 318 20 2963 2964 2965 2954 2959 2966 
20 53 350 351 2957 2948 2956 2959 2958 2967 
317 351 20 350 2963 2959 2954 2950 2967 2956 
318 20 351 21 2966 2959 2964 2968 2969 2970 
351 20 54 21 2959 2960 2962 2970 2969 2971 
21 54 352 55 2971 2972 2973 2974 2975 2976 
318 352 319 21 2977 2978 2979 2968 2973 2980 
21 54 351 352 2971 2962 2970 2973 2972 2981 
318 352 21 351 2977 2973 2968 2964 2981 2970 
319 21 352 22 2980 2973 2978 2982 2983 2984 
352 21 55 22 2973 2974 2976 2984 2983 2985 
22 55 353 56 2985 2986 2987 2988 2989 2990 
319 353 320 22 2991 2992 2993 2982 2987 2994 
22 55 352 353 2985 2976 2984 2987 2986 2995 
319 353 22 352 2991 2987 2982 2978 2995 2984 
320 22 353 23 2994 2987 2992 2996 2997 2998 
353 22 56 23 2987 2988 2990 2998 2997 2999 
23 56 354 57 2999 3000 3001 3002 3003 3004 
320 354 321 23 3005 3006 3007 2996 3001 3008 
23 56 353 354 2999 2990 2998 3001 3000 3009 
320 354 23 353 3005 3001 2996 2992 3009 2998 
321 23 354 24 3008 3001 3006 3010 3011 3012 
354 23 57 24 3001 3002 3004 3012 3011 3013 
24 57 355 58 3013 3014 3015 3016 3017 3018 
321 355 322 24 3019 3020 3021 3010 3015 3022 
24 57 354 355 3013 3004 3012 3015 3014 3023 
321 355 24 354 3019 3015 3010 3006 3023 3012 
322 24 355 25 3022 3015 3020 3024 3025 3026 
355 24 58 25 3015 3016 3018 3026 3025 3027 
25 58 356 59 3027 3028 3029 3030 3031 3032 
322 356 323 25 3033 3034 3035 3024 3029 3036 
25 58 355 356 3027 3018 3026 3029 3028 3037 
322 356 25 355 3033 3029 3024 3020 3037 3026 
323 25 356 26 3036 3029 3034 3038 3039 3040 
356 25 59 26 3029 3030 3032 3040 3039 3041 
26 59 357 60 3041 3042 3043 3044 3045 3046 
323 357 324 26 3047 3048 3049 3038 3043 3050 
26 59 356 357 3041 3032 3040 3043 3042 3051 
323 357 26 356 3047 3043 3038 3034 3051 3040 
324 26 357 27 3050 3043 3048 3052 3053 3054 
357 26 60 27 3043 3044 3046 3054 3053 3055 
27 60 358 61 3055 3056 3057 3058 3059 3060 
324 358 325 27 3061 3062 3063 3052 3057 3064 
27 60 357 358 3055 3046 3054 3057 3056 3065 
324 358 27 357 3061 3057 3052 3048 3065 3054 
325 27 358 28 3064 3057 3062 3066 3067 3068 
358 27 61 28 3057 3058 3060 3068 3067 3069 
28 61 359 62 3069 3070 3071 3072 3073 3074 
325 359 326 28 3075 3076 3077 3066 3071 3078 
28 61 358 359 3069 3060 3068 3071 3070 3079 
325 359 28 358 3075 3071 3066 3062 3079 3068 
326 28 359 29 3078 3071 3076 3080 3081 3082 
359 28 62 29 3071 3072 3074 3082 3081 3083 
29 62 360 63 3083 3084 3085 3086 3087 3088 
326 360 327 29 3089 3090 3091 3080 3085 3092 
29 62 359 360 3083 3074 3082 3085 3084 3093 
326 360 29 359 3089 3085 3080 3076 3093 3082 
327 29 360 30 3092 3085 3090 3094 3095 3096 
360 29 63 30 3085 3086 3088 3096 3095 3097 
30 63 361 64 3097 3098 3099 3100 3101 3102 
327 361 328 30 3103 3104 3105 3094 3099 3106 
30 63 360 361 3097 3088 3096 3099 3098 3107 
327 361 30 360 3103 3099 3094 3090 3107 3096 
328 30 361 31 3106 3099 3104 3108 3109 3110 
361 30 64 31 3099 3100 3102 3110 3109 3111 
31 64 362 65 3111 3112 3113 3114 3115 3116 
328 362 329 31 3117 3118 3119 3108 3113 3120 
31 64 361 362 3111 3102 3110 3113 3112 3121 
328 362 31 361 3117 3113 3108 3104 3121 3110 
329 31 362 32 3120 3113 3118 3122 3123 3124 
362 31 65 32 3113 3114 3116 3124 3123 3125 
33 66 364 67 3126 3127 3128 3129 3130 3131 
330 364 331 33 3132 3133 2686 2684 3128 2674 
33 66 363 364 3126 3134 3135 3128 3127 3136 
330 364 33 363 3132 3128 2684 3137 3136 3135 
331 33 364 34 2674 3128 3133 2678 2677 3138 
364 33 67 34 3128 3129 3131 3138 2677 3139 
34 67 365 68 3139 3140 3141 3142 3143 3144 
331 365 332 34 3145 3146 2701 2678 3141 2692 
34 67 364 365 3139 3131 3138 3141 3140 3147 
331 365 34 364 3145 3141 2678 3133 3147 3138 
332 34 365 35 2692 3141 3146 2696 2695 3148 
365 34 68 35 3141 3142 3144 3148 2695 3149 
35 68 366 69 3149 3150 3151 3152 3153 3154 
332 366 333 35 3155 3156 2715 2696 3151 2706 
35 68 365 366 3149 3144 3148 3151 3150 3157 
332 366 35 365 3155 3151 2696 3146 3157 3148 
333 35 366 36 2706 3151 3156 2710 2709 3158 
366 35 69 36 3151 3152 3154 3158 2709 3159 
36 69 367 70 3159 3160 3161 3162 3163 3164 
333 367 334 36 3165 3166 2729 2710 3161 2720 
36 69 366 367 3159 3154 3158 3161 3160 3167 
333 367 36 366 3165 3161 2710 3156 3167 3158 
334 36 367 37 2720 3161 3166 2724 2723 3168 
367 36 70 37 3161 3162 3164 3168 2723 3169 
37 70 368 71 3169 3170 3171 3172 3173 3174 
334 368 335 37 3175 3176 2743 2724 3171 2734 
37 70 367 368 3169 3164 3168 3171 3170 3177 
334 368 37 367 3175 3171 2724 3166 3177 3168 
335 37 368 38 2734 3171 3176 2738 2737 3178 
368 37 71 38 3171 3172 3174 3178 2737 3179 
38 71 369 72 3179 3180 3181 3182 3183 3184 
335 369 336 38 3185 3186 2757 2738 3181 2748 
38 71 368 369 3179 3174 3178 3181 3180 3187 
335 369 38 368 3185 3181 2738 3176 3187 3178 
336 38 369 39 2748 3181 3186 2752 2751 3188 
369 38 72 39 3181 3182 3184 3188 2751 3189 
39 72 370 73 3189 3190 3191 3192 3193 3194 
336 370 337 39 3195 3196 2771 2752 3191 2762 
39 72 369 370 3189 3184 3188 3191 3190 3197 
336 370 39 369 3195 3191 2752 3186 3197 3188 
337 39 370 40 2762 3191 3196 2766 2765 3198 
370 39 73 40 3191 3192 3194 3198 2765 3199 
40 73 371 74 3199 3200 3201 3202 3203 3204 
337 371 338 40 3205 3206 2785 2766 3201 2776 
40 73 370 371 3199 3194 3198 3201 3200 3207 
337 371 40 370 3205 3201 2766 3196 3207 3198 
338 40 371 41 2776 3201 3206 2780 2779 3208 
371 40 74 41 3201 3202 3204 3208 2779 3209 
41 74 372 75 3209 3210 3211 3212 3213 3214 
338 372 339 41 3215 3216 2799 2780 3211 2790 
41 74 371 372 3209 3204 3208 3211 3210 3217 
338 372 41 371 3215 3211 2780 3206 3217 3208 
339 41 372 42 2790 3211 3216 2794 2793 3218 
372 41 75 42 3211 3212 3214 3218 2793 3219 
42 75 373 76 3219 3220 3221 3222 3223 3224 
339 373 340 42 3225 3226 2813 2794 3221 2804 
42 75 372 373 3219 3214 3218 3221 3220 3227 
339 373 42 372 3225 3221 2794 3216 3227 3218 
340 42 373 43 2804 3221 3226 2808 2807 3228 
373 42 76 43 3221 3222 3224 3228 2807 3229 
43 76 374 77 3229 3230 3231 3232 3233 3234 
340 374 341 43 3235 3236 2827 2808 3231 2818 
43 76 373 374 3229 3224 3228 3231 3230 3237 
340 374 43 373 3235 3231 2808 3226 3237 3228 
341 43 374 44 2818 3231 3236 2822 2821 3238 
374 43 77 44 3231 3232 3234 3238 2821 3239 
44 77 375 78 3239 3240 3241 3242 3243 3244 
341 375 342 44 3245 3246 2841 2822 3241 2832 
44 77 374 375 3239 3234 3238 3241 3240 3247 
341 375 44 374 3245 3241 2822 3236 3247 3238 
342 44 375 45 2832 3241 3246 2836 2835 3248 
375 44 78 45 3241 3242 3244 3248 2835 3249 
45 78 376 79 3249 3250 3251 3252 3253 3254 
342 376 343 45 3255 3256 2855 2836 3251 2846 
45 78 375 376 3249 3244 3248 3251 3250 3257 
342 376 45 375 3255 3251 2836 3246 3257 3248 
343 45 376 46 2846 3251 3256 2850 2849 3258 
376 45 79 46 3251 3252 3254 3258 2849 3259 
46 79 377 80 3259 3260 3261 3262 3263 3264 
343 377 344 46 3265 3266 2869 2850 3261 2860 
46 79 376 377 3259 3254 3258 3261 3260 3267 
343 377 46 376 3265 3261 2850 3256 3267 3258 
344 46 377 47 2860 3261 3266 2864 2863 3268 
377 46 80 47 3261 3262 3264 3268 2863 3269 
47 80 378 81 3269 3270 3271 3272 3273 3274 
344 378 345 47 3275 3276 2883 2864 3271 2874 
47 80 377 378 3269 3264 3268 3271 3270 3277 
344 378 47 377 3275 3271 2864 3266 3277 3268 
345 47 378 48 2874 3271 3276 2878 2877 3278 
378 47 81 48 3271 3272 3274 3278 2877 3279 
48 81 379 82 3279 3280 3281 3282 3283 3284 
345 379 346 48 3285 3286 2897 2878 3281 2888 
48 81 378 379 3279 3274 3278 3281 3280 3287 
345 379 48 378 3285 3281 2878 3276 3287 3278 
346 48 379 49 2888 3281 3286 2892 2891 3288 
379 48 82 49 3281 3282 3284 3288 2891 3289 
49 82 380 83 3289 3290 3291 3292 3293 3294 
346 380 347 49 3295 3296 2911 2892 3291 2902 
49 82 379 380 3289 3284 3288 3291 3290 3297 
346 380 49 379 3295 3291 2892 3286 3297 3288 
347 49 380 50 2902 3291 3296 2906 2905 3298 
380 49 83 50 3291 3292 3294 3298 2905 3299 
50 83 381 84 3299 3300 3301 3302 3303 3304 
347 381 348 50 3305 3306 2925 2906 3301 2916 
50 83 380 381 3299 3294 3298 3301 3300 3307 
347 381 50 380 3305 3301 2906 3296 3307 3298 
348 50 381 51 2916 3301 3306 2920 2919 3308 
381 50 84 51 3301 3302 3304 3308 2919 3309 
51 84 382 85 3309 3310 3311 3312 3313 3314 
348 382 349 51 3315 3316 2939 2920 3311 2930 
51 84 381 382 3309 3304 3308 3311 3310 3317 
348 382 51 381 3315 3311 2920 3306 3317 3308 
349 51 382 52 2930 3311 3316 2934 2933 3318 
382 51 85 52 3311 3312 3314 3318 2933 3319 
52 85 383 86 3319 3320 3321 3322 3323 3324 
349 383 350 52 3325 3326 2953 2934 3321 2944 
52 85 382 383 3319 3314 3318 3321 3320 3327 
349 383 52 382 3325 3321 2934 3316 3327 3318 
350 52 383 53 2944 3321 3326 2948 2947 3328 
383 52 86 53 3321 3322 3324 3328 2947 3329 
53 86 384 87 3329 3330 3331 3332 3333 3334 
350 384 351 53 3335 3336 2967 2948 3331 2958 
53 86 383 384 3329 3324 3328 3331 3330 3337 
350 384 53 383 3335 3331 2948 3326 3337 3328 
351 53 384 54 2958 3331 3336 2962 2961 3338 
384 53 87 54 3331 3332 3334 3338 2961 3339 
54 87 385 88 3339 3340 3341 3342 3343 3344 
351 385 352 54 3345 3346 2981 2962 3341 2972 
54 87 384 385 3339 3334 3338 3341 3340 3347 
351 385 54 384 3345 3341 2962 3336 3347 3338 
352 54 385 55 2972 3341 3346 2976 2975 3348 
385 54 88 55 3341 3342 3344 3348 2975 3349 
55 88 386 89 3349 3350 3351 3352 3353 3354 
352 386 353 55 3355 3356 2995 2976 3351 2986 
55 88 385 386 3349 3344 3348 3351 3350 3357 
352 386 55 385 3355 3351 2976 3346 3357 3348 
353 55 386 56 2986 3351 3356 2990 2989 3358 
386 55 89 56 3351 3352 3354 3358 2989 3359 
56 89 387 90 3359 3360 3361 3362 3363 3364 
353 387 354 56 3365 3366 3009 2990 3361 3000 
56 89 386 387 3359 3354 3358 3361 3360 3367 
353 387 56 386 3365 3361 2990 3356 3367 3358 
354 56 387 57 3000 3361 3366 3004 3003 3368 
387 56 90 57 3361 3362 3364 3368 3003 3369 
57 90 388 91 3369 3370 3371 3372 3373 3374 
354 388 355 57 3375 3376 3023 3004 3371 3014 
57 90 387 388 3369 3364 3368 3371 3370 3377 
354 388 57 387 3375 3371 3004 3366 3377 3368 
355 57 388 58 3014 3371 3376 3018 3017 3378 
388 57 91 58 3371 3372 3374 3378 3017 3379 
58 91 389 92 3379 3380 3381 3382 3383 3384 
355 389 356 58 3385 3386 3037 3018 3381 3028 
58 91 388 389 3379 3374 3378 3381 3380 3387 
355 389 58 388 3385 3381 3018 3376 3387 3378 
356 58 389 59 3028 3381 3386 3032 3031 3388 
389 58 92 59 3381 3382 3384 3388 3031 3389 
59 92 390 93 3389 3390 3391 3392 3393 3394 
356 390 357 59 3395 3396 3051 3032 3391 3042 
59 92 389 390 3389 3384 3388 3391 3390 3397 
356 390 59 389 3395 3391 3032 3386 3397 3388 
357 59 390 60 3042 3391 3396 3046 3045 3398 
390 59 93 60 3391 3392 3394 3398 3045 3399 
60 93 391 94 3399 3400 3401 3402 3403 3404 
357 391 358 60 3405 3406 3065 3046 3401 3056 
60 93 390 391 3399 3394 3398 3401 3400 3407 
357 391 60 390 3405 3401 3046 3396 3407 3398 
358 60 391 61 3056 3401 3406 3060 3059 3408 
391 60 94 61 3401 3402 3404 3408 3059 3409 
61 94 392 95 3409 3410 3411 3412 3413 3414 
358 392 359 61 3415 3416 3079 3060 3411 3070 
61 94 391 392 3409 3404 3408 3411 3410 3417 
358 392 61 391 3415 3411 3060 3406 3417 3408 
359 61 392 62 3070 3411 3416 3074 3073 3418 
392 61 95 62 3411 3412 3414 3418 3073 3419 
62 95 393 96 3419 3420 3421 3422 3423 3424 
359 393 360 62 3425 3426 3093 3074 3421 3084 
62 95 392 393 3419 3414 3418 3421 3420 3427 
359 393 62 392 3425 3421 3074 3416 3427 3418 
360 62 393 63 3084 3421 3426 3088 3087 3428 
393 62 96 63 3421 3422 3424 3428 3087 3429 
63 96 394 97 3429 3430 3431 3432 3433 3434 
360 394 361 63 3435 3436 3107 3088 3431 3098 
63 96 393 394 3429 3424 3428 3431 3430 3437 
360 394 63 393 3435 3431 3088 3426 3437 3428 
361 63 394 64 3098 3431 3436 3102 3101 3438 
394 63 97 64 3431 3432 3434 3438 3101 3439 
64 97 395 98 3439 3440 3441 3442 3443 3444 
361 395 362 64 3445 3446 3121 3102 3441 3112 
64 97 394 395 3439 3434 3438 3441 3440 3447 
361 395 64 394 3445 3441 3102 3436 3447 3438 
362 64 395 65 3112 3441 3446 3116 3115 3448 
395 64 98 65 3441 3442 3444 3448 3115 3449 
66 99 397 100 3450 3451 3452 3453 3454 3455 
363 397 364 66 3456 3457 3136 3134 3452 3127 
66 99 396 397 3450 3458 3459 3452 3451 3460 
363 397 66 396 3456 3452 3134 3461 3460 3459 
364 66 397 67 3127 3452 3457 3131 3130 3462 
397 66 100 67 3452 3453 3455 3462 3130 3463 
67 100 398 101 3463 3464 3465 3466 3467 3468 
364 398 365 67 3469 3470 3147 3131 3465 3140 
67 100 397 398 3463 3455 3462 3465 3464 3471 
364 398 67 397 3469 3465 3131 3457 3471 3462 
365 67 398 68 3140 3465 3470 3144 3143 3472 
398 67 101 68 3465 3466 3468 3472 3143 3473 
68 101 399 102 3473 3474 3475 3476 3477 3478 
365 399 366 68 3479 3480 3157 3144 3475 3150 
68 101 398 399 3473 3468 3472 3475 3474 3481 
365 399 68 398 3479 3475 3144 3470 3481 3472 
366 68 399 69 3150 3475 3480 3154 3153 3482 
399 68 102 69 3475 3476 3478 3482 3153 3483 
69 102 400 103 3483 3484 3485 3486 3487 3488 
366 400 367 69 3489 3490 3167 3154 3485 3160 
69 102 399 400 3483 3478 3482 3485 3484 3491 
366 400 69 399 3489 3485 3154 3480 3491 3482 
367 69 400 70 3160 3485 3490 3164 3163 3492 
400 69 103 70 3485 3486 3488 3492 3163 3493 
70 103 401 104 3493 3494 3495 3496 3497 3498 
367 401 368 70 3499 3500 3177 3164 3495 3170 
70 103 400 401 3493 3488 3492 3495 3494 3501 
367 401 70 400 3499 3495 3164 3490 3501 3492 
368 70 401 71 3170 3495 3500 3174 3173 3502 
401 70 104 71 3495 3496 3498 3502 3173 3503 
71 104 402 105 3503 3504 3505 3506 3507 3508 
368 402 369 71 3509 3510 3187 3174 3505 3180 
71 104 401 402 3503 3498 3502 3505 3504 3511 
368 402 71 401 3509 3505 3174 3500 3511 3502 
369 71 402 72 3180 3505 3510 3184 3183 3512 
402 71 105 72 3505 3506 3508 3512 3183 3513 
72 105 403 106 3513 3514 3515 3516 3517 3518 
369 403 370 72 3519 3520 3197 3184 3515 3190 
72 105 402 403 3513 3508 3512 3515 3514 3521 
369 403 72 402 3519 3515 3184 3510 3521 3512 
370 72 403 73 3190 3515 3520 3194 3193 3522 
403 72 106 73 3515 3516 3518 3522 3193 3523 
73 106 404 107 3523 3524 3525 3526 3527 3528 
370 404 371 73 3529 3530 3207 3194 3525 3200 
73 106 403 404 3523 3518 3522 3525 3524 3531 
370 404 73 403 3529 3525 3194 3520 3531 3522 
371 73 404 74 3200 3525 3530 3204 3203 3532 
404 73 107 74 3525 3526 3528 3532 3203 3533 
74 107 405 108 3533 3534 3535 3536 3537 3538 
371 405 372 74 3539 3540 3217 3204 3535 3210 
74 107 404 405 3533 3528 3532 3535 3534 3541 
371 405 74 404 3539 3535 3204 3530 3541 3532 
372 74 405 75 3210 3535 3540 3214 3213 3542 
405 74 108 75 3535 3536 3538 3542 3213 3543 
75 108 406 109 3543 3544 3545 3546 3547 3548 
372 406 373 75 3549 3550 3227 3214 3545 3220 
75 108 405 406 3543 3538 3542 3545 3544 3551 
372 406 75 405 3549 3545 3214 3540 3551 3542 
373 75 406 76 3220 3545 3550 3224 3223 3552 
406 75 109 76 3545 3546 3548 3552 3223 3553 
76 109 407 110 3553 3554 3555 3556 3557 3558 
373 407 374 76 3559 3560 3237 3224 3555 3230 
76 109 406 407 3553 3548 3552 3555 3554 3561 
373 407 76 406 3559 3555 3224 3550 3561 3552 
374 76 407 77 3230 3555 3560 3234 3233 3562 
407 76 110 77 3555 3556 3558 3562 3233 3563 
77 110 408 111 3563 3564 3565 3566 3567 3568 
374 408 375 77 3569 3570 3247 3234 3565 3240 
77 110 407 408 3563 3558 3562 3565 3564 3571 
374 408 77 407 3569 3565 3234 3560 3571 3562 
375 77 408 78 3240 3565 3570 3244 3243 3572 
408 77 111 78 3565 3566 3568 3572 3243 3573 
78 111 409 112 3573 3574 3575 3576 3577 3578 
375 409 376 78 3579 3580 3257 3244 3575 3250 
78 111 408 409 3573 3568 3572 3575 3574 3581 
375 409 78 408 3579 3575 3244 3570 3581 3572 
376 78 409 79 3250 3575 3580 3254 3253 3582 
409 78 112 79 3575 3576 3578 3582 3253 3583 
79 112 410 113 3583 3584 3585 3586 3587 3588 
376 410 377 79 3589 3590 3267 3254 3585 3260 
79 112 409 410 3583 3578 3582 3585 3584 3591 
376 410 79 409 3589 3585 3254 3580 3591 3582 
377 79 410 80 3260 3585 3590 3264 3263 3592 
410 79 113 80 3585 3586 3588 3592 3263 3593 
80 113 411 114 3593 3594 3595 3596 3597 3598 
377 411 378 80 3599 3600 3277 3264 3595 3270 
80 113 410 411 3593 3588 3592 3595 3594 3601 
377 411 80 410 3599 3595 3264 3590 3601 3592 
378 80 411 81 3270 3595 3600 3274 3273 3602 
411 80 114 81 3595 3596 3598 3602 3273 3603 
81 114 412 115 3603 3604 3605 3606 3607 3608 
378 412 379 81 3609 3610 3287 3274 3605 3280 
81 114 411 412 3603 3598 3602 3605 3604 3611 
378 412 81 411 3609 3605 3274 3600 3611 3602 
379 81 412 82 3280 3605 3610 3284 3283 3612 
412 81 115 82 3605 3606 3608 3612 3283 3613 
82 115 413 116 3613 3614 3615 3616 3617 3618 
379 413 380 82 3619 3620 3297 3284 3615 3290 
82 115 412 413 3613 3608 3612 3615 3614 3621 
379 413 82 412 3619 3615 3284 3610 3621 3612 
380 82 413 83 3290 3615 3620 3294 3293 3622 
413 82 116 83 3615 3616 3618 3622 3293 3623 
83 116 414 117 3623 3624 3625 3626 3627 3628 
380 414 381 83 3629 3630 3307 3294 3625 3300 
83 116 413 414 3623 3618 3622 3625 3624 3631 
380 414 83 413 3629 3625 3294 3620 3631 3622 
381 83 414 84 3300 3625 3630 3304 3303 3632 
414 83 117 84 3625 3626 3628 3632 3303 3633 
84 117 415 118 3633 3634 3635 3636 3637 3638 
381 415 382 84 3639 3640 3317 3304 3635 3310 
84 117 414 415 3633 3628 3632 3635 3634 3641 
381 415 84 414 3639 3635 3304 3630 3641 3632 
382 84 415 85 3310 3635 3640 3314 3313 3642 
415 84 118 85 3635 3636 3638 3642 3313 3643 
85 118 416 119 3643 3644 3645 3646 3647 3648 
382 416 383 85 3649 3650 3327 3314 3645 3320 
85 118 415 416 3643 3638 3642 3645 3644 3651 
382 416 85 415 3649 3645 3314 3640 3651 3642 
383 85 416 86 3320 3645 3650 3324 3323 3652 
416 85 119 86 3645 3646 3648 3652 3323 3653 
86 119 417 120 3653 3654 3655 3656 3657 3658 
383 417 384 86 3659 3660 3337 3324 3655 3330 
86 119 416 417 3653 3648 3652 3655 3654 3661 
383 417 86 416 3659 3655 3324 3650 3661 3652 
384 86 417 87 3330 3655 3660 3334 3333 3662 
417 86 120 87 3655 3656 3658 3662 3333 3663 
87 120 418 121 3663 3664 3665 3666 3667 3668 
384 418 385 87 3669 3670 3347 3334 3665 3340 
87 120 417 418 3663 3658 3662 3665 3664 3671 
384 418 87 417 3669 3665 3334 3660 3671 3662 
385 87 418 88 3340 3665 3670 3344 3343 3672 
418 87 121 88 3665 3666 3668 3672 3343 3673 
88 121 419 122 3673 3674 3675 3676 3677 3678 
385 419 386 88 3679 3680 3357 3344 3675 3350 
88 121 418 419 3673 3668 3672 3675 3674 3681 
385 419 88 418 3679 3675 3344 3670 3681 3672 
386 88 419 89 3350 3675 3680 3354 3353 3682 
419 88 122 89 3675 3676 3678 3682 3353 3683 
89 122 420 123 3683 3684 3685 3686 3687 3688 
386 420 387 89 3689 3690 3367 3354 3685 3360 
89 122 419 420 3683 3678 3682 3685 3684 3691 
386 420 89 419 3689 3685 3354 3680 3691 3682 
387 89 420 90 3360 3685 3690 3364 3363 3692 
420 89 123 90 3685 3686 3688 3692 3363 3693 
90 123 421 124 3693 3694 3695 3696 3697 3698 
387 421 388 90 3699 3700 3377 3364 3695 3370 
90 123 420 421 3693 3688 3692 3695 3694 3701 
387 421 90 420 3699 3695 3364 3690 3701 3692 
388 90 421 91 3370 3695 3700 3374 3373 3702 
421 90 124 91 3695 3696 3698 3702 3373 3703 
91 124 422 125 3703 3704 3705 3706 3707 3708 
388 422 389 91 3709 3710 3387 3374 3705 3380 
91 124 421 422 3703 3698 3702 3705 3704 3711 
388 422 91 421 3709 3705 3374 3700 3711 3702 
389 91 422 92 3380 3705 3710 3384 3383 3712 
422 91 125 92 3705 3706 3708 3712 3383 3713 
92 125 423 126 3713 3714 3715 3716 3717 3718 
389 423 390 92 3719 3720 3397 3384 3715 3390 
92 125 422 423 3713 3708 3712 3715 3714 3721 
389 423 92 422 3719 3715 3384 3710 3721 3712 
390 92 423 93 3390 3715 3720 3394 3393 3722 
423 92 126 93 3715 3716 3718 3722 3393 3723 
93 126 424 127 3723 3724 3725 3726 3727 3728 
390 424 391 93 3729 3730 3407 3394 3725 3400 
93 126 423 424 3723 3718 3722 3725 3724 3731 
390 424 93 423 3729 3725 3394 3720 3731 3722 
391 93 424 94 3400 3725 3730 3404 3403 3732 
424 93 127 94 3725 3726 3728 3732 3403 3733 
94 127 425 128 3733 3734 3735 3736 3737 3738 
391 425 392 94 3739 3740 3417 3404 3735 3410 
94 127 424 425 3733 3728 3732 3735 3734 3741 
391 425 94 424 3739 3735 3404 3730 3741 3732 
392 94 425 95 3410 3735 3740 3414 3413 3742 
425 94 128 95 3735 3736 3738 3742 3413 3743 
95 128 426 129 3743 3744 3745 3746 3747 3748 
392 426 393 95 3749 3750 3427 3414 3745 3420 
95 128 425 426 3743 3738 3742 3745 3744 3751 
392 426 95 425 3749 3745 3414 3740 3751 3742 
393 95 426 96 3420 3745 3750 3424 3423 3752 
426 95 129 96 3745 3746 3748 3752 3423 3753 
96 129 427 130 3753 3754 3755 3756 3757 3758 
393 427 394 96 3759 3760 3437 3424 3755 3430 
96 129 426 427 3753 3748 3752 3755 3754 3761 
393 427 96 426 3759 3755 3424 3750 3761 3752 
394 96 427 97 3430 3755 3760 3434 3433 3762 
427 96 130 97 3755 3756 3758 3762 3433 3763 
97 130 428 131 3763 3764 3765 3766 3767 3768 
394 428 395 97 3769 3770 3447 3434 3765 3440 
97 130 427 428 3763 3758 3762 3765 3764 3771 
394 428 97 427 3769 3765 3434 3760 3771 3762 
395 97 428 98 3440 3765 3770 3444 3443 3772 
428 97 131 98 3765 3766 3768 3772 3443 3773 
99 132 430 133 3774 3775 3776 3777 3778 3779 
396 430 397 99 3780 3781 3460 3458 3776 3451 
99 132 429 430 3774 3782 3783 3776 3775 3784 
396 430 99 429 3780 3776 3458 3785 3784 3783 
397 99 430 100 3451 3776 3781 3455 3454 3786 
430 99 133 100 3776 3777 3779 3786 3454 3787 
100 133 431 134 3787 3788 3789 3790 3791 3792 
397 431 398 100 3793 3794 3471 3455 3789 3464 
100 133 430 431 3787 3779 3786 3789 3788 3795 
397 431 100 430 3793 3789 3455 3781 3795 3786 
398 100 431 101 3464 3789 3794 3468 3467 3796 
431 100 134 101 3789 3790 3792 3796 3467 3797 
101 134 432 135 3797 3798 3799 3800 3801 3802 
398 432 399 101 3803 3804 3481 3468 3799 3474 
101 134 431 432 3797 3792 3796 3799 3798 3805 
398 432 101 431 3803 3799 3468 3794 3805 3796 
399 101 432 102 3474 3799 3804 3478 3477 3806 
432 101 135 102 3799 3800 3802 3806 3477 3807 
102 135 433 136 3807 3808 3809 3810 3811 3812 
399 433 400 102 3813 3814 3491 3478 3809 3484 
102 135 432 433 3807 3802 3806 3809 3808 3815 
399 433 102 432 3813 3809 3478 3804 3815 3806 
400 102 433 103 3484 3809 3814 3488 3487 3816 
433 102 136 103 3809 3810 3812 3816 3487 3817 
103 136 434 137 3817 3818 3819 3820 3821 3822 
400 434 401 103 3823 3824 3501 3488 3819 3494 
103 136 433 434 3817 3812 3816 3819 3818 3825 
400 434 103 433 3823 3819 3488 3814 3825 3816 
401 103 434 104 3494 3819 3824 3498 3497 3826 
434 103 137 104 3819 3820 3822 3826 3497 3827 
104 137 435 138 3827 3828 3829 3830 3831 3832 
401 435 402 104 3833 3834 3511 3498 3829 3504 
104 137 434 435 3827 3822 3826 3829 3828 3835 
401 435 104 434 3833 3829 3498 3824 3835 3826 
402 104 435 105 3504 3829 3834 3508 3507 3836 
435 104 138 105 3829 3830 3832 3836 3507 3837 
105 138 436 139 3837 3838 3839 3840 3841 3842 
402 436 403 105 3843 3844 3521 3508 3839 3514 
105 138 435 436 3837 3832 3836 3839 3838 3845 
402 436 105 435 3843 3839 3508 3834 3845 3836 
403 105 436 106 3514 3839 3844 3518 3517 3846 
436 105 139 106 3839 3840 3842 3846 3517 3847 
106 139 437 140 3847 3848 3849 3850 3851 3852 
403 437 404 106 3853 3854 3531 3518 3849 3524 
106 139 436 437 3847 3842 3846 3849 3848 3855 
403 437 106 436 3853 3849 3518 3844 3855 3846 
404 106 437 107 3524 3849 3854 3528 3527 3856 
437 106 140 107 3849 3850 3852 3856 3527 3857 
107 140 438 141 3857 3858 3859 3860 3861 3862 
404 438 405 107 3863 3864 3541 3528 3859 3534 
107 140 437 438 3857 3852 3856 3859 3858 3865 
404 438 107 437 3863 3859 3528 3854 3865 3856 
405 107 438 108 3534 3859 3864 3538 3537 3866 
438 107 141 108 3859 3860 3862 3866 3537 3867 
108 141 439 142 3867 3868 3869 3870 3871 3872 
405 439 406 108 3873 3874 3551 3538 3869 3544 
108 141 438 439 3867 3862 3866 3869 3868 3875 
405 439 108 438 3873 3869 3538 3864 3875 3866 
406 108 439 109 3544 3869 3874 3548 3547 3876 
439 108 142 109 3869 3870 3872 3876 3547 3877 
109 142 440 143 3877 3878 3879 3880 3881 3882 
406 440 407 109 3883 3884 3561 3548 3879 3554 
109 142 439 440 3877 3872 3876 3879 3878 3885 
406 440 109 439 3883 3879 3548 3874 3885 3876 
407 109 440 110 3554 3879 3884 3558 3557 3886 
440 109 143 110 3879 3880 3882 3886 3557 3887 
110 143 441 144 3887 3888 3889 3890 3891 3892 
407 441 408 110 3893 3894 3571 3558 3889 3564 
110 143 440 441 3887 3882 3886 3889 3888 3895 
407 441 110 440 3893 3889 3558 3884 3895 3886 
408 110 441 111 3564 3889 3894 3568 3567 3896 
441 110 144 111 3889 3890 3892 3896 3567 3897 
111 144 442 145 3897 3898 3899 3900 3901 3902 
408 442 409 111 3903 3904 3581 3568 3899 3574 
111 144 441 442 3897 3892 3896 3899 3898 3905 
408 442 111 441 3903 3899 3568 3894 3905 3896 
409 111 442 112 3574 3899 3904 3578 3577 3906 
442 111 145 112 3899 3900 3902 3906 3577 3907 
112 145 443 146 3907 3908 3909 3910 3911 3912 
409 443 410 112 3913 3914 3591 3578 3909 3584 
112 145 442 443 3907 3902 3906 3909 3908 3915 
409 443 112 442 3913 3909 3578 3904 3915 3906 
410 112 443 113 3584 3909 3914 3588 3587 3916 
443 112 146 113 3909 3910 3912 3916 3587 3917 
113 146 444 147 3917 3918 3919 3920 3921 3922 
410 444 411 113 3923 3924 3601 3588 3919 3594 
113 146 443 444 3917 3912 3916 3919 3918 3925 
410 444 113 443 3923 3919 3588 3914 3925 3916 
411 113 444 114 3594 3919 3924 3598 3597 3926 
444 113 147 114 3919 3920 3922 3926 3597 3927 
114 147 445 148 3927 3928 3929 3930 3931 3932 
411 445 412 114 3933 3934 3611 3598 3929 3604 
114 147 444 445 3927 3922 3926 3929 3928 3935 
411 445 114 444 3933 3929 3598 3924 3935 3926 
412 114 445 115 3604 3929 3934 3608 3607 3936 
445 114 148 115 3929 3930 3932 3936 3607 3937 
115 148 446 149 3937 3938 3939 3940 3941 3942 
412 446 413 115 3943 3944 3621 3608 3939 3614 
115 148 445 446 3937 3932 3936 3939 3938 3945 
412 446 115 445 3943 3939 3608 3934 3945 3936 
413 115 446 116 3614 3939 3944 3618 3617 3946 
446 115 149 116 3939 3940 3942 3946 3617 3947 
116 149 447 150 3947 3948 3949 3950 3951 3952 
413 447 414 116 3953 3954 3631 3618 3949 3624 
116 149 446 447 3947 3942 3946 3949 3948 3955 
413 447 116 446 3953 3949 3618 3944 3955 3946 
414 116 447 117 3624 3949 3954 3628 3627 3956 
447 116 150 117 3949 3950 3952 3956 3627 3957 
117 150 448 151 3957 3958 3959 3960 3961 3962 
414 448 415 117 3963 3964 3641 3628 3959 3634 
117 150 447 448 3957 3952 3956 3959 3958 3965 
414 448 117 447 3963 3959 3628 3954 3965 3956 
415 117 448 118 3634 3959 3964 3638 3637 3966 
448 117 151 118 3959 3960 3962 3966 3637 3967 
118 151 449 152 3967 3968 3969 3970 3971 3972 
415 449 416 118 3973 3974 3651 3638 3969 3644 
118 151 448 449 3967 3962 3966 3969 3968 3975 
415 449 118 448 3973 3969 3638 3964 3975 3966 
416 118 449 119 3644 3969 3974 3648 3647 3976 
449 118 152 119 3969 3970 3972 3976 3647 3977 
119 152 450 153 3977 3978 3979 3980 3981 3982 
416 450 417 119 3983 3984 3661 3648 3979 3654 
119 152 449 450 3977 3972 3976 3979 3978 3985 
416 450 119 449 3983 3979 3648 3974 3985 3976 
417 119 450 120 3654 3979 3984 3658 3657 3986 
450 119 153 120 3979 3980 3982 3986 3657 3987 
120 153 451 154 3987 3988 3989 3990 3991 3992 
417 451 418 120 3993 3994 3671 3658 3989 3664 
120 153 450 451 3987 3982 3986 3989 3988 3995 
417 451 120 450 3993 3989 3658 3984 3995 3986 
418 120 451 121 3664 3989 3994 3668 3667 3996 
451 120 154 121 3989 3990 3992 3996 3667 3997 
121 154 452 155 3997 3998 3999 4000 4001 4002 
418 452 419 121 4003 4004 3681 3668 3999 3674 
121 154 451 452 3997 3992 3996 3999 3998 4005 
418 452 121 451 4003 3999 3668 3994 4005 3996 
419 121 452 122 3674 3999 4004 3678 3677 4006 
452 121 155 122 3999 4000 4002 4006 3677 4007 
122 155 453 156 4007 4008 4009 4010 4011 4012 
419 453 420 122 4013 4014 3691 3678 4009 3684 
122 155 452 453 4007 4002 4006 4009 4008 4015 
419 453 122 452 4013 4009 3678 4004 4015 4006 
420 122 453 123 3684 4009 4014 3688 3687 4016 
453 122 156 123 4009 4010 4012 4016 3687 4017 
123 156 454 157 4017 4018 4019 4020 4021 4022 
420 454 421 123 4023 4024 3701 3688 4019 3694 
123 156 453 454 4017 4012 4016 4019 4018 4025 
420 454 123 453 4023 4019 3688 4014 4025 4016 
421 123 454 124 3694 4019 4024 3698 3697 4026 
454 123 157 124 4019 4020 4022 4026 3697 4027 
124 157 455 158 4027 4028 4029 4030 4031 4032 
421 455 422 124 4033 4034 3711 3698 4029 3704 
124 157 454 455 4027 4022 4026 4029 4028 4035 
421 455 124 454 4033 4029 3698 4024 4035 4026 
422 124 455 125 3704 4029 4034 3708 3707 4036 
455 124 158 125 4029 4030 4032 4036 3707 4037 
125 158 456 159 4037 4038 4039 4040 4041 4042 
422 456 423 125 4043 4044 3721 3708 4039 3714 
125 158 455 456 4037 4032 4036 4039 4038 4045 
422 456 125 455 4043 4039 3708 4034 4045 4036 
423 125 456 126 3714 4039 4044 3718 3717 4046 
456 125 159 126 4039 4040 4042 4046 3717 4047 
126 159 457 160 4047 4048 4049 4050 4051 4052 
423 457 424 126 4053 4054 3731 3718 4049 3724 
126 159 456 457 4047 4042 4046 4049 4048 4055 
423 457 126 456 4053 4049 3718 4044 4055 4046 
424 126 457 127 3724 4049 4054 3728 3727 4056 
457 126 160 127 4049 4050 4052 4056 3727 4057 
127 160 458 161 4057 4058 4059 4060 4061 4062 
424 458 425 127 4063 4064 3741 3728 4059 3734 
127 160 457 458 4057 4052 4056 4059 4058 4065 
424 458 127 457 4063 4059 3728 4054 4065 4056 
425 127 458 128 3734 4059 4064 3738 3737 4066 
458 127 161 128 4059 4060 4062 4066 3737 4067 
128 161 459 162 4067 4068 4069 4070 4071 4072 
425 459 426 128 4073 4074 3751 3738 4069 3744 
128 161 458 459 4067 4062 4066 4069 4068 4075 
425 459 128 458 4073 4069 3738 4064 4075 4066 
426 128 459 129 3744 4069 4074 3748 3747 4076 
459 128 162 129 4069 4070 4072 4076 3747 4077 
129 162 460 163 4077 4078 4079 4080 4081 4082 
426 460 427 129 4083 4084 3761 3748 4079 3754 
129 162 459 460 4077 4072 4076 4079 4078 4085 
426 460 129 459 4083 4079 3748 4074 4085 4076 
427 129 460 130 3754 4079 4084 3758 3757 4086 
460 129 163 130 4079 4080 4082 4086 3757 4087 
130 163 461 164 4087 4088 4089 4090 4091 4092 
427 461 428 130 4093 4094 3771 3758 4089 3764 
130 163 460 461 4087 4082 4086 4089 4088 4095 
427 461 130 460 4093 4089 3758 4084 4095 4086 
428 130 461 131 3764 4089 4094 3768 3767 4096 
461 130 164 131 4089 4090 4092 4096 3767 4097 
132 165 463 166 4098 4099 4100 4101 4102 4103 
429 463 430 132 4104 4105 3784 3782 4100 3775 
132 165 462 463 4098 4106 4107 4100 4099 4108 
429 463 132 462 4104 4100 3782 4109 4108 4107 
430 132 463 133 3775 4100 4105 3779 3778 4110 
463 132 166 133 4100 4101 4103 4110 3778 4111 
133 166 464 167 4111 4112 4113 4114 4115 4116 
430 464 431 133 4117 4118 3795 3779 4113 3788 
133 166 463 464 4111 4103 4110 4113 4112 4119 
430 464 133 463 4117 4113 3779 4105 4119 4110 
431 133 464 134 3788 4113 4118 3792 3791 4120 
464 133 167 134 4113 4114 4116 4120 3791 4121 
134 167 465 168 4121 4122 4123 4124 4125 4126 
431 465 432 134 4127 4128 3805 3792 4123 3798 
134 167 464 465 4121 4116 4120 4123 4122 4129 
431 465 134 464 4127 4123 3792 4118 4129 4120 
432 134 465 135 3798 4123 4128 3802 3801 4130 
465 134 168 135 4123 4124 4126 4130 3801 4131 
135 168 466 169 4131 4132 4133 4134 4135 4136 
432 466 433 135 4137 4138 3815 3802 4133 3808 
135 168 465 466 4131 4126 4130 4133 4132 4139 
432 466 135 465 4137 4133 3802 4128 4139 4130 
433 135 466 136 3808 4133 4138 3812 3811 4140 
466 135 169 136 4133 4134 4136 4140 3811 4141 
136 169 467 170 4141 4142 4143 4144 4145 4146 
433 467 434 136 4147 4148 3825 3812 4143 3818 
136 169 466 467 4141 4136 4140 4143 4142 4149 
433 467 136 466 4147 4143 3812 4138 4149 4140 
434 136 467 137 3818 4143 4148 3822 3821 4150 
467 136 170 137 4143 4144 4146 4150 3821 4151 
137 170 468 171 4151 4152 4153 4154 4155 4156 
434 468 435 137 4157 4158 3835 3822 4153 3828 
137 170 467 468 4151 4146 4150 4153 4152 4159 
434 468 137 467 4157 4153 3822 4148 4159 4150 
435 137 468 138 3828 4153 4158 3832 3831 4160 
468 137 171 138 4153 4154 4156 4160 3831 4161 
138 171 469 172 4161 4162 4163 4164 4165 4166 
435 469 436 138 4167 4168 3845 3832 4163 3838 
138 171 468 469 4161 4156 4160 4163 4162 4169 
435 469 138 468 4167 4163 3832 4158 4169 4160 
436 138 469 139 3838 4163 4168 3842 3841 4170 
469 138 172 139 4163 4164 4166 4170 3841 4171 
139 172 470 173 4171 4172 4173 4174 4175 4176 
436 470 437 139 4177 4178 3855 3842 4173 3848 
139 172 469 470 4171 4166 4170 4173 4172 4179 
436 470 139 469 4177 4173 3842 4168 4179 4170 
437 139 470 140 3848 4173 4178 3852 3851 4180 
470 139 173 140 4173 4174 4176 4180 3851 4181 
140 173 471 174 4181 4182 4183 4184 4185 4186 
437 471 438 140 4187 4188 3865 3852 4183 3858 
140 173 470 471 4181 4176 4180 4183 4182 4189 
437 471 140 470 4187 4183 3852 4178 4189 4180 
438 140 471 141 3858 4183 4188 3862 3861 4190 
471 140 174 141 4183 4184 4186 4190 3861 4191 
141 174 472 175 4191 4192 4193 4194 4195 4196 
438 472 439 141 4197 4198 3875 3862 4193 3868 
141 174 471 472 4191 4186 4190 4193 4192 4199 
438 472 141 471 4197 4193 3862 4188 4199 4190 
439 141 472 142 3868 4193 4198 3872 3871 4200 
472 141 175 142 4193 4194 4196 4200 3871 4201 
142 175 473 176 4201 4202 4203 4204 4205 4206 
439 473 440 142 4207 4208 3885 3872 4203 3878 
142 175 472 473 4201 4196 4200 4203 4202 4209 
439 473 142 472 4207 4203 3872 4198 4209 4200 
440 142 473 143 3878 4203 4208 3882 3881 4210 
473 142 176 143 4203 4204 4206 4210 3881 4211 
143 176 474 177 4211 4212 4213 4214 4215 4216 
440 474 441 143 4217 4218 3895 3882 4213 3888 
143 176 473 474 4211 4206 4210 4213 4212 4219 
440 474 143 473 4217 4213 3882 4208 4219 4210 
441 143 474 144 3888 4213 4218 3892 3891 4220 
474 143 177 144 4213 4214 4216 4220 3891 4221 
144 177 475 178 4221 4222 4223 4224 4225 4226 
441 475 442 144 4227 4228 3905 3892 4223 3898 
144 177 474 475 4221 4216 4220 4223 4222 4229 
441 475 144 474 4227 4223 3892 4218 4229 4220 
442 144 475 145 3898 4223 4228 3902 3901 4230 
475 144 178 145 4223 4224 4226 4230 3901 4231 
145 178 476 179 4231 4232 4233 4234 4235 4236 
442 476 443 145 4237 4238 3915 3902 4233 3908 
145 178 475 476 4231 4226 4230 4233 4232 4239 
442 476 145 475 4237 4233 3902 4228 4239 4230 
443 145 476 146 3908 4233 4238 3912 3911 4240 
476 145 179 146 4233 4234 4236 4240 3911 4241 
146 179 477 180 4241 4242 4243 4244 4245 4246 
443 477 444 146 4247 4248 3925 3912 4243 3918 
146 179 476 477 4241 4236 4240 4243 4242 4249 
443 477 146 476 4247 4243 3912 4238 4249 4240 
444 146 477 147 3918 4243 4248 3922 3921 4250 
477 146 180 147 4243 4244 4246 4250 3921 4251 
147 180 478 181 4251 4252 4253 4254 4255 4256 
444 478 445 147 4257 4258 3935 3922 4253 3928 
147 180 477 478 4251 4246 4250 4253 4252 4259 
444 478 147 477 4257 4253 3922 4248 4259 4250 
445 147 478 148 3928 4253 4258 3932 3931 4260 
478 147 181 148 4253 4254 4256 4260 3931 4261 
148 181 479 182 4261 4262 4263 4264 4265 4266 
445 479 446 148 4267 4268 3945 3932 4263 3938 
148 181 478 479 4261 4256 4260 4263 4262 4269 
445 479 148 478 4267 4263 3932 4258 4269 4260 
446 148 479 149 3938 4263 4268 3942 3941 4270 
479 148 182 149 4263 4264 4266 4270 3941 4271 
149 182 480 183 4271 4272 4273 4274 4275 4276 
446 480 447 149 4277 4278 3955 3942 4273 3948 
149 182 479 480 4271 4266 4270 4273 4272 4279 
446 480 149 479 4277 4273 3942 4268 4279 4270 
447 149 480 150 3948 4273 4278 3952 3951 4280 
480 149 183 150 4273 4274 4276 4280 3951 4281 
150 183 481 184 4281 4282 4283 4284 4285 4286 
447 481 448 150 4287 4288 3965 3952 4283 3958 
150 183 480 481 4281 4276 4280 4283 4282 4289 
447 481 150 480 4287 4283 3952 4278 4289 4280 
448 150 481 151 3958 4283 4288 3962 3961 4290 
481 150 184 151 4283 4284 4286 4290 3961 4291 
151 184 482 185 4291 4292 4293 4294 4295 4296 
448 482 449 151 4297 4298 3975 3962 4293 3968 
151 184 481 482 4291 4286 4290 4293 4292 4299 
448 482 151 481 4297 4293 3962 4288 4299 4290 
449 151 482 152 3968 4293 4298 3972 3971 4300 
482 151 185 152 4293 4294 4296 4300 3971 4301 
152 185 483 186 4301 4302 4303 4304 4305 4306 
449 483 450 152 4307 4308 3985 3972 4303 3978 
152 185 482 483 4301 4296 4300 4303 4302 4309 
449 483 152 482 4307 4303 3972 4298 4309 4300 
450 152 483 153 3978 4303 4308 3982 3981 4310 
483 152 186 153 4303 4304 4306 4310 3981 4311 
153 186 484 187 4311 4312 4313 4314 4315 4316 
450 484 451 153 4317 4318 3995 3982 4313 3988 
153 186 483 484 4311 4306 4310 4313 4312 4319 
450 484 153 483 4317 4313 3982 4308 4319 4310 
451 153 484 154 3988 4313 4318 3992 3991 4320 
484 153 187 154 4313 4314 4316 4320 3991 4321 
154 187 485 188 4321 4322 4323 4324 4325 4326 
451 485 452 154 4327 4328 4005 3992 4323 3998 
154 187 484 485 4321 4316 4320 4323 4322 4329 
451 485 154 484 4327 4323 3992 4318 4329 4320 
452 154 485 155 3998 4323 4328 4002 4001 4330 
485 154 188 155 4323 4324 4326 4330 4001 4331 
155 188 486 189 4331 4332 4333 4334 4335 4336 
452 486 453 155 4337 4338 4015 4002 4333 4008 
155 188 485 486 4331 4326 4330 4333 4332 4339 
452 486 155 485 4337 4333 4002 4328 4339 4330 
453 155 486 156 4008 4333 4338 4012 4011 4340 
486 155 189 156 4333 4334 4336 4340 4011 4341 
156 189 487 190 4341 4342 4343 4344 4345 4346 
453 487 454 156 4347 4348 4025 4012 4343 4018 
156 189 486 487 4341 4336 4340 4343 4342 4349 
453 487 156 486 4347 4343 4012 4338 4349 4340 
454 156 487 157 4018 4343 4348 4022 4021 4350 
487 156 190 157 4343 4344 4346 4350 4021 4351 
157 190 488 191 4351 4352 4353 4354 4355 4356 
454 488 455 157 4357 4358 4035 4022 4353 4028 
157 190 487 488 4351 4346 4350 4353 4352 4359 
454 488 157 487 4357 4353 4022 4348 4359 4350 
455 157 488 158 4028 4353 4358 4032 4031 4360 
488 157 191 158 4353 4354 4356 4360 4031 4361 
158 191 489 192 4361 4362 4363 4364 4365 4366 
455 489 456 158 4367 4368 4045 4032 4363 4038 
158 191 488 489 4361 4356 4360 4363 4362 4369 
455 489 158 488 4367 4363 4032 4358 4369 4360 
456 158 489 159 4038 4363 4368 4042 4041 4370 
489 158 192 159 4363 4364 4366 4370 4041 4371 
159 192 490 193 4371 4372 4373 4374 4375 4376 
456 490 457 159 4377 4378 4055 4042 4373 4048 
159 192 489 490 4371 4366 4370 4373 4372 4379 
456 490 159 489 4377 4373 4042 4368 4379 4370 
457 159 490 160 4048 4373 4378 4052 4051 4380 
490 159 193 160 4373 4374 4376 4380 4051 4381 
160 193 491 194 4381 4382 4383 4384 4385 4386 
457 491 458 160 4387 4388 4065 4052 4383 4058 
160 193 490 491 4381 4376 4380 4383 4382 4389 
457 491 160 490 4387 4383 4052 4378 4389 4380 
458 160 491 161 4058 4383 4388 4062 4061 4390 
491 160 194 161 4383 4384 4386 4390 4061 4391 
161 194 492 195 4391 4392 4393 4394 4395 4396 
458 492 459 161 4397 4398 4075 4062 4393 4068 
161 194 491 492 4391 4386 4390 4393 4392 4399 
458 492 161 491 4397 4393 4062 4388 4399 4390 
459 161 492 162 4068 4393 4398 4072 4071 4400 
492 161 195 162 4393 4394 4396 4400 4071 4401 
162 195 493 196 4401 4402 4403 4404 4405 4406 
459 493 460 162 4407 4408 4085 4072 4403 4078 
162 195 492 493 4401 4396 4400 4403 4402 4409 
459 493 162 492 4407 4403 4072 4398 4409 4400 
460 162 493 163 4078 4403 4408 4082 4081 4410 
493 162 196 163 4403 4404 4406 4410 4081 4411 
163 196 494 197 4411 4412 4413 4414 4415 4416 
460 494 461 163 4417 4418 4095 4082 4413 4088 
163 196 493 494 4411 4406 4410 4413 4412 4419 
460 494 163 493 4417 4413 4082 4408 4419 4410 
461 163 494 164 4088 4413 4418 4092 4091 4420 
494 163 197 164 4413 4414 4416 4420 4091 4421 
165 198 496 199 4422 4423 4424 4425 4426 4427 
462 496 463 165 4428 4429 4108 4106 4424 4099 
165 198 495 496 4422 4430 4431 4424 4423 4432 
462 496 165 495 4428 4424 4106 4433 4432 4431 
463 165 496 166 4099 4424 4429 4103 4102 4434 
496 165 199 166 4424 4425 4427 4434 4102 4435 
166 199 497 200 4435 4436 4437 4438 4439 4440 
463 497 464 166 4441 4442 4119 4103 4437 4112 
166 199 496 497 4435 4427 4434 4437 4436 4443 
463 497 166 496 4441 4437 4103 4429 4443 4434 
464 166 497 167 4112 4437 4442 4116 4115 4444 
497 166 200 167 4437 4438 4440 4444 4115 4445 
167 200 498 201 4445 4446 4447 4448 4449 4450 
464 498 465 167 4451 4452 4129 4116 4447 4122 
167 200 497 498 4445 4440 4444 4447 4446 4453 
464 498 167 497 4451 4447 4116 4442 4453 4444 
465 167 498 168 4122 4447 4452 4126 4125 4454 
498 167 201 168 4447 4448 4450 4454 4125 4455 
168 201 499 202 4455 4456 4457 4458 4459 4460 
465 499 466 168 4461 4462 4139 4126 4457 4132 
168 201 498 499 4455 4450 4454 4457 4456 4463 
465 499 168 498 4461 4457 4126 4452 4463 4454 
466 168 499 169 4132 4457 4462 4136 4135 4464 
499 168 202 169 4457 4458 4460 4464 4135 4465 
169 202 500 203 4465 4466 4467 4468 4469 4470 
466 500 467 169 4471 4472 4149 4136 4467 4142 
169 202 499 500 4465 4460 4464 4467 4466 4473 
466 500 169 499 4471 4467 4136 4462 4473 4464 
467 169 500 170 4142 4467 4472 4146 4145 4474 
500 169 203 170 4467 4468 4470 4474 4145 4475 
170 203 501 204 4475 4476 4477 4478 4479 4480 
467 501 468 170 4481 4482 4159 4146 4477 4152 
170 203 500 501 4475 4470 4474 4477 4476 4483 
467 501 170 500 4481 4477 4146 4472 4483 4474 
468 170 501 171 4152 4477 4482 4156 4155 4484 
501 170 204 171 4477 4478 4480 4484 4155 4485 
171 204 502 205 4485 4486 4487 4488 4489 4490 
468 502 469 171 4491 4492 4169 4156 4487 4162 
171 204 501 502 4485 4480 4484 4487 4486 4493 
468 502 171 501 4491 4487 4156 4482 4493 4484 
469 171 502 172 4162 4487 4492 4166 4165 4494 
502 171 205 172 4487 4488 4490 4494 4165 4495 
172 205 503 206 4495 4496 4497 4498 4499 4500 
469 503 470 172 4501 4502 4179 4166 4497 4172 
172 205 502 503 4495 4490 4494 4497 4496 4503 
469 503 172 502 4501 4497 4166 4492 4503 4494 
470 172 503 173 4172 4497 4502 4176 4175 4504 
503 172 206 173 4497 4498 4500 4504 4175 4505 
173 206 504 207 4505 4506 4507 4508 4509 4510 
470 504 471 173 4511 4512 4189 4176 4507 4182 
173 206 503 504 4505 4500 4504 4507 4506 4513 
470 504 173 503 4511 4507 4176 4502 4513 4504 
471 173 504 174 4182 4507 4512 4186 4185 4514 
504 173 207 174 4507 4508 4510 4514 4185 4515 
174 207 505 208 4515 4516 4517 4518 4519 4520 
471 505 472 174 4521 4522 4199 4186 4517 4192 
174 207 504 505 4515 4510 4514 4517 4516 4523 
471 505 174 504 4521 4517 4186 4512 4523 4514 
472 174 505 175 4192 4517 4522 4196 4195 4524 
505 174 208 175 4517 4518 4520 4524 4195 4525 
175 208 506 209 4525 4526 4527 4528 4529 4530 
472 506 473 175 4531 4532 4209 4196 4527 4202 
175 208 505 506 4525 4520 4524 4527 4526 4533 
472 506 175 505 4531 4527 4196 4522 4533 4524 
473 175 506 176 4202 4527 4532 4206 4205 4534 
506 175 209 176 4527 4528 4530 4534 4205 4535 
176 209 507 210 4535 4536 4537 4538 4539 4540 
473 507 474 176 4541 4542 4219 4206 4537 4212 
176 209 506 507 4535 4530 4534 4537 4536 4543 
473 507 176 506 4541 4537 4206 4532 4543 4534 
474 176 507 177 4212 4537 4542 4216 4215 4544 
507 176 210 177 4537 4538 4540 4544 4215 4545 
177 210 508 211 4545 4546 4547 4548 4549 4550 
474 508 475 177 4551 4552 4229 4216 4547 4222 
177 210 507 508 4545 4540 4544 4547 4546 4553 
474 508 177 507 4551 4547 4216 4542 4553 4544 
475 177 508 178 4222 4547 4552 4226 4225 4554 
508 177 211 178 4547 4548 4550 4554 4225 4555 
178 211 509 212 4555 4556 4557 4558 4559 4560 
475 509 476 178 4561 4562 4239 4226 4557 4232 
178 211 508 509 4555 4550 4554 4557 4556 4563 
475 509 178 508 4561 4557 4226 4552 4563 4554 
476 178 509 179 4232 4557 4562 4236 4235 4564 
509 178 212 179 4557 4558 4560 4564 4235 4565 
179 212 510 213 4565 4566 4567 4568 4569 4570 
476 510 477 179 4571 4572 4249 4236 4567 4242 
179 212 509 510 4565 4560 4564 4567 4566 4573 
476 510 179 509 4571 4567 4236 4562 4573 4564 
477 179 510 180 4242 4567 4572 4246 4245 4574 
510 179 213 180 4567 4568 4570 4574 4245 4575 
180 213 511 214 4575 4576 4577 4578 4579 4580 
477 511 478 180 4581 4582 4259 4246 4577 4252 
180 213 510 511 4575 4570 4574 4577 4576 4583 
477 511 180 510 4581 4577 4246 4572 4583 4574 
478 180 511 181 4252 4577 4582 4256 4255 4584 
511 180 214 181 4577 4578 4580 4584 4255 4585 
181 214 512 215 4585 4586 4587 4588 4589 4590 
478 512 479 181 4591 4592 4269 4256 4587 4262 
181 214 511 512 4585 4580 4584 4587 4586 4593 
478 512 181 511 4591 4587 4256 4582 4593 4584 
479 181 512 182 4262 4587 4592 4266 4265 4594 
512 181 215 182 4587 4588 4590 4594 4265 4595 
182 215 513 216 4595 4596 4597 4598 4599 4600 
479 513 480 182 4601 4602 4279 4266 4597 4272 
182 215 512 513 4595 4590 4594 4597 4596 4603 
479 513 182 512 4601 4597 4266 4592 4603 4594 
480 182 513 183 4272 4597 4602 4276 4275 4604 
513 182 216 183 4597 4598 4600 4604 4275 4605 
183 216 514 217 4605 4606 4607 4608 4609 4610 
480 514 481 183 4611 4612 4289 4276 4607 4282 
183 216 513 514 4605 4600 4604 4607 4606 4613 
480 514 183 513 4611 4607 4276 4602 4613 4604 
481 183 514 184 4282 4607 4612 4286 4285 4614 
514 183 217 184 4607 4608 4610 4614 4285 4615 
184 217 515 218 4615 4616 4617 4618 4619 4620 
481 515 482 184 4621 4622 4299 4286 4617 4292 
184 217 514 515 4615 4610 4614 4617 4616 4623 
481 515 184 514 4621 4617 4286 4612 4623 4614 
482 184 515 185 4292 4617 4622 4296 4295 4624 
515 184 218 185 4617 4618 4620 4624 4295 4625 
185 218 516 219 4625 4626 4627 4628 4629 4630 
482 516 483 185 4631 4632 4309 4296 4627 4302 
185 218 515 516 4625 4620 4624 4627 4626 4633 
482 516 185 515 4631 4627 4296 4622 4633 4624 
483 185 516 186 4302 4627 4632 4306 4305 4634 
516 185 219 186 4627 4628 4630 4634 4305 4635 
186 219 517 220 4635 4636 4637 4638 4639 4640 
483 517 484 186 4641 4642 4319 4306 4637 4312 
186 219 516 517 4635 4630 4634 4637 4636 4643 
483 517 186 516 4641 4637 4306 4632 4643 4634 
484 186 517 187 4312 4637 4642 4316 4315 4644 
517 186 220 187 4637 4638 4640 4644 4315 4645 
187 220 518 221 4645 4646 4647 4648 4649 4650 
484 518 485 187 4651 4652 4329 4316 4647 4322 
187 220 517 518 4645 4640 4644 4647 4646 4653 
484 518 187 517 4651 4647 4316 4642 4653 4644 
485 187 518 188 4322 4647 4652 4326 4325 4654 
518 187 221 188 4647 4648 4650 4654 4325 4655 
188 221 519 222 4655 4656 4657 4658 4659 4660 
485 519 486 188 4661 4662 4339 4326 4657 4332 
188 221 518 519 4655 4650 4654 4657 4656 4663 
485 519 188 518 4661 4657 4326 4652 4663 4654 
486 188 519 189 4332 4657 4662 4336 4335 4664 
519 188 222 189 4657 4658 4660 4664 4335 4665 
189 222 520 223 4665 4666 4667 4668 4669 4670 
486 520 487 189 4671 4672 4349 4336 4667 4342 
189 222 519 520 4665 4660 4664 4667 4666 4673 
486 520 189 519 4671 4667 4336 4662 4673 4664 
487 189 520 190 4342 4667 4672 4346 4345 4674 
520 189 223 190 4667 4668 4670 4674 4345 4675 
190 223 521 224 4675 4676 4677 4678 4679 4680 
487 521 488 190 4681 4682 4359 4346 4677 4352 
190 223 520 521 4675 4670 4674 4677 4676 4683 
487 521 190 520 4681 4677 4346 4672 4683 4674 
488 190 521 191 4352 4677 4682 4356 4355 4684 
521 190 224 191 4677 4678 4680 4684 4355 4685 
191 224 522 225 4685 4686 4687 4688 4689 4690 
488 522 489 191 4691 4692 4369 4356 4687 4362 
191 224 521 522 4685 4680 4684 4687 4686 4693 
488 522 191 521 4691 4687 4356 4682 4693 4684 
489 191 522 192 4362 4687 4692 4366 4365 4694 
522 191 225 192 4687 4688 4690 4694 4365 4695 
192 225 523 226 4695 4696 4697 4698 4699 4700 
489 523 490 192 4701 4702 4379 4366 4697 4372 
192 225 522 523 4695 4690 4694 4697 4696 4703 
489 523 192 522 4701 4697 4366 4692 4703 4694 
490 192 523 193 4372 4697 4702 4376 4375 4704 
523 192 226 193 4697 4698 4700 4704 4375 4705 
193 226 524 227 4705 4706 4707 4708 4709 4710 
490 524 491 193 4711 4712 4389 4376 4707 4382 
193 226 523 524 4705 4700 4704 4707 4706 4713 
490 524 193 523 4711 4707 4376 4702 4713 4704 
491 193 524 194 4382 4707 4712 4386 4385 4714 
524 193 227 194 4707 4708 4710 4714 4385 4715 
194 227 525 228 4715 4716 4717 4718 4719 4720 
491 525 492 194 4721 4722 4399 4386 4717 4392 
194 227 524 525 4715 4710 4714 4717 4716 4723 
491 525 194 524 4721 4717 4386 4712 4723 4714 
492 194 525 195 4392 4717 4722 4396 4395 4724 
525 194 228 195 4717 4718 4720 4724 4395 4725 
195 228 526 229 4725 4726 4727 4728 4729 4730 
492 526 493 195 4731 4732 4409 4396 4727 4402 
195 228 525 526 4725 4720 4724 4727 4726 4733 
492 526 195 525 4731 4727 4396 4722 4733 4724 
493 195 526 196 4402 4727 4732 4406 4405 4734 
526 195 229 196 4727 4728 4730 4734 4405 4735 
196 229 527 230 4735 4736 4737 4738 4739 4740 
493 527 494 196 4741 4742 4419 4406 4737 4412 
196 229 526 527 4735 4730 4734 4737 4736 4743 
493 527 196 526 4741 4737 4406 4732 4743 4734 
494 196 527 197 4412 4737 4742 4416 4415 4744 
527 196 230 197 4737 4738 4740 4744 4415 4745 
198 231 529 232 4746 4747 4748 4749 4750 4751 
495 529 496 198 4752 4753 4432 4430 4748 4423 
198 231 528 529 4746 4754 4755 4748 4747 4756 
495 529 198 528 4752 4748 4430 4757 4756 4755 
496 198 529 199 4423 4748 4753 4427 4426 4758 
529 198 232 199 4748 4749 4751 4758 4426 4759 
199 232 530 233 4759 4760 4761 4762 4763 4764 
496 530 497 199 4765 4766 4443 4427 4761 4436 
199 232 529 530 4759 4751 4758 4761 4760 4767 
496 530 199 529 4765 4761 4427 4753 4767 4758 
497 199 530 200 4436 4761 4766 4440 4439 4768 
530 199 233 200 4761 4762 4764 4768 4439 4769 
200 233 531 234 4769 4770 4771 4772 4773 4774 
497 531 498 200 4775 4776 4453 4440 4771 4446 
200 233 530 531 4769 4764 4768 4771 4770 4777 
497 531 200 530 4775 4771 4440 4766 4777 4768 
498 200 531 201 4446 4771 4776 4450 4449 4778 
531 200 234 201 4771 4772 4774 4778 4449 4779 
201 234 532 235 4779 4780 4781 4782 4783 4784 
498 532 499 201 4785 4786 4463 4450 4781 4456 
201 234 531 532 4779 4774 4778 4781 4780 4787 
498 532 201 531 4785 4781 4450 4776 4787 4778 
499 201 532 202 4456 4781 4786 4460 4459 4788 
532 201 235 202 4781 4782 4784 4788 4459 4789 
202 235 533 236 4789 4790 4791 4792 4793 4794 
499 533 500 202 4795 4796 4473 4460 4791 4466 
202 235 532 533 4789 4784 4788 4791 4790 4797 
499 533 202 532 4795 4791 4460 4786 4797 4788 
500 202 533 203 4466 4791 4796 4470 4469 4798 
533 202 236 203 4791 4792 4794 4798 4469 4799 
203 236 534 237 4799 4800 4801 4802 4803 4804 
500 534 501 203 4805 4806 4483 4470 4801 4476 
203 236 533 534 4799 4794 4798 4801 4800 4807 
500 534 203 533 4805 4801 4470 4796 4807 4798 
501 203 534 204 4476 4801 4806 4480 4479 4808 
534 203 237 204 4801 4802 4804 4808 4479 4809 
204 237 535 238 4809 4810 4811 4812 4813 4814 
501 535 502 204 4815 4816 4493 4480 4811 4486 
204 237 534 535 4809 4804 4808 4811 4810 4817 
501 535 204 534 4815 4811 4480 4806 4817 4808 
502 204 535 205 4486 4811 4816 4490 4489 4818 
535 204 238 205 4811 4812 4814 4818 4489 4819 
205 238 536 239 4819 4820 4821 4822 4823 4824 
502 536 503 205 4825 4826 4503 4490 4821 4496 
205 238 535 536 4819 4814 4818 4821 4820 4827 
502 536 205 535 4825 4821 4490 4816 4827 4818 
503 205 536 206 4496 4821 4826 4500 4499 4828 
536 205 239 206 4821 4822 4824 4828 4499 4829 
206 239 537 240 4829 4830 4831 4832 4833 4834 
503 537 504 206 4835 4836 4513 4500 4831 4506 
206 239 536 537 4829 4824 4828 4831 4830 4837 
503 537 206 536 4835 4831 4500 4826 4837 4828 
504 206 537 207 4506 4831 4836 4510 4509 4838 
537 206 240 207 4831 4832 4834 4838 4509 4839 
207 240 538 241 4839 4840 4841 4842 4843 4844 
504 538 505 207 4845 4846 4523 4510 4841 4516 
207 240 537 538 4839 4834 4838 4841 4840 4847 
504 538 207 537 4845 4841 4510 4836 4847 4838 
505 207 538 208 4516 4841 4846 4520 4519 4848 
538 207 241 208 4841 4842 4844 4848 4519 4849 
208 241 539 242 4849 4850 4851 4852 4853 4854 
505 539 506 208 4855 4856 4533 4520 4851 4526 
208 241 538 539 4849 4844 4848 4851 4850 4857 
505 539 208 538 4855 4851 4520 4846 4857 4848 
506 208 539 209 4526 4851 4856 4530 4529 4858 
539 208 242 209 4851 4852 4854 4858 4529 4859 
209 242 540 243 4859 4860 4861 4862 4863 4864 
506 540 507 209 4865 4866 4543 4530 4861 4536 
209 242 539 540 4859 4854 4858 4861 4860 4867 
506 540 209 539 4865 4861 4530 4856 4867 4858 
507 209 540 210 4536 4861 4866 4540 4539 4868 
540 209 243 210 4861 4862 4864 4868 4539 4869 
210 243 541 244 4869 4870 4871 4872 4873 4874 
507 541 508 210 4875 4876 4553 4540 4871 4546 
210 243 540 541 4869 4864 4868 4871 4870 4877 
507 541 210 540 4875 4871 4540 4866 4877 4868 
508 210 541 211 4546 4871 4876 4550 4549 4878 
541 210 244 211 4871 4872 4874 4878 4549 4879 
211 244 542 245 4879 4880 4881 4882 4883 4884 
508 542 509 211 4885 4886 4563 4550 4881 4556 
211 244 541 542 4879 4874 4878 4881 4880 4887 
508 542 211 541 4885 4881 4550 4876 4887 4878 
509 211 542 212 4556 4881 4886 4560 4559 4888 
542 211 245 212 4881 4882 4884 4888 4559 4889 
212 245 543 246 4889 4890 4891 4892 4893 4894 
509 543 510 212 4895 4896 4573 4560 4891 4566 
212 245 542 543 4889 4884 4888 4891 4890 4897 
509 543 212 542 4895 4891 4560 4886 4897 4888 
510 212 543 213 4566 4891 4896 4570 4569 4898 
543 212 246 213 4891 4892 4894 4898 4569 4899 
213 246 544 247 4899 4900 4901 4902 4903 4904 
510 544 511 213 4905 4906 4583 4570 4901 4576 
213 246 543 544 4899 4894 4898 4901 4900 4907 
510 544 213 543 4905 4901 4570 4896 4907 4898 
511 213 544 214 4576 4901 4906 4580 4579 4908 
544 213 247 214 4901 4902 4904 4908 4579 4909 
214 247 545 248 4909 4910 4911 4912 4913 4914 
511 545 512 214 4915 4916 4593 4580 4911 4586 
214 247 544 545 4909 4904 4908 4911 4910 4917 
511 545 214 544 4915 4911 4580 4906 4917 4908 
512 214 545 215 4586 4911 4916 4590 4589 4918 
545 214 248 215 4911 4912 4914 4918 4589 4919 
215 248 546 249 4919 4920 4921 4922 4923 4924 
512 546 513 215 4925 4926 4603 4590 4921 4596 
215 248 545 546 4919 4914 4918 4921 4920 4927 
512 546 215 545 4925 4921 4590 4916 4927 4918 
513 215 546 216 4596 4921 4926 4600 4599 4928 
546 215 249 216 4921 4922 4924 4928 4599 4929 
216 249 547 250 4929 4930 4931 4932 4933 4934 
513 547 514 216 4935 4936 4613 4600 4931 4606 
216 249 546 547 4929 4924 4928 4931 4930 4937 
513 547 216 546 4935 4931 4600 4926 4937 4928 
514 216 547 217 4606 4931 4936 4610 4609 4938 
547 216 250 217 4931 4932 4934 4938 4609 4939 
217 250 548 251 4939 4940 4941 4942 4943 4944 
514 548 515 217 4945 4946 4623 4610 4941 4616 
217 250 547 548 4939 4934 4938 4941 4940 4947 
514 548 217 547 4945 4941 4610 4936 4947 4938 
515 217 548 218 4616 4941 4946 4620 4619 4948 
548 217 251 218 4941 4942 4944 4948 4619 4949 
218 251 549 252 4949 4950 4951 4952 4953 4954 
515 549 516 218 4955 4956 4633 4620 4951 4626 
218 251 548 549 4949 4944 4948 4951 4950 4957 
515 549 218 548 4955 4951 4620 4946 4957 4948 
516 218 549 219 4626 4951 4956 4630 4629 4958 
549 218 252 219 4951 4952 4954 4958 4629 4959 
219 252 550 253 4959 4960 4961 4962 4963 4964 
516 550 517 219 4965 4966 4643 4630 4961 4636 
219 252 549 550 4959 4954 4958 4961 4960 4967 
516 550 219 549 4965 4961 4630 4956 4967 4958 
517 219 550 220 4636 4961 4966 4640 4639 4968 
550 219 253 220 4961 4962 4964 4968 4639 4969 
220 253 551 254 4969 4970 4971 4972 4973 4974 
517 551 518 220 4975 4976 4653 4640 4971 4646 
220 253 550 551 4969 4964 4968 4971 4970 4977 
517 551 220 550 4975 4971 4640 4966 4977 4968 
518 220 551 221 4646 4971 4976 4650 4649 4978 
551 220 254 221 4971 4972 4974 4978 4649 4979 
221 254 552 255 4979 4980 4981 4982 4983 4984 
518 552 519 221 4985 4986 4663 4650 4981 4656 
221 254 551 552 4979 4974 4978 4981 4980 4987 
518 552 221 551 4985 4981 4650 4976 4987 4978 
519 221 552 222 4656 4981 4986 4660 4659 4988 
552 221 255 222 4981 4982 4984 4988 4659 4989 
222 255 553 256 4989 4990 4991 4992 4993 4994 
519 553 520 222 4995 4996 4673 4660 4991 4666 
222 255 552 553 4989 4984 4988 4991 4990 4997 
519 553 222 552 4995 4991 4660 4986 4997 4988 
520 222 553 223 4666 4991 4996 4670 4669 4998 
553 222 256 223 4991 4992 4994 4998 4669 4999 
223 256 554 257 4999 5000 5001 5002 5003 5004 
520 554 521 223 5005 5006 4683 4670 5001 4676 
223 256 553 554 4999 4994 4998 5001 5000 5007 
520 554 223 553 5005 5001 4670 4996 5007 4998 
521 223 554 224 4676 5001 5006 4680 4679 5008 
554 223 257 224 5001 5002 5004 5008 4679 5009 
224 257 555 258 5009 5010 5011 5012 5013 5014 
521 555 522 224 5015 5016 4693 4680 5011 4686 
224 257 554 555 5009 5004 5008 5011 5010 5017 
521 555 224 554 5015 5011 4680 5006 5017 5008 
522 224 555 225 4686 5011 5016 4690 4689 5018 
555 224 258 225 5011 5012 5014 5018 4689 5019 
225 258 556 259 5019 5020 5021 5022 5023 5024 
522 556 523 225 5025 5026 4703 4690 5021 4696 
225 258 555 556 5019 5014 5018 5021 5020 5027 
522 556 225 555 5025 5021 4690 5016 5027 5018 
523 225 556 226 4696 5021 5026 4700 4699 5028 
556 225 259 226 5021 5022 5024 5028 4699 5029 
226 259 557 260 5029 5030 5031 5032 5033 5034 
523 557 524 226 5035 5036 4713 4700 5031 4706 
226 259 556 557 5029 5024 5028 5031 5030 5037 
523 557 226 556 5035 5031 4700 5026 5037 5028 
524 226 557 227 4706 5031 5036 4710 4709 5038 
557 226 260 227 5031 5032 5034 5038 4709 5039 
227 260 558 261 5039 5040 5041 5042 5043 5044 
524 558 525 227 5045 5046 4723 4710 5041 4716 
227 260 557 558 5039 5034 5038 5041 5040 5047 
524 558 227 557 5045 5041 4710 5036 5047 5038 
525 227 558 228 4716 5041 5046 4720 4719 5048 
558 227 261 228 5041 5042 5044 5048 4719 5049 
228 261 559 262 5049 5050 5051 5052 5053 5054 
525 559 526 228 5055 5056 4733 4720 5051 4726 
228 261 558 559 5049 5044 5048 5051 5050 5057 
525 559 228 558 5055 5051 4720 5046 5057 5048 
526 228 559 229 4726 5051 5056 4730 4729 5058 
559 228 262 229 5051 5052 5054 5058 4729 5059 
229 262 560 263 5059 5060 5061 5062 5063 5064 
526 560 527 229 5065 5066 4743 4730 5061 4736 
229 262 559 560 5059 5054 5058 5061 5060 5067 
526 560 229 559 5065 5061 4730 5056 5067 5058 
527 229 560 230 4736 5061 5066 4740 4739 5068 
560 229 263 230 5061 5062 5064 5068 4739 5069 
231 264 562 265 5070 5071 5072 5073 5074 5075 
528 562 529 231 5076 5077 4756 4754 5072 4747 
231 264 561 562 5070 5078 5079 5072 5071 5080 
528 562 231 561 5076 5072 4754 5081 5080 5079 
529 231 562 232 4747 5072 5077 4751 4750 5082 
562 231 265 232 5072 5073 5075 5082 4750 5083 
232 265 563 266 5083 5084 5085 5086 5087 5088 
529 563 530 232 5089 5090 4767 4751 5085 4760 
232 265 562 563 5083 5075 5082 5085 5084 5091 
529 563 232 562 5089 5085 4751 5077 5091 5082 
530 232 563 233 4760 5085 5090 4764 4763 5092 
563 232 266 233 5085 5086 5088 5092 4763 5093 
233 266 564 267 5093 5094 5095 5096 5097 5098 
530 564 531 233 5099 5100 4777 4764 5095 4770 
233 266 563 564 5093 5088 5092 5095 5094 5101 
530 564 233 563 5099 5095 4764 5090 5101 5092 
531 233 564 234 4770 5095 5100 4774 4773 5102 
564 233 267 234 5095 5096 5098 5102 4773 5103 
234 267 565 268 5103 5104 5105 5106 5107 5108 
531 565 532 234 5109 5110 4787 4774 5105 4780 
234 267 564 565 5103 5098 5102 5105 5104 5111 
531 565 234 564 5109 5105 4774 5100 5111 5102 
532 234 565 235 4780 5105 5110 4784 4783 5112 
565 234 268 235 5105 5106 5108 5112 4783 5113 
235 268 566 269 5113 5114 5115 5116 5117 5118 
532 566 533 235 5119 5120 4797 4784 5115 4790 
235 268 565 566 5113 5108 5112 5115 5114 5121 
532 566 235 565 5119 5115 4784 5110 5121 5112 
533 235 566 236 4790 5115 5120 4794 4793 5122 
566 235 269 236 5115 5116 5118 5122 4793 5123 
236 269 567 270 5123 5124 5125 5126 5127 5128 
533 567 534 236 5129 5130 4807 4794 5125 4800 
236 269 566 567 5123 5118 5122 5125 5124 5131 
533 567 236 566 5129 5125 4794 5120 5131 5122 
534 236 567 237 4800 5125 5130 4804 4803 5132 
567 236 270 237 5125 5126 5128 5132 4803 5133 
237 270 568 271 5133 5134 5135 5136 5137 5138 
534 568 535 237 5139 5140 4817 4804 5135 4810 
237 270 567 568 5133 5128 5132 5135 5134 5141 
534 568 237 567 5139 5135 4804 5130 5141 5132 
535 237 568 238 4810 5135 5140 4814 4813 5142 
568 237 271 238 5135 5136 5138 5142 4813 5143 
238 271 569 272 5143 5144 5145 5146 5147 5148 
535 569 536 238 5149 5150 4827 4814 5145 4820 
238 271 568 569 5143 5138 5142 5145 5144 5151 
535 569 238 568 5149 5145 4814 5140 5151 5142 
536 238 569 239 4820 5145 5150 4824 4823 5152 
569 238 272 239 5145 5146 5148 5152 4823 5153 
239 272 570 273 5153 5154 5155 5156 5157 5158 
536 570 537 239 5159 5160 4837 4824 5155 4830 
239 272 569 570 5153 5148 5152 5155 5154 5161 
536 570 239 569 5159 5155 4824 5150 5161 5152 
537 239 570 240 4830 5155 5160 4834 4833 5162 
570 239 273 240 5155 5156 5158 5162 4833 5163 
240 273 571 274 5163 5164 5165 5166 5167 5168 
537 571 538 240 5169 5170 4847 4834 5165 4840 
240 273 570 571 5163 5158 5162 5165 5164 5171 
537 571 240 570 5169 5165 4834 5160 5171 5162 
538 240 571 241 4840 5165 5170 4844 4843 5172 
571 240 274 241 5165 5166 5168 5172 4843 5173 
241 274 572 275 5173 5174 5175 5176 5177 5178 
538 572 539 241 5179 5180 4857 4844 5175 4850 
241 274 571 572 5173 5168 5172 5175 5174 5181 
538 572 241 571 5179 5175 4844 5170 5181 5172 
539 241 572 242 4850 5175 5180 4854 4853 5182 
572 241 275 242 5175 5176 5178 5182 4853 5183 
242 275 573 276 5183 5184 5185 5186 5187 5188 
539 573 540 242 5189 5190 4867 4854 5185 4860 
242 275 572 573 5183 5178 5182 5185 5184 5191 
539 573 242 572 5189 5185 4854 5180 5191 5182 
540 242 573 243 4860 5185 5190 4864 4863 5192 
573 242 276 243 5185 5186 5188 5192 4863 5193 
243 276 574 277 5193 5194 5195 5196 5197 5198 
540 574 541 243 5199 5200 4877 4864 5195 4870 
243 276 573 574 5193 5188 5192 5195 5194 5201 
540 574 243 573 5199 5195 4864 5190 5201 5192 
541 243 574 244 4870 5195 5200 4874 4873 5202 
574 243 277 244 5195 5196 5198 5202 4873 5203 
244 277 575 278 5203 5204 5205 5206 5207 5208 
541 575 542 244 5209 5210 4887 4874 5205 4880 
244 277 574 575 5203 5198 5202 5205 5204 5211 
541 575 244 574 5209 5205 4874 5200 5211 5202 
542 244 575 245 4880 5205 5210 4884 4883 5212 
575 244 278 245 5205 5206 5208 5212 4883 5213 
245 278 576 279 5213 5214 5215 5216 5217 5218 
542 576 543 245 5219 5220 4897 4884 5215 4890 
245 278 575 576 5213 5208 5212 5215 5214 5221 
542 576 245 575 5219 5215 4884 5210 5221 5212 
543 245 576 246 4890 5215 5220 4894 4893 5222 
576 245 279 246 5215 5216 5218 5222 4893 5223 
246 279 577 280 5223 5224 5225 5226 5227 5228 
543 577 544 246 5229 5230 4907 4894 5225 4900 
246 279 576 577 5223 5218 5222 5225 5224 5231 
543 577 246 576 5229 5225 4894 5220 5231 5222 
544 246 577 247 4900 5225 5230 4904 4903 5232 
577 246 280 247 5225 5226 5228 5232 4903 5233 
247 280 578 281 5233 5234 5235 5236 5237 5238 
544 578 545 247 5239 5240 4917 4904 5235 4910 
247 280 577 578 5233 5228 5232 5235 5234 5241 
544 578 247 577 5239 5235 4904 5230 5241 5232 
545 247 578 248 4910 5235 5240 4914 4913 5242 
578 247 281 248 5235 5236 5238 5242 4913 5243 
248 281 579 282 5243 5244 5245 5246 5247 5248 
545 579 546 248 5249 5250 4927 4914 5245 4920 
248 281 578 579 5243 5238 5242 5245 5244 5251 
545 579 248 578 5249 5245 4914 5240 5251 5242 
546 248 579 249 4920 5245 5250 4924 4923 5252 
579 248 282 249 5245 5246 5248 5252 4923 5253 
249 282 580 283 5253 5254 5255 5256 5257 5258 
546 580 547 249 5259 5260 4937 4924 5255 4930 
249 282 579 580 5253 5248 5252 5255 5254 5261 
546 580 249 579 5259 5255 4924 5250 5261 5252 
547 249 580 250 4930 5255 5260 4934 4933 5262 
580 249 283 250 5255 5256 5258 5262 4933 5263 
250 283 581 284 5263 5264 5265 5266 5267 5268 
547 581 548 250 5269 5270 4947 4934 5265 4940 
250 283 580 581 5263 5258 5262 5265 5264 5271 
547 581 250 580 5269 5265 4934 5260 5271 5262 
548 250 581 251 4940 5265 5270 4944 4943 5272 
581 250 284 251 5265 5266 5268 5272 4943 5273 
251 284 582 285 5273 5274 5275 5276 5277 5278 
548 582 549 251 5279 5280 4957 4944 5275 4950 
251 284 581 582 5273 5268 5272 5275 5274 5281 
548 582 251 581 5279 5275 4944 5270 5281 5272 
549 251 582 252 4950 5275 5280 4954 4953 5282 
582 251 285 252 5275 5276 5278 5282 4953 5283 
252 285 583 286 5283 5284 5285 5286 5287 5288 
549 583 550 252 5289 5290 4967 4954 5285 4960 
252 285 582 583 5283 5278 5282 5285 5284 5291 
549 583 252 582 5289 5285 4954 5280 5291 5282 
550 252 583 253 4960 5285 5290 4964 4963 5292 
583 252 286 253 5285 5286 5288 5292 4963 5293 
253 286 584 287 5293 5294 5295 5296 5297 5298 
550 584 551 253 5299 5300 4977 4964 5295 4970 
253 286 583 584 5293 5288 5292 5295 5294 5301 
550 584 253 583 5299 5295 4964 5290 5301 5292 
551 253 584 254 4970 5295 5300 4974 4973 5302 
584 253 287 254 5295 5296 5298 5302 4973 5303 
254 287 585 288 5303 5304 5305 5306 5307 5308 
551 585 552 254 5309 5310 4987 4974 5305 4980 
254 287 584 585 5303 5298 5302 5305 5304 5311 
551 585 254 584 5309 5305 4974 5300 5311 5302 
552 254 585 255 4980 5305 5310 4984 4983 5312 
585 254 288 255 5305 5306 5308 5312 4983 5313 
255 288 586 289 5313 5314 5315 5316 5317 5318 
552 586 553 255 5319 5320 4997 4984 5315 4990 
255 288 585 586 5313 5308 5312 5315 5314 5321 
552 586 255 585 5319 5315 4984 5310 5321 5312 
553 255 586 256 4990 5315 5320 4994 4993 5322 
586 255 289 256 5315 5316 5318 5322 4993 5323 
256 289 587 290 5323 5324 5325 5326 5327 5328 
553 587 554 256 5329 5330 5007 4994 5325 5000 
256 289 586 587 5323 5318 5322 5325 5324 5331 
553 587 256 586 5329 5325 4994 5320 5331 5322 
554 256 587 257 5000 5325 5330 5004 5003 5332 
587 256 290 257 5325 5326 5328 5332 5003 5333 
257 290 588 291 5333 5334 5335 5336 5337 5338 
554 588 555 257 5339 5340 5017 5004 5335 5010 
257 290 587 588 5333 5328 5332 5335 5334 5341 
554 588 257 587 5339 5335 5004 5330 5341 5332 
555 257 588 258 5010 5335 5340 5014 5013 5342 
588 257 291 258 5335 5336 5338 5342 5013 5343 
258 291 589 292 5343 5344 5345 5346 5347 5348 
555 589 556 258 5349 5350 5027 5014 5345 5020 
258 291 588 589 5343 5338 5342 5345 5344 5351 
555 589 258 588 5349 5345 5014 5340 5351 5342 
556 258 589 259 5020 5345 5350 5024 5023 5352 
589 258 292 259 5345 5346 5348 5352 5023 5353 
259 292 590 293 5353 5354 5355 5356 5357 5358 
556 590 557 259 5359 5360 5037 5024 5355 5030 
259 292 589 590 5353 5348 5352 5355 5354 5361 
556 590 259 589 5359 5355 5024 5350 5361 5352 
557 259 590 260 5030 5355 5360 5034 5033 5362 
590 259 293 260 5355 5356 5358 5362 5033 5363 
260 293 591 294 5363 5364 5365 5366 5367 5368 
557 591 558 260 5369 5370 5047 5034 5365 5040 
260 293 590 591 5363 5358 5362 5365 5364 5371 
557 591 260 590 5369 5365 5034 5360 5371 5362 
558 260 591 261 5040 5365 5370 5044 5043 5372 
591 260 294 261 5365 5366 5368 5372 5043 5373 
261 294 592 295 5373 5374 5375 5376 5377 5378 
558 592 559 261 5379 5380 5057 5044 5375 5050 
261 294 591 592 5373 5368 5372 5375 5374 5381 
558 592 261 591 5379 5375 5044 5370 5381 5372 
559 261 592 262 5050 5375 5380 5054 5053 5382 
592 261 295 262 5375 5376 5378 5382 5053 5383 
262 295 593 296 5383 5384 5385 5386 5387 5388 
559 593 560 262 5389 5390 5067 5054 5385 5060 
262 295 592 593 5383 5378 5382 5385 5384 5391 
559 593 262 592 5389 5385 5054 5380 5391 5382 
560 262 593 263 5060 5385 5390 5064 5063 5392 
593 262 296 263 5385 5386 5388 5392 5063 5393 
297 330 628 331 2687 5394 5395 2679 2686 5396 
594 628 595 297 5397 5398 5399 5400 5395 5401 
297 330 627 628 2687 5402 5403 5395 5394 5404 
594 628 297 627 5397 5395 5400 5405 5404 5403 
595 297 628 298 5401 5395 5398 5406 2681 5407 
628 297 331 298 5395 2679 5396 5407 2681 2680 
298 331 629 332 2680 5408 5409 2697 2701 5410 
595 629 596 298 5411 5412 5413 5406 5409 5414 
298 331 628 629 2680 5396 5407 5409 5408 5415 
595 629 298 628 5411 5409 5406 5398 5415 5407 
596 298 629 299 5414 5409 5412 5416 2699 5417 
629 298 332 299 5409 2697 5410 5417 2699 2698 
299 332 630 333 2698 5418 5419 2711 2715 5420 
596 630 597 299 5421 5422 5423 5416 5419 5424 
299 332 629 630 2698 5410 5417 5419 5418 5425 
596 630 299 629 5421 5419 5416 5412 5425 5417 
597 299 630 300 5424 5419 5422 5426 2713 5427 
630 299 333 300 5419 2711 5420 5427 2713 2712 
300 333 631 334 2712 5428 5429 2725 2729 5430 
597 631 598 300 5431 5432 5433 5426 5429 5434 
300 333 630 631 2712 5420 5427 5429 5428 5435 
597 631 300 630 5431 5429 5426 5422 5435 5427 
598 300 631 301 5434 5429 5432 5436 2727 5437 
631 300 334 301 5429 2725 5430 5437 2727 2726 
301 334 632 335 2726 5438 5439 2739 2743 5440 
598 632 599 301 5441 5442 5443 5436 5439 5444 
301 334 631 632 2726 5430 5437 5439 5438 5445 
598 632 301 631 5441 5439 5436 5432 5445 5437 
599 301 632 302 5444 5439 5442 5446 2741 5447 
632 301 335 302 5439 2739 5440 5447 2741 2740 
302 335 633 336 2740 5448 5449 2753 2757 5450 
599 633 600 302 5451 5452 5453 5446 5449 5454 
302 335 632 633 2740 5440 5447 5449 5448 5455 
599 633 302 632 5451 5449 5446 5442 5455 5447 
600 302 633 303 5454 5449 5452 5456 2755 5457 
633 302 336 303 5449 2753 5450 5457 2755 2754 
303 336 634 337 2754 5458 5459 2767 2771 5460 
600 634 601 303 5461 5462 5463 5456 5459 5464 
303 336 633 634 2754 5450 5457 5459 5458 5465 
600 634 303 633 5461 5459 5456 5452 5465 5457 
601 303 634 304 5464 5459 5462 5466 2769 5467 
634 303 337 304 5459 2767 5460 5467 2769 2768 
304 337 635 338 2768 5468 5469 2781 2785 5470 
601 635 602 304 5471 5472 5473 5466 5469 5474 
304 337 634 635 2768 5460 5467 5469 5468 5475 
601 635 304 634 5471 5469 5466 5462 5475 5467 
602 304 635 305 5474 5469 5472 5476 2783 5477 
635 304 338 305 5469 2781 5470 5477 2783 2782 
305 338 636 339 2782 5478 5479 2795 2799 5480 
602 636 603 305 5481 5482 5483 5476 5479 5484 
305 338 635 636 2782 5470 5477 5479 5478 5485 
602 636 305 635 5481 5479 5476 5472 5485 5477 
603 305 636 306 5484 5479 5482 5486 2797 5487 
636 305 339 306 5479 2795 5480 5487 2797 2796 
306 339 637 340 2796 5488 5489 2809 2813 5490 
603 637 604 306 5491 5492 5493 5486 5489 5494 
306 339 636 637 2796 5480 5487 5489 5488 5495 
603 637 306 636 5491 5489 5486 5482 5495 5487 
604 306 637 307 5494 5489 5492 5496 2811 5497 
637 306 340 307 5489 2809 5490 5497 2811 2810 
307 340 638 341 2810 5498 5499 2823 2827 5500 
604 638 605 307 5501 5502 5503 5496 5499 5504 
307 340 637 638 2810 5490 5497 5499 5498 5505 
604 638 307 637 5501 5499 5496 5492 5505 5497 
605 307 638 308 5504 5499 5502 5506 2825 5507 
638 307 341 308 5499 2823 5500 5507 2825 2824 
308 341 639 342 2824 5508 5509 2837 2841 5510 
605 639 606 308 5511 5512 5513 5506 5509 5514 
308 341 638 639 2824 5500 5507 5509 5508 5515 
605 639 308 638 5511 5509 5506 5502 5515 5507 
606 308 639 309 5514 5509 5512 5516 2839 5517 
639 308 342 309 5509 2837 5510 5517 2839 2838 
309 342 640 343 2838 5518 5519 2851 2855 5520 
606 640 607 309 5521 5522 5523 5516 5519 5524 
309 342 639 640 2838 5510 5517 5519 5518 5525 
606 640 309 639 5521 5519 5516 5512 5525 5517 
607 309 640 310 5524 5519 5522 5526 2853 5527 
640 309 343 310 5519 2851 5520 5527 2853 2852 
310 343 641 344 2852 5528 5529 2865 2869 5530 
607 641 608 310 5531 5532 5533 5526 5529 5534 
310 343 640 641 2852 5520 5527 5529 5528 5535 
607 641 310 640 5531 5529 5526 5522 5535 5527 
608 310 641 311 5534 5529 5532 5536 2867 5537 
641 310 344 311 5529 2865 5530 5537 2867 2866 
311 344 642 345 2866 5538 5539 2879 2883 5540 
608 642 609 311 5541 5542 5543 5536 5539 5544 
311 344 641 642 2866 5530 5537 5539 5538 5545 
608 642 311 641 5541 5539 5536 5532 5545 5537 
609 311 642 312 5544 5539 5542 5546 2881 5547 
642 311 345 312 5539 2879 5540 5547 2881 2880 
312 345 643 346 2880 5548 5549 2893 2897 5550 
609 643 610 312 5551 5552 5553 5546 5549 5554 
312 345 642 643 2880 5540 5547 5549 5548 5555 
609 643 312 642 5551 5549 5546 5542 5555 5547 
610 312 643 313 5554 5549 5552 5556 2895 5557 
643 312 346 313 5549 2893 5550 5557 2895 2894 
313 346 644 347 2894 5558 5559 2907 2911 5560 
610 644 611 313 5561 5562 5563 5556 5559 5564 
313 346 643 644 2894 5550 5557 5559 5558 5565 
610 644 313 643 5561 5559 5556 5552 5565 5557 
611 313 644 314 5564 5559 5562 5566 2909 5567 
644 313 347 314 5559 2907 5560 5567 2909 2908 
314 347 645 348 2908 5568 5569 2921 2925 5570 
611 645 612 314 5571 5572 5573 5566 5569 5574 
314 347 644 645 2908 5560 5567 5569 5568 5575 
611 645 314 644 5571 5569 5566 5562 5575 5567 
612 314 645 315 5574 5569 5572 5576 2923 5577 
645 314 348 315 5569 2921 5570 5577 2923 2922 
315 348 646 349 2922 5578 5579 2935 2939 5580 
612 646 613 315 5581 5582 5583 5576 5579 5584 
315 348 645 646 2922 5570 5577 5579 5578 5585 
612 646 315 645 5581 5579 5576 5572 5585 5577 
613 315 646 316 5584 5579 5582 5586 2937 5587 
646 315 349 316 5579 2935 5580 5587 2937 2936 
316 349 647 350 2936 5588 5589 2949 2953 5590 
613 647 614 316 5591 5592 5593 5586 5589 5594 
316 349 646 647 2936 5580 5587 5589 5588 5595 
613 647 316 646 5591 5589 5586 5582 5595 5587 
614 316 647 317 5594 5589 5592 5596 2951 5597 
647 316 350 317 5589 2949 5590 5597 2951 2950 
317 350 648 351 2950 5598 5599 2963 2967 5600 
614 648 615 317 5601 5602 5603 5596 5599 5604 
317 350 647 648 2950 5590 5597 5599 5598 5605 
614 648 317 647 5601 5599 5596 5592 5605 5597 
615 317 648 318 5604 5599 5602 5606 2965 5607 
648 317 351 318 5599 2963 5600 5607 2965 2964 
318 351 649 352 2964 5608 5609 2977 2981 5610 
615 649 616 318 5611 5612 5613 5606 5609 5614 
318 351 648 649 2964 5600 5607 5609 5608 5615 
615 649 318 648 5611 5609 5606 5602 5615 5607 
616 318 649 319 5614 5609 5612 5616 2979 5617 
649 318 352 319 5609 2977 5610 5617 2979 2978 
319 352 650 353 2978 5618 5619 2991 2995 5620 
616 650 617 319 5621 5622 5623 5616 5619 5624 
319 352 649 650 2978 5610 5617 5619 5618 5625 
616 650 319 649 5621 5619 5616 5612 5625 5617 
617 319 650 320 5624 5619 5622 5626 2993 5627 
650 319 353 320 5619 2991 5620 5627 2993 2992 
320 353 651 354 2992 5628 5629 3005 3009 5630 
617 651 618 320 5631 5632 5633 5626 5629 5634 
320 353 650 651 2992 5620 5627 5629 5628 5635 
617 651 320 650 5631 5629 5626 5622 5635 5627 
618 320 651 321 5634 5629 5632 5636 3007 5637 
651 320 354 321 5629 3005 5630 5637 3007 3006 
321 354 652 355 3006 5638 5639 3019 3023 5640 
618 652 619 321 5641 5642 5643 5636 5639 5644 
321 354 651 652 3006 5630 5637 5639 5638 5645 
618 652 321 651 5641 5639 5636 5632 5645 5637 
619 321 652 322 5644 5639 5642 5646 3021 5647 
652 321 355 322 5639 3019 5640 5647 3021 3020 
322 355 653 356 3020 5648 5649 3033 3037 5650 
619 653 620 322 5651 5652 5653 5646 5649 5654 
322 355 652 653 3020 5640 5647 5649 5648 5655 
619 653 322 652 5651 5649 5646 5642 5655 5647 
620 322 653 323 5654 5649 5652 5656 3035 5657 
653 322 356 323 5649 3033 5650 5657 3035 3034 
323 356 654 357 3034 5658 5659 3047 3051 5660 
620 654 621 323 5661 5662 5663 5656 5659 5664 
323 356 653 654 3034 5650 5657 5659 5658 5665 
620 654 323 653 5661 5659 5656 5652 5665 5657 
621 323 654 324 5664 5659 5662 5666 3049 5667 
654 323 357 324 5659 3047 5660 5667 3049 3048 
324 357 655 358 3048 5668 5669 3061 3065 5670 
621 655 622 324 5671 5672 5673 5666 5669 5674 
324 357 654 655 3048 5660 5667 5669 5668 5675 
621 655 324 654 5671 5669 5666 5662 5675 5667 
622 324 655 325 5674 5669 5672 5676 3063 5677 
655 324 358 325 5669 3061 5670 5677 3063 3062 
325 358 656 359 3062 5678 5679 3075 3079 5680 
622 656 623 325 5681 5682 5683 5676 5679 5684 
325 358 655 656 3062 5670 5677 5679 5678 5685 
622 656 325 655 5681 5679 5676 5672 5685 5677 
623 325 656 326 5684 5679 5682 5686 3077 5687 
656 325 359 326 5679 3075 5680 5687 3077 3076 
326 359 657 360 3076 5688 5689 3089 3093 5690 
623 657 624 326 5691 5692 5693 5686 5689 5694 
326 359 656 657 3076 5680 5687 5689 5688 5695 
623 657 326 656 5691 5689 5686 5682 5695 5687 
624 326 657 327 5694 5689 5692 5696 3091 5697 
657 326 360 327 5689 3089 5690 5697 3091 3090 
327 360 658 361 3090 5698 5699 3103 3107 5700 
624 658 625 327 5701 5702 5703 5696 5699 5704 
327 360 657 658 3090 5690 5697 5699 5698 5705 
624 658 327 657 5701 5699 5696 5692 5705 5697 
625 327 658 328 5704 5699 5702 5706 3105 5707 
658 327 361 328 5699 3103 5700 5707 3105 3104 
328 361 659 362 3104 5708 5709 3117 3121 5710 
625 659 626 328 5711 5712 5713 5706 5709 5714 
328 361 658 659 3104 5700 5707 5709 5708 5715 
625 659 328 658 5711 5709 5706 5702 5715 5707 
626 328 659 329 5714 5709 5712 5716 3119 5717 
659 328 362 329 5709 3117 5710 5717 3119 3118 
330 363 661 364 3137 5718 5719 3132 3136 5720 
627 661 628 330 5721 5722 5404 5402 5719 5394 
330 363 660 661 3137 5723 5724 5719 5718 5725 
627 661 330 660 5721 5719 5402 5726 5725 5724 
628 330 661 331 5394 5719 5722 5396 2686 5727 
661 330 364 331 5719 3132 5720 5727 2686 3133 
331 364 662 365 3133 5728 5729 3145 3147 5730 
628 662 629 331 5731 5732 5415 5396 5729 5408 
331 364 661 662 3133 5720 5727 5729 5728 5733 
628 662 331 661 5731 5729 5396 5722 5733 5727 
629 331 662 332 5408 5729 5732 5410 2701 5734 
662 331 365 332 5729 3145 5730 5734 2701 3146 
332 365 663 366 3146 5735 5736 3155 3157 5737 
629 663 630 332 5738 5739 5425 5410 5736 5418 
332 365 662 663 3146 5730 5734 5736 5735 5740 
629 663 332 662 5738 5736 5410 5732 5740 5734 
630 332 663 333 5418 5736 5739 5420 2715 5741 
663 332 366 333 5736 3155 5737 5741 2715 3156 
333 366 664 367 3156 5742 5743 3165 3167 5744 
630 664 631 333 5745 5746 5435 5420 5743 5428 
333 366 663 664 3156 5737 5741 5743 5742 5747 
630 664 333 663 5745 5743 5420 5739 5747 5741 
631 333 664 334 5428 5743 5746 5430 2729 5748 
664 333 367 334 5743 3165 5744 5748 2729 3166 
334 367 665 368 3166 5749 5750 3175 3177 5751 
631 665 632 334 5752 5753 5445 5430 5750 5438 
334 367 664 665 3166 5744 5748 5750 5749 5754 
631 665 334 664 5752 5750 5430 5746 5754 5748 
632 334 665 335 5438 5750 5753 5440 2743 5755 
665 334 368 335 5750 3175 5751 5755 2743 3176 
335 368 666 369 3176 5756 5757 3185 3187 5758 
632 666 633 335 5759 5760 5455 5440 5757 5448 
335 368 665 666 3176 5751 5755 5757 5756 5761 
632 666 335 665 5759 5757 5440 5753 5761 5755 
633 335 666 336 5448 5757 5760 5450 2757 5762 
666 335 369 336 5757 3185 5758 5762 2757 3186 
336 369 667 370 3186 5763 5764 3195 3197 5765 
633 667 634 336 5766 5767 5465 5450 5764 5458 
336 369 666 667 3186 5758 5762 5764 5763 5768 
633 667 336 666 5766 5764 5450 5760 5768 5762 
634 336 667 337 5458 5764 5767 5460 2771 5769 
667 336 370 337 5764 3195 5765 5769 2771 3196 
337 370 668 371 3196 5770 5771 3205 3207 5772 
634 668 635 337 5773 5774 5475 5460 5771 5468 
337 370 667 668 3196 5765 5769 5771 5770 5775 
634 668 337 667 5773 5771 5460 5767 5775 5769 
635 337 668 338 5468 5771 5774 5470 2785 5776 
668 337 371 338 5771 3205 5772 5776 2785 3206 
338 371 669 372 3206 5777 5778 3215 3217 5779 
635 669 636 338 5780 5781 5485 5470 5778 5478 
338 371 668 669 3206 5772 5776 5778 5777 5782 
635 669 338 668 5780 5778 5470 5774 5782 5776 
636 338 669 339 5478 5778 5781 5480 2799 5783 
669 338 372 339 5778 3215 5779 5783 2799 3216 
339 372 670 373 3216 5784 5785 3225 3227 5786 
636 670 637 339 5787 5788 5495 5480 5785 5488 
339 372 669 670 3216 5779 5783 5785 5784 5789 
636 670 339 669 5787 5785 5480 5781 5789 5783 
637 339 670 340 5488 5785 5788 5490 2813 5790 
670 339 373 340 5785 3225 5786 5790 2813 3226 
340 373 671 374 3226 5791 5792 3235 3237 5793 
637 671 638 340 5794 5795 5505 5490 5792 5498 
340 373 670 671 3226 5786 5790 5792 5791 5796 
637 671 340 670 5794 5792 5490 5788 5796 5790 
638 340 671 341 5498 5792 5795 5500 2827 5797 
671 340 374 341 5792 3235 5793 5797 2827 3236 
341 374 672 375 3236 5798 5799 3245 3247 5800 
638 672 639 341 5801 5802 5515 5500 5799 5508 
341 374 671 672 3236 5793 5797 5799 5798 5803 
638 672 341 671 5801 5799 5500 5795 5803 5797 
639 341 672 342 5508 5799 5802 5510 2841 5804 
672 341 375 342 5799 3245 5800 5804 2841 3246 
342 375 673 376 3246 5805 5806 3255 3257 5807 
639 673 640 342 5808 5809 5525 5510 5806 5518 
342 375 672 673 3246 5800 5804 5806 5805 5810 
639 673 342 672 5808 5806 5510 5802 5810 5804 
640 342 673 343 5518 5806 5809 5520 2855 5811 
673 342 376 343 5806 3255 5807 5811 2855 3256 
343 376 674 377 3256 5812 5813 3265 3267 5814 
640 674 641 343 5815 5816 5535 5520 5813 5528 
343 376 673 674 3256 5807 5811 5813 5812 5817 
640 674 343 673 5815 5813 5520 5809 5817 5811 
641 343 674 344 5528 5813 5816 5530 2869 5818 
674 343 377 344 5813 3265 5814 5818 2869 3266 
344 377 675 378 3266 5819 5820 3275 3277 5821 
641 675 642 344 5822 5823 5545 5530 5820 5538 
344 377 674 675 3266 5814 5818 5820 5819 5824 
641 675 344 674 5822 5820 5530 5816 5824 5818 
642 344 675 345 5538 5820 5823 5540 2883 5825 
675 344 378 345 5820 3275 5821 5825 2883 3276 
345 378 676 379 3276 5826 5827 3285 3287 5828 
642 676 643 345 5829 5830 5555 5540 5827 5548 
345 378 675 676 3276 5821 5825 5827 5826 5831 
642 676 345 675 5829 5827 5540 5823 5831 5825 
643 345 676 346 5548 5827 5830 5550 2897 5832 
676 345 379 346 5827 3285 5828 5832 2897 3286 
346 379 677 380 3286 5833 5834 3295 3297 5835 
643 677 644 346 5836 5837 5565 5550 5834 5558 
346 379 676 677 3286 5828 5832 5834 5833 5838 
643 677 346 676 5836 5834 5550 5830 5838 5832 
644 346 677 347 5558 5834 5837 5560 2911 5839 
677 346 380 347 5834 3295 5835 5839 2911 3296 
347 380 678 381 3296 5840 5841 3305 3307 5842 
644 678 645 347 5843 5844 5575 5560 5841 5568 
347 380 677 678 3296 5835 5839 5841 5840 5845 
644 678 347 677 5843 5841 5560 5837 5845 5839 
645 347 678 348 5568 5841 5844 5570 2925 5846 
678 347 381 348 5841 3305 5842 5846 2925 3306 
348 381 679 382 3306 5847 5848 3315 3317 5849 
645 679 646 348 5850 5851 5585 5570 5848 5578 
348 381 678 679 3306 5842 5846 5848 5847 5852 
645 679 348 678 5850 5848 5570 5844 5852 5846 
646 348 679 349 5578 5848 5851 5580 2939 5853 
679 348 382 349 5848 3315 5849 5853 2939 3316 
349 382 680 383 3316 5854 5855 3325 3327 5856 
646 680 647 349 5857 5858 5595 5580 5855 5588 
349 382 679 680 3316 5849 5853 5855 5854 5859 
646 680 349 679 5857 5855 5580 5851 5859 5853 
647 349 680 350 5588 5855 5858 5590 2953 5860 
680 349 383 350 5855 3325 5856 5860 2953 3326 
350 383 681 384 3326 5861 5862 3335 3337 5863 
647 681 648 350 5864 5865 5605 5590 5862 5598 
350 383 680 681 3326 5856 5860 5862 5861 5866 
647 681 350 680 5864 5862 5590 5858 5866 5860 
648 350 681 351 5598 5862 5865 5600 2967 5867 
681 350 384 351 5862 3335 5863 5867 2967 3336 
351 384 682 385 3336 5868 5869 3345 3347 5870 
648 682 649 351 5871 5872 5615 5600 5869 5608 
351 384 681 682 3336 5863 5867 5869 5868 5873 
648 682 351 681 5871 5869 5600 5865 5873 5867 
649 351 682 352 5608 5869 5872 5610 2981 5874 
682 351 385 352 5869 3345 5870 5874 2981 3346 
352 385 683 386 3346 5875 5876 3355 3357 5877 
649 683 650 352 5878 5879 5625 5610 5876 5618 
352 385 682 683 3346 5870 5874 5876 5875 5880 
649 683 352 682 5878 5876 5610 5872 5880 5874 
650 352 683 353 5618 5876 5879 5620 2995 5881 
683 352 386 353 5876 3355 5877 5881 2995 3356 
353 386 684 387 3356 5882 5883 3365 3367 5884 
650 684 651 353 5885 5886 5635 5620 5883 5628 
353 386 683 684 3356 5877 5881 5883 5882 5887 
650 684 353 683 5885 5883 5620 5879 5887 5881 
651 353 684 354 5628 5883 5886 5630 3009 5888 
684 353 387 354 5883 3365 5884 5888 3009 3366 
354 387 685 388 3366 5889 5890 3375 3377 5891 
651 685 652 354 5892 5893 5645 5630 5890 5638 
354 387 684 685 3366 5884 5888 5890 5889 5894 
651 685 354 684 5892 5890 5630 5886 5894 5888 
652 354 685 355 5638 5890 5893 5640 3023 5895 
685 354 388 355 5890 3375 5891 5895 3023 3376 
355 388 686 389 3376 5896 5897 3385 3387 5898 
652 686 653 355 5899 5900 5655 5640 5897 5648 
355 388 685 686 3376 5891 5895 5897 5896 5901 
652 686 355 685 5899 5897 5640 5893 5901 5895 
653 355 686 356 5648 5897 5900 5650 3037 5902 
686 355 389 356 5897 3385 5898 5902 3037 3386 
356 389 687 390 3386 5903 5904 3395 3397 5905 
653 687 654 356 5906 5907 5665 5650 5904 5658 
356 389 686 687 3386 5898 5902 5904 5903 5908 
653 687 356 686 5906 5904 5650 5900 5908 5902 
654 356 687 357 5658 5904 5907 5660 3051 5909 
687 356 390 357 5904 3395 5905 5909 3051 3396 
357 390 688 391 3396 5910 5911 3405 3407 5912 
654 688 655 357 5913 5914 5675 5660 5911 5668 
357 390 687 688 3396 5905 5909 5911 5910 5915 
654 688 357 687 5913 5911 5660 5907 5915 5909 
655 357 688 358 5668 5911 5914 5670 3065 5916 
688 357 391 358 5911 3405 5912 5916 3065 3406 
358 391 689 392 3406 5917 5918 3415 3417 5919 
655 689 656 358 5920 5921 5685 5670 5918 5678 
358 391 688 689 3406 5912 5916 5918 5917 5922 
655 689 358 688 5920 5918 5670 5914 5922 5916 
656 358 689 359 5678 5918 5921 5680 3079 5923 
689 358 392 359 5918 3415 5919 5923 3079 3416 
359 392 690 393 3416 5924 5925 3425 3427 5926 
656 690 657 359 5927 5928 5695 5680 5925 5688 
359 392 689 690 3416 5919 5923 5925 5924 5929 
656 690 359 689 5927 5925 5680 5921 5929 5923 
657 359 690 360 5688 5925 5928 5690 3093 5930 
690 359 393 360 5925 3425 5926 5930 3093 3426 
360 393 691 394 3426 5931 5932 3435 3437 5933 
657 691 658 360 5934 5935 5705 5690 5932 5698 
360 393 690 691 3426 5926 5930 5932 5931 5936 
657 691 360 690 5934 5932 5690 5928 5936 5930 
658 360 691 361 5698 5932 5935 5700 3107 5937 
691 360 394 361 5932 3435 5933 5937 3107 3436 
361 394 692 395 3436 5938 5939 3445 3447 5940 
658 692 659 361 5941 5942 5715 5700 5939 5708 
361 394 691 692 3436 5933 5937 5939 5938 5943 
658 692 361 691 5941 5939 5700 5935 5943 5937 
659 361 692 362 5708 5939 5942 5710 3121 5944 
692 361 395 362 5939 3445 5940 5944 3121 3446 
363 396 694 397 3461 5945 5946 3456 3460 5947 
660 694 661 363 5948 5949 5725 5723 5946 5718 
363 396 693 694 3461 5950 5951 5946 5945 5952 
660 694 363 693 5948 5946 5723 5953 5952 5951 
661 363 694 364 5718 5946 5949 5720 3136 5954 
694 363 397 364 5946 3456 5947 5954 3136 3457 
364 397 695 398 3457 5955 5956 3469 3471 5957 
661 695 662 364 5958 5959 5733 5720 5956 5728 
364 397 694 695 3457 5947 5954 5956 5955 5960 
661 695 364 694 5958 5956 5720 5949 5960 5954 
662 364 695 365 5728 5956 5959 5730 3147 5961 
695 364 398 365 5956 3469 5957 5961 3147 3470 
365 398 696 399 3470 5962 5963 3479 3481 5964 
662 696 663 365 5965 5966 5740 5730 5963 5735 
365 398 695 696 3470 5957 5961 5963 5962 5967 
662 696 365 695 5965 5963 5730 5959 5967 5961 
663 365 696 366 5735 5963 5966 5737 3157 5968 
696 365 399 366 5963 3479 5964 5968 3157 3480 
366 399 697 400 3480 5969 5970 3489 3491 5971 
663 697 664 366 5972 5973 5747 5737 5970 5742 
366 399 696 697 3480 5964 5968 5970 5969 5974 
663 697 366 696 5972 5970 5737 5966 5974 5968 
664 366 697 367 5742 5970 5973 5744 3167 5975 
697 366 400 367 5970 3489 5971 5975 3167 3490 
367 400 698 401 3490 5976 5977 3499 3501 5978 
664 698 665 367 5979 5980 5754 5744 5977 5749 
367 400 697 698 3490 5971 5975 5977 5976 5981 
664 698 367 697 5979 5977 5744 5973 5981 5975 
665 367 698 368 5749 5977 5980 5751 3177 5982 
698 367 401 368 5977 3499 5978 5982 3177 3500 
368 401 699 402 3500 5983 5984 3509 3511 5985 
665 699 666 368 5986 5987 5761 5751 5984 5756 
368 401 698 699 3500 5978 5982 5984 5983 5988 
665 699 368 698 5986 5984 5751 5980 5988 5982 
666 368 699 369 5756 5984 5987 5758 3187 5989 
699 368 402 369 5984 3509 5985 5989 3187 3510 
369 402 700 403 3510 5990 5991 3519 3521 5992 
666 700 667 369 5993 5994 5768 5758 5991 5763 
369 402 699 700 3510 5985 5989 5991 5990 5995 
666 700 369 699 5993 5991 5758 5987 5995 5989 
667 369 700 370 5763 5991 5994 5765 3197 5996 
700 369 403 370 5991 3519 5992 5996 3197 3520 
370 403 701 404 3520 5997 5998 3529 3531 5999 
667 701 668 370 6000 6001 5775 5765 5998 5770 
370 403 700 701 3520 5992 5996 5998 5997 6002 
667 701 370 700 6000 5998 5765 5994 6002 5996 
668 370 701 371 5770 5998 6001 5772 3207 6003 
701 370 404 371 5998 3529 5999 6003 3207 3530 
371 404 702 405 3530 6004 6005 3539 3541 6006 
668 702 669 371 6007 6008 5782 5772 6005 5777 
371 404 701 702 3530 5999 6003 6005 6004 6009 
668 702 371 701 6007 6005 5772 6001 6009 6003 
669 371 702 372 5777 6005 6008 5779 3217 6010 
702 371 405 372 6005 3539 6006 6010 3217 3540 
372 405 703 406 3540 6011 6012 3549 3551 6013 
669 703 670 372 6014 6015 5789 5779 6012 5784 
372 405 702 703 3540 6006 6010 6012 6011 6016 
669 703 372 702 6014 6012 5779 6008 6016 6010 
670 372 703 373 5784 6012 6015 5786 3227 6017 
703 372 406 373 6012 3549 6013 6017 3227 3550 
373 406 704 407 3550 6018 6019 3559 3561 6020 
670 704 671 373 6021 6022 5796 5786 6019 5791 
373 406 703 704 3550 6013 6017 6019 6018 6023 
670 704 373 703 6021 6019 5786 6015 6023 6017 
671 373 704 374 5791 6019 6022 5793 3237 6024 
704 373 407 374 6019 3559 6020 6024 3237 3560 
374 407 705 408 3560 6025 6026 3569 3571 6027 
671 705 672 374 6028 6029 5803 5793 6026 5798 
374 407 704 705 3560 6020 6024 6026 6025 6030 
671 705 374 704 6028 6026 5793 6022 6030 6024 
672 374 705 375 5798 6026 6029 5800 3247 6031 
705 374 408 375 6026 3569 6027 6031 3247 3570 
375 408 706 409 3570 6032 6033 3579 3581 6034 
672 706 673 375 6035 6036 5810 5800 6033 5805 
375 408 705 706 3570 6027 6031 6033 6032 6037 
672 706 375 705 6035 6033 5800 6029 6037 6031 
673 375 706 376 5805 6033 6036 5807 3257 6038 
706 375 409 376 6033 3579 6034 6038 3257 3580 
376 409 707 410 3580 6039 6040 3589 3591 6041 
673 707 674 376 6042 6043 5817 5807 6040 5812 
376 409 706 707 3580 6034 6038 6040 6039 6044 
673 707 376 706 6042 6040 5807 6036 6044 6038 
674 376 707 377 5812 6040 6043 5814 3267 6045 
707 376 410 377 6040 3589 6041 6045 3267 3590 
377 410 708 411 3590 6046 6047 3599 3601 6048 
674 708 675 377 6049 6050 5824 5814 6047 5819 
377 410 707 708 3590 6041 6045 6047 6046 6051 
674 708 377 707 6049 6047 5814 6043 6051 6045 
675 377 708 378 5819 6047 6050 5821 3277 6052 
708 377 411 378 6047 3599 6048 6052 3277 3600 
378 411 709 412 3600 6053 6054 3609 3611 6055 
675 709 676 378 6056 6057 5831 5821 6054 5826 
378 411 708 709 3600 6048 6052 6054 6053 6058 
675 709 378 708 6056 6054 5821 6050 6058 6052 
676 378 709 379 5826 6054 6057 5828 3287 6059 
709 378 412 379 6054 3609 6055 6059 3287 3610 
379 412 710 413 3610 6060 6061 3619 3621 6062 
676 710 677 379 6063 6064 5838 5828 6061 5833 
379 412 709 710 3610 6055 6059 6061 6060 6065 
676 710 379 709 6063 6061 5828 6057 6065 6059 
677 379 710 380 5833 6061 6064 5835 3297 6066 
710 379 413 380 6061 3619 6062 6066 3297 3620 
380 413 711 414 3620 6067 6068 3629 3631 6069 
677 711 678 380 6070 6071 5845 5835 6068 5840 
380 413 710 711 3620 6062 6066 6068 6067 6072 
677 711 380 710 6070 6068 5835 6064 6072 6066 
678 380 711 381 5840 6068 6071 5842 3307 6073 
711 380 414 381 6068 3629 6069 6073 3307 3630 
381 414 712 415 3630 6074 6075 3639 3641 6076 
678 712 679 381 6077 6078 5852 5842 6075 5847 
381 414 711 712 3630 6069 6073 6075 6074 6079 
678 712 381 711 6077 6075 5842 6071 6079 6073 
679 381 712 382 5847 6075 6078 5849 3317 6080 
712 381 415 382 6075 3639 6076 6080 3317 3640 
382 415 713 416 3640 6081 6082 3649 3651 6083 
679 713 680 382 6084 6085 5859 5849 6082 5854 
382 415 712 713 3640 6076 6080 6082 6081 6086 
679 713 382 712 6084 6082 5849 6078 6086 6080 
680 382 713 383 5854 6082 6085 5856 3327 6087 
713 382 416 383 6082 3649 6083 6087 3327 3650 
383 416 714 417 3650 6088 6089 3659 3661 6090 
680 714 681 383 6091 6092 5866 5856 6089 5861 
383 416 713 714 3650 6083 6087 6089 6088 6093 
680 714 383 713 6091 6089 5856 6085 6093 6087 
681 383 714 384 5861 6089 6092 5863 3337 6094 
714 383 417 384 6089 3659 6090 6094 3337 3660 
384 417 715 418 3660 6095 6096 3669 3671 6097 
681 715 682 384 6098 6099 5873 5863 6096 5868 
384 417 714 715 3660 6090 6094 6096 6095 6100 
681 715 384 714 6098 6096 5863 6092 6100 6094 
682 384 715 385 5868 6096 6099 5870 3347 6101 
715 384 418 385 6096 3669 6097 6101 3347 3670 
385 418 716 419 3670 6102 6103 3679 3681 6104 
682 716 683 385 6105 6106 5880 5870 6103 5875 
385 418 715 716 3670 6097 6101 6103 6102 6107 
682 716 385 715 6105 6103 5870 6099 6107 6101 
683 385 716 386 5875 6103 6106 5877 3357 6108 
716 385 419 386 6103 3679 6104 6108 3357 3680 
386 419 717 420 3680 6109 6110 3689 3691 6111 
683 717 684 386 6112 6113 5887 5877 6110 5882 
386 419 716 717 3680 6104 6108 6110 6109 6114 
683 717 386 716 6112 6110 5877 6106 6114 6108 
684 386 717 387 5882 6110 6113 5884 3367 6115 
717 386 420 387 6110 3689 6111 6115 3367 3690 
387 420 718 421 3690 6116 6117 3699 3701 6118 
684 718 685 387 6119 6120 5894 5884 6117 5889 
387 420 717 718 3690 6111 6115 6117 6116 6121 
684 718 387 717 6119 6117 5884 6113 6121 6115 
685 387 718 388 5889 6117 6120 5891 3377 6122 
718 387 421 388 6117 3699 6118 6122 3377 3700 
388 421 719 422 3700 6123 6124 3709 3711 6125 
685 719 686 388 6126 6127 5901 5891 6124 5896 
388 421 718 719 3700 6118 6122 6124 6123 6128 
685 719 388 718 6126 6124 5891 6120 6128 6122 
686 388 719 389 5896 6124 6127 5898 3387 6129 
719 388 422 389 6124 3709 6125 6129 3387 3710 
389 422 720 423 3710 6130 6131 3719 3721 6132 
686 720 687 389 6133 6134 5908 5898 6131 5903 
389 422 719 720 3710 6125 6129 6131 6130 6135 
686 720 389 719 6133 6131 5898 6127 6135 6129 
687 389 720 390 5903 6131 6134 5905 3397 6136 
720 389 423 390 6131 3719 6132 6136 3397 3720 
390 423 721 424 3720 6137 6138 3729 3731 6139 
687 721 688 390 6140 6141 5915 5905 6138 5910 
390 423 720 721 3720 6132 6136 6138 6137 6142 
687 721 390 720 6140 6138 5905 6134 6142 6136 
688 390 721 391 5910 6138 6141 5912 3407 6143 
721 390 424 391 6138 3729 6139 6143 3407 3730 
391 424 722 425 3730 6144 6145 3739 3741 6146 
688 722 689 391 6147 6148 5922 5912 6145 5917 
391 424 721 722 3730 6139 6143 6145 6144 6149 
688 722 391 721 6147 6145 5912 6141 6149 6143 
689 391 722 392 5917 6145 6148 5919 3417 6150 
722 391 425 392 6145 3739 6146 6150 3417 3740 
392 425 723 426 3740 6151 6152 3749 3751 6153 
689 723 690 392 6154 6155 5929 5919 6152 5924 
392 425 722 723 3740 6146 6150 6152 6151 6156 
689 723 392 722 6154 6152 5919 6148 6156 6150 
690 392 723 393 5924 6152 6155 5926 3427 6157 
723 392 426 393 6152 3749 6153 6157 3427 3750 
393 426 724 427 3750 6158 6159 3759 3761 6160 
690 724 691 393 6161 6162 5936 5926 6159 5931 
393 426 723 724 3750 6153 6157 6159 6158 6163 
690 724 393 723 6161 6159 5926 6155 6163 6157 
691 393 724 394 5931 6159 6162 5933 3437 6164 
724 393 427 394 6159 3759 6160 6164 3437 3760 
394 427 725 428 3760 6165 6166 3769 3771 6167 
691 725 692 394 6168 6169 5943 5933 6166 5938 
394 427 724 725 3760 6160 6164 6166 6165 6170 
691 725 394 724 6168 6166 5933 6162 6170 6164 
692 394 725 395 5938 6166 6169 5940 3447 6171 
725 394 428 395 6166 3769 6167 6171 3447 3770 
396 429 727 430 3785 6172 6173 3780 3784 6174 
693 727 694 396 6175 6176 5952 5950 6173 5945 
396 429 726 727 3785 6177 6178 6173 6172 6179 
693 727 396 726 6175 6173 5950 6180 6179 6178 
694 396 727 397 5945 6173 6176 5947 3460 6181 
727 396 430 397 6173 3780 6174 6181 3460 3781 
397 430 728 431 3781 6182 6183 3793 3795 6184 
694 728 695 397 6185 6186 5960 5947 6183 5955 
397 430 727 728 3781 6174 6181 6183 6182 6187 
694 728 397 727 6185 6183 5947 6176 6187 6181 
695 397 728 398 5955 6183 6186 5957 3471 6188 
728 397 431 398 6183 3793 6184 6188 3471 3794 
398 431 729 432 3794 6189 6190 3803 3805 6191 
695 729 696 398 6192 6193 5967 5957 6190 5962 
398 431 728 729 3794 6184 6188 6190 6189 6194 
695 729 398 728 6192 6190 5957 6186 6194 6188 
696 398 729 399 5962 6190 6193 5964 3481 6195 
729 398 432 399 6190 3803 6191 6195 3481 3804 
399 432 730 433 3804 6196 6197 3813 3815 6198 
696 730 697 399 6199 6200 5974 5964 6197 5969 
399 432 729 730 3804 6191 6195 6197 6196 6201 
696 730 399 729 6199 6197 5964 6193 6201 6195 
697 399 730 400 5969 6197 6200 5971 3491 6202 
730 399 433 400 6197 3813 6198 6202 3491 3814 
400 433 731 434 3814 6203 6204 3823 3825 6205 
697 731 698 400 6206 6207 5981 5971 6204 5976 
400 433 730 731 3814 6198 6202 6204 6203 6208 
697 731 400 730 6206 6204 5971 6200 6208 6202 
698 400 731 401 5976 6204 6207 5978 3501 6209 
731 400 434 401 6204 3823 6205 6209 3501 3824 
401 434 732 435 3824 6210 6211 3833 3835 6212 
698 732 699 401 6213 6214 5988 5978 6211 5983 
401 434 731 732 3824 6205 6209 6211 6210 6215 
698 732 401 731 6213 6211 5978 6207 6215 6209 
699 401 732 402 5983 6211 6214 5985 3511 6216 
732 401 435 402 6211 3833 6212 6216 3511 3834 
402 435 733 436 3834 6217 6218 3843 3845 6219 
699 733 700 402 6220 6221 5995 5985 6218 5990 
402 435 732 733 3834 6212 6216 6218 6217 6222 
699 733 402 732 6220 6218 5985 6214 6222 6216 
700 402 733 403 5990 6218 6221 5992 3521 6223 
733 402 436 403 6218 3843 6219 6223 3521 3844 
403 436 734 437 3844 6224 6225 3853 3855 6226 
700 734 701 403 6227 6228 6002 5992 6225 5997 
403 436 733 734 3844 6219 6223 6225 6224 6229 
700 734 403 733 6227 6225 5992 6221 6229 6223 
701 403 734 404 5997 6225 6228 5999 3531 6230 
734 403 437 404 6225 3853 6226 6230 3531 3854 
404 437 735 438 3854 6231 6232 3863 3865 6233 
701 735 702 404 6234 6235 6009 5999 6232 6004 
404 437 734 735 3854 6226 6230 6232 6231 6236 
701 735 404 734 6234 6232 5999 6228 6236 6230 
702 404 735 405 6004 6232 6235 6006 3541 6237 
735 404 438 405 6232 3863 6233 6237 3541 3864 
405 438 736 439 3864 6238 6239 3873 3875 6240 
702 736 703 405 6241 6242 6016 6006 6239 6011 
405 438 735 736 3864 6233 6237 6239 6238 6243 
702 736 405 735 6241 6239 6006 6235 6243 6237 
703 405 736 406 6011 6239 6242 6013 3551 6244 
736 405 439 406 6239 3873 6240 6244 3551 3874 
406 439 737 440 3874 6245 6246 3883 3885 6247 
703 737 704 406 6248 6249 6023 6013 6246 6018 
406 439 736 737 3874 6240 6244 6246 6245 6250 
703 737 406 736 6248 6246 6013 6242 6250 6244 
704 406 737 407 6018 6246 6249 6020 3561 6251 
737 406 440 407 6246 3883 6247 6251 3561 3884 
407 440 738 441 3884 6252 6253 3893 3895 6254 
704 738 705 407 6255 6256 6030 6020 6253 6025 
407 440 737 738 3884 6247 6251 6253 6252 6257 
704 738 407 737 6255 6253 6020 6249 6257 6251 
705 407 738 408 6025 6253 6256 6027 3571 6258 
738 407 441 408 6253 3893 6254 6258 3571 3894 
408 441 739 442 3894 6259 6260 3903 3905 6261 
705 739 706 408 6262 6263 6037 6027 6260 6032 
408 441 738 739 3894 6254 6258 6260 6259 6264 
705 739 408 738 6262 6260 6027 6256 6264 6258 
706 408 739 409 6032 6260 6263 6034 3581 6265 
739 408 442 409 6260 3903 6261 6265 3581 3904 
409 442 740 443 3904 6266 6267 3913 3915 6268 
706 740 707 409 6269 6270 6044 6034 6267 6039 
409 442 739 740 3904 6261 6265 6267 6266 6271 
706 740 409 739 6269 6267 6034 6263 6271 6265 
707 409 740 410 6039 6267 6270 6041 3591 6272 
740 409 443 410 6267 3913 6268 6272 3591 3914 
410 443 741 444 3914 6273 6274 3923 3925 6275 
707 741 708 410 6276 6277 6051 6041 6274 6046 
410 443 740 741 3914 6268 6272 6274 6273 6278 
707 741 410 740 6276 6274 6041 6270 6278 6272 
708 410 741 411 6046 6274 6277 6048 3601 6279 
741 410 444 411 6274 3923 6275 6279 3601 3924 
411 444 742 445 3924 6280 6281 3933 3935 6282 
708 742 709 411 6283 6284 6058 6048 6281 6053 
411 444 741 742 3924 6275 6279 6281 6280 6285 
708 742 411 741 6283 6281 6048 6277 6285 6279 
709 411 742 412 6053 6281 6284 6055 3611 6286 
742 411 445 412 6281 3933 6282 6286 3611 3934 
412 445 743 446 3934 6287 6288 3943 3945 6289 
709 743 710 412 6290 6291 6065 6055 6288 6060 
412 445 742 743 3934 6282 6286 6288 6287 6292 
709 743 412 742 6290 6288 6055 6284 6292 6286 
710 412 743 413 6060 6288 6291 6062 3621 6293 
743 412 446 413 6288 3943 6289 6293 3621 3944 
413 446 744 447 3944 6294 6295 3953 3955 6296 
710 744 711 413 6297 6298 6072 6062 6295 6067 
413 446 743 744 3944 6289 6293 6295 6294 6299 
710 744 413 743 6297 6295 6062 6291 6299 6293 
711 413 744 414 6067 6295 6298 6069 3631 6300 
744 413 447 414 6295 3953 6296 6300 3631 3954 
414 447 745 448 3954 6301 6302 3963 3965 6303 
711 745 712 414 6304 6305 6079 6069 6302 6074 
414 447 744 745 3954 6296 6300 6302 6301 6306 
711 745 414 744 6304 6302 6069 6298 6306 6300 
712 414 745 415 6074 6302 6305 6076 3641 6307 
745 414 448 415 6302 3963 6303 6307 3641 3964 
415 448 746 449 3964 6308 6309 3973 3975 6310 
712 746 713 415 6311 6312 6086 6076 6309 6081 
415 448 745 746 3964 6303 6307 6309 6308 6313 
712 746 415 745 6311 6309 6076 6305 6313 6307 
713 415 746 416 6081 6309 6312 6083 3651 6314 
746 415 449 416 6309 3973 6310 6314 3651 3974 
416 449 747 450 3974 6315 6316 3983 3985 6317 
713 747 714 416 6318 6319 6093 6083 6316 6088 
416 449 746 747 3974 6310 6314 6316 6315 6320 
713 747 416 746 6318 6316 6083 6312 6320 6314 
714 416 747 417 6088 6316 6319 6090 3661 6321 
747 416 450 417 6316 3983 6317 6321 3661 3984 
417 450 748 451 3984 6322 6323 3993 3995 6324 
714 748 715 417 6325 6326 6100 6090 6323 6095 
417 450 747 748 3984 6317 6321 6323 6322 6327 
714 748 417 747 6325 6323 6090 6319 6327 6321 
715 417 748 418 6095 6323 6326 6097 3671 6328 
748 417 451 418 6323 3993 6324 6328 3671 3994 
418 451 749 452 3994 6329 6330 4003 4005 6331 
715 749 716 418 6332 6333 6107 6097 6330 6102 
418 451 748 749 3994 6324 6328 6330 6329 6334 
715 749 418 748 6332 6330 6097 6326 6334 6328 
716 418 749 419 6102 6330 6333 6104 3681 6335 
749 418 452 419 6330 4003 6331 6335 3681 4004 
419 452 750 453 4004 6336 6337 4013 4015 6338 
716 750 717 419 6339 6340 6114 6104 6337 6109 
419 452 749 750 4004 6331 6335 6337 6336 6341 
716 750 419 749 6339 6337 6104 6333 6341 6335 
717 419 750 420 6109 6337 6340 6111 3691 6342 
750 419 453 420 6337 4013 6338 6342 3691 4014 
420 453 751 454 4014 6343 6344 4023 4025 6345 
717 751 718 420 6346 6347 6121 6111 6344 6116 
420 453 750 751 4014 6338 6342 6344 6343 6348 
717 751 420 750 6346 6344 6111 6340 6348 6342 
718 420 751 421 6116 6344 6347 6118 3701 6349 
751 420 454 421 6344 4023 6345 6349 3701 4024 
421 454 752 455 4024 6350 6351 4033 4035 6352 
718 752 719 421 6353 6354 6128 6118 6351 6123 
421 454 751 752 4024 6345 6349 6351 6350 6355 
718 752 421 751 6353 6351 6118 6347 6355 6349 
719 421 752 422 6123 6351 6354 6125 3711 6356 
752 421 455 422 6351 4033 6352 6356 3711 4034 
422 455 753 456 4034 6357 6358 4043 4045 6359 
719 753 720 422 6360 6361 6135 6125 6358 6130 
422 455 752 753 4034 6352 6356 6358 6357 6362 
719 753 422 752 6360 6358 6125 6354 6362 6356 
720 422 753 423 6130 6358 6361 6132 3721 6363 
753 422 456 423 6358 4043 6359 6363 3721 4044 
423 456 754 457 4044 6364 6365 4053 4055 6366 
720 754 721 423 6367 6368 6142 6132 6365 6137 
423 456 753 754 4044 6359 6363 6365 6364 6369 
720 754 423 753 6367 6365 6132 6361 6369 6363 
721 423 754 424 6137 6365 6368 6139 3731 6370 
754 423 457 424 6365 4053 6366 6370 3731 4054 
424 457 755 458 4054 6371 6372 4063 4065 6373 
721 755 722 424 6374 6375 6149 6139 6372 6144 
424 457 754 755 4054 6366 6370 6372 6371 6376 
721 755 424 754 6374 6372 6139 6368 6376 6370 
722 424 755 425 6144 6372 6375 6146 3741 6377 
755 424 458 425 6372 4063 6373 6377 3741 4064 
425 458 756 459 4064 6378 6379 4073 4075 6380 
722 756 723 425 6381 6382 6156 6146 6379 6151 
425 458 755 756 4064 6373 6377 6379 6378 6383 
722 756 425 755 6381 6379 6146 6375 6383 6377 
723 425 756 426 6151 6379 6382 6153 3751 6384 
756 425 459 426 6379 4073 6380 6384 3751 4074 
426 459 757 460 4074 6385 6386 4083 4085 6387 
723 757 724 426 6388 6389 6163 6153 6386 6158 
426 459 756 757 4074 6380 6384 6386 6385 6390 
723 757 426 756 6388 6386 6153 6382 6390 6384 
724 426 757 427 6158 6386 6389 6160 3761 6391 
757 426 460 427 6386 4083 6387 6391 3761 4084 
427 460 758 461 4084 6392 6393 4093 4095 6394 
724 758 725 427 6395 6396 6170 6160 6393 6165 
427 460 757 758 4084 6387 6391 6393 6392 6397 
724 758 427 757 6395 6393 6160 6389 6397 6391 
725 427 758 428 6165 6393 6396 6167 3771 6398 
758 427 461 428 6393 4093 6394 6398 3771 4094 
429 462 760 463 4109 6399 6400 4104 4108 6401 
726 760 727 429 6402 6403 6179 6177 6400 6172 
429 462 759 760 4109 6404 6405 6400 6399 6406 
726 760 429 759 6402 6400 6177 6407 6406 6405 
727 429 760 430 6172 6400 6403 6174 3784 6408 
760 429 463 430 6400 4104 6401 6408 3784 4105 
430 463 761 464 4105 6409 6410 4117 4119 6411 
727 761 728 430 6412 6413 6187 6174 6410 6182 
430 463 760 761 4105 6401 6408 6410 6409 6414 
727 761 430 760 6412 6410 6174 6403 6414 6408 
728 430 761 431 6182 6410 6413 6184 3795 6415 
761 430 464 431 6410 4117 6411 6415 3795 4118 
431 464 762 465 4118 6416 6417 4127 4129 6418 
728 762 729 431 6419 6420 6194 6184 6417 6189 
431 464 761 762 4118 6411 6415 6417 6416 6421 
728 762 431 761 6419 6417 6184 6413 6421 6415 
729 431 762 432 6189 6417 6420 6191 3805 6422 
762 431 465 432 6417 4127 6418 6422 3805 4128 
432 465 763 466 4128 6423 6424 4137 4139 6425 
729 763 730 432 6426 6427 6201 6191 6424 6196 
432 465 762 763 4128 6418 6422 6424 6423 6428 
729 763 432 762 6426 6424 6191 6420 6428 6422 
730 432 763 433 6196 6424 6427 6198 3815 6429 
763 432 466 433 6424 4137 6425 6429 3815 4138 
433 466 764 467 4138 6430 6431 4147 4149 6432 
730 764 731 433 6433 6434 6208 6198 6431 6203 
433 466 763 764 4138 6425 6429 6431 6430 6435 
730 764 433 763 6433 6431 6198 6427 6435 6429 
731 433 764 434 6203 6431 6434 6205 3825 6436 
764 433 467 434 6431 4147 6432 6436 3825 4148 
434 467 765 468 4148 6437 6438 4157 4159 6439 
731 765 732 434 6440 6441 6215 6205 6438 6210 
434 467 764 765 4148 6432 6436 6438 6437 6442 
731 765 434 764 6440 6438 6205 6434 6442 6436 
732 434 765 435 6210 6438 6441 6212 3835 6443 
765 434 468 435 6438 4157 6439 6443 3835 4158 
435 468 766 469 4158 6444 6445 4167 4169 6446 
732 766 733 435 6447 6448 6222 6212 6445 6217 
435 468 765 766 4158 6439 6443 6445 6444 6449 
732 766 435 765 6447 6445 6212 6441 6449 6443 
733 435 766 436 6217 6445 6448 6219 3845 6450 
766 435 469 436 6445 4167 6446 6450 3845 4168 
436 469 767 470 4168 6451 6452 4177 4179 6453 
733 767 734 436 6454 6455 6229 6219 6452 6224 
436 469 766 767 4168 6446 6450 6452 6451 6456 
733 767 436 766 6454 6452 6219 6448 6456 6450 
734 436 767 437 6224 6452 6455 6226 3855 6457 
767 436 470 437 6452 4177 6453 6457 3855 4178 
437 470 768 471 4178 6458 6459 4187 4189 6460 
734 768 735 437 6461 6462 6236 6226 6459 6231 
437 470 767 768 4178 6453 6457 6459 6458 6463 
734 768 437 767 6461 6459 6226 6455 6463 6457 
735 437 768 438 6231 6459 6462 6233 3865 6464 
768 437 471 438 6459 4187 6460 6464 3865 4188 
438 471 769 472 4188 6465 6466 4197 4199 6467 
735 769 736 438 6468 6469 6243 6233 6466 6238 
438 471 768 769 4188 6460 6464 6466 6465 6470 
735 769 438 768 6468 6466 6233 6462 6470 6464 
736 438 769 439 6238 6466 6469 6240 3875 6471 
769 438 472 439 6466 4197 6467 6471 3875 4198 
439 472 770 473 4198 6472 6473 4207 4209 6474 
736 770 737 439 6475 6476 6250 6240 6473 6245 
439 472 769 770 4198 6467 6471 6473 6472 6477 
736 770 439 769 6475 6473 6240 6469 6477 6471 
737 439 770 440 6245 6473 6476 6247 3885 6478 
770 439 473 440 6473 4207 6474 6478 3885 4208 
440 473 771 474 4208 6479 6480 4217 4219 6481 
737 771 738 440 6482 6483 6257 6247 6480 6252 
440 473 770 771 4208 6474 6478 6480 6479 6484 
737 771 440 770 6482 6480 6247 6476 6484 6478 
738 440 771 441 6252 6480 6483 6254 3895 6485 
771 440 474 441 6480 4217 6481 6485 3895 4218 
441 474 772 475 4218 6486 6487 4227 4229 6488 
738 772 739 441 6489 6490 6264 6254 6487 6259 
441 474 771 772 4218 6481 6485 6487 6486 6491 
738 772 441 771 6489 6487 6254 6483 6491 6485 
739 441 772 442 6259 6487 6490 6261 3905 6492 
772 441 475 442 6487 4227 6488 6492 3905 4228 
442 475 773 476 4228 6493 6494 4237 4239 6495 
739 773 740 442 6496 6497 6271 6261 6494 6266 
442 475 772 773 4228 6488 6492 6494 6493 6498 
739 773 442 772 6496 6494 6261 6490 6498 6492 
740 442 773 443 6266 6494 6497 6268 3915 6499 
773 442 476 443 6494 4237 6495 6499 3915 4238 
443 476 774 477 4238 6500 6501 4247 4249 6502 
740 774 741 443 6503 6504 6278 6268 6501 6273 
443 476 773 774 4238 6495 6499 6501 6500 6505 
740 774 443 773 6503 6501 6268 6497 6505 6499 
741 443 774 444 6273 6501 6504 6275 3925 6506 
774 443 477 444 6501 4247 6502 6506 3925 4248 
444 477 775 478 4248 6507 6508 4257 4259 6509 
741 775 742 444 6510 6511 6285 6275 6508 6280 
444 477 774 775 4248 6502 6506 6508 6507 6512 
741 775 444 774 6510 6508 6275 6504 6512 6506 
742 444 775 445 6280 6508 6511 6282 3935 6513 
775 444 478 445 6508 4257 6509 6513 3935 4258 
445 478 776 479 4258 6514 6515 4267 4269 6516 
742 776 743 445 6517 6518 6292 6282 6515 6287 
445 478 775 776 4258 6509 6513 6515 6514 6519 
742 776 445 775 6517 6515 6282 6511 6519 6513 
743 445 776 446 6287 6515 6518 6289 3945 6520 
776 445 479 446 6515 4267 6516 6520 3945 4268 
446 479 777 480 4268 6521 6522 4277 4279 6523 
743 777 744 446 6524 6525 6299 6289 6522 6294 
446 479 776 777 4268 6516 6520 6522 6521 6526 
743 777 446 776 6524 6522 6289 6518 6526 6520 
744 446 777 447 6294 6522 6525 6296 3955 6527 
777 446 480 447 6522 4277 6523 6527 3955 4278 
447 480 778 481 4278 6528 6529 4287 4289 6530 
744 778 745 447 6531 6532 6306 6296 6529 6301 
447 480 777 778 4278 6523 6527 6529 6528 6533 
744 778 447 777 6531 6529 6296 6525 6533 6527 
745 447 778 448 6301 6529 6532 6303 3965 6534 
778 447 481 448 6529 4287 6530 6534 3965 4288 
448 481 779 482 4288 6535 6536 4297 4299 6537 
745 779 746 448 6538 6539 6313 6303 6536 6308 
448 481 778 779 4288 6530 6534 6536 6535 6540 
745 779 448 778 6538 6536 6303 6532 6540 6534 
746 448 779 449 6308 6536 6539 6310 3975 6541 
779 448 482 449 6536 4297 6537 6541 3975 4298 
449 482 780 483 4298 6542 6543 4307 4309 6544 
746 780 747 449 6545 6546 6320 6310 6543 6315 
449 482 779 780 4298 6537 6541 6543 6542 6547 
746 780 449 779 6545 6543 6310 6539 6547 6541 
747 449 780 450 6315 6543 6546 6317 3985 6548 
780 449 483 450 6543 4307 6544 6548 3985 4308 
450 483 781 484 4308 6549 6550 4317 4319 6551 
747 781 748 450 6552 6553 6327 6317 6550 6322 
450 483 780 781 4308 6544 6548 6550 6549 6554 
747 781 450 780 6552 6550 6317 6546 6554 6548 
748 450 781 451 6322 6550 6553 6324 3995 6555 
781 450 484 451 6550 4317 6551 6555 3995 4318 
451 484 782 485 4318 6556 6557 4327 4329 6558 
748 782 749 451 6559 6560 6334 6324 6557 6329 
451 484 781 782 4318 6551 6555 6557 6556 6561 
748 782 451 781 6559 6557 6324 6553 6561 6555 
749 451 782 452 6329 6557 6560 6331 4005 6562 
782 451 485 452 6557 4327 6558 6562 4005 4328 
452 485 783 486 4328 6563 6564 4337 4339 6565 
749 783 750 452 6566 6567 6341 6331 6564 6336 
452 485 782 783 4328 6558 6562 6564 6563 6568 
749 783 452 782 6566 6564 6331 6560 6568 6562 
750 452 783 453 6336 6564 6567 6338 4015 6569 
783 452 486 453 6564 4337 6565 6569 4015 4338 
453 486 784 487 4338 6570 6571 4347 4349 6572 
750 784 751 453 6573 6574 6348 6338 6571 6343 
453 486 783 784 4338 6565 6569 6571 6570 6575 
750 784 453 783 6573 6571 6338 6567 6575 6569 
751 453 784 454 6343 6571 6574 6345 4025 6576 
784 453 487 454 6571 4347 6572 6576 4025 4348 
454 487 785 488 4348 6577 6578 4357 4359 6579 
751 785 752 454 6580 6581 6355 6345 6578 6350 
454 487 784 785 4348 6572 6576 6578 6577 6582 
751 785 454 784 6580 6578 6345 6574 6582 6576 
752 454 785 455 6350 6578 6581 6352 4035 6583 
785 454 488 455 6578 4357 6579 6583 4035 4358 
455 488 786 489 4358 6584 6585 4367 4369 6586 
752 786 753 455 6587 6588 6362 6352 6585 6357 
455 488 785 786 4358 6579 6583 6585 6584 6589 
752 786 455 785 6587 6585 6352 6581 6589 6583 
753 455 786 456 6357 6585 6588 6359 4045 6590 
786 455 489 456 6585 4367 6586 6590 4045 4368 
456 489 787 490 4368 6591 6592 4377 4379 6593 
753 787 754 456 6594 6595 6369 6359 6592 6364 
456 489 786 787 4368 6586 6590 6592 6591 6596 
753 787 456 786 6594 6592 6359 6588 6596 6590 
754 456 787 457 6364 6592 6595 6366 4055 6597 
787 456 490 457 6592 4377 6593 6597 4055 4378 
457 490 788 491 4378 6598 6599 4387 4389 6600 
754 788 755 457 6601 6602 6376 6366 6599 6371 
457 490 787 788 4378 6593 6597 6599 6598 6603 
754 788 457 787 6601 6599 6366 6595 6603 6597 
755 457 788 458 6371 6599 6602 6373 4065 6604 
788 457 491 458 6599 4387 6600 6604 4065 4388 
458 491 789 492 4388 6605 6606 4397 4399 6607 
755 789 756 458 6608 6609 6383 6373 6606 6378 
458 491 788 789 4388 6600 6604 6606 6605 6610 
755 789 458 788 6608 6606 6373 6602 6610 6604 
756 458 789 459 6378 6606 6609 6380 4075 6611 
789 458 492 459 6606 4397 6607 6611 4075 4398 
459 492 790 493 4398 6612 6613 4407 4409 6614 
756 790 757 459 6615 6616 6390 6380 6613 6385 
459 492 789 790 4398 6607 6611 6613 6612 6617 
756 790 459 789 6615 6613 6380 6609 6617 6611 
757 459 790 460 6385 6613 6616 6387 4085 6618 
790 459 493 460 6613 4407 6614 6618 4085 4408 
460 493 791 494 4408 6619 6620 4417 4419 6621 
757 791 758 460 6622 6623 6397 6387 6620 6392 
460 493 790 791 4408 6614 6618 6620 6619 6624 
757 791 460 790 6622 6620 6387 6616 6624 6618 
758 460 791 461 6392 6620 6623 6394 4095 6625 
791 460 494 461 6620 4417 6621 6625 4095 4418 
462 495 793 496 4433 6626 6627 4428 4432 6628 
759 793 760 462 6629 6630 6406 6404 6627 6399 
462 495 792 793 4433 6631 6632 6627 6626 6633 
759 793 462 792 6629 6627 6404 6634 6633 6632 
760 462 793 463 6399 6627 6630 6401 4108 6635 
793 462 496 463 6627 4428 6628 6635 4108 4429 
463 496 794 497 4429 6636 6637 4441 4443 6638 
760 794 761 463 6639 6640 6414 6401 6637 6409 
463 496 793 794 4429 6628 6635 6637 6636 6641 
760 794 463 793 6639 6637 6401 6630 6641 6635 
761 463 794 464 6409 6637 6640 6411 4119 6642 
794 463 497 464 6637 4441 6638 6642 4119 4442 
464 497 795 498 4442 6643 6644 4451 4453 6645 
761 795 762 464 6646 6647 6421 6411 6644 6416 
464 497 794 795 4442 6638 6642 6644 6643 6648 
761 795 464 794 6646 6644 6411 6640 6648 6642 
762 464 795 465 6416 6644 6647 6418 4129 6649 
795 464 498 465 6644 4451 6645 6649 4129 4452 
465 498 796 499 4452 6650 6651 4461 4463 6652 
762 796 763 465 6653 6654 6428 6418 6651 6423 
465 498 795 796 4452 6645 6649 6651 6650 6655 
762 796 465 795 6653 6651 6418 6647 6655 6649 
763 465 796 466 6423 6651 6654 6425 4139 6656 
796 465 499 466 6651 4461 6652 6656 4139 4462 
466 499 797 500 4462 6657 6658 4471 4473 6659 
763 797 764 466 6660 6661 6435 6425 6658 6430 
466 499 796 797 4462 6652 6656 6658 6657 6662 
763 797 466 796 6660 6658 6425 6654 6662 6656 
764 466 797 467 6430 6658 6661 6432 4149 6663 
797 466 500 467 6658 4471 6659 6663 4149 4472 
467 500 798 501 4472 6664 6665 4481 4483 6666 
764 798 765 467 6667 6668 6442 6432 6665 6437 
467 500 797 798 4472 6659 6663 6665 6664 6669 
764 798 467 797 6667 6665 6432 6661 6669 6663 
765 467 798 468 6437 6665 6668 6439 4159 6670 
798 467 501 468 6665 4481 6666 6670 4159 4482 
468 501 799 502 4482 6671 6672 4491 4493 6673 
765 799 766 468 6674 6675 6449 6439 6672 6444 
468 501 798 799 4482 6666 6670 6672 6671 6676 
765 799 468 798 6674 6672 6439 6668 6676 6670 
766 468 799 469 6444 6672 6675 6446 4169 6677 
799 468 502 469 6672 4491 6673 6677 4169 4492 
469 502 800 503 4492 6678 6679 4501 4503 6680 
766 800 767 469 6681 6682 6456 6446 6679 6451 
469 502 799 800 4492 6673 6677 6679 6678 6683 
766 800 469 799 6681 6679 6446 6675 6683 6677 
767 469 800 470 6451 6679 6682 6453 4179 6684 
800 469 503 470 6679 4501 6680 6684 4179 4502 
470 503 801 504 4502 6685 6686 4511 4513 6687 
767 801 768 470 6688 6689 6463 6453 6686 6458 
470 503 800 801 4502 6680 6684 6686 6685 6690 
767 801 470 800 6688 6686 6453 6682 6690 6684 
768 470 801 471 6458 6686 6689 6460 4189 6691 
801 470 504 471 6686 4511 6687 6691 4189 4512 
471 504 802 505 4512 6692 6693 4521 4523 6694 
768 802 769 471 6695 6696 6470 6460 6693 6465 
471 504 801 802 4512 6687 6691 6693 6692 6697 
768 802 471 801 6695 6693 6460 6689 6697 6691 
769 471 802 472 6465 6693 6696 6467 4199 6698 
802 471 505 472 6693 4521 6694 6698 4199 4522 
472 505 803 506 4522 6699 6700 4531 4533 6701 
769 803 770 472 6702 6703 6477 6467 6700 6472 
472 505 802 803 4522 6694 6698 6700 6699 6704 
769 803 472 802 6702 6700 6467 6696 6704 6698 
770 472 803 473 6472 6700 6703 6474 4209 6705 
803 472 506 473 6700 4531 6701 6705 4209 4532 
473 506 804 507 4532 6706 6707 4541 4543 6708 
770 804 771 473 6709 6710 6484 6474 6707 6479 
473 506 803 804 4532 6701 6705 6707 6706 6711 
770 804 473 803 6709 6707 6474 6703 6711 6705 
771 473 804 474 6479 6707 6710 6481 4219 6712 
804 473 507 474 6707 4541 6708 6712 4219 4542 
474 507 805 508 4542 6713 6714 4551 4553 6715 
771 805 772 474 6716 6717 6491 6481 6714 6486 
474 507 804 805 4542 6708 6712 6714 6713 6718 
771 805 474 804 6716 6714 6481 6710 6718 6712 
772 474 805 475 6486 6714 6717 6488 4229 6719 
805 474 508 475 6714 4551 6715 6719 4229 4552 
475 508 806 509 4552 6720 6721 4561 4563 6722 
772 806 773 475 6723 6724 6498 6488 6721 6493 
475 508 805 806 4552 6715 6719 6721 6720 6725 
772 806 475 805 6723 6721 6488 6717 6725 6719 
773 475 806 476 6493 6721 6724 6495 4239 6726 
806 475 509 476 6721 4561 6722 6726 4239 4562 
476 509 807 510 4562 6727 6728 4571 4573 6729 
773 807 774 476 6730 6731 6505 6495 6728 6500 
476 509 806 807 4562 6722 6726 6728 6727 6732 
773 807 476 806 6730 6728 6495 6724 6732 6726 
774 476 807 477 6500 6728 6731 6502 4249 6733 
807 476 510 477 6728 4571 6729 6733 4249 4572 
477 510 808 511 4572 6734 6735 4581 4583 6736 
774 808 775 477 6737 6738 6512 6502 6735 6507 
477 510 807 808 4572 6729 6733 6735 6734 6739 
774 808 477 807 6737 6735 6502 6731 6739 6733 
775 477 808 478 6507 6735 6738 6509 4259 6740 
808 477 511 478 6735 4581 6736 6740 4259 4582 
478 511 809 512 4582 6741 6742 4591 4593 6743 
775 809 776 478 6744 6745 6519 6509 6742 6514 
478 511 808 809 4582 6736 6740 6742 6741 6746 
775 809 478 808 6744 6742 6509 6738 6746 6740 
776 478 809 479 6514 6742 6745 6516 4269 6747 
809 478 512 479 6742 4591 6743 6747 4269 4592 
479 512 810 513 4592 6748 6749 4601 4603 6750 
776 810 777 479 6751 6752 6526 6516 6749 6521 
479 512 809 810 4592 6743 6747 6749 6748 6753 
776 810 479 809 6751 6749 6516 6745 6753 6747 
777 479 810 480 6521 6749 6752 6523 4279 6754 
810 479 513 480 6749 4601 6750 6754 4279 4602 
480 513 811 514 4602 6755 6756 4611 4613 6757 
777 811 778 480 6758 6759 6533 6523 6756 6528 
480 513 810 811 4602 6750 6754 6756 6755 6760 
777 811 480 810 6758 6756 6523 6752 6760 6754 
778 480 811 481 6528 6756 6759 6530 4289 6761 
811 480 514 481 6756 4611 6757 6761 4289 4612 
481 514 812 515 4612 6762 6763 4621 4623 6764 
778 812 779 481 6765 6766 6540 6530 6763 6535 
481 514 811 812 4612 6757 6761 6763 6762 6767 
778 812 481 811 6765 6763 6530 6759 6767 6761 
779 481 812 482 6535 6763 6766 6537 4299 6768 
812 481 515 482 6763 4621 6764 6768 4299 4622 
482 515 813 516 4622 6769 6770 4631 4633 6771 
779 813 780 482 6772 6773 6547 6537 6770 6542 
482 515 812 813 4622 6764 6768 6770 6769 6774 
779 813 482 812 6772 6770 6537 6766 6774 6768 
780 482 813 483 6542 6770 6773 6544 4309 6775 
813 482 516 483 6770 4631 6771 6775 4309 4632 
483 516 814 517 4632 6776 6777 4641 4643 6778 
780 814 781 483 6779 6780 6554 6544 6777 6549 
483 516 813 814 4632 6771 6775 6777 6776 6781 
780 814 483 813 6779 6777 6544 6773 6781 6775 
781 483 814 484 6549 6777 6780 6551 4319 6782 
814 483 517 484 6777 4641 6778 6782 4319 4642 
484 517 815 518 4642 6783 6784 4651 4653 6785 
781 815 782 484 6786 6787 6561 6551 6784 6556 
484 517 814 815 4642 6778 6782 6784 6783 6788 
781 815 484 814 6786 6784 6551 6780 6788 6782 
782 484 815 485 6556 6784 6787 6558 4329 6789 
815 484 518 485 6784 4651 6785 6789 4329 4652 
485 518 816 519 4652 6790 6791 4661 4663 6792 
782 816 783 485 6793 6794 6568 6558 6791 6563 
485 518 815 816 4652 6785 6789 6791 6790 6795 
782 816 485 815 6793 6791 6558 6787 6795 6789 
783 485 816 486 6563 6791 6794 6565 4339 6796 
816 485 519 486 6791 4661 6792 6796 4339 4662 
486 519 817 520 4662 6797 6798 4671 4673 6799 
783 817 784 486 6800 6801 6575 6565 6798 6570 
486 519 816 817 4662 6792 6796 6798 6797 6802 
783 817 486 816 6800 6798 6565 6794 6802 6796 
784 486 817 487 6570 6798 6801 6572 4349 6803 
817 486 520 487 6798 4671 6799 6803 4349 4672 
487 520 818 521 4672 6804 6805 4681 4683 6806 
784 818 785 487 6807 6808 6582 6572 6805 6577 
487 520 817 818 4672 6799 6803 6805 6804 6809 
784 818 487 817 6807 6805 6572 6801 6809 6803 
785 487 818 488 6577 6805 6808 6579 4359 6810 
818 487 521 488 6805 4681 6806 6810 4359 4682 
488 521 819 522 4682 6811 6812 4691 4693 6813 
785 819 786 488 6814 6815 6589 6579 6812 6584 
488 521 818 819 4682 6806 6810 6812 6811 6816 
785 819 488 818 6814 6812 6579 6808 6816 6810 
786 488 819 489 6584 6812 6815 6586 4369 6817 
819 488 522 489 6812 4691 6813 6817 4369 4692 
489 522 820 523 4692 6818 6819 4701 4703 6820 
786 820 787 489 6821 6822 6596 6586 6819 6591 
489 522 819 820 4692 6813 6817 6819 6818 6823 
786 820 489 819 6821 6819 6586 6815 6823 6817 
787 489 820 490 6591 6819 6822 6593 4379 6824 
820 489 523 490 6819 4701 6820 6824 4379 4702 
490 523 821 524 4702 6825 6826 4711 4713 6827 
787 821 788 490 6828 6829 6603 6593 6826 6598 
490 523 820 821 4702 6820 6824 6826 6825 6830 
787 821 490 820 6828 6826 6593 6822 6830 6824 
788 490 821 491 6598 6826 6829 6600 4389 6831 
821 490 524 491 6826 4711 6827 6831 4389 4712 
491 524 822 525 4712 6832 6833 4721 4723 6834 
788 822 789 491 6835 6836 6610 6600 6833 6605 
491 524 821 822 4712 6827 6831 6833 6832 6837 
788 822 491 821 6835 6833 6600 6829 6837 6831 
789 491 822 492 6605 6833 6836 6607 4399 6838 
822 491 525 492 6833 4721 6834 6838 4399 4722 
492 525 823 526 4722 6839 6840 4731 4733 6841 
789 823 790 492 6842 6843 6617 6607 6840 6612 
492 525 822 823 4722 6834 6838 6840 6839 6844 
789 823 492 822 6842 6840 6607 6836 6844 6838 
790 492 823 493 6612 6840 6843 6614 4409 6845 
823 492 526 493 6840 4731 6841 6845 4409 4732 
493 526 824 527 4732 6846 6847 4741 4743 6848 
790 824 791 493 6849 6850 6624 6614 6847 6619 
493 526 823 824 4732 6841 6845 6847 6846 6851 
790 824 493 823 6849 6847 6614 6843 6851 6845 
791 493 824 494 6619 6847 6850 6621 4419 6852 
824 493 527 494 6847 4741 6848 6852 4419 4742 
495 528 826 529 4757 6853 6854 4752 4756 6855 
792 826 793 495 6856 6857 6633 6631 6854 6626 
495 528 825 826 4757 6858 6859 6854 6853 6860 
792 826 495 825 6856 6854 6631 6861 6860 6859 
793 495 826 496 6626 6854 6857 6628 4432 6862 
826 495 529 496 6854 4752 6855 6862 4432 4753 
496 529 827 530 4753 6863 6864 4765 4767 6865 
793 827 794 496 6866 6867 6641 6628 6864 6636 
496 529 826 827 4753 6855 6862 6864 6863 6868 
793 827 496 826 6866 6864 6628 6857 6868 6862 
794 496 827 497 6636 6864 6867 6638 4443 6869 
827 496 530 497 6864 4765 6865 6869 4443 4766 
497 530 828 531 4766 6870 6871 4775 4777 6872 
794 828 795 497 6873 6874 6648 6638 6871 6643 
497 530 827 828 4766 6865 6869 6871 6870 6875 
794 828 497 827 6873 6871 6638 6867 6875 6869 
795 497 828 498 6643 6871 6874 6645 4453 6876 
828 497 531 498 6871 4775 6872 6876 4453 4776 
498 531 829 532 4776 6877 6878 4785 4787 6879 
795 829 796 498 6880 6881 6655 6645 6878 6650 
498 531 828 829 4776 6872 6876 6878 6877 6882 
795 829 498 828 6880 6878 6645 6874 6882 6876 
796 498 829 499 6650 6878 6881 6652 4463 6883 
829 498 532 499 6878 4785 6879 6883 4463 4786 
499 532 830 533 4786 6884 6885 4795 4797 6886 
796 830 797 499 6887 6888 6662 6652 6885 6657 
499 532 829 830 4786 6879 6883 6885 6884 6889 
796 830 499 829 6887 6885 6652 6881 6889 6883 
797 499 830 500 6657 6885 6888 6659 4473 6890 
830 499 533 500 6885 4795 6886 6890 4473 4796 
500 533 831 534 4796 6891 6892 4805 4807 6893 
797 831 798 500 6894 6895 6669 6659 6892 6664 
500 533 830 831 4796 6886 6890 6892 6891 6896 
797 831 500 830 6894 6892 6659 6888 6896 6890 
798 500 831 501 6664 6892 6895 6666 4483 6897 
831 500 534 501 6892 4805 6893 6897 4483 4806 
501 534 832 535 4806 6898 6899 4815 4817 6900 
798 832 799 501 6901 6902 6676 6666 6899 6671 
501 534 831 832 4806 6893 6897 6899 6898 6903 
798 832 501 831 6901 6899 6666 6895 6903 6897 
799 501 832 502 6671 6899 6902 6673 4493 6904 
832 501 535 502 6899 4815 6900 6904 4493 4816 
502 535 833 536 4816 6905 6906 4825 4827 6907 
799 833 800 502 6908 6909 6683 6673 6906 6678 
502 535 832 833 4816 6900 6904 6906 6905 6910 
799 833 502 832 6908 6906 6673 6902 6910 6904 
800 502 833 503 6678 6906 6909 6680 4503 6911 
833 502 536 503 6906 4825 6907 6911 4503 4826 
503 536 834 537 4826 6912 6913 4835 4837 6914 
800 834 801 503 6915 6916 6690 6680 6913 6685 
503 536 833 834 4826 6907 6911 6913 6912 6917 
800 834 503 833 6915 6913 6680 6909 6917 6911 
801 503 834 504 6685 6913 6916 6687 4513 6918 
834 503 537 504 6913 4835 6914 6918 4513 4836 
504 537 835 538 4836 6919 6920 4845 4847 6921 
801 835 802 504 6922 6923 6697 6687 6920 6692 
504 537 834 835 4836 6914 6918 6920 6919 6924 
801 835 504 834 6922 6920 6687 6916 6924 6918 
802 504 835 505 6692 6920 6923 6694 4523 6925 
835 504 538 505 6920 4845 6921 6925 4523 4846 
505 538 836 539 4846 6926 6927 4855 4857 6928 
802 836 803 505 6929 6930 6704 6694 6927 6699 
505 538 835 836 4846 6921 6925 6927 6926 6931 
802 836 505 835 6929 6927 6694 6923 6931 6925 
803 505 836 506 6699 6927 6930 6701 4533 6932 
836 505 539 506 6927 4855 6928 6932 4533 4856 
506 539 837 540 4856 6933 6934 4865 4867 6935 
803 837 804 506 6936 6937 6711 6701 6934 6706 
506 539 836 837 4856 6928 6932 6934 6933 6938 
803 837 506 836 6936 6934 6701 6930 6938 6932 
804 506 837 507 6706 6934 6937 6708 4543 6939 
837 506 540 507 6934 4865 6935 6939 4543 4866 
507 540 838 541 4866 6940 6941 4875 4877 6942 
804 838 805 507 6943 6944 6718 6708 6941 6713 
507 540 837 838 4866 6935 6939 6941 6940 6945 
804 838 507 837 6943 6941 6708 6937 6945 6939 
805 507 838 508 6713 6941 6944 6715 4553 6946 
838 507 541 508 6941 4875 6942 6946 4553 4876 
508 541 839 542 4876 6947 6948 4885 4887 6949 
805 839 806 508 6950 6951 6725 6715 6948 6720 
508 541 838 839 4876 6942 6946 6948 6947 6952 
805 839 508 838 6950 6948 6715 6944 6952 6946 
806 508 839 509 6720 6948 6951 6722 4563 6953 
839 508 542 509 6948 4885 6949 6953 4563 4886 
509 542 840 543 4886 6954 6955 4895 4897 6956 
806 840 807 509 6957 6958 6732 6722 6955 6727 
509 542 839 840 4886 6949 6953 6955 6954 6959 
806 840 509 839 6957 6955 6722 6951 6959 6953 
807 509 840 510 6727 6955 6958 6729 4573 6960 
840 509 543 510 6955 4895 6956 6960 4573 4896 
510 543 841 544 4896 6961 6962 4905 4907 6963 
807 841 808 510 6964 6965 6739 6729 6962 6734 
510 543 840 841 4896 6956 6960 6962 6961 6966 
807 841 510 840 6964 6962 6729 6958 6966 6960 
808 510 841 511 6734 6962 6965 6736 4583 6967 
841 510 544 511 6962 4905 6963 6967 4583 4906 
511 544 842 545 4906 6968 6969 4915 4917 6970 
808 842 809 511 6971 6972 6746 6736 6969 6741 
511 544 841 842 4906 6963 6967 6969 6968 6973 
808 842 511 841 6971 6969 6736 6965 6973 6967 
809 511 842 512 6741 6969 6972 6743 4593 6974 
842 511 545 512 6969 4915 6970 6974 4593 4916 
512 545 843 546 4916 6975 6976 4925 4927 6977 
809 843 810 512 6978 6979 6753 6743 6976 6748 
512 545 842 843 4916 6970 6974 6976 6975 6980 
809 843 512 842 6978 6976 6743 6972 6980 6974 
810 512 843 513 6748 6976 6979 6750 4603 6981 
843 512 546 513 6976 4925 6977 6981 4603 4926 
513 546 844 547 4926 6982 6983 4935 4937 6984 
810 844 811 513 6985 6986 6760 6750 6983 6755 
513 546 843 844 4926 6977 6981 6983 6982 6987 
810 844 513 843 6985 6983 6750 6979 6987 6981 
811 513 844 514 6755 6983 6986 6757 4613 6988 
844 513 547 514 6983 4935 6984 6988 4613 4936 
514 547 845 548 4936 6989 6990 4945 4947 6991 
811 845 812 514 6992 6993 6767 6757 6990 6762 
514 547 844 845 4936 6984 6988 6990 6989 6994 
811 845 514 844 6992 6990 6757 6986 6994 6988 
812 514 845 515 6762 6990 6993 6764 4623 6995 
845 514 548 515 6990 4945 6991 6995 4623 4946 
515 548 846 549 4946 6996 6997 4955 4957 6998 
812 846 813 515 6999 7000 6774 6764 6997 6769 
515 548 845 846 4946 6991 6995 6997 6996 7001 
812 846 515 845 6999 6997 6764 6993 7001 6995 
813 515 846 516 6769 6997 7000 6771 4633 7002 
846 515 549 516 6997 4955 6998 7002 4633 4956 
516 549 847 550 4956 7003 7004 4965 4967 7005 
813 847 814 516 7006 7007 6781 6771 7004 6776 
516 549 846 847 4956 6998 7002 7004 7003 7008 
813 847 516 846 7006 7004 6771 7000 7008 7002 
814 516 847 517 6776 7004 7007 6778 4643 7009 
847 516 550 517 7004 4965 7005 7009 4643 4966 
517 550 848 551 4966 7010 7011 4975 4977 7012 
814 848 815 517 7013 7014 6788 6778 7011 6783 
517 550 847 848 4966 7005 7009 7011 7010 7015 
814 848 517 847 7013 7011 6778 7007 7015 7009 
815 517 848 518 6783 7011 7014 6785 4653 7016 
848 517 551 518 7011 4975 7012 7016 4653 4976 
518 551 849 552 4976 7017 7018 4985 4987 7019 
815 849 816 518 7020 7021 6795 6785 7018 6790 
518 551 848 849 4976 7012 7016 7018 7017 7022 
815 849 518 848 7020 7018 6785 7014 7022 7016 
816 518 849 519 6790 7018 7021 6792 4663 7023 
849 518 552 519 7018 4985 7019 7023 4663 4986 
519 552 850 553 4986 7024 7025 4995 4997 7026 
816 850 817 519 7027 7028 6802 6792 7025 6797 
519 552 849 850 4986 7019 7023 7025 7024 7029 
816 850 519 849 7027 7025 6792 7021 7029 7023 
817 519 850 520 6797 7025 7028 6799 4673 7030 
850 519 553 520 7025 4995 7026 7030 4673 4996 
520 553 851 554 4996 7031 7032 5005 5007 7033 
817 851 818 520 7034 7035 6809 6799 7032 6804 
520 553 850 851 4996 7026 7030 7032 7031 7036 
817 851 520 850 7034 7032 6799 7028 7036 7030 
818 520 851 521 6804 7032 7035 6806 4683 7037 
851 520 554 521 7032 5005 7033 7037 4683 5006 
521 554 852 555 5006 7038 7039 5015 5017 7040 
818 852 819 521 7041 7042 6816 6806 7039 6811 
521 554 851 852 5006 7033 7037 7039 7038 7043 
818 852 521 851 7041 7039 6806 7035 7043 7037 
819 521 852 522 6811 7039 7042 6813 4693 7044 
852 521 555 522 7039 5015 7040 7044 4693 5016 
522 555 853 556 5016 7045 7046 5025 5027 7047 
819 853 820 522 7048 7049 6823 6813 7046 6818 
522 555 852 853 5016 7040 7044 7046 7045 7050 
819 853 522 852 7048 7046 6813 7042 7050 7044 
820 522 853 523 6818 7046 7049 6820 4703 7051 
853 522 556 523 7046 5025 7047 7051 4703 5026 
523 556 854 557 5026 7052 7053 5035 5037 7054 
820 854 821 523 7055 7056 6830 6820 7053 6825 
523 556 853 854 5026 7047 7051 7053 7052 7057 
820 854 523 853 7055 7053 6820 7049 7057 7051 
821 523 854 524 6825 7053 7056 6827 4713 7058 
854 523 557 524 7053 5035 7054 7058 4713 5036 
524 557 855 558 5036 7059 7060 5045 5047 7061 
821 855 822 524 7062 7063 6837 6827 7060 6832 
524 557 854 855 5036 7054 7058 7060 7059 7064 
821 855 524 854 7062 7060 6827 7056 7064 7058 
822 524 855 525 6832 7060 7063 6834 4723 7065 
855 524 558 525 7060 5045 7061 7065 4723 5046 
525 558 856 559 5046 7066 7067 5055 5057 7068 
822 856 823 525 7069 7070 6844 6834 7067 6839 
525 558 855 856 5046 7061 7065 7067 7066 7071 
822 856 525 855 7069 7067 6834 7063 7071 7065 
823 525 856 526 6839 7067 7070 6841 4733 7072 
856 525 559 526 7067 5055 7068 7072 4733 5056 
526 559 857 560 5056 7073 7074 5065 5067 7075 
823 857 824 526 7076 7077 6851 6841 7074 6846 
526 559 856 857 5056 7068 7072 7074 7073 7078 
823 857 526 856 7076 7074 6841 7070 7078 7072 
824 526 857 527 6846 7074 7077 6848 4743 7079 
857 526 560 527 7074 5065 7075 7079 4743 5066 
528 561 859 562 5081 7080 7081 5076 5080 7082 
825 859 826 528 7083 7084 6860 6858 7081 6853 
528 561 858 859 5081 7085 7086 7081 7080 7087 
825 859 528 858 7083 7081 6858 7088 7087 7086 
826 528 859 529 6853 7081 7084 6855 4756 7089 
859 528 562 529 7081 5076 7082 7089 4756 5077 
529 562 860 563 5077 7090 7091 5089 5091 7092 
826 860 827 529 7093 7094 6868 6855 7091 6863 
529 562 859 860 5077 7082 7089 7091 7090 7095 
826 860 529 859 7093 7091 6855 7084 7095 7089 
827 529 860 530 6863 7091 7094 6865 4767 7096 
860 529 563 530 7091 5089 7092 7096 4767 5090 
530 563 861 564 5090 7097 7098 5099 5101 7099 
827 861 828 530 7100 7101 6875 6865 7098 6870 
530 563 860 861 5090 7092 7096 7098 7097 7102 
827 861 530 860 7100 7098 6865 7094 7102 7096 
828 530 861 531 6870 7098 7101 6872 4777 7103 
861 530 564 531 7098 5099 7099 7103 4777 5100 
531 564 862 565 5100 7104 7105 5109 5111 7106 
828 862 829 531 7107 7108 6882 6872 7105 6877 
531 564 861 862 5100 7099 7103 7105 7104 7109 
828 862 531 861 7107 7105 6872 7101 7109 7103 
829 531 862 532 6877 7105 7108 6879 4787 7110 
862 531 565 532 7105 5109 7106 7110 4787 5110 
532 565 863 566 5110 7111 7112 5119 5121 7113 
829 863 830 532 7114 7115 6889 6879 7112 6884 
532 565 862 863 5110 7106 7110 7112 7111 7116 
829 863 532 862 7114 7112 6879 7108 7116 7110 
830 532 863 533 6884 7112 7115 6886 4797 7117 
863 532 566 533 7112 5119 7113 7117 4797 5120 
533 566 864 567 5120 7118 7119 5129 5131 7120 
830 864 831 533 7121 7122 6896 6886 7119 6891 
533 566 863 864 5120 7113 7117 7119 7118 7123 
830 864 533 863 7121 7119 6886 7115 7123 7117 
831 533 864 534 6891 7119 7122 6893 4807 7124 
864 533 567 534 7119 5129 7120 7124 4807 5130 
534 567 865 568 5130 7125 7126 5139 5141 7127 
831 865 832 534 7128 7129 6903 6893 7126 6898 
534 567 864 865 5130 7120 7124 7126 7125 7130 
831 865 534 864 7128 7126 6893 7122 7130 7124 
832 534 865 535 6898 7126 7129 6900 4817 7131 
865 534 568 535 7126 5139 7127 7131 4817 5140 
535 568 866 569 5140 7132 7133 5149 5151 7134 
832 866 833 535 7135 7136 6910 6900 7133 6905 
535 568 865 866 5140 7127 7131 7133 7132 7137 
832 866 535 865 7135 7133 6900 7129 7137 7131 
833 535 866 536 6905 7133 7136 6907 4827 7138 
866 535 569 536 7133 5149 7134 7138 4827 5150 
536 569 867 570 5150 7139 7140 5159 5161 7141 
833 867 834 536 7142 7143 6917 6907 7140 6912 
536 569 866 867 5150 7134 7138 7140 7139 7144 
833 867 536 866 7142 7140 6907 7136 7144 7138 
834 536 867 537 6912 7140 7143 6914 4837 7145 
867 536 570 537 7140 5159 7141 7145 4837 5160 
537 570 868 571 5160 7146 7147 5169 5171 7148 
834 868 835 537 7149 7150 6924 6914 7147 6919 
537 570 867 868 5160 7141 7145 7147 7146 7151 
834 868 537 867 7149 7147 6914 7143 7151 7145 
835 537 868 538 6919 7147 7150 6921 4847 7152 
868 537 571 538 7147 5169 7148 7152 4847 5170 
538 571 869 572 5170 7153 7154 5179 5181 7155 
835 869 836 538 7156 7157 6931 6921 7154 6926 
538 571 868 869 5170 7148 7152 7154 7153 7158 
835 869 538 868 7156 7154 6921 7150 7158 7152 
836 538 869 539 6926 7154 7157 6928 4857 7159 
869 538 572 539 7154 5179 7155 7159 4857 5180 
539 572 870 573 5180 7160 7161 5189 5191 7162 
836 870 837 539 7163 7164 6938 6928 7161 6933 
539 572 869 870 5180 7155 7159 7161 7160 7165 
836 870 539 869 7163 7161 6928 7157 7165 7159 
837 539 870 540 6933 7161 7164 6935 4867 7166 
870 539 573 540 7161 5189 7162 7166 4867 5190 
540 573 871 574 5190 7167 7168 5199 5201 7169 
837 871 838 540 7170 7171 6945 6935 7168 6940 
540 573 870 871 5190 7162 7166 7168 7167 7172 
837 871 540 870 7170 7168 6935 7164 7172 7166 
838 540 871 541 6940 7168 7171 6942 4877 7173 
871 540 574 541 7168 5199 7169 7173 4877 5200 
541 574 872 575 5200 7174 7175 5209 5211 7176 
838 872 839 541 7177 7178 6952 6942 7175 6947 
541 574 871 872 5200 7169 7173 7175 7174 7179 
838 872 541 871 7177 7175 6942 7171 7179 7173 
839 541 872 542 6947 7175 7178 6949 4887 7180 
872 541 575 542 7175 5209 7176 7180 4887 5210 
542 575 873 576 5210 7181 7182 5219 5221 7183 
839 873 840 542 7184 7185 6959 6949 7182 6954 
542 575 872 873 5210 7176 7180 7182 7181 7186 
839 873 542 872 7184 7182 6949 7178 7186 7180 
840 542 873 543 6954 7182 7185 6956 4897 7187 
873 542 576 543 7182 5219 7183 7187 4897 5220 
543 576 874 577 5220 7188 7189 5229 5231 7190 
840 874 841 543 7191 7192 6966 6956 7189 6961 
543 576 873 874 5220 7183 7187 7189 7188 7193 
840 874 543 873 7191 7189 6956 7185 7193 7187 
841 543 874 544 6961 7189 7192 6963 4907 7194 
874 543 577 544 7189 5229 7190 7194 4907 5230 
544 577 875 578 5230 7195 7196 5239 5241 7197 
841 875 842 544 7198 7199 6973 6963 7196 6968 
544 577 874 875 5230 7190 7194 7196 7195 7200 
841 875 544 874 7198 7196 6963 7192 7200 7194 
842 544 875 545 6968 7196 7199 6970 4917 7201 
875 544 578 545 7196 5239 7197 7201 4917 5240 
545 578 876 579 5240 7202 7203 5249 5251 7204 
842 876 843 545 7205 7206 6980 6970 7203 6975 
545 578 875 876 5240 7197 7201 7203 7202 7207 
842 876 545 875 7205 7203 6970 7199 7207 7201 
843 545 876 546 6975 7203 7206 6977 4927 7208 
876 545 579 546 7203 5249 7204 7208 4927 5250 
546 579 877 580 5250 7209 7210 5259 5261 7211 
843 877 844 546 7212 7213 6987 6977 7210 6982 
546 579 876 877 5250 7204 7208 7210 7209 7214 
843 877 546 876 7212 7210 6977 7206 7214 7208 
844 546 877 547 6982 7210 7213 6984 4937 7215 
877 546 580 547 7210 5259 7211 7215 4937 5260 
547 580 878 581 5260 7216 7217 5269 5271 7218 
844 878 845 547 7219 7220 6994 6984 7217 6989 
547 580 877 878 5260 7211 7215 7217 7216 7221 
844 878 547 877 7219 7217 6984 7213 7221 7215 
845 547 878 548 6989 7217 7220 6991 4947 7222 
878 547 581 548 7217 5269 7218 7222 4947 5270 
548 581 879 582 5270 7223 7224 5279 5281 7225 
845 879 846 548 7226 7227 7001 6991 7224 6996 
548 581 878 879 5270 7218 7222 7224 7223 7228 
845 879 548 878 7226 7224 6991 7220 7228 7222 
846 548 879 549 6996 7224 7227 6998 4957 7229 
879 548 582 549 7224 5279 7225 7229 4957 5280 
549 582 880 583 5280 7230 7231 5289 5291 7232 
846 880 847 549 7233 7234 7008 6998 7231 7003 
549 582 879 880 5280 7225 7229 7231 7230 7235 
846 880 549 879 7233 7231 6998 7227 7235 7229 
847 549 880 550 7003 7231 7234 7005 4967 7236 
880 549 583 550 7231 5289 7232 7236 4967 5290 
550 583 881 584 5290 7237 7238 5299 5301 7239 
847 881 848 550 7240 7241 7015 7005 7238 7010 
550 583 880 881 5290 7232 7236 7238 7237 7242 
847 881 550 880 7240 7238 7005 7234 7242 7236 
848 550 881 551 7010 7238 7241 7012 4977 7243 
881 550 584 551 7238 5299 7239 7243 4977 5300 
551 584 882 585 5300 7244 7245 5309 5311 7246 
848 882 849 551 7247 7248 7022 7012 7245 7017 
551 584 881 882 5300 7239 7243 7245 7244 7249 
848 882 551 881 7247 7245 7012 7241 7249 7243 
849 551 882 552 7017 7245 7248 7019 4987 7250 
882 551 585 552 7245 5309 7246 7250 4987 5310 
552 585 883 586 5310 7251 7252 5319 5321 7253 
849 883 850 552 7254 7255 7029 7019 7252 7024 
552 585 882 883 5310 7246 7250 7252 7251 7256 
849 883 552 882 7254 7252 7019 7248 7256 7250 
850 552 883 553 7024 7252 7255 7026 4997 7257 
883 552 586 553 7252 5319 7253 7257 4997 5320 
553 586 884 587 5320 7258 7259 5329 5331 7260 
850 884 851 553 7261 7262 7036 7026 7259 7031 
553 586 883 884 5320 7253 7257 7259 7258 7263 
850 884 553 883 7261 7259 7026 7255 7263 7257 
851 553 884 554 7031 7259 7262 7033 5007 7264 
884 553 587 554 7259 5329 7260 7264 5007 5330 
554 587 885 588 5330 7265 7266 5339 5341 7267 
851 885 852 554 7268 7269 7043 7033 7266 7038 
554 587 884 885 5330 7260 7264 7266 7265 7270 
851 885 554 884 7268 7266 7033 7262 7270 7264 
852 554 885 555 7038 7266 7269 7040 5017 7271 
885 554 588 555 7266 5339 7267 7271 5017 5340 
555 588 886 589 5340 7272 7273 5349 5351 7274 
852 886 853 555 7275 7276 7050 7040 7273 7045 
555 588 885 886 5340 7267 7271 7273 7272 7277 
852 886 555 885 7275 7273 7040 7269 7277 7271 
853 555 886 556 7045 7273 7276 7047 5027 7278 
886 555 589 556 7273 5349 7274 7278 5027 5350 
556 589 887 590 5350 7279 7280 5359 5361 7281 
853 887 854 556 7282 7283 7057 7047 7280 7052 
556 589 886 887 5350 7274 7278 7280 7279 7284 
853 887 556 886 7282 7280 7047 7276 7284 7278 
854 556 887 557 7052 7280 7283 7054 5037 7285 
887 556 590 557 7280 5359 7281 7285 5037 5360 
557 590 888 591 5360 7286 7287 5369 5371 7288 
854 888 855 557 7289 7290 7064 7054 7287 7059 
557 590 887 888 5360 7281 7285 7287 7286 7291 
854 888 557 887 7289 7287 7054 7283 7291 7285 
855 557 888 558 7059 7287 7290 7061 5047 7292 
888 557 591 558 7287 5369 7288 7292 5047 5370 
558 591 889 592 5370 7293 7294 5379 5381 7295 
855 889 856 558 7296 7297 7071 7061 7294 7066 
558 591 888 889 5370 7288 7292 7294 7293 7298 
855 889 558 888 7296 7294 7061 7290 7298 7292 
856 558 889 559 7066 7294 7297 7068 5057 7299 
889 558 592 559 7294 5379 7295 7299 5057 5380 
559 592 890 593 5380 7300 7301 5389 5391 7302 
856 890 857 559 7303 7304 7078 7068 7301 7073 
559 592 889 890 5380 7295 7299 7301 7300 7305 
856 890 559 889 7303 7301 7068 7297 7305 7299 
857 559 890 560 7073 7301 7304 7075 5067 7306 
890 559 593 560 7301 5389 7302 7306 5067 5390 
594 627 925 628 5405 7307 7308 5397 5404 7309 
891 925 892 594 7310 7311 7312 7313 7308 7314 
594 627 924 925 5405 7315 7316 7308 7307 7317 
891 925 594 924 7310 7308 7313 7318 7317 7316 
892 594 925 595 7314 7308 7311 7319 5399 7320 
925 594 628 595 7308 5397 7309 7320 5399 5398 
595 628 926 629 5398 7321 7322 5411 5415 7323 
892 926 893 595 7324 7325 7326 7319 7322 7327 
595 628 925 926 5398 7309 7320 7322 7321 7328 
892 926 595 925 7324 7322 7319 7311 7328 7320 
893 595 926 596 7327 7322 7325 7329 5413 7330 
926 595 629 596 7322 5411 7323 7330 5413 5412 
596 629 927 630 5412 7331 7332 5421 5425 7333 
893 927 894 596 7334 7335 7336 7329 7332 7337 
596 629 926 927 5412 7323 7330 7332 7331 7338 
893 927 596 926 7334 7332 7329 7325 7338 7330 
894 596 927 597 7337 7332 7335 7339 5423 7340 
927 596 630 597 7332 5421 7333 7340 5423 5422 
597 630 928 631 5422 7341 7342 5431 5435 7343 
894 928 895 597 7344 7345 7346 7339 7342 7347 
597 630 927 928 5422 7333 7340 7342 7341 7348 
894 928 597 927 7344 7342 7339 7335 7348 7340 
895 597 928 598 7347 7342 7345 7349 5433 7350 
928 597 631 598 7342 5431 7343 7350 5433 5432 
598 631 929 632 5432 7351 7352 5441 5445 7353 
895 929 896 598 7354 7355 7356 7349 7352 7357 
598 631 928 929 5432 7343 7350 7352 7351 7358 
895 929 598 928 7354 7352 7349 7345 7358 7350 
896 598 929 599 7357 7352 7355 7359 5443 7360 
929 598 632 599 7352 5441 7353 7360 5443 5442 
599 632 930 633 5442 7361 7362 5451 5455 7363 
896 930 897 599 7364 7365 7366 7359 7362 7367 
599 632 929 930 5442 7353 7360 7362 7361 7368 
896 930 599 929 7364 7362 7359 7355 7368 7360 
897 599 930 600 7367 7362 7365 7369 5453 7370 
930 599 633 600 7362 5451 7363 7370 5453 5452 
600 633 931 634 5452 7371 7372 5461 5465 7373 
897 931 898 600 7374 7375 7376 7369 7372 7377 
600 633 930 931 5452 7363 7370 7372 7371 7378 
897 931 600 930 7374 7372 7369 7365 7378 7370 
898 600 931 601 7377 7372 7375 7379 5463 7380 
931 600 634 601 7372 5461 7373 7380 5463 5462 
601 634 932 635 5462 7381 7382 5471 5475 7383 
898 932 899 601 7384 7385 7386 7379 7382 7387 
601 634 931 932 5462 7373 7380 7382 7381 7388 
898 932 601 931 7384 7382 7379 7375 7388 7380 
899 601 932 602 7387 7382 7385 7389 5473 7390 
932 601 635 602 7382 5471 7383 7390 5473 5472 
602 635 933 636 5472 7391 7392 5481 5485 7393 
899 933 900 602 7394 7395 7396 7389 7392 7397 
602 635 932 933 5472 7383 7390 7392 7391 7398 
899 933 602 932 7394 7392 7389 7385 7398 7390 
900 602 933 603 7397 7392 7395 7399 5483 7400 
933 602 636 603 7392 5481 7393 7400 5483 5482 
603 636 934 637 5482 7401 7402 5491 5495 7403 
900 934 901 603 7404 7405 7406 7399 7402 7407 
603 636 933 934 5482 7393 7400 7402 7401 7408 
900 934 603 933 7404 7402 7399 7395 7408 7400 
901 603 934 604 7407 7402 7405 7409 5493 7410 
934 603 637 604 7402 5491 7403 7410 5493 5492 
604 637 935 638 5492 7411 7412 5501 5505 7413 
901 935 902 604 7414 7415 7416 7409 7412 7417 
604 637 934 935 5492 7403 7410 7412 7411 7418 
901 935 604 934 7414 7412 7409 7405 7418 7410 
902 604 935 605 7417 7412 7415 7419 5503 7420 
935 604 638 605 7412 5501 7413 7420 5503 5502 
605 638 936 639 5502 7421 7422 5511 5515 7423 
902 936 903 605 7424 7425 7426 7419 7422 7427 
605 638 935 936 5502 7413 7420 7422 7421 7428 
902 936 605 935 7424 7422 7419 7415 7428 7420 
903 605 936 606 7427 7422 7425 7429 5513 7430 
936 605 639 606 7422 5511 7423 7430 5513 5512 
606 639 937 640 5512 7431 7432 5521 5525 7433 
903 937 904 606 7434 7435 7436 7429 7432 7437 
606 639 936 937 5512 7423 7430 7432 7431 7438 
903 937 606 936 7434 7432 7429 7425 7438 7430 
904 606 937 607 7437 7432 7435 7439 5523 7440 
937 606 640 607 7432 5521 7433 7440 5523 5522 
607 640 938 641 5522 7441 7442 5531 5535 7443 
904 938 905 607 7444 7445 7446 7439 7442 7447 
607 640 937 938 5522 7433 7440 7442 7441 7448 
904 938 607 937 7444 7442 7439 7435 7448 7440 
905 607 938 608 7447 7442 7445 7449 5533 7450 
938 607 641 608 7442 5531 7443 7450 5533 5532 
608 641 939 642 5532 7451 7452 5541 5545 7453 
905 939 906 608 7454 7455 7456 7449 7452 7457 
608 641 938 939 5532 7443 7450 7452 7451 7458 
905 939 608 938 7454 7452 7449 7445 7458 7450 
906 608 939 609 7457 7452 7455 7459 5543 7460 
939 608 642 609 7452 5541 7453 7460 5543 5542 
609 642 940 643 5542 7461 7462 5551 5555 7463 
906 940 907 609 7464 7465 7466 7459 7462 7467 
609 642 939 940 5542 7453 7460 7462 7461 7468 
906 940 609 939 7464 7462 7459 7455 7468 7460 
907 609 940 610 7467 7462 7465 7469 5553 7470 
940 609 643 610 7462 5551 7463 7470 5553 5552 
610 643 941 644 5552 7471 7472 5561 5565 7473 
907 941 908 610 7474 7475 7476 7469 7472 7477 
610 643 940 941 5552 7463 7470 7472 7471 7478 
907 941 610 940 7474 7472 7469 7465 7478 7470 
908 610 941 611 7477 7472 7475 7479 5563 7480 
941 610 644 611 7472 5561 7473 7480 5563 5562 
611 644 942 645 5562 7481 7482 5571 5575 7483 
908 942 909 611 7484 7485 7486 7479 7482 7487 
611 644 941 942 5562 7473 7480 7482 7481 7488 
908 942 611 941 7484 7482 7479 7475 7488 7480 
909 611 942 612 7487 7482 7485 7489 5573 7490 
942 611 645 612 7482 5571 7483 7490 5573 5572 
612 645 943 646 5572 7491 7492 5581 5585 7493 
909 943 910 612 7494 7495 7496 7489 7492 7497 
612 645 942 943 5572 7483 7490 7492 7491 7498 
909 943 612 942 7494 7492 7489 7485 7498 7490 
910 612 943 613 7497 7492 7495 7499 5583 7500 
943 612 646 613 7492 5581 7493 7500 5583 5582 
613 646 944 647 5582 7501 7502 5591 5595 7503 
910 944 911 613 7504 7505 7506 7499 7502 7507 
613 646 943 944 5582 7493 7500 7502 7501 7508 
910 944 613 943 7504 7502 7499 7495 7508 7500 
911 613 944 614 7507 7502 7505 7509 5593 7510 
944 613 647 614 7502 5591 7503 7510 5593 5592 
614 647 945 648 5592 7511 7512 5601 5605 7513 
911 945 912 614 7514 7515 7516 7509 7512 7517 
614 647 944 945 5592 7503 7510 7512 7511 7518 
911 945 614 944 7514 7512 7509 7505 7518 7510 
912 614 945 615 7517 7512 7515 7519 5603 7520 
945 614 648 615 7512 5601 7513 7520 5603 5602 
615 648 946 649 5602 7521 7522 5611 5615 7523 
912 946 913 615 7524 7525 7526 7519 7522 7527 
615 648 945 946 5602 7513 7520 7522 7521 7528 
912 946 615 945 7524 7522 7519 7515 7528 7520 
913 615 946 616 7527 7522 7525 7529 5613 7530 
946 615 649 616 7522 5611 7523 7530 5613 5612 
616 649 947 650 5612 7531 7532 5621 5625 7533 
913 947 914 616 7534 7535 7536 7529 7532 7537 
616 649 946 947 5612 7523 7530 7532 7531 7538 
913 947 616 946 7534 7532 7529 7525 7538 7530 
914 616 947 617 7537 7532 7535 7539 5623 7540 
947 616 650 617 7532 5621 7533 7540 5623 5622 
617 650 948 651 5622 7541 7542 5631 5635 7543 
914 948 915 617 7544 7545 7546 7539 7542 7547 
617 650 947 948 5622 7533 7540 7542 7541 7548 
914 948 617 947 7544 7542 7539 7535 7548 7540 
915 617 948 618 7547 7542 7545 7549 5633 7550 
948 617 651 618 7542 5631 7543 7550 5633 5632 
618 651 949 652 5632 7551 7552 5641 5645 7553 
915 949 916 618 7554 7555 7556 7549 7552 7557 
618 651 948 949 5632 7543 7550 7552 7551 7558 
915 949 618 948 7554 7552 7549 7545 7558 7550 
916 618 949 619 7557 7552 7555 7559 5643 7560 
949 618 652 619 7552 5641 7553 7560 5643 5642 
619 652 950 653 5642 7561 7562 5651 5655 7563 
916 950 917 619 7564 7565 7566 7559 7562 7567 
619 652 949 950 5642 7553 7560 7562 7561 7568 
916 950 619 949 7564 7562 7559 7555 7568 7560 
917 619 950 620 7567 7562 7565 7569 5653 7570 
950 619 653 620 7562 5651 7563 7570 5653 5652 
620 653 951 654 5652 7571 7572 5661 5665 7573 
917 951 918 620 7574 7575 7576 7569 7572 7577 
620 653 950 951 5652 7563 7570 7572 7571 7578 
917 951 620 950 7574 7572 7569 7565 7578 7570 
918 620 951 621 7577 7572 7575 7579 5663 7580 
951 620 654 621 7572 5661 7573 7580 5663 5662 
621 654 952 655 5662 7581 7582 5671 5675 7583 
918 952 919 621 7584 7585 7586 7579 7582 7587 
621 654 951 952 5662 7573 7580 7582 7581 7588 
918 952 621 951 7584 7582 7579 7575 7588 7580 
919 621 952 622 7587 7582 7585 7589 5673 7590 
952 621 655 622 7582 5671 7583 7590 5673 5672 
622 655 953 656 5672 7591 7592 5681 5685 7593 
919 953 920 622 7594 7595 7596 7589 7592 7597 
622 655 952 953 5672 7583 7590 7592 7591 7598 
919 953 622 952 7594 7592 7589 7585 7598 7590 
920 622 953 623 7597 7592 7595 7599 5683 7600 
953 622 656 623 7592 5681 7593 7600 5683 5682 
623 656 954 657 5682 7601 7602 5691 5695 7603 
920 954 921 623 7604 7605 7606 7599 7602 7607 
623 656 953 954 5682 7593 7600 7602 7601 7608 
920 954 623 953 7604 7602 7599 7595 7608 7600 
921 623 954 624 7607 7602 7605 7609 5693 7610 
954 623 657 624 7602 5691 7603 7610 5693 5692 
624 657 955 658 5692 7611 7612 5701 5705 7613 
921 955 922 624 7614 7615 7616 7609 7612 7617 
624 657 954 955 5692 7603 7610 7612 7611 7618 
921 955 624 954 7614 7612 7609 7605 7618 7610 
922 624 955 625 7617 7612 7615 7619 5703 7620 
955 624 658 625 7612 5701 7613 7620 5703 5702 
625 658 956 659 5702 7621 7622 5711 5715 7623 
922 956 923 625 7624 7625 7626 7619 7622 7627 
625 658 955 956 5702 7613 7620 7622 7621 7628 
922 956 625 955 7624 7622 7619 7615 7628 7620 
923 625 956 626 7627 7622 7625 7629 5713 7630 
956 625 659 626 7622 5711 7623 7630 5713 5712 
627 660 958 661 5726 7631 7632 5721 5725 7633 
924 958 925 627 7634 7635 7317 7315 7632 7307 
627 660 957 958 5726 7636 7637 7632 7631 7638 
924 958 627 957 7634 7632 7315 7639 7638 7637 
925 627 958 628 7307 7632 7635 7309 5404 7640 
958 627 661 628 7632 5721 7633 7640 5404 5722 
628 661 959 662 5722 7641 7642 5731 5733 7643 
925 959 926 628 7644 7645 7328 7309 7642 7321 
628 661 958 959 5722 7633 7640 7642 7641 7646 
925 959 628 958 7644 7642 7309 7635 7646 7640 
926 628 959 629 7321 7642 7645 7323 5415 7647 
959 628 662 629 7642 5731 7643 7647 5415 5732 
629 662 960 663 5732 7648 7649 5738 5740 7650 
926 960 927 629 7651 7652 7338 7323 7649 7331 
629 662 959 960 5732 7643 7647 7649 7648 7653 
926 960 629 959 7651 7649 7323 7645 7653 7647 
927 629 960 630 7331 7649 7652 7333 5425 7654 
960 629 663 630 7649 5738 7650 7654 5425 5739 
630 663 961 664 5739 7655 7656 5745 5747 7657 
927 961 928 630 7658 7659 7348 7333 7656 7341 
630 663 960 961 5739 7650 7654 7656 7655 7660 
927 961 630 960 7658 7656 7333 7652 7660 7654 
928 630 961 631 7341 7656 7659 7343 5435 7661 
961 630 664 631 7656 5745 7657 7661 5435 5746 
631 664 962 665 5746 7662 7663 5752 5754 7664 
928 962 929 631 7665 7666 7358 7343 7663 7351 
631 664 961 962 5746 7657 7661 7663 7662 7667 
928 962 631 961 7665 7663 7343 7659 7667 7661 
929 631 962 632 7351 7663 7666 7353 5445 7668 
962 631 665 632 7663 5752 7664 7668 5445 5753 
632 665 963 666 5753 7669 7670 5759 5761 7671 
929 963 930 632 7672 7673 7368 7353 7670 7361 
632 665 962 963 5753 7664 7668 7670 7669 7674 
929 963 632 962 7672 7670 7353 7666 7674 7668 
930 632 963 633 7361 7670 7673 7363 5455 7675 
963 632 666 633 7670 5759 7671 7675 5455 5760 
633 666 964 667 5760 7676 7677 5766 5768 7678 
930 964 931 633 7679 7680 7378 7363 7677 7371 
633 666 963 964 5760 7671 7675 7677 7676 7681 
930 964 633 963 7679 7677 7363 7673 7681 7675 
931 633 964 634 7371 7677 7680 7373 5465 7682 
964 633 667 634 7677 5766 7678 7682 5465 5767 
634 667 965 668 5767 7683 7684 5773 5775 7685 
931 965 932 634 7686 7687 7388 7373 7684 7381 
634 667 964 965 5767 7678 7682 7684 7683 7688 
931 965 634 964 7686 7684 7373 7680 7688 7682 
932 634 965 635 7381 7684 7687 7383 5475 7689 
965 634 668 635 7684 5773 7685 7689 5475 5774 
635 668 966 669 5774 7690 7691 5780 5782 7692 
932 966 933 635 7693 7694 7398 7383 7691 7391 
635 668 965 966 5774 7685 7689 7691 7690 7695 
932 966 635 965 7693 7691 7383 7687 7695 7689 
933 635 966 636 7391 7691 7694 7393 5485 7696 
966 635 669 636 7691 5780 7692 7696 5485 5781 
636 669 967 670 5781 7697 7698 5787 5789 7699 
933 967 934 636 7700 7701 7408 7393 7698 7401 
636 669 966 967 5781 7692 7696 7698 7697 7702 
933 967 636 966 7700 7698 7393 7694 7702 7696 
934 636 967 637 7401 7698 7701 7403 5495 7703 
967 636 670 637 7698 5787 7699 7703 5495 5788 
637 670 968 671 5788 7704 7705 5794 5796 7706 
934 968 935 637 7707 7708 7418 7403 7705 7411 
637 670 967 968 5788 7699 7703 7705 7704 7709 
934 968 637 967 7707 7705 7403 7701 7709 7703 
935 637 968 638 7411 7705 7708 7413 5505 7710 
968 637 671 638 7705 5794 7706 7710 5505 5795 
638 671 969 672 5795 7711 7712 5801 5803 7713 
935 969 936 638 7714 7715 7428 7413 7712 7421 
638 671 968 969 5795 7706 7710 7712 7711 7716 
935 969 638 968 7714 7712 7413 7708 7716 7710 
936 638 969 639 7421 7712 7715 7423 5515 7717 
969 638 672 639 7712 5801 7713 7717 5515 5802 
639 672 970 673 5802 7718 7719 5808 5810 7720 
936 970 937 639 7721 7722 7438 7423 7719 7431 
639 672 969 970 5802 7713 7717 7719 7718 7723 
936 970 639 969 7721 7719 7423 7715 7723 7717 
937 639 970 640 7431 7719 7722 7433 5525 7724 
970 639 673 640 7719 5808 7720 7724 5525 5809 
640 673 971 674 5809 7725 7726 5815 5817 7727 
937 971 938 640 7728 7729 7448 7433 7726 7441 
640 673 970 971 5809 7720 7724 7726 7725 7730 
937 971 640 970 7728 7726 7433 7722 7730 7724 
938 640 971 641 7441 7726 7729 7443 5535 7731 
971 640 674 641 7726 5815 7727 7731 5535 5816 
641 674 972 675 5816 7732 7733 5822 5824 7734 
938 972 939 641 7735 7736 7458 7443 7733 7451 
641 674 971 972 5816 7727 7731 7733 7732 7737 
938 972 641 971 7735 7733 7443 7729 7737 7731 
939 641 972 642 7451 7733 7736 7453 5545 7738 
972 641 675 642 7733 5822 7734 7738 5545 5823 
642 675 973 676 5823 7739 7740 5829 5831 7741 
939 973 940 642 7742 7743 7468 7453 7740 7461 
642 675 972 973 5823 7734 7738 7740 7739 7744 
939 973 642 972 7742 7740 7453 7736 7744 7738 
940 642 973 643 7461 7740 7743 7463 5555 7745 
973 642 676 643 7740 5829 7741 7745 5555 5830 
643 676 974 677 5830 7746 7747 5836 5838 7748 
940 974 941 643 7749 7750 7478 7463 7747 7471 
643 676 973 974 5830 7741 7745 7747 7746 7751 
940 974 643 973 7749 7747 7463 7743 7751 7745 
941 643 974 644 7471 7747 7750 7473 5565 7752 
974 643 677 644 7747 5836 7748 7752 5565 5837 
644 677 975 678 5837 7753 7754 5843 5845 7755 
941 975 942 644 7756 7757 7488 7473 7754 7481 
644 677 974 975 5837 7748 7752 7754 7753 7758 
941 975 644 974 7756 7754 7473 7750 7758 7752 
942 644 975 645 7481 7754 7757 7483 5575 7759 
975 644 678 645 7754 5843 7755 7759 5575 5844 
645 678 976 679 5844 7760 7761 5850 5852 7762 
942 976 943 645 7763 7764 7498 7483 7761 7491 
645 678 975 976 5844 7755 7759 7761 7760 7765 
942 976 645 975 7763 7761 7483 7757 7765 7759 
943 645 976 646 7491 7761 7764 7493 5585 7766 
976 645 679 646 7761 5850 7762 7766 5585 5851 
646 679 977 680 5851 7767 7768 5857 5859 7769 
943 977 944 646 7770 7771 7508 7493 7768 7501 
646 679 976 977 5851 7762 7766 7768 7767 7772 
943 977 646 976 7770 7768 7493 7764 7772 7766 
944 646 977 647 7501 7768 7771 7503 5595 7773 
977 646 680 647 7768 5857 7769 7773 5595 5858 
647 680 978 681 5858 7774 7775 5864 5866 7776 
944 978 945 647 7777 7778 7518 7503 7775 7511 
647 680 977 978 5858 7769 7773 7775 7774 7779 
944 978 647 977 7777 7775 7503 7771 7779 7773 
945 647 978 648 7511 7775 7778 7513 5605 7780 
978 647 681 648 7775 5864 7776 7780 5605 5865 
648 681 979 682 5865 7781 7782 5871 5873 7783 
945 979 946 648 7784 7785 7528 7513 7782 7521 
648 681 978 979 5865 7776 7780 7782 7781 7786 
945 979 648 978 7784 7782 7513 7778 7786 7780 
946 648 979 649 7521 7782 7785 7523 5615 7787 
979 648 682 649 7782 5871 7783 7787 5615 5872 
649 682 980 683 5872 7788 7789 5878 5880 7790 
946 980 947 649 7791 7792 7538 7523 7789 7531 
649 682 979 980 5872 7783 7787 7789 7788 7793 
946 980 649 979 7791 7789 7523 7785 7793 7787 
947 649 980 650 7531 7789 7792 7533 5625 7794 
980 649 683 650 7789 5878 7790 7794 5625 5879 
650 683 981 684 5879 7795 7796 5885 5887 7797 
947 981 948 650 7798 7799 7548 7533 7796 7541 
650 683 980 981 5879 7790 7794 7796 7795 7800 
947 981 650 980 7798 7796 7533 7792 7800 7794 
948 650 981 651 7541 7796 7799 7543 5635 7801 
981 650 684 651 7796 5885 7797 7801 5635 5886 
651 684 982 685 5886 7802 7803 5892 5894 7804 
948 982 949 651 7805 7806 7558 7543 7803 7551 
651 684 981 982 5886 7797 7801 7803 7802 7807 
948 982 651 981 7805 7803 7543 7799 7807 7801 
949 651 982 652 7551 7803 7806 7553 5645 7808 
982 651 685 652 7803 5892 7804 7808 5645 5893 
652 685 983 686 5893 7809 7810 5899 5901 7811 
949 983 950 652 7812 7813 7568 7553 7810 7561 
652 685 982 983 5893 7804 7808 7810 7809 7814 
949 983 652 982 7812 7810 7553 7806 7814 7808 
950 652 983 653 7561 7810 7813 7563 5655 7815 
983 652 686 653 7810 5899 7811 7815 5655 5900 
653 686 984 687 5900 7816 7817 5906 5908 7818 
950 984 951 653 7819 7820 7578 7563 7817 7571 
653 686 983 984 5900 7811 7815 7817 7816 7821 
950 984 653 983 7819 7817 7563 7813 7821 7815 
951 653 984 654 7571 7817 7820 7573 5665 7822 
984 653 687 654 7817 5906 7818 7822 5665 5907 
654 687 985 688 5907 7823 7824 5913 5915 7825 
951 985 952 654 7826 7827 7588 7573 7824 7581 
654 687 984 985 5907 7818 7822 7824 7823 7828 
951 985 654 984 7826 7824 7573 7820 7828 7822 
952 654 985 655 7581 7824 7827 7583 5675 7829 
985 654 688 655 7824 5913 7825 7829 5675 5914 
655 688 986 689 5914 7830 7831 5920 5922 7832 
952 986 953 655 7833 7834 7598 7583 7831 7591 
655 688 985 986 5914 7825 7829 7831 7830 7835 
952 986 655 985 7833 7831 7583 7827 7835 7829 
953 655 986 656 7591 7831 7834 7593 5685 7836 
986 655 689 656 7831 5920 7832 7836 5685 5921 
656 689 987 690 5921 7837 7838 5927 5929 7839 
953 987 954 656 7840 7841 7608 7593 7838 7601 
656 689 986 987 5921 7832 7836 7838 7837 7842 
953 987 656 986 7840 7838 7593 7834 7842 7836 
954 656 987 657 7601 7838 7841 7603 5695 7843 
987 656 690 657 7838 5927 7839 7843 5695 5928 
657 690 988 691 5928 7844 7845 5934 5936 7846 
954 988 955 657 7847 7848 7618 7603 7845 7611 
657 690 987 988 5928 7839 7843 7845 7844 7849 
954 988 657 987 7847 7845 7603 7841 7849 7843 
955 657 988 658 7611 7845 7848 7613 5705 7850 
988 657 691 658 7845 5934 7846 7850 5705 5935 
658 691 989 692 5935 7851 7852 5941 5943 7853 
955 989 956 658 7854 7855 7628 7613 7852 7621 
658 691 988 989 5935 7846 7850 7852 7851 7856 
955 989 658 988 7854 7852 7613 7848 7856 7850 
956 658 989 659 7621 7852 7855 7623 5715 7857 
989 658 692 659 7852 5941 7853 7857 5715 5942 
660 693 991 694 5953 7858 7859 5948 5952 7860 
957 991 958 660 7861 7862 7638 7636 7859 7631 
660 693 990 991 5953 7863 7864 7859 7858 7865 
957 991 660 990 7861 7859 7636 7866 7865 7864 
958 660 991 661 7631 7859 7862 7633 5725 7867 
991 660 694 661 7859 5948 7860 7867 5725 5949 
661 694 992 695 5949 7868 7869 5958 5960 7870 
958 992 959 661 7871 7872 7646 7633 7869 7641 
661 694 991 992 5949 7860 7867 7869 7868 7873 
958 992 661 991 7871 7869 7633 7862 7873 7867 
959 661 992 662 7641 7869 7872 7643 5733 7874 
992 661 695 662 7869 5958 7870 7874 5733 5959 
662 695 993 696 5959 7875 7876 5965 5967 7877 
959 993 960 662 7878 7879 7653 7643 7876 7648 
662 695 992 993 5959 7870 7874 7876 7875 7880 
959 993 662 992 7878 7876 7643 7872 7880 7874 
960 662 993 663 7648 7876 7879 7650 5740 7881 
993 662 696 663 7876 5965 7877 7881 5740 5966 
663 696 994 697 5966 7882 7883 5972 5974 7884 
960 994 961 663 7885 7886 7660 7650 7883 7655 
663 696 993 994 5966 7877 7881 7883 7882 7887 
960 994 663 993 7885 7883 7650 7879 7887 7881 
961 663 994 664 7655 7883 7886 7657 5747 7888 
994 663 697 664 7883 5972 7884 7888 5747 5973 
664 697 995 698 5973 7889 7890 5979 5981 7891 
961 995 962 664 7892 7893 7667 7657 7890 7662 
664 697 994 995 5973 7884 7888 7890 7889 7894 
961 995 664 994 7892 7890 7657 7886 7894 7888 
962 664 995 665 7662 7890 7893 7664 5754 7895 
995 664 698 665 7890 5979 7891 7895 5754 5980 
665 698 996 699 5980 7896 7897 5986 5988 7898 
962 996 963 665 7899 7900 7674 7664 7897 7669 
665 698 995 996 5980 7891 7895 7897 7896 7901 
962 996 665 995 7899 7897 7664 7893 7901 7895 
963 665 996 666 7669 7897 7900 7671 5761 7902 
996 665 699 666 7897 5986 7898 7902 5761 5987 
666 699 997 700 5987 7903 7904 5993 5995 7905 
963 997 964 666 7906 7907 7681 7671 7904 7676 
666 699 996 997 5987 7898 7902 7904 7903 7908 
963 997 666 996 7906 7904 7671 7900 7908 7902 
964 666 997 667 7676 7904 7907 7678 5768 7909 
997 666 700 667 7904 5993 7905 7909 5768 5994 
667 700 998 701 5994 7910 7911 6000 6002 7912 
964 998 965 667 7913 7914 7688 7678 7911 7683 
667 700 997 998 5994 7905 7909 7911 7910 7915 
964 998 667 997 7913 7911 7678 7907 7915 7909 
965 667 998 668 7683 7911 7914 7685 5775 7916 
998 667 701 668 7911 6000 7912 7916 5775 6001 
668 701 999 702 6001 7917 7918 6007 6009 7919 
965 999 966 668 7920 7921 7695 7685 7918 7690 
668 701 998 999 6001 7912 7916 7918 7917 7922 
965 999 668 998 7920 7918 7685 7914 7922 7916 
966 668 999 669 7690 7918 7921 7692 5782 7923 
999 668 702 669 7918 6007 7919 7923 5782 6008 
669 702 1000 703 6008 7924 7925 6014 6016 7926 
966 1000 967 669 7927 7928 7702 7692 7925 7697 
669 702 999 1000 6008 7919 7923 7925 7924 7929 
966 1000 669 999 7927 7925 7692 7921 7929 7923 
967 669 1000 670 7697 7925 7928 7699 5789 7930 
1000 669 703 670 7925 6014 7926 7930 5789 6015 
670 703 1001 704 6015 7931 7932 6021 6023 7933 
967 1001 968 670 7934 7935 7709 7699 7932 7704 
670 703 1000 1001 6015 7926 7930 7932 7931 7936 
967 1001 670 1000 7934 7932 7699 7928 7936 7930 
968 670 1001 671 7704 7932 7935 7706 5796 7937 
1001 670 704 671 7932 6021 7933 7937 5796 6022 
671 704 1002 705 6022 7938 7939 6028 6030 7940 
968 1002 969 671 7941 7942 7716 7706 7939 7711 
671 704 1001 1002 6022 7933 7937 7939 7938 7943 
968 1002 671 1001 7941 7939 7706 7935 7943 7937 
969 671 1002 672 7711 7939 7942 7713 5803 7944 
1002 671 705 672 7939 6028 7940 7944 5803 6029 
672 705 1003 706 6029 7945 7946 6035 6037 7947 
969 1003 970 672 7948 7949 7723 7713 7946 7718 
672 705 1002 1003 6029 7940 7944 7946 7945 7950 
969 1003 672 1002 7948 7946 7713 7942 7950 7944 
970 672 1003 673 7718 7946 7949 7720 5810 7951 
1003 672 706 673 7946 6035 7947 7951 5810 6036 
673 706 1004 707 6036 7952 7953 6042 6044 7954 
970 1004 971 673 7955 7956 7730 7720 7953 7725 
673 706 1003 1004 6036 7947 7951 7953 7952 7957 
970 1004 673 1003 7955 7953 7720 7949 7957 7951 
971 673 1004 674 7725 7953 7956 7727 5817 7958 
1004 673 707 674 7953 6042 7954 7958 5817 6043 
674 707 1005 708 6043 7959 7960 6049 6051 7961 
971 1005 972 674 7962 7963 7737 7727 7960 7732 
674 707 1004 1005 6043 7954 7958 7960 7959 7964 
971 1005 674 1004 7962 7960 7727 7956 7964 7958 
972 674 1005 675 7732 7960 7963 7734 5824 7965 
1005 674 708 675 7960 6049 7961 7965 5824 6050 
675 708 1006 709 6050 7966 7967 6056 6058 7968 
972 1006 973 675 7969 7970 7744 7734 7967 7739 
675 708 1005 1006 6050 7961 7965 7967 7966 7971 
972 1006 675 1005 7969 7967 7734 7963 7971 7965 
973 675 1006 676 7739 7967 7970 7741 5831 7972 
1006 675 709 676 7967 6056 7968 7972 5831 6057 
676 709 1007 710 6057 7973 7974 6063 6065 7975 
973 1007 974 676 7976 7977 7751 7741 7974 7746 
676 709 1006 1007 6057 7968 7972 7974 7973 7978 
973 1007 676 1006 7976 7974 7741 7970 7978 7972 
974 676 1007 677 7746 7974 7977 7748 5838 7979 
1007 676 710 677 7974 6063 7975 7979 5838 6064 
677 710 1008 711 6064 7980 7981 6070 6072 7982 
974 1008 975 677 7983 7984 7758 7748 7981 7753 
677 710 1007 1008 6064 7975 7979 7981 7980 7985 
974 1008 677 1007 7983 7981 7748 7977 7985 7979 
975 677 1008 678 7753 7981 7984 7755 5845 7986 
1008 677 711 678 7981 6070 7982 7986 5845 6071 
678 711 1009 712 6071 7987 7988 6077 6079 7989 
975 1009 976 678 7990 7991 7765 7755 7988 7760 
678 711 1008 1009 6071 7982 7986 7988 7987 7992 
975 1009 678 1008 7990 7988 7755 7984 7992 7986 
976 678 1009 679 7760 7988 7991 7762 5852 7993 
1009 678 712 679 7988 6077 7989 7993 5852 6078 
679 712 1010 713 6078 7994 7995 6084 6086 7996 
976 1010 977 679 7997 7998 7772 7762 7995 7767 
679 712 1009 1010 6078 7989 7993 7995 7994 7999 
976 1010 679 1009 7997 7995 7762 7991 7999 7993 
977 679 1010 680 7767 7995 7998 7769 5859 8000 
1010 679 713 680 7995 6084 7996 8000 5859 6085 
680 713 1011 714 6085 8001 8002 6091 6093 8003 
977 1011 978 680 8004 8005 7779 7769 8002 7774 
680 713 1010 1011 6085 7996 8000 8002 8001 8006 
977 1011 680 1010 8004 8002 7769 7998 8006 8000 
978 680 1011 681 7774 8002 8005 7776 5866 8007 
1011 680 714 681 8002 6091 8003 8007 5866 6092 
681 714 1012 715 6092 8008 8009 6098 6100 8010 
978 1012 979 681 8011 8012 7786 7776 8009 7781 
681 714 1011 1012 6092 8003 8007 8009 8008 8013 
978 1012 681 1011 8011 8009 7776 8005 8013 8007 
979 681 1012 682 7781 8009 8012 7783 5873 8014 
1012 681 715 682 8009 6098 8010 8014 5873 6099 
682 715 1013 716 6099 8015 8016 6105 6107 8017 
979 1013 980 682 8018 8019 7793 7783 8016 7788 
682 715 1012 1013 6099 8010 8014 8016 8015 8020 
979 1013 682 1012 8018 8016 7783 8012 8020 8014 
980 682 1013 683 7788 8016 8019 7790 5880 8021 
1013 682 716 683 8016 6105 8017 8021 5880 6106 
683 716 1014 717 6106 8022 8023 6112 6114 8024 
980 1014 981 683 8025 8026 7800 7790 8023 7795 
683 716 1013 1014 6106 8017 8021 8023 8022 8027 
980 1014 683 1013 8025 8023 7790 8019 8027 8021 
981 683 1014 684 7795 8023 8026 7797 5887 8028 
1014 683 717 684 8023 6112 8024 8028 5887 6113 
684 717 1015 718 6113 8029 8030 6119 6121 8031 
981 1015 982 684 8032 8033 7807 7797 8030 7802 
684 717 1014 1015 6113 8024 8028 8030 8029 8034 
981 1015 684 1014 8032 8030 7797 8026 8034 8028 
982 684 1015 685 7802 8030 8033 7804 5894 8035 
1015 684 718 685 8030 6119 8031 8035 5894 6120 
685 718 1016 719 6120 8036 8037 6126 6128 8038 
982 1016 983 685 8039 8040 7814 7804 8037 7809 
685 718 1015 1016 6120 8031 8035 8037 8036 8041 
982 1016 685 1015 8039 8037 7804 8033 8041 8035 
983 685 1016 686 7809 8037 8040 7811 5901 8042 
1016 685 719 686 8037 6126 8038 8042 5901 6127 
686 719 1017 720 6127 8043 8044 6133 6135 8045 
983 1017 984 686 8046 8047 7821 7811 8044 7816 
686 719 1016 1017 6127 8038 8042 8044 8043 8048 
983 1017 686 1016 8046 8044 7811 8040 8048 8042 
984 686 1017 687 7816 8044 8047 7818 5908 8049 
1017 686 720 687 8044 6133 8045 8049 5908 6134 
687 720 1018 721 6134 8050 8051 6140 6142 8052 
984 1018 985 687 8053 8054 7828 7818 8051 7823 
687 720 1017 1018 6134 8045 8049 8051 8050 8055 
984 1018 687 1017 8053 8051 7818 8047 8055 8049 
985 687 1018 688 7823 8051 8054 7825 5915 8056 
1018 687 721 688 8051 6140 8052 8056 5915 6141 
688 721 1019 722 6141 8057 8058 6147 6149 8059 
985 1019 986 688 8060 8061 7835 7825 8058 7830 
688 721 1018 1019 6141 8052 8056 8058 8057 8062 
985 1019 688 1018 8060 8058 7825 8054 8062 8056 
986 688 1019 689 7830 8058 8061 7832 5922 8063 
1019 688 722 689 8058 6147 8059 8063 5922 6148 
689 722 1020 723 6148 8064 8065 6154 6156 8066 
986 1020 987 689 8067 8068 7842 7832 8065 7837 
689 722 1019 1020 6148 8059 8063 8065 8064 8069 
986 1020 689 1019 8067 8065 7832 8061 8069 8063 
987 689 1020 690 7837 8065 8068 7839 5929 8070 
1020 689 723 690 8065 6154 8066 8070 5929 6155 
690 723 1021 724 6155 8071 8072 6161 6163 8073 
987 1021 988 690 8074 8075 7849 7839 8072 7844 
690 723 1020 1021 6155 8066 8070 8072 8071 8076 
987 1021 690 1020 8074 8072 7839 8068 8076 8070 
988 690 1021 691 7844 8072 8075 7846 5936 8077 
1021 690 724 691 8072 6161 8073 8077 5936 6162 
691 724 1022 725 6162 8078 8079 6168 6170 8080 
988 1022 989 691 8081 8082 7856 7846 8079 7851 
691 724 1021 1022 6162 8073 8077 8079 8078 8083 
988 1022 691 1021 8081 8079 7846 8075 8083 8077 
989 691 1022 692 7851 8079 8082 7853 5943 8084 
1022 691 725 692 8079 6168 8080 8084 5943 6169 
693 726 1024 727 6180 8085 8086 6175 6179 8087 
990 1024 991 693 8088 8089 7865 7863 8086 7858 
693 726 1023 1024 6180 8090 8091 8086 8085 8092 
990 1024 693 1023 8088 8086 7863 8093 8092 8091 
991 693 1024 694 7858 8086 8089 7860 5952 8094 
1024 693 727 694 8086 6175 8087 8094 5952 6176 
694 727 1025 728 6176 8095 8096 6185 6187 8097 
991 1025 992 694 8098 8099 7873 7860 8096 7868 
694 727 1024 1025 6176 8087 8094 8096 8095 8100 
991 1025 694 1024 8098 8096 7860 8089 8100 8094 
992 694 1025 695 7868 8096 8099 7870 5960 8101 
1025 694 728 695 8096 6185 8097 8101 5960 6186 
695 728 1026 729 6186 8102 8103 6192 6194 8104 
992 1026 993 695 8105 8106 7880 7870 8103 7875 
695 728 1025 1026 6186 8097 8101 8103 8102 8107 
992 1026 695 1025 8105 8103 7870 8099 8107 8101 
993 695 1026 696 7875 8103 8106 7877 5967 8108 
1026 695 729 696 8103 6192 8104 8108 5967 6193 
696 729 1027 730 6193 8109 8110 6199 6201 8111 
993 1027 994 696 8112 8113 7887 7877 8110 7882 
696 729 1026 1027 6193 8104 8108 8110 8109 8114 
993 1027 696 1026 8112 8110 7877 8106 8114 8108 
994 696 1027 697 7882 8110 8113 7884 5974 8115 
1027 696 730 697 8110 6199 8111 8115 5974 6200 
697 730 1028 731 6200 8116 8117 6206 6208 8118 
994 1028 995 697 8119 8120 7894 7884 8117 7889 
697 730 1027 1028 6200 8111 8115 8117 8116 8121 
994 1028 697 1027 8119 8117 7884 8113 8121 8115 
995 697 1028 698 7889 8117 8120 7891 5981 8122 
1028 697 731 698 8117 6206 8118 8122 5981 6207 
698 731 1029 732 6207 8123 8124 6213 6215 8125 
995 1029 996 698 8126 8127 7901 7891 8124 7896 
698 731 1028 1029 6207 8118 8122 8124 8123 8128 
995 1029 698 1028 8126 8124 7891 8120 8128 8122 
996 698 1029 699 7896 8124 8127 7898 5988 8129 
1029 698 732 699 8124 6213 8125 8129 5988 6214 
699 732 1030 733 6214 8130 8131 6220 6222 8132 
996 1030 997 699 8133 8134 7908 7898 8131 7903 
699 732 1029 1030 6214 8125 8129 8131 8130 8135 
996 1030 699 1029 8133 8131 7898 8127 8135 8129 
997 699 1030 700 7903 8131 8134 7905 5995 8136 
1030 699 733 700 8131 6220 8132 8136 5995 6221 
700 733 1031 734 6221 8137 8138 6227 6229 8139 
997 1031 998 700 8140 8141 7915 7905 8138 7910 
700 733 1030 1031 6221 8132 8136 8138 8137 8142 
997 1031 700 1030 8140 8138 7905 8134 8142 8136 
998 700 1031 701 7910 8138 8141 7912 6002 8143 
1031 700 734 701 8138 6227 8139 8143 6002 6228 
701 734 1032 735 6228 8144 8145 6234 6236 8146 
998 1032 999 701 8147 8148 7922 7912 8145 7917 
701 734 1031 1032 6228 8139 8143 8145 8144 8149 
998 1032 701 1031 8147 8145 7912 8141 8149 8143 
999 701 1032 702 7917 8145 8148 7919 6009 8150 
1032 701 735 702 8145 6234 8146 8150 6009 6235 
702 735 1033 736 6235 8151 8152 6241 6243 8153 
999 1033 1000 702 8154 8155 7929 7919 8152 7924 
702 735 1032 1033 6235 8146 8150 8152 8151 8156 
999 1033 702 1032 8154 8152 7919 8148 8156 8150 
1000 702 1033 703 7924 8152 8155 7926 6016 8157 
1033 702 736 703 8152 6241 8153 8157 6016 6242 
703 736 1034 737 6242 8158 8159 6248 6250 8160 
1000 1034 1001 703 8161 8162 7936 7926 8159 7931 
703 736 1033 1034 6242 8153 8157 8159 8158 8163 
1000 1034 703 1033 8161 8159 7926 8155 8163 8157 
1001 703 1034 704 7931 8159 8162 7933 6023 8164 
1034 703 737 704 8159 6248 8160 8164 6023 6249 
704 737 1035 738 6249 8165 8166 6255 6257 8167 
1001 1035 1002 704 8168 8169 7943 7933 8166 7938 
704 737 1034 1035 6249 8160 8164 8166 8165 8170 
1001 1035 704 1034 8168 8166 7933 8162 8170 8164 
1002 704 1035 705 7938 8166 8169 7940 6030 8171 
1035 704 738 705 8166 6255 8167 8171 6030 6256 
705 738 1036 739 6256 8172 8173 6262 6264 8174 
1002 1036 1003 705 8175 8176 7950 7940 8173 7945 
705 738 1035 1036 6256 8167 8171 8173 8172 8177 
1002 1036 705 1035 8175 8173 7940 8169 8177 8171 
1003 705 1036 706 7945 8173 8176 7947 6037 8178 
1036 705 739 706 8173 6262 8174 8178 6037 6263 
706 739 1037 740 6263 8179 8180 6269 6271 8181 
1003 1037 1004 706 8182 8183 7957 7947 8180 7952 
706 739 1036 1037 6263 8174 8178 8180 8179 8184 
1003 1037 706 1036 8182 8180 7947 8176 8184 8178 
1004 706 1037 707 7952 8180 8183 7954 6044 8185 
1037 706 740 707 8180 6269 8181 8185 6044 6270 
707 740 1038 741 6270 8186 8187 6276 6278 8188 
1004 1038 1005 707 8189 8190 7964 7954 8187 7959 
707 740 1037 1038 6270 8181 8185 8187 8186 8191 
1004 1038 707 1037 8189 8187 7954 8183 8191 8185 
1005 707 1038 708 7959 8187 8190 7961 6051 8192 
1038 707 741 708 8187 6276 8188 8192 6051 6277 
708 741 1039 742 6277 8193 8194 6283 6285 8195 
1005 1039 1006 708 8196 8197 7971 7961 8194 7966 
708 741 1038 1039 6277 8188 8192 8194 8193 8198 
1005 1039 708 1038 8196 8194 7961 8190 8198 8192 
1006 708 1039 709 7966 8194 8197 7968 6058 8199 
1039 708 742 709 8194 6283 8195 8199 6058 6284 
709 742 1040 743 6284 8200 8201 6290 6292 8202 
1006 1040 1007 709 8203 8204 7978 7968 8201 7973 
709 742 1039 1040 6284 8195 8199 8201 8200 8205 
1006 1040 709 1039 8203 8201 7968 8197 8205 8199 
1007 709 1040 710 7973 8201 8204 7975 6065 8206 
1040 709 743 710 8201 6290 8202 8206 6065 6291 
710 743 1041 744 6291 8207 8208 6297 6299 8209 
1007 1041 1008 710 8210 8211 7985 7975 8208 7980 
710 743 1040 1041 6291 8202 8206 8208 8207 8212 
1007 1041 710 1040 8210 8208 7975 8204 8212 8206 
1008 710 1041 711 7980 8208 8211 7982 6072 8213 
1041 710 744 711 8208 6297 8209 8213 6072 6298 
711 744 1042 745 6298 8214 8215 6304 6306 8216 
1008 1042 1009 711 8217 8218 7992 7982 8215 7987 
711 744 1041 1042 6298 8209 8213 8215 8214 8219 
1008 1042 711 1041 8217 8215 7982 8211 8219 8213 
1009 711 1042 712 7987 8215 8218 7989 6079 8220 
1042 711 745 712 8215 6304 8216 8220 6079 6305 
712 745 1043 746 6305 8221 8222 6311 6313 8223 
1009 1043 1010 712 8224 8225 7999 7989 8222 7994 
712 745 1042 1043 6305 8216 8220 8222 8221 8226 
1009 1043 712 1042 8224 8222 7989 8218 8226 8220 
1010 712 1043 713 7994 8222 8225 7996 6086 8227 
1043 712 746 713 8222 6311 8223 8227 6086 6312 
713 746 1044 747 6312 8228 8229 6318 6320 8230 
1010 1044 1011 713 8231 8232 8006 7996 8229 8001 
713 746 1043 1044 6312 8223 8227 8229 8228 8233 
1010 1044 713 1043 8231 8229 7996 8225 8233 8227 
1011 713 1044 714 8001 8229 8232 8003 6093 8234 
1044 713 747 714 8229 6318 8230 8234 6093 6319 
714 747 1045 748 6319 8235 8236 6325 6327 8237 
1011 1045 1012 714 8238 8239 8013 8003 8236 8008 
714 747 1044 1045 6319 8230 8234 8236 8235 8240 
1011 1045 714 1044 8238 8236 8003 8232 8240 8234 
1012 714 1045 715 8008 8236 8239 8010 6100 8241 
1045 714 748 715 8236 6325 8237 8241 6100 6326 
715 748 1046 749 6326 8242 8243 6332 6334 8244 
1012 1046 1013 715 8245 8246 8020 8010 8243 8015 
715 748 1045 1046 6326 8237 8241 8243 8242 8247 
1012 1046 715 1045 8245 8243 8010 8239 8247 8241 
1013 715 1046 716 8015 8243 8246 8017 6107 8248 
1046 715 749 716 8243 6332 8244 8248 6107 6333 
716 749 1047 750 6333 8249 8250 6339 6341 8251 
1013 1047 1014 716 8252 8253 8027 8017 8250 8022 
716 749 1046 1047 6333 8244 8248 8250 8249 8254 
1013 1047 716 1046 8252 8250 8017 8246 8254 8248 
1014 716 1047 717 8022 8250 8253 8024 6114 8255 
1047 716 750 717 8250 6339 8251 8255 6114 6340 
717 750 1048 751 6340 8256 8257 6346 6348 8258 
1014 1048 1015 717 8259 8260 8034 8024 8257 8029 
717 750 1047 1048 6340 8251 8255 8257 8256 8261 
1014 1048 717 1047 8259 8257 8024 8253 8261 8255 
1015 717 1048 718 8029 8257 8260 8031 6121 8262 
1048 717 751 718 8257 6346 8258 8262 6121 6347 
718 751 1049 752 6347 8263 8264 6353 6355 8265 
1015 1049 1016 718 8266 8267 8041 8031 8264 8036 
718 751 1048 1049 6347 8258 8262 8264 8263 8268 
1015 1049 718 1048 8266 8264 8031 8260 8268 8262 
1016 718 1049 719 8036 8264 8267 8038 6128 8269 
1049 718 752 719 8264 6353 8265 8269 6128 6354 
719 752 1050 753 6354 8270 8271 6360 6362 8272 
1016 1050 1017 719 8273 8274 8048 8038 8271 8043 
719 752 1049 1050 6354 8265 8269 8271 8270 8275 
1016 1050 719 1049 8273 8271 8038 8267 8275 8269 
1017 719 1050 720 8043 8271 8274 8045 6135 8276 
1050 719 753 720 8271 6360 8272 8276 6135 6361 
720 753 1051 754 6361 8277 8278 6367 6369 8279 
1017 1051 1018 720 8280 8281 8055 8045 8278 8050 
720 753 1050 1051 6361 8272 8276 8278 8277 8282 
1017 1051 720 1050 8280 8278 8045 8274 8282 8276 
1018 720 1051 721 8050 8278 8281 8052 6142 8283 
1051 720 754 721 8278 6367 8279 8283 6142 6368 
721 754 1052 755 6368 8284 8285 6374 6376 8286 
1018 1052 1019 721 8287 8288 8062 8052 8285 8057 
721 754 1051 1052 6368 8279 8283 8285 8284 8289 
1018 1052 721 1051 8287 8285 8052 8281 8289 8283 
1019 721 1052 722 8057 8285 8288 8059 6149 8290 
1052 721 755 722 8285 6374 8286 8290 6149 6375 
722 755 1053 756 6375 8291 8292 6381 6383 8293 
1019 1053 1020 722 8294 8295 8069 8059 8292 8064 
722 755 1052 1053 6375 8286 8290 8292 8291 8296 
1019 1053 722 1052 8294 8292 8059 8288 8296 8290 
1020 722 1053 723 8064 8292 8295 8066 6156 8297 
1053 722 756 723 8292 6381 8293 8297 6156 6382 
723 756 1054 757 6382 8298 8299 6388 6390 8300 
1020 1054 1021 723 8301 8302 8076 8066 8299 8071 
723 756 1053 1054 6382 8293 8297 8299 8298 8303 
1020 1054 723 1053 8301 8299 8066 8295 8303 8297 
1021 723 1054 724 8071 8299 8302 8073 6163 8304 
1054 723 757 724 8299 6388 8300 8304 6163 6389 
724 757 1055 758 6389 8305 8306 6395 6397 8307 
1021 1055 1022 724 8308 8309 8083 8073 8306 8078 
724 757 1054 1055 6389 8300 8304 8306 8305 8310 
1021 1055 724 1054 8308 8306 8073 8302 8310 8304 
1022 724 1055 725 8078 8306 8309 8080 6170 8311 
1055 724 758 725 8306 6395 8307 8311 6170 6396 
726 759 1057 760 6407 8312 8313 6402 6406 8314 
1023 1057 1024 726 8315 8316 8092 8090 8313 8085 
726 759 1056 1057 6407 8317 8318 8313 8312 8319 
1023 1057 726 1056 8315 8313 8090 8320 8319 8318 
1024 726 1057 727 8085 8313 8316 8087 6179 8321 
1057 726 760 727 8313 6402 8314 8321 6179 6403 
727 760 1058 761 6403 8322 8323 6412 6414 8324 
1024 1058 1025 727 8325 8326 8100 8087 8323 8095 
727 760 1057 1058 6403 8314 8321 8323 8322 8327 
1024 1058 727 1057 8325 8323 8087 8316 8327 8321 
1025 727 1058 728 8095 8323 8326 8097 6187 8328 
1058 727 761 728 8323 6412 8324 8328 6187 6413 
728 761 1059 762 6413 8329 8330 6419 6421 8331 
1025 1059 1026 728 8332 8333 8107 8097 8330 8102 
728 761 1058 1059 6413 8324 8328 8330 8329 8334 
1025 1059 728 1058 8332 8330 8097 8326 8334 8328 
1026 728 1059 729 8102 8330 8333 8104 6194 8335 
1059 728 762 729 8330 6419 8331 8335 6194 6420 
729 762 1060 763 6420 8336 8337 6426 6428 8338 
1026 1060 1027 729 8339 8340 8114 8104 8337 8109 
729 762 1059 1060 6420 8331 8335 8337 8336 8341 
1026 1060 729 1059 8339 8337 8104 8333 8341 8335 
1027 729 1060 730 8109 8337 8340 8111 6201 8342 
1060 729 763 730 8337 6426 8338 8342 6201 6427 
730 763 1061 764 6427 8343 8344 6433 6435 8345 
1027 1061 1028 730 8346 8347 8121 8111 8344 8116 
730 763 1060 1061 6427 8338 8342 8344 8343 8348 
1027 1061 730 1060 8346 8344 8111 8340 8348 8342 
1028 730 1061 731 8116 8344 8347 8118 6208 8349 
1061 730 764 731 8344 6433 8345 8349 6208 6434 
731 764 1062 765 6434 8350 8351 6440 6442 8352 
1028 1062 1029 731 8353 8354 8128 8118 8351 8123 
731 764 1061 1062 6434 8345 8349 8351 8350 8355 
1028 1062 731 1061 8353 8351 8118 8347 8355 8349 
1029 731 1062 732 8123 8351 8354 8125 6215 8356 
1062 731 765 732 8351 6440 8352 8356 6215 6441 
732 765 1063 766 6441 8357 8358 6447 6449 8359 
1029 1063 1030 732 8360 8361 8135 8125 8358 8130 
732 765 1062 1063 6441 8352 8356 8358 8357 8362 
1029 1063 732 1062 8360 8358 8125 8354 8362 8356 
1030 732 1063 733 8130 8358 8361 8132 6222 8363 
1063 732 766 733 8358 6447 8359 8363 6222 6448 
733 766 1064 767 6448 8364 8365 6454 6456 8366 
1030 1064 1031 733 8367 8368 8142 8132 8365 8137 
733 766 1063 1064 6448 8359 8363 8365 8364 8369 
1030 1064 733 1063 8367 8365 8132 8361 8369 8363 
1031 733 1064 734 8137 8365 8368 8139 6229 8370 
1064 733 767 734 8365 6454 8366 8370 6229 6455 
734 767 1065 768 6455 8371 8372 6461 6463 8373 
1031 1065 1032 734 8374 8375 8149 8139 8372 8144 
734 767 1064 1065 6455 8366 8370 8372 8371 8376 
1031 1065 734 1064 8374 8372 8139 8368 8376 8370 
1032 734 1065 735 8144 8372 8375 8146 6236 8377 
1065 734 768 735 8372 6461 8373 8377 6236 6462 
735 768 1066 769 6462 8378 8379 6468 6470 8380 
1032 1066 1033 735 8381 8382 8156 8146 8379 8151 
735 768 1065 1066 6462 8373 8377 8379 8378 8383 
1032 1066 735 1065 8381 8379 8146 8375 8383 8377 
1033 735 1066 736 8151 8379 8382 8153 6243 8384 
1066 735 769 736 8379 6468 8380 8384 6243 6469 
736 769 1067 770 6469 8385 8386 6475 6477 8387 
1033 1067 1034 736 8388 8389 8163 8153 8386 8158 
736 769 1066 1067 6469 8380 8384 8386 8385 8390 
1033 1067 736 1066 8388 8386 8153 8382 8390 8384 
1034 736 1067 737 8158 8386 8389 8160 6250 8391 
1067 736 770 737 8386 6475 8387 8391 6250 6476 
737 770 1068 771 6476 8392 8393 6482 6484 8394 
1034 1068 1035 737 8395 8396 8170 8160 8393 8165 
737 770 1067 1068 6476 8387 8391 8393 8392 8397 
1034 1068 737 1067 8395 8393 8160 8389 8397 8391 
1035 737 1068 738 8165 8393 8396 8167 6257 8398 
1068 737 771 738 8393 6482 8394 8398 6257 6483 
738 771 1069 772 6483 8399 8400 6489 6491 8401 
1035 1069 1036 738 8402 8403 8177 8167 8400 8172 
738 771 1068 1069 6483 8394 8398 8400 8399 8404 
1035 1069 738 1068 8402 8400 8167 8396 8404 8398 
1036 738 1069 739 8172 8400 8403 8174 6264 8405 
1069 738 772 739 8400 6489 8401 8405 6264 6490 
739 772 1070 773 6490 8406 8407 6496 6498 8408 
1036 1070 1037 739 8409 8410 8184 8174 8407 8179 
739 772 1069 1070 6490 8401 8405 8407 8406 8411 
1036 1070 739 1069 8409 8407 8174 8403 8411 8405 
1037 739 1070 740 8179 8407 8410 8181 6271 8412 
1070 739 773 740 8407 6496 8408 8412 6271 6497 
740 773 1071 774 6497 8413 8414 6503 6505 8415 
1037 1071 1038 740 8416 8417 8191 8181 8414 8186 
740 773 1070 1071 6497 8408 8412 8414 8413 8418 
1037 1071 740 1070 8416 8414 8181 8410 8418 8412 
1038 740 1071 741 8186 8414 8417 8188 6278 8419 
1071 740 774 741 8414 6503 8415 8419 6278 6504 
741 774 1072 775 6504 8420 8421 6510 6512 8422 
1038 1072 1039 741 8423 8424 8198 8188 8421 8193 
741 774 1071 1072 6504 8415 8419 8421 8420 8425 
1038 1072 741 1071 8423 8421 8188 8417 8425 8419 
1039 741 1072 742 8193 8421 8424 8195 6285 8426 
1072 741 775 742 8421 6510 8422 8426 6285 6511 
742 775 1073 776 6511 8427 8428 6517 6519 8429 
1039 1073 1040 742 8430 8431 8205 8195 8428 8200 
742 775 1072 1073 6511 8422 8426 8428 8427 8432 
1039 1073 742 1072 8430 8428 8195 8424 8432 8426 
1040 742 1073 743 8200 8428 8431 8202 6292 8433 
1073 742 776 743 8428 6517 8429 8433 6292 6518 
743 776 1074 777 6518 8434 8435 6524 6526 8436 
1040 1074 1041 743 8437 8438 8212 8202 8435 8207 
743 776 1073 1074 6518 8429 8433 8435 8434 8439 
1040 1074 743 1073 8437 8435 8202 8431 8439 8433 
1041 743 1074 744 8207 8435 8438 8209 6299 8440 
1074 743 777 744 8435 6524 8436 8440 6299 6525 
744 777 1075 778 6525 8441 8442 6531 6533 8443 
1041 1075 1042 744 8444 8445 8219 8209 8442 8214 
744 777 1074 1075 6525 8436 8440 8442 8441 8446 
1041 1075 744 1074 8444 8442 8209 8438 8446 8440 
1042 744 1075 745 8214 8442 8445 8216 6306 8447 
1075 744 778 745 8442 6531 8443 8447 6306 6532 
745 778 1076 779 6532 8448 8449 6538 6540 8450 
1042 1076 1043 745 8451 8452 8226 8216 8449 8221 
745 778 1075 1076 6532 8443 8447 8449 8448 8453 
1042 1076 745 1075 8451 8449 8216 8445 8453 8447 
1043 745 1076 746 8221 8449 8452 8223 6313 8454 
1076 745 779 746 8449 6538 8450 8454 6313 6539 
746 779 1077 780 6539 8455 8456 6545 6547 8457 
1043 1077 1044 746 8458 8459 8233 8223 8456 8228 
746 779 1076 1077 6539 8450 8454 8456 8455 8460 
1043 1077 746 1076 8458 8456 8223 8452 8460 8454 
1044 746 1077 747 8228 8456 8459 8230 6320 8461 
1077 746 780 747 8456 6545 8457 8461 6320 6546 
747 780 1078 781 6546 8462 8463 6552 6554 8464 
1044 1078 1045 747 8465 8466 8240 8230 8463 8235 
747 780 1077 1078 6546 8457 8461 8463 8462 8467 
1044 1078 747 1077 8465 8463 8230 8459 8467 8461 
1045 747 1078 748 8235 8463 8466 8237 6327 8468 
1078 747 781 748 8463 6552 8464 8468 6327 6553 
748 781 1079 782 6553 8469 8470 6559 6561 8471 
1045 1079 1046 748 8472 8473 8247 8237 8470 8242 
748 781 1078 1079 6553 8464 8468 8470 8469 8474 
1045 1079 748 1078 8472 8470 8237 8466 8474 8468 
1046 748 1079 749 8242 8470 8473 8244 6334 8475 
1079 748 782 749 8470 6559 8471 8475 6334 6560 
749 782 1080 783 6560 8476 8477 6566 6568 8478 
1046 1080 1047 749 8479 8480 8254 8244 8477 8249 
749 782 1079 1080 6560 8471 8475 8477 8476 8481 
1046 1080 749 1079 8479 8477 8244 8473 8481 8475 
1047 749 1080 750 8249 8477 8480 8251 6341 8482 
1080 749 783 750 8477 6566 8478 8482 6341 6567 
750 783 1081 784 6567 8483 8484 6573 6575 8485 
1047 1081 1048 750 8486 8487 8261 8251 8484 8256 
750 783 1080 1081 6567 8478 8482 8484 8483 8488 
1047 1081 750 1080 8486 8484 8251 8480 8488 8482 
1048 750 1081 751 8256 8484 8487 8258 6348 8489 
1081 750 784 751 8484 6573 8485 8489 6348 6574 
751 784 1082 785 6574 8490 8491 6580 6582 8492 
1048 1082 1049 751 8493 8494 8268 8258 8491 8263 
751 784 1081 1082 6574 8485 8489 8491 8490 8495 
1048 1082 751 1081 8493 8491 8258 8487 8495 8489 
1049 751 1082 752 8263 8491 8494 8265 6355 8496 
1082 751 785 752 8491 6580 8492 8496 6355 6581 
752 785 1083 786 6581 8497 8498 6587 6589 8499 
1049 1083 1050 752 8500 8501 8275 8265 8498 8270 
752 785 1082 1083 6581 8492 8496 8498 8497 8502 
1049 1083 752 1082 8500 8498 8265 8494 8502 8496 
1050 752 1083 753 8270 8498 8501 8272 6362 8503 
1083 752 786 753 8498 6587 8499 8503 6362 6588 
753 786 1084 787 6588 8504 8505 6594 6596 8506 
1050 1084 1051 753 8507 8508 8282 8272 8505 8277 
753 786 1083 1084 6588 8499 8503 8505 8504 8509 
1050 1084 753 1083 8507 8505 8272 8501 8509 8503 
1051 753 1084 754 8277 8505 8508 8279 6369 8510 
1084 753 787 754 8505 6594 8506 8510 6369 6595 
754 787 1085 788 6595 8511 8512 6601 6603 8513 
1051 1085 1052 754 8514 8515 8289 8279 8512 8284 
754 787 1084 1085 6595 8506 8510 8512 8511 8516 
1051 1085 754 1084 8514 8512 8279 8508 8516 8510 
1052 754 1085 755 8284 8512 8515 8286 6376 8517 
1085 754 788 755 8512 6601 8513 8517 6376 6602 
755 788 1086 789 6602 8518 8519 6608 6610 8520 
1052 1086 1053 755 8521 8522 8296 8286 8519 8291 
755 788 1085 1086 6602 8513 8517 8519 8518 8523 
1052 1086 755 1085 8521 8519 8286 8515 8523 8517 
1053 755 1086 756 8291 8519 8522 8293 6383 8524 
1086 755 789 756 8519 6608 8520 8524 6383 6609 
756 789 1087 790 6609 8525 8526 6615 6617 8527 
1053 1087 1054 756 8528 8529 8303 8293 8526 8298 
756 789 1086 1087 6609 8520 8524 8526 8525 8530 
1053 1087 756 1086 8528 8526 8293 8522 8530 8524 
1054 756 1087 757 8298 8526 8529 8300 6390 8531 
1087 756 790 757 8526 6615 8527 8531 6390 6616 
757 790 1088 791 6616 8532 8533 6622 6624 8534 
1054 1088 1055 757 8535 8536 8310 8300 8533 8305 
757 790 1087 1088 6616 8527 8531 8533 8532 8537 
1054 1088 757 1087 8535 8533 8300 8529 8537 8531 
1055 757 1088 758 8305 8533 8536 8307 6397 8538 
1088 757 791 758 8533 6622 8534 8538 6397 6623 
759 792 1090 793 6634 8539 8540 6629 6633 8541 
1056 1090 1057 759 8542 8543 8319 8317 8540 8312 
759 792 1089 1090 6634 8544 8545 8540 8539 8546 
1056 1090 759 1089 8542 8540 8317 8547 8546 8545 
1057 759 1090 760 8312 8540 8543 8314 6406 8548 
1090 759 793 760 8540 6629 8541 8548 6406 6630 
760 793 1091 794 6630 8549 8550 6639 6641 8551 
1057 1091 1058 760 8552 8553 8327 8314 8550 8322 
760 793 1090 1091 6630 8541 8548 8550 8549 8554 
1057 1091 760 1090 8552 8550 8314 8543 8554 8548 
1058 760 1091 761 8322 8550 8553 8324 6414 8555 
1091 760 794 761 8550 6639 8551 8555 6414 6640 
761 794 1092 795 6640 8556 8557 6646 6648 8558 
1058 1092 1059 761 8559 8560 8334 8324 8557 8329 
761 794 1091 1092 6640 8551 8555 8557 8556 8561 
1058 1092 761 1091 8559 8557 8324 8553 8561 8555 
1059 761 1092 762 8329 8557 8560 8331 6421 8562 
1092 761 795 762 8557 6646 8558 8562 6421 6647 
762 795 1093 796 6647 8563 8564 6653 6655 8565 
1059 1093 1060 762 8566 8567 8341 8331 8564 8336 
762 795 1092 1093 6647 8558 8562 8564 8563 8568 
1059 1093 762 1092 8566 8564 8331 8560 8568 8562 
1060 762 1093 763 8336 8564 8567 8338 6428 8569 
1093 762 796 763 8564 6653 8565 8569 6428 6654 
763 796 1094 797 6654 8570 8571 6660 6662 8572 
1060 1094 1061 763 8573 8574 8348 8338 8571 8343 
763 796 1093 1094 6654 8565 8569 8571 8570 8575 
1060 1094 763 1093 8573 8571 8338 8567 8575 8569 
1061 763 1094 764 8343 8571 8574 8345 6435 8576 
1094 763 797 764 8571 6660 8572 8576 6435 6661 
764 797 1095 798 6661 8577 8578 6667 6669 8579 
1061 1095 1062 764 8580 8581 8355 8345 8578 8350 
764 797 1094 1095 6661 8572 8576 8578 8577 8582 
1061 1095 764 1094 8580 8578 8345 8574 8582 8576 
1062 764 1095 765 8350 8578 8581 8352 6442 8583 
1095 764 798 765 8578 6667 8579 8583 6442 6668 
765 798 1096 799 6668 8584 8585 6674 6676 8586 
1062 1096 1063 765 8587 8588 8362 8352 8585 8357 
765 798 1095 1096 6668 8579 8583 8585 8584 8589 
1062 1096 765 1095 8587 8585 8352 8581 8589 8583 
1063 765 1096 766 8357 8585 8588 8359 6449 8590 
1096 765 799 766 8585 6674 8586 8590 6449 6675 
766 799 1097 800 6675 8591 8592 6681 6683 8593 
1063 1097 1064 766 8594 8595 8369 8359 8592 8364 
766 799 1096 1097 6675 8586 8590 8592 8591 8596 
1063 1097 766 1096 8594 8592 8359 8588 8596 8590 
1064 766 1097 767 8364 8592 8595 8366 6456 8597 
1097 766 800 767 8592 6681 8593 8597 6456 6682 
767 800 1098 801 6682 8598 8599 6688 6690 8600 
1064 1098 1065 767 8601 8602 8376 8366 8599 8371 
767 800 1097 1098 6682 8593 8597 8599 8598 8603 
1064 1098 767 1097 8601 8599 8366 8595 8603 8597 
1065 767 1098 768 8371 8599 8602 8373 6463 8604 
1098 767 801 768 8599 6688 8600 8604 6463 6689 
768 801 1099 802 6689 8605 8606 6695 6697 8607 
1065 1099 1066 768 8608 8609 8383 8373 8606 8378 
768 801 1098 1099 6689 8600 8604 8606 8605 8610 
1065 1099 768 1098 8608 8606 8373 8602 8610 8604 
1066 768 1099 769 8378 8606 8609 8380 6470 8611 
1099 768 802 769 8606 6695 8607 8611 6470 6696 
769 802 1100 803 6696 8612 8613 6702 6704 8614 
1066 1100 1067 769 8615 8616 8390 8380 8613 8385 
769 802 1099 1100 6696 8607 8611 8613 8612 8617 
1066 1100 769 1099 8615 8613 8380 8609 8617 8611 
1067 769 1100 770 8385 8613 8616 8387 6477 8618 
1100 769 803 770 8613 6702 8614 8618 6477 6703 
770 803 1101 804 6703 8619 8620 6709 6711 8621 
1067 1101 1068 770 8622 8623 8397 8387 8620 8392 
770 803 1100 1101 6703 8614 8618 8620 8619 8624 
1067 1101 770 1100 8622 8620 8387 8616 8624 8618 
1068 770 1101 771 8392 8620 8623 8394 6484 8625 
1101 770 804 771 8620 6709 8621 8625 6484 6710 
771 804 1102 805 6710 8626 8627 6716 6718 8628 
1068 1102 1069 771 8629 8630 8404 8394 8627 8399 
771 804 1101 1102 6710 8621 8625 8627 8626 8631 
1068 1102 771 1101 8629 8627 8394 8623 8631 8625 
1069 771 1102 772 8399 8627 8630 8401 6491 8632 
1102 771 805 772 8627 6716 8628 8632 6491 6717 
772 805 1103 806 6717 8633 8634 6723 6725 8635 
1069 1103 1070 772 8636 8637 8411 8401 8634 8406 
772 805 1102 1103 6717 8628 8632 8634 8633 8638 
1069 1103 772 1102 8636 8634 8401 8630 8638 8632 
1070 772 1103 773 8406 8634 8637 8408 6498 8639 
1103 772 806 773 8634 6723 8635 8639 6498 6724 
773 806 1104 807 6724 8640 8641 6730 6732 8642 
1070 1104 1071 773 8643 8644 8418 8408 8641 8413 
773 806 1103 1104 6724 8635 8639 8641 8640 8645 
1070 1104 773 1103 8643 8641 8408 8637 8645 8639 
1071 773 1104 774 8413 8641 8644 8415 6505 8646 
1104 773 807 774 8641 6730 8642 8646 6505 6731 
774 807 1105 808 6731 8647 8648 6737 6739 8649 
1071 1105 1072 774 8650 8651 8425 8415 8648 8420 
774 807 1104 1105 6731 8642 8646 8648 8647 8652 
1071 1105 774 1104 8650 8648 8415 8644 8652 8646 
1072 774 1105 775 8420 8648 8651 8422 6512 8653 
1105 774 808 775 8648 6737 8649 8653 6512 6738 
775 808 1106 809 6738 8654 8655 6744 6746 8656 
1072 1106 1073 775 8657 8658 8432 8422 8655 8427 
775 808 1105 1106 6738 8649 8653 8655 8654 8659 
1072 1106 775 1105 8657 8655 8422 8651 8659 8653 
1073 775 1106 776 8427 8655 8658 8429 6519 8660 
1106 775 809 776 8655 6744 8656 8660 6519 6745 
776 809 1107 810 6745 8661 8662 6751 6753 8663 
1073 1107 1074 776 8664 8665 8439 8429 8662 8434 
776 809 1106 1107 6745 8656 8660 8662 8661 8666 
1073 1107 776 1106 8664 8662 8429 8658 8666 8660 
1074 776 1107 777 8434 8662 8665 8436 6526 8667 
1107 776 810 777 8662 6751 8663 8667 6526 6752 
777 810 1108 811 6752 8668 8669 6758 6760 8670 
1074 1108 1075 777 8671 8672 8446 8436 8669 8441 
777 810 1107 1108 6752 8663 8667 8669 8668 8673 
1074 1108 777 1107 8671 8669 8436 8665 8673 8667 
1075 777 1108 778 8441 8669 8672 8443 6533 8674 
1108 777 811 778 8669 6758 8670 8674 6533 6759 
778 811 1109 812 6759 8675 8676 6765 6767 8677 
1075 1109 1076 778 8678 8679 8453 8443 8676 8448 
778 811 1108 1109 6759 8670 8674 8676 8675 8680 
1075 1109 778 1108 8678 8676 8443 8672 8680 8674 
1076 778 1109 779 8448 8676 8679 8450 6540 8681 
1109 778 812 779 8676 6765 8677 8681 6540 6766 
779 812 1110 813 6766 8682 8683 6772 6774 8684 
1076 1110 1077 779 8685 8686 8460 8450 8683 8455 
779 812 1109 1110 6766 8677 8681 8683 8682 8687 
1076 1110 779 1109 8685 8683 8450 8679 8687 8681 
1077 779 1110 780 8455 8683 8686 8457 6547 8688 
1110 779 813 780 8683 6772 8684 8688 6547 6773 
780 813 1111 814 6773 8689 8690 6779 6781 8691 
1077 1111 1078 780 8692 8693 8467 8457 8690 8462 
780 813 1110 1111 6773 8684 8688 8690 8689 8694 
1077 1111 780 1110 8692 8690 8457 8686 8694 8688 
1078 780 1111 781 8462 8690 8693 8464 6554 8695 
1111 780 814 781 8690 6779 8691 8695 6554 6780 
781 814 1112 815 6780 8696 8697 6786 6788 8698 
1078 1112 1079 781 8699 8700 8474 8464 8697 8469 
781 814 1111 1112 6780 8691 8695 8697 8696 8701 
1078 1112 781 1111 8699 8697 8464 8693 8701 8695 
1079 781 1112 782 8469 8697 8700 8471 6561 8702 
1112 781 815 782 8697 6786 8698 8702 6561 6787 
782 815 1113 816 6787 8703 8704 6793 6795 8705 
1079 1113 1080 782 8706 8707 8481 8471 8704 8476 
782 815 1112 1113 6787 8698 8702 8704 8703 8708 
1079 1113 782 1112 8706 8704 8471 8700 8708 8702 
1080 782 1113 783 8476 8704 8707 8478 6568 8709 
1113 782 816 783 8704 6793 8705 8709 6568 6794 
783 816 1114 817 6794 8710 8711 6800 6802 8712 
1080 1114 1081 783 8713 8714 8488 8478 8711 8483 
783 816 1113 1114 6794 8705 8709 8711 8710 8715 
1080 1114 783 1113 8713 8711 8478 8707 8715 8709 
1081 783 1114 784 8483 8711 8714 8485 6575 8716 
1114 783 817 784 8711 6800 8712 8716 6575 6801 
784 817 1115 818 6801 8717 8718 6807 6809 8719 
1081 1115 1082 784 8720 8721 8495 8485 8718 8490 
784 817 1114 1115 6801 8712 8716 8718 8717 8722 
1081 1115 784 1114 8720 8718 8485 8714 8722 8716 
1082 784 1115 785 8490 8718 8721 8492 6582 8723 
1115 784 818 785 8718 6807 8719 8723 6582 6808 
785 818 1116 819 6808 8724 8725 6814 6816 8726 
1082 1116 1083 785 8727 8728 8502 8492 8725 8497 
785 818 1115 1116 6808 8719 8723 8725 8724 8729 
1082 1116 785 1115 8727 8725 8492 8721 8729 8723 
1083 785 1116 786 8497 8725 8728 8499 6589 8730 
1116 785 819 786 8725 6814 8726 8730 6589 6815 
786 819 1117 820 6815 8731 8732 6821 6823 8733 
1083 1117 1084 786 8734 8735 8509 8499 8732 8504 
786 819 1116 1117 6815 8726 8730 8732 8731 8736 
1083 1117 786 1116 8734 8732 8499 8728 8736 8730 
1084 786 1117 787 8504 8732 8735 8506 6596 8737 
1117 786 820 787 8732 6821 8733 8737 6596 6822 
787 820 1118 821 6822 8738 8739 6828 6830 8740 
1084 1118 1085 787 8741 8742 8516 8506 8739 8511 
787 820 1117 1118 6822 8733 8737 8739 8738 8743 
1084 1118 787 1117 8741 8739 8506 8735 8743 8737 
1085 787 1118 788 8511 8739 8742 8513 6603 8744 
1118 787 821 788 8739 6828 8740 8744 6603 6829 
788 821 1119 822 6829 8745 8746 6835 6837 8747 
1085 1119 1086 788 8748 8749 8523 8513 8746 8518 
788 821 1118 1119 6829 8740 8744 8746 8745 8750 
1085 1119 788 1118 8748 8746 8513 8742 8750 8744 
1086 788 1119 789 8518 8746 8749 8520 6610 8751 
1119 788 822 789 8746 6835 8747 8751 6610 6836 
789 822 1120 823 6836 8752 8753 6842 6844 8754 
1086 1120 1087 789 8755 8756 8530 8520 8753 8525 
789 822 1119 1120 6836 8747 8751 8753 8752 8757 
1086 1120 789 1119 8755 8753 8520 8749 8757 8751 
1087 789 1120 790 8525 8753 8756 8527 6617 8758 
1120 789 823 790 8753 6842 8754 8758 6617 6843 
790 823 1121 824 6843 8759 8760 6849 6851 8761 
1087 1121 1088 790 8762 8763 8537 8527 8760 8532 
790 823 1120 1121 6843 8754 8758 8760 8759 8764 
1087 1121 790 1120 8762 8760 8527 8756 8764 8758 
1088 790 1121 791 8532 8760 8763 8534 6624 8765 
1121 790 824 791 8760 6849 8761 8765 6624 6850 
792 825 1123 826 6861 8766 8767 6856 6860 8768 
1089 1123 1090 792 8769 8770 8546 8544 8767 8539 
792 825 1122 1123 6861 8771 8772 8767 8766 8773 
1089 1123 792 1122 8769 8767 8544 8774 8773 8772 
1090 792 1123 793 8539 8767 8770 8541 6633 8775 
1123 792 826 793 8767 6856 8768 8775 6633 6857 
793 826 1124 827 6857 8776 8777 6866 6868 8778 
1090 1124 1091 793 8779 8780 8554 8541 8777 8549 
793 826 1123 1124 6857 8768 8775 8777 8776 8781 
1090 1124 793 1123 8779 8777 8541 8770 8781 8775 
1091 793 1124 794 8549 8777 8780 8551 6641 8782 
1124 793 827 794 8777 6866 8778 8782 6641 6867 
794 827 1125 828 6867 8783 8784 6873 6875 8785 
1091 1125 1092 794 8786 8787 8561 8551 8784 8556 
794 827 1124 1125 6867 8778 8782 8784 8783 8788 
1091 1125 794 1124 8786 8784 8551 8780 8788 8782 
1092 794 1125 795 8556 8784 8787 8558 6648 8789 
1125 794 828 795 8784 6873 8785 8789 6648 6874 
795 828 1126 829 6874 8790 8791 6880 6882 8792 
1092 1126 1093 795 8793 8794 8568 8558 8791 8563 
795 828 1125 1126 6874 8785 8789 8791 8790 8795 
1092 1126 795 1125 8793 8791 8558 8787 8795 8789 
1093 795 1126 796 8563 8791 8794 8565 6655 8796 
1126 795 829 796 8791 6880 8792 8796 6655 6881 
796 829 1127 830 6881 8797 8798 6887 6889 8799 
1093 1127 1094 796 8800 8801 8575 8565 8798 8570 
796 829 1126 1127 6881 8792 8796 8798 8797 8802 
1093 1127 796 1126 8800 8798 8565 8794 8802 8796 
1094 796 1127 797 8570 8798 8801 8572 6662 8803 
1127 796 830 797 8798 6887 8799 8803 6662 6888 
797 830 1128 831 6888 8804 8805 6894 6896 8806 
1094 1128 1095 797 8807 8808 8582 8572 8805 8577 
797 830 1127 1128 6888 8799 8803 8805 8804 8809 
1094 1128 797 1127 8807 8805 8572 8801 8809 8803 
1095 797 1128 798 8577 8805 8808 8579 6669 8810 
1128 797 831 798 8805 6894 8806 8810 6669 6895 
798 831 1129 832 6895 8811 8812 6901 6903 8813 
1095 1129 1096 798 8814 8815 8589 8579 8812 8584 
798 831 1128 1129 6895 8806 8810 8812 8811 8816 
1095 1129 798 1128 8814 8812 8579 8808 8816 8810 
1096 798 1129 799 8584 8812 8815 8586 6676 8817 
1129 798 832 799 8812 6901 8813 8817 6676 6902 
799 832 1130 833 6902 8818 8819 6908 6910 8820 
1096 1130 1097 799 8821 8822 8596 8586 8819 8591 
799 832 1129 1130 6902 8813 8817 8819 8818 8823 
1096 1130 799 1129 8821 8819 8586 8815 8823 8817 
1097 799 1130 800 8591 8819 8822 8593 6683 8824 
1130 799 833 800 8819 6908 8820 8824 6683 6909 
800 833 1131 834 6909 8825 8826 6915 6917 8827 
1097 1131 1098 800 8828 8829 8603 8593 8826 8598 
800 833 1130 1131 6909 8820 8824 8826 8825 8830 
1097 1131 800 1130 8828 8826 8593 8822 8830 8824 
1098 800 1131 801 8598 8826 8829 8600 6690 8831 
1131 800 834 801 8826 6915 8827 8831 6690 6916 
801 834 1132 835 6916 8832 8833 6922 6924 8834 
1098 1132 1099 801 8835 8836 8610 8600 8833 8605 
801 834 1131 1132 6916 8827 8831 8833 8832 8837 
1098 1132 801 1131 8835 8833 8600 8829 8837 8831 
1099 801 1132 802 8605 8833 8836 8607 6697 8838 
1132 801 835 802 8833 6922 8834 8838 6697 6923 
802 835 1133 836 6923 8839 8840 6929 6931 8841 
1099 1133 1100 802 8842 8843 8617 8607 8840 8612 
802 835 1132 1133 6923 8834 8838 8840 8839 8844 
1099 1133 802 1132 8842 8840 8607 8836 8844 8838 
1100 802 1133 803 8612 8840 8843 8614 6704 8845 
1133 802 836 803 8840 6929 8841 8845 6704 6930 
803 836 1134 837 6930 8846 8847 6936 6938 8848 
1100 1134 1101 803 8849 8850 8624 8614 8847 8619 
803 836 1133 1134 6930 8841 8845 8847 8846 8851 
1100 1134 803 1133 8849 8847 8614 8843 8851 8845 
1101 803 1134 804 8619 8847 8850 8621 6711 8852 
1134 803 837 804 8847 6936 8848 8852 6711 6937 
804 837 1135 838 6937 8853 8854 6943 6945 8855 
1101 1135 1102 804 8856 8857 8631 8621 8854 8626 
804 837 1134 1135 6937 8848 8852 8854 8853 8858 
1101 1135 804 1134 8856 8854 8621 8850 8858 8852 
1102 804 1135 805 8626 8854 8857 8628 6718 8859 
1135 804 838 805 8854 6943 8855 8859 6718 6944 
805 838 1136 839 6944 8860 8861 6950 6952 8862 
1102 1136 1103 805 8863 8864 8638 8628 8861 8633 
805 838 1135 1136 6944 8855 8859 8861 8860 8865 
1102 1136 805 1135 8863 8861 8628 8857 8865 8859 
1103 805 1136 806 8633 8861 8864 8635 6725 8866 
1136 805 839 806 8861 6950 8862 8866 6725 6951 
806 839 1137 840 6951 8867 8868 6957 6959 8869 
1103 1137 1104 806 8870 8871 8645 8635 8868 8640 
806 839 1136 1137 6951 8862 8866 8868 8867 8872 
1103 1137 806 1136 8870 8868 8635 8864 8872 8866 
1104 806 1137 807 8640 8868 8871 8642 6732 8873 
1137 806 840 807 8868 6957 8869 8873 6732 6958 
807 840 1138 841 6958 8874 8875 6964 6966 8876 
1104 1138 1105 807 8877 8878 8652 8642 8875 8647 
807 840 1137 1138 6958 8869 8873 8875 8874 8879 
1104 1138 807 1137 8877 8875 8642 8871 8879 8873 
1105 807 1138 808 8647 8875 8878 8649 6739 8880 
1138 807 841 808 8875 6964 8876 8880 6739 6965 
808 841 1139 842 6965 8881 8882 6971 6973 8883 
1105 1139 1106 808 8884 8885 8659 8649 8882 8654 
808 841 1138 1139 6965 8876 8880 8882 8881 8886 
1105 1139 808 1138 8884 8882 8649 8878 8886 8880 
1106 808 1139 809 8654 8882 8885 8656 6746 8887 
1139 808 842 809 8882 6971 8883 8887 6746 6972 
809 842 1140 843 6972 8888 8889 6978 6980 8890 
1106 1140 1107 809 8891 8892 8666 8656 8889 8661 
809 842 1139 1140 6972 8883 8887 8889 8888 8893 
1106 1140 809 1139 8891 8889 8656 8885 8893 8887 
1107 809 1140 810 8661 8889 8892 8663 6753 8894 
1140 809 843 810 8889 6978 8890 8894 6753 6979 
810 843 1141 844 6979 8895 8896 6985 6987 8897 
1107 1141 1108 810 8898 8899 8673 8663 8896 8668 
810 843 1140 1141 6979 8890 8894 8896 8895 8900 
1107 1141 810 1140 8898 8896 8663 8892 8900 8894 
1108 810 1141 811 8668 8896 8899 8670 6760 8901 
1141 810 844 811 8896 6985 8897 8901 6760 6986 
811 844 1142 845 6986 8902 8903 6992 6994 8904 
1108 1142 1109 811 8905 8906 8680 8670 8903 8675 
811 844 1141 1142 6986 8897 8901 8903 8902 8907 
1108 1142 811 1141 8905 8903 8670 8899 8907 8901 
1109 811 1142 812 8675 8903 8906 8677 6767 8908 
1142 811 845 812 8903 6992 8904 8908 6767 6993 
812 845 1143 846 6993 8909 8910 6999 7001 8911 
1109 1143 1110 812 8912 8913 8687 8677 8910 8682 
812 845 1142 1143 6993 8904 8908 8910 8909 8914 
1109 1143 812 1142 8912 8910 8677 8906 8914 8908 
1110 812 1143 813 8682 8910 8913 8684 6774 8915 
1143 812 846 813 8910 6999 8911 8915 6774 7000 
813 846 1144 847 7000 8916 8917 7006 7008 8918 
1110 1144 1111 813 8919 8920 8694 8684 8917 8689 
813 846 1143 1144 7000 8911 8915 8917 8916 8921 
1110 1144 813 1143 8919 8917 8684 8913 8921 8915 
1111 813 1144 814 8689 8917 8920 8691 6781 8922 
1144 813 847 814 8917 7006 8918 8922 6781 7007 
814 847 1145 848 7007 8923 8924 7013 7015 8925 
1111 1145 1112 814 8926 8927 8701 8691 8924 8696 
814 847 1144 1145 7007 8918 8922 8924 8923 8928 
1111 1145 814 1144 8926 8924 8691 8920 8928 8922 
1112 814 1145 815 8696 8924 8927 8698 6788 8929 
1145 814 848 815 8924 7013 8925 8929 6788 7014 
815 848 1146 849 7014 8930 8931 7020 7022 8932 
1112 1146 1113 815 8933 8934 8708 8698 8931 8703 
815 848 1145 1146 7014 8925 8929 8931 8930 8935 
1112 1146 815 1145 8933 8931 8698 8927 8935 8929 
1113 815 1146 816 8703 8931 8934 8705 6795 8936 
1146 815 849 816 8931 7020 8932 8936 6795 7021 
816 849 1147 850 7021 8937 8938 7027 7029 8939 
1113 1147 1114 816 8940 8941 8715 8705 8938 8710 
816 849 1146 1147 7021 8932 8936 8938 8937 8942 
1113 1147 816 1146 8940 8938 8705 8934 8942 8936 
1114 816 1147 817 8710 8938 8941 8712 6802 8943 
1147 816 850 817 8938 7027 8939 8943 6802 7028 
817 850 1148 851 7028 8944 8945 7034 7036 8946 
1114 1148 1115 817 8947 8948 8722 8712 8945 8717 
817 850 1147 1148 7028 8939 8943 8945 8944 8949 
1114 1148 817 1147 8947 8945 8712 8941 8949 8943 
1115 817 1148 818 8717 8945 8948 8719 6809 8950 
1148 817 851 818 8945 7034 8946 8950 6809 7035 
818 851 1149 852 7035 8951 8952 7041 7043 8953 
1115 1149 1116 818 8954 8955 8729 8719 8952 8724 
818 851 1148 1149 7035 8946 8950 8952 8951 8956 
1115 1149 818 1148 8954 8952 8719 8948 8956 8950 
1116 818 1149 819 8724 8952 8955 8726 6816 8957 
1149 818 852 819 8952 7041 8953 8957 6816 7042 
819 852 1150 853 7042 8958 8959 7048 7050 8960 
1116 1150 1117 819 8961 8962 8736 8726 8959 8731 
819 852 1149 1150 7042 8953 8957 8959 8958 8963 
1116 1150 819 1149 8961 8959 8726 8955 8963 8957 
1117 819 1150 820 8731 8959 8962 8733 6823 8964 
1150 819 853 820 8959 7048 8960 8964 6823 7049 
820 853 1151 854 7049 8965 8966 7055 7057 8967 
1117 1151 1118 820 8968 8969 8743 8733 8966 8738 
820 853 1150 1151 7049 8960 8964 8966 8965 8970 
1117 1151 820 1150 8968 8966 8733 8962 8970 8964 
1118 820 1151 821 8738 8966 8969 8740 6830 8971 
1151 820 854 821 8966 7055 8967 8971 6830 7056 
821 854 1152 855 7056 8972 8973 7062 7064 8974 
1118 1152 1119 821 8975 8976 8750 8740 8973 8745 
821 854 1151 1152 7056 8967 8971 8973 8972 8977 
1118 1152 821 1151 8975 8973 8740 8969 8977 8971 
1119 821 1152 822 8745 8973 8976 8747 6837 8978 
1152 821 855 822 8973 7062 8974 8978 6837 7063 
822 855 1153 856 7063 8979 8980 7069 7071 8981 
1119 1153 1120 822 8982 8983 8757 8747 8980 8752 
822 855 1152 1153 7063 8974 8978 8980 8979 8984 
1119 1153 822 1152 8982 8980 8747 8976 8984 8978 
1120 822 1153 823 8752 8980 8983 8754 6844 8985 
1153 822 856 823 8980 7069 8981 8985 6844 7070 
823 856 1154 857 7070 8986 8987 7076 7078 8988 
1120 1154 1121 823 8989 8990 8764 8754 8987 8759 
823 856 1153 1154 7070 8981 8985 8987 8986 8991 
1120 1154 823 1153 8989 8987 8754 8983 8991 8985 
1121 823 1154 824 8759 8987 8990 8761 6851 8992 
1154 823 857 824 8987 7076 8988 8992 6851 7077 
825 858 1156 859 7088 8993 8994 7083 7087 8995 
1122 1156 1123 825 8996 8997 8773 8771 8994 8766 
825 858 1155 1156 7088 8998 8999 8994 8993 9000 
1122 1156 825 1155 8996 8994 8771 9001 9000 8999 
1123 825 1156 826 8766 8994 8997 8768 6860 9002 
1156 825 859 826 8994 7083 8995 9002 6860 7084 
826 859 1157 860 7084 9003 9004 7093 7095 9005 
1123 1157 1124 826 9006 9007 8781 8768 9004 8776 
826 859 1156 1157 7084 8995 9002 9004 9003 9008 
1123 1157 826 1156 9006 9004 8768 8997 9008 9002 
1124 826 1157 827 8776 9004 9007 8778 6868 9009 
1157 826 860 827 9004 7093 9005 9009 6868 7094 
827 860 1158 861 7094 9010 9011 7100 7102 9012 
1124 1158 1125 827 9013 9014 8788 8778 9011 8783 
827 860 1157 1158 7094 9005 9009 9011 9010 9015 
1124 1158 827 1157 9013 9011 8778 9007 9015 9009 
1125 827 1158 828 8783 9011 9014 8785 6875 9016 
1158 827 861 828 9011 7100 9012 9016 6875 7101 
828 861 1159 862 7101 9017 9018 7107 7109 9019 
1125 1159 1126 828 9020 9021 8795 8785 9018 8790 
828 861 1158 1159 7101 9012 9016 9018 9017 9022 
1125 1159 828 1158 9020 9018 8785 9014 9022 9016 
1126 828 1159 829 8790 9018 9021 8792 6882 9023 
1159 828 862 829 9018 7107 9019 9023 6882 7108 
829 862 1160 863 7108 9024 9025 7114 7116 9026 
1126 1160 1127 829 9027 9028 8802 8792 9025 8797 
829 862 1159 1160 7108 9019 9023 9025 9024 9029 
1126 1160 829 1159 9027 9025 8792 9021 9029 9023 
1127 829 1160 830 8797 9025 9028 8799 6889 9030 
1160 829 863 830 9025 7114 9026 9030 6889 7115 
830 863 1161 864 7115 9031 9032 7121 7123 9033 
1127 1161 1128 830 9034 9035 8809 8799 9032 8804 
830 863 1160 1161 7115 9026 9030 9032 9031 9036 
1127 1161 830 1160 9034 9032 8799 9028 9036 9030 
1128 830 1161 831 8804 9032 9035 8806 6896 9037 
1161 830 864 831 9032 7121 9033 9037 6896 7122 
831 864 1162 865 7122 9038 9039 7128 7130 9040 
1128 1162 1129 831 9041 9042 8816 8806 9039 8811 
831 864 1161 1162 7122 9033 9037 9039 9038 9043 
1128 1162 831 1161 9041 9039 8806 9035 9043 9037 
1129 831 1162 832 8811 9039 9042 8813 6903 9044 
1162 831 865 832 9039 7128 9040 9044 6903 7129 
832 865 1163 866 7129 9045 9046 7135 7137 9047 
1129 1163 1130 832 9048 9049 8823 8813 9046 8818 
832 865 1162 1163 7129 9040 9044 9046 9045 9050 
1129 1163 832 1162 9048 9046 8813 9042 9050 9044 
1130 832 1163 833 8818 9046 9049 8820 6910 9051 
1163 832 866 833 9046 7135 9047 9051 6910 7136 
833 866 1164 867 7136 9052 9053 7142 7144 9054 
1130 1164 1131 833 9055 9056 8830 8820 9053 8825 
833 866 1163 1164 7136 9047 9051 9053 9052 9057 
1130 1164 833 1163 9055 9053 8820 9049 9057 9051 
1131 833 1164 834 8825 9053 9056 8827 6917 9058 
1164 833 867 834 9053 7142 9054 9058 6917 7143 
834 867 1165 868 7143 9059 9060 7149 7151 9061 
1131 1165 1132 834 9062 9063 8837 8827 9060 8832 
834 867 1164 1165 7143 9054 9058 9060 9059 9064 
1131 1165 834 1164 9062 9060 8827 9056 9064 9058 
1132 834 1165 835 8832 9060 9063 8834 6924 9065 
1165 834 868 835 9060 7149 9061 9065 6924 7150 
835 868 1166 869 7150 9066 9067 7156 7158 9068 
1132 1166 1133 835 9069 9070 8844 8834 9067 8839 
835 868 1165 1166 7150 9061 9065 9067 9066 9071 
1132 1166 835 1165 9069 9067 8834 9063 9071 9065 
1133 835 1166 836 8839 9067 9070 8841 6931 9072 
1166 835 869 836 9067 7156 9068 9072 6931 7157 
836 869 1167 870 7157 9073 9074 7163 7165 9075 
1133 1167 1134 836 9076 9077 8851 8841 9074 8846 
836 869 1166 1167 7157 9068 9072 9074 9073 9078 
1133 1167 836 1166 9076 9074 8841 9070 9078 9072 
1134 836 1167 837 8846 9074 9077 8848 6938 9079 
1167 836 870 837 9074 7163 9075 9079 6938 7164 
837 870 1168 871 7164 9080 9081 7170 7172 9082 
1134 1168 1135 837 9083 9084 8858 8848 9081 8853 
837 870 1167 1168 7164 9075 9079 9081 9080 9085 
1134 1168 837 1167 9083 9081 8848 9077 9085 9079 
1135 837 1168 838 8853 9081 9084 8855 6945 9086 
1168 837 871 838 9081 7170 9082 9086 6945 7171 
838 871 1169 872 7171 9087 9088 7177 7179 9089 
1135 1169 1136 838 9090 9091 8865 8855 9088 8860 
838 871 1168 1169 7171 9082 9086 9088 9087 9092 
1135 1169 838 1168 9090 9088 8855 9084 9092 9086 
1136 838 1169 839 8860 9088 9091 8862 6952 9093 
1169 838 872 839 9088 7177 9089 9093 6952 7178 
839 872 1170 873 7178 9094 9095 7184 7186 9096 
1136 1170 1137 839 9097 9098 8872 8862 9095 8867 
839 872 1169 1170 7178 9089 9093 9095 9094 9099 
1136 1170 839 1169 9097 9095 8862 9091 9099 9093 
1137 839 1170 840 8867 9095 9098 8869 6959 9100 
1170 839 873 840 9095 7184 9096 9100 6959 7185 
840 873 1171 874 7185 9101 9102 7191 7193 9103 
1137 1171 1138 840 9104 9105 8879 8869 9102 8874 
840 873 1170 1171 7185 9096 9100 9102 9101 9106 
1137 1171 840 1170 9104 9102 8869 9098 9106 9100 
1138 840 1171 841 8874 9102 9105 8876 6966 9107 
1171 840 874 841 9102 7191 9103 9107 6966 7192 
841 874 1172 875 7192 9108 9109 7198 7200 9110 
1138 1172 1139 841 9111 9112 8886 8876 9109 8881 
841 874 1171 1172 7192 9103 9107 9109 9108 9113 
1138 1172 841 1171 9111 9109 8876 9105 9113 9107 
1139 841 1172 842 8881 9109 9112 8883 6973 9114 
1172 841 875 842 9109 7198 9110 9114 6973 7199 
842 875 1173 876 7199 9115 9116 7205 7207 9117 
1139 1173 1140 842 9118 9119 8893 8883 9116 8888 
842 875 1172 1173 7199 9110 9114 9116 9115 9120 
1139 1173 842 1172 9118 9116 8883 9112 9120 9114 
1140 842 1173 843 8888 9116 9119 8890 6980 9121 
1173 842 876 843 9116 7205 9117 9121 6980 7206 
843 876 1174 877 7206 9122 9123 7212 7214 9124 
1140 1174 1141 843 9125 9126 8900 8890 9123 8895 
843 876 1173 1174 7206 9117 9121 9123 9122 9127 
1140 1174 843 1173 9125 9123 8890 9119 9127 9121 
1141 843 1174 844 8895 9123 9126 8897 6987 9128 
1174 843 877 844 9123 7212 9124 9128 6987 7213 
844 877 1175 878 7213 9129 9130 7219 7221 9131 
1141 1175 1142 844 9132 9133 8907 8897 9130 8902 
844 877 1174 1175 7213 9124 9128 9130 9129 9134 
1141 1175 844 1174 9132 9130 8897 9126 9134 9128 
1142 844 1175 845 8902 9130 9133 8904 6994 9135 
1175 844 878 845 9130 7219 9131 9135 6994 7220 
845 878 1176 879 7220 9136 9137 7226 7228 9138 
1142 1176 1143 845 9139 9140 8914 8904 9137 8909 
845 878 1175 1176 7220 9131 9135 9137 9136 9141 
1142 1176 845 1175 9139 9137 8904 9133 9141 9135 
1143 845 1176 846 8909 9137 9140 8911 7001 9142 
1176 845 879 846 9137 7226 9138 9142 7001 7227 
846 879 1177 880 7227 9143 9144 7233 7235 9145 
1143 1177 1144 846 9146 9147 8921 8911 9144 8916 
846 879 1176 1177 7227 9138 9142 9144 9143 9148 
1143 1177 846 1176 9146 9144 8911 9140 9148 9142 
1144 846 1177 847 8916 9144 9147 8918 7008 9149 
1177 846 880 847 9144 7233 9145 9149 7008 7234 
847 880 1178 881 7234 9150 9151 7240 7242 9152 
1144 1178 1145 847 9153 9154 8928 8918 9151 8923 
847 880 1177 1178 7234 9145 9149 9151 9150 9155 
1144 1178 847 1177 9153 9151 8918 9147 9155 9149 
1145 847 1178 848 8923 9151 9154 8925 7015 9156 
1178 847 881 848 9151 7240 9152 9156 7015 7241 
848 881 1179 882 7241 9157 9158 7247 7249 9159 
1145 1179 1146 848 9160 9161 8935 8925 9158 8930 
848 881 1178 1179 7241 9152 9156 9158 9157 9162 
1145 1179 848 1178 9160 9158 8925 9154 9162 9156 
1146 848 1179 849 8930 9158 9161 8932 7022 9163 
1179 848 882 849 9158 7247 9159 9163 7022 7248 
849 882 1180 883 7248 9164 9165 7254 7256 9166 
1146 1180 1147 849 9167 9168 8942 8932 9165 8937 
849 882 1179 1180 7248 9159 9163 9165 9164 9169 
1146 1180 849 1179 9167 9165 8932 9161 9169 9163 
1147 849 1180 850 8937 9165 9168 8939 7029 9170 
1180 849 883 850 9165 7254 9166 9170 7029 7255 
850 883 1181 884 7255 9171 9172 7261 7263 9173 
1147 1181 1148 850 9174 9175 8949 8939 9172 8944 
850 883 1180 1181 7255 9166 9170 9172 9171 9176 
1147 1181 850 1180 9174 9172 8939 9168 9176 9170 
1148 850 1181 851 8944 9172 9175 8946 7036 9177 
1181 850 884 851 9172 7261 9173 9177 7036 7262 
851 884 1182 885 7262 9178 9179 7268 7270 9180 
1148 1182 1149 851 9181 9182 8956 8946 9179 8951 
851 884 1181 1182 7262 9173 9177 9179 9178 9183 
1148 1182 851 1181 9181 9179 8946 9175 9183 9177 
1149 851 1182 852 8951 9179 9182 8953 7043 9184 
1182 851 885 852 9179 7268 9180 9184 7043 7269 
852 885 1183 886 7269 9185 9186 7275 7277 9187 
1149 1183 1150 852 9188 9189 8963 8953 9186 8958 
852 885 1182 1183 7269 9180 9184 9186 9185 9190 
1149 1183 852 1182 9188 9186 8953 9182 9190 9184 
1150 852 1183 853 8958 9186 9189 8960 7050 9191 
1183 852 886 853 9186 7275 9187 9191 7050 7276 
853 886 1184 887 7276 9192 9193 7282 7284 9194 
1150 1184 1151 853 9195 9196 8970 8960 9193 8965 
853 886 1183 1184 7276 9187 9191 9193 9192 9197 
1150 1184 853 1183 9195 9193 8960 9189 9197 9191 
1151 853 1184 854 8965 9193 9196 8967 7057 9198 
1184 853 887 854 9193 7282 9194 9198 7057 7283 
854 887 1185 888 7283 9199 9200 7289 7291 9201 
1151 1185 1152 854 9202 9203 8977 8967 9200 8972 
854 887 1184 1185 7283 9194 9198 9200 9199 9204 
1151 1185 854 1184 9202 9200 8967 9196 9204 9198 
1152 854 1185 855 8972 9200 9203 8974 7064 9205 
1185 854 888 855 9200 7289 9201 9205 7064 7290 
855 888 1186 889 7290 9206 9207 7296 7298 9208 
1152 1186 1153 855 9209 9210 8984 8974 9207 8979 
855 888 1185 1186 7290 9201 9205 9207 9206 9211 
1152 1186 855 1185 9209 9207 8974 9203 9211 9205 
1153 855 1186 856 8979 9207 9210 8981 7071 9212 
1186 855 889 856 9207 7296 9208 9212 7071 7297 
856 889 1187 890 7297 9213 9214 7303 7305 9215 
1153 1187 1154 856 9216 9217 8991 8981 9214 8986 
856 889 1186 1187 7297 9208 9212 9214 9213 9218 
1153 1187 856 1186 9216 9214 8981 9210 9218 9212 
1154 856 1187 857 8986 9214 9217 8988 7078 9219 
1187 856 890 857 9214 7303 9215 9219 7078 7304 
891 924 1222 925 7318 9220 9221 7310 7317 9222 
1188 1222 1189 891 9223 9224 9225 9226 9221 9227 
891 924 1221 1222 7318 9228 9229 9221 9220 9230 
1188 1222 891 1221 9223 9221 9226 9231 9230 9229 
1189 891 1222 892 9227 9221 9224 9232 7312 9233 
1222 891 925 892 9221 7310 9222 9233 7312 7311 
892 925 1223 926 7311 9234 9235 7324 7328 9236 
1189 1223 1190 892 9237 9238 9239 9232 9235 9240 
892 925 1222 1223 7311 9222 9233 9235 9234 9241 
1189 1223 892 1222 9237 9235 9232 9224 9241 9233 
1190 892 1223 893 9240 9235 9238 9242 7326 9243 
1223 892 926 893 9235 7324 9236 9243 7326 7325 
893 926 1224 927 7325 9244 9245 7334 7338 9246 
1190 1224 1191 893 9247 9248 9249 9242 9245 9250 
893 926 1223 1224 7325 9236 9243 9245 9244 9251 
1190 1224 893 1223 9247 9245 9242 9238 9251 9243 
1191 893 1224 894 9250 9245 9248 9252 7336 9253 
1224 893 927 894 9245 7334 9246 9253 7336 7335 
894 927 1225 928 7335 9254 9255 7344 7348 9256 
1191 1225 1192 894 9257 9258 9259 9252 9255 9260 
894 927 1224 1225 7335 9246 9253 9255 9254 9261 
1191 1225 894 1224 9257 9255 9252 9248 9261 9253 
1192 894 1225 895 9260 9255 9258 9262 7346 9263 
1225 894 928 895 9255 7344 9256 9263 7346 7345 
895 928 1226 929 7345 9264 9265 7354 7358 9266 
1192 1226 1193 895 9267 9268 9269 9262 9265 9270 
895 928 1225 1226 7345 9256 9263 9265 9264 9271 
1192 1226 895 1225 9267 9265 9262 9258 9271 9263 
1193 895 1226 896 9270 9265 9268 9272 7356 9273 
1226 895 929 896 9265 7354 9266 9273 7356 7355 
896 929 1227 930 7355 9274 9275 7364 7368 9276 
1193 1227 1194 896 9277 9278 9279 9272 9275 9280 
896 929 1226 1227 7355 9266 9273 9275 9274 9281 
1193 1227 896 1226 9277 9275 9272 9268 9281 9273 
1194 896 1227 897 9280 9275 9278 9282 7366 9283 
1227 896 930 897 9275 7364 9276 9283 7366 7365 
897 930 1228 931 7365 9284 9285 7374 7378 9286 
1194 1228 1195 897 9287 9288 9289 9282 9285 9290 
897 930 1227 1228 7365 9276 9283 9285 9284 9291 
1194 1228 897 1227 9287 9285 9282 9278 9291 9283 
1195 897 1228 898 9290 9285 9288 9292 7376 9293 
1228 897 931 898 9285 7374 9286 9293 7376 7375 
898 931 1229 932 7375 9294 9295 7384 7388 9296 
1195 1229 1196 898 9297 9298 9299 9292 9295 9300 
898 931 1228 1229 7375 9286 9293 9295 9294 9301 
1195 1229 898 1228 9297 9295 9292 9288 9301 9293 
1196 898 1229 899 9300 9295 9298 9302 7386 9303 
1229 898 932 899 9295 7384 9296 9303 7386 7385 
899 932 1230 933 7385 9304 9305 7394 7398 9306 
1196 1230 1197 899 9307 9308 9309 9302 9305 9310 
899 932 1229 1230 7385 9296 9303 9305 9304 9311 
1196 1230 899 1229 9307 9305 9302 9298 9311 9303 
1197 899 1230 900 9310 9305 9308 9312 7396 9313 
1230 899 933 900 9305 7394 9306 9313 7396 7395 
900 933 1231 934 7395 9314 9315 7404 7408 9316 
1197 1231 1198 900 9317 9318 9319 9312 9315 9320 
900 933 1230 1231 7395 9306 9313 9315 9314 9321 
1197 1231 900 1230 9317 9315 9312 9308 9321 9313 
1198 900 1231 901 9320 9315 9318 9322 7406 9323 
1231 900 934 901 9315 7404 9316 9323 7406 7405 
901 934 1232 935 7405 9324 9325 7414 7418 9326 
1198 1232 1199 901 9327 9328 9329 9322 9325 9330 
901 934 1231 1232 7405 9316 9323 9325 9324 9331 
1198 1232 901 1231 9327 9325 9322 9318 9331 9323 
1199 901 1232 902 9330 9325 9328 9332 7416 9333 
1232 901 935 902 9325 7414 9326 9333 7416 7415 
902 935 1233 936 7415 9334 9335 7424 7428 9336 
1199 1233 1200 902 9337 9338 9339 9332 9335 9340 
902 935 1232 1233 7415 9326 9333 9335 9334 9341 
1199 1233 902 1232 9337 9335 9332 9328 9341 9333 
1200 902 1233 903 9340 9335 9338 9342 7426 9343 
1233 902 936 903 9335 7424 9336 9343 7426 7425 
903 936 1234 937 7425 9344 9345 7434 7438 9346 
1200 1234 1201 903 9347 9348 9349 9342 9345 9350 
903 936 1233 1234 7425 9336 9343 9345 9344 9351 
1200 1234 903 1233 9347 9345 9342 9338 9351 9343 
1201 903 1234 904 9350 9345 9348 9352 7436 9353 
1234 903 937 904 9345 7434 9346 9353 7436 7435 
904 937 1235 938 7435 9354 9355 7444 7448 9356 
1201 1235 1202 904 9357 9358 9359 9352 9355 9360 
904 937 1234 1235 7435 9346 9353 9355 9354 9361 
1201 1235 904 1234 9357 9355 9352 9348 9361 9353 
1202 904 1235 905 9360 9355 9358 9362 7446 9363 
1235 904 938 905 9355 7444 9356 9363 7446 7445 
905 938 1236 939 7445 9364 9365 7454 7458 9366 
1202 1236 1203 905 9367 9368 9369 9362 9365 9370 
905 938 1235 1236 7445 9356 9363 9365 9364 9371 
1202 1236 905 1235 9367 9365 9362 9358 9371 9363 
1203 905 1236 906 9370 9365 9368 9372 7456 9373 
1236 905 939 906 9365 7454 9366 9373 7456 7455 
906 939 1237 940 7455 9374 9375 7464 7468 9376 
1203 1237 1204 906 9377 9378 9379 9372 9375 9380 
906 939 1236 1237 7455 9366 9373 9375 9374 9381 
1203 1237 906 1236 9377 9375 9372 9368 9381 9373 
1204 906 1237 907 9380 9375 9378 9382 7466 9383 
1237 906 940 907 9375 7464 9376 9383 7466 7465 
907 940 1238 941 7465 9384 9385 7474 7478 9386 
1204 1238 1205 907 9387 9388 9389 9382 9385 9390 
907 940 1237 1238 7465 9376 9383 9385 9384 9391 
1204 1238 907 1237 9387 9385 9382 9378 9391 9383 
1205 907 1238 908 9390 9385 9388 9392 7476 9393 
1238 907 941 908 9385 7474 9386 9393 7476 7475 
908 941 1239 942 7475 9394 9395 7484 7488 9396 
1205 1239 1206 908 9397 9398 9399 9392 9395 9400 
908 941 1238 1239 7475 9386 9393 9395 9394 9401 
1205 1239 908 1238 9397 9395 9392 9388 9401 9393 
1206 908 1239 909 9400 9395 9398 9402 7486 9403 
1239 908 942 909 9395 7484 9396 9403 7486 7485 
909 942 1240 943 7485 9404 9405 7494 7498 9406 
1206 1240 1207 909 9407 9408 9409 9402 9405 9410 
909 942 1239 1240 7485 9396 9403 9405 9404 9411 
1206 1240 909 1239 9407 9405 9402 9398 9411 9403 
1207 909 1240 910 9410 9405 9408 9412 7496 9413 
1240 909 943 910 9405 7494 9406 9413 7496 7495 
910 943 1241 944 7495 9414 9415 7504 7508 9416 
1207 1241 1208 910 9417 9418 9419 9412 9415 9420 
910 943 1240 1241 7495 9406 9413 9415 9414 9421 
1207 1241 910 1240 9417 9415 9412 9408 9421 9413 
1208 910 1241 911 9420 9415 9418 9422 7506 9423 
1241 910 944 911 9415 7504 9416 9423 7506 7505 
911 944 1242 945 7505 9424 9425 7514 7518 9426 
1208 1242 1209 911 9427 9428 9429 9422 9425 9430 
911 944 1241 1242 7505 9416 9423 9425 9424 9431 
1208 1242 911 1241 9427 9425 9422 9418 9431 9423 
1209 911 1242 912 9430 9425 9428 9432 7516 9433 
1242 911 945 912 9425 7514 9426 9433 7516 7515 
912 945 1243 946 7515 9434 9435 7524 7528 9436 
1209 1243 1210 912 9437 9438 9439 9432 9435 9440 
912 945 1242 1243 7515 9426 9433 9435 9434 9441 
1209 1243 912 1242 9437 9435 9432 9428 9441 9433 
1210 912 1243 913 9440 9435 9438 9442 7526 9443 
1243 912 946 913 9435 7524 9436 9443 7526 7525 
913 946 1244 947 7525 9444 9445 7534 7538 9446 
1210 1244 1211 913 9447 9448 9449 9442 9445 9450 
913 946 1243 1244 7525 9436 9443 9445 9444 9451 
1210 1244 913 1243 9447 9445 9442 9438 9451 9443 
1211 913 1244 914 9450 9445 9448 9452 7536 9453 
1244 913 947 914 9445 7534 9446 9453 7536 7535 
914 947 1245 948 7535 9454 9455 7544 7548 9456 
1211 1245 1212 914 9457 9458 9459 9452 9455 9460 
914 947 1244 1245 7535 9446 9453 9455 9454 9461 
1211 1245 914 1244 9457 9455 9452 9448 9461 9453 
1212 914 1245 915 9460 9455 9458 9462 7546 9463 
1245 914 948 915 9455 7544 9456 9463 7546 7545 
915 948 1246 949 7545 9464 9465 7554 7558 9466 
1212 1246 1213 915 9467 9468 9469 9462 9465 9470 
915 948 1245 1246 7545 9456 9463 9465 9464 9471 
1212 1246 915 1245 9467 9465 9462 9458 9471 9463 
1213 915 1246 916 9470 9465 9468 9472 7556 9473 
1246 915 949 916 9465 7554 9466 9473 7556 7555 
916 949 1247 950 7555 9474 9475 7564 7568 9476 
1213 1247 1214 916 9477 9478 9479 9472 9475 9480 
916 949 1246 1247 7555 9466 9473 9475 9474 9481 
1213 1247 916 1246 9477 9475 9472 9468 9481 9473 
1214 916 1247 917 9480 9475 9478 9482 7566 9483 
1247 916 950 917 9475 7564 9476 9483 7566 7565 
917 950 1248 951 7565 9484 9485 7574 7578 9486 
1214 1248 1215 917 9487 9488 9489 9482 9485 9490 
917 950 1247 1248 7565 9476 9483 9485 9484 9491 
1214 1248 917 1247 9487 9485 9482 9478 9491 9483 
1215 917 1248 918 9490 9485 9488 9492 7576 9493 
1248 917 951 918 9485 7574 9486 9493 7576 7575 
918 951 1249 952 7575 9494 9495 7584 7588 9496 
1215 1249 1216 918 9497 9498 9499 9492 9495 9500 
918 951 1248 1249 7575 9486 9493 9495 9494 9501 
1215 1249 918 1248 9497 9495 9492 9488 9501 9493 
1216 918 1249 919 9500 9495 9498 9502 7586 9503 
1249 918 952 919 9495 7584 9496 9503 7586 7585 
919 952 1250 953 7585 9504 9505 7594 7598 9506 
1216 1250 1217 919 9507 9508 9509 9502 9505 9510 
919 952 1249 1250 7585 9496 9503 9505 9504 9511 
1216 1250 919 1249 9507 9505 9502 9498 9511 9503 
1217 919 1250 920 9510 9505 9508 9512 7596 9513 
1250 919 953 920 9505 7594 9506 9513 7596 7595 
920 953 1251 954 7595 9514 9515 7604 7608 9516 
1217 1251 1218 920 9517 9518 9519 9512 9515 9520 
920 953 1250 1251 7595 9506 9513 9515 9514 9521 
1217 1251 920 1250 9517 9515 9512 9508 9521 9513 
1218 920 1251 921 9520 9515 9518 9522 7606 9523 
1251 920 954 921 9515 7604 9516 9523 7606 7605 
921 954 1252 955 7605 9524 9525 7614 7618 9526 
1218 1252 1219 921 9527 9528 9529 9522 9525 9530 
921 954 1251 1252 7605 9516 9523 9525 9524 9531 
1218 1252 921 1251 9527 9525 9522 9518 9531 9523 
1219 921 1252 922 9530 9525 9528 9532 7616 9533 
1252 921 955 922 9525 7614 9526 9533 7616 7615 
922 955 1253 956 7615 9534 9535 7624 7628 9536 
1219 1253 1220 922 9537 9538 9539 9532 9535 9540 
922 955 1252 1253 7615 9526 9533 9535 9534 9541 
1219 1253 922 1252 9537 9535 9532 9528 9541 9533 
1220 922 1253 923 9540 9535 9538 9542 7626 9543 
1253 922 956 923 9535 7624 9536 9543 7626 7625 
924 957 1255 958 7639 9544 9545 7634 7638 9546 
1221 1255 1222 924 9547 9548 9230 9228 9545 9220 
924 957 1254 1255 7639 9549 9550 9545 9544 9551 
1221 1255 924 1254 9547 9545 9228 9552 9551 9550 
1222 924 1255 925 9220 9545 9548 9222 7317 9553 
1255 924 958 925 9545 7634 9546 9553 7317 7635 
925 958 1256 959 7635 9554 9555 7644 7646 9556 
1222 1256 1223 925 9557 9558 9241 9222 9555 9234 
925 958 1255 1256 7635 9546 9553 9555 9554 9559 
1222 1256 925 1255 9557 9555 9222 9548 9559 9553 
1223 925 1256 926 9234 9555 9558 9236 7328 9560 
1256 925 959 926 9555 7644 9556 9560 7328 7645 
926 959 1257 960 7645 9561 9562 7651 7653 9563 
1223 1257 1224 926 9564 9565 9251 9236 9562 9244 
926 959 1256 1257 7645 9556 9560 9562 9561 9566 
1223 1257 926 1256 9564 9562 9236 9558 9566 9560 
1224 926 1257 927 9244 9562 9565 9246 7338 9567 
1257 926 960 927 9562 7651 9563 9567 7338 7652 
927 960 1258 961 7652 9568 9569 7658 7660 9570 
1224 1258 1225 927 9571 9572 9261 9246 9569 9254 
927 960 1257 1258 7652 9563 9567 9569 9568 9573 
1224 1258 927 1257 9571 9569 9246 9565 9573 9567 
1225 927 1258 928 9254 9569 9572 9256 7348 9574 
1258 927 961 928 9569 7658 9570 9574 7348 7659 
928 961 1259 962 7659 9575 9576 7665 7667 9577 
1225 1259 1226 928 9578 9579 9271 9256 9576 9264 
928 961 1258 1259 7659 9570 9574 9576 9575 9580 
1225 1259 928 1258 9578 9576 9256 9572 9580 9574 
1226 928 1259 929 9264 9576 9579 9266 7358 9581 
1259 928 962 929 9576 7665 9577 9581 7358 7666 
929 962 1260 963 7666 9582 9583 7672 7674 9584 
1226 1260 1227 929 9585 9586 9281 9266 9583 9274 
929 962 1259 1260 7666 9577 9581 9583 9582 9587 
1226 1260 929 1259 9585 9583 9266 9579 9587 9581 
1227 929 1260 930 9274 9583 9586 9276 7368 9588 
1260 929 963 930 9583 7672 9584 9588 7368 7673 
930 963 1261 964 7673 9589 9590 7679 7681 9591 
1227 1261 1228 930 9592 9593 9291 9276 9590 9284 
930 963 1260 1261 7673 9584 9588 9590 9589 9594 
1227 1261 930 1260 9592 9590 9276 9586 9594 9588 
1228 930 1261 931 9284 9590 9593 9286 7378 9595 
1261 930 964 931 9590 7679 9591 9595 7378 7680 
931 964 1262 965 7680 9596 9597 7686 7688 9598 
1228 1262 1229 931 9599 9600 9301 9286 9597 9294 
931 964 1261 1262 7680 9591 9595 9597 9596 9601 
1228 1262 931 1261 9599 9597 9286 9593 9601 9595 
1229 931 1262 932 9294 9597 9600 9296 7388 9602 
1262 931 965 932 9597 7686 9598 9602 7388 7687 
932 965 1263 966 7687 9603 9604 7693 7695 9605 
1229 1263 1230 932 9606 9607 9311 9296 9604 9304 
932 965 1262 1263 7687 9598 9602 9604 9603 9608 
1229 1263 932 1262 9606 9604 9296 9600 9608 9602 
1230 932 1263 933 9304 9604 9607 9306 7398 9609 
1263 932 966 933 9604 7693 9605 9609 7398 7694 
933 966 1264 967 7694 9610 9611 7700 7702 9612 
1230 1264 1231 933 9613 9614 9321 9306 9611 9314 
933 966 1263 1264 7694 9605 9609 9611 9610 9615 
1230 1264 933 1263 9613 9611 9306 9607 9615 9609 
1231 933 1264 934 9314 9611 9614 9316 7408 9616 
1264 933 967 934 9611 7700 9612 9616 7408 7701 
934 967 1265 968 7701 9617 9618 7707 7709 9619 
1231 1265 1232 934 9620 9621 9331 9316 9618 9324 
934 967 1264 1265 7701 9612 9616 9618 9617 9622 
1231 1265 934 1264 9620 9618 9316 9614 9622 9616 
1232 934 1265 935 9324 9618 9621 9326 7418 9623 
1265 934 968 935 9618 7707 9619 9623 7418 7708 
935 968 1266 969 7708 9624 9625 7714 7716 9626 
1232 1266 1233 935 9627 9628 9341 9326 9625 9334 
935 968 1265 1266 7708 9619 9623 9625 9624 9629 
1232 1266 935 1265 9627 9625 9326 9621 9629 9623 
1233 935 1266 936 9334 9625 9628 9336 7428 9630 
1266 935 969 936 9625 7714 9626 9630 7428 7715 
936 969 1267 970 7715 9631 9632 7721 7723 9633 
1233 1267 1234 936 9634 9635 9351 9336 9632 9344 
936 969 1266 1267 7715 9626 9630 9632 9631 9636 
1233 1267 936 1266 9634 9632 9336 9628 9636 9630 
1234 936 1267 937 9344 9632 9635 9346 7438 9637 
1267 936 970 937 9632 7721 9633 9637 7438 7722 
937 970 1268 971 7722 9638 9639 7728 7730 9640 
1234 1268 1235 937 9641 9642 9361 9346 9639 9354 
937 970 1267 1268 7722 9633 9637 9639 9638 9643 
1234 1268 937 1267 9641 9639 9346 9635 9643 9637 
1235 937 1268 938 9354 9639 9642 9356 7448 9644 
1268 937 971 938 9639 7728 9640 9644 7448 7729 
938 971 1269 972 7729 9645 9646 7735 7737 9647 
1235 1269 1236 938 9648 9649 9371 9356 9646 9364 
938 971 1268 1269 7729 9640 9644 9646 9645 9650 
1235 1269 938 1268 9648 9646 9356 9642 9650 9644 
1236 938 1269 939 9364 9646 9649 9366 7458 9651 
1269 938 972 939 9646 7735 9647 9651 7458 7736 
939 972 1270 973 7736 9652 9653 7742 7744 9654 
1236 1270 1237 939 9655 9656 9381 9366 9653 9374 
939 972 1269 1270 7736 9647 9651 9653 9652 9657 
1236 1270 939 1269 9655 9653 9366 9649 9657 9651 
1237 939 1270 940 9374 9653 9656 9376 7468 9658 
1270 939 973 940 9653 7742 9654 9658 7468 7743 
940 973 1271 974 7743 9659 9660 7749 7751 9661 
1237 1271 1238 940 9662 9663 9391 9376 9660 9384 
940 973 1270 1271 7743 9654 9658 9660 9659 9664 
1237 1271 940 1270 9662 9660 9376 9656 9664 9658 
1238 940 1271 941 9384 9660 9663 9386 7478 9665 
1271 940 974 941 9660 7749 9661 9665 7478 7750 
941 974 1272 975 7750 9666 9667 7756 7758 9668 
1238 1272 1239 941 9669 9670 9401 9386 9667 9394 
941 974 1271 1272 7750 9661 9665 9667 9666 9671 
1238 1272 941 1271 9669 9667 9386 9663 9671 9665 
1239 941 1272 942 9394 9667 9670 9396 7488 9672 
1272 941 975 942 9667 7756 9668 9672 7488 7757 
942 975 1273 976 7757 9673 9674 7763 7765 9675 
1239 1273 1240 942 9676 9677 9411 9396 9674 9404 
942 975 1272 1273 7757 9668 9672 9674 9673 9678 
1239 1273 942 1272 9676 9674 9396 9670 9678 9672 
1240 942 1273 943 9404 9674 9677 9406 7498 9679 
1273 942 976 943 9674 7763 9675 9679 7498 7764 
943 976 1274 977 7764 9680 9681 7770 7772 9682 
1240 1274 1241 943 9683 9684 9421 9406 9681 9414 
943 976 1273 1274 7764 9675 9679 9681 9680 9685 
1240 1274 943 1273 9683 9681 9406 9677 9685 9679 
1241 943 1274 944 9414 9681 9684 9416 7508 9686 
1274 943 977 944 9681 7770 9682 9686 7508 7771 
944 977 1275 978 7771 9687 9688 7777 7779 9689 
1241 1275 1242 944 9690 9691 9431 9416 9688 9424 
944 977 1274 1275 7771 9682 9686 9688 9687 9692 
1241 1275 944 1274 9690 9688 9416 9684 9692 9686 
1242 944 1275 945 9424 9688 9691 9426 7518 9693 
1275 944 978 945 9688 7777 9689 9693 7518 7778 
945 978 1276 979 7778 9694 9695 7784 7786 9696 
1242 1276 1243 945 9697 9698 9441 9426 9695 9434 
945 978 1275 1276 7778 9689 9693 9695 9694 9699 
1242 1276 945 1275 9697 9695 9426 9691 9699 9693 
1243 945 1276 946 9434 9695 9698 9436 7528 9700 
1276 945 979 946 9695 7784 9696 9700 7528 7785 
946 979 1277 980 7785 9701 9702 7791 7793 9703 
1243 1277 1244 946 9704 9705 9451 9436 9702 9444 
946 979 1276 1277 7785 9696 9700 9702 9701 9706 
1243 1277 946 1276 9704 9702 9436 9698 9706 9700 
1244 946 1277 947 9444 9702 9705 9446 7538 9707 
1277 946 980 947 9702 7791 9703 9707 7538 7792 
947 980 1278 981 7792 9708 9709 7798 7800 9710 
1244 1278 1245 947 9711 9712 9461 9446 9709 9454 
947 980 1277 1278 7792 9703 9707 9709 9708 9713 
1244 1278 947 1277 9711 9709 9446 9705 9713 9707 
1245 947 1278 948 9454 9709 9712 9456 7548 9714 
1278 947 981 948 9709 7798 9710 9714 7548 7799 
948 981 1279 982 7799 9715 9716 7805 7807 9717 
1245 1279 1246 948 9718 9719 9471 9456 9716 9464 
948 981 1278 1279 7799 9710 9714 9716 9715 9720 
1245 1279 948 1278 9718 9716 9456 9712 9720 9714 
1246 948 1279 949 9464 9716 9719 9466 7558 9721 
1279 948 982 949 9716 7805 9717 9721 7558 7806 
949 982 1280 983 7806 9722 9723 7812 7814 9724 
1246 1280 1247 949 9725 9726 9481 9466 9723 9474 
949 982 1279 1280 7806 9717 9721 9723 9722 9727 
1246 1280 949 1279 9725 9723 9466 9719 9727 9721 
1247 949 1280 950 9474 9723 9726 9476 7568 9728 
1280 949 983 950 9723 7812 9724 9728 7568 7813 
950 983 1281 984 7813 9729 9730 7819 7821 9731 
1247 1281 1248 950 9732 9733 9491 9476 9730 9484 
950 983 1280 1281 7813 9724 9728 9730 9729 9734 
1247 1281 950 1280 9732 9730 9476 9726 9734 9728 
1248 950 1281 951 9484 9730 9733 9486 7578 9735 
1281 950 984 951 9730 7819 9731 9735 7578 7820 
951 984 1282 985 7820 9736 9737 7826 7828 9738 
1248 1282 1249 951 9739 9740 9501 9486 9737 9494 
951 984 1281 1282 7820 9731 9735 9737 9736 9741 
1248 1282 951 1281 9739 9737 9486 9733 9741 9735 
1249 951 1282 952 9494 9737 9740 9496 7588 9742 
1282 951 985 952 9737 7826 9738 9742 7588 7827 
952 985 1283 986 7827 9743 9744 7833 7835 9745 
1249 1283 1250 952 9746 9747 9511 9496 9744 9504 
952 985 1282 1283 7827 9738 9742 9744 9743 9748 
1249 1283 952 1282 9746 9744 9496 9740 9748 9742 
1250 952 1283 953 9504 9744 9747 9506 7598 9749 
1283 952 986 953 9744 7833 9745 9749 7598 7834 
953 986 1284 987 7834 9750 9751 7840 7842 9752 
1250 1284 1251 953 9753 9754 9521 9506 9751 9514 
953 986 1283 1284 7834 9745 9749 9751 9750 9755 
1250 1284 953 1283 9753 9751 9506 9747 9755 9749 
1251 953 1284 954 9514 9751 9754 9516 7608 9756 
1284 953 987 954 9751 7840 9752 9756 7608 7841 
954 987 1285 988 7841 9757 9758 7847 7849 9759 
1251 1285 1252 954 9760 9761 9531 9516 9758 9524 
954 987 1284 1285 7841 9752 9756 9758 9757 9762 
1251 1285 954 1284 9760 9758 9516 9754 9762 9756 
1252 954 1285 955 9524 9758 9761 9526 7618 9763 
1285 954 988 955 9758 7847 9759 9763 7618 7848 
955 988 1286 989 7848 9764 9765 7854 7856 9766 
1252 1286 1253 955 9767 9768 9541 9526 9765 9534 
955 988 1285 1286 7848 9759 9763 9765 9764 9769 
1252 1286 955 1285 9767 9765 9526 9761 9769 9763 
1253 955 1286 956 9534 9765 9768 9536 7628 9770 
1286 955 989 956 9765 7854 9766 9770 7628 7855 
957 990 1288 991 7866 9771 9772 7861 7865 9773 
1254 1288 1255 957 9774 9775 9551 9549 9772 9544 
957 990 1287 1288 7866 9776 9777 9772 9771 9778 
1254 1288 957 1287 9774 9772 9549 9779 9778 9777 
1255 957 1288 958 9544 9772 9775 9546 7638 9780 
1288 957 991 958 9772 7861 9773 9780 7638 7862 
958 991 1289 992 7862 9781 9782 7871 7873 9783 
1255 1289 1256 958 9784 9785 9559 9546 9782 9554 
958 991 1288 1289 7862 9773 9780 9782 9781 9786 
1255 1289 958 1288 9784 9782 9546 9775 9786 9780 
1256 958 1289 959 9554 9782 9785 9556 7646 9787 
1289 958 992 959 9782 7871 9783 9787 7646 7872 
959 992 1290 993 7872 9788 9789 7878 7880 9790 
1256 1290 1257 959 9791 9792 9566 9556 9789 9561 
959 992 1289 1290 7872 9783 9787 9789 9788 9793 
1256 1290 959 1289 9791 9789 9556 9785 9793 9787 
1257 959 1290 960 9561 9789 9792 9563 7653 9794 
1290 959 993 960 9789 7878 9790 9794 7653 7879 
960 993 1291 994 7879 9795 9796 7885 7887 9797 
1257 1291 1258 960 9798 9799 9573 9563 9796 9568 
960 993 1290 1291 7879 9790 9794 9796 9795 9800 
1257 1291 960 1290 9798 9796 9563 9792 9800 9794 
1258 960 1291 961 9568 9796 9799 9570 7660 9801 
1291 960 994 961 9796 7885 9797 9801 7660 7886 
961 994 1292 995 7886 9802 9803 7892 7894 9804 
1258 1292 1259 961 9805 9806 9580 9570 9803 9575 
961 994 1291 1292 7886 9797 9801 9803 9802 9807 
1258 1292 961 1291 9805 9803 9570 9799 9807 9801 
1259 961 1292 962 9575 9803 9806 9577 7667 9808 
1292 961 995 962 9803 7892 9804 9808 7667 7893 
962 995 1293 996 7893 9809 9810 7899 7901 9811 
1259 1293 1260 962 9812 9813 9587 9577 9810 9582 
962 995 1292 1293 7893 9804 9808 9810 9809 9814 
1259 1293 962 1292 9812 9810 9577 9806 9814 9808 
1260 962 1293 963 9582 9810 9813 9584 7674 9815 
1293 962 996 963 9810 7899 9811 9815 7674 7900 
963 996 1294 997 7900 9816 9817 7906 7908 9818 
1260 1294 1261 963 9819 9820 9594 9584 9817 9589 
963 996 1293 1294 7900 9811 9815 9817 9816 9821 
1260 1294 963 1293 9819 9817 9584 9813 9821 9815 
1261 963 1294 964 9589 9817 9820 9591 7681 9822 
1294 963 997 964 9817 7906 9818 9822 7681 7907 
964 997 1295 998 7907 9823 9824 7913 7915 9825 
1261 1295 1262 964 9826 9827 9601 9591 9824 9596 
964 997 1294 1295 7907 9818 9822 9824 9823 9828 
1261 1295 964 1294 9826 9824 9591 9820 9828 9822 
1262 964 1295 965 9596 9824 9827 9598 7688 9829 
1295 964 998 965 9824 7913 9825 9829 7688 7914 
965 998 1296 999 7914 9830 9831 7920 7922 9832 
1262 1296 1263 965 9833 9834 9608 9598 9831 9603 
965 998 1295 1296 7914 9825 9829 9831 9830 9835 
1262 1296 965 1295 9833 9831 9598 9827 9835 9829 
1263 965 1296 966 9603 9831 9834 9605 7695 9836 
1296 965 999 966 9831 7920 9832 9836 7695 7921 
966 999 1297 1000 7921 9837 9838 7927 7929 9839 
1263 1297 1264 966 9840 9841 9615 9605 9838 9610 
966 999 1296 1297 7921 9832 9836 9838 9837 9842 
1263 1297 966 1296 9840 9838 9605 9834 9842 9836 
1264 966 1297 967 9610 9838 9841 9612 7702 9843 
1297 966 1000 967 9838 7927 9839 9843 7702 7928 
967 1000 1298 1001 7928 9844 9845 7934 7936 9846 
1264 1298 1265 967 9847 9848 9622 9612 9845 9617 
967 1000 1297 1298 7928 9839 9843 9845 9844 9849 
1264 1298 967 1297 9847 9845 9612 9841 9849 9843 
1265 967 1298 968 9617 9845 9848 9619 7709 9850 
1298 967 1001 968 9845 7934 9846 9850 7709 7935 
968 1001 1299 1002 7935 9851 9852 7941 7943 9853 
1265 1299 1266 968 9854 9855 9629 9619 9852 9624 
968 1001 1298 1299 7935 9846 9850 9852 9851 9856 
1265 1299 968 1298 9854 9852 9619 9848 9856 9850 
1266 968 1299 969 9624 9852 9855 9626 7716 9857 
1299 968 1002 969 9852 7941 9853 9857 7716 7942 
969 1002 1300 1003 7942 9858 9859 7948 7950 9860 
1266 1300 1267 969 9861 9862 9636 9626 9859 9631 
969 1002 1299 1300 7942 9853 9857 9859 9858 9863 
1266 1300 969 1299 9861 9859 9626 9855 9863 9857 
1267 969 1300 970 9631 9859 9862 9633 7723 9864 
1300 969 1003 970 9859 7948 9860 9864 7723 7949 
970 1003 1301 1004 7949 9865 9866 7955 7957 9867 
1267 1301 1268 970 9868 9869 9643 9633 9866 9638 
970 1003 1300 1301 7949 9860 9864 9866 9865 9870 
1267 1301 970 1300 9868 9866 9633 9862 9870 9864 
1268 970 1301 971 9638 9866 9869 9640 7730 9871 
1301 970 1004 971 9866 7955 9867 9871 7730 7956 
971 1004 1302 1005 7956 9872 9873 7962 7964 9874 
1268 1302 1269 971 9875 9876 9650 9640 9873 9645 
971 1004 1301 1302 7956 9867 9871 9873 9872 9877 
1268 1302 971 1301 9875 9873 9640 9869 9877 9871 
1269 971 1302 972 9645 9873 9876 9647 7737 9878 
1302 971 1005 972 9873 7962 9874 9878 7737 7963 
972 1005 1303 1006 7963 9879 9880 7969 7971 9881 
1269 1303 1270 972 9882 9883 9657 9647 9880 9652 
972 1005 1302 1303 7963 9874 9878 9880 9879 9884 
1269 1303 972 1302 9882 9880 9647 9876 9884 9878 
1270 972 1303 973 9652 9880 9883 9654 7744 9885 
1303 972 1006 973 9880 7969 9881 9885 7744 7970 
973 1006 1304 1007 7970 9886 9887 7976 7978 9888 
1270 1304 1271 973 9889 9890 9664 9654 9887 9659 
973 1006 1303 1304 7970 9881 9885 9887 9886 9891 
1270 1304 973 1303 9889 9887 9654 9883 9891 9885 
1271 973 1304 974 9659 9887 9890 9661 7751 9892 
1304 973 1007 974 9887 7976 9888 9892 7751 7977 
974 1007 1305 1008 7977 9893 9894 7983 7985 9895 
1271 1305 1272 974 9896 9897 9671 9661 9894 9666 
974 1007 1304 1305 7977 9888 9892 9894 9893 9898 
1271 1305 974 1304 9896 9894 9661 9890 9898 9892 
1272 974 1305 975 9666 9894 9897 9668 7758 9899 
1305 974 1008 975 9894 7983 9895 9899 7758 7984 
975 1008 1306 1009 7984 9900 9901 7990 7992 9902 
1272 1306 1273 975 9903 9904 9678 9668 9901 9673 
975 1008 1305 1306 7984 9895 9899 9901 9900 9905 
1272 1306 975 1305 9903 9901 9668 9897 9905 9899 
1273 975 1306 976 9673 9901 9904 9675 7765 9906 
1306 975 1009 976 9901 7990 9902 9906 7765 7991 
976 1009 1307 1010 7991 9907 9908 7997 7999 9909 
1273 1307 1274 976 9910 9911 9685 9675 9908 9680 
976 1009 1306 1307 7991 9902 9906 9908 9907 9912 
1273 1307 976 1306 9910 9908 9675 9904 9912 9906 
1274 976 1307 977 9680 9908 9911 9682 7772 9913 
1307 976 1010 977 9908 7997 9909 9913 7772 7998 
977 1010 1308 1011 7998 9914 9915 8004 8006 9916 
1274 1308 1275 977 9917 9918 9692 9682 9915 9687 
977 1010 1307 1308 7998 9909 9913 9915 9914 9919 
1274 1308 977 1307 9917 9915 9682 9911 9919 9913 
1275 977 1308 978 9687 9915 9918 9689 7779 9920 
1308 977 1011 978 9915 8004 9916 9920 7779 8005 
978 1011 1309 1012 8005 9921 9922 8011 8013 9923 
1275 1309 1276 978 9924 9925 9699 9689 9922 9694 
978 1011 1308 1309 8005 9916 9920 9922 9921 9926 
1275 1309 978 1308 9924 9922 9689 9918 9926 9920 
1276 978 1309 979 9694 9922 9925 9696 7786 9927 
1309 978 1012 979 9922 8011 9923 9927 7786 8012 
979 1012 1310 1013 8012 9928 9929 8018 8020 9930 
1276 1310 1277 979 9931 9932 9706 9696 9929 9701 
979 1012 1309 1310 8012 9923 9927 9929 9928 9933 
1276 1310 979 1309 9931 9929 9696 9925 9933 9927 
1277 979 1310 980 9701 9929 9932 9703 7793 9934 
1310 979 1013 980 9929 8018 9930 9934 7793 8019 
980 1013 1311 1014 8019 9935 9936 8025 8027 9937 
1277 1311 1278 980 9938 9939 9713 9703 9936 9708 
980 1013 1310 1311 8019 9930 9934 9936 9935 9940 
1277 1311 980 1310 9938 9936 9703 9932 9940 9934 
1278 980 1311 981 9708 9936 9939 9710 7800 9941 
1311 980 1014 981 9936 8025 9937 9941 7800 8026 
981 1014 1312 1015 8026 9942 9943 8032 8034 9944 
1278 1312 1279 981 9945 9946 9720 9710 9943 9715 
981 1014 1311 1312 8026 9937 9941 9943 9942 9947 
1278 1312 981 1311 9945 9943 9710 9939 9947 9941 
1279 981 1312 982 9715 9943 9946 9717 7807 9948 
1312 981 1015 982 9943 8032 9944 9948 7807 8033 
982 1015 1313 1016 8033 9949 9950 8039 8041 9951 
1279 1313 1280 982 9952 9953 9727 9717 9950 9722 
982 1015 1312 1313 8033 9944 9948 9950 9949 9954 
1279 1313 982 1312 9952 9950 9717 9946 9954 9948 
1280 982 1313 983 9722 9950 9953 9724 7814 9955 
1313 982 1016 983 9950 8039 9951 9955 7814 8040 
983 1016 1314 1017 8040 9956 9957 8046 8048 9958 
1280 1314 1281 983 9959 9960 9734 9724 9957 9729 
983 1016 1313 1314 8040 9951 9955 9957 9956 9961 
1280 1314 983 1313 9959 9957 9724 9953 9961 9955 
1281 983 1314 984 9729 9957 9960 9731 7821 9962 
1314 983 1017 984 9957 8046 9958 9962 7821 8047 
984 1017 1315 1018 8047 9963 9964 8053 8055 9965 
1281 1315 1282 984 9966 9967 9741 9731 9964 9736 
984 1017 1314 1315 8047 9958 9962 9964 9963 9968 
1281 1315 984 1314 9966 9964 9731 9960 9968 9962 
1282 984 1315 985 9736 9964 9967 9738 7828 9969 
1315 984 1018 985 9964 8053 9965 9969 7828 8054 
985 1018 1316 1019 8054 9970 9971 8060 8062 9972 
1282 1316 1283 985 9973 9974 9748 9738 9971 9743 
985 1018 1315 1316 8054 9965 9969 9971 9970 9975 
1282 1316 985 1315 9973 9971 9738 9967 9975 9969 
1283 985 1316 986 9743 9971 9974 9745 7835 9976 
1316 985 1019 986 9971 8060 9972 9976 7835 8061 
986 1019 1317 1020 8061 9977 9978 8067 8069 9979 
1283 1317 1284 986 9980 9981 9755 9745 9978 9750 
986 1019 1316 1317 8061 9972 9976 9978 9977 9982 
1283 1317 986 1316 9980 9978 9745 9974 9982 9976 
1284 986 1317 987 9750 9978 9981 9752 7842 9983 
1317 986 1020 987 9978 8067 9979 9983 7842 8068 
987 1020 1318 1021 8068 9984 9985 8074 8076 9986 
1284 1318 1285 987 9987 9988 9762 9752 9985 9757 
987 1020 1317 1318 8068 9979 9983 9985 9984 9989 
1284 1318 987 1317 9987 9985 9752 9981 9989 9983 
1285 987 1318 988 9757 9985 9988 9759 7849 9990 
1318 987 1021 988 9985 8074 9986 9990 7849 8075 
988 1021 1319 1022 8075 9991 9992 8081 8083 9993 
1285 1319 1286 988 9994 9995 9769 9759 9992 9764 
988 1021 1318 1319 8075 9986 9990 9992 9991 9996 
1285 1319 988 1318 9994 9992 9759 9988 9996 9990 
1286 988 1319 989 9764 9992 9995 9766 7856 9997 
1319 988 1022 989 9992 8081 9993 9997 7856 8082 
990 1023 1321 1024 8093 9998 9999 8088 8092 10000 
1287 1321 1288 990 10001 10002 9778 9776 9999 9771 
990 1023 1320 1321 8093 10003 10004 9999 9998 10005 
1287 1321 990 1320 10001 9999 9776 10006 10005 10004 
1288 990 1321 991 9771 9999 10002 9773 7865 10007 
1321 990 1024 991 9999 8088 10000 10007 7865 8089 
991 1024 1322 1025 8089 10008 10009 8098 8100 10010 
1288 1322 1289 991 10011 10012 9786 9773 10009 9781 
991 1024 1321 1322 8089 10000 10007 10009 10008 10013 
1288 1322 991 1321 10011 10009 9773 10002 10013 10007 
1289 991 1322 992 9781 10009 10012 9783 7873 10014 
1322 991 1025 992 10009 8098 10010 10014 7873 8099 
992 1025 1323 1026 8099 10015 10016 8105 8107 10017 
1289 1323 1290 992 10018 10019 9793 9783 10016 9788 
992 1025 1322 1323 8099 10010 10014 10016 10015 10020 
1289 1323 992 1322 10018 10016 9783 10012 10020 10014 
1290 992 1323 993 9788 10016 10019 9790 7880 10021 
1323 992 1026 993 10016 8105 10017 10021 7880 8106 
993 1026 1324 1027 8106 10022 10023 8112 8114 10024 
1290 1324 1291 993 10025 10026 9800 9790 10023 9795 
993 1026 1323 1324 8106 10017 10021 10023 10022 10027 
1290 1324 993 1323 10025 10023 9790 10019 10027 10021 
1291 993 1324 994 9795 10023 10026 9797 7887 10028 
1324 993 1027 994 10023 8112 10024 10028 7887 8113 
994 1027 1325 1028 8113 10029 10030 8119 8121 10031 
1291 1325 1292 994 10032 10033 9807 9797 10030 9802 
994 1027 1324 1325 8113 10024 10028 10030 10029 10034 
1291 1325 994 1324 10032 10030 9797 10026 10034 10028 
1292 994 1325 995 9802 10030 10033 9804 7894 10035 
1325 994 1028 995 10030 8119 10031 10035 7894 8120 
995 1028 1326 1029 8120 10036 10037 8126 8128 10038 
1292 1326 1293 995 10039 10040 9814 9804 10037 9809 
995 1028 1325 1326 8120 10031 10035 10037 10036 10041 
1292 1326 995 1325 10039 10037 9804 10033 10041 10035 
1293 995 1326 996 9809 10037 10040 9811 7901 10042 
1326 995 1029 996 10037 8126 10038 10042 7901 8127 
996 1029 1327 1030 8127 10043 10044 8133 8135 10045 
1293 1327 1294 996 10046 10047 9821 9811 10044 9816 
996 1029 1326 1327 8127 10038 10042 10044 10043 10048 
1293 1327 996 1326 10046 10044 9811 10040 10048 10042 
1294 996 1327 997 9816 10044 10047 9818 7908 10049 
1327 996 1030 997 10044 8133 10045 10049 7908 8134 
997 1030 1328 1031 8134 10050 10051 8140 8142 10052 
1294 1328 1295 997 10053 10054 9828 9818 10051 9823 
997 1030 1327 1328 8134 10045 10049 10051 10050 10055 
1294 1328 997 1327 10053 10051 9818 10047 10055 10049 
1295 997 1328 998 9823 10051 10054 9825 7915 10056 
1328 997 1031 998 10051 8140 10052 10056 7915 8141 
998 1031 1329 1032 8141 10057 10058 8147 8149 10059 
1295 1329 1296 998 10060 10061 9835 9825 10058 9830 
998 1031 1328 1329 8141 10052 10056 10058 10057 10062 
1295 1329 998 1328 10060 10058 9825 10054 10062 10056 
1296 998 1329 999 9830 10058 10061 9832 7922 10063 
1329 998 1032 999 10058 8147 10059 10063 7922 8148 
999 1032 1330 1033 8148 10064 10065 8154 8156 10066 
1296 1330 1297 999 10067 10068 9842 9832 10065 9837 
999 1032 1329 1330 8148 10059 10063 10065 10064 10069 
1296 1330 999 1329 10067 10065 9832 10061 10069 10063 
1297 999 1330 1000 9837 10065 10068 9839 7929 10070 
1330 999 1033 1000 10065 8154 10066 10070 7929 8155 
1000 1033 1331 1034 8155 10071 10072 8161 8163 10073 
1297 1331 1298 1000 10074 10075 9849 9839 10072 9844 
1000 1033 1330 1331 8155 10066 10070 10072 10071 10076 
1297 1331 1000 1330 10074 10072 9839 10068 10076 10070 
1298 1000 1331 1001 9844 10072 10075 9846 7936 10077 
1331 1000 1034 1001 10072 8161 10073 10077 7936 8162 
1001 1034 1332 1035 8162 10078 10079 8168 8170 10080 
1298 1332 1299 1001 10081 10082 9856 9846 10079 9851 
1001 1034 1331 1332 8162 10073 10077 10079 10078 10083 
1298 1332 1001 1331 10081 10079 9846 10075 10083 10077 
1299 1001 1332 1002 9851 10079 10082 9853 7943 10084 
1332 1001 1035 1002 10079 8168 10080 10084 7943 8169 
1002 1035 1333 1036 8169 10085 10086 8175 8177 10087 
1299 1333 1300 1002 10088 10089 9863 9853 10086 9858 
1002 1035 1332 1333 8169 10080 10084 10086 10085 10090 
1299 1333 1002 1332 10088 10086 9853 10082 10090 10084 
1300 1002 1333 1003 9858 10086 10089 9860 7950 10091 
1333 1002 1036 1003 10086 8175 10087 10091 7950 8176 
1003 1036 1334 1037 8176 10092 10093 8182 8184 10094 
1300 1334 1301 1003 10095 10096 9870 9860 10093 9865 
1003 1036 1333 1334 8176 10087 10091 10093 10092 10097 
1300 1334 1003 1333 10095 10093 9860 10089 10097 10091 
1301 1003 1334 1004 9865 10093 10096 9867 7957 10098 
1334 1003 1037 1004 10093 8182 10094 10098 7957 8183 
1004 1037 1335 1038 8183 10099 10100 8189 8191 10101 
1301 1335 1302 1004 10102 10103 9877 9867 10100 9872 
1004 1037 1334 1335 8183 10094 10098 10100 10099 10104 
1301 1335 1004 1334 10102 10100 9867 10096 10104 10098 
1302 1004 1335 1005 9872 10100 10103 9874 7964 10105 
1335 1004 1038 1005 10100 8189 10101 10105 7964 8190 
1005 1038 1336 1039 8190 10106 10107 8196 8198 10108 
1302 1336 1303 1005 10109 10110 9884 9874 10107 9879 
1005 1038 1335 1336 8190 10101 10105 10107 10106 10111 
1302 1336 1005 1335 10109 10107 9874 10103 10111 10105 
1303 1005 1336 1006 9879 10107 10110 9881 7971 10112 
1336 1005 1039 1006 10107 8196 10108 10112 7971 8197 
1006 1039 1337 1040 8197 10113 10114 8203 8205 10115 
1303 1337 1304 1006 10116 10117 9891 9881 10114 9886 
1006 1039 1336 1337 8197 10108 10112 10114 10113 10118 
1303 1337 1006 1336 10116 10114 9881 10110 10118 10112 
1304 1006 1337 1007 9886 10114 10117 9888 7978 10119 
1337 1006 1040 1007 10114 8203 10115 10119 7978 8204 
1007 1040 1338 1041 8204 10120 10121 8210 8212 10122 
1304 1338 1305 1007 10123 10124 9898 9888 10121 9893 
1007 1040 1337 1338 8204 10115 10119 10121 10120 10125 
1304 1338 1007 1337 10123 10121 9888 10117 10125 10119 
1305 1007 1338 1008 9893 10121 10124 9895 7985 10126 
1338 1007 1041 1008 10121 8210 10122 10126 7985 8211 
1008 1041 1339 1042 8211 10127 10128 8217 8219 10129 
1305 1339 1306 1008 10130 10131 9905 9895 10128 9900 
1008 1041 1338 1339 8211 10122 10126 10128 10127 10132 
1305 1339 1008 1338 10130 10128 9895 10124 10132 10126 
1306 1008 1339 1009 9900 10128 10131 9902 7992 10133 
1339 1008 1042 1009 10128 8217 10129 10133 7992 8218 
1009 1042 1340 1043 8218 10134 10135 8224 8226 10136 
1306 1340 1307 1009 10137 10138 9912 9902 10135 9907 
1009 1042 1339 1340 8218 10129 10133 10135 10134 10139 
1306 1340 1009 1339 10137 10135 9902 10131 10139 10133 
1307 1009 1340 1010 9907 10135 10138 9909 7999 10140 
1340 1009 1043 1010 10135 8224 10136 10140 7999 8225 
1010 1043 1341 1044 8225 10141 10142 8231 8233 10143 
1307 1341 1308 1010 10144 10145 9919 9909 10142 9914 
1010 1043 1340 1341 8225 10136 10140 10142 10141 10146 
1307 1341 1010 1340 10144 10142 9909 10138 10146 10140 
1308 1010 1341 1011 9914 10142 10145 9916 8006 10147 
1341 1010 1044 1011 10142 8231 10143 10147 8006 8232 
1011 1044 1342 1045 8232 10148 10149 8238 8240 10150 
1308 1342 1309 1011 10151 10152 9926 9916 10149 9921 
1011 1044 1341 1342 8232 10143 10147 10149 10148 10153 
1308 1342 1011 1341 10151 10149 9916 10145 10153 10147 
1309 1011 1342 1012 9921 10149 10152 9923 8013 10154 
1342 1011 1045 1012 10149 8238 10150 10154 8013 8239 
1012 1045 1343 1046 8239 10155 10156 8245 8247 10157 
1309 1343 1310 1012 10158 10159 9933 9923 10156 9928 
1012 1045 1342 1343 8239 10150 10154 10156 10155 10160 
1309 1343 1012 1342 10158 10156 9923 10152 10160 10154 
1310 1012 1343 1013 9928 10156 10159 9930 8020 10161 
1343 1012 1046 1013 10156 8245 10157 10161 8020 8246 
1013 1046 1344 1047 8246 10162 10163 8252 8254 10164 
1310 1344 1311 1013 10165 10166 9940 9930 10163 9935 
1013 1046 1343 1344 8246 10157 10161 10163 10162 10167 
1310 1344 1013 1343 10165 10163 9930 10159 10167 10161 
1311 1013 1344 1014 9935 10163 10166 9937 8027 10168 
1344 1013 1047 1014 10163 8252 10164 10168 8027 8253 
1014 1047 1345 1048 8253 10169 10170 8259 8261 10171 
1311 1345 1312 1014 10172 10173 9947 9937 10170 9942 
1014 1047 1344 1345 8253 10164 10168 10170 10169 10174 
1311 1345 1014 1344 10172 10170 9937 10166 10174 10168 
1312 1014 1345 1015 9942 10170 10173 9944 8034 10175 
1345 1014 1048 1015 10170 8259 10171 10175 8034 8260 
1015 1048 1346 1049 8260 10176 10177 8266 8268 10178 
1312 1346 1313 1015 10179 10180 9954 9944 10177 9949 
1015 1048 1345 1346 8260 10171 10175 10177 10176 10181 
1312 1346 1015 1345 10179 10177 9944 10173 10181 10175 
1313 1015 1346 1016 9949 10177 10180 9951 8041 10182 
1346 1015 1049 1016 10177 8266 10178 10182 8041 8267 
1016 1049 1347 1050 8267 10183 10184 8273 8275 10185 
1313 1347 1314 1016 10186 10187 9961 9951 10184 9956 
1016 1049 1346 1347 8267 10178 10182 10184 10183 10188 
1313 1347 1016 1346 10186 10184 9951 10180 10188 10182 
1314 1016 1347 1017 9956 10184 10187 9958 8048 10189 
1347 1016 1050 1017 10184 8273 10185 10189 8048 8274 
1017 1050 1348 1051 8274 10190 10191 8280 8282 10192 
1314 1348 1315 1017 10193 10194 9968 9958 10191 9963 
1017 1050 1347 1348 8274 10185 10189 10191 10190 10195 
1314 1348 1017 1347 10193 10191 9958 10187 10195 10189 
1315 1017 1348 1018 9963 10191 10194 9965 8055 10196 
1348 1017 1051 1018 10191 8280 10192 10196 8055 8281 
1018 1051 1349 1052 8281 10197 10198 8287 8289 10199 
1315 1349 1316 1018 10200 10201 9975 9965 10198 9970 
1018 1051 1348 1349 8281 10192 10196 10198 10197 10202 
1315 1349 1018 1348 10200 10198 9965 10194 10202 10196 
1316 1018 1349 1019 9970 10198 10201 9972 8062 10203 
1349 1018 1052 1019 10198 8287 10199 10203 8062 8288 
1019 1052 1350 1053 8288 10204 10205 8294 8296 10206 
1316 1350 1317 1019 10207 10208 9982 9972 10205 9977 
1019 1052 1349 1350 8288 10199 10203 10205 10204 10209 
1316 1350 1019 1349 10207 10205 9972 10201 10209 10203 
1317 1019 1350 1020 9977 10205 10208 9979 8069 10210 
1350 1019 1053 1020 10205 8294 10206 10210 8069 8295 
1020 1053 1351 1054 8295 10211 10212 8301 8303 10213 
1317 1351 1318 1020 10214 10215 9989 9979 10212 9984 
1020 1053 1350 1351 8295 10206 10210 10212 10211 10216 
1317 1351 1020 1350 10214 10212 9979 10208 10216 10210 
1318 1020 1351 1021 9984 10212 10215 9986 8076 10217 
1351 1020 1054 1021 10212 8301 10213 10217 8076 8302 
1021 1054 1352 1055 8302 10218 10219 8308 8310 10220 
1318 1352 1319 1021 10221 10222 9996 9986 10219 9991 
1021 1054 1351 1352 8302 10213 10217 10219 10218 10223 
1318 1352 1021 1351 10221 10219 9986 10215 10223 10217 
1319 1021 1352 1022 9991 10219 10222 9993 8083 10224 
1352 1021 1055 1022 10219 8308 10220 10224 8083 8309 
1023 1056 1354 1057 8320 10225 10226 8315 8319 10227 
1320 1354 1321 1023 10228 10229 10005 10003 10226 9998 
1023 1056 1353 1354 8320 10230 10231 10226 10225 10232 
1320 1354 1023 1353 10228 10226 10003 10233 10232 10231 
1321 1023 1354 1024 9998 10226 10229 10000 8092 10234 
1354 1023 1057 1024 10226 8315 10227 10234 8092 8316 
1024 1057 1355 1058 8316 10235 10236 8325 8327 10237 
1321 1355 1322 1024 10238 10239 10013 10000 10236 10008 
1024 1057 1354 1355 8316 10227 10234 10236 10235 10240 
1321 1355 1024 1354 10238 10236 10000 10229 10240 10234 
1322 1024 1355 1025 10008 10236 10239 10010 8100 10241 
1355 1024 1058 1025 10236 8325 10237 10241 8100 8326 
1025 1058 1356 1059 8326 10242 10243 8332 8334 10244 
1322 1356 1323 1025 10245 10246 10020 10010 10243 10015 
1025 1058 1355 1356 8326 10237 10241 10243 10242 10247 
1322 1356 1025 1355 10245 10243 10010 10239 10247 10241 
1323 1025 1356 1026 10015 10243 10246 10017 8107 10248 
1356 1025 1059 1026 10243 8332 10244 10248 8107 8333 
1026 1059 1357 1060 8333 10249 10250 8339 8341 10251 
1323 1357 1324 1026 10252 10253 10027 10017 10250 10022 
1026 1059 1356 1357 8333 10244 10248 10250 10249 10254 
1323 1357 1026 1356 10252 10250 10017 10246 10254 10248 
1324 1026 1357 1027 10022 10250 10253 10024 8114 10255 
1357 1026 1060 1027 10250 8339 10251 10255 8114 8340 
1027 1060 1358 1061 8340 10256 10257 8346 8348 10258 
1324 1358 1325 1027 10259 10260 10034 10024 10257 10029 
1027 1060 1357 1358 8340 10251 10255 10257 10256 10261 
1324 1358 1027 1357 10259 10257 10024 10253 10261 10255 
1325 1027 1358 1028 10029 10257 10260 10031 8121 10262 
1358 1027 1061 1028 10257 8346 10258 10262 8121 8347 
1028 1061 1359 1062 8347 10263 10264 8353 8355 10265 
1325 1359 1326 1028 10266 10267 10041 10031 10264 10036 
1028 1061 1358 1359 8347 10258 10262 10264 10263 10268 
1325 1359 1028 1358 10266 10264 10031 10260 10268 10262 
1326 1028 1359 1029 10036 10264 10267 10038 8128 10269 
1359 1028 1062 1029 10264 8353 10265 10269 8128 8354 
1029 1062 1360 1063 8354 10270 10271 8360 8362 10272 
1326 1360 1327 1029 10273 10274 10048 10038 10271 10043 
1029 1062 1359 1360 8354 10265 10269 10271 10270 10275 
1326 1360 1029 1359 10273 10271 10038 10267 10275 10269 
1327 1029 1360 1030 10043 10271 10274 10045 8135 10276 
1360 1029 1063 1030 10271 8360 10272 10276 8135 8361 
1030 1063 1361 1064 8361 10277 10278 8367 8369 10279 
1327 1361 1328 1030 10280 10281 10055 10045 10278 10050 
1030 1063 1360 1361 8361 10272 10276 10278 10277 10282 
1327 1361 1030 1360 10280 10278 10045 10274 10282 10276 
1328 1030 1361 1031 10050 10278 10281 10052 8142 10283 
1361 1030 1064 1031 10278 8367 10279 10283 8142 8368 
1031 1064 1362 1065 8368 10284 10285 8374 8376 10286 
1328 1362 1329 1031 10287 10288 10062 10052 10285 10057 
1031 1064 1361 1362 8368 10279 10283 10285 10284 10289 
1328 1362 1031 1361 10287 10285 10052 10281 10289 10283 
1329 1031 1362 1032 10057 10285 10288 10059 8149 10290 
1362 1031 1065 1032 10285 8374 10286 10290 8149 8375 
1032 1065 1363 1066 8375 10291 10292 8381 8383 10293 
1329 1363 1330 1032 10294 10295 10069 10059 10292 10064 
1032 1065 1362 1363 8375 10286 10290 10292 10291 10296 
1329 1363 1032 1362 10294 10292 10059 10288 10296 10290 
1330 1032 1363 1033 10064 10292 10295 10066 8156 10297 
1363 1032 1066 1033 10292 8381 10293 10297 8156 8382 
1033 1066 1364 1067 8382 10298 10299 8388 8390 10300 
1330 1364 1331 1033 10301 10302 10076 10066 10299 10071 
1033 1066 1363 1364 8382 10293 10297 10299 10298 10303 
1330 1364 1033 1363 10301 10299 10066 10295 10303 10297 
1331 1033 1364 1034 10071 10299 10302 10073 8163 10304 
1364 1033 1067 1034 10299 8388 10300 10304 8163 8389 
1034 1067 1365 1068 8389 10305 10306 8395 8397 10307 
1331 1365 1332 1034 10308 10309 10083 10073 10306 10078 
1034 1067 1364 1365 8389 10300 10304 10306 10305 10310 
1331 1365 1034 1364 10308 10306 10073 10302 10310 10304 
1332 1034 1365 1035 10078 10306 10309 10080 8170 10311 
1365 1034 1068 1035 10306 8395 10307 10311 8170 8396 
1035 1068 1366 1069 8396 10312 10313 8402 8404 10314 
1332 1366 1333 1035 10315 10316 10090 10080 10313 10085 
1035 1068 1365 1366 8396 10307 10311 10313 10312 10317 
1332 1366 1035 1365 10315 10313 10080 10309 10317 10311 
1333 1035 1366 1036 10085 10313 10316 10087 8177 10318 
1366 1035 1069 1036 10313 8402 10314 10318 8177 8403 
1036 1069 1367 1070 8403 10319 10320 8409 8411 10321 
1333 1367 1334 1036 10322 10323 10097 10087 10320 10092 
1036 1069 1366 1367 8403 10314 10318 10320 10319 10324 
1333 1367 1036 1366 10322 10320 10087 10316 10324 10318 
1334 1036 1367 1037 10092 10320 10323 10094 8184 10325 
1367 1036 1070 1037 10320 8409 10321 10325 8184 8410 
1037 1070 1368 1071 8410 10326 10327 8416 8418 10328 
1334 1368 1335 1037 10329 10330 10104 10094 10327 10099 
1037 1070 1367 1368 8410 10321 10325 10327 10326 10331 
1334 1368 1037 1367 10329 10327 10094 10323 10331 10325 
1335 1037 1368 1038 10099 10327 10330 10101 8191 10332 
1368 1037 1071 1038 10327 8416 10328 10332 8191 8417 
1038 1071 1369 1072 8417 10333 10334 8423 8425 10335 
1335 1369 1336 1038 10336 10337 10111 10101 10334 10106 
1038 1071 1368 1369 8417 10328 10332 10334 10333 10338 
1335 1369 1038 1368 10336 10334 10101 10330 10338 10332 
1336 1038 1369 1039 10106 10334 10337 10108 8198 10339 
1369 1038 1072 1039 10334 8423 10335 10339 8198 8424 
1039 1072 1370 1073 8424 10340 10341 8430 8432 10342 
1336 1370 1337 1039 10343 10344 10118 10108 10341 10113 
1039 1072 1369 1370 8424 10335 10339 10341 10340 10345 
1336 1370 1039 1369 10343 10341 10108 10337 10345 10339 
1337 1039 1370 1040 10113 10341 10344 10115 8205 10346 
1370 1039 1073 1040 10341 8430 10342 10346 8205 8431 
1040 1073 1371 1074 8431 10347 10348 8437 8439 10349 
1337 1371 1338 1040 10350 10351 10125 10115 10348 10120 
1040 1073 1370 1371 8431 10342 10346 10348 10347 10352 
1337 1371 1040 1370 10350 10348 10115 10344 10352 10346 
1338 1040 1371 1041 10120 10348 10351 10122 8212 10353 
1371 1040 1074 1041 10348 8437 10349 10353 8212 8438 
1041 1074 1372 1075 8438 10354 10355 8444 8446 10356 
1338 1372 1339 1041 10357 10358 10132 10122 10355 10127 
1041 1074 1371 1372 8438 10349 10353 10355 10354 10359 
1338 1372 1041 1371 10357 10355 10122 10351 10359 10353 
1339 1041 1372 1042 10127 10355 10358 10129 8219 10360 
1372 1041 1075 1042 10355 8444 10356 10360 8219 8445 
1042 1075 1373 1076 8445 10361 10362 8451 8453 10363 
1339 1373 1340 1042 10364 10365 10139 10129 10362 10134 
1042 1075 1372 1373 8445 10356 10360 10362 10361 10366 
1339 1373 1042 1372 10364 10362 10129 10358 10366 10360 
1340 1042 1373 1043 10134 10362 10365 10136 8226 10367 
1373 1042 1076 1043 10362 8451 10363 10367 8226 8452 
1043 1076 1374 1077 8452 10368 10369 8458 8460 10370 
1340 1374 1341 1043 10371 10372 10146 10136 10369 10141 
1043 1076 1373 1374 8452 10363 10367 10369 10368 10373 
1340 1374 1043 1373 10371 10369 10136 10365 10373 10367 
1341 1043 1374 1044 10141 10369 10372 10143 8233 10374 
1374 1043 1077 1044 10369 8458 10370 10374 8233 8459 
1044 1077 1375 1078 8459 10375 10376 8465 8467 10377 
1341 1375 1342 1044 10378 10379 10153 10143 10376 10148 
1044 1077 1374 1375 8459 10370 10374 10376 10375 10380 
1341 1375 1044 1374 10378 10376 10143 10372 10380 10374 
1342 1044 1375 1045 10148 10376 10379 10150 8240 10381 
1375 1044 1078 1045 10376 8465 10377 10381 8240 8466 
1045 1078 1376 1079 8466 10382 10383 8472 8474 10384 
1342 1376 1343 1045 10385 10386 10160 10150 10383 10155 
1045 1078 1375 1376 8466 10377 10381 10383 10382 10387 
1342 1376 1045 1375 10385 10383 10150 10379 10387 10381 
1343 1045 1376 1046 10155 10383 10386 10157 8247 10388 
1376 1045 1079 1046 10383 8472 10384 10388 8247 8473 
1046 1079 1377 1080 8473 10389 10390 8479 8481 10391 
1343 1377 1344 1046 10392 10393 10167 10157 10390 10162 
1046 1079 1376 1377 8473 10384 10388 10390 10389 10394 
1343 1377 1046 1376 10392 10390 10157 10386 10394 10388 
1344 1046 1377 1047 10162 10390 10393 10164 8254 10395 
1377 1046 1080 1047 10390 8479 10391 10395 8254 8480 
1047 1080 1378 1081 8480 10396 10397 8486 8488 10398 
1344 1378 1345 1047 10399 10400 10174 10164 10397 10169 
1047 1080 1377 1378 8480 10391 10395 10397 10396 10401 
1344 1378 1047 1377 10399 10397 10164 10393 10401 10395 
1345 1047 1378 1048 10169 10397 10400 10171 8261 10402 
1378 1047 1081 1048 10397 8486 10398 10402 8261 8487 
1048 1081 1379 1082 8487 10403 10404 8493 8495 10405 
1345 1379 1346 1048 10406 10407 10181 10171 10404 10176 
1048 1081 1378 1379 8487 10398 10402 10404 10403 10408 
1345 1379 1048 1378 10406 10404 10171 10400 10408 10402 
1346 1048 1379 1049 10176 10404 10407 10178 8268 10409 
1379 1048 1082 1049 10404 8493 10405 10409 8268 8494 
1049 1082 1380 1083 8494 10410 10411 8500 8502 10412 
1346 1380 1347 1049 10413 10414 10188 10178 10411 10183 
1049 1082 1379 1380 8494 10405 10409 10411 10410 10415 
1346 1380 1049 1379 10413 10411 10178 10407 10415 10409 
1347 1049 1380 1050 10183 10411 10414 10185 8275 10416 
1380 1049 1083 1050 10411 8500 10412 10416 8275 8501 
1050 1083 1381 1084 8501 10417 10418 8507 8509 10419 
1347 1381 1348 1050 10420 10421 10195 10185 10418 10190 
1050 1083 1380 1381 8501 10412 10416 10418 10417 10422 
1347 1381 1050 1380 10420 10418 10185 10414 10422 10416 
1348 1050 1381 1051 10190 10418 10421 10192 8282 10423 
1381 1050 1084 1051 10418 8507 10419 10423 8282 8508 
1051 1084 1382 1085 8508 10424 10425 8514 8516 10426 
1348 1382 1349 1051 10427 10428 10202 10192 10425 10197 
1051 1084 1381 1382 8508 10419 10423 10425 10424 10429 
1348 1382 1051 1381 10427 10425 10192 10421 10429 10423 
1349 1051 1382 1052 10197 10425 10428 10199 8289 10430 
1382 1051 1085 1052 10425 8514 10426 10430 8289 8515 
1052 1085 1383 1086 8515 10431 10432 8521 8523 10433 
1349 1383 1350 1052 10434 10435 10209 10199 10432 10204 
1052 1085 1382 1383 8515 10426 10430 10432 10431 10436 
1349 1383 1052 1382 10434 10432 10199 10428 10436 10430 
1350 1052 1383 1053 10204 10432 10435 10206 8296 10437 
1383 1052 1086 1053 10432 8521 10433 10437 8296 8522 
1053 1086 1384 1087 8522 10438 10439 8528 8530 10440 
1350 1384 1351 1053 10441 10442 10216 10206 10439 10211 
1053 1086 1383 1384 8522 10433 10437 10439 10438 10443 
1350 1384 1053 1383 10441 10439 10206 10435 10443 10437 
1351 1053 1384 1054 10211 10439 10442 10213 8303 10444 
1384 1053 1087 1054 10439 8528 10440 10444 8303 8529 
1054 1087 1385 1088 8529 10445 10446 8535 8537 10447 
1351 1385 1352 1054 10448 10449 10223 10213 10446 10218 
1054 1087 1384 1385 8529 10440 10444 10446 10445 10450 
1351 1385 1054 1384 10448 10446 10213 10442 10450 10444 
1352 1054 1385 1055 10218 10446 10449 10220 8310 10451 
1385 1054 1088 1055 10446 8535 10447 10451 8310 8536 
1056 1089 1387 1090 8547 10452 10453 8542 8546 10454 
1353 1387 1354 1056 10455 10456 10232 10230 10453 10225 
1056 1089 1386 1387 8547 10457 10458 10453 10452 10459 
1353 1387 1056 1386 10455 10453 10230 10460 10459 10458 
1354 1056 1387 1057 10225 10453 10456 10227 8319 10461 
1387 1056 1090 1057 10453 8542 10454 10461 8319 8543 
1057 1090 1388 1091 8543 10462 10463 8552 8554 10464 
1354 1388 1355 1057 10465 10466 10240 10227 10463 10235 
1057 1090 1387 1388 8543 10454 10461 10463 10462 10467 
1354 1388 1057 1387 10465 10463 10227 10456 10467 10461 
1355 1057 1388 1058 10235 10463 10466 10237 8327 10468 
1388 1057 1091 1058 10463 8552 10464 10468 8327 8553 
1058 1091 1389 1092 8553 10469 10470 8559 8561 10471 
1355 1389 1356 1058 10472 10473 10247 10237 10470 10242 
1058 1091 1388 1389 8553 10464 10468 10470 10469 10474 
1355 1389 1058 1388 10472 10470 10237 10466 10474 10468 
1356 1058 1389 1059 10242 10470 10473 10244 8334 10475 
1389 1058 1092 1059 10470 8559 10471 10475 8334 8560 
1059 1092 1390 1093 8560 10476 10477 8566 8568 10478 
1356 1390 1357 1059 10479 10480 10254 10244 10477 10249 
1059 1092 1389 1390 8560 10471 10475 10477 10476 10481 
1356 1390 1059 1389 10479 10477 10244 10473 10481 10475 
1357 1059 1390 1060 10249 10477 10480 10251 8341 10482 
1390 1059 1093 1060 10477 8566 10478 10482 8341 8567 
1060 1093 1391 1094 8567 10483 10484 8573 8575 10485 
1357 1391 1358 1060 10486 10487 10261 10251 10484 10256 
1060 1093 1390 1391 8567 10478 10482 10484 10483 10488 
1357 1391 1060 1390 10486 10484 10251 10480 10488 10482 
1358 1060 1391 1061 10256 10484 10487 10258 8348 10489 
1391 1060 1094 1061 10484 8573 10485 10489 8348 8574 
1061 1094 1392 1095 8574 10490 10491 8580 8582 10492 
1358 1392 1359 1061 10493 10494 10268 10258 10491 10263 
1061 1094 1391 1392 8574 10485 10489 10491 10490 10495 
1358 1392 1061 1391 10493 10491 10258 10487 10495 10489 
1359 1061 1392 1062 10263 10491 10494 10265 8355 10496 
1392 1061 1095 1062 10491 8580 10492 10496 8355 8581 
1062 1095 1393 1096 8581 10497 10498 8587 8589 10499 
1359 1393 1360 1062 10500 10501 10275 10265 10498 10270 
1062 1095 1392 1393 8581 10492 10496 10498 10497 10502 
1359 1393 1062 1392 10500 10498 10265 10494 10502 10496 
1360 1062 1393 1063 10270 10498 10501 10272 8362 10503 
1393 1062 1096 1063 10498 8587 10499 10503 8362 8588 
1063 1096 1394 1097 8588 10504 10505 8594 8596 10506 
1360 1394 1361 1063 10507 10508 10282 10272 10505 10277 
1063 1096 1393 1394 8588 10499 10503 10505 10504 10509 
1360 1394 1063 1393 10507 10505 10272 10501 10509 10503 
1361 1063 1394 1064 10277 10505 10508 10279 8369 10510 
1394 1063 1097 1064 10505 8594 10506 10510 8369 8595 
1064 1097 1395 1098 8595 10511 10512 8601 8603 10513 
1361 1395 1362 1064 10514 10515 10289 10279 10512 10284 
1064 1097 1394 1395 8595 10506 10510 10512 10511 10516 
1361 1395 1064 1394 10514 10512 10279 10508 10516 10510 
1362 1064 1395 1065 10284 10512 10515 10286 8376 10517 
1395 1064 1098 1065 10512 8601 10513 10517 8376 8602 
1065 1098 1396 1099 8602 10518 10519 8608 8610 10520 
1362 1396 1363 1065 10521 10522 10296 10286 10519 10291 
1065 1098 1395 1396 8602 10513 10517 10519 10518 10523 
1362 1396 1065 1395 10521 10519 10286 10515 10523 10517 
1363 1065 1396 1066 10291 10519 10522 10293 8383 10524 
1396 1065 1099 1066 10519 8608 10520 10524 8383 8609 
1066 1099 1397 1100 8609 10525 10526 8615 8617 10527 
1363 1397 1364 1066 10528 10529 10303 10293 10526 10298 
1066 1099 1396 1397 8609 10520 10524 10526 10525 10530 
1363 1397 1066 1396 10528 10526 10293 10522 10530 10524 
1364 1066 1397 1067 10298 10526 10529 10300 8390 10531 
1397 1066 1100 1067 10526 8615 10527 10531 8390 8616 
1067 1100 1398 1101 8616 10532 10533 8622 8624 10534 
1364 1398 1365 1067 10535 10536 10310 10300 10533 10305 
1067 1100 1397 1398 8616 10527 10531 10533 10532 10537 
1364 1398 1067 1397 10535 10533 10300 10529 10537 10531 
1365 1067 1398 1068 10305 10533 10536 10307 8397 10538 
1398 1067 1101 1068 10533 8622 10534 10538 8397 8623 
1068 1101 1399 1102 8623 10539 10540 8629 8631 10541 
1365 1399 1366 1068 10542 10543 10317 10307 10540 10312 
1068 1101 1398 1399 8623 10534 10538 10540 10539 10544 
1365 1399 1068 1398 10542 10540 10307 10536 10544 10538 
1366 1068 1399 1069 10312 10540 10543 10314 8404 10545 
1399 1068 1102 1069 10540 8629 10541 10545 8404 8630 
1069 1102 1400 1103 8630 10546 10547 8636 8638 10548 
1366 1400 1367 1069 10549 10550 10324 10314 10547 10319 
1069 1102 1399 1400 8630 10541 10545 10547 10546 10551 
1366 1400 1069 1399 10549 10547 10314 10543 10551 10545 
1367 1069 1400 1070 10319 10547 10550 10321 8411 10552 
1400 1069 1103 1070 10547 8636 10548 10552 8411 8637 
1070 1103 1401 1104 8637 10553 10554 8643 8645 10555 
1367 1401 1368 1070 10556 10557 10331 10321 10554 10326 
1070 1103 1400 1401 8637 10548 10552 10554 10553 10558 
1367 1401 1070 1400 10556 10554 10321 10550 10558 10552 
1368 1070 1401 1071 10326 10554 10557 10328 8418 10559 
1401 1070 1104 1071 10554 8643 10555 10559 8418 8644 
1071 1104 1402 1105 8644 10560 10561 8650 8652 10562 
1368 1402 1369 1071 10563 10564 10338 10328 10561 10333 
1071 1104 1401 1402 8644 10555 10559 10561 10560 10565 
1368 1402 1071 1401 10563 10561 10328 10557 10565 10559 
1369 1071 1402 1072 10333 10561 10564 10335 8425 10566 
1402 1071 1105 1072 10561 8650 10562 10566 8425 8651 
1072 1105 1403 1106 8651 10567 10568 8657 8659 10569 
1369 1403 1370 1072 10570 10571 10345 10335 10568 10340 
1072 1105 1402 1403 8651 10562 10566 10568 10567 10572 
1369 1403 1072 1402 10570 10568 10335 10564 10572 10566 
1370 1072 1403 1073 10340 10568 10571 10342 8432 10573 
1403 1072 1106 1073 10568 8657 10569 10573 8432 8658 
1073 1106 1404 1107 8658 10574 10575 8664 8666 10576 
1370 1404 1371 1073 10577 10578 10352 10342 10575 10347 
1073 1106 1403 1404 8658 10569 10573 10575 10574 10579 
1370 1404 1073 1403 10577 10575 10342 10571 10579 10573 
1371 1073 1404 1074 10347 10575 10578 10349 8439 10580 
1404 1073 1107 1074 10575 8664 10576 10580 8439 8665 
1074 1107 1405 1108 8665 10581 10582 8671 8673 10583 
1371 1405 1372 1074 10584 10585 10359 10349 10582 10354 
1074 1107 1404 1405 8665 10576 10580 10582 10581 10586 
1371 1405 1074 1404 10584 10582 10349 10578 10586 10580 
1372 1074 1405 1075 10354 10582 10585 10356 8446 10587 
1405 1074 1108 1075 10582 8671 10583 10587 8446 8672 
1075 1108 1406 1109 8672 10588 10589 8678 8680 10590 
1372 1406 1373 1075 10591 10592 10366 10356 10589 10361 
1075 1108 1405 1406 8672 10583 10587 10589 10588 10593 
1372 1406 1075 1405 10591 10589 10356 10585 10593 10587 
1373 1075 1406 1076 10361 10589 10592 10363 8453 10594 
1406 1075 1109 1076 10589 8678 10590 10594 8453 8679 
1076 1109 1407 1110 8679 10595 10596 8685 8687 10597 
1373 1407 1374 1076 10598 10599 10373 10363 10596 10368 
1076 1109 1406 1407 8679 10590 10594 10596 10595 10600 
1373 1407 1076 1406 10598 10596 10363 10592 10600 10594 
1374 1076 1407 1077 10368 10596 10599 10370 8460 10601 
1407 1076 1110 1077 10596 8685 10597 10601 8460 8686 
1077 1110 1408 1111 8686 10602 10603 8692 8694 10604 
1374 1408 1375 1077 10605 10606 10380 10370 10603 10375 
1077 1110 1407 1408 8686 10597 10601 10603 10602 10607 
1374 1408 1077 1407 10605 10603 10370 10599 10607 10601 
1375 1077 1408 1078 10375 10603 10606 10377 8467 10608 
1408 1077 1111 1078 10603 8692 10604 10608 8467 8693 
1078 1111 1409 1112 8693 10609 10610 8699 8701 10611 
1375 1409 1376 1078 10612 10613 10387 10377 10610 10382 
1078 1111 1408 1409 8693 10604 10608 10610 10609 10614 
1375 1409 1078 1408 10612 10610 10377 10606 10614 10608 
1376 1078 1409 1079 10382 10610 10613 10384 8474 10615 
1409 1078 1112 1079 10610 8699 10611 10615 8474 8700 
1079 1112 1410 1113 8700 10616 10617 8706 8708 10618 
1376 1410 1377 1079 10619 10620 10394 10384 10617 10389 
1079 1112 1409 1410 8700 10611 10615 10617 10616 10621 
1376 1410 1079 1409 10619 10617 10384 10613 10621 10615 
1377 1079 1410 1080 10389 10617 10620 10391 8481 10622 
1410 1079 1113 1080 10617 8706 10618 10622 8481 8707 
1080 1113 1411 1114 8707 10623 10624 8713 8715 10625 
1377 1411 1378 1080 10626 10627 10401 10391 10624 10396 
1080 1113 1410 1411 8707 10618 10622 10624 10623 10628 
1377 1411 1080 1410 10626 10624 10391 10620 10628 10622 
1378 1080 1411 1081 10396 10624 10627 10398 8488 10629 
1411 1080 1114 1081 10624 8713 10625 10629 8488 8714 
1081 1114 1412 1115 8714 10630 10631 8720 8722 10632 
1378 1412 1379 1081 10633 10634 10408 10398 10631 10403 
1081 1114 1411 1412 8714 10625 10629 10631 10630 10635 
1378 1412 1081 1411 10633 10631 10398 10627 10635 10629 
1379 1081 1412 1082 10403 10631 10634 10405 8495 10636 
1412 1081 1115 1082 10631 8720 10632 10636 8495 8721 
1082 1115 1413 1116 8721 10637 10638 8727 8729 10639 
1379 1413 1380 1082 10640 10641 10415 10405 10638 10410 
1082 1115 1412 1413 8721 10632 10636 10638 10637 10642 
1379 1413 1082 1412 10640 10638 10405 10634 10642 10636 
1380 1082 1413 1083 10410 10638 10641 10412 8502 10643 
1413 1082 1116 1083 10638 8727 10639 10643 8502 8728 
1083 1116 1414 1117 8728 10644 10645 8734 8736 10646 
1380 1414 1381 1083 10647 10648 10422 10412 10645 10417 
1083 1116 1413 1414 8728 10639 10643 10645 10644 10649 
1380 1414 1083 1413 10647 10645 10412 10641 10649 10643 
1381 1083 1414 1084 10417 10645 10648 10419 8509 10650 
1414 1083 1117 1084 10645 8734 10646 10650 8509 8735 
1084 1117 1415 1118 8735 10651 10652 8741 8743 10653 
1381 1415 1382 1084 10654 10655 10429 10419 10652 10424 
1084 1117 1414 1415 8735 10646 10650 10652 10651 10656 
1381 1415 1084 1414 10654 10652 10419 10648 10656 10650 
1382 1084 1415 1085 10424 10652 10655 10426 8516 10657 
1415 1084 1118 1085 10652 8741 10653 10657 8516 8742 
1085 1118 1416 1119 8742 10658 10659 8748 8750 10660 
1382 1416 1383 1085 10661 10662 10436 10426 10659 10431 
1085 1118 1415 1416 8742 10653 10657 10659 10658 10663 
1382 1416 1085 1415 10661 10659 10426 10655 10663 10657 
1383 1085 1416 1086 10431 10659 10662 10433 8523 10664 
1416 1085 1119 1086 10659 8748 10660 10664 8523 8749 
1086 1119 1417 1120 8749 10665 10666 8755 8757 10667 
1383 1417 1384 1086 10668 10669 10443 10433 10666 10438 
1086 1119 1416 1417 8749 10660 10664 10666 10665 10670 
1383 1417 1086 1416 10668 10666 10433 10662 10670 10664 
1384 1086 1417 1087 10438 10666 10669 10440 8530 10671 
1417 1086 1120 1087 10666 8755 10667 10671 8530 8756 
1087 1120 1418 1121 8756 10672 10673 8762 8764 10674 
1384 1418 1385 1087 10675 10676 10450 10440 10673 10445 
1087 1120 1417 1418 8756 10667 10671 10673 10672 10677 
1384 1418 1087 1417 10675 10673 10440 10669 10677 10671 
1385 1087 1418 1088 10445 10673 10676 10447 8537 10678 
1418 1087 1121 1088 10673 8762 10674 10678 8537 8763 
1089 1122 1420 1123 8774 10679 10680 8769 8773 10681 
1386 1420 1387 1089 10682 10683 10459 10457 10680 10452 
1089 1122 1419 1420 8774 10684 10685 10680 10679 10686 
1386 1420 1089 1419 10682 10680 10457 10687 10686 10685 
1387 1089 1420 1090 10452 10680 10683 10454 8546 10688 
1420 1089 1123 1090 10680 8769 10681 10688 8546 8770 
1090 1123 1421 1124 8770 10689 10690 8779 8781 10691 
1387 1421 1388 1090 10692 10693 10467 10454 10690 10462 
1090 1123 1420 1421 8770 10681 10688 10690 10689 10694 
1387 1421 1090 1420 10692 10690 10454 10683 10694 10688 
1388 1090 1421 1091 10462 10690 10693 10464 8554 10695 
1421 1090 1124 1091 10690 8779 10691 10695 8554 8780 
1091 1124 1422 1125 8780 10696 10697 8786 8788 10698 
1388 1422 1389 1091 10699 10700 10474 10464 10697 10469 
1091 1124 1421 1422 8780 10691 10695 10697 10696 10701 
1388 1422 1091 1421 10699 10697 10464 10693 10701 10695 
1389 1091 1422 1092 10469 10697 10700 10471 8561 10702 
1422 1091 1125 1092 10697 8786 10698 10702 8561 8787 
1092 1125 1423 1126 8787 10703 10704 8793 8795 10705 
1389 1423 1390 1092 10706 10707 10481 10471 10704 10476 
1092 1125 1422 1423 8787 10698 10702 10704 10703 10708 
1389 1423 1092 1422 10706 10704 10471 10700 10708 10702 
1390 1092 1423 1093 10476 10704 10707 10478 8568 10709 
1423 1092 1126 1093 10704 8793 10705 10709 8568 8794 
1093 1126 1424 1127 8794 10710 10711 8800 8802 10712 
1390 1424 1391 1093 10713 10714 10488 10478 10711 10483 
1093 1126 1423 1424 8794 10705 10709 10711 10710 10715 
1390 1424 1093 1423 10713 10711 10478 10707 10715 10709 
1391 1093 1424 1094 10483 10711 10714 10485 8575 10716 
1424 1093 1127 1094 10711 8800 10712 10716 8575 8801 
1094 1127 1425 1128 8801 10717 10718 8807 8809 10719 
1391 1425 1392 1094 10720 10721 10495 10485 10718 10490 
1094 1127 1424 1425 8801 10712 10716 10718 10717 10722 
1391 1425 1094 1424 10720 10718 10485 10714 10722 10716 
1392 1094 1425 1095 10490 10718 10721 10492 8582 10723 
1425 1094 1128 1095 10718 8807 10719 10723 8582 8808 
1095 1128 1426 1129 8808 10724 10725 8814 8816 10726 
1392 1426 1393 1095 10727 10728 10502 10492 10725 10497 
1095 1128 1425 1426 8808 10719 10723 10725 10724 10729 
1392 1426 1095 1425 10727 10725 10492 10721 10729 10723 
1393 1095 1426 1096 10497 10725 10728 10499 8589 10730 
1426 1095 1129 1096 10725 8814 10726 10730 8589 8815 
1096 1129 1427 1130 8815 10731 10732 8821 8823 10733 
1393 1427 1394 1096 10734 10735 10509 10499 10732 10504 
1096 1129 1426 1427 8815 10726 10730 10732 10731 10736 
1393 1427 1096 1426 10734 10732 10499 10728 10736 10730 
1394 1096 1427 1097 10504 10732 10735 10506 8596 10737 
1427 1096 1130 1097 10732 8821 10733 10737 8596 8822 
1097 1130 1428 1131 8822 10738 10739 8828 8830 10740 
1394 1428 1395 1097 10741 10742 10516 10506 10739 10511 
1097 1130 1427 1428 8822 10733 10737 10739 10738 10743 
1394 1428 1097 1427 10741 10739 10506 10735 10743 10737 
1395 1097 1428 1098 10511 10739 10742 10513 8603 10744 
1428 1097 1131 1098 10739 8828 10740 10744 8603 8829 
1098 1131 1429 1132 8829 10745 10746 8835 8837 10747 
1395 1429 1396 1098 10748 10749 10523 10513 10746 10518 
1098 1131 1428 1429 8829 10740 10744 10746 10745 10750 
1395 1429 1098 1428 10748 10746 10513 10742 10750 10744 
1396 1098 1429 1099 10518 10746 10749 10520 8610 10751 
1429 1098 1132 1099 10746 8835 10747 10751 8610 8836 
1099 1132 1430 1133 8836 10752 10753 8842 8844 10754 
1396 1430 1397 1099 10755 10756 10530 10520 10753 10525 
1099 1132 1429 1430 8836 10747 10751 10753 10752 10757 
1396 1430 1099 1429 10755 10753 10520 10749 10757 10751 
1397 1099 1430 1100 10525 10753 10756 10527 8617 10758 
1430 1099 1133 1100 10753 8842 10754 10758 8617 8843 
1100 1133 1431 1134 8843 10759 10760 8849 8851 10761 
1397 1431 1398 1100 10762 10763 10537 10527 10760 10532 
1100 1133 1430 1431 8843 10754 10758 10760 10759 10764 
1397 1431 1100 1430 10762 10760 10527 10756 10764 10758 
1398 1100 1431 1101 10532 10760 10763 10534 8624 10765 
1431 1100 1134 1101 10760 8849 10761 10765 8624 8850 
1101 1134 1432 1135 8850 10766 10767 8856 8858 10768 
1398 1432 1399 1101 10769 10770 10544 10534 10767 10539 
1101 1134 1431 1432 8850 10761 10765 10767 10766 10771 
1398 1432 1101 1431 10769 10767 10534 10763 10771 10765 
1399 1101 1432 1102 10539 10767 10770 10541 8631 10772 
1432 1101 1135 1102 10767 8856 10768 10772 8631 8857 
1102 1135 1433 1136 8857 10773 10774 8863 8865 10775 
1399 1433 1400 1102 10776 10777 10551 10541 10774 10546 
1102 1135 1432 1433 8857 10768 10772 10774 10773 10778 
1399 1433 1102 1432 10776 10774 10541 10770 10778 10772 
1400 1102 1433 1103 10546 10774 10777 10548 8638 10779 
1433 1102 1136 1103 10774 8863 10775 10779 8638 8864 
1103 1136 1434 1137 8864 10780 10781 8870 8872 10782 
1400 1434 1401 1103 10783 10784 10558 10548 10781 10553 
1103 1136 1433 1434 8864 10775 10779 10781 10780 10785 
1400 1434 1103 1433 10783 10781 10548 10777 10785 10779 
1401 1103 1434 1104 10553 10781 10784 10555 8645 10786 
1434 1103 1137 1104 10781 8870 10782 10786 8645 8871 
1104 1137 1435 1138 8871 10787 10788 8877 8879 10789 
1401 1435 1402 1104 10790 10791 10565 10555 10788 10560 
1104 1137 1434 1435 8871 10782 10786 10788 10787 10792 
1401 1435 1104 1434 10790 10788 10555 10784 10792 10786 
1402 1104 1435 1105 10560 10788 10791 10562 8652 10793 
1435 1104 1138 1105 10788 8877 10789 10793 8652 8878 
1105 1138 1436 1139 8878 10794 10795 8884 8886 10796 
1402 1436 1403 1105 10797 10798 10572 10562 10795 10567 
1105 1138 1435 1436 8878 10789 10793 10795 10794 10799 
1402 1436 1105 1435 10797 10795 10562 10791 10799 10793 
1403 1105 1436 1106 10567 10795 10798 10569 8659 10800 
1436 1105 1139 1106 10795 8884 10796 10800 8659 8885 
1106 1139 1437 1140 8885 10801 10802 8891 8893 10803 
1403 1437 1404 1106 10804 10805 10579 10569 10802 10574 
1106 1139 1436 1437 8885 10796 10800 10802 10801 10806 
1403 1437 1106 1436 10804 10802 10569 10798 10806 10800 
1404 1106 1437 1107 10574 10802 10805 10576 8666 10807 
1437 1106 1140 1107 10802 8891 10803 10807 8666 8892 
1107 1140 1438 1141 8892 10808 10809 8898 8900 10810 
1404 1438 1405 1107 10811 10812 10586 10576 10809 10581 
1107 1140 1437 1438 8892 10803 10807 10809 10808 10813 
1404 1438 1107 1437 10811 10809 10576 10805 10813 10807 
1405 1107 1438 1108 10581 10809 10812 10583 8673 10814 
1438 1107 1141 1108 10809 8898 10810 10814 8673 8899 
1108 1141 1439 1142 8899 10815 10816 8905 8907 10817 
1405 1439 1406 1108 10818 10819 10593 10583 10816 10588 
1108 1141 1438 1439 8899 10810 10814 10816 10815 10820 
1405 1439 1108 1438 10818 10816 10583 10812 10820 10814 
1406 1108 1439 1109 10588 10816 10819 10590 8680 10821 
1439 1108 1142 1109 10816 8905 10817 10821 8680 8906 
1109 1142 1440 1143 8906 10822 10823 8912 8914 10824 
1406 1440 1407 1109 10825 10826 10600 10590 10823 10595 
1109 1142 1439 1440 8906 10817 10821 10823 10822 10827 
1406 1440 1109 1439 10825 10823 10590 10819 10827 10821 
1407 1109 1440 1110 10595 10823 10826 10597 8687 10828 
1440 1109 1143 1110 10823 8912 10824 10828 8687 8913 
1110 1143 1441 1144 8913 10829 10830 8919 8921 10831 
1407 1441 1408 1110 10832 10833 10607 10597 10830 10602 
1110 1143 1440 1441 8913 10824 10828 10830 10829 10834 
1407 1441 1110 1440 10832 10830 10597 10826 10834 10828 
1408 1110 1441 1111 10602 10830 10833 10604 8694 10835 
1441 1110 1144 1111 10830 8919 10831 10835 8694 8920 
1111 1144 1442 1145 8920 10836 10837 8926 8928 10838 
1408 1442 1409 1111 10839 10840 10614 10604 10837 10609 
1111 1144 1441 1442 8920 10831 10835 10837 10836 10841 
1408 1442 1111 1441 10839 10837 10604 10833 10841 10835 
1409 1111 1442 1112 10609 10837 10840 10611 8701 10842 
1442 1111 1145 1112 10837 8926 10838 10842 8701 8927 
1112 1145 1443 1146 8927 10843 10844 8933 8935 10845 
1409 1443 1410 1112 10846 10847 10621 10611 10844 10616 
1112 1145 1442 1443 8927 10838 10842 10844 10843 10848 
1409 1443 1112 1442 10846 10844 10611 10840 10848 10842 
1410 1112 1443 1113 10616 10844 10847 10618 8708 10849 
1443 1112 1146 1113 10844 8933 10845 10849 8708 8934 
1113 1146 1444 1147 8934 10850 10851 8940 8942 10852 
1410 1444 1411 1113 10853 10854 10628 10618 10851 10623 
1113 1146 1443 1444 8934 10845 10849 10851 10850 10855 
1410 1444 1113 1443 10853 10851 10618 10847 10855 10849 
1411 1113 1444 1114 10623 10851 10854 10625 8715 10856 
1444 1113 1147 1114 10851 8940 10852 10856 8715 8941 
1114 1147 1445 1148 8941 10857 10858 8947 8949 10859 
1411 1445 1412 1114 10860 10861 10635 10625 10858 10630 
1114 1147 1444 1445 8941 10852 10856 10858 10857 10862 
1411 1445 1114 1444 10860 10858 10625 10854 10862 10856 
1412 1114 1445 1115 10630 10858 10861 10632 8722 10863 
1445 1114 1148 1115 10858 8947 10859 10863 8722 8948 
1115 1148 1446 1149 8948 10864 10865 8954 8956 10866 
1412 1446 1413 1115 10867 10868 10642 10632 10865 10637 
1115 1148 1445 1446 8948 10859 10863 10865 10864 10869 
1412 1446 1115 1445 10867 10865 10632 10861 10869 10863 
1413 1115 1446 1116 10637 10865 10868 10639 8729 10870 
1446 1115 1149 1116 10865 8954 10866 10870 8729 8955 
1116 1149 1447 1150 8955 10871 10872 8961 8963 10873 
1413 1447 1414 1116 10874 10875 10649 10639 10872 10644 
1116 1149 1446 1447 8955 10866 10870 10872 10871 10876 
1413 1447 1116 1446 10874 10872 10639 10868 10876 10870 
1414 1116 1447 1117 10644 10872 10875 10646 8736 10877 
1447 1116 1150 1117 10872 8961 10873 10877 8736 8962 
1117 1150 1448 1151 8962 10878 10879 8968 8970 10880 
1414 1448 1415 1117 10881 10882 10656 10646 10879 10651 
1117 1150 1447 1448 8962 10873 10877 10879 10878 10883 
1414 1448 1117 1447 10881 10879 10646 10875 10883 10877 
1415 1117 1448 1118 10651 10879 10882 10653 8743 10884 
1448 1117 1151 1118 10879 8968 10880 10884 8743 8969 
1118 1151 1449 1152 8969 10885 10886 8975 8977 10887 
1415 1449 1416 1118 10888 10889 10663 10653 10886 10658 
1118 1151 1448 1449 8969 10880 10884 10886 10885 10890 
1415 1449 1118 1448 10888 10886 10653 10882 10890 10884 
1416 1118 1449 1119 10658 10886 10889 10660 8750 10891 
1449 1118 1152 1119 10886 8975 10887 10891 8750 8976 
1119 1152 1450 1153 8976 10892 10893 8982 8984 10894 
1416 1450 1417 1119 10895 10896 10670 10660 10893 10665 
1119 1152 1449 1450 8976 10887 10891 10893 10892 10897 
1416 1450 1119 1449 10895 10893 10660 10889 10897 10891 
1417 1119 1450 1120 10665 10893 10896 10667 8757 10898 
1450 1119 1153 1120 10893 8982 10894 10898 8757 8983 
1120 1153 1451 1154 8983 10899 10900 8989 8991 10901 
1417 1451 1418 1120 10902 10903 10677 10667 10900 10672 
1120 1153 1450 1451 8983 10894 10898 10900 10899 10904 
1417 1451 1120 1450 10902 10900 10667 10896 10904 10898 
1418 1120 1451 1121 10672 10900 10903 10674 8764 10905 
1451 1120 1154 1121 10900 8989 10901 10905 8764 8990 
1122 1155 1453 1156 9001 10906 10907 8996 9000 10908 
1419 1453 1420 1122 10909 10910 10686 10684 10907 10679 
1122 1155 1452 1453 9001 10911 10912 10907 10906 10913 
1419 1453 1122 1452 10909 10907 10684 10914 10913 10912 
1420 1122 1453 1123 10679 10907 10910 10681 8773 10915 
1453 1122 1156 1123 10907 8996 10908 10915 8773 8997 
1123 1156 1454 1157 8997 10916 10917 9006 9008 10918 
1420 1454 1421 1123 10919 10920 10694 10681 10917 10689 
1123 1156 1453 1454 8997 10908 10915 10917 10916 10921 
1420 1454 1123 1453 10919 10917 10681 10910 10921 10915 
1421 1123 1454 1124 10689 10917 10920 10691 8781 10922 
1454 1123 1157 1124 10917 9006 10918 10922 8781 9007 
1124 1157 1455 1158 9007 10923 10924 9013 9015 10925 
1421 1455 1422 1124 10926 10927 10701 10691 10924 10696 
1124 1157 1454 1455 9007 10918 10922 10924 10923 10928 
1421 1455 1124 1454 10926 10924 10691 10920 10928 10922 
1422 1124 1455 1125 10696 10924 10927 10698 8788 10929 
1455 1124 1158 1125 10924 9013 10925 10929 8788 9014 
1125 1158 1456 1159 9014 10930 10931 9020 9022 10932 
1422 1456 1423 1125 10933 10934 10708 10698 10931 10703 
1125 1158 1455 1456 9014 10925 10929 10931 10930 10935 
1422 1456 1125 1455 10933 10931 10698 10927 10935 10929 
1423 1125 1456 1126 10703 10931 10934 10705 8795 10936 
1456 1125 1159 1126 10931 9020 10932 10936 8795 9021 
1126 1159 1457 1160 9021 10937 10938 9027 9029 10939 
1423 1457 1424 1126 10940 10941 10715 10705 10938 10710 
1126 1159 1456 1457 9021 10932 10936 10938 10937 10942 
1423 1457 1126 1456 10940 10938 10705 10934 10942 10936 
1424 1126 1457 1127 10710 10938 10941 10712 8802 10943 
1457 1126 1160 1127 10938 9027 10939 10943 8802 9028 
1127 1160 1458 1161 9028 10944 10945 9034 9036 10946 
1424 1458 1425 1127 10947 10948 10722 10712 10945 10717 
1127 1160 1457 1458 9028 10939 10943 10945 10944 10949 
1424 1458 1127 1457 10947 10945 10712 10941 10949 10943 
1425 1127 1458 1128 10717 10945 10948 10719 8809 10950 
1458 1127 1161 1128 10945 9034 10946 10950 8809 9035 
1128 1161 1459 1162 9035 10951 10952 9041 9043 10953 
1425 1459 1426 1128 10954 10955 10729 10719 10952 10724 
1128 1161 1458 1459 9035 10946 10950 10952 10951 10956 
1425 1459 1128 1458 10954 10952 10719 10948 10956 10950 
1426 1128 1459 1129 10724 10952 10955 10726 8816 10957 
1459 1128 1162 1129 10952 9041 10953 10957 8816 9042 
1129 1162 1460 1163 9042 10958 10959 9048 9050 10960 
1426 1460 1427 1129 10961 10962 10736 10726 10959 10731 
1129 1162 1459 1460 9042 10953 10957 10959 10958 10963 
1426 1460 1129 1459 10961 10959 10726 10955 10963 10957 
1427 1129 1460 1130 10731 10959 10962 10733 8823 10964 
1460 1129 1163 1130 10959 9048 10960 10964 8823 9049 
1130 1163 1461 1164 9049 10965 10966 9055 9057 10967 
1427 1461 1428 1130 10968 10969 10743 10733 10966 10738 
1130 1163 1460 1461 9049 10960 10964 10966 10965 10970 
1427 1461 1130 1460 10968 10966 10733 10962 10970 10964 
1428 1130 1461 1131 10738 10966 10969 10740 8830 10971 
1461 1130 1164 1131 10966 9055 10967 10971 8830 9056 
1131 1164 1462 1165 9056 10972 10973 9062 9064 10974 
1428 1462 1429 1131 10975 10976 10750 10740 10973 10745 
1131 1164 1461 1462 9056 10967 10971 10973 10972 10977 
1428 1462 1131 1461 10975 10973 10740 10969 10977 10971 
1429 1131 1462 1132 10745 10973 10976 10747 8837 10978 
1462 1131 1165 1132 10973 9062 10974 10978 8837 9063 
1132 1165 1463 1166 9063 10979 10980 9069 9071 10981 
1429 1463 1430 1132 10982 10983 10757 10747 10980 10752 
1132 1165 1462 1463 9063 10974 10978 10980 10979 10984 
1429 1463 1132 1462 10982 10980 10747 10976 10984 10978 
1430 1132 1463 1133 10752 10980 10983 10754 8844 10985 
1463 1132 1166 1133 10980 9069 10981 10985 8844 9070 
1133 1166 1464 1167 9070 10986 10987 9076 9078 10988 
1430 1464 1431 1133 10989 10990 10764 10754 10987 10759 
1133 1166 1463 1464 9070 10981 10985 10987 10986 10991 
1430 1464 1133 1463 10989 10987 10754 10983 10991 10985 
1431 1133 1464 1134 10759 10987 10990 10761 8851 10992 
1464 1133 1167 1134 10987 9076 10988 10992 8851 9077 
1134 1167 1465 1168 9077 10993 10994 9083 9085 10995 
1431 1465 1432 1134 10996 10997 10771 10761 10994 10766 
1134 1167 1464 1465 9077 10988 10992 10994 10993 10998 
1431 1465 1134 1464 10996 10994 10761 10990 10998 10992 
1432 1134 1465 1135 10766 10994 10997 10768 8858 10999 
1465 1134 1168 1135 10994 9083 10995 10999 8858 9084 
1135 1168 1466 1169 9084 11000 11001 9090 9092 11002 
1432 1466 1433 1135 11003 11004 10778 10768 11001 10773 
1135 1168 1465 1466 9084 10995 10999 11001 11000 11005 
1432 1466 1135 1465 11003 11001 10768 10997 11005 10999 
1433 1135 1466 1136 10773 11001 11004 10775 8865 11006 
1466 1135 1169 1136 11001 9090 11002 11006 8865 9091 
1136 1169 1467 1170 9091 11007 11008 9097 9099 11009 
1433 1467 1434 1136 11010 11011 10785 10775 11008 10780 
1136 1169 1466 1467 9091 11002 11006 11008 11007 11012 
1433 1467 1136 1466 11010 11008 10775 11004 11012 11006 
1434 1136 1467 1137 10780 11008 11011 10782 8872 11013 
1467 1136 1170 1137 11008 9097 11009 11013 8872 9098 
1137 1170 1468 1171 9098 11014 11015 9104 9106 11016 
1434 1468 1435 1137 11017 11018 10792 10782 11015 10787 
1137 1170 1467 1468 9098 11009 11013 11015 11014 11019 
1434 1468 1137 1467 11017 11015 10782 11011 11019 11013 
1435 1137 1468 1138 10787 11015 11018 10789 8879 11020 
1468 1137 1171 1138 11015 9104 11016 11020 8879 9105 
1138 1171 1469 1172 9105 11021 11022 9111 9113 11023 
1435 1469 1436 1138 11024 11025 10799 10789 11022 10794 
1138 1171 1468 1469 9105 11016 11020 11022 11021 11026 
1435 1469 1138 1468 11024 11022 10789 11018 11026 11020 
1436 1138 1469 1139 10794 11022 11025 10796 8886 11027 
1469 1138 1172 1139 11022 9111 11023 11027 8886 9112 
1139 1172 1470 1173 9112 11028 11029 9118 9120 11030 
1436 1470 1437 1139 11031 11032 10806 10796 11029 10801 
1139 1172 1469 1470 9112 11023 11027 11029 11028 11033 
1436 1470 1139 1469 11031 11029 10796 11025 11033 11027 
1437 1139 1470 1140 10801 11029 11032 10803 8893 11034 
1470 1139 1173 1140 11029 9118 11030 11034 8893 9119 
1140 1173 1471 1174 9119 11035 11036 9125 9127 11037 
1437 1471 1438 1140 11038 11039 10813 10803 11036 10808 
1140 1173 1470 1471 9119 11030 11034 11036 11035 11040 
1437 1471 1140 1470 11038 11036 10803 11032 11040 11034 
1438 1140 1471 1141 10808 11036 11039 10810 8900 11041 
1471 1140 1174 1141 11036 9125 11037 11041 8900 9126 
1141 1174 1472 1175 9126 11042 11043 9132 9134 11044 
1438 1472 1439 1141 11045 11046 10820 10810 11043 10815 
1141 1174 1471 1472 9126 11037 11041 11043 11042 11047 
1438 1472 1141 1471 11045 11043 10810 11039 11047 11041 
1439 1141 1472 1142 10815 11043 11046 10817 8907 11048 
1472 1141 1175 1142 11043 9132 11044 11048 8907 9133 
1142 1175 1473 1176 9133 11049 11050 9139 9141 11051 
1439 1473 1440 1142 11052 11053 10827 10817 11050 10822 
1142 1175 1472 1473 9133 11044 11048 11050 11049 11054 
1439 1473 1142 1472 11052 11050 10817 11046 11054 11048 
1440 1142 1473 1143 10822 11050 11053 10824 8914 11055 
1473 1142 1176 1143 11050 9139 11051 11055 8914 9140 
1143 1176 1474 1177 9140 11056 11057 9146 9148 11058 
1440 1474 1441 1143 11059 11060 10834 10824 11057 10829 
1143 1176 1473 1474 9140 11051 11055 11057 11056 11061 
1440 1474 1143 1473 11059 11057 10824 11053 11061 11055 
1441 1143 1474 1144 10829 11057 11060 10831 8921 11062 
1474 1143 1177 1144 11057 9146 11058 11062 8921 9147 
1144 1177 1475 1178 9147 11063 11064 9153 9155 11065 
1441 1475 1442 1144 11066 11067 10841 10831 11064 10836 
1144 1177 1474 1475 9147 11058 11062 11064 11063 11068 
1441 1475 1144 1474 11066 11064 10831 11060 11068 11062 
1442 1144 1475 1145 10836 11064 11067 10838 8928 11069 
1475 1144 1178 1145 11064 9153 11065 11069 8928 9154 
1145 1178 1476 1179 9154 11070 11071 9160 9162 11072 
1442 1476 1443 1145 11073 11074 10848 10838 11071 10843 
1145 1178 1475 1476 9154 11065 11069 11071 11070 11075 
1442 1476 1145 1475 11073 11071 10838 11067 11075 11069 
1443 1145 1476 1146 10843 11071 11074 10845 8935 11076 
1476 1145 1179 1146 11071 9160 11072 11076 8935 9161 
1146 1179 1477 1180 9161 11077 11078 9167 9169 11079 
1443 1477 1444 1146 11080 11081 10855 10845 11078 10850 
1146 1179 1476 1477 9161 11072 11076 11078 11077 11082 
1443 1477 1146 1476 11080 11078 10845 11074 11082 11076 
1444 1146 1477 1147 10850 11078 11081 10852 8942 11083 
1477 1146 1180 1147 11078 9167 11079 11083 8942 9168 
1147 1180 1478 1181 9168 11084 11085 9174 9176 11086 
1444 1478 1445 1147 11087 11088 10862 10852 11085 10857 
1147 1180 1477 1478 9168 11079 11083 11085 11084 11089 
1444 1478 1147 1477 11087 11085 10852 11081 11089 11083 
1445 1147 1478 1148 10857 11085 11088 10859 8949 11090 
1478 1147 1181 1148 11085 9174 11086 11090 8949 9175 
1148 1181 1479 1182 9175 11091 11092 9181 9183 11093 
1445 1479 1446 1148 11094 11095 10869 10859 11092 10864 
1148 1181 1478 1479 9175 11086 11090 11092 11091 11096 
1445 1479 1148 1478 11094 11092 10859 11088 11096 11090 
1446 1148 1479 1149 10864 11092 11095 10866 8956 11097 
1479 1148 1182 1149 11092 9181 11093 11097 8956 9182 
1149 1182 1480 1183 9182 11098 11099 9188 9190 11100 
1446 1480 1447 1149 11101 11102 10876 10866 11099 10871 
1149 1182 1479 1480 9182 11093 11097 11099 11098 11103 
1446 1480 1149 1479 11101 11099 10866 11095 11103 11097 
1447 1149 1480 1150 10871 11099 11102 10873 8963 11104 
1480 1149 1183 1150 11099 9188 11100 11104 8963 9189 
1150 1183 1481 1184 9189 11105 11106 9195 9197 11107 
1447 1481 1448 1150 11108 11109 10883 10873 11106 10878 
1150 1183 1480 1481 9189 11100 11104 11106 11105 11110 
1447 1481 1150 1480 11108 11106 10873 11102 11110 11104 
1448 1150 1481 1151 10878 11106 11109 10880 8970 11111 
1481 1150 1184 1151 11106 9195 11107 11111 8970 9196 
1151 1184 1482 1185 9196 11112 11113 9202 9204 11114 
1448 1482 1449 1151 11115 11116 10890 10880 11113 10885 
1151 1184 1481 1482 9196 11107 11111 11113 11112 11117 
1448 1482 1151 1481 11115 11113 10880 11109 11117 11111 
1449 1151 1482 1152 10885 11113 11116 10887 8977 11118 
1482 1151 1185 1152 11113 9202 11114 11118 8977 9203 
1152 1185 1483 1186 9203 11119 11120 9209 9211 11121 
1449 1483 1450 1152 11122 11123 10897 10887 11120 10892 
1152 1185 1482 1483 9203 11114 11118 11120 11119 11124 
1449 1483 1152 1482 11122 11120 10887 11116 11124 11118 
1450 1152 1483 1153 10892 11120 11123 10894 8984 11125 
1483 1152 1186 1153 11120 9209 11121 11125 8984 9210 
1153 1186 1484 1187 9210 11126 11127 9216 9218 11128 
1450 1484 1451 1153 11129 11130 10904 10894 11127 10899 
1153 1186 1483 1484 9210 11121 11125 11127 11126 11131 
1450 1484 1153 1483 11129 11127 10894 11123 11131 11125 
1451 1153 1484 1154 10899 11127 11130 10901 8991 11132 
1484 1153 1187 1154 11127 9216 11128 11132 8991 9217 
1188 1221 1519 1222 9231 11133 11134 9223 9230 11135 
1485 1519 1486 1188 11136 11137 11138 11139 11134 11140 
1188 1221 1518 1519 9231 11141 11142 11134 11133 11143 
1485 1519 1188 1518 11136 11134 11139 11144 11143 11142 
1486 1188 1519 1189 11140 11134 11137 11145 9225 11146 
1519 1188 1222 1189 11134 9223 11135 11146 9225 9224 
1189 1222 1520 1223 9224 11147 11148 9237 9241 11149 
1486 1520 1487 1189 11150 11151 11152 11145 11148 11153 
1189 1222 1519 1520 9224 11135 11146 11148 11147 11154 
1486 1520 1189 1519 11150 11148 11145 11137 11154 11146 
1487 1189 1520 1190 11153 11148 11151 11155 9239 11156 
1520 1189 1223 1190 11148 9237 11149 11156 9239 9238 
1190 1223 1521 1224 9238 11157 11158 9247 9251 11159 
1487 1521 1488 1190 11160 11161 11162 11155 11158 11163 
1190 1223 1520 1521 9238 11149 11156 11158 11157 11164 
1487 1521 1190 1520 11160 11158 11155 11151 11164 11156 
1488 1190 1521 1191 11163 11158 11161 11165 9249 11166 
1521 1190 1224 1191 11158 9247 11159 11166 9249 9248 
1191 1224 1522 1225 9248 11167 11168 9257 9261 11169 
1488 1522 1489 1191 11170 11171 11172 11165 11168 11173 
1191 1224 1521 1522 9248 11159 11166 11168 11167 11174 
1488 1522 1191 1521 11170 11168 11165 11161 11174 11166 
1489 1191 1522 1192 11173 11168 11171 11175 9259 11176 
1522 1191 1225 1192 11168 9257 11169 11176 9259 9258 
1192 1225 1523 1226 9258 11177 11178 9267 9271 11179 
1489 1523 1490 1192 11180 11181 11182 11175 11178 11183 
1192 1225 1522 1523 9258 11169 11176 11178 11177 11184 
1489 1523 1192 1522 11180 11178 11175 11171 11184 11176 
1490 1192 1523 1193 11183 11178 11181 11185 9269 11186 
1523 1192 1226 1193 11178 9267 11179 11186 9269 9268 
1193 1226 1524 1227 9268 11187 11188 9277 9281 11189 
1490 1524 1491 1193 11190 11191 11192 11185 11188 11193 
1193 1226 1523 1524 9268 11179 11186 11188 11187 11194 
1490 1524 1193 1523 11190 11188 11185 11181 11194 11186 
1491 1193 1524 1194 11193 11188 11191 11195 9279 11196 
1524 1193 1227 1194 11188 9277 11189 11196 9279 9278 
1194 1227 1525 1228 9278 11197 11198 9287 9291 11199 
1491 1525 1492 1194 11200 11201 11202 11195 11198 11203 
1194 1227 1524 1525 9278 11189 11196 11198 11197 11204 
1491 1525 1194 1524 11200 11198 11195 11191 11204 11196 
1492 1194 1525 1195 11203 11198 11201 11205 9289 11206 
1525 1194 1228 1195 11198 9287 11199 11206 9289 9288 
1195 1228 1526 1229 9288 11207 11208 9297 9301 11209 
1492 1526 1493 1195 11210 11211 11212 11205 11208 11213 
1195 1228 1525 1526 9288 11199 11206 11208 11207 11214 
1492 1526 1195 1525 11210 11208 11205 11201 11214 11206 
1493 1195 1526 1196 11213 11208 11211 11215 9299 11216 
1526 1195 1229 1196 11208 9297 11209 11216 9299 9298 
1196 1229 1527 1230 9298 11217 11218 9307 9311 11219 
1493 1527 1494 1196 11220 11221 11222 11215 11218 11223 
1196 1229 1526 1527 9298 11209 11216 11218 11217 11224 
1493 1527 1196 1526 11220 11218 11215 11211 11224 11216 
1494 1196 1527 1197 11223 11218 11221 11225 9309 11226 
1527 1196 1230 1197 11218 9307 11219 11226 9309 9308 
1197 1230 1528 1231 9308 11227 11228 9317 9321 11229 
1494 1528 1495 1197 11230 11231 11232 11225 11228 11233 
1197 1230 1527 1528 9308 11219 11226 11228 11227 11234 
1494 1528 1197 1527 11230 11228 11225 11221 11234 11226 
1495 1197 1528 1198 11233 11228 11231 11235 9319 11236 
1528 1197 1231 1198 11228 9317 11229 11236 9319 9318 
1198 1231 1529 1232 9318 11237 11238 9327 9331 11239 
1495 1529 1496 1198 11240 11241 11242 11235 11238 11243 
1198 1231 1528 1529 9318 11229 11236 11238 11237 11244 
1495 1529 1198 1528 11240 11238 11235 11231 11244 11236 
1496 1198 1529 1199 11243 11238 11241 11245 9329 11246 
1529 1198 1232 1199 11238 9327 11239 11246 9329 9328 
1199 1232 1530 1233 9328 11247 11248 9337 9341 11249 
1496 1530 1497 1199 11250 11251 11252 11245 11248 11253 
1199 1232 1529 1530 9328 11239 11246 11248 11247 11254 
1496 1530 1199 1529 11250 11248 11245 11241 11254 11246 
1497 1199 1530 1200 11253 11248 11251 11255 9339 11256 
1530 1199 1233 1200 11248 9337 11249 11256 9339 9338 
1200 1233 1531 1234 9338 11257 11258 9347 9351 11259 
1497 1531 1498 1200 11260 11261 11262 11255 11258 11263 
1200 1233 1530 1531 9338 11249 11256 11258 11257 11264 
1497 1531 1200 1530 11260 11258 11255 11251 11264 11256 
1498 1200 1531 1201 11263 11258 11261 11265 9349 11266 
1531 1200 1234 1201 11258 9347 11259 11266 9349 9348 
1201 1234 1532 1235 9348 11267 11268 9357 9361 11269 
1498 1532 1499 1201 11270 11271 11272 11265 11268 11273 
1201 1234 1531 1532 9348 11259 11266 11268 11267 11274 
1498 1532 1201 1531 11270 11268 11265 11261 11274 11266 
1499 1201 1532 1202 11273 11268 11271 11275 9359 11276 
1532 1201 1235 1202 11268 9357 11269 11276 9359 9358 
1202 1235 1533 1236 9358 11277 11278 9367 9371 11279 
1499 1533 1500 1202 11280 11281 11282 11275 11278 11283 
1202 1235 1532 1533 9358 11269 11276 11278 11277 11284 
1499 1533 1202 1532 11280 11278 11275 11271 11284 11276 
1500 1202 1533 1203 11283 11278 11281 11285 9369 11286 
1533 1202 1236 1203 11278 9367 11279 11286 9369 9368 
1203 1236 1534 1237 9368 11287 11288 9377 9381 11289 
1500 1534 1501 1203 11290 11291 11292 11285 11288 11293 
1203 1236 1533 1534 9368 11279 11286 11288 11287 11294 
1500 1534 1203 1533 11290 11288 11285 11281 11294 11286 
1501 1203 1534 1204 11293 11288 11291 11295 9379 11296 
1534 1203 1237 1204 11288 9377 11289 11296 9379 9378 
1204 1237 1535 1238 9378 11297 11298 9387 9391 11299 
1501 1535 1502 1204 11300 11301 11302 11295 11298 11303 
1204 1237 1534 1535 9378 11289 11296 11298 11297 11304 
1501 1535 1204 1534 11300 11298 11295 11291 11304 11296 
1502 1204 1535 1205 11303 11298 11301 11305 9389 11306 
1535 1204 1238 1205 11298 9387 11299 11306 9389 9388 
1205 1238 1536 1239 9388 11307 11308 9397 9401 11309 
1502 1536 1503 1205 11310 11311 11312 11305 11308 11313 
1205 1238 1535 1536 9388 11299 11306 11308 11307 11314 
1502 1536 1205 1535 11310 11308 11305 11301 11314 11306 
1503 1205 1536 1206 11313 11308 11311 11315 9399 11316 
1536 1205 1239 1206 11308 9397 11309 11316 9399 9398 
1206 1239 1537 1240 9398 11317 11318 9407 9411 11319 
1503 1537 1504 1206 11320 11321 11322 11315 11318 11323 
1206 1239 1536 1537 9398 11309 11316 11318 11317 11324 
1503 1537 1206 1536 11320 11318 11315 11311 11324 11316 
1504 1206 1537 1207 11323 11318 11321 11325 9409 11326 
1537 1206 1240 1207 11318 9407 11319 11326 9409 9408 
1207 1240 1538 1241 9408 11327 11328 9417 9421 11329 
1504 1538 1505 1207 11330 11331 11332 11325 11328 11333 
1207 1240 1537 1538 9408 11319 11326 11328 11327 11334 
1504 1538 1207 1537 11330 11328 11325 11321 11334 11326 
1505 1207 1538 1208 11333 11328 11331 11335 9419 11336 
1538 1207 1241 1208 11328 9417 11329 11336 9419 9418 
1208 1241 1539 1242 9418 11337 11338 9427 9431 11339 
1505 1539 1506 1208 11340 11341 11342 11335 11338 11343 
1208 1241 1538 1539 9418 11329 11336 11338 11337 11344 
1505 1539 1208 1538 11340 11338 11335 11331 11344 11336 
1506 1208 1539 1209 11343 11338 11341 11345 9429 11346 
1539 1208 1242 1209 11338 9427 11339 11346 9429 9428 
1209 1242 1540 1243 9428 11347 11348 9437 9441 11349 
1506 1540 1507 1209 11350 11351 11352 11345 11348 11353 
1209 1242 1539 1540 9428 11339 11346 11348 11347 11354 
1506 1540 1209 1539 11350 11348 11345 11341 11354 11346 
1507 1209 1540 1210 11353 11348 11351 11355 9439 11356 
1540 1209 1243 1210 11348 9437 11349 11356 9439 9438 
1210 1243 1541 1244 9438 11357 11358 9447 9451 11359 
1507 1541 1508 1210 11360 11361 11362 11355 11358 11363 
1210 1243 1540 1541 9438 11349 11356 11358 11357 11364 
1507 1541 1210 1540 11360 11358 11355 11351 11364 11356 
1508 1210 1541 1211 11363 11358 11361 11365 9449 11366 
1541 1210 1244 1211 11358 9447 11359 11366 9449 9448 
1211 1244 1542 1245 9448 11367 11368 9457 9461 11369 
1508 1542 1509 1211 11370 11371 11372 11365 11368 11373 
1211 1244 1541 1542 9448 11359 11366 11368 11367 11374 
1508 1542 1211 1541 11370 11368 11365 11361 11374 11366 
1509 1211 1542 1212 11373 11368 11371 11375 9459 11376 
1542 1211 1245 1212 11368 9457 11369 11376 9459 9458 
1212 1245 1543 1246 9458 11377 11378 9467 9471 11379 
1509 1543 1510 1212 11380 11381 11382 11375 11378 11383 
1212 1245 1542 1543 9458 11369 11376 11378 11377 11384 
1509 1543 1212 1542 11380 11378 11375 11371 11384 11376 
1510 1212 1543 1213 11383 11378 11381 11385 9469 11386 
1543 1212 1246 1213 11378 9467 11379 11386 9469 9468 
1213 1246 1544 1247 9468 11387 11388 9477 9481 11389 
1510 1544 1511 1213 11390 11391 11392 11385 11388 11393 
1213 1246 1543 1544 9468 11379 11386 11388 11387 11394 
1510 1544 1213 1543 11390 11388 11385 11381 11394 11386 
1511 1213 1544 1214 11393 11388 11391 11395 9479 11396 
1544 1213 1247 1214 11388 9477 11389 11396 9479 9478 
1214 1247 1545 1248 9478 11397 11398 9487 9491 11399 
1511 1545 1512 1214 11400 11401 11402 11395 11398 11403 
1214 1247 1544 1545 9478 11389 11396 11398 11397 11404 
1511 1545 1214 1544 11400 11398 11395 11391 11404 11396 
1512 1214 1545 1215 11403 11398 11401 11405 9489 11406 
1545 1214 1248 1215 11398 9487 11399 11406 9489 9488 
1215 1248 1546 1249 9488 11407 11408 9497 9501 11409 
1512 1546 1513 1215 11410 11411 11412 11405 11408 11413 
1215 1248 1545 1546 9488 11399 11406 11408 11407 11414 
1512 1546 1215 1545 11410 11408 11405 11401 11414 11406 
1513 1215 1546 1216 11413 11408 11411 11415 9499 11416 
1546 1215 1249 1216 11408 9497 11409 11416 9499 9498 
1216 1249 1547 1250 9498 11417 11418 9507 9511 11419 
1513 1547 1514 1216 11420 11421 11422 11415 11418 11423 
1216 1249 1546 1547 9498 11409 11416 11418 11417 11424 
1513 1547 1216 1546 11420 11418 11415 11411 11424 11416 
1514 1216 1547 1217 11423 11418 11421 11425 9509 11426 
1547 1216 1250 1217 11418 9507 11419 11426 9509 9508 
1217 1250 1548 1251 9508 11427 11428 9517 9521 11429 
1514 1548 1515 1217 11430 11431 11432 11425 11428 11433 
1217 1250 1547 1548 9508 11419 11426 11428 11427 11434 
1514 1548 1217 1547 11430 11428 11425 11421 11434 11426 
1515 1217 1548 1218 11433 11428 11431 11435 9519 11436 
1548 1217 1251 1218 11428 9517 11429 11436 9519 9518 
1218 1251 1549 1252 9518 11437 11438 9527 9531 11439 
1515 1549 1516 1218 11440 11441 11442 11435 11438 11443 
1218 1251 1548 1549 9518 11429 11436 11438 11437 11444 
1515 1549 1218 1548 11440 11438 11435 11431 11444 11436 
1516 1218 1549 1219 11443 11438 11441 11445 9529 11446 
1549 1218 1252 1219 11438 9527 11439 11446 9529 9528 
1219 1252 1550 1253 9528 11447 11448 9537 9541 11449 
1516 1550 1517 1219 11450 11451 11452 11445 11448 11453 
1219 1252 1549 1550 9528 11439 11446 11448 11447 11454 
1516 1550 1219 1549 11450 11448 11445 11441 11454 11446 
1517 1219 1550 1220 11453 11448 11451 11455 9539 11456 
1550 1219 1253 1220 11448 9537 11449 11456 9539 9538 
1221 1254 1552 1255 9552 11457 11458 9547 9551 11459 
1518 1552 1519 1221 11460 11461 11143 11141 11458 11133 
1221 1254 1551 1552 9552 11462 11463 11458 11457 11464 
1518 1552 1221 1551 11460 11458 11141 11465 11464 11463 
1519 1221 1552 1222 11133 11458 11461 11135 9230 11466 
1552 1221 1255 1222 11458 9547 11459 11466 9230 9548 
1222 1255 1553 1256 9548 11467 11468 9557 9559 11469 
1519 1553 1520 1222 11470 11471 11154 11135 11468 11147 
1222 1255 1552 1553 9548 11459 11466 11468 11467 11472 
1519 1553 1222 1552 11470 11468 11135 11461 11472 11466 
1520 1222 1553 1223 11147 11468 11471 11149 9241 11473 
1553 1222 1256 1223 11468 9557 11469 11473 9241 9558 
1223 1256 1554 1257 9558 11474 11475 9564 9566 11476 
1520 1554 1521 1223 11477 11478 11164 11149 11475 11157 
1223 1256 1553 1554 9558 11469 11473 11475 11474 11479 
1520 1554 1223 1553 11477 11475 11149 11471 11479 11473 
1521 1223 1554 1224 11157 11475 11478 11159 9251 11480 
1554 1223 1257 1224 11475 9564 11476 11480 9251 9565 
1224 1257 1555 1258 9565 11481 11482 9571 9573 11483 
1521 1555 1522 1224 11484 11485 11174 11159 11482 11167 
1224 1257 1554 1555 9565 11476 11480 11482 11481 11486 
1521 1555 1224 1554 11484 11482 11159 11478 11486 11480 
1522 1224 1555 1225 11167 11482 11485 11169 9261 11487 
1555 1224 1258 1225 11482 9571 11483 11487 9261 9572 
1225 1258 1556 1259 9572 11488 11489 9578 9580 11490 
1522 1556 1523 1225 11491 11492 11184 11169 11489 11177 
1225 1258 1555 1556 9572 11483 11487 11489 11488 11493 
1522 1556 1225 1555 11491 11489 11169 11485 11493 11487 
1523 1225 1556 1226 11177 11489 11492 11179 9271 11494 
1556 1225 1259 1226 11489 9578 11490 11494 9271 9579 
1226 1259 1557 1260 9579 11495 11496 9585 9587 11497 
1523 1557 1524 1226 11498 11499 11194 11179 11496 11187 
1226 1259 1556 1557 9579 11490 11494 11496 11495 11500 
1523 1557 1226 1556 11498 11496 11179 11492 11500 11494 
1524 1226 1557 1227 11187 11496 11499 11189 9281 11501 
1557 1226 1260 1227 11496 9585 11497 11501 9281 9586 
1227 1260 1558 1261 9586 11502 11503 9592 9594 11504 
1524 1558 1525 1227 11505 11506 11204 11189 11503 11197 
1227 1260 1557 1558 9586 11497 11501 11503 11502 11507 
1524 1558 1227 1557 11505 11503 11189 11499 11507 11501 
1525 1227 1558 1228 11197 11503 11506 11199 9291 11508 
1558 1227 1261 1228 11503 9592 11504 11508 9291 9593 
1228 1261 1559 1262 9593 11509 11510 9599 9601 11511 
1525 1559 1526 1228 11512 11513 11214 11199 11510 11207 
1228 1261 1558 1559 9593 11504 11508 11510 11509 11514 
1525 1559 1228 1558 11512 11510 11199 11506 11514 11508 
1526 1228 1559 1229 11207 11510 11513 11209 9301 11515 
1559 1228 1262 1229 11510 9599 11511 11515 9301 9600 
1229 1262 1560 1263 9600 11516 11517 9606 9608 11518 
1526 1560 1527 1229 11519 11520 11224 11209 11517 11217 
1229 1262 1559 1560 9600 11511 11515 11517 11516 11521 
1526 1560 1229 1559 11519 11517 11209 11513 11521 11515 
1527 1229 1560 1230 11217 11517 11520 11219 9311 11522 
1560 1229 1263 1230 11517 9606 11518 11522 9311 9607 
1230 1263 1561 1264 9607 11523 11524 9613 9615 11525 
1527 1561 1528 1230 11526 11527 11234 11219 11524 11227 
1230 1263 1560 1561 9607 11518 11522 11524 11523 11528 
1527 1561 1230 1560 11526 11524 11219 11520 11528 11522 
1528 1230 1561 1231 11227 11524 11527 11229 9321 11529 
1561 1230 1264 1231 11524 9613 11525 11529 9321 9614 
1231 1264 1562 1265 9614 11530 11531 9620 9622 11532 
1528 1562 1529 1231 11533 11534 11244 11229 11531 11237 
1231 1264 1561 1562 9614 11525 11529 11531 11530 11535 
1528 1562 1231 1561 11533 11531 11229 11527 11535 11529 
1529 1231 1562 1232 11237 11531 11534 11239 9331 11536 
1562 1231 1265 1232 11531 9620 11532 11536 9331 9621 
1232 1265 1563 1266 9621 11537 11538 9627 9629 11539 
1529 1563 1530 1232 11540 11541 11254 11239 11538 11247 
1232 1265 1562 1563 9621 11532 11536 11538 11537 11542 
1529 1563 1232 1562 11540 11538 11239 11534 11542 11536 
1530 1232 1563 1233 11247 11538 11541 11249 9341 11543 
1563 1232 1266 1233 11538 9627 11539 11543 9341 9628 
1233 1266 1564 1267 9628 11544 11545 9634 9636 11546 
1530 1564 1531 1233 11547 11548 11264 11249 11545 11257 
1233 1266 1563 1564 9628 11539 11543 11545 11544 11549 
1530 1564 1233 1563 11547 11545 11249 11541 11549 11543 
1531 1233 1564 1234 11257 11545 11548 11259 9351 11550 
1564 1233 1267 1234 11545 9634 11546 11550 9351 9635 
1234 1267 1565 1268 9635 11551 11552 9641 9643 11553 
1531 1565 1532 1234 11554 11555 11274 11259 11552 11267 
1234 1267 1564 1565 9635 11546 11550 11552 11551 11556 
1531 1565 1234 1564 11554 11552 11259 11548 11556 11550 
1532 1234 1565 1235 11267 11552 11555 11269 9361 11557 
1565 1234 1268 1235 11552 9641 11553 11557 9361 9642 
1235 1268 1566 1269 9642 11558 11559 9648 9650 11560 
1532 1566 1533 1235 11561 11562 11284 11269 11559 11277 
1235 1268 1565 1566 9642 11553 11557 11559 11558 11563 
1532 1566 1235 1565 11561 11559 11269 11555 11563 11557 
1533 1235 1566 1236 11277 11559 11562 11279 9371 11564 
1566 1235 1269 1236 11559 9648 11560 11564 9371 9649 
1236 1269 1567 1270 9649 11565 11566 9655 9657 11567 
1533 1567 1534 1236 11568 11569 11294 11279 11566 11287 
1236 1269 1566 1567 9649 11560 11564 11566 11565 11570 
1533 1567 1236 1566 11568 11566 11279 11562 11570 11564 
1534 1236 1567 1237 11287 11566 11569 11289 9381 11571 
1567 1236 1270 1237 11566 9655 11567 11571 9381 9656 
1237 1270 1568 1271 9656 11572 11573 9662 9664 11574 
1534 1568 1535 1237 11575 11576 11304 11289 11573 11297 
1237 1270 1567 1568 9656 11567 11571 11573 11572 11577 
1534 1568 1237 1567 11575 11573 11289 11569 11577 11571 
1535 1237 1568 1238 11297 11573 11576 11299 9391 11578 
1568 1237 1271 1238 11573 9662 11574 11578 9391 9663 
1238 1271 1569 1272 9663 11579 11580 9669 9671 11581 
1535 1569 1536 1238 11582 11583 11314 11299 11580 11307 
1238 1271 1568 1569 9663 11574 11578 11580 11579 11584 
1535 1569 1238 1568 11582 11580 11299 11576 11584 11578 
1536 1238 1569 1239 11307 11580 11583 11309 9401 11585 
1569 1238 1272 1239 11580 9669 11581 11585 9401 9670 
1239 1272 1570 1273 9670 11586 11587 9676 9678 11588 
1536 1570 1537 1239 11589 11590 11324 11309 11587 11317 
1239 1272 1569 1570 9670 11581 11585 11587 11586 11591 
1536 1570 1239 1569 11589 11587 11309 11583 11591 11585 
1537 1239 1570 1240 11317 11587 11590 11319 9411 11592 
1570 1239 1273 1240 11587 9676 11588 11592 9411 9677 
1240 1273 1571 1274 9677 11593 11594 9683 9685 11595 
1537 1571 1538 1240 11596 11597 11334 11319 11594 11327 
1240 1273 1570 1571 9677 11588 11592 11594 11593 11598 
1537 1571 1240 1570 11596 11594 11319 11590 11598 11592 
1538 1240 1571 1241 11327 11594 11597 11329 9421 11599 
1571 1240 1274 1241 11594 9683 11595 11599 9421 9684 
1241 1274 1572 1275 9684 11600 11601 9690 9692 11602 
1538 1572 1539 1241 11603 11604 11344 11329 11601 11337 
1241 1274 1571 1572 9684 11595 11599 11601 11600 11605 
1538 1572 1241 1571 11603 11601 11329 11597 11605 11599 
1539 1241 1572 1242 11337 11601 11604 11339 9431 11606 
1572 1241 1275 1242 11601 9690 11602 11606 9431 9691 
1242 1275 1573 1276 9691 11607 11608 9697 9699 11609 
1539 1573 1540 1242 11610 11611 11354 11339 11608 11347 
1242 1275 1572 1573 9691 11602 11606 11608 11607 11612 
1539 1573 1242 1572 11610 11608 11339 11604 11612 11606 
1540 1242 1573 1243 11347 11608 11611 11349 9441 11613 
1573 1242 1276 1243 11608 9697 11609 11613 9441 9698 
1243 1276 1574 1277 9698 11614 11615 9704 9706 11616 
1540 1574 1541 1243 11617 11618 11364 11349 11615 11357 
1243 1276 1573 1574 9698 11609 11613 11615 11614 11619 
1540 1574 1243 1573 11617 11615 11349 11611 11619 11613 
1541 1243 1574 1244 11357 11615 11618 11359 9451 11620 
1574 1243 1277 1244 11615 9704 11616 11620 9451 9705 
1244 1277 1575 1278 9705 11621 11622 9711 9713 11623 
1541 1575 1542 1244 11624 11625 11374 11359 11622 11367 
1244 1277 1574 1575 9705 11616 11620 11622 11621 11626 
1541 1575 1244 1574 11624 11622 11359 11618 11626 11620 
1542 1244 1575 1245 11367 11622 11625 11369 9461 11627 
1575 1244 1278 1245 11622 9711 11623 11627 9461 9712 
1245 1278 1576 1279 9712 11628 11629 9718 9720 11630 
1542 1576 1543 1245 11631 11632 11384 11369 11629 11377 
1245 1278 1575 1576 9712 11623 11627 11629 11628 11633 
1542 1576 1245 1575 11631 11629 11369 11625 11633 11627 
1543 1245 1576 1246 11377 11629 11632 11379 9471 11634 
1576 1245 1279 1246 11629 9718 11630 11634 9471 9719 
1246 1279 1577 1280 9719 11635 11636 9725 9727 11637 
1543 1577 1544 1246 11638 11639 11394 11379 11636 11387 
1246 1279 1576 1577 9719 11630 11634 11636 11635 11640 
1543 1577 1246 1576 11638 11636 11379 11632 11640 11634 
1544 1246 1577 1247 11387 11636 11639 11389 9481 11641 
1577 1246 1280 1247 11636 9725 11637 11641 9481 9726 
1247 1280 1578 1281 9726 11642 11643 9732 9734 11644 
1544 1578 1545 1247 11645 11646 11404 11389 11643 11397 
1247 1280 1577 1578 9726 11637 11641 11643 11642 11647 
1544 1578 1247 1577 11645 11643 11389 11639 11647 11641 
1545 1247 1578 1248 11397 11643 11646 11399 9491 11648 
1578 1247 1281 1248 11643 9732 11644 11648 9491 9733 
1248 1281 1579 1282 9733 11649 11650 9739 9741 11651 
1545 1579 1546 1248 11652 11653 11414 11399 11650 11407 
1248 1281 1578 1579 9733 11644 11648 11650 11649 11654 
1545 1579 1248 1578 11652 11650 11399 11646 11654 11648 
1546 1248 1579 1249 11407 11650 11653 11409 9501 11655 
1579 1248 1282 1249 11650 9739 11651 11655 9501 9740 
1249 1282 1580 1283 9740 11656 11657 9746 9748 11658 
1546 1580 1547 1249 11659 11660 11424 11409 11657 11417 
1249 1282 1579 1580 9740 11651 11655 11657 11656 11661 
1546 1580 1249 1579 11659 11657 11409 11653 11661 11655 
1547 1249 1580 1250 11417 11657 11660 11419 9511 11662 
1580 1249 1283 1250 11657 9746 11658 11662 9511 9747 
1250 1283 1581 1284 9747 11663 11664 9753 9755 11665 
1547 1581 1548 1250 11666 11667 11434 11419 11664 11427 
1250 1283 1580 1581 9747 11658 11662 11664 11663 11668 
1547 1581 1250 1580 11666 11664 11419 11660 11668 11662 
1548 1250 1581 1251 11427 11664 11667 11429 9521 11669 
1581 1250 1284 1251 11664 9753 11665 11669 9521 9754 
1251 1284 1582 1285 9754 11670 11671 9760 9762 11672 
1548 1582 1549 1251 11673 11674 11444 11429 11671 11437 
1251 1284 1581 1582 9754 11665 11669 11671 11670 11675 
1548 1582 1251 1581 11673 11671 11429 11667 11675 11669 
1549 1251 1582 1252 11437 11671 11674 11439 9531 11676 
1582 1251 1285 1252 11671 9760 11672 11676 9531 9761 
1252 1285 1583 1286 9761 11677 11678 9767 9769 11679 
1549 1583 1550 1252 11680 11681 11454 11439 11678 11447 
1252 1285 1582 1583 9761 11672 11676 11678 11677 11682 
1549 1583 1252 1582 11680 11678 11439 11674 11682 11676 
1550 1252 1583 1253 11447 11678 11681 11449 9541 11683 
1583 1252 1286 1253 11678 9767 11679 11683 9541 9768 
1254 1287 1585 1288 9779 11684 11685 9774 9778 11686 
1551 1585 1552 1254 11687 11688 11464 11462 11685 11457 
1254 1287 1584 1585 9779 11689 11690 11685 11684 11691 
1551 1585 1254 1584 11687 11685 11462 11692 11691 11690 
1552 1254 1585 1255 11457 11685 11688 11459 9551 11693 
1585 1254 1288 1255 11685 9774 11686 11693 9551 9775 
1255 1288 1586 1289 9775 11694 11695 9784 9786 11696 
1552 1586 1553 1255 11697 11698 11472 11459 11695 11467 
1255 1288 1585 1586 9775 11686 11693 11695 11694 11699 
1552 1586 1255 1585 11697 11695 11459 11688 11699 11693 
1553 1255 1586 1256 11467 11695 11698 11469 9559 11700 
1586 1255 1289 1256 11695 9784 11696 11700 9559 9785 
1256 1289 1587 1290 9785 11701 11702 9791 9793 11703 
1553 1587 1554 1256 11704 11705 11479 11469 11702 11474 
1256 1289 1586 1587 9785 11696 11700 11702 11701 11706 
1553 1587 1256 1586 11704 11702 11469 11698 11706 11700 
1554 1256 1587 1257 11474 11702 11705 11476 9566 11707 
1587 1256 1290 1257 11702 9791 11703 11707 9566 9792 
1257 1290 1588 1291 9792 11708 11709 9798 9800 11710 
1554 1588 1555 1257 11711 11712 11486 11476 11709 11481 
1257 1290 1587 1588 9792 11703 11707 11709 11708 11713 
1554 1588 1257 1587 11711 11709 11476 11705 11713 11707 
1555 1257 1588 1258 11481 11709 11712 11483 9573 11714 
1588 1257 1291 1258 11709 9798 11710 11714 9573 9799 
1258 1291 1589 1292 9799 11715 11716 9805 9807 11717 
1555 1589 1556 1258 11718 11719 11493 11483 11716 11488 
1258 1291 1588 1589 9799 11710 11714 11716 11715 11720 
1555 1589 1258 1588 11718 11716 11483 11712 11720 11714 
1556 1258 1589 1259 11488 11716 11719 11490 9580 11721 
1589 1258 1292 1259 11716 9805 11717 11721 9580 9806 
1259 1292 1590 1293 9806 11722 11723 9812 9814 11724 
1556 1590 1557 1259 11725 11726 11500 11490 11723 11495 
1259 1292 1589 1590 9806 11717 11721 11723 11722 11727 
1556 1590 1259 1589 11725 11723 11490 11719 11727 11721 
1557 1259 1590 1260 11495 11723 11726 11497 9587 11728 
1590 1259 1293 1260 11723 9812 11724 11728 9587 9813 
1260 1293 1591 1294 9813 11729 11730 9819 9821 11731 
1557 1591 1558 1260 11732 11733 11507 11497 11730 11502 
1260 1293 1590 1591 9813 11724 11728 11730 11729 11734 
1557 1591 1260 1590 11732 11730 11497 11726 11734 11728 
1558 1260 1591 1261 11502 11730 11733 11504 9594 11735 
1591 1260 1294 1261 11730 9819 11731 11735 9594 9820 
1261 1294 1592 1295 9820 11736 11737 9826 9828 11738 
1558 1592 1559 1261 11739 11740 11514 11504 11737 11509 
1261 1294 1591 1592 9820 11731 11735 11737 11736 11741 
1558 1592 1261 1591 11739 11737 11504 11733 11741 11735 
1559 1261 1592 1262 11509 11737 11740 11511 9601 11742 
1592 1261 1295 1262 11737 9826 11738 11742 9601 9827 
1262 1295 1593 1296 9827 11743 11744 9833 9835 11745 
1559 1593 1560 1262 11746 11747 11521 11511 11744 11516 
1262 1295 1592 1593 9827 11738 11742 11744 11743 11748 
1559 1593 1262 1592 11746 11744 11511 11740 11748 11742 
1560 1262 1593 1263 11516 11744 11747 11518 9608 11749 
1593 1262 1296 1263 11744 9833 11745 11749 9608 9834 
1263 1296 1594 1297 9834 11750 11751 9840 9842 11752 
1560 1594 1561 1263 11753 11754 11528 11518 11751 11523 
1263 1296 1593 1594 9834 11745 11749 11751 11750 11755 
1560 1594 1263 1593 11753 11751 11518 11747 11755 11749 
1561 1263 1594 1264 11523 11751 11754 11525 9615 11756 
1594 1263 1297 1264 11751 9840 11752 11756 9615 9841 
1264 1297 1595 1298 9841 11757 11758 9847 9849 11759 
1561 1595 1562 1264 11760 11761 11535 11525 11758 11530 
1264 1297 1594 1595 9841 11752 11756 11758 11757 11762 
1561 1595 1264 1594 11760 11758 11525 11754 11762 11756 
1562 1264 1595 1265 11530 11758 11761 11532 9622 11763 
1595 1264 1298 1265 11758 9847 11759 11763 9622 9848 
1265 1298 1596 1299 9848 11764 11765 9854 9856 11766 
1562 1596 1563 1265 11767 11768 11542 11532 11765 11537 
1265 1298 1595 1596 9848 11759 11763 11765 11764 11769 
1562 1596 1265 1595 11767 11765 11532 11761 11769 11763 
1563 1265 1596 1266 11537 11765 11768 11539 9629 11770 
1596 1265 1299 1266 11765 9854 11766 11770 9629 9855 
1266 1299 1597 1300 9855 11771 11772 9861 9863 11773 
1563 1597 1564 1266 11774 11775 11549 11539 11772 11544 
1266 1299 1596 1597 9855 11766 11770 11772 11771 11776 
1563 1597 1266 1596 11774 11772 11539 11768 11776 11770 
1564 1266 1597 1267 11544 11772 11775 11546 9636 11777 
1597 1266 1300 1267 11772 9861 11773 11777 9636 9862 
1267 1300 1598 1301 9862 11778 11779 9868 9870 11780 
1564 1598 1565 1267 11781 11782 11556 11546 11779 11551 
1267 1300 1597 1598 9862 11773 11777 11779 11778 11783 
1564 1598 1267 1597 11781 11779 11546 11775 11783 11777 
1565 1267 1598 1268 11551 11779 11782 11553 9643 11784 
1598 1267 1301 1268 11779 9868 11780 11784 9643 9869 
1268 1301 1599 1302 9869 11785 11786 9875 9877 11787 
1565 1599 1566 1268 11788 11789 11563 11553 11786 11558 
1268 1301 1598 1599 9869 11780 11784 11786 11785 11790 
1565 1599 1268 1598 11788 11786 11553 11782 11790 11784 
1566 1268 1599 1269 11558 11786 11789 11560 9650 11791 
1599 1268 1302 1269 11786 9875 11787 11791 9650 9876 
1269 1302 1600 1303 9876 11792 11793 9882 9884 11794 
1566 1600 1567 1269 11795 11796 11570 11560 11793 11565 
1269 1302 1599 1600 9876 11787 11791 11793 11792 11797 
1566 1600 1269 1599 11795 11793 11560 11789 11797 11791 
1567 1269 1600 1270 11565 11793 11796 11567 9657 11798 
1600 1269 1303 1270 11793 9882 11794 11798 9657 9883 
1270 1303 1601 1304 9883 11799 11800 9889 9891 11801 
1567 1601 1568 1270 11802 11803 11577 11567 11800 11572 
1270 1303 1600 1601 9883 11794 11798 11800 11799 11804 
1567 1601 1270 1600 11802 11800 11567 11796 11804 11798 
1568 1270 1601 1271 11572 11800 11803 11574 9664 11805 
1601 1270 1304 1271 11800 9889 11801 11805 9664 9890 
1271 1304 1602 1305 9890 11806 11807 9896 9898 11808 
1568 1602 1569 1271 11809 11810 11584 11574 11807 11579 
1271 1304 1601 1602 9890 11801 11805 11807 11806 11811 
1568 1602 1271 1601 11809 11807 11574 11803 11811 11805 
1569 1271 1602 1272 11579 11807 11810 11581 9671 11812 
1602 1271 1305 1272 11807 9896 11808 11812 9671 9897 
1272 1305 1603 1306 9897 11813 11814 9903 9905 11815 
1569 1603 1570 1272 11816 11817 11591 11581 11814 11586 
1272 1305 1602 1603 9897 11808 11812 11814 11813 11818 
1569 1603 1272 1602 11816 11814 11581 11810 11818 11812 
1570 1272 1603 1273 11586 11814 11817 11588 9678 11819 
1603 1272 1306 1273 11814 9903 11815 11819 9678 9904 
1273 1306 1604 1307 9904 11820 11821 9910 9912 11822 
1570 1604 1571 1273 11823 11824 11598 11588 11821 11593 
1273 1306 1603 1604 9904 11815 11819 11821 11820 11825 
1570 1604 1273 1603 11823 11821 11588 11817 11825 11819 
1571 1273 1604 1274 11593 11821 11824 11595 9685 11826 
1604 1273 1307 1274 11821 9910 11822 11826 9685 9911 
1274 1307 1605 1308 9911 11827 11828 9917 9919 11829 
1571 1605 1572 1274 11830 11831 11605 11595 11828 11600 
1274 1307 1604 1605 9911 11822 11826 11828 11827 11832 
1571 1605 1274 1604 11830 11828 11595 11824 11832 11826 
1572 1274 1605 1275 11600 11828 11831 11602 9692 11833 
1605 1274 1308 1275 11828 9917 11829 11833 9692 9918 
1275 1308 1606 1309 9918 11834 11835 9924 9926 11836 
1572 1606 1573 1275 11837 11838 11612 11602 11835 11607 
1275 1308 1605 1606 9918 11829 11833 11835 11834 11839 
1572 1606 1275 1605 11837 11835 11602 11831 11839 11833 
1573 1275 1606 1276 11607 11835 11838 11609 9699 11840 
1606 1275 1309 1276 11835 9924 11836 11840 9699 9925 
1276 1309 1607 1310 9925 11841 11842 9931 9933 11843 
1573 1607 1574 1276 11844 11845 11619 11609 11842 11614 
1276 1309 1606 1607 9925 11836 11840 11842 11841 11846 
1573 1607 1276 1606 11844 11842 11609 11838 11846 11840 
1574 1276 1607 1277 11614 11842 11845 11616 9706 11847 
1607 1276 1310 1277 11842 9931 11843 11847 9706 9932 
1277 1310 1608 1311 9932 11848 11849 9938 9940 11850 
1574 1608 1575 1277 11851 11852 11626 11616 11849 11621 
1277 1310 1607 1608 9932 11843 11847 11849 11848 11853 
1574 1608 1277 1607 11851 11849 11616 11845 11853 11847 
1575 1277 1608 1278 11621 11849 11852 11623 9713 11854 
1608 1277 1311 1278 11849 9938 11850 11854 9713 9939 
1278 1311 1609 1312 9939 11855 11856 9945 9947 11857 
1575 1609 1576 1278 11858 11859 11633 11623 11856 11628 
1278 1311 1608 1609 9939 11850 11854 11856 11855 11860 
1575 1609 1278 1608 11858 11856 11623 11852 11860 11854 
1576 1278 1609 1279 11628 11856 11859 11630 9720 11861 
1609 1278 1312 1279 11856 9945 11857 11861 9720 9946 
1279 1312 1610 1313 9946 11862 11863 9952 9954 11864 
1576 1610 1577 1279 11865 11866 11640 11630 11863 11635 
1279 1312 1609 1610 9946 11857 11861 11863 11862 11867 
1576 1610 1279 1609 11865 11863 11630 11859 11867 11861 
1577 1279 1610 1280 11635 11863 11866 11637 9727 11868 
1610 1279 1313 1280 11863 9952 11864 11868 9727 9953 
1280 1313 1611 1314 9953 11869 11870 9959 9961 11871 
1577 1611 1578 1280 11872 11873 11647 11637 11870 11642 
1280 1313 1610 1611 9953 11864 11868 11870 11869 11874 
1577 1611 1280 1610 11872 11870 11637 11866 11874 11868 
1578 1280 1611 1281 11642 11870 11873 11644 9734 11875 
1611 1280 1314 1281 11870 9959 11871 11875 9734 9960 
1281 1314 1612 1315 9960 11876 11877 9966 9968 11878 
1578 1612 1579 1281 11879 11880 11654 11644 11877 11649 
1281 1314 1611 1612 9960 11871 11875 11877 11876 11881 
1578 1612 1281 1611 11879 11877 11644 11873 11881 11875 
1579 1281 1612 1282 11649 11877 11880 11651 9741 11882 
1612 1281 1315 1282 11877 9966 11878 11882 9741 9967 
1282 1315 1613 1316 9967 11883 11884 9973 9975 11885 
1579 1613 1580 1282 11886 11887 11661 11651 11884 11656 
1282 1315 1612 1613 9967 11878 11882 11884 11883 11888 
1579 1613 1282 1612 11886 11884 11651 11880 11888 11882 
1580 1282 1613 1283 11656 11884 11887 11658 9748 11889 
1613 1282 1316 1283 11884 9973 11885 11889 9748 9974 
1283 1316 1614 1317 9974 11890 11891 9980 9982 11892 
1580 1614 1581 1283 11893 11894 11668 11658 11891 11663 
1283 1316 1613 1614 9974 11885 11889 11891 11890 11895 
1580 1614 1283 1613 11893 11891 11658 11887 11895 11889 
1581 1283 1614 1284 11663 11891 11894 11665 9755 11896 
1614 1283 1317 1284 11891 9980 11892 11896 9755 9981 
1284 1317 1615 1318 9981 11897 11898 9987 9989 11899 
1581 1615 1582 1284 11900 11901 11675 11665 11898 11670 
1284 1317 1614 1615 9981 11892 11896 11898 11897 11902 
1581 1615 1284 1614 11900 11898 11665 11894 11902 11896 
1582 1284 1615 1285 11670 11898 11901 11672 9762 11903 
1615 1284 1318 1285 11898 9987 11899 11903 9762 9988 
1285 1318 1616 1319 9988 11904 11905 9994 9996 11906 
1582 1616 1583 1285 11907 11908 11682 11672 11905 11677 
1285 1318 1615 1616 9988 11899 11903 11905 11904 11909 
1582 1616 1285 1615 11907 11905 11672 11901 11909 11903 
1583 1285 1616 1286 11677 11905 11908 11679 9769 11910 
1616 1285 1319 1286 11905 9994 11906 11910 9769 9995 
1287 1320 1618 1321 10006 11911 11912 10001 10005 11913 
1584 1618 1585 1287 11914 11915 11691 11689 11912 11684 
1287 1320 1617 1618 10006 11916 11917 11912 11911 11918 
1584 1618 1287 1617 11914 11912 11689 11919 11918 11917 
1585 1287 1618 1288 11684 11912 11915 11686 9778 11920 
1618 1287 1321 1288 11912 10001 11913 11920 9778 10002 
1288 1321 1619 1322 10002 11921 11922 10011 10013 11923 
1585 1619 1586 1288 11924 11925 11699 11686 11922 11694 
1288 1321 1618 1619 10002 11913 11920 11922 11921 11926 
1585 1619 1288 1618 11924 11922 11686 11915 11926 11920 
1586 1288 1619 1289 11694 11922 11925 11696 9786 11927 
1619 1288 1322 1289 11922 10011 11923 11927 9786 10012 
1289 1322 1620 1323 10012 11928 11929 10018 10020 11930 
1586 1620 1587 1289 11931 11932 11706 11696 11929 11701 
1289 1322 1619 1620 10012 11923 11927 11929 11928 11933 
1586 1620 1289 1619 11931 11929 11696 11925 11933 11927 
1587 1289 1620 1290 11701 11929 11932 11703 9793 11934 
1620 1289 1323 1290 11929 10018 11930 11934 9793 10019 
1290 1323 1621 1324 10019 11935 11936 10025 10027 11937 
1587 1621 1588 1290 11938 11939 11713 11703 11936 11708 
1290 1323 1620 1621 10019 11930 11934 11936 11935 11940 
1587 1621 1290 1620 11938 11936 11703 11932 11940 11934 
1588 1290 1621 1291 11708 11936 11939 11710 9800 11941 
1621 1290 1324 1291 11936 10025 11937 11941 9800 10026 
1291 1324 1622 1325 10026 11942 11943 10032 10034 11944 
1588 1622 1589 1291 11945 11946 11720 11710 11943 11715 
1291 1324 1621 1622 10026 11937 11941 11943 11942 11947 
1588 1622 1291 1621 11945 11943 11710 11939 11947 11941 
1589 1291 1622 1292 11715 11943 11946 11717 9807 11948 
1622 1291 1325 1292 11943 10032 11944 11948 9807 10033 
1292 1325 1623 1326 10033 11949 11950 10039 10041 11951 
1589 1623 1590 1292 11952 11953 11727 11717 11950 11722 
1292 1325 1622 1623 10033 11944 11948 11950 11949 11954 
1589 1623 1292 1622 11952 11950 11717 11946 11954 11948 
1590 1292 1623 1293 11722 11950 11953 11724 9814 11955 
1623 1292 1326 1293 11950 10039 11951 11955 9814 10040 
1293 1326 1624 1327 10040 11956 11957 10046 10048 11958 
1590 1624 1591 1293 11959 11960 11734 11724 11957 11729 
1293 1326 1623 1624 10040 11951 11955 11957 11956 11961 
1590 1624 1293 1623 11959 11957 11724 11953 11961 11955 
1591 1293 1624 1294 11729 11957 11960 11731 9821 11962 
1624 1293 1327 1294 11957 10046 11958 11962 9821 10047 
1294 1327 1625 1328 10047 11963 11964 10053 10055 11965 
1591 1625 1592 1294 11966 11967 11741 11731 11964 11736 
1294 1327 1624 1625 10047 11958 11962 11964 11963 11968 
1591 1625 1294 1624 11966 11964 11731 11960 11968 11962 
1592 1294 1625 1295 11736 11964 11967 11738 9828 11969 
1625 1294 1328 1295 11964 10053 11965 11969 9828 10054 
1295 1328 1626 1329 10054 11970 11971 10060 10062 11972 
1592 1626 1593 1295 11973 11974 11748 11738 11971 11743 
1295 1328 1625 1626 10054 11965 11969 11971 11970 11975 
1592 1626 1295 1625 11973 11971 11738 11967 11975 11969 
1593 1295 1626 1296 11743 11971 11974 11745 9835 11976 
1626 1295 1329 1296 11971 10060 11972 11976 9835 10061 
1296 1329 1627 1330 10061 11977 11978 10067 10069 11979 
1593 1627 1594 1296 11980 11981 11755 11745 11978 11750 
1296 1329 1626 1627 10061 11972 11976 11978 11977 11982 
1593 1627 1296 1626 11980 11978 11745 11974 11982 11976 
1594 1296 1627 1297 11750 11978 11981 11752 9842 11983 
1627 1296 1330 1297 11978 10067 11979 11983 9842 10068 
1297 1330 1628 1331 10068 11984 11985 10074 10076 11986 
1594 1628 1595 1297 11987 11988 11762 11752 11985 11757 
1297 1330 1627 1628 10068 11979 11983 11985 11984 11989 
1594 1628 1297 1627 11987 11985 11752 11981 11989 11983 
1595 1297 1628 1298 11757 11985 11988 11759 9849 11990 
1628 1297 1331 1298 11985 10074 11986 11990 9849 10075 
1298 1331 1629 1332 10075 11991 11992 10081 10083 11993 
1595 1629 1596 1298 11994 11995 11769 11759 11992 11764 
1298 1331 1628 1629 10075 11986 11990 11992 11991 11996 
1595 1629 1298 1628 11994 11992 11759 11988 11996 11990 
1596 1298 1629 1299 11764 11992 11995 11766 9856 11997 
1629 1298 1332 1299 11992 10081 11993 11997 9856 10082 
1299 1332 1630 1333 10082 11998 11999 10088 10090 12000 
1596 1630 1597 1299 12001 12002 11776 11766 11999 11771 
1299 1332 1629 1630 10082 11993 11997 11999 11998 12003 
1596 1630 1299 1629 12001 11999 11766 11995 12003 11997 
1597 1299 1630 1300 11771 11999 12002 11773 9863 12004 
1630 1299 1333 1300 11999 10088 12000 12004 9863 10089 
1300 1333 1631 1334 10089 12005 12006 10095 10097 12007 
1597 1631 1598 1300 12008 12009 11783 11773 12006 11778 
1300 1333 1630 1631 10089 12000 12004 12006 12005 12010 
1597 1631 1300 1630 12008 12006 11773 12002 12010 12004 
1598 1300 1631 1301 11778 12006 12009 11780 9870 12011 
1631 1300 1334 1301 12006 10095 12007 12011 9870 10096 
1301 1334 1632 1335 10096 12012 12013 10102 10104 12014 
1598 1632 1599 1301 12015 12016 11790 11780 12013 11785 
1301 1334 1631 1632 10096 12007 12011 12013 12012 12017 
1598 1632 1301 1631 12015 12013 11780 12009 12017 12011 
1599 1301 1632 1302 11785 12013 12016 11787 9877 12018 
1632 1301 1335 1302 12013 10102 12014 12018 9877 10103 
1302 1335 1633 1336 10103 12019 12020 10109 10111 12021 
1599 1633 1600 1302 12022 12023 11797 11787 12020 11792 
1302 1335 1632 1633 10103 12014 12018 12020 12019 12024 
1599 1633 1302 1632 12022 12020 11787 12016 12024 12018 
1600 1302 1633 1303 11792 12020 12023 11794 9884 12025 
1633 1302 1336 1303 12020 10109 12021 12025 9884 10110 
1303 1336 1634 1337 10110 12026 12027 10116 10118 12028 
1600 1634 1601 1303 12029 12030 11804 11794 12027 11799 
1303 1336 1633 1634 10110 12021 12025 12027 12026 12031 
1600 1634 1303 1633 12029 12027 11794 12023 12031 12025 
1601 1303 1634 1304 11799 12027 12030 11801 9891 12032 
1634 1303 1337 1304 12027 10116 12028 12032 9891 10117 
1304 1337 1635 1338 10117 12033 12034 10123 10125 12035 
1601 1635 1602 1304 12036 12037 11811 11801 12034 11806 
1304 1337 1634 1635 10117 12028 12032 12034 12033 12038 
1601 1635 1304 1634 12036 12034 11801 12030 12038 12032 
1602 1304 1635 1305 11806 12034 12037 11808 9898 12039 
1635 1304 1338 1305 12034 10123 12035 12039 9898 10124 
1305 1338 1636 1339 10124 12040 12041 10130 10132 12042 
1602 1636 1603 1305 12043 12044 11818 11808 12041 11813 
1305 1338 1635 1636 10124 12035 12039 12041 12040 12045 
1602 1636 1305 1635 12043 12041 11808 12037 12045 12039 
1603 1305 1636 1306 11813 12041 12044 11815 9905 12046 
1636 1305 1339 1306 12041 10130 12042 12046 9905 10131 
1306 1339 1637 1340 10131 12047 12048 10137 10139 12049 
1603 1637 1604 1306 12050 12051 11825 11815 12048 11820 
1306 1339 1636 1637 10131 12042 12046 12048 12047 12052 
1603 1637 1306 1636 12050 12048 11815 12044 12052 12046 
1604 1306 1637 1307 11820 12048 12051 11822 9912 12053 
1637 1306 1340 1307 12048 10137 12049 12053 9912 10138 
1307 1340 1638 1341 10138 12054 12055 10144 10146 12056 
1604 1638 1605 1307 12057 12058 11832 11822 12055 11827 
1307 1340 1637 1638 10138 12049 12053 12055 12054 12059 
1604 1638 1307 1637 12057 12055 11822 12051 12059 12053 
1605 1307 1638 1308 11827 12055 12058 11829 9919 12060 
1638 1307 1341 1308 12055 10144 12056 12060 9919 10145 
1308 1341 1639 1342 10145 12061 12062 10151 10153 12063 
1605 1639 1606 1308 12064 12065 11839 11829 12062 11834 
1308 1341 1638 1639 10145 12056 12060 12062 12061 12066 
1605 1639 1308 1638 12064 12062 11829 12058 12066 12060 
1606 1308 1639 1309 11834 12062 12065 11836 9926 12067 
1639 1308 1342 1309 12062 10151 12063 12067 9926 10152 
1309 1342 1640 1343 10152 12068 12069 10158 10160 12070 
1606 1640 1607 1309 12071 12072 11846 11836 12069 11841 
1309 1342 1639 1640 10152 12063 12067 12069 12068 12073 
1606 1640 1309 1639 12071 12069 11836 12065 12073 12067 
1607 1309 1640 1310 11841 12069 12072 11843 9933 12074 
1640 1309 1343 1310 12069 10158 12070 12074 9933 10159 
1310 1343 1641 1344 10159 12075 12076 10165 10167 12077 
1607 1641 1608 1310 12078 12079 11853 11843 12076 11848 
1310 1343 1640 1641 10159 12070 12074 12076 12075 12080 
1607 1641 1310 1640 12078 12076 11843 12072 12080 12074 
1608 1310 1641 1311 11848 12076 12079 11850 9940 12081 
1641 1310 1344 1311 12076 10165 12077 12081 9940 10166 
1311 1344 1642 1345 10166 12082 12083 10172 10174 12084 
1608 1642 1609 1311 12085 12086 11860 11850 12083 11855 
1311 1344 1641 1642 10166 12077 12081 12083 12082 12087 
1608 1642 1311 1641 12085 12083 11850 12079 12087 12081 
1609 1311 1642 1312 11855 12083 12086 11857 9947 12088 
1642 1311 1345 1312 12083 10172 12084 12088 9947 10173 
1312 1345 1643 1346 10173 12089 12090 10179 10181 12091 
1609 1643 1610 1312 12092 12093 11867 11857 12090 11862 
1312 1345 1642 1643 10173 12084 12088 12090 12089 12094 
1609 1643 1312 1642 12092 12090 11857 12086 12094 12088 
1610 1312 1643 1313 11862 12090 12093 11864 9954 12095 
1643 1312 1346 1313 12090 10179 12091 12095 9954 10180 
1313 1346 1644 1347 10180 12096 12097 10186 10188 12098 
1610 1644 1611 1313 12099 12100 11874 11864 12097 11869 
1313 1346 1643 1644 10180 12091 12095 12097 12096 12101 
1610 1644 1313 1643 12099 12097 11864 12093 12101 12095 
1611 1313 1644 1314 11869 12097 12100 11871 9961 12102 
1644 1313 1347 1314 12097 10186 12098 12102 9961 10187 
1314 1347 1645 1348 10187 12103 12104 10193 10195 12105 
1611 1645 1612 1314 12106 12107 11881 11871 12104 11876 
1314 1347 1644 1645 10187 12098 12102 12104 12103 12108 
1611 1645 1314 1644 12106 12104 11871 12100 12108 12102 
1612 1314 1645 1315 11876 12104 12107 11878 9968 12109 
1645 1314 1348 1315 12104 10193 12105 12109 9968 10194 
1315 1348 1646 1349 10194 12110 12111 10200 10202 12112 
1612 1646 1613 1315 12113 12114 11888 11878 12111 11883 
1315 1348 1645 1646 10194 12105 12109 12111 12110 12115 
1612 1646 1315 1645 12113 12111 11878 12107 12115 12109 
1613 1315 1646 1316 11883 12111 12114 11885 9975 12116 
1646 1315 1349 1316 12111 10200 12112 12116 9975 10201 
1316 1349 1647 1350 10201 12117 12118 10207 10209 12119 
1613 1647 1614 1316 12120 12121 11895 11885 12118 11890 
1316 1349 1646 1647 10201 12112 12116 12118 12117 12122 
1613 1647 1316 1646 12120 12118 11885 12114 12122 12116 
1614 1316 1647 1317 11890 12118 12121 11892 9982 12123 
1647 1316 1350 1317 12118 10207 12119 12123 9982 10208 
1317 1350 1648 1351 10208 12124 12125 10214 10216 12126 
1614 1648 1615 1317 12127 12128 11902 11892 12125 11897 
1317 1350 1647 1648 10208 12119 12123 12125 12124 12129 
1614 1648 1317 1647 12127 12125 11892 12121 12129 12123 
1615 1317 1648 1318 11897 12125 12128 11899 9989 12130 
1648 1317 1351 1318 12125 10214 12126 12130 9989 10215 
1318 1351 1649 1352 10215 12131 12132 10221 10223 12133 
1615 1649 1616 1318 12134 12135 11909 11899 12132 11904 
1318 1351 1648 1649 10215 12126 12130 12132 12131 12136 
1615 1649 1318 1648 12134 12132 11899 12128 12136 12130 
1616 1318 1649 1319 11904 12132 12135 11906 9996 12137 
1649 1318 1352 1319 12132 10221 12133 12137 9996 10222 
1320 1353 1651 1354 10233 12138 12139 10228 10232 12140 
1617 1651 1618 1320 12141 12142 11918 11916 12139 11911 
1320 1353 1650 1651 10233 12143 12144 12139 12138 12145 
1617 1651 1320 1650 12141 12139 11916 12146 12145 12144 
1618 1320 1651 1321 11911 12139 12142 11913 10005 12147 
1651 1320 1354 1321 12139 10228 12140 12147 10005 10229 
1321 1354 1652 1355 10229 12148 12149 10238 10240 12150 
1618 1652 1619 1321 12151 12152 11926 11913 12149 11921 
1321 1354 1651 1652 10229 12140 12147 12149 12148 12153 
1618 1652 1321 1651 12151 12149 11913 12142 12153 12147 
1619 1321 1652 1322 11921 12149 12152 11923 10013 12154 
1652 1321 1355 1322 12149 10238 12150 12154 10013 10239 
1322 1355 1653 1356 10239 12155 12156 10245 10247 12157 
1619 1653 1620 1322 12158 12159 11933 11923 12156 11928 
1322 1355 1652 1653 10239 12150 12154 12156 12155 12160 
1619 1653 1322 1652 12158 12156 11923 12152 12160 12154 
1620 1322 1653 1323 11928 12156 12159 11930 10020 12161 
1653 1322 1356 1323 12156 10245 12157 12161 10020 10246 
1323 1356 1654 1357 10246 12162 12163 10252 10254 12164 
1620 1654 1621 1323 12165 12166 11940 11930 12163 11935 
1323 1356 1653 1654 10246 12157 12161 12163 12162 12167 
1620 1654 1323 1653 12165 12163 11930 12159 12167 12161 
1621 1323 1654 1324 11935 12163 12166 11937 10027 12168 
1654 1323 1357 1324 12163 10252 12164 12168 10027 10253 
1324 1357 1655 1358 10253 12169 12170 10259 10261 12171 
1621 1655 1622 1324 12172 12173 11947 11937 12170 11942 
1324 1357 1654 1655 10253 12164 12168 12170 12169 12174 
1621 1655 1324 1654 12172 12170 11937 12166 12174 12168 
1622 1324 1655 1325 11942 12170 12173 11944 10034 12175 
1655 1324 1358 1325 12170 10259 12171 12175 10034 10260 
1325 1358 1656 1359 10260 12176 12177 10266 10268 12178 
1622 1656 1623 1325 12179 12180 11954 11944 12177 11949 
1325 1358 1655 1656 10260 12171 12175 12177 12176 12181 
1622 1656 1325 1655 12179 12177 11944 12173 12181 12175 
1623 1325 1656 1326 11949 12177 12180 11951 10041 12182 
1656 1325 1359 1326 12177 10266 12178 12182 10041 10267 
1326 1359 1657 1360 10267 12183 12184 10273 10275 12185 
1623 1657 1624 1326 12186 12187 11961 11951 12184 11956 
1326 1359 1656 1657 10267 12178 12182 12184 12183 12188 
1623 1657 1326 1656 12186 12184 11951 12180 12188 12182 
1624 1326 1657 1327 11956 12184 12187 11958 10048 12189 
1657 1326 1360 1327 12184 10273 12185 12189 10048 10274 
1327 1360 1658 1361 10274 12190 12191 10280 10282 12192 
1624 1658 1625 1327 12193 12194 11968 11958 12191 11963 
1327 1360 1657 1658 10274 12185 12189 12191 12190 12195 
1624 1658 1327 1657 12193 12191 11958 12187 12195 12189 
1625 1327 1658 1328 11963 12191 12194 11965 10055 12196 
1658 1327 1361 1328 12191 10280 12192 12196 10055 10281 
1328 1361 1659 1362 10281 12197 12198 10287 10289 12199 
1625 1659 1626 1328 12200 12201 11975 11965 12198 11970 
1328 1361 1658 1659 10281 12192 12196 12198 12197 12202 
1625 1659 1328 1658 12200 12198 11965 12194 12202 12196 
1626 1328 1659 1329 11970 12198 12201 11972 10062 12203 
1659 1328 1362 1329 12198 10287 12199 12203 10062 10288 
1329 1362 1660 1363 10288 12204 12205 10294 10296 12206 
1626 1660 1627 1329 12207 12208 11982 11972 12205 11977 
1329 1362 1659 1660 10288 12199 12203 12205 12204 12209 
1626 1660 1329 1659 12207 12205 11972 12201 12209 12203 
1627 1329 1660 1330 11977 12205 12208 11979 10069 12210 
1660 1329 1363 1330 12205 10294 12206 12210 10069 10295 
1330 1363 1661 1364 10295 12211 12212 10301 10303 12213 
1627 1661 1628 1330 12214 12215 11989 11979 12212 11984 
1330 1363 1660 1661 10295 12206 12210 12212 12211 12216 
1627 1661 1330 1660 12214 12212 11979 12208 12216 12210 
1628 1330 1661 1331 11984 12212 12215 11986 10076 12217 
1661 1330 1364 1331 12212 10301 12213 12217 10076 10302 
1331 1364 1662 1365 10302 12218 12219 10308 10310 12220 
1628 1662 1629 1331 12221 12222 11996 11986 12219 11991 
1331 1364 1661 1662 10302 12213 12217 12219 12218 12223 
1628 1662 1331 1661 12221 12219 11986 12215 12223 12217 
1629 1331 1662 1332 11991 12219 12222 11993 10083 12224 
1662 1331 1365 1332 12219 10308 12220 12224 10083 10309 
1332 1365 1663 1366 10309 12225 12226 10315 10317 12227 
1629 1663 1630 1332 12228 12229 12003 11993 12226 11998 
1332 1365 1662 1663 10309 12220 12224 12226 12225 12230 
1629 1663 1332 1662 12228 12226 11993 12222 12230 12224 
1630 1332 1663 1333 11998 12226 12229 12000 10090 12231 
1663 1332 1366 1333 12226 10315 12227 12231 10090 10316 
1333 1366 1664 1367 10316 12232 12233 10322 10324 12234 
1630 1664 1631 1333 12235 12236 12010 12000 12233 12005 
1333 1366 1663 1664 10316 12227 12231 12233 12232 12237 
1630 1664 1333 1663 12235 12233 12000 12229 12237 12231 
1631 1333 1664 1334 12005 12233 12236 12007 10097 12238 
1664 1333 1367 1334 12233 10322 12234 12238 10097 10323 
1334 1367 1665 1368 10323 12239 12240 10329 10331 12241 
1631 1665 1632 1334 12242 12243 12017 12007 12240 12012 
1334 1367 1664 1665 10323 12234 12238 12240 12239 12244 
1631 1665 1334 1664 12242 12240 12007 12236 12244 12238 
1632 1334 1665 1335 12012 12240 12243 12014 10104 12245 
1665 1334 1368 1335 12240 10329 12241 12245 10104 10330 
1335 1368 1666 1369 10330 12246 12247 10336 10338 12248 
1632 1666 1633 1335 12249 12250 12024 12014 12247 12019 
1335 1368 1665 1666 10330 12241 12245 12247 12246 12251 
1632 1666 1335 1665 12249 12247 12014 12243 12251 12245 
1633 1335 1666 1336 12019 12247 12250 12021 10111 12252 
1666 1335 1369 1336 12247 10336 12248 12252 10111 10337 
1336 1369 1667 1370 10337 12253 12254 10343 10345 12255 
1633 1667 1634 1336 12256 12257 12031 12021 12254 12026 
1336 1369 1666 1667 10337 12248 12252 12254 12253 12258 
1633 1667 1336 1666 12256 12254 12021 12250 12258 12252 
1634 1336 1667 1337 12026 12254 12257 12028 10118 12259 
1667 1336 1370 1337 12254 10343 12255 12259 10118 10344 
1337 1370 1668 1371 10344 12260 12261 10350 10352 12262 
1634 1668 1635 1337 12263 12264 12038 12028 12261 12033 
1337 1370 1667 1668 10344 12255 12259 12261 12260 12265 
1634 1668 1337 1667 12263 12261 12028 12257 12265 12259 
1635 1337 1668 1338 12033 12261 12264 12035 10125 12266 
1668 1337 1371 1338 12261 10350 12262 12266 10125 10351 
1338 1371 1669 1372 10351 12267 12268 10357 10359 12269 
1635 1669 1636 1338 12270 12271 12045 12035 12268 12040 
1338 1371 1668 1669 10351 12262 12266 12268 12267 12272 
1635 1669 1338 1668 12270 12268 12035 12264 12272 12266 
1636 1338 1669 1339 12040 12268 12271 12042 10132 12273 
1669 1338 1372 1339 12268 10357 12269 12273 10132 10358 
1339 1372 1670 1373 10358 12274 12275 10364 10366 12276 
1636 1670 1637 1339 12277 12278 12052 12042 12275 12047 
1339 1372 1669 1670 10358 12269 12273 12275 12274 12279 
1636 1670 1339 1669 12277 12275 12042 12271 12279 12273 
1637 1339 1670 1340 12047 12275 12278 12049 10139 12280 
1670 1339 1373 1340 12275 10364 12276 12280 10139 10365 
1340 1373 1671 1374 10365 12281 12282 10371 10373 12283 
1637 1671 1638 1340 12284 12285 12059 12049 12282 12054 
1340 1373 1670 1671 10365 12276 12280 12282 12281 12286 
1637 1671 1340 1670 12284 12282 12049 12278 12286 12280 
1638 1340 1671 1341 12054 12282 12285 12056 10146 12287 
1671 1340 1374 1341 12282 10371 12283 12287 10146 10372 
1341 1374 1672 1375 10372 12288 12289 10378 10380 12290 
1638 1672 1639 1341 12291 12292 12066 12056 12289 12061 
1341 1374 1671 1672 10372 12283 12287 12289 12288 12293 
1638 1672 1341 1671 12291 12289 12056 12285 12293 12287 
1639 1341 1672 1342 12061 12289 12292 12063 10153 12294 
1672 1341 1375 1342 12289 10378 12290 12294 10153 10379 
1342 1375 1673 1376 10379 12295 12296 10385 10387 12297 
1639 1673 1640 1342 12298 12299 12073 12063 12296 12068 
1342 1375 1672 1673 10379 12290 12294 12296 12295 12300 
1639 1673 1342 1672 12298 12296 12063 12292 12300 12294 
1640 1342 1673 1343 12068 12296 12299 12070 10160 12301 
1673 1342 1376 1343 12296 10385 12297 12301 10160 10386 
1343 1376 1674 1377 10386 12302 12303 10392 10394 12304 
1640 1674 1641 1343 12305 12306 12080 12070 12303 12075 
1343 1376 1673 1674 10386 12297 12301 12303 12302 12307 
1640 1674 1343 1673 12305 12303 12070 12299 12307 12301 
1641 1343 1674 1344 12075 12303 12306 12077 10167 12308 
1674 1343 1377 1344 12303 10392 12304 12308 10167 10393 
1344 1377 1675 1378 10393 12309 12310 10399 10401 12311 
1641 1675 1642 1344 12312 12313 12087 12077 12310 12082 
1344 1377 1674 1675 10393 12304 12308 12310 12309 12314 
1641 1675 1344 1674 12312 12310 12077 12306 12314 12308 
1642 1344 1675 1345 12082 12310 12313 12084 10174 12315 
1675 1344 1378 1345 12310 10399 12311 12315 10174 10400 
1345 1378 1676 1379 10400 12316 12317 10406 10408 12318 
1642 1676 1643 1345 12319 12320 12094 12084 12317 12089 
1345 1378 1675 1676 10400 12311 12315 12317 12316 12321 
1642 1676 1345 1675 12319 12317 12084 12313 12321 12315 
1643 1345 1676 1346 12089 12317 12320 12091 10181 12322 
1676 1345 1379 1346 12317 10406 12318 12322 10181 10407 
1346 1379 1677 1380 10407 12323 12324 10413 10415 12325 
1643 1677 1644 1346 12326 12327 12101 12091 12324 12096 
1346 1379 1676 1677 10407 12318 12322 12324 12323 12328 
1643 1677 1346 1676 12326 12324 12091 12320 12328 12322 
1644 1346 1677 1347 12096 12324 12327 12098 10188 12329 
1677 1346 1380 1347 12324 10413 12325 12329 10188 10414 
1347 1380 1678 1381 10414 12330 12331 10420 10422 12332 
1644 1678 1645 1347 12333 12334 12108 12098 12331 12103 
1347 1380 1677 1678 10414 12325 12329 12331 12330 12335 
1644 1678 1347 1677 12333 12331 12098 12327 12335 12329 
1645 1347 1678 1348 12103 12331 12334 12105 10195 12336 
1678 1347 1381 1348 12331 10420 12332 12336 10195 10421 
1348 1381 1679 1382 10421 12337 12338 10427 10429 12339 
1645 1679 1646 1348 12340 12341 12115 12105 12338 12110 
1348 1381 1678 1679 10421 12332 12336 12338 12337 12342 
1645 1679 1348 1678 12340 12338 12105 12334 12342 12336 
1646 1348 1679 1349 12110 12338 12341 12112 10202 12343 
1679 1348 1382 1349 12338 10427 12339 12343 10202 10428 
1349 1382 1680 1383 10428 12344 12345 10434 10436 12346 
1646 1680 1647 1349 12347 12348 12122 12112 12345 12117 
1349 1382 1679 1680 10428 12339 12343 12345 12344 12349 
1646 1680 1349 1679 12347 12345 12112 12341 12349 12343 
1647 1349 1680 1350 12117 12345 12348 12119 10209 12350 
1680 1349 1383 1350 12345 10434 12346 12350 10209 10435 
1350 1383 1681 1384 10435 12351 12352 10441 10443 12353 
1647 1681 1648 1350 12354 12355 12129 12119 12352 12124 
1350 1383 1680 1681 10435 12346 12350 12352 12351 12356 
1647 1681 1350 1680 12354 12352 12119 12348 12356 12350 
1648 1350 1681 1351 12124 12352 12355 12126 10216 12357 
1681 1350 1384 1351 12352 10441 12353 12357 10216 10442 
1351 1384 1682 1385 10442 12358 12359 10448 10450 12360 
1648 1682 1649 1351 12361 12362 12136 12126 12359 12131 
1351 1384 1681 1682 10442 12353 12357 12359 12358 12363 
1648 1682 1351 1681 12361 12359 12126 12355 12363 12357 
1649 1351 1682 1352 12131 12359 12362 12133 10223 12364 
1682 1351 1385 1352 12359 10448 12360 12364 10223 10449 
1353 1386 1684 1387 10460 12365 12366 10455 10459 12367 
1650 1684 1651 1353 12368 12369 12145 12143 12366 12138 
1353 1386 1683 1684 10460 12370 12371 12366 12365 12372 
1650 1684 1353 1683 12368 12366 12143 12373 12372 12371 
1651 1353 1684 1354 12138 12366 12369 12140 10232 12374 
1684 1353 1387 1354 12366 10455 12367 12374 10232 10456 
1354 1387 1685 1388 10456 12375 12376 10465 10467 12377 
1651 1685 1652 1354 12378 12379 12153 12140 12376 12148 
1354 1387 1684 1685 10456 12367 12374 12376 12375 12380 
1651 1685 1354 1684 12378 12376 12140 12369 12380 12374 
1652 1354 1685 1355 12148 12376 12379 12150 10240 12381 
1685 1354 1388 1355 12376 10465 12377 12381 10240 10466 
1355 1388 1686 1389 10466 12382 12383 10472 10474 12384 
1652 1686 1653 1355 12385 12386 12160 12150 12383 12155 
1355 1388 1685 1686 10466 12377 12381 12383 12382 12387 
1652 1686 1355 1685 12385 12383 12150 12379 12387 12381 
1653 1355 1686 1356 12155 12383 12386 12157 10247 12388 
1686 1355 1389 1356 12383 10472 12384 12388 10247 10473 
1356 1389 1687 1390 10473 12389 12390 10479 10481 12391 
1653 1687 1654 1356 12392 12393 12167 12157 12390 12162 
1356 1389 1686 1687 10473 12384 12388 12390 12389 12394 
1653 1687 1356 1686 12392 12390 12157 12386 12394 12388 
1654 1356 1687 1357 12162 12390 12393 12164 10254 12395 
1687 1356 1390 1357 12390 10479 12391 12395 10254 10480 
1357 1390 1688 1391 10480 12396 12397 10486 10488 12398 
1654 1688 1655 1357 12399 12400 12174 12164 12397 12169 
1357 1390 1687 1688 10480 12391 12395 12397 12396 12401 
1654 1688 1357 1687 12399 12397 12164 12393 12401 12395 
1655 1357 1688 1358 12169 12397 12400 12171 10261 12402 
1688 1357 1391 1358 12397 10486 12398 12402 10261 10487 
1358 1391 1689 1392 10487 12403 12404 10493 10495 12405 
1655 1689 1656 1358 12406 12407 12181 12171 12404 12176 
1358 1391 1688 1689 10487 12398 12402 12404 12403 12408 
1655 1689 1358 1688 12406 12404 12171 12400 12408 12402 
1656 1358 1689 1359 12176 12404 12407 12178 10268 12409 
1689 1358 1392 1359 12404 10493 12405 12409 10268 10494 
1359 1392 1690 1393 10494 12410 12411 10500 10502 12412 
1656 1690 1657 1359 12413 12414 12188 12178 12411 12183 
1359 1392 1689 1690 10494 12405 12409 12411 12410 12415 
1656 1690 1359 1689 12413 12411 12178 12407 12415 12409 
1657 1359 1690 1360 12183 12411 12414 12185 10275 12416 
1690 1359 1393 1360 12411 10500 12412 12416 10275 10501 
1360 1393 1691 1394 10501 12417 12418 10507 10509 12419 
1657 1691 1658 1360 12420 12421 12195 12185 12418 12190 
1360 1393 1690 1691 10501 12412 12416 12418 12417 12422 
1657 1691 1360 1690 12420 12418 12185 12414 12422 12416 
1658 1360 1691 1361 12190 12418 12421 12192 10282 12423 
1691 1360 1394 1361 12418 10507 12419 12423 10282 10508 
1361 1394 1692 1395 10508 12424 12425 10514 10516 12426 
1658 1692 1659 1361 12427 12428 12202 12192 12425 12197 
1361 1394 1691 1692 10508 12419 12423 12425 12424 12429 
1658 1692 1361 1691 12427 12425 12192 12421 12429 12423 
1659 1361 1692 1362 12197 12425 12428 12199 10289 12430 
1692 1361 1395 1362 12425 10514 12426 12430 10289 10515 
1362 1395 1693 1396 10515 12431 12432 10521 10523 12433 
1659 1693 1660 1362 12434 12435 12209 12199 12432 12204 
1362 1395 1692 1693 10515 12426 12430 12432 12431 12436 
1659 1693 1362 1692 12434 12432 12199 12428 12436 12430 
1660 1362 1693 1363 12204 12432 12435 12206 10296 12437 
1693 1362 1396 1363 12432 10521 12433 12437 10296 10522 
1363 1396 1694 1397 10522 12438 12439 10528 10530 12440 
1660 1694 1661 1363 12441 12442 12216 12206 12439 12211 
1363 1396 1693 1694 10522 12433 12437 12439 12438 12443 
1660 1694 1363 1693 12441 12439 12206 12435 12443 12437 
1661 1363 1694 1364 12211 12439 12442 12213 10303 12444 
1694 1363 1397 1364 12439 10528 12440 12444 10303 10529 
1364 1397 1695 1398 10529 12445 12446 10535 10537 12447 
1661 1695 1662 1364 12448 12449 12223 12213 12446 12218 
1364 1397 1694 1695 10529 12440 12444 12446 12445 12450 
1661 1695 1364 1694 12448 12446 12213 12442 12450 12444 
1662 1364 1695 1365 12218 12446 12449 12220 10310 12451 
1695 1364 1398 1365 12446 10535 12447 12451 10310 10536 
1365 1398 1696 1399 10536 12452 12453 10542 10544 12454 
1662 1696 1663 1365 12455 12456 12230 12220 12453 12225 
1365 1398 1695 1696 10536 12447 12451 12453 12452 12457 
1662 1696 1365 1695 12455 12453 12220 12449 12457 12451 
1663 1365 1696 1366 12225 12453 12456 12227 10317 12458 
1696 1365 1399 1366 12453 10542 12454 12458 10317 10543 
1366 1399 1697 1400 10543 12459 12460 10549 10551 12461 
1663 1697 1664 1366 12462 12463 12237 12227 12460 12232 
1366 1399 1696 1697 10543 12454 12458 12460 12459 12464 
1663 1697 1366 1696 12462 12460 12227 12456 12464 12458 
1664 1366 1697 1367 12232 12460 12463 12234 10324 12465 
1697 1366 1400 1367 12460 10549 12461 12465 10324 10550 
1367 1400 1698 1401 10550 12466 12467 10556 10558 12468 
1664 1698 1665 1367 12469 12470 12244 12234 12467 12239 
1367 1400 1697 1698 10550 12461 12465 12467 12466 12471 
1664 1698 1367 1697 12469 12467 12234 12463 12471 12465 
1665 1367 1698 1368 12239 12467 12470 12241 10331 12472 
1698 1367 1401 1368 12467 10556 12468 12472 10331 10557 
1368 1401 1699 1402 10557 12473 12474 10563 10565 12475 
1665 1699 1666 1368 12476 12477 12251 12241 12474 12246 
1368 1401 1698 1699 10557 12468 12472 12474 12473 12478 
1665 1699 1368 1698 12476 12474 12241 12470 12478 12472 
1666 1368 1699 1369 12246 12474 12477 12248 10338 12479 
1699 1368 1402 1369 12474 10563 12475 12479 10338 10564 
1369 1402 1700 1403 10564 12480 12481 10570 10572 12482 
1666 1700 1667 1369 12483 12484 12258 12248 12481 12253 
1369 1402 1699 1700 10564 12475 12479 12481 12480 12485 
1666 1700 1369 1699 12483 12481 12248 12477 12485 12479 
1667 1369 1700 1370 12253 12481 12484 12255 10345 12486 
1700 1369 1403 1370 12481 10570 12482 12486 10345 10571 
1370 1403 1701 1404 10571 12487 12488 10577 10579 12489 
1667 1701 1668 1370 12490 12491 12265 12255 12488 12260 
1370 1403 1700 1701 10571 12482 12486 12488 12487 12492 
1667 1701 1370 1700 12490 12488 12255 12484 12492 12486 
1668 1370 1701 1371 12260 12488 12491 12262 10352 12493 
1701 1370 1404 1371 12488 10577 12489 12493 10352 10578 
1371 1404 1702 1405 10578 12494 12495 10584 10586 12496 
1668 1702 1669 1371 12497 12498 12272 12262 12495 12267 
1371 1404 1701 1702 10578 12489 12493 12495 12494 12499 
1668 1702 1371 1701 12497 12495 12262 12491 12499 12493 
1669 1371 1702 1372 12267 12495 12498 12269 10359 12500 
1702 1371 1405 1372 12495 10584 12496 12500 10359 10585 
1372 1405 1703 1406 10585 12501 12502 10591 10593 12503 
1669 1703 1670 1372 12504 12505 12279 12269 12502 12274 
1372 1405 1702 1703 10585 12496 12500 12502 12501 12506 
1669 1703 1372 1702 12504 12502 12269 12498 12506 12500 
1670 1372 1703 1373 12274 12502 12505 12276 10366 12507 
1703 1372 1406 1373 12502 10591 12503 12507 10366 10592 
1373 1406 1704 1407 10592 12508 12509 10598 10600 12510 
1670 1704 1671 1373 12511 12512 12286 12276 12509 12281 
1373 1406 1703 1704 10592 12503 12507 12509 12508 12513 
1670 1704 1373 1703 12511 12509 12276 12505 12513 12507 
1671 1373 1704 1374 12281 12509 12512 12283 10373 12514 
1704 1373 1407 1374 12509 10598 12510 12514 10373 10599 
1374 1407 1705 1408 10599 12515 12516 10605 10607 12517 
1671 1705 1672 1374 12518 12519 12293 12283 12516 12288 
1374 1407 1704 1705 10599 12510 12514 12516 12515 12520 
1671 1705 1374 1704 12518 12516 12283 12512 12520 12514 
1672 1374 1705 1375 12288 12516 12519 12290 10380 12521 
1705 1374 1408 1375 12516 10605 12517 12521 10380 10606 
1375 1408 1706 1409 10606 12522 12523 10612 10614 12524 
1672 1706 1673 1375 12525 12526 12300 12290 12523 12295 
1375 1408 1705 1706 10606 12517 12521 12523 12522 12527 
1672 1706 1375 1705 12525 12523 12290 12519 12527 12521 
1673 1375 1706 1376 12295 12523 12526 12297 10387 12528 
1706 1375 1409 1376 12523 10612 12524 12528 10387 10613 
1376 1409 1707 1410 10613 12529 12530 10619 10621 12531 
1673 1707 1674 1376 12532 12533 12307 12297 12530 12302 
1376 1409 1706 1707 10613 12524 12528 12530 12529 12534 
1673 1707 1376 1706 12532 12530 12297 12526 12534 12528 
1674 1376 1707 1377 12302 12530 12533 12304 10394 12535 
1707 1376 1410 1377 12530 10619 12531 12535 10394 10620 
1377 1410 1708 1411 10620 12536 12537 10626 10628 12538 
1674 1708 1675 1377 12539 12540 12314 12304 12537 12309 
1377 1410 1707 1708 10620 12531 12535 12537 12536 12541 
1674 1708 1377 1707 12539 12537 12304 12533 12541 12535 
1675 1377 1708 1378 12309 12537 12540 12311 10401 12542 
1708 1377 1411 1378 12537 10626 12538 12542 10401 10627 
1378 1411 1709 1412 10627 12543 12544 10633 10635 12545 
1675 1709 1676 1378 12546 12547 12321 12311 12544 12316 
1378 1411 1708 1709 10627 12538 12542 12544 12543 12548 
1675 1709 1378 1708 12546 12544 12311 12540 12548 12542 
1676 1378 1709 1379 12316 12544 12547 12318 10408 12549 
1709 1378 1412 1379 12544 10633 12545 12549 10408 10634 
1379 1412 1710 1413 10634 12550 12551 10640 10642 12552 
1676 1710 1677 1379 12553 12554 12328 12318 12551 12323 
1379 1412 1709 1710 10634 12545 12549 12551 12550 12555 
1676 1710 1379 1709 12553 12551 12318 12547 12555 12549 
1677 1379 1710 1380 12323 12551 12554 12325 10415 12556 
1710 1379 1413 1380 12551 10640 12552 12556 10415 10641 
1380 1413 1711 1414 10641 12557 12558 10647 10649 12559 
1677 1711 1678 1380 12560 12561 12335 12325 12558 12330 
1380 1413 1710 1711 10641 12552 12556 12558 12557 12562 
1677 1711 1380 1710 12560 12558 12325 12554 12562 12556 
1678 1380 1711 1381 12330 12558 12561 12332 10422 12563 
1711 1380 1414 1381 12558 10647 12559 12563 10422 10648 
1381 1414 1712 1415 10648 12564 12565 10654 10656 12566 
1678 1712 1679 1381 12567 12568 12342 12332 12565 12337 
1381 1414 1711 1712 10648 12559 12563 12565 12564 12569 
1678 1712 1381 1711 12567 12565 12332 12561 12569 12563 
1679 1381 1712 1382 12337 12565 12568 12339 10429 12570 
1712 1381 1415 1382 12565 10654 12566 12570 10429 10655 
1382 1415 1713 1416 10655 12571 12572 10661 10663 12573 
1679 1713 1680 1382 12574 12575 12349 12339 12572 12344 
1382 1415 1712 1713 10655 12566 12570 12572 12571 12576 
1679 1713 1382 1712 12574 12572 12339 12568 12576 12570 
1680 1382 1713 1383 12344 12572 12575 12346 10436 12577 
1713 1382 1416 1383 12572 10661 12573 12577 10436 10662 
1383 1416 1714 1417 10662 12578 12579 10668 10670 12580 
1680 1714 1681 1383 12581 12582 12356 12346 12579 12351 
1383 1416 1713 1714 10662 12573 12577 12579 12578 12583 
1680 1714 1383 1713 12581 12579 12346 12575 12583 12577 
1681 1383 1714 1384 12351 12579 12582 12353 10443 12584 
1714 1383 1417 1384 12579 10668 12580 12584 10443 10669 
1384 1417 1715 1418 10669 12585 12586 10675 10677 12587 
1681 1715 1682 1384 12588 12589 12363 12353 12586 12358 
1384 1417 1714 1715 10669 12580 12584 12586 12585 12590 
1681 1715 1384 1714 12588 12586 12353 12582 12590 12584 
1682 1384 1715 1385 12358 12586 12589 12360 10450 12591 
1715 1384 1418 1385 12586 10675 12587 12591 10450 10676 
1386 1419 1717 1420 10687 12592 12593 10682 10686 12594 
1683 1717 1684 1386 12595 12596 12372 12370 12593 12365 
1386 1419 1716 1717 10687 12597 12598 12593 12592 12599 
1683 1717 1386 1716 12595 12593 12370 12600 12599 12598 
1684 1386 1717 1387 12365 12593 12596 12367 10459 12601 
1717 1386 1420 1387 12593 10682 12594 12601 10459 10683 
1387 1420 1718 1421 10683 12602 12603 10692 10694 12604 
1684 1718 1685 1387 12605 12606 12380 12367 12603 12375 
1387 1420 1717 1718 10683 12594 12601 12603 12602 12607 
1684 1718 1387 1717 12605 12603 12367 12596 12607 12601 
1685 1387 1718 1388 12375 12603 12606 12377 10467 12608 
1718 1387 1421 1388 12603 10692 12604 12608 10467 10693 
1388 1421 1719 1422 10693 12609 12610 10699 10701 12611 
1685 1719 1686 1388 12612 12613 12387 12377 12610 12382 
1388 1421 1718 1719 10693 12604 12608 12610 12609 12614 
1685 1719 1388 1718 12612 12610 12377 12606 12614 12608 
1686 1388 1719 1389 12382 12610 12613 12384 10474 12615 
1719 1388 1422 1389 12610 10699 12611 12615 10474 10700 
1389 1422 1720 1423 10700 12616 12617 10706 10708 12618 
1686 1720 1687 1389 12619 12620 12394 12384 12617 12389 
1389 1422 1719 1720 10700 12611 12615 12617 12616 12621 
1686 1720 1389 1719 12619 12617 12384 12613 12621 12615 
1687 1389 1720 1390 12389 12617 12620 12391 10481 12622 
1720 1389 1423 1390 12617 10706 12618 12622 10481 10707 
1390 1423 1721 1424 10707 12623 12624 10713 10715 12625 
1687 1721 1688 1390 12626 12627 12401 12391 12624 12396 
1390 1423 1720 1721 10707 12618 12622 12624 12623 12628 
1687 1721 1390 1720 12626 12624 12391 12620 12628 12622 
1688 1390 1721 1391 12396 12624 12627 12398 10488 12629 
1721 1390 1424 1391 12624 10713 12625 12629 10488 10714 
1391 1424 1722 1425 10714 12630 12631 10720 10722 12632 
1688 1722 1689 1391 12633 12634 12408 12398 12631 12403 
1391 1424 1721 1722 10714 12625 12629 12631 12630 12635 
1688 1722 1391 1721 12633 12631 12398 12627 12635 12629 
1689 1391 1722 1392 12403 12631 12634 12405 10495 12636 
1722 1391 1425 1392 12631 10720 12632 12636 10495 10721 
1392 1425 1723 1426 10721 12637 12638 10727 10729 12639 
1689 1723 1690 1392 12640 12641 12415 12405 12638 12410 
1392 1425 1722 1723 10721 12632 12636 12638 12637 12642 
1689 1723 1392 1722 12640 12638 12405 12634 12642 12636 
1690 1392 1723 1393 12410 12638 12641 12412 10502 12643 
1723 1392 1426 1393 12638 10727 12639 12643 10502 10728 
1393 1426 1724 1427 10728 12644 12645 10734 10736 12646 
1690 1724 1691 1393 12647 12648 12422 12412 12645 12417 
1393 1426 1723 1724 10728 12639 12643 12645 12644 12649 
1690 1724 1393 1723 12647 12645 12412 12641 12649 12643 
1691 1393 1724 1394 12417 12645 12648 12419 10509 12650 
1724 1393 1427 1394 12645 10734 12646 12650 10509 10735 
1394 1427 1725 1428 10735 12651 12652 10741 10743 12653 
1691 1725 1692 1394 12654 12655 12429 12419 12652 12424 
1394 1427 1724 1725 10735 12646 12650 12652 12651 12656 
1691 1725 1394 1724 12654 12652 12419 12648 12656 12650 
1692 1394 1725 1395 12424 12652 12655 12426 10516 12657 
1725 1394 1428 1395 12652 10741 12653 12657 10516 10742 
1395 1428 1726 1429 10742 12658 12659 10748 10750 12660 
1692 1726 1693 1395 12661 12662 12436 12426 12659 12431 
1395 1428 1725 1726 10742 12653 12657 12659 12658 12663 
1692 1726 1395 1725 12661 12659 12426 12655 12663 12657 
1693 1395 1726 1396 12431 12659 12662 12433 10523 12664 
1726 1395 1429 1396 12659 10748 12660 12664 10523 10749 
1396 1429 1727 1430 10749 12665 12666 10755 10757 12667 
1693 1727 1694 1396 12668 12669 12443 12433 12666 12438 
1396 1429 1726 1727 10749 12660 12664 12666 12665 12670 
1693 1727 1396 1726 12668 12666 12433 12662 12670 12664 
1694 1396 1727 1397 12438 12666 12669 12440 10530 12671 
1727 1396 1430 1397 12666 10755 12667 12671 10530 10756 
1397 1430 1728 1431 10756 12672 12673 10762 10764 12674 
1694 1728 1695 1397 12675 12676 12450 12440 12673 12445 
1397 1430 1727 1728 10756 12667 12671 12673 12672 12677 
1694 1728 1397 1727 12675 12673 12440 12669 12677 12671 
1695 1397 1728 1398 12445 12673 12676 12447 10537 12678 
1728 1397 1431 1398 12673 10762 12674 12678 10537 10763 
1398 1431 1729 1432 10763 12679 12680 10769 10771 12681 
1695 1729 1696 1398 12682 12683 12457 12447 12680 12452 
1398 1431 1728 1729 10763 12674 12678 12680 12679 12684 
1695 1729 1398 1728 12682 12680 12447 12676 12684 12678 
1696 1398 1729 1399 12452 12680 12683 12454 10544 12685 
1729 1398 1432 1399 12680 10769 12681 12685 10544 10770 
1399 1432 1730 1433 10770 12686 12687 10776 10778 12688 
1696 1730 1697 1399 12689 12690 12464 12454 12687 12459 
1399 1432 1729 1730 10770 12681 12685 12687 12686 12691 
1696 1730 1399 1729 12689 12687 12454 12683 12691 12685 
1697 1399 1730 1400 12459 12687 12690 12461 10551 12692 
1730 1399 1433 1400 12687 10776 12688 12692 10551 10777 
1400 1433 1731 1434 10777 12693 12694 10783 10785 12695 
1697 1731 1698 1400 12696 12697 12471 12461 12694 12466 
1400 1433 1730 1731 10777 12688 12692 12694 12693 12698 
1697 1731 1400 1730 12696 12694 12461 12690 12698 12692 
1698 1400 1731 1401 12466 12694 12697 12468 10558 12699 
1731 1400 1434 1401 12694 10783 12695 12699 10558 10784 
1401 1434 1732 1435 10784 12700 12701 10790 10792 12702 
1698 1732 1699 1401 12703 12704 12478 12468 12701 12473 
1401 1434 1731 1732 10784 12695 12699 12701 12700 12705 
1698 1732 1401 1731 12703 12701 12468 12697 12705 12699 
1699 1401 1732 1402 12473 12701 12704 12475 10565 12706 
1732 1401 1435 1402 12701 10790 12702 12706 10565 10791 
1402 1435 1733 1436 10791 12707 12708 10797 10799 12709 
1699 1733 1700 1402 12710 12711 12485 12475 12708 12480 
1402 1435 1732 1733 10791 12702 12706 12708 12707 12712 
1699 1733 1402 1732 12710 12708 12475 12704 12712 12706 
1700 1402 1733 1403 12480 12708 12711 12482 10572 12713 
1733 1402 1436 1403 12708 10797 12709 12713 10572 10798 
1403 1436 1734 1437 10798 12714 12715 10804 10806 12716 
1700 1734 1701 1403 12717 12718 12492 12482 12715 12487 
1403 1436 1733 1734 10798 12709 12713 12715 12714 12719 
1700 1734 1403 1733 12717 12715 12482 12711 12719 12713 
1701 1403 1734 1404 12487 12715 12718 12489 10579 12720 
1734 1403 1437 1404 12715 10804 12716 12720 10579 10805 
1404 1437 1735 1438 10805 12721 12722 10811 10813 12723 
1701 1735 1702 1404 12724 12725 12499 12489 12722 12494 
1404 1437 1734 1735 10805 12716 12720 12722 12721 12726 
1701 1735 1404 1734 12724 12722 12489 12718 12726 12720 
1702 1404 1735 1405 12494 12722 12725 12496 10586 12727 
1735 1404 1438 1405 12722 10811 12723 12727 10586 10812 
1405 1438 1736 1439 10812 12728 12729 10818 10820 12730 
1702 1736 1703 1405 12731 12732 12506 12496 12729 12501 
1405 1438 1735 1736 10812 12723 12727 12729 12728 12733 
1702 1736 1405 1735 12731 12729 12496 12725 12733 12727 
1703 1405 1736 1406 12501 12729 12732 12503 10593 12734 
1736 1405 1439 1406 12729 10818 12730 12734 10593 10819 
1406 1439 1737 1440 10819 12735 12736 10825 10827 12737 
1703 1737 1704 1406 12738 12739 12513 12503 12736 12508 
1406 1439 1736 1737 10819 12730 12734 12736 12735 12740 
1703 1737 1406 1736 12738 12736 12503 12732 12740 12734 
1704 1406 1737 1407 12508 12736 12739 12510 10600 12741 
1737 1406 1440 1407 12736 10825 12737 12741 10600 10826 
1407 1440 1738 1441 10826 12742 12743 10832 10834 12744 
1704 1738 1705 1407 12745 12746 12520 12510 12743 12515 
1407 1440 1737 1738 10826 12737 12741 12743 12742 12747 
1704 1738 1407 1737 12745 12743 12510 12739 12747 12741 
1705 1407 1738 1408 12515 12743 12746 12517 10607 12748 
1738 1407 1441 1408 12743 10832 12744 12748 10607 10833 
1408 1441 1739 1442 10833 12749 12750 10839 10841 12751 
1705 1739 1706 1408 12752 12753 12527 12517 12750 12522 
1408 1441 1738 1739 10833 12744 12748 12750 12749 12754 
1705 1739 1408 1738 12752 12750 12517 12746 12754 12748 
1706 1408 1739 1409 12522 12750 12753 12524 10614 12755 
1739 1408 1442 1409 12750 10839 12751 12755 10614 10840 
1409 1442 1740 1443 10840 12756 12757 10846 10848 12758 
1706 1740 1707 1409 12759 12760 12534 12524 12757 12529 
1409 1442 1739 1740 10840 12751 12755 12757 12756 12761 
1706 1740 1409 1739 12759 12757 12524 12753 12761 12755 
1707 1409 1740 1410 12529 12757 12760 12531 10621 12762 
1740 1409 1443 1410 12757 10846 12758 12762 10621 10847 
1410 1443 1741 1444 10847 12763 12764 10853 10855 12765 
1707 1741 1708 1410 12766 12767 12541 12531 12764 12536 
1410 1443 1740 1741 10847 12758 12762 12764 12763 12768 
1707 1741 1410 1740 12766 12764 12531 12760 12768 12762 
1708 1410 1741 1411 12536 12764 12767 12538 10628 12769 
1741 1410 1444 1411 12764 10853 12765 12769 10628 10854 
1411 1444 1742 1445 10854 12770 12771 10860 10862 12772 
1708 1742 1709 1411 12773 12774 12548 12538 12771 12543 
1411 1444 1741 1742 10854 12765 12769 12771 12770 12775 
1708 1742 1411 1741 12773 12771 12538 12767 12775 12769 
1709 1411 1742 1412 12543 12771 12774 12545 10635 12776 
1742 1411 1445 1412 12771 10860 12772 12776 10635 10861 
1412 1445 1743 1446 10861 12777 12778 10867 10869 12779 
1709 1743 1710 1412 12780 12781 12555 12545 12778 12550 
1412 1445 1742 1743 10861 12772 12776 12778 12777 12782 
1709 1743 1412 1742 12780 12778 12545 12774 12782 12776 
1710 1412 1743 1413 12550 12778 12781 12552 10642 12783 
1743 1412 1446 1413 12778 10867 12779 12783 10642 10868 
1413 1446 1744 1447 10868 12784 12785 10874 10876 12786 
1710 1744 1711 1413 12787 12788 12562 12552 12785 12557 
1413 1446 1743 1744 10868 12779 12783 12785 12784 12789 
1710 1744 1413 1743 12787 12785 12552 12781 12789 12783 
1711 1413 1744 1414 12557 12785 12788 12559 10649 12790 
1744 1413 1447 1414 12785 10874 12786 12790 10649 10875 
1414 1447 1745 1448 10875 12791 12792 10881 10883 12793 
1711 1745 1712 1414 12794 12795 12569 12559 12792 12564 
1414 1447 1744 1745 10875 12786 12790 12792 12791 12796 
1711 1745 1414 1744 12794 12792 12559 12788 12796 12790 
1712 1414 1745 1415 12564 12792 12795 12566 10656 12797 
1745 1414 1448 1415 12792 10881 12793 12797 10656 10882 
1415 1448 1746 1449 10882 12798 12799 10888 10890 12800 
1712 1746 1713 1415 12801 12802 12576 12566 12799 12571 
1415 1448 1745 1746 10882 12793 12797 12799 12798 12803 
1712 1746 1415 1745 12801 12799 12566 12795 12803 12797 
1713 1415 1746 1416 12571 12799 12802 12573 10663 12804 
1746 1415 1449 1416 12799 10888 12800 12804 10663 10889 
1416 1449 1747 1450 10889 12805 12806 10895 10897 12807 
1713 1747 1714 1416 12808 12809 12583 12573 12806 12578 
1416 1449 1746 1747 10889 12800 12804 12806 12805 12810 
1713 1747 1416 1746 12808 12806 12573 12802 12810 12804 
1714 1416 1747 1417 12578 12806 12809 12580 10670 12811 
1747 1416 1450 1417 12806 10895 12807 12811 10670 10896 
1417 1450 1748 1451 10896 12812 12813 10902 10904 12814 
1714 1748 1715 1417 12815 12816 12590 12580 12813 12585 
1417 1450 1747 1748 10896 12807 12811 12813 12812 12817 
1714 1748 1417 1747 12815 12813 12580 12809 12817 12811 
1715 1417 1748 1418 12585 12813 12816 12587 10677 12818 
1748 1417 1451 1418 12813 10902 12814 12818 10677 10903 
1419 1452 1750 1453 10914 12819 12820 10909 10913 12821 
1716 1750 1717 1419 12822 12823 12599 12597 12820 12592 
1419 1452 1749 1750 10914 12824 12825 12820 12819 12826 
1716 1750 1419 1749 12822 12820 12597 12827 12826 12825 
1717 1419 1750 1420 12592 12820 12823 12594 10686 12828 
1750 1419 1453 1420 12820 10909 12821 12828 10686 10910 
1420 1453 1751 1454 10910 12829 12830 10919 10921 12831 
1717 1751 1718 1420 12832 12833 12607 12594 12830 12602 
1420 1453 1750 1751 10910 12821 12828 12830 12829 12834 
1717 1751 1420 1750 12832 12830 12594 12823 12834 12828 
1718 1420 1751 1421 12602 12830 12833 12604 10694 12835 
1751 1420 1454 1421 12830 10919 12831 12835 10694 10920 
1421 1454 1752 1455 10920 12836 12837 10926 10928 12838 
1718 1752 1719 1421 12839 12840 12614 12604 12837 12609 
1421 1454 1751 1752 10920 12831 12835 12837 12836 12841 
1718 1752 1421 1751 12839 12837 12604 12833 12841 12835 
1719 1421 1752 1422 12609 12837 12840 12611 10701 12842 
1752 1421 1455 1422 12837 10926 12838 12842 10701 10927 
1422 1455 1753 1456 10927 12843 12844 10933 10935 12845 
1719 1753 1720 1422 12846 12847 12621 12611 12844 12616 
1422 1455 1752 1753 10927 12838 12842 12844 12843 12848 
1719 1753 1422 1752 12846 12844 12611 12840 12848 12842 
1720 1422 1753 1423 12616 12844 12847 12618 10708 12849 
1753 1422 1456 1423 12844 10933 12845 12849 10708 10934 
1423 1456 1754 1457 10934 12850 12851 10940 10942 12852 
1720 1754 1721 1423 12853 12854 12628 12618 12851 12623 
1423 1456 1753 1754 10934 12845 12849 12851 12850 12855 
1720 1754 1423 1753 12853 12851 12618 12847 12855 12849 
1721 1423 1754 1424 12623 12851 12854 12625 10715 12856 
1754 1423 1457 1424 12851 10940 12852 12856 10715 10941 
1424 1457 1755 1458 10941 12857 12858 10947 10949 12859 
1721 1755 1722 1424 12860 12861 12635 12625 12858 12630 
1424 1457 1754 1755 10941 12852 12856 12858 12857 12862 
1721 1755 1424 1754 12860 12858 12625 12854 12862 12856 
1722 1424 1755 1425 12630 12858 12861 12632 10722 12863 
1755 1424 1458 1425 12858 10947 12859 12863 10722 10948 
1425 1458 1756 1459 10948 12864 12865 10954 10956 12866 
1722 1756 1723 1425 12867 12868 12642 12632 12865 12637 
1425 1458 1755 1756 10948 12859 12863 12865 12864 12869 
1722 1756 1425 1755 12867 12865 12632 12861 12869 12863 
1723 1425 1756 1426 12637 12865 12868 12639 10729 12870 
1756 1425 1459 1426 12865 10954 12866 12870 10729 10955 
1426 1459 1757 1460 10955 12871 12872 10961 10963 12873 
1723 1757 1724 1426 12874 12875 12649 12639 12872 12644 
1426 1459 1756 1757 10955 12866 12870 12872 12871 12876 
1723 1757 1426 1756 12874 12872 12639 12868 12876 12870 
1724 1426 1757 1427 12644 12872 12875 12646 10736 12877 
1757 1426 1460 1427 12872 10961 12873 12877 10736 10962 
1427 1460 1758 1461 10962 12878 12879 10968 10970 12880 
1724 1758 1725 1427 12881 12882 12656 12646 12879 12651 
1427 1460 1757 1758 10962 12873 12877 12879 12878 12883 
1724 1758 1427 1757 12881 12879 12646 12875 12883 12877 
1725 1427 1758 1428 12651 12879 12882 12653 10743 12884 
1758 1427 1461 1428 12879 10968 12880 12884 10743 10969 
1428 1461 1759 1462 10969 12885 12886 10975 10977 12887 
1725 1759 1726 1428 12888 12889 12663 12653 12886 12658 
1428 1461 1758 1759 10969 12880 12884 12886 12885 12890 
1725 1759 1428 1758 12888 12886 12653 12882 12890 12884 
1726 1428 1759 1429 12658 12886 12889 12660 10750 12891 
1759 1428 1462 1429 12886 10975 12887 12891 10750 10976 
1429 1462 1760 1463 10976 12892 12893 10982 10984 12894 
1726 1760 1727 1429 12895 12896 12670 12660 12893 12665 
1429 1462 1759 1760 10976 12887 12891 12893 12892 12897 
1726 1760 1429 1759 12895 12893 12660 12889 12897 12891 
1727 1429 1760 1430 12665 12893 12896 12667 10757 12898 
1760 1429 1463 1430 12893 10982 12894 12898 10757 10983 
1430 1463 1761 1464 10983 12899 12900 10989 10991 12901 
1727 1761 1728 1430 12902 12903 12677 12667 12900 12672 
1430 1463 1760 1761 10983 12894 12898 12900 12899 12904 
1727 1761 1430 1760 12902 12900 12667 12896 12904 12898 
1728 1430 1761 1431 12672 12900 12903 12674 10764 12905 
1761 1430 1464 1431 12900 10989 12901 12905 10764 10990 
1431 1464 1762 1465 10990 12906 12907 10996 10998 12908 
1728 1762 1729 1431 12909 12910 12684 12674 12907 12679 
1431 1464 1761 1762 10990 12901 12905 12907 12906 12911 
1728 1762 1431 1761 12909 12907 12674 12903 12911 12905 
1729 1431 1762 1432 12679 12907 12910 12681 10771 12912 
1762 1431 1465 1432 12907 10996 12908 12912 10771 10997 
1432 1465 1763 1466 10997 12913 12914 11003 11005 12915 
1729 1763 1730 1432 12916 12917 12691 12681 12914 12686 
1432 1465 1762 1763 10997 12908 12912 12914 12913 12918 
1729 1763 1432 1762 12916 12914 12681 12910 12918 12912 
1730 1432 1763 1433 12686 12914 12917 12688 10778 12919 
1763 1432 1466 1433 12914 11003 12915 12919 10778 11004 
1433 1466 1764 1467 11004 12920 12921 11010 11012 12922 
1730 1764 1731 1433 12923 12924 12698 12688 12921 12693 
1433 1466 1763 1764 11004 12915 12919 12921 12920 12925 
1730 1764 1433 1763 12923 12921 12688 12917 12925 12919 
1731 1433 1764 1434 12693 12921 12924 12695 10785 12926 
1764 1433 1467 1434 12921 11010 12922 12926 10785 11011 
1434 1467 1765 1468 11011 12927 12928 11017 11019 12929 
1731 1765 1732 1434 12930 12931 12705 12695 12928 12700 
1434 1467 1764 1765 11011 12922 12926 12928 12927 12932 
1731 1765 1434 1764 12930 12928 12695 12924 12932 12926 
1732 1434 1765 1435 12700 12928 12931 12702 10792 12933 
1765 1434 1468 1435 12928 11017 12929 12933 10792 11018 
1435 1468 1766 1469 11018 12934 12935 11024 11026 12936 
1732 1766 1733 1435 12937 12938 12712 12702 12935 12707 
1435 1468 1765 1766 11018 12929 12933 12935 12934 12939 
1732 1766 1435 1765 12937 12935 12702 12931 12939 12933 
1733 1435 1766 1436 12707 12935 12938 12709 10799 12940 
1766 1435 1469 1436 12935 11024 12936 12940 10799 11025 
1436 1469 1767 1470 11025 12941 12942 11031 11033 12943 
1733 1767 1734 1436 12944 12945 12719 12709 12942 12714 
1436 1469 1766 1767 11025 12936 12940 12942 12941 12946 
1733 1767 1436 1766 12944 12942 12709 12938 12946 12940 
1734 1436 1767 1437 12714 12942 12945 12716 10806 12947 
1767 1436 1470 1437 12942 11031 12943 12947 10806 11032 
1437 1470 1768 1471 11032 12948 12949 11038 11040 12950 
1734 1768 1735 1437 12951 12952 12726 12716 12949 12721 
1437 1470 1767 1768 11032 12943 12947 12949 12948 12953 
1734 1768 1437 1767 12951 12949 12716 12945 12953 12947 
1735 1437 1768 1438 12721 12949 12952 12723 10813 12954 
1768 1437 1471 1438 12949 11038 12950 12954 10813 11039 
1438 1471 1769 1472 11039 12955 12956 11045 11047 12957 
1735 1769 1736 1438 12958 12959 12733 12723 12956 12728 
1438 1471 1768 1769 11039 12950 12954 12956 12955 12960 
1735 1769 1438 1768 12958 12956 12723 12952 12960 12954 
1736 1438 1769 1439 12728 12956 12959 12730 10820 12961 
1769 1438 1472 1439 12956 11045 12957 12961 10820 11046 
1439 1472 1770 1473 11046 12962 12963 11052 11054 12964 
1736 1770 1737 1439 12965 12966 12740 12730 12963 12735 
1439 1472 1769 1770 11046 12957 12961 12963 12962 12967 
1736 1770 1439 1769 12965 12963 12730 12959 12967 12961 
1737 1439 1770 1440 12735 12963 12966 12737 10827 12968 
1770 1439 1473 1440 12963 11052 12964 12968 10827 11053 
1440 1473 1771 1474 11053 12969 12970 11059 11061 12971 
1737 1771 1738 1440 12972 12973 12747 12737 12970 12742 
1440 1473 1770 1771 11053 12964 12968 12970 12969 12974 
1737 1771 1440 1770 12972 12970 12737 12966 12974 12968 
1738 1440 1771 1441 12742 12970 12973 12744 10834 12975 
1771 1440 1474 1441 12970 11059 12971 12975 10834 11060 
1441 1474 1772 1475 11060 12976 12977 11066 11068 12978 
1738 1772 1739 1441 12979 12980 12754 12744 12977 12749 
1441 1474 1771 1772 11060 12971 12975 12977 12976 12981 
1738 1772 1441 1771 12979 12977 12744 12973 12981 12975 
1739 1441 1772 1442 12749 12977 12980 12751 10841 12982 
1772 1441 1475 1442 12977 11066 12978 12982 10841 11067 
1442 1475 1773 1476 11067 12983 12984 11073 11075 12985 
1739 1773 1740 1442 12986 12987 12761 12751 12984 12756 
1442 1475 1772 1773 11067 12978 12982 12984 12983 12988 
1739 1773 1442 1772 12986 12984 12751 12980 12988 12982 
1740 1442 1773 1443 12756 12984 12987 12758 10848 12989 
1773 1442 1476 1443 12984 11073 12985 12989 10848 11074 
1443 1476 1774 1477 11074 12990 12991 11080 11082 12992 
1740 1774 1741 1443 12993 12994 12768 12758 12991 12763 
1443 1476 1773 1774 11074 12985 12989 12991 12990 12995 
1740 1774 1443 1773 12993 12991 12758 12987 12995 12989 
1741 1443 1774 1444 12763 12991 12994 12765 10855 12996 
1774 1443 1477 1444 12991 11080 12992 12996 10855 11081 
1444 1477 1775 1478 11081 12997 12998 11087 11089 12999 
1741 1775 1742 1444 13000 13001 12775 12765 12998 12770 
1444 1477 1774 1775 11081 12992 12996 12998 12997 13002 
1741 1775 1444 1774 13000 12998 12765 12994 13002 12996 
1742 1444 1775 1445 12770 12998 13001 12772 10862 13003 
1775 1444 1478 1445 12998 11087 12999 13003 10862 11088 
1445 1478 1776 1479 11088 13004 13005 11094 11096 13006 
1742 1776 1743 1445 13007 13008 12782 12772 13005 12777 
1445 1478 1775 1776 11088 12999 13003 13005 13004 13009 
1742 1776 1445 1775 13007 13005 12772 13001 13009 13003 
1743 1445 1776 1446 12777 13005 13008 12779 10869 13010 
1776 1445 1479 1446 13005 11094 13006 13010 10869 11095 
1446 1479 1777 1480 11095 13011 13012 11101 11103 13013 
1743 1777 1744 1446 13014 13015 12789 12779 13012 12784 
1446 1479 1776 1777 11095 13006 13010 13012 13011 13016 
1743 1777 1446 1776 13014 13012 12779 13008 13016 13010 
1744 1446 1777 1447 12784 13012 13015 12786 10876 13017 
1777 1446 1480 1447 13012 11101 13013 13017 10876 11102 
1447 1480 1778 1481 11102 13018 13019 11108 11110 13020 
1744 1778 1745 1447 13021 13022 12796 12786 13019 12791 
1447 1480 1777 1778 11102 13013 13017 13019 13018 13023 
1744 1778 1447 1777 13021 13019 12786 13015 13023 13017 
1745 1447 1778 1448 12791 13019 13022 12793 10883 13024 
1778 1447 1481 1448 13019 11108 13020 13024 10883 11109 
1448 1481 1779 1482 11109 13025 13026 11115 11117 13027 
1745 1779 1746 1448 13028 13029 12803 12793 13026 12798 
1448 1481 1778 1779 11109 13020 13024 13026 13025 13030 
1745 1779 1448 1778 13028 13026 12793 13022 13030 13024 
1746 1448 1779 1449 12798 13026 13029 12800 10890 13031 
1779 1448 1482 1449 13026 11115 13027 13031 10890 11116 
1449 1482 1780 1483 11116 13032 13033 11122 11124 13034 
1746 1780 1747 1449 13035 13036 12810 12800 13033 12805 
1449 1482 1779 1780 11116 13027 13031 13033 13032 13037 
1746 1780 1449 1779 13035 13033 12800 13029 13037 13031 
1747 1449 1780 1450 12805 13033 13036 12807 10897 13038 
1780 1449 1483 1450 13033 11122 13034 13038 10897 11123 
1450 1483 1781 1484 11123 13039 13040 11129 11131 13041 
1747 1781 1748 1450 13042 13043 12817 12807 13040 12812 
1450 1483 1780 1781 11123 13034 13038 13040 13039 13044 
1747 1781 1450 1780 13042 13040 12807 13036 13044 13038 
1748 1450 1781 1451 12812 13040 13043 12814 10904 13045 
1781 1450 1484 1451 13040 11129 13041 13045 10904 11130 
1485 1518 1816 1519 11144 13046 13047 11136 11143 13048 
1782 1816 1783 1485 13049 13050 13051 13052 13047 13053 
1485 1518 1815 1816 11144 13054 13055 13047 13046 13056 
1782 1816 1485 1815 13049 13047 13052 13057 13056 13055 
1783 1485 1816 1486 13053 13047 13050 13058 11138 13059 
1816 1485 1519 1486 13047 11136 13048 13059 11138 11137 
1486 1519 1817 1520 11137 13060 13061 11150 11154 13062 
1783 1817 1784 1486 13063 13064 13065 13058 13061 13066 
1486 1519 1816 1817 11137 13048 13059 13061 13060 13067 
1783 1817 1486 1816 13063 13061 13058 13050 13067 13059 
1784 1486 1817 1487 13066 13061 13064 13068 11152 13069 
1817 1486 1520 1487 13061 11150 13062 13069 11152 11151 
1487 1520 1818 1521 11151 13070 13071 11160 11164 13072 
1784 1818 1785 1487 13073 13074 13075 13068 13071 13076 
1487 1520 1817 1818 11151 13062 13069 13071 13070 13077 
1784 1818 1487 1817 13073 13071 13068 13064 13077 13069 
1785 1487 1818 1488 13076 13071 13074 13078 11162 13079 
1818 1487 1521 1488 13071 11160 13072 13079 11162 11161 
1488 1521 1819 1522 11161 13080 13081 11170 11174 13082 
1785 1819 1786 1488 13083 13084 13085 13078 13081 13086 
1488 1521 1818 1819 11161 13072 13079 13081 13080 13087 
1785 1819 1488 1818 13083 13081 13078 13074 13087 13079 
1786 1488 1819 1489 13086 13081 13084 13088 11172 13089 
1819 1488 1522 1489 13081 11170 13082 13089 11172 11171 
1489 1522 1820 1523 11171 13090 13091 11180 11184 13092 
1786 1820 1787 1489 13093 13094 13095 13088 13091 13096 
1489 1522 1819 1820 11171 13082 13089 13091 13090 13097 
1786 1820 1489 1819 13093 13091 13088 13084 13097 13089 
1787 1489 1820 1490 13096 13091 13094 13098 11182 13099 
1820 1489 1523 1490 13091 11180 13092 13099 11182 11181 
1490 1523 1821 1524 11181 13100 13101 11190 11194 13102 
1787 1821 1788 1490 13103 13104 13105 13098 13101 13106 
1490 1523 1820 1821 11181 13092 13099 13101 13100 13107 
1787 1821 1490 1820 13103 13101 13098 13094 13107 13099 
1788 1490 1821 1491 13106 13101 13104 13108 11192 13109 
1821 1490 1524 1491 13101 11190 13102 13109 11192 11191 
1491 1524 1822 1525 11191 13110 13111 11200 11204 13112 
1788 1822 1789 1491 13113 13114 13115 13108 13111 13116 
1491 1524 1821 1822 11191 13102 13109 13111 13110 13117 
1788 1822 1491 1821 13113 13111 13108 13104 13117 13109 
1789 1491 1822 1492 13116 13111 13114 13118 11202 13119 
1822 1491 1525 1492 13111 11200 13112 13119 11202 11201 
1492 1525 1823 1526 11201 13120 13121 11210 11214 13122 
1789 1823 1790 1492 13123 13124 13125 13118 13121 13126 
1492 1525 1822 1823 11201 13112 13119 13121 13120 13127 
1789 1823 1492 1822 13123 13121 13118 13114 13127 13119 
1790 1492 1823 1493 13126 13121 13124 13128 11212 13129 
1823 1492 1526 1493 13121 11210 13122 13129 11212 11211 
1493 1526 1824 1527 11211 13130 13131 11220 11224 13132 
1790 1824 1791 1493 13133 13134 13135 13128 13131 13136 
1493 1526 1823 1824 11211 13122 13129 13131 13130 13137 
1790 1824 1493 1823 13133 13131 13128 13124 13137 13129 
1791 1493 1824 1494 13136 13131 13134 13138 11222 13139 
1824 1493 1527 1494 13131 11220 13132 13139 11222 11221 
1494 1527 1825 1528 11221 13140 13141 11230 11234 13142 
1791 1825 1792 1494 13143 13144 13145 13138 13141 13146 
1494 1527 1824 1825 11221 13132 13139 13141 13140 13147 
1791 1825 1494 1824 13143 13141 13138 13134 13147 13139 
1792 1494 1825 1495 13146 13141 13144 13148 11232 13149 
1825 1494 1528 1495 13141 11230 13142 13149 11232 11231 
1495 1528 1826 1529 11231 13150 13151 11240 11244 13152 
1792 1826 1793 1495 13153 13154 13155 13148 13151 13156 
1495 1528 1825 1826 11231 13142 13149 13151 13150 13157 
1792 1826 1495 1825 13153 13151 13148 13144 13157 13149 
1793 1495 1826 1496 13156 13151 13154 13158 11242 13159 
1826 1495 1529 1496 13151 11240 13152 13159 11242 11241 
1496 1529 1827 1530 11241 13160 13161 11250 11254 13162 
1793 1827 1794 1496 13163 13164 13165 13158 13161 13166 
1496 1529 1826 1827 11241 13152 13159 13161 13160 13167 
1793 1827 1496 1826 13163 13161 13158 13154 13167 13159 
1794 1496 1827 1497 13166 13161 13164 13168 11252 13169 
1827 1496 1530 1497 13161 11250 13162 13169 11252 11251 
1497 1530 1828 1531 11251 13170 13171 11260 11264 13172 
1794 1828 1795 1497 13173 13174 13175 13168 13171 13176 
1497 1530 1827 1828 11251 13162 13169 13171 13170 13177 
1794 1828 1497 1827 13173 13171 13168 13164 13177 13169 
1795 1497 1828 1498 13176 13171 13174 13178 11262 13179 
1828 1497 1531 1498 13171 11260 13172 13179 11262 11261 
1498 1531 1829 1532 11261 13180 13181 11270 11274 13182 
1795 1829 1796 1498 13183 13184 13185 13178 13181 13186 
1498 1531 1828 1829 11261 13172 13179 13181 13180 13187 
1795 1829 1498 1828 13183 13181 13178 13174 13187 13179 
1796 1498 1829 1499 13186 13181 13184 13188 11272 13189 
1829 1498 1532 1499 13181 11270 13182 13189 11272 11271 
1499 1532 1830 1533 11271 13190 13191 11280 11284 13192 
1796 1830 1797 1499 13193 13194 13195 13188 13191 13196 
1499 1532 1829 1830 11271 13182 13189 13191 13190 13197 
1796 1830 1499 1829 13193 13191 13188 13184 13197 13189 
1797 1499 1830 1500 13196 13191 13194 13198 11282 13199 
1830 1499 1533 1500 13191 11280 13192 13199 11282 11281 
1500 1533 1831 1534 11281 13200 13201 11290 11294 13202 
1797 1831 1798 1500 13203 13204 13205 13198 13201 13206 
1500 1533 1830 1831 11281 13192 13199 13201 13200 13207 
1797 1831 1500 1830 13203 13201 13198 13194 13207 13199 
1798 1500 1831 1501 13206 13201 13204 13208 11292 13209 
1831 1500 1534 1501 13201 11290 13202 13209 11292 11291 
1501 1534 1832 1535 11291 13210 13211 11300 11304 13212 
1798 1832 1799 1501 13213 13214 13215 13208 13211 13216 
1501 1534 1831 1832 11291 13202 13209 13211 13210 13217 
1798 1832 1501 1831 13213 13211 13208 13204 13217 13209 
1799 1501 1832 1502 13216 13211 13214 13218 11302 13219 
1832 1501 1535 1502 13211 11300 13212 13219 11302 11301 
1502 1535 1833 1536 11301 13220 13221 11310 11314 13222 
1799 1833 1800 1502 13223 13224 13225 13218 13221 13226 
1502 1535 1832 1833 11301 13212 13219 13221 13220 13227 
1799 1833 1502 1832 13223 13221 13218 13214 13227 13219 
1800 1502 1833 1503 13226 13221 13224 13228 11312 13229 
1833 1502 1536 1503 13221 11310 13222 13229 11312 11311 
1503 1536 1834 1537 11311 13230 13231 11320 11324 13232 
1800 1834 1801 1503 13233 13234 13235 13228 13231 13236 
1503 1536 1833 1834 11311 13222 13229 13231 13230 13237 
1800 1834 1503 1833 13233 13231 13228 13224 13237 13229 
1801 1503 1834 1504 13236 13231 13234 13238 11322 13239 
1834 1503 1537 1504 13231 11320 13232 13239 11322 11321 
1504 1537 1835 1538 11321 13240 13241 11330 11334 13242 
1801 1835 1802 1504 13243 13244 13245 13238 13241 13246 
1504 1537 1834 1835 11321 13232 13239 13241 13240 13247 
1801 1835 1504 1834 13243 13241 13238 13234 13247 13239 
1802 1504 1835 1505 13246 13241 13244 13248 11332 13249 
1835 1504 1538 1505 13241 11330 13242 13249 11332 11331 
1505 1538 1836 1539 11331 13250 13251 11340 11344 13252 
1802 1836 1803 1505 13253 13254 13255 13248 13251 13256 
1505 1538 1835 1836 11331 13242 13249 13251 13250 13257 
1802 1836 1505 1835 13253 13251 13248 13244 13257 13249 
1803 1505 1836 1506 13256 13251 13254 13258 11342 13259 
1836 1505 1539 1506 13251 11340 13252 13259 11342 11341 
1506 1539 1837 1540 11341 13260 13261 11350 11354 13262 
1803 1837 1804 1506 13263 13264 13265 13258 13261 13266 
1506 1539 1836 1837 11341 13252 13259 13261 13260 13267 
1803 1837 1506 1836 13263 13261 13258 13254 13267 13259 
1804 1506 1837 1507 13266 13261 13264 13268 11352 13269 
1837 1506 1540 1507 13261 11350 13262 13269 11352 11351 
1507 1540 1838 1541 11351 13270 13271 11360 11364 13272 
1804 1838 1805 1507 13273 13274 13275 13268 13271 13276 
1507 1540 1837 1838 11351 13262 13269 13271 13270 13277 
1804 1838 1507 1837 13273 13271 13268 13264 13277 13269 
1805 1507 1838 1508 13276 13271 13274 13278 11362 13279 
1838 1507 1541 1508 13271 11360 13272 13279 11362 11361 
1508 1541 1839 1542 11361 13280 13281 11370 11374 13282 
1805 1839 1806 1508 13283 13284 13285 13278 13281 13286 
1508 1541 1838 1839 11361 13272 13279 13281 13280 13287 
1805 1839 1508 1838 13283 13281 13278 13274 13287 13279 
1806 1508 1839 1509 13286 13281 13284 13288 11372 13289 
1839 1508 1542 1509 13281 11370 13282 13289 11372 11371 
1509 1542 1840 1543 11371 13290 13291 11380 11384 13292 
1806 1840 1807 1509 13293 13294 13295 13288 13291 13296 
1509 1542 1839 1840 11371 13282 13289 13291 13290 13297 
1806 1840 1509 1839 13293 13291 13288 13284 13297 13289 
1807 1509 1840 1510 13296 13291 13294 13298 11382 13299 
1840 1509 1543 1510 13291 11380 13292 13299 11382 11381 
1510 1543 1841 1544 11381 13300 13301 11390 11394 13302 
1807 1841 1808 1510 13303 13304 13305 13298 13301 13306 
1510 1543 1840 1841 11381 13292 13299 13301 13300 13307 
1807 1841 1510 1840 13303 13301 13298 13294 13307 13299 
1808 1510 1841 1511 13306 13301 13304 13308 11392 13309 
1841 1510 1544 1511 13301 11390 13302 13309 11392 11391 
1511 1544 1842 1545 11391 13310 13311 11400 11404 13312 
1808 1842 1809 1511 13313 13314 13315 13308 13311 13316 
1511 1544 1841 1842 11391 13302 13309 13311 13310 13317 
1808 1842 1511 1841 13313 13311 13308 13304 13317 13309 
1809 1511 1842 1512 13316 13311 13314 13318 11402 13319 
1842 1511 1545 1512 13311 11400 13312 13319 11402 11401 
1512 1545 1843 1546 11401 13320 13321 11410 11414 13322 
1809 1843 1810 1512 13323 13324 13325 13318 13321 13326 
1512 1545 1842 1843 11401 13312 13319 13321 13320 13327 
1809 1843 1512 1842 13323 13321 13318 13314 13327 13319 
1810 1512 1843 1513 13326 13321 13324 13328 11412 13329 
1843 1512 1546 1513 13321 11410 13322 13329 11412 11411 
1513 1546 1844 1547 11411 13330 13331 11420 11424 13332 
1810 1844 1811 1513 13333 13334 13335 13328 13331 13336 
1513 1546 1843 1844 11411 13322 13329 13331 13330 13337 
1810 1844 1513 1843 13333 13331 13328 13324 13337 13329 
1811 1513 1844 1514 13336 13331 13334 13338 11422 13339 
1844 1513 1547 1514 13331 11420 13332 13339 11422 11421 
1514 1547 1845 1548 11421 13340 13341 11430 11434 13342 
1811 1845 1812 1514 13343 13344 13345 13338 13341 13346 
1514 1547 1844 1845 11421 13332 13339 13341 13340 13347 
1811 1845 1514 1844 13343 13341 13338 13334 13347 13339 
1812 1514 1845 1515 13346 13341 13344 13348 11432 13349 
1845 1514 1548 1515 13341 11430 13342 13349 11432 11431 
1515 1548 1846 1549 11431 13350 13351 11440 11444 13352 
1812 1846 1813 1515 13353 13354 13355 13348 13351 13356 
1515 1548 1845 1846 11431 13342 13349 13351 13350 13357 
1812 1846 1515 1845 13353 13351 13348 13344 13357 13349 
1813 1515 1846 1516 13356 13351 13354 13358 11442 13359 
1846 1515 1549 1516 13351 11440 13352 13359 11442 11441 
1516 1549 1847 1550 11441 13360 13361 11450 11454 13362 
1813 1847 1814 1516 13363 13364 13365 13358 13361 13366 
1516 1549 1846 1847 11441 13352 13359 13361 13360 13367 
1813 1847 1516 1846 13363 13361 13358 13354 13367 13359 
1814 1516 1847 1517 13366 13361 13364 13368 11452 13369 
1847 1516 1550 1517 13361 11450 13362 13369 11452 11451 
1518 1551 1849 1552 11465 13370 13371 11460 11464 13372 
1815 1849 1816 1518 13373 13374 13056 13054 13371 13046 
1518 1551 1848 1849 11465 13375 13376 13371 13370 13377 
1815 1849 1518 1848 13373 13371 13054 13378 13377 13376 
1816 1518 1849 1519 13046 13371 13374 13048 11143 13379 
1849 1518 1552 1519 13371 11460 13372 13379 11143 11461 
1519 1552 1850 1553 11461 13380 13381 11470 11472 13382 
1816 1850 1817 1519 13383 13384 13067 13048 13381 13060 
1519 1552 1849 1850 11461 13372 13379 13381 13380 13385 
1816 1850 1519 1849 13383 13381 13048 13374 13385 13379 
1817 1519 1850 1520 13060 13381 13384 13062 11154 13386 
1850 1519 1553 1520 13381 11470 13382 13386 11154 11471 
1520 1553 1851 1554 11471 13387 13388 11477 11479 13389 
1817 1851 1818 1520 13390 13391 13077 13062 13388 13070 
1520 1553 1850 1851 11471 13382 13386 13388 13387 13392 
1817 1851 1520 1850 13390 13388 13062 13384 13392 13386 
1818 1520 1851 1521 13070 13388 13391 13072 11164 13393 
1851 1520 1554 1521 13388 11477 13389 13393 11164 11478 
1521 1554 1852 1555 11478 13394 13395 11484 11486 13396 
1818 1852 1819 1521 13397 13398 13087 13072 13395 13080 
1521 1554 1851 1852 11478 13389 13393 13395 13394 13399 
1818 1852 1521 1851 13397 13395 13072 13391 13399 13393 
1819 1521 1852 1522 13080 13395 13398 13082 11174 13400 
1852 1521 1555 1522 13395 11484 13396 13400 11174 11485 
1522 1555 1853 1556 11485 13401 13402 11491 11493 13403 
1819 1853 1820 1522 13404 13405 13097 13082 13402 13090 
1522 1555 1852 1853 11485 13396 13400 13402 13401 13406 
1819 1853 1522 1852 13404 13402 13082 13398 13406 13400 
1820 1522 1853 1523 13090 13402 13405 13092 11184 13407 
1853 1522 1556 1523 13402 11491 13403 13407 11184 11492 
1523 1556 1854 1557 11492 13408 13409 11498 11500 13410 
1820 1854 1821 1523 13411 13412 13107 13092 13409 13100 
1523 1556 1853 1854 11492 13403 13407 13409 13408 13413 
1820 1854 1523 1853 13411 13409 13092 13405 13413 13407 
1821 1523 1854 1524 13100 13409 13412 13102 11194 13414 
1854 1523 1557 1524 13409 11498 13410 13414 11194 11499 
1524 1557 1855 1558 11499 13415 13416 11505 11507 13417 
1821 1855 1822 1524 13418 13419 13117 13102 13416 13110 
1524 1557 1854 1855 11499 13410 13414 13416 13415 13420 
1821 1855 1524 1854 13418 13416 13102 13412 13420 13414 
1822 1524 1855 1525 13110 13416 13419 13112 11204 13421 
1855 1524 1558 1525 13416 11505 13417 13421 11204 11506 
1525 1558 1856 1559 11506 13422 13423 11512 11514 13424 
1822 1856 1823 1525 13425 13426 13127 13112 13423 13120 
1525 1558 1855 1856 11506 13417 13421 13423 13422 13427 
1822 1856 1525 1855 13425 13423 13112 13419 13427 13421 
1823 1525 1856 1526 13120 13423 13426 13122 11214 13428 
1856 1525 1559 1526 13423 11512 13424 13428 11214 11513 
1526 1559 1857 1560 11513 13429 13430 11519 11521 13431 
1823 1857 1824 1526 13432 13433 13137 13122 13430 13130 
1526 1559 1856 1857 11513 13424 13428 13430 13429 13434 
1823 1857 1526 1856 13432 13430 13122 13426 13434 13428 
1824 1526 1857 1527 13130 13430 13433 13132 11224 13435 
1857 1526 1560 1527 13430 11519 13431 13435 11224 11520 
1527 1560 1858 1561 11520 13436 13437 11526 11528 13438 
1824 1858 1825 1527 13439 13440 13147 13132 13437 13140 
1527 1560 1857 1858 11520 13431 13435 13437 13436 13441 
1824 1858 1527 1857 13439 13437 13132 13433 13441 13435 
1825 1527 1858 1528 13140 13437 13440 13142 11234 13442 
1858 1527 1561 1528 13437 11526 13438 13442 11234 11527 
1528 1561 1859 1562 11527 13443 13444 11533 11535 13445 
1825 1859 1826 1528 13446 13447 13157 13142 13444 13150 
1528 1561 1858 1859 11527 13438 13442 13444 13443 13448 
1825 1859 1528 1858 13446 13444 13142 13440 13448 13442 
1826 1528 1859 1529 13150 13444 13447 13152 11244 13449 
1859 1528 1562 1529 13444 11533 13445 13449 11244 11534 
1529 1562 1860 1563 11534 13450 13451 11540 11542 13452 
1826 1860 1827 1529 13453 13454 13167 13152 13451 13160 
1529 1562 1859 1860 11534 13445 13449 13451 13450 13455 
1826 1860 1529 1859 13453 13451 13152 13447 13455 13449 
1827 1529 1860 1530 13160 13451 13454 13162 11254 13456 
1860 1529 1563 1530 13451 11540 13452 13456 11254 11541 
1530 1563 1861 1564 11541 13457 13458 11547 11549 13459 
1827 1861 1828 1530 13460 13461 13177 13162 13458 13170 
1530 1563 1860 1861 11541 13452 13456 13458 13457 13462 
1827 1861 1530 1860 13460 13458 13162 13454 13462 13456 
1828 1530 1861 1531 13170 13458 13461 13172 11264 13463 
1861 1530 1564 1531 13458 11547 13459 13463 11264 11548 
1531 1564 1862 1565 11548 13464 13465 11554 11556 13466 
1828 1862 1829 1531 13467 13468 13187 13172 13465 13180 
1531 1564 1861 1862 11548 13459 13463 13465 13464 13469 
1828 1862 1531 1861 13467 13465 13172 13461 13469 13463 
1829 1531 1862 1532 13180 13465 13468 13182 11274 13470 
1862 1531 1565 1532 13465 11554 13466 13470 11274 11555 
1532 1565 1863 1566 11555 13471 13472 11561 11563 13473 
1829 1863 1830 1532 13474 13475 13197 13182 13472 13190 
1532 1565 1862 1863 11555 13466 13470 13472 13471 13476 
1829 1863 1532 1862 13474 13472 13182 13468 13476 13470 
1830 1532 1863 1533 13190 13472 13475 13192 11284 13477 
1863 1532 1566 1533 13472 11561 13473 13477 11284 11562 
1533 1566 1864 1567 11562 13478 13479 11568 11570 13480 
1830 1864 1831 1533 13481 13482 13207 13192 13479 13200 
1533 1566 1863 1864 11562 13473 13477 13479 13478 13483 
1830 1864 1533 1863 13481 13479 13192 13475 13483 13477 
1831 1533 1864 1534 13200 13479 13482 13202 11294 13484 
1864 1533 1567 1534 13479 11568 13480 13484 11294 11569 
1534 1567 1865 1568 11569 13485 13486 11575 11577 13487 
1831 1865 1832 1534 13488 13489 13217 13202 13486 13210 
1534 1567 1864 1865 11569 13480 13484 13486 13485 13490 
1831 1865 1534 1864 13488 13486 13202 13482 13490 13484 
1832 1534 1865 1535 13210 13486 13489 13212 11304 13491 
1865 1534 1568 1535 13486 11575 13487 13491 11304 11576 
1535 1568 1866 1569 11576 13492 13493 11582 11584 13494 
1832 1866 1833 1535 13495 13496 13227 13212 13493 13220 
1535 1568 1865 1866 11576 13487 13491 13493 13492 13497 
1832 1866 1535 1865 13495 13493 13212 13489 13497 13491 
1833 1535 1866 1536 13220 13493 13496 13222 11314 13498 
1866 1535 1569 1536 13493 11582 13494 13498 11314 11583 
1536 1569 1867 1570 11583 13499 13500 11589 11591 13501 
1833 1867 1834 1536 13502 13503 13237 13222 13500 13230 
1536 1569 1866 1867 11583 13494 13498 13500 13499 13504 
1833 1867 1536 1866 13502 13500 13222 13496 13504 13498 
1834 1536 1867 1537 13230 13500 13503 13232 11324 13505 
1867 1536 1570 1537 13500 11589 13501 13505 11324 11590 
1537 1570 1868 1571 11590 13506 13507 11596 11598 13508 
1834 1868 1835 1537 13509 13510 13247 13232 13507 13240 
1537 1570 1867 1868 11590 13501 13505 13507 13506 13511 
1834 1868 1537 1867 13509 13507 13232 13503 13511 13505 
1835 1537 1868 1538 13240 13507 13510 13242 11334 13512 
1868 1537 1571 1538 13507 11596 13508 13512 11334 11597 
1538 1571 1869 1572 11597 13513 13514 11603 11605 13515 
1835 1869 1836 1538 13516 13517 13257 13242 13514 13250 
1538 1571 1868 1869 11597 13508 13512 13514 13513 13518 
1835 1869 1538 1868 13516 13514 13242 13510 13518 13512 
1836 1538 1869 1539 13250 13514 13517 13252 11344 13519 
1869 1538 1572 1539 13514 11603 13515 13519 11344 11604 
1539 1572 1870 1573 11604 13520 13521 11610 11612 13522 
1836 1870 1837 1539 13523 13524 13267 13252 13521 13260 
1539 1572 1869 1870 11604 13515 13519 13521 13520 13525 
1836 1870 1539 1869 13523 13521 13252 13517 13525 13519 
1837 1539 1870 1540 13260 13521 13524 13262 11354 13526 
1870 1539 1573 1540 13521 11610 13522 13526 11354 11611 
1540 1573 1871 1574 11611 13527 13528 11617 11619 13529 
1837 1871 1838 1540 13530 13531 13277 13262 13528 13270 
1540 1573 1870 1871 11611 13522 13526 13528 13527 13532 
1837 1871 1540 1870 13530 13528 13262 13524 13532 13526 
1838 1540 1871 1541 13270 13528 13531 13272 11364 13533 
1871 1540 1574 1541 13528 11617 13529 13533 11364 11618 
1541 1574 1872 1575 11618 13534 13535 11624 11626 13536 
1838 1872 1839 1541 13537 13538 13287 13272 13535 13280 
1541 1574 1871 1872 11618 13529 13533 13535 13534 13539 
1838 1872 1541 1871 13537 13535 13272 13531 13539 13533 
1839 1541 1872 1542 13280 13535 13538 13282 11374 13540 
1872 1541 1575 1542 13535 11624 13536 13540 11374 11625 
1542 1575 1873 1576 11625 13541 13542 11631 11633 13543 
1839 1873 1840 1542 13544 13545 13297 13282 13542 13290 
1542 1575 1872 1873 11625 13536 13540 13542 13541 13546 
1839 1873 1542 1872 13544 13542 13282 13538 13546 13540 
1840 1542 1873 1543 13290 13542 13545 13292 11384 13547 
1873 1542 1576 1543 13542 11631 13543 13547 11384 11632 
1543 1576 1874 1577 11632 13548 13549 11638 11640 13550 
1840 1874 1841 1543 13551 13552 13307 13292 13549 13300 
1543 1576 1873 1874 11632 13543 13547 13549 13548 13553 
1840 1874 1543 1873 13551 13549 13292 13545 13553 13547 
1841 1543 1874 1544 13300 13549 13552 13302 11394 13554 
1874 1543 1577 1544 13549 11638 13550 13554 11394 11639 
1544 1577 1875 1578 11639 13555 13556 11645 11647 13557 
1841 1875 1842 1544 13558 13559 13317 13302 13556 13310 
1544 1577 1874 1875 11639 13550 13554 13556 13555 13560 
1841 1875 1544 1874 13558 13556 13302 13552 13560 13554 
1842 1544 1875 1545 13310 13556 13559 13312 11404 13561 
1875 1544 1578 1545 13556 11645 13557 13561 11404 11646 
1545 1578 1876 1579 11646 13562 13563 11652 11654 13564 
1842 1876 1843 1545 13565 13566 13327 13312 13563 13320 
1545 1578 1875 1876 11646 13557 13561 13563 13562 13567 
1842 1876 1545 1875 13565 13563 13312 13559 13567 13561 
1843 1545 1876 1546 13320 13563 13566 13322 11414 13568 
1876 1545 1579 1546 13563 11652 13564 13568 11414 11653 
1546 1579 1877 1580 11653 13569 13570 11659 11661 13571 
1843 1877 1844 1546 13572 13573 13337 13322 13570 13330 
1546 1579 1876 1877 11653 13564 13568 13570 13569 13574 
1843 1877 1546 1876 13572 13570 13322 13566 13574 13568 
1844 1546 1877 1547 13330 13570 13573 13332 11424 13575 
1877 1546 1580 1547 13570 11659 13571 13575 11424 11660 
1547 1580 1878 1581 11660 13576 13577 11666 11668 13578 
1844 1878 1845 1547 13579 13580 13347 13332 13577 13340 
1547 1580 1877 1878 11660 13571 13575 13577 13576 13581 
1844 1878 1547 1877 13579 13577 13332 13573 13581 13575 
1845 1547 1878 1548 13340 13577 13580 13342 11434 13582 
1878 1547 1581 1548 13577 11666 13578 13582 11434 11667 
1548 1581 1879 1582 11667 13583 13584 11673 11675 13585 
1845 1879 1846 1548 13586 13587 13357 13342 13584 13350 
1548 1581 1878 1879 11667 13578 13582 13584 13583 13588 
1845 1879 1548 1878 13586 13584 13342 13580 13588 13582 
1846 1548 1879 1549 13350 13584 13587 13352 11444 13589 
1879 1548 1582 1549 13584 11673 13585 13589 11444 11674 
1549 1582 1880 1583 11674 13590 13591 11680 11682 13592 
1846 1880 1847 1549 13593 13594 13367 13352 13591 13360 
1549 1582 1879 1880 11674 13585 13589 13591 13590 13595 
1846 1880 1549 1879 13593 13591 13352 13587 13595 13589 
1847 1549 1880 1550 13360 13591 13594 13362 11454 13596 
1880 1549 1583 1550 13591 11680 13592 13596 11454 11681 
1551 1584 1882 1585 11692 13597 13598 11687 11691 13599 
1848 1882 1849 1551 13600 13601 13377 13375 13598 13370 
1551 1584 1881 1882 11692 13602 13603 13598 13597 13604 
1848 1882 1551 1881 13600 13598 13375 13605 13604 13603 
1849 1551 1882 1552 13370 13598 13601 13372 11464 13606 
1882 1551 1585 1552 13598 11687 13599 13606 11464 11688 
1552 1585 1883 1586 11688 13607 13608 11697 11699 13609 
1849 1883 1850 1552 13610 13611 13385 13372 13608 13380 
1552 1585 1882 1883 11688 13599 13606 13608 13607 13612 
1849 1883 1552 1882 13610 13608 13372 13601 13612 13606 
1850 1552 1883 1553 13380 13608 13611 13382 11472 13613 
1883 1552 1586 1553 13608 11697 13609 13613 11472 11698 
1553 1586 1884 1587 11698 13614 13615 11704 11706 13616 
1850 1884 1851 1553 13617 13618 13392 13382 13615 13387 
1553 1586 1883 1884 11698 13609 13613 13615 13614 13619 
1850 1884 1553 1883 13617 13615 13382 13611 13619 13613 
1851 1553 1884 1554 13387 13615 13618 13389 11479 13620 
1884 1553 1587 1554 13615 11704 13616 13620 11479 11705 
1554 1587 1885 1588 11705 13621 13622 11711 11713 13623 
1851 1885 1852 1554 13624 13625 13399 13389 13622 13394 
1554 1587 1884 1885 11705 13616 13620 13622 13621 13626 
1851 1885 1554 1884 13624 13622 13389 13618 13626 13620 
1852 1554 1885 1555 13394 13622 13625 13396 11486 13627 
1885 1554 1588 1555 13622 11711 13623 13627 11486 11712 
1555 1588 1886 1589 11712 13628 13629 11718 11720 13630 
1852 1886 1853 1555 13631 13632 13406 13396 13629 13401 
1555 1588 1885 1886 11712 13623 13627 13629 13628 13633 
1852 1886 1555 1885 13631 13629 13396 13625 13633 13627 
1853 1555 1886 1556 13401 13629 13632 13403 11493 13634 
1886 1555 1589 1556 13629 11718 13630 13634 11493 11719 
1556 1589 1887 1590 11719 13635 13636 11725 11727 13637 
1853 1887 1854 1556 13638 13639 13413 13403 13636 13408 
1556 1589 1886 1887 11719 13630 13634 13636 13635 13640 
1853 1887 1556 1886 13638 13636 13403 13632 13640 13634 
1854 1556 1887 1557 13408 13636 13639 13410 11500 13641 
1887 1556 1590 1557 13636 11725 13637 13641 11500 11726 
1557 1590 1888 1591 11726 13642 13643 11732 11734 13644 
1854 1888 1855 1557 13645 13646 13420 13410 13643 13415 
1557 1590 1887 1888 11726 13637 13641 13643 13642 13647 
1854 1888 1557 1887 13645 13643 13410 13639 13647 13641 
1855 1557 1888 1558 13415 13643 13646 13417 11507 13648 
1888 1557 1591 1558 13643 11732 13644 13648 11507 11733 
1558 1591 1889 1592 11733 13649 13650 11739 11741 13651 
1855 1889 1856 1558 13652 13653 13427 13417 13650 13422 
1558 1591 1888 1889 11733 13644 13648 13650 13649 13654 
1855 1889 1558 1888 13652 13650 13417 13646 13654 13648 
1856 1558 1889 1559 13422 13650 13653 13424 11514 13655 
1889 1558 1592 1559 13650 11739 13651 13655 11514 11740 
1559 1592 1890 1593 11740 13656 13657 11746 11748 13658 
1856 1890 1857 1559 13659 13660 13434 13424 13657 13429 
1559 1592 1889 1890 11740 13651 13655 13657 13656 13661 
1856 1890 1559 1889 13659 13657 13424 13653 13661 13655 
1857 1559 1890 1560 13429 13657 13660 13431 11521 13662 
1890 1559 1593 1560 13657 11746 13658 13662 11521 11747 
1560 1593 1891 1594 11747 13663 13664 11753 11755 13665 
1857 1891 1858 1560 13666 13667 13441 13431 13664 13436 
1560 1593 1890 1891 11747 13658 13662 13664 13663 13668 
1857 1891 1560 1890 13666 13664 13431 13660 13668 13662 
1858 1560 1891 1561 13436 13664 13667 13438 11528 13669 
1891 1560 1594 1561 13664 11753 13665 13669 11528 11754 
1561 1594 1892 1595 11754 13670 13671 11760 11762 13672 
1858 1892 1859 1561 13673 13674 13448 13438 13671 13443 
1561 1594 1891 1892 11754 13665 13669 13671 13670 13675 
1858 1892 1561 1891 13673 13671 13438 13667 13675 13669 
1859 1561 1892 1562 13443 13671 13674 13445 11535 13676 
1892 1561 1595 1562 13671 11760 13672 13676 11535 11761 
1562 1595 1893 1596 11761 13677 13678 11767 11769 13679 
1859 1893 1860 1562 13680 13681 13455 13445 13678 13450 
1562 1595 1892 1893 11761 13672 13676 13678 13677 13682 
1859 1893 1562 1892 13680 13678 13445 13674 13682 13676 
1860 1562 1893 1563 13450 13678 13681 13452 11542 13683 
1893 1562 1596 1563 13678 11767 13679 13683 11542 11768 
1563 1596 1894 1597 11768 13684 13685 11774 11776 13686 
1860 1894 1861 1563 13687 13688 13462 13452 13685 13457 
1563 1596 1893 1894 11768 13679 13683 13685 13684 13689 
1860 1894 1563 1893 13687 13685 13452 13681 13689 13683 
1861 1563 1894 1564 13457 13685 13688 13459 11549 13690 
1894 1563 1597 1564 13685 11774 13686 13690 11549 11775 
1564 1597 1895 1598 11775 13691 13692 11781 11783 13693 
1861 1895 1862 1564 13694 13695 13469 13459 13692 13464 
1564 1597 1894 1895 11775 13686 13690 13692 13691 13696 
1861 1895 1564 1894 13694 13692 13459 13688 13696 13690 
1862 1564 1895 1565 13464 13692 13695 13466 11556 13697 
1895 1564 1598 1565 13692 11781 13693 13697 11556 11782 
1565 1598 1896 1599 11782 13698 13699 11788 11790 13700 
1862 1896 1863 1565 13701 13702 13476 13466 13699 13471 
1565 1598 1895 1896 11782 13693 13697 13699 13698 13703 
1862 1896 1565 1895 13701 13699 13466 13695 13703 13697 
1863 1565 1896 1566 13471 13699 13702 13473 11563 13704 
1896 1565 1599 1566 13699 11788 13700 13704 11563 11789 
1566 1599 1897 1600 11789 13705 13706 11795 11797 13707 
1863 1897 1864 1566 13708 13709 13483 13473 13706 13478 
1566 1599 1896 1897 11789 13700 13704 13706 13705 13710 
1863 1897 1566 1896 13708 13706 13473 13702 13710 13704 
1864 1566 1897 1567 13478 13706 13709 13480 11570 13711 
1897 1566 1600 1567 13706 11795 13707 13711 11570 11796 
1567 1600 1898 1601 11796 13712 13713 11802 11804 13714 
1864 1898 1865 1567 13715 13716 13490 13480 13713 13485 
1567 1600 1897 1898 11796 13707 13711 13713 13712 13717 
1864 1898 1567 1897 13715 13713 13480 13709 13717 13711 
1865 1567 1898 1568 13485 13713 13716 13487 11577 13718 
1898 1567 1601 1568 13713 11802 13714 13718 11577 11803 
1568 1601 1899 1602 11803 13719 13720 11809 11811 13721 
1865 1899 1866 1568 13722 13723 13497 13487 13720 13492 
1568 1601 1898 1899 11803 13714 13718 13720 13719 13724 
1865 1899 1568 1898 13722 13720 13487 13716 13724 13718 
1866 1568 1899 1569 13492 13720 13723 13494 11584 13725 
1899 1568 1602 1569 13720 11809 13721 13725 11584 11810 
1569 1602 1900 1603 11810 13726 13727 11816 11818 13728 
1866 1900 1867 1569 13729 13730 13504 13494 13727 13499 
1569 1602 1899 1900 11810 13721 13725 13727 13726 13731 
1866 1900 1569 1899 13729 13727 13494 13723 13731 13725 
1867 1569 1900 1570 13499 13727 13730 13501 11591 13732 
1900 1569 1603 1570 13727 11816 13728 13732 11591 11817 
1570 1603 1901 1604 11817 13733 13734 11823 11825 13735 
1867 1901 1868 1570 13736 13737 13511 13501 13734 13506 
1570 1603 1900 1901 11817 13728 13732 13734 13733 13738 
1867 1901 1570 1900 13736 13734 13501 13730 13738 13732 
1868 1570 1901 1571 13506 13734 13737 13508 11598 13739 
1901 1570 1604 1571 13734 11823 13735 13739 11598 11824 
1571 1604 1902 1605 11824 13740 13741 11830 11832 13742 
1868 1902 1869 1571 13743 13744 13518 13508 13741 13513 
1571 1604 1901 1902 11824 13735 13739 13741 13740 13745 
1868 1902 1571 1901 13743 13741 13508 13737 13745 13739 
1869 1571 1902 1572 13513 13741 13744 13515 11605 13746 
1902 1571 1605 1572 13741 11830 13742 13746 11605 11831 
1572 1605 1903 1606 11831 13747 13748 11837 11839 13749 
1869 1903 1870 1572 13750 13751 13525 13515 13748 13520 
1572 1605 1902 1903 11831 13742 13746 13748 13747 13752 
1869 1903 1572 1902 13750 13748 13515 13744 13752 13746 
1870 1572 1903 1573 13520 13748 13751 13522 11612 13753 
1903 1572 1606 1573 13748 11837 13749 13753 11612 11838 
1573 1606 1904 1607 11838 13754 13755 11844 11846 13756 
1870 1904 1871 1573 13757 13758 13532 13522 13755 13527 
1573 1606 1903 1904 11838 13749 13753 13755 13754 13759 
1870 1904 1573 1903 13757 13755 13522 13751 13759 13753 
1871 1573 1904 1574 13527 13755 13758 13529 11619 13760 
1904 1573 1607 1574 13755 11844 13756 13760 11619 11845 
1574 1607 1905 1608 11845 13761 13762 11851 11853 13763 
1871 1905 1872 1574 13764 13765 13539 13529 13762 13534 
1574 1607 1904 1905 11845 13756 13760 13762 13761 13766 
1871 1905 1574 1904 13764 13762 13529 13758 13766 13760 
1872 1574 1905 1575 13534 13762 13765 13536 11626 13767 
1905 1574 1608 1575 13762 11851 13763 13767 11626 11852 
1575 1608 1906 1609 11852 13768 13769 11858 11860 13770 
1872 1906 1873 1575 13771 13772 13546 13536 13769 13541 
1575 1608 1905 1906 11852 13763 13767 13769 13768 13773 
1872 1906 1575 1905 13771 13769 13536 13765 13773 13767 
1873 1575 1906 1576 13541 13769 13772 13543 11633 13774 
1906 1575 1609 1576 13769 11858 13770 13774 11633 11859 
1576 1609 1907 1610 11859 13775 13776 11865 11867 13777 
1873 1907 1874 1576 13778 13779 13553 13543 13776 13548 
1576 1609 1906 1907 11859 13770 13774 13776 13775 13780 
1873 1907 1576 1906 13778 13776 13543 13772 13780 13774 
1874 1576 1907 1577 13548 13776 13779 13550 11640 13781 
1907 1576 1610 1577 13776 11865 13777 13781 11640 11866 
1577 1610 1908 1611 11866 13782 13783 11872 11874 13784 
1874 1908 1875 1577 13785 13786 13560 13550 13783 13555 
1577 1610 1907 1908 11866 13777 13781 13783 13782 13787 
1874 1908 1577 1907 13785 13783 13550 13779 13787 13781 
1875 1577 1908 1578 13555 13783 13786 13557 11647 13788 
1908 1577 1611 1578 13783 11872 13784 13788 11647 11873 
1578 1611 1909 1612 11873 13789 13790 11879 11881 13791 
1875 1909 1876 1578 13792 13793 13567 13557 13790 13562 
1578 1611 1908 1909 11873 13784 13788 13790 13789 13794 
1875 1909 1578 1908 13792 13790 13557 13786 13794 13788 
1876 1578 1909 1579 13562 13790 13793 13564 11654 13795 
1909 1578 1612 1579 13790 11879 13791 13795 11654 11880 
1579 1612 1910 1613 11880 13796 13797 11886 11888 13798 
1876 1910 1877 1579 13799 13800 13574 13564 13797 13569 
1579 1612 1909 1910 11880 13791 13795 13797 13796 13801 
1876 1910 1579 1909 13799 13797 13564 13793 13801 13795 
1877 1579 1910 1580 13569 13797 13800 13571 11661 13802 
1910 1579 1613 1580 13797 11886 13798 13802 11661 11887 
1580 1613 1911 1614 11887 13803 13804 11893 11895 13805 
1877 1911 1878 1580 13806 13807 13581 13571 13804 13576 
1580 1613 1910 1911 11887 13798 13802 13804 13803 13808 
1877 1911 1580 1910 13806 13804 13571 13800 13808 13802 
1878 1580 1911 1581 13576 13804 13807 13578 11668 13809 
1911 1580 1614 1581 13804 11893 13805 13809 11668 11894 
1581 1614 1912 1615 11894 13810 13811 11900 11902 13812 
1878 1912 1879 1581 13813 13814 13588 13578 13811 13583 
1581 1614 1911 1912 11894 13805 13809 13811 13810 13815 
1878 1912 1581 1911 13813 13811 13578 13807 13815 13809 
1879 1581 1912 1582 13583 13811 13814 13585 11675 13816 
1912 1581 1615 1582 13811 11900 13812 13816 11675 11901 
1582 1615 1913 1616 11901 13817 13818 11907 11909 13819 
1879 1913 1880 1582 13820 13821 13595 13585 13818 13590 
1582 1615 1912 1913 11901 13812 13816 13818 13817 13822 
1879 1913 1582 1912 13820 13818 13585 13814 13822 13816 
1880 1582 1913 1583 13590 13818 13821 13592 11682 13823 
1913 1582 1616 1583 13818 11907 13819 13823 11682 11908 
1584 1617 1915 1618 11919 13824 13825 11914 11918 13826 
1881 1915 1882 1584 13827 13828 13604 13602 13825 13597 
1584 1617 1914 1915 11919 13829 13830 13825 13824 13831 
1881 1915 1584 1914 13827 13825 13602 13832 13831 13830 
1882 1584 1915 1585 13597 13825 13828 13599 11691 13833 
1915 1584 1618 1585 13825 11914 13826 13833 11691 11915 
1585 1618 1916 1619 11915 13834 13835 11924 11926 13836 
1882 1916 1883 1585 13837 13838 13612 13599 13835 13607 
1585 1618 1915 1916 11915 13826 13833 13835 13834 13839 
1882 1916 1585 1915 13837 13835 13599 13828 13839 13833 
1883 1585 1916 1586 13607 13835 13838 13609 11699 13840 
1916 1585 1619 1586 13835 11924 13836 13840 11699 11925 
1586 1619 1917 1620 11925 13841 13842 11931 11933 13843 
1883 1917 1884 1586 13844 13845 13619 13609 13842 13614 
1586 1619 1916 1917 11925 13836 13840 13842 13841 13846 
1883 1917 1586 1916 13844 13842 13609 13838 13846 13840 
1884 1586 1917 1587 13614 13842 13845 13616 11706 13847 
1917 1586 1620 1587 13842 11931 13843 13847 11706 11932 
1587 1620 1918 1621 11932 13848 13849 11938 11940 13850 
1884 1918 1885 1587 13851 13852 13626 13616 13849 13621 
1587 1620 1917 1918 11932 13843 13847 13849 13848 13853 
1884 1918 1587 1917 13851 13849 13616 13845 13853 13847 
1885 1587 1918 1588 13621 13849 13852 13623 11713 13854 
1918 1587 1621 1588 13849 11938 13850 13854 11713 11939 
1588 1621 1919 1622 11939 13855 13856 11945 11947 13857 
1885 1919 1886 1588 13858 13859 13633 13623 13856 13628 
1588 1621 1918 1919 11939 13850 13854 13856 13855 13860 
1885 1919 1588 1918 13858 13856 13623 13852 13860 13854 
1886 1588 1919 1589 13628 13856 13859 13630 11720 13861 
1919 1588 1622 1589 13856 11945 13857 13861 11720 11946 
1589 1622 1920 1623 11946 13862 13863 11952 11954 13864 
1886 1920 1887 1589 13865 13866 13640 13630 13863 13635 
1589 1622 1919 1920 11946 13857 13861 13863 13862 13867 
1886 1920 1589 1919 13865 13863 13630 13859 13867 13861 
1887 1589 1920 1590 13635 13863 13866 13637 11727 13868 
1920 1589 1623 1590 13863 11952 13864 13868 11727 11953 
1590 1623 1921 1624 11953 13869 13870 11959 11961 13871 
1887 1921 1888 1590 13872 13873 13647 13637 13870 13642 
1590 1623 1920 1921 11953 13864 13868 13870 13869 13874 
1887 1921 1590 1920 13872 13870 13637 13866 13874 13868 
1888 1590 1921 1591 13642 13870 13873 13644 11734 13875 
1921 1590 1624 1591 13870 11959 13871 13875 11734 11960 
1591 1624 1922 1625 11960 13876 13877 11966 11968 13878 
1888 1922 1889 1591 13879 13880 13654 13644 13877 13649 
1591 1624 1921 1922 11960 13871 13875 13877 13876 13881 
1888 1922 1591 1921 13879 13877 13644 13873 13881 13875 
1889 1591 1922 1592 13649 13877 13880 13651 11741 13882 
1922 1591 1625 1592 13877 11966 13878 13882 11741 11967 
1592 1625 1923 1626 11967 13883 13884 11973 11975 13885 
1889 1923 1890 1592 13886 13887 13661 13651 13884 13656 
1592 1625 1922 1923 11967 13878 13882 13884 13883 13888 
1889 1923 1592 1922 13886 13884 13651 13880 13888 13882 
1890 1592 1923 1593 13656 13884 13887 13658 11748 13889 
1923 1592 1626 1593 13884 11973 13885 13889 11748 11974 
1593 1626 1924 1627 11974 13890 13891 11980 11982 13892 
1890 1924 1891 1593 13893 13894 13668 13658 13891 13663 
1593 1626 1923 1924 11974 13885 13889 13891 13890 13895 
1890 1924 1593 1923 13893 13891 13658 13887 13895 13889 
1891 1593 1924 1594 13663 13891 13894 13665 11755 13896 
1924 1593 1627 1594 13891 11980 13892 13896 11755 11981 
1594 1627 1925 1628 11981 13897 13898 11987 11989 13899 
1891 1925 1892 1594 13900 13901 13675 13665 13898 13670 
1594 1627 1924 1925 11981 13892 13896 13898 13897 13902 
1891 1925 1594 1924 13900 13898 13665 13894 13902 13896 
1892 1594 1925 1595 13670 13898 13901 13672 11762 13903 
1925 1594 1628 1595 13898 11987 13899 13903 11762 11988 
1595 1628 1926 1629 11988 13904 13905 11994 11996 13906 
1892 1926 1893 1595 13907 13908 13682 13672 13905 13677 
1595 1628 1925 1926 11988 13899 13903 13905 13904 13909 
1892 1926 1595 1925 13907 13905 13672 13901 13909 13903 
1893 1595 1926 1596 13677 13905 13908 13679 11769 13910 
1926 1595 1629 1596 13905 11994 13906 13910 11769 11995 
1596 1629 1927 1630 11995 13911 13912 12001 12003 13913 
1893 1927 1894 1596 13914 13915 13689 13679 13912 13684 
1596 1629 1926 1927 11995 13906 13910 13912 13911 13916 
1893 1927 1596 1926 13914 13912 13679 13908 13916 13910 
1894 1596 1927 1597 13684 13912 13915 13686 11776 13917 
1927 1596 1630 1597 13912 12001 13913 13917 11776 12002 
1597 1630 1928 1631 12002 13918 13919 12008 12010 13920 
1894 1928 1895 1597 13921 13922 13696 13686 13919 13691 
1597 1630 1927 1928 12002 13913 13917 13919 13918 13923 
1894 1928 1597 1927 13921 13919 13686 13915 13923 13917 
1895 1597 1928 1598 13691 13919 13922 13693 11783 13924 
1928 1597 1631 1598 13919 12008 13920 13924 11783 12009 
1598 1631 1929 1632 12009 13925 13926 12015 12017 13927 
1895 1929 1896 1598 13928 13929 13703 13693 13926 13698 
1598 1631 1928 1929 12009 13920 13924 13926 13925 13930 
1895 1929 1598 1928 13928 13926 13693 13922 13930 13924 
1896 1598 1929 1599 13698 13926 13929 13700 11790 13931 
1929 1598 1632 1599 13926 12015 13927 13931 11790 12016 
1599 1632 1930 1633 12016 13932 13933 12022 12024 13934 
1896 1930 1897 1599 13935 13936 13710 13700 13933 13705 
1599 1632 1929 1930 12016 13927 13931 13933 13932 13937 
1896 1930 1599 1929 13935 13933 13700 13929 13937 13931 
1897 1599 1930 1600 13705 13933 13936 13707 11797 13938 
1930 1599 1633 1600 13933 12022 13934 13938 11797 12023 
1600 1633 1931 1634 12023 13939 13940 12029 12031 13941 
1897 1931 1898 1600 13942 13943 13717 13707 13940 13712 
1600 1633 1930 1931 12023 13934 13938 13940 13939 13944 
1897 1931 1600 1930 13942 13940 13707 13936 13944 13938 
1898 1600 1931 1601 13712 13940 13943 13714 11804 13945 
1931 1600 1634 1601 13940 12029 13941 13945 11804 12030 
1601 1634 1932 1635 12030 13946 13947 12036 12038 13948 
1898 1932 1899 1601 13949 13950 13724 13714 13947 13719 
1601 1634 1931 1932 12030 13941 13945 13947 13946 13951 
1898 1932 1601 1931 13949 13947 13714 13943 13951 13945 
1899 1601 1932 1602 13719 13947 13950 13721 11811 13952 
1932 1601 1635 1602 13947 12036 13948 13952 11811 12037 
1602 1635 1933 1636 12037 13953 13954 12043 12045 13955 
1899 1933 1900 1602 13956 13957 13731 13721 13954 13726 
1602 1635 1932 1933 12037 13948 13952 13954 13953 13958 
1899 1933 1602 1932 13956 13954 13721 13950 13958 13952 
1900 1602 1933 1603 13726 13954 13957 13728 11818 13959 
1933 1602 1636 1603 13954 12043 13955 13959 11818 12044 
1603 1636 1934 1637 12044 13960 13961 12050 12052 13962 
1900 1934 1901 1603 13963 13964 13738 13728 13961 13733 
1603 1636 1933 1934 12044 13955 13959 13961 13960 13965 
1900 1934 1603 1933 13963 13961 13728 13957 13965 13959 
1901 1603 1934 1604 13733 13961 13964 13735 11825 13966 
1934 1603 1637 1604 13961 12050 13962 13966 11825 12051 
1604 1637 1935 1638 12051 13967 13968 12057 12059 13969 
1901 1935 1902 1604 13970 13971 13745 13735 13968 13740 
1604 1637 1934 1935 12051 13962 13966 13968 13967 13972 
1901 1935 1604 1934 13970 13968 13735 13964 13972 13966 
1902 1604 1935 1605 13740 13968 13971 13742 11832 13973 
1935 1604 1638 1605 13968 12057 13969 13973 11832 12058 
1605 1638 1936 1639 12058 13974 13975 12064 12066 13976 
1902 1936 1903 1605 13977 13978 13752 13742 13975 13747 
1605 1638 1935 1936 12058 13969 13973 13975 13974 13979 
1902 1936 1605 1935 13977 13975 13742 13971 13979 13973 
1903 1605 1936 1606 13747 13975 13978 13749 11839 13980 
1936 1605 1639 1606 13975 12064 13976 13980 11839 12065 
1606 1639 1937 1640 12065 13981 13982 12071 12073 13983 
1903 1937 1904 1606 13984 13985 13759 13749 13982 13754 
1606 1639 1936 1937 12065 13976 13980 13982 13981 13986 
1903 1937 1606 1936 13984 13982 13749 13978 13986 13980 
1904 1606 1937 1607 13754 13982 13985 13756 11846 13987 
1937 1606 1640 1607 13982 12071 13983 13987 11846 12072 
1607 1640 1938 1641 12072 13988 13989 12078 12080 13990 
1904 1938 1905 1607 13991 13992 13766 13756 13989 13761 
1607 1640 1937 1938 12072 13983 13987 13989 13988 13993 
1904 1938 1607 1937 13991 13989 13756 13985 13993 13987 
1905 1607 1938 1608 13761 13989 13992 13763 11853 13994 
1938 1607 1641 1608 13989 12078 13990 13994 11853 12079 
1608 1641 1939 1642 12079 13995 13996 12085 12087 13997 
1905 1939 1906 1608 13998 13999 13773 13763 13996 13768 
1608 1641 1938 1939 12079 13990 13994 13996 13995 14000 
1905 1939 1608 1938 13998 13996 13763 13992 14000 13994 
1906 1608 1939 1609 13768 13996 13999 13770 11860 14001 
1939 1608 1642 1609 13996 12085 13997 14001 11860 12086 
1609 1642 1940 1643 12086 14002 14003 12092 12094 14004 
1906 1940 1907 1609 14005 14006 13780 13770 14003 13775 
1609 1642 1939 1940 12086 13997 14001 14003 14002 14007 
1906 1940 1609 1939 14005 14003 13770 13999 14007 14001 
1907 1609 1940 1610 13775 14003 14006 13777 11867 14008 
1940 1609 1643 1610 14003 12092 14004 14008 11867 12093 
1610 1643 1941 1644 12093 14009 14010 12099 12101 14011 
1907 1941 1908 1610 14012 14013 13787 13777 14010 13782 
1610 1643 1940 1941 12093 14004 14008 14010 14009 14014 
1907 1941 1610 1940 14012 14010 13777 14006 14014 14008 
1908 1610 1941 1611 13782 14010 14013 13784 11874 14015 
1941 1610 1644 1611 14010 12099 14011 14015 11874 12100 
1611 1644 1942 1645 12100 14016 14017 12106 12108 14018 
1908 1942 1909 1611 14019 14020 13794 13784 14017 13789 
1611 1644 1941 1942 12100 14011 14015 14017 14016 14021 
1908 1942 1611 1941 14019 14017 13784 14013 14021 14015 
1909 1611 1942 1612 13789 14017 14020 13791 11881 14022 
1942 1611 1645 1612 14017 12106 14018 14022 11881 12107 
1612 1645 1943 1646 12107 14023 14024 12113 12115 14025 
1909 1943 1910 1612 14026 14027 13801 13791 14024 13796 
1612 1645 1942 1943 12107 14018 14022 14024 14023 14028 
1909 1943 1612 1942 14026 14024 13791 14020 14028 14022 
1910 1612 1943 1613 13796 14024 14027 13798 11888 14029 
1943 1612 1646 1613 14024 12113 14025 14029 11888 12114 
1613 1646 1944 1647 12114 14030 14031 12120 12122 14032 
1910 1944 1911 1613 14033 14034 13808 13798 14031 13803 
1613 1646 1943 1944 12114 14025 14029 14031 14030 14035 
1910 1944 1613 1943 14033 14031 13798 14027 14035 14029 
1911 1613 1944 1614 13803 14031 14034 13805 11895 14036 
1944 1613 1647 1614 14031 12120 14032 14036 11895 12121 
1614 1647 1945 1648 12121 14037 14038 12127 12129 14039 
1911 1945 1912 1614 14040 14041 13815 13805 14038 13810 
1614 1647 1944 1945 12121 14032 14036 14038 14037 14042 
1911 1945 1614 1944 14040 14038 13805 14034 14042 14036 
1912 1614 1945 1615 13810 14038 14041 13812 11902 14043 
1945 1614 1648 1615 14038 12127 14039 14043 11902 12128 
1615 1648 1946 1649 12128 14044 14045 12134 12136 14046 
1912 1946 1913 1615 14047 14048 13822 13812 14045 13817 
1615 1648 1945 1946 12128 14039 14043 14045 14044 14049 
1912 1946 1615 1945 14047 14045 13812 14041 14049 14043 
1913 1615 1946 1616 13817 14045 14048 13819 11909 14050 
1946 1615 1649 1616 14045 12134 14046 14050 11909 12135 
1617 1650 1948 1651 12146 14051 14052 12141 12145 14053 
1914 1948 1915 1617 14054 14055 13831 13829 14052 13824 
1617 1650 1947 1948 12146 14056 14057 14052 14051 14058 
1914 1948 1617 1947 14054 14052 13829 14059 14058 14057 
1915 1617 1948 1618 13824 14052 14055 13826 11918 14060 
1948 1617 1651 1618 14052 12141 14053 14060 11918 12142 
1618 1651 1949 1652 12142 14061 14062 12151 12153 14063 
1915 1949 1916 1618 14064 14065 13839 13826 14062 13834 
1618 1651 1948 1949 12142 14053 14060 14062 14061 14066 
1915 1949 1618 1948 14064 14062 13826 14055 14066 14060 
1916 1618 1949 1619 13834 14062 14065 13836 11926 14067 
1949 1618 1652 1619 14062 12151 14063 14067 11926 12152 
1619 1652 1950 1653 12152 14068 14069 12158 12160 14070 
1916 1950 1917 1619 14071 14072 13846 13836 14069 13841 
1619 1652 1949 1950 12152 14063 14067 14069 14068 14073 
1916 1950 1619 1949 14071 14069 13836 14065 14073 14067 
1917 1619 1950 1620 13841 14069 14072 13843 11933 14074 
1950 1619 1653 1620 14069 12158 14070 14074 11933 12159 
1620 1653 1951 1654 12159 14075 14076 12165 12167 14077 
1917 1951 1918 1620 14078 14079 13853 13843 14076 13848 
1620 1653 1950 1951 12159 14070 14074 14076 14075 14080 
1917 1951 1620 1950 14078 14076 13843 14072 14080 14074 
1918 1620 1951 1621 13848 14076 14079 13850 11940 14081 
1951 1620 1654 1621 14076 12165 14077 14081 11940 12166 
1621 1654 1952 1655 12166 14082 14083 12172 12174 14084 
1918 1952 1919 1621 14085 14086 13860 13850 14083 13855 
1621 1654 1951 1952 12166 14077 14081 14083 14082 14087 
1918 1952 1621 1951 14085 14083 13850 14079 14087 14081 
1919 1621 1952 1622 13855 14083 14086 13857 11947 14088 
1952 1621 1655 1622 14083 12172 14084 14088 11947 12173 
1622 1655 1953 1656 12173 14089 14090 12179 12181 14091 
1919 1953 1920 1622 14092 14093 13867 13857 14090 13862 
1622 1655 1952 1953 12173 14084 14088 14090 14089 14094 
1919 1953 1622 1952 14092 14090 13857 14086 14094 14088 
1920 1622 1953 1623 13862 14090 14093 13864 11954 14095 
1953 1622 1656 1623 14090 12179 14091 14095 11954 12180 
1623 1656 1954 1657 12180 14096 14097 12186 12188 14098 
1920 1954 1921 1623 14099 14100 13874 13864 14097 13869 
1623 1656 1953 1954 12180 14091 14095 14097 14096 14101 
1920 1954 1623 1953 14099 14097 13864 14093 14101 14095 
1921 1623 1954 1624 13869 14097 14100 13871 11961 14102 
1954 1623 1657 1624 14097 12186 14098 14102 11961 12187 
1624 1657 1955 1658 12187 14103 14104 12193 12195 14105 
1921 1955 1922 1624 14106 14107 13881 13871 14104 13876 
1624 1657 1954 1955 12187 14098 14102 14104 14103 14108 
1921 1955 1624 1954 14106 14104 13871 14100 14108 14102 
1922 1624 1955 1625 13876 14104 14107 13878 11968 14109 
1955 1624 1658 1625 14104 12193 14105 14109 11968 12194 
1625 1658 1956 1659 12194 14110 14111 12200 12202 14112 
1922 1956 1923 1625 14113 14114 13888 13878 14111 13883 
1625 1658 1955 1956 12194 14105 14109 14111 14110 14115 
1922 1956 1625 1955 14113 14111 13878 14107 14115 14109 
1923 1625 1956 1626 13883 14111 14114 13885 11975 14116 
1956 1625 1659 1626 14111 12200 14112 14116 11975 12201 
1626 1659 1957 1660 12201 14117 14118 12207 12209 14119 
1923 1957 1924 1626 14120 14121 13895 13885 14118 13890 
1626 1659 1956 1957 12201 14112 14116 14118 14117 14122 
1923 1957 1626 1956 14120 14118 13885 14114 14122 14116 
1924 1626 1957 1627 13890 14118 14121 13892 11982 14123 
1957 1626 1660 1627 14118 12207 14119 14123 11982 12208 
1627 1660 1958 1661 12208 14124 14125 12214 12216 14126 
1924 1958 1925 1627 14127 14128 13902 13892 14125 13897 
1627 1660 1957 1958 12208 14119 14123 14125 14124 14129 
1924 1958 1627 1957 14127 14125 13892 14121 14129 14123 
1925 1627 1958 1628 13897 14125 14128 13899 11989 14130 
1958 1627 1661 1628 14125 12214 14126 14130 11989 12215 
1628 1661 1959 1662 12215 14131 14132 12221 12223 14133 
1925 1959 1926 1628 14134 14135 13909 13899 14132 13904 
1628 1661 1958 1959 12215 14126 14130 14132 14131 14136 
1925 1959 1628 1958 14134 14132 13899 14128 14136 14130 
1926 1628 1959 1629 13904 14132 14135 13906 11996 14137 
1959 1628 1662 1629 14132 12221 14133 14137 11996 12222 
1629 1662 1960 1663 12222 14138 14139 12228 12230 14140 
1926 1960 1927 1629 14141 14142 13916 13906 14139 13911 
1629 1662 1959 1960 12222 14133 14137 14139 14138 14143 
1926 1960 1629 1959 14141 14139 13906 14135 14143 14137 
1927 1629 1960 1630 13911 14139 14142 13913 12003 14144 
1960 1629 1663 1630 14139 12228 14140 14144 12003 12229 
1630 1663 1961 1664 12229 14145 14146 12235 12237 14147 
1927 1961 1928 1630 14148 14149 13923 13913 14146 13918 
1630 1663 1960 1961 12229 14140 14144 14146 14145 14150 
1927 1961 1630 1960 14148 14146 13913 14142 14150 14144 
1928 1630 1961 1631 13918 14146 14149 13920 12010 14151 
1961 1630 1664 1631 14146 12235 14147 14151 12010 12236 
1631 1664 1962 1665 12236 14152 14153 12242 12244 14154 
1928 1962 1929 1631 14155 14156 13930 13920 14153 13925 
1631 1664 1961 1962 12236 14147 14151 14153 14152 14157 
1928 1962 1631 1961 14155 14153 13920 14149 14157 14151 
1929 1631 1962 1632 13925 14153 14156 13927 12017 14158 
1962 1631 1665 1632 14153 12242 14154 14158 12017 12243 
1632 1665 1963 1666 12243 14159 14160 12249 12251 14161 
1929 1963 1930 1632 14162 14163 13937 13927 14160 13932 
1632 1665 1962 1963 12243 14154 14158 14160 14159 14164 
1929 1963 1632 1962 14162 14160 13927 14156 14164 14158 
1930 1632 1963 1633 13932 14160 14163 13934 12024 14165 
1963 1632 1666 1633 14160 12249 14161 14165 12024 12250 
1633 1666 1964 1667 12250 14166 14167 12256 12258 14168 
1930 1964 1931 1633 14169 14170 13944 13934 14167 13939 
1633 1666 1963 1964 12250 14161 14165 14167 14166 14171 
1930 1964 1633 1963 14169 14167 13934 14163 14171 14165 
1931 1633 1964 1634 13939 14167 14170 13941 12031 14172 
1964 1633 1667 1634 14167 12256 14168 14172 12031 12257 
1634 1667 1965 1668 12257 14173 14174 12263 12265 14175 
1931 1965 1932 1634 14176 14177 13951 13941 14174 13946 
1634 1667 1964 1965 12257 14168 14172 14174 14173 14178 
1931 1965 1634 1964 14176 14174 13941 14170 14178 14172 
1932 1634 1965 1635 13946 14174 14177 13948 12038 14179 
1965 1634 1668 1635 14174 12263 14175 14179 12038 12264 
1635 1668 1966 1669 12264 14180 14181 12270 12272 14182 
1932 1966 1933 1635 14183 14184 13958 13948 14181 13953 
1635 1668 1965 1966 12264 14175 14179 14181 14180 14185 
1932 1966 1635 1965 14183 14181 13948 14177 14185 14179 
1933 1635 1966 1636 13953 14181 14184 13955 12045 14186 
1966 1635 1669 1636 14181 12270 14182 14186 12045 12271 
1636 1669 1967 1670 12271 14187 14188 12277 12279 14189 
1933 1967 1934 1636 14190 14191 13965 13955 14188 13960 
1636 1669 1966 1967 12271 14182 14186 14188 14187 14192 
1933 1967 1636 1966 14190 14188 13955 14184 14192 14186 
1934 1636 1967 1637 13960 14188 14191 13962 12052 14193 
1967 1636 1670 1637 14188 12277 14189 14193 12052 12278 
1637 1670 1968 1671 12278 14194 14195 12284 12286 14196 
1934 1968 1935 1637 14197 14198 13972 13962 14195 13967 
1637 1670 1967 1968 12278 14189 14193 14195 14194 14199 
1934 1968 1637 1967 14197 14195 13962 14191 14199 14193 
1935 1637 1968 1638 13967 14195 14198 13969 12059 14200 
1968 1637 1671 1638 14195 12284 14196 14200 12059 12285 
1638 1671 1969 1672 12285 14201 14202 12291 12293 14203 
1935 1969 1936 1638 14204 14205 13979 13969 14202 13974 
1638 1671 1968 1969 12285 14196 14200 14202 14201 14206 
1935 1969 1638 1968 14204 14202 13969 14198 14206 14200 
1936 1638 1969 1639 13974 14202 14205 13976 12066 14207 
1969 1638 1672 1639 14202 12291 14203 14207 12066 12292 
1639 1672 1970 1673 12292 14208 14209 12298 12300 14210 
1936 1970 1937 1639 14211 14212 13986 13976 14209 13981 
1639 1672 1969 1970 12292 14203 14207 14209 14208 14213 
1936 1970 1639 1969 14211 14209 13976 14205 14213 14207 
1937 1639 1970 1640 13981 14209 14212 13983 12073 14214 
1970 1639 1673 1640 14209 12298 14210 14214 12073 12299 
1640 1673 1971 1674 12299 14215 14216 12305 12307 14217 
1937 1971 1938 1640 14218 14219 13993 13983 14216 13988 
1640 1673 1970 1971 12299 14210 14214 14216 14215 14220 
1937 1971 1640 1970 14218 14216 13983 14212 14220 14214 
1938 1640 1971 1641 13988 14216 14219 13990 12080 14221 
1971 1640 1674 1641 14216 12305 14217 14221 12080 12306 
1641 1674 1972 1675 12306 14222 14223 12312 12314 14224 
1938 1972 1939 1641 14225 14226 14000 13990 14223 13995 
1641 1674 1971 1972 12306 14217 14221 14223 14222 14227 
1938 1972 1641 1971 14225 14223 13990 14219 14227 14221 
1939 1641 1972 1642 13995 14223 14226 13997 12087 14228 
1972 1641 1675 1642 14223 12312 14224 14228 12087 12313 
1642 1675 1973 1676 12313 14229 14230 12319 12321 14231 
1939 1973 1940 1642 14232 14233 14007 13997 14230 14002 
1642 1675 1972 1973 12313 14224 14228 14230 14229 14234 
1939 1973 1642 1972 14232 14230 13997 14226 14234 14228 
1940 1642 1973 1643 14002 14230 14233 14004 12094 14235 
1973 1642 1676 1643 14230 12319 14231 14235 12094 12320 
1643 1676 1974 1677 12320 14236 14237 12326 12328 14238 
1940 1974 1941 1643 14239 14240 14014 14004 14237 14009 
1643 1676 1973 1974 12320 14231 14235 14237 14236 14241 
1940 1974 1643 1973 14239 14237 14004 14233 14241 14235 
1941 1643 1974 1644 14009 14237 14240 14011 12101 14242 
1974 1643 1677 1644 14237 12326 14238 14242 12101 12327 
1644 1677 1975 1678 12327 14243 14244 12333 12335 14245 
1941 1975 1942 1644 14246 14247 14021 14011 14244 14016 
1644 1677 1974 1975 12327 14238 14242 14244 14243 14248 
1941 1975 1644 1974 14246 14244 14011 14240 14248 14242 
1942 1644 1975 1645 14016 14244 14247 14018 12108 14249 
1975 1644 1678 1645 14244 12333 14245 14249 12108 12334 
1645 1678 1976 1679 12334 14250 14251 12340 12342 14252 
1942 1976 1943 1645 14253 14254 14028 14018 14251 14023 
1645 1678 1975 1976 12334 14245 14249 14251 14250 14255 
1942 1976 1645 1975 14253 14251 14018 14247 14255 14249 
1943 1645 1976 1646 14023 14251 14254 14025 12115 14256 
1976 1645 1679 1646 14251 12340 14252 14256 12115 12341 
1646 1679 1977 1680 12341 14257 14258 12347 12349 14259 
1943 1977 1944 1646 14260 14261 14035 14025 14258 14030 
1646 1679 1976 1977 12341 14252 14256 14258 14257 14262 
1943 1977 1646 1976 14260 14258 14025 14254 14262 14256 
1944 1646 1977 1647 14030 14258 14261 14032 12122 14263 
1977 1646 1680 1647 14258 12347 14259 14263 12122 12348 
1647 1680 1978 1681 12348 14264 14265 12354 12356 14266 
1944 1978 1945 1647 14267 14268 14042 14032 14265 14037 
1647 1680 1977 1978 12348 14259 14263 14265 14264 14269 
1944 1978 1647 1977 14267 14265 14032 14261 14269 14263 
1945 1647 1978 1648 14037 14265 14268 14039 12129 14270 
1978 1647 1681 1648 14265 12354 14266 14270 12129 12355 
1648 1681 1979 1682 12355 14271 14272 12361 12363 14273 
1945 1979 1946 1648 14274 14275 14049 14039 14272 14044 
1648 1681 1978 1979 12355 14266 14270 14272 14271 14276 
1945 1979 1648 1978 14274 14272 14039 14268 14276 14270 
1946 1648 1979 1649 14044 14272 14275 14046 12136 14277 
1979 1648 1682 1649 14272 12361 14273 14277 12136 12362 
1650 1683 1981 1684 12373 14278 14279 12368 12372 14280 
1947 1981 1948 1650 14281 14282 14058 14056 14279 14051 
1650 1683 1980 1981 12373 14283 14284 14279 14278 14285 
1947 1981 1650 1980 14281 14279 14056 14286 14285 14284 
1948 1650 1981 1651 14051 14279 14282 14053 12145 14287 
1981 1650 1684 1651 14279 12368 14280 14287 12145 12369 
1651 1684 1982 1685 12369 14288 14289 12378 12380 14290 
1948 1982 1949 1651 14291 14292 14066 14053 14289 14061 
1651 1684 1981 1982 12369 14280 14287 14289 14288 14293 
1948 1982 1651 1981 14291 14289 14053 14282 14293 14287 
1949 1651 1982 1652 14061 14289 14292 14063 12153 14294 
1982 1651 1685 1652 14289 12378 14290 14294 12153 12379 
1652 1685 1983 1686 12379 14295 14296 12385 12387 14297 
1949 1983 1950 1652 14298 14299 14073 14063 14296 14068 
1652 1685 1982 1983 12379 14290 14294 14296 14295 14300 
1949 1983 1652 1982 14298 14296 14063 14292 14300 14294 
1950 1652 1983 1653 14068 14296 14299 14070 12160 14301 
1983 1652 1686 1653 14296 12385 14297 14301 12160 12386 
1653 1686 1984 1687 12386 14302 14303 12392 12394 14304 
1950 1984 1951 1653 14305 14306 14080 14070 14303 14075 
1653 1686 1983 1984 12386 14297 14301 14303 14302 14307 
1950 1984 1653 1983 14305 14303 14070 14299 14307 14301 
1951 1653 1984 1654 14075 14303 14306 14077 12167 14308 
1984 1653 1687 1654 14303 12392 14304 14308 12167 12393 
1654 1687 1985 1688 12393 14309 14310 12399 12401 14311 
1951 1985 1952 1654 14312 14313 14087 14077 14310 14082 
1654 1687 1984 1985 12393 14304 14308 14310 14309 14314 
1951 1985 1654 1984 14312 14310 14077 14306 14314 14308 
1952 1654 1985 1655 14082 14310 14313 14084 12174 14315 
1985 1654 1688 1655 14310 12399 14311 14315 12174 12400 
1655 1688 1986 1689 12400 14316 14317 12406 12408 14318 
1952 1986 1953 1655 14319 14320 14094 14084 14317 14089 
1655 1688 1985 1986 12400 14311 14315 14317 14316 14321 
1952 1986 1655 1985 14319 14317 14084 14313 14321 14315 
1953 1655 1986 1656 14089 14317 14320 14091 12181 14322 
1986 1655 1689 1656 14317 12406 14318 14322 12181 12407 
1656 1689 1987 1690 12407 14323 14324 12413 12415 14325 
1953 1987 1954 1656 14326 14327 14101 14091 14324 14096 
1656 1689 1986 1987 12407 14318 14322 14324 14323 14328 
1953 1987 1656 1986 14326 14324 14091 14320 14328 14322 
1954 1656 1987 1657 14096 14324 14327 14098 12188 14329 
1987 1656 1690 1657 14324 12413 14325 14329 12188 12414 
1657 1690 1988 1691 12414 14330 14331 12420 12422 14332 
1954 1988 1955 1657 14333 14334 14108 14098 14331 14103 
1657 1690 1987 1988 12414 14325 14329 14331 14330 14335 
1954 1988 1657 1987 14333 14331 14098 14327 14335 14329 
1955 1657 1988 1658 14103 14331 14334 14105 12195 14336 
1988 1657 1691 1658 14331 12420 14332 14336 12195 12421 
1658 1691 1989 1692 12421 14337 14338 12427 12429 14339 
1955 1989 1956 1658 14340 14341 14115 14105 14338 14110 
1658 1691 1988 1989 12421 14332 14336 14338 14337 14342 
1955 1989 1658 1988 14340 14338 14105 14334 14342 14336 
1956 1658 1989 1659 14110 14338 14341 14112 12202 14343 
1989 1658 1692 1659 14338 12427 14339 14343 12202 12428 
1659 1692 1990 1693 12428 14344 14345 12434 12436 14346 
1956 1990 1957 1659 14347 14348 14122 14112 14345 14117 
1659 1692 1989 1990 12428 14339 14343 14345 14344 14349 
1956 1990 1659 1989 14347 14345 14112 14341 14349 14343 
1957 1659 1990 1660 14117 14345 14348 14119 12209 14350 
1990 1659 1693 1660 14345 12434 14346 14350 12209 12435 
1660 1693 1991 1694 12435 14351 14352 12441 12443 14353 
1957 1991 1958 1660 14354 14355 14129 14119 14352 14124 
1660 1693 1990 1991 12435 14346 14350 14352 14351 14356 
1957 1991 1660 1990 14354 14352 14119 14348 14356 14350 
1958 1660 1991 1661 14124 14352 14355 14126 12216 14357 
1991 1660 1694 1661 14352 12441 14353 14357 12216 12442 
1661 1694 1992 1695 12442 14358 14359 12448 12450 14360 
1958 1992 1959 1661 14361 14362 14136 14126 14359 14131 
1661 1694 1991 1992 12442 14353 14357 14359 14358 14363 
1958 1992 1661 1991 14361 14359 14126 14355 14363 14357 
1959 1661 1992 1662 14131 14359 14362 14133 12223 14364 
1992 1661 1695 1662 14359 12448 14360 14364 12223 12449 
1662 1695 1993 1696 12449 14365 14366 12455 12457 14367 
1959 1993 1960 1662 14368 14369 14143 14133 14366 14138 
1662 1695 1992 1993 12449 14360 14364 14366 14365 14370 
1959 1993 1662 1992 14368 14366 14133 14362 14370 14364 
1960 1662 1993 1663 14138 14366 14369 14140 12230 14371 
1993 1662 1696 1663 14366 12455 14367 14371 12230 12456 
1663 1696 1994 1697 12456 14372 14373 12462 12464 14374 
1960 1994 1961 1663 14375 14376 14150 14140 14373 14145 
1663 1696 1993 1994 12456 14367 14371 14373 14372 14377 
1960 1994 1663 1993 14375 14373 14140 14369 14377 14371 
1961 1663 1994 1664 14145 14373 14376 14147 12237 14378 
1994 1663 1697 1664 14373 12462 14374 14378 12237 12463 
1664 1697 1995 1698 12463 14379 14380 12469 12471 14381 
1961 1995 1962 1664 14382 14383 14157 14147 14380 14152 
1664 1697 1994 1995 12463 14374 14378 14380 14379 14384 
1961 1995 1664 1994 14382 14380 14147 14376 14384 14378 
1962 1664 1995 1665 14152 14380 14383 14154 12244 14385 
1995 1664 1698 1665 14380 12469 14381 14385 12244 12470 
1665 1698 1996 1699 12470 14386 14387 12476 12478 14388 
1962 1996 1963 1665 14389 14390 14164 14154 14387 14159 
1665 1698 1995 1996 12470 14381 14385 14387 14386 14391 
1962 1996 1665 1995 14389 14387 14154 14383 14391 14385 
1963 1665 1996 1666 14159 14387 14390 14161 12251 14392 
1996 1665 1699 1666 14387 12476 14388 14392 12251 12477 
1666 1699 1997 1700 12477 14393 14394 12483 12485 14395 
1963 1997 1964 1666 14396 14397 14171 14161 14394 14166 
1666 1699 1996 1997 12477 14388 14392 14394 14393 14398 
1963 1997 1666 1996 14396 14394 14161 14390 14398 14392 
1964 1666 1997 1667 14166 14394 14397 14168 12258 14399 
1997 1666 1700 1667 14394 12483 14395 14399 12258 12484 
1667 1700 1998 1701 12484 14400 14401 12490 12492 14402 
1964 1998 1965 1667 14403 14404 14178 14168 14401 14173 
1667 1700 1997 1998 12484 14395 14399 14401 14400 14405 
1964 1998 1667 1997 14403 14401 14168 14397 14405 14399 
1965 1667 1998 1668 14173 14401 14404 14175 12265 14406 
1998 1667 1701 1668 14401 12490 14402 14406 12265 12491 
1668 1701 1999 1702 12491 14407 14408 12497 12499 14409 
1965 1999 1966 1668 14410 14411 14185 14175 14408 14180 
1668 1701 1998 1999 12491 14402 14406 14408 14407 14412 
1965 1999 1668 1998 14410 14408 14175 14404 14412 14406 
1966 1668 1999 1669 14180 14408 14411 14182 12272 14413 
1999 1668 1702 1669 14408 12497 14409 14413 12272 12498 
1669 1702 2000 1703 12498 14414 14415 12504 12506 14416 
1966 2000 1967 1669 14417 14418 14192 14182 14415 14187 
1669 1702 1999 2000 12498 14409 14413 14415 14414 14419 
1966 2000 1669 1999 14417 14415 14182 14411 14419 14413 
1967 1669 2000 1670 14187 14415 14418 14189 12279 14420 
2000 1669 1703 1670 14415 12504 14416 14420 12279 12505 
1670 1703 2001 1704 12505 14421 14422 12511 12513 14423 
1967 2001 1968 1670 14424 14425 14199 14189 14422 14194 
1670 1703 2000 2001 12505 14416 14420 14422 14421 14426 
1967 2001 1670 2000 14424 14422 14189 14418 14426 14420 
1968 1670 2001 1671 14194 14422 14425 14196 12286 14427 
2001 1670 1704 1671 14422 12511 14423 14427 12286 12512 
1671 1704 2002 1705 12512 14428 14429 12518 12520 14430 
1968 2002 1969 1671 14431 14432 14206 14196 14429 14201 
1671 1704 2001 2002 12512 14423 14427 14429 14428 14433 
1968 2002 1671 2001 14431 14429 14196 14425 14433 14427 
1969 1671 2002 1672 14201 14429 14432 14203 12293 14434 
2002 1671 1705 1672 14429 12518 14430 14434 12293 12519 
1672 1705 2003 1706 12519 14435 14436 12525 12527 14437 
1969 2003 1970 1672 14438 14439 14213 14203 14436 14208 
1672 1705 2002 2003 12519 14430 14434 14436 14435 14440 
1969 2003 1672 2002 14438 14436 14203 14432 14440 14434 
1970 1672 2003 1673 14208 14436 14439 14210 12300 14441 
2003 1672 1706 1673 14436 12525 14437 14441 12300 12526 
1673 1706 2004 1707 12526 14442 14443 12532 12534 14444 
1970 2004 1971 1673 14445 14446 14220 14210 14443 14215 
1673 1706 2003 2004 12526 14437 14441 14443 14442 14447 
1970 2004 1673 2003 14445 14443 14210 14439 14447 14441 
1971 1673 2004 1674 14215 14443 14446 14217 12307 14448 
2004 1673 1707 1674 14443 12532 14444 14448 12307 12533 
1674 1707 2005 1708 12533 14449 14450 12539 12541 14451 
1971 2005 1972 1674 14452 14453 14227 14217 14450 14222 
1674 1707 2004 2005 12533 14444 14448 14450 14449 14454 
1971 2005 1674 2004 14452 14450 14217 14446 14454 14448 
1972 1674 2005 1675 14222 14450 14453 14224 12314 14455 
2005 1674 1708 1675 14450 12539 14451 14455 12314 12540 
1675 1708 2006 1709 12540 14456 14457 12546 12548 14458 
1972 2006 1973 1675 14459 14460 14234 14224 14457 14229 
1675 1708 2005 2006 12540 14451 14455 14457 14456 14461 
1972 2006 1675 2005 14459 14457 14224 14453 14461 14455 
1973 1675 2006 1676 14229 14457 14460 14231 12321 14462 
2006 1675 1709 1676 14457 12546 14458 14462 12321 12547 
1676 1709 2007 1710 12547 14463 14464 12553 12555 14465 
1973 2007 1974 1676 14466 14467 14241 14231 14464 14236 
1676 1709 2006 2007 12547 14458 14462 14464 14463 14468 
1973 2007 1676 2006 14466 14464 14231 14460 14468 14462 
1974 1676 2007 1677 14236 14464 14467 14238 12328 14469 
2007 1676 1710 1677 14464 12553 14465 14469 12328 12554 
1677 1710 2008 1711 12554 14470 14471 12560 12562 14472 
1974 2008 1975 1677 14473 14474 14248 14238 14471 14243 
1677 1710 2007 2008 12554 14465 14469 14471 14470 14475 
1974 2008 1677 2007 14473 14471 14238 14467 14475 14469 
1975 1677 2008 1678 14243 14471 14474 14245 12335 14476 
2008 1677 1711 1678 14471 12560 14472 14476 12335 12561 
1678 1711 2009 1712 12561 14477 14478 12567 12569 14479 
1975 2009 1976 1678 14480 14481 14255 14245 14478 14250 
1678 1711 2008 2009 12561 14472 14476 14478 14477 14482 
1975 2009 1678 2008 14480 14478 14245 14474 14482 14476 
1976 1678 2009 1679 14250 14478 14481 14252 12342 14483 
2009 1678 1712 1679 14478 12567 14479 14483 12342 12568 
1679 1712 2010 1713 12568 14484 14485 12574 12576 14486 
1976 2010 1977 1679 14487 14488 14262 14252 14485 14257 
1679 1712 2009 2010 12568 14479 14483 14485 14484 14489 
1976 2010 1679 2009 14487 14485 14252 14481 14489 14483 
1977 1679 2010 1680 14257 14485 14488 14259 12349 14490 
2010 1679 1713 1680 14485 12574 14486 14490 12349 12575 
1680 1713 2011 1714 12575 14491 14492 12581 12583 14493 
1977 2011 1978 1680 14494 14495 14269 14259 14492 14264 
1680 1713 2010 2011 12575 14486 14490 14492 14491 14496 
1977 2011 1680 2010 14494 14492 14259 14488 14496 14490 
1978 1680 2011 1681 14264 14492 14495 14266 12356 14497 
2011 1680 1714 1681 14492 12581 14493 14497 12356 12582 
1681 1714 2012 1715 12582 14498 14499 12588 12590 14500 
1978 2012 1979 1681 14501 14502 14276 14266 14499 14271 
1681 1714 2011 2012 12582 14493 14497 14499 14498 14503 
1978 2012 1681 2011 14501 14499 14266 14495 14503 14497 
1979 1681 2012 1682 14271 14499 14502 14273 12363 14504 
2012 1681 1715 1682 14499 12588 14500 14504 12363 12589 
1683 1716 2014 1717 12600 14505 14506 12595 12599 14507 
1980 2014 1981 1683 14508 14509 14285 14283 14506 14278 
1683 1716 2013 2014 12600 14510 14511 14506 14505 14512 
1980 2014 1683 2013 14508 14506 14283 14513 14512 14511 
1981 1683 2014 1684 14278 14506 14509 14280 12372 14514 
2014 1683 1717 1684 14506 12595 14507 14514 12372 12596 
1684 1717 2015 1718 12596 14515 14516 12605 12607 14517 
1981 2015 1982 1684 14518 14519 14293 14280 14516 14288 
1684 1717 2014 2015 12596 14507 14514 14516 14515 14520 
1981 2015 1684 2014 14518 14516 14280 14509 14520 14514 
1982 1684 2015 1685 14288 14516 14519 14290 12380 14521 
2015 1684 1718 1685 14516 12605 14517 14521 12380 12606 
1685 1718 2016 1719 12606 14522 14523 12612 12614 14524 
1982 2016 1983 1685 14525 14526 14300 14290 14523 14295 
1685 1718 2015 2016 12606 14517 14521 14523 14522 14527 
1982 2016 1685 2015 14525 14523 14290 14519 14527 14521 
1983 1685 2016 1686 14295 14523 14526 14297 12387 14528 
2016 1685 1719 1686 14523 12612 14524 14528 12387 12613 
1686 1719 2017 1720 12613 14529 14530 12619 12621 14531 
1983 2017 1984 1686 14532 14533 14307 14297 14530 14302 
1686 1719 2016 2017 12613 14524 14528 14530 14529 14534 
1983 2017 1686 2016 14532 14530 14297 14526 14534 14528 
1984 1686 2017 1687 14302 14530 14533 14304 12394 14535 
2017 1686 1720 1687 14530 12619 14531 14535 12394 12620 
1687 1720 2018 1721 12620 14536 14537 12626 12628 14538 
1984 2018 1985 1687 14539 14540 14314 14304 14537 14309 
1687 1720 2017 2018 12620 14531 14535 14537 14536 14541 
1984 2018 1687 2017 14539 14537 14304 14533 14541 14535 
1985 1687 2018 1688 14309 14537 14540 14311 12401 14542 
2018 1687 1721 1688 14537 12626 14538 14542 12401 12627 
1688 1721 2019 1722 12627 14543 14544 12633 12635 14545 
1985 2019 1986 1688 14546 14547 14321 14311 14544 14316 
1688 1721 2018 2019 12627 14538 14542 14544 14543 14548 
1985 2019 1688 2018 14546 14544 14311 14540 14548 14542 
1986 1688 2019 1689 14316 14544 14547 14318 12408 14549 
2019 1688 1722 1689 14544 12633 14545 14549 12408 12634 
1689 1722 2020 1723 12634 14550 14551 12640 12642 14552 
1986 2020 1987 1689 14553 14554 14328 14318 14551 14323 
1689 1722 2019 2020 12634 14545 14549 14551 14550 14555 
1986 2020 1689 2019 14553 14551 14318 14547 14555 14549 
1987 1689 2020 1690 14323 14551 14554 14325 12415 14556 
2020 1689 1723 1690 14551 12640 14552 14556 12415 12641 
1690 1723 2021 1724 12641 14557 14558 12647 12649 14559 
1987 2021 1988 1690 14560 14561 14335 14325 14558 14330 
1690 1723 2020 2021 12641 14552 14556 14558 14557 14562 
1987 2021 1690 2020 14560 14558 14325 14554 14562 14556 
1988 1690 2021 1691 14330 14558 14561 14332 12422 14563 
2021 1690 1724 1691 14558 12647 14559 14563 12422 12648 
1691 1724 2022 1725 12648 14564 14565 12654 12656 14566 
1988 2022 1989 1691 14567 14568 14342 14332 14565 14337 
1691 1724 2021 2022 12648 14559 14563 14565 14564 14569 
1988 2022 1691 2021 14567 14565 14332 14561 14569 14563 
1989 1691 2022 1692 14337 14565 14568 14339 12429 14570 
2022 1691 1725 1692 14565 12654 14566 14570 12429 12655 
1692 1725 2023 1726 12655 14571 14572 12661 12663 14573 
1989 2023 1990 1692 14574 14575 14349 14339 14572 14344 
1692 1725 2022 2023 12655 14566 14570 14572 14571 14576 
1989 2023 1692 2022 14574 14572 14339 14568 14576 14570 
1990 1692 2023 1693 14344 14572 14575 14346 12436 14577 
2023 1692 1726 1693 14572 12661 14573 14577 12436 12662 
1693 1726 2024 1727 12662 14578 14579 12668 12670 14580 
1990 2024 1991 1693 14581 14582 14356 14346 14579 14351 
1693 1726 2023 2024 12662 14573 14577 14579 14578 14583 
1990 2024 1693 2023 14581 14579 14346 14575 14583 14577 
1991 1693 2024 1694 14351 14579 14582 14353 12443 14584 
2024 1693 1727 1694 14579 12668 14580 14584 12443 12669 
1694 1727 2025 1728 12669 14585 14586 12675 12677 14587 
1991 2025 1992 1694 14588 14589 14363 14353 14586 14358 
1694 1727 2024 2025 12669 14580 14584 14586 14585 14590 
1991 2025 1694 2024 14588 14586 14353 14582 14590 14584 
1992 1694 2025 1695 14358 14586 14589 14360 12450 14591 
2025 1694 1728 1695 14586 12675 14587 14591 12450 12676 
1695 1728 2026 1729 12676 14592 14593 12682 12684 14594 
1992 2026 1993 1695 14595 14596 14370 14360 14593 14365 
1695 1728 2025 2026 12676 14587 14591 14593 14592 14597 
1992 2026 1695 2025 14595 14593 14360 14589 14597 14591 
1993 1695 2026 1696 14365 14593 14596 14367 12457 14598 
2026 1695 1729 1696 14593 12682 14594 14598 12457 12683 
1696 1729 2027 1730 12683 14599 14600 12689 12691 14601 
1993 2027 1994 1696 14602 14603 14377 14367 14600 14372 
1696 1729 2026 2027 12683 14594 14598 14600 14599 14604 
1993 2027 1696 2026 14602 14600 14367 14596 14604 14598 
1994 1696 2027 1697 14372 14600 14603 14374 12464 14605 
2027 1696 1730 1697 14600 12689 14601 14605 12464 12690 
1697 1730 2028 1731 12690 14606 14607 12696 12698 14608 
1994 2028 1995 1697 14609 14610 14384 14374 14607 14379 
1697 1730 2027 2028 12690 14601 14605 14607 14606 14611 
1994 2028 1697 2027 14609 14607 14374 14603 14611 14605 
1995 1697 2028 1698 14379 14607 14610 14381 12471 14612 
2028 1697 1731 1698 14607 12696 14608 14612 12471 12697 
1698 1731 2029 1732 12697 14613 14614 12703 12705 14615 
1995 2029 1996 1698 14616 14617 14391 14381 14614 14386 
1698 1731 2028 2029 12697 14608 14612 14614 14613 14618 
1995 2029 1698 2028 14616 14614 14381 14610 14618 14612 
1996 1698 2029 1699 14386 14614 14617 14388 12478 14619 
2029 1698 1732 1699 14614 12703 14615 14619 12478 12704 
1699 1732 2030 1733 12704 14620 14621 12710 12712 14622 
1996 2030 1997 1699 14623 14624 14398 14388 14621 14393 
1699 1732 2029 2030 12704 14615 14619 14621 14620 14625 
1996 2030 1699 2029 14623 14621 14388 14617 14625 14619 
1997 1699 2030 1700 14393 14621 14624 14395 12485 14626 
2030 1699 1733 1700 14621 12710 14622 14626 12485 12711 
1700 1733 2031 1734 12711 14627 14628 12717 12719 14629 
1997 2031 1998 1700 14630 14631 14405 14395 14628 14400 
1700 1733 2030 2031 12711 14622 14626 14628 14627 14632 
1997 2031 1700 2030 14630 14628 14395 14624 14632 14626 
1998 1700 2031 1701 14400 14628 14631 14402 12492 14633 
2031 1700 1734 1701 14628 12717 14629 14633 12492 12718 
1701 1734 2032 1735 12718 14634 14635 12724 12726 14636 
1998 2032 1999 1701 14637 14638 14412 14402 14635 14407 
1701 1734 2031 2032 12718 14629 14633 14635 14634 14639 
1998 2032 1701 2031 14637 14635 14402 14631 14639 14633 
1999 1701 2032 1702 14407 14635 14638 14409 12499 14640 
2032 1701 1735 1702 14635 12724 14636 14640 12499 12725 
1702 1735 2033 1736 12725 14641 14642 12731 12733 14643 
1999 2033 2000 1702 14644 14645 14419 14409 14642 14414 
1702 1735 2032 2033 12725 14636 14640 14642 14641 14646 
1999 2033 1702 2032 14644 14642 14409 14638 14646 14640 
2000 1702 2033 1703 14414 14642 14645 14416 12506 14647 
2033 1702 1736 1703 14642 12731 14643 14647 12506 12732 
1703 1736 2034 1737 12732 14648 14649 12738 12740 14650 
2000 2034 2001 1703 14651 14652 14426 14416 14649 14421 
1703 1736 2033 2034 12732 14643 14647 14649 14648 14653 
2000 2034 1703 2033 14651 14649 14416 14645 14653 14647 
2001 1703 2034 1704 14421 14649 14652 14423 12513 14654 
2034 1703 1737 1704 14649 12738 14650 14654 12513 12739 
1704 1737 2035 1738 12739 14655 14656 12745 12747 14657 
2001 2035 2002 1704 14658 14659 14433 14423 14656 14428 
1704 1737 2034 2035 12739 14650 14654 14656 14655 14660 
2001 2035 1704 2034 14658 14656 14423 14652 14660 14654 
2002 1704 2035 1705 14428 14656 14659 14430 12520 14661 
2035 1704 1738 1705 14656 12745 14657 14661 12520 12746 
1705 1738 2036 1739 12746 14662 14663 12752 12754 14664 
2002 2036 2003 1705 14665 14666 14440 14430 14663 14435 
1705 1738 2035 2036 12746 14657 14661 14663 14662 14667 
2002 2036 1705 2035 14665 14663 14430 14659 14667 14661 
2003 1705 2036 1706 14435 14663 14666 14437 12527 14668 
2036 1705 1739 1706 14663 12752 14664 14668 12527 12753 
1706 1739 2037 1740 12753 14669 14670 12759 12761 14671 
2003 2037 2004 1706 14672 14673 14447 14437 14670 14442 
1706 1739 2036 2037 12753 14664 14668 14670 14669 14674 
2003 2037 1706 2036 14672 14670 14437 14666 14674 14668 
2004 1706 2037 1707 14442 14670 14673 14444 12534 14675 
2037 1706 1740 1707 14670 12759 14671 14675 12534 12760 
1707 1740 2038 1741 12760 14676 14677 12766 12768 14678 
2004 2038 2005 1707 14679 14680 14454 14444 14677 14449 
1707 1740 2037 2038 12760 14671 14675 14677 14676 14681 
2004 2038 1707 2037 14679 14677 14444 14673 14681 14675 
2005 1707 2038 1708 14449 14677 14680 14451 12541 14682 
2038 1707 1741 1708 14677 12766 14678 14682 12541 12767 
1708 1741 2039 1742 12767 14683 14684 12773 12775 14685 
2005 2039 2006 1708 14686 14687 14461 14451 14684 14456 
1708 1741 2038 2039 12767 14678 14682 14684 14683 14688 
2005 2039 1708 2038 14686 14684 14451 14680 14688 14682 
2006 1708 2039 1709 14456 14684 14687 14458 12548 14689 
2039 1708 1742 1709 14684 12773 14685 14689 12548 12774 
1709 1742 2040 1743 12774 14690 14691 12780 12782 14692 
2006 2040 2007 1709 14693 14694 14468 14458 14691 14463 
1709 1742 2039 2040 12774 14685 14689 14691 14690 14695 
2006 2040 1709 2039 14693 14691 14458 14687 14695 14689 
2007 1709 2040 1710 14463 14691 14694 14465 12555 14696 
2040 1709 1743 1710 14691 12780 14692 14696 12555 12781 
1710 1743 2041 1744 12781 14697 14698 12787 12789 14699 
2007 2041 2008 1710 14700 14701 14475 14465 14698 14470 
1710 1743 2040 2041 12781 14692 14696 14698 14697 14702 
2007 2041 1710 2040 14700 14698 14465 14694 14702 14696 
2008 1710 2041 1711 14470 14698 14701 14472 12562 14703 
2041 1710 1744 1711 14698 12787 14699 14703 12562 12788 
1711 1744 2042 1745 12788 14704 14705 12794 12796 14706 
2008 2042 2009 1711 14707 14708 14482 14472 14705 14477 
1711 1744 2041 2042 12788 14699 14703 14705 14704 14709 
2008 2042 1711 2041 14707 14705 14472 14701 14709 14703 
2009 1711 2042 1712 14477 14705 14708 14479 12569 14710 
2042 1711 1745 1712 14705 12794 14706 14710 12569 12795 
1712 1745 2043 1746 12795 14711 14712 12801 12803 14713 
2009 2043 2010 1712 14714 14715 14489 14479 14712 14484 
1712 1745 2042 2043 12795 14706 14710 14712 14711 14716 
2009 2043 1712 2042 14714 14712 14479 14708 14716 14710 
2010 1712 2043 1713 14484 14712 14715 14486 12576 14717 
2043 1712 1746 1713 14712 12801 14713 14717 12576 12802 
1713 1746 2044 1747 12802 14718 14719 12808 12810 14720 
2010 2044 2011 1713 14721 14722 14496 14486 14719 14491 
1713 1746 2043 2044 12802 14713 14717 14719 14718 14723 
2010 2044 1713 2043 14721 14719 14486 14715 14723 14717 
2011 1713 2044 1714 14491 14719 14722 14493 12583 14724 
2044 1713 1747 1714 14719 12808 14720 14724 12583 12809 
1714 1747 2045 1748 12809 14725 14726 12815 12817 14727 
2011 2045 2012 1714 14728 14729 14503 14493 14726 14498 
1714 1747 2044 2045 12809 14720 14724 14726 14725 14730 
2011 2045 1714 2044 14728 14726 14493 14722 14730 14724 
2012 1714 2045 1715 14498 14726 14729 14500 12590 14731 
2045 1714 1748 1715 14726 12815 14727 14731 12590 12816 
1716 1749 2047 1750 12827 14732 14733 12822 12826 14734 
2013 2047 2014 1716 14735 14736 14512 14510 14733 14505 
1716 1749 2046 2047 12827 14737 14738 14733 14732 14739 
2013 2047 1716 2046 14735 14733 14510 14740 14739 14738 
2014 1716 2047 1717 14505 14733 14736 14507 12599 14741 
2047 1716 1750 1717 14733 12822 14734 14741 12599 12823 
1717 1750 2048 1751 12823 14742 14743 12832 12834 14744 
2014 2048 2015 1717 14745 14746 14520 14507 14743 14515 
1717 1750 2047 2048 12823 14734 14741 14743 14742 14747 
2014 2048 1717 2047 14745 14743 14507 14736 14747 14741 
2015 1717 2048 1718 14515 14743 14746 14517 12607 14748 
2048 1717 1751 1718 14743 12832 14744 14748 12607 12833 
1718 1751 2049 1752 12833 14749 14750 12839 12841 14751 
2015 2049 2016 1718 14752 14753 14527 14517 14750 14522 
1718 1751 2048 2049 12833 14744 14748 14750 14749 14754 
2015 2049 1718 2048 14752 14750 14517 14746 14754 14748 
2016 1718 2049 1719 14522 14750 14753 14524 12614 14755 
2049 1718 1752 1719 14750 12839 14751 14755 12614 12840 
1719 1752 2050 1753 12840 14756 14757 12846 12848 14758 
2016 2050 2017 1719 14759 14760 14534 14524 14757 14529 
1719 1752 2049 2050 12840 14751 14755 14757 14756 14761 
2016 2050 1719 2049 14759 14757 14524 14753 14761 14755 
2017 1719 2050 1720 14529 14757 14760 14531 12621 14762 
2050 1719 1753 1720 14757 12846 14758 14762 12621 12847 
1720 1753 2051 1754 12847 14763 14764 12853 12855 14765 
2017 2051 2018 1720 14766 14767 14541 14531 14764 14536 
1720 1753 2050 2051 12847 14758 14762 14764 14763 14768 
2017 2051 1720 2050 14766 14764 14531 14760 14768 14762 
2018 1720 2051 1721 14536 14764 14767 14538 12628 14769 
2051 1720 1754 1721 14764 12853 14765 14769 12628 12854 
1721 1754 2052 1755 12854 14770 14771 12860 12862 14772 
2018 2052 2019 1721 14773 14774 14548 14538 14771 14543 
1721 1754 2051 2052 12854 14765 14769 14771 14770 14775 
2018 2052 1721 2051 14773 14771 14538 14767 14775 14769 
2019 1721 2052 1722 14543 14771 14774 14545 12635 14776 
2052 1721 1755 1722 14771 12860 14772 14776 12635 12861 
1722 1755 2053 1756 12861 14777 14778 12867 12869 14779 
2019 2053 2020 1722 14780 14781 14555 14545 14778 14550 
1722 1755 2052 2053 12861 14772 14776 14778 14777 14782 
2019 2053 1722 2052 14780 14778 14545 14774 14782 14776 
2020 1722 2053 1723 14550 14778 14781 14552 12642 14783 
2053 1722 1756 1723 14778 12867 14779 14783 12642 12868 
1723 1756 2054 1757 12868 14784 14785 12874 12876 14786 
2020 2054 2021 1723 14787 14788 14562 14552 14785 14557 
1723 1756 2053 2054 12868 14779 14783 14785 14784 14789 
2020 2054 1723 2053 14787 14785 14552 14781 14789 14783 
2021 1723 2054 1724 14557 14785 14788 14559 12649 14790 
2054 1723 1757 1724 14785 12874 14786 14790 12649 12875 
1724 1757 2055 1758 12875 14791 14792 12881 12883 14793 
2021 2055 2022 1724 14794 14795 14569 14559 14792 14564 
1724 1757 2054 2055 12875 14786 14790 14792 14791 14796 
2021 2055 1724 2054 14794 14792 14559 14788 14796 14790 
2022 1724 2055 1725 14564 14792 14795 14566 12656 14797 
2055 1724 1758 1725 14792 12881 14793 14797 12656 12882 
1725 1758 2056 1759 12882 14798 14799 12888 12890 14800 
2022 2056 2023 1725 14801 14802 14576 14566 14799 14571 
1725 1758 2055 2056 12882 14793 14797 14799 14798 14803 
2022 2056 1725 2055 14801 14799 14566 14795 14803 14797 
2023 1725 2056 1726 14571 14799 14802 14573 12663 14804 
2056 1725 1759 1726 14799 12888 14800 14804 12663 12889 
1726 1759 2057 1760 12889 14805 14806 12895 12897 14807 
2023 2057 2024 1726 14808 14809 14583 14573 14806 14578 
1726 1759 2056 2057 12889 14800 14804 14806 14805 14810 
2023 2057 1726 2056 14808 14806 14573 14802 14810 14804 
2024 1726 2057 1727 14578 14806 14809 14580 12670 14811 
2057 1726 1760 1727 14806 12895 14807 14811 12670 12896 
1727 1760 2058 1761 12896 14812 14813 12902 12904 14814 
2024 2058 2025 1727 14815 14816 14590 14580 14813 14585 
1727 1760 2057 2058 12896 14807 14811 14813 14812 14817 
2024 2058 1727 2057 14815 14813 14580 14809 14817 14811 
2025 1727 2058 1728 14585 14813 14816 14587 12677 14818 
2058 1727 1761 1728 14813 12902 14814 14818 12677 12903 
1728 1761 2059 1762 12903 14819 14820 12909 12911 14821 
2025 2059 2026 1728 14822 14823 14597 14587 14820 14592 
1728 1761 2058 2059 12903 14814 14818 14820 14819 14824 
2025 2059 1728 2058 14822 14820 14587 14816 14824 14818 
2026 1728 2059 1729 14592 14820 14823 14594 12684 14825 
2059 1728 1762 1729 14820 12909 14821 14825 12684 12910 
1729 1762 2060 1763 12910 14826 14827 12916 12918 14828 
2026 2060 2027 1729 14829 14830 14604 14594 14827 14599 
1729 1762 2059 2060 12910 14821 14825 14827 14826 14831 
2026 2060 1729 2059 14829 14827 14594 14823 14831 14825 
2027 1729 2060 1730 14599 14827 14830 14601 12691 14832 
2060 1729 1763 1730 14827 12916 14828 14832 12691 12917 
1730 1763 2061 1764 12917 14833 14834 12923 12925 14835 
2027 2061 2028 1730 14836 14837 14611 14601 14834 14606 
1730 1763 2060 2061 12917 14828 14832 14834 14833 14838 
2027 2061 1730 2060 14836 14834 14601 14830 14838 14832 
2028 1730 2061 1731 14606 14834 14837 14608 12698 14839 
2061 1730 1764 1731 14834 12923 14835 14839 12698 12924 
1731 1764 2062 1765 12924 14840 14841 12930 12932 14842 
2028 2062 2029 1731 14843 14844 14618 14608 14841 14613 
1731 1764 2061 2062 12924 14835 14839 14841 14840 14845 
2028 2062 1731 2061 14843 14841 14608 14837 14845 14839 
2029 1731 2062 1732 14613 14841 14844 14615 12705 14846 
2062 1731 1765 1732 14841 12930 14842 14846 12705 12931 
1732 1765 2063 1766 12931 14847 14848 12937 12939 14849 
2029 2063 2030 1732 14850 14851 14625 14615 14848 14620 
1732 1765 2062 2063 12931 14842 14846 14848 14847 14852 
2029 2063 1732 2062 14850 14848 14615 14844 14852 14846 
2030 1732 2063 1733 14620 14848 14851 14622 12712 14853 
2063 1732 1766 1733 14848 12937 14849 14853 12712 12938 
1733 1766 2064 1767 12938 14854 14855 12944 12946 14856 
2030 2064 2031 1733 14857 14858 14632 14622 14855 14627 
1733 1766 2063 2064 12938 14849 14853 14855 14854 14859 
2030 2064 1733 2063 14857 14855 14622 14851 14859 14853 
2031 1733 2064 1734 14627 14855 14858 14629 12719 14860 
2064 1733 1767 1734 14855 12944 14856 14860 12719 12945 
1734 1767 2065 1768 12945 14861 14862 12951 12953 14863 
2031 2065 2032 1734 14864 14865 14639 14629 14862 14634 
1734 1767 2064 2065 12945 14856 14860 14862 14861 14866 
2031 2065 1734 2064 14864 14862 14629 14858 14866 14860 
2032 1734 2065 1735 14634 14862 14865 14636 12726 14867 
2065 1734 1768 1735 14862 12951 14863 14867 12726 12952 
1735 1768 2066 1769 12952 14868 14869 12958 12960 14870 
2032 2066 2033 1735 14871 14872 14646 14636 14869 14641 
1735 1768 2065 2066 12952 14863 14867 14869 14868 14873 
2032 2066 1735 2065 14871 14869 14636 14865 14873 14867 
2033 1735 2066 1736 14641 14869 14872 14643 12733 14874 
2066 1735 1769 1736 14869 12958 14870 14874 12733 12959 
1736 1769 2067 1770 12959 14875 14876 12965 12967 14877 
2033 2067 2034 1736 14878 14879 14653 14643 14876 14648 
1736 1769 2066 2067 12959 14870 14874 14876 14875 14880 
2033 2067 1736 2066 14878 14876 14643 14872 14880 14874 
2034 1736 2067 1737 14648 14876 14879 14650 12740 14881 
2067 1736 1770 1737 14876 12965 14877 14881 12740 12966 
1737 1770 2068 1771 12966 14882 14883 12972 12974 14884 
2034 2068 2035 1737 14885 14886 14660 14650 14883 14655 
1737 1770 2067 2068 12966 14877 14881 14883 14882 14887 
2034 2068 1737 2067 14885 14883 14650 14879 14887 14881 
2035 1737 2068 1738 14655 14883 14886 14657 12747 14888 
2068 1737 1771 1738 14883 12972 14884 14888 12747 12973 
1738 1771 2069 1772 12973 14889 14890 12979 12981 14891 
2035 2069 2036 1738 14892 14893 14667 14657 14890 14662 
1738 1771 2068 2069 12973 14884 14888 14890 14889 14894 
2035 2069 1738 2068 14892 14890 14657 14886 14894 14888 
2036 1738 2069 1739 14662 14890 14893 14664 12754 14895 
2069 1738 1772 1739 14890 12979 14891 14895 12754 12980 
1739 1772 2070 1773 12980 14896 14897 12986 12988 14898 
2036 2070 2037 1739 14899 14900 14674 14664 14897 14669 
1739 1772 2069 2070 12980 14891 14895 14897 14896 14901 
2036 2070 1739 2069 14899 14897 14664 14893 14901 14895 
2037 1739 2070 1740 14669 14897 14900 14671 12761 14902 
2070 1739 1773 1740 14897 12986 14898 14902 12761 12987 
1740 1773 2071 1774 12987 14903 14904 12993 12995 14905 
2037 2071 2038 1740 14906 14907 14681 14671 14904 14676 
1740 1773 2070 2071 12987 14898 14902 14904 14903 14908 
2037 2071 1740 2070 14906 14904 14671 14900 14908 14902 
2038 1740 2071 1741 14676 14904 14907 14678 12768 14909 
2071 1740 1774 1741 14904 12993 14905 14909 12768 12994 
1741 1774 2072 1775 12994 14910 14911 13000 13002 14912 
2038 2072 2039 1741 14913 14914 14688 14678 14911 14683 
1741 1774 2071 2072 12994 14905 14909 14911 14910 14915 
2038 2072 1741 2071 14913 14911 14678 14907 14915 14909 
2039 1741 2072 1742 14683 14911 14914 14685 12775 14916 
2072 1741 1775 1742 14911 13000 14912 14916 12775 13001 
1742 1775 2073 1776 13001 14917 14918 13007 13009 14919 
2039 2073 2040 1742 14920 14921 14695 14685 14918 14690 
1742 1775 2072 2073 13001 14912 14916 14918 14917 14922 
2039 2073 1742 2072 14920 14918 14685 14914 14922 14916 
2040 1742 2073 1743 14690 14918 14921 14692 12782 14923 
2073 1742 1776 1743 14918 13007 14919 14923 12782 13008 
1743 1776 2074 1777 13008 14924 14925 13014 13016 14926 
2040 2074 2041 1743 14927 14928 14702 14692 14925 14697 
1743 1776 2073 2074 13008 14919 14923 14925 14924 14929 
2040 2074 1743 2073 14927 14925 14692 14921 14929 14923 
2041 1743 2074 1744 14697 14925 14928 14699 12789 14930 
2074 1743 1777 1744 14925 13014 14926 14930 12789 13015 
1744 1777 2075 1778 13015 14931 14932 13021 13023 14933 
2041 2075 2042 1744 14934 14935 14709 14699 14932 14704 
1744 1777 2074 2075 13015 14926 14930 14932 14931 14936 
2041 2075 1744 2074 14934 14932 14699 14928 14936 14930 
2042 1744 2075 1745 14704 14932 14935 14706 12796 14937 
2075 1744 1778 1745 14932 13021 14933 14937 12796 13022 
1745 1778 2076 1779 13022 14938 14939 13028 13030 14940 
2042 2076 2043 1745 14941 14942 14716 14706 14939 14711 
1745 1778 2075 2076 13022 14933 14937 14939 14938 14943 
2042 2076 1745 2075 14941 14939 14706 14935 14943 14937 
2043 1745 2076 1746 14711 14939 14942 14713 12803 14944 
2076 1745 1779 1746 14939 13028 14940 14944 12803 13029 
1746 1779 2077 1780 13029 14945 14946 13035 13037 14947 
2043 2077 2044 1746 14948 14949 14723 14713 14946 14718 
1746 1779 2076 2077 13029 14940 14944 14946 14945 14950 
2043 2077 1746 2076 14948 14946 14713 14942 14950 14944 
2044 1746 2077 1747 14718 14946 14949 14720 12810 14951 
2077 1746 1780 1747 14946 13035 14947 14951 12810 13036 
1747 1780 2078 1781 13036 14952 14953 13042 13044 14954 
2044 2078 2045 1747 14955 14956 14730 14720 14953 14725 
1747 1780 2077 2078 13036 14947 14951 14953 14952 14957 
2044 2078 1747 2077 14955 14953 14720 14949 14957 14951 
2045 1747 2078 1748 14725 14953 14956 14727 12817 14958 
2078 1747 1781 1748 14953 13042 14954 14958 12817 13043 
1782 1815 2113 1816 13057 14959 14960 13049 13056 14961 
2079 2113 2080 1782 14962 14963 14964 14965 14960 14966 
1782 1815 2112 2113 13057 14967 14968 14960 14959 14969 
2079 2113 1782 2112 14962 14960 14965 14970 14969 14968 
2080 1782 2113 1783 14966 14960 14963 14971 13051 14972 
2113 1782 1816 1783 14960 13049 14961 14972 13051 13050 
1783 1816 2114 1817 13050 14973 14974 13063 13067 14975 
2080 2114 2081 1783 14976 14977 14978 14971 14974 14979 
1783 1816 2113 2114 13050 14961 14972 14974 14973 14980 
2080 2114 1783 2113 14976 14974 14971 14963 14980 14972 
2081 1783 2114 1784 14979 14974 14977 14981 13065 14982 
2114 1783 1817 1784 14974 13063 14975 14982 13065 13064 
1784 1817 2115 1818 13064 14983 14984 13073 13077 14985 
2081 2115 2082 1784 14986 14987 14988 14981 14984 14989 
1784 1817 2114 2115 13064 14975 14982 14984 14983 14990 
2081 2115 1784 2114 14986 14984 14981 14977 14990 14982 
2082 1784 2115 1785 14989 14984 14987 14991 13075 14992 
2115 1784 1818 1785 14984 13073 14985 14992 13075 13074 
1785 1818 2116 1819 13074 14993 14994 13083 13087 14995 
2082 2116 2083 1785 14996 14997 14998 14991 14994 14999 
1785 1818 2115 2116 13074 14985 14992 14994 14993 15000 
2082 2116 1785 2115 14996 14994 14991 14987 15000 14992 
2083 1785 2116 1786 14999 14994 14997 15001 13085 15002 
2116 1785 1819 1786 14994 13083 14995 15002 13085 13084 
1786 1819 2117 1820 13084 15003 15004 13093 13097 15005 
2083 2117 2084 1786 15006 15007 15008 15001 15004 15009 
1786 1819 2116 2117 13084 14995 15002 15004 15003 15010 
2083 2117 1786 2116 15006 15004 15001 14997 15010 15002 
2084 1786 2117 1787 15009 15004 15007 15011 13095 15012 
2117 1786 1820 1787 15004 13093 15005 15012 13095 13094 
1787 1820 2118 1821 13094 15013 15014 13103 13107 15015 
2084 2118 2085 1787 15016 15017 15018 15011 15014 15019 
1787 1820 2117 2118 13094 15005 15012 15014 15013 15020 
2084 2118 1787 2117 15016 15014 15011 15007 15020 15012 
2085 1787 2118 1788 15019 15014 15017 15021 13105 15022 
2118 1787 1821 1788 15014 13103 15015 15022 13105 13104 
1788 1821 2119 1822 13104 15023 15024 13113 13117 15025 
2085 2119 2086 1788 15026 15027 15028 15021 15024 15029 
1788 1821 2118 2119 13104 15015 15022 15024 15023 15030 
2085 2119 1788 2118 15026 15024 15021 15017 15030 15022 
2086 1788 2119 1789 15029 15024 15027 15031 13115 15032 
2119 1788 1822 1789 15024 13113 15025 15032 13115 13114 
1789 1822 2120 1823 13114 15033 15034 13123 13127 15035 
2086 2120 2087 1789 15036 15037 15038 15031 15034 15039 
1789 1822 2119 2120 13114 15025 15032 15034 15033 15040 
2086 2120 1789 2119 15036 15034 15031 15027 15040 15032 
2087 1789 2120 1790 15039 15034 15037 15041 13125 15042 
2120 1789 1823 1790 15034 13123 15035 15042 13125 13124 
1790 1823 2121 1824 13124 15043 15044 13133 13137 15045 
2087 2121 2088 1790 15046 15047 15048 15041 15044 15049 
1790 1823 2120 2121 13124 15035 15042 15044 15043 15050 
2087 2121 1790 2120 15046 15044 15041 15037 15050 15042 
2088 1790 2121 1791 15049 15044 15047 15051 13135 15052 
2121 1790 1824 1791 15044 13133 15045 15052 13135 13134 
1791 1824 2122 1825 13134 15053 15054 13143 13147 15055 
2088 2122 2089 1791 15056 15057 15058 15051 15054 15059 
1791 1824 2121 2122 13134 15045 15052 15054 15053 15060 
2088 2122 1791 2121 15056 15054 15051 15047 15060 15052 
2089 1791 2122 1792 15059 15054 15057 15061 13145 15062 
2122 1791 1825 1792 15054 13143 15055 15062 13145 13144 
1792 1825 2123 1826 13144 15063 15064 13153 13157 15065 
2089 2123 2090 1792 15066 15067 15068 15061 15064 15069 
1792 1825 2122 2123 13144 15055 15062 15064 15063 15070 
2089 2123 1792 2122 15066 15064 15061 15057 15070 15062 
2090 1792 2123 1793 15069 15064 15067 15071 13155 15072 
2123 1792 1826 1793 15064 13153 15065 15072 13155 13154 
1793 1826 2124 1827 13154 15073 15074 13163 13167 15075 
2090 2124 2091 1793 15076 15077 15078 15071 15074 15079 
1793 1826 2123 2124 13154 15065 15072 15074 15073 15080 
2090 2124 1793 2123 15076 15074 15071 15067 15080 15072 
2091 1793 2124 1794 15079 15074 15077 15081 13165 15082 
2124 1793 1827 1794 15074 13163 15075 15082 13165 13164 
1794 1827 2125 1828 13164 15083 15084 13173 13177 15085 
2091 2125 2092 1794 15086 15087 15088 15081 15084 15089 
1794 1827 2124 2125 13164 15075 15082 15084 15083 15090 
2091 2125 1794 2124 15086 15084 15081 15077 15090 15082 
2092 1794 2125 1795 15089 15084 15087 15091 13175 15092 
2125 1794 1828 1795 15084 13173 15085 15092 13175 13174 
1795 1828 2126 1829 13174 15093 15094 13183 13187 15095 
2092 2126 2093 1795 15096 15097 15098 15091 15094 15099 
1795 1828 2125 2126 13174 15085 15092 15094 15093 15100 
2092 2126 1795 2125 15096 15094 15091 15087 15100 15092 
2093 1795 2126 1796 15099 15094 15097 15101 13185 15102 
2126 1795 1829 1796 15094 13183 15095 15102 13185 13184 
1796 1829 2127 1830 13184 15103 15104 13193 13197 15105 
2093 2127 2094 1796 15106 15107 15108 15101 15104 15109 
1796 1829 2126 2127 13184 15095 15102 15104 15103 15110 
2093 2127 1796 2126 15106 15104 15101 15097 15110 15102 
2094 1796 2127 1797 15109 15104 15107 15111 13195 15112 
2127 1796 1830 1797 15104 13193 15105 15112 13195 13194 
1797 1830 2128 1831 13194 15113 15114 13203 13207 15115 
2094 2128 2095 1797 15116 15117 15118 15111 15114 15119 
1797 1830 2127 2128 13194 15105 15112 15114 15113 15120 
2094 2128 1797 2127 15116 15114 15111 15107 15120 15112 
2095 1797 2128 1798 15119 15114 15117 15121 13205 15122 
2128 1797 1831 1798 15114 13203 15115 15122 13205 13204 
1798 1831 2129 1832 13204 15123 15124 13213 13217 15125 
2095 2129 2096 1798 15126 15127 15128 15121 15124 15129 
1798 1831 2128 2129 13204 15115 15122 15124 15123 15130 
2095 2129 1798 2128 15126 15124 15121 15117 15130 15122 
2096 1798 2129 1799 15129 15124 15127 15131 13215 15132 
2129 1798 1832 1799 15124 13213 15125 15132 13215 13214 
1799 1832 2130 1833 13214 15133 15134 13223 13227 15135 
2096 2130 2097 1799 15136 15137 15138 15131 15134 15139 
1799 1832 2129 2130 13214 15125 15132 15134 15133 15140 
2096 2130 1799 2129 15136 15134 15131 15127 15140 15132 
2097 1799 2130 1800 15139 15134 15137 15141 13225 15142 
2130 1799 1833 1800 15134 13223 15135 15142 13225 13224 
1800 1833 2131 1834 13224 15143 15144 13233 13237 15145 
2097 2131 2098 1800 15146 15147 15148 15141 15144 15149 
1800 1833 2130 2131 13224 15135 15142 15144 15143 15150 
2097 2131 1800 2130 15146 15144 15141 15137 15150 15142 
2098 1800 2131 1801 15149 15144 15147 15151 13235 15152 
2131 1800 1834 1801 15144 13233 15145 15152 13235 13234 
1801 1834 2132 1835 13234 15153 15154 13243 13247 15155 
2098 2132 2099 1801 15156 15157 15158 15151 15154 15159 
1801 1834 2131 2132 13234 15145 15152 15154 15153 15160 
2098 2132 1801 2131 15156 15154 15151 15147 15160 15152 
2099 1801 2132 1802 15159 15154 15157 15161 13245 15162 
2132 1801 1835 1802 15154 13243 15155 15162 13245 13244 
1802 1835 2133 1836 13244 15163 15164 13253 13257 15165 
2099 2133 2100 1802 15166 15167 15168 15161 15164 15169 
1802 1835 2132 2133 13244 15155 15162 15164 15163 15170 
2099 2133 1802 2132 15166 15164 15161 15157 15170 15162 
2100 1802 2133 1803 15169 15164 15167 15171 13255 15172 
2133 1802 1836 1803 15164 13253 15165 15172 13255 13254 
1803 1836 2134 1837 13254 15173 15174 13263 13267 15175 
2100 2134 2101 1803 15176 15177 15178 15171 15174 15179 
1803 1836 2133 2134 13254 15165 15172 15174 15173 15180 
2100 2134 1803 2133 15176 15174 15171 15167 15180 15172 
2101 1803 2134 1804 15179 15174 15177 15181 13265 15182 
2134 1803 1837 1804 15174 13263 15175 15182 13265 13264 
1804 1837 2135 1838 13264 15183 15184 13273 13277 15185 
2101 2135 2102 1804 15186 15187 15188 15181 15184 15189 
1804 1837 2134 2135 13264 15175 15182 15184 15183 15190 
2101 2135 1804 2134 15186 15184 15181 15177 15190 15182 
2102 1804 2135 1805 15189 15184 15187 15191 13275 15192 
2135 1804 1838 1805 15184 13273 15185 15192 13275 13274 
1805 1838 2136 1839 13274 15193 15194 13283 13287 15195 
2102 2136 2103 1805 15196 15197 15198 15191 15194 15199 
1805 1838 2135 2136 13274 15185 15192 15194 15193 15200 
2102 2136 1805 2135 15196 15194 15191 15187 15200 15192 
2103 1805 2136 1806 15199 15194 15197 15201 13285 15202 
2136 1805 1839 1806 15194 13283 15195 15202 13285 13284 
1806 1839 2137 1840 13284 15203 15204 13293 13297 15205 
2103 2137 2104 1806 15206 15207 15208 15201 15204 15209 
1806 1839 2136 2137 13284 15195 15202 15204 15203 15210 
2103 2137 1806 2136 15206 15204 15201 15197 15210 15202 
2104 1806 2137 1807 15209 15204 15207 15211 13295 15212 
2137 1806 1840 1807 15204 13293 15205 15212 13295 13294 
1807 1840 2138 1841 13294 15213 15214 13303 13307 15215 
2104 2138 2105 1807 15216 15217 15218 15211 15214 15219 
1807 1840 2137 2138 13294 15205 15212 15214 15213 15220 
2104 2138 1807 2137 15216 15214 15211 15207 15220 15212 
2105 1807 2138 1808 15219 15214 15217 15221 13305 15222 
2138 1807 1841 1808 15214 13303 15215 15222 13305 13304 
1808 1841 2139 1842 13304 15223 15224 13313 13317 15225 
2105 2139 2106 1808 15226 15227 15228 15221 15224 15229 
1808 1841 2138 2139 13304 15215 15222 15224 15223 15230 
2105 2139 1808 2138 15226 15224 15221 15217 15230 15222 
2106 1808 2139 1809 15229 15224 15227 15231 13315 15232 
2139 1808 1842 1809 15224 13313 15225 15232 13315 13314 
1809 1842 2140 1843 13314 15233 15234 13323 13327 15235 
2106 2140 2107 1809 15236 15237 15238 15231 15234 15239 
1809 1842 2139 2140 13314 15225 15232 15234 15233 15240 
2106 2140 1809 2139 15236 15234 15231 15227 15240 15232 
2107 1809 2140 1810 15239 15234 15237 15241 13325 15242 
2140 1809 1843 1810 15234 13323 15235 15242 13325 13324 
1810 1843 2141 1844 13324 15243 15244 13333 13337 15245 
2107 2141 2108 1810 15246 15247 15248 15241 15244 15249 
1810 1843 2140 2141 13324 15235 15242 15244 15243 15250 
2107 2141 1810 2140 15246 15244 15241 15237 15250 15242 
2108 1810 2141 1811 15249 15244 15247 15251 13335 15252 
2141 1810 1844 1811 15244 13333 15245 15252 13335 13334 
1811 1844 2142 1845 13334 15253 15254 13343 13347 15255 
2108 2142 2109 1811 15256 15257 15258 15251 15254 15259 
1811 1844 2141 2142 13334 15245 15252 15254 15253 15260 
2108 2142 1811 2141 15256 15254 15251 15247 15260 15252 
2109 1811 2142 1812 15259 15254 15257 15261 13345 15262 
2142 1811 1845 1812 15254 13343 15255 15262 13345 13344 
1812 1845 2143 1846 13344 15263 15264 13353 13357 15265 
2109 2143 2110 1812 15266 15267 15268 15261 15264 15269 
1812 1845 2142 2143 13344 15255 15262 15264 15263 15270 
2109 2143 1812 2142 15266 15264 15261 15257 15270 15262 
2110 1812 2143 1813 15269 15264 15267 15271 13355 15272 
2143 1812 1846 1813 15264 13353 15265 15272 13355 13354 
1813 1846 2144 1847 13354 15273 15274 13363 13367 15275 
2110 2144 2111 1813 15276 15277 15278 15271 15274 15279 
1813 1846 2143 2144 13354 15265 15272 15274 15273 15280 
2110 2144 1813 2143 15276 15274 15271 15267 15280 15272 
2111 1813 2144 1814 15279 15274 15277 15281 13365 15282 
2144 1813 1847 1814 15274 13363 15275 15282 13365 13364 
1815 1848 2146 1849 13378 15283 15284 13373 13377 15285 
2112 2146 2113 1815 15286 15287 14969 14967 15284 14959 
1815 1848 2145 2146 13378 15288 15289 15284 15283 15290 
2112 2146 1815 2145 15286 15284 14967 15291 15290 15289 
2113 1815 2146 1816 14959 15284 15287 14961 13056 15292 
2146 1815 1849 1816 15284 13373 15285 15292 13056 13374 
1816 1849 2147 1850 13374 15293 15294 13383 13385 15295 
2113 2147 2114 1816 15296 15297 14980 14961 15294 14973 
1816 1849 2146 2147 13374 15285 15292 15294 15293 15298 
2113 2147 1816 2146 15296 15294 14961 15287 15298 15292 
2114 1816 2147 1817 14973 15294 15297 14975 13067 15299 
2147 1816 1850 1817 15294 13383 15295 15299 13067 13384 
1817 1850 2148 1851 13384 15300 15301 13390 13392 15302 
2114 2148 2115 1817 15303 15304 14990 14975 15301 14983 
1817 1850 2147 2148 13384 15295 15299 15301 15300 15305 
2114 2148 1817 2147 15303 15301 14975 15297 15305 15299 
2115 1817 2148 1818 14983 15301 15304 14985 13077 15306 
2148 1817 1851 1818 15301 13390 15302 15306 13077 13391 
1818 1851 2149 1852 13391 15307 15308 13397 13399 15309 
2115 2149 2116 1818 15310 15311 15000 14985 15308 14993 
1818 1851 2148 2149 13391 15302 15306 15308 15307 15312 
2115 2149 1818 2148 15310 15308 14985 15304 15312 15306 
2116 1818 2149 1819 14993 15308 15311 14995 13087 15313 
2149 1818 1852 1819 15308 13397 15309 15313 13087 13398 
1819 1852 2150 1853 13398 15314 15315 13404 13406 15316 
2116 2150 2117 1819 15317 15318 15010 14995 15315 15003 
1819 1852 2149 2150 13398 15309 15313 15315 15314 15319 
2116 2150 1819 2149 15317 15315 14995 15311 15319 15313 
2117 1819 2150 1820 15003 15315 15318 15005 13097 15320 
2150 1819 1853 1820 15315 13404 15316 15320 13097 13405 
1820 1853 2151 1854 13405 15321 15322 13411 13413 15323 
2117 2151 2118 1820 15324 15325 15020 15005 15322 15013 
1820 1853 2150 2151 13405 15316 15320 15322 15321 15326 
2117 2151 1820 2150 15324 15322 15005 15318 15326 15320 
2118 1820 2151 1821 15013 15322 15325 15015 13107 15327 
2151 1820 1854 1821 15322 13411 15323 15327 13107 13412 
1821 1854 2152 1855 13412 15328 15329 13418 13420 15330 
2118 2152 2119 1821 15331 15332 15030 15015 15329 15023 
1821 1854 2151 2152 13412 15323 15327 15329 15328 15333 
2118 2152 1821 2151 15331 15329 15015 15325 15333 15327 
2119 1821 2152 1822 15023 15329 15332 15025 13117 15334 
2152 1821 1855 1822 15329 13418 15330 15334 13117 13419 
1822 1855 2153 1856 13419 15335 15336 13425 13427 15337 
2119 2153 2120 1822 15338 15339 15040 15025 15336 15033 
1822 1855 2152 2153 13419 15330 15334 15336 15335 15340 
2119 2153 1822 2152 15338 15336 15025 15332 15340 15334 
2120 1822 2153 1823 15033 15336 15339 15035 13127 15341 
2153 1822 1856 1823 15336 13425 15337 15341 13127 13426 
1823 1856 2154 1857 13426 15342 15343 13432 13434 15344 
2120 2154 2121 1823 15345 15346 15050 15035 15343 15043 
1823 1856 2153 2154 13426 15337 15341 15343 15342 15347 
2120 2154 1823 2153 15345 15343 15035 15339 15347 15341 
2121 1823 2154 1824 15043 15343 15346 15045 13137 15348 
2154 1823 1857 1824 15343 13432 15344 15348 13137 13433 
1824 1857 2155 1858 13433 15349 15350 13439 13441 15351 
2121 2155 2122 1824 15352 15353 15060 15045 15350 15053 
1824 1857 2154 2155 13433 15344 15348 15350 15349 15354 
2121 2155 1824 2154 15352 15350 15045 15346 15354 15348 
2122 1824 2155 1825 15053 15350 15353 15055 13147 15355 
2155 1824 1858 1825 15350 13439 15351 15355 13147 13440 
1825 1858 2156 1859 13440 15356 15357 13446 13448 15358 
2122 2156 2123 1825 15359 15360 15070 15055 15357 15063 
1825 1858 2155 2156 13440 15351 15355 15357 15356 15361 
2122 2156 1825 2155 15359 15357 15055 15353 15361 15355 
2123 1825 2156 1826 15063 15357 15360 15065 13157 15362 
2156 1825 1859 1826 15357 13446 15358 15362 13157 13447 
1826 1859 2157 1860 13447 15363 15364 13453 13455 15365 
2123 2157 2124 1826 15366 15367 15080 15065 15364 15073 
1826 1859 2156 2157 13447 15358 15362 15364 15363 15368 
2123 2157 1826 2156 15366 15364 15065 15360 15368 15362 
2124 1826 2157 1827 15073 15364 15367 15075 13167 15369 
2157 1826 1860 1827 15364 13453 15365 15369 13167 13454 
1827 1860 2158 1861 13454 15370 15371 13460 13462 15372 
2124 2158 2125 1827 15373 15374 15090 15075 15371 15083 
1827 1860 2157 2158 13454 15365 15369 15371 15370 15375 
2124 2158 1827 2157 15373 15371 15075 15367 15375 15369 
2125 1827 2158 1828 15083 15371 15374 15085 13177 15376 
2158 1827 1861 1828 15371 13460 15372 15376 13177 13461 
1828 1861 2159 1862 13461 15377 15378 13467 13469 15379 
2125 2159 2126 1828 15380 15381 15100 15085 15378 15093 
1828 1861 2158 2159 13461 15372 15376 15378 15377 15382 
2125 2159 1828 2158 15380 15378 15085 15374 15382 15376 
2126 1828 2159 1829 15093 15378 15381 15095 13187 15383 
2159 1828 1862 1829 15378 13467 15379 15383 13187 13468 
1829 1862 2160 1863 13468 15384 15385 13474 13476 15386 
2126 2160 2127 1829 15387 15388 15110 15095 15385 15103 
1829 1862 2159 2160 13468 15379 15383 15385 15384 15389 
2126 2160 1829 2159 15387 15385 15095 15381 15389 15383 
2127 1829 2160 1830 15103 15385 15388 15105 13197 15390 
2160 1829 1863 1830 15385 13474 15386 15390 13197 13475 
1830 1863 2161 1864 13475 15391 15392 13481 13483 15393 
2127 2161 2128 1830 15394 15395 15120 15105 15392 15113 
1830 1863 2160 2161 13475 15386 15390 15392 15391 15396 
2127 2161 1830 2160 15394 15392 15105 15388 15396 15390 
2128 1830 2161 1831 15113 15392 15395 15115 13207 15397 
2161 1830 1864 1831 15392 13481 15393 15397 13207 13482 
1831 1864 2162 1865 13482 15398 15399 13488 13490 15400 
2128 2162 2129 1831 15401 15402 15130 15115 15399 15123 
1831 1864 2161 2162 13482 15393 15397 15399 15398 15403 
2128 2162 1831 2161 15401 15399 15115 15395 15403 15397 
2129 1831 2162 1832 15123 15399 15402 15125 13217 15404 
2162 1831 1865 1832 15399 13488 15400 15404 13217 13489 
1832 1865 2163 1866 13489 15405 15406 13495 13497 15407 
2129 2163 2130 1832 15408 15409 15140 15125 15406 15133 
1832 1865 2162 2163 13489 15400 15404 15406 15405 15410 
2129 2163 1832 2162 15408 15406 15125 15402 15410 15404 
2130 1832 2163 1833 15133 15406 15409 15135 13227 15411 
2163 1832 1866 1833 15406 13495 15407 15411 13227 13496 
1833 1866 2164 1867 13496 15412 15413 13502 13504 15414 
2130 2164 2131 1833 15415 15416 15150 15135 15413 15143 
1833 1866 2163 2164 13496 15407 15411 15413 15412 15417 
2130 2164 1833 2163 15415 15413 15135 15409 15417 15411 
2131 1833 2164 1834 15143 15413 15416 15145 13237 15418 
2164 1833 1867 1834 15413 13502 15414 15418 13237 13503 
1834 1867 2165 1868 13503 15419 15420 13509 13511 15421 
2131 2165 2132 1834 15422 15423 15160 15145 15420 15153 
1834 1867 2164 2165 13503 15414 15418 15420 15419 15424 
2131 2165 1834 2164 15422 15420 15145 15416 15424 15418 
2132 1834 2165 1835 15153 15420 15423 15155 13247 15425 
2165 1834 1868 1835 15420 13509 15421 15425 13247 13510 
1835 1868 2166 1869 13510 15426 15427 13516 13518 15428 
2132 2166 2133 1835 15429 15430 15170 15155 15427 15163 
1835 1868 2165 2166 13510 15421 15425 15427 15426 15431 
2132 2166 1835 2165 15429 15427 15155 15423 15431 15425 
2133 1835 2166 1836 15163 15427 15430 15165 13257 15432 
2166 1835 1869 1836 15427 13516 15428 15432 13257 13517 
1836 1869 2167 1870 13517 15433 15434 13523 13525 15435 
2133 2167 2134 1836 15436 15437 15180 15165 15434 15173 
1836 1869 2166 2167 13517 15428 15432 15434 15433 15438 
2133 2167 1836 2166 15436 15434 15165 15430 15438 15432 
2134 1836 2167 1837 15173 15434 15437 15175 13267 15439 
2167 1836 1870 1837 15434 13523 15435 15439 13267 13524 
1837 1870 2168 1871 13524 15440 15441 13530 13532 15442 
2134 2168 2135 1837 15443 15444 15190 15175 15441 15183 
1837 1870 2167 2168 13524 15435 15439 15441 15440 15445 
2134 2168 1837 2167 15443 15441 15175 15437 15445 15439 
2135 1837 2168 1838 15183 15441 15444 15185 13277 15446 
2168 1837 1871 1838 15441 13530 15442 15446 13277 13531 
1838 1871 2169 1872 13531 15447 15448 13537 13539 15449 
2135 2169 2136 1838 15450 15451 15200 15185 15448 15193 
1838 1871 2168 2169 13531 15442 15446 15448 15447 15452 
2135 2169 1838 2168 15450 15448 15185 15444 15452 15446 
2136 1838 2169 1839 15193 15448 15451 15195 13287 15453 
2169 1838 1872 1839 15448 13537 15449 15453 13287 13538 
1839 1872 2170 1873 13538 15454 15455 13544 13546 15456 
2136 2170 2137 1839 15457 15458 15210 15195 15455 15203 
1839 1872 2169 2170 13538 15449 15453 15455 15454 15459 
2136 2170 1839 2169 15457 15455 15195 15451 15459 15453 
2137 1839 2170 1840 15203 15455 15458 15205 13297 15460 
2170 1839 1873 1840 15455 13544 15456 15460 13297 13545 
1840 1873 2171 1874 13545 15461 15462 13551 13553 15463 
2137 2171 2138 1840 15464 15465 15220 15205 15462 15213 
1840 1873 2170 2171 13545 15456 15460 15462 15461 15466 
2137 2171 1840 2170 15464 15462 15205 15458 15466 15460 
2138 1840 2171 1841 15213 15462 15465 15215 13307 15467 
2171 1840 1874 1841 15462 13551 15463 15467 13307 13552 
1841 1874 2172 1875 13552 15468 15469 13558 13560 15470 
2138 2172 2139 1841 15471 15472 15230 15215 15469 15223 
1841 1874 2171 2172 13552 15463 15467 15469 15468 15473 
2138 2172 1841 2171 15471 15469 15215 15465 15473 15467 
2139 1841 2172 1842 15223 15469 15472 15225 13317 15474 
2172 1841 1875 1842 15469 13558 15470 15474 13317 13559 
1842 1875 2173 1876 13559 15475 15476 13565 13567 15477 
2139 2173 2140 1842 15478 15479 15240 15225 15476 15233 
1842 1875 2172 2173 13559 15470 15474 15476 15475 15480 
2139 2173 1842 2172 15478 15476 15225 15472 15480 15474 
2140 1842 2173 1843 15233 15476 15479 15235 13327 15481 
2173 1842 1876 1843 15476 13565 15477 15481 13327 13566 
1843 1876 2174 1877 13566 15482 15483 13572 13574 15484 
2140 2174 2141 1843 15485 15486 15250 15235 15483 15243 
1843 1876 2173 2174 13566 15477 15481 15483 15482 15487 
2140 2174 1843 2173 15485 15483 15235 15479 15487 15481 
2141 1843 2174 1844 15243 15483 15486 15245 13337 15488 
2174 1843 1877 1844 15483 13572 15484 15488 13337 13573 
1844 1877 2175 1878 13573 15489 15490 13579 13581 15491 
2141 2175 2142 1844 15492 15493 15260 15245 15490 15253 
1844 1877 2174 2175 13573 15484 15488 15490 15489 15494 
2141 2175 1844 2174 15492 15490 15245 15486 15494 15488 
2142 1844 2175 1845 15253 15490 15493 15255 13347 15495 
2175 1844 1878 1845 15490 13579 15491 15495 13347 13580 
1845 1878 2176 1879 13580 15496 15497 13586 13588 15498 
2142 2176 2143 1845 15499 15500 15270 15255 15497 15263 
1845 1878 2175 2176 13580 15491 15495 15497 15496 15501 
2142 2176 1845 2175 15499 15497 15255 15493 15501 15495 
2143 1845 2176 1846 15263 15497 15500 15265 13357 15502 
2176 1845 1879 1846 15497 13586 15498 15502 13357 13587 
1846 1879 2177 1880 13587 15503 15504 13593 13595 15505 
2143 2177 2144 1846 15506 15507 15280 15265 15504 15273 
1846 1879 2176 2177 13587 15498 15502 15504 15503 15508 
2143 2177 1846 2176 15506 15504 15265 15500 15508 15502 
2144 1846 2177 1847 15273 15504 15507 15275 13367 15509 
2177 1846 1880 1847 15504 13593 15505 15509 13367 13594 
1848 1881 2179 1882 13605 15510 15511 13600 13604 15512 
2145 2179 2146 1848 15513 15514 15290 15288 15511 15283 
1848 1881 2178 2179 13605 15515 15516 15511 15510 15517 
2145 2179 1848 2178 15513 15511 15288 15518 15517 15516 
2146 1848 2179 1849 15283 15511 15514 15285 13377 15519 
2179 1848 1882 1849 15511 13600 15512 15519 13377 13601 
1849 1882 2180 1883 13601 15520 15521 13610 13612 15522 
2146 2180 2147 1849 15523 15524 15298 15285 15521 15293 
1849 1882 2179 2180 13601 15512 15519 15521 15520 15525 
2146 2180 1849 2179 15523 15521 15285 15514 15525 15519 
2147 1849 2180 1850 15293 15521 15524 15295 13385 15526 
2180 1849 1883 1850 15521 13610 15522 15526 13385 13611 
1850 1883 2181 1884 13611 15527 15528 13617 13619 15529 
2147 2181 2148 1850 15530 15531 15305 15295 15528 15300 
1850 1883 2180 2181 13611 15522 15526 15528 15527 15532 
2147 2181 1850 2180 15530 15528 15295 15524 15532 15526 
2148 1850 2181 1851 15300 15528 15531 15302 13392 15533 
2181 1850 1884 1851 15528 13617 15529 15533 13392 13618 
1851 1884 2182 1885 13618 15534 15535 13624 13626 15536 
2148 2182 2149 1851 15537 15538 15312 15302 15535 15307 
1851 1884 2181 2182 13618 15529 15533 15535 15534 15539 
2148 2182 1851 2181 15537 15535 15302 15531 15539 15533 
2149 1851 2182 1852 15307 15535 15538 15309 13399 15540 
2182 1851 1885 1852 15535 13624 15536 15540 13399 13625 
1852 1885 2183 1886 13625 15541 15542 13631 13633 15543 
2149 2183 2150 1852 15544 15545 15319 15309 15542 15314 
1852 1885 2182 2183 13625 15536 15540 15542 15541 15546 
2149 2183 1852 2182 15544 15542 15309 15538 15546 15540 
2150 1852 2183 1853 15314 15542 15545 15316 13406 15547 
2183 1852 1886 1853 15542 13631 15543 15547 13406 13632 
1853 1886 2184 1887 13632 15548 15549 13638 13640 15550 
2150 2184 2151 1853 15551 15552 15326 15316 15549 15321 
1853 1886 2183 2184 13632 15543 15547 15549 15548 15553 
2150 2184 1853 2183 15551 15549 15316 15545 15553 15547 
2151 1853 2184 1854 15321 15549 15552 15323 13413 15554 
2184 1853 1887 1854 15549 13638 15550 15554 13413 13639 
1854 1887 2185 1888 13639 15555 15556 13645 13647 15557 
2151 2185 2152 1854 15558 15559 15333 15323 15556 15328 
1854 1887 2184 2185 13639 15550 15554 15556 15555 15560 
2151 2185 1854 2184 15558 15556 15323 15552 15560 15554 
2152 1854 2185 1855 15328 15556 15559 15330 13420 15561 
2185 1854 1888 1855 15556 13645 15557 15561 13420 13646 
1855 1888 2186 1889 13646 15562 15563 13652 13654 15564 
2152 2186 2153 1855 15565 15566 15340 15330 15563 15335 
1855 1888 2185 2186 13646 15557 15561 15563 15562 15567 
2152 2186 1855 2185 15565 15563 15330 15559 15567 15561 
2153 1855 2186 1856 15335 15563 15566 15337 13427 15568 
2186 1855 1889 1856 15563 13652 15564 15568 13427 13653 
1856 1889 2187 1890 13653 15569 15570 13659 13661 15571 
2153 2187 2154 1856 15572 15573 15347 15337 15570 15342 
1856 1889 2186 2187 13653 15564 15568 15570 15569 15574 
2153 2187 1856 2186 15572 15570 15337 15566 15574 15568 
2154 1856 2187 1857 15342 15570 15573 15344 13434 15575 
2187 1856 1890 1857 15570 13659 15571 15575 13434 13660 
1857 1890 2188 1891 13660 15576 15577 13666 13668 15578 
2154 2188 2155 1857 15579 15580 15354 15344 15577 15349 
1857 1890 2187 2188 13660 15571 15575 15577 15576 15581 
2154 2188 1857 2187 15579 15577 15344 15573 15581 15575 
2155 1857 2188 1858 15349 15577 15580 15351 13441 15582 
2188 1857 1891 1858 15577 13666 15578 15582 13441 13667 
1858 1891 2189 1892 13667 15583 15584 13673 13675 15585 
2155 2189 2156 1858 15586 15587 15361 15351 15584 15356 
1858 1891 2188 2189 13667 15578 15582 15584 15583 15588 
2155 2189 1858 2188 15586 15584 15351 15580 15588 15582 
2156 1858 2189 1859 15356 15584 15587 15358 13448 15589 
2189 1858 1892 1859 15584 13673 15585 15589 13448 13674 
1859 1892 2190 1893 13674 15590 15591 13680 13682 15592 
2156 2190 2157 1859 15593 15594 15368 15358 15591 15363 
1859 1892 2189 2190 13674 15585 15589 15591 15590 15595 
2156 2190 1859 2189 15593 15591 15358 15587 15595 15589 
2157 1859 2190 1860 15363 15591 15594 15365 13455 15596 
2190 1859 1893 1860 15591 13680 15592 15596 13455 13681 
1860 1893 2191 1894 13681 15597 15598 13687 13689 15599 
2157 2191 2158 1860 15600 15601 15375 15365 15598 15370 
1860 1893 2190 2191 13681 15592 15596 15598 15597 15602 
2157 2191 1860 2190 15600 15598 15365 15594 15602 15596 
2158 1860 2191 1861 15370 15598 15601 15372 13462 15603 
2191 1860 1894 1861 15598 13687 15599 15603 13462 13688 
1861 1894 2192 1895 13688 15604 15605 13694 13696 15606 
2158 2192 2159 1861 15607 15608 15382 15372 15605 15377 
1861 1894 2191 2192 13688 15599 15603 15605 15604 15609 
2158 2192 1861 2191 15607 15605 15372 15601 15609 15603 
2159 1861 2192 1862 15377 15605 15608 15379 13469 15610 
2192 1861 1895 1862 15605 13694 15606 15610 13469 13695 
1862 1895 2193 1896 13695 15611 15612 13701 13703 15613 
2159 2193 2160 1862 15614 15615 15389 15379 15612 15384 
1862 1895 2192 2193 13695 15606 15610 15612 15611 15616 
2159 2193 1862 2192 15614 15612 15379 15608 15616 15610 
2160 1862 2193 1863 15384 15612 15615 15386 13476 15617 
2193 1862 1896 1863 15612 13701 15613 15617 13476 13702 
1863 1896 2194 1897 13702 15618 15619 13708 13710 15620 
2160 2194 2161 1863 15621 15622 15396 15386 15619 15391 
1863 1896 2193 2194 13702 15613 15617 15619 15618 15623 
2160 2194 1863 2193 15621 15619 15386 15615 15623 15617 
2161 1863 2194 1864 15391 15619 15622 15393 13483 15624 
2194 1863 1897 1864 15619 13708 15620 15624 13483 13709 
1864 1897 2195 1898 13709 15625 15626 13715 13717 15627 
2161 2195 2162 1864 15628 15629 15403 15393 15626 15398 
1864 1897 2194 2195 13709 15620 15624 15626 15625 15630 
2161 2195 1864 2194 15628 15626 15393 15622 15630 15624 
2162 1864 2195 1865 15398 15626 15629 15400 13490 15631 
2195 1864 1898 1865 15626 13715 15627 15631 13490 13716 
1865 1898 2196 1899 13716 15632 15633 13722 13724 15634 
2162 2196 2163 1865 15635 15636 15410 15400 15633 15405 
1865 1898 2195 2196 13716 15627 15631 15633 15632 15637 
2162 2196 1865 2195 15635 15633 15400 15629 15637 15631 
2163 1865 2196 1866 15405 15633 15636 15407 13497 15638 
2196 1865 1899 1866 15633 13722 15634 15638 13497 13723 
1866 1899 2197 1900 13723 15639 15640 13729 13731 15641 
2163 2197 2164 1866 15642 15643 15417 15407 15640 15412 
1866 1899 2196 2197 13723 15634 15638 15640 15639 15644 
2163 2197 1866 2196 15642 15640 15407 15636 15644 15638 
2164 1866 2197 1867 15412 15640 15643 15414 13504 15645 
2197 1866 1900 1867 15640 13729 15641 15645 13504 13730 
1867 1900 2198 1901 13730 15646 15647 13736 13738 15648 
2164 2198 2165 1867 15649 15650 15424 15414 15647 15419 
1867 1900 2197 2198 13730 15641 15645 15647 15646 15651 
2164 2198 1867 2197 15649 15647 15414 15643 15651 15645 
2165 1867 2198 1868 15419 15647 15650 15421 13511 15652 
2198 1867 1901 1868 15647 13736 15648 15652 13511 13737 
1868 1901 2199 1902 13737 15653 15654 13743 13745 15655 
2165 2199 2166 1868 15656 15657 15431 15421 15654 15426 
1868 1901 2198 2199 13737 15648 15652 15654 15653 15658 
2165 2199 1868 2198 15656 15654 15421 15650 15658 15652 
2166 1868 2199 1869 15426 15654 15657 15428 13518 15659 
2199 1868 1902 1869 15654 13743 15655 15659 13518 13744 
1869 1902 2200 1903 13744 15660 15661 13750 13752 15662 
2166 2200 2167 1869 15663 15664 15438 15428 15661 15433 
1869 1902 2199 2200 13744 15655 15659 15661 15660 15665 
2166 2200 1869 2199 15663 15661 15428 15657 15665 15659 
2167 1869 2200 1870 15433 15661 15664 15435 13525 15666 
2200 1869 1903 1870 15661 13750 15662 15666 13525 13751 
1870 1903 2201 1904 13751 15667 15668 13757 13759 15669 
2167 2201 2168 1870 15670 15671 15445 15435 15668 15440 
1870 1903 2200 2201 13751 15662 15666 15668 15667 15672 
2167 2201 1870 2200 15670 15668 15435 15664 15672 15666 
2168 1870 2201 1871 15440 15668 15671 15442 13532 15673 
2201 1870 1904 1871 15668 13757 15669 15673 13532 13758 
1871 1904 2202 1905 13758 15674 15675 13764 13766 15676 
2168 2202 2169 1871 15677 15678 15452 15442 15675 15447 
1871 1904 2201 2202 13758 15669 15673 15675 15674 15679 
2168 2202 1871 2201 15677 15675 15442 15671 15679 15673 
2169 1871 2202 1872 15447 15675 15678 15449 13539 15680 
2202 1871 1905 1872 15675 13764 15676 15680 13539 13765 
1872 1905 2203 1906 13765 15681 15682 13771 13773 15683 
2169 2203 2170 1872 15684 15685 15459 15449 15682 15454 
1872 1905 2202 2203 13765 15676 15680 15682 15681 15686 
2169 2203 1872 2202 15684 15682 15449 15678 15686 15680 
2170 1872 2203 1873 15454 15682 15685 15456 13546 15687 
2203 1872 1906 1873 15682 13771 15683 15687 13546 13772 
1873 1906 2204 1907 13772 15688 15689 13778 13780 15690 
2170 2204 2171 1873 15691 15692 15466 15456 15689 15461 
1873 1906 2203 2204 13772 15683 15687 15689 15688 15693 
2170 2204 1873 2203 15691 15689 15456 15685 15693 15687 
2171 1873 2204 1874 15461 15689 15692 15463 13553 15694 
2204 1873 1907 1874 15689 13778 15690 15694 13553 13779 
1874 1907 2205 1908 13779 15695 15696 13785 13787 15697 
2171 2205 2172 1874 15698 15699 15473 15463 15696 15468 
1874 1907 2204 2205 13779 15690 15694 15696 15695 15700 
2171 2205 1874 2204 15698 15696 15463 15692 15700 15694 
2172 1874 2205 1875 15468 15696 15699 15470 13560 15701 
2205 1874 1908 1875 15696 13785 15697 15701 13560 13786 
1875 1908 2206 1909 13786 15702 15703 13792 13794 15704 
2172 2206 2173 1875 15705 15706 15480 15470 15703 15475 
1875 1908 2205 2206 13786 15697 15701 15703 15702 15707 
2172 2206 1875 2205 15705 15703 15470 15699 15707 15701 
2173 1875 2206 1876 15475 15703 15706 15477 13567 15708 
2206 1875 1909 1876 15703 13792 15704 15708 13567 13793 
1876 1909 2207 1910 13793 15709 15710 13799 13801 15711 
2173 2207 2174 1876 15712 15713 15487 15477 15710 15482 
1876 1909 2206 2207 13793 15704 15708 15710 15709 15714 
2173 2207 1876 2206 15712 15710 15477 15706 15714 15708 
2174 1876 2207 1877 15482 15710 15713 15484 13574 15715 
2207 1876 1910 1877 15710 13799 15711 15715 13574 13800 
1877 1910 2208 1911 13800 15716 15717 13806 13808 15718 
2174 2208 2175 1877 15719 15720 15494 15484 15717 15489 
1877 1910 2207 2208 13800 15711 15715 15717 15716 15721 
2174 2208 1877 2207 15719 15717 15484 15713 15721 15715 
2175 1877 2208 1878 15489 15717 15720 15491 13581 15722 
2208 1877 1911 1878 15717 13806 15718 15722 13581 13807 
1878 1911 2209 1912 13807 15723 15724 13813 13815 15725 
2175 2209 2176 1878 15726 15727 15501 15491 15724 15496 
1878 1911 2208 2209 13807 15718 15722 15724 15723 15728 
2175 2209 1878 2208 15726 15724 15491 15720 15728 15722 
2176 1878 2209 1879 15496 15724 15727 15498 13588 15729 
2209 1878 1912 1879 15724 13813 15725 15729 13588 13814 
1879 1912 2210 1913 13814 15730 15731 13820 13822 15732 
2176 2210 2177 1879 15733 15734 15508 15498 15731 15503 
1879 1912 2209 2210 13814 15725 15729 15731 15730 15735 
2176 2210 1879 2209 15733 15731 15498 15727 15735 15729 
2177 1879 2210 1880 15503 15731 15734 15505 13595 15736 
2210 1879 1913 1880 15731 13820 15732 15736 13595 13821 
1881 1914 2212 1915 13832 15737 15738 13827 13831 15739 
2178 2212 2179 1881 15740 15741 15517 15515 15738 15510 
1881 1914 2211 2212 13832 15742 15743 15738 15737 15744 
2178 2212 1881 2211 15740 15738 15515 15745 15744 15743 
2179 1881 2212 1882 15510 15738 15741 15512 13604 15746 
2212 1881 1915 1882 15738 13827 15739 15746 13604 13828 
1882 1915 2213 1916 13828 15747 15748 13837 13839 15749 
2179 2213 2180 1882 15750 15751 15525 15512 15748 15520 
1882 1915 2212 2213 13828 15739 15746 15748 15747 15752 
2179 2213 1882 2212 15750 15748 15512 15741 15752 15746 
2180 1882 2213 1883 15520 15748 15751 15522 13612 15753 
2213 1882 1916 1883 15748 13837 15749 15753 13612 13838 
1883 1916 2214 1917 13838 15754 15755 13844 13846 15756 
2180 2214 2181 1883 15757 15758 15532 15522 15755 15527 
1883 1916 2213 2214 13838 15749 15753 15755 15754 15759 
2180 2214 1883 2213 15757 15755 15522 15751 15759 15753 
2181 1883 2214 1884 15527 15755 15758 15529 13619 15760 
2214 1883 1917 1884 15755 13844 15756 15760 13619 13845 
1884 1917 2215 1918 13845 15761 15762 13851 13853 15763 
2181 2215 2182 1884 15764 15765 15539 15529 15762 15534 
1884 1917 2214 2215 13845 15756 15760 15762 15761 15766 
2181 2215 1884 2214 15764 15762 15529 15758 15766 15760 
2182 1884 2215 1885 15534 15762 15765 15536 13626 15767 
2215 1884 1918 1885 15762 13851 15763 15767 13626 13852 
1885 1918 2216 1919 13852 15768 15769 13858 13860 15770 
2182 2216 2183 1885 15771 15772 15546 15536 15769 15541 
1885 1918 2215 2216 13852 15763 15767 15769 15768 15773 
2182 2216 1885 2215 15771 15769 15536 15765 15773 15767 
2183 1885 2216 1886 15541 15769 15772 15543 13633 15774 
2216 1885 1919 1886 15769 13858 15770 15774 13633 13859 
1886 1919 2217 1920 13859 15775 15776 13865 13867 15777 
2183 2217 2184 1886 15778 15779 15553 15543 15776 15548 
1886 1919 2216 2217 13859 15770 15774 15776 15775 15780 
2183 2217 1886 2216 15778 15776 15543 15772 15780 15774 
2184 1886 2217 1887 15548 15776 15779 15550 13640 15781 
2217 1886 1920 1887 15776 13865 15777 15781 13640 13866 
1887 1920 2218 1921 13866 15782 15783 13872 13874 15784 
2184 2218 2185 1887 15785 15786 15560 15550 15783 15555 
1887 1920 2217 2218 13866 15777 15781 15783 15782 15787 
2184 2218 1887 2217 15785 15783 15550 15779 15787 15781 
2185 1887 2218 1888 15555 15783 15786 15557 13647 15788 
2218 1887 1921 1888 15783 13872 15784 15788 13647 13873 
1888 1921 2219 1922 13873 15789 15790 13879 13881 15791 
2185 2219 2186 1888 15792 15793 15567 15557 15790 15562 
1888 1921 2218 2219 13873 15784 15788 15790 15789 15794 
2185 2219 1888 2218 15792 15790 15557 15786 15794 15788 
2186 1888 2219 1889 15562 15790 15793 15564 13654 15795 
2219 1888 1922 1889 15790 13879 15791 15795 13654 13880 
1889 1922 2220 1923 13880 15796 15797 13886 13888 15798 
2186 2220 2187 1889 15799 15800 15574 15564 15797 15569 
1889 1922 2219 2220 13880 15791 15795 15797 15796 15801 
2186 2220 1889 2219 15799 15797 15564 15793 15801 15795 
2187 1889 2220 1890 15569 15797 15800 15571 13661 15802 
2220 1889 1923 1890 15797 13886 15798 15802 13661 13887 
1890 1923 2221 1924 13887 15803 15804 13893 13895 15805 
2187 2221 2188 1890 15806 15807 15581 15571 15804 15576 
1890 1923 2220 2221 13887 15798 15802 15804 15803 15808 
2187 2221 1890 2220 15806 15804 15571 15800 15808 15802 
2188 1890 2221 1891 15576 15804 15807 15578 13668 15809 
2221 1890 1924 1891 15804 13893 15805 15809 13668 13894 
1891 1924 2222 1925 13894 15810 15811 13900 13902 15812 
2188 2222 2189 1891 15813 15814 15588 15578 15811 15583 
1891 1924 2221 2222 13894 15805 15809 15811 15810 15815 
2188 2222 1891 2221 15813 15811 15578 15807 15815 15809 
2189 1891 2222 1892 15583 15811 15814 15585 13675 15816 
2222 1891 1925 1892 15811 13900 15812 15816 13675 13901 
1892 1925 2223 1926 13901 15817 15818 13907 13909 15819 
2189 2223 2190 1892 15820 15821 15595 15585 15818 15590 
1892 1925 2222 2223 13901 15812 15816 15818 15817 15822 
2189 2223 1892 2222 15820 15818 15585 15814 15822 15816 
2190 1892 2223 1893 15590 15818 15821 15592 13682 15823 
2223 1892 1926 1893 15818 13907 15819 15823 13682 13908 
1893 1926 2224 1927 13908 15824 15825 13914 13916 15826 
2190 2224 2191 1893 15827 15828 15602 15592 15825 15597 
1893 1926 2223 2224 13908 15819 15823 15825 15824 15829 
2190 2224 1893 2223 15827 15825 15592 15821 15829 15823 
2191 1893 2224 1894 15597 15825 15828 15599 13689 15830 
2224 1893 1927 1894 15825 13914 15826 15830 13689 13915 
1894 1927 2225 1928 13915 15831 15832 13921 13923 15833 
2191 2225 2192 1894 15834 15835 15609 15599 15832 15604 
1894 1927 2224 2225 13915 15826 15830 15832 15831 15836 
2191 2225 1894 2224 15834 15832 15599 15828 15836 15830 
2192 1894 2225 1895 15604 15832 15835 15606 13696 15837 
2225 1894 1928 1895 15832 13921 15833 15837 13696 13922 
1895 1928 2226 1929 13922 15838 15839 13928 13930 15840 
2192 2226 2193 1895 15841 15842 15616 15606 15839 15611 
1895 1928 2225 2226 13922 15833 15837 15839 15838 15843 
2192 2226 1895 2225 15841 15839 15606 15835 15843 15837 
2193 1895 2226 1896 15611 15839 15842 15613 13703 15844 
2226 1895 1929 1896 15839 13928 15840 15844 13703 13929 
1896 1929 2227 1930 13929 15845 15846 13935 13937 15847 
2193 2227 2194 1896 15848 15849 15623 15613 15846 15618 
1896 1929 2226 2227 13929 15840 15844 15846 15845 15850 
2193 2227 1896 2226 15848 15846 15613 15842 15850 15844 
2194 1896 2227 1897 15618 15846 15849 15620 13710 15851 
2227 1896 1930 1897 15846 13935 15847 15851 13710 13936 
1897 1930 2228 1931 13936 15852 15853 13942 13944 15854 
2194 2228 2195 1897 15855 15856 15630 15620 15853 15625 
1897 1930 2227 2228 13936 15847 15851 15853 15852 15857 
2194 2228 1897 2227 15855 15853 15620 15849 15857 15851 
2195 1897 2228 1898 15625 15853 15856 15627 13717 15858 
2228 1897 1931 1898 15853 13942 15854 15858 13717 13943 
1898 1931 2229 1932 13943 15859 15860 13949 13951 15861 
2195 2229 2196 1898 15862 15863 15637 15627 15860 15632 
1898 1931 2228 2229 13943 15854 15858 15860 15859 15864 
2195 2229 1898 2228 15862 15860 15627 15856 15864 15858 
2196 1898 2229 1899 15632 15860 15863 15634 13724 15865 
2229 1898 1932 1899 15860 13949 15861 15865 13724 13950 
1899 1932 2230 1933 13950 15866 15867 13956 13958 15868 
2196 2230 2197 1899 15869 15870 15644 15634 15867 15639 
1899 1932 2229 2230 13950 15861 15865 15867 15866 15871 
2196 2230 1899 2229 15869 15867 15634 15863 15871 15865 
2197 1899 2230 1900 15639 15867 15870 15641 13731 15872 
2230 1899 1933 1900 15867 13956 15868 15872 13731 13957 
1900 1933 2231 1934 13957 15873 15874 13963 13965 15875 
2197 2231 2198 1900 15876 15877 15651 15641 15874 15646 
1900 1933 2230 2231 13957 15868 15872 15874 15873 15878 
2197 2231 1900 2230 15876 15874 15641 15870 15878 15872 
2198 1900 2231 1901 15646 15874 15877 15648 13738 15879 
2231 1900 1934 1901 15874 13963 15875 15879 13738 13964 
1901 1934 2232 1935 13964 15880 15881 13970 13972 15882 
2198 2232 2199 1901 15883 15884 15658 15648 15881 15653 
1901 1934 2231 2232 13964 15875 15879 15881 15880 15885 
2198 2232 1901 2231 15883 15881 15648 15877 15885 15879 
2199 1901 2232 1902 15653 15881 15884 15655 13745 15886 
2232 1901 1935 1902 15881 13970 15882 15886 13745 13971 
1902 1935 2233 1936 13971 15887 15888 13977 13979 15889 
2199 2233 2200 1902 15890 15891 15665 15655 15888 15660 
1902 1935 2232 2233 13971 15882 15886 15888 15887 15892 
2199 2233 1902 2232 15890 15888 15655 15884 15892 15886 
2200 1902 2233 1903 15660 15888 15891 15662 13752 15893 
2233 1902 1936 1903 15888 13977 15889 15893 13752 13978 
1903 1936 2234 1937 13978 15894 15895 13984 13986 15896 
2200 2234 2201 1903 15897 15898 15672 15662 15895 15667 
1903 1936 2233 2234 13978 15889 15893 15895 15894 15899 
2200 2234 1903 2233 15897 15895 15662 15891 15899 15893 
2201 1903 2234 1904 15667 15895 15898 15669 13759 15900 
2234 1903 1937 1904 15895 13984 15896 15900 13759 13985 
1904 1937 2235 1938 13985 15901 15902 13991 13993 15903 
2201 2235 2202 1904 15904 15905 15679 15669 15902 15674 
1904 1937 2234 2235 13985 15896 15900 15902 15901 15906 
2201 2235 1904 2234 15904 15902 15669 15898 15906 15900 
2202 1904 2235 1905 15674 15902 15905 15676 13766 15907 
2235 1904 1938 1905 15902 13991 15903 15907 13766 13992 
1905 1938 2236 1939 13992 15908 15909 13998 14000 15910 
2202 2236 2203 1905 15911 15912 15686 15676 15909 15681 
1905 1938 2235 2236 13992 15903 15907 15909 15908 15913 
2202 2236 1905 2235 15911 15909 15676 15905 15913 15907 
2203 1905 2236 1906 15681 15909 15912 15683 13773 15914 
2236 1905 1939 1906 15909 13998 15910 15914 13773 13999 
1906 1939 2237 1940 13999 15915 15916 14005 14007 15917 
2203 2237 2204 1906 15918 15919 15693 15683 15916 15688 
1906 1939 2236 2237 13999 15910 15914 15916 15915 15920 
2203 2237 1906 2236 15918 15916 15683 15912 15920 15914 
2204 1906 2237 1907 15688 15916 15919 15690 13780 15921 
2237 1906 1940 1907 15916 14005 15917 15921 13780 14006 
1907 1940 2238 1941 14006 15922 15923 14012 14014 15924 
2204 2238 2205 1907 15925 15926 15700 15690 15923 15695 
1907 1940 2237 2238 14006 15917 15921 15923 15922 15927 
2204 2238 1907 2237 15925 15923 15690 15919 15927 15921 
2205 1907 2238 1908 15695 15923 15926 15697 13787 15928 
2238 1907 1941 1908 15923 14012 15924 15928 13787 14013 
1908 1941 2239 1942 14013 15929 15930 14019 14021 15931 
2205 2239 2206 1908 15932 15933 15707 15697 15930 15702 
1908 1941 2238 2239 14013 15924 15928 15930 15929 15934 
2205 2239 1908 2238 15932 15930 15697 15926 15934 15928 
2206 1908 2239 1909 15702 15930 15933 15704 13794 15935 
2239 1908 1942 1909 15930 14019 15931 15935 13794 14020 
1909 1942 2240 1943 14020 15936 15937 14026 14028 15938 
2206 2240 2207 1909 15939 15940 15714 15704 15937 15709 
1909 1942 2239 2240 14020 15931 15935 15937 15936 15941 
2206 2240 1909 2239 15939 15937 15704 15933 15941 15935 
2207 1909 2240 1910 15709 15937 15940 15711 13801 15942 
2240 1909 1943 1910 15937 14026 15938 15942 13801 14027 
1910 1943 2241 1944 14027 15943 15944 14033 14035 15945 
2207 2241 2208 1910 15946 15947 15721 15711 15944 15716 
1910 1943 2240 2241 14027 15938 15942 15944 15943 15948 
2207 2241 1910 2240 15946 15944 15711 15940 15948 15942 
2208 1910 2241 1911 15716 15944 15947 15718 13808 15949 
2241 1910 1944 1911 15944 14033 15945 15949 13808 14034 
1911 1944 2242 1945 14034 15950 15951 14040 14042 15952 
2208 2242 2209 1911 15953 15954 15728 15718 15951 15723 
1911 1944 2241 2242 14034 15945 15949 15951 15950 15955 
2208 2242 1911 2241 15953 15951 15718 15947 15955 15949 
2209 1911 2242 1912 15723 15951 15954 15725 13815 15956 
2242 1911 1945 1912 15951 14040 15952 15956 13815 14041 
1912 1945 2243 1946 14041 15957 15958 14047 14049 15959 
2209 2243 2210 1912 15960 15961 15735 15725 15958 15730 
1912 1945 2242 2243 14041 15952 15956 15958 15957 15962 
2209 2243 1912 2242 15960 15958 15725 15954 15962 15956 
2210 1912 2243 1913 15730 15958 15961 15732 13822 15963 
2243 1912 1946 1913 15958 14047 15959 15963 13822 14048 
1914 1947 2245 1948 14059 15964 15965 14054 14058 15966 
2211 2245 2212 1914 15967 15968 15744 15742 15965 15737 
1914 1947 2244 2245 14059 15969 15970 15965 15964 15971 
2211 2245 1914 2244 15967 15965 15742 15972 15971 15970 
2212 1914 2245 1915 15737 15965 15968 15739 13831 15973 
2245 1914 1948 1915 15965 14054 15966 15973 13831 14055 
1915 1948 2246 1949 14055 15974 15975 14064 14066 15976 
2212 2246 2213 1915 15977 15978 15752 15739 15975 15747 
1915 1948 2245 2246 14055 15966 15973 15975 15974 15979 
2212 2246 1915 2245 15977 15975 15739 15968 15979 15973 
2213 1915 2246 1916 15747 15975 15978 15749 13839 15980 
2246 1915 1949 1916 15975 14064 15976 15980 13839 14065 
1916 1949 2247 1950 14065 15981 15982 14071 14073 15983 
2213 2247 2214 1916 15984 15985 15759 15749 15982 15754 
1916 1949 2246 2247 14065 15976 15980 15982 15981 15986 
2213 2247 1916 2246 15984 15982 15749 15978 15986 15980 
2214 1916 2247 1917 15754 15982 15985 15756 13846 15987 
2247 1916 1950 1917 15982 14071 15983 15987 13846 14072 
1917 1950 2248 1951 14072 15988 15989 14078 14080 15990 
2214 2248 2215 1917 15991 15992 15766 15756 15989 15761 
1917 1950 2247 2248 14072 15983 15987 15989 15988 15993 
2214 2248 1917 2247 15991 15989 15756 15985 15993 15987 
2215 1917 2248 1918 15761 15989 15992 15763 13853 15994 
2248 1917 1951 1918 15989 14078 15990 15994 13853 14079 
1918 1951 2249 1952 14079 15995 15996 14085 14087 15997 
2215 2249 2216 1918 15998 15999 15773 15763 15996 15768 
1918 1951 2248 2249 14079 15990 15994 15996 15995 16000 
2215 2249 1918 2248 15998 15996 15763 15992 16000 15994 
2216 1918 2249 1919 15768 15996 15999 15770 13860 16001 
2249 1918 1952 1919 15996 14085 15997 16001 13860 14086 
1919 1952 2250 1953 14086 16002 16003 14092 14094 16004 
2216 2250 2217 1919 16005 16006 15780 15770 16003 15775 
1919 1952 2249 2250 14086 15997 16001 16003 16002 16007 
2216 2250 1919 2249 16005 16003 15770 15999 16007 16001 
2217 1919 2250 1920 15775 16003 16006 15777 13867 16008 
2250 1919 1953 1920 16003 14092 16004 16008 13867 14093 
1920 1953 2251 1954 14093 16009 16010 14099 14101 16011 
2217 2251 2218 1920 16012 16013 15787 15777 16010 15782 
1920 1953 2250 2251 14093 16004 16008 16010 16009 16014 
2217 2251 1920 2250 16012 16010 15777 16006 16014 16008 
2218 1920 2251 1921 15782 16010 16013 15784 13874 16015 
2251 1920 1954 1921 16010 14099 16011 16015 13874 14100 
1921 1954 2252 1955 14100 16016 16017 14106 14108 16018 
2218 2252 2219 1921 16019 16020 15794 15784 16017 15789 
1921 1954 2251 2252 14100 16011 16015 16017 16016 16021 
2218 2252 1921 2251 16019 16017 15784 16013 16021 16015 
2219 1921 2252 1922 15789 16017 16020 15791 13881 16022 
2252 1921 1955 1922 16017 14106 16018 16022 13881 14107 
1922 1955 2253 1956 14107 16023 16024 14113 14115 16025 
2219 2253 2220 1922 16026 16027 15801 15791 16024 15796 
1922 1955 2252 2253 14107 16018 16022 16024 16023 16028 
2219 2253 1922 2252 16026 16024 15791 16020 16028 16022 
2220 1922 2253 1923 15796 16024 16027 15798 13888 16029 
2253 1922 1956 1923 16024 14113 16025 16029 13888 14114 
1923 1956 2254 1957 14114 16030 16031 14120 14122 16032 
2220 2254 2221 1923 16033 16034 15808 15798 16031 15803 
1923 1956 2253 2254 14114 16025 16029 16031 16030 16035 
2220 2254 1923 2253 16033 16031 15798 16027 16035 16029 
2221 1923 2254 1924 15803 16031 16034 15805 13895 16036 
2254 1923 1957 1924 16031 14120 16032 16036 13895 14121 
1924 1957 2255 1958 14121 16037 16038 14127 14129 16039 
2221 2255 2222 1924 16040 16041 15815 15805 16038 15810 
1924 1957 2254 2255 14121 16032 16036 16038 16037 16042 
2221 2255 1924 2254 16040 16038 15805 16034 16042 16036 
2222 1924 2255 1925 15810 16038 16041 15812 13902 16043 
2255 1924 1958 1925 16038 14127 16039 16043 13902 14128 
1925 1958 2256 1959 14128 16044 16045 14134 14136 16046 
2222 2256 2223 1925 16047 16048 15822 15812 16045 15817 
1925 1958 2255 2256 14128 16039 16043 16045 16044 16049 
2222 2256 1925 2255 16047 16045 15812 16041 16049 16043 
2223 1925 2256 1926 15817 16045 16048 15819 13909 16050 
2256 1925 1959 1926 16045 14134 16046 16050 13909 14135 
1926 1959 2257 1960 14135 16051 16052 14141 14143 16053 
2223 2257 2224 1926 16054 16055 15829 15819 16052 15824 
1926 1959 2256 2257 14135 16046 16050 16052 16051 16056 
2223 2257 1926 2256 16054 16052 15819 16048 16056 16050 
2224 1926 2257 1927 15824 16052 16055 15826 13916 16057 
2257 1926 1960 1927 16052 14141 16053 16057 13916 14142 
1927 1960 2258 1961 14142 16058 16059 14148 14150 16060 
2224 2258 2225 1927 16061 16062 15836 15826 16059 15831 
1927 1960 2257 2258 14142 16053 16057 16059 16058 16063 
2224 2258 1927 2257 16061 16059 15826 16055 16063 16057 
2225 1927 2258 1928 15831 16059 16062 15833 13923 16064 
2258 1927 1961 1928 16059 14148 16060 16064 13923 14149 
1928 1961 2259 1962 14149 16065 16066 14155 14157 16067 
2225 2259 2226 1928 16068 16069 15843 15833 16066 15838 
1928 1961 2258 2259 14149 16060 16064 16066 16065 16070 
2225 2259 1928 2258 16068 16066 15833 16062 16070 16064 
2226 1928 2259 1929 15838 16066 16069 15840 13930 16071 
2259 1928 1962 1929 16066 14155 16067 16071 13930 14156 
1929 1962 2260 1963 14156 16072 16073 14162 14164 16074 
2226 2260 2227 1929 16075 16076 15850 15840 16073 15845 
1929 1962 2259 2260 14156 16067 16071 16073 16072 16077 
2226 2260 1929 2259 16075 16073 15840 16069 16077 16071 
2227 1929 2260 1930 15845 16073 16076 15847 13937 16078 
2260 1929 1963 1930 16073 14162 16074 16078 13937 14163 
1930 1963 2261 1964 14163 16079 16080 14169 14171 16081 
2227 2261 2228 1930 16082 16083 15857 15847 16080 15852 
1930 1963 2260 2261 14163 16074 16078 16080 16079 16084 
2227 2261 1930 2260 16082 16080 15847 16076 16084 16078 
2228 1930 2261 1931 15852 16080 16083 15854 13944 16085 
2261 1930 1964 1931 16080 14169 16081 16085 13944 14170 
1931 1964 2262 1965 14170 16086 16087 14176 14178 16088 
2228 2262 2229 1931 16089 16090 15864 15854 16087 15859 
1931 1964 2261 2262 14170 16081 16085 16087 16086 16091 
2228 2262 1931 2261 16089 16087 15854 16083 16091 16085 
2229 1931 2262 1932 15859 16087 16090 15861 13951 16092 
2262 1931 1965 1932 16087 14176 16088 16092 13951 14177 
1932 1965 2263 1966 14177 16093 16094 14183 14185 16095 
2229 2263 2230 1932 16096 16097 15871 15861 16094 15866 
1932 1965 2262 2263 14177 16088 16092 16094 16093 16098 
2229 2263 1932 2262 16096 16094 15861 16090 16098 16092 
2230 1932 2263 1933 15866 16094 16097 15868 13958 16099 
2263 1932 1966 1933 16094 14183 16095 16099 13958 14184 
1933 1966 2264 1967 14184 16100 16101 14190 14192 16102 
2230 2264 2231 1933 16103 16104 15878 15868 16101 15873 
1933 1966 2263 2264 14184 16095 16099 16101 16100 16105 
2230 2264 1933 2263 16103 16101 15868 16097 16105 16099 
2231 1933 2264 1934 15873 16101 16104 15875 13965 16106 
2264 1933 1967 1934 16101 14190 16102 16106 13965 14191 
1934 1967 2265 1968 14191 16107 16108 14197 14199 16109 
2231 2265 2232 1934 16110 16111 15885 15875 16108 15880 
1934 1967 2264 2265 14191 16102 16106 16108 16107 16112 
2231 2265 1934 2264 16110 16108 15875 16104 16112 16106 
2232 1934 2265 1935 15880 16108 16111 15882 13972 16113 
2265 1934 1968 1935 16108 14197 16109 16113 13972 14198 
1935 1968 2266 1969 14198 16114 16115 14204 14206 16116 
2232 2266 2233 1935 16117 16118 15892 15882 16115 15887 
1935 1968 2265 2266 14198 16109 16113 16115 16114 16119 
2232 2266 1935 2265 16117 16115 15882 16111 16119 16113 
2233 1935 2266 1936 15887 16115 16118 15889 13979 16120 
2266 1935 1969 1936 16115 14204 16116 16120 13979 14205 
1936 1969 2267 1970 14205 16121 16122 14211 14213 16123 
2233 2267 2234 1936 16124 16125 15899 15889 16122 15894 
1936 1969 2266 2267 14205 16116 16120 16122 16121 16126 
2233 2267 1936 2266 16124 16122 15889 16118 16126 16120 
2234 1936 2267 1937 15894 16122 16125 15896 13986 16127 
2267 1936 1970 1937 16122 14211 16123 16127 13986 14212 
1937 1970 2268 1971 14212 16128 16129 14218 14220 16130 
2234 2268 2235 1937 16131 16132 15906 15896 16129 15901 
1937 1970 2267 2268 14212 16123 16127 16129 16128 16133 
2234 2268 1937 2267 16131 16129 15896 16125 16133 16127 
2235 1937 2268 1938 15901 16129 16132 15903 13993 16134 
2268 1937 1971 1938 16129 14218 16130 16134 13993 14219 
1938 1971 2269 1972 14219 16135 16136 14225 14227 16137 
2235 2269 2236 1938 16138 16139 15913 15903 16136 15908 
1938 1971 2268 2269 14219 16130 16134 16136 16135 16140 
2235 2269 1938 2268 16138 16136 15903 16132 16140 16134 
2236 1938 2269 1939 15908 16136 16139 15910 14000 16141 
2269 1938 1972 1939 16136 14225 16137 16141 14000 14226 
1939 1972 2270 1973 14226 16142 16143 14232 14234 16144 
2236 2270 2237 1939 16145 16146 15920 15910 16143 15915 
1939 1972 2269 2270 14226 16137 16141 16143 16142 16147 
2236 2270 1939 2269 16145 16143 15910 16139 16147 16141 
2237 1939 2270 1940 15915 16143 16146 15917 14007 16148 
2270 1939 1973 1940 16143 14232 16144 16148 14007 14233 
1940 1973 2271 1974 14233 16149 16150 14239 14241 16151 
2237 2271 2238 1940 16152 16153 15927 15917 16150 15922 
1940 1973 2270 2271 14233 16144 16148 16150 16149 16154 
2237 2271 1940 2270 16152 16150 15917 16146 16154 16148 
2238 1940 2271 1941 15922 16150 16153 15924 14014 16155 
2271 1940 1974 1941 16150 14239 16151 16155 14014 14240 
1941 1974 2272 1975 14240 16156 16157 14246 14248 16158 
2238 2272 2239 1941 16159 16160 15934 15924 16157 15929 
1941 1974 2271 2272 14240 16151 16155 16157 16156 16161 
2238 2272 1941 2271 16159 16157 15924 16153 16161 16155 
2239 1941 2272 1942 15929 16157 16160 15931 14021 16162 
2272 1941 1975 1942 16157 14246 16158 16162 14021 14247 
1942 1975 2273 1976 14247 16163 16164 14253 14255 16165 
2239 2273 2240 1942 16166 16167 15941 15931 16164 15936 
1942 1975 2272 2273 14247 16158 16162 16164 16163 16168 
2239 2273 1942 2272 16166 16164 15931 16160 16168 16162 
2240 1942 2273 1943 15936 16164 16167 15938 14028 16169 
2273 1942 1976 1943 16164 14253 16165 16169 14028 14254 
1943 1976 2274 1977 14254 16170 16171 14260 14262 16172 
2240 2274 2241 1943 16173 16174 15948 15938 16171 15943 
1943 1976 2273 2274 14254 16165 16169 16171 16170 16175 
2240 2274 1943 2273 16173 16171 15938 16167 16175 16169 
2241 1943 2274 1944 15943 16171 16174 15945 14035 16176 
2274 1943 1977 1944 16171 14260 16172 16176 14035 14261 
1944 1977 2275 1978 14261 16177 16178 14267 14269 16179 
2241 2275 2242 1944 16180 16181 15955 15945 16178 15950 
1944 1977 2274 2275 14261 16172 16176 16178 16177 16182 
2241 2275 1944 2274 16180 16178 15945 16174 16182 16176 
2242 1944 2275 1945 15950 16178 16181 15952 14042 16183 
2275 1944 1978 1945 16178 14267 16179 16183 14042 14268 
1945 1978 2276 1979 14268 16184 16185 14274 14276 16186 
2242 2276 2243 1945 16187 16188 15962 15952 16185 15957 
1945 1978 2275 2276 14268 16179 16183 16185 16184 16189 
2242 2276 1945 2275 16187 16185 15952 16181 16189 16183 
2243 1945 2276 1946 15957 16185 16188 15959 14049 16190 
2276 1945 1979 1946 16185 14274 16186 16190 14049 14275 
1947 1980 2278 1981 14286 16191 16192 14281 14285 16193 
2244 2278 2245 1947 16194 16195 15971 15969 16192 15964 
1947 1980 2277 2278 14286 16196 16197 16192 16191 16198 
2244 2278 1947 2277 16194 16192 15969 16199 16198 16197 
2245 1947 2278 1948 15964 16192 16195 15966 14058 16200 
2278 1947 1981 1948 16192 14281 16193 16200 14058 14282 
1948 1981 2279 1982 14282 16201 16202 14291 14293 16203 
2245 2279 2246 1948 16204 16205 15979 15966 16202 15974 
1948 1981 2278 2279 14282 16193 16200 16202 16201 16206 
2245 2279 1948 2278 16204 16202 15966 16195 16206 16200 
2246 1948 2279 1949 15974 16202 16205 15976 14066 16207 
2279 1948 1982 1949 16202 14291 16203 16207 14066 14292 
1949 1982 2280 1983 14292 16208 16209 14298 14300 16210 
2246 2280 2247 1949 16211 16212 15986 15976 16209 15981 
1949 1982 2279 2280 14292 16203 16207 16209 16208 16213 
2246 2280 1949 2279 16211 16209 15976 16205 16213 16207 
2247 1949 2280 1950 15981 16209 16212 15983 14073 16214 
2280 1949 1983 1950 16209 14298 16210 16214 14073 14299 
1950 1983 2281 1984 14299 16215 16216 14305 14307 16217 
2247 2281 2248 1950 16218 16219 15993 15983 16216 15988 
1950 1983 2280 2281 14299 16210 16214 16216 16215 16220 
2247 2281 1950 2280 16218 16216 15983 16212 16220 16214 
2248 1950 2281 1951 15988 16216 16219 15990 14080 16221 
2281 1950 1984 1951 16216 14305 16217 16221 14080 14306 
1951 1984 2282 1985 14306 16222 16223 14312 14314 16224 
2248 2282 2249 1951 16225 16226 16000 15990 16223 15995 
1951 1984 2281 2282 14306 16217 16221 16223 16222 16227 
2248 2282 1951 2281 16225 16223 15990 16219 16227 16221 
2249 1951 2282 1952 15995 16223 16226 15997 14087 16228 
2282 1951 1985 1952 16223 14312 16224 16228 14087 14313 
1952 1985 2283 1986 14313 16229 16230 14319 14321 16231 
2249 2283 2250 1952 16232 16233 16007 15997 16230 16002 
1952 1985 2282 2283 14313 16224 16228 16230 16229 16234 
2249 2283 1952 2282 16232 16230 15997 16226 16234 16228 
2250 1952 2283 1953 16002 16230 16233 16004 14094 16235 
2283 1952 1986 1953 16230 14319 16231 16235 14094 14320 
1953 1986 2284 1987 14320 16236 16237 14326 14328 16238 
2250 2284 2251 1953 16239 16240 16014 16004 16237 16009 
1953 1986 2283 2284 14320 16231 16235 16237 16236 16241 
2250 2284 1953 2283 16239 16237 16004 16233 16241 16235 
2251 1953 2284 1954 16009 16237 16240 16011 14101 16242 
2284 1953 1987 1954 16237 14326 16238 16242 14101 14327 
1954 1987 2285 1988 14327 16243 16244 14333 14335 16245 
2251 2285 2252 1954 16246 16247 16021 16011 16244 16016 
1954 1987 2284 2285 14327 16238 16242 16244 16243 16248 
2251 2285 1954 2284 16246 16244 16011 16240 16248 16242 
2252 1954 2285 1955 16016 16244 16247 16018 14108 16249 
2285 1954 1988 1955 16244 14333 16245 16249 14108 14334 
1955 1988 2286 1989 14334 16250 16251 14340 14342 16252 
2252 2286 2253 1955 16253 16254 16028 16018 16251 16023 
1955 1988 2285 2286 14334 16245 16249 16251 16250 16255 
2252 2286 1955 2285 16253 16251 16018 16247 16255 16249 
2253 1955 2286 1956 16023 16251 16254 16025 14115 16256 
2286 1955 1989 1956 16251 14340 16252 16256 14115 14341 
1956 1989 2287 1990 14341 16257 16258 14347 14349 16259 
2253 2287 2254 1956 16260 16261 16035 16025 16258 16030 
1956 1989 2286 2287 14341 16252 16256 16258 16257 16262 
2253 2287 1956 2286 16260 16258 16025 16254 16262 16256 
2254 1956 2287 1957 16030 16258 16261 16032 14122 16263 
2287 1956 1990 1957 16258 14347 16259 16263 14122 14348 
1957 1990 2288 1991 14348 16264 16265 14354 14356 16266 
2254 2288 2255 1957 16267 16268 16042 16032 16265 16037 
1957 1990 2287 2288 14348 16259 16263 16265 16264 16269 
2254 2288 1957 2287 16267 16265 16032 16261 16269 16263 
2255 1957 2288 1958 16037 16265 16268 16039 14129 16270 
2288 1957 1991 1958 16265 14354 16266 16270 14129 14355 
1958 1991 2289 1992 14355 16271 16272 14361 14363 16273 
2255 2289 2256 1958 16274 16275 16049 16039 16272 16044 
1958 1991 2288 2289 14355 16266 16270 16272 16271 16276 
2255 2289 1958 2288 16274 16272 16039 16268 16276 16270 
2256 1958 2289 1959 16044 16272 16275 16046 14136 16277 
2289 1958 1992 1959 16272 14361 16273 16277 14136 14362 
1959 1992 2290 1993 14362 16278 16279 14368 14370 16280 
2256 2290 2257 1959 16281 16282 16056 16046 16279 16051 
1959 1992 2289 2290 14362 16273 16277 16279 16278 16283 
2256 2290 1959 2289 16281 16279 16046 16275 16283 16277 
2257 1959 2290 1960 16051 16279 16282 16053 14143 16284 
2290 1959 1993 1960 16279 14368 16280 16284 14143 14369 
1960 1993 2291 1994 14369 16285 16286 14375 14377 16287 
2257 2291 2258 1960 16288 16289 16063 16053 16286 16058 
1960 1993 2290 2291 14369 16280 16284 16286 16285 16290 
2257 2291 1960 2290 16288 16286 16053 16282 16290 16284 
2258 1960 2291 1961 16058 16286 16289 16060 14150 16291 
2291 1960 1994 1961 16286 14375 16287 16291 14150 14376 
1961 1994 2292 1995 14376 16292 16293 14382 14384 16294 
2258 2292 2259 1961 16295 16296 16070 16060 16293 16065 
1961 1994 2291 2292 14376 16287 16291 16293 16292 16297 
2258 2292 1961 2291 16295 16293 16060 16289 16297 16291 
2259 1961 2292 1962 16065 16293 16296 16067 14157 16298 
2292 1961 1995 1962 16293 14382 16294 16298 14157 14383 
1962 1995 2293 1996 14383 16299 16300 14389 14391 16301 
2259 2293 2260 1962 16302 16303 16077 16067 16300 16072 
1962 1995 2292 2293 14383 16294 16298 16300 16299 16304 
2259 2293 1962 2292 16302 16300 16067 16296 16304 16298 
2260 1962 2293 1963 16072 16300 16303 16074 14164 16305 
2293 1962 1996 1963 16300 14389 16301 16305 14164 14390 
1963 1996 2294 1997 14390 16306 16307 14396 14398 16308 
2260 2294 2261 1963 16309 16310 16084 16074 16307 16079 
1963 1996 2293 2294 14390 16301 16305 16307 16306 16311 
2260 2294 1963 2293 16309 16307 16074 16303 16311 16305 
2261 1963 2294 1964 16079 16307 16310 16081 14171 16312 
2294 1963 1997 1964 16307 14396 16308 16312 14171 14397 
1964 1997 2295 1998 14397 16313 16314 14403 14405 16315 
2261 2295 2262 1964 16316 16317 16091 16081 16314 16086 
1964 1997 2294 2295 14397 16308 16312 16314 16313 16318 
2261 2295 1964 2294 16316 16314 16081 16310 16318 16312 
2262 1964 2295 1965 16086 16314 16317 16088 14178 16319 
2295 1964 1998 1965 16314 14403 16315 16319 14178 14404 
1965 1998 2296 1999 14404 16320 16321 14410 14412 16322 
2262 2296 2263 1965 16323 16324 16098 16088 16321 16093 
1965 1998 2295 2296 14404 16315 16319 16321 16320 16325 
2262 2296 1965 2295 16323 16321 16088 16317 16325 16319 
2263 1965 2296 1966 16093 16321 16324 16095 14185 16326 
2296 1965 1999 1966 16321 14410 16322 16326 14185 14411 
1966 1999 2297 2000 14411 16327 16328 14417 14419 16329 
2263 2297 2264 1966 16330 16331 16105 16095 16328 16100 
1966 1999 2296 2297 14411 16322 16326 16328 16327 16332 
2263 2297 1966 2296 16330 16328 16095 16324 16332 16326 
2264 1966 2297 1967 16100 16328 16331 16102 14192 16333 
2297 1966 2000 1967 16328 14417 16329 16333 14192 14418 
1967 2000 2298 2001 14418 16334 16335 14424 14426 16336 
2264 2298 2265 1967 16337 16338 16112 16102 16335 16107 
1967 2000 2297 2298 14418 16329 16333 16335 16334 16339 
2264 2298 1967 2297 16337 16335 16102 16331 16339 16333 
2265 1967 2298 1968 16107 16335 16338 16109 14199 16340 
2298 1967 2001 1968 16335 14424 16336 16340 14199 14425 
1968 2001 2299 2002 14425 16341 16342 14431 14433 16343 
2265 2299 2266 1968 16344 16345 16119 16109 16342 16114 
1968 2001 2298 2299 14425 16336 16340 16342 16341 16346 
2265 2299 1968 2298 16344 16342 16109 16338 16346 16340 
2266 1968 2299 1969 16114 16342 16345 16116 14206 16347 
2299 1968 2002 1969 16342 14431 16343 16347 14206 14432 
1969 2002 2300 2003 14432 16348 16349 14438 14440 16350 
2266 2300 2267 1969 16351 16352 16126 16116 16349 16121 
1969 2002 2299 2300 14432 16343 16347 16349 16348 16353 
2266 2300 1969 2299 16351 16349 16116 16345 16353 16347 
2267 1969 2300 1970 16121 16349 16352 16123 14213 16354 
2300 1969 2003 1970 16349 14438 16350 16354 14213 14439 
1970 2003 2301 2004 14439 16355 16356 14445 14447 16357 
2267 2301 2268 1970 16358 16359 16133 16123 16356 16128 
1970 2003 2300 2301 14439 16350 16354 16356 16355 16360 
2267 2301 1970 2300 16358 16356 16123 16352 16360 16354 
2268 1970 2301 1971 16128 16356 16359 16130 14220 16361 
2301 1970 2004 1971 16356 14445 16357 16361 14220 14446 
1971 2004 2302 2005 14446 16362 16363 14452 14454 16364 
2268 2302 2269 1971 16365 16366 16140 16130 16363 16135 
1971 2004 2301 2302 14446 16357 16361 16363 16362 16367 
2268 2302 1971 2301 16365 16363 16130 16359 16367 16361 
2269 1971 2302 1972 16135 16363 16366 16137 14227 16368 
2302 1971 2005 1972 16363 14452 16364 16368 14227 14453 
1972 2005 2303 2006 14453 16369 16370 14459 14461 16371 
2269 2303 2270 1972 16372 16373 16147 16137 16370 16142 
1972 2005 2302 2303 14453 16364 16368 16370 16369 16374 
2269 2303 1972 2302 16372 16370 16137 16366 16374 16368 
2270 1972 2303 1973 16142 16370 16373 16144 14234 16375 
2303 1972 2006 1973 16370 14459 16371 16375 14234 14460 
1973 2006 2304 2007 14460 16376 16377 14466 14468 16378 
2270 2304 2271 1973 16379 16380 16154 16144 16377 16149 
1973 2006 2303 2304 14460 16371 16375 16377 16376 16381 
2270 2304 1973 2303 16379 16377 16144 16373 16381 16375 
2271 1973 2304 1974 16149 16377 16380 16151 14241 16382 
2304 1973 2007 1974 16377 14466 16378 16382 14241 14467 
1974 2007 2305 2008 14467 16383 16384 14473 14475 16385 
2271 2305 2272 1974 16386 16387 16161 16151 16384 16156 
1974 2007 2304 2305 14467 16378 16382 16384 16383 16388 
2271 2305 1974 2304 16386 16384 16151 16380 16388 16382 
2272 1974 2305 1975 16156 16384 16387 16158 14248 16389 
2305 1974 2008 1975 16384 14473 16385 16389 14248 14474 
1975 2008 2306 2009 14474 16390 16391 14480 14482 16392 
2272 2306 2273 1975 16393 16394 16168 16158 16391 16163 
1975 2008 2305 2306 14474 16385 16389 16391 16390 16395 
2272 2306 1975 2305 16393 16391 16158 16387 16395 16389 
2273 1975 2306 1976 16163 16391 16394 16165 14255 16396 
2306 1975 2009 1976 16391 14480 16392 16396 14255 14481 
1976 2009 2307 2010 14481 16397 16398 14487 14489 16399 
2273 2307 2274 1976 16400 16401 16175 16165 16398 16170 
1976 2009 2306 2307 14481 16392 16396 16398 16397 16402 
2273 2307 1976 2306 16400 16398 16165 16394 16402 16396 
2274 1976 2307 1977 16170 16398 16401 16172 14262 16403 
2307 1976 2010 1977 16398 14487 16399 16403 14262 14488 
1977 2010 2308 2011 14488 16404 16405 14494 14496 16406 
2274 2308 2275 1977 16407 16408 16182 16172 16405 16177 
1977 2010 2307 2308 14488 16399 16403 16405 16404 16409 
2274 2308 1977 2307 16407 16405 16172 16401 16409 16403 
2275 1977 2308 1978 16177 16405 16408 16179 14269 16410 
2308 1977 2011 1978 16405 14494 16406 16410 14269 14495 
1978 2011 2309 2012 14495 16411 16412 14501 14503 16413 
2275 2309 2276 1978 16414 16415 16189 16179 16412 16184 
1978 2011 2308 2309 14495 16406 16410 16412 16411 16416 
2275 2309 1978 2308 16414 16412 16179 16408 16416 16410 
2276 1978 2309 1979 16184 16412 16415 16186 14276 16417 
2309 1978 2012 1979 16412 14501 16413 16417 14276 14502 
1980 2013 2311 2014 14513 16418 16419 14508 14512 16420 
2277 2311 2278 1980 16421 16422 16198 16196 16419 16191 
1980 2013 2310 2311 14513 16423 16424 16419 16418 16425 
2277 2311 1980 2310 16421 16419 16196 16426 16425 16424 
2278 1980 2311 1981 16191 16419 16422 16193 14285 16427 
2311 1980 2014 1981 16419 14508 16420 16427 14285 14509 
1981 2014 2312 2015 14509 16428 16429 14518 14520 16430 
2278 2312 2279 1981 16431 16432 16206 16193 16429 16201 
1981 2014 2311 2312 14509 16420 16427 16429 16428 16433 
2278 2312 1981 2311 16431 16429 16193 16422 16433 16427 
2279 1981 2312 1982 16201 16429 16432 16203 14293 16434 
2312 1981 2015 1982 16429 14518 16430 16434 14293 14519 
1982 2015 2313 2016 14519 16435 16436 14525 14527 16437 
2279 2313 2280 1982 16438 16439 16213 16203 16436 16208 
1982 2015 2312 2313 14519 16430 16434 16436 16435 16440 
2279 2313 1982 2312 16438 16436 16203 16432 16440 16434 
2280 1982 2313 1983 16208 16436 16439 16210 14300 16441 
2313 1982 2016 1983 16436 14525 16437 16441 14300 14526 
1983 2016 2314 2017 14526 16442 16443 14532 14534 16444 
2280 2314 2281 1983 16445 16446 16220 16210 16443 16215 
1983 2016 2313 2314 14526 16437 16441 16443 16442 16447 
2280 2314 1983 2313 16445 16443 16210 16439 16447 16441 
2281 1983 2314 1984 16215 16443 16446 16217 14307 16448 
2314 1983 2017 1984 16443 14532 16444 16448 14307 14533 
1984 2017 2315 2018 14533 16449 16450 14539 14541 16451 
2281 2315 2282 1984 16452 16453 16227 16217 16450 16222 
1984 2017 2314 2315 14533 16444 16448 16450 16449 16454 
2281 2315 1984 2314 16452 16450 16217 16446 16454 16448 
2282 1984 2315 1985 16222 16450 16453 16224 14314 16455 
2315 1984 2018 1985 16450 14539 16451 16455 14314 14540 
1985 2018 2316 2019 14540 16456 16457 14546 14548 16458 
2282 2316 2283 1985 16459 16460 16234 16224 16457 16229 
1985 2018 2315 2316 14540 16451 16455 16457 16456 16461 
2282 2316 1985 2315 16459 16457 16224 16453 16461 16455 
2283 1985 2316 1986 16229 16457 16460 16231 14321 16462 
2316 1985 2019 1986 16457 14546 16458 16462 14321 14547 
1986 2019 2317 2020 14547 16463 16464 14553 14555 16465 
2283 2317 2284 1986 16466 16467 16241 16231 16464 16236 
1986 2019 2316 2317 14547 16458 16462 16464 16463 16468 
2283 2317 1986 2316 16466 16464 16231 16460 16468 16462 
2284 1986 2317 1987 16236 16464 16467 16238 14328 16469 
2317 1986 2020 1987 16464 14553 16465 16469 14328 14554 
1987 2020 2318 2021 14554 16470 16471 14560 14562 16472 
2284 2318 2285 1987 16473 16474 16248 16238 16471 16243 
1987 2020 2317 2318 14554 16465 16469 16471 16470 16475 
2284 2318 1987 2317 16473 16471 16238 16467 16475 16469 
2285 1987 2318 1988 16243 16471 16474 16245 14335 16476 
2318 1987 2021 1988 16471 14560 16472 16476 14335 14561 
1988 2021 2319 2022 14561 16477 16478 14567 14569 16479 
2285 2319 2286 1988 16480 16481 16255 16245 16478 16250 
1988 2021 2318 2319 14561 16472 16476 16478 16477 16482 
2285 2319 1988 2318 16480 16478 16245 16474 16482 16476 
2286 1988 2319 1989 16250 16478 16481 16252 14342 16483 
2319 1988 2022 1989 16478 14567 16479 16483 14342 14568 
1989 2022 2320 2023 14568 16484 16485 14574 14576 16486 
2286 2320 2287 1989 16487 16488 16262 16252 16485 16257 
1989 2022 2319 2320 14568 16479 16483 16485 16484 16489 
2286 2320 1989 2319 16487 16485 16252 16481 16489 16483 
2287 1989 2320 1990 16257 16485 16488 16259 14349 16490 
2320 1989 2023 1990 16485 14574 16486 16490 14349 14575 
1990 2023 2321 2024 14575 16491 16492 14581 14583 16493 
2287 2321 2288 1990 16494 16495 16269 16259 16492 16264 
1990 2023 2320 2321 14575 16486 16490 16492 16491 16496 
2287 2321 1990 2320 16494 16492 16259 16488 16496 16490 
2288 1990 2321 1991 16264 16492 16495 16266 14356 16497 
2321 1990 2024 1991 16492 14581 16493 16497 14356 14582 
1991 2024 2322 2025 14582 16498 16499 14588 14590 16500 
2288 2322 2289 1991 16501 16502 16276 16266 16499 16271 
1991 2024 2321 2322 14582 16493 16497 16499 16498 16503 
2288 2322 1991 2321 16501 16499 16266 16495 16503 16497 
2289 1991 2322 1992 16271 16499 16502 16273 14363 16504 
2322 1991 2025 1992 16499 14588 16500 16504 14363 14589 
1992 2025 2323 2026 14589 16505 16506 14595 14597 16507 
2289 2323 2290 1992 16508 16509 16283 16273 16506 16278 
1992 2025 2322 2323 14589 16500 16504 16506 16505 16510 
2289 2323 1992 2322 16508 16506 16273 16502 16510 16504 
2290 1992 2323 1993 16278 16506 16509 16280 14370 16511 
2323 1992 2026 1993 16506 14595 16507 16511 14370 14596 
1993 2026 2324 2027 14596 16512 16513 14602 14604 16514 
2290 2324 2291 1993 16515 16516 16290 16280 16513 16285 
1993 2026 2323 2324 14596 16507 16511 16513 16512 16517 
2290 2324 1993 2323 16515 16513 16280 16509 16517 16511 
2291 1993 2324 1994 16285 16513 16516 16287 14377 16518 
2324 1993 2027 1994 16513 14602 16514 16518 14377 14603 
1994 2027 2325 2028 14603 16519 16520 14609 14611 16521 
2291 2325 2292 1994 16522 16523 16297 16287 16520 16292 
1994 2027 2324 2325 14603 16514 16518 16520 16519 16524 
2291 2325 1994 2324 16522 16520 16287 16516 16524 16518 
2292 1994 2325 1995 16292 16520 16523 16294 14384 16525 
2325 1994 2028 1995 16520 14609 16521 16525 14384 14610 
1995 2028 2326 2029 14610 16526 16527 14616 14618 16528 
2292 2326 2293 1995 16529 16530 16304 16294 16527 16299 
1995 2028 2325 2326 14610 16521 16525 16527 16526 16531 
2292 2326 1995 2325 16529 16527 16294 16523 16531 16525 
2293 1995 2326 1996 16299 16527 16530 16301 14391 16532 
2326 1995 2029 1996 16527 14616 16528 16532 14391 14617 
1996 2029 2327 2030 14617 16533 16534 14623 14625 16535 
2293 2327 2294 1996 16536 16537 16311 16301 16534 16306 
1996 2029 2326 2327 14617 16528 16532 16534 16533 16538 
2293 2327 1996 2326 16536 16534 16301 16530 16538 16532 
2294 1996 2327 1997 16306 16534 16537 16308 14398 16539 
2327 1996 2030 1997 16534 14623 16535 16539 14398 14624 
1997 2030 2328 2031 14624 16540 16541 14630 14632 16542 
2294 2328 2295 1997 16543 16544 16318 16308 16541 16313 
1997 2030 2327 2328 14624 16535 16539 16541 16540 16545 
2294 2328 1997 2327 16543 16541 16308 16537 16545 16539 
2295 1997 2328 1998 16313 16541 16544 16315 14405 16546 
2328 1997 2031 1998 16541 14630 16542 16546 14405 14631 
1998 2031 2329 2032 14631 16547 16548 14637 14639 16549 
2295 2329 2296 1998 16550 16551 16325 16315 16548 16320 
1998 2031 2328 2329 14631 16542 16546 16548 16547 16552 
2295 2329 1998 2328 16550 16548 16315 16544 16552 16546 
2296 1998 2329 1999 16320 16548 16551 16322 14412 16553 
2329 1998 2032 1999 16548 14637 16549 16553 14412 14638 
1999 2032 2330 2033 14638 16554 16555 14644 14646 16556 
2296 2330 2297 1999 16557 16558 16332 16322 16555 16327 
1999 2032 2329 2330 14638 16549 16553 16555 16554 16559 
2296 2330 1999 2329 16557 16555 16322 16551 16559 16553 
2297 1999 2330 2000 16327 16555 16558 16329 14419 16560 
2330 1999 2033 2000 16555 14644 16556 16560 14419 14645 
2000 2033 2331 2034 14645 16561 16562 14651 14653 16563 
2297 2331 2298 2000 16564 16565 16339 16329 16562 16334 
2000 2033 2330 2331 14645 16556 16560 16562 16561 16566 
2297 2331 2000 2330 16564 16562 16329 16558 16566 16560 
2298 2000 2331 2001 16334 16562 16565 16336 14426 16567 
2331 2000 2034 2001 16562 14651 16563 16567 14426 14652 
2001 2034 2332 2035 14652 16568 16569 14658 14660 16570 
2298 2332 2299 2001 16571 16572 16346 16336 16569 16341 
2001 2034 2331 2332 14652 16563 16567 16569 16568 16573 
2298 2332 2001 2331 16571 16569 16336 16565 16573 16567 
2299 2001 2332 2002 16341 16569 16572 16343 14433 16574 
2332 2001 2035 2002 16569 14658 16570 16574 14433 14659 
2002 2035 2333 2036 14659 16575 16576 14665 14667 16577 
2299 2333 2300 2002 16578 16579 16353 16343 16576 16348 
2002 2035 2332 2333 14659 16570 16574 16576 16575 16580 
2299 2333 2002 2332 16578 16576 16343 16572 16580 16574 
2300 2002 2333 2003 16348 16576 16579 16350 14440 16581 
2333 2002 2036 2003 16576 14665 16577 16581 14440 14666 
2003 2036 2334 2037 14666 16582 16583 14672 14674 16584 
2300 2334 2301 2003 16585 16586 16360 16350 16583 16355 
2003 2036 2333 2334 14666 16577 16581 16583 16582 16587 
2300 2334 2003 2333 16585 16583 16350 16579 16587 16581 
2301 2003 2334 2004 16355 16583 16586 16357 14447 16588 
2334 2003 2037 2004 16583 14672 16584 16588 14447 14673 
2004 2037 2335 2038 14673 16589 16590 14679 14681 16591 
2301 2335 2302 2004 16592 16593 16367 16357 16590 16362 
2004 2037 2334 2335 14673 16584 16588 16590 16589 16594 
2301 2335 2004 2334 16592 16590 16357 16586 16594 16588 
2302 2004 2335 2005 16362 16590 16593 16364 14454 16595 
2335 2004 2038 2005 16590 14679 16591 16595 14454 14680 
2005 2038 2336 2039 14680 16596 16597 14686 14688 16598 
2302 2336 2303 2005 16599 16600 16374 16364 16597 16369 
2005 2038 2335 2336 14680 16591 16595 16597 16596 16601 
2302 2336 2005 2335 16599 16597 16364 16593 16601 16595 
2303 2005 2336 2006 16369 16597 16600 16371 14461 16602 
2336 2005 2039 2006 16597 14686 16598 16602 14461 14687 
2006 2039 2337 2040 14687 16603 16604 14693 14695 16605 
2303 2337 2304 2006 16606 16607 16381 16371 16604 16376 
2006 2039 2336 2337 14687 16598 16602 16604 16603 16608 
2303 2337 2006 2336 16606 16604 16371 16600 16608 16602 
2304 2006 2337 2007 16376 16604 16607 16378 14468 16609 
2337 2006 2040 2007 16604 14693 16605 16609 14468 14694 
2007 2040 2338 2041 14694 16610 16611 14700 14702 16612 
2304 2338 2305 2007 16613 16614 16388 16378 16611 16383 
2007 2040 2337 2338 14694 16605 16609 16611 16610 16615 
2304 2338 2007 2337 16613 16611 16378 16607 16615 16609 
2305 2007 2338 2008 16383 16611 16614 16385 14475 16616 
2338 2007 2041 2008 16611 14700 16612 16616 14475 14701 
2008 2041 2339 2042 14701 16617 16618 14707 14709 16619 
2305 2339 2306 2008 16620 16621 16395 16385 16618 16390 
2008 2041 2338 2339 14701 16612 16616 16618 16617 16622 
2305 2339 2008 2338 16620 16618 16385 16614 16622 16616 
2306 2008 2339 2009 16390 16618 16621 16392 14482 16623 
2339 2008 2042 2009 16618 14707 16619 16623 14482 14708 
2009 2042 2340 2043 14708 16624 16625 14714 14716 16626 
2306 2340 2307 2009 16627 16628 16402 16392 16625 16397 
2009 2042 2339 2340 14708 16619 16623 16625 16624 16629 
2306 2340 2009 2339 16627 16625 16392 16621 16629 16623 
2307 2009 2340 2010 16397 16625 16628 16399 14489 16630 
2340 2009 2043 2010 16625 14714 16626 16630 14489 14715 
2010 2043 2341 2044 14715 16631 16632 14721 14723 16633 
2307 2341 2308 2010 16634 16635 16409 16399 16632 16404 
2010 2043 2340 2341 14715 16626 16630 16632 16631 16636 
2307 2341 2010 2340 16634 16632 16399 16628 16636 16630 
2308 2010 2341 2011 16404 16632 16635 16406 14496 16637 
2341 2010 2044 2011 16632 14721 16633 16637 14496 14722 
2011 2044 2342 2045 14722 16638 16639 14728 14730 16640 
2308 2342 2309 2011 16641 16642 16416 16406 16639 16411 
2011 2044 2341 2342 14722 16633 16637 16639 16638 16643 
2308 2342 2011 2341 16641 16639 16406 16635 16643 16637 
2309 2011 2342 2012 16411 16639 16642 16413 14503 16644 
2342 2011 2045 2012 16639 14728 16640 16644 14503 14729 
2013 2046 2344 2047 14740 16645 16646 14735 14739 16647 
2310 2344 2311 2013 16648 16649 16425 16423 16646 16418 
2013 2046 2343 2344 14740 16650 16651 16646 16645 16652 
2310 2344 2013 2343 16648 16646 16423 16653 16652 16651 
2311 2013 2344 2014 16418 16646 16649 16420 14512 16654 
2344 2013 2047 2014 16646 14735 16647 16654 14512 14736 
2014 2047 2345 2048 14736 16655 16656 14745 14747 16657 
2311 2345 2312 2014 16658 16659 16433 16420 16656 16428 
2014 2047 2344 2345 14736 16647 16654 16656 16655 16660 
2311 2345 2014 2344 16658 16656 16420 16649 16660 16654 
2312 2014 2345 2015 16428 16656 16659 16430 14520 16661 
2345 2014 2048 2015 16656 14745 16657 16661 14520 14746 
2015 2048 2346 2049 14746 16662 16663 14752 14754 16664 
2312 2346 2313 2015 16665 16666 16440 16430 16663 16435 
2015 2048 2345 2346 14746 16657 16661 16663 16662 16667 
2312 2346 2015 2345 16665 16663 16430 16659 16667 16661 
2313 2015 2346 2016 16435 16663 16666 16437 14527 16668 
2346 2015 2049 2016 16663 14752 16664 16668 14527 14753 
2016 2049 2347 2050 14753 16669 16670 14759 14761 16671 
2313 2347 2314 2016 16672 16673 16447 16437 16670 16442 
2016 2049 2346 2347 14753 16664 16668 16670 16669 16674 
2313 2347 2016 2346 16672 16670 16437 16666 16674 16668 
2314 2016 2347 2017 16442 16670 16673 16444 14534 16675 
2347 2016 2050 2017 16670 14759 16671 16675 14534 14760 
2017 2050 2348 2051 14760 16676 16677 14766 14768 16678 
2314 2348 2315 2017 16679 16680 16454 16444 16677 16449 
2017 2050 2347 2348 14760 16671 16675 16677 16676 16681 
2314 2348 2017 2347 16679 16677 16444 16673 16681 16675 
2315 2017 2348 2018 16449 16677 16680 16451 14541 16682 
2348 2017 2051 2018 16677 14766 16678 16682 14541 14767 
2018 2051 2349 2052 14767 16683 16684 14773 14775 16685 
2315 2349 2316 2018 16686 16687 16461 16451 16684 16456 
2018 2051 2348 2349 14767 16678 16682 16684 16683 16688 
2315 2349 2018 2348 16686 16684 16451 16680 16688 16682 
2316 2018 2349 2019 16456 16684 16687 16458 14548 16689 
2349 2018 2052 2019 16684 14773 16685 16689 14548 14774 
2019 2052 2350 2053 14774 16690 16691 14780 14782 16692 
2316 2350 2317 2019 16693 16694 16468 16458 16691 16463 
2019 2052 2349 2350 14774 16685 16689 16691 16690 16695 
2316 2350 2019 2349 16693 16691 16458 16687 16695 16689 
2317 2019 2350 2020 16463 16691 16694 16465 14555 16696 
2350 2019 2053 2020 16691 14780 16692 16696 14555 14781 
2020 2053 2351 2054 14781 16697 16698 14787 14789 16699 
2317 2351 2318 2020 16700 16701 16475 16465 16698 16470 
2020 2053 2350 2351 14781 16692 16696 16698 16697 16702 
2317 2351 2020 2350 16700 16698 16465 16694 16702 16696 
2318 2020 2351 2021 16470 16698 16701 16472 14562 16703 
2351 2020 2054 2021 16698 14787 16699 16703 14562 14788 
2021 2054 2352 2055 14788 16704 16705 14794 14796 16706 
2318 2352 2319 2021 16707 16708 16482 16472 16705 16477 
2021 2054 2351 2352 14788 16699 16703 16705 16704 16709 
2318 2352 2021 2351 16707 16705 16472 16701 16709 16703 
2319 2021 2352 2022 16477 16705 16708 16479 14569 16710 
2352 2021 2055 2022 16705 14794 16706 16710 14569 14795 
2022 2055 2353 2056 14795 16711 16712 14801 14803 16713 
2319 2353 2320 2022 16714 16715 16489 16479 16712 16484 
2022 2055 2352 2353 14795 16706 16710 16712 16711 16716 
2319 2353 2022 2352 16714 16712 16479 16708 16716 16710 
2320 2022 2353 2023 16484 16712 16715 16486 14576 16717 
2353 2022 2056 2023 16712 14801 16713 16717 14576 14802 
2023 2056 2354 2057 14802 16718 16719 14808 14810 16720 
2320 2354 2321 2023 16721 16722 16496 16486 16719 16491 
2023 2056 2353 2354 14802 16713 16717 16719 16718 16723 
2320 2354 2023 2353 16721 16719 16486 16715 16723 16717 
2321 2023 2354 2024 16491 16719 16722 16493 14583 16724 
2354 2023 2057 2024 16719 14808 16720 16724 14583 14809 
2024 2057 2355 2058 14809 16725 16726 14815 14817 16727 
2321 2355 2322 2024 16728 16729 16503 16493 16726 16498 
2024 2057 2354 2355 14809 16720 16724 16726 16725 16730 
2321 2355 2024 2354 16728 16726 16493 16722 16730 16724 
2322 2024 2355 2025 16498 16726 16729 16500 14590 16731 
2355 2024 2058 2025 16726 14815 16727 16731 14590 14816 
2025 2058 2356 2059 14816 16732 16733 14822 14824 16734 
2322 2356 2323 2025 16735 16736 16510 16500 16733 16505 
2025 2058 2355 2356 14816 16727 16731 16733 16732 16737 
2322 2356 2025 2355 16735 16733 16500 16729 16737 16731 
2323 2025 2356 2026 16505 16733 16736 16507 14597 16738 
2356 2025 2059 2026 16733 14822 16734 16738 14597 14823 
2026 2059 2357 2060 14823 16739 16740 14829 14831 16741 
2323 2357 2324 2026 16742 16743 16517 16507 16740 16512 
2026 2059 2356 2357 14823 16734 16738 16740 16739 16744 
2323 2357 2026 2356 16742 16740 16507 16736 16744 16738 
2324 2026 2357 2027 16512 16740 16743 16514 14604 16745 
2357 2026 2060 2027 16740 14829 16741 16745 14604 14830 
2027 2060 2358 2061 14830 16746 16747 14836 14838 16748 
2324 2358 2325 2027 16749 16750 16524 16514 16747 16519 
2027 2060 2357 2358 14830 16741 16745 16747 16746 16751 
2324 2358 2027 2357 16749 16747 16514 16743 16751 16745 
2325 2027 2358 2028 16519 16747 16750 16521 14611 16752 
2358 2027 2061 2028 16747 14836 16748 16752 14611 14837 
2028 2061 2359 2062 14837 16753 16754 14843 14845 16755 
2325 2359 2326 2028 16756 16757 16531 16521 16754 16526 
2028 2061 2358 2359 14837 16748 16752 16754 16753 16758 
2325 2359 2028 2358 16756 16754 16521 16750 16758 16752 
2326 2028 2359 2029 16526 16754 16757 16528 14618 16759 
2359 2028 2062 2029 16754 14843 16755 16759 14618 14844 
2029 2062 2360 2063 14844 16760 16761 14850 14852 16762 
2326 2360 2327 2029 16763 16764 16538 16528 16761 16533 
2029 2062 2359 2360 14844 16755 16759 16761 16760 16765 
2326 2360 2029 2359 16763 16761 16528 16757 16765 16759 
2327 2029 2360 2030 16533 16761 16764 16535 14625 16766 
2360 2029 2063 2030 16761 14850 16762 16766 14625 14851 
2030 2063 2361 2064 14851 16767 16768 14857 14859 16769 
2327 2361 2328 2030 16770 16771 16545 16535 16768 16540 
2030 2063 2360 2361 14851 16762 16766 16768 16767 16772 
2327 2361 2030 2360 16770 16768 16535 16764 16772 16766 
2328 2030 2361 2031 16540 16768 16771 16542 14632 16773 
2361 2030 2064 2031 16768 14857 16769 16773 14632 14858 
2031 2064 2362 2065 14858 16774 16775 14864 14866 16776 
2328 2362 2329 2031 16777 16778 16552 16542 16775 16547 
2031 2064 2361 2362 14858 16769 16773 16775 16774 16779 
2328 2362 2031 2361 16777 16775 16542 16771 16779 16773 
2329 2031 2362 2032 16547 16775 16778 16549 14639 16780 
2362 2031 2065 2032 16775 14864 16776 16780 14639 14865 
2032 2065 2363 2066 14865 16781 16782 14871 14873 16783 
2329 2363 2330 2032 16784 16785 16559 16549 16782 16554 
2032 2065 2362 2363 14865 16776 16780 16782 16781 16786 
2329 2363 2032 2362 16784 16782 16549 16778 16786 16780 
2330 2032 2363 2033 16554 16782 16785 16556 14646 16787 
2363 2032 2066 2033 16782 14871 16783 16787 14646 14872 
2033 2066 2364 2067 14872 16788 16789 14878 14880 16790 
2330 2364 2331 2033 16791 16792 16566 16556 16789 16561 
2033 2066 2363 2364 14872 16783 16787 16789 16788 16793 
2330 2364 2033 2363 16791 16789 16556 16785 16793 16787 
2331 2033 2364 2034 16561 16789 16792 16563 14653 16794 
2364 2033 2067 2034 16789 14878 16790 16794 14653 14879 
2034 2067 2365 2068 14879 16795 16796 14885 14887 16797 
2331 2365 2332 2034 16798 16799 16573 16563 16796 16568 
2034 2067 2364 2365 14879 16790 16794 16796 16795 16800 
2331 2365 2034 2364 16798 16796 16563 16792 16800 16794 
2332 2034 2365 2035 16568 16796 16799 16570 14660 16801 
2365 2034 2068 2035 16796 14885 16797 16801 14660 14886 
2035 2068 2366 2069 14886 16802 16803 14892 14894 16804 
2332 2366 2333 2035 16805 16806 16580 16570 16803 16575 
2035 2068 2365 2366 14886 16797 16801 16803 16802 16807 
2332 2366 2035 2365 16805 16803 16570 16799 16807 16801 
2333 2035 2366 2036 16575 16803 16806 16577 14667 16808 
2366 2035 2069 2036 16803 14892 16804 16808 14667 14893 
2036 2069 2367 2070 14893 16809 16810 14899 14901 16811 
2333 2367 2334 2036 16812 16813 16587 16577 16810 16582 
2036 2069 2366 2367 14893 16804 16808 16810 16809 16814 
2333 2367 2036 2366 16812 16810 16577 16806 16814 16808 
2334 2036 2367 2037 16582 16810 16813 16584 14674 16815 
2367 2036 2070 2037 16810 14899 16811 16815 14674 14900 
2037 2070 2368 2071 14900 16816 16817 14906 14908 16818 
2334 2368 2335 2037 16819 16820 16594 16584 16817 16589 
2037 2070 2367 2368 14900 16811 16815 16817 16816 16821 
2334 2368 2037 2367 16819 16817 16584 16813 16821 16815 
2335 2037 2368 2038 16589 16817 16820 16591 14681 16822 
2368 2037 2071 2038 16817 14906 16818 16822 14681 14907 
2038 2071 2369 2072 14907 16823 16824 14913 14915 16825 
2335 2369 2336 2038 16826 16827 16601 16591 16824 16596 
2038 2071 2368 2369 14907 16818 16822 16824 16823 16828 
2335 2369 2038 2368 16826 16824 16591 16820 16828 16822 
2336 2038 2369 2039 16596 16824 16827 16598 14688 16829 
2369 2038 2072 2039 16824 14913 16825 16829 14688 14914 
2039 2072 2370 2073 14914 16830 16831 14920 14922 16832 
2336 2370 2337 2039 16833 16834 16608 16598 16831 16603 
2039 2072 2369 2370 14914 16825 16829 16831 16830 16835 
2336 2370 2039 2369 16833 16831 16598 16827 16835 16829 
2337 2039 2370 2040 16603 16831 16834 16605 14695 16836 
2370 2039 2073 2040 16831 14920 16832 16836 14695 14921 
2040 2073 2371 2074 14921 16837 16838 14927 14929 16839 
2337 2371 2338 2040 16840 16841 16615 16605 16838 16610 
2040 2073 2370 2371 14921 16832 16836 16838 16837 16842 
2337 2371 2040 2370 16840 16838 16605 16834 16842 16836 
2338 2040 2371 2041 16610 16838 16841 16612 14702 16843 
2371 2040 2074 2041 16838 14927 16839 16843 14702 14928 
2041 2074 2372 2075 14928 16844 16845 14934 14936 16846 
2338 2372 2339 2041 16847 16848 16622 16612 16845 16617 
2041 2074 2371 2372 14928 16839 16843 16845 16844 16849 
2338 2372 2041 2371 16847 16845 16612 16841 16849 16843 
2339 2041 2372 2042 16617 16845 16848 16619 14709 16850 
2372 2041 2075 2042 16845 14934 16846 16850 14709 14935 
2042 2075 2373 2076 14935 16851 16852 14941 14943 16853 
2339 2373 2340 2042 16854 16855 16629 16619 16852 16624 
2042 2075 2372 2373 14935 16846 16850 16852 16851 16856 
2339 2373 2042 2372 16854 16852 16619 16848 16856 16850 
2340 2042 2373 2043 16624 16852 16855 16626 14716 16857 
2373 2042 2076 2043 16852 14941 16853 16857 14716 14942 
2043 2076 2374 2077 14942 16858 16859 14948 14950 16860 
2340 2374 2341 2043 16861 16862 16636 16626 16859 16631 
2043 2076 2373 2374 14942 16853 16857 16859 16858 16863 
2340 2374 2043 2373 16861 16859 16626 16855 16863 16857 
2341 2043 2374 2044 16631 16859 16862 16633 14723 16864 
2374 2043 2077 2044 16859 14948 16860 16864 14723 14949 
2044 2077 2375 2078 14949 16865 16866 14955 14957 16867 
2341 2375 2342 2044 16868 16869 16643 16633 16866 16638 
2044 2077 2374 2375 14949 16860 16864 16866 16865 16870 
2341 2375 2044 2374 16868 16866 16633 16862 16870 16864 
2342 2044 2375 2045 16638 16866 16869 16640 14730 16871 
2375 2044 2078 2045 16866 14955 16867 16871 14730 14956 
2079 2112 2410 2113 14970 16872 16873 14962 14969 16874 
2376 2410 2377 2079 16875 16876 16877 16878 16873 16879 
2079 2112 2409 2410 14970 16880 16881 16873 16872 16882 
2376 2410 2079 2409 16875 16873 16878 16883 16882 16881 
2377 2079 2410 2080 16879 16873 16876 16884 14964 16885 
2410 2079 2113 2080 16873 14962 16874 16885 14964 14963 
2080 2113 2411 2114 14963 16886 16887 14976 14980 16888 
2377 2411 2378 2080 16889 16890 16891 16884 16887 16892 
2080 2113 2410 2411 14963 16874 16885 16887 16886 16893 
2377 2411 2080 2410 16889 16887 16884 16876 16893 16885 
2378 2080 2411 2081 16892 16887 16890 16894 14978 16895 
2411 2080 2114 2081 16887 14976 16888 16895 14978 14977 
2081 2114 2412 2115 14977 16896 16897 14986 14990 16898 
2378 2412 2379 2081 16899 16900 16901 16894 16897 16902 
2081 2114 2411 2412 14977 16888 16895 16897 16896 16903 
2378 2412 2081 2411 16899 16897 16894 16890 16903 16895 
2379 2081 2412 2082 16902 16897 16900 16904 14988 16905 
2412 2081 2115 2082 16897 14986 16898 16905 14988 14987 
2082 2115 2413 2116 14987 16906 16907 14996 15000 16908 
2379 2413 2380 2082 16909 16910 16911 16904 16907 16912 
2082 2115 2412 2413 14987 16898 16905 16907 16906 16913 
2379 2413 2082 2412 16909 16907 16904 16900 16913 16905 
2380 2082 2413 2083 16912 16907 16910 16914 14998 16915 
2413 2082 2116 2083 16907 14996 16908 16915 14998 14997 
2083 2116 2414 2117 14997 16916 16917 15006 15010 16918 
2380 2414 2381 2083 16919 16920 16921 16914 16917 16922 
2083 2116 2413 2414 14997 16908 16915 16917 16916 16923 
2380 2414 2083 2413 16919 16917 16914 16910 16923 16915 
2381 2083 2414 2084 16922 16917 16920 16924 15008 16925 
2414 2083 2117 2084 16917 15006 16918 16925 15008 15007 
2084 2117 2415 2118 15007 16926 16927 15016 15020 16928 
2381 2415 2382 2084 16929 16930 16931 16924 16927 16932 
2084 2117 2414 2415 15007 16918 16925 16927 16926 16933 
2381 2415 2084 2414 16929 16927 16924 16920 16933 16925 
2382 2084 2415 2085 16932 16927 16930 16934 15018 16935 
2415 2084 2118 2085 16927 15016 16928 16935 15018 15017 
2085 2118 2416 2119 15017 16936 16937 15026 15030 16938 
2382 2416 2383 2085 16939 16940 16941 16934 16937 16942 
2085 2118 2415 2416 15017 16928 16935 16937 16936 16943 
2382 2416 2085 2415 16939 16937 16934 16930 16943 16935 
2383 2085 2416 2086 16942 16937 16940 16944 15028 16945 
2416 2085 2119 2086 16937 15026 16938 16945 15028 15027 
2086 2119 2417 2120 15027 16946 16947 15036 15040 16948 
2383 2417 2384 2086 16949 16950 16951 16944 16947 16952 
2086 2119 2416 2417 15027 16938 16945 16947 16946 16953 
2383 2417 2086 2416 16949 16947 16944 16940 16953 16945 
2384 2086 2417 2087 16952 16947 16950 16954 15038 16955 
2417 2086 2120 2087 16947 15036 16948 16955 15038 15037 
2087 2120 2418 2121 15037 16956 16957 15046 15050 16958 
2384 2418 2385 2087 16959 16960 16961 16954 16957 16962 
2087 2120 2417 2418 15037 16948 16955 16957 16956 16963 
2384 2418 2087 2417 16959 16957 16954 16950 16963 16955 
2385 2087 2418 2088 16962 16957 16960 16964 15048 16965 
2418 2087 2121 2088 16957 15046 16958 16965 15048 15047 
2088 2121 2419 2122 15047 16966 16967 15056 15060 16968 
2385 2419 2386 2088 16969 16970 16971 16964 16967 16972 
2088 2121 2418 2419 15047 16958 16965 16967 16966 16973 
2385 2419 2088 2418 16969 16967 16964 16960 16973 16965 
2386 2088 2419 2089 16972 16967 16970 16974 15058 16975 
2419 2088 2122 2089 16967 15056 16968 16975 15058 15057 
2089 2122 2420 2123 15057 16976 16977 15066 15070 16978 
2386 2420 2387 2089 16979 16980 16981 16974 16977 16982 
2089 2122 2419 2420 15057 16968 16975 16977 16976 16983 
2386 2420 2089 2419 16979 16977 16974 16970 16983 16975 
2387 2089 2420 2090 16982 16977 16980 16984 15068 16985 
2420 2089 2123 2090 16977 15066 16978 16985 15068 15067 
2090 2123 2421 2124 15067 16986 16987 15076 15080 16988 
2387 2421 2388 2090 16989 16990 16991 16984 16987 16992 
2090 2123 2420 2421 15067 16978 16985 16987 16986 16993 
2387 2421 2090 2420 16989 16987 16984 16980 16993 16985 
2388 2090 2421 2091 16992 16987 16990 16994 15078 16995 
2421 2090 2124 2091 16987 15076 16988 16995 15078 15077 
2091 2124 2422 2125 15077 16996 16997 15086 15090 16998 
2388 2422 2389 2091 16999 17000 17001 16994 16997 17002 
2091 2124 2421 2422 15077 16988 16995 16997 16996 17003 
2388 2422 2091 2421 16999 16997 16994 16990 17003 16995 
2389 2091 2422 2092 17002 16997 17000 17004 15088 17005 
2422 2091 2125 2092 16997 15086 16998 17005 15088 15087 
2092 2125 2423 2126 15087 17006 17007 15096 15100 17008 
2389 2423 2390 2092 17009 17010 17011 17004 17007 17012 
2092 2125 2422 2423 15087 16998 17005 17007 17006 17013 
2389 2423 2092 2422 17009 17007 17004 17000 17013 17005 
2390 2092 2423 2093 17012 17007 17010 17014 15098 17015 
2423 2092 2126 2093 17007 15096 17008 17015 15098 15097 
2093 2126 2424 2127 15097 17016 17017 15106 15110 17018 
2390 2424 2391 2093 17019 17020 17021 17014 17017 17022 
2093 2126 2423 2424 15097 17008 17015 17017 17016 17023 
2390 2424 2093 2423 17019 17017 17014 17010 17023 17015 
2391 2093 2424 2094 17022 17017 17020 17024 15108 17025 
2424 2093 2127 2094 17017 15106 17018 17025 15108 15107 
2094 2127 2425 2128 15107 17026 17027 15116 15120 17028 
2391 2425 2392 2094 17029 17030 17031 17024 17027 17032 
2094 2127 2424 2425 15107 17018 17025 17027 17026 17033 
2391 2425 2094 2424 17029 17027 17024 17020 17033 17025 
2392 2094 2425 2095 17032 17027 17030 17034 15118 17035 
2425 2094 2128 2095 17027 15116 17028 17035 15118 15117 
2095 2128 2426 2129 15117 17036 17037 15126 15130 17038 
2392 2426 2393 2095 17039 17040 17041 17034 17037 17042 
2095 2128 2425 2426 15117 17028 17035 17037 17036 17043 
2392 2426 2095 2425 17039 17037 17034 17030 17043 17035 
2393 2095 2426 2096 17042 17037 17040 17044 15128 17045 
2426 2095 2129 2096 17037 15126 17038 17045 15128 15127 
2096 2129 2427 2130 15127 17046 17047 15136 15140 17048 
2393 2427 2394 2096 17049 17050 17051 17044 17047 17052 
2096 2129 2426 2427 15127 17038 17045 17047 17046 17053 
2393 2427 2096 2426 17049 17047 17044 17040 17053 17045 
2394 2096 2427 2097 17052 17047 17050 17054 15138 17055 
2427 2096 2130 2097 17047 15136 17048 17055 15138 15137 
2097 2130 2428 2131 15137 17056 17057 15146 15150 17058 
2394 2428 2395 2097 17059 17060 17061 17054 17057 17062 
2097 2130 2427 2428 15137 17048 17055 17057 17056 17063 
2394 2428 2097 2427 17059 17057 17054 17050 17063 17055 
2395 2097 2428 2098 17062 17057 17060 17064 15148 17065 
2428 2097 2131 2098 17057 15146 17058 17065 15148 15147 
2098 2131 2429 2132 15147 17066 17067 15156 15160 17068 
2395 2429 2396 2098 17069 17070 17071 17064 17067 17072 
2098 2131 2428 2429 15147 17058 17065 17067 17066 17073 
2395 2429 2098 2428 17069 17067 17064 17060 17073 17065 
2396 2098 2429 2099 17072 17067 17070 17074 15158 17075 
2429 2098 2132 2099 17067 15156 17068 17075 15158 15157 
2099 2132 2430 2133 15157 17076 17077 15166 15170 17078 
2396 2430 2397 2099 17079 17080 17081 17074 17077 17082 
2099 2132 2429 2430 15157 17068 17075 17077 17076 17083 
2396 2430 2099 2429 17079 17077 17074 17070 17083 17075 
2397 2099 2430 2100 17082 17077 17080 17084 15168 17085 
2430 2099 2133 2100 17077 15166 17078 17085 15168 15167 
2100 2133 2431 2134 15167 17086 17087 15176 15180 17088 
2397 2431 2398 2100 17089 17090 17091 17084 17087 17092 
2100 2133 2430 2431 15167 17078 17085 17087 17086 17093 
2397 2431 2100 2430 17089 17087 17084 17080 17093 17085 
2398 2100 2431 2101 17092 17087 17090 17094 15178 17095 
2431 2100 2134 2101 17087 15176 17088 17095 15178 15177 
2101 2134 2432 2135 15177 17096 17097 15186 15190 17098 
2398 2432 2399 2101 17099 17100 17101 17094 17097 17102 
2101 2134 2431 2432 15177 17088 17095 17097 17096 17103 
2398 2432 2101 2431 17099 17097 17094 17090 17103 17095 
2399 2101 2432 2102 17102 17097 17100 17104 15188 17105 
2432 2101 2135 2102 17097 15186 17098 17105 15188 15187 
2102 2135 2433 2136 15187 17106 17107 15196 15200 17108 
2399 2433 2400 2102 17109 17110 17111 17104 17107 17112 
2102 2135 2432 2433 15187 17098 17105 17107 17106 17113 
2399 2433 2102 2432 17109 17107 17104 17100 17113 17105 
2400 2102 2433 2103 17112 17107 17110 17114 15198 17115 
2433 2102 2136 2103 17107 15196 17108 17115 15198 15197 
2103 2136 2434 2137 15197 17116 17117 15206 15210 17118 
2400 2434 2401 2103 17119 17120 17121 17114 17117 17122 
2103 2136 2433 2434 15197 17108 17115 17117 17116 17123 
2400 2434 2103 2433 17119 17117 17114 17110 17123 17115 
2401 2103 2434 2104 17122 17117 17120 17124 15208 17125 
2434 2103 2137 2104 17117 15206 17118 17125 15208 15207 
2104 2137 2435 2138 15207 17126 17127 15216 15220 17128 
2401 2435 2402 2104 17129 17130 17131 17124 17127 17132 
2104 2137 2434 2435 15207 17118 17125 17127 17126 17133 
2401 2435 2104 2434 17129 17127 17124 17120 17133 17125 
2402 2104 2435 2105 17132 17127 17130 17134 15218 17135 
2435 2104 2138 2105 17127 15216 17128 17135 15218 15217 
2105 2138 2436 2139 15217 17136 17137 15226 15230 17138 
2402 2436 2403 2105 17139 17140 17141 17134 17137 17142 
2105 2138 2435 2436 15217 17128 17135 17137 17136 17143 
2402 2436 2105 2435 17139 17137 17134 17130 17143 17135 
2403 2105 2436 2106 17142 17137 17140 17144 15228 17145 
2436 2105 2139 2106 17137 15226 17138 17145 15228 15227 
2106 2139 2437 2140 15227 17146 17147 15236 15240 17148 
2403 2437 2404 2106 17149 17150 17151 17144 17147 17152 
2106 2139 2436 2437 15227 17138 17145 17147 17146 17153 
2403 2437 2106 2436 17149 17147 17144 17140 17153 17145 
2404 2106 2437 2107 17152 17147 17150 17154 15238 17155 
2437 2106 2140 2107 17147 15236 17148 17155 15238 15237 
2107 2140 2438 2141 15237 17156 17157 15246 15250 17158 
2404 2438 2405 2107 17159 17160 17161 17154 17157 17162 
2107 2140 2437 2438 15237 17148 17155 17157 17156 17163 
2404 2438 2107 2437 17159 17157 17154 17150 17163 17155 
2405 2107 2438 2108 17162 17157 17160 17164 15248 17165 
2438 2107 2141 2108 17157 15246 17158 17165 15248 15247 
2108 2141 2439 2142 15247 17166 17167 15256 15260 17168 
2405 2439 2406 2108 17169 17170 17171 17164 17167 17172 
2108 2141 2438 2439 15247 17158 17165 17167 17166 17173 
2405 2439 2108 2438 17169 17167 17164 17160 17173 17165 
2406 2108 2439 2109 17172 17167 17170 17174 15258 17175 
2439 2108 2142 2109 17167 15256 17168 17175 15258 15257 
2109 2142 2440 2143 15257 17176 17177 15266 15270 17178 
2406 2440 2407 2109 17179 17180 17181 17174 17177 17182 
2109 2142 2439 2440 15257 17168 17175 17177 17176 17183 
2406 2440 2109 2439 17179 17177 17174 17170 17183 17175 
2407 2109 2440 2110 17182 17177 17180 17184 15268 17185 
2440 2109 2143 2110 17177 15266 17178 17185 15268 15267 
2110 2143 2441 2144 15267 17186 17187 15276 15280 17188 
2407 2441 2408 2110 17189 17190 17191 17184 17187 17192 
2110 2143 2440 2441 15267 17178 17185 17187 17186 17193 
2407 2441 2110 2440 17189 17187 17184 17180 17193 17185 
2408 2110 2441 2111 17192 17187 17190 17194 15278 17195 
2441 2110 2144 2111 17187 15276 17188 17195 15278 15277 
2112 2145 2443 2146 15291 17196 17197 15286 15290 17198 
2409 2443 2410 2112 17199 17200 16882 16880 17197 16872 
2112 2145 2442 2443 15291 17201 17202 17197 17196 17203 
2409 2443 2112 2442 17199 17197 16880 17204 17203 17202 
2410 2112 2443 2113 16872 17197 17200 16874 14969 17205 
2443 2112 2146 2113 17197 15286 17198 17205 14969 15287 
2113 2146 2444 2147 15287 17206 17207 15296 15298 17208 
2410 2444 2411 2113 17209 17210 16893 16874 17207 16886 
2113 2146 2443 2444 15287 17198 17205 17207 17206 17211 
2410 2444 2113 2443 17209 17207 16874 17200 17211 17205 
2411 2113 2444 2114 16886 17207 17210 16888 14980 17212 
2444 2113 2147 2114 17207 15296 17208 17212 14980 15297 
2114 2147 2445 2148 15297 17213 17214 15303 15305 17215 
2411 2445 2412 2114 17216 17217 16903 16888 17214 16896 
2114 2147 2444 2445 15297 17208 17212 17214 17213 17218 
2411 2445 2114 2444 17216 17214 16888 17210 17218 17212 
2412 2114 2445 2115 16896 17214 17217 16898 14990 17219 
2445 2114 2148 2115 17214 15303 17215 17219 14990 15304 
2115 2148 2446 2149 15304 17220 17221 15310 15312 17222 
2412 2446 2413 2115 17223 17224 16913 16898 17221 16906 
2115 2148 2445 2446 15304 17215 17219 17221 17220 17225 
2412 2446 2115 2445 17223 17221 16898 17217 17225 17219 
2413 2115 2446 2116 16906 17221 17224 16908 15000 17226 
2446 2115 2149 2116 17221 15310 17222 17226 15000 15311 
2116 2149 2447 2150 15311 17227 17228 15317 15319 17229 
2413 2447 2414 2116 17230 17231 16923 16908 17228 16916 
2116 2149 2446 2447 15311 17222 17226 17228 17227 17232 
2413 2447 2116 2446 17230 17228 16908 17224 17232 17226 
2414 2116 2447 2117 16916 17228 17231 16918 15010 17233 
2447 2116 2150 2117 17228 15317 17229 17233 15010 15318 
2117 2150 2448 2151 15318 17234 17235 15324 15326 17236 
2414 2448 2415 2117 17237 17238 16933 16918 17235 16926 
2117 2150 2447 2448 15318 17229 17233 17235 17234 17239 
2414 2448 2117 2447 17237 17235 16918 17231 17239 17233 
2415 2117 2448 2118 16926 17235 17238 16928 15020 17240 
2448 2117 2151 2118 17235 15324 17236 17240 15020 15325 
2118 2151 2449 2152 15325 17241 17242 15331 15333 17243 
2415 2449 2416 2118 17244 17245 16943 16928 17242 16936 
2118 2151 2448 2449 15325 17236 17240 17242 17241 17246 
2415 2449 2118 2448 17244 17242 16928 17238 17246 17240 
2416 2118 2449 2119 16936 17242 17245 16938 15030 17247 
2449 2118 2152 2119 17242 15331 17243 17247 15030 15332 
2119 2152 2450 2153 15332 17248 17249 15338 15340 17250 
2416 2450 2417 2119 17251 17252 16953 16938 17249 16946 
2119 2152 2449 2450 15332 17243 17247 17249 17248 17253 
2416 2450 2119 2449 17251 17249 16938 17245 17253 17247 
2417 2119 2450 2120 16946 17249 17252 16948 15040 17254 
2450 2119 2153 2120 17249 15338 17250 17254 15040 15339 
2120 2153 2451 2154 15339 17255 17256 15345 15347 17257 
2417 2451 2418 2120 17258 17259 16963 16948 17256 16956 
2120 2153 2450 2451 15339 17250 17254 17256 17255 17260 
2417 2451 2120 2450 17258 17256 16948 17252 17260 17254 
2418 2120 2451 2121 16956 17256 17259 16958 15050 17261 
2451 2120 2154 2121 17256 15345 17257 17261 15050 15346 
2121 2154 2452 2155 15346 17262 17263 15352 15354 17264 
2418 2452 2419 2121 17265 17266 16973 16958 17263 16966 
2121 2154 2451 2452 15346 17257 17261 17263 17262 17267 
2418 2452 2121 2451 17265 17263 16958 17259 17267 17261 
2419 2121 2452 2122 16966 17263 17266 16968 15060 17268 
2452 2121 2155 2122 17263 15352 17264 17268 15060 15353 
2122 2155 2453 2156 15353 17269 17270 15359 15361 17271 
2419 2453 2420 2122 17272 17273 16983 16968 17270 16976 
2122 2155 2452 2453 15353 17264 17268 17270 17269 17274 
2419 2453 2122 2452 17272 17270 16968 17266 17274 17268 
2420 2122 2453 2123 16976 17270 17273 16978 15070 17275 
2453 2122 2156 2123 17270 15359 17271 17275 15070 15360 
2123 2156 2454 2157 15360 17276 17277 15366 15368 17278 
2420 2454 2421 2123 17279 17280 16993 16978 17277 16986 
2123 2156 2453 2454 15360 17271 17275 17277 17276 17281 
2420 2454 2123 2453 17279 17277 16978 17273 17281 17275 
2421 2123 2454 2124 16986 17277 17280 16988 15080 17282 
2454 2123 2157 2124 17277 15366 17278 17282 15080 15367 
2124 2157 2455 2158 15367 17283 17284 15373 15375 17285 
2421 2455 2422 2124 17286 17287 17003 16988 17284 16996 
2124 2157 2454 2455 15367 17278 17282 17284 17283 17288 
2421 2455 2124 2454 17286 17284 16988 17280 17288 17282 
2422 2124 2455 2125 16996 17284 17287 16998 15090 17289 
2455 2124 2158 2125 17284 15373 17285 17289 15090 15374 
2125 2158 2456 2159 15374 17290 17291 15380 15382 17292 
2422 2456 2423 2125 17293 17294 17013 16998 17291 17006 
2125 2158 2455 2456 15374 17285 17289 17291 17290 17295 
2422 2456 2125 2455 17293 17291 16998 17287 17295 17289 
2423 2125 2456 2126 17006 17291 17294 17008 15100 17296 
2456 2125 2159 2126 17291 15380 17292 17296 15100 15381 
2126 2159 2457 2160 15381 17297 17298 15387 15389 17299 
2423 2457 2424 2126 17300 17301 17023 17008 17298 17016 
2126 2159 2456 2457 15381 17292 17296 17298 17297 17302 
2423 2457 2126 2456 17300 17298 17008 17294 17302 17296 
2424 2126 2457 2127 17016 17298 17301 17018 15110 17303 
2457 2126 2160 2127 17298 15387 17299 17303 15110 15388 
2127 2160 2458 2161 15388 17304 17305 15394 15396 17306 
2424 2458 2425 2127 17307 17308 17033 17018 17305 17026 
2127 2160 2457 2458 15388 17299 17303 17305 17304 17309 
2424 2458 2127 2457 17307 17305 17018 17301 17309 17303 
2425 2127 2458 2128 17026 17305 17308 17028 15120 17310 
2458 2127 2161 2128 17305 15394 17306 17310 15120 15395 
2128 2161 2459 2162 15395 17311 17312 15401 15403 17313 
2425 2459 2426 2128 17314 17315 17043 17028 17312 17036 
2128 2161 2458 2459 15395 17306 17310 17312 17311 17316 
2425 2459 2128 2458 17314 17312 17028 17308 17316 17310 
2426 2128 2459 2129 17036 17312 17315 17038 15130 17317 
2459 2128 2162 2129 17312 15401 17313 17317 15130 15402 
2129 2162 2460 2163 15402 17318 17319 15408 15410 17320 
2426 2460 2427 2129 17321 17322 17053 17038 17319 17046 
2129 2162 2459 2460 15402 17313 17317 17319 17318 17323 
2426 2460 2129 2459 17321 17319 17038 17315 17323 17317 
2427 2129 2460 2130 17046 17319 17322 17048 15140 17324 
2460 2129 2163 2130 17319 15408 17320 17324 15140 15409 
2130 2163 2461 2164 15409 17325 17326 15415 15417 17327 
2427 2461 2428 2130 17328 17329 17063 17048 17326 17056 
2130 2163 2460 2461 15409 17320 17324 17326 17325 17330 
2427 2461 2130 2460 17328 17326 17048 17322 17330 17324 
2428 2130 2461 2131 17056 17326 17329 17058 15150 17331 
2461 2130 2164 2131 17326 15415 17327 17331 15150 15416 
2131 2164 2462 2165 15416 17332 17333 15422 15424 17334 
2428 2462 2429 2131 17335 17336 17073 17058 17333 17066 
2131 2164 2461 2462 15416 17327 17331 17333 17332 17337 
2428 2462 2131 2461 17335 17333 17058 17329 17337 17331 
2429 2131 2462 2132 17066 17333 17336 17068 15160 17338 
2462 2131 2165 2132 17333 15422 17334 17338 15160 15423 
2132 2165 2463 2166 15423 17339 17340 15429 15431 17341 
2429 2463 2430 2132 17342 17343 17083 17068 17340 17076 
2132 2165 2462 2463 15423 17334 17338 17340 17339 17344 
2429 2463 2132 2462 17342 17340 17068 17336 17344 17338 
2430 2132 2463 2133 17076 17340 17343 17078 15170 17345 
2463 2132 2166 2133 17340 15429 17341 17345 15170 15430 
2133 2166 2464 2167 15430 17346 17347 15436 15438 17348 
2430 2464 2431 2133 17349 17350 17093 17078 17347 17086 
2133 2166 2463 2464 15430 17341 17345 17347 17346 17351 
2430 2464 2133 2463 17349 17347 17078 17343 17351 17345 
2431 2133 2464 2134 17086 17347 17350 17088 15180 17352 
2464 2133 2167 2134 17347 15436 17348 17352 15180 15437 
2134 2167 2465 2168 15437 17353 17354 15443 15445 17355 
2431 2465 2432 2134 17356 17357 17103 17088 17354 17096 
2134 2167 2464 2465 15437 17348 17352 17354 17353 17358 
2431 2465 2134 2464 17356 17354 17088 17350 17358 17352 
2432 2134 2465 2135 17096 17354 17357 17098 15190 17359 
2465 2134 2168 2135 17354 15443 17355 17359 15190 15444 
2135 2168 2466 2169 15444 17360 17361 15450 15452 17362 
2432 2466 2433 2135 17363 17364 17113 17098 17361 17106 
2135 2168 2465 2466 15444 17355 17359 17361 17360 17365 
2432 2466 2135 2465 17363 17361 17098 17357 17365 17359 
2433 2135 2466 2136 17106 17361 17364 17108 15200 17366 
2466 2135 2169 2136 17361 15450 17362 17366 15200 15451 
2136 2169 2467 2170 15451 17367 17368 15457 15459 17369 
2433 2467 2434 2136 17370 17371 17123 17108 17368 17116 
2136 2169 2466 2467 15451 17362 17366 17368 17367 17372 
2433 2467 2136 2466 17370 17368 17108 17364 17372 17366 
2434 2136 2467 2137 17116 17368 17371 17118 15210 17373 
2467 2136 2170 2137 17368 15457 17369 17373 15210 15458 
2137 2170 2468 2171 15458 17374 17375 15464 15466 17376 
2434 2468 2435 2137 17377 17378 17133 17118 17375 17126 
2137 2170 2467 2468 15458 17369 17373 17375 17374 17379 
2434 2468 2137 2467 17377 17375 17118 17371 17379 17373 
2435 2137 2468 2138 17126 17375 17378 17128 15220 17380 
2468 2137 2171 2138 17375 15464 17376 17380 15220 15465 
2138 2171 2469 2172 15465 17381 17382 15471 15473 17383 
2435 2469 2436 2138 17384 17385 17143 17128 17382 17136 
2138 2171 2468 2469 15465 17376 17380 17382 17381 17386 
2435 2469 2138 2468 17384 17382 17128 17378 17386 17380 
2436 2138 2469 2139 17136 17382 17385 17138 15230 17387 
2469 2138 2172 2139 17382 15471 17383 17387 15230 15472 
2139 2172 2470 2173 15472 17388 17389 15478 15480 17390 
2436 2470 2437 2139 17391 17392 17153 17138 17389 17146 
2139 2172 2469 2470 15472 17383 17387 17389 17388 17393 
2436 2470 2139 2469 17391 17389 17138 17385 17393 17387 
2437 2139 2470 2140 17146 17389 17392 17148 15240 17394 
2470 2139 2173 2140 17389 15478 17390 17394 15240 15479 
2140 2173 2471 2174 15479 17395 17396 15485 15487 17397 
2437 2471 2438 2140 17398 17399 17163 17148 17396 17156 
2140 2173 2470 2471 15479 17390 17394 17396 17395 17400 
2437 2471 2140 2470 17398 17396 17148 17392 17400 17394 
2438 2140 2471 2141 17156 17396 17399 17158 15250 17401 
2471 2140 2174 2141 17396 15485 17397 17401 15250 15486 
2141 2174 2472 2175 15486 17402 17403 15492 15494 17404 
2438 2472 2439 2141 17405 17406 17173 17158 17403 17166 
2141 2174 2471 2472 15486 17397 17401 17403 17402 17407 
2438 2472 2141 2471 17405 17403 17158 17399 17407 17401 
2439 2141 2472 2142 17166 17403 17406 17168 15260 17408 
2472 2141 2175 2142 17403 15492 17404 17408 15260 15493 
2142 2175 2473 2176 15493 17409 17410 15499 15501 17411 
2439 2473 2440 2142 17412 17413 17183 17168 17410 17176 
2142 2175 2472 2473 15493 17404 17408 17410 17409 17414 
2439 2473 2142 2472 17412 17410 17168 17406 17414 17408 
2440 2142 2473 2143 17176 17410 17413 17178 15270 17415 
2473 2142 2176 2143 17410 15499 17411 17415 15270 15500 
2143 2176 2474 2177 15500 17416 17417 15506 15508 17418 
2440 2474 2441 2143 17419 17420 17193 17178 17417 17186 
2143 2176 2473 2474 15500 17411 17415 17417 17416 17421 
2440 2474 2143 2473 17419 17417 17178 17413 17421 17415 
2441 2143 2474 2144 17186 17417 17420 17188 15280 17422 
2474 2143 2177 2144 17417 15506 17418 17422 15280 15507 
2145 2178 2476 2179 15518 17423 17424 15513 15517 17425 
2442 2476 2443 2145 17426 17427 17203 17201 17424 17196 
2145 2178 2475 2476 15518 17428 17429 17424 17423 17430 
2442 2476 2145 2475 17426 17424 17201 17431 17430 17429 
2443 2145 2476 2146 17196 17424 17427 17198 15290 17432 
2476 2145 2179 2146 17424 15513 17425 17432 15290 15514 
2146 2179 2477 2180 15514 17433 17434 15523 15525 17435 
2443 2477 2444 2146 17436 17437 17211 17198 17434 17206 
2146 2179 2476 2477 15514 17425 17432 17434 17433 17438 
2443 2477 2146 2476 17436 17434 17198 17427 17438 17432 
2444 2146 2477 2147 17206 17434 17437 17208 15298 17439 
2477 2146 2180 2147 17434 15523 17435 17439 15298 15524 
2147 2180 2478 2181 15524 17440 17441 15530 15532 17442 
2444 2478 2445 2147 17443 17444 17218 17208 17441 17213 
2147 2180 2477 2478 15524 17435 17439 17441 17440 17445 
2444 2478 2147 2477 17443 17441 17208 17437 17445 17439 
2445 2147 2478 2148 17213 17441 17444 17215 15305 17446 
2478 2147 2181 2148 17441 15530 17442 17446 15305 15531 
2148 2181 2479 2182 15531 17447 17448 15537 15539 17449 
2445 2479 2446 2148 17450 17451 17225 17215 17448 17220 
2148 2181 2478 2479 15531 17442 17446 17448 17447 17452 
2445 2479 2148 2478 17450 17448 17215 17444 17452 17446 
2446 2148 2479 2149 17220 17448 17451 17222 15312 17453 
2479 2148 2182 2149 17448 15537 17449 17453 15312 15538 
2149 2182 2480 2183 15538 17454 17455 15544 15546 17456 
2446 2480 2447 2149 17457 17458 17232 17222 17455 17227 
2149 2182 2479 2480 15538 17449 17453 17455 17454 17459 
2446 2480 2149 2479 17457 17455 17222 17451 17459 17453 
2447 2149 2480 2150 17227 17455 17458 17229 15319 17460 
2480 2149 2183 2150 17455 15544 17456 17460 15319 15545 
2150 2183 2481 2184 15545 17461 17462 15551 15553 17463 
2447 2481 2448 2150 17464 17465 17239 17229 17462 17234 
2150 2183 2480 2481 15545 17456 17460 17462 17461 17466 
2447 2481 2150 2480 17464 17462 17229 17458 17466 17460 
2448 2150 2481 2151 17234 17462 17465 17236 15326 17467 
2481 2150 2184 2151 17462 15551 17463 17467 15326 15552 
2151 2184 2482 2185 15552 17468 17469 15558 15560 17470 
2448 2482 2449 2151 17471 17472 17246 17236 17469 17241 
2151 2184 2481 2482 15552 17463 17467 17469 17468 17473 
2448 2482 2151 2481 17471 17469 17236 17465 17473 17467 
2449 2151 2482 2152 17241 17469 17472 17243 15333 17474 
2482 2151 2185 2152 17469 15558 17470 17474 15333 15559 
2152 2185 2483 2186 15559 17475 17476 15565 15567 17477 
2449 2483 2450 2152 17478 17479 17253 17243 17476 17248 
2152 2185 2482 2483 15559 17470 17474 17476 17475 17480 
2449 2483 2152 2482 17478 17476 17243 17472 17480 17474 
2450 2152 2483 2153 17248 17476 17479 17250 15340 17481 
2483 2152 2186 2153 17476 15565 17477 17481 15340 15566 
2153 2186 2484 2187 15566 17482 17483 15572 15574 17484 
2450 2484 2451 2153 17485 17486 17260 17250 17483 17255 
2153 2186 2483 2484 15566 17477 17481 17483 17482 17487 
2450 2484 2153 2483 17485 17483 17250 17479 17487 17481 
2451 2153 2484 2154 17255 17483 17486 17257 15347 17488 
2484 2153 2187 2154 17483 15572 17484 17488 15347 15573 
2154 2187 2485 2188 15573 17489 17490 15579 15581 17491 
2451 2485 2452 2154 17492 17493 17267 17257 17490 17262 
2154 2187 2484 2485 15573 17484 17488 17490 17489 17494 
2451 2485 2154 2484 17492 17490 17257 17486 17494 17488 
2452 2154 2485 2155 17262 17490 17493 17264 15354 17495 
2485 2154 2188 2155 17490 15579 17491 17495 15354 15580 
2155 2188 2486 2189 15580 17496 17497 15586 15588 17498 
2452 2486 2453 2155 17499 17500 17274 17264 17497 17269 
2155 2188 2485 2486 15580 17491 17495 17497 17496 17501 
2452 2486 2155 2485 17499 17497 17264 17493 17501 17495 
2453 2155 2486 2156 17269 17497 17500 17271 15361 17502 
2486 2155 2189 2156 17497 15586 17498 17502 15361 15587 
2156 2189 2487 2190 15587 17503 17504 15593 15595 17505 
2453 2487 2454 2156 17506 17507 17281 17271 17504 17276 
2156 2189 2486 2487 15587 17498 17502 17504 17503 17508 
2453 2487 2156 2486 17506 17504 17271 17500 17508 17502 
2454 2156 2487 2157 17276 17504 17507 17278 15368 17509 
2487 2156 2190 2157 17504 15593 17505 17509 15368 15594 
2157 2190 2488 2191 15594 17510 17511 15600 15602 17512 
2454 2488 2455 2157 17513 17514 17288 17278 17511 17283 
2157 2190 2487 2488 15594 17505 17509 17511 17510 17515 
2454 2488 2157 2487 17513 17511 17278 17507 17515 17509 
2455 2157 2488 2158 17283 17511 17514 17285 15375 17516 
2488 2157 2191 2158 17511 15600 17512 17516 15375 15601 
2158 2191 2489 2192 15601 17517 17518 15607 15609 17519 
2455 2489 2456 2158 17520 17521 17295 17285 17518 17290 
2158 2191 2488 2489 15601 17512 17516 17518 17517 17522 
2455 2489 2158 2488 17520 17518 17285 17514 17522 17516 
2456 2158 2489 2159 17290 17518 17521 17292 15382 17523 
2489 2158 2192 2159 17518 15607 17519 17523 15382 15608 
2159 2192 2490 2193 15608 17524 17525 15614 15616 17526 
2456 2490 2457 2159 17527 17528 17302 17292 17525 17297 
2159 2192 2489 2490 15608 17519 17523 17525 17524 17529 
2456 2490 2159 2489 17527 17525 17292 17521 17529 17523 
2457 2159 2490 2160 17297 17525 17528 17299 15389 17530 
2490 2159 2193 2160 17525 15614 17526 17530 15389 15615 
2160 2193 2491 2194 15615 17531 17532 15621 15623 17533 
2457 2491 2458 2160 17534 17535 17309 17299 17532 17304 
2160 2193 2490 2491 15615 17526 17530 17532 17531 17536 
2457 2491 2160 2490 17534 17532 17299 17528 17536 17530 
2458 2160 2491 2161 17304 17532 17535 17306 15396 17537 
2491 2160 2194 2161 17532 15621 17533 17537 15396 15622 
2161 2194 2492 2195 15622 17538 17539 15628 15630 17540 
2458 2492 2459 2161 17541 17542 17316 17306 17539 17311 
2161 2194 2491 2492 15622 17533 17537 17539 17538 17543 
2458 2492 2161 2491 17541 17539 17306 17535 17543 17537 
2459 2161 2492 2162 17311 17539 17542 17313 15403 17544 
2492 2161 2195 2162 17539 15628 17540 17544 15403 15629 
2162 2195 2493 2196 15629 17545 17546 15635 15637 17547 
2459 2493 2460 2162 17548 17549 17323 17313 17546 17318 
2162 2195 2492 2493 15629 17540 17544 17546 17545 17550 
2459 2493 2162 2492 17548 17546 17313 17542 17550 17544 
2460 2162 2493 2163 17318 17546 17549 17320 15410 17551 
2493 2162 2196 2163 17546 15635 17547 17551 15410 15636 
2163 2196 2494 2197 15636 17552 17553 15642 15644 17554 
2460 2494 2461 2163 17555 17556 17330 17320 17553 17325 
2163 2196 2493 2494 15636 17547 17551 17553 17552 17557 
2460 2494 2163 2493 17555 17553 17320 17549 17557 17551 
2461 2163 2494 2164 17325 17553 17556 17327 15417 17558 
2494 2163 2197 2164 17553 15642 17554 17558 15417 15643 
2164 2197 2495 2198 15643 17559 17560 15649 15651 17561 
2461 2495 2462 2164 17562 17563 17337 17327 17560 17332 
2164 2197 2494 2495 15643 17554 17558 17560 17559 17564 
2461 2495 2164 2494 17562 17560 17327 17556 17564 17558 
2462 2164 2495 2165 17332 17560 17563 17334 15424 17565 
2495 2164 2198 2165 17560 15649 17561 17565 15424 15650 
2165 2198 2496 2199 15650 17566 17567 15656 15658 17568 
2462 2496 2463 2165 17569 17570 17344 17334 17567 17339 
2165 2198 2495 2496 15650 17561 17565 17567 17566 17571 
2462 2496 2165 2495 17569 17567 17334 17563 17571 17565 
2463 2165 2496 2166 17339 17567 17570 17341 15431 17572 
2496 2165 2199 2166 17567 15656 17568 17572 15431 15657 
2166 2199 2497 2200 15657 17573 17574 15663 15665 17575 
2463 2497 2464 2166 17576 17577 17351 17341 17574 17346 
2166 2199 2496 2497 15657 17568 17572 17574 17573 17578 
2463 2497 2166 2496 17576 17574 17341 17570 17578 17572 
2464 2166 2497 2167 17346 17574 17577 17348 15438 17579 
2497 2166 2200 2167 17574 15663 17575 17579 15438 15664 
2167 2200 2498 2201 15664 17580 17581 15670 15672 17582 
2464 2498 2465 2167 17583 17584 17358 17348 17581 17353 
2167 2200 2497 2498 15664 17575 17579 17581 17580 17585 
2464 2498 2167 2497 17583 17581 17348 17577 17585 17579 
2465 2167 2498 2168 17353 17581 17584 17355 15445 17586 
2498 2167 2201 2168 17581 15670 17582 17586 15445 15671 
2168 2201 2499 2202 15671 17587 17588 15677 15679 17589 
2465 2499 2466 2168 17590 17591 17365 17355 17588 17360 
2168 2201 2498 2499 15671 17582 17586 17588 17587 17592 
2465 2499 2168 2498 17590 17588 17355 17584 17592 17586 
2466 2168 2499 2169 17360 17588 17591 17362 15452 17593 
2499 2168 2202 2169 17588 15677 17589 17593 15452 15678 
2169 2202 2500 2203 15678 17594 17595 15684 15686 17596 
2466 2500 2467 2169 17597 17598 17372 17362 17595 17367 
2169 2202 2499 2500 15678 17589 17593 17595 17594 17599 
2466 2500 2169 2499 17597 17595 17362 17591 17599 17593 
2467 2169 2500 2170 17367 17595 17598 17369 15459 17600 
2500 2169 2203 2170 17595 15684 17596 17600 15459 15685 
2170 2203 2501 2204 15685 17601 17602 15691 15693 17603 
2467 2501 2468 2170 17604 17605 17379 17369 17602 17374 
2170 2203 2500 2501 15685 17596 17600 17602 17601 17606 
2467 2501 2170 2500 17604 17602 17369 17598 17606 17600 
2468 2170 2501 2171 17374 17602 17605 17376 15466 17607 
2501 2170 2204 2171 17602 15691 17603 17607 15466 15692 
2171 2204 2502 2205 15692 17608 17609 15698 15700 17610 
2468 2502 2469 2171 17611 17612 17386 17376 17609 17381 
2171 2204 2501 2502 15692 17603 17607 17609 17608 17613 
2468 2502 2171 2501 17611 17609 17376 17605 17613 17607 
2469 2171 2502 2172 17381 17609 17612 17383 15473 17614 
2502 2171 2205 2172 17609 15698 17610 17614 15473 15699 
2172 2205 2503 2206 15699 17615 17616 15705 15707 17617 
2469 2503 2470 2172 17618 17619 17393 17383 17616 17388 
2172 2205 2502 2503 15699 17610 17614 17616 17615 17620 
2469 2503 2172 2502 17618 17616 17383 17612 17620 17614 
2470 2172 2503 2173 17388 17616 17619 17390 15480 17621 
2503 2172 2206 2173 17616 15705 17617 17621 15480 15706 
2173 2206 2504 2207 15706 17622 17623 15712 15714 17624 
2470 2504 2471 2173 17625 17626 17400 17390 17623 17395 
2173 2206 2503 2504 15706 17617 17621 17623 17622 17627 
2470 2504 2173 2503 17625 17623 17390 17619 17627 17621 
2471 2173 2504 2174 17395 17623 17626 17397 15487 17628 
2504 2173 2207 2174 17623 15712 17624 17628 15487 15713 
2174 2207 2505 2208 15713 17629 17630 15719 15721 17631 
2471 2505 2472 2174 17632 17633 17407 17397 17630 17402 
2174 2207 2504 2505 15713 17624 17628 17630 17629 17634 
2471 2505 2174 2504 17632 17630 17397 17626 17634 17628 
2472 2174 2505 2175 17402 17630 17633 17404 15494 17635 
2505 2174 2208 2175 17630 15719 17631 17635 15494 15720 
2175 2208 2506 2209 15720 17636 17637 15726 15728 17638 
2472 2506 2473 2175 17639 17640 17414 17404 17637 17409 
2175 2208 2505 2506 15720 17631 17635 17637 17636 17641 
2472 2506 2175 2505 17639 17637 17404 17633 17641 17635 
2473 2175 2506 2176 17409 17637 17640 17411 15501 17642 
2506 2175 2209 2176 17637 15726 17638 17642 15501 15727 
2176 2209 2507 2210 15727 17643 17644 15733 15735 17645 
2473 2507 2474 2176 17646 17647 17421 17411 17644 17416 
2176 2209 2506 2507 15727 17638 17642 17644 17643 17648 
2473 2507 2176 2506 17646 17644 17411 17640 17648 17642 
2474 2176 2507 2177 17416 17644 17647 17418 15508 17649 
2507 2176 2210 2177 17644 15733 17645 17649 15508 15734 
2178 2211 2509 2212 15745 17650 17651 15740 15744 17652 
2475 2509 2476 2178 17653 17654 17430 17428 17651 17423 
2178 2211 2508 2509 15745 17655 17656 17651 17650 17657 
2475 2509 2178 2508 17653 17651 17428 17658 17657 17656 
2476 2178 2509 2179 17423 17651 17654 17425 15517 17659 
2509 2178 2212 2179 17651 15740 17652 17659 15517 15741 
2179 2212 2510 2213 15741 17660 17661 15750 15752 17662 
2476 2510 2477 2179 17663 17664 17438 17425 17661 17433 
2179 2212 2509 2510 15741 17652 17659 17661 17660 17665 
2476 2510 2179 2509 17663 17661 17425 17654 17665 17659 
2477 2179 2510 2180 17433 17661 17664 17435 15525 17666 
2510 2179 2213 2180 17661 15750 17662 17666 15525 15751 
2180 2213 2511 2214 15751 17667 17668 15757 15759 17669 
2477 2511 2478 2180 17670 17671 17445 17435 17668 17440 
2180 2213 2510 2511 15751 17662 17666 17668 17667 17672 
2477 2511 2180 2510 17670 17668 17435 17664 17672 17666 
2478 2180 2511 2181 17440 17668 17671 17442 15532 17673 
2511 2180 2214 2181 17668 15757 17669 17673 15532 15758 
2181 2214 2512 2215 15758 17674 17675 15764 15766 17676 
2478 2512 2479 2181 17677 17678 17452 17442 17675 17447 
2181 2214 2511 2512 15758 17669 17673 17675 17674 17679 
2478 2512 2181 2511 17677 17675 17442 17671 17679 17673 
2479 2181 2512 2182 17447 17675 17678 17449 15539 17680 
2512 2181 2215 2182 17675 15764 17676 17680 15539 15765 
2182 2215 2513 2216 15765 17681 17682 15771 15773 17683 
2479 2513 2480 2182 17684 17685 17459 17449 17682 17454 
2182 2215 2512 2513 15765 17676 17680 17682 17681 17686 
2479 2513 2182 2512 17684 17682 17449 17678 17686 17680 
2480 2182 2513 2183 17454 17682 17685 17456 15546 17687 
2513 2182 2216 2183 17682 15771 17683 17687 15546 15772 
2183 2216 2514 2217 15772 17688 17689 15778 15780 17690 
2480 2514 2481 2183 17691 17692 17466 17456 17689 17461 
2183 2216 2513 2514 15772 17683 17687 17689 17688 17693 
2480 2514 2183 2513 17691 17689 17456 17685 17693 17687 
2481 2183 2514 2184 17461 17689 17692 17463 15553 17694 
2514 2183 2217 2184 17689 15778 17690 17694 15553 15779 
2184 2217 2515 2218 15779 17695 17696 15785 15787 17697 
2481 2515 2482 2184 17698 17699 17473 17463 17696 17468 
2184 2217 2514 2515 15779 17690 17694 17696 17695 17700 
2481 2515 2184 2514 17698 17696 17463 17692 17700 17694 
2482 2184 2515 2185 17468 17696 17699 17470 15560 17701 
2515 2184 2218 2185 17696 15785 17697 17701 15560 15786 
2185 2218 2516 2219 15786 17702 17703 15792 15794 17704 
2482 2516 2483 2185 17705 17706 17480 17470 17703 17475 
2185 2218 2515 2516 15786 17697 17701 17703 17702 17707 
2482 2516 2185 2515 17705 17703 17470 17699 17707 17701 
2483 2185 2516 2186 17475 17703 17706 17477 15567 17708 
2516 2185 2219 2186 17703 15792 17704 17708 15567 15793 
2186 2219 2517 2220 15793 17709 17710 15799 15801 17711 
2483 2517 2484 2186 17712 17713 17487 17477 17710 17482 
2186 2219 2516 2517 15793 17704 17708 17710 17709 17714 
2483 2517 2186 2516 17712 17710 17477 17706 17714 17708 
2484 2186 2517 2187 17482 17710 17713 17484 15574 17715 
2517 2186 2220 2187 17710 15799 17711 17715 15574 15800 
2187 2220 2518 2221 15800 17716 17717 15806 15808 17718 
2484 2518 2485 2187 17719 17720 17494 17484 17717 17489 
2187 2220 2517 2518 15800 17711 17715 17717 17716 17721 
2484 2518 2187 2517 17719 17717 17484 17713 17721 17715 
2485 2187 2518 2188 17489 17717 17720 17491 15581 17722 
2518 2187 2221 2188 17717 15806 17718 17722 15581 15807 
2188 2221 2519 2222 15807 17723 17724 15813 15815 17725 
2485 2519 2486 2188 17726 17727 17501 17491 17724 17496 
2188 2221 2518 2519 15807 17718 17722 17724 17723 17728 
2485 2519 2188 2518 17726 17724 17491 17720 17728 17722 
2486 2188 2519 2189 17496 17724 17727 17498 15588 17729 
2519 2188 2222 2189 17724 15813 17725 17729 15588 15814 
2189 2222 2520 2223 15814 17730 17731 15820 15822 17732 
2486 2520 2487 2189 17733 17734 17508 17498 17731 17503 
2189 2222 2519 2520 15814 17725 17729 17731 17730 17735 
2486 2520 2189 2519 17733 17731 17498 17727 17735 17729 
2487 2189 2520 2190 17503 17731 17734 17505 15595 17736 
2520 2189 2223 2190 17731 15820 17732 17736 15595 15821 
2190 2223 2521 2224 15821 17737 17738 15827 15829 17739 
2487 2521 2488 2190 17740 17741 17515 17505 17738 17510 
2190 2223 2520 2521 15821 17732 17736 17738 17737 17742 
2487 2521 2190 2520 17740 17738 17505 17734 17742 17736 
2488 2190 2521 2191 17510 17738 17741 17512 15602 17743 
2521 2190 2224 2191 17738 15827 17739 17743 15602 15828 
2191 2224 2522 2225 15828 17744 17745 15834 15836 17746 
2488 2522 2489 2191 17747 17748 17522 17512 17745 17517 
2191 2224 2521 2522 15828 17739 17743 17745 17744 17749 
2488 2522 2191 2521 17747 17745 17512 17741 17749 17743 
2489 2191 2522 2192 17517 17745 17748 17519 15609 17750 
2522 2191 2225 2192 17745 15834 17746 17750 15609 15835 
2192 2225 2523 2226 15835 17751 17752 15841 15843 17753 
2489 2523 2490 2192 17754 17755 17529 17519 17752 17524 
2192 2225 2522 2523 15835 17746 17750 17752 17751 17756 
2489 2523 2192 2522 17754 17752 17519 17748 17756 17750 
2490 2192 2523 2193 17524 17752 17755 17526 15616 17757 
2523 2192 2226 2193 17752 15841 17753 17757 15616 15842 
2193 2226 2524 2227 15842 17758 17759 15848 15850 17760 
2490 2524 2491 2193 17761 17762 17536 17526 17759 17531 
2193 2226 2523 2524 15842 17753 17757 17759 17758 17763 
2490 2524 2193 2523 17761 17759 17526 17755 17763 17757 
2491 2193 2524 2194 17531 17759 17762 17533 15623 17764 
2524 2193 2227 2194 17759 15848 17760 17764 15623 15849 
2194 2227 2525 2228 15849 17765 17766 15855 15857 17767 
2491 2525 2492 2194 17768 17769 17543 17533 17766 17538 
2194 2227 2524 2525 15849 17760 17764 17766 17765 17770 
2491 2525 2194 2524 17768 17766 17533 17762 17770 17764 
2492 2194 2525 2195 17538 17766 17769 17540 15630 17771 
2525 2194 2228 2195 17766 15855 17767 17771 15630 15856 
2195 2228 2526 2229 15856 17772 17773 15862 15864 17774 
2492 2526 2493 2195 17775 17776 17550 17540 17773 17545 
2195 2228 2525 2526 15856 17767 17771 17773 17772 17777 
2492 2526 2195 2525 17775 17773 17540 17769 17777 17771 
2493 2195 2526 2196 17545 17773 17776 17547 15637 17778 
2526 2195 2229 2196 17773 15862 17774 17778 15637 15863 
2196 2229 2527 2230 15863 17779 17780 15869 15871 17781 
2493 2527 2494 2196 17782 17783 17557 17547 17780 17552 
2196 2229 2526 2527 15863 17774 17778 17780 17779 17784 
2493 2527 2196 2526 17782 17780 17547 17776 17784 17778 
2494 2196 2527 2197 17552 17780 17783 17554 15644 17785 
2527 2196 2230 2197 17780 15869 17781 17785 15644 15870 
2197 2230 2528 2231 15870 17786 17787 15876 15878 17788 
2494 2528 2495 2197 17789 17790 17564 17554 17787 17559 
2197 2230 2527 2528 15870 17781 17785 17787 17786 17791 
2494 2528 2197 2527 17789 17787 17554 17783 17791 17785 
2495 2197 2528 2198 17559 17787 17790 17561 15651 17792 
2528 2197 2231 2198 17787 15876 17788 17792 15651 15877 
2198 2231 2529 2232 15877 17793 17794 15883 15885 17795 
2495 2529 2496 2198 17796 17797 17571 17561 17794 17566 
2198 2231 2528 2529 15877 17788 17792 17794 17793 17798 
2495 2529 2198 2528 17796 17794 17561 17790 17798 17792 
2496 2198 2529 2199 17566 17794 17797 17568 15658 17799 
2529 2198 2232 2199 17794 15883 17795 17799 15658 15884 
2199 2232 2530 2233 15884 17800 17801 15890 15892 17802 
2496 2530 2497 2199 17803 17804 17578 17568 17801 17573 
2199 2232 2529 2530 15884 17795 17799 17801 17800 17805 
2496 2530 2199 2529 17803 17801 17568 17797 17805 17799 
2497 2199 2530 2200 17573 17801 17804 17575 15665 17806 
2530 2199 2233 2200 17801 15890 17802 17806 15665 15891 
2200 2233 2531 2234 15891 17807 17808 15897 15899 17809 
2497 2531 2498 2200 17810 17811 17585 17575 17808 17580 
2200 2233 2530 2531 15891 17802 17806 17808 17807 17812 
2497 2531 2200 2530 17810 17808 17575 17804 17812 17806 
2498 2200 2531 2201 17580 17808 17811 17582 15672 17813 
2531 2200 2234 2201 17808 15897 17809 17813 15672 15898 
2201 2234 2532 2235 15898 17814 17815 15904 15906 17816 
2498 2532 2499 2201 17817 17818 17592 17582 17815 17587 
2201 2234 2531 2532 15898 17809 17813 17815 17814 17819 
2498 2532 2201 2531 17817 17815 17582 17811 17819 17813 
2499 2201 2532 2202 17587 17815 17818 17589 15679 17820 
2532 2201 2235 2202 17815 15904 17816 17820 15679 15905 
2202 2235 2533 2236 15905 17821 17822 15911 15913 17823 
2499 2533 2500 2202 17824 17825 17599 17589 17822 17594 
2202 2235 2532 2533 15905 17816 17820 17822 17821 17826 
2499 2533 2202 2532 17824 17822 17589 17818 17826 17820 
2500 2202 2533 2203 17594 17822 17825 17596 15686 17827 
2533 2202 2236 2203 17822 15911 17823 17827 15686 15912 
2203 2236 2534 2237 15912 17828 17829 15918 15920 17830 
2500 2534 2501 2203 17831 17832 17606 17596 17829 17601 
2203 2236 2533 2534 15912 17823 17827 17829 17828 17833 
2500 2534 2203 2533 17831 17829 17596 17825 17833 17827 
2501 2203 2534 2204 17601 17829 17832 17603 15693 17834 
2534 2203 2237 2204 17829 15918 17830 17834 15693 15919 
2204 2237 2535 2238 15919 17835 17836 15925 15927 17837 
2501 2535 2502 2204 17838 17839 17613 17603 17836 17608 
2204 2237 2534 2535 15919 17830 17834 17836 17835 17840 
2501 2535 2204 2534 17838 17836 17603 17832 17840 17834 
2502 2204 2535 2205 17608 17836 17839 17610 15700 17841 
2535 2204 2238 2205 17836 15925 17837 17841 15700 15926 
2205 2238 2536 2239 15926 17842 17843 15932 15934 17844 
2502 2536 2503 2205 17845 17846 17620 17610 17843 17615 
2205 2238 2535 2536 15926 17837 17841 17843 17842 17847 
2502 2536 2205 2535 17845 17843 17610 17839 17847 17841 
2503 2205 2536 2206 17615 17843 17846 17617 15707 17848 
2536 2205 2239 2206 17843 15932 17844 17848 15707 15933 
2206 2239 2537 2240 15933 17849 17850 15939 15941 17851 
2503 2537 2504 2206 17852 17853 17627 17617 17850 17622 
2206 2239 2536 2537 15933 17844 17848 17850 17849 17854 
2503 2537 2206 2536 17852 17850 17617 17846 17854 17848 
2504 2206 2537 2207 17622 17850 17853 17624 15714 17855 
2537 2206 2240 2207 17850 15939 17851 17855 15714 15940 
2207 2240 2538 2241 15940 17856 17857 15946 15948 17858 
2504 2538 2505 2207 17859 17860 17634 17624 17857 17629 
2207 2240 2537 2538 15940 17851 17855 17857 17856 17861 
2504 2538 2207 2537 17859 17857 17624 17853 17861 17855 
2505 2207 2538 2208 17629 17857 17860 17631 15721 17862 
2538 2207 2241 2208 17857 15946 17858 17862 15721 15947 
2208 2241 2539 2242 15947 17863 17864 15953 15955 17865 
2505 2539 2506 2208 17866 17867 17641 17631 17864 17636 
2208 2241 2538 2539 15947 17858 17862 17864 17863 17868 
2505 2539 2208 2538 17866 17864 17631 17860 17868 17862 
2506 2208 2539 2209 17636 17864 17867 17638 15728 17869 
2539 2208 2242 2209 17864 15953 17865 17869 15728 15954 
2209 2242 2540 2243 15954 17870 17871 15960 15962 17872 
2506 2540 2507 2209 17873 17874 17648 17638 17871 17643 
2209 2242 2539 2540 15954 17865 17869 17871 17870 17875 
2506 2540 2209 2539 17873 17871 17638 17867 17875 17869 
2507 2209 2540 2210 17643 17871 17874 17645 15735 17876 
2540 2209 2243 2210 17871 15960 17872 17876 15735 15961 
2211 2244 2542 2245 15972 17877 17878 15967 15971 17879 
2508 2542 2509 2211 17880 17881 17657 17655 17878 17650 
2211 2244 2541 2542 15972 17882 17883 17878 17877 17884 
2508 2542 2211 2541 17880 17878 17655 17885 17884 17883 
2509 2211 2542 2212 17650 17878 17881 17652 15744 17886 
2542 2211 2245 2212 17878 15967 17879 17886 15744 15968 
2212 2245 2543 2246 15968 17887 17888 15977 15979 17889 
2509 2543 2510 2212 17890 17891 17665 17652 17888 17660 
2212 2245 2542 2543 15968 17879 17886 17888 17887 17892 
2509 2543 2212 2542 17890 17888 17652 17881 17892 17886 
2510 2212 2543 2213 17660 17888 17891 17662 15752 17893 
2543 2212 2246 2213 17888 15977 17889 17893 15752 15978 
2213 2246 2544 2247 15978 17894 17895 15984 15986 17896 
2510 2544 2511 2213 17897 17898 17672 17662 17895 17667 
2213 2246 2543 2544 15978 17889 17893 17895 17894 17899 
2510 2544 2213 2543 17897 17895 17662 17891 17899 17893 
2511 2213 2544 2214 17667 17895 17898 17669 15759 17900 
2544 2213 2247 2214 17895 15984 17896 17900 15759 15985 
2214 2247 2545 2248 15985 17901 17902 15991 15993 17903 
2511 2545 2512 2214 17904 17905 17679 17669 17902 17674 
2214 2247 2544 2545 15985 17896 17900 17902 17901 17906 
2511 2545 2214 2544 17904 17902 17669 17898 17906 17900 
2512 2214 2545 2215 17674 17902 17905 17676 15766 17907 
2545 2214 2248 2215 17902 15991 17903 17907 15766 15992 
2215 2248 2546 2249 15992 17908 17909 15998 16000 17910 
2512 2546 2513 2215 17911 17912 17686 17676 17909 17681 
2215 2248 2545 2546 15992 17903 17907 17909 17908 17913 
2512 2546 2215 2545 17911 17909 17676 17905 17913 17907 
2513 2215 2546 2216 17681 17909 17912 17683 15773 17914 
2546 2215 2249 2216 17909 15998 17910 17914 15773 15999 
2216 2249 2547 2250 15999 17915 17916 16005 16007 17917 
2513 2547 2514 2216 17918 17919 17693 17683 17916 17688 
2216 2249 2546 2547 15999 17910 17914 17916 17915 17920 
2513 2547 2216 2546 17918 17916 17683 17912 17920 17914 
2514 2216 2547 2217 17688 17916 17919 17690 15780 17921 
2547 2216 2250 2217 17916 16005 17917 17921 15780 16006 
2217 2250 2548 2251 16006 17922 17923 16012 16014 17924 
2514 2548 2515 2217 17925 17926 17700 17690 17923 17695 
2217 2250 2547 2548 16006 17917 17921 17923 17922 17927 
2514 2548 2217 2547 17925 17923 17690 17919 17927 17921 
2515 2217 2548 2218 17695 17923 17926 17697 15787 17928 
2548 2217 2251 2218 17923 16012 17924 17928 15787 16013 
2218 2251 2549 2252 16013 17929 17930 16019 16021 17931 
2515 2549 2516 2218 17932 17933 17707 17697 17930 17702 
2218 2251 2548 2549 16013 17924 17928 17930 17929 17934 
2515 2549 2218 2548 17932 17930 17697 17926 17934 17928 
2516 2218 2549 2219 17702 17930 17933 17704 15794 17935 
2549 2218 2252 2219 17930 16019 17931 17935 15794 16020 
2219 2252 2550 2253 16020 17936 17937 16026 16028 17938 
2516 2550 2517 2219 17939 17940 17714 17704 17937 17709 
2219 2252 2549 2550 16020 17931 17935 17937 17936 17941 
2516 2550 2219 2549 17939 17937 17704 17933 17941 17935 
2517 2219 2550 2220 17709 17937 17940 17711 15801 17942 
2550 2219 2253 2220 17937 16026 17938 17942 15801 16027 
2220 2253 2551 2254 16027 17943 17944 16033 16035 17945 
2517 2551 2518 2220 17946 17947 17721 17711 17944 17716 
2220 2253 2550 2551 16027 17938 17942 17944 17943 17948 
2517 2551 2220 2550 17946 17944 17711 17940 17948 17942 
2518 2220 2551 2221 17716 17944 17947 17718 15808 17949 
2551 2220 2254 2221 17944 16033 17945 17949 15808 16034 
2221 2254 2552 2255 16034 17950 17951 16040 16042 17952 
2518 2552 2519 2221 17953 17954 17728 17718 17951 17723 
2221 2254 2551 2552 16034 17945 17949 17951 17950 17955 
2518 2552 2221 2551 17953 17951 17718 17947 17955 17949 
2519 2221 2552 2222 17723 17951 17954 17725 15815 17956 
2552 2221 2255 2222 17951 16040 17952 17956 15815 16041 
2222 2255 2553 2256 16041 17957 17958 16047 16049 17959 
2519 2553 2520 2222 17960 17961 17735 17725 17958 17730 
2222 2255 2552 2553 16041 17952 17956 17958 17957 17962 
2519 2553 2222 2552 17960 17958 17725 17954 17962 17956 
2520 2222 2553 2223 17730 17958 17961 17732 15822 17963 
2553 2222 2256 2223 17958 16047 17959 17963 15822 16048 
2223 2256 2554 2257 16048 17964 17965 16054 16056 17966 
2520 2554 2521 2223 17967 17968 17742 17732 17965 17737 
2223 2256 2553 2554 16048 17959 17963 17965 17964 17969 
2520 2554 2223 2553 17967 17965 17732 17961 17969 17963 
2521 2223 2554 2224 17737 17965 17968 17739 15829 17970 
2554 2223 2257 2224 17965 16054 17966 17970 15829 16055 
2224 2257 2555 2258 16055 17971 17972 16061 16063 17973 
2521 2555 2522 2224 17974 17975 17749 17739 17972 17744 
2224 2257 2554 2555 16055 17966 17970 17972 17971 17976 
2521 2555 2224 2554 17974 17972 17739 17968 17976 17970 
2522 2224 2555 2225 17744 17972 17975 17746 15836 17977 
2555 2224 2258 2225 17972 16061 17973 17977 15836 16062 
2225 2258 2556 2259 16062 17978 17979 16068 16070 17980 
2522 2556 2523 2225 17981 17982 17756 17746 17979 17751 
2225 2258 2555 2556 16062 17973 17977 17979 17978 17983 
2522 2556 2225 2555 17981 17979 17746 17975 17983 17977 
2523 2225 2556 2226 17751 17979 17982 17753 15843 17984 
2556 2225 2259 2226 17979 16068 17980 17984 15843 16069 
2226 2259 2557 2260 16069 17985 17986 16075 16077 17987 
2523 2557 2524 2226 17988 17989 17763 17753 17986 17758 
2226 2259 2556 2557 16069 17980 17984 17986 17985 17990 
2523 2557 2226 2556 17988 17986 17753 17982 17990 17984 
2524 2226 2557 2227 17758 17986 17989 17760 15850 17991 
2557 2226 2260 2227 17986 16075 17987 17991 15850 16076 
2227 2260 2558 2261 16076 17992 17993 16082 16084 17994 
2524 2558 2525 2227 17995 17996 17770 17760 17993 17765 
2227 2260 2557 2558 16076 17987 17991 17993 17992 17997 
2524 2558 2227 2557 17995 17993 17760 17989 17997 17991 
2525 2227 2558 2228 17765 17993 17996 17767 15857 17998 
2558 2227 2261 2228 17993 16082 17994 17998 15857 16083 
2228 2261 2559 2262 16083 17999 18000 16089 16091 18001 
2525 2559 2526 2228 18002 18003 17777 17767 18000 17772 
2228 2261 2558 2559 16083 17994 17998 18000 17999 18004 
2525 2559 2228 2558 18002 18000 17767 17996 18004 17998 
2526 2228 2559 2229 17772 18000 18003 17774 15864 18005 
2559 2228 2262 2229 18000 16089 18001 18005 15864 16090 
2229 2262 2560 2263 16090 18006 18007 16096 16098 18008 
2526 2560 2527 2229 18009 18010 17784 17774 18007 17779 
2229 2262 2559 2560 16090 18001 18005 18007 18006 18011 
2526 2560 2229 2559 18009 18007 17774 18003 18011 18005 
2527 2229 2560 2230 17779 18007 18010 17781 15871 18012 
2560 2229 2263 2230 18007 16096 18008 18012 15871 16097 
2230 2263 2561 2264 16097 18013 18014 16103 16105 18015 
2527 2561 2528 2230 18016 18017 17791 17781 18014 17786 
2230 2263 2560 2561 16097 18008 18012 18014 18013 18018 
2527 2561 2230 2560 18016 18014 17781 18010 18018 18012 
2528 2230 2561 2231 17786 18014 18017 17788 15878 18019 
2561 2230 2264 2231 18014 16103 18015 18019 15878 16104 
2231 2264 2562 2265 16104 18020 18021 16110 16112 18022 
2528 2562 2529 2231 18023 18024 17798 17788 18021 17793 
2231 2264 2561 2562 16104 18015 18019 18021 18020 18025 
2528 2562 2231 2561 18023 18021 17788 18017 18025 18019 
2529 2231 2562 2232 17793 18021 18024 17795 15885 18026 
2562 2231 2265 2232 18021 16110 18022 18026 15885 16111 
2232 2265 2563 2266 16111 18027 18028 16117 16119 18029 
2529 2563 2530 2232 18030 18031 17805 17795 18028 17800 
2232 2265 2562 2563 16111 18022 18026 18028 18027 18032 
2529 2563 2232 2562 18030 18028 17795 18024 18032 18026 
2530 2232 2563 2233 17800 18028 18031 17802 15892 18033 
2563 2232 2266 2233 18028 16117 18029 18033 15892 16118 
2233 2266 2564 2267 16118 18034 18035 16124 16126 18036 
2530 2564 2531 2233 18037 18038 17812 17802 18035 17807 
2233 2266 2563 2564 16118 18029 18033 18035 18034 18039 
2530 2564 2233 2563 18037 18035 17802 18031 18039 18033 
2531 2233 2564 2234 17807 18035 18038 17809 15899 18040 
2564 2233 2267 2234 18035 16124 18036 18040 15899 16125 
2234 2267 2565 2268 16125 18041 18042 16131 16133 18043 
2531 2565 2532 2234 18044 18045 17819 17809 18042 17814 
2234 2267 2564 2565 16125 18036 18040 18042 18041 18046 
2531 2565 2234 2564 18044 18042 17809 18038 18046 18040 
2532 2234 2565 2235 17814 18042 18045 17816 15906 18047 
2565 2234 2268 2235 18042 16131 18043 18047 15906 16132 
2235 2268 2566 2269 16132 18048 18049 16138 16140 18050 
2532 2566 2533 2235 18051 18052 17826 17816 18049 17821 
2235 2268 2565 2566 16132 18043 18047 18049 18048 18053 
2532 2566 2235 2565 18051 18049 17816 18045 18053 18047 
2533 2235 2566 2236 17821 18049 18052 17823 15913 18054 
2566 2235 2269 2236 18049 16138 18050 18054 15913 16139 
2236 2269 2567 2270 16139 18055 18056 16145 16147 18057 
2533 2567 2534 2236 18058 18059 17833 17823 18056 17828 
2236 2269 2566 2567 16139 18050 18054 18056 18055 18060 
2533 2567 2236 2566 18058 18056 17823 18052 18060 18054 
2534 2236 2567 2237 17828 18056 18059 17830 15920 18061 
2567 2236 2270 2237 18056 16145 18057 18061 15920 16146 
2237 2270 2568 2271 16146 18062 18063 16152 16154 18064 
2534 2568 2535 2237 18065 18066 17840 17830 18063 17835 
2237 2270 2567 2568 16146 18057 18061 18063 18062 18067 
2534 2568 2237 2567 18065 18063 17830 18059 18067 18061 
2535 2237 2568 2238 17835 18063 18066 17837 15927 18068 
2568 2237 2271 2238 18063 16152 18064 18068 15927 16153 
2238 2271 2569 2272 16153 18069 18070 16159 16161 18071 
2535 2569 2536 2238 18072 18073 17847 17837 18070 17842 
2238 2271 2568 2569 16153 18064 18068 18070 18069 18074 
2535 2569 2238 2568 18072 18070 17837 18066 18074 18068 
2536 2238 2569 2239 17842 18070 18073 17844 15934 18075 
2569 2238 2272 2239 18070 16159 18071 18075 15934 16160 
2239 2272 2570 2273 16160 18076 18077 16166 16168 18078 
2536 2570 2537 2239 18079 18080 17854 17844 18077 17849 
2239 2272 2569 2570 16160 18071 18075 18077 18076 18081 
2536 2570 2239 2569 18079 18077 17844 18073 18081 18075 
2537 2239 2570 2240 17849 18077 18080 17851 15941 18082 
2570 2239 2273 2240 18077 16166 18078 18082 15941 16167 
2240 2273 2571 2274 16167 18083 18084 16173 16175 18085 
2537 2571 2538 2240 18086 18087 17861 17851 18084 17856 
2240 2273 2570 2571 16167 18078 18082 18084 18083 18088 
2537 2571 2240 2570 18086 18084 17851 18080 18088 18082 
2538 2240 2571 2241 17856 18084 18087 17858 15948 18089 
2571 2240 2274 2241 18084 16173 18085 18089 15948 16174 
2241 2274 2572 2275 16174 18090 18091 16180 16182 18092 
2538 2572 2539 2241 18093 18094 17868 17858 18091 17863 
2241 2274 2571 2572 16174 18085 18089 18091 18090 18095 
2538 2572 2241 2571 18093 18091 17858 18087 18095 18089 
2539 2241 2572 2242 17863 18091 18094 17865 15955 18096 
2572 2241 2275 2242 18091 16180 18092 18096 15955 16181 
2242 2275 2573 2276 16181 18097 18098 16187 16189 18099 
2539 2573 2540 2242 18100 18101 17875 17865 18098 17870 
2242 2275 2572 2573 16181 18092 18096 18098 18097 18102 
2539 2573 2242 2572 18100 18098 17865 18094 18102 18096 
2540 2242 2573 2243 17870 18098 18101 17872 15962 18103 
2573 2242 2276 2243 18098 16187 18099 18103 15962 16188 
2244 2277 2575 2278 16199 18104 18105 16194 16198 18106 
2541 2575 2542 2244 18107 18108 17884 17882 18105 17877 
2244 2277 2574 2575 16199 18109 18110 18105 18104 18111 
2541 2575 2244 2574 18107 18105 17882 18112 18111 18110 
2542 2244 2575 2245 17877 18105 18108 17879 15971 18113 
2575 2244 2278 2245 18105 16194 18106 18113 15971 16195 
2245 2278 2576 2279 16195 18114 18115 16204 16206 18116 
2542 2576 2543 2245 18117 18118 17892 17879 18115 17887 
2245 2278 2575 2576 16195 18106 18113 18115 18114 18119 
2542 2576 2245 2575 18117 18115 17879 18108 18119 18113 
2543 2245 2576 2246 17887 18115 18118 17889 15979 18120 
2576 2245 2279 2246 18115 16204 18116 18120 15979 16205 
2246 2279 2577 2280 16205 18121 18122 16211 16213 18123 
2543 2577 2544 2246 18124 18125 17899 17889 18122 17894 
2246 2279 2576 2577 16205 18116 18120 18122 18121 18126 
2543 2577 2246 2576 18124 18122 17889 18118 18126 18120 
2544 2246 2577 2247 17894 18122 18125 17896 15986 18127 
2577 2246 2280 2247 18122 16211 18123 18127 15986 16212 
2247 2280 2578 2281 16212 18128 18129 16218 16220 18130 
2544 2578 2545 2247 18131 18132 17906 17896 18129 17901 
2247 2280 2577 2578 16212 18123 18127 18129 18128 18133 
2544 2578 2247 2577 18131 18129 17896 18125 18133 18127 
2545 2247 2578 2248 17901 18129 18132 17903 15993 18134 
2578 2247 2281 2248 18129 16218 18130 18134 15993 16219 
2248 2281 2579 2282 16219 18135 18136 16225 16227 18137 
2545 2579 2546 2248 18138 18139 17913 17903 18136 17908 
2248 2281 2578 2579 16219 18130 18134 18136 18135 18140 
2545 2579 2248 2578 18138 18136 17903 18132 18140 18134 
2546 2248 2579 2249 17908 18136 18139 17910 16000 18141 
2579 2248 2282 2249 18136 16225 18137 18141 16000 16226 
2249 2282 2580 2283 16226 18142 18143 16232 16234 18144 
2546 2580 2547 2249 18145 18146 17920 17910 18143 17915 
2249 2282 2579 2580 16226 18137 18141 18143 18142 18147 
2546 2580 2249 2579 18145 18143 17910 18139 18147 18141 
2547 2249 2580 2250 17915 18143 18146 17917 16007 18148 
2580 2249 2283 2250 18143 16232 18144 18148 16007 16233 
2250 2283 2581 2284 16233 18149 18150 16239 16241 18151 
2547 2581 2548 2250 18152 18153 17927 17917 18150 17922 
2250 2283 2580 2581 16233 18144 18148 18150 18149 18154 
2547 2581 2250 2580 18152 18150 17917 18146 18154 18148 
2548 2250 2581 2251 17922 18150 18153 17924 16014 18155 
2581 2250 2284 2251 18150 16239 18151 18155 16014 16240 
2251 2284 2582 2285 16240 18156 18157 16246 16248 18158 
2548 2582 2549 2251 18159 18160 17934 17924 18157 17929 
2251 2284 2581 2582 16240 18151 18155 18157 18156 18161 
2548 2582 2251 2581 18159 18157 17924 18153 18161 18155 
2549 2251 2582 2252 17929 18157 18160 17931 16021 18162 
2582 2251 2285 2252 18157 16246 18158 18162 16021 16247 
2252 2285 2583 2286 16247 18163 18164 16253 16255 18165 
2549 2583 2550 2252 18166 18167 17941 17931 18164 17936 
2252 2285 2582 2583 16247 18158 18162 18164 18163 18168 
2549 2583 2252 2582 18166 18164 17931 18160 18168 18162 
2550 2252 2583 2253 17936 18164 18167 17938 16028 18169 
2583 2252 2286 2253 18164 16253 18165 18169 16028 16254 
2253 2286 2584 2287 16254 18170 18171 16260 16262 18172 
2550 2584 2551 2253 18173 18174 17948 17938 18171 17943 
2253 2286 2583 2584 16254 18165 18169 18171 18170 18175 
2550 2584 2253 2583 18173 18171 17938 18167 18175 18169 
2551 2253 2584 2254 17943 18171 18174 17945 16035 18176 
2584 2253 2287 2254 18171 16260 18172 18176 16035 16261 
2254 2287 2585 2288 16261 18177 18178 16267 16269 18179 
2551 2585 2552 2254 18180 18181 17955 17945 18178 17950 
2254 2287 2584 2585 16261 18172 18176 18178 18177 18182 
2551 2585 2254 2584 18180 18178 17945 18174 18182 18176 
2552 2254 2585 2255 17950 18178 18181 17952 16042 18183 
2585 2254 2288 2255 18178 16267 18179 18183 16042 16268 
2255 2288 2586 2289 16268 18184 18185 16274 16276 18186 
2552 2586 2553 2255 18187 18188 17962 17952 18185 17957 
2255 2288 2585 2586 16268 18179 18183 18185 18184 18189 
2552 2586 2255 2585 18187 18185 17952 18181 18189 18183 
2553 2255 2586 2256 17957 18185 18188 17959 16049 18190 
2586 2255 2289 2256 18185 16274 18186 18190 16049 16275 
2256 2289 2587 2290 16275 18191 18192 16281 16283 18193 
2553 2587 2554 2256 18194 18195 17969 17959 18192 17964 
2256 2289 2586 2587 16275 18186 18190 18192 18191 18196 
2553 2587 2256 2586 18194 18192 17959 18188 18196 18190 
2554 2256 2587 2257 17964 18192 18195 17966 16056 18197 
2587 2256 2290 2257 18192 16281 18193 18197 16056 16282 
2257 2290 2588 2291 16282 18198 18199 16288 16290 18200 
2554 2588 2555 2257 18201 18202 17976 17966 18199 17971 
2257 2290 2587 2588 16282 18193 18197 18199 18198 18203 
2554 2588 2257 2587 18201 18199 17966 18195 18203 18197 
2555 2257 2588 2258 17971 18199 18202 17973 16063 18204 
2588 2257 2291 2258 18199 16288 18200 18204 16063 16289 
2258 2291 2589 2292 16289 18205 18206 16295 16297 18207 
2555 2589 2556 2258 18208 18209 17983 17973 18206 17978 
2258 2291 2588 2589 16289 18200 18204 18206 18205 18210 
2555 2589 2258 2588 18208 18206 17973 18202 18210 18204 
2556 2258 2589 2259 17978 18206 18209 17980 16070 18211 
2589 2258 2292 2259 18206 16295 18207 18211 16070 16296 
2259 2292 2590 2293 16296 18212 18213 16302 16304 18214 
2556 2590 2557 2259 18215 18216 17990 17980 18213 17985 
2259 2292 2589 2590 16296 18207 18211 18213 18212 18217 
2556 2590 2259 2589 18215 18213 17980 18209 18217 18211 
2557 2259 2590 2260 17985 18213 18216 17987 16077 18218 
2590 2259 2293 2260 18213 16302 18214 18218 16077 16303 
2260 2293 2591 2294 16303 18219 18220 16309 16311 18221 
2557 2591 2558 2260 18222 18223 17997 17987 18220 17992 
2260 2293 2590 2591 16303 18214 18218 18220 18219 18224 
2557 2591 2260 2590 18222 18220 17987 18216 18224 18218 
2558 2260 2591 2261 17992 18220 18223 17994 16084 18225 
2591 2260 2294 2261 18220 16309 18221 18225 16084 16310 
2261 2294 2592 2295 16310 18226 18227 16316 16318 18228 
2558 2592 2559 2261 18229 18230 18004 17994 18227 17999 
2261 2294 2591 2592 16310 18221 18225 18227 18226 18231 
2558 2592 2261 2591 18229 18227 17994 18223 18231 18225 
2559 2261 2592 2262 17999 18227 18230 18001 16091 18232 
2592 2261 2295 2262 18227 16316 18228 18232 16091 16317 
2262 2295 2593 2296 16317 18233 18234 16323 16325 18235 
2559 2593 2560 2262 18236 18237 18011 18001 18234 18006 
2262 2295 2592 2593 16317 18228 18232 18234 18233 18238 
2559 2593 2262 2592 18236 18234 18001 18230 18238 18232 
2560 2262 2593 2263 18006 18234 18237 18008 16098 18239 
2593 2262 2296 2263 18234 16323 18235 18239 16098 16324 
2263 2296 2594 2297 16324 18240 18241 16330 16332 18242 
2560 2594 2561 2263 18243 18244 18018 18008 18241 18013 
2263 2296 2593 2594 16324 18235 18239 18241 18240 18245 
2560 2594 2263 2593 18243 18241 18008 18237 18245 18239 
2561 2263 2594 2264 18013 18241 18244 18015 16105 18246 
2594 2263 2297 2264 18241 16330 18242 18246 16105 16331 
2264 2297 2595 2298 16331 18247 18248 16337 16339 18249 
2561 2595 2562 2264 18250 18251 18025 18015 18248 18020 
2264 2297 2594 2595 16331 18242 18246 18248 18247 18252 
2561 2595 2264 2594 18250 18248 18015 18244 18252 18246 
2562 2264 2595 2265 18020 18248 18251 18022 16112 18253 
2595 2264 2298 2265 18248 16337 18249 18253 16112 16338 
2265 2298 2596 2299 16338 18254 18255 16344 16346 18256 
2562 2596 2563 2265 18257 18258 18032 18022 18255 18027 
2265 2298 2595 2596 16338 18249 18253 18255 18254 18259 
2562 2596 2265 2595 18257 18255 18022 18251 18259 18253 
2563 2265 2596 2266 18027 18255 18258 18029 16119 18260 
2596 2265 2299 2266 18255 16344 18256 18260 16119 16345 
2266 2299 2597 2300 16345 18261 18262 16351 16353 18263 
2563 2597 2564 2266 18264 18265 18039 18029 18262 18034 
2266 2299 2596 2597 16345 18256 18260 18262 18261 18266 
2563 2597 2266 2596 18264 18262 18029 18258 18266 18260 
2564 2266 2597 2267 18034 18262 18265 18036 16126 18267 
2597 2266 2300 2267 18262 16351 18263 18267 16126 16352 
2267 2300 2598 2301 16352 18268 18269 16358 16360 18270 
2564 2598 2565 2267 18271 18272 18046 18036 18269 18041 
2267 2300 2597 2598 16352 18263 18267 18269 18268 18273 
2564 2598 2267 2597 18271 18269 18036 18265 18273 18267 
2565 2267 2598 2268 18041 18269 18272 18043 16133 18274 
2598 2267 2301 2268 18269 16358 18270 18274 16133 16359 
2268 2301 2599 2302 16359 18275 18276 16365 16367 18277 
2565 2599 2566 2268 18278 18279 18053 18043 18276 18048 
2268 2301 2598 2599 16359 18270 18274 18276 18275 18280 
2565 2599 2268 2598 18278 18276 18043 18272 18280 18274 
2566 2268 2599 2269 18048 18276 18279 18050 16140 18281 
2599 2268 2302 2269 18276 16365 18277 18281 16140 16366 
2269 2302 2600 2303 16366 18282 18283 16372 16374 18284 
2566 2600 2567 2269 18285 18286 18060 18050 18283 18055 
2269 2302 2599 2600 16366 18277 18281 18283 18282 18287 
2566 2600 2269 2599 18285 18283 18050 18279 18287 18281 
2567 2269 2600 2270 18055 18283 18286 18057 16147 18288 
2600 2269 2303 2270 18283 16372 18284 18288 16147 16373 
2270 2303 2601 2304 16373 18289 18290 16379 16381 18291 
2567 2601 2568 2270 18292 18293 18067 18057 18290 18062 
2270 2303 2600 2601 16373 18284 18288 18290 18289 18294 
2567 2601 2270 2600 18292 18290 18057 18286 18294 18288 
2568 2270 2601 2271 18062 18290 18293 18064 16154 18295 
2601 2270 2304 2271 18290 16379 18291 18295 16154 16380 
2271 2304 2602 2305 16380 18296 18297 16386 16388 18298 
2568 2602 2569 2271 18299 18300 18074 18064 18297 18069 
2271 2304 2601 2602 16380 18291 18295 18297 18296 18301 
2568 2602 2271 2601 18299 18297 18064 18293 18301 18295 
2569 2271 2602 2272 18069 18297 18300 18071 16161 18302 
2602 2271 2305 2272 18297 16386 18298 18302 16161 16387 
2272 2305 2603 2306 16387 18303 18304 16393 16395 18305 
2569 2603 2570 2272 18306 18307 18081 18071 18304 18076 
2272 2305 2602 2603 16387 18298 18302 18304 18303 18308 
2569 2603 2272 2602 18306 18304 18071 18300 18308 18302 
2570 2272 2603 2273 18076 18304 18307 18078 16168 18309 
2603 2272 2306 2273 18304 16393 18305 18309 16168 16394 
2273 2306 2604 2307 16394 18310 18311 16400 16402 18312 
2570 2604 2571 2273 18313 18314 18088 18078 18311 18083 
2273 2306 2603 2604 16394 18305 18309 18311 18310 18315 
2570 2604 2273 2603 18313 18311 18078 18307 18315 18309 
2571 2273 2604 2274 18083 18311 18314 18085 16175 18316 
2604 2273 2307 2274 18311 16400 18312 18316 16175 16401 
2274 2307 2605 2308 16401 18317 18318 16407 16409 18319 
2571 2605 2572 2274 18320 18321 18095 18085 18318 18090 
2274 2307 2604 2605 16401 18312 18316 18318 18317 18322 
2571 2605 2274 2604 18320 18318 18085 18314 18322 18316 
2572 2274 2605 2275 18090 18318 18321 18092 16182 18323 
2605 2274 2308 2275 18318 16407 18319 18323 16182 16408 
2275 2308 2606 2309 16408 18324 18325 16414 16416 18326 
2572 2606 2573 2275 18327 18328 18102 18092 18325 18097 
2275 2308 2605 2606 16408 18319 18323 18325 18324 18329 
2572 2606 2275 2605 18327 18325 18092 18321 18329 18323 
2573 2275 2606 2276 18097 18325 18328 18099 16189 18330 
2606 2275 2309 2276 18325 16414 18326 18330 16189 16415 
2277 2310 2608 2311 16426 18331 18332 16421 16425 18333 
2574 2608 2575 2277 18334 18335 18111 18109 18332 18104 
2277 2310 2607 2608 16426 18336 18337 18332 18331 18338 
2574 2608 2277 2607 18334 18332 18109 18339 18338 18337 
2575 2277 2608 2278 18104 18332 18335 18106 16198 18340 
2608 2277 2311 2278 18332 16421 18333 18340 16198 16422 
2278 2311 2609 2312 16422 18341 18342 16431 16433 18343 
2575 2609 2576 2278 18344 18345 18119 18106 18342 18114 
2278 2311 2608 2609 16422 18333 18340 18342 18341 18346 
2575 2609 2278 2608 18344 18342 18106 18335 18346 18340 
2576 2278 2609 2279 18114 18342 18345 18116 16206 18347 
2609 2278 2312 2279 18342 16431 18343 18347 16206 16432 
2279 2312 2610 2313 16432 18348 18349 16438 16440 18350 
2576 2610 2577 2279 18351 18352 18126 18116 18349 18121 
2279 2312 2609 2610 16432 18343 18347 18349 18348 18353 
2576 2610 2279 2609 18351 18349 18116 18345 18353 18347 
2577 2279 2610 2280 18121 18349 18352 18123 16213 18354 
2610 2279 2313 2280 18349 16438 18350 18354 16213 16439 
2280 2313 2611 2314 16439 18355 18356 16445 16447 18357 
2577 2611 2578 2280 18358 18359 18133 18123 18356 18128 
2280 2313 2610 2611 16439 18350 18354 18356 18355 18360 
2577 2611 2280 2610 18358 18356 18123 18352 18360 18354 
2578 2280 2611 2281 18128 18356 18359 18130 16220 18361 
2611 2280 2314 2281 18356 16445 18357 18361 16220 16446 
2281 2314 2612 2315 16446 18362 18363 16452 16454 18364 
2578 2612 2579 2281 18365 18366 18140 18130 18363 18135 
2281 2314 2611 2612 16446 18357 18361 18363 18362 18367 
2578 2612 2281 2611 18365 18363 18130 18359 18367 18361 
2579 2281 2612 2282 18135 18363 18366 18137 16227 18368 
2612 2281 2315 2282 18363 16452 18364 18368 16227 16453 
2282 2315 2613 2316 16453 18369 18370 16459 16461 18371 
2579 2613 2580 2282 18372 18373 18147 18137 18370 18142 
2282 2315 2612 2613 16453 18364 18368 18370 18369 18374 
2579 2613 2282 2612 18372 18370 18137 18366 18374 18368 
2580 2282 2613 2283 18142 18370 18373 18144 16234 18375 
2613 2282 2316 2283 18370 16459 18371 18375 16234 16460 
2283 2316 2614 2317 16460 18376 18377 16466 16468 18378 
2580 2614 2581 2283 18379 18380 18154 18144 18377 18149 
2283 2316 2613 2614 16460 18371 18375 18377 18376 18381 
2580 2614 2283 2613 18379 18377 18144 18373 18381 18375 
2581 2283 2614 2284 18149 18377 18380 18151 16241 18382 
2614 2283 2317 2284 18377 16466 18378 18382 16241 16467 
2284 2317 2615 2318 16467 18383 18384 16473 16475 18385 
2581 2615 2582 2284 18386 18387 18161 18151 18384 18156 
2284 2317 2614 2615 16467 18378 18382 18384 18383 18388 
2581 2615 2284 2614 18386 18384 18151 18380 18388 18382 
2582 2284 2615 2285 18156 18384 18387 18158 16248 18389 
2615 2284 2318 2285 18384 16473 18385 18389 16248 16474 
2285 2318 2616 2319 16474 18390 18391 16480 16482 18392 
2582 2616 2583 2285 18393 18394 18168 18158 18391 18163 
2285 2318 2615 2616 16474 18385 18389 18391 18390 18395 
2582 2616 2285 2615 18393 18391 18158 18387 18395 18389 
2583 2285 2616 2286 18163 18391 18394 18165 16255 18396 
2616 2285 2319 2286 18391 16480 18392 18396 16255 16481 
2286 2319 2617 2320 16481 18397 18398 16487 16489 18399 
2583 2617 2584 2286 18400 18401 18175 18165 18398 18170 
2286 2319 2616 2617 16481 18392 18396 18398 18397 18402 
2583 2617 2286 2616 18400 18398 18165 18394 18402 18396 
2584 2286 2617 2287 18170 18398 18401 18172 16262 18403 
2617 2286 2320 2287 18398 16487 18399 18403 16262 16488 
2287 2320 2618 2321 16488 18404 18405 16494 16496 18406 
2584 2618 2585 2287 18407 18408 18182 18172 18405 18177 
2287 2320 2617 2618 16488 18399 18403 18405 18404 18409 
2584 2618 2287 2617 18407 18405 18172 18401 18409 18403 
2585 2287 2618 2288 18177 18405 18408 18179 16269 18410 
2618 2287 2321 2288 18405 16494 18406 18410 16269 16495 
2288 2321 2619 2322 16495 18411 18412 16501 16503 18413 
2585 2619 2586 2288 18414 18415 18189 18179 18412 18184 
2288 2321 2618 2619 16495 18406 18410 18412 18411 18416 
2585 2619 2288 2618 18414 18412 18179 18408 18416 18410 
2586 2288 2619 2289 18184 18412 18415 18186 16276 18417 
2619 2288 2322 2289 18412 16501 18413 18417 16276 16502 
2289 2322 2620 2323 16502 18418 18419 16508 16510 18420 
2586 2620 2587 2289 18421 18422 18196 18186 18419 18191 
2289 2322 2619 2620 16502 18413 18417 18419 18418 18423 
2586 2620 2289 2619 18421 18419 18186 18415 18423 18417 
2587 2289 2620 2290 18191 18419 18422 18193 16283 18424 
2620 2289 2323 2290 18419 16508 18420 18424 16283 16509 
2290 2323 2621 2324 16509 18425 18426 16515 16517 18427 
2587 2621 2588 2290 18428 18429 18203 18193 18426 18198 
2290 2323 2620 2621 16509 18420 18424 18426 18425 18430 
2587 2621 2290 2620 18428 18426 18193 18422 18430 18424 
2588 2290 2621 2291 18198 18426 18429 18200 16290 18431 
2621 2290 2324 2291 18426 16515 18427 18431 16290 16516 
2291 2324 2622 2325 16516 18432 18433 16522 16524 18434 
2588 2622 2589 2291 18435 18436 18210 18200 18433 18205 
2291 2324 2621 2622 16516 18427 18431 18433 18432 18437 
2588 2622 2291 2621 18435 18433 18200 18429 18437 18431 
2589 2291 2622 2292 18205 18433 18436 18207 16297 18438 
2622 2291 2325 2292 18433 16522 18434 18438 16297 16523 
2292 2325 2623 2326 16523 18439 18440 16529 16531 18441 
2589 2623 2590 2292 18442 18443 18217 18207 18440 18212 
2292 2325 2622 2623 16523 18434 18438 18440 18439 18444 
2589 2623 2292 2622 18442 18440 18207 18436 18444 18438 
2590 2292 2623 2293 18212 18440 18443 18214 16304 18445 
2623 2292 2326 2293 18440 16529 18441 18445 16304 16530 
2293 2326 2624 2327 16530 18446 18447 16536 16538 18448 
2590 2624 2591 2293 18449 18450 18224 18214 18447 18219 
2293 2326 2623 2624 16530 18441 18445 18447 18446 18451 
2590 2624 2293 2623 18449 18447 18214 18443 18451 18445 
2591 2293 2624 2294 18219 18447 18450 18221 16311 18452 
2624 2293 2327 2294 18447 16536 18448 18452 16311 16537 
2294 2327 2625 2328 16537 18453 18454 16543 16545 18455 
2591 2625 2592 2294 18456 18457 18231 18221 18454 18226 
2294 2327 2624 2625 16537 18448 18452 18454 18453 18458 
2591 2625 2294 2624 18456 18454 18221 18450 18458 18452 
2592 2294 2625 2295 18226 18454 18457 18228 16318 18459 
2625 2294 2328 2295 18454 16543 18455 18459 16318 16544 
2295 2328 2626 2329 16544 18460 18461 16550 16552 18462 
2592 2626 2593 2295 18463 18464 18238 18228 18461 18233 
2295 2328 2625 2626 16544 18455 18459 18461 18460 18465 
2592 2626 2295 2625 18463 18461 18228 18457 18465 18459 
2593 2295 2626 2296 18233 18461 18464 18235 16325 18466 
2626 2295 2329 2296 18461 16550 18462 18466 16325 16551 
2296 2329 2627 2330 16551 18467 18468 16557 16559 18469 
2593 2627 2594 2296 18470 18471 18245 18235 18468 18240 
2296 2329 2626 2627 16551 18462 18466 18468 18467 18472 
2593 2627 2296 2626 18470 18468 18235 18464 18472 18466 
2594 2296 2627 2297 18240 18468 18471 18242 16332 18473 
2627 2296 2330 2297 18468 16557 18469 18473 16332 16558 
2297 2330 2628 2331 16558 18474 18475 16564 16566 18476 
2594 2628 2595 2297 18477 18478 18252 18242 18475 18247 
2297 2330 2627 2628 16558 18469 18473 18475 18474 18479 
2594 2628 2297 2627 18477 18475 18242 18471 18479 18473 
2595 2297 2628 2298 18247 18475 18478 18249 16339 18480 
2628 2297 2331 2298 18475 16564 18476 18480 16339 16565 
2298 2331 2629 2332 16565 18481 18482 16571 16573 18483 
2595 2629 2596 2298 18484 18485 18259 18249 18482 18254 
2298 2331 2628 2629 16565 18476 18480 18482 18481 18486 
2595 2629 2298 2628 18484 18482 18249 18478 18486 18480 
2596 2298 2629 2299 18254 18482 18485 18256 16346 18487 
2629 2298 2332 2299 18482 16571 18483 18487 16346 16572 
2299 2332 2630 2333 16572 18488 18489 16578 16580 18490 
2596 2630 2597 2299 18491 18492 18266 18256 18489 18261 
2299 2332 2629 2630 16572 18483 18487 18489 18488 18493 
2596 2630 2299 2629 18491 18489 18256 18485 18493 18487 
2597 2299 2630 2300 18261 18489 18492 18263 16353 18494 
2630 2299 2333 2300 18489 16578 18490 18494 16353 16579 
2300 2333 2631 2334 16579 18495 18496 16585 16587 18497 
2597 2631 2598 2300 18498 18499 18273 18263 18496 18268 
2300 2333 2630 2631 16579 18490 18494 18496 18495 18500 
2597 2631 2300 2630 18498 18496 18263 18492 18500 18494 
2598 2300 2631 2301 18268 18496 18499 18270 16360 18501 
2631 2300 2334 2301 18496 16585 18497 18501 16360 16586 
2301 2334 2632 2335 16586 18502 18503 16592 16594 18504 
2598 2632 2599 2301 18505 18506 18280 18270 18503 18275 
2301 2334 2631 2632 16586 18497 18501 18503 18502 18507 
2598 2632 2301 2631 18505 18503 18270 18499 18507 18501 
2599 2301 2632 2302 18275 18503 18506 18277 16367 18508 
2632 2301 2335 2302 18503 16592 18504 18508 16367 16593 
2302 2335 2633 2336 16593 18509 18510 16599 16601 18511 
2599 2633 2600 2302 18512 18513 18287 18277 18510 18282 
2302 2335 2632 2633 16593 18504 18508 18510 18509 18514 
2599 2633 2302 2632 18512 18510 18277 18506 18514 18508 
2600 2302 2633 2303 18282 18510 18513 18284 16374 18515 
2633 2302 2336 2303 18510 16599 18511 18515 16374 16600 
2303 2336 2634 2337 16600 18516 18517 16606 16608 18518 
2600 2634 2601 2303 18519 18520 18294 18284 18517 18289 
2303 2336 2633 2634 16600 18511 18515 18517 18516 18521 
2600 2634 2303 2633 18519 18517 18284 18513 18521 18515 
2601 2303 2634 2304 18289 18517 18520 18291 16381 18522 
2634 2303 2337 2304 18517 16606 18518 18522 16381 16607 
2304 2337 2635 2338 16607 18523 18524 16613 16615 18525 
2601 2635 2602 2304 18526 18527 18301 18291 18524 18296 
2304 2337 2634 2635 16607 18518 18522 18524 18523 18528 
2601 2635 2304 2634 18526 18524 18291 18520 18528 18522 
2602 2304 2635 2305 18296 18524 18527 18298 16388 18529 
2635 2304 2338 2305 18524 16613 18525 18529 16388 16614 
2305 2338 2636 2339 16614 18530 18531 16620 16622 18532 
2602 2636 2603 2305 18533 18534 18308 18298 18531 18303 
2305 2338 2635 2636 16614 18525 18529 18531 18530 18535 
2602 2636 2305 2635 18533 18531 18298 18527 18535 18529 
2603 2305 2636 2306 18303 18531 18534 18305 16395 18536 
2636 2305 2339 2306 18531 16620 18532 18536 16395 16621 
2306 2339 2637 2340 16621 18537 18538 16627 16629 18539 
2603 2637 2604 2306 18540 18541 18315 18305 18538 18310 
2306 2339 2636 2637 16621 18532 18536 18538 18537 18542 
2603 2637 2306 2636 18540 18538 18305 18534 18542 18536 
2604 2306 2637 2307 18310 18538 18541 18312 16402 18543 
2637 2306 2340 2307 18538 16627 18539 18543 16402 16628 
2307 2340 2638 2341 16628 18544 18545 16634 16636 18546 
2604 2638 2605 2307 18547 18548 18322 18312 18545 18317 
2307 2340 2637 2638 16628 18539 18543 18545 18544 18549 
2604 2638 2307 2637 18547 18545 18312 18541 18549 18543 
2605 2307 2638 2308 18317 18545 18548 18319 16409 18550 
2638 2307 2341 2308 18545 16634 18546 18550 16409 16635 
2308 2341 2639 2342 16635 18551 18552 16641 16643 18553 
2605 2639 2606 2308 18554 18555 18329 18319 18552 18324 
2308 2341 2638 2639 16635 18546 18550 18552 18551 18556 
2605 2639 2308 2638 18554 18552 18319 18548 18556 18550 
2606 2308 2639 2309 18324 18552 18555 18326 16416 18557 
2639 2308 2342 2309 18552 16641 18553 18557 16416 16642 
2310 2343 2641 2344 16653 18558 18559 16648 16652 18560 
2607 2641 2608 2310 18561 18562 18338 18336 18559 18331 
2310 2343 2640 2641 16653 18563 18564 18559 18558 18565 
2607 2641 2310 2640 18561 18559 18336 18566 18565 18564 
2608 2310 2641 2311 18331 18559 18562 18333 16425 18567 
2641 2310 2344 2311 18559 16648 18560 18567 16425 16649 
2311 2344 2642 2345 16649 18568 18569 16658 16660 18570 
2608 2642 2609 2311 18571 18572 18346 18333 18569 18341 
2311 2344 2641 2642 16649 18560 18567 18569 18568 18573 
2608 2642 2311 2641 18571 18569 18333 18562 18573 18567 
2609 2311 2642 2312 18341 18569 18572 18343 16433 18574 
2642 2311 2345 2312 18569 16658 18570 18574 16433 16659 
2312 2345 2643 2346 16659 18575 18576 16665 16667 18577 
2609 2643 2610 2312 18578 18579 18353 18343 18576 18348 
2312 2345 2642 2643 16659 18570 18574 18576 18575 18580 
2609 2643 2312 2642 18578 18576 18343 18572 18580 18574 
2610 2312 2643 2313 18348 18576 18579 18350 16440 18581 
2643 2312 2346 2313 18576 16665 18577 18581 16440 16666 
2313 2346 2644 2347 16666 18582 18583 16672 16674 18584 
2610 2644 2611 2313 18585 18586 18360 18350 18583 18355 
2313 2346 2643 2644 16666 18577 18581 18583 18582 18587 
2610 2644 2313 2643 18585 18583 18350 18579 18587 18581 
2611 2313 2644 2314 18355 18583 18586 18357 16447 18588 
2644 2313 2347 2314 18583 16672 18584 18588 16447 16673 
2314 2347 2645 2348 16673 18589 18590 16679 16681 18591 
2611 2645 2612 2314 18592 18593 18367 18357 18590 18362 
2314 2347 2644 2645 16673 18584 18588 18590 18589 18594 
2611 2645 2314 2644 18592 18590 18357 18586 18594 18588 
2612 2314 2645 2315 18362 18590 18593 18364 16454 18595 
2645 2314 2348 2315 18590 16679 18591 18595 16454 16680 
2315 2348 2646 2349 16680 18596 18597 16686 16688 18598 
2612 2646 2613 2315 18599 18600 18374 18364 18597 18369 
2315 2348 2645 2646 16680 18591 18595 18597 18596 18601 
2612 2646 2315 2645 18599 18597 18364 18593 18601 18595 
2613 2315 2646 2316 18369 18597 18600 18371 16461 18602 
2646 2315 2349 2316 18597 16686 18598 18602 16461 16687 
2316 2349 2647 2350 16687 18603 18604 16693 16695 18605 
2613 2647 2614 2316 18606 18607 18381 18371 18604 18376 
2316 2349 2646 2647 16687 18598 18602 18604 18603 18608 
2613 2647 2316 2646 18606 18604 18371 18600 18608 18602 
2614 2316 2647 2317 18376 18604 18607 18378 16468 18609 
2647 2316 2350 2317 18604 16693 18605 18609 16468 16694 
2317 2350 2648 2351 16694 18610 18611 16700 16702 18612 
2614 2648 2615 2317 18613 18614 18388 18378 18611 18383 
2317 2350 2647 2648 16694 18605 18609 18611 18610 18615 
2614 2648 2317 2647 18613 18611 18378 18607 18615 18609 
2615 2317 2648 2318 18383 18611 18614 18385 16475 18616 
2648 2317 2351 2318 18611 16700 18612 18616 16475 16701 
2318 2351 2649 2352 16701 18617 18618 16707 16709 18619 
2615 2649 2616 2318 18620 18621 18395 18385 18618 18390 
2318 2351 2648 2649 16701 18612 18616 18618 18617 18622 
2615 2649 2318 2648 18620 18618 18385 18614 18622 18616 
2616 2318 2649 2319 18390 18618 18621 18392 16482 18623 
2649 2318 2352 2319 18618 16707 18619 18623 16482 16708 
2319 2352 2650 2353 16708 18624 18625 16714 16716 18626 
2616 2650 2617 2319 18627 18628 18402 18392 18625 18397 
2319 2352 2649 2650 16708 18619 18623 18625 18624 18629 
2616 2650 2319 2649 18627 18625 18392 18621 18629 18623 
2617 2319 2650 2320 18397 18625 18628 18399 16489 18630 
2650 2319 2353 2320 18625 16714 18626 18630 16489 16715 
2320 2353 2651 2354 16715 18631 18632 16721 16723 18633 
2617 2651 2618 2320 18634 18635 18409 18399 18632 18404 
2320 2353 2650 2651 16715 18626 18630 18632 18631 18636 
2617 2651 2320 2650 18634 18632 18399 18628 18636 18630 
2618 2320 2651 2321 18404 18632 18635 18406 16496 18637 
2651 2320 2354 2321 18632 16721 18633 18637 16496 16722 
2321 2354 2652 2355 16722 18638 18639 16728 16730 18640 
2618 2652 2619 2321 18641 18642 18416 18406 18639 18411 
2321 2354 2651 2652 16722 18633 18637 18639 18638 18643 
2618 2652 2321 2651 18641 18639 18406 18635 18643 18637 
2619 2321 2652 2322 18411 18639 18642 18413 16503 18644 
2652 2321 2355 2322 18639 16728 18640 18644 16503 16729 
2322 2355 2653 2356 16729 18645 18646 16735 16737 18647 
2619 2653 2620 2322 18648 18649 18423 18413 18646 18418 
2322 2355 2652 2653 16729 18640 18644 18646 18645 18650 
2619 2653 2322 2652 18648 18646 18413 18642 18650 18644 
2620 2322 2653 2323 18418 18646 18649 18420 16510 18651 
2653 2322 2356 2323 18646 16735 18647 18651 16510 16736 
2323 2356 2654 2357 16736 18652 18653 16742 16744 18654 
2620 2654 2621 2323 18655 18656 18430 18420 18653 18425 
2323 2356 2653 2654 16736 18647 18651 18653 18652 18657 
2620 2654 2323 2653 18655 18653 18420 18649 18657 18651 
2621 2323 2654 2324 18425 18653 18656 18427 16517 18658 
2654 2323 2357 2324 18653 16742 18654 18658 16517 16743 
2324 2357 2655 2358 16743 18659 18660 16749 16751 18661 
2621 2655 2622 2324 18662 18663 18437 18427 18660 18432 
2324 2357 2654 2655 16743 18654 18658 18660 18659 18664 
2621 2655 2324 2654 18662 18660 18427 18656 18664 18658 
2622 2324 2655 2325 18432 18660 18663 18434 16524 18665 
2655 2324 2358 2325 18660 16749 18661 18665 16524 16750 
2325 2358 2656 2359 16750 18666 18667 16756 16758 18668 
2622 2656 2623 2325 18669 18670 18444 18434 18667 18439 
2325 2358 2655 2656 16750 18661 18665 18667 18666 18671 
2622 2656 2325 2655 18669 18667 18434 18663 18671 18665 
2623 2325 2656 2326 18439 18667 18670 18441 16531 18672 
2656 2325 2359 2326 18667 16756 18668 18672 16531 16757 
2326 2359 2657 2360 16757 18673 18674 16763 16765 18675 
2623 2657 2624 2326 18676 18677 18451 18441 18674 18446 
2326 2359 2656 2657 16757 18668 18672 18674 18673 18678 
2623 2657 2326 2656 18676 18674 18441 18670 18678 18672 
2624 2326 2657 2327 18446 18674 18677 18448 16538 18679 
2657 2326 2360 2327 18674 16763 18675 18679 16538 16764 
2327 2360 2658 2361 16764 18680 18681 16770 16772 18682 
2624 2658 2625 2327 18683 18684 18458 18448 18681 18453 
2327 2360 2657 2658 16764 18675 18679 18681 18680 18685 
2624 2658 2327 2657 18683 18681 18448 18677 18685 18679 
2625 2327 2658 2328 18453 18681 18684 18455 16545 18686 
2658 2327 2361 2328 18681 16770 18682 18686 16545 16771 
2328 2361 2659 2362 16771 18687 18688 16777 16779 18689 
2625 2659 2626 2328 18690 18691 18465 18455 18688 18460 
2328 2361 2658 2659 16771 18682 18686 18688 18687 18692 
2625 2659 2328 2658 18690 18688 18455 18684 18692 18686 
2626 2328 2659 2329 18460 18688 18691 18462 16552 18693 
2659 2328 2362 2329 18688 16777 18689 18693 16552 16778 
2329 2362 2660 2363 16778 18694 18695 16784 16786 18696 
2626 2660 2627 2329 18697 18698 18472 18462 18695 18467 
2329 2362 2659 2660 16778 18689 18693 18695 18694 18699 
2626 2660 2329 2659 18697 18695 18462 18691 18699 18693 
2627 2329 2660 2330 18467 18695 18698 18469 16559 18700 
2660 2329 2363 2330 18695 16784 18696 18700 16559 16785 
2330 2363 2661 2364 16785 18701 18702 16791 16793 18703 
2627 2661 2628 2330 18704 18705 18479 18469 18702 18474 
2330 2363 2660 2661 16785 18696 18700 18702 18701 18706 
2627 2661 2330 2660 18704 18702 18469 18698 18706 18700 
2628 2330 2661 2331 18474 18702 18705 18476 16566 18707 
2661 2330 2364 2331 18702 16791 18703 18707 16566 16792 
2331 2364 2662 2365 16792 18708 18709 16798 16800 18710 
2628 2662 2629 2331 18711 18712 18486 18476 18709 18481 
2331 2364 2661 2662 16792 18703 18707 18709 18708 18713 
2628 2662 2331 2661 18711 18709 18476 18705 18713 18707 
2629 2331 2662 2332 18481 18709 18712 18483 16573 18714 
2662 2331 2365 2332 18709 16798 18710 18714 16573 16799 
2332 2365 2663 2366 16799 18715 18716 16805 16807 18717 
2629 2663 2630 2332 18718 18719 18493 18483 18716 18488 
2332 2365 2662 2663 16799 18710 18714 18716 18715 18720 
2629 2663 2332 2662 18718 18716 18483 18712 18720 18714 
2630 2332 2663 2333 18488 18716 18719 18490 16580 18721 
2663 2332 2366 2333 18716 16805 18717 18721 16580 16806 
2333 2366 2664 2367 16806 18722 18723 16812 16814 18724 
2630 2664 2631 2333 18725 18726 18500 18490 18723 18495 
2333 2366 2663 2664 16806 18717 18721 18723 18722 18727 
2630 2664 2333 2663 18725 18723 18490 18719 18727 18721 
2631 2333 2664 2334 18495 18723 18726 18497 16587 18728 
2664 2333 2367 2334 18723 16812 18724 18728 16587 16813 
2334 2367 2665 2368 16813 18729 18730 16819 16821 18731 
2631 2665 2632 2334 18732 18733 18507 18497 18730 18502 
2334 2367 2664 2665 16813 18724 18728 18730 18729 18734 
2631 2665 2334 2664 18732 18730 18497 18726 18734 18728 
2632 2334 2665 2335 18502 18730 18733 18504 16594 18735 
2665 2334 2368 2335 18730 16819 18731 18735 16594 16820 
2335 2368 2666 2369 16820 18736 18737 16826 16828 18738 
2632 2666 2633 2335 18739 18740 18514 18504 18737 18509 
2335 2368 2665 2666 16820 18731 18735 18737 18736 18741 
2632 2666 2335 2665 18739 18737 18504 18733 18741 18735 
2633 2335 2666 2336 18509 18737 18740 18511 16601 18742 
2666 2335 2369 2336 18737 16826 18738 18742 16601 16827 
2336 2369 2667 2370 16827 18743 18744 16833 16835 18745 
2633 2667 2634 2336 18746 18747 18521 18511 18744 18516 
2336 2369 2666 2667 16827 18738 18742 18744 18743 18748 
2633 2667 2336 2666 18746 18744 18511 18740 18748 18742 
2634 2336 2667 2337 18516 18744 18747 18518 16608 18749 
2667 2336 2370 2337 18744 16833 18745 18749 16608 16834 
2337 2370 2668 2371 16834 18750 18751 16840 16842 18752 
2634 2668 2635 2337 18753 18754 18528 18518 18751 18523 
2337 2370 2667 2668 16834 18745 18749 18751 18750 18755 
2634 2668 2337 2667 18753 18751 18518 18747 18755 18749 
2635 2337 2668 2338 18523 18751 18754 18525 16615 18756 
2668 2337 2371 2338 18751 16840 18752 18756 16615 16841 
2338 2371 2669 2372 16841 18757 18758 16847 16849 18759 
2635 2669 2636 2338 18760 18761 18535 18525 18758 18530 
2338 2371 2668 2669 16841 18752 18756 18758 18757 18762 
2635 2669 2338 2668 18760 18758 18525 18754 18762 18756 
2636 2338 2669 2339 18530 18758 18761 18532 16622 18763 
2669 2338 2372 2339 18758 16847 18759 18763 16622 16848 
2339 2372 2670 2373 16848 18764 18765 16854 16856 18766 
2636 2670 2637 2339 18767 18768 18542 18532 18765 18537 
2339 2372 2669 2670 16848 18759 18763 18765 18764 18769 
2636 2670 2339 2669 18767 18765 18532 18761 18769 18763 
2637 2339 2670 2340 18537 18765 18768 18539 16629 18770 
2670 2339 2373 2340 18765 16854 18766 18770 16629 16855 
2340 2373 2671 2374 16855 18771 18772 16861 16863 18773 
2637 2671 2638 2340 18774 18775 18549 18539 18772 18544 
2340 2373 2670 2671 16855 18766 18770 18772 18771 18776 
2637 2671 2340 2670 18774 18772 18539 18768 18776 18770 
2638 2340 2671 2341 18544 18772 18775 18546 16636 18777 
2671 2340 2374 2341 18772 16861 18773 18777 16636 16862 
2341 2374 2672 2375 16862 18778 18779 16868 16870 18780 
2638 2672 2639 2341 18781 18782 18556 18546 18779 18551 
2341 2374 2671 2672 16862 18773 18777 18779 18778 18783 
2638 2672 2341 2671 18781 18779 18546 18775 18783 18777 
2639 2341 2672 2342 18551 18779 18782 18553 16643 18784 
2672 2341 2375 2342 18779 16868 18780 18784 16643 16869 
CELL_TYPES 12288
24 24 24 24 24 24 24 24 24 24 24 24 24 24 24 24 24 24 24 24 24 24 24 24 24 24 24 24 24 24 24 24 24 24 24 24 24 24 24 24 24 24 24 24 24 24 24 24 24 24 24 24 24 24 24 24 24 24 24 24 24 24 24 24 24 24 24 24 24 24 24 24 24 24 24 24 24 24 24 24 24 24 24 24 24 24 24 24 24 24 24 24 24 24 24 24 24 24 24 24 24 24 24 24 24 24 24 24 24 24 24 24 24 24 24 24 24 24 24 24 24 24 24 24 24 24 24 24 24 24 24 24 24 24 24 24 24 24 24 24 24 24 24 24 24 24 24 24 24 24 24 24 24 24 24 24 24 24 24 24 24 24 24 24 24 24 24 24 24 24 24 24 24 24 24 24 24 24 24 24 24 24 24 24 24 24 24 24 24 24 24 24 24 24 24 24 24 24 24 24 24 24 24 24 24 24 24 24 24 24 24 24 24 24 24 24 24 24 24 24 24 24 24 24 24 24 24 24 24 24 24 24 24 24 24 24 24 24 24 24 24 24 24 24 24 24 24 24 24 24 24 24 24 24 24 24 24 24 24 24 24 24 24 24 24 24 24 24 24 24 24 24 24 24 24 24 24 24 24 24 24 24 24 24 24 24 24 24 24 24 24 24 24 24 24 24 24 24 24 24 24 24 24 24 24 24 24 24 24 24 24 24 24 24 24 24 24 24 24 24 24 24 24 24 24 24 24 24 24 24 24 24 24 24 24 24 24 24 24 24 24 24 24 24 24 24 24 24 24 24 24 24 24 24 24 24 24 24 24 24 24 24 24 24 24 24 24 24 24 24 24 24 24 24 24 24 24 24 24 24 24 24 24 24 24 24 24 24 24 24 24 24 24 24 24 24 24 24 24 24 24 24 24 24 24 24 24 24 24 24 24 24 24 24 24 24 24 24 24 24 24 24 24 24 24 24 24 24 24 24 24 24 24 24 24 24 24 24 24 24 24 24 24 24 24 24 24 24 24 24 24 24 24 24 24 24 24 24 24 24 24 24 24 24 24 24 24 24 24 24 24 24 24 24 24 24 24 24 24 24 24 24 24 24 24 24 24 24 24 24 24 24 24 24 24 24 24 24 24 24 24 24 24 24 24 24 24 24 24 24 24 24 24 24 24 24 24 24 24 24 24 24 24 24 24 24 24 24 24 24 24 24 24 24 24 24 24 24 24 24 24 24 24 24 24 24 24 24 24 24 24 24 24 24 24 24 24 24 24 24 24 24 24 24 24 24 24 24 24 24 24 24 24 24 24 24 24 24 24 24 24 24 24 24 24 24 24 24 24 24 24 24 24 24 24 24 24 24 24 24 24 24 24 24 24 24 24 24 24 24 24 24 24 24 24 24 24 24 24 24 24 24 24 24 24 24 24 24 24 24 24 24 24 24 24 24 24 24 24 24 24 24 24 24 24 24 24 24 24 24 24 24 24 24 24 24 24 24 24 24 24 24 24 24 24 24 24 24 24 24 24 24 24 24 24 24 24 24 24 24 24 24 24 24 24 24 24 24 24 24 24 24 24 24 24 24 24 24 24 24 24 24 24 24 24 24 24 24 24 24 24 24 24 24 24 24 24 24 24 24 24 24 24 24 24 24 24 24 24 24 24 24 24 24 24 24 24 24 24 24 24 24 24 24 24 24 24 24 24 24 24 24 24 24 24 24 24 24 24 24 24 24 24 24 24 24 24 24 24 24 24 24 24 24 24 24 24 24 24 24 24 24 24 24 24 24 24 24 24 24 24 24 24 24 24 24 24 24 24 24 24 24 24 24 24 24 24 24 24 24 24 24 24 24 24 24 24 24 24 24 24 24 24 24 24 24 24 24 24 24 24 24 24 24 24 24 24 24 24 24 24 24 24 24 24 24 24 24 24 24 24 24 24 24 24 24 24 24 24 24 24 24 24 24 24 24 24 24 24 24 24 24 24 24 24 24 24 24 24 24 24 24 24 24 24 24 24 24 24 24 24 24 24 24 24 24 24 24 24 24 24 24 24 24 24 24 24 24 24 24 24 24 24 24 24 24 24 24 24 24 24 24 24 24 24 24 24 24 24 24 24 24 24 24 24 24 24 24 24 24 24 24 24 24 24 24 24 24 24 24 24 24 24 24 24 24 24 24 24 24 24 24 24 24 24 24 24 24 24 24 24 24 24 24 24 24 24 24 24 24 24 24 24 24 24 24 24 24 24 24 24 24 24 24 24 24 24 24 24 24 24 24 24 24 24 24 24 24 24 24 24 24 24 24 24 24 24 24 24 24 24 24 24 24 24 24 24 24 24 24 24 24 24 24 24 24 24 24 24 24 24 24 24 24 24 24 24 24 24 24 24 24 24 24 24 24 24 24 24 24 24 24 24 24 24 24 24 24 24 24 24 24 24 24 24 24 24 24 24 24 24 24 24 24 24 24 24 24 24 24 24 24 24 24 24 24 24 24 24 24 24 24 24 24 24 24 24 24 24 24 24 24 24 24 24 24 24 24 24 24 24 24 24 24 24 24 24 24 24 24 24 24 24 24 24 24 24 24 24 24 24 24 24 24 24 24 24 24 24 24 24 24 24 24 24 24 24 24 24 24 24 24 24 24 24 24 24 24 24 24 24 24 24 24 24 24 24 24 24 24 24 24 24 24 24 24 24 24 24 24 24 24 24 24 24 24 24 24 24 24 24 24 24 24 24 24 24 24 24 24 24 24 24 24 24 24 24 24 24 24 24 24 24 24 24 24 24 24 24 24 24 24 24 24 24 24 24 24 24 24 24 24 24 24 24 24 24 24 24 24 24 24 24 24 24 24 24 24 24 24 24 24 24 24 24 24 24 24 24 24 24 24 24 24 24 24 24 24 24 24 24 24 24 24 24 24 24 24 24 24 24 24 24 24 24 24 24 24 24 24 24 24 24 24 24 24 24 24 24 24 24 24 24 24 24 24 24 24 24 24 24 24 24 24 24 24 24 24 24 24 24 24 24 24 24 24 24 24 24 24 24 24 24 24 24 24 24 24 24 24 24 24 24 24 24 24 24 24 24 24 24 24 24 24 24 24 24 24 24 24 24 24 24 24 24 24 24 24 24 24 24 24 24 24 24 24 24 24 24 24 24 24 24 24 24 24 24 24 24 24 24 24 24 24 24 24 24 24 24 24 24 24 24 24 24 24 24 24 24 24 24 24 24 24 24 24 24 24 24 24 24 24 24 24 24 24 24 24 24 24 24 24 24 24 24 24 24 24 24 24 24 24 24 24 24 24 24 24 24 24 24 24 24 24 24 24 24 24 24 24 24 24 24 24 24 24 24 24 24 24 24 24 24 24 24 24 24 24 24 24 24 24 24 24 24 24 24 24 24 24 24 24 24 24 24 24 24 24 24 24 24 24 24 24 24 24 24 24 24 24 24 24 24 24 24 24 24 24 24 24 24 24 24 24 24 24 24 24 24 24 24 24 24 24 24 24 24 24 24 24 24 24 24 24 24 24 24 24 24 24 24 24 24 24 24 24 24 24 24 24 24 24 24 24 24 24 24 24 24 24 24 24 24 24 24 24 24 24 24 24 24 24 24 24 24 24 24 24 24 24 24 24 24 24 24 24 24 24 24 24 24 24 24 24 24 24 24 24 24 24 24 24 24 24 24 24 24 24 24 24 24 24 24 24 24 24 24 24 24 24 24 24 24 24 24 24 24 24 24 24 24 24 24 24 24 24 24 24 24 24 24 24 24 24 24 24 24 24 24 24 24 24 24 24 24 24 24 24 24 24 24 24 24 24 24 24 24 24 24 24 24 24 24 24 24 24 24 24 24 24 24 24 24 24 24 24 24 24 24 24 24 24 24 24 24 24 24 24 24 24 24 24 24 24 24 24 24 24 24 24 24 24 24 24 24 24 24 24 24 24 24 24 24 24 24 24 24 24 24 24 24 24 24 24 24 24 24 24 24 24 24 24 24 24 24 24 24 24 24 24 24 24 24 24 24 24 24 24 24 24 24 24 24 24 24 24 24 24 24 24 24 24 24 24 24 24 24 24 24 24 24 24 24 24 24 24 24 24 24 24 24 24 24 24 24 24 24 24 24 24 24 24 24 24 24 24 24 24 24 24 24 24 24 24 24 24 24 24 24 24 24 24 24 24 24 24 24 24 24 24 24 24 24 24 24 24 24 24 24 24 24 24 24 24 24 24 24 24 24 24 24 24 24 24 24 24 24 24 24 24 24 24 24 24 24 24 24 24 24 24 24 24 24 24 24 24 24 24 24 24 24 24 24 24 24 24 24 24 24 24 24 24 24 24 24 24 24 24 24 24 24 24 24 24 24 24 24 24 24 24 24 24 24 24 24 24 24 24 24 24 24 24 24 24 24 24 24 24 24 24 24 24 24 24 24 24 24 24 24 24 24 24 24 24 24 24 24 24 24 24 24 24 24 24 24 24 24 24 24 24 24 24 24 24 24 24 24 24 24 24 24 24 24 24 24 24 24 24 24 24 24 24 24 24 24 24 24 24 24 24 24 24 24 24 24 24 24 24 24 24 24 24 24 24 24 24 24 24 24 24 24 24 24 24 24 24 24 24 24 24 24 24 24 24 24 24 24 24 24 24 24 24 24 24 24 24 24 24 24 24 24 24 24 24 24 24 24 24 24 24 24 24 24 24 24 24 24 24 24 24 24 24 24 24 24 24 24 24 24 24 24 24 24 24 24 24 24 24 24 24 24 24 24 24 24 24 24 24 24 24 24 24 24 24 24 24 24 24 24 24 24 24 24 24 24 24 24 24 24 24 24 24 24 24 24 24 24 24 24 24 24 24 24 24 24 24 24 24 24 24 24 24 24 24 24 24 24 24 24 24 24 24 24 24 24 24 24 24 24 24 24 24 24 24 24 24 24 24 24 24 24 24 24 24 24 24 24 24 24 24 24 24 24 24 24 24 24 24 24 24 24 24 24 24 24 24 24 24 24 24 24 24 24 24 24 24 24 24 24 24 24 24 24 24 24 24 24 24 24 24 24 24 24 24 24 24 24 24 24 24 24 24 24 24 24 24 24 24 24 24 24 24 24 24 24 24 24 24 24 24 24 24 24 24 24 24 24 24 24 24 24 24 24 24 24 24 24 24 24 24 24 24 24 24 24 24 24 24 24 24 24 24 24 24 24 24 24 24 24 24 24 24 24 24 24 24 24 24 24 24 24 24 24 24 24 24 24 24 24 24 24 24 24 24 24 24 24 24 24 24 24 24 24 24 24 24 24 24 24 24 24 24 24 24 24 24 24 24 24 24 24 24 24 24 24 24 24 24 24 24 24 24 24 24 24 24 24 24 24 24 24 24 24 24 24 24 24 24 24 24 24 24 24 24 24 24 24 24 24 24 24 24 24 24 24 24 24 24 24 24 24 24 24 24 24 24 24 24 24 24 24 24 24 24 24 24 24 24 24 24 24 24 24 24 24 24 24 24 24 24 24 24 24 24 24 24 24 24 24 24 24 24 24 24 24 24 24 24 24 24 24 24 24 24 24 24 24 24 24 24 24 24 24 24 24 24 24 24 24 24 24 24 24 24 24 24 24 24 24 24 24 24 24 24 24 24 24 24 24 24 24 24 24 24 24 24 24 24 24 24 24 24 24 24 24 24 24 24 24 24 24 24 24 24 24 24 24 24 24 24 24 24 24 24 24 24 24 24 24 24 24 24 24 24 24 24 24 24 24 24 24 24 24 24 24 24 24 24 24 24 24 24 24 24 24 24 24 24 24 24 24 24 24 24 24 24 24 24 24 24 24 24 24 24 24 24 24 24 24 24 24 24 24 24 24 24 24 24 24 24 24 24 24 24 24 24 24 24 24 24 24 24 24 24 24 24 24 24 24 24 24 24 24 24 24 24 24 24 24 24 24 24 24 24 24 24 24 24 24 24 24 24 24 24 24 24 24 24 24 24 24 24 24 24 24 24 24 24 24 24 24 24 24 24 24 24 24 24 24 24 24 24 24 24 24 24 24 24 24 24 24 24 24 24 24 24 24 24 24 24 24 24 24 24 24 24 24 24 24 24 24 24 24 24 24 24 24 24 24 24 24 24 24 24 24 24 24 24 24 24 24 24 24 24 24 24 24 24 24 24 24 24 24 24 24 24 24 24 24 24 24 24 24 24 24 24 24 24 24 24 24 24 24 24 24 24 24 24 24 24 24 24 24 24 24 24 24 24 24 24 24 24 24 24 24 24 24 24 24 24 24 24 24 24 24 24 24 24 24 24 24 24 24 24 24 24 24 24 24 24 24 24 24 24 24 24 24 24 24 24 24 24 24 24 24 24 24 24 24 24 24 24 24 24 24 24 24 24 24 24 24 24 24 24 24 24 24 24 24 24 24 24 24 24 24 24 24 24 24 24 24 24 24 24 24 24 24 24 24 24 24 24 24 24 24 24 24 24 24 24 24 24 24 24 24 24 24 24 24 24 24 24 24 24 24 24 24 24 24 24 24 24 24 24 24 24 24 24 24 24 24 24 24 24 24 24 24 24 24 24 24 24 24 24 24 24 24 24 24 24 24 24 24 24 24 24 24 24 24 24 24 24 24 24 24 24 24 24 24 24 24 24 24 24 24 24 24 24 24 24 24 24 24 24 24 24 24 24 24 24 24 24 24 24 24 24 24 24 24 24 24 24 24 24 24 24 24 24 24 24 24 24 24 24 24 24 24 24 24 24 24 24 24 24 24 24 24 24 24 24 24 24 24 24 24 24 24 24 24 24 24 24 24 24 24 24 24 24 24 24 24 24 24 24 24 24 24 24 24 24 24 24 24 24 24 24 24 24 24 24 24 24 24 24 24 24 24 24 24 24 24 24 24 24 24 24 24 24 24 24 24 24 24 24 24 24 24 24 24 24 24 24 24 24 24 24 24 24 24 24 24 24 24 24 24 24 24 24 24 24 24 24 24 24 24 24 24 24 24 24 24 24 24 24 24 24 24 24 24 24 24 24 24 24 24 24 24 24 24 24 24 24 24 24 24 24 24 24 24 24 24 24 24 24 24 24 24 24 24 24 24 24 24 24 24 24 24 24 24 24 24 24 24 24 24 24 24 24 24 24 24 24 24 24 24 24 24 24 24 24 24 24 24 24 24 24 24 24 24 24 24 24 24 24 24 24 24 24 24 24 24 24 24 24 24 24 24 24 24 24 24 24 24 24 24 24 24 24 24 24 24 24 24 24 24 24 24 24 24 24 24 24 24 24 24 24 24 24 24 24 24 24 24 24 24 24 24 24 24 24 24 24 24 24 24 24 24 24 24 24 24 24 24 24 24 24 24 24 24 24 24 24 24 24 24 24 24 24 24 24 24 24 24 24 24 24 24 24 24 24 24 24 24 24 24 24 24 24 24 24 24 24 24 24 24 24 24 24 24 24 24 24 24 24 24 24 24 24 24 24 24 24 24 24 24 24 24 24 24 24 24 24 24 24 24 24 24 24 24 24 24 24 24 24 24 24 24 24 24 24 24 24 24 24 24 24 24 24 24 24 24 24 24 24 24 24 24 24 24 24 24 24 24 24 24 24 24 24 24 24 24 24 24 24 24 24 24 24 24 24 24 24 24 24 24 24 24 24 24 24 24 24 24 24 24 24 24 24 24 24 24 24 24 24 24 24 24 24 24 24 24 24 24 24 24 24 24 24 24 24 24 24 24 24 24 24 24 24 24 24 24 24 24 24 24 24 24 24 24 24 24 24 24 24 24 24 24 24 24 24 24 24 24 24 24 24 24 24 24 24 24 24 24 24 24 24 24 24 24 24 24 24 24 24 24 24 24 24 24 24 24 24 24 24 24 24 24 24 24 24 24 24 24 24 24 24 24 24 24 24 24 24 24 24 24 24 24 24 24 24 24 24 24 24 24 24 24 24 24 24 24 24 24 24 24 24 24 24 24 24 24 24 24 24 24 24 24 24 24 24 24 24 24 24 24 24 24 24 24 24 24 24 24 24 24 24 24 24 24 24 24 24 24 24 24 24 24 24 24 24 24 24 24 24 24 24 24 24 24 24 24 24 24 24 24 24 24 24 24 24 24 24 24 24 24 24 24 24 24 24 24 24 24 24 24 24 24 24 24 24 24 24 24 24 24 24 24 24 24 24 24 24 24 24 24 24 24 24 24 24 24 24 24 24 24 24 24 24 24 24 24 24 24 24 24 24 24 24 24 24 24 24 24 24 24 24 24 24 24 24 24 24 24 24 24 24 24 24 24 24 24 24 24 24 24 24 24 24 24 24 24 24 24 24 24 24 24 24 24 24 24 24 24 24 24 24 24 24 24 24 24 24 24 24 24 24 24 24 24 24 24 24 24 24 24 24 24 24 24 24 24 24 24 24 24 24 24 24 24 24 24 24 24 24 24 24 24 24 24 24 24 24 24 24 24 24 24 24 24 24 24 24 24 24 24 24 24 24 24 24 24 24 24 24 24 24 24 24 24 24 24 24 24 24 24 24 24 24 24 24 24 24 24 24 24 24 24 24 24 24 24 24 24 24 24 24 24 24 24 24 24 24 24 24 24 24 24 24 24 24 24 24 24 24 24 24 24 24 24 24 24 24 24 24 24 24 24 24 24 24 24 24 24 24 24 24 24 24 24 24 24 24 24 24 24 24 24 24 24 24 24 24 24 24 24 24 24 24 24 24 24 24 24 24 24 24 24 24 24 24 24 24 24 24 24 24 24 24 24 24 24 24 24 24 24 24 24 24 24 24 24 24 24 24 24 24 24 24 24 24 24 24 24 24 24 24 24 24 24 24 24 24 24 24 24 24 24 24 24 24 24 24 24 24 24 24 24 24 24 24 24 24 24 24 24 24 24 24 24 24 24 24 24 24 24 24 24 24 24 24 24 24 24 24 24 24 24 24 24 24 24 24 24 24 24 24 24 24 24 24 24 24 24 24 24 24 24 24 24 24 24 24 24 24 24 24 24 24 24 24 24 24 24 24 24 24 24 24 24 24 24 24 24 24 24 24 24 24 24 24 24 24 24 24 24 24 24 24 24 24 24 24 24 24 24 24 24 24 24 24 24 24 24 24 24 24 24 24 24 24 24 24 24 24 24 24 24 24 24 24 24 24 24 24 24 24 24 24 24 24 24 24 24 24 24 24 24 24 24 24 24 24 24 24 24 24 24 24 24 24 24 24 24 24 24 24 24 24 24 24 24 24 24 24 24 24 24 24 24 24 24 24 24 24 24 24 24 24 24 24 24 24 24 24 24 24 24 24 24 24 24 24 24 24 24 24 24 24 24 24 24 24 24 24 24 24 24 24 24 24 24 24 24 24 24 24 24 24 24 24 24 24 24 24 24 24 24 24 24 24 24 24 24 24 24 24 24 24 24 24 24 24 24 24 24 24 24 24 24 24 24 24 24 24 24 24 24 24 24 24 24 24 24 24 24 24 24 24 24 24 24 24 24 24 24 24 24 24 24 24 24 24 24 24 24 24 24 24 24 24 24 24 24 24 24 24 24 24 24 24 24 24 24 24 24 24 24 24 24 24 24 24 24 24 24 24 24 24 24 24 24 24 24 24 24 24 24 24 24 24 24 24 24 24 24 24 24 24 24 24 24 24 24 24 24 24 24 24 24 24 24 24 24 24 24 24 24 24 24 24 24 24 24 24 24 24 24 24 24 24 24 24 24 24 24 24 24 24 24 24 24 24 24 24 24 24 24 24 24 24 24 24 24 24 24 24 24 24 24 24 24 24 24 24 24 24 24 24 24 24 24 24 24 24 24 24 24 24 24 24 24 24 24 24 24 24 24 24 24 24 24 24 24 24 24 24 24 24 24 24 24 24 24 24 24 24 24 24 24 24 24 24 24 24 24 24 24 24 24 24 24 24 24 24 24 24 24 24 24 24 24 24 24 24 24 24 24 24 24 24 24 24 24 24 24 24 24 24 24 24 24 24 24 24 24 24 24 24 24 24 24 24 24 24 24 24 24 24 24 24 24 24 24 24 24 24 24 24 24 24 24 24 24 24 24 24 24 24 24 24 24 24 24 24 24 24 24 24 24 24 24 24 24 24 24 24 24 24 24 24 24 24 24 24 24 24 24 24 24 24 24 24 24 24 24 24 24 24 24 24 24 24 24 24 24 24 24 24 24 24 24 24 24 24 24 24 24 24 24 24 24 24 24 24 24 24 24 24 24 24 24 24 24 24 24 24 24 24 24 24 24 24 24 24 24 24 24 24 24 24 24 24 24 24 24 24 24 24 24 24 24 24 24 24 24 24 24 24 24 24 24 24 24 24 24 24 24 24 24 24 24 24 24 24 24 24 24 24 24 24 24 24 24 24 24 24 24 24 24 24 24 24 24 24 24 24 24 24 24 24 24 24 24 24 24 24 24 24 24 24 24 24 24 24 24 24 24 24 24 24 24 24 24 24 24 24 24 24 24 24 24 24 24 24 24 24 24 24 24 24 24 24 24 24 24 24 24 24 24 24 24 24 24 24 24 24 24 24 24 24 24 24 24 24 24 24 24 24 24 24 24 24 24 24 24 24 24 24 24 24 24 24 24 24 24 24 24 24 24 24 24 24 24 24 24 24 24 24 24 24 24 24 24 24 24 24 24 24 24 24 24 24 24 24 24 24 24 24 24 24 24 24 24 24 24 24 24 24 24 24 24 24 24 24 24 24 24 24 24 24 24 24 24 24 24 24 24 24 24 24 24 24 24 24 24 24 24 24 24 24 24 24 24 24 24 24 24 24 24 24 24 24 24 24 24 24 24 24 24 24 24 24 24 24 24 24 24 24 24 24 24 24 24 24 24 24 24 24 24 24 24 24 24 24 24 24 24 24 24 24 24 24 24 24 24 24 24 24 24 24 24 24 24 24 24 24 24 24 24 24 24 24 24 24 24 24 24 24 24 24 24 24 24 24 24 24 24 24 24 24 24 24 24 24 24 24 24 24 24 24 24 24 24 24 24 24 24 24 24 24 24 24 24 24 24 24 24 24 24 24 24 24 24 24 24 24 24 24 24 24 24 24 24 24 24 24 24 24 24 24 24 24 24 24 24 24 24 24 24 24 24 24 24 24 24 24 24 24 24 24 24 24 24 24 24 24 24 24 24 24 24 24 24 24 24 24 24 24 24 24 24 24 24 24 24 24 24 24 24 24 24 24 24 24 24 24 24 24 24 24 24 24 24 24 24 24 24 24 24 24 24 24 24 24 24 24 24 24 24 24 24 24 24 24 24 24 24 24 24 24 24 24 24 24 24 24 24 24 24 24 24 24 24 24 24 24 24 24 24 24 24 24 24 24 24 24 24 24 24 24 24 24 24 24 24 24 24 24 24 24 24 24 24 24 24 24 24 24 24 24 24 24 24 24 24 24 24 24 24 24 24 24 24 24 24 24 24 24 24 24 24 24 24 24 24 24 24 24 24 24 24 24 24 24 24 24 24 24 24 24 24 24 24 24 24 24 24 24 24 24 24 24 24 24 24 24 24 24 24 24 24 24 24 24 24 24 24 24 24 24 24 24 24 24 24 24 24 24 24 24 24 24 24 24 24 24 24 24 24 24 24 24 24 24 24 24 24 24 24 24 24 24 24 24 24 24 24 24 24 24 24 24 24 24 24 24 24 24 24 24 24 24 24 24 24 24 24 24 24 24 24 24 24 24 24 24 24 24 24 24 24 24 24 24 24 24 24 24 24 24 24 24 24 24 24 24 24 24 24 24 24 24 24 24 24 24 24 24 24 24 24 24 24 24 24 24 24 24 24 24 24 24 24 24 24 24 24 24 24 24 24 24 24 24 24 24 24 24 24 24 24 24 24 24 24 24 24 24 24 24 24 24 24 24 24 24 24 24 24 24 24 24 24 24 24 24 24 24 24 24 24 24 24 24 24 24 24 24 24 24 24 24 24 24 24 24 24 24 24 24 24 24 24 24 24 24 24 24 24 24 24 24 24 24 24 24 24 24 24 24 24 24 24 24 24 24 24 24 24 24 24 24 24 24 24 24 24 24 24 24 24 24 24 24 24 24 24 24 24 24 24 24 24 24 24 24 24 24 24 24 24 24 24 24 24 24 24 24 24 24 24 24 24 24 24 24 24 24 24 24 24 24 24 24 24 24 24 24 24 24 24 24 24 24 24 24 24 24 24 24 24 24 24 24 24 24 24 24 24 24 24 24 24 24 24 24 24 24 24 24 24 24 24 24 24 24 24 24 24 24 24 24 24 24 24 24 24 24 24 24 24 24 24 24 24 24 24 24 24 24 24 24 24 24 24 24 24 24 24 24 24 24 24 24 24 24 24 24 24 24 24 24 24 24 24 24 24 24 24 24 24 24 24 24 24 24 24 24 24 24 24 24 24 24 24 24 24 24 24 24 24 24 24 24 24 24 24 24 24 24 24 24 24 24 24 24 24 24 24 24 24 24 24 24 24 24 24 24 24 24 24 24 24 24 24 24 24 24 24 24 24 24 24 24 24 24 24 24 24 24 24 24 24 24 24 24 24 24 24 24 24 24 24 24 24 24 24 24 24 24 24 24 24 24 24 24 24 24 24 24 24 24 24 24 24 24 24 24 24 24 24 24 24 24 24 24 24 24 24 24 24 24 24 24 24 24 24 24 24 24 24 24 24 24 24 24 24 24 24 24 24 24 24 24 24 24 24 24 24 24 24 24 24 24 24 24 24 24 24 24 24 24 24 24 24 24 24 24 24 24 24 24 24 24 24 24 24 24 24 24 24 24 24 24 24 24 24 24 24 24 24 24 24 24 24 24 24 24 24 24 24 24 24 24 24 24 24 24 24 24 24 24 24 24 24 24 24 24 24 24 24 24 24 24 24 24 24 24 24 24 24 24 24 24 24 24 24 24 24 24 24 24 24 24 24 24 24 24 24 24 24 24 24 24 24 24 24 24 24 24 24 24 24 24 24 24 24 24 24 24 24 24 24 24 24 24 24 24 24 24 24 24 24 24 24 24 24 24 24 24 24 24 24 24 24 24 24 24 24 24 24 24 24 24 24 24 24 24 24 24 24 24 24 24 24 24 24 24 24 24 24 24 24 24 24 24 24 24 24 24 24 24 24 24 24 24 24 24 24 24 24 24 24 24 24 24 24 24 24 24 24 24 24 24 24 24 24 24 24 24 24 24 24 24 24 24 24 24 24 24 24 24 24 24 24 24 24 24 24 24 24 24 24 24 24 24 24 24 24 24 24 24 24 24 24 24 24 24 24 24 24 24 24 24 24 24 24 24 24 24 24 24 24 24 24 24 24 24 24 24 24 24 24 24 24 24 24 24 24 24 24 24 24 24 24 24 24 24 24 24 24 24 24 24 24 24 24 24 24 24 24 24 24 24 24 24 24 24 24 24 24 24 24 24 24 24 24 24 24 24 24 24 24 24 24 24 24 24 24 24 24 24 24 24 24 24 24 24 24 24 24 24 24 24 24 24 24 24 24 24 24 24 24 24 24 24 24 24 24 24 24 24 24 24 24 24 24 24 24 24 24 24 24 24 24 24 24 24 24 24 24 24 24 24 24 24 24 24 24 24 24 24 24 24 24 24 24 24 24 24 24 24 24 24 24 24 24 24 24 24 24 24 24 24 24 24 24 24 24 24 24 24 24 24 24 24 24 24 24 24 24 24 24 24 24 24 24 24 24 24 24 24 24 24 24 24 24 24 24 24 24 24 24 24 24 24 24 24 24 24 24 24 24 24 24 24 24 24 24 24 24 24 24 24 24 24 24 24 24 24 24 24 24 24 24 24 24 24 24 24 24 24 24 24 24 24 24 24 24 24 24 24 24 24 24 24 24 24 24 24 24 24 24 24 24 24 24 24 24 24 24 24 24 24 24 24 24 24 24 24 24 24 24 24 24 24 24 24 24 24 24 24 24 24 24 24 24 24 24 24 24 24 24 24 24 24 24 24 24 24 24 24 24 24 24 24 24 24 24 24 24 24 24 24 24 24 24 24 24 24 24 24 24 24 24 24 24 24 24 24 24 24 24 24 24 24 24 24 24 24 24 24 24 24 24 24 24 24 24 24 24 24 24 24 24 24 24 24 24 24 24 24 24 24 24 24 24 24 24 24 24 24 24 24 24 24 24 24 24 24 24 24 24 24 24 24 24 24 24 24 24 24 24 24 24 24 24 24 24 24 24 24 24 24 24 24 24 24 24 24 24 24 24 24 24 24 24 24 24 24 24 24 24 24 24 24 24 24 24 24 24 24 24 24 24 24 24 24 24 24 24 24 24 24 24 24 24 24 24 24 24 24 24 24 24 24 24 24 24 24 24 24 24 24 24 24 24 24 24 24 24 24 24 24 24 24 24 24 24 24 24 24 24 24 24 24 24 24 24 24 24 24 24 24 24 24 24 24 24 24 24 24 24 24 24 24 24 24 24 24 24 24 24 24 24 24 24 24 24 24 24 24 24 24 24 24 24 24 24 24 24 24 24 24 24 24 24 24 24 24 24 24 24 24 24 24 24 24 24 24 24 24 24 24 24 24 24 24 24 24 24 24 24 24 24 24 24 24 24 24 24 24 24 24 24 24 24 24 24 24 24 24 24 24 24 24 24 24 24 24 24 24 24 24 24 24 24 24 24 24 24 24 24 24 24 24 24 24 24 24 24 24 24 24 24 24 24 24 24 24 24 24 24 24 24 24 24 24 24 24 24 24 24 24 24 24 24 24 24 24 24 24 24 24 24 24 24 24 24 24 24 24 24 24 24 24 24 24 24 24 24 24 24 24 24 24 24 24 24 24 24 24 24 24 24 24 24 24 24 24 24 24 24 24 24 24 24 24 24 24 24 24 24 24 24 24 24 24 24 24 24 24 24 24 24 24 24 24 24 24 24 24 24 24 24 24 24 24 24 24 24 24 24 24 24 24 24 24 24 24 24 24 24 24 24 24 24 24 24 24 24 24 24 24 24 24 24 24 24 24 24 24 24 24 24 24 24 24 24 24 24 24 24 24 24 24 24 24 24 24 24 24 24 24 24 24 24 24 24 24 24 24 24 24 24 24 24 24 24 24 24 24 24 24 24 24 24 24 24 24 24 24 24 24 24 24 24 24 24 24 24 24 24 24 24 24 24 24 24 24 24 24 24 24 24 24 24 24 24 24 24 24 24 24 24 24 24 24 24 24 24 24 24 24 24 24 24 24 24 24 24 24 24 24 24 24 24 24 24 24 24 24 24 24 24 24 24 24 24 24 24 24 24 24 24 24 24 24 24 24 24 24 24 24 24 24 24 24 24 24 24 24 24 24 24 24 24 24 24 24 24 24 24 24 24 24 24 24 24 24 24 24 24 24 24 24 24 24 24 24 24 24 24 24 24 24 24 24 24 24 24 24 24 24 24 24 24 24 24 24 24 24 24 24 24 24 24 24 24 24 24 24 24 24 24 24 24 24 24 24 24 24 24 24 24 24 24 24 24 24 24 24 24 24 24 24 24 24 24 24 24 24 24 24 24 24 24 24 24 24 24 24 24 24 24 24 24 24 24 24 24 24 24 24 24 24 24 24 24 24 24 24 24 24 24 24 24 24 24 24 24 24 24 24 24 24 24 24 24 24 24 24 24 24 24 24 24 24 24 24 24 24 24 24 24 24 24 24 24 24 24 24 24 24 24 24 24 24 24 24 24 24 24 24 24 24 24 24 24 24 24 24 24 24 24 24 24 24 24 24 24 24 24 24 24 24 24 24 24 24 24 24 24 24 24 24 24 24 24 24 24 24 24 24 24 24 24 24 24 24 24 24 24 24 24 24 24 24 24 24 24 24 24 24 24 24 24 24 24 24 24 24 24 24 24 24 24 24 24 24 24 24 24 24 24 24 24 24 24 24 24 24 24 24 24 24 24 24 24 24 24 24 24 24 24 24 24 24 24 24 24 24 24 24 24 24 24 24 24 24 24 24 24 24 24 24 24 24 24 24 24 24 24 24 24 24 24 24 24 24 24 24 24 24 24 24 24 24 24 24 24 24 24 24 24 24 24 24 24 24 24 24 24 24 24 24 24 24 24 24 24 24 24 24 24 24 24 24 24 24 24 24 24 24 24 24 24 24 24 24 24 24 24 24 24 24 24 24 24 24 24 24 24 24 24 24 24 24 24 24 24 24 24 24 24 24 24 24 24 24 24 24 24 24 24 24 24 24 24 24 24 24 24 24 24 24 24 24 24 24 24 24 24 24 24 24 24 24 24 24 24 24 24 24 24 24 24 24 24 24 24 24 24 24 24 24 24 24 24 24 24 24 24 24 24 24 24 24 24 24 24 24 24 24 24 24 24 24 24 24 24 24 24 24 24 24 24 24 24 24 24 24 24 24 24 24 24 24 24 24 24 24 24 24 24 24 24 24 24 24 24 24 24 24 24 24 24 24 24 24 24 24 24 24 24 24 24 24 24 24 24 24 24 24 24 24 24 24 24 24 24 24 24 24 24 24 24 24 24 24 24 24 24 24 24 24 24 24 24 24 24 24 24 24 24 24 24 24 24 24 24 24 24 24 24 24 24 24 24 24 24 24 24 24 24 24 24 24 24 24 24 24 24 24 24 24 24 24 24 24 24 24 24 24 24 24 24 24 24 24 24 24 24 24 24 24 24 24 24 24 24 24 24 24 24 24 24 24 24 24 24 24 24 24 24 24 24 24 24 24 24 24 24 24 24 24 24 24 24 24 24 24 24 24 24 24 24 24 24 24 24 24 24 24 24 24 24 24 24 24 24 24 24 24 24 24 24 24 24 24 24 24 24 24 24 24 24 24 24 24 24 24 24 24 24 24 24 24 24 24 24 24 24 24 24 24 24 24 24 24 24 24 24 24 24 24 24 24 24 24 24 24 24 24 24 24 24 24 24 24 24 24 24 24 24 24 24 24 24 24 24 24 24 24 24 24 24 24 24 24 24 24 24 24 24 24 24 24 24 24 24 24 24 24 24 24 24 24 24 24 24 24 24 24 24 24 24 24 24 24 24 24 24 24 24 24 24 24 24 24 24 24 24 24 24 24 24 24 24 24 24 24 24 24 24 24 24 24 24 24 24 24 24 24 24 24 24 24 24 24 24 24 24 24 24 24 24 24 24 24 24 24 24 24 24 24 24 24 24 24 24 24 24 24 24 24 24 24 24 24 24 24 24 24 24 24 24 24 24 24 24 24 24 24 24 24 24 24 24 24 24 24 24 24 24 24 24 24 24 24 24 24 24 24 24 24 24 24 24 24 24 24 24 24 24 24 24 24 24 24 24 24 24 24 24 24 24 24 24 24 24 24 24 24 24 24 24 24 24 24 24 24 24 24 24 24 24 24 24 24 24 24 24 24 24 24 24 24 24 24 24 24 24 24 24 24 24 24 24 24 24 24 24 24 24 24 24 24 24 24 24 24 24 24 24 24 24 24 24 24 24 24 24 24 24 24 24 24 24 24 24 24 24 24 24 24 24 24 24 24 24 24 24 24 24 24 24 24 24 24 24 24 24 24 24 24 24 24 24 24 24 24 24 24 24 24 24 24 24 24 24 24 24 24 24 24 24 24 24 24 24 24 24 24 24 24 24 24 24 24 24 24 24 24 24 24 24 24 24 24 24 24 24 24 24 24 24 24 24 24 24 24 24 24 24 24 24 24 24 24 24 24 24 24 24 24 24 24 24 24 24 24 24 24 24 24 24 24 24 24 24 24 24 24 24 24 24 24 24 24 24 24 24 24 24 24 24 24 24 24 24 24 24 24 24 24 24 24 24 24 24 24 24 24 24 24 24 24 24 24 24 24 24 24 24 24 24 24 24 24 24 24 24 24 24 24 24 24 24 24 24 24 24 24 24 24 24 24 24 24 24 24 24 24 24 24 24 24 24 24 24 24 24 24 24 24 24 24 24 24 24 24 24 24 24 24 24 24 24 24 24 24 24 24 24 24 24 24 24 24 24 24 24 24 24 24 24 24 24 24 24 24 24 24 24 24 24 24 24 24 24 24 24 24 24 24 24 24 24 24 24 24 24 24 24 24 24 24 24 24 24 24 24 24 24 24 24 24 24 24 24 24 24 24 24 24 24 24 24 24 24 24 24 24 24 24 24 24 24 24 24 24 24 24 24 24 24 24 24 24 24 24 24 24 24 24 24 24 24 24 24 24 24 24 24 24 24 24 24 24 24 24 24 24 24 24 24 24 24 24 24 24 24 24 24 24 24 24 24 24 24 24 24 24 24 24 24 24 24 24 24 24 24 24 24 24 24 24 24 24 24 24 24 24 24 24 24 24 24 24 24 24 24 24 24 24 24 24 24 24 24 24 24 24 24 24 24 24 24 24 24 24 24 24 24 24 24 24 24 24 24 24 24 24 24 24 24 24 24 24 24 24 24 24 24 24 24 24 24 24 24 24 24 24 24 24 24 24 24 24 24 24 24 24 24 24 24 24 24 24 24 24 24 24 24 24 24 24 24 24 24 24 24 24 24 24 24 24 24 24 24 24 24 24 24 24 24 24 24 24 24 24 24 24 24 24 24 24 24 24 24 24 24 24 24 24 24 24 24 24 24 24 24 24 24 24 24 24 24 24 24 24 24 24 24 24 24 24 24 24 24 24 24 24 24 24 24 24 24 24 24 24 24 24 24 24 24 24 24 24 24 24 24 24 24 24 24 24 24 24 24 24 24 24 24 24 24 24 24 24 24 24 24 24 24 24 24 24 24 24 24 24 24 24 24 24 24 24 24 24 24 24 24 24 24 24 24 24 24 24 24 24 24 24 24 24 24 24 24 24 24 24 24 24 24 24 24 24 24 24 24 24 24 24 24 24 24 24 24 24 24 24 24 24 24 24 24 24 24 24 24 24 24 24 24 24 24 24 24 24 24 24 24 24 24 24 24 24 24 24 24 24 24 24 24 24 24 24 24 24 24 24 24 24 24 24 24 24 24 24 24 24 24 24 24 24 24 24 24 24 24 24 24 24 24 24 24 24 24 24 24 24 24 24 24 24 24 24 24 24 24 24 24 24 24 24 24 24 24 24 24 24 24 24 24 24 24 24 24 24 24 24 24 24 24 24 24 24 24 24 24 24 24 24 24 24 24 24 24 24 24 24 24 24 24 24 24 24 24 24 24 24 24 24 24 24 24 24 24 24 24 24 24 24 24 24 24 24 24 24 24 24 24 24 24 24 24 24 24 24 24 24 24 24 24 24 24 24 24 24 24 24 24 24 24 24 24 24 24 24 24 24 24 24 24 24 24 24 24 24 24 24 24 24 24 24 24 24 24 24 24 24 24 24 24 24 24 24 24 24 24 24 24 24 24 24 24 24 24 24 24 24 24 24 24 24 24 24 24 24 24 24 24 24 24 24 24 24 24 24 24 24 24 24 24 24 24 24 24 24 24 24 24 24 24 24 24 24 24 24 24 24 24 24 24 24 24 24 24 24 24 24 24 24 24 24 24 24 24 24 24 24 24 24 24 24 24 24 24 24 24 24 24 24 24 24 24 24 24 24 24 24 24 24 24 24 24 24 24 24 24 24 24 24 24 24 24 24 24 24 24 24 24 24 24 24 24 24 24 24 24 24 24 24 24 24 24 24 24 24 24 24 24 24 24 24 24 24 24 24 24 24 24 24 24 24 24 24 24 24 24 24 24 24 24 24 24 24 24 24 24 24 24 24 24 24 24 24 24 24 24 24 24 24 24 24 24 24 24 24 24 24 24 24 24 24 24 24 24 24 24 24 24 24 24 24 24 24 24 24 24 24 24 24 24 24 24 24 24 24 24 24 24 24 24 24 24 24 24 24 24 24 24 24 24 24 24 24 24 24 24 24 24 24 24 24 24 24 24 24 24 24 24 24 24 24 24 24 24 24 24 24 24 24 24 24 24 24 24 24 24 24 24 24 24 24 24 24 24 24 24 24 24 24 24 24 24 24 24 24 24 24 24 24 24 24 24 24 24 24 24 24 24 24 24 24 24 24 24 24 24 24 24 24 24 24 24 24 24 24 24 24 24 24 24 24 24 24 24 24 24 24 24 24 24 24 24 24 24 24 24 24 24 24 24 24 24 24 24 24 24 24 24 24 24 24 24 24 24 24 24 24 24 24 24 24 24 24 24 24 24 24 24 24 24 24 24 24 24 24 24 24 24 24 24 24 24 24 24 24 24 24 24 24 24 24 24 24 24 24 24 24 24 24 24 24 24 24 24 24 24 24 24 24 24 24 24 24 24 24 24 24 24 24 24 24 24 24 24 24 24 24 24 24 24 24 24 24 24 24 24 24 24 24 24 24 24 24 24 24 24 24 24 24 24 24 24 24 24 24 24 24 24 24 24 24 24 24 24 24 24 24 24 24 24 24 24 24 24 24 24 24 24 24 24 24 24 24 24 24 24 24 24 24 24 24 24 24 24 24 24 24 24 24 24 24 24 24 24 24 24 24 24 24 24 24 24 24 24 24 24 24 24 24 24 24 24 24 24 24 24 24 24 24 24 24 24 24 24 24 24 24 24 24 24 24 24 24 24 24 24 24 24 24 24 24 24 24 24 24 24 24 24 24 24 24 24 24 24 24 24 24 24 24 24 24 24 24 24 24 24 24 24 24 24 24 24 24 24 24 24 24 24 24 24 24 24 24 24 24 24 24 24 24 24 24 24 24 24 24 24 24 24 24 24 24 24 24 24 24 24 24 24 24 24 24 24 24 24 24 24 24 24 24 24 24 24 24 24 24 24 24 24 24 24 24 24 24 24 24 24 24 24 24 24 24 24 24 24 24 24 24 24 24 24 24 24 24 24 24 24 24 24 24 24 24 24 24 24 24 24 24 24 24 24 24 24 24 24 24 24 24 24 24 24 24 24 24 24 24 24 24 24 24 24 24 24 24 24 24 24 24 24 24 24 24 24 24 24 24 24 24 24 24 24 24 24 24 24 24 24 24 24 24 24 24 24 24 24 24 24 24 24 24 24 24 24 24 24 24 24 24 24 24 24 24 24 24 24 24 24 24 24 24 24 24 24 24 24 24 24 24 24 24 24 24 24 24 24 24 24 24 24 24 24 24 24 24 24 24 24 24 24 24 24 24 24 24 24 24 24 24 24 24 24 24 24 24 24 24 24 24 24 24 24 24 24 24 24 24 24 24 24 24 24 24 24 24 24 24 24 24 24 24 24 24 24 24 24 24 24 24 24 24 24 24 24 24 24 24 24 24 24 24 24 24 24 24 24 24 24 24 24 24 24 24 24 24 24 24 24 24 24 24 24 24 24 24 24 24 24 24 24 24 24 24 24 24 24 24 24 24 24 24 24 24 24 24 24 24 24 24 24 24 24 24 24 24 24 24 24 24 24 24 24 24 24 24 24 24 24 24 24 24 24 24 24 24 24 24 24 24 24 24 24 24 24 24 24 24 24 24 24 24 24 24 24 24 24 24 24 24 24 24 24 24 24 24 24 24 24 24 24 24 24 24 24 24 24 24 24 24 24 24 24 24 24 24 24 24 24 24 24 24 24 24 24 24 24 24 24 24 24 24 24 24 24 24 24 24 24 24 24 24 24 24 24 24 24 24 24 24 24 24 24 24 24 24 24 24 24 24 24 24 24 24 24 24 24 24 24 24 24 24 24 24 24 24 24 24 24 24 24 24 24 24 24 24 24 24 24 24 24 24 24 24 24 24 24 24 24 24 24 24 24 24 24 24 24 24 24 24 24 24 24 24 24 24 24 24 24 24 24 24 24 24 24 24 24 24 24 24 24 24 24 24 24 24 24 24 24 24 24 24 24 24 24 24 24 24 24 24 24 24 24 24 24 24 24 24 24 24 24 24 24 24 24 24 24 24 24 24 24 24 24 24 24 24 24 24 24 24 24 24 24 24 24 24 24 24 24 24 24 24 24 24 24 24 24 24 24 24 24 24 24 24 24 24 24 24 24 24 24 24 24 24 24 24 24 24 24 24 24 24 24 24 24 24 24 24 24 24 24 24 24 24 24 24 24 24 24 24 24 24 24 24 24 24 24 24 24 24 24 24 24 24 24 24 24 24 24 24 24 24 24 24 24 24 24 24 24 24 24 24 24 24 24 24 24 24 24 24 24 24 24 24 24 24 24 24 24 24 24 24 24 24 24 24 24 24 24 24 24 24 24 24 24 24 24 24 24 24 24 24 24 24 24 24 24 24 24 24 24 24 24 24 24 24 24 24 24 24 24 24 24 24 24 24 24 24 24 24 24 24 24 24 24 24 24 24 24 24 24 24 24 24 24 24 24 24 24 24 24 24 24 24 24 24 24 24 24 24 24 24 24 24 24 24 24 24 24 24 24 24 24 24 24 24 24 24 24 24 24 24 24 24 24 24 24 24 24 24 24 24 24 24 24 24 24 24 24 24 24 24 24 24 24 24 24 24 24 24 24 24 24 24 24 24 24 24 24 24 24 24 24 24 24 24 24 24 24 24 24 24 24 24 24 24 24 24 24 24 24 24 24 24 24 24 24 24 24 24 24 24 24 24 24 24 24 24 24 24 24 24 24 24 24 24 24 24 24 24 24 24 24 24 24 24 24 24 24 24 24 24 24 24 24 24 24 24 24 24 24 24 24 24 24 24 24 24 24 24 24 24 24 24 24 24 24 24 24 24 24 24 24 24 24 24 24 24 24 24 24 24 24 24 24 24 24 24 24 24 24 24 24 24 24 24 24 24 24 24 24 24 24 24 24 24 24 24 24 24 24 24 24 24 24 24 24 24 24 24 24 24 24 24 24 24 24 24 24 24 24 24 24 24 24 24 24 24 24 24 24 24 24 24 24 24 24 24 24 24 24 24 24 24 24 24 24 24 24 24 24 24 24 24 24 24 24 24 24 24 24 24 24 24 24 24 24 24 24 24 24 24 24 24 24 24 24 24 24 24 24 24 24 24 24 24 24 24 24 24 24 24 24 24 24 24 24 24 24 24 24 24 24 24 24 24 24 24 24 24 24 24 24 24 24 24 24 24 24 24 24 24 24 24 24 24 24 24 24 24 24 24 24 24 24 24 24 24 24 24 24 24 24 24 24 24 24 24 24 24 24 24 24 24 24 24 24 24 24 24 24 24 24 24 24 24 24 24 24 24 24 24 24 24 24 24 24 24 24 24 24 24 24 24 24 24 24 24 24 24 24 24 24 24 24 24 24 24 24 24 24 24 24 24 24 24 24 24 24 24 24 24 24 24 24 24 24 24 24 24 24 24 24 24 24 24 24 24 24 24 24 24 24 24 24 24 24 24 24 24 24 24 24 24 24 24 24 24 24 24 24 24 24 24 24 24 24 24 24 24 24 24 24 24 24 24 24 24 24 24 24 24 24 24 24 24 24 24 24 24 24 24 24 24 24 24 24 24 24 24 24 24 24 24 24 24 24 24 24 24 24 24 24 24 24 24 24 24 24 24 24 24 24 24 24 24 24 24 24 24 24 24 24 24 24 24 24 24 24 24 24 24 24 24 24 24 24 24 24 24 24 24 24 24 24 24 24 24 24 24 24 24 24 24 24 24 24 24 24 24 24 24 24 24 24 24 24 24 24 24 24 24 24 24 24 24 24 24 24 24 24 24 24 24 24 24 24 24 24 24 24 24 24 24 24 24 24 24 24 24 24 24 24 24 24 24 24 24 24 24 24 24 24 24 24 24 24 24 24 24 24 24 24 24 24 24 24 24 24 24 24 24 24 24 24 24 24 24 24 24 24 24 24 24 24 24 24 24 24 24 24 24 24 24 24 24 24 24 24 24 24 24 24 24 24 24 24 24 24 24 24 24 24 24 24 24 24 24 24 24 24 24 24 24 24 24 24 24 24 24 24 24 24 24 24 24 24 24 24 24 24 24 24 24 24 24 24 24 24 24 24 24 24 24 24 24 24 24 24 24 24 24 24 24 24 24 24 24 24 24 24 24 24 24 24 24 24 24 24 24 24 24 24 24 24 24 24 24 24 24 24 24 24 24 24 24 24 24 24 24 24 24 24 24 24 24 24 24 24 24 24 24 24 24 24 24 24 24 24 24 24 24 24 24 24 24 24 24 24 24 24 24 24 24 24 24 24 24 24 24 24 24 24 24 24 24 24 24 24 24 24 24 24 24 24 24 24 24 24 24 24 24 24 24 24 24 24 24 24 24 24 24 24 24 24 24 24 24 24 24 24 24 24 24 24 24 24 24 24 24 24 24 24 24 24 24 24 24 24 24 24 24 24 24 24 24 24 24 24 24 24 24 24 24 24 24 24 24 24 24 24 24 24 24 24 24 24 24 24 24 24 24 24 24 24 24 24 24 24 24 24 24 24 24 24 24 24 24 24 24 24 24 24 24 24 24 24 24 24 24 24 24 24 24 24 24 24 24 24 24 24 24 24 24 24 24 24 24 24 24 24 24 24 24 24 24 24 24 24 24 24 24 24 24 24 24 24 24 24 24 24 24 24 24 24 24 24 24 24 24 24 24 24 24 24 24 24 24 24 24 24 24 24 24 24 24 24 24 24 24 24 24 24 24 24 24 24 24 24 24 24 24 24 24 24 24 24 24 24 24 24 24 24 24 24 24 24 24 24 24 24 24 24 24 24 24 24 24 24 24 24 24 24 24 24 24 24 24 24 24 24 24 24 24 24 24 24 24 24 24 24 24 24 24 24 24 24 24 24 24 24 24 24 24 24 24 24 24 24 24 24 24 24 24 24 24 24 24 24 24 24 24 24 24 24 24 24 24 24 24 24 24 24 24 24 24 24 24 24 24 24 24 24 24 24 24 24 24 24 24 24 24 24 24 24 24 24 24 24 24 24 24 24 24 24 24 24 24 24 24 24 24 24 24 24 24 24 24 24 24 24 24 24 24 24 24 24 24 24 24 24 24 24 24 24 24 24 24 24 24 24 24 24 24 24 24 24 24 24 24 24 24 24 24 24 24 24 24 24 24 24 24 24 24 24 24 24 24 24 24 24 24 24 24 24 24 24 24 24 24 24 24 24 24 24 24 24 24 24 24 24 24 24 24 24 24 24 24 24 24 24 24 24 24 24 24 24 24 24 24 24 24 24 24 24 24 24 24 24 24 24 24 24 24 24 24 24 24 24 24 24 24 24 24 24 24 24 24 24 24 24 24 24 24 24 24 24 24 24 24 24 24 24 24 24 24 24 24 24 24 24 24 24 24 24 24 24 24 24 24 24 24 24 24 24 24 24 24 24 24 24 24 24 24 24 24 24 24 24 24 24 24 24 24 24 24 24 24 24 24 24 24 24 24 24 24 24 24 24 24 24 24 24 24 24 24 24 24 24 24 24 24 24 24 24 24 24 24 24 24 24 24 24 24 24 24 24 24 24 24 24 24 24 24 24 24 24 24 24 24 24 24 24 24 24 24 24 24 24 24 24 24 24 24 24 24 24 24 24 24 24 24 24 24 24 24 24 24 24 24 24 24 24 24 24 24 24 24 24 24 24 24 24 24 24 24 24 24 24 24 24 24 24 24 24 24 24 24 24 24 24 24 24 24 24 24 24 24 24 24 24 24 24 24 24 24 24 24 24 24 24 24 24 24 24 24 24 24 24 24 24 24 24 24 24 24 24 24 24 24 24 24 24 24 24 24 24 24 24 24 24 24 24 24 24 24 24 24 24 24 24 24 24 24 24 24 24 24 24 24 24 24 24 24 24 24 24 24 24 24 24 24 24 24 24 24 24 24 24 24 24 24 24 24 24 24 24 24 24 24 24 24 24 24 24 24 24 24 24 24 24 24 24 24 24 24 24 24 24 24 24 24 24 24 24 24 24 24 24 24 24 24 24 24 24 24 24 24 24 24 24 24 24 24 24 24 24 24 24 24 24 24 24 24 24 24 24 24 24 24 24 24 24 24 24 24 24 24 24 24 24 24 24 24 24 24 24 24 24 24 24 24 24 24 24 24 24 24 24 24 24 24 24 24 24 24 24 24 24 24 24 24 24 24 24 24 24 24 24 24 24 24 24 24 24 24 24 24 24 24 24 24 24 24 24 24 24 24 24 24 24 24 24 24 24 24 24 24 24 24 24 24 24 24 24 24 24 24 24 24 24 24 24 24 24 24 24 24 24 24 24 24 24 24 24 24 24 24 24 24 24 24 24 24 24 24 24 24 24 24 24 24 24 24 24 24 24 24 24 24 24 24 24 24 24 24 24 24 24 24 24 24 24 24 24 24 24 24 24 24 24 24 24 24 24 24 24 24 24 24 24 24 24 24 24 24 24 24 24 24 24 24 24 24 24 24 24 24 24 24 24 24 24 24 24 24 24 24 24 24 24 24 24 24 24 24 24 24 24 24 24 24 24 24 24 24 24 24 24 24 24 24 24 24 24 24 24 24 24 24 24 24 24 24 24 24 24 24 24 24 24 24 24 24 24 24 24 24 24 24 24 24 24 24 24 24 24 24 24 24 24 24 24 24 24 24 24 24 24 24 24 24 24 24 24 24 24 24 24 24 24 24 24 24 24 24 24 24 24 24 24 24 24 24 24 24 24 24 24 24 24 24 24 24 24 24 24 24 24 24 24 24 24 24 24 24 24 24 24 24 24 24 24 24 24 24 24 24 24 24 24 24 24 24 24 24 24 24 24 24 24 24 24 24 24 24 24 24 24 24 24 24 24 24 24 24 24 24 24 24 24 24 24 24 24 24 24 24 24 24 24 24 24 24 24 24 24 24 24 24 24 24 24 24 24 24 24 24 24 24 24 24 24 24 24 24 24 24 24 24 24 24 24 24 24 24 24 24 24 24 24 24 24 24 24 24 24 24 24 24 24 24 24 24 24 24 24 24 24 24 24 24 24 24 24 24 24 24 24 24 24 24 24 24 24 24 24 24 24 24 24 24 24 24 24 24 24 24 24 24 24 24 24 24 24 24 24 24 24 24 24 24 24 24 24 24 24 24 24 24 24 24 24 24 24 24 24 24 24 24 24 24 24 24 24 24 24 24 24 24 24 24 24 24 24 24 24 24 24 24 24 24 24 24 24 24 24 24 24 24 24 24 24 24 24 24 24 24 24 24 24 24 24 24 24 24 24 24 24 24 24 24 24 24 24 24 24 24 24 24 24 24 24 24 24 24 24 24 24 24 24 24 24 24 24 24 24 24 24 24 24 24 24 24 24 24 24 24 24 24 24 24 24 24 24 24 24 24 24 24 24 24 24 24 24 24 24 24 24 24 24 24 24 24 24 24 24 24 24 24 24 24 24 24 24 24 24 24 24 24 24 24 24 24 24 24 24 24 24 24 24 24 24 24 24 24 24 24 24 24 24 24 24 24 24 24 24 24 24 24 24 24 24 24 24 24 24 24 24 24 24 24 24 24 24 24 24 24 24 24 24 24 24 24 24 24 24 24 24 24 24 24 24 24 24 24 24 24 24 24 24 24 24 24 24 24 24 24 24 24 24 24 24 24 24 24 24 24 24 24 24 24 24 24 24 24 24 24 24 24 24 24 24 24 24 24 24 24 24 24 24 24 24 24 24 24 24 24 24 24 24 24 24 24 24 24 24 24 24 24 24 24 24 24 24 24 24 24 24 24 24 24 24 24 24 24 24 24 24 24 24 24 24 24 24 24 24 24 24 24 24 24 24 24 24 24 24 24 24 24 24 24 24 24 24 24 24 24 24 24 24 24 24 24 24 24 24 24 24 24 24 24 24 24 24 24 24 24 24 24 24 24 24 24 24 24 24 24 24 24 24 24 24 24 24 24 24 24 24 24 24 24 24 24 24 24 

POINT_DATA 18785
SCALARS weights float 1
LOOKUP_TABLE default
0.195312 0.260417 0.260417 0.260417 0.260417 0.260417 0.260417 0.260417 0.260417 0.260416 0.260417 0.260417 0.260417 0.260417 0.260416 0.260417 0.260417 0.260417 0.260417 0.260417 0.260417 0.260417 0.260417 0.260417 0.260416 0.260417 0.260416 0.260417 0.260416 0.260416 0.260417 0.260417 0.0651044 0.260417 0.390625 0.390625 0.390625 0.390625 0.390625 0.390625 0.390625 0.390625 0.390625 0.390625 0.390625 0.390625 0.390625 0.390625 0.390625 0.390625 0.390625 0.390625 0.390625 0.390625 0.390625 0.390625 0.390625 0.390625 0.390625 0.390624 0.390625 0.390625 0.390624 0.390625 0.390625 0.130209 0.260417 0.390625 0.390625 0.390625 0.390625 0.390625 0.390625 0.390625 0.390625 0.390625 0.390625 0.390625 0.390625 0.390625 0.390625 0.390625 0.390625 0.390625 0.390625 0.390625 0.390625 0.390625 0.390625 0.390625 0.390625 0.390625 0.390624 0.390625 0.390625 0.390624 0.390625 0.390625 0.130209 0.260417 0.390625 0.390625 0.390625 0.390625 0.390625 0.390625 0.390625 0.390625 0.390625 0.390625 0.390625 0.390625 0.390625 0.390625 0.390625 0.390625 0.390625 0.390625 0.390625 0.390625 0.390625 0.390625 0.390625 0.390625 0.390625 0.390624 0.390625 0.390625 0.390624 0.390625 0.390625 0.130209 0.260417 0.390625 0.390625 0.390625 0.390625 0.390625 0.390625 0.390625 0.390625 0.390625 0.390625 0.390625 0.390625 0.390625 0.390625 0.390625 0.390625 0.390625 0.390625 0.390625 0.390625 0.390625 0.390625 0.390625 0.390625 0.390625 0.390624 0.390625 0.390625 0.390624 0.390625 0.390625 0.130209 0.260417 0.390625 0.390625 0.390625 0.390625 0.390625 0.390625 0.390625 0.390625 0.390625 0.390625 0.390625 0.390625 0.390625 0.390625 0.390625 0.390625 0.390625 0.390625 0.390625 0.390625 0.390625 0.390625 0.390625 0.390625 0.390625 0.390624 0.390625 0.390625 0.390624 0.390625 0.390625 0.130209 0.260417 0.390625 0.390625 0.390625 0.390625 0.390625 0.390625 0.390625 0.390625 0.390625 0.390625 0.390625 0.390625 0.390625 0.390625 0.390625 0.390625 0.390625 0.390625 0.390626 0.390625 0.390625 0.390625 0.390625 0.390625 0.390625 0.390624 0.390625 0.390625 0.390624 0.390625 0.390625 0.130209 0.260417 0.390625 0.390625 0.390625 0.390625 0.390625 0.390625 0.390625 0.390625 0.390625 0.390625 0.390625 0.390625 0.390625 0.390625 0.390625 0.390625 0.390625 0.390625 0.390625 0.390625 0.390625 0.390625 0.390625 0.390625 0.390625 0.390624 0.390625 0.390625 0.390624 0.390625 0.390625 0.130209 0.0651042 0.130208 0.130208 0.130208 0.130208 0.130208 0.130208 0.130208 0.130208 0.130208 0.130208 0.130208 0.130208 0.130208 0.130208 0.130208 0.130209 0.130208 0.130208 0.130209 0.130208 0.130208 0.130208 0.130208 0.130208 0.130208 0.130208 0.130208 0.130209 0.130208 0.130208 0.130209 0.0651043 0.260417 0.390625 0.390625 0.390625 0.390625 0.390625 0.390625 0.390625 0.390625 0.390625 0.390625 0.390625 0.390625 0.390625 0.390625 0.390625 0.390625 0.390625 0.390625 0.390625 0.390625 0.390625 0.390625 0.390625 0.390625 0.390625 0.390624 0.390625 0.390625 0.390625 0.390625 0.390625 0.130209 0.390625 0.78125 0.78125 0.78125 0.78125 0.78125 0.78125 0.78125 0.78125 0.78125 0.78125 0.78125 0.78125 0.78125 0.78125 0.78125 0.78125 0.781251 0.78125 0.781251 0.78125 0.781251 0.78125 0.78125 0.78125 0.78125 0.781249 0.78125 0.781251 0.781249 0.781251 0.781251 0.390626 0.390625 0.78125 0.78125 0.78125 0.78125 0.78125 0.78125 0.78125 0.78125 0.78125 0.78125 0.78125 0.78125 0.78125 0.78125 0.78125 0.78125 0.781251 0.78125 0.781251 0.781251 0.781251 0.78125 0.78125 0.78125 0.78125 0.781249 0.78125 0.781251 0.781249 0.781251 0.781251 0.390626 0.390625 0.78125 0.78125 0.78125 0.78125 0.78125 0.78125 0.78125 0.78125 0.78125 0.78125 0.78125 0.78125 0.78125 0.78125 0.78125 0.78125 0.781251 0.78125 0.781251 0.78125 0.781251 0.78125 0.78125 0.78125 0.78125 0.781249 0.78125 0.781251 0.781249 0.781251 0.781251 0.390626 0.390625 0.78125 0.78125 0.78125 0.78125 0.78125 0.78125 0.78125 0.78125 0.78125 0.78125 0.78125 0.78125 0.78125 0.78125 0.78125 0.78125 0.78125 0.78125 0.781251 0.78125 0.781251 0.78125 0.78125 0.78125 0.78125 0.781249 0.78125 0.781251 0.781249 0.78125 0.78125 0.390626 0.390625 0.78125 0.78125 0.78125 0.78125 0.78125 0.78125 0.78125 0.78125 0.78125 0.78125 0.78125 0.78125 0.78125 0.78125 0.78125 0.781251 0.781251 0.78125 0.781251 0.781251 0.781251 0.78125 0.78125 0.78125 0.78125 0.781249 0.78125 0.781251 0.781249 0.781251 0.781251 0.390626 0.390625 0.78125 0.78125 0.78125 0.78125 0.78125 0.78125 0.78125 0.78125 0.78125 0.78125 0.781251 0.78125 0.78125 0.78125 0.78125 0.781251 0.781251 0.78125 0.781251 0.781251 0.781251 0.78125 0.78125 0.78125 0.78125 0.781249 0.78125 0.781251 0.781249 0.781251 0.781251 0.390626 0.390625 0.78125 0.78125 0.78125 0.78125 0.78125 0.78125 0.78125 0.78125 0.78125 0.78125 0.78125 0.78125 0.78125 0.78125 0.78125 0.78125 0.78125 0.78125 0.781251 0.78125 0.78125 0.78125 0.78125 0.78125 0.78125 0.781249 0.78125 0.78125 0.781249 0.78125 0.78125 0.390626 0.130208 0.390625 0.390625 0.390625 0.390625 0.390625 0.390625 0.390625 0.390625 0.390625 0.390625 0.390625 0.390625 0.390625 0.390625 0.390625 0.390625 0.390625 0.390625 0.390625 0.390625 0.390625 0.390625 0.390625 0.390625 0.390625 0.390625 0.390625 0.390626 0.390625 0.390625 0.390625 0.260417 0.260417 0.390625 0.390625 0.390625 0.390625 0.390625 0.390625 0.390625 0.390625 0.390625 0.390625 0.390625 0.390625 0.390625 0.390625 0.390625 0.390625 0.390625 0.390625 0.390626 0.390625 0.390625 0.390625 0.390625 0.390625 0.390625 0.390624 0.390625 0.390625 0.390625 0.390625 0.390625 0.130209 0.390625 0.78125 0.78125 0.78125 0.78125 0.78125 0.78125 0.78125 0.78125 0.78125 0.78125 0.781251 0.78125 0.78125 0.78125 0.78125 0.781251 0.781251 0.78125 0.781251 0.781251 0.781251 0.78125 0.781251 0.78125 0.78125 0.781249 0.78125 0.781251 0.78125 0.781251 0.781251 0.390626 0.390625 0.78125 0.78125 0.78125 0.78125 0.78125 0.78125 0.78125 0.78125 0.78125 0.78125 0.781251 0.78125 0.78125 0.78125 0.78125 0.781251 0.781251 0.78125 0.781251 0.781251 0.781251 0.78125 0.78125 0.78125 0.781251 0.78125 0.78125 0.781251 0.78125 0.781251 0.781251 0.390626 0.390625 0.78125 0.78125 0.78125 0.78125 0.78125 0.78125 0.78125 0.78125 0.78125 0.78125 0.781251 0.78125 0.78125 0.78125 0.78125 0.781251 0.781251 0.78125 0.781251 0.781251 0.781251 0.78125 0.78125 0.78125 0.78125 0.781249 0.78125 0.781251 0.78125 0.781251 0.781251 0.390626 0.390625 0.78125 0.78125 0.78125 0.78125 0.78125 0.78125 0.78125 0.78125 0.78125 0.78125 0.781251 0.78125 0.78125 0.78125 0.78125 0.781251 0.781251 0.78125 0.781251 0.781251 0.781251 0.78125 0.78125 0.78125 0.78125 0.781249 0.78125 0.781251 0.781249 0.781251 0.781251 0.390626 0.390625 0.78125 0.78125 0.78125 0.78125 0.78125 0.78125 0.78125 0.78125 0.78125 0.78125 0.781251 0.78125 0.78125 0.78125 0.78125 0.781251 0.781251 0.781251 0.781251 0.781251 0.781251 0.78125 0.781251 0.78125 0.781251 0.781249 0.78125 0.781251 0.78125 0.781251 0.781251 0.390626 0.390625 0.78125 0.78125 0.78125 0.78125 0.78125 0.78125 0.78125 0.78125 0.78125 0.78125 0.781251 0.78125 0.78125 0.78125 0.78125 0.781251 0.781251 0.781251 0.781251 0.781251 0.781251 0.78125 0.781251 0.78125 0.781251 0.78125 0.78125 0.781251 0.78125 0.781251 0.781251 0.390626 0.390625 0.78125 0.78125 0.78125 0.78125 0.78125 0.78125 0.78125 0.78125 0.78125 0.78125 0.781251 0.78125 0.78125 0.78125 0.78125 0.781251 0.781251 0.78125 0.781251 0.78125 0.781251 0.78125 0.78125 0.78125 0.78125 0.781249 0.78125 0.781251 0.781249 0.781251 0.781251 0.390626 0.130208 0.390625 0.390625 0.390625 0.390625 0.390625 0.390625 0.390625 0.390625 0.390625 0.390625 0.390625 0.390625 0.390625 0.390625 0.390625 0.390625 0.390625 0.390625 0.390626 0.390625 0.390625 0.390625 0.390625 0.390625 0.390625 0.390625 0.390625 0.390626 0.390625 0.390625 0.390626 0.260417 0.260417 0.390625 0.390625 0.390625 0.390625 0.390625 0.390625 0.390625 0.390625 0.390625 0.390625 0.390625 0.390625 0.390625 0.390625 0.390625 0.390625 0.390625 0.390625 0.390625 0.390625 0.390625 0.390625 0.390625 0.390625 0.390625 0.390624 0.390625 0.390625 0.390625 0.390625 0.390625 0.130209 0.390625 0.78125 0.78125 0.78125 0.78125 0.78125 0.78125 0.78125 0.78125 0.78125 0.78125 0.781251 0.78125 0.78125 0.78125 0.78125 0.781251 0.781251 0.78125 0.781251 0.781251 0.781251 0.78125 0.78125 0.78125 0.78125 0.781249 0.78125 0.781251 0.78125 0.781251 0.781251 0.390626 0.390625 0.78125 0.78125 0.78125 0.78125 0.78125 0.78125 0.78125 0.78125 0.78125 0.78125 0.781251 0.78125 0.78125 0.78125 0.78125 0.781251 0.781251 0.78125 0.781251 0.781251 0.781251 0.78125 0.78125 0.78125 0.78125 0.78125 0.78125 0.781251 0.78125 0.781251 0.781251 0.390626 0.390625 0.78125 0.78125 0.78125 0.78125 0.78125 0.78125 0.78125 0.78125 0.78125 0.78125 0.781251 0.78125 0.78125 0.78125 0.78125 0.781251 0.781251 0.78125 0.781251 0.781251 0.781251 0.78125 0.78125 0.78125 0.78125 0.781249 0.78125 0.781251 0.781249 0.781251 0.781251 0.390626 0.390625 0.78125 0.78125 0.78125 0.78125 0.78125 0.78125 0.78125 0.78125 0.78125 0.78125 0.781251 0.78125 0.78125 0.78125 0.78125 0.781251 0.781251 0.78125 0.781251 0.781251 0.781251 0.78125 0.78125 0.78125 0.78125 0.781249 0.78125 0.781251 0.781249 0.781251 0.781251 0.390626 0.390625 0.78125 0.78125 0.78125 0.78125 0.78125 0.78125 0.78125 0.78125 0.78125 0.78125 0.781251 0.78125 0.78125 0.78125 0.78125 0.781251 0.781251 0.781251 0.781251 0.781251 0.781251 0.78125 0.781251 0.78125 0.78125 0.78125 0.78125 0.781251 0.78125 0.781251 0.781251 0.390626 0.390625 0.78125 0.78125 0.78125 0.78125 0.78125 0.78125 0.78125 0.78125 0.78125 0.78125 0.781251 0.78125 0.78125 0.78125 0.78125 0.781251 0.781251 0.78125 0.781251 0.781251 0.781251 0.78125 0.781251 0.78125 0.78125 0.78125 0.78125 0.781251 0.78125 0.781251 0.781251 0.390626 0.390625 0.78125 0.78125 0.78125 0.78125 0.78125 0.78125 0.78125 0.78125 0.78125 0.78125 0.78125 0.78125 0.78125 0.78125 0.78125 0.78125 0.781251 0.78125 0.781251 0.78125 0.781251 0.78125 0.78125 0.78125 0.78125 0.781249 0.78125 0.781251 0.781249 0.781251 0.781251 0.390626 0.130208 0.390625 0.390625 0.390625 0.390625 0.390625 0.390625 0.390625 0.390625 0.390625 0.390625 0.390625 0.390625 0.390625 0.390625 0.390625 0.390625 0.390625 0.390625 0.390626 0.390625 0.390625 0.390625 0.390625 0.390625 0.390625 0.390625 0.390625 0.390626 0.390625 0.390625 0.390626 0.260417 0.260417 0.390625 0.390625 0.390625 0.390625 0.390625 0.390625 0.390625 0.390625 0.390625 0.390625 0.390625 0.390625 0.390625 0.390625 0.390625 0.390625 0.390625 0.390625 0.390625 0.390625 0.390625 0.390625 0.390625 0.390625 0.390625 0.390624 0.390625 0.390625 0.390625 0.390625 0.390625 0.130209 0.390625 0.78125 0.78125 0.78125 0.78125 0.78125 0.78125 0.78125 0.78125 0.78125 0.78125 0.78125 0.78125 0.78125 0.78125 0.78125 0.781251 0.781251 0.78125 0.781251 0.781251 0.781251 0.78125 0.78125 0.78125 0.78125 0.781249 0.78125 0.781251 0.781249 0.781251 0.781251 0.390626 0.390625 0.78125 0.78125 0.78125 0.78125 0.78125 0.78125 0.78125 0.78125 0.78125 0.78125 0.781251 0.78125 0.78125 0.78125 0.78125 0.781251 0.781251 0.78125 0.781251 0.781251 0.781251 0.78125 0.78125 0.78125 0.78125 0.781249 0.78125 0.781251 0.781249 0.781251 0.781251 0.390626 0.390625 0.78125 0.78125 0.78125 0.78125 0.78125 0.78125 0.78125 0.78125 0.78125 0.78125 0.781251 0.78125 0.78125 0.78125 0.78125 0.781251 0.781251 0.78125 0.781251 0.781251 0.781251 0.78125 0.78125 0.78125 0.78125 0.781249 0.78125 0.781251 0.781249 0.781251 0.781251 0.390626 0.390625 0.78125 0.78125 0.78125 0.78125 0.78125 0.78125 0.78125 0.78125 0.78125 0.78125 0.78125 0.78125 0.78125 0.78125 0.78125 0.78125 0.781251 0.78125 0.781251 0.78125 0.781251 0.78125 0.78125 0.78125 0.78125 0.781249 0.78125 0.781251 0.781249 0.781251 0.781251 0.390626 0.390625 0.78125 0.78125 0.78125 0.78125 0.78125 0.78125 0.78125 0.78125 0.78125 0.78125 0.781251 0.78125 0.78125 0.78125 0.78125 0.781251 0.781251 0.78125 0.781251 0.781251 0.781251 0.78125 0.781251 0.78125 0.78125 0.78125 0.78125 0.781251 0.781249 0.781251 0.781251 0.390626 0.390625 0.78125 0.78125 0.78125 0.78125 0.78125 0.78125 0.78125 0.78125 0.78125 0.78125 0.781251 0.78125 0.78125 0.78125 0.78125 0.781251 0.781251 0.781251 0.781251 0.781251 0.781251 0.78125 0.781251 0.78125 0.78125 0.781249 0.78125 0.781251 0.78125 0.781251 0.781251 0.390626 0.390625 0.78125 0.78125 0.78125 0.78125 0.78125 0.78125 0.78125 0.78125 0.78125 0.78125 0.78125 0.78125 0.78125 0.78125 0.78125 0.781251 0.781251 0.78125 0.781251 0.78125 0.781251 0.78125 0.78125 0.78125 0.78125 0.781249 0.78125 0.781251 0.781249 0.78125 0.781251 0.390626 0.130208 0.390625 0.390625 0.390625 0.390625 0.390625 0.390625 0.390625 0.390625 0.390625 0.390625 0.390625 0.390625 0.390625 0.390625 0.390625 0.390625 0.390625 0.390625 0.390625 0.390625 0.390625 0.390625 0.390625 0.390625 0.390625 0.390625 0.390625 0.390626 0.390625 0.390625 0.390625 0.260417 0.260417 0.390625 0.390625 0.390625 0.390625 0.390625 0.390625 0.390625 0.390625 0.390625 0.390625 0.390625 0.390625 0.390625 0.390625 0.390625 0.390625 0.390625 0.390625 0.390626 0.390626 0.390626 0.390625 0.390625 0.390625 0.390625 0.390625 0.390625 0.390625 0.390625 0.390625 0.390625 0.130209 0.390625 0.781251 0.781251 0.78125 0.781251 0.781251 0.781251 0.78125 0.78125 0.78125 0.781251 0.781251 0.781251 0.781251 0.78125 0.781251 0.781251 0.781251 0.781251 0.781251 0.781251 0.781251 0.78125 0.781251 0.78125 0.781251 0.78125 0.78125 0.781251 0.78125 0.781251 0.781251 0.390626 0.390625 0.781251 0.781251 0.781251 0.781251 0.781251 0.781251 0.78125 0.78125 0.78125 0.781251 0.781251 0.781251 0.781251 0.78125 0.781251 0.781251 0.781251 0.781251 0.781251 0.781251 0.781251 0.78125 0.781251 0.78125 0.781251 0.78125 0.78125 0.781251 0.78125 0.781251 0.781251 0.390626 0.390625 0.781251 0.781251 0.78125 0.78125 0.781251 0.781251 0.78125 0.78125 0.78125 0.781251 0.781251 0.781251 0.781251 0.78125 0.781251 0.781251 0.781251 0.781251 0.781252 0.781251 0.781251 0.78125 0.781251 0.78125 0.781251 0.78125 0.78125 0.781251 0.78125 0.781251 0.781251 0.390626 0.390625 0.781251 0.781251 0.78125 0.78125 0.78125 0.78125 0.78125 0.78125 0.78125 0.78125 0.781251 0.781251 0.781251 0.78125 0.781251 0.781251 0.781251 0.781251 0.781251 0.781251 0.781251 0.78125 0.781251 0.78125 0.781251 0.78125 0.78125 0.781251 0.78125 0.781251 0.781251 0.390626 0.390625 0.781251 0.781251 0.781251 0.781251 0.781251 0.781251 0.78125 0.78125 0.78125 0.781251 0.781251 0.781251 0.781251 0.78125 0.781251 0.781251 0.781251 0.781251 0.781252 0.781251 0.781251 0.78125 0.781251 0.78125 0.781251 0.78125 0.781251 0.781251 0.78125 0.781251 0.781251 0.390626 0.390625 0.781251 0.781251 0.781251 0.781251 0.781251 0.781251 0.781251 0.78125 0.78125 0.781251 0.781251 0.781251 0.781251 0.78125 0.781251 0.781251 0.781251 0.781251 0.781252 0.781251 0.781251 0.781251 0.781251 0.78125 0.781251 0.78125 0.781251 0.781251 0.78125 0.781251 0.781251 0.390626 0.390625 0.78125 0.78125 0.78125 0.78125 0.78125 0.781251 0.78125 0.78125 0.78125 0.78125 0.781251 0.78125 0.78125 0.78125 0.78125 0.781251 0.781251 0.781251 0.781251 0.781251 0.781251 0.78125 0.781251 0.78125 0.781251 0.78125 0.78125 0.781251 0.78125 0.781251 0.781251 0.390626 0.130208 0.390625 0.390625 0.390625 0.390625 0.390625 0.390625 0.390625 0.390625 0.390625 0.390625 0.390625 0.390625 0.390625 0.390625 0.390625 0.390626 0.390626 0.390625 0.390626 0.390625 0.390626 0.390625 0.390625 0.390625 0.390625 0.390625 0.390625 0.390626 0.390625 0.390625 0.390626 0.260417 0.260417 0.390625 0.390625 0.390625 0.390625 0.390625 0.390625 0.390625 0.390625 0.390625 0.390625 0.390625 0.390625 0.390625 0.390625 0.390625 0.390625 0.390625 0.390625 0.390625 0.390625 0.390625 0.390625 0.390625 0.390625 0.390625 0.390624 0.390625 0.390625 0.390625 0.390625 0.390625 0.130209 0.390625 0.78125 0.78125 0.78125 0.78125 0.78125 0.78125 0.78125 0.78125 0.78125 0.78125 0.78125 0.78125 0.78125 0.78125 0.78125 0.781251 0.781251 0.78125 0.781251 0.781251 0.781251 0.78125 0.78125 0.78125 0.78125 0.781249 0.78125 0.781251 0.781249 0.78125 0.781251 0.390626 0.390625 0.78125 0.78125 0.78125 0.78125 0.78125 0.78125 0.78125 0.78125 0.78125 0.78125 0.781251 0.78125 0.78125 0.78125 0.78125 0.781251 0.781251 0.78125 0.781251 0.781251 0.781251 0.78125 0.78125 0.78125 0.78125 0.781249 0.78125 0.781251 0.781249 0.781251 0.781251 0.390626 0.390625 0.78125 0.78125 0.78125 0.78125 0.78125 0.78125 0.78125 0.78125 0.78125 0.78125 0.781251 0.78125 0.78125 0.78125 0.78125 0.781251 0.781251 0.78125 0.781251 0.781251 0.781251 0.78125 0.78125 0.78125 0.78125 0.781249 0.78125 0.781251 0.781249 0.781251 0.781251 0.390626 0.390625 0.78125 0.78125 0.78125 0.78125 0.78125 0.78125 0.78125 0.78125 0.78125 0.78125 0.781251 0.78125 0.78125 0.78125 0.78125 0.781251 0.781251 0.78125 0.781251 0.781251 0.781251 0.78125 0.78125 0.78125 0.78125 0.781249 0.78125 0.781251 0.781249 0.78125 0.781251 0.390626 0.390625 0.78125 0.78125 0.78125 0.78125 0.78125 0.78125 0.78125 0.78125 0.78125 0.78125 0.781251 0.78125 0.78125 0.78125 0.78125 0.781251 0.781251 0.78125 0.781251 0.781251 0.781251 0.78125 0.781251 0.78125 0.78125 0.781249 0.78125 0.781251 0.781249 0.781251 0.781251 0.390626 0.390625 0.78125 0.78125 0.78125 0.78125 0.78125 0.78125 0.78125 0.78125 0.78125 0.78125 0.781251 0.78125 0.78125 0.78125 0.78125 0.781251 0.781251 0.78125 0.781251 0.781251 0.781251 0.78125 0.781251 0.78125 0.78125 0.781249 0.78125 0.781251 0.78125 0.781251 0.781251 0.390626 0.390625 0.78125 0.78125 0.78125 0.78125 0.78125 0.78125 0.78125 0.78125 0.78125 0.78125 0.781251 0.78125 0.78125 0.78125 0.78125 0.781251 0.781251 0.78125 0.781251 0.78125 0.781251 0.78125 0.78125 0.78125 0.78125 0.781249 0.78125 0.781251 0.781249 0.781251 0.781251 0.390626 0.130208 0.390625 0.390625 0.390625 0.390625 0.390625 0.390625 0.390625 0.390625 0.390625 0.390625 0.390625 0.390625 0.390625 0.390625 0.390625 0.390625 0.390625 0.390625 0.390626 0.390625 0.390625 0.390625 0.390625 0.390625 0.390625 0.390625 0.390625 0.390626 0.390625 0.390625 0.390626 0.260417 0.260417 0.390625 0.390625 0.390625 0.390625 0.390625 0.390625 0.390625 0.390625 0.390625 0.390625 0.390625 0.390625 0.390625 0.390625 0.390625 0.390625 0.390625 0.390625 0.390625 0.390625 0.390625 0.390625 0.390625 0.390625 0.390625 0.390624 0.390625 0.390625 0.390624 0.390625 0.390625 0.130209 0.390625 0.78125 0.78125 0.78125 0.78125 0.78125 0.78125 0.78125 0.78125 0.781249 0.78125 0.78125 0.78125 0.78125 0.78125 0.78125 0.78125 0.78125 0.78125 0.781251 0.78125 0.781251 0.78125 0.78125 0.78125 0.78125 0.781249 0.78125 0.78125 0.781249 0.78125 0.781251 0.390626 0.390625 0.78125 0.78125 0.78125 0.78125 0.78125 0.78125 0.78125 0.78125 0.78125 0.78125 0.78125 0.78125 0.78125 0.78125 0.78125 0.78125 0.781251 0.78125 0.781251 0.78125 0.781251 0.78125 0.78125 0.78125 0.78125 0.781249 0.78125 0.781251 0.781249 0.781251 0.781251 0.390626 0.390625 0.78125 0.78125 0.78125 0.78125 0.78125 0.78125 0.78125 0.78125 0.78125 0.78125 0.78125 0.78125 0.78125 0.78125 0.78125 0.78125 0.78125 0.78125 0.781251 0.78125 0.781251 0.78125 0.78125 0.78125 0.78125 0.781249 0.78125 0.781251 0.781249 0.78125 0.78125 0.390626 0.390625 0.78125 0.78125 0.78125 0.78125 0.78125 0.78125 0.78125 0.78125 0.781249 0.78125 0.78125 0.78125 0.78125 0.78125 0.78125 0.78125 0.78125 0.78125 0.781251 0.78125 0.78125 0.78125 0.78125 0.78125 0.78125 0.781249 0.78125 0.78125 0.781249 0.78125 0.781251 0.390626 0.390625 0.78125 0.78125 0.78125 0.78125 0.78125 0.78125 0.78125 0.78125 0.78125 0.78125 0.781251 0.78125 0.78125 0.78125 0.78125 0.781251 0.781251 0.78125 0.781251 0.78125 0.781251 0.78125 0.78125 0.78125 0.78125 0.781249 0.78125 0.781251 0.781249 0.781251 0.781251 0.390626 0.390625 0.78125 0.78125 0.78125 0.78125 0.78125 0.78125 0.78125 0.78125 0.78125 0.78125 0.78125 0.78125 0.78125 0.78125 0.78125 0.781251 0.781251 0.78125 0.781251 0.781251 0.781251 0.78125 0.78125 0.78125 0.78125 0.781249 0.78125 0.781251 0.781249 0.781251 0.781251 0.390626 0.390625 0.78125 0.78125 0.78125 0.78125 0.78125 0.78125 0.781249 0.781249 0.781249 0.78125 0.78125 0.78125 0.78125 0.781249 0.78125 0.78125 0.78125 0.78125 0.781251 0.78125 0.78125 0.78125 0.78125 0.781249 0.78125 0.781249 0.78125 0.78125 0.781249 0.78125 0.78125 0.390626 0.130208 0.390625 0.390625 0.390625 0.390625 0.390625 0.390625 0.390625 0.390625 0.390625 0.390625 0.390625 0.390625 0.390625 0.390625 0.390625 0.390625 0.390625 0.390625 0.390625 0.390625 0.390625 0.390625 0.390625 0.390625 0.390625 0.390625 0.390625 0.390626 0.390625 0.390625 0.390625 0.260417 0.0651041 0.130208 0.130208 0.130208 0.130208 0.130208 0.130208 0.130208 0.130208 0.130208 0.130208 0.130208 0.130208 0.130208 0.130208 0.130208 0.130208 0.130208 0.130208 0.130208 0.130208 0.130208 0.130208 0.130208 0.130208 0.130208 0.130208 0.130208 0.130208 0.130208 0.130208 0.130208 0.0651043 0.130208 0.390625 0.390625 0.390625 0.390625 0.390625 0.390625 0.390625 0.390625 0.390625 0.390625 0.390625 0.390625 0.390625 0.390625 0.390625 0.390625 0.390625 0.390625 0.390625 0.390625 0.390625 0.390625 0.390625 0.390625 0.390625 0.390625 0.390624 0.390626 0.390625 0.390625 0.390625 0.260417 0.130208 0.390625 0.390625 0.390625 0.390625 0.390625 0.390625 0.390625 0.390625 0.390625 0.390625 0.390625 0.390625 0.390625 0.390625 0.390625 0.390625 0.390625 0.390625 0.390625 0.390625 0.390625 0.390625 0.390625 0.390625 0.390625 0.390625 0.390625 0.390626 0.390625 0.390625 0.390625 0.260417 0.130208 0.390625 0.390625 0.390625 0.390625 0.390625 0.390625 0.390625 0.390625 0.390625 0.390625 0.390625 0.390625 0.390625 0.390625 0.390625 0.390625 0.390625 0.390625 0.390625 0.390625 0.390625 0.390625 0.390625 0.390625 0.390625 0.390625 0.390625 0.390626 0.390625 0.390625 0.390625 0.260417 0.130208 0.390625 0.390625 0.390625 0.390625 0.390625 0.390625 0.390625 0.390625 0.390625 0.390625 0.390625 0.390625 0.390625 0.390625 0.390625 0.390625 0.390625 0.390625 0.390625 0.390625 0.390625 0.390625 0.390625 0.390625 0.390625 0.390625 0.390624 0.390626 0.390625 0.390625 0.390625 0.260417 0.130208 0.390625 0.390625 0.390625 0.390625 0.390625 0.390625 0.390625 0.390625 0.390625 0.390625 0.390625 0.390625 0.390625 0.390625 0.390625 0.390625 0.390625 0.390625 0.390625 0.390625 0.390625 0.390625 0.390625 0.390625 0.390625 0.390625 0.390625 0.390626 0.390625 0.390625 0.390625 0.260417 0.130208 0.390625 0.390625 0.390625 0.390625 0.390625 0.390625 0.390625 0.390625 0.390625 0.390625 0.390625 0.390625 0.390625 0.390625 0.390625 0.390625 0.390625 0.390625 0.390626 0.390625 0.390625 0.390625 0.390625 0.390625 0.390625 0.390625 0.390625 0.390626 0.390625 0.390625 0.390625 0.260417 0.130208 0.390625 0.390625 0.390625 0.390625 0.390625 0.390625 0.390625 0.390625 0.390625 0.390625 0.390625 0.390625 0.390625 0.390625 0.390625 0.390625 0.390625 0.390625 0.390625 0.390625 0.390625 0.390625 0.390625 0.390625 0.390625 0.390625 0.390624 0.390625 0.390625 0.390625 0.390625 0.260417 0.0651041 0.260417 0.260416 0.260417 0.260416 0.260416 0.260416 0.260416 0.260416 0.260416 0.260416 0.260417 0.260417 0.260416 0.260416 0.260416 0.260417 0.260417 0.260417 0.260417 0.260417 0.260417 0.260416 0.260416 0.260417 0.260416 0.260417 0.260416 0.260417 0.260416 0.260417 0.260417 0.195313 0.0651042 0.130208 0.195312 0.0651042 0.0976563 0.195312 0.130208 0.195312 0.0976562 0.0651041 0.0651041 0.0976562 0.0651041 0.195312 0.0976562 0.0976562 0.0651041 0.130208 0.0976563 0.130208 0.195312 0.0651042 0.0976562 0.195312 0.130208 0.195312 0.0976562 0.0651041 0.195312 0.0976562 0.0651041 0.130208 0.0976563 0.130208 0.195312 0.0651042 0.0976563 0.195312 0.130208 0.195312 0.0976562 0.0651041 0.195313 0.0976562 0.0651042 0.130208 0.0976562 0.130208 0.195312 0.0651042 0.0976562 0.195312 0.130208 0.195312 0.0976562 0.0651041 0.195312 0.0976562 0.0651041 0.130208 0.0976563 0.130208 0.195312 0.0651042 0.0976562 0.195312 0.130208 0.195312 0.0976562 0.0651041 0.195312 0.0976562 0.0651041 0.130208 0.0976562 0.130208 0.195312 0.0651042 0.0976563 0.195312 0.130208 0.195312 0.0976563 0.0651042 0.195313 0.0976562 0.0651042 0.130208 0.0976562 0.130208 0.195312 0.0651042 0.0976562 0.195312 0.130208 0.195312 0.0976562 0.0651041 0.195312 0.0976561 0.0651041 0.130208 0.0976562 0.130208 0.195312 0.0651042 0.0976563 0.195312 0.130208 0.195312 0.0976562 0.0651041 0.195312 0.0976562 0.0651041 0.130208 0.0976563 0.130208 0.195312 0.0651041 0.0976562 0.195312 0.130208 0.195312 0.0976561 0.0651041 0.195312 0.0976562 0.0651041 0.130208 0.0976562 0.130208 0.195312 0.0651041 0.0976562 0.195312 0.130208 0.195312 0.0976562 0.0651041 0.195312 0.0976562 0.0651041 0.130208 0.0976563 0.130208 0.195313 0.0651042 0.0976563 0.195313 0.130208 0.195313 0.0976563 0.0651042 0.195313 0.0976562 0.0651042 0.130208 0.0976563 0.130208 0.195313 0.0651042 0.0976563 0.195312 0.130208 0.195312 0.0976562 0.0651041 0.195313 0.0976562 0.0651041 0.130208 0.0976562 0.130208 0.195312 0.0651042 0.0976563 0.195313 0.130208 0.195312 0.0976563 0.0651042 0.195312 0.0976563 0.0651042 0.130208 0.0976563 0.130208 0.195312 0.0651042 0.0976562 0.195312 0.130208 0.195312 0.0976563 0.0651042 0.195312 0.0976562 0.0651041 0.130208 0.0976562 0.130208 0.195312 0.0651041 0.0976562 0.195312 0.130208 0.195313 0.0976562 0.0651041 0.195312 0.0976562 0.0651041 0.130208 0.0976564 0.130208 0.195313 0.0651042 0.0976563 0.195313 0.130208 0.195313 0.0976562 0.0651041 0.195313 0.0976562 0.0651041 0.130208 0.0976563 0.130208 0.195313 0.0651042 0.0976563 0.195313 0.130208 0.195313 0.0976563 0.0651042 0.195313 0.0976563 0.0651042 0.130208 0.0976563 0.130208 0.195312 0.0651041 0.0976562 0.195312 0.130208 0.195312 0.0976562 0.0651041 0.195313 0.0976562 0.065104 0.130208 0.0976562 0.130208 0.195313 0.0651042 0.0976563 0.195313 0.130208 0.195313 0.0976563 0.0651042 0.195313 0.0976564 0.0651042 0.130209 0.0976565 0.130208 0.195313 0.0651041 0.0976561 0.195313 0.130208 0.195312 0.0976561 0.0651041 0.195313 0.0976563 0.065104 0.130208 0.0976562 0.130208 0.195313 0.0651042 0.0976564 0.195313 0.130209 0.195313 0.0976564 0.0651043 0.195313 0.0976563 0.0651043 0.130208 0.0976563 0.130208 0.195312 0.0651041 0.0976562 0.195312 0.130208 0.195312 0.0976562 0.0651042 0.195312 0.0976562 0.0651041 0.130208 0.0976562 0.130208 0.195312 0.0651042 0.0976563 0.195313 0.130208 0.195313 0.0976563 0.0651042 0.195312 0.0976563 0.0651041 0.130208 0.0976563 0.130208 0.195313 0.0651042 0.0976563 0.195312 0.130208 0.195312 0.0976563 0.0651042 0.195313 0.0976562 0.0651041 0.130208 0.0976561 0.130208 0.195312 0.065104 0.0976561 0.195312 0.130208 0.195313 0.0976561 0.0651041 0.195312 0.0976562 0.065104 0.130208 0.0976564 0.130209 0.195313 0.0651042 0.0976562 0.195312 0.130208 0.195312 0.0976562 0.0651041 0.195313 0.097656 0.0651041 0.130208 0.0976561 0.130208 0.195312 0.065104 0.097656 0.195312 0.130208 0.195312 0.097656 0.065104 0.195312 0.0976562 0.065104 0.130208 0.0976564 0.130209 0.195313 0.0651043 0.0976564 0.195313 0.130209 0.195313 0.0976564 0.0651043 0.195313 0.0976563 0.0651042 0.130208 0.0976564 0.130208 0.195312 0.065104 0.0976558 0.195312 0.130208 0.195312 0.0976558 0.0651039 0.195312 0.0976562 0.0651037 0.130208 0.0976561 0.130208 0.195312 0.0651041 0.097656 0.195313 0.130208 0.195313 0.097656 0.0651041 0.195312 0.0976563 0.0651039 0.130208 0.0976563 0.130209 0.195313 0.0651042 0.0976562 0.195312 0.130209 0.195313 0.0976562 0.0651042 0.195313 0.0976561 0.065104 0.130208 0.0976564 0.130209 0.195313 0.0651044 0.0976565 0.0976565 0.130208 0.0976564 0.0976564 0.0651042 0.195313 0.0325522 0.0651044 0.0651044 0.0325522 0.0651042 0.130208 0.195312 0.0651042 0.0976562 0.195312 0.130208 0.195312 0.0976562 0.0651042 0.195312 0.0976562 0.130208 0.0976563 0.130208 0.195312 0.0651042 0.0976562 0.195312 0.130208 0.195312 0.195312 0.130208 0.0976563 0.130208 0.195312 0.0651042 0.0976563 0.195312 0.130208 0.195312 0.195312 0.130208 0.0976562 0.130208 0.195312 0.0651042 0.0976562 0.195312 0.130208 0.195312 0.195312 0.130208 0.0976563 0.130208 0.195312 0.0651042 0.0976562 0.195312 0.130208 0.195312 0.195312 0.130208 0.0976562 0.130208 0.195313 0.0651042 0.0976563 0.195312 0.130208 0.195312 0.195313 0.130208 0.0976562 0.130208 0.195312 0.0651042 0.0976562 0.195312 0.130208 0.195312 0.195312 0.130208 0.0976562 0.130208 0.195312 0.0651042 0.0976562 0.195312 0.130208 0.195312 0.195312 0.130208 0.0976563 0.130208 0.195312 0.0651041 0.0976562 0.195312 0.130208 0.195312 0.195312 0.130208 0.0976562 0.130208 0.195312 0.0651042 0.0976562 0.195312 0.130208 0.195312 0.195312 0.130208 0.0976563 0.130208 0.195313 0.0651042 0.0976563 0.195313 0.130208 0.195313 0.195313 0.130208 0.0976564 0.130208 0.195313 0.0651042 0.0976563 0.195312 0.130208 0.195312 0.195313 0.130208 0.0976562 0.130208 0.195312 0.0651042 0.0976563 0.195313 0.130208 0.195312 0.195312 0.130208 0.0976563 0.130208 0.195312 0.0651042 0.0976562 0.195312 0.130208 0.195312 0.195312 0.130208 0.0976562 0.130208 0.195312 0.0651041 0.0976562 0.195312 0.130208 0.195313 0.195312 0.130208 0.0976564 0.130208 0.195313 0.0651042 0.0976563 0.195313 0.130208 0.195313 0.195313 0.130208 0.0976564 0.130208 0.195313 0.0651042 0.0976563 0.195313 0.130208 0.195313 0.195313 0.130208 0.0976563 0.130208 0.195313 0.0651041 0.0976561 0.195312 0.130208 0.195312 0.195313 0.130208 0.0976562 0.130208 0.195313 0.0651042 0.0976563 0.195313 0.130208 0.195313 0.195313 0.130209 0.0976565 0.130208 0.195313 0.0651041 0.0976561 0.195313 0.130208 0.195312 0.195313 0.130208 0.0976562 0.130208 0.195313 0.0651042 0.0976564 0.195313 0.130209 0.195313 0.195313 0.130208 0.0976563 0.130208 0.195312 0.0651041 0.0976562 0.195312 0.130208 0.195312 0.195312 0.130208 0.0976562 0.130208 0.195312 0.0651042 0.0976563 0.195313 0.130208 0.195313 0.195312 0.130208 0.0976563 0.130208 0.195313 0.0651042 0.0976563 0.195312 0.130208 0.195312 0.195313 0.130208 0.0976561 0.130208 0.195312 0.065104 0.0976561 0.195312 0.130208 0.195313 0.195312 0.130208 0.0976564 0.130209 0.195313 0.0651042 0.0976562 0.195312 0.130208 0.195312 0.195313 0.130208 0.0976561 0.130208 0.195312 0.065104 0.097656 0.195312 0.130208 0.195313 0.195312 0.130208 0.0976564 0.130209 0.195313 0.0651043 0.0976564 0.195313 0.130209 0.195313 0.195313 0.130208 0.0976564 0.130208 0.195312 0.065104 0.0976558 0.195312 0.130208 0.195312 0.195312 0.130208 0.0976561 0.130208 0.195312 0.0651041 0.097656 0.195313 0.130208 0.195313 0.195312 0.130208 0.0976563 0.130209 0.195313 0.0651042 0.0976562 0.195312 0.130209 0.195313 0.195313 0.130208 0.0976564 0.130209 0.195313 0.0651044 0.0976565 0.0976565 0.130208 0.0976564 0.195313 0.0651044 0.0325522 0.0651042 0.130208 0.195312 0.0651042 0.0976562 0.195312 0.130208 0.195313 0.0976562 0.0651042 0.195312 0.0976563 0.130208 0.0976563 0.130208 0.195312 0.0651042 0.0976562 0.195312 0.130208 0.195312 0.195312 0.130208 0.0976563 0.130208 0.195312 0.0651042 0.0976562 0.195312 0.130208 0.195312 0.195313 0.130208 0.0976563 0.130208 0.195312 0.0651042 0.0976562 0.195312 0.130208 0.195312 0.195312 0.130208 0.0976563 0.130208 0.195312 0.0651042 0.0976562 0.195312 0.130208 0.195312 0.195312 0.130208 0.0976563 0.130208 0.195312 0.0651042 0.0976562 0.195312 0.130208 0.195313 0.195313 0.130208 0.0976562 0.130208 0.195312 0.0651042 0.0976562 0.195312 0.130208 0.195312 0.195312 0.130208 0.0976563 0.130208 0.195312 0.0651042 0.0976562 0.195312 0.130208 0.195312 0.195312 0.130208 0.0976563 0.130208 0.195312 0.0651041 0.0976562 0.195312 0.130208 0.195312 0.195312 0.130208 0.0976562 0.130208 0.195312 0.0651042 0.0976562 0.195312 0.130208 0.195313 0.195312 0.130208 0.0976563 0.130208 0.195313 0.0651042 0.0976563 0.195313 0.130208 0.195313 0.195313 0.130208 0.0976564 0.130208 0.195313 0.0651042 0.0976563 0.195312 0.130208 0.195312 0.195313 0.130208 0.0976562 0.130208 0.195312 0.0651042 0.0976563 0.195313 0.130208 0.195313 0.195312 0.130208 0.0976563 0.130208 0.195313 0.0651042 0.0976562 0.195312 0.130208 0.195312 0.195312 0.130208 0.0976562 0.130208 0.195312 0.0651041 0.0976562 0.195312 0.130208 0.195313 0.195312 0.130208 0.0976564 0.130208 0.195313 0.0651042 0.0976563 0.195313 0.130208 0.195313 0.195313 0.130208 0.0976564 0.130208 0.195313 0.0651042 0.0976563 0.195313 0.130208 0.195313 0.195313 0.130208 0.0976563 0.130208 0.195313 0.0651041 0.0976561 0.195312 0.130208 0.195312 0.195313 0.130208 0.0976562 0.130208 0.195313 0.0651042 0.0976563 0.195313 0.130208 0.195313 0.195313 0.130209 0.0976565 0.130209 0.195313 0.0651041 0.0976561 0.195313 0.130208 0.195312 0.195313 0.130208 0.0976562 0.130208 0.195313 0.0651042 0.0976564 0.195313 0.130209 0.195313 0.195313 0.130208 0.0976564 0.130208 0.195313 0.0651041 0.0976562 0.195312 0.130208 0.195312 0.195313 0.130208 0.0976562 0.130208 0.195312 0.0651042 0.0976563 0.195313 0.130208 0.195313 0.195312 0.130208 0.0976563 0.130208 0.195313 0.0651042 0.0976563 0.195312 0.130208 0.195312 0.195313 0.130208 0.0976561 0.130208 0.195312 0.065104 0.097656 0.195312 0.130208 0.195313 0.195312 0.130208 0.0976564 0.130209 0.195313 0.0651042 0.0976562 0.195312 0.130208 0.195312 0.195313 0.130208 0.0976561 0.130208 0.195312 0.065104 0.097656 0.195312 0.130208 0.195313 0.195312 0.130208 0.0976564 0.130209 0.195313 0.0651043 0.0976564 0.195313 0.130209 0.195313 0.195313 0.130208 0.0976564 0.130208 0.195312 0.065104 0.0976558 0.195312 0.130208 0.195312 0.195312 0.130208 0.0976561 0.130208 0.195313 0.0651041 0.097656 0.195313 0.130208 0.195313 0.195313 0.130208 0.0976563 0.130209 0.195313 0.0651042 0.0976562 0.195312 0.130209 0.195313 0.195313 0.130208 0.0976564 0.130209 0.195313 0.0651044 0.0976565 0.0976565 0.130208 0.0976564 0.195313 0.0651044 0.0325522 0.0651042 0.130208 0.195312 0.0651041 0.0976562 0.195312 0.130208 0.195312 0.0976562 0.0651041 0.195312 0.0976562 0.130208 0.0976562 0.130208 0.195312 0.0651041 0.0976562 0.195312 0.130208 0.195312 0.195312 0.130208 0.0976562 0.130208 0.195312 0.0651042 0.0976563 0.195312 0.130208 0.195312 0.195312 0.130208 0.0976562 0.130208 0.195312 0.0651041 0.0976562 0.195312 0.130208 0.195312 0.195312 0.130208 0.0976562 0.130208 0.195312 0.0651041 0.0976562 0.195312 0.130208 0.195312 0.195312 0.130208 0.0976562 0.130208 0.195312 0.0651042 0.0976563 0.195312 0.130208 0.195312 0.195313 0.130208 0.0976562 0.130208 0.195312 0.0651041 0.0976562 0.195312 0.130208 0.195312 0.195312 0.130208 0.0976562 0.130208 0.195312 0.0651042 0.0976562 0.195312 0.130208 0.195312 0.195312 0.130208 0.0976562 0.130208 0.195312 0.0651041 0.0976562 0.195312 0.130208 0.195312 0.195312 0.130208 0.0976562 0.130208 0.195312 0.0651041 0.0976562 0.195312 0.130208 0.195312 0.195312 0.130208 0.0976562 0.130208 0.195313 0.0651042 0.0976563 0.195313 0.130208 0.195313 0.195313 0.130208 0.0976563 0.130208 0.195312 0.0651042 0.0976563 0.195312 0.130208 0.195312 0.195313 0.130208 0.0976562 0.130208 0.195312 0.0651041 0.0976563 0.195312 0.130208 0.195312 0.195312 0.130208 0.0976562 0.130208 0.195312 0.0651041 0.0976562 0.195312 0.130208 0.195312 0.195312 0.130208 0.0976562 0.130208 0.195312 0.0651041 0.0976562 0.195312 0.130208 0.195313 0.195312 0.130208 0.0976563 0.130208 0.195313 0.0651042 0.0976563 0.195313 0.130208 0.195313 0.195313 0.130208 0.0976563 0.130208 0.195313 0.0651042 0.0976563 0.195313 0.130208 0.195313 0.195313 0.130208 0.0976563 0.130208 0.195312 0.0651041 0.0976562 0.195312 0.130208 0.195312 0.195312 0.130208 0.0976562 0.130208 0.195313 0.0651042 0.0976563 0.195313 0.130208 0.195313 0.195313 0.130209 0.0976565 0.130208 0.195313 0.0651041 0.0976561 0.195312 0.130208 0.195312 0.195313 0.130208 0.0976562 0.130208 0.195313 0.0651042 0.0976564 0.195313 0.130209 0.195313 0.195313 0.130208 0.0976563 0.130208 0.195312 0.0651041 0.0976562 0.195312 0.130208 0.195312 0.195312 0.130208 0.0976562 0.130208 0.195312 0.0651042 0.0976563 0.195313 0.130208 0.195313 0.195312 0.130208 0.0976563 0.130208 0.195312 0.0651042 0.0976563 0.195312 0.130208 0.195312 0.195313 0.130208 0.0976561 0.130208 0.195312 0.065104 0.0976561 0.195312 0.130208 0.195313 0.195312 0.130208 0.0976564 0.130209 0.195313 0.0651042 0.0976562 0.195312 0.130208 0.195312 0.195313 0.130208 0.0976561 0.130208 0.195312 0.065104 0.097656 0.195312 0.130208 0.195312 0.195312 0.130208 0.0976564 0.130209 0.195313 0.0651043 0.0976564 0.195313 0.130209 0.195313 0.195313 0.130208 0.0976563 0.130208 0.195312 0.065104 0.0976558 0.195312 0.130208 0.195312 0.195312 0.130208 0.0976561 0.130208 0.195312 0.0651041 0.097656 0.195313 0.130208 0.195313 0.195312 0.130208 0.0976563 0.130209 0.195313 0.0651041 0.0976562 0.195312 0.130209 0.195313 0.195313 0.130208 0.0976563 0.130209 0.195313 0.0651043 0.0976565 0.0976565 0.130208 0.0976564 0.195313 0.0651044 0.0325522 0.0651042 0.130208 0.195312 0.0651042 0.0976563 0.195312 0.130208 0.195312 0.0976562 0.0651041 0.195312 0.0976562 0.130208 0.0976563 0.130208 0.195312 0.0651042 0.0976563 0.195312 0.130208 0.195312 0.195312 0.130208 0.0976563 0.130208 0.195312 0.0651042 0.0976563 0.195312 0.130208 0.195312 0.195312 0.130208 0.0976562 0.130208 0.195312 0.0651042 0.0976562 0.195312 0.130208 0.195312 0.195312 0.130208 0.0976563 0.130208 0.195312 0.0651042 0.0976563 0.195312 0.130208 0.195312 0.195312 0.130208 0.0976563 0.130208 0.195312 0.0651042 0.0976563 0.195312 0.130208 0.195312 0.195313 0.130208 0.0976562 0.130208 0.195312 0.0651042 0.0976563 0.195312 0.130208 0.195312 0.195312 0.130208 0.0976562 0.130208 0.195312 0.0651042 0.0976563 0.195312 0.130208 0.195312 0.195312 0.130208 0.0976563 0.130208 0.195312 0.0651041 0.0976562 0.195312 0.130208 0.195312 0.195312 0.130208 0.0976562 0.130208 0.195312 0.0651041 0.0976562 0.195312 0.130208 0.195312 0.195312 0.130208 0.0976563 0.130208 0.195313 0.0651042 0.0976563 0.195313 0.130208 0.195313 0.195313 0.130208 0.0976564 0.130208 0.195313 0.0651042 0.0976563 0.195312 0.130208 0.195312 0.195313 0.130208 0.0976562 0.130208 0.195312 0.0651042 0.0976563 0.195313 0.130208 0.195312 0.195312 0.130208 0.0976563 0.130208 0.195312 0.0651042 0.0976563 0.195312 0.130208 0.195312 0.195313 0.130208 0.0976562 0.130208 0.195312 0.0651041 0.0976562 0.195312 0.130208 0.195313 0.195312 0.130208 0.0976564 0.130208 0.195313 0.0651042 0.0976563 0.195313 0.130208 0.195313 0.195313 0.130208 0.0976564 0.130209 0.195313 0.0651042 0.0976563 0.195313 0.130208 0.195313 0.195313 0.130208 0.0976563 0.130208 0.195313 0.0651041 0.0976562 0.195312 0.130208 0.195312 0.195313 0.130208 0.0976562 0.130208 0.195313 0.0651042 0.0976563 0.195313 0.130208 0.195313 0.195313 0.130209 0.0976565 0.130208 0.195313 0.0651041 0.0976561 0.195313 0.130208 0.195312 0.195313 0.130208 0.0976562 0.130208 0.195313 0.0651042 0.0976564 0.195313 0.130209 0.195313 0.195313 0.130208 0.0976563 0.130208 0.195312 0.0651041 0.0976562 0.195312 0.130208 0.195312 0.195312 0.130208 0.0976562 0.130208 0.195312 0.0651042 0.0976563 0.195313 0.130208 0.195313 0.195312 0.130208 0.0976563 0.130208 0.195313 0.0651042 0.0976563 0.195312 0.130208 0.195312 0.195313 0.130208 0.0976561 0.130208 0.195312 0.065104 0.0976561 0.195313 0.130208 0.195313 0.195312 0.130208 0.0976564 0.130209 0.195313 0.0651042 0.0976563 0.195312 0.130208 0.195312 0.195313 0.130208 0.0976561 0.130208 0.195312 0.065104 0.0976561 0.195312 0.130208 0.195312 0.195312 0.130208 0.0976564 0.130209 0.195313 0.0651043 0.0976564 0.195313 0.130209 0.195313 0.195313 0.130208 0.0976564 0.130208 0.195312 0.065104 0.0976558 0.195312 0.130208 0.195312 0.195312 0.130208 0.0976561 0.130208 0.195312 0.0651041 0.097656 0.195313 0.130208 0.195313 0.195313 0.130208 0.0976563 0.130209 0.195313 0.0651042 0.0976562 0.195312 0.130209 0.195313 0.195313 0.130208 0.0976564 0.130209 0.195313 0.0651044 0.0976565 0.0976565 0.130208 0.0976564 0.195313 0.0651044 0.0325522 0.0651042 0.130208 0.195313 0.0651042 0.0976563 0.195312 0.130208 0.195313 0.0976562 0.0651042 0.195313 0.0976563 0.130208 0.0976563 0.130208 0.195313 0.0651042 0.0976563 0.195312 0.130208 0.195313 0.195313 0.130208 0.0976563 0.130208 0.195313 0.0651042 0.0976563 0.195312 0.130208 0.195313 0.195313 0.130208 0.0976563 0.130208 0.195312 0.0651042 0.0976563 0.195312 0.130208 0.195313 0.195313 0.130208 0.0976563 0.130208 0.195313 0.0651042 0.0976562 0.195312 0.130208 0.195313 0.195312 0.130208 0.0976563 0.130208 0.195313 0.0651042 0.0976563 0.195312 0.130208 0.195313 0.195313 0.130208 0.0976563 0.130208 0.195312 0.0651042 0.0976563 0.195312 0.130208 0.195312 0.195312 0.130208 0.0976563 0.130208 0.195312 0.0651042 0.0976563 0.195312 0.130208 0.195313 0.195312 0.130208 0.0976563 0.130208 0.195312 0.0651042 0.0976562 0.195312 0.130208 0.195312 0.195312 0.130208 0.0976563 0.130208 0.195312 0.0651042 0.0976562 0.195312 0.130208 0.195313 0.195312 0.130208 0.0976563 0.130208 0.195313 0.0651042 0.0976563 0.195313 0.130208 0.195313 0.195313 0.130208 0.0976564 0.130208 0.195313 0.0651042 0.0976563 0.195312 0.130208 0.195312 0.195313 0.130208 0.0976563 0.130208 0.195313 0.0651042 0.0976563 0.195313 0.130208 0.195313 0.195313 0.130208 0.0976563 0.130208 0.195313 0.0651042 0.0976563 0.195312 0.130208 0.195312 0.195313 0.130208 0.0976562 0.130208 0.195312 0.0651042 0.0976562 0.195312 0.130208 0.195313 0.195312 0.130208 0.0976564 0.130208 0.195313 0.0651043 0.0976563 0.195313 0.130208 0.195313 0.195313 0.130208 0.0976564 0.130209 0.195313 0.0651043 0.0976564 0.195313 0.130208 0.195313 0.195313 0.130208 0.0976564 0.130208 0.195313 0.0651041 0.0976562 0.195312 0.130208 0.195313 0.195313 0.130208 0.0976562 0.130208 0.195313 0.0651042 0.0976564 0.195313 0.130208 0.195313 0.195313 0.130209 0.0976565 0.130209 0.195313 0.0651042 0.0976562 0.195313 0.130208 0.195313 0.195313 0.130208 0.0976562 0.130208 0.195313 0.0651043 0.0976564 0.195313 0.130209 0.195313 0.195313 0.130208 0.0976564 0.130208 0.195313 0.0651041 0.0976562 0.195312 0.130208 0.195313 0.195313 0.130208 0.0976562 0.130208 0.195313 0.0651042 0.0976563 0.195313 0.130208 0.195313 0.195313 0.130208 0.0976563 0.130208 0.195313 0.0651042 0.0976563 0.195312 0.130208 0.195312 0.195313 0.130208 0.0976562 0.130208 0.195312 0.0651041 0.0976561 0.195312 0.130208 0.195313 0.195312 0.130208 0.0976564 0.130209 0.195313 0.0651042 0.0976563 0.195312 0.130208 0.195312 0.195313 0.130208 0.0976561 0.130208 0.195312 0.0651041 0.0976561 0.195312 0.130208 0.195313 0.195312 0.130208 0.0976564 0.130209 0.195313 0.0651043 0.0976565 0.195313 0.130209 0.195313 0.195313 0.130209 0.0976564 0.130208 0.195312 0.065104 0.0976558 0.195312 0.130208 0.195312 0.195312 0.130208 0.0976561 0.130208 0.195313 0.0651041 0.097656 0.195313 0.130208 0.195313 0.195313 0.130208 0.0976563 0.130209 0.195313 0.0651042 0.0976562 0.195312 0.130209 0.195313 0.195313 0.130208 0.0976564 0.130209 0.195313 0.0651044 0.0976566 0.0976566 0.130208 0.0976565 0.195313 0.0651044 0.0325522 0.0651042 0.130208 0.195312 0.0651042 0.0976562 0.195312 0.130208 0.195312 0.0976562 0.0651042 0.195312 0.0976563 0.130208 0.0976563 0.130208 0.195312 0.0651042 0.0976562 0.195312 0.130208 0.195312 0.195312 0.130208 0.0976563 0.130208 0.195313 0.0651042 0.0976562 0.195312 0.130208 0.195313 0.195312 0.130208 0.0976563 0.130208 0.195312 0.0651042 0.0976562 0.195312 0.130208 0.195312 0.195312 0.130208 0.0976563 0.130208 0.195312 0.0651042 0.0976562 0.195312 0.130208 0.195312 0.195312 0.130208 0.0976563 0.130208 0.195313 0.0651042 0.0976562 0.195312 0.130208 0.195312 0.195312 0.130208 0.0976563 0.130208 0.195312 0.0651042 0.0976562 0.195312 0.130208 0.195312 0.195312 0.130208 0.0976563 0.130208 0.195312 0.0651042 0.0976562 0.195312 0.130208 0.195312 0.195312 0.130208 0.0976563 0.130208 0.195312 0.0651041 0.0976561 0.195312 0.130208 0.195312 0.195312 0.130208 0.0976563 0.130208 0.195312 0.0651042 0.0976562 0.195312 0.130208 0.195312 0.195312 0.130208 0.0976563 0.130208 0.195313 0.0651042 0.0976563 0.195313 0.130208 0.195313 0.195313 0.130208 0.0976564 0.130208 0.195313 0.0651042 0.0976562 0.195312 0.130208 0.195312 0.195313 0.130208 0.0976563 0.130208 0.195312 0.0651042 0.0976562 0.195312 0.130208 0.195313 0.195312 0.130208 0.0976563 0.130208 0.195312 0.0651042 0.0976562 0.195312 0.130208 0.195312 0.195312 0.130208 0.0976562 0.130208 0.195312 0.0651042 0.0976562 0.195312 0.130208 0.195313 0.195312 0.130208 0.0976564 0.130208 0.195313 0.0651043 0.0976563 0.195313 0.130208 0.195313 0.195313 0.130208 0.0976564 0.130208 0.195313 0.0651042 0.0976563 0.195313 0.130208 0.195313 0.195313 0.130208 0.0976564 0.130208 0.195313 0.0651041 0.0976561 0.195312 0.130208 0.195312 0.195312 0.130208 0.0976562 0.130208 0.195313 0.0651042 0.0976563 0.195313 0.130208 0.195313 0.195313 0.130209 0.0976565 0.130208 0.195313 0.0651042 0.0976561 0.195312 0.130208 0.195312 0.195313 0.130208 0.0976562 0.130208 0.195313 0.0651043 0.0976563 0.195313 0.130209 0.195313 0.195313 0.130208 0.0976564 0.130208 0.195312 0.0651041 0.0976561 0.195312 0.130208 0.195313 0.195312 0.130208 0.0976562 0.130208 0.195312 0.0651042 0.0976562 0.195313 0.130208 0.195313 0.195312 0.130208 0.0976563 0.130208 0.195313 0.0651042 0.0976562 0.195312 0.130208 0.195312 0.195313 0.130208 0.0976562 0.130208 0.195312 0.0651041 0.097656 0.195312 0.130208 0.195313 0.195312 0.130208 0.0976564 0.130209 0.195313 0.0651042 0.0976562 0.195312 0.130208 0.195312 0.195313 0.130208 0.0976561 0.130208 0.195312 0.0651041 0.097656 0.195312 0.130208 0.195313 0.195312 0.130208 0.0976564 0.130209 0.195313 0.0651043 0.0976564 0.195313 0.130209 0.195313 0.195313 0.130208 0.0976564 0.130208 0.195312 0.065104 0.0976558 0.195312 0.130208 0.195312 0.195312 0.130208 0.0976561 0.130208 0.195312 0.0651041 0.097656 0.195313 0.130208 0.195313 0.195312 0.130208 0.0976563 0.130209 0.195313 0.0651042 0.0976561 0.195312 0.130209 0.195313 0.195313 0.130208 0.0976564 0.130209 0.195313 0.0651044 0.0976565 0.0976565 0.130208 0.0976564 0.195313 0.0651044 0.0325522 0.0651042 0.0651042 0.195312 0.0651041 0.0325521 0.0976562 0.130208 0.195312 0.0325521 0.0651041 0.0976562 0.0976562 0.130208 0.0976562 0.0651042 0.195312 0.0651041 0.0325521 0.0976562 0.130208 0.195312 0.0976562 0.130208 0.0976562 0.0651042 0.195312 0.0651041 0.0325521 0.0976562 0.130208 0.195312 0.0976562 0.130208 0.0976562 0.0651042 0.195312 0.0651041 0.0325521 0.0976562 0.130208 0.195312 0.0976562 0.130208 0.0976562 0.0651042 0.195312 0.0651041 0.0325521 0.0976562 0.130208 0.195312 0.0976562 0.130208 0.0976562 0.0651042 0.195312 0.0651041 0.0325521 0.0976562 0.130208 0.195312 0.0976562 0.130208 0.0976562 0.0651042 0.195312 0.0651041 0.0325521 0.0976562 0.130208 0.195312 0.0976562 0.130208 0.0976562 0.0651042 0.195312 0.0651041 0.0325521 0.0976563 0.130208 0.195312 0.0976562 0.130208 0.0976562 0.0651042 0.195312 0.0651041 0.0325521 0.0976562 0.130208 0.195312 0.0976562 0.130208 0.0976562 0.0651042 0.195312 0.0651041 0.0325521 0.0976562 0.130208 0.195312 0.0976562 0.130208 0.0976562 0.0651042 0.195312 0.0651042 0.0325521 0.0976563 0.130208 0.195313 0.0976563 0.130208 0.0976563 0.0651043 0.195312 0.0651042 0.0325522 0.0976563 0.130208 0.195312 0.0976563 0.130208 0.0976562 0.0651042 0.195312 0.0651041 0.0325521 0.0976562 0.130208 0.195312 0.0976562 0.130208 0.0976562 0.0651042 0.195312 0.0651041 0.0325521 0.0976562 0.130208 0.195312 0.0976562 0.130208 0.0976562 0.0651041 0.195312 0.0651041 0.0325521 0.0976562 0.130208 0.195312 0.0976562 0.130208 0.0976564 0.0651043 0.195312 0.0651042 0.0325522 0.0976564 0.130208 0.195312 0.0976564 0.130208 0.0976563 0.0651043 0.195313 0.0651042 0.0325522 0.0976564 0.130208 0.195313 0.0976564 0.130208 0.0976563 0.0651043 0.195312 0.0651041 0.0325521 0.0976562 0.130208 0.195312 0.0976563 0.130208 0.0976562 0.0651042 0.195313 0.0651042 0.0325521 0.0976564 0.130208 0.195313 0.0976563 0.130208 0.0976565 0.0651044 0.195312 0.0651041 0.0325522 0.0976562 0.130208 0.195312 0.0976565 0.130208 0.0976562 0.0651042 0.195313 0.0651042 0.0325521 0.0976563 0.130208 0.195313 0.0976564 0.130208 0.0976563 0.0651042 0.195312 0.0651041 0.0325521 0.0976561 0.130208 0.195312 0.0976562 0.130208 0.0976562 0.0651042 0.195312 0.0651042 0.0325521 0.0976562 0.130208 0.195312 0.0976562 0.130208 0.0976563 0.0651042 0.195312 0.0651042 0.0325522 0.0976562 0.130208 0.195312 0.0976563 0.130208 0.0976561 0.0651041 0.195312 0.065104 0.032552 0.0976562 0.130208 0.195313 0.0976561 0.130208 0.0976564 0.0651044 0.195313 0.0651042 0.0325522 0.0976562 0.130208 0.195312 0.0976565 0.130208 0.0976561 0.0651041 0.195312 0.065104 0.032552 0.0976562 0.130208 0.195312 0.097656 0.130208 0.0976564 0.0651044 0.195313 0.0651043 0.0325522 0.0976564 0.130209 0.195313 0.0976565 0.130208 0.0976564 0.0651043 0.195312 0.0651039 0.0325521 0.0976561 0.130208 0.195312 0.0976564 0.130208 0.0976561 0.0651043 0.195312 0.065104 0.0325522 0.0976563 0.130208 0.195313 0.0976565 0.130208 0.0976563 0.0651044 0.195313 0.0651041 0.0325522 0.0976563 0.130208 0.195312 0.0976566 0.130208 0.0976564 0.0651044 0.195313 0.0651043 0.0325522 0.0651043 0.130208 0.0976563 0.0976564 0.0651043 0.0325521 0.130208 0.195312 0.195313 0.130208 0.195313 0.0976562 0.0651041 0.0651042 0.0976562 0.0651042 0.195313 0.0976563 0.0976562 0.130208 0.130208 0.195313 0.195313 0.130208 0.195313 0.0976562 0.0651042 0.195313 0.0976562 0.130208 0.130208 0.195313 0.195313 0.130208 0.195313 0.0976563 0.0651042 0.195313 0.0976562 0.130208 0.130208 0.195312 0.195312 0.130208 0.195313 0.0976562 0.0651042 0.195313 0.0976562 0.130208 0.130208 0.195312 0.195313 0.130208 0.195313 0.0976562 0.0651041 0.195313 0.0976562 0.130208 0.130208 0.195313 0.195312 0.130208 0.195313 0.0976563 0.0651042 0.195313 0.0976562 0.130208 0.130208 0.195312 0.195312 0.130208 0.195312 0.0976562 0.0651042 0.195313 0.0976562 0.130208 0.130208 0.195312 0.195312 0.130208 0.195312 0.0976562 0.0651041 0.195312 0.0976562 0.130208 0.130208 0.195312 0.195312 0.130208 0.195312 0.0976562 0.0651041 0.195312 0.0976562 0.130208 0.130208 0.195312 0.195313 0.130208 0.195313 0.0976562 0.0651041 0.195313 0.0976562 0.130208 0.130208 0.195313 0.195313 0.130208 0.195313 0.0976563 0.0651042 0.195313 0.0976563 0.130208 0.130208 0.195313 0.195313 0.130208 0.195312 0.0976562 0.0651042 0.195313 0.0976562 0.130208 0.130208 0.195313 0.195313 0.130208 0.195313 0.0976563 0.0651042 0.195313 0.0976563 0.130208 0.130208 0.195313 0.195312 0.130208 0.195312 0.0976563 0.0651042 0.195313 0.0976562 0.130208 0.130208 0.195312 0.195313 0.130208 0.195313 0.0976562 0.0651041 0.195312 0.0976562 0.130208 0.130208 0.195313 0.195313 0.130208 0.195313 0.0976562 0.0651042 0.195313 0.0976562 0.130208 0.130209 0.195313 0.195313 0.130208 0.195313 0.0976563 0.0651042 0.195313 0.0976563 0.130208 0.130208 0.195313 0.195312 0.130208 0.195313 0.0976562 0.0651042 0.195313 0.0976563 0.130208 0.130208 0.195313 0.195313 0.130209 0.195313 0.0976564 0.0651042 0.195313 0.0976564 0.130209 0.130209 0.195313 0.195313 0.130208 0.195313 0.0976561 0.0651041 0.195313 0.0976563 0.130208 0.130208 0.195313 0.195313 0.130209 0.195313 0.0976564 0.0651043 0.195313 0.0976563 0.130208 0.130208 0.195313 0.195312 0.130208 0.195313 0.0976563 0.0651042 0.195313 0.0976562 0.130208 0.130208 0.195312 0.195313 0.130208 0.195313 0.0976563 0.0651042 0.195313 0.0976563 0.130208 0.130208 0.195313 0.195312 0.130208 0.195312 0.0976563 0.0651042 0.195313 0.0976562 0.130208 0.130208 0.195312 0.195313 0.130208 0.195313 0.0976561 0.0651041 0.195312 0.0976563 0.130208 0.130209 0.195313 0.195312 0.130209 0.195312 0.0976562 0.0651042 0.195313 0.097656 0.130208 0.130208 0.195312 0.195313 0.130208 0.195313 0.097656 0.065104 0.195312 0.0976563 0.130208 0.130209 0.195313 0.195313 0.130209 0.195313 0.0976564 0.0651043 0.195313 0.0976563 0.130209 0.130208 0.195312 0.195312 0.130208 0.195312 0.0976558 0.0651039 0.195312 0.0976562 0.130208 0.130208 0.195313 0.195313 0.130208 0.195313 0.0976561 0.0651041 0.195313 0.0976563 0.130208 0.130209 0.195313 0.195312 0.130209 0.195313 0.0976562 0.0651042 0.195313 0.0976561 0.130208 0.130209 0.195313 0.0976566 0.130208 0.0976564 0.0976565 0.0651042 0.195313 0.0325522 0.0651044 0.130208 0.195312 0.195313 0.130208 0.195313 0.0976562 0.0651042 0.195313 0.0976563 0.130208 0.130208 0.195313 0.195313 0.130208 0.195313 0.195313 0.130208 0.130208 0.195313 0.195313 0.130208 0.195313 0.195313 0.130208 0.130208 0.195312 0.195312 0.130208 0.195313 0.195313 0.130208 0.130208 0.195313 0.195313 0.130208 0.195313 0.195313 0.130208 0.130208 0.195313 0.195313 0.130208 0.195313 0.195313 0.130208 0.130208 0.195312 0.195312 0.130208 0.195313 0.195313 0.130208 0.130208 0.195312 0.195313 0.130208 0.195313 0.195312 0.130208 0.130208 0.195312 0.195312 0.130208 0.195312 0.195312 0.130208 0.130208 0.195312 0.195313 0.130208 0.195313 0.195312 0.130208 0.130208 0.195313 0.195313 0.130208 0.195313 0.195313 0.130208 0.130208 0.195313 0.195313 0.130208 0.195313 0.195313 0.130208 0.130208 0.195313 0.195313 0.130208 0.195313 0.195313 0.130208 0.130208 0.195313 0.195312 0.130208 0.195313 0.195313 0.130208 0.130208 0.195312 0.195313 0.130208 0.195313 0.195312 0.130208 0.130208 0.195313 0.195313 0.130208 0.195313 0.195313 0.130208 0.130209 0.195313 0.195313 0.130208 0.195313 0.195313 0.130208 0.130208 0.195313 0.195312 0.130208 0.195313 0.195313 0.130208 0.130208 0.195313 0.195313 0.130209 0.195313 0.195313 0.130209 0.130209 0.195313 0.195313 0.130208 0.195313 0.195313 0.130208 0.130208 0.195313 0.195313 0.130209 0.195313 0.195313 0.130208 0.130208 0.195313 0.195312 0.130208 0.195313 0.195313 0.130208 0.130208 0.195313 0.195313 0.130208 0.195313 0.195313 0.130208 0.130208 0.195313 0.195312 0.130208 0.195312 0.195313 0.130208 0.130208 0.195312 0.195313 0.130208 0.195313 0.195312 0.130208 0.130209 0.195313 0.195312 0.130209 0.195312 0.195313 0.130208 0.130208 0.195312 0.195313 0.130208 0.195313 0.195312 0.130208 0.130209 0.195313 0.195313 0.130209 0.195313 0.195313 0.130209 0.130208 0.195312 0.195312 0.130208 0.195312 0.195312 0.130208 0.130208 0.195313 0.195313 0.130209 0.195313 0.195313 0.130208 0.130209 0.195313 0.195312 0.130209 0.195313 0.195313 0.130208 0.130209 0.195313 0.0976566 0.130208 0.0976565 0.195313 0.0651044 0.130208 0.195313 0.195312 0.130208 0.195313 0.0976562 0.0651042 0.195313 0.0976563 0.130208 0.130208 0.195313 0.195313 0.130208 0.195313 0.195313 0.130208 0.130208 0.195313 0.195313 0.130208 0.195313 0.195313 0.130208 0.130208 0.195313 0.195312 0.130208 0.195313 0.195313 0.130208 0.130208 0.195312 0.195313 0.130208 0.195313 0.195313 0.130208 0.130208 0.195313 0.195313 0.130208 0.195313 0.195313 0.130208 0.130208 0.195312 0.195312 0.130208 0.195313 0.195313 0.130208 0.130208 0.195312 0.195313 0.130208 0.195313 0.195312 0.130208 0.130208 0.195312 0.195312 0.130208 0.195312 0.195312 0.130208 0.130208 0.195312 0.195313 0.130208 0.195313 0.195313 0.130208 0.130208 0.195313 0.195313 0.130208 0.195313 0.195313 0.130208 0.130208 0.195313 0.195313 0.130208 0.195313 0.195313 0.130208 0.130208 0.195313 0.195313 0.130208 0.195313 0.195313 0.130208 0.130208 0.195313 0.195312 0.130208 0.195313 0.195313 0.130208 0.130208 0.195312 0.195313 0.130208 0.195313 0.195312 0.130208 0.130208 0.195313 0.195313 0.130208 0.195313 0.195313 0.130208 0.130209 0.195313 0.195313 0.130208 0.195313 0.195313 0.130208 0.130208 0.195313 0.195312 0.130208 0.195313 0.195313 0.130208 0.130208 0.195313 0.195313 0.130209 0.195313 0.195313 0.130209 0.130209 0.195313 0.195313 0.130208 0.195313 0.195313 0.130208 0.130209 0.195313 0.195313 0.130209 0.195313 0.195313 0.130209 0.130208 0.195313 0.195312 0.130208 0.195313 0.195313 0.130208 0.130208 0.195313 0.195313 0.130208 0.195313 0.195313 0.130208 0.130208 0.195313 0.195312 0.130208 0.195312 0.195313 0.130208 0.130208 0.195312 0.195313 0.130208 0.195313 0.195312 0.130208 0.130209 0.195313 0.195312 0.130209 0.195312 0.195313 0.130208 0.130208 0.195312 0.195313 0.130208 0.195313 0.195312 0.130208 0.130209 0.195313 0.195313 0.130209 0.195313 0.195313 0.130209 0.130208 0.195312 0.195312 0.130208 0.195312 0.195312 0.130208 0.130208 0.195313 0.195313 0.130209 0.195313 0.195313 0.130208 0.130209 0.195313 0.195312 0.130209 0.195313 0.195313 0.130208 0.130209 0.195313 0.0976566 0.130208 0.0976564 0.195313 0.0651044 0.130208 0.195312 0.195312 0.130208 0.195313 0.0976562 0.0651042 0.195313 0.0976563 0.130208 0.130208 0.195312 0.195312 0.130208 0.195313 0.195313 0.130208 0.130208 0.195312 0.195312 0.130208 0.195313 0.195313 0.130208 0.130208 0.195312 0.195312 0.130208 0.195313 0.195313 0.130208 0.130208 0.195312 0.195312 0.130208 0.195313 0.195313 0.130208 0.130208 0.195313 0.195312 0.130208 0.195313 0.195313 0.130208 0.130208 0.195312 0.195312 0.130208 0.195312 0.195312 0.130208 0.130208 0.195312 0.195312 0.130208 0.195312 0.195312 0.130208 0.130208 0.195312 0.195312 0.130208 0.195312 0.195312 0.130208 0.130208 0.195312 0.195312 0.130208 0.195313 0.195312 0.130208 0.130208 0.195313 0.195313 0.130208 0.195313 0.195313 0.130208 0.130208 0.195313 0.195312 0.130208 0.195312 0.195313 0.130208 0.130208 0.195312 0.195313 0.130208 0.195313 0.195313 0.130208 0.130208 0.195312 0.195312 0.130208 0.195312 0.195313 0.130208 0.130208 0.195312 0.195312 0.130208 0.195313 0.195312 0.130208 0.130208 0.195313 0.195313 0.130208 0.195313 0.195313 0.130208 0.130209 0.195313 0.195313 0.130208 0.195313 0.195313 0.130208 0.130208 0.195313 0.195312 0.130208 0.195313 0.195313 0.130208 0.130208 0.195313 0.195313 0.130208 0.195313 0.195313 0.130209 0.130209 0.195313 0.195313 0.130208 0.195313 0.195313 0.130208 0.130208 0.195313 0.195313 0.130209 0.195313 0.195313 0.130208 0.130208 0.195312 0.195312 0.130208 0.195312 0.195313 0.130208 0.130208 0.195312 0.195313 0.130208 0.195313 0.195313 0.130208 0.130208 0.195313 0.195312 0.130208 0.195312 0.195313 0.130208 0.130208 0.195312 0.195313 0.130208 0.195313 0.195312 0.130208 0.130209 0.195313 0.195312 0.130208 0.195312 0.195313 0.130208 0.130208 0.195312 0.195312 0.130208 0.195313 0.195312 0.130208 0.130209 0.195313 0.195313 0.130209 0.195313 0.195313 0.130208 0.130208 0.195312 0.195312 0.130208 0.195312 0.195312 0.130208 0.130208 0.195312 0.195313 0.130208 0.195313 0.195313 0.130208 0.130209 0.195313 0.195312 0.130209 0.195313 0.195313 0.130208 0.130209 0.195313 0.0976565 0.130208 0.0976564 0.195313 0.0651044 0.130208 0.195312 0.195313 0.130208 0.195313 0.0976563 0.0651042 0.195313 0.0976563 0.130208 0.130208 0.195312 0.195313 0.130208 0.195313 0.195313 0.130208 0.130208 0.195313 0.195313 0.130208 0.195313 0.195313 0.130208 0.130208 0.195312 0.195313 0.130208 0.195313 0.195313 0.130208 0.130208 0.195312 0.195313 0.130208 0.195313 0.195313 0.130208 0.130208 0.195313 0.195313 0.130208 0.195313 0.195313 0.130208 0.130208 0.195312 0.195312 0.130208 0.195312 0.195313 0.130208 0.130208 0.195312 0.195313 0.130208 0.195313 0.195312 0.130208 0.130208 0.195312 0.195312 0.130208 0.195312 0.195312 0.130208 0.130208 0.195312 0.195313 0.130208 0.195313 0.195313 0.130208 0.130208 0.195313 0.195313 0.130208 0.195313 0.195313 0.130208 0.130208 0.195313 0.195313 0.130208 0.195313 0.195313 0.130208 0.130208 0.195313 0.195313 0.130208 0.195313 0.195313 0.130208 0.130208 0.195313 0.195312 0.130208 0.195313 0.195313 0.130208 0.130208 0.195312 0.195313 0.130208 0.195313 0.195312 0.130208 0.130208 0.195313 0.195313 0.130208 0.195313 0.195313 0.130208 0.130209 0.195313 0.195313 0.130208 0.195313 0.195313 0.130208 0.130208 0.195313 0.195313 0.130208 0.195313 0.195313 0.130208 0.130208 0.195313 0.195313 0.130209 0.195313 0.195313 0.130209 0.130209 0.195313 0.195313 0.130208 0.195313 0.195313 0.130208 0.130209 0.195313 0.195313 0.130209 0.195313 0.195313 0.130208 0.130208 0.195313 0.195312 0.130208 0.195313 0.195313 0.130208 0.130208 0.195313 0.195313 0.130208 0.195313 0.195313 0.130208 0.130208 0.195313 0.195313 0.130208 0.195312 0.195313 0.130208 0.130208 0.195312 0.195313 0.130208 0.195313 0.195312 0.130208 0.130209 0.195313 0.195312 0.130209 0.195312 0.195313 0.130208 0.130208 0.195312 0.195313 0.130208 0.195313 0.195312 0.130208 0.130209 0.195313 0.195313 0.130209 0.195313 0.195313 0.130209 0.130208 0.195312 0.195312 0.130208 0.195312 0.195312 0.130208 0.130208 0.195312 0.195313 0.130208 0.195313 0.195313 0.130208 0.130209 0.195313 0.195313 0.130209 0.195313 0.195313 0.130208 0.130209 0.195313 0.0976566 0.130208 0.0976564 0.195313 0.0651044 0.130208 0.195313 0.195313 0.130208 0.195313 0.0976562 0.0651042 0.195313 0.0976564 0.130208 0.130208 0.195313 0.195313 0.130208 0.195313 0.195313 0.130208 0.130208 0.195313 0.195313 0.130208 0.195313 0.195313 0.130208 0.130208 0.195313 0.195313 0.130208 0.195313 0.195313 0.130208 0.130208 0.195313 0.195313 0.130208 0.195313 0.195313 0.130208 0.130208 0.195313 0.195313 0.130208 0.195313 0.195313 0.130208 0.130208 0.195313 0.195312 0.130208 0.195313 0.195313 0.130208 0.130208 0.195312 0.195313 0.130208 0.195313 0.195313 0.130208 0.130208 0.195313 0.195312 0.130208 0.195313 0.195313 0.130208 0.130208 0.195313 0.195313 0.130208 0.195313 0.195313 0.130208 0.130208 0.195313 0.195313 0.130208 0.195313 0.195313 0.130208 0.130208 0.195313 0.195313 0.130208 0.195313 0.195313 0.130208 0.130208 0.195313 0.195313 0.130208 0.195313 0.195313 0.130208 0.130208 0.195313 0.195312 0.130208 0.195313 0.195313 0.130208 0.130208 0.195312 0.195313 0.130208 0.195313 0.195312 0.130208 0.130208 0.195313 0.195313 0.130208 0.195313 0.195313 0.130208 0.130209 0.195313 0.195313 0.130209 0.195313 0.195313 0.130209 0.130208 0.195313 0.195313 0.130208 0.195313 0.195313 0.130208 0.130208 0.195313 0.195313 0.130209 0.195313 0.195313 0.130209 0.130209 0.195313 0.195313 0.130209 0.195313 0.195313 0.130208 0.130209 0.195313 0.195313 0.130209 0.195313 0.195313 0.130209 0.130208 0.195313 0.195312 0.130208 0.195313 0.195313 0.130208 0.130208 0.195313 0.195313 0.130208 0.195313 0.195313 0.130208 0.130208 0.195313 0.195312 0.130209 0.195313 0.195313 0.130208 0.130208 0.195312 0.195313 0.130208 0.195313 0.195312 0.130208 0.130209 0.195313 0.195312 0.130209 0.195312 0.195313 0.130208 0.130208 0.195312 0.195313 0.130208 0.195313 0.195312 0.130208 0.130209 0.195313 0.195313 0.130209 0.195313 0.195313 0.130209 0.130208 0.195312 0.195312 0.130208 0.195312 0.195312 0.130208 0.130208 0.195313 0.195313 0.130209 0.195313 0.195313 0.130208 0.130209 0.195313 0.195313 0.130209 0.195313 0.195313 0.130208 0.130209 0.195313 0.0976566 0.130209 0.0976565 0.195313 0.0651044 0.130208 0.195313 0.195312 0.130208 0.195313 0.0976562 0.0651042 0.195312 0.0976563 0.130208 0.130208 0.195313 0.195312 0.130208 0.195313 0.195312 0.130208 0.130208 0.195313 0.195312 0.130208 0.195313 0.195313 0.130208 0.130208 0.195313 0.195312 0.130208 0.195313 0.195312 0.130208 0.130208 0.195313 0.195312 0.130208 0.195313 0.195312 0.130208 0.130208 0.195313 0.195312 0.130208 0.195313 0.195313 0.130208 0.130208 0.195312 0.195312 0.130208 0.195312 0.195312 0.130208 0.130208 0.195312 0.195312 0.130208 0.195313 0.195312 0.130208 0.130208 0.195312 0.195312 0.130208 0.195312 0.195312 0.130208 0.130208 0.195312 0.195312 0.130208 0.195313 0.195312 0.130208 0.130208 0.195313 0.195313 0.130208 0.195313 0.195313 0.130208 0.130208 0.195313 0.195312 0.130208 0.195313 0.195313 0.130208 0.130208 0.195313 0.195313 0.130208 0.195313 0.195312 0.130208 0.130208 0.195313 0.195312 0.130208 0.195313 0.195313 0.130208 0.130208 0.195312 0.195312 0.130208 0.195313 0.195312 0.130208 0.130208 0.195313 0.195313 0.130208 0.195313 0.195313 0.130208 0.130208 0.195313 0.195313 0.130208 0.195313 0.195313 0.130208 0.130208 0.195313 0.195312 0.130208 0.195313 0.195313 0.130208 0.130208 0.195313 0.195313 0.130209 0.195313 0.195313 0.130209 0.130208 0.195313 0.195313 0.130208 0.195313 0.195313 0.130208 0.130208 0.195313 0.195313 0.130209 0.195313 0.195313 0.130209 0.130208 0.195313 0.195312 0.130208 0.195313 0.195312 0.130208 0.130208 0.195313 0.195313 0.130208 0.195313 0.195312 0.130208 0.130208 0.195313 0.195312 0.130208 0.195312 0.195313 0.130208 0.130208 0.195312 0.195312 0.130208 0.195313 0.195312 0.130208 0.130209 0.195313 0.195312 0.130209 0.195312 0.195313 0.130208 0.130208 0.195312 0.195312 0.130208 0.195313 0.195312 0.130208 0.130209 0.195313 0.195313 0.130209 0.195313 0.195313 0.130209 0.130208 0.195312 0.195312 0.130208 0.195312 0.195312 0.130208 0.130208 0.195313 0.195313 0.130208 0.195313 0.195313 0.130208 0.130209 0.195313 0.195312 0.130209 0.195313 0.195313 0.130208 0.130209 0.195313 0.0976566 0.130208 0.0976564 0.195313 0.0651044 0.0651042 0.195312 0.0976563 0.130208 0.195312 0.0325521 0.0651041 0.0976563 0.0976563 0.130208 0.0651042 0.195312 0.0976563 0.130208 0.195312 0.0976563 0.130208 0.0651042 0.195312 0.0976563 0.130208 0.195312 0.0976563 0.130208 0.0651042 0.195312 0.0976562 0.130208 0.195312 0.0976563 0.130208 0.0651042 0.195312 0.0976562 0.130208 0.195312 0.0976563 0.130208 0.0651042 0.195312 0.0976562 0.130208 0.195312 0.0976563 0.130208 0.0651042 0.195312 0.0976562 0.130208 0.195312 0.0976563 0.130208 0.0651042 0.195312 0.0976563 0.130208 0.195312 0.0976562 0.130208 0.0651042 0.195312 0.0976562 0.130208 0.195312 0.0976563 0.130208 0.0651042 0.195312 0.0976563 0.130208 0.195312 0.0976563 0.130208 0.0651042 0.195313 0.0976563 0.130208 0.195313 0.0976564 0.130208 0.0651043 0.195312 0.0976563 0.130208 0.195312 0.0976564 0.130208 0.0651042 0.195312 0.0976562 0.130208 0.195312 0.0976562 0.130208 0.0651042 0.195312 0.0976562 0.130208 0.195312 0.0976563 0.130208 0.0651041 0.195312 0.0976563 0.130208 0.195313 0.0976562 0.130208 0.0651043 0.195313 0.0976564 0.130208 0.195313 0.0976564 0.130208 0.0651043 0.195313 0.0976564 0.130208 0.195313 0.0976564 0.130208 0.0651043 0.195312 0.0976562 0.130208 0.195312 0.0976564 0.130208 0.0651042 0.195313 0.0976564 0.130208 0.195313 0.0976563 0.130209 0.0651044 0.195313 0.0976562 0.130208 0.195312 0.0976565 0.130208 0.0651042 0.195313 0.0976564 0.130209 0.195313 0.0976564 0.130208 0.0651042 0.195312 0.0976562 0.130208 0.195312 0.0976563 0.130208 0.0651042 0.195312 0.0976563 0.130208 0.195313 0.0976563 0.130208 0.0651042 0.195313 0.0976563 0.130208 0.195312 0.0976563 0.130208 0.0651041 0.195312 0.0976562 0.130208 0.195313 0.0976562 0.130208 0.0651044 0.195313 0.0976562 0.130208 0.195312 0.0976566 0.130208 0.0651041 0.195312 0.0976562 0.130208 0.195312 0.097656 0.130208 0.0651044 0.195313 0.0976565 0.130209 0.195313 0.0976565 0.130208 0.0651043 0.195312 0.0976561 0.130208 0.195312 0.0976564 0.130208 0.0651043 0.195312 0.0976563 0.130208 0.195313 0.0976565 0.130208 0.0651044 0.195313 0.0976564 0.130209 0.195313 0.0976566 0.130208 0.0651044 0.195313 0.0651043 0.130208 0.0976564 0.0976564 0.0651043 0.130208 0.195313 0.195313 0.130208 0.195313 0.0976562 0.0651042 0.0651042 0.0976563 0.0651042 0.195313 0.0976563 0.0976563 0.130208 0.130208 0.195313 0.195313 0.130208 0.195313 0.0976562 0.0651042 0.195313 0.0976563 0.130208 0.130208 0.195313 0.195313 0.130208 0.195313 0.0976562 0.0651042 0.195313 0.0976563 0.130208 0.130208 0.195313 0.195313 0.130208 0.195313 0.0976562 0.0651042 0.195313 0.0976563 0.130208 0.130208 0.195313 0.195313 0.130208 0.195313 0.0976562 0.0651042 0.195313 0.0976563 0.130208 0.130208 0.195313 0.195313 0.130208 0.195313 0.0976562 0.0651042 0.195313 0.0976563 0.130208 0.130208 0.195313 0.195312 0.130208 0.195312 0.0976562 0.0651042 0.195313 0.0976562 0.130208 0.130208 0.195312 0.195313 0.130208 0.195312 0.0976562 0.0651041 0.195312 0.0976562 0.130208 0.130208 0.195312 0.195313 0.130208 0.195312 0.0976561 0.0651041 0.195312 0.0976562 0.130208 0.130208 0.195313 0.195313 0.130208 0.195313 0.0976562 0.0651042 0.195312 0.0976563 0.130208 0.130208 0.195313 0.195313 0.130208 0.195313 0.0976563 0.0651042 0.195313 0.0976563 0.130208 0.130208 0.195313 0.195313 0.130208 0.195312 0.0976562 0.0651042 0.195313 0.0976562 0.130208 0.130208 0.195313 0.195313 0.130208 0.195313 0.0976563 0.0651042 0.195313 0.0976563 0.130208 0.130208 0.195313 0.195313 0.130208 0.195312 0.0976563 0.0651042 0.195313 0.0976562 0.130208 0.130208 0.195312 0.195313 0.130208 0.195313 0.0976562 0.0651041 0.195312 0.0976563 0.130208 0.130209 0.195313 0.195313 0.130208 0.195313 0.0976562 0.0651042 0.195313 0.0976563 0.130208 0.130209 0.195313 0.195313 0.130208 0.195313 0.0976563 0.0651042 0.195313 0.0976564 0.130208 0.130208 0.195313 0.195313 0.130208 0.195313 0.0976562 0.0651042 0.195313 0.0976563 0.130208 0.130208 0.195313 0.195313 0.130208 0.195313 0.0976563 0.0651042 0.195313 0.0976564 0.130209 0.130209 0.195313 0.195313 0.130208 0.195313 0.0976561 0.0651041 0.195313 0.0976563 0.130208 0.130209 0.195313 0.195313 0.130209 0.195313 0.0976564 0.0651043 0.195313 0.0976564 0.130209 0.130208 0.195313 0.195312 0.130208 0.195312 0.0976562 0.0651042 0.195313 0.0976563 0.130208 0.130208 0.195313 0.195313 0.130208 0.195313 0.0976562 0.0651042 0.195313 0.0976564 0.130208 0.130209 0.195313 0.195313 0.130208 0.195312 0.0976562 0.0651042 0.195313 0.0976562 0.130208 0.130208 0.195312 0.195313 0.130208 0.195313 0.0976561 0.0651041 0.195312 0.0976563 0.130208 0.130209 0.195313 0.195312 0.130208 0.195312 0.0976562 0.0651042 0.195313 0.0976561 0.130208 0.130208 0.195312 0.195313 0.130208 0.195313 0.097656 0.065104 0.195312 0.0976563 0.130208 0.130209 0.195313 0.195313 0.130209 0.195313 0.0976564 0.0651043 0.195313 0.0976564 0.130209 0.130208 0.195312 0.195312 0.130208 0.195312 0.0976558 0.065104 0.195312 0.0976563 0.130208 0.130208 0.195313 0.195313 0.130208 0.195313 0.097656 0.0651041 0.195313 0.0976564 0.130208 0.130209 0.195313 0.195313 0.130209 0.195313 0.0976562 0.0651042 0.195313 0.0976561 0.130208 0.130209 0.195313 0.0976566 0.130208 0.0976564 0.0976564 0.0651043 0.195313 0.0325522 0.0651044 0.130208 0.195313 0.195313 0.130208 0.195313 0.0976563 0.0651042 0.195313 0.0976563 0.130208 0.130208 0.195313 0.195313 0.130208 0.195313 0.195313 0.130208 0.130208 0.195313 0.195313 0.130208 0.195313 0.195313 0.130208 0.130208 0.195313 0.195313 0.130208 0.195313 0.195312 0.130208 0.130208 0.195313 0.195313 0.130208 0.195313 0.195312 0.130208 0.130208 0.195313 0.195313 0.130208 0.195313 0.195313 0.130208 0.130208 0.195313 0.195312 0.130208 0.195312 0.195312 0.130208 0.130208 0.195313 0.195313 0.130208 0.195312 0.195312 0.130208 0.130208 0.195313 0.195313 0.130208 0.195312 0.195312 0.130208 0.130208 0.195313 0.195313 0.130208 0.195313 0.195312 0.130208 0.130208 0.195313 0.195313 0.130208 0.195313 0.195313 0.130208 0.130208 0.195313 0.195313 0.130208 0.195312 0.195313 0.130208 0.130208 0.195313 0.195313 0.130208 0.195313 0.195313 0.130208 0.130208 0.195313 0.195313 0.130208 0.195312 0.195313 0.130208 0.130208 0.195312 0.195313 0.130208 0.195313 0.195312 0.130208 0.130209 0.195313 0.195313 0.130208 0.195313 0.195313 0.130208 0.130209 0.195313 0.195313 0.130208 0.195313 0.195313 0.130209 0.130208 0.195313 0.195313 0.130208 0.195313 0.195313 0.130208 0.130208 0.195313 0.195313 0.130208 0.195313 0.195313 0.130209 0.130209 0.195313 0.195313 0.130208 0.195313 0.195313 0.130208 0.130209 0.195313 0.195313 0.130209 0.195313 0.195313 0.130209 0.130208 0.195313 0.195313 0.130208 0.195313 0.195313 0.130208 0.130208 0.195313 0.195313 0.130208 0.195313 0.195313 0.130208 0.130209 0.195313 0.195313 0.130208 0.195312 0.195313 0.130208 0.130208 0.195312 0.195313 0.130208 0.195313 0.195312 0.130208 0.130209 0.195313 0.195312 0.130208 0.195312 0.195313 0.130208 0.130208 0.195312 0.195313 0.130208 0.195313 0.195312 0.130208 0.130209 0.195313 0.195313 0.130209 0.195313 0.195313 0.130209 0.130208 0.195312 0.195312 0.130208 0.195312 0.195312 0.130208 0.130208 0.195313 0.195313 0.130208 0.195313 0.195313 0.130208 0.130209 0.195313 0.195313 0.130209 0.195313 0.195313 0.130208 0.130209 0.195313 0.0976566 0.130208 0.0976564 0.195313 0.0651044 0.130208 0.195313 0.195313 0.130208 0.195313 0.0976563 0.0651042 0.195313 0.0976563 0.130208 0.130208 0.195313 0.195313 0.130208 0.195313 0.195313 0.130208 0.130208 0.195313 0.195313 0.130208 0.195313 0.195313 0.130208 0.130208 0.195313 0.195313 0.130208 0.195313 0.195313 0.130208 0.130208 0.195313 0.195313 0.130208 0.195313 0.195312 0.130208 0.130208 0.195313 0.195313 0.130208 0.195313 0.195313 0.130208 0.130208 0.195313 0.195313 0.130208 0.195312 0.195312 0.130208 0.130208 0.195313 0.195313 0.130208 0.195313 0.195312 0.130208 0.130208 0.195313 0.195313 0.130208 0.195312 0.195312 0.130208 0.130208 0.195313 0.195313 0.130208 0.195313 0.195312 0.130208 0.130209 0.195313 0.195313 0.130208 0.195313 0.195313 0.130208 0.130209 0.195313 0.195313 0.130208 0.195313 0.195313 0.130208 0.130208 0.195313 0.195313 0.130208 0.195313 0.195313 0.130208 0.130208 0.195313 0.195313 0.130208 0.195313 0.195313 0.130208 0.130208 0.195313 0.195313 0.130208 0.195313 0.195312 0.130208 0.130209 0.195313 0.195313 0.130208 0.195313 0.195313 0.130208 0.130209 0.195313 0.195313 0.130208 0.195313 0.195313 0.130209 0.130208 0.195313 0.195313 0.130208 0.195313 0.195313 0.130208 0.130208 0.195313 0.195313 0.130208 0.195313 0.195313 0.130209 0.130209 0.195313 0.195313 0.130208 0.195313 0.195313 0.130208 0.130209 0.195313 0.195313 0.130209 0.195313 0.195313 0.130209 0.130208 0.195313 0.195312 0.130208 0.195313 0.195313 0.130208 0.130208 0.195313 0.195313 0.130208 0.195313 0.195313 0.130208 0.130209 0.195313 0.195313 0.130208 0.195312 0.195313 0.130208 0.130208 0.195312 0.195313 0.130208 0.195313 0.195312 0.130208 0.130209 0.195313 0.195312 0.130208 0.195312 0.195313 0.130208 0.130208 0.195312 0.195313 0.130208 0.195313 0.195312 0.130208 0.130209 0.195313 0.195313 0.130209 0.195313 0.195313 0.130209 0.130208 0.195312 0.195312 0.130208 0.195312 0.195312 0.130208 0.130208 0.195313 0.195313 0.130208 0.195313 0.195313 0.130208 0.130209 0.195313 0.195313 0.130209 0.195313 0.195313 0.130208 0.130209 0.195313 0.0976566 0.130208 0.0976564 0.195313 0.0651044 0.130208 0.195313 0.195313 0.130208 0.195312 0.0976563 0.0651042 0.195312 0.0976563 0.130208 0.130208 0.195313 0.195313 0.130208 0.195312 0.195313 0.130208 0.130208 0.195313 0.195313 0.130208 0.195312 0.195313 0.130208 0.130208 0.195313 0.195313 0.130208 0.195312 0.195312 0.130208 0.130208 0.195313 0.195313 0.130208 0.195313 0.195312 0.130208 0.130208 0.195313 0.195313 0.130208 0.195312 0.195313 0.130208 0.130208 0.195313 0.195312 0.130208 0.195312 0.195312 0.130208 0.130208 0.195312 0.195313 0.130208 0.195312 0.195312 0.130208 0.130208 0.195312 0.195313 0.130208 0.195312 0.195312 0.130208 0.130208 0.195313 0.195313 0.130208 0.195313 0.195312 0.130208 0.130208 0.195313 0.195313 0.130208 0.195313 0.195313 0.130208 0.130208 0.195313 0.195313 0.130208 0.195312 0.195313 0.130208 0.130208 0.195313 0.195313 0.130208 0.195313 0.195313 0.130208 0.130208 0.195313 0.195312 0.130208 0.195312 0.195313 0.130208 0.130208 0.195312 0.195313 0.130208 0.195313 0.195312 0.130208 0.130209 0.195313 0.195313 0.130208 0.195313 0.195313 0.130208 0.130209 0.195313 0.195313 0.130208 0.195313 0.195313 0.130208 0.130208 0.195313 0.195313 0.130208 0.195312 0.195313 0.130208 0.130208 0.195313 0.195313 0.130208 0.195313 0.195313 0.130209 0.130209 0.195313 0.195313 0.130208 0.195312 0.195313 0.130208 0.130209 0.195313 0.195313 0.130209 0.195313 0.195313 0.130209 0.130208 0.195313 0.195312 0.130208 0.195312 0.195313 0.130208 0.130208 0.195313 0.195313 0.130208 0.195313 0.195312 0.130208 0.130208 0.195313 0.195313 0.130208 0.195312 0.195313 0.130208 0.130208 0.195312 0.195313 0.130208 0.195313 0.195312 0.130208 0.130209 0.195313 0.195312 0.130208 0.195312 0.195313 0.130208 0.130208 0.195312 0.195313 0.130208 0.195313 0.195312 0.130208 0.130209 0.195313 0.195313 0.130209 0.195313 0.195313 0.130209 0.130208 0.195312 0.195312 0.130208 0.195312 0.195312 0.130208 0.130208 0.195313 0.195313 0.130208 0.195313 0.195313 0.130208 0.130209 0.195313 0.195313 0.130209 0.195313 0.195313 0.130208 0.130209 0.195313 0.0976566 0.130208 0.0976564 0.195313 0.0651044 0.130208 0.195313 0.195313 0.130208 0.195313 0.0976563 0.0651042 0.195313 0.0976563 0.130208 0.130208 0.195313 0.195313 0.130208 0.195313 0.195313 0.130208 0.130208 0.195313 0.195313 0.130208 0.195313 0.195313 0.130208 0.130208 0.195313 0.195313 0.130208 0.195313 0.195313 0.130208 0.130208 0.195313 0.195313 0.130208 0.195313 0.195313 0.130208 0.130208 0.195313 0.195313 0.130208 0.195313 0.195313 0.130208 0.130208 0.195313 0.195313 0.130208 0.195312 0.195313 0.130208 0.130208 0.195313 0.195313 0.130208 0.195312 0.195312 0.130208 0.130208 0.195313 0.195313 0.130208 0.195312 0.195312 0.130208 0.130208 0.195313 0.195313 0.130208 0.195313 0.195312 0.130208 0.130208 0.195313 0.195313 0.130208 0.195313 0.195313 0.130208 0.130209 0.195313 0.195313 0.130208 0.195312 0.195313 0.130208 0.130208 0.195313 0.195313 0.130208 0.195313 0.195313 0.130208 0.130208 0.195313 0.195313 0.130208 0.195312 0.195313 0.130208 0.130208 0.195312 0.195313 0.130208 0.195313 0.195312 0.130208 0.130209 0.195313 0.195313 0.130208 0.195313 0.195313 0.130208 0.130209 0.195313 0.195313 0.130208 0.195313 0.195313 0.130209 0.130208 0.195313 0.195313 0.130208 0.195313 0.195313 0.130208 0.130208 0.195313 0.195313 0.130208 0.195313 0.195313 0.130209 0.130209 0.195313 0.195313 0.130208 0.195313 0.195313 0.130208 0.130209 0.195313 0.195313 0.130209 0.195313 0.195313 0.130209 0.130208 0.195313 0.195313 0.130208 0.195313 0.195313 0.130208 0.130208 0.195313 0.195313 0.130208 0.195313 0.195313 0.130208 0.130209 0.195313 0.195313 0.130208 0.195312 0.195313 0.130208 0.130208 0.195312 0.195313 0.130208 0.195313 0.195312 0.130208 0.130209 0.195313 0.195312 0.130208 0.195312 0.195313 0.130208 0.130208 0.195312 0.195313 0.130208 0.195313 0.195312 0.130208 0.130209 0.195313 0.195313 0.130209 0.195313 0.195313 0.130209 0.130208 0.195312 0.195312 0.130208 0.195312 0.195312 0.130208 0.130208 0.195313 0.195313 0.130208 0.195313 0.195313 0.130208 0.130209 0.195313 0.195313 0.130209 0.195313 0.195313 0.130208 0.130209 0.195313 0.0976566 0.130208 0.0976564 0.195313 0.0651044 0.130208 0.195313 0.195313 0.130208 0.195313 0.0976563 0.0651042 0.195313 0.0976563 0.130208 0.130208 0.195313 0.195313 0.130208 0.195313 0.195313 0.130208 0.130208 0.195313 0.195313 0.130208 0.195313 0.195313 0.130208 0.130208 0.195313 0.195313 0.130208 0.195313 0.195313 0.130208 0.130208 0.195313 0.195313 0.130208 0.195313 0.195313 0.130208 0.130208 0.195313 0.195313 0.130208 0.195313 0.195313 0.130208 0.130208 0.195313 0.195313 0.130208 0.195313 0.195313 0.130208 0.130208 0.195313 0.195313 0.130208 0.195313 0.195312 0.130208 0.130208 0.195313 0.195313 0.130208 0.195312 0.195312 0.130208 0.130208 0.195313 0.195313 0.130208 0.195313 0.195313 0.130208 0.130209 0.195313 0.195313 0.130208 0.195313 0.195313 0.130209 0.130209 0.195313 0.195313 0.130208 0.195313 0.195313 0.130208 0.130208 0.195313 0.195313 0.130208 0.195313 0.195313 0.130208 0.130208 0.195313 0.195313 0.130208 0.195313 0.195313 0.130208 0.130208 0.195313 0.195313 0.130208 0.195313 0.195312 0.130208 0.130209 0.195313 0.195313 0.130208 0.195313 0.195313 0.130208 0.130209 0.195313 0.195313 0.130208 0.195313 0.195313 0.130209 0.130208 0.195313 0.195313 0.130208 0.195313 0.195313 0.130208 0.130209 0.195313 0.195313 0.130209 0.195313 0.195313 0.130209 0.130209 0.195313 0.195313 0.130208 0.195313 0.195313 0.130208 0.130209 0.195313 0.195313 0.130209 0.195313 0.195313 0.130209 0.130208 0.195313 0.195313 0.130208 0.195313 0.195313 0.130208 0.130208 0.195313 0.195313 0.130208 0.195313 0.195313 0.130208 0.130209 0.195313 0.195313 0.130208 0.195312 0.195313 0.130208 0.130208 0.195312 0.195313 0.130208 0.195313 0.195312 0.130209 0.130209 0.195313 0.195312 0.130209 0.195312 0.195313 0.130208 0.130208 0.195312 0.195313 0.130208 0.195313 0.195312 0.130208 0.130209 0.195313 0.195313 0.130209 0.195313 0.195313 0.130209 0.130208 0.195312 0.195312 0.130208 0.195312 0.195312 0.130208 0.130208 0.195313 0.195313 0.130208 0.195313 0.195313 0.130208 0.130209 0.195313 0.195313 0.130209 0.195313 0.195313 0.130208 0.130209 0.195313 0.0976566 0.130208 0.0976565 0.195313 0.0651044 0.130208 0.195313 0.195313 0.130208 0.195313 0.0976562 0.0651042 0.195312 0.0976563 0.130208 0.130208 0.195313 0.195313 0.130208 0.195313 0.195312 0.130208 0.130208 0.195313 0.195313 0.130208 0.195313 0.195312 0.130208 0.130208 0.195313 0.195313 0.130208 0.195313 0.195312 0.130208 0.130208 0.195313 0.195313 0.130208 0.195313 0.195312 0.130208 0.130208 0.195313 0.195313 0.130208 0.195313 0.195313 0.130208 0.130208 0.195313 0.195312 0.130208 0.195312 0.195312 0.130208 0.130208 0.195313 0.195313 0.130208 0.195313 0.195312 0.130208 0.130208 0.195313 0.195312 0.130208 0.195312 0.195312 0.130208 0.130208 0.195313 0.195313 0.130208 0.195313 0.195312 0.130208 0.130208 0.195313 0.195313 0.130208 0.195313 0.195313 0.130208 0.130208 0.195313 0.195313 0.130208 0.195313 0.195313 0.130208 0.130208 0.195313 0.195313 0.130208 0.195313 0.195312 0.130208 0.130208 0.195313 0.195312 0.130208 0.195313 0.195312 0.130208 0.130208 0.195312 0.195313 0.130208 0.195313 0.195312 0.130208 0.130209 0.195313 0.195313 0.130208 0.195313 0.195313 0.130208 0.130209 0.195313 0.195313 0.130208 0.195313 0.195313 0.130209 0.130208 0.195313 0.195313 0.130208 0.195313 0.195313 0.130208 0.130208 0.195313 0.195313 0.130208 0.195313 0.195313 0.130209 0.130209 0.195313 0.195313 0.130208 0.195313 0.195313 0.130208 0.130209 0.195313 0.195313 0.130209 0.195313 0.195313 0.130209 0.130208 0.195313 0.195312 0.130208 0.195313 0.195312 0.130208 0.130208 0.195313 0.195313 0.130208 0.195313 0.195312 0.130208 0.130208 0.195313 0.195313 0.130208 0.195312 0.195313 0.130208 0.130208 0.195312 0.195313 0.130208 0.195313 0.195312 0.130208 0.130209 0.195313 0.195312 0.130208 0.195312 0.195313 0.130208 0.130208 0.195312 0.195313 0.130208 0.195313 0.195312 0.130208 0.130209 0.195313 0.195313 0.130209 0.195313 0.195313 0.130209 0.130208 0.195312 0.195312 0.130208 0.195312 0.195312 0.130208 0.130208 0.195313 0.195313 0.130208 0.195313 0.195312 0.130208 0.130209 0.195313 0.195313 0.130209 0.195313 0.195313 0.130208 0.130209 0.195313 0.0976566 0.130208 0.0976564 0.195313 0.0651044 0.0651043 0.195312 0.0976563 0.130208 0.195312 0.0325521 0.0651042 0.0976563 0.0976563 0.130208 0.0651043 0.195312 0.0976563 0.130208 0.195312 0.0976563 0.130208 0.0651043 0.195313 0.0976563 0.130208 0.195312 0.0976563 0.130208 0.0651042 0.195312 0.0976563 0.130208 0.195312 0.0976563 0.130208 0.0651043 0.195312 0.0976563 0.130208 0.195312 0.0976563 0.130208 0.0651043 0.195313 0.0976563 0.130208 0.195312 0.0976563 0.130208 0.0651042 0.195312 0.0976563 0.130208 0.195312 0.0976563 0.130208 0.0651042 0.195312 0.0976563 0.130208 0.195312 0.0976562 0.130208 0.0651043 0.195312 0.0976563 0.130208 0.195312 0.0976563 0.130208 0.0651043 0.195312 0.0976563 0.130208 0.195312 0.0976563 0.130208 0.0651043 0.195313 0.0976564 0.130208 0.195313 0.0976564 0.130208 0.0651043 0.195313 0.0976563 0.130208 0.195312 0.0976564 0.130208 0.0651042 0.195313 0.0976563 0.130208 0.195312 0.0976563 0.130208 0.0651042 0.195313 0.0976563 0.130208 0.195312 0.0976563 0.130208 0.0651042 0.195312 0.0976563 0.130208 0.195313 0.0976562 0.130208 0.0651044 0.195313 0.0976564 0.130208 0.195313 0.0976564 0.130208 0.0651044 0.195313 0.0976564 0.130208 0.195313 0.0976564 0.130208 0.0651043 0.195313 0.0976562 0.130208 0.195312 0.0976564 0.130208 0.0651042 0.195313 0.0976565 0.130208 0.195313 0.0976563 0.130209 0.0651044 0.195313 0.0976563 0.130208 0.195312 0.0976565 0.130208 0.0651043 0.195313 0.0976564 0.130208 0.195313 0.0976564 0.130208 0.0651043 0.195313 0.0976562 0.130208 0.195312 0.0976563 0.130208 0.0651042 0.195312 0.0976563 0.130208 0.195313 0.0976563 0.130208 0.0651043 0.195313 0.0976563 0.130208 0.195312 0.0976564 0.130208 0.0651042 0.195312 0.0976563 0.130208 0.195313 0.0976562 0.130208 0.0651045 0.195313 0.0976563 0.130208 0.195312 0.0976566 0.130208 0.0651041 0.195312 0.0976563 0.130208 0.195312 0.097656 0.130208 0.0651045 0.195313 0.0976565 0.130209 0.195313 0.0976565 0.130208 0.0651043 0.195312 0.0976561 0.130208 0.195312 0.0976564 0.130208 0.0651043 0.195313 0.0976563 0.130208 0.195313 0.0976565 0.130208 0.0651044 0.195313 0.0976564 0.130208 0.195313 0.0976566 0.130208 0.0651044 0.195313 0.0651044 0.130208 0.0976563 0.0976564 0.0651044 0.130208 0.195312 0.195312 0.130208 0.195312 0.0976562 0.0651041 0.0651041 0.0976563 0.0651042 0.195312 0.0976563 0.0976562 0.130208 0.130208 0.195312 0.195312 0.130208 0.195312 0.0976562 0.0651041 0.195312 0.0976562 0.130208 0.130208 0.195312 0.195312 0.130208 0.195312 0.0976562 0.0651042 0.195313 0.0976562 0.130208 0.130208 0.195312 0.195312 0.130208 0.195312 0.0976562 0.0651041 0.195312 0.0976562 0.130208 0.130208 0.195312 0.195312 0.130208 0.195312 0.0976562 0.0651041 0.195312 0.0976562 0.130208 0.130208 0.195313 0.195312 0.130208 0.195312 0.0976562 0.0651042 0.195313 0.0976562 0.130208 0.130208 0.195312 0.195312 0.130208 0.195312 0.0976562 0.0651041 0.195312 0.0976562 0.130208 0.130208 0.195312 0.195312 0.130208 0.195312 0.0976562 0.0651041 0.195312 0.0976562 0.130208 0.130208 0.195312 0.195312 0.130208 0.195312 0.0976561 0.0651041 0.195312 0.0976562 0.130208 0.130208 0.195312 0.195313 0.130208 0.195312 0.0976562 0.0651041 0.195312 0.0976562 0.130208 0.130208 0.195313 0.195313 0.130208 0.195313 0.0976563 0.0651042 0.195313 0.0976563 0.130208 0.130208 0.195313 0.195312 0.130208 0.195312 0.0976562 0.0651041 0.195313 0.0976562 0.130208 0.130208 0.195312 0.195313 0.130208 0.195312 0.0976563 0.0651042 0.195313 0.0976563 0.130208 0.130208 0.195313 0.195312 0.130208 0.195312 0.0976563 0.0651042 0.195313 0.0976562 0.130208 0.130208 0.195312 0.195312 0.130208 0.195313 0.0976562 0.0651041 0.195312 0.0976562 0.130208 0.130208 0.195313 0.195313 0.130208 0.195313 0.0976562 0.0651041 0.195313 0.0976562 0.130208 0.130209 0.195313 0.195313 0.130208 0.195313 0.0976563 0.0651042 0.195313 0.0976563 0.130208 0.130208 0.195313 0.195312 0.130208 0.195312 0.0976562 0.0651041 0.195313 0.0976563 0.130208 0.130208 0.195313 0.195313 0.130208 0.195313 0.0976563 0.0651042 0.195313 0.0976564 0.130209 0.130209 0.195313 0.195313 0.130208 0.195312 0.0976561 0.0651041 0.195313 0.0976563 0.130208 0.130208 0.195313 0.195313 0.130209 0.195313 0.0976564 0.0651043 0.195313 0.0976563 0.130208 0.130208 0.195312 0.195312 0.130208 0.195312 0.0976562 0.0651042 0.195313 0.0976562 0.130208 0.130208 0.195312 0.195313 0.130208 0.195313 0.0976562 0.0651042 0.195312 0.0976563 0.130208 0.130208 0.195313 0.195312 0.130208 0.195312 0.0976563 0.0651042 0.195313 0.0976562 0.130208 0.130208 0.195312 0.195313 0.130208 0.195313 0.0976561 0.0651041 0.195312 0.0976563 0.130208 0.130209 0.195313 0.195312 0.130208 0.195312 0.0976562 0.0651041 0.195313 0.097656 0.130208 0.130208 0.195312 0.195312 0.130208 0.195313 0.097656 0.065104 0.195312 0.0976563 0.130208 0.130209 0.195313 0.195313 0.130209 0.195313 0.0976564 0.0651043 0.195313 0.0976563 0.130208 0.130208 0.195312 0.195312 0.130208 0.195312 0.0976558 0.0651039 0.195312 0.0976562 0.130208 0.130208 0.195312 0.195313 0.130208 0.195313 0.097656 0.0651041 0.195313 0.0976563 0.130208 0.130209 0.195313 0.195312 0.130209 0.195313 0.0976562 0.0651042 0.195313 0.0976561 0.130208 0.130209 0.195313 0.0976565 0.130208 0.0976564 0.0976564 0.0651042 0.195313 0.0325522 0.0651044 0.130208 0.195312 0.195312 0.130208 0.195313 0.0976563 0.0651042 0.195312 0.0976563 0.130208 0.130208 0.195313 0.195312 0.130208 0.195313 0.195312 0.130208 0.130208 0.195312 0.195312 0.130208 0.195312 0.195313 0.130208 0.130208 0.195312 0.195312 0.130208 0.195312 0.195312 0.130208 0.130208 0.195312 0.195313 0.130208 0.195312 0.195312 0.130208 0.130208 0.195313 0.195312 0.130208 0.195312 0.195313 0.130208 0.130208 0.195312 0.195312 0.130208 0.195312 0.195312 0.130208 0.130208 0.195312 0.195312 0.130208 0.195312 0.195312 0.130208 0.130208 0.195312 0.195312 0.130208 0.195312 0.195312 0.130208 0.130208 0.195312 0.195312 0.130208 0.195313 0.195312 0.130208 0.130208 0.195313 0.195313 0.130208 0.195313 0.195313 0.130208 0.130208 0.195313 0.195313 0.130208 0.195312 0.195313 0.130208 0.130208 0.195313 0.195313 0.130208 0.195313 0.195313 0.130208 0.130208 0.195313 0.195312 0.130208 0.195312 0.195313 0.130208 0.130208 0.195312 0.195313 0.130208 0.195313 0.195312 0.130208 0.130208 0.195313 0.195313 0.130208 0.195313 0.195313 0.130208 0.130209 0.195313 0.195313 0.130208 0.195313 0.195313 0.130208 0.130208 0.195313 0.195312 0.130208 0.195312 0.195313 0.130208 0.130208 0.195313 0.195313 0.130208 0.195313 0.195313 0.130209 0.130209 0.195313 0.195313 0.130208 0.195312 0.195313 0.130208 0.130208 0.195313 0.195313 0.130209 0.195313 0.195313 0.130208 0.130208 0.195313 0.195312 0.130208 0.195312 0.195313 0.130208 0.130208 0.195312 0.195313 0.130208 0.195313 0.195312 0.130208 0.130208 0.195313 0.195312 0.130208 0.195312 0.195313 0.130208 0.130208 0.195312 0.195313 0.130208 0.195313 0.195312 0.130208 0.130209 0.195313 0.195312 0.130208 0.195312 0.195313 0.130208 0.130208 0.195312 0.195313 0.130208 0.195313 0.195312 0.130208 0.130209 0.195313 0.195313 0.130209 0.195313 0.195313 0.130208 0.130208 0.195312 0.195312 0.130208 0.195312 0.195312 0.130208 0.130208 0.195313 0.195313 0.130208 0.195313 0.195313 0.130208 0.130209 0.195313 0.195312 0.130209 0.195313 0.195313 0.130208 0.130209 0.195313 0.0976565 0.130208 0.0976564 0.195313 0.0651044 0.130208 0.195313 0.195312 0.130208 0.195313 0.0976562 0.0651042 0.195313 0.0976563 0.130208 0.130208 0.195313 0.195312 0.130208 0.195313 0.195313 0.130208 0.130208 0.195313 0.195313 0.130208 0.195313 0.195313 0.130208 0.130208 0.195312 0.195312 0.130208 0.195312 0.195312 0.130208 0.130208 0.195312 0.195313 0.130208 0.195312 0.195312 0.130208 0.130208 0.195313 0.195312 0.130208 0.195313 0.195313 0.130208 0.130208 0.195312 0.195312 0.130208 0.195312 0.195312 0.130208 0.130208 0.195312 0.195312 0.130208 0.195312 0.195312 0.130208 0.130208 0.195312 0.195312 0.130208 0.195312 0.195312 0.130208 0.130208 0.195312 0.195312 0.130208 0.195313 0.195312 0.130208 0.130208 0.195313 0.195313 0.130208 0.195313 0.195313 0.130208 0.130208 0.195313 0.195312 0.130208 0.195312 0.195313 0.130208 0.130208 0.195312 0.195313 0.130208 0.195313 0.195313 0.130208 0.130208 0.195313 0.195312 0.130208 0.195312 0.195313 0.130208 0.130208 0.195312 0.195313 0.130208 0.195313 0.195312 0.130208 0.130208 0.195313 0.195313 0.130208 0.195313 0.195313 0.130208 0.130209 0.195313 0.195313 0.130208 0.195313 0.195313 0.130208 0.130208 0.195313 0.195312 0.130208 0.195312 0.195313 0.130208 0.130208 0.195313 0.195313 0.130208 0.195313 0.195313 0.130209 0.130209 0.195313 0.195313 0.130208 0.195313 0.195313 0.130208 0.130209 0.195313 0.195313 0.130209 0.195313 0.195313 0.130208 0.130208 0.195313 0.195312 0.130208 0.195312 0.195313 0.130208 0.130208 0.195313 0.195313 0.130208 0.195313 0.195313 0.130208 0.130208 0.195313 0.195312 0.130208 0.195312 0.195313 0.130208 0.130208 0.195312 0.195313 0.130208 0.195313 0.195312 0.130208 0.130209 0.195313 0.195312 0.130208 0.195312 0.195313 0.130208 0.130208 0.195312 0.195312 0.130208 0.195313 0.195312 0.130208 0.130209 0.195313 0.195313 0.130209 0.195313 0.195313 0.130209 0.130208 0.195312 0.195312 0.130208 0.195312 0.195312 0.130208 0.130208 0.195313 0.195313 0.130208 0.195313 0.195313 0.130208 0.130209 0.195313 0.195312 0.130209 0.195313 0.195313 0.130208 0.130209 0.195313 0.0976565 0.130208 0.0976564 0.195313 0.0651044 0.130208 0.195312 0.195312 0.130208 0.195312 0.0976562 0.0651042 0.195312 0.0976563 0.130208 0.130208 0.195312 0.195312 0.130208 0.195312 0.195312 0.130208 0.130208 0.195312 0.195312 0.130208 0.195312 0.195313 0.130208 0.130208 0.195312 0.195312 0.130208 0.195312 0.195312 0.130208 0.130208 0.195312 0.195312 0.130208 0.195312 0.195312 0.130208 0.130208 0.195312 0.195312 0.130208 0.195312 0.195313 0.130208 0.130208 0.195312 0.195312 0.130208 0.195312 0.195312 0.130208 0.130208 0.195312 0.195312 0.130208 0.195312 0.195312 0.130208 0.130208 0.195312 0.195312 0.130208 0.195312 0.195312 0.130208 0.130208 0.195312 0.195312 0.130208 0.195312 0.195312 0.130208 0.130208 0.195313 0.195313 0.130208 0.195313 0.195313 0.130208 0.130208 0.195313 0.195312 0.130208 0.195312 0.195313 0.130208 0.130208 0.195312 0.195313 0.130208 0.195312 0.195312 0.130208 0.130208 0.195312 0.195312 0.130208 0.195312 0.195313 0.130208 0.130208 0.195312 0.195312 0.130208 0.195313 0.195312 0.130208 0.130208 0.195313 0.195313 0.130208 0.195313 0.195313 0.130208 0.130208 0.195313 0.195313 0.130208 0.195313 0.195313 0.130208 0.130208 0.195312 0.195312 0.130208 0.195312 0.195313 0.130208 0.130208 0.195313 0.195313 0.130208 0.195313 0.195313 0.130209 0.130209 0.195313 0.195313 0.130208 0.195312 0.195313 0.130208 0.130208 0.195313 0.195313 0.130208 0.195313 0.195313 0.130208 0.130208 0.195312 0.195312 0.130208 0.195312 0.195312 0.130208 0.130208 0.195312 0.195313 0.130208 0.195313 0.195312 0.130208 0.130208 0.195313 0.195312 0.130208 0.195312 0.195313 0.130208 0.130208 0.195312 0.195312 0.130208 0.195313 0.195312 0.130208 0.130209 0.195313 0.195312 0.130208 0.195312 0.195313 0.130208 0.130208 0.195312 0.195312 0.130208 0.195312 0.195312 0.130208 0.130209 0.195313 0.195313 0.130209 0.195313 0.195313 0.130208 0.130208 0.195312 0.195312 0.130208 0.195312 0.195312 0.130208 0.130208 0.195312 0.195313 0.130208 0.195313 0.195312 0.130208 0.130209 0.195313 0.195312 0.130209 0.195313 0.195313 0.130208 0.130209 0.195313 0.0976565 0.130208 0.0976564 0.195313 0.0651043 0.130208 0.195312 0.195313 0.130208 0.195312 0.0976563 0.0651042 0.195313 0.0976563 0.130208 0.130208 0.195312 0.195313 0.130208 0.195312 0.195313 0.130208 0.130208 0.195313 0.195313 0.130208 0.195312 0.195313 0.130208 0.130208 0.195312 0.195312 0.130208 0.195312 0.195313 0.130208 0.130208 0.195312 0.195313 0.130208 0.195312 0.195313 0.130208 0.130208 0.195313 0.195313 0.130208 0.195312 0.195313 0.130208 0.130208 0.195312 0.195312 0.130208 0.195312 0.195313 0.130208 0.130208 0.195312 0.195312 0.130208 0.195312 0.195312 0.130208 0.130208 0.195312 0.195312 0.130208 0.195312 0.195312 0.130208 0.130208 0.195312 0.195313 0.130208 0.195313 0.195312 0.130208 0.130208 0.195313 0.195313 0.130208 0.195313 0.195313 0.130208 0.130208 0.195313 0.195313 0.130208 0.195312 0.195313 0.130208 0.130208 0.195312 0.195313 0.130208 0.195313 0.195313 0.130208 0.130208 0.195313 0.195312 0.130208 0.195312 0.195313 0.130208 0.130208 0.195312 0.195313 0.130208 0.195313 0.195312 0.130208 0.130208 0.195313 0.195313 0.130208 0.195313 0.195313 0.130208 0.130209 0.195313 0.195313 0.130208 0.195313 0.195313 0.130208 0.130208 0.195313 0.195312 0.130208 0.195312 0.195313 0.130208 0.130208 0.195313 0.195313 0.130208 0.195313 0.195313 0.130209 0.130209 0.195313 0.195313 0.130208 0.195312 0.195313 0.130208 0.130209 0.195313 0.195313 0.130209 0.195313 0.195313 0.130208 0.130208 0.195313 0.195312 0.130208 0.195312 0.195313 0.130208 0.130208 0.195312 0.195313 0.130208 0.195313 0.195313 0.130208 0.130208 0.195313 0.195312 0.130208 0.195312 0.195313 0.130208 0.130208 0.195312 0.195313 0.130208 0.195313 0.195312 0.130208 0.130209 0.195313 0.195312 0.130208 0.195312 0.195313 0.130208 0.130208 0.195312 0.195313 0.130208 0.195313 0.195312 0.130208 0.130209 0.195313 0.195313 0.130209 0.195313 0.195313 0.130208 0.130208 0.195312 0.195312 0.130208 0.195312 0.195312 0.130208 0.130208 0.195312 0.195313 0.130208 0.195313 0.195313 0.130208 0.130209 0.195313 0.195313 0.130209 0.195313 0.195313 0.130208 0.130209 0.195313 0.0976565 0.130208 0.0976564 0.195313 0.0651044 0.130208 0.195313 0.195313 0.130208 0.195313 0.0976563 0.0651042 0.195313 0.0976563 0.130208 0.130208 0.195313 0.195313 0.130208 0.195313 0.195313 0.130208 0.130208 0.195313 0.195313 0.130208 0.195313 0.195313 0.130208 0.130208 0.195313 0.195313 0.130208 0.195313 0.195313 0.130208 0.130208 0.195313 0.195313 0.130208 0.195313 0.195313 0.130208 0.130208 0.195313 0.195313 0.130208 0.195313 0.195313 0.130208 0.130208 0.195313 0.195312 0.130208 0.195312 0.195313 0.130208 0.130208 0.195312 0.195313 0.130208 0.195313 0.195312 0.130208 0.130208 0.195312 0.195312 0.130208 0.195312 0.195312 0.130208 0.130208 0.195313 0.195313 0.130208 0.195313 0.195313 0.130208 0.130208 0.195313 0.195313 0.130208 0.195313 0.195313 0.130208 0.130208 0.195313 0.195313 0.130208 0.195313 0.195313 0.130208 0.130208 0.195313 0.195313 0.130208 0.195313 0.195313 0.130208 0.130208 0.195313 0.195312 0.130208 0.195313 0.195313 0.130208 0.130208 0.195312 0.195313 0.130208 0.195313 0.195312 0.130208 0.130209 0.195313 0.195313 0.130208 0.195313 0.195313 0.130208 0.130209 0.195313 0.195313 0.130208 0.195313 0.195313 0.130208 0.130208 0.195313 0.195313 0.130208 0.195313 0.195313 0.130208 0.130208 0.195313 0.195313 0.130208 0.195313 0.195313 0.130209 0.130209 0.195313 0.195313 0.130208 0.195313 0.195313 0.130208 0.130209 0.195313 0.195313 0.130209 0.195313 0.195313 0.130209 0.130208 0.195313 0.195312 0.130208 0.195313 0.195313 0.130208 0.130208 0.195313 0.195313 0.130208 0.195313 0.195313 0.130208 0.130208 0.195313 0.195312 0.130208 0.195312 0.195313 0.130208 0.130208 0.195312 0.195313 0.130208 0.195313 0.195312 0.130208 0.130209 0.195313 0.195312 0.130208 0.195312 0.195313 0.130208 0.130208 0.195312 0.195313 0.130208 0.195313 0.195312 0.130208 0.130209 0.195313 0.195313 0.130209 0.195313 0.195313 0.130209 0.130208 0.195312 0.195312 0.130208 0.195312 0.195312 0.130208 0.130208 0.195313 0.195313 0.130208 0.195313 0.195313 0.130208 0.130209 0.195313 0.195312 0.130209 0.195313 0.195313 0.130208 0.130209 0.195313 0.0976565 0.130208 0.0976564 0.195313 0.0651044 0.130208 0.195313 0.195312 0.130208 0.195312 0.0976562 0.0651042 0.195312 0.0976563 0.130208 0.130208 0.195313 0.195312 0.130208 0.195312 0.195312 0.130208 0.130208 0.195313 0.195312 0.130208 0.195313 0.195312 0.130208 0.130208 0.195312 0.195312 0.130208 0.195313 0.195312 0.130208 0.130208 0.195312 0.195312 0.130208 0.195313 0.195312 0.130208 0.130208 0.195313 0.195312 0.130208 0.195313 0.195312 0.130208 0.130208 0.195312 0.195312 0.130208 0.195312 0.195312 0.130208 0.130208 0.195312 0.195312 0.130208 0.195312 0.195312 0.130208 0.130208 0.195312 0.195312 0.130208 0.195312 0.195312 0.130208 0.130208 0.195312 0.195312 0.130208 0.195313 0.195312 0.130208 0.130208 0.195313 0.195313 0.130208 0.195313 0.195313 0.130208 0.130208 0.195313 0.195312 0.130208 0.195312 0.195313 0.130208 0.130208 0.195313 0.195313 0.130208 0.195313 0.195312 0.130208 0.130208 0.195313 0.195312 0.130208 0.195312 0.195312 0.130208 0.130208 0.195312 0.195312 0.130208 0.195313 0.195312 0.130208 0.130208 0.195313 0.195313 0.130208 0.195313 0.195313 0.130208 0.130208 0.195313 0.195313 0.130208 0.195313 0.195313 0.130208 0.130208 0.195313 0.195312 0.130208 0.195312 0.195312 0.130208 0.130208 0.195313 0.195313 0.130208 0.195313 0.195313 0.130209 0.130209 0.195313 0.195313 0.130208 0.195313 0.195313 0.130208 0.130208 0.195313 0.195313 0.130209 0.195313 0.195313 0.130208 0.130208 0.195313 0.195312 0.130208 0.195313 0.195312 0.130208 0.130208 0.195313 0.195313 0.130208 0.195313 0.195312 0.130208 0.130208 0.195313 0.195312 0.130208 0.195312 0.195313 0.130208 0.130208 0.195312 0.195312 0.130208 0.195313 0.195312 0.130208 0.130209 0.195313 0.195312 0.130208 0.195312 0.195313 0.130208 0.130208 0.195312 0.195312 0.130208 0.195313 0.195312 0.130208 0.130209 0.195313 0.195313 0.130209 0.195313 0.195313 0.130209 0.130208 0.195312 0.195312 0.130208 0.195312 0.195312 0.130208 0.130208 0.195313 0.195313 0.130208 0.195313 0.195312 0.130208 0.130209 0.195313 0.195312 0.130209 0.195313 0.195313 0.130208 0.130209 0.195313 0.0976565 0.130208 0.0976564 0.195313 0.0651044 0.0651042 0.195312 0.0976562 0.130208 0.195312 0.0325521 0.0651042 0.0976563 0.0976563 0.130208 0.0651042 0.195312 0.0976562 0.130208 0.195312 0.0976563 0.130208 0.0651042 0.195312 0.0976562 0.130208 0.195312 0.0976563 0.130208 0.0651042 0.195312 0.0976562 0.130208 0.195312 0.0976563 0.130208 0.0651042 0.195312 0.0976562 0.130208 0.195312 0.0976563 0.130208 0.0651042 0.195312 0.0976562 0.130208 0.195312 0.0976563 0.130208 0.0651042 0.195312 0.0976562 0.130208 0.195312 0.0976562 0.130208 0.0651042 0.195312 0.0976563 0.130208 0.195312 0.0976562 0.130208 0.0651042 0.195312 0.0976562 0.130208 0.195312 0.0976563 0.130208 0.0651042 0.195312 0.0976562 0.130208 0.195312 0.0976563 0.130208 0.0651043 0.195312 0.0976563 0.130208 0.195313 0.0976563 0.130208 0.0651043 0.195312 0.0976563 0.130208 0.195312 0.0976564 0.130208 0.0651042 0.195312 0.0976562 0.130208 0.195312 0.0976562 0.130208 0.0651042 0.195312 0.0976562 0.130208 0.195312 0.0976563 0.130208 0.0651042 0.195312 0.0976562 0.130208 0.195312 0.0976562 0.130208 0.0651044 0.195313 0.0976564 0.130208 0.195312 0.0976564 0.130208 0.0651044 0.195313 0.0976564 0.130208 0.195313 0.0976564 0.130208 0.0651043 0.195312 0.0976562 0.130208 0.195312 0.0976564 0.130208 0.0651042 0.195313 0.0976564 0.130208 0.195313 0.0976563 0.130209 0.0651044 0.195313 0.0976562 0.130208 0.195312 0.0976565 0.130208 0.0651042 0.195313 0.0976563 0.130208 0.195313 0.0976564 0.130208 0.0651042 0.195312 0.0976561 0.130208 0.195312 0.0976563 0.130208 0.0651042 0.195312 0.0976563 0.130208 0.195312 0.0976562 0.130208 0.0651043 0.195312 0.0976563 0.130208 0.195312 0.0976563 0.130208 0.0651041 0.195312 0.0976562 0.130208 0.195313 0.0976561 0.130208 0.0651044 0.195313 0.0976562 0.130208 0.195312 0.0976565 0.130208 0.0651041 0.195312 0.0976562 0.130208 0.195312 0.097656 0.130208 0.0651044 0.195313 0.0976564 0.130208 0.195313 0.0976565 0.130208 0.0651043 0.195312 0.0976561 0.130208 0.195312 0.0976564 0.130208 0.0651043 0.195312 0.0976563 0.130208 0.195313 0.0976565 0.130208 0.0651044 0.195313 0.0976563 0.130208 0.195312 0.0976566 0.130208 0.0651044 0.195313 0.0651043 0.130208 0.0976563 0.0976564 0.0651043 0.130208 0.195313 0.195313 0.130208 0.195313 0.0976563 0.0651042 0.0651042 0.0976564 0.0651042 0.195313 0.0976563 0.0976564 0.130208 0.130208 0.195313 0.195313 0.130208 0.195313 0.0976563 0.0651042 0.195313 0.0976563 0.130208 0.130208 0.195313 0.195313 0.130208 0.195313 0.0976563 0.0651042 0.195313 0.0976564 0.130208 0.130208 0.195313 0.195313 0.130208 0.195313 0.0976563 0.0651042 0.195313 0.0976563 0.130208 0.130208 0.195313 0.195313 0.130208 0.195313 0.0976563 0.0651042 0.195313 0.0976564 0.130208 0.130208 0.195313 0.195313 0.130208 0.195313 0.0976564 0.0651042 0.195313 0.0976564 0.130208 0.130208 0.195313 0.195312 0.130208 0.195313 0.0976563 0.0651042 0.195313 0.0976563 0.130208 0.130208 0.195313 0.195313 0.130208 0.195313 0.0976563 0.0651042 0.195313 0.0976563 0.130208 0.130208 0.195313 0.195313 0.130208 0.195313 0.0976562 0.0651042 0.195313 0.0976563 0.130208 0.130208 0.195313 0.195313 0.130208 0.195313 0.0976563 0.0651042 0.195313 0.0976564 0.130208 0.130208 0.195313 0.195313 0.130209 0.195313 0.0976564 0.0651043 0.195313 0.0976564 0.130208 0.130209 0.195313 0.195313 0.130209 0.195313 0.0976563 0.0651042 0.195313 0.0976563 0.130208 0.130208 0.195313 0.195313 0.130208 0.195313 0.0976564 0.0651042 0.195313 0.0976564 0.130208 0.130208 0.195313 0.195313 0.130208 0.195313 0.0976564 0.0651043 0.195313 0.0976563 0.130208 0.130208 0.195312 0.195313 0.130208 0.195313 0.0976563 0.0651042 0.195313 0.0976564 0.130208 0.130209 0.195313 0.195313 0.130209 0.195313 0.0976563 0.0651042 0.195313 0.0976564 0.130208 0.130209 0.195313 0.195313 0.130209 0.195313 0.0976564 0.0651043 0.195313 0.0976565 0.130209 0.130208 0.195313 0.195313 0.130208 0.195313 0.0976563 0.0651042 0.195313 0.0976564 0.130208 0.130208 0.195313 0.195313 0.130209 0.195313 0.0976564 0.0651043 0.195313 0.0976565 0.130209 0.130209 0.195313 0.195313 0.130209 0.195313 0.0976562 0.0651042 0.195313 0.0976564 0.130208 0.130209 0.195313 0.195313 0.130209 0.195313 0.0976565 0.0651044 0.195313 0.0976565 0.130209 0.130208 0.195313 0.195312 0.130208 0.195313 0.0976564 0.0651043 0.195313 0.0976564 0.130208 0.130208 0.195313 0.195313 0.130209 0.195313 0.0976564 0.0651043 0.195313 0.0976564 0.130208 0.130209 0.195313 0.195313 0.130209 0.195313 0.0976564 0.0651043 0.195313 0.0976563 0.130208 0.130208 0.195312 0.195313 0.130208 0.195313 0.0976562 0.0651042 0.195312 0.0976564 0.130208 0.130209 0.195313 0.195312 0.130209 0.195312 0.0976563 0.0651042 0.195313 0.0976561 0.130208 0.130208 0.195312 0.195313 0.130208 0.195313 0.0976561 0.0651041 0.195312 0.0976564 0.130208 0.130209 0.195313 0.195313 0.130209 0.195313 0.0976565 0.0651044 0.195313 0.0976564 0.130209 0.130208 0.195312 0.195312 0.130208 0.195312 0.0976559 0.065104 0.195312 0.0976564 0.130208 0.130208 0.195313 0.195313 0.130209 0.195313 0.0976562 0.0651042 0.195313 0.0976564 0.130208 0.130209 0.195313 0.195313 0.130209 0.195313 0.0976563 0.0651042 0.195313 0.0976562 0.130208 0.130209 0.195313 0.0976565 0.130209 0.0976565 0.0976565 0.0651043 0.195313 0.0325522 0.0651044 0.130208 0.195313 0.195313 0.130208 0.195313 0.0976564 0.0651042 0.195313 0.0976563 0.130208 0.130208 0.195313 0.195313 0.130208 0.195313 0.195313 0.130208 0.130208 0.195313 0.195313 0.130208 0.195313 0.195313 0.130208 0.130208 0.195313 0.195313 0.130208 0.195313 0.195313 0.130208 0.130208 0.195313 0.195313 0.130208 0.195313 0.195313 0.130208 0.130208 0.195313 0.195313 0.130209 0.195313 0.195313 0.130208 0.130208 0.195313 0.195313 0.130208 0.195313 0.195313 0.130208 0.130208 0.195313 0.195313 0.130208 0.195313 0.195313 0.130208 0.130208 0.195313 0.195313 0.130208 0.195313 0.195313 0.130208 0.130208 0.195313 0.195313 0.130208 0.195313 0.195313 0.130208 0.130208 0.195313 0.195313 0.130209 0.195313 0.195313 0.130208 0.130209 0.195313 0.195313 0.130209 0.195313 0.195313 0.130208 0.130208 0.195313 0.195313 0.130208 0.195313 0.195313 0.130208 0.130208 0.195313 0.195313 0.130209 0.195313 0.195313 0.130208 0.130208 0.195312 0.195313 0.130208 0.195313 0.195313 0.130208 0.130209 0.195313 0.195313 0.130209 0.195313 0.195313 0.130208 0.130209 0.195313 0.195313 0.130209 0.195313 0.195313 0.130209 0.130208 0.195313 0.195313 0.130209 0.195313 0.195313 0.130208 0.130208 0.195313 0.195313 0.130209 0.195313 0.195313 0.130209 0.130209 0.195313 0.195313 0.130209 0.195313 0.195313 0.130208 0.130209 0.195313 0.195313 0.130209 0.195313 0.195313 0.130209 0.130208 0.195313 0.195313 0.130208 0.195313 0.195313 0.130208 0.130208 0.195313 0.195313 0.130209 0.195313 0.195313 0.130208 0.130209 0.195313 0.195313 0.130209 0.195313 0.195313 0.130208 0.130208 0.195312 0.195313 0.130208 0.195313 0.195312 0.130208 0.130209 0.195313 0.195312 0.130209 0.195312 0.195313 0.130208 0.130208 0.195312 0.195313 0.130208 0.195313 0.195312 0.130208 0.130209 0.195313 0.195313 0.130209 0.195313 0.195313 0.130209 0.130208 0.195312 0.195312 0.130208 0.195312 0.195312 0.130208 0.130208 0.195313 0.195313 0.130209 0.195313 0.195313 0.130208 0.130209 0.195313 0.195313 0.130209 0.195313 0.195313 0.130208 0.130209 0.195313 0.0976565 0.130209 0.0976565 0.195313 0.0651044 0.130208 0.195313 0.195313 0.130208 0.195313 0.0976564 0.0651042 0.195313 0.0976564 0.130208 0.130208 0.195313 0.195313 0.130208 0.195313 0.195313 0.130208 0.130208 0.195313 0.195313 0.130208 0.195313 0.195313 0.130208 0.130208 0.195313 0.195313 0.130208 0.195313 0.195313 0.130208 0.130208 0.195313 0.195313 0.130208 0.195313 0.195313 0.130208 0.130208 0.195313 0.195313 0.130209 0.195313 0.195313 0.130208 0.130208 0.195313 0.195313 0.130208 0.195313 0.195313 0.130208 0.130208 0.195313 0.195313 0.130208 0.195313 0.195313 0.130208 0.130208 0.195313 0.195313 0.130208 0.195313 0.195313 0.130208 0.130208 0.195313 0.195313 0.130208 0.195313 0.195313 0.130208 0.130209 0.195313 0.195313 0.130209 0.195313 0.195313 0.130209 0.130209 0.195313 0.195313 0.130209 0.195313 0.195313 0.130208 0.130208 0.195313 0.195313 0.130208 0.195313 0.195313 0.130208 0.130208 0.195313 0.195313 0.130209 0.195313 0.195313 0.130208 0.130208 0.195313 0.195313 0.130208 0.195313 0.195313 0.130208 0.130209 0.195313 0.195313 0.130209 0.195313 0.195313 0.130208 0.130209 0.195313 0.195313 0.130209 0.195313 0.195313 0.130209 0.130208 0.195313 0.195313 0.130209 0.195313 0.195313 0.130208 0.130208 0.195313 0.195313 0.130209 0.195313 0.195313 0.130209 0.130209 0.195313 0.195313 0.130209 0.195313 0.195313 0.130208 0.130209 0.195313 0.195313 0.130209 0.195313 0.195313 0.130209 0.130208 0.195313 0.195312 0.130208 0.195313 0.195313 0.130208 0.130208 0.195313 0.195313 0.130209 0.195313 0.195313 0.130208 0.130209 0.195313 0.195313 0.130209 0.195313 0.195313 0.130208 0.130208 0.195312 0.195313 0.130208 0.195313 0.195312 0.130208 0.130209 0.195313 0.195312 0.130209 0.195312 0.195313 0.130208 0.130208 0.195312 0.195313 0.130208 0.195313 0.195312 0.130208 0.130209 0.195313 0.195313 0.130209 0.195313 0.195313 0.130209 0.130208 0.195312 0.195312 0.130208 0.195312 0.195312 0.130208 0.130208 0.195313 0.195313 0.130209 0.195313 0.195313 0.130208 0.130209 0.195313 0.195313 0.130209 0.195313 0.195313 0.130208 0.130209 0.195313 0.0976565 0.130209 0.0976565 0.195313 0.0651044 0.130208 0.195313 0.195313 0.130208 0.195313 0.0976563 0.0651042 0.195313 0.0976563 0.130208 0.130208 0.195313 0.195313 0.130208 0.195313 0.195313 0.130208 0.130208 0.195313 0.195313 0.130208 0.195313 0.195313 0.130208 0.130208 0.195313 0.195313 0.130208 0.195313 0.195313 0.130208 0.130208 0.195313 0.195313 0.130208 0.195313 0.195313 0.130208 0.130208 0.195313 0.195313 0.130208 0.195313 0.195313 0.130208 0.130208 0.195313 0.195312 0.130208 0.195313 0.195313 0.130208 0.130208 0.195312 0.195313 0.130208 0.195313 0.195313 0.130208 0.130208 0.195312 0.195313 0.130208 0.195313 0.195313 0.130208 0.130208 0.195313 0.195313 0.130208 0.195313 0.195313 0.130208 0.130208 0.195313 0.195313 0.130208 0.195313 0.195313 0.130208 0.130209 0.195313 0.195313 0.130208 0.195313 0.195313 0.130208 0.130208 0.195313 0.195313 0.130208 0.195313 0.195313 0.130208 0.130208 0.195313 0.195312 0.130208 0.195313 0.195313 0.130208 0.130208 0.195312 0.195313 0.130208 0.195313 0.195313 0.130208 0.130209 0.195313 0.195313 0.130208 0.195313 0.195313 0.130208 0.130209 0.195313 0.195313 0.130209 0.195313 0.195313 0.130208 0.130208 0.195313 0.195313 0.130208 0.195313 0.195313 0.130208 0.130208 0.195313 0.195313 0.130209 0.195313 0.195313 0.130209 0.130209 0.195313 0.195313 0.130209 0.195313 0.195313 0.130208 0.130209 0.195313 0.195313 0.130209 0.195313 0.195313 0.130209 0.130208 0.195313 0.195312 0.130208 0.195313 0.195313 0.130208 0.130208 0.195313 0.195313 0.130208 0.195313 0.195313 0.130208 0.130209 0.195313 0.195313 0.130209 0.195313 0.195313 0.130208 0.130208 0.195312 0.195313 0.130208 0.195313 0.195312 0.130208 0.130209 0.195313 0.195312 0.130209 0.195312 0.195313 0.130208 0.130208 0.195312 0.195313 0.130208 0.195313 0.195312 0.130208 0.130209 0.195313 0.195313 0.130209 0.195313 0.195313 0.130209 0.130208 0.195312 0.195312 0.130208 0.195312 0.195312 0.130208 0.130208 0.195313 0.195313 0.130209 0.195313 0.195313 0.130208 0.130209 0.195313 0.195313 0.130209 0.195313 0.195313 0.130208 0.130209 0.195313 0.0976565 0.130209 0.0976565 0.195313 0.0651044 0.130208 0.195313 0.195313 0.130208 0.195313 0.0976564 0.0651042 0.195313 0.0976563 0.130208 0.130208 0.195313 0.195313 0.130208 0.195313 0.195313 0.130208 0.130208 0.195313 0.195313 0.130208 0.195313 0.195313 0.130208 0.130208 0.195313 0.195313 0.130208 0.195313 0.195313 0.130208 0.130208 0.195313 0.195313 0.130208 0.195313 0.195313 0.130208 0.130208 0.195313 0.195313 0.130208 0.195313 0.195313 0.130208 0.130208 0.195313 0.195313 0.130208 0.195313 0.195313 0.130208 0.130208 0.195313 0.195313 0.130208 0.195313 0.195313 0.130208 0.130208 0.195313 0.195313 0.130208 0.195313 0.195313 0.130208 0.130208 0.195313 0.195313 0.130208 0.195313 0.195313 0.130208 0.130209 0.195313 0.195313 0.130209 0.195313 0.195313 0.130208 0.130209 0.195313 0.195313 0.130209 0.195313 0.195313 0.130208 0.130208 0.195313 0.195313 0.130208 0.195313 0.195313 0.130208 0.130208 0.195313 0.195313 0.130208 0.195313 0.195313 0.130208 0.130208 0.195312 0.195313 0.130208 0.195313 0.195313 0.130208 0.130209 0.195313 0.195313 0.130209 0.195313 0.195313 0.130208 0.130209 0.195313 0.195313 0.130209 0.195313 0.195313 0.130209 0.130209 0.195313 0.195313 0.130208 0.195313 0.195313 0.130208 0.130208 0.195313 0.195313 0.130209 0.195313 0.195313 0.130209 0.130209 0.195313 0.195313 0.130209 0.195313 0.195313 0.130208 0.130209 0.195313 0.195313 0.130209 0.195313 0.195313 0.130209 0.130208 0.195313 0.195313 0.130208 0.195313 0.195313 0.130208 0.130208 0.195313 0.195313 0.130209 0.195313 0.195313 0.130208 0.130209 0.195313 0.195313 0.130209 0.195313 0.195313 0.130208 0.130208 0.195312 0.195313 0.130208 0.195313 0.195312 0.130208 0.130209 0.195313 0.195312 0.130209 0.195312 0.195313 0.130208 0.130208 0.195312 0.195313 0.130208 0.195313 0.195312 0.130208 0.130209 0.195313 0.195313 0.130209 0.195313 0.195313 0.130209 0.130208 0.195312 0.195312 0.130208 0.195312 0.195312 0.130208 0.130208 0.195313 0.195313 0.130209 0.195313 0.195313 0.130208 0.130209 0.195313 0.195313 0.130209 0.195313 0.195313 0.130208 0.130209 0.195313 0.0976566 0.130209 0.0976565 0.195313 0.0651044 0.130208 0.195313 0.195313 0.130208 0.195313 0.0976564 0.0651043 0.195313 0.0976564 0.130208 0.130208 0.195313 0.195313 0.130208 0.195313 0.195313 0.130208 0.130208 0.195313 0.195313 0.130209 0.195313 0.195313 0.130208 0.130208 0.195313 0.195313 0.130208 0.195313 0.195313 0.130208 0.130208 0.195313 0.195313 0.130208 0.195313 0.195313 0.130208 0.130208 0.195313 0.195313 0.130209 0.195313 0.195313 0.130208 0.130208 0.195313 0.195313 0.130208 0.195313 0.195313 0.130208 0.130208 0.195313 0.195313 0.130208 0.195313 0.195313 0.130208 0.130208 0.195313 0.195313 0.130208 0.195313 0.195313 0.130208 0.130208 0.195313 0.195313 0.130208 0.195313 0.195313 0.130208 0.130209 0.195313 0.195313 0.130209 0.195313 0.195313 0.130209 0.130209 0.195313 0.195313 0.130209 0.195313 0.195313 0.130208 0.130208 0.195313 0.195313 0.130208 0.195313 0.195313 0.130208 0.130208 0.195313 0.195313 0.130209 0.195313 0.195313 0.130208 0.130208 0.195313 0.195313 0.130208 0.195313 0.195313 0.130208 0.130209 0.195313 0.195313 0.130209 0.195313 0.195313 0.130209 0.130209 0.195313 0.195313 0.130209 0.195313 0.195313 0.130209 0.130209 0.195313 0.195313 0.130209 0.195313 0.195313 0.130208 0.130208 0.195313 0.195313 0.130209 0.195313 0.195313 0.130209 0.130209 0.195313 0.195313 0.130209 0.195313 0.195313 0.130208 0.130209 0.195313 0.195313 0.130209 0.195313 0.195313 0.130209 0.130209 0.195313 0.195313 0.130208 0.195313 0.195313 0.130208 0.130208 0.195313 0.195313 0.130209 0.195313 0.195313 0.130208 0.130209 0.195313 0.195313 0.130209 0.195313 0.195313 0.130208 0.130208 0.195312 0.195313 0.130208 0.195313 0.195312 0.130209 0.130209 0.195313 0.195312 0.130209 0.195312 0.195313 0.130208 0.130208 0.195312 0.195313 0.130208 0.195313 0.195312 0.130208 0.130209 0.195313 0.195313 0.130209 0.195313 0.195313 0.130209 0.130208 0.195312 0.195312 0.130208 0.195312 0.195312 0.130208 0.130208 0.195313 0.195313 0.130209 0.195313 0.195313 0.130208 0.130209 0.195313 0.195313 0.130209 0.195313 0.195313 0.130208 0.130209 0.195313 0.0976566 0.130209 0.0976566 0.195313 0.0651044 0.130208 0.195313 0.195313 0.130208 0.195313 0.0976563 0.0651042 0.195313 0.0976564 0.130208 0.130208 0.195313 0.195313 0.130208 0.195313 0.195313 0.130208 0.130208 0.195313 0.195313 0.130208 0.195313 0.195313 0.130208 0.130208 0.195313 0.195313 0.130208 0.195313 0.195313 0.130208 0.130208 0.195313 0.195313 0.130208 0.195313 0.195313 0.130208 0.130208 0.195313 0.195313 0.130208 0.195313 0.195313 0.130208 0.130208 0.195313 0.195312 0.130208 0.195313 0.195313 0.130208 0.130208 0.195313 0.195313 0.130208 0.195313 0.195313 0.130208 0.130208 0.195313 0.195312 0.130208 0.195313 0.195313 0.130208 0.130208 0.195313 0.195313 0.130208 0.195313 0.195313 0.130208 0.130208 0.195313 0.195313 0.130209 0.195313 0.195313 0.130209 0.130208 0.195313 0.195313 0.130209 0.195313 0.195313 0.130208 0.130208 0.195313 0.195313 0.130208 0.195313 0.195313 0.130208 0.130208 0.195313 0.195312 0.130208 0.195313 0.195313 0.130208 0.130208 0.195312 0.195313 0.130208 0.195313 0.195312 0.130208 0.130209 0.195313 0.195313 0.130209 0.195313 0.195313 0.130208 0.130209 0.195313 0.195313 0.130209 0.195313 0.195313 0.130209 0.130208 0.195313 0.195313 0.130208 0.195313 0.195313 0.130208 0.130208 0.195313 0.195313 0.130209 0.195313 0.195313 0.130209 0.130209 0.195313 0.195313 0.130209 0.195313 0.195313 0.130208 0.130209 0.195313 0.195313 0.130209 0.195313 0.195313 0.130209 0.130208 0.195313 0.195312 0.130208 0.195313 0.195313 0.130208 0.130208 0.195313 0.195313 0.130209 0.195313 0.195313 0.130208 0.130208 0.195313 0.195313 0.130209 0.195313 0.195313 0.130208 0.130208 0.195312 0.195313 0.130208 0.195313 0.195312 0.130208 0.130209 0.195313 0.195312 0.130209 0.195312 0.195313 0.130208 0.130208 0.195312 0.195313 0.130208 0.195313 0.195312 0.130208 0.130209 0.195313 0.195313 0.130209 0.195313 0.195313 0.130209 0.130208 0.195312 0.195312 0.130208 0.195312 0.195312 0.130208 0.130208 0.195313 0.195313 0.130209 0.195313 0.195313 0.130208 0.130209 0.195313 0.195313 0.130209 0.195313 0.195313 0.130208 0.130209 0.195313 0.0976565 0.130209 0.0976565 0.195313 0.0651044 0.0651042 0.195313 0.0976562 0.130208 0.195313 0.0325521 0.0651042 0.0976563 0.0976563 0.130208 0.0651042 0.195313 0.0976562 0.130208 0.195313 0.0976563 0.130208 0.0651042 0.195313 0.0976562 0.130208 0.195313 0.0976563 0.130208 0.0651042 0.195313 0.0976562 0.130208 0.195313 0.0976563 0.130208 0.0651042 0.195312 0.0976562 0.130208 0.195313 0.0976563 0.130208 0.0651042 0.195313 0.0976562 0.130208 0.195313 0.0976563 0.130208 0.0651042 0.195313 0.0976562 0.130208 0.195313 0.0976563 0.130208 0.0651042 0.195312 0.0976563 0.130208 0.195313 0.0976563 0.130208 0.0651042 0.195312 0.0976562 0.130208 0.195312 0.0976563 0.130208 0.0651042 0.195312 0.0976562 0.130208 0.195313 0.0976563 0.130208 0.0651043 0.195313 0.0976563 0.130208 0.195313 0.0976564 0.130208 0.0651043 0.195313 0.0976563 0.130208 0.195313 0.0976564 0.130208 0.0651042 0.195313 0.0976562 0.130208 0.195313 0.0976563 0.130208 0.0651042 0.195313 0.0976562 0.130208 0.195313 0.0976563 0.130208 0.0651041 0.195312 0.0976562 0.130208 0.195313 0.0976562 0.130208 0.0651043 0.195313 0.0976564 0.130208 0.195313 0.0976565 0.130208 0.0651043 0.195313 0.0976563 0.130208 0.195313 0.0976565 0.130208 0.0651043 0.195313 0.0976562 0.130208 0.195313 0.0976564 0.130208 0.0651042 0.195313 0.0976564 0.130209 0.195313 0.0976564 0.130209 0.0651044 0.195313 0.0976562 0.130208 0.195313 0.0976566 0.130208 0.0651042 0.195313 0.0976563 0.130209 0.195313 0.0976564 0.130208 0.0651042 0.195313 0.0976561 0.130208 0.195313 0.0976563 0.130208 0.0651042 0.195313 0.0976563 0.130208 0.195313 0.0976563 0.130208 0.0651043 0.195313 0.0976562 0.130208 0.195312 0.0976564 0.130208 0.0651041 0.195312 0.0976562 0.130208 0.195313 0.0976562 0.130208 0.0651044 0.195313 0.0976562 0.130209 0.195312 0.0976566 0.130208 0.0651041 0.195312 0.0976562 0.130208 0.195313 0.0976561 0.130208 0.0651044 0.195313 0.0976564 0.130209 0.195313 0.0976566 0.130208 0.0651043 0.195312 0.0976561 0.130208 0.195312 0.0976565 0.130208 0.0651043 0.195313 0.0976563 0.130209 0.195313 0.0976565 0.130208 0.0651044 0.195313 0.0976563 0.130209 0.195313 0.0976567 0.130208 0.0651044 0.195313 0.0651043 0.130208 0.0976565 0.0976565 0.0651043 0.130208 0.195313 0.195313 0.130208 0.195313 0.0976563 0.0651042 0.0651042 0.0976563 0.0651042 0.195313 0.0976562 0.0976563 0.130208 0.130208 0.195313 0.195313 0.130208 0.195313 0.0976562 0.0651042 0.195313 0.0976562 0.130208 0.130208 0.195313 0.195313 0.130208 0.195313 0.0976563 0.0651042 0.195313 0.0976563 0.130208 0.130208 0.195313 0.195313 0.130208 0.195312 0.0976562 0.0651042 0.195313 0.0976562 0.130208 0.130208 0.195313 0.195313 0.130208 0.195313 0.0976562 0.0651042 0.195313 0.0976563 0.130208 0.130208 0.195313 0.195313 0.130208 0.195313 0.0976563 0.0651042 0.195313 0.0976563 0.130208 0.130208 0.195313 0.195312 0.130208 0.195312 0.0976562 0.0651042 0.195313 0.0976562 0.130208 0.130208 0.195312 0.195313 0.130208 0.195312 0.0976562 0.0651041 0.195312 0.0976562 0.130208 0.130208 0.195312 0.195312 0.130208 0.195312 0.0976562 0.0651041 0.195312 0.0976562 0.130208 0.130208 0.195313 0.195313 0.130208 0.195313 0.0976562 0.0651042 0.195312 0.0976563 0.130208 0.130208 0.195313 0.195313 0.130208 0.195313 0.0976563 0.0651042 0.195313 0.0976563 0.130208 0.130208 0.195313 0.195313 0.130208 0.195312 0.0976562 0.0651042 0.195313 0.0976562 0.130208 0.130208 0.195313 0.195313 0.130208 0.195313 0.0976563 0.0651042 0.195313 0.0976563 0.130208 0.130208 0.195313 0.195312 0.130208 0.195312 0.0976563 0.0651042 0.195313 0.0976562 0.130208 0.130208 0.195312 0.195313 0.130208 0.195313 0.0976562 0.0651041 0.195312 0.0976563 0.130208 0.130209 0.195313 0.195313 0.130208 0.195313 0.0976562 0.0651042 0.195313 0.0976563 0.130208 0.130209 0.195313 0.195313 0.130208 0.195313 0.0976563 0.0651042 0.195313 0.0976564 0.130209 0.130208 0.195313 0.195313 0.130208 0.195312 0.0976562 0.0651042 0.195313 0.0976563 0.130208 0.130208 0.195313 0.195313 0.130208 0.195313 0.0976564 0.0651042 0.195313 0.0976564 0.130209 0.130209 0.195313 0.195313 0.130208 0.195312 0.0976561 0.0651041 0.195313 0.0976563 0.130208 0.130209 0.195313 0.195313 0.130209 0.195313 0.0976565 0.0651043 0.195313 0.0976564 0.130209 0.130208 0.195313 0.195312 0.130208 0.195312 0.0976563 0.0651042 0.195313 0.0976563 0.130208 0.130208 0.195313 0.195313 0.130208 0.195313 0.0976563 0.0651042 0.195313 0.0976563 0.130208 0.130208 0.195313 0.195313 0.130208 0.195312 0.0976563 0.0651042 0.195313 0.0976562 0.130208 0.130208 0.195312 0.195313 0.130208 0.195313 0.0976561 0.0651041 0.195312 0.0976563 0.130208 0.130209 0.195313 0.195312 0.130208 0.195312 0.0976562 0.0651042 0.195313 0.0976561 0.130208 0.130208 0.195312 0.195313 0.130208 0.195313 0.097656 0.065104 0.195312 0.0976563 0.130208 0.130209 0.195313 0.195313 0.130209 0.195313 0.0976564 0.0651043 0.195313 0.0976564 0.130209 0.130208 0.195312 0.195312 0.130208 0.195312 0.0976558 0.065104 0.195312 0.0976563 0.130208 0.130208 0.195313 0.195313 0.130208 0.195313 0.0976561 0.0651041 0.195313 0.0976564 0.130208 0.130209 0.195313 0.195313 0.130209 0.195313 0.0976562 0.0651042 0.195313 0.0976561 0.130208 0.130209 0.195313 0.0976566 0.130208 0.0976565 0.0976565 0.0651043 0.195313 0.0325522 0.0651044 0.130208 0.195313 0.195313 0.130208 0.195313 0.0976563 0.0651042 0.195313 0.0976562 0.130208 0.130208 0.195313 0.195313 0.130208 0.195313 0.195313 0.130208 0.130208 0.195313 0.195313 0.130208 0.195313 0.195313 0.130208 0.130208 0.195313 0.195313 0.130208 0.195313 0.195313 0.130208 0.130208 0.195313 0.195313 0.130208 0.195313 0.195313 0.130208 0.130208 0.195313 0.195313 0.130208 0.195313 0.195313 0.130208 0.130208 0.195313 0.195312 0.130208 0.195312 0.195312 0.130208 0.130208 0.195313 0.195313 0.130208 0.195312 0.195312 0.130208 0.130208 0.195312 0.195313 0.130208 0.195312 0.195312 0.130208 0.130208 0.195313 0.195313 0.130208 0.195313 0.195312 0.130208 0.130208 0.195313 0.195313 0.130208 0.195313 0.195313 0.130209 0.130208 0.195313 0.195313 0.130208 0.195312 0.195313 0.130208 0.130208 0.195313 0.195313 0.130208 0.195313 0.195313 0.130208 0.130208 0.195313 0.195313 0.130208 0.195312 0.195313 0.130208 0.130208 0.195312 0.195313 0.130208 0.195313 0.195312 0.130208 0.130209 0.195313 0.195313 0.130208 0.195313 0.195313 0.130208 0.130209 0.195313 0.195313 0.130208 0.195313 0.195313 0.130209 0.130208 0.195313 0.195313 0.130208 0.195313 0.195313 0.130208 0.130208 0.195313 0.195313 0.130208 0.195313 0.195313 0.130209 0.130209 0.195313 0.195313 0.130208 0.195313 0.195313 0.130208 0.130209 0.195313 0.195313 0.130209 0.195313 0.195313 0.130209 0.130208 0.195313 0.195312 0.130208 0.195313 0.195313 0.130208 0.130208 0.195313 0.195313 0.130208 0.195313 0.195313 0.130208 0.130208 0.195313 0.195313 0.130208 0.195312 0.195313 0.130208 0.130208 0.195312 0.195313 0.130208 0.195313 0.195312 0.130208 0.130209 0.195313 0.195312 0.130208 0.195312 0.195313 0.130208 0.130208 0.195312 0.195313 0.130208 0.195313 0.195312 0.130208 0.130209 0.195313 0.195313 0.130209 0.195313 0.195313 0.130209 0.130208 0.195312 0.195312 0.130208 0.195312 0.195312 0.130208 0.130208 0.195313 0.195313 0.130208 0.195313 0.195313 0.130208 0.130209 0.195313 0.195313 0.130209 0.195313 0.195313 0.130208 0.130209 0.195313 0.0976566 0.130208 0.0976565 0.195313 0.0651044 0.130208 0.195313 0.195313 0.130208 0.195313 0.0976563 0.0651042 0.195313 0.0976563 0.130208 0.130208 0.195313 0.195313 0.130208 0.195313 0.195313 0.130208 0.130208 0.195313 0.195313 0.130208 0.195313 0.195313 0.130208 0.130208 0.195313 0.195313 0.130208 0.195313 0.195313 0.130208 0.130208 0.195313 0.195313 0.130208 0.195313 0.195313 0.130208 0.130208 0.195313 0.195313 0.130208 0.195313 0.195313 0.130208 0.130208 0.195313 0.195312 0.130208 0.195312 0.195312 0.130208 0.130208 0.195313 0.195313 0.130208 0.195313 0.195312 0.130208 0.130208 0.195313 0.195312 0.130208 0.195312 0.195312 0.130208 0.130208 0.195313 0.195313 0.130208 0.195313 0.195312 0.130208 0.130208 0.195313 0.195313 0.130208 0.195313 0.195313 0.130209 0.130209 0.195313 0.195313 0.130208 0.195312 0.195313 0.130208 0.130208 0.195313 0.195313 0.130208 0.195313 0.195313 0.130208 0.130208 0.195313 0.195313 0.130208 0.195313 0.195313 0.130208 0.130208 0.195312 0.195313 0.130208 0.195313 0.195312 0.130208 0.130209 0.195313 0.195313 0.130208 0.195313 0.195313 0.130208 0.130209 0.195313 0.195313 0.130208 0.195313 0.195313 0.130209 0.130208 0.195313 0.195313 0.130208 0.195313 0.195313 0.130208 0.130208 0.195313 0.195313 0.130208 0.195313 0.195313 0.130209 0.130209 0.195313 0.195313 0.130208 0.195313 0.195313 0.130208 0.130209 0.195313 0.195313 0.130209 0.195313 0.195313 0.130209 0.130208 0.195313 0.195312 0.130208 0.195313 0.195313 0.130208 0.130208 0.195313 0.195313 0.130208 0.195313 0.195313 0.130208 0.130208 0.195313 0.195313 0.130208 0.195312 0.195313 0.130208 0.130208 0.195312 0.195313 0.130208 0.195313 0.195312 0.130208 0.130209 0.195313 0.195312 0.130208 0.195312 0.195313 0.130208 0.130208 0.195312 0.195313 0.130208 0.195313 0.195312 0.130208 0.130209 0.195313 0.195313 0.130209 0.195313 0.195313 0.130209 0.130208 0.195312 0.195312 0.130208 0.195312 0.195312 0.130208 0.130208 0.195313 0.195313 0.130208 0.195313 0.195313 0.130208 0.130209 0.195313 0.195313 0.130209 0.195313 0.195313 0.130208 0.130209 0.195313 0.0976566 0.130208 0.0976565 0.195313 0.0651044 0.130208 0.195313 0.195313 0.130208 0.195312 0.0976562 0.0651042 0.195313 0.0976562 0.130208 0.130208 0.195313 0.195313 0.130208 0.195312 0.195313 0.130208 0.130208 0.195313 0.195313 0.130208 0.195312 0.195313 0.130208 0.130208 0.195313 0.195313 0.130208 0.195312 0.195313 0.130208 0.130208 0.195313 0.195313 0.130208 0.195312 0.195313 0.130208 0.130208 0.195313 0.195313 0.130208 0.195312 0.195313 0.130208 0.130208 0.195313 0.195312 0.130208 0.195312 0.195312 0.130208 0.130208 0.195312 0.195313 0.130208 0.195312 0.195312 0.130208 0.130208 0.195312 0.195312 0.130208 0.195312 0.195312 0.130208 0.130208 0.195312 0.195313 0.130208 0.195312 0.195312 0.130208 0.130208 0.195313 0.195313 0.130208 0.195313 0.195313 0.130208 0.130208 0.195313 0.195313 0.130208 0.195312 0.195313 0.130208 0.130208 0.195313 0.195313 0.130208 0.195312 0.195313 0.130208 0.130208 0.195313 0.195312 0.130208 0.195312 0.195313 0.130208 0.130208 0.195312 0.195313 0.130208 0.195313 0.195312 0.130208 0.130209 0.195313 0.195313 0.130208 0.195313 0.195313 0.130208 0.130209 0.195313 0.195313 0.130208 0.195313 0.195313 0.130209 0.130208 0.195313 0.195313 0.130208 0.195312 0.195313 0.130208 0.130208 0.195313 0.195313 0.130208 0.195313 0.195313 0.130209 0.130209 0.195313 0.195313 0.130208 0.195312 0.195313 0.130208 0.130209 0.195313 0.195313 0.130209 0.195313 0.195313 0.130209 0.130208 0.195313 0.195312 0.130208 0.195312 0.195313 0.130208 0.130208 0.195313 0.195313 0.130208 0.195313 0.195313 0.130208 0.130208 0.195313 0.195313 0.130208 0.195312 0.195313 0.130208 0.130208 0.195312 0.195313 0.130208 0.195313 0.195312 0.130208 0.130209 0.195313 0.195312 0.130208 0.195312 0.195313 0.130208 0.130208 0.195312 0.195313 0.130208 0.195313 0.195312 0.130208 0.130209 0.195313 0.195313 0.130209 0.195313 0.195313 0.130209 0.130208 0.195312 0.195312 0.130208 0.195312 0.195312 0.130208 0.130208 0.195313 0.195313 0.130208 0.195313 0.195313 0.130208 0.130209 0.195313 0.195313 0.130209 0.195313 0.195313 0.130208 0.130209 0.195313 0.0976566 0.130208 0.0976564 0.195313 0.0651044 0.130208 0.195313 0.195313 0.130208 0.195313 0.0976563 0.0651042 0.195313 0.0976562 0.130208 0.130208 0.195313 0.195313 0.130208 0.195313 0.195313 0.130208 0.130208 0.195313 0.195313 0.130208 0.195313 0.195313 0.130208 0.130208 0.195313 0.195313 0.130208 0.195312 0.195313 0.130208 0.130208 0.195313 0.195313 0.130208 0.195313 0.195313 0.130208 0.130208 0.195313 0.195313 0.130208 0.195313 0.195313 0.130208 0.130208 0.195313 0.195313 0.130208 0.195312 0.195313 0.130208 0.130208 0.195312 0.195313 0.130208 0.195312 0.195312 0.130208 0.130208 0.195313 0.195313 0.130208 0.195312 0.195312 0.130208 0.130208 0.195313 0.195313 0.130208 0.195313 0.195312 0.130208 0.130208 0.195313 0.195313 0.130208 0.195313 0.195313 0.130208 0.130208 0.195313 0.195313 0.130208 0.195312 0.195313 0.130208 0.130208 0.195313 0.195313 0.130208 0.195313 0.195313 0.130208 0.130208 0.195313 0.195313 0.130208 0.195312 0.195313 0.130208 0.130208 0.195312 0.195313 0.130208 0.195313 0.195312 0.130208 0.130209 0.195313 0.195313 0.130208 0.195313 0.195313 0.130208 0.130209 0.195313 0.195313 0.130208 0.195313 0.195313 0.130209 0.130208 0.195313 0.195313 0.130208 0.195312 0.195313 0.130208 0.130208 0.195313 0.195313 0.130208 0.195313 0.195313 0.130209 0.130209 0.195313 0.195313 0.130208 0.195312 0.195313 0.130208 0.130209 0.195313 0.195313 0.130209 0.195313 0.195313 0.130209 0.130208 0.195313 0.195312 0.130208 0.195313 0.195313 0.130208 0.130208 0.195313 0.195313 0.130208 0.195313 0.195313 0.130208 0.130208 0.195313 0.195313 0.130208 0.195312 0.195313 0.130208 0.130208 0.195312 0.195313 0.130208 0.195313 0.195312 0.130208 0.130209 0.195313 0.195312 0.130208 0.195312 0.195313 0.130208 0.130208 0.195312 0.195313 0.130208 0.195313 0.195312 0.130208 0.130209 0.195313 0.195313 0.130209 0.195313 0.195313 0.130209 0.130208 0.195312 0.195312 0.130208 0.195312 0.195312 0.130208 0.130208 0.195313 0.195313 0.130208 0.195313 0.195313 0.130208 0.130209 0.195313 0.195313 0.130209 0.195313 0.195313 0.130208 0.130209 0.195313 0.0976566 0.130208 0.0976565 0.195313 0.0651044 0.130208 0.195313 0.195313 0.130208 0.195313 0.0976563 0.0651042 0.195313 0.0976563 0.130208 0.130208 0.195313 0.195313 0.130208 0.195313 0.195313 0.130208 0.130208 0.195313 0.195313 0.130208 0.195313 0.195313 0.130208 0.130208 0.195313 0.195313 0.130208 0.195313 0.195313 0.130208 0.130208 0.195313 0.195313 0.130208 0.195313 0.195313 0.130208 0.130208 0.195313 0.195313 0.130208 0.195313 0.195313 0.130208 0.130208 0.195313 0.195313 0.130208 0.195313 0.195313 0.130208 0.130208 0.195313 0.195313 0.130208 0.195313 0.195312 0.130208 0.130208 0.195313 0.195313 0.130208 0.195312 0.195312 0.130208 0.130208 0.195313 0.195313 0.130208 0.195313 0.195313 0.130208 0.130208 0.195313 0.195313 0.130208 0.195313 0.195313 0.130209 0.130209 0.195313 0.195313 0.130208 0.195313 0.195313 0.130208 0.130208 0.195313 0.195313 0.130208 0.195313 0.195313 0.130208 0.130208 0.195313 0.195313 0.130208 0.195313 0.195313 0.130208 0.130208 0.195313 0.195313 0.130208 0.195313 0.195312 0.130208 0.130209 0.195313 0.195313 0.130208 0.195313 0.195313 0.130209 0.130209 0.195313 0.195313 0.130208 0.195313 0.195313 0.130209 0.130208 0.195313 0.195313 0.130208 0.195313 0.195313 0.130208 0.130208 0.195313 0.195313 0.130209 0.195313 0.195313 0.130209 0.130209 0.195313 0.195313 0.130208 0.195313 0.195313 0.130208 0.130209 0.195313 0.195313 0.130209 0.195313 0.195313 0.130209 0.130208 0.195313 0.195313 0.130208 0.195313 0.195313 0.130208 0.130208 0.195313 0.195313 0.130208 0.195313 0.195313 0.130208 0.130209 0.195313 0.195313 0.130208 0.195312 0.195313 0.130208 0.130208 0.195312 0.195313 0.130208 0.195313 0.195312 0.130209 0.130209 0.195313 0.195312 0.130209 0.195312 0.195313 0.130208 0.130208 0.195312 0.195313 0.130208 0.195313 0.195312 0.130208 0.130209 0.195313 0.195313 0.130209 0.195313 0.195313 0.130209 0.130208 0.195312 0.195312 0.130208 0.195312 0.195312 0.130208 0.130208 0.195313 0.195313 0.130208 0.195313 0.195313 0.130208 0.130209 0.195313 0.195313 0.130209 0.195313 0.195313 0.130208 0.130209 0.195313 0.0976566 0.130208 0.0976565 0.195313 0.0651044 0.130208 0.195313 0.195313 0.130208 0.195313 0.0976562 0.0651042 0.195312 0.0976563 0.130208 0.130208 0.195313 0.195313 0.130208 0.195313 0.195312 0.130208 0.130208 0.195313 0.195313 0.130208 0.195313 0.195312 0.130208 0.130208 0.195313 0.195313 0.130208 0.195313 0.195312 0.130208 0.130208 0.195313 0.195313 0.130208 0.195313 0.195312 0.130208 0.130208 0.195313 0.195313 0.130208 0.195313 0.195313 0.130208 0.130208 0.195313 0.195312 0.130208 0.195312 0.195312 0.130208 0.130208 0.195312 0.195313 0.130208 0.195312 0.195312 0.130208 0.130208 0.195312 0.195312 0.130208 0.195312 0.195312 0.130208 0.130208 0.195313 0.195313 0.130208 0.195313 0.195312 0.130208 0.130208 0.195313 0.195313 0.130208 0.195313 0.195313 0.130209 0.130208 0.195313 0.195313 0.130208 0.195312 0.195313 0.130208 0.130208 0.195313 0.195313 0.130208 0.195313 0.195312 0.130208 0.130208 0.195313 0.195312 0.130208 0.195312 0.195313 0.130208 0.130208 0.195312 0.195313 0.130208 0.195313 0.195312 0.130208 0.130208 0.195313 0.195313 0.130208 0.195313 0.195313 0.130208 0.130209 0.195313 0.195313 0.130208 0.195313 0.195313 0.130209 0.130208 0.195313 0.195313 0.130208 0.195313 0.195313 0.130208 0.130208 0.195313 0.195313 0.130208 0.195313 0.195313 0.130209 0.130209 0.195313 0.195313 0.130208 0.195313 0.195313 0.130208 0.130209 0.195313 0.195313 0.130209 0.195313 0.195313 0.130209 0.130208 0.195313 0.195312 0.130208 0.195313 0.195312 0.130208 0.130208 0.195313 0.195313 0.130208 0.195313 0.195312 0.130208 0.130208 0.195313 0.195313 0.130208 0.195312 0.195313 0.130208 0.130208 0.195312 0.195313 0.130208 0.195313 0.195312 0.130208 0.130209 0.195313 0.195312 0.130208 0.195312 0.195313 0.130208 0.130208 0.195312 0.195313 0.130208 0.195313 0.195312 0.130208 0.130209 0.195313 0.195313 0.130209 0.195313 0.195313 0.130209 0.130208 0.195312 0.195312 0.130208 0.195312 0.195312 0.130208 0.130208 0.195313 0.195313 0.130208 0.195313 0.195312 0.130208 0.130209 0.195313 0.195312 0.130209 0.195313 0.195313 0.130208 0.130209 0.195313 0.0976566 0.130208 0.0976565 0.195313 0.0651044 0.0651042 0.195312 0.0976563 0.130208 0.195312 0.0325521 0.0651042 0.0976563 0.0976562 0.130208 0.0651042 0.195312 0.0976563 0.130208 0.195312 0.0976563 0.130208 0.0651042 0.195312 0.0976563 0.130208 0.195312 0.0976563 0.130208 0.0651042 0.195312 0.0976563 0.130208 0.195312 0.0976563 0.130208 0.0651042 0.195312 0.0976563 0.130208 0.195312 0.0976563 0.130208 0.0651042 0.195313 0.0976563 0.130208 0.195312 0.0976563 0.130208 0.0651042 0.195312 0.0976563 0.130208 0.195312 0.0976563 0.130208 0.0651042 0.195312 0.0976563 0.130208 0.195312 0.0976562 0.130208 0.0651043 0.195312 0.0976563 0.130208 0.195312 0.0976563 0.130208 0.0651042 0.195312 0.0976563 0.130208 0.195312 0.0976563 0.130208 0.0651043 0.195313 0.0976564 0.130208 0.195313 0.0976563 0.130208 0.0651043 0.195313 0.0976563 0.130208 0.195312 0.0976564 0.130208 0.0651042 0.195312 0.0976563 0.130208 0.195312 0.0976562 0.130208 0.0651042 0.195313 0.0976562 0.130208 0.195312 0.0976563 0.130208 0.0651042 0.195312 0.0976563 0.130208 0.195313 0.0976562 0.130208 0.0651044 0.195313 0.0976564 0.130208 0.195313 0.0976564 0.130208 0.0651044 0.195313 0.0976564 0.130208 0.195313 0.0976564 0.130208 0.0651043 0.195313 0.0976562 0.130208 0.195312 0.0976564 0.130208 0.0651042 0.195313 0.0976565 0.130208 0.195313 0.0976563 0.130209 0.0651044 0.195313 0.0976563 0.130208 0.195312 0.0976565 0.130208 0.0651042 0.195313 0.0976564 0.130208 0.195313 0.0976564 0.130208 0.0651042 0.195312 0.0976562 0.130208 0.195312 0.0976563 0.130208 0.0651042 0.195312 0.0976563 0.130208 0.195312 0.0976562 0.130208 0.0651043 0.195313 0.0976563 0.130208 0.195312 0.0976563 0.130208 0.0651041 0.195312 0.0976563 0.130208 0.195313 0.0976561 0.130208 0.0651044 0.195313 0.0976563 0.130208 0.195312 0.0976565 0.130208 0.0651041 0.195312 0.0976562 0.130208 0.195312 0.097656 0.130208 0.0651044 0.195313 0.0976565 0.130209 0.195313 0.0976565 0.130209 0.0651043 0.195312 0.0976561 0.130208 0.195312 0.0976564 0.130208 0.0651043 0.195312 0.0976563 0.130208 0.195313 0.0976565 0.130208 0.0651044 0.195313 0.0976564 0.130208 0.195313 0.0976566 0.130208 0.0651044 0.195313 0.0651044 0.130208 0.0976564 0.0976564 0.0651044 0.130208 0.195312 0.195312 0.130208 0.195312 0.0976562 0.0651041 0.0651041 0.0976562 0.0651041 0.195312 0.0976562 0.0976562 0.130208 0.130208 0.195312 0.195312 0.130208 0.195312 0.0976562 0.0651041 0.195312 0.0976562 0.130208 0.130208 0.195312 0.195312 0.130208 0.195312 0.0976563 0.0651042 0.195312 0.0976562 0.130208 0.130208 0.195312 0.195312 0.130208 0.195312 0.0976562 0.0651041 0.195312 0.0976562 0.130208 0.130208 0.195312 0.195312 0.130208 0.195312 0.0976562 0.0651041 0.195312 0.0976562 0.130208 0.130208 0.195312 0.195312 0.130208 0.195312 0.0976563 0.0651042 0.195313 0.0976562 0.130208 0.130208 0.195312 0.195312 0.130208 0.195312 0.0976562 0.0651041 0.195312 0.0976561 0.130208 0.130208 0.195312 0.195312 0.130208 0.195312 0.0976562 0.0651041 0.195312 0.0976562 0.130208 0.130208 0.195312 0.195312 0.130208 0.195312 0.0976562 0.0651041 0.195312 0.0976562 0.130208 0.130208 0.195312 0.195312 0.130208 0.195312 0.0976562 0.0651041 0.195312 0.0976562 0.130208 0.130208 0.195313 0.195313 0.130208 0.195313 0.0976563 0.0651042 0.195313 0.0976562 0.130208 0.130208 0.195313 0.195312 0.130208 0.195312 0.0976562 0.0651041 0.195313 0.0976562 0.130208 0.130208 0.195312 0.195312 0.130208 0.195312 0.0976563 0.0651042 0.195312 0.0976563 0.130208 0.130208 0.195312 0.195312 0.130208 0.195312 0.0976563 0.0651042 0.195313 0.0976561 0.130208 0.130208 0.195312 0.195312 0.130208 0.195313 0.0976562 0.0651041 0.195312 0.0976562 0.130208 0.130208 0.195313 0.195313 0.130208 0.195313 0.0976562 0.0651041 0.195313 0.0976562 0.130208 0.130208 0.195313 0.195313 0.130208 0.195313 0.0976563 0.0651042 0.195313 0.0976563 0.130208 0.130208 0.195312 0.195312 0.130208 0.195312 0.0976562 0.0651041 0.195313 0.0976562 0.130208 0.130208 0.195313 0.195313 0.130208 0.195313 0.0976564 0.0651042 0.195313 0.0976564 0.130209 0.130208 0.195313 0.195313 0.130208 0.195312 0.0976561 0.0651041 0.195313 0.0976563 0.130208 0.130208 0.195313 0.195313 0.130209 0.195313 0.0976565 0.0651043 0.195313 0.0976563 0.130208 0.130208 0.195312 0.195312 0.130208 0.195312 0.0976563 0.0651042 0.195312 0.0976562 0.130208 0.130208 0.195312 0.195313 0.130208 0.195313 0.0976563 0.0651042 0.195312 0.0976563 0.130208 0.130208 0.195313 0.195312 0.130208 0.195312 0.0976563 0.0651042 0.195313 0.0976562 0.130208 0.130208 0.195312 0.195312 0.130208 0.195313 0.0976561 0.0651041 0.195312 0.0976562 0.130208 0.130208 0.195313 0.195312 0.130208 0.195312 0.0976562 0.0651041 0.195313 0.097656 0.130208 0.130208 0.195312 0.195312 0.130208 0.195312 0.097656 0.065104 0.195312 0.0976562 0.130208 0.130209 0.195313 0.195313 0.130209 0.195313 0.0976564 0.0651043 0.195313 0.0976563 0.130208 0.130208 0.195312 0.195312 0.130208 0.195312 0.0976558 0.0651039 0.195312 0.0976562 0.130208 0.130208 0.195312 0.195313 0.130208 0.195313 0.0976561 0.0651041 0.195312 0.0976563 0.130208 0.130209 0.195313 0.195312 0.130209 0.195313 0.0976562 0.0651042 0.195313 0.0976561 0.130208 0.130209 0.195313 0.0976566 0.130208 0.0976564 0.0976565 0.0651042 0.195313 0.0325522 0.0651044 0.130208 0.195312 0.195312 0.130208 0.195312 0.0976562 0.0651041 0.195312 0.0976562 0.130208 0.130208 0.195312 0.195312 0.130208 0.195312 0.195312 0.130208 0.130208 0.195312 0.195312 0.130208 0.195312 0.195312 0.130208 0.130208 0.195312 0.195312 0.130208 0.195312 0.195312 0.130208 0.130208 0.195312 0.195312 0.130208 0.195312 0.195312 0.130208 0.130208 0.195312 0.195312 0.130208 0.195312 0.195313 0.130208 0.130208 0.195312 0.195312 0.130208 0.195312 0.195312 0.130208 0.130208 0.195312 0.195312 0.130208 0.195312 0.195312 0.130208 0.130208 0.195312 0.195312 0.130208 0.195312 0.195312 0.130208 0.130208 0.195312 0.195312 0.130208 0.195312 0.195312 0.130208 0.130208 0.195313 0.195313 0.130208 0.195313 0.195313 0.130208 0.130208 0.195313 0.195312 0.130208 0.195312 0.195313 0.130208 0.130208 0.195312 0.195313 0.130208 0.195312 0.195312 0.130208 0.130208 0.195312 0.195312 0.130208 0.195312 0.195312 0.130208 0.130208 0.195312 0.195312 0.130208 0.195313 0.195312 0.130208 0.130208 0.195313 0.195313 0.130208 0.195313 0.195313 0.130208 0.130208 0.195313 0.195313 0.130208 0.195313 0.195313 0.130208 0.130208 0.195313 0.195312 0.130208 0.195312 0.195312 0.130208 0.130208 0.195313 0.195313 0.130208 0.195313 0.195313 0.130209 0.130208 0.195313 0.195313 0.130208 0.195312 0.195313 0.130208 0.130208 0.195313 0.195313 0.130209 0.195313 0.195313 0.130208 0.130208 0.195312 0.195312 0.130208 0.195312 0.195312 0.130208 0.130208 0.195312 0.195313 0.130208 0.195313 0.195312 0.130208 0.130208 0.195313 0.195312 0.130208 0.195312 0.195313 0.130208 0.130208 0.195312 0.195312 0.130208 0.195313 0.195312 0.130208 0.130208 0.195313 0.195312 0.130208 0.195312 0.195313 0.130208 0.130208 0.195312 0.195312 0.130208 0.195312 0.195312 0.130208 0.130209 0.195313 0.195313 0.130209 0.195313 0.195313 0.130209 0.130208 0.195312 0.195312 0.130208 0.195312 0.195312 0.130208 0.130208 0.195312 0.195313 0.130208 0.195313 0.195312 0.130208 0.130209 0.195313 0.195312 0.130209 0.195313 0.195313 0.130208 0.130209 0.195313 0.0976566 0.130208 0.0976565 0.195313 0.0651044 0.130208 0.195312 0.195312 0.130208 0.195312 0.0976562 0.0651041 0.195312 0.0976562 0.130208 0.130208 0.195312 0.195312 0.130208 0.195312 0.195312 0.130208 0.130208 0.195312 0.195312 0.130208 0.195312 0.195312 0.130208 0.130208 0.195312 0.195312 0.130208 0.195312 0.195312 0.130208 0.130208 0.195312 0.195312 0.130208 0.195312 0.195312 0.130208 0.130208 0.195313 0.195312 0.130208 0.195312 0.195312 0.130208 0.130208 0.195312 0.195312 0.130208 0.195312 0.195312 0.130208 0.130208 0.195312 0.195312 0.130208 0.195312 0.195312 0.130208 0.130208 0.195312 0.195312 0.130208 0.195312 0.195312 0.130208 0.130208 0.195312 0.195312 0.130208 0.195313 0.195312 0.130208 0.130208 0.195313 0.195313 0.130208 0.195313 0.195313 0.130208 0.130208 0.195313 0.195312 0.130208 0.195312 0.195313 0.130208 0.130208 0.195312 0.195312 0.130208 0.195313 0.195312 0.130208 0.130208 0.195312 0.195312 0.130208 0.195312 0.195312 0.130208 0.130208 0.195312 0.195312 0.130208 0.195313 0.195312 0.130208 0.130208 0.195313 0.195313 0.130208 0.195313 0.195313 0.130208 0.130208 0.195313 0.195313 0.130208 0.195313 0.195313 0.130208 0.130208 0.195313 0.195312 0.130208 0.195312 0.195313 0.130208 0.130208 0.195313 0.195313 0.130208 0.195313 0.195313 0.130209 0.130208 0.195313 0.195313 0.130208 0.195312 0.195313 0.130208 0.130208 0.195313 0.195313 0.130209 0.195313 0.195313 0.130208 0.130208 0.195312 0.195312 0.130208 0.195312 0.195312 0.130208 0.130208 0.195312 0.195313 0.130208 0.195313 0.195312 0.130208 0.130208 0.195313 0.195312 0.130208 0.195312 0.195313 0.130208 0.130208 0.195312 0.195312 0.130208 0.195313 0.195312 0.130208 0.130209 0.195313 0.195312 0.130208 0.195312 0.195313 0.130208 0.130208 0.195312 0.195312 0.130208 0.195312 0.195312 0.130208 0.130209 0.195313 0.195313 0.130209 0.195313 0.195313 0.130208 0.130208 0.195312 0.195312 0.130208 0.195312 0.195312 0.130208 0.130208 0.195312 0.195313 0.130208 0.195313 0.195312 0.130208 0.130209 0.195313 0.195312 0.130209 0.195313 0.195313 0.130208 0.130209 0.195313 0.0976566 0.130208 0.0976565 0.195313 0.0651044 0.130208 0.195312 0.195312 0.130208 0.195312 0.0976562 0.0651041 0.195312 0.0976562 0.130208 0.130208 0.195312 0.195312 0.130208 0.195312 0.195312 0.130208 0.130208 0.195312 0.195312 0.130208 0.195312 0.195312 0.130208 0.130208 0.195312 0.195312 0.130208 0.195312 0.195312 0.130208 0.130208 0.195312 0.195312 0.130208 0.195312 0.195312 0.130208 0.130208 0.195312 0.195312 0.130208 0.195312 0.195312 0.130208 0.130208 0.195312 0.195312 0.130208 0.195312 0.195312 0.130208 0.130208 0.195312 0.195312 0.130208 0.195312 0.195312 0.130208 0.130208 0.195312 0.195312 0.130208 0.195312 0.195312 0.130208 0.130208 0.195312 0.195312 0.130208 0.195312 0.195312 0.130208 0.130208 0.195313 0.195313 0.130208 0.195313 0.195313 0.130208 0.130208 0.195313 0.195312 0.130208 0.195312 0.195313 0.130208 0.130208 0.195312 0.195312 0.130208 0.195312 0.195312 0.130208 0.130208 0.195312 0.195312 0.130208 0.195312 0.195312 0.130208 0.130208 0.195312 0.195312 0.130208 0.195313 0.195312 0.130208 0.130208 0.195313 0.195313 0.130208 0.195313 0.195313 0.130208 0.130208 0.195313 0.195313 0.130208 0.195313 0.195313 0.130208 0.130208 0.195312 0.195312 0.130208 0.195312 0.195312 0.130208 0.130208 0.195313 0.195313 0.130208 0.195313 0.195313 0.130209 0.130208 0.195313 0.195312 0.130208 0.195312 0.195313 0.130208 0.130208 0.195313 0.195313 0.130208 0.195313 0.195313 0.130208 0.130208 0.195312 0.195312 0.130208 0.195312 0.195312 0.130208 0.130208 0.195312 0.195313 0.130208 0.195313 0.195312 0.130208 0.130208 0.195313 0.195312 0.130208 0.195312 0.195313 0.130208 0.130208 0.195312 0.195312 0.130208 0.195313 0.195312 0.130208 0.130208 0.195313 0.195312 0.130208 0.195312 0.195313 0.130208 0.130208 0.195312 0.195312 0.130208 0.195312 0.195312 0.130208 0.130209 0.195313 0.195313 0.130209 0.195313 0.195313 0.130208 0.130208 0.195312 0.195312 0.130208 0.195312 0.195312 0.130208 0.130208 0.195312 0.195313 0.130208 0.195313 0.195312 0.130208 0.130209 0.195313 0.195312 0.130208 0.195313 0.195313 0.130208 0.130209 0.195313 0.0976565 0.130208 0.0976564 0.195313 0.0651044 0.130208 0.195312 0.195312 0.130208 0.195312 0.0976562 0.0651041 0.195312 0.0976562 0.130208 0.130208 0.195312 0.195312 0.130208 0.195312 0.195312 0.130208 0.130208 0.195312 0.195312 0.130208 0.195312 0.195312 0.130208 0.130208 0.195312 0.195312 0.130208 0.195312 0.195312 0.130208 0.130208 0.195312 0.195312 0.130208 0.195312 0.195312 0.130208 0.130208 0.195312 0.195312 0.130208 0.195312 0.195313 0.130208 0.130208 0.195312 0.195312 0.130208 0.195312 0.195312 0.130208 0.130208 0.195312 0.195312 0.130208 0.195312 0.195312 0.130208 0.130208 0.195312 0.195312 0.130208 0.195312 0.195312 0.130208 0.130208 0.195312 0.195312 0.130208 0.195312 0.195312 0.130208 0.130208 0.195313 0.195313 0.130208 0.195313 0.195313 0.130208 0.130208 0.195313 0.195312 0.130208 0.195312 0.195313 0.130208 0.130208 0.195312 0.195313 0.130208 0.195312 0.195312 0.130208 0.130208 0.195312 0.195312 0.130208 0.195312 0.195313 0.130208 0.130208 0.195312 0.195312 0.130208 0.195313 0.195312 0.130208 0.130208 0.195313 0.195313 0.130208 0.195313 0.195313 0.130208 0.130208 0.195313 0.195313 0.130208 0.195313 0.195313 0.130208 0.130208 0.195313 0.195312 0.130208 0.195312 0.195313 0.130208 0.130208 0.195313 0.195313 0.130208 0.195313 0.195313 0.130209 0.130208 0.195313 0.195313 0.130208 0.195312 0.195313 0.130208 0.130208 0.195313 0.195313 0.130208 0.195313 0.195313 0.130208 0.130208 0.195312 0.195312 0.130208 0.195312 0.195312 0.130208 0.130208 0.195312 0.195313 0.130208 0.195313 0.195312 0.130208 0.130208 0.195313 0.195312 0.130208 0.195312 0.195313 0.130208 0.130208 0.195312 0.195312 0.130208 0.195313 0.195312 0.130208 0.130209 0.195313 0.195312 0.130208 0.195312 0.195313 0.130208 0.130208 0.195312 0.195312 0.130208 0.195312 0.195312 0.130208 0.130209 0.195313 0.195313 0.130209 0.195313 0.195313 0.130208 0.130208 0.195312 0.195312 0.130208 0.195312 0.195312 0.130208 0.130208 0.195312 0.195313 0.130208 0.195313 0.195312 0.130208 0.130209 0.195313 0.195312 0.130209 0.195313 0.195313 0.130208 0.130209 0.195313 0.0976566 0.130208 0.0976565 0.195313 0.0651044 0.130208 0.195313 0.195312 0.130208 0.195313 0.0976562 0.0651042 0.195312 0.0976562 0.130208 0.130208 0.195313 0.195312 0.130208 0.195313 0.195313 0.130208 0.130208 0.195313 0.195312 0.130208 0.195313 0.195313 0.130208 0.130208 0.195312 0.195312 0.130208 0.195313 0.195312 0.130208 0.130208 0.195313 0.195312 0.130208 0.195313 0.195312 0.130208 0.130208 0.195313 0.195312 0.130208 0.195313 0.195313 0.130208 0.130208 0.195312 0.195312 0.130208 0.195312 0.195312 0.130208 0.130208 0.195312 0.195312 0.130208 0.195313 0.195312 0.130208 0.130208 0.195312 0.195312 0.130208 0.195312 0.195312 0.130208 0.130208 0.195312 0.195312 0.130208 0.195313 0.195312 0.130208 0.130208 0.195313 0.195313 0.130208 0.195313 0.195313 0.130208 0.130208 0.195313 0.195312 0.130208 0.195312 0.195313 0.130208 0.130208 0.195313 0.195313 0.130208 0.195313 0.195313 0.130208 0.130208 0.195313 0.195312 0.130208 0.195312 0.195313 0.130208 0.130208 0.195312 0.195312 0.130208 0.195313 0.195312 0.130208 0.130208 0.195313 0.195313 0.130208 0.195313 0.195313 0.130208 0.130208 0.195313 0.195313 0.130208 0.195313 0.195313 0.130208 0.130208 0.195313 0.195312 0.130208 0.195313 0.195313 0.130208 0.130208 0.195313 0.195313 0.130208 0.195313 0.195313 0.130209 0.130209 0.195313 0.195313 0.130208 0.195313 0.195313 0.130208 0.130208 0.195313 0.195313 0.130209 0.195313 0.195313 0.130209 0.130208 0.195313 0.195312 0.130208 0.195312 0.195313 0.130208 0.130208 0.195313 0.195313 0.130208 0.195313 0.195312 0.130208 0.130208 0.195313 0.195312 0.130208 0.195312 0.195313 0.130208 0.130208 0.195312 0.195313 0.130208 0.195313 0.195312 0.130208 0.130209 0.195313 0.195312 0.130208 0.195312 0.195313 0.130208 0.130208 0.195312 0.195312 0.130208 0.195313 0.195312 0.130208 0.130209 0.195313 0.195313 0.130209 0.195313 0.195313 0.130209 0.130208 0.195312 0.195312 0.130208 0.195312 0.195312 0.130208 0.130208 0.195313 0.195313 0.130208 0.195313 0.195313 0.130208 0.130209 0.195313 0.195312 0.130209 0.195313 0.195313 0.130208 0.130209 0.195313 0.0976566 0.130208 0.0976565 0.195313 0.0651044 0.130208 0.195312 0.195312 0.130208 0.195312 0.0976561 0.0651041 0.195312 0.0976562 0.130208 0.130208 0.195312 0.195312 0.130208 0.195312 0.195312 0.130208 0.130208 0.195312 0.195312 0.130208 0.195312 0.195312 0.130208 0.130208 0.195312 0.195312 0.130208 0.195312 0.195312 0.130208 0.130208 0.195312 0.195312 0.130208 0.195312 0.195312 0.130208 0.130208 0.195313 0.195312 0.130208 0.195312 0.195312 0.130208 0.130208 0.195312 0.195312 0.130208 0.195312 0.195312 0.130208 0.130208 0.195312 0.195312 0.130208 0.195312 0.195312 0.130208 0.130208 0.195312 0.195312 0.130208 0.195312 0.195312 0.130208 0.130208 0.195312 0.195312 0.130208 0.195312 0.195312 0.130208 0.130208 0.195313 0.195313 0.130208 0.195313 0.195313 0.130208 0.130208 0.195313 0.195312 0.130208 0.195312 0.195312 0.130208 0.130208 0.195312 0.195312 0.130208 0.195312 0.195312 0.130208 0.130208 0.195312 0.195312 0.130208 0.195312 0.195312 0.130208 0.130208 0.195312 0.195312 0.130208 0.195313 0.195312 0.130208 0.130208 0.195313 0.195313 0.130208 0.195313 0.195313 0.130208 0.130208 0.195313 0.195313 0.130208 0.195313 0.195313 0.130208 0.130208 0.195313 0.195312 0.130208 0.195312 0.195312 0.130208 0.130208 0.195313 0.195313 0.130208 0.195313 0.195313 0.130209 0.130208 0.195313 0.195312 0.130208 0.195312 0.195313 0.130208 0.130208 0.195313 0.195313 0.130209 0.195313 0.195313 0.130208 0.130208 0.195312 0.195312 0.130208 0.195312 0.195312 0.130208 0.130208 0.195312 0.195313 0.130208 0.195313 0.195312 0.130208 0.130208 0.195313 0.195312 0.130208 0.195312 0.195312 0.130208 0.130208 0.195312 0.195312 0.130208 0.195313 0.195312 0.130208 0.130208 0.195313 0.195312 0.130208 0.195312 0.195313 0.130208 0.130208 0.195312 0.195312 0.130208 0.195313 0.195312 0.130208 0.130209 0.195313 0.195313 0.130209 0.195313 0.195313 0.130208 0.130208 0.195312 0.195312 0.130208 0.195312 0.195312 0.130208 0.130208 0.195312 0.195313 0.130208 0.195313 0.195312 0.130208 0.130209 0.195313 0.195312 0.130209 0.195313 0.195313 0.130208 0.130209 0.195313 0.0976566 0.130208 0.0976564 0.195313 0.0651044 0.0651042 0.195312 0.0976562 0.130208 0.195312 0.0325521 0.0651041 0.0976562 0.0976562 0.130208 0.0651042 0.195312 0.0976562 0.130208 0.195312 0.0976562 0.130208 0.0651042 0.195312 0.0976562 0.130208 0.195312 0.0976562 0.130208 0.0651042 0.195312 0.0976562 0.130208 0.195312 0.0976562 0.130208 0.0651042 0.195312 0.0976562 0.130208 0.195312 0.0976562 0.130208 0.0651042 0.195312 0.0976562 0.130208 0.195312 0.0976562 0.130208 0.0651042 0.195312 0.0976562 0.130208 0.195312 0.0976562 0.130208 0.0651042 0.195312 0.0976563 0.130208 0.195312 0.0976562 0.130208 0.0651042 0.195312 0.0976562 0.130208 0.195312 0.0976562 0.130208 0.0651042 0.195312 0.0976562 0.130208 0.195312 0.0976562 0.130208 0.0651042 0.195312 0.0976563 0.130208 0.195312 0.0976563 0.130208 0.0651043 0.195312 0.0976562 0.130208 0.195312 0.0976563 0.130208 0.0651042 0.195312 0.0976562 0.130208 0.195312 0.0976562 0.130208 0.0651042 0.195312 0.0976562 0.130208 0.195312 0.0976562 0.130208 0.0651041 0.195312 0.0976562 0.130208 0.195312 0.0976561 0.130208 0.0651043 0.195312 0.0976564 0.130208 0.195312 0.0976563 0.130208 0.0651043 0.195313 0.0976563 0.130208 0.195313 0.0976563 0.130208 0.0651043 0.195312 0.0976562 0.130208 0.195312 0.0976563 0.130208 0.0651042 0.195313 0.0976564 0.130208 0.195313 0.0976562 0.130209 0.0651044 0.195312 0.0976562 0.130208 0.195312 0.0976565 0.130208 0.0651042 0.195313 0.0976563 0.130208 0.195313 0.0976563 0.130208 0.0651042 0.195312 0.0976561 0.130208 0.195312 0.0976562 0.130208 0.0651042 0.195312 0.0976563 0.130208 0.195312 0.0976562 0.130208 0.0651042 0.195312 0.0976562 0.130208 0.195312 0.0976563 0.130208 0.0651041 0.195312 0.0976562 0.130208 0.195313 0.0976561 0.130208 0.0651044 0.195313 0.0976562 0.130208 0.195312 0.0976565 0.130208 0.0651041 0.195312 0.0976562 0.130208 0.195312 0.097656 0.130208 0.0651044 0.195313 0.0976565 0.130208 0.195313 0.0976564 0.130208 0.0651043 0.195312 0.0976561 0.130208 0.195312 0.0976563 0.130208 0.0651043 0.195312 0.0976563 0.130208 0.195313 0.0976564 0.130208 0.0651044 0.195313 0.0976563 0.130208 0.195312 0.0976565 0.130208 0.0651044 0.195313 0.0651043 0.130208 0.0976564 0.0976563 0.0651044 0.130208 0.195312 0.195312 0.0651041 0.0976562 0.0325521 0.0651041 0.0651042 0.0976562 0.0651041 0.0976562 0.032552 0.0976562 0.130208 0.130208 0.195312 0.195312 0.0651041 0.0976562 0.0325521 0.0651042 0.0976562 0.0976562 0.130208 0.130208 0.195312 0.195312 0.0651041 0.0976562 0.0325521 0.0651042 0.0976562 0.0976562 0.130208 0.130208 0.195312 0.195312 0.0651041 0.0976562 0.0325521 0.0651042 0.0976562 0.0976562 0.130208 0.130208 0.195312 0.195312 0.0651041 0.0976562 0.0325521 0.0651042 0.0976562 0.0976562 0.130208 0.130208 0.195313 0.195312 0.0651041 0.0976562 0.0325521 0.0651042 0.0976562 0.0976562 0.130208 0.130208 0.195312 0.195312 0.0651041 0.0976562 0.0325521 0.0651042 0.0976562 0.0976561 0.130208 0.130208 0.195312 0.195312 0.0651041 0.0976562 0.032552 0.0651041 0.0976561 0.0976562 0.130208 0.130208 0.195312 0.195312 0.0651041 0.0976561 0.0325521 0.0651041 0.0976562 0.0976562 0.130208 0.130208 0.195312 0.195312 0.0651041 0.0976562 0.0325521 0.0651042 0.0976562 0.0976562 0.130208 0.130208 0.195313 0.195313 0.0651041 0.0976563 0.0325521 0.0651042 0.0976562 0.0976563 0.130208 0.130208 0.195313 0.195312 0.0651041 0.0976562 0.0325521 0.0651042 0.0976563 0.0976562 0.130208 0.130208 0.195312 0.195313 0.0651041 0.0976562 0.0325521 0.0651042 0.0976562 0.0976563 0.130208 0.130208 0.195312 0.195312 0.0651042 0.0976562 0.0325521 0.0651042 0.0976562 0.0976562 0.130208 0.130208 0.195312 0.195312 0.0651041 0.0976562 0.032552 0.0651041 0.0976561 0.0976562 0.130208 0.130208 0.195313 0.195313 0.0651041 0.0976562 0.0325521 0.0651042 0.0976562 0.0976562 0.130208 0.130208 0.195313 0.195313 0.0651041 0.0976563 0.0325521 0.0651042 0.0976563 0.0976563 0.130208 0.130208 0.195312 0.195312 0.0651042 0.0976563 0.0325521 0.0651042 0.0976563 0.0976563 0.130208 0.130208 0.195313 0.195313 0.0651042 0.0976563 0.0325521 0.0651042 0.0976563 0.0976564 0.130209 0.130208 0.195313 0.195313 0.0651042 0.0976563 0.0325521 0.0651041 0.0976564 0.0976563 0.130208 0.130208 0.195313 0.195313 0.0651043 0.0976563 0.0325521 0.0651043 0.0976564 0.0976563 0.130208 0.130208 0.195312 0.195312 0.0651041 0.0976562 0.0325521 0.0651042 0.0976563 0.0976562 0.130208 0.130208 0.195312 0.195313 0.0651041 0.0976562 0.0325521 0.0651042 0.0976562 0.0976563 0.130208 0.130208 0.195313 0.195312 0.0651042 0.0976562 0.0325521 0.0651042 0.0976562 0.0976562 0.130208 0.130208 0.195312 0.195312 0.0651041 0.0976562 0.0325521 0.0651041 0.0976561 0.0976563 0.130208 0.130209 0.195313 0.195312 0.0651042 0.0976561 0.0325521 0.0651042 0.0976564 0.097656 0.130208 0.130208 0.195312 0.195312 0.0651039 0.0976561 0.032552 0.065104 0.0976559 0.0976562 0.130208 0.130209 0.195313 0.195313 0.0651042 0.0976564 0.0325522 0.0651043 0.0976564 0.0976563 0.130208 0.130208 0.195312 0.195312 0.0651042 0.0976561 0.0325521 0.0651039 0.0976563 0.0976562 0.130208 0.130208 0.195312 0.195313 0.0651043 0.0976563 0.0325522 0.0651041 0.0976565 0.0976563 0.130208 0.130209 0.195313 0.195312 0.0651044 0.0976562 0.0325522 0.0651042 0.0976566 0.0976561 0.130208 0.130209 0.195313 0.0976566 0.065104 0.0651043 0.0325521 0.0651043 0.0976562 0.0325522 0.0651044 0.130208 0.195312 0.195312 0.0651041 0.0976562 0.0976562 0.0651041 0.0976562 0.032552 0.130208 0.130208 0.195312 0.195312 0.0651041 0.0976562 0.0976562 0.130208 0.130208 0.195312 0.195312 0.0651041 0.0976562 0.0976562 0.130208 0.130208 0.195312 0.195312 0.0651041 0.0976562 0.0976562 0.130208 0.130208 0.195312 0.195312 0.0651041 0.0976562 0.0976562 0.130208 0.130208 0.195313 0.195312 0.0651041 0.0976562 0.0976562 0.130208 0.130208 0.195312 0.195312 0.0651041 0.0976562 0.0976562 0.130208 0.130208 0.195312 0.195312 0.0651041 0.0976562 0.0976561 0.130208 0.130208 0.195312 0.195312 0.0651041 0.0976562 0.0976562 0.130208 0.130208 0.195312 0.195312 0.0651041 0.0976562 0.0976562 0.130208 0.130208 0.195313 0.195313 0.0651041 0.0976563 0.0976562 0.130208 0.130208 0.195313 0.195312 0.0651041 0.0976562 0.0976563 0.130208 0.130208 0.195312 0.195313 0.0651041 0.0976562 0.0976562 0.130208 0.130208 0.195313 0.195312 0.0651042 0.0976563 0.0976562 0.130208 0.130208 0.195312 0.195312 0.0651041 0.0976562 0.0976561 0.130208 0.130208 0.195313 0.195313 0.0651041 0.0976562 0.0976562 0.130208 0.130208 0.195313 0.195313 0.0651041 0.0976563 0.0976563 0.130208 0.130208 0.195313 0.195312 0.0651042 0.0976563 0.0976563 0.130208 0.130208 0.195313 0.195313 0.0651042 0.0976564 0.0976563 0.130209 0.130208 0.195313 0.195313 0.0651042 0.0976563 0.0976564 0.130208 0.130208 0.195313 0.195313 0.0651043 0.0976563 0.0976564 0.130208 0.130208 0.195312 0.195312 0.0651042 0.0976562 0.0976563 0.130208 0.130208 0.195312 0.195313 0.0651041 0.0976563 0.0976562 0.130208 0.130208 0.195313 0.195312 0.0651042 0.0976562 0.0976562 0.130208 0.130208 0.195312 0.195312 0.0651041 0.0976562 0.0976561 0.130208 0.130209 0.195313 0.195312 0.0651042 0.0976561 0.0976564 0.130208 0.130208 0.195312 0.195312 0.0651039 0.0976561 0.0976559 0.130208 0.130209 0.195313 0.195313 0.0651042 0.0976564 0.0976564 0.130209 0.130208 0.195312 0.195312 0.0651042 0.0976561 0.0976563 0.130208 0.130208 0.195312 0.195313 0.0651043 0.0976563 0.0976565 0.130208 0.130209 0.195313 0.195312 0.0651044 0.0976562 0.0976566 0.130208 0.130209 0.195313 0.0976566 0.0651041 0.0651043 0.0976562 0.0651044 0.130208 0.195312 0.195312 0.0651041 0.0976562 0.0976562 0.0651041 0.0976562 0.032552 0.130208 0.130208 0.195312 0.195312 0.0651041 0.0976562 0.0976562 0.130208 0.130208 0.195312 0.195312 0.0651041 0.0976562 0.0976562 0.130208 0.130208 0.195312 0.195312 0.0651041 0.0976562 0.0976562 0.130208 0.130208 0.195312 0.195312 0.0651041 0.0976562 0.0976562 0.130208 0.130208 0.195313 0.195312 0.0651041 0.0976562 0.0976562 0.130208 0.130208 0.195312 0.195312 0.0651041 0.0976562 0.0976562 0.130208 0.130208 0.195312 0.195312 0.0651041 0.0976562 0.0976561 0.130208 0.130208 0.195312 0.195312 0.0651041 0.0976562 0.0976562 0.130208 0.130208 0.195312 0.195312 0.0651041 0.0976562 0.0976562 0.130208 0.130208 0.195313 0.195313 0.0651042 0.0976563 0.0976563 0.130208 0.130208 0.195313 0.195312 0.0651041 0.0976562 0.0976563 0.130208 0.130208 0.195312 0.195313 0.0651041 0.0976562 0.0976562 0.130208 0.130208 0.195312 0.195312 0.0651042 0.0976563 0.0976562 0.130208 0.130208 0.195312 0.195312 0.0651041 0.0976562 0.0976561 0.130208 0.130208 0.195313 0.195313 0.0651041 0.0976562 0.0976563 0.130208 0.130208 0.195313 0.195313 0.0651042 0.0976563 0.0976563 0.130208 0.130208 0.195313 0.195312 0.0651042 0.0976563 0.0976563 0.130208 0.130208 0.195313 0.195313 0.0651042 0.0976564 0.0976563 0.130209 0.130209 0.195313 0.195313 0.0651042 0.0976563 0.0976565 0.130208 0.130208 0.195313 0.195313 0.0651043 0.0976563 0.0976564 0.130208 0.130208 0.195312 0.195312 0.0651042 0.0976563 0.0976563 0.130208 0.130208 0.195312 0.195313 0.0651041 0.0976563 0.0976562 0.130208 0.130208 0.195313 0.195312 0.0651042 0.0976562 0.0976563 0.130208 0.130208 0.195312 0.195312 0.0651041 0.0976562 0.0976562 0.130208 0.130209 0.195313 0.195312 0.0651042 0.0976561 0.0976564 0.130208 0.130208 0.195312 0.195312 0.0651039 0.0976561 0.097656 0.130208 0.130209 0.195313 0.195313 0.0651042 0.0976564 0.0976564 0.130209 0.130208 0.195312 0.195312 0.0651042 0.0976561 0.0976563 0.130208 0.130208 0.195313 0.195313 0.0651043 0.0976563 0.0976565 0.130208 0.130209 0.195313 0.195312 0.0651044 0.0976562 0.0976566 0.130208 0.130209 0.195313 0.0976566 0.065104 0.0651043 0.0976562 0.0651044 0.130208 0.195312 0.195312 0.0651041 0.0976562 0.0976562 0.0651041 0.0976562 0.032552 0.130208 0.130208 0.195312 0.195312 0.0651041 0.0976562 0.0976562 0.130208 0.130208 0.195312 0.195312 0.0651041 0.0976562 0.0976562 0.130208 0.130208 0.195312 0.195312 0.0651041 0.0976562 0.0976562 0.130208 0.130208 0.195312 0.195312 0.0651041 0.0976562 0.0976562 0.130208 0.130208 0.195312 0.195312 0.0651041 0.0976562 0.0976562 0.130208 0.130208 0.195312 0.195312 0.0651041 0.0976562 0.0976562 0.130208 0.130208 0.195312 0.195312 0.065104 0.0976562 0.0976561 0.130208 0.130208 0.195312 0.195312 0.0651041 0.0976561 0.0976562 0.130208 0.130208 0.195312 0.195312 0.0651041 0.0976562 0.0976562 0.130208 0.130208 0.195313 0.195313 0.0651041 0.0976562 0.0976562 0.130208 0.130208 0.195313 0.195312 0.0651041 0.0976562 0.0976562 0.130208 0.130208 0.195312 0.195312 0.0651041 0.0976562 0.0976562 0.130208 0.130208 0.195312 0.195312 0.0651041 0.0976562 0.0976562 0.130208 0.130208 0.195312 0.195312 0.0651041 0.0976562 0.0976561 0.130208 0.130208 0.195313 0.195313 0.0651041 0.0976562 0.0976562 0.130208 0.130208 0.195313 0.195313 0.0651041 0.0976563 0.0976563 0.130208 0.130208 0.195312 0.195312 0.0651042 0.0976563 0.0976563 0.130208 0.130208 0.195313 0.195313 0.0651042 0.0976563 0.0976563 0.130209 0.130208 0.195313 0.195312 0.0651042 0.0976563 0.0976564 0.130208 0.130208 0.195313 0.195313 0.0651043 0.0976563 0.0976564 0.130208 0.130208 0.195312 0.195312 0.0651041 0.0976562 0.0976562 0.130208 0.130208 0.195312 0.195313 0.0651041 0.0976562 0.0976561 0.130208 0.130208 0.195313 0.195312 0.0651042 0.0976562 0.0976562 0.130208 0.130208 0.195312 0.195312 0.0651041 0.0976562 0.0976561 0.130208 0.130209 0.195313 0.195312 0.0651042 0.0976561 0.0976564 0.130208 0.130208 0.195312 0.195312 0.0651039 0.0976561 0.0976559 0.130208 0.130209 0.195313 0.195313 0.0651042 0.0976564 0.0976564 0.130208 0.130208 0.195312 0.195312 0.0651042 0.0976561 0.0976563 0.130208 0.130208 0.195312 0.195313 0.0651043 0.0976563 0.0976564 0.130208 0.130209 0.195313 0.195312 0.0651044 0.0976562 0.0976565 0.130208 0.130209 0.195313 0.0976566 0.065104 0.0651043 0.0976562 0.0651044 0.130208 0.195312 0.195312 0.0651041 0.0976562 0.0976562 0.0651041 0.0976562 0.032552 0.130208 0.130208 0.195312 0.195312 0.0651041 0.0976562 0.0976562 0.130208 0.130208 0.195312 0.195312 0.0651041 0.0976562 0.0976562 0.130208 0.130208 0.195312 0.195312 0.0651041 0.0976562 0.0976562 0.130208 0.130208 0.195312 0.195312 0.0651041 0.0976562 0.0976562 0.130208 0.130208 0.195313 0.195312 0.0651041 0.0976562 0.0976562 0.130208 0.130208 0.195312 0.195312 0.0651041 0.0976562 0.0976562 0.130208 0.130208 0.195312 0.195312 0.065104 0.0976562 0.0976561 0.130208 0.130208 0.195312 0.195312 0.0651041 0.0976561 0.0976562 0.130208 0.130208 0.195312 0.195312 0.0651041 0.0976562 0.0976562 0.130208 0.130208 0.195313 0.195313 0.0651041 0.0976562 0.0976562 0.130208 0.130208 0.195313 0.195312 0.0651041 0.0976562 0.0976563 0.130208 0.130208 0.195312 0.195313 0.0651041 0.0976562 0.0976562 0.130208 0.130208 0.195312 0.195312 0.0651041 0.0976562 0.0976562 0.130208 0.130208 0.195312 0.195313 0.0651041 0.0976562 0.0976561 0.130208 0.130208 0.195313 0.195313 0.0651041 0.0976562 0.0976562 0.130208 0.130209 0.195313 0.195313 0.0651041 0.0976563 0.0976563 0.130208 0.130208 0.195312 0.195312 0.0651042 0.0976563 0.0976563 0.130208 0.130208 0.195313 0.195313 0.0651042 0.0976563 0.0976563 0.130209 0.130209 0.195313 0.195313 0.0651042 0.0976563 0.0976565 0.130208 0.130208 0.195313 0.195313 0.0651043 0.0976563 0.0976564 0.130208 0.130208 0.195312 0.195312 0.0651041 0.0976562 0.0976563 0.130208 0.130208 0.195312 0.195313 0.0651041 0.0976562 0.0976562 0.130208 0.130208 0.195313 0.195312 0.0651042 0.0976562 0.0976563 0.130208 0.130208 0.195312 0.195313 0.0651041 0.0976562 0.0976562 0.130208 0.130209 0.195313 0.195312 0.0651042 0.0976561 0.0976564 0.130208 0.130208 0.195312 0.195313 0.0651039 0.0976561 0.0976559 0.130208 0.130209 0.195313 0.195313 0.0651042 0.0976564 0.0976564 0.130208 0.130208 0.195312 0.195312 0.0651042 0.0976561 0.0976563 0.130208 0.130208 0.195312 0.195313 0.0651043 0.0976563 0.0976565 0.130208 0.130209 0.195313 0.195312 0.0651044 0.0976562 0.0976566 0.130208 0.130209 0.195313 0.0976566 0.065104 0.0651043 0.0976562 0.0651044 0.130208 0.195313 0.195313 0.0651041 0.0976562 0.0976562 0.0651042 0.0976562 0.0325521 0.130208 0.130208 0.195313 0.195313 0.0651041 0.0976562 0.0976562 0.130208 0.130208 0.195313 0.195312 0.0651041 0.0976562 0.0976562 0.130208 0.130208 0.195313 0.195312 0.0651041 0.0976562 0.0976562 0.130208 0.130208 0.195313 0.195313 0.0651041 0.0976562 0.0976562 0.130208 0.130208 0.195313 0.195312 0.0651042 0.0976563 0.0976562 0.130208 0.130208 0.195313 0.195312 0.0651041 0.0976562 0.0976562 0.130208 0.130208 0.195312 0.195312 0.0651041 0.0976562 0.0976561 0.130208 0.130208 0.195312 0.195312 0.0651041 0.0976562 0.0976562 0.130208 0.130208 0.195312 0.195313 0.0651041 0.0976562 0.0976562 0.130208 0.130208 0.195313 0.195313 0.0651042 0.0976563 0.0976563 0.130208 0.130208 0.195313 0.195312 0.0651042 0.0976562 0.0976563 0.130208 0.130208 0.195313 0.195313 0.0651041 0.0976562 0.0976562 0.130208 0.130208 0.195313 0.195312 0.0651042 0.0976563 0.0976562 0.130208 0.130208 0.195312 0.195312 0.0651041 0.0976562 0.0976561 0.130208 0.130208 0.195313 0.195313 0.0651041 0.0976562 0.0976563 0.130208 0.130208 0.195313 0.195313 0.0651042 0.0976563 0.0976563 0.130208 0.130208 0.195313 0.195312 0.0651042 0.0976563 0.0976564 0.130208 0.130208 0.195313 0.195313 0.0651042 0.0976564 0.0976563 0.130209 0.130209 0.195313 0.195313 0.0651043 0.0976563 0.0976565 0.130208 0.130208 0.195313 0.195313 0.0651043 0.0976563 0.0976564 0.130209 0.130208 0.195313 0.195312 0.0651042 0.0976563 0.0976563 0.130208 0.130208 0.195313 0.195313 0.0651042 0.0976563 0.0976562 0.130208 0.130208 0.195313 0.195312 0.0651042 0.0976563 0.0976563 0.130208 0.130208 0.195312 0.195313 0.0651041 0.0976563 0.0976562 0.130208 0.130209 0.195313 0.195312 0.0651042 0.0976561 0.0976564 0.130208 0.130208 0.195312 0.195312 0.065104 0.0976561 0.097656 0.130208 0.130209 0.195313 0.195313 0.0651043 0.0976564 0.0976564 0.130209 0.130208 0.195312 0.195312 0.0651042 0.0976562 0.0976563 0.130208 0.130208 0.195313 0.195313 0.0651044 0.0976563 0.0976565 0.130208 0.130209 0.195313 0.195312 0.0651044 0.0976562 0.0976566 0.130208 0.130209 0.195313 0.0976566 0.0651041 0.0651043 0.0976562 0.0651044 0.130208 0.195312 0.195312 0.0651041 0.0976562 0.0976561 0.0651041 0.0976562 0.032552 0.130208 0.130208 0.195312 0.195312 0.0651041 0.0976562 0.0976562 0.130208 0.130208 0.195312 0.195312 0.0651041 0.0976562 0.0976562 0.130208 0.130208 0.195312 0.195312 0.0651041 0.0976562 0.0976562 0.130208 0.130208 0.195312 0.195312 0.0651041 0.0976562 0.0976562 0.130208 0.130208 0.195313 0.195312 0.0651041 0.0976562 0.0976562 0.130208 0.130208 0.195312 0.195312 0.0651041 0.0976562 0.0976561 0.130208 0.130208 0.195312 0.195312 0.065104 0.0976561 0.0976561 0.130208 0.130208 0.195312 0.195312 0.0651041 0.0976561 0.0976562 0.130208 0.130208 0.195312 0.195312 0.0651041 0.0976562 0.0976562 0.130208 0.130208 0.195313 0.195313 0.0651041 0.0976562 0.0976562 0.130208 0.130208 0.195313 0.195312 0.0651041 0.0976562 0.0976562 0.130208 0.130208 0.195312 0.195312 0.0651041 0.0976562 0.0976562 0.130208 0.130208 0.195313 0.195312 0.0651041 0.0976562 0.0976562 0.130208 0.130208 0.195312 0.195312 0.0651041 0.0976562 0.0976561 0.130208 0.130208 0.195313 0.195313 0.0651041 0.0976562 0.0976562 0.130208 0.130208 0.195313 0.195313 0.0651041 0.0976563 0.0976563 0.130208 0.130208 0.195313 0.195312 0.0651042 0.0976563 0.0976563 0.130208 0.130208 0.195313 0.195313 0.0651042 0.0976563 0.0976562 0.130209 0.130208 0.195313 0.195312 0.0651042 0.0976563 0.0976564 0.130208 0.130208 0.195313 0.195313 0.0651042 0.0976563 0.0976563 0.130208 0.130208 0.195312 0.195312 0.0651041 0.0976562 0.0976562 0.130208 0.130208 0.195312 0.195313 0.0651041 0.0976562 0.0976561 0.130208 0.130208 0.195313 0.195312 0.0651042 0.0976562 0.0976562 0.130208 0.130208 0.195312 0.195312 0.0651041 0.0976562 0.0976561 0.130208 0.130208 0.195313 0.195312 0.0651042 0.0976561 0.0976564 0.130208 0.130208 0.195312 0.195312 0.0651039 0.0976561 0.0976559 0.130208 0.130209 0.195313 0.195313 0.0651042 0.0976564 0.0976564 0.130209 0.130208 0.195312 0.195312 0.0651041 0.0976561 0.0976563 0.130208 0.130208 0.195313 0.195313 0.0651043 0.0976563 0.0976564 0.130208 0.130209 0.195313 0.195312 0.0651043 0.0976562 0.0976565 0.130208 0.130209 0.195313 0.0976566 0.065104 0.0651042 0.0976562 0.0651044 0.0651042 0.195312 0.0976562 0.065104 0.0976561 0.0325521 0.0651041 0.0651041 0.032552 0.130208 0.0651042 0.195312 0.0976562 0.0651041 0.0976561 0.0651041 0.130208 0.0651042 0.195312 0.0976562 0.0651041 0.0976562 0.0651041 0.130208 0.0651042 0.195312 0.0976562 0.0651041 0.0976561 0.0651041 0.130208 0.0651042 0.195312 0.0976562 0.065104 0.0976561 0.0651041 0.130208 0.0651042 0.195312 0.0976562 0.0651041 0.0976562 0.0651041 0.130208 0.0651042 0.195312 0.0976562 0.0651041 0.0976561 0.0651041 0.130208 0.0651042 0.195312 0.0976563 0.065104 0.0976561 0.065104 0.130208 0.0651042 0.195312 0.0976562 0.065104 0.0976561 0.0651041 0.130208 0.0651042 0.195312 0.0976562 0.0651041 0.0976561 0.0651041 0.130208 0.0651042 0.195312 0.0976563 0.0651041 0.0976562 0.0651041 0.130208 0.0651043 0.195312 0.0976563 0.0651041 0.0976561 0.0651042 0.130208 0.0651042 0.195312 0.0976562 0.065104 0.0976561 0.0651041 0.130208 0.0651042 0.195312 0.0976562 0.0651041 0.0976562 0.0651041 0.130208 0.0651041 0.195312 0.0976562 0.065104 0.0976561 0.0651041 0.130208 0.0651043 0.195312 0.0976564 0.0651041 0.0976561 0.0651041 0.130208 0.0651043 0.195313 0.0976564 0.0651041 0.0976562 0.0651042 0.130208 0.0651042 0.195312 0.0976562 0.0651041 0.0976562 0.0651042 0.130208 0.0651042 0.195313 0.0976564 0.0651042 0.0976563 0.0651041 0.130209 0.0651044 0.195313 0.0976562 0.0651042 0.0976562 0.0651043 0.130208 0.0651042 0.195313 0.0976563 0.0651042 0.0976562 0.0651042 0.130208 0.0651042 0.195312 0.0976561 0.0651041 0.0976562 0.0651041 0.130208 0.0651041 0.195312 0.0976563 0.0651041 0.0976562 0.065104 0.130208 0.0651042 0.195312 0.0976563 0.0651041 0.0976562 0.0651041 0.130208 0.0651041 0.195312 0.0976562 0.065104 0.0976562 0.0651041 0.130208 0.0651044 0.195313 0.0976562 0.0651042 0.097656 0.0651043 0.130208 0.065104 0.195312 0.0976562 0.0651039 0.097656 0.0651039 0.130208 0.0651044 0.195313 0.0976565 0.0651042 0.0976563 0.0651042 0.130208 0.0651043 0.195312 0.0976561 0.0651041 0.0976561 0.0651042 0.130208 0.0651042 0.195312 0.0976563 0.0651043 0.0976562 0.0651043 0.130208 0.0651044 0.195313 0.0976563 0.0651043 0.0976561 0.0651044 0.130208 0.0651044 0.195313 0.0651043 0.065104 0.0651042 0.0651042 0.0651044 
VECTORS u float
0 0 0  -0.05136 -0.0105913 -0.0497684  -0.081021 -0.0227442 -0.0660502  -0.112119 -0.0508648 -0.0687199  -0.147003 -0.0905359 -0.0651554  -0.184732 -0.138312 -0.0592508  -0.224275 -0.192212 -0.0528484  -0.265037 -0.251194 -0.0467297  -0.306753 -0.314694 -0.0411953  -0.349351 -0.38233 -0.0362866  -0.392809 -0.453797 -0.031958  -0.437149 -0.528822 -0.0281331  -0.482366 -0.607111 -0.0247338  -0.528427 -0.688386 -0.0216985  -0.575301 -0.772376 -0.0189705  -0.622934 -0.858807 -0.0165195  -0.671237 -0.947423 -0.0143121  -0.720132 -1.03799 -0.012319  -0.769526 -1.13027 -0.0105374  -0.819326 -1.22406 -0.00893754  -0.869441 -1.31914 -0.00751019  -0.919769 -1.41536 -0.00624621  -0.970231 -1.51251 -0.00513768  -1.02075 -1.61044 -0.00417501  -1.07125 -1.709 -0.00335765  -1.12167 -1.80805 -0.0026896  -1.17195 -1.90747 -0.00212961  -1.22205 -2.00711 -0.00172454  -1.27194 -2.1069 -0.00144142  -1.32158 -2.2067 -0.00128621  -1.37099 -2.30644 -0.00125903  -1.42018 -2.40602 -0.0013442  -1.46925 -2.50539 -0.00143391  0 0 0  -0.0305177 0.000324443 -0.0347912  -0.0499395 -0.0173748 -0.046679  -0.0706765 -0.0490754 -0.0488388  -0.0956257 -0.0922318 -0.0468184  -0.124807 -0.143849 -0.0429817  -0.157355 -0.201788 -0.0385617  -0.192439 -0.264813 -0.0341871  -0.229503 -0.332225 -0.03014  -0.268221 -0.403583 -0.0264992  -0.308422 -0.478547 -0.0232704  -0.350005 -0.556809 -0.0204166  -0.392876 -0.638085 -0.0178815  -0.436958 -0.722082 -0.0156264  -0.482162 -0.808529 -0.0136147  -0.528381 -0.897166 -0.0118159  -0.575507 -0.987744 -0.0102043  -0.62343 -1.08003 -0.00875622  -0.672033 -1.17382 -0.00746638  -0.721196 -1.2689 -0.00631839  -0.77081 -1.36508 -0.00530165  -0.820755 -1.4622 -0.00440723  -0.870934 -1.5601 -0.00363338  -0.921258 -1.65863 -0.00297236  -0.971639 -1.75764 -0.00242132  -1.022 -1.85702 -0.0019744  -1.07227 -1.95664 -0.00162572  -1.1224 -2.05641 -0.00137538  -1.17235 -2.15622 -0.00122201  -1.22208 -2.25599 -0.00116962  -1.27158 -2.35565 -0.00118876  -1.32083 -2.45515 -0.00126499  -1.3699 -2.55446 -0.00132442  0 0 0  -0.0154566 0.00352025 -0.0221203  -0.0254149 -0.0159193 -0.0297739  -0.0378735 -0.0501124 -0.0313211  -0.0544152 -0.0956642 -0.0301675  -0.0753192 -0.149984 -0.0277992  -0.100255 -0.211067 -0.0249645  -0.128671 -0.277531 -0.0220791  -0.16003 -0.348489 -0.019355  -0.19391 -0.423351 -0.0168877  -0.230008 -0.501679 -0.0146953  -0.268101 -0.583121 -0.0127628  -0.308009 -0.66735 -0.0110623  -0.349566 -0.75407 -0.00956529  -0.392619 -0.843 -0.00824457  -0.437017 -0.933886 -0.00707841  -0.482606 -1.02648 -0.00605005  -0.529231 -1.12056 -0.00513899  -0.576743 -1.21591 -0.00433546  -0.625006 -1.31236 -0.00363284  -0.673877 -1.40972 -0.00302702  -0.723222 -1.50785 -0.00250155  -0.772925 -1.60658 -0.00206023  -0.822873 -1.70578 -0.0016982  -0.872969 -1.80534 -0.00140649  -0.923116 -1.90514 -0.00118494  -0.973242 -2.00508 -0.00104004  -1.02328 -2.10507 -0.000959754  -1.07317 -2.20502 -0.000934184  -1.12287 -2.30487 -0.000979841  -1.17235 -2.40457 -0.00106901  -1.2216 -2.50408 -0.00117415  -1.27058 -2.60333 -0.0012393  0 0 0  -0.00448433 0.00212696 -0.00964797  -0.00638235 -0.0184248 -0.0136954  -0.010637 -0.0544213 -0.014797  -0.0189053 -0.101968 -0.0143971  -0.0316939 -0.158484 -0.0132442  -0.0489896 -0.222087 -0.0117552  -0.0704788 -0.291393 -0.0101869  -0.0957183 -0.365395 -0.00868726  -0.124288 -0.443379 -0.00732356  -0.155809 -0.524793 -0.00612879  -0.189972 -0.609207 -0.00510114  -0.22651 -0.696247 -0.0042178  -0.26518 -0.785589 -0.00347245  -0.305758 -0.87693 -0.00283569  -0.348039 -0.970011 -0.00229728  -0.391814 -1.06459 -0.0018453  -0.436907 -1.16044 -0.00146443  -0.483117 -1.25737 -0.00114989  -0.530281 -1.35519 -0.00089711  -0.578236 -1.45375 -0.00069499  -0.626819 -1.55289 -0.000543416  -0.675895 -1.65248 -0.000437856  -0.725338 -1.7524 -0.000370443  -0.77502 -1.85255 -0.000346661  -0.824842 -1.95281 -0.000361323  -0.874719 -2.05311 -0.000412583  -0.924566 -2.15337 -0.000494182  -0.974321 -2.25352 -0.000617385  -1.02393 -2.35351 -0.000766456  -1.07335 -2.45329 -0.000935555  -1.12254 -2.55283 -0.00110012  -1.17143 -2.65202 -0.00123924  0 0 0  0.00456963 -0.00175232 0.00237542  0.0100208 -0.0245435 0.00159633  0.0137224 -0.0623114 0.000953317  0.0135961 -0.111559 0.000748217  0.00874585 -0.169908 0.000878215  -0.00104707 -0.235612 0.00119382  -0.0156305 -0.307303 0.00157785  -0.0346649 -0.383931 0.00194788  -0.0577453 -0.464668 0.00225252  -0.0844654 -0.548872 0.00247777  -0.114459 -0.636021 0.00261605  -0.147383 -0.725685 0.00268173  -0.18293 -0.817494 0.00268203  -0.220816 -0.911129 0.00262868  -0.260778 -1.00631 0.0025351  -0.302566 -1.10279 0.0024069  -0.345948 -1.20035 0.00225121  -0.390707 -1.2988 0.0020749  -0.436626 -1.39796 0.00187761  -0.483532 -1.49768 0.00167131  -0.531243 -1.59781 0.00145066  -0.579579 -1.69825 0.00122112  -0.628412 -1.79889 0.00098747  -0.677596 -1.89961 0.000741482  -0.727019 -2.00034 0.000493586  -0.776572 -2.101 0.000241339  -0.826165 -2.20154 -1.67489e-05  -0.87572 -2.30189 -0.000275552  -0.925184 -2.40202 -0.000536263  -0.974506 -2.50188 -0.000798106  -1.02363 -2.60145 -0.00105339  -1.07244 -2.70062 -0.00129157  0 0 0  0.0128398 -0.00764412 0.0138739  0.0258167 -0.0339417 0.015978  0.0374433 -0.0737569 0.0158799  0.0452611 -0.124552 0.0152931  0.0480886 -0.184474 0.0146124  0.0455484 -0.251982 0.0139236  0.0376855 -0.325763 0.0132397  0.0247643 -0.404713 0.0125487  0.00715721 -0.48792 0.0118421  -0.0147202 -0.574652 0.011117  -0.0404559 -0.66431 0.010379  -0.0696639 -0.756397 0.00962609  -0.101976 -0.850505 0.00887799  -0.137058 -0.946284 0.00813341  -0.174587 -1.04344 0.00740343  -0.214274 -1.1417 0.00668931  -0.255848 -1.24087 0.00599617  -0.299049 -1.34075 0.00532383  -0.343641 -1.44116 0.00467986  -0.389417 -1.54197 0.00405723  -0.436165 -1.64304 0.00346547  -0.483699 -1.74428 0.00289541  -0.531866 -1.84557 0.0023545  -0.580492 -1.94683 0.00184095  -0.629464 -2.04799 0.00135761  -0.678651 -2.14899 0.000899553  -0.727947 -2.24978 0.000475287  -0.777275 -2.35031 7.54595e-05  -0.826554 -2.45055 -0.000301719  -0.875745 -2.55046 -0.000659466  -0.924788 -2.65004 -0.00100845  -0.973567 -2.74922 -0.00134718  0 0 0  0.0213129 -0.0159656 0.0245754  0.0427122 -0.0466992 0.0292274  0.0623884 -0.0886059 0.0299149  0.0778849 -0.140807 0.029242  0.0880463 -0.202162 0.0279711  0.0924399 -0.271348 0.0264307  0.0910277 -0.347066 0.0247769  0.084013 -0.42816 0.023084  0.0717428 -0.513649 0.0214007  0.0546273 -0.602716 0.0197459  0.0331035 -0.694686 0.0181336  0.00760448 -0.789011 0.0165733  -0.0214655 -0.885244 0.0150739  -0.0537148 -0.983001 0.0136353  -0.0887816 -1.08197 0.0122656  -0.126331 -1.18189 0.0109695  -0.166052 -1.28253 0.00973392  -0.207662 -1.38371 0.00856525  -0.250886 -1.48527 0.0074712  -0.295489 -1.58706 0.00643289  -0.341241 -1.68897 0.00546616  -0.387943 -1.7909 0.00455683  -0.435403 -1.89277 0.00371605  -0.483464 -1.99449 0.00292426  -0.531959 -2.09601 0.00220436  -0.580763 -2.19728 0.00154859  -0.629756 -2.29826 0.000948787  -0.678841 -2.39891 0.000408709  -0.727938 -2.49921 -7.9155e-05  -0.776984 -2.59915 -0.000520229  -0.825931 -2.69872 -0.000942469  -0.874709 -2.79793 -0.0013535  0 0 0  0.031694 -0.0280015 0.0339711  0.062521 -0.062887 0.0412303  0.0900795 -0.106425 0.0431644  0.112886 -0.159963 0.0426737  0.130031 -0.222823 0.0409663  0.141039 -0.293754 0.0386641  0.145794 -0.371428 0.0361043  0.144435 -0.454628 0.0334589  0.137283 -0.542305 0.030828  0.124752 -0.633577 0.028263  0.107301 -0.727709 0.0257923  0.0853941 -0.824106 0.023433  0.0594872 -0.922289 0.0211939  0.0300049 -1.02185 0.0190717  -0.0026443 -1.12247 0.0170713  -0.038088 -1.22387 0.0151889  -0.0759802 -1.32583 0.0134231  -0.116009 -1.42817 0.0117693  -0.157876 -1.53072 0.0102188  -0.201315 -1.63337 0.00877577  -0.246084 -1.73599 0.00743288  -0.291955 -1.83849 0.00618696  -0.338726 -1.94081 0.00503415  -0.38621 -2.04287 0.00398737  -0.434252 -2.14464 0.00302356  -0.482695 -2.24608 0.00215966  -0.531406 -2.34714 0.00138885  -0.580276 -2.44783 0.000715673  -0.629204 -2.54812 0.000126183  -0.678123 -2.64802 -0.000377536  -0.726979 -2.74754 -0.00083369  -0.775776 -2.84676 -0.00127506  0 0 0  0.0471844 -0.0452818 0.0417646  0.0863625 -0.0816542 0.0530101  0.121294 -0.126399 0.0562119  0.151307 -0.181575 0.0557864  0.175345 -0.246329 0.0535832  0.192806 -0.319322 0.0505138  0.203495 -0.399155 0.0470721  0.207523 -0.484561 0.043506  0.205216 -0.574437 0.0399662  0.196999 -0.667848 0.0365239  0.18337 -0.764027 0.0332218  0.164847 -0.862348 0.0300927  0.141914 -0.962307 0.0271345  0.115049 -1.06349 0.0243546  0.0846854 -1.16558 0.0217426  0.0512347 -1.26828 0.0192912  0.0150728 -1.37137 0.0170026  -0.0234525 -1.47468 0.014868  -0.0640271 -1.57806 0.0128826  -0.106367 -1.68137 0.0110339  -0.150203 -1.78453 0.00932229  -0.19529 -1.88744 0.0077467  -0.241417 -1.99005 0.0062983  -0.288392 -2.0923 0.00497633  -0.336029 -2.19416 0.00378311  -0.384166 -2.2956 0.00271589  -0.432656 -2.39661 0.00177658  -0.481382 -2.49718 0.000964105  -0.530229 -2.59733 0.000283957  -0.579097 -2.69706 -0.000273108  -0.62792 -2.79645 -0.000719726  -0.676727 -2.89566 -0.00113159  0 0 0  -0.0389744 -0.0268064 -0.0328647  -0.0774504 -0.0438329 -0.0488169  -0.116451 -0.0696502 -0.0528265  -0.155542 -0.105641 -0.0509362  -0.194857 -0.150065 -0.046577  -0.234557 -0.201355 -0.0415112  -0.274806 -0.258423 -0.0365687  -0.315758 -0.32053 -0.0320903  -0.357522 -0.387123 -0.0281439  -0.400176 -0.457794 -0.0247074  -0.443761 -0.53217 -0.0217017  -0.488275 -0.609932 -0.0190578  -0.533707 -0.69076 -0.0167158  -0.579997 -0.774362 -0.0146315  -0.627088 -0.860462 -0.0127633  -0.674894 -0.948793 -0.0110859  -0.723334 -1.03911 -0.00958407  -0.772309 -1.13118 -0.00823367  -0.821722 -1.22479 -0.00702941  -0.871481 -1.31972 -0.00595796  -0.921487 -1.4158 -0.0050084  -0.971658 -1.51284 -0.00418293  -1.02191 -1.61068 -0.00346923  -1.07217 -1.70918 -0.0028618  -1.12238 -1.80817 -0.00236315  -1.17247 -1.90754 -0.00196296  -1.2224 -2.00717 -0.00167006  -1.27215 -2.10694 -0.00146878  -1.3217 -2.20675 -0.00137264  -1.37104 -2.30649 -0.00136304  -1.42022 -2.4061 -0.00141823  -1.46932 -2.50551 -0.00149369  0 0 0  -0.0188263 -0.0110415 -0.0235711  -0.0461362 -0.0326656 -0.0350195  -0.0742461 -0.0642054 -0.0382044  -0.103278 -0.105437 -0.0371013  -0.134194 -0.154763 -0.0340866  -0.167106 -0.210659 -0.0304428  -0.201846 -0.272035 -0.0268179  -0.238257 -0.338164 -0.023493  -0.276222 -0.408523 -0.0205482  -0.315662 -0.482691 -0.0179768  -0.356521 -0.56031 -0.015735  -0.398721 -0.641045 -0.0137672  -0.442185 -0.724585 -0.0120347  -0.486813 -0.810643 -0.0104992  -0.532509 -0.898946 -0.00913197  -0.579152 -0.989236 -0.00791228  -0.626628 -1.08127 -0.00682402  -0.674814 -1.17484 -0.005853  -0.723597 -1.26973 -0.00499284  -0.772857 -1.36576 -0.00423539  -0.822482 -1.46274 -0.00356859  -0.872373 -1.56053 -0.00299329  -0.922436 -1.65895 -0.00250703  -0.972575 -1.75789 -0.00210053  -1.02273 -1.85721 -0.00177574  -1.07281 -1.95679 -0.0015263  -1.12278 -2.05653 -0.00135416  -1.1726 -2.15632 -0.00125539  -1.22222 -2.2561 -0.0012244  -1.27164 -2.35576 -0.00125426  -1.32087 -2.45526 -0.0013212  -1.36996 -2.55459 -0.00139165  0 0 0  -0.00924128 -0.0056413 -0.0152112  -0.0239322 -0.0287589 -0.0227808  -0.0412704 -0.0635316 -0.0249859  -0.0608395 -0.108093 -0.0243426  -0.0832273 -0.160834 -0.0223834  -0.108631 -0.22028 -0.0199605  -0.136914 -0.285283 -0.017507  -0.167824 -0.355017 -0.0152314  -0.201123 -0.428873 -0.0132105  -0.236601 -0.506377 -0.0114485  -0.27408 -0.58713 -0.00992078  -0.313402 -0.670784 -0.00859547  -0.354406 -0.757012 -0.00744033  -0.396944 -0.845521 -0.00642926  -0.440864 -0.936036 -0.00554579  -0.486005 -1.02831 -0.00476652  -0.532214 -1.12211 -0.00407994  -0.579344 -1.21723 -0.00347775  -0.627248 -1.31346 -0.00295419  -0.675789 -1.41064 -0.0025019  -0.724838 -1.50861 -0.00211716  -0.774267 -1.6072 -0.00179231  -0.823967 -1.7063 -0.00152802  -0.873842 -1.80576 -0.00132012  -0.923787 -1.90548 -0.00116581  -0.973737 -2.00536 -0.00106901  -1.02362 -2.1053 -0.0010162  -1.0734 -2.20522 -0.00101811  -1.123 -2.30505 -0.00106245  -1.17241 -2.40474 -0.00114024  -1.22162 -2.50423 -0.00123405  -1.27063 -2.60348 -0.00132102  0 0 0  -0.00253212 -0.00605002 -0.00711221  -0.00704278 -0.0299898 -0.0110432  -0.0142167 -0.0669029 -0.0124004  -0.0244954 -0.113951 -0.012176  -0.038398 -0.169329 -0.011155  -0.0561267 -0.231605 -0.00980997  -0.0775906 -0.299618 -0.00841731  -0.102541 -0.372474 -0.0071165  -0.130675 -0.449464 -0.00596589  -0.161703 -0.530042 -0.00497669  -0.195359 -0.613743 -0.00414211  -0.231394 -0.700174 -0.00344157  -0.269581 -0.788988 -0.00285417  -0.309701 -0.879878 -0.00235981  -0.351549 -0.972561 -0.00194889  -0.394925 -1.06679 -0.0016017  -0.439634 -1.16233 -0.00131583  -0.485493 -1.25899 -0.001082  -0.532328 -1.35658 -0.00089401  -0.579976 -1.45493 -0.000746846  -0.628281 -1.55389 -0.000636697  -0.677104 -1.65333 -0.000563741  -0.726312 -1.75312 -0.000522971  -0.775793 -1.85314 -0.000516355  -0.825434 -1.95331 -0.000533462  -0.875146 -2.05352 -0.000585318  -0.924863 -2.15371 -0.000659287  -0.974502 -2.25381 -0.000759125  -1.02402 -2.35375 -0.000885367  -1.07337 -2.4535 -0.00102425  -1.12252 -2.55301 -0.00116283  -1.17143 -2.65221 -0.00129902  0 0 0  0.00316752 -0.00914696 0.000678182  0.00763664 -0.03519 0.000184476  0.00990552 -0.0741081 -0.000352621  0.00858563 -0.123193 -0.000482917  0.00298727 -0.180722 -0.000271738  -0.00714231 -0.245334 0.000114202  -0.021749 -0.315899 0.000546038  -0.0405927 -0.391461 0.00094223  -0.0633512 -0.471246 0.00126582  -0.0896835 -0.554615 0.00150448  -0.119256 -0.641039 0.00165737  -0.151755 -0.73007 0.00174165  -0.186885 -0.82133 0.00176668  -0.22437 -0.914485 0.00174016  -0.263946 -1.00924 0.00167978  -0.305368 -1.10535 0.00159138  -0.348402 -1.20258 0.0014773  -0.392834 -1.30073 0.00134295  -0.438458 -1.39963 0.00119585  -0.485084 -1.49912 0.00103545  -0.53253 -1.59906 0.000864387  -0.580641 -1.69932 0.00068444  -0.62926 -1.79979 0.000501096  -0.678258 -1.90037 0.000308156  -0.727512 -2.00098 0.000111759  -0.77692 -2.10155 -8.4579e-05  -0.826389 -2.202 -0.000287592  -0.875848 -2.30228 -0.000491917  -0.925228 -2.40234 -0.000697374  -0.974479 -2.50216 -0.000905812  -1.02356 -2.60168 -0.00111115  -1.07238 -2.70086 -0.00131482  0 0 0  0.00881448 -0.0143172 0.00808877  0.0220582 -0.0437785 0.0107285  0.0333955 -0.0849379 0.0110291  0.0406734 -0.135836 0.0107059  0.0430739 -0.195189 0.0102721  0.040314 -0.261811 0.00984144  0.0324236 -0.334607 0.00941026  0.0196358 -0.41258 0.0089668  0.0022701 -0.494884 0.00850064  -0.0192994 -0.580802 0.00800407  -0.0446919 -0.669735 0.00748897  -0.07354 -0.761182 0.0069561  -0.105494 -0.854726 0.00641561  -0.140217 -0.950003 0.00587058  -0.177405 -1.04671 0.00533342  -0.216763 -1.14459 0.00480235  -0.258019 -1.24341 0.00428653  -0.300926 -1.34297 0.00378245  -0.345248 -1.4431 0.00329876  -0.390762 -1.54366 0.0028314  -0.437272 -1.64451 0.0023787  -0.484594 -1.74554 0.00194979  -0.532563 -1.84665 0.00153589  -0.581025 -1.94776 0.00114095  -0.629843 -2.04878 0.000772357  -0.678899 -2.14965 0.000418186  -0.728089 -2.25033 8.92878e-05  -0.777333 -2.35077 -0.000222564  -0.82655 -2.45094 -0.000510454  -0.875681 -2.5508 -0.00079  -0.924676 -2.65034 -0.00105625  -0.973454 -2.74955 -0.00132632  0 0 0  0.0153124 -0.0220305 0.0148799  0.0378886 -0.0558771 0.0203359  0.0581277 -0.0992573 0.0216018  0.0736092 -0.151742 0.0213225  0.0836198 -0.212713 0.0204513  0.0879109 -0.281173 0.0193436  0.0864981 -0.35603 0.0181502  0.0795888 -0.43624 0.0169265  0.0675061 -0.52088 0.015704  0.0506357 -0.609163 0.0144996  0.0293975 -0.700425 0.0133216  0.00419688 -0.794116 0.0121719  -0.0245589 -0.889775 0.0110664  -0.0564972 -0.987024 0.0100029  -0.0912567 -1.08554 0.00898534  -0.128516 -1.18505 0.00801712  -0.167951 -1.28533 0.00709409  -0.209288 -1.38618 0.0062235  -0.252261 -1.48744 0.00539666  -0.296629 -1.58897 0.00462252  -0.342166 -1.69064 0.00388497  -0.38867 -1.79235 0.00320327  -0.435955 -1.89402 0.00256461  -0.483856 -1.99556 0.00196844  -0.532219 -2.09692 0.00141823  -0.58091 -2.19805 0.000918031  -0.629811 -2.2989 0.000458181  -0.678828 -2.39945 4.26173e-05  -0.727869 -2.49967 -0.000326633  -0.776875 -2.59954 -0.000664115  -0.825794 -2.69909 -0.000985205  -0.874565 -2.79831 -0.00130779  0 0 0  0.0243269 -0.0340635 0.0207862  0.0569537 -0.0719286 0.0288574  0.0856466 -0.116816 0.031367  0.108828 -0.170622 0.0313729  0.126054 -0.233166 0.0302246  0.137075 -0.303466 0.0285563  0.141866 -0.380374 0.0266761  0.140602 -0.46277 0.0247282  0.1336 -0.549659 0.0227888  0.12127 -0.640186 0.0208989  0.104054 -0.733634 0.0190735  0.0824062 -0.82941 0.0173273  0.0567672 -0.927029 0.0156658  0.0275599 -1.02608 0.0140876  -0.0048151 -1.12625 0.0125974  -0.039994 -1.22724 0.0111964  -0.077631 -1.32883 0.00987375  -0.11741 -1.43083 0.00863516  -0.159045 -1.53308 0.00747389  -0.202271 -1.63544 0.00638694  -0.246839 -1.73781 0.00537735  -0.292529 -1.84008 0.00444025  -0.339135 -1.94218 0.00357258  -0.386483 -2.04406 0.00277531  -0.4344 -2.14565 0.00205046  -0.48274 -2.24692 0.00139648  -0.53137 -2.34785 0.000810683  -0.58019 -2.44842 0.000298083  -0.629086 -2.54861 -0.000148177  -0.677982 -2.64845 -0.000535667  -0.726837 -2.74794 -0.000886798  -0.775635 -2.84718 -0.00123429  0 0 0  0.040746 -0.0540237 0.0262833  0.0809206 -0.0916184 0.0369804  0.116859 -0.136918 0.040689  0.147322 -0.192052 0.0409201  0.171534 -0.256382 0.0395032  0.189059 -0.328733 0.0373225  0.199804 -0.407834 0.0348217  0.203926 -0.492483 0.0322163  0.201758 -0.581615 0.0296168  0.193727 -0.674324 0.0270858  0.18032 -0.769853 0.0246508  0.16203 -0.867579 0.0223323  0.139347 -0.967002 0.0201443  0.112738 -1.0677 0.0180729  0.0826346 -1.16934 0.0161294  0.0494356 -1.27164 0.0143011  0.0135248 -1.37437 0.0125966  -0.0247676 -1.47735 0.0109994  -0.0651171 -1.58042 0.0095073  -0.107242 -1.68346 0.00812352  -0.150889 -1.78636 0.0068379  -0.195796 -1.88905 0.00564951  -0.241769 -1.99144 0.00456309  -0.288599 -2.0935 0.00356793  -0.336115 -2.19518 0.00266802  -0.384153 -2.29646 0.00186259  -0.432571 -2.39733 0.00115663  -0.481244 -2.49778 0.000540078  -0.530057 -2.59783 2.28286e-05  -0.578924 -2.69751 -0.000404418  -0.627758 -2.79689 -0.000764191  -0.676593 -2.89612 -0.00111276  0 0 0  -0.0415596 -0.0341201 -0.0193251  -0.0791103 -0.055535 -0.0305328  -0.1187 -0.0822917 -0.0347095  -0.159023 -0.117231 -0.0344397  -0.199337 -0.159981 -0.0319638  -0.239591 -0.209587 -0.028667  -0.280007 -0.265185 -0.0253021  -0.320854 -0.326086 -0.0221901  -0.362357 -0.391733 -0.0194416  -0.404667 -0.46165 -0.0170483  -0.447875 -0.535427 -0.0149755  -0.492008 -0.612697 -0.0131621  -0.53706 -0.693124 -0.0115705  -0.582995 -0.776382 -0.0101568  -0.629748 -0.862186 -0.00890136  -0.677238 -0.950267 -0.00778055  -0.725384 -1.04036 -0.00677377  -0.774086 -1.13224 -0.0058763  -0.823249 -1.22568 -0.00507599  -0.872776 -1.32047 -0.00436711  -0.922576 -1.41643 -0.0037449  -0.972556 -1.51336 -0.00319898  -1.02264 -1.61111 -0.00273472  -1.07274 -1.70953 -0.00234735  -1.12281 -1.80846 -0.00202268  -1.17279 -1.90778 -0.00177181  -1.22263 -2.00736 -0.00159109  -1.27231 -2.1071 -0.00147676  -1.3218 -2.20688 -0.00142658  -1.37112 -2.30661 -0.00143915  -1.42029 -2.40621 -0.00148183  -1.4694 -2.50562 -0.00153309  0 0 0  -0.0177782 -0.0169702 -0.0136427  -0.0454854 -0.0421089 -0.0222975  -0.0754771 -0.0745807 -0.0255125  -0.106494 -0.11524 -0.0254103  -0.138767 -0.163382 -0.0236207  -0.172381 -0.217972 -0.0211811  -0.207338 -0.278151 -0.018654  -0.243649 -0.343265 -0.0163103  -0.281334 -0.412789 -0.0142375  -0.320409 -0.486281 -0.0124418  -0.360862 -0.563347 -0.0108867  -0.402655 -0.643628 -0.00954241  -0.445721 -0.726788 -0.00836551  -0.489976 -0.812519 -0.00733173  -0.535318 -0.900543 -0.00641233  -0.581633 -0.990594 -0.00559992  -0.628806 -1.08242 -0.00487697  -0.67671 -1.17581 -0.00423658  -0.725232 -1.27055 -0.00366932  -0.774253 -1.36644 -0.00317276  -0.823663 -1.46331 -0.00273591  -0.873358 -1.561 -0.00236648  -0.923242 -1.65934 -0.00205123  -0.97322 -1.75821 -0.00179422  -1.02322 -1.85747 -0.00159079  -1.07319 -1.957 -0.00143856  -1.12306 -2.05671 -0.001342  -1.17278 -2.15648 -0.00128901  -1.22235 -2.25623 -0.00128704  -1.27173 -2.35588 -0.00131869  -1.32094 -2.45539 -0.00138003  -1.37003 -2.55472 -0.00143945  0 0 0  -0.00858542 -0.00996131 -0.00892603  -0.0235511 -0.0359637 -0.0146907  -0.0424511 -0.0720554 -0.0169405  -0.0637896 -0.116644 -0.0168982  -0.0874497 -0.168716 -0.0156929  -0.113544 -0.227229 -0.0140295  -0.142067 -0.291272 -0.0122924  -0.172921 -0.360128 -0.0106723  -0.205982 -0.433224 -0.00924045  -0.24113 -0.510088 -0.00800353  -0.278239 -0.590305 -0.00694466  -0.317179 -0.673503 -0.00603718  -0.357811 -0.759346 -0.005256  -0.399997 -0.847525 -0.00457686  -0.443578 -0.937756 -0.00398648  -0.488406 -1.02978 -0.00346941  -0.534325 -1.12337 -0.00301594  -0.581184 -1.2183 -0.0026226  -0.628837 -1.31437 -0.00228202  -0.677149 -1.41141 -0.00199157  -0.725983 -1.50925 -0.00174016  -0.775223 -1.60775 -0.00153846  -0.824749 -1.70675 -0.0013755  -0.874465 -1.80614 -0.00124776  -0.924278 -1.9058 -0.00115776  -0.974108 -2.00562 -0.0011065  -1.02389 -2.10552 -0.00108701  -1.07357 -2.20541 -0.00110346  -1.12312 -2.30522 -0.00115025  -1.17249 -2.40489 -0.0012176  -1.22167 -2.50438 -0.00129676  -1.27069 -2.60364 -0.00137472  0 0 0  -0.00254584 -0.0093962 -0.00435203  -0.00760798 -0.0358587 -0.00736004  -0.0158876 -0.0742129 -0.00866294  -0.0274125 -0.121677 -0.00870585  -0.0422678 -0.176768 -0.00805867  -0.060549 -0.238397 -0.00711179  -0.0822208 -0.305645 -0.00610566  -0.107137 -0.377735 -0.00516361  -0.135084 -0.454031 -0.00433606  -0.165836 -0.533994 -0.00363529  -0.199171 -0.617165 -0.00305218  -0.234873 -0.703138 -0.00256908  -0.272728 -0.791558 -0.00216955  -0.312528 -0.882107 -0.00183845  -0.354067 -0.974493 -0.00156301  -0.397152 -1.06846 -0.00133759  -0.441595 -1.16378 -0.00115287  -0.487203 -1.26024 -0.0010047  -0.533801 -1.35765 -0.000887811  -0.581234 -1.45585 -0.000799298  -0.629341 -1.55467 -0.000734985  -0.677984 -1.65399 -0.000698745  -0.727031 -1.75368 -0.000683427  -0.776363 -1.85362 -0.000689626  -0.825879 -1.95371 -0.000716507  -0.87548 -2.05387 -0.000763476  -0.925095 -2.15401 -0.000827134  -0.974656 -2.25406 -0.000908911  -1.02411 -2.35397 -0.00101233  -1.07342 -2.4537 -0.00111598  -1.12255 -2.55319 -0.00122654  -1.17147 -2.6524 -0.00134295  0 0 0  0.00251274 -0.0118817 5.49555e-05  0.00607926 -0.0403081 -0.000286877  0.00760812 -0.0807178 -0.000685632  0.0055629 -0.13041 -0.000803769  -0.000619948 -0.187878 -0.000657618  -0.0111089 -0.252046 -0.000361919  -0.0258543 -0.321987 -2.67029e-05  -0.044662 -0.396885 0.000286877  -0.0672653 -0.476028 0.000540912  -0.0933701 -0.558813 0.000722945  -0.122677 -0.644717 0.0008443  -0.15489 -0.733292 0.00090754  -0.18973 -0.824149 0.00092864  -0.22693 -0.916951 0.000912905  -0.266232 -1.0114 0.00086993  -0.307394 -1.10723 0.000805736  -0.350183 -1.20423 0.0007236  -0.394386 -1.30217 0.000626922  -0.439794 -1.40088 0.000520408  -0.486217 -1.5002 0.000408232  -0.533484 -1.59999 0.000280857  -0.581421 -1.70011 0.000150144  -0.629891 -1.80047 1.94311e-05  -0.678751 -1.90096 -0.000120997  -0.72789 -2.00148 -0.000263453  -0.777194 -2.10197 -0.000409484  -0.826582 -2.20236 -0.00056231  -0.875967 -2.30259 -0.000710011  -0.92529 -2.40261 -0.000861585  -0.974504 -2.5024 -0.00101453  -1.02356 -2.60191 -0.00116813  -1.0724 -2.70111 -0.00131822  0 0 0  0.00756958 -0.016717 0.00424033  0.0196141 -0.0485315 0.00638467  0.0305236 -0.0911862 0.00686669  0.03752 -0.142757 0.0067485  0.0396678 -0.202159 0.00649434  0.036736 -0.268456 0.00623137  0.0287923 -0.340732 0.00596762  0.0160521 -0.418119 0.00569493  -0.00118017 -0.499834 0.00540501  -0.0225587 -0.585199 0.00508821  -0.0477294 -0.673626 0.00475359  -0.0763338 -0.764622 0.00440323  -0.108035 -0.857762 0.00404376  -0.14251 -0.952681 0.00368005  -0.179453 -1.04907 0.00332153  -0.21858 -1.14667 0.00296116  -0.259616 -1.24524 0.0026108  -0.302312 -1.34457 0.00226921  -0.346432 -1.44451 0.00194031  -0.391765 -1.54489 0.00161862  -0.438105 -1.64558 0.00130677  -0.485273 -1.74646 0.0010094  -0.533106 -1.84745 0.000723004  -0.58144 -1.94844 0.00044924  -0.630152 -2.04936 0.000191748  -0.679116 -2.15016 -5.62668e-05  -0.728231 -2.25076 -0.000290215  -0.777406 -2.35114 -0.000508547  -0.826573 -2.45126 -0.00071615  -0.875669 -2.55109 -0.000914335  -0.924644 -2.65062 -0.00110453  -0.973434 -2.74984 -0.00129944  0 0 0  0.0135413 -0.0244854 0.00805968  0.0347301 -0.0606837 0.0124735  0.054822 -0.105446 0.013858  0.0703615 -0.158529 0.0138753  0.0803771 -0.21955 0.0133567  0.084653 -0.287732 0.0126387  0.0832558 -0.362134 0.0118509  0.0764133 -0.441813 0.0110453  0.0644476 -0.525911 0.01024  0.0477418 -0.613673 0.00944149  0.0266906 -0.704452 0.00865966  0.00170004 -0.7977 0.00789768  -0.026839 -0.892962 0.00716019  -0.0585556 -0.989855 0.00645  -0.0931004 -1.08805 0.00577062  -0.130143 -1.18728 0.00511891  -0.169379 -1.2873 0.00449711  -0.210523 -1.38792 0.00391078  -0.253314 -1.48897 0.00335461  -0.297512 -1.59031 0.0028286  -0.342893 -1.69182 0.00233209  -0.389253 -1.79338 0.00186354  -0.436415 -1.8949 0.00142539  -0.484196 -1.99633 0.00102013  -0.532458 -2.09758 0.000642836  -0.581067 -2.19861 0.000296235  -0.629902 -2.29938 -2.00868e-05  -0.678857 -2.39986 -0.00030905  -0.727858 -2.50002 -0.000566363  -0.776833 -2.59986 -0.000806868  -0.825735 -2.69939 -0.00103259  -0.87452 -2.79863 -0.00126106  0 0 0  0.0221524 -0.0372704 0.0114321  0.0534075 -0.0773956 0.0178938  0.0821245 -0.12327 0.0202574  0.105536 -0.177405 0.0205437  0.12291 -0.239886 0.0198769  0.13401 -0.309887 0.0187958  0.13886 -0.386362 0.0175532  0.13768 -0.468262 0.0162624  0.130795 -0.554641 0.0149771  0.118608 -0.644678 0.0137212  0.10156 -0.737665 0.0125097  0.080098 -0.833016 0.0113468  0.0546565 -0.930249 0.0102413  0.0256525 -1.02896 0.00919068  -0.00652611 -1.1288 0.00819439  -0.0415066 -1.22951 0.00725663  -0.0789542 -1.33085 0.0063706  -0.118553 -1.43262 0.00554073  -0.160016 -1.53466 0.00475997  -0.203078 -1.63683 0.00402755  -0.247497 -1.73903 0.00334466  -0.293048 -1.84115 0.00271171  -0.339534 -1.94311 0.00212604  -0.386772 -2.04485 0.00158417  -0.434594 -2.14633 0.0010916  -0.482857 -2.24751 0.000644743  -0.531427 -2.34835 0.000245988  -0.580186 -2.44884 -0.000109315  -0.629043 -2.54898 -0.000415325  -0.677913 -2.64879 -0.000689507  -0.726759 -2.74827 -0.000941694  -0.775567 -2.84752 -0.0011878  0 0 0  0.038486 -0.0594985 0.0145309  0.0774671 -0.0982977 0.0229423  0.113272 -0.143831 0.0262176  0.14392 -0.198898 0.0267289  0.168284 -0.262969 0.0259391  0.185911 -0.334928 0.0245565  0.196738 -0.413562 0.0229292  0.200956 -0.49771 0.0212203  0.198906 -0.586343 0.0195093  0.191024 -0.678577 0.0178425  0.177786 -0.773661 0.0162314  0.159685 -0.870987 0.014699  0.137198 -0.97004 0.0132456  0.110789 -1.0704 0.0118676  0.0808876 -1.17174 0.010574  0.0478876 -1.27377 0.00935501  0.0121629 -1.37626 0.00821191  -0.0259409 -1.47903 0.00714576  -0.0661159 -1.5819 0.00614852  -0.108079 -1.68476 0.00521737  -0.151568 -1.78749 0.00435674  -0.196342 -1.89003 0.00355238  -0.242187 -1.99229 0.00282043  -0.288902 -2.09422 0.00215071  -0.336322 -2.1958 0.00153923  -0.384272 -2.29699 0.000994921  -0.43262 -2.39778 0.000507116  -0.481237 -2.49817 9.81688e-05  -0.530009 -2.59818 -0.000263333  -0.578843 -2.69784 -0.000565171  -0.627667 -2.79723 -0.000827551  -0.676503 -2.89647 -0.00107878  0 0 0  -0.0436206 -0.037445 -0.0092361  -0.0809848 -0.0614265 -0.014793  -0.12026 -0.089206 -0.0172473  -0.160725 -0.124055 -0.0174742  -0.201408 -0.166155 -0.016444  -0.242 -0.214912 -0.0148797  -0.282616 -0.269674 -0.0132041  -0.323523 -0.329839 -0.0116298  -0.364971 -0.394869 -0.0102308  -0.407147 -0.464287 -0.0090121  -0.450179 -0.53766 -0.00796425  -0.494117 -0.614601 -0.0070529  -0.538972 -0.694751 -0.00625706  -0.584706 -0.777785 -0.00555456  -0.631273 -0.863395 -0.00493634  -0.678584 -0.951308 -0.00438678  -0.726564 -1.04126 -0.00389516  -0.775105 -1.13301 -0.00345969  -0.824128 -1.22634 -0.00307369  -0.873521 -1.32103 -0.00273752  -0.923205 -1.4169 -0.00244331  -0.973076 -1.51377 -0.00218666  -1.02306 -1.61146 -0.0019747  -1.07308 -1.70982 -0.00180292  -1.12308 -1.8087 -0.00165808  -1.17298 -1.90799 -0.00154829  -1.22277 -2.00753 -0.00148618  -1.27241 -2.10725 -0.00144887  -1.32187 -2.207 -0.0014497  -1.37118 -2.30672 -0.00147235  -1.42036 -2.40631 -0.00152373  -1.46948 -2.50572 -0.00156403  0 0 0  -0.0178567 -0.0196588 -0.00648952  -0.0457884 -0.0470212 -0.0108802  -0.0763183 -0.080406 -0.0127997  -0.107992 -0.121062 -0.0130264  -0.140881 -0.168736 -0.0122733  -0.174945 -0.22267 -0.011097  -0.210147 -0.28217 -0.0098244  -0.246524 -0.346662 -0.0086267  -0.284144 -0.415654 -0.00756478  -0.323072 -0.488704 -0.00664949  -0.363333 -0.565403 -0.00586712  -0.404915 -0.645379 -0.0051918  -0.447766 -0.728287 -0.00460911  -0.491809 -0.813807 -0.00409937  -0.536952 -0.901649 -0.00364995  -0.583079 -0.991545 -0.00325572  -0.630072 -1.08324 -0.00290871  -0.677817 -1.17651 -0.00260091  -0.726189 -1.27114 -0.00233376  -0.775074 -1.36695 -0.00210428  -0.824353 -1.46374 -0.0018996  -0.873936 -1.56136 -0.00173151  -0.923712 -1.65965 -0.00159454  -0.973602 -1.75847 -0.0014832  -1.02352 -1.85769 -0.00140429  -1.07342 -1.9572 -0.0013504  -1.12323 -2.05687 -0.00132203  -1.17291 -2.15662 -0.0013206  -1.22244 -2.25636 -0.00134158  -1.2718 -2.356 -0.00137842  -1.321 -2.4555 -0.00143135  -1.3701 -2.55483 -0.00147784  0 0 0  -0.00852896 -0.0119468 -0.0042969  -0.0237052 -0.0396936 -0.00722766  -0.0431272 -0.0767717 -0.00859058  -0.0651879 -0.121618 -0.00876486  -0.089501 -0.173475 -0.00825393  -0.116056 -0.231541 -0.00744593  -0.14482 -0.295059 -0.00656807  -0.175737 -0.363398 -0.00573802  -0.208736 -0.43603 -0.00500596  -0.243741 -0.512491 -0.00438058  -0.280662 -0.592364 -0.00384831  -0.319399 -0.675272 -0.00339818  -0.359825 -0.76087 -0.00301397  -0.401805 -0.848837 -0.00268495  -0.445192 -0.938892 -0.00240195  -0.489835 -1.03076 -0.00215816  -0.535578 -1.12421 -0.0019418  -0.58228 -1.21902 -0.00176275  -0.629786 -1.31499 -0.00160837  -0.677964 -1.41195 -0.00147939  -0.726674 -1.50971 -0.00136888  -0.775802 -1.60814 -0.00128746  -0.825226 -1.70708 -0.00122499  -0.874848 -1.80642 -0.00118065  -0.92458 -1.90604 -0.0011549  -0.974341 -2.00583 -0.00114989  -1.02407 -2.1057 -0.00116134  -1.0737 -2.20557 -0.00119066  -1.1232 -2.30536 -0.00123656  -1.17255 -2.40502 -0.00129032  -1.22173 -2.50451 -0.00135612  -1.27075 -2.60377 -0.00141382  0 0 0  -0.00265989 -0.0109106 -0.00214422  -0.00803958 -0.0387616 -0.00370669  -0.0167827 -0.0780946 -0.00449741  -0.0288824 -0.126008 -0.00463629  -0.0442625 -0.181107 -0.00436735  -0.0629138 -0.242475 -0.00390828  -0.0847862 -0.309331 -0.00340223  -0.109749 -0.380995 -0.00292194  -0.137635 -0.456882 -0.00250292  -0.16826 -0.536471 -0.00215101  -0.201428 -0.619314 -0.00186181  -0.236945 -0.705005 -0.00162768  -0.274609 -0.793182 -0.0014385  -0.314222 -0.883515 -0.00128555  -0.355586 -0.975718 -0.00116062  -0.398502 -1.06953 -0.00106061  -0.442778 -1.1647 -0.000983596  -0.488233 -1.26104 -0.00092411  -0.534695 -1.35835 -0.000881195  -0.582 -1.45645 -0.000853658  -0.62999 -1.55519 -0.00083828  -0.678524 -1.65444 -0.000837684  -0.727478 -1.75406 -0.000848889  -0.776722 -1.85395 -0.000869513  -0.826157 -1.954 -0.000902176  -0.875695 -2.05411 -0.000948191  -0.92525 -2.15422 -0.00100064  -0.974764 -2.25425 -0.00106156  -1.02419 -2.35414 -0.00113273  -1.07348 -2.45386 -0.00120902  -1.12259 -2.55335 -0.00128436  -1.17153 -2.65257 -0.00136483  0 0 0  0.00219846 -0.0130911 -9.66787e-05  0.00525513 -0.0427309 -0.000306964  0.00635225 -0.0841029 -0.000538349  0.00392151 -0.134337 -0.000641823  -0.00259447 -0.191948 -0.000594497  -0.0133221 -0.255977 -0.000460982  -0.0281911 -0.325625 -0.000298023  -0.0470214 -0.400167 -0.000144005  -0.0695649 -0.478947 -2.02656e-05  -0.0955591 -0.561387 6.73532e-05  -0.124719 -0.646979 0.000118375  -0.15677 -0.735277 0.000141263  -0.191444 -0.82589 0.00014019  -0.228478 -0.918479 0.000120521  -0.267617 -1.01274 8.4877e-05  -0.308622 -1.10841 3.8147e-05  -0.35127 -1.20525 -1.65701e-05  -0.395332 -1.30307 -8.05855e-05  -0.440608 -1.40166 -0.000150323  -0.486915 -1.50088 -0.000220418  -0.53407 -1.60058 -0.000302672  -0.581909 -1.70063 -0.000383854  -0.63029 -1.80092 -0.000468373  -0.679071 -1.90134 -0.000557065  -0.728136 -2.00182 -0.000645041  -0.777383 -2.10226 -0.00073576  -0.826712 -2.20261 -0.000832796  -0.876053 -2.30281 -0.000930309  -0.925346 -2.40281 -0.00102711  -0.974538 -2.50258 -0.00112498  -1.02359 -2.60209 -0.00122428  -1.07243 -2.7013 -0.00131989  0 0 0  0.00705478 -0.0178125 0.00183439  0.0183975 -0.0507744 0.00290763  0.0289046 -0.0943595 0.00321937  0.0356936 -0.146482 0.00317883  0.0376957 -0.20607 0.00304139  0.0346624 -0.27229 0.00289714  0.0266687 -0.344332 0.00275302  0.0139368 -0.421413 0.00260937  -0.00323427 -0.502802 0.00245106  -0.0245148 -0.587848 0.00228238  -0.0495585 -0.675979 0.00210571  -0.0780239 -0.766706 0.00191772  -0.10958 -0.859606 0.00172448  -0.143909 -0.954314 0.00153053  -0.180708 -1.05052 0.00133526  -0.219693 -1.14794 0.00114286  -0.260596 -1.24636 0.000952959  -0.303167 -1.34556 0.000767946  -0.34717 -1.44537 0.00058794  -0.39239 -1.54565 0.000409961  -0.438633 -1.64624 0.000239491  -0.485706 -1.74705 7.52211e-05  -0.533455 -1.84795 -8.55923e-05  -0.581716 -1.94888 -0.000240564  -0.630358 -2.04974 -0.000385165  -0.679265 -2.15049 -0.000530243  -0.728335 -2.25105 -0.000666142  -0.777469 -2.35139 -0.000797391  -0.826608 -2.45148 -0.000919938  -0.875687 -2.5513 -0.00104105  -0.924654 -2.65082 -0.00115967  -0.973453 -2.75005 -0.00127864  0 0 0  0.0128436 -0.0257047 0.0035969  0.0331903 -0.0630591 0.00585186  0.0529188 -0.108662 0.00669992  0.0683924 -0.162204 0.00677228  0.0784072 -0.223371 0.00652015  0.0826821 -0.291479 0.0061487  0.0812978 -0.365677 0.00573885  0.0744916 -0.445083 0.00531971  0.0625929 -0.528883 0.00490308  0.0459747 -0.616351 0.00448918  0.0250357 -0.706846 0.00408673  0.000166893 -0.799837 0.00369084  -0.028246 -0.894866 0.00330961  -0.0598328 -0.991547 0.00294113  -0.0942467 -1.08955 0.00258648  -0.131162 -1.18861 0.00225043  -0.170277 -1.28848 0.00192344  -0.211304 -1.38897 0.00161576  -0.253984 -1.4899 0.00132275  -0.298078 -1.59113 0.00104582  -0.343365 -1.69253 0.000780344  -0.38964 -1.794 0.000531077  -0.436718 -1.89545 0.00029552  -0.484432 -1.9968 7.82013e-05  -0.532635 -2.09799 -0.000129342  -0.581189 -2.19897 -0.000318646  -0.629977 -2.29969 -0.00049746  -0.678901 -2.40013 -0.000661373  -0.727874 -2.50027 -0.000810742  -0.776834 -2.60009 -0.000953913  -0.825729 -2.69961 -0.00109065  -0.874516 -2.79886 -0.00122702  0 0 0  0.021349 -0.0389252 0.00518346  0.0517019 -0.0802534 0.00848639  0.0800701 -0.126745 0.00987267  0.103477 -0.181138 0.010113  0.120921 -0.243653 0.00980031  0.132078 -0.313539 0.00925314  0.136981 -0.389805 0.00861514  0.135856 -0.471445 0.00795555  0.129038 -0.557544 0.00729573  0.116938 -0.6473 0.00665343  0.0999943 -0.740024 0.00603616  0.0786457 -0.835132 0.00544143  0.0533226 -0.93214 0.00487542  0.0244386 -1.03064 0.00433576  -0.00761688 -1.13031 0.00382733  -0.0424796 -1.23085 0.00334656  -0.079809 -1.33204 0.00288999  -0.119297 -1.43367 0.00245917  -0.160655 -1.53559 0.002056  -0.203618 -1.63766 0.0016762  -0.247945 -1.73975 0.00131977  -0.293411 -1.84178 0.000987768  -0.339822 -1.94366 0.000680685  -0.386992 -2.04533 0.000393033  -0.434752 -2.14675 0.000129104  -0.482963 -2.24787 -0.000111461  -0.531488 -2.34867 -0.000326753  -0.580215 -2.44912 -0.000521421  -0.629045 -2.54924 -0.000700116  -0.677899 -2.64902 -0.000855088  -0.726728 -2.7485 -0.00100601  -0.775547 -2.84776 -0.00115561  0 0 0  0.0378876 -0.0621687 0.00666773  0.0759265 -0.101971 0.0108249  0.111188 -0.147724 0.0127598  0.141758 -0.202766 0.0131608  0.166186 -0.266713 0.0128099  0.18389 -0.338473 0.0121228  0.194782 -0.416858 0.0113035  0.199069 -0.500732 0.0104401  0.197094 -0.589085 0.0095762  0.189301 -0.681043 0.00873041  0.176173 -0.775875 0.0079143  0.158184 -0.872962 0.00714147  0.135821 -0.9718 0.00640285  0.109535 -1.07197 0.00570512  0.0797532 -1.17313 0.0050441  0.0468745 -1.27501 0.00442243  0.0112748 -1.37736 0.00383842  -0.0267186 -1.47999 0.00329506  -0.0667872 -1.58274 0.00278342  -0.108649 -1.6855 0.00230241  -0.15204 -1.78815 0.00186002  -0.196729 -1.89059 0.00144243  -0.242495 -1.99278 0.00106168  -0.289141 -2.09466 0.000714898  -0.336492 -2.19617 0.000385404  -0.38439 -2.29731 0.000101566  -0.432688 -2.39807 -0.000158906  -0.481268 -2.49843 -0.00038147  -0.530006 -2.59841 -0.000579953  -0.578817 -2.69807 -0.000752091  -0.627634 -2.79746 -0.000909925  -0.676471 -2.89672 -0.00105929  0 0 0  -0.0442884 -0.0384456 -0.000347972  -0.0816543 -0.063264 -0.000563025  -0.120803 -0.0914424 -0.000639915  -0.161242 -0.126335 -0.000661731  -0.202004 -0.168271 -0.000670314  -0.242704 -0.216781 -0.000678658  -0.283404 -0.271275 -0.000692129  -0.324348 -0.331191 -0.00070715  -0.365796 -0.396011 -0.000730991  -0.407944 -0.465256 -0.000759721  -0.450928 -0.538487 -0.000786424  -0.494808 -0.615315 -0.000818133  -0.539598 -0.695367 -0.000848889  -0.585277 -0.778322 -0.000878572  -0.631774 -0.863863 -0.000912428  -0.679034 -0.951716 -0.000944138  -0.726959 -1.04162 -0.000975013  -0.775457 -1.13333 -0.0010103  -0.824433 -1.22662 -0.00104463  -0.873787 -1.32128 -0.00107944  -0.923425 -1.41712 -0.00111473  -0.973262 -1.51396 -0.00115597  -1.02321 -1.61163 -0.0011946  -1.07321 -1.70997 -0.00123382  -1.12318 -1.80884 -0.00127447  -1.17306 -1.9081 -0.00131917  -1.22283 -2.00765 -0.0013603  -1.27245 -2.10734 -0.00140715  -1.32192 -2.20709 -0.00145316  -1.37123 -2.3068 -0.00150621  -1.42041 -2.40639 -0.00154841  -1.46954 -2.50581 -0.00158691  0 0 0  -0.0179173 -0.0204781 -0.000139475  -0.0459137 -0.0485643 -0.000448227  -0.0765896 -0.0823032 -0.00053978  -0.10843 -0.123014 -0.000587821  -0.141486 -0.170575 -0.000606775  -0.175696 -0.224318 -0.000619054  -0.210997 -0.283603 -0.000632882  -0.247416 -0.347889 -0.000651956  -0.285038 -0.4167 -0.000676632  -0.323931 -0.489595 -0.000703335  -0.364138 -0.566165 -0.000731707  -0.405659 -0.646036 -0.00076282  -0.448442 -0.728854 -0.000793695  -0.492421 -0.8143 -0.000825644  -0.537497 -0.902079 -0.000856757  -0.583566 -0.991917 -0.000890017  -0.630502 -1.08357 -0.000920892  -0.678192 -1.1768 -0.00095427  -0.726517 -1.2714 -0.000988603  -0.775357 -1.36717 -0.00102448  -0.824599 -1.46394 -0.00105703  -0.87414 -1.56154 -0.00109553  -0.923887 -1.65981 -0.00113511  -0.973748 -1.75861 -0.00117528  -1.02365 -1.85782 -0.00121391  -1.07351 -1.95731 -0.00125766  -1.1233 -2.05698 -0.00129986  -1.17297 -2.15672 -0.00134146  -1.22249 -2.25645 -0.00138426  -1.27184 -2.35609 -0.00143409  -1.32105 -2.45558 -0.00147748  -1.37016 -2.55493 -0.00151348  0 0 0  -0.00853017 -0.0125476 -0.000195146  -0.0237627 -0.0408711 -0.000344038  -0.0433345 -0.0783096 -0.000440955  -0.0655915 -0.123275 -0.000490546  -0.090102 -0.175094 -0.000520945  -0.11681 -0.233034 -0.000543237  -0.145669 -0.29639 -0.000564337  -0.176626 -0.364562 -0.000589013  -0.209621 -0.437038 -0.000616193  -0.244591 -0.513359 -0.000645876  -0.281462 -0.593116 -0.000675082  -0.320136 -0.675922 -0.000707388  -0.360498 -0.761436 -0.000738382  -0.402412 -0.849332 -0.000771165  -0.445733 -0.93932 -0.00080061  -0.49032 -1.03114 -0.000834703  -0.536008 -1.12454 -0.000865936  -0.582657 -1.21931 -0.000895858  -0.630117 -1.31525 -0.000931382  -0.678246 -1.41217 -0.000967503  -0.72692 -1.50991 -0.00100017  -0.77601 -1.60831 -0.00103939  -0.8254 -1.70724 -0.00107443  -0.874994 -1.80656 -0.00111508  -0.924698 -1.90617 -0.00115407  -0.974434 -2.00595 -0.00119019  -1.02414 -2.10581 -0.00123656  -1.07377 -2.20567 -0.00127769  -1.12326 -2.30546 -0.00132394  -1.1726 -2.40512 -0.00136626  -1.22177 -2.5046 -0.00141156  -1.2708 -2.60387 -0.00145411  0 0 0  -0.00269836 -0.0113614 -0.000130296  -0.00817385 -0.0396653 -0.000249505  -0.0170582 -0.0793414 -0.000335336  -0.0293256 -0.127429 -0.000390649  -0.0448685 -0.182565 -0.000428915  -0.0636442 -0.243867 -0.000460386  -0.0855915 -0.310606 -0.000492096  -0.110584 -0.382136 -0.000521183  -0.138465 -0.457886 -0.000555754  -0.169057 -0.537352 -0.000588536  -0.202176 -0.620087 -0.000619054  -0.237637 -0.705681 -0.000651836  -0.275239 -0.793775 -0.000682712  -0.314794 -0.884035 -0.000713587  -0.356097 -0.976178 -0.000747085  -0.39896 -1.06993 -0.000777483  -0.443184 -1.16506 -0.0008111  -0.48859 -1.26135 -0.000844121  -0.535008 -1.35863 -0.000876307  -0.58227 -1.4567 -0.000908971  -0.630226 -1.55541 -0.000944018  -0.678723 -1.65464 -0.000977993  -0.727638 -1.75424 -0.00101662  -0.776859 -1.85411 -0.00105059  -0.82627 -1.95414 -0.0010922  -0.875787 -2.05424 -0.00113416  -0.925326 -2.15434 -0.00117028  -0.974827 -2.25436 -0.00121653  -1.02424 -2.35425 -0.00125647  -1.07351 -2.45396 -0.00130236  -1.12264 -2.55346 -0.00134683  -1.17157 -2.65268 -0.00138938  0 0 0  0.00210133 -0.0134464 -8.23736e-05  0.00500834 -0.0434704 -0.000163794  0.00596228 -0.0851701 -0.000235319  0.00340676 -0.13561 -0.000292778  -0.00321645 -0.193297 -0.000340343  -0.0140257 -0.257303 -0.000382066  -0.0289426 -0.326869 -0.000420213  -0.047786 -0.4013 -0.000457287  -0.0703205 -0.479965 -0.000493765  -0.0962827 -0.56229 -0.000528216  -0.1254 -0.64778 -0.000562549  -0.1574 -0.735984 -0.000592709  -0.192025 -0.826518 -0.000627279  -0.229001 -0.919034 -0.000657082  -0.268091 -1.01323 -0.000690103  -0.309047 -1.10884 -0.000720739  -0.351642 -1.20564 -0.000753403  -0.395661 -1.30341 -0.000785708  -0.4409 -1.40197 -0.000819445  -0.487162 -1.50115 -0.000848532  -0.534283 -1.60082 -0.000885606  -0.582089 -1.70085 -0.00091815  -0.63044 -1.80112 -0.00095439  -0.679195 -1.90152 -0.000990868  -0.728234 -2.00198 -0.0010277  -0.777461 -2.10241 -0.0010668  -0.826775 -2.20274 -0.0011065  -0.876107 -2.30293 -0.00114918  -0.925384 -2.40293 -0.00119185  -0.974572 -2.5027 -0.0012356  -1.02362 -2.60221 -0.00128233  -1.07248 -2.70142 -0.00132728  0 0 0  0.00690004 -0.0181382 -4.69685e-05  0.0180316 -0.0514552 -8.85725e-05  0.0283933 -0.0953526 -0.000146031  0.0351022 -0.14768 -0.000207186  0.0370558 -0.207356 -0.000259995  0.0339859 -0.27357 -0.000309825  0.0259731 -0.345553 -0.000353575  0.0132422 -0.422541 -0.000394344  -0.00391328 -0.503828 -0.000434637  -0.0251639 -0.588769 -0.000469804  -0.0501715 -0.676803 -0.000506163  -0.0785949 -0.767443 -0.000536561  -0.110105 -0.860262 -0.00057137  -0.144388 -0.954898 -0.000602722  -0.181138 -1.05103 -0.000633121  -0.220078 -1.14841 -0.000665426  -0.260938 -1.24677 -0.000697494  -0.303465 -1.34593 -0.00072813  -0.347433 -1.44571 -0.000760317  -0.392616 -1.54594 -0.000791669  -0.438826 -1.64651 -0.000827074  -0.485871 -1.74729 -0.000857592  -0.533588 -1.84817 -0.00089395  -0.581827 -1.94907 -0.000927687  -0.63045 -2.04992 -0.000964403  -0.679337 -2.15064 -0.00100291  -0.728387 -2.25119 -0.00104511  -0.777514 -2.35153 -0.00108075  -0.826641 -2.45161 -0.00112438  -0.875711 -2.55142 -0.00117075  -0.924678 -2.65094 -0.0012151  -0.973484 -2.75018 -0.00126255  0 0 0  0.0126331 -0.0260759 -1.35899e-05  0.0327257 -0.0637914 -2.58684e-05  0.0523066 -0.109675 -7.30753e-05  0.0677416 -0.163389 -0.000132799  0.0777506 -0.224627 -0.000193119  0.082029 -0.292728 -0.000244737  0.0806476 -0.36687 -0.000292063  0.0738528 -0.446195 -0.000334859  0.0619711 -0.529902 -0.000374436  0.0453823 -0.617272 -0.000412941  0.0244772 -0.707676 -0.000448465  -0.000353098 -0.800585 -0.000484705  -0.0287254 -0.895538 -0.000515699  -0.0602701 -0.992148 -0.000547647  -0.0946414 -1.09009 -0.00057745  -0.131516 -1.18909 -0.00060606  -0.170589 -1.28891 -0.00064075  -0.211578 -1.38936 -0.00067234  -0.254225 -1.49025 -0.00070262  -0.298288 -1.59144 -0.000735641  -0.343542 -1.69282 -0.000762939  -0.389786 -1.79426 -0.000798345  -0.436843 -1.89568 -0.000832319  -0.484535 -1.99701 -0.000866413  -0.532713 -2.09818 -0.000900745  -0.581249 -2.19914 -0.000938773  -0.630026 -2.29984 -0.000974774  -0.678934 -2.40028 -0.00101149  -0.727901 -2.50041 -0.00105655  -0.77685 -2.60023 -0.00109875  -0.825745 -2.69975 -0.00114882  -0.874542 -2.799 -0.00119805  0 0 0  0.0211159 -0.0394303 3.11136e-05  0.0511924 -0.0811449 1.46627e-05  0.0794068 -0.127857 -2.06232e-05  0.102785 -0.182351 -7.51019e-05  0.120245 -0.244893 -0.000133872  0.131426 -0.314754 -0.000187278  0.136349 -0.390959 -0.000234365  0.135239 -0.472521 -0.000279784  0.128444 -0.558534 -0.000321269  0.116373 -0.6482 -0.000360131  0.0994636 -0.740836 -0.000396252  0.0781476 -0.835863 -0.000429153  0.0528618 -0.9328 -0.00046289  0.0240166 -1.03124 -0.000495434  -0.00799596 -1.13084 -0.000524402  -0.0428213 -1.23133 -0.000554442  -0.0801136 -1.33246 -0.000586152  -0.119564 -1.43406 -0.000614047  -0.160886 -1.53594 -0.000643611  -0.203816 -1.63797 -0.000673175  -0.248115 -1.74003 -0.000704169  -0.293555 -1.84203 -0.000737309  -0.339941 -1.94389 -0.000771046  -0.387084 -2.04554 -0.000798821  -0.434826 -2.14694 -0.000834227  -0.483016 -2.24804 -0.000869036  -0.53153 -2.34882 -0.000905275  -0.580245 -2.44927 -0.000942945  -0.629068 -2.54938 -0.000982523  -0.677915 -2.64916 -0.00102651  -0.726746 -2.74864 -0.00107396  -0.775561 -2.8479 -0.00112677  0 0 0  0.0377343 -0.0630066 0.00012219  0.0754729 -0.103155 -2.70605e-05  0.110518 -0.148998 2.0504e-05  0.141028 -0.204045 -1.72853e-05  0.165468 -0.267958 -7.30753e-05  0.183199 -0.339658 -0.000131488  0.194118 -0.417968 -0.000183582  0.198425 -0.501756 -0.000228286  0.196476 -0.590019 -0.000272036  0.188715 -0.681891 -0.000310183  0.175618 -0.776637 -0.000348687  0.157671 -0.873647 -0.00038147  0.135347 -0.972413 -0.000414133  0.109102 -1.07252 -0.000441074  0.0793613 -1.17363 -0.000474215  0.0465233 -1.27545 -0.000503659  0.010957 -1.37775 -0.000529051  -0.0269985 -1.48034 -0.000560284  -0.0670307 -1.58307 -0.000587225  -0.108859 -1.68579 -0.000616431  -0.152222 -1.78841 -0.000647426  -0.196876 -1.89083 -0.000679135  -0.242617 -1.99299 -0.000705481  -0.289239 -2.09484 -0.000735044  -0.336571 -2.19634 -0.000772119  -0.384448 -2.29747 -0.000802517  -0.432737 -2.39821 -0.000836134  -0.481295 -2.49857 -0.000875831  -0.530028 -2.59856 -0.000907898  -0.578833 -2.69821 -0.000953436  -0.627645 -2.7976 -0.00100482  -0.676482 -2.89686 -0.00105345  0 0 0  -0.0434878 -0.0374838 0.00844395  -0.0808841 -0.0616072 0.0135664  -0.120178 -0.0894147 0.015918  -0.160636 -0.124246 0.0161376  -0.201322 -0.166324 0.0151103  -0.241933 -0.215072 0.0135373  -0.282575 -0.269824 0.0118357  -0.323506 -0.329985 0.0102206  -0.364968 -0.395012 0.00877106  -0.407158 -0.464424 0.00749934  -0.450199 -0.537799 0.00639224  -0.494146 -0.614733 0.005422  -0.539005 -0.694884 0.00455987  -0.584742 -0.777911 0.00380003  -0.63131 -0.863523 0.00311446  -0.678628 -0.951432 0.00249934  -0.726605 -1.04139 0.00194407  -0.775158 -1.13314 0.00144207  -0.824176 -1.22647 0.000992298  -0.873576 -1.32116 0.000574946  -0.923255 -1.41703 0.000210404  -0.973128 -1.5139 -0.00011611  -1.02311 -1.61159 -0.00041151  -1.07313 -1.70995 -0.000668049  -1.12313 -1.80883 -0.000889182  -1.17304 -1.90812 -0.00108051  -1.22283 -2.00767 -0.00123549  -1.27247 -2.10739 -0.0013634  -1.32193 -2.20714 -0.00145459  -1.37125 -2.30686 -0.00152814  -1.42044 -2.40645 -0.00157309  -1.46957 -2.50587 -0.00160694  0 0 0  -0.0178089 -0.019746 0.00615442  -0.0456655 -0.047149 0.0099107  -0.0762205 -0.0805503 0.0116793  -0.107911 -0.121201 0.011845  -0.140804 -0.168871 0.0110734  -0.174881 -0.222808 0.00987232  -0.210107 -0.282309 0.00856829  -0.246501 -0.346803 0.00732815  -0.284138 -0.415793 0.00621736  -0.323076 -0.48884 0.00524652  -0.363348 -0.565538 0.00440359  -0.404937 -0.64551 0.00366914  -0.447792 -0.728416 0.00302243  -0.491842 -0.813935 0.00244761  -0.536986 -0.901776 0.00193989  -0.583119 -0.991666 0.00147891  -0.630114 -1.08336 0.00106668  -0.677861 -1.17663 0.000694752  -0.726233 -1.27127 0.000360131  -0.77512 -1.36707 5.40018e-05  -0.824407 -1.46387 -0.000215173  -0.873986 -1.56149 -0.000457644  -0.923767 -1.65978 -0.00067389  -0.973656 -1.7586 -0.000860214  -1.02358 -1.85783 -0.00102568  -1.07348 -1.95733 -0.00116408  -1.12328 -2.05701 -0.00127351  -1.17297 -2.15676 -0.00136673  -1.2225 -2.2565 -0.0014354  -1.27186 -2.35615 -0.00148427  -1.32107 -2.45565 -0.00152159  -1.37018 -2.55499 -0.00155044  0 0 0  -0.00847802 -0.0120038 0.00387192  -0.0236343 -0.0397908 0.00648665  -0.0430602 -0.0768915 0.00768661  -0.0651192 -0.121736 0.00778425  -0.0894398 -0.173595 0.00722647  -0.116003 -0.231664 0.00637162  -0.144782 -0.295189 0.0054462  -0.175714 -0.363531 0.00456619  -0.208725 -0.436163 0.00377643  -0.243743 -0.512621 0.00309014  -0.280675 -0.592494 0.00249887  -0.319417 -0.675401 0.00198495  -0.359849 -0.760998 0.00153732  -0.401832 -0.848961 0.00114477  -0.445226 -0.939014 0.000798345  -0.489872 -1.03089 0.000488877  -0.535622 -1.12433 0.000213504  -0.582324 -1.21915 -3.62396e-05  -0.629833 -1.31512 -0.000256658  -0.678011 -1.41207 -0.000456929  -0.726723 -1.50984 -0.00063014  -0.77585 -1.60826 -0.000787497  -0.825277 -1.70721 -0.000928521  -0.874905 -1.80655 -0.00104892  -0.924634 -1.90617 -0.00115132  -0.974395 -2.00597 -0.00123894  -1.02412 -2.10584 -0.00131047  -1.07376 -2.20571 -0.0013628  -1.12327 -2.30551 -0.00140679  -1.17261 -2.40517 -0.00144184  -1.2218 -2.50466 -0.00146842  -1.27083 -2.60393 -0.00148678  0 0 0  -0.00263587 -0.0109413 0.00186229  -0.00800045 -0.0388237 0.0031755  -0.0167414 -0.0781806 0.00381684  -0.0288391 -0.126107 0.00386238  -0.0442194 -0.181215 0.00352335  -0.0628752 -0.24259 0.00299728  -0.0847543 -0.309452 0.00242376  -0.109728 -0.381123 0.00188005  -0.137627 -0.457008 0.00139475  -0.168258 -0.536601 0.000978231  -0.201436 -0.619444 0.000624895  -0.236959 -0.705133 0.000326633  -0.27463 -0.793308 7.39098e-05  -0.314248 -0.883643 -0.000142932  -0.355617 -0.975845 -0.000333309  -0.398533 -1.06965 -0.000492692  -0.442815 -1.16483 -0.000635505  -0.488277 -1.26117 -0.000759006  -0.534741 -1.35847 -0.000869155  -0.582046 -1.45658 -0.000966311  -0.630038 -1.55532 -0.0010494  -0.678576 -1.65457 -0.00111997  -0.727524 -1.75419 -0.00118077  -0.776772 -1.85408 -0.0012356  -0.826212 -1.95413 -0.00127959  -0.875746 -2.05425 -0.00131249  -0.92531 -2.15436 -0.00134671  -0.974826 -2.25439 -0.00136995  -1.02424 -2.35429 -0.00137997  -1.07354 -2.45401 -0.00139487  -1.12266 -2.5535 -0.00139999  -1.1716 -2.65273 -0.00141168  0 0 0  0.00218964 -0.0131055 -7.83205e-05  0.00527424 -0.0427697 -2.86102e-05  0.00637522 -0.0841655 6.97374e-05  0.00394446 -0.134424 6.34193e-05  -0.00256854 -0.192047 -7.41482e-05  -0.0132961 -0.256087 -0.000294089  -0.0281689 -0.325745 -0.00053966  -0.0470044 -0.40029 -0.000771284  -0.0695555 -0.479072 -0.000964284  -0.0955565 -0.561514 -0.00112116  -0.124727 -0.647103 -0.00124216  -0.156784 -0.735402 -0.00132811  -0.191462 -0.826016 -0.00139344  -0.228498 -0.918604 -0.00143564  -0.267647 -1.01286 -0.00146151  -0.308658 -1.10853 -0.00148106  -0.351303 -1.20538 -0.0014888  -0.395368 -1.30319 -0.00148904  -0.440651 -1.40179 -0.00148618  -0.486959 -1.50101 -0.00147855  -0.534115 -1.60071 -0.00146568  -0.581959 -1.70077 -0.00145662  -0.630339 -1.80105 -0.00144124  -0.679121 -1.90148 -0.00142682  -0.728187 -2.00196 -0.00141048  -0.777434 -2.10241 -0.00139797  -0.826766 -2.20275 -0.00137997  -0.87611 -2.30296 -0.00136733  -0.925401 -2.40296 -0.00135469  -0.974597 -2.50273 -0.00134623  -1.02365 -2.60225 -0.00134015  -1.0725 -2.70146 -0.00133383  0 0 0  0.00701663 -0.017822 -0.00192606  0.0183953 -0.0508012 -0.00307322  0.0289097 -0.0944155 -0.00350225  0.0357011 -0.146564 -0.00358427  0.0377069 -0.206168 -0.00355875  0.0346782 -0.272397 -0.00351119  0.0266836 -0.344447 -0.00345838  0.013948 -0.421533 -0.00339568  -0.00322819 -0.502923 -0.00331652  -0.0245149 -0.587971 -0.00322402  -0.0495644 -0.676102 -0.00311399  -0.0780352 -0.76683 -0.00299168  -0.109597 -0.85973 -0.00286472  -0.143927 -0.954438 -0.00273514  -0.180736 -1.05064 -0.0026046  -0.219723 -1.14807 -0.00247514  -0.260629 -1.24648 -0.00234652  -0.303201 -1.34569 -0.00222516  -0.347212 -1.4455 -0.00210702  -0.392433 -1.54578 -0.00199723  -0.438674 -1.64638 -0.0018903  -0.485754 -1.74718 -0.00179255  -0.533502 -1.84809 -0.00169981  -0.581764 -1.94902 -0.00161934  -0.630408 -2.04989 -0.00153899  -0.679317 -2.15063 -0.00147557  -0.728386 -2.25119 -0.00141931  -0.777526 -2.35155 -0.0013715  -0.826663 -2.45164 -0.00133038  -0.875746 -2.55146 -0.00129592  -0.924715 -2.65099 -0.00127697  -0.973521 -2.75022 -0.00124907  0 0 0  0.0127743 -0.0257157 -0.00361252  0.0331665 -0.0630897 -0.0058763  0.0529089 -0.108725 -0.0068357  0.0683925 -0.162293 -0.00703776  0.0784131 -0.223473 -0.00690317  0.0826947 -0.29159 -0.00663531  0.0813105 -0.365788 -0.00631928  0.0745039 -0.445199 -0.00598729  0.0625979 -0.529004 -0.00564969  0.0459776 -0.616471 -0.00531375  0.0250306 -0.706968 -0.00498199  0.000157118 -0.799961 -0.00465572  -0.0282583 -0.894991 -0.00433838  -0.0598505 -0.991672 -0.00403547  -0.0942711 -1.08968 -0.00374269  -0.13119 -1.18874 -0.00346732  -0.170303 -1.28861 -0.00320506  -0.211337 -1.38909 -0.00295734  -0.25402 -1.49003 -0.00272655  -0.298121 -1.59126 -0.00251257  -0.343406 -1.69267 -0.00230896  -0.389685 -1.79414 -0.00212741  -0.436762 -1.89559 -0.00195837  -0.484483 -1.99694 -0.00180912  -0.532683 -2.09814 -0.00167143  -0.581243 -2.19912 -0.00155294  -0.63003 -2.29984 -0.00145054  -0.678956 -2.40029 -0.00136578  -0.727928 -2.50043 -0.00130057  -0.776889 -2.60026 -0.00124705  -0.825787 -2.69978 -0.0012064  -0.87458 -2.79904 -0.00117183  0 0 0  0.0212534 -0.0389458 -0.00510323  0.051663 -0.0803031 -0.00841546  0.0800537 -0.126826 -0.00990403  0.103476 -0.181233 -0.010265  0.120926 -0.243755 -0.0100695  0.132091 -0.313647 -0.00962424  0.136996 -0.389913 -0.00908327  0.135866 -0.471557 -0.00851154  0.129046 -0.557661 -0.00793743  0.116942 -0.647419 -0.00736952  0.0999944 -0.740143 -0.00682545  0.0786376 -0.835251 -0.00629854  0.0533079 -0.932261 -0.0058006  0.0244211 -1.03077 -0.00532329  -0.00763524 -1.13043 -0.00487411  -0.0425037 -1.23097 -0.00445461  -0.0798359 -1.33216 -0.004058  -0.119327 -1.4338 -0.00368559  -0.160689 -1.53572 -0.00334311  -0.203654 -1.63779 -0.00302446  -0.247982 -1.73989 -0.00272977  -0.293455 -1.84192 -0.00246167  -0.339869 -1.9438 -0.00221622  -0.387034 -2.04548 -0.00199211  -0.4348 -2.1469 -0.00179863  -0.483012 -2.24802 -0.00162804  -0.531537 -2.34882 -0.0014832  -0.580265 -2.44929 -0.0013634  -0.629094 -2.54941 -0.00126863  -0.677952 -2.64919 -0.00119889  -0.726791 -2.74867 -0.00114775  -0.775609 -2.84793 -0.00109828  0 0 0  0.0377608 -0.0622656 -0.00644112  0.0758754 -0.102078 -0.0108134  0.111171 -0.147827 -0.0127057  0.141751 -0.202867 -0.0132006  0.166191 -0.266817 -0.0129597  0.183896 -0.338585 -0.012385  0.194795 -0.41697 -0.0116669  0.199078 -0.500846 -0.010893  0.197103 -0.589203 -0.0101149  0.189306 -0.681165 -0.00935054  0.17617 -0.775995 -0.00860822  0.158182 -0.873084 -0.00789845  0.135815 -0.971921 -0.00722611  0.109517 -1.07209 -0.00658929  0.0797371 -1.17326 -0.00599015  0.0468578 -1.27513 -0.00542855  0.0112472 -1.37748 -0.00490129  -0.0267506 -1.48012 -0.00441158  -0.0668206 -1.58288 -0.00395525  -0.108684 -1.68564 -0.0035373  -0.152081 -1.78828 -0.00315011  -0.196769 -1.89074 -0.00279307  -0.242537 -1.99293 -0.00247133  -0.289188 -2.0948 -0.00218654  -0.33654 -2.19632 -0.00193071  -0.384437 -2.29747 -0.00170743  -0.432736 -2.39823 -0.0015161  -0.481318 -2.49859 -0.00136495  -0.530055 -2.59859 -0.00124407  -0.578876 -2.69825 -0.00115538  -0.62769 -2.79764 -0.00109148  -0.676536 -2.89689 -0.00104058  0 0 0  -0.0412721 -0.0343103 0.0181751  -0.0789556 -0.0559981 0.0289624  -0.118511 -0.0827477 0.0332491  -0.158799 -0.11762 0.0331064  -0.199143 -0.160319 0.0306761  -0.239451 -0.209898 0.0273746  -0.279925 -0.265483 0.0239683  -0.32082 -0.326376 0.0208054  -0.36236 -0.392014 0.0179963  -0.404695 -0.461927 0.0155451  -0.447916 -0.535697 0.0134097  -0.492064 -0.612965 0.0115368  -0.537125 -0.69338 0.00987983  -0.583066 -0.776634 0.00840724  -0.629827 -0.862437 0.00708652  -0.677325 -0.950514 0.00589895  -0.725473 -1.04061 0.00482631  -0.774182 -1.13249 0.00386333  -0.823343 -1.22592 0.00299358  -0.872876 -1.32072 0.00221169  -0.922677 -1.41667 0.00151527  -0.972662 -1.51361 0.000900865  -1.02275 -1.61136 0.000356674  -1.07285 -1.70978 -0.000116348  -1.12293 -1.80872 -0.000521541  -1.17291 -1.90804 -0.000856876  -1.22274 -2.00763 -0.00112653  -1.27242 -2.10737 -0.00133049  -1.32193 -2.20715 -0.00147343  -1.37125 -2.30689 -0.00156212  -1.42045 -2.40649 -0.00160956  -1.46958 -2.50592 -0.00163686  0 0 0  -0.017647 -0.0172468 0.0130942  -0.045274 -0.0424599 0.0210674  -0.0752915 -0.0748944 0.0242993  -0.106307 -0.115517 0.0242498  -0.138596 -0.16365 0.022471  -0.17225 -0.218243 0.0200032  -0.207255 -0.278427 0.0174317  -0.243605 -0.343541 0.0150349  -0.281324 -0.413063 0.0129009  -0.320423 -0.486552 0.0110424  -0.360893 -0.563613 0.00943136  -0.4027 -0.643888 0.00802147  -0.445778 -0.727043 0.00678504  -0.490041 -0.812773 0.00568509  -0.535389 -0.900795 0.00470555  -0.581711 -0.990839 0.00382721  -0.628886 -1.08267 0.00303912  -0.676799 -1.17606 0.00233102  -0.725325 -1.27079 0.00169468  -0.774348 -1.36669 0.00112474  -0.82376 -1.46356 0.000621915  -0.873456 -1.56125 0.000174999  -0.923343 -1.65959 -0.000214934  -0.973326 -1.75847 -0.000553012  -1.02334 -1.85773 -0.000836134  -1.0733 -1.95727 -0.00107074  -1.12317 -2.05698 -0.00125587  -1.1729 -2.15675 -0.00139725  -1.22247 -2.25651 -0.0014894  -1.27186 -2.35617 -0.0015415  -1.32108 -2.45569 -0.00157368  -1.37018 -2.55502 -0.00159943  0 0 0  -0.00843565 -0.0101208 0.0083195  -0.023445 -0.0362015 0.013778  -0.0423271 -0.0723115 0.0159988  -0.0636495 -0.116887 0.0159574  -0.0873164 -0.168959 0.0147125  -0.113436 -0.227479 0.0129932  -0.141992 -0.291531 0.011194  -0.172877 -0.360392 0.00951254  -0.205965 -0.433489 0.0080179  -0.241133 -0.510353 0.00671768  -0.27826 -0.590567 0.00559902  -0.317215 -0.673762 0.00462842  -0.357862 -0.759598 0.00378096  -0.400055 -0.847777 0.00304091  -0.443646 -0.938007 0.00238478  -0.488479 -1.03003 0.00180173  -0.534404 -1.12362 0.00128853  -0.581269 -1.21854 0.000826001  -0.628929 -1.31462 0.000417233  -0.677241 -1.41166 5.66244e-05  -0.726079 -1.50951 -0.000261903  -0.775318 -1.608 -0.000537276  -0.824848 -1.70701 -0.000776172  -0.874567 -1.8064 -0.000979543  -0.92438 -1.90607 -0.00114727  -0.974217 -2.0059 -0.00128412  -1.024 -2.1058 -0.00138366  -1.07369 -2.2057 -0.00145435  -1.12323 -2.30551 -0.00149632  -1.17261 -2.40519 -0.00151527  -1.2218 -2.50468 -0.00152481  -1.27084 -2.60395 -0.0015341  0 0 0  -0.00247087 -0.00946853 0.00395572  -0.00754197 -0.0359943 0.00674236  -0.0158135 -0.0743906 0.00798213  -0.0273281 -0.121879 0.00797534  -0.0421803 -0.176989 0.00725257  -0.0604713 -0.238634 0.00622833  -0.0821632 -0.305894 0.00514424  -0.107099 -0.377991 0.00413024  -0.135063 -0.454289 0.00323558  -0.165836 -0.534253 0.00246775  -0.199187 -0.617422 0.00181878  -0.234904 -0.703394 0.00127065  -0.272768 -0.791813 0.000810146  -0.31258 -0.882358 0.000413299  -0.354131 -0.974745 7.60555e-05  -0.397223 -1.06871 -0.000213861  -0.441669 -1.16403 -0.00046587  -0.487281 -1.26049 -0.000678658  -0.533888 -1.3579 -0.00086081  -0.581324 -1.4561 -0.00101733  -0.629433 -1.55493 -0.00115132  -0.678081 -1.65426 -0.00125897  -0.727129 -1.75394 -0.00134397  -0.776462 -1.85389 -0.00141835  -0.825981 -1.95399 -0.00146735  -0.875583 -2.05415 -0.00149739  -0.925206 -2.15429 -0.00151503  -0.974764 -2.25435 -0.00151896  -1.02423 -2.35427 -0.00150573  -1.07354 -2.454 -0.00148642  -1.12268 -2.55351 -0.00146472  -1.17161 -2.65273 -0.0014472  0 0 0  0.00251383 -0.0119097 -0.000273585  0.00611573 -0.0403836 -6.03199e-05  0.00764143 -0.0808502 0.000238657  0.00560439 -0.130587 0.000262499  -0.000572085 -0.188089 1.58548e-05  -0.0110623 -0.252275 -0.000375748  -0.0258137 -0.322228 -0.000799775  -0.0446342 -0.397133 -0.00119078  -0.0672524 -0.476281 -0.00151801  -0.0933708 -0.559067 -0.00177324  -0.122691 -0.644969 -0.00196111  -0.154917 -0.733541 -0.00209355  -0.18977 -0.824401 -0.00217831  -0.226979 -0.917201 -0.00222647  -0.266288 -1.01165 -0.00224757  -0.307459 -1.10749 -0.00224483  -0.350254 -1.20448 -0.00222695  -0.394462 -1.30242 -0.00219643  -0.439876 -1.40113 -0.00215483  -0.486302 -1.50046 -0.00210512  -0.533569 -1.60025 -0.00204909  -0.581516 -1.70038 -0.00198877  -0.629985 -1.80074 -0.00192964  -0.678854 -1.90123 -0.00186002  -0.727994 -2.00176 -0.00179231  -0.777302 -2.10226 -0.00172496  -0.82669 -2.20265 -0.00165439  -0.876074 -2.30288 -0.00158679  -0.925399 -2.40292 -0.00151742  -0.97462 -2.50271 -0.00145674  -1.02368 -2.60223 -0.00139856  -1.07253 -2.70144 -0.00133657  0 0 0  0.00750789 -0.016727 -0.00431597  0.0196158 -0.0485819 -0.0065062  0.0305235 -0.0913064 -0.00712359  0.0375282 -0.142933 -0.00713372  0.0396898 -0.202367 -0.00699294  0.0367664 -0.268681 -0.00683331  0.0288202 -0.340968 -0.00666416  0.0160723 -0.41836 -0.00647616  -0.00117111 -0.50008 -0.00626147  -0.0225599 -0.585445 -0.00602162  -0.0477395 -0.673873 -0.00575697  -0.0763594 -0.764869 -0.00547361  -0.10807 -0.85801 -0.00518  -0.142556 -0.952931 -0.00488043  -0.179509 -1.04932 -0.00458062  -0.21864 -1.14692 -0.00428832  -0.259683 -1.24549 -0.00399971  -0.302385 -1.34483 -0.0037235  -0.346511 -1.44477 -0.00345623  -0.391846 -1.54515 -0.00320315  -0.438195 -1.64584 -0.00295687  -0.485366 -1.74674 -0.00272429  -0.5332 -1.84772 -0.00250816  -0.581537 -1.94872 -0.00230861  -0.63025 -2.04965 -0.00212228  -0.679218 -2.15044 -0.00194788  -0.728335 -2.25106 -0.00179267  -0.777515 -2.35144 -0.00165582  -0.826682 -2.45157 -0.00153232  -0.875784 -2.55141 -0.00142407  -0.92477 -2.65095 -0.00132692  -0.973564 -2.75017 -0.00123608  0 0 0  0.0134226 -0.0244872 -0.00799775  0.0347024 -0.0607433 -0.0124129  0.0548015 -0.105587 -0.0139731  0.0703589 -0.15872 -0.0141377  0.0803939 -0.219765 -0.0137347  0.0846754 -0.287958 -0.0131189  0.0832794 -0.362364 -0.0124257  0.0764302 -0.44205 -0.0117058  0.0644584 -0.526153 -0.0109799  0.0477412 -0.613915 -0.0102589  0.0266807 -0.704694 -0.00955093  0.00168097 -0.797946 -0.00885713  -0.0268687 -0.89321 -0.00818455  -0.0585968 -0.990102 -0.00753677  -0.0931481 -1.0883 -0.00692022  -0.130199 -1.18753 -0.00633514  -0.16944 -1.28755 -0.00577509  -0.210592 -1.38818 -0.00525117  -0.253392 -1.48923 -0.00475645  -0.297595 -1.59058 -0.00429213  -0.342981 -1.69208 -0.00385928  -0.389343 -1.79365 -0.00345802  -0.436502 -1.89518 -0.00309002  -0.484292 -1.99661 -0.00275064  -0.532556 -2.09787 -0.00244415  -0.58117 -2.19891 -0.0021714  -0.630004 -2.29968 -0.00192475  -0.678964 -2.40017 -0.00171745  -0.727965 -2.50034 -0.00154173  -0.776949 -2.60019 -0.00139225  -0.825856 -2.69973 -0.00126493  -0.874646 -2.79898 -0.00113893  0 0 0  0.0219639 -0.0373017 -0.011201  0.0533461 -0.0775166 -0.0177083  0.0821012 -0.123456 -0.0202794  0.105543 -0.177613 -0.0207061  0.12293 -0.240103 -0.0201491  0.134034 -0.31011 -0.0191646  0.138888 -0.386588 -0.0180162  0.1377 -0.468493 -0.0168127  0.130805 -0.554878 -0.0156125  0.118612 -0.644915 -0.0144336  0.101556 -0.737905 -0.0132941  0.0800843 -0.833261 -0.0121995  0.0546334 -0.930497 -0.0111585  0.0256163 -1.02921 -0.0101719  -0.00656772 -1.12905 -0.00923884  -0.0415574 -1.22976 -0.00836229  -0.07901 -1.3311 -0.00753593  -0.118617 -1.43288 -0.00676382  -0.160086 -1.53493 -0.00604284  -0.203155 -1.6371 -0.00537586  -0.247576 -1.7393 -0.00475621  -0.293136 -1.84142 -0.00418198  -0.339621 -1.94339 -0.00366127  -0.386865 -2.04515 -0.00318539  -0.434689 -2.14663 -0.00275874  -0.482953 -2.24781 -0.00238097  -0.531527 -2.34866 -0.00205576  -0.580287 -2.44916 -0.0017761  -0.629147 -2.54932 -0.00154924  -0.678028 -2.64913 -0.00136364  -0.726874 -2.74861 -0.00120997  -0.77569 -2.84787 -0.00107217  0 0 0  0.0381596 -0.0597177 -0.0142219  0.0774015 -0.0985491 -0.0227724  0.113248 -0.144054 -0.0261674  0.143923 -0.199115 -0.0267985  0.168303 -0.263187 -0.0261046  0.185935 -0.335153 -0.0248191  0.196765 -0.41379 -0.0232842  0.200978 -0.497943 -0.0216645  0.19892 -0.586583 -0.0200375  0.191032 -0.678818 -0.0184487  0.177786 -0.773906 -0.0169145  0.159674 -0.871233 -0.015448  0.137181 -0.970287 -0.0140593  0.110761 -1.07066 -0.0127451  0.0808513 -1.17199 -0.0115104  0.0478461 -1.27403 -0.0103528  0.0121119 -1.37652 -0.00926924  -0.0259974 -1.47929 -0.00825799  -0.0661848 -1.58216 -0.00731838  -0.108152 -1.68503 -0.00644732  -0.151645 -1.78777 -0.00564241  -0.196429 -1.89031 -0.00490201  -0.242269 -1.99257 -0.00422883  -0.288997 -2.09452 -0.00361991  -0.336409 -2.1961 -0.00307298  -0.384368 -2.2973 -0.00259721  -0.432716 -2.3981 -0.00218081  -0.481335 -2.4985 -0.00183821  -0.530112 -2.59852 -0.00155509  -0.578948 -2.69819 -0.00133526  -0.62778 -2.79757 -0.00117099  -0.676619 -2.89682 -0.00102389  0 0 0  -0.0391985 -0.0278924 0.0305134  -0.0772398 -0.0446997 0.0467224  -0.115947 -0.0703527 0.0513781  -0.155078 -0.106186 0.0497466  -0.194534 -0.150537 0.0454104  -0.234363 -0.2018 0.0402894  -0.274712 -0.258859 0.0352777  -0.315729 -0.32095 0.0307273  -0.357538 -0.387539 0.0267183  -0.400222 -0.458199 0.0232151  -0.44383 -0.532569 0.020152  -0.488364 -0.610317 0.0174482  -0.533803 -0.691139 0.0150409  -0.580105 -0.774737 0.0128926  -0.627206 -0.860831 0.0109596  -0.67502 -0.949162 0.00921643  -0.723464 -1.03947 0.00764656  -0.772445 -1.13154 0.0062288  -0.821861 -1.22515 0.00495303  -0.871622 -1.32008 0.00380754  -0.921635 -1.41616 0.00279069  -0.971811 -1.51321 0.00188792  -1.02207 -1.61105 0.00109243  -1.07234 -1.70955 0.000406623  -1.12254 -1.80855 -0.000176191  -1.17264 -1.90793 -0.000657201  -1.22258 -2.00756 -0.0010469  -1.27234 -2.10734 -0.001333  -1.32188 -2.20715 -0.00152099  -1.37124 -2.3069 -0.00161958  -1.42044 -2.40652 -0.00165772  -1.46957 -2.50594 -0.00167382  0 0 0  -0.0185902 -0.0120784 0.0218978  -0.0458784 -0.0333934 0.0336066  -0.0738691 -0.0646792 0.0371213  -0.10293 -0.105831 0.0360852  -0.133925 -0.155159 0.0330266  -0.166923 -0.211063 0.0293143  -0.201741 -0.272445 0.025619  -0.238206 -0.338575 0.0222257  -0.276215 -0.408927 0.0192164  -0.315692 -0.483091 0.0165826  -0.356572 -0.560701 0.0142785  -0.398794 -0.641431 0.0122534  -0.44227 -0.724964 0.0104581  -0.486912 -0.811018 0.00885761  -0.532614 -0.899313 0.00742817  -0.579268 -0.989601 0.00614071  -0.62675 -1.08164 0.00498712  -0.674946 -1.1752 0.00394905  -0.723731 -1.2701 0.00301945  -0.772994 -1.36612 0.00218916  -0.822626 -1.46311 0.00145268  -0.872524 -1.5609 0.00080502  -0.922588 -1.65933 0.000241041  -0.97273 -1.75828 -0.000246525  -1.02288 -1.8576 -0.000649929  -1.07297 -1.95719 -0.000983596  -1.12295 -2.05693 -0.00124323  -1.17277 -2.15674 -0.00143147  -1.2224 -2.25651 -0.00154674  -1.27183 -2.35619 -0.00160754  -1.32107 -2.45571 -0.00163007  -1.37019 -2.55505 -0.00166059  0 0 0  -0.00900403 -0.00601417 0.0138435  -0.0237774 -0.0291701 0.0218167  -0.0410583 -0.0639285 0.0242209  -0.0606282 -0.108461 0.0235269  -0.0830424 -0.1612 0.0214715  -0.108488 -0.220661 0.0189545  -0.136815 -0.285676 0.0164243  -0.167767 -0.355413 0.0140812  -0.201105 -0.42927 0.0119942  -0.236615 -0.506771 0.0101686  -0.274118 -0.58752 0.00857878  -0.313459 -0.671169 0.00719178  -0.354479 -0.757392 0.00597477  -0.397034 -0.845896 0.00489914  -0.440962 -0.93641 0.00394773  -0.486111 -1.02868 0.00310421  -0.532329 -1.12248 0.00235212  -0.579465 -1.21759 0.00168598  -0.627378 -1.31383 0.00109255  -0.675926 -1.41102 0.00057292  -0.724976 -1.50898 0.000113368  -0.774411 -1.60758 -0.000282884  -0.824116 -1.70668 -0.000624061  -0.873987 -1.80615 -0.00090611  -0.923943 -1.90588 -0.00113821  -0.973897 -2.00577 -0.0013181  -1.02379 -2.10571 -0.00145411  -1.07356 -2.20564 -0.0015403  -1.12317 -2.30548 -0.00158131  -1.17259 -2.40519 -0.00159287  -1.22181 -2.50469 -0.00158858  -1.27084 -2.60396 -0.00159752  0 0 0  -0.00237418 -0.0061115 0.00634992  -0.00695276 -0.0302049 0.0104591  -0.0141066 -0.067193 0.0118597  -0.0243801 -0.114279 0.0115383  -0.0382863 -0.169678 0.0103937  -0.0560296 -0.231971 0.00894642  -0.0775163 -0.299998 0.00746942  -0.102494 -0.372858 0.00609362  -0.130656 -0.449853 0.00487268  -0.161713 -0.53043 0.00381851  -0.195389 -0.614128 0.00291717  -0.231443 -0.700555 0.00215352  -0.269647 -0.789368 0.00150061  -0.309784 -0.880255 0.00094378  -0.351643 -0.972937 0.000465393  -0.395028 -1.06716 5.71012e-05  -0.439745 -1.16271 -0.000296593  -0.485612 -1.25937 -0.000600576  -0.532453 -1.35696 -0.000851393  -0.580106 -1.45531 -0.00107014  -0.62842 -1.55428 -0.00124836  -0.677245 -1.65372 -0.0013926  -0.726461 -1.75351 -0.00150537  -0.775941 -1.85355 -0.00159001  -0.825589 -1.95372 -0.00164688  -0.875309 -2.05394 -0.00167799  -0.92502 -2.15414 -0.00168264  -0.974664 -2.25424 -0.00166607  -1.02418 -2.3542 -0.00163269  -1.07354 -2.45396 -0.00157988  -1.12271 -2.55348 -0.00152552  -1.17162 -2.65269 -0.00149441  0 0 0  0.00324087 -0.00910124 -0.000927329  0.00765461 -0.0353302 -0.000469685  0.00993252 -0.0743463 -1.06096e-05  0.00863302 -0.1235 -8.9407e-06  0.00304681 -0.18106 -0.0003438  -0.00708169 -0.245692 -0.000837564  -0.021699 -0.316268 -0.00135708  -0.0405598 -0.391838 -0.00183654  -0.0633377 -0.471627 -0.00223589  -0.0896916 -0.554996 -0.00254309  -0.119285 -0.641419 -0.00276554  -0.151801 -0.730449 -0.0029161  -0.186949 -0.821706 -0.00300276  -0.224449 -0.914858 -0.0030458  -0.264033 -1.00962 -0.00304949  -0.30547 -1.10572 -0.00302362  -0.348514 -1.20296 -0.00297523  -0.392954 -1.30111 -0.00290811  -0.438585 -1.40001 -0.00282502  -0.485214 -1.49951 -0.00273418  -0.532668 -1.59945 -0.00263345  -0.580779 -1.69971 -0.00252295  -0.629405 -1.80019 -0.00240874  -0.678409 -1.90078 -0.00229061  -0.72767 -2.0014 -0.00217271  -0.777078 -2.10198 -0.00204992  -0.826551 -2.20243 -0.00192654  -0.87601 -2.30272 -0.00180578  -0.925394 -2.4028 -0.00168216  -0.974658 -2.50263 -0.00156319  -1.02374 -2.60217 -0.00145209  -1.07257 -2.70137 -0.00135696  0 0 0  0.0088169 -0.014228 -0.00792408  0.0220158 -0.0438983 -0.0107956  0.0333708 -0.0851669 -0.0112598  0.0406883 -0.13614 -0.0110711  0.0431085 -0.195525 -0.0107573  0.0403542 -0.262168 -0.0104315  0.032463 -0.334971 -0.0100936  0.0196596 -0.412951 -0.00973558  0.00228012 -0.495257 -0.00934744  -0.0193062 -0.581174 -0.00892735  -0.044719 -0.670109 -0.00848138  -0.0735819 -0.761557 -0.00801778  -0.105551 -0.855099 -0.00754213  -0.140289 -0.950376 -0.00706255  -0.177489 -1.04709 -0.00658989  -0.216856 -1.14496 -0.0061245  -0.258127 -1.24378 -0.00567126  -0.301044 -1.34335 -0.00523579  -0.345369 -1.44349 -0.00481355  -0.390893 -1.54405 -0.00441182  -0.437406 -1.64491 -0.00402498  -0.484738 -1.74594 -0.00366211  -0.532709 -1.84706 -0.00332153  -0.581175 -1.94817 -0.00299966  -0.629997 -2.0492 -0.00270057  -0.679058 -2.15009 -0.00242388  -0.72825 -2.25078 -0.00217164  -0.777495 -2.35123 -0.00194764  -0.826713 -2.45141 -0.00173795  -0.875852 -2.55129 -0.00155056  -0.924857 -2.65085 -0.00137091  -0.973647 -2.75007 -0.00121701  0 0 0  0.015257 -0.0219074 -0.0143646  0.0378129 -0.0560015 -0.020251  0.058092 -0.099515 -0.0217397  0.0736215 -0.152066 -0.0215858  0.0836545 -0.213058 -0.0208188  0.0879489 -0.281529 -0.0198147  0.0865321 -0.356389 -0.0187122  0.0796129 -0.436604 -0.0175754  0.0675149 -0.521246 -0.0164376  0.0506294 -0.60953 -0.0153086  0.0293756 -0.700794 -0.0142001  0.00415909 -0.794485 -0.0131238  -0.0246127 -0.890147 -0.0120828  -0.0565634 -0.987396 -0.0110848  -0.0913391 -1.08591 -0.0101317  -0.128604 -1.18542 -0.00922787  -0.168052 -1.28571 -0.00836754  -0.209399 -1.38656 -0.00756013  -0.25238 -1.48783 -0.0067966  -0.296753 -1.58936 -0.00608397  -0.3423 -1.69104 -0.00541639  -0.388811 -1.79276 -0.00479758  -0.436101 -1.89444 -0.00422382  -0.484003 -1.99599 -0.00370038  -0.532371 -2.09736 -0.00321841  -0.581064 -2.19849 -0.0027914  -0.629972 -2.29936 -0.00240648  -0.67899 -2.39992 -0.00207245  -0.728036 -2.50015 -0.00178576  -0.777046 -2.60005 -0.00153482  -0.825975 -2.6996 -0.0013119  -0.874759 -2.79885 -0.00110579  0 0 0  0.0242006 -0.0339744 -0.0198505  0.0569181 -0.0721511 -0.028667  0.0856667 -0.117147 -0.03144  0.108871 -0.170969 -0.0315498  0.126103 -0.233512 -0.0304922  0.13712 -0.303816 -0.0289178  0.141904 -0.380726 -0.0271289  0.140629 -0.463127 -0.0252707  0.133617 -0.550018 -0.0234158  0.121272 -0.640548 -0.0216032  0.10404 -0.733999 -0.0198506  0.0823762 -0.829781 -0.0181718  0.0567228 -0.927399 -0.0165752  0.0275034 -1.02646 -0.015065  -0.00488353 -1.12662 -0.0136384  -0.0400757 -1.22762 -0.012297  -0.0777204 -1.32921 -0.0110382  -0.117514 -1.43122 -0.00985646  -0.159158 -1.53347 -0.00875819  -0.202389 -1.63584 -0.0077337  -0.246965 -1.73821 -0.00678563  -0.292661 -1.8405 -0.00590932  -0.339277 -1.94261 -0.00510836  -0.386625 -2.04449 -0.0043807  -0.43455 -2.1461 -0.0037235  -0.482892 -2.24738 -0.00313711  -0.531529 -2.34832 -0.00262368  -0.580347 -2.4489 -0.00218666  -0.629243 -2.54911 -0.00181854  -0.678147 -2.64897 -0.00151837  -0.727012 -2.74848 -0.00126445  -0.775824 -2.84774 -0.00104272  0 0 0  0.0400142 -0.0546944 -0.0247729  0.0808859 -0.092038 -0.0368911  0.116917 -0.137273 -0.0407732  0.147389 -0.192393 -0.0410331  0.171593 -0.256726 -0.0396758  0.189112 -0.329082 -0.0375776  0.199847 -0.408187 -0.035167  0.203961 -0.492839 -0.0326478  0.201776 -0.581973 -0.0301324  0.193733 -0.674687 -0.0276809  0.180313 -0.770221 -0.0253179  0.162012 -0.867953 -0.02307  0.139316 -0.967376 -0.0209438  0.112691 -1.06808 -0.0189404  0.0825733 -1.16972 -0.0170562  0.0493634 -1.27202 -0.0152917  0.0134418 -1.37476 -0.0136436  -0.0248597 -1.47775 -0.0121046  -0.0652192 -1.58083 -0.0106721  -0.107358 -1.68387 -0.00934744  -0.151005 -1.78678 -0.00811934  -0.195927 -1.88947 -0.00699508  -0.241903 -1.99188 -0.00596797  -0.288737 -2.09394 -0.00503802  -0.336257 -2.19564 -0.00419724  -0.384304 -2.29693 -0.00345635  -0.432722 -2.39781 -0.00281978  -0.481399 -2.49828 -0.00228238  -0.530214 -2.59834 -0.00183761  -0.579081 -2.69804 -0.00149107  -0.627927 -2.79744 -0.00122035  -0.676772 -2.89668 -0.000998855  0 0 0  -0.0483219 -0.013016 0.0465324  -0.0791779 -0.0247991 0.0643125  -0.110889 -0.0518754 0.0674148  -0.146319 -0.0911074 0.0639368  -0.184407 -0.13877 0.0580347  -0.22415 -0.192659 0.0515901  -0.265019 -0.251658 0.0454317  -0.306795 -0.315163 0.0398422  -0.34943 -0.382799 0.0348781  -0.392923 -0.454267 0.0304865  -0.437277 -0.52928 0.0265998  -0.482501 -0.607564 0.02314  -0.528579 -0.68883 0.020041  -0.575466 -0.77281 0.0172528  -0.6231 -0.859237 0.014735  -0.671415 -0.947849 0.0124576  -0.720314 -1.03841 0.0104035  -0.769716 -1.13069 0.00854409  -0.819519 -1.22448 0.00687444  -0.869637 -1.31957 0.00537145  -0.919975 -1.41578 0.0040344  -0.970439 -1.51293 0.00285351  -1.02097 -1.61087 0.00181139  -1.07147 -1.70945 0.000913978  -1.1219 -1.80851 0.000151396  -1.17217 -1.90794 -0.000487924  -1.22227 -2.00759 -0.000978708  -1.27217 -2.10737 -0.0013442  -1.32183 -2.20719 -0.00160193  -1.37125 -2.30693 -0.00171494  -1.42045 -2.40654 -0.00172412  -1.46958 -2.50599 -0.00173473  0 0 0  -0.0292634 -0.0015582 0.0337335  -0.0500303 -0.0180569 0.0454068  -0.0705706 -0.0495119 0.047716  -0.095372 -0.0927049 0.045684  -0.12457 -0.144369 0.0418209  -0.157195 -0.202326 0.0373749  -0.192356 -0.265355 0.0329676  -0.22948 -0.332763 0.0288684  -0.268245 -0.404115 0.02518  -0.308484 -0.479069 0.0218933  -0.350093 -0.55732 0.0189737  -0.392983 -0.638585 0.0163842  -0.437076 -0.722574 0.0140643  -0.482292 -0.809016 0.0119897  -0.528528 -0.897646 0.0101207  -0.575662 -0.988225 0.0084393  -0.623594 -1.08051 0.00693047  -0.672202 -1.17429 0.00556481  -0.72137 -1.26938 0.00434792  -0.77099 -1.36556 0.00326276  -0.82094 -1.46269 0.00229907  -0.871125 -1.56059 0.00144911  -0.921456 -1.65912 0.000709414  -0.971835 -1.75815 7.77245e-05  -1.0222 -1.85753 -0.000449419  -1.07248 -1.95717 -0.000881553  -1.12261 -2.05694 -0.00122094  -1.17257 -2.15676 -0.00145555  -1.2223 -2.25654 -0.00159991  -1.2718 -2.35621 -0.0016706  -1.32107 -2.45574 -0.0016824  -1.37018 -2.55512 -0.00172734  0 0 0  -0.0148014 0.00298107 0.0214899  -0.0254277 -0.0165423 0.0289462  -0.0378579 -0.0507019 0.0304117  -0.0543099 -0.0962003 0.0291971  -0.0751815 -0.15051 0.0267961  -0.100137 -0.2116 0.0239257  -0.128593 -0.278071 0.020995  -0.159995 -0.349029 0.0182198  -0.193914 -0.423883 0.015694  -0.230046 -0.502206 0.0134403  -0.26817 -0.583641 0.0114412  -0.308101 -0.66786 0.0096786  -0.349675 -0.754574 0.00811744  -0.392744 -0.843501 0.00673127  -0.437155 -0.934378 0.00549841  -0.482755 -1.02697 0.00439882  -0.529391 -1.12104 0.00342071  -0.576913 -1.2164 0.00254893  -0.625176 -1.31285 0.00178254  -0.674056 -1.41022 0.00109625  -0.72341 -1.50835 0.000504851  -0.773119 -1.60708 -1.01328e-05  -0.823071 -1.70629 -0.00045073  -0.873169 -1.80587 -0.000820041  -0.923321 -1.90568 -0.00111222  -0.973448 -2.00563 -0.00134408  -1.02349 -2.10562 -0.00151157  -1.07338 -2.20558 -0.00161254  -1.12309 -2.30545 -0.00165975  -1.17258 -2.40517 -0.00166237  -1.22183 -2.50471 -0.00165236  -1.27086 -2.60402 -0.00168633  0 0 0  -0.00437247 0.00178212 0.00941026  -0.00641045 -0.0188617 0.0131859  -0.0106157 -0.0549366 0.0141267  -0.0188365 -0.10249 0.0136322  -0.0316076 -0.159003 0.0124129  -0.0489122 -0.222613 0.0108676  -0.0704194 -0.29192 0.00924242  -0.0956922 -0.365926 0.00767958  -0.124289 -0.443904 0.0062536  -0.15584 -0.525315 0.00499249  -0.190032 -0.609724 0.00389695  -0.226594 -0.696758 0.00295198  -0.26528 -0.786089 0.00213683  -0.30588 -0.877431 0.00143373  -0.34817 -0.97051 0.000831366  -0.391965 -1.06508 0.000309944  -0.43706 -1.16093 -0.000135183  -0.483286 -1.25786 -0.000516772  -0.530461 -1.35569 -0.000839829  -0.578414 -1.45425 -0.00111079  -0.627008 -1.5534 -0.00133359  -0.676089 -1.65299 -0.00151551  -0.725532 -1.75293 -0.00165153  -0.775223 -1.85308 -0.00175154  -0.825054 -1.95336 -0.00181651  -0.87493 -2.05367 -0.00184488  -0.924776 -2.15393 -0.00184178  -0.974532 -2.2541 -0.00180793  -1.02415 -2.3541 -0.00174868  -1.07357 -2.4539 -0.00167048  -1.12277 -2.55347 -0.0015924  -1.17169 -2.65272 -0.00156224  0 0 0  0.00427014 -0.0020465 -0.00236344  0.00998279 -0.0249018 -0.00188172  0.0137435 -0.0627601 -0.00141609  0.0136443 -0.11205 -0.00132358  0.00880611 -0.170415 -0.00153708  -0.000990748 -0.236124 -0.00192821  -0.015589 -0.307822 -0.00238574  -0.034645 -0.384449 -0.00282431  -0.0577502 -0.465184 -0.00320268  -0.0844978 -0.549386 -0.00349689  -0.114512 -0.636531 -0.00370789  -0.147459 -0.726189 -0.00383687  -0.183027 -0.817997 -0.00390518  -0.220929 -0.91163 -0.00392115  -0.260909 -1.00681 -0.00389326  -0.302709 -1.10329 -0.00382578  -0.346106 -1.20085 -0.00374246  -0.390871 -1.2993 -0.003631  -0.436808 -1.39846 -0.0035044  -0.483718 -1.49818 -0.00336134  -0.53143 -1.59833 -0.00321376  -0.579774 -1.69878 -0.00305247  -0.628613 -1.79942 -0.00288975  -0.677806 -1.90015 -0.00272095  -0.72723 -2.0009 -0.00254726  -0.776785 -2.10157 -0.00237107  -0.826379 -2.20212 -0.00219619  -0.87594 -2.30249 -0.00202346  -0.925411 -2.40262 -0.00185204  -0.974726 -2.50251 -0.00167501  -1.02386 -2.6021 -0.00151169  -1.0727 -2.70134 -0.00138474  0 0 0  0.0122645 -0.00790745 -0.0137283  0.0257661 -0.0342672 -0.0161086  0.0374685 -0.0741727 -0.016168  0.0453058 -0.12503 -0.0156959  0.0481413 -0.184974 -0.0151103  0.0455961 -0.252491 -0.0145153  0.037719 -0.326271 -0.0139154  0.0247787 -0.40522 -0.0133066  0.00715041 -0.488426 -0.0126739  -0.0147511 -0.575157 -0.0120243  -0.0405086 -0.664815 -0.0113562  -0.0697383 -0.756897 -0.0106778  -0.102073 -0.851002 -0.00999343  -0.13717 -0.946781 -0.00931764  -0.174715 -1.04393 -0.0086503  -0.214414 -1.1422 -0.00800085  -0.256 -1.24137 -0.00736868  -0.299218 -1.34125 -0.00676715  -0.343816 -1.44167 -0.00618815  -0.389598 -1.54248 -0.00563371  -0.436356 -1.64357 -0.00510395  -0.483899 -1.74481 -0.00460529  -0.532065 -1.84611 -0.00413644  -0.580703 -1.94738 -0.00369751  -0.62968 -2.04855 -0.00328743  -0.678865 -2.14957 -0.00290465  -0.728169 -2.25037 -0.00255692  -0.777493 -2.35092 -0.00223756  -0.826779 -2.45117 -0.001948  -0.87597 -2.55111 -0.00167811  -0.925012 -2.65071 -0.00142443  -0.973816 -2.74996 -0.00120378  0 0 0  0.0205984 -0.0161642 -0.0243622  0.0426858 -0.0470243 -0.0292466  0.0624526 -0.0890504 -0.0300485  0.0779546 -0.1413 -0.0294907  0.0881084 -0.202667 -0.0283294  0.0924877 -0.271851 -0.0268905  0.09106 -0.347566 -0.0253279  0.0840287 -0.428658 -0.0237228  0.0717342 -0.514146 -0.022121  0.0545965 -0.603211 -0.0205432  0.0330544 -0.695182 -0.0190029  0.0075326 -0.789509 -0.0175122  -0.0215571 -0.885737 -0.016082  -0.0538238 -0.983497 -0.0147099  -0.0889034 -1.08247 -0.013406  -0.126468 -1.18238 -0.0121686  -0.166204 -1.28304 -0.0109979  -0.207822 -1.38422 -0.00989711  -0.251061 -1.48578 -0.00886405  -0.295668 -1.58758 -0.00789297  -0.341436 -1.6895 -0.00698876  -0.388144 -1.79145 -0.00614512  -0.435612 -1.89332 -0.00537336  -0.483674 -1.99505 -0.00466108  -0.532172 -2.09659 -0.00400519  -0.580982 -2.19787 -0.00342453  -0.629979 -2.29887 -0.00289416  -0.679065 -2.39953 -0.0024395  -0.728162 -2.49986 -0.00203633  -0.777205 -2.59982 -0.00168288  -0.826155 -2.69942 -0.00135517  -0.874951 -2.7987 -0.00107479  0 0 0  0.0310326 -0.0279931 -0.0336858  0.06271 -0.0633661 -0.0411198  0.0902631 -0.10698 -0.0431551  0.113003 -0.160485 -0.042796  0.130111 -0.223328 -0.0412024  0.141097 -0.294251 -0.0390095  0.145831 -0.371924 -0.0365431  0.144455 -0.455128 -0.0339911  0.137284 -0.542802 -0.0314442  0.12473 -0.634072 -0.0289551  0.107256 -0.728209 -0.0265592  0.0853294 -0.824606 -0.0242705  0.0594037 -0.922787 -0.0220932  0.0299045 -1.02235 -0.0200359  -0.00276124 -1.12297 -0.0181013  -0.0382191 -1.22438 -0.016283  -0.076129 -1.32635 -0.01458  -0.116172 -1.42869 -0.0129855  -0.158047 -1.53125 -0.0114986  -0.201496 -1.6339 -0.0101167  -0.246271 -1.73653 -0.00883055  -0.292156 -1.83905 -0.00764954  -0.338929 -1.94138 -0.00657165  -0.386424 -2.04346 -0.00558686  -0.434468 -2.14524 -0.00469553  -0.482919 -2.24669 -0.00389946  -0.531633 -2.34777 -0.00320172  -0.580498 -2.44848 -0.0026052  -0.629439 -2.54879 -0.00209808  -0.678349 -2.64872 -0.00167811  -0.727217 -2.74828 -0.00132394  -0.776029 -2.84756 -0.00100482  0 0 0  0.0486732 -0.0461934 -0.0408595  0.08736 -0.082489 -0.0529861  0.121717 -0.126969 -0.0561855  0.151496 -0.182083 -0.0558358  0.17545 -0.246834 -0.053731  0.192878 -0.319825 -0.0507617  0.203548 -0.399661 -0.0474114  0.207559 -0.485077 -0.0439384  0.205233 -0.574957 -0.0404768  0.197 -0.66837 -0.0371164  0.183358 -0.76456 -0.0338889  0.164814 -0.862885 -0.0308243  0.141862 -0.96285 -0.0279285  0.114974 -1.06405 -0.0252001  0.0845957 -1.16613 -0.0226542  0.0511281 -1.26883 -0.0202692  0.014955 -1.37194 -0.0180387  -0.0235846 -1.47526 -0.0159595  -0.0641792 -1.57864 -0.0140334  -0.106524 -1.68196 -0.0122463  -0.150369 -1.78513 -0.0105948  -0.195467 -1.88805 -0.0090754  -0.241606 -1.99067 -0.00769496  -0.288582 -2.09294 -0.00643766  -0.336226 -2.19482 -0.00530636  -0.384362 -2.29627 -0.0043025  -0.432864 -2.3973 -0.0034343  -0.481588 -2.49791 -0.00269973  -0.530441 -2.59807 -0.0020982  -0.579306 -2.69784 -0.0016216  -0.628139 -2.79728 -0.00125957  -0.676968 -2.89655 -0.000983  0 0 0  -0.00803722 -0.00106928 -0.0161541  -0.00953037 -0.00521524 -0.0190676  -0.0241997 -0.000660859 -0.0290525  -0.0177407 0.00284049 -0.024378  -0.0217233 -0.0062177 -0.0295194  -0.00937487 -0.00792262 -0.0150998  -0.0260498 -0.0178086 -0.0279557  -0.0203024 -0.0186253 -0.0177748  0 0 0  -0.0204771 -0.0166095 -0.0223436  0 0 0  0 0 0  -0.00665578 -0.0032291 -0.0121704  0 0 0  -0.0415146 -0.0202365 -0.0414304  -0.0300277 -0.00841316 -0.0323442  -0.0301 -0.0123108 -0.0355933  -0.0407671 -0.00383548 -0.0420324  -0.0349854 -0.0147131 -0.0373529  -0.0467169 -0.0193419 -0.0446513  -0.0531327 -0.0101772 -0.0499803  -0.0402483 -0.00682833 -0.0421253  -0.0476583 -0.025855 -0.041776  -0.0432632 -0.0266091 -0.0365955  -0.0602741 -0.0374943 -0.0415995  -0.0581015 -0.0341866 -0.0427108  -0.0603827 -0.0256796 -0.0521472  -0.0324324 -0.0207482 -0.0307585  -0.0782076 -0.0341712 -0.0582106  -0.0661622 -0.01488 -0.0593742  -0.0620234 -0.0292313 -0.0495799  -0.0649026 -0.0193364 -0.0558564  -0.0600938 -0.0400767 -0.0436443  -0.0771092 -0.0422315 -0.0519904  -0.0768942 -0.0328774 -0.0573756  -0.0598208 -0.0316566 -0.048133  -0.072908 -0.0572238 -0.0441864  -0.0771617 -0.0504674 -0.0445698  -0.0938577 -0.0662643 -0.0452465  -0.0969114 -0.0552842 -0.0519331  -0.096626 -0.0460569 -0.0609964  -0.0602306 -0.0470811 -0.0375461  -0.114591 -0.060809 -0.0613584  -0.0961575 -0.0354034 -0.0678768  -0.0923885 -0.0584581 -0.052487  -0.0900601 -0.0495017 -0.0584111  -0.0861381 -0.0769725 -0.0435447  -0.108191 -0.0772104 -0.0517527  -0.104231 -0.0691695 -0.0570912  -0.0825934 -0.0694043 -0.0479517  -0.100172 -0.0991795 -0.0423856  -0.110769 -0.0845323 -0.0450979  -0.127873 -0.105152 -0.0438266  -0.135958 -0.0865211 -0.0523964  -0.133439 -0.0784348 -0.0604866  -0.0885436 -0.0835892 -0.0381113  -0.15213 -0.0983169 -0.0584557  -0.12922 -0.0696675 -0.0670717  -0.124559 -0.0985013 -0.0502194  -0.119648 -0.0912297 -0.0557286  -0.114825 -0.123382 -0.0406728  -0.141488 -0.121721 -0.0481741  -0.135909 -0.115306 -0.0533093  -0.109748 -0.117098 -0.0449275  -0.130247 -0.149477 -0.0387917  -0.145324 -0.127794 -0.0422357  -0.163068 -0.152284 -0.0401971  -0.175147 -0.12697 -0.0489461  -0.171433 -0.12036 -0.0560592  -0.118452 -0.12911 -0.0357842  -0.190765 -0.144198 -0.0531901  -0.165632 -0.113623 -0.062212  -0.158941 -0.146837 -0.0458466  -0.153109 -0.141166 -0.0509359  -0.146264 -0.177138 -0.0367249  -0.176855 -0.173493 -0.0433928  -0.170883 -0.168485 -0.0482273  -0.140723 -0.172078 -0.0407563  -0.162902 -0.20629 -0.0346521  -0.181148 -0.178412 -0.0380866  -0.199526 -0.206043 -0.0358776  -0.214632 -0.174975 -0.0440712  -0.210466 -0.169699 -0.0503362  -0.150384 -0.181914 -0.0323111  -0.23031 -0.196683 -0.0473592  -0.204332 -0.164589 -0.0560123  -0.195187 -0.201637 -0.0409012  -0.189308 -0.19722 -0.0455779  -0.180056 -0.236742 -0.0325897  -0.213899 -0.231086 -0.0384665  -0.208131 -0.227148 -0.0429456  -0.174615 -0.232676 -0.0363428  -0.197714 -0.268438 -0.030589  -0.218212 -0.235057 -0.0337182  -0.237189 -0.265358 -0.0316198  -0.254587 -0.229249 -0.0389951  -0.250397 -0.225042 -0.0445423  -0.184237 -0.240677 -0.0286116  -0.270686 -0.254673 -0.0417644  -0.244516 -0.221103 -0.0497363  -0.232958 -0.261784 -0.0361021  -0.227424 -0.258287 -0.0403719  -0.21582 -0.301269 -0.0286844  -0.252349 -0.293635 -0.0338671  -0.247022 -0.290483 -0.037966  -0.210739 -0.29797 -0.0321274  -0.234355 -0.335185 -0.026864  -0.256459 -0.29687 -0.0296192  -0.276021 -0.329522 -0.0277335  -0.29517 -0.288903 -0.034264  -0.291175 -0.285507 -0.0391943  -0.219835 -0.304516 -0.0251117  -0.311896 -0.317469 -0.0367162  -0.285762 -0.282393 -0.0439077  -0.272048 -0.326589 -0.0317354  -0.266996 -0.323764 -0.0356048  -0.253293 -0.37012 -0.025167  -0.29206 -0.360592 -0.0297496  -0.287237 -0.358018 -0.0334555  -0.248653 -0.367405 -0.0282851  -0.272622 -0.406032 -0.0235519  -0.295871 -0.363253 -0.0259582  -0.316015 -0.398021 -0.0242996  -0.336517 -0.353301 -0.030054  -0.33281 -0.350522 -0.0344414  -0.257035 -0.37282 -0.0219753  -0.353971 -0.384591 -0.032263  -0.327924 -0.348004 -0.0386967  -0.312362 -0.395589 -0.0278673  -0.307811 -0.393264 -0.0313469  -0.292319 -0.442869 -0.02206  -0.332967 -0.431548 -0.0261241  -0.328635 -0.429412 -0.0294484  -0.288127 -0.440608 -0.0248559  -0.312383 -0.480593 -0.02064  -0.336447 -0.433763 -0.0227499  -0.357173 -0.47045 -0.0213037  -0.378721 -0.421979 -0.0263711  -0.375334 -0.419668 -0.030269  -0.295748 -0.445133 -0.0192234  -0.396946 -0.45567 -0.0283644  -0.37095 -0.417591 -0.0340836  -0.353854 -0.468413 -0.0244737  -0.349774 -0.466474 -0.0275829  -0.332795 -0.519159 -0.0193331  -0.375034 -0.506158 -0.0229443  -0.371158 -0.504375 -0.0259053  -0.329031 -0.517261 -0.0218208  -0.353555 -0.558529 -0.018085  -0.378185 -0.50802 -0.0199549  -0.399489 -0.546453 -0.0186881  -0.421838 -0.494543 -0.0231608  -0.418771 -0.4926 -0.0266183  -0.335905 -0.521071 -0.0168236  -0.440841 -0.530378 -0.02494  -0.414851 -0.490878 -0.0300136  -0.39649 -0.544734 -0.0214925  -0.392845 -0.54311 -0.0242514  -0.37464 -0.598665 -0.0169322  -0.418229 -0.584112 -0.0201436  -0.414766 -0.582613 -0.022763  -0.371265 -0.597068 -0.0191265  -0.396055 -0.63953 -0.0158304  -0.421066 -0.585683 -0.0175056  -0.442926 -0.6257 -0.0163872  -0.465891 -0.570651 -0.0203447  -0.46313 -0.569008 -0.023397  -0.377444 -0.600286 -0.0147245  -0.485658 -0.608407 -0.0219112  -0.459631 -0.567569 -0.0264065  -0.440234 -0.624245 -0.0188567  -0.436981 -0.622883 -0.0212897  -0.417771 -0.681082 -0.0148119  -0.462507 -0.665104 -0.0176611  -0.45942 -0.663846 -0.0199661  -0.414755 -0.679739 -0.0167401  -0.439797 -0.723294 -0.0138347  -0.46505 -0.666434 -0.0153456  -0.487443 -0.707882 -0.0143558  -0.51087 -0.649982 -0.0178615  -0.508399 -0.648583 -0.0205435  -0.420287 -0.682463 -0.0128802  -0.53136 -0.689459 -0.0192171  -0.505278 -0.647385 -0.0231953  -0.485035 -0.706647 -0.0165188  -0.482134 -0.705508 -0.01865  -0.4621 -0.766125 -0.0129285  -0.507807 -0.748846 -0.0154531  -0.505057 -0.747797 -0.0174667  -0.459409 -0.764995 -0.0146084  -0.484685 -0.809541 -0.0120604  -0.510077 -0.749973 -0.0134318  -0.532962 -0.792708 -0.012549  -0.556737 -0.732229 -0.0156518  -0.55453 -0.731041 -0.0179961  -0.464349 -0.767298 -0.0112516  -0.577906 -0.773257 -0.0168091  -0.551752 -0.730052 -0.0203166  -0.530816 -0.791659 -0.0144306  -0.528238 -0.790716 -0.0162833  -0.507525 -0.853511 -0.0112518  -0.554051 -0.835064 -0.0134757  -0.551613 -0.834194 -0.0152258  -0.505134 -0.85257 -0.0127066  -0.530621 -0.898006 -0.0104754  -0.556071 -0.836015 -0.0117266  -0.579408 -0.879902 -0.0109344  -0.603437 -0.817113 -0.0136771  -0.601478 -0.816108 -0.0157092  -0.509522 -0.85451 -0.00980264  -0.625237 -0.859523 -0.0146468  -0.599015 -0.815294 -0.0177282  -0.577505 -0.879017 -0.0125595  -0.575223 -0.878237 -0.0141622  -0.553938 -0.942989 -0.00975186  -0.601156 -0.923493 -0.0117036  -0.599002 -0.922776 -0.013209  -0.551822 -0.942208 -0.0110008  -0.577486 -0.988435 -0.00905907  -0.602941 -0.924294 -0.0101982  -0.626681 -0.969205 -0.00949085  -0.650897 -0.90436 -0.0119066  -0.649168 -0.903508 -0.0136589  -0.555705 -0.943837 -0.00851339  -0.673264 -0.947998 -0.0127038  -0.646995 -0.902847 -0.0154026  -0.625003 -0.968457 -0.0108833  -0.622992 -0.967821 -0.0122551  -0.601227 -1.03431 -0.0084129  -0.649021 -1.01389 -0.0101146  -0.647129 -1.0133 -0.011401  -0.599364 -1.03367 -0.0094738  -0.625164 -1.0806 -0.00778943  -0.650589 -1.01456 -0.00883055  -0.674682 -1.06037 -0.0081951  -0.699031 -0.993714 -0.0103195  -0.697513 -0.992994 -0.0118163  -0.602779 -1.03503 -0.00736082  -0.72191 -1.03844 -0.0109544  -0.695605 -0.992466 -0.013307  -0.673209 -1.05975 -0.0093776  -0.67145 -1.05923 -0.0105404  -0.64927 -1.12725 -0.00721031  -0.697541 -1.10602 -0.00868583  -0.69589 -1.10554 -0.00977343  -0.647643 -1.12673 -0.00810361  -0.673543 -1.17427 -0.00665873  -0.698912 -1.10657 -0.0076074  -0.723298 -1.15318 -0.00703639  -0.747751 -1.08494 -0.0088976  -0.746426 -1.08433 -0.0101577  -0.650628 -1.12786 -0.00632948  -0.771071 -1.13062 -0.00938684  -0.744759 -1.08392 -0.011417  -0.722018 -1.15266 -0.00802827  -0.720489 -1.15225 -0.00900239  -0.697952 -1.22161 -0.00614566  -0.746612 -1.19966 -0.00741225  -0.745178 -1.19928 -0.00831896  -0.696538 -1.22119 -0.00688815  -0.7225 -1.26925 -0.00565392  -0.747799 -1.20012 -0.00651318  -0.77243 -1.24742 -0.00600702  -0.796954 -1.1778 -0.00762111  -0.795811 -1.17729 -0.0086726  -0.699128 -1.22211 -0.00541615  -0.820655 -1.22431 -0.00798339  -0.794367 -1.17697 -0.0097301  -0.771326 -1.24699 -0.00682598  -0.770009 -1.24667 -0.00763041  -0.747153 -1.31717 -0.00519794  -0.796129 -1.29462 -0.00627738  -0.7949 -1.29433 -0.0070225  -0.745938 -1.31684 -0.00580376  -0.771918 -1.36536 -0.00476658  -0.797148 -1.295 -0.00554144  -0.82197 -1.34289 -0.0050934  -0.846555 -1.27209 -0.00648153  -0.845573 -1.27167 -0.00734586  -0.748164 -1.31759 -0.00460827  -0.870574 -1.31933 -0.00673217  -0.844335 -1.27143 -0.00821686  -0.821028 -1.34253 -0.00575894  -0.819904 -1.34229 -0.0064103  -0.796763 -1.41377 -0.0043627  -0.845985 -1.39071 -0.00527155  -0.844944 -1.39048 -0.00587255  -0.795734 -1.41351 -0.00484955  -0.821693 -1.46241 -0.00398737  -0.846849 -1.39101 -0.00468266  -0.871814 -1.43941 -0.0042876  -0.896443 -1.36762 -0.00547451  -0.895618 -1.36727 -0.00616759  -0.79762 -1.41412 -0.00389701  -0.920725 -1.41548 -0.00562912  -0.894569 -1.3671 -0.00687176  -0.871019 -1.43912 -0.00481749  -0.870071 -1.43894 -0.00532883  -0.846674 -1.51124 -0.00363803  -0.896088 -1.48775 -0.00439143  -0.895213 -1.48759 -0.00486529  -0.84581 -1.51105 -0.00401586  -0.871714 -1.56025 -0.00331199  -0.896812 -1.48799 -0.00393063  -0.921871 -1.53681 -0.00358605  -0.946549 -1.4642 -0.00458962  -0.94586 -1.46392 -0.00513363  -0.847391 -1.51152 -0.00327808  -0.971029 -1.51257 -0.00466043  -0.944974 -1.46381 -0.00568557  -0.921208 -1.53657 -0.00399548  -0.920419 -1.53645 -0.00439167  -0.896788 -1.60941 -0.00301516  -0.946344 -1.58558 -0.0036307  -0.945622 -1.58547 -0.0039897  -0.896072 -1.60927 -0.00330001  -0.921896 -1.65872 -0.00273824  -0.94694 -1.58577 -0.00328112  -0.97205 -1.63493 -0.00298738  -0.996767 -1.56166 -0.00382268  -0.996204 -1.56143 -0.00423294  -0.897378 -1.60965 -0.00274485  -1.0214 -1.61046 -0.00382185  -0.995471 -1.56137 -0.00464952  -0.971508 -1.63474 -0.00329  -0.970867 -1.63466 -0.00358248  -0.947013 -1.70816 -0.00248474  -0.996667 -1.68405 -0.00297838  -0.99609 -1.68397 -0.0032407  -0.946433 -1.70806 -0.00269276  -0.972148 -1.7577 -0.00225979  -0.997147 -1.6842 -0.00272846  -1.02227 -1.73363 -0.00248033  -1.04703 -1.65984 -0.00315702  -1.04658 -1.65966 -0.00345165  -0.947491 -1.70835 -0.00229985  -1.07177 -1.709 -0.00310946  -1.046 -1.65964 -0.00375938  -1.02184 -1.73348 -0.00269532  -1.02133 -1.73343 -0.0028944  -0.997268 -1.80733 -0.00205606  -1.04699 -1.78302 -0.00243783  -1.04653 -1.78297 -0.00261706  -0.996813 -1.80727 -0.00219357  -1.02239 -1.85705 -0.00187343  -1.04737 -1.78314 -0.00226974  -1.07247 -1.83278 -0.0020687  -1.09727 -1.75861 -0.00260788  -1.09692 -1.75846 -0.00280583  -0.997643 -1.80749 -0.00193489  -1.12206 -1.80802 -0.00252497  -1.09646 -1.75846 -0.00301522  -1.07213 -1.83265 -0.00220925  -1.07174 -1.83263 -0.00233561  -1.04748 -1.90682 -0.00171381  -1.09724 -1.88236 -0.00200379  -1.09689 -1.88234 -0.00211465  -1.04713 -1.90678 -0.00179672  -1.07256 -1.95665 -0.00157559  -1.09752 -1.88246 -0.00189984  -1.12257 -1.93224 -0.0017429  -1.14743 -1.8578 -0.00215906  -1.14716 -1.85768 -0.0022738  -1.04777 -1.90695 -0.00164586  -1.17224 -1.90742 -0.00204664  -1.14681 -1.8577 -0.00240451  -1.12233 -1.93214 -0.00182354  -1.12204 -1.93214 -0.00188798  -1.0976 -2.00651 -0.00145972  -1.14736 -1.98196 -0.00166851  -1.14711 -1.98195 -0.00172246  -1.09735 -2.00649 -0.00149924  -1.1226 -2.05641 -0.00136411  -1.14757 -1.98204 -0.00162423  -1.17255 -2.03191 -0.00150937  -1.19744 -1.95732 -0.00181228  -1.19726 -1.95722 -0.00185996  -1.0978 -2.00662 -0.00143892  -1.22225 -2.00706 -0.00169784  -1.19701 -1.95725 -0.00192434  -1.17237 -2.03182 -0.00153869  -1.17217 -2.03183 -0.00155538  -1.14756 -2.1063 -0.00128937  -1.19732 -2.0817 -0.00143474  -1.19716 -2.08169 -0.00144988  -1.14739 -2.10629 -0.00129783  -1.17248 -2.15621 -0.00123769  -1.19745 -2.08177 -0.00142932  -1.22235 -2.13168 -0.00136203  -1.24729 -2.05702 -0.00156343  -1.24717 -2.05694 -0.00156194  -1.1477 -2.1064 -0.00130296  -1.27206 -2.10684 -0.00145668  -1.247 -2.05698 -0.00157678  -1.22223 -2.1316 -0.0013572  -1.22211 -2.1316 -0.00133514  -1.19734 -2.20611 -0.00120497  -1.24707 -2.18149 -0.00130206  -1.24698 -2.18147 -0.00128597  -1.19723 -2.20609 -0.00119251  -1.22215 -2.25599 -0.00119734  -1.24715 -2.18155 -0.00132346  -1.27194 -2.23145 -0.00129461  -1.29693 -2.15682 -0.00141674  -1.29687 -2.15675 -0.00137961  -1.19742 -2.2062 -0.00123388  -1.32165 -2.20665 -0.00133079  -1.29677 -2.15678 -0.00135857  -1.27188 -2.23137 -0.0012747  -1.27182 -2.23137 -0.00123203  -1.2469 -2.30583 -0.00119942  -1.29661 -2.28123 -0.001261  -1.29657 -2.2812 -0.00123417  -1.24685 -2.30581 -0.00117987  -1.27161 -2.35565 -0.00122237  -1.29665 -2.28129 -0.00129956  -1.32134 -2.33114 -0.00130761  -1.34638 -2.25661 -0.00136483  -1.34635 -2.25654 -0.00131088  -1.24695 -2.30592 -0.00123924  -1.37102 -2.30641 -0.00131524  -1.34629 -2.25656 -0.00126892  -1.3213 -2.33106 -0.00127727  -1.32128 -2.33105 -0.00122637  -1.29624 -2.40542 -0.00125164  -1.34593 -2.38085 -0.00129765  -1.34591 -2.38081 -0.00126594  -1.29622 -2.4054 -0.00123048  -1.32085 -2.45516 -0.00129348  -1.34595 -2.38091 -0.00133657  -1.37055 -2.43068 -0.00136745  -1.39563 -2.3563 -0.00138968  -1.39561 -2.35623 -0.00133783  -1.29627 -2.40551 -0.00129026  -1.4202 -2.40601 -0.00138432  -1.39558 -2.35622 -0.00130552  -1.37053 -2.4306 -0.00134391  -1.37052 -2.43057 -0.00130486  -1.34539 -2.50484 -0.00132763  -1.39507 -2.4803 -0.00137758  -1.39506 -2.48025 -0.00135249  -1.34537 -2.5048 -0.00130612  -1.36993 -2.55448 -0.00136036  -1.3951 -2.48036 -0.00140756  -1.41965 -2.53004 -0.00143486  -1.44477 -2.45581 -0.00146151  -1.44475 -2.45573 -0.00142401  -1.34541 -2.50493 -0.00136137  -1.46929 -2.50542 -0.00146425  -1.44471 -2.4557 -0.00139964  -1.41962 -2.52996 -0.0014174  -1.4196 -2.52991 -0.00138569  0 0 0  -0.00413612 0.00192007 -0.0103118  -0.00504405 0.00125051 -0.0126551  -0.0137634 0.0047175 -0.0198677  -0.00926376 0.00525349 -0.0153375  -0.0107858 -0.00191784 -0.0188339  -0.00467292 -0.00124393 -0.00997913  -0.0130661 -0.00740761 -0.0195198  0 0 0  0 0 0  -0.00335297 -0.00023371 -0.00771862  0 0 0  -0.0160011 -0.00312142 -0.0243002  -0.0226839 0.00285017 -0.0286301  -0.017489 -0.0106797 -0.0239424  -0.025718 -0.0118123 -0.030649  -0.0296779 -0.00477673 -0.0341038  -0.0201755 -0.00414811 -0.0269074  -0.0246471 -0.023193 -0.0269461  -0.0232315 -0.017162 -0.0253605  -0.0340702 -0.029966 -0.0288799  -0.0161492 -0.0154918 -0.0198592  -0.0353375 -0.0238374 -0.0342835  -0.0369342 -0.0160207 -0.038055  -0.0319742 -0.0388417 -0.0282571  -0.0452725 -0.0389219 -0.0358588  -0.0447571 -0.0310951 -0.0391021  -0.0311481 -0.0314506 -0.0308216  -0.0400014 -0.0574709 -0.0286525  -0.0453638 -0.0452812 -0.03109  -0.0568255 -0.0633433 -0.0315313  -0.0324034 -0.0447157 -0.0245376  -0.0555046 -0.0568892 -0.0363035  -0.0534227 -0.0491522 -0.0399045  -0.0486517 -0.0787134 -0.0282997  -0.0665161 -0.0774583 -0.035812  -0.0632432 -0.0701579 -0.0391266  -0.0455991 -0.0716513 -0.0308228  -0.0581775 -0.102338 -0.0275787  -0.0687184 -0.0836783 -0.0315186  -0.0811024 -0.10637 -0.030639  -0.0507505 -0.0846216 -0.0249923  -0.078181 -0.100426 -0.0348688  -0.0741175 -0.0936085 -0.0383514  -0.0685368 -0.128078 -0.0265016  -0.0907303 -0.125447 -0.0334928  -0.0861068 -0.119173 -0.0368029  -0.0643402 -0.121847 -0.0290041  -0.0798162 -0.155722 -0.0252934  -0.0941154 -0.130983 -0.0295804  -0.107757 -0.157517 -0.0281593  -0.0716522 -0.133484 -0.0235013  -0.104044 -0.15237 -0.0319539  -0.0991466 -0.146671 -0.0352874  -0.091944 -0.185029 -0.0239508  -0.118152 -0.180901 -0.0302681  -0.113073 -0.1757 -0.0334723  -0.0873179 -0.179739 -0.0263792  -0.10493 -0.215881 -0.0225857  -0.122046 -0.185618 -0.0267016  -0.136963 -0.215292 -0.0251415  -0.0955387 -0.189749 -0.0212118  -0.132983 -0.210951 -0.0285549  -0.127925 -0.206273 -0.0316919  -0.118691 -0.248071 -0.0212128  -0.148478 -0.242312 -0.0268532  -0.143446 -0.238044 -0.0298757  -0.114059 -0.243647 -0.0235096  -0.133213 -0.281547 -0.0198665  -0.152466 -0.246264 -0.0236201  -0.168551 -0.278565 -0.0221173  -0.122405 -0.2521 -0.0187286  -0.16461 -0.274935 -0.0251842  -0.159741 -0.271094 -0.0280861  -0.148415 -0.316148 -0.0185786  -0.181301 -0.308684 -0.0235984  -0.17656 -0.305161 -0.0263887  -0.144 -0.312447 -0.0207001  -0.164285 -0.35185 -0.0173376  -0.185156 -0.311984 -0.0206897  -0.202297 -0.346559 -0.0193287  -0.152035 -0.319563 -0.0163457  -0.198555 -0.34352 -0.0220726  -0.194031 -0.340335 -0.0247111  -0.180755 -0.388532 -0.0161828  -0.216295 -0.379351 -0.020654  -0.211937 -0.376419 -0.0231851  -0.176659 -0.385423 -0.0181056  -0.197823 -0.426183 -0.0150757  -0.219907 -0.382119 -0.0180543  -0.238011 -0.418709 -0.0168529  -0.184169 -0.391426 -0.0141929  -0.23454 -0.416151 -0.0192938  -0.230411 -0.413486 -0.0216686  -0.215425 -0.4647 -0.0140608  -0.253226 -0.453845 -0.0180483  -0.249267 -0.45138 -0.0203147  -0.211678 -0.462071 -0.0157781  -0.233568 -0.504081 -0.0130888  -0.256548 -0.456179 -0.0157397  -0.275547 -0.494575 -0.0146924  -0.218581 -0.467163 -0.0123038  -0.272373 -0.492409 -0.0168523  -0.268635 -0.49016 -0.0189644  -0.252198 -0.544236 -0.0122044  -0.291925 -0.531782 -0.0157619  -0.288354 -0.529695 -0.0177732  -0.248799 -0.542002 -0.0137193  -0.271321 -0.585163 -0.0113518  -0.294948 -0.53376 -0.013726  -0.314785 -0.57378 -0.0128109  -0.255081 -0.54634 -0.0106649  -0.311906 -0.571938 -0.0147113  -0.30854 -0.570032 -0.0165747  -0.29089 -0.626784 -0.0105789  -0.33226 -0.612824 -0.0137529  -0.329049 -0.611053 -0.0155223  -0.287822 -0.624879 -0.0119025  -0.310908 -0.669092 -0.00983512  -0.334992 -0.614507 -0.01197  -0.355605 -0.655988 -0.0111689  -0.293503 -0.628587 -0.00924206  -0.353011 -0.654415 -0.0128297  -0.349988 -0.652795 -0.0144612  -0.331331 -0.712019 -0.00915849  -0.374105 -0.696659 -0.0119858  -0.371228 -0.695153 -0.013531  -0.328572 -0.71039 -0.0103064  -0.352166 -0.755556 -0.00850761  -0.376559 -0.698097 -0.0104331  -0.397893 -0.740881 -0.00972933  -0.333686 -0.713568 -0.00800687  -0.395565 -0.739536 -0.011171  -0.392861 -0.73816 -0.012588  -0.373368 -0.799642 -0.00791454  -0.417338 -0.782998 -0.0104233  -0.414767 -0.781718 -0.0117645  -0.370899 -0.79825 -0.00890368  -0.394943 -0.844264 -0.00734055  -0.419536 -0.784223 -0.00908208  -0.441524 -0.82817 -0.00845784  -0.375478 -0.800973 -0.00692767  -0.439446 -0.827019 -0.00970185  -0.437034 -0.825855 -0.0109225  -0.416847 -0.889374 -0.00681818  -0.461834 -0.871561 -0.00904  -0.459547 -0.870477 -0.0101936  -0.414642 -0.888191 -0.00765878  -0.439081 -0.934955 -0.00631231  -0.463791 -0.872606 -0.00788838  -0.486373 -0.917582 -0.00733501  -0.418726 -0.890518 -0.00598156  -0.484524 -0.916599 -0.00839853  -0.482385 -0.915617 -0.00944299  -0.461607 -0.980962 -0.00585264  -0.507463 -0.962095 -0.00780994  -0.505439 -0.961182 -0.00879258  -0.459657 -0.979961 -0.00656331  -0.484429 -1.02738 -0.0054068  -0.509197 -0.962983 -0.00682974  -0.532303 -1.00886 -0.00633591  -0.463275 -0.981944 -0.00515169  -0.530669 -1.00803 -0.00723869  -0.528779 -1.0072 -0.00812167  -0.507502 -1.07417 -0.00500035  -0.55409 -1.05436 -0.0067144  -0.552308 -1.05359 -0.00754541  -0.505782 -1.07332 -0.00559402  -0.530831 -1.12131 -0.00460833  -0.555617 -1.05511 -0.00588894  -0.57918 -1.10178 -0.00544983  -0.50897 -1.07501 -0.00441968  -0.577746 -1.10107 -0.00620627  -0.576089 -1.10038 -0.00694561  -0.554376 -1.16877 -0.00424856  -0.60158 -1.14813 -0.00573844  -0.600021 -1.14749 -0.00642967  -0.55287 -1.16806 -0.00473499  -0.578139 -1.21654 -0.00390512  -0.602918 -1.14876 -0.00505459  -0.626869 -1.19612 -0.00466526  -0.55566 -1.16949 -0.00377685  -0.625617 -1.19552 -0.00528735  -0.624176 -1.19495 -0.00589752  -0.602082 -1.26458 -0.00359058  -0.649805 -1.24321 -0.00487769  -0.648453 -1.24268 -0.00544763  -0.600777 -1.26399 -0.0039829  -0.626209 -1.31288 -0.00329101  -0.650961 -1.24374 -0.00431603  -0.67524 -1.29168 -0.00397408  -0.603193 -1.26519 -0.0032149  -0.674162 -1.29117 -0.00448096  -0.672915 -1.29071 -0.00497198  -0.65048 -1.3614 -0.00301999  -0.698632 -1.3394 -0.00411767  -0.69747 -1.33896 -0.00457621  -0.64936 -1.36092 -0.00333083  -0.674903 -1.41015 -0.00276214  -0.699624 -1.33984 -0.00366688  -0.724164 -1.38828 -0.00336897  -0.651435 -1.36192 -0.00272638  -0.723241 -1.38785 -0.00377095  -0.722183 -1.38748 -0.00416076  -0.699435 -1.45908 -0.00252843  -0.747937 -1.43653 -0.00345552  -0.746952 -1.43618 -0.00381738  -0.698484 -1.45868 -0.00276345  -0.724088 -1.50819 -0.00230807  -0.748783 -1.43689 -0.0031023  -0.773524 -1.48575 -0.00284475  -0.700246 -1.45951 -0.00230932  -0.772746 -1.48539 -0.00315607  -0.77185 -1.48509 -0.00345153  -0.74882 -1.55744 -0.00210983  -0.797607 -1.53444 -0.00288403  -0.796783 -1.53416 -0.00316083  -0.748022 -1.55712 -0.0022819  -0.773643 -1.60685 -0.00192499  -0.798318 -1.53474 -0.00261629  -0.823205 -1.58393 -0.00239199  -0.749498 -1.55781 -0.00195235  -0.822554 -1.58364 -0.00262612  -0.821812 -1.5834 -0.00284696  -0.79852 -1.65636 -0.00175899  -0.847532 -1.63298 -0.00239575  -0.846852 -1.63275 -0.00259799  -0.797861 -1.6561 -0.00187862  -0.823457 -1.70599 -0.00161088  -0.848118 -1.63322 -0.00220501  -0.873104 -1.68268 -0.00201797  -0.799076 -1.65667 -0.0016585  -0.87257 -1.68244 -0.00218362  -0.871966 -1.68226 -0.00233376  -0.848425 -1.75571 -0.00147873  -0.897619 -1.73201 -0.00199163  -0.897073 -1.73183 -0.00213277  -0.847896 -1.7555 -0.00155205  -0.873433 -1.8055 -0.00136173  -0.898092 -1.73221 -0.00186032  -0.923129 -1.78188 -0.00171143  -0.848875 -1.75597 -0.00142395  -0.922702 -1.78168 -0.00181925  -0.922222 -1.78154 -0.00191242  -0.898443 -1.85535 -0.00126058  -0.947773 -1.83142 -0.00166738  -0.947341 -1.83128 -0.00175261  -0.898025 -1.85519 -0.00129485  -0.923474 -1.90526 -0.00117344  -0.948144 -1.83158 -0.00159109  -0.973192 -1.88139 -0.00147372  -0.898795 -1.85557 -0.00124222  -0.97286 -1.88122 -0.00153327  -0.972491 -1.88112 -0.00158077  -0.94849 -1.9552 -0.00110835  -0.997916 -1.93107 -0.00141925  -0.99759 -1.93097 -0.00146294  -0.948173 -1.95508 -0.0011133  -0.973505 -2.00517 -0.00105375  -0.998201 -1.93121 -0.00138575  -1.02322 -1.98111 -0.0012989  -0.948753 -1.95538 -0.00111818  -1.02297 -1.98097 -0.00132239  -1.0227 -1.98089 -0.00133181  -0.998489 -2.05514 -0.00101352  -1.04799 -2.03089 -0.00124514  -1.04775 -2.0308 -0.001257  -0.998262 -2.05505 -0.00100404  -1.02346 -2.10513 -0.000987053  -1.04819 -2.031 -0.00124073  -1.07317 -2.08094 -0.00118726  -0.99868 -2.0553 -0.00104433  -1.07299 -2.08082 -0.00118482  -1.0728 -2.08076 -0.00116485  -1.04838 -2.1551 -0.000974  -1.09793 -2.13075 -0.00114232  -1.09777 -2.13068 -0.00112855  -1.04823 -2.15503 -0.00095129  -1.07329 -2.20507 -0.000977457  -1.09807 -2.13085 -0.00115907  -1.12297 -2.18079 -0.00113583  -1.04852 -2.15524 -0.00101697  -1.12285 -2.18068 -0.00111717  -1.12273 -2.18063 -0.00107878  -1.09813 -2.255 -0.000990391  -1.1477 -2.23059 -0.00110596  -1.14761 -2.23053 -0.00108284  -1.09803 -2.25493 -0.000960767  -1.12294 -2.30491 -0.00102168  -1.14779 -2.23068 -0.00113827  -1.1726 -2.28058 -0.00114274  -1.09821 -2.25513 -0.0010407  -1.17252 -2.28048 -0.0011152  -1.17246 -2.28044 -0.0010736  -1.14768 -2.35478 -0.00105602  -1.19727 -2.33034 -0.00113553  -1.19722 -2.33027 -0.00110692  -1.14763 -2.35472 -0.00102657  -1.17238 -2.4046 -0.001104  -1.19732 -2.33041 -0.00116962  -1.22202 -2.38025 -0.00119621  -1.14772 -2.35489 -0.00110394  -1.22198 -2.38015 -0.00117022  -1.22195 -2.38011 -0.00112367  -1.19701 -2.45438 -0.00115091  -1.24661 -2.42993 -0.00120413  -1.2466 -2.42987 -0.00117213  -1.19699 -2.45433 -0.00112903  -1.2216 -2.5041 -0.00120455  -1.24664 -2.43 -0.00123841  -1.27124 -2.47974 -0.00126994  -1.19703 -2.45449 -0.00119144  -1.27122 -2.47965 -0.00124902  -1.27121 -2.47961 -0.00121027  -1.24612 -2.55376 -0.00124449  -1.29575 -2.52932 -0.00128555  -1.29574 -2.52926 -0.00125813  -1.24611 -2.55372 -0.0012213  -1.27061 -2.60335 -0.00128633  -1.29577 -2.52939 -0.00131583  -1.3203 -2.57903 -0.00135016  -1.24613 -2.55387 -0.0012846  -1.32027 -2.57893 -0.00132704  -1.32025 -2.57889 -0.00127709  0 0 0  -0.00120106 0.00153375 -0.00463402  -0.0021272 0.00202078 -0.00697786  -0.00641415 0.00508612 -0.011025  -0.0030205 0.00443143 -0.00659829  -0.00288905 -0.00280979 -0.00848562  -0.00201024 -7.83503e-05 -0.00565356  -0.00551287 -0.00547406 -0.011232  0 0 0  0 0 0  -0.000927567 -0.000377268 -0.00352585  0 0 0  -0.00687009 -0.00196016 -0.013726  -0.00995914 0.00331962 -0.0159018  -0.00460242 -0.0119721 -0.0110837  -0.0108822 -0.0108134 -0.0174959  -0.0125074 -0.00456268 -0.0192016  -0.00521551 -0.00600889 -0.0121273  -0.0067946 -0.0251095 -0.0127738  -0.00984003 -0.0153032 -0.0146935  -0.0149609 -0.0288228 -0.0169266  -0.00445893 -0.0161487 -0.00943416  -0.015231 -0.0235927 -0.0197899  -0.015468 -0.0166202 -0.0215892  -0.00936562 -0.0417211 -0.013597  -0.0202435 -0.0398046 -0.0208486  -0.0191751 -0.0326506 -0.0223238  -0.00802451 -0.0348176 -0.0143926  -0.0127649 -0.0613868 -0.013934  -0.0208358 -0.0453463 -0.0183352  -0.0272144 -0.0647205 -0.0186697  -0.0103062 -0.0469915 -0.0120681  -0.0258137 -0.0589629 -0.0212156  -0.0237464 -0.0517901 -0.0229216  -0.0169437 -0.0837349 -0.013843  -0.0322891 -0.0808069 -0.0209935  -0.0294164 -0.0738619 -0.0225471  -0.0142057 -0.0769345 -0.0146462  -0.0221113 -0.108503 -0.0135192  -0.0343017 -0.0864802 -0.0187231  -0.0421144 -0.110594 -0.0182149  -0.0189424 -0.0892343 -0.0124879  -0.039568 -0.105027 -0.0204778  -0.0361425 -0.0984079 -0.0221791  -0.0282538 -0.135421 -0.0129896  -0.0478446 -0.13139 -0.019682  -0.0439944 -0.125147 -0.0213041  -0.0247199 -0.129213 -0.0138368  -0.0354527 -0.164304 -0.0123547  -0.0507531 -0.136687 -0.0175925  -0.0602443 -0.164723 -0.0167221  -0.0309694 -0.140648 -0.0117611  -0.0570551 -0.159684 -0.0187683  -0.0529811 -0.153886 -0.0204515  -0.0436726 -0.194916 -0.0116354  -0.0672396 -0.189674 -0.0177498  -0.0629913 -0.184277 -0.0193732  -0.0397897 -0.189461 -0.0125028  -0.0529318 -0.227136 -0.0108861  -0.0705953 -0.19438 -0.0158263  -0.0818133 -0.225651 -0.0148472  -0.0467718 -0.199638 -0.0105175  -0.0783585 -0.221243 -0.0166991  -0.074097 -0.216291 -0.0183158  -0.0631644 -0.26076 -0.010126  -0.0903642 -0.254181 -0.0156429  -0.086085 -0.249593 -0.017204  -0.0592285 -0.256056 -0.0109673  -0.0743643 -0.295721 -0.00937009  -0.0938502 -0.258256 -0.0138929  -0.106708 -0.292223 -0.0129344  -0.0663862 -0.264912 -0.00911778  -0.103238 -0.28843 -0.014596  -0.099066 -0.284235 -0.0161045  -0.0864524 -0.331844 -0.00864923  -0.116897 -0.32382 -0.0135996  -0.112789 -0.319933 -0.0150521  -0.0826457 -0.327816 -0.00943291  -0.0994182 -0.369097 -0.00794667  -0.120313 -0.327312 -0.0120296  -0.134674 -0.363572 -0.0111554  -0.089627 -0.335448 -0.00775671  -0.131337 -0.360324 -0.0126299  -0.127395 -0.356768 -0.014003  -0.11318 -0.407337 -0.00729936  -0.146469 -0.39781 -0.0117357  -0.142635 -0.394508 -0.0130497  -0.109596 -0.403887 -0.00799781  -0.127734 -0.446549 -0.00667518  -0.149707 -0.400795 -0.0103455  -0.165432 -0.439042 -0.00957501  -0.116207 -0.41045 -0.00652784  -0.162305 -0.43626 -0.0108708  -0.158655 -0.433235 -0.0120943  -0.142999 -0.486611 -0.00611591  -0.178758 -0.475569 -0.0100891  -0.175232 -0.472755 -0.0112556  -0.139682 -0.483649 -0.00672382  -0.158978 -0.527518 -0.005575  -0.181763 -0.478127 -0.00887167  -0.198731 -0.518118 -0.00820529  -0.145825 -0.4893 -0.00545889  -0.195844 -0.515729 -0.00933236  -0.192504 -0.513141 -0.0104052  -0.175598 -0.569167 -0.00509781  -0.213487 -0.556647 -0.00865465  -0.210275 -0.554235 -0.00967616  -0.17256 -0.566616 -0.00561315  -0.192863 -0.611555 -0.00463706  -0.216245 -0.558844 -0.00760126  -0.234341 -0.600372 -0.00702721  -0.1782 -0.571495 -0.00455099  -0.231706 -0.598315 -0.00799853  -0.228674 -0.596095 -0.00892758  -0.210704 -0.65459 -0.00423282  -0.250427 -0.640657 -0.00741237  -0.247521 -0.638585 -0.00829345  -0.207945 -0.652392 -0.00465959  -0.229127 -0.698273 -0.00383967  -0.252934 -0.642547 -0.00650972  -0.27206 -0.685435 -0.006015  -0.213075 -0.656608 -0.00378478  -0.269672 -0.68366 -0.00684404  -0.266933 -0.681751 -0.00763881  -0.248069 -0.742522 -0.00349981  -0.289371 -0.727257 -0.00633734  -0.286752 -0.725476 -0.00708938  -0.245576 -0.740622 -0.00384587  -0.267537 -0.787334 -0.00316978  -0.291633 -0.728888 -0.00557315  -0.311692 -0.772972 -0.00514388  -0.250214 -0.744273 -0.00314307  -0.309544 -0.77144 -0.005844  -0.307083 -0.769795 -0.00651491  -0.287468 -0.832643 -0.00288212  -0.330123 -0.816143 -0.00540572  -0.327777 -0.814606 -0.00604141  -0.285227 -0.830999 -0.00315696  -0.30787 -0.878437 -0.00260437  -0.332155 -0.817549 -0.0047645  -0.353056 -0.862682 -0.00439495  -0.289396 -0.834164 -0.00260448  -0.351133 -0.861356 -0.00497991  -0.348931 -0.859944 -0.00554031  -0.328685 -0.924663 -0.0023613  -0.372504 -0.90703 -0.00460005  -0.37041 -0.905709 -0.0051282  -0.326682 -0.923244 -0.00257045  -0.349918 -0.971309 -0.00212753  -0.374315 -0.908242 -0.00406784  -0.39597 -0.954291 -0.00374508  -0.330406 -0.925983 -0.00215286  -0.394257 -0.953148 -0.00422812  -0.3923 -0.951938 -0.00468916  -0.371514 -1.01832 -0.00192422  -0.416329 -0.999662 -0.00389844  -0.414471 -0.99853 -0.00433356  -0.369737 -1.0171 -0.00207651  -0.393479 -1.0657 -0.00172597  -0.417937 -1.00071 -0.00346291  -0.440255 -1.04755 -0.00318271  -0.373044 -1.01947 -0.0017764  -0.43874 -1.04656 -0.00357461  -0.437008 -1.04553 -0.0039444  -0.415759 -1.11339 -0.00155705  -0.461426 -1.0938 -0.00328994  -0.45979 -1.09284 -0.00364023  -0.414192 -1.11234 -0.00165963  -0.438364 -1.16139 -0.00139165  -0.462844 -1.0947 -0.00294185  -0.485742 -1.14223 -0.00269926  -0.41711 -1.11438 -0.00146127  -0.484409 -1.14138 -0.00300843  -0.482892 -1.1405 -0.00330019  -0.461238 -1.20965 -0.00125211  -0.507625 -1.18924 -0.00275964  -0.506193 -1.18842 -0.00303543  -0.459868 -1.20875 -0.00131273  -0.484386 -1.25817 -0.00111645  -0.508865 -1.19001 -0.00248945  -0.532258 -1.23812 -0.00227869  -0.462415 -1.21051 -0.00120026  -0.531096 -1.23739 -0.00251895  -0.529777 -1.23664 -0.00274241  -0.507764 -1.30692 -0.00100392  -0.554763 -1.28578 -0.00230807  -0.553523 -1.28508 -0.00251746  -0.506577 -1.30615 -0.00103003  -0.531374 -1.35587 -0.000894964  -0.55584 -1.28643 -0.00210357  -0.579652 -1.33503 -0.0019241  -0.508785 -1.30766 -0.00099045  -0.578646 -1.33441 -0.00209993  -0.577509 -1.33378 -0.00226212  -0.555173 -1.40501 -0.000805736  -0.602686 -1.38324 -0.00192136  -0.601625 -1.38265 -0.00207329  -0.554155 -1.40436 -0.000802755  -0.579166 -1.45432 -0.000721157  -0.603609 -1.3838 -0.0017761  -0.627765 -1.4328 -0.00162655  -0.556045 -1.40565 -0.000821054  -0.626907 -1.43227 -0.00174975  -0.625938 -1.43174 -0.00185829  -0.603302 -1.50377 -0.000651002  -0.651248 -1.48146 -0.00159955  -0.650348 -1.48097 -0.00170302  -0.602443 -1.50323 -0.00062871  -0.627599 -1.55337 -0.000589132  -0.652031 -1.48193 -0.00150168  -0.676458 -1.53126 -0.00137728  -0.604042 -1.50432 -0.000693917  -0.675736 -1.53081 -0.00145632  -0.674922 -1.53037 -0.00152028  -0.652009 -1.60307 -0.000541151  -0.700308 -1.58029 -0.00133342  -0.699559 -1.57988 -0.00139707  -0.651292 -1.60261 -0.000493765  -0.676538 -1.65288 -0.000499964  -0.700964 -1.58069 -0.00127929  -0.7256 -1.63028 -0.00117767  -0.652624 -1.60354 -0.000603557  -0.724998 -1.62989 -0.00121921  -0.724326 -1.62953 -0.00124609  -0.701152 -1.70276 -0.000469506  -0.749745 -1.6796 -0.00112063  -0.74913 -1.67926 -0.00114924  -0.700563 -1.70238 -0.000409544  -0.725856 -1.75273 -0.000446379  -0.750283 -1.67993 -0.00110149  -0.775068 -1.72971 -0.0010252  -0.701653 -1.70316 -0.00054425  -0.774577 -1.72939 -0.00103605  -0.774034 -1.7291 -0.00103426  -0.750612 -1.80274 -0.000434577  -0.799443 -1.77926 -0.00096637  -0.79895 -1.77898 -0.000967145  -0.75014 -1.80243 -0.000362992  -0.775429 -1.85281 -0.000432253  -0.799874 -1.77953 -0.000973821  -0.824759 -1.82946 -0.000917912  -0.751014 -1.80308 -0.000524044  -0.824365 -1.82918 -0.000905335  -0.823938 -1.82895 -0.000877023  -0.800272 -1.9029 -0.000432849  -0.849294 -1.87916 -0.000855207  -0.848908 -1.87893 -0.000832856  -0.799907 -1.90265 -0.000361681  -0.825157 -1.95302 -0.00044626  -0.849633 -1.87939 -0.000885963  -0.874563 -1.9294 -0.00084877  -0.800585 -1.90319 -0.000526488  -0.87426 -1.92917 -0.000816643  -0.873933 -1.92898 -0.000771582  -0.850042 -2.00314 -0.000469208  -0.89921 -1.9792 -0.000795186  -0.898924 -1.97901 -0.00075829  -0.849769 -2.00294 -0.000391543  -0.874944 -2.05328 -0.000498474  -0.899468 -1.97939 -0.000838161  -0.924406 -2.02944 -0.00082612  -0.850275 -2.00339 -0.000563383  -0.924181 -2.02925 -0.000783682  -0.923942 -2.0291 -0.000723958  -0.899834 -2.10339 -0.000535667  -0.94912 -2.07929 -0.000781894  -0.948913 -2.07914 -0.00073421  -0.899637 -2.10323 -0.000460505  -0.92472 -2.1535 -0.000576973  -0.949305 -2.07945 -0.000834882  -0.974218 -2.1295 -0.000838876  -0.899996 -2.1036 -0.000626445  -0.974056 -2.12933 -0.00078851  -0.973897 -2.12922 -0.000726938  -0.949573 -2.20357 -0.000627995  -0.998945 -2.17936 -0.000808179  -0.998808 -2.17923 -0.000760376  -0.949446 -2.20344 -0.000561655  -0.974412 -2.25362 -0.000688314  -0.999071 -2.1795 -0.000864327  -1.02393 -2.22951 -0.000886261  -0.94968 -2.20375 -0.000710726  -1.02382 -2.22936 -0.000837505  -1.02373 -2.22926 -0.00077188  -0.999204 -2.30362 -0.000752747  -1.04864 -2.27933 -0.000876069  -1.04856 -2.27922 -0.000831604  -0.999131 -2.30351 -0.000696242  -1.02397 -2.35358 -0.000826061  -1.04872 -2.27945 -0.000931621  -1.0735 -2.32939 -0.000973582  -0.999264 -2.30378 -0.000826716  -1.07344 -2.32926 -0.000929475  -1.07339 -2.32918 -0.000869811  -1.04868 -2.40349 -0.00089854  -1.09816 -2.37915 -0.000982702  -1.09813 -2.37906 -0.00093919  -1.04865 -2.4034 -0.00085789  -1.07335 -2.45335 -0.000979364  -1.0982 -2.37926 -0.0010277  -1.12289 -2.42911 -0.00107843  -1.0487 -2.40363 -0.000958562  -1.12286 -2.42899 -0.00104445  -1.12285 -2.42892 -0.000995755  -1.09796 -2.50314 -0.00105613  -1.14747 -2.47877 -0.00110334  -1.14747 -2.47869 -0.00107324  -1.09796 -2.50307 -0.00102782  -1.12252 -2.55287 -0.00113118  -1.14749 -2.47887 -0.00114149  -1.17206 -2.52861 -0.00119394  -1.09796 -2.50327 -0.00110024  -1.17205 -2.5285 -0.00117081  -1.17206 -2.52845 -0.00112832  -1.147 -2.6025 -0.001203  -1.19655 -2.57815 -0.00122321  -1.19656 -2.57808 -0.00119865  -1.14702 -2.60245 -0.00118405  -1.17142 -2.65206 -0.00127071  -1.19656 -2.57824 -0.00125486  -1.22103 -2.62783 -0.0013026  -1.14699 -2.60263 -0.00123823  -1.22101 -2.62771 -0.00127888  -1.221 -2.62767 -0.00123841  0 0 0  0.00128839 -0.000363737 0.000955343  0.000297926 0.000688225 -0.00145817  -0.000617288 0.00345516 -0.00235742  0.00201163 0.00213784 0.0018729  0.00377171 -0.00627398 0.00140017  0.000174828 -0.00106117 -0.00144744  0.000494108 -0.00734198 -0.00324363  0 0 0  0 0 0  0.00115458 -0.00204962 0.000611305  0 0 0  0.000413477 -0.00425622 -0.00355595  2.9251e-05 0.000535935 -0.00361699  0.00641444 -0.0166174 0.00111669  0.00091894 -0.0139304 -0.00495011  0.00107719 -0.00817671 -0.00489312  0.00741896 -0.0111025 0.00199097  0.00869161 -0.0307613 0.000689209  0.000736713 -0.0178844 -0.00444281  0.000509679 -0.0321589 -0.00540841  0.0055711 -0.0203483 0.000528216  0.00114891 -0.027499 -0.00596809  0.00197926 -0.0210213 -0.00591236  0.0105449 -0.0483721 0.000338376  0.000737756 -0.0446168 -0.00654805  0.0022524 -0.0378856 -0.00637376  0.0123094 -0.0418511 0.00125158  0.0115782 -0.0689544 0.000102818  -0.000378877 -0.0496759 -0.00609833  -0.00194207 -0.070044 -0.00633335  0.00913993 -0.0532371 -0.000169158  -0.000346124 -0.0647249 -0.00683594  0.00174415 -0.0578985 -0.00679833  0.0117287 -0.0922453 -1.53184e-05  -0.00239944 -0.0875633 -0.00685328  0.000202298 -0.0808533 -0.00675976  0.014239 -0.0856678 0.000833452  0.0108054 -0.117958 -2.38419e-05  -0.00437361 -0.0929083 -0.00645918  -0.00771323 -0.118133 -0.00628161  0.00974032 -0.0974646 -0.00050652  -0.00539365 -0.112814 -0.00670838  -0.00244039 -0.10633 -0.00673747  0.00877905 -0.145853 4.77433e-05  -0.00948864 -0.140243 -0.00641453  -0.00622511 -0.134034 -0.00642151  0.0117992 -0.139691 0.000802636  0.0055691 -0.175761 0.000185311  -0.0120562 -0.145391 -0.00605589  -0.0174333 -0.174629 -0.00567114  0.00634962 -0.15095 -0.000432849  -0.0146636 -0.169658 -0.0060401  -0.0112392 -0.163804 -0.00612688  0.00119323 -0.207452 0.000360906  -0.0209613 -0.200831 -0.00560254  -0.0173824 -0.195304 -0.00567883  0.00447333 -0.201899 0.00103015  -0.0043804 -0.240815 0.000568271  -0.0238565 -0.205541 -0.00527775  -0.0313423 -0.23812 -0.00481713  -0.00149596 -0.212174 -0.000106037  -0.0283609 -0.233645 -0.00513136  -0.0247623 -0.228501 -0.00524539  -0.0110946 -0.275644 0.000778019  -0.0368306 -0.267894 -0.00465572  -0.03319 -0.263067 -0.00476497  -0.00774896 -0.270742 0.00138152  -0.018953 -0.311868 0.00099951  -0.039844 -0.272084 -0.00437558  -0.0493697 -0.307454 -0.00391495  -0.0138812 -0.279894 0.000319421  -0.0463569 -0.303509 -0.00417244  -0.0427886 -0.299041 -0.00428647  -0.0278793 -0.349303 0.00119835  -0.0568641 -0.340309 -0.00372052  -0.053323 -0.33613 -0.00382465  -0.0246065 -0.345018 0.00175798  -0.037867 -0.387908 0.00139904  -0.0598429 -0.343982 -0.00349385  -0.07127 -0.381707 -0.0030756  -0.0306416 -0.353068 0.000742972  -0.0683449 -0.378259 -0.00327051  -0.0649257 -0.374397 -0.00335997  -0.0488299 -0.427525 0.00156343  -0.0807101 -0.417207 -0.0028711  -0.0773569 -0.413595 -0.00295109  -0.0457104 -0.423791 0.00209582  -0.0607611 -0.468127 0.00172579  -0.0835611 -0.420404 -0.00270331  -0.0967301 -0.460132 -0.00234383  -0.051483 -0.43083 0.00110722  -0.0939614 -0.457134 -0.00247794  -0.0907578 -0.453795 -0.00253075  -0.0735756 -0.509586 0.00184661  -0.108007 -0.497911 -0.00214022  -0.104893 -0.494785 -0.00218749  -0.07066 -0.506337 0.002361  -0.0872663 -0.551882 0.00196481  -0.11068 -0.500689 -0.00203323  -0.12543 -0.542139 -0.00173289  -0.0760723 -0.512482 0.00138694  -0.122854 -0.539529 -0.00180972  -0.119896 -0.536634 -0.00182372  -0.101751 -0.594904 0.00204134  -0.138414 -0.581879 -0.00153583  -0.135552 -0.579168 -0.00154459  -0.0990604 -0.592074 0.00254071  -0.117029 -0.638643 0.00211787  -0.140882 -0.584295 -0.00148445  -0.157065 -0.627229 -0.00124156  -0.104065 -0.59744 0.00158119  -0.1547 -0.624955 -0.0012666  -0.151991 -0.622444 -0.00124055  -0.13302 -0.683 0.00215816  -0.171624 -0.668664 -0.00104737  -0.169015 -0.66631 -0.00101757  -0.130558 -0.680531 0.00264198  -0.149724 -0.727969 0.00219697  -0.17388 -0.670768 -0.0010432  -0.191355 -0.714983 -0.000849128  -0.135142 -0.685222 0.00169933  -0.1892 -0.712999 -0.000827491  -0.186743 -0.710819 -0.000766158  -0.167066 -0.773468 0.00220442  -0.20735 -0.757885 -0.00065881  -0.20499 -0.755838 -0.000597179  -0.164833 -0.771314 0.00267339  -0.185046 -0.819486 0.00221223  -0.209395 -0.759717 -0.000696719  -0.228036 -0.805038 -0.000544548  -0.168992 -0.775413 0.00175172  -0.226087 -0.80331 -0.000486493  -0.22387 -0.801413 -0.000392854  -0.203596 -0.865955 0.00219244  -0.245337 -0.849209 -0.000355124  -0.243216 -0.847425 -0.000263989  -0.201583 -0.864075 0.00264525  -0.222716 -0.912865 0.00217539  -0.247179 -0.850802 -0.000428677  -0.26686 -0.897076 -0.000309348  -0.205333 -0.867659 0.00174886  -0.265111 -0.895567 -0.000221431  -0.263122 -0.893919 -0.000102758  -0.242342 -0.960158 0.00213879  -0.285337 -0.942334 -0.000121653  -0.283441 -0.940785 -9.89437e-06  -0.240541 -0.958517 0.00257379  -0.26247 -1.00782 0.00210142  -0.286985 -0.943722 -0.000224829  -0.307591 -0.99081 -0.000134528  -0.243896 -0.961651 0.00170684  -0.306031 -0.989495 -1.94311e-05  -0.304262 -0.988064 0.000120819  -0.283044 -1.05581 0.00204521  -0.327123 -1.037 5.20945e-05  -0.32544 -1.03566 0.000183105  -0.281445 -1.05438 0.00245935  -0.304064 -1.1041 0.00199479  -0.328587 -1.03821 -7.36117e-05  -0.350008 -1.08599 -5.78165e-06  -0.284426 -1.05712 0.00163043  -0.348627 -1.08484 0.000125706  -0.347062 -1.0836 0.000280559  -0.325468 -1.15267 0.0019241  -0.370473 -1.13298 0.000175238  -0.368991 -1.13181 0.00031811  -0.32406 -1.15142 0.00231606  -0.347259 -1.20149 0.00186008  -0.371765 -1.13403 3.30806e-05  -0.393898 -1.18239 7.96318e-05  -0.326682 -1.15381 0.00152826  -0.392685 -1.18139 0.000227392  -0.391312 -1.18032 0.000395715  -0.369381 -1.25053 0.00178134  -0.415186 -1.23004 0.000254631  -0.413892 -1.22904 0.000409603  -0.368154 -1.24945 0.00215054  -0.391841 -1.29978 0.001706  -0.416315 -1.23096 0.000100195  -0.43906 -1.2798 0.000131249  -0.370443 -1.25153 0.00140309  -0.438004 -1.27893 0.000287414  -0.436814 -1.27802 0.000462711  -0.414579 -1.3492 0.00161934  -0.461064 -1.32802 0.000300229  -0.459945 -1.32716 0.000459194  -0.413518 -1.34828 0.00196606  -0.437603 -1.3988 0.00153518  -0.462041 -1.32881 0.000136912  -0.485304 -1.37805 0.000151217  -0.415497 -1.35007 0.0012629  -0.484393 -1.3773 0.000315309  -0.483369 -1.37651 0.000495136  -0.460863 -1.44853 0.00144136  -0.507925 -1.42674 0.000312328  -0.506967 -1.426 0.000474155  -0.459958 -1.44773 0.00176162  -0.484359 -1.49839 0.00135225  -0.508759 -1.42742 0.000144064  -0.532453 -1.47698 0.000146985  -0.461643 -1.44929 0.00111037  -0.53168 -1.47633 0.000310242  -0.530812 -1.47566 0.000491738  -0.508047 -1.54836 0.00125498  -0.555593 -1.52604 0.000294983  -0.55479 -1.52541 0.000457227  -0.507286 -1.54768 0.00155133  -0.531928 -1.59842 0.00115752  -0.5563 -1.52663 0.000127196  -0.58034 -1.57643 0.000115216  -0.508702 -1.54902 0.000945091  -0.579693 -1.57588 0.000276029  -0.578968 -1.57531 0.000455856  -0.555956 -1.64856 0.00105494  -0.603912 -1.6258 0.000250518  -0.603243 -1.62526 0.00041163  -0.555328 -1.64798 0.0013271  -0.580143 -1.69877 0.00095278  -0.6045 -1.6263 8.32677e-05  -0.628819 -1.67629 6.28829e-05  -0.556499 -1.64913 0.00077039  -0.628284 -1.6758 0.000220299  -0.627685 -1.67533 0.000396609  -0.604442 -1.74902 0.000850141  -0.652736 -1.72588 0.00018239  -0.652192 -1.72542 0.000338078  -0.603931 -1.74853 0.00109422  -0.628862 -1.79931 0.000743508  -0.653216 -1.7263 2.18153e-05  -0.677743 -1.77642 -1.07884e-05  -0.60488 -1.74951 0.000589311  -0.677308 -1.77601 0.000142574  -0.676832 -1.77561 0.000309885  -0.653361 -1.84963 0.000634015  -0.701936 -1.82618 9.56059e-05  -0.701503 -1.8258 0.000245869  -0.652957 -1.84922 0.000854671  -0.677945 -1.89996 0.000523865  -0.702315 -1.82653 -5.78165e-05  -0.726991 -1.87673 -9.98974e-05  -0.653705 -1.85005 0.000398755  -0.726645 -1.87638 4.38094e-05  -0.726276 -1.87604 0.000198066  -0.702582 -1.9503 0.000415683  -0.751387 -1.92659 -1.60933e-05  -0.751055 -1.92627 0.000120223  -0.702276 -1.94996 0.0006091  -0.727278 -2.00063 0.000302672  -0.751682 -1.9269 -0.000158787  -0.776446 -1.97712 -0.000208795  -0.702845 -1.95066 0.000207007  -0.776183 -1.97682 -7.53403e-05  -0.775908 -1.97654 6.87838e-05  -0.751998 -2.05094 0.000191271  -0.800987 -2.02704 -0.000144601  -0.80074 -2.02678 -1.92523e-05  -0.751775 -2.05066 0.000356972  -0.776754 -2.10124 7.90358e-05  -0.801203 -2.0273 -0.000272572  -0.826016 -2.07751 -0.000333428  -0.75219 -2.05125 8.58307e-06  -0.825824 -2.07725 -0.000218332  -0.825626 -2.07703 -8.39829e-05  -0.80151 -2.1515 -3.68953e-05  -0.850642 -2.12744 -0.000290692  -0.850474 -2.12722 -0.000180364  -0.801355 -2.15127 0.000102222  -0.826281 -2.20173 -0.000153124  -0.850796 -2.12766 -0.000408649  -0.875613 -2.17783 -0.00047189  -0.801639 -2.15177 -0.000191629  -0.875481 -2.17761 -0.000369608  -0.875353 -2.17743 -0.000252903  -0.851032 -2.25191 -0.000266969  -0.90028 -2.22774 -0.000451088  -0.900177 -2.22756 -0.00035733  -0.850938 -2.25172 -0.000155807  -0.875784 -2.30204 -0.000385523  -0.900383 -2.22792 -0.000551701  -0.925167 -2.27802 -0.000624955  -0.851111 -2.25214 -0.000396132  -0.925084 -2.27783 -0.000542581  -0.925013 -2.27768 -0.000443041  -0.900502 -2.35212 -0.000498593  -0.949838 -2.32787 -0.000631452  -0.949784 -2.32772 -0.00055474  -0.900453 -2.35196 -0.000413477  -0.925203 -2.40213 -0.000617504  -0.949895 -2.32802 -0.000711143  -0.974619 -2.37802 -0.000788867  -0.900539 -2.35231 -0.000602186  -0.974578 -2.37786 -0.000726938  -0.974551 -2.37773 -0.000644982  -0.949858 -2.45208 -0.00073266  -0.999259 -2.42779 -0.000820458  -0.999247 -2.42766 -0.000759661  -0.949852 -2.45196 -0.000674844  -0.974488 -2.50197 -0.000850916  -0.999278 -2.42792 -0.000881553  -1.02393 -2.4778 -0.000961006  -0.949859 -2.45226 -0.000808001  -1.02392 -2.47766 -0.000920177  -1.02393 -2.47756 -0.000859618  -0.999056 -2.55178 -0.000960529  -1.0485 -2.52746 -0.00101131  -1.04852 -2.52735 -0.000972509  -0.999082 -2.55168 -0.000927508  -1.02358 -2.60151 -0.00108314  -1.0485 -2.52758 -0.00105357  -1.07304 -2.57732 -0.00113314  -0.999031 -2.55193 -0.00101209  -1.07305 -2.57719 -0.00111121  -1.07309 -2.57711 -0.00107455  -1.04802 -2.65114 -0.00119007  -1.09751 -2.62683 -0.00120014  -1.09755 -2.62674 -0.00118244  -1.04808 -2.65106 -0.00118369  -1.07239 -2.70069 -0.00130171  -1.09749 -2.62694 -0.00122285  -1.1219 -2.67651 -0.00129902  -1.04799 -2.65129 -0.0012185  -1.1219 -2.67637 -0.00128657  -1.12193 -2.6763 -0.00125796  0 0 0  0.00365653 -0.00338626 0.00640553  0.00254206 -0.00182188 0.00394243  0.00423421 0.000640035 0.00604653  0.00637347 -0.00126046 0.0100405  0.0101787 -0.0117429 0.0107856  0.00223527 -0.00329638 0.00268769  0.00608726 -0.0114483 0.00440758  0 0 0  0 0 0  0.00322108 -0.00489265 0.00466233  0 0 0  0.00701851 -0.00870854 0.0061518  0.00872944 -0.0043723 0.00818473  0.0171065 -0.0240645 0.0125483  0.0116816 -0.0199958 0.0069074  0.0132382 -0.0147217 0.00872767  0.0193809 -0.0189975 0.0153217  0.0237701 -0.0396829 0.0132926  0.0105188 -0.0235674 0.00528008  0.014823 -0.039077 0.00552273  0.015472 -0.0274622 0.00989121  0.0162079 -0.0348217 0.00708175  0.0178709 -0.0288108 0.00892287  0.0299363 -0.0585014 0.0134245  0.0201665 -0.0530175 0.00697964  0.0220394 -0.0466902 0.00876588  0.0320412 -0.0523718 0.0160148  0.0352724 -0.0800521 0.0133588  0.0185967 -0.0577253 0.00549948  0.0216008 -0.0790791 0.00541538  0.028136 -0.0630565 0.0110063  0.0233952 -0.0740767 0.00682044  0.0255165 -0.0675869 0.00853282  0.039609 -0.10422 0.0131391  0.0256248 -0.0978102 0.00664693  0.0280252 -0.0913452 0.00833797  0.0419573 -0.0978956 0.0156102  0.0427809 -0.130771 0.0129017  0.02364 -0.102912 0.00525373  0.0246152 -0.129082 0.00517762  0.0376028 -0.109222 0.0108709  0.0267894 -0.123951 0.00650609  0.029386 -0.117626 0.00810009  0.0447311 -0.159506 0.0126202  0.0267568 -0.152279 0.00639224  0.0295651 -0.146146 0.00795937  0.0473543 -0.153446 0.0149574  0.0453707 -0.190294 0.0123574  0.0244379 -0.157307 0.00507301  0.0230596 -0.187549 0.00504637  0.0425172 -0.164486 0.0104699  0.0255038 -0.18264 0.00631142  0.028413 -0.176786 0.00779498  0.0447134 -0.222915 0.0120761  0.0229983 -0.214809 0.00625098  0.0260323 -0.209216 0.00769645  0.0475081 -0.217332 0.0142667  0.0427156 -0.257269 0.0118127  0.0204713 -0.219512 0.00500137  0.01665 -0.253196 0.00500619  0.0423546 -0.227618 0.0100392  0.0192348 -0.248682 0.00621182  0.0222828 -0.243416 0.00758922  0.0394314 -0.293152 0.0115339  0.0142455 -0.284052 0.00617099  0.0173463 -0.279061 0.00750738  0.0422807 -0.288125 0.0135761  0.0348459 -0.330487 0.011269  0.0116396 -0.288321 0.00498843  0.00542897 -0.324905 0.00499606  0.0370147 -0.297461 0.00961435  0.00803798 -0.320845 0.00614351  0.0110851 -0.316178 0.00742519  0.0290368 -0.369087 0.0109855  0.000679493 -0.358877 0.00609624  0.00372458 -0.354475 0.00733429  0.0318467 -0.364617 0.0128884  0.0220034 -0.408894 0.0107132  -0.00190455 -0.362686 0.00497442  -0.0103718 -0.401702 0.00496519  0.0266405 -0.372962 0.00917995  -0.00782299 -0.398097 0.00605851  -0.00487381 -0.393994 0.00725812  0.0138332 -0.449748 0.0104201  -0.0173849 -0.438346 0.00598967  -0.014472 -0.434481 0.00714564  0.0165323 -0.445798 0.0121865  0.00453341 -0.491607 0.0101357  -0.0198759 -0.441715 0.00492233  -0.0304263 -0.482774 0.00488865  0.0115203 -0.453201 0.00872833  -0.0279984 -0.47959 0.00592786  -0.0252049 -0.475993 0.00705236  -0.00580573 -0.534333 0.00982851  -0.0395733 -0.521697 0.00583124  -0.0368378 -0.518311 0.00691187  -0.00326085 -0.530852 0.0114679  -0.0171747 -0.577898 0.00953311  -0.0419221 -0.524664 0.00481969  -0.0543773 -0.567443 0.00475836  -0.00799513 -0.537395 0.00824636  -0.0521035 -0.56464 0.00574487  -0.0495018 -0.561488 0.00680107  -0.0294826 -0.622181 0.00921667  -0.0654992 -0.608307 0.00562257  -0.062969 -0.605337 0.00663394  -0.0271192 -0.619116 0.0107339  -0.0427238 -0.667164 0.00891197  -0.0676864 -0.610916 0.00466216  -0.0818648 -0.655146 0.00457495  -0.0315218 -0.62489 0.00774074  -0.0797633 -0.652678 0.00550872  -0.0773656 -0.649915 0.00650162  -0.0568106 -0.712746 0.0085867  -0.0948024 -0.69766 0.00536472  -0.092482 -0.695057 0.00631082  -0.0546349 -0.710046 0.0099898  -0.0717347 -0.75891 0.00827461  -0.0968115 -0.699954 0.00445777  -0.112545 -0.745407 0.00435007  -0.0586891 -0.715139 0.00721639  -0.110624 -0.743236 0.00523049  -0.108435 -0.740813 0.00615942  -0.0874197 -0.805569 0.00794661  -0.127139 -0.789328 0.00506812  -0.125028 -0.787041 0.00595134  -0.0854412 -0.803192 0.00923628  -0.103856 -0.852713 0.00763297  -0.128967 -0.791343 0.00421405  -0.146097 -0.837829 0.00409126  -0.0891315 -0.807685 0.00667715  -0.144352 -0.835917 0.00491828  -0.142375 -0.833791 0.00578576  -0.120966 -0.900267 0.00730437  -0.162183 -0.882941 0.00474131  -0.160286 -0.880936 0.00556427  -0.119178 -0.898177 0.00849015  -0.138744 -0.948223 0.00699282  -0.163833 -0.884713 0.00394201  -0.182208 -0.932063 0.00380844  -0.122513 -0.902137 0.00613332  -0.180639 -0.930382 0.00458103  -0.178862 -0.928517 0.00538927  -0.157118 -0.996516 0.00666916  -0.199642 -0.978184 0.00439578  -0.197945 -0.976426 0.00515705  -0.155521 -0.994679 0.00775295  -0.176089 -1.04514 0.00636065  -0.201121 -0.979739 0.0036509  -0.220601 -1.02781 0.00350839  -0.158506 -0.998167 0.00559229  -0.219202 -1.02633 0.00422573  -0.217619 -1.0247 0.0049718  -0.195584 -1.09404 0.00604314  -0.239234 -1.07478 0.00403792  -0.237729 -1.07324 0.00473922  -0.194166 -1.09242 0.00703096  -0.215601 -1.1432 0.00574011  -0.240549 -1.07615 0.00334579  -0.261001 -1.12482 0.00319892  -0.196815 -1.09549 0.00505829  -0.259762 -1.12352 0.00386202  -0.258367 -1.12209 0.00455129  -0.236076 -1.19258 0.00543159  -0.280701 -1.1725 0.00367278  -0.279377 -1.17115 0.00431693  -0.234829 -1.19116 0.00632811  -0.257004 -1.24218 0.00513792  -0.281856 -1.1737 0.00303268  -0.303155 -1.22286 0.00288385  -0.237156 -1.19387 0.00453496  -0.302072 -1.22172 0.00349379  -0.300851 -1.22047 0.0041278  -0.278329 -1.29195 0.00483578  -0.323795 -1.27113 0.00330311  -0.322642 -1.26995 0.00389236  -0.277245 -1.29071 0.00564295  -0.300046 -1.34188 0.0045498  -0.324801 -1.27218 0.00271815  -0.346834 -1.32173 0.00256634  -0.279267 -1.29308 0.00402498  -0.345892 -1.32073 0.00312215  -0.344836 -1.31964 0.00370258  -0.322103 -1.39195 0.00426269  -0.36829 -1.37048 0.00293541  -0.367297 -1.36946 0.003474  -0.321174 -1.39087 0.00498462  -0.344495 -1.44215 0.00398678  -0.369156 -1.3714 0.00240004  -0.391815 -1.42126 0.00224984  -0.322909 -1.39295 0.00353163  -0.391007 -1.42038 0.00275666  -0.390103 -1.41944 0.0032841  -0.36717 -1.49244 0.00370955  -0.41397 -1.4704 0.00256956  -0.413129 -1.46951 0.00305468  -0.366381 -1.4915 0.00435293  -0.390129 -1.54282 0.0034427  -0.414711 -1.4712 0.0020839  -0.437892 -1.52129 0.00193548  -0.367856 -1.49331 0.0030548  -0.437208 -1.52053 0.00239378  -0.43645 -1.51972 0.00286871  -0.413324 -1.59327 0.00317568  -0.460645 -1.57074 0.00220996  -0.459944 -1.56997 0.0026449  -0.412668 -1.59246 0.00374627  -0.436751 -1.64378 0.00291926  -0.461265 -1.57143 0.00177169  -0.484878 -1.62169 0.00162327  -0.41389 -1.59403 0.00259459  -0.484309 -1.62103 0.0020318  -0.483682 -1.62033 0.00246197  -0.460365 -1.69432 0.00266629  -0.508131 -1.67138 0.00185692  -0.507554 -1.67072 0.00224686  -0.459832 -1.69362 0.00316507  -0.484172 -1.7449 0.00242102  -0.508639 -1.67197 0.00146425  -0.532601 -1.72234 0.00132102  -0.46083 -1.69498 0.00215441  -0.532135 -1.72177 0.00168473  -0.531626 -1.72118 0.00206339  -0.508126 -1.79549 0.00217849  -0.556259 -1.7722 0.00151062  -0.555798 -1.77164 0.00185037  -0.507701 -1.7949 0.00261009  -0.532231 -1.84609 0.00194359  -0.556671 -1.77271 0.00116569  -0.5809 -1.82314 0.0010218  -0.508495 -1.79607 0.00173336  -0.58053 -1.82265 0.00133979  -0.580132 -1.82215 0.00167549  -0.556444 -1.89669 0.0017134  -0.60488 -1.87311 0.00117081  -0.604521 -1.87263 0.00146872  -0.556118 -1.89618 0.00208294  -0.58077 -1.94727 0.00148892  -0.605205 -1.87355 0.000866771  -0.629635 -1.924 0.000729024  -0.556728 -1.89719 0.00132924  -0.629347 -1.92357 0.00100332  -0.629044 -1.92314 0.00129634  -0.605174 -1.99783 0.00127405  -0.653864 -1.97402 0.000840664  -0.653596 -1.97362 0.00109571  -0.604933 -1.9974 0.00158721  -0.629663 -2.04836 0.00106198  -0.654106 -1.97439 0.000582576  -0.678674 -2.02482 0.000445724  -0.605383 -1.99825 0.000947297  -0.678463 -2.02445 0.000679493  -0.678244 -2.0241 0.000928104  -0.654194 -2.09884 0.000857651  -0.703084 -2.07486 0.000521302  -0.702895 -2.07452 0.000738025  -0.654025 -2.09849 0.00111872  -0.678777 -2.14929 0.000658035  -0.703259 -2.07518 0.000301778  -0.727912 -2.12554 0.000170946  -0.654337 -2.09921 0.000586987  -0.727762 -2.12523 0.000365973  -0.727615 -2.12494 0.00057745  -0.703382 -2.19968 0.000467837  -0.752438 -2.17556 0.000211537  -0.752314 -2.17528 0.000391781  -0.703276 -2.19939 0.000676095  -0.728017 -2.25002 0.000279784  -0.752555 -2.17583 2.92659e-05  -0.777246 -2.22611 -9.7692e-05  -0.703468 -2.2 0.000245392  -0.777149 -2.22585 5.98431e-05  -0.777066 -2.22561 0.000233591  -0.75265 -2.30029 0.000101984  -0.801839 -2.27608 -8.69036e-05  -0.80177 -2.27584 5.57303e-05  -0.752599 -2.30006 0.000264227  -0.777299 -2.35051 -7.52807e-05  -0.801906 -2.27631 -0.000230074  -0.826598 -2.32648 -0.00035429  -0.752698 -2.30056 -7.45058e-05  -0.826544 -2.32625 -0.000233412  -0.826508 -2.32605 -9.84073e-05  -0.801925 -2.40064 -0.000241339  -0.851212 -2.37636 -0.000376046  -0.851189 -2.37616 -0.000271618  -0.801911 -2.40044 -0.000124335  -0.826547 -2.4507 -0.000407517  -0.851242 -2.37655 -0.000484943  -0.875898 -2.4266 -0.000600576  -0.801934 -2.40087 -0.000373065  -0.875878 -2.4264 -0.00051713  -0.875882 -2.42624 -0.000415206  -0.851134 -2.50068 -0.000566363  -0.900499 -2.47637 -0.000655472  -0.900511 -2.47621 -0.000580132  -0.851155 -2.50052 -0.00049144  -0.875705 -2.55059 -0.000724792  -0.900496 -2.47653 -0.000730515  -0.925094 -2.52644 -0.00084424  -0.851115 -2.50088 -0.000658751  -0.925105 -2.52626 -0.000793517  -0.92514 -2.52613 -0.000724971  -0.90023 -2.6004 -0.000876963  -0.949647 -2.57608 -0.000924349  -0.949688 -2.57594 -0.000884295  -0.900276 -2.60027 -0.000838995  -0.92472 -2.65015 -0.00103396  -0.949619 -2.57623 -0.000966787  -0.974131 -2.62597 -0.00108123  -0.900185 -2.60059 -0.000928521  -0.97416 -2.62581 -0.00106394  -0.974229 -2.62571 -0.00102931  -0.949136 -2.69978 -0.0011788  -0.998581 -2.67545 -0.00119203  -0.998649 -2.67533 -0.00118238  -0.949214 -2.69966 -0.00118762  -0.97349 -2.74933 -0.00133663  -0.998546 -2.67559 -0.00120306  -1.02292 -2.72517 -0.00131571  -0.949086 -2.69996 -0.00119323  -1.02294 -2.725 -0.00132585  -1.02301 -2.72488 -0.00131583  0 0 0  0.00620586 -0.00794083 0.0115144  0.00487176 -0.00552416 0.00913632  0.00856662 -0.0034408 0.0140283  0.0105324 -0.00614244 0.0177292  0.0172375 -0.0196178 0.0194317  0.00445772 -0.00684237 0.00665748  0.012073 -0.0177667 0.0115782  0 0 0  0 0 0  0.00559618 -0.00936311 0.00846058  0 0 0  0.0137711 -0.0152889 0.0152673  0.0170842 -0.0114191 0.0193498  0.0288222 -0.0345941 0.0229508  0.0227639 -0.028902 0.0178957  0.0253923 -0.0241438 0.0214576  0.0320765 -0.0299533 0.027584  0.0401123 -0.051963 0.0247995  0.0208298 -0.0322245 0.0142795  0.0296991 -0.0493799 0.0156519  0.0265755 -0.0377929 0.018382  0.0316721 -0.045401 0.0191687  0.0339752 -0.0398837 0.022737  0.0506254 -0.0720298 0.0255012  0.0399893 -0.0648349 0.0195823  0.0421581 -0.0589316 0.0229783  0.0530055 -0.066296 0.0297578  0.0601673 -0.0945481 0.0257259  0.0380472 -0.0692853 0.0162739  0.0454734 -0.0916611 0.0164249  0.0485101 -0.0763908 0.0212659  0.0474408 -0.0868928 0.0196405  0.049606 -0.0807629 0.0229993  0.0685515 -0.119502 0.0255575  0.0538194 -0.111459 0.0194367  0.056083 -0.105266 0.0227238  0.0707894 -0.113452 0.0296543  0.0756339 -0.146815 0.0252259  0.0518107 -0.116363 0.016314  0.0569132 -0.143375 0.0160921  0.0665254 -0.124338 0.0215558  0.058987 -0.138403 0.0191274  0.0613192 -0.132276 0.0223361  0.0813826 -0.176306 0.0247168  0.0628547 -0.167523 0.0187247  0.065313 -0.161513 0.0218655  0.0836974 -0.170391 0.0286412  0.0856929 -0.207899 0.0241516  0.0607236 -0.172433 0.0157568  0.0631762 -0.203553 0.015413  0.0793336 -0.181175 0.0209119  0.065367 -0.198718 0.0182937  0.0678684 -0.192921 0.0213375  0.0885931 -0.241376 0.023497  0.0665017 -0.231771 0.017819  0.0690966 -0.226179 0.0207821  0.0909923 -0.235828 0.0272141  0.0900196 -0.27665 0.0228314  0.0642747 -0.23644 0.0150113  0.0639888 -0.271106 0.0146263  0.0864989 -0.246032 0.0198979  0.0662441 -0.266589 0.0173435  0.0688408 -0.261273 0.0202075  0.0900334 -0.313511 0.0221212  0.0646207 -0.302967 0.016843  0.0672668 -0.297886 0.0196167  0.0924637 -0.308434 0.0256023  0.0886047 -0.351875 0.0214164  0.0623585 -0.307269 0.0142031  0.0593715 -0.344944 0.0138015  0.0879232 -0.317828 0.0187394  0.0616356 -0.34082 0.0163539  0.0642362 -0.336029 0.019029  0.0858105 -0.391556 0.0206826  0.0573463 -0.379966 0.015841  0.0599557 -0.375413 0.0184188  0.0882136 -0.386974 0.0239211  0.0816469 -0.432477 0.0199654  0.055104 -0.383862 0.0133715  0.0495477 -0.424048 0.0129618  0.0837289 -0.395488 0.0175282  0.0517614 -0.420337 0.0153455  0.0542954 -0.416062 0.0178317  0.0762001 -0.474478 0.0192324  0.0449626 -0.461772 0.0148283  0.0474794 -0.457721 0.0172155  0.0785208 -0.470378 0.0222292  0.0694782 -0.5175 0.0185187  0.0427965 -0.465262 0.0125275  0.0348425 -0.507536 0.0121132  0.0741869 -0.478023 0.0163044  0.036962 -0.50422 0.0143311  0.03938 -0.500426 0.0166348  0.0615737 -0.561401 0.0177968  0.0278482 -0.547544 0.0138115  0.0302296 -0.543952 0.0160191  0.0637748 -0.557747 0.0205545  0.0524977 -0.606139 0.0170966  0.0257915 -0.550652 0.0116757  0.0156384 -0.594654 0.01126  0.0596601 -0.564576 0.0150911  0.0176339 -0.591704 0.0133162  0.019901 -0.588343 0.0154431  0.0423458 -0.651591 0.0163882  0.00641036 -0.636582 0.0128011  0.00862479 -0.633404 0.0148314  0.0444001 -0.648345 0.0189192  0.0311286 -0.697726 0.0157051  0.00448787 -0.639343 0.0108243  -0.00766957 -0.684771 0.0104111  0.0405535 -0.654425 0.0138959  -0.00581563 -0.68215 0.0123087  -0.00371587 -0.679177 0.0142673  0.0189394 -0.744439 0.0150173  -0.0189483 -0.72831 0.0118004  -0.0169088 -0.725496 0.0136628  0.0208365 -0.741554 0.0173325  0.00579143 -0.791709 0.0143558  -0.0207232 -0.730756 0.00997949  -0.0346876 -0.777359 0.00957131  0.0172825 -0.746965 0.0127318  -0.0329856 -0.775036 0.0113146  -0.0310618 -0.772404 0.0131106  -0.00823021 -0.839445 0.0136931  -0.0478323 -0.822243 0.0108167  -0.0459746 -0.819757 0.01252  -0.00649929 -0.836886 0.0158027  -0.0231109 -0.887632 0.0130556  -0.0494521 -0.824412 0.00914586  -0.0650386 -0.871981 0.00874716  -0.00974333 -0.841693 0.011605  -0.0634923 -0.869918 0.0103441  -0.061749 -0.867594 0.0119856  -0.0387685 -0.936191 0.01242  -0.07987 -0.917987 0.00986135  -0.0781938 -0.915786 0.0114133  -0.0372051 -0.933924 0.014333  -0.0551932 -0.985115 0.0118082  -0.0813353 -0.919908 0.00833166  -0.098368 -0.968262 0.00794399  -0.0401379 -0.938193 0.0105197  -0.0969753 -0.966435 0.00940114  -0.0954113 -0.964381 0.0108952  -0.0723046 -1.03433 0.0112001  -0.114715 -1.0152 0.00893211  -0.113215 -1.01326 0.0103428  -0.070907 -1.03232 0.0129293  -0.0900943 -1.08384 0.0106153  -0.116026 -1.0169 0.00754195  -0.134341 -1.06589 0.00716609  -0.0735292 -1.03611 0.00947899  -0.133098 -1.06427 0.00848871  -0.131707 -1.06246 0.00984353  -0.108494 -1.13358 0.0100383  -0.152041 -1.1136 0.00803977  -0.150713 -1.11188 0.00931478  -0.107255 -1.1318 0.0115948  -0.127487 -1.18354 0.00948662  -0.153207 -1.1151 0.00677764  -0.17265 -1.16461 0.00641578  -0.10958 -1.13516 0.00848693  -0.171551 -1.16317 0.00761312  -0.170327 -1.16157 0.00883585  -0.147012 -1.23367 0.00893611  -0.191546 -1.21294 0.00718212  -0.190384 -1.21143 0.00832921  -0.145927 -1.2321 0.0103307  -0.167057 -1.28398 0.00840801  -0.19257 -1.21427 0.00604391  -0.212998 -1.26417 0.00569695  -0.147963 -1.23508 0.00754213  -0.212039 -1.2629 0.00677246  -0.210972 -1.26149 0.00787371  -0.187561 -1.33442 0.00788987  -0.23295 -1.31302 0.00636154  -0.231945 -1.31168 0.00738662  -0.186626 -1.33304 0.0091303  -0.20852 -1.38499 0.00738972  -0.233836 -1.31419 0.00534111  -0.255122 -1.36439 0.00500727  -0.188385 -1.33567 0.00664479  -0.254293 -1.36327 0.00596988  -0.253379 -1.36204 0.00695306  -0.229869 -1.43564 0.00690025  -0.275992 -1.41364 0.00557894  -0.275134 -1.41247 0.00649273  -0.229077 -1.43442 0.00799829  -0.25161 -1.48639 0.00642979  -0.276751 -1.41467 0.00466931  -0.298771 -1.4651 0.0043546  -0.230569 -1.43674 0.005795  -0.298066 -1.46412 0.00520688  -0.297291 -1.46304 0.00608277  -0.273684 -1.53718 0.0059675  -0.320434 -1.51467 0.0048368  -0.319711 -1.51365 0.00564361  -0.273019 -1.53612 0.00693256  -0.296087 -1.58804 0.00552416  -0.321078 -1.51558 0.00403112  -0.343715 -1.56616 0.00373155  -0.274272 -1.53815 0.00499624  -0.343123 -1.5653 0.00448167  -0.342478 -1.56436 0.005252  -0.318767 -1.63891 0.00509137  -0.366055 -1.61597 0.00413179  -0.365459 -1.61508 0.00484133  -0.318223 -1.63798 0.00593239  -0.341725 -1.68982 0.00467247  -0.366586 -1.61676 0.00342429  -0.389739 -1.66743 0.00313789  -0.319251 -1.63977 0.00424051  -0.389255 -1.66668 0.00379485  -0.388729 -1.66587 0.00447136  -0.364908 -1.74073 0.00426972  -0.412649 -1.71742 0.00346398  -0.412169 -1.71664 0.00408149  -0.364476 -1.73992 0.00499511  -0.388322 -1.79164 0.00387764  -0.413081 -1.7181 0.00284779  -0.436657 -1.76882 0.00258064  -0.365296 -1.74147 0.00353128  -0.436265 -1.76817 0.00314766  -0.435848 -1.76746 0.00373459  -0.411913 -1.84252 0.00349754  -0.460031 -1.81891 0.00283742  -0.459655 -1.81824 0.00336671  -0.411575 -1.84183 0.00411814  -0.435688 -1.89339 0.00313658  -0.460373 -1.8195 0.00230771  -0.484284 -1.87022 0.00205517  -0.412212 -1.84317 0.00287181  -0.483979 -1.86965 0.0025394  -0.483664 -1.86905 0.00304043  -0.459604 -1.94422 0.00278515  -0.508037 -1.92037 0.0022456  -0.507755 -1.9198 0.00269753  -0.459356 -1.94363 0.00330287  -0.483663 -1.99502 0.00244367  -0.508299 -1.92088 0.00179523  -0.532467 -1.97156 0.00156039  -0.459825 -1.94478 0.00225455  -0.532235 -1.97106 0.00196677  -0.532005 -1.97055 0.00238901  -0.507821 -2.04576 0.00212306  -0.556512 -2.02172 0.00169772  -0.556311 -2.02124 0.00207162  -0.507652 -2.04526 0.00255072  -0.532087 -2.09645 0.0018096  -0.5567 -2.02215 0.00132018  -0.581057 -2.07276 0.00110245  -0.507973 -2.04624 0.00168145  -0.580893 -2.07233 0.00143629  -0.580741 -2.07191 0.00178915  -0.556422 -2.14708 0.00151557  -0.60532 -2.1229 0.00118732  -0.605192 -2.12249 0.00149292  -0.556319 -2.14666 0.00186139  -0.580831 -2.19764 0.00123078  -0.60545 -2.12327 0.000877678  -0.629932 -2.17377 0.000671446  -0.556519 -2.14749 0.00115567  -0.629826 -2.17341 0.000941932  -0.629733 -2.17305 0.00123239  -0.605281 -2.24813 0.00096041  -0.654348 -2.22386 0.000710249  -0.654274 -2.22352 0.00095588  -0.605228 -2.24778 0.00123382  -0.629778 -2.29855 0.000699937  -0.654419 -2.22417 0.000464618  -0.678975 -2.27455 0.000279069  -0.605327 -2.24849 0.000675321  -0.678917 -2.27424 0.000489354  -0.678882 -2.27395 0.000716925  -0.654286 -2.34888 0.000460505  -0.703483 -2.32455 0.000279069  -0.703457 -2.32427 0.000467837  -0.654281 -2.3486 0.000664711  -0.678826 -2.39915 0.000224113  -0.703518 -2.32481 8.7738e-05  -0.728104 -2.37505 -8.36849e-05  -0.654297 -2.34919 0.000240564  -0.728082 -2.37479 7.4029e-05  -0.728086 -2.37455 0.000245273  -0.703357 -2.44931 8.16584e-06  -0.752653 -2.42494 -0.000118613  -0.752663 -2.42471 2.23517e-05  -0.703379 -2.44908 0.000152111  -0.727896 -2.4994 -0.000207126  -0.752655 -2.42517 -0.00025779  -0.777233 -2.47525 -0.000415027  -0.703333 -2.44958 -0.000149906  -0.777241 -2.47502 -0.000311315  -0.777271 -2.47482 -0.000184298  -0.75241 -2.5494 -0.000400782  -0.801784 -2.52501 -0.000483632  -0.801826 -2.52481 -0.000395179  -0.752458 -2.54921 -0.000308514  -0.77692 -2.59931 -0.00059551  -0.80176 -2.5252 -0.000576973  -0.826301 -2.57512 -0.000724316  -0.752366 -2.54962 -0.000505209  -0.826331 -2.57492 -0.000663161  -0.826391 -2.57475 -0.000585735  -0.801393 -2.64913 -0.000775397  -0.850826 -2.62474 -0.000833571  -0.850884 -2.62457 -0.000788808  -0.801457 -2.64896 -0.000736356  -0.825851 -2.69886 -0.000966728  -0.850779 -2.62492 -0.000878334  -0.875258 -2.67467 -0.00102228  -0.801333 -2.64933 -0.000831127  -0.875305 -2.67448 -0.00100958  -0.875387 -2.67433 -0.000978291  -0.850255 -2.7485 -0.00114316  -0.899708 -2.72412 -0.00117433  -0.899791 -2.72396 -0.00117517  -0.850341 -2.74834 -0.00115544  -0.874624 -2.79808 -0.00133401  -0.899652 -2.72429 -0.00117457  -0.924026 -2.77388 -0.00131953  -0.850188 -2.74871 -0.00114954  -0.924062 -2.77368 -0.0013448  -0.924147 -2.77354 -0.00135404  0 0 0  0.00951685 -0.0157247 0.015877  0.00772105 -0.0112437 0.013847  0.0129204 -0.00958723 0.0211961  0.0153386 -0.013652 0.0245074  0.0266012 -0.0314529 0.0268933  0.00725982 -0.0127071 0.0102226  0.0195228 -0.027392 0.0179856  0 0 0  0 0 0  0.00885208 -0.017162 0.0118055  0 0 0  0.0217204 -0.024934 0.0234422  0.0262155 -0.0214703 0.0294414  0.0434493 -0.0490009 0.0320401  0.0356583 -0.0412279 0.0276999  0.0391096 -0.0368816 0.0330116  0.0473909 -0.0444967 0.0384557  0.0595005 -0.0679103 0.0350462  0.0331605 -0.0445089 0.0222704  0.0468108 -0.0634056 0.0247449  0.0407836 -0.0523024 0.0257634  0.0492061 -0.0594918 0.0300574  0.0520092 -0.0543858 0.0353188  0.0742739 -0.0888282 0.0365481  0.0619355 -0.0800256 0.0311293  0.0643711 -0.0744675 0.0361935  0.0768589 -0.0833449 0.0425173  0.0877826 -0.112136 0.0372455  0.059724 -0.0843586 0.0260809  0.0714059 -0.107629 0.026596  0.0719688 -0.0932152 0.0305704  0.0735027 -0.102982 0.0315579  0.0757426 -0.0971597 0.0365964  0.100009 -0.137756 0.0372916  0.0838522 -0.128279 0.0314908  0.0860401 -0.122337 0.0364208  0.102183 -0.131924 0.0430755  0.110787 -0.165787 0.0369821  0.0818301 -0.133048 0.0266668  0.0908363 -0.160803 0.0264253  0.0979826 -0.142522 0.0315652  0.0928336 -0.155953 0.03115  0.0949839 -0.150027 0.0360043  0.12015 -0.196036 0.0363429  0.100402 -0.185819 0.0305755  0.102594 -0.179959 0.0353152  0.122234 -0.190274 0.0418963  0.127959 -0.228445 0.0355483  0.0984223 -0.19062 0.0259652  0.104512 -0.222559 0.0253948  0.118224 -0.200807 0.0308759  0.1065 -0.217812 0.0298855  0.108684 -0.212115 0.0345116  0.134258 -0.262805 0.0345873  0.111105 -0.251722 0.0290755  0.113346 -0.246187 0.0335674  0.136338 -0.257338 0.0398482  0.138962 -0.299009 0.0335658  0.109121 -0.256324 0.0247096  0.112207 -0.291929 0.0239945  0.132362 -0.267376 0.0294161  0.114202 -0.287453 0.0282265  0.116421 -0.282151 0.032584  0.142132 -0.336861 0.0324619  0.115801 -0.324803 0.0273157  0.11806 -0.319705 0.0315247  0.144211 -0.331801 0.0373899  0.143728 -0.376252 0.0313494  0.113817 -0.329089 0.0232177  0.11393 -0.367804 0.0224478  0.140257 -0.341128 0.0276177  0.115908 -0.363676 0.0264035  0.118123 -0.358835 0.0304722  0.143826 -0.416998 0.0301972  0.114572 -0.403887 0.025458  0.116803 -0.399259 0.02937  0.145874 -0.412379 0.0347748  0.142417 -0.459005 0.0290583  0.112617 -0.407806 0.0216414  0.109873 -0.449104 0.0208553  0.141988 -0.420914 0.0256917  0.111804 -0.445351 0.0245294  0.113968 -0.440977 0.0283003  0.139589 -0.502115 0.0279063  0.107678 -0.487907 0.0235827  0.109837 -0.483741 0.0271969  0.141572 -0.497936 0.032128  0.135346 -0.54625 0.0267783  0.105784 -0.491454 0.0200489  0.100358 -0.534875 0.0192704  0.13781 -0.505674 0.0237433  0.102212 -0.531489 0.0226635  0.104286 -0.527564 0.0261397  0.129785 -0.591268 0.0256512  0.0954916 -0.575955 0.0217351  0.0975432 -0.572223 0.0250562  0.131674 -0.587512 0.0295259  0.122923 -0.637114 0.024557  0.0936902 -0.579141 0.018479  0.0857804 -0.624289 0.0177184  0.128091 -0.59448 0.0218253  0.0875335 -0.621251 0.0208385  0.0894883 -0.617741 0.0240279  0.114852 -0.683663 0.0234674  0.0784355 -0.667258 0.0199344  0.0803533 -0.663927 0.0229735  0.116623 -0.680295 0.0270051  0.105595 -0.730875 0.0224109  0.076744 -0.670113 0.0169486  0.0665749 -0.716659 0.016214  0.113261 -0.68655 0.0199683  0.068207 -0.713939 0.0190689  0.0700235 -0.710808 0.0219836  0.095248 -0.77864 0.0213687  0.0569527 -0.761188 0.0181996  0.0587232 -0.758216 0.0209699  0.096886 -0.775627 0.0245862  0.083827 -0.826935 0.0203631  0.0553856 -0.763737 0.015471  0.0431671 -0.811408 0.0147645  0.0937728 -0.78123 0.0181801  0.0446727 -0.808978 0.0173683  0.046342 -0.806186 0.020023  0.071426 -0.875664 0.019371  0.0314739 -0.857222 0.016538  0.0330919 -0.854575 0.0190555  0.0729238 -0.872972 0.0222857  0.0580624 -0.924811 0.0184156  0.0300382 -0.859496 0.0140533  0.0159835 -0.908066 0.0133778  0.0700735 -0.877983 0.0164763  0.017355 -0.905899 0.0157423  0.0188665 -0.903413 0.0181507  0.0438253 -0.974292 0.0174749  0.00241852 -0.954931 0.01495  0.00387681 -0.952572 0.0172283  0.0451781 -0.971888 0.0201073  0.0287278 -1.0241 0.0165688  0.00111997 -0.956957 0.0127007  -0.0145762 -1.00624 0.0120577  0.0425999 -0.976366 0.0148558  -0.0133414 -1.0043 0.0141952  -0.0119833 -1.00209 0.016371  0.0128554 -1.07416 0.0156811  -0.0298234 -1.05395 0.0134439  -0.0285194 -1.05186 0.0154971  0.0140619 -1.07201 0.0180466  -0.00377631 -1.12447 0.0148249  -0.0309839 -1.05576 0.0114128  -0.0481344 -1.10559 0.0108028  0.0117617 -1.07601 0.0133237  -0.0470343 -1.10387 0.0127251  -0.0458305 -1.10191 0.0146832  -0.0210921 -1.17497 0.0139897  -0.0648808 -1.154 0.0120162  -0.0637316 -1.15213 0.0138566  -0.0200285 -1.17306 0.0161048  -0.0390794 -1.22565 0.0131847  -0.0659112 -1.15561 0.0101921  -0.0843459 -1.20587 0.00961626  -0.0220593 -1.17662 0.0118793  -0.0833755 -1.20433 0.0113383  -0.0823179 -1.20259 0.0130895  -0.0576634 -1.27646 0.0124002  -0.102418 -1.25482 0.0106697  -0.101415 -1.25316 0.0123138  -0.0567372 -1.27477 0.0142831  -0.0768361 -1.32741 0.0116422  -0.103321 -1.25624 0.0090391  -0.122878 -1.30682 0.00849497  -0.0585096 -1.27794 0.0105162  -0.122031 -1.30546 0.01003  -0.121116 -1.30391 0.0115911  -0.0965273 -1.37844 0.0109071  -0.142121 -1.3562 0.00940049  -0.141258 -1.35474 0.0108585  -0.0957372 -1.37694 0.01257  -0.116733 -1.42956 0.010197  -0.142899 -1.35747 0.00794935  -0.16343 -1.40826 0.0074389  -0.097255 -1.37976 0.00923759  -0.162704 -1.40705 0.00879675  -0.161929 -1.40569 0.010178  -0.137383 -1.48073 0.00950754  -0.183697 -1.45798 0.00820374  -0.182969 -1.45668 0.00948936  -0.136717 -1.4794 0.0109707  -0.158478 -1.53196 0.00884104  -0.184359 -1.45909 0.00692594  -0.205729 -1.51004 0.00644559  -0.137997 -1.4819 0.00803703  -0.205119 -1.50897 0.00763905  -0.204471 -1.50777 0.00885594  -0.179952 -1.58319 0.00819707  -0.226882 -1.56 0.00708395  -0.226282 -1.55886 0.00820947  -0.179404 -1.58202 0.00947553  -0.201804 -1.63445 0.007577  -0.227438 -1.56098 0.00596184  -0.249524 -1.612 0.005512  -0.180459 -1.58422 0.00691253  -0.249016 -1.61106 0.00655234  -0.248486 -1.61 0.0076136  -0.223973 -1.68569 0.00697792  -0.271433 -1.66213 0.00603449  -0.270947 -1.66113 0.00701261  -0.223537 -1.68466 0.0080815  -0.246464 -1.73693 0.00640035  -0.271888 -1.663 0.00506169  -0.294573 -1.71404 0.00463855  -0.224387 -1.6866 0.00586689  -0.294163 -1.71321 0.00553864  -0.293743 -1.71229 0.00645727  -0.269218 -1.78813 0.00584501  -0.317125 -1.76427 0.00505513  -0.316743 -1.7634 0.00589395  -0.268882 -1.78723 0.00678849  -0.292241 -1.83931 0.0053094  -0.317481 -1.76503 0.00422072  -0.340667 -1.81605 0.00383008  -0.269541 -1.78893 0.00489306  -0.340346 -1.81532 0.00459415  -0.340025 -1.81453 0.00538212  -0.315473 -1.89043 0.00479513  -0.36375 -1.86634 0.00414753  -0.363463 -1.86558 0.00485855  -0.315229 -1.88965 0.00558943  -0.338925 -1.94151 0.00429863  -0.364026 -1.867 0.00343758  -0.387611 -1.91795 0.00307608  -0.315714 -1.89113 0.00399035  -0.387367 -1.91732 0.00372088  -0.387136 -1.91663 0.00438225  -0.362543 -1.99252 0.00382978  -0.411129 -1.96825 0.00330818  -0.410922 -1.9676 0.00390339  -0.362379 -1.99185 0.00448829  -0.386337 -2.04347 0.00337797  -0.411329 -1.96882 0.00271332  -0.435229 -2.01967 0.0023784  -0.362713 -1.99312 0.00315815  -0.43506 -2.01913 0.00291067  -0.434905 -2.01854 0.00346202  -0.41026 -2.09434 0.00294882  -0.459091 -2.06994 0.00253379  -0.45896 -2.06939 0.00302368  -0.410162 -2.09377 0.00348771  -0.434314 -2.14514 0.00253379  -0.459225 -2.07043 0.00204766  -0.483368 -2.12117 0.00174171  -0.410365 -2.09487 0.00239825  -0.483254 -2.1207 0.00217187  -0.483168 -2.1202 0.00262326  -0.458457 -2.19585 0.00214601  -0.507487 -2.17138 0.00182998  -0.507421 -2.17091 0.00222367  -0.458421 -2.19538 0.00257391  -0.482703 -2.24649 0.00177372  -0.507567 -2.17179 0.00143731  -0.531881 -2.22238 0.00116247  -0.458511 -2.1963 0.00170839  -0.531816 -2.22198 0.00150234  -0.531787 -2.22157 0.00185955  -0.507003 -2.29702 0.00142658  -0.556184 -2.2725 0.00119632  -0.556168 -2.27212 0.00150341  -0.507015 -2.29663 0.00175208  -0.531373 -2.34747 0.00109559  -0.556218 -2.27285 0.000887394  -0.58064 -2.32329 0.00064075  -0.507012 -2.29741 0.00108981  -0.580624 -2.32294 0.000897348  -0.580634 -2.32261 0.00117731  -0.555775 -2.39783 0.000792682  -0.605069 -2.3733 0.000626445  -0.605088 -2.37298 0.000857234  -0.555817 -2.39751 0.00103468  -0.580219 -2.44809 0.00050348  -0.605069 -2.37359 0.00039655  -0.629552 -2.42386 0.00017643  -0.555751 -2.39815 0.00053966  -0.629564 -2.42357 0.00036186  -0.629607 -2.42329 0.000568986  -0.604666 -2.49826 0.000239253  -0.654041 -2.47374 0.000122726  -0.654087 -2.47348 0.00028336  -0.604729 -2.498 0.000403941  -0.629134 -2.54833 -1.37091e-05  -0.654014 -2.47399 -3.96967e-05  -0.678516 -2.52408 -0.000233412  -0.604619 -2.49854 6.19888e-05  -0.678548 -2.52382 -0.000111103  -0.67861 -2.5236 3.06368e-05  -0.653583 -2.59831 -0.000238597  -0.703023 -2.57382 -0.000321329  -0.70309 -2.57359 -0.000217617  -0.653658 -2.5981 -0.000137925  -0.67804 -2.64819 -0.000459611  -0.702975 -2.57403 -0.000423849  -0.727464 -2.62394 -0.000596285  -0.653523 -2.59855 -0.000353098  -0.727512 -2.62372 -0.000530124  -0.72759 -2.62353 -0.000443339  -0.702471 -2.69798 -0.000658512  -0.751958 -2.67353 -0.000723779  -0.752028 -2.67333 -0.000670254  -0.702545 -2.6978 -0.000611305  -0.726901 -2.7477 -0.000863075  -0.751898 -2.67372 -0.000775099  -0.776346 -2.72347 -0.000935197  -0.702402 -2.69821 -0.000720739  -0.776402 -2.72325 -0.00092268  -0.776489 -2.72308 -0.000889897  -0.7513 -2.79733 -0.00105411  -0.8008 -2.7729 -0.00110698  -0.800879 -2.7727 -0.00110811  -0.75138 -2.79715 -0.00106353  -0.775699 -2.84693 -0.00125867  -0.800736 -2.77309 -0.00110584  -0.825123 -2.82271 -0.00127494  -0.751229 -2.79756 -0.00106484  -0.825175 -2.82248 -0.00130528  -0.825265 -2.8223 -0.00131589  0 0 0  0.015381 -0.030856 0.0212865  0.0123705 -0.0215992 0.0182958  0.018603 -0.019478 0.0276821  0.0229754 -0.0256532 0.0339124  0.042594 -0.0505056 0.0331066  0.011716 -0.0235937 0.0133504  0.0307227 -0.0431567 0.0234914  0 0 0  0 0 0  0.0138298 -0.0324432 0.0150017  0 0 0  0.032885 -0.0399797 0.0304005  0.0379485 -0.0362375 0.0378969  0.0636632 -0.067219 0.0404729  0.0525836 -0.0577793 0.036254  0.0565807 -0.0531651 0.043541  0.0674153 -0.0625401 0.0487848  0.0833074 -0.0869251 0.0450407  0.0499336 -0.0614456 0.029282  0.0681043 -0.0813608 0.0329376  0.0616648 -0.0717991 0.0328057  0.0706325 -0.0771337 0.0399097  0.0737628 -0.071991 0.0470038  0.101761 -0.108148 0.0472267  0.0874618 -0.0982435 0.041854  0.0900958 -0.092746 0.0487612  0.104431 -0.102663 0.055055  0.11899 -0.132098 0.0484385  0.0851745 -0.10273 0.0350953  0.100742 -0.126551 0.0360835  0.0997118 -0.112948 0.0394821  0.102878 -0.121867 0.0428005  0.105191 -0.11615 0.0496529  0.134851 -0.158441 0.0486095  0.116948 -0.147829 0.0429671  0.119095 -0.14203 0.0496544  0.137008 -0.152712 0.0562239  0.149289 -0.187295 0.0483083  0.114935 -0.152568 0.0364103  0.127612 -0.181011 0.0362154  0.132875 -0.163239 0.0410925  0.129559 -0.176244 0.0426642  0.131591 -0.170453 0.0492532  0.162152 -0.218456 0.0475163  0.14067 -0.206922 0.04197  0.14267 -0.201201 0.0483777  0.164119 -0.212835 0.0547962  0.173414 -0.251819 0.0464908  0.138779 -0.211617 0.0356844  0.148343 -0.244412 0.0349354  0.160245 -0.223105 0.0403324  0.150209 -0.23978 0.0410625  0.152165 -0.234197 0.0473236  0.183001 -0.287203 0.0452338  0.158153 -0.274628 0.0399555  0.160127 -0.269194 0.0460144  0.18491 -0.281875 0.0520976  0.190897 -0.324453 0.043867  0.156309 -0.279112 0.0340098  0.162633 -0.315702 0.0330062  0.181139 -0.291601 0.0384548  0.164466 -0.311335 0.0387657  0.166406 -0.306107 0.0446475  0.197103 -0.363396 0.0424051  0.169161 -0.349714 0.0374771  0.171124 -0.34467 0.0431428  0.198989 -0.358448 0.0488036  0.201609 -0.403878 0.0408999  0.167345 -0.353897 0.0319153  0.170426 -0.393679 0.0308084  0.195271 -0.36748 0.0360788  0.172229 -0.389638 0.0361716  0.174151 -0.384824 0.0416453  0.20447 -0.445748 0.0393682  0.173723 -0.430933 0.0348213  0.175653 -0.426312 0.040071  0.206323 -0.44121 0.0452844  0.205682 -0.488869 0.0378196  0.171941 -0.434776 0.0296589  0.171887 -0.477186 0.0285234  0.202678 -0.449495 0.0335102  0.173643 -0.473491 0.0334813  0.17552 -0.469105 0.0385367  0.205342 -0.533099 0.0362849  0.172075 -0.517156 0.0321297  0.173945 -0.512961 0.0369646  0.207137 -0.528973 0.0417192  0.203447 -0.578337 0.0347573  0.170351 -0.520651 0.0273699  0.167335 -0.565193 0.0262461  0.203611 -0.536505 0.0308961  0.169025 -0.56184 0.0308043  0.170828 -0.557872 0.0354459  0.200108 -0.624447 0.0332587  0.164592 -0.607406 0.0294831  0.166375 -0.60362 0.0339116  0.201819 -0.620718 0.0382214  0.195324 -0.671365 0.0317743  0.162948 -0.610565 0.0251179  0.157188 -0.656814 0.0240285  0.19846 -0.627528 0.0283307  0.158788 -0.65379 0.0281969  0.160491 -0.650217 0.0324363  0.18923 -0.71896 0.0303344  0.151722 -0.700868 0.0269244  0.153397 -0.697459 0.0309612  0.190838 -0.715595 0.0348502  0.181815 -0.767189 0.0289123  0.150175 -0.703709 0.0229409  0.141907 -0.751313 0.0218916  0.187683 -0.721733 0.0258458  0.143404 -0.748593 0.0256884  0.144986 -0.745381 0.0295459  0.173213 -0.815937 0.0275409  0.133945 -0.79686 0.0244752  0.135495 -0.7938 0.0281413  0.174702 -0.812915 0.0316322  0.163411 -0.865186 0.0261924  0.132507 -0.799411 0.0208534  0.121965 -0.848077 0.0198564  0.171773 -0.818432 0.023469  0.123347 -0.845638 0.0232991  0.124808 -0.842758 0.0267953  0.152551 -0.914829 0.0248964  0.11173 -0.894835 0.0221488  0.113148 -0.892092 0.0254635  0.153915 -0.912114 0.0285878  0.140609 -0.964853 0.0236219  0.110413 -0.897118 0.0188697  0.0978308 -0.946616 0.0179267  0.151229 -0.917062 0.0212123  0.0990897 -0.944428 0.0210366  0.100416 -0.941849 0.0241937  0.127729 -1.01516 0.0224006  0.0855459 -0.994338 0.0199497  0.0868272 -0.991879 0.0229377  0.128957 -1.01273 0.0257159  0.113878 -1.06577 0.0211995  0.0843487 -0.996383 0.016991  0.0699434 -1.04651 0.0160992  0.126529 -1.01717 0.0190848  0.0710826 -1.04455 0.0188988  0.0722698 -1.04224 0.0217397  0.099196 -1.11658 0.0200501  0.0558153 -1.095 0.0178749  0.0569568 -1.0928 0.0205553  0.100294 -1.1144 0.0230188  0.0836487 -1.16761 0.0189235  0.0547454 -1.09683 0.0152193  0.0387211 -1.14743 0.0143792  0.0981214 -1.11838 0.0170776  0.039734 -1.14568 0.0168861  0.0407844 -1.14362 0.01943  0.0673735 -1.21877 0.017845  0.0229475 -1.19653 0.0159254  0.0239532 -1.19456 0.0183203  0.0683362 -1.21683 0.0204898  0.0503318 -1.27009 0.0167868  0.0220017 -1.19816 0.0135517  0.00454926 -1.2491 0.0127627  0.0664234 -1.22038 0.0151933  0.00544071 -1.24753 0.0149963  0.00635767 -1.24569 0.0172614  0.0326526 -1.32149 0.0157802  -0.0126796 -1.29866 0.0140966  -0.0118093 -1.2969 0.016221  0.0334873 -1.31975 0.0181215  0.014298 -1.37299 0.0147905  -0.0135062 -1.30011 0.0119869  -0.0322139 -1.35128 0.0112475  0.0318251 -1.32292 0.0134274  -0.0314391 -1.34989 0.0132257  -0.030653 -1.34825 0.0152351  -0.00460529 -1.42453 0.0138515  -0.0507283 -1.40119 0.0123841  -0.0499859 -1.39962 0.0142607  -0.00389528 -1.42298 0.0159151  -0.0241039 -1.47612 0.0129266  -0.0514398 -1.40248 0.0105197  -0.0712361 -1.4538 0.00982815  -0.00531936 -1.4258 0.0117775  -0.070575 -1.45255 0.0115704  -0.0699124 -1.4511 0.0133384  -0.0440726 -1.52771 0.0120478  -0.0908778 -1.50395 0.010781  -0.0902584 -1.50256 0.0124262  -0.0434842 -1.52633 0.0138524  -0.0645621 -1.57933 0.0111883  -0.0914776 -1.5051 0.0091455  -0.112218 -1.55648 0.00850004  -0.0446761 -1.52884 0.0102335  -0.111666 -1.55538 0.0100192  -0.111121 -1.55408 0.0115657  -0.0854511 -1.63091 0.0103759  -0.13284 -1.6068 0.00928861  -0.132335 -1.60557 0.0107206  -0.0849764 -1.62969 0.0119355  -0.106788 -1.68249 0.00957453  -0.133336 -1.60781 0.00786471  -0.154887 -1.6592 0.00726366  -0.0859482 -1.63192 0.00879872  -0.154431 -1.65823 0.00858146  -0.153999 -1.65709 0.00992066  -0.128462 -1.73401 0.0088172  -0.176348 -1.70962 0.00789785  -0.17595 -1.70854 0.00913405  -0.128097 -1.73294 0.0101522  -0.150523 -1.78551 0.00807697  -0.176752 -1.71052 0.0066734  -0.198984 -1.76186 0.00611609  -0.128865 -1.7349 0.00746363  -0.198619 -1.761 0.00724262  -0.198291 -1.76 0.00839031  -0.172855 -1.83692 0.00737929  -0.221159 -1.81232 0.00661302  -0.22086 -1.81137 0.00766563  -0.172588 -1.83598 0.00851309  -0.195521 -1.8883 0.00669467  -0.221472 -1.8131 0.00556785  -0.244277 -1.86436 0.00505328  -0.173172 -1.8377 0.00622571  -0.244001 -1.8636 0.00600475  -0.243765 -1.86273 0.00697738  -0.218411 -1.93957 0.0060516  -0.267055 -1.91482 0.00542438  -0.266841 -1.91399 0.00630885  -0.218227 -1.93875 0.00699812  -0.241571 -1.99078 0.00542653  -0.267287 -1.9155 0.00454664  -0.290561 -1.96663 0.00407183  -0.218642 -1.94025 0.00508767  -0.290356 -1.96597 0.00486571  -0.290201 -1.96522 0.00567985  -0.264904 -2.04189 0.00484294  -0.313828 -2.01704 0.00433546  -0.313693 -2.01633 0.005068  -0.264794 -2.04119 0.00561517  -0.288466 -2.09292 0.00426823  -0.313991 -2.01763 0.00360817  -0.33764 -2.06861 0.00317854  -0.265065 -2.04248 0.00404668  -0.337505 -2.06804 0.00382382  -0.337421 -2.0674 0.00449151  -0.312165 -2.14384 0.0037387  -0.361307 -2.11895 0.00334293  -0.361239 -2.11834 0.0039342  -0.312118 -2.14325 0.00435871  -0.336046 -2.19469 0.00322169  -0.361408 -2.11946 0.00275457  -0.38535 -2.17027 0.00236505  -0.312259 -2.14436 0.00310016  -0.385273 -2.16978 0.00287956  -0.38525 -2.16924 0.00341415  -0.360017 -2.2454 0.00274867  -0.409324 -2.22051 0.00244451  -0.409313 -2.22 0.00291252  -0.360025 -2.2449 0.00323272  -0.384132 -2.29604 0.00228685  -0.409374 -2.22094 0.00198251  -0.433534 -2.27157 0.00163364  -0.360058 -2.24584 0.00224704  -0.433501 -2.27115 0.00203043  -0.43353 -2.2707 0.00244761  -0.408302 -2.34654 0.00186831  -0.457732 -2.32168 0.00164741  -0.457763 -2.32126 0.00200653  -0.408357 -2.34612 0.00222534  -0.432587 -2.39696 0.00146168  -0.45774 -2.32205 0.00129426  -0.48205 -2.37248 0.000986874  -0.408301 -2.34692 0.00149047  -0.482054 -2.37213 0.00128222  -0.482119 -2.37176 0.00159419  -0.456897 -2.44726 0.00110006  -0.506405 -2.42247 0.000946283  -0.506469 -2.42212 0.00120664  -0.456978 -2.44692 0.00135428  -0.481289 -2.49747 0.00074923  -0.506377 -2.42277 0.000691354  -0.530782 -2.47301 0.000422359  -0.456859 -2.44758 0.000832379  -0.530819 -2.47271 0.00062567  -0.530905 -2.47241 0.000848293  -0.505679 -2.54756 0.000443757  -0.55523 -2.52285 0.000341177  -0.555311 -2.52257 0.000518084  -0.505783 -2.54728 0.000605941  -0.530125 -2.59755 0.000150561  -0.555179 -2.52311 0.000167847  -0.579628 -2.57315 -5.59092e-05  -0.505623 -2.54783 0.000259578  -0.579681 -2.57289 7.11083e-05  -0.579776 -2.57266 0.000217021  -0.554546 -2.64744 -9.91225e-05  -0.604109 -2.62284 -0.000169635  -0.604196 -2.62261 -6.18696e-05  -0.55465 -2.64722 -8.52346e-06  -0.578994 -2.69725 -0.000341058  -0.604049 -2.62306 -0.000274777  -0.628497 -2.67292 -0.000464618  -0.554472 -2.64769 -0.000206769  -0.628555 -2.67269 -0.000399172  -0.628651 -2.67249 -0.000317037  -0.60341 -2.74697 -0.000540614  -0.652971 -2.72246 -0.000600696  -0.653052 -2.72225 -0.000547647  -0.603506 -2.74677 -0.000506818  -0.627832 -2.79663 -0.000740469  -0.6529 -2.72266 -0.000654638  -0.677328 -2.77237 -0.000823081  -0.60333 -2.74721 -0.000597  -0.67739 -2.77215 -0.00080651  -0.677475 -2.77196 -0.000771821  -0.652231 -2.84625 -0.000923812  -0.701785 -2.82178 -0.000996292  -0.701864 -2.82157 -0.000989079  -0.652306 -2.84604 -0.000928044  -0.676659 -2.89584 -0.00112975  -0.701723 -2.82199 -0.00100017  -0.726146 -2.87161 -0.00117642  -0.652156 -2.84649 -0.000939488  -0.726199 -2.87138 -0.00120455  -0.726275 -2.87118 -0.00120729  -0.00646123 -0.00514909 -0.00973797  -0.00878577 -0.00951605 -0.0116847  -0.0178408 -0.0145371 -0.0181761  -0.0093669 -0.0108831 -0.00920779  -0.0258701 -0.0245062 -0.0163781  -0.0225071 -0.0225229 -0.0107225  0 0 0  -0.022019 -0.0210107 -0.0140051  0 0 0  0 0 0  -0.00646382 -0.00594573 -0.00737625  0 0 0  -0.0402387 -0.0312251 -0.0255282  -0.0256785 -0.0219127 -0.0217175  -0.0313686 -0.0253641 -0.0243946  -0.0426751 -0.0320958 -0.0288941  -0.0455567 -0.0379867 -0.028475  -0.0429067 -0.0359103 -0.0221688  -0.0603462 -0.0482852 -0.0262762  -0.0599856 -0.0441958 -0.0258192  -0.0585744 -0.0399791 -0.033514  -0.031143 -0.0287241 -0.0187402  -0.0780422 -0.0504038 -0.0394049  -0.0600128 -0.0435427 -0.0337184  -0.0602122 -0.0528949 -0.030915  -0.0773457 -0.0569558 -0.0365134  -0.0749396 -0.0699631 -0.031956  -0.0778207 -0.062029 -0.0287062  -0.0954521 -0.0778445 -0.0299881  -0.0987312 -0.0678302 -0.0332495  -0.0977041 -0.0624024 -0.0424133  -0.0603888 -0.0573694 -0.0243917  -0.117637 -0.0766105 -0.0437882  -0.0947481 -0.0726487 -0.0376837  -0.0898653 -0.0892795 -0.0320514  -0.11223 -0.0907364 -0.0377941  -0.105185 -0.110791 -0.0314347  -0.113301 -0.0958155 -0.0302665  -0.131246 -0.115807 -0.0298358  -0.138839 -0.0987795 -0.0349392  -0.13766 -0.0932943 -0.0438073  -0.0908215 -0.0938673 -0.0257646  -0.15758 -0.111927 -0.0428242  -0.129894 -0.11095 -0.0370082  -0.120786 -0.13417 -0.0303766  -0.147742 -0.133205 -0.0357703  -0.136875 -0.159408 -0.0290217  -0.149415 -0.137764 -0.0289548  -0.167692 -0.161463 -0.0277272  -0.179189 -0.137762 -0.0333632  -0.177596 -0.13281 -0.0413722  -0.122431 -0.138384 -0.0246679  -0.197494 -0.155379 -0.0394242  -0.165805 -0.157225 -0.0341439  -0.15329 -0.186214 -0.0275201  -0.184093 -0.182934 -0.0323896  -0.170156 -0.214557 -0.0259451  -0.186174 -0.186836 -0.026356  -0.2048 -0.213717 -0.0248722  -0.219446 -0.184039 -0.030358  -0.217501 -0.179807 -0.0374196  -0.155377 -0.189885 -0.0224534  -0.237488 -0.205724 -0.0352243  -0.202595 -0.210138 -0.0305277  -0.187365 -0.244258 -0.0243717  -0.22135 -0.238775 -0.0286967  -0.204984 -0.275268 -0.0228337  -0.223632 -0.242043 -0.0233989  -0.24265 -0.271701 -0.0219324  -0.259743 -0.236717 -0.0269708  -0.257608 -0.23319 -0.0331503  -0.189671 -0.247375 -0.0199184  -0.277801 -0.261983 -0.0310417  -0.240323 -0.268717 -0.0268933  -0.222954 -0.307481 -0.0213619  -0.259574 -0.299919 -0.025186  -0.241309 -0.340841 -0.0199689  -0.261898 -0.302634 -0.0205441  -0.281373 -0.334764 -0.0192125  -0.300342 -0.29503 -0.0237096  -0.29816 -0.292114 -0.0291162  -0.225306 -0.3101 -0.0174581  -0.318665 -0.323436 -0.0272201  -0.279058 -0.332285 -0.0235597  -0.260014 -0.375282 -0.0186614  -0.298838 -0.365772 -0.022041  -0.279095 -0.410749 -0.0174389  -0.301099 -0.368031 -0.017972  -0.321085 -0.40238 -0.0168052  -0.341495 -0.35836 -0.0207749  -0.339366 -0.355941 -0.0255075  -0.262305 -0.377482 -0.0152446  -0.360262 -0.389521 -0.0238501  -0.318871 -0.400309 -0.0206154  -0.298523 -0.44719 -0.0163006  -0.339208 -0.43586 -0.0192931  -0.318317 -0.484553 -0.0152404  -0.341342 -0.437751 -0.0157281  -0.361875 -0.474103 -0.0147156  -0.383389 -0.426192 -0.0182077  -0.381377 -0.424171 -0.0223574  -0.300686 -0.449043 -0.0133107  -0.402707 -0.459787 -0.0209185  -0.359808 -0.47236 -0.0180568  -0.338452 -0.522798 -0.0142531  -0.380714 -0.50978 -0.0169068  -0.35894 -0.561876 -0.0133317  -0.382688 -0.511373 -0.0137827  -0.403787 -0.549536 -0.0129056  -0.426145 -0.498084 -0.0159857  -0.424276 -0.496378 -0.019623  -0.340453 -0.524369 -0.0116413  -0.446071 -0.533844 -0.018367  -0.401887 -0.548059 -0.0158324  -0.379756 -0.601747 -0.0124724  -0.423362 -0.587171 -0.0148265  -0.40091 -0.642368 -0.0116686  -0.425164 -0.588523 -0.0120956  -0.446822 -0.628317 -0.0113296  -0.469815 -0.573652 -0.0140456  -0.468108 -0.572198 -0.017233  -0.381583 -0.603086 -0.0101973  -0.490368 -0.611344 -0.0161318  -0.445097 -0.627059 -0.0138875  -0.42237 -0.6837 -0.0109149  -0.467116 -0.667698 -0.0130028  -0.444149 -0.725706 -0.01021  -0.468748 -0.668849 -0.0106221  -0.490943 -0.710112 -0.00994861  -0.51441 -0.652537 -0.0123467  -0.512864 -0.651294 -0.015129  -0.424021 -0.684847 -0.00893956  -0.535584 -0.691958 -0.0141588  -0.489388 -0.709033 -0.0121744  -0.466213 -0.768347 -0.00954634  -0.511925 -0.751044 -0.0113928  -0.488568 -0.811588 -0.00892276  -0.513389 -0.752031 -0.00932521  -0.53609 -0.794608 -0.00872695  -0.55991 -0.734416 -0.0108495  -0.558526 -0.733344 -0.0132719  -0.467694 -0.76933 -0.00783628  -0.581674 -0.775374 -0.0124063  -0.534699 -0.793682 -0.0106574  -0.511184 -0.855397 -0.00833255  -0.557715 -0.836924 -0.00996053  -0.534066 -0.899741 -0.00777662  -0.55902 -0.837769 -0.00817436  -0.582187 -0.881519 -0.00764322  -0.606263 -0.818981 -0.00951618  -0.605029 -0.818058 -0.0116134  -0.512507 -0.856242 -0.00686425  -0.628575 -0.861318 -0.0108413  -0.58095 -0.880724 -0.0093044  -0.557177 -0.944584 -0.00725168  -0.604397 -0.925062 -0.00868291  -0.580528 -0.989902 -0.00675923  -0.605554 -0.925785 -0.00715345  -0.629134 -0.97058 -0.00667924  -0.653397 -0.905954 -0.00832975  -0.652305 -0.90516 -0.0101307  -0.55835 -0.945309 -0.00599951  -0.676205 -0.949514 -0.00944084  -0.62804 -0.969897 -0.00809795  -0.604078 -1.03566 -0.00629121  -0.651869 -1.01521 -0.00753874  -0.627835 -1.08183 -0.00585371  -0.652886 -1.01583 -0.00623828  -0.676829 -1.06154 -0.00581533  -0.701226 -0.995074 -0.00726694  -0.700268 -0.994389 -0.00880057  -0.605108 -1.03628 -0.00523275  -0.724479 -1.03971 -0.00818419  -0.67587 -1.06096 -0.00701833  -0.651763 -1.12838 -0.00543535  -0.70003 -1.10712 -0.00651997  -0.675865 -1.1753 -0.00504649  -0.700916 -1.10765 -0.00542659  -0.725166 -1.15416 -0.00504935  -0.749662 -1.08609 -0.00631875  -0.74883 -1.0855 -0.00761527  -0.652661 -1.12892 -0.00455207  -0.773299 -1.13168 -0.00705922  -0.724332 -1.15367 -0.00605464  -0.700109 -1.22255 -0.00467384  -0.748765 -1.20058 -0.00561047  -0.724503 -1.27011 -0.00433314  -0.749533 -1.20102 -0.00470114  -0.774038 -1.24824 -0.00436556  -0.798606 -1.17877 -0.00547117  -0.797885 -1.17827 -0.00654876  -0.700891 -1.223 -0.0039494  -0.822576 -1.2252 -0.0060575  -0.773319 -1.24782 -0.00519723  -0.749007 -1.31795 -0.0040046  -0.797975 -1.29538 -0.00480348  -0.773631 -1.36606 -0.00370455  -0.798635 -1.29575 -0.00406027  -0.823342 -1.34358 -0.00376451  -0.847963 -1.27291 -0.00471336  -0.84735 -1.27248 -0.00560069  -0.749675 -1.31834 -0.00341654  -0.872203 -1.32006 -0.00516349  -0.822728 -1.34322 -0.00443959  -0.798337 -1.41441 -0.00341618  -0.847553 -1.39132 -0.00409132  -0.823135 -1.46299 -0.00315285  -0.84811 -1.39164 -0.00349617  -0.872971 -1.43998 -0.00323439  -0.897638 -1.3683 -0.00405282  -0.89712 -1.36793 -0.00476581  -0.798904 -1.41474 -0.00295359  -0.922096 -1.41607 -0.00438046  -0.872452 -1.43967 -0.00377017  -0.847996 -1.51176 -0.0029037  -0.8974 -1.48825 -0.0034681  -0.872919 -1.56072 -0.00267953  -0.897871 -1.48851 -0.00300384  -0.922832 -1.53728 -0.00277859  -0.947541 -1.46477 -0.00346947  -0.947108 -1.46446 -0.00402665  -0.84847 -1.51204 -0.00254917  -0.972161 -1.51305 -0.00369364  -0.922401 -1.53702 -0.00319141  -0.897878 -1.60984 -0.00246662  -0.947426 -1.58598 -0.00293148  -0.922879 -1.6591 -0.0022788  -0.947811 -1.5862 -0.00258005  -0.972835 -1.63532 -0.00238889  -0.99758 -1.56213 -0.0029636  -0.997227 -1.56186 -0.00339162  -0.89827 -1.61007 -0.00220335  -1.02232 -1.61085 -0.00310355  -0.97248 -1.6351 -0.00269544  -0.947894 -1.7085 -0.00209993  -0.99754 -1.68437 -0.00247508  -0.972933 -1.758 -0.00194889  -0.997851 -1.68455 -0.00222325  -1.0229 -1.73395 -0.00206405  -1.04768 -1.66023 -0.00253642  -1.0474 -1.66 -0.00284755  -0.948211 -1.7087 -0.00191939  -1.07249 -1.7093 -0.00260478  -1.02262 -1.73376 -0.00228035  -0.997964 -1.80761 -0.0018034  -1.04767 -1.78327 -0.00209904  -1.023 -1.85729 -0.00168329  -1.04792 -1.78343 -0.00193125  -1.07295 -1.83304 -0.00180316  -1.09777 -1.75892 -0.00218093  -1.09756 -1.75873 -0.0023917  -0.998211 -1.80778 -0.00169063  -1.12262 -1.80827 -0.00219637  -1.07273 -1.83288 -0.0019452  -1.04801 -1.90704 -0.00156885  -1.09776 -1.88257 -0.00179923  -1.07302 -1.95685 -0.00148296  -1.09794 -1.8827 -0.00169939  -1.12294 -1.93245 -0.00160331  -1.1478 -1.85807 -0.00189227  -1.14764 -1.8579 -0.00202286  -1.04821 -1.90719 -0.00151229  -1.17265 -1.90761 -0.00187033  -1.12277 -1.93232 -0.00168246  -1.09799 -2.00669 -0.00140369  -1.14774 -1.98212 -0.00157684  -1.12293 -2.05657 -0.00134778  -1.14788 -1.98223 -0.00153166  -1.17281 -2.03208 -0.00146288  -1.19772 -1.95753 -0.00168031  -1.1976 -1.95738 -0.00174177  -1.09813 -2.00682 -0.00138819  -1.22253 -2.00721 -0.00163531  -1.17269 -2.03196 -0.00149667  -1.14783 -2.10645 -0.0012995  -1.19757 -2.08183 -0.00142282  -1.1727 -2.15635 -0.00127274  -1.19767 -2.08193 -0.00141782  -1.22252 -2.13182 -0.00137764  -1.24747 -2.0572 -0.00153267  -1.2474 -2.05707 -0.00154293  -1.14793 -2.10657 -0.00131476  -1.27224 -2.10697 -0.00147414  -1.22243 -2.13172 -0.00137877  -1.19751 -2.20624 -0.00125295  -1.24723 -2.18161 -0.00134498  -1.22228 -2.25611 -0.00125664  -1.2473 -2.18169 -0.00136429  -1.27206 -2.23158 -0.00135154  -1.29706 -2.15697 -0.00144953  -1.29701 -2.15686 -0.00142777  -1.19758 -2.20634 -0.00128627  -1.32175 -2.20676 -0.00140262  -1.272 -2.23148 -0.00133747  -1.24701 -2.30596 -0.0012632  -1.29671 -2.28134 -0.00133067  -1.27169 -2.35577 -0.00128895  -1.29675 -2.28141 -0.00136209  -1.32142 -2.33125 -0.00137258  -1.34646 -2.25673 -0.00142908  -1.34643 -2.25664 -0.00139284  -1.24705 -2.30605 -0.00130445  -1.37108 -2.3065 -0.001405  -1.32138 -2.33117 -0.00134987  -1.29631 -2.40554 -0.00131267  -1.34599 -2.38096 -0.00137025  -1.3209 -2.45528 -0.00135112  -1.34603 -2.38102 -0.00140315  -1.37063 -2.43079 -0.00142348  -1.3957 -2.35641 -0.00146258  -1.39568 -2.35632 -0.00142401  -1.29634 -2.40564 -0.00135207  -1.42026 -2.40611 -0.00145376  -1.37058 -2.43071 -0.00140381  -1.34545 -2.50496 -0.001378  -1.39513 -2.48041 -0.00143117  -1.36999 -2.55461 -0.00141269  -1.39517 -2.48048 -0.00145674  -1.41973 -2.53016 -0.00147575  -1.44484 -2.45591 -0.00151223  -1.44481 -2.45584 -0.00148106  -1.34548 -2.50505 -0.00141215  -1.46936 -2.50553 -0.00151521  -1.41969 -2.53008 -0.00146359  -0.00319891 -0.00164238 -0.0061478  -0.00447469 -0.00271615 -0.00786561  -0.00849994 -0.00814746 -0.011705  -0.00443987 -0.0037262 -0.00608367  -0.0120691 -0.0123165 -0.0112587  0 0 0  0 0 0  -0.00327215 -0.00251338 -0.00469452  0 0 0  -0.0119088 -0.0101201 -0.0148199  -0.0154889 -0.0188662 -0.0159044  -0.0223277 -0.0211695 -0.0200951  -0.0236644 -0.032844 -0.018675  -0.0220953 -0.0240465 -0.0154004  -0.0334212 -0.0381475 -0.0184393  -0.0153137 -0.0214336 -0.0122551  -0.0335966 -0.0346077 -0.0235837  -0.032494 -0.0492865 -0.0203485  -0.0452973 -0.0503856 -0.0255752  -0.041994 -0.0682764 -0.0210851  -0.0454142 -0.0543088 -0.020225  -0.0579307 -0.0726962 -0.0211648  -0.0326354 -0.0527841 -0.0161658  -0.0575044 -0.0685593 -0.0264884  -0.0519726 -0.0894628 -0.0211896  -0.0699509 -0.0888773 -0.026563  -0.0625879 -0.11279 -0.0207836  -0.0708359 -0.0930534 -0.0214059  -0.0841586 -0.11548 -0.0210933  -0.0528281 -0.0932884 -0.0171454  -0.0829145 -0.111376 -0.0260519  -0.0737777 -0.138044 -0.0200932  -0.0963358 -0.135758 -0.0251781  -0.085675 -0.165117 -0.0191805  -0.0979341 -0.139694 -0.0204936  -0.11217 -0.165716 -0.0196049  -0.0753043 -0.141759 -0.0164137  -0.110321 -0.161974 -0.0240487  -0.0981978 -0.1938 -0.0181724  -0.124834 -0.189779 -0.0227997  -0.111436 -0.224021 -0.0171019  -0.126891 -0.193272 -0.0186403  -0.142092 -0.222381 -0.0175635  -0.10017 -0.197179 -0.0149103  -0.139899 -0.219111 -0.0214831  -0.125294 -0.255595 -0.016032  -0.155484 -0.249799 -0.0201662  -0.139824 -0.288483 -0.0149752  -0.157764 -0.252806 -0.0165089  -0.173914 -0.284582 -0.0154405  -0.127486 -0.258563 -0.0131695  -0.171588 -0.281786 -0.0188753  -0.15494 -0.322536 -0.0139646  -0.188182 -0.314956 -0.0176391  -0.170681 -0.357731 -0.0130038  -0.190514 -0.317512 -0.014438  -0.207582 -0.351633 -0.0134666  -0.15719 -0.325097 -0.0114728  -0.205264 -0.349261 -0.0164665  -0.186968 -0.393948 -0.0121017  -0.222808 -0.384616 -0.0153643  -0.203831 -0.431171 -0.0112599  -0.225077 -0.386779 -0.0125687  -0.243035 -0.42299 -0.0117192  -0.189164 -0.396141 -0.00993896  -0.240816 -0.420978 -0.0143363  -0.221205 -0.469302 -0.0104759  -0.259259 -0.458283 -0.0133755  -0.239115 -0.508328 -0.00974828  -0.261405 -0.460116 -0.0109395  -0.280219 -0.4982 -0.0102056  -0.223285 -0.471179 -0.00860447  -0.278143 -0.49649 -0.0124858  -0.2575 -0.548162 -0.00907397  -0.29744 -0.535543 -0.0116542  -0.276381 -0.588791 -0.00844675  -0.299427 -0.5371 -0.00953478  -0.319065 -0.576864 -0.00890285  -0.259429 -0.549771 -0.00746006  -0.317154 -0.575403 -0.0108843  -0.295707 -0.630142 -0.00786555  -0.337256 -0.616024 -0.0101629  -0.31549 -0.672198 -0.00732589  -0.339072 -0.617353 -0.00832576  -0.359489 -0.658618 -0.00777918  -0.297472 -0.631524 -0.00647873  -0.35775 -0.657368 -0.00949502  -0.335678 -0.714895 -0.00682276  -0.378602 -0.699389 -0.00886554  -0.356287 -0.758219 -0.00635433  -0.380247 -0.700527 -0.00727826  -0.401387 -0.743129 -0.00680238  -0.337278 -0.716087 -0.00563735  -0.399822 -0.742055 -0.00828189  -0.377266 -0.802109 -0.00591576  -0.421368 -0.785325 -0.00773036  -0.39863 -0.84655 -0.00550818  -0.422844 -0.786301 -0.00636423  -0.444651 -0.830091 -0.00594497  -0.378705 -0.803135 -0.00491142  -0.443248 -0.829168 -0.00721604  -0.420322 -0.891488 -0.00512505  -0.465423 -0.873544 -0.00672942  -0.44236 -0.936912 -0.00476807  -0.466744 -0.874382 -0.00556445  -0.489154 -0.919221 -0.00519443  -0.421607 -0.892375 -0.00427675  -0.487904 -0.918428 -0.00627619  -0.464692 -0.982771 -0.00443244  -0.510645 -0.963782 -0.00584614  -0.487328 -1.02905 -0.00411987  -0.511813 -0.964498 -0.00485706  -0.53476 -1.01026 -0.00452971  -0.465831 -0.983536 -0.00372332  -0.533656 -1.00958 -0.00544441  -0.51022 -1.07571 -0.0038228  -0.556892 -1.05579 -0.00506043  -0.533376 -1.12273 -0.0035491  -0.557921 -1.0564 -0.0042336  -0.581338 -1.10297 -0.00394315  -0.511223 -1.07637 -0.00324047  -0.580366 -1.10238 -0.00470728  -0.556754 -1.17008 -0.00328881  -0.604033 -1.14934 -0.00436735  -0.580359 -1.21775 -0.00305086  -0.604933 -1.14986 -0.00368011  -0.628749 -1.19713 -0.00342703  -0.557631 -1.17065 -0.00281745  -0.627902 -1.19662 -0.00405455  -0.604146 -1.26569 -0.00282449  -0.651929 -1.24422 -0.00375509  -0.628124 -1.3139 -0.00261891  -0.652711 -1.24466 -0.00319684  -0.676863 -1.29253 -0.00297523  -0.604907 -1.26618 -0.00245047  -0.67613 -1.2921 -0.00348181  -0.652252 -1.36234 -0.00242376  -0.700457 -1.34024 -0.00321895  -0.676537 -1.411 -0.00224549  -0.70113 -1.34062 -0.00277203  -0.725553 -1.38899 -0.00257808  -0.652907 -1.36276 -0.00213528  -0.724925 -1.38862 -0.00298136  -0.700941 -1.45986 -0.00207829  -0.749489 -1.43723 -0.0027532  -0.725467 -1.5089 -0.00192755  -0.75006 -1.43755 -0.00240672  -0.774696 -1.48634 -0.00223595  -0.701496 -1.46022 -0.00186688  -0.774164 -1.48603 -0.00254744  -0.750082 -1.5581 -0.00178671  -0.79891 -1.53502 -0.00235003  -0.774795 -1.60744 -0.00166541  -0.799389 -1.53528 -0.00208932  -0.824183 -1.58442 -0.00194931  -0.750547 -1.5584 -0.00163788  -0.823739 -1.58416 -0.00217813  -0.79956 -1.6569 -0.00154895  -0.848608 -1.63345 -0.00201309  -0.824398 -1.70648 -0.00145054  -0.849005 -1.63368 -0.00182974  -0.873906 -1.6831 -0.00171083  -0.799946 -1.65717 -0.00145864  -0.873539 -1.68287 -0.00187105  -0.849267 -1.75615 -0.00135761  -0.898487 -1.7324 -0.00173354  -0.874182 -1.80591 -0.00128329  -0.898808 -1.73259 -0.00161219  -0.923771 -1.78222 -0.00152045  -0.849576 -1.75638 -0.00131053  -0.923475 -1.78203 -0.00162131  -0.899106 -1.85572 -0.0012114  -0.948456 -1.83174 -0.00151533  -0.924058 -1.9056 -0.00116229  -0.948713 -1.83189 -0.0014447  -0.973693 -1.88167 -0.00137174  -0.899351 -1.85592 -0.00120342  -0.973462 -1.88151 -0.00143135  -0.948996 -1.9555 -0.00111777  -0.998441 -1.93133 -0.00134957  -0.97394 -2.00544 -0.00108778  -0.998637 -1.93147 -0.00132132  -1.0236 -1.98134 -0.00127178  -0.949182 -1.95567 -0.00113446  -1.02342 -1.9812 -0.00129253  -0.998857 -2.05539 -0.00106132  -1.04837 -2.0311 -0.00123918  -1.02377 -2.10536 -0.00105196  -1.04852 -2.03121 -0.00124037  -1.07344 -2.08114 -0.00121224  -0.998999 -2.05554 -0.00109869  -1.07331 -2.08101 -0.00120783  -1.04864 -2.15532 -0.00104713  -1.0982 -2.13093 -0.00118023  -1.07349 -2.20527 -0.00106055  -1.0983 -2.13103 -0.00120288  -1.12316 -2.18096 -0.001194  -1.04874 -2.15545 -0.00109571  -1.12306 -2.18085 -0.0011732  -1.09829 -2.25519 -0.00107628  -1.14787 -2.23075 -0.00117046  -1.12306 -2.30508 -0.00110632  -1.14794 -2.23084 -0.00120556  -1.17272 -2.28073 -0.00121421  -1.09835 -2.25531 -0.00112748  -1.17265 -2.28063 -0.00118762  -1.14777 -2.35494 -0.00113481  -1.19737 -2.33048 -0.00120407  -1.17245 -2.40476 -0.00118017  -1.19742 -2.33056 -0.00124115  -1.2221 -2.38039 -0.00126421  -1.14781 -2.35505 -0.00118595  -1.22206 -2.38029 -0.00123936  -1.19706 -2.45453 -0.00121576  -1.24667 -2.43006 -0.00126785  -1.22164 -2.50425 -0.00126696  -1.24671 -2.43014 -0.00130165  -1.2713 -2.47988 -0.00133044  -1.19709 -2.45464 -0.00126189  -1.27126 -2.47978 -0.0013085  -1.24616 -2.55391 -0.00130451  -1.2958 -2.52945 -0.00134295  -1.27066 -2.60351 -0.00135195  -1.29583 -2.52953 -0.0013687  -1.32037 -2.57917 -0.00139624  -1.24619 -2.55402 -0.00134087  -1.32033 -2.57907 -0.00138462  -0.000920806 -0.00147778 -0.00288385  -0.00193585 -0.00130254 -0.00451422  -0.00235706 -0.00798678 -0.0055877  -0.00197341 -0.00211051 -0.00350988  -0.00519253 -0.00918189 -0.00659209  0 0 0  0 0 0  -0.00100483 -0.00221863 -0.00224149  0 0 0  -0.00502147 -0.00757167 -0.00863361  -0.0044831 -0.0188962 -0.00773436  -0.00959218 -0.0183513 -0.0117829  -0.00734526 -0.0333596 -0.00921786  -0.00953238 -0.0205856 -0.00908405  -0.0150177 -0.0352513 -0.0109965  -0.00461368 -0.0208948 -0.00604457  -0.0149528 -0.0324816 -0.0139484  -0.0108686 -0.0508468 -0.0101842  -0.0211485 -0.0494973 -0.0152276  -0.0152056 -0.0710162 -0.010646  -0.0214222 -0.0526419 -0.0121356  -0.0285872 -0.0725455 -0.0127634  -0.0113217 -0.0537258 -0.00819319  -0.0280408 -0.0691048 -0.0158425  -0.0202663 -0.0935347 -0.0107614  -0.0355498 -0.0910024 -0.0159281  -0.0261935 -0.118231 -0.0105715  -0.0364586 -0.0945532 -0.0129487  -0.0450197 -0.118676 -0.0127639  -0.021236 -0.0968617 -0.00882006  -0.0438084 -0.115071 -0.0156469  -0.0329375 -0.144897 -0.010219  -0.0527794 -0.141071 -0.0151142  -0.0406111 -0.173403 -0.00971687  -0.0542839 -0.144603 -0.0124084  -0.0642797 -0.172352 -0.0118405  -0.0344056 -0.148291 -0.00846338  -0.0625514 -0.168908 -0.0144171  -0.0491511 -0.203566 -0.0091567  -0.0730993 -0.19837 -0.0136344  -0.0586251 -0.235293 -0.0085429  -0.075003 -0.201642 -0.0112379  -0.0864809 -0.232506 -0.0105421  -0.0509635 -0.206779 -0.00762308  -0.0844495 -0.229381 -0.0127996  -0.0689557 -0.268412 -0.00793201  -0.096567 -0.261765 -0.011962  -0.0801854 -0.302868 -0.00732017  -0.0986757 -0.264682 -0.0098722  -0.111607 -0.298222 -0.00917768  -0.0709503 -0.271325 -0.00662118  -0.109452 -0.295467 -0.0111336  -0.092223 -0.338505 -0.00673705  -0.123057 -0.330345 -0.0103416  -0.1051 -0.375296 -0.00618064  -0.125219 -0.332892 -0.0085364  -0.139529 -0.368754 -0.00790328  -0.0942672 -0.341085 -0.00563294  -0.137377 -0.366361 -0.00958604  -0.118723 -0.413099 -0.00566161  -0.15236 -0.403399 -0.00887829  -0.133118 -0.451902 -0.00517869  -0.154475 -0.405599 -0.00732851  -0.170076 -0.443496 -0.00677836  -0.120725 -0.415355 -0.00474304  -0.168005 -0.44143 -0.00821781  -0.148199 -0.491587 -0.00473416  -0.18426 -0.48036 -0.00760436  -0.163988 -0.532143 -0.00432503  -0.186267 -0.482255 -0.00628227  -0.203072 -0.521945 -0.00581282  -0.150104 -0.493547 -0.0039773  -0.201127 -0.520163 -0.00703883  -0.180403 -0.573467 -0.00395179  -0.218553 -0.560761 -0.00651491  -0.197461 -0.615553 -0.00360918  -0.220417 -0.562392 -0.00539058  -0.238336 -0.603666 -0.00499243  -0.182177 -0.575171 -0.00333536  -0.236542 -0.602126 -0.00603259  -0.215092 -0.658311 -0.00329769  -0.255041 -0.644196 -0.00558537  -0.233309 -0.701736 -0.00301355  -0.256751 -0.645602 -0.00463676  -0.275697 -0.688272 -0.00429863  -0.216722 -0.659792 -0.00280386  -0.27406 -0.686942 -0.00517577  -0.252046 -0.745746 -0.00275427  -0.293542 -0.730308 -0.00479323  -0.271313 -0.790336 -0.00251782  -0.295095 -0.731522 -0.00399661  -0.314978 -0.775419 -0.00370961  -0.253528 -0.747033 -0.00236475  -0.313497 -0.774268 -0.00444174  -0.291045 -0.835436 -0.00229955  -0.333871 -0.818773 -0.00411361  -0.311256 -0.881039 -0.00210345  -0.335267 -0.819823 -0.0034517  -0.356002 -0.864795 -0.00320464  -0.292381 -0.836557 -0.00199991  -0.354674 -0.863797 -0.00381273  -0.33188 -0.927082 -0.00191957  -0.375847 -0.909295 -0.00352806  -0.352934 -0.973562 -0.00175929  -0.377097 -0.910203 -0.00298625  -0.398594 -0.956113 -0.00277245  -0.333076 -0.928059 -0.00170028  -0.397409 -0.955248 -0.00326991  -0.374354 -1.02042 -0.00160664  -0.419297 -1.00161 -0.003025  -0.39615 -1.06765 -0.00147164  -0.420406 -1.0024 -0.00258583  -0.442579 -1.04912 -0.00240099  -0.375414 -1.02127 -0.00144982  -0.441529 -1.04837 -0.00280213  -0.418268 -1.1152 -0.00134683  -0.464044 -1.09548 -0.00259149  -0.440711 -1.16307 -0.00123632  -0.465025 -1.09616 -0.00224239  -0.487783 -1.14357 -0.00208294  -0.419203 -1.11594 -0.00124633  -0.486858 -1.14293 -0.00240046  -0.46343 -1.21121 -0.00113308  -0.509915 -1.19068 -0.00221628  -0.486431 -1.25962 -0.00104332  -0.510775 -1.19126 -0.00194716  -0.534039 -1.23927 -0.00181365  -0.464249 -1.21185 -0.00107837  -0.533233 -1.23871 -0.00205666  -0.509666 -1.30825 -0.000961781  -0.55675 -1.287 -0.0018993  -0.533137 -1.35711 -0.000890911  -0.557495 -1.2875 -0.00169855  -0.581186 -1.33602 -0.00158358  -0.510374 -1.30881 -0.000947773  -0.580489 -1.33553 -0.00176108  -0.556801 -1.40615 -0.000825644  -0.604391 -1.38428 -0.00163084  -0.580668 -1.45538 -0.000773251  -0.605033 -1.38471 -0.00148934  -0.629077 -1.43364 -0.00139213  -0.55741 -1.40664 -0.000846088  -0.62848 -1.43322 -0.00151706  -0.604684 -1.50475 -0.000722408  -0.652693 -1.48234 -0.00140601  -0.628863 -1.55427 -0.00068593  -0.65324 -1.4827 -0.00131691  -0.677565 -1.53197 -0.00123811  -0.6052 -1.50517 -0.000769734  -0.677061 -1.53161 -0.00131589  -0.653161 -1.60389 -0.000652254  -0.70152 -1.58103 -0.00122601  -0.677584 -1.65364 -0.000632286  -0.701977 -1.58134 -0.00117898  -0.726521 -1.63088 -0.00111759  -0.653592 -1.60425 -0.000719428  -0.726098 -1.63057 -0.00115526  -0.702096 -1.70346 -0.000609636  -0.75074 -1.68022 -0.00108367  -0.726705 -1.75337 -0.000603557  -0.751119 -1.68048 -0.00107336  -0.775822 -1.73022 -0.00102878  -0.702451 -1.70377 -0.000692129  -0.775475 -1.72996 -0.00103503  -0.75137 -1.80333 -0.000597  -0.800244 -1.77977 -0.000983298  -0.776104 -1.85335 -0.000602722  -0.80055 -1.78 -0.000999689  -0.825358 -1.82988 -0.000967801  -0.751653 -1.8036 -0.000689507  -0.825079 -1.82966 -0.000949383  -0.800866 -1.90339 -0.000607252  -0.849925 -1.87959 -0.000917196  -0.825675 -1.95347 -0.000624716  -0.850167 -1.87978 -0.00095439  -0.875033 -1.92976 -0.000934243  -0.801091 -1.90363 -0.000705659  -0.874816 -1.92956 -0.000900567  -0.850492 -2.00356 -0.000642002  -0.899693 -1.97956 -0.000883758  -0.875327 -2.05365 -0.000674784  -0.899879 -1.97972 -0.000937343  -0.924762 -2.02974 -0.000932038  -0.850659 -2.00376 -0.000742555  -0.924595 -2.02957 -0.000885725  -0.900154 -2.10374 -0.000701487  -0.949468 -2.07959 -0.000888169  -0.924987 -2.15382 -0.000744283  -0.949605 -2.07973 -0.000945807  -0.974471 -2.12976 -0.000954092  -0.900277 -2.10392 -0.00079602  -0.974349 -2.12961 -0.000901937  -0.949792 -2.20387 -0.000783443  -0.999185 -2.17961 -0.000918984  -0.974585 -2.25389 -0.000835836  -0.999281 -2.17973 -0.000981331  -1.0241 -2.22973 -0.00100422  -0.949874 -2.20402 -0.000871658  -1.02402 -2.2296 -0.000952959  -0.999335 -2.30387 -0.00088805  -1.04879 -2.27955 -0.000987828  -1.02406 -2.35382 -0.000948906  -1.04885 -2.27966 -0.00104314  -1.0736 -2.32959 -0.0010767  -0.999387 -2.30401 -0.000963509  -1.07355 -2.32947 -0.00103414  -1.04874 -2.40371 -0.00100332  -1.09824 -2.37934 -0.00107288  -1.07339 -2.45355 -0.00106984  -1.09828 -2.37944 -0.00112188  -1.12295 -2.42928 -0.00116235  -1.04877 -2.40384 -0.00106794  -1.12291 -2.42917 -0.00112689  -1.09798 -2.50333 -0.00112987  -1.14751 -2.47895 -0.00117952  -1.12253 -2.55306 -0.0011968  -1.14754 -2.47904 -0.00121653  -1.17211 -2.52877 -0.00125849  -1.09799 -2.50345 -0.00117546  -1.17208 -2.52866 -0.00123656  -1.14701 -2.6027 -0.00125545  -1.19658 -2.57831 -0.00128061  -1.17145 -2.65226 -0.00132328  -1.1966 -2.5784 -0.00130916  -1.22109 -2.628 -0.00135428  -1.14703 -2.60282 -0.00128931  -1.22105 -2.62789 -0.00133878  0.00102856 -0.00291753 0.00030148  0.000113785 -0.00207362 -0.00128943  0.00282791 -0.0107117 0.000322938  3.99947e-05 -0.00270751 -0.00107765  0.000134721 -0.0103147 -0.00210816  0 0 0  0 0 0  0.000938162 -0.00354108 0.000142097  0 0 0  0.000402436 -0.00904503 -0.00264698  0.00492105 -0.0227273 0.000132501  0.000339001 -0.0204341 -0.00374609  0.00675565 -0.0381553 -0.000121057  5.45532e-05 -0.0222424 -0.00299764  -0.000546679 -0.0375897 -0.00378585  0.00444163 -0.0243987 -6.04391e-05  -8.07196e-05 -0.0352926 -0.00464404  0.00807184 -0.0566953 -0.000419199  -0.00120515 -0.0532908 -0.00524372  0.00859377 -0.0778545 -0.000612438  -0.00183684 -0.0559748 -0.00430262  -0.00390807 -0.0769496 -0.00463212  0.00724071 -0.0592176 -0.00051105  -0.00307611 -0.0739518 -0.00558752  0.00823969 -0.101445 -0.000734985  -0.00577423 -0.0970176 -0.00569463  0.00686693 -0.127217 -0.000737965  -0.00683847 -0.100184 -0.00476897  -0.010671 -0.125569 -0.00471705  0.00708154 -0.104478 -0.000796318  -0.00940067 -0.122282 -0.00561821  0.00446945 -0.155002 -0.000680804  -0.0139657 -0.149533 -0.0054093  0.000952959 -0.184663 -0.000543535  -0.0154321 -0.152809 -0.00458735  -0.0211639 -0.181908 -0.0043273  0.00301212 -0.158198 -0.000774264  -0.0195376 -0.178647 -0.00510466  -0.00363743 -0.216027 -0.000383854  -0.0261023 -0.209439 -0.00474393  -0.00936359 -0.249 -0.000185192  -0.0278536 -0.212583 -0.00405622  -0.0355313 -0.244865 -0.0037145  -0.00531328 -0.219139 -0.000536859  -0.0336856 -0.241816 -0.00434971  -0.0161507 -0.283411 9.83477e-06  -0.0422497 -0.275608 -0.0039475  -0.0240337 -0.319202 0.000214756  -0.0441529 -0.278492 -0.00339717  -0.0537325 -0.313512 -0.00305057  -0.0179434 -0.286304 -0.000205815  -0.0517953 -0.310754 -0.00354624  -0.032925 -0.356208 0.000402689  -0.0622696 -0.347103 -0.00316405  -0.0428484 -0.394389 0.000581324  -0.0642118 -0.349679 -0.00274205  -0.0756001 -0.387052 -0.00242895  -0.0347481 -0.358821 0.000126779  -0.0736648 -0.384605 -0.00279975  -0.0537046 -0.433601 0.000738144  -0.0859207 -0.423137 -0.00246471  -0.0655134 -0.473818 0.000880301  -0.0878209 -0.425409 -0.00215822  -0.10089 -0.464812 -0.00189239  -0.0554882 -0.435927 0.000413477  -0.0990247 -0.46266 -0.00215346  -0.0781794 -0.514909 0.000995934  -0.112913 -0.503069 -0.00187427  -0.0917162 -0.556863 0.0010969  -0.114723 -0.505058 -0.00166744  -0.129339 -0.546217 -0.00145221  -0.0798806 -0.516964 0.000633419  -0.127581 -0.544336 -0.00162107  -0.106032 -0.599565 0.0011754  -0.142959 -0.586367 -0.0013957  -0.121138 -0.643001 0.00123912  -0.144652 -0.588101 -0.00127333  -0.160683 -0.630781 -0.00110102  -0.107624 -0.601371 0.00078392  -0.159052 -0.629137 -0.00119376  -0.13695 -0.687076 0.00128311  -0.175786 -0.672569 -0.00101411  -0.153479 -0.731782 0.00131553  -0.177343 -0.674081 -0.000960708  -0.194662 -0.718077 -0.000826895  -0.138419 -0.688663 0.000875771  -0.19317 -0.716642 -0.000856996  -0.170642 -0.777032 0.00133491  -0.21113 -0.761286 -0.000716984  -0.188448 -0.822821 0.00134242  -0.212549 -0.762604 -0.000721157  -0.231032 -0.807735 -0.000617325  -0.171981 -0.778426 0.000918329  -0.229678 -0.80648 -0.000596285  -0.206823 -0.869073 0.00133729  -0.248742 -0.852167 -0.000489116  -0.225775 -0.915782 0.00132167  -0.250026 -0.853319 -0.000539422  -0.269554 -0.899425 -0.000462472  -0.208037 -0.870298 0.00091821  -0.268335 -0.898328 -0.000399888  -0.245232 -0.962884 0.00130248  -0.288384 -0.94491 -0.000317097  -0.265201 -1.01037 0.00127208  -0.289532 -0.945913 -0.000403941  -0.309995 -0.992856 -0.00034678  -0.246318 -0.963957 0.000888824  -0.308905 -0.991897 -0.00025177  -0.285615 -1.05819 0.00123745  -0.329831 -1.03925 -0.000193179  -0.30648 -1.10633 0.00119561  -0.330852 -1.04012 -0.000307083  -0.352138 -1.08777 -0.000264406  -0.286579 -1.05913 0.000835478  -0.351171 -1.08693 -0.000145614  -0.327732 -1.15474 0.00115132  -0.372864 -1.13492 -0.0001055  -0.34938 -1.20343 0.00109881  -0.373763 -1.13568 -0.000241518  -0.395769 -1.18393 -0.000214279  -0.328583 -1.15557 0.000760734  -0.394919 -1.1832 -7.69496e-05  -0.371361 -1.25234 0.00104403  -0.417274 -1.23173 -5.07236e-05  -0.393684 -1.30146 0.000983715  -0.418066 -1.2324 -0.000203073  -0.440694 -1.28114 -0.000187099  -0.372108 -1.25306 0.000669301  -0.439948 -1.2805 -3.63588e-05  -0.416291 -1.35077 0.000924885  -0.462872 -1.32948 -2.5332e-05  -0.439189 -1.40026 0.000857294  -0.463559 -1.33005 -0.000190139  -0.486709 -1.37921 -0.000181973  -0.416939 -1.35141 0.000570774  -0.486068 -1.37865 -2.36034e-05  -0.462323 -1.44989 0.000791907  -0.509472 -1.428 -2.26498e-05  -0.485705 -1.49966 0.000720859  -0.510057 -1.42849 -0.000190258  -0.533651 -1.47797 -0.000194788  -0.462876 -1.45044 0.000457346  -0.533103 -1.47749 -3.24845e-05  -0.509276 -1.54953 0.000650764  -0.556903 -1.52712 -4.08292e-05  -0.533052 -1.59951 0.000570893  -0.557399 -1.52755 -0.000211895  -0.581348 -1.57729 -0.000225723  -0.509743 -1.55002 0.000338197  -0.580889 -1.57687 -6.31213e-05  -0.556977 -1.64957 0.000501037  -0.605002 -1.62672 -8.35657e-05  -0.581066 -1.6997 0.000416756  -0.605415 -1.62708 -0.000251472  -0.629652 -1.67701 -0.000271976  -0.557362 -1.64999 0.000213325  -0.629268 -1.67665 -0.000111997  -0.605272 -1.74988 0.000343204  -0.653627 -1.72666 -0.000137508  -0.629602 -1.80011 0.000260115  -0.653969 -1.72698 -0.000305951  -0.67842 -1.77704 -0.000331581  -0.605585 -1.75025 7.96914e-05  -0.678107 -1.77672 -0.000177801  -0.654017 -1.85036 0.000180781  -0.702646 -1.82684 -0.000213325  -0.678527 -1.90064 9.26852e-05  -0.70292 -1.82711 -0.000370026  -0.727525 -1.87725 -0.000403702  -0.654266 -1.85068 -5.70416e-05  -0.727278 -1.87698 -0.000258327  -0.703089 -1.95092 1.38283e-05  -0.751939 -1.92715 -0.000302672  -0.727717 -2.0012 -7.69496e-05  -0.752156 -1.92738 -0.000449121  -0.77686 -1.97757 -0.000489235  -0.70328 -1.9512 -0.000196874  -0.776663 -1.97733 -0.000356555  -0.752373 -2.05147 -0.000158906  -0.801399 -2.02751 -0.000405014  -0.777068 -2.10173 -0.000248194  -0.801562 -2.02771 -0.000540853  -0.82632 -2.07789 -0.000582993  -0.752515 -2.05171 -0.000342488  -0.826173 -2.07769 -0.000465155  -0.801771 -2.15195 -0.000334084  -0.850938 -2.12784 -0.000524342  -0.826492 -2.20214 -0.000426114  -0.851059 -2.12801 -0.000641048  -0.875829 -2.17815 -0.00069201  -0.801872 -2.15216 -0.000492573  -0.875721 -2.17797 -0.000588655  -0.851197 -2.25229 -0.00050962  -0.900476 -2.22808 -0.000650883  -0.875909 -2.30239 -0.000601828  -0.900555 -2.22822 -0.00075376  -0.925306 -2.2783 -0.000807703  -0.851265 -2.25247 -0.000642538  -0.925237 -2.27814 -0.000723958  -0.900589 -2.35244 -0.000688136  -0.949947 -2.32815 -0.00078845  -0.925258 -2.40243 -0.000781655  -0.949999 -2.32828 -0.000872612  -0.974698 -2.37827 -0.000934601  -0.900627 -2.3526 -0.000793695  -0.974655 -2.37812 -0.000870287  -0.949886 -2.45236 -0.000868917  -0.999305 -2.42804 -0.00093925  -0.974491 -2.50223 -0.000960529  -0.999334 -2.42815 -0.000999451  -1.02396 -2.47802 -0.00106215  -0.949899 -2.45251 -0.000944674  -1.02394 -2.47789 -0.00102037  -0.99904 -2.55202 -0.00104696  -1.0485 -2.52768 -0.00109202  -1.02355 -2.60175 -0.00113875  -1.04852 -2.52779 -0.00113237  -1.07306 -2.57753 -0.00119239  -0.999038 -2.55217 -0.00109625  -1.07304 -2.5774 -0.00117213  -1.04799 -2.65139 -0.00122213  -1.09749 -2.62704 -0.00124198  -1.07239 -2.70094 -0.00131989  -1.09751 -2.62715 -0.00126326  -1.12193 -2.67673 -0.00132418  -1.048 -2.65153 -0.00124723  -1.12191 -2.6766 -0.0013212  0.00296395 -0.00560379 0.00338489  0.00204026 -0.00413531 0.00186121  0.00800288 -0.0156604 0.00594914  0.00195456 -0.00466895 0.00128502  0.0051057 -0.0139742 0.0022006  0 0 0  0 0 0  0.00288469 -0.00616914 0.00244373  0 0 0  0.00548401 -0.0129017 0.00312471  0.0142693 -0.0296555 0.00755048  0.00955094 -0.0258166 0.00393158  0.0206674 -0.0465345 0.00844055  0.00892892 -0.0273985 0.00283569  0.0128243 -0.0439643 0.00311118  0.0134646 -0.0311678 0.00559437  0.0136853 -0.041919 0.00422233  0.0266217 -0.066312 0.00877619  0.0172883 -0.0610444 0.00427032  0.0317916 -0.0884831 0.00887215  0.016287 -0.0634792 0.00318551  0.0190149 -0.0854729 0.00315118  0.025441 -0.0686637 0.0067358  0.0201475 -0.0827161 0.00419742  0.0359326 -0.113016 0.00879014  0.022056 -0.106782 0.00409764  0.0389175 -0.139701 0.00866431  0.0208021 -0.109725 0.00307244  0.0215254 -0.136129 0.00302184  0.0345916 -0.115896 0.00682873  0.0228873 -0.133031 0.00401235  0.0406954 -0.168409 0.00849169  0.0225946 -0.161295 0.00395149  0.0411801 -0.199038 0.00832975  0.0211286 -0.164416 0.00295842  0.0195563 -0.194602 0.00295371  0.0392303 -0.171491 0.00661224  0.0211096 -0.191459 0.00392276  0.0404119 -0.231411 0.00815248  0.0184399 -0.223347 0.00390995  0.0383303 -0.265452 0.00799328  0.016819 -0.226409 0.00293374  0.0128863 -0.259873 0.00295782  0.0388513 -0.234457 0.00634974  0.0145643 -0.256869 0.00391823  0.0350104 -0.300985 0.00781864  0.00951493 -0.291862 0.00392652  0.0304147 -0.337944 0.00765455  0.00780922 -0.294727 0.00295967  0.00156808 -0.331016 0.00298613  0.0333965 -0.303859 0.00608897  0.00329769 -0.328249 0.00393993  0.0246397 -0.376161 0.00747883  -0.00403678 -0.365879 0.0039432  0.0176578 -0.415584 0.00730389  -0.00576085 -0.368486 0.00298601  -0.0141896 -0.40719 0.00300014  0.0230215 -0.378797 0.00582498  -0.0124745 -0.404692 0.00394136  0.00957167 -0.456064 0.00711888  -0.0219493 -0.444556 0.00392497  0.000368953 -0.497558 0.00693208  -0.0236349 -0.446891 0.00298482  -0.0341028 -0.487647 0.00297701  0.00799322 -0.458442 0.00554544  -0.032446 -0.485421 0.00390071  -0.00984824 -0.539936 0.0067324  -0.0438938 -0.527173 0.00385755  -0.0210918 -0.58317 0.00653017  -0.0455024 -0.529246 0.00294149  -0.0578461 -0.571747 0.00290912  -0.0113553 -0.542063 0.00524205  -0.0562797 -0.569776 0.00380617  -0.0332606 -0.627139 0.00632143  -0.0695283 -0.613127 0.00374126  -0.0463611 -0.671823 0.00610822  -0.0710368 -0.614956 0.00285327  -0.0850884 -0.658937 0.00280297  -0.0346744 -0.629028 0.00491679  -0.0836309 -0.657195 0.00366622  -0.0602959 -0.717122 0.00589275  -0.0985103 -0.701897 0.00358093  -0.0750728 -0.76302 0.00566965  -0.0999045 -0.70351 0.00272864  -0.115506 -0.748744 0.00265753  -0.0616063 -0.718798 0.00457501  -0.114164 -0.747206 0.0034852  -0.0906028 -0.809431 0.00544643  -0.130516 -0.79305 0.00338447  -0.106886 -0.856343 0.00522244  -0.131792 -0.794472 0.00257194  -0.148786 -0.840761 0.00249016  -0.0918022 -0.810917 0.0042178  -0.147568 -0.839406 0.00327331  -0.123843 -0.903676 0.00499713  -0.165237 -0.886212 0.00316066  -0.141474 -0.951422 0.00476867  -0.166392 -0.887461 0.00239027  -0.184633 -0.93464 0.00229961  -0.124931 -0.90499 0.00385606  -0.183533 -0.933445 0.00303972  -0.159701 -0.99952 0.00454628  -0.202381 -0.981056 0.002918  -0.178528 -1.04796 0.00432181  -0.203416 -0.982154 0.00219506  -0.222766 -1.03007 0.00209898  -0.160677 -1.00068 0.00349385  -0.221784 -1.02902 0.00279003  -0.19788 -1.09668 0.00410038  -0.24167 -1.0773 0.00266397  -0.217757 -1.14568 0.00387859  -0.242591 -1.07827 0.00198746  -0.262919 -1.12681 0.00188637  -0.198747 -1.09771 0.00313401  -0.262046 -1.12588 0.00253153  -0.238093 -1.19491 0.0036633  -0.282842 -1.17471 0.00240135  -0.258892 -1.24436 0.0034464  -0.283658 -1.17556 0.00177383  -0.304843 -1.2246 0.00167012  -0.23886 -1.19582 0.0027802  -0.304072 -1.22378 0.00226742  -0.280087 -1.29399 0.00323516  -0.325664 -1.27306 0.00213552  -0.301682 -1.3438 0.00302291  -0.326378 -1.2738 0.00155538  -0.348301 -1.32325 0.00145018  -0.280756 -1.29479 0.0024333  -0.347629 -1.32253 0.00199866  -0.323614 -1.39374 0.00282067  -0.369901 -1.37217 0.00186884  -0.345893 -1.44382 0.0026179  -0.370519 -1.37282 0.00133651  -0.393073 -1.42258 0.00123268  -0.324192 -1.39445 0.0020963  -0.392496 -1.42195 0.00173223  -0.368455 -1.494 0.0024206  -0.415345 -1.47187 0.00160086  -0.391308 -1.54428 0.00222236  -0.415873 -1.47243 0.00111794  -0.43896 -1.52244 0.00101578  -0.368947 -1.49463 0.00177139  -0.438469 -1.52189 0.00146586  -0.414399 -1.59463 0.00203097  -0.4618 -1.57201 0.00133669  -0.437727 -1.64505 0.00184029  -0.462245 -1.5725 0.000899911  -0.485771 -1.62269 0.000795662  -0.414807 -1.59518 0.00145501  -0.48536 -1.62221 0.00120097  -0.461247 -1.6955 0.00166035  -0.509084 -1.67247 0.0010736  -0.484963 -1.746 0.00147784  -0.509452 -1.6729 0.000683665  -0.53333 -1.72321 0.000583649  -0.461585 -1.69598 0.00115037  -0.532991 -1.72279 0.000943244  -0.508832 -1.79651 0.00130391  -0.557028 -1.77314 0.000820756  -0.532856 -1.84704 0.00112891  -0.557327 -1.77351 0.000474215  -0.581485 -1.82389 0.000375152  -0.509104 -1.79693 0.000861228  -0.581212 -1.82352 0.000690281  -0.556991 -1.89756 0.000963867  -0.605485 -1.87392 0.000567555  -0.581247 -1.94808 0.000792205  -0.605723 -1.87424 0.00026685  -0.63009 -1.92463 0.000168204  -0.557205 -1.89793 0.000577927  -0.629876 -1.92431 0.000440061  -0.605583 -1.99857 0.000640213  -0.654321 -1.97471 0.000322402  -0.630007 -2.04905 0.000480652  -0.654504 -1.97498 6.19292e-05  -0.67902 -2.02536 -3.35574e-05  -0.605745 -1.99889 0.000313938  -0.678853 -2.02509 0.000198662  -0.654481 -2.09948 0.000332534  -0.703416 -2.07544 8.46982e-05  -0.679015 -2.14988 0.000179768  -0.703555 -2.07568 -0.000135303  -0.728158 -2.12601 -0.000228882  -0.654595 -2.09975 6.27637e-05  -0.728038 -2.12577 -3.82066e-05  -0.703571 -2.20021 3.96967e-05  -0.752664 -2.17605 -0.000151753  -0.728162 -2.25051 -0.000101924  -0.752758 -2.17626 -0.000332236  -0.777413 -2.22651 -0.000423431  -0.703645 -2.20046 -0.000180423  -0.777328 -2.2263 -0.000270009  -0.752758 -2.30074 -0.00023061  -0.801976 -2.27649 -0.000373125  -0.77737 -2.35092 -0.000366509  -0.802036 -2.27667 -0.000519276  -0.826694 -2.32682 -0.000607193  -0.752804 -2.30095 -0.000406861  -0.826642 -2.32663 -0.000489771  -0.801962 -2.40102 -0.000486612  -0.851274 -2.37671 -0.000590086  -0.826559 -2.45106 -0.000614047  -0.851309 -2.37686 -0.000699759  -0.875941 -2.42689 -0.00078541  -0.80198 -2.40121 -0.000619233  -0.875911 -2.42673 -0.000701845  -0.851118 -2.50102 -0.000729799  -0.900503 -2.47667 -0.000804245  -0.875669 -2.5509 -0.000853062  -0.900514 -2.47681 -0.000879228  -0.925098 -2.5267 -0.000961721  -0.851117 -2.50118 -0.000820279  -0.925088 -2.52655 -0.000911653  -0.900172 -2.60071 -0.000963569  -0.949608 -2.57635 -0.00100672  -0.924654 -2.65044 -0.00108135  -0.949609 -2.57648 -0.00105387  -0.974115 -2.62622 -0.0011335  -0.900161 -2.60087 -0.00101757  -0.974111 -2.62608 -0.00111443  -0.949068 -2.70008 -0.00119084  -0.998534 -2.67572 -0.00121182  -0.973438 -2.74964 -0.0013141  -0.998534 -2.67585 -0.00122291  -1.02292 -2.72543 -0.00130773  -0.949055 -2.70024 -0.00120848  -1.02291 -2.72528 -0.00132442  0.00518499 -0.0100832 0.00622225  0.00412676 -0.00756586 0.00486284  0.0140627 -0.0233665 0.0110794  0.00404815 -0.00812995 0.0035184  0.0105254 -0.0201546 0.00622642  0 0 0  0 0 0  0.00515025 -0.0106745 0.00457358  0 0 0  0.0109888 -0.0191333 0.00853336  0.0248929 -0.0400636 0.0142767  0.0193629 -0.0343633 0.0110552  0.0360858 -0.0586395 0.0162347  0.0184418 -0.0359062 0.00825477  0.0268868 -0.0541055 0.00951922  0.0238177 -0.0415972 0.0107346  0.0280865 -0.0521168 0.0124473  0.0466533 -0.0796308 0.0172168  0.0363394 -0.0724959 0.0131189  0.0563063 -0.102747 0.0176591  0.0350165 -0.074846 0.0101593  0.0423672 -0.0978462 0.0104407  0.0451946 -0.0819908 0.0133884  0.0437523 -0.0951738 0.0133547  0.0647326 -0.128053 0.017709  0.0500737 -0.120113 0.0133322  0.0718294 -0.155522 0.0175551  0.0486539 -0.122954 0.0104663  0.053704 -0.150213 0.0103709  0.0632516 -0.130902 0.013955  0.0551471 -0.147206 0.0131655  0.0775618 -0.185011 0.0172459  0.05893 -0.176322 0.0129195  0.0818408 -0.21649 0.016868  0.057462 -0.179354 0.0101794  0.0598555 -0.210452 0.0099678  0.0760947 -0.188036 0.0136446  0.0613515 -0.207383 0.0126326  0.0847166 -0.249763 0.0164225  0.0624219 -0.240219 0.0123186  0.0861217 -0.284773 0.0159603  0.0609059 -0.243219 0.00970989  0.0605797 -0.277711 0.00946414  0.083249 -0.252757 0.0130017  0.0621157 -0.274748 0.0119934  0.0861354 -0.321332 0.0154665  0.0604717 -0.310804 0.0116592  0.084718 -0.359366 0.0149735  0.0589304 -0.313646 0.00918812  0.0559465 -0.351065 0.00892919  0.084667 -0.324174 0.0122396  0.0574909 -0.348305 0.0113218  0.081961 -0.398702 0.0144658  0.0532308 -0.387091 0.0109798  0.0778451 -0.439273 0.0139629  0.0516986 -0.389709 0.00864977  0.0461814 -0.429614 0.00838453  0.0805135 -0.401331 0.0114406  0.0477029 -0.427093 0.0106364  0.0724708 -0.480929 0.0134546  0.0409751 -0.468172 0.0102904  0.0658289 -0.52361 0.0129534  0.0394837 -0.470544 0.00810117  0.0316013 -0.512539 0.00783217  0.0710638 -0.483324 0.0106332  0.0330682 -0.510265 0.00994271  0.0580217 -0.567182 0.0124509  0.0240579 -0.553252 0.00959146  0.0490501 -0.611602 0.0119554  0.0226327 -0.555381 0.00754648  0.0125707 -0.599119 0.00727117  0.0566776 -0.569342 0.00983143  0.0139614 -0.597084 0.00923884  0.0390135 -0.656751 0.0114617  0.00285947 -0.641656 0.00888848  0.0279161 -0.702596 0.0109776  0.00151885 -0.643554 0.00698632  -0.0105309 -0.688741 0.00671345  0.0377486 -0.658687 0.00903994  -0.00923145 -0.686927 0.00854027  0.0158539 -0.749034 0.0104972  -0.0222288 -0.732809 0.0081923  0.00283265 -0.796042 0.0100245  -0.0234751 -0.734496 0.00642926  -0.0373229 -0.780882 0.00615704  0.0146786 -0.750766 0.00826943  -0.036124 -0.779269 0.00784463  -0.0110548 -0.84353 0.00956124  -0.0508313 -0.826232 0.00750118  -0.0258048 -0.891482 0.00910431  -0.0519739 -0.827729 0.00587457  -0.0674423 -0.875101 0.00560701  -0.0121332 -0.845073 0.00751811  -0.0663483 -0.873669 0.00715911  -0.0413284 -0.939821 0.00865906  -0.0825869 -0.921517 0.00682455  -0.0576202 -0.988534 0.00822061  -0.0836223 -0.922845 0.00533116  -0.100538 -0.971025 0.00507039  -0.042307 -0.941195 0.00679505  -0.099548 -0.969753 0.00649142  -0.0746009 -1.03755 0.00779223  -0.11715 -1.01833 0.00616652  -0.092262 -1.08687 0.00737309  -0.118083 -1.0195 0.00480169  -0.136281 -1.06834 0.00455004  -0.0754811 -1.03878 0.00609946  -0.135396 -1.06721 0.005844  -0.110532 -1.13643 0.00696403  -0.154204 -1.11636 0.00553024  -0.129401 -1.18623 0.00656366  -0.155033 -1.1174 0.00428897  -0.174368 -1.16677 0.00404471  -0.111313 -1.13752 0.00543582  -0.173583 -1.16576 0.00521773  -0.1488 -1.2362 0.00617427  -0.193448 -1.21538 0.00491691  -0.168727 -1.28637 0.00579238  -0.194177 -1.2163 0.00379461  -0.214506 -1.26608 0.00355828  -0.14949 -1.23717 0.00479865  -0.213813 -1.26519 0.00461686  -0.189113 -1.33666 0.00542557  -0.234603 -1.31517 0.00432777  -0.209959 -1.38709 0.00506341  -0.235243 -1.31598 0.0033192  -0.256428 -1.36607 0.00309354  -0.189714 -1.33752 0.0041948  -0.255826 -1.36529 0.00404078  -0.231199 -1.43761 0.00471538  -0.277412 -1.41553 0.00376606  -0.252832 -1.48824 0.00437266  -0.277962 -1.41625 0.00286454  -0.299886 -1.46658 0.00265068  -0.231713 -1.43838 0.00362271  -0.299371 -1.46589 0.00349128  -0.2748 -1.53892 0.00404596  -0.321635 -1.51633 0.00323075  -0.297106 -1.58966 0.00372267  -0.322104 -1.51696 0.00242978  -0.344655 -1.56746 0.00222778  -0.275237 -1.53959 0.00308138  -0.344218 -1.56684 0.00296944  -0.31969 -1.64043 0.00341195  -0.367054 -1.61741 0.0027191  -0.342558 -1.69124 0.00310773  -0.367446 -1.61796 0.00201601  -0.390517 -1.66856 0.00182134  -0.320054 -1.64103 0.00257063  -0.390158 -1.66803 0.00247008  -0.365655 -1.74205 0.00281686  -0.413461 -1.71867 0.00223535  -0.388983 -1.79287 0.00253153  -0.413784 -1.71915 0.00162303  -0.437284 -1.7698 0.00143951  -0.36595 -1.74257 0.00208759  -0.43699 -1.76933 0.00200033  -0.412495 -1.84367 0.00226098  -0.460676 -1.82 0.00177944  -0.4362 -1.89446 0.00199401  -0.460934 -1.82042 0.00125432  -0.484784 -1.87107 0.00107783  -0.412731 -1.84413 0.00163865  -0.484546 -1.87066 0.00155854  -0.460042 -1.94521 0.00174332  -0.508531 -1.92131 0.00134981  -0.484035 -1.99593 0.00149214  -0.508734 -1.92167 0.000900626  -0.532842 -1.97228 0.000737786  -0.460223 -1.94561 0.00121576  -0.532661 -1.97193 0.00113958  -0.508135 -2.0466 0.00125879  -0.556871 -2.02252 0.000947654  -0.532345 -2.09723 0.0010286  -0.557025 -2.02283 0.000573635  -0.581329 -2.07338 0.000419319  -0.508264 -2.04695 0.000822365  -0.581196 -2.07307 0.000751913  -0.556625 -2.1478 0.000818968  -0.60557 -2.12358 0.000572562  -0.580991 -2.1983 0.000605941  -0.605677 -2.12385 0.000265956  -0.630116 -2.1743 0.000123918  -0.556712 -2.1481 0.000462294  -0.630023 -2.17403 0.000388384  -0.605395 -2.24874 0.000411332  -0.654495 -2.22443 0.000222683  -0.629855 -2.29911 0.000217974  -0.654569 -2.22466 -2.20537e-05  -0.679089 -2.275 -0.000149608  -0.605449 -2.249 0.00012809  -0.679029 -2.27476 5.61476e-05  -0.65433 -2.3494 4.21405e-05  -0.703557 -2.32503 -9.94205e-05  -0.678839 -2.39962 -0.000133455  -0.703599 -2.32523 -0.00028342  -0.728158 -2.37544 -0.000404477  -0.654357 -2.34963 -0.000173151  -0.728122 -2.37523 -0.000253499  -0.70334 -2.44975 -0.000289321  -0.752666 -2.42535 -0.000392318  -0.72786 -2.49981 -0.000447214  -0.752683 -2.42553 -0.000527143  -0.777238 -2.47559 -0.000638604  -0.703344 -2.44996 -0.000445426  -0.777227 -2.4754 -0.000535488  -0.752353 -2.54977 -0.00059098  -0.80175 -2.52537 -0.000665963  -0.776848 -2.59966 -0.000736594  -0.801748 -2.52552 -0.000756264  -0.826274 -2.57543 -0.000860333  -0.752337 -2.54996 -0.000693858  -0.826274 -2.57526 -0.000801086  -0.801306 -2.64947 -0.000869155  -0.850754 -2.62506 -0.000923216  -0.825755 -2.6992 -0.00100863  -0.85074 -2.62521 -0.000969708  -0.875215 -2.67496 -0.00106788  -0.801284 -2.64964 -0.000926197  -0.875223 -2.67479 -0.0010528  -0.85016 -2.74884 -0.00114018  -0.899625 -2.72444 -0.00117564  -0.874534 -2.79843 -0.00128317  -0.89961 -2.72459 -0.00117809  -0.92399 -2.77419 -0.001275  -0.850136 -2.74902 -0.00115156  -0.923996 -2.77402 -0.00130635  0.00817516 -0.0182832 0.00862044  0.00679404 -0.0134383 0.00756651  0.0226897 -0.0357757 0.0155178  0.00673567 -0.0142341 0.0054965  0.0174942 -0.0301659 0.00981915  0 0 0  0 0 0  0.00827932 -0.0189303 0.00646991  0 0 0  0.0179567 -0.028937 0.0133505  0.0388072 -0.0550566 0.0201718  0.0312972 -0.0468689 0.0173807  0.0549378 -0.075038 0.0231432  0.0301458 -0.0485995 0.0130733  0.0434101 -0.0684753 0.015276  0.0375408 -0.0568967 0.0152528  0.0448372 -0.0662984 0.0198159  0.0699518 -0.0966362 0.024852  0.0577454 -0.0876787 0.0211504  0.0837201 -0.120419 0.025732  0.0561989 -0.0901306 0.0164899  0.0679576 -0.113919 0.0171372  0.0683435 -0.0992618 0.0194035  0.06951 -0.111174 0.0217758  0.0961337 -0.146247 0.0260102  0.0799958 -0.136784 0.0219342  0.107044 -0.174383 0.0259176  0.0784709 -0.139638 0.0173358  0.0875595 -0.167575 0.017273  0.0945829 -0.149189 0.0205598  0.0890562 -0.164587 0.0217888  0.11649 -0.204584 0.0255465  0.0966718 -0.194446 0.0214475  0.12435 -0.236875 0.0250196  0.0952037 -0.197433 0.0170221  0.101328 -0.229336 0.0166664  0.115022 -0.207592 0.0202776  0.102783 -0.226321 0.020981  0.130681 -0.271034 0.024364  0.107399 -0.260041 0.0204317  0.135409 -0.306997 0.0236478  0.105961 -0.262984 0.0162275  0.109065 -0.298426 0.0157573  0.129263 -0.273968 0.0193596  0.110498 -0.29552 0.0198326  0.138605 -0.344568 0.0228771  0.112112 -0.332585 0.0192002  0.140231 -0.383655 0.0220902  0.110691 -0.335378 0.0152465  0.110829 -0.373863 0.0147341  0.137221 -0.347342 0.018177  0.112241 -0.371139 0.0185524  0.140371 -0.424085 0.0212815  0.110942 -0.411024 0.0178925  0.139011 -0.465772 0.0204738  0.10955 -0.413613 0.0141997  0.10685 -0.454654 0.0136794  0.13902 -0.426658 0.0169013  0.108226 -0.452153 0.0172333  0.136244 -0.508558 0.0196643  0.104165 -0.494379 0.0165736  0.132072 -0.552374 0.0188652  0.102815 -0.49674 0.0131449  0.0974499 -0.539899 0.0126284  0.134942 -0.51091 0.0156094  0.098775 -0.537628 0.0159194  0.126596 -0.597081 0.0180733  0.0921417 -0.581775 0.0152711  0.119822 -0.642626 0.0172952  0.0908533 -0.58391 0.0121031  0.0830249 -0.628809 0.0115981  0.125352 -0.599213 0.014337  0.0842826 -0.62676 0.0146326  0.111853 -0.688885 0.0165308  0.075289 -0.672473 0.0140029  0.102698 -0.735818 0.015779  0.0740741 -0.674391 0.0110886  0.0639938 -0.720706 0.0105988  0.110681 -0.690806 0.0131035  0.0651731 -0.718868 0.0133842  0.0924609 -0.783318 0.015045  0.0540334 -0.765849 0.0127763  0.0811529 -0.83136 0.0143269  0.0529004 -0.767563 0.0101054  0.0407839 -0.815023 0.00963408  0.0913699 -0.785043 0.0119157  0.0418745 -0.813378 0.0121797  0.0688702 -0.879848 0.0136288  0.0287975 -0.861379 0.0115967  0.0556226 -0.928766 0.0129449  0.0277565 -0.862909 0.00916135  0.0138059 -0.911288 0.00871104  0.0678642 -0.881391 0.0107815  0.0148047 -0.909819 0.0110271  0.0415057 -0.978029 0.0122812  -6.79493e-06 -0.958634 0.010472  0.0265263 -1.02763 0.0116316  -0.000954986 -0.959997 0.00825876  -0.0165449 -1.00911 0.00782937  0.0405908 -0.979407 0.00970083  -0.0156401 -1.00779 0.00992733  0.0107757 -1.07749 0.011004  -0.0319999 -1.05725 0.00939906  -0.00574124 -1.12761 0.0103906  -0.0328509 -1.05846 0.00739777  -0.0498984 -1.10815 0.00699127  0.00995314 -1.07873 0.00867993  -0.049088 -1.10698 0.00888306  -0.0229381 -1.17793 0.00980055  -0.066812 -1.15693 0.00838226  -0.0408114 -1.22845 0.00922161  -0.0675732 -1.15801 0.00658065  -0.0859039 -1.20813 0.00619471  -0.0236712 -1.17904 0.00771409  -0.0851853 -1.20709 0.00789261  -0.0592785 -1.2791 0.0086633  -0.104112 -1.25742 0.00741982  -0.0783434 -1.3299 0.00811851  -0.104781 -1.25838 0.00580817  -0.124241 -1.30883 0.00544018  -0.0599263 -1.28008 0.00680012  -0.12361 -1.3079 0.00695539  -0.0979235 -1.38078 0.00759739  -0.143586 -1.35851 0.00651097  -0.118026 -1.43177 0.00708336  -0.144171 -1.35936 0.00507545  -0.164608 -1.41005 0.00473207  -0.098489 -1.38166 0.005943  -0.16406 -1.40922 0.00607342  -0.138571 -1.48281 0.0065946  -0.184948 -1.46002 0.00565493  -0.159565 -1.53391 0.00611585  -0.185449 -1.46077 0.00438607  -0.206733 -1.51161 0.00406188  -0.139054 -1.48358 0.00513768  -0.206266 -1.51088 0.00524247  -0.180941 -1.58502 0.00565362  -0.227931 -1.56179 0.00484771  -0.202701 -1.63616 0.00520462  -0.228356 -1.56245 0.00373602  -0.25036 -1.61338 0.00343454  -0.181348 -1.58571 0.00437993  -0.249968 -1.61274 0.00446314  -0.224782 -1.6873 0.00477856  -0.272294 -1.6637 0.00409478  -0.247189 -1.73844 0.00435936  -0.272646 -1.66429 0.00312883  -0.295259 -1.71525 0.00284231  -0.225117 -1.68791 0.00367302  -0.294934 -1.71468 0.00373173  -0.269859 -1.78954 0.00396252  -0.317812 -1.76565 0.00338852  -0.292801 -1.84062 0.00357461  -0.3181 -1.76616 0.00255889  -0.341213 -1.8171 0.00229484  -0.270129 -1.79008 0.00301617  -0.340952 -1.8166 0.00305378  -0.315962 -1.89165 0.00320762  -0.364281 -1.86753 0.00273317  -0.339345 -1.94265 0.00284714  -0.364508 -1.86798 0.00202727  -0.388033 -1.91887 0.00178075  -0.316172 -1.89213 0.0024091  -0.387827 -1.91843 0.00242174  -0.3629 -1.99357 0.00251001  -0.41152 -1.96928 0.00212419  -0.386632 -2.04445 0.00217783  -0.411692 -1.96967 0.00153327  -0.435539 -2.02046 0.0013082  -0.363054 -1.99398 0.001845  -0.435384 -2.02008 0.00183445  -0.410493 -2.09525 0.00187194  -0.459361 -2.07083 0.00156438  -0.434498 -2.14598 0.00156915  -0.459485 -2.07116 0.00108141  -0.483582 -2.12184 0.000870466  -0.410607 -2.0956 0.00132656  -0.483474 -2.12151 0.00129753  -0.458597 -2.19662 0.00129139  -0.507654 -2.17213 0.00105083  -0.482798 -2.2472 0.00101894  -0.507739 -2.17241 0.00066489  -0.53201 -2.22296 0.000474751  -0.458666 -2.19694 0.00085634  -0.53194 -2.22267 0.000808358  -0.507058 -2.29767 0.000772417  -0.556266 -2.27314 0.000587165  -0.531396 -2.34807 0.000526369  -0.556319 -2.27339 0.000286937  -0.580711 -2.32378 0.000115931  -0.507097 -2.29795 0.000434756  -0.58067 -2.32353 0.000367701  -0.555765 -2.39838 0.00030756  -0.605083 -2.37384 0.000172794  -0.580184 -2.4486 9.34601e-05  -0.605108 -2.37405 -5.53131e-05  -0.629566 -2.42428 -0.000205517  -0.555775 -2.39862 5.76377e-05  -0.62955 -2.42406 -2.41995e-05  -0.604607 -2.49872 -9.74536e-05  -0.654005 -2.4742 -0.000196993  -0.629058 -2.54876 -0.000282466  -0.654007 -2.47438 -0.000356138  -0.678488 -2.52444 -0.000487566  -0.604595 -2.49893 -0.000274718  -0.678489 -2.52425 -0.000367582  -0.653495 -2.59871 -0.000447869  -0.702949 -2.57421 -0.00052321  -0.677942 -2.64858 -0.000614107  -0.702933 -2.57438 -0.000624239  -0.727407 -2.62427 -0.000744462  -0.653467 -2.5989 -0.000561535  -0.727423 -2.62409 -0.00067836  -0.702364 -2.69835 -0.000764132  -0.751857 -2.67389 -0.000822127  -0.726789 -2.74807 -0.000913143  -0.751836 -2.67404 -0.000873506  -0.77628 -2.72378 -0.000985622  -0.702328 -2.69854 -0.000823319  -0.7763 -2.72361 -0.000970602  -0.751192 -2.79771 -0.00105816  -0.800695 -2.77326 -0.00110674  -0.775596 -2.84731 -0.00121248  -0.800668 -2.77341 -0.00110865  -0.825067 -2.82304 -0.00122416  -0.751152 -2.79789 -0.00106847  -0.825079 -2.82285 -0.00125432  0.0140076 -0.0348532 0.0113215  0.011138 -0.0246184 0.0100235  0.0390533 -0.0573708 0.0193768  0.0110991 -0.0259488 0.00715315  0.0283668 -0.0473223 0.0129303  0 0 0  0 0 0  0.0135185 -0.0353985 0.00822645  0 0 0  0.0285254 -0.0453869 0.0174841  0.0598714 -0.0748695 0.0258458  0.0479942 -0.0645463 0.0229278  0.0788828 -0.0952116 0.029784  0.0467117 -0.0667264 0.0173586  0.0645324 -0.0873983 0.0204507  0.0586856 -0.078018 0.0195403  0.0660278 -0.0847507 0.0264015  0.0975742 -0.116601 0.0321008  0.0831308 -0.106351 0.0284848  0.114864 -0.140722 0.033369  0.0815016 -0.10916 0.0222566  0.0971799 -0.133223 0.0232907  0.0960627 -0.119822 0.0250276  0.0987948 -0.130284 0.0295637  0.130927 -0.167049 0.0338128  0.113058 -0.156371 0.0299597  0.145472 -0.195854 0.0337609  0.111484 -0.159349 0.0236987  0.124289 -0.18782 0.0237059  0.129358 -0.17016 0.026697  0.125817 -0.184811 0.0298885  0.158446 -0.226857 0.0333316  0.137032 -0.215404 0.0295008  0.16977 -0.260039 0.0326642  0.135545 -0.218375 0.0234337  0.145184 -0.251067 0.0229775  0.156927 -0.229846 0.0264351  0.146637 -0.248114 0.0289005  0.179414 -0.295175 0.0318322  0.154633 -0.28275 0.028159  0.187348 -0.332164 0.0308903  0.153203 -0.285617 0.0223953  0.159573 -0.322023 0.0217392  0.177949 -0.298004 0.025286  0.160978 -0.319206 0.0273261  0.193592 -0.370808 0.029889  0.165709 -0.357306 0.0264356  0.198135 -0.410995 0.0288334  0.164324 -0.360004 0.021028  0.167443 -0.399559 0.0202955  0.192169 -0.373446 0.0237513  0.168811 -0.396931 0.0255104  0.201042 -0.452545 0.0277715  0.170349 -0.437917 0.0245695  0.202309 -0.495358 0.0266832  0.168999 -0.440411 0.0195386  0.168991 -0.482575 0.0187852  0.199662 -0.454971 0.0220706  0.170319 -0.48016 0.0236186  0.202029 -0.539274 0.0256124  0.168811 -0.523511 0.0226728  0.200205 -0.58421 0.0245334  0.16751 -0.525786 0.0180253  0.164556 -0.570079 0.0172809  0.200698 -0.541479 0.0203543  0.16583 -0.567884 0.0217313  0.19695 -0.630019 0.023488  0.161479 -0.613148 0.0208063  0.192255 -0.676649 0.0224395  0.160236 -0.615207 0.016534  0.15455 -0.66122 0.0158111  0.19568 -0.632013 0.0186598  0.155761 -0.659236 0.0198923  0.186258 -0.723963 0.021431  0.148791 -0.706031 0.0189999  0.178942 -0.771931 0.020421  0.14762 -0.707884 0.0150911  0.139436 -0.755268 0.0143954  0.185062 -0.725758 0.017022  0.140573 -0.753484 0.0181203  0.170451 -0.820425 0.0194622  0.131222 -0.801492 0.0172679  0.160759 -0.869432 0.0185016  0.130128 -0.803154 0.013706  0.119679 -0.851622 0.0130435  0.169334 -0.822032 0.015448  0.120733 -0.850021 0.0164297  0.150012 -0.91884 0.0175893  0.109229 -0.898981 0.0156191  0.138185 -0.968648 0.0166837  0.108223 -0.900467 0.0123882  0.0957353 -0.949782 0.0117586  0.148984 -0.92028 0.0139548  0.0967034 -0.948348 0.0148247  0.125422 -1.01875 0.0158207  0.0832726 -0.998046 0.0140565  0.111684 -1.06916 0.0149614  0.082355 -0.999372 0.0111364  0.0680482 -1.04934 0.010543  0.124484 -1.02004 0.0125406  0.0689243 -1.04806 0.0133055  0.0971221 -1.11978 0.0141512  0.0537766 -1.09831 0.0125816  0.0816914 -1.17063 0.0133461  0.0529487 -1.0995 0.00995588  0.0370237 -1.14995 0.00939465  0.0962744 -1.12093 0.0112026  0.0378108 -1.14881 0.0118728  0.0655322 -1.22162 0.0125832  0.0211399 -1.19948 0.011192  0.0486038 -1.27278 0.0118243  0.0204009 -1.20053 0.00884193  0.00304437 -1.25134 0.00831538  0.0647769 -1.22265 0.0099498  0.00374532 -1.25032 0.0105271  0.0310376 -1.32402 0.0111107  -0.0142632 -1.30128 0.00988799  0.0127952 -1.37538 0.010402  -0.0149155 -1.30222 0.00779539  -0.0335305 -1.35327 0.00730115  0.0303683 -1.32493 0.00876993  -0.0329123 -1.35236 0.00926244  -0.0059979 -1.42677 0.00973564  -0.052094 -1.40352 0.00866461  -0.0253952 -1.47824 0.00906956  -0.0526643 -1.40435 0.00681192  -0.0723722 -1.45556 0.0063504  -0.00658369 -1.42758 0.00766414  -0.0718384 -1.45475 0.00807887  -0.0452602 -1.5297 0.0084486  -0.0920365 -1.50602 0.0075196  -0.0656474 -1.5812 0.00782698  -0.0925283 -1.50675 0.00589365  -0.113185 -1.55804 0.0054611  -0.0457635 -1.53042 0.00663292  -0.112729 -1.55732 0.00697017  -0.0864387 -1.63266 0.00724804  -0.133806 -1.60862 0.00644827  -0.107687 -1.68414 0.00667131  -0.134219 -1.60928 0.00503033  -0.15569 -1.66057 0.00462812  -0.0868659 -1.6333 0.00566882  -0.155308 -1.65994 0.00593698  -0.129273 -1.73555 0.00613254  -0.177135 -1.71123 0.00545233  -0.151249 -1.78694 0.00559598  -0.177478 -1.7118 0.0042305  -0.199637 -1.76306 0.00385612  -0.129625 -1.73611 0.00477248  -0.199323 -1.7625 0.0049777  -0.173497 -1.83826 0.00509554  -0.22178 -1.81373 0.00452763  -0.196083 -1.88955 0.0046013  -0.222058 -1.81422 0.00348389  -0.244797 -1.8654 0.00313812  -0.173786 -1.83876 0.00393748  -0.244543 -1.86491 0.00408536  -0.218895 -1.94073 0.00414467  -0.267524 -1.91604 0.00367075  -0.241987 -1.99186 0.00369239  -0.267742 -1.91647 0.00279552  -0.290956 -1.96753 0.00247675  -0.219121 -1.94116 0.00317395  -0.290761 -1.96711 0.00326526  -0.265254 -2.04289 0.00327361  -0.314164 -2.0181 0.0028882  -0.288756 -2.09385 0.0028584  -0.314327 -2.01847 0.00216269  -0.337927 -2.06939 0.00186926  -0.265423 -2.04327 0.00247067  -0.337783 -2.06902 0.0025146  -0.312393 -2.1447 0.00247997  -0.361528 -2.11986 0.00217259  -0.336219 -2.19548 0.00210428  -0.361647 -2.12018 0.00158244  -0.385542 -2.17094 0.0013181  -0.312514 -2.14503 0.00182992  -0.385439 -2.17061 0.00183481  -0.360139 -2.24613 0.00176376  -0.409444 -2.22128 0.00152224  -0.38421 -2.29671 0.00143158  -0.409523 -2.22156 0.00105727  -0.433643 -2.27214 0.000820279  -0.360217 -2.24642 0.00125313  -0.433578 -2.27186 0.00121939  -0.40834 -2.34716 0.00112653  -0.457769 -2.32234 0.000945866  -0.43259 -2.39753 0.000832319  -0.457812 -2.32258 0.000590026  -0.482095 -2.37297 0.000380158  -0.408384 -2.34741 0.000738263  -0.482059 -2.37273 0.000677228  -0.456866 -2.44778 0.000573218  -0.50638 -2.42302 0.000436544  -0.481233 -2.49795 0.000320792  -0.506395 -2.42322 0.000176907  -0.530774 -2.47343 -5.48363e-06  -0.456881 -2.448 0.000286162  -0.530766 -2.47322 0.000204027  -0.505599 -2.548 9.52482e-05  -0.555157 -2.52331 -5.54323e-06  -0.530026 -2.59797 -0.000118077  -0.555148 -2.5235 -0.000181913  -0.579581 -2.57352 -0.000337958  -0.505589 -2.5482 -9.82881e-05  -0.57959 -2.57333 -0.000204921  -0.554434 -2.64784 -0.000301838  -0.604009 -2.62324 -0.00037998  -0.578873 -2.69763 -0.000482678  -0.603983 -2.62341 -0.000490129  -0.628419 -2.67327 -0.000625134  -0.554407 -2.64803 -0.000425518  -0.628441 -2.67308 -0.000551879  -0.603283 -2.74735 -0.000638068  -0.652852 -2.72284 -0.000707448  -0.627705 -2.79701 -0.000793636  -0.65282 -2.723 -0.000761747  -0.677243 -2.77271 -0.000882149  -0.603248 -2.74754 -0.000703156  -0.677273 -2.77253 -0.000861764  -0.652109 -2.84664 -0.00093627  -0.701671 -2.82216 -0.0010047  -0.676545 -2.89625 -0.00109708  -0.701637 -2.82233 -0.00101364  -0.726068 -2.87195 -0.00113255  -0.652065 -2.84683 -0.000957787  -0.726094 -2.87177 -0.0011633  -0.00654161 -0.00693221 -0.00553262  -0.0089517 -0.011534 -0.00652778  -0.0177945 -0.0185728 -0.0100402  -0.00959514 -0.0122813 -0.0045501  -0.0264509 -0.0275836 -0.00782132  -0.0239957 -0.0244672 -0.00511324  0 0 0  -0.0242091 -0.0237692 -0.0079509  0 0 0  0 0 0  -0.00651085 -0.00713198 -0.00354874  0 0 0  -0.0430067 -0.0361619 -0.014048  -0.0264881 -0.0264861 -0.0120666  -0.0310861 -0.0311654 -0.0136845  -0.043434 -0.0387108 -0.0162057  -0.0455118 -0.0450061 -0.0163701  -0.04373 -0.0404287 -0.0107083  -0.0612606 -0.0538267 -0.0127925  -0.0620183 -0.0489899 -0.012422  -0.0609834 -0.0469384 -0.0186594  -0.031295 -0.0326618 -0.00907063  -0.0800854 -0.0589899 -0.0224392  -0.0607276 -0.0515062 -0.0192735  -0.060672 -0.0606696 -0.0181227  -0.0783144 -0.0656245 -0.0212519  -0.0759306 -0.077982 -0.0190752  -0.0787844 -0.0681694 -0.0141188  -0.0965857 -0.0842893 -0.0149782  -0.100378 -0.0743498 -0.0162938  -0.0995239 -0.0716702 -0.0245146  -0.0609443 -0.062907 -0.0120567  -0.119548 -0.0863011 -0.0258719  -0.096058 -0.0815828 -0.0223675  -0.0915218 -0.0973306 -0.0193867  -0.114058 -0.0995763 -0.0227171  -0.107393 -0.1186 -0.0192344  -0.114616 -0.10229 -0.0152481  -0.132824 -0.122143 -0.0152147  -0.140421 -0.105718 -0.017525  -0.139762 -0.102842 -0.0261813  -0.0919998 -0.0997981 -0.0130559  -0.160037 -0.121148 -0.0259578  -0.132195 -0.119464 -0.0225358  -0.123545 -0.141648 -0.0187345  -0.150526 -0.141279 -0.0219502  -0.140047 -0.166445 -0.0180081  -0.151256 -0.143847 -0.0148561  -0.169794 -0.167208 -0.0143323  -0.181071 -0.144296 -0.0170376  -0.180373 -0.141534 -0.0252645  -0.124262 -0.144026 -0.0127271  -0.200598 -0.163493 -0.024255  -0.168973 -0.164759 -0.0211003  -0.156817 -0.192786 -0.0171495  -0.187588 -0.189926 -0.0200999  -0.173924 -0.220641 -0.0162116  -0.188505 -0.192214 -0.0136799  -0.207314 -0.218698 -0.0129646  -0.221703 -0.189799 -0.0156854  -0.220863 -0.187323 -0.023125  -0.157748 -0.194931 -0.0117174  -0.241049 -0.212598 -0.0218372  -0.206318 -0.216562 -0.0190035  -0.191307 -0.24987 -0.0152565  -0.225233 -0.244674 -0.0179001  -0.209017 -0.28042 -0.0143045  -0.226288 -0.246642 -0.0122337  -0.245396 -0.27592 -0.0114942  -0.262273 -0.24162 -0.0140382  -0.261305 -0.239492 -0.0206066  -0.192386 -0.251736 -0.0104673  -0.281571 -0.26771 -0.0193141  -0.244292 -0.274102 -0.0167927  -0.227019 -0.312209 -0.0133922  -0.263573 -0.30484 -0.0157401  -0.245354 -0.345172 -0.0125198  -0.264699 -0.306504 -0.0107932  -0.284183 -0.338304 -0.0101093  -0.303 -0.29914 -0.012403  -0.301962 -0.297343 -0.0181448  -0.22817 -0.313801 -0.00921905  -0.322444 -0.328186 -0.0169603  -0.28304 -0.33677 -0.0147251  -0.264004 -0.379253 -0.0117044  -0.302762 -0.369873 -0.0137835  -0.282994 -0.414387 -0.0109392  -0.303895 -0.371272 -0.00948167  -0.323836 -0.405347 -0.00887954  -0.344149 -0.361791 -0.0109119  -0.343098 -0.360282 -0.0159152  -0.265162 -0.380602 -0.00808644  -0.363906 -0.393476 -0.0148735  -0.322706 -0.404054 -0.0128924  -0.302312 -0.45053 -0.0102305  -0.342933 -0.439293 -0.0120723  -0.321977 -0.487623 -0.00957346  -0.34403 -0.440472 -0.00833488  -0.364482 -0.476603 -0.00781476  -0.385942 -0.429066 -0.00960612  -0.384924 -0.427795 -0.0139602  -0.30343 -0.451676 -0.00709748  -0.406134 -0.463104 -0.0130591  -0.363406 -0.475508 -0.0113044  -0.341971 -0.525622 -0.00896263  -0.384176 -0.512675 -0.0105957  -0.362312 -0.564477 -0.00839639  -0.385207 -0.513672 -0.00734687  -0.406209 -0.551651 -0.0068996  -0.42854 -0.50051 -0.0084753  -0.427575 -0.499432 -0.0122683  -0.343024 -0.526599 -0.00624967  -0.449232 -0.536653 -0.0114901  -0.405205 -0.55072 -0.00993383  -0.382979 -0.604147 -0.00786877  -0.426533 -0.589626 -0.00931871  -0.40398 -0.644582 -0.00737977  -0.427484 -0.590474 -0.00649738  -0.449037 -0.630119 -0.00610971  -0.472024 -0.575713 -0.00749862  -0.471133 -0.57479 -0.0108021  -0.383949 -0.604982 -0.00552189  -0.493251 -0.613733 -0.0101225  -0.448116 -0.629321 -0.008744  -0.42529 -0.685745 -0.0069226  -0.469988 -0.669787 -0.00820827  -0.44692 -0.727597 -0.00649774  -0.470855 -0.670515 -0.00576043  -0.492946 -0.711652 -0.00542104  -0.516421 -0.654296 -0.00664675  -0.515608 -0.653503 -0.00951886  -0.426173 -0.686466 -0.00489628  -0.538183 -0.693999 -0.00892317  -0.492112 -0.710965 -0.00770485  -0.468835 -0.770096 -0.00609303  -0.514506 -0.752833 -0.00723314  -0.491048 -0.813206 -0.00572181  -0.51529 -0.75346 -0.00511551  -0.537887 -0.79593 -0.00481677  -0.56172 -0.735928 -0.0059005  -0.560989 -0.735238 -0.00839305  -0.469633 -0.770719 -0.00434959  -0.584002 -0.777128 -0.00786328  -0.537138 -0.795335 -0.00678897  -0.513524 -0.856894 -0.00536573  -0.560018 -0.838454 -0.00636995  -0.536273 -0.901126 -0.00503755  -0.560717 -0.838994 -0.00454843  -0.583785 -0.882657 -0.00428343  -0.607881 -0.820283 -0.00524211  -0.607226 -0.819682 -0.00739002  -0.514238 -0.857434 -0.00387251  -0.630641 -0.862821 -0.00692225  -0.583117 -0.882139 -0.00597847  -0.559254 -0.945866 -0.00472283  -0.606437 -0.926375 -0.00560606  -0.582478 -0.991084 -0.00443268  -0.607058 -0.926842 -0.00404704  -0.630545 -0.971558 -0.00381291  -0.654829 -0.907076 -0.0046581  -0.654248 -0.906555 -0.00650036  -0.559888 -0.946336 -0.00345218  -0.678028 -0.950806 -0.00608885  -0.629953 -0.971108 -0.00525916  -0.605905 -1.03675 -0.00415218  -0.653663 -1.01633 -0.00492549  -0.629546 -1.08284 -0.00389588  -0.654211 -1.01673 -0.00360298  -0.678068 -1.06238 -0.00339437  -0.702487 -0.996039 -0.00413787  -0.701974 -0.995585 -0.00570786  -0.606462 -1.03716 -0.00308073  -0.726076 -1.04082 -0.00533879  -0.677547 -1.06199 -0.00461698  -0.653362 -1.12931 -0.00364828  -0.701595 -1.10807 -0.00432277  -0.677356 -1.17616 -0.00342238  -0.702074 -1.10842 -0.00320864  -0.726246 -1.15488 -0.0030247  -0.750759 -1.08692 -0.00367439  -0.750317 -1.08652 -0.00500143  -0.653846 -1.12967 -0.00275493  -0.774686 -1.13262 -0.0046705  -0.72579 -1.15454 -0.00404811  -0.701497 -1.22334 -0.00320244  -0.750122 -1.20138 -0.00378501  -0.72579 -1.27083 -0.00300336  -0.750538 -1.20169 -0.00285995  -0.77497 -1.24886 -0.00269902  -0.799555 -1.17949 -0.0032661  -0.79917 -1.17913 -0.00436938  -0.70192 -1.22365 -0.00246704  -0.823765 -1.226 -0.00407588  -0.774577 -1.24856 -0.0035429  -0.750198 -1.31862 -0.00281119  -0.79914 -1.29606 -0.00330973  -0.77473 -1.36668 -0.00263929  -0.799495 -1.29632 -0.00255632  -0.824136 -1.3441 -0.00241458  -0.848777 -1.27352 -0.00290692  -0.848447 -1.27322 -0.00381064  -0.750562 -1.31889 -0.00221682  -0.873215 -1.32074 -0.00355422  -0.823799 -1.34384 -0.00310159  -0.799348 -1.41497 -0.00247204  -0.848537 -1.3919 -0.00289643  -0.824064 -1.4635 -0.00231862  -0.84884 -1.39212 -0.00229275  -0.873641 -1.44042 -0.00216615  -0.898323 -1.36882 -0.00259006  -0.898045 -1.36856 -0.00332046  -0.799659 -1.41521 -0.00200486  -0.922943 -1.41664 -0.00309646  -0.873354 -1.4402 -0.00271225  -0.848845 -1.51223 -0.00217605  -0.898225 -1.48873 -0.00253284  -0.873695 -1.56115 -0.00205088  -0.898482 -1.48892 -0.00206161  -0.92339 -1.53766 -0.00195527  -0.948113 -1.46521 -0.00231504  -0.947878 -1.46498 -0.00289059  -0.849104 -1.51244 -0.00181735  -0.972858 -1.51354 -0.00269508  -0.923152 -1.53746 -0.00237679  -0.89858 -1.61023 -0.00192606  -0.948103 -1.58638 -0.00222433  -0.923515 -1.65946 -0.00182533  -0.948315 -1.58655 -0.00186813  -0.973289 -1.63564 -0.00177836  -0.998048 -1.56251 -0.00208175  -0.99786 -1.56231 -0.00251925  -0.898796 -1.61041 -0.00166523  -1.02289 -1.61126 -0.00235546  -0.973092 -1.63547 -0.00209129  -0.948463 -1.70883 -0.00172293  -0.998088 -1.68471 -0.00196743  -0.973441 -1.75831 -0.0016402  -0.998261 -1.68485 -0.00170791  -1.02326 -1.73422 -0.00163662  -1.04806 -1.66055 -0.00188804  -1.04791 -1.66037 -0.00220978  -0.948637 -1.70898 -0.00154221  -1.07294 -1.70963 -0.00207531  -1.0231 -1.73407 -0.00185955  -0.998413 -1.80788 -0.00155962  -1.0481 -1.78355 -0.0017575  -1.0234 -1.85754 -0.00150084  -1.04824 -1.78368 -0.00158238  -1.07324 -1.83326 -0.00152695  -1.09807 -1.75919 -0.00172889  -1.09796 -1.75903 -0.00195146  -0.998551 -1.80802 -0.00144625  -1.12296 -1.80854 -0.00184166  -1.07311 -1.83313 -0.00167274  -1.04837 -1.90727 -0.00143814  -1.09809 -1.8828 -0.00159264  -1.07332 -1.95706 -0.00139689  -1.09819 -1.8829 -0.0014863  -1.12316 -1.93265 -0.00144637  -1.14803 -1.85829 -0.00160205  -1.14794 -1.85815 -0.00174427  -1.04847 -1.90739 -0.00137711  -1.1729 -1.90784 -0.00166392  -1.12306 -1.93253 -0.0015353  -1.09825 -2.00689 -0.00135565  -1.14799 -1.98232 -0.00147891  -1.12316 -2.05675 -0.00133538  -1.14806 -1.98241 -0.00142336  -1.17297 -2.03225 -0.00139916  -1.19788 -1.95772 -0.00151646  -1.19782 -1.95759 -0.00159454  -1.09833 -2.007 -0.00133705  -1.22271 -2.0074 -0.00154102  -1.17289 -2.03214 -0.00144196  -1.14802 -2.10662 -0.00131059  -1.19775 -2.082 -0.00140691  -1.17285 -2.15651 -0.00130701  -1.19781 -2.08208 -0.00139189  -1.22264 -2.13197 -0.00138187  -1.24759 -2.05736 -0.00146759  -1.24755 -2.05725 -0.001495  -1.14808 -2.10672 -0.00132346  -1.27236 -2.10712 -0.00146508  -1.22258 -2.13187 -0.00138891  -1.19764 -2.20638 -0.00130177  -1.24736 -2.18175 -0.00137818  -1.2224 -2.25625 -0.00131607  -1.2474 -2.18182 -0.00138867  -1.27215 -2.2317 -0.0013932  -1.29714 -2.15711 -0.00145018  -1.29711 -2.157 -0.00144923  -1.19768 -2.20648 -0.00133359  -1.32184 -2.20689 -0.00144053  -1.27211 -2.23162 -0.0013833  -1.2471 -2.30608 -0.00132811  -1.29679 -2.28146 -0.00138795  -1.27177 -2.3559 -0.00135255  -1.29683 -2.28152 -0.00141025  -1.32149 -2.33137 -0.00142026  -1.34653 -2.25685 -0.00146472  -1.3465 -2.25676 -0.00144053  -1.24712 -2.30617 -0.00136268  -1.37114 -2.30662 -0.00145876  -1.32146 -2.33128 -0.00140834  -1.29638 -2.40566 -0.00137436  -1.34606 -2.38107 -0.00142789  -1.32097 -2.4554 -0.00140774  -1.3461 -2.38113 -0.00145102  -1.37069 -2.4309 -0.00146878  -1.39577 -2.35651 -0.00150371  -1.39574 -2.35643 -0.00147545  -1.29641 -2.40575 -0.0014075  -1.42033 -2.40621 -0.00150228  -1.37065 -2.43082 -0.00145733  -1.34552 -2.50508 -0.00143003  -1.3952 -2.48052 -0.00147808  -1.37006 -2.55473 -0.00145864  -1.39524 -2.48058 -0.00149798  -1.4198 -2.53027 -0.00151277  -1.44491 -2.45601 -0.00154757  -1.44488 -2.45594 -0.00152552  -1.34555 -2.50517 -0.00145888  -1.46944 -2.50563 -0.00155246  -1.41976 -2.53019 -0.00150299  -0.00323816 -0.00313108 -0.00349152  -0.00449825 -0.00435497 -0.00443041  -0.00843222 -0.0110944 -0.00647593  -0.0044526 -0.00478908 -0.00296175  -0.0120238 -0.0146362 -0.0054245  0 0 0  0 0 0  -0.00327832 -0.00346364 -0.00227511  0 0 0  -0.0118092 -0.0136114 -0.00816977  -0.0152136 -0.0231295 -0.0090059  -0.0219551 -0.0261412 -0.0112853  -0.0235603 -0.038141 -0.0108331  -0.0221022 -0.0274729 -0.00746846  -0.0335462 -0.0424212 -0.00901186  -0.0153148 -0.024373 -0.00595295  -0.033332 -0.0406915 -0.0135825  -0.0327978 -0.0553215 -0.0120386  -0.045549 -0.0572372 -0.015044  -0.0428419 -0.074792 -0.0127271  -0.0457651 -0.0591978 -0.0100225  -0.0586163 -0.0779414 -0.0106519  -0.0329883 -0.0571015 -0.00806975  -0.0583118 -0.0757785 -0.0158737  -0.0534437 -0.0961644 -0.0129584  -0.0714498 -0.0962235 -0.0161414  -0.0646383 -0.119511 -0.0128579  -0.0718791 -0.0984509 -0.0108799  -0.0855833 -0.120858 -0.0108584  -0.0538516 -0.0982083 -0.00878823  -0.0850217 -0.118604 -0.0160158  -0.0763628 -0.144611 -0.0125295  -0.0990022 -0.142748 -0.0156042  -0.088689 -0.171441 -0.0120304  -0.0997048 -0.144943 -0.0106136  -0.114259 -0.170749 -0.0102338  -0.0770477 -0.14667 -0.0085721  -0.113434 -0.168616 -0.0149931  -0.101561 -0.199809 -0.0114465  -0.128305 -0.196035 -0.0142743  -0.115047 -0.229682 -0.0107969  -0.12924 -0.198046 -0.00977063  -0.14465 -0.226861 -0.00924718  -0.10248 -0.201735 -0.00788045  -0.143625 -0.224948 -0.0134841  -0.129074 -0.26089 -0.0101392  -0.159382 -0.255218 -0.0126806  -0.143703 -0.293413 -0.00947988  -0.160474 -0.25699 -0.00872207  -0.176722 -0.288463 -0.00817692  -0.130145 -0.262618 -0.00701725  -0.175583 -0.286795 -0.0118783  -0.158856 -0.32711 -0.00884986  -0.192212 -0.319575 -0.0111071  -0.174584 -0.361967 -0.0082432  -0.193374 -0.321102 -0.00767136  -0.210454 -0.354945 -0.00716615  -0.159996 -0.328623 -0.00615442  -0.209278 -0.353514 -0.0103712  -0.19082 -0.397866 -0.00767922  -0.226766 -0.388531 -0.00968194  -0.207604 -0.434793 -0.00715101  -0.227934 -0.389834 -0.00671577  -0.245843 -0.425807 -0.00627387  -0.191962 -0.399171 -0.00536883  -0.244686 -0.424583 -0.00903821  -0.224873 -0.472649 -0.00666177  -0.263018 -0.461602 -0.0084393  -0.242661 -0.51142 -0.00620997  -0.264146 -0.462714 -0.00588322  -0.282879 -0.500596 -0.00550461  -0.225976 -0.473776 -0.00468755  -0.281777 -0.499547 -0.00788772  -0.260916 -0.551023 -0.00579274  -0.300936 -0.538362 -0.00737202  -0.279659 -0.591439 -0.005409  -0.301996 -0.539311 -0.00517023  -0.321532 -0.578904 -0.00484836  -0.261951 -0.551995 -0.00411034  -0.320506 -0.578007 -0.00690019  -0.298839 -0.632595 -0.00505245  -0.340459 -0.618429 -0.00645769  -0.318479 -0.67447 -0.00472641  -0.341439 -0.619239 -0.00456345  -0.361747 -0.660362 -0.00428712  -0.299795 -0.633432 -0.00362086  -0.360806 -0.659592 -0.00605321  -0.338524 -0.717002 -0.00442016  -0.381508 -0.701446 -0.00567019  -0.35899 -0.76017 -0.00414169  -0.382399 -0.702142 -0.00404251  -0.403433 -0.744626 -0.00380492  -0.339395 -0.717728 -0.00320411  -0.402578 -0.743958 -0.00531983  -0.379827 -0.803918 -0.00387633  -0.42398 -0.787087 -0.00498474  -0.401053 -0.848228 -0.00363433  -0.424785 -0.787688 -0.00359285  -0.446487 -0.831377 -0.0033859  -0.380616 -0.804549 -0.00284982  -0.445719 -0.830799 -0.00467885  -0.422613 -0.893047 -0.00340486  -0.467757 -0.875057 -0.00438774  -0.444518 -0.938356 -0.00319648  -0.468475 -0.875575 -0.00320208  -0.490789 -0.920332 -0.00302172  -0.423317 -0.893594 -0.00254297  -0.490103 -0.919827 -0.00412035  -0.466725 -0.984109 -0.00299668  -0.512713 -0.965077 -0.00386059  -0.48924 -1.03029 -0.00281537  -0.513354 -0.965527 -0.00286078  -0.536208 -1.01122 -0.00270188  -0.467351 -0.984588 -0.00228071  -0.535601 -1.01078 -0.00362825  -0.512012 -1.07686 -0.00263906  -0.558715 -1.0569 -0.00339746  -0.535059 -1.1238 -0.00248182  -0.559279 -1.05728 -0.00256109  -0.582609 -1.10379 -0.00242174  -0.512564 -1.07728 -0.00205076  -0.582074 -1.10341 -0.00319302  -0.558323 -1.17107 -0.00232899  -0.605628 -1.15028 -0.00299144  -0.581823 -1.21866 -0.00219452  -0.606121 -1.15062 -0.00230098  -0.62986 -1.19783 -0.0021776  -0.558804 -1.17143 -0.00185335  -0.629391 -1.1975 -0.00281239  -0.605508 -1.26653 -0.00206017  -0.653316 -1.24502 -0.00263643  -0.62939 -1.31468 -0.00194585  -0.653747 -1.24531 -0.00207376  -0.677827 -1.29313 -0.00196791  -0.605929 -1.26685 -0.00168812  -0.677418 -1.29284 -0.00248039  -0.653427 -1.36306 -0.00183129  -0.70165 -1.34092 -0.00232279  -0.677622 -1.41166 -0.00173557  -0.70202 -1.34117 -0.001876  -0.726378 -1.3895 -0.00178778  -0.653787 -1.36333 -0.00154531  -0.726025 -1.38925 -0.00219083  -0.701939 -1.46047 -0.00163901  -0.750501 -1.4378 -0.00205815  -0.726385 -1.50946 -0.0015552  -0.750817 -1.43802 -0.00171125  -0.775395 -1.48678 -0.00163126  -0.702248 -1.46071 -0.00142705  -0.775096 -1.48656 -0.00194204  -0.750919 -1.55861 -0.00147676  -0.799761 -1.5355 -0.00183058  -0.775558 -1.60792 -0.00141287  -0.800027 -1.53568 -0.00157046  -0.824767 -1.5848 -0.00150716  -0.751179 -1.55883 -0.00133002  -0.824516 -1.58461 -0.00173664  -0.800255 -1.65734 -0.00135064  -0.849314 -1.63386 -0.00164294  -0.825024 -1.70688 -0.00130165  -0.849538 -1.63402 -0.001459  -0.874384 -1.68341 -0.00140703  -0.800471 -1.65753 -0.00125909  -0.874177 -1.68324 -0.00156796  -0.849832 -1.75652 -0.00124872  -0.899061 -1.73274 -0.00149012  -0.874687 -1.80625 -0.00121367  -0.899242 -1.73288 -0.00136995  -0.924156 -1.78249 -0.00132728  -0.850006 -1.75668 -0.00120401  -0.923987 -1.78234 -0.00143182  -0.899556 -1.85603 -0.0011797  -0.948912 -1.83202 -0.00137293  -0.924452 -1.90588 -0.00115609  -0.949058 -1.83214 -0.00130343  -0.973998 -1.8819 -0.00127697  -0.899691 -1.85618 -0.00117123  -0.973864 -1.88177 -0.001333  -0.949341 -1.95577 -0.00113416  -0.998792 -1.93158 -0.00129092  -0.974243 -2.00569 -0.00112867  -0.998909 -1.93168 -0.00126302  -1.02384 -1.98154 -0.0012449  -0.949449 -1.9559 -0.00115454  -1.02373 -1.98142 -0.0012666  -0.99912 -2.05562 -0.00111973  -1.04864 -2.0313 -0.00124073  -1.02399 -2.10557 -0.00112522  -1.04873 -2.03139 -0.00124443  -1.07362 -2.08131 -0.00123775  -0.999198 -2.05574 -0.00115919  -1.07354 -2.0812 -0.00123525  -1.04883 -2.15551 -0.00112891  -1.09839 -2.13111 -0.00122476  -1.07364 -2.20545 -0.00114632  -1.09845 -2.13119 -0.00124896  -1.12329 -2.18111 -0.00125325  -1.04889 -2.15562 -0.00117886  -1.12322 -2.18101 -0.00122952  -1.09842 -2.25536 -0.00116396  -1.148 -2.2309 -0.00123549  -1.12316 -2.30525 -0.00119483  -1.14806 -2.23098 -0.00127184  -1.17281 -2.28086 -0.00128543  -1.09846 -2.25546 -0.00121713  -1.17276 -2.28077 -0.00126028  -1.14786 -2.3551 -0.0012213  -1.19746 -2.33062 -0.00127649  -1.17252 -2.40491 -0.00125432  -1.1975 -2.33069 -0.00131321  -1.22217 -2.38051 -0.00133324  -1.14789 -2.35519 -0.00126886  -1.22213 -2.38042 -0.00130761  -1.19713 -2.45468 -0.00128746  -1.24674 -2.43019 -0.00133073  -1.2217 -2.5044 -0.0013299  -1.24677 -2.43026 -0.00136662  -1.27136 -2.48 -0.00138462  -1.19715 -2.45477 -0.00132859  -1.27133 -2.47991 -0.00136757  -1.24622 -2.55405 -0.00135696  -1.29586 -2.52958 -0.00139201  -1.27072 -2.60366 -0.00139487  -1.29589 -2.52965 -0.00141799  -1.32044 -2.57929 -0.00143969  -1.24625 -2.55415 -0.00139189  -1.3204 -2.5792 -0.00142837  -0.00101225 -0.00265613 -0.0016892  -0.00200369 -0.00261524 -0.00257301  -0.00254813 -0.0102581 -0.00318491  -0.00201095 -0.00296333 -0.00172186  -0.0052316 -0.0109241 -0.00320435  0 0 0  0 0 0  -0.00105319 -0.00295627 -0.00111437  0 0 0  -0.00509223 -0.0101874 -0.00482631  -0.00472024 -0.0222125 -0.00450361  -0.00955482 -0.0221112 -0.00671983  -0.00781138 -0.0375532 -0.00547934  -0.00962843 -0.0231532 -0.00445211  -0.0152666 -0.0385223 -0.00544035  -0.00486448 -0.023147 -0.00299954  -0.0150533 -0.0371713 -0.00814378  -0.0116649 -0.0557645 -0.00617015  -0.0216577 -0.0549305 -0.00907767  -0.0164101 -0.0764725 -0.00657594  -0.0218725 -0.0564872 -0.00608134  -0.0293268 -0.0767971 -0.00651073  -0.0119521 -0.0571868 -0.00418222  -0.0289994 -0.0750346 -0.00962996  -0.0219302 -0.0993113 -0.00673914  -0.0370919 -0.0972076 -0.00982523  -0.0282966 -0.12418 -0.00670362  -0.0375255 -0.0990567 -0.00667  -0.0464301 -0.123293 -0.00666797  -0.0224076 -0.101032 -0.004632  -0.0458662 -0.121363 -0.00976145  -0.0354508 -0.150846 -0.00653768  -0.0553216 -0.147301 -0.00951409  -0.043463 -0.179259 -0.00626051  -0.0560144 -0.149216 -0.00652897  -0.0662989 -0.176877 -0.00628543  -0.0361486 -0.15267 -0.00454533  -0.0654875 -0.174967 -0.00912762  -0.0522762 -0.209231 -0.00593114  -0.0763478 -0.204186 -0.00867164  -0.0619552 -0.240723 -0.00555563  -0.0772598 -0.206014 -0.00599968  -0.088926 -0.236684 -0.00565886  -0.0531646 -0.21101 -0.00416338  -0.0879312 -0.234908 -0.00816512  -0.0724254 -0.273567 -0.00517809  -0.100205 -0.266975 -0.00764835  -0.0837362 -0.307736 -0.00479186  -0.101256 -0.268639 -0.00532675  -0.114276 -0.301947 -0.00497019  -0.073435 -0.275215 -0.00366759  -0.11318 -0.300353 -0.00712883  -0.0958063 -0.343077 -0.00442505  -0.12682 -0.334908 -0.00663328  -0.108673 -0.379575 -0.00407124  -0.127933 -0.33638 -0.00464904  -0.142256 -0.372009 -0.00431967  -0.0968714 -0.344558 -0.00316691  -0.141129 -0.370608 -0.00615537  -0.122252 -0.417096 -0.00374365  -0.156064 -0.407347 -0.00570977  -0.136579 -0.455631 -0.00343895  -0.157181 -0.408631 -0.00403345  -0.172742 -0.446317 -0.00374711  -0.123318 -0.418406 -0.0027132  -0.171637 -0.445097 -0.00529742  -0.151571 -0.49506 -0.0031594  -0.187793 -0.483763 -0.00491273  -0.167254 -0.535376 -0.00290704  -0.18887 -0.484875 -0.00350106  -0.2056 -0.524378 -0.00325954  -0.152599 -0.496207 -0.00232577  -0.204547 -0.523319 -0.00456214  -0.183553 -0.576478 -0.00267363  -0.221846 -0.563689 -0.00423551  -0.20049 -0.618357 -0.00246572  -0.222862 -0.564652 -0.00305295  -0.240686 -0.605763 -0.00285113  -0.18452 -0.577479 -0.0020057  -0.239706 -0.604846 -0.00394154  -0.217993 -0.660922 -0.0022732  -0.25807 -0.64672 -0.00366592  -0.236083 -0.704167 -0.00210357  -0.259005 -0.647553 -0.0026772  -0.277852 -0.690084 -0.00250828  -0.218889 -0.661795 -0.00174332  -0.276951 -0.689287 -0.00342023  -0.25469 -0.74801 -0.00194657  -0.296295 -0.732487 -0.0031867  -0.273827 -0.792445 -0.00180745  -0.29715 -0.733207 -0.00236487  -0.316932 -0.776988 -0.00222182  -0.255505 -0.748774 -0.00153446  -0.316115 -0.776293 -0.00298023  -0.293431 -0.837399 -0.00167656  -0.336352 -0.820653 -0.0027802  -0.313515 -0.882869 -0.00156379  -0.337124 -0.821279 -0.0021019  -0.357762 -0.866149 -0.00198197  -0.294169 -0.838068 -0.0013622  -0.357024 -0.865545 -0.00260592  -0.33402 -0.928787 -0.00145614  -0.37807 -0.910922 -0.00243509  -0.354952 -0.975148 -0.00136352  -0.378763 -0.911464 -0.00188136  -0.400168 -0.957288 -0.0017786  -0.334682 -0.929372 -0.00122428  -0.399505 -0.956758 -0.00228572  -0.376256 -1.0219 -0.00127435  -0.421272 -1.00302 -0.00214124  -0.397938 -1.06902 -0.00120091  -0.42189 -1.00349 -0.00169373  -0.443972 -1.05013 -0.00160515  -0.376847 -1.02241 -0.00111246  -0.443384 -1.04967 -0.00201225  -0.419945 -1.11648 -0.00112736  -0.465786 -1.09669 -0.00188875  -0.442284 -1.16426 -0.00106812  -0.466332 -1.0971 -0.00153542  -0.489007 -1.14445 -0.00146055  -0.420465 -1.11693 -0.0010246  -0.488491 -1.14405 -0.00178087  -0.4649 -1.21232 -0.00100994  -0.511439 -1.19172 -0.00167429  -0.487801 -1.26065 -0.00096488  -0.511919 -1.19207 -0.0014025  -0.535109 -1.24003 -0.00134146  -0.465356 -1.21272 -0.000956178  -0.534655 -1.23968 -0.0015862  -0.510941 -1.30921 -0.000917792  -0.558076 -1.2879 -0.00149596  -0.534323 -1.358 -0.000886679  -0.55849 -1.28821 -0.00129461  -0.582113 -1.33667 -0.00124347  -0.511337 -1.30956 -0.000906229  -0.581721 -1.33636 -0.00142431  -0.557899 -1.40698 -0.000850081  -0.605532 -1.38505 -0.00134647  -0.581679 -1.45614 -0.000826716  -0.605891 -1.38531 -0.00120676  -0.629872 -1.4342 -0.00116408  -0.558239 -1.40728 -0.00086987  -0.629534 -1.43393 -0.00128603  -0.605616 -1.50546 -0.000801086  -0.653666 -1.48299 -0.00122464  -0.62972 -1.55492 -0.000788093  -0.653973 -1.48323 -0.00113571  -0.678239 -1.53246 -0.00110245  -0.605906 -1.50572 -0.00085032  -0.677951 -1.53222 -0.00117671  -0.653942 -1.6045 -0.000770092  -0.702334 -1.58159 -0.00112784  -0.678297 -1.6542 -0.000768661  -0.702591 -1.58179 -0.00108182  -0.727083 -1.63129 -0.00105929  -0.654183 -1.60474 -0.000839353  -0.726842 -1.63108 -0.00109756  -0.702741 -1.70398 -0.000757337  -0.751417 -1.68069 -0.00106084  -0.727289 -1.75385 -0.000767708  -0.751632 -1.68087 -0.00105071  -0.776286 -1.73058 -0.00103343  -0.702945 -1.70419 -0.000846386  -0.776084 -1.73039 -0.00103927  -0.751893 -1.80377 -0.000768185  -0.800793 -1.78018 -0.00101459  -0.77657 -1.85375 -0.000780344  -0.800968 -1.78033 -0.00103056  -0.825732 -1.83019 -0.00102353  -0.752057 -1.80396 -0.000863433  -0.825568 -1.83003 -0.00100315  -0.80128 -1.90377 -0.000790358  -0.850358 -1.87993 -0.000988841  -0.826039 -1.95382 -0.000809669  -0.850499 -1.88006 -0.00102627  -0.875327 -1.93002 -0.00102341  -0.801407 -1.90394 -0.000890613  -0.875198 -1.92987 -0.000988245  -0.850809 -2.00388 -0.00082624  -0.900029 -1.97985 -0.000985861  -0.875603 -2.05395 -0.000856638  -0.900139 -1.97996 -0.00103807  -0.924986 -2.02997 -0.00104165  -0.850905 -2.00403 -0.000927567  -0.924886 -2.02984 -0.000996351  -0.900389 -2.10401 -0.000879049  -0.949715 -2.07984 -0.001001  -0.925183 -2.15407 -0.000916481  -0.949799 -2.07994 -0.00106525  -0.974637 -2.12996 -0.00107872  -0.900465 -2.10415 -0.000978351  -0.97456 -2.12984 -0.0010252  -0.949955 -2.2041 -0.000944734  -0.999361 -2.17983 -0.00104058  -0.974718 -2.25411 -0.000986218  -0.999423 -2.17992 -0.00110459  -1.02422 -2.2299 -0.00112319  -0.950004 -2.20422 -0.00103486  -1.02416 -2.2298 -0.00107253  -0.999445 -2.30408 -0.0010258  -1.04891 -2.27974 -0.00109792  -1.02415 -2.35401 -0.00107419  -1.04896 -2.27982 -0.00115633  -1.07369 -2.32974 -0.00118351  -0.999478 -2.30419 -0.00110376  -1.07364 -2.32964 -0.00113904  -1.04881 -2.4039 -0.00111115  -1.09832 -2.37951 -0.00116992  -1.07345 -2.45373 -0.0011636  -1.09835 -2.37959 -0.00121987  -1.12301 -2.42943 -0.00124788  -1.04884 -2.404 -0.00117564  -1.12297 -2.42933 -0.0012145  -1.09803 -2.50351 -0.00120509  -1.14756 -2.4791 -0.0012517  -1.12257 -2.55323 -0.00125611  -1.14759 -2.47918 -0.00128829  -1.17216 -2.52892 -0.00131643  -1.09804 -2.50361 -0.00125146  -1.17213 -2.52882 -0.00129652  -1.14705 -2.60287 -0.00130177  -1.19663 -2.57847 -0.00133026  -1.1715 -2.65244 -0.00135803  -1.19666 -2.57855 -0.00135887  -1.22115 -2.62815 -0.00138772  -1.14707 -2.60297 -0.00133181  -1.22111 -2.62805 -0.00137997  0.000887372 -0.00385833 2.89679e-05  -1.44765e-05 -0.00310394 -0.000830531  0.00235522 -0.0125585 -2.64645e-05  -4.02667e-05 -0.00336984 -0.000573993  -8.37222e-05 -0.0116627 -0.00110042  0 0 0  0 0 0  0.000842258 -0.00411916 -4.17233e-06  0 0 0  6.99013e-05 -0.011094 -0.00161004  0.00411059 -0.0254872 -0.000163913  -0.000172526 -0.0234453 -0.00229239  0.00561348 -0.041726 -0.000311971  -0.000338063 -0.0242641 -0.00156367  -0.0011612 -0.040219 -0.00197875  0.00386932 -0.02624 -0.000170588  -0.000851795 -0.0391414 -0.00287843  0.00663254 -0.0609826 -0.000501633  -0.00231636 -0.0578619 -0.00329745  0.00686979 -0.0826955 -0.000635982  -0.00265542 -0.059148 -0.00226593  -0.00496501 -0.0805466 -0.00248516  0.00619841 -0.0621771 -0.000426888  -0.00451633 -0.0790612 -0.00357962  0.00622624 -0.106673 -0.000731945  -0.00760809 -0.102493 -0.00370443  0.00458652 -0.132685 -0.000755787  -0.00813571 -0.104091 -0.00258589  -0.0122139 -0.129669 -0.00260782  0.00563407 -0.10819 -0.000612497  -0.0115851 -0.12796 -0.00370693  0.00193638 -0.160566 -0.000736475  -0.0164852 -0.155269 -0.00361454  -0.00179207 -0.19022 -0.000662565  -0.0172065 -0.156996 -0.00256658  -0.0231422 -0.186095 -0.00245774  0.0011977 -0.162239 -0.000641823  -0.0223351 -0.184334 -0.00344586  -0.00655979 -0.221478 -0.000568867  -0.0291249 -0.214986 -0.00323665  -0.0124167 -0.254294 -0.000444531  -0.030005 -0.216696 -0.00233603  -0.0378178 -0.248859 -0.00216734  -0.00741857 -0.223164 -0.000546217  -0.0368772 -0.247167 -0.00299156  -0.0192915 -0.288497 -0.000320077  -0.0455558 -0.280724 -0.00274312  -0.0272301 -0.324057 -0.000189543  -0.0465379 -0.282327 -0.00201666  -0.0561863 -0.317169 -0.00183928  -0.0202309 -0.290099 -0.000391006  -0.0551705 -0.31561 -0.00248849  -0.0361354 -0.360813 -6.49691e-05  -0.0656695 -0.351689 -0.00224483  -0.046046 -0.398743 5.13792e-05  -0.0666957 -0.353144 -0.001688  -0.0780878 -0.390321 -0.00152564  -0.0371084 -0.362284 -0.000226974  -0.0770543 -0.388921 -0.00201213  -0.0568614 -0.437703 0.000153422  -0.089266 -0.427186 -0.00179803  -0.0686122 -0.477673 0.000244737  -0.0902899 -0.428481 -0.0013938  -0.103318 -0.467695 -0.0012567  -0.0578272 -0.439026 -8.7142e-05  -0.102306 -0.466454 -0.00160122  -0.0812004 -0.51853 0.000323534  -0.116111 -0.506618 -0.00142419  -0.0946492 -0.560255 0.000383735  -0.117098 -0.507758 -0.00114822  -0.131649 -0.548743 -0.00103855  -0.0821296 -0.519705 2.02656e-05  -0.130682 -0.54765 -0.00126767  -0.108866 -0.602742 0.000436902  -0.145955 -0.589462 -0.00112462  -0.123869 -0.645977 0.000474453  -0.146885 -0.590461 -0.000954032  -0.162834 -0.632987 -0.00086689  -0.109744 -0.603784 9.0003e-05  -0.161934 -0.632029 -0.00100219  -0.139571 -0.689863 0.000504732  -0.178548 -0.675269 -0.000890613  -0.155987 -0.73439 0.00052011  -0.179411 -0.676143 -0.000804782  -0.196641 -0.720004 -0.000740647  -0.140383 -0.690781 0.000128269  -0.19581 -0.719163 -0.000798464  -0.173036 -0.779474 0.000532627  -0.21365 -0.76364 -0.000713587  -0.190729 -0.825107 0.000531435  -0.214439 -0.764405 -0.000693798  -0.232834 -0.809416 -0.000646591  -0.173781 -0.780286 0.00013864  -0.232076 -0.808679 -0.000644088  -0.208991 -0.871212 0.000528574  -0.251021 -0.85422 -0.000581026  -0.227829 -0.917783 0.00051415  -0.251735 -0.85489 -0.000614882  -0.271177 -0.900893 -0.000579834  -0.209666 -0.871927 0.000126004  -0.270494 -0.900244 -0.000532508  -0.247177 -0.964757 0.000498772  -0.290429 -0.9467 -0.000484228  -0.267038 -1.01213 0.000475049  -0.29107 -0.947286 -0.000560045  -0.311448 -0.994139 -0.000535965  -0.247783 -0.965388 9.75132e-05  -0.310837 -0.993567 -0.000452995  -0.287348 -1.05983 0.000453472  -0.331649 -1.0408 -0.00041461  -0.30811 -1.10786 0.000419497  -0.332222 -1.04132 -0.000525475  -0.353428 -1.08889 -0.000509024  -0.287886 -1.06039 5.72205e-05  -0.352883 -1.08839 -0.000396729  -0.329264 -1.15618 0.000391126  -0.374469 -1.13628 -0.000373602  -0.350815 -1.20477 0.000352144  -0.374979 -1.13673 -0.000504732  -0.396904 -1.18491 -0.000496268  -0.329741 -1.15667 6.91414e-06  -0.396425 -1.18447 -0.000365138  -0.372703 -1.25359 0.000316501  -0.418682 -1.23291 -0.000351429  -0.394933 -1.30263 0.000272393  -0.419128 -1.23331 -0.000502467  -0.441681 -1.28199 -0.000499606  -0.373122 -1.25402 -5.37634e-05  -0.441262 -1.2816 -0.000352502  -0.417454 -1.35186 0.000233769  -0.464094 -1.33051 -0.000348449  -0.440266 -1.40128 0.000184059  -0.46448 -1.33085 -0.000511527  -0.487567 -1.37995 -0.000514627  -0.417817 -1.35225 -0.000120044  -0.487201 -1.3796 -0.000356555  -0.46332 -1.45084 0.000142574  -0.510521 -1.42888 -0.000358462  -0.486622 -1.50054 9.23872e-05  -0.510854 -1.42918 -0.00052762  -0.534385 -1.47861 -0.0005337  -0.463631 -1.45118 -0.000189662  -0.534072 -1.47831 -0.00037241  -0.51012 -1.55035 4.55379e-05  -0.557791 -1.52788 -0.000382304  -0.533822 -1.60028 -1.09673e-05  -0.558076 -1.52815 -0.000554562  -0.581969 -1.57784 -0.000565529  -0.510384 -1.55066 -0.000267506  -0.581702 -1.57758 -0.000404  -0.55768 -1.65028 -5.80549e-05  -0.605746 -1.62738 -0.000418067  -0.581704 -1.70036 -0.000118136  -0.605981 -1.6276 -0.000588655  -0.630166 -1.6775 -0.00060606  -0.5579 -1.65055 -0.000346303  -0.629943 -1.67726 -0.000448823  -0.605845 -1.75049 -0.000167608  -0.654239 -1.72722 -0.000468373  -0.630122 -1.80068 -0.000226021  -0.654435 -1.72742 -0.000633121  -0.678843 -1.77746 -0.000655413  -0.606026 -1.75073 -0.000430584  -0.678658 -1.77725 -0.000503063  -0.654482 -1.85089 -0.000277758  -0.703139 -1.82732 -0.00052619  -0.678937 -1.90113 -0.000339866  -0.703303 -1.8275 -0.000686288  -0.727866 -1.87762 -0.000712037  -0.654627 -1.8511 -0.000516295  -0.727714 -1.87743 -0.000566602  -0.703448 -1.95137 -0.000391722  -0.752327 -1.92756 -0.000595331  -0.728031 -2.00162 -0.000454664  -0.752457 -1.92771 -0.000745296  -0.777123 -1.97787 -0.000770807  -0.703562 -1.95156 -0.000606537  -0.777006 -1.97771 -0.000639558  -0.752642 -2.05186 -0.000510335  -0.801697 -2.02786 -0.000674129  -0.777302 -2.10209 -0.000575423  -0.801793 -2.028 -0.000810504  -0.826523 -2.07816 -0.000839353  -0.752732 -2.05202 -0.000697851  -0.826431 -2.07801 -0.000719547  -0.801967 -2.15228 -0.00063324  -0.851154 -2.12814 -0.000757933  -0.826653 -2.20245 -0.00069809  -0.851227 -2.12826 -0.0008775  -0.87597 -2.17839 -0.000912547  -0.802027 -2.15243 -0.000789165  -0.8759 -2.17825 -0.000811577  -0.851333 -2.25257 -0.000755787  -0.900625 -2.22834 -0.000853539  -0.876016 -2.30266 -0.000821471  -0.900676 -2.22844 -0.000957489  -0.925405 -2.2785 -0.000993252  -0.851373 -2.25271 -0.000887156  -0.925355 -2.27838 -0.000910282  -0.900668 -2.35268 -0.000878811  -0.950045 -2.32838 -0.000956297  -0.925321 -2.40267 -0.000945687  -0.950083 -2.32848 -0.00104141  -0.974765 -2.37845 -0.00107658  -0.900699 -2.35281 -0.000985742  -0.974728 -2.37834 -0.00101376  -0.949929 -2.45258 -0.00100541  -0.999363 -2.42824 -0.00106049  -0.97452 -2.50245 -0.00106978  -0.999387 -2.42833 -0.0011245  -1.02401 -2.4782 -0.00116372  -0.94994 -2.4527 -0.00108039  -1.02398 -2.47809 -0.00112033  -0.999059 -2.55223 -0.00113153  -1.04853 -2.52787 -0.00117016  -1.02357 -2.60196 -0.00119567  -1.04856 -2.52796 -0.00121224  -1.07309 -2.57769 -0.00125098  -0.999068 -2.55235 -0.00118113  -1.07307 -2.57759 -0.00123107  -1.04802 -2.6516 -0.00125194  -1.09753 -2.62724 -0.00128126  -1.07242 -2.70116 -0.00132072  -1.09755 -2.62732 -0.00129962  -1.12198 -2.67691 -0.00133848  -1.04803 -2.65171 -0.00127792  -1.12196 -2.6768 -0.00133896  0.00278407 -0.00643891 0.00166428  0.00186071 -0.0049848 0.000851393  0.00725977 -0.0173241 0.00296378  0.00182975 -0.00521892 0.000524402  0.00469583 -0.015106 0.000899076  0 0 0  0 0 0  0.00274339 -0.0066846 0.00105715  0 0 0  0.00489429 -0.0146295 0.00147665  0.0129078 -0.0321883 0.00392902  0.0084852 -0.0284292 0.00194287  0.0188876 -0.0498462 0.0045675  0.00821163 -0.0291361 0.00119841  0.0118004 -0.0462655 0.00133908  0.0125679 -0.0328617 0.0024997  0.0122329 -0.0453281 0.00216186  0.0245741 -0.0703295 0.00485885  0.0155394 -0.0651662 0.00224006  0.029569 -0.0930426 0.00499403  0.0150361 -0.0663053 0.0013907  0.017578 -0.0887209 0.00137997  0.0239842 -0.0714252 0.00312221  0.0181735 -0.0873853 0.00222027  0.0335738 -0.117974 0.00498509  0.019862 -0.11185 0.00217009  0.0364456 -0.144917 0.00493109  0.019209 -0.113304 0.00133908  0.0197922 -0.139933 0.001302  0.0328594 -0.119395 0.00321293  0.0205073 -0.138349 0.00211775  0.038115 -0.173752 0.00483763  0.0200361 -0.166734 0.00207782  0.0385081 -0.20441 0.00474191  0.0192702 -0.168346 0.00125945  0.0175853 -0.198581 0.00124884  0.0373289 -0.175345 0.00310588  0.0183997 -0.19691 0.00205827  0.0376608 -0.236723 0.00463879  0.0156057 -0.228723 0.00204933  0.0355179 -0.27065 0.00454247  0.0147521 -0.230359 0.00122654  0.0107449 -0.26375 0.00123608  0.0368238 -0.238353 0.00296009  0.011633 -0.262111 0.00205767  0.03216 -0.306016 0.00444055  0.0065226 -0.296919 0.00206566  0.0275496 -0.342784 0.00434327  0.00561488 -0.298486 0.00122666  -0.000658453 -0.334635 0.00123918  0.0312904 -0.307588 0.00281727  0.000270307 -0.333097 0.00207901  0.0217755 -0.380785 0.00424111  -0.0070703 -0.370497 0.00208688  0.0148149 -0.419989 0.00413823  -0.00800061 -0.371944 0.00123215  -0.0164243 -0.41048 0.00124073  0.0208957 -0.382249 0.00267565  -0.0154909 -0.409075 0.0020926  0.00676894 -0.46024 0.00403047  -0.0249263 -0.4487 0.00208902  -0.00238001 -0.50151 0.00391757  -0.0258455 -0.45001 0.00122571  -0.0362768 -0.490595 0.0012213  0.00590301 -0.461574 0.00252497  -0.0353668 -0.48933 0.0020752  -0.012534 -0.543669 0.00380027  -0.0467432 -0.530855 0.00205612  -0.0237 -0.586688 0.00367737  -0.0476288 -0.532024 0.00119591  -0.0599146 -0.574364 0.00117874  -0.013366 -0.544869 0.00236201  -0.059046 -0.573238 0.00202537  -0.0357859 -0.630453 0.00355411  -0.0722035 -0.61638 0.0019896  -0.0487959 -0.674943 0.00342357  -0.0730413 -0.617416 0.00114429  -0.087023 -0.661249 0.0011152  -0.0365709 -0.631526 0.00219011  -0.0862101 -0.66025 0.00194275  -0.0626374 -0.720059 0.00329304  -0.10099 -0.704765 0.00189245  -0.0773191 -0.765782 0.00315499  -0.101766 -0.705682 0.00107133  -0.117289 -0.750781 0.00103307  -0.0633682 -0.721015 0.00200689  -0.116539 -0.749897 0.00183046  -0.0927501 -0.812027 0.00302172  -0.132785 -0.795575 0.00177169  -0.108934 -0.858781 0.00288093  -0.133499 -0.796384 0.000981569  -0.150416 -0.842557 0.000935555  -0.0934199 -0.812877 0.00181675  -0.149729 -0.841774 0.00170088  -0.125793 -0.905968 0.00274408  -0.167292 -0.888432 0.00163066  -0.143325 -0.953578 0.00260258  -0.167942 -0.889147 0.000878096  -0.186104 -0.936224 0.000827909  -0.126402 -0.906724 0.00162137  -0.185483 -0.935529 0.00155199  -0.161454 -1.00154 0.00246727  -0.204225 -0.98301 0.0014782  -0.180182 -1.04986 0.00232589  -0.20481 -0.98364 0.00076735  -0.224085 -1.03147 0.000713706  -0.162003 -1.00222 0.00142765  -0.223528 -1.03086 0.00139403  -0.19944 -1.09846 0.00219131  -0.243314 -1.07902 0.00131679  -0.219227 -1.14735 0.0020504  -0.243835 -1.07958 0.000649691  -0.264089 -1.12803 0.00059402  -0.199929 -1.09906 0.00123322  -0.263594 -1.12749 0.00123024  -0.239473 -1.19648 0.00191975  -0.284299 -1.17622 0.00115073  -0.260186 -1.24583 0.00177991  -0.28476 -1.17671 0.000528336  -0.305875 -1.22567 0.000470996  -0.239906 -1.19701 0.00104165  -0.305439 -1.22519 0.00106061  -0.281297 -1.29537 0.00165176  -0.326938 -1.27438 0.000980377  -0.302807 -1.34509 0.00151706  -0.327345 -1.27481 0.000405312  -0.349202 -1.32419 0.000346899  -0.281676 -1.29585 0.000853896  -0.348818 -1.32377 0.000890136  -0.324662 -1.39495 0.00139213  -0.371003 -1.37332 0.000809073  -0.34686 -1.44496 0.00126255  -0.371357 -1.3737 0.000280023  -0.393849 -1.42341 0.000221491  -0.32499 -1.39537 0.000673056  -0.393517 -1.42303 0.000719428  -0.369348 -1.49506 0.00114083  -0.416289 -1.47287 0.000637054  -0.392128 -1.54528 0.00101376  -0.41659 -1.47321 0.000155568  -0.439622 -1.52317 9.63211e-05  -0.369627 -1.49544 0.000493526  -0.439338 -1.52283 0.000547409  -0.415145 -1.59556 0.000896215  -0.462596 -1.57289 0.000465155  -0.438411 -1.64591 0.000771642  -0.462854 -1.57318 2.98023e-05  -0.486329 -1.62332 -2.76566e-05  -0.415382 -1.59589 0.00031805  -0.486088 -1.62303 0.000375628  -0.461867 -1.69631 0.000658989  -0.509744 -1.67323 0.000295758  -0.485524 -1.74675 0.00054121  -0.509959 -1.67349 -9.5129e-05  -0.533792 -1.72376 -0.000150919  -0.462063 -1.6966 0.000150442  -0.533592 -1.7235 0.000208139  -0.509334 -1.79721 0.000434756  -0.557568 -1.7738 0.000128865  -0.533304 -1.84769 0.000318289  -0.557743 -1.77402 -0.000216365  -0.58186 -1.82436 -0.000272393  -0.509493 -1.79747 -9.41753e-06  -0.581695 -1.82413 4.22001e-05  -0.557389 -1.89816 0.000212908  -0.605917 -1.87448 -3.45707e-05  -0.581597 -1.94864 0.000104547  -0.606058 -1.87468 -0.000337362  -0.630387 -1.92505 -0.000393152  -0.557517 -1.8984 -0.000167727  -0.630256 -1.92484 -0.00012064  -0.605887 -1.99909 5.96046e-06  -0.654654 -1.97519 -0.000197291  -0.63027 -2.04953 -9.81092e-05  -0.654764 -1.97537 -0.000458598  -0.679246 -2.02572 -0.000512362  -0.605985 -1.9993 -0.000320792  -0.679141 -2.02554 -0.000279069  -0.654702 -2.09993 -0.000190973  -0.703663 -2.07586 -0.000353098  -0.679202 -2.15029 -0.000294805  -0.703748 -2.07601 -0.000574827  -0.728327 -2.12632 -0.000627637  -0.654773 -2.10011 -0.00046134  -0.728248 -2.12616 -0.000436902  -0.703725 -2.2006 -0.000383258  -0.752839 -2.17642 -0.000512123  -0.728289 -2.25087 -0.000479102  -0.7529 -2.17655 -0.000692606  -0.777529 -2.22678 -0.000745773  -0.703774 -2.20077 -0.000603914  -0.777471 -2.22663 -0.000593901  -0.752853 -2.30108 -0.000563383  -0.802088 -2.2768 -0.000663042  -0.777441 -2.35123 -0.000653982  -0.802134 -2.27692 -0.000808716  -0.826768 -2.32705 -0.000859022  -0.752886 -2.30123 -0.000737786  -0.826729 -2.32692 -0.000740647  -0.802012 -2.40131 -0.000732422  -0.85134 -2.37698 -0.000808358  -0.826591 -2.45133 -0.000819683  -0.851371 -2.37709 -0.000919938  -0.875986 -2.42711 -0.000967741  -0.80203 -2.40145 -0.000863433  -0.875958 -2.42698 -0.000885963  -0.851136 -2.50127 -0.000895739  -0.900532 -2.47692 -0.000951529  -0.875675 -2.55115 -0.000978231  -0.900552 -2.47701 -0.00103021  -0.925124 -2.5269 -0.00108004  -0.851143 -2.5014 -0.000988126  -0.925106 -2.52678 -0.00103033  -0.900168 -2.60095 -0.00104976  -0.949618 -2.57658 -0.00109601  -0.924647 -2.65068 -0.00113297  -0.94963 -2.57667 -0.00114048  -0.974133 -2.62642 -0.00118744  -0.900173 -2.60107 -0.00110579  -0.974116 -2.62631 -0.00116849  -0.949065 -2.70032 -0.00120473  -0.998542 -2.67595 -0.00123537  -0.973443 -2.7499 -0.00128949  -0.998553 -2.67605 -0.00124717  -1.02295 -2.72564 -0.00129676  -0.949067 -2.70045 -0.00122368  -1.02293 -2.72552 -0.00130892  0.00497904 -0.0110151 0.00314593  0.00390267 -0.00840044 0.00244045  0.0130788 -0.0251629 0.0056771  0.00388327 -0.00868398 0.00154853  0.00993021 -0.0212864 0.00275517  0 0 0  0 0 0  0.0049685 -0.011269 0.00203836  0 0 0  0.0101622 -0.0208134 0.00435627  0.0230518 -0.0427505 0.00765133  0.0177848 -0.0369223 0.00587738  0.0337851 -0.0620785 0.00902319  0.0174203 -0.0376393 0.00375867  0.025492 -0.0563797 0.00442886  0.0226331 -0.0434428 0.0049361  0.0260291 -0.0554503 0.00685358  0.0441249 -0.0837199 0.00979018  0.0340368 -0.0765076 0.00740361  0.0536999 -0.10732 0.0102097  0.0333808 -0.0776165 0.0048027  0.0405913 -0.101012 0.00500536  0.043408 -0.0848441 0.00638843  0.0413147 -0.0997051 0.00765383  0.06211 -0.132964 0.0103295  0.0475675 -0.125022 0.0077107  0.0692122 -0.160655 0.0102915  0.046798 -0.126425 0.00503945  0.0518 -0.153895 0.00501299  0.061298 -0.13439 0.0067842  0.0525916 -0.152359 0.0076474  0.074949 -0.190244 0.0101355  0.05633 -0.181599 0.00751925  0.0792286 -0.221748 0.00991929  0.0555214 -0.183157 0.00491512  0.0578843 -0.21431 0.00480771  0.0741256 -0.191814 0.00666142  0.0587093 -0.212688 0.00735271  0.082101 -0.254967 0.00965893  0.0597421 -0.245475 0.00716734  0.0835034 -0.289879 0.00937915  0.0589087 -0.247064 0.00467098  0.0585623 -0.2815 0.00454187  0.0812786 -0.256561 0.00633514  0.0594077 -0.2799 0.00697327  0.0835213 -0.32629 0.00908351  0.057748 -0.315804 0.00677168  0.0821129 -0.364154 0.00878263  0.0569025 -0.317339 0.00439632  0.0539132 -0.35464 0.00425994  0.0827026 -0.327829 0.00593996  0.0547656 -0.353124 0.00656772  0.0793778 -0.403298 0.00847733  0.0505179 -0.39171 0.00636339  0.0752922 -0.443672 0.00817227  0.0496734 -0.393144 0.00411248  0.0441717 -0.432902 0.00397515  0.0785716 -0.404741 0.0055238  0.0450156 -0.431504 0.00615549  0.0699589 -0.48512 0.00786698  0.0383289 -0.472366 0.00594926  0.0633668 -0.527594 0.00756264  0.0375003 -0.473677 0.00382531  0.0296553 -0.515515 0.00368619  0.0691721 -0.486445 0.00510514  0.0304729 -0.514243 0.00573862  0.0556177 -0.570962 0.00726044  0.0215253 -0.557018 0.00552857  0.0467129 -0.615183 0.00695848  0.0207298 -0.558203 0.00353289  0.0107177 -0.601791 0.00339293  0.0548656 -0.572165 0.00469029  0.0114968 -0.600645 0.00531435  0.0367478 -0.660138 0.00666189  0.000473619 -0.645017 0.00510573  0.025728 -0.705798 0.00636792  -0.000276446 -0.646078 0.00324297  -0.0122657 -0.691124 0.00310194  0.0360373 -0.661221 0.00428081  -0.0115352 -0.690098 0.00489199  0.0137466 -0.752057 0.00607955  -0.0244468 -0.735798 0.00468361  0.000808835 -0.798895 0.0057894  -0.0251455 -0.736745 0.00295186  -0.0389289 -0.783001 0.00280905  0.0130829 -0.753028 0.0038836  -0.0382526 -0.782085 0.00446808  -0.0129929 -0.846222 0.00551116  -0.0528679 -0.828885 0.00426197  -0.027656 -0.89402 0.00523067  -0.0535128 -0.829724 0.00266051  -0.0689127 -0.876983 0.00252187  -0.0136037 -0.847091 0.00349355  -0.0682902 -0.876167 0.00405145  -0.0430908 -0.942214 0.00496244  -0.0844363 -0.923869 0.00384867  -0.0592958 -0.990789 0.00469148  -0.085023 -0.924617 0.00237608  -0.101871 -0.972695 0.00224006  -0.0436499 -0.942992 0.0031178  -0.101306 -0.971967 0.00364316  -0.0761899 -1.03968 0.00443363  -0.118817 -1.02041 0.00344718  -0.0937645 -1.08887 0.00417423  -0.119346 -1.02107 0.00209773  -0.137477 -1.06982 0.0019654  -0.0766923 -1.04037 0.0027566  -0.136971 -1.06917 0.00324631  -0.111948 -1.13832 0.0039295  -0.155688 -1.1182 0.00305605  -0.130734 -1.188 0.0036813  -0.156163 -1.11879 0.00182712  -0.175429 -1.16807 0.00170124  -0.112396 -1.13894 0.00241148  -0.174977 -1.1675 0.00286305  -0.150049 -1.23787 0.00344622  -0.194759 -1.21701 0.00267804  -0.169899 -1.28793 0.00320756  -0.195178 -1.21753 0.00156569  -0.215439 -1.26723 0.0014441  -0.150447 -1.23843 0.00207794  -0.215043 -1.26672 0.00249124  -0.190204 -1.33814 0.00298738  -0.235749 -1.3166 0.00231445  -0.210976 -1.38848 0.00276077  -0.236116 -1.31706 0.0013119  -0.257243 -1.36709 0.00119555  -0.190553 -1.33863 0.00176132  -0.256895 -1.36664 0.00213516  -0.232141 -1.43892 0.00255036  -0.278401 -1.4168 0.00196826  -0.253702 -1.48946 0.00233698  -0.27872 -1.41721 0.00107133  -0.300587 -1.46748 0.000959754  -0.232439 -1.43936 0.00146258  -0.300286 -1.46707 0.00179625  -0.2756 -1.54006 0.00213742  -0.322476 -1.51744 0.00163615  -0.297838 -1.59073 0.00193512  -0.32275 -1.5178 0.000839949  -0.345248 -1.56825 0.000730157  -0.275856 -1.54046 0.00117683  -0.344991 -1.56788 0.00146973  -0.320358 -1.64144 0.00174761  -0.367759 -1.61839 0.00131631  -0.343164 -1.69218 0.00155473  -0.367988 -1.61871 0.000616431  -0.391014 -1.66926 0.00051558  -0.320571 -1.64179 0.000906825  -0.390799 -1.66894 0.00115848  -0.366201 -1.74293 0.00137687  -0.414043 -1.71952 0.00101423  -0.389477 -1.79369 0.00119567  -0.414234 -1.7198 0.000404239  -0.437692 -1.77041 0.000308037  -0.366378 -1.74324 0.000648856  -0.437515 -1.77012 0.00086534  -0.412935 -1.84443 0.00103164  -0.461144 -1.82073 0.000729918  -0.436587 -1.89517 0.000861287  -0.461299 -1.82098 0.000204325  -0.485107 -1.8716 0.000109196  -0.413075 -1.84471 0.000407696  -0.48496 -1.87135 0.000585079  -0.460385 -1.94587 0.000705719  -0.508897 -1.92195 0.000455499  -0.48433 -1.99655 0.000546575  -0.509024 -1.92216 8.46386e-06  -0.533098 -1.97275 -7.90358e-05  -0.460495 -1.94612 0.000178933  -0.532981 -1.97252 0.000322104  -0.508386 -2.04718 0.000403881  -0.557151 -2.02307 0.000201464  -0.532557 -2.09777 0.0002563  -0.557246 -2.02326 -0.000171065  -0.58152 -2.07378 -0.000254154  -0.508468 -2.0474 -3.25441e-05  -0.581431 -2.07358 7.30753e-05  -0.556801 -2.14829 0.000125408  -0.605768 -2.12405 -3.70741e-05  -0.581137 -2.19876 -1.19209e-05  -0.605837 -2.12422 -0.000342727  -0.630252 -2.17465 -0.00042069  -0.556862 -2.14848 -0.000229478  -0.630189 -2.17447 -0.000157952  -0.605511 -2.24916 -0.000134706  -0.654631 -2.22484 -0.000261784  -0.629944 -2.2995 -0.000259876  -0.65468 -2.22499 -0.000505805  -0.679181 -2.2753 -0.000577569  -0.605546 -2.24934 -0.000414371  -0.679135 -2.27514 -0.00037241  -0.654394 -2.34976 -0.000371099  -0.703639 -2.32538 -0.000468016  -0.678878 -2.39996 -0.000485301  -0.703672 -2.32552 -0.000657797  -0.728209 -2.3757 -0.000724196  -0.654416 -2.34992 -0.000586152  -0.728178 -2.37556 -0.000573397  -0.703364 -2.45007 -0.000584841  -0.752701 -2.42566 -0.00066328  -0.727864 -2.50011 -0.000688195  -0.75272 -2.42578 -0.000800967  -0.777264 -2.47582 -0.000863075  -0.703372 -2.45022 -0.000742555  -0.777243 -2.47569 -0.000759006  -0.752343 -2.55006 -0.00078094  -0.801753 -2.52564 -0.000844479  -0.776829 -2.59994 -0.000880957  -0.801764 -2.52575 -0.000934482  -0.826282 -2.57565 -0.000994921  -0.752344 -2.5502 -0.000884652  -0.826269 -2.57552 -0.000934958  -0.80128 -2.64973 -0.000969052  -0.850738 -2.62532 -0.00101459  -0.825728 -2.69946 -0.00106359  -0.850744 -2.62543 -0.0010618  -0.875212 -2.67517 -0.00112092  -0.801277 -2.64986 -0.00102842  -0.875204 -2.67505 -0.00110233  -0.85013 -2.74911 -0.00114667  -0.899607 -2.7247 -0.00118148  -0.874515 -2.79871 -0.00124395  -0.899611 -2.72481 -0.00118959  -0.924002 -2.77441 -0.00124836  -0.850126 -2.74924 -0.00116277  -0.923986 -2.77429 -0.00127184  0.00794261 -0.0195855 0.00438333  0.00654371 -0.0145037 0.00387883  0.021542 -0.0381691 0.00804842  0.00653741 -0.0149613 0.00244284  0.0167456 -0.0315684 0.00441921  0 0 0  0 0 0  0.00807306 -0.0198004 0.00293982  0 0 0  0.0169417 -0.0309516 0.00692511  0.0366632 -0.0583901 0.0109663  0.0293102 -0.049812 0.00939155  0.0523542 -0.079071 0.013003  0.0288847 -0.0506532 0.00604355  0.0417516 -0.0710515 0.00721765  0.0361872 -0.0592486 0.00708866  0.0423345 -0.0699796 0.0110719  0.0671832 -0.101159 0.0142574  0.0550675 -0.0919384 0.0120943  0.080917 -0.125277 0.0149821  0.0542958 -0.0931321 0.00790763  0.0659544 -0.117238 0.00833452  0.0663916 -0.102487 0.00934124  0.0667661 -0.115855 0.0126406  0.0933738 -0.151305 0.0152695  0.07729 -0.141747 0.012851  0.10434 -0.179554 0.0152937  0.0764374 -0.14318 0.00847316  0.0855398 -0.171267 0.00848389  0.0925071 -0.152826 0.0100768  0.0863879 -0.169722 0.0128276  0.113846 -0.209784 0.0151139  0.0940459 -0.199656 0.0126617  0.121755 -0.24205 0.0148199  0.0932044 -0.201199 0.00836384  0.0993552 -0.233127 0.00819457  0.112996 -0.211364 0.00999188  0.100187 -0.231533 0.0123969  0.128127 -0.27613 0.0144392  0.104826 -0.265193 0.0120752  0.132888 -0.31198 0.0140111  0.104005 -0.266748 0.00796759  0.107126 -0.302129 0.00772715  0.127307 -0.277691 0.00953865  0.107944 -0.300568 0.0117146  0.136113 -0.349404 0.0135508  0.109576 -0.33749 0.0113354  0.137767 -0.388329 0.0130718  0.108772 -0.338988 0.00746334  0.108926 -0.377362 0.00719857  0.135317 -0.350899 0.00893617  0.109727 -0.375881 0.0109416  0.137941 -0.428576 0.0125873  0.108456 -0.415581 0.0105451  0.136618 -0.470075 0.012099  0.107667 -0.416984 0.00692272  0.104991 -0.457889 0.0066545  0.137168 -0.429973 0.0082798  0.105774 -0.456516 0.0101452  0.133895 -0.512666 0.0116129  0.101753 -0.498543 0.00974846  0.129772 -0.556288 0.0111279  0.100989 -0.499832 0.00637996  0.0956596 -0.542848 0.00611436  0.133149 -0.513953 0.00761855  0.0964139 -0.541592 0.00935137  0.12435 -0.600803 0.0106525  0.0898381 -0.585542 0.00896072  0.117637 -0.646159 0.0101802  0.0891045 -0.586713 0.00584197  0.0813205 -0.631472 0.00558364  0.123638 -0.601974 0.00696754  0.0820407 -0.630333 0.00857317  0.109734 -0.692234 0.00972271  0.0731143 -0.675859 0.00819564  0.10065 -0.738993 0.00926757  0.0724225 -0.676913 0.00531983  0.0623969 -0.723096 0.00507116  0.109061 -0.693293 0.00633609  0.0630716 -0.722073 0.00781894  0.090487 -0.786323 0.00882614  0.0520086 -0.768878 0.00745249  0.079254 -0.834201 0.00838971  0.0513626 -0.769824 0.00481665  0.0393023 -0.817162 0.00457525  0.0898589 -0.787277 0.00572979  0.0399299 -0.816241 0.00709057  0.0670491 -0.882532 0.00796962  0.0269328 -0.864084 0.00674021  0.0538818 -0.931302 0.00755441  0.0263383 -0.864931 0.00433052  0.0124483 -0.913199 0.00410175  0.0664707 -0.883391 0.00515068  0.0130233 -0.912372 0.00639379  0.0398463 -0.980423 0.00715518  -0.00170672 -0.961042 0.0060575  0.0249481 -1.02989 0.00675988  -0.00225163 -0.9618 0.00386608  -0.0177785 -1.01081 0.00364625  0.0393162 -0.981194 0.00459647  -0.0172567 -1.01007 0.00572455  0.00927961 -1.07963 0.00638413  -0.0335305 -1.05939 0.00540578  -0.00715721 -1.12963 0.00600898  -0.0340247 -1.06007 0.00342059  -0.0510077 -1.10966 0.00321364  0.00880086 -1.08032 0.00407457  -0.0505347 -1.109 0.00509119  -0.0242746 -1.17983 0.00565255  -0.0681785 -1.15884 0.00478923  -0.0420698 -1.23024 0.00529802  -0.0686213 -1.15944 0.00300169  -0.086892 -1.20948 0.00280344  -0.0247029 -1.18045 0.00357795  -0.0864698 -1.20889 0.00448692  -0.0604591 -1.28079 0.00496352  -0.105317 -1.25911 0.00420296  -0.0794487 -1.33149 0.0046283  -0.105711 -1.25965 0.00260067  -0.125109 -1.31003 0.0024122  -0.0608404 -1.28134 0.00310874  -0.124736 -1.3095 0.00391567  -0.098954 -1.38228 0.00431335  -0.144638 -1.36001 0.00364578  -0.118983 -1.43318 0.00399768  -0.144981 -1.36048 0.0022192  -0.165365 -1.4111 0.0020436  -0.0992873 -1.38278 0.00266588  -0.165039 -1.41063 0.00337732  -0.139458 -1.48413 0.00370216  -0.185854 -1.46134 0.00312412  -0.160383 -1.53515 0.00340748  -0.186151 -1.46176 0.00186205  -0.207382 -1.51255 0.00169384  -0.139745 -1.48457 0.00224864  -0.207101 -1.51212 0.00286794  -0.181692 -1.58619 0.00312781  -0.228699 -1.56296 0.00262868  -0.203387 -1.63726 0.00285006  -0.228953 -1.56333 0.00152147  -0.25091 -1.61421 0.00136435  -0.181936 -1.58658 0.00185657  -0.250669 -1.61383 0.00239134  -0.225406 -1.68832 0.00259089  -0.272932 -1.66473 0.00216782  -0.247753 -1.7394 0.00233185  -0.273147 -1.66506 0.00120461  -0.29571 -1.71598 0.00105476  -0.22561 -1.68868 0.00149119  -0.295513 -1.71564 0.00194001  -0.270365 -1.79044 0.00209033  -0.318332 -1.76655 0.00173199  -0.293256 -1.84146 0.00184727  -0.318506 -1.76684 0.000903964  -0.341583 -1.81774 0.000764966  -0.270532 -1.79075 0.00114667  -0.341421 -1.81745 0.00152099  -0.316365 -1.89244 0.00162554  -0.364697 -1.86832 0.00132561  -0.339698 -1.94338 0.00140142  -0.364837 -1.86857 0.000622392  -0.388324 -1.91942 0.000492692  -0.316496 -1.89272 0.000826836  -0.388194 -1.91916 0.00112855  -0.363206 -1.99425 0.00119495  -0.411841 -1.96996 0.000946164  -0.386896 -2.04508 0.000987768  -0.41195 -1.97019 0.000359416  -0.435766 -2.02095 0.000239968  -0.363308 -1.9945 0.00052762  -0.435661 -2.02072 0.000764489  -0.410717 -2.09583 0.000800252  -0.459595 -2.07142 0.000599146  -0.434682 -2.14652 0.000609517  -0.459679 -2.07161 0.000113726  -0.483745 -2.12226 4.41074e-06  -0.410794 -2.09605 0.000253797  -0.483665 -2.12206 0.000430584  -0.458743 -2.19713 0.000439286  -0.507814 -2.17263 0.000279546  -0.482915 -2.24766 0.000265837  -0.507874 -2.17281 -0.000109076  -0.532124 -2.22333 -0.000210524  -0.458797 -2.19733 2.14577e-06  -0.532069 -2.22314 0.000122428  -0.507146 -2.29811 0.000113845  -0.556368 -2.27357 -1.2517e-05  -0.531459 -2.34848 -3.95775e-05  -0.556407 -2.27373 -0.000316978  -0.580779 -2.3241 -0.000409484  -0.507179 -2.29828 -0.000226855  -0.580741 -2.32393 -0.000154734  -0.555803 -2.39875 -0.000178099  -0.605133 -2.37421 -0.00028038  -0.5802 -2.44895 -0.000314593  -0.605156 -2.37435 -0.000506639  -0.629598 -2.42456 -0.000587225  -0.55582 -2.39891 -0.000433445  -0.629578 -2.42441 -0.000405431  -0.604606 -2.49905 -0.000435472  -0.654016 -2.47453 -0.000515819  -0.629039 -2.54908 -0.000556469  -0.654027 -2.47465 -0.000677347  -0.678495 -2.5247 -0.000750303  -0.60461 -2.4992 -0.000617743  -0.678485 -2.52456 -0.000629067  -0.653463 -2.59901 -0.000662327  -0.70293 -2.57451 -0.000724077  -0.677902 -2.64887 -0.000772119  -0.702932 -2.57462 -0.000830531  -0.727398 -2.62451 -0.000900745  -0.653459 -2.59915 -0.000782728  -0.727391 -2.62437 -0.000828385  -0.702317 -2.69864 -0.000867844  -0.75182 -2.67416 -0.000923872  -0.726741 -2.74835 -0.000973105  -0.751817 -2.67428 -0.000978708  -0.77626 -2.72401 -0.00104558  -0.702305 -2.69878 -0.000933051  -0.77626 -2.72388 -0.00102448  -0.751141 -2.79799 -0.00106704  -0.800655 -2.77353 -0.00111282  -0.775553 -2.8476 -0.00117052  -0.800652 -2.77364 -0.00112033  -0.825056 -2.82327 -0.00119042  -0.751126 -2.79813 -0.00108361  -0.825051 -2.82314 -0.00121629  0.0139048 -0.0370638 0.0056963  0.0109032 -0.0262341 0.00522709  0.0381994 -0.0612698 0.0100513  0.0109254 -0.0271112 0.00314295  0.027612 -0.0493889 0.00588799  0 0 0  0 0 0  0.0134402 -0.0369013 0.0037533  0 0 0  0.0274655 -0.0483457 0.0091666  0.0580478 -0.0795128 0.0141457  0.0459137 -0.068437 0.0124897  0.076429 -0.100282 0.0167477  0.045426 -0.0694612 0.00809395  0.0628417 -0.0906109 0.0097214  0.0575702 -0.0812892 0.0090462  0.0634131 -0.0892562 0.0148267  0.0948665 -0.121858 0.0184097  0.0803562 -0.111214 0.0163529  0.112 -0.146038 0.0193899  0.0795382 -0.11265 0.0107325  0.0950971 -0.136883 0.0113653  0.0941832 -0.123646 0.012024  0.0959513 -0.135349 0.0172006  0.128079 -0.172388 0.0198127  0.110256 -0.161551 0.017589  0.142648 -0.20114 0.0198783  0.109362 -0.163102 0.0116283  0.122186 -0.191608 0.0116847  0.1272 -0.174066 0.0130794  0.12307 -0.190024 0.0176325  0.155682 -0.232075 0.0196942  0.134347 -0.220604 0.0174572  0.167056 -0.265145 0.0193281  0.133474 -0.222164 0.0115658  0.143157 -0.254818 0.0113502  0.154788 -0.233669 0.0130398  0.144012 -0.253249 0.0171241  0.176749 -0.30015 0.0188613  0.152054 -0.287786 0.0166985  0.184725 -0.336985 0.0183012  0.151216 -0.289302 0.0110596  0.157618 -0.325621 0.0107292  0.175888 -0.301659 0.0124861  0.158441 -0.324111 0.0162028  0.191011 -0.375459 0.0177213  0.163207 -0.362057 0.0156757  0.19559 -0.415466 0.0170854  0.1624 -0.363497 0.0103682  0.165547 -0.402934 0.00999331  0.190181 -0.376873 0.0117185  0.166343 -0.401513 0.0151182  0.198539 -0.456826 0.0164614  0.167917 -0.442316 0.0145565  0.199848 -0.499449 0.0158043  0.167136 -0.443656 0.00960994  0.167159 -0.485685 0.00922644  0.197737 -0.458132 0.0108669  0.167928 -0.484372 0.0139815  0.199619 -0.543165 0.0151765  0.166466 -0.52753 0.0134172  0.197845 -0.587913 0.0145226  0.165712 -0.528758 0.00883746  0.162795 -0.572915 0.00845921  0.19885 -0.54436 0.0100015  0.163534 -0.571712 0.0128485  0.194647 -0.633532 0.0139027  0.159239 -0.616786 0.0122939  0.190017 -0.679983 0.0132698  0.15852 -0.617902 0.00807953  0.152877 -0.663779 0.00771153  0.193912 -0.634614 0.00914383  0.153582 -0.662691 0.0117428  0.184089 -0.727117 0.0126725  0.14668 -0.709306 0.0112082  0.176842 -0.774915 0.0120598  0.145998 -0.710311 0.00734496  0.137865 -0.757569 0.00699186  0.183392 -0.728094 0.00831187  0.138527 -0.756588 0.0106766  0.168426 -0.823244 0.0114913  0.129249 -0.804428 0.0101647  0.15881 -0.8721 0.0109099  0.128613 -0.80533 0.00663996  0.118219 -0.853682 0.00630379  0.167777 -0.824122 0.00751615  0.118836 -0.852799 0.00965917  0.148146 -0.921354 0.0103676  0.107411 -0.901605 0.00917304  0.136397 -0.971024 0.0098176  0.106824 -0.902415 0.00596905  0.0943956 -0.951623 0.0056504  0.147544 -0.922142 0.00675941  0.0949639 -0.95083 0.00869179  0.123715 -1.02099 0.00930321  0.0816137 -1.00039 0.00822949  0.110061 -1.07127 0.00878131  0.0810754 -1.00111 0.00533032  0.0668304 -1.05098 0.00503004  0.123167 -1.0217 0.00604296  0.0673465 -1.05027 0.00777388  0.0955805 -1.12177 0.00829494  0.0522796 -1.1004 0.00733864  0.0802302 -1.17251 0.00780487  0.0517915 -1.10105 0.00472903  0.0359237 -1.15141 0.00444412  0.0950828 -1.1224 0.00536203  0.0363925 -1.15078 0.00690866  0.0641525 -1.22339 0.00735033  0.019801 -1.20133 0.00649774  0.0473027 -1.27445 0.00688791  0.0193648 -1.20191 0.00415838  0.00206661 -1.25264 0.00389206  0.0637014 -1.22395 0.00472188  0.0024848 -1.25207 0.00609422  0.0298193 -1.32559 0.00645959  -0.015445 -1.30293 0.00570703  0.0116513 -1.37685 0.00602508  -0.0158336 -1.30344 0.00362217  -0.03439 -1.35443 0.00337172  0.0294204 -1.32609 0.00412023  -0.0340209 -1.35392 0.00532639  -0.0070684 -1.42815 0.00562286  -0.0531285 -1.40498 0.00496459  -0.0263915 -1.47953 0.00521719  -0.053468 -1.40544 0.0031184  -0.0731237 -1.45658 0.0028826  -0.00741792 -1.42861 0.00355434  -0.0728002 -1.45612 0.0046078  -0.0461831 -1.53092 0.00484574  -0.0929289 -1.50731 0.00427032  -0.066503 -1.58234 0.00446415  -0.0932245 -1.50771 0.00264394  -0.11383 -1.55894 0.00242472  -0.046484 -1.53132 0.0030303  -0.113549 -1.55853 0.00393474  -0.0872266 -1.63374 0.0041151  -0.134561 -1.60976 0.00361729  -0.108407 -1.68514 0.0037576  -0.134813 -1.61012 0.00220275  -0.156235 -1.66137 0.00199652  -0.0874846 -1.6341 0.00253367  -0.155998 -1.66101 0.00330353  -0.129927 -1.73649 0.003438  -0.177764 -1.71223 0.00300944  -0.151839 -1.78782 0.00310886  -0.177974 -1.71254 0.00178647  -0.20009 -1.76376 0.00159287  -0.130144 -1.73681 0.00207031  -0.199892 -1.76344 0.00271499  -0.174034 -1.83908 0.00280321  -0.222292 -1.8146 0.00244224  -0.196564 -1.8903 0.00249815  -0.222466 -1.81488 0.00139892  -0.245163 -1.86601 0.00121939  -0.174213 -1.83937 0.00164008  -0.245 -1.86573 0.00217056  -0.219321 -1.94144 0.0022248  -0.267927 -1.9168 0.00191891  -0.24236 -1.99252 0.00194108  -0.26807 -1.91704 0.00103641  -0.291246 -1.96807 0.000875473  -0.219467 -1.94169 0.00124264  -0.291115 -1.96781 0.00166798  -0.26558 -2.0435 0.00168741  -0.314474 -2.01875 0.00143468  -0.289039 -2.09442 0.00143349  -0.314584 -2.01897 0.000706315  -0.33815 -2.06986 0.000555634  -0.265699 -2.04373 0.000876546  -0.338047 -2.06963 0.00120401  -0.312629 -2.14523 0.00119746  -0.361752 -2.12042 0.000992179  -0.336415 -2.19596 0.000963211  -0.361832 -2.12061 0.000399947  -0.3857 -2.17134 0.000261664  -0.312716 -2.14543 0.000542402  -0.385624 -2.17114 0.000782013  -0.360299 -2.24658 0.000757813  -0.409592 -2.22177 0.000591874  -0.384335 -2.29713 0.000546455  -0.409653 -2.22193 0.000123262  -0.433748 -2.27249 -2.5034e-06  -0.360359 -2.24676 0.000235796  -0.433694 -2.27231 0.000402093  -0.408435 -2.34755 0.000364661  -0.457858 -2.32276 0.000230193  -0.432654 -2.39789 0.000177264  -0.457895 -2.3229 -0.000130653  -0.482157 -2.37328 -0.000239491  -0.408476 -2.34771 -3.99351e-05  -0.482118 -2.37312 6.35386e-05  -0.45691 -2.44812 1.5974e-05  -0.506418 -2.42338 -8.80957e-05  -0.481249 -2.49827 -0.000140429  -0.506438 -2.42351 -0.00035274  -0.530801 -2.4737 -0.000448823  -0.456931 -2.44827 -0.000281572  -0.53078 -2.47356 -0.000232935  -0.505596 -2.5483 -0.00028038  -0.555153 -2.52364 -0.000362992  -0.530002 -2.59826 -0.000418663  -0.555159 -2.52376 -0.000550389  -0.579577 -2.57377 -0.000634313  -0.505599 -2.54844 -0.000489354  -0.579567 -2.57363 -0.000489593  -0.554399 -2.64812 -0.000537395  -0.60397 -2.62354 -0.000602603  -0.578824 -2.69792 -0.000658154  -0.603966 -2.62366 -0.000720978  -0.6284 -2.6735 -0.000801563  -0.554391 -2.64826 -0.000673771  -0.628398 -2.67337 -0.000720024  -0.603227 -2.74763 -0.000757575  -0.652801 -2.72312 -0.000818849  -0.627643 -2.7973 -0.000864625  -0.652794 -2.72324 -0.000882983  -0.677212 -2.77294 -0.000955582  -0.603215 -2.74777 -0.000836492  -0.677216 -2.77281 -0.000926137  -0.65205 -2.84693 -0.000962138  -0.701616 -2.82245 -0.0010215  -0.676482 -2.89655 -0.00106931  -0.701607 -2.82257 -0.00103521  -0.726041 -2.8722 -0.0011065  -0.652033 -2.84708 -0.000989914  -0.726043 -2.87206 -0.00112772  -0.00661265 -0.00763901 -0.00193  -0.00905118 -0.0123456 -0.00213611  -0.0179317 -0.020255 -0.00341487  -0.00968749 -0.0126947 -0.0003649  -0.0266475 -0.0285179 -0.000215411  -0.0244863 -0.0250667 -0.000126481  0 0 0  -0.0252928 -0.0249828 -0.00281167  0 0 0  0 0 0  -0.00654031 -0.0074717 -9.34601e-05  0 0 0  -0.0445057 -0.038222 -0.0047195  -0.0270458 -0.0283865 -0.00413382  -0.0312893 -0.0336592 -0.00460994  -0.0441447 -0.0415485 -0.00547457  -0.0458025 -0.0481489 -0.00556755  -0.0440375 -0.0418233 -0.000419617  -0.0616054 -0.0555676 -0.00051105  -0.0627249 -0.0504668 -0.000488877  -0.0625136 -0.0499122 -0.00620747  -0.0313891 -0.0338766 -0.000368118  -0.0814781 -0.0627304 -0.00761557  -0.0614791 -0.055034 -0.00653493  -0.0610941 -0.0642684 -0.00623631  -0.0790641 -0.069587 -0.00725722  -0.0764936 -0.0817844 -0.00661945  -0.0791387 -0.0701272 -0.000502944  -0.0969737 -0.0863869 -0.000589371  -0.100967 -0.0764123 -0.000574589  -0.100727 -0.0758247 -0.00829363  -0.0611488 -0.0646841 -0.000465989  -0.12064 -0.0908107 -0.00890255  -0.0968319 -0.0857973 -0.00771463  -0.0922706 -0.101247 -0.00678277  -0.114914 -0.103842 -0.00788736  -0.108315 -0.122464 -0.00679135  -0.115019 -0.104426 -0.000568628  -0.13329 -0.124268 -0.000619888  -0.140927 -0.107989 -0.000619531  -0.140802 -0.107392 -0.00902951  -0.092357 -0.101762 -0.000546336  -0.16112 -0.125685 -0.00905609  -0.133166 -0.123683 -0.0079025  -0.124665 -0.145422 -0.0066576  -0.151653 -0.145355 -0.00774121  -0.141339 -0.17005 -0.00644767  -0.151774 -0.145912 -0.000611782  -0.170388 -0.169183 -0.000633717  -0.181615 -0.146501 -0.000647306  -0.181533 -0.145912 -0.00885916  -0.124786 -0.145943 -0.000591159  -0.201874 -0.167657 -0.00856209  -0.170248 -0.168641 -0.00750053  -0.158276 -0.196205 -0.00617814  -0.189015 -0.193579 -0.00718331  -0.175514 -0.223841 -0.00587642  -0.189167 -0.194086 -0.000638008  -0.208042 -0.22045 -0.000645161  -0.222354 -0.191796 -0.000665784  -0.222252 -0.191241 -0.00821829  -0.158433 -0.196685 -0.000615835  -0.242541 -0.216228 -0.00778961  -0.207866 -0.219963 -0.00683331  -0.193006 -0.252851 -0.00556719  -0.226889 -0.247828 -0.00647581  -0.210789 -0.283181 -0.00524998  -0.227072 -0.248275 -0.000658989  -0.246221 -0.277428 -0.0006603  -0.263023 -0.243356 -0.000684619  -0.262888 -0.242858 -0.00740802  -0.193195 -0.253279 -0.000633597  -0.283216 -0.270792 -0.00696146  -0.246018 -0.277003 -0.00610793  -0.228841 -0.314758 -0.004951  -0.265349 -0.307514 -0.00576282  -0.247197 -0.347519 -0.00465882  -0.265554 -0.307898 -0.000678301  -0.285052 -0.339583 -0.000679612  -0.303812 -0.300616 -0.000701666  -0.303648 -0.300182 -0.00659323  -0.229051 -0.31513 -0.000651717  -0.324146 -0.330773 -0.00617814  -0.284833 -0.339218 -0.00542367  -0.265845 -0.381412 -0.00439119  -0.304557 -0.372122 -0.00511312  -0.284814 -0.416376 -0.00413513  -0.304772 -0.372454 -0.000700712  -0.324704 -0.406433 -0.000701308  -0.344981 -0.363037 -0.000725389  -0.344802 -0.362662 -0.00585341  -0.26606 -0.381737 -0.000672936  -0.365589 -0.395648 -0.00548744  -0.324481 -0.406117 -0.00481546  -0.304096 -0.452361 -0.00390434  -0.344676 -0.441189 -0.00454783  -0.323714 -0.489308 -0.00368845  -0.344888 -0.441473 -0.000724912  -0.365322 -0.477523 -0.000730395  -0.386758 -0.43012 -0.000750184  -0.386579 -0.429795 -0.0052073  -0.30431 -0.452641 -0.000696659  -0.407745 -0.464939 -0.00489068  -0.365104 -0.477248 -0.00429225  -0.343654 -0.527177 -0.00348842  -0.385821 -0.514278 -0.00406098  -0.363934 -0.565912 -0.0033071  -0.386023 -0.514523 -0.000751972  -0.406995 -0.552439 -0.000757813  -0.429316 -0.501407 -0.000777364  -0.429139 -0.501122 -0.00464618  -0.343857 -0.527423 -0.000723243  -0.45074 -0.538206 -0.00437868  -0.406789 -0.552198 -0.00384533  -0.384535 -0.60547 -0.00313771  -0.428052 -0.590991 -0.00364971  -0.405469 -0.645807 -0.00298285  -0.428241 -0.591205 -0.000780582  -0.449762 -0.630796 -0.000786901  -0.472743 -0.57648 -0.000808835  -0.472579 -0.576228 -0.00416899  -0.384724 -0.60569 -0.000752807  -0.494634 -0.615062 -0.00393736  -0.449569 -0.630581 -0.00346184  -0.426711 -0.686881 -0.00283861  -0.471374 -0.670956 -0.00329208  -0.448271 -0.728648 -0.00270593  -0.471549 -0.671143 -0.000809312  -0.493607 -0.712236 -0.000818968  -0.51708 -0.65496 -0.000838041  -0.516928 -0.654736 -0.00375271  -0.426883 -0.687076 -0.000782847  -0.539439 -0.69514 -0.00355422  -0.493431 -0.712047 -0.00313342  -0.470118 -0.771071 -0.00257826  -0.515757 -0.753837 -0.00298274  -0.492264 -0.814113 -0.00246596  -0.515916 -0.754004 -0.000841141  -0.538484 -0.79644 -0.000850797  -0.56232 -0.736502 -0.000867486  -0.56218 -0.736298 -0.00339222  -0.470276 -0.771247 -0.000814795  -0.58513 -0.778115 -0.00321686  -0.538323 -0.796269 -0.00284445  -0.514674 -0.857735 -0.0023545  -0.561137 -0.839322 -0.00271475  -0.537357 -0.901907 -0.00225616  -0.561282 -0.839469 -0.000872374  -0.584318 -0.883098 -0.000882268  -0.608416 -0.820784 -0.000899673  -0.608291 -0.820602 -0.00307512  -0.514817 -0.857895 -0.000845194  -0.631646 -0.863675 -0.00292325  -0.584173 -0.882946 -0.00259495  -0.560276 -0.946591 -0.00215983  -0.607431 -0.927123 -0.00247788  -0.583439 -0.991761 -0.00207567  -0.607562 -0.927254 -0.000902653  -0.631021 -0.971942 -0.000914097  -0.655309 -0.907516 -0.000932336  -0.655194 -0.907349 -0.00279677  -0.560405 -0.946737 -0.000876307  -0.678917 -0.951545 -0.00266492  -0.63089 -0.971805 -0.00237274  -0.606806 -1.03738 -0.00198805  -0.65454 -1.01697 -0.00227022  -0.630391 -1.08342 -0.00191784  -0.654657 -1.01709 -0.000934005  -0.678486 -1.06272 -0.00094521  -0.702914 -0.996422 -0.000962257  -0.702809 -0.99627 -0.00255096  -0.606921 -1.03751 -0.000908494  -0.726855 -1.04146 -0.00243473  -0.678371 -1.06259 -0.00218022  -0.654151 -1.12986 -0.00184393  -0.702364 -1.10863 -0.0020889  -0.678094 -1.17666 -0.0017786  -0.702466 -1.10874 -0.000967383  -0.726612 -1.15518 -0.000979662  -0.751131 -1.08725 -0.000994563  -0.751042 -1.08712 -0.00233603  -0.654249 -1.12998 -0.000943542  -0.775362 -1.13318 -0.0022341  -0.726507 -1.15506 -0.00201142  -0.702184 -1.22381 -0.00171304  -0.750787 -1.20187 -0.00192964  -0.726429 -1.27127 -0.00166321  -0.750879 -1.20196 -0.00100017  -0.77529 -1.24912 -0.0010128  -0.799881 -1.17978 -0.00103223  -0.7998 -1.17965 -0.00214851  -0.702273 -1.22392 -0.000975132  -0.824349 -1.22648 -0.00205934  -0.775197 -1.24901 -0.00186479  -0.750793 -1.31902 -0.00160611  -0.799713 -1.29648 -0.00179672  -0.775281 -1.36705 -0.00156593  -0.799794 -1.29656 -0.00103664  -0.824413 -1.34433 -0.00104928  -0.849059 -1.27378 -0.00106776  -0.84899 -1.27366 -0.00198495  -0.750869 -1.31913 -0.00100982  -0.873713 -1.32115 -0.00190902  -0.824331 -1.34423 -0.00174201  -0.799855 -1.41532 -0.00151777  -0.849025 -1.39226 -0.00168169  -0.824532 -1.46382 -0.00147986  -0.849099 -1.39234 -0.00107229  -0.873877 -1.44063 -0.00108397  -0.898565 -1.36905 -0.00110304  -0.898504 -1.36894 -0.00184298  -0.799926 -1.41542 -0.00104773  -0.923362 -1.417 -0.00177968  -0.873805 -1.44053 -0.0016346  -0.849273 -1.51253 -0.00144219  -0.898638 -1.48904 -0.00158489  -0.874082 -1.56143 -0.00141501  -0.898697 -1.48911 -0.00110769  -0.923591 -1.53784 -0.00112271  -0.948317 -1.46541 -0.00113928  -0.948265 -1.46531 -0.00172377  -0.849328 -1.51262 -0.00108039  -0.973209 -1.51384 -0.00167143  -0.923528 -1.53775 -0.00154948  -0.898935 -1.61049 -0.00138402  -0.948446 -1.58665 -0.00150752  -0.923836 -1.6597 -0.00136709  -0.948497 -1.58672 -0.00114572  -0.973454 -1.6358 -0.00116062  -0.99822 -1.56269 -0.00117862  -0.998175 -1.56259 -0.00162697  -0.898984 -1.61058 -0.00111914  -1.02317 -1.61152 -0.00158477  -0.973402 -1.63572 -0.00147986  -0.948755 -1.70905 -0.00134313  -0.99837 -1.68494 -0.00144804  -0.973702 -1.75851 -0.00132763  -0.998412 -1.685 -0.00118601  -1.0234 -1.73436 -0.0012002  -1.0482 -1.66071 -0.00121677  -1.04816 -1.66062 -0.0015471  -0.948796 -1.70913 -0.00116098  -1.07317 -1.70986 -0.00151992  -1.02335 -1.73428 -0.00142777  -0.998647 -1.80807 -0.00131202  -1.04833 -1.78375 -0.00140429  -1.02361 -1.85772 -0.00130999  -1.04837 -1.78381 -0.00122368  -1.07335 -1.83339 -0.00124192  -1.09819 -1.75933 -0.0012573  -1.09816 -1.75924 -0.00148952  -0.998683 -1.80815 -0.00119662  -1.12315 -1.80874 -0.00146699  -1.07331 -1.83332 -0.0013932  -1.04855 -1.90744 -0.00130224  -1.09826 -1.88297 -0.00137818  -1.07348 -1.95722 -0.00130522  -1.0983 -1.88302 -0.00126815  -1.12324 -1.93276 -0.00128365  -1.14812 -1.85842 -0.00130355  -1.1481 -1.85833 -0.00145018  -1.04858 -1.90751 -0.00123978  -1.17304 -1.90801 -0.00143325  -1.12321 -1.93269 -0.00137365  -1.09839 -2.00703 -0.00130045  -1.14812 -1.98247 -0.00136542  -1.12328 -2.05688 -0.0013119  -1.14814 -1.98252 -0.00130975  -1.17304 -2.03235 -0.00132382  -1.19795 -1.95783 -0.00134397  -1.19793 -1.95775 -0.00142252  -1.09841 -2.0071 -0.00128055  -1.22281 -2.00755 -0.00142014  -1.17301 -2.03228 -0.00137079  -1.14813 -2.10675 -0.00131702  -1.19785 -2.08213 -0.00137234  -1.17295 -2.15663 -0.00133395  -1.19787 -2.08218 -0.00135362  -1.2227 -2.13207 -0.00137019  -1.24765 -2.05747 -0.00138569  -1.24764 -2.05739 -0.00142252  -1.14814 -2.10682 -0.00132692  -1.27243 -2.10725 -0.0014286  -1.22267 -2.132 -0.00138712  -1.19772 -2.2065 -0.00134206  -1.24743 -2.18186 -0.0013932  -1.22247 -2.25636 -0.00136554  -1.24746 -2.18191 -0.00139868  -1.2722 -2.23179 -0.00141656  -1.2972 -2.1572 -0.00143456  -1.29718 -2.15713 -0.00143671  -1.19774 -2.20657 -0.001369  -1.3219 -2.20701 -0.0014528  -1.27217 -2.23172 -0.00141203  -1.24716 -2.30619 -0.00138152  -1.29686 -2.28157 -0.00142896  -1.27183 -2.356 -0.00140655  -1.29687 -2.28162 -0.00144649  -1.32154 -2.33145 -0.00146222  -1.34658 -2.25694 -0.00148332  -1.34656 -2.25687 -0.00146687  -1.24718 -2.30626 -0.00141537  -1.37121 -2.30672 -0.00149035  -1.32152 -2.33139 -0.00145257  -1.29644 -2.40577 -0.00142646  -1.34612 -2.38117 -0.00146854  -1.32103 -2.4555 -0.00145555  -1.34614 -2.38122 -0.00148976  -1.37074 -2.43098 -0.00150728  -1.39582 -2.3566 -0.00153124  -1.3958 -2.35652 -0.00150609  -1.29645 -2.40584 -0.00146079  -1.42039 -2.40631 -0.00153792  -1.37072 -2.43092 -0.00149834  -1.34558 -2.50519 -0.00147152  -1.39527 -2.48062 -0.00151551  -1.37013 -2.55484 -0.00149286  -1.39529 -2.48067 -0.0015341  -1.41987 -2.53035 -0.00154519  -1.44497 -2.45609 -0.00157285  -1.44495 -2.45603 -0.00155365  -1.3456 -2.50525 -0.00150049  -1.46952 -2.50573 -0.00157833  -1.41983 -2.53029 -0.00153852  -0.003269 -0.00370927 -0.00121295  -0.00452832 -0.0050021 -0.00151896  -0.0084636 -0.0123282 -0.00219035  -0.00446538 -0.00508808 -0.0001477  -0.0120262 -0.0153384 -0.000225782  0 0 0  0 0 0  -0.00328562 -0.0037348 -8.69036e-05  0 0 0  -0.0118689 -0.0150525 -0.00273478  -0.0152771 -0.0249904 -0.00307775  -0.0220391 -0.0282862 -0.00382078  -0.0237039 -0.0405184 -0.00372469  -0.0221421 -0.0285313 -0.000291109  -0.0336079 -0.043768 -0.00037384  -0.0153421 -0.0252831 -0.00026083  -0.0334849 -0.0434307 -0.00463998  -0.0330509 -0.0581031 -0.00418925  -0.0458191 -0.0603974 -0.0051918  -0.0432712 -0.0778605 -0.00448072  -0.0458912 -0.060771 -0.000409126  -0.0588327 -0.0796526 -0.000469208  -0.0331051 -0.0584884 -0.000383496  -0.0587563 -0.0792027 -0.00554442  -0.054077 -0.0993917 -0.00460386  -0.0721021 -0.0997827 -0.00567675  -0.0654939 -0.122798 -0.0046196  -0.0721812 -0.100239 -0.000483871  -0.0859951 -0.12266 -0.000523925  -0.0541484 -0.0998324 -0.000461817  -0.0858903 -0.122172 -0.00569844  -0.0774405 -0.147877 -0.00453985  -0.100091 -0.146257 -0.0055877  -0.0899595 -0.174625 -0.00439644  -0.100208 -0.146724 -0.00053215  -0.114862 -0.172474 -0.000552535  -0.0775538 -0.148328 -0.000507951  -0.114717 -0.172 -0.00541735  -0.103005 -0.202871 -0.00421739  -0.129763 -0.199262 -0.00519323  -0.116627 -0.232596 -0.00400925  -0.129925 -0.199698 -0.000567317  -0.145408 -0.228426 -0.000573993  -0.103165 -0.203301 -0.00053978  -0.145222 -0.22799 -0.00494158  -0.130762 -0.26364 -0.00379944  -0.161091 -0.258069 -0.00468016  -0.145463 -0.295993 -0.00358379  -0.161287 -0.25846 -0.000592947  -0.177578 -0.289837 -0.00059247  -0.130955 -0.264033 -0.000563979  -0.177367 -0.289448 -0.00441599  -0.16066 -0.329517 -0.00337791  -0.194042 -0.322038 -0.00416207  -0.176406 -0.364205 -0.00317752  -0.194259 -0.322382 -0.000616074  -0.211353 -0.356135 -0.000615358  -0.160871 -0.329868 -0.000587106  -0.211127 -0.355792 -0.00391841  -0.192638 -0.399945 -0.00299478  -0.228613 -0.390637 -0.00369358  -0.2094 -0.436721 -0.002823  -0.228836 -0.390935 -0.000641942  -0.246741 -0.426827 -0.000642776  -0.192854 -0.400256 -0.000611782  -0.246513 -0.426528 -0.00348091  -0.226634 -0.474437 -0.00266457  -0.264809 -0.463398 -0.00328469  -0.244378 -0.513076 -0.00252056  -0.26503 -0.463657 -0.000666261  -0.283742 -0.501469 -0.000670433  -0.226847 -0.474712 -0.000639677  -0.283521 -0.501205 -0.0031054  -0.262578 -0.552557 -0.00238764  -0.302624 -0.539894 -0.00293958  -0.281261 -0.59286 -0.002267  -0.302835 -0.54012 -0.000694156  -0.322342 -0.579656 -0.000699639  -0.262778 -0.552801 -0.00066793  -0.322133 -0.579423 -0.00278974  -0.300379 -0.633913 -0.00215554  -0.34202 -0.619738 -0.00264668  -0.31995 -0.675694 -0.00205672  -0.342217 -0.619938 -0.000722408  -0.362492 -0.661012 -0.000731587  -0.300563 -0.63413 -0.000696421  -0.362298 -0.660804 -0.00252163  -0.339927 -0.71814 -0.00196123  -0.382933 -0.702571 -0.00240123  -0.360326 -0.761229 -0.00187945  -0.383113 -0.702747 -0.000753403  -0.404114 -0.745188 -0.000763535  -0.340097 -0.718334 -0.000727892  -0.403935 -0.745004 -0.00229633  -0.381096 -0.804901 -0.00179636  -0.425267 -0.788057 -0.00219119  -0.402255 -0.849143 -0.00172877  -0.425431 -0.788212 -0.000783443  -0.447101 -0.831867 -0.000795007  -0.381255 -0.805078 -0.000759363  -0.446939 -0.831702 -0.00210178  -0.42375 -0.893895 -0.00165927  -0.468909 -0.875894 -0.00200987  -0.445595 -0.939148 -0.00160372  -0.469059 -0.876032 -0.000815153  -0.491338 -0.920756 -0.00082624  -0.423889 -0.894056 -0.000790358  -0.491191 -0.920605 -0.00193393  -0.467739 -0.984847 -0.00154459  -0.513741 -0.965803 -0.00185394  -0.490194 -1.03098 -0.00149739  -0.513874 -0.965923 -0.00084734  -0.536699 -1.01159 -0.000857472  -0.467865 -0.984991 -0.000822902  -0.536565 -1.01145 -0.00178957  -0.512908 -1.0775 -0.00144529  -0.559621 -1.05752 -0.00171971  -0.535897 -1.1244 -0.00140405  -0.559742 -1.05763 -0.000878215  -0.583044 -1.10411 -0.000890732  -0.513021 -1.07763 -0.000853777  -0.582924 -1.10399 -0.00166583  -0.559108 -1.17162 -0.00136113  -0.606422 -1.15082 -0.00160551  -0.582558 -1.21918 -0.00133014  -0.60653 -1.15092 -0.000911117  -0.63024 -1.19811 -0.000921011  -0.559207 -1.17175 -0.00088644  -0.630134 -1.198 -0.00155914  -0.606193 -1.26701 -0.0012958  -0.654007 -1.24549 -0.00150681  -0.630028 -1.31512 -0.00127053  -0.654101 -1.24558 -0.000943303  -0.678156 -1.29338 -0.00095427  -0.606282 -1.26712 -0.000919461  -0.678062 -1.29327 -0.00147116  -0.654018 -1.36347 -0.00124168  -0.702246 -1.34133 -0.00142801  -0.67817 -1.41205 -0.00122476  -0.702331 -1.34141 -0.000980616  -0.726665 -1.38973 -0.000991702  -0.654094 -1.36358 -0.000954747  -0.72658 -1.38963 -0.00139797  -0.702446 -1.46083 -0.00119948  -0.751014 -1.43815 -0.00136125  -0.726854 -1.5098 -0.00118518  -0.751088 -1.43823 -0.00101483  -0.775642 -1.48698 -0.00102687  -0.702511 -1.46093 -0.000989437  -0.775568 -1.48689 -0.00133801  -0.751351 -1.55892 -0.00116825  -0.800194 -1.5358 -0.00130975  -0.77595 -1.6082 -0.00116313  -0.800255 -1.53587 -0.00104809  -0.824977 -1.58497 -0.00106215  -0.751408 -1.55902 -0.00102389  -0.82491 -1.58488 -0.00129271  -0.800613 -1.65761 -0.0011512  -0.849673 -1.63412 -0.00126994  -0.825351 -1.70713 -0.00115144  -0.849728 -1.63418 -0.00108647  -0.874561 -1.68356 -0.0011009  -0.800658 -1.65769 -0.00106084  -0.874504 -1.68348 -0.00126278  -0.850126 -1.75675 -0.00114417  -0.899355 -1.73296 -0.00124609  -0.87495 -1.80646 -0.00114846  -0.899403 -1.73302 -0.00112522  -0.924302 -1.78262 -0.00113988  -0.850164 -1.75684 -0.00109911  -0.924254 -1.78254 -0.00124192  -0.899792 -1.85623 -0.00114608  -0.94915 -1.83221 -0.00123489  -0.924664 -1.90607 -0.00115561  -0.94919 -1.83227 -0.00116491  -0.974119 -1.88202 -0.00117958  -0.899825 -1.85632 -0.00113833  -0.974076 -1.88195 -0.0012362  -0.94953 -1.95594 -0.00115764  -0.99898 -1.93174 -0.00122964  -0.974407 -2.00585 -0.00117111  -0.999015 -1.9318 -0.00120437  -1.02393 -1.98165 -0.00121748  -0.949556 -1.95602 -0.00117731  -1.0239 -1.98158 -0.00124037  -0.999265 -2.05578 -0.00118136  -1.04878 -2.03145 -0.00124335  -1.02412 -2.10572 -0.00120103  -1.04881 -2.0315 -0.00124693  -1.07369 -2.08141 -0.00126636  -0.999284 -2.05585 -0.00121748  -1.07366 -2.08134 -0.00126147  -1.04893 -2.15565 -0.0012095  -1.0985 -2.13124 -0.0012691  -1.07374 -2.20558 -0.00123525  -1.09853 -2.13129 -0.00129235  -1.12335 -2.18121 -0.00130963  -1.04895 -2.15573 -0.00126207  -1.12332 -2.18114 -0.00128973  -1.0985 -2.25549 -0.00125134  -1.14809 -2.23103 -0.00130403  -1.12324 -2.30537 -0.00128162  -1.14811 -2.23107 -0.00133562  -1.17287 -2.28096 -0.00135183  -1.09852 -2.25556 -0.00130463  -1.17284 -2.28089 -0.00132847  -1.14792 -2.35521 -0.00130081  -1.19753 -2.33073 -0.00134432  -1.17258 -2.40503 -0.00132978  -1.19755 -2.33078 -0.00138044  -1.22222 -2.3806 -0.00139594  -1.14793 -2.35528 -0.00135112  -1.22219 -2.38053 -0.00137126  -1.19718 -2.45479 -0.0013535  -1.2468 -2.4303 -0.00139523  -1.22176 -2.50451 -0.00138354  -1.24681 -2.43035 -0.0014255  -1.27141 -2.48009 -0.0014385  -1.19719 -2.45486 -0.00139523  -1.27138 -2.48002 -0.0014205  -1.24628 -2.55417 -0.00140488  -1.29592 -2.5297 -0.00143969  -1.27078 -2.60378 -0.00143528  -1.29594 -2.52974 -0.00146401  -1.32049 -2.57939 -0.00147724  -1.24629 -2.55424 -0.00143826  -1.32046 -2.57932 -0.00146651  -0.00105494 -0.00311014 -0.000599027  -0.00203973 -0.00312984 -0.000888705  -0.00265102 -0.011197 -0.0011065  -0.0020252 -0.00320575 -8.80957e-05  -0.00524982 -0.0114466 -0.000158072  0 0 0  0 0 0  -0.00106725 -0.00316426 -5.23329e-05  0 0 0  -0.00516504 -0.0112694 -0.00165224  -0.00490049 -0.0236303 -0.00159144  -0.00965473 -0.0237144 -0.00232363  -0.0080974 -0.0393875 -0.00194156  -0.009675 -0.0239446 -0.000206947  -0.0153464 -0.0395482 -0.000280023  -0.00494915 -0.0238336 -0.000175834  -0.015229 -0.039252 -0.00282502  -0.0120697 -0.0579727 -0.00222194  -0.0219574 -0.0574036 -0.00319076  -0.016973 -0.0789735 -0.00239825  -0.0220107 -0.0577157 -0.000307918  -0.0295524 -0.0781732 -0.000365376  -0.0121446 -0.058281 -0.000283599  -0.0294575 -0.0777951 -0.00343156  -0.022666 -0.102016 -0.00248885  -0.0377573 -0.100157 -0.00353336  -0.0292157 -0.127015 -0.00251079  -0.0378381 -0.100532 -0.00038743  -0.0468457 -0.124821 -0.000422478  -0.0227595 -0.102386 -0.000361085  -0.0467358 -0.124405 -0.00355899  -0.0365483 -0.153729 -0.00247967  -0.0564033 -0.150362 -0.00350213  -0.0447222 -0.182138 -0.00240517  -0.0565244 -0.150761 -0.000444889  -0.0668997 -0.178406 -0.00046134  -0.0366739 -0.154126 -0.000414968  -0.0667519 -0.177984 -0.00339782  -0.0536767 -0.212049 -0.00231171  -0.0777746 -0.207115 -0.00326228  -0.0634691 -0.243454 -0.00219679  -0.0779381 -0.207505 -0.000486493  -0.0896709 -0.238119 -0.000493407  -0.0538363 -0.212444 -0.000453234  -0.0894853 -0.237718 -0.00310409  -0.0740253 -0.27618 -0.00208127  -0.101857 -0.269648 -0.00294006  -0.0853966 -0.31022 -0.0019604  -0.102051 -0.270008 -0.000518918  -0.115107 -0.303245 -0.000521064  -0.0742098 -0.276553 -0.000486135  -0.114898 -0.302875 -0.00277162  -0.0974978 -0.345423 -0.00184476  -0.128578 -0.337275 -0.00261295  -0.110379 -0.381784 -0.00173128  -0.128789 -0.337602 -0.000547647  -0.143122 -0.373158 -0.000550032  -0.0976974 -0.345767 -0.000517011  -0.142904 -0.372824 -0.00245774  -0.123953 -0.419166 -0.00163186  -0.157835 -0.409416 -0.00231624  -0.13826 -0.457568 -0.00153732  -0.15805 -0.409706 -0.000576615  -0.173603 -0.447319 -0.000580192  -0.124155 -0.419477 -0.000549078  -0.173385 -0.447022 -0.00218344  -0.153218 -0.496871 -0.00145102  -0.189505 -0.485555 -0.00206113  -0.168857 -0.537066 -0.0013746  -0.189719 -0.48581 -0.000606894  -0.206427 -0.525251 -0.000613093  -0.153416 -0.497148 -0.000579953  -0.206216 -0.524987 -0.00195336  -0.185106 -0.578056 -0.0013032  -0.223462 -0.56524 -0.00185025  -0.201988 -0.619828 -0.00124359  -0.223664 -0.565465 -0.000636935  -0.241464 -0.606524 -0.000643611  -0.185294 -0.578303 -0.000610113  -0.241264 -0.606287 -0.0017612  -0.219435 -0.662294 -0.00118601  -0.259566 -0.648062 -0.00167513  -0.237463 -0.705446 -0.00114214  -0.259754 -0.648261 -0.00066483  -0.27857 -0.690746 -0.000674725  -0.21961 -0.662518 -0.000638843  -0.278385 -0.690535 -0.0016048  -0.256007 -0.749205 -0.00109613  -0.297662 -0.733649 -0.00153387  -0.275082 -0.793559 -0.00106275  -0.297835 -0.733826 -0.000697136  -0.317588 -0.777565 -0.000708222  -0.256168 -0.749408 -0.000673056  -0.317417 -0.777376 -0.00147712  -0.294624 -0.838441 -0.0010258  -0.337588 -0.821662 -0.00141656  -0.314647 -0.88384 -0.00100076  -0.337748 -0.82182 -0.00072813  -0.358352 -0.866654 -0.000738978  -0.29477 -0.838624 -0.000704288  -0.358196 -0.866484 -0.00137126  -0.335092 -0.929696 -0.000972629  -0.37918 -0.911797 -0.00132108  -0.355968 -0.975997 -0.000955462  -0.379324 -0.911936 -0.000760317  -0.400696 -0.95773 -0.00077045  -0.335224 -0.929862 -0.000735641  -0.400555 -0.957576 -0.0012846  -0.377213 -1.02269 -0.000931978  -0.422262 -1.00378 -0.00124276  -0.398842 -1.06976 -0.000920534  -0.422391 -1.0039 -0.000791907  -0.444447 -1.05052 -0.000801325  -0.377331 -1.02284 -0.000767112  -0.444319 -1.05038 -0.001212  -0.420792 -1.11717 -0.000904202  -0.466662 -1.09735 -0.00118017  -0.443079 -1.16491 -0.000898123  -0.466777 -1.09747 -0.000823498  -0.489426 -1.14479 -0.000835061  -0.420899 -1.11731 -0.000798583  -0.489312 -1.14467 -0.00115561  -0.465644 -1.21292 -0.000886083  -0.51221 -1.19229 -0.00112784  -0.488498 -1.26121 -0.000886798  -0.512312 -1.1924 -0.000855923  -0.535476 -1.24033 -0.000866413  -0.465737 -1.21305 -0.00083077  -0.535375 -1.24021 -0.00111246  -0.51159 -1.30974 -0.000877976  -0.558744 -1.2884 -0.0010922  -0.534927 -1.35849 -0.000880003  -0.558838 -1.28849 -0.000889063  -0.582436 -1.33694 -0.000901103  -0.511671 -1.30986 -0.00086534  -0.582344 -1.33683 -0.00108016  -0.55846 -1.40744 -0.000874758  -0.60611 -1.38548 -0.00106215  -0.582198 -1.45657 -0.000883222  -0.606191 -1.38557 -0.000922084  -0.630149 -1.43444 -0.000934839  -0.558529 -1.40755 -0.000896811  -0.630068 -1.43433 -0.00105739  -0.606094 -1.50585 -0.000882268  -0.654161 -1.48337 -0.00104558  -0.630161 -1.55529 -0.000891566  -0.65423 -1.48345 -0.000955701  -0.678479 -1.53267 -0.000968814  -0.606156 -1.50596 -0.000931382  -0.678408 -1.53257 -0.00104392  -0.654346 -1.60485 -0.000893116  -0.702753 -1.58191 -0.00103581  -0.678668 -1.65452 -0.000908494  -0.702816 -1.58199 -0.000992298  -0.727288 -1.63148 -0.00100362  -0.6544 -1.60494 -0.000963926  -0.727226 -1.63139 -0.00104034  -0.703081 -1.70428 -0.000915766  -0.751766 -1.68097 -0.00103724  -0.727592 -1.75413 -0.000934958  -0.751815 -1.68104 -0.00102615  -0.776455 -1.73074 -0.00104201  -0.703124 -1.70437 -0.00100136  -0.776402 -1.73065 -0.00104582  -0.752169 -1.80403 -0.000941992  -0.80108 -1.78042 -0.00104558  -0.776817 -1.854 -0.000959873  -0.801127 -1.78048 -0.00106525  -0.825874 -1.83034 -0.00108123  -0.752206 -1.80412 -0.00103939  -0.825827 -1.83025 -0.00106144  -0.801501 -1.904 -0.000974774  -0.850592 -1.88014 -0.00106323  -0.826235 -1.95404 -0.000997543  -0.850629 -1.8802 -0.00110126  -0.875444 -1.93015 -0.00111949  -0.801531 -1.90408 -0.00107586  -0.875403 -1.93008 -0.00108039  -0.850981 -2.00408 -0.00101256  -0.900212 -1.98004 -0.00108969  -0.875756 -2.05414 -0.00104153  -0.900241 -1.98009 -0.00114548  -0.925081 -2.03009 -0.00115764  -0.851007 -2.00416 -0.0011158  -0.925046 -2.03002 -0.00110984  -0.900525 -2.1042 -0.00105774  -0.949858 -2.08001 -0.00112319  -0.925301 -2.15424 -0.00108862  -0.949883 -2.08006 -0.00118542  -0.974713 -2.13007 -0.00120115  -0.900545 -2.10427 -0.0011549  -0.97468 -2.13 -0.0011481  -0.950056 -2.20426 -0.00110722  -0.999468 -2.17997 -0.00116467  -0.974805 -2.25426 -0.00114059  -0.999493 -2.18003 -0.00122666  -1.02428 -2.23001 -0.00124407  -0.950072 -2.20434 -0.00119746  -1.02425 -2.22993 -0.00119472  -0.999519 -2.30423 -0.00116336  -1.04899 -2.27987 -0.00121248  -1.02422 -2.35416 -0.0011965  -1.04901 -2.27992 -0.00127053  -1.07374 -2.32985 -0.00128686  -0.999533 -2.3043 -0.00124145  -1.07371 -2.32977 -0.00124395  -1.04887 -2.40403 -0.00122118  -1.09838 -2.37964 -0.00126767  -1.0735 -2.45387 -0.00125766  -1.0984 -2.37969 -0.00131547  -1.12305 -2.42953 -0.00133181  -1.04888 -2.4041 -0.00128496  -1.12303 -2.42946 -0.00129735  -1.09807 -2.50364 -0.00128448  -1.14761 -2.47923 -0.00132275  -1.12262 -2.55336 -0.00131571  -1.14763 -2.47928 -0.00135922  -1.1722 -2.52901 -0.00137472  -1.09808 -2.50371 -0.00132895  -1.17218 -2.52895 -0.00135481  -1.1471 -2.60301 -0.00134254  -1.19668 -2.5786 -0.00137782  -1.17155 -2.65258 -0.00138175  -1.1967 -2.57865 -0.00139856  -1.22119 -2.62826 -0.00141644  -1.14711 -2.60308 -0.00137258  -1.22116 -2.62818 -0.00141013  0.000831343 -0.00421861 -2.96831e-05  -6.74836e-05 -0.00350252 -0.000309944  0.00216088 -0.0133079 -7.58171e-05  -6.66901e-05 -0.0035584 -3.77893e-05  -0.000149444 -0.0120599 -9.71556e-05  0 0 0  0 0 0  0.000814132 -0.00428021 -1.9908e-05  0 0 0  -7.64281e-05 -0.0119269 -0.000596642  0.00375983 -0.0266357 -0.000164747  -0.000427887 -0.0246988 -0.000855923  0.0051004 -0.0432412 -0.000225902  -0.000458479 -0.0248753 -0.000135779  -0.00134598 -0.0410278 -0.000192404  0.00369926 -0.0267909 -0.000111103  -0.00123306 -0.0407949 -0.00107789  0.00597119 -0.0628517 -0.000324488  -0.00283635 -0.0598786 -0.00125289  0.00607154 -0.0848544 -0.000386  -0.00290331 -0.0601415 -0.000223994  -0.0052911 -0.0816875 -0.000267029  0.00587752 -0.0630973 -0.000195742  -0.00517815 -0.0813692 -0.00138175  0.00529712 -0.10906 -0.000443459  -0.00843173 -0.105023 -0.0014509  0.00353521 -0.135236 -0.000470638  -0.00853378 -0.105348 -0.000296712  -0.0126883 -0.131005 -0.000325918  0.005182 -0.109378 -0.000265479  -0.0125597 -0.130635 -0.00148427  0.000767469 -0.163203 -0.000483632  -0.0176163 -0.158018 -0.00147426  -0.00306588 -0.192899 -0.000475049  -0.0177497 -0.158374 -0.000355244  -0.0237553 -0.187489 -0.000372767  0.000629067 -0.163563 -0.000321746  -0.0236002 -0.1871 -0.00143778  -0.0079217 -0.224137 -0.000457883  -0.0305102 -0.217717 -0.00138378  -0.0138543 -0.256907 -0.000429988  -0.0306736 -0.218078 -0.000402331  -0.0385346 -0.250213 -0.000412464  -0.00808281 -0.224509 -0.000367761  -0.038355 -0.249831 -0.00131333  -0.0207847 -0.291027 -0.000400662  -0.0471044 -0.283291 -0.00124264  -0.0287576 -0.326491 -0.000366926  -0.0472921 -0.283636 -0.000441909  -0.0569642 -0.318426 -0.000449777  -0.0209618 -0.291388 -0.000409722  -0.056767 -0.318066 -0.00116611  -0.0376842 -0.363136 -0.000335813  -0.0672913 -0.354021 -0.00109351  -0.0475977 -0.400951 -0.000307083  -0.0674921 -0.354339 -0.000477672  -0.0788907 -0.391457 -0.000484347  -0.0378689 -0.363473 -0.000447154  -0.0786858 -0.391126 -0.00102365  -0.0584044 -0.439789 -0.000282645  -0.0908911 -0.429263 -0.000962377  -0.070134 -0.479643 -0.00026238  -0.0910915 -0.429553 -0.000512004  -0.104112 -0.468705 -0.000519991  -0.0585905 -0.440101 -0.00048399  -0.10391 -0.468405 -0.000904799  -0.0826929 -0.520382 -0.00024426  -0.117684 -0.508449 -0.000853896  -0.0961016 -0.561997 -0.000233531  -0.117878 -0.508708 -0.000543118  -0.13241 -0.549635 -0.000553608  -0.0828722 -0.520666 -0.000517845  -0.132213 -0.549365 -0.000809431  -0.110275 -0.604377 -0.000223398  -0.147438 -0.591068 -0.000769734  -0.125229 -0.647513 -0.000223994  -0.147626 -0.591298 -0.000575304  -0.16355 -0.633773 -0.000585318  -0.110447 -0.604634 -0.000550747  -0.163366 -0.633531 -0.000738263  -0.140882 -0.691304 -0.00022161  -0.179927 -0.676676 -0.000708461  -0.157243 -0.735741 -0.000227451  -0.1801 -0.676881 -0.000607133  -0.197303 -0.720695 -0.000618577  -0.14104 -0.691536 -0.000583172  -0.197129 -0.720477 -0.000690699  -0.174237 -0.78074 -0.000230789  -0.214914 -0.76487 -0.000669479  -0.191876 -0.826294 -0.000244975  -0.215076 -0.765054 -0.000638962  -0.233439 -0.810027 -0.000651121  -0.174386 -0.780952 -0.000616074  -0.233281 -0.809829 -0.000659347  -0.210084 -0.872324 -0.00025177  -0.252165 -0.855297 -0.000644803  -0.228868 -0.918827 -0.000269771  -0.252311 -0.855462 -0.000671864  -0.271725 -0.901431 -0.000682116  -0.210218 -0.872518 -0.000646949  -0.27158 -0.901251 -0.000640273  -0.24816 -0.965734 -0.000282288  -0.291458 -0.947643 -0.000633121  -0.267968 -1.01304 -0.000304341  -0.291593 -0.947791 -0.000703335  -0.311943 -0.994612 -0.00071466  -0.248282 -0.965911 -0.000680804  -0.311809 -0.994449 -0.000634551  -0.288225 -1.06069 -0.000318289  -0.332568 -1.04163 -0.000630736  -0.308937 -1.10867 -0.000343084  -0.33269 -1.04176 -0.000734448  -0.35387 -1.08931 -0.000745773  -0.288335 -1.06085 -0.000711083  -0.35375 -1.08916 -0.000637054  -0.330042 -1.15693 -0.000360489  -0.375286 -1.137 -0.000634432  -0.351547 -1.20548 -0.000386357  -0.375393 -1.13712 -0.000767589  -0.397296 -1.18528 -0.000777364  -0.330139 -1.15708 -0.000741959  -0.397189 -1.18514 -0.000644803  -0.373386 -1.25425 -0.000405312  -0.4194 -1.23355 -0.000651956  -0.395573 -1.30326 -0.00043273  -0.419493 -1.23365 -0.000800014  -0.442026 -1.28232 -0.000810504  -0.373472 -1.25439 -0.000775337  -0.44193 -1.28219 -0.0006634  -0.41805 -1.35245 -0.000454307  -0.464716 -1.33106 -0.000669718  -0.440822 -1.40182 -0.000484824  -0.464803 -1.33116 -0.000829935  -0.487869 -1.38024 -0.000844479  -0.418127 -1.35257 -0.000806808  -0.487783 -1.38012 -0.000687361  -0.463834 -1.45135 -0.000505447  -0.511057 -1.42936 -0.000693679  -0.487097 -1.50102 -0.000535846  -0.511132 -1.42946 -0.000865221  -0.534642 -1.47888 -0.000875473  -0.463901 -1.45146 -0.000838637  -0.534568 -1.47877 -0.000712991  -0.510556 -1.5508 -0.000561237  -0.558248 -1.52831 -0.00072515  -0.534225 -1.6007 -0.000593424  -0.558314 -1.52839 -0.000896573  -0.582193 -1.57807 -0.000910282  -0.510612 -1.55091 -0.000873327  -0.582125 -1.57798 -0.000748038  -0.558049 -1.65067 -0.00061512  -0.606133 -1.62774 -0.00075841  -0.582039 -1.70073 -0.000651002  -0.60619 -1.62782 -0.000931978  -0.630356 -1.6777 -0.00094521  -0.558097 -1.65077 -0.000904083  -0.630298 -1.67761 -0.000782847  -0.606151 -1.75084 -0.000674129  -0.654561 -1.72755 -0.000800967  -0.630394 -1.801 -0.000711799  -0.65461 -1.72762 -0.000968695  -0.678998 -1.77764 -0.000981688  -0.606193 -1.75093 -0.000940681  -0.678949 -1.77755 -0.00082612  -0.65473 -1.85119 -0.000738978  -0.703403 -1.82761 -0.000844002  -0.67916 -1.90141 -0.00077498  -0.703444 -1.82767 -0.00100541  -0.727996 -1.87778 -0.00101769  -0.654761 -1.85128 -0.000977755  -0.727952 -1.8777 -0.000872254  -0.703648 -1.95163 -0.000802755  -0.752538 -1.92781 -0.000891328  -0.728207 -2.00187 -0.000838757  -0.752571 -1.92787 -0.00104237  -0.777228 -1.97803 -0.00105679  -0.703673 -1.95172 -0.00101519  -0.777192 -1.97794 -0.000923395  -0.752797 -2.05209 -0.000863671  -0.801861 -2.02808 -0.00094521  -0.777435 -2.1023 -0.000902653  -0.801889 -2.02814 -0.0010823  -0.826607 -2.0783 -0.0010947  -0.752817 -2.05218 -0.00104964  -0.826574 -2.07822 -0.000976086  -0.802081 -2.15249 -0.000931144  -0.851281 -2.12834 -0.000997543  -0.826755 -2.20264 -0.000969648  -0.851305 -2.1284 -0.00112128  -0.87604 -2.17851 -0.00113368  -0.802099 -2.15257 -0.00109255  -0.876014 -2.17844 -0.00103199  -0.851415 -2.25275 -0.000998378  -0.900717 -2.22851 -0.0010581  -0.876086 -2.30283 -0.00104129  -0.90074 -2.22856 -0.00116277  -0.925463 -2.27862 -0.00118065  -0.85143 -2.25283 -0.00113368  -0.925433 -2.27855 -0.00109375  -0.90073 -2.35286 -0.00107181  -0.95011 -2.32854 -0.00112057  -0.92537 -2.40283 -0.00111151  -0.950131 -2.32859 -0.00120723  -0.974812 -2.37856 -0.00122321  -0.900743 -2.35293 -0.00117731  -0.974784 -2.37849 -0.00115657  -0.949972 -2.45274 -0.00114036  -0.99941 -2.42839 -0.0011853  -0.974556 -2.5026 -0.00118136  -0.999429 -2.42844 -0.00124836  -1.02404 -2.4783 -0.00126565  -0.94998 -2.45282 -0.00121653  -1.02402 -2.47823 -0.00122416  -0.999092 -2.55238 -0.0012145  -1.04857 -2.52801 -0.00125003  -1.0236 -2.60211 -0.00125504  -1.04859 -2.52806 -0.00129282  -1.07313 -2.5778 -0.00130975  -0.999101 -2.55246 -0.00126445  -1.07311 -2.57773 -0.00128913  -1.04805 -2.65175 -0.00128531  -1.09757 -2.62738 -0.00131691  -1.07246 -2.70132 -0.00132501  -1.09759 -2.62743 -0.00133801  -1.12203 -2.67702 -0.00135493  -1.04806 -2.65183 -0.00130987  -1.122 -2.67695 -0.00135553  0.00271657 -0.00676936 0.000498533  0.00178992 -0.00531787 0.000244021  0.00697419 -0.0180126 0.000890017  0.00179223 -0.0053767 3.8147e-06  0.00457667 -0.0154396 -5.38826e-05  0 0 0  0 0 0  0.00270434 -0.00683099 1.28746e-05  0 0 0  0.00466685 -0.0153301 0.000409365  0.0123826 -0.0332451 0.00117254  0.00805287 -0.0295045 0.000536084  0.0181387 -0.0512458 0.00138807  0.00800656 -0.0296575 -7.689e-05  0.0114953 -0.0469642 -0.000112891  0.0123114 -0.0333688 -5.6386e-05  0.0116083 -0.0467648 0.000592113  0.0236489 -0.0720695 0.00146902  0.01475 -0.0669474 0.000604272  0.0285269 -0.0950599 0.00152111  0.0146559 -0.0671775 -0.000151634  0.017128 -0.0897392 -0.000176072  0.0235322 -0.0722784 -0.000122428  0.0172559 -0.0894531 0.000581503  0.032443 -0.120216 0.00150514  0.0188323 -0.11415 0.000549912  0.0352511 -0.147326 0.00147808  0.0187047 -0.114441 -0.000212908  0.0192398 -0.141158 -0.000236273  0.0323008 -0.120507 -0.00018239  0.0193835 -0.140815 0.000511289  0.0368654 -0.176259 0.00143111  0.0188256 -0.169296 0.000482202  0.037213 -0.206972 0.00138474  0.0186774 -0.169627 -0.00027132  0.0169541 -0.199891 -0.000289321  0.0367119 -0.1766 -0.000240088  0.0171132 -0.199521 0.000458598  0.0363261 -0.239284 0.00133586  0.0142556 -0.231328 0.000441194  0.0341518 -0.273186 0.00128961  0.0140905 -0.231672 -0.00032258  0.0100569 -0.265049 -0.000337243  0.0361647 -0.239643 -0.000291586  0.010231 -0.264681 0.000430465  0.0307706 -0.308489 0.00124347  0.00508213 -0.299421 0.000419617  0.0261436 -0.345181 0.00119543  0.00490499 -0.299756 -0.000366926  -0.00138122 -0.335866 -0.000380874  0.0306038 -0.308842 -0.00033772  -0.00119549 -0.335512 0.000412345  0.0203685 -0.383089 0.00115168  -0.00854671 -0.372811 0.000402689  0.0134134 -0.422192 0.00110364  -0.0087297 -0.373128 -0.000409484  -0.0171533 -0.411612 -0.000420332  0.0201983 -0.383424 -0.000380397  -0.0169678 -0.411282 0.000394464  0.00538158 -0.46234 0.00105739  -0.0263906 -0.450795 0.000381708  -0.00374508 -0.503504 0.00100589  -0.0265694 -0.451085 -0.0004462  -0.0369935 -0.491617 -0.000459194  0.00521588 -0.462651 -0.000419855  -0.036809 -0.491316 0.000366569  -0.0138704 -0.545557 0.000958085  -0.048155 -0.532729 0.000351191  -0.0250033 -0.588472 0.000904441  -0.0483329 -0.532991 -0.000483751  -0.0606012 -0.575277 -0.000493765  -0.0140314 -0.545843 -0.000458241  -0.0604237 -0.575003 0.00032866  -0.0370501 -0.632137 0.00085485  -0.0735406 -0.618042 0.000310302  -0.0500187 -0.676532 0.000798821  -0.0737079 -0.618279 -0.000515938  -0.0876685 -0.662063 -0.000528336  -0.0372032 -0.632398 -0.000492215  -0.0875027 -0.661814 0.000280857  -0.0638169 -0.721555 0.000747681  -0.102232 -0.706236 0.000258446  -0.0784512 -0.767192 0.000689507  -0.10239 -0.706449 -0.000549912  -0.11789 -0.751506 -0.000561476  -0.0639609 -0.721794 -0.000526786  -0.117733 -0.751281 0.00022459  -0.0938351 -0.813355 0.000636816  -0.133927 -0.796874 0.000197411  -0.109972 -0.860032 0.00057435  -0.134073 -0.797066 -0.000581384  -0.150965 -0.8432 -0.000594378  -0.093968 -0.813573 -0.000558734  -0.150818 -0.842995 0.000161171  -0.12678 -0.907146 0.000522494  -0.168333 -0.889579 0.000129342  -0.144267 -0.954686 0.00046134  -0.168466 -0.889752 -0.000615478  -0.186607 -0.936793 -0.000626206  -0.126904 -0.907343 -0.000591993  -0.186474 -0.936605 8.95262e-05  -0.162347 -1.00259 0.000410318  -0.205164 -0.984021 5.94854e-05  -0.181028 -1.05084 0.000350237  -0.205287 -0.984176 -0.00064683  -0.224536 -1.03198 -0.000657558  -0.162457 -1.00277 -0.000622749  -0.224415 -1.0318 1.78814e-05  -0.200238 -1.09939 0.000298619  -0.24415 -1.07991 -1.43051e-05  -0.219977 -1.14822 0.000238895  -0.244263 -1.08005 -0.000677466  -0.264495 -1.12848 -0.00068891  -0.200338 -1.09955 -0.000654101  -0.264384 -1.12832 -5.6386e-05  -0.240181 -1.1973 0.000187397  -0.28504 -1.177 -9.17912e-05  -0.260848 -1.2466 0.000126362  -0.285141 -1.17713 -0.000710011  -0.306233 -1.22608 -0.000720143  -0.240271 -1.19745 -0.000686049  -0.306134 -1.22593 -0.000133157  -0.281916 -1.29609 7.77245e-05  -0.327589 -1.27507 -0.000167131  -0.303387 -1.34577 1.81198e-05  -0.327678 -1.27519 -0.000742078  -0.349515 -1.32455 -0.000754356  -0.281993 -1.29624 -0.000717282  -0.349427 -1.32442 -0.000212669  -0.325201 -1.39559 -2.93255e-05  -0.371573 -1.37393 -0.000246525  -0.347362 -1.44556 -8.57115e-05  -0.37165 -1.37404 -0.000772834  -0.394126 -1.42373 -0.000785589  -0.32527 -1.39573 -0.00074923  -0.394045 -1.42361 -0.000290751  -0.36981 -1.49563 -0.000134945  -0.416778 -1.47341 -0.000324488  -0.392555 -1.54581 -0.000191212  -0.416847 -1.47351 -0.000806689  -0.439858 -1.52345 -0.000818014  -0.36987 -1.49575 -0.000781298  -0.439791 -1.52334 -0.000370383  -0.41554 -1.59605 -0.000238419  -0.463011 -1.57336 -0.000404835  -0.438772 -1.64638 -0.000295281  -0.463072 -1.57345 -0.000840664  -0.48653 -1.62358 -0.000850439  -0.415592 -1.59617 -0.000812531  -0.486469 -1.62347 -0.000448585  -0.462199 -1.69674 -0.000340819  -0.510093 -1.67365 -0.000482559  -0.485825 -1.74716 -0.000393271  -0.510144 -1.67373 -0.000874162  -0.533962 -1.72399 -0.000884533  -0.46224 -1.69685 -0.00084877  -0.53391 -1.72389 -0.000527263  -0.509606 -1.79759 -0.000437021  -0.557854 -1.77416 -0.00056076  -0.533547 -1.84805 -0.000490427  -0.5579 -1.77424 -0.000907302  -0.582002 -1.82457 -0.000921607  -0.509642 -1.79769 -0.000880361  -0.581955 -1.82447 -0.000605106  -0.557606 -1.8985 -0.000532508  -0.606149 -1.8748 -0.000639558  -0.581793 -1.94896 -0.000584722  -0.60619 -1.87487 -0.000941992  -0.630504 -1.92523 -0.000955701  -0.557637 -1.8986 -0.000916243  -0.630465 -1.92514 -0.000684381  -0.606059 -1.99939 -0.000625372  -0.65484 -1.97547 -0.000719547  -0.630421 -2.04981 -0.000675559  -0.654874 -1.97554 -0.000980616  -0.679341 -2.02589 -0.000992656  -0.606085 -1.99948 -0.000950098  -0.679307 -2.0258 -0.000760674  -0.654833 -2.10019 -0.000714898  -0.703806 -2.07611 -0.000794291  -0.679313 -2.15054 -0.000768781  -0.703832 -2.07617 -0.00101721  -0.728403 -2.12647 -0.0010308  -0.654853 -2.10027 -0.000989795  -0.72837 -2.12639 -0.000838876  -0.703818 -2.20083 -0.000806689  -0.752944 -2.17663 -0.000873089  -0.728368 -2.25109 -0.00085628  -0.752968 -2.17669 -0.00105608  -0.777587 -2.22692 -0.00107181  -0.703835 -2.20092 -0.00102663  -0.777559 -2.22684 -0.000916123  -0.75292 -2.30128 -0.000895023  -0.802164 -2.277 -0.00094986  -0.777498 -2.35142 -0.000941753  -0.802183 -2.27706 -0.00109529  -0.826818 -2.32719 -0.00111103  -0.752931 -2.30137 -0.00106847  -0.826793 -2.32711 -0.000993133  -0.80206 -2.4015 -0.000978351  -0.851393 -2.37716 -0.00102592  -0.826625 -2.45151 -0.00102365  -0.85141 -2.37722 -0.00113642  -0.876022 -2.42723 -0.00115454  -0.802067 -2.40158 -0.00110757  -0.876001 -2.42715 -0.00107062  -0.851164 -2.50145 -0.00106013  -0.900569 -2.47708 -0.00110483  -0.875698 -2.55132 -0.00110734  -0.900581 -2.47714 -0.00118041  -0.925153 -2.52702 -0.00119841  -0.851173 -2.50153 -0.00115442  -0.925134 -2.52694 -0.00114954  -0.900189 -2.60111 -0.0011431  -0.949645 -2.57674 -0.00118124  -0.924664 -2.65085 -0.0011878  -0.949658 -2.57679 -0.00122833  -0.974162 -2.62654 -0.00124466  -0.900199 -2.60119 -0.00120044  -0.974143 -2.62646 -0.00122571  -0.949084 -2.70049 -0.00122392  -0.998569 -2.67611 -0.00125861  -0.973465 -2.75008 -0.00127161  -0.998584 -2.67617 -0.0012753  -1.02299 -2.72576 -0.00129414  -0.949095 -2.70057 -0.00124443  -1.02296 -2.72568 -0.00130391  0.00490395 -0.011403 0.000960946  0.00381611 -0.00874501 0.000763416  0.0127107 -0.0259418 0.00175881  0.00383178 -0.00885081 3.18289e-05  0.00975443 -0.0216266 -2.32458e-05  0 0 0  0 0 0  0.00491698 -0.0114451 4.94719e-05  0 0 0  0.00985758 -0.0215211 0.00134468  0.022373 -0.04391 0.00238633  0.0171834 -0.0380054 0.00182796  0.0328377 -0.0635717 0.00286031  0.0171299 -0.0381663 -3.40939e-05  0.0250736 -0.0570745 -4.68493e-05  0.0222982 -0.0440064 -1.18017e-05  0.0251787 -0.0568725 0.00214434  0.042983 -0.0855232 0.00312245  0.0329998 -0.0782557 0.00233281  0.0524606 -0.109372 0.00328565  0.0328739 -0.0784748 -9.19104e-05  0.0400245 -0.102005 -9.71556e-05  0.0428443 -0.0857358 -6.48499e-05  0.0401617 -0.10172 0.00241804  0.0608198 -0.135206 0.00332391  0.0463492 -0.127249 0.00243425  0.0679041 -0.163033 0.00330961  0.046194 -0.127525 -0.00014317  0.051175 -0.155079 -0.000157833  0.0606582 -0.135503 -0.000112295  0.051333 -0.154741 0.00240219  0.0736341 -0.192703 0.00324535  0.0550441 -0.184076 0.00234783  0.0779119 -0.224249 0.00315964  0.054882 -0.184392 -0.000197768  0.0572353 -0.215577 -0.000217199  0.0734708 -0.193045 -0.000169754  0.0574006 -0.215215 0.00227523  0.0807849 -0.257466 0.00305891  0.0584177 -0.248004 0.0022006  0.0821893 -0.292351 0.00295019  0.058252 -0.248335 -0.000249743  0.0579 -0.282763 -0.000269413  0.0806254 -0.257819 -0.00022316  0.0580688 -0.282403 0.0021193  0.08221 -0.328708 0.00283802  0.0564017 -0.318251 0.00204003  0.080807 -0.366507 0.00272167  0.0562338 -0.318578 -0.000297904  0.0532423 -0.355848 -0.000316024  0.0820512 -0.329055 -0.000273108  0.0534143 -0.355502 0.00195706  0.0780821 -0.405567 0.00260842  0.049171 -0.393999 0.00187719  0.0740098 -0.445851 0.00249112  0.0490038 -0.39431 -0.000342488  0.0435077 -0.434024 -0.000358224  0.0779248 -0.405896 -0.000318289  0.0436786 -0.433698 0.00179458  0.0686932 -0.487202 0.00237751  0.0370084 -0.474461 0.0017153  0.0621243 -0.529581 0.00226212  0.0368432 -0.47475 -0.000383258  0.0290077 -0.516539 -0.000397682  0.0685419 -0.48751 -0.000359178  0.0291742 -0.516238 0.00163054  0.0544038 -0.572851 0.00215161  0.0202545 -0.558913 0.0015496  0.0455272 -0.616975 0.00203645  0.0200964 -0.559176 -0.000421882  0.0101 -0.602714 -0.000435591  0.0542572 -0.573135 -0.000399351  0.0102592 -0.602439 0.00146604  0.0355985 -0.661836 0.00192928  -0.000727296 -0.646714 0.00138807  0.0246158 -0.707404 0.00181818  -0.000878811 -0.646955 -0.000459194  -0.0128502 -0.691953 -0.000473499  0.03546 -0.662097 -0.000436544  -0.0126972 -0.6917 0.00130427  0.0126733 -0.753578 0.00171399  -0.0255684 -0.737312 0.00122678  -0.000223517 -0.800332 0.00160217  -0.025709 -0.73753 -0.000491977  -0.0394719 -0.783746 -0.000506401  0.0125436 -0.753816 -0.000470757  -0.0393298 -0.783514 0.00114071  -0.0139847 -0.84758 0.00150263  -0.0539031 -0.830233 0.00106418  -0.028604 -0.895303 0.00139594  -0.054034 -0.830431 -0.000526905  -0.0694129 -0.87765 -0.00053966  -0.0141044 -0.847801 -0.000504375  -0.06928 -0.877438 0.00098145  -0.0439994 -0.943427 0.00129807  -0.0853807 -0.925068 0.000906825  -0.0601602 -0.991933 0.00119543  -0.0855019 -0.925248 -0.000558496  -0.102325 -0.973292 -0.000571132  -0.0441076 -0.943628 -0.000535727  -0.102206 -0.973098 0.000824571  -0.0770088 -1.04076 0.00110304  -0.119668 -1.02147 0.000753403  -0.0945413 -1.08989 0.00100327  -0.119779 -1.02163 -0.000589848  -0.137888 -1.07035 -0.000602841  -0.0771099 -1.04094 -0.000568032  -0.137778 -1.07017 0.000672579  -0.112681 -1.13928 0.000915289  -0.156452 -1.11915 0.000602365  -0.131428 -1.18891 0.000819921  -0.156553 -1.1193 -0.000622153  -0.175797 -1.16855 -0.000631928  -0.112772 -1.13945 -0.000598311  -0.175697 -1.16839 0.000525713  -0.150702 -1.23873 0.000732899  -0.195435 -1.21785 0.000457048  -0.17051 -1.28874 0.000639677  -0.195524 -1.21798 -0.000651956  -0.215768 -1.26766 -0.000665665  -0.150781 -1.23889 -0.000630379  -0.215676 -1.26751 0.000379801  -0.190777 -1.33889 0.000559807  -0.236341 -1.31734 0.00031364  -0.211507 -1.38919 0.000469446  -0.236421 -1.31746 -0.000686407  -0.257529 -1.36747 -0.000696898  -0.190848 -1.33904 -0.00066185  -0.257448 -1.36734 0.000240684  -0.232636 -1.43959 0.000395179  -0.278916 -1.41746 0.000177503  -0.254162 -1.49009 0.00030911  -0.278988 -1.41757 -0.000717163  -0.300839 -1.46782 -0.000727654  -0.232697 -1.43973 -0.00069201  -0.300766 -1.46769 0.000106215  -0.276026 -1.54066 0.000234723  -0.322921 -1.51802 4.6134e-05  -0.298229 -1.5913 0.000154495  -0.322984 -1.51812 -0.000747681  -0.345464 -1.56855 -0.00075984  -0.276081 -1.54079 -0.000724077  -0.345401 -1.56843 -2.34842e-05  -0.320716 -1.64197 8.59499e-05  -0.368133 -1.6189 -8.10623e-05  -0.343493 -1.69268 7.15256e-06  -0.368189 -1.619 -0.000779867  -0.3912 -1.66954 -0.000792623  -0.320764 -1.64209 -0.000755191  -0.391144 -1.66942 -0.000147581  -0.3665 -1.74339 -5.80549e-05  -0.414356 -1.71997 -0.000203609  -0.389746 -1.79413 -0.000133991  -0.414404 -1.72006 -0.000814319  -0.43785 -1.77065 -0.000824094  -0.366539 -1.74351 -0.000784278  -0.437798 -1.77055 -0.000267029  -0.413179 -1.84484 -0.000196218  -0.461402 -1.82113 -0.000320673  -0.436805 -1.89556 -0.000268459  -0.461442 -1.82121 -0.000846148  -0.485236 -1.87182 -0.000858903  -0.413212 -1.84495 -0.000819206  -0.485191 -1.87172 -0.000383258  -0.460577 -1.94623 -0.000329137  -0.509102 -1.92229 -0.000434756  -0.484503 -1.99689 -0.000395775  -0.509137 -1.92237 -0.000880361  -0.533201 -1.97295 -0.000892401  -0.460602 -1.94633 -0.0008533  -0.533164 -1.97285 -0.000494003  -0.508535 -2.04749 -0.00045228  -0.557311 -2.02338 -0.000541806  -0.532686 -2.09806 -0.000515223  -0.557339 -2.02345 -0.000914812  -0.581605 -2.07396 -0.000930429  -0.508559 -2.04759 -0.000888705  -0.581572 -2.07387 -0.000599265  -0.556915 -2.14857 -0.000568151  -0.605888 -2.12432 -0.000647187  -0.581228 -2.19903 -0.000630021  -0.60591 -2.12439 -0.000950694  -0.630316 -2.17482 -0.000966907  -0.556933 -2.14866 -0.000923157  -0.63029 -2.17473 -0.000702858  -0.605587 -2.24941 -0.000678182  -0.654718 -2.22508 -0.000745058  -0.630006 -2.29974 -0.000736594  -0.654737 -2.22514 -0.00098896  -0.67923 -2.27545 -0.00100553  -0.605599 -2.2495 -0.000960827  -0.679208 -2.27537 -0.000801325  -0.654447 -2.34999 -0.000783443  -0.703696 -2.3256 -0.00084269  -0.678922 -2.40017 -0.00083828  -0.703712 -2.32566 -0.00103045  -0.728248 -2.37584 -0.00104511  -0.654454 -2.35007 -0.000998139  -0.728225 -2.37576 -0.000893354  -0.703394 -2.45027 -0.000880003  -0.752739 -2.42585 -0.00093472  -0.727886 -2.5003 -0.00093317  -0.752758 -2.42591 -0.00107193  -0.777294 -2.47596 -0.0010885  -0.703402 -2.45036 -0.00103641  -0.777273 -2.47587 -0.000983715  -0.752361 -2.55025 -0.000974417  -0.801777 -2.52582 -0.00102365  -0.776836 -2.60012 -0.00102758  -0.801789 -2.52588 -0.00111485  -0.826305 -2.57578 -0.00112939  -0.752367 -2.55033 -0.00108469  -0.826286 -2.5757 -0.001073  -0.801289 -2.64991 -0.00107038  -0.850751 -2.62549 -0.00110936  -0.825733 -2.69964 -0.00112236  -0.850768 -2.62556 -0.00116038  -0.875232 -2.6753 -0.00117838  -0.801296 -2.65 -0.00112927  -0.875215 -2.67522 -0.00115895  -0.850138 -2.74929 -0.00116241  -0.899622 -2.72488 -0.00119793  -0.874523 -2.79889 -0.00121081  -0.899637 -2.72494 -0.00120926  -0.924026 -2.77455 -0.00122809  -0.850145 -2.74938 -0.00117815  -0.924002 -2.77447 -0.00124586  0.00786463 -0.0201371 0.00130284  0.00645094 -0.0149581 0.00124884  0.0211399 -0.039216 0.00250602  0.00647789 -0.0151842 2.99215e-05  0.0165261 -0.0319982 2.74181e-06  0 0 0  0 0 0  0.00802088 -0.0200623 0.000113845  0 0 0  0.0165804 -0.0318322 0.00217497  0.0359028 -0.059861 0.00348341  0.0285787 -0.0511022 0.00298214  0.0513113 -0.0808803 0.00417483  0.0285315 -0.0512854 -8.34465e-06  0.0412551 -0.0718502 7.15256e-06  0.0358165 -0.0599725 4.52995e-06  0.0413189 -0.0716045 0.00353765  0.0659368 -0.103217 0.00462449  0.0538597 -0.0938466 0.00390232  0.0795729 -0.127513 0.00489652  0.0537005 -0.0940737 -4.36306e-05  0.0653061 -0.118292 -3.11136e-05  0.0657774 -0.103506 -2.3365e-05  0.0654524 -0.117981 0.00409853  0.0919924 -0.153657 0.00499642  0.0759456 -0.144031 0.00417638  0.102958 -0.181981 0.00501001  0.0757634 -0.144315 -8.21352e-05  0.0848642 -0.172462 -9.29832e-05  0.0918162 -0.154 -6.00815e-05  0.0850351 -0.172118 0.00416493  0.112482 -0.212246 0.00494075  0.092706 -0.202112 0.00410271  0.120411 -0.244517 0.00483036  0.0925329 -0.202429 -0.000132084  0.0986896 -0.234373 -0.000152588  0.112311 -0.212599 -0.000109434  0.0988588 -0.234015 0.00400066  0.126805 -0.278576 0.00469124  0.103514 -0.267666 0.00388134  0.131586 -0.314387 0.00453222  0.103349 -0.267991 -0.000185013  0.106476 -0.30336 -0.000207543  0.126643 -0.278925 -0.000163555  0.106642 -0.303008 0.00374424  0.134829 -0.351752 0.00436711  0.108288 -0.339876 0.00360501  0.136502 -0.390607 0.00418973  0.108128 -0.340195 -0.000235081  0.108288 -0.378537 -0.000255704  0.134676 -0.352087 -0.000212669  0.108451 -0.3782 0.00345707  0.136692 -0.430774 0.00401592  0.107193 -0.41782 0.00331378  0.135388 -0.472189 0.00383675  0.107037 -0.418122 -0.000281096  0.104368 -0.458985 -0.0002985  0.136543 -0.431091 -0.000261426  0.104527 -0.458668 0.00316501  0.132687 -0.51469 0.0036639  0.100528 -0.500603 0.00302243  0.12859 -0.558221 0.00348663  0.100376 -0.500883 -0.000323892  0.0950561 -0.543856 -0.000341415  0.132542 -0.514986 -0.000306368  0.0952129 -0.543559 0.00287437  0.123195 -0.602644 0.00331736  0.0886619 -0.587415 0.00273275  0.116511 -0.647911 0.00314617  0.0885161 -0.587674 -0.000365615  0.0807484 -0.632386 -0.000378966  0.123058 -0.60292 -0.000345588  0.0808947 -0.632114 0.00258982  0.108641 -0.693896 0.00298417  0.0720042 -0.677547 0.00245404  0.0995936 -0.740568 0.00281978  0.0718641 -0.677783 -0.000404119  0.0618581 -0.72392 -0.00041616  0.108512 -0.694149 -0.000383496  0.061996 -0.723671 0.0023154  0.0894657 -0.787816 0.00266433  0.0509704 -0.770393 0.0021863  0.0782713 -0.835616 0.00250494  0.0508393 -0.770608 -0.000437617  0.0387983 -0.817905 -0.000451207  0.0893435 -0.788049 -0.00041759  0.0389298 -0.817676 0.00205112  0.0661048 -0.883872 0.0023576  0.0259743 -0.86544 0.00192666  0.0529763 -0.93257 0.00220501  0.0258512 -0.865636 -0.00047195  0.0119807 -0.913867 -0.00048399  0.0659901 -0.884087 -0.000450969  0.012105 -0.913656 0.00179827  0.0389807 -0.981621 0.0020653  -0.00258434 -0.962257 0.0016799  0.024123 -1.03102 0.00191939  -0.00269806 -0.962435 -0.000504732  -0.0182058 -1.01141 -0.000516415  0.0388767 -0.981819 -0.000484943  -0.0180923 -1.01122 0.00155365  0.00849462 -1.0807 0.00178695  -0.0343245 -1.06048 0.00144136  -0.00790012 -1.13064 0.00165105  -0.0344286 -1.06064 -0.000537038  -0.0513914 -1.1102 -0.000546336  0.00839925 -1.08088 -0.000514746  -0.0512886 -1.11002 0.00132298  -0.024978 -1.18079 0.00152647  -0.0688912 -1.1598 0.00121808  -0.0427331 -1.23114 0.00139499  -0.0689865 -1.15995 -0.00056684  -0.087237 -1.20996 -0.000576854  -0.025063 -1.18096 -0.000544667  -0.0871419 -1.2098 0.00110388  -0.0610847 -1.28164 0.00127661  -0.105952 -1.25997 0.00100052  -0.0800345 -1.33229 0.00115097  -0.106034 -1.26011 -0.000596881  -0.125415 -1.31046 -0.000609875  -0.0611618 -1.2818 -0.000574708  -0.125331 -1.31031 0.000890851  -0.0995038 -1.38304 0.00103974  -0.145195 -1.36077 0.000795484  -0.119494 -1.4339 0.00092113  -0.145268 -1.3609 -0.000628591  -0.165632 -1.41149 -0.00063765  -0.0995727 -1.38318 -0.000605941  -0.165557 -1.41135 0.000692368  -0.139934 -1.48481 0.000815988  -0.186334 -1.46202 0.000602841  -0.160825 -1.53578 0.000704527  -0.186402 -1.46213 -0.000659227  -0.207615 -1.5129 -0.000669003  -0.139993 -1.48494 -0.000634432  -0.207548 -1.51277 0.000503778  -0.1821 -1.58678 0.000605583  -0.229112 -1.56356 0.000416875  -0.203763 -1.63782 0.000500917  -0.229169 -1.56367 -0.000689268  -0.25111 -1.61453 -0.000699401  -0.18215 -1.58691 -0.000664115  -0.251051 -1.6144 0.000323296  -0.22575 -1.68885 0.000407577  -0.27328 -1.66526 0.000242591  -0.248068 -1.73989 0.000307679  -0.273332 -1.66536 -0.000720024  -0.295885 -1.71626 -0.000727773  -0.225793 -1.68897 -0.000694513  -0.295832 -1.71614 0.000153899  -0.270652 -1.7909 0.000219107  -0.318622 -1.76702 7.70092e-05  -0.293511 -1.8419 0.000125527  -0.318667 -1.76711 -0.00075233  -0.341727 -1.818 -0.000763178  -0.270689 -1.79102 -0.000726581  -0.341681 -1.81789 -7.7486e-06  -0.316594 -1.89285 4.41074e-05  -0.364932 -1.86873 -8.13007e-05  -0.339905 -1.94376 -4.55379e-05  -0.36497 -1.86881 -0.000784039  -0.388444 -1.91965 -0.000796795  -0.316628 -1.89295 -0.000756979  -0.388404 -1.91955 -0.000161409  -0.363387 -1.99462 -0.000121474  -0.412025 -1.97033 -0.000227571  -0.387054 -2.04542 -0.000203013  -0.412059 -1.9704 -0.000817418  -0.435862 -2.02115 -0.000829577  -0.36341 -1.99472 -0.000789523  -0.435827 -2.02106 -0.00030303  -0.410856 -2.09615 -0.000275493  -0.459736 -2.07174 -0.000366211  -0.434801 -2.14682 -0.000352144  -0.459762 -2.07181 -0.000850916  -0.483819 -2.12245 -0.000864625  -0.410875 -2.09625 -0.000820994  -0.483788 -2.12236 -0.000438094  -0.458843 -2.19741 -0.000418663  -0.507918 -2.17292 -0.000496626  -0.482996 -2.24793 -0.000490069  -0.507942 -2.17299 -0.000885367  -0.53218 -2.2235 -0.000898719  -0.45886 -2.1975 -0.000857115  -0.532153 -2.22341 -0.000563383  -0.507215 -2.29836 -0.000550151  -0.556438 -2.27383 -0.000618815  -0.531513 -2.34871 -0.000617027  -0.556455 -2.27389 -0.000922322  -0.580821 -2.32426 -0.000931978  -0.507227 -2.29845 -0.00089252  -0.580799 -2.32417 -0.000681043  -0.555847 -2.39898 -0.000671387  -0.605177 -2.37444 -0.000731111  -0.58023 -2.44916 -0.000732541  -0.605194 -2.3745 -0.000961423  -0.629632 -2.42471 -0.000975251  -0.555855 -2.39906 -0.000929117  -0.62961 -2.42462 -0.000789165  -0.604629 -2.49926 -0.00078249  -0.654042 -2.47473 -0.000837803  -0.629054 -2.54928 -0.00084126  -0.654053 -2.47479 -0.000997424  -0.678521 -2.52483 -0.00101733  -0.604634 -2.49934 -0.000966787  -0.678501 -2.52475 -0.000890493  -0.653471 -2.5992 -0.00088644  -0.70294 -2.5747 -0.000934243  -0.677902 -2.64906 -0.000939846  -0.702954 -2.57476 -0.00104201  -0.727413 -2.62464 -0.00105965  -0.653474 -2.59929 -0.00100756  -0.7274 -2.62456 -0.000990748  -0.702313 -2.69883 -0.000985026  -0.751822 -2.67435 -0.00103056  -0.726732 -2.74853 -0.0010401  -0.751837 -2.67441 -0.00108826  -0.776275 -2.72415 -0.001109  -0.702317 -2.69891 -0.00105667  -0.776258 -2.72406 -0.00108445  -0.751136 -2.79818 -0.00108469  -0.800658 -2.77372 -0.00112724  -0.775549 -2.84779 -0.00114036  -0.800668 -2.77378 -0.00113773  -0.825075 -2.82341 -0.00115538  -0.751141 -2.79827 -0.00110519  -0.825053 -2.82333 -0.00117946  0.0138833 -0.0379824 0.00167596  0.0108333 -0.0269247 0.00176179  0.0379897 -0.062923 0.00304914  0.010878 -0.0274774 -5.51939e-05  0.0274099 -0.0500303 2.7895e-05  0 0 0  0 0 0  0.0134256 -0.0373826 0.000159502  0 0 0  0.0271341 -0.0496281 0.00290191  0.0575048 -0.0816138 0.00455689  0.0452012 -0.0701651 0.00397754  0.0755 -0.102655 0.00538981  0.0450879 -0.0703155 2.68221e-05  0.0623426 -0.0916298 5.09024e-05  0.0573054 -0.0823275 -8.46386e-06  0.0623735 -0.0913094 0.00474834  0.0936806 -0.124352 0.0060029  0.0791164 -0.113465 0.00531554  0.110636 -0.148569 0.00635791  0.0789259 -0.113763 1.2517e-05  0.0944234 -0.138064 2.34842e-05  0.0935874 -0.124889 -8.10623e-06  0.0945849 -0.137717 0.00562561  0.126645 -0.174948 0.00652015  0.108847 -0.163995 0.00577354  0.141191 -0.203668 0.00654137  0.108654 -0.164322 -1.96695e-05  0.121477 -0.192847 -3.44515e-05  0.126476 -0.17535 -6.91414e-06  0.121657 -0.192494 0.00579154  0.154235 -0.234589 0.00648487  0.13295 -0.223085 0.00572968  0.165631 -0.267604 0.00634348  0.132768 -0.22341 -7.236e-05  0.142464 -0.256057 -9.57251e-05  0.154055 -0.234936 -5.126e-05  0.142641 -0.255707 0.00560689  0.175352 -0.302558 0.0061878  0.150708 -0.290209 0.00545657  0.183354 -0.339322 0.00597596  0.150538 -0.290526 -0.000126719  0.156953 -0.32682 -0.000150561  0.175182 -0.302878 -0.000105619  0.157117 -0.326482 0.00527477  0.189664 -0.377725 0.00578213  0.161906 -0.364365 0.0050863  0.194269 -0.417649 0.00554395  0.161746 -0.364666 -0.000178218  0.164906 -0.404066 -0.000200987  0.189503 -0.378023 -0.000161052  0.165063 -0.403747 0.00488186  0.197237 -0.458922 0.00533402  0.166658 -0.444467 0.00468433  0.198572 -0.501455 0.00509238  0.166504 -0.444748 -0.000227213  0.166537 -0.486737 -0.000246763  0.197085 -0.459199 -0.000210762  0.16669 -0.486436 0.00447726  0.198367 -0.545078 0.00488138  0.165251 -0.529505 0.00427687  0.196619 -0.589736 0.00464094  0.165101 -0.529767 -0.000272751  0.162196 -0.573879 -0.000289559  0.198218 -0.545339 -0.000256062  0.162344 -0.573598 0.00407255  0.193452 -0.635264 0.00443482  0.158077 -0.618581 0.00387824  0.188852 -0.681625 0.00420272  0.157933 -0.618823 -0.000313282  0.152307 -0.664656 -0.000328064  0.19331 -0.635504 -0.000298142  0.15245 -0.664397 0.00368023  0.182956 -0.728674 0.0039984  0.14558 -0.710925 0.00349271  0.175748 -0.776393 0.0037756  0.145444 -0.711143 -0.000351667  0.137329 -0.75836 -0.000366569  0.182825 -0.728897 -0.000335932  0.137464 -0.758122 0.00330126  0.167371 -0.824638 0.00358558  0.128223 -0.805883 0.00312352  0.157792 -0.873418 0.0033735  0.128096 -0.806082 -0.000387669  0.11772 -0.854397 -0.000400662  0.167244 -0.824845 -0.000371099  0.117848 -0.854176 0.00294006  0.147169 -0.922601 0.00319219  0.106463 -0.902909 0.00277185  0.135462 -0.972203 0.00299025  0.106342 -0.903093 -0.000421643  0.0939339 -0.952264 -0.000431895  0.147047 -0.922792 -0.000404716  0.0940533 -0.952061 0.00259912  0.122819 -1.0221 0.00281751  0.080743 -1.00155 0.00243819  0.109206 -1.07232 0.00262642  0.0806324 -1.00172 -0.000453115  0.0664045 -1.05156 -0.000464678  0.122711 -1.02228 -0.000434995  0.0665152 -1.05137 0.00227201  0.0947683 -1.12276 0.00246465  0.0514891 -1.10144 0.00212133  0.0794597 -1.17344 0.00228119  0.0513885 -1.10159 -0.000482917  0.0355425 -1.15193 -0.000493765  0.0946661 -1.12293 -0.000463724  0.0356441 -1.15176 0.00196493  0.0634232 -1.22427 0.00212812  0.0190946 -1.20226 0.00182235  0.0466113 -1.27528 0.00195599  0.0190035 -1.2024 -0.000512958  0.00172234 -1.2531 -0.000524163  0.0633326 -1.22442 -0.000495553  0.00181532 -1.25294 0.00167477  0.0291674 -1.32637 0.00181174  -0.0160773 -1.30376 0.00153947  0.0110376 -1.37759 0.00165284  -0.0161614 -1.30388 -0.000543594  -0.0346975 -1.35484 -0.000552654  0.0290873 -1.32651 -0.000523686  -0.0346124 -1.3547 0.00139987  -0.00764251 -1.42885 0.00151491  -0.0536823 -1.40572 0.00127292  -0.0269248 -1.48019 0.00136578  -0.0537555 -1.40583 -0.000572681  -0.0733931 -1.45695 -0.00058341  -0.00771499 -1.42898 -0.000549436  -0.0733168 -1.45682 0.00113916  -0.0466805 -1.53153 0.0012393  -0.0934095 -1.50796 0.00102115  -0.0669665 -1.58292 0.00109601  -0.093477 -1.50807 -0.000602841  -0.114065 -1.55928 -0.000611305  -0.0467489 -1.53166 -0.000581503  -0.113997 -1.55915 0.000895977  -0.0876541 -1.63428 0.000977755  -0.134971 -1.61034 0.00078845  -0.108802 -1.68565 0.000843406  -0.13503 -1.61044 -0.000630021  -0.156437 -1.66167 -0.00064075  -0.0877128 -1.63439 -0.000607014  -0.156378 -1.66155 0.000668645  -0.130289 -1.73697 0.000731587  -0.178112 -1.71274 0.000562191  -0.15217 -1.78827 0.000606537  -0.178158 -1.71283 -0.000660896  -0.200263 -1.76403 -0.000672698  -0.130337 -1.73708 -0.000638962  -0.200208 -1.76392 0.000452399  -0.174335 -1.83951 0.000498533  -0.222579 -1.81505 0.000353813  -0.196834 -1.8907 0.000380278  -0.222623 -1.81514 -0.000692487  -0.245308 -1.86626 -0.0007056  -0.174375 -1.83961 -0.000668168  -0.245258 -1.86615 0.000249386  -0.219563 -1.94181 0.00028491  -0.26816 -1.91719 0.00015831  -0.242582 -1.99287 0.000176668  -0.268199 -1.91728 -0.000722647  -0.291364 -1.96829 -0.000732183  -0.219599 -1.94191 -0.000696898  -0.291323 -1.96819 6.3777e-05  -0.265777 -2.04383 8.67844e-05  -0.31466 -2.0191 -2.07424e-05  -0.289207 -2.09473 -1.16825e-05  -0.314689 -2.01918 -0.000752926  -0.338243 -2.07006 -0.000765443  -0.265804 -2.04393 -0.000725985  -0.338209 -2.06996 -0.000112653  -0.312777 -2.14552 -9.53674e-05  -0.361892 -2.12073 -0.000192523  -0.336544 -2.19623 -0.000192523  -0.361918 -2.1208 -0.000784636  -0.385775 -2.17152 -0.000798225  -0.312804 -2.14561 -0.000760198  -0.385746 -2.17143 -0.000276327  -0.360411 -2.24683 -0.000265837  -0.409697 -2.22204 -0.000347853  -0.384429 -2.29736 -0.000349879  -0.409716 -2.22211 -0.000818253  -0.433805 -2.27265 -0.000832081  -0.36043 -2.24692 -0.000792265  -0.433779 -2.27256 -0.000426292  -0.408509 -2.34777 -0.000417709  -0.457926 -2.32299 -0.000489712  -0.432719 -2.3981 -0.000497699  -0.457947 -2.32306 -0.000855088  -0.4822 -2.37343 -0.00086832  -0.408527 -2.34786 -0.000823021  -0.482177 -2.37334 -0.000561714  -0.456956 -2.44832 -0.000559688  -0.506459 -2.4236 -0.0006212  -0.48128 -2.49846 -0.000626206  -0.506472 -2.42366 -0.000891924  -0.530827 -2.47385 -0.000904322  -0.45697 -2.44841 -0.000864625  -0.530813 -2.47376 -0.000684738  -0.505622 -2.5485 -0.000681281  -0.555173 -2.52384 -0.000738502  -0.530017 -2.59845 -0.000744343  -0.555182 -2.5239 -0.000927806  -0.579599 -2.57391 -0.000941515  -0.505622 -2.54858 -0.00089848  -0.579583 -2.57383 -0.00079596  -0.554402 -2.64831 -0.000798106  -0.603976 -2.62373 -0.000846148  -0.578821 -2.6981 -0.000851274  -0.603989 -2.62379 -0.00096941  -0.628413 -2.67364 -0.000985384  -0.554408 -2.6484 -0.000937939  -0.628396 -2.67356 -0.000900507  -0.603221 -2.74782 -0.000901222  -0.652793 -2.72331 -0.000948191  -0.627636 -2.79749 -0.000957012  -0.652803 -2.72337 -0.00101352  -0.677222 -2.77308 -0.00103402  -0.603224 -2.74791 -0.000982642  -0.677204 -2.773 -0.00100386  -0.652037 -2.84712 -0.00100136  -0.701605 -2.82264 -0.00104713  -0.676474 -2.89674 -0.00105643  -0.701619 -2.82271 -0.00106347  -0.726054 -2.87234 -0.00108397  -0.652038 -2.84722 -0.00103116  -0.726035 -2.87226 -0.00110316  -0.00661422 -0.00762665 0.00148606  -0.00901691 -0.0123158 0.00200319  -0.0179228 -0.0202972 0.00282288  -0.00960738 -0.0122965 0.00378621  -0.0263389 -0.0276466 0.00732374  -0.0239715 -0.0245235 0.0048008  0 0 0  -0.0252868 -0.0250227 0.002038  0 0 0  0 0 0  -0.00650507 -0.00713894 0.00333536  0 0 0  -0.044521 -0.0382372 0.00396752  -0.0270686 -0.0283942 0.00332046  -0.0312688 -0.0337018 0.00397396  -0.0441544 -0.0415901 0.00466406  -0.0457636 -0.0482112 0.00472081  -0.0436258 -0.0405349 0.00982642  -0.0611561 -0.0539934 0.0116942  -0.0619209 -0.0491178 0.0113703  -0.0625398 -0.0499477 0.0055207  -0.0312081 -0.032756 0.00829339  -0.0814791 -0.0628149 0.00640833  -0.0614764 -0.0551095 0.00557578  -0.0610553 -0.0643544 0.00524306  -0.0790361 -0.0696739 0.00621819  -0.0764467 -0.0818595 0.00555682  -0.0786626 -0.0683323 0.0130728  -0.0964966 -0.0844763 0.0137556  -0.100278 -0.0745265 0.0150831  -0.100723 -0.0758919 0.00725877  -0.0608428 -0.0630604 0.0110795  -0.120607 -0.0909254 0.00758743  -0.0967866 -0.0859064 0.00656736  -0.0922229 -0.101337 0.00567257  -0.11486 -0.103945 0.00671947  -0.108262 -0.122539 0.00563848  -0.114497 -0.102464 0.0140768  -0.132731 -0.122313 0.013962  -0.140317 -0.105899 0.0162524  -0.140763 -0.107486 0.00779867  -0.091914 -0.0999553 0.011933  -0.161065 -0.125798 0.00773156  -0.133103 -0.12379 0.00666702  -0.124615 -0.145505 0.00548363  -0.151592 -0.145451 0.00650203  -0.141289 -0.170123 0.00525534  -0.151147 -0.144013 0.0136164  -0.169703 -0.167363 0.0130707  -0.18097 -0.144467 0.0157305  -0.181484 -0.146016 0.00753105  -0.124185 -0.144174 0.0115365  -0.201821 -0.167755 0.00724208  -0.170188 -0.168734 0.00622845  -0.158232 -0.196282 0.00496221  -0.188968 -0.193669 0.00589812  -0.175475 -0.223911 0.00465119  -0.18842 -0.192375 0.0124035  -0.207243 -0.218847 0.0116869  -0.221624 -0.189966 0.0143561  -0.222212 -0.191344 0.00684261  -0.15768 -0.195076 0.0104897  -0.242504 -0.216313 0.00646412  -0.207824 -0.220045 0.00553524  -0.192977 -0.252926 0.0043143  -0.22686 -0.24791 0.00515246  -0.210765 -0.283251 0.00399029  -0.226234 -0.246796 0.0109222  -0.245351 -0.276065 0.010185  -0.262222 -0.241782 0.0126768  -0.262863 -0.24295 0.00599778  -0.192337 -0.251878 0.0092088  -0.283194 -0.270866 0.00560665  -0.245992 -0.277079 0.00477576  -0.228825 -0.31483 0.00366068  -0.265334 -0.30759 0.00440192  -0.247183 -0.347589 0.00335538  -0.26467 -0.306654 0.00944316  -0.284162 -0.338447 0.00875795  -0.302974 -0.299294 0.0110041  -0.303637 -0.300265 0.00515425  -0.228142 -0.313944 0.0079248  -0.324137 -0.330842 0.00478673  -0.28482 -0.339288 0.00405037  -0.265837 -0.381483 0.00305831  -0.304553 -0.372194 0.00371003  -0.284812 -0.416443 0.00278294  -0.303888 -0.371417 0.00808799  -0.32383 -0.405487 0.0074805  -0.344143 -0.36194 0.00946653  -0.344797 -0.362739 0.00437617  -0.265149 -0.380743 0.00674713  -0.365589 -0.395714 0.00404477  -0.324478 -0.406182 0.00339663  -0.304097 -0.452428 0.00252318  -0.344678 -0.441258 0.00309479  -0.323718 -0.489375 0.00228047  -0.344034 -0.440613 0.00689125  -0.36449 -0.476738 0.00635982  -0.385952 -0.429209 0.00811076  -0.386582 -0.429866 0.00368357  -0.303431 -0.451815 0.00570774  -0.407752 -0.465003 0.00338817  -0.365108 -0.477315 0.00281763  -0.343662 -0.527242 0.00205505  -0.385828 -0.514346 0.00255644  -0.363943 -0.565976 0.00184155  -0.385224 -0.513809 0.00584733  -0.406226 -0.551789 0.00538826  -0.428557 -0.500649 0.00692213  -0.429146 -0.501192 0.00307798  -0.343035 -0.526736 0.00480461  -0.450748 -0.538272 0.00281906  -0.406798 -0.552263 0.00231528  -0.384545 -0.605536 0.00164545  -0.428062 -0.591056 0.00208712  -0.405481 -0.645873 0.00145853  -0.427506 -0.590609 0.00494099  -0.44906 -0.630251 0.00453556  -0.472048 -0.575849 0.00588822  -0.472588 -0.576294 0.00254273  -0.383968 -0.605115 0.00401783  -0.494645 -0.615126 0.00231516  -0.449583 -0.630648 0.00187171  -0.426723 -0.686945 0.00128508  -0.471388 -0.671022 0.00167179  -0.448285 -0.728713 0.00111687  -0.470884 -0.670647 0.00414419  -0.492976 -0.711783 0.00378561  -0.516453 -0.654431 0.00497544  -0.516941 -0.654801 0.00207245  -0.426198 -0.686596 0.00333107  -0.539452 -0.695204 0.00186825  -0.493445 -0.712112 0.00148094  -0.470134 -0.771136 0.000964165  -0.515773 -0.753902 0.00129998  -0.492281 -0.814176 0.000812173  -0.515321 -0.753587 0.00343776  -0.537921 -0.796057 0.00311959  -0.561755 -0.736056 0.00416672  -0.562194 -0.736363 0.00165248  -0.46966 -0.770846 0.00272298  -0.585146 -0.778176 0.00146878  -0.538339 -0.796331 0.00112987  -0.514693 -0.857798 0.000676274  -0.561154 -0.839385 0.000971437  -0.537375 -0.90197 0.00054276  -0.560753 -0.839122 0.00280881  -0.583823 -0.882784 0.00252306  -0.607918 -0.82041 0.00344467  -0.608308 -0.820663 0.00127614  -0.514272 -0.857562 0.00218248  -0.631665 -0.863736 0.0011059  -0.584191 -0.883007 0.000814676  -0.560296 -0.946655 0.00042057  -0.607453 -0.927185 0.000672817  -0.583459 -0.991821 0.00029552  -0.607099 -0.926967 0.00224376  -0.630589 -0.971681 0.00198746  -0.654873 -0.907204 0.00279641  -0.655215 -0.907413 0.00093627  -0.559926 -0.94646 0.00169873  -0.678936 -0.951605 0.000782609  -0.630911 -0.971865 0.000530481  -0.606829 -1.03744 0.000185013  -0.654561 -1.01703 0.000402451  -0.630413 -1.08348 7.25985e-05  -0.654257 -1.01685 0.00173581  -0.678114 -1.0625 0.00150466  -0.70253 -0.996165 0.00221264  -0.702829 -0.996334 0.000629544  -0.606505 -1.03728 0.00126255  -0.726874 -1.04152 0.000489354  -0.678391 -1.06265 0.000273466  -0.654173 -1.12992 -2.68221e-05  -0.702383 -1.10869 0.000156522  -0.678117 -1.17672 -0.000131011  -0.702119 -1.10854 0.00127733  -0.726292 -1.15501 0.00106931  -0.750807 -1.08704 0.001683  -0.751064 -1.08718 0.000346422  -0.653891 -1.12979 0.000870347  -0.775387 -1.13324 0.000220299  -0.72653 -1.15512 3.71933e-05  -0.702207 -1.22387 -0.000219345  -0.750812 -1.20193 -6.69956e-05  -0.726452 -1.27133 -0.000314474  -0.750585 -1.20181 0.000860929  -0.775017 -1.24898 0.000676036  -0.799604 -1.17961 0.00120664  -0.799826 -1.17971 9.2268e-05  -0.701968 -1.22377 0.00051713  -0.824373 -1.22654 -2.34842e-05  -0.775221 -1.24907 -0.000175476  -0.750816 -1.31908 -0.000397921  -0.799737 -1.29654 -0.000274658  -0.775305 -1.36711 -0.000485897  -0.799545 -1.29644 0.000485539  -0.824188 -1.34423 0.000316381  -0.848827 -1.27365 0.000773549  -0.849015 -1.27372 -0.000143766  -0.750609 -1.31901 0.000198126  -0.873741 -1.32121 -0.000248909  -0.824357 -1.34429 -0.000373363  -0.799882 -1.41539 -0.000558138  -0.849053 -1.39232 -0.000460863  -0.824558 -1.46389 -0.000637054  -0.848895 -1.39225 0.000146747  -0.873693 -1.44055 -1.3113e-06  -0.898378 -1.36895 0.000382304  -0.898532 -1.369 -0.00035274  -0.79971 -1.41534 -8.88109e-05  -0.92339 -1.41706 -0.000449777  -0.873831 -1.4406 -0.000549674  -0.849296 -1.51259 -0.000702143  -0.898662 -1.4891 -0.00062871  -0.874111 -1.56149 -0.000778675  -0.898533 -1.48905 -0.000153303  -0.923441 -1.53778 -0.000286341  -0.948163 -1.46534 3.61204e-05  -0.948289 -1.46538 -0.00054419  -0.849154 -1.51256 -0.00034368  -0.973236 -1.51391 -0.000634551  -0.923553 -1.53781 -0.000712276  -0.898963 -1.61055 -0.000838757  -0.948474 -1.58671 -0.00078392  -0.923864 -1.65977 -0.000904918  -0.948368 -1.58667 -0.000421882  -0.973344 -1.63577 -0.000540137  -0.998101 -1.56263 -0.000272512  -0.998204 -1.56265 -0.000718951  -0.898845 -1.61054 -0.000571847  -1.0232 -1.61157 -0.000802398  -0.973428 -1.63578 -0.000859141  -0.948783 -1.70911 -0.000957251  -0.998394 -1.685 -0.00092113  -0.973732 -1.75857 -0.00101829  -0.998316 -1.68497 -0.000660658  -1.02332 -1.73435 -0.000762224  -1.04811 -1.66068 -0.000549316  -1.04819 -1.66068 -0.000875831  -0.948692 -1.70911 -0.000775218  -1.07319 -1.70993 -0.000949144  -1.02338 -1.73435 -0.000988126  -0.998677 -1.80814 -0.00106537  -1.04836 -1.78381 -0.0010432  -1.02364 -1.85779 -0.00112045  -1.0483 -1.78381 -0.000866294  -1.07329 -1.8334 -0.000952721  -1.09813 -1.75932 -0.000787854  -1.09818 -1.75931 -0.00101721  -0.998606 -1.80815 -0.000949144  -1.12317 -1.8088 -0.00107872  -1.07334 -1.83338 -0.0011065  -1.04858 -1.90751 -0.00116408  -1.09829 -1.88303 -0.00115621  -1.07351 -1.95728 -0.00121272  -1.09825 -1.88304 -0.00104392  -1.12321 -1.93278 -0.00111592  -1.14808 -1.85842 -0.00099349  -1.14812 -1.8584 -0.00114214  -1.04853 -1.90753 -0.00110364  -1.17306 -1.90807 -0.00119805  -1.12324 -1.93275 -0.00120866  -1.09842 -2.0071 -0.00124383  -1.14815 -1.98253 -0.00125086  -1.12331 -2.05695 -0.00128698  -1.14812 -1.98254 -0.00119436  -1.17303 -2.03238 -0.00125289  -1.19794 -1.95785 -0.00116503  -1.19796 -1.95782 -0.00124741  -1.09838 -2.00713 -0.00122654  -1.22284 -2.00762 -0.00129592  -1.17304 -2.03235 -0.00129676  -1.14816 -2.10682 -0.00131845  -1.19788 -2.0822 -0.00133312  -1.17298 -2.1567 -0.00135434  -1.19787 -2.08222 -0.00131631  -1.2227 -2.1321 -0.00136161  -1.24766 -2.0575 -0.00130785  -1.24767 -2.05746 -0.00133872  -1.14813 -2.10686 -0.00132716  -1.27247 -2.10732 -0.00138676  -1.2227 -2.13206 -0.00137472  -1.19775 -2.20657 -0.00137889  -1.24746 -2.18193 -0.00140214  -1.2225 -2.25643 -0.00141203  -1.24746 -2.18196 -0.00140834  -1.27221 -2.23184 -0.00144148  -1.29721 -2.15724 -0.00142181  -1.29721 -2.15719 -0.00142062  -1.19774 -2.20661 -0.00140595  -1.32193 -2.20707 -0.00145292  -1.27221 -2.23179 -0.00143898  -1.24719 -2.30627 -0.00143075  -1.29689 -2.28164 -0.00146163  -1.27186 -2.35607 -0.00146067  -1.29689 -2.28167 -0.00147963  -1.32156 -2.33151 -0.00150335  -1.34659 -2.25699 -0.00150156  -1.34659 -2.25694 -0.00148261  -1.24719 -2.30632 -0.00146747  -1.37124 -2.30678 -0.00151682  -1.32155 -2.33146 -0.00149286  -1.29647 -2.40584 -0.00147617  -1.34616 -2.38124 -0.00150764  -1.32107 -2.45557 -0.00150192  -1.34616 -2.38127 -0.00152922  -1.37077 -2.43104 -0.00154614  -1.39584 -2.35665 -0.00155568  -1.39583 -2.35659 -0.00153434  -1.29647 -2.40589 -0.00150871  -1.42042 -2.40637 -0.00156045  -1.37075 -2.43099 -0.00153399  -1.34562 -2.50526 -0.00151277  -1.3953 -2.4807 -0.00154603  -1.37017 -2.55491 -0.00153172  -1.39531 -2.48073 -0.00156343  -1.41989 -2.53042 -0.0015775  -1.44499 -2.45616 -0.00159502  -1.44499 -2.4561 -0.00157368  -1.34562 -2.50532 -0.00154328  -1.46956 -2.5058 -0.00159383  -1.41988 -2.53037 -0.00156832  -0.00327015 -0.00371371 0.000955582  -0.00452127 -0.00500821 0.00124574  -0.00845636 -0.0123496 0.00184596  -0.00444433 -0.00478704 0.00264549  -0.0119561 -0.0147094 0.00493801  0 0 0  0 0 0  -0.00326549 -0.00347087 0.00209045  0 0 0  -0.0118627 -0.0150827 0.00238943  -0.0152656 -0.0250265 0.00254202  -0.0220217 -0.0283263 0.00325549  -0.0236807 -0.0405602 0.00306928  -0.0220419 -0.0275726 0.00685823  -0.0334454 -0.0425276 0.00820577  -0.0152633 -0.0244537 0.00540125  -0.0334563 -0.0434852 0.00388324  -0.0330139 -0.0581533 0.00343013  -0.0457756 -0.0604569 0.00433743  -0.0432296 -0.0779161 0.00362647  -0.045662 -0.0593291 0.00917625  -0.0585299 -0.0780706 0.00968504  -0.0329086 -0.0572136 0.00727284  -0.058708 -0.0792711 0.00457621  -0.0540296 -0.0994506 0.00369596  -0.0720511 -0.0998541 0.00468349  -0.065448 -0.122857 0.00366127  -0.0717811 -0.0985899 0.00988376  -0.0855074 -0.120989 0.00980818  -0.0537736 -0.0983306 0.00784492  -0.0858333 -0.122243 0.00463378  -0.0773936 -0.147939 0.00354135  -0.100041 -0.146331 0.00450456  -0.0899184 -0.174686 0.00337219  -0.0996193 -0.14508 0.00953591  -0.11419 -0.170879 0.00914013  -0.0769796 -0.146795 0.00755453  -0.114667 -0.17207 0.00429881  -0.10297 -0.202934 0.00315857  -0.129724 -0.199333 0.00404859  -0.116596 -0.232659 0.00293422  -0.129171 -0.198179 0.00863671  -0.144592 -0.226992 0.00811255  -0.102422 -0.20186 0.00680804  -0.145188 -0.228058 0.00377762  -0.130737 -0.263704 0.00269306  -0.161064 -0.258138 0.00349188  -0.145442 -0.296057 0.00245845  -0.160424 -0.257122 0.00754046  -0.176683 -0.288596 0.00699878  -0.130101 -0.262744 0.00589609  -0.177344 -0.289515 0.00320983  -0.160647 -0.329583 0.0022229  -0.194027 -0.322107 0.00293148  -0.176395 -0.364272 0.0020014  -0.193345 -0.321238 0.00644517  -0.210433 -0.355083 0.00594032  -0.159966 -0.328754 0.00498605  -0.211119 -0.35586 0.00266635  -0.192633 -0.400011 0.00178909  -0.228607 -0.390703 0.00241184  -0.209397 -0.436787 0.00158918  -0.22792 -0.389969 0.0054388  -0.245835 -0.425942 0.00499129  -0.191948 -0.399306 0.00415027  -0.246512 -0.426593 0.0021745  -0.226635 -0.474502 0.00140381  -0.264811 -0.463463 0.00195312  -0.244381 -0.513142 0.00122869  -0.264147 -0.462846 0.00455379  -0.282884 -0.500728 0.00416446  -0.225973 -0.473907 0.00341403  -0.283526 -0.501271 0.0017463  -0.262583 -0.552622 0.00106955  -0.30263 -0.539959 0.00155306  -0.281268 -0.592926 0.000915766  -0.302006 -0.539443 0.00378788  -0.321547 -0.579036 0.00344932  -0.26196 -0.552124 0.00277686  -0.322142 -0.579487 0.00137067  -0.300385 -0.633979 0.000778079  -0.342029 -0.619804 0.00120413  -0.319959 -0.67576 0.000641704  -0.341457 -0.61937 0.0031209  -0.361766 -0.660492 0.00282729  -0.299812 -0.633561 0.00222754  -0.362311 -0.660869 0.0010432  -0.339938 -0.718204 0.000520706  -0.382946 -0.702635 0.0008955  -0.360339 -0.761293 0.000400901  -0.382424 -0.70227 0.00253916  -0.40346 -0.744754 0.0022794  -0.339415 -0.717855 0.00174737  -0.403949 -0.745066 0.000751972  -0.381112 -0.804964 0.000297189  -0.425282 -0.788121 0.000623345  -0.402271 -0.849205 0.000187993  -0.424812 -0.787814 0.00202656  -0.446517 -0.831504 0.00179744  -0.380642 -0.804675 0.00133157  -0.446955 -0.831764 0.000494719  -0.423767 -0.893959 9.57251e-05  -0.468927 -0.875956 0.00038147  -0.445614 -0.939211 -1.90735e-06  -0.468512 -0.8757 0.00157404  -0.490826 -0.920455 0.00137115  -0.423347 -0.893717 0.000962019  -0.49121 -0.920668 0.000264287  -0.467758 -0.984908 -8.4877e-05  -0.513759 -0.965863 0.000162482  -0.490212 -1.03104 -0.000172973  -0.513392 -0.965649 0.00116897  -0.536248 -1.01134 0.000985026  -0.467389 -0.984712 0.000634193  -0.536587 -1.01151 5.56707e-05  -0.512929 -1.07756 -0.000246286  -0.559645 -1.05758 -3.55244e-05  -0.535917 -1.12446 -0.000326157  -0.559322 -1.05741 0.000805736  -0.582651 -1.10391 0.000643015  -0.512603 -1.0774 0.000344992  -0.582946 -1.10405 -0.000132084  -0.559131 -1.17168 -0.00039506  -0.606446 -1.15089 -0.00021553  -0.582579 -1.21924 -0.000466943  -0.606165 -1.15074 0.000478983  -0.629906 -1.19795 0.000331998  -0.558849 -1.17156 7.95126e-05  -0.630157 -1.19806 -0.000302911  -0.606217 -1.26707 -0.000527978  -0.654031 -1.24555 -0.000378013  -0.630052 -1.31518 -0.000595093  -0.653792 -1.24544 0.000184655  -0.677871 -1.29325 5.43594e-05  -0.605973 -1.26698 -0.000154018  -0.678086 -1.29334 -0.00045979  -0.65404 -1.36353 -0.000652313  -0.702268 -1.34139 -0.000529647  -0.678195 -1.41212 -0.000712872  -0.702066 -1.3413 -8.10623e-05  -0.726424 -1.38963 -0.000197649  -0.653833 -1.36346 -0.000365734  -0.726605 -1.38969 -0.000602841  -0.70247 -1.46089 -0.000762463  -0.751039 -1.43822 -0.000664592  -0.726879 -1.50986 -0.000817418  -0.750869 -1.43815 -0.000316739  -0.775444 -1.48691 -0.000418901  -0.702294 -1.46084 -0.000551105  -0.775594 -1.48695 -0.000731349  -0.751374 -1.55899 -0.000861764  -0.800218 -1.53586 -0.000785589  -0.775976 -1.60827 -0.000914216  -0.800079 -1.53581 -0.000525832  -0.824815 -1.58493 -0.0006181  -0.75123 -1.55895 -0.000715375  -0.824936 -1.58495 -0.000847578  -0.800638 -1.65767 -0.000956655  -0.849698 -1.63418 -0.000899196  -0.825375 -1.7072 -0.00100255  -0.849585 -1.63415 -0.000714779  -0.874438 -1.68354 -0.000796199  -0.800519 -1.65766 -0.000865817  -0.87453 -1.68355 -0.000956535  -0.850151 -1.75682 -0.00103927  -0.899383 -1.73303 -0.00100267  -0.874977 -1.80653 -0.0010823  -0.899296 -1.73301 -0.000880122  -0.924211 -1.78262 -0.000951409  -0.850059 -1.75682 -0.000995874  -0.924282 -1.78261 -0.00105429  -0.89982 -1.8563 -0.00111389  -0.949177 -1.83228 -0.0010941  -0.924688 -1.90613 -0.00115311  -0.949112 -1.83227 -0.00102425  -0.974055 -1.88203 -0.00108409  -0.899748 -1.85631 -0.00110614  -0.974102 -1.88201 -0.00113904  -0.949554 -1.95601 -0.00117958  -0.999011 -1.93181 -0.00117373  -0.974433 -2.00592 -0.00121486  -0.998962 -1.93181 -0.00114846  -1.0239 -1.98168 -0.00119722  -0.949502 -1.95603 -0.00120282  -1.02393 -1.98165 -0.00121677  -0.999291 -2.05585 -0.0012399  -1.04881 -2.03152 -0.00124753  -1.02415 -2.10579 -0.0012747  -1.04878 -2.03153 -0.00125051  -1.07367 -2.08144 -0.00128913  -0.999254 -2.05588 -0.00128043  -1.07369 -2.08141 -0.00128722  -1.04896 -2.15572 -0.00129485  -1.09853 -2.13131 -0.00131059  -1.07377 -2.20565 -0.00132263  -1.09851 -2.13133 -0.00133359  -1.12334 -2.18125 -0.00136435  -1.04894 -2.15576 -0.00134385  -1.12335 -2.18121 -0.00134671  -1.09853 -2.25556 -0.00134063  -1.14812 -2.2311 -0.00136387  -1.12327 -2.30544 -0.00136507  -1.14811 -2.23112 -0.00139749  -1.17288 -2.28101 -0.00141907  -1.09852 -2.2556 -0.00139475  -1.17287 -2.28096 -0.00139439  -1.14795 -2.35529 -0.00138307  -1.19756 -2.3308 -0.00141144  -1.17261 -2.4051 -0.00140357  -1.19756 -2.33083 -0.00144708  -1.22223 -2.38066 -0.001459  -1.14795 -2.35534 -0.00143111  -1.22222 -2.38061 -0.001436  -1.19721 -2.45486 -0.00141597  -1.24683 -2.43037 -0.00145257  -1.22179 -2.50459 -0.00144005  -1.24684 -2.4304 -0.00148261  -1.27143 -2.48015 -0.0014931  -1.19721 -2.45492 -0.00145912  -1.27142 -2.48009 -0.00147259  -1.24631 -2.55425 -0.00145042  -1.29596 -2.52977 -0.00148559  -1.27082 -2.60385 -0.00147378  -1.29597 -2.5298 -0.00151038  -1.32051 -2.57945 -0.00152063  -1.24632 -2.5543 -0.00148296  -1.3205 -2.57939 -0.00150406  -0.00105255 -0.00311965 0.000457764  -0.00203812 -0.00313798 0.000719786  -0.00264516 -0.011214 0.000880599  -0.00200768 -0.00297481 0.00153434  -0.00519164 -0.0109685 0.00286329  0 0 0  0 0 0  -0.00104352 -0.00295898 0.00100279  0 0 0  -0.00516007 -0.0112933 0.00135314  -0.0048908 -0.0236588 0.00120139  -0.00963573 -0.0237457 0.00186634  -0.0080827 -0.0394141 0.00147653  -0.00958242 -0.0232209 0.00401902  -0.0152034 -0.0385971 0.00483787  -0.00483537 -0.0231946 0.00262666  -0.0152026 -0.0392917 0.00226963  -0.0120439 -0.0580051 0.00164819  -0.0219218 -0.0574458 0.00253618  -0.0169444 -0.0790097 0.00175309  -0.0217971 -0.05658 0.0054431  -0.0292648 -0.0768938 0.00575924  -0.0119024 -0.0572627 0.00359631  -0.0294137 -0.0778432 0.00268292  -0.0226312 -0.102056 0.00178027  -0.0377161 -0.100207 0.00273371  -0.0291837 -0.127062 0.00175095  -0.0374544 -0.0991603 0.00587749  -0.04637 -0.123397 0.005826  -0.0223557 -0.101124 0.00390506  -0.0466903 -0.124457 0.00269628  -0.0365164 -0.153776 0.00167  -0.0563655 -0.150417 0.00259852  -0.0446942 -0.18219 0.00156367  -0.0559532 -0.149325 0.00563288  -0.0662457 -0.176987 0.005373  -0.0361009 -0.152773 0.00371909  -0.0667159 -0.178039 0.00245678  -0.0536506 -0.212102 0.00142658  -0.0777463 -0.207172 0.00228417  -0.0634452 -0.243512 0.00128412  -0.0772094 -0.206128 0.00502992  -0.0888807 -0.2368 0.00468016  -0.0531216 -0.211122 0.00326157  -0.0894596 -0.237775 0.00209737  -0.074005 -0.276238 0.00112998  -0.101835 -0.269706 0.00189936  -0.0853794 -0.310283 0.00097847  -0.101217 -0.268758 0.00429428  -0.114243 -0.30207 0.00393283  -0.0734009 -0.275334 0.00270116  -0.114883 -0.302935 0.00170839  -0.097485 -0.345485 0.000830173  -0.128566 -0.337339 0.0015173  -0.110369 -0.381848 0.000688553  -0.127908 -0.336505 0.00355899  -0.142234 -0.372139 0.00322199  -0.0968462 -0.344682 0.00213706  -0.142895 -0.372889 0.00133598  -0.123947 -0.41923 0.000553966  -0.157828 -0.409481 0.00116277  -0.138255 -0.457632 0.000427127  -0.157167 -0.40876 0.00288534  -0.172733 -0.446446 0.00258613  -0.123305 -0.418532 0.00162125  -0.173382 -0.447087 0.00100088  -0.153216 -0.496934 0.000311852  -0.189505 -0.48562 0.000849366  -0.168859 -0.537132 0.000199318  -0.188866 -0.485003 0.00229418  -0.205601 -0.524507 0.00203693  -0.152595 -0.496334 0.00117242  -0.206218 -0.525051 0.000708103  -0.185109 -0.578119 0.000101447  -0.223467 -0.565304 0.000579476  -0.201993 -0.619891 5.60284e-06  -0.222867 -0.564779 0.00178552  -0.240697 -0.605894 0.00156534  -0.184524 -0.577608 0.000789523  -0.24127 -0.606352 0.000455141  -0.219442 -0.662358 -7.52211e-05  -0.259574 -0.648128 0.000347018  -0.23747 -0.705509 -0.000160456  -0.25902 -0.647681 0.00134993  -0.277868 -0.690213 0.00115991  -0.218902 -0.661924 0.000464797  -0.278392 -0.690599 0.000236034  -0.256016 -0.749268 -0.000231266  -0.297672 -0.733713 0.000139236  -0.275091 -0.793623 -0.000303268  -0.297168 -0.733335 0.000974774  -0.316956 -0.777114 0.00080955  -0.255524 -0.748901 0.000189781  -0.317427 -0.777439 4.43459e-05  -0.294636 -0.838504 -0.000364184  -0.337602 -0.821725 -3.92199e-05  -0.314662 -0.883903 -0.000428557  -0.337151 -0.821405 0.000648379  -0.357788 -0.866275 0.000504971  -0.294193 -0.838196 -4.33922e-05  -0.358212 -0.866547 -0.000126719  -0.335106 -0.929758 -0.000481129  -0.379196 -0.91186 -0.000198245  -0.355982 -0.976059 -0.000540376  -0.378791 -0.911589 0.000362873  -0.400198 -0.957413 0.000236988  -0.334711 -0.929499 -0.000247121  -0.400571 -0.957638 -0.000274658  -0.37723 -1.02275 -0.000583649  -0.422278 -1.00384 -0.000338435  -0.398858 -1.06983 -0.000635266  -0.421923 -1.00361 0.000111938  -0.444008 -1.05026 1.3113e-06  -0.37688 -1.02254 -0.000418901  -0.444335 -1.05045 -0.000407934  -0.42081 -1.11723 -0.000675917  -0.46668 -1.09741 -0.000465512  -0.443098 -1.16497 -0.000724673  -0.466369 -1.09722 -0.000109792  -0.489048 -1.14458 -0.000207186  -0.420501 -1.11706 -0.000571847  -0.489333 -1.14473 -0.000528932  -0.465665 -1.21298 -0.000759006  -0.512231 -1.19236 -0.000581384  -0.488519 -1.26127 -0.000802159  -0.511961 -1.1922 -0.000306606  -0.535151 -1.24016 -0.000394821  -0.465394 -1.21284 -0.000703335  -0.535394 -1.24027 -0.000639081  -0.511611 -1.3098 -0.000834465  -0.558766 -1.28846 -0.000683904  -0.534949 -1.35855 -0.000874162  -0.558535 -1.28833 -0.000482559  -0.582157 -1.3368 -0.000557542  -0.51138 -1.30968 -0.00082016  -0.582367 -1.33689 -0.000737667  -0.558483 -1.4075 -0.000902057  -0.606135 -1.38554 -0.00078249  -0.58222 -1.45663 -0.000938416  -0.605937 -1.38544 -0.000640869  -0.629917 -1.43433 -0.000706434  -0.558284 -1.40741 -0.000923395  -0.630092 -1.4344 -0.000828147  -0.606116 -1.50592 -0.000962615  -0.654182 -1.48343 -0.000864863  -0.630182 -1.55536 -0.000997543  -0.654018 -1.48335 -0.000776649  -0.678288 -1.53258 -0.000834346  -0.605951 -1.50585 -0.00101352  -0.678432 -1.53263 -0.000911355  -0.654372 -1.60491 -0.00101864  -0.702779 -1.58198 -0.000946522  -0.678693 -1.65459 -0.00104928  -0.70264 -1.58192 -0.000898838  -0.727135 -1.63142 -0.000948429  -0.654234 -1.60487 -0.00109005  -0.727253 -1.63145 -0.000984788  -0.703105 -1.70435 -0.00107193  -0.751792 -1.68104 -0.00101447  -0.727617 -1.75419 -0.00109899  -0.751681 -1.681 -0.00100636  -0.776335 -1.73071 -0.00105  -0.702994 -1.70432 -0.00115705  -0.776427 -1.73072 -0.00105417  -0.752194 -1.8041 -0.0011183  -0.801103 -1.78049 -0.00108039  -0.776843 -1.85407 -0.00114465  -0.801018 -1.78046 -0.00110126  -0.825783 -1.83032 -0.00113869  -0.752107 -1.80409 -0.00121474  -0.825852 -1.83032 -0.00111926  -0.801524 -1.90407 -0.00116122  -0.850616 -1.88021 -0.00114167  -0.82626 -1.9541 -0.00118601  -0.850553 -1.8802 -0.00118101  -0.875382 -1.93015 -0.00121188  -0.801461 -1.90407 -0.00126445  -0.875428 -1.93014 -0.00117433  -0.851011 -2.00415 -0.00120044  -0.900235 -1.98011 -0.00119436  -0.875784 -2.05421 -0.00122488  -0.90019 -1.9801 -0.00124955  -0.925039 -2.03011 -0.00127494  -0.850959 -2.00416 -0.00130212  -0.925072 -2.03009 -0.00122511  -0.900553 -2.10426 -0.00123751  -0.949885 -2.08008 -0.00124443  -0.925329 -2.15431 -0.00125921  -0.949854 -2.08008 -0.00130272  -0.974693 -2.1301 -0.00132418  -0.900517 -2.10429 -0.00133586  -0.97471 -2.13007 -0.00127065  -0.950083 -2.20433 -0.00126839  -0.999496 -2.18005 -0.00128806  -0.974833 -2.25434 -0.00129294  -0.999481 -2.18006 -0.00134885  -1.02428 -2.23005 -0.00136125  -0.950066 -2.20437 -0.00136018  -1.02428 -2.23001 -0.00131238  -0.999548 -2.3043 -0.00130284  -1.04902 -2.27994 -0.00132525  -1.02425 -2.35423 -0.00131941  -1.04901 -2.27996 -0.0013833  -1.07375 -2.32989 -0.00139117  -0.999538 -2.30434 -0.00138056  -1.07375 -2.32985 -0.00134766  -1.0489 -2.40411 -0.00132918  -1.09841 -2.37971 -0.00136149  -1.07353 -2.45394 -0.00135076  -1.09842 -2.37974 -0.00141096  -1.12307 -2.42958 -0.00141335  -1.0489 -2.40415 -0.00139463  -1.12306 -2.42953 -0.00138164  -1.0981 -2.50372 -0.00135767  -1.14765 -2.4793 -0.00139105  -1.12265 -2.55344 -0.00137413  -1.14765 -2.47933 -0.00142694  -1.17223 -2.52907 -0.00143123  -1.0981 -2.50376 -0.00140274  -1.17221 -2.52902 -0.00141037  -1.14713 -2.60308 -0.00138283  -1.19671 -2.57867 -0.00141943  -1.17159 -2.65266 -0.00140035  -1.19672 -2.5787 -0.00144362  -1.22122 -2.62831 -0.00144613  -1.14714 -2.60313 -0.00141037  -1.2212 -2.62826 -0.00144136  0.000836693 -0.00422919 -3.09944e-05  -6.52447e-05 -0.00351229 0.000224233  0.00216666 -0.013321 -4.52995e-05  -4.26508e-05 -0.00338253 0.00048995  -7.04005e-05 -0.0116849 0.000892758  0 0 0  0 0 0  0.000845484 -0.00411573 -3.93391e-05  0 0 0  -6.65933e-05 -0.0119434 0.000407219  0.00377227 -0.0266549 -9.09567e-05  -0.000412032 -0.0247183 0.000564814  0.00511274 -0.0432581 -7.06911e-05  -0.000309065 -0.0243056 0.00127447  -0.00112756 -0.040267 0.00157094  0.00387858 -0.0262669 -6.33001e-05  -0.00121257 -0.0408194 0.000693917  0.00598955 -0.0628742 -8.04663e-05  -0.002812 -0.0599071 0.000782847  0.00608802 -0.0848789 -6.71148e-05  -0.00261045 -0.0592112 0.00180376  -0.00492954 -0.0806154 0.00194108  0.00622118 -0.0622322 3.24249e-05  -0.00514808 -0.0814012 0.000833035  0.00531784 -0.10909 -8.02279e-05  -0.00840554 -0.105059 0.000843763  0.00355297 -0.135275 -0.000100851  -0.00809327 -0.104169 0.00198638  -0.0121779 -0.129757 0.00195992  0.0056597 -0.108266 8.53539e-05  -0.0125326 -0.130677 0.000814199  0.000786722 -0.163243 -0.000141501  -0.0175919 -0.158062 0.000754833  -0.00304747 -0.192946 -0.000193954  -0.0171659 -0.157086 0.00185478  -0.0231073 -0.186194 0.00172162  0.00122434 -0.16233 3.93391e-06  -0.0235768 -0.187149 0.000672221  -0.00790608 -0.224185 -0.000257969  -0.0304905 -0.217768 0.000573874  -0.0138386 -0.256962 -0.000325799  -0.0299717 -0.216798 0.00153446  -0.0377867 -0.248968 0.00135064  -0.00739056 -0.223267 -0.000184655  -0.0383375 -0.249885 0.00046885  -0.0207711 -0.291082 -0.000398159  -0.0470912 -0.283347 0.000355721  -0.0287469 -0.326552 -0.000470042  -0.0465094 -0.282439 0.00113738  -0.0561584 -0.317287 0.000944138  -0.0202056 -0.290213 -0.000425339  -0.056756 -0.318126 0.000245929  -0.0376756 -0.363194 -0.00053978  -0.0672835 -0.35408 0.000137329  -0.0475901 -0.401012 -0.000607252  -0.0666744 -0.353263 0.000738382  -0.0780699 -0.390444 0.00055778  -0.0370877 -0.362406 -0.000665784  -0.0786789 -0.391188 3.40939e-05  -0.0583987 -0.439851 -0.000666618  -0.0908835 -0.429326 -6.24657e-05  -0.0701286 -0.479705 -0.000723481  -0.0902767 -0.428604 0.000375032  -0.10331 -0.467819 0.000221014  -0.057814 -0.43915 -0.000878692  -0.103907 -0.468468 -0.000154138  -0.0826894 -0.520446 -0.000771165  -0.117682 -0.508511 -0.000235438  -0.0961037 -0.562062 -0.000821233  -0.117095 -0.507883 6.44922e-05  -0.131647 -0.548871 -6.67572e-05  -0.0821259 -0.519832 -0.00105298  -0.132216 -0.54943 -0.000314951  -0.110279 -0.60444 -0.000858784  -0.147442 -0.591131 -0.000382423  -0.125234 -0.647574 -0.000899315  -0.146889 -0.59059 -0.000194311  -0.162843 -0.633113 -0.000302315  -0.109746 -0.60391 -0.00119042  -0.16337 -0.633594 -0.000450492  -0.140887 -0.691366 -0.000927806  -0.179932 -0.676738 -0.000505805  -0.15725 -0.735805 -0.000959158  -0.179423 -0.676271 -0.000407696  -0.196656 -0.72013 -0.000494838  -0.140395 -0.690908 -0.00129271  -0.19714 -0.72054 -0.000564933  -0.174247 -0.780804 -0.000980616  -0.214923 -0.764933 -0.000609636  -0.191886 -0.826356 -0.00100875  -0.214457 -0.764531 -0.000582576  -0.232853 -0.809543 -0.000653386  -0.173796 -0.780411 -0.00136721  -0.233292 -0.809891 -0.000661492  -0.210094 -0.872388 -0.00102353  -0.252176 -0.855359 -0.000697851  -0.228879 -0.918889 -0.00104618  -0.251757 -0.855015 -0.0007267  -0.271202 -0.901019 -0.000782967  -0.209687 -0.872054 -0.00142062  -0.271593 -0.901314 -0.000740767  -0.248174 -0.965798 -0.0010581  -0.291471 -0.947707 -0.000772715  -0.267984 -1.0131 -0.00107646  -0.291099 -0.947411 -0.000843644  -0.31148 -0.994265 -0.000890613  -0.24781 -0.965514 -0.00145519  -0.311824 -0.994514 -0.000810385  -0.288242 -1.06075 -0.00108445  -0.332585 -1.04169 -0.000837207  -0.308955 -1.10873 -0.00110137  -0.332253 -1.04144 -0.000942469  -0.353461 -1.08901 -0.000982165  -0.287919 -1.06051 -0.001477  -0.353767 -1.08922 -0.000873566  -0.330059 -1.157 -0.00110745  -0.375302 -1.13707 -0.000896692  -0.351562 -1.20554 -0.001122  -0.37501 -1.13685 -0.00102508  -0.396942 -1.18503 -0.00105643  -0.329776 -1.15679 -0.00149  -0.397208 -1.1852 -0.00092566  -0.373406 -1.25431 -0.00112593  -0.419417 -1.23361 -0.000945926  -0.395592 -1.30332 -0.00113857  -0.419163 -1.23343 -0.00109434  -0.441721 -1.28212 -0.00112104  -0.373157 -1.25415 -0.00149441  -0.441949 -1.28226 -0.000974178  -0.41807 -1.35251 -0.00114119  -0.464737 -1.33112 -0.000990748  -0.440842 -1.40189 -0.00115299  -0.464521 -1.33098 -0.00115132  -0.487609 -1.38008 -0.00117397  -0.417855 -1.35238 -0.00149131  -0.487804 -1.38019 -0.00101745  -0.463856 -1.45141 -0.00115335  -0.511079 -1.42943 -0.00103295  -0.487118 -1.50108 -0.00116467  -0.510896 -1.42931 -0.00120139  -0.534429 -1.47874 -0.00121832  -0.463673 -1.4513 -0.00148702  -0.53459 -1.47883 -0.00105548  -0.510578 -1.55087 -0.00116658  -0.558272 -1.52837 -0.00106859  -0.534246 -1.60076 -0.0011766  -0.558119 -1.52827 -0.00124037  -0.582013 -1.57797 -0.00125229  -0.510427 -1.55078 -0.00147867  -0.582147 -1.57804 -0.00109065  -0.558072 -1.65074 -0.00117636  -0.606157 -1.62781 -0.00110328  -0.582066 -1.7008 -0.00118887  -0.606031 -1.62773 -0.00127506  -0.630216 -1.67763 -0.00128317  -0.557947 -1.65068 -0.0014652  -0.630324 -1.67767 -0.00112307  -0.606176 -1.7509 -0.00118744  -0.654588 -1.72761 -0.00113463  -0.630419 -1.80107 -0.00119793  -0.654485 -1.72756 -0.00130033  -0.678891 -1.77759 -0.00130785  -0.606077 -1.75086 -0.00145423  -0.678974 -1.77762 -0.0011543  -0.654752 -1.85126 -0.00119996  -0.703429 -1.82767 -0.00116456  -0.679183 -1.90148 -0.00120819  -0.703349 -1.82763 -0.00132215  -0.727916 -1.87775 -0.00132787  -0.654674 -1.85123 -0.00143993  -0.727975 -1.87776 -0.00118065  -0.703671 -1.9517 -0.00121045  -0.752561 -1.92788 -0.00119102  -0.728229 -2.00194 -0.00122035  -0.752504 -1.92785 -0.00133801  -0.777174 -1.97801 -0.00134134  -0.703613 -1.95169 -0.00142348  -0.777216 -1.97801 -0.00120854  -0.752823 -2.05216 -0.00121963  -0.801887 -2.02815 -0.00121617  -0.77746 -2.10238 -0.00123394  -0.801847 -2.02814 -0.00135159  -0.826573 -2.0783 -0.00135088  -0.752783 -2.05217 -0.00140798  -0.826602 -2.07829 -0.00123346  -0.802109 -2.15256 -0.00123429  -0.851307 -2.12841 -0.00124002  -0.82678 -2.20271 -0.00124443  -0.851282 -2.1284 -0.00136065  -0.876026 -2.17853 -0.00136042  -0.80208 -2.15257 -0.00139308  -0.876039 -2.17851 -0.00125623  -0.851442 -2.25283 -0.0012486  -0.900745 -2.22858 -0.00126362  -0.876114 -2.30291 -0.00126016  -0.900734 -2.22859 -0.00136757  -0.925463 -2.27865 -0.00136483  -0.851428 -2.25285 -0.00138092  -0.925463 -2.27862 -0.00128055  -0.900761 -2.35293 -0.0012641  -0.95014 -2.32862 -0.00128663  -0.9254 -2.4029 -0.00127649  -0.950136 -2.32862 -0.00136876  -0.974825 -2.3786 -0.00136614  -0.900752 -2.35296 -0.00136721  -0.974818 -2.37856 -0.00130522  -0.950003 -2.45282 -0.00127864  -0.999442 -2.42846 -0.00130963  -0.974585 -2.50267 -0.00129223  -0.999446 -2.42848 -0.00137091  -1.02407 -2.47835 -0.00136626  -0.950005 -2.45286 -0.00135469  -1.02405 -2.4783 -0.00132287  -0.999123 -2.55246 -0.00129533  -1.04861 -2.52809 -0.00133216  -1.02363 -2.60219 -0.00131154  -1.04862 -2.52811 -0.00137436  -1.07316 -2.57785 -0.00136685  -0.999131 -2.55251 -0.00134754  -1.07314 -2.57781 -0.00134683  -1.04808 -2.65183 -0.00131583  -1.0976 -2.62745 -0.00135601  -1.07249 -2.7014 -0.00133383  -1.09761 -2.62748 -0.00137472  -1.12205 -2.67707 -0.00137126  -1.04809 -2.65187 -0.00134051  -1.12204 -2.67702 -0.00137019  0.00272743 -0.00677806 -0.000507474  0.00179268 -0.00532651 -0.000252366  0.00697835 -0.0180245 -0.000932217  0.00182347 -0.00522923 -0.000520825  0.00468156 -0.0151183 -0.0010097  0 0 0  0 0 0  0.00274368 -0.00667655 -0.00103128  0 0 0  0.0046806 -0.0153409 -0.000499845  0.0123948 -0.0332605 -0.0013274  0.00806595 -0.0295194 -0.000695825  0.0181466 -0.0512587 -0.00154805  0.00822407 -0.0291629 -0.00136268  0.0118107 -0.0462984 -0.00156653  0.0125596 -0.0328788 -0.0026176  0.0116256 -0.0467805 -0.000825644  0.0236535 -0.0720854 -0.00172758  0.0147648 -0.0669664 -0.000906348  0.0285307 -0.0950814 -0.00180662  0.0150563 -0.0663508 -0.00169504  0.0175925 -0.0887769 -0.00173259  0.0239787 -0.0714721 -0.00335765  0.0172695 -0.0894766 -0.000953555  0.0324455 -0.120241 -0.00185943  0.0188454 -0.114179 -0.000981092  0.0352548 -0.147361 -0.00188243  0.0192262 -0.113371 -0.00176668  0.0198086 -0.140013 -0.00177014  0.0328617 -0.119466 -0.00356829  0.0193958 -0.140851 -0.0010072  0.0368702 -0.176296 -0.00189245  0.018837 -0.169336 -0.0010314  0.0372195 -0.207019 -0.00189817  0.0192876 -0.168431 -0.00180244  0.0176035 -0.198676 -0.00182211  0.0373393 -0.175436 -0.00357842  0.0171257 -0.199569 -0.00105965  0.0363339 -0.239332 -0.00189841  0.0142677 -0.231377 -0.00109065  0.0341617 -0.273239 -0.00190008  0.0147733 -0.230458 -0.00186872  0.0107651 -0.263857 -0.0019058  0.0368389 -0.238454 -0.00353909  0.0102431 -0.264733 -0.00112379  0.0307798 -0.308543 -0.0018971  0.00509143 -0.299475 -0.00115907  0.026152 -0.345238 -0.00189781  0.00563383 -0.298595 -0.00195754  -0.000640512 -0.33475 -0.00199676  0.0313072 -0.307699 -0.00348926  -0.0011878 -0.335569 -0.00119066  0.0203741 -0.383146 -0.00189137  -0.00853962 -0.372869 -0.00122499  0.0134188 -0.422253 -0.00188851  -0.00798458 -0.372061 -0.00204659  -0.0164098 -0.4106 -0.00207782  0.0209088 -0.382366 -0.00343335  -0.0169618 -0.411342 -0.00125349  0.00538719 -0.462399 -0.00187743  -0.0263847 -0.450857 -0.00127733  -0.00374269 -0.503565 -0.00187063  -0.0258358 -0.45013 -0.00211525  -0.0362698 -0.490717 -0.00213516  0.00591207 -0.461694 -0.00336289  -0.0368069 -0.491376 -0.00130248  -0.0138685 -0.545617 -0.0018543  -0.0481538 -0.53279 -0.00131941  -0.0250015 -0.588534 -0.00184262  -0.0476242 -0.532147 -0.00215924  -0.0599138 -0.574488 -0.00216508  -0.0133613 -0.544991 -0.00327623  -0.0604244 -0.575065 -0.00133586  -0.0370499 -0.632199 -0.00182033  -0.0735422 -0.618104 -0.00134516  -0.050019 -0.676594 -0.00180721  -0.0730428 -0.61754 -0.00217474  -0.0870283 -0.661373 -0.00217187  -0.0365731 -0.631651 -0.00317299  -0.0875055 -0.661875 -0.00135732  -0.0638213 -0.721617 -0.00178146  -0.102237 -0.706298 -0.00135839  -0.0784578 -0.767254 -0.00176251  -0.101776 -0.705807 -0.00216925  -0.117302 -0.750907 -0.00215435  -0.0633782 -0.721138 -0.003057  -0.117741 -0.751342 -0.00136459  -0.0938431 -0.813416 -0.00173593  -0.133935 -0.796937 -0.00136125  -0.109981 -0.860093 -0.0017159  -0.133513 -0.796509 -0.00214374  -0.150431 -0.842682 -0.002123  -0.0934334 -0.813001 -0.00293386  -0.150829 -0.843057 -0.00136709  -0.126791 -0.907207 -0.00168729  -0.168344 -0.889642 -0.00136137  -0.144275 -0.954746 -0.00166929  -0.167961 -0.889272 -0.00210679  -0.186127 -0.936346 -0.00208056  -0.126421 -0.90685 -0.00280344  -0.186483 -0.936667 -0.00136232  -0.162357 -1.00265 -0.0016377  -0.205176 -0.984083 -0.00135314  -0.181041 -1.0509 -0.00161946  -0.204835 -0.983763 -0.00205946  -0.224115 -1.03159 -0.00202715  -0.162027 -1.00234 -0.00267291  -0.224429 -1.03187 -0.00135159  -0.200252 -1.09945 -0.00158906  -0.244168 -1.07998 -0.00134099  -0.219993 -1.14829 -0.00157034  -0.243866 -1.0797 -0.00200546  -0.264124 -1.12816 -0.00197363  -0.199961 -1.09919 -0.00254297  -0.264401 -1.12839 -0.00133789  -0.240197 -1.19736 -0.00153983  -0.285058 -1.17707 -0.00132763  -0.260865 -1.24667 -0.0015229  -0.284791 -1.17683 -0.00194752  -0.305909 -1.2258 -0.00191259  -0.239937 -1.19714 -0.00241303  -0.30615 -1.22599 -0.0013237  -0.281934 -1.29616 -0.00149429  -0.327608 -1.27514 -0.00131416  -0.303404 -1.34584 -0.00147784  -0.327377 -1.27494 -0.00188684  -0.349236 -1.32432 -0.00185311  -0.281708 -1.29597 -0.0022893  -0.349444 -1.32448 -0.00131273  -0.325221 -1.39566 -0.00145006  -0.371594 -1.374 -0.00129962  -0.347384 -1.44562 -0.00143552  -0.371396 -1.37383 -0.00182605  -0.393891 -1.42354 -0.00179243  -0.325027 -1.3955 -0.00216937  -0.394068 -1.42367 -0.00129831  -0.369832 -1.49569 -0.00140917  -0.416798 -1.47348 -0.0012852  -0.392576 -1.54587 -0.00139523  -0.416632 -1.47333 -0.00176799  -0.439665 -1.5233 -0.00173354  -0.369668 -1.49557 -0.00205636  -0.439811 -1.5234 -0.0012852  -0.415563 -1.59612 -0.0013696  -0.463033 -1.57343 -0.00127208  -0.438793 -1.64644 -0.00135887  -0.462895 -1.57331 -0.00170803  -0.486369 -1.62346 -0.00167382  -0.415424 -1.59602 -0.00194716  -0.486491 -1.62354 -0.00127208  -0.462221 -1.69681 -0.00133908  -0.510114 -1.67372 -0.00126171  -0.485847 -1.74723 -0.00132596  -0.510003 -1.67362 -0.00165045  -0.533839 -1.72389 -0.0016185  -0.462109 -1.69674 -0.001845  -0.533935 -1.72395 -0.00126052  -0.509628 -1.79766 -0.00130582  -0.557878 -1.77423 -0.00124967  -0.533573 -1.84811 -0.00129914  -0.557791 -1.77416 -0.00159514  -0.581909 -1.8245 -0.00156629  -0.509541 -1.79761 -0.00174975  -0.58198 -1.82454 -0.00125146  -0.557632 -1.89857 -0.00128126  -0.606172 -1.87487 -0.00124347  -0.581816 -1.94903 -0.0012753  -0.606106 -1.87482 -0.00154698  -0.630436 -1.92518 -0.00152051  -0.557565 -1.89853 -0.00166345  -0.630489 -1.92521 -0.00124729  -0.606083 -1.99946 -0.00125945  -0.654863 -1.97554 -0.00123847  -0.630444 -2.04988 -0.00125456  -0.654814 -1.97551 -0.00150061  -0.679298 -2.02586 -0.0014739  -0.606031 -1.99944 -0.00158298  -0.679329 -2.02587 -0.00124133  -0.654859 -2.10026 -0.00124276  -0.70383 -2.07618 -0.00123441  -0.67934 -2.15061 -0.00124276  -0.7038 -2.07616 -0.00145733  -0.728379 -2.12646 -0.00143313  -0.654824 -2.10025 -0.00151193  -0.728395 -2.12646 -0.00123966  -0.703846 -2.20091 -0.00123036  -0.75297 -2.17671 -0.00123584  -0.728393 -2.25116 -0.00123358  -0.752954 -2.1767 -0.00141871  -0.77758 -2.22692 -0.00139606  -0.703826 -2.20091 -0.00145054  -0.777586 -2.22691 -0.00124335  -0.752945 -2.30136 -0.00122583  -0.80219 -2.27707 -0.00123906  -0.777524 -2.3515 -0.00122774  -0.802186 -2.27707 -0.00138533  -0.826828 -2.32721 -0.00136709  -0.752938 -2.30137 -0.0013988  -0.82682 -2.32718 -0.00124681  -0.802083 -2.40157 -0.00122154  -0.851424 -2.37724 -0.0012455  -0.826654 -2.45159 -0.00122833  -0.851426 -2.37724 -0.00135434  -0.876043 -2.42726 -0.00133884  -0.802085 -2.4016 -0.00135267  -0.87603 -2.42723 -0.00125599  -0.851191 -2.50153 -0.00122392  -0.900598 -2.47716 -0.00125456  -0.875728 -2.5514 -0.00123417  -0.90061 -2.47717 -0.00133276  -0.925186 -2.52706 -0.00131857  -0.851202 -2.50156 -0.00131702  -0.925163 -2.52702 -0.00126636  -0.900221 -2.60119 -0.00123525  -0.949677 -2.57682 -0.00127304  -0.924696 -2.65092 -0.00124681  -0.949691 -2.57683 -0.00131583  -0.974195 -2.62658 -0.00130308  -0.900235 -2.60124 -0.0012902  -0.974174 -2.62654 -0.00128162  -0.949119 -2.70057 -0.00124669  -0.9986 -2.67619 -0.00128531  -0.973505 -2.75016 -0.00125849  -0.998619 -2.67621 -0.0012989  -1.02302 -2.72581 -0.00128806  -0.949131 -2.70061 -0.00126636  -1.023 -2.72577 -0.00130093  0.00492013 -0.0114135 -0.000965714  0.0038221 -0.00875425 -0.000697613  0.0127118 -0.0259543 -0.00175679  0.00387143 -0.00869417 -0.0014801  0.00988731 -0.0212961 -0.00279129  0 0 0  0 0 0  0.0049656 -0.0112615 -0.00193143  0 0 0  0.00987427 -0.0215297 -0.0013504  0.0223819 -0.0439242 -0.00246835  0.0171912 -0.0380186 -0.00187862  0.0328406 -0.0635872 -0.00291848  0.0174097 -0.037661 -0.00382948  0.0254782 -0.0564077 -0.00450265  0.0226022 -0.0434633 -0.0049578  0.025187 -0.0568838 -0.00225139  0.0429771 -0.0855436 -0.00325501  0.0329994 -0.0782735 -0.00249577  0.0524537 -0.1094 -0.0034337  0.0333709 -0.0776591 -0.00497806  0.0405857 -0.101069 -0.00519264  0.0433782 -0.0848951 -0.00649905  0.0401597 -0.101744 -0.00264299  0.0608118 -0.135237 -0.00353491  0.0463492 -0.127278 -0.00271404  0.0679016 -0.163075 -0.00357032  0.0467926 -0.126492 -0.0053196  0.0518007 -0.153977 -0.00532675  0.0612888 -0.134467 -0.00700223  0.0513331 -0.15478 -0.00274658  0.0736344 -0.192747 -0.0035634  0.0550484 -0.184118 -0.00274622  0.077915 -0.224299 -0.00353587  0.0555246 -0.183244 -0.0053072  0.0578917 -0.214407 -0.00524032  0.0741294 -0.19191 -0.00699604  0.0574048 -0.215263 -0.00273335  0.0807894 -0.257516 -0.00348425  0.0584236 -0.248055 -0.00270677  0.0821946 -0.292406 -0.0034306  0.0589195 -0.247166 -0.00516999  0.0585756 -0.281608 -0.00507855  0.0812896 -0.256666 -0.00677919  0.0580751 -0.282457 -0.00267887  0.0822142 -0.328762 -0.00336349  0.056408 -0.318305 -0.00264287  0.0808142 -0.366563 -0.00329733  0.0569167 -0.317448 -0.00498891  0.0539269 -0.354753 -0.00488997  0.0827184 -0.327939 -0.00648177  0.0534204 -0.355558 -0.00260794  0.078087 -0.405623 -0.00322306  0.0491763 -0.394057 -0.00256789  0.0740151 -0.445909 -0.00315499  0.0496843 -0.393259 -0.00479519  0.0441823 -0.433019 -0.00468957  0.078584 -0.404856 -0.00615644  0.0436813 -0.433756 -0.00252879  0.0686973 -0.487261 -0.00307727  0.0370113 -0.474519 -0.00248492  0.0621272 -0.529642 -0.00300753  0.0375087 -0.473795 -0.00459003  0.0296614 -0.515637 -0.00447977  0.0691808 -0.486564 -0.00582159  0.0291771 -0.516299 -0.00244486  0.0544053 -0.57291 -0.00293052  0.0202566 -0.558972 -0.00239956  0.0455309 -0.617036 -0.002859  0.0207338 -0.558323 -0.00437748  0.01072 -0.601911 -0.00426269  0.0548697 -0.572286 -0.00548625  0.0102596 -0.602498 -0.00235558  0.0355994 -0.661897 -0.00278234  -0.000727773 -0.646774 -0.0023061  0.0246141 -0.707465 -0.00271308  -0.000279069 -0.6462 -0.00415683  -0.0122702 -0.691246 -0.0040437  0.0360354 -0.661343 -0.0051527  -0.0127008 -0.691763 -0.00226569  0.0126698 -0.753638 -0.00263536  -0.0255711 -0.737375 -0.00221372  -0.000227809 -0.800395 -0.00256801  -0.0251529 -0.736867 -0.00393438  -0.0389388 -0.783124 -0.00381899  0.0130755 -0.753151 -0.00482249  -0.0393344 -0.783577 -0.00216985  -0.0139899 -0.847642 -0.00249159  -0.0539068 -0.830295 -0.00211942  -0.02861 -0.895367 -0.00242579  -0.0535239 -0.82985 -0.00371277  -0.068926 -0.877107 -0.00359619  -0.013616 -0.847216 -0.00450051  -0.0692869 -0.877501 -0.00207531  -0.0440053 -0.943486 -0.00235462  -0.0853884 -0.925131 -0.00202489  -0.0601681 -0.991994 -0.00229096  -0.08504 -0.924742 -0.00349164  -0.10189 -0.972819 -0.00338018  -0.0436655 -0.943117 -0.00419021  -0.102213 -0.973159 -0.00198448  -0.0770183 -1.04082 -0.00221848  -0.119679 -1.02153 -0.0019331  -0.0945517 -1.08995 -0.00215936  -0.119368 -1.0212 -0.00327694  -0.137504 -1.06994 -0.00316978  -0.0767145 -1.0405 -0.00389147  -0.137789 -1.07023 -0.00189447  -0.112693 -1.13934 -0.00209296  -0.156464 -1.11921 -0.00184512  -0.131438 -1.18897 -0.00203645  -0.156189 -1.11892 -0.00306976  -0.175458 -1.1682 -0.00296605  -0.112423 -1.13906 -0.00360787  -0.17571 -1.16845 -0.00180793  -0.150714 -1.23879 -0.00197434  -0.195448 -1.21791 -0.00176108  -0.170521 -1.2888 -0.00192392  -0.195206 -1.21766 -0.00287139  -0.215471 -1.26736 -0.00277126  -0.150475 -1.23856 -0.00333798  -0.215693 -1.26757 -0.0017283  -0.190794 -1.33896 -0.00186467  -0.236359 -1.31741 -0.00168407  -0.211522 -1.38926 -0.00181496  -0.236151 -1.31719 -0.002684  -0.257276 -1.36722 -0.0025878  -0.190585 -1.33876 -0.0030849  -0.257465 -1.3674 -0.00165081  -0.232652 -1.43966 -0.00175953  -0.278933 -1.41752 -0.00160718  -0.254179 -1.49016 -0.0017153  -0.278756 -1.41733 -0.0025028  -0.300626 -1.46761 -0.00241339  -0.232475 -1.43949 -0.00284612  -0.300785 -1.46776 -0.00157905  -0.276045 -1.54073 -0.00166321  -0.32294 -1.51809 -0.00154054  -0.298251 -1.59136 -0.00162506  -0.322793 -1.51793 -0.00233364  -0.345292 -1.56838 -0.00225055  -0.275896 -1.54059 -0.0026207  -0.345421 -1.5685 -0.00151408  -0.320739 -1.64203 -0.00157678  -0.368155 -1.61897 -0.00147808  -0.343514 -1.69275 -0.00153863  -0.368032 -1.61884 -0.00217724  -0.391058 -1.66939 -0.00209641  -0.320616 -1.64192 -0.00241399  -0.391164 -1.66949 -0.00145185  -0.366523 -1.74346 -0.00149488  -0.414379 -1.72004 -0.0014199  -0.389767 -1.7942 -0.00146329  -0.414279 -1.71994 -0.00202918  -0.437738 -1.77054 -0.00195515  -0.366422 -1.74338 -0.0022229  -0.437823 -1.77062 -0.00139844  -0.413199 -1.84492 -0.00142181  -0.461426 -1.8212 -0.00136769  -0.436827 -1.89563 -0.00139618  -0.461348 -1.82112 -0.00189435  -0.485153 -1.87174 -0.00182402  -0.413121 -1.84485 -0.00204515  -0.485215 -1.87179 -0.00135052  -0.4606 -1.9463 -0.00136209  -0.509129 -1.92236 -0.00132489  -0.484527 -1.99696 -0.0013392  -0.509071 -1.9223 -0.00177038  -0.533147 -1.97289 -0.00171065  -0.460541 -1.94626 -0.00188518  -0.533187 -1.97292 -0.0013088  -0.508559 -2.04757 -0.00130546  -0.557332 -2.02345 -0.00128686  -0.532712 -2.09813 -0.0012871  -0.557295 -2.0234 -0.00166023  -0.581571 -2.07393 -0.00160253  -0.508518 -2.04754 -0.00174093  -0.581595 -2.07394 -0.00127602  -0.556941 -2.14864 -0.00125933  -0.605913 -2.1244 -0.00125432  -0.581255 -2.1991 -0.00124729  -0.605889 -2.12437 -0.00155938  -0.630302 -2.1748 -0.00151157  -0.556913 -2.14863 -0.00161374  -0.630316 -2.1748 -0.00124907  -0.605612 -2.24949 -0.0012244  -0.654742 -2.22515 -0.00123036  -0.630031 -2.29981 -0.00121391  -0.654733 -2.22513 -0.00147521  -0.679233 -2.27545 -0.0014329  -0.605598 -2.24949 -0.00150442  -0.679229 -2.27544 -0.00122666  -0.654472 -2.35006 -0.00119627  -0.703722 -2.32567 -0.00121748  -0.678945 -2.40025 -0.00118852  -0.703723 -2.32567 -0.00140238  -0.728263 -2.37586 -0.00136483  -0.654469 -2.35008 -0.00141251  -0.728254 -2.37584 -0.0012126  -0.703421 -2.45035 -0.00117767  -0.752762 -2.42593 -0.0012027  -0.727913 -2.50038 -0.0011797  -0.752775 -2.42594 -0.00134087  -0.777318 -2.47598 -0.00131071  -0.703425 -2.45038 -0.0013355  -0.777301 -2.47596 -0.00121033  -0.752389 -2.55033 -0.00117373  -0.801804 -2.5259 -0.00120211  -0.776868 -2.60021 -0.00117469  -0.80182 -2.52591 -0.00129509  -0.826341 -2.57581 -0.00126815  -0.7524 -2.55036 -0.00127983  -0.826316 -2.57578 -0.0012089  -0.801321 -2.65 -0.0011723  -0.850783 -2.62558 -0.00120556  -0.825765 -2.69972 -0.00117755  -0.850805 -2.62559 -0.00125623  -0.875274 -2.67534 -0.0012362  -0.801335 -2.65003 -0.00123239  -0.875246 -2.6753 -0.00121641  -0.85017 -2.74938 -0.00117755  -0.899654 -2.72496 -0.00121629  -0.874561 -2.79898 -0.00118721  -0.899674 -2.72497 -0.0012275  -0.924062 -2.77459 -0.00120425  -0.850187 -2.74941 -0.00119424  -0.924042 -2.77455 -0.00122726  0.0078802 -0.0201463 -0.00144386  0.00645547 -0.0149674 -0.00107872  0.0211333 -0.0392343 -0.00252712  0.00652099 -0.0149763 -0.00236547  0.016675 -0.0315847 -0.00439179  0 0 0  0 0 0  0.00806925 -0.0198053 -0.00269699  0 0 0  0.0165931 -0.0318397 -0.00212443  0.0359038 -0.0598779 -0.0034802  0.0285785 -0.0511165 -0.00294912  0.0513052 -0.0809076 -0.00416696  0.0288498 -0.0506791 -0.00605726  0.0417164 -0.0710901 -0.00716996  0.0361383 -0.0592816 -0.00707018  0.0413173 -0.0716196 -0.00355697  0.0659219 -0.103248 -0.00464463  0.0538473 -0.0938702 -0.00395906  0.0795609 -0.127551 -0.00492775  0.054261 -0.0931842 -0.00798023  0.0659337 -0.11731 -0.0083909  0.0663522 -0.102552 -0.00936639  0.0654372 -0.118012 -0.00420868  0.0919791 -0.153701 -0.0050894  0.0759357 -0.144069 -0.00433433  0.102951 -0.182027 -0.00514674  0.0764198 -0.143259 -0.00862896  0.0855355 -0.171358 -0.00866961  0.0924927 -0.152915 -0.010187  0.0850267 -0.172162 -0.00438464  0.112477 -0.212294 -0.00513661  0.092705 -0.20216 -0.00437355  0.120412 -0.244569 -0.00508523  0.0932054 -0.201296 -0.0086273  0.0993591 -0.233229 -0.00850046  0.112999 -0.211464 -0.0102106  0.0988615 -0.234069 -0.00433052  0.126807 -0.278629 -0.00499451  0.103518 -0.267719 -0.00425899  0.131591 -0.314441 -0.00489509  0.104014 -0.266852 -0.00833762  0.107138 -0.302237 -0.00814044  0.127316 -0.277797 -0.00986362  0.106648 -0.303063 -0.00417745  0.134834 -0.351806 -0.00477123  0.108294 -0.339932 -0.00408399  0.136509 -0.390663 -0.00464976  0.108784 -0.339097 -0.00793302  0.108938 -0.377472 -0.00770891  0.135331 -0.351007 -0.0093627  0.108457 -0.378256 -0.00398564  0.136698 -0.43083 -0.00451517  0.107198 -0.417876 -0.00388193  0.135395 -0.472244 -0.00438786  0.107681 -0.417096 -0.00748396  0.105002 -0.458004 -0.00725329  0.137181 -0.430084 -0.0088017  0.104532 -0.458725 -0.00378132  0.132691 -0.514746 -0.00425172  0.100533 -0.50066 -0.00367451  0.128594 -0.558281 -0.00412333  0.101 -0.499948 -0.00702667  0.0956655 -0.542967 -0.00679457  0.133159 -0.514067 -0.00822663  0.0952134 -0.54362 -0.00357378  0.123198 -0.602702 -0.00398707  0.0886645 -0.587473 -0.00346816  0.116514 -0.647971 -0.00386035  0.0891088 -0.586833 -0.00657189  0.0813251 -0.631591 -0.00634336  0.123643 -0.602093 -0.00765634  0.0808964 -0.632172 -0.00336742  0.108643 -0.693955 -0.00372815  0.0720044 -0.677606 -0.00326371  0.0995936 -0.740628 -0.00360787  0.0724231 -0.677034 -0.00612473  0.0623955 -0.723217 -0.00590229  0.109063 -0.693414 -0.00709927  0.0619957 -0.723731 -0.00316668  0.0894637 -0.787875 -0.00347781  0.0509673 -0.770454 -0.00306308  0.0782671 -0.835675 -0.00336158  0.0513562 -0.769945 -0.00569022  0.0392939 -0.817283 -0.00547564  0.089855 -0.787396 -0.00656402  0.0389265 -0.817737 -0.00297022  0.0660992 -0.883931 -0.0032388  0.0259678 -0.865501 -0.00287199  0.0529703 -0.93263 -0.00312936  0.026325 -0.865052 -0.00527275  0.0124336 -0.91332 -0.00506544  0.0664587 -0.883512 -0.00605094  0.0120958 -0.913718 -0.00278342  0.0389735 -0.981681 -0.00301313  -0.00259078 -0.962316 -0.00268829  0.0241144 -1.03108 -0.00290871  -0.00226736 -0.961923 -0.00487351  -0.0177962 -1.01093 -0.00467598  0.0392997 -0.981317 -0.00556386  -0.0181005 -1.01128 -0.00260484  0.00848472 -1.08076 -0.00279677  -0.0343332 -1.06054 -0.00251365  -0.00791097 -1.1307 -0.00269818  -0.0340421 -1.06019 -0.00449264  -0.0510297 -1.10979 -0.00430501  0.00878096 -1.08044 -0.00509953  -0.051299 -1.11008 -0.00243473  -0.0249892 -1.18085 -0.00259519  -0.0689038 -1.15986 -0.00234973  -0.0427451 -1.2312 -0.00250483  -0.0686444 -1.15956 -0.00413334  -0.0869169 -1.2096 -0.00395751  -0.0247252 -1.18058 -0.0046649  -0.0871546 -1.20986 -0.00227511  -0.0610969 -1.2817 -0.00240529  -0.105962 -1.26004 -0.00219417  -0.0800476 -1.33236 -0.00232255  -0.105735 -1.25978 -0.00379372  -0.125136 -1.31015 -0.00362718  -0.0608671 -1.28147 -0.00425828  -0.125344 -1.31037 -0.00212669  -0.0995176 -1.3831 -0.00222993  -0.145208 -1.36084 -0.00205135  -0.11951 -1.43396 -0.00215256  -0.145011 -1.36061 -0.00347459  -0.165395 -1.41123 -0.00331831  -0.0993152 -1.38291 -0.00387335  -0.165573 -1.41142 -0.00198817  -0.139951 -1.48487 -0.00206792  -0.18635 -1.46208 -0.00191736  -0.160841 -1.53585 -0.00199342  -0.186182 -1.46189 -0.00317681  -0.207417 -1.51268 -0.00303304  -0.139776 -1.4847 -0.0035162  -0.207564 -1.51283 -0.00185931  -0.182117 -1.58685 -0.00191557  -0.229131 -1.56363 -0.00179291  -0.203782 -1.63789 -0.00185013  -0.228991 -1.56347 -0.00290024  -0.250949 -1.61434 -0.00276446  -0.181972 -1.58672 -0.00318539  -0.25107 -1.61447 -0.00174129  -0.22577 -1.68892 -0.00177848  -0.273304 -1.66533 -0.00168014  -0.248086 -1.73996 -0.0017184  -0.273187 -1.6652 -0.00264323  -0.295755 -1.71611 -0.0025183  -0.225648 -1.68881 -0.00287962  -0.295853 -1.71621 -0.00163281  -0.270673 -1.79097 -0.00165296  -0.318641 -1.76709 -0.00157762  -0.293535 -1.84197 -0.0016005  -0.318552 -1.76698 -0.00240672  -0.341626 -1.81788 -0.00229049  -0.270575 -1.79089 -0.00259757  -0.341702 -1.81796 -0.0015372  -0.316616 -1.89292 -0.00154018  -0.364954 -1.8688 -0.0014869  -0.339926 -1.94384 -0.00149298  -0.364885 -1.86871 -0.00218987  -0.388369 -1.91956 -0.00208139  -0.31654 -1.89286 -0.00234079  -0.388427 -1.91962 -0.00145113  -0.36341 -1.99469 -0.00144088  -0.412048 -1.9704 -0.00140333  -0.38708 -2.04549 -0.00139773  -0.411996 -1.97033 -0.00199175  -0.435813 -2.02109 -0.00189853  -0.363352 -1.99465 -0.0021075  -0.435848 -2.02113 -0.00137198  -0.410878 -2.09623 -0.00135028  -0.45976 -2.07181 -0.00133336  -0.434827 -2.1469 -0.00131834  -0.459725 -2.07176 -0.00181663  -0.483794 -2.12241 -0.00173116  -0.410839 -2.0962 -0.00189769  -0.483814 -2.12243 -0.00130749  -0.45887 -2.19749 -0.00127769  -0.507944 -2.17299 -0.00127232  -0.48302 -2.24801 -0.0012511  -0.507924 -2.17296 -0.00166106  -0.532176 -2.22348 -0.00158572  -0.458844 -2.19748 -0.00171483  -0.532182 -2.22348 -0.00125277  -0.50724 -2.29844 -0.00121391  -0.556462 -2.2739 -0.00122261  -0.531536 -2.34879 -0.00119555  -0.556458 -2.27388 -0.00152671  -0.580831 -2.32425 -0.00146413  -0.50723 -2.29844 -0.0015558  -0.580822 -2.32425 -0.00120664  -0.55587 -2.39906 -0.00116622  -0.605204 -2.37451 -0.00118816  -0.580256 -2.44924 -0.00115407  -0.605207 -2.3745 -0.00141382  -0.629651 -2.42472 -0.0013603  -0.55587 -2.39907 -0.00142407  -0.629635 -2.4247 -0.00117552  -0.604654 -2.49934 -0.00113511  -0.654063 -2.47481 -0.00115943  -0.629081 -2.54936 -0.00112939  -0.654079 -2.47481 -0.00132382  -0.678547 -2.52486 -0.00128102  -0.604658 -2.49936 -0.00131989  -0.678525 -2.52483 -0.00115657  -0.653498 -2.59929 -0.00111544  -0.702967 -2.57478 -0.0011481  -0.677932 -2.64914 -0.00111377  -0.702985 -2.57478 -0.00125277  -0.727456 -2.62467 -0.00121868  -0.653509 -2.59931 -0.00123858  -0.727425 -2.62465 -0.0011487  -0.702342 -2.69891 -0.00110781  -0.751852 -2.67443 -0.00114191  -0.726766 -2.74862 -0.00111294  -0.751878 -2.67444 -0.00119758  -0.776319 -2.72418 -0.00117099  -0.702362 -2.69895 -0.00117743  -0.776292 -2.72415 -0.0011518  -0.75117 -2.79826 -0.0011059  -0.80069 -2.77381 -0.00114846  -0.775581 -2.84788 -0.00111246  -0.800714 -2.77382 -0.00115657  -0.825119 -2.82344 -0.00113082  -0.75119 -2.7983 -0.00112808  -0.825084 -2.82341 -0.00115085  0.0138795 -0.0379381 -0.00188732  0.0108332 -0.0269211 -0.00133431  0.0379719 -0.0629267 -0.00336659  0.0108973 -0.0271691 -0.00323141  0.0275286 -0.049445 -0.00581908  0 0 0  0 0 0  0.0134235 -0.0369894 -0.00343955  0 0 0  0.0271408 -0.049632 -0.00281823  0.0575319 -0.0816386 -0.00433409  0.0451979 -0.0701829 -0.00394917  0.0754997 -0.102694 -0.00528467  0.0453788 -0.0695178 -0.00803959  0.0627951 -0.0906876 -0.00957537  0.0575218 -0.0813864 -0.00905168  0.0623659 -0.0913383 -0.00477004  0.0936732 -0.124406 -0.00588048  0.0791034 -0.113506 -0.00529468  0.110624 -0.148608 -0.00628257  0.0794931 -0.112725 -0.0106934  0.0950736 -0.136973 -0.0113149  0.0941252 -0.123745 -0.0120113  0.0945668 -0.13776 -0.0056417  0.126631 -0.175004 -0.00648296  0.108834 -0.164046 -0.00581789  0.141182 -0.203709 -0.00658786  0.109342 -0.163195 -0.0116664  0.12218 -0.191706 -0.01176  0.12717 -0.174166 -0.013085  0.121647 -0.19254 -0.00589144  0.15423 -0.234645 -0.00655937  0.132946 -0.223136 -0.00587773  0.165632 -0.26765 -0.00650942  0.133471 -0.222266 -0.0117106  0.143161 -0.254921 -0.0115451  0.154779 -0.233773 -0.0131407  0.142638 -0.255759 -0.00581682  0.175354 -0.302616 -0.00637686  0.150707 -0.290265 -0.00571215  0.183358 -0.339372 -0.00625622  0.151222 -0.289409 -0.0113125  0.157627 -0.32573 -0.0110307  0.175892 -0.301768 -0.0127016  0.157121 -0.326537 -0.00559092  0.189668 -0.377779 -0.00607693  0.161912 -0.364419 -0.00544608  0.194274 -0.417699 -0.00592482  0.162412 -0.363606 -0.0107244  0.165561 -0.403043 -0.0103954  0.190189 -0.376983 -0.0120401  0.16507 -0.4038 -0.00530028  0.197244 -0.458975 -0.00572634  0.166664 -0.444522 -0.00514007  0.198575 -0.501508 -0.00556242  0.167148 -0.443767 -0.0100615  0.167169 -0.485798 -0.00971794  0.197749 -0.458244 -0.0112872  0.166696 -0.486492 -0.00498641  0.198373 -0.545136 -0.0053612  0.165256 -0.529562 -0.00482285  0.196624 -0.589794 -0.00519443  0.165722 -0.528872 -0.00938034  0.162801 -0.573031 -0.00903797  0.198858 -0.544475 -0.0105103  0.162349 -0.573656 -0.00466752  0.193456 -0.635323 -0.00499666  0.158079 -0.61864 -0.00450611  0.188855 -0.681687 -0.00483227  0.158525 -0.61802 -0.00870395  0.152881 -0.6639 -0.00836647  0.193918 -0.634734 -0.00973523  0.152452 -0.664457 -0.00435281  0.182961 -0.728732 -0.00463986  0.145581 -0.710983 -0.00419676  0.175749 -0.77645 -0.00447893  0.146 -0.710431 -0.0080452  0.137865 -0.757689 -0.00772107  0.183394 -0.728215 -0.0089817  0.137465 -0.75818 -0.0040499  0.167369 -0.824697 -0.00429547  0.128221 -0.805941 -0.00389814  0.157791 -0.87348 -0.00414145  0.128612 -0.805451 -0.007411  0.118217 -0.853803 -0.00710022  0.167775 -0.824243 -0.00825596  0.117844 -0.854235 -0.0037576  0.147165 -0.922662 -0.00396681  0.106458 -0.90297 -0.00361371  0.135457 -0.972263 -0.00382185  0.106817 -0.902537 -0.00680709  0.0943853 -0.951744 -0.00651276  0.147539 -0.922266 -0.00756443  0.0940477 -0.952123 -0.00348067  0.122814 -1.02216 -0.00365627  0.0807358 -1.00161 -0.00334191  0.109198 -1.07239 -0.00351763  0.0810608 -1.00123 -0.00623381  0.0668104 -1.0511 -0.00595498  0.123153 -1.02182 -0.00690973  0.0665065 -1.05143 -0.00321841  0.0947598 -1.12282 -0.0033592  0.0514792 -1.1015 -0.00308692  0.0794475 -1.17351 -0.00323522  0.0517725 -1.10117 -0.00569332  0.0359055 -1.15154 -0.00542939  0.0950658 -1.12253 -0.00628924  0.035633 -1.15182 -0.00297093  0.0634115 -1.22433 -0.00308776  0.0190823 -1.20232 -0.00284958  0.046603 -1.27534 -0.00296736  0.019345 -1.20203 -0.00518489  0.00204325 -1.25276 -0.00493872  0.0636866 -1.22408 -0.00570989  0.00180387 -1.25301 -0.00274038  0.0291569 -1.32643 -0.00282967  -0.0160897 -1.30382 -0.00262547  0.0110252 -1.37765 -0.00271857  -0.0158606 -1.30357 -0.0047071  -0.0344183 -1.35455 -0.00447488  0.029397 -1.32622 -0.00516737  -0.0346262 -1.35476 -0.00252306  -0.00765419 -1.42891 -0.00258946  -0.0536971 -1.40578 -0.00241709  -0.0269399 -1.48026 -0.00248802  -0.0534973 -1.40556 -0.00426161  -0.0731537 -1.45671 -0.00404501  -0.00744343 -1.42873 -0.00465751  -0.0733325 -1.45688 -0.00232387  -0.0466962 -1.5316 -0.00237  -0.0934279 -1.50802 -0.002226  -0.0669858 -1.58299 -0.00227451  -0.0932577 -1.50784 -0.00384951  -0.113864 -1.55907 -0.00364566  -0.0465178 -1.53145 -0.0041889  -0.114014 -1.55921 -0.00213861  -0.0876706 -1.63435 -0.00216377  -0.134992 -1.61041 -0.00204563  -0.108821 -1.68572 -0.00207913  -0.134849 -1.61026 -0.00346351  -0.156272 -1.6615 -0.00327444  -0.0875189 -1.63423 -0.00374758  -0.156396 -1.66162 -0.00196767  -0.130307 -1.73704 -0.00197983  -0.17813 -1.71281 -0.00188303  -0.15219 -1.78835 -0.00189924  -0.178011 -1.71268 -0.00310731  -0.20013 -1.76389 -0.00293672  -0.130181 -1.73694 -0.00334609  -0.200229 -1.76399 -0.00181341  -0.174356 -1.83958 -0.00181019  -0.2226 -1.81512 -0.00173676  -0.196856 -1.89078 -0.00173891  -0.222505 -1.81502 -0.00278258  -0.245205 -1.86615 -0.00262439  -0.174256 -1.83951 -0.00297487  -0.245284 -1.86622 -0.0016731  -0.219588 -1.94188 -0.00165558  -0.268184 -1.91726 -0.00160396  -0.242603 -1.99295 -0.0015924  -0.268111 -1.91718 -0.00248539  -0.291292 -1.96821 -0.00234163  -0.219505 -1.94184 -0.00263524  -0.291345 -1.96826 -0.00154674  -0.265797 -2.0439 -0.0015167  -0.314682 -2.01918 -0.00148332  -0.289233 -2.0948 -0.00146222  -0.314631 -2.01912 -0.00221324  -0.338194 -2.07 -0.00208366  -0.265739 -2.04387 -0.00232935  -0.338232 -2.07003 -0.00143433  -0.312803 -2.14559 -0.00139952  -0.361915 -2.12081 -0.00137794  -0.33657 -2.19631 -0.00135267  -0.361878 -2.12076 -0.00197339  -0.385746 -2.17149 -0.00185907  -0.312762 -2.14558 -0.00205922  -0.385769 -2.1715 -0.00133717  -0.360432 -2.24691 -0.00129473  -0.40972 -2.22211 -0.00129247  -0.384447 -2.29744 -0.00125575  -0.409697 -2.22209 -0.00176334  -0.433798 -2.27264 -0.00166261  -0.360409 -2.24691 -0.00182271  -0.433803 -2.27264 -0.00125718  -0.408536 -2.34785 -0.00120974  -0.457948 -2.32308 -0.0012151  -0.432738 -2.39818 -0.00117838  -0.457947 -2.32306 -0.00158095  -0.482207 -2.37343 -0.00149632  -0.408526 -2.34787 -0.00161469  -0.482199 -2.37342 -0.00119078  -0.45698 -2.4484 -0.00114286  -0.506482 -2.42368 -0.0011611  -0.481311 -2.49854 -0.00112212  -0.506488 -2.42367 -0.0014286  -0.530851 -2.47386 -0.00135756  -0.456977 -2.44843 -0.00144076  -0.530835 -2.47384 -0.00114048  -0.505644 -2.54857 -0.00109529  -0.555197 -2.52392 -0.00111616  -0.530041 -2.59853 -0.00107801  -0.555209 -2.52392 -0.00130665  -0.579627 -2.57394 -0.00125289  -0.505649 -2.5486 -0.00130343  -0.579605 -2.57391 -0.00110567  -0.554426 -2.6484 -0.00105882  -0.604003 -2.62382 -0.00109339  -0.578849 -2.69819 -0.00105417  -0.604021 -2.62382 -0.00121295  -0.628454 -2.67368 -0.00117207  -0.55444 -2.64843 -0.00119913  -0.628425 -2.67365 -0.00108898  -0.603249 -2.74791 -0.00104606  -0.652823 -2.7234 -0.00108182  -0.627661 -2.79758 -0.00104892  -0.652847 -2.72341 -0.00114715  -0.677268 -2.77312 -0.00111234  -0.603268 -2.74795 -0.00112772  -0.677235 -2.77309 -0.00108182  -0.652065 -2.84721 -0.00104523  -0.701638 -2.82273 -0.00107789  -0.676504 -2.89683 -0.00104845  -0.701665 -2.82274 -0.00109148  -0.7261 -2.87238 -0.00106323  -0.65209 -2.84725 -0.00107157  -0.72607 -2.87234 -0.00108612  -0.0065632 -0.00690983 0.00505006  -0.00886285 -0.0114601 0.00631189  -0.0177845 -0.0187368 0.00933778  -0.00940054 -0.0109585 0.00837588  -0.0256279 -0.0247333 0.0156463  -0.0224452 -0.0227021 0.0102508  0 0 0  -0.0242054 -0.0239089 0.00714314  0 0 0  0 0 0  -0.00644296 -0.00601235 0.0071125  0 0 0  -0.0430787 -0.0362654 0.0130062  -0.0265991 -0.0265462 0.0111061  -0.0310342 -0.0313339 0.0129465  -0.0434829 -0.0388749 0.0152743  -0.0453986 -0.0452412 0.0153891  -0.0426912 -0.0362114 0.0211524  -0.0601658 -0.0487202 0.024905  -0.0598157 -0.0445579 0.0245199  -0.0610939 -0.0470715 0.0178496  -0.0309505 -0.0290093 0.0178162  -0.0800883 -0.0593007 0.0210322  -0.0607112 -0.0517962 0.0181617  -0.0605331 -0.06096 0.0170356  -0.0782023 -0.0659315 0.0201011  -0.0757657 -0.0782248 0.0179505  -0.0775472 -0.06243 0.0274724  -0.0952576 -0.0782546 0.0286568  -0.0985245 -0.0682519 0.0318147  -0.0994915 -0.0719141 0.0233399  -0.0601887 -0.0577354 0.0232551  -0.119407 -0.0866752 0.0245041  -0.0958754 -0.0819479 0.0211464  -0.0913546 -0.0976104 0.0182244  -0.113856 -0.0999015 0.021481  -0.107215 -0.118826 0.018077  -0.113027 -0.0961979 0.0289809  -0.131022 -0.116151 0.0285906  -0.138591 -0.0991794 0.0335581  -0.139616 -0.103166 0.0248567  -0.0906419 -0.0941965 0.024563  -0.159844 -0.121487 0.0246452  -0.131972 -0.119789 0.0212868  -0.123382 -0.141895 0.0175487  -0.150334 -0.141575 0.0206857  -0.139891 -0.166661 0.0168353  -0.14918 -0.138109 0.0276816  -0.167494 -0.161771 0.0265089  -0.178964 -0.138128 0.0320406  -0.180211 -0.141864 0.0238973  -0.122262 -0.138682 0.0234677  -0.200433 -0.163779 0.0229679  -0.168787 -0.165034 0.0198416  -0.156685 -0.193014 0.0159439  -0.187447 -0.19019 0.0188179  -0.17381 -0.220853 0.0150073  -0.186006 -0.187156 0.0250894  -0.204657 -0.21401 0.0236392  -0.219282 -0.184376 0.0290499  -0.220739 -0.187627 0.0217483  -0.155238 -0.190171 0.0212504  -0.240937 -0.212841 0.0205425  -0.206192 -0.216799 0.0177265  -0.191219 -0.250089 0.0140229  -0.225148 -0.244912 0.0165914  -0.208946 -0.280631 0.0130624  -0.22353 -0.242348 0.0221126  -0.242566 -0.271987 0.020659  -0.259642 -0.237036 0.0256404  -0.26123 -0.239761 0.0192128  -0.189574 -0.247658 0.0186892  -0.281511 -0.267925 0.0179832  -0.24422 -0.274318 0.0154808  -0.226972 -0.312421 0.0121207  -0.263532 -0.305064 0.014397  -0.245322 -0.345379 0.0112298  -0.261849 -0.302928 0.019219  -0.281334 -0.335046 0.0178839  -0.300296 -0.295336 0.0223389  -0.301924 -0.297586 0.0167222  -0.225251 -0.310381 0.0161906  -0.322419 -0.32839 0.0155802  -0.283007 -0.336975 0.0133687  -0.263987 -0.379459 0.0103865  -0.302752 -0.370085 0.0123949  -0.282986 -0.41459 0.00959527  -0.301089 -0.368315 0.0165985  -0.321081 -0.402657 0.0154178  -0.341489 -0.358653 0.0193516  -0.343089 -0.360508 0.0144513  -0.262283 -0.377758 0.0139251  -0.363907 -0.393674 0.0134356  -0.322703 -0.404254 0.011484  -0.302316 -0.450731 0.00886071  -0.342943 -0.439498 0.0106317  -0.321987 -0.487823 0.00817144  -0.341358 -0.438028 0.014299  -0.361898 -0.474376 0.0132688  -0.383412 -0.426475 0.0167277  -0.384935 -0.428009 0.0124521  -0.300691 -0.449316 0.0119351  -0.406151 -0.463299 0.0115622  -0.363422 -0.475704 0.00983834  -0.34199 -0.525822 0.00753677  -0.384201 -0.512874 0.00910079  -0.362338 -0.564675 0.006935  -0.382726 -0.511645 0.0122975  -0.403825 -0.549803 0.0114005  -0.426182 -0.498361 0.0144403  -0.427599 -0.499634 0.0107061  -0.340478 -0.524638 0.0102061  -0.449263 -0.536846 0.00993121  -0.405234 -0.550915 0.00840914  -0.383008 -0.604341 0.00638354  -0.426564 -0.589822 0.00776565  -0.404016 -0.644776 0.00585735  -0.425212 -0.588789 0.0105518  -0.446873 -0.628581 0.0097636  -0.469866 -0.573921 0.0124428  -0.471163 -0.57499 0.00918603  -0.381621 -0.603349 0.00870216  -0.493289 -0.613924 0.00850236  -0.448153 -0.629512 0.00715911  -0.425329 -0.685937 0.0053736  -0.470029 -0.669978 0.00659299  -0.446961 -0.727787 0.00491261  -0.468805 -0.669108 0.00901568  -0.491005 -0.710367 0.00831902  -0.514473 -0.652799 0.0106826  -0.515649 -0.653696 0.00784338  -0.424072 -0.685102 0.00738096  -0.538229 -0.694187 0.0072391  -0.492158 -0.711155 0.00605643  -0.468883 -0.770284 0.00448406  -0.514553 -0.75302 0.00555623  -0.491101 -0.813396 0.00407183  -0.513458 -0.752286 0.00765502  -0.53616 -0.79486 0.00703633  -0.559983 -0.734671 0.00912333  -0.561035 -0.735426 0.00665534  -0.467755 -0.769583 0.00621545  -0.584052 -0.777313 0.00611806  -0.537187 -0.795523 0.00507963  -0.51358 -0.857083 0.00369322  -0.560071 -0.838642 0.00463295  -0.536329 -0.901313 0.00332749  -0.559096 -0.83802 0.00644338  -0.582262 -0.881771 0.00588834  -0.606342 -0.819233 0.00772631  -0.607278 -0.819872 0.00559592  -0.512574 -0.856494 0.00517964  -0.630698 -0.863006 0.00511217  -0.583173 -0.882326 0.00420475  -0.559314 -0.946051 0.00298822  -0.606495 -0.926558 0.00380576  -0.582539 -0.991269 0.00265515  -0.605634 -0.926036 0.00535583  -0.629213 -0.970828 0.00485826  -0.653481 -0.906204 0.00647533  -0.654306 -0.906741 0.00464678  -0.558425 -0.945559 0.00425339  -0.678091 -0.950989 0.00420833  -0.630015 -0.971291 0.00342107  -0.60597 -1.03693 0.00235045  -0.653728 -1.01651 0.00306225  -0.629611 -1.08302 0.0020535  -0.652971 -1.01607 0.00437772  -0.676914 -1.06179 0.00393081  -0.701316 -0.995319 0.00534534  -0.702039 -0.995768 0.00378513  -0.605189 -1.03653 0.00341725  -0.726142 -1.041 0.00339174  -0.677613 -1.06217 0.00271368  -0.653426 -1.1295 0.00178134  -0.701661 -1.10826 0.00239182  -0.677425 -1.17634 0.00151312  -0.701006 -1.10789 0.00349748  -0.725261 -1.15441 0.00309265  -0.749755 -1.08633 0.0043298  -0.750382 -1.0867 0.00301254  -0.652746 -1.12916 0.00267208  -0.774756 -1.13281 0.00265872  -0.725861 -1.15473 0.00207603  -0.701566 -1.22352 0.0012691  -0.750191 -1.20157 0.00178671  -0.72586 -1.27102 0.00102723  -0.749629 -1.20127 0.00270545  -0.774132 -1.24849 0.00234568  -0.798704 -1.17902 0.00341463  -0.799241 -1.17932 0.00231791  -0.700982 -1.22325 0.00199938  -0.823836 -1.22618 0.00199842  -0.774649 -1.24875 0.0015043  -0.750269 -1.31881 0.000809431  -0.799208 -1.29624 0.00124323  -0.774803 -1.36686 0.000588894  -0.798729 -1.296 0.00199246  -0.823438 -1.34382 0.00166869  -0.848061 -1.27316 0.00258803  -0.848515 -1.2734 0.00169039  -0.74977 -1.31859 0.00139832  -0.873287 -1.32092 0.00139904  -0.823874 -1.34403 0.000986099  -0.799426 -1.41516 0.000393987  -0.848614 -1.39209 0.000754595  -0.824143 -1.46369 0.000203252  -0.848212 -1.39189 0.00135481  -0.873072 -1.44023 0.00106835  -0.897739 -1.36855 0.00185156  -0.89812 -1.36875 0.00112391  -0.799001 -1.41499 0.000860095  -0.923017 -1.41683 0.000866771  -0.873433 -1.44039 0.000529051  -0.848924 -1.51242 2.99215e-05  -0.898303 -1.48892 0.00032258  -0.87377 -1.56134 -0.000141621  -0.897969 -1.48876 0.000790954  -0.922934 -1.53753 0.000538349  -0.947642 -1.46502 0.00119293  -0.947955 -1.46517 0.000621319  -0.848568 -1.51229 0.000386  -0.972937 -1.51372 0.000395179  -0.923227 -1.53765 0.00011909  -0.898659 -1.61042 -0.000294685  -0.948181 -1.58657 -6.19888e-05  -0.923594 -1.65966 -0.000445485  -0.947914 -1.58645 0.000292063  -0.972939 -1.63557 7.18832e-05  -0.997684 -1.56238 0.000616074  -0.997934 -1.56249 0.000179887  -0.89837 -1.61033 -3.03984e-05  -1.02296 -1.61144 -2.46763e-05  -0.973171 -1.63566 -0.000240326  -0.948546 -1.70902 -0.000575423  -0.998171 -1.6849 -0.000400543  -0.973525 -1.7585 -0.000708342  -0.997958 -1.68481 -0.000143409  -1.023 -1.73421 -0.000332355  -1.04779 -1.66048 0.000105619  -1.04799 -1.66056 -0.000213385  -0.948316 -1.70895 -0.000394344  -1.07302 -1.70983 -0.000391483  -1.02318 -1.73426 -0.000553012  -0.998496 -1.80808 -0.000818133  -1.04818 -1.78375 -0.000688195  -1.02348 -1.85774 -0.000932813  -1.04803 -1.78369 -0.000515223  -1.07306 -1.8333 -0.000674725  -1.09789 -1.75918 -0.000333786  -1.09803 -1.75923 -0.00055182  -0.99832 -1.80804 -0.000704765  -1.12305 -1.80874 -0.000702143  -1.07319 -1.83333 -0.000821829  -1.04844 -1.90747 -0.00102353  -1.09817 -1.883 -0.000932217  -1.07341 -1.95726 -0.00111675  -1.09806 -1.88296 -0.00082922  -1.12305 -1.93272 -0.000959635  -1.14792 -1.85832 -0.000701547  -1.14802 -1.85835 -0.00083828  -1.04831 -1.90745 -0.000964999  -1.17298 -1.90804 -0.000962853  -1.12314 -1.93273 -0.00104487  -1.09833 -2.00709 -0.0011915  -1.14807 -1.98252 -0.00113618  -1.12324 -2.05695 -0.00126505  -1.14799 -1.9825 -0.00108445  -1.17292 -2.03235 -0.00118804  -1.19783 -1.95779 -0.00100541  -1.1979 -1.9578 -0.00107491  -1.09824 -2.00709 -0.00117588  -1.2228 -2.0076 -0.0011791  -1.17298 -2.03235 -0.00122678  -1.14811 -2.10682 -0.00132442  -1.19784 -2.0822 -0.00129962  -1.17294 -2.15671 -0.00138271  -1.19779 -2.0822 -0.00128806  -1.22264 -2.1321 -0.00136387  -1.24759 -2.05747 -0.00124383  -1.24764 -2.05745 -0.00126743  -1.14804 -2.10684 -0.00133634  -1.27245 -2.10733 -0.00134647  -1.22267 -2.13208 -0.00137103  -1.19773 -2.20659 -0.00141835  -1.24745 -2.18196 -0.00141847  -1.22249 -2.25646 -0.00146198  -1.24742 -2.18196 -0.00143015  -1.27219 -2.23185 -0.00147808  -1.29718 -2.15724 -0.0014137  -1.2972 -2.15721 -0.00140548  -1.1977 -2.20662 -0.00145209  -1.32193 -2.2071 -0.00146306  -1.2722 -2.23182 -0.00146711  -1.24719 -2.3063 -0.00148773  -1.29689 -2.28167 -0.00149834  -1.27186 -2.35611 -0.00151336  -1.29688 -2.28169 -0.00152385  -1.32156 -2.33154 -0.00154912  -1.34659 -2.25701 -0.00152683  -1.3466 -2.25697 -0.00150061  -1.24717 -2.30634 -0.00152433  -1.37125 -2.30683 -0.00154316  -1.32156 -2.3315 -0.00153422  -1.29648 -2.40588 -0.00152564  -1.34617 -2.38129 -0.00155008  -1.32108 -2.45562 -0.00154793  -1.34616 -2.38131 -0.00157487  -1.37077 -2.43108 -0.00159061  -1.39584 -2.35669 -0.00159001  -1.39584 -2.35664 -0.00156188  -1.29647 -2.40593 -0.00156498  -1.42044 -2.40643 -0.00159025  -1.37077 -2.43104 -0.00157475  -1.34563 -2.50531 -0.00155795  -1.39532 -2.48075 -0.00158441  -1.37018 -2.55496 -0.0015744  -1.39532 -2.48077 -0.00160635  -1.41989 -2.53046 -0.00161672  -1.445 -2.45621 -0.00162411  -1.445 -2.45616 -0.00159848  -1.34563 -2.50535 -0.00159013  -1.46957 -2.50585 -0.00162017  -1.41989 -2.53042 -0.00160432  -0.00324782 -0.00315891 0.00321174  -0.00449262 -0.00439148 0.00412762  -0.00841443 -0.0111828 0.00604522  -0.00442223 -0.00376303 0.00572026  -0.0118949 -0.0125371 0.0106105  0 0 0  0 0 0  -0.00323596 -0.00255515 0.00447309  0 0 0  -0.0118121 -0.0137418 0.00772691  -0.0151776 -0.0232643 0.00839019  -0.0219 -0.0262938 0.0106388  -0.0234938 -0.0382813 0.0100826  -0.0219477 -0.0243294 0.0146983  -0.0332368 -0.0384206 0.0174092  -0.0151851 -0.0216421 0.0115713  -0.0332245 -0.0408926 0.012704  -0.032676 -0.0554759 0.0112199  -0.0453974 -0.0574416 0.0141068  -0.0427074 -0.0749667 0.0118406  -0.0451949 -0.0546125 0.0192374  -0.0577596 -0.0729735 0.0201246  -0.0324773 -0.0530304 0.0152686  -0.0581327 -0.0759947 0.0148546  -0.0532852 -0.096343 0.0120195  -0.0712781 -0.096444 0.0150981  -0.0644907 -0.119694 0.0119094  -0.0706306 -0.0933403 0.0203232  -0.0839931 -0.115741 0.0200648  -0.0526701 -0.0935401 0.0161697  -0.0848432 -0.118814 0.0149512  -0.076223 -0.144796 0.0115294  -0.0988521 -0.142961 0.0145086  -0.0885642 -0.171627 0.0110265  -0.0977574 -0.139961 0.0193903  -0.11202 -0.165971 0.018553  -0.0751617 -0.142007 0.0154048  -0.113287 -0.16882 0.0138916  -0.101452 -0.199994 0.010399  -0.128187 -0.19624 0.0131394  -0.114955 -0.229873 0.0097388  -0.126752 -0.193534 0.0175163  -0.141975 -0.22264 0.0164676  -0.100051 -0.197428 0.0138613  -0.143523 -0.225148 0.0123403  -0.129001 -0.261082 0.00904763  -0.159304 -0.255421 0.0115062  -0.143643 -0.293609 0.00836718  -0.157669 -0.253071 0.0153526  -0.173837 -0.284848 0.0142907  -0.1274 -0.258819 0.0120739  -0.175523 -0.286994 0.0106883  -0.158812 -0.327306 0.00770831  -0.192168 -0.319777 0.00989032  -0.174553 -0.362166 0.00707603  -0.19046 -0.317778 0.0132349  -0.207539 -0.351902 0.0122564  -0.157135 -0.325358 0.0103241  -0.20925 -0.353714 0.00913036  -0.190801 -0.398062 0.00648391  -0.226748 -0.388731 0.00841558  -0.207592 -0.43499 0.00592422  -0.225056 -0.387045 0.011315  -0.243023 -0.423258 0.010447  -0.189138 -0.396405 0.00873446  -0.244682 -0.42478 0.00773978  -0.224872 -0.472846 0.0054096  -0.263023 -0.461799 0.00711691  -0.242668 -0.511619 0.00492287  -0.261407 -0.460381 0.00962663  -0.280229 -0.498466 0.00887322  -0.223281 -0.471444 0.00734186  -0.28179 -0.499744 0.00653219  -0.26093 -0.55122 0.00448132  -0.300953 -0.538559 0.00599408  -0.279678 -0.591636 0.0040611  -0.299448 -0.537364 0.00816345  -0.319091 -0.577127 0.00751019  -0.259445 -0.550034 0.00613487  -0.320532 -0.578203 0.0054853  -0.298865 -0.632788 0.00368011  -0.340488 -0.618623 0.00501966  -0.318507 -0.674663 0.00331545  -0.339108 -0.617613 0.00689304  -0.359528 -0.658877 0.00632143  -0.297503 -0.631784 0.00509334  -0.360839 -0.659782 0.00457621  -0.338556 -0.717192 0.00298369  -0.381544 -0.701636 0.00416827  -0.359027 -0.760362 0.00266361  -0.380294 -0.700781 0.00578237  -0.401442 -0.743383 0.0052824  -0.337321 -0.716342 0.00418818  -0.402621 -0.744148 0.00378025  -0.37987 -0.804108 0.00237811  -0.424025 -0.787277 0.00342155  -0.401099 -0.848417 0.00209546  -0.422903 -0.786552 0.00480556  -0.444713 -0.830344 0.0043633  -0.37876 -0.803387 0.00339746  -0.445768 -0.830988 0.00307584  -0.422661 -0.893233 0.00184274  -0.467809 -0.875244 0.00276172  -0.444573 -0.938544 0.00159287  -0.46681 -0.874632 0.00393975  -0.489225 -0.919472 0.00354588  -0.42167 -0.892625 0.00270033  -0.490158 -0.920015 0.00245309  -0.46678 -0.984296 0.00136817  -0.51277 -0.965264 0.00217211  -0.489295 -1.03048 0.00114655  -0.511886 -0.964746 0.00317025  -0.534836 -1.01051 0.0028162  -0.465903 -0.983785 0.00208271  -0.535659 -1.01096 0.00189519  -0.512071 -1.07705 0.000949383  -0.558776 -1.05708 0.00164604  -0.535119 -1.12399 0.000751257  -0.558001 -1.05665 0.00247931  -0.581418 -1.10322 0.00216579  -0.5113 -1.07662 0.00153422  -0.582137 -1.1036 0.00139689  -0.558386 -1.17126 0.00057292  -0.60569 -1.15047 0.00117242  -0.581887 -1.21885 0.000395179  -0.605016 -1.15011 0.00186181  -0.628833 -1.19737 0.0015831  -0.557716 -1.1709 0.00104666  -0.629459 -1.19768 0.000951052  -0.605577 -1.26672 0.000236869  -0.653383 -1.24521 0.000747561  -0.62946 -1.31486 7.96318e-05  -0.6528 -1.24491 0.00130928  -0.676955 -1.29278 0.00105953  -0.604996 -1.26643 0.000610709  -0.677488 -1.29303 0.000549078  -0.653496 -1.36324 -6.02007e-05  -0.701719 -1.34111 0.000369191  -0.677693 -1.41185 -0.00020206  -0.701221 -1.34087 0.000816464  -0.725647 -1.38924 0.000594378  -0.652999 -1.36301 0.000226498  -0.726099 -1.38944 0.000189424  -0.702012 -1.46066 -0.000322104  -0.750574 -1.43799 3.12328e-05  -0.726458 -1.50965 -0.000447273  -0.750156 -1.4378 0.000377655  -0.774792 -1.48659 0.000184894  -0.70159 -1.46047 -0.000111461  -0.775173 -1.48675 -0.000126123  -0.750995 -1.5588 -0.000552535  -0.799836 -1.53569 -0.000264168  -0.775632 -1.60811 -0.000663996  -0.799486 -1.53554 -5.72205e-06  -0.824281 -1.58468 -0.000177145  -0.750643 -1.55866 -0.000407815  -0.824592 -1.5848 -0.000406384  -0.800328 -1.65753 -0.000759363  -0.849389 -1.63405 -0.000528216  -0.825101 -1.70708 -0.000854015  -0.849102 -1.63393 -0.000341654  -0.874007 -1.68335 -0.000491261  -0.800042 -1.65743 -0.000667334  -0.874256 -1.68344 -0.000652909  -0.849909 -1.75672 -0.000932813  -0.899141 -1.73294 -0.00075841  -0.874767 -1.80645 -0.00101566  -0.898911 -1.73285 -0.000636935  -0.923873 -1.78248 -0.000761986  -0.849678 -1.75664 -0.000887871  -0.924069 -1.78254 -0.000863671  -0.899635 -1.85623 -0.00108063  -0.948993 -1.83222 -0.000953913  -0.924532 -1.90608 -0.00115252  -0.948819 -1.83216 -0.000886202  -0.973799 -1.88194 -0.000988722  -0.899456 -1.85619 -0.0010736  -0.973945 -1.88197 -0.00104439  -0.949421 -1.95597 -0.00120389  -0.998876 -1.93178 -0.00111949  -0.974322 -2.00589 -0.00126314  -0.998747 -1.93173 -0.00109041  -1.02371 -1.98162 -0.00117052  -0.949289 -1.95594 -0.00122392  -1.02382 -1.98163 -0.001194  -0.999202 -2.05583 -0.00130475  -1.04872 -2.03151 -0.00125051  -1.02408 -2.10578 -0.00134921  -1.04863 -2.03149 -0.00125408  -1.07355 -2.08141 -0.0013144  -0.999108 -2.05582 -0.00134242  -1.07362 -2.08141 -0.00131178  -1.04891 -2.15572 -0.00137794  -1.09847 -2.13132 -0.00135398  -1.07373 -2.20566 -0.00141013  -1.09842 -2.13131 -0.00137734  -1.12328 -2.18124 -0.00142217  -1.04885 -2.15573 -0.00142682  -1.12331 -2.18122 -0.00140071  -1.0985 -2.25557 -0.00142908  -1.14809 -2.23112 -0.0014292  -1.12325 -2.30546 -0.0014534  -1.14806 -2.23112 -0.00146389  -1.17284 -2.28102 -0.00148833  -1.09847 -2.25559 -0.00148356  -1.17286 -2.28099 -0.00146186  -1.14795 -2.35532 -0.00146449  -1.19755 -2.33083 -0.00147784  -1.17262 -2.40513 -0.00148022  -1.19754 -2.33085 -0.00151479  -1.22223 -2.38068 -0.00152922  -1.14793 -2.35535 -0.00151598  -1.22223 -2.38065 -0.00150299  -1.19722 -2.4549 -0.00148499  -1.24684 -2.43041 -0.00151122  -1.2218 -2.50462 -0.00149536  -1.24684 -2.43043 -0.00154364  -1.27144 -2.48018 -0.00154889  -1.19722 -2.45494 -0.00152552  -1.27143 -2.48014 -0.00152779  -1.24633 -2.55428 -0.00149977  -1.29597 -2.52981 -0.0015341  -1.27084 -2.60389 -0.0015099  -1.29597 -2.52984 -0.00156081  -1.32052 -2.57948 -0.00156701  -1.24633 -2.55432 -0.00153434  -1.32052 -2.57944 -0.00154924  -0.00100862 -0.00268996 0.00152934  -0.00200361 -0.00265247 0.00238419  -0.00253085 -0.0103126 0.00291061  -0.00196367 -0.00215861 0.00328922  -0.00507903 -0.00929675 0.00612664  0 0 0  0 0 0  -0.00097876 -0.00223467 0.00210011  0 0 0  -0.00507496 -0.0102719 0.00445688  -0.00468086 -0.0223025 0.00405967  -0.00948267 -0.0222122 0.00620508  -0.00775923 -0.0376319 0.00495934  -0.00940035 -0.0207482 0.00857615  -0.0149017 -0.0354221 0.010255  -0.00453791 -0.0210078 0.00558531  -0.0149522 -0.0372973 0.00749886  -0.0115769 -0.0558605 0.00556481  -0.0215366 -0.0550672 0.0083667  -0.0163193 -0.0765838 0.00591922  -0.0212677 -0.0528417 0.0113987  -0.028464 -0.0727457 0.011977  -0.0112274 -0.0538871 0.00756407  -0.0288515 -0.0751841 0.00885105  -0.0218243 -0.0994274 0.00602174  -0.0369639 -0.097363 0.00899565  -0.0281997 -0.124323 0.00595856  -0.0363185 -0.0947636 0.0121001  -0.0448989 -0.118888 0.0119438  -0.0211377 -0.0970495 0.00809121  -0.045729 -0.121521 0.00890303  -0.0353529 -0.150987 0.0057354  -0.0552115 -0.147464 0.00860775  -0.0433773 -0.179422 0.00543499  -0.0541623 -0.144819 0.011502  -0.0641709 -0.172576 0.0109617  -0.0343098 -0.148501 0.0076586  -0.0653825 -0.175135 0.00820363  -0.0521993 -0.209391 0.00505865  -0.0762655 -0.204357 0.00770462  -0.0618901 -0.2409 0.00465691  -0.0749032 -0.201869 0.010282  -0.086391 -0.232743 0.00959408  -0.0508785 -0.207006 0.00674713  -0.0878597 -0.235083 0.0071739  -0.0723692 -0.273742 0.00423813  -0.100147 -0.267155 0.00662184  -0.0836901 -0.307922 0.00382078  -0.0986012 -0.264922 0.00885904  -0.111542 -0.298471 0.00815964  -0.0708829 -0.271566 0.00567377  -0.113135 -0.300537 0.00607705  -0.0957712 -0.343261 0.00341797  -0.126784 -0.335096 0.00554717  -0.108648 -0.379766 0.00303197  -0.125168 -0.333141 0.007465  -0.139491 -0.369012 0.00681734  -0.0942208 -0.341336 0.00461781  -0.141106 -0.3708 0.00504184  -0.122236 -0.417286 0.00267565  -0.156048 -0.407539 0.00456774  -0.136567 -0.455823 0.00233555  -0.154447 -0.405855 0.00619745  -0.17006 -0.443755 0.00562739  -0.120699 -0.415611 0.00366235  -0.17163 -0.445289 0.0041194  -0.151567 -0.495251 0.00202894  -0.187792 -0.483955 0.00371003  -0.167256 -0.53557 0.0017364  -0.186262 -0.482513 0.00508988  -0.203076 -0.522204 0.00459647  -0.150096 -0.493807 0.00283217  -0.204556 -0.523512 0.00332284  -0.183564 -0.57667 0.00147915  -0.22186 -0.563884 0.00297248  -0.200506 -0.61855 0.00123143  -0.22043 -0.56265 0.0041337  -0.238356 -0.603923 0.00371361  -0.182186 -0.575429 0.00212598  -0.239725 -0.60504 0.00264156  -0.218015 -0.661113 0.00101376  -0.258092 -0.646914 0.00234187  -0.236107 -0.704357 0.000804782  -0.25678 -0.645859 0.00331795  -0.27573 -0.688527 0.00295508  -0.216747 -0.660048 0.00152934  -0.276979 -0.689479 0.00205541  -0.254717 -0.748201 0.000623226  -0.296325 -0.732678 0.0017997  -0.273858 -0.792634 0.000445127  -0.295133 -0.731775 0.00261414  -0.315022 -0.775672 0.00230134  -0.253564 -0.747288 0.00102663  -0.31615 -0.776483 0.00155139  -0.293467 -0.837589 0.000289917  -0.336391 -0.820843 0.0013299  -0.313557 -0.88306 0.00013721  -0.335319 -0.820074 0.00200534  -0.356059 -0.865046 0.00173211  -0.29243 -0.836809 0.000599146  -0.357068 -0.865735 0.00111282  -0.334063 -0.928978 6.55651e-06  -0.378115 -0.91111 0.000920296  -0.355 -0.975339 -0.000127196  -0.377158 -0.910452 0.00147426  -0.398658 -0.956363 0.00123715  -0.333135 -0.92831 0.000236154  -0.399557 -0.956948 0.000730276  -0.376306 -1.02208 -0.000239134  -0.421324 -1.0032 0.000562191  -0.39799 -1.06921 -0.000352383  -0.420477 -1.00264 0.00100851  -0.44265 -1.04937 0.00080061  -0.375481 -1.02152 -7.79629e-05  -0.443439 -1.04986 0.000393748  -0.419999 -1.11667 -0.000451207  -0.465843 -1.09688 0.000245094  -0.44234 -1.16445 -0.000551343  -0.465098 -1.0964 0.000599623  -0.48786 -1.14382 0.000416517  -0.419275 -1.11619 -0.000347853  -0.488551 -1.14424 9.59635e-05  -0.464958 -1.21251 -0.000630736  -0.511502 -1.19191 -3.40939e-05  -0.487864 -1.26084 -0.000719786  -0.510854 -1.19151 0.000239491  -0.53412 -1.23952 8.03471e-05  -0.464326 -1.2121 -0.000579357  -0.53472 -1.23987 -0.000164866  -0.511004 -1.3094 -0.00079  -0.55814 -1.28809 -0.000280619  -0.534387 -1.35819 -0.000865579  -0.557581 -1.28775 -7.76052e-05  -0.581276 -1.33627 -0.000217438  -0.510458 -1.30906 -0.000778317  -0.581787 -1.33655 -0.000396132  -0.557965 -1.40717 -0.000927091  -0.6056 -1.38524 -0.000496387  -0.581747 -1.45633 -0.000994205  -0.605122 -1.38496 -0.000356197  -0.629167 -1.43389 -0.000476003  -0.557497 -1.40689 -0.000947356  -0.629603 -1.43412 -0.000601292  -0.605686 -1.50565 -0.00104499  -0.653736 -1.48319 -0.000686526  -0.629789 -1.55511 -0.00110233  -0.653332 -1.48296 -0.000595212  -0.677659 -1.53223 -0.00070107  -0.605291 -1.50542 -0.00109279  -0.678022 -1.53241 -0.000776291  -0.654012 -1.6047 -0.00114334  -0.702407 -1.58178 -0.000851989  -0.678371 -1.6544 -0.00119054  -0.702072 -1.5816 -0.00080502  -0.726618 -1.63114 -0.00089252  -0.653686 -1.60452 -0.00121355  -0.726916 -1.63128 -0.000929952  -0.702816 -1.70418 -0.0012238  -0.751491 -1.68089 -0.00099349  -0.727362 -1.75405 -0.00126469  -0.751218 -1.68074 -0.000983834  -0.775921 -1.73048 -0.00105512  -0.702548 -1.70404 -0.00131011  -0.776158 -1.73059 -0.00106072  -0.75197 -1.80397 -0.00129378  -0.800869 -1.78038 -0.00111759  -0.776647 -1.85395 -0.00132978  -0.800651 -1.78026 -0.00113297  -0.825459 -1.83015 -0.00119472  -0.751755 -1.80387 -0.00138855  -0.825645 -1.83023 -0.00117505  -0.801357 -1.90397 -0.00134754  -0.850439 -1.88013 -0.00121891  -0.826118 -1.95403 -0.00137615  -0.85027 -1.88005 -0.00125575  -0.875139 -1.93003 -0.00130379  -0.801192 -1.9039 -0.00144994  -0.875278 -1.93008 -0.00126708  -0.850885 -2.00409 -0.00138843  -0.900106 -1.98005 -0.00130022  -0.875682 -2.05416 -0.00140798  -0.899983 -1.98 -0.00135279  -0.924866 -2.03002 -0.0013864  -0.850763 -2.00404 -0.00148737  -0.924963 -2.03005 -0.00133872  -0.900469 -2.10423 -0.00141585  -0.9498 -2.08005 -0.00136125  -0.925268 -2.15429 -0.00143194  -0.949714 -2.08001 -0.00142157  -0.97458 -2.13004 -0.00144506  -0.900383 -2.1042 -0.00151134  -0.974644 -2.13005 -0.0013932  -0.950041 -2.20432 -0.00143278  -0.999445 -2.18004 -0.0014087  -0.974802 -2.25433 -0.00144601  -0.999393 -2.18002 -0.00147188  -1.02421 -2.23002 -0.00148213  -0.94998 -2.20431 -0.0015198  -1.02425 -2.23001 -0.00143087  -0.999529 -2.3043 -0.00144088  -1.04899 -2.27995 -0.00143707  -1.02424 -2.35424 -0.00144482  -1.04897 -2.27994 -0.00149643  -1.07372 -2.32988 -0.00149775  -0.999501 -2.30431 -0.00152063  -1.07373 -2.32986 -0.00145376  -1.0489 -2.40412 -0.0014385  -1.09841 -2.37973 -0.00145519  -1.07354 -2.45396 -0.00144303  -1.0984 -2.37974 -0.00150502  -1.12307 -2.42958 -0.00149739  -1.04889 -2.40414 -0.00150168  -1.12307 -2.42956 -0.00146592  -1.09812 -2.50374 -0.00143182  -1.14766 -2.47933 -0.00146198  -1.12267 -2.55346 -0.00143266  -1.14766 -2.47934 -0.0014987  -1.17224 -2.52908 -0.00149167  -1.09812 -2.50376 -0.00148046  -1.17223 -2.52905 -0.00147092  -1.14715 -2.60311 -0.00142539  -1.19673 -2.57871 -0.00146627  -1.17161 -2.65269 -0.00143051  -1.19673 -2.57872 -0.00149286  -1.22122 -2.62832 -0.00148594  -1.14716 -2.60313 -0.00145924  -1.22122 -2.62829 -0.00147593  0.000911005 -0.00389269 -0.000106096  -4.10154e-06 -0.00313482 0.000734925  0.00237757 -0.0125937 -0.000112772  4.00916e-05 -0.00274631 0.000966072  0.0001802 -0.0103638 0.00183451  0 0 0  0 0 0  0.000958271 -0.00353575 -0.000207067  0 0 0  0.000106916 -0.0111434 0.00137579  0.00415336 -0.0255457 -0.000118971  -0.000109971 -0.023506 0.00196457  0.0056558 -0.0417689 -1.07288e-06  0.000140116 -0.0223322 0.00265515  -0.000482932 -0.037689 0.003317  0.00446714 -0.0244587 -0.000203371  -0.000774071 -0.0392134 0.0024451  0.00668269 -0.061049 9.46522e-05  -0.00223434 -0.0579493 0.00279975  0.00691786 -0.0827737 0.000188708  -0.00174555 -0.0561065 0.00379372  -0.00384083 -0.077096 0.00407958  0.00727874 -0.0593313 0.000121832  -0.00442106 -0.0791615 0.00301647  0.00628051 -0.106763 0.000218272  -0.00752848 -0.102605 0.00308585  0.00463825 -0.132808 0.000199199  -0.00675854 -0.100345 0.00414622  -0.010601 -0.125751 0.00409043  0.00712603 -0.104632 0.000288725  -0.0115008 -0.12809 0.00304615  0.00198972 -0.160689 0.000122547  -0.0164192 -0.155405 0.00289917  -0.00174266 -0.190372 8.46386e-06  -0.0153601 -0.153 0.00387776  -0.0210949 -0.182117 0.00361371  0.0030632 -0.158389 0.000157833  -0.0222698 -0.184485 0.00269568  -0.00651091 -0.221627 -0.000138164  -0.0290724 -0.215141 0.00243735  -0.0123743 -0.254462 -0.000301361  -0.0277889 -0.212793 0.00326908  -0.035469 -0.245092 0.00291622  -0.00525904 -0.219354 -0.000176072  -0.036831 -0.247333 0.00215876  -0.0192552 -0.288664 -0.000469685  -0.0455166 -0.280893 0.00186729  -0.0271976 -0.324236 -0.000642061  -0.0440977 -0.278721 0.00253439  -0.0536857 -0.313753 0.00216949  -0.0178978 -0.286536 -0.000593543  -0.0551386 -0.315787 0.00157738  -0.0361094 -0.360991 -0.000801682  -0.0656421 -0.351867 0.00129724  -0.0460243 -0.398928 -0.000959754  -0.0641735 -0.349919 0.00180686  -0.0755694 -0.387301 0.00147247  -0.0347139 -0.359064 -0.00100672  -0.077035 -0.389104 0.00102985  -0.0568489 -0.437886 -0.00109589  -0.0892526 -0.427373 0.000782371  -0.0686014 -0.477861 -0.00122476  -0.0877994 -0.425656 0.00115383  -0.100875 -0.465064 0.000865221  -0.055469 -0.436177 -0.00136709  -0.1023 -0.466641 0.000550508  -0.0811976 -0.518717 -0.00133252  -0.116109 -0.506807 0.000342488  -0.09465 -0.560445 -0.00143588  -0.114716 -0.505309 0.000595689  -0.129339 -0.546471 0.000355601  -0.0798733 -0.517216 -0.00165653  -0.130687 -0.54784 0.000146389  -0.108875 -0.60293 -0.00151622  -0.145963 -0.589653 -2.28882e-05  -0.123881 -0.646167 -0.00159287  -0.144661 -0.588353 0.000132918  -0.160698 -0.631035 -6.09159e-05  -0.107633 -0.601623 -0.00187707  -0.16195 -0.632219 -0.000182152  -0.139589 -0.690051 -0.00164783  -0.178569 -0.675459 -0.000320315  -0.156009 -0.73458 -0.001706  -0.177366 -0.674335 -0.000244498  -0.194691 -0.718331 -0.000404239  -0.138443 -0.688914 -0.00203574  -0.195836 -0.719351 -0.000453234  -0.173063 -0.779664 -0.00174248  -0.213678 -0.763829 -0.000562787  -0.190759 -0.825295 -0.00178194  -0.212584 -0.762857 -0.000549793  -0.231072 -0.807986 -0.000674844  -0.172014 -0.778677 -0.00214279  -0.23211 -0.808868 -0.000671029  -0.209026 -0.871399 -0.00180316  -0.251056 -0.854409 -0.000759244  -0.227867 -0.917972 -0.00182831  -0.250068 -0.853569 -0.000795722  -0.269604 -0.899675 -0.000899434  -0.208079 -0.870548 -0.00220883  -0.270534 -0.900433 -0.000848293  -0.247218 -0.964944 -0.00183845  -0.290472 -0.946889 -0.000917196  -0.267082 -1.01231 -0.00185275  -0.289588 -0.946165 -0.000995636  -0.310057 -0.993106 -0.00107789  -0.24637 -0.964208 -0.00224221  -0.310884 -0.993756 -0.00099194  -0.287394 -1.06001 -0.00185275  -0.331697 -1.04099 -0.00104964  -0.308158 -1.10805 -0.00186169  -0.330914 -1.04037 -0.00115657  -0.352205 -1.08802 -0.00122333  -0.286643 -1.05938 -0.00225115  -0.352934 -1.08857 -0.00111067  -0.329314 -1.15636 -0.00185788  -0.374522 -1.13647 -0.00115442  -0.350867 -1.20496 -0.001858  -0.373834 -1.13593 -0.00128758  -0.395843 -1.18418 -0.00133812  -0.328652 -1.15582 -0.00224245  -0.396482 -1.18465 -0.00120544  -0.372758 -1.25378 -0.00184488  -0.41874 -1.2331 -0.00124085  -0.394993 -1.30282 -0.00184417  -0.418141 -1.23265 -0.00139165  -0.440767 -1.28139 -0.00142992  -0.372182 -1.25331 -0.00221777  -0.441321 -1.28179 -0.00128472  -0.417514 -1.35205 -0.0018276  -0.464155 -1.33069 -0.0013119  -0.440329 -1.40147 -0.00182033  -0.463639 -1.33031 -0.00147343  -0.486793 -1.37946 -0.00150204  -0.417019 -1.35166 -0.00217927  -0.487267 -1.3798 -0.00134695  -0.463386 -1.45103 -0.0018034  -0.510585 -1.42907 -0.00136733  -0.486687 -1.50073 -0.00179315  -0.510145 -1.42875 -0.00153577  -0.533738 -1.47823 -0.00155687  -0.46296 -1.4507 -0.00213635  -0.534139 -1.47851 -0.00139534  -0.510186 -1.55055 -0.00177217  -0.557858 -1.52808 -0.0014112  -0.533888 -1.60047 -0.00175905  -0.55749 -1.52781 -0.0015825  -0.581437 -1.57755 -0.00159621  -0.509829 -1.55028 -0.00208271  -0.581771 -1.57777 -0.00143313  -0.557751 -1.65048 -0.00173688  -0.605816 -1.62757 -0.00144374  -0.581776 -1.70056 -0.00172472  -0.605507 -1.62735 -0.00161338  -0.629748 -1.67728 -0.0016191  -0.557454 -1.65025 -0.00202549  -0.630015 -1.67746 -0.00146043  -0.60592 -1.75069 -0.00169957  -0.654312 -1.72742 -0.00146592  -0.630192 -1.80088 -0.00168574  -0.654065 -1.72724 -0.00163317  -0.678515 -1.77731 -0.00163305  -0.605681 -1.75052 -0.00196254  -0.678732 -1.77745 -0.00148046  -0.654554 -1.85109 -0.00166035  -0.703214 -1.82752 -0.00147915  -0.679009 -1.90133 -0.00164497  -0.70302 -1.82738 -0.00163877  -0.727626 -1.87753 -0.00163496  -0.654366 -1.85095 -0.00189948  -0.72779 -1.87763 -0.00149035  -0.703525 -1.95158 -0.00161874  -0.752405 -1.92777 -0.00148773  -0.72811 -2.00183 -0.00160217  -0.752255 -1.92766 -0.00163543  -0.776961 -1.97784 -0.00162542  -0.703384 -1.95147 -0.0018338  -0.777085 -1.97792 -0.00149298  -0.752721 -2.05207 -0.00157642  -0.801775 -2.02807 -0.00148427  -0.77738 -2.1023 -0.00156283  -0.801669 -2.02799 -0.00162113  -0.826426 -2.07817 -0.00160456  -0.752618 -2.05199 -0.0017643  -0.826509 -2.07822 -0.00148821  -0.802044 -2.1525 -0.0015347  -0.851231 -2.12836 -0.00147927  -0.826737 -2.20267 -0.00151968  -0.851163 -2.1283 -0.00160146  -0.875935 -2.17844 -0.00158095  -0.801976 -2.15244 -0.00169325  -0.875984 -2.17847 -0.0014807  -0.851413 -2.25279 -0.00149679  -0.900709 -2.22856 -0.00146937  -0.876096 -2.30288 -0.00147903  -0.900666 -2.22852 -0.00157118  -0.925413 -2.27859 -0.00154877  -0.851372 -2.25277 -0.00162756  -0.925437 -2.2786 -0.00146496  -0.900754 -2.35291 -0.00145221  -0.950127 -2.32861 -0.00145113  -0.925405 -2.4029 -0.00143754  -0.950109 -2.32858 -0.00153589  -0.974811 -2.37857 -0.00150859  -0.900733 -2.3529 -0.00155771  -0.974814 -2.37856 -0.00144482  -0.950015 -2.45282 -0.00141418  -0.99945 -2.42847 -0.00143051  -0.974611 -2.50268 -0.00140274  -0.99945 -2.42846 -0.00149322  -1.02409 -2.47833 -0.00146925  -0.950014 -2.45282 -0.00149429  -1.02407 -2.47832 -0.00142646  -0.999152 -2.55247 -0.00137949  -1.04863 -2.5281 -0.0014118  -1.02366 -2.6022 -0.00136971  -1.04864 -2.5281 -0.00145137  -1.07319 -2.57784 -0.00142765  -0.999159 -2.55248 -0.00143087  -1.07317 -2.57783 -0.00140834  -1.04811 -2.65184 -0.00134623  -1.09763 -2.62748 -0.0013926  -1.07252 -2.70141 -0.00133741  -1.09764 -2.62747 -0.0014137  -1.12207 -2.67706 -0.00138736  -1.04813 -2.65185 -0.00137258  -1.12206 -2.67704 -0.00138628  0.00283713 -0.00647277 -0.00168729  0.00188406 -0.00501364 -0.000863075  0.00728984 -0.017354 -0.00299728  0.00194938 -0.00470185 -0.00131226  0.00508821 -0.0139954 -0.00231826  0 0 0  0 0 0  0.0029052 -0.00614995 -0.00243914  0 0 0  0.00495195 -0.0146587 -0.0015887  0.0129489 -0.0322297 -0.00408888  0.00853539 -0.0284694 -0.00211489  0.0189116 -0.049875 -0.00470829  0.00896223 -0.0274512 -0.00302839  0.0128372 -0.0440291 -0.00333571  0.0134372 -0.031205 -0.00569904  0.0122826 -0.0453698 -0.002406  0.024583 -0.0703827 -0.00509346  0.0155791 -0.0652261 -0.00254214  0.0295778 -0.093114 -0.00526583  0.0163155 -0.0635744 -0.00349092  0.0190333 -0.0855949 -0.00349617  0.0254234 -0.0687592 -0.00693357  0.0182105 -0.0874611 -0.00259066  0.0335814 -0.118061 -0.00532305  0.0198933 -0.111945 -0.00259912  0.036457 -0.145038 -0.00532436  0.0208282 -0.109869 -0.00349736  0.0215525 -0.136301 -0.00347364  0.0345936 -0.116044 -0.00715852  0.0205404 -0.138469 -0.00260389  0.0381322 -0.173875 -0.00528729  0.020067 -0.166861 -0.00261819  0.0385289 -0.20456 -0.00524616  0.0211609 -0.164598 -0.00349247  0.019591 -0.194808 -0.00351334  0.0392516 -0.171679 -0.00706911  0.0184309 -0.197056 -0.00264788  0.0376843 -0.236872 -0.00519335  0.0156356 -0.228874 -0.00269246  0.0355437 -0.270817 -0.00514555  0.0168566 -0.226616 -0.00356436  0.0129253 -0.260096 -0.0036155  0.0388819 -0.23467 -0.00691557  0.0116624 -0.262274 -0.00274348  0.0321841 -0.30618 -0.00508952  0.00654989 -0.297086 -0.00279701  0.0275696 -0.342959 -0.00503993  0.00784349 -0.294952 -0.00367856  0.00160265 -0.331252 -0.00373363  0.0334288 -0.304088 -0.0067513  0.000291765 -0.333271 -0.0028528  0.0217932 -0.38096 -0.00497699  -0.00704986 -0.370675 -0.00290084  0.0148308 -0.420168 -0.0049181  -0.00573158 -0.368722 -0.00378919  -0.0141668 -0.407433 -0.0038296  0.0230479 -0.379034 -0.00657523  -0.0154763 -0.409256 -0.00294614  0.00678027 -0.46042 -0.00484455  -0.0249149 -0.448882 -0.00297773  -0.00237298 -0.501694 -0.00477529  -0.0236185 -0.447134 -0.00386536  -0.0340911 -0.487895 -0.00388253  0.00800896 -0.458684 -0.00637507  -0.0353615 -0.489515 -0.00300562  -0.0125302 -0.543851 -0.0046922  -0.0467397 -0.531041 -0.00301766  -0.0237008 -0.586873 -0.00461245  -0.0454978 -0.529492 -0.00389457  -0.0578456 -0.571996 -0.00388908  -0.0113529 -0.542309 -0.00614917  -0.0590501 -0.573424 -0.00302601  -0.0357915 -0.630637 -0.0045166  -0.0722103 -0.616566 -0.00302017  -0.0488048 -0.675129 -0.00442743  -0.0710429 -0.615204 -0.00387692  -0.0851018 -0.659185 -0.00385034  -0.0346824 -0.629275 -0.00589406  -0.0862235 -0.660436 -0.0030129  -0.0626534 -0.720244 -0.00432348  -0.101007 -0.704951 -0.00298989  -0.0773369 -0.765968 -0.00422692  -0.099926 -0.703758 -0.00381875  -0.115532 -0.748992 -0.00377572  -0.0616263 -0.719045 -0.00562  -0.116562 -0.750085 -0.00297034  -0.0927724 -0.812213 -0.0041182  -0.13281 -0.795762 -0.00293255  -0.108962 -0.858968 -0.00401878  -0.131824 -0.79472 -0.00372946  -0.148824 -0.841011 -0.00367284  -0.0918325 -0.811165 -0.00533032  -0.149758 -0.841961 -0.00290358  -0.125822 -0.906155 -0.00390637  -0.167326 -0.888619 -0.0028584  -0.143357 -0.953764 -0.00380504  -0.166434 -0.88771 -0.00361359  -0.184681 -0.934889 -0.00354707  -0.124971 -0.905238 -0.00503254  -0.185522 -0.935714 -0.00281954  -0.161492 -1.00173 -0.00369203  -0.204267 -0.983196 -0.00276744  -0.180223 -1.05004 -0.00358951  -0.203467 -0.982403 -0.00348055  -0.222822 -1.03032 -0.00340831  -0.160728 -1.00093 -0.00473499  -0.223569 -1.03104 -0.00272369  -0.199484 -1.09865 -0.00347996  -0.243359 -1.07921 -0.00266993  -0.219273 -1.14754 -0.00338149  -0.242649 -1.07852 -0.00333869  -0.262984 -1.12706 -0.00326276  -0.198804 -1.09796 -0.00443828  -0.263643 -1.12767 -0.00262511  -0.239522 -1.19667 -0.00327027  -0.284348 -1.1764 -0.00256729  -0.260235 -1.24602 -0.00317252  -0.283726 -1.17581 -0.00319028  -0.304912 -1.22485 -0.00310993  -0.238926 -1.19607 -0.00414681  -0.305489 -1.22538 -0.00251913  -0.281349 -1.29556 -0.00306773  -0.326992 -1.27457 -0.00246  -0.302862 -1.34528 -0.00297403  -0.32645 -1.27405 -0.00303507  -0.348375 -1.3235 -0.00295532  -0.280828 -1.29504 -0.00386453  -0.348874 -1.32396 -0.00241256  -0.324717 -1.39515 -0.00287104  -0.371062 -1.37351 -0.00235248  -0.346919 -1.44515 -0.00278163  -0.370598 -1.37307 -0.00288141  -0.393154 -1.42284 -0.00279987  -0.324271 -1.39471 -0.00359368  -0.393578 -1.42322 -0.00230432  -0.369406 -1.49526 -0.00268567  -0.416349 -1.47307 -0.0022459  -0.392188 -1.54547 -0.00260139  -0.415955 -1.47269 -0.00272894  -0.439043 -1.5227 -0.00264943  -0.369027 -1.49488 -0.00333273  -0.439402 -1.52303 -0.0022006  -0.41521 -1.59576 -0.00250649  -0.462662 -1.57308 -0.002141  -0.438476 -1.64611 -0.0024246  -0.462331 -1.57276 -0.00257611  -0.48586 -1.62295 -0.00249851  -0.414892 -1.59544 -0.00308168  -0.486153 -1.62322 -0.00209463  -0.461933 -1.69651 -0.00233424  -0.509811 -1.67343 -0.0020386  -0.485592 -1.74695 -0.00225949  -0.509541 -1.67317 -0.00243008  -0.533424 -1.72348 -0.00235331  -0.461675 -1.69625 -0.00284255  -0.533663 -1.7237 -0.00199533  -0.509407 -1.79741 -0.002177  -0.557639 -1.774 -0.00193977  -0.533378 -1.84789 -0.00210512  -0.557423 -1.77378 -0.00228453  -0.581581 -1.82416 -0.00221491  -0.509199 -1.7972 -0.0026195  -0.581766 -1.82434 -0.00189888  -0.557461 -1.89837 -0.00202703  -0.605989 -1.87469 -0.00184786  -0.58167 -1.94885 -0.0019654  -0.60582 -1.87451 -0.00215125  -0.630188 -1.92491 -0.00208235  -0.557302 -1.8982 -0.00241077  -0.630328 -1.92505 -0.0018115  -0.605959 -1.9993 -0.00189161  -0.65473 -1.97541 -0.00176132  -0.630346 -2.04974 -0.00183356  -0.654606 -1.97526 -0.00202227  -0.679121 -2.02564 -0.00195301  -0.605843 -1.99917 -0.00221992  -0.67922 -2.02575 -0.00172257  -0.654781 -2.10014 -0.00176597  -0.703742 -2.07608 -0.0016768  -0.679276 -2.15051 -0.00171328  -0.703656 -2.07596 -0.00189805  -0.728261 -2.1263 -0.00183392  -0.654697 -2.10004 -0.00203776  -0.728326 -2.12637 -0.00164318  -0.703802 -2.20082 -0.00165558  -0.752916 -2.17663 -0.00159931  -0.728365 -2.2511 -0.00160599  -0.752863 -2.17655 -0.00178242  -0.777519 -2.2268 -0.00172138  -0.70375 -2.20075 -0.00187492  -0.777552 -2.22685 -0.00156701  -0.752933 -2.3013 -0.00155437  -0.80217 -2.27703 -0.00152969  -0.777521 -2.35146 -0.00151443  -0.802148 -2.27697 -0.00167596  -0.826804 -2.32712 -0.00161695  -0.752911 -2.30126 -0.00172842  -0.826814 -2.32715 -0.0015018  -0.802094 -2.40154 -0.00146663  -0.851422 -2.37721 -0.00146258  -0.826672 -2.45156 -0.00143147  -0.851418 -2.37717 -0.00157464  -0.876051 -2.4272 -0.00152123  -0.802088 -2.40151 -0.00159609  -0.876041 -2.42721 -0.00143909  -0.851221 -2.50151 -0.00138938  -0.900619 -2.47715 -0.0014075  -0.875761 -2.55139 -0.00136113  -0.90063 -2.47712 -0.00148308  -0.925214 -2.52702 -0.0014354  -0.85123 -2.5015 -0.00148201  -0.925192 -2.52702 -0.0013876  -0.900264 -2.60119 -0.00132644  -0.94971 -2.57682 -0.00135803  -0.92474 -2.65093 -0.00130475  -0.94973 -2.5768 -0.00140238  -0.97424 -2.62655 -0.00136018  -0.900281 -2.60119 -0.00137675  -0.97421 -2.62655 -0.00134134  -0.949159 -2.70057 -0.00126815  -0.998636 -2.6762 -0.00131428  -0.973538 -2.75016 -0.00124419  -0.998659 -2.67618 -0.00132763  -1.02305 -2.72577 -0.00128448  -0.949184 -2.70057 -0.00128663  -1.02302 -2.72577 -0.00129247  0.00506075 -0.0110474 -0.00315607  0.00394124 -0.00842667 -0.00236309  0.0131101 -0.0251937 -0.00564146  0.00404329 -0.00815541 -0.0034765  0.0104509 -0.0201659 -0.00620985  0 0 0  0 0 0  0.00517599 -0.0106456 -0.00448227  0 0 0  0.0102364 -0.0208294 -0.00436032  0.0230794 -0.042786 -0.00771677  0.0178174 -0.0369563 -0.00592053  0.0337842 -0.0621153 -0.00903583  0.0184207 -0.0359425 -0.00832498  0.0268599 -0.0541638 -0.00953829  0.0237309 -0.0416315 -0.0107079  0.0260458 -0.0554782 -0.0069344  0.0440936 -0.0837798 -0.00988412  0.0340298 -0.076562 -0.00754654  0.0536741 -0.10741 -0.0103438  0.0349872 -0.0749366 -0.0102991  0.042348 -0.0979739 -0.0106145  0.0451379 -0.0821023 -0.0134422  0.0412976 -0.0997834 -0.00786626  0.0620862 -0.133069 -0.0105243  0.0475593 -0.125119 -0.00798059  0.069202 -0.160788 -0.01055  0.0486422 -0.123103 -0.0107274  0.0537043 -0.150392 -0.0106803  0.0632347 -0.13107 -0.0141519  0.0525856 -0.152485 -0.00798583  0.0749469 -0.190384 -0.0104465  0.0563369 -0.181733 -0.00791144  0.0792364 -0.221905 -0.0102921  0.0574716 -0.179542 -0.0105618  0.0598728 -0.21066 -0.0103912  0.0761058 -0.188238 -0.0139714  0.0587177 -0.212842 -0.00780451  0.0821112 -0.255124 -0.0100813  0.0597571 -0.24563 -0.00766802  0.0835195 -0.290048 -0.0098561  0.0609283 -0.243432 -0.0102001  0.0606067 -0.277935 -0.00998986  0.0832733 -0.252976 -0.0134393  0.0594237 -0.280067 -0.00752425  0.0835387 -0.326456 -0.0096035  0.0577673 -0.31597 -0.00736845  0.0821307 -0.364329 -0.00935471  0.0589594 -0.313871 -0.00977409  0.0559721 -0.351298 -0.00955057  0.084695 -0.324401 -0.012777  0.0547815 -0.353299 -0.00721371  0.0793936 -0.403472 -0.00908852  0.0505343 -0.391885 -0.00704944  0.0753069 -0.443851 -0.00883198  0.0517216 -0.389943 -0.00932598  0.046201 -0.429853 -0.00909293  0.0805357 -0.401564 -0.0120687  0.0450275 -0.431682 -0.00688672  0.0699693 -0.485298 -0.00856233  0.0383395 -0.472545 -0.00671589  0.0633737 -0.527776 -0.00830376  0.039498 -0.470782 -0.00885975  0.0316116 -0.512781 -0.00862002  0.0710797 -0.483561 -0.0113454  0.0304791 -0.514426 -0.00654817  0.0556222 -0.571143 -0.00803459  0.0215276 -0.557202 -0.00637257  0.0467135 -0.615365 -0.00777674  0.0226358 -0.555623 -0.00838196  0.0125706 -0.599363 -0.0081377  0.0566838 -0.569583 -0.0106212  0.0114969 -0.600828 -0.00620162  0.0367457 -0.66032 -0.0075109  0.000469327 -0.645201 -0.00602138  0.0257213 -0.70598 -0.00725877  0.0015136 -0.643798 -0.00789535  -0.0105404 -0.688985 -0.00764883  0.0377449 -0.658931 -0.00990462  -0.0115439 -0.690282 -0.00584877  0.0137349 -0.752239 -0.00699675  -0.0244589 -0.735983 -0.00566709  0.000794291 -0.799079 -0.00675058  -0.0234898 -0.734741 -0.00740695  -0.0373454 -0.781129 -0.0071609  0.014665 -0.751009 -0.00920379  -0.0382683 -0.782271 -0.00549388  -0.0130121 -0.846407 -0.00649774  -0.0528878 -0.829069 -0.0053122  -0.0276771 -0.894207 -0.00625706  -0.0520009 -0.827976 -0.00692129  -0.067475 -0.87535 -0.00667787  -0.0121589 -0.845321 -0.00852144  -0.068316 -0.876353 -0.00514209  -0.0431169 -0.942399 -0.00601149  -0.0844644 -0.924055 -0.00496459  -0.0593263 -0.990975 -0.00578272  -0.0836612 -0.923095 -0.00644302  -0.100579 -0.971275 -0.00620484  -0.0423441 -0.941444 -0.00786054  -0.101336 -0.972153 -0.00479817  -0.0762233 -1.03986 -0.00554836  -0.118849 -1.02059 -0.00462413  -0.0938007 -1.08906 -0.00532961  -0.11813 -1.01975 -0.00597668  -0.136332 -1.06859 -0.00574744  -0.075527 -1.03903 -0.0072279  -0.137009 -1.06935 -0.0044657  -0.111987 -1.1385 -0.00510502  -0.155731 -1.11839 -0.00429881  -0.130776 -1.18819 -0.00490022  -0.155089 -1.11765 -0.00553012  -0.174425 -1.16701 -0.00530767  -0.111367 -1.13777 -0.00662637  -0.175022 -1.16768 -0.00414455  -0.150095 -1.23806 -0.00468624  -0.194804 -1.2172 -0.00398433  -0.169942 -1.28812 -0.00448847  -0.194242 -1.21655 -0.00509858  -0.214572 -1.26633 -0.00488627  -0.149551 -1.23742 -0.00605571  -0.21509 -1.26691 -0.00383413  -0.190254 -1.33833 -0.00428915  -0.2358 -1.31679 -0.00368404  -0.211026 -1.38867 -0.00410378  -0.235312 -1.31623 -0.00468719  -0.2565 -1.36633 -0.00448513  -0.189782 -1.33777 -0.00551438  -0.256948 -1.36683 -0.00354362  -0.232194 -1.43911 -0.00391567  -0.278457 -1.41699 -0.00339818  -0.25376 -1.48965 -0.00374305  -0.278038 -1.4165 -0.00429571  -0.299964 -1.46684 -0.00410271  -0.231788 -1.43863 -0.00500476  -0.300344 -1.46727 -0.00326562  -0.275659 -1.54026 -0.00356138  -0.322537 -1.51763 -0.00312722  -0.297901 -1.59093 -0.00340378  -0.322185 -1.51722 -0.00392461  -0.344736 -1.56771 -0.00374389  -0.275317 -1.53985 -0.00452185  -0.345053 -1.56808 -0.00300562  -0.320421 -1.64164 -0.00323665  -0.367822 -1.61858 -0.00287604  -0.343226 -1.69238 -0.00308526  -0.367528 -1.61823 -0.00357759  -0.390606 -1.66883 -0.00340569  -0.320138 -1.64129 -0.0040772  -0.390863 -1.66914 -0.00275898  -0.366267 -1.74313 -0.00293219  -0.414108 -1.71972 -0.00263751  -0.389541 -1.79389 -0.00279462  -0.413873 -1.71942 -0.00324869  -0.437376 -1.77007 -0.00308895  -0.366039 -1.74284 -0.00365925  -0.437582 -1.77033 -0.00253117  -0.413003 -1.84464 -0.00265169  -0.461215 -1.82094 -0.00241721  -0.436655 -1.89538 -0.00252593  -0.461027 -1.82069 -0.00294316  -0.484875 -1.87134 -0.00279725  -0.412823 -1.8444 -0.00327551  -0.485033 -1.87155 -0.00231814  -0.460453 -1.94608 -0.00239313  -0.508971 -1.92215 -0.00221503  -0.484402 -1.99676 -0.00228024  -0.50883 -1.92195 -0.00266159  -0.532939 -1.97257 -0.002527  -0.460318 -1.94589 -0.00291979  -0.533053 -1.97273 -0.00212646  -0.50846 -2.04739 -0.00216222  -0.557224 -2.02328 -0.00203097  -0.532632 -2.09798 -0.00205946  -0.557121 -2.02312 -0.00240421  -0.581428 -2.07367 -0.00227737  -0.508361 -2.04724 -0.00259745  -0.581508 -2.0738 -0.001948  -0.556879 -2.14851 -0.00195241  -0.605845 -2.12427 -0.00186217  -0.581213 -2.19899 -0.00186431  -0.605777 -2.12414 -0.00217021  -0.630219 -2.1746 -0.00205648  -0.556813 -2.14839 -0.00230753  -0.630261 -2.17469 -0.00179136  -0.605583 -2.24939 -0.0017693  -0.654705 -2.22506 -0.0017153  -0.630019 -2.29973 -0.00169158  -0.654674 -2.22496 -0.00195885  -0.679198 -2.2753 -0.00185943  -0.605551 -2.2493 -0.00204992  -0.679211 -2.27537 -0.00165415  -0.654472 -2.35 -0.00161099  -0.703717 -2.32561 -0.0015856  -0.678962 -2.40019 -0.00154448  -0.703703 -2.32553 -0.00177312  -0.728265 -2.37574 -0.00168443  -0.65446 -2.34994 -0.0018245  -0.72826 -2.37579 -0.00153267  -0.703444 -2.45031 -0.00147438  -0.752782 -2.42589 -0.00147402  -0.727945 -2.50035 -0.00142157  -0.752792 -2.42584 -0.00160909  -0.777347 -2.4759 -0.0015316  -0.703451 -2.45027 -0.00163198  -0.777327 -2.47593 -0.0014292  -0.752429 -2.5503 -0.00136459  -0.80184 -2.52588 -0.00138342  -0.776915 -2.60019 -0.00132191  -0.801862 -2.52584 -0.00147176  -0.826391 -2.57575 -0.00140488  -0.75245 -2.55028 -0.0014689  -0.826355 -2.57576 -0.0013454  -0.801372 -2.64998 -0.00127518  -0.85083 -2.62557 -0.00130403  -0.82582 -2.69972 -0.00123882  -0.850861 -2.62554 -0.00135207  -0.875337 -2.67529 -0.00129092  -0.801404 -2.64997 -0.00133288  -0.875296 -2.6753 -0.00127316  -0.850225 -2.74937 -0.00119245  -0.899705 -2.72496 -0.00123441  -0.874608 -2.79897 -0.00115621  -0.899737 -2.72493 -0.0012399  -0.92412 -2.77453 -0.00117993  -0.850258 -2.74936 -0.00120771  -0.924083 -2.77454 -0.00120246  0.00802974 -0.0196086 -0.00450468  0.00658846 -0.014528 -0.00368047  0.0215444 -0.0382191 -0.0080142  0.00672743 -0.0142583 -0.00541592  0.0173623 -0.030181 -0.00966454  0 0 0  0 0 0  0.00831214 -0.0189218 -0.00621176  0 0 0  0.0170155 -0.0309628 -0.00684106  0.0366545 -0.0584353 -0.0109315  0.0293064 -0.0498489 -0.00932944  0.0523235 -0.0791539 -0.0129313  0.0300586 -0.04864 -0.0130508  0.04335 -0.0685633 -0.0151335  0.0373858 -0.0569681 -0.0151473  0.0423114 -0.0700225 -0.0110332  0.0671272 -0.101265 -0.0142417  0.0550246 -0.0920165 -0.012117  0.0808763 -0.125405 -0.0150049  0.056126 -0.0902504 -0.0165042  0.0679214 -0.114079 -0.0171826  0.0682721 -0.0994204 -0.0193667  0.0667141 -0.115959 -0.012737  0.0933372 -0.151446 -0.0153519  0.0772647 -0.141869 -0.0129952  0.104325 -0.179702 -0.0154357  0.0784438 -0.139815 -0.0174702  0.0875565 -0.167774 -0.0174649  0.0945694 -0.149391 -0.0206574  0.0863667 -0.169865 -0.0130453  0.113839 -0.209941 -0.0153102  0.0940444 -0.199806 -0.0129293  0.121762 -0.24221 -0.0150768  0.0952104 -0.197639 -0.0172784  0.101345 -0.229552 -0.0169747  0.115036 -0.207806 -0.0204961  0.100191 -0.231696 -0.0127259  0.128135 -0.276294 -0.0147418  0.10484 -0.265356 -0.0124519  0.132903 -0.312148 -0.0143712  0.105983 -0.263204 -0.0165943  0.109088 -0.298651 -0.0161672  0.129289 -0.274188 -0.0196844  0.107959 -0.300738 -0.0121454  0.136129 -0.349572 -0.0139545  0.109595 -0.337659 -0.0118128  0.137788 -0.388498 -0.0135304  0.110718 -0.335603 -0.015713  0.110855 -0.374091 -0.015239  0.137248 -0.347567 -0.0186023  0.109746 -0.376054 -0.0114675  0.137957 -0.428746 -0.013085  0.108472 -0.415754 -0.0111132  0.136634 -0.470248 -0.0126467  0.109574 -0.413843 -0.0147581  0.106866 -0.454887 -0.0142729  0.139047 -0.426887 -0.0174179  0.105787 -0.456692 -0.0107595  0.133907 -0.512838 -0.0121967  0.101766 -0.498719 -0.0104007  0.129782 -0.556466 -0.011762  0.10283 -0.496974 -0.01379  0.0974592 -0.540138 -0.0133049  0.134957 -0.511142 -0.0162125  0.096423 -0.541772 -0.0100476  0.124359 -0.600981 -0.0113175  0.0898426 -0.585722 -0.00969398  0.117642 -0.646339 -0.0108917  0.0908601 -0.584147 -0.0128285  0.0830253 -0.629048 -0.0123521  0.12536 -0.59945 -0.0150203  0.0820419 -0.630515 -0.00934827  0.109735 -0.692414 -0.0104624  0.0731132 -0.67604 -0.00899982  0.100649 -0.739172 -0.0100514  0.0740707 -0.674631 -0.0118868  0.0639868 -0.720947 -0.0114255  0.11068 -0.691046 -0.0138611  0.0630671 -0.722252 -0.00866616  0.0904825 -0.786503 -0.00963748  0.0519979 -0.76906 -0.0083288  0.0792446 -0.834383 -0.00924325  0.0528878 -0.767805 -0.0109761  0.040767 -0.815267 -0.0105299  0.0913595 -0.785285 -0.0127449  0.0399166 -0.816424 -0.00800586  0.0670373 -0.882715 -0.00884771  0.0269175 -0.864267 -0.00768161  0.0538651 -0.931486 -0.00847423  0.0277356 -0.863154 -0.0101001  0.013777 -0.911535 -0.00967205  0.0678453 -0.881637 -0.0116775  0.0130016 -0.912558 -0.00737393  0.039824 -0.980607 -0.0080986  -0.00172973 -0.961229 -0.00706482  0.0249231 -1.03008 -0.00774419  -0.00098753 -0.960244 -0.00926244  -0.0165832 -1.00936 -0.00885451  0.0405607 -0.979656 -0.0106628  -0.0172836 -1.01026 -0.0067718  0.0092504 -1.07981 -0.0073868  -0.0335599 -1.05958 -0.00647628  -0.00718713 -1.12982 -0.00705373  -0.0328928 -1.05871 -0.00846541  -0.0499436 -1.1084 -0.00807929  0.00991261 -1.07897 -0.00969994  -0.0505688 -1.10919 -0.00619996  -0.0243067 -1.18002 -0.00671899  -0.0682139 -1.15902 -0.00591969  -0.0421067 -1.23043 -0.00640738  -0.0676223 -1.15826 -0.00771201  -0.0859572 -1.20838 -0.00734746  -0.0237182 -1.17929 -0.00879729  -0.0865096 -1.20908 -0.00565875  -0.0605001 -1.28098 -0.00609159  -0.10536 -1.2593 -0.00539494  -0.079489 -1.33168 -0.00579596  -0.104838 -1.25863 -0.00700033  -0.1243 -1.30908 -0.00665557  -0.0599818 -1.28034 -0.00794673  -0.124779 -1.30969 -0.00514805  -0.098999 -1.38248 -0.00549984  -0.144684 -1.3602 -0.00489879  -0.11903 -1.43338 -0.00522518  -0.144236 -1.35961 -0.00632882  -0.164674 -1.4103 -0.00600576  -0.0985484 -1.38192 -0.00714707  -0.165089 -1.41083 -0.00467098  -0.139506 -1.48433 -0.00494814  -0.185905 -1.46154 -0.00443757  -0.160436 -1.53535 -0.00469279  -0.18552 -1.46103 -0.00570047  -0.206808 -1.51187 -0.00539815  -0.139122 -1.48385 -0.00640249  -0.207156 -1.51232 -0.00422454  -0.181749 -1.58639 -0.00443685  -0.228757 -1.56316 -0.00400507  -0.203446 -1.63746 -0.00420165  -0.228433 -1.56272 -0.00511479  -0.250439 -1.61365 -0.00483227  -0.181424 -1.58598 -0.00570798  -0.250728 -1.61403 -0.00380623  -0.225464 -1.68853 -0.00396311  -0.272994 -1.66493 -0.00360584  -0.247812 -1.7396 -0.0037452  -0.272727 -1.66456 -0.00456929  -0.295343 -1.71552 -0.00430357  -0.225198 -1.68818 -0.00506604  -0.295576 -1.71584 -0.00341976  -0.270428 -1.79064 -0.00352263  -0.318397 -1.76675 -0.00323212  -0.293319 -1.84167 -0.00332332  -0.318183 -1.76643 -0.00406122  -0.341301 -1.81738 -0.0038178  -0.270214 -1.79035 -0.00446892  -0.341483 -1.81765 -0.00306296  -0.316427 -1.89265 -0.00312006  -0.364763 -1.86853 -0.00289118  -0.339764 -1.94359 -0.00293934  -0.364597 -1.86825 -0.00359476  -0.388123 -1.91914 -0.00337029  -0.31626 -1.8924 -0.00392067  -0.388261 -1.91937 -0.00273526  -0.363271 -1.99447 -0.0027554  -0.411907 -1.97017 -0.00257671  -0.386963 -2.0453 -0.00258958  -0.411787 -1.96995 -0.00316823  -0.435637 -2.02075 -0.00296724  -0.363146 -1.99427 -0.0034219  -0.435733 -2.02093 -0.00244105  -0.410786 -2.09605 -0.00242746  -0.459665 -2.07163 -0.00229824  -0.434752 -2.14675 -0.00228012  -0.459581 -2.07146 -0.00278234  -0.483678 -2.12214 -0.002599  -0.4107 -2.0959 -0.00297213  -0.483738 -2.12228 -0.00217283  -0.458814 -2.19735 -0.00213289  -0.507886 -2.17286 -0.00204706  -0.482986 -2.24789 -0.00200653  -0.507836 -2.17272 -0.00243616  -0.532111 -2.22326 -0.0022732  -0.458761 -2.19724 -0.00257003  -0.532139 -2.22337 -0.00193691  -0.507221 -2.29834 -0.00187778  -0.556441 -2.2738 -0.00182676  -0.531532 -2.34871 -0.00177121  -0.556418 -2.27369 -0.00213039  -0.58081 -2.32409 -0.00198853  -0.507197 -2.29825 -0.00221634  -0.580815 -2.32416 -0.00173557  -0.555878 -2.39899 -0.00166178  -0.605208 -2.37445 -0.00164044  -0.580277 -2.44919 -0.00157142  -0.605208 -2.37436 -0.00186622  -0.629669 -2.42459 -0.00174582  -0.555876 -2.39893 -0.0019145  -0.629656 -2.42465 -0.00156355  -0.604685 -2.4993 -0.00148344  -0.654092 -2.47477 -0.00148308  -0.629119 -2.54932 -0.00141191  -0.654115 -2.4747 -0.00164366  -0.678595 -2.52477 -0.00154066  -0.6047 -2.49926 -0.00166261  -0.678565 -2.5248 -0.00142097  -0.653547 -2.59926 -0.00133979  -0.703012 -2.57475 -0.00135505  -0.677984 -2.64912 -0.00128376  -0.703044 -2.57471 -0.00146019  -0.727523 -2.62461 -0.00137424  -0.653576 -2.59924 -0.00145733  -0.727477 -2.62462 -0.00130522  -0.702403 -2.69889 -0.00122631  -0.751909 -2.67442 -0.00125062  -0.726829 -2.74861 -0.00118101  -0.751952 -2.67438 -0.00130534  -0.776397 -2.72412 -0.00123239  -0.702441 -2.69888 -0.00129008  -0.776352 -2.72414 -0.00121176  -0.751234 -2.79825 -0.00112736  -0.80075 -2.77379 -0.00116432  -0.775644 -2.84786 -0.00108588  -0.800792 -2.77376 -0.00117099  -0.825193 -2.82338 -0.00110054  -0.751274 -2.79824 -0.00114584  -0.825142 -2.82341 -0.00112557  0.0139349 -0.0369244 -0.00583529  0.01093 -0.0262138 -0.00477922  0.0381414 -0.0613007 -0.0103879  0.0110811 -0.0260469 -0.0071975  0.0281808 -0.0474296 -0.0127252  0 0 0  0 0 0  0.013505 -0.0355682 -0.00794101  0 0 0  0.0275079 -0.0483594 -0.00904667  0.058096 -0.0796182 -0.01387  0.0458895 -0.0685043 -0.0124347  0.076407 -0.100417 -0.0165175  0.0465536 -0.0668412 -0.0172546  0.0644503 -0.0875727 -0.0201885  0.0584674 -0.078241 -0.0194331  0.0633561 -0.0893589 -0.0147744  0.0948308 -0.122038 -0.0182351  0.080306 -0.111357 -0.0162976  0.111958 -0.14616 -0.0192938  0.0814128 -0.109343 -0.0221734  0.097147 -0.133426 -0.02324  0.095982 -0.120044 -0.0249598  0.0958929 -0.135487 -0.0172102  0.12804 -0.172566 -0.0197624  0.110222 -0.161714 -0.0176297  0.142629 -0.201266 -0.0199302  0.111458 -0.15956 -0.0237305  0.12429 -0.188033 -0.0238008  0.129326 -0.170381 -0.026706  0.123051 -0.190175 -0.0177422  0.155672 -0.232243 -0.0197682  0.134343 -0.220769 -0.0176082  0.16706 -0.265285 -0.0194962  0.135551 -0.218596 -0.0235817  0.145202 -0.251286 -0.0231819  0.156929 -0.230067 -0.0265509  0.144018 -0.253408 -0.0173405  0.17676 -0.300315 -0.0190485  0.152064 -0.287952 -0.0169572  0.184741 -0.337138 -0.0185786  0.153228 -0.28584 -0.0226519  0.159598 -0.322247 -0.0220419  0.177966 -0.298228 -0.0255069  0.158457 -0.324277 -0.0165206  0.191029 -0.375624 -0.0180097  0.163227 -0.362225 -0.016036  0.195612 -0.415627 -0.0174588  0.164349 -0.36023 -0.0213859  0.167468 -0.399786 -0.0206931  0.192192 -0.373673 -0.0240725  0.166364 -0.40168 -0.0155332  0.19856 -0.456992 -0.0168445  0.167938 -0.442486 -0.015009  0.199866 -0.499616 -0.0162667  0.169025 -0.440639 -0.0199887  0.169011 -0.482805 -0.0192722  0.199684 -0.455202 -0.0224823  0.167946 -0.484543 -0.0144876  0.199637 -0.543337 -0.0156485  0.166481 -0.527702 -0.0139591  0.197857 -0.588088 -0.0150689  0.167529 -0.526019 -0.0185629  0.164568 -0.570317 -0.0178509  0.200718 -0.541714 -0.0208561  0.163545 -0.571889 -0.0134398  0.19466 -0.633707 -0.0144608  0.159248 -0.616963 -0.0129182  0.190025 -0.68016 -0.0138934  0.160248 -0.615445 -0.0171548  0.154556 -0.661459 -0.0164607  0.195691 -0.632252 -0.0192457  0.153589 -0.662869 -0.012412  0.184092 -0.727295 -0.0133039  0.146682 -0.709486 -0.0119075  0.176843 -0.775097 -0.0127572  0.147624 -0.708124 -0.0157866  0.139433 -0.75551 -0.0151178  0.185064 -0.725999 -0.0176803  0.138528 -0.756768 -0.0114206  0.168426 -0.823423 -0.0121934  0.129246 -0.804608 -0.0109351  0.158805 -0.872281 -0.0116712  0.130123 -0.803395 -0.0144726  0.119667 -0.851867 -0.0138333  0.169329 -0.822276 -0.0161813  0.118829 -0.85298 -0.0104696  0.148137 -0.921537 -0.0111355  0.107401 -0.901788 -0.0100089  0.136384 -0.97121 -0.0106419  0.10821 -0.900714 -0.0132205  0.0957159 -0.950029 -0.0126154  0.148971 -0.920525 -0.0147508  0.0949491 -0.951014 -0.00956857  0.123699 -1.02117 -0.0101342  0.0815933 -1.00057 -0.00913048  0.110036 -1.07146 -0.00966716  0.0823312 -0.99962 -0.0120341  0.0680159 -1.04959 -0.0114633  0.12446 -1.02028 -0.0134008  0.0673224 -1.05046 -0.00871527  0.0955541 -1.12196 -0.0091908  0.0522524 -1.10059 -0.00830019  0.0801988 -1.1727 -0.00875258  0.052916 -1.09974 -0.0109143  0.0369841 -1.1502 -0.0103749  0.0962422 -1.12118 -0.0121255  0.0363634 -1.15096 -0.0079087  0.0641212 -1.22358 -0.00830317  0.0197713 -1.20152 -0.00752151  0.0472698 -1.27464 -0.00789249  0.0203593 -1.20078 -0.00986326  0.00299835 -1.25159 -0.00935781  0.0647361 -1.2229 -0.0109307  0.00244808 -1.25226 -0.00715685  0.0297828 -1.32578 -0.00747347  -0.0154862 -1.30312 -0.006791  0.0116088 -1.37705 -0.00708723  -0.0149679 -1.30247 -0.00887716  -0.0335834 -1.35353 -0.00840092  0.0303209 -1.32519 -0.00980949  -0.0340624 -1.35411 -0.0064466  -0.00711131 -1.42835 -0.00669551  -0.0531712 -1.40518 -0.00610673  -0.0264359 -1.47974 -0.00633824  -0.0527205 -1.40461 -0.00795281  -0.0724335 -1.45582 -0.00750983  -0.00663972 -1.42784 -0.00876105  -0.0728464 -1.45632 -0.00578558  -0.0462298 -1.53112 -0.00597608  -0.0929778 -1.50751 -0.00546896  -0.0665545 -1.58254 -0.00564134  -0.092592 -1.50701 -0.0070914  -0.113254 -1.5583 -0.00667834  -0.0458255 -1.53068 -0.00778997  -0.113602 -1.55873 -0.0051713  -0.0872779 -1.63394 -0.00530243  -0.134616 -1.60996 -0.00487566  -0.108463 -1.68535 -0.00499511  -0.134294 -1.60954 -0.00629127  -0.155766 -1.66084 -0.00590754  -0.0869381 -1.63357 -0.00688219  -0.156055 -1.66121 -0.00460112  -0.129983 -1.7367 -0.00468206  -0.17782 -1.71243 -0.00432777  -0.151898 -1.78803 -0.00439978  -0.177556 -1.71207 -0.00554943  -0.199716 -1.76333 -0.00519598  -0.129698 -1.73638 -0.00604308  -0.199951 -1.76364 -0.00407648  -0.174093 -1.83929 -0.00411355  -0.222351 -1.81481 -0.00382173  -0.196626 -1.89052 -0.00385141  -0.222139 -1.8145 -0.00486457  -0.244881 -1.86568 -0.00453818  -0.173866 -1.83903 -0.00527298  -0.245063 -1.86594 -0.00359249  -0.219386 -1.94166 -0.00358999  -0.267991 -1.91701 -0.00336027  -0.242427 -1.99274 -0.00335419  -0.267825 -1.91675 -0.00423658  -0.291039 -1.96782 -0.00393796  -0.219203 -1.94144 -0.00456464  -0.29118 -1.96803 -0.00314915  -0.265646 -2.04373 -0.00311482  -0.314542 -2.01897 -0.00293863  -0.289105 -2.09465 -0.00290728  -0.314417 -2.01876 -0.00366724  -0.338018 -2.06969 -0.00339782  -0.265512 -2.04356 -0.00392318  -0.338115 -2.06985 -0.00275159  -0.3127 -2.14546 -0.00269115  -0.361819 -2.12065 -0.00256312  -0.336484 -2.19619 -0.00250673  -0.361735 -2.12048 -0.00315213  -0.385633 -2.17124 -0.00291204  -0.312606 -2.14533 -0.00334597  -0.385691 -2.17137 -0.0023967  -0.360369 -2.24681 -0.00232005  -0.409665 -2.22199 -0.00223112  -0.384407 -2.29736 -0.00215578  -0.409612 -2.22186 -0.00269806  -0.433737 -2.27245 -0.0024848  -0.360309 -2.24672 -0.00283551  -0.433765 -2.27254 -0.00208402  -0.408513 -2.34778 -0.00199115  -0.45793 -2.32299 -0.0019381  -0.432734 -2.39813 -0.00185466  -0.45791 -2.32289 -0.00229704  -0.482193 -2.37329 -0.00211406  -0.408481 -2.34772 -0.00238562  -0.482194 -2.37335 -0.00181425  -0.456985 -2.44836 -0.00171673  -0.506489 -2.42362 -0.00169289  -0.481327 -2.49851 -0.00160468  -0.506493 -2.42355 -0.00195718  -0.530875 -2.47376 -0.00180352  -0.456976 -2.44832 -0.00200558  -0.530855 -2.4738 -0.0015924  -0.505672 -2.54855 -0.0014894  -0.555228 -2.52389 -0.00149202  -0.530083 -2.59852 -0.00140452  -0.555251 -2.52383 -0.00167286  -0.579683 -2.57386 -0.00154698  -0.50569 -2.54853 -0.00169337  -0.579646 -2.57388 -0.00141108  -0.554479 -2.64838 -0.00131667  -0.604053 -2.6238 -0.00132954  -0.578905 -2.69818 -0.00124896  -0.604089 -2.62375 -0.00144386  -0.628527 -2.67361 -0.00134504  -0.554512 -2.64837 -0.00144506  -0.628481 -2.67363 -0.00127006  -0.603309 -2.7479 -0.00118589  -0.652882 -2.72338 -0.00120604  -0.627727 -2.79757 -0.00113416  -0.65293 -2.72335 -0.00126517  -0.677355 -2.77305 -0.00118446  -0.603351 -2.74789 -0.00125265  -0.677301 -2.77307 -0.00116086  -0.652133 -2.8472 -0.00108087  -0.701705 -2.82271 -0.00110507  -0.676572 -2.89681 -0.00103354  -0.701754 -2.82267 -0.00111878  -0.726189 -2.87231 -0.00104308  -0.652178 -2.84719 -0.00110054  -0.726137 -2.87233 -0.00106263  -0.00668471 -0.00517038 0.00928938  -0.00882785 -0.00951592 0.0113858  -0.0180038 -0.0150368 0.0170425  -0.00950085 -0.0080961 0.0145704  -0.025752 -0.0188102 0.0261279  -0.0206047 -0.0191801 0.0175562  0 0 0  -0.022263 -0.0212614 0.0133173  0 0 0  0 0 0  -0.0068209 -0.00359964 0.0121412  0 0 0  -0.0406807 -0.0317164 0.0236986  -0.0261125 -0.0222774 0.0202755  -0.0311694 -0.0258723 0.0232674  -0.0427363 -0.0326246 0.0275453  -0.0452355 -0.0385458 0.0272906  -0.0427677 -0.0275735 0.0348029  -0.0599901 -0.0383789 0.0399106  -0.0580309 -0.0351441 0.0404274  -0.058827 -0.04037 0.0322778  -0.0319136 -0.021506 0.0291759  -0.0778613 -0.0511455 0.0377043  -0.0597458 -0.0442848 0.0323007  -0.0598393 -0.0534745 0.0296483  -0.076957 -0.057614 0.0350757  -0.0745341 -0.070408 0.0307883  -0.0765612 -0.0512943 0.0428534  -0.0933912 -0.066899 0.0439838  -0.0964659 -0.0561347 0.0500371  -0.0974597 -0.0630143 0.0408669  -0.0598167 -0.0477828 0.0361235  -0.117188 -0.0773006 0.0424076  -0.0942263 -0.073336 0.0363771  -0.0895097 -0.0897498 0.0308371  -0.111791 -0.0913263 0.0364419  -0.104839 -0.111163 0.0303009  -0.110269 -0.0851517 0.043703  -0.127451 -0.105631 0.0427188  -0.135461 -0.0871908 0.0509818  -0.137281 -0.0939421 0.0423278  -0.0881879 -0.0840934 0.0369014  -0.157184 -0.112465 0.0415905  -0.129455 -0.111476 0.0357764  -0.120508 -0.134564 0.0292087  -0.147419 -0.133689 0.0345012  -0.136622 -0.159757 0.0278882  -0.144977 -0.128297 0.0409961  -0.162768 -0.152716 0.0390836  -0.17478 -0.127522 0.0477066  -0.177297 -0.133378 0.039994  -0.118166 -0.12954 0.0346451  -0.197229 -0.155803 0.0382158  -0.165514 -0.157641 0.0329331  -0.153095 -0.186576 0.0263575  -0.183894 -0.183349 0.0311449  -0.16999 -0.2149 0.0247798  -0.180935 -0.178866 0.036883  -0.19934 -0.206465 0.034705  -0.214408 -0.175467 0.0428485  -0.217312 -0.180288 0.0360825  -0.150178 -0.182329 0.0311712  -0.237335 -0.206086 0.0339813  -0.202425 -0.210499 0.0292965  -0.187248 -0.244608 0.023181  -0.221242 -0.239153 0.0274328  -0.204892 -0.275609 0.0216192  -0.218096 -0.235493 0.0324937  -0.23709 -0.265778 0.0303792  -0.25447 -0.22971 0.0377313  -0.257501 -0.233612 0.0318047  -0.184111 -0.241091 0.0274323  -0.277726 -0.262322 0.0297436  -0.240236 -0.269058 0.0256181  -0.222894 -0.307824 0.0201271  -0.259527 -0.300275 0.0238776  -0.241267 -0.341182 0.0186985  -0.256411 -0.29729 0.0283442  -0.275984 -0.329935 0.0264244  -0.295128 -0.28934 0.0329394  -0.298113 -0.292497 0.0277324  -0.219767 -0.304927 0.0238788  -0.318645 -0.323764 0.0258552  -0.279028 -0.332614 0.0222263  -0.259998 -0.375621 0.0173694  -0.298835 -0.366116 0.0206796  -0.279093 -0.411085 0.0161062  -0.29587 -0.363666 0.024622  -0.316023 -0.398429 0.0229268  -0.336525 -0.353726 0.0286636  -0.33936 -0.356302 0.0240793  -0.257014 -0.373227 0.0206791  -0.360275 -0.389846 0.0224231  -0.318878 -0.400635 0.0192232  -0.298539 -0.447523 0.0149475  -0.339233 -0.436196 0.0178736  -0.318344 -0.484886 0.0138464  -0.336482 -0.434168 0.0213526  -0.357214 -0.470852 0.0198687  -0.378761 -0.422391 0.0249156  -0.381398 -0.424516 0.0208752  -0.295763 -0.445534 0.0178627  -0.402747 -0.460112 0.0194274  -0.359843 -0.472686 0.016601  -0.338492 -0.523126 0.0128376  -0.380759 -0.51011 0.0154283  -0.358988 -0.562204 0.0118779  -0.378243 -0.508416 0.0184913  -0.399552 -0.546847 0.0171896  -0.421901 -0.494944 0.0216435  -0.424316 -0.496715 0.018082  -0.33595 -0.521464 0.0153989  -0.446125 -0.534166 0.016816  -0.401939 -0.54838 0.0143181  -0.379811 -0.602071 0.0109973  -0.423422 -0.587495 0.0132874  -0.400971 -0.642691 0.0101534  -0.421143 -0.586071 0.0159786  -0.443009 -0.626086 0.0148319  -0.465975 -0.571042 0.0187653  -0.468162 -0.572527 0.0156331  -0.377507 -0.600674 0.0132393  -0.490438 -0.61166 0.0145187  -0.445163 -0.627377 0.0123111  -0.422439 -0.684018 0.00937688  -0.467188 -0.668015 0.011402  -0.444222 -0.726023 0.00863183  -0.46514 -0.666815 0.0137569  -0.487535 -0.708261 0.0127356  -0.510963 -0.650361 0.016215  -0.512932 -0.651613 0.0134736  -0.420368 -0.682844 0.0113318  -0.535661 -0.692269 0.0124801  -0.489464 -0.709347 0.0105362  -0.466292 -0.768661 0.00794291  -0.512007 -0.751358 0.00972855  -0.488653 -0.811902 0.00727749  -0.510178 -0.750348 0.0117781  -0.533068 -0.793083 0.0108665  -0.556845 -0.732607 0.0139402  -0.558604 -0.733659 0.0115488  -0.464439 -0.767673 0.00963712  -0.581761 -0.775682 0.0106653  -0.534786 -0.793993 0.00895417  -0.511273 -0.855709 0.00666654  -0.557807 -0.837235 0.00823236  -0.534158 -0.900052 0.00607145  -0.55618 -0.836384 0.010006  -0.579523 -0.880271 0.00918722  -0.603552 -0.817483 0.011905  -0.605118 -0.818368 0.00983024  -0.509626 -0.854879 0.00812387  -0.62867 -0.861622 0.00903642  -0.581044 -0.881033 0.00753856  -0.557275 -0.944894 0.00552297  -0.604496 -0.925374 0.00689256  -0.580626 -0.990209 0.00498652  -0.603061 -0.92466 0.00841308  -0.626805 -0.969571 0.00767505  -0.651023 -0.904728 0.0100687  -0.6524 -0.905467 0.00828385  -0.555819 -0.944202 0.00676763  -0.676307 -0.949821 0.00756919  -0.628142 -0.970204 0.00626469  -0.60418 -1.03596 0.00449371  -0.651973 -1.01551 0.00568235  -0.627939 -1.08213 0.00401449  -0.650717 -1.01492 0.00697625  -0.674811 -1.06074 0.00631464  -0.699163 -0.994079 0.00841379  -0.70037 -0.994695 0.0068922  -0.602901 -1.03539 0.00554669  -0.724586 -1.04002 0.0062449  -0.675977 -1.06126 0.00511897  -0.65187 -1.12869 0.00357354  -0.700137 -1.10742 0.0045954  -0.675974 -1.17561 0.003142  -0.699044 -1.10694 0.00568509  -0.723433 -1.15354 0.00508785  -0.747885 -1.0853 0.00692165  -0.748933 -1.0858 0.00563586  -0.650755 -1.12822 0.00445497  -0.773414 -1.13198 0.00505233  -0.724444 -1.15397 0.00408721  -0.700224 -1.22285 0.00274515  -0.748878 -1.20088 0.00361562  -0.724618 -1.27041 0.00235808  -0.747935 -1.20048 0.0045234  -0.772569 -1.24778 0.00398886  -0.797094 -1.17816 0.00557303  -0.797997 -1.17857 0.00450516  -0.69926 -1.22247 0.0034709  -0.822691 -1.2255 0.00397742  -0.773435 -1.24812 0.00316155  -0.749124 -1.31826 0.00200319  -0.798092 -1.29568 0.002738  -0.773751 -1.36637 0.00165534  -0.79729 -1.29536 0.00347853  -0.822113 -1.34325 0.00300252  -0.846695 -1.27245 0.00436282  -0.847464 -1.27278 0.00348318  -0.748299 -1.31796 0.00259161  -0.872323 -1.32036 0.00301588  -0.822846 -1.34352 0.00232971  -0.798458 -1.41472 0.00134265  -0.847673 -1.39163 0.00195181  -0.82326 -1.4633 0.00103545  -0.846992 -1.39137 0.00254881  -0.871964 -1.43977 0.00212514  -0.896592 -1.36798 0.0032835  -0.897236 -1.36824 0.0025773  -0.79776 -1.41449 0.00180662  -0.922218 -1.41637 0.00215805  -0.872576 -1.43998 0.00159156  -0.848118 -1.51207 0.000757217  -0.897526 -1.48855 0.00125873  -0.873045 -1.56103 0.000488877  -0.896962 -1.48836 0.00172174  -0.922023 -1.53718 0.00134897  -0.946696 -1.46456 0.00232315  -0.947229 -1.46476 0.00176728  -0.847536 -1.51189 0.00111413  -0.972289 -1.51336 0.00139701  -0.922527 -1.53733 0.000938416  -0.898005 -1.61015 0.000246882  -0.947554 -1.58629 0.000645757  -0.923011 -1.65942 1.10865e-05  -0.947094 -1.58614 0.000995755  -0.972206 -1.6353 0.000669718  -0.996924 -1.56203 0.00147462  -0.997354 -1.56217 0.00105464  -0.897528 -1.61002 0.000510573  -1.02245 -1.61116 0.000725627  -0.972611 -1.63541 0.000365376  -0.948023 -1.70881 -0.000196695  -0.99767 -1.68468 0.000111222  -0.973063 -1.75833 -0.000400662  -0.997305 -1.68458 0.000364304  -1.02243 -1.73401 8.63075e-05  -1.04719 -1.66021 0.00073576  -1.04753 -1.66032 0.000429511  -0.94764 -1.70873 -1.56164e-05  -1.07263 -1.70961 0.000147462  -1.02275 -1.73408 -0.000130415  -0.998095 -1.80793 -0.00057435  -1.04781 -1.78359 -0.000343323  -1.02314 -1.85762 -0.00074482  -1.04753 -1.78352 -0.000174165  -1.07263 -1.83316 -0.000410318  -1.09744 -1.75898 0.000102282  -1.09769 -1.75904 -0.000107288  -0.9978 -1.80788 -0.000461578  -1.12276 -1.80858 -0.000347257  -1.07287 -1.8332 -0.000548363  -1.04815 -1.90737 -0.000888944  -1.0979 -1.88289 -0.000726581  -1.07316 -1.95718 -0.00102866  -1.09769 -1.88285 -0.000626683  -1.12274 -1.93263 -0.000814915  -1.14759 -1.85818 -0.000430822  -1.14778 -1.85822 -0.000558615  -1.04793 -1.90735 -0.00082624  -1.17279 -1.90793 -0.000755548  -1.12291 -1.93265 -0.000895143  -1.09812 -2.00703 -0.00114155  -1.14788 -1.98245 -0.00103807  -1.12307 -2.0569 -0.00124979  -1.14774 -1.98243 -0.000992894  -1.17272 -2.03231 -0.00113952  -1.19761 -1.95771 -0.000867486  -1.19774 -1.95771 -0.000927448  -1.09797 -2.00702 -0.00112641  -1.22267 -2.00754 -0.00108349  -1.17283 -2.0323 -0.00117183  -1.14797 -2.1068 -0.00133419  -1.19772 -2.08217 -0.00127709  -1.17284 -2.1567 -0.00141573  -1.19763 -2.08217 -0.00127149  -1.22252 -2.13208 -0.00137544  -1.24747 -2.05742 -0.00120044  -1.24754 -2.05741 -0.00120962  -1.14787 -2.10681 -0.00134909  -1.27238 -2.1073 -0.00132847  -1.22258 -2.13206 -0.00137568  -1.19766 -2.20658 -0.00146687  -1.24738 -2.18195 -0.00144625  -1.22244 -2.25646 -0.00151765  -1.24734 -2.18195 -0.00146639  -1.27213 -2.23186 -0.00152957  -1.29712 -2.15723 -0.00143921  -1.29716 -2.1572 -0.0014137  -1.1976 -2.20661 -0.00150144  -1.32191 -2.2071 -0.00149584  -1.27216 -2.23183 -0.00151074  -1.24716 -2.30631 -0.00154722  -1.29686 -2.28169 -0.00155056  -1.27184 -2.35613 -0.00157511  -1.29684 -2.2817 -0.00158274  -1.32154 -2.33156 -0.00161147  -1.34657 -2.25702 -0.00158489  -1.34658 -2.25698 -0.00154305  -1.24713 -2.30634 -0.00158894  -1.37125 -2.30685 -0.00159097  -1.32154 -2.33152 -0.00158691  -1.29648 -2.40591 -0.00158811  -1.34616 -2.38132 -0.00160217  -1.32108 -2.45565 -0.00160336  -1.34615 -2.38134 -0.00163293  -1.37077 -2.43111 -0.00164402  -1.39584 -2.35671 -0.00164473  -1.39585 -2.35667 -0.00160587  -1.29646 -2.40595 -0.00162506  -1.42044 -2.40646 -0.00163639  -1.37076 -2.43107 -0.00162458  -1.34564 -2.50534 -0.00160968  -1.39532 -2.48078 -0.00163126  -1.37019 -2.55499 -0.00162792  -1.39532 -2.4808 -0.00165737  -1.41989 -2.53049 -0.00166714  -1.445 -2.45623 -0.00166798  -1.44501 -2.4562 -0.00164068  -1.34563 -2.50538 -0.00164306  -1.46958 -2.5059 -0.00166011  -1.41989 -2.53046 -0.00165009  -0.00331947 -0.00174519 0.00585818  -0.00459008 -0.00286068 0.00751054  -0.008591 -0.00833309 0.0109416  -0.00463795 -0.00140801 0.00978601  -0.0126058 -0.00790602 0.0176797  0 0 0  0 0 0  -0.00343115 -0.000444829 0.00758219  0 0 0  -0.0120266 -0.0105177 0.0139456  -0.0153155 -0.0191325 0.0150247  -0.0220852 -0.0215922 0.0190775  -0.023417 -0.0331154 0.0177927  -0.0228323 -0.0178154 0.0239871  -0.0338528 -0.0304642 0.0276635  -0.0157851 -0.015879 0.0187913  -0.0331618 -0.0350523 0.0224665  -0.0321778 -0.0495598 0.0194148  -0.0449287 -0.0508054 0.0244693  -0.0416954 -0.0685942 0.0202041  -0.0449601 -0.0458025 0.0297171  -0.0565272 -0.0637538 0.0305905  -0.032089 -0.0451273 0.023518  -0.0570804 -0.0689432 0.0254164  -0.0516826 -0.0897468 0.0202376  -0.0696393 -0.0892479 0.0254676  -0.0623401 -0.113103 0.019869  -0.0683986 -0.0840897 0.030362  -0.0808302 -0.106739 0.0297129  -0.0504995 -0.0850004 0.0240748  -0.0826112 -0.111711 0.0250032  -0.0735614 -0.138337 0.019122  -0.096107 -0.136091 0.0240979  -0.0854899 -0.165425 0.0182117  -0.0938705 -0.131355 0.0285062  -0.107537 -0.157888 0.0271733  -0.0714498 -0.133846 0.0225689  -0.110117 -0.162288 0.0229801  -0.0980468 -0.194102 0.0171646  -0.124677 -0.190101 0.0217019  -0.111307 -0.224337 0.0160712  -0.121867 -0.185991 0.0256296  -0.136803 -0.215675 0.0240817  -0.0953802 -0.19012 0.0202245  -0.13977 -0.219427 0.020373  -0.125192 -0.255909 0.0149733  -0.155383 -0.250123 0.0190327  -0.139742 -0.288808 0.0138834  -0.152348 -0.246648 0.0225127  -0.168449 -0.278961 0.0209872  -0.122293 -0.252484 0.0176752  -0.171516 -0.282107 0.0177122  -0.154883 -0.322858 0.0128491  -0.188127 -0.315284 0.0164529  -0.170638 -0.35806 0.0118493  -0.185089 -0.312375 0.0195283  -0.202243 -0.346958 0.018132  -0.151965 -0.319954 0.0152262  -0.205234 -0.349585 0.0152448  -0.186945 -0.394275 0.0109264  -0.222791 -0.384945 0.0141226  -0.20382 -0.431501 0.0100427  -0.219881 -0.382513 0.0168309  -0.237997 -0.419107 0.015592  -0.184137 -0.39182 0.0130106  -0.240817 -0.421306 0.0130508  -0.221211 -0.46963 0.00923812  -0.259269 -0.458613 0.0120718  -0.239131 -0.508656 0.00846684  -0.256555 -0.456571 0.0144522  -0.275568 -0.494971 0.0133698  -0.218584 -0.467556 0.0110568  -0.278169 -0.496818 0.0111403  -0.257527 -0.548487 0.00777233  -0.297472 -0.535869 0.0102894  -0.276417 -0.589116 0.00710499  -0.294983 -0.534149 0.0123724  -0.314827 -0.574171 0.0114245  -0.255112 -0.54673 0.00935006  -0.317198 -0.575728 0.00947785  -0.29575 -0.630464 0.00650191  -0.337306 -0.616347 0.00873661  -0.315539 -0.672521 0.00592113  -0.335046 -0.614893 0.0105517  -0.355669 -0.656374 0.00972092  -0.293554 -0.628973 0.00786424  -0.35781 -0.657688 0.00802541  -0.335736 -0.715213 0.00539482  -0.378665 -0.699707 0.00737619  -0.35635 -0.758535 0.00488591  -0.376633 -0.698476 0.00895035  -0.397972 -0.741261 0.00821757  -0.333754 -0.713949 0.00656557  -0.399893 -0.742371 0.00674963  -0.377338 -0.802421 0.00442374  -0.421442 -0.785639 0.0061748  -0.398704 -0.846864 0.00397396  -0.419623 -0.784598 0.00753391  -0.441619 -0.828544 0.00688088  -0.375561 -0.801349 0.00542164  -0.443331 -0.829481 0.00561833  -0.420402 -0.8918 0.00356829  -0.465509 -0.873857 0.00510907  -0.442445 -0.937222 0.00316787  -0.46389 -0.872976 0.00627208  -0.486474 -0.91795 0.00569332  -0.418821 -0.890892 0.00441146  -0.487993 -0.918738 0.00461531  -0.464781 -0.983079 0.00280952  -0.510735 -0.964092 0.00416028  -0.48742 -1.02936 0.00245345  -0.509304 -0.963349 0.00514722  -0.532415 -1.00923 0.00462806  -0.46338 -0.982313 0.00351322  -0.533751 -1.00989 0.0037173  -0.510315 -1.07602 0.00213468  -0.55699 -1.0561 0.00331163  -0.533476 -1.12304 0.00181961  -0.555732 -1.05547 0.00413895  -0.579297 -1.10215 0.00367701  -0.509082 -1.07538 0.00271618  -0.580468 -1.10269 0.00291455  -0.556854 -1.17039 0.00153649  -0.604135 -1.14964 0.00255132  -0.580461 -1.21806 0.00125527  -0.603039 -1.14913 0.00323772  -0.626994 -1.19648 0.00282264  -0.555778 -1.16986 0.0020076  -0.628011 -1.19693 0.00219464  -0.604254 -1.266 0.00100398  -0.652037 -1.24453 0.00187099  -0.628235 -1.31421 0.000753045  -0.651091 -1.2441 0.00243223  -0.675371 -1.29204 0.00206316  -0.603322 -1.26556 0.00137866  -0.676243 -1.29241 0.00155377  -0.652366 -1.36265 0.000531435  -0.700572 -1.34055 0.00126708  -0.676654 -1.41132 0.000311971  -0.699761 -1.34021 0.00171423  -0.724301 -1.38865 0.00138712  -0.651568 -1.36229 0.00082171  -0.725043 -1.38894 0.000981331  -0.701059 -1.46017 0.000116587  -0.749608 -1.43754 0.000725627  -0.725588 -1.50922 -7.689e-05  -0.74892 -1.43726 0.00107682  -0.773664 -1.48612 0.000790358  -0.700383 -1.45989 0.000330925  -0.774286 -1.48635 0.000478029  -0.750202 -1.55841 -0.000243545  -0.799029 -1.53533 0.000256181  -0.774913 -1.60776 -0.000411987  -0.798458 -1.53511 0.000518799  -0.823349 -1.58431 0.000269294  -0.74964 -1.55819 -9.48906e-05  -0.82386 -1.58448 3.71933e-05  -0.799683 -1.65722 -0.00055635  -0.848733 -1.63377 -0.000154972  -0.824522 -1.70681 -0.000701547  -0.848265 -1.6336 3.33786e-05  -0.873254 -1.68307 -0.000183582  -0.799223 -1.65706 -0.000461817  -0.873667 -1.68319 -0.000345826  -0.849394 -1.75648 -0.000822783  -0.898614 -1.73272 -0.000512958  -0.874308 -1.80624 -0.000946045  -0.89824 -1.7326 -0.000387311  -0.923278 -1.78227 -0.000570655  -0.849025 -1.75636 -0.000773311  -0.923606 -1.78235 -0.000677347  -0.899235 -1.85606 -0.00104439  -0.948585 -1.83206 -0.000813246  -0.924186 -1.90593 -0.00114596  -0.948298 -1.83197 -0.000739217  -0.973348 -1.88178 -0.000888824  -0.898948 -1.85597 -0.00103271  -0.973594 -1.88184 -0.000947833  -0.949128 -1.95584 -0.00122392  -0.998575 -1.93167 -0.0010581  -0.974074 -2.00579 -0.00130475  -0.998359 -1.93161 -0.00102615  -1.02338 -1.98151 -0.00114524  -0.948912 -1.95579 -0.0012387  -1.02356 -1.98154 -0.00116742  -0.998993 -2.05574 -0.00136304  -1.04851 -2.03144 -0.00125444  -1.02391 -2.10571 -0.00142193  -1.04836 -2.0314 -0.0012548  -1.07333 -2.08135 -0.00134301  -0.998839 -2.05571 -0.00139821  -1.07345 -2.08136 -0.00133848  -1.04878 -2.15567 -0.0014596  -1.09834 -2.13128 -0.00139916  -1.07363 -2.20562 -0.00149846  -1.09823 -2.13126 -0.00141871  -1.12314 -2.18121 -0.00147879  -1.04868 -2.15566 -0.00150609  -1.12321 -2.1812 -0.00145853  -1.09843 -2.25555 -0.00151789  -1.14802 -2.2311 -0.00149667  -1.12321 -2.30545 -0.00154114  -1.14796 -2.2311 -0.00153053  -1.17277 -2.28101 -0.00155902  -1.09837 -2.25555 -0.00157034  -1.1728 -2.28099 -0.00153255  -1.14792 -2.35531 -0.00154626  -1.19752 -2.33084 -0.00155079  -1.1726 -2.40514 -0.00155568  -1.19749 -2.33085 -0.00158453  -1.2222 -2.38069 -0.00159752  -1.14789 -2.35533 -0.00159574  -1.22221 -2.38066 -0.00157094  -1.19722 -2.45491 -0.0015502  -1.24683 -2.43043 -0.00157213  -1.22181 -2.50464 -0.00155902  -1.24683 -2.43045 -0.00160539  -1.27144 -2.48019 -0.00160789  -1.19721 -2.45494 -0.00159383  -1.27143 -2.48016 -0.00158775  -1.24633 -2.5543 -0.0015533  -1.29597 -2.52984 -0.00158882  -1.27083 -2.6039 -0.00156379  -1.29598 -2.52985 -0.0016197  -1.32052 -2.5795 -0.00162911  -1.24633 -2.55433 -0.00159359  -1.32051 -2.57946 -0.00160396  -0.00094834 -0.00156137 0.00268531  -0.00198689 -0.001394 0.0042882  -0.00236455 -0.00804311 0.0051347  -0.0019878 -0.000201285 0.0054934  -0.00524952 -0.00556764 0.0100443  0 0 0  0 0 0  -0.000933155 -0.000486672 0.00338614  0 0 0  -0.00503082 -0.00774485 0.00796962  -0.00433822 -0.019027 0.00715494  -0.00936049 -0.0185683 0.0110443  -0.00718345 -0.033483 0.00863767  -0.00954309 -0.0155806 0.0137682  -0.0148083 -0.0290831 0.0160956  -0.00425671 -0.0163136 0.00884449  -0.0146192 -0.0327135 0.0131555  -0.0106651 -0.0510042 0.00953913  -0.0208757 -0.0497471 0.0144163  -0.0150202 -0.0712242 0.01001  -0.0205654 -0.045656 0.0173862  -0.0270209 -0.065033 0.0179778  -0.0101311 -0.0472465 0.0114287  -0.0277247 -0.0693731 0.0150464  -0.0200881 -0.093738 0.0100576  -0.0353428 -0.0912668 0.0150862  -0.0260413 -0.118491 0.00986278  -0.0341087 -0.0868014 0.0178645  -0.0419437 -0.110925 0.0174719  -0.0188001 -0.0895349 0.0118245  -0.0436044 -0.11534 0.0148098  -0.0328027 -0.14514 0.00944889  -0.0526335 -0.14134 0.014235  -0.0404937 -0.173687 0.00892079  -0.0506025 -0.137012 0.0167313  -0.0600987 -0.165068 0.015885  -0.0308471 -0.140976 0.0110189  -0.0624207 -0.169184 0.0135194  -0.0490475 -0.20384 0.00831473  -0.072993 -0.198654 0.0127009  -0.0585356 -0.235593 0.00766647  -0.0704713 -0.194721 0.0149175  -0.0816957 -0.226016 0.0139214  -0.0466642 -0.199988 0.00968504  -0.0843611 -0.229672 0.0118347  -0.0688811 -0.268707 0.0070188  -0.0964903 -0.262065 0.0109674  -0.0801231 -0.30318 0.00636542  -0.0937556 -0.258617 0.012922  -0.106624 -0.292603 0.0119331  -0.0663027 -0.26528 0.00820506  -0.109396 -0.295773 0.0101006  -0.0921748 -0.338815 0.00575435  -0.123009 -0.330658 0.00928104  -0.105062 -0.375614 0.00515509  -0.120251 -0.327687 0.0109934  -0.134624 -0.363959 0.010082  -0.0895716 -0.335827 0.00676942  -0.137347 -0.366677 0.00848687  -0.1187 -0.413415 0.00461113  -0.152339 -0.403718 0.00775576  -0.133105 -0.452224 0.00408375  -0.149676 -0.401177 0.0092417  -0.165414 -0.439431 0.00843465  -0.11618 -0.410836 0.0054667  -0.168 -0.441751 0.00705349  -0.148199 -0.491907 0.00361538  -0.184263 -0.480685 0.0064187  -0.163996 -0.532465 0.00316358  -0.181764 -0.478511 0.00769973  -0.198741 -0.518507 0.00699902  -0.145823 -0.489686 0.00432885  -0.201142 -0.520487 0.00581062  -0.180421 -0.573788 0.00276673  -0.218574 -0.561085 0.00526226  -0.197486 -0.615874 0.00238287  -0.21627 -0.559228 0.00636029  -0.234375 -0.600758 0.00575495  -0.178223 -0.57188 0.003353  -0.236574 -0.602449 0.00473928  -0.215127 -0.658631 0.0020479  -0.255079 -0.644518 0.00427008  -0.233352 -0.702053 0.00172162  -0.252979 -0.642928 0.00520337  -0.272113 -0.685816 0.00468016  -0.213118 -0.65699 0.00252247  -0.274108 -0.687262 0.00381815  -0.252095 -0.746062 0.0014385  -0.293594 -0.730625 0.00341284  -0.271367 -0.790652 0.00116122  -0.291698 -0.729264 0.0042007  -0.311764 -0.77335 0.00374544  -0.250276 -0.744653 0.0018158  -0.313558 -0.774583 0.00302267  -0.291106 -0.835749 0.000920773  -0.333937 -0.819086 0.0026691  -0.311324 -0.881353 0.000682354  -0.332232 -0.817924 0.00332797  -0.35314 -0.863059 0.00292969  -0.289472 -0.83454 0.00121105  -0.354746 -0.864111 0.00232673  -0.331956 -0.927395 0.000477791  -0.375924 -0.909609 0.00202036  -0.353011 -0.973873 0.000273705  -0.374407 -0.908615 0.002563  -0.396066 -0.954665 0.00221729  -0.330495 -0.926359 0.000696421  -0.397491 -0.95556 0.00171971  -0.374436 -1.02073 0.000100017  -0.419383 -1.00192 0.0014528  -0.396237 -1.06796 -7.84397e-05  -0.418038 -1.00108 0.00189471  -0.440362 -1.04792 0.00158834  -0.373142 -1.01984 0.00025475  -0.441619 -1.04868 0.00118768  -0.418359 -1.11551 -0.000228882  -0.464137 -1.09579 0.000952721  -0.440806 -1.16338 -0.000382423  -0.462952 -1.09507 0.00130403  -0.485855 -1.1426 0.001037  -0.417216 -1.11476 -0.00012815  -0.486954 -1.14324 0.000717998  -0.463526 -1.21152 -0.000508785  -0.510013 -1.19099 0.000511765  -0.48653 -1.25993 -0.000640035  -0.508982 -1.19038 0.00078547  -0.532377 -1.23849 0.000552535  -0.462534 -1.21089 -0.000456095  -0.533333 -1.23902 0.000307441  -0.509766 -1.30857 -0.000748038  -0.556855 -1.28732 0.000127196  -0.533244 -1.35743 -0.000858903  -0.555961 -1.28681 0.000332952  -0.579777 -1.3354 0.000127316  -0.508906 -1.30803 -0.000733972  -0.5806 -1.33585 -5.47171e-05  -0.556911 -1.40647 -0.000951886  -0.604503 -1.38459 -0.000210524  -0.580775 -1.4557 -0.00104475  -0.603737 -1.38417 -6.60419e-05  -0.627897 -1.43318 -0.000243306  -0.556175 -1.40602 -0.000970364  -0.628594 -1.43354 -0.00036931  -0.604797 -1.50507 -0.00112057  -0.65281 -1.48266 -0.000504375  -0.628976 -1.55459 -0.00120103  -0.652166 -1.48231 -0.000409126  -0.676597 -1.53164 -0.000558972  -0.604178 -1.5047 -0.00116587  -0.677176 -1.53193 -0.000639439  -0.653276 -1.60422 -0.00126219  -0.701639 -1.58135 -0.000754833  -0.677704 -1.65396 -0.00132883  -0.701104 -1.58107 -0.0007025  -0.725741 -1.63066 -0.000831723  -0.652762 -1.60392 -0.00132728  -0.726218 -1.63089 -0.000869632  -0.702219 -1.70379 -0.00137448  -0.750862 -1.68054 -0.000967979  -0.726827 -1.7537 -0.00142694  -0.750429 -1.68032 -0.000950575  -0.775217 -1.73011 -0.00105715  -0.701799 -1.70355 -0.00145543  -0.775601 -1.73028 -0.00106764  -0.751493 -1.80367 -0.00146341  -0.80037 -1.7801 -0.00114429  -0.776229 -1.85368 -0.00150728  -0.800026 -1.77993 -0.00115597  -0.824905 -1.82986 -0.00124228  -0.751162 -1.80348 -0.00155449  -0.825208 -1.82999 -0.00122905  -0.800994 -1.90373 -0.00152886  -0.850056 -1.87993 -0.00129044  -0.825804 -1.95382 -0.00155902  -0.849786 -1.87979 -0.0013231  -0.874719 -1.92981 -0.00138724  -0.800737 -1.9036 -0.0016253  -0.874945 -1.9299 -0.00135529  -0.850621 -2.0039 -0.0015713  -0.899825 -1.9799 -0.00140083  -0.875461 -2.05401 -0.00158942  -0.899627 -1.9798 -0.00144732  -0.924567 -2.02985 -0.00149155  -0.850435 -2.0038 -0.0016706  -0.924731 -2.02992 -0.00145102  -0.900288 -2.10409 -0.00158966  -0.9496 -2.07994 -0.00147772  -0.925121 -2.15417 -0.0016005  -0.949465 -2.07987 -0.0015347  -0.974378 -2.12992 -0.00156379  -0.900157 -2.10402 -0.0016855  -0.974484 -2.12996 -0.00151253  -0.949925 -2.20423 -0.00159419  -0.99932 -2.17997 -0.00152922  -0.97472 -2.25426 -0.00159335  -0.999235 -2.17992 -0.00158989  -1.02409 -2.22994 -0.00159705  -0.949844 -2.20418 -0.00168312  -1.02415 -2.22996 -0.00154901  -0.999475 -2.30424 -0.00158048  -1.04893 -2.27991 -0.00155199  -1.02421 -2.35419 -0.0015707  -1.04888 -2.27989 -0.00160754  -1.07366 -2.32983 -0.00160301  -0.999431 -2.30422 -0.00165629  -1.07369 -2.32984 -0.00155973  -1.04889 -2.40409 -0.00154781  -1.09839 -2.37971 -0.00155187  -1.07354 -2.45394 -0.00153279  -1.09837 -2.3797 -0.00160062  -1.12306 -2.42956 -0.00158572  -1.04887 -2.40408 -0.00160968  -1.12306 -2.42955 -0.00154936  -1.09813 -2.50372 -0.00150764  -1.14767 -2.47933 -0.00153446  -1.12269 -2.55345 -0.00149715  -1.14767 -2.47933 -0.00157273  -1.17226 -2.52907 -0.00155628  -1.09814 -2.50373 -0.00155509  -1.17224 -2.52905 -0.00153124  -1.14717 -2.60309 -0.00147724  -1.19674 -2.57871 -0.00151825  -1.17161 -2.65266 -0.00147116  -1.19675 -2.57871 -0.00155306  -1.22123 -2.62831 -0.00154674  -1.14718 -2.60311 -0.00151086  -1.22122 -2.62829 -0.00151932  0.0011 -0.00299621 -0.000443697  0.000141323 -0.00212884 0.0011729  0.00288957 -0.0107314 -0.000504375  0.000206389 -0.00116974 0.00130475  0.000609368 -0.00730321 0.00268555  0 0 0  0 0 0  0.00122066 -0.0021016 -0.000754714  0 0 0  0.000478625 -0.00911179 0.00225806  0.00501306 -0.0228007 -0.00043714  0.000507072 -0.0205374 0.00332034  0.00682843 -0.0382197 -0.000192881  0.000881121 -0.0180099 0.00394464  0.000572175 -0.0323195 0.00492692  0.00560863 -0.0204397 -0.000739217  0.000113428 -0.0354135 0.00414681  0.00815579 -0.0568108 3.14713e-05  -0.00105688 -0.0534509 0.00471127  0.00867009 -0.0780171 0.000193477  -0.000248909 -0.0498877 0.00551653  -0.00185236 -0.0702958 0.00584877  0.00918654 -0.0534244 -0.000178218  -0.00290298 -0.0741432 0.0050323  0.00831637 -0.101625 0.000248551  -0.00566325 -0.0972281 0.00508595  0.0069384 -0.127451 0.000208616  -0.0042752 -0.0931824 0.00585234  -0.00762454 -0.118442 0.0057056  0.00979602 -0.0977302 4.26769e-05  -0.00928664 -0.122522 0.00498021  0.00453669 -0.155233 9.16719e-05  -0.0138827 -0.149777 0.00471973  0.00101686 -0.184936 -8.95262e-05  -0.0119715 -0.1457 0.00538671  -0.0173472 -0.174964 0.00498748  0.00641358 -0.151263 -0.000145674  -0.0194607 -0.178913 0.00437486  -0.00357813 -0.21629 -0.000299215  -0.0260355 -0.209708 0.00397372  -0.00930905 -0.249293 -0.000545144  -0.0237804 -0.205874 0.00453019  -0.031265 -0.238474 0.00403655  -0.00143123 -0.212514 -0.000575781  -0.0336286 -0.2421 0.00353456  -0.0161005 -0.2837 -0.000779986  -0.0421973 -0.275899 0.00309753  -0.0239917 -0.319506 -0.00103092  -0.0397802 -0.272436 0.00354707  -0.0493073 -0.307824 0.00305057  -0.0138255 -0.280252 -0.0010947  -0.0517548 -0.311053 0.002653  -0.0328906 -0.356507 -0.00125241  -0.0622351 -0.347406 0.00223851  -0.0428208 -0.394699 -0.00147796  -0.0597958 -0.344347 0.00258791  -0.0712303 -0.382083 0.0021311  -0.0306004 -0.353437 -0.00160098  -0.073642 -0.384913 0.00182915  -0.0536865 -0.433909 -0.00166547  -0.0859016 -0.423449 0.00146568  -0.0655025 -0.474131 -0.00185061  -0.083536 -0.420778 0.00172091  -0.0967138 -0.460514 0.00132716  -0.0514631 -0.431207 -0.00204301  -0.0990167 -0.462975 0.00111401  -0.0781773 -0.515223 -0.00199568  -0.112913 -0.503386 0.000806928  -0.0917211 -0.557179 -0.00213873  -0.110678 -0.501067 0.000978827  -0.125437 -0.542521 0.000648618  -0.0760708 -0.512861 -0.00239611  -0.127591 -0.544653 0.000513077  -0.106046 -0.599877 -0.002244  -0.142978 -0.586683 0.000259757  -0.121161 -0.643315 -0.0023495  -0.140904 -0.584674 0.000360131  -0.157094 -0.627609 8.63075e-05  -0.104085 -0.59782 -0.00266206  -0.159077 -0.629453 1.70469e-05  -0.136981 -0.687389 -0.00241959  -0.175819 -0.672887 -0.000187874  -0.153516 -0.732096 -0.002496  -0.173918 -0.671145 -0.000149846  -0.191401 -0.715361 -0.000370622  -0.13518 -0.685601 -0.00284469  -0.193211 -0.716956 -0.000387311  -0.170687 -0.777344 -0.00253773  -0.211178 -0.7616 -0.000549436  -0.188501 -0.823134 -0.0025841  -0.209454 -0.760091 -0.000561833  -0.228101 -0.805415 -0.000741482  -0.16905 -0.775789 -0.00296593  -0.229732 -0.806794 -0.000710011  -0.206882 -0.869383 -0.00260508  -0.248801 -0.852481 -0.00084281  -0.225838 -0.916094 -0.00263095  -0.247252 -0.851175 -0.000896811  -0.266938 -0.897452 -0.00104105  -0.205406 -0.868034 -0.00302911  -0.2684 -0.898641 -0.000974894  -0.245301 -0.963195 -0.00263536  -0.288455 -0.945223 -0.00107837  -0.265272 -1.01068 -0.00264513  -0.287071 -0.944094 -0.00116742  -0.307681 -0.991183 -0.00128186  -0.243981 -0.962024 -0.00305295  -0.308983 -0.992209 -0.00118685  -0.285693 -1.0585 -0.00263357  -0.329911 -1.03956 -0.00126886  -0.306562 -1.10664 -0.00263155  -0.328683 -1.03858 -0.00138342  -0.350109 -1.08636 -0.00147486  -0.284522 -1.05749 -0.00304091  -0.351256 -1.08724 -0.00135517  -0.32782 -1.15505 -0.00261104  -0.372951 -1.13523 -0.00142169  -0.349472 -1.20374 -0.00260079  -0.371874 -1.1344 -0.0015583  -0.394009 -1.18276 -0.00162792  -0.32679 -1.15418 -0.00300288  -0.395013 -1.18351 -0.00149047  -0.371455 -1.25265 -0.00257146  -0.417371 -1.23204 -0.00154102  -0.39378 -1.30178 -0.00255239  -0.416432 -1.23133 -0.00169206  -0.439179 -1.28018 -0.00174487  -0.370559 -1.2519 -0.00294602  -0.440046 -1.28081 -0.00159621  -0.416392 -1.35109 -0.0025152  -0.462974 -1.3298 -0.0016315  -0.439293 -1.40058 -0.00249076  -0.462162 -1.32919 -0.00179315  -0.485428 -1.37843 -0.00183272  -0.415619 -1.35045 -0.00286877  -0.486173 -1.37897 -0.0016768  -0.462432 -1.45021 -0.00245142  -0.509579 -1.42831 -0.00170219  -0.485811 -1.49998 -0.00242138  -0.508888 -1.4278 -0.00186849  -0.532585 -1.47736 -0.00189555  -0.461772 -1.44967 -0.0027833  -0.533213 -1.47781 -0.00173438  -0.509387 -1.54986 -0.00237572  -0.557013 -1.52744 -0.00175035  -0.533163 -1.59984 -0.00234258  -0.556432 -1.52701 -0.00191808  -0.580477 -1.57682 -0.00193524  -0.508835 -1.5494 -0.0026859  -0.581002 -1.57719 -0.00177538  -0.55709 -1.6499 -0.00229442  -0.605116 -1.62704 -0.00178003  -0.581181 -1.70003 -0.00225794  -0.604637 -1.62668 -0.00194681  -0.628958 -1.67668 -0.00195277  -0.556636 -1.64952 -0.00257945  -0.629385 -1.67698 -0.00179493  -0.605389 -1.75022 -0.00220871  -0.653748 -1.72699 -0.00179398  -0.629723 -1.80045 -0.0021714  -0.65336 -1.7267 -0.00195575  -0.67789 -1.77682 -0.00195122  -0.605026 -1.74991 -0.00247145  -0.678227 -1.77706 -0.00180209  -0.654141 -1.8507 -0.00211847  -0.702772 -1.82717 -0.00179291  -0.678654 -1.90098 -0.00207794  -0.702464 -1.82694 -0.00194836  -0.727142 -1.87713 -0.00193548  -0.653855 -1.85045 -0.00235581  -0.727401 -1.87732 -0.0017947  -0.703216 -1.95126 -0.00202632  -0.752068 -1.92749 -0.00178051  -0.727845 -2.00155 -0.00198221  -0.751835 -1.9273 -0.00192392  -0.776603 -1.97753 -0.00190628  -0.702998 -1.95107 -0.00223625  -0.776794 -1.97768 -0.00177515  -0.752502 -2.05182 -0.00193119  -0.801531 -2.02786 -0.00175345  -0.7772 -2.10208 -0.00188768  -0.801365 -2.02771 -0.00188529  -0.826174 -2.07793 -0.00185776  -0.752347 -2.05168 -0.00211537  -0.826306 -2.07804 -0.00173903  -0.801901 -2.15231 -0.00183284  -0.851071 -2.1282 -0.00171626  -0.826626 -2.2025 -0.00179207  -0.850957 -2.12808 -0.0018326  -0.875772 -2.17826 -0.00179994  -0.801796 -2.1522 -0.0019902  -0.875855 -2.17833 -0.00169981  -0.851332 -2.25265 -0.00174057  -0.900609 -2.22844 -0.00166988  -0.876045 -2.30276 -0.00169766  -0.900546 -2.22836 -0.00177109  -0.925328 -2.27845 -0.00172877  -0.851275 -2.25258 -0.00187075  -0.92537 -2.27851 -0.00164795  -0.900726 -2.35281 -0.00164485  -0.950086 -2.32853 -0.00161409  -0.925395 -2.40281 -0.00160205  -0.950057 -2.32847 -0.00169647  -0.974789 -2.37847 -0.00165164  -0.900704 -2.35277 -0.00175071  -0.974794 -2.3785 -0.0015918  -0.950028 -2.45275 -0.00155103  -0.99945 -2.42842 -0.0015521  -0.974638 -2.50263 -0.00151145  -0.999448 -2.42838 -0.00161207  -1.0241 -2.47827 -0.00156844  -0.950033 -2.45272 -0.00162542  -1.02409 -2.47828 -0.001526  -0.999188 -2.55242 -0.00146139  -1.04865 -2.52807 -0.00148916  -1.02371 -2.60216 -0.00142717  -1.04867 -2.52805 -0.00152957  -1.07323 -2.5778 -0.00148547  -0.999213 -2.55241 -0.00150979  -1.0732 -2.5778 -0.0014658  -1.04815 -2.6518 -0.00138032  -1.09766 -2.62744 -0.00143516  -1.07255 -2.70136 -0.00134587  -1.09768 -2.62743 -0.00145781  -1.12209 -2.677 -0.00142169  -1.04818 -2.65179 -0.00140679  -1.12207 -2.67701 -0.00140929  0.00314328 -0.00569516 -0.00350928  0.00215013 -0.00417912 -0.00189996  0.00813273 -0.0156803 -0.00591743  0.00228616 -0.00340891 -0.00285316  0.00609036 -0.0113869 -0.00446177  0 0 0  0 0 0  0.00335737 -0.00489819 -0.00482023  0 0 0  0.00564277 -0.0129306 -0.00327909  0.0143021 -0.0297107 -0.00764108  0.0096494 -0.0258776 -0.00409997  0.020657 -0.0465865 -0.00854349  0.0105242 -0.0236363 -0.00544834  0.0148102 -0.0392134 -0.0057379  0.0153622 -0.0275286 -0.00981963  0.013748 -0.041995 -0.00446784  0.0266019 -0.0664194 -0.00895834  0.0173261 -0.0611677 -0.00456214  0.0317838 -0.08864 -0.00911951  0.0186088 -0.0578998 -0.00579488  0.021609 -0.0793121 -0.00573123  0.028085 -0.0632273 -0.0111431  0.0201939 -0.0828792 -0.00455034  0.0359353 -0.113198 -0.00909984  0.0220869 -0.106972 -0.0045079  0.0389349 -0.139936 -0.00904012  0.0236675 -0.103169 -0.00565577  0.0246493 -0.129382 -0.00560391  0.0376095 -0.109482 -0.0111811  0.0229276 -0.133261 -0.00447822  0.0407186 -0.168646 -0.0089246  0.022631 -0.161535 -0.00447202  0.0412118 -0.199311 -0.00881946  0.0244774 -0.157612 -0.00557756  0.0231068 -0.187881 -0.00558674  0.0425521 -0.1648 -0.0109097  0.0211467 -0.191725 -0.00449729  0.0404451 -0.231679 -0.00869405  0.0184792 -0.223614 -0.00453269  0.0383652 -0.265744 -0.00858557  0.0205181 -0.219843 -0.00560462  0.0167015 -0.253547 -0.00564957  0.0423983 -0.227959 -0.0105885  0.0145975 -0.257155 -0.00459027  0.0350439 -0.30127 -0.00845456  0.00954992 -0.292148 -0.00463867  0.0304464 -0.338243 -0.00834072  0.0116846 -0.28867 -0.00568271  0.00547266 -0.325267 -0.00572991  0.037057 -0.297817 -0.0102596  0.00332397 -0.328545 -0.00470066  0.0246647 -0.376455 -0.00820184  -0.00401086 -0.366177 -0.00474024  0.0176769 -0.415889 -0.00807571  -0.00187206 -0.363046 -0.00575292  -0.0103425 -0.402071 -0.0057832  0.026673 -0.373328 -0.0099144  -0.012458 -0.404997 -0.0047853  0.00958538 -0.456365 -0.00792384  -0.021935 -0.444862 -0.00480175  0.000376463 -0.497865 -0.00778186  -0.0198587 -0.442082 -0.00578463  -0.0304151 -0.483147 -0.00578392  0.0115368 -0.45357 -0.00954175  -0.0324409 -0.48573 -0.00481892  -0.00984848 -0.540242 -0.00761378  -0.0438938 -0.527484 -0.00480807  -0.0210967 -0.583477 -0.00745678  -0.0419242 -0.525035 -0.00575674  -0.0543836 -0.567817 -0.00572562  -0.00799513 -0.537767 -0.00913835  -0.0562868 -0.570085 -0.00479817  -0.0332732 -0.627445 -0.00727487  -0.0695417 -0.613436 -0.0047617  -0.0463785 -0.672132 -0.00710523  -0.0677048 -0.611287 -0.0056715  -0.0818909 -0.655521 -0.0056144  -0.0315424 -0.625264 -0.00870466  -0.0836526 -0.657506 -0.0047282  -0.0603223 -0.717431 -0.00691354  -0.0985401 -0.702209 -0.00466919  -0.0751058 -0.763333 -0.00673568  -0.0968472 -0.700327 -0.00553727  -0.112588 -0.745782 -0.00545716  -0.0587256 -0.715513 -0.00825012  -0.114202 -0.747519 -0.00461638  -0.0906422 -0.809743 -0.00653625  -0.13056 -0.793362 -0.00453949  -0.106933 -0.856653 -0.00635374  -0.129019 -0.791715 -0.00536227  -0.146155 -0.838202 -0.00526488  -0.0891845 -0.808058 -0.00777829  -0.147617 -0.839718 -0.00447154  -0.123896 -0.903985 -0.0061512  -0.165291 -0.886521 -0.00437951  -0.141533 -0.951734 -0.0059669  -0.163904 -0.885082 -0.00515604  -0.182284 -0.932434 -0.00504684  -0.12258 -0.90251 -0.00729978  -0.183595 -0.933755 -0.00430036  -0.159766 -0.99983 -0.00576615  -0.202448 -0.981367 -0.00420272  -0.178597 -1.04827 -0.0055809  -0.201203 -0.980108 -0.00493002  -0.220687 -1.02818 -0.00481343  -0.158585 -0.998539 -0.00682628  -0.221854 -1.02933 -0.00411558  -0.197953 -1.09699 -0.0053848  -0.241744 -1.07762 -0.00401199  -0.217836 -1.14599 -0.0052042  -0.240641 -1.07652 -0.00469065  -0.261098 -1.12519 -0.00456786  -0.196906 -1.09587 -0.00635648  -0.262127 -1.12619 -0.00392163  -0.238178 -1.19522 -0.00501049  -0.282929 -1.17502 -0.0038147  -0.258981 -1.24467 -0.00483513  -0.281961 -1.17407 -0.00444174  -0.303267 -1.22323 -0.00431752  -0.237257 -1.19424 -0.00589669  -0.304164 -1.22409 -0.00371993  -0.280179 -1.2943 -0.00464785  -0.325758 -1.27337 -0.00361347  -0.301776 -1.34411 -0.00447845  -0.324916 -1.27255 -0.00419366  -0.346951 -1.3221 -0.00406611  -0.27938 -1.29346 -0.00545406  -0.347726 -1.32285 -0.00351906  -0.323714 -1.39406 -0.00429952  -0.369999 -1.37248 -0.00341058  -0.345993 -1.44414 -0.00413406  -0.369279 -1.37177 -0.00394213  -0.391938 -1.42164 -0.00381482  -0.32303 -1.39333 -0.00502527  -0.392599 -1.42227 -0.00331485  -0.36856 -1.49433 -0.00396216  -0.415452 -1.47219 -0.00321043  -0.391413 -1.54461 -0.00380683  -0.41484 -1.47158 -0.00369167  -0.438021 -1.52167 -0.00356841  -0.36798 -1.4937 -0.00461233  -0.438576 -1.52221 -0.00311816  -0.414505 -1.59496 -0.00364077  -0.461909 -1.57234 -0.00301087  -0.437838 -1.64538 -0.00349128  -0.461399 -1.57182 -0.00344729  -0.485013 -1.62208 -0.00332463  -0.414023 -1.59443 -0.00421929  -0.485471 -1.62254 -0.00291896  -0.461361 -1.69583 -0.00333416  -0.509197 -1.6728 -0.00281811  -0.485081 -1.74633 -0.00319552  -0.50878 -1.67237 -0.00320649  -0.532742 -1.72274 -0.00308812  -0.460967 -1.69538 -0.00384367  -0.533109 -1.72312 -0.00273061  -0.508949 -1.79684 -0.00304532  -0.557145 -1.77348 -0.00262868  -0.532976 -1.84738 -0.00291598  -0.556813 -1.77311 -0.00297582  -0.581045 -1.82355 -0.0028615  -0.508637 -1.79647 -0.00349152  -0.581333 -1.82386 -0.00254798  -0.557113 -1.8979 -0.00277579  -0.605608 -1.87426 -0.00245094  -0.581371 -1.94843 -0.00265467  -0.605352 -1.87396 -0.00275338  -0.629783 -1.92441 -0.00264275  -0.556878 -1.8976 -0.00316095  -0.630002 -1.92466 -0.00237334  -0.605708 -1.99892 -0.00252688  -0.654447 -1.97506 -0.0022794  -0.630134 -2.0494 -0.0024122  -0.654258 -1.97481 -0.00254083  -0.678831 -2.02524 -0.00243354  -0.605534 -1.99868 -0.00285268  -0.678983 -2.02544 -0.00220227  -0.654607 -2.09984 -0.00229168  -0.703544 -2.0758 -0.00211537  -0.679144 -2.15024 -0.00218821  -0.703414 -2.0756 -0.00233495  -0.728068 -2.12598 -0.00223231  -0.65449 -2.09964 -0.00256324  -0.728168 -2.12613 -0.00204134  -0.703701 -2.20058 -0.00207925  -0.752794 -2.17642 -0.00195968  -0.728294 -2.25089 -0.00198352  -0.752714 -2.17627 -0.00214195  -0.777404 -2.22656 -0.00204575  -0.70363 -2.20044 -0.0022999  -0.777462 -2.22667 -0.00189257  -0.752892 -2.30112 -0.00188363  -0.80211 -2.27687 -0.00181675  -0.777503 -2.3513 -0.00180101  -0.802069 -2.27675 -0.00196242  -0.826759 -2.32693 -0.00187027  -0.752857 -2.30101 -0.00205886  -0.826775 -2.32701 -0.00175357  -0.802099 -2.4014 -0.00171196  -0.85141 -2.37709 -0.00168252  -0.826695 -2.45145 -0.00163615  -0.851406 -2.37701 -0.0017947  -0.876062 -2.42706 -0.00170648  -0.802099 -2.40133 -0.00184536  -0.876049 -2.42711 -0.00162292  -0.851257 -2.50141 -0.00155389  -0.900646 -2.47707 -0.0015564  -0.875815 -2.55131 -0.00148833  -0.900664 -2.47701 -0.00163305  -0.925268 -2.52692 -0.00155187  -0.85128 -2.50136 -0.00164759  -0.925233 -2.52695 -0.00150406  -0.900323 -2.60112 -0.00141144  -0.94976 -2.57676 -0.00143945  -0.92481 -2.65085 -0.00135183  -0.949799 -2.57671 -0.0014807  -0.974314 -2.62647 -0.00140774  -0.900366 -2.60109 -0.00146472  -0.974267 -2.62649 -0.0013926  -0.949229 -2.7005 -0.00128257  -0.998693 -2.67614 -0.00133717  -0.973602 -2.75007 -0.00122833  -0.998737 -2.6761 -0.0013479  -1.02311 -2.72568 -0.00127816  -0.949272 -2.70048 -0.00129819  -1.02307 -2.7257 -0.00128984  0.0054771 -0.0101773 -0.00636339  0.00431499 -0.00761265 -0.00483322  0.0142495 -0.0233852 -0.0108799  0.00452664 -0.00694805 -0.00687027  0.0119822 -0.0177082 -0.0112294  0 0 0  0 0 0  0.00579939 -0.00931489 -0.00862074  0 0 0  0.0112234 -0.0191372 -0.00848854  0.0248571 -0.0401045 -0.0141979  0.0193862 -0.0344072 -0.0110165  0.0359991 -0.0587069 -0.0161862  0.0207166 -0.0322641 -0.0142045  0.0296304 -0.0495193 -0.0156758  0.0263381 -0.0378522 -0.018101  0.0280321 -0.0521778 -0.0124876  0.0465569 -0.0797536 -0.0172389  0.0362882 -0.0726115 -0.0132211  0.0562445 -0.102936 -0.0177801  0.0379743 -0.0694601 -0.0163577  0.0454384 -0.0919061 -0.0166091  0.0484091 -0.0765814 -0.0212612  0.0437014 -0.0953439 -0.0135515  0.0646976 -0.128262 -0.0178844  0.0500557 -0.12031 -0.0135846  0.0718237 -0.155779 -0.0178075  0.0517995 -0.116631 -0.0165565  0.056923 -0.143685 -0.0163932  0.0665224 -0.124625 -0.0217547  0.0551444 -0.147448 -0.0134935  0.0775707 -0.185267 -0.0175506  0.0589451 -0.176573 -0.0132989  0.0818644 -0.216772 -0.0172317  0.0607478 -0.172748 -0.0161214  0.0632105 -0.203889 -0.0158261  0.0793681 -0.181505 -0.0212364  0.0613717 -0.207657 -0.0130719  0.0847416 -0.250041 -0.0168378  0.0624483 -0.240495 -0.0128064  0.0861518 -0.285069 -0.0164286  0.0643117 -0.236777 -0.0154829  0.0640264 -0.271459 -0.0151424  0.0865436 -0.246378 -0.0203276  0.0621415 -0.27504 -0.0125362  0.0861645 -0.32162 -0.0159792  0.0605016 -0.311093 -0.0122435  0.0847477 -0.359663 -0.0155364  0.0623932 -0.30762 -0.0147727  0.0594075 -0.345302 -0.0144122  0.0879635 -0.318184 -0.0192639  0.0575183 -0.348601 -0.0119579  0.0819858 -0.398996 -0.01507  0.053255 -0.387388 -0.0116538  0.0778679 -0.439576 -0.0146137  0.0551329 -0.38422 -0.0140322  0.049574 -0.424414 -0.0136576  0.0837605 -0.395848 -0.0181422  0.0477191 -0.427395 -0.0113584  0.0724859 -0.481228 -0.0141438  0.0409888 -0.468472 -0.0110451  0.0658395 -0.523914 -0.0136873  0.0428119 -0.465625 -0.0132712  0.034853 -0.507904 -0.0128934  0.0742044 -0.478386 -0.0170027  0.0330744 -0.510569 -0.0107452  0.0580258 -0.567484 -0.0132182  0.024058 -0.553558 -0.0104249  0.0490481 -0.611907 -0.0127662  0.0257931 -0.551018 -0.0124989  0.0156307 -0.595023 -0.0121163  0.0596613 -0.564942 -0.0158668  0.013955 -0.59739 -0.0101192  0.0390037 -0.657054 -0.0123025  0.00284934 -0.641962 -0.00979567  0.0278996 -0.702903 -0.0118613  0.0044713 -0.63971 -0.0117213  -0.00769317 -0.685141 -0.0113384  0.0405394 -0.654793 -0.0147477  -0.009251 -0.687236 -0.0094893  0.0158308 -0.74934 -0.0114089  -0.0222548 -0.733118 -0.00916874  0.0028044 -0.79635 -0.0109804  -0.0207562 -0.731125 -0.0109484  -0.0347259 -0.777732 -0.0105675  0.017251 -0.747333 -0.0136553  -0.0361573 -0.779578 -0.00886345  -0.01109 -0.843839 -0.010541  -0.0508705 -0.826542 -0.00854504  -0.0258445 -0.891792 -0.0101256  -0.0495012 -0.824783 -0.0101852  -0.0650932 -0.872352 -0.00980914  -0.00979173 -0.842063 -0.0125983  -0.0663925 -0.873978 -0.00824535  -0.0413731 -0.940131 -0.00970352  -0.0826374 -0.921827 -0.00793374  -0.0576707 -0.988845 -0.00930417  -0.0813991 -0.920277 -0.00943613  -0.0984372 -0.968633 -0.00907171  -0.0401987 -0.938563 -0.0115794  -0.0996057 -0.970065 -0.00764143  -0.0746573 -1.03786 -0.00889957  -0.117212 -1.01864 -0.00733793  -0.0923257 -1.08718 -0.00852132  -0.116105 -1.01727 -0.0087105  -0.134422 -1.06627 -0.00835788  -0.0736051 -1.03648 -0.0106021  -0.135464 -1.06752 -0.00705731  -0.1106 -1.13674 -0.00813591  -0.154276 -1.11667 -0.00676751  -0.129473 -1.18654 -0.00777853  -0.153293 -1.11548 -0.00801444  -0.172742 -1.16498 -0.00767279  -0.109664 -1.13553 -0.00967288  -0.173656 -1.16608 -0.00649405  -0.148877 -1.23652 -0.00741267  -0.193528 -1.21569 -0.00621772  -0.168808 -1.28668 -0.00706851  -0.192668 -1.21464 -0.00734222  -0.213102 -1.26455 -0.00701797  -0.148059 -1.23545 -0.00879383  -0.2139 -1.2655 -0.00595772  -0.1892 -1.33698 -0.00672662  -0.234691 -1.31548 -0.00569177  -0.210049 -1.38741 -0.006405  -0.233947 -1.31456 -0.0067023  -0.255236 -1.36477 -0.00639367  -0.188492 -1.33605 -0.00796127  -0.25592 -1.3656 -0.0054456  -0.231292 -1.43793 -0.00607789  -0.277507 -1.41585 -0.00519252  -0.252931 -1.48856 -0.00577641  -0.276874 -1.41505 -0.0060972  -0.298892 -1.46549 -0.00580251  -0.230688 -1.43713 -0.00717413  -0.299472 -1.46621 -0.0049603  -0.274903 -1.53924 -0.00546849  -0.321737 -1.51665 -0.00472057  -0.29721 -1.58999 -0.00518858  -0.321203 -1.51596 -0.00552261  -0.343843 -1.56655 -0.00524521  -0.274393 -1.53854 -0.00643587  -0.344325 -1.56717 -0.00450289  -0.319798 -1.64076 -0.00490236  -0.36716 -1.61774 -0.00427663  -0.342669 -1.69157 -0.00463796  -0.366721 -1.61715 -0.00498033  -0.389873 -1.66783 -0.0047183  -0.319383 -1.64016 -0.00574791  -0.390267 -1.66836 -0.00406933  -0.365765 -1.74238 -0.00437164  -0.413574 -1.71901 -0.00385916  -0.389097 -1.79321 -0.00412846  -0.413217 -1.7185 -0.00446832  -0.436798 -1.76923 -0.00422645  -0.365434 -1.74188 -0.00510418  -0.437105 -1.76967 -0.00366676  -0.412612 -1.84401 -0.00388157  -0.460793 -1.82034 -0.00346935  -0.436317 -1.8948 -0.00365722  -0.460519 -1.81991 -0.00399768  -0.484429 -1.87063 -0.00376797  -0.412355 -1.84359 -0.00450909  -0.484663 -1.871 -0.00329018  -0.460162 -1.94556 -0.00343037  -0.508653 -1.92165 -0.00310934  -0.484156 -1.99629 -0.00322652  -0.508447 -1.9213 -0.00355875  -0.532615 -1.97198 -0.00334823  -0.459974 -1.94521 -0.00396001  -0.532784 -1.97228 -0.00294542  -0.508256 -2.04696 -0.00301826  -0.556997 -2.02287 -0.00277638  -0.532467 -2.09759 -0.00283003  -0.556853 -2.02258 -0.00315189  -0.58121 -2.07319 -0.00295973  -0.508124 -2.04668 -0.00345623  -0.581322 -2.07343 -0.00262725  -0.556751 -2.14816 -0.00264537  -0.605697 -2.12394 -0.0024749  -0.581119 -2.19867 -0.00248218  -0.605603 -2.12371 -0.00277984  -0.630086 -2.17421 -0.00260508  -0.556671 -2.14794 -0.00300193  -0.630152 -2.1744 -0.0023396  -0.605526 -2.24911 -0.00231254  -0.654626 -2.2248 -0.00220096  -0.629985 -2.29949 -0.00216699  -0.65458 -2.22461 -0.00244606  -0.679136 -2.275 -0.00228775  -0.605486 -2.24894 -0.00259697  -0.67916 -2.27514 -0.00208127  -0.654463 -2.34978 -0.00202084  -0.703692 -2.32541 -0.00195777  -0.678973 -2.40001 -0.00189543  -0.703681 -2.32527 -0.00214684  -0.728268 -2.37551 -0.00200772  -0.654461 -2.34965 -0.00223947  -0.728257 -2.37562 -0.00185144  -0.703477 -2.45014 -0.00177073  -0.752801 -2.42574 -0.00174499  -0.727994 -2.50021 -0.001665  -0.752819 -2.42564 -0.00188386  -0.777398 -2.47572 -0.00175893  -0.703499 -2.45005 -0.00193059  -0.777363 -2.4758 -0.00165415  -0.752494 -2.55018 -0.00155628  -0.801889 -2.52577 -0.0015583  -0.77699 -2.60008 -0.00146544  -0.801927 -2.52569 -0.00164747  -0.826472 -2.57562 -0.00153887  -0.752534 -2.55011 -0.00166047  -0.82642 -2.57567 -0.0014801  -0.801456 -2.64989 -0.00137067  -0.850904 -2.62548 -0.00139403  -0.82591 -2.69962 -0.00129163  -0.850954 -2.62542 -0.00143814  -0.87544 -2.67518 -0.00133657  -0.801509 -2.64984 -0.00142527  -0.875378 -2.67521 -0.00132549  -0.850317 -2.74927 -0.00120282  -0.899786 -2.72487 -0.00124335  -0.874697 -2.79887 -0.00112283  -0.899843 -2.72481 -0.00124741  -0.924215 -2.77442 -0.00115359  -0.850379 -2.74923 -0.0012126  -0.924156 -2.77446 -0.00117612  0.00854383 -0.0183138 -0.00883496  0.00704809 -0.0134684 -0.00740993  0.022843 -0.0358185 -0.0151852  0.00734616 -0.0127617 -0.0104573  0.0193546 -0.0273389 -0.0172368  0 0 0  0 0 0  0.0091002 -0.0170696 -0.011821  0 0 0  0.0182326 -0.028905 -0.0130994  0.0386729 -0.0551232 -0.0199234  0.0312258 -0.0469075 -0.0171604  0.0548007 -0.0751898 -0.0229948  0.0329547 -0.0445483 -0.021994  0.0467364 -0.0635887 -0.0246158  0.0404643 -0.052435 -0.0253354  0.0446785 -0.066384 -0.0197006  0.0698309 -0.0968398 -0.0247684  0.0576512 -0.0878322 -0.0211155  0.0836577 -0.120666 -0.025756  0.0596229 -0.0845824 -0.0260065  0.0713799 -0.107924 -0.0266745  0.0719192 -0.093495 -0.0304857  0.0694138 -0.111387 -0.0218605  0.0961015 -0.146512 -0.0260834  0.0799704 -0.137019 -0.0220702  0.107045 -0.17466 -0.0260649  0.0818245 -0.133354 -0.0267843  0.0908583 -0.161137 -0.0266222  0.0980217 -0.142858 -0.0316751  0.0890456 -0.164856 -0.0220053  0.116503 -0.204864 -0.0257415  0.0966882 -0.194717 -0.0217125  0.124377 -0.237161 -0.0252746  0.0984557 -0.190955 -0.0262145  0.104552 -0.222903 -0.0256948  0.118278 -0.201153 -0.0310984  0.102806 -0.22661 -0.0213062  0.130708 -0.271319 -0.0246652  0.107429 -0.260325 -0.0208023  0.135442 -0.307288 -0.0240029  0.109162 -0.256669 -0.0250666  0.112248 -0.292281 -0.0243967  0.132414 -0.267723 -0.0297369  0.110527 -0.295815 -0.0202584  0.138635 -0.344856 -0.0232775  0.112142 -0.332875 -0.0196697  0.140263 -0.383947 -0.0225408  0.113855 -0.32944 -0.0236751  0.113963 -0.368159 -0.0229442  0.1403 -0.341479 -0.0280349  0.11227 -0.371435 -0.0190716  0.140397 -0.424374 -0.0217719  0.110967 -0.411318 -0.0184524  0.139036 -0.466067 -0.0210153  0.112647 -0.40816 -0.0221894  0.109897 -0.449465 -0.0214416  0.142021 -0.421267 -0.0261985  0.108246 -0.452451 -0.0178418  0.136262 -0.508852 -0.0202423  0.10418 -0.494676 -0.0172185  0.132088 -0.552672 -0.0194908  0.105805 -0.491812 -0.0206842  0.10037 -0.535235 -0.0199399  0.13783 -0.506031 -0.0243374  0.0987854 -0.537928 -0.0166105  0.126605 -0.597377 -0.0187315  0.0921469 -0.582075 -0.0159953  0.119824 -0.642928 -0.0180011  0.0936937 -0.579502 -0.0191935  0.0857774 -0.624653 -0.0184655  0.128099 -0.59484 -0.0224999  0.0842814 -0.627063 -0.0154009  0.111849 -0.689185 -0.0172642  0.0752829 -0.672776 -0.0148003  0.102691 -0.736122 -0.0165581  0.0767331 -0.670475 -0.0177397  0.0665551 -0.717024 -0.0170329  0.113253 -0.686913 -0.0207171  0.0651591 -0.719172 -0.0142251  0.0924469 -0.783621 -0.0158499  0.0540119 -0.766153 -0.0136447  0.0811327 -0.831667 -0.0151739  0.0553573 -0.764103 -0.0163337  0.0431319 -0.811777 -0.0156547  0.0937489 -0.781597 -0.0190015  0.0418476 -0.813684 -0.0130906  0.0688425 -0.880152 -0.0144993  0.0287658 -0.861685 -0.0125343  0.0555886 -0.929073 -0.0138572  0.029996 -0.859865 -0.0149868  0.0159338 -0.908436 -0.0143352  0.0700359 -0.878354 -0.0173631  0.0147669 -0.910127 -0.0120032  0.041465 -0.978334 -0.0132178  -5.11408e-05 -0.958942 -0.011474  0.0264817 -1.02794 -0.0126113  0.00106275 -0.957327 -0.0136986  -0.0146387 -1.00661 -0.0130785  0.0425464 -0.976738 -0.0158082  -0.0156906 -1.00811 -0.0109682  0.0107257 -1.0778 -0.0120047  -0.0320524 -1.05756 -0.0104631  -0.00579512 -1.12793 -0.0114335  -0.0310547 -1.05613 -0.0124744  -0.0482105 -1.10597 -0.0118872  0.0116968 -1.07639 -0.0143415  -0.0491461 -1.10729 -0.00998735  -0.0229971 -1.17825 -0.010864  -0.0668775 -1.15724 -0.00950956  -0.0408747 -1.22877 -0.0103256  -0.0659919 -1.15598 -0.0113178  -0.0844303 -1.20624 -0.0107656  -0.0221372 -1.177 -0.0129595  -0.0852544 -1.20741 -0.0090605  -0.059351 -1.27942 -0.00978971  -0.104186 -1.25774 -0.00861061  -0.0784161 -1.33022 -0.00928342  -0.103414 -1.25662 -0.010228  -0.122972 -1.3072 -0.00970542  -0.0585973 -1.27832 -0.0116596  -0.123687 -1.30822 -0.00818634  -0.0980031 -1.38111 -0.00878072  -0.143668 -1.35883 -0.00776136  -0.118108 -1.4321 -0.00830925  -0.143003 -1.35785 -0.00920165  -0.163539 -1.40865 -0.00871062  -0.0973551 -1.38015 -0.0104398  -0.164148 -1.40954 -0.00736547  -0.138657 -1.48313 -0.00784039  -0.185039 -1.46034 -0.00696433  -0.159657 -1.53423 -0.00740027  -0.184474 -1.45948 -0.00823629  -0.205847 -1.51043 -0.00777769  -0.138107 -1.48229 -0.00930071  -0.20636 -1.51121 -0.00659585  -0.181036 -1.58535 -0.00696146  -0.228029 -1.56212 -0.00622201  -0.202798 -1.6365 -0.00655448  -0.227558 -1.56137 -0.00733602  -0.249645 -1.6124 -0.00690651  -0.180578 -1.58462 -0.00823963  -0.250067 -1.61307 -0.00587833  -0.224883 -1.68763 -0.00615048  -0.272398 -1.66404 -0.00553298  -0.24729 -1.73878 -0.00577056  -0.272013 -1.6634 -0.00650072  -0.294702 -1.71444 -0.00609934  -0.224511 -1.68701 -0.00725508  -0.295042 -1.71502 -0.00520897  -0.269965 -1.78988 -0.00539327  -0.31792 -1.76599 -0.00489044  -0.292912 -1.84097 -0.00504589  -0.317617 -1.76544 -0.00572145  -0.340804 -1.81646 -0.00535274  -0.269673 -1.78935 -0.0063417  -0.341063 -1.81695 -0.00459266  -0.316072 -1.892 -0.00470066  -0.364395 -1.86788 -0.00429869  -0.339455 -1.943 -0.00438547  -0.364167 -1.86741 -0.00500548  -0.387753 -1.91837 -0.00466681  -0.315851 -1.89155 -0.00550246  -0.387943 -1.91878 -0.00402522  -0.363012 -1.99393 -0.00406992  -0.411638 -1.96963 -0.00375736  -0.386747 -2.04481 -0.00378311  -0.411473 -1.96924 -0.00434911  -0.435377 -2.02011 -0.00404096  -0.362855 -1.99356 -0.00473893  -0.435507 -2.02044 -0.00351  -0.410611 -2.09561 -0.00349879  -0.459482 -2.07119 -0.00326562  -0.434617 -2.14635 -0.00324166  -0.459375 -2.07087 -0.0037508  -0.483519 -2.12161 -0.00347126  -0.410512 -2.09531 -0.00404561  -0.483595 -2.12188 -0.00304341  -0.458714 -2.197 -0.00298858  -0.507776 -2.1725 -0.00282276  -0.482919 -2.24758 -0.00275993  -0.507716 -2.17224 -0.00321245  -0.532033 -2.22283 -0.00296307  -0.458663 -2.19675 -0.00342619  -0.532065 -2.22305 -0.00262523  -0.507183 -2.29806 -0.0025332  -0.556395 -2.27352 -0.00243044  -0.531523 -2.34847 -0.00234234  -0.556374 -2.27331 -0.00273442  -0.5808 -2.32375 -0.00251448  -0.507167 -2.29787 -0.00287211  -0.580795 -2.32392 -0.00225997  -0.555892 -2.39877 -0.00214791  -0.605213 -2.37423 -0.00208902  -0.58031 -2.449 -0.00198197  -0.605229 -2.37406 -0.00231802  -0.629714 -2.42433 -0.00212967  -0.555909 -2.39863 -0.00239837  -0.629678 -2.42446 -0.00194633  -0.604735 -2.49913 -0.00181985  -0.654138 -2.4746 -0.00180256  -0.629187 -2.54918 -0.00168514  -0.654174 -2.47447 -0.00196123  -0.678679 -2.52457 -0.00180328  -0.604777 -2.49903 -0.00199831  -0.678623 -2.52465 -0.00168073  -0.653628 -2.59913 -0.00155354  -0.703085 -2.57463 -0.00156021  -0.678078 -2.64901 -0.00144291  -0.703142 -2.57453 -0.00166214  -0.727633 -2.62445 -0.00152409  -0.653686 -2.59906 -0.00166631  -0.727564 -2.62451 -0.00145781  -0.702502 -2.69879 -0.00133324  -0.752004 -2.67431 -0.00135493  -0.72694 -2.7485 -0.00124252  -0.75207 -2.67424 -0.0014025  -0.776528 -2.72399 -0.00128341  -0.70257 -2.69874 -0.00139368  -0.776453 -2.72404 -0.0012697  -0.751342 -2.79815 -0.00114369  -0.800851 -2.77369 -0.00117552  -0.775747 -2.84776 -0.00105572  -0.800925 -2.77363 -0.00118041  -0.825315 -2.82325 -0.0010649  -0.751413 -2.79811 -0.00115967  -0.825239 -2.8233 -0.00109434  0.0143097 -0.0346516 -0.0112494  0.0113736 -0.0245569 -0.00958765  0.039019 -0.057619 -0.0193465  0.0118029 -0.0236607 -0.0134865  0.0304106 -0.0433487 -0.0222625  0 0 0  0 0 0  0.0140305 -0.0326537 -0.0148996  0 0 0  0.028732 -0.0453962 -0.0170439  0.0597407 -0.0751794 -0.025395  0.0478473 -0.0647094 -0.0226556  0.0787431 -0.0954677 -0.0294591  0.0496461 -0.0616357 -0.0288315  0.0680763 -0.0816842 -0.032681  0.0612346 -0.0722449 -0.032436  0.0658118 -0.0849629 -0.0262554  0.0974752 -0.116956 -0.0318981  0.0830436 -0.106635 -0.0283834  0.114809 -0.140946 -0.033296  0.0851184 -0.103066 -0.0349212  0.10078 -0.126899 -0.0360907  0.0996593 -0.113335 -0.0394291  0.0987178 -0.13055 -0.0295833  0.130907 -0.167367 -0.0337769  0.113046 -0.156667 -0.0300089  0.145478 -0.196091 -0.0338289  0.114969 -0.152919 -0.0364373  0.127669 -0.181356 -0.0363283  0.132913 -0.163596 -0.0411534  0.125825 -0.185085 -0.0300142  0.158469 -0.227153 -0.0334126  0.137054 -0.215695 -0.0296619  0.169802 -0.260296 -0.032835  0.138829 -0.211965 -0.0358377  0.148398 -0.244757 -0.0351397  0.160301 -0.223454 -0.0404719  0.146672 -0.248396 -0.0291238  0.179452 -0.295463 -0.0320172  0.154669 -0.283039 -0.0284225  0.187387 -0.332435 -0.0311584  0.156359 -0.279461 -0.0342673  0.16268 -0.316051 -0.0333047  0.181193 -0.291951 -0.0386806  0.161018 -0.319493 -0.0276433  0.193633 -0.371094 -0.0301704  0.165746 -0.357594 -0.0267948  0.198173 -0.411276 -0.0291942  0.167389 -0.354247 -0.0322672  0.170466 -0.394031 -0.0311989  0.19532 -0.367831 -0.0363942  0.168847 -0.39722 -0.0259225  0.20108 -0.452829 -0.0281427  0.17038 -0.438205 -0.0250181  0.20234 -0.495647 -0.0271307  0.171978 -0.435128 -0.030102  0.171916 -0.477543 -0.0290021  0.20272 -0.449848 -0.0339123  0.170346 -0.480453 -0.024119  0.20206 -0.539561 -0.0260745  0.168834 -0.523803 -0.0232093  0.200225 -0.584504 -0.0250653  0.170375 -0.521005 -0.0279012  0.167353 -0.565551 -0.0268099  0.203641 -0.53686 -0.0313886  0.165847 -0.568182 -0.0223167  0.196967 -0.630311 -0.0240321  0.161492 -0.613444 -0.021425  0.192266 -0.676951 -0.0230504  0.162961 -0.610923 -0.0257316  0.157193 -0.657176 -0.0246698  0.198474 -0.627886 -0.0289003  0.155768 -0.659537 -0.020556  0.186266 -0.724262 -0.0220494  0.148794 -0.706333 -0.0196916  0.178942 -0.772236 -0.0211049  0.150174 -0.704071 -0.0236273  0.141896 -0.751678 -0.0226078  0.187682 -0.722096 -0.0264909  0.140568 -0.753788 -0.018857  0.170446 -0.820727 -0.0201521  0.131211 -0.801796 -0.0180299  0.160744 -0.869742 -0.0192516  0.132492 -0.799776 -0.0216124  0.121943 -0.848449 -0.0206385  0.171765 -0.818799 -0.0241854  0.120715 -0.850329 -0.0172343  0.149996 -0.919146 -0.0183475  0.109208 -0.899289 -0.0164475  0.138158 -0.96896 -0.0174975  0.110384 -0.89749 -0.0196943  0.0977925 -0.946989 -0.0187728  0.151206 -0.917435 -0.021998  0.0966727 -0.94866 -0.0156937  0.12539 -1.01906 -0.016642  0.0832372 -0.998355 -0.0149497  0.111645 -1.06948 -0.0158399  0.0843062 -0.996758 -0.0178803  0.0698935 -1.04689 -0.0170131  0.126491 -1.01755 -0.0199307  0.0688818 -1.04837 -0.0142416  0.0970815 -1.12009 -0.0150348  0.0537302 -1.09862 -0.0135385  0.0816401 -1.17095 -0.014282  0.0546876 -1.09721 -0.0161709  0.0386565 -1.14781 -0.0153552  0.0980711 -1.11876 -0.0179855  0.0377585 -1.14912 -0.0128692  0.0654764 -1.22194 -0.0135293  0.0210848 -1.19979 -0.0122105  0.0485418 -1.2731 -0.0128229  0.0219338 -1.19854 -0.0145652  0.00447297 -1.24948 -0.0137993  0.0663562 -1.22076 -0.0161643  0.00368381 -1.25064 -0.0115842  0.0309761 -1.32434 -0.0121158  -0.0143306 -1.3016 -0.0109667  0.0127249 -1.3757 -0.0114577  -0.0135872 -1.30049 -0.0130616  -0.0322986 -1.35167 -0.012343  0.0317471 -1.32331 -0.0144572  -0.0329854 -1.35269 -0.0103799  -0.00607347 -1.4271 -0.0107979  -0.0521703 -1.40384 -0.00980139  -0.0254724 -1.47857 -0.0101844  -0.0515308 -1.40287 -0.0116545  -0.0713341 -1.45419 -0.0109823  -0.005404 -1.4262 -0.0128639  -0.0719187 -1.45508 -0.00925517  -0.0453417 -1.53003 -0.00957012  -0.0921228 -1.50635 -0.00871503  -0.0657361 -1.58153 -0.00899756  -0.0915794 -1.50549 -0.0103415  -0.112327 -1.55688 -0.00971615  -0.0447726 -1.52925 -0.0113809  -0.112815 -1.55765 -0.00820506  -0.0865331 -1.633 -0.0084312  -0.1339 -1.60896 -0.00770247  -0.107783 -1.68448 -0.00790262  -0.133446 -1.60822 -0.00911677  -0.155001 -1.65961 -0.0085392  -0.0860591 -1.63232 -0.0100005  -0.155402 -1.66028 -0.00723267  -0.129365 -1.7359 -0.0073719  -0.177231 -1.71157 -0.00676727  -0.151348 -1.7873 -0.00688517  -0.176869 -1.71093 -0.00798702  -0.199106 -1.76227 -0.00745213  -0.128984 -1.73532 -0.00872588  -0.199426 -1.76285 -0.00633311  -0.173599 -1.83862 -0.00640202  -0.221886 -1.81407 -0.00590432  -0.196192 -1.8899 -0.0059526  -0.221599 -1.81352 -0.00694311  -0.244406 -1.86478 -0.00645185  -0.173296 -1.83812 -0.00755358  -0.24465 -1.86526 -0.00550401  -0.219004 -1.94109 -0.0055089  -0.267633 -1.91639 -0.00511229  -0.242096 -1.99223 -0.00510335  -0.26742 -1.91592 -0.00598574  -0.290696 -1.96706 -0.00553703  -0.218772 -1.94068 -0.00647485  -0.29087 -1.96746 -0.0047462  -0.265368 -2.04326 -0.00470006  -0.314279 -2.01846 -0.00439143  -0.28887 -2.09423 -0.00433242  -0.314129 -2.01807 -0.0051142  -0.337781 -2.06905 -0.00470805  -0.265201 -2.04292 -0.005494  -0.337895 -2.06939 -0.00406206  -0.312509 -2.14508 -0.0039674  -0.361641 -2.12023 -0.0037384  -0.336332 -2.19586 -0.00363982  -0.36155 -2.1199 -0.00432646  -0.385494 -2.17072 -0.00395668  -0.312399 -2.14481 -0.00460923  -0.385556 -2.17099 -0.00344563  -0.360252 -2.24652 -0.00331891  -0.409563 -2.22166 -0.00315869  -0.384332 -2.2971 -0.00303245  -0.40952 -2.2214 -0.00362217  -0.433684 -2.27203 -0.00329685  -0.360202 -2.24631 -0.00382364  -0.433701 -2.27224 -0.00290048  -0.408465 -2.34756 -0.00275099  -0.457894 -2.32273 -0.00264943  -0.432716 -2.39793 -0.0025059  -0.45789 -2.32252 -0.00300097  -0.482203 -2.37296 -0.00272226  -0.408453 -2.3474 -0.0031333  -0.482184 -2.37313 -0.00242865  -0.456994 -2.44819 -0.00226831  -0.506504 -2.42342 -0.00221336  -0.481362 -2.49836 -0.00206423  -0.506535 -2.42326 -0.00247085  -0.530939 -2.47351 -0.0022316  -0.457013 -2.44807 -0.00254059  -0.530895 -2.47362 -0.00202835  -0.505735 -2.54842 -0.00186586  -0.555288 -2.52373 -0.00185013  -0.530157 -2.5984 -0.00169826  -0.555336 -2.52361 -0.00202453  -0.579784 -2.57366 -0.00182903  -0.505776 -2.54834 -0.00205183  -0.579719 -2.57375 -0.00169742  -0.554568 -2.64827 -0.00154567  -0.604139 -2.62367 -0.00155342  -0.579009 -2.69808 -0.00141764  -0.604205 -2.62358 -0.00166047  -0.628657 -2.67345 -0.00150466  -0.554626 -2.64821 -0.00165725  -0.628579 -2.67351 -0.00143528  -0.603418 -2.7478 -0.00130057  -0.65299 -2.72328 -0.0013181  -0.627848 -2.79747 -0.00119901  -0.653067 -2.7232 -0.00137269  -0.677498 -2.77292 -0.00124133  -0.603492 -2.74775 -0.00135529  -0.677414 -2.77297 -0.00122309  -0.652256 -2.84709 -0.00109947  -0.70182 -2.82261 -0.00112462  -0.67669 -2.8967 -0.00101566  -0.701898 -2.82254 -0.00113058  -0.726331 -2.87217 -0.00101709  -0.65233 -2.84705 -0.00110805  -0.726245 -2.87222 -0.00103831  -0.00889499 -0.00121558 0.0155804  -0.010552 -0.00596467 0.0187787  -0.0216241 -0.00743574 0.0280941  -0.0176076 -0.00222452 0.0270138  -0.0381092 -0.00613724 0.0404153  -0.0285475 -0.0157768 0.0276989  0 0 0  -0.0221344 -0.0157069 0.0228438  0 0 0  0 0 0  -0.0119765 0.00266045 0.0220633  0 0 0  -0.0404647 -0.0218183 0.0397815  -0.0286613 -0.0139867 0.0335457  -0.0341997 -0.0156297 0.0354496  -0.0451438 -0.020798 0.0422071  -0.0469563 -0.0266533 0.0402054  -0.0513197 -0.0118929 0.0478956  -0.0638547 -0.0208103 0.0542357  -0.0638844 -0.017123 0.0568459  -0.0590016 -0.0274458 0.0495504  -0.0401259 -0.00806941 0.0403169  -0.0768581 -0.035782 0.0565743  -0.0606628 -0.0307194 0.0478191  -0.0595459 -0.040797 0.0422584  -0.0761555 -0.0433879 0.0502797  -0.0724724 -0.0577597 0.0429075  -0.0764006 -0.0338505 0.0560961  -0.0892061 -0.050117 0.0570655  -0.0946475 -0.0366098 0.0666236  -0.0954773 -0.0475047 0.0590755  -0.0602059 -0.0321754 0.0470054  -0.113828 -0.0617141 0.0600492  -0.0916531 -0.0592479 0.0510306  -0.085772 -0.0774664 0.0424569  -0.107693 -0.07794 0.0504515  -0.0998591 -0.0996302 0.0412265  -0.103864 -0.0697315 0.0560945  -0.119005 -0.0916618 0.0544852  -0.128321 -0.0703868 0.0661322  -0.132795 -0.0793613 0.0590982  -0.0825089 -0.0697792 0.0470365  -0.151745 -0.0988434 0.0572739  -0.124154 -0.0989814 0.0489619  -0.114548 -0.123816 0.0396359  -0.14121 -0.122269 0.0470142  -0.130017 -0.149925 0.0376571  -0.135612 -0.115803 0.0523286  -0.152698 -0.14162 0.049724  -0.165196 -0.114179 0.0612445  -0.171097 -0.121006 0.0548606  -0.109485 -0.117549 0.0439829  -0.190575 -0.144615 0.0520086  -0.158705 -0.147252 0.0446558  -0.146071 -0.17758 0.0356563  -0.176698 -0.173985 0.0422432  -0.162752 -0.20675 0.033496  -0.170675 -0.169 0.047182  -0.189074 -0.197715 0.0443555  -0.20416 -0.165097 0.0549406  -0.210296 -0.17023 0.049152  -0.140495 -0.172595 0.0397309  -0.23022 -0.197095 0.0461211  -0.195054 -0.202058 0.0396991  -0.179942 -0.237198 0.0314626  -0.213818 -0.23156 0.0372767  -0.197632 -0.268904 0.0293878  -0.208007 -0.22768 0.0418152  -0.227306 -0.258805 0.0391185  -0.244479 -0.221603 0.0485591  -0.250316 -0.225529 0.0433116  -0.17448 -0.233223 0.0352336  -0.270658 -0.255101 0.0404683  -0.232894 -0.262221 0.0348558  -0.215767 -0.30173 0.0274891  -0.252323 -0.294105 0.0326133  -0.234326 -0.335653 0.025606  -0.246964 -0.291018 0.0367479  -0.266954 -0.324285 0.0343034  -0.285804 -0.282892 0.0426383  -0.291151 -0.285976 0.0378975  -0.210681 -0.298516 0.0309352  -0.311907 -0.317904 0.0353553  -0.272034 -0.327036 0.03043  -0.253286 -0.370583 0.0239018  -0.292071 -0.361056 0.0284277  -0.272632 -0.406498 0.0222356  -0.287232 -0.358545 0.0321591  -0.307821 -0.393784 0.0299929  -0.328006 -0.348491 0.0373424  -0.33283 -0.350979 0.033072  -0.248657 -0.367944 0.027018  -0.354015 -0.385033 0.0308435  -0.312387 -0.396041 0.0264994  -0.29235 -0.443327 0.0207275  -0.33301 -0.432006 0.0247375  -0.312429 -0.481052 0.0192611  -0.328673 -0.429932 0.0280817  -0.34982 -0.46699 0.026171  -0.371063 -0.418075 0.0326568  -0.375384 -0.420117 0.0288326  -0.288178 -0.441138 0.0235196  -0.397016 -0.456112 0.0268823  -0.353908 -0.468863 0.0230422  -0.332855 -0.519608 0.0179329  -0.375104 -0.506609 0.0214903  -0.353624 -0.55898 0.0166419  -0.371227 -0.504882 0.0244659  -0.392915 -0.543615 0.0227737  -0.414983 -0.491348 0.0285203  -0.418847 -0.493042 0.0251137  -0.329112 -0.517776 0.0204145  -0.440933 -0.530813 0.0233972  -0.396567 -0.545177 0.0199946  -0.374719 -0.599107 0.01547  -0.418316 -0.584553 0.0186236  -0.396143 -0.639972 0.0143282  -0.414858 -0.58311 0.0212555  -0.43707 -0.62338 0.0197539  -0.459773 -0.56803 0.0248457  -0.463224 -0.569439 0.02183  -0.371371 -0.59757 0.0176588  -0.48576 -0.608834 0.0203094  -0.440328 -0.624678 0.0172995  -0.417866 -0.681518 0.0132858  -0.462608 -0.665537 0.016077  -0.439899 -0.72373 0.012266  -0.459523 -0.664334 0.018392  -0.482238 -0.705996 0.0170497  -0.505429 -0.647836 0.0215675  -0.5085 -0.649007 0.0189106  -0.414873 -0.680231 0.0152043  -0.531478 -0.68988 0.01755  -0.485139 -0.707076 0.0148953  -0.462209 -0.766554 0.011336  -0.507921 -0.749275 0.0138046  -0.484802 -0.809971 0.010425  -0.505179 -0.748276 0.015828  -0.52836 -0.791195 0.0146205  -0.551917 -0.730492 0.0186287  -0.554649 -0.731461 0.0163003  -0.45954 -0.76548 0.013007  -0.578037 -0.773672 0.015082  -0.530937 -0.792084 0.0127414  -0.507646 -0.853935 0.00959337  -0.55418 -0.835485 0.0117618  -0.530746 -0.89843 0.00877559  -0.551747 -0.834664 0.0135193  -0.575354 -0.878712 0.0124301  -0.59919 -0.815726 0.015974  -0.601607 -0.816518 0.013954  -0.505278 -0.853048 0.0110373  -0.625376 -0.85993 0.0128506  -0.577634 -0.879433 0.0108051  -0.554069 -0.94341 0.00802612  -0.601292 -0.923913 0.00992191  -0.577621 -0.988858 0.00728798  -0.599146 -0.923243 0.0114363  -0.623137 -0.968292 0.0104535  -0.647171 -0.903276 0.01358  -0.649305 -0.903915 0.0118359  -0.551978 -0.942683 0.00926435  -0.673411 -0.948404 0.0108397  -0.625142 -0.968873 0.00905716  -0.601364 -1.03473 0.0066154  -0.649162 -1.0143 0.00826502  -0.625308 -1.08102 0.00595582  -0.647282 -1.01377 0.00955701  -0.671602 -1.0597 0.0086726  -0.695793 -0.99289 0.0114127  -0.697658 -0.993399 0.00992441  -0.599526 -1.03414 0.0076679  -0.722061 -1.03884 0.00902557  -0.673355 -1.06016 0.00748777  -0.649416 -1.12767 0.00535059  -0.697691 -1.10643 0.00677049  -0.673692 -1.17469 0.00475419  -0.696051 -1.106 0.00786197  -0.720647 -1.15272 0.00706351  -0.744953 -1.08434 0.0094595  -0.746578 -1.08473 0.00819814  -0.64781 -1.1272 0.0062331  -0.771229 -1.13102 0.00738561  -0.722171 -1.15307 0.00606728  -0.698103 -1.22203 0.004215  -0.746767 -1.20007 0.0054276  -0.722652 -1.26967 0.00367999  -0.745347 -1.19975 0.006338  -0.770175 -1.24714 0.00561917  -0.794565 -1.17739 0.00769329  -0.795968 -1.1777 0.00664258  -0.696712 -1.22166 0.00494468  -0.820819 -1.22472 0.00591171  -0.771482 -1.2474 0.00479543  -0.74731 -1.3176 0.00319815  -0.796291 -1.29503 0.00421953  -0.77208 -1.36578 0.00272191  -0.795073 -1.29479 0.00496948  -0.820077 -1.34276 0.00432897  -0.844534 -1.27186 0.00610995  -0.845737 -1.27208 0.0052433  -0.74612 -1.31732 0.00379026  -0.870736 -1.31973 0.00459027  -0.821189 -1.34295 0.00365758  -0.796927 -1.4142 0.00229323  -0.846152 -1.39112 0.00314152  -0.821857 -1.46284 0.00187147  -0.845122 -1.39095 0.00374877  -0.87025 -1.43941 0.00317955  -0.894773 -1.36753 0.00469339  -0.895786 -1.36768 0.00399399  -0.795919 -1.414 0.00276685  -0.920898 -1.41588 0.00341117  -0.871186 -1.43953 0.0026437  -0.846842 -1.51166 0.00149357  -0.896258 -1.48817 0.00218749  -0.871886 -1.56068 0.00112319  -0.895402 -1.48806 0.0026623  -0.920607 -1.53692 0.00216222  -0.945186 -1.46423 0.00343251  -0.946031 -1.46433 0.00288391  -0.846 -1.51153 0.00186086  -0.971204 -1.51298 0.00236726  -0.92138 -1.53699 0.00174654  -0.89696 -1.60984 0.000794768  -0.946519 -1.586 0.00134826  -0.922072 -1.65916 0.000471711  -0.945816 -1.58594 0.00171125  -0.971063 -1.63514 0.00127077  -0.995692 -1.5618 0.00231886  -0.996381 -1.56184 0.00190043  -0.89627 -1.60977 0.001068  -1.02158 -1.61088 0.0014503  -0.971685 -1.63517 0.000961185  -0.947188 -1.7086 0.000187755  -0.996847 -1.68448 0.000619292  -0.972325 -1.75815 -8.76188e-05  -0.99628 -1.68446 0.000882745  -1.02153 -1.73393 0.00050652  -1.04622 -1.66008 0.00134754  -1.04676 -1.66008 0.00104928  -0.946633 -1.70856 0.000379801  -1.07195 -1.70942 0.000657678  -1.02202 -1.73391 0.000289321  -0.997448 -1.80778 -0.000326753  -1.04717 -1.78346 -3.21865e-06  -1.02257 -1.8575 -0.000554085  -1.04673 -1.78347 0.000177383  -1.07194 -1.83314 -0.00013566  -1.09669 -1.75891 0.000516057  -1.09711 -1.75888 0.000316262  -0.997012 -1.80778 -0.000200868  -1.12226 -1.80845 -1.51396e-05  -1.07232 -1.83309 -0.000283718  -1.04767 -1.90728 -0.000748396  -1.09742 -1.88281 -0.000522375  -1.07275 -1.95711 -0.000935912  -1.0971 -1.88284 -0.000410676  -1.12225 -1.93265 -0.000669956  -1.14704 -1.85817 -0.000177979  -1.14735 -1.85811 -0.000297666  -1.04734 -1.9073 -0.000680566  -1.17244 -1.90785 -0.00057745  -1.12251 -1.93259 -0.000750661  -1.09779 -2.00698 -0.00108922  -1.14755 -1.98242 -0.000944734  -1.1228 -2.05687 -0.00123477  -1.14732 -1.98246 -0.000891685  -1.17239 -2.03234 -0.00108957  -1.19724 -1.95772 -0.000746489  -1.19746 -1.95766 -0.000799894  -1.09756 -2.00702 -0.00106239  -1.22245 -2.00751 -0.00101817  -1.17257 -2.03228 -0.00112438  -1.14775 -2.10677 -0.0013473  -1.19751 -2.08216 -0.00126266  -1.17267 -2.15669 -0.00144744  -1.19736 -2.08221 -0.00124955  -1.22232 -2.13213 -0.00138736  -1.24724 -2.05745 -0.00118387  -1.24737 -2.05739 -0.00118685  -1.14761 -2.10682 -0.00135469  -1.27226 -2.10729 -0.00134027  -1.22243 -2.13206 -0.00139177  -1.19754 -2.20658 -0.00151551  -1.24727 -2.18196 -0.0014869  -1.22235 -2.25647 -0.00157559  -1.24719 -2.182 -0.00149775  -1.27204 -2.2319 -0.00158679  -1.29701 -2.15726 -0.00148904  -1.29707 -2.1572 -0.00145829  -1.19745 -2.20664 -0.00154281  -1.32186 -2.20711 -0.00155962  -1.27208 -2.23185 -0.00156403  -1.24711 -2.30632 -0.00161254  -1.29681 -2.28171 -0.00161409  -1.27181 -2.35615 -0.0016408  -1.29679 -2.28174 -0.0016439  -1.32152 -2.33159 -0.00168061  -1.34655 -2.25705 -0.00166917  -1.34656 -2.257 -0.0016166  -1.24707 -2.30637 -0.00164819  -1.37124 -2.30687 -0.00167012  -1.32152 -2.33154 -0.00165105  -1.29646 -2.40593 -0.00164688  -1.34615 -2.38134 -0.00166512  -1.32107 -2.45568 -0.00165617  -1.34615 -2.38137 -0.00169599  -1.37077 -2.43114 -0.00169873  -1.39586 -2.35673 -0.00173056  -1.39584 -2.3567 -0.00167727  -1.29646 -2.40598 -0.00169051  -1.42044 -2.40649 -0.00168979  -1.37076 -2.4311 -0.00167692  -1.34563 -2.50537 -0.00166547  -1.39532 -2.48081 -0.00167894  -1.37018 -2.55503 -0.00169683  -1.39532 -2.48084 -0.00170565  -1.4199 -2.53054 -0.00171888  -1.44501 -2.45626 -0.00172257  -1.44501 -2.45623 -0.00168848  -1.34563 -2.50543 -0.00170505  -1.46958 -2.50593 -0.00170517  -1.41989 -2.53049 -0.00170004  -0.00450501 0.00174364 0.00981939  -0.00568204 0.000724465 0.0123621  -0.0105658 -0.00216784 0.0178176  -0.00908894 0.0046044 0.0178738  -0.020818 0.00233355 0.0279638  0 0 0  0 0 0  -0.00619901 0.00516012 0.0137178  0 0 0  -0.0143065 -0.00388153 0.0227774  -0.0169271 -0.0110723 0.0226194  -0.0245754 -0.0126526 0.0289845  -0.0241916 -0.0236768 0.0258485  -0.0292067 -0.00586966 0.032621  -0.0366759 -0.0167796 0.0369762  -0.0200782 -0.00470605 0.0256737  -0.034485 -0.024549 0.0328573  -0.0316106 -0.0392729 0.0272564  -0.0447761 -0.0394873 0.0346004  -0.0397637 -0.0579694 0.0277174  -0.0448644 -0.0317249 0.038239  -0.05326 -0.0497821 0.0388021  -0.0313363 -0.0319437 0.0300108  -0.0552399 -0.0573786 0.0351471  -0.048447 -0.0791098 0.0274518  -0.0662824 -0.0778849 0.0347942  -0.0580146 -0.102786 0.0266498  -0.0632031 -0.0706291 0.0383611  -0.0739015 -0.0941294 0.0372484  -0.0455786 -0.0721167 0.0300754  -0.0780374 -0.100822 0.0337963  -0.0683735 -0.128468 0.0256382  -0.0905625 -0.125849 0.03251  -0.0796748 -0.156155 0.0243261  -0.0859756 -0.119626 0.0359561  -0.0989176 -0.147164 0.034191  -0.064201 -0.122322 0.0281891  -0.103918 -0.152763 0.0308851  -0.0918056 -0.18544 0.0230218  -0.11802 -0.181325 0.0292491  -0.104817 -0.216324 0.0215666  -0.112934 -0.176178 0.0325283  -0.127731 -0.206776 0.0305851  -0.0871632 -0.180243 0.0254748  -0.13288 -0.211373 0.0274576  -0.118589 -0.248506 0.0202119  -0.148386 -0.242762 0.0257748  -0.133136 -0.282002 0.0187899  -0.143337 -0.238548 0.0288396  -0.159605 -0.271616 0.0269423  -0.113941 -0.244171 0.0225211  -0.164542 -0.275381 0.0240372  -0.148352 -0.316597 0.0175046  -0.18125 -0.309147 0.0224544  -0.164244 -0.352309 0.0162008  -0.176495 -0.305682 0.0252694  -0.19395 -0.340868 0.0235255  -0.143936 -0.312983 0.0196301  -0.198523 -0.343977 0.02087  -0.180731 -0.388986 0.0150387  -0.216281 -0.379819 0.019441  -0.197819 -0.426641 0.0138761  -0.211917 -0.376943 0.0219874  -0.230381 -0.41402 0.0204253  -0.176643 -0.385954 0.0169594  -0.234545 -0.416611 0.0180312  -0.215436 -0.465154 0.0128467  -0.253246 -0.454311 0.0167675  -0.233596 -0.504535 0.0118254  -0.249288 -0.451902 0.0190454  -0.268645 -0.490693 0.0176629  -0.211705 -0.462595 0.0145595  -0.272408 -0.492866 0.0155268  -0.252239 -0.544686 0.0109187  -0.291974 -0.53224 0.0144109  -0.271376 -0.585614 0.010024  -0.288405 -0.53021 0.0164325  -0.308584 -0.570556 0.0152072  -0.248857 -0.542518 0.0124282  -0.311964 -0.572391 0.0133197  -0.290951 -0.627229 0.00922787  -0.33233 -0.613276 0.0123386  -0.310983 -0.669535 0.00844443  -0.329126 -0.61156 0.0141174  -0.350057 -0.653312 0.0130315  -0.287906 -0.625386 0.0105464  -0.35309 -0.654861 0.0113752  -0.331412 -0.712458 0.00774372  -0.374191 -0.697105 0.010507  -0.352258 -0.755994 0.00705028  -0.371326 -0.695652 0.0120584  -0.392951 -0.738672 0.011091  -0.32868 -0.710889 0.00888288  -0.395659 -0.739976 0.00965261  -0.373465 -0.800076 0.00643396  -0.41744 -0.783438 0.0088799  -0.395047 -0.844699 0.00581837  -0.414879 -0.782211 0.0102249  -0.437143 -0.82636 0.00936258  -0.371019 -0.798744 0.00741017  -0.439554 -0.827456 0.00811636  -0.416955 -0.889804 0.00526977  -0.461948 -0.871995 0.00742877  -0.4392 -0.935388 0.00472355  -0.459677 -0.870966 0.00858653  -0.482509 -0.916116 0.007815  -0.41478 -0.888679 0.00610125  -0.484645 -0.917031 0.00674725  -0.461729 -0.981391 0.00424051  -0.507588 -0.962526 0.00613093  -0.484556 -1.02781 0.00375021  -0.50558 -0.961667 0.00711703  -0.528919 -1.0077 0.00642526  -0.459804 -0.980443 0.00493765  -0.530799 -1.00845 0.00551808  -0.507631 -1.07459 0.00331843  -0.554224 -1.05479 0.00496757  -0.530968 -1.12174 0.00288415  -0.552459 -1.05407 0.00580192  -0.576237 -1.10088 0.00518203  -0.505939 -1.0738 0.00389767  -0.577883 -1.1015 0.00441921  -0.554513 -1.1692 0.00250053  -0.601722 -1.14856 0.00392675  -0.578283 -1.21697 0.00211465  -0.600183 -1.14797 0.00462139  -0.624334 -1.19544 0.00406337  -0.553037 -1.16854 0.00297439  -0.625765 -1.19594 0.00343382  -0.602226 -1.26501 0.00177646  -0.649951 -1.24363 0.00299716  -0.626359 -1.31331 0.00143409  -0.648619 -1.24316 0.00356662  -0.673079 -1.29121 0.00307405  -0.600948 -1.26447 0.00215399  -0.674311 -1.2916 0.00255799  -0.650635 -1.36183 0.00113368  -0.698787 -1.33983 0.00216544  -0.67506 -1.41058 0.000830531  -0.697641 -1.33945 0.0026269  -0.722353 -1.38798 0.00218868  -0.649538 -1.36141 0.00142896  -0.723399 -1.38829 0.00177693  -0.699595 -1.45951 0.000569105  -0.748098 -1.43696 0.00143373  -0.724251 -1.50862 0.000305176  -0.747135 -1.43667 0.00179446  -0.772031 -1.4856 0.00141072  -0.698668 -1.45917 0.000789046  -0.772909 -1.48583 0.00108898  -0.748986 -1.55788 7.85589e-05  -0.797774 -1.53487 0.000787973  -0.773813 -1.60729 -0.000151515  -0.796969 -1.53465 0.0010649  -0.821996 -1.58391 0.000729799  -0.748214 -1.55762 0.000236869  -0.822724 -1.58408 0.0004884  -0.79869 -1.65681 -0.00034368  -0.847703 -1.63342 0.000227928  -0.823632 -1.70644 -0.000540376  -0.847045 -1.63326 0.000428319  -0.872158 -1.68278 0.000136852  -0.798057 -1.65661 -0.000239968  -0.872742 -1.68289 -3.20673e-05  -0.8486 -1.75616 -0.000703454  -0.897792 -1.73247 -0.000255585  -0.873607 -1.80596 -0.000866175  -0.897264 -1.73235 -0.000114679  -0.922414 -1.78206 -0.000361323  -0.848096 -1.75602 -0.000648022  -0.922877 -1.78213 -0.000478506  -0.898621 -1.85582 -0.000995874  -0.947949 -1.83187 -0.000659347  -0.923655 -1.90573 -0.0011301  -0.947539 -1.83181 -0.000573754  -0.972691 -1.88165 -0.000775576  -0.898231 -1.85572 -0.000976205  -0.97304 -1.88168 -0.000842929  -0.94867 -1.95567 -0.00123179  -0.998097 -1.93154 -0.000985622  -0.973688 -2.00564 -0.00133359  -0.997794 -1.9315 -0.00094378  -1.02291 -1.98144 -0.00110495  -0.948379 -1.95561 -0.00123978  -1.02316 -1.98144 -0.00113702  -0.998674 -2.05562 -0.00141096  -1.04818 -2.03136 -0.00124788  -1.02365 -2.10561 -0.00148785  -1.04796 -2.03134 -0.00123334  -1.07301 -2.08131 -0.00135601  -0.998469 -2.0556 -0.00143945  -1.07318 -2.08129 -0.00136185  -1.04857 -2.15559 -0.00153172  -1.09812 -2.13123 -0.0014379  -1.07347 -2.20556 -0.00158036  -1.09798 -2.13123 -0.00145149  -1.12295 -2.18119 -0.00152516  -1.04844 -2.15558 -0.00157428  -1.12304 -2.18116 -0.00151205  -1.09832 -2.2555 -0.00160015  -1.1479 -2.23108 -0.00155902  -1.12313 -2.30542 -0.00162399  -1.14782 -2.23109 -0.00158608  -1.17268 -2.28101 -0.00162375  -1.09825 -2.25551 -0.00165009  -1.17272 -2.28098 -0.00160205  -1.14788 -2.35529 -0.0016278  -1.19747 -2.33084 -0.00161779  -1.17258 -2.40513 -0.00162899  -1.19744 -2.33085 -0.00165021  -1.22218 -2.3807 -0.00166202  -1.14785 -2.35531 -0.00167465  -1.22218 -2.38066 -0.00163805  -1.19722 -2.45491 -0.00162196  -1.24682 -2.43045 -0.00163627  -1.22182 -2.50465 -0.00162041  -1.24683 -2.43047 -0.00167155  -1.27145 -2.48023 -0.00167024  -1.19722 -2.45494 -0.00166571  -1.27143 -2.48018 -0.00164437  -1.24635 -2.55432 -0.00161695  -1.29598 -2.52987 -0.00165176  -1.27084 -2.60392 -0.00164282  -1.29598 -2.5299 -0.0016849  -1.32053 -2.57956 -0.0017091  -1.24636 -2.55437 -0.00166392  -1.32051 -2.57949 -0.00167704  -0.00127945 0.00136644 0.0042299  -0.00237418 0.0017468 0.00687468  -0.002786 -0.00288066 0.00796533  -0.00385548 0.00520933 0.00958109  -0.0091045 0.00302878 0.0155691  0 0 0  0 0 0  -0.00189929 0.00440052 0.0057826  0 0 0  -0.0058634 -0.00223097 0.0127078  -0.00432153 -0.0121944 0.010383  -0.0102062 -0.0112097 0.0164318  -0.00655796 -0.0254054 0.0121207  -0.0122292 -0.0052225 0.0183207  -0.0152447 -0.0172218 0.0209451  -0.00531149 -0.00635347 0.0114484  -0.0146791 -0.0240163 0.0188824  -0.00917473 -0.0420564 0.012959  -0.019944 -0.0402123 0.0200087  -0.0126347 -0.0617886 0.0132792  -0.0192244 -0.0332019 0.02178  -0.0236308 -0.0523828 0.0221306  -0.00814548 -0.0352325 0.0138215  -0.0256419 -0.0593851 0.0203986  -0.0168334 -0.0841016 0.0132138  -0.0321514 -0.0811954 0.0202361  -0.0220197 -0.10892 0.0128055  -0.0294062 -0.0743393 0.0219696  -0.0360151 -0.0989329 0.0213134  -0.0141954 -0.0773891 0.014047  -0.0394914 -0.105425 0.0196404  -0.0281586 -0.135806 0.0122914  -0.0477434 -0.131781 0.0188844  -0.0353664 -0.164727 0.0115604  -0.0439253 -0.125608 0.0206077  -0.0528333 -0.154384 0.0195389  -0.0246361 -0.129691 0.0131556  -0.0569808 -0.160081 0.0178766  -0.0435818 -0.195321 0.01085  -0.0671496 -0.190087 0.0168787  -0.0528534 -0.227569 0.010015  -0.0629091 -0.184753 0.0185617  -0.0739564 -0.216793 0.0173582  -0.0396885 -0.189957 0.0117279  -0.0782853 -0.221659 0.0157434  -0.0630869 -0.261184 0.00925696  -0.0902925 -0.254617 0.0146948  -0.0743048 -0.296163 0.00842988  -0.086014 -0.250087 0.0162915  -0.0989512 -0.28475 0.0151002  -0.0591449 -0.256567 0.010105  -0.103181 -0.288865 0.01358  -0.0863993 -0.33228 0.00770175  -0.116851 -0.324271 0.0125793  -0.0993847 -0.369546 0.00693715  -0.112749 -0.320441 0.0140542  -0.127317 -0.357293 0.0129415  -0.0825914 -0.328333 0.00848711  -0.131304 -0.36077 0.0115505  -0.113155 -0.407781 0.00627542  -0.146451 -0.398266 0.0106438  -0.127726 -0.446999 0.00559735  -0.142624 -0.395021 0.0119736  -0.158614 -0.433762 0.0109739  -0.109579 -0.404405 0.00697589  -0.1623 -0.436711 0.00972629  -0.143002 -0.487057 0.00501764  -0.178769 -0.476027 0.00892377  -0.158997 -0.527966 0.00442958  -0.175251 -0.473268 0.0101037  -0.192502 -0.513668 0.00922012  -0.139698 -0.484165 0.00562382  -0.195868 -0.51618 0.00812101  -0.175626 -0.569613 0.00393188  -0.213526 -0.557103 0.00741899  -0.192907 -0.612 0.00342464  -0.210325 -0.554745 0.00845003  -0.228704 -0.59662 0.00767469  -0.172608 -0.567127 0.00444007  -0.231754 -0.598764 0.00672066  -0.210757 -0.655033 0.00299752  -0.250486 -0.641107 0.00611031  -0.229191 -0.698715 0.00256562  -0.247595 -0.639089 0.00699997  -0.266995 -0.682269 0.00632024  -0.208017 -0.652894 0.0034188  -0.269741 -0.684105 0.00550139  -0.248142 -0.742961 0.00220013  -0.289448 -0.727703 0.00496984  -0.26762 -0.787773 0.00182581  -0.286846 -0.725972 0.00572813  -0.307162 -0.770308 0.0051322  -0.245671 -0.741118 0.0025388  -0.309628 -0.771879 0.00443745  -0.287556 -0.833077 0.00151324  -0.330217 -0.816584 0.00397313  -0.307968 -0.878874 0.00119483  -0.327887 -0.815101 0.00461471  -0.34903 -0.860455 0.00408995  -0.28534 -0.831492 0.00178027  -0.351231 -0.861794 0.00350475  -0.328785 -0.925096 0.000927925  -0.372609 -0.907468 0.00309992  -0.350028 -0.971744 0.000650764  -0.370533 -0.906199 0.00363171  -0.392415 -0.952443 0.00317216  -0.326808 -0.923734 0.00112677  -0.394369 -0.953582 0.00268912  -0.371629 -1.01876 0.000424147  -0.416448 -1.0001 0.002334  -0.393603 -1.06613 0.00018394  -0.414609 -0.999019 0.00277328  -0.437143 -1.04603 0.00236297  -0.369877 -1.01759 0.000564337  -0.438864 -1.047 0.00196862  -0.415887 -1.11382 -9.89437e-06  -0.461553 -1.09424 0.00165725  -0.438497 -1.16182 -0.000216603  -0.459939 -1.09332 0.00200844  -0.483031 -1.141 0.00165212  -0.414346 -1.11283 8.18968e-05  -0.484541 -1.14181 0.00133657  -0.461374 -1.21008 -0.000382304  -0.507761 -1.18968 0.00106215  -0.484529 -1.25861 -0.000560164  -0.506352 -1.18891 0.00134325  -0.529932 -1.23714 0.00102437  -0.46003 -1.20924 -0.00033164  -0.531238 -1.23782 0.00077939  -0.507908 -1.30735 -0.000699162  -0.554908 -1.28622 0.000538945  -0.531526 -1.35631 -0.000847697  -0.553692 -1.28557 0.000753641  -0.577672 -1.33428 0.000478268  -0.506753 -1.30664 -0.000686288  -0.578797 -1.33485 0.000291228  -0.555324 -1.40545 -0.000966668  -0.602839 -1.38368 8.55923e-05  -0.579319 -1.45476 -0.00109398  -0.6018 -1.38315 0.000240326  -0.626107 -1.43225 1.19209e-06  -0.554335 -1.40486 -0.000983357  -0.627063 -1.4327 -0.000130773  -0.603462 -1.50422 -0.00118971  -0.651407 -1.4819 -0.000308275  -0.627763 -1.55381 -0.00129366  -0.650529 -1.48146 -0.000204325  -0.675101 -1.53089 -0.000405788  -0.602625 -1.50373 -0.00123107  -0.675897 -1.53125 -0.000492573  -0.652171 -1.60351 -0.00137055  -0.700473 -1.58074 -0.000644326  -0.676708 -1.65333 -0.00145781  -0.699746 -1.58038 -0.000583053  -0.724511 -1.63005 -0.000757456  -0.651478 -1.60312 -0.00142956  -0.725166 -1.63034 -0.00080359  -0.70132 -1.70322 -0.00151455  -0.749915 -1.68005 -0.000929475  -0.726028 -1.75319 -0.00158095  -0.74932 -1.67977 -0.000899315  -0.774224 -1.72962 -0.00104344  -0.70076 -1.7029 -0.00158989  -0.774752 -1.72985 -0.00106013  -0.750785 -1.8032 -0.00162303  -0.799616 -1.77972 -0.00116181  -0.775607 -1.85328 -0.00167441  -0.799147 -1.7795 -0.00116289  -0.82413 -1.82949 -0.00127864  -0.750344 -1.80296 -0.00171053  -0.82454 -1.82965 -0.00127053  -0.800451 -1.90337 -0.00169981  -0.849472 -1.87963 -0.00134766  -0.825336 -1.9535 -0.00173318  -0.849109 -1.87946 -0.00137055  -0.874133 -1.92952 -0.00145733  -0.80011 -1.90318 -0.00179052  -0.874442 -1.92964 -0.00143313  -0.850224 -2.00363 -0.00174522  -0.899395 -1.97968 -0.00148785  -0.87513 -2.05377 -0.00176418  -0.899132 -1.97956 -0.00152802  -0.924149 -2.02965 -0.00158858  -0.849977 -2.00349 -0.00183678  -0.924366 -2.02973 -0.00154877  -0.900016 -2.10388 -0.00175965  -0.949303 -2.07978 -0.00158453  -0.924905 -2.15399 -0.00176692  -0.949119 -2.0797 -0.00163186  -0.974104 -2.12978 -0.00167024  -0.899848 -2.10379 -0.00184953  -0.974244 -2.12982 -0.00162613  -0.949762 -2.20407 -0.00175023  -0.999133 -2.17985 -0.00164068  -0.974602 -2.25412 -0.00174129  -0.999022 -2.1798 -0.00169373  -1.02394 -2.22984 -0.00170517  -0.949658 -2.20401 -0.0018326  -1.02401 -2.22986 -0.00166178  -0.999397 -2.30413 -0.00171173  -1.04883 -2.27984 -0.00165796  -1.02417 -2.35411 -0.00169373  -1.04878 -2.2798 -0.00170612  -1.0736 -2.32977 -0.00170124  -0.999348 -2.3041 -0.00178468  -1.07363 -2.32978 -0.00165987  -1.04888 -2.40402 -0.00165379  -1.09836 -2.37967 -0.00164449  -1.07355 -2.45389 -0.00162792  -1.09835 -2.37965 -0.00168848  -1.12307 -2.42953 -0.00166392  -1.04887 -2.404 -0.00171459  -1.12305 -2.42952 -0.00163448  -1.09816 -2.50368 -0.00158608  -1.14768 -2.47931 -0.00160849  -1.12273 -2.55342 -0.00155902  -1.14769 -2.47931 -0.001647  -1.17229 -2.52908 -0.00161922  -1.09819 -2.50369 -0.00163662  -1.17227 -2.52905 -0.00159574  -1.14722 -2.60308 -0.00153208  -1.19677 -2.57871 -0.0015825  -1.17164 -2.65264 -0.00152838  -1.1968 -2.57873 -0.00161767  -1.22128 -2.62835 -0.00162685  -1.14725 -2.60311 -0.00157535  -1.22124 -2.62829 -0.00159204  0.00144349 -0.000566274 -0.00133979  0.00034149 0.000544965 0.00144541  0.00375268 -0.00630817 -0.00154269  0.000215031 0.0036037 0.00151885  0.000240684 0.000165045 0.00351179  0 0 0  0 0 0  0.00158012 0.0021975 -0.00195158  0 0 0  0.000885785 -0.00440365 0.00307977  0.0064553 -0.0167769 -0.00133789  0.00121634 -0.0141592 0.0044347  0.00874907 -0.0309804 -0.000999331  0.00117825 -0.00861081 0.00450623  0.00208759 -0.0214852 0.00555587  0.00717296 -0.0113899 -0.0022701  0.00140101 -0.0277797 0.00546646  0.0105974 -0.0486586 -0.000691175  0.000871897 -0.0449361 0.0060389  0.0116248 -0.0692987 -0.00052774  0.00223523 -0.0383352 0.00604773  0.00183371 -0.0583932 0.00626445  0.012228 -0.0422299 -0.00162363  -0.000266403 -0.065084 0.00628769  0.0117727 -0.0925954 -0.000434637  -0.00232822 -0.0879253 0.0063082  0.0108502 -0.118353 -0.000510335  0.000209689 -0.0812987 0.00633037  -0.00233936 -0.106819 0.00608718  0.0142432 -0.086105 -0.00129402  -0.00535381 -0.113201 0.00607514  0.00883204 -0.146237 -0.000597477  -0.00942582 -0.140632 0.00578475  0.00562239 -0.176174 -0.000818491  -0.00618815 -0.13449 0.0058614  -0.0111285 -0.164291 0.00539732  0.011851 -0.140161 -0.00135601  -0.0146186 -0.170059 0.00531864  0.00125217 -0.207855 -0.00100684  -0.0209005 -0.201241 0.00487936  -0.00432926 -0.24124 -0.00129175  -0.0173366 -0.195776 0.0050019  -0.0246541 -0.228996 0.00444865  0.0045405 -0.202386 -0.00167561  -0.0283123 -0.234059 0.00432944  -0.0110413 -0.276061 -0.00151634  -0.0367801 -0.268321 0.0038439  -0.0189117 -0.312301 -0.00180435  -0.0331542 -0.263557 0.00398266  -0.0426958 -0.299547 0.00342023  -0.00768518 -0.271241 -0.0021174  -0.0463156 -0.303936 0.00329256  -0.0278392 -0.349732 -0.00201976  -0.0568266 -0.34075 0.00282729  -0.0378421 -0.388346 -0.00227928  -0.0533016 -0.336628 0.00295448  -0.0648591 -0.374912 0.00242639  -0.0245645 -0.345522 -0.002581  -0.0683159 -0.378697 0.00231719  -0.0488105 -0.427958 -0.00246632  -0.080695 -0.417655 0.00189722  -0.0607588 -0.468567 -0.00268257  -0.0773616 -0.414098 0.00199747  -0.0907236 -0.454312 0.00152934  -0.0456954 -0.424298 -0.00299942  -0.0939561 -0.457574 0.00145304  -0.0735782 -0.510021 -0.0028249  -0.108015 -0.498359 0.00109422  -0.0872859 -0.552323 -0.00299239  -0.104921 -0.495289 0.00115454  -0.119892 -0.537154 0.000754714  -0.0706749 -0.506842 -0.00334179  -0.122873 -0.53997 0.000715971  -0.101778 -0.595343 -0.00309443  -0.138446 -0.582327 0.000419378  -0.11707 -0.639085 -0.00321627  -0.135604 -0.579668 0.000437379  -0.152016 -0.622961 0.000101089  -0.0991004 -0.592575 -0.00359786  -0.154741 -0.625397 0.000103593  -0.133067 -0.683439 -0.00327802  -0.171676 -0.669111 -0.000139594  -0.149783 -0.728407 -0.00336158  -0.16909 -0.666807 -0.000158429  -0.186794 -0.711332 -0.000434756  -0.130621 -0.68103 -0.00376964  -0.189261 -0.713439 -0.000398278  -0.167132 -0.773902 -0.0033921  -0.207422 -0.758329 -0.000594616  -0.185126 -0.819921 -0.00344372  -0.205085 -0.756332 -0.000648856  -0.223943 -0.801923 -0.000875831  -0.164919 -0.771808 -0.00387001  -0.226167 -0.803747 -0.000808239  -0.203681 -0.866387 -0.00344825  -0.245424 -0.849647 -0.000965953  -0.22281 -0.9133 -0.0034765  -0.243324 -0.847916 -0.0010494  -0.263218 -0.894426 -0.00123596  -0.201687 -0.864566 -0.00391161  -0.265206 -0.896003 -0.00114024  -0.242439 -0.960587 -0.00346053  -0.285441 -0.94277 -0.00126553  -0.262579 -1.00825 -0.0034672  -0.283566 -0.941273 -0.00137246  -0.304373 -0.988569 -0.00152266  -0.24066 -0.959007 -0.00390685  -0.306142 -0.989927 -0.0014075  -0.283156 -1.05624 -0.00343251  -0.327238 -1.03744 -0.00150406  -0.304183 -1.10454 -0.00342214  -0.325576 -1.03614 -0.00162995  -0.347192 -1.08411 -0.00175154  -0.281584 -1.05487 -0.00386167  -0.348748 -1.08528 -0.0016197  -0.325591 -1.1531 -0.00338054  -0.370602 -1.13341 -0.00169373  -0.347393 -1.20192 -0.0033586  -0.369146 -1.1323 -0.00183487  -0.391453 -1.18082 -0.00193191  -0.324208 -1.15192 -0.00378513  -0.392817 -1.18182 -0.0017879  -0.369517 -1.25096 -0.00330305  -0.415323 -1.23048 -0.00184262  -0.391981 -1.30021 -0.00326908  -0.414053 -1.22953 -0.00199401  -0.436965 -1.27852 -0.00206673  -0.368313 -1.24994 -0.00368547  -0.438146 -1.27937 -0.00191414  -0.414724 -1.34964 -0.00320566  -0.46121 -1.32846 -0.00195146  -0.437756 -1.39924 -0.00316584  -0.460115 -1.32765 -0.00210762  -0.483536 -1.37702 -0.00216472  -0.413693 -1.34877 -0.00356829  -0.484541 -1.37774 -0.00200772  -0.461014 -1.44897 -0.00309718  -0.508075 -1.42719 -0.0020299  -0.484515 -1.49884 -0.00305009  -0.507148 -1.42649 -0.00219476  -0.530983 -1.47617 -0.00223005  -0.460136 -1.44823 -0.00343275  -0.531835 -1.47677 -0.00207305  -0.508202 -1.54881 -0.00297642  -0.55575 -1.52649 -0.00208366  -0.532088 -1.59888 -0.00292492  -0.554971 -1.52591 -0.00224769  -0.579147 -1.57582 -0.00226903  -0.507473 -1.54818 -0.00328934  -0.579854 -1.57633 -0.00211143  -0.55612 -1.64902 -0.00284803  -0.604076 -1.62625 -0.00210989  -0.580308 -1.69923 -0.00278986  -0.603434 -1.62577 -0.00227082  -0.627872 -1.67585 -0.00228095  -0.555516 -1.6485 -0.00313306  -0.628446 -1.67626 -0.00212586  -0.604609 -1.74948 -0.0027138  -0.652906 -1.72634 -0.00211215  -0.629034 -1.79978 -0.00265217  -0.652392 -1.72594 -0.00227106  -0.677024 -1.77614 -0.00226569  -0.604126 -1.74905 -0.00297308  -0.677482 -1.77647 -0.00211954  -0.653534 -1.8501 -0.00256956  -0.70211 -1.82664 -0.00210011  -0.678126 -1.90044 -0.0025084  -0.701706 -1.82632 -0.00224972  -0.726475 -1.87659 -0.00223124  -0.653158 -1.84975 -0.00280583  -0.726824 -1.87685 -0.00209284  -0.702763 -1.95078 -0.00242555  -0.751564 -1.92707 -0.00206363  -0.727463 -2.00112 -0.00236166  -0.75126 -1.92681 -0.00220263  -0.776109 -1.9771 -0.0021776  -0.702484 -1.9505 -0.00263691  -0.776366 -1.9773 -0.00205183  -0.752182 -2.05143 -0.00228047  -0.801169 -2.02753 -0.00201273  -0.77694 -2.10174 -0.00221431  -0.800951 -2.02733 -0.00214243  -0.825839 -2.07759 -0.00210404  -0.751982 -2.05122 -0.0024631  -0.826009 -2.07774 -0.00198972  -0.801694 -2.152 -0.00212848  -0.85083 -2.12794 -0.00194776  -0.826469 -2.20224 -0.00206232  -0.850688 -2.12779 -0.00206208  -0.875563 -2.178 -0.00201368  -0.801569 -2.15184 -0.00228691  -0.875668 -2.17811 -0.0019182  -0.851223 -2.25242 -0.001984  -0.900471 -2.22825 -0.00186729  -0.875974 -2.30256 -0.00191605  -0.900393 -2.22813 -0.00196719  -0.92523 -2.27826 -0.00191355  -0.851153 -2.2523 -0.0021143  -0.925274 -2.27834 -0.00183153  -0.900691 -2.35264 -0.00183427  -0.95003 -2.32839 -0.00177872  -0.925396 -2.40267 -0.00176597  -0.950006 -2.32831 -0.00185955  -0.974776 -2.37834 -0.00179482  -0.900677 -2.35256 -0.0019412  -0.974773 -2.37838 -0.00173306  -0.950057 -2.45262 -0.00168467  -0.999454 -2.42832 -0.00167239  -0.974687 -2.50252 -0.00161839  -0.999468 -2.42827 -0.00173533  -1.02415 -2.47818 -0.00166941  -0.950078 -2.45257 -0.00176477  -1.02411 -2.4782 -0.00162446  -0.999255 -2.55234 -0.00153923  -1.0487 -2.52801 -0.00156736  -1.02379 -2.60208 -0.00148201  -1.04875 -2.52798 -0.00160766  -1.07331 -2.57776 -0.00154805  -0.999305 -2.55232 -0.00159431  -1.07326 -2.57775 -0.00152326  -1.04824 -2.65173 -0.00141311  -1.09772 -2.6274 -0.00147915  -1.07262 -2.70129 -0.00137055  -1.09778 -2.62741 -0.00150001  -1.1222 -2.677 -0.00146997  -1.0483 -2.65174 -0.001441  -1.12212 -2.67696 -0.00145364  0.00400637 -0.00364566 -0.0068363  0.00284124 -0.00189483 -0.00397801  0.0100713 -0.0117804 -0.0106629  0.00363697 0.000782073 -0.00629294  0.00850938 -0.00481093 -0.00816178  0 0 0  0 0 0  0.00463556 -0.00111288 -0.00944948  0 0 0  0.0070934 -0.0088222 -0.00620961  0.0169738 -0.0242103 -0.0124266  0.011707 -0.020174 -0.0070219  0.0236957 -0.039876 -0.0133611  0.0132457 -0.0150159 -0.00875199  0.0178899 -0.0291923 -0.00908971  0.0190482 -0.0192913 -0.0153201  0.0162286 -0.0350511 -0.00729764  0.0298896 -0.0587652 -0.0135671  0.0201805 -0.0532983 -0.00724459  0.0352674 -0.080377 -0.0136076  0.022041 -0.0470566 -0.00893879  0.0255859 -0.0680048 -0.00887322  0.0319799 -0.0527564 -0.0162328  0.0234044 -0.0744053 -0.00716925  0.039618 -0.104568 -0.0134389  0.0256515 -0.0981623 -0.00702131  0.0428075 -0.131161 -0.0132794  0.0280278 -0.0917593 -0.00865149  0.029474 -0.118083 -0.00856388  0.0419627 -0.0983316 -0.0159389  0.0268064 -0.124332 -0.00696933  0.0447689 -0.159894 -0.0130367  0.0267951 -0.15267 -0.00687647  0.0454106 -0.190709 -0.012843  0.0295854 -0.146597 -0.0084033  0.0285084 -0.177266 -0.00835621  0.0473948 -0.153914 -0.0153847  0.0255347 -0.183043 -0.00687921  0.0447607 -0.223321 -0.0125943  0.0230408 -0.21522 -0.00683773  0.042757 -0.257694 -0.0123987  0.0260559 -0.20969 -0.00825155  0.0223739 -0.243909 -0.00823641  0.0475619 -0.217814 -0.0147882  0.0192707 -0.249099 -0.00687408  0.0394748 -0.29357 -0.0121473  0.0142863 -0.284476 -0.00685227  0.0348789 -0.330916 -0.0119448  0.0173655 -0.279549 -0.00816214  0.0111646 -0.316681 -0.00815725  0.0423307 -0.288616 -0.0141921  0.00807095 -0.321269 -0.00689209  0.0290691 -0.369509 -0.0116878  0.000707626 -0.359309 -0.00686586  0.0220233 -0.409325 -0.0114731  0.0037328 -0.354967 -0.00808346  -0.00481689 -0.394499 -0.00806367  0.0318802 -0.36511 -0.0135916  -0.00780404 -0.398527 -0.00688636  0.0138485 -0.450175 -0.0112034  -0.0173752 -0.438783 -0.00684023  0.00453389 -0.49204 -0.0109743  -0.0144852 -0.434977 -0.00797701  -0.0251747 -0.476502 -0.00793362  0.0165457 -0.446291 -0.0129737  -0.0279967 -0.480025 -0.00683331  -0.00580966 -0.534762 -0.0106927  -0.0395818 -0.522137 -0.00676131  -0.0171931 -0.57833 -0.010448  -0.0368725 -0.518805 -0.0078274  -0.0494986 -0.561998 -0.00775409  -0.00327241 -0.531345 -0.0123371  -0.0521212 -0.565074 -0.00672126  -0.0295069 -0.622611 -0.0101535  -0.0655322 -0.608747 -0.00662494  -0.0427632 -0.667598 -0.00989723  -0.063023 -0.605831 -0.00762224  -0.0773884 -0.650424 -0.00752497  -0.0271523 -0.619609 -0.0116794  -0.079802 -0.653115 -0.00655818  -0.0568539 -0.713176 -0.00959599  -0.0948523 -0.6981 -0.00643802  -0.071793 -0.759341 -0.00933146  -0.0925572 -0.695547 -0.00737274  -0.108484 -0.741319 -0.00725067  -0.054693 -0.710538 -0.0110062  -0.11068 -0.743671 -0.00634706  -0.0874836 -0.805999 -0.00902557  -0.127207 -0.789764 -0.00620961  -0.10393 -0.853146 -0.00875485  -0.125124 -0.78753 -0.0070821  -0.142446 -0.834296 -0.00694239  -0.0855207 -0.803682 -0.0103252  -0.144428 -0.83635 -0.00609934  -0.121045 -0.900698 -0.00844836  -0.16227 -0.883376 -0.00594807  -0.138834 -0.948654 -0.00818121  -0.160396 -0.881421 -0.00676298  -0.178956 -0.929021 -0.0066129  -0.119278 -0.898665 -0.00964403  -0.180734 -0.930812 -0.00583076  -0.157216 -0.996946 -0.0078795  -0.199743 -0.978617 -0.0056715  -0.176195 -1.04557 -0.0076139  -0.19807 -0.976908 -0.00642705  -0.217726 -1.0252 -0.00626647  -0.155638 -0.995165 -0.00897384  -0.219305 -1.02677 -0.0055424  -0.195692 -1.09446 -0.00731909  -0.239347 -1.07522 -0.00537825  -0.215717 -1.14363 -0.00705791  -0.237869 -1.07373 -0.00607657  -0.258489 -1.12259 -0.00590968  -0.194297 -1.09291 -0.00831795  -0.259879 -1.12395 -0.00524354  -0.236194 -1.19301 -0.00677097  -0.280826 -1.17294 -0.00507689  -0.257133 -1.24261 -0.00651765  -0.279528 -1.17164 -0.00571942  -0.300989 -1.22097 -0.00555015  -0.234973 -1.19165 -0.00767672  -0.302201 -1.22215 -0.00493872  -0.278463 -1.29238 -0.00624454  -0.323932 -1.27157 -0.00477457  -0.300188 -1.34232 -0.00599861  -0.322807 -1.27044 -0.00536263  -0.34499 -1.32015 -0.00519562  -0.277405 -1.2912 -0.00706291  -0.346031 -1.32116 -0.00463772  -0.322244 -1.39239 -0.0057354  -0.368433 -1.37092 -0.00447404  -0.344643 -1.44259 -0.00550044  -0.367468 -1.36995 -0.00500917  -0.390265 -1.41995 -0.00484204  -0.321341 -1.39137 -0.00647116  -0.391154 -1.42082 -0.00433528  -0.36732 -1.49289 -0.005247  -0.414124 -1.47085 -0.00417376  -0.390284 -1.54327 -0.00502229  -0.413309 -1.47001 -0.00465822  -0.436622 -1.52023 -0.00449264  -0.366558 -1.49201 -0.00590491  -0.437364 -1.52097 -0.00404024  -0.413478 -1.59372 -0.00478065  -0.460806 -1.57119 -0.00388169  -0.436913 -1.64424 -0.00456512  -0.46013 -1.57048 -0.00431716  -0.483862 -1.62086 -0.00415671  -0.412852 -1.59297 -0.00536597  -0.484471 -1.62148 -0.00374901  -0.460531 -1.69478 -0.00433731  -0.508296 -1.67183 -0.00359511  -0.484343 -1.74537 -0.00413191  -0.507746 -1.67123 -0.00398314  -0.531814 -1.72171 -0.00382531  -0.460022 -1.69415 -0.00484896  -0.532302 -1.72224 -0.00346529  -0.508296 -1.79596 -0.00391781  -0.556428 -1.77267 -0.00332046  -0.532406 -1.84657 -0.00373006  -0.555994 -1.77216 -0.00366116  -0.580324 -1.82268 -0.00350821  -0.5079 -1.79543 -0.00436652  -0.580701 -1.82312 -0.00319493  -0.55662 -1.89716 -0.00352776  -0.605058 -1.87359 -0.00305164  -0.580951 -1.94776 -0.00335062  -0.604725 -1.87316 -0.00335193  -0.629242 -1.9237 -0.0032047  -0.55632 -1.89673 -0.00391316  -0.629527 -1.92405 -0.00293374  -0.605354 -1.99831 -0.00315928  -0.654045 -1.97451 -0.00279641  -0.629844 -2.04885 -0.00299466  -0.653806 -1.97416 -0.0030576  -0.678449 -2.02466 -0.00291526  -0.605143 -1.99796 -0.0034883  -0.678646 -2.02495 -0.00268304  -0.654377 -2.09935 -0.00281954  -0.703269 -2.07536 -0.00255406  -0.678967 -2.1498 -0.00266588  -0.703104 -2.07508 -0.00277376  -0.727822 -2.12551 -0.00263536  -0.654238 -2.09906 -0.00309551  -0.727946 -2.12574 -0.0024426  -0.703568 -2.20019 -0.00250292  -0.752625 -2.17607 -0.00232196  -0.728209 -2.25054 -0.00236547  -0.75253 -2.17586 -0.00250387  -0.777274 -2.22619 -0.00237405  -0.703492 -2.19997 -0.00273001  -0.777336 -2.22636 -0.00221884  -0.75284 -2.30082 -0.00221705  -0.802024 -2.2766 -0.00210488  -0.777488 -2.35104 -0.00209284  -0.801984 -2.27643 -0.00225103  -0.826721 -2.32666 -0.00212395  -0.752817 -2.30065 -0.00239623  -0.826734 -2.32678 -0.0020082  -0.802114 -2.40117 -0.00195885  -0.851402 -2.37689 -0.00190282  -0.82674 -2.45125 -0.00184369  -0.851406 -2.37676 -0.00201082  -0.8761 -2.42685 -0.00189531  -0.802133 -2.40105 -0.00209284  -0.87607 -2.42694 -0.00180876  -0.851328 -2.50124 -0.00172055  -0.900691 -2.47692 -0.001706  -0.875904 -2.55115 -0.00161517  -0.900734 -2.47683 -0.00178576  -0.925359 -2.52677 -0.00167155  -0.851375 -2.50116 -0.00181425  -0.925303 -2.52682 -0.00162137  -0.900429 -2.60098 -0.00149703  -0.949848 -2.57665 -0.00152194  -0.924924 -2.65073 -0.00139689  -0.949912 -2.57659 -0.00156593  -0.974444 -2.62637 -0.00146282  -0.900503 -2.60093 -0.00155497  -0.974365 -2.62639 -0.00144207  -0.949354 -2.70039 -0.00129592  -0.998797 -2.67605 -0.00135291  -0.973714 -2.74996 -0.00121045  -0.998884 -2.67602 -0.00136697  -1.02327 -2.72561 -0.00128865  -0.949437 -2.70036 -0.00131226  -1.02316 -2.72561 -0.00129032  0.00674394 -0.00826991 -0.0120317  0.00541636 -0.00557661 -0.00926852  0.0171015 -0.0196503 -0.0191035  0.00678396 -0.00325888 -0.0137241  0.0165908 -0.011888 -0.0192825  0 0 0  0 0 0  0.00761086 -0.00594217 -0.0165079  0 0 0  0.0135567 -0.0153777 -0.0150057  0.0285851 -0.0347334 -0.0225754  0.02261 -0.0290809 -0.0177249  0.0399694 -0.0521613 -0.0246973  0.0253918 -0.0243368 -0.0212342  0.0339617 -0.0401965 -0.022796  0.031716 -0.0303085 -0.0273826  0.0315364 -0.0456184 -0.0191975  0.0505396 -0.072307 -0.0254831  0.0399362 -0.0651165 -0.0196722  0.0601644 -0.0949008 -0.0258342  0.0421694 -0.0592588 -0.0230483  0.0496814 -0.0811468 -0.0231881  0.0530048 -0.0667343 -0.0298433  0.0474166 -0.0872275 -0.0198427  0.0685685 -0.119866 -0.0257342  0.0538339 -0.111821 -0.0196799  0.0756729 -0.147222 -0.0254676  0.0560918 -0.105679 -0.0229431  0.0614095 -0.132728 -0.0226426  0.0708408 -0.113919 -0.0298619  0.0590045 -0.138795 -0.019452  0.0814288 -0.176705 -0.0250137  0.0628918 -0.167921 -0.0190823  0.0857384 -0.208321 -0.0245057  0.0653282 -0.161972 -0.0221972  0.0679607 -0.193402 -0.0217488  0.0837575 -0.170867 -0.0289485  0.0653993 -0.19913 -0.0187241  0.0886413 -0.241788 -0.023899  0.0665425 -0.232186 -0.0182825  0.0900612 -0.277076 -0.0232921  0.0691168 -0.226656 -0.0212207  0.0689235 -0.261766 -0.0207173  0.0910487 -0.236307 -0.0276197  0.0662793 -0.26701 -0.0178756  0.0900751 -0.313929 -0.0226164  0.0646576 -0.303389 -0.0174041  0.088636 -0.352302 -0.0219691  0.0672783 -0.298371 -0.0201534  0.0643067 -0.336527 -0.0196279  0.0925117 -0.308914 -0.0261033  0.0616648 -0.341244 -0.0169764  0.0858411 -0.391976 -0.0212691  0.0573699 -0.380392 -0.0164934  0.0816647 -0.432904 -0.0206081  0.059957 -0.375901 -0.0190501  0.0543456 -0.416562 -0.0185173  0.0882454 -0.387456 -0.0245111  0.0517793 -0.420762 -0.0160533  0.0762161 -0.474901 -0.0199034  0.0449711 -0.462204 -0.0155643  0.0694795 -0.517927 -0.0192447  0.0474622 -0.458208 -0.0179327  0.0394067 -0.500925 -0.0173976  0.078534 -0.47086 -0.0229069  0.0369631 -0.504648 -0.0151204  0.0615687 -0.561826 -0.0185484  0.0278385 -0.547976 -0.0146276  0.0524811 -0.606567 -0.0178968  0.0301899 -0.544437 -0.0168158  0.0199032 -0.588843 -0.0162802  0.0637643 -0.558231 -0.0213156  0.017616 -0.592131 -0.0141789  0.0423232 -0.652015 -0.0172154  0.00638068 -0.637014 -0.0136907  0.0310919 -0.698154 -0.0165808  0.00856793 -0.633887 -0.0157067  -0.00374031 -0.679677 -0.0151768  0.0443685 -0.648828 -0.019757  -0.00585353 -0.68258 -0.0132449  0.0188965 -0.744868 -0.0159167  -0.0189967 -0.728744 -0.0127617  0.00573707 -0.792138 -0.0153009  -0.0169843 -0.725978 -0.0146115  -0.0311096 -0.772903 -0.0140913  0.0207831 -0.742041 -0.0182419  -0.0330397 -0.775464 -0.0123215  -0.00828969 -0.839872 -0.0146635  -0.0478969 -0.822677 -0.0118494  -0.0231807 -0.888061 -0.0140686  -0.046069 -0.820235 -0.0135428  -0.0618203 -0.868091 -0.0130348  -0.00657237 -0.837372 -0.0167813  -0.0635633 -0.870349 -0.0114175  -0.0388436 -0.93662 -0.0134546  -0.0799519 -0.91842 -0.0109584  -0.0552788 -0.985545 -0.0128882  -0.0783066 -0.916268 -0.012504  -0.0954969 -0.964882 -0.0120116  -0.0372986 -0.93441 -0.0153805  -0.0970623 -0.966865 -0.0105422  -0.0723935 -1.03476 -0.012302  -0.114812 -1.01564 -0.0100964  -0.0901946 -1.08427 -0.0117607  -0.11334 -1.01374 -0.0115  -0.131813 -1.06296 -0.0110261  -0.071014 -1.03281 -0.0140443  -0.1332 -1.0647 -0.00969326  -0.108596 -1.13401 -0.0112046  -0.15215 -1.11404 -0.00926805  -0.127599 -1.18397 -0.0106933  -0.150851 -1.11237 -0.0105386  -0.170444 -1.16208 -0.0100812  -0.107378 -1.13229 -0.0127729  -0.171665 -1.1636 -0.00888014  -0.147128 -1.23411 -0.010168  -0.191666 -1.21338 -0.0084734  -0.167181 -1.28443 -0.00967991  -0.190531 -1.21192 -0.00961483  -0.211107 -1.262 -0.00917947  -0.146066 -1.2326 -0.0115724  -0.212165 -1.26334 -0.0081048  -0.187689 -1.33486 -0.00918484  -0.233082 -1.31346 -0.00771785  -0.208657 -1.38543 -0.00872731  -0.232104 -1.31217 -0.00874043  -0.253529 -1.36255 -0.00832808  -0.186778 -1.33354 -0.0104383  -0.254432 -1.36372 -0.00736868  -0.23001 -1.43609 -0.00825822  -0.276137 -1.41409 -0.00700319  -0.251756 -1.48684 -0.00782871  -0.275306 -1.41297 -0.00791395  -0.297449 -1.46356 -0.00752401  -0.229238 -1.43493 -0.00936913  -0.298211 -1.46457 -0.00667179  -0.273831 -1.53764 -0.00738931  -0.320585 -1.51513 -0.00632417  -0.296239 -1.58849 -0.00698876  -0.319891 -1.51416 -0.00713241  -0.342647 -1.56488 -0.00676179  -0.273192 -1.53663 -0.00836957  -0.343274 -1.56575 -0.00601053  -0.318923 -1.63937 -0.00657678  -0.366215 -1.61643 -0.00568521  -0.341887 -1.69028 -0.0062027  -0.365647 -1.61559 -0.00639033  -0.388911 -1.66639 -0.00604486  -0.318408 -1.63851 -0.00743306  -0.389416 -1.66714 -0.00539005  -0.36507 -1.74119 -0.00581992  -0.412815 -1.71788 -0.00508189  -0.38849 -1.79211 -0.00547099  -0.412368 -1.71716 -0.0056994  -0.436039 -1.768 -0.00537455  -0.364666 -1.74045 -0.00656199  -0.436434 -1.76863 -0.00480723  -0.412082 -1.843 -0.00511873  -0.460206 -1.81938 -0.00452375  -0.435863 -1.89387 -0.00479901  -0.459858 -1.81878 -0.00505447  -0.483862 -1.8696 -0.00475311  -0.411776 -1.84237 -0.00575399  -0.484154 -1.87013 -0.00426817  -0.459779 -1.94471 -0.00447369  -0.508217 -1.92085 -0.00400651  -0.483842 -1.99551 -0.00418115  -0.507965 -1.92035 -0.00445628  -0.532207 -1.97111 -0.00417864  -0.459562 -1.94418 -0.00500846  -0.532416 -1.97155 -0.00377202  -0.508001 -2.04625 -0.00388181  -0.556694 -2.02221 -0.00352609  -0.53227 -2.09695 -0.00361145  -0.556521 -2.02179 -0.00390458  -0.580946 -2.07248 -0.00364518  -0.507859 -2.04582 -0.00432765  -0.581077 -2.07283 -0.00331104  -0.556606 -2.14759 -0.00334537  -0.605509 -2.1234 -0.00308692  -0.581017 -2.19816 -0.003106  -0.605406 -2.12306 -0.0033977  -0.629945 -2.17364 -0.00316358  -0.55653 -2.14724 -0.00370836  -0.63001 -2.17392 -0.00289261  -0.605465 -2.24865 -0.00286257  -0.654535 -2.22437 -0.0026921  -0.629968 -2.29908 -0.00265169  -0.654493 -2.2241 -0.0029397  -0.679097 -2.27454 -0.00272226  -0.605448 -2.24838 -0.0031532  -0.679108 -2.27476 -0.00251389  -0.654478 -2.34942 -0.002442  -0.703674 -2.32508 -0.00233531  -0.679017 -2.39969 -0.00225639  -0.703679 -2.32486 -0.00252891  -0.728302 -2.37516 -0.00233364  -0.654503 -2.34921 -0.00266278  -0.728271 -2.37532 -0.00217724  -0.703548 -2.44987 -0.0020715  -0.752845 -2.42549 -0.00202048  -0.728088 -2.49996 -0.00191081  -0.752885 -2.42532 -0.00216091  -0.777492 -2.47546 -0.00198758  -0.703605 -2.44971 -0.00223577  -0.777431 -2.47557 -0.00188196  -0.752602 -2.54997 -0.00174713  -0.801979 -2.52558 -0.00173914  -0.777117 -2.59989 -0.00160873  -0.802048 -2.52546 -0.00183153  -0.826609 -2.57541 -0.00167453  -0.752681 -2.54986 -0.00185823  -0.826529 -2.5755 -0.00161386  -0.801595 -2.64972 -0.00146186  -0.851025 -2.62533 -0.00148273  -0.826059 -2.69947 -0.00133276  -0.851114 -2.62524 -0.00153244  -0.875611 -2.67501 -0.00138307  -0.801681 -2.64964 -0.00152075  -0.87551 -2.67508 -0.00136614  -0.85047 -2.74913 -0.0011996  -0.899924 -2.72474 -0.00124657  -0.874843 -2.79872 -0.0010922  -0.900023 -2.72467 -0.00125313  -0.924402 -2.77428 -0.00112426  -0.850564 -2.74907 -0.00120842  -0.924286 -2.77432 -0.00114548  0.0102021 -0.0159304 -0.0164609  0.008509 -0.0113353 -0.0140901  0.0264733 -0.031353 -0.0263301  0.0101834 -0.00927353 -0.0204375  0.0256569 -0.0218346 -0.029433  0 0 0  0 0 0  0.0110935 -0.0137031 -0.0226808  0 0 0  0.0213259 -0.0249152 -0.0228851  0.0432217 -0.0491587 -0.03142  0.035432 -0.041416 -0.0273103  0.0594495 -0.0682116 -0.0348063  0.0391503 -0.0370505 -0.0326003  0.0520839 -0.0546806 -0.0353044  0.0472206 -0.045037 -0.0380666  0.0490205 -0.0597487 -0.0299513  0.0742936 -0.0891703 -0.036413  0.0619111 -0.0803539 -0.0310901  0.0878679 -0.112559 -0.037235  0.0644273 -0.0748447 -0.0361725  0.0758685 -0.0975876 -0.0366532  0.0771245 -0.0839099 -0.0424651  0.0735099 -0.103372 -0.0316505  0.100092 -0.138155 -0.0373651  0.0839033 -0.128672 -0.0316275  0.110871 -0.166217 -0.0371109  0.0860906 -0.122792 -0.0365475  0.0951036 -0.150501 -0.0361754  0.102346 -0.132444 -0.0431688  0.0928847 -0.156373 -0.0313605  0.120224 -0.196449 -0.0365342  0.100462 -0.186232 -0.030828  0.128025 -0.22887 -0.0357897  0.102639 -0.180438 -0.0355458  0.108788 -0.212605 -0.034793  0.122327 -0.190761 -0.0420983  0.106551 -0.218236 -0.0301989  0.134314 -0.263219 -0.0348787  0.111159 -0.252141 -0.0294316  0.139013 -0.299433 -0.0339115  0.113379 -0.246671 -0.0338981  0.116508 -0.282645 -0.0329723  0.136401 -0.257815 -0.0401483  0.114245 -0.287878 -0.0286416  0.142177 -0.33728 -0.0328512  0.115841 -0.325225 -0.0277674  0.143764 -0.376676 -0.0317918  0.118078 -0.320187 -0.0319527  0.118193 -0.359328 -0.0309517  0.144259 -0.332274 -0.0377873  0.115939 -0.3641 -0.0269116  0.143857 -0.417417 -0.0306778  0.114598 -0.404311 -0.0260001  0.14244 -0.459431 -0.0295936  0.116803 -0.39974 -0.0298927  0.114018 -0.441475 -0.0288712  0.145908 -0.412855 -0.0352606  0.111822 -0.445776 -0.0251275  0.139606 -0.502537 -0.0284719  0.107691 -0.488334 -0.0242116  0.135355 -0.546677 -0.0273986  0.109823 -0.484223 -0.0278074  0.104313 -0.52806 -0.026793  0.14159 -0.498418 -0.0327004  0.102215 -0.531913 -0.0233444  0.129788 -0.591692 -0.0262985  0.0954858 -0.576382 -0.022444  0.122912 -0.637542 -0.0252535  0.0975057 -0.572702 -0.025749  0.0894922 -0.618237 -0.0247575  0.131671 -0.587992 -0.0301801  0.087521 -0.621676 -0.0215936  0.114836 -0.684088 -0.0241922  0.0784115 -0.667687 -0.0207198  0.105568 -0.731304 -0.0231841  0.0802997 -0.664407 -0.0237458  0.0700077 -0.711308 -0.0227871  0.116601 -0.680778 -0.0277369  0.0681765 -0.714366 -0.0198978  0.0952147 -0.77907 -0.0221665  0.056909 -0.76162 -0.0190551  0.0837804 -0.827369 -0.0212047  0.058652 -0.758699 -0.0218149  0.0462995 -0.806688 -0.0208972  0.096843 -0.776114 -0.0253942  0.0446229 -0.809409 -0.0182686  0.0713754 -0.876097 -0.0202346  0.031414 -0.857656 -0.0174621  0.0580012 -0.925247 -0.0193217  0.0330007 -0.855057 -0.0199691  0.0188086 -0.903913 -0.0190917  0.07286 -0.873461 -0.0231605  0.0172893 -0.906328 -0.0167094  0.0437577 -0.974727 -0.0184033  0.00234246 -0.955364 -0.0159411  0.02865 -1.02454 -0.0175407  0.00377297 -0.953055 -0.0182096  -0.0120649 -1.0026 -0.0173786  0.0450952 -0.972381 -0.0210449  -0.0134213 -1.00474 -0.0152271  0.0127752 -1.0746 -0.0166749  -0.029912 -1.05439 -0.0145003  -0.00386584 -1.12491 -0.015862  -0.0286411 -1.05234 -0.0165448  -0.0459253 -1.10241 -0.015757  0.0139652 -1.07251 -0.0190499  -0.047128 -1.10431 -0.0138234  -0.0211844 -1.17541 -0.0150477  -0.0649841 -1.15444 -0.0131383  -0.0391825 -1.2261 -0.0142838  -0.0638626 -1.15262 -0.0149719  -0.0824299 -1.2031 -0.0142295  -0.0201415 -1.17356 -0.0171736  -0.0834805 -1.20477 -0.0124996  -0.057771 -1.27691 -0.0135196  -0.102533 -1.25526 -0.0118536  -0.0769527 -1.32786 -0.0128064  -0.101563 -1.25366 -0.0134914  -0.12125 -1.30443 -0.0127922  -0.05687 -1.27527 -0.0154153  -0.12215 -1.3059 -0.0112526  -0.096648 -1.37889 -0.0120883  -0.142249 -1.35665 -0.0106465  -0.116861 -1.43002 -0.0114187  -0.14142 -1.35524 -0.0120989  -0.162075 -1.40621 -0.011441  -0.0958822 -1.37745 -0.0137664  -0.162838 -1.4075 -0.0100821  -0.137516 -1.48119 -0.0107498  -0.183837 -1.45843 -0.00951207  -0.158615 -1.53242 -0.0101255  -0.183141 -1.45719 -0.0107954  -0.204626 -1.50829 -0.0101807  -0.136878 -1.47992 -0.0122271  -0.205261 -1.50942 -0.00898707  -0.180092 -1.58365 -0.00950241  -0.227034 -1.56045 -0.0084554  -0.201948 -1.63491 -0.00892246  -0.22646 -1.55937 -0.00957882  -0.24865 -1.61053 -0.00900698  -0.179572 -1.58254 -0.0107954  -0.249166 -1.61152 -0.00796425  -0.224122 -1.68616 -0.00834441  -0.271588 -1.6626 -0.0074693  -0.246619 -1.7374 -0.00780725  -0.271134 -1.66165 -0.00844407  -0.293922 -1.71283 -0.00791121  -0.223715 -1.68519 -0.00946069  -0.29432 -1.71368 -0.0070132  -0.269376 -1.78861 -0.00727534  -0.317289 -1.76475 -0.00655508  -0.292404 -1.83979 -0.00677884  -0.316939 -1.76393 -0.00739467  -0.340213 -1.81508 -0.0068996  -0.269066 -1.78778 -0.00822985  -0.34051 -1.8158 -0.00613344  -0.315638 -1.89092 -0.00628829  -0.363921 -1.86682 -0.00571239  -0.339096 -1.942 -0.00584078  -0.363667 -1.86613 -0.00642192  -0.387331 -1.91719 -0.00597155  -0.315428 -1.89021 -0.00709867  -0.387541 -1.91781 -0.00532675  -0.362715 -1.99302 -0.00539351  -0.411304 -1.96874 -0.00494206  -0.386515 -2.04398 -0.00498414  -0.411135 -1.96816 -0.00553846  -0.43511 -2.01912 -0.0051235  -0.362578 -1.99242 -0.0060693  -0.435237 -2.01963 -0.00459111  -0.410435 -2.09485 -0.00457716  -0.45927 -2.07045 -0.00423551  -0.434493 -2.14566 -0.00420952  -0.459177 -2.06996 -0.00472617  -0.483377 -2.12079 -0.00434923  -0.410372 -2.09436 -0.00513148  -0.483434 -2.12121 -0.00391817  -0.458638 -2.19638 -0.003847  -0.507669 -2.17189 -0.00360382  -0.482887 -2.24702 -0.00351846  -0.507642 -2.17149 -0.00399876  -0.532 -2.22217 -0.00365865  -0.458635 -2.19598 -0.00428832  -0.532004 -2.22251 -0.00331891  -0.507189 -2.29756 -0.00319648  -0.556371 -2.27304 -0.00303793  -0.531563 -2.34803 -0.00291204  -0.55639 -2.27271 -0.00334692  -0.580854 -2.32323 -0.00304949  -0.507233 -2.29725 -0.00354362  -0.58081 -2.32348 -0.0027889  -0.555962 -2.39838 -0.00263536  -0.605258 -2.37385 -0.00254607  -0.580402 -2.44866 -0.00239491  -0.605313 -2.3736 -0.0027808  -0.629827 -2.42392 -0.0025233  -0.556036 -2.39814 -0.00289357  -0.62975 -2.42412 -0.00233388  -0.604852 -2.49883 -0.00215793  -0.654233 -2.47431 -0.00212502  -0.629325 -2.54892 -0.00195885  -0.654319 -2.47412 -0.00229144  -0.678837 -2.52426 -0.00206387  -0.604952 -2.49866 -0.00234103  -0.67874 -2.5244 -0.00194168  -0.653776 -2.5989 -0.0017668  -0.703217 -2.5744 -0.00176287  -0.678236 -2.6488 -0.00160003  -0.703312 -2.57426 -0.00186884  -0.727811 -2.62421 -0.00167382  -0.653883 -2.59878 -0.00188804  -0.727705 -2.62431 -0.00160849  -0.702665 -2.69861 -0.00143671  -0.752156 -2.67413 -0.00145304  -0.727105 -2.74833 -0.0012933  -0.752259 -2.67402 -0.00150621  -0.776718 -2.72379 -0.00133348  -0.702771 -2.69852 -0.00149727  -0.776609 -2.72387 -0.00131643  -0.751513 -2.79799 -0.00115383  -0.801015 -2.77354 -0.0011754  -0.77592 -2.8476 -0.00102663  -0.801123 -2.77345 -0.00117838  -0.825519 -2.82308 -0.00102913  -0.751612 -2.79792 -0.00116491  -0.825397 -2.82314 -0.00105512  0.016299 -0.0306773 -0.02042  0.0133551 -0.0215776 -0.0180234  0.0429517 -0.0509784 -0.0322958  0.0152223 -0.0195193 -0.0258809  0.0384584 -0.0365155 -0.0378146  0 0 0  0 0 0  0.0159932 -0.0286342 -0.0285975  0 0 0  0.0325642 -0.0398999 -0.0292002  0.0641175 -0.0677854 -0.0399002  0.0526461 -0.0581237 -0.0357373  0.0835317 -0.0873622 -0.0446566  0.0569775 -0.0536193 -0.0428672  0.0742064 -0.072486 -0.0468565  0.0696267 -0.0632826 -0.0480462  0.0706264 -0.0775499 -0.0397511  0.102024 -0.108654 -0.047071  0.0876262 -0.098676 -0.0417438  0.119154 -0.132479 -0.048368  0.0904185 -0.0932798 -0.0486355  0.105461 -0.116658 -0.0496053  0.105352 -0.103288 -0.0549971  0.103018 -0.122298 -0.0428224  0.135006 -0.158891 -0.0486037  0.117073 -0.148257 -0.0430254  0.149396 -0.187678 -0.0483603  0.119266 -0.142538 -0.0496978  0.131763 -0.170951 -0.0493276  0.137301 -0.153222 -0.0562676  0.129672 -0.176664 -0.042785  0.162257 -0.218877 -0.0476013  0.140759 -0.207343 -0.0421327  0.17349 -0.252219 -0.0466424  0.142764 -0.201694 -0.0485222  0.152289 -0.234697 -0.0475057  0.164248 -0.213313 -0.054921  0.150289 -0.240202 -0.0412798  0.183077 -0.287617 -0.04541  0.158221 -0.275047 -0.0402112  0.190957 -0.324862 -0.044118  0.160177 -0.269685 -0.0462558  0.166505 -0.306606 -0.0449297  0.184997 -0.282347 -0.0523086  0.164525 -0.311757 -0.0390773  0.197166 -0.36381 -0.0426757  0.169213 -0.350135 -0.0378244  0.201654 -0.404299 -0.0412463  0.171153 -0.345155 -0.0434755  0.174227 -0.385328 -0.0420226  0.199061 -0.358921 -0.0491102  0.172272 -0.390061 -0.0365757  0.204518 -0.446164 -0.0397264  0.173758 -0.431356 -0.0352577  0.205715 -0.489294 -0.0382569  0.175664 -0.4268 -0.0404949  0.175573 -0.469614 -0.0390049  0.206382 -0.441692 -0.0456729  0.173672 -0.473917 -0.033975  0.205377 -0.533519 -0.0367333  0.172097 -0.517582 -0.0326512  0.203461 -0.578766 -0.0352762  0.173936 -0.51345 -0.0374746  0.170862 -0.558383 -0.0359951  0.207183 -0.529465 -0.0421972  0.169037 -0.562269 -0.0313814  0.200126 -0.624873 -0.0337898  0.164599 -0.607835 -0.0300871  0.195327 -0.671799 -0.0323743  0.16635 -0.604109 -0.0345032  0.160506 -0.650726 -0.0330652  0.20185 -0.621216 -0.0387797  0.158785 -0.654221 -0.0288521  0.189235 -0.719389 -0.030942  0.151712 -0.701299 -0.0276022  0.181799 -0.767629 -0.0295851  0.153352 -0.697951 -0.0316294  0.144982 -0.745898 -0.0302498  0.190855 -0.716105 -0.0354818  0.143382 -0.749027 -0.0264182  0.173201 -0.816375 -0.0282211  0.133915 -0.797297 -0.0252264  0.163381 -0.865632 -0.026934  0.135433 -0.794296 -0.0288823  0.124778 -0.843277 -0.02757  0.1747 -0.813434 -0.0323348  0.123312 -0.846077 -0.0240973  0.152523 -0.91527 -0.0256418  0.111688 -0.895276 -0.0229651  0.140564 -0.965302 -0.0244247  0.11307 -0.89259 -0.0262728  0.100368 -0.94237 -0.0250289  0.153893 -0.912639 -0.0293553  0.0990391 -0.94487 -0.0218974  0.127682 -1.01561 -0.0232075  0.0854856 -0.994782 -0.02083  0.113811 -1.06623 -0.0220624  0.0867289 -0.992383 -0.0238088  0.0721955 -1.04277 -0.0226365  0.128916 -1.01327 -0.0265452  0.0710107 -1.045 -0.019824  0.0991309 -1.11704 -0.0209212  0.0557388 -1.09545 -0.0188186  0.0835681 -1.16807 -0.0198495  0.056842 -1.09331 -0.0214915  0.0406958 -1.14415 -0.0203924  0.100229 -1.11495 -0.0239097  0.0396498 -1.14613 -0.0178757  0.0672934 -1.21923 -0.0187802  0.0228595 -1.19698 -0.0169325  0.0502388 -1.27056 -0.0177767  0.0238264 -1.19507 -0.0193192  0.0062542 -1.24623 -0.018286  0.0682569 -1.21737 -0.0214429  0.00534511 -1.24799 -0.0160458  0.0325601 -1.32196 -0.0167785  -0.012784 -1.29911 -0.015164  0.0141945 -1.37346 -0.0158396  -0.0119498 -1.29742 -0.0172856  -0.0307753 -1.34879 -0.0163203  0.0333934 -1.3203 -0.0191399  -0.0315471 -1.35035 -0.0143355  -0.00470757 -1.425 -0.0149051  -0.0508409 -1.40165 -0.0135103  -0.0242193 -1.4766 -0.0140309  -0.0501411 -1.40015 -0.0153842  -0.0700512 -1.45164 -0.0144827  -0.00400639 -1.42354 -0.0169826  -0.0706954 -1.45302 -0.0127381  -0.0441878 -1.52819 -0.0131657  -0.0910046 -1.50442 -0.0119717  -0.0646906 -1.57981 -0.0123525  -0.0904281 -1.50309 -0.0136129  -0.111274 -1.55464 -0.0127715  -0.0436103 -1.52691 -0.0149862  -0.111799 -1.55585 -0.0112503  -0.0855777 -1.6314 -0.0115464  -0.132976 -1.60727 -0.0105367  -0.106925 -1.68298 -0.0107963  -0.132511 -1.60611 -0.0119644  -0.15416 -1.65764 -0.0111868  -0.0851164 -1.63027 -0.0131264  -0.154573 -1.6587 -0.00987089  -0.128601 -1.73451 -0.0100511  -0.176495 -1.71011 -0.00920928  -0.150671 -1.78601 -0.00935614  -0.176135 -1.70909 -0.0104409  -0.198462 -1.76057 -0.00972152  -0.128244 -1.73353 -0.0114076  -0.198771 -1.76149 -0.00859368  -0.173005 -1.83743 -0.00867331  -0.221313 -1.81281 -0.00798392  -0.19568 -1.8888 -0.00803661  -0.22105 -1.81193 -0.00903249  -0.243941 -1.86331 -0.00836945  -0.172742 -1.83659 -0.00982296  -0.244159 -1.8641 -0.00742066  -0.218564 -1.94008 -0.00741076  -0.267215 -1.91532 -0.00686014  -0.241732 -1.9913 -0.0068326  -0.267047 -1.91456 -0.00774109  -0.290391 -1.96581 -0.00713873  -0.21839 -1.93937 -0.00837338  -0.290523 -1.96648 -0.00634718  -0.265066 -2.04242 -0.00626314  -0.313998 -2.01755 -0.00583553  -0.288636 -2.09346 -0.00573862  -0.313906 -2.01691 -0.00656915  -0.337617 -2.068 -0.0060178  -0.264972 -2.04182 -0.00705981  -0.337677 -2.06856 -0.00537062  -0.312331 -2.14438 -0.00522733  -0.361482 -2.11948 -0.00491023  -0.336218 -2.19523 -0.00475335  -0.361457 -2.11894 -0.00550318  -0.385457 -2.16985 -0.00500619  -0.3123 -2.14389 -0.00586641  -0.385448 -2.17031 -0.00449002  -0.360188 -2.24596 -0.00429797  -0.409503 -2.22105 -0.00408149  -0.38431 -2.2966 -0.00388241  -0.409536 -2.22061 -0.00455165  -0.433738 -2.27133 -0.00410688  -0.360214 -2.24556 -0.00479722  -0.433683 -2.2717 -0.00370848  -0.40848 -2.34711 -0.00348163  -0.457915 -2.32224 -0.0033505  -0.432773 -2.39754 -0.00313115  -0.457989 -2.32189 -0.00370646  -0.482331 -2.37241 -0.00332546  -0.408552 -2.34681 -0.00386  -0.482241 -2.37269 -0.0030334  -0.457078 -2.44785 -0.00278699  -0.50659 -2.42304 -0.00272167  -0.481472 -2.49806 -0.00249195  -0.506694 -2.42277 -0.00298202  -0.531121 -2.47309 -0.00265515  -0.457178 -2.44762 -0.00305879  -0.531004 -2.47329 -0.0024544  -0.505862 -2.54816 -0.00221288  -0.555417 -2.52344 -0.00219476  -0.530311 -2.59817 -0.00197065  -0.555539 -2.52324 -0.00237584  -0.579999 -2.57335 -0.00210679  -0.505979 -2.54801 -0.00238979  -0.579866 -2.57349 -0.00197625  -0.554727 -2.64808 -0.00174701  -0.604296 -2.62345 -0.00176656  -0.579185 -2.6979 -0.00155962  -0.604423 -2.62331 -0.00187671  -0.628876 -2.67322 -0.00165248  -0.554846 -2.64798 -0.00185192  -0.628747 -2.67332 -0.0015862  -0.603598 -2.74763 -0.00138938  -0.653162 -2.7231 -0.00142193  -0.628026 -2.79731 -0.00124109  -0.653282 -2.723 -0.00147331  -0.677711 -2.77273 -0.00129652  -0.603707 -2.74758 -0.00143659  -0.677588 -2.7728 -0.00127637  -0.65243 -2.84694 -0.00110471  -0.701994 -2.82245 -0.00113869  -0.676859 -2.89656 -0.000986099  -0.702103 -2.82237 -0.00114632  -0.726532 -2.87201 -0.000990748  -0.65253 -2.84691 -0.00111639  -0.726414 -2.87207 -0.00101137  
SCALARS smooth_stress float 1
LOOKUP_TABLE default
298.468 351.675 281.576 264.143 250.399 234.344 216.514 198.017 179.669 161.954 145.139 129.349 114.667 101.028 88.4879 76.968 66.4101 56.7462 47.9849 40.063 32.9278 26.592 21.0027 16.1544 12.0378 8.62098 5.93948 3.99354 2.77495 2.13564 1.5685 0.963416 0.18135 262.377 383.442 295.376 283.673 281.046 273.613 259.761 241.696 221.646 201.204 181.309 162.408 144.759 128.428 113.415 99.6423 87.0784 75.6532 65.2976 55.9378 47.5811 40.1244 33.5678 27.8415 22.8383 18.5588 14.8845 11.7579 8.99149 6.43178 3.99813 2.02009 0.455245 143.092 211.74 178.97 190.477 199.535 200.904 195.024 184.312 171.074 156.937 142.942 129.603 117.138 105.665 95.1673 85.564 76.8047 68.8132 61.5425 54.9227 48.8639 43.3264 38.2442 33.5973 29.224 25.1668 21.3244 17.5847 13.9723 10.4219 6.84877 3.35101 0.676812 59.5083 130.786 151.587 178.227 188.025 187.342 180.343 169.867 157.86 145.573 133.705 122.609 112.372 102.96 94.3576 86.4808 79.2045 72.4763 66.2152 60.3852 54.8618 49.6216 44.599 39.7832 35.076 30.5251 26.0849 21.6523 17.3275 13.1439 8.9599 4.53758 0.935462 85.0322 172.541 221.924 243.015 242.875 233.009 218.813 202.939 186.864 171.435 157.003 143.729 131.59 120.517 110.368 101.022 92.3986 84.3998 76.943 69.9559 63.3361 57.0909 51.0592 45.3395 39.8007 34.4384 29.2277 24.1579 19.2088 14.4952 9.90624 5.13948 1.0852 185.802 307.379 337.713 343.881 331.658 311.91 289.408 266.285 243.711 222.316 202.394 184.036 167.18 151.75 137.622 124.627 112.647 101.626 91.4099 81.9498 73.1565 64.9721 57.268 50.0429 43.3111 36.9472 30.9144 25.1642 19.7004 14.5305 9.62046 5.04518 1.11511 310.826 475.144 469.788 457.156 433.509 405.168 374.894 344.252 314.363 285.89 259.203 234.439 211.602 190.577 171.255 153.514 137.197 122.198 108.408 95.7226 84.0426 73.2968 63.4099 54.3025 45.9575 38.3375 31.3209 24.8859 18.9511 13.4703 8.46126 4.34374 0.990932 494.081 660.885 605.844 574.908 542.515 506.952 469.144 430.626 392.779 356.513 322.348 290.52 261.105 233.948 208.966 186.02 164.917 145.514 127.687 111.342 96.3367 82.629 70.0788 58.6817 48.3414 39.1091 30.7991 23.4772 17.031 11.4333 6.7381 3.29573 0.735969 153.639 271.807 226.784 213.617 202.354 189.861 176.225 162.058 147.952 134.333 121.444 109.391 98.242 87.9294 78.4432 69.7242 61.7141 54.3516 47.5798 41.3712 35.6689 30.4775 25.7083 21.3947 17.4908 14.0111 10.8934 8.16401 5.79747 3.79644 2.19843 1.08551 0.299812 333.282 574.89 507.394 462.089 419.401 378.797 341.011 306.422 274.863 246.019 219.524 195.137 172.662 151.974 132.918 115.419 99.4207 84.7874 71.485 59.4974 48.6667 39.0714 30.6063 23.214 16.9898 11.8542 7.85146 5.08016 3.5886 2.96147 2.37937 1.54993 0.372797 293.94 871.746 785.658 717.406 665.494 617.896 569.229 520.048 471.792 425.586 381.97 341.245 303.415 268.501 236.325 206.85 179.866 155.313 132.999 112.904 94.8257 78.7947 64.6791 52.3646 41.8143 32.8744 25.4989 19.5024 14.6846 10.7642 7.15111 4.053 1.32984 159.68 497.724 483.441 466.736 449.752 431.41 407.774 379.668 349.335 318.696 289.017 260.999 234.867 210.818 188.756 168.61 150.198 133.481 118.284 104.538 92.079 80.8516 70.6814 61.5459 53.2263 45.5575 38.519 31.8733 25.4502 19.1388 12.7816 6.67816 1.94593 86.0729 303.792 344.475 370.621 372.811 363.208 346.02 324.361 300.716 276.905 253.975 232.504 212.687 194.499 177.85 162.6 148.552 135.598 123.611 112.513 102.091 92.2517 82.9402 74.0221 65.4219 57.0551 48.8915 40.8828 32.9212 25.1292 17.3559 9.37206 2.64605 112.983 314.033 423.757 457.885 452.83 432.053 404.786 375.233 345.642 317.324 290.912 266.596 244.408 224.093 205.485 188.424 172.601 157.905 144.178 131.363 119.217 107.666 96.6488 86.0303 75.7664 65.8395 56.1481 46.7268 37.4471 28.5136 19.8037 11.0507 3.11641 223.541 535.856 642.646 654.467 627.346 587.268 543.448 499.477 457.058 417.152 380.135 346.043 314.838 286.247 260.02 235.946 213.746 193.23 174.21 156.566 140.134 124.753 110.355 96.7695 83.9969 71.9631 60.515 49.6018 39.1925 29.2703 19.9133 11.3204 3.33434 376.454 843.155 912.155 887.947 836.054 777.283 717.086 657.665 600.395 546.238 495.651 448.772 405.548 365.806 329.238 295.641 264.727 236.282 210.073 185.904 163.646 143.106 124.184 106.735 90.6923 75.9751 62.4031 49.9751 38.5159 27.8623 18.2134 10.2142 3.21642 618.593 1205.56 1196.48 1129.91 1057.63 983.548 908.129 832.988 759.886 690.183 624.636 563.62 507.12 455.06 407.055 362.904 322.306 284.962 250.617 219.031 190.076 163.559 139.255 117.123 97.0555 78.9724 62.733 48.3017 35.6105 24.5622 15.2215 8.09028 2.60072 262.344 767.703 689.69 642.544 604.128 564.914 523.649 481.45 439.713 399.51 361.446 325.862 292.877 262.442 234.352 208.52 184.772 162.934 142.862 124.392 107.463 91.9877 77.845 64.9577 53.2877 42.8378 33.5323 25.302 18.1931 12.1385 7.31045 3.80528 1.38571 323.041 559.355 523.101 491.458 448.647 402.297 357.799 317.423 281.554 249.76 221.415 195.899 172.717 151.653 132.405 114.776 98.6907 84.0398 70.6905 58.6487 47.8422 38.2407 29.7397 22.3677 16.1267 11.0698 7.13932 4.50573 3.26439 2.86959 2.32448 1.50044 0.346116 250.816 796.077 854.334 806.208 737.509 667.488 599.762 536.661 479.191 427.306 380.418 337.955 299.246 263.941 231.698 202.214 175.28 150.81 128.579 108.591 90.6722 74.7805 60.8228 48.6864 38.3393 29.7297 22.7228 17.1361 12.9031 9.64778 6.54164 3.78897 1.28174 132.023 435.375 549.488 539.714 500.498 458.933 418.151 379.013 342.24 308.242 277.095 248.714 222.826 199.216 177.741 158.18 140.377 124.232 109.608 96.4087 84.5284 73.8759 64.3376 55.7509 48.0795 41.0972 34.6987 28.7285 22.9338 17.2554 11.4938 5.92337 1.80767 88.7022 299.891 407.93 418.574 395.184 365.789 336.226 307.807 281.114 256.494 234.022 213.582 195.053 178.176 162.85 148.806 135.92 124.04 113.034 102.855 93.3422 84.36 75.8809 67.7701 59.956 52.3713 44.8798 37.5626 30.2528 22.999 15.758 8.35359 2.38289 119.962 338.746 467.682 482.343 456.437 421.61 386.646 353.711 323.372 295.672 270.577 247.817 227.201 208.424 191.233 175.419 160.799 147.165 134.377 122.427 111.152 100.385 90.1077 80.2248 70.6187 61.3241 52.2826 43.4429 34.7822 26.3746 18.1397 9.9902 2.78655 210.456 523.433 665.967 670.476 628.738 578.027 528.413 482.077 439.303 400.085 364.213 331.449 301.507 274.117 248.962 225.842 204.505 184.747 166.427 149.416 133.571 118.715 104.852 91.8392 79.5218 67.9439 56.9807 46.5822 36.6858 27.2895 18.4107 10.4118 3.11785 348.476 785.016 923.902 903.618 841.021 773.049 707.448 645.633 587.772 533.991 484.236 438.319 396.074 357.228 321.467 288.589 258.293 230.36 204.604 180.841 158.937 138.72 120.086 102.955 87.1844 72.7554 59.5213 47.4357 36.3561 26.1861 17.0017 9.59652 3.15227 586.668 1114.46 1198.91 1144.23 1064.34 982.436 902.092 824.624 750.847 681.363 616.498 556.281 500.599 449.273 401.957 358.382 318.246 281.275 247.305 216.002 187.243 160.882 136.761 114.783 94.8572 76.9233 60.8498 46.6048 34.1646 23.4681 14.507 7.81232 2.64549 252.282 700.158 690.344 650.299 608.05 564.842 520.991 477.54 435.44 395.366 357.684 322.559 289.992 259.936 232.233 206.691 183.161 161.522 141.64 123.301 106.462 91.0612 76.9972 64.1648 52.547 42.1555 32.8672 24.6931 17.6683 11.7388 7.10543 3.7777 1.46633 324.333 562.707 518.057 493.987 457.366 412.809 367.251 324.74 286.681 253.079 223.404 197.026 173.302 151.851 132.376 114.624 98.4402 83.7418 70.3813 58.3153 47.4599 37.842 29.3248 21.9646 15.7542 10.6407 6.74454 4.22648 3.06748 2.7467 2.24791 1.41754 0.314026 236.871 789.553 853.354 821.53 762.475 693.08 620.927 551.895 488.96 432.817 382.971 338.612 298.756 262.756 230.122 200.449 173.416 148.922 126.705 106.688 88.751 72.9387 59.02 46.9277 36.6797 28.2032 21.3588 16.0034 12.0253 9.02465 6.1717 3.54945 1.20623 122.488 422.766 560.131 561.452 523.985 477.918 430.696 385.462 343.923 306.644 273.471 243.965 217.579 193.825 172.425 153.036 135.44 119.526 105.147 92.2135 80.6106 70.2004 60.9652 52.6685 45.2999 38.6876 32.6523 26.9999 21.5892 16.2006 10.7218 5.38634 1.60704 91.0864 306.539 429.454 440.931 411.393 373.667 336.969 303.429 273.545 247.23 224.087 203.66 185.488 169.162 154.447 141.038 128.748 117.479 107.04 97.3573 88.3573 79.8724 71.8874 64.2329 56.8162 49.6822 42.6188 35.6262 28.6903 21.7548 14.8544 7.70743 2.11044 125.825 356.081 488.499 500.046 465.221 421.554 380.442 343.976 312.011 283.928 259.129 237.061 217.237 199.289 182.918 167.824 153.883 140.903 128.735 117.268 106.47 96.1903 86.3073 76.8646 67.6426 58.7512 50.0501 41.5341 33.2284 25.1325 17.2059 9.30926 2.50912 208.689 524.212 673.631 681.455 634.526 577.049 522.603 473.644 429.871 390.606 355.171 323.053 293.822 267.108 242.618 220.058 199.218 179.932 162.015 145.379 129.859 115.331 101.764 89.0459 77.0075 65.7288 55.0416 44.8817 35.2681 26.1651 17.5894 9.8436 2.88091 341.601 767.724 918.283 909.5 846.281 773.644 704.146 640.035 581.249 527.342 477.888 432.468 390.753 352.414 317.132 284.659 254.741 227.127 201.614 178.1 156.426 136.394 117.912 100.968 85.3397 71.0791 58.036 46.0856 35.2602 25.3509 16.3639 9.16546 2.98657 580.116 1085.36 1181.5 1144.8 1068.08 983.569 900.244 820.856 746.248 676.631 612.032 552.222 497 446.077 399.151 355.898 316.068 279.343 245.542 214.417 185.803 159.588 135.543 113.669 93.7824 75.9269 59.9734 45.8802 33.5749 23.0666 14.2783 7.67011 2.58563 252.432 683.386 674.154 647.589 608.984 565.218 520.045 475.65 433.144 393.009 355.484 320.598 288.292 258.466 230.981 205.626 182.277 160.736 140.928 122.719 105.961 90.5832 76.5475 63.7772 52.202 41.7944 32.5753 24.46 17.5097 11.6906 7.1275 3.83219 1.48521 324.847 565.461 516.146 492.91 458.258 414.941 369.644 326.809 288.249 254.173 224.118 197.453 173.553 152.002 132.446 114.667 98.4477 83.6997 70.3043 58.2508 47.3876 37.7657 29.2788 21.8939 15.655 10.5573 6.65767 4.17911 3.07953 2.77406 2.24565 1.37301 0.281302 233.027 790.324 852.703 822.293 767.133 700.321 628.452 558.215 493.583 435.847 384.773 339.523 299.14 262.786 229.921 200.135 173.018 148.447 126.21 106.217 88.2888 72.4031 58.4898 46.4319 36.2214 27.7431 20.8631 15.6701 11.7766 8.84349 6.00316 3.39852 1.13042 119.315 418.05 563.412 566.573 530.387 484.514 436.263 389.356 346.135 307.471 273.301 243.155 216.406 192.465 170.973 151.572 134.022 118.145 103.827 90.9384 79.4111 69.1018 59.879 51.7146 44.4356 37.9246 31.9782 26.4502 21.1541 15.8425 10.455 5.1647 1.48734 90.9568 307.975 436.29 448.092 417.391 377.703 338.932 303.533 272.257 245.029 221.341 200.711 182.507 166.277 151.7 138.48 126.365 115.263 105.026 95.5117 86.6762 78.3858 70.4969 62.9996 55.7622 48.7453 41.8414 34.9921 28.1538 21.33 14.4906 7.42805 1.92732 127.434 361.95 495.376 506.716 469.618 423.042 379.523 341.436 308.55 280.09 255.218 233.33 213.74 196.051 179.94 165.142 151.405 138.65 126.745 115.483 104.836 94.7179 84.9908 75.6951 66.6443 57.8805 49.2692 40.8769 32.6575 24.6514 16.8346 9.06853 2.36481 208.876 525.986 676.229 685.387 637.499 577.79 521.345 471.117 426.765 387.302 351.929 320.026 291.047 264.575 240.307 217.956 197.298 178.154 160.421 143.929 128.561 114.171 100.675 88.0609 76.1787 64.9648 54.3559 44.3247 34.7725 25.7561 17.2868 9.68665 2.78395 340.643 764.48 916.024 910.659 848.419 774.55 703.546 638.384 579.09 525.05 475.63 430.357 388.846 350.671 315.568 283.243 253.472 225.938 200.566 177.111 155.551 135.591 117.146 100.258 84.749 70.5069 57.533 45.6883 34.8619 25.0301 16.1758 9.06014 2.94473 579.117 1079.25 1174.77 1143.21 1069.17 984.405 900.074 819.848 744.763 675.016 610.442 550.75 495.669 444.91 398.114 354.994 315.262 278.64 244.931 213.87 185.289 159.115 135.102 113.252 93.4474 75.6329 59.6754 45.6256 33.3978 22.9561 14.2388 7.62038 2.55704 252.954 679.866 666.556 644.287 608.571 565.374 519.844 475.025 432.25 392.035 354.545 319.769 287.559 257.833 230.436 205.175 181.859 160.422 140.647 122.476 105.745 90.3941 76.3835 63.6037 52.0667 41.6915 32.4698 24.3861 17.4937 11.6978 7.16342 3.8862 1.48817 323.404 564.205 516.305 491.211 454.644 410.664 365.733 323.725 286.069 252.761 223.271 197.013 173.38 151.971 132.511 114.8 98.6119 83.8847 70.5081 58.4523 47.6244 37.9676 29.4944 22.1268 15.8637 10.809 6.92196 4.40493 3.27243 2.90117 2.33505 1.4304 0.287293 236.806 788.124 849.073 817.833 761.737 695.026 624.171 555.2 491.769 434.993 384.598 339.789 299.661 263.455 230.69 200.917 173.844 149.215 126.973 106.956 89.0253 73.0867 59.1458 47.062 36.7768 28.2556 21.3801 16.0712 12.1417 9.12502 6.1862 3.5289 1.15853 120.872 413.985 557.844 561.341 525.875 481.266 434.463 388.886 346.667 308.716 274.962 245.012 218.327 194.395 172.831 153.323 135.683 119.681 105.276 92.2595 80.6085 70.1976 60.8665 52.6063 45.2192 38.561 32.5526 26.9229 21.5501 16.1524 10.6515 5.33376 1.53893 87.9508 301.832 430.021 443.404 414.917 377.302 340.091 305.773 275.084 248.128 224.517 203.758 185.396 168.972 154.165 140.731 128.431 117.133 106.715 97.0674 88.0348 79.6454 71.6238 63.9712 56.6455 49.4844 42.4704 35.5263 28.5841 21.6856 14.7265 7.63466 1.99027 125.272 358.321 491.269 503.607 468.566 423.891 381.677 344.324 311.724 283.259 258.262 236.133 216.328 198.395 182.057 167.089 153.2 140.277 128.16 116.828 106.018 95.8158 86.0002 76.5756 67.419 58.5483 49.8773 41.3826 33.0876 24.9813 17.1013 9.24732 2.39339 209.821 526.714 675.278 683.712 636.767 578.396 522.94 473.261 429.073 389.622 354.124 322.024 292.857 266.219 241.766 219.294 198.545 179.318 161.48 144.945 129.472 115.008 101.455 88.758 76.8263 65.5452 54.8789 44.733 35.1685 26.02 17.5104 9.85269 2.84454 343.318 769.076 918.112 910.294 847.838 774.706 704.438 639.732 580.619 526.572 477.06 431.656 390.017 351.729 316.485 284.053 254.22 226.628 201.163 177.716 156.076 136.104 117.66 100.706 85.1519 70.9112 57.9028 45.9741 35.1401 25.192 16.2753 9.18628 3.00547 580.914 1087.39 1180.18 1144.68 1069.31 984.655 900.756 820.832 745.896 676.133 611.479 551.647 496.44 445.567 398.709 355.495 315.705 279.044 245.253 214.178 185.585 159.385 135.342 113.492 93.686 75.8206 59.8637 45.775 33.4881 22.9901 14.1948 7.61811 2.58748 252.342 682.133 668.993 645.214 608.872 565.555 520.087 475.309 432.54 392.318 354.8 319.972 287.728 257.95 230.53 205.27 181.948 160.482 140.711 122.529 105.798 90.4635 76.4238 63.6483 52.0974 41.7391 32.5132 24.4004 17.4787 11.7187 7.15919 3.86754 1.49712 325.67 560.443 513.871 482.74 442.3 398.039 355.097 315.827 280.743 249.474 221.412 196.072 173.049 152.007 132.749 115.141 99.0689 84.3869 71.0478 58.9821 48.1797 38.5489 30.06 22.6965 16.4683 11.3858 7.43551 4.81023 3.53616 3.02594 2.40534 1.49202 0.323178 253.782 785.464 838.121 801.784 742.248 675.973 608.525 544.084 484.903 431.499 383.433 340.128 300.951 265.282 232.731 203.098 176.089 151.46 129.209 109.098 91.1195 75.1521 61.1273 48.9213 38.5203 29.8342 22.7826 17.2372 13.0487 9.77032 6.62848 3.77926 1.25584 129.875 411.047 540.765 542.635 509.249 468.756 426.862 385.846 347.206 311.73 279.495 250.358 223.976 200.084 178.342 158.622 140.714 124.424 109.737 96.4409 84.4688 73.7173 64.1188 55.5074 47.8066 40.8133 34.4454 28.5132 22.7835 17.1303 11.3762 5.80736 1.72479 81.0624 286.29 409.194 426.626 404.997 374.089 342.228 311.641 283.279 257.457 234.206 213.312 194.511 177.525 162.088 148.012 135.116 123.255 112.308 102.147 92.6265 83.7164 75.2927 67.261 59.5199 51.957 44.5244 37.2637 29.9927 22.8497 15.5982 8.17072 2.21385 120.049 343.824 475.052 491.194 463.484 425.689 388.246 353.583 322.178 293.929 268.563 245.791 225.255 206.577 189.557 173.878 159.362 145.93 133.313 121.45 110.242 99.6122 89.4515 79.6436 70.1283 60.9254 51.9167 43.1181 34.5242 26.1642 17.9436 9.77346 2.60338 215.782 526.401 668.873 675.964 633.119 579.931 528.336 480.735 437.329 397.878 361.983 329.311 299.52 272.266 247.298 224.322 203.108 183.523 165.389 148.499 132.735 117.996 104.212 91.2755 79.0835 67.5504 56.6947 46.2858 36.434 27.1092 18.2699 10.3103 3.0167 355.943 782.172 921.246 906.57 844.521 774.713 707.481 644.601 586.22 532.226 482.446 436.609 394.489 355.745 320.117 287.33 257.165 229.359 203.691 180.059 158.25 138.096 119.544 102.472 86.7867 72.3914 59.2245 47.1457 36.0898 26.0177 16.8082 9.51587 3.12767 593.093 1110.92 1193.26 1146.21 1067.69 984.41 902.636 824.176 749.853 680.167 615.222 555.026 499.435 448.159 400.949 357.458 317.436 280.615 246.648 215.407 186.777 160.448 136.367 114.457 94.5797 76.6348 60.6135 46.4004 33.9697 23.3116 14.3357 7.70617 2.65564 252.096 691.317 680.264 649.438 609.537 565.704 520.771 476.534 434.032 393.862 356.227 321.229 288.824 258.892 231.304 205.92 182.519 160.985 141.151 122.877 106.131 90.7526 76.7044 63.9192 52.3644 41.9408 32.6817 24.5533 17.566 11.716 7.10194 3.79104 1.49135 351.791 535.352 479.698 445.872 410.792 374.552 339.253 306.077 275.284 246.811 220.474 196.125 173.629 152.912 133.835 116.29 100.237 85.5962 72.2484 60.2029 49.3937 39.7471 31.2356 23.8516 17.5775 12.4153 8.35679 5.4646 3.83785 3.07571 2.40155 1.48462 0.330059 309.55 779.401 792.432 746.824 694.024 639.942 584.762 530.468 478.71 430.251 385.238 343.629 305.28 270.033 237.641 207.982 180.863 156.187 133.764 113.544 95.3782 79.2491 65.0003 52.5395 41.8935 32.8881 25.3849 19.3255 14.5714 10.7749 7.22828 4.03903 1.30974 162.303 406.074 497.033 497.197 475.863 449.723 419.693 387.119 353.893 321.493 290.723 262.03 235.567 211.283 189.024 168.695 150.187 133.353 118.066 104.234 91.6785 80.3421 70.1562 60.9383 52.5948 45.0078 37.9428 31.3466 25.0534 18.8542 12.6859 6.54842 1.91351 74.3792 257.299 368.003 396.657 391.16 374.048 351.648 326.707 301.117 276.233 252.779 231.033 211.141 192.944 176.329 161.107 147.123 134.246 122.351 111.297 100.934 91.1679 81.9575 73.1442 64.6509 56.4255 48.3011 40.3821 32.579 24.8696 17.2166 9.16118 2.48171 118.019 312.496 443.779 472.843 460.646 434.594 404.143 372.847 342.428 313.831 287.449 263.305 241.32 221.278 202.959 186.103 170.529 156.07 142.557 129.899 117.911 106.536 95.652 85.1867 75.048 65.2066 55.6072 46.2445 37.1092 28.2565 19.6289 10.8017 2.90193 243.42 523.337 651.673 662.863 630.997 587.194 541.236 496.219 453.423 413.479 376.624 342.81 311.841 283.505 257.545 233.732 211.725 191.405 172.643 155.202 138.891 123.693 109.424 96.0407 83.3906 71.3668 60.0268 49.2357 38.8989 29.0794 19.7367 11.1195 3.26883 405.754 804.66 914.877 895.154 839.757 777.643 715.486 655.135 597.502 543.262 492.8 446.103 403.099 363.526 327.195 293.78 263.035 234.718 208.68 184.716 162.554 142.158 123.33 106.008 90.0841 75.4333 61.9605 49.6161 38.1877 27.6747 17.9909 10.0779 3.31155 652.075 1148.48 1197.14 1138.02 1062.3 984.921 907.506 831.343 757.8 687.93 622.414 561.518 505.187 453.226 405.42 361.438 320.95 283.727 249.49 218.045 189.2 162.716 138.514 116.512 96.5143 78.5046 62.353 48.0009 35.3599 24.4137 15.0666 8.07456 2.75986 261.543 714.622 693.716 650.33 607.997 565.556 522.318 479.144 437.069 396.866 359.013 323.677 290.944 260.718 232.856 207.234 183.658 161.959 141.995 123.631 106.803 91.3821 77.2727 64.4711 52.8668 42.437 33.1379 24.9615 17.8831 11.9575 7.21067 3.82519 1.4954 96.9585 176.357 145.155 137.555 130.813 122.366 112.88 103.12 93.494 84.2481 75.5087 67.3043 59.6863 52.6345 46.1349 40.1422 34.6605 29.6551 25.0973 20.9886 17.2822 13.9709 11.0433 8.49803 6.31661 4.50584 3.07807 2.01225 1.32712 1.00421 0.803931 0.557704 0.170455 135.189 439.941 390.705 365.338 346.275 326.613 304.087 279.74 254.918 230.614 207.379 185.487 165.061 146.151 128.736 112.707 98.0352 84.6591 72.4767 61.4772 51.5883 42.7534 34.9214 28.0734 22.1827 17.1895 13.0487 9.73588 7.13914 5.23177 3.62356 2.17992 0.847486 75.8045 238.96 236.696 236.161 233.91 229.593 220.397 207.059 191.407 175.019 158.81 143.338 128.859 115.466 103.178 91.9186 81.6462 72.3059 63.8202 56.153 49.2249 42.9705 37.354 32.3215 27.7859 23.6998 19.9384 16.4441 13.1786 10.0194 6.88697 3.80389 1.34361 32.3836 125.636 156.436 180.337 188.432 188.394 182.446 172.623 160.753 148.251 135.947 124.276 113.444 103.494 94.3919 86.077 78.4303 71.4095 64.9722 58.9798 53.4008 48.1818 43.25 38.6059 34.1429 29.8426 25.6271 21.492 17.4687 13.5273 9.60605 5.57675 1.84826 35.4225 113.073 184.416 214.231 219.589 213.871 202.839 189.357 175.093 161.077 147.836 135.571 124.333 114.102 104.722 96.1302 88.1924 80.8406 73.9642 67.5177 61.4437 55.6572 50.0969 44.7758 39.6108 34.5797 29.6516 24.8253 20.1137 15.5824 11.1662 6.67754 2.18488 83.3686 225.928 289.234 308.079 301.984 286.103 266.591 246.001 225.663 206.286 188.247 171.622 156.382 142.464 129.719 118.025 107.251 97.2999 88.087 79.5229 71.5065 64.0121 56.9554 50.2624 43.9527 37.9193 32.168 26.6559 21.343 16.2544 11.3933 6.84471 2.39688 144.223 379.747 423.417 423.931 404.162 378.352 350.573 322.415 294.877 268.602 244.011 221.21 200.168 180.841 163.11 146.827 131.858 118.064 105.374 93.715 82.9229 72.9474 63.7595 55.2088 47.3494 40.0724 33.3285 27.047 21.2229 15.7436 10.6168 6.17574 2.36931 228.079 566.505 571.211 545.924 513.7 479.842 444.571 408.722 373.471 339.568 307.594 277.804 250.194 224.747 201.325 179.826 160.005 141.813 125.084 109.757 95.683 82.7257 70.9279 60.1364 50.3307 41.4523 33.4512 26.2748 19.8603 14.1518 9.09783 4.99446 2.00796 142.926 506.45 459.542 426.639 401.079 375.689 348.776 320.972 293.332 266.592 241.261 217.564 195.593 175.292 156.587 139.409 123.598 109.057 95.679 83.4212 72.1838 61.8984 52.4697 43.9111 36.1868 29.2192 23.0169 17.5504 12.7767 8.70378 5.36718 2.87343 1.23289 86.1671 153.818 298.468 108.052 126.224 237.379 171.742 290.475 157.748 89.7364 117.462 83.847 72.9537 178.045 93.0172 153.46 122.565 200.599 121.796 120.058 229.11 64.3405 76.5797 169.858 173.399 244.802 141.162 86.7349 208.567 118.52 76.4183 144.25 92.0244 106.286 205.158 59.3222 70.3418 157.104 156.419 221.694 129.254 78.0038 188.999 107.912 71.0312 133.393 87.85 101.798 193.111 58.7003 70.6904 152.48 141.457 202.733 116.962 72.0495 172.579 99.7002 68.3806 126.745 85.9379 98.775 182.018 57.3456 70.7428 146.916 128.455 184.824 105.225 66.3081 159.882 91.6246 64.761 119.105 82.4047 94.2315 169.583 54.5959 68.632 138.759 116.447 167.718 94.4107 60.6437 147.649 83.6789 60.3152 110.408 77.3264 88.1572 156.198 50.9175 64.7718 128.783 105.285 151.644 84.6611 55.1877 135.296 76.0216 55.5082 101.265 71.3937 81.2092 142.509 46.7659 59.9391 117.961 94.9351 136.647 75.8895 49.9864 123.07 68.7142 50.6022 92.0855 65.1384 73.9769 129.067 42.5072 54.7123 107.027 85.35 122.727 67.9772 45.0763 111.267 61.8238 45.8162 83.1814 58.9183 66.8203 116.137 38.3157 49.4758 96.3881 76.4588 109.791 60.7459 40.4566 100.059 55.3531 41.2116 74.6826 52.929 59.9827 103.927 34.323 44.4441 86.2906 68.2351 97.8174 54.1226 36.1334 89.5657 49.2999 36.857 66.6773 47.2642 53.5236 92.4921 30.56 39.6795 76.8384 60.6159 86.7288 48.0094 32.1119 79.7834 43.6842 32.785 59.2128 41.9829 47.5492 81.8816 27.0744 35.2797 68.0782 53.5886 76.4855 42.4028 28.3793 70.7517 38.4664 28.9995 52.2727 37.0742 41.9952 72.0288 23.8335 31.2019 60.0098 47.0746 67.0385 37.2102 24.9221 62.3824 33.6629 25.4878 45.8748 32.5559 36.9161 63.0002 20.8686 27.4607 52.5999 41.0984 58.362 32.4376 21.7445 54.7351 29.2544 22.2691 39.994 28.4036 32.2476 54.6989 18.1422 24.0334 45.8202 35.6176 50.4134 28.0631 18.8319 47.703 25.2183 19.31 34.606 24.6017 27.9987 47.1001 15.6451 20.9216 39.6516 30.6063 43.1495 24.0697 16.1589 41.3005 21.5022 16.5901 29.6715 21.1385 24.1382 40.1561 13.3679 18.088 34.0557 26.0153 36.5335 20.4015 13.7068 35.4702 18.1445 14.1055 25.1803 17.9763 20.6435 33.8794 11.3081 15.518 28.9898 21.8749 30.5566 17.0916 11.4965 30.2212 15.1113 11.8641 21.1187 15.1276 17.4906 28.1989 9.44331 13.2169 24.4552 18.1446 25.1638 14.1083 9.50101 25.4726 12.3636 9.82413 17.4448 12.5666 14.6987 23.1036 7.77938 11.1765 20.4224 14.7631 20.367 11.4095 7.70358 21.2241 9.93869 7.99756 14.18 10.2811 12.2033 18.5944 6.29943 9.34933 16.8702 11.815 16.1397 9.05254 6.11256 17.5088 7.79186 6.37217 11.3037 8.28144 10.0496 14.6306 4.99752 7.7631 13.7639 9.20601 12.4241 6.94603 4.70147 14.2648 5.9125 4.92944 8.75186 6.52357 8.18185 11.2249 3.89082 6.39523 11.0974 6.95917 9.29486 5.1403 3.51169 11.4548 4.3523 3.71829 6.6212 5.03053 6.57256 8.31952 2.93156 5.20749 8.81977 5.08548 6.68376 3.62725 2.48504 9.08052 3.02671 2.65497 4.80851 3.79053 5.24043 5.966 2.15872 4.20476 6.91848 3.55576 4.6019 2.38571 1.65374 7.12024 2.02281 1.80374 3.37078 2.78675 4.13553 4.13575 1.54037 3.35643 5.35434 2.41093 3.06001 1.45591 1.02833 5.54437 1.30678 1.12993 2.27199 2.01323 3.23396 2.86361 1.10031 2.64775 4.04406 1.65232 2.05133 0.892637 0.621236 4.28309 0.872923 0.673531 1.50039 1.41266 2.40737 2.10141 0.792985 1.97764 2.91643 1.25 1.55086 0.737653 0.481573 3.22795 0.700154 0.489362 1.10434 0.983423 1.65714 1.64628 0.558034 1.34462 1.87381 1.01158 1.2192 0.718223 0.47327 2.29772 0.578052 0.452064 0.848851 0.624275 0.934538 1.11644 0.342801 0.753509 1.00287 0.706221 0.874469 0.581401 0.376851 1.35342 0.381275 0.366177 0.576576 0.40079 0.489723 0.597239 0.18929 0.367144 0.301944 0.390968 0.287831 0.279547 0.197549 0.740062 0.0932498 0.18135 0.18135 0.0881003 52.3058 88.7484 176.21 65.1688 71.0295 136.31 88.8431 162.426 47.1811 43.3903 99.5519 51.6352 118.778 69.4825 65.606 135.421 36.554 40.6087 100.436 106.833 155.11 120.496 88.7576 55.1761 65.615 126.772 35.9918 44.0021 100.866 100.269 143.188 119.439 84.2278 55.8786 67.9606 125.482 38.3251 48.3398 103.959 92.6171 134.272 114.251 83.8344 57.8228 69.1142 124.417 39.736 50.6017 104.498 86.8514 126.592 109.489 82.6593 58.0652 68.0017 120.465 39.3763 50.4565 101.574 81.1569 118.234 103.901 79.3725 56.2303 64.9674 113.803 37.6356 48.5166 96.12 75.0674 109.113 97.205 74.4593 52.9738 60.7637 105.531 35.1099 45.51 89.2679 68.7475 99.685 89.8136 68.6821 48.9734 56.0023 96.5689 32.2215 42.0092 81.8695 62.4558 90.3787 82.1862 62.6096 44.7014 51.1176 87.5733 29.2667 38.3756 74.4741 56.4002 81.4515 74.709 56.609 40.4772 46.3736 78.9047 26.402 34.8557 67.3983 50.6775 73.0559 67.5742 50.8788 36.4379 41.8821 70.6997 23.6826 31.5122 60.747 45.3145 65.2206 60.8933 45.4862 32.641 37.713 63.0967 21.1637 28.4227 54.612 40.3655 58.004 54.7038 40.5107 29.1481 33.8848 56.0743 18.8479 25.5878 49.0013 35.791 51.3596 49.0289 35.9427 25.9448 30.3813 49.6574 16.7229 22.9892 43.8371 31.6268 45.2984 43.8538 31.7421 23.009 27.1851 43.7779 14.784 20.631 39.1521 27.8047 39.7384 39.1081 27.906 20.3366 24.2772 38.4433 13.0315 18.4766 34.8824 24.3296 34.7229 34.7943 24.4394 17.9137 21.6219 33.5931 11.4305 16.5084 30.9938 21.1864 30.1677 30.889 21.299 15.724 19.2367 29.2333 9.98725 14.7401 27.4715 18.3592 26.0858 27.3525 18.4501 13.7311 17.0615 25.2923 8.68904 13.1253 24.2762 15.8119 22.4234 24.156 15.9149 11.9494 15.0902 21.7976 7.52428 11.6548 21.3816 13.557 19.1839 21.2752 13.6515 10.3526 13.2959 18.6668 6.49016 10.3089 18.7576 11.5676 16.3048 18.6735 11.6484 8.93451 11.6691 15.937 5.57045 9.06695 16.3805 9.82561 13.8067 16.3345 9.89791 7.68238 10.2104 13.5548 4.76423 7.95569 14.1848 8.31286 11.6327 14.2292 8.34312 6.53346 8.81236 11.4126 4.03182 6.89379 12.1626 6.98955 9.72178 12.2728 6.9964 5.53426 7.54555 9.56076 3.39038 5.91018 10.2958 5.82845 8.05294 10.4848 5.78997 4.60954 6.3429 7.89295 2.80023 4.97085 8.51184 4.82466 6.57166 8.82986 4.71926 3.75585 5.17044 6.38828 2.26434 4.04613 6.80802 3.90507 5.19871 7.20324 3.74661 2.96979 4.03037 4.93108 1.73719 3.14674 5.10929 3.01817 3.86171 5.62275 2.77447 2.17073 2.90193 3.47072 1.20719 2.27088 3.41555 2.13626 2.49949 4.04563 1.79981 1.37081 1.75189 2.02924 0.705754 1.37466 1.77779 1.2202 1.25529 2.44001 0.912901 0.650083 0.714207 0.865793 0.274667 0.523511 0.462649 0.56904 0.435945 1.04733 0.265955 0.153301 24.8818 39.89 90.7867 32.4662 28.3362 74.7375 45.7597 90.6668 22.7261 21.8779 50.6086 25.1095 62.9516 34.8213 39.4326 71.2282 18.0138 27.0053 70.9752 61.4542 95.1268 77.1301 52.0892 34.5319 52.7511 83.1854 24.712 39.0611 84.3149 65.1737 96.283 89.7042 57.4175 41.271 58.9787 90.5961 29.1069 44.6831 90.4705 64.325 94.9837 92.068 61.0742 44.9747 60.6995 93.3725 31.0217 46.3592 91.3358 62.5396 92.2064 90.6574 62.061 45.9498 59.6683 92.2372 31.1052 45.6859 88.7337 59.8061 87.8467 87.0308 60.6853 44.9341 56.9658 88.3375 29.9953 43.6412 84.0722 56.2565 82.3451 82.0264 57.7067 42.682 53.3883 82.8216 28.2062 40.8952 78.3937 52.2393 76.2406 76.3467 53.842 39.7966 49.4587 76.5904 26.1195 37.8766 72.3937 48.0639 70.0158 70.4771 49.633 36.6919 45.5288 70.2264 23.9649 34.8662 66.4944 43.965 63.9447 64.772 45.4086 33.6119 41.7865 64.0889 21.8928 32.0115 60.9335 40.0512 58.2104 59.3623 41.3818 30.6921 38.2974 58.3089 19.9366 29.3582 55.778 36.4144 52.8915 54.3666 37.6067 27.968 35.0838 52.9846 18.1355 26.9051 51.0266 33.0598 48.0107 49.771 34.1369 25.4657 32.131 48.0947 16.4801 24.658 46.6727 29.9978 43.5313 45.584 30.9588 23.1768 29.4445 43.6348 14.9794 22.6156 42.7017 27.2027 39.4452 41.7397 28.0501 21.096 26.9767 39.5658 13.6059 20.7405 39.0308 24.6438 35.7214 38.2039 25.396 19.1759 24.6981 35.8371 12.3476 19.0108 35.6605 22.3181 32.3027 34.9531 22.9682 17.4224 22.5877 32.4229 11.1917 17.3944 32.5306 20.1798 29.1812 31.942 20.739 15.8086 20.6281 29.3101 10.1363 15.9006 29.6328 18.235 26.3246 29.1522 18.712 14.3259 18.8051 26.4515 9.16197 14.5008 26.8926 16.4459 23.6924 26.5563 16.8342 12.9329 17.0567 23.7892 8.25045 13.1688 24.3147 14.7873 21.2604 24.0912 15.1042 11.6359 15.4105 21.319 7.40202 11.8884 21.8684 13.2561 18.9914 21.7613 13.4871 10.4197 13.8273 19.0009 6.59791 10.6715 19.5119 11.8204 16.8756 19.5353 11.9701 9.26116 12.3073 16.848 5.84632 9.48993 17.232 10.4923 14.8654 17.4117 10.5298 8.14541 10.8084 14.7348 5.11759 8.3342 15.035 9.17938 12.929 15.2863 9.16184 7.09397 9.37592 12.7387 4.42758 7.22754 12.899 7.9277 11.0653 13.2389 7.84717 6.05771 7.94685 10.8046 3.74391 6.11576 10.7633 6.73217 9.25788 11.2457 6.55484 5.02671 6.52649 8.85797 3.05917 5.01857 8.67209 5.5317 7.44151 9.24915 5.2775 4.01756 5.1408 6.9564 2.4001 3.95147 6.62987 4.33291 5.64871 7.28949 4.02558 3.04169 3.79504 5.10439 1.75716 2.92378 4.61705 3.15431 3.85854 5.35396 2.78756 2.05856 2.41991 3.20708 1.10213 1.86081 2.51437 1.94896 2.03879 3.3894 1.50975 1.04971 0.982054 1.32627 0.421302 0.721299 0.660498 0.802021 0.620978 1.36457 0.402145 0.214164 8.44598 31.4051 34.6265 11.4134 26.0097 73.1516 24.3362 63.9729 28.7153 8.20492 48.6604 13.4513 38.0436 29.0427 59.0125 67.628 20.8432 45.2203 98.1104 54.0528 87.6312 96.8527 50.8161 41.551 73.5682 90.0501 30.0063 56.7049 111.832 63.7645 96.1717 112.827 61.1003 49.2293 77.256 97.8952 33.4363 59.6682 113.911 65.2415 96.483 114.235 64.3053 51.1954 75.8119 98.3672 33.9133 58.5798 110.45 63.5483 93.1809 110.054 63.7667 50.3206 72.0969 95.0334 32.8857 55.6887 104.401 60.3535 88.0928 103.607 61.1804 47.9677 67.3862 89.7226 31.0912 52.0172 97.2386 56.457 82.1854 96.3132 57.5293 44.8996 62.3272 83.5439 28.9541 48.0863 89.7817 52.3291 76.0638 88.8456 53.4606 41.5894 57.3373 77.1678 26.7342 44.2075 82.5123 48.2324 70.0617 81.6469 49.3359 38.3132 52.6173 71.0046 24.5888 40.5479 75.6726 44.3579 64.4145 74.8965 45.3761 35.1989 48.2291 65.2268 22.5775 37.1529 69.3541 40.7506 59.1857 68.6628 41.6923 32.3176 44.2109 59.9056 20.7267 34.0366 63.5797 37.4524 54.4149 62.9697 38.3165 29.6886 40.5618 55.0455 19.0347 31.2063 58.2997 34.4432 50.0268 57.793 35.2062 27.2754 37.2098 50.5893 17.4874 28.6244 53.4521 31.6882 46.0147 53.0368 32.3568 25.0693 34.1452 46.5227 16.0761 26.2511 49.0129 29.1649 42.3465 48.6927 29.7513 23.0386 31.3129 42.7692 14.7734 24.0646 44.9067 26.8372 38.9161 44.6815 27.331 21.1628 28.6946 39.288 13.5694 22.0418 41.0997 24.6623 35.7495 40.9406 25.1011 19.4215 26.2531 36.0432 12.4399 20.162 37.5317 22.644 32.7867 37.4654 23.0057 17.784 23.9756 33.0122 11.3897 18.4063 34.2154 20.7566 29.9974 34.22 21.0443 16.2516 21.8175 30.1588 10.3995 16.7389 31.0548 18.9744 27.3562 31.1595 19.1846 14.8004 19.7661 27.4281 9.45857 15.1552 28.0701 17.2612 24.8244 28.2365 17.4184 13.4186 17.8288 24.8169 8.54233 13.6562 25.1908 15.6283 22.3985 25.4594 15.699 12.059 15.9431 22.2909 7.67065 12.2033 22.4473 14.0443 20.0312 22.789 14.0567 10.7814 14.1405 19.8505 6.8213 10.8131 19.7773 12.514 17.7269 20.2055 12.4374 9.50976 12.3856 17.4406 5.98392 9.46606 17.1839 10.9921 15.4987 17.6886 10.8586 8.26257 10.6655 15.0969 5.17294 8.14476 14.6645 9.52122 13.2696 15.2566 9.32694 7.0701 9.01134 12.7996 4.38349 6.8692 12.2216 8.05624 11.0837 12.8785 7.79412 5.87039 7.36631 10.5098 3.58777 5.6043 9.79731 6.61081 8.92576 10.5356 6.29767 4.70391 5.77522 8.29134 2.82983 4.39092 7.48256 5.19833 6.83628 8.24967 4.84513 3.59023 4.26901 6.15072 2.10362 3.24249 5.24025 3.81866 4.74776 6.07046 3.41929 2.48204 2.75903 3.97756 1.36354 2.09812 2.97734 2.4267 2.60694 3.87561 1.92689 1.30191 1.14204 1.62706 0.52651 0.810231 0.790356 0.95246 0.724028 1.60202 0.51416 0.274965 30.3071 79.0525 76.5862 29.114 66.802 137.943 50.132 101.886 60.7977 24.513 102.845 35.5801 63.373 54.1693 101.034 117.489 38.7422 76.4479 155.239 83.9186 131.158 155.772 81.7792 67.1086 109.908 135.153 45.7334 83.8305 161.764 92.2437 136.68 166.088 88.8636 71.5153 108.9 137.081 46.8893 83.3222 157.587 90.7997 132.486 161.343 88.2657 70.3843 103.66 132.012 45.3615 79.4156 148.892 86.0274 124.746 151.866 84.2669 66.8709 96.8338 124.109 42.7322 74.2281 138.499 80.1323 115.833 140.952 78.859 62.3941 89.495 115.156 39.6817 68.6125 127.648 73.971 106.739 129.806 72.9801 57.6143 82.1539 106.022 36.5406 62.9848 116.979 67.9166 97.8849 118.94 67.0845 52.8747 75.1033 97.1882 33.488 57.5599 106.83 62.1811 89.5836 108.642 61.4616 48.3753 68.498 88.9147 30.6224 52.4811 97.3746 56.8589 81.883 99.0755 56.2129 44.1771 62.3767 81.2557 27.9717 47.765 88.6581 51.9525 74.8352 90.219 51.3984 40.3385 56.7763 74.2588 25.5425 43.4556 80.6598 47.481 68.4047 82.1195 46.9758 36.8037 51.6296 67.8645 23.3255 39.4948 73.3436 43.4103 62.516 74.7151 42.9569 33.5929 46.9304 62.0352 21.3156 35.879 66.6506 39.6633 57.114 67.9107 39.2749 30.6644 42.6292 56.674 19.4602 32.5741 60.497 36.2366 52.1738 61.6701 35.8851 27.944 38.6463 51.7318 17.7474 29.5116 54.815 33.0847 47.5984 55.9376 32.7602 25.4501 34.9878 47.1711 16.1704 26.7072 49.5896 30.1592 43.3563 50.6417 29.868 23.1382 31.6022 42.9366 14.7093 24.1045 44.7439 27.4414 39.3933 45.7403 27.1771 21.005 28.4654 38.997 13.3505 21.6895 40.2405 24.8956 35.7236 41.1793 24.6744 19.0015 25.5485 35.2979 12.0742 19.4619 36.0604 22.5349 32.2497 36.9527 22.301 17.1261 22.8327 31.7968 10.8696 17.3689 32.1433 20.2826 28.959 33.0142 20.0658 15.3646 20.3013 28.5171 9.73778 15.4329 28.4613 18.167 25.8585 29.3195 17.9269 13.6652 17.8694 25.344 8.64683 13.5742 24.9786 16.1523 22.9004 25.8361 15.9045 12.0791 15.6233 22.3549 7.62381 11.8573 21.7326 14.2144 20.0461 22.5404 13.9576 10.5574 13.501 19.4778 6.63621 10.2299 18.6456 12.3637 17.3461 19.4626 12.1025 9.10969 11.4814 16.7097 5.6865 8.69458 15.7137 10.5974 14.6921 16.5433 10.2794 7.69398 9.55049 14.0128 4.76402 7.21851 12.9049 8.86953 12.1743 13.7424 8.54076 6.33192 7.71292 11.4183 3.86731 5.81804 10.2094 7.21655 9.70683 11.0872 6.82635 5.02052 5.94592 8.90055 3.01941 4.48393 7.66346 5.59625 7.32546 8.53768 5.19146 3.77019 4.27927 6.51409 2.20495 3.21026 5.23601 4.06316 5.05365 6.11898 3.62756 2.56786 2.68859 4.18171 1.41603 2.00705 2.99378 2.56022 2.83838 3.8213 2.07818 1.35191 1.16509 1.73945 0.555726 0.820275 0.829256 1.07079 0.797005 1.70808 0.558686 0.29484 58.2025 138.125 155.495 58.8754 115.797 223.365 93.6281 172.624 102.251 47.8743 175.96 67.1643 115.67 92.9886 151.405 186.408 61.5611 113.508 222.574 128.887 194.537 229.886 123.921 98.644 151.367 194.157 65.142 114.331 219.283 132.021 192.526 229.071 125.427 98.7946 145.043 188.536 63.8209 110.007 208.791 125.792 182.2 216.548 120.6 94.6548 136.379 177.951 60.5084 103.685 195.449 117.404 169.564 201.814 113.265 88.7903 126.794 165.624 56.4501 96.5148 181.037 108.549 156.437 186.634 105.057 82.2963 116.899 152.786 52.1236 89.0141 166.388 99.7586 143.487 171.568 96.644 75.6517 107.084 140.058 47.8052 81.5478 152.071 91.2503 131.071 156.918 88.4291 69.1721 97.6485 127.851 43.6377 74.3497 138.429 83.2106 119.381 142.981 80.6161 63.0042 88.7242 116.38 39.7136 67.5326 125.629 75.7066 108.534 129.887 73.3274 57.2542 80.4293 105.736 36.0673 61.1939 113.757 68.7666 98.5042 117.736 66.5774 51.922 72.74 95.9323 32.7104 55.3179 102.807 62.3663 89.2988 106.48 60.3822 47.0258 65.6695 86.9211 29.626 49.9172 92.7365 56.5035 80.8527 96.1423 54.7001 42.5277 59.1629 78.6626 26.7942 44.9485 83.4777 51.1175 73.0851 86.6301 49.4774 38.3977 53.1837 71.0791 24.2002 40.3817 74.9686 46.1575 65.9652 77.8786 44.7043 34.6187 47.6919 64.1091 21.8164 36.1967 67.1589 41.6139 59.401 69.8394 40.2885 31.1243 42.6345 57.6849 19.6229 32.3328 59.9753 37.4188 53.3533 62.4352 36.2513 27.932 38.0051 51.7808 17.6022 28.7942 53.3545 33.5506 47.7689 55.6249 32.5004 24.9765 33.7261 46.3003 15.7347 25.5344 47.2647 29.9666 42.5943 49.3421 29.0331 22.2473 29.7909 41.2589 14.0177 22.542 41.6503 26.6582 37.8149 43.5572 25.8332 19.7272 26.1599 36.5685 12.4165 19.7783 36.4777 23.5981 33.3835 38.2251 22.8624 17.3959 22.8236 32.2386 10.9389 17.2381 31.7081 20.7563 29.2711 33.3011 20.1016 15.2325 19.7356 28.17 9.55924 14.8971 27.3108 18.1103 25.4326 28.765 17.5038 13.207 16.8938 24.3896 8.269 12.7237 23.2521 15.6341 21.867 24.5901 15.1082 11.3486 14.2862 20.8965 7.07808 10.7562 19.5413 13.3665 18.5556 20.7611 12.8703 9.60699 11.8881 17.6075 5.95934 8.93007 16.104 11.2114 15.4548 17.2254 10.768 7.98219 9.67486 14.5259 4.90946 7.25789 12.9297 9.22946 12.5496 13.9914 8.77235 6.4413 7.61815 11.6138 3.91496 5.7042 10.0007 7.35758 9.80979 11.0131 6.90116 5.00704 5.71103 8.86181 2.98598 4.24799 7.26751 5.57312 7.21495 8.23696 5.12722 3.65683 3.94514 6.27642 2.10464 2.91996 4.77346 3.91723 4.81704 5.66659 3.45336 2.3774 2.33508 3.84234 1.27358 1.68185 2.64938 2.36631 2.70165 3.36919 1.94246 1.23113 1.05616 1.68622 0.521612 0.705074 0.762613 1.0959 0.825572 1.62823 0.559388 0.285859 92.7777 213.773 252.623 94.9127 177.024 321.506 151.064 258.006 163.417 77.7884 276.975 111.718 177.164 138.271 206.282 266.359 87.6997 153.546 293.839 181.359 265.491 310.84 171.026 132.882 193.695 257.635 85.8331 145.426 279.143 174.9 252.768 293.231 164.958 127.866 182.825 244.031 82.0139 137.998 263.443 163.503 236.44 273.997 156.034 121.033 171.599 228.847 77.2757 129.88 246.303 151.991 219.509 255.321 145.872 113.204 159.626 212.693 71.9935 120.97 228.13 140.499 202.454 236.468 135.1 104.843 147.205 196.083 66.4454 111.607 209.62 129.121 185.634 217.526 124.165 96.3162 134.786 179.587 60.8801 102.172 191.384 118.053 169.372 198.923 113.433 87.9419 122.735 163.643 55.4763 93.0195 173.877 107.471 153.957 181.023 103.176 79.9281 111.283 148.536 50.3523 84.3173 157.374 97.505 139.484 164.102 93.507 72.38 100.541 134.417 45.5535 76.1361 141.987 88.2224 126.062 148.278 84.5323 65.3634 90.5653 121.323 41.0993 68.5525 127.746 79.6121 113.629 133.592 76.225 58.8775 81.3704 109.258 36.9971 61.5621 114.615 71.6826 102.202 120.044 68.5694 52.8918 72.8766 98.132 33.2185 55.0984 102.503 64.3699 91.6615 107.542 61.5273 47.3954 65.0714 87.9085 29.7496 49.1775 91.4039 57.6436 81.9693 96.0362 55.0602 42.3484 57.9072 78.5134 26.5614 43.7277 81.1812 51.45 73.0615 85.4606 49.1171 37.7051 51.3013 69.8757 23.6288 38.7178 71.7845 45.7672 64.8634 75.7159 43.6433 33.4288 45.2377 61.9335 20.927 34.1065 63.1487 40.5298 57.3286 66.7703 38.6257 29.5193 39.6755 54.6375 18.4541 29.8843 55.2125 35.7112 50.3954 58.5328 34.0044 25.9159 34.5679 47.9409 16.1926 26.0225 47.9491 31.2889 44.0256 50.9745 29.766 22.6141 29.8739 41.7734 14.0991 22.4582 41.2867 27.2222 38.1751 44.047 25.8709 19.581 25.5872 36.1226 12.1859 19.2094 35.2001 23.4817 32.8069 37.6936 22.3022 16.8048 21.6764 30.9394 10.4332 16.2482 29.66 20.0638 27.8863 31.9052 19.0274 14.2681 18.1139 26.1984 8.82202 13.5428 24.5941 16.9418 23.4385 26.615 16.0325 11.9491 14.8914 21.8852 7.36982 11.1174 20.0771 14.1042 19.3558 21.8673 13.3247 9.86616 12.0154 17.9742 6.04659 8.94635 16.0003 11.5281 15.6657 17.5902 10.8435 7.95904 9.41222 14.4087 4.84329 6.9865 12.3674 9.18837 12.3353 13.7436 8.6004 6.25197 7.13194 11.1867 3.75784 5.27552 9.17464 7.09294 9.35861 10.3635 6.56983 4.70239 5.09518 8.23983 2.75526 3.74785 6.35134 5.20701 6.62802 7.39975 4.68849 3.28281 3.33439 5.56546 1.85068 2.41433 3.95221 3.47284 4.19014 4.83413 2.99805 2.00596 1.8077 3.1639 1.02349 1.26182 2.03792 1.98415 2.28071 2.65243 1.59311 0.989292 0.790438 1.43076 0.420897 0.50765 0.588578 0.993674 0.763219 1.24892 0.469321 0.228319 153.639 153.639 401.303 148.06 85.9747 211.602 242.846 357.372 67.6642 132.248 198.73 194.679 246.003 185.832 123.747 345.589 113.686 60.2053 170.934 232.159 335.048 183.709 218.065 166.579 113.098 319.415 106.385 55.8502 160.457 215.957 312.941 169.147 205.068 157.767 107.233 301.616 101.181 53.1609 152.171 202.09 293.04 158.917 193.483 149.193 101.172 283.484 95.4194 50.1822 143.043 188.692 272.85 149.022 181.083 139.679 94.442 263.868 88.9681 46.8187 133.001 174.884 252.077 138.571 167.84 129.407 87.2573 243.331 82.1047 43.2242 122.481 160.862 231.222 127.747 154.242 118.834 79.9533 222.703 75.1528 39.5768 111.938 147.037 210.847 116.928 140.774 108.375 72.7994 202.665 68.3897 36.0142 101.728 133.707 191.371 106.411 127.821 98.3187 65.9432 183.565 61.933 32.605 92.0329 121.076 173.023 96.3892 115.589 88.8385 59.5106 165.651 55.8663 29.4106 82.9452 109.258 155.924 86.993 104.151 79.9801 53.5245 149.02 50.2503 26.4456 74.548 98.2838 140.073 78.2551 93.5828 71.7964 47.9917 133.675 45.0521 23.694 66.7719 88.1656 125.474 70.1966 83.8236 64.2355 42.8773 119.494 40.2511 21.1575 59.6076 78.8232 111.999 62.7458 74.8218 57.2857 38.1921 106.473 35.8547 18.8356 53.0285 70.2181 99.598 55.8932 66.5566 50.8887 33.8695 94.4944 31.8069 16.6957 46.9856 62.306 88.2065 49.5797 58.9675 45.0184 29.9072 83.4846 28.0872 14.7285 41.4255 55.0266 77.7132 43.7952 51.975 39.6231 26.2644 73.3675 24.6726 12.9261 36.3157 48.3361 68.0896 38.4568 45.5504 34.6537 22.9072 64.0609 21.5338 11.2641 31.6317 42.1761 59.2081 33.5526 39.664 30.1071 19.8373 55.5419 18.6562 9.73951 27.3243 36.5254 51.0803 29.0582 34.2511 25.9294 17.0127 47.7001 16.0192 8.34455 23.3996 31.3385 43.6753 24.9128 29.3262 22.1329 14.4583 40.5898 13.6165 7.07785 19.7925 26.63 36.8739 21.1786 24.7945 18.6305 12.0918 34.0645 11.4219 5.91582 16.5338 22.3121 30.7072 17.7167 20.7074 15.4789 9.97284 28.1654 9.42725 4.86093 13.5654 18.3982 25.1155 14.6068 16.9769 12.6299 8.06358 22.8495 7.65102 3.92543 10.9299 14.8703 20.118 11.7899 13.6681 10.0856 6.36005 18.1255 6.05576 3.08113 8.56361 11.7432 15.6693 9.2994 10.7057 7.81227 4.83763 13.8937 4.63458 2.32978 6.47509 8.94734 11.7602 7.06663 8.09315 5.83423 3.52943 10.2387 3.40882 1.68892 4.66871 6.53489 8.38144 5.14299 5.84034 4.10855 2.38865 7.05313 2.33767 1.12876 3.12208 4.4568 5.52937 3.48708 3.90145 2.66767 1.45877 4.40269 1.44224 0.674352 1.86307 2.75223 3.31986 2.12752 2.34736 1.52408 0.756186 2.31781 0.732361 0.335356 0.933094 1.47394 1.7237 1.14849 1.18198 0.750158 0.353154 1.04462 0.299812 0.15242 0.299812 0.717489 0.520817 0.565085 0.315072 0.147392 101.416 243.546 202.285 163.471 277.351 158.215 82.5166 103.253 64.2595 58.287 151.211 82.3829 143.254 189.058 141.07 263.681 212.439 173.596 258.125 138.551 94.9706 213.777 133.338 174.726 134.345 247.712 196.482 165.801 242.115 133.628 89.5147 207.795 123.433 161.145 121.769 224.924 178.228 153.102 221.286 124.073 81.4833 191.352 111.443 145.915 110.82 202.739 161.637 138.478 198.932 111.96 72.9818 174.191 99.5624 131.063 100.64 181.947 146.116 123.84 177.387 99.6802 64.9785 157.184 88.6319 117.284 90.9957 162.922 131.667 110.224 157.721 88.3656 57.7982 140.98 78.8886 104.851 81.9639 145.739 118.331 97.9701 140.181 78.3071 51.4483 125.991 70.2393 93.6956 73.5975 130.259 106.081 87.0539 124.587 69.4343 45.8313 112.398 62.5456 83.6881 65.8768 116.218 94.8158 77.3181 110.629 61.5736 40.7956 100.106 55.6096 74.5897 58.7737 103.425 84.4782 68.5777 98.0542 54.5593 36.2424 88.9893 49.3105 66.3051 52.252 91.7149 74.9504 60.6526 86.5996 48.1958 32.083 78.9035 43.5305 58.6793 46.2504 80.9685 66.233 53.4194 76.1673 42.4159 28.2822 69.6753 38.2786 51.7168 40.7451 71.105 58.2018 46.8474 66.6423 37.1623 24.8036 61.2796 33.4424 45.293 35.6933 62.0453 50.8485 40.8242 57.9037 32.3511 21.605 53.5998 28.9935 39.3911 31.0697 53.7267 44.1286 35.2998 49.9111 27.94 18.6654 46.5775 24.9377 33.9934 26.8527 46.1393 38.0194 30.2726 42.6365 23.9273 15.9892 40.1841 21.2364 29.0745 23.0258 39.2156 32.4538 25.6814 35.9966 20.2595 13.5387 34.3723 17.86 24.5757 19.5644 32.939 27.4663 21.5215 30.0151 16.9331 11.3277 29.1195 14.8325 20.5274 16.4624 27.2945 22.9794 17.7817 24.6299 13.9313 9.32887 24.4137 12.0934 16.8728 13.6698 22.1949 18.9984 14.4335 19.8387 11.259 7.52987 20.2105 9.65187 13.6103 11.2493 17.7232 15.515 11.4609 15.5969 8.87098 5.94252 16.5269 7.5206 10.7464 9.11439 13.7619 12.4725 8.85091 11.8981 6.77047 4.54132 13.3016 5.6496 8.22074 7.29918 10.3555 9.8762 6.60394 8.74964 4.95607 3.33267 10.5435 4.06769 6.06893 5.75426 7.4972 7.71289 4.73353 6.18703 3.44328 2.32371 8.23297 2.78475 4.30514 4.50637 5.20026 5.93555 3.24659 4.1608 2.23051 1.50828 6.36498 1.79365 2.89549 3.50419 3.44294 4.5119 2.12357 2.67097 1.30694 0.891295 4.8799 1.12751 1.8567 2.70236 2.31747 3.3943 1.44353 1.82533 0.793603 0.542806 3.74706 0.799615 1.23957 2.05198 1.82304 2.50334 1.15984 1.47224 0.71925 0.477798 2.87835 0.692379 0.983858 1.44885 1.52366 1.65193 0.975047 1.19976 0.721321 0.484458 2.08366 0.578766 0.815098 0.835958 1.0831 0.941204 0.669549 0.872721 0.550402 0.384783 1.23416 0.395918 0.595899 0.47505 0.587258 0.296653 0.387316 0.268154 0.261151 0.186216 0.716938 0.0849658 0.175248 55.0634 117.076 110.352 73.6759 140.385 35.0184 30.7268 79.6092 41.2466 97.6843 84.1129 165.846 133.454 110.462 169.446 130.2 113.338 86.1973 162.43 129.43 110.89 163.003 135.899 106.923 80.8387 149.609 119.798 103.24 149.814 128.442 97.8219 75.17 137.702 110.886 94.5439 136.57 118.428 89.7648 69.5884 126.275 102.257 85.8124 123.658 108.189 82.0792 63.994 115.103 93.7066 77.3787 111.368 98.2182 74.6291 58.4599 104.325 85.3774 69.4599 99.9291 88.758 67.5088 53.1108 94.1145 77.4027 62.1879 89.4478 79.9732 60.8006 48.0518 84.5651 69.9248 55.555 79.8861 71.8992 54.5576 43.3433 75.7315 62.991 49.5342 71.1873 64.5443 48.7834 38.9855 67.5712 56.5723 44.0596 63.2571 57.8493 43.4466 34.9719 60.0642 50.6822 39.0573 56.0208 51.7381 38.5543 31.3078 53.1856 45.297 34.5119 49.4205 46.1933 34.0608 27.961 46.8948 40.3993 30.3591 43.4138 41.1302 29.9672 24.9186 41.153 35.9039 26.5867 37.9323 36.5515 26.2129 22.1383 35.9299 31.8455 23.1606 32.9726 32.3841 22.8239 19.6409 31.211 28.1572 20.0567 28.4865 28.6212 19.7413 17.3579 26.9395 24.8242 17.2654 24.476 25.2143 16.9928 15.3265 23.1365 21.819 14.7828 20.8872 22.1721 14.5188 13.4893 19.734 19.1202 12.5653 17.712 19.4377 12.3361 11.846 16.7813 16.6888 10.6427 14.9417 17.0039 10.417 10.3505 14.1603 14.5041 8.96062 12.542 14.799 8.74515 9.01149 11.9118 12.5333 7.51814 10.4792 12.8446 7.30831 7.79543 9.96729 10.7311 6.27451 8.69867 11.0857 6.07304 6.66322 8.29038 9.06312 5.22244 7.18234 9.46574 5.00304 5.62151 6.85826 7.5192 4.31563 5.84723 7.96696 4.07652 4.5842 5.54367 5.99763 3.49089 4.62273 6.51175 3.22776 3.57456 4.3061 4.51336 2.70541 3.44334 5.07788 2.41736 2.57159 3.06894 3.0123 1.92101 2.23528 3.6596 1.57739 1.5381 1.76038 1.56279 1.09273 1.11373 2.174 0.791574 0.67273 0.822244 0.459155 0.512227 0.406898 0.941619 0.267796 30.1689 60.8634 71.9026 39.7012 83.3019 22.013 15.4664 47.8204 21.3456 55.7873 57.447 99.4361 95.9115 69.0003 109.881 92.6661 70.8736 64.9455 107.399 99.1959 74.766 110.89 103.425 71.4602 63.6907 103.243 95.074 71.3979 103.912 99.8368 67.6301 60.548 97.27 89.6241 66.0778 95.7656 92.9389 63.391 56.7845 90.8313 83.6635 60.5733 87.7011 85.58 58.9921 52.7361 84.0648 77.4913 55.2207 79.9437 78.3859 54.4748 48.6498 77.2303 71.3536 50.1579 72.643 71.5908 49.9668 44.6904 70.5681 65.4811 45.4702 65.8792 65.3161 45.612 40.9796 64.262 59.9718 41.1755 59.6816 59.5894 41.4957 37.5188 58.3824 54.8625 37.2723 54.0454 54.4068 37.6696 34.3594 52.971 50.1922 33.7387 48.9321 49.7159 34.1527 31.4676 48.0064 45.9038 30.5294 44.2659 45.4548 30.9236 28.8435 43.4987 42.0009 27.6234 40.0475 41.6044 27.9741 26.4278 39.3667 38.415 24.9822 36.2028 38.0841 25.2975 24.2163 35.6208 35.1171 22.5872 32.7014 34.8652 22.8455 22.1836 32.1991 32.0694 20.4078 29.5188 31.9046 20.6138 20.2807 29.0809 29.2488 18.4251 26.6145 29.1526 18.584 18.5394 26.2335 26.6492 16.6049 23.9511 26.6143 16.7198 16.9032 23.6284 24.1918 14.9629 21.5249 24.2618 15.0141 15.3508 21.2233 21.8769 13.4421 19.3048 22.0082 13.4509 13.8737 19.011 19.6874 12.0539 17.243 19.8942 11.9986 12.4752 16.9456 17.5784 10.7503 15.3118 17.8917 10.6495 11.1188 15.0243 15.5607 9.52952 13.5081 15.9284 9.38503 9.77819 13.1796 13.5827 8.38574 11.772 14.0526 8.16828 8.47719 11.4004 11.6375 7.24226 10.0764 12.1779 7.00138 7.19578 9.6855 9.74525 6.1468 8.44681 10.3397 5.87054 5.9215 7.9599 7.84794 5.05822 6.79276 8.5141 4.72059 4.65484 6.2402 5.9826 3.9593 5.14113 6.68915 3.58988 3.40811 4.54503 4.1143 2.86998 3.49915 4.88859 2.4565 2.13682 2.8209 2.19347 1.75686 1.8261 3.06394 1.31841 0.849454 1.20506 0.595753 0.73651 0.588868 1.19827 0.396725 32.6435 38.2373 80.6678 30.9583 71.9306 28.7422 9.69 53.9861 18.3185 43.6912 69.604 87.7794 112.144 63.0149 100.957 108.287 62.7892 78.98 101.243 116.92 70.5877 104.225 121.389 66.3465 77.5994 100.319 112.395 68.2156 98.6746 117.296 64.3363 73.1523 95.2883 105.332 63.3227 91.292 108.765 60.7702 67.907 89.0088 97.6068 58.133 83.8403 99.7468 56.667 62.5821 82.4086 89.9252 53.1844 76.8034 91.1796 52.4531 57.4659 75.9171 82.5659 48.6185 70.2897 83.3044 48.3236 52.6656 69.7352 75.6756 44.4532 64.358 76.1213 44.4121 48.249 64.0186 69.3612 40.7059 58.9988 69.6345 40.8033 44.2249 58.7639 63.5639 37.3367 54.1469 63.7932 37.4723 40.5544 53.9976 58.3045 34.3067 49.7869 58.4872 34.4577 37.2254 49.6509 53.4948 31.5577 45.7956 53.6994 31.6869 34.175 45.6909 49.0888 29.0556 42.1665 49.3213 29.1696 31.3843 42.0619 45.0457 26.7764 38.8315 45.2984 26.8493 28.8158 38.7137 41.2931 24.6622 35.7454 41.5992 24.6898 26.4103 35.5959 37.7951 22.7 32.8588 38.1521 22.689 24.1709 32.6818 34.5217 20.8522 30.135 34.9307 20.8081 22.0664 29.9568 31.4682 19.1233 27.6157 31.8852 19.0604 20.0993 27.4035 28.5718 17.5153 25.2132 29.0614 17.3935 18.2138 24.9493 25.8199 15.9489 22.9022 26.3408 15.8016 16.4108 22.5854 23.1844 14.4441 20.662 23.7494 14.2671 14.687 20.3191 20.6336 13.0057 18.5214 21.273 12.7714 13.0066 18.0994 18.1812 11.5803 16.4002 18.8379 11.3222 11.382 15.9128 15.7962 10.1867 14.3162 16.4912 9.90707 9.82928 13.8047 13.4807 8.82217 12.2748 14.2275 8.48873 8.28055 11.6883 11.2172 7.47473 10.2665 11.9884 7.11659 6.77453 9.61587 8.98074 6.13896 8.26608 9.8021 5.7323 5.28735 7.55842 6.82632 4.81896 6.30464 7.65722 4.40317 3.87606 5.56116 4.72371 3.51651 4.33773 5.58635 3.05543 2.45028 3.52631 2.63277 2.21131 2.35623 3.53177 1.69153 1.00644 1.4295 0.69234 0.855329 0.650971 1.44323 0.459828 64.8653 70.816 130.874 51.045 105.332 53.532 22.0023 96.3708 35.0471 66.7253 106.845 128.248 164.532 88.2505 138.769 159.424 88.6523 114.138 141.163 165.445 96.3204 141.047 171.632 91.0531 109.368 137.054 156.199 92.2206 132.611 163.63 86.8479 101.708 128.201 144.74 85.0677 121.961 150.84 80.8868 93.627 118.369 133.097 77.7403 111.485 137.894 74.6023 85.8042 108.685 121.893 70.8998 101.732 125.781 68.4778 78.4029 99.4956 111.322 64.6416 92.8107 114.609 62.678 71.5078 90.9504 101.508 58.9513 84.6924 104.369 57.3099 65.1544 83.1026 92.4674 53.805 77.3219 95.028 52.3828 59.3049 75.9279 84.1638 49.1421 70.6484 86.4972 47.8883 53.961 69.3931 76.5655 44.9026 64.5652 78.7193 43.7923 49.0824 63.4435 69.6196 41.0508 59.0239 71.6058 40.0437 44.5842 57.9735 63.2296 37.5328 53.9486 65.0802 36.609 40.4744 52.9811 57.369 34.2926 49.2726 59.0944 33.4618 36.6907 48.3716 51.9717 31.3076 44.9604 53.568 30.5507 33.1934 44.097 46.9652 28.5404 40.941 48.4718 27.8345 29.9509 40.1149 42.3252 25.9529 37.1947 43.7387 25.3134 26.9433 36.3943 38.0225 23.5435 33.6892 39.355 22.9528 24.1486 32.9306 34.0066 21.2918 30.4082 35.2819 20.7438 21.5461 29.6463 30.2533 19.1536 27.2864 31.4605 18.6429 19.0908 26.5354 26.7311 17.1399 24.3519 27.8804 16.6534 16.8046 23.6001 23.4526 15.2363 21.5467 24.5473 14.7652 14.6436 20.7629 20.3124 13.3985 18.8393 21.4012 12.9289 12.61 18.0568 17.3863 11.6402 16.2587 18.4138 11.1765 10.7123 15.4683 14.608 9.94441 13.7694 15.6113 9.48443 8.86882 12.9574 11.9522 8.31602 11.385 12.9271 7.87401 7.11795 10.5429 9.42678 6.75272 9.05796 10.3883 6.28868 5.48894 8.18841 7.03586 5.22854 6.81752 7.98982 4.75567 3.91464 5.94506 4.76088 3.76059 4.65277 5.69515 3.28622 2.42167 3.74522 2.72899 2.3539 2.61074 3.51491 1.86089 1.10904 1.59085 0.769324 0.994453 0.738167 1.61036 0.507749 109.087 127.163 199.768 86.0316 162.808 88.7761 40.5344 158.612 61.8052 107.567 155.127 193.184 231.186 129.135 198.45 228.068 129.755 156.299 200.477 224.474 134.991 196.444 233.464 128.292 146.703 189.934 209.264 127.405 183.071 219.346 120.268 135.678 175.93 193.189 117.137 167.984 201.94 111.137 124.81 161.763 177.44 107.043 153.456 184.943 102.061 114.356 148.165 162.327 97.6271 139.924 168.911 93.3772 104.401 135.283 147.984 88.9158 127.383 153.917 85.1841 95.0301 123.254 134.542 80.8849 115.831 139.956 77.545 86.2829 112.096 122.05 73.5111 105.206 127.022 70.4935 78.183 101.802 110.495 66.7306 95.4551 115.077 63.9881 70.6965 92.3307 99.8445 60.5139 86.5193 104.075 58.0192 63.8223 83.6542 90.053 54.8084 78.3233 93.9621 52.549 57.4831 75.6727 81.0352 49.5754 70.7842 84.6616 47.5195 51.663 68.3448 72.7535 44.7644 63.8594 76.0957 42.8903 46.3105 61.605 65.1212 40.3315 57.4745 68.2214 38.6429 41.3679 55.3952 58.1086 36.2404 51.5659 60.9454 34.7135 36.8201 49.6423 51.6217 32.4585 46.1263 54.2515 31.0795 32.6309 44.3327 45.6507 28.9657 41.0899 48.0659 27.7242 28.7665 39.423 40.1363 25.7417 36.4201 42.3762 24.6051 25.207 34.8709 35.0615 22.7367 32.0931 37.1143 21.7249 21.913 30.6367 30.3732 19.9488 28.0697 32.2682 19.0453 18.8873 26.716 26.0886 17.3735 24.343 27.8055 16.5656 16.1081 23.0545 22.1032 14.9768 20.8676 23.7033 14.2251 13.561 19.6778 18.4974 12.7457 17.6388 19.9264 12.0722 11.2142 16.5089 15.1385 10.6745 14.6529 16.4836 10.0586 9.07322 13.5659 12.1008 8.74432 11.859 13.311 8.16548 7.1152 10.7801 9.30652 6.92574 9.19958 10.4328 6.37465 5.29826 8.18913 6.70593 5.24688 6.75686 7.76713 4.70485 3.62177 5.74374 4.37765 3.65329 4.48098 5.30463 3.15533 2.14501 3.50467 2.46289 2.21491 2.5278 3.15892 1.78851 1.06015 1.66698 0.766975 1.07462 0.818428 1.56686 0.539786 174.918 207.039 284.73 137.839 237.36 146.939 68.4288 254.641 104.546 159.246 208.603 271.206 301.841 178.754 267.033 305.146 176.743 198.967 265.157 285.34 177.261 256.772 296.388 168.925 185.184 247.067 265.237 165.339 238.157 276.71 156.951 171.726 228.515 245.383 152.333 219.054 256.012 144.926 158.477 210.456 225.833 139.747 200.677 235.586 133.208 145.465 192.978 206.761 127.769 183.249 215.766 121.91 132.852 176.222 188.429 116.468 166.814 196.816 111.131 120.823 160.335 171.067 105.852 151.442 178.874 100.975 109.503 145.447 154.799 95.9752 137.154 162.075 91.4876 98.9465 131.601 139.688 86.8045 123.926 146.429 82.6903 89.1422 118.774 125.68 78.3425 111.722 131.951 74.5549 80.094 106.963 112.786 70.5441 100.481 118.582 67.0803 71.7608 96.0751 100.888 63.355 90.1228 106.264 60.1737 64.0743 86.0451 89.9365 56.7271 80.5955 94.9035 53.8353 57.0016 76.8288 79.8699 50.6425 71.814 84.4538 47.9976 50.4933 68.3276 70.6026 45.009 63.7218 74.804 42.6274 44.5138 60.518 62.0612 39.8536 56.2893 65.9542 37.6749 38.9975 53.3248 54.2105 35.0888 49.4243 57.8004 33.1224 33.9314 46.7027 47.0074 30.7045 43.1156 50.2885 28.9345 29.2922 40.6235 40.4164 26.6674 37.3214 43.4004 25.0912 25.0338 35.02 34.3535 22.9674 32.0085 37.0901 21.5511 21.1467 29.9034 28.8612 19.5738 27.1499 31.3237 18.3353 17.5974 25.2266 23.8743 16.4889 22.7144 26.0939 15.391 14.4496 20.9831 19.379 13.6655 18.6881 21.3796 12.7099 11.5626 17.1171 15.3458 11.1345 15.0697 17.116 10.2741 8.99711 13.6189 11.7694 8.82871 11.7941 13.3204 8.09031 6.75794 10.5045 8.6426 6.78226 8.88225 10.0064 6.13374 4.792 7.69228 5.9589 4.93345 6.27209 7.07103 4.35636 3.11394 5.14292 3.68372 3.28632 3.95894 4.61028 2.76852 1.71051 2.95631 1.95376 1.87827 2.18511 2.53886 1.51652 0.830074 1.49396 0.64914 0.977157 0.754608 1.24174 0.504968 130.096 343.458 182.692 227.242 329.328 63.6138 123.042 188.139 188.669 222.8 125.215 349.077 174.954 227.527 333.835 181.554 222.888 115.719 326.31 164.212 216.896 315.819 170.267 209.087 108.421 304.772 153.491 203.344 294.552 160.007 194.849 101.322 283.749 142.86 189 272.683 149.299 180.724 93.9672 262.415 132.034 174.35 250.818 138.139 166.578 86.4822 241.078 121.191 159.845 229.438 126.911 152.607 79.0887 220.208 110.599 145.825 208.907 115.934 139.085 71.9483 200.208 100.456 132.481 189.499 105.41 126.223 65.1829 181.326 90.8873 119.946 171.318 95.4795 114.137 58.8373 163.677 81.9559 108.247 154.42 86.1833 102.898 52.9426 147.292 73.6596 97.4177 138.766 77.5673 92.458 47.4854 132.153 66.0217 87.3958 124.333 69.5819 82.8531 42.4612 118.199 58.9643 78.1718 111.031 62.2382 73.9885 37.8297 105.348 52.4674 69.6623 98.7601 55.4632 65.821 33.5529 93.4942 46.4821 61.8207 87.4687 49.2102 58.3114 29.6288 82.6023 40.9924 54.6046 77.0647 43.4654 51.4002 26.0251 72.598 35.9419 47.9715 67.5123 38.186 45.0502 22.7111 63.3694 31.2732 41.8523 58.707 33.3205 39.1827 19.645 54.8898 27.0082 36.229 50.6201 28.8336 33.8221 16.849 47.1263 23.109 31.0749 43.2229 24.7293 28.9279 14.3102 40.0499 19.5385 26.3684 36.4674 20.9913 24.4253 11.9622 33.5547 16.2864 22.0643 30.3207 17.5577 20.3596 9.84635 27.6713 13.3323 18.1807 24.7483 14.4664 16.6475 7.93972 22.4079 10.6889 14.6818 19.806 11.6606 13.3462 6.23588 17.6722 8.34022 11.5494 15.3658 9.16113 10.4016 4.72338 13.4767 6.26527 8.77555 11.4757 6.95214 7.80792 3.42383 9.8554 4.46733 6.39405 8.16064 5.04029 5.56695 2.28847 6.71375 2.95789 4.33413 5.38349 3.39742 3.70539 1.39163 4.18312 1.75928 2.70977 3.24202 2.10414 2.23173 0.752093 2.245 0.922391 1.45369 1.70475 1.15055 1.15776 0.393173 1.11922 0.341097 0.72587 0.524667 0.600565 0.347287 92.9573 240.524 198.369 164.404 281.475 162.526 82.4431 105.777 58.3583 53.7928 143.617 79.0678 143.453 190.594 139.287 257.887 213.412 172.006 255.061 136.47 91.9128 212.84 131.348 172.793 138.589 251.211 204.14 165.879 243.673 132.752 89.5365 210.837 125.269 165.005 128.759 234.396 188.58 155.798 226.683 125.417 83.8367 197.034 115.401 152.719 117.614 213.13 170.995 142.49 205.394 114.49 75.9663 180.717 103.685 137.806 106.025 190.775 153.176 127.813 183.159 102.334 67.6695 163.039 92.0459 122.714 94.7522 169.486 136.381 113.462 162.165 90.5941 59.8814 145.444 81.3949 108.738 84.2785 150.169 121.124 100.323 143.278 79.9711 52.9168 129.014 71.9392 96.2626 74.8441 133.008 107.493 88.621 126.573 70.5722 46.7892 114.21 63.6 85.2342 66.4035 117.78 95.3252 78.2684 111.805 62.2886 41.3766 101.047 56.2273 75.4579 58.8486 104.232 84.4395 69.1168 98.7016 54.9865 36.5842 89.3415 49.6485 66.741 52.0569 92.0287 74.599 60.9215 86.9125 48.4432 32.2626 78.8813 43.7014 58.8474 45.9004 80.9906 65.6721 53.5379 76.2684 42.5534 28.367 69.4549 38.323 51.6998 40.3099 70.9582 57.5727 46.8409 66.5985 37.2 24.8232 60.9154 33.412 45.1943 35.2299 61.8006 50.177 40.7521 57.7839 32.3459 21.5833 53.1765 28.9324 39.244 30.5902 53.4315 43.4367 35.1918 49.742 27.9029 18.6274 46.113 24.8523 33.8164 26.3652 45.813 37.3262 30.1399 42.4437 23.8707 15.9362 39.7123 21.1438 28.8795 22.5353 38.8761 31.7573 25.5463 35.7996 20.1935 13.4898 33.9058 17.7608 24.3724 19.0738 32.5709 26.7626 21.3826 29.795 16.8689 11.2579 28.657 14.7023 20.2975 15.9621 26.8832 22.28 17.6193 24.3748 13.8616 9.24186 23.9303 11.9533 16.6223 13.2049 21.8175 18.3467 14.2524 19.5893 11.1697 7.45751 19.7298 9.53095 13.389 10.7856 17.3298 14.8564 11.285 15.3369 8.77866 5.86088 16.0658 7.37232 10.4909 8.64659 13.3481 11.839 8.66193 11.6458 6.66861 4.45531 12.8301 5.51344 7.97958 6.84214 9.94759 9.27161 6.43281 8.49853 4.86248 3.24281 10.107 3.93376 5.82293 5.34437 7.10292 7.1689 4.57653 5.94563 3.37103 2.23755 7.82222 2.65223 4.07428 4.13923 4.84174 5.4603 3.06534 3.9181 2.11323 1.42519 5.98685 1.67157 2.69087 3.18209 3.11516 4.09888 1.97873 2.49003 1.2312 0.816607 4.56746 1.04116 1.67958 2.4466 2.07128 3.08455 1.34691 1.68167 0.75428 0.49133 3.49139 0.719817 1.10519 1.87124 1.67117 2.29774 1.06888 1.38231 0.685137 0.45655 2.67603 0.676027 0.930917 1.33213 1.45796 1.54854 0.922117 1.16708 0.704217 0.485829 1.93817 0.57431 0.801989 0.776303 1.02439 0.875206 0.63407 0.837071 0.526327 0.368479 1.16708 0.36657 0.563147 0.461925 0.554122 0.287589 0.365865 0.243773 0.236064 0.165196 0.67487 0.0779623 0.1599 48.1086 104.174 104.797 69.273 137.184 31.0682 25.8959 72.9449 37.1021 92.3823 84.9423 165.23 137.862 110.735 170.982 131.478 115.464 91.4031 169.994 137.952 113.68 167.989 140.83 112.918 87.1119 159.816 128.55 107.064 156.022 134.378 104.565 80.1161 146.642 117.277 98.3893 142.292 123.652 95.2896 72.6784 132.729 105.957 88.9945 128.045 111.965 85.8662 65.4443 119.075 95.2078 79.6019 114.241 100.408 76.8515 58.6935 106.292 85.2987 70.781 101.501 89.6199 68.5295 52.5539 94.6886 76.3495 62.7907 90.05 79.8592 61.0084 47.0166 84.2405 68.3039 55.6673 79.8517 71.1499 54.2511 42.0545 74.8678 61.0874 49.3209 70.7565 63.4139 48.1821 37.5996 66.4333 54.5841 43.6616 62.6018 56.5348 42.7047 33.5743 58.7929 48.692 38.5655 55.2542 50.3619 37.7327 29.9357 51.8654 43.3773 33.9699 48.5974 44.809 33.2235 26.6371 45.5743 38.5309 29.8027 42.5814 39.7927 29.128 23.6513 39.8615 34.1386 26.0271 37.0995 35.2573 25.391 20.9414 34.6625 30.1621 22.6015 32.1563 31.138 22.0185 18.4956 29.9704 26.5679 19.5249 27.6895 27.4459 18.9568 16.3019 25.7562 23.346 16.7435 23.687 24.1098 16.2332 14.3325 21.9905 20.4293 14.2606 20.1327 21.1242 13.7852 12.5578 18.6493 17.8332 12.0825 17.001 18.4554 11.6385 10.9893 15.7328 15.5143 10.1795 14.2803 16.0798 9.75895 9.57273 13.184 13.4343 8.51447 11.8984 13.9699 8.14011 8.31859 11.0142 11.574 7.10681 9.87965 12.1053 6.74836 7.18363 9.16995 9.89217 5.91183 8.1841 10.4209 5.57515 6.14238 7.59686 8.36501 4.90601 6.72488 8.90672 4.57664 5.17674 6.26146 6.91171 4.04496 5.47236 7.48469 3.71416 4.22591 5.07334 5.51952 3.28089 4.34034 6.13042 2.94098 3.28485 3.93641 4.14852 2.54478 3.23141 4.77915 2.19897 2.36097 2.79385 2.75176 1.7967 2.09035 3.42041 1.43361 1.3916 1.60629 1.39527 1.02558 1.04551 2.02413 0.713417 0.581551 0.740891 0.396561 0.480058 0.38114 0.829336 0.244131 30.2824 55.7581 74.4312 38.5765 83.6736 22.5633 13.4865 47.8736 20.1573 55.0088 62.838 105.029 104.112 71.6672 114.326 97.826 75.406 71.002 116.388 107.113 78.5397 116.43 109.67 77.1946 68.0998 111.382 100.328 74.8963 108.805 104.716 72.4035 62.566 102.445 91.6466 68.6024 99.0415 95.6302 66.2028 56.8511 93.0499 83.1682 61.9549 89.2576 86.2848 60.0061 51.4952 84.0481 75.3479 55.5928 80.0776 77.6052 54.1596 46.6332 75.7202 68.2776 49.7775 71.7625 69.8342 48.7872 42.2958 68.1756 61.978 44.577 64.3744 62.9956 43.951 38.439 61.4187 56.3543 39.9953 57.8333 57.0242 39.6038 35.0213 55.3847 51.3369 35.9607 52.0577 51.7967 35.7144 31.9673 49.9909 46.8406 32.3949 46.9239 47.1685 32.2302 29.2295 45.1469 42.7696 29.2111 42.3167 43.0606 29.0729 26.7616 40.7744 39.1007 26.3559 38.1916 39.3572 26.2408 24.5254 36.8297 35.7431 23.8001 34.4579 36.017 23.6541 22.4642 33.2366 32.6489 21.4781 31.0614 32.9598 21.3097 20.5783 29.9894 29.8295 19.3667 27.9844 30.1493 19.1885 18.828 27.0297 27.2037 17.4587 25.1938 27.5582 17.262 17.2065 24.3429 24.7438 15.7271 22.6606 25.1662 15.4972 15.6912 21.8941 22.4925 14.1501 20.3512 22.9156 13.9003 14.2572 19.65 20.3403 12.7088 18.219 20.8324 12.4419 12.9005 17.6061 18.3163 11.3865 16.2897 18.8347 11.1088 11.6188 15.7031 16.3747 10.1618 14.4427 16.9572 9.84655 10.3417 13.9058 14.479 9.00311 12.73 15.1035 8.67216 9.13295 12.2224 12.6976 7.90581 11.093 13.3218 7.56956 7.93039 10.5817 10.865 6.8539 9.53782 11.5734 6.48648 6.71364 8.98753 9.09654 5.82986 7.97504 9.81052 5.43073 5.53516 7.39514 7.33762 4.78181 6.41466 8.08014 4.38683 4.35127 5.80172 5.56556 3.74569 4.85491 6.35556 3.32706 3.1698 4.22077 3.81133 2.72478 3.29064 4.62289 2.2754 1.97398 2.58666 1.97819 1.64576 1.68159 2.87532 1.1829 0.740077 1.07284 0.526857 0.64967 0.517609 1.06597 0.35492 37.0922 45.3435 86.8891 34.2367 77.0239 30.9293 11.9951 58.342 20.52 48.381 74.3494 96.8664 119.745 66.9508 107.146 113.066 69.0191 83.5804 109.471 122.758 74.335 109.315 126.418 71.087 80.0375 105.062 114.741 70.6265 101.438 120.441 66.5769 73.2941 96.3619 104.614 64.147 91.7544 109.521 60.7877 66.4788 87.46 94.9719 57.696 82.6417 98.6553 55.196 60.287 79.2811 86.2662 51.919 74.5679 88.9575 50.1236 54.7795 71.9861 78.5226 46.8859 67.5059 80.5114 45.5903 49.9028 65.5262 71.6097 42.5216 61.3802 73.1555 41.576 45.5683 59.8171 65.4437 38.7393 56.0277 66.6947 38.013 41.7006 54.779 59.9179 35.4424 51.3252 61.0015 34.8473 38.223 50.2675 54.9387 32.5182 47.1339 55.9005 32.0152 35.0972 46.2131 50.4278 29.911 43.3457 51.3346 29.4383 32.2441 42.5516 46.2955 27.5507 39.9309 47.1672 27.1071 29.6169 39.1972 42.4853 25.395 36.7909 43.338 24.9726 27.1941 36.1045 38.9727 23.4092 33.8811 39.8072 22.9924 24.9527 33.2361 35.6971 21.5583 31.1864 36.5254 21.1545 22.8494 30.547 32.6155 19.8387 28.6315 33.4767 19.4143 20.8581 28.018 29.7199 18.2111 26.2329 30.5604 17.7841 18.9995 25.6402 26.9992 16.6592 23.9601 27.8412 16.256 17.2253 23.3637 24.3997 15.2014 21.7839 25.2565 14.7716 15.5288 21.1702 21.8973 13.7692 19.662 22.7673 13.3302 13.8983 19.0563 19.5211 12.3987 17.6375 20.3747 11.9731 12.3172 16.9882 17.1888 11.0527 15.6106 18.0684 10.603 10.7762 14.9589 14.9251 9.73276 13.6653 15.8136 9.28656 9.27753 12.9641 12.7201 8.44414 11.7257 13.6203 7.97064 7.8133 10.988 10.5674 7.13266 9.77392 11.4796 6.67538 6.37563 9.03089 8.45116 5.86998 7.87673 9.37881 5.38221 4.97704 7.09795 6.41232 4.59613 5.98718 7.31569 4.10866 3.62429 5.1861 4.394 3.33407 4.11427 5.31431 2.83814 2.27343 3.25599 2.40992 2.08416 2.1865 3.33793 1.5461 0.915184 1.27008 0.618878 0.768955 0.576286 1.31396 0.400201 63.6263 72.9018 130.385 52.4265 108.06 52.2803 22.1353 95.8986 35.5802 68.8529 107.266 132.161 167.637 89.9864 142.279 159.882 92.3736 116.783 146.294 169.24 98.6161 144.408 174.288 94.171 111.124 139.809 157.772 93.722 134.14 165.767 87.924 101.792 128.071 143.948 85.3066 121.558 151.323 80.1461 92.4885 116.221 130.807 76.9518 109.772 136.93 72.7518 83.9824 105.452 118.859 69.498 99.3172 123.931 66.0703 76.2987 95.8028 108.055 62.9521 90.1235 112.356 60.1095 69.3689 87.2117 98.2757 57.213 81.9903 102.045 54.7675 63.0984 79.5169 89.4069 52.1111 74.7472 92.7626 49.9764 57.3985 72.5829 81.3467 47.5471 68.2352 84.3777 45.6579 52.2181 66.3134 73.9885 43.438 62.3568 76.7697 41.734 47.4834 60.6223 67.2705 39.7119 57.0068 69.8258 38.1768 43.1423 55.434 61.1101 36.313 52.1268 63.4592 34.9239 39.1635 50.6569 55.4337 33.1902 47.5984 57.6302 31.9073 35.4839 46.2434 50.1873 30.2899 43.4334 52.234 29.1379 32.0888 42.1611 45.345 27.6169 39.5494 47.2509 26.5631 28.9372 38.3588 40.8311 25.1247 35.9417 42.6207 24.1444 26.0118 34.7898 36.6502 22.7793 32.5408 38.3244 21.8859 23.3005 31.4583 32.7601 20.5948 29.3473 34.3401 19.7648 20.7559 28.3054 29.0957 18.5249 26.3449 30.5992 17.7518 18.3687 25.3219 25.6992 16.5688 23.4903 27.0832 15.851 16.1612 22.5119 22.4949 14.7135 20.7836 23.8224 14.0451 14.0585 19.7968 19.4774 12.9338 18.1529 20.7379 12.2931 12.0884 17.1994 16.637 11.2235 15.659 17.8315 10.6264 10.2384 14.7204 13.9324 9.58992 13.2528 15.1081 9.01307 8.4537 12.2996 11.3775 8.00834 10.9227 12.4816 7.44264 6.78658 9.97075 8.95347 6.48386 8.68306 10.0164 5.93085 5.1969 7.73329 6.64909 5.01463 6.52021 7.67301 4.48026 3.69767 5.58643 4.46978 3.61093 4.44739 5.45837 3.06436 2.2625 3.49191 2.52846 2.23133 2.44331 3.35459 1.72745 1.02348 1.46943 0.708575 0.912618 0.671843 1.50049 0.46495 103.691 121.877 192.424 84.3669 160.629 85.3182 38.7961 154.2 60.5943 104.396 151.665 190.856 230.221 128.072 198.464 224.256 130.446 157.562 203.242 227.024 135.939 198.416 234.179 130.437 148.331 192.353 210.99 128.556 184.41 221.013 121.372 136.173 176.298 193.123 117.502 167.942 202.664 110.834 124.281 160.485 176.097 106.613 152.365 184.544 100.834 113.205 145.937 160.302 96.6891 138.228 167.781 91.6803 102.979 132.67 145.718 87.7399 125.454 152.423 83.327 93.5463 120.561 132.273 79.6513 113.893 138.346 75.7065 84.8543 109.516 119.909 72.3069 103.356 125.45 68.7415 76.8534 99.3953 108.516 65.6026 93.7474 113.612 62.3818 69.4823 90.1397 98.0594 59.4825 84.9597 102.727 56.559 62.7248 81.6568 88.4307 53.8745 76.9117 92.7545 51.223 56.5059 73.8682 79.5755 48.7311 69.4984 83.5682 46.3082 50.7719 66.7038 71.4267 43.9977 62.6909 75.1084 41.7981 45.5023 60.1062 63.9289 39.6364 56.4118 67.3233 37.6271 40.6374 54.0051 56.9917 35.5985 50.608 60.1462 33.7826 36.1391 48.3686 50.6065 31.8686 45.2241 53.5048 30.2328 32.0065 43.1687 44.7082 28.4291 40.2602 47.3917 26.9345 28.1837 38.3496 39.2845 25.242 35.6557 41.7472 23.8944 24.6715 33.8746 34.2594 22.2792 31.3836 36.546 21.0553 21.4145 29.7152 29.635 19.5182 27.4269 31.7136 18.4328 18.4375 25.8882 25.3861 16.9898 23.7582 27.3171 15.9978 15.6825 22.2926 21.489 14.6137 20.3105 23.2343 13.7166 13.1688 18.9688 17.9059 12.4172 17.1603 19.5077 11.6044 10.8626 15.8851 14.6317 10.3934 14.2182 16.1004 9.64154 8.75348 12.9919 11.6429 8.46752 11.4571 12.9732 7.81106 6.83982 10.3179 8.92657 6.7163 8.90561 10.1183 6.08267 5.09082 7.81279 6.42026 5.06412 6.49813 7.54356 4.4654 3.46251 5.44631 4.14006 3.52325 4.30502 5.13401 2.97188 2.03147 3.30193 2.33987 2.11869 2.41806 2.99452 1.67727 1.00671 1.5572 0.730684 1.01153 0.750075 1.50582 0.506611 168.388 197.895 272.95 134.362 231.253 143.358 66.4123 249.198 102.89 151.912 202.011 263.828 297.476 175.336 264.161 297.596 175.062 198.918 266.199 286.542 177.111 257.623 295.253 170.367 186.371 249.236 266.705 166.177 239.362 277.638 158.139 172.29 229.341 245.652 152.795 219.368 256.649 145.069 158.247 209.936 225.051 139.614 200.143 235.446 132.561 144.705 191.608 205.393 127.22 182.177 215.046 120.825 131.868 174.471 186.845 115.691 165.519 195.77 109.873 119.783 158.488 169.453 105.009 150.11 177.738 99.7018 108.494 143.662 153.305 95.1464 135.885 160.956 90.2905 98.0165 129.957 138.309 86.0529 122.777 145.42 81.5929 88.3178 117.292 124.478 77.6493 110.678 131.036 73.5753 79.3736 105.635 111.713 69.932 99.548 117.78 66.1871 71.1219 94.8894 99.9481 62.7973 89.2911 105.547 59.3896 63.5208 84.9856 89.1231 56.2364 79.8423 94.2853 53.1261 56.5243 75.88 79.1445 50.195 71.1422 83.8982 47.3619 50.0551 67.4762 69.928 44.6346 63.1406 74.3294 42.0457 44.1144 59.7403 61.474 39.4919 55.7279 65.5216 37.1507 38.6545 52.6045 53.6818 34.7573 48.9172 57.405 32.6323 33.6161 46.0349 46.5195 30.3988 42.6507 49.9416 28.4851 28.9957 40.0047 39.9457 26.4081 36.9138 43.0933 24.6694 24.7615 34.4511 33.9503 22.7138 31.5909 36.8256 21.1672 20.9019 29.3746 28.4648 19.3463 26.7787 31.0681 17.9575 17.3784 24.7182 23.5027 16.2469 22.3543 25.8369 15.0401 14.2091 20.5102 19.0182 13.4735 18.3848 21.1343 12.3794 11.3535 16.6929 15.0464 10.948 14.7747 16.905 9.99177 8.83461 13.2462 11.5038 8.66318 11.5549 13.1303 7.83056 6.60705 10.1649 8.4285 6.62417 8.67172 9.83299 5.91623 4.66206 7.41718 5.78208 4.83956 6.12458 6.97389 4.18729 3.02308 4.9562 3.58321 3.213 3.86479 4.5327 2.66154 1.67648 2.8384 1.90951 1.81377 2.09717 2.53743 1.46423 0.828632 1.4469 0.626858 0.942451 0.721775 1.237 0.477712 129.241 335.183 175.146 223.765 320.577 64.1438 122.61 187.663 188.288 212.922 120.021 337.732 170.999 221.888 328.104 175.051 218.992 114.713 324.886 163.982 215.29 315.013 168.594 209.362 108.597 305.729 153.98 203.4 295.028 159.976 195.573 101.436 284.231 142.954 189.185 272.849 149.415 180.853 93.7958 261.987 131.665 174.197 250.385 137.996 166.109 86.0956 239.996 120.528 159.393 228.599 126.523 151.789 78.6061 218.848 109.822 145.212 207.91 115.412 138.132 71.442 198.788 99.678 131.827 188.484 104.847 125.273 64.7134 179.979 90.175 119.302 170.373 94.9359 113.27 58.4177 162.47 81.3154 107.694 153.568 85.7149 102.104 52.5773 146.239 73.1183 96.904 138.036 77.1372 91.7905 47.1742 131.247 65.5452 86.9737 123.689 69.2318 82.2608 42.2021 117.424 58.5709 77.7968 110.484 61.927 73.4846 37.6116 104.682 52.1323 69.3393 98.2965 55.1971 65.4004 33.3778 92.9464 46.2014 61.5515 87.0767 48.9986 57.9447 29.4761 82.1084 40.7342 54.3784 76.7132 43.2882 51.0589 25.8889 72.1462 35.7217 47.7525 67.192 38.014 44.7557 22.5935 63 31.0976 41.672 58.4453 33.1766 38.9483 19.5545 54.5668 26.8428 36.082 50.3884 28.7296 33.6018 16.7658 46.8312 22.9436 30.9448 43.0056 24.634 28.7014 14.2094 39.7438 19.3896 26.2471 36.2751 20.8827 24.2428 11.8933 33.3092 16.1437 21.9596 30.1568 17.4767 20.1677 9.77876 27.448 13.2151 18.0786 24.6023 14.3845 16.4891 7.87239 22.1746 10.5864 14.5796 19.6218 11.5863 13.1955 6.18779 17.4765 8.24286 11.4572 15.235 9.09743 10.2684 4.68033 13.3183 6.17611 8.7122 11.3854 6.89853 7.68762 3.38629 9.72093 4.41543 6.33458 8.09734 4.99694 5.4945 2.28343 6.63343 2.92091 4.32475 5.37383 3.39586 3.65348 1.4108 4.16611 1.77176 2.71801 3.22576 2.12997 2.20807 0.772299 2.25406 0.932135 1.49093 1.72083 1.17923 1.15251 0.414162 1.13459 0.347105 0.737761 0.526281 0.611827 0.33329 89.9587 241.89 199.005 165.152 284.384 164.243 82.7393 107.99 56.1514 51.9385 140.969 78.2685 144.762 193.976 139.639 256.729 213.647 171.771 253.868 136.008 90.9484 213.109 130.244 171.544 139.342 250.239 205.295 165.408 242.914 132.221 88.7211 211.159 124.897 164.603 130.428 235.966 191.341 156.079 227.43 125.444 84.0489 198.032 116.193 154.181 120.02 216.549 174.618 143.434 207.096 114.983 76.8589 182.405 105.081 140.277 108.513 194.633 156.664 129.009 185.075 103.015 68.7524 164.943 93.4974 125.262 96.8292 172.871 139.154 114.577 163.84 91.2351 60.858 147.133 82.6035 110.859 85.7911 152.751 123.08 101.195 144.546 80.4698 53.6762 130.292 72.831 97.8302 75.8205 134.771 108.712 89.2359 127.438 70.9318 47.3129 115.08 64.2166 86.2884 66.9585 118.906 95.9972 78.6863 112.381 62.5472 41.7326 101.556 56.6125 76.1136 59.1138 104.888 84.7418 69.3555 99.0356 55.1376 36.7969 89.605 49.8816 67.1242 52.1277 92.3914 74.6707 61.0624 87.106 48.5317 32.3965 78.9965 43.836 59.0618 45.8636 81.1572 65.5959 53.608 76.364 42.6004 28.4396 69.4653 38.3828 51.793 40.1976 70.9748 57.3898 46.8687 66.6299 37.2388 24.8503 60.8638 33.4312 45.2024 35.0729 61.7636 49.9535 40.7501 57.7935 32.3575 21.5979 53.0805 28.9374 39.2243 30.4072 53.3458 43.1723 35.1926 49.7239 27.9207 18.6247 46.0199 24.8275 33.749 26.1717 45.685 37.0468 30.1089 42.4032 23.8709 15.924 39.5651 21.1045 28.8021 22.3386 38.7272 31.482 25.5059 35.7337 20.1743 13.4572 33.7684 17.7129 24.2731 18.8778 32.427 26.5 21.337 29.7424 16.8488 11.2359 28.5088 14.6588 20.2148 15.7681 26.7441 22.0053 17.5699 24.3269 13.8325 9.22337 23.7989 11.9154 16.5401 12.9884 21.645 18.0544 14.2118 19.5136 11.1427 7.42548 19.5979 9.47408 13.2714 10.5767 17.1413 14.5799 11.2385 15.2754 8.76925 5.82808 15.909 7.3193 10.3849 8.4639 13.1738 11.5742 8.61804 11.5782 6.65545 4.41712 12.6927 5.45637 7.86528 6.66885 9.78259 9.03024 6.39486 8.43708 4.85208 3.21125 9.97334 3.88464 5.72163 5.17357 6.95797 6.92929 4.51985 5.86274 3.34043 2.21323 7.6878 2.58179 3.9742 3.9608 4.6174 5.22468 2.99356 3.81694 2.0944 1.36356 5.84737 1.59524 2.55989 3.04622 2.95974 3.92444 1.93029 2.4461 1.22117 0.780733 4.46007 0.98217 1.60106 2.32969 1.95413 2.93761 1.30463 1.6483 0.740005 0.461908 3.41673 0.700671 1.0547 1.76833 1.59338 2.18389 1.06548 1.3977 0.703374 0.452573 2.61716 0.660165 0.903274 1.25529 1.38553 1.45631 0.906298 1.14305 0.703028 0.464755 1.90326 0.554506 0.774107 0.726446 0.969387 0.804682 0.625204 0.813429 0.52822 0.353909 1.1177 0.344407 0.532585 0.436754 0.524644 0.27097 0.327653 0.216774 0.21105 0.150613 0.64268 0.0702528 0.14883 45.2673 99.4446 103.441 67.9878 136.314 29.3856 23.8463 70.4091 36.0736 91.2245 86.0701 166.092 139.744 110.982 171.447 132.277 116.246 93.0391 172.04 140.65 114.305 169.055 142.014 114.565 89.2094 162.879 131.713 107.952 157.558 135.868 106.79 82.2343 150.178 120.269 99.4802 144.071 125.292 97.6635 74.4208 135.975 108.301 90.057 129.689 113.399 87.9444 66.6154 121.552 96.6895 80.4615 115.52 101.455 78.3708 59.2918 107.905 86.009 71.3762 102.355 90.2213 69.4839 52.6881 95.5437 76.4308 63.1454 90.5397 80.0923 61.4914 46.8273 84.5402 67.9836 55.821 80.0595 71.1083 54.4061 41.6637 74.7938 60.5042 49.3487 70.7703 63.2109 48.1161 37.0937 66.1291 53.8604 43.6025 62.5119 56.2091 42.5013 33.0166 58.3634 47.9065 38.462 55.0892 49.9824 37.4504 29.3552 51.3605 42.5756 33.8291 48.3968 44.3966 32.9013 26.0629 45.0354 37.7464 29.6512 42.3542 39.381 28.7882 23.0973 39.3112 33.3796 25.8755 36.866 34.8643 25.0439 20.4094 34.1239 29.4329 22.44 31.9205 30.7582 21.6739 17.9899 29.4398 25.8728 19.3528 27.4599 27.0605 18.6292 15.8084 25.242 22.6724 16.5896 23.4657 23.7573 15.9056 13.8609 21.4737 19.8136 14.1167 19.9148 20.7871 13.4764 12.1424 18.1659 17.2523 11.9318 16.7732 18.1616 11.3361 10.5781 15.2728 14.9728 10.0347 14.0531 15.8026 9.48015 9.21823 12.7609 12.9364 8.37997 11.7038 13.7094 7.86396 7.99373 10.6129 11.1348 6.9752 9.69981 11.8655 6.49644 6.8955 8.80252 9.51789 5.79977 8.00715 10.2179 5.34116 5.90078 7.26642 8.03291 4.78632 6.56472 8.71968 4.37214 4.95013 5.9935 6.63298 3.9616 5.35727 7.33153 3.55237 4.05818 4.84698 5.32203 3.21114 4.23695 6.00315 2.81345 3.1747 3.76766 3.98888 2.49445 3.14063 4.69404 2.10163 2.2532 2.66857 2.61317 1.75931 2.04084 3.33731 1.36344 1.32736 1.5179 1.26913 0.987457 0.982348 1.98088 0.659124 0.508183 0.670101 0.348537 0.447132 0.357475 0.781333 0.218542 30.4507 54.3175 75.931 38.2382 83.7609 22.6928 12.7481 47.5774 19.8461 55.2652 65.2263 107.84 107.61 72.5656 115.73 99.5401 77.4109 73.5914 119.808 110.513 79.6365 117.989 111.618 79.3459 70.1911 114.681 102.943 75.9366 110.342 106.371 74.4067 63.8525 105.035 93.1827 69.4637 100.307 96.7543 67.7472 57.3441 94.6966 83.6718 62.5488 90.1154 86.8288 60.9484 51.3298 84.7293 74.9792 55.8959 80.4934 77.655 54.4948 45.9949 75.605 67.3232 49.8162 71.8046 69.498 48.6539 41.3667 67.5037 60.6497 44.4375 64.1307 62.4136 43.4682 37.3631 60.385 54.844 39.7174 57.3979 56.2945 38.912 33.9 54.1658 49.7817 35.6077 51.5293 50.9921 34.9184 30.8629 48.7068 45.3024 32.0072 46.3468 46.3684 31.3859 28.1756 43.8587 41.3118 28.8186 41.7366 42.2801 28.2416 25.7664 39.517 37.7247 25.9664 37.6126 38.6127 25.4332 23.6018 35.6416 34.4576 23.4269 33.9054 35.3348 22.8928 21.6138 32.1309 31.4813 21.1309 30.5459 32.3126 20.595 19.7979 28.945 28.7453 19.0433 27.505 29.561 18.5158 18.1242 26.0694 26.2124 17.1512 24.7484 27.0168 16.634 16.5525 23.4435 23.8659 15.4477 22.2293 24.6739 14.9239 15.1031 21.0706 21.6706 13.8846 19.9614 22.4734 13.381 13.7372 18.9244 19.6038 12.4842 17.8821 20.4289 11.957 12.4284 16.9108 17.6621 11.1727 15.9349 18.4748 10.6573 11.2017 15.0908 15.7887 9.96115 14.1587 16.6193 9.44434 9.98227 13.3658 13.978 8.84207 12.483 14.8227 8.32485 8.80966 11.741 12.2211 7.77483 10.906 13.0795 7.26229 7.64331 10.1904 10.5009 6.74934 9.3703 11.3475 6.24726 6.49679 8.65567 8.78459 5.73438 7.81927 9.65532 5.22405 5.33999 7.13113 7.06282 4.7152 6.30502 7.94506 4.221 4.19204 5.59889 5.34304 3.69558 4.76872 6.23878 3.19403 3.03581 4.04153 3.64406 2.65607 3.19127 4.51762 2.1574 1.8803 2.45928 1.86829 1.60187 1.59998 2.80871 1.09789 0.676893 0.921423 0.461309 0.581856 0.463504 1.00251 0.301296 38.9788 48.3658 89.6108 35.2011 78.6088 31.9024 12.9125 59.7721 21.0492 50.4942 76.3443 100.561 122.936 68.1611 109.112 114.618 71.6167 85.7482 113.19 125.725 75.5458 111.093 128.132 73.3775 81.5763 107.719 116.498 71.5128 102.618 121.741 67.9939 73.8312 97.5445 104.979 64.5819 92.2509 110.078 61.2556 66.1685 87.3485 94.2525 57.721 82.5577 98.5376 54.9077 59.4199 78.258 84.8658 51.6433 74.0462 88.388 49.301 53.615 70.3987 76.7461 46.4083 66.7345 79.6668 44.4587 48.6133 63.6706 69.7166 41.9484 60.4669 72.1776 40.3034 44.264 57.8818 63.5635 38.1316 55.066 65.7111 36.7067 40.4695 52.8753 58.146 34.836 50.3893 60.0415 33.5826 37.0819 48.4688 53.2783 31.9467 46.2316 55.0277 30.8088 34.0457 44.5548 48.9017 29.3779 42.5236 50.505 28.331 31.2736 41.0146 44.9019 27.0568 39.1675 46.4045 26.0919 28.7479 37.7974 41.2212 24.9538 36.0975 42.6571 24.0355 26.4017 34.8201 37.8199 22.9934 33.2316 39.1796 22.1401 24.2269 32.0782 34.6412 21.1863 30.6008 35.9588 20.3828 22.2029 29.516 31.6864 19.4991 28.1213 32.9438 18.7276 20.2749 27.0842 28.8683 17.9126 25.7677 30.1234 17.1642 18.4656 24.7867 26.2261 16.3982 23.544 27.4219 15.6771 16.7448 22.5981 23.7144 14.9507 21.3991 24.8796 14.2669 15.0873 20.4806 21.2721 13.556 19.339 22.4279 12.8911 13.4984 18.4468 18.9563 12.2095 17.3379 20.0769 11.5707 11.9706 16.4583 16.6878 10.8912 15.3652 17.8123 10.2568 10.4728 14.5037 14.513 9.59359 13.4422 15.5827 8.98646 9.01367 12.5698 12.3535 8.30365 11.5222 13.4273 7.71861 7.59042 10.6427 10.2445 7.02909 9.62827 11.296 6.44198 6.1894 8.74409 8.19878 5.7767 7.73468 9.23251 5.19828 4.82506 6.85784 6.20003 4.51785 5.86622 7.18332 3.96093 3.49021 4.97881 4.23449 3.26393 4.01114 5.21415 2.72 2.20335 3.12957 2.296 2.04134 2.11441 3.27833 1.45895 0.849766 1.17233 0.567204 0.72738 0.546835 1.25077 0.365771 63.7201 74.3753 130.799 52.9718 109.108 52.1964 22.4242 96.1545 35.8188 70.0405 107.547 133.826 168.718 90.5472 143.43 160.198 93.8154 117.78 148.542 170.978 99.3561 145.643 175.1 95.7452 112.137 141.555 158.983 94.3205 134.932 166.615 88.8425 102.17 128.6 144.105 85.5293 121.701 151.701 80.2054 92.2066 115.665 130.086 76.8165 109.388 136.779 72.1531 83.2596 104.173 117.607 69.1198 98.607 123.417 65.0789 75.3759 94.184 106.569 62.4528 89.2499 111.661 58.9293 68.3755 85.4714 96.7388 56.6444 81.0639 101.269 53.5523 62.1092 77.7824 87.9206 51.5539 73.8371 91.9744 48.7921 56.4751 70.9633 79.9527 47.026 67.3993 83.6409 44.5505 51.3649 64.816 72.7228 42.9594 61.5841 76.0861 40.7231 46.7106 59.264 66.1153 39.2725 56.3036 69.2081 37.2557 42.4361 54.1808 60.0554 35.9073 51.467 62.9017 34.0783 38.5171 49.5247 54.4764 32.8195 47.021 57.1087 31.1479 34.8954 45.2098 49.3118 29.9615 42.8926 51.7703 28.4437 31.553 41.2223 44.542 27.3123 39.0591 46.8167 25.9102 28.4418 37.4944 40.1079 24.8356 35.5048 42.2166 23.5788 25.5621 34.0117 35.9891 22.543 32.1446 37.9699 21.3545 22.8967 30.755 32.1457 20.3625 28.9951 34.02 19.2857 20.3738 27.6696 28.5588 18.3288 26.0388 30.2946 17.3359 18.0301 24.7502 25.1928 16.3894 23.1911 26.8321 15.4672 15.8492 21.9807 22.0379 14.5437 20.5099 23.5891 13.69 13.7905 19.3313 19.0687 12.7909 17.9367 20.5299 11.9735 11.8322 16.7748 16.2609 11.0977 15.4678 17.6379 10.3521 10.0133 14.3472 13.6213 9.4894 13.0734 14.9276 8.75905 8.27385 11.984 11.1086 7.91075 10.7767 12.336 7.23946 6.62404 9.71308 8.71873 6.40866 8.54838 9.89754 5.76091 5.06711 7.52172 6.4753 4.93583 6.40801 7.56523 4.34953 3.59451 5.41731 4.34335 3.54851 4.3625 5.37181 2.97472 2.20795 3.38334 2.43314 2.21043 2.40739 3.31019 1.64318 0.983747 1.3749 0.661412 0.888947 0.640482 1.48206 0.424785 102.372 120.829 190.339 84.0875 160.318 84.5107 38.4671 153.376 60.4277 103.688 150.253 189.868 229.086 127.794 198.388 223.275 130.285 157.479 203.832 227.622 136.143 198.994 234.067 131.192 148.976 193.519 211.901 128.955 185.003 221.534 122.084 136.573 176.847 193.433 117.719 168.121 203.03 110.984 124.215 160.219 175.736 106.564 152.126 184.541 100.463 112.794 145.095 159.498 96.4421 137.711 167.482 90.9772 102.373 131.536 144.713 87.3837 124.826 151.938 82.4836 92.8692 119.335 131.22 79.259 113.231 137.81 74.8403 84.1846 108.295 118.875 71.9087 102.706 124.927 67.9076 76.2219 98.2544 107.568 65.2302 93.1386 113.106 61.6018 68.9143 89.0931 97.1809 59.1421 84.4168 102.281 55.8465 62.2025 80.7067 87.6408 53.5721 76.4002 92.3396 50.5691 56.0262 73.0053 78.8645 48.4517 69.0573 83.189 45.724 50.3436 65.922 70.79 43.7412 62.2806 74.7654 41.2653 45.1152 59.3958 63.3469 39.4062 56.0374 67.0289 37.1548 40.2875 53.3632 56.4767 35.3843 50.2507 59.8619 33.3525 35.8368 47.7865 50.1254 31.6823 44.9131 53.2705 29.8177 31.7174 42.6217 44.2672 28.245 39.9647 47.1586 26.5635 27.9323 37.8636 38.8797 25.0864 35.4121 41.5347 23.5459 24.4177 33.4114 33.892 22.1372 31.1505 36.3575 20.75 21.1903 29.2912 29.2887 19.388 27.1832 31.5503 18.1366 18.23 25.4913 25.0668 16.8551 23.5448 27.1411 15.722 15.499 21.9449 21.1851 14.5062 20.1625 23.097 13.4726 12.9791 18.6393 17.6251 12.3269 17.0102 19.3677 11.3839 10.6931 15.6012 14.403 10.2983 14.0768 15.9652 9.45888 8.61455 12.7482 11.4205 8.41096 11.3594 12.8841 7.63665 6.69994 10.0998 8.72703 6.65349 8.78387 10.0404 5.93558 4.9804 7.61522 6.27953 4.99965 6.42384 7.43682 4.35555 3.39932 5.32278 4.0583 3.48089 4.23047 5.09594 2.8898 1.97882 3.21386 2.26054 2.08886 2.38465 2.98727 1.62704 0.991544 1.51724 0.7076 1.00945 0.747728 1.4894 0.479863 166.893 195.689 269.289 133.571 229.819 142.631 66.071 248.218 102.588 149.682 199.023 260.471 294.317 174.299 262.98 295.384 173.51 197.782 265.342 285.952 176.828 257.607 294.272 170.41 186.545 249.882 267.172 166.408 239.796 277.75 158.654 172.571 229.867 245.934 153.009 219.595 256.921 145.306 158.259 209.915 224.877 139.641 200.069 235.502 132.405 144.462 191.139 204.878 127.089 181.872 214.88 120.397 131.439 173.723 186.129 115.453 165.105 195.444 109.325 119.298 157.653 168.703 104.751 149.657 177.364 99.1071 108.021 142.83 152.578 94.8838 135.443 160.58 89.7106 97.583 129.173 137.66 85.7883 122.356 145.054 81.0664 87.9304 116.592 123.891 77.4237 110.312 130.711 73.0946 79.0292 105.007 111.207 69.7178 99.2102 117.492 65.7681 70.82 94.317 99.4933 62.6142 88.9926 105.308 59.0069 63.2601 84.49 88.7177 56.0778 79.5732 94.0699 52.7814 56.2799 75.4334 78.7823 50.0561 70.9187 83.7055 47.0535 49.8627 67.0775 69.6322 44.4942 62.9032 74.1711 41.7799 43.944 59.3813 61.2044 39.3773 55.55 65.3713 36.8984 38.4878 52.2783 53.4256 34.6644 48.7416 57.302 32.3991 33.4694 45.7402 46.2863 30.3006 42.4917 49.8198 28.28 28.8672 39.7386 39.752 26.3144 36.7535 42.9806 24.4838 24.6606 34.205 33.7482 22.6343 31.4638 36.7065 20.9701 20.7798 29.1364 28.3009 19.2699 26.645 30.9628 17.7969 17.2918 24.5065 23.3276 16.1968 22.268 25.7641 14.8741 14.1131 20.3058 18.8899 13.4078 18.2772 21.0531 12.2477 11.2833 16.5053 14.9152 10.8768 14.6698 16.8369 9.86073 8.75175 13.0856 11.4156 8.62376 11.4761 13.0708 7.72942 6.55268 10.0124 8.33876 6.586 8.59834 9.79485 5.80149 4.63619 7.30981 5.74286 4.79083 6.06752 6.94803 4.11824 3.01958 4.88896 3.55891 3.20311 3.83379 4.54214 2.6137 1.6852 2.78483 1.87388 1.81357 2.09058 2.52022 1.40404 0.812512 1.41301 0.612446 0.942018 0.71278 1.23181 0.461724 129.822 333.868 173.152 223.019 318.576 64.7686 123.046 188.138 188.185 209.784 117.459 331.956 167.829 220.112 325.789 172.938 216.021 113.253 322.269 162.727 214.435 314.242 167.318 208.461 108.224 305.383 153.839 203.282 295.092 159.64 195.642 101.414 284.38 142.991 189.246 272.97 149.413 180.96 93.7443 261.9 131.535 174.199 250.324 137.985 165.966 85.9441 239.604 120.243 159.281 228.38 126.402 151.454 78.3732 218.239 109.448 145.021 207.591 115.21 137.691 71.1939 198.114 99.285 131.605 188.128 104.622 124.814 64.4667 179.329 89.7898 119.093 170.037 94.7178 112.825 58.1991 161.886 80.9906 107.49 153.277 85.5005 101.725 52.3821 145.716 72.8214 96.7411 137.766 76.9721 91.4543 47.02 130.808 65.2921 86.8177 123.456 69.085 81.9675 42.0573 117.036 58.3606 77.672 110.278 61.7976 73.2433 37.4979 104.366 51.945 69.2324 98.1285 55.1019 65.1833 33.2747 92.6473 46.0422 61.4591 86.9106 48.9068 57.7461 29.4027 81.8836 40.6131 54.2954 76.6069 43.202 50.9112 25.8221 71.9451 35.6049 47.6886 67.0858 37.9564 44.6249 22.5305 62.8183 30.9898 41.6306 58.3555 33.1302 38.8216 19.5057 54.4129 26.7599 36.0318 50.3082 28.677 33.491 16.7225 46.6911 22.8693 30.8947 42.9308 24.594 28.6071 14.1712 39.6352 19.3269 26.2056 36.2052 20.8514 24.1607 11.8482 33.1758 16.0834 21.9215 30.0762 17.4441 20.0932 9.75659 27.3576 13.1678 18.0441 24.5505 14.3484 16.4243 7.85556 22.0885 10.5224 14.5478 19.6051 11.5641 13.1244 6.14697 17.3896 8.20021 11.4444 15.1944 9.07516 10.2161 4.66187 13.2473 6.14478 8.69411 11.3545 6.88682 7.66459 3.3799 9.69114 4.39292 6.34561 8.09703 5.00379 5.46649 2.29433 6.64167 2.92719 4.33799 5.36273 3.40791 3.64006 1.42893 4.18601 1.78216 2.72564 3.26533 2.11593 2.20456 0.79062 2.29761 0.966305 1.50473 1.73267 1.18723 1.16536 0.416446 1.12599 0.350625 0.734887 0.521933 0.61561 0.336836 89.3759 242.108 199.012 164.294 283.396 162.589 82.3351 108.202 55.9845 51.4934 141.126 79.2271 145.069 194.86 139.513 256.456 213.368 171.571 253.502 136.371 90.8398 212.245 130.057 171.253 139.285 249.894 204.967 165.359 242.305 132.534 88.537 210.4 124.553 164.235 130.383 235.792 191.205 155.575 226.256 125.086 83.8744 196.956 115.845 154.036 120.089 216.621 174.758 142.527 205.69 114.143 76.7392 181.057 104.829 140.394 108.682 194.876 156.997 128.015 183.764 102.051 68.6792 163.638 93.3341 125.507 97.0257 173.132 139.532 113.698 162.791 90.3777 60.8074 146.073 82.4987 111.115 85.9763 152.97 123.397 100.521 143.799 79.8087 53.6414 129.549 72.7709 98.0352 75.9621 134.948 108.98 88.7649 126.963 70.4628 47.3012 114.61 64.1873 86.4484 67.0544 119.024 96.2026 78.3848 112.101 62.2395 41.7251 101.318 56.5998 76.2367 59.186 104.958 84.8684 69.1855 98.8997 54.9452 36.7932 89.5465 49.8853 67.1962 52.1781 92.4333 74.771 60.9881 87.0626 48.4405 32.3969 79.0196 43.8463 59.105 45.8951 81.1851 65.6759 53.5816 76.383 42.5555 28.4432 69.5491 38.3994 51.8286 40.2276 71.0189 57.4686 46.8786 66.676 37.217 24.8652 60.9904 33.4581 45.2373 35.0911 61.7756 49.9977 40.7829 57.8663 32.3652 21.6078 53.2282 28.9532 39.2382 30.4339 53.3725 43.2407 35.2349 49.8095 27.941 18.6387 46.1742 24.853 33.7773 26.1771 45.6995 37.0731 30.1559 42.4814 23.8862 15.9369 39.7307 21.1222 28.8035 22.3512 38.7243 31.5145 25.5576 35.8226 20.2176 13.4664 33.9186 17.7217 24.2728 18.8863 32.4171 26.5254 21.3857 29.8178 16.8834 11.2372 28.6628 14.676 20.2142 15.7825 26.7432 22.0321 17.6426 24.4231 13.8865 9.23092 23.966 11.918 16.5289 13.0153 21.6398 18.0759 14.2593 19.6049 11.1845 7.42354 19.7374 9.4829 13.2678 10.5753 17.149 14.6027 11.2829 15.3696 8.78856 5.83397 16.0413 7.34791 10.4007 8.4604 13.1902 11.5809 8.68436 11.6803 6.70179 4.43199 12.8399 5.46364 7.86891 6.66755 9.78208 9.05121 6.4379 8.51448 4.88702 3.21302 10.1015 3.87747 5.7299 5.16176 6.91826 6.9306 4.55853 5.94405 3.37284 2.19398 7.8227 2.60016 3.96584 3.96008 4.63507 5.22094 3.08419 3.94152 2.1637 1.38467 5.98994 1.61956 2.57197 3.03217 2.96803 3.93633 1.98876 2.53098 1.27232 0.791845 4.55392 0.993009 1.61496 2.34302 1.97577 2.9684 1.35693 1.74709 0.804829 0.478786 3.50322 0.727857 1.08557 1.78247 1.63885 2.20622 1.10985 1.4523 0.736895 0.466567 2.70017 0.673334 0.932305 1.26508 1.41052 1.45909 0.943563 1.19653 0.733855 0.482881 1.9534 0.574383 0.78997 0.719169 0.988118 0.804105 0.645504 0.849429 0.543291 0.365723 1.13884 0.348529 0.551567 0.426049 0.500381 0.248304 0.355346 0.225113 0.222764 0.139879 0.685114 0.0645287 0.13069 44.5846 98.6076 102.567 68.5526 135.756 29.06 23.7253 70.6103 37.578 90.7431 86.0246 165.966 139.576 110.341 170.399 131.103 116.16 93.0092 172.079 140.676 113.63 167.902 140.718 114.604 89.2556 162.926 131.874 107.109 156.27 134.588 106.877 82.3924 150.331 120.629 98.5523 142.84 124.155 97.8505 74.626 136.201 108.717 89.2172 128.727 112.575 88.181 66.8067 121.77 97.0891 79.8317 114.88 100.961 78.5967 59.4452 108.087 86.3327 70.9756 102.025 90.0495 69.6597 52.7988 95.6661 76.6881 62.9422 90.4492 80.163 61.6265 46.9099 84.6158 68.1525 55.7776 80.1322 71.3566 54.4803 41.7142 74.8397 60.6228 49.4131 70.9548 63.5439 48.1491 37.1079 66.1408 53.9474 43.7174 62.7486 56.5987 42.5306 33.0271 58.3664 47.9681 38.6188 55.3611 50.411 37.465 29.3653 51.361 42.6185 34.0049 48.6894 44.8253 32.9095 26.0662 45.037 37.7669 29.8457 42.6359 39.8047 28.7787 23.0906 39.308 33.4063 26.0553 37.1609 35.2395 25.0517 20.403 34.1015 29.4557 22.6273 32.184 31.1332 21.6604 17.9821 29.432 25.8819 19.5381 27.7242 27.4281 18.6169 15.81 25.2262 22.6801 16.7527 23.7173 24.0762 15.8882 13.8553 21.4658 19.8145 14.2783 20.1598 21.0796 13.4636 12.1284 18.1577 17.2512 12.0905 17.0124 18.4217 11.3215 10.5801 15.2373 14.9618 10.1693 14.2505 16.0515 9.44928 9.19615 12.7255 12.9295 8.51957 11.8903 13.938 7.84197 7.98201 10.5869 11.1217 7.10673 9.86989 12.0699 6.47454 6.884 8.78075 9.49639 5.91575 8.16667 10.3886 5.32908 5.88664 7.26326 8.00994 4.91419 6.71277 8.87761 4.3551 4.95117 5.97413 6.63426 4.04484 5.46088 7.46927 3.53835 4.05661 4.83947 5.30806 3.29041 4.34264 6.10106 2.81069 3.16304 3.774 3.96878 2.55686 3.21246 4.7772 2.08201 2.22775 2.64474 2.61424 1.79534 2.08396 3.39527 1.36085 1.32831 1.50054 1.26549 1.01198 1.00561 2.02466 0.641104 0.513038 0.662712 0.353739 0.472342 0.369099 0.816088 0.217187 30.1449 53.856 75.5088 38.018 82.5384 22.3302 12.6461 46.4604 20.0921 54.9803 65.2954 107.886 107.719 71.5693 114.161 97.8967 77.4679 73.747 119.943 110.82 78.6102 116.622 110.09 79.4726 70.3828 114.854 103.338 75.0694 109.323 105.306 74.5798 64.0453 105.249 93.5882 68.8281 99.7157 96.2186 67.961 57.4969 94.8813 84.0222 62.1852 89.9104 86.7682 61.1379 51.4441 84.8738 75.2594 55.7928 80.6271 77.9509 54.6468 46.0672 75.6913 67.5042 49.9271 72.1634 70.0378 48.7465 41.3969 67.549 60.7637 44.6996 64.6426 63.0899 43.5186 37.3784 60.408 54.8976 40.0792 58.0102 57.0453 38.9251 33.8749 54.15 49.7874 36.0122 52.1566 51.7498 34.9115 30.8349 48.6698 45.2889 32.4286 46.9696 47.1121 31.3626 28.1488 43.8243 41.2825 29.2422 42.3384 42.9864 28.204 25.7327 39.4865 37.6806 26.376 38.1859 39.2766 25.394 23.5685 35.6037 34.4285 23.8123 34.4316 35.9366 22.8481 21.5807 32.0903 31.4414 21.4749 31.0351 32.8622 20.5587 19.7649 28.9118 28.7 19.3762 27.9577 30.0651 18.4884 18.0859 26.0334 26.1617 17.4654 25.1672 27.4741 16.5977 16.5411 23.4342 23.827 15.7294 22.6175 25.094 14.8949 15.0709 21.043 21.6328 14.1427 20.3004 22.8501 13.3445 13.7228 18.8956 19.5874 12.7069 18.1847 20.7646 11.9387 12.4231 16.9148 17.6279 11.3893 16.2267 18.7863 10.6288 11.1657 15.0504 15.7482 10.1498 14.426 16.8781 9.42837 9.96319 13.365 13.9516 9.01271 12.7145 15.0529 8.31137 8.78878 11.7355 12.2146 7.91719 11.069 13.2816 7.25215 7.63079 10.1816 10.4736 6.85732 9.50652 11.532 6.23338 6.49106 8.66087 8.76306 5.82929 7.96556 9.81033 5.21425 5.32902 7.1284 7.04924 4.80352 6.41852 8.06066 4.21271 4.1852 5.59197 5.34726 3.75888 4.85351 6.33436 3.18786 3.03647 4.01892 3.62922 2.70938 3.25917 4.60262 2.14883 1.88186 2.46364 1.85186 1.64635 1.67438 2.85587 1.09587 0.664765 0.932348 0.459065 0.622138 0.482226 1.04898 0.313488 39.1424 48.4179 89.8581 34.2639 77.1931 31.8432 12.8626 58.7861 20.1617 50.5647 76.536 100.706 123.253 67.0856 107.594 113.55 71.7941 85.9676 113.409 126.142 74.5345 109.944 127.028 73.6226 81.7874 107.972 116.89 70.8662 102.096 121.073 68.2293 73.9723 97.7352 105.259 64.3566 92.2802 109.952 61.4214 66.2261 87.4585 94.3988 57.8546 83.0026 98.867 55.0028 59.4267 78.3154 84.9037 52.0231 74.7526 89.0107 49.3368 53.5742 70.4051 76.7242 46.9393 67.5575 80.437 44.4469 48.5636 63.6316 69.6441 42.5334 61.325 73.0079 40.2463 44.2105 57.8348 63.4576 38.7425 55.9299 66.5205 36.6373 40.3926 52.8044 58.0272 35.4283 51.1888 60.8068 33.5033 37.0273 48.4078 53.1817 32.5051 46.9786 55.7403 30.7247 33.9842 44.4898 48.7884 29.8882 43.2072 51.155 28.2523 31.2185 40.9489 44.8013 27.5313 39.779 46.9925 26.0117 28.6973 37.75 41.1439 25.3751 36.6621 43.1898 23.9847 26.3635 34.7824 37.7338 23.3918 33.7606 39.6831 22.074 24.183 32.0251 34.5686 21.553 31.064 36.4101 20.3205 22.148 29.4512 31.6012 19.8128 28.5232 33.3408 18.6631 20.2571 27.0486 28.8319 18.1906 26.1463 30.484 17.1184 18.4358 24.7426 26.1749 16.6538 23.8641 27.7608 15.634 16.72 22.5708 23.6532 15.1829 21.7301 25.1703 14.2283 15.0669 20.471 21.2422 13.7756 19.6178 22.7068 12.8632 13.4873 18.425 18.926 12.3934 17.5799 20.3279 11.538 11.9561 16.4329 16.6666 11.0459 15.5725 18.0221 10.2306 10.459 14.4785 14.4816 9.72484 13.6205 15.7705 8.96406 9.00375 12.5386 12.3299 8.43343 11.6669 13.603 7.68139 7.5674 10.6228 10.2251 7.14271 9.76056 11.4435 6.43112 6.19355 8.73289 8.18172 5.85805 7.83201 9.36499 5.17459 4.80696 6.84093 6.17145 4.57825 5.95874 7.28586 3.94795 3.48389 4.97945 4.21492 3.33986 4.08723 5.30205 2.71812 2.19049 3.13765 2.2808 2.07509 2.1644 3.3413 1.45585 0.825666 1.15108 0.551994 0.75562 0.56043 1.28096 0.367277 63.8607 74.4825 131.095 52.5563 108.649 52.2936 22.4073 96.1935 35.6441 70.1925 107.717 133.958 168.915 90.1236 142.729 160.206 93.9305 117.921 148.71 171.235 98.7919 144.971 174.643 95.9371 112.275 141.766 159.24 93.9406 134.656 166.197 89.0332 102.264 128.762 144.289 85.4659 121.868 151.609 80.331 92.2422 115.734 130.136 77.0513 109.859 137.045 72.1796 83.2468 104.176 117.572 69.539 99.2577 123.897 65.0444 75.3271 94.1355 106.486 62.9509 89.9626 112.238 58.8605 68.3232 85.403 96.6251 57.1877 81.7919 101.88 53.4602 62.0516 77.7286 87.7991 52.0787 74.526 92.5916 48.697 56.4148 70.8774 79.8383 47.5114 68.0233 84.2023 44.4547 51.3041 64.7528 72.6059 43.4025 62.1606 76.5956 40.6454 46.6533 59.2021 66.0095 39.6805 56.8268 69.6648 37.1709 42.3839 54.121 59.9601 36.2718 51.9283 63.3227 34.001 38.4787 49.4661 54.3801 33.1462 47.4484 57.487 31.0798 34.8565 45.1661 49.2346 30.2706 43.2926 52.111 28.3749 31.5097 41.1742 44.4643 27.5911 39.4339 47.1421 25.8701 28.4066 37.4489 40.0435 25.0941 35.8118 42.5338 23.5158 25.5388 33.994 35.9329 22.773 32.4708 38.2513 21.3327 22.8661 30.7233 32.099 20.5892 29.2716 34.2777 19.2466 20.3552 27.6444 28.5183 18.5144 26.2749 30.5376 17.2993 18.0235 24.7248 25.1523 16.5596 23.4152 27.0555 15.4255 15.8262 21.9519 22.0055 14.7105 20.7259 23.7775 13.6694 13.7741 19.324 19.047 12.9359 18.1199 20.7092 11.969 11.8325 16.7789 16.2521 11.2236 15.6256 17.8065 10.3345 10.007 14.3426 13.596 9.58938 13.2234 15.0773 8.75513 8.25793 11.9661 11.0837 8.01232 10.8792 12.4719 7.2132 6.62561 9.7081 8.7103 6.49546 8.65669 10.0059 5.75034 5.04775 7.49154 6.43871 5.01114 6.48866 7.65065 4.31521 3.57316 5.40187 4.32887 3.60351 4.42088 5.43732 2.95951 2.20024 3.37479 2.4366 2.24442 2.45432 3.36418 1.65028 0.990189 1.3798 0.661326 0.923388 0.653357 1.52986 0.421889 102.468 120.861 190.558 84.3083 160.897 84.6791 38.5034 154.221 60.812 103.742 150.372 189.924 229.109 128.126 198.56 224.29 130.255 157.504 203.883 227.686 136.058 198.73 234.218 131.275 149.066 193.665 212.075 128.741 184.792 221.311 122.215 136.652 176.969 193.566 117.645 168.172 202.909 111.078 124.247 160.282 175.775 106.699 152.405 184.658 100.48 112.783 145.092 159.479 96.7033 138.145 167.748 90.9477 102.333 131.485 144.639 87.7241 125.308 152.321 82.425 92.8214 119.285 131.131 79.6241 113.718 138.213 74.7699 84.1433 108.23 118.786 72.264 103.167 125.311 67.8287 76.176 98.1966 107.466 65.5606 93.5706 113.467 61.5285 68.8732 89.0333 97.1015 59.4451 84.7938 102.615 55.7741 62.1739 80.6539 87.565 53.8408 76.75 92.6394 50.5009 55.9921 72.9483 78.8043 48.6928 69.3498 83.4475 45.6653 50.3109 65.8829 70.7186 43.966 62.5628 75.0017 41.2085 45.0882 59.3497 63.2962 39.5956 56.2958 67.2197 37.1037 40.2605 53.3238 56.4016 35.583 50.4862 60.0743 33.2894 35.8023 47.7362 50.071 31.8449 45.1324 53.4195 29.781 31.6863 42.5916 44.2131 28.4225 40.1795 47.322 26.5173 27.9007 37.8258 38.8386 25.2229 35.5926 41.685 23.5233 24.4209 33.3998 33.8754 22.2689 31.3271 36.4891 20.7206 21.1754 29.2784 29.2504 19.5268 27.3739 31.6937 18.1068 18.2015 25.4587 25.0248 16.976 23.692 27.2739 15.6978 15.4773 21.924 21.1684 14.6044 20.2954 23.1951 13.4643 12.9809 18.6434 17.6253 12.4238 17.1275 19.4841 11.3776 10.7003 15.5981 14.3779 10.3912 14.1926 16.0825 9.42527 8.6108 12.7335 11.4236 8.48045 11.4393 12.9562 7.62151 6.70779 10.1034 8.72699 6.72123 8.89871 10.1123 5.93147 4.96593 7.60784 6.25144 5.05849 6.4768 7.5145 4.34955 3.37974 5.30753 4.03196 3.51935 4.28513 5.11404 2.88 1.98148 3.20918 2.2663 2.13317 2.42243 3.02862 1.62545 1.00196 1.53592 0.714714 1.02765 0.753977 1.53678 0.486476 166.999 195.704 269.597 134.115 231.297 142.713 66.1366 249.294 102.944 149.661 199.086 260.447 294.24 175.325 264.004 297.343 173.36 197.735 265.275 285.879 177.222 257.775 295.097 170.37 186.589 249.976 267.28 166.382 239.693 277.862 158.744 172.652 229.981 246.066 152.942 219.583 256.888 145.385 158.307 209.966 224.956 139.69 200.209 235.577 132.432 144.476 191.142 204.884 127.23 182.135 215.052 120.385 131.421 173.693 186.085 115.681 165.424 195.709 109.277 119.268 157.612 168.654 104.988 149.98 177.646 99.0545 107.992 142.789 152.52 95.1135 135.756 160.849 89.6643 97.5439 129.121 137.588 86.0056 122.62 145.314 81.0058 87.8915 116.543 123.82 77.6112 110.554 130.927 73.0518 78.9984 104.968 111.139 69.8892 99.439 117.678 65.721 70.7942 94.2903 99.4493 62.77 89.1942 105.471 58.9771 63.241 84.4569 88.6695 56.2097 79.7336 94.2229 52.7483 56.2605 75.4066 78.7475 50.1646 71.0675 83.8297 47.0416 49.8465 67.0592 69.5842 44.6142 63.0421 74.2972 41.7346 43.9217 59.3493 61.1618 39.4651 55.6628 65.4775 36.8787 38.489 52.2571 53.4165 34.7369 48.8457 57.3717 32.384 33.4614 45.7207 46.2605 30.392 42.5997 49.915 28.2514 28.8582 39.7249 39.7392 26.3828 36.8533 43.0529 24.4759 24.6367 34.1907 33.7289 22.7088 31.5572 36.767 20.9601 20.7777 29.1243 28.2756 19.3345 26.7393 31.0239 17.777 17.2774 24.5054 23.3373 16.2543 22.3362 25.8277 14.8826 14.123 20.3043 18.8851 13.4633 18.3369 21.1244 12.2398 11.2809 16.5039 14.9049 10.9385 14.7558 16.8843 9.84826 8.74424 13.0881 11.3907 8.6687 11.536 13.124 7.73231 6.53923 10.0243 8.34032 6.63245 8.64525 9.83745 5.81618 4.64572 7.31069 5.74143 4.82653 6.09357 6.97458 4.11166 3.03268 4.88994 3.5643 3.1989 3.82803 4.54062 2.61073 1.66986 2.79108 1.87107 1.82897 2.09933 2.51917 1.42144 0.820908 1.42768 0.622094 0.9583 0.729414 1.23597 0.463871 129.908 333.899 173.06 223.274 321.013 64.816 123.028 188.061 187.526 209.902 117.241 331.92 167.282 221.909 327.781 173.93 215.771 112.964 322.091 162.377 215.414 315.012 167.825 208.323 108.138 305.384 153.775 203.56 295.273 159.824 195.669 101.422 284.457 143.009 189.303 273.063 149.483 181.013 93.7539 261.954 131.541 174.269 250.515 138.03 166.012 85.9343 239.626 120.212 159.421 228.615 126.483 151.456 78.3457 218.217 109.389 145.193 207.854 115.298 137.674 71.1643 198.086 99.2037 131.795 188.392 104.722 124.774 64.4222 179.293 89.7153 119.282 170.285 94.8001 112.793 58.1602 161.841 80.9105 107.657 153.482 85.5795 101.679 52.3549 145.679 72.7586 96.8805 137.941 77.0284 91.4037 46.9816 130.753 65.2279 86.9328 123.595 69.1276 81.9288 42.0282 117.002 58.2986 77.7639 110.4 61.8309 73.1998 37.4637 104.32 51.903 69.3224 98.2439 55.1235 65.1547 33.2618 92.6327 46.0102 61.5311 86.9956 48.9424 57.731 29.3796 81.856 40.5821 54.3554 76.6717 43.2278 50.8928 25.8127 71.9335 35.5717 47.7508 67.1612 37.9778 44.5914 22.5115 62.805 30.9803 41.6628 58.4176 33.1316 38.8255 19.4928 54.4008 26.7381 36.0761 50.3607 28.6996 33.4865 16.7166 46.6916 22.8516 30.9392 43.0028 24.6091 28.6076 14.1698 39.629 19.3043 26.2433 36.2455 20.874 24.1377 11.846 33.1834 16.0795 21.9574 30.1127 17.4562 20.0841 9.74082 27.3435 13.145 18.0697 24.5974 14.3549 16.4138 7.84178 22.0878 10.5279 14.5872 19.6401 11.5711 13.1389 6.16382 17.4127 8.19342 11.4662 15.2195 9.10024 10.2162 4.66227 13.2535 6.13499 8.71983 11.3699 6.89555 7.63585 3.36554 9.66319 4.39469 6.34636 8.09139 4.99266 5.47393 2.30173 6.66587 2.94023 4.34494 5.37006 3.40842 3.65253 1.42544 4.1977 1.79018 2.71902 3.24484 2.12417 2.22783 0.804283 2.30396 0.972979 1.48156 1.70947 1.18509 1.16177 0.425488 1.1357 0.362175 0.730851 0.520611 0.614335 0.340783 91.0985 241.069 198.015 163.062 279.566 158.603 81.5888 106.534 58.1022 52.5762 145.722 83.4041 144.439 193.003 138.572 256.548 211.819 171.848 253.173 137.789 91.4303 210.483 130.27 171.365 138.217 249.877 203.081 164.678 239.924 132.47 88.7415 207.204 123.82 163.867 128.801 234.125 188.617 152.962 221.674 122.988 83.2322 192.272 114.245 152.656 118.097 213.713 171.926 138.926 200.419 111.137 75.587 175.804 102.923 138.468 106.733 191.692 154.496 124.441 179.022 99.0754 67.4418 158.856 91.5907 123.61 95.428 170.348 137.639 110.759 159.114 87.9407 59.7451 142.373 81.1245 109.559 84.8365 150.848 122.164 98.3664 141.247 78.0174 52.8367 127.029 71.8067 96.9127 75.2558 133.489 108.278 87.3522 125.354 69.2691 46.75 113.13 63.5592 85.7012 66.6879 118.111 95.8951 77.5331 111.175 61.501 41.3742 100.601 56.2245 75.7782 59.0527 104.432 84.8563 68.709 98.4206 54.5134 36.582 89.3066 49.6732 66.9418 52.2032 92.183 74.9297 60.7587 86.9008 48.2064 32.2903 79.1136 43.7622 59.0059 46.009 81.0934 65.9183 53.5331 76.3931 42.4635 28.3958 69.8594 38.3714 51.8044 40.3909 71.0166 57.7529 46.9133 66.7922 37.1989 24.8452 61.3943 33.4697 45.2528 35.2806 61.8358 50.3312 40.8713 58.033 32.3878 21.61 53.6794 28.9929 39.2955 30.6475 53.4818 43.5798 35.3543 50.0343 27.9851 18.6619 46.6548 24.9162 33.8591 26.3968 45.8179 37.4124 30.3128 42.7224 23.9742 15.9583 40.2355 21.1857 28.8783 22.5583 38.8762 31.8617 25.7215 36.0917 20.3091 13.5119 34.4056 17.8021 24.3754 19.1006 32.5688 26.8553 21.5444 30.0798 16.9748 11.2806 29.1506 14.748 20.3017 15.9951 26.8929 22.3849 17.7942 24.6821 13.9723 9.27073 24.4245 12.0168 16.6538 13.2179 21.8199 18.3933 14.4457 19.8863 11.2932 7.48048 20.2249 9.57411 13.3826 10.7778 17.3002 14.9064 11.4711 15.6457 8.90755 5.87861 16.5228 7.42298 10.4975 8.66401 13.3579 11.8799 8.86598 11.9456 6.80552 4.4785 13.3088 5.5595 7.98779 6.85843 9.96138 9.30212 6.62507 8.80692 5.0053 3.26914 10.5433 3.97641 5.83162 5.33054 7.09925 7.18074 4.75153 6.23111 3.49603 2.26057 8.21909 2.70121 4.08115 4.13022 4.83597 5.47834 3.26247 4.19853 2.28525 1.44964 6.34104 1.70812 2.70283 3.17893 3.13869 4.13911 2.14577 2.74111 1.37547 0.845708 4.87516 1.06912 1.7234 2.45819 2.13961 3.1231 1.47823 1.91597 0.886281 0.532752 3.76462 0.788445 1.18795 1.8758 1.73975 2.3203 1.18445 1.53946 0.765643 0.495853 2.89054 0.715014 0.993709 1.33172 1.49094 1.55287 0.988873 1.25367 0.747259 0.497329 2.07653 0.595231 0.837737 0.760495 1.02682 0.850062 0.676704 0.863988 0.552052 0.368933 1.23911 0.35821 0.56034 0.461578 0.538583 0.28905 0.375486 0.242649 0.260998 0.148995 0.724145 0.0621799 0.147414 45.9376 101.595 101.736 71.923 136.259 30.1693 25.6619 74.482 42.4851 90.6812 84.5736 164.59 136.999 109.105 167.277 127.934 114.89 91.2401 169.958 138.052 110.939 163.319 136.114 113.044 87.4297 160.162 129.472 103.657 151.265 129.755 105.093 80.7421 147.32 118.644 95.1226 138.348 120.035 96.0661 73.3678 133.52 107.39 86.399 125.328 109.621 86.7065 66.0362 119.771 96.4395 77.8791 112.714 99.3244 77.5493 59.1457 106.804 86.2529 69.8391 100.913 89.5211 69.0381 52.8548 95.0236 77.0503 62.4603 90.144 80.4509 61.3519 47.2215 84.4395 68.7915 55.7561 80.3631 72.1899 54.4565 42.1739 74.9769 61.4173 49.6755 71.5163 64.7042 48.3008 37.6586 66.4745 54.8056 44.166 63.5018 57.9202 42.7619 33.6066 58.8076 48.8653 39.1588 56.2098 51.7686 37.7537 29.9529 51.8468 43.4794 34.5743 49.5546 46.1916 33.2197 26.6409 45.5545 38.6153 30.4254 43.5108 41.1214 29.102 23.6359 39.8247 34.2064 26.6365 38.0292 36.5077 25.3736 20.9236 34.6194 30.1934 23.1948 33.0356 32.3403 21.9817 18.4671 29.9293 26.6001 20.089 28.5522 28.5549 18.9379 16.2646 25.7172 23.3362 17.3077 24.5078 25.1687 16.1961 14.2844 21.9498 20.4206 14.7963 20.9098 22.0924 13.7629 12.5144 18.6041 17.8037 12.5792 17.7125 19.353 11.5974 10.9388 15.6685 15.4645 10.6452 14.9352 16.908 9.70339 9.52232 13.1322 13.3849 8.96507 12.5167 14.7198 8.08315 8.27459 10.9609 11.5291 7.50506 10.4264 12.7673 6.69516 7.13894 9.10963 9.8336 6.26722 8.65815 11.0104 5.52507 6.0973 7.55825 8.31356 5.21764 7.14188 9.39529 4.54008 5.14432 6.2277 6.88211 4.3189 5.81797 7.91485 3.68675 4.19505 5.05001 5.51489 3.50609 4.60255 6.47254 2.9235 3.28923 3.92296 4.12963 2.70849 3.428 5.05571 2.17333 2.33594 2.76633 2.72296 1.91582 2.22845 3.62313 1.41511 1.38497 1.57717 1.34275 1.09616 1.11622 2.16677 0.678743 0.569402 0.736525 0.393989 0.520496 0.406606 0.924192 0.246446 29.2273 54.2337 72.8857 38.2569 79.9335 21.3288 13.1909 44.3166 21.2809 53.962 62.9939 105.051 104.452 68.5613 109.152 92.4332 75.4685 71.5418 116.765 108.212 75.0553 111.817 104.748 77.5988 68.7999 112.044 101.748 71.969 105.637 101.506 73.0643 63.2067 103.143 93.0042 66.6759 97.475 94.3093 66.9173 57.3325 93.6409 84.2558 61.07 89.0827 86.5223 60.6097 51.8012 84.4444 76.1086 55.6039 80.9259 78.9409 54.5779 46.7903 75.9558 68.7451 50.4325 73.289 71.8557 49.0315 42.3315 68.2595 62.2086 45.6416 66.264 65.3613 44.0474 38.404 61.4154 56.429 41.2935 59.8985 59.5152 39.6077 34.9421 55.3202 51.3072 37.3484 54.1403 54.2532 35.6487 31.8715 49.8906 46.7611 33.7846 48.9339 49.5202 32.1222 29.1326 45.0323 42.6636 30.553 44.2374 45.2553 28.9556 26.6521 40.6552 38.9629 27.645 39.9836 41.3965 26.0982 24.411 36.6978 35.6026 24.9859 36.1179 37.866 23.5219 22.3519 33.1159 32.5151 22.5858 32.6082 34.6505 21.1853 20.4781 29.8761 29.6835 20.4052 29.4094 31.7088 19.0575 18.7217 26.9078 27.0642 18.4041 26.4984 28.9687 17.1443 17.1264 24.2413 24.6368 16.6077 23.8374 26.4578 15.3815 15.6049 21.7859 22.3632 14.9372 21.4112 24.076 13.79 14.186 19.5546 20.2334 13.4293 19.1814 21.8729 12.3291 12.8439 17.5123 18.2131 12.0402 17.1312 19.7723 10.9957 11.5519 15.6027 16.2879 10.735 15.2132 17.7583 9.76132 10.3064 13.8485 14.4263 9.52327 13.4111 15.8471 8.59976 9.10352 12.1577 12.5963 8.36469 11.6702 13.9768 7.47756 7.88298 10.5093 10.8116 7.22288 10.003 12.0976 6.42308 6.69525 8.95229 9.04419 6.14423 8.38078 10.288 5.38992 5.50843 7.35846 7.28938 5.05175 6.73686 8.46408 4.34425 4.33446 5.79832 5.53227 3.97403 5.13164 6.65533 3.30518 3.15404 4.19397 3.76451 2.8753 3.45779 4.87166 2.23629 1.95189 2.55806 1.95764 1.75308 1.78621 3.0394 1.16083 0.732445 1.038 0.49749 0.706126 0.542802 1.17355 0.336359 37.7219 45.5285 87.7037 31.0661 72.2065 30.8416 11.8134 55.2072 17.4499 48.6088 74.9617 97.3239 120.806 63.371 102.205 109.436 69.6123 84.3085 110.245 124.153 71.1435 105.914 122.957 71.9084 80.7021 105.873 115.985 68.7813 100.204 118.624 67.3214 73.6954 96.9498 105.42 63.7671 92.3329 109.546 61.2805 66.6329 87.7795 95.3485 58.4296 84.431 100.026 55.4463 60.2595 79.3899 86.3142 53.3584 77.0083 91.1375 50.1595 54.6486 71.9354 78.3488 48.6942 70.243 83.051 45.4781 49.7124 65.3783 71.3149 44.4762 64.1513 75.7803 41.3663 45.3562 59.6317 65.0945 40.6925 58.6991 69.2452 37.7637 41.4857 54.5636 59.5649 37.2993 53.8298 63.3822 34.583 38.0406 50.0642 54.6043 34.2575 49.4404 58.1223 31.749 34.909 46.0252 50.0855 31.5134 45.4791 53.3555 29.1933 32.0712 42.3645 45.9894 29.0164 41.8686 48.9981 26.8762 29.4594 39.0219 42.2078 26.7276 38.5452 45.0131 24.7579 27.0522 35.9339 38.7148 24.6158 35.4655 41.3283 22.7857 24.834 33.0925 35.4768 22.6657 32.6239 37.9102 20.9693 22.7339 30.4107 32.4125 20.8289 29.9443 34.7232 19.2488 20.7703 27.9119 29.5477 19.1135 27.4351 31.7173 17.6433 18.9088 25.529 26.833 17.4801 25.0254 28.8755 16.1078 17.1389 23.2515 24.2633 15.9215 22.7333 26.1906 14.6575 15.4761 21.1088 21.7861 14.4343 20.5286 23.6395 13.2374 13.8303 18.9829 19.4026 12.9782 18.4036 21.1382 11.8751 12.2601 16.9189 17.0957 11.5757 16.2919 18.7562 10.5298 10.7379 14.9264 14.8413 10.2005 14.2541 16.4319 9.20982 9.253 12.9191 12.6718 8.81894 12.2018 14.1409 7.91098 7.78501 10.9583 10.5156 7.47029 10.2083 11.9168 6.6252 6.35772 8.98733 8.41212 6.13763 8.20535 9.74859 5.32618 4.95934 7.05572 6.34969 4.80595 6.25675 7.62674 4.05975 3.60161 5.15046 4.35964 3.50989 4.29102 5.55922 2.80487 2.27178 3.23551 2.37439 2.19415 2.31303 3.50349 1.52251 0.879889 1.25255 0.588952 0.840182 0.606775 1.40765 0.389877 64.1056 73.2669 131.128 51.4408 106.593 52.8156 22.1309 96.8289 35.7223 69.2646 107.671 132.484 168.116 88.4858 139.804 159.591 92.753 117.183 146.872 170.075 96.7683 142.379 172.551 94.8396 111.562 140.492 158.601 92.6752 133.604 164.534 88.5212 102.052 128.506 144.418 85.3773 122.404 151.32 80.4564 92.5524 116.399 130.904 77.8952 111.506 137.974 72.7949 83.8993 105.408 118.703 70.937 101.485 125.581 65.9383 76.1473 95.6574 107.75 64.6111 92.418 114.275 59.8638 69.1896 87.0056 97.9086 58.8918 84.2508 103.995 54.4808 62.9097 79.282 89.026 53.7307 76.8651 94.6383 49.6747 57.2232 72.3541 80.9808 49.0512 70.1863 86.1178 45.3655 52.0423 66.11 73.6456 44.8225 64.1536 78.3555 41.4811 47.3157 60.4271 66.9443 40.9819 58.6342 71.2718 37.9268 43.001 55.2439 60.8083 37.456 53.5994 64.7817 34.6894 39.0122 50.4837 55.1544 34.2323 48.9602 58.8136 31.7095 35.3665 46.0935 49.9409 31.2465 44.663 53.3288 28.9454 31.9682 42.0224 45.1237 28.4909 40.6952 48.2388 26.3921 28.8448 38.2339 40.6476 25.9254 36.9879 43.554 23.9924 25.9308 34.6943 36.4933 23.5257 33.4921 39.2068 21.7638 23.2373 31.3657 32.618 21.2503 30.2235 35.1224 19.6407 20.6898 28.2178 28.9814 19.1378 27.1378 31.3296 17.6488 18.3288 25.2622 25.5786 17.1318 24.222 27.7714 15.7536 16.1023 22.4334 22.405 15.2106 21.4321 24.4336 13.9609 14.0214 19.7418 19.4004 13.3916 18.7438 21.3217 12.2249 12.0601 17.1576 16.5614 11.6349 16.1797 18.3516 10.558 10.2049 14.6756 13.8718 9.94716 13.7231 15.563 8.96139 8.4426 12.2775 11.3217 8.32601 11.3027 12.9031 7.38823 6.76843 9.95355 8.91102 6.73853 8.99932 10.3429 5.89091 5.17863 7.70885 6.61432 5.2339 6.78854 7.94652 4.44306 3.68525 5.56529 4.45927 3.77576 4.63681 5.67369 3.0432 2.2718 3.49706 2.52562 2.35252 2.5867 3.51604 1.72261 1.04614 1.46081 0.710764 0.985538 0.684761 1.62117 0.444823 103.964 121.883 192.629 85.8879 162.7 86.1534 38.9997 158.213 63.0815 104.308 151.761 190.777 229.966 128.941 198.422 226.932 130.265 157.639 203.428 227.326 135.313 197.304 233.853 130.759 148.642 192.862 211.571 127.833 183.85 220.132 121.821 136.396 176.674 193.496 117.411 168.305 202.403 111.084 124.345 160.63 176.2 107.158 153.43 185.026 100.865 113.164 145.9 160.184 97.6328 139.662 168.783 91.5597 102.871 132.535 145.497 88.8648 127.008 153.661 83.121 93.4095 120.387 131.995 80.8095 115.423 139.654 75.4769 84.7087 109.325 119.607 73.4133 104.808 126.705 68.5123 76.7041 99.2068 108.224 66.6355 95.0793 114.773 62.156 69.3649 89.9605 97.7904 60.4246 86.1646 103.801 56.3485 62.6073 81.495 88.1884 54.7273 77.9905 93.6958 51.0206 56.3891 73.718 79.3407 49.5019 70.4876 84.4212 46.1312 50.6608 66.5549 71.217 44.6931 63.5773 75.8682 41.6276 45.3989 59.9789 63.7287 40.2702 57.2274 68.015 37.4917 40.5617 53.9066 56.8431 36.1796 51.3479 60.7702 33.6571 36.0685 48.2775 50.4417 32.4224 45.9328 54.1031 30.1104 31.9346 43.0911 44.5937 28.9355 40.9257 47.9209 26.8399 28.1407 38.2896 39.1613 25.7117 36.2855 42.2677 23.811 24.6155 33.8231 34.1571 22.7224 31.9655 37.0125 20.9839 21.37 29.6777 29.5506 19.9393 27.9594 32.1832 18.3679 18.4014 25.8318 25.313 17.3558 24.2368 27.7327 15.9261 15.6502 22.2491 21.4076 14.9697 20.7898 23.6458 13.6635 13.1414 18.9503 17.8484 12.747 17.5726 19.8845 11.5585 10.8398 15.861 14.5927 10.6727 14.5986 16.4273 9.60442 8.75051 12.9822 11.5923 8.74558 11.7876 13.2876 7.75991 6.81238 10.2981 8.87689 6.9219 9.17535 10.3628 6.05995 5.06792 7.79556 6.37652 5.24781 6.73197 7.75471 4.44127 3.44343 5.44194 4.11111 3.663 4.46795 5.2905 2.9693 2.03868 3.32338 2.34098 2.22481 2.50651 3.14175 1.68397 1.03527 1.59759 0.740139 1.07504 0.795184 1.59235 0.509075 168.722 197.827 273.326 137.157 236.293 144.094 66.7357 254.307 105.416 151.472 201.854 263.401 296.859 178.292 266.402 303.027 174.497 198.859 266.153 286.529 177.654 257.437 296.698 170.433 186.643 249.661 267.171 165.821 238.897 277.477 158.478 172.519 229.66 246.033 152.593 219.405 256.472 145.295 158.359 210.059 225.223 139.833 200.715 235.733 132.618 144.714 191.601 205.366 127.778 183.085 215.716 120.746 131.792 174.36 186.704 116.407 166.548 196.628 109.74 119.687 158.35 169.28 105.79 151.142 178.654 99.5347 108.389 143.51 153.091 95.8863 136.846 161.833 90.1148 97.9198 129.797 138.117 86.7285 123.63 146.201 81.4144 88.219 117.153 124.278 78.271 111.465 131.729 73.4279 79.2819 105.506 111.533 70.4641 100.226 118.379 66.0541 71.043 94.7745 99.7952 63.2871 89.8974 106.07 59.2643 63.4512 84.8833 88.9645 56.6648 80.3746 94.7457 53.0043 56.445 75.7701 79.0056 50.579 71.6288 84.2978 47.2567 50.0187 67.4086 69.8356 44.9751 63.5601 74.7081 41.9619 44.0731 59.6663 61.3711 39.8188 56.1372 65.8432 37.063 38.6114 52.5399 53.5879 35.0472 49.2857 57.7033 32.5575 33.5873 46.0014 46.4507 30.6834 43.0198 50.2089 28.4308 28.9745 39.9596 39.8901 26.6522 37.2099 43.3562 24.6148 24.7386 34.4123 33.8823 22.9486 31.9077 37.0402 21.1152 20.8746 29.3421 28.427 19.5665 27.0641 31.2866 17.9264 17.3808 24.7154 23.4588 16.4878 22.6547 26.0727 15.0012 14.1954 20.4931 18.9918 13.67 18.6376 21.3274 12.3507 11.3489 16.6743 15.0163 11.1337 15.011 17.0974 9.96681 8.82195 13.2498 11.4795 8.83655 11.7734 13.2954 7.81652 6.59798 10.155 8.3978 6.77296 8.82801 9.97682 5.88513 4.66119 7.40206 5.76877 4.94019 6.24971 7.07444 4.17567 3.03355 4.94923 3.54085 3.29902 3.9142 4.61744 2.62854 1.67136 2.84416 1.8816 1.8674 2.16593 2.53028 1.45262 0.82172 1.46894 0.639186 0.98754 0.752228 1.26423 0.489394 129.314 335.257 174.305 226.002 328.85 64.2814 122.781 188.162 187.815 212.848 119.049 337.198 169.249 227.281 333.035 177.981 218.141 114.073 324.597 163.299 217.426 316.345 169.794 209.148 108.513 305.927 154.005 203.753 295.232 160.299 195.772 101.505 284.473 143.068 189.214 273.101 149.535 181.049 93.8168 262.118 131.65 174.437 250.958 138.163 166.192 86.0516 240.014 120.386 159.857 229.385 126.764 151.757 78.498 218.762 109.601 145.786 208.748 115.684 138.035 71.3276 198.678 99.432 132.422 189.309 105.121 125.151 64.5846 179.853 89.9281 119.88 171.107 95.1925 113.132 58.3028 162.354 81.1027 108.178 154.206 85.921 101.992 52.4752 146.126 72.9213 97.347 138.576 77.3268 91.6704 47.0892 131.139 65.3657 87.3319 124.142 69.384 82.1515 42.1068 117.312 58.4046 78.0973 110.852 62.0476 73.3936 37.5378 104.594 52.0079 69.6059 98.6092 55.3028 65.3199 33.3297 92.869 46.0876 61.7742 87.3401 49.0915 57.8642 29.4242 82.0603 40.6478 54.5729 76.9851 43.3516 51.0247 25.8537 72.1205 35.6456 47.9418 67.4094 38.0957 44.7137 22.5558 62.9511 31.0249 41.8218 58.6167 33.2353 38.9043 19.5297 54.5438 26.7885 36.2169 50.5646 28.7777 33.5664 16.7429 46.8097 22.898 31.0685 43.1793 24.6753 28.686 14.2001 39.7394 19.3386 26.3669 36.4279 20.938 24.2048 11.8729 33.2894 16.11 22.0731 30.2862 17.523 20.1521 9.76077 27.453 13.1828 18.1976 24.7523 14.4293 16.4891 7.87301 22.1848 10.5511 14.6805 19.7495 11.6401 13.1792 6.17116 17.4741 8.20491 11.5491 15.3517 9.12501 10.2542 4.66687 13.3186 6.15422 8.79936 11.4639 6.93514 7.68538 3.38246 9.72428 4.40712 6.39256 8.13754 5.02134 5.49411 2.2929 6.66509 2.92867 4.36342 5.3736 3.41371 3.65365 1.4195 4.18056 1.7764 2.72385 3.21338 2.11216 2.19958 0.786897 2.26186 0.949238 1.45151 1.68807 1.15373 1.14528 0.419924 1.12854 0.361418 0.727028 0.523344 0.606588 0.344398 98.1698 244.082 197.653 169.379 276.257 156.519 83.6636 105.042 65.5755 57.5664 163.089 98.3133 143.088 189.806 137.025 257.402 207.092 169.831 244.802 135.428 92.2545 204.46 128.228 170.503 133.935 245.812 196.316 156.288 226.407 125.219 87.2595 193.174 119.827 160.722 123.307 226.449 181.054 142.958 207.993 114.633 80.3141 177.779 109.489 147.741 112.686 205.066 165.055 130.011 189.135 103.829 72.4006 163.986 98.5451 133.335 102.258 183.979 149.132 117.637 170.822 93.5609 64.676 150.506 88.1348 119.238 92.2223 164.431 133.993 106.109 153.739 84.1875 57.6581 137.151 78.6955 106.306 82.815 146.762 120.011 95.4896 138.038 75.6755 51.41 124.213 70.2266 94.7077 74.1702 130.919 107.264 85.7286 123.66 67.9124 45.8462 111.973 62.6185 84.3472 66.2636 116.646 95.6524 76.7398 110.442 60.7765 40.8435 100.511 55.7236 75.0269 59.0319 103.687 85.0663 68.4353 98.2825 54.1863 36.3023 89.8341 49.4446 66.573 52.4286 91.8849 75.4071 60.7798 87.0751 48.1123 32.1578 79.9712 43.6848 58.873 46.3861 81.0805 66.5841 53.6943 76.762 42.4828 28.3528 70.862 38.4148 51.8291 40.8473 71.1719 58.4804 47.1939 67.2803 37.3186 24.8685 62.4864 33.5689 45.3646 35.7597 62.0804 51.0965 41.2004 58.5679 32.5456 21.6678 54.7834 29.1227 39.4519 31.1363 53.76 44.3429 35.6943 50.5756 28.161 18.7245 47.7537 25.0604 34.0397 26.9052 46.1676 38.2012 30.676 43.3138 24.1678 16.0544 41.3207 21.3554 29.1103 23.0607 39.227 32.6299 26.0807 36.662 20.4973 13.5969 35.4848 17.9813 24.6131 19.5946 32.9366 27.5968 21.9185 30.6613 17.1766 11.3783 30.208 14.93 20.5361 16.4664 27.2593 23.0919 18.1645 25.2632 14.1755 9.37123 25.4488 12.2044 16.8761 13.6838 22.1905 19.0969 14.8215 20.4699 11.5119 7.58723 21.2115 9.75504 13.6152 11.2378 17.6816 15.583 11.8271 16.208 9.10754 5.98203 17.4735 7.60883 10.7359 9.10321 13.7295 12.5034 9.22706 12.5018 7.01143 4.57952 14.2075 5.74559 8.21055 7.26488 10.3315 9.91348 6.98249 9.35939 5.2121 3.38238 11.3719 4.16532 6.07783 5.73635 7.48656 7.73577 5.09585 6.74268 3.68664 2.36978 9.01731 2.8694 4.31635 4.4761 5.18852 5.92955 3.56607 4.66119 2.45147 1.54637 7.06152 1.86152 2.91419 3.46834 3.44214 4.51593 2.4195 3.10708 1.52029 0.925913 5.47142 1.18284 1.8963 2.68835 2.36565 3.41601 1.66496 2.13007 0.948094 0.589997 4.21265 0.854544 1.30185 2.05038 1.86143 2.52604 1.28049 1.64899 0.779724 0.517107 3.20246 0.739216 1.03888 1.43454 1.54528 1.66997 1.02468 1.27421 0.72296 0.502334 2.27519 0.599624 0.85534 0.825499 1.06285 0.912071 0.696574 0.857018 0.562157 0.375969 1.35194 0.367036 0.574345 0.487463 0.581761 0.310656 0.360045 0.254377 0.24953 0.173258 0.744706 0.0805289 0.174183 50.8398 112.276 101.584 83.4945 140.236 34.1118 31.1131 86.8235 55.5404 92.1705 81.6329 162.161 130.909 105.441 156.754 120.132 111.462 86.4209 162.647 131.105 101.369 149.278 123.215 108.059 82.5255 151.575 123.415 94.2457 139.514 118.357 100.021 76.8735 139.686 114.34 88.1451 130.342 112.502 91.824 70.8983 127.824 104.935 82.0879 120.726 105.851 83.6391 64.8913 116.151 95.6278 75.6938 110.693 98.3581 75.6842 59.0265 104.958 86.6623 69.1629 100.677 90.4372 68.1565 53.4492 94.4625 78.2529 62.7557 91.0019 82.5086 61.1701 48.2331 84.7359 70.4533 56.6149 81.8473 74.8352 54.7268 43.4179 75.7616 63.3204 50.8142 73.3031 67.5644 48.8296 39.0044 67.5442 56.7987 45.4369 65.3973 60.8356 43.4386 34.9689 60.0072 50.8471 40.4493 58.1277 54.6239 38.5136 31.2818 53.1108 45.3906 35.8789 51.4576 48.9349 33.9888 27.9152 46.7915 40.4423 31.6683 45.3489 43.709 29.8775 24.8547 41.0542 35.9407 27.8577 39.7889 38.9724 26.1286 22.0832 35.8206 31.8398 24.3591 34.7315 34.6612 22.7227 19.5612 31.09 28.1405 21.2087 30.1644 30.7379 19.6514 17.302 26.85 24.794 18.3753 26.0692 27.2159 16.8884 15.2464 23.0123 21.7548 15.8221 22.3814 24.0004 14.4134 13.4008 19.6279 19.0238 13.5641 19.1205 21.1195 12.223 11.7464 16.6477 16.5994 11.5686 16.2398 18.5218 10.3126 10.274 14.0524 14.3948 9.81627 13.7106 16.1907 8.63355 8.92714 11.787 12.4243 8.27231 11.5171 14.0571 7.20165 7.72866 9.86801 10.6382 6.96792 9.60573 12.1554 5.97724 6.6091 8.20326 8.9693 5.81798 7.93754 10.3702 4.89981 5.55679 6.76467 7.43221 4.7926 6.4528 8.6994 3.99467 4.53535 5.48183 5.9409 3.87496 5.10246 7.10186 3.16547 3.53047 4.24502 4.4526 3.00137 3.80428 5.55158 2.366 2.54645 3.02001 2.98528 2.13019 2.47832 4.01271 1.54848 1.53717 1.74541 1.51979 1.22163 1.22614 2.43727 0.773759 0.662587 0.826097 0.44546 0.561461 0.436745 1.03131 0.271366 27.5383 57.2203 67.4163 41.7136 75.7907 19.296 15.1161 41.8321 26.4243 52.311 57.645 98.5705 97.1898 61.5105 97.6275 80.4418 70.7201 66.4871 108.554 102.442 66.4988 101.39 93.9551 72.9184 65.3934 105.15 98.4388 65.7004 99.0913 95.1807 69.5202 61.7111 98.757 92.0906 63.4987 94.8634 92.4104 64.8574 57.4368 91.7288 85.2149 60.4227 89.4084 87.8563 59.8934 53.0367 84.5231 78.3329 56.6409 83.1768 82.2922 54.9225 48.7105 77.3677 71.7188 52.4756 76.6167 76.2607 50.0923 44.6071 70.519 65.5309 48.2067 70.1112 70.2142 45.5368 40.8083 64.0853 59.8385 44.0413 63.8858 64.4137 41.295 37.3201 58.1509 54.6421 40.0838 58.0711 58.9794 37.4185 34.1409 52.72 49.925 36.4315 52.7125 53.9631 33.8672 31.2499 47.7481 45.617 33.0658 47.8027 49.3916 30.6378 28.6281 43.24 41.6978 29.995 43.314 45.2129 27.6944 26.212 39.1168 38.1181 27.1806 39.2119 41.3828 25.0136 24.0195 35.3749 34.8258 24.6153 35.4735 37.8737 22.5796 21.9896 31.9706 31.7865 22.2858 32.0762 34.642 20.3582 20.1122 28.8542 28.9985 20.1532 28.9495 31.6612 18.3334 18.3878 26.0298 26.3944 18.2069 26.0976 28.8996 16.4889 16.7408 23.4282 23.9424 16.4146 23.4767 26.3065 14.7951 15.2166 21.046 21.6562 14.7635 21.0381 23.8747 13.2398 13.7516 18.8481 19.4935 13.2246 18.7943 21.5455 11.8224 12.3579 16.8111 17.4077 11.8028 16.6836 19.3648 10.4865 11.0264 14.886 15.4028 10.4424 14.6901 17.2353 9.23848 9.71076 13.0839 13.4476 9.17605 12.8112 15.1726 8.0501 8.40998 11.3111 11.5253 7.9304 10.9455 13.142 6.88939 7.13835 9.59469 9.63907 6.71807 9.16265 11.1399 5.77616 5.8734 7.8983 7.77359 5.51859 7.37254 9.17146 4.65432 4.6046 6.19349 5.92302 4.33778 5.58386 7.23925 3.53754 3.3907 4.517 4.07386 3.15582 3.83351 5.31696 2.41905 2.12243 2.80163 2.12607 1.96596 2.01929 3.38279 1.27878 0.810395 1.18161 0.569071 0.798472 0.608604 1.30403 0.388443 34.4467 38.4527 82.2662 24.5231 61.449 29.1194 9.26718 48.523 13.5281 43.8276 70.9449 89.1541 114.968 55.3207 91.6969 100.342 64.5402 80.5272 103.158 119.946 65.0279 99.6229 115.758 68.2556 78.6656 101.85 114.461 66.131 98.5283 115.836 65.6858 73.5937 96.1068 106.309 64.0384 94.0903 110.566 61.4224 67.936 89.3002 97.8229 60.5934 88.2808 103.493 56.8204 62.3861 82.367 89.6574 56.5541 81.9427 95.8618 52.2535 57.1424 75.6659 82.0439 52.3247 75.5835 88.2438 47.9412 52.3033 69.389 75.0548 48.184 69.4782 80.9853 43.9355 47.8759 63.623 68.6836 44.2815 63.8079 74.237 40.2816 43.857 58.3635 62.9183 40.6676 58.5881 68.039 36.9747 40.2255 53.6117 57.6821 37.3639 53.8333 62.3974 33.9699 36.9157 49.2962 52.9196 34.3692 49.5009 57.249 31.239 33.8983 45.3684 48.5801 31.6179 45.534 52.5502 28.7527 31.1409 41.7445 44.5671 29.0912 41.8846 48.2564 26.4575 28.5716 38.4251 40.8547 26.7823 38.5204 44.2793 24.3378 26.1965 35.3423 37.4191 24.6223 35.3766 40.6051 22.3733 23.9879 32.4534 34.1968 22.6015 32.4439 37.1674 20.5369 21.9122 29.777 31.1702 20.7304 29.7097 33.9503 18.8104 19.9499 27.2148 28.2989 18.9405 27.0817 30.9097 17.1562 18.0815 24.7762 25.5833 17.2445 24.5895 28.0274 15.5861 16.3049 22.4286 22.9825 15.6009 22.1786 25.278 14.0768 14.5937 20.1761 20.4724 14.0362 19.8453 22.637 12.6106 12.9453 18.0016 18.0337 12.506 17.5803 20.0691 11.1793 11.3237 15.8354 15.6784 10.9865 15.3523 17.5587 9.78231 9.75959 13.7137 13.3578 9.50568 13.143 15.1532 8.38681 8.21129 11.6121 11.1084 8.04493 10.996 12.7724 7.02332 6.72496 9.55083 8.91081 6.60777 8.85715 10.4656 5.67773 5.25789 7.50241 6.76075 5.20865 6.78662 8.22264 4.33549 3.85098 5.53051 4.65283 3.83727 4.738 6.03372 3.01603 2.41972 3.50428 2.54359 2.45186 2.57912 3.86711 1.65434 0.98205 1.38747 0.666072 0.93153 0.666382 1.56947 0.438916 66.0905 71.7574 130.843 50.9048 102.445 55.8721 22.3479 101.747 38.93 66.9961 106.89 128.706 165.416 84.5663 133.65 156.436 89.8119 114.988 142.604 167.254 93.0794 138.504 167.883 92.4926 110.064 138.17 157.457 91.3728 133.229 162.416 87.7076 101.937 128.67 145.144 86.2777 124.718 152.077 81.1148 93.5433 118.39 132.926 80.1929 115.361 140.669 74.4138 85.5437 108.44 121.39 73.9143 106.033 129.274 68.0523 78.0662 99.1231 110.668 67.8083 97.1061 118.322 62.1615 71.1541 90.5349 100.812 62.042 88.7803 108 56.7675 64.806 82.6826 91.7758 56.7121 81.1316 98.4344 51.8421 58.9797 75.5238 83.5219 51.8264 74.1337 89.6408 47.3745 53.6679 69.0136 75.9737 47.3587 67.7431 81.5917 43.3106 48.7999 63.0883 69.0671 43.2828 61.9097 74.2112 39.6071 44.3405 57.6571 62.7532 39.5528 56.5785 67.4479 36.2201 40.2556 52.7009 56.9321 36.1494 51.6962 61.2728 33.1146 36.4871 48.1114 51.5481 33.0046 47.1541 55.5763 30.2208 33.0006 43.8532 46.5983 30.0861 42.9548 50.3051 27.5477 29.782 39.9191 42.0153 27.3852 39.0703 45.4391 25.0632 26.8189 36.2326 37.7568 24.861 35.4064 40.9507 22.7225 24.0198 32.7496 33.7538 22.4863 31.9679 36.7379 20.526 21.4375 29.508 30.0414 20.2544 28.7265 32.8233 18.4575 18.9935 26.425 26.557 18.1542 25.6679 29.1351 16.4995 16.7312 23.4973 23.2835 16.1401 22.7416 25.6982 14.6232 14.6001 20.6993 20.2003 14.2237 19.9099 22.4657 12.8041 12.5624 17.9846 17.2572 12.357 17.2056 19.3592 11.0705 10.6489 15.3981 14.5174 10.5924 14.6049 16.4399 9.3965 8.84099 12.9022 11.8778 8.8769 12.0877 13.6792 7.77411 7.10379 10.4774 9.35856 7.22169 9.64044 11.0423 6.21087 5.45991 8.15813 6.99471 5.62113 7.29525 8.51154 4.71245 3.90457 5.93106 4.72065 4.07726 5.03081 6.11746 3.25499 2.41606 3.73372 2.68553 2.57647 2.80039 3.82471 1.81743 1.12124 1.58255 0.760698 1.07163 0.77489 1.73325 0.493433 109.797 127.245 197.064 92.8002 166.994 92.3138 41.6731 172.275 72.5757 105.759 153.809 191.851 230.214 128.852 195.862 228.531 129.662 156.74 201.362 225.573 132.773 194.044 230.624 129.277 147.366 190.96 210.358 126.362 182.836 217.675 121.013 135.961 176.381 193.608 117.622 169.497 202.12 111.344 124.79 161.789 177.353 108.568 155.983 186.465 101.917 114.177 147.952 161.954 99.6752 142.867 171.151 93.0296 104.152 134.966 147.483 91.1404 130.392 156.421 84.7431 94.7486 122.886 133.992 83.0668 118.71 142.438 77.097 86.0059 111.724 121.502 75.5612 107.88 129.374 70.053 77.9219 101.454 109.971 68.6265 97.9076 117.249 63.5783 70.4637 92.0258 99.3681 62.2461 88.755 106.033 57.6468 63.5985 83.3653 89.6027 56.3859 80.3383 95.7344 52.1995 57.2882 75.4161 80.6336 51.0004 72.6315 86.2454 47.2032 51.4785 68.109 72.3851 46.0772 65.5557 77.5441 42.6106 46.1417 61.3937 64.7872 41.5316 59.0169 69.5445 38.369 41.2171 55.1749 57.7888 37.337 53.0043 62.159 34.467 36.6818 49.465 51.3549 33.4861 47.4526 55.3738 30.8717 32.5131 44.1993 45.4146 29.9295 42.3512 49.1298 27.5474 28.6782 39.3069 39.9281 26.6284 37.5919 43.3833 24.4466 25.1156 34.7707 34.8794 23.5719 33.2027 38.0322 21.587 21.8444 30.5472 30.2259 20.7329 29.077 33.1644 18.911 18.8339 26.6401 25.9306 18.0981 25.2914 28.6447 16.432 16.0589 23.0048 21.9984 15.643 21.762 24.4759 14.1362 13.5169 19.6176 18.3762 13.3626 18.4507 20.6681 11.9759 11.1668 16.4578 15.0649 11.2168 15.3648 17.1463 9.9946 9.04917 13.5368 12.0272 9.23424 12.4794 13.935 8.10328 7.07184 10.7583 9.20898 7.37448 9.76158 10.9675 6.32838 5.28514 8.18075 6.68195 5.59027 7.19536 8.20546 4.68607 3.61969 5.75984 4.31025 3.94576 4.80638 5.66963 3.12485 2.13112 3.50017 2.43421 2.39307 2.68627 3.36274 1.76707 1.07857 1.68191 0.777848 1.15618 0.861408 1.67229 0.540194 175.676 206.708 281.212 148.668 247.135 150.971 69.9889 272.059 117.492 155.912 206.643 268.629 300.129 181.175 266.473 308.798 175.885 199.476 265.927 286.231 175.829 254.477 295.023 169.672 185.879 248.087 266.323 164.08 237.246 275.178 157.672 172.068 228.969 245.916 152.18 219.602 255.72 145.198 158.536 210.508 225.902 140.51 202.171 236.412 133.158 145.368 192.826 206.563 129.042 185.174 217.243 121.685 132.685 175.972 188.091 117.944 168.863 198.55 110.825 120.63 160.054 170.675 107.345 153.412 180.611 100.638 109.296 145.153 154.405 97.3701 138.972 163.683 91.1617 98.7494 131.326 139.294 88.0982 125.57 147.892 82.379 88.9599 118.533 125.327 79.4898 113.196 133.239 74.2887 79.9264 106.733 112.44 71.572 101.784 119.711 66.8141 71.6049 95.8699 100.577 64.271 91.3 107.242 59.9518 63.9409 85.8678 89.668 57.5628 81.64 95.7762 53.6274 56.8838 76.667 79.6181 51.3814 72.7626 85.2127 47.812 50.391 68.1941 70.3783 45.7034 64.6024 75.5023 42.4596 44.4174 60.3974 61.8689 40.4732 57.0806 66.5755 37.5289 38.9214 53.2129 54.0411 35.6729 50.1751 58.3704 32.9874 33.8625 46.6188 46.8545 31.2591 43.8408 50.8226 28.8189 29.235 40.5357 40.2689 27.1733 37.993 43.9126 24.9808 24.9791 34.9605 34.2406 23.469 32.6483 37.5929 21.4663 21.1134 29.8507 28.756 20.052 27.7753 31.7946 18.2423 17.5786 25.1897 23.7846 16.9388 23.3128 26.5469 15.3165 14.4017 20.9435 19.2948 14.1031 19.2641 21.8026 12.644 11.5506 17.0858 15.2921 11.527 15.5756 17.5405 10.2219 8.97998 13.6059 11.7099 9.19994 12.2696 13.7276 8.0449 6.75031 10.4782 8.6027 7.10371 9.27586 10.3512 6.07028 4.78733 7.67476 5.91845 5.20654 6.60623 7.39038 4.34202 3.11264 5.15452 3.6428 3.50475 4.15741 4.84551 2.73391 1.70526 2.9386 1.90972 1.98277 2.26471 2.66725 1.5023 0.850185 1.52662 0.663358 1.03166 0.797847 1.29866 0.508287 129.315 343.583 178.079 238.14 343.875 63.9337 124.68 192.668 197.61 219.642 123.153 346.99 173.271 233.582 336.312 184.133 221.719 115.793 326.974 164.541 217.067 314.848 170.94 209.628 108.791 305.542 154.075 202.539 293.988 159.935 195.467 101.499 284.144 143.068 188.833 273.149 149.338 181.029 93.9369 262.499 131.889 174.886 251.996 138.432 166.601 86.3253 240.965 120.837 160.793 230.951 127.356 152.467 78.8696 220.009 110.15 146.939 210.482 116.437 138.862 71.7138 199.974 99.9914 133.578 190.984 105.891 125.979 64.9613 181.092 90.4536 120.96 172.638 95.9218 113.904 58.6309 163.451 81.5488 109.148 155.556 86.5724 102.656 52.7558 147.078 73.3142 98.1833 139.75 77.8799 92.2586 47.3316 131.963 65.7053 88.0546 125.154 69.8584 82.6567 42.3195 118.021 58.6894 78.7249 111.709 62.4574 73.8081 37.7063 105.187 52.2347 70.1281 99.3619 55.6376 65.6799 33.4563 93.3734 46.2985 62.2336 87.9864 49.373 58.1917 29.551 82.5041 40.8285 54.9683 77.5162 43.6141 51.3002 25.9627 72.5114 35.795 48.278 67.8977 38.3021 44.9498 22.6415 63.2965 31.1481 42.1338 59.0659 33.4174 39.1111 19.595 54.8296 26.9118 36.4904 50.9586 28.9326 33.7718 16.8177 47.0974 23.0049 31.3293 43.5344 24.8428 28.8604 14.2552 39.9918 19.442 26.6007 36.7629 21.0678 24.3785 11.9325 33.5372 16.2006 22.2962 30.6261 17.6444 20.3133 9.82116 27.6794 13.2713 18.3991 25.0482 14.5473 16.6276 7.91696 22.3935 10.6309 14.8922 20.057 11.7491 13.3189 6.20799 17.6781 8.27238 11.7512 15.6262 9.23939 10.3848 4.70714 13.4888 6.21331 8.97499 11.7263 7.02189 7.78253 3.40168 9.85209 4.42802 6.55096 8.35992 5.09515 5.56286 2.29687 6.76706 2.93873 4.50002 5.55024 3.46855 3.69801 1.40602 4.21863 1.76764 2.79982 3.31041 2.13262 2.21781 0.759013 2.26321 0.922597 1.50435 1.74457 1.15802 1.13759 0.407352 1.12835 0.362813 0.731059 0.541404 0.591182 0.356987 121.984 268.127 190.623 96.9585 140.878 52.6896 96.9585 105.608 90.9201 76.8033 108.44 44.2689 123.667 179.58 123.99 235.745 185.103 70.7486 112.432 35.4787 80.8989 93.1696 109.677 156.01 115.537 216.042 173.955 64.2563 105.711 32.7228 75.1458 85.672 104.832 144.768 108.071 200.826 164.075 62.4094 100.303 31.8439 70.8866 81.8973 98.9695 134.467 102.416 186.67 154.029 59.9268 93.7298 30.5104 65.9991 78.8544 91.8555 123.798 96.2402 172.177 142.906 56.3668 86.4221 28.636 60.7164 74.7587 84.2436 113.052 89.2234 157.557 131.13 52.1631 78.9595 26.4575 55.4164 69.6501 76.6627 102.668 81.7472 143.194 119.297 47.7038 71.6195 24.1607 50.2616 64.0013 69.3334 92.7966 74.2516 129.382 107.819 43.2325 64.5849 21.8745 45.3487 58.21 62.3736 83.5205 66.9709 116.28 96.9107 38.8994 57.9342 19.6632 40.7041 52.5345 55.8455 74.8431 60.0558 103.974 86.6677 34.8046 51.6888 17.5745 36.3519 47.1307 49.7297 66.7387 53.5815 92.4937 77.1361 30.9524 45.8835 15.6154 32.3037 42.0414 44.0709 59.2271 47.5599 81.8317 68.338 27.3826 40.5087 13.8028 28.5496 37.3043 38.8316 52.2758 42.0209 72.0146 60.2285 24.0849 35.5542 12.1258 25.0897 32.9532 34.0091 45.8762 36.9174 62.9475 52.7995 21.0452 30.9755 10.5807 21.8898 28.9322 29.5616 39.9679 32.25 54.6222 45.9936 18.2524 26.7904 9.16675 18.9605 25.2512 25.4937 34.5579 27.9849 47.0157 39.8031 15.6999 22.9676 7.87009 16.2788 21.8883 21.785 29.635 24.1121 40.073 34.1645 13.3764 19.4747 6.68749 13.826 18.8375 18.4098 25.1235 20.6026 33.7698 29.0893 11.2713 16.3251 5.62254 11.6095 16.0628 15.3661 21.0524 17.4594 28.0963 24.526 9.37913 13.4809 4.66351 9.60766 13.5813 12.6187 17.3863 14.6352 23.0139 20.4646 7.67456 10.9439 3.80131 7.81475 11.345 10.1696 14.1243 12.1419 18.4802 16.8715 6.15618 8.68291 3.02707 6.20849 9.36706 8.0162 11.224 9.96404 14.5193 13.7275 4.83478 6.71293 2.36036 4.80254 7.63294 6.13767 8.69541 8.06682 11.0946 11.0276 3.69549 5.03188 1.7851 3.59415 6.12319 4.53151 6.54344 6.48049 8.20012 8.73432 2.72246 3.60308 1.28473 2.55587 4.85209 3.22111 4.74405 5.13854 5.85922 6.78737 1.94997 2.47525 0.90276 1.73537 3.78605 2.17531 3.29676 4.03449 4.0438 5.21796 1.3427 1.61319 0.602824 1.09416 2.90474 1.40943 2.20789 3.11851 2.76147 3.90079 0.918089 1.02667 0.399062 0.665837 2.21168 0.92806 1.45507 2.33032 2.03521 2.83399 0.661285 0.765459 0.300456 0.512299 1.63233 0.703753 1.08177 1.60731 1.55676 1.85274 0.49191 0.624301 0.23875 0.452146 1.14652 0.565181 0.840152 0.934645 1.07897 1.00534 0.351785 0.462932 0.17963 0.362489 0.711654 0.378074 0.578153 0.49547 0.555429 0.291232 0.195216 0.170455 0.0947722 0.170455 0.3858 0.0756825 0.156801 66.7163 145.661 97.8758 58.3857 78.6444 49.0551 46.5053 62.44 26.7494 92.6143 70.3735 142.401 114.029 41.4186 69.2884 53.3783 98.1678 72.6175 136.078 114.804 39.9568 67.3986 53.9581 93.5619 72.204 130.927 112.695 40.7777 66.5951 54.6194 89.457 71.3506 127.198 109.323 41.3275 65.1838 55.0871 85.5818 69.1162 121.766 104.103 40.472 62.259 54.0351 80.7108 65.4783 114.302 97.3541 38.4278 58.1816 51.5231 74.9208 60.935 105.585 89.8095 35.6855 53.5139 48.0832 68.6904 56.0127 96.4477 82.084 32.6706 48.6978 44.237 62.4189 51.0461 87.3529 74.537 29.6094 43.969 40.304 56.3374 46.2626 78.6324 67.3615 26.6659 39.4722 36.5043 50.5701 41.7632 70.4459 60.6861 23.8881 35.263 32.9096 45.1898 37.5812 62.8271 54.5381 21.3 31.3661 29.5621 40.2233 33.7546 55.8244 48.8904 18.9328 27.7892 26.4985 35.6497 30.2406 49.3943 43.7193 16.7539 24.5084 23.6909 31.4628 27.0394 43.5346 38.9981 14.7766 21.5246 21.1235 27.6488 24.1172 38.1909 34.7182 12.9749 18.8059 18.7818 24.1749 21.4771 33.3514 30.8105 11.3392 16.3409 16.6689 21.0315 19.0816 28.9872 27.2865 9.86475 14.1261 14.7403 18.2131 16.9022 25.0777 24.07 8.55097 12.1469 13.008 15.672 14.9413 21.5744 21.1543 7.3634 10.3725 11.4437 13.418 13.1533 18.4707 18.5235 6.31941 8.80829 10.0222 11.4193 11.5352 15.7359 16.1453 5.39929 7.43091 8.74529 9.65955 10.0631 13.3267 13.9624 4.57914 6.23606 7.58748 8.11989 8.7094 11.2487 11.9583 3.87695 5.20331 6.53817 6.78307 7.4348 9.39238 10.0946 3.24248 4.2847 5.55915 5.60141 6.23508 7.73259 8.31743 2.6634 3.4804 4.64624 4.54793 5.08541 6.2311 6.64742 2.15081 2.74535 3.78582 3.5845 3.97557 4.81263 5.01264 1.64747 2.05004 2.95677 2.66765 2.86064 3.39739 3.3951 1.15839 1.35514 2.13673 1.75745 1.7606 2.0089 1.75241 0.684188 0.715157 1.33633 0.885684 0.740226 0.918 0.478813 0.31534 0.292057 0.572743 0.288047 27.0942 72.6508 58.1878 29.2991 39.9207 19.0191 22.76 27.5272 13.3645 47.6855 46.0778 77.4308 83.7807 21.2439 40.3362 32.3192 59.381 57.3741 89.2383 93.299 26.7357 45.4632 41.5751 63.4446 61.0091 93.599 95.0706 30.0248 47.8958 45.4655 64.2216 61.4261 94.5771 93.3448 31.4711 48.3603 46.6894 63.3414 59.7837 92.5394 89.3463 31.3335 47.1083 45.9916 60.9487 56.7917 88.1812 83.9801 30.098 44.6737 43.9695 57.4395 53.0679 82.4406 77.952 28.232 41.5845 41.217 53.3275 49.0931 76.1158 71.8221 26.0957 38.2671 38.1616 49.0305 45.1526 69.7295 65.9063 23.9166 34.9528 35.0876 44.802 41.4202 63.5874 60.3314 21.8171 31.796 32.149 40.7736 37.9375 57.842 55.1961 19.8395 28.8507 29.3974 37.0398 34.7527 52.5351 50.4818 18.0176 26.1407 26.8712 33.6015 31.8262 47.6842 46.1722 16.3617 23.6628 24.5569 30.4536 29.1644 43.2412 42.2319 14.841 21.4008 22.4442 27.5794 26.7107 39.1949 38.5854 13.4612 19.3298 20.5151 24.943 24.4462 35.4851 35.2378 12.1813 17.4462 18.7255 22.5578 22.3674 32.1204 32.1529 11.0389 15.7285 17.0908 20.3561 20.4226 29.0232 29.2515 9.97247 14.1578 15.5704 18.352 18.6018 26.1553 26.5491 8.99344 12.7034 14.1482 16.4919 16.8916 23.5419 23.9869 8.09976 11.3739 12.821 14.7764 15.2429 21.0782 21.5659 7.2478 10.138 11.5461 13.1906 13.6965 18.7952 19.2525 6.46206 8.99811 10.3553 11.7089 12.1771 16.6423 17.012 5.72746 7.921 9.20989 10.3083 10.7177 14.5964 14.8473 5.02381 6.89193 8.10332 8.96878 9.28951 12.6085 12.707 4.33039 5.89981 7.02034 7.66274 7.86534 10.6657 10.62 3.65974 4.92565 5.94635 6.39855 6.4773 8.76221 8.58428 2.99766 3.99071 4.89376 5.16424 5.12927 6.90815 6.57253 2.35787 3.07009 3.88473 3.93992 3.7677 5.04577 4.57884 1.72876 2.15325 2.87396 2.73422 2.4309 3.20959 2.47641 1.1105 1.22224 1.8781 1.47717 0.956739 1.36521 0.63371 0.473423 0.425613 0.788939 0.418101 30.7269 28.6589 71.2567 9.62358 20.6658 30.5661 7.64577 21.1504 4.85641 34.3376 62.4851 72.2599 105.217 21.5569 37.4303 41.7689 55.7256 75.2827 92.7442 115.346 29.7335 45.6335 53.2514 63.6124 77.6675 98.8702 115.002 32.7828 48.1435 56.4431 65.0813 75.6179 98.4491 110.277 33.1764 47.8258 55.7681 63.6041 71.6404 94.6839 103.621 32.1559 45.9374 53.2815 60.5495 66.8207 89.1685 96.2025 30.3803 43.225 49.9299 56.714 61.7521 82.9046 88.6708 28.2942 40.1513 46.2704 52.5619 56.7824 76.5213 81.4243 26.1262 37.0474 42.6058 48.4483 52.0895 70.3766 74.6554 24.0314 34.0682 39.1128 44.5465 47.7527 64.641 68.4106 22.0756 31.2917 35.8691 40.9096 43.7782 59.3407 62.7165 20.2655 28.731 32.8855 37.5795 40.1542 54.5403 57.5217 18.6274 26.4017 30.1786 34.5461 36.8495 50.1325 52.7561 17.122 24.2635 27.7028 31.756 33.8209 46.1043 48.3828 15.7503 22.3207 25.4267 29.2079 31.0208 42.3942 44.3447 14.4922 20.5098 23.3379 26.8397 28.4459 38.9497 40.6058 13.3153 18.8336 21.4012 24.6438 26.0268 35.7416 37.0831 12.2242 17.2815 19.5996 22.5988 23.754 32.7414 33.8054 11.2098 15.8084 17.904 20.6715 21.6345 29.9059 30.7013 10.2327 14.4245 16.3179 18.8471 19.6162 27.2081 27.7555 9.31361 13.0938 14.808 17.1043 17.6867 24.599 24.9185 8.41402 11.8164 13.362 15.4262 15.8302 22.1242 22.1999 7.56865 10.6008 11.9751 13.8138 14.0286 19.6881 19.5778 6.73836 9.39733 10.6357 12.2395 12.2871 17.3228 17.0124 5.93 8.22582 9.34139 10.6934 10.5977 14.994 14.5163 5.13234 7.07228 8.06306 9.16106 8.92962 12.6883 12.0791 4.34447 5.93259 6.81366 7.6645 7.32047 10.4405 9.69526 3.56841 4.8218 5.59661 6.19475 5.74601 8.2614 7.4251 2.82954 3.74524 4.41208 4.78471 4.24104 6.12346 5.20043 2.10028 2.68219 3.28362 3.36831 2.7646 3.99231 2.92756 1.37537 1.57822 2.17176 1.90575 1.1423 1.63302 0.739564 0.558183 0.483048 0.962264 0.484395 74.9685 75.3717 128.15 27.7767 42.645 69.0966 27.1203 55.1328 14.2721 62.6475 102.392 120.258 159.222 38.3848 58.9047 71.1074 84.6109 111.13 136.772 163.798 44.6483 65.0432 79.2374 89.9918 109.18 137.516 157.914 45.602 64.9506 79.1192 88.2684 103.435 131.821 148.358 44.0573 62.14 75.6054 83.7064 96.3974 123.629 137.589 41.4722 58.2256 70.7765 78.0582 88.9792 114.546 126.59 38.4937 53.9185 65.4932 72.0927 81.6319 105.385 115.908 35.4424 49.5822 60.1721 66.1955 74.6016 96.5569 105.8 32.4845 45.4434 55.042 60.6061 68.0289 88.3124 96.4207 29.7206 41.5906 50.2355 55.431 61.9606 80.7204 87.7865 27.169 38.0449 45.7908 50.6691 56.3854 73.7599 79.8613 24.8335 34.8137 41.7073 46.3241 51.2773 67.4075 72.6309 22.7099 31.8589 37.9746 42.3516 46.6084 61.6084 65.9838 20.7743 29.1632 34.5723 38.7201 42.3198 56.295 59.8989 18.9949 26.688 31.4381 35.3877 38.3891 51.3946 54.2918 17.351 24.397 28.5622 32.3055 34.7467 46.8746 49.1083 15.8396 22.2913 25.9003 29.4661 31.3831 42.6694 44.321 14.4356 20.3187 23.4474 26.8159 28.297 38.7491 39.8806 13.1145 18.4584 21.1839 24.3247 25.389 35.0684 35.726 11.8824 16.7298 19.0507 21.9943 22.6936 31.6212 31.8471 10.7293 15.0871 17.0778 19.783 20.1635 28.3359 28.2235 9.62317 13.5228 15.2092 17.699 17.7831 25.2129 24.7863 8.56993 12.0159 13.4602 15.6939 15.5603 22.232 21.5702 7.5631 10.5813 11.8012 13.7734 13.4287 19.365 18.4917 6.60433 9.19381 10.2338 11.924 11.4258 16.6172 15.5848 5.66921 7.84389 8.73932 10.1487 9.51529 13.9533 12.8117 4.76054 6.54043 7.30372 8.42285 7.68725 11.3677 10.1484 3.88672 5.26112 5.93355 6.73156 5.93831 8.87555 7.60843 3.03004 4.03739 4.60859 5.13615 4.26724 6.48647 5.1746 2.22215 2.87101 3.34766 3.5835 2.69211 4.2043 2.96627 1.4566 1.72296 2.15548 2.06186 1.21564 1.81188 0.824878 0.631818 0.551859 1.02015 0.54943 129.148 148.617 201.749 56.2484 79.4486 115.987 53.3029 98.5499 28.2358 108.101 151.905 188.302 225.929 60.5349 89.7388 107.749 126.502 152.994 196.172 221.64 63.8462 92.1874 110.104 126.761 145.588 189.222 209.431 62.3088 88.8628 105.868 120.795 136.304 177.895 195.194 58.9334 83.5056 99.6516 112.898 126.478 165.255 180.375 54.905 77.4693 92.7284 104.431 116.492 152.28 165.589 50.6633 71.283 85.5427 95.9363 106.68 139.522 151.235 46.4359 65.2357 78.4059 87.7188 97.2357 127.327 137.589 42.3928 59.4932 71.5193 79.9256 88.3515 115.887 124.856 38.5934 54.1436 65.0122 72.6766 80.0779 105.282 113.047 35.0664 49.1944 58.9685 65.9975 72.4182 95.5131 102.143 31.8235 44.6479 53.3765 59.8408 65.3742 86.5327 92.1321 28.8394 40.4845 48.2244 54.2067 58.8891 78.3175 82.9348 26.1255 36.6728 43.5026 49.0347 52.9616 70.7656 74.4866 23.6165 33.1677 39.1727 44.2913 47.4877 63.8307 66.7202 21.3226 29.9561 35.1812 39.9291 42.4559 57.4468 59.567 19.2053 26.9779 31.5194 35.9014 37.8325 51.5468 53.0047 17.2475 24.2337 28.136 32.1865 33.5728 46.1188 46.9582 15.4524 21.7232 25.0337 28.7825 29.6686 41.0884 41.3744 13.7867 19.3603 22.1881 25.5932 26.0339 36.4311 36.2303 12.2408 17.1817 19.5354 22.6471 22.7381 32.1017 31.49 10.8061 15.1594 17.1101 19.8952 19.6392 28.0637 27.1166 9.46969 13.2482 14.844 17.3429 16.8163 24.3174 23.0985 8.21548 11.4869 12.7641 14.9715 14.2243 20.8146 19.4054 7.05591 9.81505 10.852 12.7344 11.8443 17.5448 15.9921 5.96225 8.24705 9.08929 10.6395 9.63244 14.4646 12.8421 4.92436 6.76904 7.43581 8.68195 7.60262 11.591 9.94808 3.95717 5.36671 5.90811 6.83396 5.70726 8.85756 7.21809 3.03749 4.03119 4.49431 5.07287 3.95033 6.27788 4.71094 2.1499 2.75133 3.15454 3.41476 2.35381 3.86783 2.64069 1.32037 1.62027 1.91478 1.93773 1.15264 1.80888 0.83179 0.634134 0.585004 0.952511 0.582532 201.021 240.864 289.096 90.9197 123.381 182.406 86.2648 154.029 45.6726 163.223 206.868 268.327 297.178 86.2498 125.011 149.023 173.731 195.696 260.269 282.066 84.4749 121.892 141.966 166.696 183.49 244.913 264.504 80.3295 115.288 133.908 156.533 171.654 228.888 246.39 75.4693 107.728 125.723 145.728 159.448 212.417 227.759 70.216 99.7755 117.036 134.676 146.916 195.685 209.016 64.7592 91.7283 107.978 123.63 134.463 179.163 190.735 59.3227 83.8359 98.9004 112.886 122.412 163.206 173.209 54.0424 76.2624 90.0963 102.628 110.964 148.122 156.73 49.0473 69.1559 81.7078 93.0042 100.257 134.044 141.397 44.39 62.5513 73.8558 84.0687 90.3109 120.975 127.193 40.0682 56.4301 66.5711 75.7961 81.1312 108.943 114.097 36.0851 50.8056 59.8441 68.1826 72.6624 97.8512 102.065 32.4207 45.6201 53.6397 61.1788 64.8998 87.6845 90.9956 29.0609 40.8801 47.9501 54.7446 57.7308 78.2951 80.7946 25.9575 36.5074 42.7033 48.8338 51.1474 69.6868 71.4414 23.1182 32.4814 37.8906 43.3913 45.0979 61.766 62.8241 20.5016 28.794 33.4661 38.3948 39.5532 54.4989 54.9439 18.1079 25.4081 29.4052 33.7983 34.4461 47.8203 47.7098 15.9073 22.2991 25.6742 29.594 29.7891 41.651 41.0533 13.8743 19.4062 22.2662 25.6769 25.5094 36.0443 34.9959 12.0257 16.8137 19.1183 22.1506 21.5937 30.8627 29.4883 10.32 14.381 16.267 18.8887 18.0748 26.1411 24.4738 8.75702 12.18 13.6769 15.9186 14.8644 21.8478 19.9636 7.34619 10.1685 11.3202 13.2067 11.9847 17.9384 15.9134 6.05774 8.34781 9.19001 10.7499 9.40561 14.3845 12.3175 4.88238 6.6743 7.28302 8.52304 7.12764 11.1744 9.13141 3.80823 5.13761 5.59126 6.49919 5.11952 8.2496 6.34318 2.82914 3.73149 4.07713 4.65814 3.36701 5.59192 3.93445 1.92598 2.42415 2.73923 2.96406 1.85142 3.20467 2.09274 1.10182 1.3554 1.54632 1.6023 0.907536 1.59464 0.691832 0.563824 0.560425 0.755702 0.536599 136.864 383.613 186.906 141.814 176.618 68.8756 142.926 142.926 74.0502 227.772 127.526 348.071 175.786 111.341 160.919 122.837 220.675 115.263 321.741 163.421 104.362 151.746 111.471 207.014 107.841 302.288 153.117 99.0567 143.065 104.898 194.181 101.2 283.551 142.98 93.3475 133.917 98.7914 181.141 94.1942 263.683 132.463 86.9902 124.175 92.1378 167.592 86.8931 243.021 121.742 80.2315 114.137 85.0931 153.847 79.5588 222.364 111.169 73.4164 104.212 77.9506 140.356 72.3984 202.296 100.97 66.7997 94.6537 70.9678 127.394 65.5953 183.232 91.3493 60.4855 85.616 64.2957 115.18 59.1882 165.354 82.3458 54.5783 77.1891 58.0291 103.798 53.2418 148.762 74.0076 49.0886 69.3749 52.2101 93.2622 47.7464 133.425 66.2973 44.0189 62.1642 46.8302 83.5263 42.6752 119.291 59.1973 39.3477 55.5233 41.8669 74.5646 38.0037 106.301 52.6743 35.0627 49.438 37.2965 66.3424 33.7199 94.3538 46.6704 31.1205 43.8197 33.1076 58.7573 29.7764 83.3569 41.1525 27.4832 38.6605 29.2439 51.7974 26.1393 73.2443 36.0659 24.1566 33.913 25.7001 45.3831 22.8044 63.9645 31.4024 21.0898 29.5842 22.4347 39.527 19.7451 55.4588 27.1306 18.2978 25.5965 19.4567 34.1409 16.9457 47.6819 23.217 15.7355 21.9564 16.725 29.2172 14.3747 40.5419 19.6366 13.3854 18.6166 14.2165 24.7096 12.0384 34.0321 16.3865 11.2423 15.5968 11.9279 20.6305 9.92904 28.1861 13.4384 9.33403 12.8694 9.879 16.9237 8.01902 22.8701 10.8041 7.5803 10.4145 8.00068 13.6199 6.30896 18.1431 8.43794 6.03499 8.2298 6.34913 10.6729 4.79399 13.9448 6.37756 4.65893 6.29904 4.87378 8.09747 3.49685 10.2938 4.56244 3.46381 4.60874 3.60555 5.81606 2.36759 7.13021 3.05784 2.42522 3.16298 2.48296 3.91097 1.46262 4.49864 1.83403 1.545 1.95958 1.57357 2.35955 0.787025 2.42091 0.970797 0.840772 1.03409 0.868546 1.24564 0.424233 1.23289 0.367044 0.438922 0.413321 0.452522 0.369732 
CELL_DATA 12288
SCALARS stress float 1
LOOKUP_TABLE default
51.8312 51.1186 34.3358 38.6178 66.3439 56.221 29.6886 44.9686 35.8865 42.1477 41.7663 34.652 26.5603 39.7345 30.8121 37.0195 38.2693 32.7619 26.4138 35.9554 28.6744 33.6873 36.0941 32.2865 26.2342 32.6585 27.4172 30.9475 33.6496 31.1115 25.3096 29.6148 25.9836 28.3602 31.029 29.2863 23.8015 26.7955 24.2387 25.8544 28.3922 27.116 21.9704 24.1797 22.3072 23.4497 25.8067 24.7955 20.0219 21.7453 20.321 21.1623 23.331 22.4852 18.0762 19.4846 18.3569 19.0082 20.972 20.2396 16.2118 17.3876 16.4776 16.9935 18.7458 18.1112 14.4481 15.4387 14.7049 15.1154 16.6731 16.1119 12.8178 13.6364 13.0532 13.3746 14.7429 14.2566 11.3008 11.967 11.5167 11.7565 12.9551 12.5327 9.91303 10.431 10.1102 10.2768 11.3135 10.9556 8.63778 9.02627 8.81018 8.91468 9.8056 9.50442 7.47009 7.74386 7.62715 7.66887 8.41505 8.17505 6.41066 6.55852 6.55284 6.52861 7.14825 6.95725 5.4452 5.49531 5.57387 5.50094 6.0012 5.86289 4.58013 4.54005 4.68454 4.57003 4.96096 4.86318 3.81065 3.67476 3.8928 3.72787 4.02882 3.96873 3.12194 2.91788 3.19046 2.99199 3.19468 3.17749 2.52113 2.24842 2.58282 2.34875 2.45305 2.47639 2.00433 1.67989 2.04285 1.77957 1.8318 1.88649 1.55766 1.20397 1.58638 1.31653 1.28107 1.37391 1.19757 0.811159 1.21906 0.934481 0.842583 0.961154 0.902691 0.536084 0.9229 0.644145 0.492244 0.637683 0.676818 0.371196 0.698724 0.443341 0.250039 0.423492 0.478024 0.307172 0.511145 0.315711 0.1744 0.314961 0.309166 0.270074 0.359296 0.25568 0.203196 0.248868 0.153911 0.199565 0.221496 0.17529 0.177286 0.188891 0.10119 0.104299 0.11071 0.0996898 0.0932498 0.0881003 30.7863 27.6403 21.5195 21.8708 40.0102 34.3825 15.8742 28.2712 19.2257 25.1593 26.2113 20.6798 16.0937 25.0305 18.4027 23.4639 23.8833 19.8982 17.447 23.3117 18.5334 21.9129 23.3985 20.8781 18.2613 22.0897 18.6834 20.8744 23.0339 21.4747 18.22 20.7722 18.3705 19.7802 22.1661 21.1563 17.5081 19.2742 17.5659 18.4843 20.8428 20.1275 16.402 17.6708 16.4444 17.0446 19.2608 18.7079 15.1071 16.0581 15.1583 15.5551 17.5759 17.1144 13.761 14.4934 13.826 14.0933 15.8938 15.5058 12.4493 13.0137 12.5221 12.6873 14.2796 13.9527 11.2028 11.6191 11.2825 11.3641 12.7515 12.4798 10.0436 10.3363 10.1175 10.1373 11.3418 11.1201 8.98137 9.14302 9.04664 9.00219 10.0346 9.86648 8.00456 8.06353 8.07372 7.96789 8.82933 8.71838 7.11864 7.06931 7.17198 7.0224 7.73029 7.66532 6.313 6.16843 6.35825 6.15215 6.73301 6.71845 5.57689 5.35099 5.61832 5.36958 5.82374 5.85361 4.91849 4.62042 4.9519 4.66972 5.00402 5.06877 4.31901 3.95916 4.34331 4.03402 4.26676 4.37002 3.77781 3.37588 3.8016 3.47649 3.61934 3.74648 3.2952 2.85851 3.3109 2.97475 3.03243 3.19496 2.85738 2.41673 2.88216 2.5388 2.5289 2.71307 2.47256 2.03544 2.49675 2.15919 2.09923 2.29167 2.11051 1.7 2.13129 1.82094 1.72852 1.92131 1.79119 1.4158 1.82176 1.52482 1.408 1.59919 1.48751 1.16892 1.52284 1.25994 1.14102 1.31272 1.2009 0.950927 1.24223 1.02329 0.907491 1.06344 0.921111 0.734669 0.985238 0.790443 0.683537 0.816079 0.639893 0.520522 0.714761 0.560093 0.468158 0.567293 0.36204 0.303248 0.441479 0.322878 0.255884 0.343714 0.121366 0.16517 0.185002 0.1283 0.112654 0.153301 14.0604 14.6051 10.8214 11.0565 21.8375 18.4057 7.60049 16.1849 8.8151 13.8932 14.3212 10.4133 11.7987 16.1236 12.3199 15.0348 14.9951 12.9133 14.141 16.0533 14.2168 15.2923 15.9268 14.9659 15.0604 15.7903 14.9483 15.2331 16.3791 15.9612 15.0747 15.2053 14.9139 14.8068 16.2059 16.0306 14.5243 14.3559 14.3792 14.0695 15.5375 15.471 13.6612 13.3542 13.5498 13.1483 14.563 14.545 12.6648 12.2894 12.5868 12.1472 13.4475 13.4547 11.646 11.2349 11.5913 11.1396 12.2957 12.3189 10.6663 10.2223 10.6268 10.1672 11.1798 11.2266 9.749 9.27517 9.71647 9.25889 10.1217 10.1876 8.9014 8.4068 8.87895 8.41834 9.14506 9.23408 8.1216 7.60893 8.11006 7.64767 8.24785 8.35853 7.41468 6.88311 7.40363 6.94875 7.41991 7.5647 6.76937 6.21866 6.76191 6.30358 6.67578 6.83654 6.17349 5.61634 6.16592 5.71775 5.98958 6.17407 5.62424 5.0626 5.62406 5.18047 5.36407 5.56743 5.11862 4.56241 5.12255 4.68493 4.80389 5.01771 4.64916 4.10572 4.65901 4.23136 4.29344 4.51281 4.20423 3.68002 4.21584 3.81213 3.83074 4.04622 3.78515 3.29303 3.80455 3.42267 3.39678 3.61687 3.38579 2.93209 3.41704 3.05638 2.99745 3.21212 3.00535 2.59896 3.04369 2.71687 2.64216 2.84097 2.6316 2.27328 2.67284 2.37384 2.29729 2.48599 2.28157 1.95961 2.32641 2.05215 1.97298 2.14601 1.92701 1.6661 1.98468 1.74349 1.66645 1.8169 1.57256 1.36869 1.63725 1.43424 1.35862 1.48661 1.22624 1.07226 1.30471 1.12756 1.05176 1.17387 0.893769 0.779688 0.974057 0.825894 0.767592 0.863395 0.552655 0.485226 0.642509 0.514062 0.46315 0.549476 0.207139 0.219857 0.293093 0.204032 0.187981 0.214164 5.02728 7.11854 3.4187 4.78622 7.88959 6.38616 11.469 12.9864 11.1876 12.5803 10.0306 9.37421 16.2055 15.1709 15.9713 15.44 13.4616 13.8008 17.8136 15.7016 17.6149 16.223 14.9194 15.6227 17.867 15.4382 17.7056 16.0576 15.2524 16.0463 17.1962 14.758 17.0782 15.3898 14.9218 15.6895 16.1784 13.8581 16.0997 14.4694 14.2041 14.9128 15.0191 12.8783 14.9677 13.4447 13.299 13.935 13.8398 11.8897 13.8146 12.412 12.3174 12.8944 12.7157 10.9446 12.7032 11.421 11.3471 11.8731 11.6648 10.0609 11.661 10.4948 10.4326 10.9127 10.7002 9.24926 10.7047 9.64232 9.58271 10.0265 9.82458 8.50989 9.83759 8.86978 8.79354 9.21013 9.02214 7.8282 9.04317 8.15936 8.07116 8.46524 8.29106 7.21035 8.31299 7.50738 7.41588 7.78507 7.61497 6.6328 7.63856 6.91176 6.81264 7.15846 6.98948 6.10135 7.01491 6.34502 6.25733 6.57994 6.40576 5.60345 6.43578 5.82808 5.73598 6.03414 5.85922 5.13545 5.89068 5.34489 5.25147 5.5305 5.34392 4.70083 5.37721 4.88513 4.79606 5.05561 4.85308 4.27755 4.89169 4.44119 4.35913 4.6055 4.38325 3.87661 4.42982 4.02396 3.94414 4.15908 3.92387 3.48553 3.97607 3.61971 3.53894 3.74678 3.48761 3.10732 3.54697 3.22404 3.1509 3.33369 3.05348 2.73178 3.12258 2.83018 2.77216 2.93044 2.62938 2.36552 2.70275 2.4533 2.40242 2.54355 2.22337 2.00653 2.30318 2.07779 2.02863 2.16012 1.81155 1.64689 1.89872 1.70666 1.66979 1.77622 1.41893 1.29551 1.50876 1.3429 1.31433 1.41091 1.04823 0.952587 1.1311 0.988793 0.974626 1.05538 0.671031 0.609096 0.755625 0.633656 0.61565 0.692504 0.251545 0.242626 0.357858 0.260874 0.239195 0.274965 18.0617 13.029 12.2455 12.2676 9.93011 11.0523 21.4115 19.9354 21.7054 20.6851 16.4206 17.3307 24.8396 21.7859 24.9383 23.0895 19.6056 20.8938 25.2744 21.5878 25.3471 23.0171 20.2396 21.6149 24.3388 20.5491 24.4306 21.9806 19.6901 21.0227 22.8645 19.1977 22.9838 20.5704 18.6248 19.8677 21.196 17.755 21.3303 19.0362 17.3531 18.4857 19.4925 16.3213 19.636 17.5054 16.0191 17.048 17.8385 14.9647 17.9881 16.0292 14.7182 15.6495 16.2915 13.6972 16.4343 14.6596 13.5013 14.331 14.8523 12.5346 14.9939 13.3868 12.3687 13.1194 13.54 11.4721 13.6791 12.2312 11.3339 12.0025 12.3366 10.5067 12.4646 11.1748 10.3929 10.9889 11.2416 9.61621 11.3624 10.2128 9.52826 10.074 10.2381 8.80319 10.3524 9.32033 8.73794 9.22209 9.30736 8.04974 9.41455 8.51054 8.00966 8.44 8.45321 7.35508 8.55686 7.75364 7.33509 7.71718 7.65815 6.70653 7.76283 7.05288 6.70503 7.05118 6.92629 6.1028 7.02758 6.39328 6.12288 6.42418 6.24142 5.53417 6.33587 5.79145 5.56223 5.83278 5.59668 4.99205 5.69663 5.20933 5.02925 5.27288 4.99654 4.48399 5.09518 4.66844 4.53173 4.74124 4.41586 3.99475 4.50808 4.1459 4.04841 4.23097 3.87778 3.52642 3.97032 3.6548 3.5795 3.74603 3.35903 3.07414 3.45229 3.1798 3.1354 3.27718 2.86813 2.63633 2.96438 2.72552 2.69701 2.81837 2.38938 2.2136 2.48623 2.27778 2.2712 2.37463 1.9272 1.80341 2.03009 1.86484 1.85263 1.94011 1.49324 1.40171 1.58716 1.44644 1.44583 1.52617 1.07562 1.02474 1.1684 1.05106 1.06494 1.12932 0.674482 0.646829 0.764061 0.669243 0.685542 0.74155 0.260886 0.268791 0.349473 0.301613 0.263846 0.29484 34.0993 24.7812 24.1033 23.7711 23.9642 24.7762 33.5045 30.9375 34.7078 32.2214 26.9798 28.0566 34.9489 31.3326 35.6385 33.2457 28.7979 30.1931 34.0644 29.9876 34.5371 31.8986 28.2913 29.7565 32.2556 28.0666 32.6427 29.9095 26.8239 28.2528 30.0875 25.9845 30.45 27.7383 25.0011 26.3626 27.7862 23.8896 28.1476 25.5462 23.0791 24.3374 25.4805 21.8578 25.8338 23.3937 21.1676 22.3247 23.2552 19.9377 23.5922 21.3446 19.339 20.3824 21.146 18.1501 21.4757 19.4189 17.6221 18.5676 19.1888 16.4963 19.4979 17.6399 16.0343 16.8785 17.3754 14.9766 17.6681 15.9965 14.5806 15.335 15.7103 13.5859 15.9805 14.4862 13.2425 13.9157 14.1785 12.3048 14.4335 13.1085 12.0216 12.6157 12.7715 11.1315 13.0106 11.8295 10.9073 11.4288 11.4848 10.0519 11.7052 10.663 9.87252 10.3317 10.2935 9.05312 10.4991 9.58517 8.92461 9.3294 9.20187 8.13526 9.40074 8.59656 8.04594 8.40038 8.19916 7.28392 8.37698 7.67711 7.22764 7.53553 7.27388 6.49452 7.43792 6.83204 6.47665 6.74385 6.41571 5.76794 6.56768 6.04497 5.77146 6.00075 5.62524 5.08687 5.76994 5.3202 5.12266 5.31369 4.89447 4.45186 5.02432 4.64097 4.49359 4.66477 4.20537 3.8593 4.33689 4.00856 3.91586 4.06364 3.58345 3.31344 3.70148 3.42721 3.37627 3.49463 2.9961 2.78563 3.11626 2.8831 2.86321 2.96324 2.45269 2.30253 2.56627 2.37526 2.37236 2.45677 1.93846 1.84128 2.04607 1.89715 1.91435 1.9765 1.46126 1.39954 1.56928 1.44103 1.46597 1.52472 1.01246 0.992793 1.11966 1.01688 1.04245 1.09218 0.588578 0.60247 0.696646 0.622078 0.647573 0.684998 0.235753 0.281197 0.31038 0.299505 0.27353 0.285859 53.613 39.5244 39.1647 38.6237 40.3979 41.2998 47.1892 43.6993 49.7822 45.6845 39.4933 40.5104 45.4965 41.7348 46.8755 44.1467 39.0451 40.3366 43.3375 39.1748 44.1922 41.384 37.2663 38.6764 40.8497 36.4774 41.5073 38.5835 35.003 36.426 38.0913 33.731 38.6869 35.7566 32.5251 33.9022 35.1847 30.9976 35.7557 32.917 29.9671 31.2607 32.2495 28.333 32.8059 30.1309 27.4367 28.6306 29.3873 25.7955 29.924 27.4415 25.0055 26.0889 26.6689 23.3994 27.1703 24.9109 22.7031 23.6834 24.1121 21.1789 24.5845 22.5359 20.5637 21.4414 21.738 19.1152 22.1841 20.3431 18.5812 19.3613 19.5499 17.2191 19.9663 18.3162 16.7596 17.4472 17.5283 15.4711 17.9163 16.4463 15.0798 15.6902 15.6762 13.8648 16.029 14.7283 13.5369 14.0733 13.9702 12.3812 14.3049 13.1451 12.1208 12.5912 12.4055 11.0259 12.7084 11.6967 10.816 11.2233 10.9569 9.78029 11.2485 10.3554 9.62223 9.97009 9.63877 8.6301 9.91044 9.12292 8.51991 8.81531 8.43071 7.57287 8.66989 7.99927 7.50625 7.7619 7.31265 6.60036 7.53954 6.95827 6.5761 6.78645 6.29372 5.70771 6.50085 6.00747 5.72067 5.8922 5.35925 4.88816 5.55336 5.13597 4.92864 5.07396 4.50857 4.14669 4.68552 4.33929 4.2049 4.31346 3.73759 3.46067 3.89805 3.61608 3.54057 3.63223 3.04246 2.84588 3.19147 2.96046 2.92984 3.00413 2.41015 2.28384 2.54476 2.36473 2.37206 2.43314 1.85155 1.77418 1.96728 1.82791 1.85945 1.90629 1.34402 1.305 1.45208 1.35201 1.37549 1.41124 0.882819 0.873377 0.988751 0.913013 0.939645 0.967857 0.469307 0.510769 0.568793 0.52176 0.539087 0.554184 0.192578 0.269025 0.24253 0.257309 0.241002 0.228319 85.9747 59.6687 67.6642 64.5837 61.3264 62.085 60.2053 56.4347 63.5419 59.0499 52.8763 53.4808 55.8502 51.9279 57.2476 54.4599 49.3948 50.5346 53.1609 48.6554 54.0718 51.0671 46.6399 48.0205 50.1822 45.449 50.99 47.8329 43.7926 45.2372 46.8187 42.1178 47.6232 44.4298 40.7295 42.1494 43.2242 38.7224 44.0331 40.9285 37.5422 38.8804 39.5768 35.3837 40.3765 37.4432 34.3467 35.576 36.0142 32.1669 36.7852 34.0662 31.2567 32.3755 32.605 29.1229 33.3382 30.8507 28.3205 29.328 29.4106 26.2759 30.0999 27.8405 25.5684 26.4556 26.4456 23.6334 27.0789 25.048 23.0098 23.8047 23.694 21.2001 24.2978 22.4705 20.6541 21.3582 21.1575 18.9555 21.7197 20.0916 18.4765 19.0935 18.8356 16.8841 19.3566 17.8952 16.482 17.0192 16.6957 14.9858 17.1738 15.8816 14.6463 15.1112 14.7285 13.2338 15.1787 14.0313 12.9536 13.3587 12.9261 11.6292 13.3383 12.3243 11.403 11.7465 11.2641 10.1504 11.643 10.7578 9.97584 10.2697 9.73951 8.79213 10.0978 9.3206 8.67519 8.91664 8.34455 7.55071 8.66817 7.99109 7.47096 7.67461 7.07785 6.41556 7.38046 6.80023 6.37704 6.53867 5.91582 5.38094 6.17599 5.7028 5.3829 5.50608 4.86093 4.45185 5.11191 4.70653 4.46791 4.56632 3.92543 3.60156 4.13815 3.80454 3.65425 3.72559 3.08113 2.85222 3.27892 3.00933 2.92925 2.97464 2.32978 2.18577 2.50785 2.29395 2.27154 2.3048 1.68892 1.60903 1.84051 1.6763 1.70407 1.7199 1.12876 1.10416 1.25989 1.15649 1.19493 1.2089 0.674352 0.699197 0.784419 0.713205 0.763624 0.76789 0.335356 0.374096 0.42083 0.395018 0.395505 0.397005 0.15242 0.187649 0.200733 0.188742 0.167681 0.147392 29.7877 48.8413 24.6117 33.6754 54.4115 52.2182 39.5664 45.4935 39.0798 43.3486 49.4771 46.7158 36.6494 43.0106 37.6824 40.8506 46.504 43.0151 32.8908 39.3998 34.0966 37.5297 42.0836 38.9232 29.8562 35.4078 30.9568 33.9518 37.574 34.9924 27.1004 31.5545 28.0625 30.4339 33.424 31.3718 24.5219 28.0459 25.3262 27.162 29.7523 28.1133 22.1154 24.9288 22.778 24.2074 26.5195 25.1902 19.8808 22.1609 20.4269 21.5589 23.6703 22.5616 17.8091 19.6911 18.2721 19.1841 21.1044 20.1569 15.8925 17.4689 16.292 17.0363 18.7735 17.9615 14.1254 15.4488 14.4818 15.0883 16.6343 15.9364 12.5 13.5934 12.8059 13.3028 14.6888 14.0776 10.9965 11.9149 11.2756 11.6748 12.8887 12.3546 9.6168 10.3722 9.86821 10.1816 11.2328 10.7738 8.35336 8.95189 8.5757 8.80883 9.71355 9.32331 7.19524 7.66168 7.39407 7.56248 8.3275 7.99831 6.14006 6.48386 6.32364 6.42503 7.05484 6.78815 5.19213 5.41795 5.34546 5.38724 5.90976 5.6865 4.33455 4.46057 4.469 4.46213 4.8683 4.69996 3.55726 3.59828 3.6777 3.62686 3.93159 3.80317 2.88183 2.83118 2.98641 2.88911 3.11134 3.02332 2.28361 2.16895 2.37147 2.24031 2.37237 2.32523 1.77466 1.59731 1.84321 1.67992 1.73536 1.72505 1.34406 1.12135 1.39754 1.21098 1.20236 1.22092 0.998224 0.745628 1.04509 0.836765 0.762648 0.8119 0.729017 0.473152 0.763096 0.55785 0.418143 0.501681 0.525778 0.333374 0.560887 0.375993 0.209432 0.312008 0.377927 0.296509 0.424452 0.293674 0.18129 0.249191 0.254137 0.267995 0.310282 0.243095 0.216464 0.231685 0.142364 0.191948 0.196595 0.170354 0.192835 0.189001 0.0966966 0.10125 0.11223 0.101833 0.0849658 0.0902821 16.12 22.5654 13.6444 17.0824 24.4516 23.212 23.3607 29.7697 23.0431 26.9776 32.6536 30.0415 23.3954 28.9042 23.7265 26.9165 31.1085 28.3794 21.6135 26.5457 22.3687 25.0662 28.2359 25.779 20.1095 24.214 20.7992 23.0077 25.7934 23.7778 18.685 21.9643 19.2258 20.9678 23.5129 21.9195 17.2357 19.8142 17.6567 18.9901 21.3334 20.0732 15.7751 17.8007 16.1028 17.1197 19.2698 18.257 14.337 15.9508 14.6043 15.3777 17.339 16.5056 12.9656 14.2518 13.1802 13.7758 15.5439 14.8478 11.6727 12.7045 11.8564 12.3095 13.8847 13.3037 10.4662 11.2914 10.6286 10.9663 12.3535 11.8652 9.35219 9.99662 9.49531 9.73263 10.9479 10.5396 8.33133 8.81783 8.45271 8.61407 9.65521 9.31446 7.39648 7.73935 7.50313 7.588 8.46891 8.19888 6.54178 6.7564 6.64245 6.65692 7.38425 7.17119 5.76445 5.86717 5.85102 5.80646 6.39625 6.24455 5.06553 5.06462 5.1418 5.04135 5.49746 5.40025 4.4266 4.33542 4.4964 4.34723 4.69141 4.64242 3.85947 3.69369 3.92545 3.73356 3.96511 3.95924 3.35201 3.11726 3.40972 3.18477 3.31759 3.35266 2.90593 2.62342 2.95531 2.71054 2.75765 2.82841 2.50305 2.19343 2.54359 2.28731 2.26588 2.36703 2.14613 1.83111 2.18873 1.9235 1.85019 1.9721 1.8317 1.51603 1.87328 1.61273 1.49664 1.63691 1.54148 1.25673 1.59005 1.34945 1.20632 1.34635 1.28926 1.03923 1.33358 1.11679 0.972851 1.10654 1.03749 0.844737 1.0944 0.90273 0.770958 0.893357 0.79689 0.657263 0.859605 0.703841 0.592334 0.696168 0.558037 0.473953 0.62921 0.499651 0.410476 0.497611 0.306107 0.273943 0.384212 0.285092 0.223057 0.287965 0.117449 0.156448 0.162448 0.118103 0.109675 0.158121 7.69001 12.2706 6.36301 9.10336 13.0284 12.408 14.0381 18.482 13.8847 16.4662 19.227 17.338 15.92 19.1171 16.3279 17.9806 19.9583 18.0953 15.639 18.0592 16.1377 17.2689 18.7973 17.3404 15.0319 16.7143 15.3983 16.0942 17.547 16.4844 14.2492 15.3625 14.4966 14.8631 16.315 15.5448 13.3303 14.0391 13.4908 13.6415 15.0624 14.5008 12.3497 12.7737 12.4528 12.4588 13.8083 13.3869 11.3608 11.5895 11.4284 11.3431 12.5799 12.2664 10.4133 10.4939 10.4596 10.306 11.412 11.1772 9.51452 9.49162 9.55517 9.35136 10.3225 10.1472 8.68568 8.57993 8.71645 8.48346 9.31081 9.19466 7.92371 7.74546 7.95787 7.68934 8.37898 8.31099 7.23586 6.98938 7.26428 6.96935 7.53442 7.50536 6.59736 6.30234 6.62305 6.3113 6.75908 6.77352 6.01983 5.68278 6.04521 5.71966 6.05156 6.10173 5.4895 5.11423 5.51802 5.17416 5.40859 5.49455 4.99505 4.60221 5.02668 4.68394 4.83136 4.94165 4.54784 4.13282 4.58013 4.23081 4.30204 4.43986 4.12628 3.71064 4.16083 3.8171 3.83097 3.98255 3.73027 3.32738 3.76832 3.43226 3.40023 3.56484 3.36168 2.97459 3.40046 3.08535 3.01019 3.17868 3.00862 2.64887 3.05788 2.75183 2.655 2.82336 2.67777 2.34723 2.72804 2.4431 2.3294 2.49874 2.34652 2.06064 2.40519 2.1517 2.02981 2.18575 2.02722 1.78329 2.09336 1.85936 1.7484 1.88872 1.71499 1.51454 1.78549 1.57876 1.48412 1.60759 1.40717 1.24237 1.47633 1.30249 1.20994 1.3216 1.09585 0.977377 1.16919 1.01987 0.940683 1.03724 0.79101 0.709007 0.870551 0.741405 0.675338 0.757714 0.474809 0.43833 0.564676 0.458773 0.409453 0.474862 0.164992 0.209248 0.246529 0.187569 0.183586 0.21314 5.64147 8.98365 3.02363 6.66637 7.1322 6.78996 14.999 15.614 14.5955 15.1736 13.9101 13.4871 17.641 16.9516 18.0462 17.3458 15.7459 15.5126 17.671 16.3414 18.1326 16.9555 15.5725 15.6459 16.914 15.2506 17.2445 15.8733 14.8674 15.1385 15.8671 14.0744 16.0948 14.6696 13.9644 14.3386 14.7263 12.929 14.8788 13.4852 12.9861 13.4032 13.5807 11.852 13.6945 12.3694 11.9952 12.4253 12.4796 10.8598 12.5696 11.3335 11.0414 11.4512 11.4572 9.95854 11.5252 10.3943 10.1481 10.5352 10.5112 9.13984 10.5817 9.53825 9.30931 9.6836 9.65549 8.40635 9.71074 8.76868 8.55096 8.90535 8.87561 7.73387 8.93222 8.06915 7.85215 8.18792 8.15816 7.12371 8.21796 7.42891 7.21966 7.54251 7.50485 6.57011 7.56057 6.84681 6.63725 6.94234 6.90365 6.05449 6.96252 6.30721 6.09681 6.38898 6.33947 5.57386 6.39718 5.80682 5.6022 5.87641 5.81167 5.12077 5.87467 5.33574 5.13824 5.40075 5.32205 4.70424 5.3796 4.88947 4.70722 4.95417 4.85465 4.31102 4.91657 4.48245 4.30502 4.53381 4.41094 3.92826 4.47336 4.08133 3.92392 4.1315 3.98227 3.56122 4.04996 3.6962 3.55034 3.7454 3.56904 3.211 3.64361 3.32779 3.19766 3.37004 3.1709 2.85881 3.24178 2.96192 2.85424 3.01178 2.77665 2.51862 2.85004 2.60615 2.50786 2.65346 2.40348 2.18792 2.4845 2.26125 2.16869 2.29891 2.01754 1.85368 2.10744 1.91369 1.84162 1.95437 1.64753 1.52414 1.74002 1.58059 1.51387 1.60973 1.28696 1.19692 1.3695 1.2392 1.19289 1.27296 0.936773 0.876651 1.02791 0.909421 0.869898 0.940511 0.576622 0.555741 0.669759 0.575265 0.54159 0.60733 0.206753 0.220312 0.307235 0.235372 0.217621 0.242206 13.3647 13.6641 9.9479 12.0544 10.3142 11.4707 23.7592 21.3979 23.0116 21.9288 18.6115 19.5389 25.8996 22.7722 26.2737 24.2281 20.5206 21.4687 25.1056 21.747 25.6975 23.3663 20.0489 21.0892 23.5414 20.1224 24.0473 21.6625 18.8713 19.9563 21.7883 18.4466 22.1922 19.8671 17.4986 18.5758 20.0331 16.8609 20.3651 18.1629 16.1161 17.1467 18.3463 15.4031 18.6329 16.5821 14.7876 15.7436 16.7598 14.0678 17.0119 15.1349 13.5487 14.4274 15.2947 12.8561 15.519 13.8148 12.4106 13.2075 13.9385 11.7636 14.1518 12.613 11.3685 12.0926 12.7053 10.7655 12.9027 11.5244 10.4227 11.0724 11.5857 9.85728 11.7657 10.5314 9.56027 10.1431 10.5451 9.02824 10.7155 9.62482 8.77061 9.28929 9.59982 8.26789 9.76006 8.78907 8.05103 8.51326 8.73002 7.56632 8.87882 8.01869 7.38334 7.79444 7.92378 6.91426 8.06716 7.30571 6.75942 7.12671 7.17771 6.30554 7.30877 6.63958 6.17903 6.50431 6.47654 5.72819 6.60757 6.02245 5.63655 5.92302 5.83106 5.19803 5.95242 5.44078 5.13007 5.37825 5.22336 4.68673 5.34236 4.89314 4.64281 4.85786 4.64799 4.2058 4.7634 4.37886 4.1728 4.36657 4.11082 3.74581 4.21953 3.89454 3.72858 3.90081 3.59043 3.29955 3.71116 3.42462 3.29433 3.4428 3.10248 2.8775 3.21515 2.97661 2.87776 3.00729 2.65038 2.46575 2.75332 2.53812 2.47555 2.58517 2.1991 2.06827 2.29671 2.127 2.0873 2.17906 1.77212 1.6839 1.87353 1.73412 1.70308 1.77618 1.36246 1.30718 1.4657 1.34372 1.32371 1.38564 0.966211 0.943479 1.07501 0.971307 0.9679 1.02115 0.592436 0.592736 0.681143 0.616026 0.611161 0.651714 0.236014 0.24907 0.316669 0.281349 0.24338 0.264368 23.9298 22.5131 19.4634 21.071 19.0397 21.146 35.6432 31.4742 34.8681 32.513 28.5999 30.0852 36.3824 32.1964 36.9059 34.1642 29.7678 31.0605 34.3148 30.2699 35.1219 32.3416 28.2947 29.5911 31.852 27.8483 32.5686 29.8138 26.2708 27.576 29.3734 25.4751 29.9856 27.3047 24.1714 25.4531 26.9578 23.2541 27.494 24.9419 22.1519 23.365 24.6379 21.1898 25.1213 22.739 20.2339 21.3607 22.4496 19.2877 22.8905 20.6989 18.4485 19.4787 20.403 17.5384 20.8033 18.8145 16.8022 17.7345 18.5073 15.9343 18.8797 17.077 15.2804 16.1231 16.7519 14.4669 17.1021 15.4826 13.886 14.6413 15.1446 13.1137 15.4695 14.0223 12.6173 13.2868 13.6649 11.8772 13.9641 12.6809 11.4464 12.0393 12.3045 10.7404 12.5854 11.4484 10.3741 10.892 11.0563 9.69386 11.315 10.3091 9.38796 9.84264 9.90487 8.72382 10.1439 9.26836 8.47862 8.87565 8.83888 7.83263 9.06448 8.29473 7.63175 7.97987 7.86026 7.00656 8.0705 7.39735 6.85267 7.14533 6.95415 6.24283 7.15121 6.57502 6.12232 6.37747 6.12014 5.52843 6.30116 5.80418 5.45192 5.66503 5.34593 4.86171 5.51293 5.09505 4.81775 5.00329 4.62969 4.24259 4.78762 4.43666 4.23164 4.38778 3.96997 3.67284 4.12083 3.82535 3.66918 3.79632 3.36566 3.13798 3.50269 3.25691 3.15439 3.26017 2.79186 2.64203 2.93077 2.72682 2.66655 2.75084 2.2774 2.1705 2.40248 2.23874 2.20252 2.27427 1.79537 1.71723 1.9079 1.78079 1.75506 1.82378 1.33787 1.31338 1.45148 1.34433 1.3474 1.39467 0.917018 0.923439 1.02087 0.941907 0.949974 0.990538 0.532383 0.564377 0.636798 0.578024 0.583713 0.609377 0.244354 0.287417 0.298375 0.297044 0.268941 0.270846 39.091 34.8875 34.0036 34.4252 30.8064 33.8251 49.3121 43.6645 49.2618 45.3531 40.9517 42.663 47.3171 42.6427 48.1713 44.9568 40.3681 41.7014 43.9658 39.6224 44.9366 41.9189 37.6442 38.9789 40.7819 36.4723 41.6546 38.6732 34.7848 36.148 37.67 33.4514 38.4538 35.5394 32 33.3416 34.6089 30.5833 35.33 32.5364 29.3212 30.598 31.6346 27.8767 32.3056 29.6849 26.7651 27.9549 28.7899 25.3348 29.4156 26.9951 24.3552 25.4441 26.1091 22.9719 26.6919 24.4834 22.1047 23.0855 23.6091 20.782 24.151 22.1464 20.014 20.8985 21.2885 18.7602 21.7891 19.9888 18.0824 18.8654 19.1417 16.9018 19.6095 17.9976 16.3063 17.0056 17.1685 15.186 17.6033 16.1651 14.6681 15.284 15.3487 13.6055 15.7496 14.472 13.1676 13.7017 13.6749 12.1542 14.0458 12.9202 11.7849 12.2488 12.1338 10.8098 12.4803 11.4836 10.5093 10.9109 10.7155 9.58687 11.0398 10.1674 9.32985 9.67861 9.41242 8.44832 9.71211 8.95429 8.25184 8.5458 8.21231 7.40539 8.48805 7.83668 7.25578 7.50447 7.11634 6.44097 7.36743 6.8068 6.3447 6.54722 6.10422 5.5591 6.33976 5.85954 5.49503 5.66231 5.18308 4.74464 5.39717 4.99663 4.72532 4.85655 4.33555 4.0096 4.53805 4.2154 4.00769 4.12028 3.5829 3.33116 3.76761 3.49537 3.36151 3.44453 2.89407 2.73096 3.05553 2.84828 2.76065 2.82766 2.27125 2.1733 2.42634 2.25943 2.22005 2.26856 1.72266 1.67974 1.86023 1.74147 1.73218 1.76819 1.24313 1.232 1.36166 1.27172 1.27691 1.30686 0.809873 0.820807 0.917786 0.854794 0.863073 0.876582 0.442003 0.478133 0.53677 0.492092 0.497692 0.509621 0.214148 0.265643 0.24978 0.259425 0.251776 0.253193 66.4819 53.507 63.6138 59.428 48.3161 52.1112 61.1167 55.9614 64.0987 58.2744 54.0682 55.558 57.4396 52.6443 58.2793 54.982 50.8343 52.1299 53.7783 49.0708 54.6428 51.4795 47.2106 48.5895 50.1989 45.5015 51.123 47.9259 43.7881 45.2111 46.5177 41.9359 47.4496 44.2755 40.4177 41.8191 42.7851 38.4292 43.697 40.6446 37.0964 38.4254 39.108 35.0469 39.9807 37.1048 33.865 35.1025 35.5595 31.8302 36.3888 33.7286 30.787 31.9141 32.2003 28.8153 32.9825 30.5393 27.8863 28.9023 29.0527 26.0026 29.7846 27.564 25.1839 26.0889 26.1282 23.3963 26.8144 24.8109 22.6684 23.4743 23.4283 20.99 24.0571 22.2582 20.3527 21.0666 20.9344 18.7757 21.5268 19.907 18.2134 18.8417 18.6414 16.7273 19.1883 17.7451 16.2487 16.7974 16.5243 14.8453 17.0286 15.7463 14.4356 14.9142 14.5852 13.1124 15.0436 13.9179 12.7669 13.1763 12.7942 11.5252 13.2309 12.2261 11.2333 11.5884 11.1518 10.0526 11.5594 10.6691 9.82043 10.1162 9.6398 8.70293 10.0052 9.24086 8.52809 8.77285 8.25351 7.46949 8.59551 7.92563 7.33891 7.54322 6.9979 6.34075 7.31228 6.73346 6.24912 6.41635 5.8379 5.30512 6.12426 5.63556 5.26139 5.39049 4.78832 4.37249 5.05803 4.64964 4.35134 4.45149 3.8472 3.54735 4.09253 3.75219 3.5517 3.61699 3.01115 2.79157 3.22473 2.95274 2.82147 2.87053 2.26483 2.12518 2.45854 2.25105 2.17434 2.20279 1.62618 1.56187 1.79764 1.63314 1.61318 1.62338 1.07071 1.06429 1.21776 1.11262 1.12292 1.12545 0.629896 0.672907 0.761738 0.695286 0.713369 0.709927 0.33264 0.358144 0.419453 0.388984 0.37359 0.372187 0.17561 0.184347 0.217563 0.194417 0.181799 0.165487 27.4246 49.9333 21.283 32.5098 55.8435 53.5298 38.976 44.6326 38.2436 42.9765 47.2802 45.7778 37.8462 43.0127 38.6795 41.0553 46.5238 44.0936 35.0868 40.2484 35.8905 38.497 43.5883 41.0853 31.9484 36.584 32.8171 35.2284 39.3823 37.17 28.7276 32.6682 29.6184 31.6349 35.0013 33.1244 25.6487 28.9295 26.4734 28.1152 30.9519 29.3678 22.8137 25.5587 23.5341 24.8843 27.3581 26.0202 20.269 22.5809 20.8841 22.0002 24.2083 23.0651 17.9926 19.9444 18.5135 19.4474 21.4322 20.4502 15.953 17.6133 16.3937 17.1818 18.9709 18.1195 14.1097 15.5214 14.4943 15.1563 16.7413 16.0058 12.4345 13.6332 12.7734 13.3269 14.7338 14.0887 10.9125 11.9209 11.2091 11.6683 12.9023 12.3451 9.52172 10.3531 9.79024 10.1566 11.2302 10.7488 8.25197 8.92638 8.48921 8.77582 9.70098 9.2871 7.08988 7.6292 7.30617 7.52218 8.30701 7.9586 6.03211 6.45447 6.23156 6.38232 7.03531 6.74038 5.07893 5.38012 5.25133 5.34538 5.87775 5.63738 4.21735 4.41276 4.37052 4.41182 4.82909 4.64162 3.45111 3.55404 3.58141 3.57015 3.90347 3.75729 2.77223 2.78948 2.89024 2.838 3.0714 2.9684 2.17422 2.12122 2.27143 2.1797 2.33409 2.26743 1.66175 1.54901 1.74773 1.63034 1.6938 1.66496 1.23789 1.07893 1.30314 1.16102 1.15862 1.16331 0.903767 0.700736 0.959481 0.792874 0.724452 0.760428 0.642218 0.43316 0.692031 0.51396 0.383447 0.450345 0.457589 0.30767 0.49575 0.35004 0.183659 0.27657 0.333734 0.269736 0.378541 0.266422 0.186815 0.235926 0.233299 0.263161 0.282124 0.226052 0.222668 0.230658 0.131766 0.185505 0.182527 0.166136 0.182974 0.17548 0.102295 0.0872341 0.10833 0.0963622 0.0779623 0.0819381 13.6874 21.6562 10.4768 15.4191 22.5935 20.3407 23.4764 29.7028 22.5735 26.8745 32.3641 30.2384 24.8394 29.7818 25.0284 27.8329 32.2819 30.2297 23.5784 27.7383 24.1163 26.2896 30.0434 28.0497 21.6815 25.3686 22.2931 24.179 27.4794 25.6406 19.6835 22.8797 20.2708 21.8988 24.7992 23.1968 17.74 20.4351 18.2534 19.6169 22.195 20.8344 15.9159 18.1632 16.3502 17.4719 19.7676 18.6237 14.2463 16.1115 14.611 15.5272 17.5795 16.6132 12.7332 14.2861 13.0357 13.78 15.6113 14.7942 11.3649 12.6537 11.6219 12.2236 13.8481 13.1554 10.1296 11.1929 10.3469 10.8317 12.26 11.6722 9.00895 9.87598 9.19837 9.57411 10.8164 10.3191 7.99093 8.67846 8.15217 8.44501 9.50982 9.08905 7.06061 7.6002 7.20984 7.41476 8.31778 7.97112 6.22101 6.6168 6.35643 6.48268 7.23223 6.95235 5.45924 5.72638 5.57358 5.63288 6.24273 6.02773 4.76829 4.92724 4.87186 4.87614 5.34443 5.18243 4.15093 4.2029 4.24381 4.18618 4.54061 4.4318 3.5975 3.56071 3.68628 3.57446 3.81348 3.75808 3.10464 2.99341 3.18092 3.0327 3.17896 3.15863 2.67153 2.50457 2.73639 2.56455 2.61855 2.63718 2.28767 2.07104 2.34852 2.1547 2.1299 2.19222 1.95365 1.71502 2.01331 1.80468 1.71764 1.80987 1.65949 1.41907 1.71581 1.50505 1.38427 1.48626 1.3979 1.17172 1.45239 1.25222 1.10426 1.21837 1.16448 0.965469 1.21966 1.03435 0.88237 0.995138 0.939542 0.789289 0.997745 0.838911 0.703976 0.803876 0.717088 0.616963 0.782225 0.650906 0.542004 0.627221 0.49871 0.442371 0.56816 0.461582 0.374336 0.448692 0.271546 0.262661 0.345519 0.265062 0.199349 0.262152 0.0968997 0.147943 0.13958 0.112337 0.103356 0.140776 7.28573 12.0615 4.95656 8.52991 11.8829 11.0415 15.5974 19.1261 14.8979 17.1865 19.7663 18.4548 17.7113 20.193 18.0252 19.1598 21.3423 19.9569 17.038 19.0797 17.5511 18.3442 20.3375 19.0317 15.7307 17.4553 16.1985 16.8358 18.6862 17.5386 14.3589 15.764 14.7437 15.2344 16.9601 15.9888 13.045 14.1537 13.3481 13.7091 15.2972 14.495 11.8269 12.6801 12.0615 12.3059 13.7473 13.0985 10.7224 11.3564 10.897 11.0444 12.3402 11.8152 9.72549 10.1817 9.86306 9.93245 11.0659 10.6501 8.83283 9.14228 8.94137 8.94634 9.9254 9.59653 8.02988 8.22367 8.12136 8.07111 8.8995 8.6454 7.3112 7.39458 7.39545 7.28988 7.97236 7.7834 6.65875 6.65234 6.73 6.58712 7.14028 7.00596 6.06811 5.99095 6.13831 5.95623 6.37571 6.3004 5.52712 5.38322 5.59417 5.38383 5.69061 5.65768 5.03793 4.83691 5.09729 4.86411 5.07165 5.08151 4.58369 4.34314 4.64686 4.3885 4.5123 4.55524 4.16345 3.89805 4.23145 3.96301 4.00909 4.07786 3.78427 3.49474 3.83699 3.57321 3.55402 3.65089 3.42079 3.12272 3.47933 3.21603 3.14951 3.26166 3.08652 2.79697 3.14363 2.88709 2.78444 2.90745 2.76772 2.48686 2.83124 2.58572 2.44968 2.58191 2.45646 2.20291 2.52644 2.28853 2.14873 2.28273 2.1678 1.93441 2.22919 2.01151 1.87393 2.00561 1.86817 1.67847 1.94841 1.74162 1.61362 1.73144 1.57914 1.42939 1.65536 1.48607 1.36321 1.47436 1.29763 1.17165 1.37366 1.21949 1.11698 1.21573 1.00921 0.918421 1.09565 0.958476 0.867116 0.952852 0.720431 0.670221 0.808386 0.698711 0.623883 0.699141 0.432099 0.407366 0.524791 0.427588 0.367167 0.427652 0.143659 0.186186 0.219438 0.168641 0.158886 0.196034 7.29286 9.97093 4.3593 7.63578 8.06923 8.0154 16.6869 16.7793 15.9389 16.3575 15.5633 15.5404 19.0982 18.0038 19.4483 18.4671 17.2617 17.1922 18.4013 16.9774 18.9782 17.6549 16.5332 16.5174 16.9321 15.4384 17.4378 16.0884 15.1984 15.2668 15.4258 13.9247 15.8119 14.5106 13.8238 13.9633 14.0309 12.5618 14.3221 13.0868 12.5403 12.7392 12.7806 11.361 12.999 11.8451 11.3838 11.6165 11.6569 10.317 11.8355 10.7544 10.3594 10.6029 10.6557 9.40801 10.8038 9.80987 9.4424 9.69735 9.76554 8.61268 9.89099 8.98227 8.63448 8.89309 8.96214 7.90591 9.07385 8.24584 7.91015 8.16956 8.24264 7.27248 8.34825 7.58727 7.25042 7.51209 7.58395 6.70352 7.68466 6.99111 6.66936 6.91899 6.98212 6.18474 7.07516 6.44363 6.1342 6.37737 6.42176 5.70302 6.51778 5.9432 5.63994 5.87875 5.90606 5.25566 6.00247 5.47121 5.18739 5.41328 5.42125 4.83445 5.51247 5.04135 4.76304 4.97445 4.95988 4.44562 5.05219 4.62462 4.36598 4.56971 4.53425 4.06889 4.61786 4.23059 4.00102 4.18759 4.12066 3.71716 4.20755 3.85981 3.63991 3.81862 3.72333 3.37306 3.81184 3.50127 3.29727 3.46338 3.34054 3.04294 3.41872 3.15083 2.97694 3.12635 2.96527 2.71112 3.0592 2.81061 2.64772 2.79426 2.59523 2.39339 2.69151 2.46947 2.34257 2.46672 2.2336 2.08412 2.32819 2.14908 2.02969 2.1394 1.88636 1.75755 1.97875 1.82279 1.72159 1.821 1.53427 1.45032 1.63533 1.49746 1.41354 1.49997 1.19608 1.13919 1.29282 1.17588 1.10722 1.18676 0.86126 0.830609 0.957398 0.857284 0.81037 0.869183 0.525155 0.519588 0.621581 0.537009 0.497502 0.555151 0.186607 0.189817 0.281771 0.21168 0.187164 0.213037 13.2334 14.1939 9.7593 12.376 11.2461 12.093 24.2115 22.0025 23.1204 22.3934 19.7211 20.7123 26.7748 23.4521 27.0443 24.8958 21.5818 22.5453 25.5931 22.1123 26.249 23.7949 20.5456 21.5142 23.4985 20.1155 24.1403 21.7238 18.8087 19.7843 21.3921 18.1656 21.924 19.6291 17.0755 18.0345 19.455 16.4312 19.8879 17.7539 15.5027 16.4211 17.6947 14.9047 18.0569 16.0896 14.0951 14.9617 16.1023 13.5633 16.4211 14.6316 12.8472 13.6463 14.6674 12.3723 14.9474 13.3267 11.7365 12.4666 13.359 11.3064 13.6166 12.1567 10.7377 11.4065 12.1742 10.3453 12.4113 11.1024 9.84168 10.4385 11.0961 9.47418 11.311 10.1429 9.03217 9.56594 10.1086 8.68451 10.307 9.27172 8.29101 8.77119 9.20106 7.95316 9.38841 8.47327 7.60645 8.03453 8.35988 7.27587 8.5406 7.72572 6.97865 7.36272 7.5881 6.64871 7.75416 7.04234 6.39548 6.73234 6.86474 6.06523 7.0307 6.40457 5.85047 6.14306 6.19902 5.51187 6.34558 5.80527 5.33421 5.59382 5.57449 4.99576 5.71537 5.24253 4.85162 5.07851 4.98573 4.5063 5.12271 4.71193 4.39077 4.58801 4.43116 4.04361 4.55886 4.21418 3.95002 4.12405 3.91685 3.60286 4.03787 3.73902 3.53622 3.67908 3.42587 3.17178 3.54272 3.28704 3.12091 3.24845 2.9519 2.7615 3.06845 2.85532 2.728 2.83424 2.50574 2.36817 2.62532 2.43882 2.34757 2.4348 2.07412 1.98218 2.19215 2.03855 1.96601 2.04663 1.66933 1.60808 1.77938 1.65063 1.59795 1.66538 1.27574 1.24478 1.38615 1.28137 1.24336 1.3019 0.90293 0.904223 1.0105 0.924502 0.901411 0.942868 0.540471 0.562502 0.642021 0.57806 0.564189 0.60467 0.218317 0.227572 0.302504 0.256082 0.219233 0.245717 22.3962 22.0629 18.338 20.4581 18.5707 20.0512 35.0062 31.2778 33.6846 32.0896 28.6565 30.1413 36.8764 32.5588 37.194 34.4538 30.405 31.7537 34.7971 30.5748 35.5871 32.691 28.7069 29.9962 31.9509 27.8938 32.7454 29.9237 26.2597 27.524 29.1662 25.3015 29.8701 27.1798 23.8709 25.0969 26.5776 22.9489 27.1933 24.6727 21.6907 22.8534 24.1915 20.833 24.7337 22.4025 19.714 20.7955 21.9877 18.9238 22.4773 20.3401 17.9218 18.9106 19.9643 17.1891 20.4053 18.4688 16.2945 17.1939 18.094 15.6091 18.5004 16.7527 14.8138 15.6253 16.3796 14.1664 16.753 15.1897 13.4662 14.1848 14.803 12.8469 15.1563 13.7517 12.2294 12.8694 13.3581 11.6318 13.6839 12.4402 11.0949 11.6592 12.0261 10.5197 12.3268 11.2273 10.0544 10.5495 10.8034 9.4917 11.0828 10.1114 9.09167 9.5251 9.66755 8.54027 9.93167 9.07862 8.20629 8.58067 8.62035 7.65965 8.86772 8.12792 7.38213 7.71084 7.66137 6.84815 7.89236 7.24743 6.61902 6.9004 6.76964 6.09349 6.98556 6.42954 5.91717 6.15423 5.94793 5.39285 6.14862 5.67442 5.25463 5.4562 5.18801 4.73738 5.37346 4.97105 4.64128 4.804 4.4903 4.13663 4.6593 4.32822 4.06981 4.20397 3.83803 3.56378 4.00142 3.72264 3.52617 3.64056 3.23949 3.04722 3.38865 3.16128 3.02081 3.11136 2.68237 2.55844 2.82586 2.64632 2.54888 2.62325 2.1738 2.09 2.30853 2.16088 2.09743 2.16129 1.70931 1.66221 1.83457 1.71777 1.67566 1.7184 1.27246 1.26045 1.3921 1.29651 1.27456 1.31671 0.86111 0.888605 0.976348 0.897786 0.895634 0.926829 0.504082 0.535546 0.598634 0.550779 0.544465 0.568424 0.22809 0.258119 0.28615 0.27823 0.244541 0.26207 37.0403 33.6488 33.0809 33.3314 29.3077 31.4857 47.8752 42.8187 46.9526 44.1658 40.1554 41.8607 47.5043 42.773 48.0952 44.9508 40.7184 42.1569 44.3853 39.8967 45.3 42.1914 38.0503 39.4123 40.9487 36.5816 41.8564 38.8197 34.895 36.2392 37.5862 33.3797 38.4316 35.503 31.8647 33.1704 34.3696 30.399 35.149 32.3766 29.0346 30.2796 31.3329 27.6398 32.0472 29.4632 26.4142 27.5739 28.4725 25.0864 29.1311 26.7533 23.9948 25.0497 25.8065 22.7298 26.4124 24.2449 21.7549 22.7134 23.3262 20.5647 23.8917 21.9306 19.6943 20.5499 21.0349 18.5575 21.5563 19.7924 17.7923 18.5586 18.9218 16.7229 19.4009 17.8235 16.0426 16.7229 16.9692 15.0261 17.416 16.0056 14.4378 15.0347 15.1738 13.4645 15.5881 14.329 12.9544 13.4758 13.5208 12.0237 13.9057 12.7902 11.5924 12.0472 11.9925 10.7056 12.3516 11.3708 10.3326 10.7231 10.5866 9.47872 10.9256 10.0644 9.17233 9.51273 9.29861 8.35188 9.60696 8.85869 8.10085 8.38754 8.10745 7.30864 8.39251 7.75139 7.11989 7.35501 7.012 6.36258 7.28067 6.7295 6.21236 6.40764 6.01082 5.47785 6.25772 5.79163 5.37521 5.53789 5.09736 4.67686 5.3225 4.9316 4.61108 4.73521 4.26199 3.9354 4.46729 4.14395 3.90768 4.00185 3.50467 3.27877 3.69525 3.43536 3.26188 3.33429 2.82187 2.67513 2.99103 2.7922 2.67928 2.7334 2.21489 2.12959 2.37038 2.20871 2.14156 2.18109 1.66915 1.63279 1.80903 1.69887 1.66314 1.6919 1.18734 1.20179 1.31937 1.24182 1.22447 1.24239 0.776324 0.79951 0.889671 0.830761 0.825541 0.834397 0.425151 0.449769 0.523422 0.47818 0.478982 0.482898 0.214901 0.251942 0.252058 0.25029 0.240523 0.237189 65.0969 51.811 64.1438 58.4661 46.4554 49.2097 59.1812 54.5988 60.8394 56.4174 52.5844 54.1103 57.0055 52.4707 57.7077 54.59 50.8473 52.2643 53.8847 49.1961 54.7122 51.5377 47.49 48.9087 50.2501 45.5732 51.1861 47.9878 43.9116 45.3223 46.4141 41.8834 47.3816 44.2376 40.3461 41.7245 42.5694 38.2873 43.5262 40.5118 36.8995 38.2015 38.8489 34.8661 39.7572 36.9306 33.6214 34.8241 35.2926 31.6483 36.1494 33.537 30.5311 31.6297 31.9577 28.6308 32.7557 30.3568 27.644 28.6342 28.8346 25.8411 29.5831 27.4083 24.9575 25.8455 25.942 23.2532 26.6353 24.6662 22.4734 23.2685 23.2665 20.8689 23.9077 22.1409 20.182 20.881 20.8044 18.6704 21.3977 19.8001 18.0663 18.6847 18.5298 16.6381 19.0818 17.6518 16.1208 16.6601 16.4353 14.77 16.9425 15.677 14.3278 14.7939 14.5038 13.0463 14.9722 13.8508 12.6648 13.0705 12.729 11.4583 13.1599 12.1638 11.144 11.4912 11.092 10.0046 11.5015 10.6191 9.74426 10.0386 9.58749 8.66047 9.96701 9.19847 8.4557 8.69771 8.20816 7.42997 8.55763 7.89075 7.27309 7.4716 6.94556 6.30233 7.26384 6.69288 6.19058 6.34861 5.79787 5.28033 6.09545 5.60813 5.20167 5.32579 4.75871 4.34303 5.02005 4.62023 4.30606 4.39988 3.81585 3.51093 4.05654 3.72663 3.49823 3.56641 2.98365 2.76334 3.20414 2.92668 2.77731 2.82143 2.24255 2.11151 2.43778 2.2319 2.13782 2.15677 1.6095 1.54476 1.77679 1.61624 1.58411 1.58953 1.06703 1.05951 1.2164 1.10447 1.09584 1.09019 0.647114 0.66307 0.763687 0.703766 0.69401 0.694461 0.342116 0.365642 0.430184 0.389414 0.362264 0.364441 0.188584 0.186904 0.225578 0.200231 0.174769 0.158521 26.6851 50.6737 19.873 32.0655 57.3164 55.276 39.0887 44.4193 38.3574 43.0263 46.5291 45.3082 37.9992 42.7943 38.786 40.9204 45.9268 43.8123 35.5824 40.351 36.2453 38.6192 43.698 41.4705 32.7201 36.9099 33.4268 35.5855 39.9491 37.9572 29.5343 33.0624 30.301 32.0698 35.69 33.9755 26.3217 29.2887 27.0775 28.5187 31.5692 30.0954 23.3109 25.8332 23.9933 25.2011 27.843 26.5695 20.5959 22.7656 21.1953 22.2224 24.5473 23.444 18.1891 20.0758 18.7036 19.5935 21.6568 20.6875 16.0576 17.6879 16.5015 17.2678 19.1091 18.2641 14.1525 15.566 14.5446 15.2065 16.8306 16.0913 12.4418 13.6553 12.7898 13.3501 14.7843 14.1359 10.895 11.928 11.2022 11.6706 12.9224 12.3567 9.49204 10.3554 9.76995 10.1534 11.2425 10.7503 8.21249 8.92535 8.46198 8.76948 9.69932 9.27716 7.04819 7.62275 7.26713 7.50541 8.3012 7.94035 5.99005 6.43762 6.19478 6.36572 7.01955 6.71952 5.03603 5.3682 5.20887 5.32512 5.8677 5.62105 4.16995 4.39934 4.33427 4.39174 4.82403 4.62478 3.39998 3.53802 3.53803 3.5533 3.88745 3.72824 2.72061 2.77578 2.8449 2.81085 3.0523 2.93689 2.12834 2.10241 2.2311 2.1646 2.31471 2.23267 1.61916 1.53207 1.70831 1.60958 1.67917 1.63429 1.19453 1.06318 1.26587 1.14229 1.15005 1.14204 0.853634 0.669169 0.919529 0.762572 0.694396 0.718097 0.604976 0.409333 0.655883 0.491515 0.3714 0.426636 0.424702 0.279793 0.472045 0.330977 0.182115 0.264494 0.308002 0.261889 0.351422 0.256667 0.190685 0.224716 0.211582 0.245021 0.263414 0.224459 0.219734 0.221322 0.12003 0.175485 0.173764 0.159287 0.178423 0.162398 0.103692 0.0803598 0.10614 0.0856234 0.0702528 0.078577 12.6934 21.4218 8.98962 14.8567 21.9788 19.5043 23.7701 29.7517 22.7855 26.9559 32.4411 30.3873 25.3174 29.9833 25.3775 28.0401 32.5737 30.7478 24.2548 28.0551 24.6336 26.6094 30.5448 28.7815 22.3843 25.748 22.8952 24.5682 28.125 26.4573 20.2808 23.2406 20.8072 22.274 25.437 23.9353 18.1592 20.7224 18.6546 19.9175 22.7076 21.3908 16.1554 18.356 16.5925 17.6799 20.1309 18.9905 14.3347 16.2283 14.7176 15.6448 17.801 16.8173 12.7192 14.3373 13.0427 13.8305 15.7284 14.8821 11.2819 12.6617 11.5666 12.229 13.893 13.1616 10.0068 11.1755 10.2545 10.807 12.2551 11.6302 8.86512 9.84551 9.07952 9.53643 10.7865 10.2503 7.84062 8.6417 8.02586 8.38776 9.45869 9.00587 6.90809 7.55314 7.08045 7.35632 8.25775 7.87965 6.07284 6.56891 6.22825 6.42253 7.16387 6.85477 5.31212 5.67713 5.45072 5.57452 6.1793 5.93007 4.62871 4.87191 4.75221 4.8123 5.28183 5.09281 4.01352 4.15252 4.12535 4.12924 4.48043 4.3409 3.46059 3.51145 3.56753 3.5168 3.75244 3.66486 2.98239 2.93954 3.07857 2.98055 3.11089 3.074 2.55151 2.45771 2.63858 2.51264 2.55352 2.5589 2.18284 2.03078 2.26071 2.10703 2.07368 2.10589 1.8584 1.6753 1.92854 1.75585 1.66608 1.72872 1.57247 1.38395 1.64076 1.46088 1.32921 1.41524 1.32495 1.13562 1.38835 1.20836 1.05202 1.15712 1.09615 0.943326 1.16128 1.00173 0.842032 0.948989 0.889583 0.764438 0.947041 0.814312 0.668502 0.763106 0.680288 0.599425 0.752777 0.629067 0.509479 0.596621 0.467212 0.42978 0.547026 0.448502 0.35051 0.425535 0.250841 0.243946 0.332208 0.255186 0.188707 0.247015 0.0899376 0.13822 0.134214 0.0891872 0.0887017 0.12984 7.23636 12.0389 4.39102 8.35708 11.5454 10.7487 16.3356 19.3998 15.4584 17.5127 20.1147 19.019 18.535 20.5377 18.7202 19.5569 21.8065 20.652 17.732 19.4233 18.1663 18.7211 20.8977 19.7404 16.1838 17.7423 16.6274 17.1412 19.2125 18.1275 14.5719 15.9666 14.9663 15.441 17.3662 16.3845 13.0478 14.2587 13.3921 13.8055 15.5429 14.6822 11.6774 12.6956 11.9612 12.3085 13.8483 13.114 10.4695 11.3127 10.7071 10.9845 12.3231 11.7068 9.42065 10.0926 9.61789 9.82045 10.9729 10.4605 8.50834 9.03485 8.67049 8.80809 9.78029 9.36377 7.70503 8.10168 7.85011 7.9242 8.73069 8.3951 6.99406 7.2748 7.12172 7.13838 7.79717 7.53256 6.35865 6.52762 6.47147 6.44044 6.96107 6.75779 5.78852 5.86969 5.8965 5.81788 6.20465 6.06438 5.27369 5.27136 5.36932 5.25444 5.52481 5.43734 4.79784 4.73185 4.88824 4.74457 4.91469 4.86781 4.36628 4.24374 4.45327 4.28004 4.36527 4.36078 3.96516 3.80218 4.0494 3.85851 3.86733 3.90089 3.59753 3.4093 3.68182 3.47386 3.42349 3.48464 3.26106 3.05382 3.34067 3.13223 3.02761 3.10902 2.93773 2.72228 3.01291 2.80742 2.66569 2.76473 2.6395 2.42742 2.71831 2.5086 2.34726 2.44975 2.34523 2.14719 2.42264 2.2247 2.05961 2.16645 2.06002 1.88892 2.14043 1.95836 1.79335 1.89987 1.77973 1.64287 1.86347 1.70561 1.54461 1.65407 1.509 1.39296 1.59659 1.45198 1.29974 1.4054 1.23467 1.14501 1.32286 1.19604 1.07654 1.156 0.959107 0.90402 1.05245 0.936007 0.83762 0.909687 0.690345 0.651227 0.770628 0.676099 0.587732 0.665499 0.405932 0.393833 0.497515 0.40665 0.350475 0.40487 0.122307 0.155272 0.21124 0.131308 0.128759 0.172537 7.95446 10.319 4.92973 7.98277 8.5043 8.67555 17.4251 17.1945 16.5257 16.7887 16.2378 16.3889 19.8555 18.3989 20.0914 18.8985 17.9373 18.0086 18.9192 17.2569 19.4664 17.9653 17.0359 17.0749 17.116 15.5718 17.6478 16.2352 15.4695 15.5043 15.3311 13.9255 15.7717 14.5101 13.8804 13.9297 13.759 12.4629 14.1177 12.9799 12.427 12.5115 12.408 11.1998 12.7013 11.6613 11.1566 11.2718 11.2467 10.1258 11.4881 10.5422 10.0643 10.2034 10.2422 9.20383 10.4483 9.58747 9.12075 9.27928 9.36877 8.4119 9.54698 8.75972 8.30924 8.47869 8.59313 7.716 8.76041 8.03425 7.59174 7.77331 7.9058 7.09654 8.05144 7.39232 6.96325 7.14543 7.27415 6.54026 7.41207 6.81023 6.39599 6.58189 6.69969 6.03454 6.83285 6.2812 5.88222 6.06694 6.16732 5.56136 6.29451 5.7918 5.40942 5.59569 5.67488 5.134 5.79636 5.33859 4.97782 5.15656 5.21733 4.72818 5.32807 4.92034 4.57649 4.74559 4.77619 4.34161 4.88765 4.51785 4.19632 4.36464 4.36017 3.98438 4.46588 4.13734 3.83937 3.99959 3.96668 3.63442 4.06412 3.77401 3.50107 3.65778 3.58066 3.2988 3.68712 3.42092 3.17894 3.3142 3.21334 2.97775 3.31325 3.08467 2.86617 2.9916 2.85489 2.65825 2.9605 2.75244 2.55615 2.67605 2.50229 2.3491 2.60395 2.42064 2.26011 2.36761 2.15402 2.03755 2.25861 2.10013 1.96257 2.05691 1.81299 1.72799 1.9192 1.77993 1.66321 1.73933 1.48159 1.42107 1.5764 1.46304 1.36138 1.4406 1.14602 1.11238 1.25037 1.14593 1.06809 1.13504 0.821253 0.804923 0.927197 0.830595 0.76991 0.824929 0.506323 0.500664 0.605031 0.520125 0.476186 0.521238 0.168152 0.176881 0.268343 0.193183 0.166466 0.199306 13.3289 14.4237 9.87524 12.5489 11.6709 12.5276 24.4239 22.2176 23.2754 22.5666 20.1759 21.1666 27.1669 23.707 27.3257 25.1472 22.0942 23.1013 25.9327 22.296 26.545 24.0047 20.8947 21.882 23.6104 20.1613 24.2658 21.8 18.906 19.8569 21.2858 18.1008 21.8622 19.5802 16.965 17.8713 19.207 16.2907 19.6985 17.6184 15.2524 16.1059 17.3822 14.7267 17.8057 15.9149 13.779 14.5756 15.7741 13.3669 16.1424 14.4324 12.5116 13.2441 14.3413 12.1779 14.6679 13.1288 11.3957 12.0708 13.0565 11.1282 13.3544 11.9711 10.4256 11.0275 11.8951 10.1811 12.166 10.9314 9.54729 10.0951 10.8398 9.3244 11.092 9.98872 8.76408 9.25498 9.86795 8.54346 10.1058 9.13085 8.04391 8.48882 8.98442 7.82832 9.20478 8.34083 7.38702 7.77931 8.16404 7.16116 8.36974 7.61187 6.7787 7.12427 7.40872 6.54464 7.60357 6.9372 6.21101 6.51716 6.70227 5.96984 6.88117 6.30087 5.68766 5.95262 6.04716 5.43051 6.22094 5.71762 5.18054 5.41497 5.43776 4.92155 5.5995 5.15946 4.71805 4.91872 4.8603 4.44422 5.00897 4.63997 4.26978 4.44641 4.31879 3.98179 4.46845 4.15123 3.8377 3.99221 3.81149 3.54297 3.95399 3.68334 3.42882 3.5601 3.33312 3.12519 3.46429 3.23681 3.03 3.1419 2.86788 2.71646 2.9951 2.80649 2.6501 2.73877 2.43233 2.33079 2.55959 2.40361 2.27025 2.3506 2.01322 1.94968 2.13471 2.00348 1.90854 1.97438 1.61814 1.58207 1.73138 1.62515 1.54934 1.60701 1.23636 1.2246 1.35228 1.25228 1.20407 1.25212 0.869579 0.880234 0.985877 0.907468 0.861522 0.912627 0.52169 0.550557 0.629377 0.571196 0.541437 0.569079 0.203926 0.213524 0.287535 0.245131 0.199747 0.225038 21.9976 21.9928 18.1387 20.3284 18.5231 19.8483 34.6818 31.2029 33.3753 31.9414 28.6444 30.0223 36.9384 32.6534 37.1148 34.504 30.6337 31.9881 35.0264 30.7076 35.7462 32.824 28.9519 30.2634 32.0743 27.9494 32.8672 30.0013 26.3447 27.6104 29.134 25.2664 29.8644 27.1649 23.7922 24.9974 26.4357 22.8524 27.0871 24.5859 21.5017 22.6319 23.9872 20.7106 24.5671 22.2765 19.4775 20.5172 21.7638 18.7881 22.286 20.2028 17.6709 18.6236 19.7384 17.0524 20.2162 18.3295 16.0476 16.9106 17.8867 15.4796 18.3225 16.6269 14.5846 15.3542 16.1872 14.0484 16.5934 15.0696 13.2554 13.9392 14.6306 12.7389 15.0057 13.6463 12.0399 12.6453 13.2027 11.5381 13.5471 12.3368 10.9243 11.4564 11.8844 10.4298 12.2036 11.1397 9.89809 10.3664 10.6694 9.4136 10.9696 10.0312 8.94805 9.36388 9.54982 8.46509 9.83612 9.00677 8.07565 8.42975 8.51868 7.59728 8.78509 8.06201 7.26108 7.56239 7.56478 6.78449 7.80769 7.1865 6.50953 6.76874 6.68501 6.04242 6.9097 6.37548 5.81704 6.03391 5.86439 5.34064 6.07234 5.62259 5.16388 5.34756 5.10723 4.69147 5.31025 4.92829 4.55136 4.70259 4.41555 4.09567 4.60186 4.28081 3.98801 4.10939 3.77563 3.53349 3.94407 3.68051 3.45961 3.55164 3.17419 3.01115 3.33346 3.12787 2.95806 3.03457 2.63319 2.52351 2.77816 2.61313 2.49783 2.5554 2.12346 2.0714 2.27118 2.13447 2.05451 2.09318 1.66365 1.64118 1.79506 1.6939 1.63334 1.67266 1.23716 1.23979 1.36141 1.26818 1.23868 1.27 0.839071 0.871654 0.956259 0.890604 0.8674 0.897788 0.484655 0.527315 0.587559 0.537054 0.529565 0.54771 0.227769 0.259837 0.284338 0.265429 0.232448 0.247415 36.5405 33.3195 33.0185 33.0525 28.9166 30.8411 47.0854 42.4811 46.2037 43.7202 39.7144 41.2665 47.261 42.7318 47.7084 44.821 40.6944 42.1257 44.4886 39.9912 45.3261 42.2637 38.2119 39.6 41.0475 36.638 41.9479 38.8943 34.9935 36.3458 37.5903 33.3763 38.4526 35.5145 31.8401 33.1408 34.291 30.3434 35.0901 32.3339 28.9279 30.153 31.1934 27.5537 31.9343 29.3822 26.265 27.3947 28.3161 24.9942 29.0009 26.6639 23.8253 24.8531 25.6518 22.642 26.2794 24.1493 21.588 22.5199 23.1854 20.477 23.7644 21.8382 19.5358 20.3722 20.9085 18.4852 21.4452 19.7133 17.6485 18.3909 18.8092 16.6496 19.3044 17.7507 15.9166 16.5765 16.8665 14.9601 17.334 15.9411 14.3163 14.899 15.0858 13.4072 15.5134 14.2782 12.8484 13.3571 13.4412 11.9803 13.835 12.7411 11.4959 11.9399 11.9243 10.655 12.2911 11.3266 10.2465 10.634 10.5301 9.44001 10.8739 10.0255 9.09305 9.41874 9.24009 8.31626 9.55928 8.82734 8.02869 8.30659 8.05891 7.27898 8.34756 7.71631 7.05862 7.27982 6.97091 6.33011 7.24193 6.69967 6.15084 6.34512 5.97819 5.45501 6.22388 5.76392 5.31782 5.46617 5.05758 4.65556 5.28245 4.90362 4.55699 4.68022 4.22568 3.92194 4.44087 4.11885 3.85732 3.94187 3.47431 3.25177 3.65964 3.41532 3.21968 3.2851 2.79606 2.64641 2.97082 2.77207 2.63534 2.68459 2.18175 2.11233 2.34525 2.19556 2.10758 2.14313 1.64627 1.61799 1.79549 1.68321 1.62323 1.64624 1.17925 1.18254 1.30847 1.22355 1.1993 1.2167 0.767651 0.797775 0.88321 0.819026 0.806217 0.815081 0.425735 0.456003 0.520744 0.471662 0.450603 0.460081 0.210909 0.24702 0.247141 0.246215 0.232416 0.229309 65.0535 51.3344 64.7686 58.2777 45.9999 48.434 57.7944 54.0181 59.6644 55.6856 51.7158 53.0776 56.2959 52.2705 56.9567 54.2708 50.5423 51.933 53.7263 49.2085 54.4979 51.4883 47.522 48.94 50.2415 45.6061 51.1727 48.0075 43.9696 45.3822 46.3768 41.8776 47.3675 44.2405 40.3387 41.6991 42.4853 38.2473 43.4589 40.4697 36.8341 38.1085 38.7242 34.8024 39.649 36.8628 33.5093 34.6911 35.1607 31.5731 36.0332 33.4575 30.408 31.481 31.8234 28.564 32.6433 30.2819 27.5257 28.4909 28.7235 25.783 29.4756 27.3332 24.8501 25.7207 25.8357 23.1995 26.5464 24.6078 22.3771 23.1489 23.1832 20.8189 23.8368 22.0914 20.0967 20.7808 20.7292 18.6286 21.3281 19.7618 17.9909 18.5971 18.4636 16.6025 19.0343 17.621 16.0585 16.5858 16.3791 14.738 16.8956 15.6434 14.2657 14.7255 14.4651 13.027 14.9376 13.8174 12.6202 13.0162 12.6903 11.4367 13.1318 12.143 11.1032 11.4401 11.0561 9.98602 11.4745 10.6071 9.70238 9.99227 9.56416 8.64359 9.9415 9.1854 8.41939 8.65891 8.18567 7.41043 8.53687 7.87586 7.24388 7.43839 6.92601 6.28869 7.24524 6.67955 6.16984 6.32585 5.77316 5.2616 6.07506 5.58991 5.17815 5.29795 4.74426 4.33934 5.01233 4.60474 4.28589 4.37105 3.8031 3.49968 4.05246 3.71486 3.47946 3.53895 2.96661 2.75463 3.18036 2.92561 2.76176 2.80058 2.22884 2.10674 2.43302 2.22077 2.11801 2.13994 1.6039 1.54654 1.776 1.63064 1.56438 1.56968 1.07499 1.0603 1.21934 1.1131 1.08816 1.08578 0.66252 0.675823 0.766414 0.699707 0.6929 0.68865 0.35963 0.370513 0.43099 0.392024 0.368207 0.376247 0.186017 0.182233 0.230429 0.190478 0.172228 0.164608 26.5126 50.5319 19.6903 31.8031 57.6697 55.8999 39.1342 44.4422 38.3334 42.957 46.3977 45.1911 38.012 42.7919 38.7961 40.8679 45.7451 43.6811 35.6254 40.2654 36.2668 38.5423 43.609 41.4835 32.835 36.769 33.4768 35.467 39.9702 38.1034 29.6957 32.9079 30.3687 31.9513 35.7712 34.1811 26.4792 29.1515 27.1437 28.4114 31.6559 30.2905 23.4384 25.7269 24.0524 25.1159 27.9145 26.7222 20.691 22.6918 21.234 22.1646 24.6094 23.5568 18.2467 20.0242 18.7285 19.5537 21.701 20.7704 16.0909 17.6523 16.5189 17.2465 19.1409 18.3089 14.1728 15.5484 14.5505 15.196 16.8485 16.1172 12.4511 13.6495 12.791 13.3483 14.7937 14.1514 10.8982 11.9264 11.2043 11.6792 12.9388 12.372 9.4865 10.3605 9.76766 10.1588 11.2473 10.7549 8.21138 8.92966 8.45986 8.77621 9.70903 9.28635 7.03921 7.63031 7.26824 7.51366 8.30656 7.94155 5.98703 6.44523 6.18491 6.37044 7.02114 6.71552 5.02883 5.37147 5.2071 5.32908 5.86576 5.61489 4.16562 4.41096 4.33427 4.39924 4.81996 4.61316 3.40098 3.53838 3.53611 3.55965 3.88516 3.71948 2.71779 2.7746 2.84 2.82314 3.05937 2.9341 2.11866 2.11132 2.22998 2.17722 2.32066 2.23238 1.61487 1.53135 1.70423 1.61163 1.68167 1.63833 1.18223 1.04888 1.26298 1.14691 1.1451 1.13215 0.843503 0.677753 0.911283 0.777301 0.706912 0.718315 0.597842 0.411608 0.645707 0.501039 0.380237 0.4316 0.431294 0.281144 0.471494 0.331629 0.197642 0.26257 0.30855 0.263461 0.358603 0.266754 0.203106 0.238379 0.210871 0.250821 0.271413 0.219406 0.232059 0.225947 0.120803 0.182617 0.172256 0.159707 0.183106 0.169629 0.095509 0.0753506 0.10876 0.0900724 0.0645287 0.066161 12.4196 21.3662 8.79734 14.928 21.8068 19.2897 23.8542 29.6259 22.8132 26.8335 32.419 30.4202 25.4119 29.8894 25.3825 27.9381 32.5878 30.8693 24.3613 27.9303 24.658 26.4885 30.5609 28.9264 22.5261 25.6058 22.937 24.4521 28.1718 26.6379 20.4189 23.1058 20.8674 22.1733 25.5121 24.1236 18.2697 20.6195 18.7003 19.845 22.7832 21.5519 16.2289 18.294 16.629 17.6326 20.1915 19.1114 14.3769 16.1893 14.7353 15.6216 17.8477 16.8953 12.7328 14.3248 13.0517 13.8317 15.7544 14.9204 11.2818 12.6694 11.5626 12.2429 13.9069 13.1762 9.98967 11.1879 10.2427 10.8234 12.2668 11.6304 8.84096 9.86331 9.07357 9.55985 10.7896 10.2391 7.81101 8.66255 8.01933 8.41696 9.46258 8.9886 6.88072 7.5805 7.07072 7.38764 8.25643 7.86102 6.04462 6.59391 6.2151 6.44619 7.16879 6.83942 5.28013 5.70157 5.43911 5.60441 6.16805 5.90819 4.59852 4.90037 4.74509 4.83906 5.2789 5.07009 3.98926 4.17551 4.11752 4.15043 4.47487 4.3186 3.44234 3.53291 3.55506 3.53965 3.74973 3.64609 2.95978 2.96414 3.06449 3.00332 3.11403 3.05197 2.53385 2.4702 2.62426 2.53124 2.54725 2.5305 2.15574 2.05065 2.24862 2.12291 2.06111 2.08643 1.83602 1.69121 1.92108 1.77335 1.65725 1.70803 1.55707 1.40097 1.63245 1.47681 1.31558 1.39787 1.30516 1.15632 1.38259 1.23303 1.04897 1.13718 1.0823 0.951369 1.15588 1.01307 0.837256 0.934249 0.876882 0.777767 0.946473 0.820374 0.662466 0.755511 0.672098 0.608093 0.747339 0.645376 0.50723 0.593864 0.455211 0.433873 0.534145 0.446773 0.34892 0.425819 0.248478 0.24606 0.331066 0.25504 0.18005 0.239847 0.089172 0.135146 0.131489 0.0897171 0.0866342 0.130553 7.17688 11.9287 4.31215 8.33398 11.439 10.6653 16.4935 19.235 15.5052 17.3708 20.1222 19.1597 18.7228 20.3871 18.7762 19.4099 21.8277 20.8191 17.8876 19.3009 18.2173 18.6085 20.9353 19.9046 16.3016 17.6472 16.6732 17.0667 19.2821 18.2785 14.638 15.9104 14.9949 15.4055 17.4294 16.5032 13.0736 14.2399 13.4002 13.8051 15.5968 14.7581 11.6682 12.7069 11.957 12.3348 13.8805 13.1439 10.4377 11.349 10.6945 11.0275 12.3376 11.7026 9.37074 10.1493 9.60113 9.87719 10.9761 10.4336 8.44436 9.09159 8.64629 8.86908 9.77823 9.32042 7.64152 8.15917 7.82803 7.98477 8.71644 8.33981 6.93228 7.33496 7.10394 7.20238 7.77764 7.47309 6.29819 6.59067 6.45289 6.50034 6.94424 6.70013 5.73239 5.92787 5.87354 5.87608 6.18686 6.00692 5.21732 5.3212 5.35239 5.30195 5.50972 5.38776 4.74676 4.78291 4.87068 4.79049 4.90086 4.82012 4.31907 4.29321 4.43927 4.32819 4.34532 4.30838 3.93062 3.84829 4.04191 3.90212 3.85492 3.85635 3.56131 3.44685 3.6683 3.51537 3.41101 3.44011 3.22528 3.08815 3.33096 3.16239 3.01598 3.07288 2.90976 2.75994 3.01059 2.83927 2.66202 2.73323 2.60364 2.45481 2.70147 2.53204 2.33699 2.4215 2.3239 2.17332 2.41396 2.25592 2.05159 2.14629 2.04141 1.91031 2.13019 1.9833 1.78417 1.88613 1.76698 1.65782 1.86498 1.71687 1.54106 1.63389 1.50169 1.40748 1.59526 1.46318 1.30551 1.38775 1.22622 1.16128 1.31655 1.20444 1.07197 1.14793 0.952655 0.910424 1.04687 0.945935 0.833183 0.902895 0.677955 0.65384 0.770135 0.68165 0.584549 0.650791 0.400176 0.398805 0.494693 0.418793 0.349963 0.401211 0.115803 0.158363 0.207346 0.137349 0.134014 0.179473 8.07153 10.1503 4.99489 7.86775 8.50559 8.82783 17.5861 17.0075 16.5828 16.6484 16.2893 16.5918 20.0363 18.2408 20.1534 18.7597 18.0072 18.2121 19.0597 17.1694 19.5197 17.8836 17.1086 17.231 17.186 15.5471 17.6726 16.2172 15.5234 15.5889 15.3367 13.9547 15.774 14.5351 13.9094 13.9487 13.7199 12.5299 14.1033 13.0414 12.4403 12.4805 12.3408 11.2881 12.6737 11.7422 11.1539 11.2064 11.168 10.2186 11.4615 10.625 10.0461 10.1123 10.16 9.30531 10.4171 9.67087 9.10124 9.18035 9.28522 8.50614 9.51617 8.83958 8.27808 8.3792 8.52154 7.8036 8.73315 8.1129 7.56172 7.67487 7.83146 7.17902 8.02519 7.46292 6.93358 7.05763 7.20909 6.61646 7.38682 6.87423 6.36512 6.49717 6.64104 6.10608 6.81188 6.33754 5.85648 5.99702 6.1141 5.62696 6.27779 5.8534 5.38405 5.52609 5.62313 5.19067 5.773 5.39088 4.95684 5.0906 5.16443 4.77751 5.31357 4.95948 4.55008 4.68615 4.73803 4.38995 4.87457 4.55229 4.17863 4.31511 4.32339 4.0224 4.45396 4.17074 3.81894 3.95313 3.93385 3.67871 4.05923 3.80274 3.48785 3.6084 3.55675 3.33629 3.67757 3.45447 3.16643 3.27951 3.18972 3.00703 3.30731 3.10994 2.85356 2.9574 2.83196 2.68068 2.95221 2.77483 2.54466 2.64853 2.48485 2.36596 2.59679 2.44064 2.25122 2.339 2.13703 2.05389 2.25684 2.11699 1.94495 2.02894 1.79639 1.74181 1.91683 1.79067 1.6523 1.72477 1.46952 1.43046 1.57973 1.47432 1.3558 1.42307 1.13601 1.12391 1.24721 1.14851 1.06176 1.12352 0.812148 0.81663 0.919478 0.843182 0.771754 0.816262 0.495467 0.508371 0.604451 0.525656 0.478622 0.525085 0.153828 0.177827 0.265462 0.186681 0.163789 0.203489 13.3563 14.3545 9.91352 12.4938 11.7215 12.6429 24.4922 22.1377 23.3114 22.5167 20.2294 21.2709 27.2677 23.613 27.3508 25.0794 22.165 23.2341 26.0268 22.2477 26.5764 23.9616 20.9604 21.993 23.6637 20.1704 24.2844 21.7954 18.9433 19.9043 21.2844 18.1483 21.8648 19.6187 16.9672 17.8511 19.1679 16.3666 19.6849 17.6764 15.2369 16.0429 17.3238 14.8103 17.7823 15.9823 13.7494 14.4873 15.7068 13.46 16.1176 14.5062 12.4741 13.1383 14.2739 12.2693 14.6445 13.2033 11.3641 11.9735 12.9915 11.205 13.3275 12.032 10.3862 10.9352 11.8357 10.2534 12.1433 10.99 9.51915 10.0112 10.7878 9.39379 11.068 10.0471 8.7338 9.17161 9.82323 8.60274 10.0895 9.17599 8.01982 8.4098 8.93782 7.88318 9.19121 8.38015 7.36117 7.71256 8.12633 7.21579 8.35489 7.65113 6.75587 7.06214 7.36795 6.59332 7.58541 6.97145 6.19355 6.46248 6.66504 6.00867 6.87501 6.33904 5.66131 5.89981 6.01941 5.47057 6.21049 5.74422 5.17389 5.37543 5.40722 4.95894 5.59145 5.19196 4.69947 4.87428 4.83495 4.47315 5.00632 4.66654 4.2538 4.40964 4.30019 4.00742 4.46371 4.1722 3.82514 3.95615 3.78892 3.57251 3.94323 3.70093 3.41777 3.5285 3.30981 3.14876 3.46302 3.26012 3.02314 3.11912 2.856 2.73937 2.99991 2.82685 2.63801 2.71876 2.42035 2.34375 2.55855 2.41919 2.26613 2.33465 2.00027 1.96065 2.134 2.02036 1.89352 1.95731 1.60686 1.59739 1.72913 1.63323 1.5469 1.59458 1.22363 1.23264 1.34647 1.26238 1.1911 1.23531 0.859305 0.889799 0.977259 0.911538 0.862464 0.901507 0.519656 0.552448 0.628386 0.567148 0.538128 0.569019 0.203081 0.211698 0.298168 0.244963 0.194678 0.227211 21.9368 22.0393 18.1625 20.3409 18.5516 19.8296 34.6524 31.2502 33.3784 31.9822 28.6635 29.9973 36.9472 32.6349 37.092 34.5024 30.6676 32.0388 35.0848 30.68 35.7595 32.8091 28.9922 30.3391 32.1175 27.9453 32.8854 29.9987 26.371 27.6511 29.1425 25.2977 29.8685 27.1876 23.7954 24.9904 26.4159 22.9016 27.0755 24.6188 21.4924 22.5879 23.9442 20.7669 24.5478 22.3196 19.4541 20.4524 21.7157 18.8515 22.2669 20.2517 17.6472 18.5525 19.6948 17.1137 20.1957 18.3746 16.0195 16.832 17.8396 15.5356 18.3079 16.6692 14.5602 15.2841 16.1461 14.0985 16.5746 15.1096 13.2266 13.878 14.5995 12.7843 14.9893 13.6802 12.0132 12.5875 13.1705 11.5738 13.5266 12.3737 10.8974 11.4063 11.8538 10.4721 12.1952 11.1664 9.87758 10.3179 10.6453 9.44261 10.9584 10.0546 8.93269 9.31609 9.52722 8.49876 9.82567 9.02927 8.05763 8.38523 8.49517 7.6222 8.76752 8.07904 7.24437 7.52788 7.54162 6.81389 7.79875 7.20995 6.49498 6.73242 6.66325 6.06123 6.8995 6.39037 5.80615 6.00527 5.85412 5.36381 6.07064 5.64124 5.15014 5.31989 5.09355 4.71355 5.30421 4.9463 4.54608 4.67468 4.39231 4.11316 4.59252 4.29352 3.9809 4.08628 3.75721 3.55076 3.93714 3.69344 3.45048 3.53498 3.16847 3.02691 3.33812 3.14074 2.9497 3.01945 2.62597 2.5432 2.78247 2.62594 2.48486 2.53563 2.12156 2.08107 2.26375 2.14102 2.04259 2.08353 1.66024 1.65483 1.79579 1.69961 1.63479 1.65817 1.22599 1.2461 1.35702 1.28149 1.23154 1.2657 0.835185 0.872536 0.953879 0.89843 0.864057 0.883445 0.48283 0.531206 0.588086 0.54441 0.520992 0.541658 0.228744 0.257907 0.291935 0.27086 0.231033 0.255442 36.4757 33.4394 33.0594 33.0772 28.9294 30.7233 46.9692 42.6449 46.17 43.8386 39.6962 41.1284 47.1845 42.7863 47.6507 44.8844 40.6788 42.0904 44.503 39.9839 45.3232 42.2781 38.2374 39.6504 41.0856 36.6341 41.962 38.8939 35.015 36.3906 37.603 33.39 38.4556 35.5242 31.8463 33.1469 34.286 30.3675 35.0861 32.3526 28.924 30.1261 31.1691 27.5919 31.9235 29.4116 26.2489 27.3478 28.2877 25.0327 28.9867 26.694 23.8062 24.805 25.6206 22.6801 26.2624 24.1808 21.5727 22.472 23.1499 20.5115 23.7525 21.867 19.517 20.3232 20.8746 18.5167 21.4321 19.7335 17.6358 18.3507 18.782 16.682 19.2951 17.7702 15.9031 16.5354 16.8477 14.9858 17.3198 15.9626 14.3092 14.8653 15.067 13.4261 15.5057 14.297 12.8358 13.3253 13.4213 11.9955 13.83 12.7572 11.4891 11.9135 11.9111 10.6724 12.2913 11.3477 10.2352 10.6016 10.5115 9.45173 10.8631 10.0347 9.0879 9.40034 9.23426 8.32587 9.555 8.83548 8.02002 8.2865 8.04457 7.29138 8.34931 7.72819 7.04653 7.26074 6.95939 6.34304 7.23429 6.70986 6.1531 6.3252 5.96131 5.46855 6.22208 5.77556 5.3091 5.45408 5.0484 4.66846 5.28483 4.91211 4.54824 4.66231 4.21575 3.92992 4.43556 4.13087 3.85299 3.94029 3.4669 3.26196 3.66618 3.42311 3.21231 3.27384 2.78721 2.6615 2.97261 2.78105 2.63039 2.67111 2.17881 2.11802 2.34259 2.20417 2.10747 2.13706 1.63897 1.62443 1.79695 1.69084 1.62733 1.64583 1.17623 1.19273 1.31151 1.2315 1.1902 1.20851 0.768012 0.792857 0.890132 0.822817 0.797823 0.818294 0.415978 0.45667 0.523864 0.470747 0.453895 0.469928 0.215439 0.250749 0.252389 0.245231 0.230528 0.233344 65.0918 51.4425 64.816 58.2115 46.0219 48.3153 57.5876 54.2947 59.6529 55.9115 51.6521 52.821 56.0902 52.4155 56.8735 54.4242 50.484 51.8034 53.6541 49.2454 54.4839 51.5516 47.5174 48.9315 50.2328 45.6163 51.1895 48.0306 43.9879 45.3995 46.3774 41.8967 47.3765 44.2495 40.3513 41.7032 42.4734 38.2712 43.4609 40.4971 36.8325 38.0905 38.6981 34.8303 39.6476 36.8855 33.4981 34.6578 35.1315 31.5981 36.0328 33.4852 30.3953 31.4427 31.7926 28.5967 32.6295 30.3068 27.5127 28.4543 28.6918 25.8044 29.4684 27.3574 24.837 25.6817 25.8178 23.2219 26.5371 24.6236 22.363 23.1159 23.1567 20.8365 23.8249 22.0999 20.0849 20.7507 20.7077 18.6437 21.3205 19.7727 17.983 18.5739 18.4466 16.6218 19.0171 17.6259 16.0465 16.5624 16.3678 14.749 16.894 15.6518 14.2603 14.7099 14.447 13.0328 14.9326 13.8283 12.6113 13.004 12.6816 11.4506 13.1311 12.1464 11.0964 11.4273 11.0487 9.9936 11.4628 10.6049 9.70618 9.98889 9.55007 8.65245 9.94271 9.18777 8.41509 8.65272 8.18124 7.42245 8.53535 7.88338 7.24202 7.42712 6.92656 6.2953 7.24328 6.69516 6.15799 6.31075 5.77908 5.26864 6.06695 5.60203 5.17585 5.29088 4.73134 4.34552 5.00949 4.60791 4.28058 4.36867 3.79674 3.51493 4.04504 3.71953 3.47503 3.53649 2.96918 2.76395 3.19464 2.93278 2.75717 2.795 2.23302 2.11201 2.42924 2.23484 2.11083 2.13358 1.59716 1.54396 1.76839 1.62305 1.55935 1.57128 1.07548 1.06762 1.22625 1.11704 1.09037 1.08912 0.649809 0.678772 0.775634 0.697414 0.695767 0.700303 0.364213 0.366672 0.44007 0.391687 0.363341 0.377981 0.194703 0.179769 0.230785 0.189664 0.173311 0.167472 26.7482 49.6884 20.6758 31.9004 56.8454 55.2112 38.9235 44.7498 38.1026 42.8435 46.6805 45.2479 37.8811 42.818 38.6651 40.7714 45.9234 43.8183 35.3817 39.7974 36.0255 38.0995 43.4347 41.3857 32.4758 36.0286 33.0531 34.7822 39.5585 37.8151 29.3144 32.1403 29.8704 31.2243 35.3016 33.8413 26.1495 28.5043 26.6828 27.7849 31.2407 29.9855 23.1913 25.2421 23.6914 24.6417 27.5947 26.4871 20.5204 22.3671 20.986 21.8449 24.3829 23.388 18.1458 19.8199 18.574 19.3563 21.5543 20.6611 16.0416 17.5342 16.4268 17.1361 19.0478 18.2451 14.1573 15.4846 14.5081 15.1408 16.8057 16.0864 12.4495 13.6243 12.7815 13.3322 14.7715 14.1344 10.9098 11.9178 11.2164 11.6821 12.9275 12.3631 9.50584 10.363 9.783 10.1792 11.247 10.7577 8.23737 8.94225 8.48723 8.80364 9.71969 9.29168 7.06496 7.64928 7.30047 7.54725 8.30899 7.94694 6.00995 6.47154 6.21719 6.40518 7.04038 6.732 5.05776 5.39604 5.23741 5.36563 5.88458 5.62737 4.19775 4.42982 4.35618 4.43359 4.84091 4.63463 3.42072 3.57493 3.57722 3.60099 3.90555 3.74053 2.74005 2.80974 2.87766 2.85882 3.06887 2.94509 2.1449 2.13895 2.26842 2.21517 2.33955 2.25091 1.64382 1.56456 1.74194 1.65538 1.70458 1.6511 1.21337 1.08598 1.29008 1.18586 1.17459 1.14937 0.88004 0.71279 0.943358 0.81383 0.736854 0.749097 0.622863 0.438246 0.683855 0.533021 0.407461 0.453248 0.450205 0.303022 0.504056 0.358639 0.22973 0.293956 0.328291 0.27376 0.379309 0.284955 0.222093 0.25134 0.228561 0.259069 0.286425 0.233851 0.238259 0.244774 0.125001 0.186438 0.18417 0.170534 0.182495 0.17818 0.104689 0.086815 0.110766 0.0888993 0.0621799 0.0852338 12.7584 21.6563 9.89166 15.7702 22.0183 19.5 23.6441 29.378 22.6059 26.5569 32.1682 30.2371 25.1319 29.3769 25.0471 27.4374 32.294 30.6711 24.0277 27.2211 24.2379 25.8405 30.1726 28.6623 22.1754 24.8547 22.4895 23.7687 27.7132 26.319 20.1199 22.4679 20.4501 21.5837 25.08 23.8181 18.0565 20.1579 18.389 19.4194 22.4378 21.3107 16.1056 18.0022 16.428 17.3729 19.9516 18.9435 14.3303 16.0488 14.6441 15.4989 17.7006 16.801 12.7392 14.2852 13.0402 13.8101 15.6829 14.8819 11.3223 12.6927 11.6059 12.2858 13.8916 13.1785 10.0571 11.2589 10.3196 10.911 12.2789 11.649 8.91891 9.95768 9.16609 9.66792 10.8204 10.2767 7.89296 8.76263 8.12163 8.53503 9.50212 9.0324 6.96868 7.68528 7.17559 7.50956 8.30649 7.90892 6.12739 6.7039 6.31646 6.57011 7.21905 6.88784 5.36409 5.80642 5.54187 5.72484 6.22498 5.95724 4.67771 4.99925 4.84039 4.95908 5.3319 5.12099 4.06018 4.27875 4.21333 4.27165 4.52671 4.3666 3.5107 3.63448 3.65001 3.65279 3.80673 3.6951 3.0248 3.06146 3.15398 3.10706 3.15854 3.09822 2.59473 2.56525 2.71005 2.63055 2.59479 2.57313 2.21786 2.14174 2.31912 2.21635 2.10895 2.12815 1.89178 1.77246 1.98528 1.86077 1.70021 1.75039 1.60177 1.46482 1.69246 1.5521 1.36228 1.43619 1.34977 1.21689 1.43112 1.29548 1.08993 1.17506 1.11844 1.00123 1.20091 1.07418 0.870983 0.96196 0.905267 0.818804 0.984654 0.869156 0.685127 0.787 0.693071 0.640085 0.776959 0.674418 0.528114 0.610318 0.478995 0.452283 0.561048 0.473851 0.364455 0.435694 0.264186 0.262198 0.34625 0.268713 0.189127 0.246693 0.10016 0.146996 0.142929 0.0999936 0.0991275 0.147319 7.07025 11.7746 4.68786 8.50303 11.5129 10.6851 16.0957 18.6137 15.0191 16.7449 19.71 18.8677 18.3135 19.6824 18.2125 18.6783 21.3788 20.4997 17.5578 18.6535 17.7416 17.9787 20.5105 19.6023 16.0839 17.1641 16.3339 16.6175 18.9132 18.0303 14.5375 15.6258 14.8131 15.1607 17.172 16.3319 13.0756 14.1433 13.3581 13.7478 15.4474 14.6722 11.7508 12.7712 12.0325 12.4258 13.841 13.1346 10.5704 11.5063 10.8435 11.2125 12.3742 11.7527 9.53337 10.3768 9.79278 10.1278 11.0653 10.5194 8.62378 9.34885 8.87264 9.1504 9.89686 9.42772 7.82306 8.427 8.05118 8.27297 8.85489 8.46154 7.10766 7.59519 7.32242 7.48332 7.92644 7.59724 6.46585 6.85212 6.6624 6.76949 7.08616 6.81918 5.88704 6.16816 6.06869 6.12416 6.32845 6.12133 5.36246 5.55175 5.53108 5.541 5.64029 5.48933 4.88152 4.99621 5.04283 5.01284 5.02139 4.92128 4.43659 4.48332 4.58785 4.52698 4.46563 4.4074 4.03849 4.03181 4.18068 4.09062 3.95928 3.94048 3.66198 3.61486 3.79643 3.68528 3.50888 3.51845 3.31481 3.2362 3.44691 3.31576 3.09938 3.14152 2.99091 2.89184 3.10881 2.97941 2.7422 2.79915 2.67936 2.57512 2.7942 2.66017 2.41023 2.48361 2.38942 2.28121 2.50526 2.36222 2.11632 2.19405 2.1003 2.00069 2.21197 2.07741 1.84401 1.92328 1.81464 1.73001 1.91977 1.79049 1.5864 1.66799 1.53647 1.47273 1.63999 1.5287 1.35224 1.42216 1.26526 1.21001 1.36072 1.25481 1.09512 1.17254 0.981028 0.959703 1.08576 0.990835 0.859498 0.921495 0.701247 0.687015 0.805512 0.718679 0.608878 0.672638 0.410042 0.417674 0.519311 0.435467 0.356855 0.418708 0.136577 0.179802 0.232975 0.152286 0.14651 0.189849 7.71872 9.40267 4.57519 7.23825 8.06655 8.52717 17.2325 16.1587 16.1291 15.886 15.7204 16.1972 19.685 17.5156 19.6551 18.0397 17.5003 17.849 18.8267 16.7342 19.1367 17.4224 16.7663 16.9865 17.1117 15.4218 17.5027 16.0659 15.367 15.4807 15.3979 14.073 15.796 14.6368 13.9088 13.9669 13.8704 12.8088 14.2599 13.3107 12.5587 12.5814 12.5471 11.6618 12.9116 12.1078 11.3452 11.3619 11.3915 10.637 11.737 11.034 10.2805 10.2982 10.3881 9.7278 10.7031 10.0844 9.35006 9.37825 9.50885 8.9148 9.7967 9.23871 8.53086 8.57367 8.72537 8.18779 8.99264 8.48583 7.80943 7.86319 8.01814 7.5373 8.26905 7.80731 7.16525 7.22813 7.38289 6.94055 7.60938 7.19054 6.58334 6.65775 6.79398 6.39902 7.0082 6.62687 6.05631 6.13752 6.2547 5.89674 6.4539 6.11015 5.56166 5.65673 5.75866 5.43482 5.94332 5.62401 5.11897 5.21277 5.28193 4.99865 5.46231 5.17526 4.6986 4.79391 4.84172 4.59237 5.00767 4.7486 4.31488 4.40662 4.42338 4.20179 4.57699 4.34476 3.94474 4.03731 4.01543 3.83262 4.16725 3.95853 3.59165 3.68604 3.63734 3.48246 3.78566 3.59413 3.26172 3.34754 3.25794 3.1387 3.39968 3.22843 2.93967 3.01849 2.89361 2.79551 3.03239 2.88451 2.61617 2.69676 2.53565 2.47197 2.67413 2.54276 2.31928 2.38259 2.19103 2.13845 2.31275 2.1952 2.01012 2.07153 1.83983 1.81558 1.96603 1.8633 1.7032 1.7704 1.5009 1.49088 1.62084 1.53076 1.39158 1.45238 1.1633 1.17358 1.28156 1.20067 1.09409 1.14253 0.841304 0.853065 0.946053 0.877081 0.794217 0.838743 0.511117 0.528521 0.623334 0.548575 0.494021 0.529946 0.172297 0.191829 0.288484 0.21006 0.171064 0.218814 13.2662 14.0196 9.88413 12.2467 11.4084 12.4418 24.411 21.7092 23.2034 22.211 19.8909 21.0582 27.0986 23.1521 27.1253 24.6787 21.8164 23.0009 25.8845 21.9899 26.3458 23.6765 20.7489 21.8469 23.624 20.1765 24.1814 21.744 18.9045 19.876 21.3534 18.3581 21.9065 19.7693 17.0809 17.9308 19.3059 16.6904 19.8307 17.9525 15.4389 16.1901 17.4944 15.1901 17.9874 16.3219 13.9998 14.6638 15.8883 13.8473 16.3446 14.8556 12.7366 13.3332 14.4534 12.6425 14.868 13.543 11.6225 12.1527 13.1654 11.552 13.5424 12.3571 10.6282 11.109 11.9904 10.5759 12.3427 11.2856 9.74674 10.1687 10.9217 9.68474 11.2505 10.3152 8.93705 9.31786 9.95464 8.87156 10.2507 9.42122 8.20734 8.53846 9.05374 8.12303 9.33338 8.61023 7.53416 7.82911 8.2307 7.43518 8.49314 7.8531 6.9084 7.17297 7.46886 6.79527 7.70769 7.15638 6.33673 6.55749 6.76138 6.19756 6.98913 6.50874 5.79208 5.98504 6.09882 5.6354 6.31373 5.90154 5.28548 5.45937 5.48681 5.10617 5.68817 5.33075 4.80223 4.95155 4.90349 4.60762 5.09164 4.79525 4.3486 4.47119 4.36395 4.13924 4.54065 4.28833 3.91391 4.01607 3.85029 3.67931 4.01534 3.8083 3.49341 3.58675 3.36162 3.24674 3.52712 3.35359 3.08731 3.16541 2.89694 2.83041 3.05875 2.91346 2.69767 2.76041 2.4567 2.42459 2.61188 2.48804 2.32463 2.36974 2.04235 2.03262 2.1811 2.08593 1.94653 1.98897 1.6381 1.65007 1.76476 1.68797 1.58592 1.62673 1.25031 1.28608 1.37297 1.30529 1.2284 1.2658 0.882873 0.925261 1.00471 0.944157 0.888989 0.9193 0.536915 0.577609 0.645253 0.58966 0.55972 0.587907 0.219746 0.221266 0.311125 0.263854 0.197841 0.246981 22.0709 22.332 18.4002 20.5995 18.6233 19.8573 34.8476 31.3855 33.6192 32.2081 28.6711 30.0456 36.9568 32.4431 37.1415 34.407 30.5157 31.964 35.0032 30.4852 35.651 32.6284 28.8463 30.2483 32.0762 27.9117 32.7962 29.9298 26.3349 27.625 29.1749 25.4209 29.8681 27.256 23.8715 25.0385 26.4962 23.1214 27.1581 24.7967 21.6412 22.6867 24.0605 21.0306 24.684 22.5478 19.6349 20.5771 21.8384 19.1229 22.42 20.4891 17.8338 18.6824 19.8112 17.3761 20.3515 18.6092 16.2122 16.9646 17.948 15.7814 18.4516 16.8839 14.734 15.4078 16.251 14.3219 16.7064 15.3078 13.3873 13.986 14.691 12.9852 15.1116 13.8636 12.1583 12.6853 13.2505 11.7617 13.643 12.534 11.034 11.4948 11.9284 10.6344 12.2889 11.3134 9.99074 10.399 10.7092 9.60019 11.0503 10.1875 9.04245 9.38926 9.59612 8.63295 9.90583 9.15416 8.1587 8.45889 8.55005 7.75178 8.84179 8.19773 7.34251 7.59362 7.59685 6.93612 7.86542 7.30884 6.58209 6.80179 6.711 6.17627 6.96748 6.48858 5.88603 6.06027 5.89387 5.46714 6.12986 5.73483 5.22748 5.36995 5.13867 4.81041 5.35827 5.02822 4.61377 4.72832 4.44085 4.19527 4.65154 4.37423 4.04144 4.12843 3.78945 3.62978 3.98662 3.76961 3.5029 3.57078 3.20201 3.10261 3.38065 3.20914 3.00181 3.05409 2.65206 2.60664 2.81886 2.68374 2.52973 2.56998 2.14573 2.13765 2.30783 2.19688 2.08151 2.11263 1.68056 1.70117 1.82282 1.74296 1.6644 1.68623 1.25053 1.29034 1.39084 1.31847 1.265 1.28037 0.845464 0.907481 0.97488 0.92101 0.890188 0.902922 0.495849 0.550819 0.605352 0.570834 0.538819 0.561708 0.233844 0.271233 0.303816 0.279626 0.244037 0.265037 36.6733 34.2104 33.193 33.5427 29.2821 30.9251 47.4221 43.2772 46.742 44.5227 40.0171 41.4195 47.3793 42.8336 47.9801 45.0802 40.7076 42.1724 44.5086 39.844 45.3504 42.2026 38.144 39.6113 41.0602 36.5627 41.9063 38.8163 34.9613 36.3534 37.6142 33.4269 38.442 35.5385 31.8754 33.1618 34.3285 30.5014 35.1298 32.4513 29.0087 30.1813 31.246 27.7566 32.0042 29.5514 26.3699 27.4318 28.3712 25.2178 29.0859 26.8521 23.9334 24.8901 25.6978 22.8513 26.3727 24.3385 21.6947 22.5548 23.2289 20.6728 23.8528 22.0125 19.6316 20.3982 20.9397 18.6655 21.5198 19.8648 17.7419 18.4212 18.8363 16.8084 19.3734 17.8914 15.9963 16.6006 16.8993 15.107 17.3914 16.0658 14.3886 14.9224 15.1129 13.5315 15.567 14.3863 12.9119 13.3736 13.4604 12.089 13.8804 12.8383 11.5505 11.9515 11.9481 10.7549 12.3357 11.4191 10.3049 10.6461 10.5461 9.53808 10.9077 10.1033 9.1386 9.43252 9.25983 8.39749 9.59539 8.89652 8.07489 8.31573 8.07516 7.36662 8.38077 7.78608 7.09557 7.29722 6.98151 6.39975 7.27319 6.7648 6.192 6.34834 5.9811 5.52072 6.25217 5.82231 5.35239 5.48357 5.06616 4.71815 5.3177 4.96151 4.59085 4.68772 4.23684 3.98564 4.46722 4.18064 3.88845 3.95665 3.48349 3.31222 3.69003 3.46609 3.24649 3.29478 2.79818 2.70617 2.98865 2.82081 2.66276 2.69774 2.19438 2.16137 2.3676 2.23872 2.13558 2.15213 1.65577 1.6585 1.81179 1.71702 1.65051 1.66142 1.1798 1.21631 1.32077 1.25244 1.21024 1.2225 0.767543 0.815355 0.897779 0.845147 0.807729 0.815681 0.426331 0.469096 0.524586 0.480543 0.46838 0.475221 0.214183 0.256348 0.254135 0.254879 0.241257 0.248137 65.033 52.4011 64.2814 58.4996 46.4545 48.5874 58.3653 55.4093 60.6841 57.1216 52.2802 53.3379 56.5268 52.7803 57.5458 54.977 50.719 52.0479 53.7886 49.2511 54.724 51.6566 47.5324 48.9746 50.263 45.5894 51.2423 48.0226 43.963 45.3928 46.4043 41.9342 47.4125 44.2804 40.3684 41.7183 42.5245 38.3703 43.527 40.5782 36.8859 38.128 38.7644 34.9568 39.7336 37.0091 33.5855 34.7124 35.2039 31.7414 36.1237 33.6131 30.4885 31.5073 31.8638 28.7229 32.7209 30.4341 27.5959 28.5152 28.7537 25.9187 29.5492 27.4714 24.9194 25.7415 25.8677 23.3269 26.6075 24.7239 22.4326 23.1673 23.2028 20.9265 23.8864 22.1841 20.1458 20.7937 20.7376 18.7162 21.3692 19.8428 18.0361 18.6098 18.4806 16.68 19.0572 17.6905 16.0914 16.5941 16.3965 14.8049 16.9332 15.7012 14.2993 14.7339 14.467 13.085 14.9572 13.8738 12.6499 13.0274 12.7003 11.4898 13.1534 12.194 11.1295 11.4535 11.0639 10.0287 11.4919 10.6388 9.72746 10.0004 9.56911 8.68824 9.96061 9.21588 8.44312 8.66681 8.19032 7.45809 8.55262 7.9039 7.26173 7.44305 6.93553 6.32972 7.26459 6.71661 6.17562 6.3173 5.78718 5.29813 6.08574 5.62619 5.19259 5.29955 4.73753 4.37661 5.02324 4.63671 4.30009 4.37878 3.80651 3.53149 4.0665 3.74369 3.4904 3.54625 2.97283 2.79021 3.19834 2.94424 2.77185 2.79668 2.23147 2.13062 2.43541 2.25028 2.12936 2.14152 1.60122 1.55862 1.78124 1.63327 1.5718 1.57813 1.06513 1.07163 1.22777 1.11641 1.08899 1.09516 0.651117 0.678589 0.768385 0.701113 0.689643 0.691717 0.353334 0.358744 0.433564 0.384654 0.361694 0.369866 0.193886 0.176536 0.226038 0.18768 0.176866 0.167532 27.905 49.6958 23.5986 33.9678 55.3458 53.5686 38.5609 44.9097 38.0594 42.8326 47.3448 45.6942 37.2503 41.4457 38.0265 39.4376 45.8138 43.8382 34.382 37.8064 34.863 36.2069 42.5078 40.6832 31.3265 34.0811 31.6499 32.8997 38.3195 36.7891 28.2572 30.5602 28.5611 29.6654 34.1158 32.8193 25.3226 27.3687 25.6531 26.6503 30.2894 29.1469 22.6128 24.5045 22.9678 23.9016 26.9055 25.8698 20.1634 21.9209 20.5322 21.4002 23.9253 22.9767 17.9497 19.5697 18.3217 19.1235 21.2739 20.4072 15.944 17.4177 16.3138 17.032 18.8845 18.0947 14.1275 15.4418 14.4755 15.1183 16.7161 16.0058 12.4716 13.6185 12.8009 13.3503 14.7343 14.105 10.9523 11.9486 11.258 11.7319 12.9199 12.3612 9.56203 10.4101 9.84459 10.239 11.2578 10.767 8.29621 8.99384 8.55603 8.87104 9.73064 9.3122 7.13756 7.70825 7.37538 7.62153 8.34616 7.97874 6.07955 6.52451 6.30068 6.48471 7.07238 6.76521 5.12401 5.45832 5.3249 5.45057 5.92003 5.65876 4.26463 4.49484 4.4422 4.5151 4.87638 4.66614 3.49322 3.6455 3.65104 3.68249 3.94174 3.77652 2.81572 2.87107 2.95474 2.94223 3.11097 2.98684 2.22126 2.20356 2.34381 2.2943 2.37596 2.29061 1.71164 1.63512 1.80947 1.7345 1.74726 1.69348 1.28464 1.15477 1.3738 1.2633 1.215 1.19505 0.941522 0.768243 1.02014 0.886154 0.778129 0.794332 0.679982 0.483209 0.741546 0.600182 0.442704 0.494516 0.493671 0.32964 0.548577 0.410499 0.260357 0.322902 0.361437 0.289519 0.413924 0.304669 0.227589 0.264295 0.243976 0.266121 0.30149 0.245506 0.236213 0.251977 0.136759 0.193329 0.197069 0.170082 0.18264 0.182973 0.106118 0.0927289 0.117065 0.0916669 0.0805289 0.0936542 14.0453 23.5334 12.6696 18.4435 23.1328 20.4513 23.2136 28.7634 22.3623 26.2241 31.6413 29.9564 24.2281 27.4138 24.109 25.755 31.2444 29.8963 22.9531 25.1606 22.9584 23.9595 28.9015 27.6419 21.2012 23.2195 21.2596 22.2181 26.4898 25.2979 19.3824 21.3687 19.5164 20.5199 24.0714 22.9649 17.5982 19.5256 17.7976 18.8052 21.721 20.7036 15.8922 17.725 16.15 17.1096 19.5094 18.5719 14.2966 16.0034 14.5918 15.4833 17.4712 16.6161 12.8294 14.3874 13.139 13.9438 15.6048 14.8315 11.4887 12.8754 11.7891 12.5015 13.8987 13.2082 10.2619 11.4815 10.5508 11.1718 12.3441 11.7342 9.14013 10.1903 9.42186 9.93849 10.9233 10.3931 8.11938 9.0134 8.3843 8.81288 9.62361 9.15727 7.19277 7.92096 7.43024 7.77771 8.4321 8.03777 6.34341 6.93939 6.56776 6.8399 7.34469 7.01909 5.57626 6.03577 5.78609 5.9787 6.35646 6.08733 4.88397 5.22271 5.07387 5.20502 5.45775 5.24668 4.26249 4.49574 4.44024 4.50673 4.64998 4.49481 3.69462 3.83835 3.8601 3.88353 3.92126 3.81441 3.1971 3.26112 3.34999 3.3277 3.27846 3.21357 2.75628 2.75509 2.8921 2.83886 2.71224 2.69308 2.36751 2.31542 2.49826 2.40898 2.22272 2.23947 2.02233 1.93141 2.14345 2.02792 1.81235 1.8495 1.72339 1.61113 1.82873 1.71107 1.46677 1.52692 1.45256 1.34172 1.5561 1.42745 1.17272 1.25272 1.21123 1.102 1.29693 1.17744 0.944815 1.03226 0.978231 0.896553 1.06611 0.951491 0.749552 0.839896 0.744194 0.700048 0.840109 0.735912 0.574967 0.649788 0.522275 0.496491 0.613883 0.527365 0.392588 0.467406 0.289141 0.282333 0.386454 0.302032 0.209339 0.27611 0.113024 0.153397 0.175772 0.112539 0.110883 0.160482 7.02307 12.0809 5.75482 9.36133 12.044 10.9562 15.0591 17.2564 13.8859 15.4249 18.8006 18.1436 17.1696 17.8901 16.8367 16.9392 20.1937 19.525 16.658 17.2226 16.5937 16.606 19.3914 18.6787 15.5571 16.3383 15.6193 15.8308 18.0743 17.3372 14.3621 15.3421 14.5376 14.9082 16.6573 15.9214 13.182 14.2518 13.4338 13.881 15.2437 14.5309 12.0409 13.122 12.3376 12.8103 13.8623 13.1946 10.9756 12.0029 11.2942 11.7412 12.5578 11.9473 9.99269 10.9275 10.3158 10.7159 11.3371 10.7963 9.09846 9.91593 9.41132 9.75026 10.2242 9.75073 8.28881 8.98694 8.58206 8.86156 9.20476 8.79587 7.54728 8.13489 7.82556 8.04106 8.27202 7.92726 6.88263 7.35544 7.13644 7.30209 7.42267 7.14073 6.26891 6.64156 6.51153 6.61951 6.6506 6.42471 5.71517 5.99552 5.9404 5.99789 5.94803 5.77792 5.20716 5.40864 5.41822 5.43546 5.31218 5.18898 4.74114 4.86788 4.93474 4.92232 4.73544 4.65268 4.31214 4.38289 4.49404 4.45127 4.21635 4.17309 3.90576 3.9429 4.08213 4.01735 3.74878 3.7313 3.54089 3.53142 3.69947 3.61555 3.32225 3.33644 3.18972 3.15798 3.34029 3.24086 2.94003 2.97922 2.85317 2.81318 3.00458 2.89855 2.59508 2.64658 2.54187 2.48163 2.67718 2.56765 2.27974 2.33796 2.23433 2.18703 2.36384 2.25694 1.98951 2.05226 1.92887 1.88782 2.0539 1.95443 1.71262 1.77351 1.63471 1.60092 1.74969 1.65356 1.44771 1.50809 1.3374 1.31005 1.45551 1.36485 1.18096 1.24953 1.03968 1.02954 1.15167 1.07216 0.916627 0.983805 0.749813 0.751144 0.860146 0.776962 0.659146 0.719794 0.450532 0.465987 0.556105 0.484009 0.395584 0.449409 0.157549 0.201837 0.252436 0.181349 0.171954 0.216489 6.76114 7.72449 3.45051 5.81667 7.03588 7.66404 16.2358 14.3392 14.9515 14.1762 14.3609 15.0905 18.7367 16.16 18.4593 16.6295 16.3207 16.8516 18.259 16.1144 18.3647 16.7185 16.0274 16.3657 16.9991 15.4359 17.2733 16.0194 15.0988 15.2803 15.6276 14.5159 15.9994 15.044 14.0212 14.0921 14.3152 13.5004 14.7311 13.976 12.9206 12.9237 13.0924 12.4696 13.517 12.8923 11.8624 11.8323 11.9779 11.4719 12.3919 11.8547 10.8654 10.8273 10.9634 10.5426 11.3586 10.8843 9.95725 9.91689 10.0519 9.68726 10.4137 9.99368 9.12311 9.09384 9.23229 8.90224 9.57217 9.18554 8.36783 8.35162 8.48677 8.19406 8.79749 8.45292 7.68297 7.68203 7.80758 7.54534 8.09637 7.77766 7.06365 7.07777 7.18513 6.94295 7.45498 7.15627 6.4886 6.51659 6.6076 6.39875 6.85551 6.59678 5.96521 6.0013 6.0742 5.88564 6.30759 6.06366 5.47853 5.53263 5.57154 5.40564 5.7907 5.57143 5.03068 5.08341 5.10494 4.96727 5.31007 5.11272 4.61439 4.66763 4.65912 4.54062 4.85634 4.67202 4.21225 4.27445 4.23243 4.13746 4.41342 4.25613 3.83881 3.89791 3.82186 3.74555 3.99511 3.85423 3.47601 3.53587 3.42343 3.37572 3.59671 3.46824 3.12441 3.18763 3.04729 3.01351 3.20578 3.09281 2.79386 2.84839 2.66883 2.64835 2.82019 2.71688 2.46425 2.51689 2.29981 2.29264 2.45093 2.35024 2.13458 2.18548 1.93222 1.94416 2.07224 1.99451 1.80978 1.85918 1.58471 1.5915 1.71488 1.63948 1.48899 1.53128 1.22716 1.25232 1.36379 1.29367 1.16093 1.20454 0.888667 0.927228 1.01879 0.95123 0.853513 0.891081 0.543733 0.583544 0.660349 0.611089 0.532246 0.573322 0.19441 0.205377 0.312698 0.236071 0.195033 0.243882 13.2402 13.5563 10.2353 12.1125 10.6788 11.9342 24.117 20.7301 22.9025 21.4806 19.0276 20.4486 26.5756 22.3195 26.5007 23.835 21.0116 22.3619 25.5222 21.7126 25.85 23.269 20.3293 21.4867 23.5796 20.3968 24.0545 21.8372 18.9245 19.8772 21.571 18.8981 22.105 20.2081 17.4109 18.1968 19.6837 17.3889 20.2338 18.5722 15.9509 16.6104 17.9421 15.9408 18.4812 17.0099 14.5923 15.157 16.3502 14.5882 16.8653 15.547 13.3454 13.8387 14.9018 13.3456 15.3834 14.2 12.2083 12.6434 13.5784 12.2122 14.0213 12.9691 11.1791 11.5638 12.3733 11.1731 12.7834 11.8481 10.2479 10.5877 11.2751 10.2307 11.653 10.822 9.40066 9.70691 10.2707 9.36778 10.6136 9.88594 8.62655 8.89253 9.34742 8.58252 9.6703 9.03073 7.9183 8.15158 8.49798 7.84727 8.80034 8.24433 7.26125 7.46026 7.71194 7.16855 7.99088 7.50845 6.64612 6.82729 6.9848 6.54348 7.24234 6.83195 6.08219 6.23434 6.31389 5.95142 6.54847 6.19816 5.54572 5.67492 5.66518 5.39408 5.90034 5.60149 5.04033 5.14817 5.07733 4.8684 5.29437 5.04314 4.5672 4.65756 4.5177 4.37587 4.71803 4.51473 4.11209 4.18655 3.98983 3.89931 4.18418 4.01664 3.67425 3.73311 3.49568 3.44256 3.67701 3.5388 3.24966 3.29556 3.01226 2.99771 3.18842 3.07041 2.83701 2.87876 2.56383 2.57098 2.72095 2.63377 2.43787 2.4707 2.13312 2.15859 2.28414 2.20379 2.04823 2.07435 1.7052 1.75846 1.85606 1.79547 1.66691 1.6953 1.31035 1.36785 1.45239 1.39627 1.29909 1.33218 0.931676 0.996039 1.06606 1.01513 0.947486 0.97467 0.567418 0.623228 0.690809 0.642024 0.592407 0.617832 0.234764 0.247162 0.332919 0.274269 0.227779 0.265654 22.8012 23.6444 19.6808 21.9923 18.9705 20.1552 35.2218 31.3223 34.16 32.4729 28.5487 30.1257 36.7883 31.8579 37.0442 33.9434 30.0539 31.6746 34.7353 30.1718 35.3073 32.241 28.5201 29.9841 31.9817 27.9883 32.6227 29.8857 26.3151 27.5879 29.2762 25.7651 29.9388 27.5023 24.1022 25.2044 26.7348 23.6133 27.4019 25.2089 22.0129 22.9799 24.3618 21.5744 25.0097 23.0271 20.0685 20.9245 22.1557 19.6582 22.773 20.9771 18.2804 19.0418 20.1162 17.8832 20.699 19.0758 16.6376 17.3117 18.2423 16.2494 18.7813 17.3224 15.1307 15.7279 16.5151 14.759 17.0132 15.7066 13.7521 14.2798 14.9239 13.3807 15.388 14.2269 12.4912 12.9546 13.4667 12.1182 13.8917 12.862 11.338 11.7395 12.126 10.969 12.513 11.6127 10.2689 10.6193 10.8893 9.8976 11.2562 10.4662 9.29117 9.59325 9.75162 8.90892 10.0857 9.3989 8.38887 8.64093 8.70535 8.00283 9.01226 8.42498 7.55203 7.76754 7.73427 7.17132 8.02789 7.52429 6.78525 6.95632 6.84442 6.39469 7.11813 6.68766 6.05958 6.20242 6.01576 5.67213 6.27018 5.91437 5.39365 5.50463 5.24972 4.99445 5.48828 5.20042 4.76332 4.85099 4.54238 4.37626 4.76763 4.52901 4.18095 4.24391 3.89108 3.791 4.0955 3.91163 3.63636 3.67919 3.28781 3.24466 3.481 3.33965 3.11704 3.14746 2.72818 2.72564 2.90882 2.80255 2.63845 2.65413 2.21824 2.25124 2.39296 2.30906 2.1725 2.19281 1.73298 1.80352 1.89973 1.83825 1.73901 1.7448 1.29976 1.36885 1.44675 1.39782 1.32833 1.33924 0.885718 0.969953 1.03066 0.987838 0.936882 0.94879 0.514979 0.583121 0.635679 0.603496 0.574714 0.588177 0.24427 0.293273 0.304802 0.299374 0.26028 0.279914 37.6033 36.9139 34.2698 35.7191 30.4015 31.8001 48.3941 43.9194 48.084 45.6262 40.5075 42.0977 47.5706 42.3943 48.359 44.9209 40.5132 42.1694 44.3622 39.4618 45.1613 41.8282 37.8611 39.4118 40.9502 36.4876 41.7312 38.6676 34.8689 36.2638 37.6455 33.5985 38.4334 35.6323 31.9763 33.2219 34.4731 30.8006 35.2663 32.6938 29.2395 30.3527 31.4474 28.1213 32.2235 29.8691 26.6588 27.652 28.5869 25.5812 29.3306 27.1835 24.2388 25.1331 25.9098 23.2002 26.6094 24.6565 21.9905 22.7867 23.4254 20.9936 24.0759 22.3087 19.9047 20.6179 21.1189 18.9507 21.7239 20.1326 17.9847 18.6219 18.9922 17.0703 19.552 18.1302 16.2162 16.7721 17.0347 15.3389 17.5485 16.2773 14.5908 15.0796 15.232 13.7461 15.7038 14.5775 13.0934 13.5149 13.5701 12.2789 14.0078 13.0113 11.7173 12.0816 12.045 10.9322 12.4437 11.5694 10.4475 10.7562 10.6335 9.68796 11.0073 10.2485 9.27624 9.54389 9.33696 8.55229 9.68319 9.02557 8.19862 8.41627 8.14243 7.50333 8.46854 7.90393 7.21232 7.38825 7.05584 6.52914 7.34872 6.86963 6.30049 6.43183 6.04273 5.64298 6.32129 5.92723 5.46345 5.56285 5.1273 4.83705 5.38294 5.05708 4.68683 4.75954 4.29012 4.09089 4.52475 4.27114 3.98139 4.03144 3.5309 3.41418 3.75214 3.55155 3.33391 3.36081 2.85143 2.79469 3.04582 2.90348 2.73513 2.75526 2.22942 2.24173 2.41868 2.31281 2.19623 2.20704 1.69509 1.7359 1.8573 1.78433 1.70323 1.70235 1.20524 1.2755 1.35897 1.30572 1.26312 1.2662 0.789344 0.858952 0.922471 0.89022 0.844359 0.849176 0.425976 0.490759 0.535424 0.504948 0.489708 0.491784 0.221689 0.275836 0.260106 0.260706 0.253664 0.254624 65.3813 55.9551 63.9337 60.7458 47.8475 49.7196 60.175 56.7804 62.9782 59.0967 53.3844 54.5749 57.2716 52.6561 58.5216 55.238 50.8898 52.3973 53.9189 48.9713 54.8725 51.4687 47.3841 48.9267 50.2705 45.5073 51.229 47.9268 43.8791 45.3312 46.4701 42.037 47.4668 44.3523 40.4204 41.752 42.6583 38.586 43.667 40.762 37.0421 38.2499 38.9409 35.2255 39.9287 37.246 33.7887 34.879 35.3841 32.0084 36.3297 33.8642 30.7037 31.6836 32.0375 28.9734 32.9237 30.668 27.8035 28.6856 28.9004 26.1447 29.7305 27.6843 25.1034 25.888 25.9954 23.5192 26.7604 24.9044 22.5979 23.3008 23.3135 21.0946 24.018 22.3418 20.2876 20.9078 20.8355 18.8627 21.484 19.9774 18.1591 18.7027 18.5551 16.805 19.1512 17.7951 16.2001 16.6804 16.4571 14.9129 16.9992 15.8002 14.393 14.811 14.5206 13.1725 15.0304 13.9572 12.7298 13.0936 12.7483 11.5775 13.2143 12.2625 11.1991 11.5097 11.1046 10.1052 11.5369 10.704 9.79609 10.0497 9.60119 8.7518 9.99384 9.27143 8.49976 8.7116 8.21877 7.51384 8.59896 7.96147 7.31659 7.48772 6.95677 6.3857 7.29842 6.75768 6.22939 6.36383 5.81109 5.35882 6.12142 5.66387 5.24434 5.33767 4.76933 4.4206 5.05183 4.67952 4.34317 4.41495 3.82994 3.58526 4.08703 3.78243 3.53344 3.57542 2.98243 2.83931 3.22555 2.98447 2.81406 2.83226 2.24946 2.17184 2.45768 2.28077 2.16003 2.16901 1.60683 1.59747 1.79484 1.65865 1.60046 1.59384 1.06953 1.10461 1.22735 1.14122 1.11851 1.10585 0.642666 0.695732 0.76335 0.710298 0.705098 0.701481 0.335517 0.376028 0.423497 0.387732 0.367835 0.372598 0.192871 0.181344 0.214482 0.182671 0.187045 0.169942 31.8111 52.6896 32.5344 44.2689 52.9187 53.9045 36.9907 35.4787 37.4873 35.2699 45.4202 45.0979 34.0545 32.7228 33.9578 31.5336 42.423 41.3506 31.1615 31.8439 30.4284 30.5654 39.0427 37.7836 28.7712 30.5104 28.2243 29.4164 35.4887 34.2593 26.4909 28.636 26.3191 27.7308 32.0804 30.9202 24.2299 26.4575 24.3454 25.7056 28.9589 27.8599 22.0134 24.1607 22.3061 23.5432 26.1009 25.0702 19.8902 21.8745 20.2675 21.358 23.4742 22.5174 17.8806 19.6632 18.2928 19.2362 21.0409 20.166 15.9943 17.5745 16.4062 17.23 18.7773 17.9913 14.2375 15.6154 14.6332 15.3369 16.6883 15.9822 12.608 13.8028 12.9768 13.5797 14.7467 14.1176 11.1073 12.1258 11.4524 11.9591 12.9639 12.406 9.72502 10.5807 10.0418 10.4645 11.3092 10.8264 8.45599 9.16675 8.74668 9.08566 9.79376 9.37339 7.29535 7.87009 7.56088 7.82986 8.40866 8.05085 6.23721 6.68749 6.48664 6.68886 7.13853 6.8343 5.27832 5.62254 5.50194 5.64871 5.98697 5.73128 4.41808 4.66351 4.6185 4.71562 4.94415 4.73647 3.64055 3.80131 3.83243 3.87324 4.01343 3.85293 2.95871 3.02707 3.12883 3.12911 3.18142 3.05506 2.3635 2.36036 2.51311 2.47442 2.44218 2.3657 1.84494 1.7851 1.97714 1.9104 1.80905 1.76792 1.41706 1.28473 1.52874 1.43773 1.27114 1.26073 1.06105 0.90276 1.16497 1.04721 0.832609 0.850619 0.790364 0.602824 0.873653 0.739877 0.491336 0.545747 0.573144 0.399062 0.651781 0.519027 0.266775 0.35168 0.40794 0.300456 0.475784 0.360829 0.211843 0.278362 0.269609 0.23875 0.338408 0.25316 0.213397 0.243442 0.147194 0.17963 0.211159 0.172155 0.182859 0.185969 0.0945306 0.0947722 0.108882 0.100443 0.0756825 0.0811188 17.341 31.6363 19.756 26.7494 26.0018 24.1767 21.7391 20.4124 21.4296 21.0062 29.0997 28.7142 21.3021 20.1806 20.5777 19.7763 27.3437 26.8981 20.3164 20.9034 19.4458 19.8743 25.5779 24.8091 19.4686 21.2136 18.9562 20.1138 24.207 23.2389 18.5007 20.7088 18.3728 19.7631 22.7214 21.6986 17.3204 19.5991 17.462 18.8287 21.0491 20.0426 15.9985 18.152 16.2956 17.5335 19.2757 18.3299 14.6312 16.5845 14.9987 16.0861 17.5095 16.6377 13.278 15.0055 13.6678 14.6039 15.792 15.0057 11.9796 13.4945 12.3683 13.1715 14.1609 13.4577 10.7648 12.0713 11.1346 11.8169 12.6395 12.0189 9.63513 10.7478 9.9793 10.5522 11.2273 10.6854 8.5962 9.54171 8.91965 9.39104 9.91943 9.45637 7.64056 8.42591 7.94591 8.32804 8.72476 8.32908 6.77563 7.41886 7.05118 7.35777 7.62842 7.30279 5.98299 6.4976 6.24033 6.4773 6.63104 6.36162 5.26774 5.66196 5.50493 5.67727 5.72631 5.5132 4.6246 4.91216 4.83935 4.95259 4.91023 4.74823 4.04077 4.24723 4.25094 4.30374 4.17563 4.05943 3.52183 3.63935 3.71286 3.72405 3.52283 3.45347 3.0572 3.10911 3.23143 3.2103 2.94529 2.9174 2.64338 2.6454 2.80269 2.75389 2.44202 2.44849 2.27047 2.23566 2.42555 2.34349 2.00908 2.04251 1.94278 1.88562 2.07697 1.99133 1.64908 1.70294 1.63501 1.57387 1.76244 1.66861 1.33865 1.41381 1.35509 1.29121 1.47677 1.37219 1.07926 1.15807 1.09576 1.04088 1.20067 1.10993 0.852711 0.931162 0.84041 0.795713 0.948865 0.85176 0.650882 0.724995 0.588573 0.554954 0.688328 0.603441 0.444337 0.517757 0.329948 0.32834 0.439502 0.355849 0.247952 0.307314 0.12306 0.176475 0.191552 0.138865 0.115582 0.172465 7.6675 15.9347 9.3955 13.3645 13.6847 12.6039 12.5414 10.9425 11.0955 10.3014 16.2623 16.2878 14.644 13.6042 13.6995 13.1315 17.1336 17.0256 15.1142 15.2993 14.56 14.7255 17.1425 16.7575 15.0214 16.017 14.8676 15.454 16.9088 16.3082 14.5444 15.8991 14.6899 15.4344 16.3436 15.6279 13.7885 15.2323 14.1116 14.8656 15.4636 14.7196 12.8729 14.2541 13.2785 13.9778 14.3869 13.6703 11.8941 13.1522 12.3268 12.9435 13.2307 12.5686 10.919 12.0324 11.3471 11.8842 12.0679 11.479 9.98939 10.9646 10.4026 10.8525 10.9501 10.4282 9.12727 9.95814 9.51399 9.88133 9.90555 9.45569 8.33253 9.03056 8.69152 8.98703 8.93622 8.55727 7.60232 8.18777 7.93406 8.17397 8.05094 7.73512 6.9378 7.41695 7.2435 7.42407 7.23721 6.98171 6.32633 6.71455 6.61381 6.74669 6.49803 6.29553 5.76676 6.06413 6.03224 6.11719 5.8298 5.67497 5.25732 5.48666 5.50076 5.55224 5.21773 5.10565 4.78061 4.94836 5.00865 5.02411 4.66931 4.59218 4.33845 4.45327 4.55036 4.54017 4.15721 4.11588 3.92768 4.00682 4.12589 4.09294 3.69979 3.6888 3.53426 3.58049 3.72051 3.66731 3.28416 3.29148 3.16461 3.18871 3.34165 3.27336 2.90038 2.9265 2.80816 2.81844 2.97304 2.90902 2.54862 2.58498 2.46603 2.46988 2.62077 2.55394 2.21977 2.26605 2.13354 2.1281 2.28068 2.20228 1.90925 1.95461 1.8005 1.79729 1.93643 1.86245 1.60593 1.66309 1.479 1.47522 1.6071 1.52244 1.31376 1.3647 1.16062 1.15615 1.28406 1.20173 1.03015 1.07546 0.834742 0.844966 0.950524 0.883791 0.73877 0.792975 0.513278 0.540979 0.63296 0.569519 0.450168 0.502684 0.180474 0.242325 0.293217 0.231097 0.183288 0.234813 4.92204 4.76717 2.78936 4.85641 5.26401 6.05993 14.0735 10.9223 12.3791 10.6346 11.5186 12.7318 17.1497 14.7441 16.4858 14.9894 14.2866 15.0886 17.7007 16.18 17.6344 16.6028 15.1549 15.5974 17.2493 16.3678 17.5203 16.8086 15.1693 15.3337 16.3654 15.8673 16.8124 16.2886 14.6821 14.6681 15.2884 14.9922 15.8112 15.3881 13.8994 13.7893 14.1482 13.9607 14.6919 14.3335 12.9558 12.8145 13.0255 12.8913 13.5568 13.2349 11.981 11.8319 11.9644 11.8563 12.4604 12.1751 11.0302 10.8903 10.9798 10.8939 11.4443 11.1817 10.1343 10.0069 10.0803 10.002 10.505 10.2634 9.29421 9.19576 9.25976 9.19265 9.6548 9.43473 8.53595 8.46245 8.50915 8.44884 8.87461 8.67313 7.84097 7.78576 7.82738 7.77667 8.15558 7.97366 7.20642 7.16463 7.19243 7.15456 7.49923 7.33765 6.616 6.59433 6.60825 6.57609 6.89017 6.73923 6.07113 6.06478 6.05472 6.0378 6.32154 6.18636 5.5715 5.56969 5.53976 5.53765 5.78542 5.67217 5.0957 5.11071 5.05521 5.05769 5.29007 5.175 4.65531 4.67263 4.5923 4.60215 4.80774 4.71146 4.23584 4.25866 4.14637 4.15824 4.35401 4.25578 3.82985 3.8547 3.72081 3.74032 3.91332 3.82833 3.44996 3.47142 3.29899 3.32784 3.48192 3.41051 3.0681 3.10071 2.88606 2.92861 3.0693 3.00139 2.70225 2.73518 2.49325 2.53737 2.661 2.59496 2.33791 2.36954 2.09517 2.14747 2.2566 2.197 1.98094 2.01109 1.72317 1.76423 1.86829 1.80418 1.62699 1.65362 1.34582 1.39895 1.48356 1.43059 1.28565 1.31684 0.983722 1.03964 1.12158 1.06064 0.942795 0.975088 0.620407 0.675616 0.750677 0.699752 0.609044 0.636815 0.22411 0.264625 0.366329 0.293558 0.218423 0.265972 13.9692 13.5047 12.8482 14.2721 9.51084 11.2667 23.2221 18.7552 22.2404 19.6296 17.2773 19.1335 25.5959 21.7762 25.3279 22.8722 19.871 21.3289 25.1787 22.206 25.3958 23.396 20.1266 21.2125 23.8257 21.4392 24.3113 22.6181 19.409 20.2179 22.1828 20.1804 22.7876 21.2918 18.2821 18.9039 20.4663 18.7306 21.1091 19.7631 16.9905 17.4869 18.779 17.245 19.4179 18.1974 15.6669 16.0786 17.1677 15.8142 17.7797 16.6703 14.3859 14.7391 15.6698 14.4773 16.2378 15.2433 13.1874 13.4968 14.291 13.2431 14.8209 13.9259 12.0855 12.3542 13.027 12.1171 13.5132 12.7163 11.0757 11.3105 11.8725 11.0891 12.317 11.6208 10.1506 10.3575 10.8105 10.1551 11.2243 10.6192 9.3107 9.48854 9.8414 9.29746 10.2235 9.69742 8.5405 8.6948 8.95381 8.50101 9.3024 8.85002 7.82815 7.95921 8.12761 7.77179 8.45031 8.06786 7.17564 7.28144 7.36155 7.09173 7.66518 7.34385 6.55885 6.64822 6.65753 6.44638 6.94072 6.66808 5.98245 6.05392 5.9951 5.85284 6.25877 6.02958 5.43641 5.49565 5.37302 5.2888 5.62172 5.44053 4.92732 4.9698 4.79143 4.75217 5.0149 4.871 4.43416 4.47221 4.23483 4.23349 4.45621 4.33643 3.96261 3.98935 3.7178 3.74328 3.92209 3.81982 3.50443 3.52454 3.212 3.2707 3.41076 3.33363 3.06099 3.07687 2.73623 2.80709 2.92405 2.86212 2.63632 2.65142 2.28042 2.36006 2.46043 2.40048 2.21779 2.23409 1.84296 1.92414 2.00838 1.96258 1.80487 1.82479 1.42421 1.49793 1.56979 1.53211 1.41871 1.4328 1.01648 1.1014 1.16389 1.12075 1.03434 1.0496 0.631364 0.721328 0.76429 0.735273 0.67219 0.679852 0.250253 0.302377 0.380379 0.329441 0.249482 0.299948 25.5163 28.0125 25.067 28.2358 20.1386 21.6472 35.2408 29.2374 35.0181 31.2975 27.6925 29.8158 36.0472 31.0373 36.1845 32.8089 29.1687 30.925 34.2804 30.3274 34.6862 31.9814 28.2781 29.6683 31.9986 28.6761 32.5917 30.2573 26.6215 27.7496 29.6233 26.6971 30.3189 28.208 24.7299 25.6777 27.2477 24.621 27.9812 26.0423 22.7829 23.6053 24.9394 22.5568 25.669 23.8791 20.8782 21.5994 22.7317 20.592 23.4404 21.8008 19.0622 19.6998 20.671 18.7543 21.3246 19.839 17.3669 17.9311 18.7493 17.0441 19.3562 18.0223 15.8047 16.3055 16.9738 15.4778 17.5416 16.3457 14.3675 14.8066 15.3463 14.0367 15.8641 14.8026 13.051 13.432 13.8454 12.7288 14.327 13.3968 11.8448 12.1747 12.4719 11.5172 12.9159 12.0992 10.7377 11.0236 11.2107 10.4098 11.6173 10.9127 9.72313 9.95709 10.0465 9.38212 10.4257 9.82319 8.78661 8.98266 8.97592 8.43832 9.32298 8.80915 7.91807 8.08232 7.98235 7.57512 8.30879 7.8773 7.12367 7.25155 7.07246 6.76238 7.38291 7.02436 6.37276 6.47354 6.22802 6.01556 6.52172 6.2252 5.68326 5.75738 5.45553 5.32328 5.72358 5.48287 5.03392 5.08254 4.73112 4.66752 4.97661 4.80217 4.42454 4.46173 4.06041 4.0593 4.30043 4.15618 3.86114 3.87995 3.45106 3.48946 3.66394 3.56645 3.31648 3.32719 2.8776 2.95315 3.08165 3.00911 2.81235 2.81098 2.34599 2.44281 2.53463 2.48155 2.33164 2.32795 1.86173 1.96258 2.02777 1.99459 1.87332 1.87098 1.39139 1.50669 1.55885 1.5308 1.43762 1.43221 0.961978 1.06302 1.11616 1.08689 1.02385 1.02599 0.569604 0.655915 0.700462 0.664456 0.640543 0.636847 0.255683 0.310327 0.336531 0.323807 0.274677 0.307855 41.1806 45.2471 40.5922 45.6726 33.3172 34.8546 49.1042 41.4336 50.2346 44.8162 40.2125 42.5256 46.9714 41.1101 47.6282 43.3648 39.6524 41.5423 43.827 39.2003 44.3721 41.1292 37.4213 38.9627 40.8107 36.8026 41.4824 38.6666 34.9113 36.2142 37.8106 34.2015 38.5885 36.0145 32.334 33.4684 34.8002 31.5192 35.6336 33.24 29.7443 30.7477 31.8435 28.8579 32.6735 30.4649 27.2136 28.1099 28.9908 26.2781 29.7983 27.7644 24.7855 25.5892 26.2925 23.8486 27.054 25.1988 22.5073 23.2209 23.7755 21.5899 24.4759 22.8001 20.3824 21.0204 21.4313 19.4892 22.0869 20.579 18.4135 18.9752 19.2748 17.5577 19.88 18.5274 16.6062 17.0966 17.2852 15.7789 17.838 16.6418 14.9378 15.3696 15.4551 14.1575 15.968 14.9035 13.4163 13.7841 13.7672 12.6512 14.2378 13.3063 12.0086 12.3239 12.2193 11.2705 12.6536 11.8477 10.7132 10.9824 10.7938 10.0039 11.1979 10.4977 9.52971 9.74296 9.4861 8.84758 9.86177 9.26037 8.43408 8.60895 8.28253 7.78082 8.62874 8.12649 7.4324 7.56935 7.17971 6.78846 7.50646 7.08583 6.49571 6.59478 6.17693 5.90364 6.46443 6.12202 5.65536 5.72188 5.24427 5.06524 5.51862 5.25472 4.86625 4.91364 4.40735 4.30748 4.6593 4.44954 4.14797 4.16946 3.6429 3.6216 3.87658 3.72459 3.48771 3.49446 2.95273 2.99854 3.16535 3.0592 2.88651 2.87608 2.33236 2.41962 2.52455 2.46276 2.33219 2.31303 1.77894 1.88575 1.95532 1.92249 1.82738 1.80454 1.28368 1.40466 1.44279 1.42448 1.35235 1.34164 0.846076 0.951501 0.989665 0.974482 0.920692 0.909504 0.45774 0.549861 0.581907 0.551957 0.533886 0.529319 0.226768 0.292173 0.267448 0.27165 0.268252 0.268347 67.9883 67.7639 68.8756 74.0502 51.4845 53.4503 62.058 53.9721 65.4678 57.3693 53.5571 55.6465 57.1808 50.9728 58.0819 53.3896 50.1237 51.9925 53.5935 48.4067 54.2476 50.65 46.8846 48.5054 50.1825 45.5738 51.0177 47.7737 43.7868 45.2166 46.6133 42.4332 47.5809 44.5569 40.6153 41.8837 42.927 39.1046 43.9661 41.1269 37.378 38.5184 39.2625 35.7621 40.2963 37.6544 34.1835 35.2051 35.6967 32.5336 36.7017 34.2661 31.0896 32.0084 32.33 29.455 33.2652 31.0305 28.1625 28.9886 29.1576 26.5798 30.0306 27.9985 25.4259 26.1616 26.2151 23.9051 27.0267 25.1834 22.8875 23.5446 23.4985 21.4367 24.2479 22.5822 20.5397 21.1197 20.996 19.1599 21.6791 20.1878 18.3793 18.8888 18.6913 17.0786 19.3124 17.9841 16.398 16.8367 16.5736 15.1592 17.1463 15.9613 14.5665 14.9469 14.6265 13.3892 15.1499 14.094 12.8852 13.2121 12.8253 11.7705 13.314 12.3861 11.3358 11.6127 11.1765 10.2831 11.6279 10.8068 9.92224 10.1481 9.6673 8.91893 10.0778 9.3789 8.61594 8.7999 8.28236 7.67386 8.66335 8.06166 7.42903 7.57163 7.01174 6.53183 7.36296 6.85356 6.33621 6.44554 5.85909 5.49368 6.17927 5.7486 5.33711 5.41438 4.816 4.56806 5.11303 4.76596 4.44005 4.48297 3.87963 3.71901 4.13939 3.86129 3.62593 3.64485 3.02937 2.96546 3.2796 3.06953 2.90112 2.89802 2.28344 2.2957 2.51055 2.36323 2.25299 2.23893 1.64166 1.71346 1.8552 1.75035 1.67992 1.65318 1.09999 1.20986 1.2676 1.21536 1.1832 1.1542 0.658975 0.77508 0.803649 0.769923 0.75619 0.734819 0.346795 0.412457 0.44023 0.428315 0.399316 0.393798 0.194029 0.216604 0.230204 0.222318 0.196716 0.173015 
SCALARS volume float 1
LOOKUP_TABLE default
0.00757811 0.00757724 0.00751341 0.00744907 0.00763776 0.00777809 0.00791738 0.00778876 0.00782414 0.00778363 0.0078241 0.00792586 0.00794954 0.00784429 0.00790052 0.00787352 0.0078674 0.00793632 0.00795322 0.00787962 0.00792356 0.00790426 0.00789496 0.00793762 0.00795997 0.00790946 0.00794232 0.00792571 0.00791938 0.00794505 0.00797137 0.00793531 0.00796138 0.00794611 0.00794185 0.00795802 0.00798546 0.00795794 0.0079798 0.00796572 0.00796272 0.00797359 0.00800024 0.00797794 0.00799679 0.00798433 0.00798177 0.00799025 0.00801506 0.00799596 0.00801266 0.00800147 0.00799917 0.00800619 0.00802919 0.00801233 0.00802712 0.00801722 0.00801523 0.00802139 0.00804218 0.00802712 0.00804043 0.00803166 0.00802976 0.00803535 0.008054 0.00804087 0.00805257 0.00804494 0.00804315 0.00804831 0.00806486 0.00805315 0.0080634 0.00805662 0.00805533 0.00805994 0.0080747 0.00806434 0.00807334 0.00806744 0.00806637 0.00807015 0.00808349 0.00807422 0.00808207 0.0080771 0.00807614 0.0080797 0.00809129 0.00808353 0.00809027 0.00808576 0.00808514 0.00808811 0.00809847 0.00809167 0.00809773 0.00809372 0.00809322 0.00809586 0.00810493 0.00809918 0.00810414 0.00810062 0.00810046 0.00810251 0.00811056 0.00810568 0.00810991 0.00810703 0.00810702 0.0081088 0.00811591 0.00811149 0.00811506 0.00811243 0.00811252 0.00811419 0.00812009 0.00811673 0.00811968 0.0081176 0.00811786 0.00811908 0.00812432 0.00812152 0.00812345 0.00812173 0.00812246 0.00812325 0.00812746 0.00812535 0.00812705 0.0081257 0.00812593 0.00812667 0.00813045 0.00812891 0.00813008 0.00812894 0.00812942 0.0081299 0.00813283 0.00813178 0.00813275 0.00813191 0.00813233 0.00813273 0.00813504 0.00813444 0.00813485 0.00813425 0.00813473 0.00813499 0.00813654 0.00813644 0.00813643 0.00813602 0.00813665 0.00813652 0.00813773 0.00813785 0.00813768 0.00813751 0.00813793 0.00813788 0.00813849 0.0081387 0.00813851 0.00813828 0.00813918 0.00813877 0.00813911 0.00813931 0.00813879 0.00813918 0.00813907 0.00813917 0.00813901 0.0081396 0.00813923 0.00813902 0.00813917 0.00813903 0.00813873 0.00813834 0.00813876 0.00813845 0.00813807 0.00813821 0.0078027 0.00776397 0.0077619 0.00774761 0.00776655 0.00790479 0.00800536 0.0078941 0.00792644 0.00789769 0.00792084 0.00801377 0.0080269 0.00795411 0.00798482 0.00796802 0.00795801 0.00801689 0.00802551 0.00797256 0.00800354 0.00798654 0.00797301 0.00801119 0.00802565 0.00798376 0.00801292 0.0079968 0.0079856 0.00801102 0.00802993 0.00799571 0.00802206 0.00800762 0.00799899 0.00801644 0.00803748 0.00800854 0.00803228 0.00801942 0.00801274 0.0080251 0.00804663 0.00802182 0.00804318 0.00803161 0.00802606 0.00803589 0.00805628 0.00803475 0.0080539 0.00804341 0.00803895 0.00804677 0.00806583 0.008047 0.00806408 0.0080548 0.00805082 0.00805732 0.00807491 0.00805813 0.00807356 0.0080651 0.00806157 0.00806745 0.00808319 0.00806839 0.00808202 0.00807452 0.00807146 0.00807668 0.00809062 0.00807755 0.00808971 0.00808297 0.00808065 0.00808497 0.0080975 0.00808604 0.0080967 0.00809083 0.00808851 0.00809241 0.00810347 0.00809342 0.0081027 0.00809755 0.00809592 0.00809927 0.00810875 0.00810004 0.00810837 0.00810386 0.00810231 0.00810503 0.00811378 0.00810636 0.00811325 0.00810921 0.00810812 0.00811056 0.00811807 0.00811138 0.00811768 0.0081141 0.00811319 0.00811516 0.00812189 0.00811644 0.00812141 0.00811846 0.00811785 0.00811928 0.00812523 0.00812061 0.00812514 0.00812226 0.00812191 0.00812288 0.00812799 0.00812431 0.00812782 0.00812581 0.00812546 0.00812623 0.00813058 0.00812769 0.00813054 0.00812871 0.00812846 0.00812941 0.00813257 0.00813018 0.0081326 0.00813104 0.00813129 0.00813184 0.00813429 0.00813278 0.00813453 0.00813331 0.00813346 0.00813382 0.00813599 0.00813475 0.00813568 0.00813503 0.00813538 0.00813552 0.0081369 0.00813635 0.008137 0.00813622 0.00813695 0.00813668 0.00813793 0.00813795 0.0081378 0.00813762 0.00813807 0.00813784 0.00813848 0.00813831 0.00813872 0.00813835 0.00813886 0.0081384 0.00813904 0.00813922 0.00813878 0.0081391 0.00813922 0.00813879 0.00813898 0.00813928 0.00813943 0.00813907 0.00813942 0.00813898 0.00813883 0.00813927 0.00813913 0.00813906 0.0081393 0.00813922 0.0081386 0.00813881 0.00813883 0.00813917 0.00813896 0.00813887 0.00798458 0.00792835 0.00797391 0.00794338 0.00794334 0.00801439 0.00807662 0.00800172 0.00804138 0.00800931 0.00801014 0.00807516 0.00808678 0.00803335 0.00806265 0.00804632 0.00803182 0.00807685 0.00808461 0.00804185 0.00807073 0.00805529 0.00804077 0.00807129 0.00808315 0.00804648 0.00807467 0.00805943 0.0080472 0.00806931 0.00808451 0.00805226 0.00807864 0.00806466 0.00805439 0.00807108 0.00808786 0.00805918 0.00808364 0.00807114 0.00806233 0.00807539 0.00809274 0.00806712 0.00808951 0.00807817 0.0080706 0.00808143 0.00809796 0.00807531 0.00809578 0.00808551 0.00807888 0.00808787 0.00810334 0.00808324 0.00810158 0.00809249 0.0080868 0.00809423 0.0081085 0.00809048 0.00810707 0.00809891 0.00809379 0.00810041 0.00811311 0.00809724 0.00811213 0.00810479 0.00810023 0.00810598 0.0081174 0.00810318 0.00811664 0.00810992 0.00810598 0.00811073 0.0081211 0.00810865 0.00812063 0.00811448 0.00811094 0.00811527 0.00812429 0.00811345 0.00812401 0.00811872 0.00811576 0.0081194 0.00812725 0.0081178 0.0081271 0.00812224 0.00811958 0.00812289 0.00812962 0.00812158 0.00812959 0.00812554 0.0081233 0.00812601 0.00813172 0.00812446 0.00813177 0.00812821 0.0081264 0.00812852 0.00813339 0.00812741 0.0081335 0.00813062 0.00812903 0.00813099 0.008135 0.00813019 0.00813543 0.00813252 0.00813139 0.00813272 0.0081367 0.00813226 0.0081366 0.00813441 0.00813326 0.00813457 0.00813747 0.00813422 0.00813766 0.00813585 0.00813499 0.00813591 0.00813832 0.00813557 0.00813846 0.00813709 0.00813666 0.00813685 0.00813915 0.00813693 0.00813892 0.00813799 0.00813765 0.00813785 0.00813939 0.00813787 0.00813953 0.00813881 0.00813847 0.00813874 0.00813962 0.0081389 0.00813976 0.00813946 0.00813939 0.00813933 0.00813973 0.00813918 0.00813972 0.00813951 0.00813951 0.0081398 0.0081398 0.0081395 0.00814003 0.0081395 0.00813992 0.00813934 0.00813947 0.0081395 0.00813978 0.00813976 0.00813961 0.00813946 0.00813927 0.00813954 0.00813946 0.00813952 0.00813953 0.00813947 0.00813905 0.00813934 0.00813924 0.00813909 0.00813919 0.00813937 0.00813839 0.008139 0.00813858 0.00813888 0.00813942 0.008139 0.00813341 0.00807414 0.00816134 0.008113 0.00808362 0.00811125 0.0081415 0.00809284 0.00814106 0.00810909 0.00809516 0.00813066 0.00814147 0.00810175 0.0081353 0.00811567 0.00809957 0.00812993 0.00813824 0.00810269 0.00813294 0.00811739 0.00810208 0.0081255 0.00813625 0.00810335 0.00813174 0.00811739 0.00810403 0.00812292 0.00813559 0.00810525 0.00813193 0.00811847 0.00810692 0.00812236 0.00813604 0.00810819 0.0081328 0.00812083 0.00811044 0.00812371 0.00813732 0.00811206 0.00813485 0.00812364 0.00811453 0.00812573 0.0081388 0.00811594 0.0081369 0.00812679 0.00811861 0.00812815 0.00814033 0.00811993 0.00813901 0.00812987 0.00812248 0.00813073 0.00814172 0.00812348 0.00814094 0.00813257 0.00812592 0.0081332 0.00814306 0.00812674 0.00814251 0.00813492 0.00812895 0.00813523 0.00814395 0.00812945 0.0081437 0.00813708 0.00813164 0.00813701 0.00814474 0.00813193 0.00814477 0.00813868 0.00813372 0.00813844 0.00814524 0.00813401 0.00814528 0.00814 0.00813566 0.00813966 0.00814559 0.00813574 0.00814589 0.00814103 0.00813735 0.0081407 0.00814565 0.00813737 0.00814588 0.00814192 0.0081384 0.00814139 0.00814543 0.00813836 0.00814595 0.0081424 0.00813959 0.00814188 0.00814581 0.00813927 0.008146 0.008143 0.00814025 0.0081424 0.00814547 0.00814013 0.00814591 0.00814314 0.00814101 0.00814282 0.00814513 0.0081409 0.0081454 0.00814321 0.00814166 0.00814296 0.0081447 0.00814111 0.00814526 0.00814316 0.00814168 0.00814266 0.00814415 0.00814133 0.00814437 0.00814325 0.00814201 0.00814272 0.00814372 0.00814145 0.00814414 0.00814293 0.00814214 0.00814272 0.00814304 0.00814145 0.00814377 0.00814258 0.00814202 0.00814234 0.00814254 0.00814149 0.00814304 0.00814234 0.0081418 0.008142 0.00814197 0.0081411 0.00814246 0.008142 0.00814138 0.00814172 0.00814138 0.00814088 0.00814161 0.00814139 0.00814106 0.00814111 0.00814079 0.00814042 0.00814063 0.00814071 0.00814036 0.00814035 0.00813965 0.00813993 0.00813987 0.00814018 0.00813997 0.00813976 0.00813903 0.00813935 0.00813921 0.00813926 0.00813961 0.00813911 0.00813858 0.00813853 0.00813816 0.00813847 0.0081387 0.00813884 0.00825631 0.00820201 0.00833406 0.00826697 0.00820072 0.00819627 0.00820164 0.00817414 0.0082303 0.00819921 0.00817182 0.00818437 0.00819313 0.0081642 0.00820189 0.00818124 0.00816258 0.00818033 0.00818941 0.00815938 0.0081906 0.0081753 0.00815919 0.00817658 0.00818674 0.0081568 0.00818547 0.00817186 0.00815763 0.00817348 0.00818445 0.00815573 0.00818237 0.00816971 0.00815696 0.00817131 0.00818236 0.00815544 0.00818048 0.00816838 0.00815707 0.00816969 0.00818043 0.00815555 0.0081789 0.00816769 0.00815739 0.00816839 0.00817823 0.00815575 0.00817723 0.00816706 0.00815768 0.00816722 0.00817636 0.00815601 0.00817565 0.00816653 0.00815785 0.00816625 0.00817425 0.00815607 0.0081741 0.00816582 0.00815772 0.00816517 0.00817227 0.00815604 0.0081723 0.00816494 0.00815759 0.00816398 0.00817012 0.00815564 0.00817049 0.00816382 0.00815722 0.00816279 0.00816813 0.00815527 0.00816854 0.00816279 0.00815663 0.00816121 0.00816602 0.00815485 0.00816654 0.00816119 0.00815577 0.00816002 0.00816384 0.00815415 0.00816465 0.00815996 0.00815495 0.00815842 0.00816167 0.00815323 0.00816241 0.00815835 0.00815409 0.00815711 0.00815976 0.00815229 0.00816049 0.008157 0.00815315 0.00815586 0.00815767 0.0081514 0.00815819 0.00815531 0.00815192 0.00815418 0.0081558 0.00815047 0.00815643 0.00815387 0.00815094 0.00815276 0.00815374 0.00814932 0.00815449 0.0081526 0.00815016 0.0081511 0.00815198 0.00814838 0.00815272 0.00815102 0.00814875 0.00815003 0.00815041 0.0081473 0.0081508 0.00814957 0.00814775 0.00814855 0.00814867 0.00814616 0.00814933 0.00814813 0.00814642 0.0081474 0.00814699 0.00814531 0.00814753 0.00814669 0.00814521 0.0081462 0.00814536 0.00814418 0.00814608 0.0081454 0.00814416 0.00814468 0.00814415 0.00814333 0.00814438 0.00814407 0.00814349 0.00814351 0.00814288 0.00814217 0.0081435 0.00814329 0.00814211 0.00814254 0.00814175 0.00814099 0.00814164 0.00814177 0.00814149 0.00814136 0.00814047 0.00814019 0.00814044 0.00814054 0.0081403 0.00814028 0.00813931 0.00813908 0.00813935 0.00813951 0.00813932 0.00813925 0.00813815 0.00813828 0.00813797 0.00813833 0.00813809 0.00813766 0.00835685 0.00831561 0.00850407 0.00841274 0.00830325 0.00827077 0.00825709 0.00824681 0.00831164 0.00828135 0.0082412 0.00823658 0.0082436 0.00822255 0.0082618 0.00824284 0.00822132 0.00822976 0.00823946 0.00821306 0.00824476 0.00823041 0.00821318 0.00822589 0.00823583 0.00820814 0.00823695 0.00822373 0.00820872 0.00822198 0.00823147 0.00820454 0.00823154 0.00821866 0.00820527 0.00821793 0.00822669 0.00820115 0.00822641 0.00821434 0.00820211 0.0082137 0.00822171 0.00819798 0.00822155 0.00821044 0.00819884 0.00820946 0.00821658 0.0081947 0.00821663 0.00820627 0.00819567 0.00820506 0.0082113 0.00819147 0.00821168 0.00820238 0.00819245 0.00820067 0.00820601 0.00818808 0.00820649 0.00819822 0.00818918 0.00819628 0.00820095 0.00818502 0.00820151 0.00819413 0.00818579 0.00819225 0.00819589 0.00818175 0.00819677 0.0081901 0.00818248 0.0081879 0.00819097 0.00817835 0.00819199 0.00818609 0.0081791 0.00818404 0.00818638 0.00817539 0.0081874 0.00818228 0.00817587 0.00818004 0.00818188 0.00817196 0.00818304 0.00817844 0.00817255 0.00817629 0.00817771 0.00816901 0.00817869 0.00817463 0.00816941 0.00817259 0.00817337 0.00816621 0.00817467 0.00817109 0.00816642 0.00816923 0.00816961 0.00816341 0.00817068 0.00816773 0.00816378 0.00816586 0.00816613 0.00816066 0.0081672 0.00816468 0.00816078 0.00816275 0.00816263 0.00815803 0.00816354 0.00816132 0.0081582 0.00815969 0.00815923 0.00815572 0.0081602 0.00815843 0.00815582 0.00815697 0.00815618 0.00815335 0.00815715 0.00815586 0.00815341 0.00815457 0.00815336 0.00815103 0.00815412 0.00815322 0.00815118 0.00815197 0.00815068 0.00814906 0.00815122 0.00815065 0.00814902 0.00814955 0.0081486 0.00814721 0.00814897 0.00814882 0.00814698 0.00814768 0.00814636 0.00814517 0.00814661 0.00814634 0.0081453 0.0081454 0.00814452 0.00814371 0.00814465 0.00814459 0.00814349 0.00814401 0.00814251 0.00814211 0.00814291 0.00814285 0.00814225 0.00814195 0.0081407 0.00814079 0.00814108 0.00814132 0.00814059 0.00814083 0.00813943 0.00813937 0.00813974 0.00813964 0.00813921 0.00813955 0.00813766 0.00813787 0.00813767 0.00813802 0.00813758 0.00813749 0.00843905 0.00841314 0.00868844 0.00855741 0.00839353 0.00833649 0.00830959 0.00830931 0.00837612 0.00835493 0.0083031 0.00828817 0.00829543 0.0082771 0.00831266 0.00830017 0.00827657 0.00827971 0.00829025 0.00826533 0.00829625 0.00828339 0.00826558 0.00827476 0.00828433 0.00825813 0.0082875 0.00827397 0.00825846 0.00826935 0.00827767 0.00825195 0.00827962 0.00826632 0.00825223 0.00826319 0.00827003 0.00824554 0.00827172 0.0082591 0.00824595 0.00825631 0.0082618 0.00823923 0.00826328 0.00825184 0.00823947 0.00824878 0.00825359 0.00823261 0.00825495 0.00824444 0.00823286 0.00824165 0.00824506 0.00822594 0.00824649 0.0082371 0.00822621 0.00823397 0.0082368 0.00821963 0.00823836 0.00822992 0.00821972 0.00822663 0.0082286 0.00821328 0.00823026 0.00822275 0.00821332 0.0082194 0.00822093 0.00820692 0.00822246 0.00821574 0.00820713 0.00821245 0.00821337 0.00820114 0.00821496 0.00820912 0.00820106 0.00820588 0.00820626 0.00819536 0.00820779 0.00820258 0.00819543 0.00819953 0.00819945 0.00819003 0.00820109 0.00819676 0.00818987 0.00819356 0.00819306 0.0081848 0.00819463 0.00819079 0.00818462 0.00818772 0.00818707 0.00817979 0.0081884 0.00818503 0.00817971 0.00818246 0.00818133 0.00817505 0.00818262 0.00817988 0.0081749 0.00817735 0.00817602 0.00817068 0.00817709 0.00817499 0.00817045 0.00817261 0.00817075 0.0081663 0.00817211 0.00817022 0.00816623 0.00816786 0.0081663 0.00816272 0.00816725 0.00816588 0.00816263 0.00816392 0.00816194 0.00815909 0.00816282 0.00816187 0.0081589 0.00816014 0.00815827 0.00815554 0.00815883 0.00815794 0.00815556 0.00815643 0.00815424 0.00815244 0.008155 0.00815455 0.00815252 0.00815328 0.00815102 0.00814973 0.00815198 0.00815142 0.00814966 0.00815012 0.00814818 0.00814731 0.00814873 0.00814836 0.00814706 0.0081474 0.00814547 0.0081448 0.00814585 0.00814597 0.00814472 0.00814538 0.0081432 0.00814284 0.00814341 0.00814363 0.00814289 0.00814324 0.00814106 0.00814117 0.00814141 0.00814179 0.00814081 0.0081413 0.00813945 0.00813976 0.00813965 0.00813985 0.00813939 0.00813958 0.00813791 0.0081381 0.00813749 0.00813816 0.00813725 0.00813748 0.0084557 0.00847568 0.00887827 0.00871432 0.00845496 0.00840048 0.00836593 0.00835836 0.00836796 0.00840766 0.00835201 0.00834092 0.0083516 0.00832929 0.00835529 0.00834948 0.00832861 0.00833126 0.0083433 0.0083175 0.00834743 0.00833424 0.00831725 0.00832498 0.00833442 0.00830803 0.00833788 0.0083239 0.00830785 0.0083172 0.00832421 0.00829882 0.00832731 0.00831383 0.00829857 0.00830809 0.00831311 0.00828943 0.00831597 0.0083034 0.00828896 0.00829803 0.00830154 0.00827953 0.00830429 0.00829284 0.00827887 0.00828766 0.00828977 0.00826967 0.00829226 0.00828203 0.00826901 0.00827694 0.00827819 0.00825974 0.00828047 0.00827141 0.00825917 0.00826633 0.00826674 0.0082502 0.00826904 0.00826092 0.00824945 0.00825585 0.00825579 0.00824066 0.00825774 0.00825058 0.00824001 0.00824588 0.00824518 0.00823196 0.00824695 0.00824084 0.00823103 0.00823616 0.00823543 0.00822322 0.00823707 0.0082314 0.00822249 0.00822716 0.00822587 0.00821504 0.00822737 0.00822248 0.00821437 0.00821854 0.00821681 0.00820729 0.00821821 0.00821399 0.00820653 0.00821023 0.00820826 0.00819997 0.00820979 0.0082062 0.00819925 0.00820231 0.00820023 0.00819281 0.00820155 0.00819835 0.00819229 0.00819516 0.00819278 0.00818648 0.00819399 0.00819135 0.00818592 0.00818834 0.00818574 0.00818021 0.00818679 0.00818475 0.00817989 0.00818208 0.00817906 0.00817495 0.00818017 0.00817868 0.00817427 0.00817612 0.00817315 0.00816953 0.00817426 0.00817292 0.00816886 0.00817029 0.00816772 0.00816447 0.00816839 0.0081674 0.00816396 0.00816535 0.00816268 0.00815996 0.00816294 0.00816239 0.00815965 0.00816056 0.00815796 0.0081558 0.00815819 0.00815805 0.00815546 0.0081563 0.00815341 0.00815229 0.00815374 0.00815399 0.00815162 0.00815229 0.00815002 0.00814884 0.00814977 0.00815028 0.00814869 0.00814904 0.00814669 0.00814601 0.00814684 0.00814729 0.00814558 0.00814616 0.0081436 0.00814339 0.00814364 0.00814408 0.0081429 0.00814363 0.00814112 0.00814161 0.00814115 0.00814185 0.00814101 0.00814136 0.0081397 0.00813981 0.00813952 0.0081399 0.00813927 0.00813969 0.00813868 0.00813844 0.00813858 0.00813868 0.00813785 0.00813812 0.00771052 0.00751241 0.00757844 0.00743179 0.00765491 0.00760752 0.00780483 0.00775357 0.00776808 0.00771123 0.00776332 0.00778639 0.00786451 0.0077982 0.00784771 0.00780626 0.00781187 0.00785377 0.00790073 0.00784277 0.00788398 0.00786035 0.00785781 0.00789399 0.00793009 0.00788598 0.00791621 0.00790036 0.00789826 0.00792429 0.00795578 0.0079226 0.00794578 0.00793261 0.00793143 0.00794946 0.00797794 0.00795198 0.00797121 0.00795936 0.00795834 0.00797141 0.00799717 0.00797598 0.00799271 0.00798202 0.00798071 0.00799086 0.00801382 0.00799583 0.00801097 0.00800132 0.0079997 0.00800812 0.00802855 0.0080132 0.00802672 0.00801799 0.00801642 0.00802366 0.00804203 0.00802851 0.0080405 0.00803283 0.00803117 0.00803752 0.00805424 0.00804204 0.00805282 0.00804592 0.00804454 0.00805034 0.00806484 0.00805445 0.00806402 0.00805781 0.00805664 0.00806155 0.00807453 0.00806559 0.0080738 0.00806835 0.00806759 0.00807171 0.00808344 0.00807568 0.00808278 0.00807806 0.00807734 0.00808109 0.00809164 0.00808461 0.00809094 0.0080866 0.00808622 0.00808944 0.00809867 0.00809257 0.00809819 0.0080945 0.00809431 0.0080968 0.00810504 0.00810001 0.00810449 0.00810134 0.00810144 0.00810388 0.00811085 0.00810647 0.00811039 0.00810746 0.00810797 0.00810988 0.0081157 0.00811246 0.00811556 0.00811326 0.00811354 0.00811498 0.00812028 0.00811775 0.00812018 0.00811808 0.00811862 0.00811993 0.00812426 0.00812221 0.00812411 0.00812273 0.00812302 0.00812394 0.00812764 0.00812624 0.00812765 0.00812635 0.00812706 0.00812772 0.00813055 0.00812978 0.0081307 0.00812953 0.00813019 0.00813084 0.008133 0.00813254 0.00813328 0.00813234 0.00813311 0.00813345 0.00813511 0.00813514 0.00813524 0.0081346 0.00813547 0.00813546 0.00813684 0.00813685 0.00813677 0.00813648 0.00813726 0.00813727 0.00813797 0.0081383 0.00813836 0.0081378 0.00813874 0.00813858 0.00813868 0.00813913 0.00813899 0.00813887 0.00813945 0.00813881 0.00813919 0.00813988 0.00813902 0.00813946 0.0081398 0.00813961 0.00813901 0.0081396 0.00813919 0.00813899 0.00813909 0.0081391 0.00813873 0.00813865 0.00813887 0.00813858 0.00813805 0.00813865 0.00786803 0.00777492 0.00781011 0.0077565 0.00773277 0.0077939 0.00792247 0.00784793 0.00788156 0.00784919 0.00786035 0.00790424 0.00795789 0.00789513 0.00793711 0.00791018 0.00791371 0.00794781 0.00798447 0.00793189 0.00797002 0.00794813 0.00794436 0.0079721 0.00800152 0.00795923 0.00799091 0.00797404 0.00796777 0.0079901 0.00801559 0.00798178 0.00800806 0.00799464 0.00798866 0.00800621 0.00802883 0.0080013 0.00802375 0.00801236 0.00800713 0.00802098 0.00804129 0.00801818 0.00803823 0.00802801 0.00802333 0.00803452 0.00805295 0.00803311 0.00805095 0.00804181 0.00803758 0.00804681 0.00806362 0.00804635 0.00806241 0.00805405 0.00805048 0.00805819 0.00807331 0.00805794 0.0080726 0.00806489 0.00806179 0.00806839 0.00808191 0.00806822 0.00808151 0.00807458 0.00807202 0.00807767 0.00808972 0.00807765 0.00808942 0.00808323 0.00808097 0.0080858 0.00809658 0.00808616 0.00809649 0.00809089 0.00808909 0.00809332 0.00810267 0.00809351 0.00810271 0.00809773 0.00809631 0.00810009 0.00810839 0.0081003 0.0081087 0.00810399 0.00810282 0.00810575 0.00811336 0.00810619 0.00811353 0.0081096 0.00810868 0.00811121 0.00811778 0.00811182 0.00811786 0.00811467 0.00811372 0.00811602 0.00812164 0.00811651 0.00812179 0.00811871 0.00811852 0.00812036 0.00812494 0.00812067 0.00812534 0.0081225 0.00812244 0.00812399 0.00812802 0.00812444 0.00812822 0.00812616 0.00812611 0.0081272 0.00813046 0.00812761 0.00813103 0.00812908 0.00812924 0.00813002 0.00813284 0.0081306 0.00813288 0.00813135 0.00813168 0.00813244 0.0081345 0.0081329 0.00813484 0.00813345 0.00813391 0.00813458 0.0081361 0.00813507 0.0081365 0.00813554 0.00813574 0.00813578 0.00813722 0.00813628 0.00813741 0.00813682 0.0081374 0.00813779 0.00813832 0.00813777 0.00813849 0.00813782 0.00813844 0.00813841 0.00813875 0.00813876 0.00813917 0.00813865 0.00813923 0.00813884 0.00813887 0.00813933 0.00813926 0.00813915 0.00813963 0.00813928 0.00813917 0.00813957 0.00813958 0.00813922 0.00813953 0.00813943 0.00813899 0.00813939 0.00813921 0.00813894 0.00813957 0.00813954 0.00813885 0.008139 0.00813911 0.00813881 0.0081392 0.00813914 0.00801504 0.00793645 0.00799392 0.00795042 0.00791106 0.00795819 0.0080347 0.00796635 0.00801745 0.00798033 0.00796818 0.00800592 0.0080462 0.00799094 0.00803398 0.00800833 0.0079994 0.00802987 0.00805702 0.00801136 0.00804763 0.00802756 0.00801777 0.00804281 0.00806505 0.00802699 0.00805773 0.00804169 0.00803187 0.0080522 0.00807216 0.0080401 0.0080666 0.00805356 0.00804436 0.00806107 0.0080792 0.00805185 0.00807539 0.00806417 0.00805599 0.00806984 0.00808626 0.00806249 0.00808383 0.00807378 0.00806671 0.00807824 0.00809331 0.00807236 0.00809166 0.00808262 0.00807649 0.00808612 0.00809961 0.00808107 0.00809895 0.00809052 0.00808504 0.00809331 0.00810558 0.00808907 0.00810518 0.00809754 0.00809273 0.00809976 0.00811075 0.0080961 0.00811088 0.00810382 0.00809964 0.0081057 0.00811535 0.00810253 0.00811561 0.00810936 0.00810569 0.00811085 0.0081193 0.00810789 0.00811979 0.00811412 0.00811084 0.00811542 0.00812312 0.00811292 0.00812338 0.00811821 0.0081156 0.00811953 0.00812611 0.00811743 0.00812662 0.00812213 0.00811977 0.00812315 0.00812868 0.00812106 0.00812924 0.00812523 0.00812331 0.00812631 0.00813113 0.00812436 0.00813172 0.00812811 0.00812658 0.00812886 0.00813294 0.00812761 0.00813355 0.00813072 0.00812937 0.00813129 0.00813473 0.00813005 0.00813543 0.00813271 0.00813164 0.00813333 0.00813607 0.00813222 0.00813654 0.00813443 0.00813367 0.00813484 0.00813719 0.00813407 0.00813766 0.0081359 0.00813553 0.00813636 0.00813804 0.00813568 0.0081386 0.00813722 0.00813698 0.00813733 0.00813869 0.00813698 0.00813915 0.00813825 0.00813814 0.00813863 0.00813934 0.00813798 0.00814007 0.00813887 0.00813879 0.00813918 0.0081396 0.00813875 0.00813988 0.00813923 0.00813943 0.00813981 0.00813986 0.00813936 0.00814063 0.00813989 0.00813969 0.00814023 0.00813985 0.00813964 0.00814019 0.0081398 0.00814002 0.00814004 0.00813939 0.00813966 0.00814003 0.00813987 0.00813988 0.00813992 0.00813939 0.00813977 0.00813951 0.00813941 0.00813977 0.00813965 0.00813901 0.00813932 0.00813941 0.00813925 0.00813946 0.00813914 0.00813866 0.00813904 0.00813884 0.00813897 0.00813935 0.00813922 0.00815318 0.00808296 0.00815867 0.00811614 0.00806495 0.00810252 0.00813311 0.00807694 0.00813834 0.00810244 0.008075 0.00810113 0.00812429 0.0080787 0.00812476 0.0080988 0.00808106 0.00810465 0.00812265 0.00808383 0.0081203 0.00810136 0.00808645 0.00810759 0.0081235 0.00808968 0.00812029 0.00810546 0.00809207 0.00811031 0.00812546 0.00809535 0.00812239 0.00810988 0.00809823 0.00811375 0.00812814 0.00810123 0.00812565 0.00811438 0.00810416 0.0081173 0.00813074 0.00810672 0.00812919 0.00811898 0.00811002 0.00812125 0.00813345 0.00811196 0.00813253 0.00812344 0.0081153 0.00812503 0.00813597 0.00811684 0.00813574 0.00812715 0.00812007 0.0081286 0.0081382 0.00812109 0.0081383 0.00813057 0.00812422 0.00813158 0.00813975 0.00812493 0.00814052 0.00813336 0.00812769 0.00813404 0.00814152 0.00812806 0.00814213 0.00813576 0.00813058 0.0081362 0.0081426 0.00813085 0.00814344 0.00813762 0.00813315 0.00813791 0.00814342 0.00813287 0.00814428 0.00813915 0.00813543 0.00813945 0.0081441 0.00813495 0.00814496 0.00814055 0.00813707 0.00814043 0.00814443 0.00813677 0.00814544 0.00814155 0.00813864 0.00814156 0.00814461 0.00813796 0.00814558 0.00814214 0.00813964 0.00814216 0.00814474 0.00813907 0.00814573 0.00814244 0.00814055 0.00814265 0.00814479 0.00813974 0.0081458 0.00814301 0.00814115 0.00814295 0.00814442 0.00814046 0.00814517 0.0081431 0.00814172 0.00814315 0.00814415 0.00814099 0.00814512 0.00814334 0.00814186 0.00814314 0.00814398 0.00814112 0.00814464 0.00814292 0.00814205 0.00814314 0.00814343 0.00814143 0.0081442 0.00814306 0.00814215 0.00814307 0.00814303 0.00814151 0.00814366 0.00814272 0.00814208 0.00814257 0.00814243 0.00814124 0.00814325 0.00814244 0.00814196 0.00814217 0.00814161 0.00814118 0.00814235 0.00814185 0.00814153 0.00814182 0.00814119 0.00814065 0.0081417 0.00814133 0.00814089 0.00814122 0.00814039 0.00814043 0.00814073 0.00814064 0.00814033 0.00814068 0.00813985 0.00813987 0.00814007 0.00814014 0.00814001 0.00813996 0.00813898 0.00813935 0.00813906 0.00813959 0.00813963 0.00813955 0.00813837 0.00813888 0.00813827 0.00813855 0.00813912 0.00813855 0.00828158 0.00821843 0.00831604 0.00826813 0.00820359 0.008234 0.0082208 0.00817739 0.00824823 0.00821433 0.0081725 0.00818884 0.00819397 0.00815777 0.00820655 0.0081828 0.00815707 0.00817371 0.00818323 0.00815031 0.0081871 0.00817025 0.00815085 0.00816796 0.00817881 0.00814833 0.00817905 0.00816533 0.00814938 0.00816531 0.00817673 0.00814851 0.00817587 0.00816367 0.00815006 0.00816413 0.00817532 0.00814932 0.00817455 0.00816315 0.00815142 0.00816367 0.00817426 0.00815056 0.00817374 0.00816311 0.00815276 0.00816358 0.00817304 0.00815162 0.00817306 0.00816338 0.00815406 0.00816349 0.00817184 0.00815274 0.00817242 0.00816353 0.00815512 0.00816323 0.00817058 0.00815335 0.00817128 0.00816343 0.00815569 0.00816293 0.00816916 0.00815375 0.00817019 0.00816309 0.00815583 0.00816243 0.00816763 0.00815391 0.00816864 0.00816237 0.00815604 0.00816152 0.00816607 0.00815368 0.00816721 0.00816144 0.0081556 0.00816046 0.00816406 0.00815344 0.00816555 0.00816026 0.00815526 0.00815945 0.0081624 0.00815294 0.00816359 0.00815909 0.0081545 0.00815834 0.00816047 0.00815236 0.0081619 0.00815793 0.00815368 0.008157 0.00815841 0.00815166 0.00815991 0.00815625 0.00815288 0.00815531 0.00815655 0.00815078 0.00815792 0.00815504 0.00815196 0.00815436 0.0081548 0.00815001 0.00815612 0.0081535 0.00815096 0.00815268 0.00815306 0.00814896 0.00815426 0.00815232 0.0081498 0.00815161 0.00815146 0.00814811 0.00815254 0.00815084 0.00814893 0.00815014 0.0081498 0.00814703 0.00815074 0.00814941 0.00814772 0.00814898 0.00814813 0.00814587 0.00814902 0.00814807 0.00814665 0.00814738 0.00814641 0.00814497 0.00814728 0.00814685 0.00814568 0.0081461 0.00814505 0.00814416 0.00814588 0.0081454 0.00814453 0.00814493 0.00814397 0.00814312 0.00814421 0.00814398 0.00814326 0.00814364 0.00814264 0.00814207 0.00814303 0.00814297 0.00814243 0.0081425 0.00814144 0.00814111 0.00814174 0.00814183 0.0081414 0.00814136 0.00814005 0.00814041 0.00814045 0.00814052 0.00814037 0.00814037 0.00813922 0.00813906 0.00813928 0.00813924 0.00813936 0.00813915 0.00813785 0.00813832 0.00813782 0.00813827 0.00813827 0.00813777 0.00839915 0.00834333 0.00847613 0.00841404 0.0083326 0.00835648 0.0082962 0.00826633 0.00834644 0.00831568 0.00825917 0.00826909 0.00825613 0.00822843 0.0082768 0.00825937 0.00822558 0.00823808 0.00824009 0.00821174 0.00824726 0.00823412 0.00821104 0.00822494 0.00823199 0.00820392 0.00823447 0.00822209 0.00820426 0.00821766 0.00822639 0.00819951 0.00822745 0.00821516 0.00820036 0.0082126 0.00822141 0.00819627 0.00822217 0.00821034 0.00819739 0.00820868 0.00821664 0.00819357 0.00821754 0.00820655 0.00819505 0.00820481 0.00821204 0.00819086 0.0082131 0.00820286 0.00819238 0.0082014 0.00820737 0.00818821 0.0082086 0.00819945 0.00818988 0.00819776 0.00820259 0.00818552 0.00820396 0.00819588 0.00818702 0.00819402 0.00819798 0.00818268 0.00819964 0.00819217 0.00818408 0.0081903 0.00819347 0.00817969 0.00819507 0.00818857 0.0081811 0.00818656 0.00818897 0.00817666 0.00819049 0.00818489 0.00817808 0.00818286 0.00818455 0.00817381 0.00818617 0.00818124 0.00817501 0.00817935 0.00818031 0.00817091 0.00818209 0.00817759 0.00817209 0.00817576 0.00817632 0.00816812 0.00817799 0.00817397 0.00816906 0.00817228 0.00817236 0.00816544 0.00817391 0.00817079 0.00816625 0.00816897 0.00816898 0.00816265 0.00817024 0.00816729 0.00816338 0.00816578 0.00816514 0.00816001 0.00816652 0.00816423 0.00816068 0.00816271 0.00816164 0.00815774 0.00816308 0.00816105 0.00815804 0.00815977 0.00815855 0.00815509 0.00815973 0.00815809 0.00815566 0.00815702 0.00815555 0.00815283 0.008157 0.00815565 0.00815319 0.00815455 0.00815305 0.00815064 0.00815391 0.00815291 0.00815097 0.00815195 0.00815031 0.00814875 0.00815097 0.00815073 0.00814902 0.00814966 0.00814797 0.00814686 0.00814857 0.0081482 0.00814684 0.00814771 0.00814574 0.00814497 0.00814637 0.00814619 0.00814511 0.00814581 0.00814397 0.0081435 0.00814446 0.00814452 0.00814357 0.0081437 0.00814221 0.00814206 0.00814244 0.00814292 0.00814187 0.00814222 0.00814077 0.00814078 0.00814094 0.00814118 0.00814086 0.00814081 0.0081392 0.00813925 0.00813914 0.00813956 0.00813914 0.00813921 0.00813738 0.00813785 0.00813733 0.00813805 0.00813729 0.00813742 0.00849286 0.00845096 0.00864497 0.00855754 0.00845072 0.00846984 0.00835314 0.00833871 0.00841832 0.00840203 0.00833103 0.00833969 0.00831162 0.00829051 0.00832882 0.00832548 0.00828611 0.00829708 0.00829457 0.00826912 0.00830111 0.00829258 0.00826737 0.00827889 0.00828404 0.00825744 0.00828791 0.00827595 0.008257 0.00826812 0.00827527 0.00824927 0.00827808 0.00826513 0.00824946 0.00826 0.00826688 0.00824238 0.00826933 0.0082566 0.00824281 0.00825253 0.00825861 0.00823579 0.00826074 0.00824902 0.00823653 0.00824535 0.00825036 0.00822951 0.00825245 0.00824184 0.00823015 0.00823828 0.00824221 0.00822324 0.00824434 0.00823483 0.00822393 0.00823127 0.00823407 0.00821713 0.00823625 0.0082278 0.00821778 0.00822454 0.00822635 0.00821114 0.00822847 0.00822096 0.00821158 0.00821776 0.00821878 0.00820522 0.00822097 0.00821429 0.00820582 0.0082111 0.0082115 0.00819952 0.00821352 0.008208 0.00820016 0.00820468 0.00820458 0.00819402 0.00820655 0.00820158 0.00819434 0.00819879 0.0081981 0.00818894 0.00820015 0.00819558 0.00818927 0.00819292 0.00819163 0.00818372 0.0081937 0.00818988 0.00818396 0.00818731 0.00818598 0.00817895 0.00818765 0.00818441 0.00817921 0.00818192 0.00818038 0.00817421 0.00818185 0.0081793 0.00817456 0.00817704 0.00817518 0.00816994 0.00817672 0.00817445 0.00816995 0.00817225 0.00817016 0.00816613 0.00817141 0.00816967 0.00816609 0.00816804 0.0081654 0.00816202 0.00816677 0.0081654 0.00816217 0.00816378 0.00816115 0.00815841 0.00816227 0.00816149 0.0081584 0.00815983 0.00815724 0.0081551 0.00815824 0.00815774 0.00815517 0.00815634 0.00815365 0.00815205 0.00815454 0.00815419 0.00815208 0.00815302 0.00815046 0.00814939 0.0081512 0.00815103 0.00814899 0.00815009 0.0081476 0.00814675 0.00814807 0.00814841 0.00814676 0.00814743 0.008145 0.00814443 0.00814554 0.00814578 0.00814458 0.0081451 0.00814267 0.00814274 0.00814283 0.00814335 0.00814238 0.00814295 0.00814094 0.00814108 0.00814105 0.00814153 0.00814081 0.00814081 0.00813939 0.00813941 0.00813947 0.00813992 0.00813878 0.00813917 0.0081376 0.00813787 0.0081373 0.00813802 0.00813714 0.00813734 0.00854072 0.00851676 0.00887025 0.00871488 0.00853721 0.0085737 0.00838424 0.00838721 0.00837438 0.0084513 0.00837718 0.00838973 0.00836371 0.00834467 0.00836635 0.00837387 0.00833876 0.00834816 0.0083494 0.00832396 0.00835461 0.00834499 0.0083213 0.00833056 0.00833678 0.00831005 0.00834102 0.00832783 0.00830879 0.00831828 0.00832445 0.00829867 0.00832815 0.00831469 0.00829797 0.00830719 0.00831254 0.00828805 0.00831545 0.00830282 0.00828754 0.00829618 0.00830035 0.00827765 0.0083031 0.00829154 0.00827746 0.00828538 0.00828836 0.00826764 0.00829092 0.00828039 0.00826737 0.00827481 0.00827649 0.00825789 0.0082789 0.0082699 0.00825754 0.0082643 0.00826526 0.00824836 0.0082675 0.00825941 0.00824799 0.00825424 0.00825421 0.00823915 0.00825624 0.00824945 0.00823879 0.0082442 0.0082438 0.00823024 0.00824566 0.00823954 0.00822985 0.00823507 0.00823379 0.00822174 0.00823568 0.00823034 0.00822143 0.00822602 0.00822443 0.0082139 0.00822596 0.00822166 0.00821333 0.00821751 0.00821555 0.00820623 0.00821694 0.00821309 0.00820565 0.00820941 0.00820716 0.00819892 0.00820847 0.0082052 0.00819846 0.00820191 0.00819914 0.00819211 0.00820055 0.00819777 0.00819152 0.00819443 0.00819186 0.00818571 0.00819278 0.00819088 0.00818522 0.00818788 0.00818481 0.00817962 0.00818613 0.00818426 0.00817924 0.00818155 0.00817819 0.0081739 0.00817926 0.008178 0.00817363 0.00817537 0.00817231 0.00816873 0.00817342 0.00817229 0.00816831 0.00816989 0.00816646 0.00816388 0.00816732 0.00816692 0.00816341 0.00816482 0.00816152 0.00815952 0.0081623 0.00816192 0.00815888 0.00815999 0.00815676 0.00815523 0.00815726 0.00815733 0.00815496 0.00815607 0.00815251 0.00815167 0.00815315 0.00815343 0.0081514 0.00815205 0.00814887 0.00814814 0.00814933 0.0081495 0.00814799 0.0081486 0.00814548 0.00814566 0.00814581 0.00814638 0.00814509 0.00814592 0.00814281 0.00814315 0.00814319 0.00814372 0.00814256 0.00814295 0.00814063 0.00814122 0.00814077 0.00814151 0.00814089 0.00814104 0.00813931 0.00813975 0.00813932 0.00813971 0.00813917 0.00813933 0.00813838 0.00813815 0.00813855 0.00813854 0.00813796 0.00813797 0.00767574 0.00745165 0.00755869 0.0073974 0.00761454 0.00757397 0.00777247 0.00773131 0.00773055 0.00768399 0.00774122 0.00773834 0.00783601 0.00777985 0.00782442 0.00777913 0.00778852 0.00781278 0.00787485 0.00782463 0.00786634 0.00783754 0.0078369 0.00786516 0.00791139 0.00787165 0.0079024 0.00788391 0.0078832 0.00790631 0.00794393 0.00791298 0.00793629 0.00792262 0.00792244 0.00793963 0.00797142 0.00794655 0.00796547 0.00795402 0.00795372 0.00796673 0.00799389 0.00797328 0.00798964 0.00797937 0.00797864 0.00798916 0.00801253 0.00799499 0.0080095 0.00800037 0.0079992 0.00800782 0.00802856 0.00801327 0.00802612 0.00801809 0.00801673 0.00802423 0.00804232 0.008029 0.0080407 0.00803319 0.00803214 0.0080385 0.00805469 0.00804271 0.00805331 0.0080466 0.00804547 0.00805113 0.00806555 0.00805515 0.00806444 0.00805839 0.00805751 0.00806247 0.00807543 0.00806634 0.00807444 0.00806913 0.00806831 0.00807273 0.00808426 0.00807619 0.00808346 0.00807857 0.00807818 0.00808171 0.00809216 0.00808504 0.00809164 0.00808725 0.00808712 0.00809037 0.00809939 0.00809341 0.00809881 0.00809477 0.00809497 0.00809756 0.00810573 0.0081007 0.00810507 0.00810194 0.00810202 0.00810419 0.00811132 0.00810718 0.00811084 0.00810828 0.00810849 0.00811022 0.00811644 0.00811274 0.00811622 0.0081136 0.00811437 0.00811567 0.00812085 0.00811822 0.00812073 0.00811864 0.00811912 0.00812041 0.00812486 0.00812287 0.00812436 0.00812292 0.00812342 0.00812443 0.00812821 0.00812669 0.00812805 0.00812672 0.00812782 0.0081283 0.00813114 0.0081302 0.00813096 0.00812999 0.00813091 0.00813109 0.00813366 0.00813322 0.00813333 0.00813262 0.00813368 0.00813397 0.00813557 0.00813544 0.00813578 0.00813516 0.00813586 0.00813602 0.00813726 0.00813733 0.00813729 0.00813686 0.0081379 0.00813754 0.00813843 0.008139 0.00813838 0.00813839 0.00813925 0.00813893 0.00813882 0.00813967 0.00813931 0.00813896 0.00813951 0.00813954 0.00813937 0.00814027 0.00813981 0.00813934 0.0081401 0.00813934 0.00813918 0.00813966 0.00813932 0.00813951 0.00813995 0.00813939 0.00813866 0.00813874 0.00813901 0.00813883 0.00813805 0.00813839 0.00785833 0.00775268 0.00780229 0.00774222 0.00771706 0.007773 0.00789546 0.0078289 0.00785408 0.00782842 0.00782866 0.00786333 0.00792948 0.00787541 0.00791329 0.00788921 0.00788941 0.00791519 0.00795971 0.00791373 0.00795192 0.0079304 0.00792703 0.00794905 0.00798395 0.00794531 0.00797823 0.00796104 0.00795624 0.00797544 0.00800434 0.00797253 0.00799948 0.00798614 0.00798136 0.00799755 0.0080219 0.00799549 0.00801808 0.00800726 0.00800282 0.00801608 0.00803737 0.00801489 0.00803465 0.00802505 0.00802101 0.00803205 0.00805063 0.00803136 0.008049 0.00804029 0.00803658 0.00804571 0.00806227 0.00804527 0.00806128 0.00805326 0.00805005 0.00805778 0.00807249 0.00805766 0.00807179 0.00806454 0.00806168 0.00806833 0.00808146 0.00806827 0.00808116 0.00807431 0.00807203 0.00807779 0.00808945 0.00807775 0.00808944 0.00808315 0.00808125 0.00808603 0.00809661 0.00808626 0.00809658 0.00809094 0.00808929 0.00809352 0.00810281 0.00809375 0.00810294 0.00809797 0.00809662 0.00810027 0.00810837 0.00810064 0.0081086 0.00810415 0.00810311 0.0081063 0.00811343 0.00810662 0.00811377 0.00810967 0.00810903 0.00811155 0.00811774 0.00811193 0.00811809 0.00811464 0.00811436 0.00811632 0.00812153 0.00811665 0.00812201 0.00811894 0.0081189 0.00812074 0.00812529 0.00812111 0.00812544 0.00812294 0.00812284 0.00812437 0.00812816 0.00812476 0.00812841 0.00812608 0.0081264 0.00812751 0.00813046 0.0081282 0.00813115 0.00812901 0.00812957 0.00813013 0.00813287 0.00813095 0.00813327 0.00813176 0.00813209 0.0081328 0.00813487 0.00813317 0.00813514 0.00813386 0.00813465 0.00813495 0.00813638 0.00813525 0.00813642 0.00813571 0.00813621 0.00813632 0.0081375 0.00813696 0.00813788 0.00813722 0.00813772 0.00813761 0.00813857 0.00813828 0.00813861 0.00813822 0.00813896 0.00813844 0.00813894 0.00813916 0.00813927 0.00813887 0.00813956 0.00813959 0.00813933 0.00813945 0.0081396 0.0081393 0.00813978 0.00813957 0.00813904 0.00813958 0.00813948 0.00813941 0.00813965 0.00813964 0.00813907 0.00813936 0.00813942 0.00813904 0.0081395 0.00813943 0.00813866 0.00813911 0.00813904 0.00813908 0.00813926 0.00813929 0.00801202 0.00792775 0.0079887 0.00794146 0.00790185 0.00794648 0.0080198 0.00795487 0.00800148 0.00796696 0.00794542 0.00797996 0.00802736 0.0079753 0.00801902 0.00799428 0.00798052 0.00800618 0.00803942 0.0079962 0.00803504 0.0080153 0.00800454 0.00802528 0.00805159 0.00801508 0.00804804 0.00803206 0.00802255 0.00804026 0.00806278 0.00803171 0.00805972 0.00804661 0.00803799 0.00805336 0.00807291 0.00804624 0.0080704 0.00805947 0.00805183 0.00806496 0.00808196 0.00805901 0.00808031 0.00807081 0.00806392 0.00807514 0.00809028 0.00807008 0.00808939 0.00808073 0.00807471 0.00808415 0.00809762 0.00807978 0.00809717 0.00808933 0.00808382 0.00809198 0.00810395 0.00808814 0.00810412 0.00809671 0.00809211 0.00809895 0.00810969 0.00809554 0.00811 0.00810309 0.00809911 0.00810518 0.00811452 0.00810218 0.00811488 0.00810884 0.00810517 0.0081105 0.00811887 0.0081078 0.00811942 0.00811372 0.00811092 0.0081152 0.00812255 0.00811283 0.0081231 0.0081182 0.00811551 0.00811941 0.00812582 0.00811726 0.00812644 0.0081219 0.00811972 0.00812311 0.00812854 0.00812136 0.00812921 0.00812532 0.0081234 0.00812629 0.00813084 0.00812469 0.00813168 0.00812815 0.00812659 0.0081289 0.00813297 0.00812758 0.00813364 0.0081306 0.00812936 0.00813119 0.00813484 0.00813005 0.00813541 0.00813294 0.00813164 0.0081332 0.00813607 0.00813247 0.00813666 0.00813441 0.00813395 0.0081354 0.00813747 0.00813447 0.00813795 0.00813629 0.00813546 0.00813666 0.00813839 0.00813594 0.00813893 0.00813753 0.008137 0.00813787 0.00813892 0.00813718 0.00813958 0.00813834 0.00813823 0.00813864 0.00813934 0.00813814 0.00813989 0.00813913 0.00813922 0.00813954 0.00813977 0.00813915 0.00814035 0.00813955 0.00813989 0.00813989 0.00813971 0.00813942 0.00814028 0.00813986 0.00814026 0.00814033 0.00813991 0.00814001 0.00814038 0.00813989 0.00814027 0.00814047 0.00813957 0.00813974 0.00814014 0.00813986 0.0081399 0.00813953 0.00813932 0.00813968 0.00813937 0.00813958 0.00813972 0.00813994 0.00813909 0.00813919 0.00813923 0.00813947 0.0081395 0.00813932 0.00813893 0.00813878 0.00813899 0.00813906 0.00813929 0.00813919 0.00815729 0.00808139 0.00815592 0.00811125 0.00806126 0.00809812 0.00813092 0.00807283 0.00813402 0.00809758 0.00806322 0.00809092 0.00811665 0.00807009 0.00811946 0.00809281 0.00807039 0.00809219 0.00811319 0.00807394 0.00811416 0.0080948 0.00807779 0.00809652 0.00811484 0.00808086 0.00811431 0.00809912 0.0080854 0.00810192 0.00811846 0.00808883 0.00811727 0.00810471 0.00809296 0.00810733 0.00812251 0.0080964 0.00812162 0.00811054 0.00810031 0.00811277 0.00812661 0.0081034 0.00812589 0.00811618 0.00810706 0.00811798 0.00813024 0.00810977 0.00813017 0.00812106 0.00811319 0.00812263 0.00813343 0.00811503 0.00813375 0.00812547 0.00811854 0.00812651 0.00813621 0.00811987 0.00813683 0.00812913 0.00812299 0.00813012 0.00813841 0.00812403 0.00813939 0.0081325 0.0081269 0.00813301 0.00814033 0.00812719 0.0081413 0.00813498 0.00813009 0.00813545 0.0081417 0.0081301 0.00814274 0.00813704 0.00813272 0.00813741 0.00814263 0.00813266 0.00814399 0.00813877 0.00813501 0.0081389 0.00814349 0.00813462 0.00814463 0.00814012 0.00813667 0.00814035 0.00814408 0.00813644 0.00814526 0.00814131 0.00813831 0.00814131 0.00814445 0.00813775 0.00814553 0.00814214 0.0081393 0.00814198 0.0081446 0.0081388 0.00814566 0.00814246 0.00814048 0.00814264 0.00814457 0.00813972 0.00814555 0.00814302 0.00814123 0.00814292 0.00814447 0.00814039 0.00814552 0.00814321 0.00814194 0.00814311 0.00814419 0.00814092 0.00814513 0.00814356 0.00814219 0.0081432 0.00814399 0.00814143 0.00814469 0.00814339 0.00814242 0.00814324 0.00814349 0.0081416 0.00814414 0.00814323 0.00814232 0.00814274 0.00814301 0.00814139 0.00814346 0.0081426 0.00814197 0.00814261 0.00814249 0.00814155 0.0081432 0.00814223 0.00814182 0.0081423 0.00814172 0.00814128 0.00814246 0.00814209 0.00814164 0.00814161 0.00814111 0.00814079 0.00814142 0.00814137 0.0081411 0.00814106 0.0081405 0.00814033 0.00814084 0.00814088 0.0081406 0.00814053 0.00813956 0.00813987 0.00814003 0.00814031 0.0081402 0.00814024 0.00813895 0.00813941 0.00813925 0.00813901 0.0081395 0.00813931 0.00813846 0.008139 0.00813816 0.0081386 0.00813872 0.00813873 0.00829441 0.00822444 0.00831683 0.00826772 0.00820594 0.00823707 0.0082311 0.00818119 0.00825575 0.00821819 0.00817206 0.00819445 0.0081962 0.00815617 0.00820975 0.00818525 0.00815402 0.00817255 0.00818056 0.00814597 0.00818653 0.00816921 0.00814698 0.00816349 0.0081745 0.00814326 0.00817636 0.00816249 0.00814532 0.00816034 0.00817207 0.00814378 0.00817264 0.0081603 0.00814619 0.00815937 0.0081711 0.00814553 0.00817136 0.0081601 0.00814814 0.00815974 0.0081706 0.00814759 0.008171 0.00816061 0.0081502 0.00816047 0.00817011 0.00814923 0.0081708 0.00816137 0.00815193 0.00816088 0.00816944 0.00815061 0.0081703 0.00816179 0.00815332 0.0081614 0.00816867 0.00815191 0.00816981 0.00816179 0.00815428 0.00816128 0.00816739 0.00815242 0.00816903 0.00816171 0.00815492 0.00816093 0.00816629 0.00815285 0.00816773 0.00816133 0.00815499 0.00816054 0.00816467 0.00815316 0.00816637 0.00816054 0.00815508 0.0081598 0.00816316 0.00815296 0.00816473 0.00815956 0.00815457 0.00815856 0.00816141 0.00815252 0.00816296 0.00815861 0.00815401 0.00815771 0.00815988 0.00815193 0.00816122 0.00815732 0.00815332 0.00815648 0.00815809 0.0081513 0.00815961 0.00815611 0.00815242 0.00815549 0.00815652 0.00815045 0.00815782 0.00815478 0.00815165 0.00815413 0.00815449 0.00814984 0.00815585 0.00815334 0.00815064 0.00815274 0.00815291 0.00814879 0.0081542 0.00815199 0.00814977 0.00815152 0.00815128 0.00814799 0.00815248 0.00815076 0.00814875 0.00815027 0.00814967 0.008147 0.00815061 0.00814911 0.00814765 0.00814873 0.00814791 0.00814617 0.00814888 0.00814788 0.00814672 0.00814741 0.00814632 0.00814498 0.00814729 0.00814654 0.00814549 0.00814617 0.00814511 0.00814415 0.008146 0.00814526 0.00814439 0.00814486 0.00814353 0.00814329 0.00814415 0.00814397 0.00814345 0.00814366 0.0081423 0.00814214 0.00814297 0.00814297 0.00814257 0.00814278 0.00814108 0.00814075 0.00814178 0.00814167 0.00814127 0.00814146 0.00813995 0.00814021 0.00814018 0.0081405 0.00814025 0.0081403 0.00813911 0.00813923 0.00813929 0.00813932 0.00813926 0.00813925 0.00813791 0.00813827 0.00813772 0.00813808 0.008138 0.00813799 0.00842032 0.00835714 0.00848033 0.00841788 0.0083412 0.00836641 0.00831577 0.0082772 0.0083646 0.00832793 0.00826889 0.00828853 0.00826536 0.00823288 0.00828622 0.00826882 0.00822928 0.0082463 0.00824245 0.00821198 0.00825027 0.00823785 0.0082108 0.00822598 0.00823106 0.00820198 0.00823431 0.00822207 0.00820242 0.00821565 0.00822399 0.00819673 0.00822578 0.00821357 0.00819775 0.00820972 0.00821862 0.00819361 0.0082203 0.00820831 0.00819508 0.0082056 0.00821403 0.0081911 0.00821566 0.00820443 0.00819287 0.00820216 0.00820959 0.00818872 0.00821135 0.00820121 0.00819048 0.00819896 0.00820512 0.00818635 0.00820696 0.00819774 0.00818821 0.00819563 0.00820083 0.00818402 0.00820278 0.00819436 0.00818572 0.00819236 0.00819628 0.00818136 0.00819833 0.00819106 0.00818275 0.00818883 0.00819214 0.0081787 0.00819407 0.00818746 0.00818018 0.00818542 0.00818784 0.00817596 0.00818982 0.00818399 0.00817722 0.00818192 0.00818359 0.00817319 0.00818557 0.00818044 0.00817427 0.00817838 0.00817946 0.00817039 0.00818145 0.00817703 0.00817141 0.00817504 0.00817552 0.00816741 0.00817752 0.00817371 0.00816854 0.00817186 0.00817191 0.008165 0.0081738 0.00817028 0.00816573 0.00816853 0.00816822 0.00816232 0.0081701 0.00816681 0.00816299 0.00816549 0.00816476 0.00815982 0.00816625 0.00816373 0.00816047 0.00816259 0.00816146 0.00815713 0.00816291 0.00816085 0.00815792 0.0081596 0.00815824 0.00815476 0.00815953 0.00815812 0.00815528 0.00815675 0.00815527 0.00815257 0.00815642 0.00815547 0.00815326 0.00815431 0.00815271 0.00815057 0.00815357 0.00815286 0.00815073 0.00815185 0.0081501 0.00814838 0.00815103 0.00815037 0.00814892 0.00814959 0.00814777 0.00814682 0.00814859 0.00814821 0.00814676 0.00814743 0.00814549 0.00814481 0.00814612 0.00814623 0.00814501 0.00814559 0.00814355 0.00814307 0.00814424 0.00814415 0.00814348 0.00814383 0.00814193 0.00814177 0.00814235 0.00814252 0.00814184 0.00814197 0.0081403 0.00814074 0.00814061 0.0081408 0.00814043 0.00814065 0.00813893 0.00813915 0.00813938 0.0081396 0.00813879 0.00813909 0.00813752 0.00813776 0.0081375 0.00813789 0.00813756 0.00813709 0.00851839 0.00847103 0.00865015 0.00856524 0.00846356 0.0084842 0.00837587 0.00835379 0.00844401 0.00842052 0.00834823 0.0083685 0.00832369 0.00829909 0.00834085 0.00833884 0.00829392 0.00831095 0.00830005 0.00827263 0.00830607 0.008299 0.00826985 0.00828372 0.00828568 0.00825803 0.00828965 0.00827808 0.00825696 0.00826873 0.00827492 0.00824819 0.00827818 0.00826517 0.00824845 0.00825889 0.00826568 0.00824081 0.00826862 0.00825578 0.00824132 0.00825069 0.00825688 0.00823409 0.00825977 0.00824781 0.00823485 0.00824337 0.0082487 0.00822792 0.00825131 0.00824058 0.00822867 0.00823647 0.00824049 0.00822176 0.00824322 0.00823357 0.00822276 0.00822961 0.00823273 0.00821566 0.00823527 0.00822657 0.00821665 0.00822301 0.00822477 0.00821002 0.00822744 0.00821994 0.0082107 0.00821642 0.00821752 0.00820412 0.0082201 0.00821339 0.00820487 0.00821006 0.00821053 0.00819875 0.00821276 0.00820699 0.00819913 0.00820386 0.0082036 0.00819328 0.008206 0.00820072 0.00819385 0.00819793 0.00819727 0.00818804 0.00819941 0.00819498 0.00818859 0.00819215 0.00819109 0.00818324 0.00819294 0.00818927 0.00818363 0.00818659 0.00818513 0.0081784 0.00818725 0.00818403 0.00817872 0.00818155 0.00817975 0.00817398 0.00818143 0.0081789 0.00817428 0.00817665 0.00817462 0.00816953 0.00817623 0.00817415 0.00816961 0.00817195 0.00816946 0.00816561 0.00817112 0.0081694 0.00816577 0.00816777 0.00816512 0.00816187 0.0081666 0.00816504 0.00816188 0.00816333 0.00816081 0.00815817 0.00816214 0.00816107 0.00815811 0.00815941 0.00815694 0.00815495 0.00815796 0.00815742 0.00815514 0.008156 0.00815319 0.00815171 0.00815398 0.00815394 0.00815192 0.00815273 0.00814999 0.00814904 0.00815088 0.00815061 0.00814895 0.00814984 0.00814717 0.00814656 0.00814788 0.00814779 0.00814662 0.00814698 0.00814447 0.0081446 0.00814495 0.00814547 0.00814425 0.00814491 0.00814263 0.00814254 0.00814311 0.00814321 0.00814228 0.00814262 0.00814054 0.00814086 0.00814082 0.00814122 0.00814055 0.00814099 0.00813916 0.00813909 0.00813916 0.00813952 0.00813876 0.00813899 0.00813758 0.00813744 0.00813742 0.0081379 0.00813699 0.00813727 0.00856582 0.00854057 0.0088967 0.0087277 0.00855242 0.00858865 0.00840323 0.00840337 0.0083986 0.00847198 0.00839726 0.00841745 0.00837482 0.00835465 0.00837751 0.00838634 0.00834821 0.00836183 0.00835618 0.00832973 0.00836202 0.00835234 0.00832568 0.00833697 0.00834059 0.00831279 0.00834554 0.00833172 0.0083107 0.00832083 0.00832643 0.00829945 0.00833027 0.00831635 0.00829837 0.00830755 0.00831299 0.00828796 0.0083164 0.00830332 0.0082872 0.00829572 0.00830024 0.00827712 0.00830321 0.00829123 0.00827666 0.00828461 0.00828797 0.00826676 0.00829066 0.00827993 0.0082663 0.00827361 0.00827585 0.00825704 0.00827838 0.00826916 0.00825655 0.00826329 0.00826421 0.00824746 0.00826672 0.00825862 0.00824706 0.00825314 0.00825348 0.00823847 0.00825568 0.00824856 0.00823776 0.00824325 0.00824286 0.00822958 0.00824497 0.00823878 0.00822907 0.00823413 0.00823297 0.00822101 0.00823494 0.00822959 0.00822069 0.00822513 0.00822366 0.00821315 0.00822548 0.00822106 0.00821254 0.00821669 0.00821468 0.00820553 0.00821629 0.00821248 0.00820504 0.00820873 0.00820609 0.00819837 0.00820789 0.0082047 0.00819789 0.00820111 0.00819838 0.00819155 0.00820016 0.00819708 0.00819103 0.008194 0.00819117 0.00818513 0.00819262 0.00819026 0.00818488 0.0081871 0.00818418 0.00817939 0.00818549 0.00818404 0.00817887 0.00818104 0.00817777 0.00817369 0.00817881 0.00817737 0.00817308 0.00817486 0.00817155 0.00816837 0.00817271 0.00817183 0.00816766 0.0081694 0.00816607 0.00816343 0.00816703 0.00816633 0.00816318 0.00816432 0.00816087 0.00815895 0.00816188 0.00816144 0.00815881 0.00815953 0.00815603 0.00815494 0.00815725 0.00815697 0.00815459 0.00815541 0.00815207 0.00815123 0.00815274 0.00815304 0.00815085 0.00815165 0.00814817 0.00814797 0.00814878 0.00814907 0.00814752 0.00814782 0.00814524 0.00814519 0.00814542 0.00814602 0.00814469 0.00814543 0.00814243 0.00814272 0.00814267 0.00814338 0.00814238 0.00814277 0.00814047 0.00814098 0.00814048 0.00814134 0.00814042 0.00814074 0.00813904 0.00813943 0.00813904 0.00813957 0.00813908 0.00813926 0.00813843 0.00813812 0.00813855 0.00813813 0.00813744 0.00813773 0.00765229 0.0074207 0.00754682 0.00738177 0.0075898 0.00755163 0.00775464 0.00772088 0.00771421 0.00767137 0.00772993 0.00772119 0.00782503 0.00777343 0.0078133 0.00776913 0.00777808 0.00779599 0.0078648 0.00781837 0.0078574 0.00782909 0.00782698 0.00785123 0.00790258 0.00786608 0.00789547 0.00787756 0.00787547 0.00789656 0.00793739 0.00790888 0.00793125 0.00791819 0.00791719 0.00793354 0.00796716 0.00794378 0.0079624 0.00795128 0.00795066 0.00796331 0.00799126 0.00797179 0.00798803 0.00797806 0.00797726 0.00798757 0.0080113 0.00799431 0.00800875 0.00799983 0.00799883 0.00800732 0.00802792 0.00801308 0.00802615 0.00801796 0.0080168 0.00802409 0.00804235 0.00802903 0.00804068 0.00803331 0.00803219 0.00803855 0.00805486 0.00804302 0.00805353 0.0080469 0.00804587 0.00805146 0.00806575 0.0080555 0.00806478 0.00805871 0.00805794 0.00806274 0.00807595 0.00806659 0.00807476 0.00806934 0.00806895 0.00807309 0.00808459 0.00807645 0.0080837 0.00807867 0.00807875 0.00808223 0.00809247 0.00808547 0.00809169 0.00808733 0.00808739 0.00809053 0.00809953 0.00809361 0.00809908 0.00809511 0.00809552 0.00809812 0.00810585 0.00810078 0.00810544 0.0081021 0.00810236 0.0081046 0.00811162 0.00810736 0.00811098 0.00810803 0.00810895 0.00811072 0.00811667 0.00811321 0.0081163 0.00811386 0.00811459 0.00811589 0.00812115 0.00811838 0.00812071 0.00811865 0.00811974 0.00812079 0.00812491 0.00812306 0.0081247 0.00812307 0.00812406 0.00812493 0.0081286 0.00812701 0.00812831 0.00812695 0.00812796 0.00812851 0.00813137 0.00813049 0.00813117 0.00813008 0.00813115 0.00813149 0.00813391 0.00813314 0.00813367 0.00813295 0.00813396 0.00813421 0.00813587 0.00813568 0.00813573 0.00813532 0.00813605 0.0081361 0.0081373 0.00813749 0.00813743 0.00813716 0.00813805 0.0081377 0.00813847 0.00813929 0.00813858 0.00813849 0.00813963 0.0081391 0.00813946 0.00814009 0.00813933 0.00813936 0.00813996 0.00813984 0.0081397 0.00814038 0.00814005 0.00813981 0.00814026 0.00813959 0.00813956 0.00813954 0.00813943 0.00813961 0.00813973 0.00813946 0.0081386 0.00813851 0.008139 0.00813867 0.00813857 0.00813858 0.0078488 0.00774181 0.00779778 0.00773514 0.00770719 0.0077608 0.00788442 0.00782045 0.00784382 0.00782021 0.00781595 0.00784848 0.00791803 0.00786901 0.00790156 0.00788127 0.00787693 0.00790187 0.00794919 0.00790821 0.00794251 0.00792417 0.00791743 0.00793858 0.00797541 0.00794046 0.00797154 0.00795632 0.00794975 0.00796799 0.00799797 0.00796853 0.00799519 0.00798295 0.00797726 0.00799244 0.00801769 0.00799263 0.00801538 0.00800508 0.00800045 0.00801299 0.00803462 0.00801317 0.00803297 0.00802392 0.00801997 0.00803025 0.00804904 0.00803021 0.00804807 0.00803958 0.0080361 0.00804485 0.00806132 0.0080448 0.00806091 0.00805291 0.0080497 0.00805724 0.00807195 0.00805733 0.00807181 0.00806432 0.00806201 0.00806815 0.00808117 0.00806815 0.00808121 0.00807446 0.0080722 0.00807773 0.00808931 0.00807781 0.00808953 0.00808321 0.00808146 0.00808611 0.00809664 0.00808637 0.00809661 0.00809097 0.0080897 0.00809376 0.00810301 0.00809388 0.00810308 0.00809811 0.00809704 0.00810038 0.00810866 0.00810069 0.00810886 0.00810427 0.00810343 0.00810643 0.00811347 0.00810684 0.00811382 0.00810997 0.00810931 0.00811174 0.00811802 0.00811226 0.00811817 0.00811472 0.00811446 0.00811645 0.00812193 0.00811695 0.00812222 0.0081192 0.00811924 0.00812067 0.00812532 0.00812133 0.00812566 0.0081231 0.00812321 0.00812443 0.00812819 0.00812467 0.00812854 0.00812638 0.00812647 0.0081277 0.00813084 0.00812828 0.00813114 0.00812918 0.00812966 0.00813053 0.00813313 0.00813097 0.00813331 0.00813203 0.0081326 0.00813321 0.00813486 0.00813345 0.00813528 0.00813412 0.00813451 0.00813494 0.00813638 0.00813539 0.00813679 0.00813565 0.00813635 0.00813639 0.00813777 0.00813706 0.00813788 0.00813699 0.00813804 0.00813787 0.00813841 0.00813828 0.00813871 0.00813813 0.00813909 0.00813889 0.00813929 0.00813926 0.00813951 0.00813899 0.00813955 0.00813948 0.00813961 0.00813942 0.0081399 0.0081394 0.00813991 0.00813959 0.00813935 0.00813958 0.00813962 0.00813947 0.00814 0.00813973 0.00813918 0.00813951 0.00813958 0.0081392 0.00813965 0.00813945 0.00813905 0.00813901 0.00813898 0.00813901 0.00813931 0.00813924 0.00800898 0.007923 0.0079861 0.00793722 0.00789735 0.00793963 0.00801424 0.00795007 0.00799572 0.0079616 0.0079357 0.00796981 0.00802015 0.0079707 0.00801137 0.00798942 0.00797098 0.00799708 0.00803151 0.00799129 0.00802822 0.00801142 0.0079971 0.00801772 0.00804456 0.00801058 0.00804314 0.00802896 0.00801746 0.00803454 0.00805723 0.00802789 0.00805622 0.00804421 0.00803467 0.00804916 0.00806901 0.00804347 0.00806808 0.00805762 0.0080497 0.00806224 0.00807932 0.00805709 0.00807886 0.00806945 0.00806273 0.00807321 0.00808844 0.0080688 0.00808827 0.00807988 0.00807382 0.00808276 0.00809626 0.00807902 0.00809649 0.0080887 0.00808337 0.0080912 0.0081032 0.0080877 0.00810353 0.00809627 0.00809177 0.00809844 0.00810911 0.00809531 0.00810957 0.00810291 0.00809894 0.00810461 0.00811416 0.00810197 0.00811487 0.00810881 0.0081052 0.00811029 0.00811853 0.00810767 0.00811933 0.00811375 0.00811096 0.008115 0.0081223 0.00811263 0.00812307 0.00811803 0.00811548 0.00811932 0.00812567 0.00811728 0.00812641 0.00812178 0.00811956 0.00812296 0.00812846 0.00812116 0.00812943 0.00812524 0.00812343 0.0081263 0.00813065 0.00812445 0.0081316 0.00812796 0.0081265 0.00812893 0.00813261 0.00812783 0.00813365 0.00813078 0.0081295 0.00813162 0.00813461 0.00813031 0.00813525 0.00813253 0.00813197 0.00813356 0.00813627 0.00813247 0.0081369 0.00813454 0.00813396 0.00813529 0.00813751 0.00813428 0.00813811 0.00813603 0.0081357 0.00813667 0.00813843 0.00813607 0.008139 0.00813732 0.00813703 0.00813785 0.00813901 0.00813724 0.00813947 0.00813835 0.00813818 0.00813881 0.00813952 0.00813841 0.00814022 0.00813909 0.00813927 0.00813936 0.00813977 0.0081391 0.00814027 0.00813948 0.0081398 0.00813996 0.00813987 0.00813949 0.00814055 0.00814003 0.0081403 0.00814036 0.00814013 0.00813957 0.00814022 0.00814028 0.00814033 0.00814023 0.00813988 0.00813977 0.00814009 0.00814011 0.00813997 0.00814004 0.00813922 0.00813992 0.00813971 0.00813963 0.00813985 0.00813952 0.00813925 0.0081395 0.00813939 0.00813921 0.0081395 0.00813933 0.00813904 0.00813927 0.00813898 0.00813914 0.00813959 0.00813938 0.00815876 0.0080804 0.00815451 0.00810901 0.00805927 0.00809506 0.00813089 0.00807148 0.00813222 0.00809562 0.00805788 0.00808695 0.00811408 0.00806774 0.00811636 0.00809105 0.00806463 0.0080878 0.00810886 0.00807066 0.00811066 0.00809288 0.0080733 0.00809205 0.00811033 0.00807749 0.0081112 0.0080972 0.00808185 0.00809771 0.00811452 0.00808573 0.0081148 0.00810293 0.0080904 0.0081041 0.00811945 0.00809408 0.00811951 0.00810898 0.00809848 0.00811028 0.00812421 0.00810172 0.00812451 0.00811494 0.00810578 0.00811603 0.00812842 0.00810832 0.00812899 0.00812023 0.00811229 0.00812123 0.00813229 0.00811435 0.00813285 0.00812496 0.00811792 0.00812567 0.00813529 0.00811938 0.00813635 0.00812872 0.00812256 0.00812941 0.00813764 0.00812337 0.00813885 0.0081319 0.00812662 0.00813252 0.00813972 0.00812704 0.00814082 0.00813466 0.00812977 0.00813474 0.00814135 0.00812993 0.00814239 0.00813674 0.00813238 0.0081369 0.00814255 0.0081324 0.00814364 0.00813845 0.00813478 0.00813871 0.00814318 0.00813467 0.00814445 0.00814011 0.0081367 0.00814012 0.00814378 0.00813629 0.00814525 0.00814098 0.00813811 0.00814111 0.00814436 0.00813772 0.00814541 0.00814194 0.00813936 0.00814201 0.00814469 0.00813899 0.00814567 0.00814261 0.00814029 0.00814261 0.00814444 0.00814003 0.00814552 0.00814271 0.00814138 0.00814277 0.00814439 0.00814058 0.00814532 0.0081434 0.00814179 0.00814312 0.00814436 0.00814082 0.00814493 0.00814324 0.00814187 0.00814318 0.00814403 0.00814155 0.0081447 0.00814317 0.00814237 0.00814334 0.00814334 0.00814126 0.00814413 0.00814274 0.00814221 0.00814315 0.00814309 0.0081417 0.00814373 0.0081425 0.00814226 0.00814267 0.00814239 0.00814142 0.00814308 0.00814259 0.00814199 0.00814244 0.00814168 0.00814119 0.00814215 0.0081418 0.00814162 0.00814188 0.00814128 0.00814074 0.00814148 0.00814141 0.00814137 0.00814143 0.00814033 0.00814052 0.00814068 0.00814058 0.0081408 0.00814068 0.0081399 0.00813985 0.00813991 0.00814014 0.00814014 0.00813997 0.00813904 0.00813941 0.00813922 0.00813945 0.00813932 0.00813917 0.00813812 0.00813881 0.00813827 0.00813834 0.00813892 0.00813875 0.00830041 0.00822659 0.00831661 0.00826744 0.00820614 0.00823752 0.00823566 0.00818292 0.00825751 0.00821965 0.00817129 0.00819665 0.00819755 0.00815613 0.00821122 0.00818664 0.00815242 0.00817327 0.00817961 0.00814464 0.00818606 0.00816937 0.00814499 0.00816213 0.00817221 0.00814129 0.00817511 0.00816177 0.00814341 0.00815803 0.00816965 0.00814176 0.00817122 0.00815922 0.00814449 0.0081572 0.00816888 0.00814363 0.00816995 0.00815888 0.00814668 0.00815767 0.00816858 0.00814597 0.00816979 0.00815952 0.008149 0.00815867 0.00816846 0.0081481 0.00816982 0.00816044 0.00815105 0.00815952 0.00816804 0.00814973 0.00816955 0.0081609 0.00815259 0.00816002 0.00816746 0.00815107 0.00816914 0.00816133 0.0081537 0.00816049 0.0081667 0.00815198 0.00816843 0.00816131 0.00815443 0.00816029 0.00816552 0.00815255 0.00816724 0.00816079 0.00815475 0.00815984 0.00816412 0.00815264 0.00816592 0.00816014 0.00815469 0.00815905 0.00816269 0.0081525 0.00816442 0.00815948 0.00815434 0.00815831 0.00816117 0.00815227 0.00816273 0.00815848 0.00815388 0.00815751 0.00815968 0.00815185 0.00816126 0.00815735 0.00815301 0.00815616 0.00815783 0.00815116 0.00815938 0.00815587 0.00815247 0.0081551 0.00815618 0.00815053 0.00815773 0.00815474 0.00815161 0.00815386 0.00815462 0.00814963 0.00815591 0.00815323 0.0081507 0.00815258 0.00815282 0.00814874 0.00815407 0.00815189 0.00814977 0.00815129 0.00815124 0.00814781 0.00815232 0.00815065 0.00814884 0.00815014 0.00814942 0.00814671 0.00815069 0.00814927 0.00814766 0.00814872 0.00814796 0.00814605 0.00814899 0.00814778 0.00814655 0.00814724 0.00814651 0.00814479 0.00814708 0.00814656 0.00814551 0.00814604 0.00814519 0.00814384 0.00814584 0.0081453 0.00814463 0.00814484 0.00814348 0.00814295 0.00814416 0.00814394 0.00814339 0.00814376 0.00814243 0.0081418 0.00814293 0.00814284 0.00814251 0.00814251 0.00814116 0.00814121 0.00814169 0.00814155 0.00814113 0.00814133 0.00814015 0.0081403 0.00814038 0.00814054 0.00814003 0.00813997 0.00813914 0.00813903 0.0081392 0.00813915 0.00813916 0.00813891 0.00813799 0.00813814 0.00813773 0.00813812 0.00813806 0.00813777 0.00842974 0.00836245 0.00848114 0.00841974 0.0083434 0.00837007 0.00832385 0.00828119 0.00836963 0.0083323 0.00827244 0.00829635 0.00826977 0.0082349 0.00829093 0.00827287 0.00823119 0.00825114 0.00824408 0.00821227 0.00825227 0.00823968 0.00821136 0.00822748 0.00823089 0.0082014 0.00823461 0.00822233 0.00820173 0.00821522 0.00822288 0.00819574 0.00822545 0.00821316 0.00819694 0.00820842 0.00821717 0.00819229 0.00821951 0.0082076 0.00819405 0.00820409 0.00821245 0.0081899 0.00821472 0.00820352 0.00819175 0.00820063 0.00820827 0.00818774 0.00821049 0.00820026 0.00818971 0.0081976 0.00820394 0.00818564 0.0082064 0.00819732 0.00818734 0.00819455 0.00819981 0.00818314 0.00820214 0.00819386 0.00818484 0.00819137 0.0081956 0.00818084 0.00819786 0.00819057 0.00818239 0.00818808 0.00819138 0.00817813 0.00819365 0.00818709 0.00817956 0.00818482 0.00818696 0.00817571 0.0081894 0.00818364 0.00817671 0.00818134 0.0081832 0.00817296 0.00818529 0.00817997 0.00817401 0.00817822 0.00817906 0.00817018 0.00818115 0.0081766 0.00817114 0.00817474 0.00817528 0.00816747 0.00817718 0.0081733 0.00816843 0.0081713 0.00817157 0.00816476 0.0081732 0.00816998 0.00816554 0.00816832 0.00816787 0.00816201 0.00816959 0.00816675 0.00816271 0.00816511 0.00816448 0.00815963 0.00816603 0.00816383 0.00816019 0.00816241 0.00816115 0.00815726 0.00816257 0.00816088 0.00815763 0.00815933 0.00815814 0.00815454 0.00815965 0.00815783 0.00815516 0.00815661 0.00815524 0.00815258 0.00815638 0.00815514 0.00815293 0.0081541 0.00815256 0.0081504 0.00815345 0.00815279 0.00815077 0.00815172 0.00814999 0.00814854 0.00815078 0.00815024 0.00814883 0.00814955 0.00814729 0.00814664 0.00814834 0.00814804 0.00814691 0.0081474 0.00814554 0.0081448 0.00814597 0.00814589 0.00814494 0.00814546 0.00814362 0.00814328 0.00814411 0.00814447 0.00814334 0.00814356 0.00814204 0.00814204 0.00814228 0.00814249 0.00814168 0.00814195 0.00814032 0.00814044 0.00814052 0.00814091 0.00814055 0.0081407 0.00813876 0.00813924 0.00813914 0.00813939 0.00813922 0.00813881 0.00813741 0.00813769 0.00813743 0.0081378 0.00813749 0.00813707 0.0085298 0.00847866 0.00865197 0.00856899 0.0084673 0.00848988 0.0083857 0.00835975 0.0084515 0.00842747 0.00835518 0.00838011 0.00832977 0.00830216 0.00834752 0.00834448 0.0082984 0.00831832 0.00830352 0.0082743 0.00830945 0.00830203 0.0082717 0.00828699 0.00828727 0.00825848 0.0082912 0.00827911 0.00825738 0.00826976 0.00827534 0.00824819 0.00827876 0.00826539 0.0082481 0.00825857 0.00826533 0.00824024 0.00826862 0.00825554 0.00824085 0.00824986 0.00825641 0.00823342 0.00825946 0.00824746 0.00823423 0.00824254 0.0082479 0.00822713 0.00825085 0.00823993 0.00822804 0.00823556 0.00823966 0.00822109 0.00824269 0.00823306 0.00822192 0.00822877 0.00823194 0.00821528 0.00823488 0.0082264 0.00821601 0.00822224 0.00822418 0.00820941 0.00822704 0.00821953 0.00821014 0.00821569 0.00821685 0.00820374 0.00821965 0.00821306 0.0082045 0.00820931 0.00820989 0.00819832 0.00821227 0.00820668 0.00819896 0.00820332 0.00820304 0.00819308 0.00820571 0.00820073 0.00819359 0.00819744 0.00819683 0.00818768 0.00819899 0.00819471 0.00818822 0.00819179 0.00819058 0.00818293 0.00819285 0.00818923 0.00818321 0.00818628 0.0081848 0.00817829 0.00818689 0.00818384 0.00817859 0.0081811 0.00817936 0.0081736 0.00818127 0.00817879 0.00817402 0.00817631 0.00817439 0.00816953 0.00817602 0.00817384 0.00816962 0.00817163 0.00816926 0.00816535 0.008171 0.00816926 0.00816563 0.00816723 0.00816468 0.00816169 0.00816636 0.00816497 0.00816185 0.0081633 0.00816044 0.00815832 0.00816195 0.00816085 0.00815836 0.00815931 0.00815676 0.00815472 0.00815793 0.00815725 0.00815485 0.00815585 0.00815324 0.00815195 0.00815422 0.00815389 0.00815176 0.00815261 0.00814974 0.00814897 0.00815085 0.00815088 0.00814906 0.00814957 0.00814677 0.00814652 0.00814761 0.00814786 0.00814638 0.008147 0.0081446 0.00814423 0.00814506 0.00814528 0.00814433 0.00814462 0.00814247 0.00814247 0.00814256 0.00814335 0.00814214 0.00814259 0.00814052 0.00814065 0.00814071 0.00814137 0.00814049 0.00814066 0.0081391 0.00813943 0.00813916 0.00813956 0.00813864 0.00813903 0.00813766 0.00813755 0.00813765 0.00813776 0.00813703 0.00813738 0.00857779 0.00854999 0.00890748 0.00873377 0.00855803 0.00859589 0.00841542 0.0084101 0.00840745 0.00847997 0.00840654 0.00843049 0.00838301 0.00835892 0.00838489 0.00839259 0.00835429 0.00836957 0.00836142 0.00833227 0.00836697 0.00835611 0.00832869 0.00834142 0.00834352 0.0083142 0.00834843 0.00833381 0.00831212 0.00832281 0.00832811 0.00830012 0.00833206 0.0083174 0.00829883 0.00830853 0.00831384 0.00828803 0.00831743 0.00830375 0.00828718 0.00829603 0.00830033 0.00827701 0.0083036 0.00829129 0.00827644 0.00828428 0.00828769 0.00826642 0.00829052 0.00827988 0.00826595 0.00827344 0.00827544 0.00825654 0.00827818 0.00826897 0.0082561 0.00826287 0.00826389 0.00824704 0.00826678 0.00825844 0.00824654 0.00825249 0.00825295 0.00823789 0.00825543 0.00824823 0.00823747 0.00824285 0.0082425 0.00822913 0.00824457 0.00823853 0.00822869 0.00823352 0.00823245 0.00822055 0.00823458 0.00822945 0.00822022 0.00822462 0.00822317 0.00821301 0.00822526 0.00822078 0.0082124 0.00821625 0.00821431 0.00820522 0.00821612 0.00821248 0.00820489 0.00820818 0.00820581 0.00819802 0.00820781 0.00820443 0.0081978 0.00820064 0.00819807 0.00819136 0.00819983 0.00819709 0.00819104 0.00819334 0.00819076 0.00818514 0.00819236 0.00819013 0.00818459 0.00818676 0.00818386 0.00817902 0.00818525 0.00818351 0.00817867 0.00818058 0.00817725 0.00817343 0.0081786 0.00817744 0.00817307 0.00817483 0.00817116 0.00816812 0.00817255 0.00817151 0.00816782 0.00816912 0.00816564 0.0081634 0.0081669 0.00816625 0.00816302 0.00816389 0.00816052 0.00815883 0.00816167 0.00816125 0.00815853 0.0081594 0.00815585 0.00815479 0.0081568 0.00815698 0.00815438 0.0081553 0.00815178 0.00815106 0.00815245 0.00815288 0.00815071 0.00815133 0.00814828 0.00814783 0.00814881 0.008149 0.00814742 0.00814801 0.0081451 0.00814495 0.00814542 0.00814584 0.00814443 0.008145 0.00814224 0.00814276 0.00814237 0.00814337 0.00814228 0.00814248 0.00814031 0.00814078 0.00814055 0.00814099 0.00814054 0.00814026 0.00813885 0.00813936 0.00813868 0.00813953 0.00813931 0.00813898 0.00813849 0.00813797 0.00813838 0.00813827 0.00813754 0.00813794 0.00764567 0.00742114 0.00754795 0.0073876 0.00758528 0.00754759 0.00775056 0.00772303 0.00771239 0.00767273 0.00772846 0.0077178 0.00782385 0.00777693 0.00781216 0.00777072 0.00777722 0.00779299 0.00786406 0.00782144 0.00785658 0.00783123 0.00782608 0.00784847 0.0079011 0.00786781 0.00789489 0.00787982 0.00787491 0.00789452 0.00793585 0.00790977 0.00793104 0.00791984 0.00791686 0.00793211 0.00796576 0.00794418 0.00796243 0.0079525 0.00795037 0.00796244 0.00799033 0.00797177 0.00798811 0.00797868 0.00797698 0.00798702 0.00801057 0.00799427 0.00800892 0.00800001 0.00799876 0.00800711 0.00802757 0.00801292 0.00802619 0.00801805 0.00801691 0.00802393 0.00804217 0.00802885 0.0080409 0.00803318 0.00803237 0.00803866 0.00805475 0.00804284 0.00805365 0.00804666 0.00804601 0.00805132 0.00806577 0.00805519 0.0080648 0.00805863 0.00805812 0.00806289 0.00807572 0.00806641 0.00807484 0.00806921 0.00806883 0.00807309 0.00808446 0.00807635 0.00808382 0.00807883 0.00807863 0.00808214 0.0080924 0.00808548 0.00809165 0.00808736 0.00808741 0.00809057 0.00809942 0.00809345 0.00809908 0.00809514 0.00809545 0.00809804 0.00810598 0.00810089 0.00810537 0.0081021 0.00810241 0.0081046 0.00811164 0.0081074 0.00811121 0.0081082 0.00810894 0.00811093 0.00811677 0.00811329 0.00811638 0.0081138 0.00811469 0.00811611 0.00812126 0.00811825 0.00812079 0.00811875 0.0081197 0.00812061 0.00812529 0.00812308 0.00812485 0.00812298 0.00812405 0.008125 0.00812865 0.00812693 0.00812828 0.00812679 0.00812799 0.00812841 0.00813158 0.00813035 0.00813111 0.00813012 0.0081311 0.00813166 0.00813388 0.00813332 0.00813385 0.00813278 0.00813399 0.00813407 0.00813582 0.00813605 0.00813567 0.00813515 0.00813642 0.00813621 0.00813766 0.00813756 0.00813737 0.00813704 0.00813789 0.00813803 0.00813878 0.00813909 0.00813887 0.00813835 0.00813955 0.00813901 0.00813916 0.00813971 0.00813932 0.00813933 0.00813983 0.00813948 0.00813986 0.0081401 0.00813965 0.00813967 0.00814029 0.00813999 0.00813944 0.00813987 0.00813936 0.00813917 0.00813961 0.0081394 0.00813885 0.00813877 0.0081389 0.00813861 0.0081382 0.00813849 0.00784698 0.00774349 0.00779884 0.00773609 0.00770791 0.00775759 0.00788243 0.00782383 0.00784349 0.00782182 0.00781488 0.00784618 0.00791628 0.00787276 0.00789983 0.00788365 0.00787472 0.00789994 0.00794738 0.00791101 0.00794098 0.00792679 0.00791569 0.00793715 0.00797373 0.00794191 0.00797082 0.00795881 0.00794853 0.00796679 0.00799641 0.00796906 0.00799492 0.00798462 0.00797663 0.00799158 0.0080164 0.00799257 0.00801553 0.00800622 0.00800048 0.00801233 0.00803368 0.0080128 0.00803304 0.00802461 0.00801989 0.00802982 0.00804821 0.00803 0.00804815 0.00803975 0.00803625 0.00804447 0.0080609 0.00804441 0.00806102 0.00805303 0.00804991 0.00805701 0.00807188 0.00805715 0.00807187 0.00806437 0.00806197 0.00806797 0.00808112 0.00806804 0.00808141 0.00807439 0.00807234 0.00807768 0.0080893 0.00807767 0.00808958 0.0080832 0.00808161 0.0080859 0.0080965 0.00808622 0.00809665 0.00809101 0.0080896 0.00809361 0.00810291 0.00809389 0.00810309 0.00809801 0.00809701 0.00810029 0.00810868 0.0081007 0.00810867 0.00810419 0.00810332 0.00810635 0.00811365 0.00810667 0.00811383 0.00810974 0.00810927 0.00811188 0.00811806 0.00811202 0.00811827 0.00811457 0.00811433 0.00811646 0.00812199 0.00811685 0.00812218 0.00811903 0.00811897 0.0081205 0.00812513 0.00812134 0.00812563 0.00812293 0.00812327 0.00812451 0.00812825 0.00812502 0.00812852 0.0081263 0.00812675 0.00812764 0.00813085 0.00812821 0.0081313 0.00812913 0.00812988 0.00813051 0.00813319 0.00813089 0.00813352 0.0081317 0.00813238 0.00813295 0.00813483 0.00813341 0.00813522 0.00813388 0.00813469 0.00813497 0.00813647 0.0081356 0.00813657 0.00813566 0.00813649 0.00813672 0.00813782 0.00813692 0.00813794 0.00813702 0.00813785 0.00813798 0.00813835 0.00813811 0.00813851 0.00813827 0.00813888 0.00813866 0.0081393 0.00813922 0.00813941 0.00813897 0.00813964 0.00813934 0.00813961 0.00813955 0.00813969 0.00813944 0.00813971 0.00813956 0.00813958 0.00813979 0.00813972 0.00813964 0.00813998 0.00813984 0.00813934 0.00813954 0.00813938 0.00813934 0.00813965 0.00813931 0.00813887 0.0081392 0.00813896 0.00813888 0.00813919 0.00813913 0.00800892 0.00792456 0.0079863 0.00793764 0.00789755 0.00793795 0.00801374 0.00795272 0.00799552 0.00796252 0.00793467 0.00796861 0.00801907 0.00797364 0.00801015 0.00799112 0.0079693 0.00799583 0.00802985 0.00799309 0.008027 0.00801351 0.00799576 0.00801679 0.00804284 0.00801138 0.00804224 0.00803092 0.00801673 0.00803372 0.00805579 0.00802819 0.00805588 0.00804578 0.00803453 0.00804859 0.00806763 0.00804347 0.00806799 0.00805874 0.00804987 0.00806141 0.00807843 0.00805696 0.00807892 0.00807023 0.00806298 0.00807274 0.008088 0.00806864 0.00808845 0.00808015 0.00807405 0.00808241 0.00809609 0.00807889 0.00809672 0.00808882 0.00808371 0.00809101 0.00810299 0.00808755 0.00810379 0.00809637 0.00809198 0.00809839 0.00810894 0.00809516 0.0081097 0.00810285 0.00809895 0.00810461 0.00811407 0.00810189 0.00811498 0.00810873 0.00810536 0.00811012 0.00811856 0.00810769 0.00811936 0.00811362 0.00811091 0.00811485 0.00812219 0.00811268 0.008123 0.00811803 0.00811559 0.0081193 0.00812563 0.00811719 0.00812636 0.00812191 0.00811986 0.00812299 0.00812836 0.00812119 0.00812919 0.00812516 0.00812337 0.00812612 0.00813095 0.00812466 0.00813183 0.00812824 0.00812658 0.00812877 0.00813311 0.00812764 0.00813362 0.0081307 0.00812951 0.00813148 0.00813474 0.00813018 0.00813541 0.00813285 0.00813181 0.00813367 0.00813615 0.00813249 0.00813702 0.00813449 0.00813397 0.00813532 0.00813736 0.00813464 0.00813785 0.00813632 0.00813551 0.00813681 0.00813825 0.00813592 0.00813904 0.00813715 0.00813708 0.00813797 0.00813914 0.0081372 0.00813963 0.00813842 0.00813822 0.00813875 0.00813939 0.00813813 0.00814015 0.00813906 0.00813946 0.00813953 0.00813999 0.00813883 0.00814019 0.00813958 0.00813967 0.00814007 0.00814024 0.00813964 0.00814033 0.00814008 0.00814024 0.00814021 0.00814027 0.00813998 0.00814028 0.00813998 0.00814039 0.00814009 0.0081397 0.00813984 0.00814015 0.00813987 0.00814012 0.00814005 0.00813935 0.00813944 0.00813977 0.00813963 0.00813981 0.00813971 0.00813916 0.0081393 0.00813954 0.00813946 0.00813966 0.00813975 0.00813873 0.00813907 0.008139 0.00813912 0.00813942 0.00813924 0.00815985 0.00808169 0.00815394 0.00810953 0.00805891 0.00809472 0.00813106 0.00807293 0.00813165 0.00809616 0.00805689 0.0080867 0.00811348 0.00806926 0.00811568 0.008092 0.00806343 0.00808745 0.00810781 0.00807189 0.00811003 0.00809417 0.00807241 0.00809174 0.00810915 0.00807819 0.00811077 0.00809854 0.0080818 0.00809731 0.00811346 0.00808608 0.00811469 0.00810399 0.00809052 0.00810359 0.00811848 0.00809402 0.00811952 0.0081098 0.00809871 0.00810985 0.0081234 0.00810159 0.00812446 0.00811529 0.00810603 0.00811572 0.0081279 0.00810823 0.00812917 0.0081205 0.00811257 0.00812087 0.00813171 0.00811411 0.00813314 0.00812506 0.00811809 0.00812538 0.0081349 0.00811908 0.00813629 0.00812876 0.00812261 0.00812919 0.00813748 0.00812336 0.00813886 0.00813203 0.00812657 0.0081322 0.00813957 0.00812696 0.00814081 0.00813478 0.00812981 0.00813473 0.00814101 0.00812998 0.00814243 0.00813696 0.00813254 0.00813699 0.00814234 0.00813246 0.0081438 0.00813873 0.00813471 0.00813865 0.0081434 0.00813452 0.00814471 0.00814005 0.00813659 0.0081399 0.00814385 0.00813631 0.00814497 0.0081412 0.00813797 0.00814115 0.00814419 0.00813789 0.00814535 0.00814189 0.00813951 0.00814191 0.00814436 0.00813914 0.00814569 0.00814274 0.00814048 0.00814238 0.0081445 0.00813972 0.00814555 0.00814303 0.00814125 0.00814297 0.00814438 0.00814066 0.0081452 0.00814311 0.00814185 0.00814307 0.00814436 0.00814085 0.00814497 0.0081431 0.00814209 0.00814307 0.00814402 0.00814151 0.0081446 0.0081432 0.00814229 0.0081432 0.00814346 0.00814132 0.00814437 0.00814334 0.00814227 0.00814308 0.00814299 0.00814176 0.00814358 0.00814298 0.00814219 0.00814294 0.00814251 0.00814151 0.0081428 0.0081423 0.00814208 0.00814233 0.00814179 0.00814123 0.00814245 0.00814204 0.0081416 0.00814187 0.00814138 0.00814082 0.00814183 0.00814134 0.00814127 0.00814132 0.00814034 0.00814068 0.00814072 0.00814062 0.00814055 0.00814061 0.0081396 0.00814002 0.00813997 0.0081402 0.00814009 0.00814006 0.00813915 0.00813937 0.00813944 0.00813937 0.00813943 0.0081393 0.0081384 0.00813903 0.00813839 0.00813843 0.0081388 0.00813865 0.00830252 0.00822761 0.0083152 0.00826824 0.00820531 0.00823814 0.00823666 0.00818303 0.00825668 0.00822 0.00817058 0.00819769 0.00819764 0.00815647 0.00821058 0.00818684 0.00815175 0.00817386 0.00817932 0.00814499 0.00818577 0.00816967 0.00814477 0.00816218 0.00817178 0.00814153 0.00817506 0.00816229 0.00814357 0.00815774 0.00816901 0.00814185 0.00817122 0.0081597 0.0081448 0.00815678 0.00816821 0.00814366 0.00817004 0.00815933 0.00814682 0.00815723 0.00816816 0.00814606 0.00816987 0.00815991 0.00814912 0.00815808 0.00816805 0.00814809 0.00817001 0.00816065 0.00815094 0.00815919 0.00816783 0.0081499 0.00816971 0.00816132 0.00815266 0.00815992 0.00816728 0.00815125 0.00816921 0.00816157 0.00815361 0.00816008 0.00816631 0.00815218 0.00816842 0.00816138 0.00815428 0.00816004 0.00816536 0.00815261 0.0081674 0.00816106 0.00815471 0.00815976 0.00816403 0.00815279 0.00816599 0.00816036 0.00815465 0.00815905 0.00816266 0.00815263 0.00816441 0.00815931 0.00815438 0.00815822 0.00816121 0.00815238 0.00816288 0.00815836 0.00815375 0.00815728 0.0081596 0.00815185 0.00816128 0.00815713 0.00815301 0.00815618 0.00815789 0.00815126 0.00815943 0.008156 0.00815257 0.00815501 0.00815612 0.00815052 0.00815748 0.00815473 0.00815157 0.00815391 0.00815452 0.00814951 0.00815585 0.00815317 0.00815072 0.00815252 0.00815271 0.00814885 0.00815383 0.00815198 0.0081495 0.00815145 0.00815112 0.00814791 0.00815235 0.0081506 0.00814853 0.00815004 0.00814948 0.00814697 0.00815065 0.0081492 0.00814747 0.00814873 0.00814783 0.00814591 0.00814918 0.00814793 0.00814633 0.00814723 0.00814637 0.00814504 0.00814748 0.00814644 0.00814559 0.00814588 0.00814523 0.00814376 0.00814592 0.00814542 0.0081443 0.00814463 0.00814351 0.00814297 0.00814409 0.00814402 0.00814339 0.00814352 0.00814239 0.00814217 0.00814301 0.0081428 0.0081424 0.00814247 0.00814122 0.00814117 0.00814177 0.00814154 0.00814137 0.00814114 0.00814005 0.00814028 0.00814006 0.0081404 0.00814023 0.00814032 0.00813904 0.00813934 0.00813925 0.00813914 0.00813916 0.00813916 0.0081377 0.00813813 0.008138 0.00813812 0.00813808 0.00813784 0.00843259 0.00836308 0.00847918 0.00842114 0.00834192 0.0083713 0.00832534 0.00828041 0.00836866 0.00833256 0.00827217 0.00829816 0.00827016 0.00823392 0.00829085 0.00827251 0.00823139 0.00825255 0.00824428 0.00821195 0.00825228 0.00823928 0.00821148 0.00822807 0.00823084 0.00820135 0.00823458 0.00822213 0.00820195 0.00821521 0.00822278 0.00819567 0.00822539 0.00821322 0.00819713 0.00820813 0.00821696 0.0081925 0.00821942 0.00820792 0.00819417 0.0082037 0.00821234 0.00818995 0.0082149 0.00820391 0.00819184 0.00820038 0.00820797 0.00818782 0.0082106 0.00820052 0.00818967 0.00819732 0.00820364 0.00818562 0.0082062 0.00819737 0.00818745 0.00819427 0.00819963 0.00818323 0.00820214 0.00819408 0.0081849 0.00819124 0.00819545 0.00818096 0.008198 0.0081907 0.0081824 0.00818804 0.00819122 0.00817821 0.00819364 0.00818729 0.00817967 0.0081847 0.00818703 0.00817556 0.00818959 0.00818379 0.00817684 0.00818118 0.00818291 0.00817284 0.00818516 0.00818018 0.00817392 0.00817804 0.00817907 0.00817029 0.00818111 0.0081768 0.00817125 0.00817472 0.00817509 0.00816763 0.00817719 0.0081735 0.00816846 0.0081714 0.00817145 0.00816469 0.00817342 0.00817013 0.00816553 0.00816831 0.00816788 0.00816234 0.00816969 0.00816683 0.00816301 0.00816527 0.00816455 0.00815963 0.00816631 0.00816393 0.00816028 0.00816214 0.00816125 0.008157 0.00816274 0.00816081 0.00815767 0.00815937 0.00815795 0.00815504 0.00815938 0.00815795 0.00815521 0.00815663 0.00815517 0.00815255 0.00815657 0.00815509 0.00815288 0.00815426 0.00815248 0.00815059 0.00815367 0.00815287 0.00815088 0.00815171 0.00814969 0.00814855 0.00815087 0.00815044 0.0081487 0.00814947 0.00814757 0.00814673 0.00814848 0.00814829 0.00814684 0.00814721 0.00814554 0.00814492 0.00814622 0.00814597 0.0081451 0.00814538 0.00814355 0.0081435 0.00814386 0.00814423 0.00814312 0.00814356 0.00814178 0.00814187 0.00814241 0.00814266 0.00814193 0.008142 0.00814043 0.00814036 0.00814061 0.00814108 0.00814047 0.00814058 0.00813883 0.00813911 0.00813895 0.00813961 0.00813896 0.00813888 0.00813755 0.0081379 0.00813735 0.00813771 0.0081372 0.00813718 0.00853284 0.0084792 0.00864971 0.00857076 0.00846544 0.00849148 0.0083875 0.00835806 0.00845039 0.00842778 0.00835537 0.00838275 0.00833072 0.00830059 0.00834772 0.00834361 0.00829904 0.00832037 0.00830415 0.00827362 0.00830973 0.00830111 0.00827216 0.00828784 0.00828778 0.00825828 0.00829145 0.00827866 0.0082578 0.00826992 0.00827557 0.00824813 0.00827873 0.00826508 0.00824835 0.00825852 0.0082653 0.00824026 0.00826848 0.00825554 0.00824086 0.00824983 0.0082563 0.00823351 0.00825945 0.0082475 0.0082343 0.00824235 0.00824776 0.00822729 0.00825086 0.00824024 0.00822806 0.00823544 0.00823971 0.00822119 0.00824276 0.00823324 0.00822198 0.00822856 0.00823188 0.00821537 0.00823488 0.00822642 0.0082161 0.00822217 0.00822405 0.00820949 0.00822699 0.00821967 0.00821014 0.00821566 0.0082169 0.00820391 0.00821969 0.0082131 0.00820453 0.00820932 0.00820986 0.0081984 0.00821247 0.00820684 0.00819878 0.00820311 0.00820311 0.00819309 0.00820568 0.00820078 0.00819357 0.00819749 0.00819669 0.0081878 0.00819905 0.00819483 0.00818826 0.00819179 0.00819065 0.00818303 0.008193 0.00818927 0.00818321 0.00818617 0.00818477 0.00817855 0.00818702 0.00818377 0.00817868 0.00818113 0.00817921 0.00817387 0.00818132 0.00817878 0.00817403 0.00817618 0.00817412 0.00816947 0.00817595 0.00817389 0.00816975 0.00817167 0.0081694 0.00816564 0.00817087 0.00816938 0.00816577 0.00816737 0.00816474 0.00816178 0.00816636 0.00816508 0.00816174 0.00816306 0.00816036 0.0081581 0.00816192 0.00816111 0.00815811 0.00815929 0.00815649 0.00815502 0.00815798 0.00815761 0.0081549 0.00815577 0.00815306 0.00815185 0.00815409 0.00815378 0.00815197 0.00815269 0.00815 0.00814903 0.0081509 0.00815084 0.00814912 0.00814952 0.00814683 0.0081466 0.00814756 0.00814797 0.00814655 0.00814698 0.00814437 0.00814452 0.00814492 0.00814546 0.00814426 0.00814464 0.00814208 0.00814239 0.0081427 0.0081431 0.00814221 0.0081422 0.00814056 0.0081408 0.00814078 0.00814118 0.0081407 0.00814059 0.00813884 0.00813933 0.00813885 0.00813958 0.00813894 0.00813913 0.00813761 0.00813757 0.00813721 0.008138 0.00813712 0.00813689 0.00857949 0.00855032 0.00890626 0.00873472 0.00855662 0.00859827 0.00841804 0.0084079 0.00840687 0.0084801 0.00840701 0.00843375 0.00838486 0.00835685 0.00838492 0.00839177 0.00835487 0.00837201 0.00836248 0.00833101 0.00836723 0.00835495 0.00832916 0.00834262 0.00834413 0.00831359 0.00834845 0.00833317 0.00831215 0.0083237 0.0083283 0.00829989 0.00833206 0.008317 0.00829888 0.00830882 0.00831396 0.00828785 0.0083173 0.00830356 0.00828721 0.0082961 0.00830041 0.0082769 0.00830362 0.00829145 0.00827652 0.00828447 0.00828775 0.00826658 0.00829061 0.00828004 0.0082661 0.00827336 0.00827557 0.0082565 0.00827829 0.00826889 0.00825608 0.00826263 0.00826383 0.00824701 0.00826649 0.00825838 0.00824667 0.00825264 0.00825299 0.00823797 0.00825542 0.0082485 0.00823747 0.00824295 0.00824239 0.00822919 0.00824475 0.00823881 0.00822876 0.0082335 0.00823254 0.00822073 0.00823467 0.00822947 0.00822028 0.00822464 0.00822323 0.00821295 0.00822516 0.00822076 0.00821256 0.00821623 0.00821423 0.00820538 0.00821616 0.00821237 0.00820481 0.00820812 0.00820596 0.00819822 0.00820763 0.00820457 0.00819771 0.00820051 0.00819796 0.00819156 0.00819963 0.00819724 0.00819104 0.00819345 0.00819074 0.00818499 0.00819212 0.00819006 0.0081847 0.00818675 0.00818364 0.00817896 0.00818533 0.00818359 0.00817877 0.00818046 0.00817752 0.00817332 0.0081786 0.00817738 0.00817301 0.00817471 0.00817118 0.00816813 0.00817249 0.00817162 0.00816773 0.00816925 0.00816578 0.00816321 0.00816705 0.00816625 0.00816303 0.00816393 0.00816039 0.00815888 0.00816154 0.00816146 0.00815854 0.00815928 0.00815585 0.00815495 0.00815693 0.00815664 0.00815441 0.00815507 0.00815189 0.00815136 0.00815273 0.00815275 0.00815096 0.00815104 0.0081481 0.00814761 0.00814862 0.00814903 0.0081476 0.00814791 0.00814488 0.00814513 0.0081453 0.00814625 0.00814479 0.00814481 0.00814225 0.00814267 0.0081429 0.00814349 0.00814216 0.00814241 0.00814015 0.0081408 0.00814029 0.00814117 0.00814041 0.00814039 0.00813908 0.00813935 0.0081387 0.00813944 0.00813912 0.00813897 0.00813827 0.00813809 0.0081384 0.00813816 0.00813755 0.00813751 0.00765686 0.00745246 0.00756253 0.0074137 0.00760041 0.00756216 0.00776141 0.00774007 0.00772426 0.0076875 0.00773734 0.00772776 0.00783286 0.00779119 0.00782119 0.00778554 0.00778594 0.00780208 0.00787108 0.00783334 0.00786466 0.00784558 0.00783459 0.0078565 0.00790612 0.00787673 0.00790174 0.00789109 0.00788154 0.00790013 0.00793905 0.00791547 0.00793615 0.00792742 0.00792134 0.0079356 0.00796735 0.00794749 0.00796582 0.00795702 0.00795318 0.00796429 0.00799111 0.00797336 0.00799017 0.00798097 0.00797854 0.00798777 0.00801097 0.00799457 0.00800998 0.0080009 0.00799929 0.00800726 0.00802774 0.00801276 0.00802667 0.00801812 0.00801686 0.00802383 0.00804203 0.00802837 0.00804116 0.00803284 0.00803203 0.00803846 0.00805451 0.00804239 0.00805377 0.00804634 0.00804556 0.00805099 0.00806566 0.00805465 0.0080647 0.00805807 0.00805768 0.00806254 0.00807544 0.00806592 0.00807461 0.00806867 0.00806862 0.00807267 0.00808421 0.00807611 0.0080835 0.00807822 0.00807823 0.00808191 0.00809232 0.00808503 0.00809149 0.00808675 0.00808721 0.00809024 0.00809948 0.00809317 0.00809879 0.00809463 0.00809501 0.0080977 0.00810596 0.00810046 0.00810532 0.00810156 0.00810207 0.00810444 0.00811145 0.00810699 0.00811106 0.008108 0.00810845 0.00811052 0.0081166 0.00811277 0.00811626 0.00811343 0.00811414 0.00811591 0.00812101 0.00811817 0.00812054 0.00811824 0.0081191 0.00812081 0.008125 0.00812252 0.00812452 0.00812259 0.00812378 0.00812485 0.00812835 0.00812665 0.00812796 0.0081265 0.00812748 0.0081284 0.00813133 0.00813003 0.008131 0.00812977 0.00813109 0.00813151 0.00813386 0.00813302 0.00813365 0.00813251 0.00813353 0.00813406 0.00813583 0.00813544 0.00813562 0.00813487 0.00813621 0.00813622 0.00813766 0.00813739 0.00813734 0.00813693 0.00813798 0.0081379 0.00813863 0.0081389 0.00813848 0.00813799 0.00813933 0.00813909 0.00813938 0.00813959 0.0081392 0.0081391 0.00814012 0.00813938 0.00813948 0.00813999 0.00813943 0.00813928 0.00814044 0.0081397 0.00813928 0.00813988 0.00813934 0.00813939 0.00813949 0.00813941 0.0081388 0.00813858 0.0081389 0.0081386 0.00813825 0.00813839 0.00785367 0.00775823 0.0078056 0.00774423 0.00771886 0.00776418 0.00789029 0.00784187 0.0078519 0.00783253 0.0078245 0.0078545 0.00792338 0.00788776 0.00790795 0.00789718 0.00788252 0.00790823 0.00795298 0.00792191 0.00794758 0.00793991 0.00792206 0.00794398 0.00797764 0.0079494 0.00797631 0.00796887 0.00795396 0.00797151 0.007999 0.00797366 0.00799913 0.00799153 0.00798077 0.00799467 0.00801796 0.00799543 0.00801858 0.00801057 0.00800317 0.00801412 0.00803455 0.00801431 0.00803539 0.00802683 0.00802176 0.00803075 0.00804882 0.00803056 0.00804954 0.00804104 0.00803742 0.00804494 0.00806126 0.00804464 0.00806184 0.00805356 0.00805077 0.00805728 0.00807192 0.00805697 0.00807227 0.00806445 0.00806218 0.00806794 0.00808117 0.00806789 0.00808146 0.00807421 0.0080724 0.00807747 0.00808935 0.00807742 0.00808961 0.00808296 0.00808139 0.00808594 0.00809646 0.00808611 0.0080969 0.0080908 0.00808971 0.00809341 0.00810303 0.00809359 0.00810315 0.00809785 0.00809686 0.00810018 0.00810844 0.00810051 0.00810882 0.00810399 0.00810331 0.00810629 0.00811358 0.00810641 0.00811378 0.0081096 0.00810928 0.00811157 0.00811793 0.00811188 0.00811805 0.0081143 0.00811419 0.00811632 0.00812179 0.0081167 0.00812214 0.00811872 0.00811871 0.00812043 0.00812537 0.008121 0.00812551 0.00812266 0.00812292 0.00812433 0.00812821 0.00812465 0.00812841 0.00812624 0.00812652 0.00812757 0.00813085 0.00812781 0.00813097 0.00812893 0.00812968 0.00813042 0.00813291 0.0081308 0.00813322 0.00813165 0.00813235 0.00813269 0.00813488 0.00813306 0.00813516 0.00813376 0.00813442 0.00813489 0.00813638 0.00813492 0.00813659 0.00813532 0.00813616 0.00813651 0.00813801 0.00813683 0.00813799 0.00813695 0.00813805 0.00813769 0.00813838 0.00813798 0.00813847 0.0081381 0.00813889 0.00813866 0.00813911 0.00813906 0.00813934 0.00813892 0.00813974 0.00813966 0.00813942 0.00813945 0.0081394 0.00813905 0.00813998 0.00813959 0.00813954 0.00813986 0.00813949 0.00813919 0.00813984 0.00813963 0.00813925 0.0081393 0.00813945 0.00813907 0.00813949 0.00813937 0.00813875 0.00813898 0.00813899 0.00813897 0.00813933 0.00813942 0.0080129 0.0079329 0.00798938 0.00794253 0.0079025 0.00794198 0.00801826 0.00796479 0.0079996 0.00796928 0.00794096 0.00797399 0.00802351 0.00798456 0.00801519 0.00800033 0.00797538 0.00800167 0.00803363 0.00800167 0.00803184 0.00802291 0.00800134 0.00802183 0.00804553 0.0080174 0.00804642 0.00803869 0.00802142 0.00803763 0.00805779 0.00803228 0.00805924 0.00805127 0.00803804 0.00805109 0.00806917 0.00804605 0.00807077 0.00806244 0.00805243 0.00806318 0.00807925 0.00805854 0.00808087 0.00807253 0.00806452 0.00807388 0.00808851 0.00806959 0.00808991 0.00808159 0.00807526 0.00808321 0.00809641 0.00807941 0.00809761 0.00808984 0.00808446 0.00809134 0.00810335 0.00808789 0.00810434 0.00809704 0.00809247 0.00809866 0.00810918 0.00809538 0.00811007 0.00810324 0.0080993 0.0081048 0.00811423 0.00810199 0.00811519 0.00810883 0.0081054 0.00811021 0.00811858 0.00810779 0.00811953 0.0081137 0.00811083 0.008115 0.00812231 0.00811297 0.00812325 0.00811803 0.00811546 0.00811915 0.00812575 0.00811734 0.00812659 0.00812189 0.00811987 0.00812303 0.00812868 0.00812102 0.00812928 0.00812523 0.0081233 0.00812602 0.00813097 0.0081246 0.0081316 0.00812815 0.00812668 0.00812912 0.00813297 0.00812755 0.00813381 0.00813057 0.00812953 0.00813131 0.00813484 0.00813006 0.00813534 0.00813254 0.00813189 0.00813332 0.00813632 0.00813231 0.00813682 0.00813456 0.00813395 0.00813504 0.00813724 0.00813409 0.00813802 0.00813592 0.00813564 0.00813648 0.00813847 0.0081357 0.00813873 0.00813715 0.00813694 0.00813794 0.00813895 0.00813719 0.00813933 0.00813823 0.0081383 0.00813873 0.00813958 0.00813805 0.00814016 0.00813908 0.00813907 0.00813923 0.00813983 0.00813893 0.00814052 0.00813939 0.00813977 0.00813992 0.00813993 0.00813944 0.00814035 0.00813957 0.00814018 0.00814031 0.00813996 0.00813965 0.00814049 0.00813996 0.00814022 0.00813993 0.00813973 0.00813973 0.00814005 0.00813983 0.00814023 0.00814015 0.00813972 0.00813949 0.00813966 0.00813954 0.00813993 0.00813964 0.00813911 0.00813937 0.00813923 0.00813923 0.00813953 0.00813941 0.0081389 0.0081391 0.00813865 0.00813898 0.00813952 0.00813884 0.00816155 0.00808572 0.00815412 0.00811289 0.00806008 0.00809687 0.00813186 0.00807825 0.00813207 0.00809901 0.0080593 0.00808909 0.00811488 0.00807522 0.00811713 0.00809597 0.00806707 0.00809038 0.00810965 0.00807715 0.00811244 0.00809914 0.00807632 0.00809467 0.00811087 0.00808239 0.00811351 0.00810335 0.00808511 0.00809989 0.00811473 0.00808934 0.00811725 0.00810786 0.00809344 0.00810563 0.00811975 0.00809635 0.00812181 0.00811279 0.008101 0.00811129 0.00812432 0.00810328 0.00812623 0.00811741 0.00810765 0.00811675 0.00812872 0.00810962 0.00813042 0.00812213 0.00811369 0.00812162 0.00813234 0.00811495 0.00813409 0.00812619 0.00811871 0.00812588 0.00813532 0.00811989 0.00813701 0.00812965 0.0081232 0.00812937 0.00813794 0.00812386 0.00813945 0.00813263 0.00812671 0.00813234 0.00813972 0.00812734 0.00814123 0.00813516 0.00813006 0.00813489 0.00814144 0.00813029 0.00814276 0.00813723 0.00813261 0.00813709 0.00814254 0.00813262 0.0081439 0.00813892 0.00813491 0.00813881 0.00814341 0.0081348 0.00814471 0.00814035 0.00813679 0.00814013 0.00814391 0.00813651 0.00814532 0.00814117 0.00813825 0.00814116 0.00814439 0.00813758 0.00814546 0.00814204 0.00813955 0.00814193 0.00814454 0.00813898 0.00814557 0.00814251 0.00814063 0.00814266 0.00814473 0.00813973 0.00814544 0.00814311 0.0081409 0.00814284 0.00814451 0.00814049 0.00814555 0.00814319 0.00814171 0.00814322 0.00814402 0.00814091 0.00814499 0.00814306 0.008142 0.00814315 0.00814387 0.00814121 0.00814453 0.00814315 0.0081422 0.00814303 0.00814363 0.00814132 0.00814412 0.0081429 0.0081423 0.00814283 0.00814305 0.00814177 0.00814367 0.00814272 0.00814204 0.00814241 0.00814232 0.00814142 0.00814295 0.00814213 0.00814201 0.00814231 0.00814159 0.00814125 0.00814226 0.00814197 0.00814164 0.00814181 0.00814109 0.00814088 0.00814144 0.00814142 0.00814122 0.00814147 0.00814038 0.00814057 0.00814055 0.00814064 0.00814051 0.00814067 0.00813983 0.00813986 0.00814001 0.00813982 0.00814002 0.00813995 0.00813908 0.00813943 0.00813883 0.00813933 0.00813951 0.00813903 0.00813833 0.00813881 0.00813816 0.00813867 0.008139 0.00813879 0.00830187 0.008227 0.00831276 0.00827009 0.008203 0.00823866 0.00823423 0.00818165 0.00825352 0.00821856 0.00816952 0.0081973 0.00819613 0.00815723 0.00820905 0.00818572 0.00815283 0.00817395 0.00817923 0.00814697 0.00818594 0.0081706 0.00814684 0.00816324 0.0081724 0.00814385 0.00817623 0.00816432 0.00814578 0.00815916 0.00816994 0.00814413 0.00817281 0.0081621 0.00814674 0.00815799 0.00816904 0.00814568 0.0081716 0.0081614 0.00814872 0.00815833 0.00816895 0.00814754 0.00817138 0.00816172 0.00815053 0.00815928 0.00816874 0.00814944 0.00817109 0.00816213 0.00815224 0.00815988 0.0081685 0.00815109 0.00817064 0.00816242 0.00815339 0.00816053 0.00816767 0.00815219 0.00817003 0.00816236 0.00815422 0.00816059 0.00816682 0.00815275 0.008169 0.00816217 0.00815493 0.00816049 0.00816585 0.00815313 0.00816791 0.00816154 0.00815488 0.00816 0.00816438 0.00815316 0.00816654 0.00816081 0.00815479 0.00815937 0.00816284 0.00815302 0.00816483 0.00815979 0.00815454 0.00815854 0.0081613 0.00815267 0.00816313 0.00815869 0.00815393 0.00815755 0.00815988 0.00815212 0.00816138 0.00815737 0.0081532 0.00815639 0.00815811 0.00815126 0.00815955 0.00815618 0.00815251 0.00815502 0.00815618 0.00815074 0.00815785 0.00815498 0.00815167 0.00815385 0.00815452 0.00814979 0.00815606 0.0081535 0.00815088 0.00815269 0.00815276 0.00814899 0.00815425 0.00815206 0.00814971 0.00815139 0.00815122 0.00814808 0.00815235 0.00815052 0.0081486 0.00814996 0.00814941 0.00814714 0.00815055 0.00814923 0.00814768 0.00814859 0.00814817 0.0081459 0.00814884 0.00814773 0.0081465 0.00814734 0.00814631 0.00814506 0.00814747 0.00814646 0.00814534 0.00814584 0.00814518 0.00814393 0.00814574 0.0081456 0.00814444 0.00814493 0.00814373 0.00814302 0.00814458 0.0081441 0.00814314 0.00814341 0.00814262 0.00814215 0.00814299 0.00814283 0.00814243 0.00814254 0.00814122 0.00814105 0.00814207 0.00814168 0.00814165 0.00814124 0.00814006 0.00814006 0.00814031 0.00814075 0.00814024 0.00814008 0.00813884 0.008139 0.00813906 0.00813937 0.00813931 0.00813897 0.00813778 0.0081381 0.00813777 0.00813811 0.00813792 0.0081374 0.00843014 0.00835826 0.00847436 0.00842232 0.00833659 0.00837069 0.00832026 0.00827324 0.00836253 0.00832789 0.00826821 0.00829513 0.00826682 0.00823047 0.00828667 0.00826699 0.00822992 0.00825043 0.00824281 0.00821146 0.0082506 0.00823655 0.00821164 0.00822723 0.00823058 0.00820214 0.00823442 0.00822201 0.00820301 0.00821532 0.00822311 0.0081971 0.00822599 0.00821411 0.00819848 0.00820887 0.00821755 0.00819379 0.00822049 0.00820909 0.00819542 0.00820452 0.008213 0.00819124 0.00821577 0.00820535 0.00819286 0.00820112 0.00820836 0.00818908 0.0082114 0.00820181 0.00819063 0.00819798 0.00820426 0.00818665 0.00820705 0.0081984 0.00818814 0.00819477 0.00820012 0.00818421 0.0082028 0.00819496 0.0081856 0.00819163 0.00819582 0.00818173 0.00819837 0.00819148 0.00818288 0.00818836 0.00819142 0.0081789 0.00819405 0.0081878 0.00818001 0.00818498 0.00818739 0.00817626 0.00818986 0.00818432 0.00817723 0.0081815 0.00818319 0.00817346 0.00818561 0.00818071 0.00817438 0.00817821 0.00817929 0.00817066 0.00818157 0.00817705 0.00817142 0.00817483 0.00817527 0.00816784 0.00817749 0.00817367 0.00816847 0.00817178 0.00817161 0.00816499 0.00817381 0.00817031 0.00816573 0.00816827 0.00816788 0.00816242 0.00816981 0.00816686 0.00816296 0.00816527 0.00816453 0.00815983 0.00816629 0.00816386 0.00816037 0.00816208 0.00816133 0.00815726 0.00816274 0.00816075 0.00815774 0.00815949 0.00815818 0.00815501 0.00815962 0.00815803 0.00815541 0.00815671 0.00815523 0.00815282 0.00815658 0.00815532 0.00815298 0.00815425 0.00815272 0.00815052 0.00815381 0.00815295 0.00815082 0.00815167 0.0081499 0.00814864 0.0081511 0.00815038 0.00814839 0.00814917 0.00814761 0.00814668 0.0081487 0.00814809 0.00814696 0.00814735 0.00814523 0.00814509 0.00814632 0.00814618 0.00814504 0.0081453 0.00814351 0.00814332 0.00814431 0.00814432 0.00814333 0.0081437 0.00814203 0.00814214 0.00814249 0.00814271 0.00814177 0.00814218 0.00814056 0.00814039 0.00814083 0.00814102 0.00814046 0.00814042 0.00813921 0.00813937 0.00813921 0.0081394 0.00813908 0.00813888 0.00813739 0.00813795 0.00813726 0.00813769 0.00813723 0.00813723 0.00852865 0.00847123 0.00864374 0.00857198 0.00845804 0.00848972 0.0083811 0.00834722 0.00844216 0.00842047 0.00834951 0.0083782 0.00832615 0.00829426 0.00834199 0.00833524 0.00829584 0.00831673 0.00830172 0.00827085 0.00830657 0.00829586 0.00827087 0.008286 0.00828666 0.00825769 0.00828988 0.00827659 0.00825765 0.00826926 0.00827518 0.00824843 0.00827816 0.00826483 0.0082487 0.00825862 0.0082654 0.0082411 0.00826854 0.00825605 0.00824146 0.0082502 0.00825654 0.00823424 0.0082599 0.00824829 0.00823498 0.00824283 0.00824811 0.00822817 0.00825148 0.00824113 0.0082288 0.00823591 0.00823995 0.00822209 0.00824332 0.00823399 0.0082226 0.00822905 0.00823205 0.00821603 0.00823542 0.00822719 0.00821663 0.00822251 0.00822437 0.0082101 0.00822769 0.00822033 0.00821073 0.00821604 0.0082172 0.00820452 0.00822019 0.00821375 0.00820478 0.00820979 0.0082101 0.00819897 0.00821295 0.00820739 0.00819921 0.00820352 0.00820322 0.00819348 0.00820598 0.00820118 0.00819386 0.00819767 0.00819692 0.00818821 0.00819938 0.00819519 0.00818856 0.00819196 0.00819081 0.00818339 0.00819321 0.00818943 0.00818354 0.00818653 0.00818486 0.00817864 0.00818722 0.00818395 0.00817864 0.00818129 0.00817942 0.00817386 0.00818147 0.00817895 0.00817412 0.00817621 0.00817438 0.00816961 0.00817609 0.0081741 0.00816987 0.00817172 0.00816949 0.00816558 0.00817116 0.00816953 0.00816574 0.00816751 0.00816497 0.00816177 0.00816667 0.00816502 0.00816188 0.00816336 0.00816093 0.00815846 0.00816238 0.00816125 0.00815827 0.00815935 0.00815695 0.00815489 0.00815807 0.00815751 0.00815483 0.00815597 0.00815301 0.00815207 0.00815441 0.00815396 0.00815188 0.00815267 0.00815012 0.00814924 0.00815106 0.00815093 0.00814932 0.00814981 0.008147 0.00814678 0.00814777 0.00814794 0.00814646 0.008147 0.00814442 0.0081445 0.00814542 0.00814562 0.00814409 0.00814457 0.0081424 0.00814258 0.00814287 0.00814345 0.00814235 0.00814257 0.00814039 0.00814071 0.00814097 0.00814122 0.00814069 0.00814068 0.0081391 0.0081394 0.00813906 0.00813943 0.00813888 0.0081389 0.00813764 0.00813765 0.00813749 0.00813769 0.00813725 0.00813717 0.00857167 0.00854084 0.00889323 0.00873113 0.00854843 0.00859501 0.00841122 0.00839536 0.00839778 0.0084713 0.00839972 0.00842862 0.00837947 0.00834874 0.00837803 0.00838288 0.00835035 0.00836804 0.00835901 0.00832674 0.00836261 0.00834902 0.00832651 0.00834018 0.00834209 0.00831146 0.00834558 0.00832974 0.00831091 0.00832236 0.00832721 0.00829886 0.00833037 0.0083154 0.00829844 0.00830847 0.00831333 0.00828762 0.0083164 0.00830309 0.00828724 0.00829602 0.00830032 0.00827697 0.00830328 0.00829142 0.00827652 0.00828457 0.00828755 0.00826674 0.00829065 0.00828028 0.00826637 0.0082737 0.0082755 0.00825697 0.00827863 0.00826946 0.0082566 0.00826305 0.00826399 0.00824749 0.00826666 0.00825897 0.00824687 0.00825274 0.0082531 0.00823845 0.00825553 0.00824867 0.00823779 0.00824313 0.0082426 0.00822949 0.00824506 0.00823927 0.00822914 0.00823381 0.0082329 0.0082212 0.00823481 0.00822969 0.0082208 0.00822485 0.00822342 0.00821342 0.00822553 0.00822107 0.00821277 0.00821656 0.00821456 0.00820571 0.00821632 0.00821272 0.00820517 0.00820846 0.00820613 0.00819858 0.00820806 0.00820484 0.00819803 0.0082008 0.00819823 0.00819181 0.00819994 0.00819737 0.00819111 0.0081937 0.00819081 0.00818534 0.00819248 0.00819027 0.00818472 0.00818682 0.00818396 0.00817935 0.00818556 0.00818377 0.00817885 0.00818066 0.00817758 0.0081738 0.00817879 0.00817769 0.00817307 0.00817479 0.00817151 0.00816844 0.00817285 0.00817183 0.00816794 0.0081693 0.00816616 0.00816358 0.00816702 0.0081668 0.00816313 0.00816432 0.00816098 0.00815907 0.00816194 0.00816157 0.00815869 0.00815947 0.00815608 0.00815524 0.00815713 0.00815719 0.00815457 0.00815522 0.00815207 0.00815134 0.00815274 0.00815321 0.00815087 0.0081513 0.00814828 0.00814809 0.00814875 0.00814955 0.00814763 0.00814794 0.00814498 0.0081452 0.00814572 0.00814622 0.00814494 0.00814502 0.00814253 0.00814303 0.00814275 0.00814368 0.00814269 0.00814251 0.00814043 0.00814119 0.00814043 0.00814122 0.00814066 0.00814037 0.00813909 0.00813958 0.00813927 0.00813981 0.00813942 0.0081391 0.00813825 0.008138 0.00813862 0.00813817 0.00813724 0.00813763 0.00768732 0.00751681 0.00758623 0.00744629 0.00763258 0.00759572 0.00779168 0.00777905 0.00775141 0.00772143 0.00776042 0.00775606 0.00785516 0.00782132 0.00784563 0.00782684 0.00780955 0.00782732 0.00788747 0.00785683 0.00788528 0.0078783 0.00785485 0.00787576 0.00791763 0.00789346 0.00791743 0.00791266 0.00789645 0.00791299 0.00794643 0.00792582 0.00794683 0.00794016 0.00793055 0.00794315 0.00797176 0.00795304 0.00797224 0.00796339 0.00795805 0.00796799 0.00799351 0.00797602 0.00799354 0.0079837 0.00798075 0.00798911 0.00801195 0.00799547 0.00801153 0.00800172 0.00799988 0.00800746 0.00802783 0.00801249 0.00802712 0.00801782 0.00801687 0.00802335 0.00804191 0.00802779 0.00804089 0.00803238 0.00803156 0.0080376 0.00805412 0.00804162 0.00805315 0.00804518 0.00804482 0.00805038 0.00806512 0.00805379 0.00806422 0.00805709 0.00805706 0.00806178 0.00807504 0.00806506 0.00807398 0.00806775 0.00806762 0.00807202 0.00808388 0.00807522 0.00808296 0.00807741 0.00807768 0.00808138 0.00809198 0.0080842 0.00809109 0.00808613 0.00808648 0.00808973 0.00809908 0.00809228 0.00809818 0.00809415 0.00809453 0.00809712 0.00810546 0.00809979 0.00810458 0.00810084 0.0081016 0.00810394 0.00811122 0.00810644 0.00811056 0.00810733 0.00810802 0.0081098 0.00811613 0.00811235 0.00811566 0.00811279 0.00811384 0.00811536 0.0081207 0.00811743 0.0081201 0.00811778 0.0081187 0.00812002 0.00812472 0.00812178 0.0081241 0.00812203 0.00812318 0.00812422 0.00812804 0.0081258 0.00812758 0.00812585 0.00812717 0.00812799 0.00813103 0.00812958 0.00813069 0.00812941 0.00813043 0.00813085 0.00813347 0.00813274 0.00813329 0.00813206 0.00813319 0.00813362 0.0081355 0.00813507 0.00813538 0.00813423 0.00813582 0.00813571 0.00813748 0.0081369 0.00813702 0.00813621 0.00813742 0.00813743 0.00813831 0.00813857 0.00813817 0.0081377 0.0081389 0.00813855 0.00813921 0.00813924 0.0081391 0.00813862 0.0081395 0.00813903 0.00813918 0.00813984 0.00813945 0.00813921 0.00813996 0.00813972 0.00813916 0.00813944 0.00813942 0.00813887 0.00813958 0.00813894 0.00813856 0.00813859 0.00813895 0.00813879 0.00813824 0.00813841 0.00786989 0.00778776 0.00781513 0.00775173 0.00773706 0.00778104 0.00791163 0.00788342 0.00787088 0.00785732 0.00784755 0.00787731 0.00794246 0.00792017 0.00792981 0.00793246 0.00790459 0.00792994 0.00796711 0.00794358 0.00796621 0.00796826 0.00794039 0.00796034 0.00798759 0.00796331 0.00798998 0.00798754 0.00796692 0.00798272 0.00800569 0.00798246 0.00800848 0.00800274 0.0079892 0.00800142 0.00802223 0.00800077 0.00802457 0.00801662 0.00800811 0.00801802 0.00803717 0.00801736 0.00803899 0.00803016 0.00802445 0.00803283 0.00805046 0.00803214 0.00805172 0.00804265 0.00803861 0.00804589 0.00806209 0.00804545 0.00806288 0.00805421 0.0080512 0.00805774 0.00807244 0.0080574 0.00807294 0.00806474 0.00806239 0.00806814 0.00808154 0.00806788 0.00808181 0.00807421 0.00807227 0.00807756 0.00808939 0.00807744 0.00808956 0.00808287 0.00808127 0.00808571 0.00809653 0.00808577 0.00809668 0.00809065 0.00808921 0.00809336 0.00810278 0.00809327 0.00810303 0.00809747 0.00809655 0.0080999 0.00810832 0.00810009 0.00810863 0.00810381 0.00810296 0.0081059 0.00811351 0.00810614 0.0081136 0.00810908 0.00810887 0.0081114 0.00811788 0.00811157 0.00811811 0.0081141 0.00811389 0.008116 0.00812161 0.0081163 0.00812176 0.00811846 0.00811854 0.00812038 0.00812512 0.00812056 0.00812534 0.00812223 0.00812259 0.0081242 0.00812811 0.00812437 0.00812817 0.00812584 0.00812634 0.00812718 0.0081306 0.00812765 0.00813054 0.00812865 0.00812924 0.00813013 0.00813309 0.00813045 0.00813294 0.008131 0.00813189 0.00813254 0.0081347 0.00813279 0.00813466 0.00813308 0.00813424 0.00813452 0.00813607 0.00813492 0.00813633 0.00813522 0.008136 0.00813609 0.00813749 0.00813692 0.00813763 0.00813652 0.0081374 0.00813738 0.00813825 0.00813786 0.00813828 0.00813759 0.0081386 0.00813837 0.00813872 0.00813891 0.00813894 0.00813847 0.00813929 0.00813907 0.00813926 0.00813931 0.00813922 0.00813879 0.00813972 0.00813961 0.00813922 0.00813937 0.00813927 0.00813916 0.0081396 0.00813934 0.00813932 0.00813942 0.00813909 0.00813914 0.00813957 0.00813927 0.00813905 0.0081392 0.0081391 0.00813884 0.0081392 0.00813899 0.0080212 0.00794878 0.0079943 0.00794844 0.00791038 0.00795199 0.00802944 0.00799207 0.00800943 0.00798502 0.00795704 0.0079887 0.00803522 0.00800832 0.00802915 0.00802311 0.0079933 0.00801637 0.00804366 0.00801915 0.00804543 0.00804256 0.00801634 0.00803373 0.00805357 0.00802951 0.00805732 0.00805241 0.00803235 0.00804618 0.00806354 0.00804042 0.00806725 0.00806027 0.00804549 0.00805698 0.00807326 0.00805152 0.00807619 0.00806819 0.00805709 0.008067 0.0080821 0.0080623 0.00808461 0.00807631 0.00806749 0.00807622 0.00809064 0.00807221 0.00809218 0.00808387 0.00807711 0.00808464 0.00809786 0.00808109 0.00809918 0.00809119 0.00808539 0.00809222 0.00810449 0.00808913 0.00810541 0.00809792 0.00809283 0.0080992 0.0081099 0.00809629 0.00811091 0.00810398 0.0080997 0.00810505 0.00811482 0.00810272 0.00811563 0.00810925 0.00810557 0.00811054 0.00811905 0.00810826 0.00811978 0.00811403 0.00811097 0.00811513 0.00812256 0.00811309 0.00812353 0.00811817 0.00811539 0.00811922 0.00812593 0.00811746 0.0081266 0.00812185 0.00811969 0.00812297 0.00812862 0.00812111 0.00812922 0.00812516 0.00812343 0.008126 0.00813102 0.00812462 0.00813148 0.00812811 0.00812656 0.00812879 0.00813305 0.0081275 0.00813353 0.00813039 0.00812923 0.00813119 0.00813469 0.0081302 0.00813551 0.00813251 0.00813156 0.00813339 0.00813608 0.00813213 0.0081366 0.0081342 0.00813392 0.00813495 0.00813737 0.00813412 0.00813769 0.00813578 0.00813536 0.00813651 0.00813822 0.00813578 0.00813858 0.00813688 0.00813682 0.00813754 0.00813889 0.00813707 0.00813944 0.00813799 0.00813807 0.00813853 0.00813975 0.0081381 0.00813998 0.0081385 0.00813877 0.00813919 0.0081398 0.00813888 0.00814002 0.00813919 0.00813963 0.00813982 0.00813998 0.00813923 0.00814015 0.00813968 0.0081398 0.00814013 0.00813997 0.00813957 0.00814046 0.00813981 0.00814009 0.00814027 0.00813974 0.0081395 0.00813994 0.00813971 0.00814013 0.0081399 0.00813935 0.00813968 0.0081396 0.00813942 0.00814003 0.00813959 0.00813904 0.00813919 0.00813907 0.00813899 0.0081393 0.00813916 0.00813908 0.00813919 0.0081391 0.00813873 0.00813934 0.00813934 0.00816235 0.00809124 0.0081554 0.00811738 0.00806182 0.00810101 0.00813322 0.00808999 0.00813343 0.0081036 0.00806729 0.00809483 0.00811922 0.00808815 0.00812249 0.00810604 0.00807806 0.00809753 0.00811503 0.00808831 0.00811974 0.00810974 0.00808676 0.00810176 0.00811611 0.00809135 0.00812068 0.00811224 0.00809337 0.00810574 0.00811926 0.00809609 0.0081232 0.00811475 0.00809945 0.00811008 0.00812316 0.00810158 0.00812631 0.00811777 0.00810505 0.00811473 0.00812731 0.00810719 0.00812987 0.00812108 0.00811061 0.00811926 0.00813085 0.00811241 0.00813301 0.00812479 0.00811568 0.00812341 0.00813404 0.00811732 0.00813597 0.00812811 0.00812012 0.00812741 0.00813667 0.00812174 0.00813849 0.00813118 0.00812433 0.00813063 0.00813906 0.00812524 0.00814052 0.00813367 0.00812757 0.00813332 0.00814076 0.00812847 0.00814214 0.00813595 0.00813057 0.00813561 0.00814193 0.00813113 0.00814345 0.0081378 0.00813321 0.00813764 0.00814313 0.00813349 0.00814438 0.00813929 0.00813512 0.00813895 0.00814381 0.00813534 0.00814493 0.00814054 0.00813687 0.00814025 0.00814432 0.00813683 0.00814538 0.00814134 0.00813833 0.00814133 0.00814456 0.00813803 0.00814574 0.00814207 0.00813966 0.008142 0.00814463 0.00813905 0.00814571 0.00814275 0.00814041 0.00814271 0.00814462 0.0081401 0.00814557 0.00814296 0.00814095 0.00814282 0.00814468 0.00814065 0.00814557 0.00814317 0.00814162 0.00814325 0.00814409 0.00814092 0.00814519 0.00814318 0.00814194 0.00814308 0.00814385 0.00814125 0.00814455 0.00814298 0.00814229 0.00814317 0.00814363 0.0081415 0.0081441 0.00814286 0.00814224 0.00814301 0.0081432 0.00814152 0.00814351 0.00814254 0.00814214 0.00814285 0.00814245 0.00814141 0.0081429 0.00814212 0.00814169 0.00814228 0.00814196 0.00814117 0.00814223 0.00814184 0.00814155 0.00814189 0.00814129 0.00814093 0.00814159 0.00814122 0.00814135 0.00814133 0.00814056 0.00814018 0.00814076 0.00814068 0.0081409 0.0081408 0.00813955 0.00813999 0.00813997 0.00814033 0.00813992 0.00813991 0.00813904 0.00813939 0.00813917 0.00813933 0.00813961 0.0081393 0.00813829 0.00813876 0.00813824 0.00813838 0.00813882 0.00813866 0.00829517 0.00822102 0.00830952 0.00827212 0.00819847 0.008237 0.00822632 0.00817838 0.00824664 0.00821182 0.00816909 0.00819407 0.00819375 0.00815975 0.00820611 0.00818331 0.00815657 0.00817401 0.00818045 0.00815217 0.00818742 0.00817318 0.00815223 0.00816563 0.00817512 0.00814933 0.00817973 0.00816858 0.00815098 0.0081624 0.00817289 0.00814928 0.00817656 0.00816652 0.00815126 0.00816123 0.00817192 0.00815012 0.00817507 0.0081655 0.00815216 0.00816133 0.00817133 0.00815141 0.00817425 0.00816521 0.00815323 0.00816154 0.00817078 0.00815258 0.00817348 0.00816496 0.00815422 0.00816183 0.00817014 0.00815352 0.00817258 0.00816457 0.00815504 0.00816208 0.00816909 0.00815405 0.00817142 0.00816407 0.00815558 0.00816195 0.00816814 0.00815461 0.00817024 0.00816353 0.00815588 0.00816146 0.00816659 0.0081545 0.00816872 0.00816262 0.00815577 0.00816081 0.00816511 0.00815446 0.00816718 0.00816159 0.00815555 0.00815987 0.00816342 0.00815415 0.00816528 0.00816048 0.00815497 0.00815891 0.00816171 0.00815323 0.00816357 0.00815914 0.00815437 0.00815795 0.00816005 0.00815271 0.00816167 0.00815809 0.00815367 0.00815668 0.00815831 0.00815187 0.0081599 0.00815654 0.00815265 0.00815536 0.00815656 0.00815105 0.00815789 0.00815499 0.00815171 0.00815404 0.00815491 0.00815018 0.00815616 0.00815377 0.00815082 0.00815284 0.00815305 0.00814913 0.00815442 0.00815214 0.00814967 0.0081513 0.0081513 0.0081483 0.00815245 0.00815087 0.00814864 0.00814999 0.0081497 0.00814723 0.00815069 0.00814942 0.00814743 0.00814862 0.00814818 0.00814619 0.00814899 0.00814784 0.00814673 0.00814741 0.00814663 0.00814514 0.00814744 0.00814665 0.00814554 0.00814636 0.00814542 0.00814434 0.00814605 0.00814556 0.00814452 0.00814483 0.00814393 0.00814326 0.00814433 0.00814398 0.00814308 0.00814362 0.00814291 0.00814222 0.00814318 0.00814311 0.00814223 0.00814243 0.00814113 0.0081412 0.00814141 0.00814159 0.00814101 0.0081414 0.00814054 0.00814033 0.00814062 0.00814044 0.0081404 0.00814041 0.00813903 0.00813948 0.00813933 0.00813962 0.00813918 0.00813918 0.00813792 0.0081382 0.00813778 0.00813816 0.00813823 0.0081376 0.00841729 0.00833981 0.00846673 0.00842177 0.00832558 0.00836417 0.00830587 0.00825749 0.00834815 0.00831059 0.0082605 0.0082847 0.00825937 0.00822485 0.00827738 0.0082544 0.0082275 0.00824453 0.00824044 0.00821115 0.0082475 0.00823271 0.00821283 0.00822568 0.008231 0.00820444 0.00823478 0.00822263 0.00820545 0.00821627 0.00822449 0.00820033 0.00822775 0.00821658 0.00820102 0.00821062 0.00821932 0.00819705 0.00822252 0.00821185 0.00819811 0.00820659 0.00821488 0.00819428 0.00821785 0.00820799 0.0081952 0.00820305 0.0082101 0.00819172 0.00821329 0.00820419 0.00819256 0.00819977 0.00820569 0.00818898 0.00820884 0.00820046 0.00818976 0.00819649 0.00820128 0.00818631 0.00820419 0.00819675 0.0081868 0.00819297 0.00819681 0.00818334 0.00819968 0.00819278 0.00818392 0.00818933 0.00819254 0.00818025 0.00819513 0.008189 0.00818086 0.00818573 0.00818822 0.00817737 0.00819075 0.00818516 0.00817768 0.00818217 0.00818397 0.00817421 0.00818629 0.00818131 0.00817465 0.00817872 0.00817988 0.00817126 0.00818209 0.00817764 0.00817179 0.00817543 0.00817569 0.00816842 0.00817778 0.00817422 0.00816896 0.00817201 0.00817211 0.00816559 0.00817395 0.0081708 0.008166 0.00816861 0.0081684 0.00816298 0.00817021 0.00816729 0.00816346 0.00816576 0.00816492 0.00816025 0.00816643 0.00816414 0.0081605 0.00816235 0.00816148 0.00815775 0.00816292 0.00816096 0.00815795 0.00815967 0.00815838 0.00815544 0.0081599 0.0081583 0.00815554 0.00815674 0.00815541 0.00815288 0.00815672 0.00815559 0.00815319 0.00815441 0.00815291 0.00815103 0.00815386 0.00815286 0.00815104 0.00815167 0.00815007 0.00814883 0.00815115 0.00815057 0.00814888 0.00814967 0.00814775 0.00814689 0.00814872 0.0081485 0.00814689 0.00814746 0.00814583 0.00814538 0.00814641 0.00814646 0.00814519 0.00814545 0.00814378 0.00814357 0.00814442 0.00814421 0.00814365 0.00814421 0.00814208 0.00814191 0.00814252 0.0081426 0.00814192 0.008142 0.00814036 0.00814067 0.00814087 0.00814128 0.00814044 0.00814061 0.00813901 0.00813943 0.00813921 0.00813975 0.0081389 0.00813897 0.0081376 0.0081379 0.00813749 0.00813791 0.00813722 0.00813735 0.00851281 0.00844338 0.00863522 0.0085722 0.00844227 0.00848033 0.00836412 0.00832368 0.00842373 0.00839641 0.00833691 0.0083629 0.00831628 0.00828366 0.00832956 0.00831663 0.0082891 0.00830706 0.00829702 0.00826728 0.00830082 0.00828788 0.00826865 0.0082818 0.00828503 0.00825734 0.00828782 0.00827447 0.00825774 0.00826837 0.00827504 0.00824969 0.00827807 0.00826524 0.00824986 0.00825903 0.00826609 0.0082429 0.00826932 0.00825748 0.00824309 0.00825139 0.00825744 0.00823651 0.00826083 0.00825005 0.00823663 0.00824414 0.00824915 0.00823022 0.0082525 0.00824273 0.00823009 0.00823731 0.00824104 0.00822401 0.00824444 0.00823562 0.00822381 0.00823036 0.00823302 0.00821768 0.00823625 0.00822856 0.00821779 0.00822346 0.00822548 0.00821168 0.00822853 0.00822162 0.0082116 0.00821696 0.0082181 0.00820558 0.00822093 0.00821477 0.00820579 0.00821038 0.00821092 0.00819996 0.00821356 0.00820816 0.00819975 0.00820428 0.00820405 0.00819425 0.00820665 0.00820183 0.00819448 0.00819818 0.00819758 0.00818912 0.00819989 0.0081957 0.00818913 0.0081925 0.00819129 0.00818405 0.00819354 0.00818991 0.00818399 0.00818698 0.00818536 0.00817889 0.00818753 0.00818446 0.00817907 0.00818171 0.00817989 0.00817453 0.00818211 0.00817941 0.00817448 0.00817662 0.00817472 0.00817034 0.00817652 0.00817453 0.00817042 0.00817211 0.00816985 0.00816616 0.00817153 0.00816992 0.00816605 0.00816758 0.00816514 0.00816244 0.00816669 0.00816567 0.00816222 0.00816351 0.00816109 0.00815887 0.00816232 0.00816148 0.00815855 0.00815971 0.00815719 0.00815537 0.00815832 0.00815762 0.00815512 0.00815613 0.0081535 0.00815242 0.0081548 0.00815426 0.00815202 0.00815277 0.00815036 0.00814952 0.00815119 0.00815095 0.00814929 0.0081498 0.00814746 0.00814695 0.00814809 0.00814825 0.00814691 0.00814703 0.00814489 0.0081446 0.00814544 0.0081457 0.00814459 0.00814478 0.00814272 0.0081428 0.008143 0.00814351 0.00814254 0.00814245 0.00814064 0.00814137 0.00814118 0.00814148 0.00814071 0.00814075 0.00813906 0.00813963 0.00813949 0.00813993 0.00813899 0.00813901 0.00813764 0.0081375 0.00813735 0.00813759 0.00813716 0.00813697 0.00855344 0.0085124 0.00886772 0.00872293 0.008532 0.00858232 0.00839497 0.00837085 0.00838056 0.00844701 0.00838481 0.00841316 0.00836846 0.0083363 0.00836584 0.00836417 0.00834116 0.0083578 0.0083523 0.0083208 0.00835488 0.00833926 0.00832186 0.00833467 0.00833831 0.0083091 0.00834111 0.00832565 0.00830884 0.00831978 0.00832522 0.00829824 0.0083281 0.00831405 0.0082978 0.0083075 0.00831239 0.00828807 0.0083155 0.00830312 0.00828766 0.00829617 0.00829994 0.00827792 0.00830308 0.00829202 0.00827736 0.00828496 0.00828784 0.00826791 0.00829102 0.00828111 0.00826717 0.00827415 0.00827609 0.00825809 0.00827898 0.00827029 0.00825742 0.0082636 0.00826467 0.00824858 0.00826748 0.00825987 0.00824786 0.00825357 0.0082537 0.00823945 0.0082564 0.00824974 0.00823871 0.00824379 0.00824329 0.00823041 0.00824574 0.00824003 0.0082298 0.00823442 0.0082333 0.00822221 0.00823581 0.00823053 0.00822146 0.00822538 0.00822383 0.00821413 0.00822625 0.0082219 0.00821336 0.00821701 0.00821513 0.00820644 0.0082169 0.00821339 0.0082057 0.00820889 0.00820669 0.00819925 0.00820866 0.00820555 0.00819856 0.00820115 0.00819864 0.00819227 0.0082007 0.00819807 0.0081916 0.00819388 0.0081916 0.00818587 0.00819301 0.00819111 0.00818534 0.00818743 0.0081844 0.00817983 0.00818602 0.00818436 0.00817923 0.00818116 0.00817805 0.00817435 0.00817969 0.00817825 0.00817365 0.00817538 0.00817194 0.00816906 0.00817367 0.00817225 0.0081684 0.00816948 0.00816638 0.00816423 0.00816747 0.00816687 0.00816336 0.00816434 0.00816114 0.00815954 0.00816245 0.00816183 0.00815901 0.00815973 0.00815673 0.00815557 0.00815737 0.0081575 0.00815513 0.00815549 0.00815266 0.00815175 0.00815334 0.00815341 0.00815141 0.00815197 0.00814849 0.00814856 0.00814942 0.00814993 0.00814821 0.00814821 0.00814547 0.0081457 0.00814627 0.00814678 0.00814521 0.0081453 0.00814262 0.00814324 0.00814308 0.00814379 0.00814264 0.00814281 0.0081407 0.00814162 0.00814087 0.00814174 0.00814082 0.00814071 0.00813903 0.00813971 0.0081394 0.00813964 0.0081393 0.00813921 0.00813846 0.00813797 0.00813838 0.0081383 0.0081374 0.0081378 0.00774934 0.00767656 0.00757438 0.00730766 0.00766968 0.00765814 0.00785565 0.00786984 0.00782367 0.00787916 0.00782636 0.00782698 0.00789986 0.00789152 0.00790865 0.00792839 0.00786474 0.00787928 0.00791794 0.00790467 0.00792724 0.00793204 0.00789269 0.00790837 0.00793761 0.00792191 0.00794318 0.00793963 0.00791845 0.00793137 0.00795865 0.00794097 0.00796138 0.00795265 0.00794186 0.00795229 0.00797892 0.00795989 0.00797951 0.00796807 0.00796294 0.00797191 0.00799714 0.00797812 0.0079966 0.00798469 0.007982 0.00799028 0.00801339 0.00799565 0.00801229 0.00800085 0.00799951 0.00800708 0.00802858 0.00801179 0.00802677 0.00801643 0.00801549 0.00802253 0.00804193 0.00802669 0.00803991 0.0080307 0.00803018 0.00803665 0.0080539 0.00804035 0.00805212 0.00804387 0.00804338 0.00804921 0.00806472 0.00805279 0.00806297 0.00805583 0.00805548 0.0080606 0.00807459 0.00806409 0.00807286 0.00806668 0.00806664 0.00807109 0.00808357 0.00807417 0.00808186 0.0080763 0.00807641 0.00808038 0.00809149 0.00808322 0.00809015 0.00808507 0.00808534 0.00808853 0.00809874 0.00809137 0.00809731 0.00809308 0.0080933 0.00809636 0.00810503 0.00809898 0.00810381 0.00809994 0.0081005 0.00810305 0.00811058 0.00810533 0.00810944 0.00810644 0.00810711 0.00810912 0.0081156 0.00811144 0.00811461 0.00811192 0.00811282 0.00811463 0.00812013 0.00811692 0.00811932 0.00811698 0.00811783 0.00811931 0.00812428 0.0081213 0.00812336 0.00812143 0.00812246 0.00812349 0.00812777 0.00812527 0.00812711 0.00812537 0.00812614 0.00812729 0.00813074 0.00812868 0.00812994 0.00812879 0.00812967 0.0081303 0.00813306 0.00813161 0.00813254 0.00813141 0.00813253 0.00813309 0.00813521 0.00813428 0.0081346 0.00813388 0.00813471 0.0081352 0.00813665 0.00813601 0.00813616 0.00813546 0.00813694 0.00813691 0.00813774 0.00813762 0.00813764 0.00813726 0.00813799 0.00813829 0.00813888 0.00813845 0.00813866 0.00813833 0.00813926 0.00813919 0.00813933 0.00813896 0.00813884 0.00813846 0.0081392 0.00813923 0.00813913 0.00813928 0.00813908 0.00813889 0.00813903 0.00813893 0.00813863 0.00813856 0.00813867 0.00813848 0.00813837 0.00813835 0.00789863 0.00784614 0.00779771 0.00763666 0.007745 0.00781693 0.00795793 0.00798307 0.00791997 0.00796949 0.00790814 0.00793137 0.00798121 0.00799001 0.00798379 0.00801295 0.00795899 0.00797205 0.00799472 0.00798734 0.00800475 0.00801113 0.00797618 0.00798766 0.00800604 0.00799059 0.00801435 0.00800967 0.00798808 0.00799898 0.00801759 0.00799922 0.00802269 0.00801401 0.00800052 0.00801087 0.00802991 0.00801062 0.00803267 0.00802215 0.00801368 0.00802309 0.00804201 0.0080232 0.00804308 0.00803235 0.0080267 0.00803539 0.00805351 0.00803567 0.00805367 0.0080432 0.00803911 0.008047 0.00806407 0.00804772 0.00806382 0.0080541 0.00805093 0.00805799 0.00807371 0.00805877 0.00807312 0.00806444 0.00806185 0.00806822 0.00808218 0.00806898 0.0080817 0.00807373 0.0080716 0.00807728 0.00809008 0.00807811 0.00808963 0.00808229 0.00808051 0.00808566 0.00809709 0.00808618 0.00809636 0.00808988 0.00808842 0.00809294 0.00810311 0.0080936 0.00810271 0.00809677 0.00809585 0.00809958 0.00810875 0.00810021 0.00810801 0.00810298 0.00810225 0.00810562 0.0081136 0.0081064 0.00811306 0.00810858 0.00810822 0.00811103 0.00811786 0.00811157 0.00811752 0.00811364 0.00811305 0.00811577 0.0081217 0.00811636 0.00812145 0.00811798 0.00811803 0.00811992 0.00812507 0.00812054 0.0081246 0.00812168 0.00812183 0.00812363 0.00812801 0.00812417 0.00812769 0.008125 0.00812559 0.00812694 0.00813039 0.0081275 0.00813026 0.00812814 0.00812848 0.00812978 0.00813252 0.00813041 0.00813246 0.00813073 0.00813135 0.00813215 0.00813436 0.00813279 0.0081343 0.0081329 0.00813352 0.00813404 0.00813604 0.0081344 0.00813563 0.00813465 0.00813527 0.00813576 0.00813719 0.00813635 0.00813706 0.00813616 0.00813689 0.00813739 0.00813814 0.00813756 0.0081379 0.00813727 0.00813807 0.00813824 0.00813874 0.00813851 0.00813848 0.00813815 0.00813897 0.00813873 0.0081392 0.00813902 0.00813885 0.00813863 0.00813941 0.0081393 0.00813911 0.00813912 0.0081392 0.00813904 0.00813947 0.0081392 0.00813894 0.00813904 0.00813904 0.00813892 0.00813928 0.00813915 0.00813874 0.00813898 0.00813884 0.00813884 0.00813896 0.00813913 0.00803218 0.00798012 0.00798858 0.00788932 0.00791375 0.00797179 0.00805387 0.00805171 0.00803538 0.0080503 0.00800095 0.00802225 0.00806021 0.0080561 0.0080637 0.00807444 0.00803547 0.00804503 0.00806388 0.00805262 0.00807302 0.00807197 0.00804514 0.00805372 0.00806844 0.00805262 0.00807629 0.0080694 0.00804995 0.00805926 0.00807422 0.00805603 0.00807965 0.00807041 0.00805578 0.00806565 0.00808072 0.00806202 0.00808406 0.00807428 0.00806304 0.00807245 0.00808775 0.00806965 0.0080895 0.00807987 0.00807078 0.00807987 0.00809448 0.00807742 0.00809546 0.00808615 0.00807889 0.00808706 0.00810072 0.00808496 0.00810133 0.00809274 0.00808657 0.00809407 0.00810656 0.0080921 0.00810686 0.00809891 0.00809364 0.00810027 0.00811164 0.00809855 0.00811186 0.00810461 0.00809998 0.00810604 0.008116 0.00810453 0.00811632 0.00810972 0.00810585 0.00811117 0.00812007 0.00810974 0.00812046 0.00811429 0.00811116 0.00811546 0.00812349 0.0081143 0.00812374 0.00811828 0.00811549 0.00811971 0.00812643 0.00811815 0.00812672 0.00812205 0.00811949 0.00812313 0.00812915 0.00812187 0.00812918 0.00812505 0.00812302 0.00812634 0.0081314 0.00812534 0.00813168 0.008128 0.00812619 0.00812886 0.00813299 0.00812799 0.00813324 0.00813017 0.00812887 0.008131 0.0081351 0.00813044 0.00813507 0.00813221 0.00813132 0.0081333 0.00813613 0.00813253 0.00813648 0.00813389 0.00813333 0.0081349 0.0081375 0.00813422 0.00813779 0.00813545 0.00813488 0.0081363 0.00813808 0.00813599 0.00813857 0.0081367 0.00813629 0.00813741 0.00813899 0.00813714 0.0081389 0.00813765 0.00813756 0.00813819 0.00813956 0.00813793 0.00813951 0.00813846 0.00813847 0.0081394 0.00813978 0.00813875 0.00814024 0.00813903 0.00813915 0.00813961 0.00814007 0.00813902 0.00813993 0.00813919 0.00813945 0.00813997 0.00813999 0.00813948 0.00814022 0.00813946 0.00813988 0.00813973 0.00813985 0.00813945 0.00813961 0.0081397 0.0081399 0.00813989 0.00813957 0.00813933 0.00813961 0.00813953 0.00813941 0.00813961 0.00813907 0.00813945 0.00813906 0.00813906 0.00813926 0.0081392 0.0081387 0.00813917 0.0081384 0.00813887 0.00813931 0.00813902 0.00815598 0.00809496 0.00815708 0.00809875 0.0080612 0.0081053 0.00813721 0.00811527 0.00813787 0.00812384 0.00809038 0.00810733 0.00812989 0.00811389 0.00813631 0.00812961 0.0081037 0.00811221 0.00812673 0.00811005 0.00813457 0.00812667 0.00810614 0.00811409 0.00812632 0.00810859 0.00813292 0.00812385 0.00810667 0.00811538 0.00812774 0.00810945 0.00813249 0.00812309 0.00810806 0.00811728 0.00813007 0.00811168 0.00813326 0.00812391 0.00811095 0.00812019 0.00813261 0.00811502 0.00813485 0.00812577 0.0081147 0.0081234 0.00813507 0.00811861 0.00813679 0.00812822 0.00811845 0.00812654 0.00813744 0.00812211 0.00813877 0.00813065 0.00812225 0.00812938 0.00813945 0.00812549 0.00814063 0.00813293 0.0081256 0.00813236 0.00814094 0.00812847 0.00814223 0.00813513 0.00812884 0.00813473 0.00814238 0.00813103 0.00814348 0.00813707 0.00813145 0.00813677 0.00814346 0.00813338 0.00814448 0.0081386 0.00813357 0.00813834 0.00814417 0.00813511 0.00814499 0.00813986 0.00813545 0.00813968 0.0081447 0.00813663 0.00814547 0.00814076 0.00813713 0.00814073 0.00814502 0.00813797 0.00814582 0.00814157 0.00813835 0.00814153 0.00814514 0.00813921 0.00814586 0.00814229 0.00813943 0.00814226 0.0081452 0.00814015 0.00814583 0.00814257 0.0081405 0.00814269 0.0081452 0.00814052 0.0081455 0.00814289 0.00814095 0.00814301 0.00814488 0.00814098 0.00814556 0.00814274 0.00814149 0.00814334 0.00814444 0.00814142 0.00814508 0.00814284 0.00814176 0.00814298 0.00814412 0.00814164 0.00814467 0.00814299 0.00814195 0.00814283 0.00814359 0.00814173 0.00814378 0.00814289 0.00814216 0.00814285 0.00814316 0.00814172 0.00814322 0.00814254 0.00814187 0.00814253 0.00814254 0.0081416 0.00814277 0.00814191 0.00814183 0.00814234 0.00814182 0.00814127 0.00814215 0.00814161 0.00814153 0.00814159 0.00814126 0.00814081 0.00814118 0.00814111 0.00814105 0.00814106 0.00814063 0.00814047 0.00814062 0.00814051 0.00814071 0.00814042 0.00813969 0.00813991 0.00813991 0.00814009 0.00813999 0.00813982 0.00813922 0.00813967 0.00813917 0.00813945 0.00813924 0.0081394 0.00813834 0.00813884 0.00813837 0.00813885 0.00813876 0.00813813 0.00827065 0.00819486 0.00831224 0.00827838 0.00819033 0.00822433 0.00821192 0.00817636 0.00822934 0.00819085 0.00817206 0.00818709 0.00819205 0.0081682 0.00820209 0.00818264 0.00816616 0.00817579 0.0081843 0.00816372 0.00819114 0.00817886 0.00816233 0.0081711 0.00818073 0.00816085 0.00818575 0.00817555 0.00815952 0.00816851 0.00817879 0.00815954 0.00818287 0.00817304 0.00815798 0.00816691 0.00817742 0.00815894 0.00818065 0.00817135 0.00815739 0.00816596 0.00817615 0.00815863 0.00817878 0.00816985 0.00815745 0.00816554 0.00817505 0.00815858 0.00817707 0.00816884 0.0081576 0.00816525 0.00817357 0.00815845 0.00817545 0.00816767 0.00815746 0.00816459 0.00817195 0.00815844 0.0081739 0.00816665 0.00815761 0.00816397 0.00817031 0.00815793 0.0081722 0.00816537 0.00815724 0.0081632 0.00816849 0.00815739 0.00817015 0.00816401 0.00815702 0.00816225 0.00816676 0.00815648 0.00816827 0.00816257 0.00815639 0.00816106 0.00816469 0.00815588 0.00816621 0.00816118 0.00815581 0.00815978 0.00816289 0.00815511 0.00816418 0.0081597 0.00815508 0.00815857 0.00816099 0.00815401 0.00816226 0.00815806 0.00815396 0.00815708 0.00815931 0.00815284 0.00816028 0.00815666 0.008153 0.00815579 0.00815726 0.00815188 0.00815822 0.00815521 0.00815196 0.00815437 0.00815533 0.00815092 0.00815636 0.00815342 0.0081509 0.00815277 0.00815352 0.00814992 0.0081545 0.00815234 0.00814977 0.00815149 0.00815167 0.00814892 0.00815246 0.00815072 0.00814882 0.00815015 0.00815015 0.0081476 0.00815074 0.0081492 0.00814757 0.00814874 0.00814846 0.00814645 0.00814904 0.0081477 0.00814649 0.00814745 0.00814696 0.00814539 0.00814752 0.00814645 0.00814548 0.0081464 0.0081452 0.00814439 0.00814599 0.00814505 0.00814437 0.00814488 0.0081439 0.00814326 0.00814443 0.00814382 0.00814305 0.00814374 0.00814272 0.00814251 0.00814314 0.00814265 0.00814238 0.00814259 0.00814157 0.00814126 0.00814183 0.00814169 0.0081411 0.00814163 0.00814049 0.00814035 0.00814063 0.0081407 0.00814047 0.00814039 0.00813922 0.00813968 0.00813935 0.00813965 0.00813921 0.00813947 0.00813785 0.00813863 0.00813794 0.00813852 0.00813809 0.00813772 0.00837647 0.00828394 0.00846378 0.00843771 0.00830803 0.0083352 0.00827786 0.00823443 0.00831169 0.00825239 0.00824561 0.00826151 0.00824885 0.00822058 0.00826041 0.00823429 0.00822414 0.00823641 0.00823873 0.00821474 0.00824332 0.00822956 0.00821506 0.00822532 0.00823287 0.00821091 0.00823621 0.00822546 0.00821001 0.0082193 0.00822798 0.00820772 0.00823115 0.00822116 0.00820591 0.00821464 0.0082233 0.00820418 0.00822641 0.00821676 0.00820249 0.00821058 0.00821855 0.00820068 0.00822161 0.00821247 0.00819913 0.00820668 0.00821367 0.00819718 0.00821651 0.00820806 0.00819571 0.00820273 0.00820868 0.00819379 0.00821144 0.00820357 0.00819224 0.00819889 0.00820386 0.00819016 0.00820649 0.00819907 0.00818902 0.00819501 0.00819901 0.00818676 0.00820159 0.0081949 0.00818548 0.00819121 0.00819428 0.00818327 0.00819666 0.00819047 0.00818227 0.00818725 0.00818969 0.00817987 0.0081918 0.00818641 0.00817899 0.00818327 0.00818517 0.00817633 0.00818732 0.00818224 0.00817576 0.0081797 0.00818109 0.00817297 0.00818274 0.00817842 0.0081724 0.00817609 0.00817676 0.00816999 0.0081785 0.00817472 0.00816946 0.00817249 0.00817266 0.008167 0.00817443 0.00817105 0.00816657 0.00816893 0.00816904 0.00816423 0.0081704 0.00816769 0.00816364 0.00816591 0.00816546 0.00816106 0.00816666 0.00816433 0.00816073 0.00816271 0.00816202 0.00815848 0.00816311 0.00816131 0.0081581 0.0081599 0.00815869 0.00815611 0.00816005 0.00815833 0.00815556 0.00815694 0.00815603 0.00815352 0.00815698 0.00815558 0.00815325 0.00815459 0.00815296 0.00815146 0.00815403 0.00815301 0.00815103 0.00815226 0.00815045 0.00814937 0.00815123 0.0081505 0.00814909 0.00814974 0.00814823 0.00814741 0.00814896 0.00814824 0.0081472 0.00814755 0.00814607 0.00814542 0.00814664 0.00814631 0.00814532 0.00814572 0.00814386 0.00814405 0.00814469 0.00814442 0.00814385 0.00814401 0.00814235 0.00814238 0.00814281 0.00814271 0.00814204 0.00814235 0.00814077 0.00814106 0.00814127 0.0081416 0.00814066 0.00814078 0.00813908 0.00813947 0.00813937 0.00813983 0.0081392 0.00813936 0.0081376 0.00813838 0.00813778 0.00813829 0.00813736 0.00813752 0.00846785 0.00836546 0.00862328 0.00858373 0.00841599 0.00844119 0.00833111 0.00829029 0.00837811 0.00830984 0.00831001 0.00832923 0.00830182 0.00827204 0.00830816 0.00828567 0.00827753 0.00829257 0.00829162 0.00826507 0.00829286 0.00827984 0.00826607 0.00827752 0.00828379 0.00825966 0.00828589 0.00827407 0.00825897 0.00826849 0.00827606 0.00825407 0.00827896 0.00826774 0.00825261 0.00826105 0.00826794 0.00824795 0.00827131 0.00826066 0.00824602 0.00825385 0.00825972 0.00824138 0.00826326 0.00825326 0.00823935 0.00824666 0.00825139 0.00823447 0.00825481 0.0082457 0.00823277 0.0082395 0.00824314 0.00822784 0.00824645 0.00823824 0.0082262 0.00823237 0.00823498 0.00822118 0.00823813 0.00823074 0.00821956 0.00822541 0.00822711 0.00821455 0.00823013 0.00822338 0.00821321 0.00821843 0.00821963 0.00820825 0.00822228 0.00821628 0.00820689 0.00821173 0.00821202 0.00820218 0.00821469 0.00820938 0.00820111 0.00820531 0.00820548 0.00819653 0.00820764 0.00820289 0.00819521 0.00819916 0.00819859 0.00819087 0.00820085 0.00819654 0.00818981 0.00819332 0.00819225 0.00818564 0.00819424 0.00819052 0.00818453 0.0081876 0.00818618 0.00818042 0.00818831 0.00818512 0.00817965 0.00818227 0.0081806 0.00817576 0.0081825 0.00817959 0.00817499 0.00817724 0.00817535 0.00817126 0.00817688 0.00817482 0.00817026 0.00817249 0.00817063 0.00816701 0.00817218 0.00817007 0.00816642 0.00816793 0.00816574 0.00816315 0.00816718 0.00816577 0.00816248 0.00816393 0.00816162 0.00815938 0.00816267 0.00816151 0.00815867 0.00816004 0.00815745 0.00815598 0.00815887 0.00815809 0.00815539 0.0081564 0.00815406 0.00815292 0.00815513 0.00815434 0.00815237 0.0081532 0.00815064 0.0081504 0.00815158 0.00815146 0.00814962 0.00815022 0.00814759 0.00814768 0.00814845 0.00814816 0.00814696 0.00814746 0.00814536 0.00814531 0.00814595 0.00814598 0.00814489 0.00814504 0.00814282 0.00814313 0.00814349 0.00814382 0.00814272 0.00814283 0.0081408 0.00814152 0.00814139 0.00814176 0.00814119 0.00814103 0.00813919 0.00813991 0.00813967 0.00814017 0.0081394 0.00813923 0.00813789 0.00813802 0.0081377 0.00813834 0.00813707 0.00813719 0.0085268 0.00844736 0.00882078 0.00871323 0.00850455 0.00854201 0.00836935 0.00834018 0.00835653 0.00836403 0.00835705 0.0083808 0.00835446 0.00832305 0.00835085 0.00833643 0.0083273 0.00834281 0.00834515 0.00831574 0.00834647 0.00833041 0.00831653 0.00832846 0.00833489 0.00830839 0.00833756 0.00832297 0.0083077 0.00831782 0.00832376 0.0082997 0.00832677 0.00831398 0.00829865 0.00830751 0.00831226 0.00829056 0.00831574 0.00830405 0.00828889 0.0082969 0.00830039 0.0082808 0.00830406 0.00829362 0.0082789 0.00828618 0.00828878 0.00827086 0.00829207 0.00828268 0.00826906 0.00827566 0.00827696 0.00826089 0.00828021 0.008272 0.00825909 0.00826509 0.00826562 0.0082512 0.00826879 0.00826141 0.00824932 0.00825475 0.00825481 0.0082416 0.00825772 0.00825109 0.00823992 0.00824494 0.00824431 0.00823266 0.00824691 0.00824126 0.00823104 0.00823548 0.0082344 0.00822403 0.00823692 0.00823175 0.00822245 0.00822634 0.00822486 0.00821576 0.00822711 0.00822261 0.00821429 0.00821783 0.00821589 0.00820793 0.0082181 0.00821399 0.00820662 0.0082096 0.00820739 0.0082004 0.00820944 0.008206 0.00819924 0.00820203 0.00819984 0.00819368 0.0082016 0.00819855 0.00819226 0.00819472 0.0081922 0.00818705 0.00819382 0.00819154 0.00818579 0.00818787 0.00818526 0.00818087 0.00818696 0.00818459 0.00817984 0.00818135 0.00817874 0.00817522 0.00818036 0.00817852 0.00817417 0.00817554 0.00817267 0.00816986 0.00817401 0.00817266 0.0081689 0.00817004 0.00816715 0.00816511 0.00816831 0.00816753 0.00816392 0.00816484 0.00816196 0.00816042 0.00816294 0.0081623 0.00815941 0.00816042 0.00815728 0.00815619 0.0081586 0.00815782 0.0081552 0.00815589 0.00815303 0.00815256 0.00815387 0.00815383 0.00815171 0.00815243 0.00814947 0.00814925 0.00815004 0.00815035 0.00814857 0.00814844 0.00814644 0.00814634 0.00814695 0.00814744 0.00814549 0.00814573 0.00814308 0.0081436 0.00814378 0.00814428 0.00814324 0.00814317 0.00814095 0.00814172 0.0081415 0.00814243 0.00814124 0.00814115 0.00813968 0.0081398 0.00813978 0.00814038 0.00813917 0.00813953 0.00813853 0.00813818 0.00813885 0.00813881 0.00813753 0.00813786 
SCALARS volume_diff float 1
LOOKUP_TABLE default
0.00725259 0.00725172 0.00718789 0.00712355 0.00731224 0.00745257 0.00759186 0.00746324 0.00749862 0.00745811 0.00749858 0.00760034 0.00762402 0.00751877 0.007575 0.007548 0.00754188 0.0076108 0.00762769 0.0075541 0.00759804 0.00757874 0.00756944 0.0076121 0.00763445 0.00758394 0.0076168 0.00760019 0.00759386 0.00761953 0.00764585 0.00760979 0.00763586 0.00762059 0.00761633 0.0076325 0.00765994 0.00763242 0.00765428 0.0076402 0.0076372 0.00764807 0.00767472 0.00765242 0.00767127 0.00765881 0.00765625 0.00766473 0.00768954 0.00767044 0.00768713 0.00767595 0.00767365 0.00768067 0.00770367 0.00768681 0.0077016 0.0076917 0.00768971 0.00769586 0.00771666 0.00770159 0.00771491 0.00770614 0.00770424 0.00770983 0.00772848 0.00771535 0.00772705 0.00771942 0.00771763 0.00772279 0.00773934 0.00772763 0.00773787 0.0077311 0.00772981 0.00773442 0.00774918 0.00773882 0.00774782 0.00774192 0.00774085 0.00774463 0.00775797 0.0077487 0.00775655 0.00775157 0.00775062 0.00775418 0.00776577 0.00775801 0.00776474 0.00776024 0.00775962 0.00776259 0.00777295 0.00776614 0.00777221 0.00776819 0.0077677 0.00777034 0.00777941 0.00777366 0.00777861 0.0077751 0.00777494 0.00777698 0.00778504 0.00778016 0.00778439 0.00778151 0.0077815 0.00778328 0.00779038 0.00778596 0.00778953 0.00778691 0.007787 0.00778867 0.00779457 0.00779121 0.00779416 0.00779207 0.00779234 0.00779356 0.0077988 0.007796 0.00779793 0.00779621 0.00779694 0.00779773 0.00780194 0.00779982 0.00780153 0.00780018 0.00780041 0.00780115 0.00780493 0.00780339 0.00780456 0.00780342 0.0078039 0.00780438 0.00780731 0.00780626 0.00780723 0.00780639 0.00780681 0.00780721 0.00780952 0.00780892 0.00780932 0.00780873 0.00780921 0.00780947 0.00781102 0.00781092 0.00781091 0.0078105 0.00781113 0.007811 0.00781221 0.00781233 0.00781216 0.00781199 0.00781241 0.00781236 0.00781297 0.00781318 0.00781299 0.00781276 0.00781366 0.00781325 0.00781359 0.00781378 0.00781327 0.00781366 0.00781355 0.00781365 0.00781349 0.00781407 0.00781371 0.00781349 0.00781365 0.00781351 0.00781321 0.00781282 0.00781324 0.00781293 0.00781255 0.00781269 0.00747718 0.00743845 0.00743638 0.00742209 0.00744103 0.00757927 0.00767984 0.00756858 0.00760092 0.00757216 0.00759531 0.00768825 0.00770138 0.00762859 0.0076593 0.0076425 0.00763249 0.00769137 0.00769999 0.00764704 0.00767802 0.00766102 0.00764749 0.00768567 0.00770013 0.00765824 0.0076874 0.00767128 0.00766008 0.0076855 0.0077044 0.00767019 0.00769653 0.0076821 0.00767346 0.00769092 0.00771196 0.00768302 0.00770677 0.0076939 0.00768722 0.00769958 0.00772111 0.0076963 0.00771766 0.00770609 0.00770054 0.00771037 0.00773076 0.00770923 0.00772837 0.00771789 0.00771343 0.00772125 0.00774031 0.00772148 0.00773856 0.00772928 0.0077253 0.0077318 0.00774939 0.00773261 0.00774804 0.00773958 0.00773605 0.00774193 0.00775766 0.00774287 0.0077565 0.007749 0.00774594 0.00775116 0.0077651 0.00775203 0.00776419 0.00775745 0.00775513 0.00775945 0.00777198 0.00776052 0.00777118 0.00776531 0.00776299 0.00776689 0.00777795 0.0077679 0.00777718 0.00777203 0.0077704 0.00777375 0.00778323 0.00777452 0.00778285 0.00777834 0.00777679 0.00777951 0.00778826 0.00778084 0.00778773 0.00778369 0.0077826 0.00778504 0.00779255 0.00778585 0.00779216 0.00778858 0.00778767 0.00778964 0.00779637 0.00779092 0.00779589 0.00779294 0.00779233 0.00779376 0.0077997 0.00779509 0.00779962 0.00779674 0.00779639 0.00779736 0.00780247 0.00779879 0.00780229 0.00780029 0.00779994 0.00780071 0.00780506 0.00780217 0.00780502 0.00780319 0.00780294 0.00780389 0.00780705 0.00780466 0.00780708 0.00780552 0.00780577 0.00780632 0.00780877 0.00780725 0.00780901 0.00780779 0.00780794 0.0078083 0.00781047 0.00780923 0.00781015 0.0078095 0.00780986 0.00781 0.00781138 0.00781083 0.00781148 0.00781069 0.00781143 0.00781116 0.00781241 0.00781243 0.00781228 0.0078121 0.00781255 0.00781232 0.00781296 0.00781279 0.0078132 0.00781283 0.00781334 0.00781287 0.00781352 0.0078137 0.00781325 0.00781358 0.0078137 0.00781327 0.00781346 0.00781376 0.00781391 0.00781355 0.0078139 0.00781346 0.00781331 0.00781375 0.0078136 0.00781354 0.00781378 0.0078137 0.00781308 0.00781329 0.00781331 0.00781365 0.00781344 0.00781335 0.00765906 0.00760283 0.00764839 0.00761786 0.00761782 0.00768887 0.0077511 0.0076762 0.00771586 0.00768379 0.00768462 0.00774964 0.00776126 0.00770783 0.00773713 0.00772079 0.0077063 0.00775133 0.00775909 0.00771633 0.00774521 0.00772977 0.00771525 0.00774577 0.00775763 0.00772096 0.00774915 0.00773391 0.00772167 0.00774379 0.00775899 0.00772674 0.00775312 0.00773914 0.00772887 0.00774556 0.00776234 0.00773366 0.00775812 0.00774562 0.00773681 0.00774987 0.00776722 0.0077416 0.00776399 0.00775265 0.00774508 0.00775591 0.00777244 0.00774979 0.00777026 0.00775999 0.00775336 0.00776235 0.00777782 0.00775771 0.00777606 0.00776697 0.00776128 0.00776871 0.00778298 0.00776496 0.00778155 0.00777339 0.00776827 0.00777489 0.00778759 0.00777172 0.0077866 0.00777927 0.00777471 0.00778046 0.00779188 0.00777765 0.00779111 0.0077844 0.00778046 0.00778521 0.00779558 0.00778313 0.00779511 0.00778896 0.00778542 0.00778975 0.00779877 0.00778793 0.00779849 0.0077932 0.00779024 0.00779388 0.00780173 0.00779228 0.00780158 0.00779672 0.00779406 0.00779737 0.0078041 0.00779606 0.00780407 0.00780002 0.00779778 0.00780049 0.00780619 0.00779894 0.00780625 0.00780269 0.00780088 0.007803 0.00780786 0.00780189 0.00780798 0.0078051 0.00780351 0.00780547 0.00780948 0.00780467 0.00780991 0.007807 0.00780587 0.0078072 0.00781118 0.00780674 0.00781108 0.00780889 0.00780774 0.00780905 0.00781195 0.0078087 0.00781213 0.00781033 0.00780947 0.00781039 0.0078128 0.00781005 0.00781294 0.00781157 0.00781114 0.00781133 0.00781363 0.0078114 0.0078134 0.00781247 0.00781213 0.00781233 0.00781387 0.00781235 0.00781401 0.00781329 0.00781295 0.00781322 0.0078141 0.00781338 0.00781424 0.00781394 0.00781387 0.00781381 0.00781421 0.00781366 0.0078142 0.00781399 0.00781399 0.00781428 0.00781428 0.00781398 0.00781451 0.00781398 0.0078144 0.00781382 0.00781395 0.00781398 0.00781426 0.00781424 0.00781409 0.00781394 0.00781375 0.00781402 0.00781394 0.007814 0.00781401 0.00781395 0.00781353 0.00781382 0.00781372 0.00781357 0.00781367 0.00781385 0.00781287 0.00781348 0.00781306 0.00781336 0.0078139 0.00781347 0.00780789 0.00774862 0.00783582 0.00778748 0.0077581 0.00778573 0.00781598 0.00776732 0.00781554 0.00778357 0.00776963 0.00780514 0.00781595 0.00777623 0.00780978 0.00779015 0.00777405 0.00780441 0.00781272 0.00777717 0.00780742 0.00779187 0.00777656 0.00779998 0.00781073 0.00777783 0.00780622 0.00779187 0.00777851 0.0077974 0.00781007 0.00777973 0.00780641 0.00779295 0.0077814 0.00779684 0.00781051 0.00778267 0.00780728 0.00779531 0.00778492 0.00779819 0.0078118 0.00778654 0.00780933 0.00779812 0.00778901 0.00780021 0.00781328 0.00779042 0.00781138 0.00780127 0.00779309 0.00780263 0.00781481 0.00779441 0.00781349 0.00780435 0.00779696 0.00780521 0.00781619 0.00779796 0.00781542 0.00780705 0.0078004 0.00780768 0.00781754 0.00780122 0.00781699 0.0078094 0.00780343 0.00780971 0.00781843 0.00780393 0.00781818 0.00781156 0.00780612 0.00781149 0.00781922 0.0078064 0.00781925 0.00781316 0.0078082 0.00781292 0.00781972 0.00780849 0.00781976 0.00781448 0.00781014 0.00781414 0.00782007 0.00781022 0.00782037 0.00781551 0.00781183 0.00781518 0.00782013 0.00781185 0.00782036 0.0078164 0.00781288 0.00781587 0.00781991 0.00781284 0.00782043 0.00781688 0.00781407 0.00781636 0.00782029 0.00781375 0.00782048 0.00781748 0.00781472 0.00781688 0.00781994 0.00781461 0.00782039 0.00781762 0.00781549 0.0078173 0.00781961 0.00781538 0.00781987 0.00781769 0.00781614 0.00781744 0.00781918 0.00781559 0.00781974 0.00781764 0.00781616 0.00781714 0.00781863 0.00781581 0.00781885 0.00781773 0.00781649 0.0078172 0.0078182 0.00781593 0.00781862 0.00781741 0.00781661 0.0078172 0.00781752 0.00781593 0.00781825 0.00781706 0.0078165 0.00781682 0.00781702 0.00781597 0.00781752 0.00781682 0.00781627 0.00781648 0.00781645 0.00781558 0.00781694 0.00781648 0.00781586 0.0078162 0.00781586 0.00781535 0.00781609 0.00781587 0.00781554 0.00781558 0.00781527 0.0078149 0.00781511 0.00781519 0.00781484 0.00781483 0.00781413 0.0078144 0.00781435 0.00781466 0.00781445 0.00781424 0.00781351 0.00781383 0.00781369 0.00781373 0.00781409 0.00781359 0.00781306 0.007813 0.00781264 0.00781295 0.00781318 0.00781331 0.00793079 0.00787649 0.00800854 0.00794145 0.0078752 0.00787075 0.00787612 0.00784862 0.00790478 0.00787369 0.0078463 0.00785885 0.00786761 0.00783868 0.00787637 0.00785572 0.00783706 0.00785481 0.00786389 0.00783386 0.00786508 0.00784978 0.00783367 0.00785106 0.00786122 0.00783128 0.00785995 0.00784634 0.00783211 0.00784796 0.00785893 0.00783021 0.00785685 0.00784418 0.00783144 0.00784579 0.00785684 0.00782992 0.00785496 0.00784286 0.00783155 0.00784417 0.00785491 0.00783003 0.00785338 0.00784217 0.00783187 0.00784287 0.0078527 0.00783023 0.00785171 0.00784154 0.00783216 0.0078417 0.00785084 0.00783049 0.00785013 0.00784101 0.00783233 0.00784073 0.00784873 0.00783055 0.00784858 0.00784029 0.0078322 0.00783965 0.00784675 0.00783052 0.00784678 0.00783942 0.00783207 0.00783846 0.0078446 0.00783012 0.00784497 0.0078383 0.0078317 0.00783727 0.00784261 0.00782975 0.00784302 0.00783726 0.00783111 0.00783569 0.0078405 0.00782933 0.00784102 0.00783566 0.00783025 0.0078345 0.00783831 0.00782862 0.00783912 0.00783444 0.00782943 0.0078329 0.00783615 0.00782771 0.00783688 0.00783283 0.00782857 0.00783159 0.00783424 0.00782677 0.00783497 0.00783148 0.00782763 0.00783034 0.00783215 0.00782588 0.00783267 0.00782979 0.0078264 0.00782866 0.00783028 0.00782495 0.00783091 0.00782835 0.00782542 0.00782724 0.00782822 0.0078238 0.00782897 0.00782707 0.00782464 0.00782558 0.00782646 0.00782286 0.00782719 0.0078255 0.00782323 0.00782451 0.00782489 0.00782178 0.00782528 0.00782405 0.00782223 0.00782303 0.00782315 0.00782063 0.00782381 0.00782261 0.0078209 0.00782188 0.00782147 0.00781979 0.00782201 0.00782117 0.00781969 0.00782068 0.00781984 0.00781866 0.00782056 0.00781988 0.00781863 0.00781916 0.00781863 0.00781781 0.00781886 0.00781855 0.00781797 0.00781799 0.00781735 0.00781665 0.00781798 0.00781776 0.00781659 0.00781702 0.00781623 0.00781547 0.00781612 0.00781625 0.00781598 0.00781584 0.00781494 0.00781467 0.00781492 0.00781502 0.00781478 0.00781476 0.00781379 0.00781356 0.00781383 0.00781399 0.00781379 0.00781373 0.00781263 0.00781276 0.00781245 0.00781281 0.00781257 0.00781214 0.00803132 0.00799009 0.00817855 0.00808722 0.00797773 0.00794525 0.00793157 0.00792129 0.00798612 0.00795583 0.00791568 0.00791106 0.00791808 0.00789702 0.00793628 0.00791732 0.0078958 0.00790424 0.00791394 0.00788754 0.00791924 0.00790489 0.00788766 0.00790037 0.00791031 0.00788262 0.00791143 0.00789821 0.0078832 0.00789646 0.00790595 0.00787902 0.00790602 0.00789314 0.00787975 0.0078924 0.00790117 0.00787563 0.00790089 0.00788882 0.00787659 0.00788818 0.00789618 0.00787246 0.00789603 0.00788491 0.00787332 0.00788394 0.00789106 0.00786918 0.00789111 0.00788075 0.00787015 0.00787954 0.00788577 0.00786594 0.00788616 0.00787686 0.00786692 0.00787514 0.00788049 0.00786256 0.00788097 0.0078727 0.00786365 0.00787076 0.00787543 0.0078595 0.00787598 0.00786861 0.00786026 0.00786673 0.00787037 0.00785623 0.00787125 0.00786458 0.00785696 0.00786238 0.00786545 0.00785283 0.00786647 0.00786057 0.00785358 0.00785852 0.00786086 0.00784987 0.00786187 0.00785676 0.00785035 0.00785452 0.00785636 0.00784644 0.00785752 0.00785292 0.00784703 0.00785077 0.00785218 0.00784349 0.00785317 0.0078491 0.00784389 0.00784707 0.00784785 0.00784069 0.00784915 0.00784557 0.0078409 0.00784371 0.00784409 0.00783789 0.00784516 0.00784221 0.00783826 0.00784034 0.00784061 0.00783513 0.00784167 0.00783916 0.00783526 0.00783723 0.00783711 0.00783251 0.00783801 0.0078358 0.00783268 0.00783417 0.00783371 0.0078302 0.00783468 0.00783291 0.0078303 0.00783145 0.00783066 0.00782783 0.00783163 0.00783034 0.00782789 0.00782904 0.00782784 0.00782551 0.0078286 0.0078277 0.00782566 0.00782645 0.00782516 0.00782354 0.0078257 0.00782513 0.0078235 0.00782403 0.00782307 0.00782169 0.00782345 0.00782329 0.00782146 0.00782216 0.00782084 0.00781965 0.00782109 0.00782082 0.00781978 0.00781988 0.007819 0.00781819 0.00781912 0.00781907 0.00781797 0.00781849 0.00781699 0.00781659 0.00781739 0.00781733 0.00781673 0.00781643 0.00781518 0.00781527 0.00781556 0.0078158 0.00781507 0.00781531 0.00781391 0.00781385 0.00781421 0.00781412 0.00781369 0.00781403 0.00781214 0.00781235 0.00781215 0.0078125 0.00781206 0.00781197 0.00811353 0.00808762 0.00836292 0.00823189 0.00806801 0.00801097 0.00798407 0.00798379 0.0080506 0.00802941 0.00797758 0.00796265 0.00796991 0.00795158 0.00798714 0.00797465 0.00795105 0.00795419 0.00796473 0.00793981 0.00797073 0.00795787 0.00794005 0.00794924 0.00795881 0.00793261 0.00796198 0.00794845 0.00793294 0.00794383 0.00795215 0.00792643 0.0079541 0.0079408 0.0079267 0.00793767 0.00794451 0.00792002 0.0079462 0.00793358 0.00792043 0.00793079 0.00793628 0.00791371 0.00793775 0.00792632 0.00791395 0.00792326 0.00792807 0.00790709 0.00792943 0.00791892 0.00790734 0.00791613 0.00791954 0.00790042 0.00792097 0.00791158 0.00790069 0.00790844 0.00791128 0.00789411 0.00791284 0.0079044 0.0078942 0.00790111 0.00790308 0.00788776 0.00790474 0.00789723 0.0078878 0.00789388 0.00789541 0.0078814 0.00789694 0.00789022 0.0078816 0.00788693 0.00788784 0.00787562 0.00788944 0.0078836 0.00787554 0.00788036 0.00788074 0.00786984 0.00788227 0.00787705 0.00786991 0.00787401 0.00787393 0.00786451 0.00787557 0.00787123 0.00786435 0.00786804 0.00786754 0.00785928 0.00786911 0.00786527 0.0078591 0.0078622 0.00786155 0.00785427 0.00786288 0.0078595 0.00785419 0.00785694 0.00785581 0.00784953 0.0078571 0.00785436 0.00784938 0.00785183 0.00785049 0.00784516 0.00785157 0.00784947 0.00784493 0.00784709 0.00784523 0.00784078 0.00784658 0.0078447 0.0078407 0.00784234 0.00784078 0.0078372 0.00784172 0.00784036 0.00783711 0.0078384 0.00783641 0.00783357 0.0078373 0.00783635 0.00783338 0.00783462 0.00783275 0.00783002 0.00783331 0.00783242 0.00783004 0.00783091 0.00782872 0.00782692 0.00782948 0.00782903 0.007827 0.00782776 0.0078255 0.00782421 0.00782645 0.0078259 0.00782414 0.0078246 0.00782266 0.00782179 0.00782321 0.00782284 0.00782154 0.00782188 0.00781995 0.00781928 0.00782033 0.00782045 0.0078192 0.00781986 0.00781768 0.00781732 0.00781789 0.00781811 0.00781737 0.00781772 0.00781554 0.00781565 0.00781589 0.00781627 0.00781529 0.00781578 0.00781392 0.00781424 0.00781413 0.00781433 0.00781387 0.00781406 0.00781238 0.00781258 0.00781197 0.00781264 0.00781173 0.00781196 0.00813018 0.00815016 0.00855275 0.0083888 0.00812944 0.00807496 0.00804041 0.00803285 0.00804244 0.00808214 0.00802649 0.0080154 0.00802608 0.00800377 0.00802977 0.00802396 0.00800309 0.00800574 0.00801778 0.00799198 0.00802191 0.00800872 0.00799173 0.00799946 0.0080089 0.00798251 0.00801236 0.00799838 0.00798233 0.00799168 0.00799869 0.0079733 0.00800179 0.00798831 0.00797305 0.00798257 0.00798759 0.00796391 0.00799045 0.00797788 0.00796344 0.00797251 0.00797602 0.00795401 0.00797877 0.00796732 0.00795335 0.00796214 0.00796425 0.00794415 0.00796674 0.00795651 0.00794349 0.00795142 0.00795267 0.00793422 0.00795495 0.00794589 0.00793364 0.00794081 0.00794122 0.00792468 0.00794351 0.0079354 0.00792393 0.00793033 0.00793027 0.00791514 0.00793222 0.00792506 0.00791449 0.00792036 0.00791966 0.00790644 0.00792143 0.00791532 0.00790551 0.00791064 0.00790991 0.0078977 0.00791155 0.00790588 0.00789697 0.00790164 0.00790035 0.00788952 0.00790185 0.00789696 0.00788885 0.00789302 0.00789129 0.00788177 0.00789269 0.00788847 0.00788101 0.0078847 0.00788274 0.00787445 0.00788427 0.00788068 0.00787373 0.00787678 0.00787471 0.00786729 0.00787603 0.00787283 0.00786677 0.00786964 0.00786725 0.00786096 0.00786847 0.00786582 0.0078604 0.00786281 0.00786022 0.00785469 0.00786127 0.00785923 0.00785437 0.00785656 0.00785354 0.00784942 0.00785465 0.00785316 0.00784875 0.0078506 0.00784763 0.00784401 0.00784874 0.0078474 0.00784334 0.00784477 0.0078422 0.00783895 0.00784287 0.00784188 0.00783844 0.00783983 0.00783716 0.00783444 0.00783742 0.00783687 0.00783413 0.00783504 0.00783244 0.00783028 0.00783266 0.00783253 0.00782994 0.00783078 0.00782789 0.00782677 0.00782822 0.00782847 0.0078261 0.00782677 0.0078245 0.00782332 0.00782425 0.00782476 0.00782317 0.00782352 0.00782116 0.00782049 0.00782132 0.00782177 0.00782006 0.00782064 0.00781808 0.00781787 0.00781812 0.00781856 0.00781738 0.00781812 0.0078156 0.00781609 0.00781563 0.00781632 0.0078155 0.00781584 0.00781418 0.00781429 0.007814 0.00781438 0.00781375 0.00781417 0.00781316 0.00781292 0.00781306 0.00781316 0.00781233 0.0078126 0.007385 0.00718689 0.00725292 0.00710627 0.00732939 0.007282 0.00747931 0.00742805 0.00744256 0.00738571 0.0074378 0.00746087 0.00753899 0.00747268 0.00752219 0.00748073 0.00748635 0.00752825 0.00757521 0.00751725 0.00755846 0.00753483 0.00753229 0.00756847 0.00760457 0.00756046 0.00759069 0.00757484 0.00757274 0.00759877 0.00763026 0.00759708 0.00762026 0.00760709 0.00760591 0.00762394 0.00765242 0.00762646 0.00764569 0.00763384 0.00763282 0.00764589 0.00767165 0.00765046 0.00766719 0.0076565 0.00765519 0.00766534 0.0076883 0.00767031 0.00768545 0.0076758 0.00767418 0.0076826 0.00770303 0.00768768 0.00770119 0.00769247 0.0076909 0.00769814 0.00771651 0.00770299 0.00771498 0.00770731 0.00770565 0.007712 0.00772872 0.00771652 0.00772729 0.0077204 0.00771902 0.00772482 0.00773932 0.00772893 0.0077385 0.00773229 0.00773112 0.00773603 0.00774901 0.00774007 0.00774828 0.00774283 0.00774207 0.00774619 0.00775792 0.00775016 0.00775726 0.00775254 0.00775182 0.00775557 0.00776611 0.00775908 0.00776542 0.00776108 0.0077607 0.00776392 0.00777315 0.00776705 0.00777267 0.00776898 0.00776879 0.00777128 0.00777952 0.00777449 0.00777897 0.00777582 0.00777592 0.00777836 0.00778533 0.00778095 0.00778487 0.00778193 0.00778245 0.00778436 0.00779018 0.00778694 0.00779004 0.00778774 0.00778802 0.00778946 0.00779476 0.00779223 0.00779466 0.00779256 0.0077931 0.00779441 0.00779874 0.00779668 0.00779859 0.00779721 0.00779749 0.00779842 0.00780211 0.00780072 0.00780213 0.00780083 0.00780153 0.0078022 0.00780503 0.00780426 0.00780518 0.00780401 0.00780467 0.00780532 0.00780748 0.00780702 0.00780776 0.00780682 0.00780759 0.00780793 0.00780958 0.00780962 0.00780972 0.00780908 0.00780995 0.00780994 0.00781132 0.00781133 0.00781125 0.00781096 0.00781174 0.00781175 0.00781244 0.00781278 0.00781284 0.00781228 0.00781322 0.00781306 0.00781316 0.00781361 0.00781347 0.00781335 0.00781393 0.00781329 0.00781367 0.00781435 0.0078135 0.00781393 0.00781428 0.00781409 0.00781349 0.00781408 0.00781367 0.00781346 0.00781357 0.00781358 0.00781321 0.00781313 0.00781335 0.00781306 0.00781252 0.00781313 0.0075425 0.0074494 0.00748459 0.00743098 0.00740725 0.00746838 0.00759695 0.0075224 0.00755604 0.00752367 0.00753482 0.00757872 0.00763237 0.00756961 0.00761159 0.00758466 0.00758819 0.00762229 0.00765895 0.00760636 0.0076445 0.00762261 0.00761884 0.00764658 0.007676 0.00763371 0.00766539 0.00764852 0.00764224 0.00766458 0.00769007 0.00765626 0.00768254 0.00766912 0.00766314 0.00768069 0.0077033 0.00767578 0.00769823 0.00768684 0.00768161 0.00769546 0.00771577 0.00769266 0.00771271 0.00770249 0.00769781 0.007709 0.00772743 0.00770759 0.00772543 0.00771629 0.00771206 0.00772129 0.0077381 0.00772083 0.00773689 0.00772853 0.00772495 0.00773267 0.00774779 0.00773242 0.00774708 0.00773936 0.00773627 0.00774287 0.00775639 0.0077427 0.00775599 0.00774906 0.0077465 0.00775215 0.0077642 0.00775213 0.0077639 0.00775771 0.00775544 0.00776028 0.00777106 0.00776064 0.00777097 0.00776537 0.00776357 0.0077678 0.00777715 0.00776799 0.00777719 0.00777221 0.00777079 0.00777457 0.00778287 0.00777478 0.00778317 0.00777847 0.0077773 0.00778023 0.00778783 0.00778067 0.00778801 0.00778408 0.00778315 0.00778569 0.00779226 0.0077863 0.00779234 0.00778915 0.0077882 0.0077905 0.00779612 0.00779098 0.00779627 0.00779319 0.007793 0.00779484 0.00779942 0.00779515 0.00779982 0.00779697 0.00779692 0.00779847 0.0078025 0.00779892 0.0078027 0.00780063 0.00780058 0.00780168 0.00780494 0.00780209 0.00780551 0.00780356 0.00780372 0.0078045 0.00780732 0.00780508 0.00780736 0.00780583 0.00780615 0.00780691 0.00780897 0.00780738 0.00780932 0.00780793 0.00780839 0.00780906 0.00781058 0.00780955 0.00781097 0.00781002 0.00781022 0.00781026 0.0078117 0.00781076 0.00781189 0.00781129 0.00781188 0.00781227 0.0078128 0.00781225 0.00781297 0.0078123 0.00781292 0.00781289 0.00781323 0.00781324 0.00781365 0.00781312 0.00781371 0.00781332 0.00781335 0.00781381 0.00781374 0.00781363 0.00781411 0.00781376 0.00781365 0.00781405 0.00781406 0.00781369 0.00781402 0.00781391 0.00781347 0.00781387 0.00781369 0.00781342 0.00781405 0.00781402 0.00781333 0.00781348 0.00781359 0.00781329 0.00781368 0.00781362 0.00768952 0.00761093 0.0076684 0.0076249 0.00758553 0.00763267 0.00770918 0.00764083 0.00769193 0.00765481 0.00764266 0.0076804 0.00772068 0.00766542 0.00770846 0.00768281 0.00767388 0.00770435 0.0077315 0.00768584 0.00772211 0.00770204 0.00769225 0.00771729 0.00773953 0.00770147 0.00773221 0.00771617 0.00770635 0.00772667 0.00774664 0.00771458 0.00774108 0.00772804 0.00771884 0.00773555 0.00775368 0.00772633 0.00774987 0.00773865 0.00773047 0.00774432 0.00776074 0.00773697 0.00775831 0.00774826 0.00774119 0.00775272 0.00776779 0.00774684 0.00776614 0.0077571 0.00775097 0.0077606 0.00777409 0.00775555 0.00777342 0.007765 0.00775952 0.00776779 0.00778005 0.00776355 0.00777966 0.00777202 0.00776721 0.00777424 0.00778523 0.00777058 0.00778536 0.0077783 0.00777411 0.00778018 0.00778983 0.00777701 0.00779009 0.00778384 0.00778017 0.00778533 0.00779378 0.00778237 0.00779427 0.0077886 0.00778532 0.0077899 0.0077976 0.0077874 0.00779786 0.00779269 0.00779008 0.00779401 0.00780059 0.00779191 0.00780109 0.00779661 0.00779425 0.00779763 0.00780316 0.00779554 0.00780372 0.00779971 0.00779779 0.00780079 0.00780561 0.00779884 0.00780619 0.00780259 0.00780106 0.00780334 0.00780742 0.00780209 0.00780803 0.0078052 0.00780385 0.00780576 0.00780921 0.00780453 0.00780991 0.00780719 0.00780612 0.00780781 0.00781055 0.0078067 0.00781102 0.00780891 0.00780814 0.00780932 0.00781167 0.00780855 0.00781213 0.00781038 0.00781001 0.00781084 0.00781252 0.00781016 0.00781308 0.0078117 0.00781146 0.00781181 0.00781317 0.00781146 0.00781363 0.00781273 0.00781262 0.00781311 0.00781382 0.00781246 0.00781455 0.00781335 0.00781327 0.00781366 0.00781408 0.00781322 0.00781436 0.00781371 0.00781391 0.00781429 0.00781434 0.00781384 0.00781511 0.00781437 0.00781417 0.00781471 0.00781433 0.00781412 0.00781467 0.00781428 0.0078145 0.00781451 0.00781387 0.00781414 0.00781451 0.00781435 0.00781436 0.0078144 0.00781387 0.00781425 0.00781399 0.00781389 0.00781425 0.00781413 0.00781349 0.0078138 0.00781388 0.00781372 0.00781394 0.00781363 0.00781314 0.00781352 0.00781332 0.00781345 0.00781383 0.0078137 0.00782766 0.00775744 0.00783315 0.00779062 0.00773942 0.007777 0.00780759 0.00775141 0.00781282 0.00777692 0.00774948 0.00777561 0.00779877 0.00775318 0.00779923 0.00777328 0.00775554 0.00777913 0.00779713 0.00775831 0.00779478 0.00777584 0.00776093 0.00778207 0.00779798 0.00776416 0.00779477 0.00777994 0.00776655 0.00778479 0.00779993 0.00776983 0.00779687 0.00778436 0.00777271 0.00778823 0.00780262 0.00777571 0.00780013 0.00778886 0.00777864 0.00779178 0.00780522 0.0077812 0.00780366 0.00779346 0.0077845 0.00779573 0.00780793 0.00778644 0.00780701 0.00779792 0.00778978 0.00779951 0.00781045 0.00779132 0.00781022 0.00780163 0.00779455 0.00780308 0.00781268 0.00779557 0.00781278 0.00780505 0.0077987 0.00780606 0.00781423 0.00779941 0.007815 0.00780784 0.00780217 0.00780852 0.007816 0.00780254 0.00781661 0.00781024 0.00780506 0.00781068 0.00781708 0.00780533 0.00781792 0.0078121 0.00780763 0.00781238 0.0078179 0.00780735 0.00781876 0.00781363 0.00780991 0.00781392 0.00781858 0.00780943 0.00781943 0.00781503 0.00781155 0.00781491 0.00781891 0.00781125 0.00781992 0.00781603 0.00781312 0.00781604 0.00781909 0.00781244 0.00782006 0.00781662 0.00781412 0.00781664 0.00781922 0.00781355 0.00782021 0.00781692 0.00781503 0.00781713 0.00781927 0.00781422 0.00782027 0.00781749 0.00781563 0.00781743 0.0078189 0.00781494 0.00781965 0.00781757 0.00781619 0.00781763 0.00781863 0.00781547 0.0078196 0.00781782 0.00781634 0.00781762 0.00781846 0.0078156 0.00781912 0.0078174 0.00781653 0.00781762 0.00781791 0.00781591 0.00781867 0.00781754 0.00781663 0.00781755 0.00781751 0.00781599 0.00781814 0.0078172 0.00781656 0.00781705 0.00781691 0.00781572 0.00781773 0.00781692 0.00781644 0.00781665 0.00781609 0.00781566 0.00781683 0.00781633 0.00781601 0.0078163 0.00781566 0.00781513 0.00781618 0.0078158 0.00781537 0.0078157 0.00781487 0.00781491 0.00781521 0.00781512 0.00781481 0.00781516 0.00781433 0.00781434 0.00781455 0.00781462 0.00781449 0.00781444 0.00781345 0.00781383 0.00781354 0.00781406 0.00781411 0.00781403 0.00781285 0.00781336 0.00781274 0.00781303 0.0078136 0.00781303 0.00795606 0.00789291 0.00799052 0.00794261 0.00787807 0.00790848 0.00789528 0.00785187 0.00792271 0.00788881 0.00784698 0.00786332 0.00786845 0.00783225 0.00788103 0.00785728 0.00783155 0.00784819 0.00785771 0.00782479 0.00786158 0.00784473 0.00782533 0.00784244 0.00785329 0.00782281 0.00785353 0.00783981 0.00782386 0.00783979 0.00785121 0.00782298 0.00785035 0.00783815 0.00782454 0.00783861 0.0078498 0.0078238 0.00784903 0.00783763 0.0078259 0.00783815 0.00784873 0.00782504 0.00784822 0.00783759 0.00782724 0.00783806 0.00784752 0.0078261 0.00784754 0.00783786 0.00782854 0.00783797 0.00784632 0.00782722 0.0078469 0.00783801 0.0078296 0.00783771 0.00784506 0.00782783 0.00784576 0.00783791 0.00783017 0.00783741 0.00784364 0.00782823 0.00784467 0.00783757 0.00783031 0.00783691 0.00784211 0.00782839 0.00784312 0.00783685 0.00783051 0.007836 0.00784055 0.00782816 0.00784169 0.00783592 0.00783007 0.00783494 0.00783854 0.00782792 0.00784003 0.00783474 0.00782974 0.00783393 0.00783688 0.00782742 0.00783807 0.00783357 0.00782898 0.00783282 0.00783495 0.00782684 0.00783638 0.00783241 0.00782815 0.00783148 0.00783289 0.00782614 0.00783438 0.00783073 0.00782736 0.00782979 0.00783103 0.00782526 0.0078324 0.00782951 0.00782644 0.00782884 0.00782928 0.00782449 0.00783059 0.00782798 0.00782544 0.00782716 0.00782754 0.00782344 0.00782874 0.0078268 0.00782428 0.00782609 0.00782594 0.00782258 0.00782702 0.00782532 0.00782341 0.00782461 0.00782428 0.00782151 0.00782522 0.00782389 0.0078222 0.00782345 0.00782261 0.00782035 0.0078235 0.00782254 0.00782113 0.00782186 0.00782089 0.00781945 0.00782176 0.00782133 0.00782016 0.00782058 0.00781953 0.00781864 0.00782036 0.00781987 0.00781901 0.00781941 0.00781845 0.0078176 0.00781869 0.00781846 0.00781774 0.00781812 0.00781712 0.00781655 0.00781751 0.00781745 0.0078169 0.00781698 0.00781591 0.00781559 0.00781622 0.00781631 0.00781588 0.00781584 0.00781453 0.00781489 0.00781493 0.007815 0.00781485 0.00781485 0.00781369 0.00781354 0.00781376 0.00781372 0.00781384 0.00781363 0.00781233 0.0078128 0.0078123 0.00781275 0.00781275 0.00781224 0.00807363 0.00801781 0.00815061 0.00808852 0.00800708 0.00803096 0.00797068 0.00794081 0.00802092 0.00799016 0.00793365 0.00794357 0.00793061 0.00790291 0.00795127 0.00793385 0.00790006 0.00791256 0.00791457 0.00788622 0.00792173 0.0079086 0.00788552 0.00789942 0.00790646 0.0078784 0.00790895 0.00789657 0.00787874 0.00789214 0.00790087 0.00787399 0.00790193 0.00788964 0.00787484 0.00788708 0.00789589 0.00787075 0.00789664 0.00788482 0.00787187 0.00788316 0.00789112 0.00786805 0.00789202 0.00788103 0.00786953 0.00787929 0.00788652 0.00786534 0.00788758 0.00787734 0.00786686 0.00787588 0.00788185 0.00786269 0.00788308 0.00787393 0.00786436 0.00787224 0.00787707 0.00786 0.00787844 0.00787036 0.0078615 0.0078685 0.00787246 0.00785716 0.00787412 0.00786665 0.00785856 0.00786478 0.00786795 0.00785417 0.00786955 0.00786305 0.00785558 0.00786104 0.00786345 0.00785114 0.00786497 0.00785937 0.00785256 0.00785734 0.00785903 0.00784829 0.00786065 0.00785572 0.00784949 0.00785382 0.00785479 0.00784539 0.00785657 0.00785207 0.00784657 0.00785024 0.0078508 0.0078426 0.00785247 0.00784845 0.00784354 0.00784676 0.00784684 0.00783991 0.00784838 0.00784527 0.00784073 0.00784345 0.00784346 0.00783713 0.00784472 0.00784176 0.00783786 0.00784026 0.00783962 0.00783449 0.00784099 0.00783871 0.00783516 0.00783719 0.00783612 0.00783222 0.00783756 0.00783553 0.00783252 0.00783425 0.00783303 0.00782957 0.00783421 0.00783257 0.00783014 0.0078315 0.00783003 0.00782731 0.00783148 0.00783013 0.00782767 0.00782903 0.00782753 0.00782512 0.00782839 0.00782739 0.00782545 0.00782643 0.00782479 0.00782323 0.00782545 0.00782521 0.0078235 0.00782414 0.00782245 0.00782134 0.00782304 0.00782267 0.00782132 0.00782219 0.00782022 0.00781945 0.00782085 0.00782067 0.00781959 0.00782029 0.00781845 0.00781798 0.00781894 0.007819 0.00781805 0.00781818 0.00781669 0.00781654 0.00781691 0.00781739 0.00781635 0.0078167 0.00781525 0.00781526 0.00781542 0.00781566 0.00781534 0.00781529 0.00781368 0.00781372 0.00781362 0.00781404 0.00781361 0.00781369 0.00781186 0.00781233 0.00781181 0.00781253 0.00781176 0.00781189 0.00816734 0.00812544 0.00831945 0.00823202 0.0081252 0.00814432 0.00802762 0.00801319 0.0080928 0.00807651 0.00800551 0.00801417 0.0079861 0.00796499 0.00800329 0.00799995 0.00796059 0.00797156 0.00796905 0.0079436 0.00797559 0.00796705 0.00794185 0.00795337 0.00795852 0.00793192 0.00796239 0.00795043 0.00793148 0.0079426 0.00794975 0.00792375 0.00795256 0.00793961 0.00792394 0.00793448 0.00794136 0.00791686 0.00794381 0.00793108 0.00791729 0.00792701 0.00793308 0.00791027 0.00793522 0.0079235 0.00791101 0.00791983 0.00792484 0.00790399 0.00792693 0.00791632 0.00790463 0.00791276 0.00791669 0.00789772 0.00791882 0.00790931 0.00789841 0.00790574 0.00790854 0.00789161 0.00791073 0.00790228 0.00789226 0.00789902 0.00790082 0.00788562 0.00790295 0.00789544 0.00788606 0.00789224 0.00789326 0.00787969 0.00789545 0.00788877 0.0078803 0.00788558 0.00788598 0.007874 0.007888 0.00788248 0.00787464 0.00787916 0.00787906 0.0078685 0.00788103 0.00787606 0.00786882 0.00787327 0.00787258 0.00786342 0.00787463 0.00787006 0.00786375 0.0078674 0.00786611 0.0078582 0.00786818 0.00786436 0.00785844 0.00786178 0.00786046 0.00785343 0.00786212 0.00785889 0.00785369 0.0078564 0.00785486 0.00784869 0.00785633 0.00785378 0.00784904 0.00785152 0.00784966 0.00784442 0.0078512 0.00784892 0.00784442 0.00784673 0.00784464 0.00784061 0.00784589 0.00784415 0.00784057 0.00784251 0.00783988 0.00783649 0.00784125 0.00783988 0.00783665 0.00783826 0.00783562 0.00783289 0.00783675 0.00783597 0.00783288 0.00783431 0.00783171 0.00782958 0.00783272 0.00783222 0.00782965 0.00783082 0.00782813 0.00782652 0.00782902 0.00782867 0.00782656 0.0078275 0.00782494 0.00782387 0.00782567 0.00782551 0.00782347 0.00782457 0.00782208 0.00782122 0.00782255 0.00782289 0.00782124 0.00782191 0.00781948 0.00781891 0.00782002 0.00782026 0.00781906 0.00781958 0.00781714 0.00781722 0.0078173 0.00781783 0.00781686 0.00781743 0.00781542 0.00781555 0.00781553 0.00781601 0.00781529 0.00781529 0.00781387 0.00781389 0.00781395 0.00781439 0.00781326 0.00781365 0.00781207 0.00781235 0.00781178 0.0078125 0.00781162 0.00781182 0.0082152 0.00819124 0.00854472 0.00838936 0.00821169 0.00824818 0.00805872 0.00806169 0.00804886 0.00812578 0.00805166 0.00806421 0.00803819 0.00801915 0.00804083 0.00804835 0.00801324 0.00802264 0.00802388 0.00799844 0.00802909 0.00801947 0.00799578 0.00800505 0.00801126 0.00798452 0.0080155 0.00800231 0.00798327 0.00799276 0.00799892 0.00797315 0.00800263 0.00798917 0.00797245 0.00798167 0.00798702 0.00796252 0.00798993 0.0079773 0.00796202 0.00797066 0.00797483 0.00795213 0.00797758 0.00796602 0.00795194 0.00795986 0.00796284 0.00794212 0.0079654 0.00795487 0.00794185 0.00794929 0.00795097 0.00793237 0.00795338 0.00794438 0.00793202 0.00793878 0.00793974 0.00792284 0.00794197 0.00793389 0.00792247 0.00792872 0.00792869 0.00791363 0.00793072 0.00792393 0.00791327 0.00791868 0.00791828 0.00790472 0.00792014 0.00791402 0.00790433 0.00790955 0.00790827 0.00789622 0.00791016 0.00790481 0.00789591 0.0079005 0.00789891 0.00788838 0.00790044 0.00789613 0.00788781 0.00789199 0.00789003 0.00788071 0.00789142 0.00788757 0.00788013 0.00788389 0.00788164 0.0078734 0.00788295 0.00787968 0.00787294 0.00787639 0.00787362 0.00786659 0.00787503 0.00787225 0.007866 0.00786891 0.00786634 0.00786019 0.00786726 0.00786536 0.00785969 0.00786236 0.00785929 0.0078541 0.0078606 0.00785874 0.00785372 0.00785603 0.00785267 0.00784838 0.00785373 0.00785248 0.00784811 0.00784984 0.00784679 0.00784321 0.0078479 0.00784677 0.00784279 0.00784437 0.00784094 0.00783836 0.0078418 0.0078414 0.00783789 0.0078393 0.007836 0.007834 0.00783678 0.0078364 0.00783336 0.00783447 0.00783124 0.00782971 0.00783173 0.00783181 0.00782944 0.00783055 0.00782699 0.00782615 0.00782763 0.00782791 0.00782588 0.00782653 0.00782335 0.00782263 0.00782381 0.00782398 0.00782247 0.00782308 0.00781996 0.00782014 0.00782029 0.00782086 0.00781957 0.0078204 0.00781729 0.00781763 0.00781767 0.0078182 0.00781704 0.00781743 0.00781511 0.0078157 0.00781525 0.00781599 0.00781537 0.00781552 0.00781379 0.00781423 0.0078138 0.00781419 0.00781365 0.00781381 0.00781286 0.00781263 0.00781303 0.00781302 0.00781244 0.00781245 0.00735022 0.00712613 0.00723316 0.00707188 0.00728902 0.00724845 0.00744695 0.00740579 0.00740503 0.00735847 0.0074157 0.00741282 0.00751049 0.00745433 0.0074989 0.00745361 0.007463 0.00748726 0.00754932 0.00749911 0.00754082 0.00751202 0.00751138 0.00753964 0.00758587 0.00754613 0.00757688 0.00755839 0.00755768 0.00758079 0.00761841 0.00758746 0.00761077 0.0075971 0.00759692 0.00761411 0.00764589 0.00762103 0.00763995 0.0076285 0.0076282 0.00764121 0.00766837 0.00764776 0.00766412 0.00765385 0.00765312 0.00766364 0.00768701 0.00766947 0.00768398 0.00767484 0.00767368 0.0076823 0.00770303 0.00768775 0.0077006 0.00769257 0.00769121 0.00769871 0.0077168 0.00770348 0.00771518 0.00770767 0.00770662 0.00771298 0.00772917 0.00771719 0.00772779 0.00772108 0.00771995 0.00772561 0.00774002 0.00772963 0.00773892 0.00773287 0.00773199 0.00773695 0.00774991 0.00774082 0.00774892 0.00774361 0.00774279 0.00774721 0.00775874 0.00775067 0.00775794 0.00775305 0.00775266 0.00775619 0.00776664 0.00775951 0.00776612 0.00776173 0.0077616 0.00776485 0.00777387 0.00776789 0.00777329 0.00776925 0.00776945 0.00777204 0.00778021 0.00777518 0.00777955 0.00777642 0.0077765 0.00777867 0.00778579 0.00778166 0.00778532 0.00778276 0.00778297 0.0077847 0.00779092 0.00778722 0.0077907 0.00778808 0.00778885 0.00779015 0.00779533 0.00779269 0.00779521 0.00779312 0.0077936 0.00779489 0.00779934 0.00779734 0.00779884 0.0077974 0.0077979 0.00779891 0.00780269 0.00780117 0.00780253 0.00780119 0.0078023 0.00780278 0.00780562 0.00780468 0.00780544 0.00780446 0.00780539 0.00780557 0.00780814 0.0078077 0.00780781 0.0078071 0.00780816 0.00780845 0.00781005 0.00780992 0.00781026 0.00780964 0.00781034 0.0078105 0.00781174 0.00781181 0.00781177 0.00781134 0.00781238 0.00781202 0.00781291 0.00781348 0.00781286 0.00781287 0.00781373 0.00781341 0.0078133 0.00781415 0.00781378 0.00781344 0.00781399 0.00781403 0.00781384 0.00781475 0.00781429 0.00781382 0.00781458 0.00781382 0.00781366 0.00781413 0.0078138 0.00781398 0.00781443 0.00781387 0.00781314 0.00781322 0.00781349 0.0078133 0.00781253 0.00781287 0.00753281 0.00742716 0.00747677 0.0074167 0.00739154 0.00744748 0.00756994 0.00750338 0.00752855 0.0075029 0.00750314 0.00753781 0.00760396 0.00754989 0.00758777 0.00756369 0.00756389 0.00758967 0.00763419 0.00758821 0.0076264 0.00760488 0.00760151 0.00762353 0.00765843 0.00761978 0.0076527 0.00763552 0.00763072 0.00764992 0.00767882 0.007647 0.00767396 0.00766062 0.00765584 0.00767203 0.00769637 0.00766997 0.00769256 0.00768174 0.0076773 0.00769056 0.00771184 0.00768937 0.00770913 0.00769953 0.00769549 0.00770653 0.00772511 0.00770584 0.00772347 0.00771477 0.00771106 0.00772019 0.00773675 0.00771975 0.00773576 0.00772774 0.00772453 0.00773226 0.00774697 0.00773214 0.00774627 0.00773902 0.00773616 0.00774281 0.00775593 0.00774275 0.00775564 0.00774879 0.00774651 0.00775227 0.00776392 0.00775222 0.00776392 0.00775763 0.00775572 0.00776051 0.00777109 0.00776074 0.00777106 0.00776542 0.00776377 0.00776799 0.00777729 0.00776823 0.00777742 0.00777245 0.0077711 0.00777475 0.00778285 0.00777512 0.00778308 0.00777863 0.00777758 0.00778078 0.00778791 0.00778109 0.00778824 0.00778415 0.00778351 0.00778603 0.00779221 0.0077864 0.00779257 0.00778912 0.00778884 0.0077908 0.00779601 0.00779113 0.00779648 0.00779342 0.00779338 0.00779522 0.00779977 0.00779559 0.00779992 0.00779742 0.00779732 0.00779885 0.00780264 0.00779924 0.00780289 0.00780055 0.00780087 0.00780199 0.00780494 0.00780267 0.00780563 0.00780349 0.00780405 0.00780461 0.00780735 0.00780543 0.00780775 0.00780624 0.00780657 0.00780728 0.00780934 0.00780765 0.00780962 0.00780834 0.00780913 0.00780943 0.00781086 0.00780973 0.0078109 0.00781019 0.00781068 0.0078108 0.00781198 0.00781144 0.00781236 0.0078117 0.0078122 0.00781209 0.00781305 0.00781276 0.00781309 0.0078127 0.00781344 0.00781292 0.00781342 0.00781364 0.00781375 0.00781335 0.00781404 0.00781407 0.0078138 0.00781393 0.00781408 0.00781378 0.00781426 0.00781405 0.00781352 0.00781406 0.00781396 0.00781389 0.00781413 0.00781412 0.00781355 0.00781384 0.0078139 0.00781352 0.00781398 0.00781391 0.00781314 0.00781359 0.00781352 0.00781356 0.00781374 0.00781376 0.0076865 0.00760223 0.00766318 0.00761594 0.00757633 0.00762095 0.00769428 0.00762935 0.00767596 0.00764144 0.0076199 0.00765444 0.00770184 0.00764978 0.0076935 0.00766876 0.007655 0.00768066 0.00771389 0.00767067 0.00770952 0.00768977 0.00767902 0.00769976 0.00772607 0.00768956 0.00772252 0.00770654 0.00769703 0.00771474 0.00773726 0.00770619 0.0077342 0.00772109 0.00771247 0.00772784 0.00774738 0.00772071 0.00774488 0.00773395 0.00772631 0.00773944 0.00775644 0.00773349 0.00775479 0.00774528 0.0077384 0.00774962 0.00776476 0.00774456 0.00776387 0.0077552 0.00774919 0.00775863 0.0077721 0.00775426 0.00777165 0.00776381 0.0077583 0.00776646 0.00777842 0.00776262 0.0077786 0.00777119 0.00776659 0.00777343 0.00778417 0.00777002 0.00778448 0.00777757 0.00777359 0.00777966 0.007789 0.00777666 0.00778936 0.00778332 0.00777965 0.00778498 0.00779334 0.00778228 0.0077939 0.0077882 0.0077854 0.00778968 0.00779703 0.00778731 0.00779758 0.00779267 0.00778999 0.00779388 0.0078003 0.00779174 0.00780092 0.00779638 0.0077942 0.00779759 0.00780302 0.00779584 0.00780369 0.0077998 0.00779788 0.00780077 0.00780532 0.00779917 0.00780616 0.00780263 0.00780107 0.00780338 0.00780745 0.00780206 0.00780812 0.00780508 0.00780384 0.00780567 0.00780931 0.00780453 0.00780989 0.00780742 0.00780612 0.00780768 0.00781055 0.00780695 0.00781114 0.00780889 0.00780843 0.00780987 0.00781195 0.00780895 0.00781242 0.00781076 0.00780994 0.00781114 0.00781287 0.00781041 0.00781341 0.00781201 0.00781148 0.00781235 0.0078134 0.00781166 0.00781406 0.00781282 0.00781271 0.00781312 0.00781382 0.00781262 0.00781437 0.00781361 0.0078137 0.00781402 0.00781425 0.00781363 0.00781483 0.00781403 0.00781436 0.00781436 0.00781419 0.0078139 0.00781476 0.00781434 0.00781474 0.00781481 0.00781439 0.00781448 0.00781486 0.00781437 0.00781474 0.00781495 0.00781405 0.00781421 0.00781462 0.00781434 0.00781438 0.00781401 0.0078138 0.00781415 0.00781385 0.00781405 0.00781421 0.00781442 0.00781357 0.00781367 0.00781371 0.00781395 0.00781398 0.0078138 0.00781341 0.00781325 0.00781347 0.00781354 0.00781377 0.00781366 0.00783177 0.00775587 0.0078304 0.00778573 0.00773574 0.0077726 0.0078054 0.00774731 0.0078085 0.00777206 0.0077377 0.0077654 0.00779113 0.00774457 0.00779394 0.00776729 0.00774487 0.00776667 0.00778767 0.00774842 0.00778864 0.00776928 0.00775226 0.007771 0.00778932 0.00775534 0.00778878 0.0077736 0.00775988 0.0077764 0.00779294 0.00776331 0.00779175 0.00777918 0.00776744 0.00778181 0.00779699 0.00777087 0.0077961 0.00778502 0.00777479 0.00778725 0.00780108 0.00777788 0.00780037 0.00779066 0.00778154 0.00779246 0.00780472 0.00778424 0.00780465 0.00779554 0.00778767 0.00779711 0.00780791 0.00778951 0.00780823 0.00779995 0.00779302 0.00780099 0.00781069 0.00779435 0.0078113 0.00780361 0.00779746 0.0078046 0.00781289 0.00779851 0.00781387 0.00780697 0.00780138 0.00780749 0.00781481 0.00780167 0.00781578 0.00780946 0.00780457 0.00780993 0.00781618 0.00780458 0.00781722 0.00781152 0.0078072 0.00781189 0.00781711 0.00780713 0.00781847 0.00781325 0.00780949 0.00781338 0.00781797 0.0078091 0.00781911 0.0078146 0.00781114 0.00781483 0.00781856 0.00781092 0.00781974 0.00781579 0.00781279 0.00781579 0.00781893 0.00781223 0.00782001 0.00781662 0.00781378 0.00781646 0.00781908 0.00781328 0.00782014 0.00781694 0.00781496 0.00781712 0.00781904 0.0078142 0.00782003 0.0078175 0.00781571 0.0078174 0.00781895 0.00781487 0.00782 0.00781769 0.00781642 0.00781759 0.00781866 0.00781539 0.00781961 0.00781804 0.00781667 0.00781768 0.00781847 0.00781591 0.00781917 0.00781787 0.0078169 0.00781772 0.00781797 0.00781608 0.00781862 0.00781771 0.0078168 0.00781722 0.00781749 0.00781587 0.00781794 0.00781708 0.00781645 0.00781709 0.00781697 0.00781603 0.00781768 0.0078167 0.0078163 0.00781679 0.0078162 0.00781576 0.00781693 0.00781657 0.00781612 0.00781609 0.00781559 0.00781527 0.0078159 0.00781585 0.00781558 0.00781554 0.00781498 0.00781481 0.00781532 0.00781536 0.00781508 0.00781501 0.00781404 0.00781435 0.00781451 0.00781479 0.00781468 0.00781472 0.00781342 0.00781389 0.00781373 0.00781349 0.00781398 0.00781379 0.00781294 0.00781348 0.00781264 0.00781307 0.0078132 0.0078132 0.00796889 0.00789892 0.0079913 0.0079422 0.00788041 0.00791155 0.00790558 0.00785567 0.00793022 0.00789267 0.00784654 0.00786893 0.00787068 0.00783065 0.00788423 0.00785973 0.00782849 0.00784703 0.00785504 0.00782045 0.00786101 0.00784369 0.00782146 0.00783797 0.00784897 0.00781774 0.00785084 0.00783697 0.0078198 0.00783482 0.00784655 0.00781825 0.00784712 0.00783478 0.00782067 0.00783385 0.00784558 0.00782001 0.00784584 0.00783458 0.00782262 0.00783422 0.00784508 0.00782207 0.00784548 0.00783509 0.00782468 0.00783494 0.00784459 0.00782371 0.00784528 0.00783585 0.00782641 0.00783536 0.00784392 0.00782509 0.00784478 0.00783627 0.0078278 0.00783588 0.00784315 0.00782639 0.00784429 0.00783627 0.00782876 0.00783576 0.00784187 0.0078269 0.00784351 0.00783619 0.0078294 0.00783541 0.00784077 0.00782733 0.00784221 0.00783581 0.00782947 0.00783502 0.00783915 0.00782764 0.00784085 0.00783502 0.00782956 0.00783428 0.00783764 0.00782744 0.00783921 0.00783404 0.00782905 0.00783304 0.00783589 0.007827 0.00783744 0.00783309 0.00782849 0.00783219 0.00783436 0.00782641 0.0078357 0.0078318 0.0078278 0.00783096 0.00783257 0.00782578 0.00783409 0.00783059 0.0078269 0.00782997 0.007831 0.00782493 0.0078323 0.00782925 0.00782613 0.00782861 0.00782896 0.00782432 0.00783032 0.00782782 0.00782512 0.00782722 0.00782739 0.00782327 0.00782868 0.00782647 0.00782425 0.007826 0.00782576 0.00782247 0.00782696 0.00782524 0.00782323 0.00782475 0.00782414 0.00782148 0.00782509 0.00782359 0.00782212 0.00782321 0.00782239 0.00782065 0.00782336 0.00782236 0.0078212 0.00782189 0.0078208 0.00781946 0.00782177 0.00782102 0.00781996 0.00782065 0.00781959 0.00781863 0.00782048 0.00781974 0.00781887 0.00781934 0.00781801 0.00781777 0.00781863 0.00781845 0.00781793 0.00781814 0.00781678 0.00781662 0.00781745 0.00781745 0.00781705 0.00781726 0.00781556 0.00781523 0.00781625 0.00781615 0.00781575 0.00781594 0.00781443 0.00781469 0.00781466 0.00781498 0.00781473 0.00781478 0.00781359 0.00781371 0.00781377 0.0078138 0.00781374 0.00781373 0.00781239 0.00781274 0.0078122 0.00781256 0.00781247 0.00781247 0.0080948 0.00803162 0.00815481 0.00809236 0.00801568 0.00804089 0.00799025 0.00795168 0.00803908 0.00800241 0.00794337 0.00796301 0.00793984 0.00790736 0.0079607 0.0079433 0.00790376 0.00792078 0.00791693 0.00788646 0.00792475 0.00791232 0.00788528 0.00790046 0.00790554 0.00787645 0.00790879 0.00789655 0.0078769 0.00789012 0.00789847 0.00787121 0.00790026 0.00788805 0.00787223 0.0078842 0.0078931 0.00786809 0.00789478 0.00788279 0.00786956 0.00788008 0.00788851 0.00786558 0.00789014 0.00787891 0.00786735 0.00787664 0.00788406 0.0078632 0.00788583 0.00787569 0.00786496 0.00787344 0.0078796 0.00786083 0.00788144 0.00787222 0.00786269 0.00787011 0.00787531 0.0078585 0.00787726 0.00786884 0.0078602 0.00786684 0.00787076 0.00785584 0.00787281 0.00786554 0.00785723 0.00786331 0.00786662 0.00785318 0.00786855 0.00786194 0.00785466 0.0078599 0.00786232 0.00785044 0.00786429 0.00785847 0.00785169 0.0078564 0.00785807 0.00784767 0.00786005 0.00785492 0.00784875 0.00785286 0.00785393 0.00784487 0.00785593 0.00785151 0.00784589 0.00784952 0.00785 0.00784189 0.007852 0.00784819 0.00784301 0.00784634 0.00784639 0.00783947 0.00784828 0.00784476 0.00784021 0.00784301 0.0078427 0.0078368 0.00784457 0.00784129 0.00783747 0.00783996 0.00783924 0.0078343 0.00784073 0.00783821 0.00783495 0.00783707 0.00783594 0.00783161 0.00783739 0.00783533 0.0078324 0.00783408 0.00783272 0.00782923 0.00783401 0.00783259 0.00782976 0.00783123 0.00782974 0.00782705 0.0078309 0.00782995 0.00782774 0.00782879 0.00782719 0.00782504 0.00782805 0.00782734 0.00782521 0.00782633 0.00782458 0.00782286 0.00782551 0.00782485 0.0078234 0.00782407 0.00782225 0.0078213 0.00782307 0.00782269 0.00782124 0.00782191 0.00781997 0.00781929 0.0078206 0.00782071 0.00781949 0.00782007 0.00781803 0.00781755 0.00781872 0.00781863 0.00781796 0.00781831 0.00781641 0.00781624 0.00781683 0.00781699 0.00781632 0.00781645 0.00781478 0.00781522 0.00781509 0.00781528 0.00781491 0.00781513 0.00781341 0.00781363 0.00781386 0.00781408 0.00781327 0.00781357 0.007812 0.00781224 0.00781198 0.00781237 0.00781203 0.00781157 0.00819287 0.00814551 0.00832463 0.00823972 0.00813804 0.00815868 0.00805035 0.00802827 0.00811849 0.008095 0.00802271 0.00804298 0.00799817 0.00797357 0.00801533 0.00801332 0.0079684 0.00798543 0.00797453 0.00794711 0.00798055 0.00797348 0.00794433 0.0079582 0.00796015 0.00793251 0.00796413 0.00795256 0.00793144 0.00794321 0.0079494 0.00792267 0.00795266 0.00793965 0.00792293 0.00793337 0.00794016 0.00791529 0.00794309 0.00793026 0.0079158 0.00792517 0.00793136 0.00790857 0.00793425 0.00792229 0.00790932 0.00791785 0.00792318 0.0079024 0.00792579 0.00791506 0.00790315 0.00791095 0.00791496 0.00789624 0.0079177 0.00790805 0.00789724 0.00790409 0.00790721 0.00789014 0.00790975 0.00790105 0.00789113 0.00789749 0.00789925 0.0078845 0.00790192 0.00789441 0.00788518 0.0078909 0.00789199 0.0078786 0.00789458 0.00788787 0.00787935 0.00788454 0.00788501 0.00787323 0.00788724 0.00788147 0.00787361 0.00787834 0.00787808 0.00786776 0.00788048 0.0078752 0.00786833 0.00787241 0.00787175 0.00786252 0.00787389 0.00786946 0.00786307 0.00786663 0.00786557 0.00785772 0.00786742 0.00786375 0.00785811 0.00786107 0.00785961 0.00785288 0.00786173 0.0078585 0.0078532 0.00785603 0.00785423 0.00784846 0.00785591 0.00785338 0.00784875 0.00785113 0.0078491 0.00784401 0.0078507 0.00784863 0.00784409 0.00784643 0.00784393 0.00784009 0.0078456 0.00784388 0.00784025 0.00784225 0.0078396 0.00783635 0.00784108 0.00783952 0.00783636 0.00783781 0.00783529 0.00783265 0.00783662 0.00783555 0.00783259 0.00783389 0.00783142 0.00782942 0.00783244 0.0078319 0.00782962 0.00783048 0.00782766 0.00782619 0.00782846 0.00782842 0.0078264 0.0078272 0.00782447 0.00782352 0.00782535 0.00782508 0.00782343 0.00782431 0.00782165 0.00782104 0.00782236 0.00782227 0.0078211 0.00782146 0.00781894 0.00781907 0.00781943 0.00781995 0.00781873 0.00781938 0.00781711 0.00781702 0.00781759 0.00781769 0.00781676 0.0078171 0.00781502 0.00781534 0.0078153 0.00781569 0.00781503 0.00781547 0.00781363 0.00781357 0.00781363 0.007814 0.00781324 0.00781347 0.00781206 0.00781192 0.0078119 0.00781238 0.00781147 0.00781175 0.0082403 0.00821505 0.00857118 0.00840218 0.0082269 0.00826313 0.00807771 0.00807785 0.00807308 0.00814645 0.00807174 0.00809193 0.0080493 0.00802912 0.00805198 0.00806082 0.00802269 0.00803631 0.00803066 0.00800421 0.0080365 0.00802682 0.00800016 0.00801145 0.00801507 0.00798727 0.00802001 0.0080062 0.00798518 0.00799531 0.00800091 0.00797393 0.00800475 0.00799083 0.00797285 0.00798203 0.00798747 0.00796244 0.00799088 0.0079778 0.00796168 0.0079702 0.00797471 0.0079516 0.00797769 0.00796571 0.00795113 0.00795909 0.00796245 0.00794124 0.00796514 0.00795441 0.00794078 0.00794809 0.00795033 0.00793152 0.00795286 0.00794364 0.00793103 0.00793777 0.00793868 0.00792194 0.00794119 0.0079331 0.00792153 0.00792762 0.00792796 0.00791295 0.00793016 0.00792304 0.00791224 0.00791773 0.00791734 0.00790406 0.00791945 0.00791326 0.00790355 0.00790861 0.00790745 0.00789549 0.00790942 0.00790407 0.00789517 0.00789961 0.00789814 0.00788763 0.00789996 0.00789554 0.00788702 0.00789117 0.00788916 0.00788001 0.00789077 0.00788696 0.00787952 0.00788321 0.00788057 0.00787285 0.00788237 0.00787918 0.00787237 0.00787558 0.00787286 0.00786603 0.00787464 0.00787156 0.00786551 0.00786848 0.00786564 0.00785961 0.0078671 0.00786473 0.00785936 0.00786158 0.00785865 0.00785387 0.00785997 0.00785852 0.00785336 0.00785552 0.00785225 0.00784817 0.00785329 0.00785185 0.00784756 0.00784934 0.00784603 0.00784285 0.00784719 0.00784631 0.00784214 0.00784388 0.00784055 0.0078379 0.00784151 0.00784081 0.00783766 0.0078388 0.00783535 0.00783343 0.00783636 0.00783592 0.00783329 0.00783401 0.00783051 0.00782942 0.00783173 0.00783145 0.00782906 0.00782989 0.00782655 0.00782571 0.00782722 0.00782752 0.00782533 0.00782613 0.00782265 0.00782245 0.00782326 0.00782355 0.007822 0.0078223 0.00781971 0.00781966 0.0078199 0.0078205 0.00781916 0.0078199 0.00781691 0.0078172 0.00781715 0.00781786 0.00781687 0.00781725 0.00781495 0.00781546 0.00781495 0.00781581 0.0078149 0.00781522 0.00781352 0.0078139 0.00781352 0.00781405 0.00781356 0.00781373 0.00781291 0.0078126 0.00781303 0.00781261 0.00781192 0.00781221 0.00732677 0.00709518 0.0072213 0.00705625 0.00726428 0.00722611 0.00742912 0.00739536 0.00738869 0.00734585 0.00740441 0.00739567 0.00749951 0.00744791 0.00748778 0.00744361 0.00745256 0.00747047 0.00753928 0.00749285 0.00753188 0.00750357 0.00750146 0.00752571 0.00757706 0.00754056 0.00756995 0.00755204 0.00754995 0.00757104 0.00761186 0.00758336 0.00760573 0.00759267 0.00759167 0.00760802 0.00764164 0.00761826 0.00763688 0.00762576 0.00762514 0.00763779 0.00766574 0.00764627 0.00766251 0.00765254 0.00765174 0.00766205 0.00768578 0.00766879 0.00768323 0.00767431 0.00767331 0.0076818 0.0077024 0.00768756 0.00770063 0.00769244 0.00769128 0.00769857 0.00771683 0.00770351 0.00771516 0.00770779 0.00770667 0.00771303 0.00772934 0.0077175 0.00772801 0.00772138 0.00772035 0.00772594 0.00774023 0.00772998 0.00773926 0.00773319 0.00773242 0.00773722 0.00775042 0.00774107 0.00774924 0.00774382 0.00774343 0.00774757 0.00775907 0.00775093 0.00775818 0.00775315 0.00775323 0.00775671 0.00776694 0.00775995 0.00776617 0.00776181 0.00776187 0.00776501 0.00777401 0.00776809 0.00777355 0.00776959 0.00777 0.0077726 0.00778033 0.00777526 0.00777992 0.00777657 0.00777684 0.00777908 0.0077861 0.00778184 0.00778546 0.00778251 0.00778343 0.0077852 0.00779115 0.00778769 0.00779078 0.00778834 0.00778907 0.00779037 0.00779563 0.00779286 0.00779518 0.00779313 0.00779422 0.00779527 0.00779939 0.00779754 0.00779918 0.00779755 0.00779854 0.00779941 0.00780308 0.00780149 0.00780279 0.00780143 0.00780244 0.00780299 0.00780585 0.00780497 0.00780565 0.00780456 0.00780563 0.00780597 0.00780839 0.00780761 0.00780815 0.00780743 0.00780844 0.00780869 0.00781035 0.00781016 0.0078102 0.0078098 0.00781053 0.00781058 0.00781177 0.00781197 0.00781191 0.00781164 0.00781253 0.00781218 0.00781295 0.00781377 0.00781306 0.00781297 0.00781411 0.00781358 0.00781393 0.00781456 0.00781381 0.00781384 0.00781444 0.00781432 0.00781418 0.00781485 0.00781453 0.00781429 0.00781474 0.00781407 0.00781404 0.00781402 0.0078139 0.00781408 0.00781421 0.00781394 0.00781307 0.00781299 0.00781348 0.00781315 0.00781304 0.00781306 0.00752328 0.00741629 0.00747226 0.00740961 0.00738167 0.00743528 0.0075589 0.00749493 0.0075183 0.00749469 0.00749043 0.00752296 0.00759251 0.00754349 0.00757604 0.00755575 0.00755141 0.00757635 0.00762367 0.00758269 0.00761699 0.00759865 0.00759191 0.00761306 0.00764989 0.00761494 0.00764602 0.0076308 0.00762422 0.00764246 0.00767245 0.007643 0.00766967 0.00765743 0.00765174 0.00766692 0.00769217 0.00766711 0.00768986 0.00767956 0.00767493 0.00768747 0.0077091 0.00768765 0.00770745 0.0076984 0.00769445 0.00770473 0.00772352 0.00770469 0.00772254 0.00771406 0.00771058 0.00771933 0.0077358 0.00771928 0.00773539 0.00772739 0.00772418 0.00773172 0.00774643 0.00773181 0.00774628 0.0077388 0.00773649 0.00774263 0.00775565 0.00774263 0.00775568 0.00774894 0.00774668 0.00775221 0.00776379 0.00775229 0.00776401 0.00775769 0.00775594 0.00776059 0.00777112 0.00776084 0.00777109 0.00776545 0.00776418 0.00776824 0.00777749 0.00776836 0.00777756 0.00777259 0.00777152 0.00777486 0.00778314 0.00777517 0.00778334 0.00777875 0.00777791 0.00778091 0.00778795 0.00778132 0.0077883 0.00778445 0.00778379 0.00778622 0.0077925 0.00778674 0.00779265 0.0077892 0.00778894 0.00779093 0.00779641 0.00779143 0.0077967 0.00779368 0.00779371 0.00779515 0.00779979 0.0077958 0.00780014 0.00779758 0.00779769 0.00779891 0.00780267 0.00779915 0.00780302 0.00780086 0.00780095 0.00780218 0.00780532 0.00780276 0.00780562 0.00780366 0.00780414 0.00780501 0.00780761 0.00780544 0.00780779 0.0078065 0.00780707 0.00780769 0.00780933 0.00780793 0.00780976 0.0078086 0.00780899 0.00780942 0.00781086 0.00780987 0.00781127 0.00781013 0.00781083 0.00781087 0.00781225 0.00781154 0.00781236 0.00781147 0.00781252 0.00781234 0.00781289 0.00781276 0.00781319 0.00781261 0.00781357 0.00781337 0.00781377 0.00781374 0.00781399 0.00781346 0.00781403 0.00781396 0.00781409 0.0078139 0.00781437 0.00781388 0.00781439 0.00781407 0.00781383 0.00781406 0.0078141 0.00781394 0.00781448 0.00781421 0.00781366 0.00781398 0.00781406 0.00781368 0.00781413 0.00781393 0.00781353 0.00781349 0.00781345 0.00781349 0.00781379 0.00781372 0.00768346 0.00759748 0.00766058 0.0076117 0.00757183 0.00761411 0.00768872 0.00762454 0.0076702 0.00763607 0.00761018 0.00764428 0.00769463 0.00764518 0.00768585 0.0076639 0.00764545 0.00767155 0.00770599 0.00766577 0.0077027 0.0076859 0.00767158 0.0076922 0.00771904 0.00768506 0.00771762 0.00770344 0.00769194 0.00770903 0.00773171 0.00770237 0.0077307 0.00771869 0.00770915 0.00772364 0.00774349 0.00771795 0.00774256 0.0077321 0.00772418 0.00773672 0.0077538 0.00773157 0.00775334 0.00774393 0.00773721 0.00774768 0.00776292 0.00774328 0.00776275 0.00775436 0.00774829 0.00775724 0.00777073 0.0077535 0.00777097 0.00776318 0.00775785 0.00776568 0.00777768 0.00776218 0.00777801 0.00777075 0.00776625 0.00777292 0.00778359 0.00776979 0.00778405 0.00777738 0.00777342 0.00777909 0.00778864 0.00777645 0.00778935 0.00778329 0.00777968 0.00778477 0.00779301 0.00778215 0.00779381 0.00778823 0.00778544 0.00778948 0.00779678 0.00778711 0.00779754 0.00779251 0.00778996 0.0077938 0.00780015 0.00779176 0.00780089 0.00779626 0.00779404 0.00779744 0.00780294 0.00779564 0.00780391 0.00779972 0.00779791 0.00780078 0.00780513 0.00779893 0.00780608 0.00780244 0.00780098 0.00780341 0.00780709 0.00780231 0.00780813 0.00780526 0.00780398 0.0078061 0.00780909 0.00780479 0.00780972 0.00780701 0.00780645 0.00780804 0.00781075 0.00780695 0.00781137 0.00780902 0.00780844 0.00780977 0.00781199 0.00780876 0.00781258 0.00781051 0.00781018 0.00781115 0.00781291 0.00781055 0.00781348 0.0078118 0.00781151 0.00781233 0.00781349 0.00781172 0.00781394 0.00781283 0.00781266 0.00781329 0.00781399 0.00781289 0.0078147 0.00781357 0.00781375 0.00781383 0.00781425 0.00781358 0.00781475 0.00781396 0.00781428 0.00781444 0.00781435 0.00781397 0.00781503 0.00781451 0.00781478 0.00781484 0.0078146 0.00781405 0.0078147 0.00781476 0.00781481 0.00781471 0.00781436 0.00781425 0.00781457 0.00781459 0.00781445 0.00781453 0.0078137 0.0078144 0.00781419 0.00781411 0.00781433 0.007814 0.00781372 0.00781397 0.00781387 0.00781369 0.00781398 0.00781381 0.00781352 0.00781375 0.00781346 0.00781361 0.00781406 0.00781386 0.00783324 0.00775488 0.00782898 0.00778349 0.00773375 0.00776954 0.00780537 0.00774596 0.0078067 0.0077701 0.00773236 0.00776143 0.00778856 0.00774222 0.00779083 0.00776553 0.00773911 0.00776228 0.00778334 0.00774514 0.00778514 0.00776736 0.00774778 0.00776653 0.00778481 0.00775197 0.00778568 0.00777168 0.00775633 0.00777219 0.007789 0.00776021 0.00778928 0.00777741 0.00776488 0.00777858 0.00779393 0.00776855 0.00779399 0.00778346 0.00777296 0.00778476 0.00779869 0.0077762 0.00779899 0.00778942 0.00778026 0.00779051 0.00780289 0.0077828 0.00780347 0.00779471 0.00778677 0.00779571 0.00780676 0.00778883 0.00780733 0.00779944 0.0077924 0.00780015 0.00780976 0.00779386 0.00781083 0.0078032 0.00779704 0.00780389 0.00781211 0.00779785 0.00781332 0.00780638 0.0078011 0.007807 0.0078142 0.00780152 0.0078153 0.00780914 0.00780425 0.00780922 0.00781583 0.00780441 0.00781687 0.00781122 0.00780686 0.00781138 0.00781703 0.00780688 0.00781812 0.00781293 0.00780926 0.00781319 0.00781766 0.00780915 0.00781893 0.00781459 0.00781118 0.0078146 0.00781825 0.00781077 0.00781973 0.00781546 0.00781259 0.00781558 0.00781884 0.0078122 0.00781989 0.00781642 0.00781384 0.00781649 0.00781917 0.00781347 0.00782015 0.00781709 0.00781477 0.00781709 0.00781892 0.00781451 0.00781999 0.00781719 0.00781586 0.00781725 0.00781887 0.00781506 0.0078198 0.00781788 0.00781627 0.0078176 0.00781884 0.00781529 0.00781941 0.00781772 0.00781635 0.00781766 0.00781851 0.00781603 0.00781919 0.00781765 0.00781685 0.00781782 0.00781782 0.00781573 0.00781861 0.00781722 0.00781669 0.00781763 0.00781757 0.00781617 0.00781821 0.00781698 0.00781674 0.00781715 0.00781687 0.0078159 0.00781756 0.00781706 0.00781647 0.00781692 0.00781616 0.00781567 0.00781663 0.00781628 0.0078161 0.00781636 0.00781576 0.00781522 0.00781596 0.00781589 0.00781585 0.00781591 0.00781481 0.007815 0.00781516 0.00781506 0.00781528 0.00781516 0.00781438 0.00781433 0.00781438 0.00781462 0.00781462 0.00781445 0.00781352 0.00781389 0.0078137 0.00781393 0.0078138 0.00781365 0.0078126 0.00781329 0.00781275 0.00781282 0.0078134 0.00781323 0.00797489 0.00790107 0.00799108 0.00794191 0.00788062 0.007912 0.00791013 0.0078574 0.00793198 0.00789412 0.00784576 0.00787113 0.00787203 0.00783061 0.0078857 0.00786112 0.0078269 0.00784775 0.00785409 0.00781912 0.00786053 0.00784385 0.00781947 0.00783661 0.00784669 0.00781577 0.00784959 0.00783625 0.00781789 0.00783251 0.00784413 0.00781624 0.0078457 0.0078337 0.00781897 0.00783168 0.00784335 0.00781811 0.00784443 0.00783336 0.00782116 0.00783215 0.00784306 0.00782045 0.00784427 0.007834 0.00782347 0.00783315 0.00784294 0.00782258 0.0078443 0.00783492 0.00782553 0.007834 0.00784252 0.00782421 0.00784403 0.00783538 0.00782706 0.0078345 0.00784194 0.00782555 0.00784362 0.00783581 0.00782818 0.00783497 0.00784117 0.00782646 0.0078429 0.00783579 0.00782891 0.00783477 0.00784 0.00782702 0.00784171 0.00783527 0.00782923 0.00783432 0.0078386 0.00782712 0.0078404 0.00783462 0.00782917 0.00783353 0.00783717 0.00782698 0.0078389 0.00783396 0.00782881 0.00783279 0.00783565 0.00782675 0.00783721 0.00783296 0.00782836 0.00783199 0.00783416 0.00782633 0.00783574 0.00783183 0.00782749 0.00783064 0.00783231 0.00782564 0.00783386 0.00783035 0.00782695 0.00782958 0.00783066 0.00782501 0.00783221 0.00782922 0.00782609 0.00782834 0.0078291 0.00782411 0.00783039 0.00782771 0.00782518 0.00782706 0.0078273 0.00782321 0.00782855 0.00782636 0.00782425 0.00782577 0.00782572 0.00782229 0.0078268 0.00782513 0.00782332 0.00782461 0.0078239 0.00782119 0.00782517 0.00782374 0.00782214 0.0078232 0.00782244 0.00782053 0.00782347 0.00782226 0.00782103 0.00782172 0.00782099 0.00781927 0.00782155 0.00782104 0.00781999 0.00782052 0.00781967 0.00781832 0.00782031 0.00781978 0.00781911 0.00781932 0.00781796 0.00781743 0.00781864 0.00781842 0.00781787 0.00781824 0.00781691 0.00781628 0.0078174 0.00781732 0.00781699 0.00781699 0.00781564 0.00781569 0.00781617 0.00781603 0.00781562 0.00781582 0.00781463 0.00781478 0.00781486 0.00781502 0.00781451 0.00781445 0.00781362 0.00781351 0.00781368 0.00781363 0.00781364 0.00781339 0.00781247 0.00781262 0.00781221 0.0078126 0.00781254 0.00781224 0.00810421 0.00803693 0.00815562 0.00809422 0.00801788 0.00804455 0.00799833 0.00795567 0.00804411 0.00800678 0.00794691 0.00797083 0.00794425 0.00790938 0.00796541 0.00794735 0.00790567 0.00792562 0.00791856 0.00788675 0.00792675 0.00791416 0.00788584 0.00790196 0.00790537 0.00787588 0.00790909 0.00789681 0.00787621 0.0078897 0.00789736 0.00787022 0.00789993 0.00788764 0.00787141 0.0078829 0.00789165 0.00786677 0.00789399 0.00788208 0.00786853 0.00787857 0.00788693 0.00786438 0.0078892 0.007878 0.00786622 0.0078751 0.00788275 0.00786222 0.00788497 0.00787474 0.00786419 0.00787207 0.00787842 0.00786012 0.00788087 0.0078718 0.00786182 0.00786903 0.00787428 0.00785762 0.00787662 0.00786834 0.00785932 0.00786585 0.00787008 0.00785532 0.00787234 0.00786505 0.00785687 0.00786256 0.00786586 0.00785261 0.00786813 0.00786157 0.00785404 0.0078593 0.00786144 0.00785019 0.00786388 0.00785812 0.00785119 0.00785582 0.00785768 0.00784744 0.00785977 0.00785444 0.00784849 0.0078527 0.00785354 0.00784466 0.00785563 0.00785108 0.00784562 0.00784922 0.00784976 0.00784195 0.00785166 0.00784778 0.00784291 0.00784578 0.00784604 0.00783924 0.00784768 0.00784445 0.00784002 0.0078428 0.00784235 0.00783649 0.00784407 0.00784123 0.00783719 0.00783959 0.00783896 0.00783411 0.00784051 0.00783831 0.00783467 0.00783689 0.00783563 0.00783174 0.00783705 0.00783536 0.00783211 0.00783381 0.00783261 0.00782902 0.00783413 0.00783231 0.00782964 0.00783109 0.00782972 0.00782706 0.00783086 0.00782962 0.00782741 0.00782858 0.00782703 0.00782488 0.00782793 0.00782727 0.00782525 0.0078262 0.00782447 0.00782302 0.00782526 0.00782472 0.00782331 0.00782403 0.00782177 0.00782112 0.00782282 0.00782251 0.00782139 0.00782188 0.00782002 0.00781928 0.00782045 0.00782037 0.00781942 0.00781994 0.0078181 0.00781776 0.00781859 0.00781895 0.00781782 0.00781804 0.00781652 0.00781652 0.00781676 0.00781697 0.00781616 0.00781643 0.0078148 0.00781491 0.007815 0.00781539 0.00781504 0.00781518 0.00781324 0.00781371 0.00781362 0.00781387 0.0078137 0.00781329 0.00781189 0.00781217 0.00781191 0.00781228 0.00781197 0.00781155 0.00820428 0.00815313 0.00832645 0.00824346 0.00814178 0.00816436 0.00806018 0.00803423 0.00812598 0.00810195 0.00802966 0.00805459 0.00800425 0.00797664 0.008022 0.00801896 0.00797288 0.00799279 0.007978 0.00794877 0.00798393 0.00797651 0.00794618 0.00796147 0.00796174 0.00793296 0.00796568 0.00795359 0.00793186 0.00794424 0.00794982 0.00792267 0.00795324 0.00793987 0.00792258 0.00793304 0.00793981 0.00791472 0.0079431 0.00793002 0.00791533 0.00792434 0.00793089 0.0079079 0.00793394 0.00792194 0.00790871 0.00791702 0.00792238 0.00790161 0.00792533 0.00791441 0.00790252 0.00791004 0.00791414 0.00789557 0.00791717 0.00790754 0.0078964 0.00790325 0.00790642 0.00788976 0.00790936 0.00790088 0.00789049 0.00789672 0.00789866 0.00788389 0.00790152 0.00789401 0.00788461 0.00789017 0.00789133 0.00787822 0.00789413 0.00788754 0.00787898 0.00788379 0.00788437 0.0078728 0.00788675 0.00788116 0.00787344 0.0078778 0.00787752 0.00786756 0.00788019 0.00787521 0.00786807 0.00787191 0.00787131 0.00786216 0.00787347 0.00786919 0.0078627 0.00786627 0.00786506 0.00785741 0.00786732 0.00786371 0.00785769 0.00786076 0.00785928 0.00785277 0.00786137 0.00785832 0.00785307 0.00785558 0.00785384 0.00784808 0.00785575 0.00785327 0.00784849 0.00785078 0.00784887 0.007844 0.0078505 0.00784832 0.0078441 0.00784611 0.00784374 0.00783983 0.00784548 0.00784373 0.00784011 0.00784171 0.00783916 0.00783617 0.00784084 0.00783945 0.00783633 0.00783778 0.00783492 0.0078328 0.00783643 0.00783533 0.00783284 0.00783379 0.00783124 0.00782919 0.00783241 0.00783173 0.00782933 0.00783033 0.00782772 0.00782643 0.00782869 0.00782837 0.00782624 0.00782709 0.00782422 0.00782345 0.00782533 0.00782536 0.00782354 0.00782405 0.00782125 0.007821 0.00782209 0.00782234 0.00782086 0.00782148 0.00781908 0.00781871 0.00781953 0.00781976 0.00781881 0.0078191 0.00781695 0.00781695 0.00781704 0.00781783 0.00781662 0.00781707 0.007815 0.00781513 0.00781519 0.00781584 0.00781497 0.00781514 0.00781357 0.0078139 0.00781363 0.00781404 0.00781312 0.00781351 0.00781214 0.00781203 0.00781213 0.00781224 0.00781151 0.00781186 0.00825227 0.00822447 0.00858196 0.00840825 0.0082325 0.00827037 0.0080899 0.00808458 0.00808193 0.00815445 0.00808102 0.00810497 0.00805749 0.0080334 0.00805937 0.00806707 0.00802877 0.00804405 0.0080359 0.00800675 0.00804145 0.00803059 0.00800317 0.0080159 0.008018 0.00798868 0.00802291 0.00800829 0.0079866 0.00799729 0.00800259 0.0079746 0.00800653 0.00799188 0.00797331 0.00798301 0.00798832 0.00796251 0.00799191 0.00797823 0.00796166 0.00797051 0.00797481 0.00795149 0.00797808 0.00796577 0.00795092 0.00795876 0.00796217 0.0079409 0.007965 0.00795436 0.00794043 0.00794792 0.00794992 0.00793102 0.00795266 0.00794345 0.00793058 0.00793735 0.00793836 0.00792152 0.00794126 0.00793292 0.00792101 0.00792697 0.00792743 0.00791237 0.00792991 0.00792271 0.00791194 0.00791733 0.00791698 0.00790361 0.00791905 0.00791301 0.00790317 0.007908 0.00790693 0.00789502 0.00790906 0.00790393 0.0078947 0.0078991 0.00789765 0.00788749 0.00789974 0.00789526 0.00788688 0.00789073 0.00788878 0.0078797 0.00789059 0.00788696 0.00787937 0.00788266 0.00788029 0.0078725 0.00788229 0.00787891 0.00787228 0.00787512 0.00787255 0.00786584 0.00787431 0.00787157 0.00786552 0.00786782 0.00786524 0.00785962 0.00786684 0.00786461 0.00785906 0.00786124 0.00785834 0.0078535 0.00785973 0.00785799 0.00785315 0.00785506 0.00785173 0.00784791 0.00785307 0.00785192 0.00784755 0.00784931 0.00784564 0.0078426 0.00784703 0.00784599 0.0078423 0.0078436 0.00784012 0.00783788 0.00784138 0.00784073 0.0078375 0.00783837 0.007835 0.00783331 0.00783615 0.00783573 0.00783301 0.00783388 0.00783032 0.00782927 0.00783127 0.00783146 0.00782886 0.00782978 0.00782626 0.00782554 0.00782693 0.00782736 0.00782519 0.00782581 0.00782276 0.00782231 0.00782329 0.00782348 0.0078219 0.00782249 0.00781957 0.00781943 0.00781989 0.00782032 0.0078189 0.00781948 0.00781672 0.00781724 0.00781685 0.00781785 0.00781676 0.00781697 0.00781479 0.00781526 0.00781503 0.00781547 0.00781502 0.00781475 0.00781333 0.00781384 0.00781316 0.00781401 0.00781379 0.00781346 0.00781297 0.00781245 0.00781285 0.00781275 0.00781202 0.00781242 0.00732015 0.00709562 0.00722242 0.00706208 0.00725976 0.00722207 0.00742504 0.00739751 0.00738687 0.0073472 0.00740294 0.00739228 0.00749833 0.00745141 0.00748664 0.0074452 0.0074517 0.00746747 0.00753854 0.00749592 0.00753106 0.00750571 0.00750056 0.00752295 0.00757558 0.00754229 0.00756937 0.0075543 0.00754939 0.007569 0.00761032 0.00758425 0.00760552 0.00759432 0.00759134 0.00760659 0.00764024 0.00761866 0.00763691 0.00762698 0.00762485 0.00763692 0.00766481 0.00764625 0.00766259 0.00765316 0.00765146 0.0076615 0.00768505 0.00766875 0.0076834 0.00767449 0.00767324 0.00768159 0.00770205 0.0076874 0.00770067 0.00769253 0.00769139 0.00769841 0.00771665 0.00770333 0.00771538 0.00770766 0.00770685 0.00771314 0.00772923 0.00771732 0.00772812 0.00772114 0.00772049 0.0077258 0.00774025 0.00772967 0.00773928 0.00773311 0.0077326 0.00773737 0.0077502 0.00774088 0.00774932 0.00774369 0.00774331 0.00774757 0.00775893 0.00775083 0.0077583 0.00775331 0.00775311 0.00775662 0.00776688 0.00775996 0.00776613 0.00776184 0.00776188 0.00776505 0.0077739 0.00776793 0.00777356 0.00776962 0.00776993 0.00777252 0.00778046 0.00777537 0.00777985 0.00777658 0.00777689 0.00777908 0.00778612 0.00778188 0.00778568 0.00778268 0.00778342 0.00778541 0.00779125 0.00778777 0.00779086 0.00778828 0.00778917 0.00779059 0.00779574 0.00779273 0.00779527 0.00779323 0.00779418 0.00779509 0.00779977 0.00779756 0.00779932 0.00779746 0.00779853 0.00779948 0.00780312 0.00780141 0.00780276 0.00780127 0.00780246 0.00780289 0.00780605 0.00780483 0.00780559 0.00780459 0.00780558 0.00780614 0.00780836 0.0078078 0.00780833 0.00780726 0.00780847 0.00780855 0.0078103 0.00781053 0.00781015 0.00780963 0.0078109 0.00781069 0.00781214 0.00781204 0.00781185 0.00781152 0.00781237 0.00781251 0.00781326 0.00781357 0.00781335 0.00781283 0.00781403 0.00781349 0.00781364 0.00781419 0.0078138 0.00781381 0.00781431 0.00781396 0.00781434 0.00781458 0.00781412 0.00781415 0.00781477 0.00781447 0.00781392 0.00781435 0.00781383 0.00781365 0.00781409 0.00781388 0.00781333 0.00781325 0.00781338 0.00781309 0.00781268 0.00781297 0.00752146 0.00741797 0.00747331 0.00741057 0.00738239 0.00743206 0.00755691 0.00749831 0.00751797 0.0074963 0.00748936 0.00752066 0.00759076 0.00754724 0.00757431 0.00755813 0.0075492 0.00757442 0.00762186 0.00758549 0.00761546 0.00760127 0.00759017 0.00761163 0.00764821 0.00761639 0.0076453 0.00763329 0.007623 0.00764127 0.00767089 0.00764354 0.0076694 0.0076591 0.00765111 0.00766606 0.00769088 0.00766705 0.00769001 0.0076807 0.00767496 0.00768681 0.00770816 0.00768727 0.00770752 0.00769909 0.00769437 0.0077043 0.00772269 0.00770448 0.00772263 0.00771422 0.00771073 0.00771895 0.00773537 0.00771889 0.0077355 0.00772751 0.00772439 0.00773149 0.00774635 0.00773163 0.00774635 0.00773885 0.00773645 0.00774245 0.0077556 0.00774251 0.00775589 0.00774887 0.00774681 0.00775216 0.00776378 0.00775215 0.00776405 0.00775768 0.00775609 0.00776038 0.00777098 0.0077607 0.00777113 0.00776549 0.00776408 0.00776809 0.00777739 0.00776837 0.00777757 0.00777249 0.00777149 0.00777477 0.00778315 0.00777517 0.00778315 0.00777867 0.0077778 0.00778083 0.00778812 0.00778115 0.00778831 0.00778422 0.00778375 0.00778636 0.00779254 0.0077865 0.00779275 0.00778905 0.00778881 0.00779094 0.00779647 0.00779133 0.00779666 0.0077935 0.00779345 0.00779498 0.00779961 0.00779582 0.00780011 0.00779741 0.00779775 0.00779899 0.00780273 0.0077995 0.007803 0.00780078 0.00780123 0.00780211 0.00780533 0.00780269 0.00780578 0.00780361 0.00780436 0.00780499 0.00780767 0.00780537 0.007808 0.00780618 0.00780686 0.00780743 0.00780931 0.00780789 0.0078097 0.00780836 0.00780917 0.00780945 0.00781095 0.00781008 0.00781105 0.00781013 0.00781097 0.0078112 0.0078123 0.0078114 0.00781242 0.00781149 0.00781233 0.00781246 0.00781283 0.00781259 0.00781299 0.00781275 0.00781336 0.00781314 0.00781378 0.00781369 0.00781389 0.00781345 0.00781412 0.00781382 0.00781409 0.00781403 0.00781417 0.00781392 0.00781419 0.00781404 0.00781406 0.00781426 0.0078142 0.00781412 0.00781446 0.00781432 0.00781382 0.00781402 0.00781386 0.00781382 0.00781413 0.00781379 0.00781335 0.00781368 0.00781344 0.00781335 0.00781366 0.00781361 0.0076834 0.00759903 0.00766077 0.00761211 0.00757203 0.00761243 0.00768822 0.0076272 0.00767 0.007637 0.00760915 0.00764309 0.00769355 0.00764812 0.00768463 0.0076656 0.00764377 0.00767031 0.00770433 0.00766757 0.00770148 0.00768799 0.00767024 0.00769127 0.00771732 0.00768586 0.00771672 0.0077054 0.00769121 0.0077082 0.00773027 0.00770266 0.00773036 0.00772026 0.00770901 0.00772307 0.00774211 0.00771795 0.00774247 0.00773321 0.00772435 0.00773589 0.00775291 0.00773144 0.00775339 0.00774471 0.00773746 0.00774722 0.00776248 0.00774312 0.00776293 0.00775462 0.00774852 0.00775689 0.00777057 0.00775337 0.0077712 0.00776329 0.00775819 0.00776549 0.00777747 0.00776203 0.00777827 0.00777085 0.00776646 0.00777287 0.00778342 0.00776964 0.00778417 0.00777732 0.00777343 0.00777909 0.00778855 0.00777637 0.00778946 0.00778321 0.00777984 0.0077846 0.00779304 0.00778217 0.00779384 0.0077881 0.00778539 0.00778933 0.00779666 0.00778716 0.00779748 0.00779251 0.00779007 0.00779378 0.0078001 0.00779167 0.00780084 0.00779638 0.00779434 0.00779747 0.00780284 0.00779567 0.00780367 0.00779964 0.00779784 0.0078006 0.00780543 0.00779913 0.00780631 0.00780272 0.00780106 0.00780325 0.00780759 0.00780211 0.00780809 0.00780518 0.00780399 0.00780596 0.00780922 0.00780466 0.00780989 0.00780733 0.00780629 0.00780815 0.00781063 0.00780697 0.0078115 0.00780897 0.00780844 0.0078098 0.00781184 0.00780912 0.00781233 0.0078108 0.00780999 0.00781129 0.00781272 0.0078104 0.00781352 0.00781163 0.00781156 0.00781245 0.00781361 0.00781168 0.00781411 0.0078129 0.0078127 0.00781323 0.00781387 0.00781261 0.00781463 0.00781354 0.00781394 0.00781401 0.00781446 0.00781331 0.00781466 0.00781406 0.00781414 0.00781455 0.00781472 0.00781411 0.00781481 0.00781456 0.00781472 0.00781469 0.00781474 0.00781446 0.00781476 0.00781445 0.00781487 0.00781457 0.00781417 0.00781432 0.00781463 0.00781435 0.00781461 0.00781453 0.00781383 0.00781392 0.00781425 0.00781411 0.00781429 0.00781419 0.00781364 0.00781378 0.00781402 0.00781394 0.00781414 0.00781423 0.00781321 0.00781355 0.00781348 0.0078136 0.0078139 0.00781372 0.00783433 0.00775617 0.00782841 0.00778401 0.00773339 0.0077692 0.00780554 0.00774741 0.00780613 0.00777064 0.00773137 0.00776118 0.00778795 0.00774374 0.00779016 0.00776647 0.00773791 0.00776192 0.00778229 0.00774636 0.00778451 0.00776864 0.00774689 0.00776622 0.00778363 0.00775267 0.00778525 0.00777302 0.00775628 0.00777179 0.00778794 0.00776056 0.00778917 0.00777847 0.007765 0.00777807 0.00779295 0.0077685 0.007794 0.00778428 0.00777319 0.00778433 0.00779788 0.00777607 0.00779893 0.00778977 0.00778051 0.0077902 0.00780238 0.00778271 0.00780365 0.00779498 0.00778705 0.00779535 0.00780619 0.00778858 0.00780762 0.00779954 0.00779257 0.00779986 0.00780938 0.00779356 0.00781077 0.00780323 0.00779709 0.00780367 0.00781196 0.00779784 0.00781334 0.00780651 0.00780104 0.00780668 0.00781405 0.00780144 0.00781529 0.00780926 0.00780429 0.00780921 0.00781549 0.00780446 0.00781691 0.00781144 0.00780702 0.00781147 0.00781682 0.00780694 0.00781828 0.0078132 0.00780918 0.00781313 0.00781788 0.007809 0.00781919 0.00781453 0.00781107 0.00781438 0.00781833 0.00781079 0.00781945 0.00781568 0.00781245 0.00781563 0.00781867 0.00781236 0.00781983 0.00781637 0.00781399 0.00781639 0.00781884 0.00781362 0.00782016 0.00781722 0.00781496 0.00781685 0.00781898 0.0078142 0.00782003 0.00781751 0.00781573 0.00781745 0.00781886 0.00781514 0.00781968 0.00781759 0.00781632 0.00781755 0.00781884 0.00781533 0.00781945 0.00781758 0.00781657 0.00781756 0.0078185 0.00781599 0.00781908 0.00781768 0.00781676 0.00781768 0.00781794 0.0078158 0.00781885 0.00781782 0.00781675 0.00781756 0.00781746 0.00781624 0.00781806 0.00781746 0.00781667 0.00781742 0.00781699 0.00781599 0.00781727 0.00781678 0.00781656 0.00781681 0.00781627 0.0078157 0.00781693 0.00781652 0.00781608 0.00781635 0.00781586 0.0078153 0.0078163 0.00781582 0.00781575 0.0078158 0.00781482 0.00781516 0.0078152 0.0078151 0.00781503 0.0078151 0.00781408 0.00781449 0.00781444 0.00781467 0.00781457 0.00781454 0.00781363 0.00781384 0.00781392 0.00781385 0.00781391 0.00781378 0.00781288 0.00781351 0.00781287 0.00781291 0.00781328 0.00781313 0.007977 0.00790209 0.00798968 0.00794272 0.00787979 0.00791262 0.00791113 0.00785751 0.00793116 0.00789448 0.00784506 0.00787217 0.00787212 0.00783095 0.00788506 0.00786132 0.00782622 0.00784834 0.00785379 0.00781947 0.00786025 0.00784415 0.00781924 0.00783665 0.00784626 0.00781601 0.00784954 0.00783676 0.00781805 0.00783222 0.00784349 0.00781633 0.0078457 0.00783418 0.00781928 0.00783126 0.00784269 0.00781813 0.00784452 0.0078338 0.0078213 0.00783171 0.00784264 0.00782054 0.00784435 0.00783439 0.0078236 0.00783256 0.00784253 0.00782257 0.00784449 0.00783513 0.00782542 0.00783367 0.00784231 0.00782438 0.00784419 0.0078358 0.00782714 0.0078344 0.00784176 0.00782572 0.00784369 0.00783605 0.00782809 0.00783456 0.00784079 0.00782666 0.0078429 0.00783586 0.00782876 0.00783452 0.00783984 0.00782709 0.00784188 0.00783554 0.00782919 0.00783424 0.00783851 0.00782726 0.00784047 0.00783483 0.00782913 0.00783353 0.00783714 0.00782711 0.00783889 0.00783379 0.00782885 0.0078327 0.00783569 0.00782686 0.00783736 0.00783284 0.00782823 0.00783176 0.00783408 0.00782633 0.00783576 0.00783161 0.00782749 0.00783066 0.00783237 0.00782574 0.00783391 0.00783048 0.00782705 0.00782949 0.0078306 0.007825 0.00783196 0.00782921 0.00782605 0.00782839 0.007829 0.00782399 0.00783033 0.00782765 0.00782521 0.007827 0.00782719 0.00782332 0.00782831 0.00782645 0.00782398 0.00782592 0.0078256 0.00782239 0.00782683 0.00782508 0.00782301 0.00782452 0.00782396 0.00782145 0.00782513 0.00782368 0.00782195 0.00782321 0.00782231 0.00782039 0.00782366 0.00782241 0.00782081 0.00782171 0.00782085 0.00781952 0.00782195 0.00782092 0.00782007 0.00782036 0.0078197 0.00781824 0.0078204 0.0078199 0.00781878 0.00781911 0.00781799 0.00781745 0.00781857 0.0078185 0.00781787 0.007818 0.00781687 0.00781665 0.00781748 0.00781728 0.00781688 0.00781694 0.0078157 0.00781565 0.00781625 0.00781602 0.00781585 0.00781562 0.00781453 0.00781476 0.00781454 0.00781487 0.00781471 0.0078148 0.00781352 0.00781382 0.00781373 0.00781362 0.00781364 0.00781364 0.00781218 0.00781261 0.00781248 0.0078126 0.00781256 0.00781232 0.00810707 0.00803756 0.00815366 0.00809562 0.0080164 0.00804578 0.00799982 0.00795489 0.00804314 0.00800704 0.00794665 0.00797264 0.00794464 0.00790839 0.00796533 0.00794699 0.00790587 0.00792703 0.00791876 0.00788643 0.00792676 0.00791376 0.00788596 0.00790255 0.00790531 0.00787583 0.00790906 0.00789661 0.00787643 0.00788969 0.00789726 0.00787015 0.00789986 0.0078877 0.00787161 0.00788261 0.00789144 0.00786697 0.0078939 0.0078824 0.00786865 0.00787818 0.00788682 0.00786443 0.00788938 0.00787839 0.00786632 0.00787486 0.00788245 0.00786229 0.00788508 0.00787499 0.00786415 0.0078718 0.00787812 0.0078601 0.00788068 0.00787185 0.00786193 0.00786875 0.00787411 0.0078577 0.00787662 0.00786856 0.00785938 0.00786572 0.00786993 0.00785544 0.00787248 0.00786517 0.00785688 0.00786252 0.0078657 0.00785269 0.00786811 0.00786177 0.00785415 0.00785918 0.00786151 0.00785004 0.00786407 0.00785827 0.00785132 0.00785566 0.00785739 0.00784732 0.00785964 0.00785466 0.0078484 0.00785252 0.00785355 0.00784477 0.00785559 0.00785128 0.00784573 0.0078492 0.00784957 0.00784211 0.00785167 0.00784798 0.00784294 0.00784588 0.00784593 0.00783916 0.00784789 0.0078446 0.00784001 0.00784279 0.00784236 0.00783681 0.00784417 0.00784131 0.00783749 0.00783975 0.00783903 0.0078341 0.00784078 0.00783841 0.00783476 0.00783662 0.00783573 0.00783148 0.00783722 0.00783529 0.00783215 0.00783385 0.00783243 0.00782952 0.00783386 0.00783243 0.00782969 0.00783111 0.00782965 0.00782703 0.00783104 0.00782957 0.00782736 0.00782874 0.00782696 0.00782507 0.00782815 0.00782735 0.00782536 0.00782619 0.00782417 0.00782303 0.00782535 0.00782492 0.00782318 0.00782395 0.00782205 0.00782121 0.00782296 0.00782277 0.00782132 0.00782169 0.00782002 0.00781939 0.0078207 0.00782046 0.00781958 0.00781986 0.00781802 0.00781798 0.00781834 0.00781871 0.00781759 0.00781804 0.00781626 0.00781635 0.00781689 0.00781713 0.00781641 0.00781648 0.00781491 0.00781484 0.00781509 0.00781556 0.00781495 0.00781506 0.00781331 0.00781359 0.00781343 0.00781409 0.00781344 0.00781336 0.00781203 0.00781238 0.00781182 0.00781219 0.00781168 0.00781166 0.00820732 0.00815368 0.00832419 0.00824524 0.00813991 0.00816596 0.00806198 0.00803254 0.00812486 0.00810225 0.00802985 0.00805723 0.0080052 0.00797507 0.0080222 0.00801809 0.00797351 0.00799485 0.00797862 0.0079481 0.00798421 0.00797559 0.00794663 0.00796232 0.00796226 0.00793276 0.00796593 0.00795314 0.00793228 0.0079444 0.00795005 0.00792261 0.0079532 0.00793956 0.00792283 0.007933 0.00793978 0.00791474 0.00794296 0.00793002 0.00791534 0.00792431 0.00793078 0.00790799 0.00793393 0.00792197 0.00790878 0.00791683 0.00792224 0.00790177 0.00792534 0.00791471 0.00790254 0.00790992 0.00791419 0.00789567 0.00791723 0.00790772 0.00789646 0.00790304 0.00790636 0.00788985 0.00790935 0.00790089 0.00789058 0.00789665 0.00789853 0.00788397 0.00790147 0.00789415 0.00788462 0.00789014 0.00789138 0.00787839 0.00789417 0.00788758 0.00787901 0.00788379 0.00788434 0.00787287 0.00788694 0.00788132 0.00787326 0.00787759 0.00787759 0.00786757 0.00788016 0.00787526 0.00786805 0.00787197 0.00787117 0.00786228 0.00787353 0.00786931 0.00786273 0.00786627 0.00786513 0.00785751 0.00786748 0.00786375 0.00785769 0.00786064 0.00785925 0.00785303 0.00786149 0.00785825 0.00785316 0.00785561 0.00785369 0.00784835 0.0078558 0.00785325 0.00784851 0.00785066 0.0078486 0.00784395 0.00785043 0.00784837 0.00784423 0.00784615 0.00784387 0.00784011 0.00784534 0.00784386 0.00784025 0.00784185 0.00783922 0.00783626 0.00784083 0.00783956 0.00783622 0.00783754 0.00783484 0.00783257 0.0078364 0.00783559 0.00783259 0.00783377 0.00783097 0.0078295 0.00783246 0.00783208 0.00782938 0.00783025 0.00782754 0.00782633 0.00782857 0.00782826 0.00782645 0.00782717 0.00782448 0.00782351 0.00782538 0.00782532 0.0078236 0.007824 0.00782131 0.00782108 0.00782204 0.00782245 0.00782103 0.00782146 0.00781885 0.00781899 0.0078194 0.00781994 0.00781874 0.00781912 0.00781656 0.00781687 0.00781718 0.00781758 0.00781669 0.00781668 0.00781504 0.00781528 0.00781526 0.00781566 0.00781518 0.00781507 0.00781332 0.0078138 0.00781333 0.00781406 0.00781342 0.00781361 0.00781208 0.00781205 0.00781168 0.00781248 0.0078116 0.00781137 0.00825397 0.0082248 0.00858074 0.0084092 0.0082311 0.00827274 0.00809251 0.00808238 0.00808135 0.00815458 0.00808148 0.00810823 0.00805933 0.00803133 0.00805939 0.00806625 0.00802935 0.00804648 0.00803696 0.00800549 0.00804171 0.00802943 0.00800364 0.0080171 0.00801861 0.00798807 0.00802293 0.00800765 0.00798663 0.00799818 0.00800278 0.00797437 0.00800654 0.00799148 0.00797336 0.0079833 0.00798843 0.00796233 0.00799178 0.00797804 0.00796169 0.00797058 0.00797489 0.00795138 0.0079781 0.00796593 0.007951 0.00795895 0.00796223 0.00794106 0.00796509 0.00795452 0.00794058 0.00794784 0.00795005 0.00793098 0.00795277 0.00794336 0.00793056 0.00793711 0.00793831 0.00792149 0.00794097 0.00793286 0.00792115 0.00792712 0.00792747 0.00791245 0.0079299 0.00792298 0.00791195 0.00791743 0.00791687 0.00790367 0.00791923 0.00791328 0.00790324 0.00790798 0.00790702 0.00789521 0.00790915 0.00790394 0.00789476 0.00789912 0.00789771 0.00788743 0.00789964 0.00789524 0.00788704 0.00789071 0.00788871 0.00787986 0.00789064 0.00788685 0.00787929 0.0078826 0.00788044 0.0078727 0.00788211 0.00787905 0.00787218 0.00787499 0.00787244 0.00786604 0.00787411 0.00787172 0.00786552 0.00786793 0.00786522 0.00785947 0.0078666 0.00786454 0.00785918 0.00786123 0.00785811 0.00785344 0.0078598 0.00785807 0.00785325 0.00785494 0.007852 0.0078478 0.00785308 0.00785186 0.00784749 0.00784919 0.00784566 0.0078426 0.00784697 0.0078461 0.00784221 0.00784373 0.00784026 0.00783768 0.00784153 0.00784073 0.00783751 0.00783841 0.00783486 0.00783335 0.00783601 0.00783594 0.00783302 0.00783376 0.00783033 0.00782943 0.0078314 0.00783112 0.00782889 0.00782955 0.00782637 0.00782584 0.00782721 0.00782723 0.00782544 0.00782552 0.00782258 0.00782209 0.0078231 0.00782351 0.00782208 0.00782239 0.00781936 0.0078196 0.00781977 0.00782073 0.00781927 0.00781929 0.00781672 0.00781715 0.00781737 0.00781797 0.00781664 0.0078169 0.00781463 0.00781528 0.00781477 0.00781565 0.00781489 0.00781487 0.00781356 0.00781383 0.00781318 0.00781392 0.0078136 0.00781345 0.00781275 0.00781257 0.00781288 0.00781264 0.00781203 0.00781199 0.00733133 0.00712694 0.00723701 0.00708818 0.00727489 0.00723663 0.00743589 0.00741455 0.00739874 0.00736198 0.00741182 0.00740223 0.00750734 0.00746567 0.00749567 0.00746002 0.00746041 0.00747656 0.00754556 0.00750782 0.00753914 0.00752006 0.00750906 0.00753098 0.0075806 0.00755121 0.00757622 0.00756557 0.00755602 0.00757461 0.00761353 0.00758995 0.00761063 0.0076019 0.00759581 0.00761008 0.00764183 0.00762197 0.0076403 0.0076315 0.00762766 0.00763876 0.00766558 0.00764784 0.00766465 0.00765545 0.00765302 0.00766225 0.00768545 0.00766905 0.00768446 0.00767537 0.00767377 0.00768173 0.00770222 0.00768724 0.00770114 0.0076926 0.00769133 0.00769831 0.00771651 0.00770285 0.00771564 0.00770732 0.00770651 0.00771294 0.00772898 0.00771687 0.00772825 0.00772082 0.00772004 0.00772547 0.00774014 0.00772913 0.00773918 0.00773255 0.00773215 0.00773702 0.00774992 0.0077404 0.00774909 0.00774315 0.0077431 0.00774715 0.00775869 0.00775059 0.00775798 0.0077527 0.00775271 0.00775639 0.0077668 0.00775951 0.00776597 0.00776123 0.00776169 0.00776472 0.00777396 0.00776765 0.00777327 0.00776911 0.00776949 0.00777218 0.00778044 0.00777494 0.0077798 0.00777603 0.00777655 0.00777892 0.00778593 0.00778147 0.00778554 0.00778248 0.00778293 0.007785 0.00779108 0.00778725 0.00779074 0.00778791 0.00778862 0.00779039 0.00779548 0.00779265 0.00779502 0.00779272 0.00779358 0.00779529 0.00779948 0.007797 0.007799 0.00779707 0.00779826 0.00779933 0.00780283 0.00780113 0.00780244 0.00780098 0.00780196 0.00780288 0.00780581 0.00780451 0.00780548 0.00780424 0.00780556 0.00780599 0.00780834 0.0078075 0.00780813 0.00780699 0.00780801 0.00780854 0.00781031 0.00780992 0.00781009 0.00780935 0.00781069 0.0078107 0.00781214 0.00781187 0.00781182 0.00781141 0.00781246 0.00781238 0.00781311 0.00781337 0.00781295 0.00781247 0.00781381 0.00781357 0.00781386 0.00781407 0.00781368 0.00781358 0.0078146 0.00781387 0.00781396 0.00781447 0.00781391 0.00781376 0.00781492 0.00781418 0.00781376 0.00781436 0.00781382 0.00781387 0.00781397 0.00781389 0.00781328 0.00781306 0.00781338 0.00781308 0.00781272 0.00781287 0.00752815 0.00743271 0.00748008 0.00741871 0.00739334 0.00743866 0.00756477 0.00751635 0.00752638 0.00750701 0.00749898 0.00752898 0.00759786 0.00756224 0.00758243 0.00757166 0.007557 0.00758271 0.00762746 0.00759639 0.00762206 0.00761439 0.00759654 0.00761846 0.00765212 0.00762388 0.00765079 0.00764335 0.00762844 0.00764599 0.00767348 0.00764814 0.00767361 0.00766601 0.00765525 0.00766915 0.00769244 0.00766991 0.00769306 0.00768505 0.00767765 0.0076886 0.00770903 0.00768878 0.00770987 0.00770131 0.00769624 0.00770523 0.0077233 0.00770504 0.00772402 0.00771552 0.0077119 0.00771942 0.00773574 0.00771912 0.00773632 0.00772803 0.00772525 0.00773175 0.0077464 0.00773145 0.00774675 0.00773893 0.00773666 0.00774242 0.00775564 0.00774237 0.00775594 0.00774869 0.00774688 0.00775195 0.00776383 0.0077519 0.00776409 0.00775744 0.00775587 0.00776041 0.00777093 0.00776059 0.00777138 0.00776527 0.00776418 0.00776788 0.00777751 0.00776807 0.00777763 0.00777233 0.00777134 0.00777465 0.00778292 0.00777499 0.0077833 0.00777847 0.00777779 0.00778076 0.00778806 0.00778089 0.00778825 0.00778408 0.00778376 0.00778605 0.00779241 0.00778636 0.00779252 0.00778878 0.00778866 0.0077908 0.00779627 0.00779118 0.00779662 0.0077932 0.00779318 0.0077949 0.00779985 0.00779548 0.00779999 0.00779714 0.0077974 0.00779881 0.00780269 0.00779913 0.00780289 0.00780072 0.007801 0.00780204 0.00780533 0.00780229 0.00780545 0.00780341 0.00780416 0.0078049 0.00780739 0.00780528 0.0078077 0.00780613 0.00780683 0.00780717 0.00780936 0.00780754 0.00780964 0.00780824 0.0078089 0.00780937 0.00781086 0.0078094 0.00781107 0.0078098 0.00781064 0.00781099 0.00781249 0.00781131 0.00781247 0.00781143 0.00781253 0.00781216 0.00781286 0.00781246 0.00781295 0.00781258 0.00781337 0.00781314 0.00781359 0.00781354 0.00781381 0.0078134 0.00781422 0.00781414 0.0078139 0.00781393 0.00781388 0.00781353 0.00781446 0.00781407 0.00781402 0.00781433 0.00781397 0.00781367 0.00781432 0.00781411 0.00781373 0.00781377 0.00781393 0.00781355 0.00781397 0.00781385 0.00781322 0.00781346 0.00781347 0.00781345 0.00781381 0.00781389 0.00768737 0.00760738 0.00766386 0.007617 0.00757698 0.00761645 0.00769274 0.00763926 0.00767408 0.00764375 0.00761544 0.00764847 0.00769799 0.00765904 0.00768967 0.0076748 0.00764986 0.00767615 0.00770811 0.00767615 0.00770632 0.00769739 0.00767582 0.00769631 0.00772001 0.00769188 0.0077209 0.00771317 0.0076959 0.00771211 0.00773226 0.00770676 0.00773372 0.00772575 0.00771252 0.00772557 0.00774364 0.00772053 0.00774525 0.00773691 0.00772691 0.00773766 0.00775373 0.00773302 0.00775535 0.00774701 0.007739 0.00774836 0.00776298 0.00774407 0.00776439 0.00775607 0.00774974 0.00775769 0.00777089 0.00775389 0.00777209 0.00776432 0.00775894 0.00776582 0.00777783 0.00776237 0.00777882 0.00777152 0.00776695 0.00777314 0.00778366 0.00776986 0.00778455 0.00777772 0.00777378 0.00777928 0.00778871 0.00777647 0.00778967 0.00778331 0.00777988 0.00778469 0.00779306 0.00778227 0.00779401 0.00778818 0.00778531 0.00778948 0.00779678 0.00778745 0.00779773 0.00779251 0.00778993 0.00779363 0.00780022 0.00779182 0.00780106 0.00779637 0.00779435 0.00779751 0.00780316 0.0077955 0.00780376 0.00779971 0.00779778 0.0078005 0.00780544 0.00779908 0.00780608 0.00780263 0.00780116 0.0078036 0.00780745 0.00780202 0.00780828 0.00780505 0.00780401 0.00780578 0.00780932 0.00780454 0.00780981 0.00780702 0.00780637 0.0078078 0.0078108 0.00780679 0.0078113 0.00780903 0.00780843 0.00780952 0.00781172 0.00780857 0.0078125 0.0078104 0.00781012 0.00781096 0.00781295 0.00781018 0.00781321 0.00781162 0.00781142 0.00781242 0.00781342 0.00781167 0.00781381 0.00781271 0.00781278 0.00781321 0.00781406 0.00781253 0.00781463 0.00781356 0.00781354 0.00781371 0.00781431 0.00781341 0.007815 0.00781387 0.00781425 0.0078144 0.00781441 0.00781392 0.00781483 0.00781406 0.00781466 0.00781479 0.00781444 0.00781413 0.00781497 0.00781444 0.0078147 0.00781441 0.00781421 0.00781421 0.00781452 0.00781431 0.00781471 0.00781463 0.0078142 0.00781397 0.00781414 0.00781402 0.00781441 0.00781412 0.00781359 0.00781385 0.00781371 0.00781371 0.00781401 0.00781389 0.00781338 0.00781358 0.00781312 0.00781346 0.007814 0.00781332 0.00783602 0.0077602 0.0078286 0.00778737 0.00773456 0.00777135 0.00780634 0.00775273 0.00780655 0.00777349 0.00773378 0.00776357 0.00778935 0.0077497 0.00779161 0.00777044 0.00774155 0.00776485 0.00778413 0.00775163 0.00778692 0.00777362 0.0077508 0.00776915 0.00778535 0.00775687 0.00778799 0.00777782 0.00775959 0.00777437 0.0077892 0.00776382 0.00779173 0.00778233 0.00776792 0.00778011 0.00779423 0.00777083 0.00779629 0.00778727 0.00777548 0.00778576 0.0077988 0.00777776 0.00780071 0.00779189 0.00778213 0.00779123 0.0078032 0.0077841 0.0078049 0.00779661 0.00778817 0.0077961 0.00780682 0.00778943 0.00780857 0.00780067 0.00779319 0.00780036 0.0078098 0.00779437 0.00781148 0.00780413 0.00779768 0.00780385 0.00781242 0.00779834 0.00781393 0.00780711 0.00780119 0.00780682 0.0078142 0.00780181 0.0078157 0.00780964 0.00780454 0.00780937 0.00781592 0.00780477 0.00781723 0.00781171 0.00780709 0.00781157 0.00781702 0.0078071 0.00781837 0.0078134 0.00780939 0.00781329 0.00781789 0.00780928 0.00781919 0.00781483 0.00781127 0.00781461 0.00781839 0.00781099 0.00781979 0.00781565 0.00781273 0.00781563 0.00781886 0.00781206 0.00781994 0.00781652 0.00781403 0.00781641 0.00781901 0.00781346 0.00782005 0.00781699 0.00781511 0.00781714 0.00781921 0.00781421 0.00781992 0.00781759 0.00781538 0.00781732 0.00781898 0.00781497 0.00782003 0.00781767 0.00781619 0.0078177 0.0078185 0.00781538 0.00781947 0.00781754 0.00781648 0.00781763 0.00781835 0.00781568 0.00781901 0.00781763 0.00781668 0.00781751 0.00781811 0.0078158 0.00781859 0.00781738 0.00781677 0.00781731 0.00781753 0.00781625 0.00781815 0.0078172 0.00781651 0.00781689 0.0078168 0.0078159 0.00781743 0.00781661 0.00781649 0.00781679 0.00781607 0.00781573 0.00781674 0.00781645 0.00781612 0.00781629 0.00781556 0.00781536 0.00781592 0.0078159 0.0078157 0.00781595 0.00781486 0.00781505 0.00781503 0.00781512 0.00781499 0.00781515 0.0078143 0.00781433 0.00781448 0.0078143 0.0078145 0.00781443 0.00781356 0.00781391 0.0078133 0.00781381 0.00781399 0.0078135 0.0078128 0.00781329 0.00781264 0.00781315 0.00781348 0.00781327 0.00797635 0.00790148 0.00798724 0.00794457 0.00787748 0.00791314 0.00790871 0.00785613 0.007928 0.00789304 0.007844 0.00787177 0.00787061 0.00783171 0.00788353 0.0078602 0.00782731 0.00784843 0.00785371 0.00782145 0.00786042 0.00784508 0.00782131 0.00783771 0.00784688 0.00781833 0.0078507 0.0078388 0.00782026 0.00783364 0.00784441 0.00781861 0.00784729 0.00783658 0.00782122 0.00783247 0.00784352 0.00782016 0.00784608 0.00783588 0.0078232 0.00783281 0.00784343 0.00782202 0.00784586 0.0078362 0.00782501 0.00783376 0.00784322 0.00782392 0.00784556 0.00783661 0.00782672 0.00783436 0.00784298 0.00782557 0.00784512 0.0078369 0.00782787 0.00783501 0.00784214 0.00782667 0.00784451 0.00783684 0.00782869 0.00783507 0.0078413 0.00782723 0.00784347 0.00783665 0.00782941 0.00783497 0.00784033 0.00782761 0.00784239 0.00783602 0.00782936 0.00783448 0.00783886 0.00782764 0.00784102 0.00783529 0.00782927 0.00783385 0.00783732 0.0078275 0.00783931 0.00783427 0.00782902 0.00783302 0.00783578 0.00782715 0.0078376 0.00783317 0.00782841 0.00783203 0.00783436 0.0078266 0.00783586 0.00783185 0.00782768 0.00783087 0.00783258 0.00782574 0.00783403 0.00783066 0.00782698 0.0078295 0.00783066 0.00782522 0.00783233 0.00782945 0.00782615 0.00782833 0.007829 0.00782427 0.00783054 0.00782797 0.00782536 0.00782717 0.00782724 0.00782346 0.00782873 0.00782654 0.00782419 0.00782587 0.0078257 0.00782256 0.00782683 0.00782499 0.00782308 0.00782443 0.00782388 0.00782162 0.00782503 0.00782371 0.00782216 0.00782307 0.00782265 0.00782038 0.00782332 0.00782221 0.00782098 0.00782182 0.00782079 0.00781954 0.00782195 0.00782094 0.00781982 0.00782032 0.00781966 0.0078184 0.00782022 0.00782008 0.00781892 0.00781941 0.00781821 0.0078175 0.00781906 0.00781858 0.00781762 0.00781789 0.0078171 0.00781663 0.00781747 0.00781731 0.0078169 0.00781702 0.0078157 0.00781552 0.00781654 0.00781616 0.00781614 0.00781572 0.00781454 0.00781454 0.00781478 0.00781523 0.00781472 0.00781456 0.00781332 0.00781348 0.00781354 0.00781384 0.00781379 0.00781345 0.00781226 0.00781258 0.00781225 0.00781259 0.00781239 0.00781188 0.00810462 0.00803274 0.00814884 0.0080968 0.00801107 0.00804517 0.00799474 0.00794772 0.008037 0.00800237 0.00794268 0.00796961 0.0079413 0.00790495 0.00796115 0.00794147 0.0079044 0.0079249 0.00791728 0.00788594 0.00792507 0.00791103 0.00788612 0.00790171 0.00790506 0.00787662 0.0079089 0.00789649 0.00787748 0.0078898 0.00789759 0.00787158 0.00790047 0.00788858 0.00787295 0.00788335 0.00789202 0.00786827 0.00789497 0.00788356 0.0078699 0.007879 0.00788748 0.00786572 0.00789025 0.00787983 0.00786734 0.0078756 0.00788284 0.00786356 0.00788588 0.00787629 0.00786511 0.00787246 0.00787874 0.00786113 0.00788152 0.00787288 0.00786262 0.00786925 0.00787459 0.00785869 0.00787728 0.00786944 0.00786008 0.00786611 0.0078703 0.00785621 0.00787284 0.00786596 0.00785736 0.00786284 0.0078659 0.00785338 0.00786853 0.00786228 0.00785449 0.00785946 0.00786187 0.00785073 0.00786434 0.0078588 0.00785171 0.00785598 0.00785767 0.00784794 0.00786009 0.00785519 0.00784886 0.00785269 0.00785377 0.00784514 0.00785605 0.00785153 0.0078459 0.00784931 0.00784975 0.00784232 0.00785197 0.00784815 0.00784295 0.00784626 0.00784609 0.00783947 0.00784829 0.00784479 0.00784021 0.00784274 0.00784236 0.0078369 0.00784429 0.00784134 0.00783744 0.00783975 0.00783901 0.00783431 0.00784076 0.00783834 0.00783485 0.00783656 0.00783581 0.00783174 0.00783722 0.00783523 0.00783222 0.00783396 0.00783266 0.00782948 0.0078341 0.00783251 0.00782989 0.00783119 0.00782971 0.0078273 0.00783106 0.0078298 0.00782746 0.00782873 0.0078272 0.007825 0.00782829 0.00782743 0.0078253 0.00782615 0.00782438 0.00782312 0.00782558 0.00782486 0.00782287 0.00782365 0.00782209 0.00782115 0.00782318 0.00782257 0.00782144 0.00782183 0.00781971 0.00781957 0.0078208 0.00782066 0.00781952 0.00781978 0.00781798 0.0078178 0.00781879 0.0078188 0.00781781 0.00781818 0.00781651 0.00781662 0.00781697 0.00781719 0.00781625 0.00781667 0.00781504 0.00781487 0.0078153 0.00781549 0.00781494 0.0078149 0.00781369 0.00781385 0.00781369 0.00781387 0.00781356 0.00781336 0.00781187 0.00781243 0.00781174 0.00781217 0.00781171 0.00781171 0.00820313 0.00814571 0.00831821 0.00824646 0.00813251 0.0081642 0.00805558 0.0080217 0.00811664 0.00809495 0.00802399 0.00805268 0.00800063 0.00796873 0.00801647 0.00800972 0.00797032 0.0079912 0.0079762 0.00794533 0.00798105 0.00797034 0.00794534 0.00796048 0.00796114 0.00793217 0.00796436 0.00795107 0.00793213 0.00794374 0.00794966 0.00792291 0.00795264 0.00793931 0.00792318 0.0079331 0.00793988 0.00791558 0.00794302 0.00793053 0.00791594 0.00792467 0.00793102 0.00790872 0.00793438 0.00792277 0.00790946 0.00791731 0.00792259 0.00790265 0.00792595 0.00791561 0.00790328 0.00791039 0.00791443 0.00789657 0.00791779 0.00790847 0.00789708 0.00790353 0.00790653 0.00789051 0.0079099 0.00790167 0.00789111 0.00789699 0.00789885 0.00788458 0.00790216 0.00789481 0.00788521 0.00789052 0.00789168 0.007879 0.00789467 0.00788823 0.00787926 0.00788427 0.00788457 0.00787345 0.00788743 0.00788187 0.00787369 0.007878 0.0078777 0.00786796 0.00788045 0.00787566 0.00786834 0.00787215 0.0078714 0.00786269 0.00787386 0.00786967 0.00786304 0.00786644 0.00786529 0.00785787 0.00786769 0.00786391 0.00785802 0.00786101 0.00785934 0.00785312 0.0078617 0.00785843 0.00785312 0.00785577 0.0078539 0.00784834 0.00785595 0.00785343 0.0078486 0.00785069 0.00784885 0.00784409 0.00785057 0.00784858 0.00784435 0.0078462 0.00784397 0.00784006 0.00784564 0.007844 0.00784022 0.00784199 0.00783945 0.00783625 0.00784114 0.0078395 0.00783636 0.00783784 0.00783541 0.00783294 0.00783686 0.00783573 0.00783275 0.00783383 0.00783143 0.00782937 0.00783255 0.00783199 0.00782931 0.00783044 0.00782749 0.00782655 0.00782889 0.00782844 0.00782636 0.00782715 0.0078246 0.00782372 0.00782553 0.00782541 0.0078238 0.00782429 0.00782148 0.00782126 0.00782225 0.00782242 0.00782094 0.00782149 0.0078189 0.00781898 0.0078199 0.0078201 0.00781856 0.00781904 0.00781688 0.00781706 0.00781735 0.00781793 0.00781683 0.00781706 0.00781487 0.00781519 0.00781545 0.0078157 0.00781517 0.00781516 0.00781358 0.00781388 0.00781354 0.00781391 0.00781336 0.00781338 0.00781212 0.00781213 0.00781197 0.00781217 0.00781173 0.00781165 0.00824615 0.00821531 0.00856771 0.00840561 0.00822291 0.00826949 0.00808569 0.00806984 0.00807226 0.00814578 0.0080742 0.0081031 0.00805395 0.00802322 0.00805251 0.00805736 0.00802482 0.00804252 0.00803349 0.00800122 0.00803708 0.0080235 0.00800099 0.00801466 0.00801657 0.00798594 0.00802006 0.00800422 0.00798539 0.00799684 0.00800169 0.00797334 0.00800485 0.00798988 0.00797291 0.00798295 0.00798781 0.0079621 0.00799088 0.00797757 0.00796172 0.0079705 0.0079748 0.00795145 0.00797776 0.0079659 0.007951 0.00795905 0.00796203 0.00794122 0.00796513 0.00795476 0.00794085 0.00794818 0.00794998 0.00793144 0.00795311 0.00794394 0.00793108 0.00793753 0.00793847 0.00792197 0.00794114 0.00793345 0.00792135 0.00792721 0.00792757 0.00791293 0.00793001 0.00792315 0.00791227 0.00791761 0.00791708 0.00790397 0.00791954 0.00791375 0.00790362 0.00790828 0.00790738 0.00789568 0.00790929 0.00790417 0.00789528 0.00789933 0.0078979 0.0078879 0.00790001 0.00789555 0.00788725 0.00789104 0.00788904 0.00788019 0.0078908 0.0078872 0.00787965 0.00788294 0.00788061 0.00787306 0.00788254 0.00787932 0.00787251 0.00787528 0.00787271 0.00786628 0.00787442 0.00787185 0.00786559 0.00786818 0.00786529 0.00785982 0.00786695 0.00786475 0.0078592 0.0078613 0.00785844 0.00785383 0.00786003 0.00785825 0.00785333 0.00785514 0.00785206 0.00784828 0.00785327 0.00785217 0.00784755 0.00784927 0.00784599 0.00784292 0.00784732 0.00784631 0.00784242 0.00784378 0.00784064 0.00783806 0.0078415 0.00784128 0.00783761 0.0078388 0.00783546 0.00783355 0.00783642 0.00783605 0.00783317 0.00783395 0.00783056 0.00782972 0.00783161 0.00783167 0.00782905 0.0078297 0.00782655 0.00782582 0.00782722 0.00782769 0.00782535 0.00782578 0.00782276 0.00782257 0.00782323 0.00782403 0.00782211 0.00782242 0.00781946 0.00781968 0.0078202 0.0078207 0.00781942 0.00781949 0.00781701 0.00781751 0.00781723 0.00781816 0.00781717 0.00781699 0.00781491 0.00781566 0.00781491 0.0078157 0.00781514 0.00781485 0.00781357 0.00781406 0.00781375 0.00781429 0.0078139 0.00781358 0.00781273 0.00781248 0.0078131 0.00781265 0.00781172 0.0078121 0.0073618 0.00719129 0.00726071 0.00712077 0.00730706 0.0072702 0.00746616 0.00745353 0.00742588 0.00739591 0.0074349 0.00743054 0.00752964 0.0074958 0.00752011 0.00750132 0.00748403 0.0075018 0.00756195 0.00753131 0.00755976 0.00755278 0.00752933 0.00755024 0.0075921 0.00756794 0.00759191 0.00758714 0.00757093 0.00758747 0.00762091 0.0076003 0.00762131 0.00761464 0.00760503 0.00761763 0.00764624 0.00762752 0.00764672 0.00763787 0.00763253 0.00764246 0.00766799 0.0076505 0.00766802 0.00765818 0.00765523 0.00766359 0.00768643 0.00766995 0.00768601 0.0076762 0.00767436 0.00768194 0.00770231 0.00768697 0.0077016 0.0076923 0.00769135 0.00769782 0.00771639 0.00770226 0.00771536 0.00770685 0.00770604 0.00771208 0.00772859 0.0077161 0.00772763 0.00771966 0.0077193 0.00772486 0.0077396 0.00772827 0.0077387 0.00773157 0.00773154 0.00773626 0.00774952 0.00773953 0.00774846 0.00774223 0.0077421 0.0077465 0.00775836 0.0077497 0.00775744 0.00775189 0.00775216 0.00775586 0.00776646 0.00775868 0.00776556 0.00776061 0.00776096 0.00776421 0.00777356 0.00776676 0.00777266 0.00776863 0.00776901 0.0077716 0.00777994 0.00777427 0.00777906 0.00777532 0.00777608 0.00777842 0.0077857 0.00778092 0.00778504 0.00778181 0.0077825 0.00778427 0.00779061 0.00778683 0.00779014 0.00778727 0.00778832 0.00778984 0.00779518 0.00779191 0.00779458 0.00779226 0.00779318 0.0077945 0.0077992 0.00779626 0.00779858 0.00779651 0.00779766 0.0077987 0.00780252 0.00780028 0.00780206 0.00780033 0.00780165 0.00780247 0.00780551 0.00780406 0.00780517 0.00780389 0.00780491 0.00780533 0.00780795 0.00780722 0.00780777 0.00780654 0.00780767 0.00780809 0.00780998 0.00780955 0.00780986 0.00780871 0.0078103 0.00781019 0.00781196 0.00781138 0.0078115 0.00781069 0.0078119 0.00781191 0.00781279 0.00781305 0.00781265 0.00781218 0.00781337 0.00781303 0.00781369 0.00781372 0.00781357 0.0078131 0.00781398 0.00781351 0.00781366 0.00781432 0.00781393 0.00781369 0.00781444 0.0078142 0.00781364 0.00781392 0.0078139 0.00781335 0.00781406 0.00781342 0.00781304 0.00781307 0.00781343 0.00781327 0.00781272 0.00781288 0.00754437 0.00746224 0.00748961 0.0074262 0.00741153 0.00745552 0.00758611 0.0075579 0.00754536 0.0075318 0.00752203 0.00755179 0.00761694 0.00759465 0.00760429 0.00760694 0.00757907 0.00760442 0.00764159 0.00761806 0.00764069 0.00764274 0.00761487 0.00763482 0.00766207 0.00763779 0.00766446 0.00766202 0.0076414 0.0076572 0.00768017 0.00765694 0.00768296 0.00767722 0.00766368 0.00767589 0.00769671 0.00767525 0.00769905 0.0076911 0.00768259 0.0076925 0.00771165 0.00769184 0.00771347 0.00770464 0.00769893 0.00770731 0.00772494 0.00770662 0.0077262 0.00771713 0.00771309 0.00772037 0.00773657 0.00771993 0.00773736 0.00772869 0.00772568 0.00773222 0.00774692 0.00773188 0.00774742 0.00773922 0.00773687 0.00774262 0.00775602 0.00774235 0.00775629 0.00774869 0.00774675 0.00775204 0.00776387 0.00775192 0.00776404 0.00775735 0.00775575 0.00776019 0.00777101 0.00776025 0.00777116 0.00776513 0.00776369 0.00776784 0.00777726 0.00776775 0.00777751 0.00777195 0.00777103 0.00777438 0.0077828 0.00777457 0.00778311 0.00777829 0.00777744 0.00778038 0.00778799 0.00778062 0.00778808 0.00778356 0.00778335 0.00778588 0.00779235 0.00778605 0.00779259 0.00778858 0.00778837 0.00779048 0.00779609 0.00779078 0.00779624 0.00779294 0.00779302 0.00779486 0.0077996 0.00779504 0.00779981 0.0077967 0.00779707 0.00779868 0.00780259 0.00779885 0.00780265 0.00780032 0.00780082 0.00780166 0.00780508 0.00780213 0.00780502 0.00780313 0.00780372 0.00780461 0.00780757 0.00780492 0.00780741 0.00780548 0.00780637 0.00780702 0.00780918 0.00780727 0.00780914 0.00780756 0.00780872 0.007809 0.00781055 0.0078094 0.00781081 0.0078097 0.00781048 0.00781057 0.00781197 0.00781139 0.00781211 0.007811 0.00781188 0.00781186 0.00781273 0.00781234 0.00781276 0.00781207 0.00781308 0.00781285 0.0078132 0.00781339 0.00781342 0.00781295 0.00781377 0.00781354 0.00781374 0.00781379 0.00781369 0.00781327 0.0078142 0.00781409 0.0078137 0.00781385 0.00781375 0.00781364 0.00781408 0.00781382 0.00781379 0.0078139 0.00781356 0.00781361 0.00781405 0.00781375 0.00781353 0.00781368 0.00781357 0.00781332 0.00781368 0.00781347 0.00769568 0.00762326 0.00766878 0.00762292 0.00758486 0.00762647 0.00770392 0.00766655 0.00768391 0.0076595 0.00763152 0.00766318 0.0077097 0.0076828 0.00770362 0.00769759 0.00766778 0.00769084 0.00771814 0.00769362 0.00771991 0.00771704 0.00769082 0.00770821 0.00772805 0.00770399 0.0077318 0.00772689 0.00770683 0.00772066 0.00773802 0.0077149 0.00774172 0.00773475 0.00771997 0.00773146 0.00774774 0.007726 0.00775067 0.00774267 0.00773157 0.00774148 0.00775658 0.00773678 0.00775908 0.00775079 0.00774197 0.0077507 0.00776512 0.00774669 0.00776666 0.00775835 0.00775159 0.00775912 0.00777234 0.00775557 0.00777366 0.00776567 0.00775987 0.0077667 0.00777896 0.00776361 0.00777989 0.0077724 0.00776731 0.00777368 0.00778438 0.00777077 0.00778538 0.00777846 0.00777418 0.00777953 0.0077893 0.0077772 0.00779011 0.00778373 0.00778005 0.00778502 0.00779353 0.00778273 0.00779426 0.00778851 0.00778545 0.00778961 0.00779704 0.00778757 0.00779801 0.00779265 0.00778987 0.0077937 0.00780041 0.00779194 0.00780108 0.00779633 0.00779417 0.00779745 0.0078031 0.00779559 0.0078037 0.00779964 0.00779791 0.00780048 0.0078055 0.0077991 0.00780596 0.00780258 0.00780104 0.00780327 0.00780753 0.00780198 0.00780801 0.00780487 0.00780371 0.00780567 0.00780917 0.00780468 0.00780999 0.00780699 0.00780604 0.00780787 0.00781056 0.00780661 0.00781107 0.00780868 0.00780839 0.00780943 0.00781185 0.0078086 0.00781217 0.00781026 0.00780984 0.00781099 0.0078127 0.00781026 0.00781306 0.00781136 0.00781129 0.00781202 0.00781337 0.00781155 0.00781392 0.00781247 0.00781255 0.00781301 0.00781423 0.00781258 0.00781446 0.00781298 0.00781325 0.00781367 0.00781428 0.00781336 0.0078145 0.00781367 0.0078141 0.0078143 0.00781446 0.00781371 0.00781463 0.00781416 0.00781428 0.00781461 0.00781445 0.00781405 0.00781494 0.00781429 0.00781457 0.00781474 0.00781422 0.00781398 0.00781442 0.00781419 0.00781461 0.00781438 0.00781383 0.00781416 0.00781407 0.0078139 0.00781451 0.00781407 0.00781352 0.00781367 0.00781355 0.00781347 0.00781378 0.00781364 0.00781356 0.00781367 0.00781358 0.00781321 0.00781382 0.00781382 0.00783683 0.00776572 0.00782987 0.00779186 0.0077363 0.00777549 0.0078077 0.00776447 0.00780791 0.00777808 0.00774176 0.00776931 0.0077937 0.00776263 0.00779697 0.00778052 0.00775253 0.00777201 0.0077895 0.00776279 0.00779422 0.00778422 0.00776124 0.00777624 0.00779059 0.00776584 0.00779516 0.00778672 0.00776785 0.00778021 0.00779374 0.00777057 0.00779768 0.00778923 0.00777392 0.00778456 0.00779764 0.00777606 0.00780079 0.00779225 0.00777953 0.00778921 0.00780179 0.00778167 0.00780435 0.00779556 0.00778509 0.00779374 0.00780533 0.00778689 0.00780749 0.00779927 0.00779016 0.00779789 0.00780852 0.00779179 0.00781045 0.00780259 0.0077946 0.00780189 0.00781115 0.00779622 0.00781297 0.00780566 0.00779881 0.00780511 0.00781354 0.00779972 0.007815 0.00780815 0.00780205 0.00780779 0.00781524 0.00780295 0.00781662 0.00781043 0.00780505 0.00781009 0.00781641 0.00780561 0.00781793 0.00781227 0.00780769 0.00781212 0.00781761 0.00780797 0.00781886 0.00781377 0.0078096 0.00781343 0.00781829 0.00780982 0.0078194 0.00781502 0.00781135 0.00781473 0.0078188 0.00781131 0.00781986 0.00781582 0.00781281 0.0078158 0.00781904 0.00781251 0.00782022 0.00781655 0.00781414 0.00781648 0.00781911 0.00781353 0.00782019 0.00781722 0.00781489 0.00781719 0.0078191 0.00781458 0.00782005 0.00781744 0.00781543 0.0078173 0.00781916 0.00781513 0.00782005 0.00781765 0.0078161 0.00781772 0.00781856 0.0078154 0.00781967 0.00781766 0.00781642 0.00781756 0.00781833 0.00781573 0.00781903 0.00781745 0.00781677 0.00781765 0.00781811 0.00781598 0.00781858 0.00781734 0.00781672 0.00781749 0.00781768 0.007816 0.00781799 0.00781702 0.00781662 0.00781733 0.00781692 0.00781589 0.00781738 0.0078166 0.00781617 0.00781676 0.00781644 0.00781565 0.00781671 0.00781632 0.00781603 0.00781638 0.00781576 0.00781541 0.00781607 0.00781569 0.00781582 0.00781581 0.00781504 0.00781466 0.00781524 0.00781516 0.00781539 0.00781528 0.00781403 0.00781447 0.00781445 0.00781481 0.0078144 0.00781439 0.00781352 0.00781386 0.00781365 0.00781381 0.00781409 0.00781378 0.00781276 0.00781324 0.00781272 0.00781286 0.0078133 0.00781314 0.00796965 0.0078955 0.007984 0.0079466 0.00787294 0.00791148 0.0079008 0.00785286 0.00792111 0.0078863 0.00784357 0.00786855 0.00786822 0.00783422 0.00788059 0.00785779 0.00783105 0.00784849 0.00785493 0.00782665 0.0078619 0.00784766 0.0078267 0.00784011 0.0078496 0.00782381 0.00785421 0.00784306 0.00782546 0.00783688 0.00784737 0.00782375 0.00785104 0.007841 0.00782574 0.00783571 0.0078464 0.0078246 0.00784955 0.00783997 0.00782664 0.00783581 0.00784581 0.00782589 0.00784873 0.00783969 0.00782771 0.00783602 0.00784526 0.00782705 0.00784796 0.00783944 0.0078287 0.00783631 0.00784462 0.007828 0.00784706 0.00783905 0.00782952 0.00783656 0.00784357 0.00782853 0.0078459 0.00783855 0.00783006 0.00783643 0.00784262 0.00782908 0.00784472 0.00783801 0.00783036 0.00783594 0.00784107 0.00782898 0.0078432 0.0078371 0.00783024 0.00783529 0.00783959 0.00782894 0.00784166 0.00783607 0.00783003 0.00783435 0.0078379 0.00782863 0.00783976 0.00783496 0.00782945 0.00783339 0.00783619 0.00782771 0.00783805 0.00783362 0.00782885 0.00783243 0.00783453 0.00782719 0.00783615 0.00783257 0.00782815 0.00783115 0.00783279 0.00782635 0.00783437 0.00783102 0.00782713 0.00782984 0.00783104 0.00782553 0.00783237 0.00782947 0.00782619 0.00782852 0.00782938 0.00782466 0.00783063 0.00782825 0.0078253 0.00782732 0.00782753 0.00782361 0.0078289 0.00782662 0.00782415 0.00782578 0.00782578 0.00782278 0.00782693 0.00782535 0.00782312 0.00782447 0.00782418 0.00782171 0.00782517 0.00782389 0.00782191 0.0078231 0.00782266 0.00782067 0.00782347 0.00782232 0.00782121 0.00782189 0.00782111 0.00781962 0.00782192 0.00782113 0.00782002 0.00782084 0.00781989 0.00781882 0.00782052 0.00782004 0.007819 0.00781931 0.00781841 0.00781774 0.00781881 0.00781846 0.00781756 0.0078181 0.00781739 0.0078167 0.00781765 0.00781759 0.00781671 0.00781691 0.00781561 0.00781568 0.00781589 0.00781607 0.00781549 0.00781588 0.00781502 0.00781481 0.0078151 0.00781492 0.00781488 0.00781489 0.00781351 0.00781395 0.00781381 0.0078141 0.00781366 0.00781366 0.0078124 0.00781268 0.00781226 0.00781264 0.00781271 0.00781208 0.00809177 0.00801429 0.00814121 0.00809625 0.00800006 0.00803865 0.00798035 0.00793197 0.00802263 0.00798507 0.00793497 0.00795918 0.00793385 0.00789933 0.00795186 0.00792888 0.00790198 0.00791901 0.00791492 0.00788563 0.00792198 0.00790719 0.00788731 0.00790015 0.00790548 0.00787892 0.00790926 0.00789711 0.00787993 0.00789075 0.00789897 0.00787481 0.00790223 0.00789106 0.0078755 0.0078851 0.0078938 0.00787153 0.007897 0.00788633 0.00787259 0.00788107 0.00788936 0.00786876 0.00789233 0.00788247 0.00786968 0.00787753 0.00788458 0.0078662 0.00788777 0.00787867 0.00786704 0.00787425 0.00788017 0.00786346 0.00788332 0.00787494 0.00786424 0.00787097 0.00787576 0.00786079 0.00787867 0.00787123 0.00786128 0.00786745 0.00787129 0.00785782 0.00787416 0.00786726 0.0078584 0.00786381 0.00786702 0.00785473 0.00786961 0.00786348 0.00785534 0.00786021 0.0078627 0.00785185 0.00786523 0.00785964 0.00785216 0.00785664 0.00785845 0.00784869 0.00786077 0.00785579 0.00784913 0.0078532 0.00785436 0.00784574 0.00785657 0.00785212 0.00784626 0.00784991 0.00785017 0.0078429 0.00785226 0.0078487 0.00784344 0.00784649 0.00784659 0.00784007 0.00784843 0.00784528 0.00784048 0.00784309 0.00784288 0.00783746 0.00784469 0.00784177 0.00783794 0.00784024 0.0078394 0.00783473 0.00784091 0.00783862 0.00783498 0.00783683 0.00783596 0.00783222 0.0078374 0.00783544 0.00783243 0.00783414 0.00783286 0.00782992 0.00783438 0.00783279 0.00783002 0.00783122 0.00782989 0.00782736 0.0078312 0.00783007 0.00782766 0.00782888 0.00782739 0.00782551 0.00782834 0.00782734 0.00782551 0.00782615 0.00782455 0.00782331 0.00782563 0.00782505 0.00782336 0.00782415 0.00782223 0.00782137 0.0078232 0.00782297 0.00782137 0.00782194 0.0078203 0.00781986 0.00782089 0.00782094 0.00781967 0.00781993 0.00781826 0.00781805 0.0078189 0.00781869 0.00781813 0.00781869 0.00781656 0.00781639 0.00781699 0.00781708 0.0078164 0.00781648 0.00781484 0.00781515 0.00781534 0.00781576 0.00781492 0.00781509 0.00781349 0.00781391 0.00781369 0.00781423 0.00781338 0.00781345 0.00781208 0.00781238 0.00781196 0.00781239 0.00781169 0.00781183 0.00818729 0.00811786 0.0083097 0.00824668 0.00811675 0.00815481 0.0080386 0.00799816 0.00809821 0.00807089 0.00801139 0.00803738 0.00799076 0.00795814 0.00800404 0.00799111 0.00796358 0.00798154 0.0079715 0.00794176 0.0079753 0.00796236 0.00794313 0.00795628 0.00795951 0.00793182 0.00796229 0.00794895 0.00793222 0.00794285 0.00794951 0.00792417 0.00795255 0.00793972 0.00792434 0.0079335 0.00794057 0.00791738 0.0079438 0.00793196 0.00791757 0.00792587 0.00793191 0.00791099 0.00793531 0.00792453 0.00791111 0.00791862 0.00792363 0.0079047 0.00792698 0.00791721 0.00790457 0.00791179 0.00791551 0.00789849 0.00791892 0.0079101 0.00789829 0.00790484 0.0079075 0.00789216 0.00791073 0.00790303 0.00789227 0.00789794 0.00789995 0.00788616 0.007903 0.0078961 0.00788608 0.00789144 0.00789258 0.00788006 0.00789541 0.00788924 0.00788026 0.00788486 0.0078854 0.00787444 0.00788804 0.00788264 0.00787422 0.00787876 0.00787853 0.00786873 0.00788113 0.00787631 0.00786896 0.00787266 0.00787206 0.0078636 0.00787436 0.00787017 0.00786361 0.00786698 0.00786577 0.00785853 0.00786802 0.00786439 0.00785847 0.00786146 0.00785984 0.00785337 0.00786201 0.00785894 0.00785355 0.00785619 0.00785437 0.00784901 0.00785659 0.00785389 0.00784896 0.0078511 0.0078492 0.00784482 0.007851 0.00784901 0.0078449 0.00784659 0.00784433 0.00784064 0.00784601 0.0078444 0.00784053 0.00784206 0.00783962 0.00783692 0.00784117 0.00784015 0.0078367 0.00783799 0.00783557 0.00783334 0.0078368 0.00783596 0.00783303 0.00783419 0.00783167 0.00782985 0.0078328 0.0078321 0.0078296 0.00783061 0.00782798 0.0078269 0.00782928 0.00782874 0.0078265 0.00782725 0.00782484 0.007824 0.00782567 0.00782543 0.00782377 0.00782428 0.00782194 0.00782143 0.00782257 0.00782273 0.00782139 0.0078215 0.00781937 0.00781907 0.00781992 0.00782018 0.00781907 0.00781926 0.0078172 0.00781728 0.00781748 0.00781799 0.00781702 0.00781693 0.00781512 0.00781585 0.00781566 0.00781596 0.00781519 0.00781523 0.00781354 0.00781411 0.00781397 0.00781441 0.00781347 0.00781349 0.00781212 0.00781198 0.00781183 0.00781207 0.00781163 0.00781145 0.00822792 0.00818688 0.0085422 0.00839741 0.00820648 0.0082568 0.00806945 0.00804533 0.00805504 0.00812149 0.00805928 0.00808764 0.00804294 0.00801078 0.00804032 0.00803865 0.00801564 0.00803228 0.00802678 0.00799528 0.00802936 0.00801374 0.00799634 0.00800915 0.00801279 0.00798358 0.00801559 0.00800013 0.00798332 0.00799426 0.0079997 0.00797272 0.00800258 0.00798853 0.00797227 0.00798198 0.00798687 0.00796255 0.00798997 0.00797759 0.00796213 0.00797065 0.00797442 0.0079524 0.00797756 0.0079665 0.00795184 0.00795944 0.00796232 0.00794239 0.0079655 0.00795558 0.00794165 0.00794863 0.00795057 0.00793257 0.00795346 0.00794477 0.0079319 0.00793808 0.00793915 0.00792306 0.00794196 0.00793435 0.00792233 0.00792805 0.00792818 0.00791393 0.00793088 0.00792422 0.00791319 0.00791827 0.00791777 0.00790489 0.00792022 0.00791451 0.00790428 0.0079089 0.00790778 0.00789669 0.00791029 0.00790501 0.00789594 0.00789986 0.00789831 0.00788862 0.00790073 0.00789638 0.00788784 0.00789149 0.00788961 0.00788092 0.00789138 0.00788787 0.00788017 0.00788337 0.00788117 0.00787373 0.00788313 0.00788003 0.00787304 0.00787563 0.00787312 0.00786675 0.00787518 0.00787255 0.00786608 0.00786836 0.00786608 0.00786035 0.00786749 0.00786559 0.00785982 0.00786191 0.00785888 0.00785431 0.0078605 0.00785884 0.00785371 0.00785564 0.00785252 0.00784883 0.00785417 0.00785273 0.00784813 0.00784986 0.00784642 0.00784354 0.00784814 0.00784673 0.00784287 0.00784396 0.00784086 0.00783871 0.00784194 0.00784135 0.00783784 0.00783882 0.00783562 0.00783402 0.00783693 0.00783631 0.00783349 0.00783421 0.00783121 0.00783005 0.00783185 0.00783198 0.00782961 0.00782997 0.00782714 0.00782623 0.00782782 0.00782789 0.00782589 0.00782645 0.00782297 0.00782304 0.00782389 0.00782441 0.00782269 0.00782269 0.00781995 0.00782018 0.00782074 0.00782126 0.00781969 0.00781978 0.0078171 0.00781772 0.00781755 0.00781827 0.00781712 0.00781729 0.00781518 0.0078161 0.00781535 0.00781622 0.0078153 0.00781519 0.00781351 0.00781419 0.00781388 0.00781412 0.00781378 0.00781369 0.00781294 0.00781246 0.00781286 0.00781278 0.00781188 0.00781228 0.00742382 0.00735104 0.00724886 0.00698214 0.00734416 0.00733262 0.00753013 0.00754432 0.00749815 0.00755364 0.00750084 0.00750146 0.00757434 0.007566 0.00758313 0.00760287 0.00753922 0.00755376 0.00759242 0.00757915 0.00760171 0.00760652 0.00756717 0.00758285 0.00761209 0.00759639 0.00761766 0.00761411 0.00759293 0.00760585 0.00763313 0.00761545 0.00763586 0.00762713 0.00761634 0.00762677 0.0076534 0.00763437 0.00765399 0.00764255 0.00763742 0.00764639 0.00767162 0.0076526 0.00767108 0.00765917 0.00765648 0.00766475 0.00768787 0.00767013 0.00768677 0.00767533 0.00767399 0.00768156 0.00770306 0.00768627 0.00770125 0.00769091 0.00768997 0.00769701 0.00771641 0.00770117 0.00771439 0.00770518 0.00770466 0.00771113 0.00772838 0.00771483 0.0077266 0.00771835 0.00771786 0.00772369 0.0077392 0.00772727 0.00773745 0.00773031 0.00772996 0.00773508 0.00774907 0.00773857 0.00774734 0.00774116 0.00774112 0.00774557 0.00775805 0.00774865 0.00775634 0.00775078 0.00775089 0.00775486 0.00776597 0.0077577 0.00776463 0.00775955 0.00775982 0.00776301 0.00777322 0.00776585 0.00777179 0.00776756 0.00776778 0.00777084 0.00777951 0.00777346 0.00777829 0.00777442 0.00777498 0.00777753 0.00778506 0.00777981 0.00778392 0.00778092 0.00778159 0.0077836 0.00779008 0.00778592 0.00778909 0.0077864 0.0077873 0.00778911 0.00779461 0.0077914 0.0077938 0.00779146 0.00779231 0.00779379 0.00779876 0.00779578 0.00779784 0.00779591 0.00779693 0.00779797 0.00780225 0.00779975 0.00780158 0.00779985 0.00780062 0.00780177 0.00780522 0.00780316 0.00780442 0.00780327 0.00780415 0.00780478 0.00780754 0.00780609 0.00780702 0.00780588 0.00780701 0.00780757 0.00780969 0.00780876 0.00780907 0.00780835 0.00780919 0.00780968 0.00781113 0.00781049 0.00781064 0.00780994 0.00781142 0.00781139 0.00781222 0.0078121 0.00781212 0.00781174 0.00781247 0.00781277 0.00781336 0.00781293 0.00781314 0.00781281 0.00781374 0.00781367 0.00781381 0.00781344 0.00781332 0.00781294 0.00781368 0.00781372 0.0078136 0.00781376 0.00781356 0.00781337 0.00781351 0.00781341 0.00781311 0.00781303 0.00781315 0.00781296 0.00781285 0.00781283 0.00757311 0.00752062 0.00747219 0.00731114 0.00741948 0.00749141 0.00763241 0.00765755 0.00759445 0.00764397 0.00758262 0.00760585 0.00765568 0.00766449 0.00765827 0.00768743 0.00763347 0.00764653 0.0076692 0.00766182 0.00767923 0.00768561 0.00765066 0.00766214 0.00768052 0.00766507 0.00768883 0.00768415 0.00766256 0.00767346 0.00769207 0.0076737 0.00769717 0.00768849 0.00767499 0.00768535 0.00770439 0.0076851 0.00770715 0.00769663 0.00768816 0.00769757 0.00771649 0.00769768 0.00771756 0.00770683 0.00770118 0.00770987 0.00772799 0.00771015 0.00772815 0.00771768 0.00771359 0.00772148 0.00773855 0.00772219 0.0077383 0.00772858 0.00772541 0.00773247 0.00774819 0.00773325 0.0077476 0.00773892 0.00773633 0.00774269 0.00775666 0.00774346 0.00775618 0.00774821 0.00774608 0.00775175 0.00776456 0.00775258 0.00776411 0.00775677 0.00775499 0.00776014 0.00777157 0.00776066 0.00777084 0.00776436 0.0077629 0.00776742 0.00777759 0.00776807 0.00777719 0.00777125 0.00777033 0.00777406 0.00778323 0.00777469 0.00778249 0.00777746 0.00777673 0.0077801 0.00778807 0.00778088 0.00778754 0.00778306 0.0077827 0.0077855 0.00779234 0.00778604 0.007792 0.00778812 0.00778753 0.00779025 0.00779618 0.00779083 0.00779593 0.00779246 0.00779251 0.0077944 0.00779955 0.00779502 0.00779908 0.00779616 0.00779631 0.00779811 0.00780249 0.00779865 0.00780217 0.00779948 0.00780007 0.00780142 0.00780487 0.00780197 0.00780474 0.00780262 0.00780296 0.00780426 0.007807 0.00780489 0.00780694 0.00780521 0.00780583 0.00780663 0.00780884 0.00780727 0.00780878 0.00780738 0.00780799 0.00780852 0.00781052 0.00780888 0.00781011 0.00780913 0.00780976 0.00781024 0.00781167 0.00781083 0.00781154 0.00781063 0.00781137 0.00781187 0.00781262 0.00781204 0.00781238 0.00781175 0.00781255 0.00781272 0.00781322 0.00781299 0.00781296 0.00781263 0.00781345 0.00781321 0.00781368 0.0078135 0.00781333 0.00781311 0.00781389 0.00781378 0.00781359 0.0078136 0.00781368 0.00781352 0.00781395 0.00781368 0.00781342 0.00781351 0.00781351 0.0078134 0.00781376 0.00781363 0.00781322 0.00781346 0.00781332 0.00781332 0.00781344 0.00781361 0.00770666 0.0076546 0.00766306 0.0075638 0.00758823 0.00764626 0.00772834 0.00772619 0.00770986 0.00772478 0.00767543 0.00769673 0.00773469 0.00773058 0.00773818 0.00774892 0.00770995 0.00771951 0.00773836 0.0077271 0.0077475 0.00774645 0.00771962 0.0077282 0.00774292 0.0077271 0.00775077 0.00774388 0.00772442 0.00773374 0.0077487 0.00773051 0.00775413 0.00774489 0.00773025 0.00774013 0.0077552 0.0077365 0.00775854 0.00774875 0.00773752 0.00774693 0.00776223 0.00774413 0.00776398 0.00775435 0.00774526 0.00775435 0.00776896 0.0077519 0.00776994 0.00776063 0.00775337 0.00776154 0.0077752 0.00775944 0.00777581 0.00776722 0.00776105 0.00776855 0.00778104 0.00776658 0.00778134 0.00777339 0.00776812 0.00777475 0.00778612 0.00777303 0.00778634 0.00777909 0.00777446 0.00778051 0.00779048 0.00777901 0.0077908 0.0077842 0.00778033 0.00778565 0.00779455 0.00778422 0.00779494 0.00778877 0.00778563 0.00778994 0.00779797 0.00778878 0.00779822 0.00779276 0.00778997 0.00779419 0.00780091 0.00779263 0.0078012 0.00779653 0.00779397 0.00779761 0.00780363 0.00779635 0.00780365 0.00779953 0.0077975 0.00780082 0.00780588 0.00779982 0.00780616 0.00780248 0.00780067 0.00780334 0.00780747 0.00780247 0.00780772 0.00780464 0.00780335 0.00780548 0.00780958 0.00780492 0.00780955 0.00780669 0.00780579 0.00780778 0.00781061 0.00780701 0.00781096 0.00780836 0.00780781 0.00780938 0.00781198 0.0078087 0.00781227 0.00780993 0.00780935 0.00781078 0.00781256 0.00781047 0.00781305 0.00781118 0.00781077 0.00781189 0.00781347 0.00781162 0.00781338 0.00781213 0.00781204 0.00781267 0.00781404 0.00781241 0.00781399 0.00781294 0.00781295 0.00781388 0.00781426 0.00781323 0.00781472 0.00781351 0.00781363 0.00781408 0.00781455 0.0078135 0.00781441 0.00781367 0.00781393 0.00781445 0.00781447 0.00781395 0.0078147 0.00781394 0.00781435 0.00781421 0.00781433 0.00781393 0.00781409 0.00781418 0.00781438 0.00781437 0.00781405 0.00781381 0.00781409 0.00781401 0.00781389 0.00781409 0.00781355 0.00781393 0.00781354 0.00781354 0.00781374 0.00781368 0.00781318 0.00781365 0.00781288 0.00781335 0.00781379 0.0078135 0.00783046 0.00776944 0.00783156 0.00777323 0.00773568 0.00777978 0.00781169 0.00778975 0.00781235 0.00779833 0.00776486 0.00778181 0.00780437 0.00778837 0.00781079 0.00780409 0.00777818 0.00778669 0.00780121 0.00778453 0.00780905 0.00780115 0.00778062 0.00778857 0.0078008 0.00778307 0.0078074 0.00779833 0.00778115 0.00778986 0.00780222 0.00778393 0.00780697 0.00779757 0.00778254 0.00779176 0.00780455 0.00778616 0.00780774 0.00779839 0.00778543 0.00779467 0.00780709 0.0077895 0.00780933 0.00780025 0.00778918 0.00779788 0.00780955 0.00779309 0.00781127 0.0078027 0.00779293 0.00780102 0.00781192 0.00779659 0.00781325 0.00780513 0.00779673 0.00780386 0.00781393 0.00779997 0.00781511 0.00780741 0.00780008 0.00780684 0.00781542 0.00780294 0.00781671 0.00780961 0.00780332 0.00780921 0.00781686 0.00780551 0.00781796 0.00781155 0.00780593 0.00781125 0.00781794 0.00780785 0.00781896 0.00781308 0.00780804 0.00781282 0.00781865 0.00780959 0.00781947 0.00781434 0.00780993 0.00781415 0.00781918 0.00781111 0.00781995 0.00781524 0.00781161 0.00781521 0.0078195 0.00781245 0.0078203 0.00781605 0.00781283 0.00781601 0.00781962 0.00781369 0.00782034 0.00781676 0.00781391 0.00781674 0.00781967 0.00781463 0.00782031 0.00781705 0.00781498 0.00781716 0.00781968 0.007815 0.00781998 0.00781737 0.00781543 0.00781749 0.00781936 0.00781546 0.00782003 0.00781722 0.00781596 0.00781782 0.00781892 0.0078159 0.00781956 0.00781732 0.00781624 0.00781746 0.0078186 0.00781612 0.00781915 0.00781747 0.00781643 0.0078173 0.00781807 0.00781621 0.00781826 0.00781737 0.00781664 0.00781733 0.00781764 0.0078162 0.0078177 0.00781702 0.00781635 0.00781701 0.00781702 0.00781608 0.00781725 0.00781639 0.00781631 0.00781682 0.0078163 0.00781575 0.00781663 0.00781609 0.00781601 0.00781607 0.00781574 0.00781529 0.00781566 0.00781559 0.00781553 0.00781554 0.0078151 0.00781495 0.0078151 0.00781499 0.00781519 0.0078149 0.00781417 0.00781438 0.00781438 0.00781457 0.00781447 0.00781431 0.0078137 0.00781414 0.00781364 0.00781393 0.00781372 0.00781388 0.00781282 0.00781332 0.00781285 0.00781333 0.00781324 0.0078126 0.00794513 0.00786934 0.00798672 0.00795286 0.00786481 0.00789881 0.00788639 0.00785084 0.00790382 0.00786533 0.00784654 0.00786156 0.00786653 0.00784268 0.00787657 0.00785712 0.00784064 0.00785027 0.00785878 0.0078382 0.00786562 0.00785334 0.00783681 0.00784558 0.00785521 0.00783533 0.00786023 0.00785002 0.007834 0.00784298 0.00785327 0.00783402 0.00785735 0.00784752 0.00783246 0.00784139 0.0078519 0.00783342 0.00785513 0.00784583 0.00783186 0.00784044 0.00785063 0.00783311 0.00785326 0.00784433 0.00783193 0.00784002 0.00784953 0.00783306 0.00785155 0.00784332 0.00783208 0.00783973 0.00784805 0.00783292 0.00784993 0.00784215 0.00783194 0.00783907 0.00784643 0.00783292 0.00784837 0.00784113 0.00783208 0.00783845 0.00784479 0.00783241 0.00784668 0.00783985 0.00783172 0.00783768 0.00784297 0.00783187 0.00784463 0.00783849 0.0078315 0.00783673 0.00784124 0.00783096 0.00784275 0.00783705 0.00783086 0.00783554 0.00783916 0.00783036 0.00784069 0.00783566 0.00783028 0.00783426 0.00783737 0.00782959 0.00783866 0.00783418 0.00782956 0.00783304 0.00783546 0.00782849 0.00783674 0.00783253 0.00782843 0.00783156 0.00783379 0.00782732 0.00783475 0.00783114 0.00782748 0.00783027 0.00783174 0.00782636 0.0078327 0.00782969 0.00782644 0.00782884 0.00782981 0.0078254 0.00783083 0.00782789 0.00782538 0.00782725 0.007828 0.00782439 0.00782898 0.00782682 0.00782425 0.00782596 0.00782615 0.0078234 0.00782694 0.0078252 0.0078233 0.00782463 0.00782463 0.00782208 0.00782522 0.00782368 0.00782205 0.00782322 0.00782294 0.00782093 0.00782352 0.00782218 0.00782097 0.00782193 0.00782144 0.00781987 0.007822 0.00782093 0.00781996 0.00782088 0.00781968 0.00781887 0.00782047 0.00781953 0.00781885 0.00781936 0.00781837 0.00781774 0.0078189 0.0078183 0.00781753 0.00781822 0.0078172 0.00781699 0.00781762 0.00781713 0.00781686 0.00781707 0.00781605 0.00781574 0.00781631 0.00781617 0.00781558 0.00781611 0.00781497 0.00781483 0.00781511 0.00781518 0.00781495 0.00781487 0.0078137 0.00781416 0.00781383 0.00781413 0.00781369 0.00781395 0.00781233 0.00781311 0.00781242 0.007813 0.00781257 0.0078122 0.00805095 0.00795842 0.00813826 0.00811219 0.00798251 0.00800968 0.00795234 0.00790891 0.00798617 0.00792687 0.00792009 0.00793599 0.00792332 0.00789506 0.00793489 0.00790877 0.00789861 0.00791089 0.00791321 0.00788922 0.0079178 0.00790404 0.00788954 0.0078998 0.00790735 0.00788539 0.00791069 0.00789994 0.00788449 0.00789378 0.00790246 0.0078822 0.00790563 0.00789564 0.00788039 0.00788912 0.00789777 0.00787865 0.00790089 0.00789124 0.00787697 0.00788505 0.00789303 0.00787516 0.00789609 0.00788695 0.00787361 0.00788116 0.00788815 0.00787166 0.00789099 0.00788254 0.00787019 0.00787721 0.00788316 0.00786826 0.00788592 0.00787805 0.00786672 0.00787337 0.00787834 0.00786463 0.00788097 0.00787355 0.0078635 0.00786949 0.00787349 0.00786124 0.00787606 0.00786938 0.00785996 0.00786569 0.00786876 0.00785775 0.00787114 0.00786495 0.00785675 0.00786173 0.00786416 0.00785435 0.00786628 0.00786089 0.00785347 0.00785775 0.00785965 0.00785081 0.0078618 0.00785672 0.00785024 0.00785418 0.00785557 0.00784745 0.00785721 0.0078529 0.00784688 0.00785056 0.00785124 0.00784447 0.00785298 0.0078492 0.00784393 0.00784697 0.00784714 0.00784148 0.00784891 0.00784553 0.00784105 0.00784341 0.00784352 0.00783871 0.00784487 0.00784217 0.00783812 0.00784039 0.00783994 0.00783554 0.00784113 0.00783881 0.00783521 0.00783719 0.00783649 0.00783296 0.00783758 0.00783579 0.00783258 0.00783438 0.00783317 0.00783059 0.00783452 0.00783281 0.00783004 0.00783142 0.00783051 0.007828 0.00783146 0.00783005 0.00782773 0.00782907 0.00782744 0.00782594 0.00782851 0.00782749 0.00782551 0.00782674 0.00782493 0.00782385 0.00782571 0.00782498 0.00782357 0.00782422 0.00782271 0.00782189 0.00782343 0.00782272 0.00782168 0.00782203 0.00782054 0.0078199 0.00782112 0.00782079 0.0078198 0.0078202 0.00781833 0.00781853 0.00781916 0.0078189 0.00781833 0.00781849 0.00781683 0.00781686 0.00781729 0.00781719 0.00781652 0.00781684 0.00781525 0.00781554 0.00781574 0.00781607 0.00781514 0.00781526 0.00781356 0.00781394 0.00781385 0.0078143 0.00781368 0.00781384 0.00781208 0.00781286 0.00781226 0.00781277 0.00781183 0.007812 0.00814233 0.00803993 0.00829776 0.0082582 0.00809047 0.00811567 0.00800559 0.00796477 0.00805258 0.00798432 0.00798449 0.00800371 0.0079763 0.00794652 0.00798264 0.00796015 0.00795201 0.00796705 0.0079661 0.00793955 0.00796733 0.00795432 0.00794055 0.007952 0.00795827 0.00793414 0.00796037 0.00794855 0.00793344 0.00794297 0.00795053 0.00792855 0.00795344 0.00794221 0.00792709 0.00793552 0.00794242 0.00792242 0.00794579 0.00793514 0.0079205 0.00792833 0.0079342 0.00791586 0.00793774 0.00792774 0.00791383 0.00792114 0.00792587 0.00790895 0.00792929 0.00792018 0.00790725 0.00791398 0.00791762 0.00790232 0.00792093 0.00791272 0.00790068 0.00790685 0.00790946 0.00789566 0.0079126 0.00790522 0.00789404 0.00789989 0.00790159 0.00788903 0.00790461 0.00789786 0.00788769 0.0078929 0.00789411 0.00788273 0.00789675 0.00789076 0.00788136 0.00788621 0.0078865 0.00787666 0.00788916 0.00788386 0.00787559 0.00787979 0.00787996 0.00787101 0.00788212 0.00787736 0.00786969 0.00787364 0.00787307 0.00786535 0.00787533 0.00787103 0.00786429 0.0078678 0.00786673 0.00786012 0.00786872 0.007865 0.00785901 0.00786208 0.00786066 0.0078549 0.00786279 0.0078596 0.00785413 0.00785675 0.00785507 0.00785024 0.00785698 0.00785407 0.00784947 0.00785172 0.00784983 0.00784574 0.00785135 0.0078493 0.00784474 0.00784697 0.00784511 0.00784149 0.00784666 0.00784455 0.00784089 0.00784241 0.00784022 0.00783763 0.00784166 0.00784025 0.00783696 0.00783841 0.0078361 0.00783386 0.00783715 0.00783599 0.00783315 0.00783452 0.00783193 0.00783046 0.00783335 0.00783257 0.00782987 0.00783088 0.00782854 0.0078274 0.00782961 0.00782882 0.00782685 0.00782768 0.00782511 0.00782488 0.00782606 0.00782594 0.0078241 0.0078247 0.00782206 0.00782216 0.00782293 0.00782264 0.00782144 0.00782194 0.00781984 0.00781979 0.00782043 0.00782046 0.00781937 0.00781951 0.0078173 0.00781761 0.00781797 0.0078183 0.00781721 0.00781731 0.00781528 0.007816 0.00781587 0.00781624 0.00781567 0.00781551 0.00781367 0.00781439 0.00781415 0.00781465 0.00781387 0.00781371 0.00781236 0.0078125 0.00781217 0.00781282 0.00781154 0.00781167 0.00820128 0.00812184 0.00849526 0.00838771 0.00817903 0.00821649 0.00804383 0.00801466 0.00803101 0.00803851 0.00803153 0.00805528 0.00802893 0.00799753 0.00802533 0.00801091 0.00800178 0.00801728 0.00801963 0.00799022 0.00802095 0.00800489 0.00799101 0.00800294 0.00800936 0.00798287 0.00801204 0.00799745 0.00798218 0.00799229 0.00799824 0.00797418 0.00800125 0.00798846 0.00797313 0.00798199 0.00798674 0.00796504 0.00799022 0.00797853 0.00796337 0.00797138 0.00797487 0.00795528 0.00797854 0.0079681 0.00795338 0.00796066 0.00796326 0.00794534 0.00796654 0.00795716 0.00794354 0.00795014 0.00795144 0.00793537 0.00795469 0.00794648 0.00793357 0.00793957 0.0079401 0.00792568 0.00794327 0.00793589 0.0079238 0.00792923 0.00792929 0.00791608 0.0079322 0.00792557 0.0079144 0.00791942 0.00791879 0.00790714 0.00792139 0.00791574 0.00790552 0.00790996 0.00790888 0.0078985 0.0079114 0.00790623 0.00789693 0.00790082 0.00789934 0.00789024 0.00790159 0.00789709 0.00788877 0.00789231 0.00789037 0.00788241 0.00789258 0.00788847 0.0078811 0.00788408 0.00788186 0.00787488 0.00788391 0.00788048 0.00787372 0.00787651 0.00787432 0.00786816 0.00787608 0.00787303 0.00786674 0.0078692 0.00786668 0.00786153 0.0078683 0.00786602 0.00786027 0.00786235 0.00785974 0.00785535 0.00786143 0.00785907 0.00785432 0.00785583 0.00785322 0.0078497 0.00785483 0.007853 0.00784865 0.00785001 0.00784715 0.00784434 0.00784849 0.00784714 0.00784338 0.00784452 0.00784163 0.00783959 0.00784279 0.00784201 0.0078384 0.00783932 0.00783644 0.0078349 0.00783742 0.00783678 0.00783389 0.0078349 0.00783177 0.00783067 0.00783307 0.0078323 0.00782968 0.00783037 0.00782751 0.00782704 0.00782835 0.00782831 0.00782619 0.00782692 0.00782395 0.00782373 0.00782452 0.00782483 0.00782305 0.00782292 0.00782092 0.00782082 0.00782143 0.00782192 0.00781997 0.00782021 0.00781756 0.00781808 0.00781826 0.00781876 0.00781772 0.00781765 0.00781542 0.0078162 0.00781597 0.00781691 0.00781572 0.00781563 0.00781416 0.00781428 0.00781426 0.00781486 0.00781365 0.00781401 0.00781301 0.00781266 0.00781333 0.00781329 0.007812 0.00781234 
