# vtk DataFile Version 5.1
vtk output
ASCII

DATASET UNSTRUCTURED_GRID
POINTS 18785 float
0 0 3.4
0.125 0 3.4
0.25 0 3.4
0.375 0 3.4
0.5 0 3.4
0.625 0 3.4
0.75 0 3.4
0.875 0 3.4
1 0 3.4
1.125 0 3.4
1.25 0 3.4
1.375 0 3.4
1.5 0 3.4
1.625 0 3.4
1.75 0 3.4
1.875 0 3.4
2 0 3.4
2.125 0 3.4
2.25 0 3.4
2.375 0 3.4
2.5 0 3.4
2.625 0 3.4
2.75 0 3.4
2.875 0 3.4
3 0 3.4
3.125 0 3.4
3.25 0 3.4
3.375 0 3.4
3.5 0 3.4
3.625 0 3.4
3.75 0 3.4
3.875 0 3.4
4 0 3.4
0 0.125 3.4
0.125 0.125 3.4
0.25 0.125 3.4
0.375 0.125 3.4
0.5 0.125 3.4
0.625 0.125 3.4
0.75 0.125 3.4
0.875 0.125 3.4
1 0.125 3.4
1.125 0.125 3.4
1.25 0.125 3.4
1.375 0.125 3.4
1.5 0.125 3.4
1.625 0.125 3.4
1.75 0.125 3.4
1.875 0.125 3.4
2 0.125 3.4
2.125 0.125 3.4
2.25 0.125 3.4
2.375 0.125 3.4
2.5 0.125 3.4
2.625 0.125 3.4
2.75 0.125 3.4
2.875 0.125 3.4
3 0.125 3.4
3.125 0.125 3.4
3.25 0.125 3.4
3.375 0.125 3.4
3.5 0.125 3.4
3.625 0.125 3.4
3.75 0.125 3.4
3.875 0.125 3.4
4 0.125 3.4
0 0.25 3.4
0.125 0.25 3.4
0.25 0.25 3.4
0.375 0.25 3.4
0.5 0.25 3.4
0.625 0.25 3.4
0.75 0.25 3.4
0.875 0.25 3.4
1 0.25 3.4
1.125 0.25 3.4
1.25 0.25 3.4
1.375 0.25 3.4
1.5 0.25 3.4
1.625 0.25 3.4
1.75 0.25 3.4
1.875 0.25 3.4
2 0.25 3.4
2.125 0.25 3.4
2.25 0.25 3.4
2.375 0.25 3.4
2.5 0.25 3.4
2.625 0.25 3.4
2.75 0.25 3.4
2.875 0.25 3.4
3 0.25 3.4
3.125 0.25 3.4
3.25 0.25 3.4
3.375 0.25 3.4
3.5 0.25 3.4
3.625 0.25 3.4
3.75 0.25 3.4
3.875 0.25 3.4
4 0.25 3.4
0 0.375 3.4
0.125 0.375 3.4
0.25 0.375 3.4
0.375 0.375 3.4
0.5 0.375 3.4
0.625 0.375 3.4
0.75 0.375 3.4
0.875 0.375 3.4
1 0.375 3.4
1.125 0.375 3.4
1.25 0.375 3.4
1.375 0.375 3.4
1.5 0.375 3.4
1.625 0.375 3.4
1.75 0.375 3.4
1.875 0.375 3.4
2 0.375 3.4
2.125 0.375 3.4
2.25 0.375 3.4
2.375 0.375 3.4
2.5 0.375 3.4
2.625 0.375 3.4
2.75 0.375 3.4
2.875 0.375 3.4
3 0.375 3.4
3.125 0.375 3.4
3.25 0.375 3.4
3.375 0.375 3.4
3.5 0.375 3.4
3.625 0.375 3.4
3.75 0.375 3.4
3.875 0.375 3.4
4 0.375 3.4
0 0.5 3.4
0.125 0.5 3.4
0.25 0.5 3.4
0.375 0.5 3.4
0.5 0.5 3.4
0.625 0.5 3.4
0.75 0.5 3.4
0.875 0.5 3.4
1 0.5 3.4
1.125 0.5 3.4
1.25 0.5 3.4
1.375 0.5 3.4
1.5 0.5 3.4
1.625 0.5 3.4
1.75 0.5 3.4
1.875 0.5 3.4
2 0.5 3.4
2.125 0.5 3.4
2.25 0.5 3.4
2.375 0.5 3.4
2.5 0.5 3.4
2.625 0.5 3.4
2.75 0.5 3.4
2.875 0.5 3.4
3 0.5 3.4
3.125 0.5 3.4
3.25 0.5 3.4
3.375 0.5 3.4
3.5 0.5 3.4
3.625 0.5 3.4
3.75 0.5 3.4
3.875 0.5 3.4
4 0.5 3.4
0 0.625 3.4
0.125 0.625 3.4
0.25 0.625 3.4
0.375 0.625 3.4
0.5 0.625 3.4
0.625 0.625 3.4
0.75 0.625 3.4
0.875 0.625 3.4
1 0.625 3.4
1.125 0.625 3.4
1.25 0.625 3.4
1.375 0.625 3.4
1.5 0.625 3.4
1.625 0.625 3.4
1.75 0.625 3.4
1.875 0.625 3.4
2 0.625 3.4
2.125 0.625 3.4
2.25 0.625 3.4
2.375 0.625 3.4
2.5 0.625 3.4
2.625 0.625 3.4
2.75 0.625 3.4
2.875 0.625 3.4
3 0.625 3.4
3.125 0.625 3.4
3.25 0.625 3.4
3.375 0.625 3.4
3.5 0.625 3.4
3.625 0.625 3.4
3.75 0.625 3.4
3.875 0.625 3.4
4 0.625 3.4
0 0.75 3.4
0.125 0.75 3.4
0.25 0.75 3.4
0.375 0.75 3.4
0.5 0.75 3.4
0.625 0.75 3.4
0.75 0.75 3.4
0.875 0.75 3.4
1 0.75 3.4
1.125 0.75 3.4
1.25 0.75 3.4
1.375 0.75 3.4
1.5 0.75 3.4
1.625 0.75 3.4
1.75 0.75 3.4
1.875 0.75 3.4
2 0.75 3.4
2.125 0.75 3.4
2.25 0.75 3.4
2.375 0.75 3.4
2.5 0.75 3.4
2.625 0.75 3.4
2.75 0.75 3.4
2.875 0.75 3.4
3 0.75 3.4
3.125 0.75 3.4
3.25 0.75 3.4
3.375 0.75 3.4
3.5 0.75 3.4
3.625 0.75 3.4
3.75 0.75 3.4
3.875 0.75 3.4
4 0.75 3.4
0 0.875 3.4
0.125 0.875 3.4
0.25 0.875 3.4
0.375 0.875 3.4
0.5 0.875 3.4
0.625 0.875 3.4
0.75 0.875 3.4
0.875 0.875 3.4
1 0.875 3.4
1.125 0.875 3.4
1.25 0.875 3.4
1.375 0.875 3.4
1.5 0.875 3.4
1.625 0.875 3.4
1.75 0.875 3.4
1.875 0.875 3.4
2 0.875 3.4
2.125 0.875 3.4
2.25 0.875 3.4
2.375 0.875 3.4
2.5 0.875 3.4
2.625 0.875 3.4
2.75 0.875 3.4
2.875 0.875 3.4
3 0.875 3.4
3.125 0.875 3.4
3.25 0.875 3.4
3.375 0.875 3.4
3.5 0.875 3.4
3.625 0.875 3.4
3.75 0.875 3.4
3.875 0.875 3.4
4 0.875 3.4
0 1 3.4
0.125 1 3.4
0.25 1 3.4
0.375 1 3.4
0.5 1 3.4
0.625 1 3.4
0.75 1 3.4
0.875 1 3.4
1 1 3.4
1.125 1 3.4
1.25 1 3.4
1.375 1 3.4
1.5 1 3.4
1.625 1 3.4
1.75 1 3.4
1.875 1 3.4
2 1 3.4
2.125 1 3.4
2.25 1 3.4
2.375 1 3.4
2.5 1 3.4
2.625 1 3.4
2.75 1 3.4
2.875 1 3.4
3 1 3.4
3.125 1 3.4
3.25 1 3.4
3.375 1 3.4
3.5 1 3.4
3.625 1 3.4
3.75 1 3.4
3.875 1 3.4
4 1 3.4
0 0 3.525
0.125 0 3.525
0.25 0 3.525
0.375 0 3.525
0.5 0 3.525
0.625 0 3.525
0.75 0 3.525
0.875 0 3.525
1 0 3.525
1.125 0 3.525
1.25 0 3.525
1.375 0 3.525
1.5 0 3.525
1.625 0 3.525
1.75 0 3.525
1.875 0 3.525
2 0 3.525
2.125 0 3.525
2.25 0 3.525
2.375 0 3.525
2.5 0 3.525
2.625 0 3.525
2.75 0 3.525
2.875 0 3.525
3 0 3.525
3.125 0 3.525
3.25 0 3.525
3.375 0 3.525
3.5 0 3.525
3.625 0 3.525
3.75 0 3.525
3.875 0 3.525
4 0 3.525
0 0.125 3.525
0.125 0.125 3.525
0.25 0.125 3.525
0.375 0.125 3.525
0.5 0.125 3.525
0.625 0.125 3.525
0.75 0.125 3.525
0.875 0.125 3.525
1 0.125 3.525
1.125 0.125 3.525
1.25 0.125 3.525
1.375 0.125 3.525
1.5 0.125 3.525
1.625 0.125 3.525
1.75 0.125 3.525
1.875 0.125 3.525
2 0.125 3.525
2.125 0.125 3.525
2.25 0.125 3.525
2.375 0.125 3.525
2.5 0.125 3.525
2.625 0.125 3.525
2.75 0.125 3.525
2.875 0.125 3.525
3 0.125 3.525
3.125 0.125 3.525
3.25 0.125 3.525
3.375 0.125 3.525
3.5 0.125 3.525
3.625 0.125 3.525
3.75 0.125 3.525
3.875 0.125 3.525
4 0.125 3.525
0 0.25 3.525
0.125 0.25 3.525
0.25 0.25 3.525
0.375 0.25 3.525
0.5 0.25 3.525
0.625 0.25 3.525
0.75 0.25 3.525
0.875 0.25 3.525
1 0.25 3.525
1.125 0.25 3.525
1.25 0.25 3.525
1.375 0.25 3.525
1.5 0.25 3.525
1.625 0.25 3.525
1.75 0.25 3.525
1.875 0.25 3.525
2 0.25 3.525
2.125 0.25 3.525
2.25 0.25 3.525
2.375 0.25 3.525
2.5 0.25 3.525
2.625 0.25 3.525
2.75 0.25 3.525
2.875 0.25 3.525
3 0.25 3.525
3.125 0.25 3.525
3.25 0.25 3.525
3.375 0.25 3.525
3.5 0.25 3.525
3.625 0.25 3.525
3.75 0.25 3.525
3.875 0.25 3.525
4 0.25 3.525
0 0.375 3.525
0.125 0.375 3.525
0.25 0.375 3.525
0.375 0.375 3.525
0.5 0.375 3.525
0.625 0.375 3.525
0.75 0.375 3.525
0.875 0.375 3.525
1 0.375 3.525
1.125 0.375 3.525
1.25 0.375 3.525
1.375 0.375 3.525
1.5 0.375 3.525
1.625 0.375 3.525
1.75 0.375 3.525
1.875 0.375 3.525
2 0.375 3.525
2.125 0.375 3.525
2.25 0.375 3.525
2.375 0.375 3.525
2.5 0.375 3.525
2.625 0.375 3.525
2.75 0.375 3.525
2.875 0.375 3.525
3 0.375 3.525
3.125 0.375 3.525
3.25 0.375 3.525
3.375 0.375 3.525
3.5 0.375 3.525
3.625 0.375 3.525
3.75 0.375 3.525
3.875 0.375 3.525
4 0.375 3.525
0 0.5 3.525
0.125 0.5 3.525
0.25 0.5 3.525
0.375 0.5 3.525
0.5 0.5 3.525
0.625 0.5 3.525
0.75 0.5 3.525
0.875 0.5 3.525
1 0.5 3.525
1.125 0.5 3.525
1.25 0.5 3.525
1.375 0.5 3.525
1.5 0.5 3.525
1.625 0.5 3.525
1.75 0.5 3.525
1.875 0.5 3.525
2 0.5 3.525
2.125 0.5 3.525
2.25 0.5 3.525
2.375 0.5 3.525
2.5 0.5 3.525
2.625 0.5 3.525
2.75 0.5 3.525
2.875 0.5 3.525
3 0.5 3.525
3.125 0.5 3.525
3.25 0.5 3.525
3.375 0.5 3.525
3.5 0.5 3.525
3.625 0.5 3.525
3.75 0.5 3.525
3.875 0.5 3.525
4 0.5 3.525
0 0.625 3.525
0.125 0.625 3.525
0.25 0.625 3.525
0.375 0.625 3.525
0.5 0.625 3.525
0.625 0.625 3.525
0.75 0.625 3.525
0.875 0.625 3.525
1 0.625 3.525
1.125 0.625 3.525
1.25 0.625 3.525
1.375 0.625 3.525
1.5 0.625 3.525
1.625 0.625 3.525
1.75 0.625 3.525
1.875 0.625 3.525
2 0.625 3.525
2.125 0.625 3.525
2.25 0.625 3.525
2.375 0.625 3.525
2.5 0.625 3.525
2.625 0.625 3.525
2.75 0.625 3.525
2.875 0.625 3.525
3 0.625 3.525
3.125 0.625 3.525
3.25 0.625 3.525
3.375 0.625 3.525
3.5 0.625 3.525
3.625 0.625 3.525
3.75 0.625 3.525
3.875 0.625 3.525
4 0.625 3.525
0 0.75 3.525
0.125 0.75 3.525
0.25 0.75 3.525
0.375 0.75 3.525
0.5 0.75 3.525
0.625 0.75 3.525
0.75 0.75 3.525
0.875 0.75 3.525
1 0.75 3.525
1.125 0.75 3.525
1.25 0.75 3.525
1.375 0.75 3.525
1.5 0.75 3.525
1.625 0.75 3.525
1.75 0.75 3.525
1.875 0.75 3.525
2 0.75 3.525
2.125 0.75 3.525
2.25 0.75 3.525
2.375 0.75 3.525
2.5 0.75 3.525
2.625 0.75 3.525
2.75 0.75 3.525
2.875 0.75 3.525
3 0.75 3.525
3.125 0.75 3.525
3.25 0.75 3.525
3.375 0.75 3.525
3.5 0.75 3.525
3.625 0.75 3.525
3.75 0.75 3.525
3.875 0.75 3.525
4 0.75 3.525
0 0.875 3.525
0.125 0.875 3.525
0.25 0.875 3.525
0.375 0.875 3.525
0.5 0.875 3.525
0.625 0.875 3.525
0.75 0.875 3.525
0.875 0.875 3.525
1 0.875 3.525
1.125 0.875 3.525
1.25 0.875 3.525
1.375 0.875 3.525
1.5 0.875 3.525
1.625 0.875 3.525
1.75 0.875 3.525
1.875 0.875 3.525
2 0.875 3.525
2.125 0.875 3.525
2.25 0.875 3.525
2.375 0.875 3.525
2.5 0.875 3.525
2.625 0.875 3.525
2.75 0.875 3.525
2.875 0.875 3.525
3 0.875 3.525
3.125 0.875 3.525
3.25 0.875 3.525
3.375 0.875 3.525
3.5 0.875 3.525
3.625 0.875 3.525
3.75 0.875 3.525
3.875 0.875 3.525
4 0.875 3.525
0 1 3.525
0.125 1 3.525
0.25 1 3.525
0.375 1 3.525
0.5 1 3.525
0.625 1 3.525
0.75 1 3.525
0.875 1 3.525
1 1 3.525
1.125 1 3.525
1.25 1 3.525
1.375 1 3.525
1.5 1 3.525
1.625 1 3.525
1.75 1 3.525
1.875 1 3.525
2 1 3.525
2.125 1 3.525
2.25 1 3.525
2.375 1 3.525
2.5 1 3.525
2.625 1 3.525
2.75 1 3.525
2.875 1 3.525
3 1 3.525
3.125 1 3.525
3.25 1 3.525
3.375 1 3.525
3.5 1 3.525
3.625 1 3.525
3.75 1 3.525
3.875 1 3.525
4 1 3.525
0 0 3.65
0.125 0 3.65
0.25 0 3.65
0.375 0 3.65
0.5 0 3.65
0.625 0 3.65
0.75 0 3.65
0.875 0 3.65
1 0 3.65
1.125 0 3.65
1.25 0 3.65
1.375 0 3.65
1.5 0 3.65
1.625 0 3.65
1.75 0 3.65
1.875 0 3.65
2 0 3.65
2.125 0 3.65
2.25 0 3.65
2.375 0 3.65
2.5 0 3.65
2.625 0 3.65
2.75 0 3.65
2.875 0 3.65
3 0 3.65
3.125 0 3.65
3.25 0 3.65
3.375 0 3.65
3.5 0 3.65
3.625 0 3.65
3.75 0 3.65
3.875 0 3.65
4 0 3.65
0 0.125 3.65
0.125 0.125 3.65
0.25 0.125 3.65
0.375 0.125 3.65
0.5 0.125 3.65
0.625 0.125 3.65
0.75 0.125 3.65
0.875 0.125 3.65
1 0.125 3.65
1.125 0.125 3.65
1.25 0.125 3.65
1.375 0.125 3.65
1.5 0.125 3.65
1.625 0.125 3.65
1.75 0.125 3.65
1.875 0.125 3.65
2 0.125 3.65
2.125 0.125 3.65
2.25 0.125 3.65
2.375 0.125 3.65
2.5 0.125 3.65
2.625 0.125 3.65
2.75 0.125 3.65
2.875 0.125 3.65
3 0.125 3.65
3.125 0.125 3.65
3.25 0.125 3.65
3.375 0.125 3.65
3.5 0.125 3.65
3.625 0.125 3.65
3.75 0.125 3.65
3.875 0.125 3.65
4 0.125 3.65
0 0.25 3.65
0.125 0.25 3.65
0.25 0.25 3.65
0.375 0.25 3.65
0.5 0.25 3.65
0.625 0.25 3.65
0.75 0.25 3.65
0.875 0.25 3.65
1 0.25 3.65
1.125 0.25 3.65
1.25 0.25 3.65
1.375 0.25 3.65
1.5 0.25 3.65
1.625 0.25 3.65
1.75 0.25 3.65
1.875 0.25 3.65
2 0.25 3.65
2.125 0.25 3.65
2.25 0.25 3.65
2.375 0.25 3.65
2.5 0.25 3.65
2.625 0.25 3.65
2.75 0.25 3.65
2.875 0.25 3.65
3 0.25 3.65
3.125 0.25 3.65
3.25 0.25 3.65
3.375 0.25 3.65
3.5 0.25 3.65
3.625 0.25 3.65
3.75 0.25 3.65
3.875 0.25 3.65
4 0.25 3.65
0 0.375 3.65
0.125 0.375 3.65
0.25 0.375 3.65
0.375 0.375 3.65
0.5 0.375 3.65
0.625 0.375 3.65
0.75 0.375 3.65
0.875 0.375 3.65
1 0.375 3.65
1.125 0.375 3.65
1.25 0.375 3.65
1.375 0.375 3.65
1.5 0.375 3.65
1.625 0.375 3.65
1.75 0.375 3.65
1.875 0.375 3.65
2 0.375 3.65
2.125 0.375 3.65
2.25 0.375 3.65
2.375 0.375 3.65
2.5 0.375 3.65
2.625 0.375 3.65
2.75 0.375 3.65
2.875 0.375 3.65
3 0.375 3.65
3.125 0.375 3.65
3.25 0.375 3.65
3.375 0.375 3.65
3.5 0.375 3.65
3.625 0.375 3.65
3.75 0.375 3.65
3.875 0.375 3.65
4 0.375 3.65
0 0.5 3.65
0.125 0.5 3.65
0.25 0.5 3.65
0.375 0.5 3.65
0.5 0.5 3.65
0.625 0.5 3.65
0.75 0.5 3.65
0.875 0.5 3.65
1 0.5 3.65
1.125 0.5 3.65
1.25 0.5 3.65
1.375 0.5 3.65
1.5 0.5 3.65
1.625 0.5 3.65
1.75 0.5 3.65
1.875 0.5 3.65
2 0.5 3.65
2.125 0.5 3.65
2.25 0.5 3.65
2.375 0.5 3.65
2.5 0.5 3.65
2.625 0.5 3.65
2.75 0.5 3.65
2.875 0.5 3.65
3 0.5 3.65
3.125 0.5 3.65
3.25 0.5 3.65
3.375 0.5 3.65
3.5 0.5 3.65
3.625 0.5 3.65
3.75 0.5 3.65
3.875 0.5 3.65
4 0.5 3.65
0 0.625 3.65
0.125 0.625 3.65
0.25 0.625 3.65
0.375 0.625 3.65
0.5 0.625 3.65
0.625 0.625 3.65
0.75 0.625 3.65
0.875 0.625 3.65
1 0.625 3.65
1.125 0.625 3.65
1.25 0.625 3.65
1.375 0.625 3.65
1.5 0.625 3.65
1.625 0.625 3.65
1.75 0.625 3.65
1.875 0.625 3.65
2 0.625 3.65
2.125 0.625 3.65
2.25 0.625 3.65
2.375 0.625 3.65
2.5 0.625 3.65
2.625 0.625 3.65
2.75 0.625 3.65
2.875 0.625 3.65
3 0.625 3.65
3.125 0.625 3.65
3.25 0.625 3.65
3.375 0.625 3.65
3.5 0.625 3.65
3.625 0.625 3.65
3.75 0.625 3.65
3.875 0.625 3.65
4 0.625 3.65
0 0.75 3.65
0.125 0.75 3.65
0.25 0.75 3.65
0.375 0.75 3.65
0.5 0.75 3.65
0.625 0.75 3.65
0.75 0.75 3.65
0.875 0.75 3.65
1 0.75 3.65
1.125 0.75 3.65
1.25 0.75 3.65
1.375 0.75 3.65
1.5 0.75 3.65
1.625 0.75 3.65
1.75 0.75 3.65
1.875 0.75 3.65
2 0.75 3.65
2.125 0.75 3.65
2.25 0.75 3.65
2.375 0.75 3.65
2.5 0.75 3.65
2.625 0.75 3.65
2.75 0.75 3.65
2.875 0.75 3.65
3 0.75 3.65
3.125 0.75 3.65
3.25 0.75 3.65
3.375 0.75 3.65
3.5 0.75 3.65
3.625 0.75 3.65
3.75 0.75 3.65
3.875 0.75 3.65
4 0.75 3.65
0 0.875 3.65
0.125 0.875 3.65
0.25 0.875 3.65
0.375 0.875 3.65
0.5 0.875 3.65
0.625 0.875 3.65
0.75 0.875 3.65
0.875 0.875 3.65
1 0.875 3.65
1.125 0.875 3.65
1.25 0.875 3.65
1.375 0.875 3.65
1.5 0.875 3.65
1.625 0.875 3.65
1.75 0.875 3.65
1.875 0.875 3.65
2 0.875 3.65
2.125 0.875 3.65
2.25 0.875 3.65
2.375 0.875 3.65
2.5 0.875 3.65
2.625 0.875 3.65
2.75 0.875 3.65
2.875 0.875 3.65
3 0.875 3.65
3.125 0.875 3.65
3.25 0.875 3.65
3.375 0.875 3.65
3.5 0.875 3.65
3.625 0.875 3.65
3.75 0.875 3.65
3.875 0.875 3.65
4 0.875 3.65
0 1 3.65
0.125 1 3.65
0.25 1 3.65
0.375 1 3.65
0.5 1 3.65
0.625 1 3.65
0.75 1 3.65
0.875 1 3.65
1 1 3.65
1.125 1 3.65
1.25 1 3.65
1.375 1 3.65
1.5 1 3.65
1.625 1 3.65
1.75 1 3.65
1.875 1 3.65
2 1 3.65
2.125 1 3.65
2.25 1 3.65
2.375 1 3.65
2.5 1 3.65
2.625 1 3.65
2.75 1 3.65
2.875 1 3.65
3 1 3.65
3.125 1 3.65
3.25 1 3.65
3.375 1 3.65
3.5 1 3.65
3.625 1 3.65
3.75 1 3.65
3.875 1 3.65
4 1 3.65
0 0 3.775
0.125 0 3.775
0.25 0 3.775
0.375 0 3.775
0.5 0 3.775
0.625 0 3.775
0.75 0 3.775
0.875 0 3.775
1 0 3.775
1.125 0 3.775
1.25 0 3.775
1.375 0 3.775
1.5 0 3.775
1.625 0 3.775
1.75 0 3.775
1.875 0 3.775
2 0 3.775
2.125 0 3.775
2.25 0 3.775
2.375 0 3.775
2.5 0 3.775
2.625 0 3.775
2.75 0 3.775
2.875 0 3.775
3 0 3.775
3.125 0 3.775
3.25 0 3.775
3.375 0 3.775
3.5 0 3.775
3.625 0 3.775
3.75 0 3.775
3.875 0 3.775
4 0 3.775
0 0.125 3.775
0.125 0.125 3.775
0.25 0.125 3.775
0.375 0.125 3.775
0.5 0.125 3.775
0.625 0.125 3.775
0.75 0.125 3.775
0.875 0.125 3.775
1 0.125 3.775
1.125 0.125 3.775
1.25 0.125 3.775
1.375 0.125 3.775
1.5 0.125 3.775
1.625 0.125 3.775
1.75 0.125 3.775
1.875 0.125 3.775
2 0.125 3.775
2.125 0.125 3.775
2.25 0.125 3.775
2.375 0.125 3.775
2.5 0.125 3.775
2.625 0.125 3.775
2.75 0.125 3.775
2.875 0.125 3.775
3 0.125 3.775
3.125 0.125 3.775
3.25 0.125 3.775
3.375 0.125 3.775
3.5 0.125 3.775
3.625 0.125 3.775
3.75 0.125 3.775
3.875 0.125 3.775
4 0.125 3.775
0 0.25 3.775
0.125 0.25 3.775
0.25 0.25 3.775
0.375 0.25 3.775
0.5 0.25 3.775
0.625 0.25 3.775
0.75 0.25 3.775
0.875 0.25 3.775
1 0.25 3.775
1.125 0.25 3.775
1.25 0.25 3.775
1.375 0.25 3.775
1.5 0.25 3.775
1.625 0.25 3.775
1.75 0.25 3.775
1.875 0.25 3.775
2 0.25 3.775
2.125 0.25 3.775
2.25 0.25 3.775
2.375 0.25 3.775
2.5 0.25 3.775
2.625 0.25 3.775
2.75 0.25 3.775
2.875 0.25 3.775
3 0.25 3.775
3.125 0.25 3.775
3.25 0.25 3.775
3.375 0.25 3.775
3.5 0.25 3.775
3.625 0.25 3.775
3.75 0.25 3.775
3.875 0.25 3.775
4 0.25 3.775
0 0.375 3.775
0.125 0.375 3.775
0.25 0.375 3.775
0.375 0.375 3.775
0.5 0.375 3.775
0.625 0.375 3.775
0.75 0.375 3.775
0.875 0.375 3.775
1 0.375 3.775
1.125 0.375 3.775
1.25 0.375 3.775
1.375 0.375 3.775
1.5 0.375 3.775
1.625 0.375 3.775
1.75 0.375 3.775
1.875 0.375 3.775
2 0.375 3.775
2.125 0.375 3.775
2.25 0.375 3.775
2.375 0.375 3.775
2.5 0.375 3.775
2.625 0.375 3.775
2.75 0.375 3.775
2.875 0.375 3.775
3 0.375 3.775
3.125 0.375 3.775
3.25 0.375 3.775
3.375 0.375 3.775
3.5 0.375 3.775
3.625 0.375 3.775
3.75 0.375 3.775
3.875 0.375 3.775
4 0.375 3.775
0 0.5 3.775
0.125 0.5 3.775
0.25 0.5 3.775
0.375 0.5 3.775
0.5 0.5 3.775
0.625 0.5 3.775
0.75 0.5 3.775
0.875 0.5 3.775
1 0.5 3.775
1.125 0.5 3.775
1.25 0.5 3.775
1.375 0.5 3.775
1.5 0.5 3.775
1.625 0.5 3.775
1.75 0.5 3.775
1.875 0.5 3.775
2 0.5 3.775
2.125 0.5 3.775
2.25 0.5 3.775
2.375 0.5 3.775
2.5 0.5 3.775
2.625 0.5 3.775
2.75 0.5 3.775
2.875 0.5 3.775
3 0.5 3.775
3.125 0.5 3.775
3.25 0.5 3.775
3.375 0.5 3.775
3.5 0.5 3.775
3.625 0.5 3.775
3.75 0.5 3.775
3.875 0.5 3.775
4 0.5 3.775
0 0.625 3.775
0.125 0.625 3.775
0.25 0.625 3.775
0.375 0.625 3.775
0.5 0.625 3.775
0.625 0.625 3.775
0.75 0.625 3.775
0.875 0.625 3.775
1 0.625 3.775
1.125 0.625 3.775
1.25 0.625 3.775
1.375 0.625 3.775
1.5 0.625 3.775
1.625 0.625 3.775
1.75 0.625 3.775
1.875 0.625 3.775
2 0.625 3.775
2.125 0.625 3.775
2.25 0.625 3.775
2.375 0.625 3.775
2.5 0.625 3.775
2.625 0.625 3.775
2.75 0.625 3.775
2.875 0.625 3.775
3 0.625 3.775
3.125 0.625 3.775
3.25 0.625 3.775
3.375 0.625 3.775
3.5 0.625 3.775
3.625 0.625 3.775
3.75 0.625 3.775
3.875 0.625 3.775
4 0.625 3.775
0 0.75 3.775
0.125 0.75 3.775
0.25 0.75 3.775
0.375 0.75 3.775
0.5 0.75 3.775
0.625 0.75 3.775
0.75 0.75 3.775
0.875 0.75 3.775
1 0.75 3.775
1.125 0.75 3.775
1.25 0.75 3.775
1.375 0.75 3.775
1.5 0.75 3.775
1.625 0.75 3.775
1.75 0.75 3.775
1.875 0.75 3.775
2 0.75 3.775
2.125 0.75 3.775
2.25 0.75 3.775
2.375 0.75 3.775
2.5 0.75 3.775
2.625 0.75 3.775
2.75 0.75 3.775
2.875 0.75 3.775
3 0.75 3.775
3.125 0.75 3.775
3.25 0.75 3.775
3.375 0.75 3.775
3.5 0.75 3.775
3.625 0.75 3.775
3.75 0.75 3.775
3.875 0.75 3.775
4 0.75 3.775
0 0.875 3.775
0.125 0.875 3.775
0.25 0.875 3.775
0.375 0.875 3.775
0.5 0.875 3.775
0.625 0.875 3.775
0.75 0.875 3.775
0.875 0.875 3.775
1 0.875 3.775
1.125 0.875 3.775
1.25 0.875 3.775
1.375 0.875 3.775
1.5 0.875 3.775
1.625 0.875 3.775
1.75 0.875 3.775
1.875 0.875 3.775
2 0.875 3.775
2.125 0.875 3.775
2.25 0.875 3.775
2.375 0.875 3.775
2.5 0.875 3.775
2.625 0.875 3.775
2.75 0.875 3.775
2.875 0.875 3.775
3 0.875 3.775
3.125 0.875 3.775
3.25 0.875 3.775
3.375 0.875 3.775
3.5 0.875 3.775
3.625 0.875 3.775
3.75 0.875 3.775
3.875 0.875 3.775
4 0.875 3.775
0 1 3.775
0.125 1 3.775
0.25 1 3.775
0.375 1 3.775
0.5 1 3.775
0.625 1 3.775
0.75 1 3.775
0.875 1 3.775
1 1 3.775
1.125 1 3.775
1.25 1 3.775
1.375 1 3.775
1.5 1 3.775
1.625 1 3.775
1.75 1 3.775
1.875 1 3.775
2 1 3.775
2.125 1 3.775
2.25 1 3.775
2.375 1 3.775
2.5 1 3.775
2.625 1 3.775
2.75 1 3.775
2.875 1 3.775
3 1 3.775
3.125 1 3.775
3.25 1 3.775
3.375 1 3.775
3.5 1 3.775
3.625 1 3.775
3.75 1 3.775
3.875 1 3.775
4 1 3.775
0 0 3.9
0.125 0 3.9
0.25 0 3.9
0.375 0 3.9
0.5 0 3.9
0.625 0 3.9
0.75 0 3.9
0.875 0 3.9
1 0 3.9
1.125 0 3.9
1.25 0 3.9
1.375 0 3.9
1.5 0 3.9
1.625 0 3.9
1.75 0 3.9
1.875 0 3.9
2 0 3.9
2.125 0 3.9
2.25 0 3.9
2.375 0 3.9
2.5 0 3.9
2.625 0 3.9
2.75 0 3.9
2.875 0 3.9
3 0 3.9
3.125 0 3.9
3.25 0 3.9
3.375 0 3.9
3.5 0 3.9
3.625 0 3.9
3.75 0 3.9
3.875 0 3.9
4 0 3.9
0 0.125 3.9
0.125 0.125 3.9
0.25 0.125 3.9
0.375 0.125 3.9
0.5 0.125 3.9
0.625 0.125 3.9
0.75 0.125 3.9
0.875 0.125 3.9
1 0.125 3.9
1.125 0.125 3.9
1.25 0.125 3.9
1.375 0.125 3.9
1.5 0.125 3.9
1.625 0.125 3.9
1.75 0.125 3.9
1.875 0.125 3.9
2 0.125 3.9
2.125 0.125 3.9
2.25 0.125 3.9
2.375 0.125 3.9
2.5 0.125 3.9
2.625 0.125 3.9
2.75 0.125 3.9
2.875 0.125 3.9
3 0.125 3.9
3.125 0.125 3.9
3.25 0.125 3.9
3.375 0.125 3.9
3.5 0.125 3.9
3.625 0.125 3.9
3.75 0.125 3.9
3.875 0.125 3.9
4 0.125 3.9
0 0.25 3.9
0.125 0.25 3.9
0.25 0.25 3.9
0.375 0.25 3.9
0.5 0.25 3.9
0.625 0.25 3.9
0.75 0.25 3.9
0.875 0.25 3.9
1 0.25 3.9
1.125 0.25 3.9
1.25 0.25 3.9
1.375 0.25 3.9
1.5 0.25 3.9
1.625 0.25 3.9
1.75 0.25 3.9
1.875 0.25 3.9
2 0.25 3.9
2.125 0.25 3.9
2.25 0.25 3.9
2.375 0.25 3.9
2.5 0.25 3.9
2.625 0.25 3.9
2.75 0.25 3.9
2.875 0.25 3.9
3 0.25 3.9
3.125 0.25 3.9
3.25 0.25 3.9
3.375 0.25 3.9
3.5 0.25 3.9
3.625 0.25 3.9
3.75 0.25 3.9
3.875 0.25 3.9
4 0.25 3.9
0 0.375 3.9
0.125 0.375 3.9
0.25 0.375 3.9
0.375 0.375 3.9
0.5 0.375 3.9
0.625 0.375 3.9
0.75 0.375 3.9
0.875 0.375 3.9
1 0.375 3.9
1.125 0.375 3.9
1.25 0.375 3.9
1.375 0.375 3.9
1.5 0.375 3.9
1.625 0.375 3.9
1.75 0.375 3.9
1.875 0.375 3.9
2 0.375 3.9
2.125 0.375 3.9
2.25 0.375 3.9
2.375 0.375 3.9
2.5 0.375 3.9
2.625 0.375 3.9
2.75 0.375 3.9
2.875 0.375 3.9
3 0.375 3.9
3.125 0.375 3.9
3.25 0.375 3.9
3.375 0.375 3.9
3.5 0.375 3.9
3.625 0.375 3.9
3.75 0.375 3.9
3.875 0.375 3.9
4 0.375 3.9
0 0.5 3.9
0.125 0.5 3.9
0.25 0.5 3.9
0.375 0.5 3.9
0.5 0.5 3.9
0.625 0.5 3.9
0.75 0.5 3.9
0.875 0.5 3.9
1 0.5 3.9
1.125 0.5 3.9
1.25 0.5 3.9
1.375 0.5 3.9
1.5 0.5 3.9
1.625 0.5 3.9
1.75 0.5 3.9
1.875 0.5 3.9
2 0.5 3.9
2.125 0.5 3.9
2.25 0.5 3.9
2.375 0.5 3.9
2.5 0.5 3.9
2.625 0.5 3.9
2.75 0.5 3.9
2.875 0.5 3.9
3 0.5 3.9
3.125 0.5 3.9
3.25 0.5 3.9
3.375 0.5 3.9
3.5 0.5 3.9
3.625 0.5 3.9
3.75 0.5 3.9
3.875 0.5 3.9
4 0.5 3.9
0 0.625 3.9
0.125 0.625 3.9
0.25 0.625 3.9
0.375 0.625 3.9
0.5 0.625 3.9
0.625 0.625 3.9
0.75 0.625 3.9
0.875 0.625 3.9
1 0.625 3.9
1.125 0.625 3.9
1.25 0.625 3.9
1.375 0.625 3.9
1.5 0.625 3.9
1.625 0.625 3.9
1.75 0.625 3.9
1.875 0.625 3.9
2 0.625 3.9
2.125 0.625 3.9
2.25 0.625 3.9
2.375 0.625 3.9
2.5 0.625 3.9
2.625 0.625 3.9
2.75 0.625 3.9
2.875 0.625 3.9
3 0.625 3.9
3.125 0.625 3.9
3.25 0.625 3.9
3.375 0.625 3.9
3.5 0.625 3.9
3.625 0.625 3.9
3.75 0.625 3.9
3.875 0.625 3.9
4 0.625 3.9
0 0.75 3.9
0.125 0.75 3.9
0.25 0.75 3.9
0.375 0.75 3.9
0.5 0.75 3.9
0.625 0.75 3.9
0.75 0.75 3.9
0.875 0.75 3.9
1 0.75 3.9
1.125 0.75 3.9
1.25 0.75 3.9
1.375 0.75 3.9
1.5 0.75 3.9
1.625 0.75 3.9
1.75 0.75 3.9
1.875 0.75 3.9
2 0.75 3.9
2.125 0.75 3.9
2.25 0.75 3.9
2.375 0.75 3.9
2.5 0.75 3.9
2.625 0.75 3.9
2.75 0.75 3.9
2.875 0.75 3.9
3 0.75 3.9
3.125 0.75 3.9
3.25 0.75 3.9
3.375 0.75 3.9
3.5 0.75 3.9
3.625 0.75 3.9
3.75 0.75 3.9
3.875 0.75 3.9
4 0.75 3.9
0 0.875 3.9
0.125 0.875 3.9
0.25 0.875 3.9
0.375 0.875 3.9
0.5 0.875 3.9
0.625 0.875 3.9
0.75 0.875 3.9
0.875 0.875 3.9
1 0.875 3.9
1.125 0.875 3.9
1.25 0.875 3.9
1.375 0.875 3.9
1.5 0.875 3.9
1.625 0.875 3.9
1.75 0.875 3.9
1.875 0.875 3.9
2 0.875 3.9
2.125 0.875 3.9
2.25 0.875 3.9
2.375 0.875 3.9
2.5 0.875 3.9
2.625 0.875 3.9
2.75 0.875 3.9
2.875 0.875 3.9
3 0.875 3.9
3.125 0.875 3.9
3.25 0.875 3.9
3.375 0.875 3.9
3.5 0.875 3.9
3.625 0.875 3.9
3.75 0.875 3.9
3.875 0.875 3.9
4 0.875 3.9
0 1 3.9
0.125 1 3.9
0.25 1 3.9
0.375 1 3.9
0.5 1 3.9
0.625 1 3.9
0.75 1 3.9
0.875 1 3.9
1 1 3.9
1.125 1 3.9
1.25 1 3.9
1.375 1 3.9
1.5 1 3.9
1.625 1 3.9
1.75 1 3.9
1.875 1 3.9
2 1 3.9
2.125 1 3.9
2.25 1 3.9
2.375 1 3.9
2.5 1 3.9
2.625 1 3.9
2.75 1 3.9
2.875 1 3.9
3 1 3.9
3.125 1 3.9
3.25 1 3.9
3.375 1 3.9
3.5 1 3.9
3.625 1 3.9
3.75 1 3.9
3.875 1 3.9
4 1 3.9
0 0 4.025
0.125 0 4.025
0.25 0 4.025
0.375 0 4.025
0.5 0 4.025
0.625 0 4.025
0.75 0 4.025
0.875 0 4.025
1 0 4.025
1.125 0 4.025
1.25 0 4.025
1.375 0 4.025
1.5 0 4.025
1.625 0 4.025
1.75 0 4.025
1.875 0 4.025
2 0 4.025
2.125 0 4.025
2.25 0 4.025
2.375 0 4.025
2.5 0 4.025
2.625 0 4.025
2.75 0 4.025
2.875 0 4.025
3 0 4.025
3.125 0 4.025
3.25 0 4.025
3.375 0 4.025
3.5 0 4.025
3.625 0 4.025
3.75 0 4.025
3.875 0 4.025
4 0 4.025
0 0.125 4.025
0.125 0.125 4.025
0.25 0.125 4.025
0.375 0.125 4.025
0.5 0.125 4.025
0.625 0.125 4.025
0.75 0.125 4.025
0.875 0.125 4.025
1 0.125 4.025
1.125 0.125 4.025
1.25 0.125 4.025
1.375 0.125 4.025
1.5 0.125 4.025
1.625 0.125 4.025
1.75 0.125 4.025
1.875 0.125 4.025
2 0.125 4.025
2.125 0.125 4.025
2.25 0.125 4.025
2.375 0.125 4.025
2.5 0.125 4.025
2.625 0.125 4.025
2.75 0.125 4.025
2.875 0.125 4.025
3 0.125 4.025
3.125 0.125 4.025
3.25 0.125 4.025
3.375 0.125 4.025
3.5 0.125 4.025
3.625 0.125 4.025
3.75 0.125 4.025
3.875 0.125 4.025
4 0.125 4.025
0 0.25 4.025
0.125 0.25 4.025
0.25 0.25 4.025
0.375 0.25 4.025
0.5 0.25 4.025
0.625 0.25 4.025
0.75 0.25 4.025
0.875 0.25 4.025
1 0.25 4.025
1.125 0.25 4.025
1.25 0.25 4.025
1.375 0.25 4.025
1.5 0.25 4.025
1.625 0.25 4.025
1.75 0.25 4.025
1.875 0.25 4.025
2 0.25 4.025
2.125 0.25 4.025
2.25 0.25 4.025
2.375 0.25 4.025
2.5 0.25 4.025
2.625 0.25 4.025
2.75 0.25 4.025
2.875 0.25 4.025
3 0.25 4.025
3.125 0.25 4.025
3.25 0.25 4.025
3.375 0.25 4.025
3.5 0.25 4.025
3.625 0.25 4.025
3.75 0.25 4.025
3.875 0.25 4.025
4 0.25 4.025
0 0.375 4.025
0.125 0.375 4.025
0.25 0.375 4.025
0.375 0.375 4.025
0.5 0.375 4.025
0.625 0.375 4.025
0.75 0.375 4.025
0.875 0.375 4.025
1 0.375 4.025
1.125 0.375 4.025
1.25 0.375 4.025
1.375 0.375 4.025
1.5 0.375 4.025
1.625 0.375 4.025
1.75 0.375 4.025
1.875 0.375 4.025
2 0.375 4.025
2.125 0.375 4.025
2.25 0.375 4.025
2.375 0.375 4.025
2.5 0.375 4.025
2.625 0.375 4.025
2.75 0.375 4.025
2.875 0.375 4.025
3 0.375 4.025
3.125 0.375 4.025
3.25 0.375 4.025
3.375 0.375 4.025
3.5 0.375 4.025
3.625 0.375 4.025
3.75 0.375 4.025
3.875 0.375 4.025
4 0.375 4.025
0 0.5 4.025
0.125 0.5 4.025
0.25 0.5 4.025
0.375 0.5 4.025
0.5 0.5 4.025
0.625 0.5 4.025
0.75 0.5 4.025
0.875 0.5 4.025
1 0.5 4.025
1.125 0.5 4.025
1.25 0.5 4.025
1.375 0.5 4.025
1.5 0.5 4.025
1.625 0.5 4.025
1.75 0.5 4.025
1.875 0.5 4.025
2 0.5 4.025
2.125 0.5 4.025
2.25 0.5 4.025
2.375 0.5 4.025
2.5 0.5 4.025
2.625 0.5 4.025
2.75 0.5 4.025
2.875 0.5 4.025
3 0.5 4.025
3.125 0.5 4.025
3.25 0.5 4.025
3.375 0.5 4.025
3.5 0.5 4.025
3.625 0.5 4.025
3.75 0.5 4.025
3.875 0.5 4.025
4 0.5 4.025
0 0.625 4.025
0.125 0.625 4.025
0.25 0.625 4.025
0.375 0.625 4.025
0.5 0.625 4.025
0.625 0.625 4.025
0.75 0.625 4.025
0.875 0.625 4.025
1 0.625 4.025
1.125 0.625 4.025
1.25 0.625 4.025
1.375 0.625 4.025
1.5 0.625 4.025
1.625 0.625 4.025
1.75 0.625 4.025
1.875 0.625 4.025
2 0.625 4.025
2.125 0.625 4.025
2.25 0.625 4.025
2.375 0.625 4.025
2.5 0.625 4.025
2.625 0.625 4.025
2.75 0.625 4.025
2.875 0.625 4.025
3 0.625 4.025
3.125 0.625 4.025
3.25 0.625 4.025
3.375 0.625 4.025
3.5 0.625 4.025
3.625 0.625 4.025
3.75 0.625 4.025
3.875 0.625 4.025
4 0.625 4.025
0 0.75 4.025
0.125 0.75 4.025
0.25 0.75 4.025
0.375 0.75 4.025
0.5 0.75 4.025
0.625 0.75 4.025
0.75 0.75 4.025
0.875 0.75 4.025
1 0.75 4.025
1.125 0.75 4.025
1.25 0.75 4.025
1.375 0.75 4.025
1.5 0.75 4.025
1.625 0.75 4.025
1.75 0.75 4.025
1.875 0.75 4.025
2 0.75 4.025
2.125 0.75 4.025
2.25 0.75 4.025
2.375 0.75 4.025
2.5 0.75 4.025
2.625 0.75 4.025
2.75 0.75 4.025
2.875 0.75 4.025
3 0.75 4.025
3.125 0.75 4.025
3.25 0.75 4.025
3.375 0.75 4.025
3.5 0.75 4.025
3.625 0.75 4.025
3.75 0.75 4.025
3.875 0.75 4.025
4 0.75 4.025
0 0.875 4.025
0.125 0.875 4.025
0.25 0.875 4.025
0.375 0.875 4.025
0.5 0.875 4.025
0.625 0.875 4.025
0.75 0.875 4.025
0.875 0.875 4.025
1 0.875 4.025
1.125 0.875 4.025
1.25 0.875 4.025
1.375 0.875 4.025
1.5 0.875 4.025
1.625 0.875 4.025
1.75 0.875 4.025
1.875 0.875 4.025
2 0.875 4.025
2.125 0.875 4.025
2.25 0.875 4.025
2.375 0.875 4.025
2.5 0.875 4.025
2.625 0.875 4.025
2.75 0.875 4.025
2.875 0.875 4.025
3 0.875 4.025
3.125 0.875 4.025
3.25 0.875 4.025
3.375 0.875 4.025
3.5 0.875 4.025
3.625 0.875 4.025
3.75 0.875 4.025
3.875 0.875 4.025
4 0.875 4.025
0 1 4.025
0.125 1 4.025
0.25 1 4.025
0.375 1 4.025
0.5 1 4.025
0.625 1 4.025
0.75 1 4.025
0.875 1 4.025
1 1 4.025
1.125 1 4.025
1.25 1 4.025
1.375 1 4.025
1.5 1 4.025
1.625 1 4.025
1.75 1 4.025
1.875 1 4.025
2 1 4.025
2.125 1 4.025
2.25 1 4.025
2.375 1 4.025
2.5 1 4.025
2.625 1 4.025
2.75 1 4.025
2.875 1 4.025
3 1 4.025
3.125 1 4.025
3.25 1 4.025
3.375 1 4.025
3.5 1 4.025
3.625 1 4.025
3.75 1 4.025
3.875 1 4.025
4 1 4.025
0 0 4.15
0.125 0 4.15
0.25 0 4.15
0.375 0 4.15
0.5 0 4.15
0.625 0 4.15
0.75 0 4.15
0.875 0 4.15
1 0 4.15
1.125 0 4.15
1.25 0 4.15
1.375 0 4.15
1.5 0 4.15
1.625 0 4.15
1.75 0 4.15
1.875 0 4.15
2 0 4.15
2.125 0 4.15
2.25 0 4.15
2.375 0 4.15
2.5 0 4.15
2.625 0 4.15
2.75 0 4.15
2.875 0 4.15
3 0 4.15
3.125 0 4.15
3.25 0 4.15
3.375 0 4.15
3.5 0 4.15
3.625 0 4.15
3.75 0 4.15
3.875 0 4.15
4 0 4.15
0 0.125 4.15
0.125 0.125 4.15
0.25 0.125 4.15
0.375 0.125 4.15
0.5 0.125 4.15
0.625 0.125 4.15
0.75 0.125 4.15
0.875 0.125 4.15
1 0.125 4.15
1.125 0.125 4.15
1.25 0.125 4.15
1.375 0.125 4.15
1.5 0.125 4.15
1.625 0.125 4.15
1.75 0.125 4.15
1.875 0.125 4.15
2 0.125 4.15
2.125 0.125 4.15
2.25 0.125 4.15
2.375 0.125 4.15
2.5 0.125 4.15
2.625 0.125 4.15
2.75 0.125 4.15
2.875 0.125 4.15
3 0.125 4.15
3.125 0.125 4.15
3.25 0.125 4.15
3.375 0.125 4.15
3.5 0.125 4.15
3.625 0.125 4.15
3.75 0.125 4.15
3.875 0.125 4.15
4 0.125 4.15
0 0.25 4.15
0.125 0.25 4.15
0.25 0.25 4.15
0.375 0.25 4.15
0.5 0.25 4.15
0.625 0.25 4.15
0.75 0.25 4.15
0.875 0.25 4.15
1 0.25 4.15
1.125 0.25 4.15
1.25 0.25 4.15
1.375 0.25 4.15
1.5 0.25 4.15
1.625 0.25 4.15
1.75 0.25 4.15
1.875 0.25 4.15
2 0.25 4.15
2.125 0.25 4.15
2.25 0.25 4.15
2.375 0.25 4.15
2.5 0.25 4.15
2.625 0.25 4.15
2.75 0.25 4.15
2.875 0.25 4.15
3 0.25 4.15
3.125 0.25 4.15
3.25 0.25 4.15
3.375 0.25 4.15
3.5 0.25 4.15
3.625 0.25 4.15
3.75 0.25 4.15
3.875 0.25 4.15
4 0.25 4.15
0 0.375 4.15
0.125 0.375 4.15
0.25 0.375 4.15
0.375 0.375 4.15
0.5 0.375 4.15
0.625 0.375 4.15
0.75 0.375 4.15
0.875 0.375 4.15
1 0.375 4.15
1.125 0.375 4.15
1.25 0.375 4.15
1.375 0.375 4.15
1.5 0.375 4.15
1.625 0.375 4.15
1.75 0.375 4.15
1.875 0.375 4.15
2 0.375 4.15
2.125 0.375 4.15
2.25 0.375 4.15
2.375 0.375 4.15
2.5 0.375 4.15
2.625 0.375 4.15
2.75 0.375 4.15
2.875 0.375 4.15
3 0.375 4.15
3.125 0.375 4.15
3.25 0.375 4.15
3.375 0.375 4.15
3.5 0.375 4.15
3.625 0.375 4.15
3.75 0.375 4.15
3.875 0.375 4.15
4 0.375 4.15
0 0.5 4.15
0.125 0.5 4.15
0.25 0.5 4.15
0.375 0.5 4.15
0.5 0.5 4.15
0.625 0.5 4.15
0.75 0.5 4.15
0.875 0.5 4.15
1 0.5 4.15
1.125 0.5 4.15
1.25 0.5 4.15
1.375 0.5 4.15
1.5 0.5 4.15
1.625 0.5 4.15
1.75 0.5 4.15
1.875 0.5 4.15
2 0.5 4.15
2.125 0.5 4.15
2.25 0.5 4.15
2.375 0.5 4.15
2.5 0.5 4.15
2.625 0.5 4.15
2.75 0.5 4.15
2.875 0.5 4.15
3 0.5 4.15
3.125 0.5 4.15
3.25 0.5 4.15
3.375 0.5 4.15
3.5 0.5 4.15
3.625 0.5 4.15
3.75 0.5 4.15
3.875 0.5 4.15
4 0.5 4.15
0 0.625 4.15
0.125 0.625 4.15
0.25 0.625 4.15
0.375 0.625 4.15
0.5 0.625 4.15
0.625 0.625 4.15
0.75 0.625 4.15
0.875 0.625 4.15
1 0.625 4.15
1.125 0.625 4.15
1.25 0.625 4.15
1.375 0.625 4.15
1.5 0.625 4.15
1.625 0.625 4.15
1.75 0.625 4.15
1.875 0.625 4.15
2 0.625 4.15
2.125 0.625 4.15
2.25 0.625 4.15
2.375 0.625 4.15
2.5 0.625 4.15
2.625 0.625 4.15
2.75 0.625 4.15
2.875 0.625 4.15
3 0.625 4.15
3.125 0.625 4.15
3.25 0.625 4.15
3.375 0.625 4.15
3.5 0.625 4.15
3.625 0.625 4.15
3.75 0.625 4.15
3.875 0.625 4.15
4 0.625 4.15
0 0.75 4.15
0.125 0.75 4.15
0.25 0.75 4.15
0.375 0.75 4.15
0.5 0.75 4.15
0.625 0.75 4.15
0.75 0.75 4.15
0.875 0.75 4.15
1 0.75 4.15
1.125 0.75 4.15
1.25 0.75 4.15
1.375 0.75 4.15
1.5 0.75 4.15
1.625 0.75 4.15
1.75 0.75 4.15
1.875 0.75 4.15
2 0.75 4.15
2.125 0.75 4.15
2.25 0.75 4.15
2.375 0.75 4.15
2.5 0.75 4.15
2.625 0.75 4.15
2.75 0.75 4.15
2.875 0.75 4.15
3 0.75 4.15
3.125 0.75 4.15
3.25 0.75 4.15
3.375 0.75 4.15
3.5 0.75 4.15
3.625 0.75 4.15
3.75 0.75 4.15
3.875 0.75 4.15
4 0.75 4.15
0 0.875 4.15
0.125 0.875 4.15
0.25 0.875 4.15
0.375 0.875 4.15
0.5 0.875 4.15
0.625 0.875 4.15
0.75 0.875 4.15
0.875 0.875 4.15
1 0.875 4.15
1.125 0.875 4.15
1.25 0.875 4.15
1.375 0.875 4.15
1.5 0.875 4.15
1.625 0.875 4.15
1.75 0.875 4.15
1.875 0.875 4.15
2 0.875 4.15
2.125 0.875 4.15
2.25 0.875 4.15
2.375 0.875 4.15
2.5 0.875 4.15
2.625 0.875 4.15
2.75 0.875 4.15
2.875 0.875 4.15
3 0.875 4.15
3.125 0.875 4.15
3.25 0.875 4.15
3.375 0.875 4.15
3.5 0.875 4.15
3.625 0.875 4.15
3.75 0.875 4.15
3.875 0.875 4.15
4 0.875 4.15
0 1 4.15
0.125 1 4.15
0.25 1 4.15
0.375 1 4.15
0.5 1 4.15
0.625 1 4.15
0.75 1 4.15
0.875 1 4.15
1 1 4.15
1.125 1 4.15
1.25 1 4.15
1.375 1 4.15
1.5 1 4.15
1.625 1 4.15
1.75 1 4.15
1.875 1 4.15
2 1 4.15
2.125 1 4.15
2.25 1 4.15
2.375 1 4.15
2.5 1 4.15
2.625 1 4.15
2.75 1 4.15
2.875 1 4.15
3 1 4.15
3.125 1 4.15
3.25 1 4.15
3.375 1 4.15
3.5 1 4.15
3.625 1 4.15
3.75 1 4.15
3.875 1 4.15
4 1 4.15
0 0 4.275
0.125 0 4.275
0.25 0 4.275
0.375 0 4.275
0.5 0 4.275
0.625 0 4.275
0.75 0 4.275
0.875 0 4.275
1 0 4.275
1.125 0 4.275
1.25 0 4.275
1.375 0 4.275
1.5 0 4.275
1.625 0 4.275
1.75 0 4.275
1.875 0 4.275
2 0 4.275
2.125 0 4.275
2.25 0 4.275
2.375 0 4.275
2.5 0 4.275
2.625 0 4.275
2.75 0 4.275
2.875 0 4.275
3 0 4.275
3.125 0 4.275
3.25 0 4.275
3.375 0 4.275
3.5 0 4.275
3.625 0 4.275
3.75 0 4.275
3.875 0 4.275
4 0 4.275
0 0.125 4.275
0.125 0.125 4.275
0.25 0.125 4.275
0.375 0.125 4.275
0.5 0.125 4.275
0.625 0.125 4.275
0.75 0.125 4.275
0.875 0.125 4.275
1 0.125 4.275
1.125 0.125 4.275
1.25 0.125 4.275
1.375 0.125 4.275
1.5 0.125 4.275
1.625 0.125 4.275
1.75 0.125 4.275
1.875 0.125 4.275
2 0.125 4.275
2.125 0.125 4.275
2.25 0.125 4.275
2.375 0.125 4.275
2.5 0.125 4.275
2.625 0.125 4.275
2.75 0.125 4.275
2.875 0.125 4.275
3 0.125 4.275
3.125 0.125 4.275
3.25 0.125 4.275
3.375 0.125 4.275
3.5 0.125 4.275
3.625 0.125 4.275
3.75 0.125 4.275
3.875 0.125 4.275
4 0.125 4.275
0 0.25 4.275
0.125 0.25 4.275
0.25 0.25 4.275
0.375 0.25 4.275
0.5 0.25 4.275
0.625 0.25 4.275
0.75 0.25 4.275
0.875 0.25 4.275
1 0.25 4.275
1.125 0.25 4.275
1.25 0.25 4.275
1.375 0.25 4.275
1.5 0.25 4.275
1.625 0.25 4.275
1.75 0.25 4.275
1.875 0.25 4.275
2 0.25 4.275
2.125 0.25 4.275
2.25 0.25 4.275
2.375 0.25 4.275
2.5 0.25 4.275
2.625 0.25 4.275
2.75 0.25 4.275
2.875 0.25 4.275
3 0.25 4.275
3.125 0.25 4.275
3.25 0.25 4.275
3.375 0.25 4.275
3.5 0.25 4.275
3.625 0.25 4.275
3.75 0.25 4.275
3.875 0.25 4.275
4 0.25 4.275
0 0.375 4.275
0.125 0.375 4.275
0.25 0.375 4.275
0.375 0.375 4.275
0.5 0.375 4.275
0.625 0.375 4.275
0.75 0.375 4.275
0.875 0.375 4.275
1 0.375 4.275
1.125 0.375 4.275
1.25 0.375 4.275
1.375 0.375 4.275
1.5 0.375 4.275
1.625 0.375 4.275
1.75 0.375 4.275
1.875 0.375 4.275
2 0.375 4.275
2.125 0.375 4.275
2.25 0.375 4.275
2.375 0.375 4.275
2.5 0.375 4.275
2.625 0.375 4.275
2.75 0.375 4.275
2.875 0.375 4.275
3 0.375 4.275
3.125 0.375 4.275
3.25 0.375 4.275
3.375 0.375 4.275
3.5 0.375 4.275
3.625 0.375 4.275
3.75 0.375 4.275
3.875 0.375 4.275
4 0.375 4.275
0 0.5 4.275
0.125 0.5 4.275
0.25 0.5 4.275
0.375 0.5 4.275
0.5 0.5 4.275
0.625 0.5 4.275
0.75 0.5 4.275
0.875 0.5 4.275
1 0.5 4.275
1.125 0.5 4.275
1.25 0.5 4.275
1.375 0.5 4.275
1.5 0.5 4.275
1.625 0.5 4.275
1.75 0.5 4.275
1.875 0.5 4.275
2 0.5 4.275
2.125 0.5 4.275
2.25 0.5 4.275
2.375 0.5 4.275
2.5 0.5 4.275
2.625 0.5 4.275
2.75 0.5 4.275
2.875 0.5 4.275
3 0.5 4.275
3.125 0.5 4.275
3.25 0.5 4.275
3.375 0.5 4.275
3.5 0.5 4.275
3.625 0.5 4.275
3.75 0.5 4.275
3.875 0.5 4.275
4 0.5 4.275
0 0.625 4.275
0.125 0.625 4.275
0.25 0.625 4.275
0.375 0.625 4.275
0.5 0.625 4.275
0.625 0.625 4.275
0.75 0.625 4.275
0.875 0.625 4.275
1 0.625 4.275
1.125 0.625 4.275
1.25 0.625 4.275
1.375 0.625 4.275
1.5 0.625 4.275
1.625 0.625 4.275
1.75 0.625 4.275
1.875 0.625 4.275
2 0.625 4.275
2.125 0.625 4.275
2.25 0.625 4.275
2.375 0.625 4.275
2.5 0.625 4.275
2.625 0.625 4.275
2.75 0.625 4.275
2.875 0.625 4.275
3 0.625 4.275
3.125 0.625 4.275
3.25 0.625 4.275
3.375 0.625 4.275
3.5 0.625 4.275
3.625 0.625 4.275
3.75 0.625 4.275
3.875 0.625 4.275
4 0.625 4.275
0 0.75 4.275
0.125 0.75 4.275
0.25 0.75 4.275
0.375 0.75 4.275
0.5 0.75 4.275
0.625 0.75 4.275
0.75 0.75 4.275
0.875 0.75 4.275
1 0.75 4.275
1.125 0.75 4.275
1.25 0.75 4.275
1.375 0.75 4.275
1.5 0.75 4.275
1.625 0.75 4.275
1.75 0.75 4.275
1.875 0.75 4.275
2 0.75 4.275
2.125 0.75 4.275
2.25 0.75 4.275
2.375 0.75 4.275
2.5 0.75 4.275
2.625 0.75 4.275
2.75 0.75 4.275
2.875 0.75 4.275
3 0.75 4.275
3.125 0.75 4.275
3.25 0.75 4.275
3.375 0.75 4.275
3.5 0.75 4.275
3.625 0.75 4.275
3.75 0.75 4.275
3.875 0.75 4.275
4 0.75 4.275
0 0.875 4.275
0.125 0.875 4.275
0.25 0.875 4.275
0.375 0.875 4.275
0.5 0.875 4.275
0.625 0.875 4.275
0.75 0.875 4.275
0.875 0.875 4.275
1 0.875 4.275
1.125 0.875 4.275
1.25 0.875 4.275
1.375 0.875 4.275
1.5 0.875 4.275
1.625 0.875 4.275
1.75 0.875 4.275
1.875 0.875 4.275
2 0.875 4.275
2.125 0.875 4.275
2.25 0.875 4.275
2.375 0.875 4.275
2.5 0.875 4.275
2.625 0.875 4.275
2.75 0.875 4.275
2.875 0.875 4.275
3 0.875 4.275
3.125 0.875 4.275
3.25 0.875 4.275
3.375 0.875 4.275
3.5 0.875 4.275
3.625 0.875 4.275
3.75 0.875 4.275
3.875 0.875 4.275
4 0.875 4.275
0 1 4.275
0.125 1 4.275
0.25 1 4.275
0.375 1 4.275
0.5 1 4.275
0.625 1 4.275
0.75 1 4.275
0.875 1 4.275
1 1 4.275
1.125 1 4.275
1.25 1 4.275
1.375 1 4.275
1.5 1 4.275
1.625 1 4.275
1.75 1 4.275
1.875 1 4.275
2 1 4.275
2.125 1 4.275
2.25 1 4.275
2.375 1 4.275
2.5 1 4.275
2.625 1 4.275
2.75 1 4.275
2.875 1 4.275
3 1 4.275
3.125 1 4.275
3.25 1 4.275
3.375 1 4.275
3.5 1 4.275
3.625 1 4.275
3.75 1 4.275
3.875 1 4.275
4 1 4.275
0 0 4.4
0.125 0 4.4
0.25 0 4.4
0.375 0 4.4
0.5 0 4.4
0.625 0 4.4
0.75 0 4.4
0.875 0 4.4
1 0 4.4
1.125 0 4.4
1.25 0 4.4
1.375 0 4.4
1.5 0 4.4
1.625 0 4.4
1.75 0 4.4
1.875 0 4.4
2 0 4.4
2.125 0 4.4
2.25 0 4.4
2.375 0 4.4
2.5 0 4.4
2.625 0 4.4
2.75 0 4.4
2.875 0 4.4
3 0 4.4
3.125 0 4.4
3.25 0 4.4
3.375 0 4.4
3.5 0 4.4
3.625 0 4.4
3.75 0 4.4
3.875 0 4.4
4 0 4.4
0 0.125 4.4
0.125 0.125 4.4
0.25 0.125 4.4
0.375 0.125 4.4
0.5 0.125 4.4
0.625 0.125 4.4
0.75 0.125 4.4
0.875 0.125 4.4
1 0.125 4.4
1.125 0.125 4.4
1.25 0.125 4.4
1.375 0.125 4.4
1.5 0.125 4.4
1.625 0.125 4.4
1.75 0.125 4.4
1.875 0.125 4.4
2 0.125 4.4
2.125 0.125 4.4
2.25 0.125 4.4
2.375 0.125 4.4
2.5 0.125 4.4
2.625 0.125 4.4
2.75 0.125 4.4
2.875 0.125 4.4
3 0.125 4.4
3.125 0.125 4.4
3.25 0.125 4.4
3.375 0.125 4.4
3.5 0.125 4.4
3.625 0.125 4.4
3.75 0.125 4.4
3.875 0.125 4.4
4 0.125 4.4
0 0.25 4.4
0.125 0.25 4.4
0.25 0.25 4.4
0.375 0.25 4.4
0.5 0.25 4.4
0.625 0.25 4.4
0.75 0.25 4.4
0.875 0.25 4.4
1 0.25 4.4
1.125 0.25 4.4
1.25 0.25 4.4
1.375 0.25 4.4
1.5 0.25 4.4
1.625 0.25 4.4
1.75 0.25 4.4
1.875 0.25 4.4
2 0.25 4.4
2.125 0.25 4.4
2.25 0.25 4.4
2.375 0.25 4.4
2.5 0.25 4.4
2.625 0.25 4.4
2.75 0.25 4.4
2.875 0.25 4.4
3 0.25 4.4
3.125 0.25 4.4
3.25 0.25 4.4
3.375 0.25 4.4
3.5 0.25 4.4
3.625 0.25 4.4
3.75 0.25 4.4
3.875 0.25 4.4
4 0.25 4.4
0 0.375 4.4
0.125 0.375 4.4
0.25 0.375 4.4
0.375 0.375 4.4
0.5 0.375 4.4
0.625 0.375 4.4
0.75 0.375 4.4
0.875 0.375 4.4
1 0.375 4.4
1.125 0.375 4.4
1.25 0.375 4.4
1.375 0.375 4.4
1.5 0.375 4.4
1.625 0.375 4.4
1.75 0.375 4.4
1.875 0.375 4.4
2 0.375 4.4
2.125 0.375 4.4
2.25 0.375 4.4
2.375 0.375 4.4
2.5 0.375 4.4
2.625 0.375 4.4
2.75 0.375 4.4
2.875 0.375 4.4
3 0.375 4.4
3.125 0.375 4.4
3.25 0.375 4.4
3.375 0.375 4.4
3.5 0.375 4.4
3.625 0.375 4.4
3.75 0.375 4.4
3.875 0.375 4.4
4 0.375 4.4
0 0.5 4.4
0.125 0.5 4.4
0.25 0.5 4.4
0.375 0.5 4.4
0.5 0.5 4.4
0.625 0.5 4.4
0.75 0.5 4.4
0.875 0.5 4.4
1 0.5 4.4
1.125 0.5 4.4
1.25 0.5 4.4
1.375 0.5 4.4
1.5 0.5 4.4
1.625 0.5 4.4
1.75 0.5 4.4
1.875 0.5 4.4
2 0.5 4.4
2.125 0.5 4.4
2.25 0.5 4.4
2.375 0.5 4.4
2.5 0.5 4.4
2.625 0.5 4.4
2.75 0.5 4.4
2.875 0.5 4.4
3 0.5 4.4
3.125 0.5 4.4
3.25 0.5 4.4
3.375 0.5 4.4
3.5 0.5 4.4
3.625 0.5 4.4
3.75 0.5 4.4
3.875 0.5 4.4
4 0.5 4.4
0 0.625 4.4
0.125 0.625 4.4
0.25 0.625 4.4
0.375 0.625 4.4
0.5 0.625 4.4
0.625 0.625 4.4
0.75 0.625 4.4
0.875 0.625 4.4
1 0.625 4.4
1.125 0.625 4.4
1.25 0.625 4.4
1.375 0.625 4.4
1.5 0.625 4.4
1.625 0.625 4.4
1.75 0.625 4.4
1.875 0.625 4.4
2 0.625 4.4
2.125 0.625 4.4
2.25 0.625 4.4
2.375 0.625 4.4
2.5 0.625 4.4
2.625 0.625 4.4
2.75 0.625 4.4
2.875 0.625 4.4
3 0.625 4.4
3.125 0.625 4.4
3.25 0.625 4.4
3.375 0.625 4.4
3.5 0.625 4.4
3.625 0.625 4.4
3.75 0.625 4.4
3.875 0.625 4.4
4 0.625 4.4
0 0.75 4.4
0.125 0.75 4.4
0.25 0.75 4.4
0.375 0.75 4.4
0.5 0.75 4.4
0.625 0.75 4.4
0.75 0.75 4.4
0.875 0.75 4.4
1 0.75 4.4
1.125 0.75 4.4
1.25 0.75 4.4
1.375 0.75 4.4
1.5 0.75 4.4
1.625 0.75 4.4
1.75 0.75 4.4
1.875 0.75 4.4
2 0.75 4.4
2.125 0.75 4.4
2.25 0.75 4.4
2.375 0.75 4.4
2.5 0.75 4.4
2.625 0.75 4.4
2.75 0.75 4.4
2.875 0.75 4.4
3 0.75 4.4
3.125 0.75 4.4
3.25 0.75 4.4
3.375 0.75 4.4
3.5 0.75 4.4
3.625 0.75 4.4
3.75 0.75 4.4
3.875 0.75 4.4
4 0.75 4.4
0 0.875 4.4
0.125 0.875 4.4
0.25 0.875 4.4
0.375 0.875 4.4
0.5 0.875 4.4
0.625 0.875 4.4
0.75 0.875 4.4
0.875 0.875 4.4
1 0.875 4.4
1.125 0.875 4.4
1.25 0.875 4.4
1.375 0.875 4.4
1.5 0.875 4.4
1.625 0.875 4.4
1.75 0.875 4.4
1.875 0.875 4.4
2 0.875 4.4
2.125 0.875 4.4
2.25 0.875 4.4
2.375 0.875 4.4
2.5 0.875 4.4
2.625 0.875 4.4
2.75 0.875 4.4
2.875 0.875 4.4
3 0.875 4.4
3.125 0.875 4.4
3.25 0.875 4.4
3.375 0.875 4.4
3.5 0.875 4.4
3.625 0.875 4.4
3.75 0.875 4.4
3.875 0.875 4.4
4 0.875 4.4
0 1 4.4
0.125 1 4.4
0.25 1 4.4
0.375 1 4.4
0.5 1 4.4
0.625 1 4.4
0.75 1 4.4
0.875 1 4.4
1 1 4.4
1.125 1 4.4
1.25 1 4.4
1.375 1 4.4
1.5 1 4.4
1.625 1 4.4
1.75 1 4.4
1.875 1 4.4
2 1 4.4
2.125 1 4.4
2.25 1 4.4
2.375 1 4.4
2.5 1 4.4
2.625 1 4.4
2.75 1 4.4
2.875 1 4.4
3 1 4.4
3.125 1 4.4
3.25 1 4.4
3.375 1 4.4
3.5 1 4.4
3.625 1 4.4
3.75 1 4.4
3.875 1 4.4
4 1 4.4
0.0625 0 3.4
0.125 0 3.4625
0.0625 0 3.525
0 0 3.4625
0 0.0625 3.4
0.125 0.0625 3.4
0.125 0.0625 3.525
0 0.0625 3.525
0.0625 0.125 3.4
0.125 0.125 3.4625
0.0625 0.125 3.525
0 0.125 3.4625
0.0625 0 3.4625
0.0625 0.0625 3.4
0.125 0.0625 3.4625
0.0625 0.0625 3.525
0 0.0625 3.4625
0.0625 0.125 3.4625
0.0625 0.0625 3.4625
0.1875 0 3.4
0.25 0 3.4625
0.1875 0 3.525
0.25 0.0625 3.4
0.25 0.0625 3.525
0.1875 0.125 3.4
0.25 0.125 3.4625
0.1875 0.125 3.525
0.1875 0 3.4625
0.1875 0.0625 3.4
0.25 0.0625 3.4625
0.1875 0.0625 3.525
0.1875 0.125 3.4625
0.1875 0.0625 3.4625
0.3125 0 3.4
0.375 0 3.4625
0.3125 0 3.525
0.375 0.0625 3.4
0.375 0.0625 3.525
0.3125 0.125 3.4
0.375 0.125 3.4625
0.3125 0.125 3.525
0.3125 0 3.4625
0.3125 0.0625 3.4
0.375 0.0625 3.4625
0.3125 0.0625 3.525
0.3125 0.125 3.4625
0.3125 0.0625 3.4625
0.4375 0 3.4
0.5 0 3.4625
0.4375 0 3.525
0.5 0.0625 3.4
0.5 0.0625 3.525
0.4375 0.125 3.4
0.5 0.125 3.4625
0.4375 0.125 3.525
0.4375 0 3.4625
0.4375 0.0625 3.4
0.5 0.0625 3.4625
0.4375 0.0625 3.525
0.4375 0.125 3.4625
0.4375 0.0625 3.4625
0.5625 0 3.4
0.625 0 3.4625
0.5625 0 3.525
0.625 0.0625 3.4
0.625 0.0625 3.525
0.5625 0.125 3.4
0.625 0.125 3.4625
0.5625 0.125 3.525
0.5625 0 3.4625
0.5625 0.0625 3.4
0.625 0.0625 3.4625
0.5625 0.0625 3.525
0.5625 0.125 3.4625
0.5625 0.0625 3.4625
0.6875 0 3.4
0.75 0 3.4625
0.6875 0 3.525
0.75 0.0625 3.4
0.75 0.0625 3.525
0.6875 0.125 3.4
0.75 0.125 3.4625
0.6875 0.125 3.525
0.6875 0 3.4625
0.6875 0.0625 3.4
0.75 0.0625 3.4625
0.6875 0.0625 3.525
0.6875 0.125 3.4625
0.6875 0.0625 3.4625
0.8125 0 3.4
0.875 0 3.4625
0.8125 0 3.525
0.875 0.0625 3.4
0.875 0.0625 3.525
0.8125 0.125 3.4
0.875 0.125 3.4625
0.8125 0.125 3.525
0.8125 0 3.4625
0.8125 0.0625 3.4
0.875 0.0625 3.4625
0.8125 0.0625 3.525
0.8125 0.125 3.4625
0.8125 0.0625 3.4625
0.9375 0 3.4
1 0 3.4625
0.9375 0 3.525
1 0.0625 3.4
1 0.0625 3.525
0.9375 0.125 3.4
1 0.125 3.4625
0.9375 0.125 3.525
0.9375 0 3.4625
0.9375 0.0625 3.4
1 0.0625 3.4625
0.9375 0.0625 3.525
0.9375 0.125 3.4625
0.9375 0.0625 3.4625
1.0625 0 3.4
1.125 0 3.4625
1.0625 0 3.525
1.125 0.0625 3.4
1.125 0.0625 3.525
1.0625 0.125 3.4
1.125 0.125 3.4625
1.0625 0.125 3.525
1.0625 0 3.4625
1.0625 0.0625 3.4
1.125 0.0625 3.4625
1.0625 0.0625 3.525
1.0625 0.125 3.4625
1.0625 0.0625 3.4625
1.1875 0 3.4
1.25 0 3.4625
1.1875 0 3.525
1.25 0.0625 3.4
1.25 0.0625 3.525
1.1875 0.125 3.4
1.25 0.125 3.4625
1.1875 0.125 3.525
1.1875 0 3.4625
1.1875 0.0625 3.4
1.25 0.0625 3.4625
1.1875 0.0625 3.525
1.1875 0.125 3.4625
1.1875 0.0625 3.4625
1.3125 0 3.4
1.375 0 3.4625
1.3125 0 3.525
1.375 0.0625 3.4
1.375 0.0625 3.525
1.3125 0.125 3.4
1.375 0.125 3.4625
1.3125 0.125 3.525
1.3125 0 3.4625
1.3125 0.0625 3.4
1.375 0.0625 3.4625
1.3125 0.0625 3.525
1.3125 0.125 3.4625
1.3125 0.0625 3.4625
1.4375 0 3.4
1.5 0 3.4625
1.4375 0 3.525
1.5 0.0625 3.4
1.5 0.0625 3.525
1.4375 0.125 3.4
1.5 0.125 3.4625
1.4375 0.125 3.525
1.4375 0 3.4625
1.4375 0.0625 3.4
1.5 0.0625 3.4625
1.4375 0.0625 3.525
1.4375 0.125 3.4625
1.4375 0.0625 3.4625
1.5625 0 3.4
1.625 0 3.4625
1.5625 0 3.525
1.625 0.0625 3.4
1.625 0.0625 3.525
1.5625 0.125 3.4
1.625 0.125 3.4625
1.5625 0.125 3.525
1.5625 0 3.4625
1.5625 0.0625 3.4
1.625 0.0625 3.4625
1.5625 0.0625 3.525
1.5625 0.125 3.4625
1.5625 0.0625 3.4625
1.6875 0 3.4
1.75 0 3.4625
1.6875 0 3.525
1.75 0.0625 3.4
1.75 0.0625 3.525
1.6875 0.125 3.4
1.75 0.125 3.4625
1.6875 0.125 3.525
1.6875 0 3.4625
1.6875 0.0625 3.4
1.75 0.0625 3.4625
1.6875 0.0625 3.525
1.6875 0.125 3.4625
1.6875 0.0625 3.4625
1.8125 0 3.4
1.875 0 3.4625
1.8125 0 3.525
1.875 0.0625 3.4
1.875 0.0625 3.525
1.8125 0.125 3.4
1.875 0.125 3.4625
1.8125 0.125 3.525
1.8125 0 3.4625
1.8125 0.0625 3.4
1.875 0.0625 3.4625
1.8125 0.0625 3.525
1.8125 0.125 3.4625
1.8125 0.0625 3.4625
1.9375 0 3.4
2 0 3.4625
1.9375 0 3.525
2 0.0625 3.4
2 0.0625 3.525
1.9375 0.125 3.4
2 0.125 3.4625
1.9375 0.125 3.525
1.9375 0 3.4625
1.9375 0.0625 3.4
2 0.0625 3.4625
1.9375 0.0625 3.525
1.9375 0.125 3.4625
1.9375 0.0625 3.4625
2.0625 0 3.4
2.125 0 3.4625
2.0625 0 3.525
2.125 0.0625 3.4
2.125 0.0625 3.525
2.0625 0.125 3.4
2.125 0.125 3.4625
2.0625 0.125 3.525
2.0625 0 3.4625
2.0625 0.0625 3.4
2.125 0.0625 3.4625
2.0625 0.0625 3.525
2.0625 0.125 3.4625
2.0625 0.0625 3.4625
2.1875 0 3.4
2.25 0 3.4625
2.1875 0 3.525
2.25 0.0625 3.4
2.25 0.0625 3.525
2.1875 0.125 3.4
2.25 0.125 3.4625
2.1875 0.125 3.525
2.1875 0 3.4625
2.1875 0.0625 3.4
2.25 0.0625 3.4625
2.1875 0.0625 3.525
2.1875 0.125 3.4625
2.1875 0.0625 3.4625
2.3125 0 3.4
2.375 0 3.4625
2.3125 0 3.525
2.375 0.0625 3.4
2.375 0.0625 3.525
2.3125 0.125 3.4
2.375 0.125 3.4625
2.3125 0.125 3.525
2.3125 0 3.4625
2.3125 0.0625 3.4
2.375 0.0625 3.4625
2.3125 0.0625 3.525
2.3125 0.125 3.4625
2.3125 0.0625 3.4625
2.4375 0 3.4
2.5 0 3.4625
2.4375 0 3.525
2.5 0.0625 3.4
2.5 0.0625 3.525
2.4375 0.125 3.4
2.5 0.125 3.4625
2.4375 0.125 3.525
2.4375 0 3.4625
2.4375 0.0625 3.4
2.5 0.0625 3.4625
2.4375 0.0625 3.525
2.4375 0.125 3.4625
2.4375 0.0625 3.4625
2.5625 0 3.4
2.625 0 3.4625
2.5625 0 3.525
2.625 0.0625 3.4
2.625 0.0625 3.525
2.5625 0.125 3.4
2.625 0.125 3.4625
2.5625 0.125 3.525
2.5625 0 3.4625
2.5625 0.0625 3.4
2.625 0.0625 3.4625
2.5625 0.0625 3.525
2.5625 0.125 3.4625
2.5625 0.0625 3.4625
2.6875 0 3.4
2.75 0 3.4625
2.6875 0 3.525
2.75 0.0625 3.4
2.75 0.0625 3.525
2.6875 0.125 3.4
2.75 0.125 3.4625
2.6875 0.125 3.525
2.6875 0 3.4625
2.6875 0.0625 3.4
2.75 0.0625 3.4625
2.6875 0.0625 3.525
2.6875 0.125 3.4625
2.6875 0.0625 3.4625
2.8125 0 3.4
2.875 0 3.4625
2.8125 0 3.525
2.875 0.0625 3.4
2.875 0.0625 3.525
2.8125 0.125 3.4
2.875 0.125 3.4625
2.8125 0.125 3.525
2.8125 0 3.4625
2.8125 0.0625 3.4
2.875 0.0625 3.4625
2.8125 0.0625 3.525
2.8125 0.125 3.4625
2.8125 0.0625 3.4625
2.9375 0 3.4
3 0 3.4625
2.9375 0 3.525
3 0.0625 3.4
3 0.0625 3.525
2.9375 0.125 3.4
3 0.125 3.4625
2.9375 0.125 3.525
2.9375 0 3.4625
2.9375 0.0625 3.4
3 0.0625 3.4625
2.9375 0.0625 3.525
2.9375 0.125 3.4625
2.9375 0.0625 3.4625
3.0625 0 3.4
3.125 0 3.4625
3.0625 0 3.525
3.125 0.0625 3.4
3.125 0.0625 3.525
3.0625 0.125 3.4
3.125 0.125 3.4625
3.0625 0.125 3.525
3.0625 0 3.4625
3.0625 0.0625 3.4
3.125 0.0625 3.4625
3.0625 0.0625 3.525
3.0625 0.125 3.4625
3.0625 0.0625 3.4625
3.1875 0 3.4
3.25 0 3.4625
3.1875 0 3.525
3.25 0.0625 3.4
3.25 0.0625 3.525
3.1875 0.125 3.4
3.25 0.125 3.4625
3.1875 0.125 3.525
3.1875 0 3.4625
3.1875 0.0625 3.4
3.25 0.0625 3.4625
3.1875 0.0625 3.525
3.1875 0.125 3.4625
3.1875 0.0625 3.4625
3.3125 0 3.4
3.375 0 3.4625
3.3125 0 3.525
3.375 0.0625 3.4
3.375 0.0625 3.525
3.3125 0.125 3.4
3.375 0.125 3.4625
3.3125 0.125 3.525
3.3125 0 3.4625
3.3125 0.0625 3.4
3.375 0.0625 3.4625
3.3125 0.0625 3.525
3.3125 0.125 3.4625
3.3125 0.0625 3.4625
3.4375 0 3.4
3.5 0 3.4625
3.4375 0 3.525
3.5 0.0625 3.4
3.5 0.0625 3.525
3.4375 0.125 3.4
3.5 0.125 3.4625
3.4375 0.125 3.525
3.4375 0 3.4625
3.4375 0.0625 3.4
3.5 0.0625 3.4625
3.4375 0.0625 3.525
3.4375 0.125 3.4625
3.4375 0.0625 3.4625
3.5625 0 3.4
3.625 0 3.4625
3.5625 0 3.525
3.625 0.0625 3.4
3.625 0.0625 3.525
3.5625 0.125 3.4
3.625 0.125 3.4625
3.5625 0.125 3.525
3.5625 0 3.4625
3.5625 0.0625 3.4
3.625 0.0625 3.4625
3.5625 0.0625 3.525
3.5625 0.125 3.4625
3.5625 0.0625 3.4625
3.6875 0 3.4
3.75 0 3.4625
3.6875 0 3.525
3.75 0.0625 3.4
3.75 0.0625 3.525
3.6875 0.125 3.4
3.75 0.125 3.4625
3.6875 0.125 3.525
3.6875 0 3.4625
3.6875 0.0625 3.4
3.75 0.0625 3.4625
3.6875 0.0625 3.525
3.6875 0.125 3.4625
3.6875 0.0625 3.4625
3.8125 0 3.4
3.875 0 3.4625
3.8125 0 3.525
3.875 0.0625 3.4
3.875 0.0625 3.525
3.8125 0.125 3.4
3.875 0.125 3.4625
3.8125 0.125 3.525
3.8125 0 3.4625
3.8125 0.0625 3.4
3.875 0.0625 3.4625
3.8125 0.0625 3.525
3.8125 0.125 3.4625
3.8125 0.0625 3.4625
3.9375 0 3.4
4 0 3.4625
3.9375 0 3.525
4 0.0625 3.4
4 0.0625 3.525
3.9375 0.125 3.4
4 0.125 3.4625
3.9375 0.125 3.525
3.9375 0 3.4625
3.9375 0.0625 3.4
4 0.0625 3.4625
3.9375 0.0625 3.525
3.9375 0.125 3.4625
3.9375 0.0625 3.4625
0 0.1875 3.4
0.125 0.1875 3.4
0.125 0.1875 3.525
0 0.1875 3.525
0.0625 0.25 3.4
0.125 0.25 3.4625
0.0625 0.25 3.525
0 0.25 3.4625
0.0625 0.1875 3.4
0.125 0.1875 3.4625
0.0625 0.1875 3.525
0 0.1875 3.4625
0.0625 0.25 3.4625
0.0625 0.1875 3.4625
0.25 0.1875 3.4
0.25 0.1875 3.525
0.1875 0.25 3.4
0.25 0.25 3.4625
0.1875 0.25 3.525
0.1875 0.1875 3.4
0.25 0.1875 3.4625
0.1875 0.1875 3.525
0.1875 0.25 3.4625
0.1875 0.1875 3.4625
0.375 0.1875 3.4
0.375 0.1875 3.525
0.3125 0.25 3.4
0.375 0.25 3.4625
0.3125 0.25 3.525
0.3125 0.1875 3.4
0.375 0.1875 3.4625
0.3125 0.1875 3.525
0.3125 0.25 3.4625
0.3125 0.1875 3.4625
0.5 0.1875 3.4
0.5 0.1875 3.525
0.4375 0.25 3.4
0.5 0.25 3.4625
0.4375 0.25 3.525
0.4375 0.1875 3.4
0.5 0.1875 3.4625
0.4375 0.1875 3.525
0.4375 0.25 3.4625
0.4375 0.1875 3.4625
0.625 0.1875 3.4
0.625 0.1875 3.525
0.5625 0.25 3.4
0.625 0.25 3.4625
0.5625 0.25 3.525
0.5625 0.1875 3.4
0.625 0.1875 3.4625
0.5625 0.1875 3.525
0.5625 0.25 3.4625
0.5625 0.1875 3.4625
0.75 0.1875 3.4
0.75 0.1875 3.525
0.6875 0.25 3.4
0.75 0.25 3.4625
0.6875 0.25 3.525
0.6875 0.1875 3.4
0.75 0.1875 3.4625
0.6875 0.1875 3.525
0.6875 0.25 3.4625
0.6875 0.1875 3.4625
0.875 0.1875 3.4
0.875 0.1875 3.525
0.8125 0.25 3.4
0.875 0.25 3.4625
0.8125 0.25 3.525
0.8125 0.1875 3.4
0.875 0.1875 3.4625
0.8125 0.1875 3.525
0.8125 0.25 3.4625
0.8125 0.1875 3.4625
1 0.1875 3.4
1 0.1875 3.525
0.9375 0.25 3.4
1 0.25 3.4625
0.9375 0.25 3.525
0.9375 0.1875 3.4
1 0.1875 3.4625
0.9375 0.1875 3.525
0.9375 0.25 3.4625
0.9375 0.1875 3.4625
1.125 0.1875 3.4
1.125 0.1875 3.525
1.0625 0.25 3.4
1.125 0.25 3.4625
1.0625 0.25 3.525
1.0625 0.1875 3.4
1.125 0.1875 3.4625
1.0625 0.1875 3.525
1.0625 0.25 3.4625
1.0625 0.1875 3.4625
1.25 0.1875 3.4
1.25 0.1875 3.525
1.1875 0.25 3.4
1.25 0.25 3.4625
1.1875 0.25 3.525
1.1875 0.1875 3.4
1.25 0.1875 3.4625
1.1875 0.1875 3.525
1.1875 0.25 3.4625
1.1875 0.1875 3.4625
1.375 0.1875 3.4
1.375 0.1875 3.525
1.3125 0.25 3.4
1.375 0.25 3.4625
1.3125 0.25 3.525
1.3125 0.1875 3.4
1.375 0.1875 3.4625
1.3125 0.1875 3.525
1.3125 0.25 3.4625
1.3125 0.1875 3.4625
1.5 0.1875 3.4
1.5 0.1875 3.525
1.4375 0.25 3.4
1.5 0.25 3.4625
1.4375 0.25 3.525
1.4375 0.1875 3.4
1.5 0.1875 3.4625
1.4375 0.1875 3.525
1.4375 0.25 3.4625
1.4375 0.1875 3.4625
1.625 0.1875 3.4
1.625 0.1875 3.525
1.5625 0.25 3.4
1.625 0.25 3.4625
1.5625 0.25 3.525
1.5625 0.1875 3.4
1.625 0.1875 3.4625
1.5625 0.1875 3.525
1.5625 0.25 3.4625
1.5625 0.1875 3.4625
1.75 0.1875 3.4
1.75 0.1875 3.525
1.6875 0.25 3.4
1.75 0.25 3.4625
1.6875 0.25 3.525
1.6875 0.1875 3.4
1.75 0.1875 3.4625
1.6875 0.1875 3.525
1.6875 0.25 3.4625
1.6875 0.1875 3.4625
1.875 0.1875 3.4
1.875 0.1875 3.525
1.8125 0.25 3.4
1.875 0.25 3.4625
1.8125 0.25 3.525
1.8125 0.1875 3.4
1.875 0.1875 3.4625
1.8125 0.1875 3.525
1.8125 0.25 3.4625
1.8125 0.1875 3.4625
2 0.1875 3.4
2 0.1875 3.525
1.9375 0.25 3.4
2 0.25 3.4625
1.9375 0.25 3.525
1.9375 0.1875 3.4
2 0.1875 3.4625
1.9375 0.1875 3.525
1.9375 0.25 3.4625
1.9375 0.1875 3.4625
2.125 0.1875 3.4
2.125 0.1875 3.525
2.0625 0.25 3.4
2.125 0.25 3.4625
2.0625 0.25 3.525
2.0625 0.1875 3.4
2.125 0.1875 3.4625
2.0625 0.1875 3.525
2.0625 0.25 3.4625
2.0625 0.1875 3.4625
2.25 0.1875 3.4
2.25 0.1875 3.525
2.1875 0.25 3.4
2.25 0.25 3.4625
2.1875 0.25 3.525
2.1875 0.1875 3.4
2.25 0.1875 3.4625
2.1875 0.1875 3.525
2.1875 0.25 3.4625
2.1875 0.1875 3.4625
2.375 0.1875 3.4
2.375 0.1875 3.525
2.3125 0.25 3.4
2.375 0.25 3.4625
2.3125 0.25 3.525
2.3125 0.1875 3.4
2.375 0.1875 3.4625
2.3125 0.1875 3.525
2.3125 0.25 3.4625
2.3125 0.1875 3.4625
2.5 0.1875 3.4
2.5 0.1875 3.525
2.4375 0.25 3.4
2.5 0.25 3.4625
2.4375 0.25 3.525
2.4375 0.1875 3.4
2.5 0.1875 3.4625
2.4375 0.1875 3.525
2.4375 0.25 3.4625
2.4375 0.1875 3.4625
2.625 0.1875 3.4
2.625 0.1875 3.525
2.5625 0.25 3.4
2.625 0.25 3.4625
2.5625 0.25 3.525
2.5625 0.1875 3.4
2.625 0.1875 3.4625
2.5625 0.1875 3.525
2.5625 0.25 3.4625
2.5625 0.1875 3.4625
2.75 0.1875 3.4
2.75 0.1875 3.525
2.6875 0.25 3.4
2.75 0.25 3.4625
2.6875 0.25 3.525
2.6875 0.1875 3.4
2.75 0.1875 3.4625
2.6875 0.1875 3.525
2.6875 0.25 3.4625
2.6875 0.1875 3.4625
2.875 0.1875 3.4
2.875 0.1875 3.525
2.8125 0.25 3.4
2.875 0.25 3.4625
2.8125 0.25 3.525
2.8125 0.1875 3.4
2.875 0.1875 3.4625
2.8125 0.1875 3.525
2.8125 0.25 3.4625
2.8125 0.1875 3.4625
3 0.1875 3.4
3 0.1875 3.525
2.9375 0.25 3.4
3 0.25 3.4625
2.9375 0.25 3.525
2.9375 0.1875 3.4
3 0.1875 3.4625
2.9375 0.1875 3.525
2.9375 0.25 3.4625
2.9375 0.1875 3.4625
3.125 0.1875 3.4
3.125 0.1875 3.525
3.0625 0.25 3.4
3.125 0.25 3.4625
3.0625 0.25 3.525
3.0625 0.1875 3.4
3.125 0.1875 3.4625
3.0625 0.1875 3.525
3.0625 0.25 3.4625
3.0625 0.1875 3.4625
3.25 0.1875 3.4
3.25 0.1875 3.525
3.1875 0.25 3.4
3.25 0.25 3.4625
3.1875 0.25 3.525
3.1875 0.1875 3.4
3.25 0.1875 3.4625
3.1875 0.1875 3.525
3.1875 0.25 3.4625
3.1875 0.1875 3.4625
3.375 0.1875 3.4
3.375 0.1875 3.525
3.3125 0.25 3.4
3.375 0.25 3.4625
3.3125 0.25 3.525
3.3125 0.1875 3.4
3.375 0.1875 3.4625
3.3125 0.1875 3.525
3.3125 0.25 3.4625
3.3125 0.1875 3.4625
3.5 0.1875 3.4
3.5 0.1875 3.525
3.4375 0.25 3.4
3.5 0.25 3.4625
3.4375 0.25 3.525
3.4375 0.1875 3.4
3.5 0.1875 3.4625
3.4375 0.1875 3.525
3.4375 0.25 3.4625
3.4375 0.1875 3.4625
3.625 0.1875 3.4
3.625 0.1875 3.525
3.5625 0.25 3.4
3.625 0.25 3.4625
3.5625 0.25 3.525
3.5625 0.1875 3.4
3.625 0.1875 3.4625
3.5625 0.1875 3.525
3.5625 0.25 3.4625
3.5625 0.1875 3.4625
3.75 0.1875 3.4
3.75 0.1875 3.525
3.6875 0.25 3.4
3.75 0.25 3.4625
3.6875 0.25 3.525
3.6875 0.1875 3.4
3.75 0.1875 3.4625
3.6875 0.1875 3.525
3.6875 0.25 3.4625
3.6875 0.1875 3.4625
3.875 0.1875 3.4
3.875 0.1875 3.525
3.8125 0.25 3.4
3.875 0.25 3.4625
3.8125 0.25 3.525
3.8125 0.1875 3.4
3.875 0.1875 3.4625
3.8125 0.1875 3.525
3.8125 0.25 3.4625
3.8125 0.1875 3.4625
4 0.1875 3.4
4 0.1875 3.525
3.9375 0.25 3.4
4 0.25 3.4625
3.9375 0.25 3.525
3.9375 0.1875 3.4
4 0.1875 3.4625
3.9375 0.1875 3.525
3.9375 0.25 3.4625
3.9375 0.1875 3.4625
0 0.3125 3.4
0.125 0.3125 3.4
0.125 0.3125 3.525
0 0.3125 3.525
0.0625 0.375 3.4
0.125 0.375 3.4625
0.0625 0.375 3.525
0 0.375 3.4625
0.0625 0.3125 3.4
0.125 0.3125 3.4625
0.0625 0.3125 3.525
0 0.3125 3.4625
0.0625 0.375 3.4625
0.0625 0.3125 3.4625
0.25 0.3125 3.4
0.25 0.3125 3.525
0.1875 0.375 3.4
0.25 0.375 3.4625
0.1875 0.375 3.525
0.1875 0.3125 3.4
0.25 0.3125 3.4625
0.1875 0.3125 3.525
0.1875 0.375 3.4625
0.1875 0.3125 3.4625
0.375 0.3125 3.4
0.375 0.3125 3.525
0.3125 0.375 3.4
0.375 0.375 3.4625
0.3125 0.375 3.525
0.3125 0.3125 3.4
0.375 0.3125 3.4625
0.3125 0.3125 3.525
0.3125 0.375 3.4625
0.3125 0.3125 3.4625
0.5 0.3125 3.4
0.5 0.3125 3.525
0.4375 0.375 3.4
0.5 0.375 3.4625
0.4375 0.375 3.525
0.4375 0.3125 3.4
0.5 0.3125 3.4625
0.4375 0.3125 3.525
0.4375 0.375 3.4625
0.4375 0.3125 3.4625
0.625 0.3125 3.4
0.625 0.3125 3.525
0.5625 0.375 3.4
0.625 0.375 3.4625
0.5625 0.375 3.525
0.5625 0.3125 3.4
0.625 0.3125 3.4625
0.5625 0.3125 3.525
0.5625 0.375 3.4625
0.5625 0.3125 3.4625
0.75 0.3125 3.4
0.75 0.3125 3.525
0.6875 0.375 3.4
0.75 0.375 3.4625
0.6875 0.375 3.525
0.6875 0.3125 3.4
0.75 0.3125 3.4625
0.6875 0.3125 3.525
0.6875 0.375 3.4625
0.6875 0.3125 3.4625
0.875 0.3125 3.4
0.875 0.3125 3.525
0.8125 0.375 3.4
0.875 0.375 3.4625
0.8125 0.375 3.525
0.8125 0.3125 3.4
0.875 0.3125 3.4625
0.8125 0.3125 3.525
0.8125 0.375 3.4625
0.8125 0.3125 3.4625
1 0.3125 3.4
1 0.3125 3.525
0.9375 0.375 3.4
1 0.375 3.4625
0.9375 0.375 3.525
0.9375 0.3125 3.4
1 0.3125 3.4625
0.9375 0.3125 3.525
0.9375 0.375 3.4625
0.9375 0.3125 3.4625
1.125 0.3125 3.4
1.125 0.3125 3.525
1.0625 0.375 3.4
1.125 0.375 3.4625
1.0625 0.375 3.525
1.0625 0.3125 3.4
1.125 0.3125 3.4625
1.0625 0.3125 3.525
1.0625 0.375 3.4625
1.0625 0.3125 3.4625
1.25 0.3125 3.4
1.25 0.3125 3.525
1.1875 0.375 3.4
1.25 0.375 3.4625
1.1875 0.375 3.525
1.1875 0.3125 3.4
1.25 0.3125 3.4625
1.1875 0.3125 3.525
1.1875 0.375 3.4625
1.1875 0.3125 3.4625
1.375 0.3125 3.4
1.375 0.3125 3.525
1.3125 0.375 3.4
1.375 0.375 3.4625
1.3125 0.375 3.525
1.3125 0.3125 3.4
1.375 0.3125 3.4625
1.3125 0.3125 3.525
1.3125 0.375 3.4625
1.3125 0.3125 3.4625
1.5 0.3125 3.4
1.5 0.3125 3.525
1.4375 0.375 3.4
1.5 0.375 3.4625
1.4375 0.375 3.525
1.4375 0.3125 3.4
1.5 0.3125 3.4625
1.4375 0.3125 3.525
1.4375 0.375 3.4625
1.4375 0.3125 3.4625
1.625 0.3125 3.4
1.625 0.3125 3.525
1.5625 0.375 3.4
1.625 0.375 3.4625
1.5625 0.375 3.525
1.5625 0.3125 3.4
1.625 0.3125 3.4625
1.5625 0.3125 3.525
1.5625 0.375 3.4625
1.5625 0.3125 3.4625
1.75 0.3125 3.4
1.75 0.3125 3.525
1.6875 0.375 3.4
1.75 0.375 3.4625
1.6875 0.375 3.525
1.6875 0.3125 3.4
1.75 0.3125 3.4625
1.6875 0.3125 3.525
1.6875 0.375 3.4625
1.6875 0.3125 3.4625
1.875 0.3125 3.4
1.875 0.3125 3.525
1.8125 0.375 3.4
1.875 0.375 3.4625
1.8125 0.375 3.525
1.8125 0.3125 3.4
1.875 0.3125 3.4625
1.8125 0.3125 3.525
1.8125 0.375 3.4625
1.8125 0.3125 3.4625
2 0.3125 3.4
2 0.3125 3.525
1.9375 0.375 3.4
2 0.375 3.4625
1.9375 0.375 3.525
1.9375 0.3125 3.4
2 0.3125 3.4625
1.9375 0.3125 3.525
1.9375 0.375 3.4625
1.9375 0.3125 3.4625
2.125 0.3125 3.4
2.125 0.3125 3.525
2.0625 0.375 3.4
2.125 0.375 3.4625
2.0625 0.375 3.525
2.0625 0.3125 3.4
2.125 0.3125 3.4625
2.0625 0.3125 3.525
2.0625 0.375 3.4625
2.0625 0.3125 3.4625
2.25 0.3125 3.4
2.25 0.3125 3.525
2.1875 0.375 3.4
2.25 0.375 3.4625
2.1875 0.375 3.525
2.1875 0.3125 3.4
2.25 0.3125 3.4625
2.1875 0.3125 3.525
2.1875 0.375 3.4625
2.1875 0.3125 3.4625
2.375 0.3125 3.4
2.375 0.3125 3.525
2.3125 0.375 3.4
2.375 0.375 3.4625
2.3125 0.375 3.525
2.3125 0.3125 3.4
2.375 0.3125 3.4625
2.3125 0.3125 3.525
2.3125 0.375 3.4625
2.3125 0.3125 3.4625
2.5 0.3125 3.4
2.5 0.3125 3.525
2.4375 0.375 3.4
2.5 0.375 3.4625
2.4375 0.375 3.525
2.4375 0.3125 3.4
2.5 0.3125 3.4625
2.4375 0.3125 3.525
2.4375 0.375 3.4625
2.4375 0.3125 3.4625
2.625 0.3125 3.4
2.625 0.3125 3.525
2.5625 0.375 3.4
2.625 0.375 3.4625
2.5625 0.375 3.525
2.5625 0.3125 3.4
2.625 0.3125 3.4625
2.5625 0.3125 3.525
2.5625 0.375 3.4625
2.5625 0.3125 3.4625
2.75 0.3125 3.4
2.75 0.3125 3.525
2.6875 0.375 3.4
2.75 0.375 3.4625
2.6875 0.375 3.525
2.6875 0.3125 3.4
2.75 0.3125 3.4625
2.6875 0.3125 3.525
2.6875 0.375 3.4625
2.6875 0.3125 3.4625
2.875 0.3125 3.4
2.875 0.3125 3.525
2.8125 0.375 3.4
2.875 0.375 3.4625
2.8125 0.375 3.525
2.8125 0.3125 3.4
2.875 0.3125 3.4625
2.8125 0.3125 3.525
2.8125 0.375 3.4625
2.8125 0.3125 3.4625
3 0.3125 3.4
3 0.3125 3.525
2.9375 0.375 3.4
3 0.375 3.4625
2.9375 0.375 3.525
2.9375 0.3125 3.4
3 0.3125 3.4625
2.9375 0.3125 3.525
2.9375 0.375 3.4625
2.9375 0.3125 3.4625
3.125 0.3125 3.4
3.125 0.3125 3.525
3.0625 0.375 3.4
3.125 0.375 3.4625
3.0625 0.375 3.525
3.0625 0.3125 3.4
3.125 0.3125 3.4625
3.0625 0.3125 3.525
3.0625 0.375 3.4625
3.0625 0.3125 3.4625
3.25 0.3125 3.4
3.25 0.3125 3.525
3.1875 0.375 3.4
3.25 0.375 3.4625
3.1875 0.375 3.525
3.1875 0.3125 3.4
3.25 0.3125 3.4625
3.1875 0.3125 3.525
3.1875 0.375 3.4625
3.1875 0.3125 3.4625
3.375 0.3125 3.4
3.375 0.3125 3.525
3.3125 0.375 3.4
3.375 0.375 3.4625
3.3125 0.375 3.525
3.3125 0.3125 3.4
3.375 0.3125 3.4625
3.3125 0.3125 3.525
3.3125 0.375 3.4625
3.3125 0.3125 3.4625
3.5 0.3125 3.4
3.5 0.3125 3.525
3.4375 0.375 3.4
3.5 0.375 3.4625
3.4375 0.375 3.525
3.4375 0.3125 3.4
3.5 0.3125 3.4625
3.4375 0.3125 3.525
3.4375 0.375 3.4625
3.4375 0.3125 3.4625
3.625 0.3125 3.4
3.625 0.3125 3.525
3.5625 0.375 3.4
3.625 0.375 3.4625
3.5625 0.375 3.525
3.5625 0.3125 3.4
3.625 0.3125 3.4625
3.5625 0.3125 3.525
3.5625 0.375 3.4625
3.5625 0.3125 3.4625
3.75 0.3125 3.4
3.75 0.3125 3.525
3.6875 0.375 3.4
3.75 0.375 3.4625
3.6875 0.375 3.525
3.6875 0.3125 3.4
3.75 0.3125 3.4625
3.6875 0.3125 3.525
3.6875 0.375 3.4625
3.6875 0.3125 3.4625
3.875 0.3125 3.4
3.875 0.3125 3.525
3.8125 0.375 3.4
3.875 0.375 3.4625
3.8125 0.375 3.525
3.8125 0.3125 3.4
3.875 0.3125 3.4625
3.8125 0.3125 3.525
3.8125 0.375 3.4625
3.8125 0.3125 3.4625
4 0.3125 3.4
4 0.3125 3.525
3.9375 0.375 3.4
4 0.375 3.4625
3.9375 0.375 3.525
3.9375 0.3125 3.4
4 0.3125 3.4625
3.9375 0.3125 3.525
3.9375 0.375 3.4625
3.9375 0.3125 3.4625
0 0.4375 3.4
0.125 0.4375 3.4
0.125 0.4375 3.525
0 0.4375 3.525
0.0625 0.5 3.4
0.125 0.5 3.4625
0.0625 0.5 3.525
0 0.5 3.4625
0.0625 0.4375 3.4
0.125 0.4375 3.4625
0.0625 0.4375 3.525
0 0.4375 3.4625
0.0625 0.5 3.4625
0.0625 0.4375 3.4625
0.25 0.4375 3.4
0.25 0.4375 3.525
0.1875 0.5 3.4
0.25 0.5 3.4625
0.1875 0.5 3.525
0.1875 0.4375 3.4
0.25 0.4375 3.4625
0.1875 0.4375 3.525
0.1875 0.5 3.4625
0.1875 0.4375 3.4625
0.375 0.4375 3.4
0.375 0.4375 3.525
0.3125 0.5 3.4
0.375 0.5 3.4625
0.3125 0.5 3.525
0.3125 0.4375 3.4
0.375 0.4375 3.4625
0.3125 0.4375 3.525
0.3125 0.5 3.4625
0.3125 0.4375 3.4625
0.5 0.4375 3.4
0.5 0.4375 3.525
0.4375 0.5 3.4
0.5 0.5 3.4625
0.4375 0.5 3.525
0.4375 0.4375 3.4
0.5 0.4375 3.4625
0.4375 0.4375 3.525
0.4375 0.5 3.4625
0.4375 0.4375 3.4625
0.625 0.4375 3.4
0.625 0.4375 3.525
0.5625 0.5 3.4
0.625 0.5 3.4625
0.5625 0.5 3.525
0.5625 0.4375 3.4
0.625 0.4375 3.4625
0.5625 0.4375 3.525
0.5625 0.5 3.4625
0.5625 0.4375 3.4625
0.75 0.4375 3.4
0.75 0.4375 3.525
0.6875 0.5 3.4
0.75 0.5 3.4625
0.6875 0.5 3.525
0.6875 0.4375 3.4
0.75 0.4375 3.4625
0.6875 0.4375 3.525
0.6875 0.5 3.4625
0.6875 0.4375 3.4625
0.875 0.4375 3.4
0.875 0.4375 3.525
0.8125 0.5 3.4
0.875 0.5 3.4625
0.8125 0.5 3.525
0.8125 0.4375 3.4
0.875 0.4375 3.4625
0.8125 0.4375 3.525
0.8125 0.5 3.4625
0.8125 0.4375 3.4625
1 0.4375 3.4
1 0.4375 3.525
0.9375 0.5 3.4
1 0.5 3.4625
0.9375 0.5 3.525
0.9375 0.4375 3.4
1 0.4375 3.4625
0.9375 0.4375 3.525
0.9375 0.5 3.4625
0.9375 0.4375 3.4625
1.125 0.4375 3.4
1.125 0.4375 3.525
1.0625 0.5 3.4
1.125 0.5 3.4625
1.0625 0.5 3.525
1.0625 0.4375 3.4
1.125 0.4375 3.4625
1.0625 0.4375 3.525
1.0625 0.5 3.4625
1.0625 0.4375 3.4625
1.25 0.4375 3.4
1.25 0.4375 3.525
1.1875 0.5 3.4
1.25 0.5 3.4625
1.1875 0.5 3.525
1.1875 0.4375 3.4
1.25 0.4375 3.4625
1.1875 0.4375 3.525
1.1875 0.5 3.4625
1.1875 0.4375 3.4625
1.375 0.4375 3.4
1.375 0.4375 3.525
1.3125 0.5 3.4
1.375 0.5 3.4625
1.3125 0.5 3.525
1.3125 0.4375 3.4
1.375 0.4375 3.4625
1.3125 0.4375 3.525
1.3125 0.5 3.4625
1.3125 0.4375 3.4625
1.5 0.4375 3.4
1.5 0.4375 3.525
1.4375 0.5 3.4
1.5 0.5 3.4625
1.4375 0.5 3.525
1.4375 0.4375 3.4
1.5 0.4375 3.4625
1.4375 0.4375 3.525
1.4375 0.5 3.4625
1.4375 0.4375 3.4625
1.625 0.4375 3.4
1.625 0.4375 3.525
1.5625 0.5 3.4
1.625 0.5 3.4625
1.5625 0.5 3.525
1.5625 0.4375 3.4
1.625 0.4375 3.4625
1.5625 0.4375 3.525
1.5625 0.5 3.4625
1.5625 0.4375 3.4625
1.75 0.4375 3.4
1.75 0.4375 3.525
1.6875 0.5 3.4
1.75 0.5 3.4625
1.6875 0.5 3.525
1.6875 0.4375 3.4
1.75 0.4375 3.4625
1.6875 0.4375 3.525
1.6875 0.5 3.4625
1.6875 0.4375 3.4625
1.875 0.4375 3.4
1.875 0.4375 3.525
1.8125 0.5 3.4
1.875 0.5 3.4625
1.8125 0.5 3.525
1.8125 0.4375 3.4
1.875 0.4375 3.4625
1.8125 0.4375 3.525
1.8125 0.5 3.4625
1.8125 0.4375 3.4625
2 0.4375 3.4
2 0.4375 3.525
1.9375 0.5 3.4
2 0.5 3.4625
1.9375 0.5 3.525
1.9375 0.4375 3.4
2 0.4375 3.4625
1.9375 0.4375 3.525
1.9375 0.5 3.4625
1.9375 0.4375 3.4625
2.125 0.4375 3.4
2.125 0.4375 3.525
2.0625 0.5 3.4
2.125 0.5 3.4625
2.0625 0.5 3.525
2.0625 0.4375 3.4
2.125 0.4375 3.4625
2.0625 0.4375 3.525
2.0625 0.5 3.4625
2.0625 0.4375 3.4625
2.25 0.4375 3.4
2.25 0.4375 3.525
2.1875 0.5 3.4
2.25 0.5 3.4625
2.1875 0.5 3.525
2.1875 0.4375 3.4
2.25 0.4375 3.4625
2.1875 0.4375 3.525
2.1875 0.5 3.4625
2.1875 0.4375 3.4625
2.375 0.4375 3.4
2.375 0.4375 3.525
2.3125 0.5 3.4
2.375 0.5 3.4625
2.3125 0.5 3.525
2.3125 0.4375 3.4
2.375 0.4375 3.4625
2.3125 0.4375 3.525
2.3125 0.5 3.4625
2.3125 0.4375 3.4625
2.5 0.4375 3.4
2.5 0.4375 3.525
2.4375 0.5 3.4
2.5 0.5 3.4625
2.4375 0.5 3.525
2.4375 0.4375 3.4
2.5 0.4375 3.4625
2.4375 0.4375 3.525
2.4375 0.5 3.4625
2.4375 0.4375 3.4625
2.625 0.4375 3.4
2.625 0.4375 3.525
2.5625 0.5 3.4
2.625 0.5 3.4625
2.5625 0.5 3.525
2.5625 0.4375 3.4
2.625 0.4375 3.4625
2.5625 0.4375 3.525
2.5625 0.5 3.4625
2.5625 0.4375 3.4625
2.75 0.4375 3.4
2.75 0.4375 3.525
2.6875 0.5 3.4
2.75 0.5 3.4625
2.6875 0.5 3.525
2.6875 0.4375 3.4
2.75 0.4375 3.4625
2.6875 0.4375 3.525
2.6875 0.5 3.4625
2.6875 0.4375 3.4625
2.875 0.4375 3.4
2.875 0.4375 3.525
2.8125 0.5 3.4
2.875 0.5 3.4625
2.8125 0.5 3.525
2.8125 0.4375 3.4
2.875 0.4375 3.4625
2.8125 0.4375 3.525
2.8125 0.5 3.4625
2.8125 0.4375 3.4625
3 0.4375 3.4
3 0.4375 3.525
2.9375 0.5 3.4
3 0.5 3.4625
2.9375 0.5 3.525
2.9375 0.4375 3.4
3 0.4375 3.4625
2.9375 0.4375 3.525
2.9375 0.5 3.4625
2.9375 0.4375 3.4625
3.125 0.4375 3.4
3.125 0.4375 3.525
3.0625 0.5 3.4
3.125 0.5 3.4625
3.0625 0.5 3.525
3.0625 0.4375 3.4
3.125 0.4375 3.4625
3.0625 0.4375 3.525
3.0625 0.5 3.4625
3.0625 0.4375 3.4625
3.25 0.4375 3.4
3.25 0.4375 3.525
3.1875 0.5 3.4
3.25 0.5 3.4625
3.1875 0.5 3.525
3.1875 0.4375 3.4
3.25 0.4375 3.4625
3.1875 0.4375 3.525
3.1875 0.5 3.4625
3.1875 0.4375 3.4625
3.375 0.4375 3.4
3.375 0.4375 3.525
3.3125 0.5 3.4
3.375 0.5 3.4625
3.3125 0.5 3.525
3.3125 0.4375 3.4
3.375 0.4375 3.4625
3.3125 0.4375 3.525
3.3125 0.5 3.4625
3.3125 0.4375 3.4625
3.5 0.4375 3.4
3.5 0.4375 3.525
3.4375 0.5 3.4
3.5 0.5 3.4625
3.4375 0.5 3.525
3.4375 0.4375 3.4
3.5 0.4375 3.4625
3.4375 0.4375 3.525
3.4375 0.5 3.4625
3.4375 0.4375 3.4625
3.625 0.4375 3.4
3.625 0.4375 3.525
3.5625 0.5 3.4
3.625 0.5 3.4625
3.5625 0.5 3.525
3.5625 0.4375 3.4
3.625 0.4375 3.4625
3.5625 0.4375 3.525
3.5625 0.5 3.4625
3.5625 0.4375 3.4625
3.75 0.4375 3.4
3.75 0.4375 3.525
3.6875 0.5 3.4
3.75 0.5 3.4625
3.6875 0.5 3.525
3.6875 0.4375 3.4
3.75 0.4375 3.4625
3.6875 0.4375 3.525
3.6875 0.5 3.4625
3.6875 0.4375 3.4625
3.875 0.4375 3.4
3.875 0.4375 3.525
3.8125 0.5 3.4
3.875 0.5 3.4625
3.8125 0.5 3.525
3.8125 0.4375 3.4
3.875 0.4375 3.4625
3.8125 0.4375 3.525
3.8125 0.5 3.4625
3.8125 0.4375 3.4625
4 0.4375 3.4
4 0.4375 3.525
3.9375 0.5 3.4
4 0.5 3.4625
3.9375 0.5 3.525
3.9375 0.4375 3.4
4 0.4375 3.4625
3.9375 0.4375 3.525
3.9375 0.5 3.4625
3.9375 0.4375 3.4625
0 0.5625 3.4
0.125 0.5625 3.4
0.125 0.5625 3.525
0 0.5625 3.525
0.0625 0.625 3.4
0.125 0.625 3.4625
0.0625 0.625 3.525
0 0.625 3.4625
0.0625 0.5625 3.4
0.125 0.5625 3.4625
0.0625 0.5625 3.525
0 0.5625 3.4625
0.0625 0.625 3.4625
0.0625 0.5625 3.4625
0.25 0.5625 3.4
0.25 0.5625 3.525
0.1875 0.625 3.4
0.25 0.625 3.4625
0.1875 0.625 3.525
0.1875 0.5625 3.4
0.25 0.5625 3.4625
0.1875 0.5625 3.525
0.1875 0.625 3.4625
0.1875 0.5625 3.4625
0.375 0.5625 3.4
0.375 0.5625 3.525
0.3125 0.625 3.4
0.375 0.625 3.4625
0.3125 0.625 3.525
0.3125 0.5625 3.4
0.375 0.5625 3.4625
0.3125 0.5625 3.525
0.3125 0.625 3.4625
0.3125 0.5625 3.4625
0.5 0.5625 3.4
0.5 0.5625 3.525
0.4375 0.625 3.4
0.5 0.625 3.4625
0.4375 0.625 3.525
0.4375 0.5625 3.4
0.5 0.5625 3.4625
0.4375 0.5625 3.525
0.4375 0.625 3.4625
0.4375 0.5625 3.4625
0.625 0.5625 3.4
0.625 0.5625 3.525
0.5625 0.625 3.4
0.625 0.625 3.4625
0.5625 0.625 3.525
0.5625 0.5625 3.4
0.625 0.5625 3.4625
0.5625 0.5625 3.525
0.5625 0.625 3.4625
0.5625 0.5625 3.4625
0.75 0.5625 3.4
0.75 0.5625 3.525
0.6875 0.625 3.4
0.75 0.625 3.4625
0.6875 0.625 3.525
0.6875 0.5625 3.4
0.75 0.5625 3.4625
0.6875 0.5625 3.525
0.6875 0.625 3.4625
0.6875 0.5625 3.4625
0.875 0.5625 3.4
0.875 0.5625 3.525
0.8125 0.625 3.4
0.875 0.625 3.4625
0.8125 0.625 3.525
0.8125 0.5625 3.4
0.875 0.5625 3.4625
0.8125 0.5625 3.525
0.8125 0.625 3.4625
0.8125 0.5625 3.4625
1 0.5625 3.4
1 0.5625 3.525
0.9375 0.625 3.4
1 0.625 3.4625
0.9375 0.625 3.525
0.9375 0.5625 3.4
1 0.5625 3.4625
0.9375 0.5625 3.525
0.9375 0.625 3.4625
0.9375 0.5625 3.4625
1.125 0.5625 3.4
1.125 0.5625 3.525
1.0625 0.625 3.4
1.125 0.625 3.4625
1.0625 0.625 3.525
1.0625 0.5625 3.4
1.125 0.5625 3.4625
1.0625 0.5625 3.525
1.0625 0.625 3.4625
1.0625 0.5625 3.4625
1.25 0.5625 3.4
1.25 0.5625 3.525
1.1875 0.625 3.4
1.25 0.625 3.4625
1.1875 0.625 3.525
1.1875 0.5625 3.4
1.25 0.5625 3.4625
1.1875 0.5625 3.525
1.1875 0.625 3.4625
1.1875 0.5625 3.4625
1.375 0.5625 3.4
1.375 0.5625 3.525
1.3125 0.625 3.4
1.375 0.625 3.4625
1.3125 0.625 3.525
1.3125 0.5625 3.4
1.375 0.5625 3.4625
1.3125 0.5625 3.525
1.3125 0.625 3.4625
1.3125 0.5625 3.4625
1.5 0.5625 3.4
1.5 0.5625 3.525
1.4375 0.625 3.4
1.5 0.625 3.4625
1.4375 0.625 3.525
1.4375 0.5625 3.4
1.5 0.5625 3.4625
1.4375 0.5625 3.525
1.4375 0.625 3.4625
1.4375 0.5625 3.4625
1.625 0.5625 3.4
1.625 0.5625 3.525
1.5625 0.625 3.4
1.625 0.625 3.4625
1.5625 0.625 3.525
1.5625 0.5625 3.4
1.625 0.5625 3.4625
1.5625 0.5625 3.525
1.5625 0.625 3.4625
1.5625 0.5625 3.4625
1.75 0.5625 3.4
1.75 0.5625 3.525
1.6875 0.625 3.4
1.75 0.625 3.4625
1.6875 0.625 3.525
1.6875 0.5625 3.4
1.75 0.5625 3.4625
1.6875 0.5625 3.525
1.6875 0.625 3.4625
1.6875 0.5625 3.4625
1.875 0.5625 3.4
1.875 0.5625 3.525
1.8125 0.625 3.4
1.875 0.625 3.4625
1.8125 0.625 3.525
1.8125 0.5625 3.4
1.875 0.5625 3.4625
1.8125 0.5625 3.525
1.8125 0.625 3.4625
1.8125 0.5625 3.4625
2 0.5625 3.4
2 0.5625 3.525
1.9375 0.625 3.4
2 0.625 3.4625
1.9375 0.625 3.525
1.9375 0.5625 3.4
2 0.5625 3.4625
1.9375 0.5625 3.525
1.9375 0.625 3.4625
1.9375 0.5625 3.4625
2.125 0.5625 3.4
2.125 0.5625 3.525
2.0625 0.625 3.4
2.125 0.625 3.4625
2.0625 0.625 3.525
2.0625 0.5625 3.4
2.125 0.5625 3.4625
2.0625 0.5625 3.525
2.0625 0.625 3.4625
2.0625 0.5625 3.4625
2.25 0.5625 3.4
2.25 0.5625 3.525
2.1875 0.625 3.4
2.25 0.625 3.4625
2.1875 0.625 3.525
2.1875 0.5625 3.4
2.25 0.5625 3.4625
2.1875 0.5625 3.525
2.1875 0.625 3.4625
2.1875 0.5625 3.4625
2.375 0.5625 3.4
2.375 0.5625 3.525
2.3125 0.625 3.4
2.375 0.625 3.4625
2.3125 0.625 3.525
2.3125 0.5625 3.4
2.375 0.5625 3.4625
2.3125 0.5625 3.525
2.3125 0.625 3.4625
2.3125 0.5625 3.4625
2.5 0.5625 3.4
2.5 0.5625 3.525
2.4375 0.625 3.4
2.5 0.625 3.4625
2.4375 0.625 3.525
2.4375 0.5625 3.4
2.5 0.5625 3.4625
2.4375 0.5625 3.525
2.4375 0.625 3.4625
2.4375 0.5625 3.4625
2.625 0.5625 3.4
2.625 0.5625 3.525
2.5625 0.625 3.4
2.625 0.625 3.4625
2.5625 0.625 3.525
2.5625 0.5625 3.4
2.625 0.5625 3.4625
2.5625 0.5625 3.525
2.5625 0.625 3.4625
2.5625 0.5625 3.4625
2.75 0.5625 3.4
2.75 0.5625 3.525
2.6875 0.625 3.4
2.75 0.625 3.4625
2.6875 0.625 3.525
2.6875 0.5625 3.4
2.75 0.5625 3.4625
2.6875 0.5625 3.525
2.6875 0.625 3.4625
2.6875 0.5625 3.4625
2.875 0.5625 3.4
2.875 0.5625 3.525
2.8125 0.625 3.4
2.875 0.625 3.4625
2.8125 0.625 3.525
2.8125 0.5625 3.4
2.875 0.5625 3.4625
2.8125 0.5625 3.525
2.8125 0.625 3.4625
2.8125 0.5625 3.4625
3 0.5625 3.4
3 0.5625 3.525
2.9375 0.625 3.4
3 0.625 3.4625
2.9375 0.625 3.525
2.9375 0.5625 3.4
3 0.5625 3.4625
2.9375 0.5625 3.525
2.9375 0.625 3.4625
2.9375 0.5625 3.4625
3.125 0.5625 3.4
3.125 0.5625 3.525
3.0625 0.625 3.4
3.125 0.625 3.4625
3.0625 0.625 3.525
3.0625 0.5625 3.4
3.125 0.5625 3.4625
3.0625 0.5625 3.525
3.0625 0.625 3.4625
3.0625 0.5625 3.4625
3.25 0.5625 3.4
3.25 0.5625 3.525
3.1875 0.625 3.4
3.25 0.625 3.4625
3.1875 0.625 3.525
3.1875 0.5625 3.4
3.25 0.5625 3.4625
3.1875 0.5625 3.525
3.1875 0.625 3.4625
3.1875 0.5625 3.4625
3.375 0.5625 3.4
3.375 0.5625 3.525
3.3125 0.625 3.4
3.375 0.625 3.4625
3.3125 0.625 3.525
3.3125 0.5625 3.4
3.375 0.5625 3.4625
3.3125 0.5625 3.525
3.3125 0.625 3.4625
3.3125 0.5625 3.4625
3.5 0.5625 3.4
3.5 0.5625 3.525
3.4375 0.625 3.4
3.5 0.625 3.4625
3.4375 0.625 3.525
3.4375 0.5625 3.4
3.5 0.5625 3.4625
3.4375 0.5625 3.525
3.4375 0.625 3.4625
3.4375 0.5625 3.4625
3.625 0.5625 3.4
3.625 0.5625 3.525
3.5625 0.625 3.4
3.625 0.625 3.4625
3.5625 0.625 3.525
3.5625 0.5625 3.4
3.625 0.5625 3.4625
3.5625 0.5625 3.525
3.5625 0.625 3.4625
3.5625 0.5625 3.4625
3.75 0.5625 3.4
3.75 0.5625 3.525
3.6875 0.625 3.4
3.75 0.625 3.4625
3.6875 0.625 3.525
3.6875 0.5625 3.4
3.75 0.5625 3.4625
3.6875 0.5625 3.525
3.6875 0.625 3.4625
3.6875 0.5625 3.4625
3.875 0.5625 3.4
3.875 0.5625 3.525
3.8125 0.625 3.4
3.875 0.625 3.4625
3.8125 0.625 3.525
3.8125 0.5625 3.4
3.875 0.5625 3.4625
3.8125 0.5625 3.525
3.8125 0.625 3.4625
3.8125 0.5625 3.4625
4 0.5625 3.4
4 0.5625 3.525
3.9375 0.625 3.4
4 0.625 3.4625
3.9375 0.625 3.525
3.9375 0.5625 3.4
4 0.5625 3.4625
3.9375 0.5625 3.525
3.9375 0.625 3.4625
3.9375 0.5625 3.4625
0 0.6875 3.4
0.125 0.6875 3.4
0.125 0.6875 3.525
0 0.6875 3.525
0.0625 0.75 3.4
0.125 0.75 3.4625
0.0625 0.75 3.525
0 0.75 3.4625
0.0625 0.6875 3.4
0.125 0.6875 3.4625
0.0625 0.6875 3.525
0 0.6875 3.4625
0.0625 0.75 3.4625
0.0625 0.6875 3.4625
0.25 0.6875 3.4
0.25 0.6875 3.525
0.1875 0.75 3.4
0.25 0.75 3.4625
0.1875 0.75 3.525
0.1875 0.6875 3.4
0.25 0.6875 3.4625
0.1875 0.6875 3.525
0.1875 0.75 3.4625
0.1875 0.6875 3.4625
0.375 0.6875 3.4
0.375 0.6875 3.525
0.3125 0.75 3.4
0.375 0.75 3.4625
0.3125 0.75 3.525
0.3125 0.6875 3.4
0.375 0.6875 3.4625
0.3125 0.6875 3.525
0.3125 0.75 3.4625
0.3125 0.6875 3.4625
0.5 0.6875 3.4
0.5 0.6875 3.525
0.4375 0.75 3.4
0.5 0.75 3.4625
0.4375 0.75 3.525
0.4375 0.6875 3.4
0.5 0.6875 3.4625
0.4375 0.6875 3.525
0.4375 0.75 3.4625
0.4375 0.6875 3.4625
0.625 0.6875 3.4
0.625 0.6875 3.525
0.5625 0.75 3.4
0.625 0.75 3.4625
0.5625 0.75 3.525
0.5625 0.6875 3.4
0.625 0.6875 3.4625
0.5625 0.6875 3.525
0.5625 0.75 3.4625
0.5625 0.6875 3.4625
0.75 0.6875 3.4
0.75 0.6875 3.525
0.6875 0.75 3.4
0.75 0.75 3.4625
0.6875 0.75 3.525
0.6875 0.6875 3.4
0.75 0.6875 3.4625
0.6875 0.6875 3.525
0.6875 0.75 3.4625
0.6875 0.6875 3.4625
0.875 0.6875 3.4
0.875 0.6875 3.525
0.8125 0.75 3.4
0.875 0.75 3.4625
0.8125 0.75 3.525
0.8125 0.6875 3.4
0.875 0.6875 3.4625
0.8125 0.6875 3.525
0.8125 0.75 3.4625
0.8125 0.6875 3.4625
1 0.6875 3.4
1 0.6875 3.525
0.9375 0.75 3.4
1 0.75 3.4625
0.9375 0.75 3.525
0.9375 0.6875 3.4
1 0.6875 3.4625
0.9375 0.6875 3.525
0.9375 0.75 3.4625
0.9375 0.6875 3.4625
1.125 0.6875 3.4
1.125 0.6875 3.525
1.0625 0.75 3.4
1.125 0.75 3.4625
1.0625 0.75 3.525
1.0625 0.6875 3.4
1.125 0.6875 3.4625
1.0625 0.6875 3.525
1.0625 0.75 3.4625
1.0625 0.6875 3.4625
1.25 0.6875 3.4
1.25 0.6875 3.525
1.1875 0.75 3.4
1.25 0.75 3.4625
1.1875 0.75 3.525
1.1875 0.6875 3.4
1.25 0.6875 3.4625
1.1875 0.6875 3.525
1.1875 0.75 3.4625
1.1875 0.6875 3.4625
1.375 0.6875 3.4
1.375 0.6875 3.525
1.3125 0.75 3.4
1.375 0.75 3.4625
1.3125 0.75 3.525
1.3125 0.6875 3.4
1.375 0.6875 3.4625
1.3125 0.6875 3.525
1.3125 0.75 3.4625
1.3125 0.6875 3.4625
1.5 0.6875 3.4
1.5 0.6875 3.525
1.4375 0.75 3.4
1.5 0.75 3.4625
1.4375 0.75 3.525
1.4375 0.6875 3.4
1.5 0.6875 3.4625
1.4375 0.6875 3.525
1.4375 0.75 3.4625
1.4375 0.6875 3.4625
1.625 0.6875 3.4
1.625 0.6875 3.525
1.5625 0.75 3.4
1.625 0.75 3.4625
1.5625 0.75 3.525
1.5625 0.6875 3.4
1.625 0.6875 3.4625
1.5625 0.6875 3.525
1.5625 0.75 3.4625
1.5625 0.6875 3.4625
1.75 0.6875 3.4
1.75 0.6875 3.525
1.6875 0.75 3.4
1.75 0.75 3.4625
1.6875 0.75 3.525
1.6875 0.6875 3.4
1.75 0.6875 3.4625
1.6875 0.6875 3.525
1.6875 0.75 3.4625
1.6875 0.6875 3.4625
1.875 0.6875 3.4
1.875 0.6875 3.525
1.8125 0.75 3.4
1.875 0.75 3.4625
1.8125 0.75 3.525
1.8125 0.6875 3.4
1.875 0.6875 3.4625
1.8125 0.6875 3.525
1.8125 0.75 3.4625
1.8125 0.6875 3.4625
2 0.6875 3.4
2 0.6875 3.525
1.9375 0.75 3.4
2 0.75 3.4625
1.9375 0.75 3.525
1.9375 0.6875 3.4
2 0.6875 3.4625
1.9375 0.6875 3.525
1.9375 0.75 3.4625
1.9375 0.6875 3.4625
2.125 0.6875 3.4
2.125 0.6875 3.525
2.0625 0.75 3.4
2.125 0.75 3.4625
2.0625 0.75 3.525
2.0625 0.6875 3.4
2.125 0.6875 3.4625
2.0625 0.6875 3.525
2.0625 0.75 3.4625
2.0625 0.6875 3.4625
2.25 0.6875 3.4
2.25 0.6875 3.525
2.1875 0.75 3.4
2.25 0.75 3.4625
2.1875 0.75 3.525
2.1875 0.6875 3.4
2.25 0.6875 3.4625
2.1875 0.6875 3.525
2.1875 0.75 3.4625
2.1875 0.6875 3.4625
2.375 0.6875 3.4
2.375 0.6875 3.525
2.3125 0.75 3.4
2.375 0.75 3.4625
2.3125 0.75 3.525
2.3125 0.6875 3.4
2.375 0.6875 3.4625
2.3125 0.6875 3.525
2.3125 0.75 3.4625
2.3125 0.6875 3.4625
2.5 0.6875 3.4
2.5 0.6875 3.525
2.4375 0.75 3.4
2.5 0.75 3.4625
2.4375 0.75 3.525
2.4375 0.6875 3.4
2.5 0.6875 3.4625
2.4375 0.6875 3.525
2.4375 0.75 3.4625
2.4375 0.6875 3.4625
2.625 0.6875 3.4
2.625 0.6875 3.525
2.5625 0.75 3.4
2.625 0.75 3.4625
2.5625 0.75 3.525
2.5625 0.6875 3.4
2.625 0.6875 3.4625
2.5625 0.6875 3.525
2.5625 0.75 3.4625
2.5625 0.6875 3.4625
2.75 0.6875 3.4
2.75 0.6875 3.525
2.6875 0.75 3.4
2.75 0.75 3.4625
2.6875 0.75 3.525
2.6875 0.6875 3.4
2.75 0.6875 3.4625
2.6875 0.6875 3.525
2.6875 0.75 3.4625
2.6875 0.6875 3.4625
2.875 0.6875 3.4
2.875 0.6875 3.525
2.8125 0.75 3.4
2.875 0.75 3.4625
2.8125 0.75 3.525
2.8125 0.6875 3.4
2.875 0.6875 3.4625
2.8125 0.6875 3.525
2.8125 0.75 3.4625
2.8125 0.6875 3.4625
3 0.6875 3.4
3 0.6875 3.525
2.9375 0.75 3.4
3 0.75 3.4625
2.9375 0.75 3.525
2.9375 0.6875 3.4
3 0.6875 3.4625
2.9375 0.6875 3.525
2.9375 0.75 3.4625
2.9375 0.6875 3.4625
3.125 0.6875 3.4
3.125 0.6875 3.525
3.0625 0.75 3.4
3.125 0.75 3.4625
3.0625 0.75 3.525
3.0625 0.6875 3.4
3.125 0.6875 3.4625
3.0625 0.6875 3.525
3.0625 0.75 3.4625
3.0625 0.6875 3.4625
3.25 0.6875 3.4
3.25 0.6875 3.525
3.1875 0.75 3.4
3.25 0.75 3.4625
3.1875 0.75 3.525
3.1875 0.6875 3.4
3.25 0.6875 3.4625
3.1875 0.6875 3.525
3.1875 0.75 3.4625
3.1875 0.6875 3.4625
3.375 0.6875 3.4
3.375 0.6875 3.525
3.3125 0.75 3.4
3.375 0.75 3.4625
3.3125 0.75 3.525
3.3125 0.6875 3.4
3.375 0.6875 3.4625
3.3125 0.6875 3.525
3.3125 0.75 3.4625
3.3125 0.6875 3.4625
3.5 0.6875 3.4
3.5 0.6875 3.525
3.4375 0.75 3.4
3.5 0.75 3.4625
3.4375 0.75 3.525
3.4375 0.6875 3.4
3.5 0.6875 3.4625
3.4375 0.6875 3.525
3.4375 0.75 3.4625
3.4375 0.6875 3.4625
3.625 0.6875 3.4
3.625 0.6875 3.525
3.5625 0.75 3.4
3.625 0.75 3.4625
3.5625 0.75 3.525
3.5625 0.6875 3.4
3.625 0.6875 3.4625
3.5625 0.6875 3.525
3.5625 0.75 3.4625
3.5625 0.6875 3.4625
3.75 0.6875 3.4
3.75 0.6875 3.525
3.6875 0.75 3.4
3.75 0.75 3.4625
3.6875 0.75 3.525
3.6875 0.6875 3.4
3.75 0.6875 3.4625
3.6875 0.6875 3.525
3.6875 0.75 3.4625
3.6875 0.6875 3.4625
3.875 0.6875 3.4
3.875 0.6875 3.525
3.8125 0.75 3.4
3.875 0.75 3.4625
3.8125 0.75 3.525
3.8125 0.6875 3.4
3.875 0.6875 3.4625
3.8125 0.6875 3.525
3.8125 0.75 3.4625
3.8125 0.6875 3.4625
4 0.6875 3.4
4 0.6875 3.525
3.9375 0.75 3.4
4 0.75 3.4625
3.9375 0.75 3.525
3.9375 0.6875 3.4
4 0.6875 3.4625
3.9375 0.6875 3.525
3.9375 0.75 3.4625
3.9375 0.6875 3.4625
0 0.8125 3.4
0.125 0.8125 3.4
0.125 0.8125 3.525
0 0.8125 3.525
0.0625 0.875 3.4
0.125 0.875 3.4625
0.0625 0.875 3.525
0 0.875 3.4625
0.0625 0.8125 3.4
0.125 0.8125 3.4625
0.0625 0.8125 3.525
0 0.8125 3.4625
0.0625 0.875 3.4625
0.0625 0.8125 3.4625
0.25 0.8125 3.4
0.25 0.8125 3.525
0.1875 0.875 3.4
0.25 0.875 3.4625
0.1875 0.875 3.525
0.1875 0.8125 3.4
0.25 0.8125 3.4625
0.1875 0.8125 3.525
0.1875 0.875 3.4625
0.1875 0.8125 3.4625
0.375 0.8125 3.4
0.375 0.8125 3.525
0.3125 0.875 3.4
0.375 0.875 3.4625
0.3125 0.875 3.525
0.3125 0.8125 3.4
0.375 0.8125 3.4625
0.3125 0.8125 3.525
0.3125 0.875 3.4625
0.3125 0.8125 3.4625
0.5 0.8125 3.4
0.5 0.8125 3.525
0.4375 0.875 3.4
0.5 0.875 3.4625
0.4375 0.875 3.525
0.4375 0.8125 3.4
0.5 0.8125 3.4625
0.4375 0.8125 3.525
0.4375 0.875 3.4625
0.4375 0.8125 3.4625
0.625 0.8125 3.4
0.625 0.8125 3.525
0.5625 0.875 3.4
0.625 0.875 3.4625
0.5625 0.875 3.525
0.5625 0.8125 3.4
0.625 0.8125 3.4625
0.5625 0.8125 3.525
0.5625 0.875 3.4625
0.5625 0.8125 3.4625
0.75 0.8125 3.4
0.75 0.8125 3.525
0.6875 0.875 3.4
0.75 0.875 3.4625
0.6875 0.875 3.525
0.6875 0.8125 3.4
0.75 0.8125 3.4625
0.6875 0.8125 3.525
0.6875 0.875 3.4625
0.6875 0.8125 3.4625
0.875 0.8125 3.4
0.875 0.8125 3.525
0.8125 0.875 3.4
0.875 0.875 3.4625
0.8125 0.875 3.525
0.8125 0.8125 3.4
0.875 0.8125 3.4625
0.8125 0.8125 3.525
0.8125 0.875 3.4625
0.8125 0.8125 3.4625
1 0.8125 3.4
1 0.8125 3.525
0.9375 0.875 3.4
1 0.875 3.4625
0.9375 0.875 3.525
0.9375 0.8125 3.4
1 0.8125 3.4625
0.9375 0.8125 3.525
0.9375 0.875 3.4625
0.9375 0.8125 3.4625
1.125 0.8125 3.4
1.125 0.8125 3.525
1.0625 0.875 3.4
1.125 0.875 3.4625
1.0625 0.875 3.525
1.0625 0.8125 3.4
1.125 0.8125 3.4625
1.0625 0.8125 3.525
1.0625 0.875 3.4625
1.0625 0.8125 3.4625
1.25 0.8125 3.4
1.25 0.8125 3.525
1.1875 0.875 3.4
1.25 0.875 3.4625
1.1875 0.875 3.525
1.1875 0.8125 3.4
1.25 0.8125 3.4625
1.1875 0.8125 3.525
1.1875 0.875 3.4625
1.1875 0.8125 3.4625
1.375 0.8125 3.4
1.375 0.8125 3.525
1.3125 0.875 3.4
1.375 0.875 3.4625
1.3125 0.875 3.525
1.3125 0.8125 3.4
1.375 0.8125 3.4625
1.3125 0.8125 3.525
1.3125 0.875 3.4625
1.3125 0.8125 3.4625
1.5 0.8125 3.4
1.5 0.8125 3.525
1.4375 0.875 3.4
1.5 0.875 3.4625
1.4375 0.875 3.525
1.4375 0.8125 3.4
1.5 0.8125 3.4625
1.4375 0.8125 3.525
1.4375 0.875 3.4625
1.4375 0.8125 3.4625
1.625 0.8125 3.4
1.625 0.8125 3.525
1.5625 0.875 3.4
1.625 0.875 3.4625
1.5625 0.875 3.525
1.5625 0.8125 3.4
1.625 0.8125 3.4625
1.5625 0.8125 3.525
1.5625 0.875 3.4625
1.5625 0.8125 3.4625
1.75 0.8125 3.4
1.75 0.8125 3.525
1.6875 0.875 3.4
1.75 0.875 3.4625
1.6875 0.875 3.525
1.6875 0.8125 3.4
1.75 0.8125 3.4625
1.6875 0.8125 3.525
1.6875 0.875 3.4625
1.6875 0.8125 3.4625
1.875 0.8125 3.4
1.875 0.8125 3.525
1.8125 0.875 3.4
1.875 0.875 3.4625
1.8125 0.875 3.525
1.8125 0.8125 3.4
1.875 0.8125 3.4625
1.8125 0.8125 3.525
1.8125 0.875 3.4625
1.8125 0.8125 3.4625
2 0.8125 3.4
2 0.8125 3.525
1.9375 0.875 3.4
2 0.875 3.4625
1.9375 0.875 3.525
1.9375 0.8125 3.4
2 0.8125 3.4625
1.9375 0.8125 3.525
1.9375 0.875 3.4625
1.9375 0.8125 3.4625
2.125 0.8125 3.4
2.125 0.8125 3.525
2.0625 0.875 3.4
2.125 0.875 3.4625
2.0625 0.875 3.525
2.0625 0.8125 3.4
2.125 0.8125 3.4625
2.0625 0.8125 3.525
2.0625 0.875 3.4625
2.0625 0.8125 3.4625
2.25 0.8125 3.4
2.25 0.8125 3.525
2.1875 0.875 3.4
2.25 0.875 3.4625
2.1875 0.875 3.525
2.1875 0.8125 3.4
2.25 0.8125 3.4625
2.1875 0.8125 3.525
2.1875 0.875 3.4625
2.1875 0.8125 3.4625
2.375 0.8125 3.4
2.375 0.8125 3.525
2.3125 0.875 3.4
2.375 0.875 3.4625
2.3125 0.875 3.525
2.3125 0.8125 3.4
2.375 0.8125 3.4625
2.3125 0.8125 3.525
2.3125 0.875 3.4625
2.3125 0.8125 3.4625
2.5 0.8125 3.4
2.5 0.8125 3.525
2.4375 0.875 3.4
2.5 0.875 3.4625
2.4375 0.875 3.525
2.4375 0.8125 3.4
2.5 0.8125 3.4625
2.4375 0.8125 3.525
2.4375 0.875 3.4625
2.4375 0.8125 3.4625
2.625 0.8125 3.4
2.625 0.8125 3.525
2.5625 0.875 3.4
2.625 0.875 3.4625
2.5625 0.875 3.525
2.5625 0.8125 3.4
2.625 0.8125 3.4625
2.5625 0.8125 3.525
2.5625 0.875 3.4625
2.5625 0.8125 3.4625
2.75 0.8125 3.4
2.75 0.8125 3.525
2.6875 0.875 3.4
2.75 0.875 3.4625
2.6875 0.875 3.525
2.6875 0.8125 3.4
2.75 0.8125 3.4625
2.6875 0.8125 3.525
2.6875 0.875 3.4625
2.6875 0.8125 3.4625
2.875 0.8125 3.4
2.875 0.8125 3.525
2.8125 0.875 3.4
2.875 0.875 3.4625
2.8125 0.875 3.525
2.8125 0.8125 3.4
2.875 0.8125 3.4625
2.8125 0.8125 3.525
2.8125 0.875 3.4625
2.8125 0.8125 3.4625
3 0.8125 3.4
3 0.8125 3.525
2.9375 0.875 3.4
3 0.875 3.4625
2.9375 0.875 3.525
2.9375 0.8125 3.4
3 0.8125 3.4625
2.9375 0.8125 3.525
2.9375 0.875 3.4625
2.9375 0.8125 3.4625
3.125 0.8125 3.4
3.125 0.8125 3.525
3.0625 0.875 3.4
3.125 0.875 3.4625
3.0625 0.875 3.525
3.0625 0.8125 3.4
3.125 0.8125 3.4625
3.0625 0.8125 3.525
3.0625 0.875 3.4625
3.0625 0.8125 3.4625
3.25 0.8125 3.4
3.25 0.8125 3.525
3.1875 0.875 3.4
3.25 0.875 3.4625
3.1875 0.875 3.525
3.1875 0.8125 3.4
3.25 0.8125 3.4625
3.1875 0.8125 3.525
3.1875 0.875 3.4625
3.1875 0.8125 3.4625
3.375 0.8125 3.4
3.375 0.8125 3.525
3.3125 0.875 3.4
3.375 0.875 3.4625
3.3125 0.875 3.525
3.3125 0.8125 3.4
3.375 0.8125 3.4625
3.3125 0.8125 3.525
3.3125 0.875 3.4625
3.3125 0.8125 3.4625
3.5 0.8125 3.4
3.5 0.8125 3.525
3.4375 0.875 3.4
3.5 0.875 3.4625
3.4375 0.875 3.525
3.4375 0.8125 3.4
3.5 0.8125 3.4625
3.4375 0.8125 3.525
3.4375 0.875 3.4625
3.4375 0.8125 3.4625
3.625 0.8125 3.4
3.625 0.8125 3.525
3.5625 0.875 3.4
3.625 0.875 3.4625
3.5625 0.875 3.525
3.5625 0.8125 3.4
3.625 0.8125 3.4625
3.5625 0.8125 3.525
3.5625 0.875 3.4625
3.5625 0.8125 3.4625
3.75 0.8125 3.4
3.75 0.8125 3.525
3.6875 0.875 3.4
3.75 0.875 3.4625
3.6875 0.875 3.525
3.6875 0.8125 3.4
3.75 0.8125 3.4625
3.6875 0.8125 3.525
3.6875 0.875 3.4625
3.6875 0.8125 3.4625
3.875 0.8125 3.4
3.875 0.8125 3.525
3.8125 0.875 3.4
3.875 0.875 3.4625
3.8125 0.875 3.525
3.8125 0.8125 3.4
3.875 0.8125 3.4625
3.8125 0.8125 3.525
3.8125 0.875 3.4625
3.8125 0.8125 3.4625
4 0.8125 3.4
4 0.8125 3.525
3.9375 0.875 3.4
4 0.875 3.4625
3.9375 0.875 3.525
3.9375 0.8125 3.4
4 0.8125 3.4625
3.9375 0.8125 3.525
3.9375 0.875 3.4625
3.9375 0.8125 3.4625
0 0.9375 3.4
0.125 0.9375 3.4
0.125 0.9375 3.525
0 0.9375 3.525
0.0625 1 3.4
0.125 1 3.4625
0.0625 1 3.525
0 1 3.4625
0.0625 0.9375 3.4
0.125 0.9375 3.4625
0.0625 0.9375 3.525
0 0.9375 3.4625
0.0625 1 3.4625
0.0625 0.9375 3.4625
0.25 0.9375 3.4
0.25 0.9375 3.525
0.1875 1 3.4
0.25 1 3.4625
0.1875 1 3.525
0.1875 0.9375 3.4
0.25 0.9375 3.4625
0.1875 0.9375 3.525
0.1875 1 3.4625
0.1875 0.9375 3.4625
0.375 0.9375 3.4
0.375 0.9375 3.525
0.3125 1 3.4
0.375 1 3.4625
0.3125 1 3.525
0.3125 0.9375 3.4
0.375 0.9375 3.4625
0.3125 0.9375 3.525
0.3125 1 3.4625
0.3125 0.9375 3.4625
0.5 0.9375 3.4
0.5 0.9375 3.525
0.4375 1 3.4
0.5 1 3.4625
0.4375 1 3.525
0.4375 0.9375 3.4
0.5 0.9375 3.4625
0.4375 0.9375 3.525
0.4375 1 3.4625
0.4375 0.9375 3.4625
0.625 0.9375 3.4
0.625 0.9375 3.525
0.5625 1 3.4
0.625 1 3.4625
0.5625 1 3.525
0.5625 0.9375 3.4
0.625 0.9375 3.4625
0.5625 0.9375 3.525
0.5625 1 3.4625
0.5625 0.9375 3.4625
0.75 0.9375 3.4
0.75 0.9375 3.525
0.6875 1 3.4
0.75 1 3.4625
0.6875 1 3.525
0.6875 0.9375 3.4
0.75 0.9375 3.4625
0.6875 0.9375 3.525
0.6875 1 3.4625
0.6875 0.9375 3.4625
0.875 0.9375 3.4
0.875 0.9375 3.525
0.8125 1 3.4
0.875 1 3.4625
0.8125 1 3.525
0.8125 0.9375 3.4
0.875 0.9375 3.4625
0.8125 0.9375 3.525
0.8125 1 3.4625
0.8125 0.9375 3.4625
1 0.9375 3.4
1 0.9375 3.525
0.9375 1 3.4
1 1 3.4625
0.9375 1 3.525
0.9375 0.9375 3.4
1 0.9375 3.4625
0.9375 0.9375 3.525
0.9375 1 3.4625
0.9375 0.9375 3.4625
1.125 0.9375 3.4
1.125 0.9375 3.525
1.0625 1 3.4
1.125 1 3.4625
1.0625 1 3.525
1.0625 0.9375 3.4
1.125 0.9375 3.4625
1.0625 0.9375 3.525
1.0625 1 3.4625
1.0625 0.9375 3.4625
1.25 0.9375 3.4
1.25 0.9375 3.525
1.1875 1 3.4
1.25 1 3.4625
1.1875 1 3.525
1.1875 0.9375 3.4
1.25 0.9375 3.4625
1.1875 0.9375 3.525
1.1875 1 3.4625
1.1875 0.9375 3.4625
1.375 0.9375 3.4
1.375 0.9375 3.525
1.3125 1 3.4
1.375 1 3.4625
1.3125 1 3.525
1.3125 0.9375 3.4
1.375 0.9375 3.4625
1.3125 0.9375 3.525
1.3125 1 3.4625
1.3125 0.9375 3.4625
1.5 0.9375 3.4
1.5 0.9375 3.525
1.4375 1 3.4
1.5 1 3.4625
1.4375 1 3.525
1.4375 0.9375 3.4
1.5 0.9375 3.4625
1.4375 0.9375 3.525
1.4375 1 3.4625
1.4375 0.9375 3.4625
1.625 0.9375 3.4
1.625 0.9375 3.525
1.5625 1 3.4
1.625 1 3.4625
1.5625 1 3.525
1.5625 0.9375 3.4
1.625 0.9375 3.4625
1.5625 0.9375 3.525
1.5625 1 3.4625
1.5625 0.9375 3.4625
1.75 0.9375 3.4
1.75 0.9375 3.525
1.6875 1 3.4
1.75 1 3.4625
1.6875 1 3.525
1.6875 0.9375 3.4
1.75 0.9375 3.4625
1.6875 0.9375 3.525
1.6875 1 3.4625
1.6875 0.9375 3.4625
1.875 0.9375 3.4
1.875 0.9375 3.525
1.8125 1 3.4
1.875 1 3.4625
1.8125 1 3.525
1.8125 0.9375 3.4
1.875 0.9375 3.4625
1.8125 0.9375 3.525
1.8125 1 3.4625
1.8125 0.9375 3.4625
2 0.9375 3.4
2 0.9375 3.525
1.9375 1 3.4
2 1 3.4625
1.9375 1 3.525
1.9375 0.9375 3.4
2 0.9375 3.4625
1.9375 0.9375 3.525
1.9375 1 3.4625
1.9375 0.9375 3.4625
2.125 0.9375 3.4
2.125 0.9375 3.525
2.0625 1 3.4
2.125 1 3.4625
2.0625 1 3.525
2.0625 0.9375 3.4
2.125 0.9375 3.4625
2.0625 0.9375 3.525
2.0625 1 3.4625
2.0625 0.9375 3.4625
2.25 0.9375 3.4
2.25 0.9375 3.525
2.1875 1 3.4
2.25 1 3.4625
2.1875 1 3.525
2.1875 0.9375 3.4
2.25 0.9375 3.4625
2.1875 0.9375 3.525
2.1875 1 3.4625
2.1875 0.9375 3.4625
2.375 0.9375 3.4
2.375 0.9375 3.525
2.3125 1 3.4
2.375 1 3.4625
2.3125 1 3.525
2.3125 0.9375 3.4
2.375 0.9375 3.4625
2.3125 0.9375 3.525
2.3125 1 3.4625
2.3125 0.9375 3.4625
2.5 0.9375 3.4
2.5 0.9375 3.525
2.4375 1 3.4
2.5 1 3.4625
2.4375 1 3.525
2.4375 0.9375 3.4
2.5 0.9375 3.4625
2.4375 0.9375 3.525
2.4375 1 3.4625
2.4375 0.9375 3.4625
2.625 0.9375 3.4
2.625 0.9375 3.525
2.5625 1 3.4
2.625 1 3.4625
2.5625 1 3.525
2.5625 0.9375 3.4
2.625 0.9375 3.4625
2.5625 0.9375 3.525
2.5625 1 3.4625
2.5625 0.9375 3.4625
2.75 0.9375 3.4
2.75 0.9375 3.525
2.6875 1 3.4
2.75 1 3.4625
2.6875 1 3.525
2.6875 0.9375 3.4
2.75 0.9375 3.4625
2.6875 0.9375 3.525
2.6875 1 3.4625
2.6875 0.9375 3.4625
2.875 0.9375 3.4
2.875 0.9375 3.525
2.8125 1 3.4
2.875 1 3.4625
2.8125 1 3.525
2.8125 0.9375 3.4
2.875 0.9375 3.4625
2.8125 0.9375 3.525
2.8125 1 3.4625
2.8125 0.9375 3.4625
3 0.9375 3.4
3 0.9375 3.525
2.9375 1 3.4
3 1 3.4625
2.9375 1 3.525
2.9375 0.9375 3.4
3 0.9375 3.4625
2.9375 0.9375 3.525
2.9375 1 3.4625
2.9375 0.9375 3.4625
3.125 0.9375 3.4
3.125 0.9375 3.525
3.0625 1 3.4
3.125 1 3.4625
3.0625 1 3.525
3.0625 0.9375 3.4
3.125 0.9375 3.4625
3.0625 0.9375 3.525
3.0625 1 3.4625
3.0625 0.9375 3.4625
3.25 0.9375 3.4
3.25 0.9375 3.525
3.1875 1 3.4
3.25 1 3.4625
3.1875 1 3.525
3.1875 0.9375 3.4
3.25 0.9375 3.4625
3.1875 0.9375 3.525
3.1875 1 3.4625
3.1875 0.9375 3.4625
3.375 0.9375 3.4
3.375 0.9375 3.525
3.3125 1 3.4
3.375 1 3.4625
3.3125 1 3.525
3.3125 0.9375 3.4
3.375 0.9375 3.4625
3.3125 0.9375 3.525
3.3125 1 3.4625
3.3125 0.9375 3.4625
3.5 0.9375 3.4
3.5 0.9375 3.525
3.4375 1 3.4
3.5 1 3.4625
3.4375 1 3.525
3.4375 0.9375 3.4
3.5 0.9375 3.4625
3.4375 0.9375 3.525
3.4375 1 3.4625
3.4375 0.9375 3.4625
3.625 0.9375 3.4
3.625 0.9375 3.525
3.5625 1 3.4
3.625 1 3.4625
3.5625 1 3.525
3.5625 0.9375 3.4
3.625 0.9375 3.4625
3.5625 0.9375 3.525
3.5625 1 3.4625
3.5625 0.9375 3.4625
3.75 0.9375 3.4
3.75 0.9375 3.525
3.6875 1 3.4
3.75 1 3.4625
3.6875 1 3.525
3.6875 0.9375 3.4
3.75 0.9375 3.4625
3.6875 0.9375 3.525
3.6875 1 3.4625
3.6875 0.9375 3.4625
3.875 0.9375 3.4
3.875 0.9375 3.525
3.8125 1 3.4
3.875 1 3.4625
3.8125 1 3.525
3.8125 0.9375 3.4
3.875 0.9375 3.4625
3.8125 0.9375 3.525
3.8125 1 3.4625
3.8125 0.9375 3.4625
4 0.9375 3.4
4 0.9375 3.525
3.9375 1 3.4
4 1 3.4625
3.9375 1 3.525
3.9375 0.9375 3.4
4 0.9375 3.4625
3.9375 0.9375 3.525
3.9375 1 3.4625
3.9375 0.9375 3.4625
0.125 0 3.5875
0.0625 0 3.65
0 0 3.5875
0.125 0.0625 3.65
0 0.0625 3.65
0.125 0.125 3.5875
0.0625 0.125 3.65
0 0.125 3.5875
0.0625 0 3.5875
0.125 0.0625 3.5875
0.0625 0.0625 3.65
0 0.0625 3.5875
0.0625 0.125 3.5875
0.0625 0.0625 3.5875
0.25 0 3.5875
0.1875 0 3.65
0.25 0.0625 3.65
0.25 0.125 3.5875
0.1875 0.125 3.65
0.1875 0 3.5875
0.25 0.0625 3.5875
0.1875 0.0625 3.65
0.1875 0.125 3.5875
0.1875 0.0625 3.5875
0.375 0 3.5875
0.3125 0 3.65
0.375 0.0625 3.65
0.375 0.125 3.5875
0.3125 0.125 3.65
0.3125 0 3.5875
0.375 0.0625 3.5875
0.3125 0.0625 3.65
0.3125 0.125 3.5875
0.3125 0.0625 3.5875
0.5 0 3.5875
0.4375 0 3.65
0.5 0.0625 3.65
0.5 0.125 3.5875
0.4375 0.125 3.65
0.4375 0 3.5875
0.5 0.0625 3.5875
0.4375 0.0625 3.65
0.4375 0.125 3.5875
0.4375 0.0625 3.5875
0.625 0 3.5875
0.5625 0 3.65
0.625 0.0625 3.65
0.625 0.125 3.5875
0.5625 0.125 3.65
0.5625 0 3.5875
0.625 0.0625 3.5875
0.5625 0.0625 3.65
0.5625 0.125 3.5875
0.5625 0.0625 3.5875
0.75 0 3.5875
0.6875 0 3.65
0.75 0.0625 3.65
0.75 0.125 3.5875
0.6875 0.125 3.65
0.6875 0 3.5875
0.75 0.0625 3.5875
0.6875 0.0625 3.65
0.6875 0.125 3.5875
0.6875 0.0625 3.5875
0.875 0 3.5875
0.8125 0 3.65
0.875 0.0625 3.65
0.875 0.125 3.5875
0.8125 0.125 3.65
0.8125 0 3.5875
0.875 0.0625 3.5875
0.8125 0.0625 3.65
0.8125 0.125 3.5875
0.8125 0.0625 3.5875
1 0 3.5875
0.9375 0 3.65
1 0.0625 3.65
1 0.125 3.5875
0.9375 0.125 3.65
0.9375 0 3.5875
1 0.0625 3.5875
0.9375 0.0625 3.65
0.9375 0.125 3.5875
0.9375 0.0625 3.5875
1.125 0 3.5875
1.0625 0 3.65
1.125 0.0625 3.65
1.125 0.125 3.5875
1.0625 0.125 3.65
1.0625 0 3.5875
1.125 0.0625 3.5875
1.0625 0.0625 3.65
1.0625 0.125 3.5875
1.0625 0.0625 3.5875
1.25 0 3.5875
1.1875 0 3.65
1.25 0.0625 3.65
1.25 0.125 3.5875
1.1875 0.125 3.65
1.1875 0 3.5875
1.25 0.0625 3.5875
1.1875 0.0625 3.65
1.1875 0.125 3.5875
1.1875 0.0625 3.5875
1.375 0 3.5875
1.3125 0 3.65
1.375 0.0625 3.65
1.375 0.125 3.5875
1.3125 0.125 3.65
1.3125 0 3.5875
1.375 0.0625 3.5875
1.3125 0.0625 3.65
1.3125 0.125 3.5875
1.3125 0.0625 3.5875
1.5 0 3.5875
1.4375 0 3.65
1.5 0.0625 3.65
1.5 0.125 3.5875
1.4375 0.125 3.65
1.4375 0 3.5875
1.5 0.0625 3.5875
1.4375 0.0625 3.65
1.4375 0.125 3.5875
1.4375 0.0625 3.5875
1.625 0 3.5875
1.5625 0 3.65
1.625 0.0625 3.65
1.625 0.125 3.5875
1.5625 0.125 3.65
1.5625 0 3.5875
1.625 0.0625 3.5875
1.5625 0.0625 3.65
1.5625 0.125 3.5875
1.5625 0.0625 3.5875
1.75 0 3.5875
1.6875 0 3.65
1.75 0.0625 3.65
1.75 0.125 3.5875
1.6875 0.125 3.65
1.6875 0 3.5875
1.75 0.0625 3.5875
1.6875 0.0625 3.65
1.6875 0.125 3.5875
1.6875 0.0625 3.5875
1.875 0 3.5875
1.8125 0 3.65
1.875 0.0625 3.65
1.875 0.125 3.5875
1.8125 0.125 3.65
1.8125 0 3.5875
1.875 0.0625 3.5875
1.8125 0.0625 3.65
1.8125 0.125 3.5875
1.8125 0.0625 3.5875
2 0 3.5875
1.9375 0 3.65
2 0.0625 3.65
2 0.125 3.5875
1.9375 0.125 3.65
1.9375 0 3.5875
2 0.0625 3.5875
1.9375 0.0625 3.65
1.9375 0.125 3.5875
1.9375 0.0625 3.5875
2.125 0 3.5875
2.0625 0 3.65
2.125 0.0625 3.65
2.125 0.125 3.5875
2.0625 0.125 3.65
2.0625 0 3.5875
2.125 0.0625 3.5875
2.0625 0.0625 3.65
2.0625 0.125 3.5875
2.0625 0.0625 3.5875
2.25 0 3.5875
2.1875 0 3.65
2.25 0.0625 3.65
2.25 0.125 3.5875
2.1875 0.125 3.65
2.1875 0 3.5875
2.25 0.0625 3.5875
2.1875 0.0625 3.65
2.1875 0.125 3.5875
2.1875 0.0625 3.5875
2.375 0 3.5875
2.3125 0 3.65
2.375 0.0625 3.65
2.375 0.125 3.5875
2.3125 0.125 3.65
2.3125 0 3.5875
2.375 0.0625 3.5875
2.3125 0.0625 3.65
2.3125 0.125 3.5875
2.3125 0.0625 3.5875
2.5 0 3.5875
2.4375 0 3.65
2.5 0.0625 3.65
2.5 0.125 3.5875
2.4375 0.125 3.65
2.4375 0 3.5875
2.5 0.0625 3.5875
2.4375 0.0625 3.65
2.4375 0.125 3.5875
2.4375 0.0625 3.5875
2.625 0 3.5875
2.5625 0 3.65
2.625 0.0625 3.65
2.625 0.125 3.5875
2.5625 0.125 3.65
2.5625 0 3.5875
2.625 0.0625 3.5875
2.5625 0.0625 3.65
2.5625 0.125 3.5875
2.5625 0.0625 3.5875
2.75 0 3.5875
2.6875 0 3.65
2.75 0.0625 3.65
2.75 0.125 3.5875
2.6875 0.125 3.65
2.6875 0 3.5875
2.75 0.0625 3.5875
2.6875 0.0625 3.65
2.6875 0.125 3.5875
2.6875 0.0625 3.5875
2.875 0 3.5875
2.8125 0 3.65
2.875 0.0625 3.65
2.875 0.125 3.5875
2.8125 0.125 3.65
2.8125 0 3.5875
2.875 0.0625 3.5875
2.8125 0.0625 3.65
2.8125 0.125 3.5875
2.8125 0.0625 3.5875
3 0 3.5875
2.9375 0 3.65
3 0.0625 3.65
3 0.125 3.5875
2.9375 0.125 3.65
2.9375 0 3.5875
3 0.0625 3.5875
2.9375 0.0625 3.65
2.9375 0.125 3.5875
2.9375 0.0625 3.5875
3.125 0 3.5875
3.0625 0 3.65
3.125 0.0625 3.65
3.125 0.125 3.5875
3.0625 0.125 3.65
3.0625 0 3.5875
3.125 0.0625 3.5875
3.0625 0.0625 3.65
3.0625 0.125 3.5875
3.0625 0.0625 3.5875
3.25 0 3.5875
3.1875 0 3.65
3.25 0.0625 3.65
3.25 0.125 3.5875
3.1875 0.125 3.65
3.1875 0 3.5875
3.25 0.0625 3.5875
3.1875 0.0625 3.65
3.1875 0.125 3.5875
3.1875 0.0625 3.5875
3.375 0 3.5875
3.3125 0 3.65
3.375 0.0625 3.65
3.375 0.125 3.5875
3.3125 0.125 3.65
3.3125 0 3.5875
3.375 0.0625 3.5875
3.3125 0.0625 3.65
3.3125 0.125 3.5875
3.3125 0.0625 3.5875
3.5 0 3.5875
3.4375 0 3.65
3.5 0.0625 3.65
3.5 0.125 3.5875
3.4375 0.125 3.65
3.4375 0 3.5875
3.5 0.0625 3.5875
3.4375 0.0625 3.65
3.4375 0.125 3.5875
3.4375 0.0625 3.5875
3.625 0 3.5875
3.5625 0 3.65
3.625 0.0625 3.65
3.625 0.125 3.5875
3.5625 0.125 3.65
3.5625 0 3.5875
3.625 0.0625 3.5875
3.5625 0.0625 3.65
3.5625 0.125 3.5875
3.5625 0.0625 3.5875
3.75 0 3.5875
3.6875 0 3.65
3.75 0.0625 3.65
3.75 0.125 3.5875
3.6875 0.125 3.65
3.6875 0 3.5875
3.75 0.0625 3.5875
3.6875 0.0625 3.65
3.6875 0.125 3.5875
3.6875 0.0625 3.5875
3.875 0 3.5875
3.8125 0 3.65
3.875 0.0625 3.65
3.875 0.125 3.5875
3.8125 0.125 3.65
3.8125 0 3.5875
3.875 0.0625 3.5875
3.8125 0.0625 3.65
3.8125 0.125 3.5875
3.8125 0.0625 3.5875
4 0 3.5875
3.9375 0 3.65
4 0.0625 3.65
4 0.125 3.5875
3.9375 0.125 3.65
3.9375 0 3.5875
4 0.0625 3.5875
3.9375 0.0625 3.65
3.9375 0.125 3.5875
3.9375 0.0625 3.5875
0.125 0.1875 3.65
0 0.1875 3.65
0.125 0.25 3.5875
0.0625 0.25 3.65
0 0.25 3.5875
0.125 0.1875 3.5875
0.0625 0.1875 3.65
0 0.1875 3.5875
0.0625 0.25 3.5875
0.0625 0.1875 3.5875
0.25 0.1875 3.65
0.25 0.25 3.5875
0.1875 0.25 3.65
0.25 0.1875 3.5875
0.1875 0.1875 3.65
0.1875 0.25 3.5875
0.1875 0.1875 3.5875
0.375 0.1875 3.65
0.375 0.25 3.5875
0.3125 0.25 3.65
0.375 0.1875 3.5875
0.3125 0.1875 3.65
0.3125 0.25 3.5875
0.3125 0.1875 3.5875
0.5 0.1875 3.65
0.5 0.25 3.5875
0.4375 0.25 3.65
0.5 0.1875 3.5875
0.4375 0.1875 3.65
0.4375 0.25 3.5875
0.4375 0.1875 3.5875
0.625 0.1875 3.65
0.625 0.25 3.5875
0.5625 0.25 3.65
0.625 0.1875 3.5875
0.5625 0.1875 3.65
0.5625 0.25 3.5875
0.5625 0.1875 3.5875
0.75 0.1875 3.65
0.75 0.25 3.5875
0.6875 0.25 3.65
0.75 0.1875 3.5875
0.6875 0.1875 3.65
0.6875 0.25 3.5875
0.6875 0.1875 3.5875
0.875 0.1875 3.65
0.875 0.25 3.5875
0.8125 0.25 3.65
0.875 0.1875 3.5875
0.8125 0.1875 3.65
0.8125 0.25 3.5875
0.8125 0.1875 3.5875
1 0.1875 3.65
1 0.25 3.5875
0.9375 0.25 3.65
1 0.1875 3.5875
0.9375 0.1875 3.65
0.9375 0.25 3.5875
0.9375 0.1875 3.5875
1.125 0.1875 3.65
1.125 0.25 3.5875
1.0625 0.25 3.65
1.125 0.1875 3.5875
1.0625 0.1875 3.65
1.0625 0.25 3.5875
1.0625 0.1875 3.5875
1.25 0.1875 3.65
1.25 0.25 3.5875
1.1875 0.25 3.65
1.25 0.1875 3.5875
1.1875 0.1875 3.65
1.1875 0.25 3.5875
1.1875 0.1875 3.5875
1.375 0.1875 3.65
1.375 0.25 3.5875
1.3125 0.25 3.65
1.375 0.1875 3.5875
1.3125 0.1875 3.65
1.3125 0.25 3.5875
1.3125 0.1875 3.5875
1.5 0.1875 3.65
1.5 0.25 3.5875
1.4375 0.25 3.65
1.5 0.1875 3.5875
1.4375 0.1875 3.65
1.4375 0.25 3.5875
1.4375 0.1875 3.5875
1.625 0.1875 3.65
1.625 0.25 3.5875
1.5625 0.25 3.65
1.625 0.1875 3.5875
1.5625 0.1875 3.65
1.5625 0.25 3.5875
1.5625 0.1875 3.5875
1.75 0.1875 3.65
1.75 0.25 3.5875
1.6875 0.25 3.65
1.75 0.1875 3.5875
1.6875 0.1875 3.65
1.6875 0.25 3.5875
1.6875 0.1875 3.5875
1.875 0.1875 3.65
1.875 0.25 3.5875
1.8125 0.25 3.65
1.875 0.1875 3.5875
1.8125 0.1875 3.65
1.8125 0.25 3.5875
1.8125 0.1875 3.5875
2 0.1875 3.65
2 0.25 3.5875
1.9375 0.25 3.65
2 0.1875 3.5875
1.9375 0.1875 3.65
1.9375 0.25 3.5875
1.9375 0.1875 3.5875
2.125 0.1875 3.65
2.125 0.25 3.5875
2.0625 0.25 3.65
2.125 0.1875 3.5875
2.0625 0.1875 3.65
2.0625 0.25 3.5875
2.0625 0.1875 3.5875
2.25 0.1875 3.65
2.25 0.25 3.5875
2.1875 0.25 3.65
2.25 0.1875 3.5875
2.1875 0.1875 3.65
2.1875 0.25 3.5875
2.1875 0.1875 3.5875
2.375 0.1875 3.65
2.375 0.25 3.5875
2.3125 0.25 3.65
2.375 0.1875 3.5875
2.3125 0.1875 3.65
2.3125 0.25 3.5875
2.3125 0.1875 3.5875
2.5 0.1875 3.65
2.5 0.25 3.5875
2.4375 0.25 3.65
2.5 0.1875 3.5875
2.4375 0.1875 3.65
2.4375 0.25 3.5875
2.4375 0.1875 3.5875
2.625 0.1875 3.65
2.625 0.25 3.5875
2.5625 0.25 3.65
2.625 0.1875 3.5875
2.5625 0.1875 3.65
2.5625 0.25 3.5875
2.5625 0.1875 3.5875
2.75 0.1875 3.65
2.75 0.25 3.5875
2.6875 0.25 3.65
2.75 0.1875 3.5875
2.6875 0.1875 3.65
2.6875 0.25 3.5875
2.6875 0.1875 3.5875
2.875 0.1875 3.65
2.875 0.25 3.5875
2.8125 0.25 3.65
2.875 0.1875 3.5875
2.8125 0.1875 3.65
2.8125 0.25 3.5875
2.8125 0.1875 3.5875
3 0.1875 3.65
3 0.25 3.5875
2.9375 0.25 3.65
3 0.1875 3.5875
2.9375 0.1875 3.65
2.9375 0.25 3.5875
2.9375 0.1875 3.5875
3.125 0.1875 3.65
3.125 0.25 3.5875
3.0625 0.25 3.65
3.125 0.1875 3.5875
3.0625 0.1875 3.65
3.0625 0.25 3.5875
3.0625 0.1875 3.5875
3.25 0.1875 3.65
3.25 0.25 3.5875
3.1875 0.25 3.65
3.25 0.1875 3.5875
3.1875 0.1875 3.65
3.1875 0.25 3.5875
3.1875 0.1875 3.5875
3.375 0.1875 3.65
3.375 0.25 3.5875
3.3125 0.25 3.65
3.375 0.1875 3.5875
3.3125 0.1875 3.65
3.3125 0.25 3.5875
3.3125 0.1875 3.5875
3.5 0.1875 3.65
3.5 0.25 3.5875
3.4375 0.25 3.65
3.5 0.1875 3.5875
3.4375 0.1875 3.65
3.4375 0.25 3.5875
3.4375 0.1875 3.5875
3.625 0.1875 3.65
3.625 0.25 3.5875
3.5625 0.25 3.65
3.625 0.1875 3.5875
3.5625 0.1875 3.65
3.5625 0.25 3.5875
3.5625 0.1875 3.5875
3.75 0.1875 3.65
3.75 0.25 3.5875
3.6875 0.25 3.65
3.75 0.1875 3.5875
3.6875 0.1875 3.65
3.6875 0.25 3.5875
3.6875 0.1875 3.5875
3.875 0.1875 3.65
3.875 0.25 3.5875
3.8125 0.25 3.65
3.875 0.1875 3.5875
3.8125 0.1875 3.65
3.8125 0.25 3.5875
3.8125 0.1875 3.5875
4 0.1875 3.65
4 0.25 3.5875
3.9375 0.25 3.65
4 0.1875 3.5875
3.9375 0.1875 3.65
3.9375 0.25 3.5875
3.9375 0.1875 3.5875
0.125 0.3125 3.65
0 0.3125 3.65
0.125 0.375 3.5875
0.0625 0.375 3.65
0 0.375 3.5875
0.125 0.3125 3.5875
0.0625 0.3125 3.65
0 0.3125 3.5875
0.0625 0.375 3.5875
0.0625 0.3125 3.5875
0.25 0.3125 3.65
0.25 0.375 3.5875
0.1875 0.375 3.65
0.25 0.3125 3.5875
0.1875 0.3125 3.65
0.1875 0.375 3.5875
0.1875 0.3125 3.5875
0.375 0.3125 3.65
0.375 0.375 3.5875
0.3125 0.375 3.65
0.375 0.3125 3.5875
0.3125 0.3125 3.65
0.3125 0.375 3.5875
0.3125 0.3125 3.5875
0.5 0.3125 3.65
0.5 0.375 3.5875
0.4375 0.375 3.65
0.5 0.3125 3.5875
0.4375 0.3125 3.65
0.4375 0.375 3.5875
0.4375 0.3125 3.5875
0.625 0.3125 3.65
0.625 0.375 3.5875
0.5625 0.375 3.65
0.625 0.3125 3.5875
0.5625 0.3125 3.65
0.5625 0.375 3.5875
0.5625 0.3125 3.5875
0.75 0.3125 3.65
0.75 0.375 3.5875
0.6875 0.375 3.65
0.75 0.3125 3.5875
0.6875 0.3125 3.65
0.6875 0.375 3.5875
0.6875 0.3125 3.5875
0.875 0.3125 3.65
0.875 0.375 3.5875
0.8125 0.375 3.65
0.875 0.3125 3.5875
0.8125 0.3125 3.65
0.8125 0.375 3.5875
0.8125 0.3125 3.5875
1 0.3125 3.65
1 0.375 3.5875
0.9375 0.375 3.65
1 0.3125 3.5875
0.9375 0.3125 3.65
0.9375 0.375 3.5875
0.9375 0.3125 3.5875
1.125 0.3125 3.65
1.125 0.375 3.5875
1.0625 0.375 3.65
1.125 0.3125 3.5875
1.0625 0.3125 3.65
1.0625 0.375 3.5875
1.0625 0.3125 3.5875
1.25 0.3125 3.65
1.25 0.375 3.5875
1.1875 0.375 3.65
1.25 0.3125 3.5875
1.1875 0.3125 3.65
1.1875 0.375 3.5875
1.1875 0.3125 3.5875
1.375 0.3125 3.65
1.375 0.375 3.5875
1.3125 0.375 3.65
1.375 0.3125 3.5875
1.3125 0.3125 3.65
1.3125 0.375 3.5875
1.3125 0.3125 3.5875
1.5 0.3125 3.65
1.5 0.375 3.5875
1.4375 0.375 3.65
1.5 0.3125 3.5875
1.4375 0.3125 3.65
1.4375 0.375 3.5875
1.4375 0.3125 3.5875
1.625 0.3125 3.65
1.625 0.375 3.5875
1.5625 0.375 3.65
1.625 0.3125 3.5875
1.5625 0.3125 3.65
1.5625 0.375 3.5875
1.5625 0.3125 3.5875
1.75 0.3125 3.65
1.75 0.375 3.5875
1.6875 0.375 3.65
1.75 0.3125 3.5875
1.6875 0.3125 3.65
1.6875 0.375 3.5875
1.6875 0.3125 3.5875
1.875 0.3125 3.65
1.875 0.375 3.5875
1.8125 0.375 3.65
1.875 0.3125 3.5875
1.8125 0.3125 3.65
1.8125 0.375 3.5875
1.8125 0.3125 3.5875
2 0.3125 3.65
2 0.375 3.5875
1.9375 0.375 3.65
2 0.3125 3.5875
1.9375 0.3125 3.65
1.9375 0.375 3.5875
1.9375 0.3125 3.5875
2.125 0.3125 3.65
2.125 0.375 3.5875
2.0625 0.375 3.65
2.125 0.3125 3.5875
2.0625 0.3125 3.65
2.0625 0.375 3.5875
2.0625 0.3125 3.5875
2.25 0.3125 3.65
2.25 0.375 3.5875
2.1875 0.375 3.65
2.25 0.3125 3.5875
2.1875 0.3125 3.65
2.1875 0.375 3.5875
2.1875 0.3125 3.5875
2.375 0.3125 3.65
2.375 0.375 3.5875
2.3125 0.375 3.65
2.375 0.3125 3.5875
2.3125 0.3125 3.65
2.3125 0.375 3.5875
2.3125 0.3125 3.5875
2.5 0.3125 3.65
2.5 0.375 3.5875
2.4375 0.375 3.65
2.5 0.3125 3.5875
2.4375 0.3125 3.65
2.4375 0.375 3.5875
2.4375 0.3125 3.5875
2.625 0.3125 3.65
2.625 0.375 3.5875
2.5625 0.375 3.65
2.625 0.3125 3.5875
2.5625 0.3125 3.65
2.5625 0.375 3.5875
2.5625 0.3125 3.5875
2.75 0.3125 3.65
2.75 0.375 3.5875
2.6875 0.375 3.65
2.75 0.3125 3.5875
2.6875 0.3125 3.65
2.6875 0.375 3.5875
2.6875 0.3125 3.5875
2.875 0.3125 3.65
2.875 0.375 3.5875
2.8125 0.375 3.65
2.875 0.3125 3.5875
2.8125 0.3125 3.65
2.8125 0.375 3.5875
2.8125 0.3125 3.5875
3 0.3125 3.65
3 0.375 3.5875
2.9375 0.375 3.65
3 0.3125 3.5875
2.9375 0.3125 3.65
2.9375 0.375 3.5875
2.9375 0.3125 3.5875
3.125 0.3125 3.65
3.125 0.375 3.5875
3.0625 0.375 3.65
3.125 0.3125 3.5875
3.0625 0.3125 3.65
3.0625 0.375 3.5875
3.0625 0.3125 3.5875
3.25 0.3125 3.65
3.25 0.375 3.5875
3.1875 0.375 3.65
3.25 0.3125 3.5875
3.1875 0.3125 3.65
3.1875 0.375 3.5875
3.1875 0.3125 3.5875
3.375 0.3125 3.65
3.375 0.375 3.5875
3.3125 0.375 3.65
3.375 0.3125 3.5875
3.3125 0.3125 3.65
3.3125 0.375 3.5875
3.3125 0.3125 3.5875
3.5 0.3125 3.65
3.5 0.375 3.5875
3.4375 0.375 3.65
3.5 0.3125 3.5875
3.4375 0.3125 3.65
3.4375 0.375 3.5875
3.4375 0.3125 3.5875
3.625 0.3125 3.65
3.625 0.375 3.5875
3.5625 0.375 3.65
3.625 0.3125 3.5875
3.5625 0.3125 3.65
3.5625 0.375 3.5875
3.5625 0.3125 3.5875
3.75 0.3125 3.65
3.75 0.375 3.5875
3.6875 0.375 3.65
3.75 0.3125 3.5875
3.6875 0.3125 3.65
3.6875 0.375 3.5875
3.6875 0.3125 3.5875
3.875 0.3125 3.65
3.875 0.375 3.5875
3.8125 0.375 3.65
3.875 0.3125 3.5875
3.8125 0.3125 3.65
3.8125 0.375 3.5875
3.8125 0.3125 3.5875
4 0.3125 3.65
4 0.375 3.5875
3.9375 0.375 3.65
4 0.3125 3.5875
3.9375 0.3125 3.65
3.9375 0.375 3.5875
3.9375 0.3125 3.5875
0.125 0.4375 3.65
0 0.4375 3.65
0.125 0.5 3.5875
0.0625 0.5 3.65
0 0.5 3.5875
0.125 0.4375 3.5875
0.0625 0.4375 3.65
0 0.4375 3.5875
0.0625 0.5 3.5875
0.0625 0.4375 3.5875
0.25 0.4375 3.65
0.25 0.5 3.5875
0.1875 0.5 3.65
0.25 0.4375 3.5875
0.1875 0.4375 3.65
0.1875 0.5 3.5875
0.1875 0.4375 3.5875
0.375 0.4375 3.65
0.375 0.5 3.5875
0.3125 0.5 3.65
0.375 0.4375 3.5875
0.3125 0.4375 3.65
0.3125 0.5 3.5875
0.3125 0.4375 3.5875
0.5 0.4375 3.65
0.5 0.5 3.5875
0.4375 0.5 3.65
0.5 0.4375 3.5875
0.4375 0.4375 3.65
0.4375 0.5 3.5875
0.4375 0.4375 3.5875
0.625 0.4375 3.65
0.625 0.5 3.5875
0.5625 0.5 3.65
0.625 0.4375 3.5875
0.5625 0.4375 3.65
0.5625 0.5 3.5875
0.5625 0.4375 3.5875
0.75 0.4375 3.65
0.75 0.5 3.5875
0.6875 0.5 3.65
0.75 0.4375 3.5875
0.6875 0.4375 3.65
0.6875 0.5 3.5875
0.6875 0.4375 3.5875
0.875 0.4375 3.65
0.875 0.5 3.5875
0.8125 0.5 3.65
0.875 0.4375 3.5875
0.8125 0.4375 3.65
0.8125 0.5 3.5875
0.8125 0.4375 3.5875
1 0.4375 3.65
1 0.5 3.5875
0.9375 0.5 3.65
1 0.4375 3.5875
0.9375 0.4375 3.65
0.9375 0.5 3.5875
0.9375 0.4375 3.5875
1.125 0.4375 3.65
1.125 0.5 3.5875
1.0625 0.5 3.65
1.125 0.4375 3.5875
1.0625 0.4375 3.65
1.0625 0.5 3.5875
1.0625 0.4375 3.5875
1.25 0.4375 3.65
1.25 0.5 3.5875
1.1875 0.5 3.65
1.25 0.4375 3.5875
1.1875 0.4375 3.65
1.1875 0.5 3.5875
1.1875 0.4375 3.5875
1.375 0.4375 3.65
1.375 0.5 3.5875
1.3125 0.5 3.65
1.375 0.4375 3.5875
1.3125 0.4375 3.65
1.3125 0.5 3.5875
1.3125 0.4375 3.5875
1.5 0.4375 3.65
1.5 0.5 3.5875
1.4375 0.5 3.65
1.5 0.4375 3.5875
1.4375 0.4375 3.65
1.4375 0.5 3.5875
1.4375 0.4375 3.5875
1.625 0.4375 3.65
1.625 0.5 3.5875
1.5625 0.5 3.65
1.625 0.4375 3.5875
1.5625 0.4375 3.65
1.5625 0.5 3.5875
1.5625 0.4375 3.5875
1.75 0.4375 3.65
1.75 0.5 3.5875
1.6875 0.5 3.65
1.75 0.4375 3.5875
1.6875 0.4375 3.65
1.6875 0.5 3.5875
1.6875 0.4375 3.5875
1.875 0.4375 3.65
1.875 0.5 3.5875
1.8125 0.5 3.65
1.875 0.4375 3.5875
1.8125 0.4375 3.65
1.8125 0.5 3.5875
1.8125 0.4375 3.5875
2 0.4375 3.65
2 0.5 3.5875
1.9375 0.5 3.65
2 0.4375 3.5875
1.9375 0.4375 3.65
1.9375 0.5 3.5875
1.9375 0.4375 3.5875
2.125 0.4375 3.65
2.125 0.5 3.5875
2.0625 0.5 3.65
2.125 0.4375 3.5875
2.0625 0.4375 3.65
2.0625 0.5 3.5875
2.0625 0.4375 3.5875
2.25 0.4375 3.65
2.25 0.5 3.5875
2.1875 0.5 3.65
2.25 0.4375 3.5875
2.1875 0.4375 3.65
2.1875 0.5 3.5875
2.1875 0.4375 3.5875
2.375 0.4375 3.65
2.375 0.5 3.5875
2.3125 0.5 3.65
2.375 0.4375 3.5875
2.3125 0.4375 3.65
2.3125 0.5 3.5875
2.3125 0.4375 3.5875
2.5 0.4375 3.65
2.5 0.5 3.5875
2.4375 0.5 3.65
2.5 0.4375 3.5875
2.4375 0.4375 3.65
2.4375 0.5 3.5875
2.4375 0.4375 3.5875
2.625 0.4375 3.65
2.625 0.5 3.5875
2.5625 0.5 3.65
2.625 0.4375 3.5875
2.5625 0.4375 3.65
2.5625 0.5 3.5875
2.5625 0.4375 3.5875
2.75 0.4375 3.65
2.75 0.5 3.5875
2.6875 0.5 3.65
2.75 0.4375 3.5875
2.6875 0.4375 3.65
2.6875 0.5 3.5875
2.6875 0.4375 3.5875
2.875 0.4375 3.65
2.875 0.5 3.5875
2.8125 0.5 3.65
2.875 0.4375 3.5875
2.8125 0.4375 3.65
2.8125 0.5 3.5875
2.8125 0.4375 3.5875
3 0.4375 3.65
3 0.5 3.5875
2.9375 0.5 3.65
3 0.4375 3.5875
2.9375 0.4375 3.65
2.9375 0.5 3.5875
2.9375 0.4375 3.5875
3.125 0.4375 3.65
3.125 0.5 3.5875
3.0625 0.5 3.65
3.125 0.4375 3.5875
3.0625 0.4375 3.65
3.0625 0.5 3.5875
3.0625 0.4375 3.5875
3.25 0.4375 3.65
3.25 0.5 3.5875
3.1875 0.5 3.65
3.25 0.4375 3.5875
3.1875 0.4375 3.65
3.1875 0.5 3.5875
3.1875 0.4375 3.5875
3.375 0.4375 3.65
3.375 0.5 3.5875
3.3125 0.5 3.65
3.375 0.4375 3.5875
3.3125 0.4375 3.65
3.3125 0.5 3.5875
3.3125 0.4375 3.5875
3.5 0.4375 3.65
3.5 0.5 3.5875
3.4375 0.5 3.65
3.5 0.4375 3.5875
3.4375 0.4375 3.65
3.4375 0.5 3.5875
3.4375 0.4375 3.5875
3.625 0.4375 3.65
3.625 0.5 3.5875
3.5625 0.5 3.65
3.625 0.4375 3.5875
3.5625 0.4375 3.65
3.5625 0.5 3.5875
3.5625 0.4375 3.5875
3.75 0.4375 3.65
3.75 0.5 3.5875
3.6875 0.5 3.65
3.75 0.4375 3.5875
3.6875 0.4375 3.65
3.6875 0.5 3.5875
3.6875 0.4375 3.5875
3.875 0.4375 3.65
3.875 0.5 3.5875
3.8125 0.5 3.65
3.875 0.4375 3.5875
3.8125 0.4375 3.65
3.8125 0.5 3.5875
3.8125 0.4375 3.5875
4 0.4375 3.65
4 0.5 3.5875
3.9375 0.5 3.65
4 0.4375 3.5875
3.9375 0.4375 3.65
3.9375 0.5 3.5875
3.9375 0.4375 3.5875
0.125 0.5625 3.65
0 0.5625 3.65
0.125 0.625 3.5875
0.0625 0.625 3.65
0 0.625 3.5875
0.125 0.5625 3.5875
0.0625 0.5625 3.65
0 0.5625 3.5875
0.0625 0.625 3.5875
0.0625 0.5625 3.5875
0.25 0.5625 3.65
0.25 0.625 3.5875
0.1875 0.625 3.65
0.25 0.5625 3.5875
0.1875 0.5625 3.65
0.1875 0.625 3.5875
0.1875 0.5625 3.5875
0.375 0.5625 3.65
0.375 0.625 3.5875
0.3125 0.625 3.65
0.375 0.5625 3.5875
0.3125 0.5625 3.65
0.3125 0.625 3.5875
0.3125 0.5625 3.5875
0.5 0.5625 3.65
0.5 0.625 3.5875
0.4375 0.625 3.65
0.5 0.5625 3.5875
0.4375 0.5625 3.65
0.4375 0.625 3.5875
0.4375 0.5625 3.5875
0.625 0.5625 3.65
0.625 0.625 3.5875
0.5625 0.625 3.65
0.625 0.5625 3.5875
0.5625 0.5625 3.65
0.5625 0.625 3.5875
0.5625 0.5625 3.5875
0.75 0.5625 3.65
0.75 0.625 3.5875
0.6875 0.625 3.65
0.75 0.5625 3.5875
0.6875 0.5625 3.65
0.6875 0.625 3.5875
0.6875 0.5625 3.5875
0.875 0.5625 3.65
0.875 0.625 3.5875
0.8125 0.625 3.65
0.875 0.5625 3.5875
0.8125 0.5625 3.65
0.8125 0.625 3.5875
0.8125 0.5625 3.5875
1 0.5625 3.65
1 0.625 3.5875
0.9375 0.625 3.65
1 0.5625 3.5875
0.9375 0.5625 3.65
0.9375 0.625 3.5875
0.9375 0.5625 3.5875
1.125 0.5625 3.65
1.125 0.625 3.5875
1.0625 0.625 3.65
1.125 0.5625 3.5875
1.0625 0.5625 3.65
1.0625 0.625 3.5875
1.0625 0.5625 3.5875
1.25 0.5625 3.65
1.25 0.625 3.5875
1.1875 0.625 3.65
1.25 0.5625 3.5875
1.1875 0.5625 3.65
1.1875 0.625 3.5875
1.1875 0.5625 3.5875
1.375 0.5625 3.65
1.375 0.625 3.5875
1.3125 0.625 3.65
1.375 0.5625 3.5875
1.3125 0.5625 3.65
1.3125 0.625 3.5875
1.3125 0.5625 3.5875
1.5 0.5625 3.65
1.5 0.625 3.5875
1.4375 0.625 3.65
1.5 0.5625 3.5875
1.4375 0.5625 3.65
1.4375 0.625 3.5875
1.4375 0.5625 3.5875
1.625 0.5625 3.65
1.625 0.625 3.5875
1.5625 0.625 3.65
1.625 0.5625 3.5875
1.5625 0.5625 3.65
1.5625 0.625 3.5875
1.5625 0.5625 3.5875
1.75 0.5625 3.65
1.75 0.625 3.5875
1.6875 0.625 3.65
1.75 0.5625 3.5875
1.6875 0.5625 3.65
1.6875 0.625 3.5875
1.6875 0.5625 3.5875
1.875 0.5625 3.65
1.875 0.625 3.5875
1.8125 0.625 3.65
1.875 0.5625 3.5875
1.8125 0.5625 3.65
1.8125 0.625 3.5875
1.8125 0.5625 3.5875
2 0.5625 3.65
2 0.625 3.5875
1.9375 0.625 3.65
2 0.5625 3.5875
1.9375 0.5625 3.65
1.9375 0.625 3.5875
1.9375 0.5625 3.5875
2.125 0.5625 3.65
2.125 0.625 3.5875
2.0625 0.625 3.65
2.125 0.5625 3.5875
2.0625 0.5625 3.65
2.0625 0.625 3.5875
2.0625 0.5625 3.5875
2.25 0.5625 3.65
2.25 0.625 3.5875
2.1875 0.625 3.65
2.25 0.5625 3.5875
2.1875 0.5625 3.65
2.1875 0.625 3.5875
2.1875 0.5625 3.5875
2.375 0.5625 3.65
2.375 0.625 3.5875
2.3125 0.625 3.65
2.375 0.5625 3.5875
2.3125 0.5625 3.65
2.3125 0.625 3.5875
2.3125 0.5625 3.5875
2.5 0.5625 3.65
2.5 0.625 3.5875
2.4375 0.625 3.65
2.5 0.5625 3.5875
2.4375 0.5625 3.65
2.4375 0.625 3.5875
2.4375 0.5625 3.5875
2.625 0.5625 3.65
2.625 0.625 3.5875
2.5625 0.625 3.65
2.625 0.5625 3.5875
2.5625 0.5625 3.65
2.5625 0.625 3.5875
2.5625 0.5625 3.5875
2.75 0.5625 3.65
2.75 0.625 3.5875
2.6875 0.625 3.65
2.75 0.5625 3.5875
2.6875 0.5625 3.65
2.6875 0.625 3.5875
2.6875 0.5625 3.5875
2.875 0.5625 3.65
2.875 0.625 3.5875
2.8125 0.625 3.65
2.875 0.5625 3.5875
2.8125 0.5625 3.65
2.8125 0.625 3.5875
2.8125 0.5625 3.5875
3 0.5625 3.65
3 0.625 3.5875
2.9375 0.625 3.65
3 0.5625 3.5875
2.9375 0.5625 3.65
2.9375 0.625 3.5875
2.9375 0.5625 3.5875
3.125 0.5625 3.65
3.125 0.625 3.5875
3.0625 0.625 3.65
3.125 0.5625 3.5875
3.0625 0.5625 3.65
3.0625 0.625 3.5875
3.0625 0.5625 3.5875
3.25 0.5625 3.65
3.25 0.625 3.5875
3.1875 0.625 3.65
3.25 0.5625 3.5875
3.1875 0.5625 3.65
3.1875 0.625 3.5875
3.1875 0.5625 3.5875
3.375 0.5625 3.65
3.375 0.625 3.5875
3.3125 0.625 3.65
3.375 0.5625 3.5875
3.3125 0.5625 3.65
3.3125 0.625 3.5875
3.3125 0.5625 3.5875
3.5 0.5625 3.65
3.5 0.625 3.5875
3.4375 0.625 3.65
3.5 0.5625 3.5875
3.4375 0.5625 3.65
3.4375 0.625 3.5875
3.4375 0.5625 3.5875
3.625 0.5625 3.65
3.625 0.625 3.5875
3.5625 0.625 3.65
3.625 0.5625 3.5875
3.5625 0.5625 3.65
3.5625 0.625 3.5875
3.5625 0.5625 3.5875
3.75 0.5625 3.65
3.75 0.625 3.5875
3.6875 0.625 3.65
3.75 0.5625 3.5875
3.6875 0.5625 3.65
3.6875 0.625 3.5875
3.6875 0.5625 3.5875
3.875 0.5625 3.65
3.875 0.625 3.5875
3.8125 0.625 3.65
3.875 0.5625 3.5875
3.8125 0.5625 3.65
3.8125 0.625 3.5875
3.8125 0.5625 3.5875
4 0.5625 3.65
4 0.625 3.5875
3.9375 0.625 3.65
4 0.5625 3.5875
3.9375 0.5625 3.65
3.9375 0.625 3.5875
3.9375 0.5625 3.5875
0.125 0.6875 3.65
0 0.6875 3.65
0.125 0.75 3.5875
0.0625 0.75 3.65
0 0.75 3.5875
0.125 0.6875 3.5875
0.0625 0.6875 3.65
0 0.6875 3.5875
0.0625 0.75 3.5875
0.0625 0.6875 3.5875
0.25 0.6875 3.65
0.25 0.75 3.5875
0.1875 0.75 3.65
0.25 0.6875 3.5875
0.1875 0.6875 3.65
0.1875 0.75 3.5875
0.1875 0.6875 3.5875
0.375 0.6875 3.65
0.375 0.75 3.5875
0.3125 0.75 3.65
0.375 0.6875 3.5875
0.3125 0.6875 3.65
0.3125 0.75 3.5875
0.3125 0.6875 3.5875
0.5 0.6875 3.65
0.5 0.75 3.5875
0.4375 0.75 3.65
0.5 0.6875 3.5875
0.4375 0.6875 3.65
0.4375 0.75 3.5875
0.4375 0.6875 3.5875
0.625 0.6875 3.65
0.625 0.75 3.5875
0.5625 0.75 3.65
0.625 0.6875 3.5875
0.5625 0.6875 3.65
0.5625 0.75 3.5875
0.5625 0.6875 3.5875
0.75 0.6875 3.65
0.75 0.75 3.5875
0.6875 0.75 3.65
0.75 0.6875 3.5875
0.6875 0.6875 3.65
0.6875 0.75 3.5875
0.6875 0.6875 3.5875
0.875 0.6875 3.65
0.875 0.75 3.5875
0.8125 0.75 3.65
0.875 0.6875 3.5875
0.8125 0.6875 3.65
0.8125 0.75 3.5875
0.8125 0.6875 3.5875
1 0.6875 3.65
1 0.75 3.5875
0.9375 0.75 3.65
1 0.6875 3.5875
0.9375 0.6875 3.65
0.9375 0.75 3.5875
0.9375 0.6875 3.5875
1.125 0.6875 3.65
1.125 0.75 3.5875
1.0625 0.75 3.65
1.125 0.6875 3.5875
1.0625 0.6875 3.65
1.0625 0.75 3.5875
1.0625 0.6875 3.5875
1.25 0.6875 3.65
1.25 0.75 3.5875
1.1875 0.75 3.65
1.25 0.6875 3.5875
1.1875 0.6875 3.65
1.1875 0.75 3.5875
1.1875 0.6875 3.5875
1.375 0.6875 3.65
1.375 0.75 3.5875
1.3125 0.75 3.65
1.375 0.6875 3.5875
1.3125 0.6875 3.65
1.3125 0.75 3.5875
1.3125 0.6875 3.5875
1.5 0.6875 3.65
1.5 0.75 3.5875
1.4375 0.75 3.65
1.5 0.6875 3.5875
1.4375 0.6875 3.65
1.4375 0.75 3.5875
1.4375 0.6875 3.5875
1.625 0.6875 3.65
1.625 0.75 3.5875
1.5625 0.75 3.65
1.625 0.6875 3.5875
1.5625 0.6875 3.65
1.5625 0.75 3.5875
1.5625 0.6875 3.5875
1.75 0.6875 3.65
1.75 0.75 3.5875
1.6875 0.75 3.65
1.75 0.6875 3.5875
1.6875 0.6875 3.65
1.6875 0.75 3.5875
1.6875 0.6875 3.5875
1.875 0.6875 3.65
1.875 0.75 3.5875
1.8125 0.75 3.65
1.875 0.6875 3.5875
1.8125 0.6875 3.65
1.8125 0.75 3.5875
1.8125 0.6875 3.5875
2 0.6875 3.65
2 0.75 3.5875
1.9375 0.75 3.65
2 0.6875 3.5875
1.9375 0.6875 3.65
1.9375 0.75 3.5875
1.9375 0.6875 3.5875
2.125 0.6875 3.65
2.125 0.75 3.5875
2.0625 0.75 3.65
2.125 0.6875 3.5875
2.0625 0.6875 3.65
2.0625 0.75 3.5875
2.0625 0.6875 3.5875
2.25 0.6875 3.65
2.25 0.75 3.5875
2.1875 0.75 3.65
2.25 0.6875 3.5875
2.1875 0.6875 3.65
2.1875 0.75 3.5875
2.1875 0.6875 3.5875
2.375 0.6875 3.65
2.375 0.75 3.5875
2.3125 0.75 3.65
2.375 0.6875 3.5875
2.3125 0.6875 3.65
2.3125 0.75 3.5875
2.3125 0.6875 3.5875
2.5 0.6875 3.65
2.5 0.75 3.5875
2.4375 0.75 3.65
2.5 0.6875 3.5875
2.4375 0.6875 3.65
2.4375 0.75 3.5875
2.4375 0.6875 3.5875
2.625 0.6875 3.65
2.625 0.75 3.5875
2.5625 0.75 3.65
2.625 0.6875 3.5875
2.5625 0.6875 3.65
2.5625 0.75 3.5875
2.5625 0.6875 3.5875
2.75 0.6875 3.65
2.75 0.75 3.5875
2.6875 0.75 3.65
2.75 0.6875 3.5875
2.6875 0.6875 3.65
2.6875 0.75 3.5875
2.6875 0.6875 3.5875
2.875 0.6875 3.65
2.875 0.75 3.5875
2.8125 0.75 3.65
2.875 0.6875 3.5875
2.8125 0.6875 3.65
2.8125 0.75 3.5875
2.8125 0.6875 3.5875
3 0.6875 3.65
3 0.75 3.5875
2.9375 0.75 3.65
3 0.6875 3.5875
2.9375 0.6875 3.65
2.9375 0.75 3.5875
2.9375 0.6875 3.5875
3.125 0.6875 3.65
3.125 0.75 3.5875
3.0625 0.75 3.65
3.125 0.6875 3.5875
3.0625 0.6875 3.65
3.0625 0.75 3.5875
3.0625 0.6875 3.5875
3.25 0.6875 3.65
3.25 0.75 3.5875
3.1875 0.75 3.65
3.25 0.6875 3.5875
3.1875 0.6875 3.65
3.1875 0.75 3.5875
3.1875 0.6875 3.5875
3.375 0.6875 3.65
3.375 0.75 3.5875
3.3125 0.75 3.65
3.375 0.6875 3.5875
3.3125 0.6875 3.65
3.3125 0.75 3.5875
3.3125 0.6875 3.5875
3.5 0.6875 3.65
3.5 0.75 3.5875
3.4375 0.75 3.65
3.5 0.6875 3.5875
3.4375 0.6875 3.65
3.4375 0.75 3.5875
3.4375 0.6875 3.5875
3.625 0.6875 3.65
3.625 0.75 3.5875
3.5625 0.75 3.65
3.625 0.6875 3.5875
3.5625 0.6875 3.65
3.5625 0.75 3.5875
3.5625 0.6875 3.5875
3.75 0.6875 3.65
3.75 0.75 3.5875
3.6875 0.75 3.65
3.75 0.6875 3.5875
3.6875 0.6875 3.65
3.6875 0.75 3.5875
3.6875 0.6875 3.5875
3.875 0.6875 3.65
3.875 0.75 3.5875
3.8125 0.75 3.65
3.875 0.6875 3.5875
3.8125 0.6875 3.65
3.8125 0.75 3.5875
3.8125 0.6875 3.5875
4 0.6875 3.65
4 0.75 3.5875
3.9375 0.75 3.65
4 0.6875 3.5875
3.9375 0.6875 3.65
3.9375 0.75 3.5875
3.9375 0.6875 3.5875
0.125 0.8125 3.65
0 0.8125 3.65
0.125 0.875 3.5875
0.0625 0.875 3.65
0 0.875 3.5875
0.125 0.8125 3.5875
0.0625 0.8125 3.65
0 0.8125 3.5875
0.0625 0.875 3.5875
0.0625 0.8125 3.5875
0.25 0.8125 3.65
0.25 0.875 3.5875
0.1875 0.875 3.65
0.25 0.8125 3.5875
0.1875 0.8125 3.65
0.1875 0.875 3.5875
0.1875 0.8125 3.5875
0.375 0.8125 3.65
0.375 0.875 3.5875
0.3125 0.875 3.65
0.375 0.8125 3.5875
0.3125 0.8125 3.65
0.3125 0.875 3.5875
0.3125 0.8125 3.5875
0.5 0.8125 3.65
0.5 0.875 3.5875
0.4375 0.875 3.65
0.5 0.8125 3.5875
0.4375 0.8125 3.65
0.4375 0.875 3.5875
0.4375 0.8125 3.5875
0.625 0.8125 3.65
0.625 0.875 3.5875
0.5625 0.875 3.65
0.625 0.8125 3.5875
0.5625 0.8125 3.65
0.5625 0.875 3.5875
0.5625 0.8125 3.5875
0.75 0.8125 3.65
0.75 0.875 3.5875
0.6875 0.875 3.65
0.75 0.8125 3.5875
0.6875 0.8125 3.65
0.6875 0.875 3.5875
0.6875 0.8125 3.5875
0.875 0.8125 3.65
0.875 0.875 3.5875
0.8125 0.875 3.65
0.875 0.8125 3.5875
0.8125 0.8125 3.65
0.8125 0.875 3.5875
0.8125 0.8125 3.5875
1 0.8125 3.65
1 0.875 3.5875
0.9375 0.875 3.65
1 0.8125 3.5875
0.9375 0.8125 3.65
0.9375 0.875 3.5875
0.9375 0.8125 3.5875
1.125 0.8125 3.65
1.125 0.875 3.5875
1.0625 0.875 3.65
1.125 0.8125 3.5875
1.0625 0.8125 3.65
1.0625 0.875 3.5875
1.0625 0.8125 3.5875
1.25 0.8125 3.65
1.25 0.875 3.5875
1.1875 0.875 3.65
1.25 0.8125 3.5875
1.1875 0.8125 3.65
1.1875 0.875 3.5875
1.1875 0.8125 3.5875
1.375 0.8125 3.65
1.375 0.875 3.5875
1.3125 0.875 3.65
1.375 0.8125 3.5875
1.3125 0.8125 3.65
1.3125 0.875 3.5875
1.3125 0.8125 3.5875
1.5 0.8125 3.65
1.5 0.875 3.5875
1.4375 0.875 3.65
1.5 0.8125 3.5875
1.4375 0.8125 3.65
1.4375 0.875 3.5875
1.4375 0.8125 3.5875
1.625 0.8125 3.65
1.625 0.875 3.5875
1.5625 0.875 3.65
1.625 0.8125 3.5875
1.5625 0.8125 3.65
1.5625 0.875 3.5875
1.5625 0.8125 3.5875
1.75 0.8125 3.65
1.75 0.875 3.5875
1.6875 0.875 3.65
1.75 0.8125 3.5875
1.6875 0.8125 3.65
1.6875 0.875 3.5875
1.6875 0.8125 3.5875
1.875 0.8125 3.65
1.875 0.875 3.5875
1.8125 0.875 3.65
1.875 0.8125 3.5875
1.8125 0.8125 3.65
1.8125 0.875 3.5875
1.8125 0.8125 3.5875
2 0.8125 3.65
2 0.875 3.5875
1.9375 0.875 3.65
2 0.8125 3.5875
1.9375 0.8125 3.65
1.9375 0.875 3.5875
1.9375 0.8125 3.5875
2.125 0.8125 3.65
2.125 0.875 3.5875
2.0625 0.875 3.65
2.125 0.8125 3.5875
2.0625 0.8125 3.65
2.0625 0.875 3.5875
2.0625 0.8125 3.5875
2.25 0.8125 3.65
2.25 0.875 3.5875
2.1875 0.875 3.65
2.25 0.8125 3.5875
2.1875 0.8125 3.65
2.1875 0.875 3.5875
2.1875 0.8125 3.5875
2.375 0.8125 3.65
2.375 0.875 3.5875
2.3125 0.875 3.65
2.375 0.8125 3.5875
2.3125 0.8125 3.65
2.3125 0.875 3.5875
2.3125 0.8125 3.5875
2.5 0.8125 3.65
2.5 0.875 3.5875
2.4375 0.875 3.65
2.5 0.8125 3.5875
2.4375 0.8125 3.65
2.4375 0.875 3.5875
2.4375 0.8125 3.5875
2.625 0.8125 3.65
2.625 0.875 3.5875
2.5625 0.875 3.65
2.625 0.8125 3.5875
2.5625 0.8125 3.65
2.5625 0.875 3.5875
2.5625 0.8125 3.5875
2.75 0.8125 3.65
2.75 0.875 3.5875
2.6875 0.875 3.65
2.75 0.8125 3.5875
2.6875 0.8125 3.65
2.6875 0.875 3.5875
2.6875 0.8125 3.5875
2.875 0.8125 3.65
2.875 0.875 3.5875
2.8125 0.875 3.65
2.875 0.8125 3.5875
2.8125 0.8125 3.65
2.8125 0.875 3.5875
2.8125 0.8125 3.5875
3 0.8125 3.65
3 0.875 3.5875
2.9375 0.875 3.65
3 0.8125 3.5875
2.9375 0.8125 3.65
2.9375 0.875 3.5875
2.9375 0.8125 3.5875
3.125 0.8125 3.65
3.125 0.875 3.5875
3.0625 0.875 3.65
3.125 0.8125 3.5875
3.0625 0.8125 3.65
3.0625 0.875 3.5875
3.0625 0.8125 3.5875
3.25 0.8125 3.65
3.25 0.875 3.5875
3.1875 0.875 3.65
3.25 0.8125 3.5875
3.1875 0.8125 3.65
3.1875 0.875 3.5875
3.1875 0.8125 3.5875
3.375 0.8125 3.65
3.375 0.875 3.5875
3.3125 0.875 3.65
3.375 0.8125 3.5875
3.3125 0.8125 3.65
3.3125 0.875 3.5875
3.3125 0.8125 3.5875
3.5 0.8125 3.65
3.5 0.875 3.5875
3.4375 0.875 3.65
3.5 0.8125 3.5875
3.4375 0.8125 3.65
3.4375 0.875 3.5875
3.4375 0.8125 3.5875
3.625 0.8125 3.65
3.625 0.875 3.5875
3.5625 0.875 3.65
3.625 0.8125 3.5875
3.5625 0.8125 3.65
3.5625 0.875 3.5875
3.5625 0.8125 3.5875
3.75 0.8125 3.65
3.75 0.875 3.5875
3.6875 0.875 3.65
3.75 0.8125 3.5875
3.6875 0.8125 3.65
3.6875 0.875 3.5875
3.6875 0.8125 3.5875
3.875 0.8125 3.65
3.875 0.875 3.5875
3.8125 0.875 3.65
3.875 0.8125 3.5875
3.8125 0.8125 3.65
3.8125 0.875 3.5875
3.8125 0.8125 3.5875
4 0.8125 3.65
4 0.875 3.5875
3.9375 0.875 3.65
4 0.8125 3.5875
3.9375 0.8125 3.65
3.9375 0.875 3.5875
3.9375 0.8125 3.5875
0.125 0.9375 3.65
0 0.9375 3.65
0.125 1 3.5875
0.0625 1 3.65
0 1 3.5875
0.125 0.9375 3.5875
0.0625 0.9375 3.65
0 0.9375 3.5875
0.0625 1 3.5875
0.0625 0.9375 3.5875
0.25 0.9375 3.65
0.25 1 3.5875
0.1875 1 3.65
0.25 0.9375 3.5875
0.1875 0.9375 3.65
0.1875 1 3.5875
0.1875 0.9375 3.5875
0.375 0.9375 3.65
0.375 1 3.5875
0.3125 1 3.65
0.375 0.9375 3.5875
0.3125 0.9375 3.65
0.3125 1 3.5875
0.3125 0.9375 3.5875
0.5 0.9375 3.65
0.5 1 3.5875
0.4375 1 3.65
0.5 0.9375 3.5875
0.4375 0.9375 3.65
0.4375 1 3.5875
0.4375 0.9375 3.5875
0.625 0.9375 3.65
0.625 1 3.5875
0.5625 1 3.65
0.625 0.9375 3.5875
0.5625 0.9375 3.65
0.5625 1 3.5875
0.5625 0.9375 3.5875
0.75 0.9375 3.65
0.75 1 3.5875
0.6875 1 3.65
0.75 0.9375 3.5875
0.6875 0.9375 3.65
0.6875 1 3.5875
0.6875 0.9375 3.5875
0.875 0.9375 3.65
0.875 1 3.5875
0.8125 1 3.65
0.875 0.9375 3.5875
0.8125 0.9375 3.65
0.8125 1 3.5875
0.8125 0.9375 3.5875
1 0.9375 3.65
1 1 3.5875
0.9375 1 3.65
1 0.9375 3.5875
0.9375 0.9375 3.65
0.9375 1 3.5875
0.9375 0.9375 3.5875
1.125 0.9375 3.65
1.125 1 3.5875
1.0625 1 3.65
1.125 0.9375 3.5875
1.0625 0.9375 3.65
1.0625 1 3.5875
1.0625 0.9375 3.5875
1.25 0.9375 3.65
1.25 1 3.5875
1.1875 1 3.65
1.25 0.9375 3.5875
1.1875 0.9375 3.65
1.1875 1 3.5875
1.1875 0.9375 3.5875
1.375 0.9375 3.65
1.375 1 3.5875
1.3125 1 3.65
1.375 0.9375 3.5875
1.3125 0.9375 3.65
1.3125 1 3.5875
1.3125 0.9375 3.5875
1.5 0.9375 3.65
1.5 1 3.5875
1.4375 1 3.65
1.5 0.9375 3.5875
1.4375 0.9375 3.65
1.4375 1 3.5875
1.4375 0.9375 3.5875
1.625 0.9375 3.65
1.625 1 3.5875
1.5625 1 3.65
1.625 0.9375 3.5875
1.5625 0.9375 3.65
1.5625 1 3.5875
1.5625 0.9375 3.5875
1.75 0.9375 3.65
1.75 1 3.5875
1.6875 1 3.65
1.75 0.9375 3.5875
1.6875 0.9375 3.65
1.6875 1 3.5875
1.6875 0.9375 3.5875
1.875 0.9375 3.65
1.875 1 3.5875
1.8125 1 3.65
1.875 0.9375 3.5875
1.8125 0.9375 3.65
1.8125 1 3.5875
1.8125 0.9375 3.5875
2 0.9375 3.65
2 1 3.5875
1.9375 1 3.65
2 0.9375 3.5875
1.9375 0.9375 3.65
1.9375 1 3.5875
1.9375 0.9375 3.5875
2.125 0.9375 3.65
2.125 1 3.5875
2.0625 1 3.65
2.125 0.9375 3.5875
2.0625 0.9375 3.65
2.0625 1 3.5875
2.0625 0.9375 3.5875
2.25 0.9375 3.65
2.25 1 3.5875
2.1875 1 3.65
2.25 0.9375 3.5875
2.1875 0.9375 3.65
2.1875 1 3.5875
2.1875 0.9375 3.5875
2.375 0.9375 3.65
2.375 1 3.5875
2.3125 1 3.65
2.375 0.9375 3.5875
2.3125 0.9375 3.65
2.3125 1 3.5875
2.3125 0.9375 3.5875
2.5 0.9375 3.65
2.5 1 3.5875
2.4375 1 3.65
2.5 0.9375 3.5875
2.4375 0.9375 3.65
2.4375 1 3.5875
2.4375 0.9375 3.5875
2.625 0.9375 3.65
2.625 1 3.5875
2.5625 1 3.65
2.625 0.9375 3.5875
2.5625 0.9375 3.65
2.5625 1 3.5875
2.5625 0.9375 3.5875
2.75 0.9375 3.65
2.75 1 3.5875
2.6875 1 3.65
2.75 0.9375 3.5875
2.6875 0.9375 3.65
2.6875 1 3.5875
2.6875 0.9375 3.5875
2.875 0.9375 3.65
2.875 1 3.5875
2.8125 1 3.65
2.875 0.9375 3.5875
2.8125 0.9375 3.65
2.8125 1 3.5875
2.8125 0.9375 3.5875
3 0.9375 3.65
3 1 3.5875
2.9375 1 3.65
3 0.9375 3.5875
2.9375 0.9375 3.65
2.9375 1 3.5875
2.9375 0.9375 3.5875
3.125 0.9375 3.65
3.125 1 3.5875
3.0625 1 3.65
3.125 0.9375 3.5875
3.0625 0.9375 3.65
3.0625 1 3.5875
3.0625 0.9375 3.5875
3.25 0.9375 3.65
3.25 1 3.5875
3.1875 1 3.65
3.25 0.9375 3.5875
3.1875 0.9375 3.65
3.1875 1 3.5875
3.1875 0.9375 3.5875
3.375 0.9375 3.65
3.375 1 3.5875
3.3125 1 3.65
3.375 0.9375 3.5875
3.3125 0.9375 3.65
3.3125 1 3.5875
3.3125 0.9375 3.5875
3.5 0.9375 3.65
3.5 1 3.5875
3.4375 1 3.65
3.5 0.9375 3.5875
3.4375 0.9375 3.65
3.4375 1 3.5875
3.4375 0.9375 3.5875
3.625 0.9375 3.65
3.625 1 3.5875
3.5625 1 3.65
3.625 0.9375 3.5875
3.5625 0.9375 3.65
3.5625 1 3.5875
3.5625 0.9375 3.5875
3.75 0.9375 3.65
3.75 1 3.5875
3.6875 1 3.65
3.75 0.9375 3.5875
3.6875 0.9375 3.65
3.6875 1 3.5875
3.6875 0.9375 3.5875
3.875 0.9375 3.65
3.875 1 3.5875
3.8125 1 3.65
3.875 0.9375 3.5875
3.8125 0.9375 3.65
3.8125 1 3.5875
3.8125 0.9375 3.5875
4 0.9375 3.65
4 1 3.5875
3.9375 1 3.65
4 0.9375 3.5875
3.9375 0.9375 3.65
3.9375 1 3.5875
3.9375 0.9375 3.5875
0.125 0 3.7125
0.0625 0 3.775
0 0 3.7125
0.125 0.0625 3.775
0 0.0625 3.775
0.125 0.125 3.7125
0.0625 0.125 3.775
0 0.125 3.7125
0.0625 0 3.7125
0.125 0.0625 3.7125
0.0625 0.0625 3.775
0 0.0625 3.7125
0.0625 0.125 3.7125
0.0625 0.0625 3.7125
0.25 0 3.7125
0.1875 0 3.775
0.25 0.0625 3.775
0.25 0.125 3.7125
0.1875 0.125 3.775
0.1875 0 3.7125
0.25 0.0625 3.7125
0.1875 0.0625 3.775
0.1875 0.125 3.7125
0.1875 0.0625 3.7125
0.375 0 3.7125
0.3125 0 3.775
0.375 0.0625 3.775
0.375 0.125 3.7125
0.3125 0.125 3.775
0.3125 0 3.7125
0.375 0.0625 3.7125
0.3125 0.0625 3.775
0.3125 0.125 3.7125
0.3125 0.0625 3.7125
0.5 0 3.7125
0.4375 0 3.775
0.5 0.0625 3.775
0.5 0.125 3.7125
0.4375 0.125 3.775
0.4375 0 3.7125
0.5 0.0625 3.7125
0.4375 0.0625 3.775
0.4375 0.125 3.7125
0.4375 0.0625 3.7125
0.625 0 3.7125
0.5625 0 3.775
0.625 0.0625 3.775
0.625 0.125 3.7125
0.5625 0.125 3.775
0.5625 0 3.7125
0.625 0.0625 3.7125
0.5625 0.0625 3.775
0.5625 0.125 3.7125
0.5625 0.0625 3.7125
0.75 0 3.7125
0.6875 0 3.775
0.75 0.0625 3.775
0.75 0.125 3.7125
0.6875 0.125 3.775
0.6875 0 3.7125
0.75 0.0625 3.7125
0.6875 0.0625 3.775
0.6875 0.125 3.7125
0.6875 0.0625 3.7125
0.875 0 3.7125
0.8125 0 3.775
0.875 0.0625 3.775
0.875 0.125 3.7125
0.8125 0.125 3.775
0.8125 0 3.7125
0.875 0.0625 3.7125
0.8125 0.0625 3.775
0.8125 0.125 3.7125
0.8125 0.0625 3.7125
1 0 3.7125
0.9375 0 3.775
1 0.0625 3.775
1 0.125 3.7125
0.9375 0.125 3.775
0.9375 0 3.7125
1 0.0625 3.7125
0.9375 0.0625 3.775
0.9375 0.125 3.7125
0.9375 0.0625 3.7125
1.125 0 3.7125
1.0625 0 3.775
1.125 0.0625 3.775
1.125 0.125 3.7125
1.0625 0.125 3.775
1.0625 0 3.7125
1.125 0.0625 3.7125
1.0625 0.0625 3.775
1.0625 0.125 3.7125
1.0625 0.0625 3.7125
1.25 0 3.7125
1.1875 0 3.775
1.25 0.0625 3.775
1.25 0.125 3.7125
1.1875 0.125 3.775
1.1875 0 3.7125
1.25 0.0625 3.7125
1.1875 0.0625 3.775
1.1875 0.125 3.7125
1.1875 0.0625 3.7125
1.375 0 3.7125
1.3125 0 3.775
1.375 0.0625 3.775
1.375 0.125 3.7125
1.3125 0.125 3.775
1.3125 0 3.7125
1.375 0.0625 3.7125
1.3125 0.0625 3.775
1.3125 0.125 3.7125
1.3125 0.0625 3.7125
1.5 0 3.7125
1.4375 0 3.775
1.5 0.0625 3.775
1.5 0.125 3.7125
1.4375 0.125 3.775
1.4375 0 3.7125
1.5 0.0625 3.7125
1.4375 0.0625 3.775
1.4375 0.125 3.7125
1.4375 0.0625 3.7125
1.625 0 3.7125
1.5625 0 3.775
1.625 0.0625 3.775
1.625 0.125 3.7125
1.5625 0.125 3.775
1.5625 0 3.7125
1.625 0.0625 3.7125
1.5625 0.0625 3.775
1.5625 0.125 3.7125
1.5625 0.0625 3.7125
1.75 0 3.7125
1.6875 0 3.775
1.75 0.0625 3.775
1.75 0.125 3.7125
1.6875 0.125 3.775
1.6875 0 3.7125
1.75 0.0625 3.7125
1.6875 0.0625 3.775
1.6875 0.125 3.7125
1.6875 0.0625 3.7125
1.875 0 3.7125
1.8125 0 3.775
1.875 0.0625 3.775
1.875 0.125 3.7125
1.8125 0.125 3.775
1.8125 0 3.7125
1.875 0.0625 3.7125
1.8125 0.0625 3.775
1.8125 0.125 3.7125
1.8125 0.0625 3.7125
2 0 3.7125
1.9375 0 3.775
2 0.0625 3.775
2 0.125 3.7125
1.9375 0.125 3.775
1.9375 0 3.7125
2 0.0625 3.7125
1.9375 0.0625 3.775
1.9375 0.125 3.7125
1.9375 0.0625 3.7125
2.125 0 3.7125
2.0625 0 3.775
2.125 0.0625 3.775
2.125 0.125 3.7125
2.0625 0.125 3.775
2.0625 0 3.7125
2.125 0.0625 3.7125
2.0625 0.0625 3.775
2.0625 0.125 3.7125
2.0625 0.0625 3.7125
2.25 0 3.7125
2.1875 0 3.775
2.25 0.0625 3.775
2.25 0.125 3.7125
2.1875 0.125 3.775
2.1875 0 3.7125
2.25 0.0625 3.7125
2.1875 0.0625 3.775
2.1875 0.125 3.7125
2.1875 0.0625 3.7125
2.375 0 3.7125
2.3125 0 3.775
2.375 0.0625 3.775
2.375 0.125 3.7125
2.3125 0.125 3.775
2.3125 0 3.7125
2.375 0.0625 3.7125
2.3125 0.0625 3.775
2.3125 0.125 3.7125
2.3125 0.0625 3.7125
2.5 0 3.7125
2.4375 0 3.775
2.5 0.0625 3.775
2.5 0.125 3.7125
2.4375 0.125 3.775
2.4375 0 3.7125
2.5 0.0625 3.7125
2.4375 0.0625 3.775
2.4375 0.125 3.7125
2.4375 0.0625 3.7125
2.625 0 3.7125
2.5625 0 3.775
2.625 0.0625 3.775
2.625 0.125 3.7125
2.5625 0.125 3.775
2.5625 0 3.7125
2.625 0.0625 3.7125
2.5625 0.0625 3.775
2.5625 0.125 3.7125
2.5625 0.0625 3.7125
2.75 0 3.7125
2.6875 0 3.775
2.75 0.0625 3.775
2.75 0.125 3.7125
2.6875 0.125 3.775
2.6875 0 3.7125
2.75 0.0625 3.7125
2.6875 0.0625 3.775
2.6875 0.125 3.7125
2.6875 0.0625 3.7125
2.875 0 3.7125
2.8125 0 3.775
2.875 0.0625 3.775
2.875 0.125 3.7125
2.8125 0.125 3.775
2.8125 0 3.7125
2.875 0.0625 3.7125
2.8125 0.0625 3.775
2.8125 0.125 3.7125
2.8125 0.0625 3.7125
3 0 3.7125
2.9375 0 3.775
3 0.0625 3.775
3 0.125 3.7125
2.9375 0.125 3.775
2.9375 0 3.7125
3 0.0625 3.7125
2.9375 0.0625 3.775
2.9375 0.125 3.7125
2.9375 0.0625 3.7125
3.125 0 3.7125
3.0625 0 3.775
3.125 0.0625 3.775
3.125 0.125 3.7125
3.0625 0.125 3.775
3.0625 0 3.7125
3.125 0.0625 3.7125
3.0625 0.0625 3.775
3.0625 0.125 3.7125
3.0625 0.0625 3.7125
3.25 0 3.7125
3.1875 0 3.775
3.25 0.0625 3.775
3.25 0.125 3.7125
3.1875 0.125 3.775
3.1875 0 3.7125
3.25 0.0625 3.7125
3.1875 0.0625 3.775
3.1875 0.125 3.7125
3.1875 0.0625 3.7125
3.375 0 3.7125
3.3125 0 3.775
3.375 0.0625 3.775
3.375 0.125 3.7125
3.3125 0.125 3.775
3.3125 0 3.7125
3.375 0.0625 3.7125
3.3125 0.0625 3.775
3.3125 0.125 3.7125
3.3125 0.0625 3.7125
3.5 0 3.7125
3.4375 0 3.775
3.5 0.0625 3.775
3.5 0.125 3.7125
3.4375 0.125 3.775
3.4375 0 3.7125
3.5 0.0625 3.7125
3.4375 0.0625 3.775
3.4375 0.125 3.7125
3.4375 0.0625 3.7125
3.625 0 3.7125
3.5625 0 3.775
3.625 0.0625 3.775
3.625 0.125 3.7125
3.5625 0.125 3.775
3.5625 0 3.7125
3.625 0.0625 3.7125
3.5625 0.0625 3.775
3.5625 0.125 3.7125
3.5625 0.0625 3.7125
3.75 0 3.7125
3.6875 0 3.775
3.75 0.0625 3.775
3.75 0.125 3.7125
3.6875 0.125 3.775
3.6875 0 3.7125
3.75 0.0625 3.7125
3.6875 0.0625 3.775
3.6875 0.125 3.7125
3.6875 0.0625 3.7125
3.875 0 3.7125
3.8125 0 3.775
3.875 0.0625 3.775
3.875 0.125 3.7125
3.8125 0.125 3.775
3.8125 0 3.7125
3.875 0.0625 3.7125
3.8125 0.0625 3.775
3.8125 0.125 3.7125
3.8125 0.0625 3.7125
4 0 3.7125
3.9375 0 3.775
4 0.0625 3.775
4 0.125 3.7125
3.9375 0.125 3.775
3.9375 0 3.7125
4 0.0625 3.7125
3.9375 0.0625 3.775
3.9375 0.125 3.7125
3.9375 0.0625 3.7125
0.125 0.1875 3.775
0 0.1875 3.775
0.125 0.25 3.7125
0.0625 0.25 3.775
0 0.25 3.7125
0.125 0.1875 3.7125
0.0625 0.1875 3.775
0 0.1875 3.7125
0.0625 0.25 3.7125
0.0625 0.1875 3.7125
0.25 0.1875 3.775
0.25 0.25 3.7125
0.1875 0.25 3.775
0.25 0.1875 3.7125
0.1875 0.1875 3.775
0.1875 0.25 3.7125
0.1875 0.1875 3.7125
0.375 0.1875 3.775
0.375 0.25 3.7125
0.3125 0.25 3.775
0.375 0.1875 3.7125
0.3125 0.1875 3.775
0.3125 0.25 3.7125
0.3125 0.1875 3.7125
0.5 0.1875 3.775
0.5 0.25 3.7125
0.4375 0.25 3.775
0.5 0.1875 3.7125
0.4375 0.1875 3.775
0.4375 0.25 3.7125
0.4375 0.1875 3.7125
0.625 0.1875 3.775
0.625 0.25 3.7125
0.5625 0.25 3.775
0.625 0.1875 3.7125
0.5625 0.1875 3.775
0.5625 0.25 3.7125
0.5625 0.1875 3.7125
0.75 0.1875 3.775
0.75 0.25 3.7125
0.6875 0.25 3.775
0.75 0.1875 3.7125
0.6875 0.1875 3.775
0.6875 0.25 3.7125
0.6875 0.1875 3.7125
0.875 0.1875 3.775
0.875 0.25 3.7125
0.8125 0.25 3.775
0.875 0.1875 3.7125
0.8125 0.1875 3.775
0.8125 0.25 3.7125
0.8125 0.1875 3.7125
1 0.1875 3.775
1 0.25 3.7125
0.9375 0.25 3.775
1 0.1875 3.7125
0.9375 0.1875 3.775
0.9375 0.25 3.7125
0.9375 0.1875 3.7125
1.125 0.1875 3.775
1.125 0.25 3.7125
1.0625 0.25 3.775
1.125 0.1875 3.7125
1.0625 0.1875 3.775
1.0625 0.25 3.7125
1.0625 0.1875 3.7125
1.25 0.1875 3.775
1.25 0.25 3.7125
1.1875 0.25 3.775
1.25 0.1875 3.7125
1.1875 0.1875 3.775
1.1875 0.25 3.7125
1.1875 0.1875 3.7125
1.375 0.1875 3.775
1.375 0.25 3.7125
1.3125 0.25 3.775
1.375 0.1875 3.7125
1.3125 0.1875 3.775
1.3125 0.25 3.7125
1.3125 0.1875 3.7125
1.5 0.1875 3.775
1.5 0.25 3.7125
1.4375 0.25 3.775
1.5 0.1875 3.7125
1.4375 0.1875 3.775
1.4375 0.25 3.7125
1.4375 0.1875 3.7125
1.625 0.1875 3.775
1.625 0.25 3.7125
1.5625 0.25 3.775
1.625 0.1875 3.7125
1.5625 0.1875 3.775
1.5625 0.25 3.7125
1.5625 0.1875 3.7125
1.75 0.1875 3.775
1.75 0.25 3.7125
1.6875 0.25 3.775
1.75 0.1875 3.7125
1.6875 0.1875 3.775
1.6875 0.25 3.7125
1.6875 0.1875 3.7125
1.875 0.1875 3.775
1.875 0.25 3.7125
1.8125 0.25 3.775
1.875 0.1875 3.7125
1.8125 0.1875 3.775
1.8125 0.25 3.7125
1.8125 0.1875 3.7125
2 0.1875 3.775
2 0.25 3.7125
1.9375 0.25 3.775
2 0.1875 3.7125
1.9375 0.1875 3.775
1.9375 0.25 3.7125
1.9375 0.1875 3.7125
2.125 0.1875 3.775
2.125 0.25 3.7125
2.0625 0.25 3.775
2.125 0.1875 3.7125
2.0625 0.1875 3.775
2.0625 0.25 3.7125
2.0625 0.1875 3.7125
2.25 0.1875 3.775
2.25 0.25 3.7125
2.1875 0.25 3.775
2.25 0.1875 3.7125
2.1875 0.1875 3.775
2.1875 0.25 3.7125
2.1875 0.1875 3.7125
2.375 0.1875 3.775
2.375 0.25 3.7125
2.3125 0.25 3.775
2.375 0.1875 3.7125
2.3125 0.1875 3.775
2.3125 0.25 3.7125
2.3125 0.1875 3.7125
2.5 0.1875 3.775
2.5 0.25 3.7125
2.4375 0.25 3.775
2.5 0.1875 3.7125
2.4375 0.1875 3.775
2.4375 0.25 3.7125
2.4375 0.1875 3.7125
2.625 0.1875 3.775
2.625 0.25 3.7125
2.5625 0.25 3.775
2.625 0.1875 3.7125
2.5625 0.1875 3.775
2.5625 0.25 3.7125
2.5625 0.1875 3.7125
2.75 0.1875 3.775
2.75 0.25 3.7125
2.6875 0.25 3.775
2.75 0.1875 3.7125
2.6875 0.1875 3.775
2.6875 0.25 3.7125
2.6875 0.1875 3.7125
2.875 0.1875 3.775
2.875 0.25 3.7125
2.8125 0.25 3.775
2.875 0.1875 3.7125
2.8125 0.1875 3.775
2.8125 0.25 3.7125
2.8125 0.1875 3.7125
3 0.1875 3.775
3 0.25 3.7125
2.9375 0.25 3.775
3 0.1875 3.7125
2.9375 0.1875 3.775
2.9375 0.25 3.7125
2.9375 0.1875 3.7125
3.125 0.1875 3.775
3.125 0.25 3.7125
3.0625 0.25 3.775
3.125 0.1875 3.7125
3.0625 0.1875 3.775
3.0625 0.25 3.7125
3.0625 0.1875 3.7125
3.25 0.1875 3.775
3.25 0.25 3.7125
3.1875 0.25 3.775
3.25 0.1875 3.7125
3.1875 0.1875 3.775
3.1875 0.25 3.7125
3.1875 0.1875 3.7125
3.375 0.1875 3.775
3.375 0.25 3.7125
3.3125 0.25 3.775
3.375 0.1875 3.7125
3.3125 0.1875 3.775
3.3125 0.25 3.7125
3.3125 0.1875 3.7125
3.5 0.1875 3.775
3.5 0.25 3.7125
3.4375 0.25 3.775
3.5 0.1875 3.7125
3.4375 0.1875 3.775
3.4375 0.25 3.7125
3.4375 0.1875 3.7125
3.625 0.1875 3.775
3.625 0.25 3.7125
3.5625 0.25 3.775
3.625 0.1875 3.7125
3.5625 0.1875 3.775
3.5625 0.25 3.7125
3.5625 0.1875 3.7125
3.75 0.1875 3.775
3.75 0.25 3.7125
3.6875 0.25 3.775
3.75 0.1875 3.7125
3.6875 0.1875 3.775
3.6875 0.25 3.7125
3.6875 0.1875 3.7125
3.875 0.1875 3.775
3.875 0.25 3.7125
3.8125 0.25 3.775
3.875 0.1875 3.7125
3.8125 0.1875 3.775
3.8125 0.25 3.7125
3.8125 0.1875 3.7125
4 0.1875 3.775
4 0.25 3.7125
3.9375 0.25 3.775
4 0.1875 3.7125
3.9375 0.1875 3.775
3.9375 0.25 3.7125
3.9375 0.1875 3.7125
0.125 0.3125 3.775
0 0.3125 3.775
0.125 0.375 3.7125
0.0625 0.375 3.775
0 0.375 3.7125
0.125 0.3125 3.7125
0.0625 0.3125 3.775
0 0.3125 3.7125
0.0625 0.375 3.7125
0.0625 0.3125 3.7125
0.25 0.3125 3.775
0.25 0.375 3.7125
0.1875 0.375 3.775
0.25 0.3125 3.7125
0.1875 0.3125 3.775
0.1875 0.375 3.7125
0.1875 0.3125 3.7125
0.375 0.3125 3.775
0.375 0.375 3.7125
0.3125 0.375 3.775
0.375 0.3125 3.7125
0.3125 0.3125 3.775
0.3125 0.375 3.7125
0.3125 0.3125 3.7125
0.5 0.3125 3.775
0.5 0.375 3.7125
0.4375 0.375 3.775
0.5 0.3125 3.7125
0.4375 0.3125 3.775
0.4375 0.375 3.7125
0.4375 0.3125 3.7125
0.625 0.3125 3.775
0.625 0.375 3.7125
0.5625 0.375 3.775
0.625 0.3125 3.7125
0.5625 0.3125 3.775
0.5625 0.375 3.7125
0.5625 0.3125 3.7125
0.75 0.3125 3.775
0.75 0.375 3.7125
0.6875 0.375 3.775
0.75 0.3125 3.7125
0.6875 0.3125 3.775
0.6875 0.375 3.7125
0.6875 0.3125 3.7125
0.875 0.3125 3.775
0.875 0.375 3.7125
0.8125 0.375 3.775
0.875 0.3125 3.7125
0.8125 0.3125 3.775
0.8125 0.375 3.7125
0.8125 0.3125 3.7125
1 0.3125 3.775
1 0.375 3.7125
0.9375 0.375 3.775
1 0.3125 3.7125
0.9375 0.3125 3.775
0.9375 0.375 3.7125
0.9375 0.3125 3.7125
1.125 0.3125 3.775
1.125 0.375 3.7125
1.0625 0.375 3.775
1.125 0.3125 3.7125
1.0625 0.3125 3.775
1.0625 0.375 3.7125
1.0625 0.3125 3.7125
1.25 0.3125 3.775
1.25 0.375 3.7125
1.1875 0.375 3.775
1.25 0.3125 3.7125
1.1875 0.3125 3.775
1.1875 0.375 3.7125
1.1875 0.3125 3.7125
1.375 0.3125 3.775
1.375 0.375 3.7125
1.3125 0.375 3.775
1.375 0.3125 3.7125
1.3125 0.3125 3.775
1.3125 0.375 3.7125
1.3125 0.3125 3.7125
1.5 0.3125 3.775
1.5 0.375 3.7125
1.4375 0.375 3.775
1.5 0.3125 3.7125
1.4375 0.3125 3.775
1.4375 0.375 3.7125
1.4375 0.3125 3.7125
1.625 0.3125 3.775
1.625 0.375 3.7125
1.5625 0.375 3.775
1.625 0.3125 3.7125
1.5625 0.3125 3.775
1.5625 0.375 3.7125
1.5625 0.3125 3.7125
1.75 0.3125 3.775
1.75 0.375 3.7125
1.6875 0.375 3.775
1.75 0.3125 3.7125
1.6875 0.3125 3.775
1.6875 0.375 3.7125
1.6875 0.3125 3.7125
1.875 0.3125 3.775
1.875 0.375 3.7125
1.8125 0.375 3.775
1.875 0.3125 3.7125
1.8125 0.3125 3.775
1.8125 0.375 3.7125
1.8125 0.3125 3.7125
2 0.3125 3.775
2 0.375 3.7125
1.9375 0.375 3.775
2 0.3125 3.7125
1.9375 0.3125 3.775
1.9375 0.375 3.7125
1.9375 0.3125 3.7125
2.125 0.3125 3.775
2.125 0.375 3.7125
2.0625 0.375 3.775
2.125 0.3125 3.7125
2.0625 0.3125 3.775
2.0625 0.375 3.7125
2.0625 0.3125 3.7125
2.25 0.3125 3.775
2.25 0.375 3.7125
2.1875 0.375 3.775
2.25 0.3125 3.7125
2.1875 0.3125 3.775
2.1875 0.375 3.7125
2.1875 0.3125 3.7125
2.375 0.3125 3.775
2.375 0.375 3.7125
2.3125 0.375 3.775
2.375 0.3125 3.7125
2.3125 0.3125 3.775
2.3125 0.375 3.7125
2.3125 0.3125 3.7125
2.5 0.3125 3.775
2.5 0.375 3.7125
2.4375 0.375 3.775
2.5 0.3125 3.7125
2.4375 0.3125 3.775
2.4375 0.375 3.7125
2.4375 0.3125 3.7125
2.625 0.3125 3.775
2.625 0.375 3.7125
2.5625 0.375 3.775
2.625 0.3125 3.7125
2.5625 0.3125 3.775
2.5625 0.375 3.7125
2.5625 0.3125 3.7125
2.75 0.3125 3.775
2.75 0.375 3.7125
2.6875 0.375 3.775
2.75 0.3125 3.7125
2.6875 0.3125 3.775
2.6875 0.375 3.7125
2.6875 0.3125 3.7125
2.875 0.3125 3.775
2.875 0.375 3.7125
2.8125 0.375 3.775
2.875 0.3125 3.7125
2.8125 0.3125 3.775
2.8125 0.375 3.7125
2.8125 0.3125 3.7125
3 0.3125 3.775
3 0.375 3.7125
2.9375 0.375 3.775
3 0.3125 3.7125
2.9375 0.3125 3.775
2.9375 0.375 3.7125
2.9375 0.3125 3.7125
3.125 0.3125 3.775
3.125 0.375 3.7125
3.0625 0.375 3.775
3.125 0.3125 3.7125
3.0625 0.3125 3.775
3.0625 0.375 3.7125
3.0625 0.3125 3.7125
3.25 0.3125 3.775
3.25 0.375 3.7125
3.1875 0.375 3.775
3.25 0.3125 3.7125
3.1875 0.3125 3.775
3.1875 0.375 3.7125
3.1875 0.3125 3.7125
3.375 0.3125 3.775
3.375 0.375 3.7125
3.3125 0.375 3.775
3.375 0.3125 3.7125
3.3125 0.3125 3.775
3.3125 0.375 3.7125
3.3125 0.3125 3.7125
3.5 0.3125 3.775
3.5 0.375 3.7125
3.4375 0.375 3.775
3.5 0.3125 3.7125
3.4375 0.3125 3.775
3.4375 0.375 3.7125
3.4375 0.3125 3.7125
3.625 0.3125 3.775
3.625 0.375 3.7125
3.5625 0.375 3.775
3.625 0.3125 3.7125
3.5625 0.3125 3.775
3.5625 0.375 3.7125
3.5625 0.3125 3.7125
3.75 0.3125 3.775
3.75 0.375 3.7125
3.6875 0.375 3.775
3.75 0.3125 3.7125
3.6875 0.3125 3.775
3.6875 0.375 3.7125
3.6875 0.3125 3.7125
3.875 0.3125 3.775
3.875 0.375 3.7125
3.8125 0.375 3.775
3.875 0.3125 3.7125
3.8125 0.3125 3.775
3.8125 0.375 3.7125
3.8125 0.3125 3.7125
4 0.3125 3.775
4 0.375 3.7125
3.9375 0.375 3.775
4 0.3125 3.7125
3.9375 0.3125 3.775
3.9375 0.375 3.7125
3.9375 0.3125 3.7125
0.125 0.4375 3.775
0 0.4375 3.775
0.125 0.5 3.7125
0.0625 0.5 3.775
0 0.5 3.7125
0.125 0.4375 3.7125
0.0625 0.4375 3.775
0 0.4375 3.7125
0.0625 0.5 3.7125
0.0625 0.4375 3.7125
0.25 0.4375 3.775
0.25 0.5 3.7125
0.1875 0.5 3.775
0.25 0.4375 3.7125
0.1875 0.4375 3.775
0.1875 0.5 3.7125
0.1875 0.4375 3.7125
0.375 0.4375 3.775
0.375 0.5 3.7125
0.3125 0.5 3.775
0.375 0.4375 3.7125
0.3125 0.4375 3.775
0.3125 0.5 3.7125
0.3125 0.4375 3.7125
0.5 0.4375 3.775
0.5 0.5 3.7125
0.4375 0.5 3.775
0.5 0.4375 3.7125
0.4375 0.4375 3.775
0.4375 0.5 3.7125
0.4375 0.4375 3.7125
0.625 0.4375 3.775
0.625 0.5 3.7125
0.5625 0.5 3.775
0.625 0.4375 3.7125
0.5625 0.4375 3.775
0.5625 0.5 3.7125
0.5625 0.4375 3.7125
0.75 0.4375 3.775
0.75 0.5 3.7125
0.6875 0.5 3.775
0.75 0.4375 3.7125
0.6875 0.4375 3.775
0.6875 0.5 3.7125
0.6875 0.4375 3.7125
0.875 0.4375 3.775
0.875 0.5 3.7125
0.8125 0.5 3.775
0.875 0.4375 3.7125
0.8125 0.4375 3.775
0.8125 0.5 3.7125
0.8125 0.4375 3.7125
1 0.4375 3.775
1 0.5 3.7125
0.9375 0.5 3.775
1 0.4375 3.7125
0.9375 0.4375 3.775
0.9375 0.5 3.7125
0.9375 0.4375 3.7125
1.125 0.4375 3.775
1.125 0.5 3.7125
1.0625 0.5 3.775
1.125 0.4375 3.7125
1.0625 0.4375 3.775
1.0625 0.5 3.7125
1.0625 0.4375 3.7125
1.25 0.4375 3.775
1.25 0.5 3.7125
1.1875 0.5 3.775
1.25 0.4375 3.7125
1.1875 0.4375 3.775
1.1875 0.5 3.7125
1.1875 0.4375 3.7125
1.375 0.4375 3.775
1.375 0.5 3.7125
1.3125 0.5 3.775
1.375 0.4375 3.7125
1.3125 0.4375 3.775
1.3125 0.5 3.7125
1.3125 0.4375 3.7125
1.5 0.4375 3.775
1.5 0.5 3.7125
1.4375 0.5 3.775
1.5 0.4375 3.7125
1.4375 0.4375 3.775
1.4375 0.5 3.7125
1.4375 0.4375 3.7125
1.625 0.4375 3.775
1.625 0.5 3.7125
1.5625 0.5 3.775
1.625 0.4375 3.7125
1.5625 0.4375 3.775
1.5625 0.5 3.7125
1.5625 0.4375 3.7125
1.75 0.4375 3.775
1.75 0.5 3.7125
1.6875 0.5 3.775
1.75 0.4375 3.7125
1.6875 0.4375 3.775
1.6875 0.5 3.7125
1.6875 0.4375 3.7125
1.875 0.4375 3.775
1.875 0.5 3.7125
1.8125 0.5 3.775
1.875 0.4375 3.7125
1.8125 0.4375 3.775
1.8125 0.5 3.7125
1.8125 0.4375 3.7125
2 0.4375 3.775
2 0.5 3.7125
1.9375 0.5 3.775
2 0.4375 3.7125
1.9375 0.4375 3.775
1.9375 0.5 3.7125
1.9375 0.4375 3.7125
2.125 0.4375 3.775
2.125 0.5 3.7125
2.0625 0.5 3.775
2.125 0.4375 3.7125
2.0625 0.4375 3.775
2.0625 0.5 3.7125
2.0625 0.4375 3.7125
2.25 0.4375 3.775
2.25 0.5 3.7125
2.1875 0.5 3.775
2.25 0.4375 3.7125
2.1875 0.4375 3.775
2.1875 0.5 3.7125
2.1875 0.4375 3.7125
2.375 0.4375 3.775
2.375 0.5 3.7125
2.3125 0.5 3.775
2.375 0.4375 3.7125
2.3125 0.4375 3.775
2.3125 0.5 3.7125
2.3125 0.4375 3.7125
2.5 0.4375 3.775
2.5 0.5 3.7125
2.4375 0.5 3.775
2.5 0.4375 3.7125
2.4375 0.4375 3.775
2.4375 0.5 3.7125
2.4375 0.4375 3.7125
2.625 0.4375 3.775
2.625 0.5 3.7125
2.5625 0.5 3.775
2.625 0.4375 3.7125
2.5625 0.4375 3.775
2.5625 0.5 3.7125
2.5625 0.4375 3.7125
2.75 0.4375 3.775
2.75 0.5 3.7125
2.6875 0.5 3.775
2.75 0.4375 3.7125
2.6875 0.4375 3.775
2.6875 0.5 3.7125
2.6875 0.4375 3.7125
2.875 0.4375 3.775
2.875 0.5 3.7125
2.8125 0.5 3.775
2.875 0.4375 3.7125
2.8125 0.4375 3.775
2.8125 0.5 3.7125
2.8125 0.4375 3.7125
3 0.4375 3.775
3 0.5 3.7125
2.9375 0.5 3.775
3 0.4375 3.7125
2.9375 0.4375 3.775
2.9375 0.5 3.7125
2.9375 0.4375 3.7125
3.125 0.4375 3.775
3.125 0.5 3.7125
3.0625 0.5 3.775
3.125 0.4375 3.7125
3.0625 0.4375 3.775
3.0625 0.5 3.7125
3.0625 0.4375 3.7125
3.25 0.4375 3.775
3.25 0.5 3.7125
3.1875 0.5 3.775
3.25 0.4375 3.7125
3.1875 0.4375 3.775
3.1875 0.5 3.7125
3.1875 0.4375 3.7125
3.375 0.4375 3.775
3.375 0.5 3.7125
3.3125 0.5 3.775
3.375 0.4375 3.7125
3.3125 0.4375 3.775
3.3125 0.5 3.7125
3.3125 0.4375 3.7125
3.5 0.4375 3.775
3.5 0.5 3.7125
3.4375 0.5 3.775
3.5 0.4375 3.7125
3.4375 0.4375 3.775
3.4375 0.5 3.7125
3.4375 0.4375 3.7125
3.625 0.4375 3.775
3.625 0.5 3.7125
3.5625 0.5 3.775
3.625 0.4375 3.7125
3.5625 0.4375 3.775
3.5625 0.5 3.7125
3.5625 0.4375 3.7125
3.75 0.4375 3.775
3.75 0.5 3.7125
3.6875 0.5 3.775
3.75 0.4375 3.7125
3.6875 0.4375 3.775
3.6875 0.5 3.7125
3.6875 0.4375 3.7125
3.875 0.4375 3.775
3.875 0.5 3.7125
3.8125 0.5 3.775
3.875 0.4375 3.7125
3.8125 0.4375 3.775
3.8125 0.5 3.7125
3.8125 0.4375 3.7125
4 0.4375 3.775
4 0.5 3.7125
3.9375 0.5 3.775
4 0.4375 3.7125
3.9375 0.4375 3.775
3.9375 0.5 3.7125
3.9375 0.4375 3.7125
0.125 0.5625 3.775
0 0.5625 3.775
0.125 0.625 3.7125
0.0625 0.625 3.775
0 0.625 3.7125
0.125 0.5625 3.7125
0.0625 0.5625 3.775
0 0.5625 3.7125
0.0625 0.625 3.7125
0.0625 0.5625 3.7125
0.25 0.5625 3.775
0.25 0.625 3.7125
0.1875 0.625 3.775
0.25 0.5625 3.7125
0.1875 0.5625 3.775
0.1875 0.625 3.7125
0.1875 0.5625 3.7125
0.375 0.5625 3.775
0.375 0.625 3.7125
0.3125 0.625 3.775
0.375 0.5625 3.7125
0.3125 0.5625 3.775
0.3125 0.625 3.7125
0.3125 0.5625 3.7125
0.5 0.5625 3.775
0.5 0.625 3.7125
0.4375 0.625 3.775
0.5 0.5625 3.7125
0.4375 0.5625 3.775
0.4375 0.625 3.7125
0.4375 0.5625 3.7125
0.625 0.5625 3.775
0.625 0.625 3.7125
0.5625 0.625 3.775
0.625 0.5625 3.7125
0.5625 0.5625 3.775
0.5625 0.625 3.7125
0.5625 0.5625 3.7125
0.75 0.5625 3.775
0.75 0.625 3.7125
0.6875 0.625 3.775
0.75 0.5625 3.7125
0.6875 0.5625 3.775
0.6875 0.625 3.7125
0.6875 0.5625 3.7125
0.875 0.5625 3.775
0.875 0.625 3.7125
0.8125 0.625 3.775
0.875 0.5625 3.7125
0.8125 0.5625 3.775
0.8125 0.625 3.7125
0.8125 0.5625 3.7125
1 0.5625 3.775
1 0.625 3.7125
0.9375 0.625 3.775
1 0.5625 3.7125
0.9375 0.5625 3.775
0.9375 0.625 3.7125
0.9375 0.5625 3.7125
1.125 0.5625 3.775
1.125 0.625 3.7125
1.0625 0.625 3.775
1.125 0.5625 3.7125
1.0625 0.5625 3.775
1.0625 0.625 3.7125
1.0625 0.5625 3.7125
1.25 0.5625 3.775
1.25 0.625 3.7125
1.1875 0.625 3.775
1.25 0.5625 3.7125
1.1875 0.5625 3.775
1.1875 0.625 3.7125
1.1875 0.5625 3.7125
1.375 0.5625 3.775
1.375 0.625 3.7125
1.3125 0.625 3.775
1.375 0.5625 3.7125
1.3125 0.5625 3.775
1.3125 0.625 3.7125
1.3125 0.5625 3.7125
1.5 0.5625 3.775
1.5 0.625 3.7125
1.4375 0.625 3.775
1.5 0.5625 3.7125
1.4375 0.5625 3.775
1.4375 0.625 3.7125
1.4375 0.5625 3.7125
1.625 0.5625 3.775
1.625 0.625 3.7125
1.5625 0.625 3.775
1.625 0.5625 3.7125
1.5625 0.5625 3.775
1.5625 0.625 3.7125
1.5625 0.5625 3.7125
1.75 0.5625 3.775
1.75 0.625 3.7125
1.6875 0.625 3.775
1.75 0.5625 3.7125
1.6875 0.5625 3.775
1.6875 0.625 3.7125
1.6875 0.5625 3.7125
1.875 0.5625 3.775
1.875 0.625 3.7125
1.8125 0.625 3.775
1.875 0.5625 3.7125
1.8125 0.5625 3.775
1.8125 0.625 3.7125
1.8125 0.5625 3.7125
2 0.5625 3.775
2 0.625 3.7125
1.9375 0.625 3.775
2 0.5625 3.7125
1.9375 0.5625 3.775
1.9375 0.625 3.7125
1.9375 0.5625 3.7125
2.125 0.5625 3.775
2.125 0.625 3.7125
2.0625 0.625 3.775
2.125 0.5625 3.7125
2.0625 0.5625 3.775
2.0625 0.625 3.7125
2.0625 0.5625 3.7125
2.25 0.5625 3.775
2.25 0.625 3.7125
2.1875 0.625 3.775
2.25 0.5625 3.7125
2.1875 0.5625 3.775
2.1875 0.625 3.7125
2.1875 0.5625 3.7125
2.375 0.5625 3.775
2.375 0.625 3.7125
2.3125 0.625 3.775
2.375 0.5625 3.7125
2.3125 0.5625 3.775
2.3125 0.625 3.7125
2.3125 0.5625 3.7125
2.5 0.5625 3.775
2.5 0.625 3.7125
2.4375 0.625 3.775
2.5 0.5625 3.7125
2.4375 0.5625 3.775
2.4375 0.625 3.7125
2.4375 0.5625 3.7125
2.625 0.5625 3.775
2.625 0.625 3.7125
2.5625 0.625 3.775
2.625 0.5625 3.7125
2.5625 0.5625 3.775
2.5625 0.625 3.7125
2.5625 0.5625 3.7125
2.75 0.5625 3.775
2.75 0.625 3.7125
2.6875 0.625 3.775
2.75 0.5625 3.7125
2.6875 0.5625 3.775
2.6875 0.625 3.7125
2.6875 0.5625 3.7125
2.875 0.5625 3.775
2.875 0.625 3.7125
2.8125 0.625 3.775
2.875 0.5625 3.7125
2.8125 0.5625 3.775
2.8125 0.625 3.7125
2.8125 0.5625 3.7125
3 0.5625 3.775
3 0.625 3.7125
2.9375 0.625 3.775
3 0.5625 3.7125
2.9375 0.5625 3.775
2.9375 0.625 3.7125
2.9375 0.5625 3.7125
3.125 0.5625 3.775
3.125 0.625 3.7125
3.0625 0.625 3.775
3.125 0.5625 3.7125
3.0625 0.5625 3.775
3.0625 0.625 3.7125
3.0625 0.5625 3.7125
3.25 0.5625 3.775
3.25 0.625 3.7125
3.1875 0.625 3.775
3.25 0.5625 3.7125
3.1875 0.5625 3.775
3.1875 0.625 3.7125
3.1875 0.5625 3.7125
3.375 0.5625 3.775
3.375 0.625 3.7125
3.3125 0.625 3.775
3.375 0.5625 3.7125
3.3125 0.5625 3.775
3.3125 0.625 3.7125
3.3125 0.5625 3.7125
3.5 0.5625 3.775
3.5 0.625 3.7125
3.4375 0.625 3.775
3.5 0.5625 3.7125
3.4375 0.5625 3.775
3.4375 0.625 3.7125
3.4375 0.5625 3.7125
3.625 0.5625 3.775
3.625 0.625 3.7125
3.5625 0.625 3.775
3.625 0.5625 3.7125
3.5625 0.5625 3.775
3.5625 0.625 3.7125
3.5625 0.5625 3.7125
3.75 0.5625 3.775
3.75 0.625 3.7125
3.6875 0.625 3.775
3.75 0.5625 3.7125
3.6875 0.5625 3.775
3.6875 0.625 3.7125
3.6875 0.5625 3.7125
3.875 0.5625 3.775
3.875 0.625 3.7125
3.8125 0.625 3.775
3.875 0.5625 3.7125
3.8125 0.5625 3.775
3.8125 0.625 3.7125
3.8125 0.5625 3.7125
4 0.5625 3.775
4 0.625 3.7125
3.9375 0.625 3.775
4 0.5625 3.7125
3.9375 0.5625 3.775
3.9375 0.625 3.7125
3.9375 0.5625 3.7125
0.125 0.6875 3.775
0 0.6875 3.775
0.125 0.75 3.7125
0.0625 0.75 3.775
0 0.75 3.7125
0.125 0.6875 3.7125
0.0625 0.6875 3.775
0 0.6875 3.7125
0.0625 0.75 3.7125
0.0625 0.6875 3.7125
0.25 0.6875 3.775
0.25 0.75 3.7125
0.1875 0.75 3.775
0.25 0.6875 3.7125
0.1875 0.6875 3.775
0.1875 0.75 3.7125
0.1875 0.6875 3.7125
0.375 0.6875 3.775
0.375 0.75 3.7125
0.3125 0.75 3.775
0.375 0.6875 3.7125
0.3125 0.6875 3.775
0.3125 0.75 3.7125
0.3125 0.6875 3.7125
0.5 0.6875 3.775
0.5 0.75 3.7125
0.4375 0.75 3.775
0.5 0.6875 3.7125
0.4375 0.6875 3.775
0.4375 0.75 3.7125
0.4375 0.6875 3.7125
0.625 0.6875 3.775
0.625 0.75 3.7125
0.5625 0.75 3.775
0.625 0.6875 3.7125
0.5625 0.6875 3.775
0.5625 0.75 3.7125
0.5625 0.6875 3.7125
0.75 0.6875 3.775
0.75 0.75 3.7125
0.6875 0.75 3.775
0.75 0.6875 3.7125
0.6875 0.6875 3.775
0.6875 0.75 3.7125
0.6875 0.6875 3.7125
0.875 0.6875 3.775
0.875 0.75 3.7125
0.8125 0.75 3.775
0.875 0.6875 3.7125
0.8125 0.6875 3.775
0.8125 0.75 3.7125
0.8125 0.6875 3.7125
1 0.6875 3.775
1 0.75 3.7125
0.9375 0.75 3.775
1 0.6875 3.7125
0.9375 0.6875 3.775
0.9375 0.75 3.7125
0.9375 0.6875 3.7125
1.125 0.6875 3.775
1.125 0.75 3.7125
1.0625 0.75 3.775
1.125 0.6875 3.7125
1.0625 0.6875 3.775
1.0625 0.75 3.7125
1.0625 0.6875 3.7125
1.25 0.6875 3.775
1.25 0.75 3.7125
1.1875 0.75 3.775
1.25 0.6875 3.7125
1.1875 0.6875 3.775
1.1875 0.75 3.7125
1.1875 0.6875 3.7125
1.375 0.6875 3.775
1.375 0.75 3.7125
1.3125 0.75 3.775
1.375 0.6875 3.7125
1.3125 0.6875 3.775
1.3125 0.75 3.7125
1.3125 0.6875 3.7125
1.5 0.6875 3.775
1.5 0.75 3.7125
1.4375 0.75 3.775
1.5 0.6875 3.7125
1.4375 0.6875 3.775
1.4375 0.75 3.7125
1.4375 0.6875 3.7125
1.625 0.6875 3.775
1.625 0.75 3.7125
1.5625 0.75 3.775
1.625 0.6875 3.7125
1.5625 0.6875 3.775
1.5625 0.75 3.7125
1.5625 0.6875 3.7125
1.75 0.6875 3.775
1.75 0.75 3.7125
1.6875 0.75 3.775
1.75 0.6875 3.7125
1.6875 0.6875 3.775
1.6875 0.75 3.7125
1.6875 0.6875 3.7125
1.875 0.6875 3.775
1.875 0.75 3.7125
1.8125 0.75 3.775
1.875 0.6875 3.7125
1.8125 0.6875 3.775
1.8125 0.75 3.7125
1.8125 0.6875 3.7125
2 0.6875 3.775
2 0.75 3.7125
1.9375 0.75 3.775
2 0.6875 3.7125
1.9375 0.6875 3.775
1.9375 0.75 3.7125
1.9375 0.6875 3.7125
2.125 0.6875 3.775
2.125 0.75 3.7125
2.0625 0.75 3.775
2.125 0.6875 3.7125
2.0625 0.6875 3.775
2.0625 0.75 3.7125
2.0625 0.6875 3.7125
2.25 0.6875 3.775
2.25 0.75 3.7125
2.1875 0.75 3.775
2.25 0.6875 3.7125
2.1875 0.6875 3.775
2.1875 0.75 3.7125
2.1875 0.6875 3.7125
2.375 0.6875 3.775
2.375 0.75 3.7125
2.3125 0.75 3.775
2.375 0.6875 3.7125
2.3125 0.6875 3.775
2.3125 0.75 3.7125
2.3125 0.6875 3.7125
2.5 0.6875 3.775
2.5 0.75 3.7125
2.4375 0.75 3.775
2.5 0.6875 3.7125
2.4375 0.6875 3.775
2.4375 0.75 3.7125
2.4375 0.6875 3.7125
2.625 0.6875 3.775
2.625 0.75 3.7125
2.5625 0.75 3.775
2.625 0.6875 3.7125
2.5625 0.6875 3.775
2.5625 0.75 3.7125
2.5625 0.6875 3.7125
2.75 0.6875 3.775
2.75 0.75 3.7125
2.6875 0.75 3.775
2.75 0.6875 3.7125
2.6875 0.6875 3.775
2.6875 0.75 3.7125
2.6875 0.6875 3.7125
2.875 0.6875 3.775
2.875 0.75 3.7125
2.8125 0.75 3.775
2.875 0.6875 3.7125
2.8125 0.6875 3.775
2.8125 0.75 3.7125
2.8125 0.6875 3.7125
3 0.6875 3.775
3 0.75 3.7125
2.9375 0.75 3.775
3 0.6875 3.7125
2.9375 0.6875 3.775
2.9375 0.75 3.7125
2.9375 0.6875 3.7125
3.125 0.6875 3.775
3.125 0.75 3.7125
3.0625 0.75 3.775
3.125 0.6875 3.7125
3.0625 0.6875 3.775
3.0625 0.75 3.7125
3.0625 0.6875 3.7125
3.25 0.6875 3.775
3.25 0.75 3.7125
3.1875 0.75 3.775
3.25 0.6875 3.7125
3.1875 0.6875 3.775
3.1875 0.75 3.7125
3.1875 0.6875 3.7125
3.375 0.6875 3.775
3.375 0.75 3.7125
3.3125 0.75 3.775
3.375 0.6875 3.7125
3.3125 0.6875 3.775
3.3125 0.75 3.7125
3.3125 0.6875 3.7125
3.5 0.6875 3.775
3.5 0.75 3.7125
3.4375 0.75 3.775
3.5 0.6875 3.7125
3.4375 0.6875 3.775
3.4375 0.75 3.7125
3.4375 0.6875 3.7125
3.625 0.6875 3.775
3.625 0.75 3.7125
3.5625 0.75 3.775
3.625 0.6875 3.7125
3.5625 0.6875 3.775
3.5625 0.75 3.7125
3.5625 0.6875 3.7125
3.75 0.6875 3.775
3.75 0.75 3.7125
3.6875 0.75 3.775
3.75 0.6875 3.7125
3.6875 0.6875 3.775
3.6875 0.75 3.7125
3.6875 0.6875 3.7125
3.875 0.6875 3.775
3.875 0.75 3.7125
3.8125 0.75 3.775
3.875 0.6875 3.7125
3.8125 0.6875 3.775
3.8125 0.75 3.7125
3.8125 0.6875 3.7125
4 0.6875 3.775
4 0.75 3.7125
3.9375 0.75 3.775
4 0.6875 3.7125
3.9375 0.6875 3.775
3.9375 0.75 3.7125
3.9375 0.6875 3.7125
0.125 0.8125 3.775
0 0.8125 3.775
0.125 0.875 3.7125
0.0625 0.875 3.775
0 0.875 3.7125
0.125 0.8125 3.7125
0.0625 0.8125 3.775
0 0.8125 3.7125
0.0625 0.875 3.7125
0.0625 0.8125 3.7125
0.25 0.8125 3.775
0.25 0.875 3.7125
0.1875 0.875 3.775
0.25 0.8125 3.7125
0.1875 0.8125 3.775
0.1875 0.875 3.7125
0.1875 0.8125 3.7125
0.375 0.8125 3.775
0.375 0.875 3.7125
0.3125 0.875 3.775
0.375 0.8125 3.7125
0.3125 0.8125 3.775
0.3125 0.875 3.7125
0.3125 0.8125 3.7125
0.5 0.8125 3.775
0.5 0.875 3.7125
0.4375 0.875 3.775
0.5 0.8125 3.7125
0.4375 0.8125 3.775
0.4375 0.875 3.7125
0.4375 0.8125 3.7125
0.625 0.8125 3.775
0.625 0.875 3.7125
0.5625 0.875 3.775
0.625 0.8125 3.7125
0.5625 0.8125 3.775
0.5625 0.875 3.7125
0.5625 0.8125 3.7125
0.75 0.8125 3.775
0.75 0.875 3.7125
0.6875 0.875 3.775
0.75 0.8125 3.7125
0.6875 0.8125 3.775
0.6875 0.875 3.7125
0.6875 0.8125 3.7125
0.875 0.8125 3.775
0.875 0.875 3.7125
0.8125 0.875 3.775
0.875 0.8125 3.7125
0.8125 0.8125 3.775
0.8125 0.875 3.7125
0.8125 0.8125 3.7125
1 0.8125 3.775
1 0.875 3.7125
0.9375 0.875 3.775
1 0.8125 3.7125
0.9375 0.8125 3.775
0.9375 0.875 3.7125
0.9375 0.8125 3.7125
1.125 0.8125 3.775
1.125 0.875 3.7125
1.0625 0.875 3.775
1.125 0.8125 3.7125
1.0625 0.8125 3.775
1.0625 0.875 3.7125
1.0625 0.8125 3.7125
1.25 0.8125 3.775
1.25 0.875 3.7125
1.1875 0.875 3.775
1.25 0.8125 3.7125
1.1875 0.8125 3.775
1.1875 0.875 3.7125
1.1875 0.8125 3.7125
1.375 0.8125 3.775
1.375 0.875 3.7125
1.3125 0.875 3.775
1.375 0.8125 3.7125
1.3125 0.8125 3.775
1.3125 0.875 3.7125
1.3125 0.8125 3.7125
1.5 0.8125 3.775
1.5 0.875 3.7125
1.4375 0.875 3.775
1.5 0.8125 3.7125
1.4375 0.8125 3.775
1.4375 0.875 3.7125
1.4375 0.8125 3.7125
1.625 0.8125 3.775
1.625 0.875 3.7125
1.5625 0.875 3.775
1.625 0.8125 3.7125
1.5625 0.8125 3.775
1.5625 0.875 3.7125
1.5625 0.8125 3.7125
1.75 0.8125 3.775
1.75 0.875 3.7125
1.6875 0.875 3.775
1.75 0.8125 3.7125
1.6875 0.8125 3.775
1.6875 0.875 3.7125
1.6875 0.8125 3.7125
1.875 0.8125 3.775
1.875 0.875 3.7125
1.8125 0.875 3.775
1.875 0.8125 3.7125
1.8125 0.8125 3.775
1.8125 0.875 3.7125
1.8125 0.8125 3.7125
2 0.8125 3.775
2 0.875 3.7125
1.9375 0.875 3.775
2 0.8125 3.7125
1.9375 0.8125 3.775
1.9375 0.875 3.7125
1.9375 0.8125 3.7125
2.125 0.8125 3.775
2.125 0.875 3.7125
2.0625 0.875 3.775
2.125 0.8125 3.7125
2.0625 0.8125 3.775
2.0625 0.875 3.7125
2.0625 0.8125 3.7125
2.25 0.8125 3.775
2.25 0.875 3.7125
2.1875 0.875 3.775
2.25 0.8125 3.7125
2.1875 0.8125 3.775
2.1875 0.875 3.7125
2.1875 0.8125 3.7125
2.375 0.8125 3.775
2.375 0.875 3.7125
2.3125 0.875 3.775
2.375 0.8125 3.7125
2.3125 0.8125 3.775
2.3125 0.875 3.7125
2.3125 0.8125 3.7125
2.5 0.8125 3.775
2.5 0.875 3.7125
2.4375 0.875 3.775
2.5 0.8125 3.7125
2.4375 0.8125 3.775
2.4375 0.875 3.7125
2.4375 0.8125 3.7125
2.625 0.8125 3.775
2.625 0.875 3.7125
2.5625 0.875 3.775
2.625 0.8125 3.7125
2.5625 0.8125 3.775
2.5625 0.875 3.7125
2.5625 0.8125 3.7125
2.75 0.8125 3.775
2.75 0.875 3.7125
2.6875 0.875 3.775
2.75 0.8125 3.7125
2.6875 0.8125 3.775
2.6875 0.875 3.7125
2.6875 0.8125 3.7125
2.875 0.8125 3.775
2.875 0.875 3.7125
2.8125 0.875 3.775
2.875 0.8125 3.7125
2.8125 0.8125 3.775
2.8125 0.875 3.7125
2.8125 0.8125 3.7125
3 0.8125 3.775
3 0.875 3.7125
2.9375 0.875 3.775
3 0.8125 3.7125
2.9375 0.8125 3.775
2.9375 0.875 3.7125
2.9375 0.8125 3.7125
3.125 0.8125 3.775
3.125 0.875 3.7125
3.0625 0.875 3.775
3.125 0.8125 3.7125
3.0625 0.8125 3.775
3.0625 0.875 3.7125
3.0625 0.8125 3.7125
3.25 0.8125 3.775
3.25 0.875 3.7125
3.1875 0.875 3.775
3.25 0.8125 3.7125
3.1875 0.8125 3.775
3.1875 0.875 3.7125
3.1875 0.8125 3.7125
3.375 0.8125 3.775
3.375 0.875 3.7125
3.3125 0.875 3.775
3.375 0.8125 3.7125
3.3125 0.8125 3.775
3.3125 0.875 3.7125
3.3125 0.8125 3.7125
3.5 0.8125 3.775
3.5 0.875 3.7125
3.4375 0.875 3.775
3.5 0.8125 3.7125
3.4375 0.8125 3.775
3.4375 0.875 3.7125
3.4375 0.8125 3.7125
3.625 0.8125 3.775
3.625 0.875 3.7125
3.5625 0.875 3.775
3.625 0.8125 3.7125
3.5625 0.8125 3.775
3.5625 0.875 3.7125
3.5625 0.8125 3.7125
3.75 0.8125 3.775
3.75 0.875 3.7125
3.6875 0.875 3.775
3.75 0.8125 3.7125
3.6875 0.8125 3.775
3.6875 0.875 3.7125
3.6875 0.8125 3.7125
3.875 0.8125 3.775
3.875 0.875 3.7125
3.8125 0.875 3.775
3.875 0.8125 3.7125
3.8125 0.8125 3.775
3.8125 0.875 3.7125
3.8125 0.8125 3.7125
4 0.8125 3.775
4 0.875 3.7125
3.9375 0.875 3.775
4 0.8125 3.7125
3.9375 0.8125 3.775
3.9375 0.875 3.7125
3.9375 0.8125 3.7125
0.125 0.9375 3.775
0 0.9375 3.775
0.125 1 3.7125
0.0625 1 3.775
0 1 3.7125
0.125 0.9375 3.7125
0.0625 0.9375 3.775
0 0.9375 3.7125
0.0625 1 3.7125
0.0625 0.9375 3.7125
0.25 0.9375 3.775
0.25 1 3.7125
0.1875 1 3.775
0.25 0.9375 3.7125
0.1875 0.9375 3.775
0.1875 1 3.7125
0.1875 0.9375 3.7125
0.375 0.9375 3.775
0.375 1 3.7125
0.3125 1 3.775
0.375 0.9375 3.7125
0.3125 0.9375 3.775
0.3125 1 3.7125
0.3125 0.9375 3.7125
0.5 0.9375 3.775
0.5 1 3.7125
0.4375 1 3.775
0.5 0.9375 3.7125
0.4375 0.9375 3.775
0.4375 1 3.7125
0.4375 0.9375 3.7125
0.625 0.9375 3.775
0.625 1 3.7125
0.5625 1 3.775
0.625 0.9375 3.7125
0.5625 0.9375 3.775
0.5625 1 3.7125
0.5625 0.9375 3.7125
0.75 0.9375 3.775
0.75 1 3.7125
0.6875 1 3.775
0.75 0.9375 3.7125
0.6875 0.9375 3.775
0.6875 1 3.7125
0.6875 0.9375 3.7125
0.875 0.9375 3.775
0.875 1 3.7125
0.8125 1 3.775
0.875 0.9375 3.7125
0.8125 0.9375 3.775
0.8125 1 3.7125
0.8125 0.9375 3.7125
1 0.9375 3.775
1 1 3.7125
0.9375 1 3.775
1 0.9375 3.7125
0.9375 0.9375 3.775
0.9375 1 3.7125
0.9375 0.9375 3.7125
1.125 0.9375 3.775
1.125 1 3.7125
1.0625 1 3.775
1.125 0.9375 3.7125
1.0625 0.9375 3.775
1.0625 1 3.7125
1.0625 0.9375 3.7125
1.25 0.9375 3.775
1.25 1 3.7125
1.1875 1 3.775
1.25 0.9375 3.7125
1.1875 0.9375 3.775
1.1875 1 3.7125
1.1875 0.9375 3.7125
1.375 0.9375 3.775
1.375 1 3.7125
1.3125 1 3.775
1.375 0.9375 3.7125
1.3125 0.9375 3.775
1.3125 1 3.7125
1.3125 0.9375 3.7125
1.5 0.9375 3.775
1.5 1 3.7125
1.4375 1 3.775
1.5 0.9375 3.7125
1.4375 0.9375 3.775
1.4375 1 3.7125
1.4375 0.9375 3.7125
1.625 0.9375 3.775
1.625 1 3.7125
1.5625 1 3.775
1.625 0.9375 3.7125
1.5625 0.9375 3.775
1.5625 1 3.7125
1.5625 0.9375 3.7125
1.75 0.9375 3.775
1.75 1 3.7125
1.6875 1 3.775
1.75 0.9375 3.7125
1.6875 0.9375 3.775
1.6875 1 3.7125
1.6875 0.9375 3.7125
1.875 0.9375 3.775
1.875 1 3.7125
1.8125 1 3.775
1.875 0.9375 3.7125
1.8125 0.9375 3.775
1.8125 1 3.7125
1.8125 0.9375 3.7125
2 0.9375 3.775
2 1 3.7125
1.9375 1 3.775
2 0.9375 3.7125
1.9375 0.9375 3.775
1.9375 1 3.7125
1.9375 0.9375 3.7125
2.125 0.9375 3.775
2.125 1 3.7125
2.0625 1 3.775
2.125 0.9375 3.7125
2.0625 0.9375 3.775
2.0625 1 3.7125
2.0625 0.9375 3.7125
2.25 0.9375 3.775
2.25 1 3.7125
2.1875 1 3.775
2.25 0.9375 3.7125
2.1875 0.9375 3.775
2.1875 1 3.7125
2.1875 0.9375 3.7125
2.375 0.9375 3.775
2.375 1 3.7125
2.3125 1 3.775
2.375 0.9375 3.7125
2.3125 0.9375 3.775
2.3125 1 3.7125
2.3125 0.9375 3.7125
2.5 0.9375 3.775
2.5 1 3.7125
2.4375 1 3.775
2.5 0.9375 3.7125
2.4375 0.9375 3.775
2.4375 1 3.7125
2.4375 0.9375 3.7125
2.625 0.9375 3.775
2.625 1 3.7125
2.5625 1 3.775
2.625 0.9375 3.7125
2.5625 0.9375 3.775
2.5625 1 3.7125
2.5625 0.9375 3.7125
2.75 0.9375 3.775
2.75 1 3.7125
2.6875 1 3.775
2.75 0.9375 3.7125
2.6875 0.9375 3.775
2.6875 1 3.7125
2.6875 0.9375 3.7125
2.875 0.9375 3.775
2.875 1 3.7125
2.8125 1 3.775
2.875 0.9375 3.7125
2.8125 0.9375 3.775
2.8125 1 3.7125
2.8125 0.9375 3.7125
3 0.9375 3.775
3 1 3.7125
2.9375 1 3.775
3 0.9375 3.7125
2.9375 0.9375 3.775
2.9375 1 3.7125
2.9375 0.9375 3.7125
3.125 0.9375 3.775
3.125 1 3.7125
3.0625 1 3.775
3.125 0.9375 3.7125
3.0625 0.9375 3.775
3.0625 1 3.7125
3.0625 0.9375 3.7125
3.25 0.9375 3.775
3.25 1 3.7125
3.1875 1 3.775
3.25 0.9375 3.7125
3.1875 0.9375 3.775
3.1875 1 3.7125
3.1875 0.9375 3.7125
3.375 0.9375 3.775
3.375 1 3.7125
3.3125 1 3.775
3.375 0.9375 3.7125
3.3125 0.9375 3.775
3.3125 1 3.7125
3.3125 0.9375 3.7125
3.5 0.9375 3.775
3.5 1 3.7125
3.4375 1 3.775
3.5 0.9375 3.7125
3.4375 0.9375 3.775
3.4375 1 3.7125
3.4375 0.9375 3.7125
3.625 0.9375 3.775
3.625 1 3.7125
3.5625 1 3.775
3.625 0.9375 3.7125
3.5625 0.9375 3.775
3.5625 1 3.7125
3.5625 0.9375 3.7125
3.75 0.9375 3.775
3.75 1 3.7125
3.6875 1 3.775
3.75 0.9375 3.7125
3.6875 0.9375 3.775
3.6875 1 3.7125
3.6875 0.9375 3.7125
3.875 0.9375 3.775
3.875 1 3.7125
3.8125 1 3.775
3.875 0.9375 3.7125
3.8125 0.9375 3.775
3.8125 1 3.7125
3.8125 0.9375 3.7125
4 0.9375 3.775
4 1 3.7125
3.9375 1 3.775
4 0.9375 3.7125
3.9375 0.9375 3.775
3.9375 1 3.7125
3.9375 0.9375 3.7125
0.125 0 3.8375
0.0625 0 3.9
0 0 3.8375
0.125 0.0625 3.9
0 0.0625 3.9
0.125 0.125 3.8375
0.0625 0.125 3.9
0 0.125 3.8375
0.0625 0 3.8375
0.125 0.0625 3.8375
0.0625 0.0625 3.9
0 0.0625 3.8375
0.0625 0.125 3.8375
0.0625 0.0625 3.8375
0.25 0 3.8375
0.1875 0 3.9
0.25 0.0625 3.9
0.25 0.125 3.8375
0.1875 0.125 3.9
0.1875 0 3.8375
0.25 0.0625 3.8375
0.1875 0.0625 3.9
0.1875 0.125 3.8375
0.1875 0.0625 3.8375
0.375 0 3.8375
0.3125 0 3.9
0.375 0.0625 3.9
0.375 0.125 3.8375
0.3125 0.125 3.9
0.3125 0 3.8375
0.375 0.0625 3.8375
0.3125 0.0625 3.9
0.3125 0.125 3.8375
0.3125 0.0625 3.8375
0.5 0 3.8375
0.4375 0 3.9
0.5 0.0625 3.9
0.5 0.125 3.8375
0.4375 0.125 3.9
0.4375 0 3.8375
0.5 0.0625 3.8375
0.4375 0.0625 3.9
0.4375 0.125 3.8375
0.4375 0.0625 3.8375
0.625 0 3.8375
0.5625 0 3.9
0.625 0.0625 3.9
0.625 0.125 3.8375
0.5625 0.125 3.9
0.5625 0 3.8375
0.625 0.0625 3.8375
0.5625 0.0625 3.9
0.5625 0.125 3.8375
0.5625 0.0625 3.8375
0.75 0 3.8375
0.6875 0 3.9
0.75 0.0625 3.9
0.75 0.125 3.8375
0.6875 0.125 3.9
0.6875 0 3.8375
0.75 0.0625 3.8375
0.6875 0.0625 3.9
0.6875 0.125 3.8375
0.6875 0.0625 3.8375
0.875 0 3.8375
0.8125 0 3.9
0.875 0.0625 3.9
0.875 0.125 3.8375
0.8125 0.125 3.9
0.8125 0 3.8375
0.875 0.0625 3.8375
0.8125 0.0625 3.9
0.8125 0.125 3.8375
0.8125 0.0625 3.8375
1 0 3.8375
0.9375 0 3.9
1 0.0625 3.9
1 0.125 3.8375
0.9375 0.125 3.9
0.9375 0 3.8375
1 0.0625 3.8375
0.9375 0.0625 3.9
0.9375 0.125 3.8375
0.9375 0.0625 3.8375
1.125 0 3.8375
1.0625 0 3.9
1.125 0.0625 3.9
1.125 0.125 3.8375
1.0625 0.125 3.9
1.0625 0 3.8375
1.125 0.0625 3.8375
1.0625 0.0625 3.9
1.0625 0.125 3.8375
1.0625 0.0625 3.8375
1.25 0 3.8375
1.1875 0 3.9
1.25 0.0625 3.9
1.25 0.125 3.8375
1.1875 0.125 3.9
1.1875 0 3.8375
1.25 0.0625 3.8375
1.1875 0.0625 3.9
1.1875 0.125 3.8375
1.1875 0.0625 3.8375
1.375 0 3.8375
1.3125 0 3.9
1.375 0.0625 3.9
1.375 0.125 3.8375
1.3125 0.125 3.9
1.3125 0 3.8375
1.375 0.0625 3.8375
1.3125 0.0625 3.9
1.3125 0.125 3.8375
1.3125 0.0625 3.8375
1.5 0 3.8375
1.4375 0 3.9
1.5 0.0625 3.9
1.5 0.125 3.8375
1.4375 0.125 3.9
1.4375 0 3.8375
1.5 0.0625 3.8375
1.4375 0.0625 3.9
1.4375 0.125 3.8375
1.4375 0.0625 3.8375
1.625 0 3.8375
1.5625 0 3.9
1.625 0.0625 3.9
1.625 0.125 3.8375
1.5625 0.125 3.9
1.5625 0 3.8375
1.625 0.0625 3.8375
1.5625 0.0625 3.9
1.5625 0.125 3.8375
1.5625 0.0625 3.8375
1.75 0 3.8375
1.6875 0 3.9
1.75 0.0625 3.9
1.75 0.125 3.8375
1.6875 0.125 3.9
1.6875 0 3.8375
1.75 0.0625 3.8375
1.6875 0.0625 3.9
1.6875 0.125 3.8375
1.6875 0.0625 3.8375
1.875 0 3.8375
1.8125 0 3.9
1.875 0.0625 3.9
1.875 0.125 3.8375
1.8125 0.125 3.9
1.8125 0 3.8375
1.875 0.0625 3.8375
1.8125 0.0625 3.9
1.8125 0.125 3.8375
1.8125 0.0625 3.8375
2 0 3.8375
1.9375 0 3.9
2 0.0625 3.9
2 0.125 3.8375
1.9375 0.125 3.9
1.9375 0 3.8375
2 0.0625 3.8375
1.9375 0.0625 3.9
1.9375 0.125 3.8375
1.9375 0.0625 3.8375
2.125 0 3.8375
2.0625 0 3.9
2.125 0.0625 3.9
2.125 0.125 3.8375
2.0625 0.125 3.9
2.0625 0 3.8375
2.125 0.0625 3.8375
2.0625 0.0625 3.9
2.0625 0.125 3.8375
2.0625 0.0625 3.8375
2.25 0 3.8375
2.1875 0 3.9
2.25 0.0625 3.9
2.25 0.125 3.8375
2.1875 0.125 3.9
2.1875 0 3.8375
2.25 0.0625 3.8375
2.1875 0.0625 3.9
2.1875 0.125 3.8375
2.1875 0.0625 3.8375
2.375 0 3.8375
2.3125 0 3.9
2.375 0.0625 3.9
2.375 0.125 3.8375
2.3125 0.125 3.9
2.3125 0 3.8375
2.375 0.0625 3.8375
2.3125 0.0625 3.9
2.3125 0.125 3.8375
2.3125 0.0625 3.8375
2.5 0 3.8375
2.4375 0 3.9
2.5 0.0625 3.9
2.5 0.125 3.8375
2.4375 0.125 3.9
2.4375 0 3.8375
2.5 0.0625 3.8375
2.4375 0.0625 3.9
2.4375 0.125 3.8375
2.4375 0.0625 3.8375
2.625 0 3.8375
2.5625 0 3.9
2.625 0.0625 3.9
2.625 0.125 3.8375
2.5625 0.125 3.9
2.5625 0 3.8375
2.625 0.0625 3.8375
2.5625 0.0625 3.9
2.5625 0.125 3.8375
2.5625 0.0625 3.8375
2.75 0 3.8375
2.6875 0 3.9
2.75 0.0625 3.9
2.75 0.125 3.8375
2.6875 0.125 3.9
2.6875 0 3.8375
2.75 0.0625 3.8375
2.6875 0.0625 3.9
2.6875 0.125 3.8375
2.6875 0.0625 3.8375
2.875 0 3.8375
2.8125 0 3.9
2.875 0.0625 3.9
2.875 0.125 3.8375
2.8125 0.125 3.9
2.8125 0 3.8375
2.875 0.0625 3.8375
2.8125 0.0625 3.9
2.8125 0.125 3.8375
2.8125 0.0625 3.8375
3 0 3.8375
2.9375 0 3.9
3 0.0625 3.9
3 0.125 3.8375
2.9375 0.125 3.9
2.9375 0 3.8375
3 0.0625 3.8375
2.9375 0.0625 3.9
2.9375 0.125 3.8375
2.9375 0.0625 3.8375
3.125 0 3.8375
3.0625 0 3.9
3.125 0.0625 3.9
3.125 0.125 3.8375
3.0625 0.125 3.9
3.0625 0 3.8375
3.125 0.0625 3.8375
3.0625 0.0625 3.9
3.0625 0.125 3.8375
3.0625 0.0625 3.8375
3.25 0 3.8375
3.1875 0 3.9
3.25 0.0625 3.9
3.25 0.125 3.8375
3.1875 0.125 3.9
3.1875 0 3.8375
3.25 0.0625 3.8375
3.1875 0.0625 3.9
3.1875 0.125 3.8375
3.1875 0.0625 3.8375
3.375 0 3.8375
3.3125 0 3.9
3.375 0.0625 3.9
3.375 0.125 3.8375
3.3125 0.125 3.9
3.3125 0 3.8375
3.375 0.0625 3.8375
3.3125 0.0625 3.9
3.3125 0.125 3.8375
3.3125 0.0625 3.8375
3.5 0 3.8375
3.4375 0 3.9
3.5 0.0625 3.9
3.5 0.125 3.8375
3.4375 0.125 3.9
3.4375 0 3.8375
3.5 0.0625 3.8375
3.4375 0.0625 3.9
3.4375 0.125 3.8375
3.4375 0.0625 3.8375
3.625 0 3.8375
3.5625 0 3.9
3.625 0.0625 3.9
3.625 0.125 3.8375
3.5625 0.125 3.9
3.5625 0 3.8375
3.625 0.0625 3.8375
3.5625 0.0625 3.9
3.5625 0.125 3.8375
3.5625 0.0625 3.8375
3.75 0 3.8375
3.6875 0 3.9
3.75 0.0625 3.9
3.75 0.125 3.8375
3.6875 0.125 3.9
3.6875 0 3.8375
3.75 0.0625 3.8375
3.6875 0.0625 3.9
3.6875 0.125 3.8375
3.6875 0.0625 3.8375
3.875 0 3.8375
3.8125 0 3.9
3.875 0.0625 3.9
3.875 0.125 3.8375
3.8125 0.125 3.9
3.8125 0 3.8375
3.875 0.0625 3.8375
3.8125 0.0625 3.9
3.8125 0.125 3.8375
3.8125 0.0625 3.8375
4 0 3.8375
3.9375 0 3.9
4 0.0625 3.9
4 0.125 3.8375
3.9375 0.125 3.9
3.9375 0 3.8375
4 0.0625 3.8375
3.9375 0.0625 3.9
3.9375 0.125 3.8375
3.9375 0.0625 3.8375
0.125 0.1875 3.9
0 0.1875 3.9
0.125 0.25 3.8375
0.0625 0.25 3.9
0 0.25 3.8375
0.125 0.1875 3.8375
0.0625 0.1875 3.9
0 0.1875 3.8375
0.0625 0.25 3.8375
0.0625 0.1875 3.8375
0.25 0.1875 3.9
0.25 0.25 3.8375
0.1875 0.25 3.9
0.25 0.1875 3.8375
0.1875 0.1875 3.9
0.1875 0.25 3.8375
0.1875 0.1875 3.8375
0.375 0.1875 3.9
0.375 0.25 3.8375
0.3125 0.25 3.9
0.375 0.1875 3.8375
0.3125 0.1875 3.9
0.3125 0.25 3.8375
0.3125 0.1875 3.8375
0.5 0.1875 3.9
0.5 0.25 3.8375
0.4375 0.25 3.9
0.5 0.1875 3.8375
0.4375 0.1875 3.9
0.4375 0.25 3.8375
0.4375 0.1875 3.8375
0.625 0.1875 3.9
0.625 0.25 3.8375
0.5625 0.25 3.9
0.625 0.1875 3.8375
0.5625 0.1875 3.9
0.5625 0.25 3.8375
0.5625 0.1875 3.8375
0.75 0.1875 3.9
0.75 0.25 3.8375
0.6875 0.25 3.9
0.75 0.1875 3.8375
0.6875 0.1875 3.9
0.6875 0.25 3.8375
0.6875 0.1875 3.8375
0.875 0.1875 3.9
0.875 0.25 3.8375
0.8125 0.25 3.9
0.875 0.1875 3.8375
0.8125 0.1875 3.9
0.8125 0.25 3.8375
0.8125 0.1875 3.8375
1 0.1875 3.9
1 0.25 3.8375
0.9375 0.25 3.9
1 0.1875 3.8375
0.9375 0.1875 3.9
0.9375 0.25 3.8375
0.9375 0.1875 3.8375
1.125 0.1875 3.9
1.125 0.25 3.8375
1.0625 0.25 3.9
1.125 0.1875 3.8375
1.0625 0.1875 3.9
1.0625 0.25 3.8375
1.0625 0.1875 3.8375
1.25 0.1875 3.9
1.25 0.25 3.8375
1.1875 0.25 3.9
1.25 0.1875 3.8375
1.1875 0.1875 3.9
1.1875 0.25 3.8375
1.1875 0.1875 3.8375
1.375 0.1875 3.9
1.375 0.25 3.8375
1.3125 0.25 3.9
1.375 0.1875 3.8375
1.3125 0.1875 3.9
1.3125 0.25 3.8375
1.3125 0.1875 3.8375
1.5 0.1875 3.9
1.5 0.25 3.8375
1.4375 0.25 3.9
1.5 0.1875 3.8375
1.4375 0.1875 3.9
1.4375 0.25 3.8375
1.4375 0.1875 3.8375
1.625 0.1875 3.9
1.625 0.25 3.8375
1.5625 0.25 3.9
1.625 0.1875 3.8375
1.5625 0.1875 3.9
1.5625 0.25 3.8375
1.5625 0.1875 3.8375
1.75 0.1875 3.9
1.75 0.25 3.8375
1.6875 0.25 3.9
1.75 0.1875 3.8375
1.6875 0.1875 3.9
1.6875 0.25 3.8375
1.6875 0.1875 3.8375
1.875 0.1875 3.9
1.875 0.25 3.8375
1.8125 0.25 3.9
1.875 0.1875 3.8375
1.8125 0.1875 3.9
1.8125 0.25 3.8375
1.8125 0.1875 3.8375
2 0.1875 3.9
2 0.25 3.8375
1.9375 0.25 3.9
2 0.1875 3.8375
1.9375 0.1875 3.9
1.9375 0.25 3.8375
1.9375 0.1875 3.8375
2.125 0.1875 3.9
2.125 0.25 3.8375
2.0625 0.25 3.9
2.125 0.1875 3.8375
2.0625 0.1875 3.9
2.0625 0.25 3.8375
2.0625 0.1875 3.8375
2.25 0.1875 3.9
2.25 0.25 3.8375
2.1875 0.25 3.9
2.25 0.1875 3.8375
2.1875 0.1875 3.9
2.1875 0.25 3.8375
2.1875 0.1875 3.8375
2.375 0.1875 3.9
2.375 0.25 3.8375
2.3125 0.25 3.9
2.375 0.1875 3.8375
2.3125 0.1875 3.9
2.3125 0.25 3.8375
2.3125 0.1875 3.8375
2.5 0.1875 3.9
2.5 0.25 3.8375
2.4375 0.25 3.9
2.5 0.1875 3.8375
2.4375 0.1875 3.9
2.4375 0.25 3.8375
2.4375 0.1875 3.8375
2.625 0.1875 3.9
2.625 0.25 3.8375
2.5625 0.25 3.9
2.625 0.1875 3.8375
2.5625 0.1875 3.9
2.5625 0.25 3.8375
2.5625 0.1875 3.8375
2.75 0.1875 3.9
2.75 0.25 3.8375
2.6875 0.25 3.9
2.75 0.1875 3.8375
2.6875 0.1875 3.9
2.6875 0.25 3.8375
2.6875 0.1875 3.8375
2.875 0.1875 3.9
2.875 0.25 3.8375
2.8125 0.25 3.9
2.875 0.1875 3.8375
2.8125 0.1875 3.9
2.8125 0.25 3.8375
2.8125 0.1875 3.8375
3 0.1875 3.9
3 0.25 3.8375
2.9375 0.25 3.9
3 0.1875 3.8375
2.9375 0.1875 3.9
2.9375 0.25 3.8375
2.9375 0.1875 3.8375
3.125 0.1875 3.9
3.125 0.25 3.8375
3.0625 0.25 3.9
3.125 0.1875 3.8375
3.0625 0.1875 3.9
3.0625 0.25 3.8375
3.0625 0.1875 3.8375
3.25 0.1875 3.9
3.25 0.25 3.8375
3.1875 0.25 3.9
3.25 0.1875 3.8375
3.1875 0.1875 3.9
3.1875 0.25 3.8375
3.1875 0.1875 3.8375
3.375 0.1875 3.9
3.375 0.25 3.8375
3.3125 0.25 3.9
3.375 0.1875 3.8375
3.3125 0.1875 3.9
3.3125 0.25 3.8375
3.3125 0.1875 3.8375
3.5 0.1875 3.9
3.5 0.25 3.8375
3.4375 0.25 3.9
3.5 0.1875 3.8375
3.4375 0.1875 3.9
3.4375 0.25 3.8375
3.4375 0.1875 3.8375
3.625 0.1875 3.9
3.625 0.25 3.8375
3.5625 0.25 3.9
3.625 0.1875 3.8375
3.5625 0.1875 3.9
3.5625 0.25 3.8375
3.5625 0.1875 3.8375
3.75 0.1875 3.9
3.75 0.25 3.8375
3.6875 0.25 3.9
3.75 0.1875 3.8375
3.6875 0.1875 3.9
3.6875 0.25 3.8375
3.6875 0.1875 3.8375
3.875 0.1875 3.9
3.875 0.25 3.8375
3.8125 0.25 3.9
3.875 0.1875 3.8375
3.8125 0.1875 3.9
3.8125 0.25 3.8375
3.8125 0.1875 3.8375
4 0.1875 3.9
4 0.25 3.8375
3.9375 0.25 3.9
4 0.1875 3.8375
3.9375 0.1875 3.9
3.9375 0.25 3.8375
3.9375 0.1875 3.8375
0.125 0.3125 3.9
0 0.3125 3.9
0.125 0.375 3.8375
0.0625 0.375 3.9
0 0.375 3.8375
0.125 0.3125 3.8375
0.0625 0.3125 3.9
0 0.3125 3.8375
0.0625 0.375 3.8375
0.0625 0.3125 3.8375
0.25 0.3125 3.9
0.25 0.375 3.8375
0.1875 0.375 3.9
0.25 0.3125 3.8375
0.1875 0.3125 3.9
0.1875 0.375 3.8375
0.1875 0.3125 3.8375
0.375 0.3125 3.9
0.375 0.375 3.8375
0.3125 0.375 3.9
0.375 0.3125 3.8375
0.3125 0.3125 3.9
0.3125 0.375 3.8375
0.3125 0.3125 3.8375
0.5 0.3125 3.9
0.5 0.375 3.8375
0.4375 0.375 3.9
0.5 0.3125 3.8375
0.4375 0.3125 3.9
0.4375 0.375 3.8375
0.4375 0.3125 3.8375
0.625 0.3125 3.9
0.625 0.375 3.8375
0.5625 0.375 3.9
0.625 0.3125 3.8375
0.5625 0.3125 3.9
0.5625 0.375 3.8375
0.5625 0.3125 3.8375
0.75 0.3125 3.9
0.75 0.375 3.8375
0.6875 0.375 3.9
0.75 0.3125 3.8375
0.6875 0.3125 3.9
0.6875 0.375 3.8375
0.6875 0.3125 3.8375
0.875 0.3125 3.9
0.875 0.375 3.8375
0.8125 0.375 3.9
0.875 0.3125 3.8375
0.8125 0.3125 3.9
0.8125 0.375 3.8375
0.8125 0.3125 3.8375
1 0.3125 3.9
1 0.375 3.8375
0.9375 0.375 3.9
1 0.3125 3.8375
0.9375 0.3125 3.9
0.9375 0.375 3.8375
0.9375 0.3125 3.8375
1.125 0.3125 3.9
1.125 0.375 3.8375
1.0625 0.375 3.9
1.125 0.3125 3.8375
1.0625 0.3125 3.9
1.0625 0.375 3.8375
1.0625 0.3125 3.8375
1.25 0.3125 3.9
1.25 0.375 3.8375
1.1875 0.375 3.9
1.25 0.3125 3.8375
1.1875 0.3125 3.9
1.1875 0.375 3.8375
1.1875 0.3125 3.8375
1.375 0.3125 3.9
1.375 0.375 3.8375
1.3125 0.375 3.9
1.375 0.3125 3.8375
1.3125 0.3125 3.9
1.3125 0.375 3.8375
1.3125 0.3125 3.8375
1.5 0.3125 3.9
1.5 0.375 3.8375
1.4375 0.375 3.9
1.5 0.3125 3.8375
1.4375 0.3125 3.9
1.4375 0.375 3.8375
1.4375 0.3125 3.8375
1.625 0.3125 3.9
1.625 0.375 3.8375
1.5625 0.375 3.9
1.625 0.3125 3.8375
1.5625 0.3125 3.9
1.5625 0.375 3.8375
1.5625 0.3125 3.8375
1.75 0.3125 3.9
1.75 0.375 3.8375
1.6875 0.375 3.9
1.75 0.3125 3.8375
1.6875 0.3125 3.9
1.6875 0.375 3.8375
1.6875 0.3125 3.8375
1.875 0.3125 3.9
1.875 0.375 3.8375
1.8125 0.375 3.9
1.875 0.3125 3.8375
1.8125 0.3125 3.9
1.8125 0.375 3.8375
1.8125 0.3125 3.8375
2 0.3125 3.9
2 0.375 3.8375
1.9375 0.375 3.9
2 0.3125 3.8375
1.9375 0.3125 3.9
1.9375 0.375 3.8375
1.9375 0.3125 3.8375
2.125 0.3125 3.9
2.125 0.375 3.8375
2.0625 0.375 3.9
2.125 0.3125 3.8375
2.0625 0.3125 3.9
2.0625 0.375 3.8375
2.0625 0.3125 3.8375
2.25 0.3125 3.9
2.25 0.375 3.8375
2.1875 0.375 3.9
2.25 0.3125 3.8375
2.1875 0.3125 3.9
2.1875 0.375 3.8375
2.1875 0.3125 3.8375
2.375 0.3125 3.9
2.375 0.375 3.8375
2.3125 0.375 3.9
2.375 0.3125 3.8375
2.3125 0.3125 3.9
2.3125 0.375 3.8375
2.3125 0.3125 3.8375
2.5 0.3125 3.9
2.5 0.375 3.8375
2.4375 0.375 3.9
2.5 0.3125 3.8375
2.4375 0.3125 3.9
2.4375 0.375 3.8375
2.4375 0.3125 3.8375
2.625 0.3125 3.9
2.625 0.375 3.8375
2.5625 0.375 3.9
2.625 0.3125 3.8375
2.5625 0.3125 3.9
2.5625 0.375 3.8375
2.5625 0.3125 3.8375
2.75 0.3125 3.9
2.75 0.375 3.8375
2.6875 0.375 3.9
2.75 0.3125 3.8375
2.6875 0.3125 3.9
2.6875 0.375 3.8375
2.6875 0.3125 3.8375
2.875 0.3125 3.9
2.875 0.375 3.8375
2.8125 0.375 3.9
2.875 0.3125 3.8375
2.8125 0.3125 3.9
2.8125 0.375 3.8375
2.8125 0.3125 3.8375
3 0.3125 3.9
3 0.375 3.8375
2.9375 0.375 3.9
3 0.3125 3.8375
2.9375 0.3125 3.9
2.9375 0.375 3.8375
2.9375 0.3125 3.8375
3.125 0.3125 3.9
3.125 0.375 3.8375
3.0625 0.375 3.9
3.125 0.3125 3.8375
3.0625 0.3125 3.9
3.0625 0.375 3.8375
3.0625 0.3125 3.8375
3.25 0.3125 3.9
3.25 0.375 3.8375
3.1875 0.375 3.9
3.25 0.3125 3.8375
3.1875 0.3125 3.9
3.1875 0.375 3.8375
3.1875 0.3125 3.8375
3.375 0.3125 3.9
3.375 0.375 3.8375
3.3125 0.375 3.9
3.375 0.3125 3.8375
3.3125 0.3125 3.9
3.3125 0.375 3.8375
3.3125 0.3125 3.8375
3.5 0.3125 3.9
3.5 0.375 3.8375
3.4375 0.375 3.9
3.5 0.3125 3.8375
3.4375 0.3125 3.9
3.4375 0.375 3.8375
3.4375 0.3125 3.8375
3.625 0.3125 3.9
3.625 0.375 3.8375
3.5625 0.375 3.9
3.625 0.3125 3.8375
3.5625 0.3125 3.9
3.5625 0.375 3.8375
3.5625 0.3125 3.8375
3.75 0.3125 3.9
3.75 0.375 3.8375
3.6875 0.375 3.9
3.75 0.3125 3.8375
3.6875 0.3125 3.9
3.6875 0.375 3.8375
3.6875 0.3125 3.8375
3.875 0.3125 3.9
3.875 0.375 3.8375
3.8125 0.375 3.9
3.875 0.3125 3.8375
3.8125 0.3125 3.9
3.8125 0.375 3.8375
3.8125 0.3125 3.8375
4 0.3125 3.9
4 0.375 3.8375
3.9375 0.375 3.9
4 0.3125 3.8375
3.9375 0.3125 3.9
3.9375 0.375 3.8375
3.9375 0.3125 3.8375
0.125 0.4375 3.9
0 0.4375 3.9
0.125 0.5 3.8375
0.0625 0.5 3.9
0 0.5 3.8375
0.125 0.4375 3.8375
0.0625 0.4375 3.9
0 0.4375 3.8375
0.0625 0.5 3.8375
0.0625 0.4375 3.8375
0.25 0.4375 3.9
0.25 0.5 3.8375
0.1875 0.5 3.9
0.25 0.4375 3.8375
0.1875 0.4375 3.9
0.1875 0.5 3.8375
0.1875 0.4375 3.8375
0.375 0.4375 3.9
0.375 0.5 3.8375
0.3125 0.5 3.9
0.375 0.4375 3.8375
0.3125 0.4375 3.9
0.3125 0.5 3.8375
0.3125 0.4375 3.8375
0.5 0.4375 3.9
0.5 0.5 3.8375
0.4375 0.5 3.9
0.5 0.4375 3.8375
0.4375 0.4375 3.9
0.4375 0.5 3.8375
0.4375 0.4375 3.8375
0.625 0.4375 3.9
0.625 0.5 3.8375
0.5625 0.5 3.9
0.625 0.4375 3.8375
0.5625 0.4375 3.9
0.5625 0.5 3.8375
0.5625 0.4375 3.8375
0.75 0.4375 3.9
0.75 0.5 3.8375
0.6875 0.5 3.9
0.75 0.4375 3.8375
0.6875 0.4375 3.9
0.6875 0.5 3.8375
0.6875 0.4375 3.8375
0.875 0.4375 3.9
0.875 0.5 3.8375
0.8125 0.5 3.9
0.875 0.4375 3.8375
0.8125 0.4375 3.9
0.8125 0.5 3.8375
0.8125 0.4375 3.8375
1 0.4375 3.9
1 0.5 3.8375
0.9375 0.5 3.9
1 0.4375 3.8375
0.9375 0.4375 3.9
0.9375 0.5 3.8375
0.9375 0.4375 3.8375
1.125 0.4375 3.9
1.125 0.5 3.8375
1.0625 0.5 3.9
1.125 0.4375 3.8375
1.0625 0.4375 3.9
1.0625 0.5 3.8375
1.0625 0.4375 3.8375
1.25 0.4375 3.9
1.25 0.5 3.8375
1.1875 0.5 3.9
1.25 0.4375 3.8375
1.1875 0.4375 3.9
1.1875 0.5 3.8375
1.1875 0.4375 3.8375
1.375 0.4375 3.9
1.375 0.5 3.8375
1.3125 0.5 3.9
1.375 0.4375 3.8375
1.3125 0.4375 3.9
1.3125 0.5 3.8375
1.3125 0.4375 3.8375
1.5 0.4375 3.9
1.5 0.5 3.8375
1.4375 0.5 3.9
1.5 0.4375 3.8375
1.4375 0.4375 3.9
1.4375 0.5 3.8375
1.4375 0.4375 3.8375
1.625 0.4375 3.9
1.625 0.5 3.8375
1.5625 0.5 3.9
1.625 0.4375 3.8375
1.5625 0.4375 3.9
1.5625 0.5 3.8375
1.5625 0.4375 3.8375
1.75 0.4375 3.9
1.75 0.5 3.8375
1.6875 0.5 3.9
1.75 0.4375 3.8375
1.6875 0.4375 3.9
1.6875 0.5 3.8375
1.6875 0.4375 3.8375
1.875 0.4375 3.9
1.875 0.5 3.8375
1.8125 0.5 3.9
1.875 0.4375 3.8375
1.8125 0.4375 3.9
1.8125 0.5 3.8375
1.8125 0.4375 3.8375
2 0.4375 3.9
2 0.5 3.8375
1.9375 0.5 3.9
2 0.4375 3.8375
1.9375 0.4375 3.9
1.9375 0.5 3.8375
1.9375 0.4375 3.8375
2.125 0.4375 3.9
2.125 0.5 3.8375
2.0625 0.5 3.9
2.125 0.4375 3.8375
2.0625 0.4375 3.9
2.0625 0.5 3.8375
2.0625 0.4375 3.8375
2.25 0.4375 3.9
2.25 0.5 3.8375
2.1875 0.5 3.9
2.25 0.4375 3.8375
2.1875 0.4375 3.9
2.1875 0.5 3.8375
2.1875 0.4375 3.8375
2.375 0.4375 3.9
2.375 0.5 3.8375
2.3125 0.5 3.9
2.375 0.4375 3.8375
2.3125 0.4375 3.9
2.3125 0.5 3.8375
2.3125 0.4375 3.8375
2.5 0.4375 3.9
2.5 0.5 3.8375
2.4375 0.5 3.9
2.5 0.4375 3.8375
2.4375 0.4375 3.9
2.4375 0.5 3.8375
2.4375 0.4375 3.8375
2.625 0.4375 3.9
2.625 0.5 3.8375
2.5625 0.5 3.9
2.625 0.4375 3.8375
2.5625 0.4375 3.9
2.5625 0.5 3.8375
2.5625 0.4375 3.8375
2.75 0.4375 3.9
2.75 0.5 3.8375
2.6875 0.5 3.9
2.75 0.4375 3.8375
2.6875 0.4375 3.9
2.6875 0.5 3.8375
2.6875 0.4375 3.8375
2.875 0.4375 3.9
2.875 0.5 3.8375
2.8125 0.5 3.9
2.875 0.4375 3.8375
2.8125 0.4375 3.9
2.8125 0.5 3.8375
2.8125 0.4375 3.8375
3 0.4375 3.9
3 0.5 3.8375
2.9375 0.5 3.9
3 0.4375 3.8375
2.9375 0.4375 3.9
2.9375 0.5 3.8375
2.9375 0.4375 3.8375
3.125 0.4375 3.9
3.125 0.5 3.8375
3.0625 0.5 3.9
3.125 0.4375 3.8375
3.0625 0.4375 3.9
3.0625 0.5 3.8375
3.0625 0.4375 3.8375
3.25 0.4375 3.9
3.25 0.5 3.8375
3.1875 0.5 3.9
3.25 0.4375 3.8375
3.1875 0.4375 3.9
3.1875 0.5 3.8375
3.1875 0.4375 3.8375
3.375 0.4375 3.9
3.375 0.5 3.8375
3.3125 0.5 3.9
3.375 0.4375 3.8375
3.3125 0.4375 3.9
3.3125 0.5 3.8375
3.3125 0.4375 3.8375
3.5 0.4375 3.9
3.5 0.5 3.8375
3.4375 0.5 3.9
3.5 0.4375 3.8375
3.4375 0.4375 3.9
3.4375 0.5 3.8375
3.4375 0.4375 3.8375
3.625 0.4375 3.9
3.625 0.5 3.8375
3.5625 0.5 3.9
3.625 0.4375 3.8375
3.5625 0.4375 3.9
3.5625 0.5 3.8375
3.5625 0.4375 3.8375
3.75 0.4375 3.9
3.75 0.5 3.8375
3.6875 0.5 3.9
3.75 0.4375 3.8375
3.6875 0.4375 3.9
3.6875 0.5 3.8375
3.6875 0.4375 3.8375
3.875 0.4375 3.9
3.875 0.5 3.8375
3.8125 0.5 3.9
3.875 0.4375 3.8375
3.8125 0.4375 3.9
3.8125 0.5 3.8375
3.8125 0.4375 3.8375
4 0.4375 3.9
4 0.5 3.8375
3.9375 0.5 3.9
4 0.4375 3.8375
3.9375 0.4375 3.9
3.9375 0.5 3.8375
3.9375 0.4375 3.8375
0.125 0.5625 3.9
0 0.5625 3.9
0.125 0.625 3.8375
0.0625 0.625 3.9
0 0.625 3.8375
0.125 0.5625 3.8375
0.0625 0.5625 3.9
0 0.5625 3.8375
0.0625 0.625 3.8375
0.0625 0.5625 3.8375
0.25 0.5625 3.9
0.25 0.625 3.8375
0.1875 0.625 3.9
0.25 0.5625 3.8375
0.1875 0.5625 3.9
0.1875 0.625 3.8375
0.1875 0.5625 3.8375
0.375 0.5625 3.9
0.375 0.625 3.8375
0.3125 0.625 3.9
0.375 0.5625 3.8375
0.3125 0.5625 3.9
0.3125 0.625 3.8375
0.3125 0.5625 3.8375
0.5 0.5625 3.9
0.5 0.625 3.8375
0.4375 0.625 3.9
0.5 0.5625 3.8375
0.4375 0.5625 3.9
0.4375 0.625 3.8375
0.4375 0.5625 3.8375
0.625 0.5625 3.9
0.625 0.625 3.8375
0.5625 0.625 3.9
0.625 0.5625 3.8375
0.5625 0.5625 3.9
0.5625 0.625 3.8375
0.5625 0.5625 3.8375
0.75 0.5625 3.9
0.75 0.625 3.8375
0.6875 0.625 3.9
0.75 0.5625 3.8375
0.6875 0.5625 3.9
0.6875 0.625 3.8375
0.6875 0.5625 3.8375
0.875 0.5625 3.9
0.875 0.625 3.8375
0.8125 0.625 3.9
0.875 0.5625 3.8375
0.8125 0.5625 3.9
0.8125 0.625 3.8375
0.8125 0.5625 3.8375
1 0.5625 3.9
1 0.625 3.8375
0.9375 0.625 3.9
1 0.5625 3.8375
0.9375 0.5625 3.9
0.9375 0.625 3.8375
0.9375 0.5625 3.8375
1.125 0.5625 3.9
1.125 0.625 3.8375
1.0625 0.625 3.9
1.125 0.5625 3.8375
1.0625 0.5625 3.9
1.0625 0.625 3.8375
1.0625 0.5625 3.8375
1.25 0.5625 3.9
1.25 0.625 3.8375
1.1875 0.625 3.9
1.25 0.5625 3.8375
1.1875 0.5625 3.9
1.1875 0.625 3.8375
1.1875 0.5625 3.8375
1.375 0.5625 3.9
1.375 0.625 3.8375
1.3125 0.625 3.9
1.375 0.5625 3.8375
1.3125 0.5625 3.9
1.3125 0.625 3.8375
1.3125 0.5625 3.8375
1.5 0.5625 3.9
1.5 0.625 3.8375
1.4375 0.625 3.9
1.5 0.5625 3.8375
1.4375 0.5625 3.9
1.4375 0.625 3.8375
1.4375 0.5625 3.8375
1.625 0.5625 3.9
1.625 0.625 3.8375
1.5625 0.625 3.9
1.625 0.5625 3.8375
1.5625 0.5625 3.9
1.5625 0.625 3.8375
1.5625 0.5625 3.8375
1.75 0.5625 3.9
1.75 0.625 3.8375
1.6875 0.625 3.9
1.75 0.5625 3.8375
1.6875 0.5625 3.9
1.6875 0.625 3.8375
1.6875 0.5625 3.8375
1.875 0.5625 3.9
1.875 0.625 3.8375
1.8125 0.625 3.9
1.875 0.5625 3.8375
1.8125 0.5625 3.9
1.8125 0.625 3.8375
1.8125 0.5625 3.8375
2 0.5625 3.9
2 0.625 3.8375
1.9375 0.625 3.9
2 0.5625 3.8375
1.9375 0.5625 3.9
1.9375 0.625 3.8375
1.9375 0.5625 3.8375
2.125 0.5625 3.9
2.125 0.625 3.8375
2.0625 0.625 3.9
2.125 0.5625 3.8375
2.0625 0.5625 3.9
2.0625 0.625 3.8375
2.0625 0.5625 3.8375
2.25 0.5625 3.9
2.25 0.625 3.8375
2.1875 0.625 3.9
2.25 0.5625 3.8375
2.1875 0.5625 3.9
2.1875 0.625 3.8375
2.1875 0.5625 3.8375
2.375 0.5625 3.9
2.375 0.625 3.8375
2.3125 0.625 3.9
2.375 0.5625 3.8375
2.3125 0.5625 3.9
2.3125 0.625 3.8375
2.3125 0.5625 3.8375
2.5 0.5625 3.9
2.5 0.625 3.8375
2.4375 0.625 3.9
2.5 0.5625 3.8375
2.4375 0.5625 3.9
2.4375 0.625 3.8375
2.4375 0.5625 3.8375
2.625 0.5625 3.9
2.625 0.625 3.8375
2.5625 0.625 3.9
2.625 0.5625 3.8375
2.5625 0.5625 3.9
2.5625 0.625 3.8375
2.5625 0.5625 3.8375
2.75 0.5625 3.9
2.75 0.625 3.8375
2.6875 0.625 3.9
2.75 0.5625 3.8375
2.6875 0.5625 3.9
2.6875 0.625 3.8375
2.6875 0.5625 3.8375
2.875 0.5625 3.9
2.875 0.625 3.8375
2.8125 0.625 3.9
2.875 0.5625 3.8375
2.8125 0.5625 3.9
2.8125 0.625 3.8375
2.8125 0.5625 3.8375
3 0.5625 3.9
3 0.625 3.8375
2.9375 0.625 3.9
3 0.5625 3.8375
2.9375 0.5625 3.9
2.9375 0.625 3.8375
2.9375 0.5625 3.8375
3.125 0.5625 3.9
3.125 0.625 3.8375
3.0625 0.625 3.9
3.125 0.5625 3.8375
3.0625 0.5625 3.9
3.0625 0.625 3.8375
3.0625 0.5625 3.8375
3.25 0.5625 3.9
3.25 0.625 3.8375
3.1875 0.625 3.9
3.25 0.5625 3.8375
3.1875 0.5625 3.9
3.1875 0.625 3.8375
3.1875 0.5625 3.8375
3.375 0.5625 3.9
3.375 0.625 3.8375
3.3125 0.625 3.9
3.375 0.5625 3.8375
3.3125 0.5625 3.9
3.3125 0.625 3.8375
3.3125 0.5625 3.8375
3.5 0.5625 3.9
3.5 0.625 3.8375
3.4375 0.625 3.9
3.5 0.5625 3.8375
3.4375 0.5625 3.9
3.4375 0.625 3.8375
3.4375 0.5625 3.8375
3.625 0.5625 3.9
3.625 0.625 3.8375
3.5625 0.625 3.9
3.625 0.5625 3.8375
3.5625 0.5625 3.9
3.5625 0.625 3.8375
3.5625 0.5625 3.8375
3.75 0.5625 3.9
3.75 0.625 3.8375
3.6875 0.625 3.9
3.75 0.5625 3.8375
3.6875 0.5625 3.9
3.6875 0.625 3.8375
3.6875 0.5625 3.8375
3.875 0.5625 3.9
3.875 0.625 3.8375
3.8125 0.625 3.9
3.875 0.5625 3.8375
3.8125 0.5625 3.9
3.8125 0.625 3.8375
3.8125 0.5625 3.8375
4 0.5625 3.9
4 0.625 3.8375
3.9375 0.625 3.9
4 0.5625 3.8375
3.9375 0.5625 3.9
3.9375 0.625 3.8375
3.9375 0.5625 3.8375
0.125 0.6875 3.9
0 0.6875 3.9
0.125 0.75 3.8375
0.0625 0.75 3.9
0 0.75 3.8375
0.125 0.6875 3.8375
0.0625 0.6875 3.9
0 0.6875 3.8375
0.0625 0.75 3.8375
0.0625 0.6875 3.8375
0.25 0.6875 3.9
0.25 0.75 3.8375
0.1875 0.75 3.9
0.25 0.6875 3.8375
0.1875 0.6875 3.9
0.1875 0.75 3.8375
0.1875 0.6875 3.8375
0.375 0.6875 3.9
0.375 0.75 3.8375
0.3125 0.75 3.9
0.375 0.6875 3.8375
0.3125 0.6875 3.9
0.3125 0.75 3.8375
0.3125 0.6875 3.8375
0.5 0.6875 3.9
0.5 0.75 3.8375
0.4375 0.75 3.9
0.5 0.6875 3.8375
0.4375 0.6875 3.9
0.4375 0.75 3.8375
0.4375 0.6875 3.8375
0.625 0.6875 3.9
0.625 0.75 3.8375
0.5625 0.75 3.9
0.625 0.6875 3.8375
0.5625 0.6875 3.9
0.5625 0.75 3.8375
0.5625 0.6875 3.8375
0.75 0.6875 3.9
0.75 0.75 3.8375
0.6875 0.75 3.9
0.75 0.6875 3.8375
0.6875 0.6875 3.9
0.6875 0.75 3.8375
0.6875 0.6875 3.8375
0.875 0.6875 3.9
0.875 0.75 3.8375
0.8125 0.75 3.9
0.875 0.6875 3.8375
0.8125 0.6875 3.9
0.8125 0.75 3.8375
0.8125 0.6875 3.8375
1 0.6875 3.9
1 0.75 3.8375
0.9375 0.75 3.9
1 0.6875 3.8375
0.9375 0.6875 3.9
0.9375 0.75 3.8375
0.9375 0.6875 3.8375
1.125 0.6875 3.9
1.125 0.75 3.8375
1.0625 0.75 3.9
1.125 0.6875 3.8375
1.0625 0.6875 3.9
1.0625 0.75 3.8375
1.0625 0.6875 3.8375
1.25 0.6875 3.9
1.25 0.75 3.8375
1.1875 0.75 3.9
1.25 0.6875 3.8375
1.1875 0.6875 3.9
1.1875 0.75 3.8375
1.1875 0.6875 3.8375
1.375 0.6875 3.9
1.375 0.75 3.8375
1.3125 0.75 3.9
1.375 0.6875 3.8375
1.3125 0.6875 3.9
1.3125 0.75 3.8375
1.3125 0.6875 3.8375
1.5 0.6875 3.9
1.5 0.75 3.8375
1.4375 0.75 3.9
1.5 0.6875 3.8375
1.4375 0.6875 3.9
1.4375 0.75 3.8375
1.4375 0.6875 3.8375
1.625 0.6875 3.9
1.625 0.75 3.8375
1.5625 0.75 3.9
1.625 0.6875 3.8375
1.5625 0.6875 3.9
1.5625 0.75 3.8375
1.5625 0.6875 3.8375
1.75 0.6875 3.9
1.75 0.75 3.8375
1.6875 0.75 3.9
1.75 0.6875 3.8375
1.6875 0.6875 3.9
1.6875 0.75 3.8375
1.6875 0.6875 3.8375
1.875 0.6875 3.9
1.875 0.75 3.8375
1.8125 0.75 3.9
1.875 0.6875 3.8375
1.8125 0.6875 3.9
1.8125 0.75 3.8375
1.8125 0.6875 3.8375
2 0.6875 3.9
2 0.75 3.8375
1.9375 0.75 3.9
2 0.6875 3.8375
1.9375 0.6875 3.9
1.9375 0.75 3.8375
1.9375 0.6875 3.8375
2.125 0.6875 3.9
2.125 0.75 3.8375
2.0625 0.75 3.9
2.125 0.6875 3.8375
2.0625 0.6875 3.9
2.0625 0.75 3.8375
2.0625 0.6875 3.8375
2.25 0.6875 3.9
2.25 0.75 3.8375
2.1875 0.75 3.9
2.25 0.6875 3.8375
2.1875 0.6875 3.9
2.1875 0.75 3.8375
2.1875 0.6875 3.8375
2.375 0.6875 3.9
2.375 0.75 3.8375
2.3125 0.75 3.9
2.375 0.6875 3.8375
2.3125 0.6875 3.9
2.3125 0.75 3.8375
2.3125 0.6875 3.8375
2.5 0.6875 3.9
2.5 0.75 3.8375
2.4375 0.75 3.9
2.5 0.6875 3.8375
2.4375 0.6875 3.9
2.4375 0.75 3.8375
2.4375 0.6875 3.8375
2.625 0.6875 3.9
2.625 0.75 3.8375
2.5625 0.75 3.9
2.625 0.6875 3.8375
2.5625 0.6875 3.9
2.5625 0.75 3.8375
2.5625 0.6875 3.8375
2.75 0.6875 3.9
2.75 0.75 3.8375
2.6875 0.75 3.9
2.75 0.6875 3.8375
2.6875 0.6875 3.9
2.6875 0.75 3.8375
2.6875 0.6875 3.8375
2.875 0.6875 3.9
2.875 0.75 3.8375
2.8125 0.75 3.9
2.875 0.6875 3.8375
2.8125 0.6875 3.9
2.8125 0.75 3.8375
2.8125 0.6875 3.8375
3 0.6875 3.9
3 0.75 3.8375
2.9375 0.75 3.9
3 0.6875 3.8375
2.9375 0.6875 3.9
2.9375 0.75 3.8375
2.9375 0.6875 3.8375
3.125 0.6875 3.9
3.125 0.75 3.8375
3.0625 0.75 3.9
3.125 0.6875 3.8375
3.0625 0.6875 3.9
3.0625 0.75 3.8375
3.0625 0.6875 3.8375
3.25 0.6875 3.9
3.25 0.75 3.8375
3.1875 0.75 3.9
3.25 0.6875 3.8375
3.1875 0.6875 3.9
3.1875 0.75 3.8375
3.1875 0.6875 3.8375
3.375 0.6875 3.9
3.375 0.75 3.8375
3.3125 0.75 3.9
3.375 0.6875 3.8375
3.3125 0.6875 3.9
3.3125 0.75 3.8375
3.3125 0.6875 3.8375
3.5 0.6875 3.9
3.5 0.75 3.8375
3.4375 0.75 3.9
3.5 0.6875 3.8375
3.4375 0.6875 3.9
3.4375 0.75 3.8375
3.4375 0.6875 3.8375
3.625 0.6875 3.9
3.625 0.75 3.8375
3.5625 0.75 3.9
3.625 0.6875 3.8375
3.5625 0.6875 3.9
3.5625 0.75 3.8375
3.5625 0.6875 3.8375
3.75 0.6875 3.9
3.75 0.75 3.8375
3.6875 0.75 3.9
3.75 0.6875 3.8375
3.6875 0.6875 3.9
3.6875 0.75 3.8375
3.6875 0.6875 3.8375
3.875 0.6875 3.9
3.875 0.75 3.8375
3.8125 0.75 3.9
3.875 0.6875 3.8375
3.8125 0.6875 3.9
3.8125 0.75 3.8375
3.8125 0.6875 3.8375
4 0.6875 3.9
4 0.75 3.8375
3.9375 0.75 3.9
4 0.6875 3.8375
3.9375 0.6875 3.9
3.9375 0.75 3.8375
3.9375 0.6875 3.8375
0.125 0.8125 3.9
0 0.8125 3.9
0.125 0.875 3.8375
0.0625 0.875 3.9
0 0.875 3.8375
0.125 0.8125 3.8375
0.0625 0.8125 3.9
0 0.8125 3.8375
0.0625 0.875 3.8375
0.0625 0.8125 3.8375
0.25 0.8125 3.9
0.25 0.875 3.8375
0.1875 0.875 3.9
0.25 0.8125 3.8375
0.1875 0.8125 3.9
0.1875 0.875 3.8375
0.1875 0.8125 3.8375
0.375 0.8125 3.9
0.375 0.875 3.8375
0.3125 0.875 3.9
0.375 0.8125 3.8375
0.3125 0.8125 3.9
0.3125 0.875 3.8375
0.3125 0.8125 3.8375
0.5 0.8125 3.9
0.5 0.875 3.8375
0.4375 0.875 3.9
0.5 0.8125 3.8375
0.4375 0.8125 3.9
0.4375 0.875 3.8375
0.4375 0.8125 3.8375
0.625 0.8125 3.9
0.625 0.875 3.8375
0.5625 0.875 3.9
0.625 0.8125 3.8375
0.5625 0.8125 3.9
0.5625 0.875 3.8375
0.5625 0.8125 3.8375
0.75 0.8125 3.9
0.75 0.875 3.8375
0.6875 0.875 3.9
0.75 0.8125 3.8375
0.6875 0.8125 3.9
0.6875 0.875 3.8375
0.6875 0.8125 3.8375
0.875 0.8125 3.9
0.875 0.875 3.8375
0.8125 0.875 3.9
0.875 0.8125 3.8375
0.8125 0.8125 3.9
0.8125 0.875 3.8375
0.8125 0.8125 3.8375
1 0.8125 3.9
1 0.875 3.8375
0.9375 0.875 3.9
1 0.8125 3.8375
0.9375 0.8125 3.9
0.9375 0.875 3.8375
0.9375 0.8125 3.8375
1.125 0.8125 3.9
1.125 0.875 3.8375
1.0625 0.875 3.9
1.125 0.8125 3.8375
1.0625 0.8125 3.9
1.0625 0.875 3.8375
1.0625 0.8125 3.8375
1.25 0.8125 3.9
1.25 0.875 3.8375
1.1875 0.875 3.9
1.25 0.8125 3.8375
1.1875 0.8125 3.9
1.1875 0.875 3.8375
1.1875 0.8125 3.8375
1.375 0.8125 3.9
1.375 0.875 3.8375
1.3125 0.875 3.9
1.375 0.8125 3.8375
1.3125 0.8125 3.9
1.3125 0.875 3.8375
1.3125 0.8125 3.8375
1.5 0.8125 3.9
1.5 0.875 3.8375
1.4375 0.875 3.9
1.5 0.8125 3.8375
1.4375 0.8125 3.9
1.4375 0.875 3.8375
1.4375 0.8125 3.8375
1.625 0.8125 3.9
1.625 0.875 3.8375
1.5625 0.875 3.9
1.625 0.8125 3.8375
1.5625 0.8125 3.9
1.5625 0.875 3.8375
1.5625 0.8125 3.8375
1.75 0.8125 3.9
1.75 0.875 3.8375
1.6875 0.875 3.9
1.75 0.8125 3.8375
1.6875 0.8125 3.9
1.6875 0.875 3.8375
1.6875 0.8125 3.8375
1.875 0.8125 3.9
1.875 0.875 3.8375
1.8125 0.875 3.9
1.875 0.8125 3.8375
1.8125 0.8125 3.9
1.8125 0.875 3.8375
1.8125 0.8125 3.8375
2 0.8125 3.9
2 0.875 3.8375
1.9375 0.875 3.9
2 0.8125 3.8375
1.9375 0.8125 3.9
1.9375 0.875 3.8375
1.9375 0.8125 3.8375
2.125 0.8125 3.9
2.125 0.875 3.8375
2.0625 0.875 3.9
2.125 0.8125 3.8375
2.0625 0.8125 3.9
2.0625 0.875 3.8375
2.0625 0.8125 3.8375
2.25 0.8125 3.9
2.25 0.875 3.8375
2.1875 0.875 3.9
2.25 0.8125 3.8375
2.1875 0.8125 3.9
2.1875 0.875 3.8375
2.1875 0.8125 3.8375
2.375 0.8125 3.9
2.375 0.875 3.8375
2.3125 0.875 3.9
2.375 0.8125 3.8375
2.3125 0.8125 3.9
2.3125 0.875 3.8375
2.3125 0.8125 3.8375
2.5 0.8125 3.9
2.5 0.875 3.8375
2.4375 0.875 3.9
2.5 0.8125 3.8375
2.4375 0.8125 3.9
2.4375 0.875 3.8375
2.4375 0.8125 3.8375
2.625 0.8125 3.9
2.625 0.875 3.8375
2.5625 0.875 3.9
2.625 0.8125 3.8375
2.5625 0.8125 3.9
2.5625 0.875 3.8375
2.5625 0.8125 3.8375
2.75 0.8125 3.9
2.75 0.875 3.8375
2.6875 0.875 3.9
2.75 0.8125 3.8375
2.6875 0.8125 3.9
2.6875 0.875 3.8375
2.6875 0.8125 3.8375
2.875 0.8125 3.9
2.875 0.875 3.8375
2.8125 0.875 3.9
2.875 0.8125 3.8375
2.8125 0.8125 3.9
2.8125 0.875 3.8375
2.8125 0.8125 3.8375
3 0.8125 3.9
3 0.875 3.8375
2.9375 0.875 3.9
3 0.8125 3.8375
2.9375 0.8125 3.9
2.9375 0.875 3.8375
2.9375 0.8125 3.8375
3.125 0.8125 3.9
3.125 0.875 3.8375
3.0625 0.875 3.9
3.125 0.8125 3.8375
3.0625 0.8125 3.9
3.0625 0.875 3.8375
3.0625 0.8125 3.8375
3.25 0.8125 3.9
3.25 0.875 3.8375
3.1875 0.875 3.9
3.25 0.8125 3.8375
3.1875 0.8125 3.9
3.1875 0.875 3.8375
3.1875 0.8125 3.8375
3.375 0.8125 3.9
3.375 0.875 3.8375
3.3125 0.875 3.9
3.375 0.8125 3.8375
3.3125 0.8125 3.9
3.3125 0.875 3.8375
3.3125 0.8125 3.8375
3.5 0.8125 3.9
3.5 0.875 3.8375
3.4375 0.875 3.9
3.5 0.8125 3.8375
3.4375 0.8125 3.9
3.4375 0.875 3.8375
3.4375 0.8125 3.8375
3.625 0.8125 3.9
3.625 0.875 3.8375
3.5625 0.875 3.9
3.625 0.8125 3.8375
3.5625 0.8125 3.9
3.5625 0.875 3.8375
3.5625 0.8125 3.8375
3.75 0.8125 3.9
3.75 0.875 3.8375
3.6875 0.875 3.9
3.75 0.8125 3.8375
3.6875 0.8125 3.9
3.6875 0.875 3.8375
3.6875 0.8125 3.8375
3.875 0.8125 3.9
3.875 0.875 3.8375
3.8125 0.875 3.9
3.875 0.8125 3.8375
3.8125 0.8125 3.9
3.8125 0.875 3.8375
3.8125 0.8125 3.8375
4 0.8125 3.9
4 0.875 3.8375
3.9375 0.875 3.9
4 0.8125 3.8375
3.9375 0.8125 3.9
3.9375 0.875 3.8375
3.9375 0.8125 3.8375
0.125 0.9375 3.9
0 0.9375 3.9
0.125 1 3.8375
0.0625 1 3.9
0 1 3.8375
0.125 0.9375 3.8375
0.0625 0.9375 3.9
0 0.9375 3.8375
0.0625 1 3.8375
0.0625 0.9375 3.8375
0.25 0.9375 3.9
0.25 1 3.8375
0.1875 1 3.9
0.25 0.9375 3.8375
0.1875 0.9375 3.9
0.1875 1 3.8375
0.1875 0.9375 3.8375
0.375 0.9375 3.9
0.375 1 3.8375
0.3125 1 3.9
0.375 0.9375 3.8375
0.3125 0.9375 3.9
0.3125 1 3.8375
0.3125 0.9375 3.8375
0.5 0.9375 3.9
0.5 1 3.8375
0.4375 1 3.9
0.5 0.9375 3.8375
0.4375 0.9375 3.9
0.4375 1 3.8375
0.4375 0.9375 3.8375
0.625 0.9375 3.9
0.625 1 3.8375
0.5625 1 3.9
0.625 0.9375 3.8375
0.5625 0.9375 3.9
0.5625 1 3.8375
0.5625 0.9375 3.8375
0.75 0.9375 3.9
0.75 1 3.8375
0.6875 1 3.9
0.75 0.9375 3.8375
0.6875 0.9375 3.9
0.6875 1 3.8375
0.6875 0.9375 3.8375
0.875 0.9375 3.9
0.875 1 3.8375
0.8125 1 3.9
0.875 0.9375 3.8375
0.8125 0.9375 3.9
0.8125 1 3.8375
0.8125 0.9375 3.8375
1 0.9375 3.9
1 1 3.8375
0.9375 1 3.9
1 0.9375 3.8375
0.9375 0.9375 3.9
0.9375 1 3.8375
0.9375 0.9375 3.8375
1.125 0.9375 3.9
1.125 1 3.8375
1.0625 1 3.9
1.125 0.9375 3.8375
1.0625 0.9375 3.9
1.0625 1 3.8375
1.0625 0.9375 3.8375
1.25 0.9375 3.9
1.25 1 3.8375
1.1875 1 3.9
1.25 0.9375 3.8375
1.1875 0.9375 3.9
1.1875 1 3.8375
1.1875 0.9375 3.8375
1.375 0.9375 3.9
1.375 1 3.8375
1.3125 1 3.9
1.375 0.9375 3.8375
1.3125 0.9375 3.9
1.3125 1 3.8375
1.3125 0.9375 3.8375
1.5 0.9375 3.9
1.5 1 3.8375
1.4375 1 3.9
1.5 0.9375 3.8375
1.4375 0.9375 3.9
1.4375 1 3.8375
1.4375 0.9375 3.8375
1.625 0.9375 3.9
1.625 1 3.8375
1.5625 1 3.9
1.625 0.9375 3.8375
1.5625 0.9375 3.9
1.5625 1 3.8375
1.5625 0.9375 3.8375
1.75 0.9375 3.9
1.75 1 3.8375
1.6875 1 3.9
1.75 0.9375 3.8375
1.6875 0.9375 3.9
1.6875 1 3.8375
1.6875 0.9375 3.8375
1.875 0.9375 3.9
1.875 1 3.8375
1.8125 1 3.9
1.875 0.9375 3.8375
1.8125 0.9375 3.9
1.8125 1 3.8375
1.8125 0.9375 3.8375
2 0.9375 3.9
2 1 3.8375
1.9375 1 3.9
2 0.9375 3.8375
1.9375 0.9375 3.9
1.9375 1 3.8375
1.9375 0.9375 3.8375
2.125 0.9375 3.9
2.125 1 3.8375
2.0625 1 3.9
2.125 0.9375 3.8375
2.0625 0.9375 3.9
2.0625 1 3.8375
2.0625 0.9375 3.8375
2.25 0.9375 3.9
2.25 1 3.8375
2.1875 1 3.9
2.25 0.9375 3.8375
2.1875 0.9375 3.9
2.1875 1 3.8375
2.1875 0.9375 3.8375
2.375 0.9375 3.9
2.375 1 3.8375
2.3125 1 3.9
2.375 0.9375 3.8375
2.3125 0.9375 3.9
2.3125 1 3.8375
2.3125 0.9375 3.8375
2.5 0.9375 3.9
2.5 1 3.8375
2.4375 1 3.9
2.5 0.9375 3.8375
2.4375 0.9375 3.9
2.4375 1 3.8375
2.4375 0.9375 3.8375
2.625 0.9375 3.9
2.625 1 3.8375
2.5625 1 3.9
2.625 0.9375 3.8375
2.5625 0.9375 3.9
2.5625 1 3.8375
2.5625 0.9375 3.8375
2.75 0.9375 3.9
2.75 1 3.8375
2.6875 1 3.9
2.75 0.9375 3.8375
2.6875 0.9375 3.9
2.6875 1 3.8375
2.6875 0.9375 3.8375
2.875 0.9375 3.9
2.875 1 3.8375
2.8125 1 3.9
2.875 0.9375 3.8375
2.8125 0.9375 3.9
2.8125 1 3.8375
2.8125 0.9375 3.8375
3 0.9375 3.9
3 1 3.8375
2.9375 1 3.9
3 0.9375 3.8375
2.9375 0.9375 3.9
2.9375 1 3.8375
2.9375 0.9375 3.8375
3.125 0.9375 3.9
3.125 1 3.8375
3.0625 1 3.9
3.125 0.9375 3.8375
3.0625 0.9375 3.9
3.0625 1 3.8375
3.0625 0.9375 3.8375
3.25 0.9375 3.9
3.25 1 3.8375
3.1875 1 3.9
3.25 0.9375 3.8375
3.1875 0.9375 3.9
3.1875 1 3.8375
3.1875 0.9375 3.8375
3.375 0.9375 3.9
3.375 1 3.8375
3.3125 1 3.9
3.375 0.9375 3.8375
3.3125 0.9375 3.9
3.3125 1 3.8375
3.3125 0.9375 3.8375
3.5 0.9375 3.9
3.5 1 3.8375
3.4375 1 3.9
3.5 0.9375 3.8375
3.4375 0.9375 3.9
3.4375 1 3.8375
3.4375 0.9375 3.8375
3.625 0.9375 3.9
3.625 1 3.8375
3.5625 1 3.9
3.625 0.9375 3.8375
3.5625 0.9375 3.9
3.5625 1 3.8375
3.5625 0.9375 3.8375
3.75 0.9375 3.9
3.75 1 3.8375
3.6875 1 3.9
3.75 0.9375 3.8375
3.6875 0.9375 3.9
3.6875 1 3.8375
3.6875 0.9375 3.8375
3.875 0.9375 3.9
3.875 1 3.8375
3.8125 1 3.9
3.875 0.9375 3.8375
3.8125 0.9375 3.9
3.8125 1 3.8375
3.8125 0.9375 3.8375
4 0.9375 3.9
4 1 3.8375
3.9375 1 3.9
4 0.9375 3.8375
3.9375 0.9375 3.9
3.9375 1 3.8375
3.9375 0.9375 3.8375
0.125 0 3.9625
0.0625 0 4.025
0 0 3.9625
0.125 0.0625 4.025
0 0.0625 4.025
0.125 0.125 3.9625
0.0625 0.125 4.025
0 0.125 3.9625
0.0625 0 3.9625
0.125 0.0625 3.9625
0.0625 0.0625 4.025
0 0.0625 3.9625
0.0625 0.125 3.9625
0.0625 0.0625 3.9625
0.25 0 3.9625
0.1875 0 4.025
0.25 0.0625 4.025
0.25 0.125 3.9625
0.1875 0.125 4.025
0.1875 0 3.9625
0.25 0.0625 3.9625
0.1875 0.0625 4.025
0.1875 0.125 3.9625
0.1875 0.0625 3.9625
0.375 0 3.9625
0.3125 0 4.025
0.375 0.0625 4.025
0.375 0.125 3.9625
0.3125 0.125 4.025
0.3125 0 3.9625
0.375 0.0625 3.9625
0.3125 0.0625 4.025
0.3125 0.125 3.9625
0.3125 0.0625 3.9625
0.5 0 3.9625
0.4375 0 4.025
0.5 0.0625 4.025
0.5 0.125 3.9625
0.4375 0.125 4.025
0.4375 0 3.9625
0.5 0.0625 3.9625
0.4375 0.0625 4.025
0.4375 0.125 3.9625
0.4375 0.0625 3.9625
0.625 0 3.9625
0.5625 0 4.025
0.625 0.0625 4.025
0.625 0.125 3.9625
0.5625 0.125 4.025
0.5625 0 3.9625
0.625 0.0625 3.9625
0.5625 0.0625 4.025
0.5625 0.125 3.9625
0.5625 0.0625 3.9625
0.75 0 3.9625
0.6875 0 4.025
0.75 0.0625 4.025
0.75 0.125 3.9625
0.6875 0.125 4.025
0.6875 0 3.9625
0.75 0.0625 3.9625
0.6875 0.0625 4.025
0.6875 0.125 3.9625
0.6875 0.0625 3.9625
0.875 0 3.9625
0.8125 0 4.025
0.875 0.0625 4.025
0.875 0.125 3.9625
0.8125 0.125 4.025
0.8125 0 3.9625
0.875 0.0625 3.9625
0.8125 0.0625 4.025
0.8125 0.125 3.9625
0.8125 0.0625 3.9625
1 0 3.9625
0.9375 0 4.025
1 0.0625 4.025
1 0.125 3.9625
0.9375 0.125 4.025
0.9375 0 3.9625
1 0.0625 3.9625
0.9375 0.0625 4.025
0.9375 0.125 3.9625
0.9375 0.0625 3.9625
1.125 0 3.9625
1.0625 0 4.025
1.125 0.0625 4.025
1.125 0.125 3.9625
1.0625 0.125 4.025
1.0625 0 3.9625
1.125 0.0625 3.9625
1.0625 0.0625 4.025
1.0625 0.125 3.9625
1.0625 0.0625 3.9625
1.25 0 3.9625
1.1875 0 4.025
1.25 0.0625 4.025
1.25 0.125 3.9625
1.1875 0.125 4.025
1.1875 0 3.9625
1.25 0.0625 3.9625
1.1875 0.0625 4.025
1.1875 0.125 3.9625
1.1875 0.0625 3.9625
1.375 0 3.9625
1.3125 0 4.025
1.375 0.0625 4.025
1.375 0.125 3.9625
1.3125 0.125 4.025
1.3125 0 3.9625
1.375 0.0625 3.9625
1.3125 0.0625 4.025
1.3125 0.125 3.9625
1.3125 0.0625 3.9625
1.5 0 3.9625
1.4375 0 4.025
1.5 0.0625 4.025
1.5 0.125 3.9625
1.4375 0.125 4.025
1.4375 0 3.9625
1.5 0.0625 3.9625
1.4375 0.0625 4.025
1.4375 0.125 3.9625
1.4375 0.0625 3.9625
1.625 0 3.9625
1.5625 0 4.025
1.625 0.0625 4.025
1.625 0.125 3.9625
1.5625 0.125 4.025
1.5625 0 3.9625
1.625 0.0625 3.9625
1.5625 0.0625 4.025
1.5625 0.125 3.9625
1.5625 0.0625 3.9625
1.75 0 3.9625
1.6875 0 4.025
1.75 0.0625 4.025
1.75 0.125 3.9625
1.6875 0.125 4.025
1.6875 0 3.9625
1.75 0.0625 3.9625
1.6875 0.0625 4.025
1.6875 0.125 3.9625
1.6875 0.0625 3.9625
1.875 0 3.9625
1.8125 0 4.025
1.875 0.0625 4.025
1.875 0.125 3.9625
1.8125 0.125 4.025
1.8125 0 3.9625
1.875 0.0625 3.9625
1.8125 0.0625 4.025
1.8125 0.125 3.9625
1.8125 0.0625 3.9625
2 0 3.9625
1.9375 0 4.025
2 0.0625 4.025
2 0.125 3.9625
1.9375 0.125 4.025
1.9375 0 3.9625
2 0.0625 3.9625
1.9375 0.0625 4.025
1.9375 0.125 3.9625
1.9375 0.0625 3.9625
2.125 0 3.9625
2.0625 0 4.025
2.125 0.0625 4.025
2.125 0.125 3.9625
2.0625 0.125 4.025
2.0625 0 3.9625
2.125 0.0625 3.9625
2.0625 0.0625 4.025
2.0625 0.125 3.9625
2.0625 0.0625 3.9625
2.25 0 3.9625
2.1875 0 4.025
2.25 0.0625 4.025
2.25 0.125 3.9625
2.1875 0.125 4.025
2.1875 0 3.9625
2.25 0.0625 3.9625
2.1875 0.0625 4.025
2.1875 0.125 3.9625
2.1875 0.0625 3.9625
2.375 0 3.9625
2.3125 0 4.025
2.375 0.0625 4.025
2.375 0.125 3.9625
2.3125 0.125 4.025
2.3125 0 3.9625
2.375 0.0625 3.9625
2.3125 0.0625 4.025
2.3125 0.125 3.9625
2.3125 0.0625 3.9625
2.5 0 3.9625
2.4375 0 4.025
2.5 0.0625 4.025
2.5 0.125 3.9625
2.4375 0.125 4.025
2.4375 0 3.9625
2.5 0.0625 3.9625
2.4375 0.0625 4.025
2.4375 0.125 3.9625
2.4375 0.0625 3.9625
2.625 0 3.9625
2.5625 0 4.025
2.625 0.0625 4.025
2.625 0.125 3.9625
2.5625 0.125 4.025
2.5625 0 3.9625
2.625 0.0625 3.9625
2.5625 0.0625 4.025
2.5625 0.125 3.9625
2.5625 0.0625 3.9625
2.75 0 3.9625
2.6875 0 4.025
2.75 0.0625 4.025
2.75 0.125 3.9625
2.6875 0.125 4.025
2.6875 0 3.9625
2.75 0.0625 3.9625
2.6875 0.0625 4.025
2.6875 0.125 3.9625
2.6875 0.0625 3.9625
2.875 0 3.9625
2.8125 0 4.025
2.875 0.0625 4.025
2.875 0.125 3.9625
2.8125 0.125 4.025
2.8125 0 3.9625
2.875 0.0625 3.9625
2.8125 0.0625 4.025
2.8125 0.125 3.9625
2.8125 0.0625 3.9625
3 0 3.9625
2.9375 0 4.025
3 0.0625 4.025
3 0.125 3.9625
2.9375 0.125 4.025
2.9375 0 3.9625
3 0.0625 3.9625
2.9375 0.0625 4.025
2.9375 0.125 3.9625
2.9375 0.0625 3.9625
3.125 0 3.9625
3.0625 0 4.025
3.125 0.0625 4.025
3.125 0.125 3.9625
3.0625 0.125 4.025
3.0625 0 3.9625
3.125 0.0625 3.9625
3.0625 0.0625 4.025
3.0625 0.125 3.9625
3.0625 0.0625 3.9625
3.25 0 3.9625
3.1875 0 4.025
3.25 0.0625 4.025
3.25 0.125 3.9625
3.1875 0.125 4.025
3.1875 0 3.9625
3.25 0.0625 3.9625
3.1875 0.0625 4.025
3.1875 0.125 3.9625
3.1875 0.0625 3.9625
3.375 0 3.9625
3.3125 0 4.025
3.375 0.0625 4.025
3.375 0.125 3.9625
3.3125 0.125 4.025
3.3125 0 3.9625
3.375 0.0625 3.9625
3.3125 0.0625 4.025
3.3125 0.125 3.9625
3.3125 0.0625 3.9625
3.5 0 3.9625
3.4375 0 4.025
3.5 0.0625 4.025
3.5 0.125 3.9625
3.4375 0.125 4.025
3.4375 0 3.9625
3.5 0.0625 3.9625
3.4375 0.0625 4.025
3.4375 0.125 3.9625
3.4375 0.0625 3.9625
3.625 0 3.9625
3.5625 0 4.025
3.625 0.0625 4.025
3.625 0.125 3.9625
3.5625 0.125 4.025
3.5625 0 3.9625
3.625 0.0625 3.9625
3.5625 0.0625 4.025
3.5625 0.125 3.9625
3.5625 0.0625 3.9625
3.75 0 3.9625
3.6875 0 4.025
3.75 0.0625 4.025
3.75 0.125 3.9625
3.6875 0.125 4.025
3.6875 0 3.9625
3.75 0.0625 3.9625
3.6875 0.0625 4.025
3.6875 0.125 3.9625
3.6875 0.0625 3.9625
3.875 0 3.9625
3.8125 0 4.025
3.875 0.0625 4.025
3.875 0.125 3.9625
3.8125 0.125 4.025
3.8125 0 3.9625
3.875 0.0625 3.9625
3.8125 0.0625 4.025
3.8125 0.125 3.9625
3.8125 0.0625 3.9625
4 0 3.9625
3.9375 0 4.025
4 0.0625 4.025
4 0.125 3.9625
3.9375 0.125 4.025
3.9375 0 3.9625
4 0.0625 3.9625
3.9375 0.0625 4.025
3.9375 0.125 3.9625
3.9375 0.0625 3.9625
0.125 0.1875 4.025
0 0.1875 4.025
0.125 0.25 3.9625
0.0625 0.25 4.025
0 0.25 3.9625
0.125 0.1875 3.9625
0.0625 0.1875 4.025
0 0.1875 3.9625
0.0625 0.25 3.9625
0.0625 0.1875 3.9625
0.25 0.1875 4.025
0.25 0.25 3.9625
0.1875 0.25 4.025
0.25 0.1875 3.9625
0.1875 0.1875 4.025
0.1875 0.25 3.9625
0.1875 0.1875 3.9625
0.375 0.1875 4.025
0.375 0.25 3.9625
0.3125 0.25 4.025
0.375 0.1875 3.9625
0.3125 0.1875 4.025
0.3125 0.25 3.9625
0.3125 0.1875 3.9625
0.5 0.1875 4.025
0.5 0.25 3.9625
0.4375 0.25 4.025
0.5 0.1875 3.9625
0.4375 0.1875 4.025
0.4375 0.25 3.9625
0.4375 0.1875 3.9625
0.625 0.1875 4.025
0.625 0.25 3.9625
0.5625 0.25 4.025
0.625 0.1875 3.9625
0.5625 0.1875 4.025
0.5625 0.25 3.9625
0.5625 0.1875 3.9625
0.75 0.1875 4.025
0.75 0.25 3.9625
0.6875 0.25 4.025
0.75 0.1875 3.9625
0.6875 0.1875 4.025
0.6875 0.25 3.9625
0.6875 0.1875 3.9625
0.875 0.1875 4.025
0.875 0.25 3.9625
0.8125 0.25 4.025
0.875 0.1875 3.9625
0.8125 0.1875 4.025
0.8125 0.25 3.9625
0.8125 0.1875 3.9625
1 0.1875 4.025
1 0.25 3.9625
0.9375 0.25 4.025
1 0.1875 3.9625
0.9375 0.1875 4.025
0.9375 0.25 3.9625
0.9375 0.1875 3.9625
1.125 0.1875 4.025
1.125 0.25 3.9625
1.0625 0.25 4.025
1.125 0.1875 3.9625
1.0625 0.1875 4.025
1.0625 0.25 3.9625
1.0625 0.1875 3.9625
1.25 0.1875 4.025
1.25 0.25 3.9625
1.1875 0.25 4.025
1.25 0.1875 3.9625
1.1875 0.1875 4.025
1.1875 0.25 3.9625
1.1875 0.1875 3.9625
1.375 0.1875 4.025
1.375 0.25 3.9625
1.3125 0.25 4.025
1.375 0.1875 3.9625
1.3125 0.1875 4.025
1.3125 0.25 3.9625
1.3125 0.1875 3.9625
1.5 0.1875 4.025
1.5 0.25 3.9625
1.4375 0.25 4.025
1.5 0.1875 3.9625
1.4375 0.1875 4.025
1.4375 0.25 3.9625
1.4375 0.1875 3.9625
1.625 0.1875 4.025
1.625 0.25 3.9625
1.5625 0.25 4.025
1.625 0.1875 3.9625
1.5625 0.1875 4.025
1.5625 0.25 3.9625
1.5625 0.1875 3.9625
1.75 0.1875 4.025
1.75 0.25 3.9625
1.6875 0.25 4.025
1.75 0.1875 3.9625
1.6875 0.1875 4.025
1.6875 0.25 3.9625
1.6875 0.1875 3.9625
1.875 0.1875 4.025
1.875 0.25 3.9625
1.8125 0.25 4.025
1.875 0.1875 3.9625
1.8125 0.1875 4.025
1.8125 0.25 3.9625
1.8125 0.1875 3.9625
2 0.1875 4.025
2 0.25 3.9625
1.9375 0.25 4.025
2 0.1875 3.9625
1.9375 0.1875 4.025
1.9375 0.25 3.9625
1.9375 0.1875 3.9625
2.125 0.1875 4.025
2.125 0.25 3.9625
2.0625 0.25 4.025
2.125 0.1875 3.9625
2.0625 0.1875 4.025
2.0625 0.25 3.9625
2.0625 0.1875 3.9625
2.25 0.1875 4.025
2.25 0.25 3.9625
2.1875 0.25 4.025
2.25 0.1875 3.9625
2.1875 0.1875 4.025
2.1875 0.25 3.9625
2.1875 0.1875 3.9625
2.375 0.1875 4.025
2.375 0.25 3.9625
2.3125 0.25 4.025
2.375 0.1875 3.9625
2.3125 0.1875 4.025
2.3125 0.25 3.9625
2.3125 0.1875 3.9625
2.5 0.1875 4.025
2.5 0.25 3.9625
2.4375 0.25 4.025
2.5 0.1875 3.9625
2.4375 0.1875 4.025
2.4375 0.25 3.9625
2.4375 0.1875 3.9625
2.625 0.1875 4.025
2.625 0.25 3.9625
2.5625 0.25 4.025
2.625 0.1875 3.9625
2.5625 0.1875 4.025
2.5625 0.25 3.9625
2.5625 0.1875 3.9625
2.75 0.1875 4.025
2.75 0.25 3.9625
2.6875 0.25 4.025
2.75 0.1875 3.9625
2.6875 0.1875 4.025
2.6875 0.25 3.9625
2.6875 0.1875 3.9625
2.875 0.1875 4.025
2.875 0.25 3.9625
2.8125 0.25 4.025
2.875 0.1875 3.9625
2.8125 0.1875 4.025
2.8125 0.25 3.9625
2.8125 0.1875 3.9625
3 0.1875 4.025
3 0.25 3.9625
2.9375 0.25 4.025
3 0.1875 3.9625
2.9375 0.1875 4.025
2.9375 0.25 3.9625
2.9375 0.1875 3.9625
3.125 0.1875 4.025
3.125 0.25 3.9625
3.0625 0.25 4.025
3.125 0.1875 3.9625
3.0625 0.1875 4.025
3.0625 0.25 3.9625
3.0625 0.1875 3.9625
3.25 0.1875 4.025
3.25 0.25 3.9625
3.1875 0.25 4.025
3.25 0.1875 3.9625
3.1875 0.1875 4.025
3.1875 0.25 3.9625
3.1875 0.1875 3.9625
3.375 0.1875 4.025
3.375 0.25 3.9625
3.3125 0.25 4.025
3.375 0.1875 3.9625
3.3125 0.1875 4.025
3.3125 0.25 3.9625
3.3125 0.1875 3.9625
3.5 0.1875 4.025
3.5 0.25 3.9625
3.4375 0.25 4.025
3.5 0.1875 3.9625
3.4375 0.1875 4.025
3.4375 0.25 3.9625
3.4375 0.1875 3.9625
3.625 0.1875 4.025
3.625 0.25 3.9625
3.5625 0.25 4.025
3.625 0.1875 3.9625
3.5625 0.1875 4.025
3.5625 0.25 3.9625
3.5625 0.1875 3.9625
3.75 0.1875 4.025
3.75 0.25 3.9625
3.6875 0.25 4.025
3.75 0.1875 3.9625
3.6875 0.1875 4.025
3.6875 0.25 3.9625
3.6875 0.1875 3.9625
3.875 0.1875 4.025
3.875 0.25 3.9625
3.8125 0.25 4.025
3.875 0.1875 3.9625
3.8125 0.1875 4.025
3.8125 0.25 3.9625
3.8125 0.1875 3.9625
4 0.1875 4.025
4 0.25 3.9625
3.9375 0.25 4.025
4 0.1875 3.9625
3.9375 0.1875 4.025
3.9375 0.25 3.9625
3.9375 0.1875 3.9625
0.125 0.3125 4.025
0 0.3125 4.025
0.125 0.375 3.9625
0.0625 0.375 4.025
0 0.375 3.9625
0.125 0.3125 3.9625
0.0625 0.3125 4.025
0 0.3125 3.9625
0.0625 0.375 3.9625
0.0625 0.3125 3.9625
0.25 0.3125 4.025
0.25 0.375 3.9625
0.1875 0.375 4.025
0.25 0.3125 3.9625
0.1875 0.3125 4.025
0.1875 0.375 3.9625
0.1875 0.3125 3.9625
0.375 0.3125 4.025
0.375 0.375 3.9625
0.3125 0.375 4.025
0.375 0.3125 3.9625
0.3125 0.3125 4.025
0.3125 0.375 3.9625
0.3125 0.3125 3.9625
0.5 0.3125 4.025
0.5 0.375 3.9625
0.4375 0.375 4.025
0.5 0.3125 3.9625
0.4375 0.3125 4.025
0.4375 0.375 3.9625
0.4375 0.3125 3.9625
0.625 0.3125 4.025
0.625 0.375 3.9625
0.5625 0.375 4.025
0.625 0.3125 3.9625
0.5625 0.3125 4.025
0.5625 0.375 3.9625
0.5625 0.3125 3.9625
0.75 0.3125 4.025
0.75 0.375 3.9625
0.6875 0.375 4.025
0.75 0.3125 3.9625
0.6875 0.3125 4.025
0.6875 0.375 3.9625
0.6875 0.3125 3.9625
0.875 0.3125 4.025
0.875 0.375 3.9625
0.8125 0.375 4.025
0.875 0.3125 3.9625
0.8125 0.3125 4.025
0.8125 0.375 3.9625
0.8125 0.3125 3.9625
1 0.3125 4.025
1 0.375 3.9625
0.9375 0.375 4.025
1 0.3125 3.9625
0.9375 0.3125 4.025
0.9375 0.375 3.9625
0.9375 0.3125 3.9625
1.125 0.3125 4.025
1.125 0.375 3.9625
1.0625 0.375 4.025
1.125 0.3125 3.9625
1.0625 0.3125 4.025
1.0625 0.375 3.9625
1.0625 0.3125 3.9625
1.25 0.3125 4.025
1.25 0.375 3.9625
1.1875 0.375 4.025
1.25 0.3125 3.9625
1.1875 0.3125 4.025
1.1875 0.375 3.9625
1.1875 0.3125 3.9625
1.375 0.3125 4.025
1.375 0.375 3.9625
1.3125 0.375 4.025
1.375 0.3125 3.9625
1.3125 0.3125 4.025
1.3125 0.375 3.9625
1.3125 0.3125 3.9625
1.5 0.3125 4.025
1.5 0.375 3.9625
1.4375 0.375 4.025
1.5 0.3125 3.9625
1.4375 0.3125 4.025
1.4375 0.375 3.9625
1.4375 0.3125 3.9625
1.625 0.3125 4.025
1.625 0.375 3.9625
1.5625 0.375 4.025
1.625 0.3125 3.9625
1.5625 0.3125 4.025
1.5625 0.375 3.9625
1.5625 0.3125 3.9625
1.75 0.3125 4.025
1.75 0.375 3.9625
1.6875 0.375 4.025
1.75 0.3125 3.9625
1.6875 0.3125 4.025
1.6875 0.375 3.9625
1.6875 0.3125 3.9625
1.875 0.3125 4.025
1.875 0.375 3.9625
1.8125 0.375 4.025
1.875 0.3125 3.9625
1.8125 0.3125 4.025
1.8125 0.375 3.9625
1.8125 0.3125 3.9625
2 0.3125 4.025
2 0.375 3.9625
1.9375 0.375 4.025
2 0.3125 3.9625
1.9375 0.3125 4.025
1.9375 0.375 3.9625
1.9375 0.3125 3.9625
2.125 0.3125 4.025
2.125 0.375 3.9625
2.0625 0.375 4.025
2.125 0.3125 3.9625
2.0625 0.3125 4.025
2.0625 0.375 3.9625
2.0625 0.3125 3.9625
2.25 0.3125 4.025
2.25 0.375 3.9625
2.1875 0.375 4.025
2.25 0.3125 3.9625
2.1875 0.3125 4.025
2.1875 0.375 3.9625
2.1875 0.3125 3.9625
2.375 0.3125 4.025
2.375 0.375 3.9625
2.3125 0.375 4.025
2.375 0.3125 3.9625
2.3125 0.3125 4.025
2.3125 0.375 3.9625
2.3125 0.3125 3.9625
2.5 0.3125 4.025
2.5 0.375 3.9625
2.4375 0.375 4.025
2.5 0.3125 3.9625
2.4375 0.3125 4.025
2.4375 0.375 3.9625
2.4375 0.3125 3.9625
2.625 0.3125 4.025
2.625 0.375 3.9625
2.5625 0.375 4.025
2.625 0.3125 3.9625
2.5625 0.3125 4.025
2.5625 0.375 3.9625
2.5625 0.3125 3.9625
2.75 0.3125 4.025
2.75 0.375 3.9625
2.6875 0.375 4.025
2.75 0.3125 3.9625
2.6875 0.3125 4.025
2.6875 0.375 3.9625
2.6875 0.3125 3.9625
2.875 0.3125 4.025
2.875 0.375 3.9625
2.8125 0.375 4.025
2.875 0.3125 3.9625
2.8125 0.3125 4.025
2.8125 0.375 3.9625
2.8125 0.3125 3.9625
3 0.3125 4.025
3 0.375 3.9625
2.9375 0.375 4.025
3 0.3125 3.9625
2.9375 0.3125 4.025
2.9375 0.375 3.9625
2.9375 0.3125 3.9625
3.125 0.3125 4.025
3.125 0.375 3.9625
3.0625 0.375 4.025
3.125 0.3125 3.9625
3.0625 0.3125 4.025
3.0625 0.375 3.9625
3.0625 0.3125 3.9625
3.25 0.3125 4.025
3.25 0.375 3.9625
3.1875 0.375 4.025
3.25 0.3125 3.9625
3.1875 0.3125 4.025
3.1875 0.375 3.9625
3.1875 0.3125 3.9625
3.375 0.3125 4.025
3.375 0.375 3.9625
3.3125 0.375 4.025
3.375 0.3125 3.9625
3.3125 0.3125 4.025
3.3125 0.375 3.9625
3.3125 0.3125 3.9625
3.5 0.3125 4.025
3.5 0.375 3.9625
3.4375 0.375 4.025
3.5 0.3125 3.9625
3.4375 0.3125 4.025
3.4375 0.375 3.9625
3.4375 0.3125 3.9625
3.625 0.3125 4.025
3.625 0.375 3.9625
3.5625 0.375 4.025
3.625 0.3125 3.9625
3.5625 0.3125 4.025
3.5625 0.375 3.9625
3.5625 0.3125 3.9625
3.75 0.3125 4.025
3.75 0.375 3.9625
3.6875 0.375 4.025
3.75 0.3125 3.9625
3.6875 0.3125 4.025
3.6875 0.375 3.9625
3.6875 0.3125 3.9625
3.875 0.3125 4.025
3.875 0.375 3.9625
3.8125 0.375 4.025
3.875 0.3125 3.9625
3.8125 0.3125 4.025
3.8125 0.375 3.9625
3.8125 0.3125 3.9625
4 0.3125 4.025
4 0.375 3.9625
3.9375 0.375 4.025
4 0.3125 3.9625
3.9375 0.3125 4.025
3.9375 0.375 3.9625
3.9375 0.3125 3.9625
0.125 0.4375 4.025
0 0.4375 4.025
0.125 0.5 3.9625
0.0625 0.5 4.025
0 0.5 3.9625
0.125 0.4375 3.9625
0.0625 0.4375 4.025
0 0.4375 3.9625
0.0625 0.5 3.9625
0.0625 0.4375 3.9625
0.25 0.4375 4.025
0.25 0.5 3.9625
0.1875 0.5 4.025
0.25 0.4375 3.9625
0.1875 0.4375 4.025
0.1875 0.5 3.9625
0.1875 0.4375 3.9625
0.375 0.4375 4.025
0.375 0.5 3.9625
0.3125 0.5 4.025
0.375 0.4375 3.9625
0.3125 0.4375 4.025
0.3125 0.5 3.9625
0.3125 0.4375 3.9625
0.5 0.4375 4.025
0.5 0.5 3.9625
0.4375 0.5 4.025
0.5 0.4375 3.9625
0.4375 0.4375 4.025
0.4375 0.5 3.9625
0.4375 0.4375 3.9625
0.625 0.4375 4.025
0.625 0.5 3.9625
0.5625 0.5 4.025
0.625 0.4375 3.9625
0.5625 0.4375 4.025
0.5625 0.5 3.9625
0.5625 0.4375 3.9625
0.75 0.4375 4.025
0.75 0.5 3.9625
0.6875 0.5 4.025
0.75 0.4375 3.9625
0.6875 0.4375 4.025
0.6875 0.5 3.9625
0.6875 0.4375 3.9625
0.875 0.4375 4.025
0.875 0.5 3.9625
0.8125 0.5 4.025
0.875 0.4375 3.9625
0.8125 0.4375 4.025
0.8125 0.5 3.9625
0.8125 0.4375 3.9625
1 0.4375 4.025
1 0.5 3.9625
0.9375 0.5 4.025
1 0.4375 3.9625
0.9375 0.4375 4.025
0.9375 0.5 3.9625
0.9375 0.4375 3.9625
1.125 0.4375 4.025
1.125 0.5 3.9625
1.0625 0.5 4.025
1.125 0.4375 3.9625
1.0625 0.4375 4.025
1.0625 0.5 3.9625
1.0625 0.4375 3.9625
1.25 0.4375 4.025
1.25 0.5 3.9625
1.1875 0.5 4.025
1.25 0.4375 3.9625
1.1875 0.4375 4.025
1.1875 0.5 3.9625
1.1875 0.4375 3.9625
1.375 0.4375 4.025
1.375 0.5 3.9625
1.3125 0.5 4.025
1.375 0.4375 3.9625
1.3125 0.4375 4.025
1.3125 0.5 3.9625
1.3125 0.4375 3.9625
1.5 0.4375 4.025
1.5 0.5 3.9625
1.4375 0.5 4.025
1.5 0.4375 3.9625
1.4375 0.4375 4.025
1.4375 0.5 3.9625
1.4375 0.4375 3.9625
1.625 0.4375 4.025
1.625 0.5 3.9625
1.5625 0.5 4.025
1.625 0.4375 3.9625
1.5625 0.4375 4.025
1.5625 0.5 3.9625
1.5625 0.4375 3.9625
1.75 0.4375 4.025
1.75 0.5 3.9625
1.6875 0.5 4.025
1.75 0.4375 3.9625
1.6875 0.4375 4.025
1.6875 0.5 3.9625
1.6875 0.4375 3.9625
1.875 0.4375 4.025
1.875 0.5 3.9625
1.8125 0.5 4.025
1.875 0.4375 3.9625
1.8125 0.4375 4.025
1.8125 0.5 3.9625
1.8125 0.4375 3.9625
2 0.4375 4.025
2 0.5 3.9625
1.9375 0.5 4.025
2 0.4375 3.9625
1.9375 0.4375 4.025
1.9375 0.5 3.9625
1.9375 0.4375 3.9625
2.125 0.4375 4.025
2.125 0.5 3.9625
2.0625 0.5 4.025
2.125 0.4375 3.9625
2.0625 0.4375 4.025
2.0625 0.5 3.9625
2.0625 0.4375 3.9625
2.25 0.4375 4.025
2.25 0.5 3.9625
2.1875 0.5 4.025
2.25 0.4375 3.9625
2.1875 0.4375 4.025
2.1875 0.5 3.9625
2.1875 0.4375 3.9625
2.375 0.4375 4.025
2.375 0.5 3.9625
2.3125 0.5 4.025
2.375 0.4375 3.9625
2.3125 0.4375 4.025
2.3125 0.5 3.9625
2.3125 0.4375 3.9625
2.5 0.4375 4.025
2.5 0.5 3.9625
2.4375 0.5 4.025
2.5 0.4375 3.9625
2.4375 0.4375 4.025
2.4375 0.5 3.9625
2.4375 0.4375 3.9625
2.625 0.4375 4.025
2.625 0.5 3.9625
2.5625 0.5 4.025
2.625 0.4375 3.9625
2.5625 0.4375 4.025
2.5625 0.5 3.9625
2.5625 0.4375 3.9625
2.75 0.4375 4.025
2.75 0.5 3.9625
2.6875 0.5 4.025
2.75 0.4375 3.9625
2.6875 0.4375 4.025
2.6875 0.5 3.9625
2.6875 0.4375 3.9625
2.875 0.4375 4.025
2.875 0.5 3.9625
2.8125 0.5 4.025
2.875 0.4375 3.9625
2.8125 0.4375 4.025
2.8125 0.5 3.9625
2.8125 0.4375 3.9625
3 0.4375 4.025
3 0.5 3.9625
2.9375 0.5 4.025
3 0.4375 3.9625
2.9375 0.4375 4.025
2.9375 0.5 3.9625
2.9375 0.4375 3.9625
3.125 0.4375 4.025
3.125 0.5 3.9625
3.0625 0.5 4.025
3.125 0.4375 3.9625
3.0625 0.4375 4.025
3.0625 0.5 3.9625
3.0625 0.4375 3.9625
3.25 0.4375 4.025
3.25 0.5 3.9625
3.1875 0.5 4.025
3.25 0.4375 3.9625
3.1875 0.4375 4.025
3.1875 0.5 3.9625
3.1875 0.4375 3.9625
3.375 0.4375 4.025
3.375 0.5 3.9625
3.3125 0.5 4.025
3.375 0.4375 3.9625
3.3125 0.4375 4.025
3.3125 0.5 3.9625
3.3125 0.4375 3.9625
3.5 0.4375 4.025
3.5 0.5 3.9625
3.4375 0.5 4.025
3.5 0.4375 3.9625
3.4375 0.4375 4.025
3.4375 0.5 3.9625
3.4375 0.4375 3.9625
3.625 0.4375 4.025
3.625 0.5 3.9625
3.5625 0.5 4.025
3.625 0.4375 3.9625
3.5625 0.4375 4.025
3.5625 0.5 3.9625
3.5625 0.4375 3.9625
3.75 0.4375 4.025
3.75 0.5 3.9625
3.6875 0.5 4.025
3.75 0.4375 3.9625
3.6875 0.4375 4.025
3.6875 0.5 3.9625
3.6875 0.4375 3.9625
3.875 0.4375 4.025
3.875 0.5 3.9625
3.8125 0.5 4.025
3.875 0.4375 3.9625
3.8125 0.4375 4.025
3.8125 0.5 3.9625
3.8125 0.4375 3.9625
4 0.4375 4.025
4 0.5 3.9625
3.9375 0.5 4.025
4 0.4375 3.9625
3.9375 0.4375 4.025
3.9375 0.5 3.9625
3.9375 0.4375 3.9625
0.125 0.5625 4.025
0 0.5625 4.025
0.125 0.625 3.9625
0.0625 0.625 4.025
0 0.625 3.9625
0.125 0.5625 3.9625
0.0625 0.5625 4.025
0 0.5625 3.9625
0.0625 0.625 3.9625
0.0625 0.5625 3.9625
0.25 0.5625 4.025
0.25 0.625 3.9625
0.1875 0.625 4.025
0.25 0.5625 3.9625
0.1875 0.5625 4.025
0.1875 0.625 3.9625
0.1875 0.5625 3.9625
0.375 0.5625 4.025
0.375 0.625 3.9625
0.3125 0.625 4.025
0.375 0.5625 3.9625
0.3125 0.5625 4.025
0.3125 0.625 3.9625
0.3125 0.5625 3.9625
0.5 0.5625 4.025
0.5 0.625 3.9625
0.4375 0.625 4.025
0.5 0.5625 3.9625
0.4375 0.5625 4.025
0.4375 0.625 3.9625
0.4375 0.5625 3.9625
0.625 0.5625 4.025
0.625 0.625 3.9625
0.5625 0.625 4.025
0.625 0.5625 3.9625
0.5625 0.5625 4.025
0.5625 0.625 3.9625
0.5625 0.5625 3.9625
0.75 0.5625 4.025
0.75 0.625 3.9625
0.6875 0.625 4.025
0.75 0.5625 3.9625
0.6875 0.5625 4.025
0.6875 0.625 3.9625
0.6875 0.5625 3.9625
0.875 0.5625 4.025
0.875 0.625 3.9625
0.8125 0.625 4.025
0.875 0.5625 3.9625
0.8125 0.5625 4.025
0.8125 0.625 3.9625
0.8125 0.5625 3.9625
1 0.5625 4.025
1 0.625 3.9625
0.9375 0.625 4.025
1 0.5625 3.9625
0.9375 0.5625 4.025
0.9375 0.625 3.9625
0.9375 0.5625 3.9625
1.125 0.5625 4.025
1.125 0.625 3.9625
1.0625 0.625 4.025
1.125 0.5625 3.9625
1.0625 0.5625 4.025
1.0625 0.625 3.9625
1.0625 0.5625 3.9625
1.25 0.5625 4.025
1.25 0.625 3.9625
1.1875 0.625 4.025
1.25 0.5625 3.9625
1.1875 0.5625 4.025
1.1875 0.625 3.9625
1.1875 0.5625 3.9625
1.375 0.5625 4.025
1.375 0.625 3.9625
1.3125 0.625 4.025
1.375 0.5625 3.9625
1.3125 0.5625 4.025
1.3125 0.625 3.9625
1.3125 0.5625 3.9625
1.5 0.5625 4.025
1.5 0.625 3.9625
1.4375 0.625 4.025
1.5 0.5625 3.9625
1.4375 0.5625 4.025
1.4375 0.625 3.9625
1.4375 0.5625 3.9625
1.625 0.5625 4.025
1.625 0.625 3.9625
1.5625 0.625 4.025
1.625 0.5625 3.9625
1.5625 0.5625 4.025
1.5625 0.625 3.9625
1.5625 0.5625 3.9625
1.75 0.5625 4.025
1.75 0.625 3.9625
1.6875 0.625 4.025
1.75 0.5625 3.9625
1.6875 0.5625 4.025
1.6875 0.625 3.9625
1.6875 0.5625 3.9625
1.875 0.5625 4.025
1.875 0.625 3.9625
1.8125 0.625 4.025
1.875 0.5625 3.9625
1.8125 0.5625 4.025
1.8125 0.625 3.9625
1.8125 0.5625 3.9625
2 0.5625 4.025
2 0.625 3.9625
1.9375 0.625 4.025
2 0.5625 3.9625
1.9375 0.5625 4.025
1.9375 0.625 3.9625
1.9375 0.5625 3.9625
2.125 0.5625 4.025
2.125 0.625 3.9625
2.0625 0.625 4.025
2.125 0.5625 3.9625
2.0625 0.5625 4.025
2.0625 0.625 3.9625
2.0625 0.5625 3.9625
2.25 0.5625 4.025
2.25 0.625 3.9625
2.1875 0.625 4.025
2.25 0.5625 3.9625
2.1875 0.5625 4.025
2.1875 0.625 3.9625
2.1875 0.5625 3.9625
2.375 0.5625 4.025
2.375 0.625 3.9625
2.3125 0.625 4.025
2.375 0.5625 3.9625
2.3125 0.5625 4.025
2.3125 0.625 3.9625
2.3125 0.5625 3.9625
2.5 0.5625 4.025
2.5 0.625 3.9625
2.4375 0.625 4.025
2.5 0.5625 3.9625
2.4375 0.5625 4.025
2.4375 0.625 3.9625
2.4375 0.5625 3.9625
2.625 0.5625 4.025
2.625 0.625 3.9625
2.5625 0.625 4.025
2.625 0.5625 3.9625
2.5625 0.5625 4.025
2.5625 0.625 3.9625
2.5625 0.5625 3.9625
2.75 0.5625 4.025
2.75 0.625 3.9625
2.6875 0.625 4.025
2.75 0.5625 3.9625
2.6875 0.5625 4.025
2.6875 0.625 3.9625
2.6875 0.5625 3.9625
2.875 0.5625 4.025
2.875 0.625 3.9625
2.8125 0.625 4.025
2.875 0.5625 3.9625
2.8125 0.5625 4.025
2.8125 0.625 3.9625
2.8125 0.5625 3.9625
3 0.5625 4.025
3 0.625 3.9625
2.9375 0.625 4.025
3 0.5625 3.9625
2.9375 0.5625 4.025
2.9375 0.625 3.9625
2.9375 0.5625 3.9625
3.125 0.5625 4.025
3.125 0.625 3.9625
3.0625 0.625 4.025
3.125 0.5625 3.9625
3.0625 0.5625 4.025
3.0625 0.625 3.9625
3.0625 0.5625 3.9625
3.25 0.5625 4.025
3.25 0.625 3.9625
3.1875 0.625 4.025
3.25 0.5625 3.9625
3.1875 0.5625 4.025
3.1875 0.625 3.9625
3.1875 0.5625 3.9625
3.375 0.5625 4.025
3.375 0.625 3.9625
3.3125 0.625 4.025
3.375 0.5625 3.9625
3.3125 0.5625 4.025
3.3125 0.625 3.9625
3.3125 0.5625 3.9625
3.5 0.5625 4.025
3.5 0.625 3.9625
3.4375 0.625 4.025
3.5 0.5625 3.9625
3.4375 0.5625 4.025
3.4375 0.625 3.9625
3.4375 0.5625 3.9625
3.625 0.5625 4.025
3.625 0.625 3.9625
3.5625 0.625 4.025
3.625 0.5625 3.9625
3.5625 0.5625 4.025
3.5625 0.625 3.9625
3.5625 0.5625 3.9625
3.75 0.5625 4.025
3.75 0.625 3.9625
3.6875 0.625 4.025
3.75 0.5625 3.9625
3.6875 0.5625 4.025
3.6875 0.625 3.9625
3.6875 0.5625 3.9625
3.875 0.5625 4.025
3.875 0.625 3.9625
3.8125 0.625 4.025
3.875 0.5625 3.9625
3.8125 0.5625 4.025
3.8125 0.625 3.9625
3.8125 0.5625 3.9625
4 0.5625 4.025
4 0.625 3.9625
3.9375 0.625 4.025
4 0.5625 3.9625
3.9375 0.5625 4.025
3.9375 0.625 3.9625
3.9375 0.5625 3.9625
0.125 0.6875 4.025
0 0.6875 4.025
0.125 0.75 3.9625
0.0625 0.75 4.025
0 0.75 3.9625
0.125 0.6875 3.9625
0.0625 0.6875 4.025
0 0.6875 3.9625
0.0625 0.75 3.9625
0.0625 0.6875 3.9625
0.25 0.6875 4.025
0.25 0.75 3.9625
0.1875 0.75 4.025
0.25 0.6875 3.9625
0.1875 0.6875 4.025
0.1875 0.75 3.9625
0.1875 0.6875 3.9625
0.375 0.6875 4.025
0.375 0.75 3.9625
0.3125 0.75 4.025
0.375 0.6875 3.9625
0.3125 0.6875 4.025
0.3125 0.75 3.9625
0.3125 0.6875 3.9625
0.5 0.6875 4.025
0.5 0.75 3.9625
0.4375 0.75 4.025
0.5 0.6875 3.9625
0.4375 0.6875 4.025
0.4375 0.75 3.9625
0.4375 0.6875 3.9625
0.625 0.6875 4.025
0.625 0.75 3.9625
0.5625 0.75 4.025
0.625 0.6875 3.9625
0.5625 0.6875 4.025
0.5625 0.75 3.9625
0.5625 0.6875 3.9625
0.75 0.6875 4.025
0.75 0.75 3.9625
0.6875 0.75 4.025
0.75 0.6875 3.9625
0.6875 0.6875 4.025
0.6875 0.75 3.9625
0.6875 0.6875 3.9625
0.875 0.6875 4.025
0.875 0.75 3.9625
0.8125 0.75 4.025
0.875 0.6875 3.9625
0.8125 0.6875 4.025
0.8125 0.75 3.9625
0.8125 0.6875 3.9625
1 0.6875 4.025
1 0.75 3.9625
0.9375 0.75 4.025
1 0.6875 3.9625
0.9375 0.6875 4.025
0.9375 0.75 3.9625
0.9375 0.6875 3.9625
1.125 0.6875 4.025
1.125 0.75 3.9625
1.0625 0.75 4.025
1.125 0.6875 3.9625
1.0625 0.6875 4.025
1.0625 0.75 3.9625
1.0625 0.6875 3.9625
1.25 0.6875 4.025
1.25 0.75 3.9625
1.1875 0.75 4.025
1.25 0.6875 3.9625
1.1875 0.6875 4.025
1.1875 0.75 3.9625
1.1875 0.6875 3.9625
1.375 0.6875 4.025
1.375 0.75 3.9625
1.3125 0.75 4.025
1.375 0.6875 3.9625
1.3125 0.6875 4.025
1.3125 0.75 3.9625
1.3125 0.6875 3.9625
1.5 0.6875 4.025
1.5 0.75 3.9625
1.4375 0.75 4.025
1.5 0.6875 3.9625
1.4375 0.6875 4.025
1.4375 0.75 3.9625
1.4375 0.6875 3.9625
1.625 0.6875 4.025
1.625 0.75 3.9625
1.5625 0.75 4.025
1.625 0.6875 3.9625
1.5625 0.6875 4.025
1.5625 0.75 3.9625
1.5625 0.6875 3.9625
1.75 0.6875 4.025
1.75 0.75 3.9625
1.6875 0.75 4.025
1.75 0.6875 3.9625
1.6875 0.6875 4.025
1.6875 0.75 3.9625
1.6875 0.6875 3.9625
1.875 0.6875 4.025
1.875 0.75 3.9625
1.8125 0.75 4.025
1.875 0.6875 3.9625
1.8125 0.6875 4.025
1.8125 0.75 3.9625
1.8125 0.6875 3.9625
2 0.6875 4.025
2 0.75 3.9625
1.9375 0.75 4.025
2 0.6875 3.9625
1.9375 0.6875 4.025
1.9375 0.75 3.9625
1.9375 0.6875 3.9625
2.125 0.6875 4.025
2.125 0.75 3.9625
2.0625 0.75 4.025
2.125 0.6875 3.9625
2.0625 0.6875 4.025
2.0625 0.75 3.9625
2.0625 0.6875 3.9625
2.25 0.6875 4.025
2.25 0.75 3.9625
2.1875 0.75 4.025
2.25 0.6875 3.9625
2.1875 0.6875 4.025
2.1875 0.75 3.9625
2.1875 0.6875 3.9625
2.375 0.6875 4.025
2.375 0.75 3.9625
2.3125 0.75 4.025
2.375 0.6875 3.9625
2.3125 0.6875 4.025
2.3125 0.75 3.9625
2.3125 0.6875 3.9625
2.5 0.6875 4.025
2.5 0.75 3.9625
2.4375 0.75 4.025
2.5 0.6875 3.9625
2.4375 0.6875 4.025
2.4375 0.75 3.9625
2.4375 0.6875 3.9625
2.625 0.6875 4.025
2.625 0.75 3.9625
2.5625 0.75 4.025
2.625 0.6875 3.9625
2.5625 0.6875 4.025
2.5625 0.75 3.9625
2.5625 0.6875 3.9625
2.75 0.6875 4.025
2.75 0.75 3.9625
2.6875 0.75 4.025
2.75 0.6875 3.9625
2.6875 0.6875 4.025
2.6875 0.75 3.9625
2.6875 0.6875 3.9625
2.875 0.6875 4.025
2.875 0.75 3.9625
2.8125 0.75 4.025
2.875 0.6875 3.9625
2.8125 0.6875 4.025
2.8125 0.75 3.9625
2.8125 0.6875 3.9625
3 0.6875 4.025
3 0.75 3.9625
2.9375 0.75 4.025
3 0.6875 3.9625
2.9375 0.6875 4.025
2.9375 0.75 3.9625
2.9375 0.6875 3.9625
3.125 0.6875 4.025
3.125 0.75 3.9625
3.0625 0.75 4.025
3.125 0.6875 3.9625
3.0625 0.6875 4.025
3.0625 0.75 3.9625
3.0625 0.6875 3.9625
3.25 0.6875 4.025
3.25 0.75 3.9625
3.1875 0.75 4.025
3.25 0.6875 3.9625
3.1875 0.6875 4.025
3.1875 0.75 3.9625
3.1875 0.6875 3.9625
3.375 0.6875 4.025
3.375 0.75 3.9625
3.3125 0.75 4.025
3.375 0.6875 3.9625
3.3125 0.6875 4.025
3.3125 0.75 3.9625
3.3125 0.6875 3.9625
3.5 0.6875 4.025
3.5 0.75 3.9625
3.4375 0.75 4.025
3.5 0.6875 3.9625
3.4375 0.6875 4.025
3.4375 0.75 3.9625
3.4375 0.6875 3.9625
3.625 0.6875 4.025
3.625 0.75 3.9625
3.5625 0.75 4.025
3.625 0.6875 3.9625
3.5625 0.6875 4.025
3.5625 0.75 3.9625
3.5625 0.6875 3.9625
3.75 0.6875 4.025
3.75 0.75 3.9625
3.6875 0.75 4.025
3.75 0.6875 3.9625
3.6875 0.6875 4.025
3.6875 0.75 3.9625
3.6875 0.6875 3.9625
3.875 0.6875 4.025
3.875 0.75 3.9625
3.8125 0.75 4.025
3.875 0.6875 3.9625
3.8125 0.6875 4.025
3.8125 0.75 3.9625
3.8125 0.6875 3.9625
4 0.6875 4.025
4 0.75 3.9625
3.9375 0.75 4.025
4 0.6875 3.9625
3.9375 0.6875 4.025
3.9375 0.75 3.9625
3.9375 0.6875 3.9625
0.125 0.8125 4.025
0 0.8125 4.025
0.125 0.875 3.9625
0.0625 0.875 4.025
0 0.875 3.9625
0.125 0.8125 3.9625
0.0625 0.8125 4.025
0 0.8125 3.9625
0.0625 0.875 3.9625
0.0625 0.8125 3.9625
0.25 0.8125 4.025
0.25 0.875 3.9625
0.1875 0.875 4.025
0.25 0.8125 3.9625
0.1875 0.8125 4.025
0.1875 0.875 3.9625
0.1875 0.8125 3.9625
0.375 0.8125 4.025
0.375 0.875 3.9625
0.3125 0.875 4.025
0.375 0.8125 3.9625
0.3125 0.8125 4.025
0.3125 0.875 3.9625
0.3125 0.8125 3.9625
0.5 0.8125 4.025
0.5 0.875 3.9625
0.4375 0.875 4.025
0.5 0.8125 3.9625
0.4375 0.8125 4.025
0.4375 0.875 3.9625
0.4375 0.8125 3.9625
0.625 0.8125 4.025
0.625 0.875 3.9625
0.5625 0.875 4.025
0.625 0.8125 3.9625
0.5625 0.8125 4.025
0.5625 0.875 3.9625
0.5625 0.8125 3.9625
0.75 0.8125 4.025
0.75 0.875 3.9625
0.6875 0.875 4.025
0.75 0.8125 3.9625
0.6875 0.8125 4.025
0.6875 0.875 3.9625
0.6875 0.8125 3.9625
0.875 0.8125 4.025
0.875 0.875 3.9625
0.8125 0.875 4.025
0.875 0.8125 3.9625
0.8125 0.8125 4.025
0.8125 0.875 3.9625
0.8125 0.8125 3.9625
1 0.8125 4.025
1 0.875 3.9625
0.9375 0.875 4.025
1 0.8125 3.9625
0.9375 0.8125 4.025
0.9375 0.875 3.9625
0.9375 0.8125 3.9625
1.125 0.8125 4.025
1.125 0.875 3.9625
1.0625 0.875 4.025
1.125 0.8125 3.9625
1.0625 0.8125 4.025
1.0625 0.875 3.9625
1.0625 0.8125 3.9625
1.25 0.8125 4.025
1.25 0.875 3.9625
1.1875 0.875 4.025
1.25 0.8125 3.9625
1.1875 0.8125 4.025
1.1875 0.875 3.9625
1.1875 0.8125 3.9625
1.375 0.8125 4.025
1.375 0.875 3.9625
1.3125 0.875 4.025
1.375 0.8125 3.9625
1.3125 0.8125 4.025
1.3125 0.875 3.9625
1.3125 0.8125 3.9625
1.5 0.8125 4.025
1.5 0.875 3.9625
1.4375 0.875 4.025
1.5 0.8125 3.9625
1.4375 0.8125 4.025
1.4375 0.875 3.9625
1.4375 0.8125 3.9625
1.625 0.8125 4.025
1.625 0.875 3.9625
1.5625 0.875 4.025
1.625 0.8125 3.9625
1.5625 0.8125 4.025
1.5625 0.875 3.9625
1.5625 0.8125 3.9625
1.75 0.8125 4.025
1.75 0.875 3.9625
1.6875 0.875 4.025
1.75 0.8125 3.9625
1.6875 0.8125 4.025
1.6875 0.875 3.9625
1.6875 0.8125 3.9625
1.875 0.8125 4.025
1.875 0.875 3.9625
1.8125 0.875 4.025
1.875 0.8125 3.9625
1.8125 0.8125 4.025
1.8125 0.875 3.9625
1.8125 0.8125 3.9625
2 0.8125 4.025
2 0.875 3.9625
1.9375 0.875 4.025
2 0.8125 3.9625
1.9375 0.8125 4.025
1.9375 0.875 3.9625
1.9375 0.8125 3.9625
2.125 0.8125 4.025
2.125 0.875 3.9625
2.0625 0.875 4.025
2.125 0.8125 3.9625
2.0625 0.8125 4.025
2.0625 0.875 3.9625
2.0625 0.8125 3.9625
2.25 0.8125 4.025
2.25 0.875 3.9625
2.1875 0.875 4.025
2.25 0.8125 3.9625
2.1875 0.8125 4.025
2.1875 0.875 3.9625
2.1875 0.8125 3.9625
2.375 0.8125 4.025
2.375 0.875 3.9625
2.3125 0.875 4.025
2.375 0.8125 3.9625
2.3125 0.8125 4.025
2.3125 0.875 3.9625
2.3125 0.8125 3.9625
2.5 0.8125 4.025
2.5 0.875 3.9625
2.4375 0.875 4.025
2.5 0.8125 3.9625
2.4375 0.8125 4.025
2.4375 0.875 3.9625
2.4375 0.8125 3.9625
2.625 0.8125 4.025
2.625 0.875 3.9625
2.5625 0.875 4.025
2.625 0.8125 3.9625
2.5625 0.8125 4.025
2.5625 0.875 3.9625
2.5625 0.8125 3.9625
2.75 0.8125 4.025
2.75 0.875 3.9625
2.6875 0.875 4.025
2.75 0.8125 3.9625
2.6875 0.8125 4.025
2.6875 0.875 3.9625
2.6875 0.8125 3.9625
2.875 0.8125 4.025
2.875 0.875 3.9625
2.8125 0.875 4.025
2.875 0.8125 3.9625
2.8125 0.8125 4.025
2.8125 0.875 3.9625
2.8125 0.8125 3.9625
3 0.8125 4.025
3 0.875 3.9625
2.9375 0.875 4.025
3 0.8125 3.9625
2.9375 0.8125 4.025
2.9375 0.875 3.9625
2.9375 0.8125 3.9625
3.125 0.8125 4.025
3.125 0.875 3.9625
3.0625 0.875 4.025
3.125 0.8125 3.9625
3.0625 0.8125 4.025
3.0625 0.875 3.9625
3.0625 0.8125 3.9625
3.25 0.8125 4.025
3.25 0.875 3.9625
3.1875 0.875 4.025
3.25 0.8125 3.9625
3.1875 0.8125 4.025
3.1875 0.875 3.9625
3.1875 0.8125 3.9625
3.375 0.8125 4.025
3.375 0.875 3.9625
3.3125 0.875 4.025
3.375 0.8125 3.9625
3.3125 0.8125 4.025
3.3125 0.875 3.9625
3.3125 0.8125 3.9625
3.5 0.8125 4.025
3.5 0.875 3.9625
3.4375 0.875 4.025
3.5 0.8125 3.9625
3.4375 0.8125 4.025
3.4375 0.875 3.9625
3.4375 0.8125 3.9625
3.625 0.8125 4.025
3.625 0.875 3.9625
3.5625 0.875 4.025
3.625 0.8125 3.9625
3.5625 0.8125 4.025
3.5625 0.875 3.9625
3.5625 0.8125 3.9625
3.75 0.8125 4.025
3.75 0.875 3.9625
3.6875 0.875 4.025
3.75 0.8125 3.9625
3.6875 0.8125 4.025
3.6875 0.875 3.9625
3.6875 0.8125 3.9625
3.875 0.8125 4.025
3.875 0.875 3.9625
3.8125 0.875 4.025
3.875 0.8125 3.9625
3.8125 0.8125 4.025
3.8125 0.875 3.9625
3.8125 0.8125 3.9625
4 0.8125 4.025
4 0.875 3.9625
3.9375 0.875 4.025
4 0.8125 3.9625
3.9375 0.8125 4.025
3.9375 0.875 3.9625
3.9375 0.8125 3.9625
0.125 0.9375 4.025
0 0.9375 4.025
0.125 1 3.9625
0.0625 1 4.025
0 1 3.9625
0.125 0.9375 3.9625
0.0625 0.9375 4.025
0 0.9375 3.9625
0.0625 1 3.9625
0.0625 0.9375 3.9625
0.25 0.9375 4.025
0.25 1 3.9625
0.1875 1 4.025
0.25 0.9375 3.9625
0.1875 0.9375 4.025
0.1875 1 3.9625
0.1875 0.9375 3.9625
0.375 0.9375 4.025
0.375 1 3.9625
0.3125 1 4.025
0.375 0.9375 3.9625
0.3125 0.9375 4.025
0.3125 1 3.9625
0.3125 0.9375 3.9625
0.5 0.9375 4.025
0.5 1 3.9625
0.4375 1 4.025
0.5 0.9375 3.9625
0.4375 0.9375 4.025
0.4375 1 3.9625
0.4375 0.9375 3.9625
0.625 0.9375 4.025
0.625 1 3.9625
0.5625 1 4.025
0.625 0.9375 3.9625
0.5625 0.9375 4.025
0.5625 1 3.9625
0.5625 0.9375 3.9625
0.75 0.9375 4.025
0.75 1 3.9625
0.6875 1 4.025
0.75 0.9375 3.9625
0.6875 0.9375 4.025
0.6875 1 3.9625
0.6875 0.9375 3.9625
0.875 0.9375 4.025
0.875 1 3.9625
0.8125 1 4.025
0.875 0.9375 3.9625
0.8125 0.9375 4.025
0.8125 1 3.9625
0.8125 0.9375 3.9625
1 0.9375 4.025
1 1 3.9625
0.9375 1 4.025
1 0.9375 3.9625
0.9375 0.9375 4.025
0.9375 1 3.9625
0.9375 0.9375 3.9625
1.125 0.9375 4.025
1.125 1 3.9625
1.0625 1 4.025
1.125 0.9375 3.9625
1.0625 0.9375 4.025
1.0625 1 3.9625
1.0625 0.9375 3.9625
1.25 0.9375 4.025
1.25 1 3.9625
1.1875 1 4.025
1.25 0.9375 3.9625
1.1875 0.9375 4.025
1.1875 1 3.9625
1.1875 0.9375 3.9625
1.375 0.9375 4.025
1.375 1 3.9625
1.3125 1 4.025
1.375 0.9375 3.9625
1.3125 0.9375 4.025
1.3125 1 3.9625
1.3125 0.9375 3.9625
1.5 0.9375 4.025
1.5 1 3.9625
1.4375 1 4.025
1.5 0.9375 3.9625
1.4375 0.9375 4.025
1.4375 1 3.9625
1.4375 0.9375 3.9625
1.625 0.9375 4.025
1.625 1 3.9625
1.5625 1 4.025
1.625 0.9375 3.9625
1.5625 0.9375 4.025
1.5625 1 3.9625
1.5625 0.9375 3.9625
1.75 0.9375 4.025
1.75 1 3.9625
1.6875 1 4.025
1.75 0.9375 3.9625
1.6875 0.9375 4.025
1.6875 1 3.9625
1.6875 0.9375 3.9625
1.875 0.9375 4.025
1.875 1 3.9625
1.8125 1 4.025
1.875 0.9375 3.9625
1.8125 0.9375 4.025
1.8125 1 3.9625
1.8125 0.9375 3.9625
2 0.9375 4.025
2 1 3.9625
1.9375 1 4.025
2 0.9375 3.9625
1.9375 0.9375 4.025
1.9375 1 3.9625
1.9375 0.9375 3.9625
2.125 0.9375 4.025
2.125 1 3.9625
2.0625 1 4.025
2.125 0.9375 3.9625
2.0625 0.9375 4.025
2.0625 1 3.9625
2.0625 0.9375 3.9625
2.25 0.9375 4.025
2.25 1 3.9625
2.1875 1 4.025
2.25 0.9375 3.9625
2.1875 0.9375 4.025
2.1875 1 3.9625
2.1875 0.9375 3.9625
2.375 0.9375 4.025
2.375 1 3.9625
2.3125 1 4.025
2.375 0.9375 3.9625
2.3125 0.9375 4.025
2.3125 1 3.9625
2.3125 0.9375 3.9625
2.5 0.9375 4.025
2.5 1 3.9625
2.4375 1 4.025
2.5 0.9375 3.9625
2.4375 0.9375 4.025
2.4375 1 3.9625
2.4375 0.9375 3.9625
2.625 0.9375 4.025
2.625 1 3.9625
2.5625 1 4.025
2.625 0.9375 3.9625
2.5625 0.9375 4.025
2.5625 1 3.9625
2.5625 0.9375 3.9625
2.75 0.9375 4.025
2.75 1 3.9625
2.6875 1 4.025
2.75 0.9375 3.9625
2.6875 0.9375 4.025
2.6875 1 3.9625
2.6875 0.9375 3.9625
2.875 0.9375 4.025
2.875 1 3.9625
2.8125 1 4.025
2.875 0.9375 3.9625
2.8125 0.9375 4.025
2.8125 1 3.9625
2.8125 0.9375 3.9625
3 0.9375 4.025
3 1 3.9625
2.9375 1 4.025
3 0.9375 3.9625
2.9375 0.9375 4.025
2.9375 1 3.9625
2.9375 0.9375 3.9625
3.125 0.9375 4.025
3.125 1 3.9625
3.0625 1 4.025
3.125 0.9375 3.9625
3.0625 0.9375 4.025
3.0625 1 3.9625
3.0625 0.9375 3.9625
3.25 0.9375 4.025
3.25 1 3.9625
3.1875 1 4.025
3.25 0.9375 3.9625
3.1875 0.9375 4.025
3.1875 1 3.9625
3.1875 0.9375 3.9625
3.375 0.9375 4.025
3.375 1 3.9625
3.3125 1 4.025
3.375 0.9375 3.9625
3.3125 0.9375 4.025
3.3125 1 3.9625
3.3125 0.9375 3.9625
3.5 0.9375 4.025
3.5 1 3.9625
3.4375 1 4.025
3.5 0.9375 3.9625
3.4375 0.9375 4.025
3.4375 1 3.9625
3.4375 0.9375 3.9625
3.625 0.9375 4.025
3.625 1 3.9625
3.5625 1 4.025
3.625 0.9375 3.9625
3.5625 0.9375 4.025
3.5625 1 3.9625
3.5625 0.9375 3.9625
3.75 0.9375 4.025
3.75 1 3.9625
3.6875 1 4.025
3.75 0.9375 3.9625
3.6875 0.9375 4.025
3.6875 1 3.9625
3.6875 0.9375 3.9625
3.875 0.9375 4.025
3.875 1 3.9625
3.8125 1 4.025
3.875 0.9375 3.9625
3.8125 0.9375 4.025
3.8125 1 3.9625
3.8125 0.9375 3.9625
4 0.9375 4.025
4 1 3.9625
3.9375 1 4.025
4 0.9375 3.9625
3.9375 0.9375 4.025
3.9375 1 3.9625
3.9375 0.9375 3.9625
0.125 0 4.0875
0.0625 0 4.15
0 0 4.0875
0.125 0.0625 4.15
0 0.0625 4.15
0.125 0.125 4.0875
0.0625 0.125 4.15
0 0.125 4.0875
0.0625 0 4.0875
0.125 0.0625 4.0875
0.0625 0.0625 4.15
0 0.0625 4.0875
0.0625 0.125 4.0875
0.0625 0.0625 4.0875
0.25 0 4.0875
0.1875 0 4.15
0.25 0.0625 4.15
0.25 0.125 4.0875
0.1875 0.125 4.15
0.1875 0 4.0875
0.25 0.0625 4.0875
0.1875 0.0625 4.15
0.1875 0.125 4.0875
0.1875 0.0625 4.0875
0.375 0 4.0875
0.3125 0 4.15
0.375 0.0625 4.15
0.375 0.125 4.0875
0.3125 0.125 4.15
0.3125 0 4.0875
0.375 0.0625 4.0875
0.3125 0.0625 4.15
0.3125 0.125 4.0875
0.3125 0.0625 4.0875
0.5 0 4.0875
0.4375 0 4.15
0.5 0.0625 4.15
0.5 0.125 4.0875
0.4375 0.125 4.15
0.4375 0 4.0875
0.5 0.0625 4.0875
0.4375 0.0625 4.15
0.4375 0.125 4.0875
0.4375 0.0625 4.0875
0.625 0 4.0875
0.5625 0 4.15
0.625 0.0625 4.15
0.625 0.125 4.0875
0.5625 0.125 4.15
0.5625 0 4.0875
0.625 0.0625 4.0875
0.5625 0.0625 4.15
0.5625 0.125 4.0875
0.5625 0.0625 4.0875
0.75 0 4.0875
0.6875 0 4.15
0.75 0.0625 4.15
0.75 0.125 4.0875
0.6875 0.125 4.15
0.6875 0 4.0875
0.75 0.0625 4.0875
0.6875 0.0625 4.15
0.6875 0.125 4.0875
0.6875 0.0625 4.0875
0.875 0 4.0875
0.8125 0 4.15
0.875 0.0625 4.15
0.875 0.125 4.0875
0.8125 0.125 4.15
0.8125 0 4.0875
0.875 0.0625 4.0875
0.8125 0.0625 4.15
0.8125 0.125 4.0875
0.8125 0.0625 4.0875
1 0 4.0875
0.9375 0 4.15
1 0.0625 4.15
1 0.125 4.0875
0.9375 0.125 4.15
0.9375 0 4.0875
1 0.0625 4.0875
0.9375 0.0625 4.15
0.9375 0.125 4.0875
0.9375 0.0625 4.0875
1.125 0 4.0875
1.0625 0 4.15
1.125 0.0625 4.15
1.125 0.125 4.0875
1.0625 0.125 4.15
1.0625 0 4.0875
1.125 0.0625 4.0875
1.0625 0.0625 4.15
1.0625 0.125 4.0875
1.0625 0.0625 4.0875
1.25 0 4.0875
1.1875 0 4.15
1.25 0.0625 4.15
1.25 0.125 4.0875
1.1875 0.125 4.15
1.1875 0 4.0875
1.25 0.0625 4.0875
1.1875 0.0625 4.15
1.1875 0.125 4.0875
1.1875 0.0625 4.0875
1.375 0 4.0875
1.3125 0 4.15
1.375 0.0625 4.15
1.375 0.125 4.0875
1.3125 0.125 4.15
1.3125 0 4.0875
1.375 0.0625 4.0875
1.3125 0.0625 4.15
1.3125 0.125 4.0875
1.3125 0.0625 4.0875
1.5 0 4.0875
1.4375 0 4.15
1.5 0.0625 4.15
1.5 0.125 4.0875
1.4375 0.125 4.15
1.4375 0 4.0875
1.5 0.0625 4.0875
1.4375 0.0625 4.15
1.4375 0.125 4.0875
1.4375 0.0625 4.0875
1.625 0 4.0875
1.5625 0 4.15
1.625 0.0625 4.15
1.625 0.125 4.0875
1.5625 0.125 4.15
1.5625 0 4.0875
1.625 0.0625 4.0875
1.5625 0.0625 4.15
1.5625 0.125 4.0875
1.5625 0.0625 4.0875
1.75 0 4.0875
1.6875 0 4.15
1.75 0.0625 4.15
1.75 0.125 4.0875
1.6875 0.125 4.15
1.6875 0 4.0875
1.75 0.0625 4.0875
1.6875 0.0625 4.15
1.6875 0.125 4.0875
1.6875 0.0625 4.0875
1.875 0 4.0875
1.8125 0 4.15
1.875 0.0625 4.15
1.875 0.125 4.0875
1.8125 0.125 4.15
1.8125 0 4.0875
1.875 0.0625 4.0875
1.8125 0.0625 4.15
1.8125 0.125 4.0875
1.8125 0.0625 4.0875
2 0 4.0875
1.9375 0 4.15
2 0.0625 4.15
2 0.125 4.0875
1.9375 0.125 4.15
1.9375 0 4.0875
2 0.0625 4.0875
1.9375 0.0625 4.15
1.9375 0.125 4.0875
1.9375 0.0625 4.0875
2.125 0 4.0875
2.0625 0 4.15
2.125 0.0625 4.15
2.125 0.125 4.0875
2.0625 0.125 4.15
2.0625 0 4.0875
2.125 0.0625 4.0875
2.0625 0.0625 4.15
2.0625 0.125 4.0875
2.0625 0.0625 4.0875
2.25 0 4.0875
2.1875 0 4.15
2.25 0.0625 4.15
2.25 0.125 4.0875
2.1875 0.125 4.15
2.1875 0 4.0875
2.25 0.0625 4.0875
2.1875 0.0625 4.15
2.1875 0.125 4.0875
2.1875 0.0625 4.0875
2.375 0 4.0875
2.3125 0 4.15
2.375 0.0625 4.15
2.375 0.125 4.0875
2.3125 0.125 4.15
2.3125 0 4.0875
2.375 0.0625 4.0875
2.3125 0.0625 4.15
2.3125 0.125 4.0875
2.3125 0.0625 4.0875
2.5 0 4.0875
2.4375 0 4.15
2.5 0.0625 4.15
2.5 0.125 4.0875
2.4375 0.125 4.15
2.4375 0 4.0875
2.5 0.0625 4.0875
2.4375 0.0625 4.15
2.4375 0.125 4.0875
2.4375 0.0625 4.0875
2.625 0 4.0875
2.5625 0 4.15
2.625 0.0625 4.15
2.625 0.125 4.0875
2.5625 0.125 4.15
2.5625 0 4.0875
2.625 0.0625 4.0875
2.5625 0.0625 4.15
2.5625 0.125 4.0875
2.5625 0.0625 4.0875
2.75 0 4.0875
2.6875 0 4.15
2.75 0.0625 4.15
2.75 0.125 4.0875
2.6875 0.125 4.15
2.6875 0 4.0875
2.75 0.0625 4.0875
2.6875 0.0625 4.15
2.6875 0.125 4.0875
2.6875 0.0625 4.0875
2.875 0 4.0875
2.8125 0 4.15
2.875 0.0625 4.15
2.875 0.125 4.0875
2.8125 0.125 4.15
2.8125 0 4.0875
2.875 0.0625 4.0875
2.8125 0.0625 4.15
2.8125 0.125 4.0875
2.8125 0.0625 4.0875
3 0 4.0875
2.9375 0 4.15
3 0.0625 4.15
3 0.125 4.0875
2.9375 0.125 4.15
2.9375 0 4.0875
3 0.0625 4.0875
2.9375 0.0625 4.15
2.9375 0.125 4.0875
2.9375 0.0625 4.0875
3.125 0 4.0875
3.0625 0 4.15
3.125 0.0625 4.15
3.125 0.125 4.0875
3.0625 0.125 4.15
3.0625 0 4.0875
3.125 0.0625 4.0875
3.0625 0.0625 4.15
3.0625 0.125 4.0875
3.0625 0.0625 4.0875
3.25 0 4.0875
3.1875 0 4.15
3.25 0.0625 4.15
3.25 0.125 4.0875
3.1875 0.125 4.15
3.1875 0 4.0875
3.25 0.0625 4.0875
3.1875 0.0625 4.15
3.1875 0.125 4.0875
3.1875 0.0625 4.0875
3.375 0 4.0875
3.3125 0 4.15
3.375 0.0625 4.15
3.375 0.125 4.0875
3.3125 0.125 4.15
3.3125 0 4.0875
3.375 0.0625 4.0875
3.3125 0.0625 4.15
3.3125 0.125 4.0875
3.3125 0.0625 4.0875
3.5 0 4.0875
3.4375 0 4.15
3.5 0.0625 4.15
3.5 0.125 4.0875
3.4375 0.125 4.15
3.4375 0 4.0875
3.5 0.0625 4.0875
3.4375 0.0625 4.15
3.4375 0.125 4.0875
3.4375 0.0625 4.0875
3.625 0 4.0875
3.5625 0 4.15
3.625 0.0625 4.15
3.625 0.125 4.0875
3.5625 0.125 4.15
3.5625 0 4.0875
3.625 0.0625 4.0875
3.5625 0.0625 4.15
3.5625 0.125 4.0875
3.5625 0.0625 4.0875
3.75 0 4.0875
3.6875 0 4.15
3.75 0.0625 4.15
3.75 0.125 4.0875
3.6875 0.125 4.15
3.6875 0 4.0875
3.75 0.0625 4.0875
3.6875 0.0625 4.15
3.6875 0.125 4.0875
3.6875 0.0625 4.0875
3.875 0 4.0875
3.8125 0 4.15
3.875 0.0625 4.15
3.875 0.125 4.0875
3.8125 0.125 4.15
3.8125 0 4.0875
3.875 0.0625 4.0875
3.8125 0.0625 4.15
3.8125 0.125 4.0875
3.8125 0.0625 4.0875
4 0 4.0875
3.9375 0 4.15
4 0.0625 4.15
4 0.125 4.0875
3.9375 0.125 4.15
3.9375 0 4.0875
4 0.0625 4.0875
3.9375 0.0625 4.15
3.9375 0.125 4.0875
3.9375 0.0625 4.0875
0.125 0.1875 4.15
0 0.1875 4.15
0.125 0.25 4.0875
0.0625 0.25 4.15
0 0.25 4.0875
0.125 0.1875 4.0875
0.0625 0.1875 4.15
0 0.1875 4.0875
0.0625 0.25 4.0875
0.0625 0.1875 4.0875
0.25 0.1875 4.15
0.25 0.25 4.0875
0.1875 0.25 4.15
0.25 0.1875 4.0875
0.1875 0.1875 4.15
0.1875 0.25 4.0875
0.1875 0.1875 4.0875
0.375 0.1875 4.15
0.375 0.25 4.0875
0.3125 0.25 4.15
0.375 0.1875 4.0875
0.3125 0.1875 4.15
0.3125 0.25 4.0875
0.3125 0.1875 4.0875
0.5 0.1875 4.15
0.5 0.25 4.0875
0.4375 0.25 4.15
0.5 0.1875 4.0875
0.4375 0.1875 4.15
0.4375 0.25 4.0875
0.4375 0.1875 4.0875
0.625 0.1875 4.15
0.625 0.25 4.0875
0.5625 0.25 4.15
0.625 0.1875 4.0875
0.5625 0.1875 4.15
0.5625 0.25 4.0875
0.5625 0.1875 4.0875
0.75 0.1875 4.15
0.75 0.25 4.0875
0.6875 0.25 4.15
0.75 0.1875 4.0875
0.6875 0.1875 4.15
0.6875 0.25 4.0875
0.6875 0.1875 4.0875
0.875 0.1875 4.15
0.875 0.25 4.0875
0.8125 0.25 4.15
0.875 0.1875 4.0875
0.8125 0.1875 4.15
0.8125 0.25 4.0875
0.8125 0.1875 4.0875
1 0.1875 4.15
1 0.25 4.0875
0.9375 0.25 4.15
1 0.1875 4.0875
0.9375 0.1875 4.15
0.9375 0.25 4.0875
0.9375 0.1875 4.0875
1.125 0.1875 4.15
1.125 0.25 4.0875
1.0625 0.25 4.15
1.125 0.1875 4.0875
1.0625 0.1875 4.15
1.0625 0.25 4.0875
1.0625 0.1875 4.0875
1.25 0.1875 4.15
1.25 0.25 4.0875
1.1875 0.25 4.15
1.25 0.1875 4.0875
1.1875 0.1875 4.15
1.1875 0.25 4.0875
1.1875 0.1875 4.0875
1.375 0.1875 4.15
1.375 0.25 4.0875
1.3125 0.25 4.15
1.375 0.1875 4.0875
1.3125 0.1875 4.15
1.3125 0.25 4.0875
1.3125 0.1875 4.0875
1.5 0.1875 4.15
1.5 0.25 4.0875
1.4375 0.25 4.15
1.5 0.1875 4.0875
1.4375 0.1875 4.15
1.4375 0.25 4.0875
1.4375 0.1875 4.0875
1.625 0.1875 4.15
1.625 0.25 4.0875
1.5625 0.25 4.15
1.625 0.1875 4.0875
1.5625 0.1875 4.15
1.5625 0.25 4.0875
1.5625 0.1875 4.0875
1.75 0.1875 4.15
1.75 0.25 4.0875
1.6875 0.25 4.15
1.75 0.1875 4.0875
1.6875 0.1875 4.15
1.6875 0.25 4.0875
1.6875 0.1875 4.0875
1.875 0.1875 4.15
1.875 0.25 4.0875
1.8125 0.25 4.15
1.875 0.1875 4.0875
1.8125 0.1875 4.15
1.8125 0.25 4.0875
1.8125 0.1875 4.0875
2 0.1875 4.15
2 0.25 4.0875
1.9375 0.25 4.15
2 0.1875 4.0875
1.9375 0.1875 4.15
1.9375 0.25 4.0875
1.9375 0.1875 4.0875
2.125 0.1875 4.15
2.125 0.25 4.0875
2.0625 0.25 4.15
2.125 0.1875 4.0875
2.0625 0.1875 4.15
2.0625 0.25 4.0875
2.0625 0.1875 4.0875
2.25 0.1875 4.15
2.25 0.25 4.0875
2.1875 0.25 4.15
2.25 0.1875 4.0875
2.1875 0.1875 4.15
2.1875 0.25 4.0875
2.1875 0.1875 4.0875
2.375 0.1875 4.15
2.375 0.25 4.0875
2.3125 0.25 4.15
2.375 0.1875 4.0875
2.3125 0.1875 4.15
2.3125 0.25 4.0875
2.3125 0.1875 4.0875
2.5 0.1875 4.15
2.5 0.25 4.0875
2.4375 0.25 4.15
2.5 0.1875 4.0875
2.4375 0.1875 4.15
2.4375 0.25 4.0875
2.4375 0.1875 4.0875
2.625 0.1875 4.15
2.625 0.25 4.0875
2.5625 0.25 4.15
2.625 0.1875 4.0875
2.5625 0.1875 4.15
2.5625 0.25 4.0875
2.5625 0.1875 4.0875
2.75 0.1875 4.15
2.75 0.25 4.0875
2.6875 0.25 4.15
2.75 0.1875 4.0875
2.6875 0.1875 4.15
2.6875 0.25 4.0875
2.6875 0.1875 4.0875
2.875 0.1875 4.15
2.875 0.25 4.0875
2.8125 0.25 4.15
2.875 0.1875 4.0875
2.8125 0.1875 4.15
2.8125 0.25 4.0875
2.8125 0.1875 4.0875
3 0.1875 4.15
3 0.25 4.0875
2.9375 0.25 4.15
3 0.1875 4.0875
2.9375 0.1875 4.15
2.9375 0.25 4.0875
2.9375 0.1875 4.0875
3.125 0.1875 4.15
3.125 0.25 4.0875
3.0625 0.25 4.15
3.125 0.1875 4.0875
3.0625 0.1875 4.15
3.0625 0.25 4.0875
3.0625 0.1875 4.0875
3.25 0.1875 4.15
3.25 0.25 4.0875
3.1875 0.25 4.15
3.25 0.1875 4.0875
3.1875 0.1875 4.15
3.1875 0.25 4.0875
3.1875 0.1875 4.0875
3.375 0.1875 4.15
3.375 0.25 4.0875
3.3125 0.25 4.15
3.375 0.1875 4.0875
3.3125 0.1875 4.15
3.3125 0.25 4.0875
3.3125 0.1875 4.0875
3.5 0.1875 4.15
3.5 0.25 4.0875
3.4375 0.25 4.15
3.5 0.1875 4.0875
3.4375 0.1875 4.15
3.4375 0.25 4.0875
3.4375 0.1875 4.0875
3.625 0.1875 4.15
3.625 0.25 4.0875
3.5625 0.25 4.15
3.625 0.1875 4.0875
3.5625 0.1875 4.15
3.5625 0.25 4.0875
3.5625 0.1875 4.0875
3.75 0.1875 4.15
3.75 0.25 4.0875
3.6875 0.25 4.15
3.75 0.1875 4.0875
3.6875 0.1875 4.15
3.6875 0.25 4.0875
3.6875 0.1875 4.0875
3.875 0.1875 4.15
3.875 0.25 4.0875
3.8125 0.25 4.15
3.875 0.1875 4.0875
3.8125 0.1875 4.15
3.8125 0.25 4.0875
3.8125 0.1875 4.0875
4 0.1875 4.15
4 0.25 4.0875
3.9375 0.25 4.15
4 0.1875 4.0875
3.9375 0.1875 4.15
3.9375 0.25 4.0875
3.9375 0.1875 4.0875
0.125 0.3125 4.15
0 0.3125 4.15
0.125 0.375 4.0875
0.0625 0.375 4.15
0 0.375 4.0875
0.125 0.3125 4.0875
0.0625 0.3125 4.15
0 0.3125 4.0875
0.0625 0.375 4.0875
0.0625 0.3125 4.0875
0.25 0.3125 4.15
0.25 0.375 4.0875
0.1875 0.375 4.15
0.25 0.3125 4.0875
0.1875 0.3125 4.15
0.1875 0.375 4.0875
0.1875 0.3125 4.0875
0.375 0.3125 4.15
0.375 0.375 4.0875
0.3125 0.375 4.15
0.375 0.3125 4.0875
0.3125 0.3125 4.15
0.3125 0.375 4.0875
0.3125 0.3125 4.0875
0.5 0.3125 4.15
0.5 0.375 4.0875
0.4375 0.375 4.15
0.5 0.3125 4.0875
0.4375 0.3125 4.15
0.4375 0.375 4.0875
0.4375 0.3125 4.0875
0.625 0.3125 4.15
0.625 0.375 4.0875
0.5625 0.375 4.15
0.625 0.3125 4.0875
0.5625 0.3125 4.15
0.5625 0.375 4.0875
0.5625 0.3125 4.0875
0.75 0.3125 4.15
0.75 0.375 4.0875
0.6875 0.375 4.15
0.75 0.3125 4.0875
0.6875 0.3125 4.15
0.6875 0.375 4.0875
0.6875 0.3125 4.0875
0.875 0.3125 4.15
0.875 0.375 4.0875
0.8125 0.375 4.15
0.875 0.3125 4.0875
0.8125 0.3125 4.15
0.8125 0.375 4.0875
0.8125 0.3125 4.0875
1 0.3125 4.15
1 0.375 4.0875
0.9375 0.375 4.15
1 0.3125 4.0875
0.9375 0.3125 4.15
0.9375 0.375 4.0875
0.9375 0.3125 4.0875
1.125 0.3125 4.15
1.125 0.375 4.0875
1.0625 0.375 4.15
1.125 0.3125 4.0875
1.0625 0.3125 4.15
1.0625 0.375 4.0875
1.0625 0.3125 4.0875
1.25 0.3125 4.15
1.25 0.375 4.0875
1.1875 0.375 4.15
1.25 0.3125 4.0875
1.1875 0.3125 4.15
1.1875 0.375 4.0875
1.1875 0.3125 4.0875
1.375 0.3125 4.15
1.375 0.375 4.0875
1.3125 0.375 4.15
1.375 0.3125 4.0875
1.3125 0.3125 4.15
1.3125 0.375 4.0875
1.3125 0.3125 4.0875
1.5 0.3125 4.15
1.5 0.375 4.0875
1.4375 0.375 4.15
1.5 0.3125 4.0875
1.4375 0.3125 4.15
1.4375 0.375 4.0875
1.4375 0.3125 4.0875
1.625 0.3125 4.15
1.625 0.375 4.0875
1.5625 0.375 4.15
1.625 0.3125 4.0875
1.5625 0.3125 4.15
1.5625 0.375 4.0875
1.5625 0.3125 4.0875
1.75 0.3125 4.15
1.75 0.375 4.0875
1.6875 0.375 4.15
1.75 0.3125 4.0875
1.6875 0.3125 4.15
1.6875 0.375 4.0875
1.6875 0.3125 4.0875
1.875 0.3125 4.15
1.875 0.375 4.0875
1.8125 0.375 4.15
1.875 0.3125 4.0875
1.8125 0.3125 4.15
1.8125 0.375 4.0875
1.8125 0.3125 4.0875
2 0.3125 4.15
2 0.375 4.0875
1.9375 0.375 4.15
2 0.3125 4.0875
1.9375 0.3125 4.15
1.9375 0.375 4.0875
1.9375 0.3125 4.0875
2.125 0.3125 4.15
2.125 0.375 4.0875
2.0625 0.375 4.15
2.125 0.3125 4.0875
2.0625 0.3125 4.15
2.0625 0.375 4.0875
2.0625 0.3125 4.0875
2.25 0.3125 4.15
2.25 0.375 4.0875
2.1875 0.375 4.15
2.25 0.3125 4.0875
2.1875 0.3125 4.15
2.1875 0.375 4.0875
2.1875 0.3125 4.0875
2.375 0.3125 4.15
2.375 0.375 4.0875
2.3125 0.375 4.15
2.375 0.3125 4.0875
2.3125 0.3125 4.15
2.3125 0.375 4.0875
2.3125 0.3125 4.0875
2.5 0.3125 4.15
2.5 0.375 4.0875
2.4375 0.375 4.15
2.5 0.3125 4.0875
2.4375 0.3125 4.15
2.4375 0.375 4.0875
2.4375 0.3125 4.0875
2.625 0.3125 4.15
2.625 0.375 4.0875
2.5625 0.375 4.15
2.625 0.3125 4.0875
2.5625 0.3125 4.15
2.5625 0.375 4.0875
2.5625 0.3125 4.0875
2.75 0.3125 4.15
2.75 0.375 4.0875
2.6875 0.375 4.15
2.75 0.3125 4.0875
2.6875 0.3125 4.15
2.6875 0.375 4.0875
2.6875 0.3125 4.0875
2.875 0.3125 4.15
2.875 0.375 4.0875
2.8125 0.375 4.15
2.875 0.3125 4.0875
2.8125 0.3125 4.15
2.8125 0.375 4.0875
2.8125 0.3125 4.0875
3 0.3125 4.15
3 0.375 4.0875
2.9375 0.375 4.15
3 0.3125 4.0875
2.9375 0.3125 4.15
2.9375 0.375 4.0875
2.9375 0.3125 4.0875
3.125 0.3125 4.15
3.125 0.375 4.0875
3.0625 0.375 4.15
3.125 0.3125 4.0875
3.0625 0.3125 4.15
3.0625 0.375 4.0875
3.0625 0.3125 4.0875
3.25 0.3125 4.15
3.25 0.375 4.0875
3.1875 0.375 4.15
3.25 0.3125 4.0875
3.1875 0.3125 4.15
3.1875 0.375 4.0875
3.1875 0.3125 4.0875
3.375 0.3125 4.15
3.375 0.375 4.0875
3.3125 0.375 4.15
3.375 0.3125 4.0875
3.3125 0.3125 4.15
3.3125 0.375 4.0875
3.3125 0.3125 4.0875
3.5 0.3125 4.15
3.5 0.375 4.0875
3.4375 0.375 4.15
3.5 0.3125 4.0875
3.4375 0.3125 4.15
3.4375 0.375 4.0875
3.4375 0.3125 4.0875
3.625 0.3125 4.15
3.625 0.375 4.0875
3.5625 0.375 4.15
3.625 0.3125 4.0875
3.5625 0.3125 4.15
3.5625 0.375 4.0875
3.5625 0.3125 4.0875
3.75 0.3125 4.15
3.75 0.375 4.0875
3.6875 0.375 4.15
3.75 0.3125 4.0875
3.6875 0.3125 4.15
3.6875 0.375 4.0875
3.6875 0.3125 4.0875
3.875 0.3125 4.15
3.875 0.375 4.0875
3.8125 0.375 4.15
3.875 0.3125 4.0875
3.8125 0.3125 4.15
3.8125 0.375 4.0875
3.8125 0.3125 4.0875
4 0.3125 4.15
4 0.375 4.0875
3.9375 0.375 4.15
4 0.3125 4.0875
3.9375 0.3125 4.15
3.9375 0.375 4.0875
3.9375 0.3125 4.0875
0.125 0.4375 4.15
0 0.4375 4.15
0.125 0.5 4.0875
0.0625 0.5 4.15
0 0.5 4.0875
0.125 0.4375 4.0875
0.0625 0.4375 4.15
0 0.4375 4.0875
0.0625 0.5 4.0875
0.0625 0.4375 4.0875
0.25 0.4375 4.15
0.25 0.5 4.0875
0.1875 0.5 4.15
0.25 0.4375 4.0875
0.1875 0.4375 4.15
0.1875 0.5 4.0875
0.1875 0.4375 4.0875
0.375 0.4375 4.15
0.375 0.5 4.0875
0.3125 0.5 4.15
0.375 0.4375 4.0875
0.3125 0.4375 4.15
0.3125 0.5 4.0875
0.3125 0.4375 4.0875
0.5 0.4375 4.15
0.5 0.5 4.0875
0.4375 0.5 4.15
0.5 0.4375 4.0875
0.4375 0.4375 4.15
0.4375 0.5 4.0875
0.4375 0.4375 4.0875
0.625 0.4375 4.15
0.625 0.5 4.0875
0.5625 0.5 4.15
0.625 0.4375 4.0875
0.5625 0.4375 4.15
0.5625 0.5 4.0875
0.5625 0.4375 4.0875
0.75 0.4375 4.15
0.75 0.5 4.0875
0.6875 0.5 4.15
0.75 0.4375 4.0875
0.6875 0.4375 4.15
0.6875 0.5 4.0875
0.6875 0.4375 4.0875
0.875 0.4375 4.15
0.875 0.5 4.0875
0.8125 0.5 4.15
0.875 0.4375 4.0875
0.8125 0.4375 4.15
0.8125 0.5 4.0875
0.8125 0.4375 4.0875
1 0.4375 4.15
1 0.5 4.0875
0.9375 0.5 4.15
1 0.4375 4.0875
0.9375 0.4375 4.15
0.9375 0.5 4.0875
0.9375 0.4375 4.0875
1.125 0.4375 4.15
1.125 0.5 4.0875
1.0625 0.5 4.15
1.125 0.4375 4.0875
1.0625 0.4375 4.15
1.0625 0.5 4.0875
1.0625 0.4375 4.0875
1.25 0.4375 4.15
1.25 0.5 4.0875
1.1875 0.5 4.15
1.25 0.4375 4.0875
1.1875 0.4375 4.15
1.1875 0.5 4.0875
1.1875 0.4375 4.0875
1.375 0.4375 4.15
1.375 0.5 4.0875
1.3125 0.5 4.15
1.375 0.4375 4.0875
1.3125 0.4375 4.15
1.3125 0.5 4.0875
1.3125 0.4375 4.0875
1.5 0.4375 4.15
1.5 0.5 4.0875
1.4375 0.5 4.15
1.5 0.4375 4.0875
1.4375 0.4375 4.15
1.4375 0.5 4.0875
1.4375 0.4375 4.0875
1.625 0.4375 4.15
1.625 0.5 4.0875
1.5625 0.5 4.15
1.625 0.4375 4.0875
1.5625 0.4375 4.15
1.5625 0.5 4.0875
1.5625 0.4375 4.0875
1.75 0.4375 4.15
1.75 0.5 4.0875
1.6875 0.5 4.15
1.75 0.4375 4.0875
1.6875 0.4375 4.15
1.6875 0.5 4.0875
1.6875 0.4375 4.0875
1.875 0.4375 4.15
1.875 0.5 4.0875
1.8125 0.5 4.15
1.875 0.4375 4.0875
1.8125 0.4375 4.15
1.8125 0.5 4.0875
1.8125 0.4375 4.0875
2 0.4375 4.15
2 0.5 4.0875
1.9375 0.5 4.15
2 0.4375 4.0875
1.9375 0.4375 4.15
1.9375 0.5 4.0875
1.9375 0.4375 4.0875
2.125 0.4375 4.15
2.125 0.5 4.0875
2.0625 0.5 4.15
2.125 0.4375 4.0875
2.0625 0.4375 4.15
2.0625 0.5 4.0875
2.0625 0.4375 4.0875
2.25 0.4375 4.15
2.25 0.5 4.0875
2.1875 0.5 4.15
2.25 0.4375 4.0875
2.1875 0.4375 4.15
2.1875 0.5 4.0875
2.1875 0.4375 4.0875
2.375 0.4375 4.15
2.375 0.5 4.0875
2.3125 0.5 4.15
2.375 0.4375 4.0875
2.3125 0.4375 4.15
2.3125 0.5 4.0875
2.3125 0.4375 4.0875
2.5 0.4375 4.15
2.5 0.5 4.0875
2.4375 0.5 4.15
2.5 0.4375 4.0875
2.4375 0.4375 4.15
2.4375 0.5 4.0875
2.4375 0.4375 4.0875
2.625 0.4375 4.15
2.625 0.5 4.0875
2.5625 0.5 4.15
2.625 0.4375 4.0875
2.5625 0.4375 4.15
2.5625 0.5 4.0875
2.5625 0.4375 4.0875
2.75 0.4375 4.15
2.75 0.5 4.0875
2.6875 0.5 4.15
2.75 0.4375 4.0875
2.6875 0.4375 4.15
2.6875 0.5 4.0875
2.6875 0.4375 4.0875
2.875 0.4375 4.15
2.875 0.5 4.0875
2.8125 0.5 4.15
2.875 0.4375 4.0875
2.8125 0.4375 4.15
2.8125 0.5 4.0875
2.8125 0.4375 4.0875
3 0.4375 4.15
3 0.5 4.0875
2.9375 0.5 4.15
3 0.4375 4.0875
2.9375 0.4375 4.15
2.9375 0.5 4.0875
2.9375 0.4375 4.0875
3.125 0.4375 4.15
3.125 0.5 4.0875
3.0625 0.5 4.15
3.125 0.4375 4.0875
3.0625 0.4375 4.15
3.0625 0.5 4.0875
3.0625 0.4375 4.0875
3.25 0.4375 4.15
3.25 0.5 4.0875
3.1875 0.5 4.15
3.25 0.4375 4.0875
3.1875 0.4375 4.15
3.1875 0.5 4.0875
3.1875 0.4375 4.0875
3.375 0.4375 4.15
3.375 0.5 4.0875
3.3125 0.5 4.15
3.375 0.4375 4.0875
3.3125 0.4375 4.15
3.3125 0.5 4.0875
3.3125 0.4375 4.0875
3.5 0.4375 4.15
3.5 0.5 4.0875
3.4375 0.5 4.15
3.5 0.4375 4.0875
3.4375 0.4375 4.15
3.4375 0.5 4.0875
3.4375 0.4375 4.0875
3.625 0.4375 4.15
3.625 0.5 4.0875
3.5625 0.5 4.15
3.625 0.4375 4.0875
3.5625 0.4375 4.15
3.5625 0.5 4.0875
3.5625 0.4375 4.0875
3.75 0.4375 4.15
3.75 0.5 4.0875
3.6875 0.5 4.15
3.75 0.4375 4.0875
3.6875 0.4375 4.15
3.6875 0.5 4.0875
3.6875 0.4375 4.0875
3.875 0.4375 4.15
3.875 0.5 4.0875
3.8125 0.5 4.15
3.875 0.4375 4.0875
3.8125 0.4375 4.15
3.8125 0.5 4.0875
3.8125 0.4375 4.0875
4 0.4375 4.15
4 0.5 4.0875
3.9375 0.5 4.15
4 0.4375 4.0875
3.9375 0.4375 4.15
3.9375 0.5 4.0875
3.9375 0.4375 4.0875
0.125 0.5625 4.15
0 0.5625 4.15
0.125 0.625 4.0875
0.0625 0.625 4.15
0 0.625 4.0875
0.125 0.5625 4.0875
0.0625 0.5625 4.15
0 0.5625 4.0875
0.0625 0.625 4.0875
0.0625 0.5625 4.0875
0.25 0.5625 4.15
0.25 0.625 4.0875
0.1875 0.625 4.15
0.25 0.5625 4.0875
0.1875 0.5625 4.15
0.1875 0.625 4.0875
0.1875 0.5625 4.0875
0.375 0.5625 4.15
0.375 0.625 4.0875
0.3125 0.625 4.15
0.375 0.5625 4.0875
0.3125 0.5625 4.15
0.3125 0.625 4.0875
0.3125 0.5625 4.0875
0.5 0.5625 4.15
0.5 0.625 4.0875
0.4375 0.625 4.15
0.5 0.5625 4.0875
0.4375 0.5625 4.15
0.4375 0.625 4.0875
0.4375 0.5625 4.0875
0.625 0.5625 4.15
0.625 0.625 4.0875
0.5625 0.625 4.15
0.625 0.5625 4.0875
0.5625 0.5625 4.15
0.5625 0.625 4.0875
0.5625 0.5625 4.0875
0.75 0.5625 4.15
0.75 0.625 4.0875
0.6875 0.625 4.15
0.75 0.5625 4.0875
0.6875 0.5625 4.15
0.6875 0.625 4.0875
0.6875 0.5625 4.0875
0.875 0.5625 4.15
0.875 0.625 4.0875
0.8125 0.625 4.15
0.875 0.5625 4.0875
0.8125 0.5625 4.15
0.8125 0.625 4.0875
0.8125 0.5625 4.0875
1 0.5625 4.15
1 0.625 4.0875
0.9375 0.625 4.15
1 0.5625 4.0875
0.9375 0.5625 4.15
0.9375 0.625 4.0875
0.9375 0.5625 4.0875
1.125 0.5625 4.15
1.125 0.625 4.0875
1.0625 0.625 4.15
1.125 0.5625 4.0875
1.0625 0.5625 4.15
1.0625 0.625 4.0875
1.0625 0.5625 4.0875
1.25 0.5625 4.15
1.25 0.625 4.0875
1.1875 0.625 4.15
1.25 0.5625 4.0875
1.1875 0.5625 4.15
1.1875 0.625 4.0875
1.1875 0.5625 4.0875
1.375 0.5625 4.15
1.375 0.625 4.0875
1.3125 0.625 4.15
1.375 0.5625 4.0875
1.3125 0.5625 4.15
1.3125 0.625 4.0875
1.3125 0.5625 4.0875
1.5 0.5625 4.15
1.5 0.625 4.0875
1.4375 0.625 4.15
1.5 0.5625 4.0875
1.4375 0.5625 4.15
1.4375 0.625 4.0875
1.4375 0.5625 4.0875
1.625 0.5625 4.15
1.625 0.625 4.0875
1.5625 0.625 4.15
1.625 0.5625 4.0875
1.5625 0.5625 4.15
1.5625 0.625 4.0875
1.5625 0.5625 4.0875
1.75 0.5625 4.15
1.75 0.625 4.0875
1.6875 0.625 4.15
1.75 0.5625 4.0875
1.6875 0.5625 4.15
1.6875 0.625 4.0875
1.6875 0.5625 4.0875
1.875 0.5625 4.15
1.875 0.625 4.0875
1.8125 0.625 4.15
1.875 0.5625 4.0875
1.8125 0.5625 4.15
1.8125 0.625 4.0875
1.8125 0.5625 4.0875
2 0.5625 4.15
2 0.625 4.0875
1.9375 0.625 4.15
2 0.5625 4.0875
1.9375 0.5625 4.15
1.9375 0.625 4.0875
1.9375 0.5625 4.0875
2.125 0.5625 4.15
2.125 0.625 4.0875
2.0625 0.625 4.15
2.125 0.5625 4.0875
2.0625 0.5625 4.15
2.0625 0.625 4.0875
2.0625 0.5625 4.0875
2.25 0.5625 4.15
2.25 0.625 4.0875
2.1875 0.625 4.15
2.25 0.5625 4.0875
2.1875 0.5625 4.15
2.1875 0.625 4.0875
2.1875 0.5625 4.0875
2.375 0.5625 4.15
2.375 0.625 4.0875
2.3125 0.625 4.15
2.375 0.5625 4.0875
2.3125 0.5625 4.15
2.3125 0.625 4.0875
2.3125 0.5625 4.0875
2.5 0.5625 4.15
2.5 0.625 4.0875
2.4375 0.625 4.15
2.5 0.5625 4.0875
2.4375 0.5625 4.15
2.4375 0.625 4.0875
2.4375 0.5625 4.0875
2.625 0.5625 4.15
2.625 0.625 4.0875
2.5625 0.625 4.15
2.625 0.5625 4.0875
2.5625 0.5625 4.15
2.5625 0.625 4.0875
2.5625 0.5625 4.0875
2.75 0.5625 4.15
2.75 0.625 4.0875
2.6875 0.625 4.15
2.75 0.5625 4.0875
2.6875 0.5625 4.15
2.6875 0.625 4.0875
2.6875 0.5625 4.0875
2.875 0.5625 4.15
2.875 0.625 4.0875
2.8125 0.625 4.15
2.875 0.5625 4.0875
2.8125 0.5625 4.15
2.8125 0.625 4.0875
2.8125 0.5625 4.0875
3 0.5625 4.15
3 0.625 4.0875
2.9375 0.625 4.15
3 0.5625 4.0875
2.9375 0.5625 4.15
2.9375 0.625 4.0875
2.9375 0.5625 4.0875
3.125 0.5625 4.15
3.125 0.625 4.0875
3.0625 0.625 4.15
3.125 0.5625 4.0875
3.0625 0.5625 4.15
3.0625 0.625 4.0875
3.0625 0.5625 4.0875
3.25 0.5625 4.15
3.25 0.625 4.0875
3.1875 0.625 4.15
3.25 0.5625 4.0875
3.1875 0.5625 4.15
3.1875 0.625 4.0875
3.1875 0.5625 4.0875
3.375 0.5625 4.15
3.375 0.625 4.0875
3.3125 0.625 4.15
3.375 0.5625 4.0875
3.3125 0.5625 4.15
3.3125 0.625 4.0875
3.3125 0.5625 4.0875
3.5 0.5625 4.15
3.5 0.625 4.0875
3.4375 0.625 4.15
3.5 0.5625 4.0875
3.4375 0.5625 4.15
3.4375 0.625 4.0875
3.4375 0.5625 4.0875
3.625 0.5625 4.15
3.625 0.625 4.0875
3.5625 0.625 4.15
3.625 0.5625 4.0875
3.5625 0.5625 4.15
3.5625 0.625 4.0875
3.5625 0.5625 4.0875
3.75 0.5625 4.15
3.75 0.625 4.0875
3.6875 0.625 4.15
3.75 0.5625 4.0875
3.6875 0.5625 4.15
3.6875 0.625 4.0875
3.6875 0.5625 4.0875
3.875 0.5625 4.15
3.875 0.625 4.0875
3.8125 0.625 4.15
3.875 0.5625 4.0875
3.8125 0.5625 4.15
3.8125 0.625 4.0875
3.8125 0.5625 4.0875
4 0.5625 4.15
4 0.625 4.0875
3.9375 0.625 4.15
4 0.5625 4.0875
3.9375 0.5625 4.15
3.9375 0.625 4.0875
3.9375 0.5625 4.0875
0.125 0.6875 4.15
0 0.6875 4.15
0.125 0.75 4.0875
0.0625 0.75 4.15
0 0.75 4.0875
0.125 0.6875 4.0875
0.0625 0.6875 4.15
0 0.6875 4.0875
0.0625 0.75 4.0875
0.0625 0.6875 4.0875
0.25 0.6875 4.15
0.25 0.75 4.0875
0.1875 0.75 4.15
0.25 0.6875 4.0875
0.1875 0.6875 4.15
0.1875 0.75 4.0875
0.1875 0.6875 4.0875
0.375 0.6875 4.15
0.375 0.75 4.0875
0.3125 0.75 4.15
0.375 0.6875 4.0875
0.3125 0.6875 4.15
0.3125 0.75 4.0875
0.3125 0.6875 4.0875
0.5 0.6875 4.15
0.5 0.75 4.0875
0.4375 0.75 4.15
0.5 0.6875 4.0875
0.4375 0.6875 4.15
0.4375 0.75 4.0875
0.4375 0.6875 4.0875
0.625 0.6875 4.15
0.625 0.75 4.0875
0.5625 0.75 4.15
0.625 0.6875 4.0875
0.5625 0.6875 4.15
0.5625 0.75 4.0875
0.5625 0.6875 4.0875
0.75 0.6875 4.15
0.75 0.75 4.0875
0.6875 0.75 4.15
0.75 0.6875 4.0875
0.6875 0.6875 4.15
0.6875 0.75 4.0875
0.6875 0.6875 4.0875
0.875 0.6875 4.15
0.875 0.75 4.0875
0.8125 0.75 4.15
0.875 0.6875 4.0875
0.8125 0.6875 4.15
0.8125 0.75 4.0875
0.8125 0.6875 4.0875
1 0.6875 4.15
1 0.75 4.0875
0.9375 0.75 4.15
1 0.6875 4.0875
0.9375 0.6875 4.15
0.9375 0.75 4.0875
0.9375 0.6875 4.0875
1.125 0.6875 4.15
1.125 0.75 4.0875
1.0625 0.75 4.15
1.125 0.6875 4.0875
1.0625 0.6875 4.15
1.0625 0.75 4.0875
1.0625 0.6875 4.0875
1.25 0.6875 4.15
1.25 0.75 4.0875
1.1875 0.75 4.15
1.25 0.6875 4.0875
1.1875 0.6875 4.15
1.1875 0.75 4.0875
1.1875 0.6875 4.0875
1.375 0.6875 4.15
1.375 0.75 4.0875
1.3125 0.75 4.15
1.375 0.6875 4.0875
1.3125 0.6875 4.15
1.3125 0.75 4.0875
1.3125 0.6875 4.0875
1.5 0.6875 4.15
1.5 0.75 4.0875
1.4375 0.75 4.15
1.5 0.6875 4.0875
1.4375 0.6875 4.15
1.4375 0.75 4.0875
1.4375 0.6875 4.0875
1.625 0.6875 4.15
1.625 0.75 4.0875
1.5625 0.75 4.15
1.625 0.6875 4.0875
1.5625 0.6875 4.15
1.5625 0.75 4.0875
1.5625 0.6875 4.0875
1.75 0.6875 4.15
1.75 0.75 4.0875
1.6875 0.75 4.15
1.75 0.6875 4.0875
1.6875 0.6875 4.15
1.6875 0.75 4.0875
1.6875 0.6875 4.0875
1.875 0.6875 4.15
1.875 0.75 4.0875
1.8125 0.75 4.15
1.875 0.6875 4.0875
1.8125 0.6875 4.15
1.8125 0.75 4.0875
1.8125 0.6875 4.0875
2 0.6875 4.15
2 0.75 4.0875
1.9375 0.75 4.15
2 0.6875 4.0875
1.9375 0.6875 4.15
1.9375 0.75 4.0875
1.9375 0.6875 4.0875
2.125 0.6875 4.15
2.125 0.75 4.0875
2.0625 0.75 4.15
2.125 0.6875 4.0875
2.0625 0.6875 4.15
2.0625 0.75 4.0875
2.0625 0.6875 4.0875
2.25 0.6875 4.15
2.25 0.75 4.0875
2.1875 0.75 4.15
2.25 0.6875 4.0875
2.1875 0.6875 4.15
2.1875 0.75 4.0875
2.1875 0.6875 4.0875
2.375 0.6875 4.15
2.375 0.75 4.0875
2.3125 0.75 4.15
2.375 0.6875 4.0875
2.3125 0.6875 4.15
2.3125 0.75 4.0875
2.3125 0.6875 4.0875
2.5 0.6875 4.15
2.5 0.75 4.0875
2.4375 0.75 4.15
2.5 0.6875 4.0875
2.4375 0.6875 4.15
2.4375 0.75 4.0875
2.4375 0.6875 4.0875
2.625 0.6875 4.15
2.625 0.75 4.0875
2.5625 0.75 4.15
2.625 0.6875 4.0875
2.5625 0.6875 4.15
2.5625 0.75 4.0875
2.5625 0.6875 4.0875
2.75 0.6875 4.15
2.75 0.75 4.0875
2.6875 0.75 4.15
2.75 0.6875 4.0875
2.6875 0.6875 4.15
2.6875 0.75 4.0875
2.6875 0.6875 4.0875
2.875 0.6875 4.15
2.875 0.75 4.0875
2.8125 0.75 4.15
2.875 0.6875 4.0875
2.8125 0.6875 4.15
2.8125 0.75 4.0875
2.8125 0.6875 4.0875
3 0.6875 4.15
3 0.75 4.0875
2.9375 0.75 4.15
3 0.6875 4.0875
2.9375 0.6875 4.15
2.9375 0.75 4.0875
2.9375 0.6875 4.0875
3.125 0.6875 4.15
3.125 0.75 4.0875
3.0625 0.75 4.15
3.125 0.6875 4.0875
3.0625 0.6875 4.15
3.0625 0.75 4.0875
3.0625 0.6875 4.0875
3.25 0.6875 4.15
3.25 0.75 4.0875
3.1875 0.75 4.15
3.25 0.6875 4.0875
3.1875 0.6875 4.15
3.1875 0.75 4.0875
3.1875 0.6875 4.0875
3.375 0.6875 4.15
3.375 0.75 4.0875
3.3125 0.75 4.15
3.375 0.6875 4.0875
3.3125 0.6875 4.15
3.3125 0.75 4.0875
3.3125 0.6875 4.0875
3.5 0.6875 4.15
3.5 0.75 4.0875
3.4375 0.75 4.15
3.5 0.6875 4.0875
3.4375 0.6875 4.15
3.4375 0.75 4.0875
3.4375 0.6875 4.0875
3.625 0.6875 4.15
3.625 0.75 4.0875
3.5625 0.75 4.15
3.625 0.6875 4.0875
3.5625 0.6875 4.15
3.5625 0.75 4.0875
3.5625 0.6875 4.0875
3.75 0.6875 4.15
3.75 0.75 4.0875
3.6875 0.75 4.15
3.75 0.6875 4.0875
3.6875 0.6875 4.15
3.6875 0.75 4.0875
3.6875 0.6875 4.0875
3.875 0.6875 4.15
3.875 0.75 4.0875
3.8125 0.75 4.15
3.875 0.6875 4.0875
3.8125 0.6875 4.15
3.8125 0.75 4.0875
3.8125 0.6875 4.0875
4 0.6875 4.15
4 0.75 4.0875
3.9375 0.75 4.15
4 0.6875 4.0875
3.9375 0.6875 4.15
3.9375 0.75 4.0875
3.9375 0.6875 4.0875
0.125 0.8125 4.15
0 0.8125 4.15
0.125 0.875 4.0875
0.0625 0.875 4.15
0 0.875 4.0875
0.125 0.8125 4.0875
0.0625 0.8125 4.15
0 0.8125 4.0875
0.0625 0.875 4.0875
0.0625 0.8125 4.0875
0.25 0.8125 4.15
0.25 0.875 4.0875
0.1875 0.875 4.15
0.25 0.8125 4.0875
0.1875 0.8125 4.15
0.1875 0.875 4.0875
0.1875 0.8125 4.0875
0.375 0.8125 4.15
0.375 0.875 4.0875
0.3125 0.875 4.15
0.375 0.8125 4.0875
0.3125 0.8125 4.15
0.3125 0.875 4.0875
0.3125 0.8125 4.0875
0.5 0.8125 4.15
0.5 0.875 4.0875
0.4375 0.875 4.15
0.5 0.8125 4.0875
0.4375 0.8125 4.15
0.4375 0.875 4.0875
0.4375 0.8125 4.0875
0.625 0.8125 4.15
0.625 0.875 4.0875
0.5625 0.875 4.15
0.625 0.8125 4.0875
0.5625 0.8125 4.15
0.5625 0.875 4.0875
0.5625 0.8125 4.0875
0.75 0.8125 4.15
0.75 0.875 4.0875
0.6875 0.875 4.15
0.75 0.8125 4.0875
0.6875 0.8125 4.15
0.6875 0.875 4.0875
0.6875 0.8125 4.0875
0.875 0.8125 4.15
0.875 0.875 4.0875
0.8125 0.875 4.15
0.875 0.8125 4.0875
0.8125 0.8125 4.15
0.8125 0.875 4.0875
0.8125 0.8125 4.0875
1 0.8125 4.15
1 0.875 4.0875
0.9375 0.875 4.15
1 0.8125 4.0875
0.9375 0.8125 4.15
0.9375 0.875 4.0875
0.9375 0.8125 4.0875
1.125 0.8125 4.15
1.125 0.875 4.0875
1.0625 0.875 4.15
1.125 0.8125 4.0875
1.0625 0.8125 4.15
1.0625 0.875 4.0875
1.0625 0.8125 4.0875
1.25 0.8125 4.15
1.25 0.875 4.0875
1.1875 0.875 4.15
1.25 0.8125 4.0875
1.1875 0.8125 4.15
1.1875 0.875 4.0875
1.1875 0.8125 4.0875
1.375 0.8125 4.15
1.375 0.875 4.0875
1.3125 0.875 4.15
1.375 0.8125 4.0875
1.3125 0.8125 4.15
1.3125 0.875 4.0875
1.3125 0.8125 4.0875
1.5 0.8125 4.15
1.5 0.875 4.0875
1.4375 0.875 4.15
1.5 0.8125 4.0875
1.4375 0.8125 4.15
1.4375 0.875 4.0875
1.4375 0.8125 4.0875
1.625 0.8125 4.15
1.625 0.875 4.0875
1.5625 0.875 4.15
1.625 0.8125 4.0875
1.5625 0.8125 4.15
1.5625 0.875 4.0875
1.5625 0.8125 4.0875
1.75 0.8125 4.15
1.75 0.875 4.0875
1.6875 0.875 4.15
1.75 0.8125 4.0875
1.6875 0.8125 4.15
1.6875 0.875 4.0875
1.6875 0.8125 4.0875
1.875 0.8125 4.15
1.875 0.875 4.0875
1.8125 0.875 4.15
1.875 0.8125 4.0875
1.8125 0.8125 4.15
1.8125 0.875 4.0875
1.8125 0.8125 4.0875
2 0.8125 4.15
2 0.875 4.0875
1.9375 0.875 4.15
2 0.8125 4.0875
1.9375 0.8125 4.15
1.9375 0.875 4.0875
1.9375 0.8125 4.0875
2.125 0.8125 4.15
2.125 0.875 4.0875
2.0625 0.875 4.15
2.125 0.8125 4.0875
2.0625 0.8125 4.15
2.0625 0.875 4.0875
2.0625 0.8125 4.0875
2.25 0.8125 4.15
2.25 0.875 4.0875
2.1875 0.875 4.15
2.25 0.8125 4.0875
2.1875 0.8125 4.15
2.1875 0.875 4.0875
2.1875 0.8125 4.0875
2.375 0.8125 4.15
2.375 0.875 4.0875
2.3125 0.875 4.15
2.375 0.8125 4.0875
2.3125 0.8125 4.15
2.3125 0.875 4.0875
2.3125 0.8125 4.0875
2.5 0.8125 4.15
2.5 0.875 4.0875
2.4375 0.875 4.15
2.5 0.8125 4.0875
2.4375 0.8125 4.15
2.4375 0.875 4.0875
2.4375 0.8125 4.0875
2.625 0.8125 4.15
2.625 0.875 4.0875
2.5625 0.875 4.15
2.625 0.8125 4.0875
2.5625 0.8125 4.15
2.5625 0.875 4.0875
2.5625 0.8125 4.0875
2.75 0.8125 4.15
2.75 0.875 4.0875
2.6875 0.875 4.15
2.75 0.8125 4.0875
2.6875 0.8125 4.15
2.6875 0.875 4.0875
2.6875 0.8125 4.0875
2.875 0.8125 4.15
2.875 0.875 4.0875
2.8125 0.875 4.15
2.875 0.8125 4.0875
2.8125 0.8125 4.15
2.8125 0.875 4.0875
2.8125 0.8125 4.0875
3 0.8125 4.15
3 0.875 4.0875
2.9375 0.875 4.15
3 0.8125 4.0875
2.9375 0.8125 4.15
2.9375 0.875 4.0875
2.9375 0.8125 4.0875
3.125 0.8125 4.15
3.125 0.875 4.0875
3.0625 0.875 4.15
3.125 0.8125 4.0875
3.0625 0.8125 4.15
3.0625 0.875 4.0875
3.0625 0.8125 4.0875
3.25 0.8125 4.15
3.25 0.875 4.0875
3.1875 0.875 4.15
3.25 0.8125 4.0875
3.1875 0.8125 4.15
3.1875 0.875 4.0875
3.1875 0.8125 4.0875
3.375 0.8125 4.15
3.375 0.875 4.0875
3.3125 0.875 4.15
3.375 0.8125 4.0875
3.3125 0.8125 4.15
3.3125 0.875 4.0875
3.3125 0.8125 4.0875
3.5 0.8125 4.15
3.5 0.875 4.0875
3.4375 0.875 4.15
3.5 0.8125 4.0875
3.4375 0.8125 4.15
3.4375 0.875 4.0875
3.4375 0.8125 4.0875
3.625 0.8125 4.15
3.625 0.875 4.0875
3.5625 0.875 4.15
3.625 0.8125 4.0875
3.5625 0.8125 4.15
3.5625 0.875 4.0875
3.5625 0.8125 4.0875
3.75 0.8125 4.15
3.75 0.875 4.0875
3.6875 0.875 4.15
3.75 0.8125 4.0875
3.6875 0.8125 4.15
3.6875 0.875 4.0875
3.6875 0.8125 4.0875
3.875 0.8125 4.15
3.875 0.875 4.0875
3.8125 0.875 4.15
3.875 0.8125 4.0875
3.8125 0.8125 4.15
3.8125 0.875 4.0875
3.8125 0.8125 4.0875
4 0.8125 4.15
4 0.875 4.0875
3.9375 0.875 4.15
4 0.8125 4.0875
3.9375 0.8125 4.15
3.9375 0.875 4.0875
3.9375 0.8125 4.0875
0.125 0.9375 4.15
0 0.9375 4.15
0.125 1 4.0875
0.0625 1 4.15
0 1 4.0875
0.125 0.9375 4.0875
0.0625 0.9375 4.15
0 0.9375 4.0875
0.0625 1 4.0875
0.0625 0.9375 4.0875
0.25 0.9375 4.15
0.25 1 4.0875
0.1875 1 4.15
0.25 0.9375 4.0875
0.1875 0.9375 4.15
0.1875 1 4.0875
0.1875 0.9375 4.0875
0.375 0.9375 4.15
0.375 1 4.0875
0.3125 1 4.15
0.375 0.9375 4.0875
0.3125 0.9375 4.15
0.3125 1 4.0875
0.3125 0.9375 4.0875
0.5 0.9375 4.15
0.5 1 4.0875
0.4375 1 4.15
0.5 0.9375 4.0875
0.4375 0.9375 4.15
0.4375 1 4.0875
0.4375 0.9375 4.0875
0.625 0.9375 4.15
0.625 1 4.0875
0.5625 1 4.15
0.625 0.9375 4.0875
0.5625 0.9375 4.15
0.5625 1 4.0875
0.5625 0.9375 4.0875
0.75 0.9375 4.15
0.75 1 4.0875
0.6875 1 4.15
0.75 0.9375 4.0875
0.6875 0.9375 4.15
0.6875 1 4.0875
0.6875 0.9375 4.0875
0.875 0.9375 4.15
0.875 1 4.0875
0.8125 1 4.15
0.875 0.9375 4.0875
0.8125 0.9375 4.15
0.8125 1 4.0875
0.8125 0.9375 4.0875
1 0.9375 4.15
1 1 4.0875
0.9375 1 4.15
1 0.9375 4.0875
0.9375 0.9375 4.15
0.9375 1 4.0875
0.9375 0.9375 4.0875
1.125 0.9375 4.15
1.125 1 4.0875
1.0625 1 4.15
1.125 0.9375 4.0875
1.0625 0.9375 4.15
1.0625 1 4.0875
1.0625 0.9375 4.0875
1.25 0.9375 4.15
1.25 1 4.0875
1.1875 1 4.15
1.25 0.9375 4.0875
1.1875 0.9375 4.15
1.1875 1 4.0875
1.1875 0.9375 4.0875
1.375 0.9375 4.15
1.375 1 4.0875
1.3125 1 4.15
1.375 0.9375 4.0875
1.3125 0.9375 4.15
1.3125 1 4.0875
1.3125 0.9375 4.0875
1.5 0.9375 4.15
1.5 1 4.0875
1.4375 1 4.15
1.5 0.9375 4.0875
1.4375 0.9375 4.15
1.4375 1 4.0875
1.4375 0.9375 4.0875
1.625 0.9375 4.15
1.625 1 4.0875
1.5625 1 4.15
1.625 0.9375 4.0875
1.5625 0.9375 4.15
1.5625 1 4.0875
1.5625 0.9375 4.0875
1.75 0.9375 4.15
1.75 1 4.0875
1.6875 1 4.15
1.75 0.9375 4.0875
1.6875 0.9375 4.15
1.6875 1 4.0875
1.6875 0.9375 4.0875
1.875 0.9375 4.15
1.875 1 4.0875
1.8125 1 4.15
1.875 0.9375 4.0875
1.8125 0.9375 4.15
1.8125 1 4.0875
1.8125 0.9375 4.0875
2 0.9375 4.15
2 1 4.0875
1.9375 1 4.15
2 0.9375 4.0875
1.9375 0.9375 4.15
1.9375 1 4.0875
1.9375 0.9375 4.0875
2.125 0.9375 4.15
2.125 1 4.0875
2.0625 1 4.15
2.125 0.9375 4.0875
2.0625 0.9375 4.15
2.0625 1 4.0875
2.0625 0.9375 4.0875
2.25 0.9375 4.15
2.25 1 4.0875
2.1875 1 4.15
2.25 0.9375 4.0875
2.1875 0.9375 4.15
2.1875 1 4.0875
2.1875 0.9375 4.0875
2.375 0.9375 4.15
2.375 1 4.0875
2.3125 1 4.15
2.375 0.9375 4.0875
2.3125 0.9375 4.15
2.3125 1 4.0875
2.3125 0.9375 4.0875
2.5 0.9375 4.15
2.5 1 4.0875
2.4375 1 4.15
2.5 0.9375 4.0875
2.4375 0.9375 4.15
2.4375 1 4.0875
2.4375 0.9375 4.0875
2.625 0.9375 4.15
2.625 1 4.0875
2.5625 1 4.15
2.625 0.9375 4.0875
2.5625 0.9375 4.15
2.5625 1 4.0875
2.5625 0.9375 4.0875
2.75 0.9375 4.15
2.75 1 4.0875
2.6875 1 4.15
2.75 0.9375 4.0875
2.6875 0.9375 4.15
2.6875 1 4.0875
2.6875 0.9375 4.0875
2.875 0.9375 4.15
2.875 1 4.0875
2.8125 1 4.15
2.875 0.9375 4.0875
2.8125 0.9375 4.15
2.8125 1 4.0875
2.8125 0.9375 4.0875
3 0.9375 4.15
3 1 4.0875
2.9375 1 4.15
3 0.9375 4.0875
2.9375 0.9375 4.15
2.9375 1 4.0875
2.9375 0.9375 4.0875
3.125 0.9375 4.15
3.125 1 4.0875
3.0625 1 4.15
3.125 0.9375 4.0875
3.0625 0.9375 4.15
3.0625 1 4.0875
3.0625 0.9375 4.0875
3.25 0.9375 4.15
3.25 1 4.0875
3.1875 1 4.15
3.25 0.9375 4.0875
3.1875 0.9375 4.15
3.1875 1 4.0875
3.1875 0.9375 4.0875
3.375 0.9375 4.15
3.375 1 4.0875
3.3125 1 4.15
3.375 0.9375 4.0875
3.3125 0.9375 4.15
3.3125 1 4.0875
3.3125 0.9375 4.0875
3.5 0.9375 4.15
3.5 1 4.0875
3.4375 1 4.15
3.5 0.9375 4.0875
3.4375 0.9375 4.15
3.4375 1 4.0875
3.4375 0.9375 4.0875
3.625 0.9375 4.15
3.625 1 4.0875
3.5625 1 4.15
3.625 0.9375 4.0875
3.5625 0.9375 4.15
3.5625 1 4.0875
3.5625 0.9375 4.0875
3.75 0.9375 4.15
3.75 1 4.0875
3.6875 1 4.15
3.75 0.9375 4.0875
3.6875 0.9375 4.15
3.6875 1 4.0875
3.6875 0.9375 4.0875
3.875 0.9375 4.15
3.875 1 4.0875
3.8125 1 4.15
3.875 0.9375 4.0875
3.8125 0.9375 4.15
3.8125 1 4.0875
3.8125 0.9375 4.0875
4 0.9375 4.15
4 1 4.0875
3.9375 1 4.15
4 0.9375 4.0875
3.9375 0.9375 4.15
3.9375 1 4.0875
3.9375 0.9375 4.0875
0.125 0 4.2125
0.0625 0 4.275
0 0 4.2125
0.125 0.0625 4.275
0 0.0625 4.275
0.125 0.125 4.2125
0.0625 0.125 4.275
0 0.125 4.2125
0.0625 0 4.2125
0.125 0.0625 4.2125
0.0625 0.0625 4.275
0 0.0625 4.2125
0.0625 0.125 4.2125
0.0625 0.0625 4.2125
0.25 0 4.2125
0.1875 0 4.275
0.25 0.0625 4.275
0.25 0.125 4.2125
0.1875 0.125 4.275
0.1875 0 4.2125
0.25 0.0625 4.2125
0.1875 0.0625 4.275
0.1875 0.125 4.2125
0.1875 0.0625 4.2125
0.375 0 4.2125
0.3125 0 4.275
0.375 0.0625 4.275
0.375 0.125 4.2125
0.3125 0.125 4.275
0.3125 0 4.2125
0.375 0.0625 4.2125
0.3125 0.0625 4.275
0.3125 0.125 4.2125
0.3125 0.0625 4.2125
0.5 0 4.2125
0.4375 0 4.275
0.5 0.0625 4.275
0.5 0.125 4.2125
0.4375 0.125 4.275
0.4375 0 4.2125
0.5 0.0625 4.2125
0.4375 0.0625 4.275
0.4375 0.125 4.2125
0.4375 0.0625 4.2125
0.625 0 4.2125
0.5625 0 4.275
0.625 0.0625 4.275
0.625 0.125 4.2125
0.5625 0.125 4.275
0.5625 0 4.2125
0.625 0.0625 4.2125
0.5625 0.0625 4.275
0.5625 0.125 4.2125
0.5625 0.0625 4.2125
0.75 0 4.2125
0.6875 0 4.275
0.75 0.0625 4.275
0.75 0.125 4.2125
0.6875 0.125 4.275
0.6875 0 4.2125
0.75 0.0625 4.2125
0.6875 0.0625 4.275
0.6875 0.125 4.2125
0.6875 0.0625 4.2125
0.875 0 4.2125
0.8125 0 4.275
0.875 0.0625 4.275
0.875 0.125 4.2125
0.8125 0.125 4.275
0.8125 0 4.2125
0.875 0.0625 4.2125
0.8125 0.0625 4.275
0.8125 0.125 4.2125
0.8125 0.0625 4.2125
1 0 4.2125
0.9375 0 4.275
1 0.0625 4.275
1 0.125 4.2125
0.9375 0.125 4.275
0.9375 0 4.2125
1 0.0625 4.2125
0.9375 0.0625 4.275
0.9375 0.125 4.2125
0.9375 0.0625 4.2125
1.125 0 4.2125
1.0625 0 4.275
1.125 0.0625 4.275
1.125 0.125 4.2125
1.0625 0.125 4.275
1.0625 0 4.2125
1.125 0.0625 4.2125
1.0625 0.0625 4.275
1.0625 0.125 4.2125
1.0625 0.0625 4.2125
1.25 0 4.2125
1.1875 0 4.275
1.25 0.0625 4.275
1.25 0.125 4.2125
1.1875 0.125 4.275
1.1875 0 4.2125
1.25 0.0625 4.2125
1.1875 0.0625 4.275
1.1875 0.125 4.2125
1.1875 0.0625 4.2125
1.375 0 4.2125
1.3125 0 4.275
1.375 0.0625 4.275
1.375 0.125 4.2125
1.3125 0.125 4.275
1.3125 0 4.2125
1.375 0.0625 4.2125
1.3125 0.0625 4.275
1.3125 0.125 4.2125
1.3125 0.0625 4.2125
1.5 0 4.2125
1.4375 0 4.275
1.5 0.0625 4.275
1.5 0.125 4.2125
1.4375 0.125 4.275
1.4375 0 4.2125
1.5 0.0625 4.2125
1.4375 0.0625 4.275
1.4375 0.125 4.2125
1.4375 0.0625 4.2125
1.625 0 4.2125
1.5625 0 4.275
1.625 0.0625 4.275
1.625 0.125 4.2125
1.5625 0.125 4.275
1.5625 0 4.2125
1.625 0.0625 4.2125
1.5625 0.0625 4.275
1.5625 0.125 4.2125
1.5625 0.0625 4.2125
1.75 0 4.2125
1.6875 0 4.275
1.75 0.0625 4.275
1.75 0.125 4.2125
1.6875 0.125 4.275
1.6875 0 4.2125
1.75 0.0625 4.2125
1.6875 0.0625 4.275
1.6875 0.125 4.2125
1.6875 0.0625 4.2125
1.875 0 4.2125
1.8125 0 4.275
1.875 0.0625 4.275
1.875 0.125 4.2125
1.8125 0.125 4.275
1.8125 0 4.2125
1.875 0.0625 4.2125
1.8125 0.0625 4.275
1.8125 0.125 4.2125
1.8125 0.0625 4.2125
2 0 4.2125
1.9375 0 4.275
2 0.0625 4.275
2 0.125 4.2125
1.9375 0.125 4.275
1.9375 0 4.2125
2 0.0625 4.2125
1.9375 0.0625 4.275
1.9375 0.125 4.2125
1.9375 0.0625 4.2125
2.125 0 4.2125
2.0625 0 4.275
2.125 0.0625 4.275
2.125 0.125 4.2125
2.0625 0.125 4.275
2.0625 0 4.2125
2.125 0.0625 4.2125
2.0625 0.0625 4.275
2.0625 0.125 4.2125
2.0625 0.0625 4.2125
2.25 0 4.2125
2.1875 0 4.275
2.25 0.0625 4.275
2.25 0.125 4.2125
2.1875 0.125 4.275
2.1875 0 4.2125
2.25 0.0625 4.2125
2.1875 0.0625 4.275
2.1875 0.125 4.2125
2.1875 0.0625 4.2125
2.375 0 4.2125
2.3125 0 4.275
2.375 0.0625 4.275
2.375 0.125 4.2125
2.3125 0.125 4.275
2.3125 0 4.2125
2.375 0.0625 4.2125
2.3125 0.0625 4.275
2.3125 0.125 4.2125
2.3125 0.0625 4.2125
2.5 0 4.2125
2.4375 0 4.275
2.5 0.0625 4.275
2.5 0.125 4.2125
2.4375 0.125 4.275
2.4375 0 4.2125
2.5 0.0625 4.2125
2.4375 0.0625 4.275
2.4375 0.125 4.2125
2.4375 0.0625 4.2125
2.625 0 4.2125
2.5625 0 4.275
2.625 0.0625 4.275
2.625 0.125 4.2125
2.5625 0.125 4.275
2.5625 0 4.2125
2.625 0.0625 4.2125
2.5625 0.0625 4.275
2.5625 0.125 4.2125
2.5625 0.0625 4.2125
2.75 0 4.2125
2.6875 0 4.275
2.75 0.0625 4.275
2.75 0.125 4.2125
2.6875 0.125 4.275
2.6875 0 4.2125
2.75 0.0625 4.2125
2.6875 0.0625 4.275
2.6875 0.125 4.2125
2.6875 0.0625 4.2125
2.875 0 4.2125
2.8125 0 4.275
2.875 0.0625 4.275
2.875 0.125 4.2125
2.8125 0.125 4.275
2.8125 0 4.2125
2.875 0.0625 4.2125
2.8125 0.0625 4.275
2.8125 0.125 4.2125
2.8125 0.0625 4.2125
3 0 4.2125
2.9375 0 4.275
3 0.0625 4.275
3 0.125 4.2125
2.9375 0.125 4.275
2.9375 0 4.2125
3 0.0625 4.2125
2.9375 0.0625 4.275
2.9375 0.125 4.2125
2.9375 0.0625 4.2125
3.125 0 4.2125
3.0625 0 4.275
3.125 0.0625 4.275
3.125 0.125 4.2125
3.0625 0.125 4.275
3.0625 0 4.2125
3.125 0.0625 4.2125
3.0625 0.0625 4.275
3.0625 0.125 4.2125
3.0625 0.0625 4.2125
3.25 0 4.2125
3.1875 0 4.275
3.25 0.0625 4.275
3.25 0.125 4.2125
3.1875 0.125 4.275
3.1875 0 4.2125
3.25 0.0625 4.2125
3.1875 0.0625 4.275
3.1875 0.125 4.2125
3.1875 0.0625 4.2125
3.375 0 4.2125
3.3125 0 4.275
3.375 0.0625 4.275
3.375 0.125 4.2125
3.3125 0.125 4.275
3.3125 0 4.2125
3.375 0.0625 4.2125
3.3125 0.0625 4.275
3.3125 0.125 4.2125
3.3125 0.0625 4.2125
3.5 0 4.2125
3.4375 0 4.275
3.5 0.0625 4.275
3.5 0.125 4.2125
3.4375 0.125 4.275
3.4375 0 4.2125
3.5 0.0625 4.2125
3.4375 0.0625 4.275
3.4375 0.125 4.2125
3.4375 0.0625 4.2125
3.625 0 4.2125
3.5625 0 4.275
3.625 0.0625 4.275
3.625 0.125 4.2125
3.5625 0.125 4.275
3.5625 0 4.2125
3.625 0.0625 4.2125
3.5625 0.0625 4.275
3.5625 0.125 4.2125
3.5625 0.0625 4.2125
3.75 0 4.2125
3.6875 0 4.275
3.75 0.0625 4.275
3.75 0.125 4.2125
3.6875 0.125 4.275
3.6875 0 4.2125
3.75 0.0625 4.2125
3.6875 0.0625 4.275
3.6875 0.125 4.2125
3.6875 0.0625 4.2125
3.875 0 4.2125
3.8125 0 4.275
3.875 0.0625 4.275
3.875 0.125 4.2125
3.8125 0.125 4.275
3.8125 0 4.2125
3.875 0.0625 4.2125
3.8125 0.0625 4.275
3.8125 0.125 4.2125
3.8125 0.0625 4.2125
4 0 4.2125
3.9375 0 4.275
4 0.0625 4.275
4 0.125 4.2125
3.9375 0.125 4.275
3.9375 0 4.2125
4 0.0625 4.2125
3.9375 0.0625 4.275
3.9375 0.125 4.2125
3.9375 0.0625 4.2125
0.125 0.1875 4.275
0 0.1875 4.275
0.125 0.25 4.2125
0.0625 0.25 4.275
0 0.25 4.2125
0.125 0.1875 4.2125
0.0625 0.1875 4.275
0 0.1875 4.2125
0.0625 0.25 4.2125
0.0625 0.1875 4.2125
0.25 0.1875 4.275
0.25 0.25 4.2125
0.1875 0.25 4.275
0.25 0.1875 4.2125
0.1875 0.1875 4.275
0.1875 0.25 4.2125
0.1875 0.1875 4.2125
0.375 0.1875 4.275
0.375 0.25 4.2125
0.3125 0.25 4.275
0.375 0.1875 4.2125
0.3125 0.1875 4.275
0.3125 0.25 4.2125
0.3125 0.1875 4.2125
0.5 0.1875 4.275
0.5 0.25 4.2125
0.4375 0.25 4.275
0.5 0.1875 4.2125
0.4375 0.1875 4.275
0.4375 0.25 4.2125
0.4375 0.1875 4.2125
0.625 0.1875 4.275
0.625 0.25 4.2125
0.5625 0.25 4.275
0.625 0.1875 4.2125
0.5625 0.1875 4.275
0.5625 0.25 4.2125
0.5625 0.1875 4.2125
0.75 0.1875 4.275
0.75 0.25 4.2125
0.6875 0.25 4.275
0.75 0.1875 4.2125
0.6875 0.1875 4.275
0.6875 0.25 4.2125
0.6875 0.1875 4.2125
0.875 0.1875 4.275
0.875 0.25 4.2125
0.8125 0.25 4.275
0.875 0.1875 4.2125
0.8125 0.1875 4.275
0.8125 0.25 4.2125
0.8125 0.1875 4.2125
1 0.1875 4.275
1 0.25 4.2125
0.9375 0.25 4.275
1 0.1875 4.2125
0.9375 0.1875 4.275
0.9375 0.25 4.2125
0.9375 0.1875 4.2125
1.125 0.1875 4.275
1.125 0.25 4.2125
1.0625 0.25 4.275
1.125 0.1875 4.2125
1.0625 0.1875 4.275
1.0625 0.25 4.2125
1.0625 0.1875 4.2125
1.25 0.1875 4.275
1.25 0.25 4.2125
1.1875 0.25 4.275
1.25 0.1875 4.2125
1.1875 0.1875 4.275
1.1875 0.25 4.2125
1.1875 0.1875 4.2125
1.375 0.1875 4.275
1.375 0.25 4.2125
1.3125 0.25 4.275
1.375 0.1875 4.2125
1.3125 0.1875 4.275
1.3125 0.25 4.2125
1.3125 0.1875 4.2125
1.5 0.1875 4.275
1.5 0.25 4.2125
1.4375 0.25 4.275
1.5 0.1875 4.2125
1.4375 0.1875 4.275
1.4375 0.25 4.2125
1.4375 0.1875 4.2125
1.625 0.1875 4.275
1.625 0.25 4.2125
1.5625 0.25 4.275
1.625 0.1875 4.2125
1.5625 0.1875 4.275
1.5625 0.25 4.2125
1.5625 0.1875 4.2125
1.75 0.1875 4.275
1.75 0.25 4.2125
1.6875 0.25 4.275
1.75 0.1875 4.2125
1.6875 0.1875 4.275
1.6875 0.25 4.2125
1.6875 0.1875 4.2125
1.875 0.1875 4.275
1.875 0.25 4.2125
1.8125 0.25 4.275
1.875 0.1875 4.2125
1.8125 0.1875 4.275
1.8125 0.25 4.2125
1.8125 0.1875 4.2125
2 0.1875 4.275
2 0.25 4.2125
1.9375 0.25 4.275
2 0.1875 4.2125
1.9375 0.1875 4.275
1.9375 0.25 4.2125
1.9375 0.1875 4.2125
2.125 0.1875 4.275
2.125 0.25 4.2125
2.0625 0.25 4.275
2.125 0.1875 4.2125
2.0625 0.1875 4.275
2.0625 0.25 4.2125
2.0625 0.1875 4.2125
2.25 0.1875 4.275
2.25 0.25 4.2125
2.1875 0.25 4.275
2.25 0.1875 4.2125
2.1875 0.1875 4.275
2.1875 0.25 4.2125
2.1875 0.1875 4.2125
2.375 0.1875 4.275
2.375 0.25 4.2125
2.3125 0.25 4.275
2.375 0.1875 4.2125
2.3125 0.1875 4.275
2.3125 0.25 4.2125
2.3125 0.1875 4.2125
2.5 0.1875 4.275
2.5 0.25 4.2125
2.4375 0.25 4.275
2.5 0.1875 4.2125
2.4375 0.1875 4.275
2.4375 0.25 4.2125
2.4375 0.1875 4.2125
2.625 0.1875 4.275
2.625 0.25 4.2125
2.5625 0.25 4.275
2.625 0.1875 4.2125
2.5625 0.1875 4.275
2.5625 0.25 4.2125
2.5625 0.1875 4.2125
2.75 0.1875 4.275
2.75 0.25 4.2125
2.6875 0.25 4.275
2.75 0.1875 4.2125
2.6875 0.1875 4.275
2.6875 0.25 4.2125
2.6875 0.1875 4.2125
2.875 0.1875 4.275
2.875 0.25 4.2125
2.8125 0.25 4.275
2.875 0.1875 4.2125
2.8125 0.1875 4.275
2.8125 0.25 4.2125
2.8125 0.1875 4.2125
3 0.1875 4.275
3 0.25 4.2125
2.9375 0.25 4.275
3 0.1875 4.2125
2.9375 0.1875 4.275
2.9375 0.25 4.2125
2.9375 0.1875 4.2125
3.125 0.1875 4.275
3.125 0.25 4.2125
3.0625 0.25 4.275
3.125 0.1875 4.2125
3.0625 0.1875 4.275
3.0625 0.25 4.2125
3.0625 0.1875 4.2125
3.25 0.1875 4.275
3.25 0.25 4.2125
3.1875 0.25 4.275
3.25 0.1875 4.2125
3.1875 0.1875 4.275
3.1875 0.25 4.2125
3.1875 0.1875 4.2125
3.375 0.1875 4.275
3.375 0.25 4.2125
3.3125 0.25 4.275
3.375 0.1875 4.2125
3.3125 0.1875 4.275
3.3125 0.25 4.2125
3.3125 0.1875 4.2125
3.5 0.1875 4.275
3.5 0.25 4.2125
3.4375 0.25 4.275
3.5 0.1875 4.2125
3.4375 0.1875 4.275
3.4375 0.25 4.2125
3.4375 0.1875 4.2125
3.625 0.1875 4.275
3.625 0.25 4.2125
3.5625 0.25 4.275
3.625 0.1875 4.2125
3.5625 0.1875 4.275
3.5625 0.25 4.2125
3.5625 0.1875 4.2125
3.75 0.1875 4.275
3.75 0.25 4.2125
3.6875 0.25 4.275
3.75 0.1875 4.2125
3.6875 0.1875 4.275
3.6875 0.25 4.2125
3.6875 0.1875 4.2125
3.875 0.1875 4.275
3.875 0.25 4.2125
3.8125 0.25 4.275
3.875 0.1875 4.2125
3.8125 0.1875 4.275
3.8125 0.25 4.2125
3.8125 0.1875 4.2125
4 0.1875 4.275
4 0.25 4.2125
3.9375 0.25 4.275
4 0.1875 4.2125
3.9375 0.1875 4.275
3.9375 0.25 4.2125
3.9375 0.1875 4.2125
0.125 0.3125 4.275
0 0.3125 4.275
0.125 0.375 4.2125
0.0625 0.375 4.275
0 0.375 4.2125
0.125 0.3125 4.2125
0.0625 0.3125 4.275
0 0.3125 4.2125
0.0625 0.375 4.2125
0.0625 0.3125 4.2125
0.25 0.3125 4.275
0.25 0.375 4.2125
0.1875 0.375 4.275
0.25 0.3125 4.2125
0.1875 0.3125 4.275
0.1875 0.375 4.2125
0.1875 0.3125 4.2125
0.375 0.3125 4.275
0.375 0.375 4.2125
0.3125 0.375 4.275
0.375 0.3125 4.2125
0.3125 0.3125 4.275
0.3125 0.375 4.2125
0.3125 0.3125 4.2125
0.5 0.3125 4.275
0.5 0.375 4.2125
0.4375 0.375 4.275
0.5 0.3125 4.2125
0.4375 0.3125 4.275
0.4375 0.375 4.2125
0.4375 0.3125 4.2125
0.625 0.3125 4.275
0.625 0.375 4.2125
0.5625 0.375 4.275
0.625 0.3125 4.2125
0.5625 0.3125 4.275
0.5625 0.375 4.2125
0.5625 0.3125 4.2125
0.75 0.3125 4.275
0.75 0.375 4.2125
0.6875 0.375 4.275
0.75 0.3125 4.2125
0.6875 0.3125 4.275
0.6875 0.375 4.2125
0.6875 0.3125 4.2125
0.875 0.3125 4.275
0.875 0.375 4.2125
0.8125 0.375 4.275
0.875 0.3125 4.2125
0.8125 0.3125 4.275
0.8125 0.375 4.2125
0.8125 0.3125 4.2125
1 0.3125 4.275
1 0.375 4.2125
0.9375 0.375 4.275
1 0.3125 4.2125
0.9375 0.3125 4.275
0.9375 0.375 4.2125
0.9375 0.3125 4.2125
1.125 0.3125 4.275
1.125 0.375 4.2125
1.0625 0.375 4.275
1.125 0.3125 4.2125
1.0625 0.3125 4.275
1.0625 0.375 4.2125
1.0625 0.3125 4.2125
1.25 0.3125 4.275
1.25 0.375 4.2125
1.1875 0.375 4.275
1.25 0.3125 4.2125
1.1875 0.3125 4.275
1.1875 0.375 4.2125
1.1875 0.3125 4.2125
1.375 0.3125 4.275
1.375 0.375 4.2125
1.3125 0.375 4.275
1.375 0.3125 4.2125
1.3125 0.3125 4.275
1.3125 0.375 4.2125
1.3125 0.3125 4.2125
1.5 0.3125 4.275
1.5 0.375 4.2125
1.4375 0.375 4.275
1.5 0.3125 4.2125
1.4375 0.3125 4.275
1.4375 0.375 4.2125
1.4375 0.3125 4.2125
1.625 0.3125 4.275
1.625 0.375 4.2125
1.5625 0.375 4.275
1.625 0.3125 4.2125
1.5625 0.3125 4.275
1.5625 0.375 4.2125
1.5625 0.3125 4.2125
1.75 0.3125 4.275
1.75 0.375 4.2125
1.6875 0.375 4.275
1.75 0.3125 4.2125
1.6875 0.3125 4.275
1.6875 0.375 4.2125
1.6875 0.3125 4.2125
1.875 0.3125 4.275
1.875 0.375 4.2125
1.8125 0.375 4.275
1.875 0.3125 4.2125
1.8125 0.3125 4.275
1.8125 0.375 4.2125
1.8125 0.3125 4.2125
2 0.3125 4.275
2 0.375 4.2125
1.9375 0.375 4.275
2 0.3125 4.2125
1.9375 0.3125 4.275
1.9375 0.375 4.2125
1.9375 0.3125 4.2125
2.125 0.3125 4.275
2.125 0.375 4.2125
2.0625 0.375 4.275
2.125 0.3125 4.2125
2.0625 0.3125 4.275
2.0625 0.375 4.2125
2.0625 0.3125 4.2125
2.25 0.3125 4.275
2.25 0.375 4.2125
2.1875 0.375 4.275
2.25 0.3125 4.2125
2.1875 0.3125 4.275
2.1875 0.375 4.2125
2.1875 0.3125 4.2125
2.375 0.3125 4.275
2.375 0.375 4.2125
2.3125 0.375 4.275
2.375 0.3125 4.2125
2.3125 0.3125 4.275
2.3125 0.375 4.2125
2.3125 0.3125 4.2125
2.5 0.3125 4.275
2.5 0.375 4.2125
2.4375 0.375 4.275
2.5 0.3125 4.2125
2.4375 0.3125 4.275
2.4375 0.375 4.2125
2.4375 0.3125 4.2125
2.625 0.3125 4.275
2.625 0.375 4.2125
2.5625 0.375 4.275
2.625 0.3125 4.2125
2.5625 0.3125 4.275
2.5625 0.375 4.2125
2.5625 0.3125 4.2125
2.75 0.3125 4.275
2.75 0.375 4.2125
2.6875 0.375 4.275
2.75 0.3125 4.2125
2.6875 0.3125 4.275
2.6875 0.375 4.2125
2.6875 0.3125 4.2125
2.875 0.3125 4.275
2.875 0.375 4.2125
2.8125 0.375 4.275
2.875 0.3125 4.2125
2.8125 0.3125 4.275
2.8125 0.375 4.2125
2.8125 0.3125 4.2125
3 0.3125 4.275
3 0.375 4.2125
2.9375 0.375 4.275
3 0.3125 4.2125
2.9375 0.3125 4.275
2.9375 0.375 4.2125
2.9375 0.3125 4.2125
3.125 0.3125 4.275
3.125 0.375 4.2125
3.0625 0.375 4.275
3.125 0.3125 4.2125
3.0625 0.3125 4.275
3.0625 0.375 4.2125
3.0625 0.3125 4.2125
3.25 0.3125 4.275
3.25 0.375 4.2125
3.1875 0.375 4.275
3.25 0.3125 4.2125
3.1875 0.3125 4.275
3.1875 0.375 4.2125
3.1875 0.3125 4.2125
3.375 0.3125 4.275
3.375 0.375 4.2125
3.3125 0.375 4.275
3.375 0.3125 4.2125
3.3125 0.3125 4.275
3.3125 0.375 4.2125
3.3125 0.3125 4.2125
3.5 0.3125 4.275
3.5 0.375 4.2125
3.4375 0.375 4.275
3.5 0.3125 4.2125
3.4375 0.3125 4.275
3.4375 0.375 4.2125
3.4375 0.3125 4.2125
3.625 0.3125 4.275
3.625 0.375 4.2125
3.5625 0.375 4.275
3.625 0.3125 4.2125
3.5625 0.3125 4.275
3.5625 0.375 4.2125
3.5625 0.3125 4.2125
3.75 0.3125 4.275
3.75 0.375 4.2125
3.6875 0.375 4.275
3.75 0.3125 4.2125
3.6875 0.3125 4.275
3.6875 0.375 4.2125
3.6875 0.3125 4.2125
3.875 0.3125 4.275
3.875 0.375 4.2125
3.8125 0.375 4.275
3.875 0.3125 4.2125
3.8125 0.3125 4.275
3.8125 0.375 4.2125
3.8125 0.3125 4.2125
4 0.3125 4.275
4 0.375 4.2125
3.9375 0.375 4.275
4 0.3125 4.2125
3.9375 0.3125 4.275
3.9375 0.375 4.2125
3.9375 0.3125 4.2125
0.125 0.4375 4.275
0 0.4375 4.275
0.125 0.5 4.2125
0.0625 0.5 4.275
0 0.5 4.2125
0.125 0.4375 4.2125
0.0625 0.4375 4.275
0 0.4375 4.2125
0.0625 0.5 4.2125
0.0625 0.4375 4.2125
0.25 0.4375 4.275
0.25 0.5 4.2125
0.1875 0.5 4.275
0.25 0.4375 4.2125
0.1875 0.4375 4.275
0.1875 0.5 4.2125
0.1875 0.4375 4.2125
0.375 0.4375 4.275
0.375 0.5 4.2125
0.3125 0.5 4.275
0.375 0.4375 4.2125
0.3125 0.4375 4.275
0.3125 0.5 4.2125
0.3125 0.4375 4.2125
0.5 0.4375 4.275
0.5 0.5 4.2125
0.4375 0.5 4.275
0.5 0.4375 4.2125
0.4375 0.4375 4.275
0.4375 0.5 4.2125
0.4375 0.4375 4.2125
0.625 0.4375 4.275
0.625 0.5 4.2125
0.5625 0.5 4.275
0.625 0.4375 4.2125
0.5625 0.4375 4.275
0.5625 0.5 4.2125
0.5625 0.4375 4.2125
0.75 0.4375 4.275
0.75 0.5 4.2125
0.6875 0.5 4.275
0.75 0.4375 4.2125
0.6875 0.4375 4.275
0.6875 0.5 4.2125
0.6875 0.4375 4.2125
0.875 0.4375 4.275
0.875 0.5 4.2125
0.8125 0.5 4.275
0.875 0.4375 4.2125
0.8125 0.4375 4.275
0.8125 0.5 4.2125
0.8125 0.4375 4.2125
1 0.4375 4.275
1 0.5 4.2125
0.9375 0.5 4.275
1 0.4375 4.2125
0.9375 0.4375 4.275
0.9375 0.5 4.2125
0.9375 0.4375 4.2125
1.125 0.4375 4.275
1.125 0.5 4.2125
1.0625 0.5 4.275
1.125 0.4375 4.2125
1.0625 0.4375 4.275
1.0625 0.5 4.2125
1.0625 0.4375 4.2125
1.25 0.4375 4.275
1.25 0.5 4.2125
1.1875 0.5 4.275
1.25 0.4375 4.2125
1.1875 0.4375 4.275
1.1875 0.5 4.2125
1.1875 0.4375 4.2125
1.375 0.4375 4.275
1.375 0.5 4.2125
1.3125 0.5 4.275
1.375 0.4375 4.2125
1.3125 0.4375 4.275
1.3125 0.5 4.2125
1.3125 0.4375 4.2125
1.5 0.4375 4.275
1.5 0.5 4.2125
1.4375 0.5 4.275
1.5 0.4375 4.2125
1.4375 0.4375 4.275
1.4375 0.5 4.2125
1.4375 0.4375 4.2125
1.625 0.4375 4.275
1.625 0.5 4.2125
1.5625 0.5 4.275
1.625 0.4375 4.2125
1.5625 0.4375 4.275
1.5625 0.5 4.2125
1.5625 0.4375 4.2125
1.75 0.4375 4.275
1.75 0.5 4.2125
1.6875 0.5 4.275
1.75 0.4375 4.2125
1.6875 0.4375 4.275
1.6875 0.5 4.2125
1.6875 0.4375 4.2125
1.875 0.4375 4.275
1.875 0.5 4.2125
1.8125 0.5 4.275
1.875 0.4375 4.2125
1.8125 0.4375 4.275
1.8125 0.5 4.2125
1.8125 0.4375 4.2125
2 0.4375 4.275
2 0.5 4.2125
1.9375 0.5 4.275
2 0.4375 4.2125
1.9375 0.4375 4.275
1.9375 0.5 4.2125
1.9375 0.4375 4.2125
2.125 0.4375 4.275
2.125 0.5 4.2125
2.0625 0.5 4.275
2.125 0.4375 4.2125
2.0625 0.4375 4.275
2.0625 0.5 4.2125
2.0625 0.4375 4.2125
2.25 0.4375 4.275
2.25 0.5 4.2125
2.1875 0.5 4.275
2.25 0.4375 4.2125
2.1875 0.4375 4.275
2.1875 0.5 4.2125
2.1875 0.4375 4.2125
2.375 0.4375 4.275
2.375 0.5 4.2125
2.3125 0.5 4.275
2.375 0.4375 4.2125
2.3125 0.4375 4.275
2.3125 0.5 4.2125
2.3125 0.4375 4.2125
2.5 0.4375 4.275
2.5 0.5 4.2125
2.4375 0.5 4.275
2.5 0.4375 4.2125
2.4375 0.4375 4.275
2.4375 0.5 4.2125
2.4375 0.4375 4.2125
2.625 0.4375 4.275
2.625 0.5 4.2125
2.5625 0.5 4.275
2.625 0.4375 4.2125
2.5625 0.4375 4.275
2.5625 0.5 4.2125
2.5625 0.4375 4.2125
2.75 0.4375 4.275
2.75 0.5 4.2125
2.6875 0.5 4.275
2.75 0.4375 4.2125
2.6875 0.4375 4.275
2.6875 0.5 4.2125
2.6875 0.4375 4.2125
2.875 0.4375 4.275
2.875 0.5 4.2125
2.8125 0.5 4.275
2.875 0.4375 4.2125
2.8125 0.4375 4.275
2.8125 0.5 4.2125
2.8125 0.4375 4.2125
3 0.4375 4.275
3 0.5 4.2125
2.9375 0.5 4.275
3 0.4375 4.2125
2.9375 0.4375 4.275
2.9375 0.5 4.2125
2.9375 0.4375 4.2125
3.125 0.4375 4.275
3.125 0.5 4.2125
3.0625 0.5 4.275
3.125 0.4375 4.2125
3.0625 0.4375 4.275
3.0625 0.5 4.2125
3.0625 0.4375 4.2125
3.25 0.4375 4.275
3.25 0.5 4.2125
3.1875 0.5 4.275
3.25 0.4375 4.2125
3.1875 0.4375 4.275
3.1875 0.5 4.2125
3.1875 0.4375 4.2125
3.375 0.4375 4.275
3.375 0.5 4.2125
3.3125 0.5 4.275
3.375 0.4375 4.2125
3.3125 0.4375 4.275
3.3125 0.5 4.2125
3.3125 0.4375 4.2125
3.5 0.4375 4.275
3.5 0.5 4.2125
3.4375 0.5 4.275
3.5 0.4375 4.2125
3.4375 0.4375 4.275
3.4375 0.5 4.2125
3.4375 0.4375 4.2125
3.625 0.4375 4.275
3.625 0.5 4.2125
3.5625 0.5 4.275
3.625 0.4375 4.2125
3.5625 0.4375 4.275
3.5625 0.5 4.2125
3.5625 0.4375 4.2125
3.75 0.4375 4.275
3.75 0.5 4.2125
3.6875 0.5 4.275
3.75 0.4375 4.2125
3.6875 0.4375 4.275
3.6875 0.5 4.2125
3.6875 0.4375 4.2125
3.875 0.4375 4.275
3.875 0.5 4.2125
3.8125 0.5 4.275
3.875 0.4375 4.2125
3.8125 0.4375 4.275
3.8125 0.5 4.2125
3.8125 0.4375 4.2125
4 0.4375 4.275
4 0.5 4.2125
3.9375 0.5 4.275
4 0.4375 4.2125
3.9375 0.4375 4.275
3.9375 0.5 4.2125
3.9375 0.4375 4.2125
0.125 0.5625 4.275
0 0.5625 4.275
0.125 0.625 4.2125
0.0625 0.625 4.275
0 0.625 4.2125
0.125 0.5625 4.2125
0.0625 0.5625 4.275
0 0.5625 4.2125
0.0625 0.625 4.2125
0.0625 0.5625 4.2125
0.25 0.5625 4.275
0.25 0.625 4.2125
0.1875 0.625 4.275
0.25 0.5625 4.2125
0.1875 0.5625 4.275
0.1875 0.625 4.2125
0.1875 0.5625 4.2125
0.375 0.5625 4.275
0.375 0.625 4.2125
0.3125 0.625 4.275
0.375 0.5625 4.2125
0.3125 0.5625 4.275
0.3125 0.625 4.2125
0.3125 0.5625 4.2125
0.5 0.5625 4.275
0.5 0.625 4.2125
0.4375 0.625 4.275
0.5 0.5625 4.2125
0.4375 0.5625 4.275
0.4375 0.625 4.2125
0.4375 0.5625 4.2125
0.625 0.5625 4.275
0.625 0.625 4.2125
0.5625 0.625 4.275
0.625 0.5625 4.2125
0.5625 0.5625 4.275
0.5625 0.625 4.2125
0.5625 0.5625 4.2125
0.75 0.5625 4.275
0.75 0.625 4.2125
0.6875 0.625 4.275
0.75 0.5625 4.2125
0.6875 0.5625 4.275
0.6875 0.625 4.2125
0.6875 0.5625 4.2125
0.875 0.5625 4.275
0.875 0.625 4.2125
0.8125 0.625 4.275
0.875 0.5625 4.2125
0.8125 0.5625 4.275
0.8125 0.625 4.2125
0.8125 0.5625 4.2125
1 0.5625 4.275
1 0.625 4.2125
0.9375 0.625 4.275
1 0.5625 4.2125
0.9375 0.5625 4.275
0.9375 0.625 4.2125
0.9375 0.5625 4.2125
1.125 0.5625 4.275
1.125 0.625 4.2125
1.0625 0.625 4.275
1.125 0.5625 4.2125
1.0625 0.5625 4.275
1.0625 0.625 4.2125
1.0625 0.5625 4.2125
1.25 0.5625 4.275
1.25 0.625 4.2125
1.1875 0.625 4.275
1.25 0.5625 4.2125
1.1875 0.5625 4.275
1.1875 0.625 4.2125
1.1875 0.5625 4.2125
1.375 0.5625 4.275
1.375 0.625 4.2125
1.3125 0.625 4.275
1.375 0.5625 4.2125
1.3125 0.5625 4.275
1.3125 0.625 4.2125
1.3125 0.5625 4.2125
1.5 0.5625 4.275
1.5 0.625 4.2125
1.4375 0.625 4.275
1.5 0.5625 4.2125
1.4375 0.5625 4.275
1.4375 0.625 4.2125
1.4375 0.5625 4.2125
1.625 0.5625 4.275
1.625 0.625 4.2125
1.5625 0.625 4.275
1.625 0.5625 4.2125
1.5625 0.5625 4.275
1.5625 0.625 4.2125
1.5625 0.5625 4.2125
1.75 0.5625 4.275
1.75 0.625 4.2125
1.6875 0.625 4.275
1.75 0.5625 4.2125
1.6875 0.5625 4.275
1.6875 0.625 4.2125
1.6875 0.5625 4.2125
1.875 0.5625 4.275
1.875 0.625 4.2125
1.8125 0.625 4.275
1.875 0.5625 4.2125
1.8125 0.5625 4.275
1.8125 0.625 4.2125
1.8125 0.5625 4.2125
2 0.5625 4.275
2 0.625 4.2125
1.9375 0.625 4.275
2 0.5625 4.2125
1.9375 0.5625 4.275
1.9375 0.625 4.2125
1.9375 0.5625 4.2125
2.125 0.5625 4.275
2.125 0.625 4.2125
2.0625 0.625 4.275
2.125 0.5625 4.2125
2.0625 0.5625 4.275
2.0625 0.625 4.2125
2.0625 0.5625 4.2125
2.25 0.5625 4.275
2.25 0.625 4.2125
2.1875 0.625 4.275
2.25 0.5625 4.2125
2.1875 0.5625 4.275
2.1875 0.625 4.2125
2.1875 0.5625 4.2125
2.375 0.5625 4.275
2.375 0.625 4.2125
2.3125 0.625 4.275
2.375 0.5625 4.2125
2.3125 0.5625 4.275
2.3125 0.625 4.2125
2.3125 0.5625 4.2125
2.5 0.5625 4.275
2.5 0.625 4.2125
2.4375 0.625 4.275
2.5 0.5625 4.2125
2.4375 0.5625 4.275
2.4375 0.625 4.2125
2.4375 0.5625 4.2125
2.625 0.5625 4.275
2.625 0.625 4.2125
2.5625 0.625 4.275
2.625 0.5625 4.2125
2.5625 0.5625 4.275
2.5625 0.625 4.2125
2.5625 0.5625 4.2125
2.75 0.5625 4.275
2.75 0.625 4.2125
2.6875 0.625 4.275
2.75 0.5625 4.2125
2.6875 0.5625 4.275
2.6875 0.625 4.2125
2.6875 0.5625 4.2125
2.875 0.5625 4.275
2.875 0.625 4.2125
2.8125 0.625 4.275
2.875 0.5625 4.2125
2.8125 0.5625 4.275
2.8125 0.625 4.2125
2.8125 0.5625 4.2125
3 0.5625 4.275
3 0.625 4.2125
2.9375 0.625 4.275
3 0.5625 4.2125
2.9375 0.5625 4.275
2.9375 0.625 4.2125
2.9375 0.5625 4.2125
3.125 0.5625 4.275
3.125 0.625 4.2125
3.0625 0.625 4.275
3.125 0.5625 4.2125
3.0625 0.5625 4.275
3.0625 0.625 4.2125
3.0625 0.5625 4.2125
3.25 0.5625 4.275
3.25 0.625 4.2125
3.1875 0.625 4.275
3.25 0.5625 4.2125
3.1875 0.5625 4.275
3.1875 0.625 4.2125
3.1875 0.5625 4.2125
3.375 0.5625 4.275
3.375 0.625 4.2125
3.3125 0.625 4.275
3.375 0.5625 4.2125
3.3125 0.5625 4.275
3.3125 0.625 4.2125
3.3125 0.5625 4.2125
3.5 0.5625 4.275
3.5 0.625 4.2125
3.4375 0.625 4.275
3.5 0.5625 4.2125
3.4375 0.5625 4.275
3.4375 0.625 4.2125
3.4375 0.5625 4.2125
3.625 0.5625 4.275
3.625 0.625 4.2125
3.5625 0.625 4.275
3.625 0.5625 4.2125
3.5625 0.5625 4.275
3.5625 0.625 4.2125
3.5625 0.5625 4.2125
3.75 0.5625 4.275
3.75 0.625 4.2125
3.6875 0.625 4.275
3.75 0.5625 4.2125
3.6875 0.5625 4.275
3.6875 0.625 4.2125
3.6875 0.5625 4.2125
3.875 0.5625 4.275
3.875 0.625 4.2125
3.8125 0.625 4.275
3.875 0.5625 4.2125
3.8125 0.5625 4.275
3.8125 0.625 4.2125
3.8125 0.5625 4.2125
4 0.5625 4.275
4 0.625 4.2125
3.9375 0.625 4.275
4 0.5625 4.2125
3.9375 0.5625 4.275
3.9375 0.625 4.2125
3.9375 0.5625 4.2125
0.125 0.6875 4.275
0 0.6875 4.275
0.125 0.75 4.2125
0.0625 0.75 4.275
0 0.75 4.2125
0.125 0.6875 4.2125
0.0625 0.6875 4.275
0 0.6875 4.2125
0.0625 0.75 4.2125
0.0625 0.6875 4.2125
0.25 0.6875 4.275
0.25 0.75 4.2125
0.1875 0.75 4.275
0.25 0.6875 4.2125
0.1875 0.6875 4.275
0.1875 0.75 4.2125
0.1875 0.6875 4.2125
0.375 0.6875 4.275
0.375 0.75 4.2125
0.3125 0.75 4.275
0.375 0.6875 4.2125
0.3125 0.6875 4.275
0.3125 0.75 4.2125
0.3125 0.6875 4.2125
0.5 0.6875 4.275
0.5 0.75 4.2125
0.4375 0.75 4.275
0.5 0.6875 4.2125
0.4375 0.6875 4.275
0.4375 0.75 4.2125
0.4375 0.6875 4.2125
0.625 0.6875 4.275
0.625 0.75 4.2125
0.5625 0.75 4.275
0.625 0.6875 4.2125
0.5625 0.6875 4.275
0.5625 0.75 4.2125
0.5625 0.6875 4.2125
0.75 0.6875 4.275
0.75 0.75 4.2125
0.6875 0.75 4.275
0.75 0.6875 4.2125
0.6875 0.6875 4.275
0.6875 0.75 4.2125
0.6875 0.6875 4.2125
0.875 0.6875 4.275
0.875 0.75 4.2125
0.8125 0.75 4.275
0.875 0.6875 4.2125
0.8125 0.6875 4.275
0.8125 0.75 4.2125
0.8125 0.6875 4.2125
1 0.6875 4.275
1 0.75 4.2125
0.9375 0.75 4.275
1 0.6875 4.2125
0.9375 0.6875 4.275
0.9375 0.75 4.2125
0.9375 0.6875 4.2125
1.125 0.6875 4.275
1.125 0.75 4.2125
1.0625 0.75 4.275
1.125 0.6875 4.2125
1.0625 0.6875 4.275
1.0625 0.75 4.2125
1.0625 0.6875 4.2125
1.25 0.6875 4.275
1.25 0.75 4.2125
1.1875 0.75 4.275
1.25 0.6875 4.2125
1.1875 0.6875 4.275
1.1875 0.75 4.2125
1.1875 0.6875 4.2125
1.375 0.6875 4.275
1.375 0.75 4.2125
1.3125 0.75 4.275
1.375 0.6875 4.2125
1.3125 0.6875 4.275
1.3125 0.75 4.2125
1.3125 0.6875 4.2125
1.5 0.6875 4.275
1.5 0.75 4.2125
1.4375 0.75 4.275
1.5 0.6875 4.2125
1.4375 0.6875 4.275
1.4375 0.75 4.2125
1.4375 0.6875 4.2125
1.625 0.6875 4.275
1.625 0.75 4.2125
1.5625 0.75 4.275
1.625 0.6875 4.2125
1.5625 0.6875 4.275
1.5625 0.75 4.2125
1.5625 0.6875 4.2125
1.75 0.6875 4.275
1.75 0.75 4.2125
1.6875 0.75 4.275
1.75 0.6875 4.2125
1.6875 0.6875 4.275
1.6875 0.75 4.2125
1.6875 0.6875 4.2125
1.875 0.6875 4.275
1.875 0.75 4.2125
1.8125 0.75 4.275
1.875 0.6875 4.2125
1.8125 0.6875 4.275
1.8125 0.75 4.2125
1.8125 0.6875 4.2125
2 0.6875 4.275
2 0.75 4.2125
1.9375 0.75 4.275
2 0.6875 4.2125
1.9375 0.6875 4.275
1.9375 0.75 4.2125
1.9375 0.6875 4.2125
2.125 0.6875 4.275
2.125 0.75 4.2125
2.0625 0.75 4.275
2.125 0.6875 4.2125
2.0625 0.6875 4.275
2.0625 0.75 4.2125
2.0625 0.6875 4.2125
2.25 0.6875 4.275
2.25 0.75 4.2125
2.1875 0.75 4.275
2.25 0.6875 4.2125
2.1875 0.6875 4.275
2.1875 0.75 4.2125
2.1875 0.6875 4.2125
2.375 0.6875 4.275
2.375 0.75 4.2125
2.3125 0.75 4.275
2.375 0.6875 4.2125
2.3125 0.6875 4.275
2.3125 0.75 4.2125
2.3125 0.6875 4.2125
2.5 0.6875 4.275
2.5 0.75 4.2125
2.4375 0.75 4.275
2.5 0.6875 4.2125
2.4375 0.6875 4.275
2.4375 0.75 4.2125
2.4375 0.6875 4.2125
2.625 0.6875 4.275
2.625 0.75 4.2125
2.5625 0.75 4.275
2.625 0.6875 4.2125
2.5625 0.6875 4.275
2.5625 0.75 4.2125
2.5625 0.6875 4.2125
2.75 0.6875 4.275
2.75 0.75 4.2125
2.6875 0.75 4.275
2.75 0.6875 4.2125
2.6875 0.6875 4.275
2.6875 0.75 4.2125
2.6875 0.6875 4.2125
2.875 0.6875 4.275
2.875 0.75 4.2125
2.8125 0.75 4.275
2.875 0.6875 4.2125
2.8125 0.6875 4.275
2.8125 0.75 4.2125
2.8125 0.6875 4.2125
3 0.6875 4.275
3 0.75 4.2125
2.9375 0.75 4.275
3 0.6875 4.2125
2.9375 0.6875 4.275
2.9375 0.75 4.2125
2.9375 0.6875 4.2125
3.125 0.6875 4.275
3.125 0.75 4.2125
3.0625 0.75 4.275
3.125 0.6875 4.2125
3.0625 0.6875 4.275
3.0625 0.75 4.2125
3.0625 0.6875 4.2125
3.25 0.6875 4.275
3.25 0.75 4.2125
3.1875 0.75 4.275
3.25 0.6875 4.2125
3.1875 0.6875 4.275
3.1875 0.75 4.2125
3.1875 0.6875 4.2125
3.375 0.6875 4.275
3.375 0.75 4.2125
3.3125 0.75 4.275
3.375 0.6875 4.2125
3.3125 0.6875 4.275
3.3125 0.75 4.2125
3.3125 0.6875 4.2125
3.5 0.6875 4.275
3.5 0.75 4.2125
3.4375 0.75 4.275
3.5 0.6875 4.2125
3.4375 0.6875 4.275
3.4375 0.75 4.2125
3.4375 0.6875 4.2125
3.625 0.6875 4.275
3.625 0.75 4.2125
3.5625 0.75 4.275
3.625 0.6875 4.2125
3.5625 0.6875 4.275
3.5625 0.75 4.2125
3.5625 0.6875 4.2125
3.75 0.6875 4.275
3.75 0.75 4.2125
3.6875 0.75 4.275
3.75 0.6875 4.2125
3.6875 0.6875 4.275
3.6875 0.75 4.2125
3.6875 0.6875 4.2125
3.875 0.6875 4.275
3.875 0.75 4.2125
3.8125 0.75 4.275
3.875 0.6875 4.2125
3.8125 0.6875 4.275
3.8125 0.75 4.2125
3.8125 0.6875 4.2125
4 0.6875 4.275
4 0.75 4.2125
3.9375 0.75 4.275
4 0.6875 4.2125
3.9375 0.6875 4.275
3.9375 0.75 4.2125
3.9375 0.6875 4.2125
0.125 0.8125 4.275
0 0.8125 4.275
0.125 0.875 4.2125
0.0625 0.875 4.275
0 0.875 4.2125
0.125 0.8125 4.2125
0.0625 0.8125 4.275
0 0.8125 4.2125
0.0625 0.875 4.2125
0.0625 0.8125 4.2125
0.25 0.8125 4.275
0.25 0.875 4.2125
0.1875 0.875 4.275
0.25 0.8125 4.2125
0.1875 0.8125 4.275
0.1875 0.875 4.2125
0.1875 0.8125 4.2125
0.375 0.8125 4.275
0.375 0.875 4.2125
0.3125 0.875 4.275
0.375 0.8125 4.2125
0.3125 0.8125 4.275
0.3125 0.875 4.2125
0.3125 0.8125 4.2125
0.5 0.8125 4.275
0.5 0.875 4.2125
0.4375 0.875 4.275
0.5 0.8125 4.2125
0.4375 0.8125 4.275
0.4375 0.875 4.2125
0.4375 0.8125 4.2125
0.625 0.8125 4.275
0.625 0.875 4.2125
0.5625 0.875 4.275
0.625 0.8125 4.2125
0.5625 0.8125 4.275
0.5625 0.875 4.2125
0.5625 0.8125 4.2125
0.75 0.8125 4.275
0.75 0.875 4.2125
0.6875 0.875 4.275
0.75 0.8125 4.2125
0.6875 0.8125 4.275
0.6875 0.875 4.2125
0.6875 0.8125 4.2125
0.875 0.8125 4.275
0.875 0.875 4.2125
0.8125 0.875 4.275
0.875 0.8125 4.2125
0.8125 0.8125 4.275
0.8125 0.875 4.2125
0.8125 0.8125 4.2125
1 0.8125 4.275
1 0.875 4.2125
0.9375 0.875 4.275
1 0.8125 4.2125
0.9375 0.8125 4.275
0.9375 0.875 4.2125
0.9375 0.8125 4.2125
1.125 0.8125 4.275
1.125 0.875 4.2125
1.0625 0.875 4.275
1.125 0.8125 4.2125
1.0625 0.8125 4.275
1.0625 0.875 4.2125
1.0625 0.8125 4.2125
1.25 0.8125 4.275
1.25 0.875 4.2125
1.1875 0.875 4.275
1.25 0.8125 4.2125
1.1875 0.8125 4.275
1.1875 0.875 4.2125
1.1875 0.8125 4.2125
1.375 0.8125 4.275
1.375 0.875 4.2125
1.3125 0.875 4.275
1.375 0.8125 4.2125
1.3125 0.8125 4.275
1.3125 0.875 4.2125
1.3125 0.8125 4.2125
1.5 0.8125 4.275
1.5 0.875 4.2125
1.4375 0.875 4.275
1.5 0.8125 4.2125
1.4375 0.8125 4.275
1.4375 0.875 4.2125
1.4375 0.8125 4.2125
1.625 0.8125 4.275
1.625 0.875 4.2125
1.5625 0.875 4.275
1.625 0.8125 4.2125
1.5625 0.8125 4.275
1.5625 0.875 4.2125
1.5625 0.8125 4.2125
1.75 0.8125 4.275
1.75 0.875 4.2125
1.6875 0.875 4.275
1.75 0.8125 4.2125
1.6875 0.8125 4.275
1.6875 0.875 4.2125
1.6875 0.8125 4.2125
1.875 0.8125 4.275
1.875 0.875 4.2125
1.8125 0.875 4.275
1.875 0.8125 4.2125
1.8125 0.8125 4.275
1.8125 0.875 4.2125
1.8125 0.8125 4.2125
2 0.8125 4.275
2 0.875 4.2125
1.9375 0.875 4.275
2 0.8125 4.2125
1.9375 0.8125 4.275
1.9375 0.875 4.2125
1.9375 0.8125 4.2125
2.125 0.8125 4.275
2.125 0.875 4.2125
2.0625 0.875 4.275
2.125 0.8125 4.2125
2.0625 0.8125 4.275
2.0625 0.875 4.2125
2.0625 0.8125 4.2125
2.25 0.8125 4.275
2.25 0.875 4.2125
2.1875 0.875 4.275
2.25 0.8125 4.2125
2.1875 0.8125 4.275
2.1875 0.875 4.2125
2.1875 0.8125 4.2125
2.375 0.8125 4.275
2.375 0.875 4.2125
2.3125 0.875 4.275
2.375 0.8125 4.2125
2.3125 0.8125 4.275
2.3125 0.875 4.2125
2.3125 0.8125 4.2125
2.5 0.8125 4.275
2.5 0.875 4.2125
2.4375 0.875 4.275
2.5 0.8125 4.2125
2.4375 0.8125 4.275
2.4375 0.875 4.2125
2.4375 0.8125 4.2125
2.625 0.8125 4.275
2.625 0.875 4.2125
2.5625 0.875 4.275
2.625 0.8125 4.2125
2.5625 0.8125 4.275
2.5625 0.875 4.2125
2.5625 0.8125 4.2125
2.75 0.8125 4.275
2.75 0.875 4.2125
2.6875 0.875 4.275
2.75 0.8125 4.2125
2.6875 0.8125 4.275
2.6875 0.875 4.2125
2.6875 0.8125 4.2125
2.875 0.8125 4.275
2.875 0.875 4.2125
2.8125 0.875 4.275
2.875 0.8125 4.2125
2.8125 0.8125 4.275
2.8125 0.875 4.2125
2.8125 0.8125 4.2125
3 0.8125 4.275
3 0.875 4.2125
2.9375 0.875 4.275
3 0.8125 4.2125
2.9375 0.8125 4.275
2.9375 0.875 4.2125
2.9375 0.8125 4.2125
3.125 0.8125 4.275
3.125 0.875 4.2125
3.0625 0.875 4.275
3.125 0.8125 4.2125
3.0625 0.8125 4.275
3.0625 0.875 4.2125
3.0625 0.8125 4.2125
3.25 0.8125 4.275
3.25 0.875 4.2125
3.1875 0.875 4.275
3.25 0.8125 4.2125
3.1875 0.8125 4.275
3.1875 0.875 4.2125
3.1875 0.8125 4.2125
3.375 0.8125 4.275
3.375 0.875 4.2125
3.3125 0.875 4.275
3.375 0.8125 4.2125
3.3125 0.8125 4.275
3.3125 0.875 4.2125
3.3125 0.8125 4.2125
3.5 0.8125 4.275
3.5 0.875 4.2125
3.4375 0.875 4.275
3.5 0.8125 4.2125
3.4375 0.8125 4.275
3.4375 0.875 4.2125
3.4375 0.8125 4.2125
3.625 0.8125 4.275
3.625 0.875 4.2125
3.5625 0.875 4.275
3.625 0.8125 4.2125
3.5625 0.8125 4.275
3.5625 0.875 4.2125
3.5625 0.8125 4.2125
3.75 0.8125 4.275
3.75 0.875 4.2125
3.6875 0.875 4.275
3.75 0.8125 4.2125
3.6875 0.8125 4.275
3.6875 0.875 4.2125
3.6875 0.8125 4.2125
3.875 0.8125 4.275
3.875 0.875 4.2125
3.8125 0.875 4.275
3.875 0.8125 4.2125
3.8125 0.8125 4.275
3.8125 0.875 4.2125
3.8125 0.8125 4.2125
4 0.8125 4.275
4 0.875 4.2125
3.9375 0.875 4.275
4 0.8125 4.2125
3.9375 0.8125 4.275
3.9375 0.875 4.2125
3.9375 0.8125 4.2125
0.125 0.9375 4.275
0 0.9375 4.275
0.125 1 4.2125
0.0625 1 4.275
0 1 4.2125
0.125 0.9375 4.2125
0.0625 0.9375 4.275
0 0.9375 4.2125
0.0625 1 4.2125
0.0625 0.9375 4.2125
0.25 0.9375 4.275
0.25 1 4.2125
0.1875 1 4.275
0.25 0.9375 4.2125
0.1875 0.9375 4.275
0.1875 1 4.2125
0.1875 0.9375 4.2125
0.375 0.9375 4.275
0.375 1 4.2125
0.3125 1 4.275
0.375 0.9375 4.2125
0.3125 0.9375 4.275
0.3125 1 4.2125
0.3125 0.9375 4.2125
0.5 0.9375 4.275
0.5 1 4.2125
0.4375 1 4.275
0.5 0.9375 4.2125
0.4375 0.9375 4.275
0.4375 1 4.2125
0.4375 0.9375 4.2125
0.625 0.9375 4.275
0.625 1 4.2125
0.5625 1 4.275
0.625 0.9375 4.2125
0.5625 0.9375 4.275
0.5625 1 4.2125
0.5625 0.9375 4.2125
0.75 0.9375 4.275
0.75 1 4.2125
0.6875 1 4.275
0.75 0.9375 4.2125
0.6875 0.9375 4.275
0.6875 1 4.2125
0.6875 0.9375 4.2125
0.875 0.9375 4.275
0.875 1 4.2125
0.8125 1 4.275
0.875 0.9375 4.2125
0.8125 0.9375 4.275
0.8125 1 4.2125
0.8125 0.9375 4.2125
1 0.9375 4.275
1 1 4.2125
0.9375 1 4.275
1 0.9375 4.2125
0.9375 0.9375 4.275
0.9375 1 4.2125
0.9375 0.9375 4.2125
1.125 0.9375 4.275
1.125 1 4.2125
1.0625 1 4.275
1.125 0.9375 4.2125
1.0625 0.9375 4.275
1.0625 1 4.2125
1.0625 0.9375 4.2125
1.25 0.9375 4.275
1.25 1 4.2125
1.1875 1 4.275
1.25 0.9375 4.2125
1.1875 0.9375 4.275
1.1875 1 4.2125
1.1875 0.9375 4.2125
1.375 0.9375 4.275
1.375 1 4.2125
1.3125 1 4.275
1.375 0.9375 4.2125
1.3125 0.9375 4.275
1.3125 1 4.2125
1.3125 0.9375 4.2125
1.5 0.9375 4.275
1.5 1 4.2125
1.4375 1 4.275
1.5 0.9375 4.2125
1.4375 0.9375 4.275
1.4375 1 4.2125
1.4375 0.9375 4.2125
1.625 0.9375 4.275
1.625 1 4.2125
1.5625 1 4.275
1.625 0.9375 4.2125
1.5625 0.9375 4.275
1.5625 1 4.2125
1.5625 0.9375 4.2125
1.75 0.9375 4.275
1.75 1 4.2125
1.6875 1 4.275
1.75 0.9375 4.2125
1.6875 0.9375 4.275
1.6875 1 4.2125
1.6875 0.9375 4.2125
1.875 0.9375 4.275
1.875 1 4.2125
1.8125 1 4.275
1.875 0.9375 4.2125
1.8125 0.9375 4.275
1.8125 1 4.2125
1.8125 0.9375 4.2125
2 0.9375 4.275
2 1 4.2125
1.9375 1 4.275
2 0.9375 4.2125
1.9375 0.9375 4.275
1.9375 1 4.2125
1.9375 0.9375 4.2125
2.125 0.9375 4.275
2.125 1 4.2125
2.0625 1 4.275
2.125 0.9375 4.2125
2.0625 0.9375 4.275
2.0625 1 4.2125
2.0625 0.9375 4.2125
2.25 0.9375 4.275
2.25 1 4.2125
2.1875 1 4.275
2.25 0.9375 4.2125
2.1875 0.9375 4.275
2.1875 1 4.2125
2.1875 0.9375 4.2125
2.375 0.9375 4.275
2.375 1 4.2125
2.3125 1 4.275
2.375 0.9375 4.2125
2.3125 0.9375 4.275
2.3125 1 4.2125
2.3125 0.9375 4.2125
2.5 0.9375 4.275
2.5 1 4.2125
2.4375 1 4.275
2.5 0.9375 4.2125
2.4375 0.9375 4.275
2.4375 1 4.2125
2.4375 0.9375 4.2125
2.625 0.9375 4.275
2.625 1 4.2125
2.5625 1 4.275
2.625 0.9375 4.2125
2.5625 0.9375 4.275
2.5625 1 4.2125
2.5625 0.9375 4.2125
2.75 0.9375 4.275
2.75 1 4.2125
2.6875 1 4.275
2.75 0.9375 4.2125
2.6875 0.9375 4.275
2.6875 1 4.2125
2.6875 0.9375 4.2125
2.875 0.9375 4.275
2.875 1 4.2125
2.8125 1 4.275
2.875 0.9375 4.2125
2.8125 0.9375 4.275
2.8125 1 4.2125
2.8125 0.9375 4.2125
3 0.9375 4.275
3 1 4.2125
2.9375 1 4.275
3 0.9375 4.2125
2.9375 0.9375 4.275
2.9375 1 4.2125
2.9375 0.9375 4.2125
3.125 0.9375 4.275
3.125 1 4.2125
3.0625 1 4.275
3.125 0.9375 4.2125
3.0625 0.9375 4.275
3.0625 1 4.2125
3.0625 0.9375 4.2125
3.25 0.9375 4.275
3.25 1 4.2125
3.1875 1 4.275
3.25 0.9375 4.2125
3.1875 0.9375 4.275
3.1875 1 4.2125
3.1875 0.9375 4.2125
3.375 0.9375 4.275
3.375 1 4.2125
3.3125 1 4.275
3.375 0.9375 4.2125
3.3125 0.9375 4.275
3.3125 1 4.2125
3.3125 0.9375 4.2125
3.5 0.9375 4.275
3.5 1 4.2125
3.4375 1 4.275
3.5 0.9375 4.2125
3.4375 0.9375 4.275
3.4375 1 4.2125
3.4375 0.9375 4.2125
3.625 0.9375 4.275
3.625 1 4.2125
3.5625 1 4.275
3.625 0.9375 4.2125
3.5625 0.9375 4.275
3.5625 1 4.2125
3.5625 0.9375 4.2125
3.75 0.9375 4.275
3.75 1 4.2125
3.6875 1 4.275
3.75 0.9375 4.2125
3.6875 0.9375 4.275
3.6875 1 4.2125
3.6875 0.9375 4.2125
3.875 0.9375 4.275
3.875 1 4.2125
3.8125 1 4.275
3.875 0.9375 4.2125
3.8125 0.9375 4.275
3.8125 1 4.2125
3.8125 0.9375 4.2125
4 0.9375 4.275
4 1 4.2125
3.9375 1 4.275
4 0.9375 4.2125
3.9375 0.9375 4.275
3.9375 1 4.2125
3.9375 0.9375 4.2125
0.125 0 4.3375
0.0625 0 4.4
0 0 4.3375
0.125 0.0625 4.4
0 0.0625 4.4
0.125 0.125 4.3375
0.0625 0.125 4.4
0 0.125 4.3375
0.0625 0 4.3375
0.125 0.0625 4.3375
0.0625 0.0625 4.4
0 0.0625 4.3375
0.0625 0.125 4.3375
0.0625 0.0625 4.3375
0.25 0 4.3375
0.1875 0 4.4
0.25 0.0625 4.4
0.25 0.125 4.3375
0.1875 0.125 4.4
0.1875 0 4.3375
0.25 0.0625 4.3375
0.1875 0.0625 4.4
0.1875 0.125 4.3375
0.1875 0.0625 4.3375
0.375 0 4.3375
0.3125 0 4.4
0.375 0.0625 4.4
0.375 0.125 4.3375
0.3125 0.125 4.4
0.3125 0 4.3375
0.375 0.0625 4.3375
0.3125 0.0625 4.4
0.3125 0.125 4.3375
0.3125 0.0625 4.3375
0.5 0 4.3375
0.4375 0 4.4
0.5 0.0625 4.4
0.5 0.125 4.3375
0.4375 0.125 4.4
0.4375 0 4.3375
0.5 0.0625 4.3375
0.4375 0.0625 4.4
0.4375 0.125 4.3375
0.4375 0.0625 4.3375
0.625 0 4.3375
0.5625 0 4.4
0.625 0.0625 4.4
0.625 0.125 4.3375
0.5625 0.125 4.4
0.5625 0 4.3375
0.625 0.0625 4.3375
0.5625 0.0625 4.4
0.5625 0.125 4.3375
0.5625 0.0625 4.3375
0.75 0 4.3375
0.6875 0 4.4
0.75 0.0625 4.4
0.75 0.125 4.3375
0.6875 0.125 4.4
0.6875 0 4.3375
0.75 0.0625 4.3375
0.6875 0.0625 4.4
0.6875 0.125 4.3375
0.6875 0.0625 4.3375
0.875 0 4.3375
0.8125 0 4.4
0.875 0.0625 4.4
0.875 0.125 4.3375
0.8125 0.125 4.4
0.8125 0 4.3375
0.875 0.0625 4.3375
0.8125 0.0625 4.4
0.8125 0.125 4.3375
0.8125 0.0625 4.3375
1 0 4.3375
0.9375 0 4.4
1 0.0625 4.4
1 0.125 4.3375
0.9375 0.125 4.4
0.9375 0 4.3375
1 0.0625 4.3375
0.9375 0.0625 4.4
0.9375 0.125 4.3375
0.9375 0.0625 4.3375
1.125 0 4.3375
1.0625 0 4.4
1.125 0.0625 4.4
1.125 0.125 4.3375
1.0625 0.125 4.4
1.0625 0 4.3375
1.125 0.0625 4.3375
1.0625 0.0625 4.4
1.0625 0.125 4.3375
1.0625 0.0625 4.3375
1.25 0 4.3375
1.1875 0 4.4
1.25 0.0625 4.4
1.25 0.125 4.3375
1.1875 0.125 4.4
1.1875 0 4.3375
1.25 0.0625 4.3375
1.1875 0.0625 4.4
1.1875 0.125 4.3375
1.1875 0.0625 4.3375
1.375 0 4.3375
1.3125 0 4.4
1.375 0.0625 4.4
1.375 0.125 4.3375
1.3125 0.125 4.4
1.3125 0 4.3375
1.375 0.0625 4.3375
1.3125 0.0625 4.4
1.3125 0.125 4.3375
1.3125 0.0625 4.3375
1.5 0 4.3375
1.4375 0 4.4
1.5 0.0625 4.4
1.5 0.125 4.3375
1.4375 0.125 4.4
1.4375 0 4.3375
1.5 0.0625 4.3375
1.4375 0.0625 4.4
1.4375 0.125 4.3375
1.4375 0.0625 4.3375
1.625 0 4.3375
1.5625 0 4.4
1.625 0.0625 4.4
1.625 0.125 4.3375
1.5625 0.125 4.4
1.5625 0 4.3375
1.625 0.0625 4.3375
1.5625 0.0625 4.4
1.5625 0.125 4.3375
1.5625 0.0625 4.3375
1.75 0 4.3375
1.6875 0 4.4
1.75 0.0625 4.4
1.75 0.125 4.3375
1.6875 0.125 4.4
1.6875 0 4.3375
1.75 0.0625 4.3375
1.6875 0.0625 4.4
1.6875 0.125 4.3375
1.6875 0.0625 4.3375
1.875 0 4.3375
1.8125 0 4.4
1.875 0.0625 4.4
1.875 0.125 4.3375
1.8125 0.125 4.4
1.8125 0 4.3375
1.875 0.0625 4.3375
1.8125 0.0625 4.4
1.8125 0.125 4.3375
1.8125 0.0625 4.3375
2 0 4.3375
1.9375 0 4.4
2 0.0625 4.4
2 0.125 4.3375
1.9375 0.125 4.4
1.9375 0 4.3375
2 0.0625 4.3375
1.9375 0.0625 4.4
1.9375 0.125 4.3375
1.9375 0.0625 4.3375
2.125 0 4.3375
2.0625 0 4.4
2.125 0.0625 4.4
2.125 0.125 4.3375
2.0625 0.125 4.4
2.0625 0 4.3375
2.125 0.0625 4.3375
2.0625 0.0625 4.4
2.0625 0.125 4.3375
2.0625 0.0625 4.3375
2.25 0 4.3375
2.1875 0 4.4
2.25 0.0625 4.4
2.25 0.125 4.3375
2.1875 0.125 4.4
2.1875 0 4.3375
2.25 0.0625 4.3375
2.1875 0.0625 4.4
2.1875 0.125 4.3375
2.1875 0.0625 4.3375
2.375 0 4.3375
2.3125 0 4.4
2.375 0.0625 4.4
2.375 0.125 4.3375
2.3125 0.125 4.4
2.3125 0 4.3375
2.375 0.0625 4.3375
2.3125 0.0625 4.4
2.3125 0.125 4.3375
2.3125 0.0625 4.3375
2.5 0 4.3375
2.4375 0 4.4
2.5 0.0625 4.4
2.5 0.125 4.3375
2.4375 0.125 4.4
2.4375 0 4.3375
2.5 0.0625 4.3375
2.4375 0.0625 4.4
2.4375 0.125 4.3375
2.4375 0.0625 4.3375
2.625 0 4.3375
2.5625 0 4.4
2.625 0.0625 4.4
2.625 0.125 4.3375
2.5625 0.125 4.4
2.5625 0 4.3375
2.625 0.0625 4.3375
2.5625 0.0625 4.4
2.5625 0.125 4.3375
2.5625 0.0625 4.3375
2.75 0 4.3375
2.6875 0 4.4
2.75 0.0625 4.4
2.75 0.125 4.3375
2.6875 0.125 4.4
2.6875 0 4.3375
2.75 0.0625 4.3375
2.6875 0.0625 4.4
2.6875 0.125 4.3375
2.6875 0.0625 4.3375
2.875 0 4.3375
2.8125 0 4.4
2.875 0.0625 4.4
2.875 0.125 4.3375
2.8125 0.125 4.4
2.8125 0 4.3375
2.875 0.0625 4.3375
2.8125 0.0625 4.4
2.8125 0.125 4.3375
2.8125 0.0625 4.3375
3 0 4.3375
2.9375 0 4.4
3 0.0625 4.4
3 0.125 4.3375
2.9375 0.125 4.4
2.9375 0 4.3375
3 0.0625 4.3375
2.9375 0.0625 4.4
2.9375 0.125 4.3375
2.9375 0.0625 4.3375
3.125 0 4.3375
3.0625 0 4.4
3.125 0.0625 4.4
3.125 0.125 4.3375
3.0625 0.125 4.4
3.0625 0 4.3375
3.125 0.0625 4.3375
3.0625 0.0625 4.4
3.0625 0.125 4.3375
3.0625 0.0625 4.3375
3.25 0 4.3375
3.1875 0 4.4
3.25 0.0625 4.4
3.25 0.125 4.3375
3.1875 0.125 4.4
3.1875 0 4.3375
3.25 0.0625 4.3375
3.1875 0.0625 4.4
3.1875 0.125 4.3375
3.1875 0.0625 4.3375
3.375 0 4.3375
3.3125 0 4.4
3.375 0.0625 4.4
3.375 0.125 4.3375
3.3125 0.125 4.4
3.3125 0 4.3375
3.375 0.0625 4.3375
3.3125 0.0625 4.4
3.3125 0.125 4.3375
3.3125 0.0625 4.3375
3.5 0 4.3375
3.4375 0 4.4
3.5 0.0625 4.4
3.5 0.125 4.3375
3.4375 0.125 4.4
3.4375 0 4.3375
3.5 0.0625 4.3375
3.4375 0.0625 4.4
3.4375 0.125 4.3375
3.4375 0.0625 4.3375
3.625 0 4.3375
3.5625 0 4.4
3.625 0.0625 4.4
3.625 0.125 4.3375
3.5625 0.125 4.4
3.5625 0 4.3375
3.625 0.0625 4.3375
3.5625 0.0625 4.4
3.5625 0.125 4.3375
3.5625 0.0625 4.3375
3.75 0 4.3375
3.6875 0 4.4
3.75 0.0625 4.4
3.75 0.125 4.3375
3.6875 0.125 4.4
3.6875 0 4.3375
3.75 0.0625 4.3375
3.6875 0.0625 4.4
3.6875 0.125 4.3375
3.6875 0.0625 4.3375
3.875 0 4.3375
3.8125 0 4.4
3.875 0.0625 4.4
3.875 0.125 4.3375
3.8125 0.125 4.4
3.8125 0 4.3375
3.875 0.0625 4.3375
3.8125 0.0625 4.4
3.8125 0.125 4.3375
3.8125 0.0625 4.3375
4 0 4.3375
3.9375 0 4.4
4 0.0625 4.4
4 0.125 4.3375
3.9375 0.125 4.4
3.9375 0 4.3375
4 0.0625 4.3375
3.9375 0.0625 4.4
3.9375 0.125 4.3375
3.9375 0.0625 4.3375
0.125 0.1875 4.4
0 0.1875 4.4
0.125 0.25 4.3375
0.0625 0.25 4.4
0 0.25 4.3375
0.125 0.1875 4.3375
0.0625 0.1875 4.4
0 0.1875 4.3375
0.0625 0.25 4.3375
0.0625 0.1875 4.3375
0.25 0.1875 4.4
0.25 0.25 4.3375
0.1875 0.25 4.4
0.25 0.1875 4.3375
0.1875 0.1875 4.4
0.1875 0.25 4.3375
0.1875 0.1875 4.3375
0.375 0.1875 4.4
0.375 0.25 4.3375
0.3125 0.25 4.4
0.375 0.1875 4.3375
0.3125 0.1875 4.4
0.3125 0.25 4.3375
0.3125 0.1875 4.3375
0.5 0.1875 4.4
0.5 0.25 4.3375
0.4375 0.25 4.4
0.5 0.1875 4.3375
0.4375 0.1875 4.4
0.4375 0.25 4.3375
0.4375 0.1875 4.3375
0.625 0.1875 4.4
0.625 0.25 4.3375
0.5625 0.25 4.4
0.625 0.1875 4.3375
0.5625 0.1875 4.4
0.5625 0.25 4.3375
0.5625 0.1875 4.3375
0.75 0.1875 4.4
0.75 0.25 4.3375
0.6875 0.25 4.4
0.75 0.1875 4.3375
0.6875 0.1875 4.4
0.6875 0.25 4.3375
0.6875 0.1875 4.3375
0.875 0.1875 4.4
0.875 0.25 4.3375
0.8125 0.25 4.4
0.875 0.1875 4.3375
0.8125 0.1875 4.4
0.8125 0.25 4.3375
0.8125 0.1875 4.3375
1 0.1875 4.4
1 0.25 4.3375
0.9375 0.25 4.4
1 0.1875 4.3375
0.9375 0.1875 4.4
0.9375 0.25 4.3375
0.9375 0.1875 4.3375
1.125 0.1875 4.4
1.125 0.25 4.3375
1.0625 0.25 4.4
1.125 0.1875 4.3375
1.0625 0.1875 4.4
1.0625 0.25 4.3375
1.0625 0.1875 4.3375
1.25 0.1875 4.4
1.25 0.25 4.3375
1.1875 0.25 4.4
1.25 0.1875 4.3375
1.1875 0.1875 4.4
1.1875 0.25 4.3375
1.1875 0.1875 4.3375
1.375 0.1875 4.4
1.375 0.25 4.3375
1.3125 0.25 4.4
1.375 0.1875 4.3375
1.3125 0.1875 4.4
1.3125 0.25 4.3375
1.3125 0.1875 4.3375
1.5 0.1875 4.4
1.5 0.25 4.3375
1.4375 0.25 4.4
1.5 0.1875 4.3375
1.4375 0.1875 4.4
1.4375 0.25 4.3375
1.4375 0.1875 4.3375
1.625 0.1875 4.4
1.625 0.25 4.3375
1.5625 0.25 4.4
1.625 0.1875 4.3375
1.5625 0.1875 4.4
1.5625 0.25 4.3375
1.5625 0.1875 4.3375
1.75 0.1875 4.4
1.75 0.25 4.3375
1.6875 0.25 4.4
1.75 0.1875 4.3375
1.6875 0.1875 4.4
1.6875 0.25 4.3375
1.6875 0.1875 4.3375
1.875 0.1875 4.4
1.875 0.25 4.3375
1.8125 0.25 4.4
1.875 0.1875 4.3375
1.8125 0.1875 4.4
1.8125 0.25 4.3375
1.8125 0.1875 4.3375
2 0.1875 4.4
2 0.25 4.3375
1.9375 0.25 4.4
2 0.1875 4.3375
1.9375 0.1875 4.4
1.9375 0.25 4.3375
1.9375 0.1875 4.3375
2.125 0.1875 4.4
2.125 0.25 4.3375
2.0625 0.25 4.4
2.125 0.1875 4.3375
2.0625 0.1875 4.4
2.0625 0.25 4.3375
2.0625 0.1875 4.3375
2.25 0.1875 4.4
2.25 0.25 4.3375
2.1875 0.25 4.4
2.25 0.1875 4.3375
2.1875 0.1875 4.4
2.1875 0.25 4.3375
2.1875 0.1875 4.3375
2.375 0.1875 4.4
2.375 0.25 4.3375
2.3125 0.25 4.4
2.375 0.1875 4.3375
2.3125 0.1875 4.4
2.3125 0.25 4.3375
2.3125 0.1875 4.3375
2.5 0.1875 4.4
2.5 0.25 4.3375
2.4375 0.25 4.4
2.5 0.1875 4.3375
2.4375 0.1875 4.4
2.4375 0.25 4.3375
2.4375 0.1875 4.3375
2.625 0.1875 4.4
2.625 0.25 4.3375
2.5625 0.25 4.4
2.625 0.1875 4.3375
2.5625 0.1875 4.4
2.5625 0.25 4.3375
2.5625 0.1875 4.3375
2.75 0.1875 4.4
2.75 0.25 4.3375
2.6875 0.25 4.4
2.75 0.1875 4.3375
2.6875 0.1875 4.4
2.6875 0.25 4.3375
2.6875 0.1875 4.3375
2.875 0.1875 4.4
2.875 0.25 4.3375
2.8125 0.25 4.4
2.875 0.1875 4.3375
2.8125 0.1875 4.4
2.8125 0.25 4.3375
2.8125 0.1875 4.3375
3 0.1875 4.4
3 0.25 4.3375
2.9375 0.25 4.4
3 0.1875 4.3375
2.9375 0.1875 4.4
2.9375 0.25 4.3375
2.9375 0.1875 4.3375
3.125 0.1875 4.4
3.125 0.25 4.3375
3.0625 0.25 4.4
3.125 0.1875 4.3375
3.0625 0.1875 4.4
3.0625 0.25 4.3375
3.0625 0.1875 4.3375
3.25 0.1875 4.4
3.25 0.25 4.3375
3.1875 0.25 4.4
3.25 0.1875 4.3375
3.1875 0.1875 4.4
3.1875 0.25 4.3375
3.1875 0.1875 4.3375
3.375 0.1875 4.4
3.375 0.25 4.3375
3.3125 0.25 4.4
3.375 0.1875 4.3375
3.3125 0.1875 4.4
3.3125 0.25 4.3375
3.3125 0.1875 4.3375
3.5 0.1875 4.4
3.5 0.25 4.3375
3.4375 0.25 4.4
3.5 0.1875 4.3375
3.4375 0.1875 4.4
3.4375 0.25 4.3375
3.4375 0.1875 4.3375
3.625 0.1875 4.4
3.625 0.25 4.3375
3.5625 0.25 4.4
3.625 0.1875 4.3375
3.5625 0.1875 4.4
3.5625 0.25 4.3375
3.5625 0.1875 4.3375
3.75 0.1875 4.4
3.75 0.25 4.3375
3.6875 0.25 4.4
3.75 0.1875 4.3375
3.6875 0.1875 4.4
3.6875 0.25 4.3375
3.6875 0.1875 4.3375
3.875 0.1875 4.4
3.875 0.25 4.3375
3.8125 0.25 4.4
3.875 0.1875 4.3375
3.8125 0.1875 4.4
3.8125 0.25 4.3375
3.8125 0.1875 4.3375
4 0.1875 4.4
4 0.25 4.3375
3.9375 0.25 4.4
4 0.1875 4.3375
3.9375 0.1875 4.4
3.9375 0.25 4.3375
3.9375 0.1875 4.3375
0.125 0.3125 4.4
0 0.3125 4.4
0.125 0.375 4.3375
0.0625 0.375 4.4
0 0.375 4.3375
0.125 0.3125 4.3375
0.0625 0.3125 4.4
0 0.3125 4.3375
0.0625 0.375 4.3375
0.0625 0.3125 4.3375
0.25 0.3125 4.4
0.25 0.375 4.3375
0.1875 0.375 4.4
0.25 0.3125 4.3375
0.1875 0.3125 4.4
0.1875 0.375 4.3375
0.1875 0.3125 4.3375
0.375 0.3125 4.4
0.375 0.375 4.3375
0.3125 0.375 4.4
0.375 0.3125 4.3375
0.3125 0.3125 4.4
0.3125 0.375 4.3375
0.3125 0.3125 4.3375
0.5 0.3125 4.4
0.5 0.375 4.3375
0.4375 0.375 4.4
0.5 0.3125 4.3375
0.4375 0.3125 4.4
0.4375 0.375 4.3375
0.4375 0.3125 4.3375
0.625 0.3125 4.4
0.625 0.375 4.3375
0.5625 0.375 4.4
0.625 0.3125 4.3375
0.5625 0.3125 4.4
0.5625 0.375 4.3375
0.5625 0.3125 4.3375
0.75 0.3125 4.4
0.75 0.375 4.3375
0.6875 0.375 4.4
0.75 0.3125 4.3375
0.6875 0.3125 4.4
0.6875 0.375 4.3375
0.6875 0.3125 4.3375
0.875 0.3125 4.4
0.875 0.375 4.3375
0.8125 0.375 4.4
0.875 0.3125 4.3375
0.8125 0.3125 4.4
0.8125 0.375 4.3375
0.8125 0.3125 4.3375
1 0.3125 4.4
1 0.375 4.3375
0.9375 0.375 4.4
1 0.3125 4.3375
0.9375 0.3125 4.4
0.9375 0.375 4.3375
0.9375 0.3125 4.3375
1.125 0.3125 4.4
1.125 0.375 4.3375
1.0625 0.375 4.4
1.125 0.3125 4.3375
1.0625 0.3125 4.4
1.0625 0.375 4.3375
1.0625 0.3125 4.3375
1.25 0.3125 4.4
1.25 0.375 4.3375
1.1875 0.375 4.4
1.25 0.3125 4.3375
1.1875 0.3125 4.4
1.1875 0.375 4.3375
1.1875 0.3125 4.3375
1.375 0.3125 4.4
1.375 0.375 4.3375
1.3125 0.375 4.4
1.375 0.3125 4.3375
1.3125 0.3125 4.4
1.3125 0.375 4.3375
1.3125 0.3125 4.3375
1.5 0.3125 4.4
1.5 0.375 4.3375
1.4375 0.375 4.4
1.5 0.3125 4.3375
1.4375 0.3125 4.4
1.4375 0.375 4.3375
1.4375 0.3125 4.3375
1.625 0.3125 4.4
1.625 0.375 4.3375
1.5625 0.375 4.4
1.625 0.3125 4.3375
1.5625 0.3125 4.4
1.5625 0.375 4.3375
1.5625 0.3125 4.3375
1.75 0.3125 4.4
1.75 0.375 4.3375
1.6875 0.375 4.4
1.75 0.3125 4.3375
1.6875 0.3125 4.4
1.6875 0.375 4.3375
1.6875 0.3125 4.3375
1.875 0.3125 4.4
1.875 0.375 4.3375
1.8125 0.375 4.4
1.875 0.3125 4.3375
1.8125 0.3125 4.4
1.8125 0.375 4.3375
1.8125 0.3125 4.3375
2 0.3125 4.4
2 0.375 4.3375
1.9375 0.375 4.4
2 0.3125 4.3375
1.9375 0.3125 4.4
1.9375 0.375 4.3375
1.9375 0.3125 4.3375
2.125 0.3125 4.4
2.125 0.375 4.3375
2.0625 0.375 4.4
2.125 0.3125 4.3375
2.0625 0.3125 4.4
2.0625 0.375 4.3375
2.0625 0.3125 4.3375
2.25 0.3125 4.4
2.25 0.375 4.3375
2.1875 0.375 4.4
2.25 0.3125 4.3375
2.1875 0.3125 4.4
2.1875 0.375 4.3375
2.1875 0.3125 4.3375
2.375 0.3125 4.4
2.375 0.375 4.3375
2.3125 0.375 4.4
2.375 0.3125 4.3375
2.3125 0.3125 4.4
2.3125 0.375 4.3375
2.3125 0.3125 4.3375
2.5 0.3125 4.4
2.5 0.375 4.3375
2.4375 0.375 4.4
2.5 0.3125 4.3375
2.4375 0.3125 4.4
2.4375 0.375 4.3375
2.4375 0.3125 4.3375
2.625 0.3125 4.4
2.625 0.375 4.3375
2.5625 0.375 4.4
2.625 0.3125 4.3375
2.5625 0.3125 4.4
2.5625 0.375 4.3375
2.5625 0.3125 4.3375
2.75 0.3125 4.4
2.75 0.375 4.3375
2.6875 0.375 4.4
2.75 0.3125 4.3375
2.6875 0.3125 4.4
2.6875 0.375 4.3375
2.6875 0.3125 4.3375
2.875 0.3125 4.4
2.875 0.375 4.3375
2.8125 0.375 4.4
2.875 0.3125 4.3375
2.8125 0.3125 4.4
2.8125 0.375 4.3375
2.8125 0.3125 4.3375
3 0.3125 4.4
3 0.375 4.3375
2.9375 0.375 4.4
3 0.3125 4.3375
2.9375 0.3125 4.4
2.9375 0.375 4.3375
2.9375 0.3125 4.3375
3.125 0.3125 4.4
3.125 0.375 4.3375
3.0625 0.375 4.4
3.125 0.3125 4.3375
3.0625 0.3125 4.4
3.0625 0.375 4.3375
3.0625 0.3125 4.3375
3.25 0.3125 4.4
3.25 0.375 4.3375
3.1875 0.375 4.4
3.25 0.3125 4.3375
3.1875 0.3125 4.4
3.1875 0.375 4.3375
3.1875 0.3125 4.3375
3.375 0.3125 4.4
3.375 0.375 4.3375
3.3125 0.375 4.4
3.375 0.3125 4.3375
3.3125 0.3125 4.4
3.3125 0.375 4.3375
3.3125 0.3125 4.3375
3.5 0.3125 4.4
3.5 0.375 4.3375
3.4375 0.375 4.4
3.5 0.3125 4.3375
3.4375 0.3125 4.4
3.4375 0.375 4.3375
3.4375 0.3125 4.3375
3.625 0.3125 4.4
3.625 0.375 4.3375
3.5625 0.375 4.4
3.625 0.3125 4.3375
3.5625 0.3125 4.4
3.5625 0.375 4.3375
3.5625 0.3125 4.3375
3.75 0.3125 4.4
3.75 0.375 4.3375
3.6875 0.375 4.4
3.75 0.3125 4.3375
3.6875 0.3125 4.4
3.6875 0.375 4.3375
3.6875 0.3125 4.3375
3.875 0.3125 4.4
3.875 0.375 4.3375
3.8125 0.375 4.4
3.875 0.3125 4.3375
3.8125 0.3125 4.4
3.8125 0.375 4.3375
3.8125 0.3125 4.3375
4 0.3125 4.4
4 0.375 4.3375
3.9375 0.375 4.4
4 0.3125 4.3375
3.9375 0.3125 4.4
3.9375 0.375 4.3375
3.9375 0.3125 4.3375
0.125 0.4375 4.4
0 0.4375 4.4
0.125 0.5 4.3375
0.0625 0.5 4.4
0 0.5 4.3375
0.125 0.4375 4.3375
0.0625 0.4375 4.4
0 0.4375 4.3375
0.0625 0.5 4.3375
0.0625 0.4375 4.3375
0.25 0.4375 4.4
0.25 0.5 4.3375
0.1875 0.5 4.4
0.25 0.4375 4.3375
0.1875 0.4375 4.4
0.1875 0.5 4.3375
0.1875 0.4375 4.3375
0.375 0.4375 4.4
0.375 0.5 4.3375
0.3125 0.5 4.4
0.375 0.4375 4.3375
0.3125 0.4375 4.4
0.3125 0.5 4.3375
0.3125 0.4375 4.3375
0.5 0.4375 4.4
0.5 0.5 4.3375
0.4375 0.5 4.4
0.5 0.4375 4.3375
0.4375 0.4375 4.4
0.4375 0.5 4.3375
0.4375 0.4375 4.3375
0.625 0.4375 4.4
0.625 0.5 4.3375
0.5625 0.5 4.4
0.625 0.4375 4.3375
0.5625 0.4375 4.4
0.5625 0.5 4.3375
0.5625 0.4375 4.3375
0.75 0.4375 4.4
0.75 0.5 4.3375
0.6875 0.5 4.4
0.75 0.4375 4.3375
0.6875 0.4375 4.4
0.6875 0.5 4.3375
0.6875 0.4375 4.3375
0.875 0.4375 4.4
0.875 0.5 4.3375
0.8125 0.5 4.4
0.875 0.4375 4.3375
0.8125 0.4375 4.4
0.8125 0.5 4.3375
0.8125 0.4375 4.3375
1 0.4375 4.4
1 0.5 4.3375
0.9375 0.5 4.4
1 0.4375 4.3375
0.9375 0.4375 4.4
0.9375 0.5 4.3375
0.9375 0.4375 4.3375
1.125 0.4375 4.4
1.125 0.5 4.3375
1.0625 0.5 4.4
1.125 0.4375 4.3375
1.0625 0.4375 4.4
1.0625 0.5 4.3375
1.0625 0.4375 4.3375
1.25 0.4375 4.4
1.25 0.5 4.3375
1.1875 0.5 4.4
1.25 0.4375 4.3375
1.1875 0.4375 4.4
1.1875 0.5 4.3375
1.1875 0.4375 4.3375
1.375 0.4375 4.4
1.375 0.5 4.3375
1.3125 0.5 4.4
1.375 0.4375 4.3375
1.3125 0.4375 4.4
1.3125 0.5 4.3375
1.3125 0.4375 4.3375
1.5 0.4375 4.4
1.5 0.5 4.3375
1.4375 0.5 4.4
1.5 0.4375 4.3375
1.4375 0.4375 4.4
1.4375 0.5 4.3375
1.4375 0.4375 4.3375
1.625 0.4375 4.4
1.625 0.5 4.3375
1.5625 0.5 4.4
1.625 0.4375 4.3375
1.5625 0.4375 4.4
1.5625 0.5 4.3375
1.5625 0.4375 4.3375
1.75 0.4375 4.4
1.75 0.5 4.3375
1.6875 0.5 4.4
1.75 0.4375 4.3375
1.6875 0.4375 4.4
1.6875 0.5 4.3375
1.6875 0.4375 4.3375
1.875 0.4375 4.4
1.875 0.5 4.3375
1.8125 0.5 4.4
1.875 0.4375 4.3375
1.8125 0.4375 4.4
1.8125 0.5 4.3375
1.8125 0.4375 4.3375
2 0.4375 4.4
2 0.5 4.3375
1.9375 0.5 4.4
2 0.4375 4.3375
1.9375 0.4375 4.4
1.9375 0.5 4.3375
1.9375 0.4375 4.3375
2.125 0.4375 4.4
2.125 0.5 4.3375
2.0625 0.5 4.4
2.125 0.4375 4.3375
2.0625 0.4375 4.4
2.0625 0.5 4.3375
2.0625 0.4375 4.3375
2.25 0.4375 4.4
2.25 0.5 4.3375
2.1875 0.5 4.4
2.25 0.4375 4.3375
2.1875 0.4375 4.4
2.1875 0.5 4.3375
2.1875 0.4375 4.3375
2.375 0.4375 4.4
2.375 0.5 4.3375
2.3125 0.5 4.4
2.375 0.4375 4.3375
2.3125 0.4375 4.4
2.3125 0.5 4.3375
2.3125 0.4375 4.3375
2.5 0.4375 4.4
2.5 0.5 4.3375
2.4375 0.5 4.4
2.5 0.4375 4.3375
2.4375 0.4375 4.4
2.4375 0.5 4.3375
2.4375 0.4375 4.3375
2.625 0.4375 4.4
2.625 0.5 4.3375
2.5625 0.5 4.4
2.625 0.4375 4.3375
2.5625 0.4375 4.4
2.5625 0.5 4.3375
2.5625 0.4375 4.3375
2.75 0.4375 4.4
2.75 0.5 4.3375
2.6875 0.5 4.4
2.75 0.4375 4.3375
2.6875 0.4375 4.4
2.6875 0.5 4.3375
2.6875 0.4375 4.3375
2.875 0.4375 4.4
2.875 0.5 4.3375
2.8125 0.5 4.4
2.875 0.4375 4.3375
2.8125 0.4375 4.4
2.8125 0.5 4.3375
2.8125 0.4375 4.3375
3 0.4375 4.4
3 0.5 4.3375
2.9375 0.5 4.4
3 0.4375 4.3375
2.9375 0.4375 4.4
2.9375 0.5 4.3375
2.9375 0.4375 4.3375
3.125 0.4375 4.4
3.125 0.5 4.3375
3.0625 0.5 4.4
3.125 0.4375 4.3375
3.0625 0.4375 4.4
3.0625 0.5 4.3375
3.0625 0.4375 4.3375
3.25 0.4375 4.4
3.25 0.5 4.3375
3.1875 0.5 4.4
3.25 0.4375 4.3375
3.1875 0.4375 4.4
3.1875 0.5 4.3375
3.1875 0.4375 4.3375
3.375 0.4375 4.4
3.375 0.5 4.3375
3.3125 0.5 4.4
3.375 0.4375 4.3375
3.3125 0.4375 4.4
3.3125 0.5 4.3375
3.3125 0.4375 4.3375
3.5 0.4375 4.4
3.5 0.5 4.3375
3.4375 0.5 4.4
3.5 0.4375 4.3375
3.4375 0.4375 4.4
3.4375 0.5 4.3375
3.4375 0.4375 4.3375
3.625 0.4375 4.4
3.625 0.5 4.3375
3.5625 0.5 4.4
3.625 0.4375 4.3375
3.5625 0.4375 4.4
3.5625 0.5 4.3375
3.5625 0.4375 4.3375
3.75 0.4375 4.4
3.75 0.5 4.3375
3.6875 0.5 4.4
3.75 0.4375 4.3375
3.6875 0.4375 4.4
3.6875 0.5 4.3375
3.6875 0.4375 4.3375
3.875 0.4375 4.4
3.875 0.5 4.3375
3.8125 0.5 4.4
3.875 0.4375 4.3375
3.8125 0.4375 4.4
3.8125 0.5 4.3375
3.8125 0.4375 4.3375
4 0.4375 4.4
4 0.5 4.3375
3.9375 0.5 4.4
4 0.4375 4.3375
3.9375 0.4375 4.4
3.9375 0.5 4.3375
3.9375 0.4375 4.3375
0.125 0.5625 4.4
0 0.5625 4.4
0.125 0.625 4.3375
0.0625 0.625 4.4
0 0.625 4.3375
0.125 0.5625 4.3375
0.0625 0.5625 4.4
0 0.5625 4.3375
0.0625 0.625 4.3375
0.0625 0.5625 4.3375
0.25 0.5625 4.4
0.25 0.625 4.3375
0.1875 0.625 4.4
0.25 0.5625 4.3375
0.1875 0.5625 4.4
0.1875 0.625 4.3375
0.1875 0.5625 4.3375
0.375 0.5625 4.4
0.375 0.625 4.3375
0.3125 0.625 4.4
0.375 0.5625 4.3375
0.3125 0.5625 4.4
0.3125 0.625 4.3375
0.3125 0.5625 4.3375
0.5 0.5625 4.4
0.5 0.625 4.3375
0.4375 0.625 4.4
0.5 0.5625 4.3375
0.4375 0.5625 4.4
0.4375 0.625 4.3375
0.4375 0.5625 4.3375
0.625 0.5625 4.4
0.625 0.625 4.3375
0.5625 0.625 4.4
0.625 0.5625 4.3375
0.5625 0.5625 4.4
0.5625 0.625 4.3375
0.5625 0.5625 4.3375
0.75 0.5625 4.4
0.75 0.625 4.3375
0.6875 0.625 4.4
0.75 0.5625 4.3375
0.6875 0.5625 4.4
0.6875 0.625 4.3375
0.6875 0.5625 4.3375
0.875 0.5625 4.4
0.875 0.625 4.3375
0.8125 0.625 4.4
0.875 0.5625 4.3375
0.8125 0.5625 4.4
0.8125 0.625 4.3375
0.8125 0.5625 4.3375
1 0.5625 4.4
1 0.625 4.3375
0.9375 0.625 4.4
1 0.5625 4.3375
0.9375 0.5625 4.4
0.9375 0.625 4.3375
0.9375 0.5625 4.3375
1.125 0.5625 4.4
1.125 0.625 4.3375
1.0625 0.625 4.4
1.125 0.5625 4.3375
1.0625 0.5625 4.4
1.0625 0.625 4.3375
1.0625 0.5625 4.3375
1.25 0.5625 4.4
1.25 0.625 4.3375
1.1875 0.625 4.4
1.25 0.5625 4.3375
1.1875 0.5625 4.4
1.1875 0.625 4.3375
1.1875 0.5625 4.3375
1.375 0.5625 4.4
1.375 0.625 4.3375
1.3125 0.625 4.4
1.375 0.5625 4.3375
1.3125 0.5625 4.4
1.3125 0.625 4.3375
1.3125 0.5625 4.3375
1.5 0.5625 4.4
1.5 0.625 4.3375
1.4375 0.625 4.4
1.5 0.5625 4.3375
1.4375 0.5625 4.4
1.4375 0.625 4.3375
1.4375 0.5625 4.3375
1.625 0.5625 4.4
1.625 0.625 4.3375
1.5625 0.625 4.4
1.625 0.5625 4.3375
1.5625 0.5625 4.4
1.5625 0.625 4.3375
1.5625 0.5625 4.3375
1.75 0.5625 4.4
1.75 0.625 4.3375
1.6875 0.625 4.4
1.75 0.5625 4.3375
1.6875 0.5625 4.4
1.6875 0.625 4.3375
1.6875 0.5625 4.3375
1.875 0.5625 4.4
1.875 0.625 4.3375
1.8125 0.625 4.4
1.875 0.5625 4.3375
1.8125 0.5625 4.4
1.8125 0.625 4.3375
1.8125 0.5625 4.3375
2 0.5625 4.4
2 0.625 4.3375
1.9375 0.625 4.4
2 0.5625 4.3375
1.9375 0.5625 4.4
1.9375 0.625 4.3375
1.9375 0.5625 4.3375
2.125 0.5625 4.4
2.125 0.625 4.3375
2.0625 0.625 4.4
2.125 0.5625 4.3375
2.0625 0.5625 4.4
2.0625 0.625 4.3375
2.0625 0.5625 4.3375
2.25 0.5625 4.4
2.25 0.625 4.3375
2.1875 0.625 4.4
2.25 0.5625 4.3375
2.1875 0.5625 4.4
2.1875 0.625 4.3375
2.1875 0.5625 4.3375
2.375 0.5625 4.4
2.375 0.625 4.3375
2.3125 0.625 4.4
2.375 0.5625 4.3375
2.3125 0.5625 4.4
2.3125 0.625 4.3375
2.3125 0.5625 4.3375
2.5 0.5625 4.4
2.5 0.625 4.3375
2.4375 0.625 4.4
2.5 0.5625 4.3375
2.4375 0.5625 4.4
2.4375 0.625 4.3375
2.4375 0.5625 4.3375
2.625 0.5625 4.4
2.625 0.625 4.3375
2.5625 0.625 4.4
2.625 0.5625 4.3375
2.5625 0.5625 4.4
2.5625 0.625 4.3375
2.5625 0.5625 4.3375
2.75 0.5625 4.4
2.75 0.625 4.3375
2.6875 0.625 4.4
2.75 0.5625 4.3375
2.6875 0.5625 4.4
2.6875 0.625 4.3375
2.6875 0.5625 4.3375
2.875 0.5625 4.4
2.875 0.625 4.3375
2.8125 0.625 4.4
2.875 0.5625 4.3375
2.8125 0.5625 4.4
2.8125 0.625 4.3375
2.8125 0.5625 4.3375
3 0.5625 4.4
3 0.625 4.3375
2.9375 0.625 4.4
3 0.5625 4.3375
2.9375 0.5625 4.4
2.9375 0.625 4.3375
2.9375 0.5625 4.3375
3.125 0.5625 4.4
3.125 0.625 4.3375
3.0625 0.625 4.4
3.125 0.5625 4.3375
3.0625 0.5625 4.4
3.0625 0.625 4.3375
3.0625 0.5625 4.3375
3.25 0.5625 4.4
3.25 0.625 4.3375
3.1875 0.625 4.4
3.25 0.5625 4.3375
3.1875 0.5625 4.4
3.1875 0.625 4.3375
3.1875 0.5625 4.3375
3.375 0.5625 4.4
3.375 0.625 4.3375
3.3125 0.625 4.4
3.375 0.5625 4.3375
3.3125 0.5625 4.4
3.3125 0.625 4.3375
3.3125 0.5625 4.3375
3.5 0.5625 4.4
3.5 0.625 4.3375
3.4375 0.625 4.4
3.5 0.5625 4.3375
3.4375 0.5625 4.4
3.4375 0.625 4.3375
3.4375 0.5625 4.3375
3.625 0.5625 4.4
3.625 0.625 4.3375
3.5625 0.625 4.4
3.625 0.5625 4.3375
3.5625 0.5625 4.4
3.5625 0.625 4.3375
3.5625 0.5625 4.3375
3.75 0.5625 4.4
3.75 0.625 4.3375
3.6875 0.625 4.4
3.75 0.5625 4.3375
3.6875 0.5625 4.4
3.6875 0.625 4.3375
3.6875 0.5625 4.3375
3.875 0.5625 4.4
3.875 0.625 4.3375
3.8125 0.625 4.4
3.875 0.5625 4.3375
3.8125 0.5625 4.4
3.8125 0.625 4.3375
3.8125 0.5625 4.3375
4 0.5625 4.4
4 0.625 4.3375
3.9375 0.625 4.4
4 0.5625 4.3375
3.9375 0.5625 4.4
3.9375 0.625 4.3375
3.9375 0.5625 4.3375
0.125 0.6875 4.4
0 0.6875 4.4
0.125 0.75 4.3375
0.0625 0.75 4.4
0 0.75 4.3375
0.125 0.6875 4.3375
0.0625 0.6875 4.4
0 0.6875 4.3375
0.0625 0.75 4.3375
0.0625 0.6875 4.3375
0.25 0.6875 4.4
0.25 0.75 4.3375
0.1875 0.75 4.4
0.25 0.6875 4.3375
0.1875 0.6875 4.4
0.1875 0.75 4.3375
0.1875 0.6875 4.3375
0.375 0.6875 4.4
0.375 0.75 4.3375
0.3125 0.75 4.4
0.375 0.6875 4.3375
0.3125 0.6875 4.4
0.3125 0.75 4.3375
0.3125 0.6875 4.3375
0.5 0.6875 4.4
0.5 0.75 4.3375
0.4375 0.75 4.4
0.5 0.6875 4.3375
0.4375 0.6875 4.4
0.4375 0.75 4.3375
0.4375 0.6875 4.3375
0.625 0.6875 4.4
0.625 0.75 4.3375
0.5625 0.75 4.4
0.625 0.6875 4.3375
0.5625 0.6875 4.4
0.5625 0.75 4.3375
0.5625 0.6875 4.3375
0.75 0.6875 4.4
0.75 0.75 4.3375
0.6875 0.75 4.4
0.75 0.6875 4.3375
0.6875 0.6875 4.4
0.6875 0.75 4.3375
0.6875 0.6875 4.3375
0.875 0.6875 4.4
0.875 0.75 4.3375
0.8125 0.75 4.4
0.875 0.6875 4.3375
0.8125 0.6875 4.4
0.8125 0.75 4.3375
0.8125 0.6875 4.3375
1 0.6875 4.4
1 0.75 4.3375
0.9375 0.75 4.4
1 0.6875 4.3375
0.9375 0.6875 4.4
0.9375 0.75 4.3375
0.9375 0.6875 4.3375
1.125 0.6875 4.4
1.125 0.75 4.3375
1.0625 0.75 4.4
1.125 0.6875 4.3375
1.0625 0.6875 4.4
1.0625 0.75 4.3375
1.0625 0.6875 4.3375
1.25 0.6875 4.4
1.25 0.75 4.3375
1.1875 0.75 4.4
1.25 0.6875 4.3375
1.1875 0.6875 4.4
1.1875 0.75 4.3375
1.1875 0.6875 4.3375
1.375 0.6875 4.4
1.375 0.75 4.3375
1.3125 0.75 4.4
1.375 0.6875 4.3375
1.3125 0.6875 4.4
1.3125 0.75 4.3375
1.3125 0.6875 4.3375
1.5 0.6875 4.4
1.5 0.75 4.3375
1.4375 0.75 4.4
1.5 0.6875 4.3375
1.4375 0.6875 4.4
1.4375 0.75 4.3375
1.4375 0.6875 4.3375
1.625 0.6875 4.4
1.625 0.75 4.3375
1.5625 0.75 4.4
1.625 0.6875 4.3375
1.5625 0.6875 4.4
1.5625 0.75 4.3375
1.5625 0.6875 4.3375
1.75 0.6875 4.4
1.75 0.75 4.3375
1.6875 0.75 4.4
1.75 0.6875 4.3375
1.6875 0.6875 4.4
1.6875 0.75 4.3375
1.6875 0.6875 4.3375
1.875 0.6875 4.4
1.875 0.75 4.3375
1.8125 0.75 4.4
1.875 0.6875 4.3375
1.8125 0.6875 4.4
1.8125 0.75 4.3375
1.8125 0.6875 4.3375
2 0.6875 4.4
2 0.75 4.3375
1.9375 0.75 4.4
2 0.6875 4.3375
1.9375 0.6875 4.4
1.9375 0.75 4.3375
1.9375 0.6875 4.3375
2.125 0.6875 4.4
2.125 0.75 4.3375
2.0625 0.75 4.4
2.125 0.6875 4.3375
2.0625 0.6875 4.4
2.0625 0.75 4.3375
2.0625 0.6875 4.3375
2.25 0.6875 4.4
2.25 0.75 4.3375
2.1875 0.75 4.4
2.25 0.6875 4.3375
2.1875 0.6875 4.4
2.1875 0.75 4.3375
2.1875 0.6875 4.3375
2.375 0.6875 4.4
2.375 0.75 4.3375
2.3125 0.75 4.4
2.375 0.6875 4.3375
2.3125 0.6875 4.4
2.3125 0.75 4.3375
2.3125 0.6875 4.3375
2.5 0.6875 4.4
2.5 0.75 4.3375
2.4375 0.75 4.4
2.5 0.6875 4.3375
2.4375 0.6875 4.4
2.4375 0.75 4.3375
2.4375 0.6875 4.3375
2.625 0.6875 4.4
2.625 0.75 4.3375
2.5625 0.75 4.4
2.625 0.6875 4.3375
2.5625 0.6875 4.4
2.5625 0.75 4.3375
2.5625 0.6875 4.3375
2.75 0.6875 4.4
2.75 0.75 4.3375
2.6875 0.75 4.4
2.75 0.6875 4.3375
2.6875 0.6875 4.4
2.6875 0.75 4.3375
2.6875 0.6875 4.3375
2.875 0.6875 4.4
2.875 0.75 4.3375
2.8125 0.75 4.4
2.875 0.6875 4.3375
2.8125 0.6875 4.4
2.8125 0.75 4.3375
2.8125 0.6875 4.3375
3 0.6875 4.4
3 0.75 4.3375
2.9375 0.75 4.4
3 0.6875 4.3375
2.9375 0.6875 4.4
2.9375 0.75 4.3375
2.9375 0.6875 4.3375
3.125 0.6875 4.4
3.125 0.75 4.3375
3.0625 0.75 4.4
3.125 0.6875 4.3375
3.0625 0.6875 4.4
3.0625 0.75 4.3375
3.0625 0.6875 4.3375
3.25 0.6875 4.4
3.25 0.75 4.3375
3.1875 0.75 4.4
3.25 0.6875 4.3375
3.1875 0.6875 4.4
3.1875 0.75 4.3375
3.1875 0.6875 4.3375
3.375 0.6875 4.4
3.375 0.75 4.3375
3.3125 0.75 4.4
3.375 0.6875 4.3375
3.3125 0.6875 4.4
3.3125 0.75 4.3375
3.3125 0.6875 4.3375
3.5 0.6875 4.4
3.5 0.75 4.3375
3.4375 0.75 4.4
3.5 0.6875 4.3375
3.4375 0.6875 4.4
3.4375 0.75 4.3375
3.4375 0.6875 4.3375
3.625 0.6875 4.4
3.625 0.75 4.3375
3.5625 0.75 4.4
3.625 0.6875 4.3375
3.5625 0.6875 4.4
3.5625 0.75 4.3375
3.5625 0.6875 4.3375
3.75 0.6875 4.4
3.75 0.75 4.3375
3.6875 0.75 4.4
3.75 0.6875 4.3375
3.6875 0.6875 4.4
3.6875 0.75 4.3375
3.6875 0.6875 4.3375
3.875 0.6875 4.4
3.875 0.75 4.3375
3.8125 0.75 4.4
3.875 0.6875 4.3375
3.8125 0.6875 4.4
3.8125 0.75 4.3375
3.8125 0.6875 4.3375
4 0.6875 4.4
4 0.75 4.3375
3.9375 0.75 4.4
4 0.6875 4.3375
3.9375 0.6875 4.4
3.9375 0.75 4.3375
3.9375 0.6875 4.3375
0.125 0.8125 4.4
0 0.8125 4.4
0.125 0.875 4.3375
0.0625 0.875 4.4
0 0.875 4.3375
0.125 0.8125 4.3375
0.0625 0.8125 4.4
0 0.8125 4.3375
0.0625 0.875 4.3375
0.0625 0.8125 4.3375
0.25 0.8125 4.4
0.25 0.875 4.3375
0.1875 0.875 4.4
0.25 0.8125 4.3375
0.1875 0.8125 4.4
0.1875 0.875 4.3375
0.1875 0.8125 4.3375
0.375 0.8125 4.4
0.375 0.875 4.3375
0.3125 0.875 4.4
0.375 0.8125 4.3375
0.3125 0.8125 4.4
0.3125 0.875 4.3375
0.3125 0.8125 4.3375
0.5 0.8125 4.4
0.5 0.875 4.3375
0.4375 0.875 4.4
0.5 0.8125 4.3375
0.4375 0.8125 4.4
0.4375 0.875 4.3375
0.4375 0.8125 4.3375
0.625 0.8125 4.4
0.625 0.875 4.3375
0.5625 0.875 4.4
0.625 0.8125 4.3375
0.5625 0.8125 4.4
0.5625 0.875 4.3375
0.5625 0.8125 4.3375
0.75 0.8125 4.4
0.75 0.875 4.3375
0.6875 0.875 4.4
0.75 0.8125 4.3375
0.6875 0.8125 4.4
0.6875 0.875 4.3375
0.6875 0.8125 4.3375
0.875 0.8125 4.4
0.875 0.875 4.3375
0.8125 0.875 4.4
0.875 0.8125 4.3375
0.8125 0.8125 4.4
0.8125 0.875 4.3375
0.8125 0.8125 4.3375
1 0.8125 4.4
1 0.875 4.3375
0.9375 0.875 4.4
1 0.8125 4.3375
0.9375 0.8125 4.4
0.9375 0.875 4.3375
0.9375 0.8125 4.3375
1.125 0.8125 4.4
1.125 0.875 4.3375
1.0625 0.875 4.4
1.125 0.8125 4.3375
1.0625 0.8125 4.4
1.0625 0.875 4.3375
1.0625 0.8125 4.3375
1.25 0.8125 4.4
1.25 0.875 4.3375
1.1875 0.875 4.4
1.25 0.8125 4.3375
1.1875 0.8125 4.4
1.1875 0.875 4.3375
1.1875 0.8125 4.3375
1.375 0.8125 4.4
1.375 0.875 4.3375
1.3125 0.875 4.4
1.375 0.8125 4.3375
1.3125 0.8125 4.4
1.3125 0.875 4.3375
1.3125 0.8125 4.3375
1.5 0.8125 4.4
1.5 0.875 4.3375
1.4375 0.875 4.4
1.5 0.8125 4.3375
1.4375 0.8125 4.4
1.4375 0.875 4.3375
1.4375 0.8125 4.3375
1.625 0.8125 4.4
1.625 0.875 4.3375
1.5625 0.875 4.4
1.625 0.8125 4.3375
1.5625 0.8125 4.4
1.5625 0.875 4.3375
1.5625 0.8125 4.3375
1.75 0.8125 4.4
1.75 0.875 4.3375
1.6875 0.875 4.4
1.75 0.8125 4.3375
1.6875 0.8125 4.4
1.6875 0.875 4.3375
1.6875 0.8125 4.3375
1.875 0.8125 4.4
1.875 0.875 4.3375
1.8125 0.875 4.4
1.875 0.8125 4.3375
1.8125 0.8125 4.4
1.8125 0.875 4.3375
1.8125 0.8125 4.3375
2 0.8125 4.4
2 0.875 4.3375
1.9375 0.875 4.4
2 0.8125 4.3375
1.9375 0.8125 4.4
1.9375 0.875 4.3375
1.9375 0.8125 4.3375
2.125 0.8125 4.4
2.125 0.875 4.3375
2.0625 0.875 4.4
2.125 0.8125 4.3375
2.0625 0.8125 4.4
2.0625 0.875 4.3375
2.0625 0.8125 4.3375
2.25 0.8125 4.4
2.25 0.875 4.3375
2.1875 0.875 4.4
2.25 0.8125 4.3375
2.1875 0.8125 4.4
2.1875 0.875 4.3375
2.1875 0.8125 4.3375
2.375 0.8125 4.4
2.375 0.875 4.3375
2.3125 0.875 4.4
2.375 0.8125 4.3375
2.3125 0.8125 4.4
2.3125 0.875 4.3375
2.3125 0.8125 4.3375
2.5 0.8125 4.4
2.5 0.875 4.3375
2.4375 0.875 4.4
2.5 0.8125 4.3375
2.4375 0.8125 4.4
2.4375 0.875 4.3375
2.4375 0.8125 4.3375
2.625 0.8125 4.4
2.625 0.875 4.3375
2.5625 0.875 4.4
2.625 0.8125 4.3375
2.5625 0.8125 4.4
2.5625 0.875 4.3375
2.5625 0.8125 4.3375
2.75 0.8125 4.4
2.75 0.875 4.3375
2.6875 0.875 4.4
2.75 0.8125 4.3375
2.6875 0.8125 4.4
2.6875 0.875 4.3375
2.6875 0.8125 4.3375
2.875 0.8125 4.4
2.875 0.875 4.3375
2.8125 0.875 4.4
2.875 0.8125 4.3375
2.8125 0.8125 4.4
2.8125 0.875 4.3375
2.8125 0.8125 4.3375
3 0.8125 4.4
3 0.875 4.3375
2.9375 0.875 4.4
3 0.8125 4.3375
2.9375 0.8125 4.4
2.9375 0.875 4.3375
2.9375 0.8125 4.3375
3.125 0.8125 4.4
3.125 0.875 4.3375
3.0625 0.875 4.4
3.125 0.8125 4.3375
3.0625 0.8125 4.4
3.0625 0.875 4.3375
3.0625 0.8125 4.3375
3.25 0.8125 4.4
3.25 0.875 4.3375
3.1875 0.875 4.4
3.25 0.8125 4.3375
3.1875 0.8125 4.4
3.1875 0.875 4.3375
3.1875 0.8125 4.3375
3.375 0.8125 4.4
3.375 0.875 4.3375
3.3125 0.875 4.4
3.375 0.8125 4.3375
3.3125 0.8125 4.4
3.3125 0.875 4.3375
3.3125 0.8125 4.3375
3.5 0.8125 4.4
3.5 0.875 4.3375
3.4375 0.875 4.4
3.5 0.8125 4.3375
3.4375 0.8125 4.4
3.4375 0.875 4.3375
3.4375 0.8125 4.3375
3.625 0.8125 4.4
3.625 0.875 4.3375
3.5625 0.875 4.4
3.625 0.8125 4.3375
3.5625 0.8125 4.4
3.5625 0.875 4.3375
3.5625 0.8125 4.3375
3.75 0.8125 4.4
3.75 0.875 4.3375
3.6875 0.875 4.4
3.75 0.8125 4.3375
3.6875 0.8125 4.4
3.6875 0.875 4.3375
3.6875 0.8125 4.3375
3.875 0.8125 4.4
3.875 0.875 4.3375
3.8125 0.875 4.4
3.875 0.8125 4.3375
3.8125 0.8125 4.4
3.8125 0.875 4.3375
3.8125 0.8125 4.3375
4 0.8125 4.4
4 0.875 4.3375
3.9375 0.875 4.4
4 0.8125 4.3375
3.9375 0.8125 4.4
3.9375 0.875 4.3375
3.9375 0.8125 4.3375
0.125 0.9375 4.4
0 0.9375 4.4
0.125 1 4.3375
0.0625 1 4.4
0 1 4.3375
0.125 0.9375 4.3375
0.0625 0.9375 4.4
0 0.9375 4.3375
0.0625 1 4.3375
0.0625 0.9375 4.3375
0.25 0.9375 4.4
0.25 1 4.3375
0.1875 1 4.4
0.25 0.9375 4.3375
0.1875 0.9375 4.4
0.1875 1 4.3375
0.1875 0.9375 4.3375
0.375 0.9375 4.4
0.375 1 4.3375
0.3125 1 4.4
0.375 0.9375 4.3375
0.3125 0.9375 4.4
0.3125 1 4.3375
0.3125 0.9375 4.3375
0.5 0.9375 4.4
0.5 1 4.3375
0.4375 1 4.4
0.5 0.9375 4.3375
0.4375 0.9375 4.4
0.4375 1 4.3375
0.4375 0.9375 4.3375
0.625 0.9375 4.4
0.625 1 4.3375
0.5625 1 4.4
0.625 0.9375 4.3375
0.5625 0.9375 4.4
0.5625 1 4.3375
0.5625 0.9375 4.3375
0.75 0.9375 4.4
0.75 1 4.3375
0.6875 1 4.4
0.75 0.9375 4.3375
0.6875 0.9375 4.4
0.6875 1 4.3375
0.6875 0.9375 4.3375
0.875 0.9375 4.4
0.875 1 4.3375
0.8125 1 4.4
0.875 0.9375 4.3375
0.8125 0.9375 4.4
0.8125 1 4.3375
0.8125 0.9375 4.3375
1 0.9375 4.4
1 1 4.3375
0.9375 1 4.4
1 0.9375 4.3375
0.9375 0.9375 4.4
0.9375 1 4.3375
0.9375 0.9375 4.3375
1.125 0.9375 4.4
1.125 1 4.3375
1.0625 1 4.4
1.125 0.9375 4.3375
1.0625 0.9375 4.4
1.0625 1 4.3375
1.0625 0.9375 4.3375
1.25 0.9375 4.4
1.25 1 4.3375
1.1875 1 4.4
1.25 0.9375 4.3375
1.1875 0.9375 4.4
1.1875 1 4.3375
1.1875 0.9375 4.3375
1.375 0.9375 4.4
1.375 1 4.3375
1.3125 1 4.4
1.375 0.9375 4.3375
1.3125 0.9375 4.4
1.3125 1 4.3375
1.3125 0.9375 4.3375
1.5 0.9375 4.4
1.5 1 4.3375
1.4375 1 4.4
1.5 0.9375 4.3375
1.4375 0.9375 4.4
1.4375 1 4.3375
1.4375 0.9375 4.3375
1.625 0.9375 4.4
1.625 1 4.3375
1.5625 1 4.4
1.625 0.9375 4.3375
1.5625 0.9375 4.4
1.5625 1 4.3375
1.5625 0.9375 4.3375
1.75 0.9375 4.4
1.75 1 4.3375
1.6875 1 4.4
1.75 0.9375 4.3375
1.6875 0.9375 4.4
1.6875 1 4.3375
1.6875 0.9375 4.3375
1.875 0.9375 4.4
1.875 1 4.3375
1.8125 1 4.4
1.875 0.9375 4.3375
1.8125 0.9375 4.4
1.8125 1 4.3375
1.8125 0.9375 4.3375
2 0.9375 4.4
2 1 4.3375
1.9375 1 4.4
2 0.9375 4.3375
1.9375 0.9375 4.4
1.9375 1 4.3375
1.9375 0.9375 4.3375
2.125 0.9375 4.4
2.125 1 4.3375
2.0625 1 4.4
2.125 0.9375 4.3375
2.0625 0.9375 4.4
2.0625 1 4.3375
2.0625 0.9375 4.3375
2.25 0.9375 4.4
2.25 1 4.3375
2.1875 1 4.4
2.25 0.9375 4.3375
2.1875 0.9375 4.4
2.1875 1 4.3375
2.1875 0.9375 4.3375
2.375 0.9375 4.4
2.375 1 4.3375
2.3125 1 4.4
2.375 0.9375 4.3375
2.3125 0.9375 4.4
2.3125 1 4.3375
2.3125 0.9375 4.3375
2.5 0.9375 4.4
2.5 1 4.3375
2.4375 1 4.4
2.5 0.9375 4.3375
2.4375 0.9375 4.4
2.4375 1 4.3375
2.4375 0.9375 4.3375
2.625 0.9375 4.4
2.625 1 4.3375
2.5625 1 4.4
2.625 0.9375 4.3375
2.5625 0.9375 4.4
2.5625 1 4.3375
2.5625 0.9375 4.3375
2.75 0.9375 4.4
2.75 1 4.3375
2.6875 1 4.4
2.75 0.9375 4.3375
2.6875 0.9375 4.4
2.6875 1 4.3375
2.6875 0.9375 4.3375
2.875 0.9375 4.4
2.875 1 4.3375
2.8125 1 4.4
2.875 0.9375 4.3375
2.8125 0.9375 4.4
2.8125 1 4.3375
2.8125 0.9375 4.3375
3 0.9375 4.4
3 1 4.3375
2.9375 1 4.4
3 0.9375 4.3375
2.9375 0.9375 4.4
2.9375 1 4.3375
2.9375 0.9375 4.3375
3.125 0.9375 4.4
3.125 1 4.3375
3.0625 1 4.4
3.125 0.9375 4.3375
3.0625 0.9375 4.4
3.0625 1 4.3375
3.0625 0.9375 4.3375
3.25 0.9375 4.4
3.25 1 4.3375
3.1875 1 4.4
3.25 0.9375 4.3375
3.1875 0.9375 4.4
3.1875 1 4.3375
3.1875 0.9375 4.3375
3.375 0.9375 4.4
3.375 1 4.3375
3.3125 1 4.4
3.375 0.9375 4.3375
3.3125 0.9375 4.4
3.3125 1 4.3375
3.3125 0.9375 4.3375
3.5 0.9375 4.4
3.5 1 4.3375
3.4375 1 4.4
3.5 0.9375 4.3375
3.4375 0.9375 4.4
3.4375 1 4.3375
3.4375 0.9375 4.3375
3.625 0.9375 4.4
3.625 1 4.3375
3.5625 1 4.4
3.625 0.9375 4.3375
3.5625 0.9375 4.4
3.5625 1 4.3375
3.5625 0.9375 4.3375
3.75 0.9375 4.4
3.75 1 4.3375
3.6875 1 4.4
3.75 0.9375 4.3375
3.6875 0.9375 4.4
3.6875 1 4.3375
3.6875 0.9375 4.3375
3.875 0.9375 4.4
3.875 1 4.3375
3.8125 1 4.4
3.875 0.9375 4.3375
3.8125 0.9375 4.4
3.8125 1 4.3375
3.8125 0.9375 4.3375
4 0.9375 4.4
4 1 4.3375
3.9375 1 4.4
4 0.9375 4.3375
3.9375 0.9375 4.4
3.9375 1 4.3375
3.9375 0.9375 4.3375

CELLS 2049 55296
OFFSETS vtktypeint64
0 27 54 81 108 135 162 189 216 243 270 297 324 351 378 405 432 459 486 513 540 567 594 621 648 675 702 729 756 783 810 837 864 891 918 945 972 999 1026 1053 1080 1107 1134 1161 1188 1215 1242 1269 1296 1323 1350 1377 1404 1431 1458 1485 1512 1539 1566 1593 1620 1647 1674 1701 1728 1755 1782 1809 1836 1863 1890 1917 1944 1971 1998 2025 2052 2079 2106 2133 2160 2187 2214 2241 2268 2295 2322 2349 2376 2403 2430 2457 2484 2511 2538 2565 2592 2619 2646 2673 2700 2727 2754 2781 2808 2835 2862 2889 2916 2943 2970 2997 3024 3051 3078 3105 3132 3159 3186 3213 3240 3267 3294 3321 3348 3375 3402 3429 3456 3483 3510 3537 3564 3591 3618 3645 3672 3699 3726 3753 3780 3807 3834 3861 3888 3915 3942 3969 3996 4023 4050 4077 4104 4131 4158 4185 4212 4239 4266 4293 4320 4347 4374 4401 4428 4455 4482 4509 4536 4563 4590 4617 4644 4671 4698 4725 4752 4779 4806 4833 4860 4887 4914 4941 4968 4995 5022 5049 5076 5103 5130 5157 5184 5211 5238 5265 5292 5319 5346 5373 5400 5427 5454 5481 5508 5535 5562 5589 5616 5643 5670 5697 5724 5751 5778 5805 5832 5859 5886 5913 5940 5967 5994 6021 6048 6075 6102 6129 6156 6183 6210 6237 6264 6291 6318 6345 6372 6399 6426 6453 6480 6507 6534 6561 6588 6615 6642 6669 6696 6723 6750 6777 6804 6831 6858 6885 6912 6939 6966 6993 7020 7047 7074 7101 7128 7155 7182 7209 7236 7263 7290 7317 7344 7371 7398 7425 7452 7479 7506 7533 7560 7587 7614 7641 7668 7695 7722 7749 7776 7803 7830 7857 7884 7911 7938 7965 7992 8019 8046 8073 8100 8127 8154 8181 8208 8235 8262 8289 8316 8343 8370 8397 8424 8451 8478 8505 8532 8559 8586 8613 8640 8667 8694 8721 8748 8775 8802 8829 8856 8883 8910 8937 8964 8991 9018 9045 9072 9099 9126 9153 9180 9207 9234 9261 9288 9315 9342 9369 9396 9423 9450 9477 9504 9531 9558 9585 9612 9639 9666 9693 9720 9747 9774 9801 9828 9855 9882 9909 9936 9963 9990 10017 10044 10071 10098 10125 10152 10179 10206 10233 10260 10287 10314 10341 10368 10395 10422 10449 10476 10503 10530 10557 10584 10611 10638 10665 10692 10719 10746 10773 10800 10827 10854 10881 10908 10935 10962 10989 11016 11043 11070 11097 11124 11151 11178 11205 11232 11259 11286 11313 11340 11367 11394 11421 11448 11475 11502 11529 11556 11583 11610 11637 11664 11691 11718 11745 11772 11799 11826 11853 11880 11907 11934 11961 11988 12015 12042 12069 12096 12123 12150 12177 12204 12231 12258 12285 12312 12339 12366 12393 12420 12447 12474 12501 12528 12555 12582 12609 12636 12663 12690 12717 12744 12771 12798 12825 12852 12879 12906 12933 12960 12987 13014 13041 13068 13095 13122 13149 13176 13203 13230 13257 13284 13311 13338 13365 13392 13419 13446 13473 13500 13527 13554 13581 13608 13635 13662 13689 13716 13743 13770 13797 13824 13851 13878 13905 13932 13959 13986 14013 14040 14067 14094 14121 14148 14175 14202 14229 14256 14283 14310 14337 14364 14391 14418 14445 14472 14499 14526 14553 14580 14607 14634 14661 14688 14715 14742 14769 14796 14823 14850 14877 14904 14931 14958 14985 15012 15039 15066 15093 15120 15147 15174 15201 15228 15255 15282 15309 15336 15363 15390 15417 15444 15471 15498 15525 15552 15579 15606 15633 15660 15687 15714 15741 15768 15795 15822 15849 15876 15903 15930 15957 15984 16011 16038 16065 16092 16119 16146 16173 16200 16227 16254 16281 16308 16335 16362 16389 16416 16443 16470 16497 16524 16551 16578 16605 16632 16659 16686 16713 16740 16767 16794 16821 16848 16875 16902 16929 16956 16983 17010 17037 17064 17091 17118 17145 17172 17199 17226 17253 17280 17307 17334 17361 17388 17415 17442 17469 17496 17523 17550 17577 17604 17631 17658 17685 17712 17739 17766 17793 17820 17847 17874 17901 17928 17955 17982 18009 18036 18063 18090 18117 18144 18171 18198 18225 18252 18279 18306 18333 18360 18387 18414 18441 18468 18495 18522 18549 18576 18603 18630 18657 18684 18711 18738 18765 18792 18819 18846 18873 18900 18927 18954 18981 19008 19035 19062 19089 19116 19143 19170 19197 19224 19251 19278 19305 19332 19359 19386 19413 19440 19467 19494 19521 19548 19575 19602 19629 19656 19683 19710 19737 19764 19791 19818 19845 19872 19899 19926 19953 19980 20007 20034 20061 20088 20115 20142 20169 20196 20223 20250 20277 20304 20331 20358 20385 20412 20439 20466 20493 20520 20547 20574 20601 20628 20655 20682 20709 20736 20763 20790 20817 20844 20871 20898 20925 20952 20979 21006 21033 21060 21087 21114 21141 21168 21195 21222 21249 21276 21303 21330 21357 21384 21411 21438 21465 21492 21519 21546 21573 21600 21627 21654 21681 21708 21735 21762 21789 21816 21843 21870 21897 21924 21951 21978 22005 22032 22059 22086 22113 22140 22167 22194 22221 22248 22275 22302 22329 22356 22383 22410 22437 22464 22491 22518 22545 22572 22599 22626 22653 22680 22707 22734 22761 22788 22815 22842 22869 22896 22923 22950 22977 23004 23031 23058 23085 23112 23139 23166 23193 23220 23247 23274 23301 23328 23355 23382 23409 23436 23463 23490 23517 23544 23571 23598 23625 23652 23679 23706 23733 23760 23787 23814 23841 23868 23895 23922 23949 23976 24003 24030 24057 24084 24111 24138 24165 24192 24219 24246 24273 24300 24327 24354 24381 24408 24435 24462 24489 24516 24543 24570 24597 24624 24651 24678 24705 24732 24759 24786 24813 24840 24867 24894 24921 24948 24975 25002 25029 25056 25083 25110 25137 25164 25191 25218 25245 25272 25299 25326 25353 25380 25407 25434 25461 25488 25515 25542 25569 25596 25623 25650 25677 25704 25731 25758 25785 25812 25839 25866 25893 25920 25947 25974 26001 26028 26055 26082 26109 26136 26163 26190 26217 26244 26271 26298 26325 26352 26379 26406 26433 26460 26487 26514 26541 26568 26595 26622 26649 26676 26703 26730 26757 26784 26811 26838 26865 26892 26919 26946 26973 27000 27027 27054 27081 27108 27135 27162 27189 27216 27243 27270 27297 27324 27351 27378 27405 27432 27459 27486 27513 27540 27567 27594 27621 27648 27675 27702 27729 27756 27783 27810 27837 27864 27891 27918 27945 27972 27999 28026 28053 28080 28107 28134 28161 28188 28215 28242 28269 28296 28323 28350 28377 28404 28431 28458 28485 28512 28539 28566 28593 28620 28647 28674 28701 28728 28755 28782 28809 28836 28863 28890 28917 28944 28971 28998 29025 29052 29079 29106 29133 29160 29187 29214 29241 29268 29295 29322 29349 29376 29403 29430 29457 29484 29511 29538 29565 29592 29619 29646 29673 29700 29727 29754 29781 29808 29835 29862 29889 29916 29943 29970 29997 30024 30051 30078 30105 30132 30159 30186 30213 30240 30267 30294 30321 30348 30375 30402 30429 30456 30483 30510 30537 30564 30591 30618 30645 30672 30699 30726 30753 30780 30807 30834 30861 30888 30915 30942 30969 30996 31023 31050 31077 31104 31131 31158 31185 31212 31239 31266 31293 31320 31347 31374 31401 31428 31455 31482 31509 31536 31563 31590 31617 31644 31671 31698 31725 31752 31779 31806 31833 31860 31887 31914 31941 31968 31995 32022 32049 32076 32103 32130 32157 32184 32211 32238 32265 32292 32319 32346 32373 32400 32427 32454 32481 32508 32535 32562 32589 32616 32643 32670 32697 32724 32751 32778 32805 32832 32859 32886 32913 32940 32967 32994 33021 33048 33075 33102 33129 33156 33183 33210 33237 33264 33291 33318 33345 33372 33399 33426 33453 33480 33507 33534 33561 33588 33615 33642 33669 33696 33723 33750 33777 33804 33831 33858 33885 33912 33939 33966 33993 34020 34047 34074 34101 34128 34155 34182 34209 34236 34263 34290 34317 34344 34371 34398 34425 34452 34479 34506 34533 34560 34587 34614 34641 34668 34695 34722 34749 34776 34803 34830 34857 34884 34911 34938 34965 34992 35019 35046 35073 35100 35127 35154 35181 35208 35235 35262 35289 35316 35343 35370 35397 35424 35451 35478 35505 35532 35559 35586 35613 35640 35667 35694 35721 35748 35775 35802 35829 35856 35883 35910 35937 35964 35991 36018 36045 36072 36099 36126 36153 36180 36207 36234 36261 36288 36315 36342 36369 36396 36423 36450 36477 36504 36531 36558 36585 36612 36639 36666 36693 36720 36747 36774 36801 36828 36855 36882 36909 36936 36963 36990 37017 37044 37071 37098 37125 37152 37179 37206 37233 37260 37287 37314 37341 37368 37395 37422 37449 37476 37503 37530 37557 37584 37611 37638 37665 37692 37719 37746 37773 37800 37827 37854 37881 37908 37935 37962 37989 38016 38043 38070 38097 38124 38151 38178 38205 38232 38259 38286 38313 38340 38367 38394 38421 38448 38475 38502 38529 38556 38583 38610 38637 38664 38691 38718 38745 38772 38799 38826 38853 38880 38907 38934 38961 38988 39015 39042 39069 39096 39123 39150 39177 39204 39231 39258 39285 39312 39339 39366 39393 39420 39447 39474 39501 39528 39555 39582 39609 39636 39663 39690 39717 39744 39771 39798 39825 39852 39879 39906 39933 39960 39987 40014 40041 40068 40095 40122 40149 40176 40203 40230 40257 40284 40311 40338 40365 40392 40419 40446 40473 40500 40527 40554 40581 40608 40635 40662 40689 40716 40743 40770 40797 40824 40851 40878 40905 40932 40959 40986 41013 41040 41067 41094 41121 41148 41175 41202 41229 41256 41283 41310 41337 41364 41391 41418 41445 41472 41499 41526 41553 41580 41607 41634 41661 41688 41715 41742 41769 41796 41823 41850 41877 41904 41931 41958 41985 42012 42039 42066 42093 42120 42147 42174 42201 42228 42255 42282 42309 42336 42363 42390 42417 42444 42471 42498 42525 42552 42579 42606 42633 42660 42687 42714 42741 42768 42795 42822 42849 42876 42903 42930 42957 42984 43011 43038 43065 43092 43119 43146 43173 43200 43227 43254 43281 43308 43335 43362 43389 43416 43443 43470 43497 43524 43551 43578 43605 43632 43659 43686 43713 43740 43767 43794 43821 43848 43875 43902 43929 43956 43983 44010 44037 44064 44091 44118 44145 44172 44199 44226 44253 44280 44307 44334 44361 44388 44415 44442 44469 44496 44523 44550 44577 44604 44631 44658 44685 44712 44739 44766 44793 44820 44847 44874 44901 44928 44955 44982 45009 45036 45063 45090 45117 45144 45171 45198 45225 45252 45279 45306 45333 45360 45387 45414 45441 45468 45495 45522 45549 45576 45603 45630 45657 45684 45711 45738 45765 45792 45819 45846 45873 45900 45927 45954 45981 46008 46035 46062 46089 46116 46143 46170 46197 46224 46251 46278 46305 46332 46359 46386 46413 46440 46467 46494 46521 46548 46575 46602 46629 46656 46683 46710 46737 46764 46791 46818 46845 46872 46899 46926 46953 46980 47007 47034 47061 47088 47115 47142 47169 47196 47223 47250 47277 47304 47331 47358 47385 47412 47439 47466 47493 47520 47547 47574 47601 47628 47655 47682 47709 47736 47763 47790 47817 47844 47871 47898 47925 47952 47979 48006 48033 48060 48087 48114 48141 48168 48195 48222 48249 48276 48303 48330 48357 48384 48411 48438 48465 48492 48519 48546 48573 48600 48627 48654 48681 48708 48735 48762 48789 48816 48843 48870 48897 48924 48951 48978 49005 49032 49059 49086 49113 49140 49167 49194 49221 49248 49275 49302 49329 49356 49383 49410 49437 49464 49491 49518 49545 49572 49599 49626 49653 49680 49707 49734 49761 49788 49815 49842 49869 49896 49923 49950 49977 50004 50031 50058 50085 50112 50139 50166 50193 50220 50247 50274 50301 50328 50355 50382 50409 50436 50463 50490 50517 50544 50571 50598 50625 50652 50679 50706 50733 50760 50787 50814 50841 50868 50895 50922 50949 50976 51003 51030 51057 51084 51111 51138 51165 51192 51219 51246 51273 51300 51327 51354 51381 51408 51435 51462 51489 51516 51543 51570 51597 51624 51651 51678 51705 51732 51759 51786 51813 51840 51867 51894 51921 51948 51975 52002 52029 52056 52083 52110 52137 52164 52191 52218 52245 52272 52299 52326 52353 52380 52407 52434 52461 52488 52515 52542 52569 52596 52623 52650 52677 52704 52731 52758 52785 52812 52839 52866 52893 52920 52947 52974 53001 53028 53055 53082 53109 53136 53163 53190 53217 53244 53271 53298 53325 53352 53379 53406 53433 53460 53487 53514 53541 53568 53595 53622 53649 53676 53703 53730 53757 53784 53811 53838 53865 53892 53919 53946 53973 54000 54027 54054 54081 54108 54135 54162 54189 54216 54243 54270 54297 54324 54351 54378 54405 54432 54459 54486 54513 54540 54567 54594 54621 54648 54675 54702 54729 54756 54783 54810 54837 54864 54891 54918 54945 54972 54999 55026 55053 55080 55107 55134 55161 55188 55215 55242 55269 55296 
CONNECTIVITY vtktypeint64
0 1 298 297 33 34 331 330 2673 2674 2675 2676 2681 2682 2683 2684 2677 2678 2679 2680 2689 2687 2686 2688 2685 2690 2691 
1 2 299 298 34 35 332 331 2692 2693 2694 2674 2697 2698 2699 2682 2678 2695 2696 2679 2687 2702 2701 2703 2700 2704 2705 
2 3 300 299 35 36 333 332 2706 2707 2708 2693 2711 2712 2713 2698 2695 2709 2710 2696 2702 2716 2715 2717 2714 2718 2719 
3 4 301 300 36 37 334 333 2720 2721 2722 2707 2725 2726 2727 2712 2709 2723 2724 2710 2716 2730 2729 2731 2728 2732 2733 
4 5 302 301 37 38 335 334 2734 2735 2736 2721 2739 2740 2741 2726 2723 2737 2738 2724 2730 2744 2743 2745 2742 2746 2747 
5 6 303 302 38 39 336 335 2748 2749 2750 2735 2753 2754 2755 2740 2737 2751 2752 2738 2744 2758 2757 2759 2756 2760 2761 
6 7 304 303 39 40 337 336 2762 2763 2764 2749 2767 2768 2769 2754 2751 2765 2766 2752 2758 2772 2771 2773 2770 2774 2775 
7 8 305 304 40 41 338 337 2776 2777 2778 2763 2781 2782 2783 2768 2765 2779 2780 2766 2772 2786 2785 2787 2784 2788 2789 
8 9 306 305 41 42 339 338 2790 2791 2792 2777 2795 2796 2797 2782 2779 2793 2794 2780 2786 2800 2799 2801 2798 2802 2803 
9 10 307 306 42 43 340 339 2804 2805 2806 2791 2809 2810 2811 2796 2793 2807 2808 2794 2800 2814 2813 2815 2812 2816 2817 
10 11 308 307 43 44 341 340 2818 2819 2820 2805 2823 2824 2825 2810 2807 2821 2822 2808 2814 2828 2827 2829 2826 2830 2831 
11 12 309 308 44 45 342 341 2832 2833 2834 2819 2837 2838 2839 2824 2821 2835 2836 2822 2828 2842 2841 2843 2840 2844 2845 
12 13 310 309 45 46 343 342 2846 2847 2848 2833 2851 2852 2853 2838 2835 2849 2850 2836 2842 2856 2855 2857 2854 2858 2859 
13 14 311 310 46 47 344 343 2860 2861 2862 2847 2865 2866 2867 2852 2849 2863 2864 2850 2856 2870 2869 2871 2868 2872 2873 
14 15 312 311 47 48 345 344 2874 2875 2876 2861 2879 2880 2881 2866 2863 2877 2878 2864 2870 2884 2883 2885 2882 2886 2887 
15 16 313 312 48 49 346 345 2888 2889 2890 2875 2893 2894 2895 2880 2877 2891 2892 2878 2884 2898 2897 2899 2896 2900 2901 
16 17 314 313 49 50 347 346 2902 2903 2904 2889 2907 2908 2909 2894 2891 2905 2906 2892 2898 2912 2911 2913 2910 2914 2915 
17 18 315 314 50 51 348 347 2916 2917 2918 2903 2921 2922 2923 2908 2905 2919 2920 2906 2912 2926 2925 2927 2924 2928 2929 
18 19 316 315 51 52 349 348 2930 2931 2932 2917 2935 2936 2937 2922 2919 2933 2934 2920 2926 2940 2939 2941 2938 2942 2943 
19 20 317 316 52 53 350 349 2944 2945 2946 2931 2949 2950 2951 2936 2933 2947 2948 2934 2940 2954 2953 2955 2952 2956 2957 
20 21 318 317 53 54 351 350 2958 2959 2960 2945 2963 2964 2965 2950 2947 2961 2962 2948 2954 2968 2967 2969 2966 2970 2971 
21 22 319 318 54 55 352 351 2972 2973 2974 2959 2977 2978 2979 2964 2961 2975 2976 2962 2968 2982 2981 2983 2980 2984 2985 
22 23 320 319 55 56 353 352 2986 2987 2988 2973 2991 2992 2993 2978 2975 2989 2990 2976 2982 2996 2995 2997 2994 2998 2999 
23 24 321 320 56 57 354 353 3000 3001 3002 2987 3005 3006 3007 2992 2989 3003 3004 2990 2996 3010 3009 3011 3008 3012 3013 
24 25 322 321 57 58 355 354 3014 3015 3016 3001 3019 3020 3021 3006 3003 3017 3018 3004 3010 3024 3023 3025 3022 3026 3027 
25 26 323 322 58 59 356 355 3028 3029 3030 3015 3033 3034 3035 3020 3017 3031 3032 3018 3024 3038 3037 3039 3036 3040 3041 
26 27 324 323 59 60 357 356 3042 3043 3044 3029 3047 3048 3049 3034 3031 3045 3046 3032 3038 3052 3051 3053 3050 3054 3055 
27 28 325 324 60 61 358 357 3056 3057 3058 3043 3061 3062 3063 3048 3045 3059 3060 3046 3052 3066 3065 3067 3064 3068 3069 
28 29 326 325 61 62 359 358 3070 3071 3072 3057 3075 3076 3077 3062 3059 3073 3074 3060 3066 3080 3079 3081 3078 3082 3083 
29 30 327 326 62 63 360 359 3084 3085 3086 3071 3089 3090 3091 3076 3073 3087 3088 3074 3080 3094 3093 3095 3092 3096 3097 
30 31 328 327 63 64 361 360 3098 3099 3100 3085 3103 3104 3105 3090 3087 3101 3102 3088 3094 3108 3107 3109 3106 3110 3111 
31 32 329 328 64 65 362 361 3112 3113 3114 3099 3117 3118 3119 3104 3101 3115 3116 3102 3108 3122 3121 3123 3120 3124 3125 
33 34 331 330 66 67 364 363 2681 2682 2683 2684 3130 3131 3132 3133 3126 3127 3128 3129 3137 3135 3134 3136 2690 3138 3139 
34 35 332 331 67 68 365 364 2697 2698 2699 2682 3142 3143 3144 3131 3127 3140 3141 3128 3135 3146 3145 3147 2704 3148 3149 
35 36 333 332 68 69 366 365 2711 2712 2713 2698 3152 3153 3154 3143 3140 3150 3151 3141 3146 3156 3155 3157 2718 3158 3159 
36 37 334 333 69 70 367 366 2725 2726 2727 2712 3162 3163 3164 3153 3150 3160 3161 3151 3156 3166 3165 3167 2732 3168 3169 
37 38 335 334 70 71 368 367 2739 2740 2741 2726 3172 3173 3174 3163 3160 3170 3171 3161 3166 3176 3175 3177 2746 3178 3179 
38 39 336 335 71 72 369 368 2753 2754 2755 2740 3182 3183 3184 3173 3170 3180 3181 3171 3176 3186 3185 3187 2760 3188 3189 
39 40 337 336 72 73 370 369 2767 2768 2769 2754 3192 3193 3194 3183 3180 3190 3191 3181 3186 3196 3195 3197 2774 3198 3199 
40 41 338 337 73 74 371 370 2781 2782 2783 2768 3202 3203 3204 3193 3190 3200 3201 3191 3196 3206 3205 3207 2788 3208 3209 
41 42 339 338 74 75 372 371 2795 2796 2797 2782 3212 3213 3214 3203 3200 3210 3211 3201 3206 3216 3215 3217 2802 3218 3219 
42 43 340 339 75 76 373 372 2809 2810 2811 2796 3222 3223 3224 3213 3210 3220 3221 3211 3216 3226 3225 3227 2816 3228 3229 
43 44 341 340 76 77 374 373 2823 2824 2825 2810 3232 3233 3234 3223 3220 3230 3231 3221 3226 3236 3235 3237 2830 3238 3239 
44 45 342 341 77 78 375 374 2837 2838 2839 2824 3242 3243 3244 3233 3230 3240 3241 3231 3236 3246 3245 3247 2844 3248 3249 
45 46 343 342 78 79 376 375 2851 2852 2853 2838 3252 3253 3254 3243 3240 3250 3251 3241 3246 3256 3255 3257 2858 3258 3259 
46 47 344 343 79 80 377 376 2865 2866 2867 2852 3262 3263 3264 3253 3250 3260 3261 3251 3256 3266 3265 3267 2872 3268 3269 
47 48 345 344 80 81 378 377 2879 2880 2881 2866 3272 3273 3274 3263 3260 3270 3271 3261 3266 3276 3275 3277 2886 3278 3279 
48 49 346 345 81 82 379 378 2893 2894 2895 2880 3282 3283 3284 3273 3270 3280 3281 3271 3276 3286 3285 3287 2900 3288 3289 
49 50 347 346 82 83 380 379 2907 2908 2909 2894 3292 3293 3294 3283 3280 3290 3291 3281 3286 3296 3295 3297 2914 3298 3299 
50 51 348 347 83 84 381 380 2921 2922 2923 2908 3302 3303 3304 3293 3290 3300 3301 3291 3296 3306 3305 3307 2928 3308 3309 
51 52 349 348 84 85 382 381 2935 2936 2937 2922 3312 3313 3314 3303 3300 3310 3311 3301 3306 3316 3315 3317 2942 3318 3319 
52 53 350 349 85 86 383 382 2949 2950 2951 2936 3322 3323 3324 3313 3310 3320 3321 3311 3316 3326 3325 3327 2956 3328 3329 
53 54 351 350 86 87 384 383 2963 2964 2965 2950 3332 3333 3334 3323 3320 3330 3331 3321 3326 3336 3335 3337 2970 3338 3339 
54 55 352 351 87 88 385 384 2977 2978 2979 2964 3342 3343 3344 3333 3330 3340 3341 3331 3336 3346 3345 3347 2984 3348 3349 
55 56 353 352 88 89 386 385 2991 2992 2993 2978 3352 3353 3354 3343 3340 3350 3351 3341 3346 3356 3355 3357 2998 3358 3359 
56 57 354 353 89 90 387 386 3005 3006 3007 2992 3362 3363 3364 3353 3350 3360 3361 3351 3356 3366 3365 3367 3012 3368 3369 
57 58 355 354 90 91 388 387 3019 3020 3021 3006 3372 3373 3374 3363 3360 3370 3371 3361 3366 3376 3375 3377 3026 3378 3379 
58 59 356 355 91 92 389 388 3033 3034 3035 3020 3382 3383 3384 3373 3370 3380 3381 3371 3376 3386 3385 3387 3040 3388 3389 
59 60 357 356 92 93 390 389 3047 3048 3049 3034 3392 3393 3394 3383 3380 3390 3391 3381 3386 3396 3395 3397 3054 3398 3399 
60 61 358 357 93 94 391 390 3061 3062 3063 3048 3402 3403 3404 3393 3390 3400 3401 3391 3396 3406 3405 3407 3068 3408 3409 
61 62 359 358 94 95 392 391 3075 3076 3077 3062 3412 3413 3414 3403 3400 3410 3411 3401 3406 3416 3415 3417 3082 3418 3419 
62 63 360 359 95 96 393 392 3089 3090 3091 3076 3422 3423 3424 3413 3410 3420 3421 3411 3416 3426 3425 3427 3096 3428 3429 
63 64 361 360 96 97 394 393 3103 3104 3105 3090 3432 3433 3434 3423 3420 3430 3431 3421 3426 3436 3435 3437 3110 3438 3439 
64 65 362 361 97 98 395 394 3117 3118 3119 3104 3442 3443 3444 3433 3430 3440 3441 3431 3436 3446 3445 3447 3124 3448 3449 
66 67 364 363 99 100 397 396 3130 3131 3132 3133 3454 3455 3456 3457 3450 3451 3452 3453 3461 3459 3458 3460 3138 3462 3463 
67 68 365 364 100 101 398 397 3142 3143 3144 3131 3466 3467 3468 3455 3451 3464 3465 3452 3459 3470 3469 3471 3148 3472 3473 
68 69 366 365 101 102 399 398 3152 3153 3154 3143 3476 3477 3478 3467 3464 3474 3475 3465 3470 3480 3479 3481 3158 3482 3483 
69 70 367 366 102 103 400 399 3162 3163 3164 3153 3486 3487 3488 3477 3474 3484 3485 3475 3480 3490 3489 3491 3168 3492 3493 
70 71 368 367 103 104 401 400 3172 3173 3174 3163 3496 3497 3498 3487 3484 3494 3495 3485 3490 3500 3499 3501 3178 3502 3503 
71 72 369 368 104 105 402 401 3182 3183 3184 3173 3506 3507 3508 3497 3494 3504 3505 3495 3500 3510 3509 3511 3188 3512 3513 
72 73 370 369 105 106 403 402 3192 3193 3194 3183 3516 3517 3518 3507 3504 3514 3515 3505 3510 3520 3519 3521 3198 3522 3523 
73 74 371 370 106 107 404 403 3202 3203 3204 3193 3526 3527 3528 3517 3514 3524 3525 3515 3520 3530 3529 3531 3208 3532 3533 
74 75 372 371 107 108 405 404 3212 3213 3214 3203 3536 3537 3538 3527 3524 3534 3535 3525 3530 3540 3539 3541 3218 3542 3543 
75 76 373 372 108 109 406 405 3222 3223 3224 3213 3546 3547 3548 3537 3534 3544 3545 3535 3540 3550 3549 3551 3228 3552 3553 
76 77 374 373 109 110 407 406 3232 3233 3234 3223 3556 3557 3558 3547 3544 3554 3555 3545 3550 3560 3559 3561 3238 3562 3563 
77 78 375 374 110 111 408 407 3242 3243 3244 3233 3566 3567 3568 3557 3554 3564 3565 3555 3560 3570 3569 3571 3248 3572 3573 
78 79 376 375 111 112 409 408 3252 3253 3254 3243 3576 3577 3578 3567 3564 3574 3575 3565 3570 3580 3579 3581 3258 3582 3583 
79 80 377 376 112 113 410 409 3262 3263 3264 3253 3586 3587 3588 3577 3574 3584 3585 3575 3580 3590 3589 3591 3268 3592 3593 
80 81 378 377 113 114 411 410 3272 3273 3274 3263 3596 3597 3598 3587 3584 3594 3595 3585 3590 3600 3599 3601 3278 3602 3603 
81 82 379 378 114 115 412 411 3282 3283 3284 3273 3606 3607 3608 3597 3594 3604 3605 3595 3600 3610 3609 3611 3288 3612 3613 
82 83 380 379 115 116 413 412 3292 3293 3294 3283 3616 3617 3618 3607 3604 3614 3615 3605 3610 3620 3619 3621 3298 3622 3623 
83 84 381 380 116 117 414 413 3302 3303 3304 3293 3626 3627 3628 3617 3614 3624 3625 3615 3620 3630 3629 3631 3308 3632 3633 
84 85 382 381 117 118 415 414 3312 3313 3314 3303 3636 3637 3638 3627 3624 3634 3635 3625 3630 3640 3639 3641 3318 3642 3643 
85 86 383 382 118 119 416 415 3322 3323 3324 3313 3646 3647 3648 3637 3634 3644 3645 3635 3640 3650 3649 3651 3328 3652 3653 
86 87 384 383 119 120 417 416 3332 3333 3334 3323 3656 3657 3658 3647 3644 3654 3655 3645 3650 3660 3659 3661 3338 3662 3663 
87 88 385 384 120 121 418 417 3342 3343 3344 3333 3666 3667 3668 3657 3654 3664 3665 3655 3660 3670 3669 3671 3348 3672 3673 
88 89 386 385 121 122 419 418 3352 3353 3354 3343 3676 3677 3678 3667 3664 3674 3675 3665 3670 3680 3679 3681 3358 3682 3683 
89 90 387 386 122 123 420 419 3362 3363 3364 3353 3686 3687 3688 3677 3674 3684 3685 3675 3680 3690 3689 3691 3368 3692 3693 
90 91 388 387 123 124 421 420 3372 3373 3374 3363 3696 3697 3698 3687 3684 3694 3695 3685 3690 3700 3699 3701 3378 3702 3703 
91 92 389 388 124 125 422 421 3382 3383 3384 3373 3706 3707 3708 3697 3694 3704 3705 3695 3700 3710 3709 3711 3388 3712 3713 
92 93 390 389 125 126 423 422 3392 3393 3394 3383 3716 3717 3718 3707 3704 3714 3715 3705 3710 3720 3719 3721 3398 3722 3723 
93 94 391 390 126 127 424 423 3402 3403 3404 3393 3726 3727 3728 3717 3714 3724 3725 3715 3720 3730 3729 3731 3408 3732 3733 
94 95 392 391 127 128 425 424 3412 3413 3414 3403 3736 3737 3738 3727 3724 3734 3735 3725 3730 3740 3739 3741 3418 3742 3743 
95 96 393 392 128 129 426 425 3422 3423 3424 3413 3746 3747 3748 3737 3734 3744 3745 3735 3740 3750 3749 3751 3428 3752 3753 
96 97 394 393 129 130 427 426 3432 3433 3434 3423 3756 3757 3758 3747 3744 3754 3755 3745 3750 3760 3759 3761 3438 3762 3763 
97 98 395 394 130 131 428 427 3442 3443 3444 3433 3766 3767 3768 3757 3754 3764 3765 3755 3760 3770 3769 3771 3448 3772 3773 
99 100 397 396 132 133 430 429 3454 3455 3456 3457 3778 3779 3780 3781 3774 3775 3776 3777 3785 3783 3782 3784 3462 3786 3787 
100 101 398 397 133 134 431 430 3466 3467 3468 3455 3790 3791 3792 3779 3775 3788 3789 3776 3783 3794 3793 3795 3472 3796 3797 
101 102 399 398 134 135 432 431 3476 3477 3478 3467 3800 3801 3802 3791 3788 3798 3799 3789 3794 3804 3803 3805 3482 3806 3807 
102 103 400 399 135 136 433 432 3486 3487 3488 3477 3810 3811 3812 3801 3798 3808 3809 3799 3804 3814 3813 3815 3492 3816 3817 
103 104 401 400 136 137 434 433 3496 3497 3498 3487 3820 3821 3822 3811 3808 3818 3819 3809 3814 3824 3823 3825 3502 3826 3827 
104 105 402 401 137 138 435 434 3506 3507 3508 3497 3830 3831 3832 3821 3818 3828 3829 3819 3824 3834 3833 3835 3512 3836 3837 
105 106 403 402 138 139 436 435 3516 3517 3518 3507 3840 3841 3842 3831 3828 3838 3839 3829 3834 3844 3843 3845 3522 3846 3847 
106 107 404 403 139 140 437 436 3526 3527 3528 3517 3850 3851 3852 3841 3838 3848 3849 3839 3844 3854 3853 3855 3532 3856 3857 
107 108 405 404 140 141 438 437 3536 3537 3538 3527 3860 3861 3862 3851 3848 3858 3859 3849 3854 3864 3863 3865 3542 3866 3867 
108 109 406 405 141 142 439 438 3546 3547 3548 3537 3870 3871 3872 3861 3858 3868 3869 3859 3864 3874 3873 3875 3552 3876 3877 
109 110 407 406 142 143 440 439 3556 3557 3558 3547 3880 3881 3882 3871 3868 3878 3879 3869 3874 3884 3883 3885 3562 3886 3887 
110 111 408 407 143 144 441 440 3566 3567 3568 3557 3890 3891 3892 3881 3878 3888 3889 3879 3884 3894 3893 3895 3572 3896 3897 
111 112 409 408 144 145 442 441 3576 3577 3578 3567 3900 3901 3902 3891 3888 3898 3899 3889 3894 3904 3903 3905 3582 3906 3907 
112 113 410 409 145 146 443 442 3586 3587 3588 3577 3910 3911 3912 3901 3898 3908 3909 3899 3904 3914 3913 3915 3592 3916 3917 
113 114 411 410 146 147 444 443 3596 3597 3598 3587 3920 3921 3922 3911 3908 3918 3919 3909 3914 3924 3923 3925 3602 3926 3927 
114 115 412 411 147 148 445 444 3606 3607 3608 3597 3930 3931 3932 3921 3918 3928 3929 3919 3924 3934 3933 3935 3612 3936 3937 
115 116 413 412 148 149 446 445 3616 3617 3618 3607 3940 3941 3942 3931 3928 3938 3939 3929 3934 3944 3943 3945 3622 3946 3947 
116 117 414 413 149 150 447 446 3626 3627 3628 3617 3950 3951 3952 3941 3938 3948 3949 3939 3944 3954 3953 3955 3632 3956 3957 
117 118 415 414 150 151 448 447 3636 3637 3638 3627 3960 3961 3962 3951 3948 3958 3959 3949 3954 3964 3963 3965 3642 3966 3967 
118 119 416 415 151 152 449 448 3646 3647 3648 3637 3970 3971 3972 3961 3958 3968 3969 3959 3964 3974 3973 3975 3652 3976 3977 
119 120 417 416 152 153 450 449 3656 3657 3658 3647 3980 3981 3982 3971 3968 3978 3979 3969 3974 3984 3983 3985 3662 3986 3987 
120 121 418 417 153 154 451 450 3666 3667 3668 3657 3990 3991 3992 3981 3978 3988 3989 3979 3984 3994 3993 3995 3672 3996 3997 
121 122 419 418 154 155 452 451 3676 3677 3678 3667 4000 4001 4002 3991 3988 3998 3999 3989 3994 4004 4003 4005 3682 4006 4007 
122 123 420 419 155 156 453 452 3686 3687 3688 3677 4010 4011 4012 4001 3998 4008 4009 3999 4004 4014 4013 4015 3692 4016 4017 
123 124 421 420 156 157 454 453 3696 3697 3698 3687 4020 4021 4022 4011 4008 4018 4019 4009 4014 4024 4023 4025 3702 4026 4027 
124 125 422 421 157 158 455 454 3706 3707 3708 3697 4030 4031 4032 4021 4018 4028 4029 4019 4024 4034 4033 4035 3712 4036 4037 
125 126 423 422 158 159 456 455 3716 3717 3718 3707 4040 4041 4042 4031 4028 4038 4039 4029 4034 4044 4043 4045 3722 4046 4047 
126 127 424 423 159 160 457 456 3726 3727 3728 3717 4050 4051 4052 4041 4038 4048 4049 4039 4044 4054 4053 4055 3732 4056 4057 
127 128 425 424 160 161 458 457 3736 3737 3738 3727 4060 4061 4062 4051 4048 4058 4059 4049 4054 4064 4063 4065 3742 4066 4067 
128 129 426 425 161 162 459 458 3746 3747 3748 3737 4070 4071 4072 4061 4058 4068 4069 4059 4064 4074 4073 4075 3752 4076 4077 
129 130 427 426 162 163 460 459 3756 3757 3758 3747 4080 4081 4082 4071 4068 4078 4079 4069 4074 4084 4083 4085 3762 4086 4087 
130 131 428 427 163 164 461 460 3766 3767 3768 3757 4090 4091 4092 4081 4078 4088 4089 4079 4084 4094 4093 4095 3772 4096 4097 
132 133 430 429 165 166 463 462 3778 3779 3780 3781 4102 4103 4104 4105 4098 4099 4100 4101 4109 4107 4106 4108 3786 4110 4111 
133 134 431 430 166 167 464 463 3790 3791 3792 3779 4114 4115 4116 4103 4099 4112 4113 4100 4107 4118 4117 4119 3796 4120 4121 
134 135 432 431 167 168 465 464 3800 3801 3802 3791 4124 4125 4126 4115 4112 4122 4123 4113 4118 4128 4127 4129 3806 4130 4131 
135 136 433 432 168 169 466 465 3810 3811 3812 3801 4134 4135 4136 4125 4122 4132 4133 4123 4128 4138 4137 4139 3816 4140 4141 
136 137 434 433 169 170 467 466 3820 3821 3822 3811 4144 4145 4146 4135 4132 4142 4143 4133 4138 4148 4147 4149 3826 4150 4151 
137 138 435 434 170 171 468 467 3830 3831 3832 3821 4154 4155 4156 4145 4142 4152 4153 4143 4148 4158 4157 4159 3836 4160 4161 
138 139 436 435 171 172 469 468 3840 3841 3842 3831 4164 4165 4166 4155 4152 4162 4163 4153 4158 4168 4167 4169 3846 4170 4171 
139 140 437 436 172 173 470 469 3850 3851 3852 3841 4174 4175 4176 4165 4162 4172 4173 4163 4168 4178 4177 4179 3856 4180 4181 
140 141 438 437 173 174 471 470 3860 3861 3862 3851 4184 4185 4186 4175 4172 4182 4183 4173 4178 4188 4187 4189 3866 4190 4191 
141 142 439 438 174 175 472 471 3870 3871 3872 3861 4194 4195 4196 4185 4182 4192 4193 4183 4188 4198 4197 4199 3876 4200 4201 
142 143 440 439 175 176 473 472 3880 3881 3882 3871 4204 4205 4206 4195 4192 4202 4203 4193 4198 4208 4207 4209 3886 4210 4211 
143 144 441 440 176 177 474 473 3890 3891 3892 3881 4214 4215 4216 4205 4202 4212 4213 4203 4208 4218 4217 4219 3896 4220 4221 
144 145 442 441 177 178 475 474 3900 3901 3902 3891 4224 4225 4226 4215 4212 4222 4223 4213 4218 4228 4227 4229 3906 4230 4231 
145 146 443 442 178 179 476 475 3910 3911 3912 3901 4234 4235 4236 4225 4222 4232 4233 4223 4228 4238 4237 4239 3916 4240 4241 
146 147 444 443 179 180 477 476 3920 3921 3922 3911 4244 4245 4246 4235 4232 4242 4243 4233 4238 4248 4247 4249 3926 4250 4251 
147 148 445 444 180 181 478 477 3930 3931 3932 3921 4254 4255 4256 4245 4242 4252 4253 4243 4248 4258 4257 4259 3936 4260 4261 
148 149 446 445 181 182 479 478 3940 3941 3942 3931 4264 4265 4266 4255 4252 4262 4263 4253 4258 4268 4267 4269 3946 4270 4271 
149 150 447 446 182 183 480 479 3950 3951 3952 3941 4274 4275 4276 4265 4262 4272 4273 4263 4268 4278 4277 4279 3956 4280 4281 
150 151 448 447 183 184 481 480 3960 3961 3962 3951 4284 4285 4286 4275 4272 4282 4283 4273 4278 4288 4287 4289 3966 4290 4291 
151 152 449 448 184 185 482 481 3970 3971 3972 3961 4294 4295 4296 4285 4282 4292 4293 4283 4288 4298 4297 4299 3976 4300 4301 
152 153 450 449 185 186 483 482 3980 3981 3982 3971 4304 4305 4306 4295 4292 4302 4303 4293 4298 4308 4307 4309 3986 4310 4311 
153 154 451 450 186 187 484 483 3990 3991 3992 3981 4314 4315 4316 4305 4302 4312 4313 4303 4308 4318 4317 4319 3996 4320 4321 
154 155 452 451 187 188 485 484 4000 4001 4002 3991 4324 4325 4326 4315 4312 4322 4323 4313 4318 4328 4327 4329 4006 4330 4331 
155 156 453 452 188 189 486 485 4010 4011 4012 4001 4334 4335 4336 4325 4322 4332 4333 4323 4328 4338 4337 4339 4016 4340 4341 
156 157 454 453 189 190 487 486 4020 4021 4022 4011 4344 4345 4346 4335 4332 4342 4343 4333 4338 4348 4347 4349 4026 4350 4351 
157 158 455 454 190 191 488 487 4030 4031 4032 4021 4354 4355 4356 4345 4342 4352 4353 4343 4348 4358 4357 4359 4036 4360 4361 
158 159 456 455 191 192 489 488 4040 4041 4042 4031 4364 4365 4366 4355 4352 4362 4363 4353 4358 4368 4367 4369 4046 4370 4371 
159 160 457 456 192 193 490 489 4050 4051 4052 4041 4374 4375 4376 4365 4362 4372 4373 4363 4368 4378 4377 4379 4056 4380 4381 
160 161 458 457 193 194 491 490 4060 4061 4062 4051 4384 4385 4386 4375 4372 4382 4383 4373 4378 4388 4387 4389 4066 4390 4391 
161 162 459 458 194 195 492 491 4070 4071 4072 4061 4394 4395 4396 4385 4382 4392 4393 4383 4388 4398 4397 4399 4076 4400 4401 
162 163 460 459 195 196 493 492 4080 4081 4082 4071 4404 4405 4406 4395 4392 4402 4403 4393 4398 4408 4407 4409 4086 4410 4411 
163 164 461 460 196 197 494 493 4090 4091 4092 4081 4414 4415 4416 4405 4402 4412 4413 4403 4408 4418 4417 4419 4096 4420 4421 
165 166 463 462 198 199 496 495 4102 4103 4104 4105 4426 4427 4428 4429 4422 4423 4424 4425 4433 4431 4430 4432 4110 4434 4435 
166 167 464 463 199 200 497 496 4114 4115 4116 4103 4438 4439 4440 4427 4423 4436 4437 4424 4431 4442 4441 4443 4120 4444 4445 
167 168 465 464 200 201 498 497 4124 4125 4126 4115 4448 4449 4450 4439 4436 4446 4447 4437 4442 4452 4451 4453 4130 4454 4455 
168 169 466 465 201 202 499 498 4134 4135 4136 4125 4458 4459 4460 4449 4446 4456 4457 4447 4452 4462 4461 4463 4140 4464 4465 
169 170 467 466 202 203 500 499 4144 4145 4146 4135 4468 4469 4470 4459 4456 4466 4467 4457 4462 4472 4471 4473 4150 4474 4475 
170 171 468 467 203 204 501 500 4154 4155 4156 4145 4478 4479 4480 4469 4466 4476 4477 4467 4472 4482 4481 4483 4160 4484 4485 
171 172 469 468 204 205 502 501 4164 4165 4166 4155 4488 4489 4490 4479 4476 4486 4487 4477 4482 4492 4491 4493 4170 4494 4495 
172 173 470 469 205 206 503 502 4174 4175 4176 4165 4498 4499 4500 4489 4486 4496 4497 4487 4492 4502 4501 4503 4180 4504 4505 
173 174 471 470 206 207 504 503 4184 4185 4186 4175 4508 4509 4510 4499 4496 4506 4507 4497 4502 4512 4511 4513 4190 4514 4515 
174 175 472 471 207 208 505 504 4194 4195 4196 4185 4518 4519 4520 4509 4506 4516 4517 4507 4512 4522 4521 4523 4200 4524 4525 
175 176 473 472 208 209 506 505 4204 4205 4206 4195 4528 4529 4530 4519 4516 4526 4527 4517 4522 4532 4531 4533 4210 4534 4535 
176 177 474 473 209 210 507 506 4214 4215 4216 4205 4538 4539 4540 4529 4526 4536 4537 4527 4532 4542 4541 4543 4220 4544 4545 
177 178 475 474 210 211 508 507 4224 4225 4226 4215 4548 4549 4550 4539 4536 4546 4547 4537 4542 4552 4551 4553 4230 4554 4555 
178 179 476 475 211 212 509 508 4234 4235 4236 4225 4558 4559 4560 4549 4546 4556 4557 4547 4552 4562 4561 4563 4240 4564 4565 
179 180 477 476 212 213 510 509 4244 4245 4246 4235 4568 4569 4570 4559 4556 4566 4567 4557 4562 4572 4571 4573 4250 4574 4575 
180 181 478 477 213 214 511 510 4254 4255 4256 4245 4578 4579 4580 4569 4566 4576 4577 4567 4572 4582 4581 4583 4260 4584 4585 
181 182 479 478 214 215 512 511 4264 4265 4266 4255 4588 4589 4590 4579 4576 4586 4587 4577 4582 4592 4591 4593 4270 4594 4595 
182 183 480 479 215 216 513 512 4274 4275 4276 4265 4598 4599 4600 4589 4586 4596 4597 4587 4592 4602 4601 4603 4280 4604 4605 
183 184 481 480 216 217 514 513 4284 4285 4286 4275 4608 4609 4610 4599 4596 4606 4607 4597 4602 4612 4611 4613 4290 4614 4615 
184 185 482 481 217 218 515 514 4294 4295 4296 4285 4618 4619 4620 4609 4606 4616 4617 4607 4612 4622 4621 4623 4300 4624 4625 
185 186 483 482 218 219 516 515 4304 4305 4306 4295 4628 4629 4630 4619 4616 4626 4627 4617 4622 4632 4631 4633 4310 4634 4635 
186 187 484 483 219 220 517 516 4314 4315 4316 4305 4638 4639 4640 4629 4626 4636 4637 4627 4632 4642 4641 4643 4320 4644 4645 
187 188 485 484 220 221 518 517 4324 4325 4326 4315 4648 4649 4650 4639 4636 4646 4647 4637 4642 4652 4651 4653 4330 4654 4655 
188 189 486 485 221 222 519 518 4334 4335 4336 4325 4658 4659 4660 4649 4646 4656 4657 4647 4652 4662 4661 4663 4340 4664 4665 
189 190 487 486 222 223 520 519 4344 4345 4346 4335 4668 4669 4670 4659 4656 4666 4667 4657 4662 4672 4671 4673 4350 4674 4675 
190 191 488 487 223 224 521 520 4354 4355 4356 4345 4678 4679 4680 4669 4666 4676 4677 4667 4672 4682 4681 4683 4360 4684 4685 
191 192 489 488 224 225 522 521 4364 4365 4366 4355 4688 4689 4690 4679 4676 4686 4687 4677 4682 4692 4691 4693 4370 4694 4695 
192 193 490 489 225 226 523 522 4374 4375 4376 4365 4698 4699 4700 4689 4686 4696 4697 4687 4692 4702 4701 4703 4380 4704 4705 
193 194 491 490 226 227 524 523 4384 4385 4386 4375 4708 4709 4710 4699 4696 4706 4707 4697 4702 4712 4711 4713 4390 4714 4715 
194 195 492 491 227 228 525 524 4394 4395 4396 4385 4718 4719 4720 4709 4706 4716 4717 4707 4712 4722 4721 4723 4400 4724 4725 
195 196 493 492 228 229 526 525 4404 4405 4406 4395 4728 4729 4730 4719 4716 4726 4727 4717 4722 4732 4731 4733 4410 4734 4735 
196 197 494 493 229 230 527 526 4414 4415 4416 4405 4738 4739 4740 4729 4726 4736 4737 4727 4732 4742 4741 4743 4420 4744 4745 
198 199 496 495 231 232 529 528 4426 4427 4428 4429 4750 4751 4752 4753 4746 4747 4748 4749 4757 4755 4754 4756 4434 4758 4759 
199 200 497 496 232 233 530 529 4438 4439 4440 4427 4762 4763 4764 4751 4747 4760 4761 4748 4755 4766 4765 4767 4444 4768 4769 
200 201 498 497 233 234 531 530 4448 4449 4450 4439 4772 4773 4774 4763 4760 4770 4771 4761 4766 4776 4775 4777 4454 4778 4779 
201 202 499 498 234 235 532 531 4458 4459 4460 4449 4782 4783 4784 4773 4770 4780 4781 4771 4776 4786 4785 4787 4464 4788 4789 
202 203 500 499 235 236 533 532 4468 4469 4470 4459 4792 4793 4794 4783 4780 4790 4791 4781 4786 4796 4795 4797 4474 4798 4799 
203 204 501 500 236 237 534 533 4478 4479 4480 4469 4802 4803 4804 4793 4790 4800 4801 4791 4796 4806 4805 4807 4484 4808 4809 
204 205 502 501 237 238 535 534 4488 4489 4490 4479 4812 4813 4814 4803 4800 4810 4811 4801 4806 4816 4815 4817 4494 4818 4819 
205 206 503 502 238 239 536 535 4498 4499 4500 4489 4822 4823 4824 4813 4810 4820 4821 4811 4816 4826 4825 4827 4504 4828 4829 
206 207 504 503 239 240 537 536 4508 4509 4510 4499 4832 4833 4834 4823 4820 4830 4831 4821 4826 4836 4835 4837 4514 4838 4839 
207 208 505 504 240 241 538 537 4518 4519 4520 4509 4842 4843 4844 4833 4830 4840 4841 4831 4836 4846 4845 4847 4524 4848 4849 
208 209 506 505 241 242 539 538 4528 4529 4530 4519 4852 4853 4854 4843 4840 4850 4851 4841 4846 4856 4855 4857 4534 4858 4859 
209 210 507 506 242 243 540 539 4538 4539 4540 4529 4862 4863 4864 4853 4850 4860 4861 4851 4856 4866 4865 4867 4544 4868 4869 
210 211 508 507 243 244 541 540 4548 4549 4550 4539 4872 4873 4874 4863 4860 4870 4871 4861 4866 4876 4875 4877 4554 4878 4879 
211 212 509 508 244 245 542 541 4558 4559 4560 4549 4882 4883 4884 4873 4870 4880 4881 4871 4876 4886 4885 4887 4564 4888 4889 
212 213 510 509 245 246 543 542 4568 4569 4570 4559 4892 4893 4894 4883 4880 4890 4891 4881 4886 4896 4895 4897 4574 4898 4899 
213 214 511 510 246 247 544 543 4578 4579 4580 4569 4902 4903 4904 4893 4890 4900 4901 4891 4896 4906 4905 4907 4584 4908 4909 
214 215 512 511 247 248 545 544 4588 4589 4590 4579 4912 4913 4914 4903 4900 4910 4911 4901 4906 4916 4915 4917 4594 4918 4919 
215 216 513 512 248 249 546 545 4598 4599 4600 4589 4922 4923 4924 4913 4910 4920 4921 4911 4916 4926 4925 4927 4604 4928 4929 
216 217 514 513 249 250 547 546 4608 4609 4610 4599 4932 4933 4934 4923 4920 4930 4931 4921 4926 4936 4935 4937 4614 4938 4939 
217 218 515 514 250 251 548 547 4618 4619 4620 4609 4942 4943 4944 4933 4930 4940 4941 4931 4936 4946 4945 4947 4624 4948 4949 
218 219 516 515 251 252 549 548 4628 4629 4630 4619 4952 4953 4954 4943 4940 4950 4951 4941 4946 4956 4955 4957 4634 4958 4959 
219 220 517 516 252 253 550 549 4638 4639 4640 4629 4962 4963 4964 4953 4950 4960 4961 4951 4956 4966 4965 4967 4644 4968 4969 
220 221 518 517 253 254 551 550 4648 4649 4650 4639 4972 4973 4974 4963 4960 4970 4971 4961 4966 4976 4975 4977 4654 4978 4979 
221 222 519 518 254 255 552 551 4658 4659 4660 4649 4982 4983 4984 4973 4970 4980 4981 4971 4976 4986 4985 4987 4664 4988 4989 
222 223 520 519 255 256 553 552 4668 4669 4670 4659 4992 4993 4994 4983 4980 4990 4991 4981 4986 4996 4995 4997 4674 4998 4999 
223 224 521 520 256 257 554 553 4678 4679 4680 4669 5002 5003 5004 4993 4990 5000 5001 4991 4996 5006 5005 5007 4684 5008 5009 
224 225 522 521 257 258 555 554 4688 4689 4690 4679 5012 5013 5014 5003 5000 5010 5011 5001 5006 5016 5015 5017 4694 5018 5019 
225 226 523 522 258 259 556 555 4698 4699 4700 4689 5022 5023 5024 5013 5010 5020 5021 5011 5016 5026 5025 5027 4704 5028 5029 
226 227 524 523 259 260 557 556 4708 4709 4710 4699 5032 5033 5034 5023 5020 5030 5031 5021 5026 5036 5035 5037 4714 5038 5039 
227 228 525 524 260 261 558 557 4718 4719 4720 4709 5042 5043 5044 5033 5030 5040 5041 5031 5036 5046 5045 5047 4724 5048 5049 
228 229 526 525 261 262 559 558 4728 4729 4730 4719 5052 5053 5054 5043 5040 5050 5051 5041 5046 5056 5055 5057 4734 5058 5059 
229 230 527 526 262 263 560 559 4738 4739 4740 4729 5062 5063 5064 5053 5050 5060 5061 5051 5056 5066 5065 5067 4744 5068 5069 
231 232 529 528 264 265 562 561 4750 4751 4752 4753 5074 5075 5076 5077 5070 5071 5072 5073 5081 5079 5078 5080 4758 5082 5083 
232 233 530 529 265 266 563 562 4762 4763 4764 4751 5086 5087 5088 5075 5071 5084 5085 5072 5079 5090 5089 5091 4768 5092 5093 
233 234 531 530 266 267 564 563 4772 4773 4774 4763 5096 5097 5098 5087 5084 5094 5095 5085 5090 5100 5099 5101 4778 5102 5103 
234 235 532 531 267 268 565 564 4782 4783 4784 4773 5106 5107 5108 5097 5094 5104 5105 5095 5100 5110 5109 5111 4788 5112 5113 
235 236 533 532 268 269 566 565 4792 4793 4794 4783 5116 5117 5118 5107 5104 5114 5115 5105 5110 5120 5119 5121 4798 5122 5123 
236 237 534 533 269 270 567 566 4802 4803 4804 4793 5126 5127 5128 5117 5114 5124 5125 5115 5120 5130 5129 5131 4808 5132 5133 
237 238 535 534 270 271 568 567 4812 4813 4814 4803 5136 5137 5138 5127 5124 5134 5135 5125 5130 5140 5139 5141 4818 5142 5143 
238 239 536 535 271 272 569 568 4822 4823 4824 4813 5146 5147 5148 5137 5134 5144 5145 5135 5140 5150 5149 5151 4828 5152 5153 
239 240 537 536 272 273 570 569 4832 4833 4834 4823 5156 5157 5158 5147 5144 5154 5155 5145 5150 5160 5159 5161 4838 5162 5163 
240 241 538 537 273 274 571 570 4842 4843 4844 4833 5166 5167 5168 5157 5154 5164 5165 5155 5160 5170 5169 5171 4848 5172 5173 
241 242 539 538 274 275 572 571 4852 4853 4854 4843 5176 5177 5178 5167 5164 5174 5175 5165 5170 5180 5179 5181 4858 5182 5183 
242 243 540 539 275 276 573 572 4862 4863 4864 4853 5186 5187 5188 5177 5174 5184 5185 5175 5180 5190 5189 5191 4868 5192 5193 
243 244 541 540 276 277 574 573 4872 4873 4874 4863 5196 5197 5198 5187 5184 5194 5195 5185 5190 5200 5199 5201 4878 5202 5203 
244 245 542 541 277 278 575 574 4882 4883 4884 4873 5206 5207 5208 5197 5194 5204 5205 5195 5200 5210 5209 5211 4888 5212 5213 
245 246 543 542 278 279 576 575 4892 4893 4894 4883 5216 5217 5218 5207 5204 5214 5215 5205 5210 5220 5219 5221 4898 5222 5223 
246 247 544 543 279 280 577 576 4902 4903 4904 4893 5226 5227 5228 5217 5214 5224 5225 5215 5220 5230 5229 5231 4908 5232 5233 
247 248 545 544 280 281 578 577 4912 4913 4914 4903 5236 5237 5238 5227 5224 5234 5235 5225 5230 5240 5239 5241 4918 5242 5243 
248 249 546 545 281 282 579 578 4922 4923 4924 4913 5246 5247 5248 5237 5234 5244 5245 5235 5240 5250 5249 5251 4928 5252 5253 
249 250 547 546 282 283 580 579 4932 4933 4934 4923 5256 5257 5258 5247 5244 5254 5255 5245 5250 5260 5259 5261 4938 5262 5263 
250 251 548 547 283 284 581 580 4942 4943 4944 4933 5266 5267 5268 5257 5254 5264 5265 5255 5260 5270 5269 5271 4948 5272 5273 
251 252 549 548 284 285 582 581 4952 4953 4954 4943 5276 5277 5278 5267 5264 5274 5275 5265 5270 5280 5279 5281 4958 5282 5283 
252 253 550 549 285 286 583 582 4962 4963 4964 4953 5286 5287 5288 5277 5274 5284 5285 5275 5280 5290 5289 5291 4968 5292 5293 
253 254 551 550 286 287 584 583 4972 4973 4974 4963 5296 5297 5298 5287 5284 5294 5295 5285 5290 5300 5299 5301 4978 5302 5303 
254 255 552 551 287 288 585 584 4982 4983 4984 4973 5306 5307 5308 5297 5294 5304 5305 5295 5300 5310 5309 5311 4988 5312 5313 
255 256 553 552 288 289 586 585 4992 4993 4994 4983 5316 5317 5318 5307 5304 5314 5315 5305 5310 5320 5319 5321 4998 5322 5323 
256 257 554 553 289 290 587 586 5002 5003 5004 4993 5326 5327 5328 5317 5314 5324 5325 5315 5320 5330 5329 5331 5008 5332 5333 
257 258 555 554 290 291 588 587 5012 5013 5014 5003 5336 5337 5338 5327 5324 5334 5335 5325 5330 5340 5339 5341 5018 5342 5343 
258 259 556 555 291 292 589 588 5022 5023 5024 5013 5346 5347 5348 5337 5334 5344 5345 5335 5340 5350 5349 5351 5028 5352 5353 
259 260 557 556 292 293 590 589 5032 5033 5034 5023 5356 5357 5358 5347 5344 5354 5355 5345 5350 5360 5359 5361 5038 5362 5363 
260 261 558 557 293 294 591 590 5042 5043 5044 5033 5366 5367 5368 5357 5354 5364 5365 5355 5360 5370 5369 5371 5048 5372 5373 
261 262 559 558 294 295 592 591 5052 5053 5054 5043 5376 5377 5378 5367 5364 5374 5375 5365 5370 5380 5379 5381 5058 5382 5383 
262 263 560 559 295 296 593 592 5062 5063 5064 5053 5386 5387 5388 5377 5374 5384 5385 5375 5380 5390 5389 5391 5068 5392 5393 
297 298 595 594 330 331 628 627 2675 5394 5395 5396 2683 5399 5400 5401 2680 2679 5397 5398 5405 5403 2688 5404 5402 5406 5407 
298 299 596 595 331 332 629 628 2694 5408 5409 5394 2699 5411 5412 5399 2679 2696 5410 5397 5403 5414 2703 5415 5413 5416 5417 
299 300 597 596 332 333 630 629 2708 5418 5419 5408 2713 5421 5422 5411 2696 2710 5420 5410 5414 5424 2717 5425 5423 5426 5427 
300 301 598 597 333 334 631 630 2722 5428 5429 5418 2727 5431 5432 5421 2710 2724 5430 5420 5424 5434 2731 5435 5433 5436 5437 
301 302 599 598 334 335 632 631 2736 5438 5439 5428 2741 5441 5442 5431 2724 2738 5440 5430 5434 5444 2745 5445 5443 5446 5447 
302 303 600 599 335 336 633 632 2750 5448 5449 5438 2755 5451 5452 5441 2738 2752 5450 5440 5444 5454 2759 5455 5453 5456 5457 
303 304 601 600 336 337 634 633 2764 5458 5459 5448 2769 5461 5462 5451 2752 2766 5460 5450 5454 5464 2773 5465 5463 5466 5467 
304 305 602 601 337 338 635 634 2778 5468 5469 5458 2783 5471 5472 5461 2766 2780 5470 5460 5464 5474 2787 5475 5473 5476 5477 
305 306 603 602 338 339 636 635 2792 5478 5479 5468 2797 5481 5482 5471 2780 2794 5480 5470 5474 5484 2801 5485 5483 5486 5487 
306 307 604 603 339 340 637 636 2806 5488 5489 5478 2811 5491 5492 5481 2794 2808 5490 5480 5484 5494 2815 5495 5493 5496 5497 
307 308 605 604 340 341 638 637 2820 5498 5499 5488 2825 5501 5502 5491 2808 2822 5500 5490 5494 5504 2829 5505 5503 5506 5507 
308 309 606 605 341 342 639 638 2834 5508 5509 5498 2839 5511 5512 5501 2822 2836 5510 5500 5504 5514 2843 5515 5513 5516 5517 
309 310 607 606 342 343 640 639 2848 5518 5519 5508 2853 5521 5522 5511 2836 2850 5520 5510 5514 5524 2857 5525 5523 5526 5527 
310 311 608 607 343 344 641 640 2862 5528 5529 5518 2867 5531 5532 5521 2850 2864 5530 5520 5524 5534 2871 5535 5533 5536 5537 
311 312 609 608 344 345 642 641 2876 5538 5539 5528 2881 5541 5542 5531 2864 2878 5540 5530 5534 5544 2885 5545 5543 5546 5547 
312 313 610 609 345 346 643 642 2890 5548 5549 5538 2895 5551 5552 5541 2878 2892 5550 5540 5544 5554 2899 5555 5553 5556 5557 
313 314 611 610 346 347 644 643 2904 5558 5559 5548 2909 5561 5562 5551 2892 2906 5560 5550 5554 5564 2913 5565 5563 5566 5567 
314 315 612 611 347 348 645 644 2918 5568 5569 5558 2923 5571 5572 5561 2906 2920 5570 5560 5564 5574 2927 5575 5573 5576 5577 
315 316 613 612 348 349 646 645 2932 5578 5579 5568 2937 5581 5582 5571 2920 2934 5580 5570 5574 5584 2941 5585 5583 5586 5587 
316 317 614 613 349 350 647 646 2946 5588 5589 5578 2951 5591 5592 5581 2934 2948 5590 5580 5584 5594 2955 5595 5593 5596 5597 
317 318 615 614 350 351 648 647 2960 5598 5599 5588 2965 5601 5602 5591 2948 2962 5600 5590 5594 5604 2969 5605 5603 5606 5607 
318 319 616 615 351 352 649 648 2974 5608 5609 5598 2979 5611 5612 5601 2962 2976 5610 5600 5604 5614 2983 5615 5613 5616 5617 
319 320 617 616 352 353 650 649 2988 5618 5619 5608 2993 5621 5622 5611 2976 2990 5620 5610 5614 5624 2997 5625 5623 5626 5627 
320 321 618 617 353 354 651 650 3002 5628 5629 5618 3007 5631 5632 5621 2990 3004 5630 5620 5624 5634 3011 5635 5633 5636 5637 
321 322 619 618 354 355 652 651 3016 5638 5639 5628 3021 5641 5642 5631 3004 3018 5640 5630 5634 5644 3025 5645 5643 5646 5647 
322 323 620 619 355 356 653 652 3030 5648 5649 5638 3035 5651 5652 5641 3018 3032 5650 5640 5644 5654 3039 5655 5653 5656 5657 
323 324 621 620 356 357 654 653 3044 5658 5659 5648 3049 5661 5662 5651 3032 3046 5660 5650 5654 5664 3053 5665 5663 5666 5667 
324 325 622 621 357 358 655 654 3058 5668 5669 5658 3063 5671 5672 5661 3046 3060 5670 5660 5664 5674 3067 5675 5673 5676 5677 
325 326 623 622 358 359 656 655 3072 5678 5679 5668 3077 5681 5682 5671 3060 3074 5680 5670 5674 5684 3081 5685 5683 5686 5687 
326 327 624 623 359 360 657 656 3086 5688 5689 5678 3091 5691 5692 5681 3074 3088 5690 5680 5684 5694 3095 5695 5693 5696 5697 
327 328 625 624 360 361 658 657 3100 5698 5699 5688 3105 5701 5702 5691 3088 3102 5700 5690 5694 5704 3109 5705 5703 5706 5707 
328 329 626 625 361 362 659 658 3114 5708 5709 5698 3119 5711 5712 5701 3102 3116 5710 5700 5704 5714 3123 5715 5713 5716 5717 
330 331 628 627 363 364 661 660 2683 5399 5400 5401 3132 5720 5721 5722 3129 3128 5718 5719 5725 5723 3136 5724 5406 5726 5727 
331 332 629 628 364 365 662 661 2699 5411 5412 5399 3144 5729 5730 5720 3128 3141 5728 5718 5723 5731 3147 5732 5416 5733 5734 
332 333 630 629 365 366 663 662 2713 5421 5422 5411 3154 5736 5737 5729 3141 3151 5735 5728 5731 5738 3157 5739 5426 5740 5741 
333 334 631 630 366 367 664 663 2727 5431 5432 5421 3164 5743 5744 5736 3151 3161 5742 5735 5738 5745 3167 5746 5436 5747 5748 
334 335 632 631 367 368 665 664 2741 5441 5442 5431 3174 5750 5751 5743 3161 3171 5749 5742 5745 5752 3177 5753 5446 5754 5755 
335 336 633 632 368 369 666 665 2755 5451 5452 5441 3184 5757 5758 5750 3171 3181 5756 5749 5752 5759 3187 5760 5456 5761 5762 
336 337 634 633 369 370 667 666 2769 5461 5462 5451 3194 5764 5765 5757 3181 3191 5763 5756 5759 5766 3197 5767 5466 5768 5769 
337 338 635 634 370 371 668 667 2783 5471 5472 5461 3204 5771 5772 5764 3191 3201 5770 5763 5766 5773 3207 5774 5476 5775 5776 
338 339 636 635 371 372 669 668 2797 5481 5482 5471 3214 5778 5779 5771 3201 3211 5777 5770 5773 5780 3217 5781 5486 5782 5783 
339 340 637 636 372 373 670 669 2811 5491 5492 5481 3224 5785 5786 5778 3211 3221 5784 5777 5780 5787 3227 5788 5496 5789 5790 
340 341 638 637 373 374 671 670 2825 5501 5502 5491 3234 5792 5793 5785 3221 3231 5791 5784 5787 5794 3237 5795 5506 5796 5797 
341 342 639 638 374 375 672 671 2839 5511 5512 5501 3244 5799 5800 5792 3231 3241 5798 5791 5794 5801 3247 5802 5516 5803 5804 
342 343 640 639 375 376 673 672 2853 5521 5522 5511 3254 5806 5807 5799 3241 3251 5805 5798 5801 5808 3257 5809 5526 5810 5811 
343 344 641 640 376 377 674 673 2867 5531 5532 5521 3264 5813 5814 5806 3251 3261 5812 5805 5808 5815 3267 5816 5536 5817 5818 
344 345 642 641 377 378 675 674 2881 5541 5542 5531 3274 5820 5821 5813 3261 3271 5819 5812 5815 5822 3277 5823 5546 5824 5825 
345 346 643 642 378 379 676 675 2895 5551 5552 5541 3284 5827 5828 5820 3271 3281 5826 5819 5822 5829 3287 5830 5556 5831 5832 
346 347 644 643 379 380 677 676 2909 5561 5562 5551 3294 5834 5835 5827 3281 3291 5833 5826 5829 5836 3297 5837 5566 5838 5839 
347 348 645 644 380 381 678 677 2923 5571 5572 5561 3304 5841 5842 5834 3291 3301 5840 5833 5836 5843 3307 5844 5576 5845 5846 
348 349 646 645 381 382 679 678 2937 5581 5582 5571 3314 5848 5849 5841 3301 3311 5847 5840 5843 5850 3317 5851 5586 5852 5853 
349 350 647 646 382 383 680 679 2951 5591 5592 5581 3324 5855 5856 5848 3311 3321 5854 5847 5850 5857 3327 5858 5596 5859 5860 
350 351 648 647 383 384 681 680 2965 5601 5602 5591 3334 5862 5863 5855 3321 3331 5861 5854 5857 5864 3337 5865 5606 5866 5867 
351 352 649 648 384 385 682 681 2979 5611 5612 5601 3344 5869 5870 5862 3331 3341 5868 5861 5864 5871 3347 5872 5616 5873 5874 
352 353 650 649 385 386 683 682 2993 5621 5622 5611 3354 5876 5877 5869 3341 3351 5875 5868 5871 5878 3357 5879 5626 5880 5881 
353 354 651 650 386 387 684 683 3007 5631 5632 5621 3364 5883 5884 5876 3351 3361 5882 5875 5878 5885 3367 5886 5636 5887 5888 
354 355 652 651 387 388 685 684 3021 5641 5642 5631 3374 5890 5891 5883 3361 3371 5889 5882 5885 5892 3377 5893 5646 5894 5895 
355 356 653 652 388 389 686 685 3035 5651 5652 5641 3384 5897 5898 5890 3371 3381 5896 5889 5892 5899 3387 5900 5656 5901 5902 
356 357 654 653 389 390 687 686 3049 5661 5662 5651 3394 5904 5905 5897 3381 3391 5903 5896 5899 5906 3397 5907 5666 5908 5909 
357 358 655 654 390 391 688 687 3063 5671 5672 5661 3404 5911 5912 5904 3391 3401 5910 5903 5906 5913 3407 5914 5676 5915 5916 
358 359 656 655 391 392 689 688 3077 5681 5682 5671 3414 5918 5919 5911 3401 3411 5917 5910 5913 5920 3417 5921 5686 5922 5923 
359 360 657 656 392 393 690 689 3091 5691 5692 5681 3424 5925 5926 5918 3411 3421 5924 5917 5920 5927 3427 5928 5696 5929 5930 
360 361 658 657 393 394 691 690 3105 5701 5702 5691 3434 5932 5933 5925 3421 3431 5931 5924 5927 5934 3437 5935 5706 5936 5937 
361 362 659 658 394 395 692 691 3119 5711 5712 5701 3444 5939 5940 5932 3431 3441 5938 5931 5934 5941 3447 5942 5716 5943 5944 
363 364 661 660 396 397 694 693 3132 5720 5721 5722 3456 5947 5948 5949 3453 3452 5945 5946 5952 5950 3460 5951 5726 5953 5954 
364 365 662 661 397 398 695 694 3144 5729 5730 5720 3468 5956 5957 5947 3452 3465 5955 5945 5950 5958 3471 5959 5733 5960 5961 
365 366 663 662 398 399 696 695 3154 5736 5737 5729 3478 5963 5964 5956 3465 3475 5962 5955 5958 5965 3481 5966 5740 5967 5968 
366 367 664 663 399 400 697 696 3164 5743 5744 5736 3488 5970 5971 5963 3475 3485 5969 5962 5965 5972 3491 5973 5747 5974 5975 
367 368 665 664 400 401 698 697 3174 5750 5751 5743 3498 5977 5978 5970 3485 3495 5976 5969 5972 5979 3501 5980 5754 5981 5982 
368 369 666 665 401 402 699 698 3184 5757 5758 5750 3508 5984 5985 5977 3495 3505 5983 5976 5979 5986 3511 5987 5761 5988 5989 
369 370 667 666 402 403 700 699 3194 5764 5765 5757 3518 5991 5992 5984 3505 3515 5990 5983 5986 5993 3521 5994 5768 5995 5996 
370 371 668 667 403 404 701 700 3204 5771 5772 5764 3528 5998 5999 5991 3515 3525 5997 5990 5993 6000 3531 6001 5775 6002 6003 
371 372 669 668 404 405 702 701 3214 5778 5779 5771 3538 6005 6006 5998 3525 3535 6004 5997 6000 6007 3541 6008 5782 6009 6010 
372 373 670 669 405 406 703 702 3224 5785 5786 5778 3548 6012 6013 6005 3535 3545 6011 6004 6007 6014 3551 6015 5789 6016 6017 
373 374 671 670 406 407 704 703 3234 5792 5793 5785 3558 6019 6020 6012 3545 3555 6018 6011 6014 6021 3561 6022 5796 6023 6024 
374 375 672 671 407 408 705 704 3244 5799 5800 5792 3568 6026 6027 6019 3555 3565 6025 6018 6021 6028 3571 6029 5803 6030 6031 
375 376 673 672 408 409 706 705 3254 5806 5807 5799 3578 6033 6034 6026 3565 3575 6032 6025 6028 6035 3581 6036 5810 6037 6038 
376 377 674 673 409 410 707 706 3264 5813 5814 5806 3588 6040 6041 6033 3575 3585 6039 6032 6035 6042 3591 6043 5817 6044 6045 
377 378 675 674 410 411 708 707 3274 5820 5821 5813 3598 6047 6048 6040 3585 3595 6046 6039 6042 6049 3601 6050 5824 6051 6052 
378 379 676 675 411 412 709 708 3284 5827 5828 5820 3608 6054 6055 6047 3595 3605 6053 6046 6049 6056 3611 6057 5831 6058 6059 
379 380 677 676 412 413 710 709 3294 5834 5835 5827 3618 6061 6062 6054 3605 3615 6060 6053 6056 6063 3621 6064 5838 6065 6066 
380 381 678 677 413 414 711 710 3304 5841 5842 5834 3628 6068 6069 6061 3615 3625 6067 6060 6063 6070 3631 6071 5845 6072 6073 
381 382 679 678 414 415 712 711 3314 5848 5849 5841 3638 6075 6076 6068 3625 3635 6074 6067 6070 6077 3641 6078 5852 6079 6080 
382 383 680 679 415 416 713 712 3324 5855 5856 5848 3648 6082 6083 6075 3635 3645 6081 6074 6077 6084 3651 6085 5859 6086 6087 
383 384 681 680 416 417 714 713 3334 5862 5863 5855 3658 6089 6090 6082 3645 3655 6088 6081 6084 6091 3661 6092 5866 6093 6094 
384 385 682 681 417 418 715 714 3344 5869 5870 5862 3668 6096 6097 6089 3655 3665 6095 6088 6091 6098 3671 6099 5873 6100 6101 
385 386 683 682 418 419 716 715 3354 5876 5877 5869 3678 6103 6104 6096 3665 3675 6102 6095 6098 6105 3681 6106 5880 6107 6108 
386 387 684 683 419 420 717 716 3364 5883 5884 5876 3688 6110 6111 6103 3675 3685 6109 6102 6105 6112 3691 6113 5887 6114 6115 
387 388 685 684 420 421 718 717 3374 5890 5891 5883 3698 6117 6118 6110 3685 3695 6116 6109 6112 6119 3701 6120 5894 6121 6122 
388 389 686 685 421 422 719 718 3384 5897 5898 5890 3708 6124 6125 6117 3695 3705 6123 6116 6119 6126 3711 6127 5901 6128 6129 
389 390 687 686 422 423 720 719 3394 5904 5905 5897 3718 6131 6132 6124 3705 3715 6130 6123 6126 6133 3721 6134 5908 6135 6136 
390 391 688 687 423 424 721 720 3404 5911 5912 5904 3728 6138 6139 6131 3715 3725 6137 6130 6133 6140 3731 6141 5915 6142 6143 
391 392 689 688 424 425 722 721 3414 5918 5919 5911 3738 6145 6146 6138 3725 3735 6144 6137 6140 6147 3741 6148 5922 6149 6150 
392 393 690 689 425 426 723 722 3424 5925 5926 5918 3748 6152 6153 6145 3735 3745 6151 6144 6147 6154 3751 6155 5929 6156 6157 
393 394 691 690 426 427 724 723 3434 5932 5933 5925 3758 6159 6160 6152 3745 3755 6158 6151 6154 6161 3761 6162 5936 6163 6164 
394 395 692 691 427 428 725 724 3444 5939 5940 5932 3768 6166 6167 6159 3755 3765 6165 6158 6161 6168 3771 6169 5943 6170 6171 
396 397 694 693 429 430 727 726 3456 5947 5948 5949 3780 6174 6175 6176 3777 3776 6172 6173 6179 6177 3784 6178 5953 6180 6181 
397 398 695 694 430 431 728 727 3468 5956 5957 5947 3792 6183 6184 6174 3776 3789 6182 6172 6177 6185 3795 6186 5960 6187 6188 
398 399 696 695 431 432 729 728 3478 5963 5964 5956 3802 6190 6191 6183 3789 3799 6189 6182 6185 6192 3805 6193 5967 6194 6195 
399 400 697 696 432 433 730 729 3488 5970 5971 5963 3812 6197 6198 6190 3799 3809 6196 6189 6192 6199 3815 6200 5974 6201 6202 
400 401 698 697 433 434 731 730 3498 5977 5978 5970 3822 6204 6205 6197 3809 3819 6203 6196 6199 6206 3825 6207 5981 6208 6209 
401 402 699 698 434 435 732 731 3508 5984 5985 5977 3832 6211 6212 6204 3819 3829 6210 6203 6206 6213 3835 6214 5988 6215 6216 
402 403 700 699 435 436 733 732 3518 5991 5992 5984 3842 6218 6219 6211 3829 3839 6217 6210 6213 6220 3845 6221 5995 6222 6223 
403 404 701 700 436 437 734 733 3528 5998 5999 5991 3852 6225 6226 6218 3839 3849 6224 6217 6220 6227 3855 6228 6002 6229 6230 
404 405 702 701 437 438 735 734 3538 6005 6006 5998 3862 6232 6233 6225 3849 3859 6231 6224 6227 6234 3865 6235 6009 6236 6237 
405 406 703 702 438 439 736 735 3548 6012 6013 6005 3872 6239 6240 6232 3859 3869 6238 6231 6234 6241 3875 6242 6016 6243 6244 
406 407 704 703 439 440 737 736 3558 6019 6020 6012 3882 6246 6247 6239 3869 3879 6245 6238 6241 6248 3885 6249 6023 6250 6251 
407 408 705 704 440 441 738 737 3568 6026 6027 6019 3892 6253 6254 6246 3879 3889 6252 6245 6248 6255 3895 6256 6030 6257 6258 
408 409 706 705 441 442 739 738 3578 6033 6034 6026 3902 6260 6261 6253 3889 3899 6259 6252 6255 6262 3905 6263 6037 6264 6265 
409 410 707 706 442 443 740 739 3588 6040 6041 6033 3912 6267 6268 6260 3899 3909 6266 6259 6262 6269 3915 6270 6044 6271 6272 
410 411 708 707 443 444 741 740 3598 6047 6048 6040 3922 6274 6275 6267 3909 3919 6273 6266 6269 6276 3925 6277 6051 6278 6279 
411 412 709 708 444 445 742 741 3608 6054 6055 6047 3932 6281 6282 6274 3919 3929 6280 6273 6276 6283 3935 6284 6058 6285 6286 
412 413 710 709 445 446 743 742 3618 6061 6062 6054 3942 6288 6289 6281 3929 3939 6287 6280 6283 6290 3945 6291 6065 6292 6293 
413 414 711 710 446 447 744 743 3628 6068 6069 6061 3952 6295 6296 6288 3939 3949 6294 6287 6290 6297 3955 6298 6072 6299 6300 
414 415 712 711 447 448 745 744 3638 6075 6076 6068 3962 6302 6303 6295 3949 3959 6301 6294 6297 6304 3965 6305 6079 6306 6307 
415 416 713 712 448 449 746 745 3648 6082 6083 6075 3972 6309 6310 6302 3959 3969 6308 6301 6304 6311 3975 6312 6086 6313 6314 
416 417 714 713 449 450 747 746 3658 6089 6090 6082 3982 6316 6317 6309 3969 3979 6315 6308 6311 6318 3985 6319 6093 6320 6321 
417 418 715 714 450 451 748 747 3668 6096 6097 6089 3992 6323 6324 6316 3979 3989 6322 6315 6318 6325 3995 6326 6100 6327 6328 
418 419 716 715 451 452 749 748 3678 6103 6104 6096 4002 6330 6331 6323 3989 3999 6329 6322 6325 6332 4005 6333 6107 6334 6335 
419 420 717 716 452 453 750 749 3688 6110 6111 6103 4012 6337 6338 6330 3999 4009 6336 6329 6332 6339 4015 6340 6114 6341 6342 
420 421 718 717 453 454 751 750 3698 6117 6118 6110 4022 6344 6345 6337 4009 4019 6343 6336 6339 6346 4025 6347 6121 6348 6349 
421 422 719 718 454 455 752 751 3708 6124 6125 6117 4032 6351 6352 6344 4019 4029 6350 6343 6346 6353 4035 6354 6128 6355 6356 
422 423 720 719 455 456 753 752 3718 6131 6132 6124 4042 6358 6359 6351 4029 4039 6357 6350 6353 6360 4045 6361 6135 6362 6363 
423 424 721 720 456 457 754 753 3728 6138 6139 6131 4052 6365 6366 6358 4039 4049 6364 6357 6360 6367 4055 6368 6142 6369 6370 
424 425 722 721 457 458 755 754 3738 6145 6146 6138 4062 6372 6373 6365 4049 4059 6371 6364 6367 6374 4065 6375 6149 6376 6377 
425 426 723 722 458 459 756 755 3748 6152 6153 6145 4072 6379 6380 6372 4059 4069 6378 6371 6374 6381 4075 6382 6156 6383 6384 
426 427 724 723 459 460 757 756 3758 6159 6160 6152 4082 6386 6387 6379 4069 4079 6385 6378 6381 6388 4085 6389 6163 6390 6391 
427 428 725 724 460 461 758 757 3768 6166 6167 6159 4092 6393 6394 6386 4079 4089 6392 6385 6388 6395 4095 6396 6170 6397 6398 
429 430 727 726 462 463 760 759 3780 6174 6175 6176 4104 6401 6402 6403 4101 4100 6399 6400 6406 6404 4108 6405 6180 6407 6408 
430 431 728 727 463 464 761 760 3792 6183 6184 6174 4116 6410 6411 6401 4100 4113 6409 6399 6404 6412 4119 6413 6187 6414 6415 
431 432 729 728 464 465 762 761 3802 6190 6191 6183 4126 6417 6418 6410 4113 4123 6416 6409 6412 6419 4129 6420 6194 6421 6422 
432 433 730 729 465 466 763 762 3812 6197 6198 6190 4136 6424 6425 6417 4123 4133 6423 6416 6419 6426 4139 6427 6201 6428 6429 
433 434 731 730 466 467 764 763 3822 6204 6205 6197 4146 6431 6432 6424 4133 4143 6430 6423 6426 6433 4149 6434 6208 6435 6436 
434 435 732 731 467 468 765 764 3832 6211 6212 6204 4156 6438 6439 6431 4143 4153 6437 6430 6433 6440 4159 6441 6215 6442 6443 
435 436 733 732 468 469 766 765 3842 6218 6219 6211 4166 6445 6446 6438 4153 4163 6444 6437 6440 6447 4169 6448 6222 6449 6450 
436 437 734 733 469 470 767 766 3852 6225 6226 6218 4176 6452 6453 6445 4163 4173 6451 6444 6447 6454 4179 6455 6229 6456 6457 
437 438 735 734 470 471 768 767 3862 6232 6233 6225 4186 6459 6460 6452 4173 4183 6458 6451 6454 6461 4189 6462 6236 6463 6464 
438 439 736 735 471 472 769 768 3872 6239 6240 6232 4196 6466 6467 6459 4183 4193 6465 6458 6461 6468 4199 6469 6243 6470 6471 
439 440 737 736 472 473 770 769 3882 6246 6247 6239 4206 6473 6474 6466 4193 4203 6472 6465 6468 6475 4209 6476 6250 6477 6478 
440 441 738 737 473 474 771 770 3892 6253 6254 6246 4216 6480 6481 6473 4203 4213 6479 6472 6475 6482 4219 6483 6257 6484 6485 
441 442 739 738 474 475 772 771 3902 6260 6261 6253 4226 6487 6488 6480 4213 4223 6486 6479 6482 6489 4229 6490 6264 6491 6492 
442 443 740 739 475 476 773 772 3912 6267 6268 6260 4236 6494 6495 6487 4223 4233 6493 6486 6489 6496 4239 6497 6271 6498 6499 
443 444 741 740 476 477 774 773 3922 6274 6275 6267 4246 6501 6502 6494 4233 4243 6500 6493 6496 6503 4249 6504 6278 6505 6506 
444 445 742 741 477 478 775 774 3932 6281 6282 6274 4256 6508 6509 6501 4243 4253 6507 6500 6503 6510 4259 6511 6285 6512 6513 
445 446 743 742 478 479 776 775 3942 6288 6289 6281 4266 6515 6516 6508 4253 4263 6514 6507 6510 6517 4269 6518 6292 6519 6520 
446 447 744 743 479 480 777 776 3952 6295 6296 6288 4276 6522 6523 6515 4263 4273 6521 6514 6517 6524 4279 6525 6299 6526 6527 
447 448 745 744 480 481 778 777 3962 6302 6303 6295 4286 6529 6530 6522 4273 4283 6528 6521 6524 6531 4289 6532 6306 6533 6534 
448 449 746 745 481 482 779 778 3972 6309 6310 6302 4296 6536 6537 6529 4283 4293 6535 6528 6531 6538 4299 6539 6313 6540 6541 
449 450 747 746 482 483 780 779 3982 6316 6317 6309 4306 6543 6544 6536 4293 4303 6542 6535 6538 6545 4309 6546 6320 6547 6548 
450 451 748 747 483 484 781 780 3992 6323 6324 6316 4316 6550 6551 6543 4303 4313 6549 6542 6545 6552 4319 6553 6327 6554 6555 
451 452 749 748 484 485 782 781 4002 6330 6331 6323 4326 6557 6558 6550 4313 4323 6556 6549 6552 6559 4329 6560 6334 6561 6562 
452 453 750 749 485 486 783 782 4012 6337 6338 6330 4336 6564 6565 6557 4323 4333 6563 6556 6559 6566 4339 6567 6341 6568 6569 
453 454 751 750 486 487 784 783 4022 6344 6345 6337 4346 6571 6572 6564 4333 4343 6570 6563 6566 6573 4349 6574 6348 6575 6576 
454 455 752 751 487 488 785 784 4032 6351 6352 6344 4356 6578 6579 6571 4343 4353 6577 6570 6573 6580 4359 6581 6355 6582 6583 
455 456 753 752 488 489 786 785 4042 6358 6359 6351 4366 6585 6586 6578 4353 4363 6584 6577 6580 6587 4369 6588 6362 6589 6590 
456 457 754 753 489 490 787 786 4052 6365 6366 6358 4376 6592 6593 6585 4363 4373 6591 6584 6587 6594 4379 6595 6369 6596 6597 
457 458 755 754 490 491 788 787 4062 6372 6373 6365 4386 6599 6600 6592 4373 4383 6598 6591 6594 6601 4389 6602 6376 6603 6604 
458 459 756 755 491 492 789 788 4072 6379 6380 6372 4396 6606 6607 6599 4383 4393 6605 6598 6601 6608 4399 6609 6383 6610 6611 
459 460 757 756 492 493 790 789 4082 6386 6387 6379 4406 6613 6614 6606 4393 4403 6612 6605 6608 6615 4409 6616 6390 6617 6618 
460 461 758 757 493 494 791 790 4092 6393 6394 6386 4416 6620 6621 6613 4403 4413 6619 6612 6615 6622 4419 6623 6397 6624 6625 
462 463 760 759 495 496 793 792 4104 6401 6402 6403 4428 6628 6629 6630 4425 4424 6626 6627 6633 6631 4432 6632 6407 6634 6635 
463 464 761 760 496 497 794 793 4116 6410 6411 6401 4440 6637 6638 6628 4424 4437 6636 6626 6631 6639 4443 6640 6414 6641 6642 
464 465 762 761 497 498 795 794 4126 6417 6418 6410 4450 6644 6645 6637 4437 4447 6643 6636 6639 6646 4453 6647 6421 6648 6649 
465 466 763 762 498 499 796 795 4136 6424 6425 6417 4460 6651 6652 6644 4447 4457 6650 6643 6646 6653 4463 6654 6428 6655 6656 
466 467 764 763 499 500 797 796 4146 6431 6432 6424 4470 6658 6659 6651 4457 4467 6657 6650 6653 6660 4473 6661 6435 6662 6663 
467 468 765 764 500 501 798 797 4156 6438 6439 6431 4480 6665 6666 6658 4467 4477 6664 6657 6660 6667 4483 6668 6442 6669 6670 
468 469 766 765 501 502 799 798 4166 6445 6446 6438 4490 6672 6673 6665 4477 4487 6671 6664 6667 6674 4493 6675 6449 6676 6677 
469 470 767 766 502 503 800 799 4176 6452 6453 6445 4500 6679 6680 6672 4487 4497 6678 6671 6674 6681 4503 6682 6456 6683 6684 
470 471 768 767 503 504 801 800 4186 6459 6460 6452 4510 6686 6687 6679 4497 4507 6685 6678 6681 6688 4513 6689 6463 6690 6691 
471 472 769 768 504 505 802 801 4196 6466 6467 6459 4520 6693 6694 6686 4507 4517 6692 6685 6688 6695 4523 6696 6470 6697 6698 
472 473 770 769 505 506 803 802 4206 6473 6474 6466 4530 6700 6701 6693 4517 4527 6699 6692 6695 6702 4533 6703 6477 6704 6705 
473 474 771 770 506 507 804 803 4216 6480 6481 6473 4540 6707 6708 6700 4527 4537 6706 6699 6702 6709 4543 6710 6484 6711 6712 
474 475 772 771 507 508 805 804 4226 6487 6488 6480 4550 6714 6715 6707 4537 4547 6713 6706 6709 6716 4553 6717 6491 6718 6719 
475 476 773 772 508 509 806 805 4236 6494 6495 6487 4560 6721 6722 6714 4547 4557 6720 6713 6716 6723 4563 6724 6498 6725 6726 
476 477 774 773 509 510 807 806 4246 6501 6502 6494 4570 6728 6729 6721 4557 4567 6727 6720 6723 6730 4573 6731 6505 6732 6733 
477 478 775 774 510 511 808 807 4256 6508 6509 6501 4580 6735 6736 6728 4567 4577 6734 6727 6730 6737 4583 6738 6512 6739 6740 
478 479 776 775 511 512 809 808 4266 6515 6516 6508 4590 6742 6743 6735 4577 4587 6741 6734 6737 6744 4593 6745 6519 6746 6747 
479 480 777 776 512 513 810 809 4276 6522 6523 6515 4600 6749 6750 6742 4587 4597 6748 6741 6744 6751 4603 6752 6526 6753 6754 
480 481 778 777 513 514 811 810 4286 6529 6530 6522 4610 6756 6757 6749 4597 4607 6755 6748 6751 6758 4613 6759 6533 6760 6761 
481 482 779 778 514 515 812 811 4296 6536 6537 6529 4620 6763 6764 6756 4607 4617 6762 6755 6758 6765 4623 6766 6540 6767 6768 
482 483 780 779 515 516 813 812 4306 6543 6544 6536 4630 6770 6771 6763 4617 4627 6769 6762 6765 6772 4633 6773 6547 6774 6775 
483 484 781 780 516 517 814 813 4316 6550 6551 6543 4640 6777 6778 6770 4627 4637 6776 6769 6772 6779 4643 6780 6554 6781 6782 
484 485 782 781 517 518 815 814 4326 6557 6558 6550 4650 6784 6785 6777 4637 4647 6783 6776 6779 6786 4653 6787 6561 6788 6789 
485 486 783 782 518 519 816 815 4336 6564 6565 6557 4660 6791 6792 6784 4647 4657 6790 6783 6786 6793 4663 6794 6568 6795 6796 
486 487 784 783 519 520 817 816 4346 6571 6572 6564 4670 6798 6799 6791 4657 4667 6797 6790 6793 6800 4673 6801 6575 6802 6803 
487 488 785 784 520 521 818 817 4356 6578 6579 6571 4680 6805 6806 6798 4667 4677 6804 6797 6800 6807 4683 6808 6582 6809 6810 
488 489 786 785 521 522 819 818 4366 6585 6586 6578 4690 6812 6813 6805 4677 4687 6811 6804 6807 6814 4693 6815 6589 6816 6817 
489 490 787 786 522 523 820 819 4376 6592 6593 6585 4700 6819 6820 6812 4687 4697 6818 6811 6814 6821 4703 6822 6596 6823 6824 
490 491 788 787 523 524 821 820 4386 6599 6600 6592 4710 6826 6827 6819 4697 4707 6825 6818 6821 6828 4713 6829 6603 6830 6831 
491 492 789 788 524 525 822 821 4396 6606 6607 6599 4720 6833 6834 6826 4707 4717 6832 6825 6828 6835 4723 6836 6610 6837 6838 
492 493 790 789 525 526 823 822 4406 6613 6614 6606 4730 6840 6841 6833 4717 4727 6839 6832 6835 6842 4733 6843 6617 6844 6845 
493 494 791 790 526 527 824 823 4416 6620 6621 6613 4740 6847 6848 6840 4727 4737 6846 6839 6842 6849 4743 6850 6624 6851 6852 
495 496 793 792 528 529 826 825 4428 6628 6629 6630 4752 6855 6856 6857 4749 4748 6853 6854 6860 6858 4756 6859 6634 6861 6862 
496 497 794 793 529 530 827 826 4440 6637 6638 6628 4764 6864 6865 6855 4748 4761 6863 6853 6858 6866 4767 6867 6641 6868 6869 
497 498 795 794 530 531 828 827 4450 6644 6645 6637 4774 6871 6872 6864 4761 4771 6870 6863 6866 6873 4777 6874 6648 6875 6876 
498 499 796 795 531 532 829 828 4460 6651 6652 6644 4784 6878 6879 6871 4771 4781 6877 6870 6873 6880 4787 6881 6655 6882 6883 
499 500 797 796 532 533 830 829 4470 6658 6659 6651 4794 6885 6886 6878 4781 4791 6884 6877 6880 6887 4797 6888 6662 6889 6890 
500 501 798 797 533 534 831 830 4480 6665 6666 6658 4804 6892 6893 6885 4791 4801 6891 6884 6887 6894 4807 6895 6669 6896 6897 
501 502 799 798 534 535 832 831 4490 6672 6673 6665 4814 6899 6900 6892 4801 4811 6898 6891 6894 6901 4817 6902 6676 6903 6904 
502 503 800 799 535 536 833 832 4500 6679 6680 6672 4824 6906 6907 6899 4811 4821 6905 6898 6901 6908 4827 6909 6683 6910 6911 
503 504 801 800 536 537 834 833 4510 6686 6687 6679 4834 6913 6914 6906 4821 4831 6912 6905 6908 6915 4837 6916 6690 6917 6918 
504 505 802 801 537 538 835 834 4520 6693 6694 6686 4844 6920 6921 6913 4831 4841 6919 6912 6915 6922 4847 6923 6697 6924 6925 
505 506 803 802 538 539 836 835 4530 6700 6701 6693 4854 6927 6928 6920 4841 4851 6926 6919 6922 6929 4857 6930 6704 6931 6932 
506 507 804 803 539 540 837 836 4540 6707 6708 6700 4864 6934 6935 6927 4851 4861 6933 6926 6929 6936 4867 6937 6711 6938 6939 
507 508 805 804 540 541 838 837 4550 6714 6715 6707 4874 6941 6942 6934 4861 4871 6940 6933 6936 6943 4877 6944 6718 6945 6946 
508 509 806 805 541 542 839 838 4560 6721 6722 6714 4884 6948 6949 6941 4871 4881 6947 6940 6943 6950 4887 6951 6725 6952 6953 
509 510 807 806 542 543 840 839 4570 6728 6729 6721 4894 6955 6956 6948 4881 4891 6954 6947 6950 6957 4897 6958 6732 6959 6960 
510 511 808 807 543 544 841 840 4580 6735 6736 6728 4904 6962 6963 6955 4891 4901 6961 6954 6957 6964 4907 6965 6739 6966 6967 
511 512 809 808 544 545 842 841 4590 6742 6743 6735 4914 6969 6970 6962 4901 4911 6968 6961 6964 6971 4917 6972 6746 6973 6974 
512 513 810 809 545 546 843 842 4600 6749 6750 6742 4924 6976 6977 6969 4911 4921 6975 6968 6971 6978 4927 6979 6753 6980 6981 
513 514 811 810 546 547 844 843 4610 6756 6757 6749 4934 6983 6984 6976 4921 4931 6982 6975 6978 6985 4937 6986 6760 6987 6988 
514 515 812 811 547 548 845 844 4620 6763 6764 6756 4944 6990 6991 6983 4931 4941 6989 6982 6985 6992 4947 6993 6767 6994 6995 
515 516 813 812 548 549 846 845 4630 6770 6771 6763 4954 6997 6998 6990 4941 4951 6996 6989 6992 6999 4957 7000 6774 7001 7002 
516 517 814 813 549 550 847 846 4640 6777 6778 6770 4964 7004 7005 6997 4951 4961 7003 6996 6999 7006 4967 7007 6781 7008 7009 
517 518 815 814 550 551 848 847 4650 6784 6785 6777 4974 7011 7012 7004 4961 4971 7010 7003 7006 7013 4977 7014 6788 7015 7016 
518 519 816 815 551 552 849 848 4660 6791 6792 6784 4984 7018 7019 7011 4971 4981 7017 7010 7013 7020 4987 7021 6795 7022 7023 
519 520 817 816 552 553 850 849 4670 6798 6799 6791 4994 7025 7026 7018 4981 4991 7024 7017 7020 7027 4997 7028 6802 7029 7030 
520 521 818 817 553 554 851 850 4680 6805 6806 6798 5004 7032 7033 7025 4991 5001 7031 7024 7027 7034 5007 7035 6809 7036 7037 
521 522 819 818 554 555 852 851 4690 6812 6813 6805 5014 7039 7040 7032 5001 5011 7038 7031 7034 7041 5017 7042 6816 7043 7044 
522 523 820 819 555 556 853 852 4700 6819 6820 6812 5024 7046 7047 7039 5011 5021 7045 7038 7041 7048 5027 7049 6823 7050 7051 
523 524 821 820 556 557 854 853 4710 6826 6827 6819 5034 7053 7054 7046 5021 5031 7052 7045 7048 7055 5037 7056 6830 7057 7058 
524 525 822 821 557 558 855 854 4720 6833 6834 6826 5044 7060 7061 7053 5031 5041 7059 7052 7055 7062 5047 7063 6837 7064 7065 
525 526 823 822 558 559 856 855 4730 6840 6841 6833 5054 7067 7068 7060 5041 5051 7066 7059 7062 7069 5057 7070 6844 7071 7072 
526 527 824 823 559 560 857 856 4740 6847 6848 6840 5064 7074 7075 7067 5051 5061 7073 7066 7069 7076 5067 7077 6851 7078 7079 
528 529 826 825 561 562 859 858 4752 6855 6856 6857 5076 7082 7083 7084 5073 5072 7080 7081 7087 7085 5080 7086 6861 7088 7089 
529 530 827 826 562 563 860 859 4764 6864 6865 6855 5088 7091 7092 7082 5072 5085 7090 7080 7085 7093 5091 7094 6868 7095 7096 
530 531 828 827 563 564 861 860 4774 6871 6872 6864 5098 7098 7099 7091 5085 5095 7097 7090 7093 7100 5101 7101 6875 7102 7103 
531 532 829 828 564 565 862 861 4784 6878 6879 6871 5108 7105 7106 7098 5095 5105 7104 7097 7100 7107 5111 7108 6882 7109 7110 
532 533 830 829 565 566 863 862 4794 6885 6886 6878 5118 7112 7113 7105 5105 5115 7111 7104 7107 7114 5121 7115 6889 7116 7117 
533 534 831 830 566 567 864 863 4804 6892 6893 6885 5128 7119 7120 7112 5115 5125 7118 7111 7114 7121 5131 7122 6896 7123 7124 
534 535 832 831 567 568 865 864 4814 6899 6900 6892 5138 7126 7127 7119 5125 5135 7125 7118 7121 7128 5141 7129 6903 7130 7131 
535 536 833 832 568 569 866 865 4824 6906 6907 6899 5148 7133 7134 7126 5135 5145 7132 7125 7128 7135 5151 7136 6910 7137 7138 
536 537 834 833 569 570 867 866 4834 6913 6914 6906 5158 7140 7141 7133 5145 5155 7139 7132 7135 7142 5161 7143 6917 7144 7145 
537 538 835 834 570 571 868 867 4844 6920 6921 6913 5168 7147 7148 7140 5155 5165 7146 7139 7142 7149 5171 7150 6924 7151 7152 
538 539 836 835 571 572 869 868 4854 6927 6928 6920 5178 7154 7155 7147 5165 5175 7153 7146 7149 7156 5181 7157 6931 7158 7159 
539 540 837 836 572 573 870 869 4864 6934 6935 6927 5188 7161 7162 7154 5175 5185 7160 7153 7156 7163 5191 7164 6938 7165 7166 
540 541 838 837 573 574 871 870 4874 6941 6942 6934 5198 7168 7169 7161 5185 5195 7167 7160 7163 7170 5201 7171 6945 7172 7173 
541 542 839 838 574 575 872 871 4884 6948 6949 6941 5208 7175 7176 7168 5195 5205 7174 7167 7170 7177 5211 7178 6952 7179 7180 
542 543 840 839 575 576 873 872 4894 6955 6956 6948 5218 7182 7183 7175 5205 5215 7181 7174 7177 7184 5221 7185 6959 7186 7187 
543 544 841 840 576 577 874 873 4904 6962 6963 6955 5228 7189 7190 7182 5215 5225 7188 7181 7184 7191 5231 7192 6966 7193 7194 
544 545 842 841 577 578 875 874 4914 6969 6970 6962 5238 7196 7197 7189 5225 5235 7195 7188 7191 7198 5241 7199 6973 7200 7201 
545 546 843 842 578 579 876 875 4924 6976 6977 6969 5248 7203 7204 7196 5235 5245 7202 7195 7198 7205 5251 7206 6980 7207 7208 
546 547 844 843 579 580 877 876 4934 6983 6984 6976 5258 7210 7211 7203 5245 5255 7209 7202 7205 7212 5261 7213 6987 7214 7215 
547 548 845 844 580 581 878 877 4944 6990 6991 6983 5268 7217 7218 7210 5255 5265 7216 7209 7212 7219 5271 7220 6994 7221 7222 
548 549 846 845 581 582 879 878 4954 6997 6998 6990 5278 7224 7225 7217 5265 5275 7223 7216 7219 7226 5281 7227 7001 7228 7229 
549 550 847 846 582 583 880 879 4964 7004 7005 6997 5288 7231 7232 7224 5275 5285 7230 7223 7226 7233 5291 7234 7008 7235 7236 
550 551 848 847 583 584 881 880 4974 7011 7012 7004 5298 7238 7239 7231 5285 5295 7237 7230 7233 7240 5301 7241 7015 7242 7243 
551 552 849 848 584 585 882 881 4984 7018 7019 7011 5308 7245 7246 7238 5295 5305 7244 7237 7240 7247 5311 7248 7022 7249 7250 
552 553 850 849 585 586 883 882 4994 7025 7026 7018 5318 7252 7253 7245 5305 5315 7251 7244 7247 7254 5321 7255 7029 7256 7257 
553 554 851 850 586 587 884 883 5004 7032 7033 7025 5328 7259 7260 7252 5315 5325 7258 7251 7254 7261 5331 7262 7036 7263 7264 
554 555 852 851 587 588 885 884 5014 7039 7040 7032 5338 7266 7267 7259 5325 5335 7265 7258 7261 7268 5341 7269 7043 7270 7271 
555 556 853 852 588 589 886 885 5024 7046 7047 7039 5348 7273 7274 7266 5335 5345 7272 7265 7268 7275 5351 7276 7050 7277 7278 
556 557 854 853 589 590 887 886 5034 7053 7054 7046 5358 7280 7281 7273 5345 5355 7279 7272 7275 7282 5361 7283 7057 7284 7285 
557 558 855 854 590 591 888 887 5044 7060 7061 7053 5368 7287 7288 7280 5355 5365 7286 7279 7282 7289 5371 7290 7064 7291 7292 
558 559 856 855 591 592 889 888 5054 7067 7068 7060 5378 7294 7295 7287 5365 5375 7293 7286 7289 7296 5381 7297 7071 7298 7299 
559 560 857 856 592 593 890 889 5064 7074 7075 7067 5388 7301 7302 7294 5375 5385 7300 7293 7296 7303 5391 7304 7078 7305 7306 
594 595 892 891 627 628 925 924 5395 7307 7308 7309 5400 7312 7313 7314 5398 5397 7310 7311 7318 7316 5404 7317 7315 7319 7320 
595 596 893 892 628 629 926 925 5409 7321 7322 7307 5412 7324 7325 7312 5397 5410 7323 7310 7316 7327 5415 7328 7326 7329 7330 
596 597 894 893 629 630 927 926 5419 7331 7332 7321 5422 7334 7335 7324 5410 5420 7333 7323 7327 7337 5425 7338 7336 7339 7340 
597 598 895 894 630 631 928 927 5429 7341 7342 7331 5432 7344 7345 7334 5420 5430 7343 7333 7337 7347 5435 7348 7346 7349 7350 
598 599 896 895 631 632 929 928 5439 7351 7352 7341 5442 7354 7355 7344 5430 5440 7353 7343 7347 7357 5445 7358 7356 7359 7360 
599 600 897 896 632 633 930 929 5449 7361 7362 7351 5452 7364 7365 7354 5440 5450 7363 7353 7357 7367 5455 7368 7366 7369 7370 
600 601 898 897 633 634 931 930 5459 7371 7372 7361 5462 7374 7375 7364 5450 5460 7373 7363 7367 7377 5465 7378 7376 7379 7380 
601 602 899 898 634 635 932 931 5469 7381 7382 7371 5472 7384 7385 7374 5460 5470 7383 7373 7377 7387 5475 7388 7386 7389 7390 
602 603 900 899 635 636 933 932 5479 7391 7392 7381 5482 7394 7395 7384 5470 5480 7393 7383 7387 7397 5485 7398 7396 7399 7400 
603 604 901 900 636 637 934 933 5489 7401 7402 7391 5492 7404 7405 7394 5480 5490 7403 7393 7397 7407 5495 7408 7406 7409 7410 
604 605 902 901 637 638 935 934 5499 7411 7412 7401 5502 7414 7415 7404 5490 5500 7413 7403 7407 7417 5505 7418 7416 7419 7420 
605 606 903 902 638 639 936 935 5509 7421 7422 7411 5512 7424 7425 7414 5500 5510 7423 7413 7417 7427 5515 7428 7426 7429 7430 
606 607 904 903 639 640 937 936 5519 7431 7432 7421 5522 7434 7435 7424 5510 5520 7433 7423 7427 7437 5525 7438 7436 7439 7440 
607 608 905 904 640 641 938 937 5529 7441 7442 7431 5532 7444 7445 7434 5520 5530 7443 7433 7437 7447 5535 7448 7446 7449 7450 
608 609 906 905 641 642 939 938 5539 7451 7452 7441 5542 7454 7455 7444 5530 5540 7453 7443 7447 7457 5545 7458 7456 7459 7460 
609 610 907 906 642 643 940 939 5549 7461 7462 7451 5552 7464 7465 7454 5540 5550 7463 7453 7457 7467 5555 7468 7466 7469 7470 
610 611 908 907 643 644 941 940 5559 7471 7472 7461 5562 7474 7475 7464 5550 5560 7473 7463 7467 7477 5565 7478 7476 7479 7480 
611 612 909 908 644 645 942 941 5569 7481 7482 7471 5572 7484 7485 7474 5560 5570 7483 7473 7477 7487 5575 7488 7486 7489 7490 
612 613 910 909 645 646 943 942 5579 7491 7492 7481 5582 7494 7495 7484 5570 5580 7493 7483 7487 7497 5585 7498 7496 7499 7500 
613 614 911 910 646 647 944 943 5589 7501 7502 7491 5592 7504 7505 7494 5580 5590 7503 7493 7497 7507 5595 7508 7506 7509 7510 
614 615 912 911 647 648 945 944 5599 7511 7512 7501 5602 7514 7515 7504 5590 5600 7513 7503 7507 7517 5605 7518 7516 7519 7520 
615 616 913 912 648 649 946 945 5609 7521 7522 7511 5612 7524 7525 7514 5600 5610 7523 7513 7517 7527 5615 7528 7526 7529 7530 
616 617 914 913 649 650 947 946 5619 7531 7532 7521 5622 7534 7535 7524 5610 5620 7533 7523 7527 7537 5625 7538 7536 7539 7540 
617 618 915 914 650 651 948 947 5629 7541 7542 7531 5632 7544 7545 7534 5620 5630 7543 7533 7537 7547 5635 7548 7546 7549 7550 
618 619 916 915 651 652 949 948 5639 7551 7552 7541 5642 7554 7555 7544 5630 5640 7553 7543 7547 7557 5645 7558 7556 7559 7560 
619 620 917 916 652 653 950 949 5649 7561 7562 7551 5652 7564 7565 7554 5640 5650 7563 7553 7557 7567 5655 7568 7566 7569 7570 
620 621 918 917 653 654 951 950 5659 7571 7572 7561 5662 7574 7575 7564 5650 5660 7573 7563 7567 7577 5665 7578 7576 7579 7580 
621 622 919 918 654 655 952 951 5669 7581 7582 7571 5672 7584 7585 7574 5660 5670 7583 7573 7577 7587 5675 7588 7586 7589 7590 
622 623 920 919 655 656 953 952 5679 7591 7592 7581 5682 7594 7595 7584 5670 5680 7593 7583 7587 7597 5685 7598 7596 7599 7600 
623 624 921 920 656 657 954 953 5689 7601 7602 7591 5692 7604 7605 7594 5680 5690 7603 7593 7597 7607 5695 7608 7606 7609 7610 
624 625 922 921 657 658 955 954 5699 7611 7612 7601 5702 7614 7615 7604 5690 5700 7613 7603 7607 7617 5705 7618 7616 7619 7620 
625 626 923 922 658 659 956 955 5709 7621 7622 7611 5712 7624 7625 7614 5700 5710 7623 7613 7617 7627 5715 7628 7626 7629 7630 
627 628 925 924 660 661 958 957 5400 7312 7313 7314 5721 7633 7634 7635 5719 5718 7631 7632 7638 7636 5724 7637 7319 7639 7640 
628 629 926 925 661 662 959 958 5412 7324 7325 7312 5730 7642 7643 7633 5718 5728 7641 7631 7636 7644 5732 7645 7329 7646 7647 
629 630 927 926 662 663 960 959 5422 7334 7335 7324 5737 7649 7650 7642 5728 5735 7648 7641 7644 7651 5739 7652 7339 7653 7654 
630 631 928 927 663 664 961 960 5432 7344 7345 7334 5744 7656 7657 7649 5735 5742 7655 7648 7651 7658 5746 7659 7349 7660 7661 
631 632 929 928 664 665 962 961 5442 7354 7355 7344 5751 7663 7664 7656 5742 5749 7662 7655 7658 7665 5753 7666 7359 7667 7668 
632 633 930 929 665 666 963 962 5452 7364 7365 7354 5758 7670 7671 7663 5749 5756 7669 7662 7665 7672 5760 7673 7369 7674 7675 
633 634 931 930 666 667 964 963 5462 7374 7375 7364 5765 7677 7678 7670 5756 5763 7676 7669 7672 7679 5767 7680 7379 7681 7682 
634 635 932 931 667 668 965 964 5472 7384 7385 7374 5772 7684 7685 7677 5763 5770 7683 7676 7679 7686 5774 7687 7389 7688 7689 
635 636 933 932 668 669 966 965 5482 7394 7395 7384 5779 7691 7692 7684 5770 5777 7690 7683 7686 7693 5781 7694 7399 7695 7696 
636 637 934 933 669 670 967 966 5492 7404 7405 7394 5786 7698 7699 7691 5777 5784 7697 7690 7693 7700 5788 7701 7409 7702 7703 
637 638 935 934 670 671 968 967 5502 7414 7415 7404 5793 7705 7706 7698 5784 5791 7704 7697 7700 7707 5795 7708 7419 7709 7710 
638 639 936 935 671 672 969 968 5512 7424 7425 7414 5800 7712 7713 7705 5791 5798 7711 7704 7707 7714 5802 7715 7429 7716 7717 
639 640 937 936 672 673 970 969 5522 7434 7435 7424 5807 7719 7720 7712 5798 5805 7718 7711 7714 7721 5809 7722 7439 7723 7724 
640 641 938 937 673 674 971 970 5532 7444 7445 7434 5814 7726 7727 7719 5805 5812 7725 7718 7721 7728 5816 7729 7449 7730 7731 
641 642 939 938 674 675 972 971 5542 7454 7455 7444 5821 7733 7734 7726 5812 5819 7732 7725 7728 7735 5823 7736 7459 7737 7738 
642 643 940 939 675 676 973 972 5552 7464 7465 7454 5828 7740 7741 7733 5819 5826 7739 7732 7735 7742 5830 7743 7469 7744 7745 
643 644 941 940 676 677 974 973 5562 7474 7475 7464 5835 7747 7748 7740 5826 5833 7746 7739 7742 7749 5837 7750 7479 7751 7752 
644 645 942 941 677 678 975 974 5572 7484 7485 7474 5842 7754 7755 7747 5833 5840 7753 7746 7749 7756 5844 7757 7489 7758 7759 
645 646 943 942 678 679 976 975 5582 7494 7495 7484 5849 7761 7762 7754 5840 5847 7760 7753 7756 7763 5851 7764 7499 7765 7766 
646 647 944 943 679 680 977 976 5592 7504 7505 7494 5856 7768 7769 7761 5847 5854 7767 7760 7763 7770 5858 7771 7509 7772 7773 
647 648 945 944 680 681 978 977 5602 7514 7515 7504 5863 7775 7776 7768 5854 5861 7774 7767 7770 7777 5865 7778 7519 7779 7780 
648 649 946 945 681 682 979 978 5612 7524 7525 7514 5870 7782 7783 7775 5861 5868 7781 7774 7777 7784 5872 7785 7529 7786 7787 
649 650 947 946 682 683 980 979 5622 7534 7535 7524 5877 7789 7790 7782 5868 5875 7788 7781 7784 7791 5879 7792 7539 7793 7794 
650 651 948 947 683 684 981 980 5632 7544 7545 7534 5884 7796 7797 7789 5875 5882 7795 7788 7791 7798 5886 7799 7549 7800 7801 
651 652 949 948 684 685 982 981 5642 7554 7555 7544 5891 7803 7804 7796 5882 5889 7802 7795 7798 7805 5893 7806 7559 7807 7808 
652 653 950 949 685 686 983 982 5652 7564 7565 7554 5898 7810 7811 7803 5889 5896 7809 7802 7805 7812 5900 7813 7569 7814 7815 
653 654 951 950 686 687 984 983 5662 7574 7575 7564 5905 7817 7818 7810 5896 5903 7816 7809 7812 7819 5907 7820 7579 7821 7822 
654 655 952 951 687 688 985 984 5672 7584 7585 7574 5912 7824 7825 7817 5903 5910 7823 7816 7819 7826 5914 7827 7589 7828 7829 
655 656 953 952 688 689 986 985 5682 7594 7595 7584 5919 7831 7832 7824 5910 5917 7830 7823 7826 7833 5921 7834 7599 7835 7836 
656 657 954 953 689 690 987 986 5692 7604 7605 7594 5926 7838 7839 7831 5917 5924 7837 7830 7833 7840 5928 7841 7609 7842 7843 
657 658 955 954 690 691 988 987 5702 7614 7615 7604 5933 7845 7846 7838 5924 5931 7844 7837 7840 7847 5935 7848 7619 7849 7850 
658 659 956 955 691 692 989 988 5712 7624 7625 7614 5940 7852 7853 7845 5931 5938 7851 7844 7847 7854 5942 7855 7629 7856 7857 
660 661 958 957 693 694 991 990 5721 7633 7634 7635 5948 7860 7861 7862 5946 5945 7858 7859 7865 7863 5951 7864 7639 7866 7867 
661 662 959 958 694 695 992 991 5730 7642 7643 7633 5957 7869 7870 7860 5945 5955 7868 7858 7863 7871 5959 7872 7646 7873 7874 
662 663 960 959 695 696 993 992 5737 7649 7650 7642 5964 7876 7877 7869 5955 5962 7875 7868 7871 7878 5966 7879 7653 7880 7881 
663 664 961 960 696 697 994 993 5744 7656 7657 7649 5971 7883 7884 7876 5962 5969 7882 7875 7878 7885 5973 7886 7660 7887 7888 
664 665 962 961 697 698 995 994 5751 7663 7664 7656 5978 7890 7891 7883 5969 5976 7889 7882 7885 7892 5980 7893 7667 7894 7895 
665 666 963 962 698 699 996 995 5758 7670 7671 7663 5985 7897 7898 7890 5976 5983 7896 7889 7892 7899 5987 7900 7674 7901 7902 
666 667 964 963 699 700 997 996 5765 7677 7678 7670 5992 7904 7905 7897 5983 5990 7903 7896 7899 7906 5994 7907 7681 7908 7909 
667 668 965 964 700 701 998 997 5772 7684 7685 7677 5999 7911 7912 7904 5990 5997 7910 7903 7906 7913 6001 7914 7688 7915 7916 
668 669 966 965 701 702 999 998 5779 7691 7692 7684 6006 7918 7919 7911 5997 6004 7917 7910 7913 7920 6008 7921 7695 7922 7923 
669 670 967 966 702 703 1000 999 5786 7698 7699 7691 6013 7925 7926 7918 6004 6011 7924 7917 7920 7927 6015 7928 7702 7929 7930 
670 671 968 967 703 704 1001 1000 5793 7705 7706 7698 6020 7932 7933 7925 6011 6018 7931 7924 7927 7934 6022 7935 7709 7936 7937 
671 672 969 968 704 705 1002 1001 5800 7712 7713 7705 6027 7939 7940 7932 6018 6025 7938 7931 7934 7941 6029 7942 7716 7943 7944 
672 673 970 969 705 706 1003 1002 5807 7719 7720 7712 6034 7946 7947 7939 6025 6032 7945 7938 7941 7948 6036 7949 7723 7950 7951 
673 674 971 970 706 707 1004 1003 5814 7726 7727 7719 6041 7953 7954 7946 6032 6039 7952 7945 7948 7955 6043 7956 7730 7957 7958 
674 675 972 971 707 708 1005 1004 5821 7733 7734 7726 6048 7960 7961 7953 6039 6046 7959 7952 7955 7962 6050 7963 7737 7964 7965 
675 676 973 972 708 709 1006 1005 5828 7740 7741 7733 6055 7967 7968 7960 6046 6053 7966 7959 7962 7969 6057 7970 7744 7971 7972 
676 677 974 973 709 710 1007 1006 5835 7747 7748 7740 6062 7974 7975 7967 6053 6060 7973 7966 7969 7976 6064 7977 7751 7978 7979 
677 678 975 974 710 711 1008 1007 5842 7754 7755 7747 6069 7981 7982 7974 6060 6067 7980 7973 7976 7983 6071 7984 7758 7985 7986 
678 679 976 975 711 712 1009 1008 5849 7761 7762 7754 6076 7988 7989 7981 6067 6074 7987 7980 7983 7990 6078 7991 7765 7992 7993 
679 680 977 976 712 713 1010 1009 5856 7768 7769 7761 6083 7995 7996 7988 6074 6081 7994 7987 7990 7997 6085 7998 7772 7999 8000 
680 681 978 977 713 714 1011 1010 5863 7775 7776 7768 6090 8002 8003 7995 6081 6088 8001 7994 7997 8004 6092 8005 7779 8006 8007 
681 682 979 978 714 715 1012 1011 5870 7782 7783 7775 6097 8009 8010 8002 6088 6095 8008 8001 8004 8011 6099 8012 7786 8013 8014 
682 683 980 979 715 716 1013 1012 5877 7789 7790 7782 6104 8016 8017 8009 6095 6102 8015 8008 8011 8018 6106 8019 7793 8020 8021 
683 684 981 980 716 717 1014 1013 5884 7796 7797 7789 6111 8023 8024 8016 6102 6109 8022 8015 8018 8025 6113 8026 7800 8027 8028 
684 685 982 981 717 718 1015 1014 5891 7803 7804 7796 6118 8030 8031 8023 6109 6116 8029 8022 8025 8032 6120 8033 7807 8034 8035 
685 686 983 982 718 719 1016 1015 5898 7810 7811 7803 6125 8037 8038 8030 6116 6123 8036 8029 8032 8039 6127 8040 7814 8041 8042 
686 687 984 983 719 720 1017 1016 5905 7817 7818 7810 6132 8044 8045 8037 6123 6130 8043 8036 8039 8046 6134 8047 7821 8048 8049 
687 688 985 984 720 721 1018 1017 5912 7824 7825 7817 6139 8051 8052 8044 6130 6137 8050 8043 8046 8053 6141 8054 7828 8055 8056 
688 689 986 985 721 722 1019 1018 5919 7831 7832 7824 6146 8058 8059 8051 6137 6144 8057 8050 8053 8060 6148 8061 7835 8062 8063 
689 690 987 986 722 723 1020 1019 5926 7838 7839 7831 6153 8065 8066 8058 6144 6151 8064 8057 8060 8067 6155 8068 7842 8069 8070 
690 691 988 987 723 724 1021 1020 5933 7845 7846 7838 6160 8072 8073 8065 6151 6158 8071 8064 8067 8074 6162 8075 7849 8076 8077 
691 692 989 988 724 725 1022 1021 5940 7852 7853 7845 6167 8079 8080 8072 6158 6165 8078 8071 8074 8081 6169 8082 7856 8083 8084 
693 694 991 990 726 727 1024 1023 5948 7860 7861 7862 6175 8087 8088 8089 6173 6172 8085 8086 8092 8090 6178 8091 7866 8093 8094 
694 695 992 991 727 728 1025 1024 5957 7869 7870 7860 6184 8096 8097 8087 6172 6182 8095 8085 8090 8098 6186 8099 7873 8100 8101 
695 696 993 992 728 729 1026 1025 5964 7876 7877 7869 6191 8103 8104 8096 6182 6189 8102 8095 8098 8105 6193 8106 7880 8107 8108 
696 697 994 993 729 730 1027 1026 5971 7883 7884 7876 6198 8110 8111 8103 6189 6196 8109 8102 8105 8112 6200 8113 7887 8114 8115 
697 698 995 994 730 731 1028 1027 5978 7890 7891 7883 6205 8117 8118 8110 6196 6203 8116 8109 8112 8119 6207 8120 7894 8121 8122 
698 699 996 995 731 732 1029 1028 5985 7897 7898 7890 6212 8124 8125 8117 6203 6210 8123 8116 8119 8126 6214 8127 7901 8128 8129 
699 700 997 996 732 733 1030 1029 5992 7904 7905 7897 6219 8131 8132 8124 6210 6217 8130 8123 8126 8133 6221 8134 7908 8135 8136 
700 701 998 997 733 734 1031 1030 5999 7911 7912 7904 6226 8138 8139 8131 6217 6224 8137 8130 8133 8140 6228 8141 7915 8142 8143 
701 702 999 998 734 735 1032 1031 6006 7918 7919 7911 6233 8145 8146 8138 6224 6231 8144 8137 8140 8147 6235 8148 7922 8149 8150 
702 703 1000 999 735 736 1033 1032 6013 7925 7926 7918 6240 8152 8153 8145 6231 6238 8151 8144 8147 8154 6242 8155 7929 8156 8157 
703 704 1001 1000 736 737 1034 1033 6020 7932 7933 7925 6247 8159 8160 8152 6238 6245 8158 8151 8154 8161 6249 8162 7936 8163 8164 
704 705 1002 1001 737 738 1035 1034 6027 7939 7940 7932 6254 8166 8167 8159 6245 6252 8165 8158 8161 8168 6256 8169 7943 8170 8171 
705 706 1003 1002 738 739 1036 1035 6034 7946 7947 7939 6261 8173 8174 8166 6252 6259 8172 8165 8168 8175 6263 8176 7950 8177 8178 
706 707 1004 1003 739 740 1037 1036 6041 7953 7954 7946 6268 8180 8181 8173 6259 6266 8179 8172 8175 8182 6270 8183 7957 8184 8185 
707 708 1005 1004 740 741 1038 1037 6048 7960 7961 7953 6275 8187 8188 8180 6266 6273 8186 8179 8182 8189 6277 8190 7964 8191 8192 
708 709 1006 1005 741 742 1039 1038 6055 7967 7968 7960 6282 8194 8195 8187 6273 6280 8193 8186 8189 8196 6284 8197 7971 8198 8199 
709 710 1007 1006 742 743 1040 1039 6062 7974 7975 7967 6289 8201 8202 8194 6280 6287 8200 8193 8196 8203 6291 8204 7978 8205 8206 
710 711 1008 1007 743 744 1041 1040 6069 7981 7982 7974 6296 8208 8209 8201 6287 6294 8207 8200 8203 8210 6298 8211 7985 8212 8213 
711 712 1009 1008 744 745 1042 1041 6076 7988 7989 7981 6303 8215 8216 8208 6294 6301 8214 8207 8210 8217 6305 8218 7992 8219 8220 
712 713 1010 1009 745 746 1043 1042 6083 7995 7996 7988 6310 8222 8223 8215 6301 6308 8221 8214 8217 8224 6312 8225 7999 8226 8227 
713 714 1011 1010 746 747 1044 1043 6090 8002 8003 7995 6317 8229 8230 8222 6308 6315 8228 8221 8224 8231 6319 8232 8006 8233 8234 
714 715 1012 1011 747 748 1045 1044 6097 8009 8010 8002 6324 8236 8237 8229 6315 6322 8235 8228 8231 8238 6326 8239 8013 8240 8241 
715 716 1013 1012 748 749 1046 1045 6104 8016 8017 8009 6331 8243 8244 8236 6322 6329 8242 8235 8238 8245 6333 8246 8020 8247 8248 
716 717 1014 1013 749 750 1047 1046 6111 8023 8024 8016 6338 8250 8251 8243 6329 6336 8249 8242 8245 8252 6340 8253 8027 8254 8255 
717 718 1015 1014 750 751 1048 1047 6118 8030 8031 8023 6345 8257 8258 8250 6336 6343 8256 8249 8252 8259 6347 8260 8034 8261 8262 
718 719 1016 1015 751 752 1049 1048 6125 8037 8038 8030 6352 8264 8265 8257 6343 6350 8263 8256 8259 8266 6354 8267 8041 8268 8269 
719 720 1017 1016 752 753 1050 1049 6132 8044 8045 8037 6359 8271 8272 8264 6350 6357 8270 8263 8266 8273 6361 8274 8048 8275 8276 
720 721 1018 1017 753 754 1051 1050 6139 8051 8052 8044 6366 8278 8279 8271 6357 6364 8277 8270 8273 8280 6368 8281 8055 8282 8283 
721 722 1019 1018 754 755 1052 1051 6146 8058 8059 8051 6373 8285 8286 8278 6364 6371 8284 8277 8280 8287 6375 8288 8062 8289 8290 
722 723 1020 1019 755 756 1053 1052 6153 8065 8066 8058 6380 8292 8293 8285 6371 6378 8291 8284 8287 8294 6382 8295 8069 8296 8297 
723 724 1021 1020 756 757 1054 1053 6160 8072 8073 8065 6387 8299 8300 8292 6378 6385 8298 8291 8294 8301 6389 8302 8076 8303 8304 
724 725 1022 1021 757 758 1055 1054 6167 8079 8080 8072 6394 8306 8307 8299 6385 6392 8305 8298 8301 8308 6396 8309 8083 8310 8311 
726 727 1024 1023 759 760 1057 1056 6175 8087 8088 8089 6402 8314 8315 8316 6400 6399 8312 8313 8319 8317 6405 8318 8093 8320 8321 
727 728 1025 1024 760 761 1058 1057 6184 8096 8097 8087 6411 8323 8324 8314 6399 6409 8322 8312 8317 8325 6413 8326 8100 8327 8328 
728 729 1026 1025 761 762 1059 1058 6191 8103 8104 8096 6418 8330 8331 8323 6409 6416 8329 8322 8325 8332 6420 8333 8107 8334 8335 
729 730 1027 1026 762 763 1060 1059 6198 8110 8111 8103 6425 8337 8338 8330 6416 6423 8336 8329 8332 8339 6427 8340 8114 8341 8342 
730 731 1028 1027 763 764 1061 1060 6205 8117 8118 8110 6432 8344 8345 8337 6423 6430 8343 8336 8339 8346 6434 8347 8121 8348 8349 
731 732 1029 1028 764 765 1062 1061 6212 8124 8125 8117 6439 8351 8352 8344 6430 6437 8350 8343 8346 8353 6441 8354 8128 8355 8356 
732 733 1030 1029 765 766 1063 1062 6219 8131 8132 8124 6446 8358 8359 8351 6437 6444 8357 8350 8353 8360 6448 8361 8135 8362 8363 
733 734 1031 1030 766 767 1064 1063 6226 8138 8139 8131 6453 8365 8366 8358 6444 6451 8364 8357 8360 8367 6455 8368 8142 8369 8370 
734 735 1032 1031 767 768 1065 1064 6233 8145 8146 8138 6460 8372 8373 8365 6451 6458 8371 8364 8367 8374 6462 8375 8149 8376 8377 
735 736 1033 1032 768 769 1066 1065 6240 8152 8153 8145 6467 8379 8380 8372 6458 6465 8378 8371 8374 8381 6469 8382 8156 8383 8384 
736 737 1034 1033 769 770 1067 1066 6247 8159 8160 8152 6474 8386 8387 8379 6465 6472 8385 8378 8381 8388 6476 8389 8163 8390 8391 
737 738 1035 1034 770 771 1068 1067 6254 8166 8167 8159 6481 8393 8394 8386 6472 6479 8392 8385 8388 8395 6483 8396 8170 8397 8398 
738 739 1036 1035 771 772 1069 1068 6261 8173 8174 8166 6488 8400 8401 8393 6479 6486 8399 8392 8395 8402 6490 8403 8177 8404 8405 
739 740 1037 1036 772 773 1070 1069 6268 8180 8181 8173 6495 8407 8408 8400 6486 6493 8406 8399 8402 8409 6497 8410 8184 8411 8412 
740 741 1038 1037 773 774 1071 1070 6275 8187 8188 8180 6502 8414 8415 8407 6493 6500 8413 8406 8409 8416 6504 8417 8191 8418 8419 
741 742 1039 1038 774 775 1072 1071 6282 8194 8195 8187 6509 8421 8422 8414 6500 6507 8420 8413 8416 8423 6511 8424 8198 8425 8426 
742 743 1040 1039 775 776 1073 1072 6289 8201 8202 8194 6516 8428 8429 8421 6507 6514 8427 8420 8423 8430 6518 8431 8205 8432 8433 
743 744 1041 1040 776 777 1074 1073 6296 8208 8209 8201 6523 8435 8436 8428 6514 6521 8434 8427 8430 8437 6525 8438 8212 8439 8440 
744 745 1042 1041 777 778 1075 1074 6303 8215 8216 8208 6530 8442 8443 8435 6521 6528 8441 8434 8437 8444 6532 8445 8219 8446 8447 
745 746 1043 1042 778 779 1076 1075 6310 8222 8223 8215 6537 8449 8450 8442 6528 6535 8448 8441 8444 8451 6539 8452 8226 8453 8454 
746 747 1044 1043 779 780 1077 1076 6317 8229 8230 8222 6544 8456 8457 8449 6535 6542 8455 8448 8451 8458 6546 8459 8233 8460 8461 
747 748 1045 1044 780 781 1078 1077 6324 8236 8237 8229 6551 8463 8464 8456 6542 6549 8462 8455 8458 8465 6553 8466 8240 8467 8468 
748 749 1046 1045 781 782 1079 1078 6331 8243 8244 8236 6558 8470 8471 8463 6549 6556 8469 8462 8465 8472 6560 8473 8247 8474 8475 
749 750 1047 1046 782 783 1080 1079 6338 8250 8251 8243 6565 8477 8478 8470 6556 6563 8476 8469 8472 8479 6567 8480 8254 8481 8482 
750 751 1048 1047 783 784 1081 1080 6345 8257 8258 8250 6572 8484 8485 8477 6563 6570 8483 8476 8479 8486 6574 8487 8261 8488 8489 
751 752 1049 1048 784 785 1082 1081 6352 8264 8265 8257 6579 8491 8492 8484 6570 6577 8490 8483 8486 8493 6581 8494 8268 8495 8496 
752 753 1050 1049 785 786 1083 1082 6359 8271 8272 8264 6586 8498 8499 8491 6577 6584 8497 8490 8493 8500 6588 8501 8275 8502 8503 
753 754 1051 1050 786 787 1084 1083 6366 8278 8279 8271 6593 8505 8506 8498 6584 6591 8504 8497 8500 8507 6595 8508 8282 8509 8510 
754 755 1052 1051 787 788 1085 1084 6373 8285 8286 8278 6600 8512 8513 8505 6591 6598 8511 8504 8507 8514 6602 8515 8289 8516 8517 
755 756 1053 1052 788 789 1086 1085 6380 8292 8293 8285 6607 8519 8520 8512 6598 6605 8518 8511 8514 8521 6609 8522 8296 8523 8524 
756 757 1054 1053 789 790 1087 1086 6387 8299 8300 8292 6614 8526 8527 8519 6605 6612 8525 8518 8521 8528 6616 8529 8303 8530 8531 
757 758 1055 1054 790 791 1088 1087 6394 8306 8307 8299 6621 8533 8534 8526 6612 6619 8532 8525 8528 8535 6623 8536 8310 8537 8538 
759 760 1057 1056 792 793 1090 1089 6402 8314 8315 8316 6629 8541 8542 8543 6627 6626 8539 8540 8546 8544 6632 8545 8320 8547 8548 
760 761 1058 1057 793 794 1091 1090 6411 8323 8324 8314 6638 8550 8551 8541 6626 6636 8549 8539 8544 8552 6640 8553 8327 8554 8555 
761 762 1059 1058 794 795 1092 1091 6418 8330 8331 8323 6645 8557 8558 8550 6636 6643 8556 8549 8552 8559 6647 8560 8334 8561 8562 
762 763 1060 1059 795 796 1093 1092 6425 8337 8338 8330 6652 8564 8565 8557 6643 6650 8563 8556 8559 8566 6654 8567 8341 8568 8569 
763 764 1061 1060 796 797 1094 1093 6432 8344 8345 8337 6659 8571 8572 8564 6650 6657 8570 8563 8566 8573 6661 8574 8348 8575 8576 
764 765 1062 1061 797 798 1095 1094 6439 8351 8352 8344 6666 8578 8579 8571 6657 6664 8577 8570 8573 8580 6668 8581 8355 8582 8583 
765 766 1063 1062 798 799 1096 1095 6446 8358 8359 8351 6673 8585 8586 8578 6664 6671 8584 8577 8580 8587 6675 8588 8362 8589 8590 
766 767 1064 1063 799 800 1097 1096 6453 8365 8366 8358 6680 8592 8593 8585 6671 6678 8591 8584 8587 8594 6682 8595 8369 8596 8597 
767 768 1065 1064 800 801 1098 1097 6460 8372 8373 8365 6687 8599 8600 8592 6678 6685 8598 8591 8594 8601 6689 8602 8376 8603 8604 
768 769 1066 1065 801 802 1099 1098 6467 8379 8380 8372 6694 8606 8607 8599 6685 6692 8605 8598 8601 8608 6696 8609 8383 8610 8611 
769 770 1067 1066 802 803 1100 1099 6474 8386 8387 8379 6701 8613 8614 8606 6692 6699 8612 8605 8608 8615 6703 8616 8390 8617 8618 
770 771 1068 1067 803 804 1101 1100 6481 8393 8394 8386 6708 8620 8621 8613 6699 6706 8619 8612 8615 8622 6710 8623 8397 8624 8625 
771 772 1069 1068 804 805 1102 1101 6488 8400 8401 8393 6715 8627 8628 8620 6706 6713 8626 8619 8622 8629 6717 8630 8404 8631 8632 
772 773 1070 1069 805 806 1103 1102 6495 8407 8408 8400 6722 8634 8635 8627 6713 6720 8633 8626 8629 8636 6724 8637 8411 8638 8639 
773 774 1071 1070 806 807 1104 1103 6502 8414 8415 8407 6729 8641 8642 8634 6720 6727 8640 8633 8636 8643 6731 8644 8418 8645 8646 
774 775 1072 1071 807 808 1105 1104 6509 8421 8422 8414 6736 8648 8649 8641 6727 6734 8647 8640 8643 8650 6738 8651 8425 8652 8653 
775 776 1073 1072 808 809 1106 1105 6516 8428 8429 8421 6743 8655 8656 8648 6734 6741 8654 8647 8650 8657 6745 8658 8432 8659 8660 
776 777 1074 1073 809 810 1107 1106 6523 8435 8436 8428 6750 8662 8663 8655 6741 6748 8661 8654 8657 8664 6752 8665 8439 8666 8667 
777 778 1075 1074 810 811 1108 1107 6530 8442 8443 8435 6757 8669 8670 8662 6748 6755 8668 8661 8664 8671 6759 8672 8446 8673 8674 
778 779 1076 1075 811 812 1109 1108 6537 8449 8450 8442 6764 8676 8677 8669 6755 6762 8675 8668 8671 8678 6766 8679 8453 8680 8681 
779 780 1077 1076 812 813 1110 1109 6544 8456 8457 8449 6771 8683 8684 8676 6762 6769 8682 8675 8678 8685 6773 8686 8460 8687 8688 
780 781 1078 1077 813 814 1111 1110 6551 8463 8464 8456 6778 8690 8691 8683 6769 6776 8689 8682 8685 8692 6780 8693 8467 8694 8695 
781 782 1079 1078 814 815 1112 1111 6558 8470 8471 8463 6785 8697 8698 8690 6776 6783 8696 8689 8692 8699 6787 8700 8474 8701 8702 
782 783 1080 1079 815 816 1113 1112 6565 8477 8478 8470 6792 8704 8705 8697 6783 6790 8703 8696 8699 8706 6794 8707 8481 8708 8709 
783 784 1081 1080 816 817 1114 1113 6572 8484 8485 8477 6799 8711 8712 8704 6790 6797 8710 8703 8706 8713 6801 8714 8488 8715 8716 
784 785 1082 1081 817 818 1115 1114 6579 8491 8492 8484 6806 8718 8719 8711 6797 6804 8717 8710 8713 8720 6808 8721 8495 8722 8723 
785 786 1083 1082 818 819 1116 1115 6586 8498 8499 8491 6813 8725 8726 8718 6804 6811 8724 8717 8720 8727 6815 8728 8502 8729 8730 
786 787 1084 1083 819 820 1117 1116 6593 8505 8506 8498 6820 8732 8733 8725 6811 6818 8731 8724 8727 8734 6822 8735 8509 8736 8737 
787 788 1085 1084 820 821 1118 1117 6600 8512 8513 8505 6827 8739 8740 8732 6818 6825 8738 8731 8734 8741 6829 8742 8516 8743 8744 
788 789 1086 1085 821 822 1119 1118 6607 8519 8520 8512 6834 8746 8747 8739 6825 6832 8745 8738 8741 8748 6836 8749 8523 8750 8751 
789 790 1087 1086 822 823 1120 1119 6614 8526 8527 8519 6841 8753 8754 8746 6832 6839 8752 8745 8748 8755 6843 8756 8530 8757 8758 
790 791 1088 1087 823 824 1121 1120 6621 8533 8534 8526 6848 8760 8761 8753 6839 6846 8759 8752 8755 8762 6850 8763 8537 8764 8765 
792 793 1090 1089 825 826 1123 1122 6629 8541 8542 8543 6856 8768 8769 8770 6854 6853 8766 8767 8773 8771 6859 8772 8547 8774 8775 
793 794 1091 1090 826 827 1124 1123 6638 8550 8551 8541 6865 8777 8778 8768 6853 6863 8776 8766 8771 8779 6867 8780 8554 8781 8782 
794 795 1092 1091 827 828 1125 1124 6645 8557 8558 8550 6872 8784 8785 8777 6863 6870 8783 8776 8779 8786 6874 8787 8561 8788 8789 
795 796 1093 1092 828 829 1126 1125 6652 8564 8565 8557 6879 8791 8792 8784 6870 6877 8790 8783 8786 8793 6881 8794 8568 8795 8796 
796 797 1094 1093 829 830 1127 1126 6659 8571 8572 8564 6886 8798 8799 8791 6877 6884 8797 8790 8793 8800 6888 8801 8575 8802 8803 
797 798 1095 1094 830 831 1128 1127 6666 8578 8579 8571 6893 8805 8806 8798 6884 6891 8804 8797 8800 8807 6895 8808 8582 8809 8810 
798 799 1096 1095 831 832 1129 1128 6673 8585 8586 8578 6900 8812 8813 8805 6891 6898 8811 8804 8807 8814 6902 8815 8589 8816 8817 
799 800 1097 1096 832 833 1130 1129 6680 8592 8593 8585 6907 8819 8820 8812 6898 6905 8818 8811 8814 8821 6909 8822 8596 8823 8824 
800 801 1098 1097 833 834 1131 1130 6687 8599 8600 8592 6914 8826 8827 8819 6905 6912 8825 8818 8821 8828 6916 8829 8603 8830 8831 
801 802 1099 1098 834 835 1132 1131 6694 8606 8607 8599 6921 8833 8834 8826 6912 6919 8832 8825 8828 8835 6923 8836 8610 8837 8838 
802 803 1100 1099 835 836 1133 1132 6701 8613 8614 8606 6928 8840 8841 8833 6919 6926 8839 8832 8835 8842 6930 8843 8617 8844 8845 
803 804 1101 1100 836 837 1134 1133 6708 8620 8621 8613 6935 8847 8848 8840 6926 6933 8846 8839 8842 8849 6937 8850 8624 8851 8852 
804 805 1102 1101 837 838 1135 1134 6715 8627 8628 8620 6942 8854 8855 8847 6933 6940 8853 8846 8849 8856 6944 8857 8631 8858 8859 
805 806 1103 1102 838 839 1136 1135 6722 8634 8635 8627 6949 8861 8862 8854 6940 6947 8860 8853 8856 8863 6951 8864 8638 8865 8866 
806 807 1104 1103 839 840 1137 1136 6729 8641 8642 8634 6956 8868 8869 8861 6947 6954 8867 8860 8863 8870 6958 8871 8645 8872 8873 
807 808 1105 1104 840 841 1138 1137 6736 8648 8649 8641 6963 8875 8876 8868 6954 6961 8874 8867 8870 8877 6965 8878 8652 8879 8880 
808 809 1106 1105 841 842 1139 1138 6743 8655 8656 8648 6970 8882 8883 8875 6961 6968 8881 8874 8877 8884 6972 8885 8659 8886 8887 
809 810 1107 1106 842 843 1140 1139 6750 8662 8663 8655 6977 8889 8890 8882 6968 6975 8888 8881 8884 8891 6979 8892 8666 8893 8894 
810 811 1108 1107 843 844 1141 1140 6757 8669 8670 8662 6984 8896 8897 8889 6975 6982 8895 8888 8891 8898 6986 8899 8673 8900 8901 
811 812 1109 1108 844 845 1142 1141 6764 8676 8677 8669 6991 8903 8904 8896 6982 6989 8902 8895 8898 8905 6993 8906 8680 8907 8908 
812 813 1110 1109 845 846 1143 1142 6771 8683 8684 8676 6998 8910 8911 8903 6989 6996 8909 8902 8905 8912 7000 8913 8687 8914 8915 
813 814 1111 1110 846 847 1144 1143 6778 8690 8691 8683 7005 8917 8918 8910 6996 7003 8916 8909 8912 8919 7007 8920 8694 8921 8922 
814 815 1112 1111 847 848 1145 1144 6785 8697 8698 8690 7012 8924 8925 8917 7003 7010 8923 8916 8919 8926 7014 8927 8701 8928 8929 
815 816 1113 1112 848 849 1146 1145 6792 8704 8705 8697 7019 8931 8932 8924 7010 7017 8930 8923 8926 8933 7021 8934 8708 8935 8936 
816 817 1114 1113 849 850 1147 1146 6799 8711 8712 8704 7026 8938 8939 8931 7017 7024 8937 8930 8933 8940 7028 8941 8715 8942 8943 
817 818 1115 1114 850 851 1148 1147 6806 8718 8719 8711 7033 8945 8946 8938 7024 7031 8944 8937 8940 8947 7035 8948 8722 8949 8950 
818 819 1116 1115 851 852 1149 1148 6813 8725 8726 8718 7040 8952 8953 8945 7031 7038 8951 8944 8947 8954 7042 8955 8729 8956 8957 
819 820 1117 1116 852 853 1150 1149 6820 8732 8733 8725 7047 8959 8960 8952 7038 7045 8958 8951 8954 8961 7049 8962 8736 8963 8964 
820 821 1118 1117 853 854 1151 1150 6827 8739 8740 8732 7054 8966 8967 8959 7045 7052 8965 8958 8961 8968 7056 8969 8743 8970 8971 
821 822 1119 1118 854 855 1152 1151 6834 8746 8747 8739 7061 8973 8974 8966 7052 7059 8972 8965 8968 8975 7063 8976 8750 8977 8978 
822 823 1120 1119 855 856 1153 1152 6841 8753 8754 8746 7068 8980 8981 8973 7059 7066 8979 8972 8975 8982 7070 8983 8757 8984 8985 
823 824 1121 1120 856 857 1154 1153 6848 8760 8761 8753 7075 8987 8988 8980 7066 7073 8986 8979 8982 8989 7077 8990 8764 8991 8992 
825 826 1123 1122 858 859 1156 1155 6856 8768 8769 8770 7083 8995 8996 8997 7081 7080 8993 8994 9000 8998 7086 8999 8774 9001 9002 
826 827 1124 1123 859 860 1157 1156 6865 8777 8778 8768 7092 9004 9005 8995 7080 7090 9003 8993 8998 9006 7094 9007 8781 9008 9009 
827 828 1125 1124 860 861 1158 1157 6872 8784 8785 8777 7099 9011 9012 9004 7090 7097 9010 9003 9006 9013 7101 9014 8788 9015 9016 
828 829 1126 1125 861 862 1159 1158 6879 8791 8792 8784 7106 9018 9019 9011 7097 7104 9017 9010 9013 9020 7108 9021 8795 9022 9023 
829 830 1127 1126 862 863 1160 1159 6886 8798 8799 8791 7113 9025 9026 9018 7104 7111 9024 9017 9020 9027 7115 9028 8802 9029 9030 
830 831 1128 1127 863 864 1161 1160 6893 8805 8806 8798 7120 9032 9033 9025 7111 7118 9031 9024 9027 9034 7122 9035 8809 9036 9037 
831 832 1129 1128 864 865 1162 1161 6900 8812 8813 8805 7127 9039 9040 9032 7118 7125 9038 9031 9034 9041 7129 9042 8816 9043 9044 
832 833 1130 1129 865 866 1163 1162 6907 8819 8820 8812 7134 9046 9047 9039 7125 7132 9045 9038 9041 9048 7136 9049 8823 9050 9051 
833 834 1131 1130 866 867 1164 1163 6914 8826 8827 8819 7141 9053 9054 9046 7132 7139 9052 9045 9048 9055 7143 9056 8830 9057 9058 
834 835 1132 1131 867 868 1165 1164 6921 8833 8834 8826 7148 9060 9061 9053 7139 7146 9059 9052 9055 9062 7150 9063 8837 9064 9065 
835 836 1133 1132 868 869 1166 1165 6928 8840 8841 8833 7155 9067 9068 9060 7146 7153 9066 9059 9062 9069 7157 9070 8844 9071 9072 
836 837 1134 1133 869 870 1167 1166 6935 8847 8848 8840 7162 9074 9075 9067 7153 7160 9073 9066 9069 9076 7164 9077 8851 9078 9079 
837 838 1135 1134 870 871 1168 1167 6942 8854 8855 8847 7169 9081 9082 9074 7160 7167 9080 9073 9076 9083 7171 9084 8858 9085 9086 
838 839 1136 1135 871 872 1169 1168 6949 8861 8862 8854 7176 9088 9089 9081 7167 7174 9087 9080 9083 9090 7178 9091 8865 9092 9093 
839 840 1137 1136 872 873 1170 1169 6956 8868 8869 8861 7183 9095 9096 9088 7174 7181 9094 9087 9090 9097 7185 9098 8872 9099 9100 
840 841 1138 1137 873 874 1171 1170 6963 8875 8876 8868 7190 9102 9103 9095 7181 7188 9101 9094 9097 9104 7192 9105 8879 9106 9107 
841 842 1139 1138 874 875 1172 1171 6970 8882 8883 8875 7197 9109 9110 9102 7188 7195 9108 9101 9104 9111 7199 9112 8886 9113 9114 
842 843 1140 1139 875 876 1173 1172 6977 8889 8890 8882 7204 9116 9117 9109 7195 7202 9115 9108 9111 9118 7206 9119 8893 9120 9121 
843 844 1141 1140 876 877 1174 1173 6984 8896 8897 8889 7211 9123 9124 9116 7202 7209 9122 9115 9118 9125 7213 9126 8900 9127 9128 
844 845 1142 1141 877 878 1175 1174 6991 8903 8904 8896 7218 9130 9131 9123 7209 7216 9129 9122 9125 9132 7220 9133 8907 9134 9135 
845 846 1143 1142 878 879 1176 1175 6998 8910 8911 8903 7225 9137 9138 9130 7216 7223 9136 9129 9132 9139 7227 9140 8914 9141 9142 
846 847 1144 1143 879 880 1177 1176 7005 8917 8918 8910 7232 9144 9145 9137 7223 7230 9143 9136 9139 9146 7234 9147 8921 9148 9149 
847 848 1145 1144 880 881 1178 1177 7012 8924 8925 8917 7239 9151 9152 9144 7230 7237 9150 9143 9146 9153 7241 9154 8928 9155 9156 
848 849 1146 1145 881 882 1179 1178 7019 8931 8932 8924 7246 9158 9159 9151 7237 7244 9157 9150 9153 9160 7248 9161 8935 9162 9163 
849 850 1147 1146 882 883 1180 1179 7026 8938 8939 8931 7253 9165 9166 9158 7244 7251 9164 9157 9160 9167 7255 9168 8942 9169 9170 
850 851 1148 1147 883 884 1181 1180 7033 8945 8946 8938 7260 9172 9173 9165 7251 7258 9171 9164 9167 9174 7262 9175 8949 9176 9177 
851 852 1149 1148 884 885 1182 1181 7040 8952 8953 8945 7267 9179 9180 9172 7258 7265 9178 9171 9174 9181 7269 9182 8956 9183 9184 
852 853 1150 1149 885 886 1183 1182 7047 8959 8960 8952 7274 9186 9187 9179 7265 7272 9185 9178 9181 9188 7276 9189 8963 9190 9191 
853 854 1151 1150 886 887 1184 1183 7054 8966 8967 8959 7281 9193 9194 9186 7272 7279 9192 9185 9188 9195 7283 9196 8970 9197 9198 
854 855 1152 1151 887 888 1185 1184 7061 8973 8974 8966 7288 9200 9201 9193 7279 7286 9199 9192 9195 9202 7290 9203 8977 9204 9205 
855 856 1153 1152 888 889 1186 1185 7068 8980 8981 8973 7295 9207 9208 9200 7286 7293 9206 9199 9202 9209 7297 9210 8984 9211 9212 
856 857 1154 1153 889 890 1187 1186 7075 8987 8988 8980 7302 9214 9215 9207 7293 7300 9213 9206 9209 9216 7304 9217 8991 9218 9219 
891 892 1189 1188 924 925 1222 1221 7308 9220 9221 9222 7313 9225 9226 9227 7311 7310 9223 9224 9231 9229 7317 9230 9228 9232 9233 
892 893 1190 1189 925 926 1223 1222 7322 9234 9235 9220 7325 9237 9238 9225 7310 7323 9236 9223 9229 9240 7328 9241 9239 9242 9243 
893 894 1191 1190 926 927 1224 1223 7332 9244 9245 9234 7335 9247 9248 9237 7323 7333 9246 9236 9240 9250 7338 9251 9249 9252 9253 
894 895 1192 1191 927 928 1225 1224 7342 9254 9255 9244 7345 9257 9258 9247 7333 7343 9256 9246 9250 9260 7348 9261 9259 9262 9263 
895 896 1193 1192 928 929 1226 1225 7352 9264 9265 9254 7355 9267 9268 9257 7343 7353 9266 9256 9260 9270 7358 9271 9269 9272 9273 
896 897 1194 1193 929 930 1227 1226 7362 9274 9275 9264 7365 9277 9278 9267 7353 7363 9276 9266 9270 9280 7368 9281 9279 9282 9283 
897 898 1195 1194 930 931 1228 1227 7372 9284 9285 9274 7375 9287 9288 9277 7363 7373 9286 9276 9280 9290 7378 9291 9289 9292 9293 
898 899 1196 1195 931 932 1229 1228 7382 9294 9295 9284 7385 9297 9298 9287 7373 7383 9296 9286 9290 9300 7388 9301 9299 9302 9303 
899 900 1197 1196 932 933 1230 1229 7392 9304 9305 9294 7395 9307 9308 9297 7383 7393 9306 9296 9300 9310 7398 9311 9309 9312 9313 
900 901 1198 1197 933 934 1231 1230 7402 9314 9315 9304 7405 9317 9318 9307 7393 7403 9316 9306 9310 9320 7408 9321 9319 9322 9323 
901 902 1199 1198 934 935 1232 1231 7412 9324 9325 9314 7415 9327 9328 9317 7403 7413 9326 9316 9320 9330 7418 9331 9329 9332 9333 
902 903 1200 1199 935 936 1233 1232 7422 9334 9335 9324 7425 9337 9338 9327 7413 7423 9336 9326 9330 9340 7428 9341 9339 9342 9343 
903 904 1201 1200 936 937 1234 1233 7432 9344 9345 9334 7435 9347 9348 9337 7423 7433 9346 9336 9340 9350 7438 9351 9349 9352 9353 
904 905 1202 1201 937 938 1235 1234 7442 9354 9355 9344 7445 9357 9358 9347 7433 7443 9356 9346 9350 9360 7448 9361 9359 9362 9363 
905 906 1203 1202 938 939 1236 1235 7452 9364 9365 9354 7455 9367 9368 9357 7443 7453 9366 9356 9360 9370 7458 9371 9369 9372 9373 
906 907 1204 1203 939 940 1237 1236 7462 9374 9375 9364 7465 9377 9378 9367 7453 7463 9376 9366 9370 9380 7468 9381 9379 9382 9383 
907 908 1205 1204 940 941 1238 1237 7472 9384 9385 9374 7475 9387 9388 9377 7463 7473 9386 9376 9380 9390 7478 9391 9389 9392 9393 
908 909 1206 1205 941 942 1239 1238 7482 9394 9395 9384 7485 9397 9398 9387 7473 7483 9396 9386 9390 9400 7488 9401 9399 9402 9403 
909 910 1207 1206 942 943 1240 1239 7492 9404 9405 9394 7495 9407 9408 9397 7483 7493 9406 9396 9400 9410 7498 9411 9409 9412 9413 
910 911 1208 1207 943 944 1241 1240 7502 9414 9415 9404 7505 9417 9418 9407 7493 7503 9416 9406 9410 9420 7508 9421 9419 9422 9423 
911 912 1209 1208 944 945 1242 1241 7512 9424 9425 9414 7515 9427 9428 9417 7503 7513 9426 9416 9420 9430 7518 9431 9429 9432 9433 
912 913 1210 1209 945 946 1243 1242 7522 9434 9435 9424 7525 9437 9438 9427 7513 7523 9436 9426 9430 9440 7528 9441 9439 9442 9443 
913 914 1211 1210 946 947 1244 1243 7532 9444 9445 9434 7535 9447 9448 9437 7523 7533 9446 9436 9440 9450 7538 9451 9449 9452 9453 
914 915 1212 1211 947 948 1245 1244 7542 9454 9455 9444 7545 9457 9458 9447 7533 7543 9456 9446 9450 9460 7548 9461 9459 9462 9463 
915 916 1213 1212 948 949 1246 1245 7552 9464 9465 9454 7555 9467 9468 9457 7543 7553 9466 9456 9460 9470 7558 9471 9469 9472 9473 
916 917 1214 1213 949 950 1247 1246 7562 9474 9475 9464 7565 9477 9478 9467 7553 7563 9476 9466 9470 9480 7568 9481 9479 9482 9483 
917 918 1215 1214 950 951 1248 1247 7572 9484 9485 9474 7575 9487 9488 9477 7563 7573 9486 9476 9480 9490 7578 9491 9489 9492 9493 
918 919 1216 1215 951 952 1249 1248 7582 9494 9495 9484 7585 9497 9498 9487 7573 7583 9496 9486 9490 9500 7588 9501 9499 9502 9503 
919 920 1217 1216 952 953 1250 1249 7592 9504 9505 9494 7595 9507 9508 9497 7583 7593 9506 9496 9500 9510 7598 9511 9509 9512 9513 
920 921 1218 1217 953 954 1251 1250 7602 9514 9515 9504 7605 9517 9518 9507 7593 7603 9516 9506 9510 9520 7608 9521 9519 9522 9523 
921 922 1219 1218 954 955 1252 1251 7612 9524 9525 9514 7615 9527 9528 9517 7603 7613 9526 9516 9520 9530 7618 9531 9529 9532 9533 
922 923 1220 1219 955 956 1253 1252 7622 9534 9535 9524 7625 9537 9538 9527 7613 7623 9536 9526 9530 9540 7628 9541 9539 9542 9543 
924 925 1222 1221 957 958 1255 1254 7313 9225 9226 9227 7634 9546 9547 9548 7632 7631 9544 9545 9551 9549 7637 9550 9232 9552 9553 
925 926 1223 1222 958 959 1256 1255 7325 9237 9238 9225 7643 9555 9556 9546 7631 7641 9554 9544 9549 9557 7645 9558 9242 9559 9560 
926 927 1224 1223 959 960 1257 1256 7335 9247 9248 9237 7650 9562 9563 9555 7641 7648 9561 9554 9557 9564 7652 9565 9252 9566 9567 
927 928 1225 1224 960 961 1258 1257 7345 9257 9258 9247 7657 9569 9570 9562 7648 7655 9568 9561 9564 9571 7659 9572 9262 9573 9574 
928 929 1226 1225 961 962 1259 1258 7355 9267 9268 9257 7664 9576 9577 9569 7655 7662 9575 9568 9571 9578 7666 9579 9272 9580 9581 
929 930 1227 1226 962 963 1260 1259 7365 9277 9278 9267 7671 9583 9584 9576 7662 7669 9582 9575 9578 9585 7673 9586 9282 9587 9588 
930 931 1228 1227 963 964 1261 1260 7375 9287 9288 9277 7678 9590 9591 9583 7669 7676 9589 9582 9585 9592 7680 9593 9292 9594 9595 
931 932 1229 1228 964 965 1262 1261 7385 9297 9298 9287 7685 9597 9598 9590 7676 7683 9596 9589 9592 9599 7687 9600 9302 9601 9602 
932 933 1230 1229 965 966 1263 1262 7395 9307 9308 9297 7692 9604 9605 9597 7683 7690 9603 9596 9599 9606 7694 9607 9312 9608 9609 
933 934 1231 1230 966 967 1264 1263 7405 9317 9318 9307 7699 9611 9612 9604 7690 7697 9610 9603 9606 9613 7701 9614 9322 9615 9616 
934 935 1232 1231 967 968 1265 1264 7415 9327 9328 9317 7706 9618 9619 9611 7697 7704 9617 9610 9613 9620 7708 9621 9332 9622 9623 
935 936 1233 1232 968 969 1266 1265 7425 9337 9338 9327 7713 9625 9626 9618 7704 7711 9624 9617 9620 9627 7715 9628 9342 9629 9630 
936 937 1234 1233 969 970 1267 1266 7435 9347 9348 9337 7720 9632 9633 9625 7711 7718 9631 9624 9627 9634 7722 9635 9352 9636 9637 
937 938 1235 1234 970 971 1268 1267 7445 9357 9358 9347 7727 9639 9640 9632 7718 7725 9638 9631 9634 9641 7729 9642 9362 9643 9644 
938 939 1236 1235 971 972 1269 1268 7455 9367 9368 9357 7734 9646 9647 9639 7725 7732 9645 9638 9641 9648 7736 9649 9372 9650 9651 
939 940 1237 1236 972 973 1270 1269 7465 9377 9378 9367 7741 9653 9654 9646 7732 7739 9652 9645 9648 9655 7743 9656 9382 9657 9658 
940 941 1238 1237 973 974 1271 1270 7475 9387 9388 9377 7748 9660 9661 9653 7739 7746 9659 9652 9655 9662 7750 9663 9392 9664 9665 
941 942 1239 1238 974 975 1272 1271 7485 9397 9398 9387 7755 9667 9668 9660 7746 7753 9666 9659 9662 9669 7757 9670 9402 9671 9672 
942 943 1240 1239 975 976 1273 1272 7495 9407 9408 9397 7762 9674 9675 9667 7753 7760 9673 9666 9669 9676 7764 9677 9412 9678 9679 
943 944 1241 1240 976 977 1274 1273 7505 9417 9418 9407 7769 9681 9682 9674 7760 7767 9680 9673 9676 9683 7771 9684 9422 9685 9686 
944 945 1242 1241 977 978 1275 1274 7515 9427 9428 9417 7776 9688 9689 9681 7767 7774 9687 9680 9683 9690 7778 9691 9432 9692 9693 
945 946 1243 1242 978 979 1276 1275 7525 9437 9438 9427 7783 9695 9696 9688 7774 7781 9694 9687 9690 9697 7785 9698 9442 9699 9700 
946 947 1244 1243 979 980 1277 1276 7535 9447 9448 9437 7790 9702 9703 9695 7781 7788 9701 9694 9697 9704 7792 9705 9452 9706 9707 
947 948 1245 1244 980 981 1278 1277 7545 9457 9458 9447 7797 9709 9710 9702 7788 7795 9708 9701 9704 9711 7799 9712 9462 9713 9714 
948 949 1246 1245 981 982 1279 1278 7555 9467 9468 9457 7804 9716 9717 9709 7795 7802 9715 9708 9711 9718 7806 9719 9472 9720 9721 
949 950 1247 1246 982 983 1280 1279 7565 9477 9478 9467 7811 9723 9724 9716 7802 7809 9722 9715 9718 9725 7813 9726 9482 9727 9728 
950 951 1248 1247 983 984 1281 1280 7575 9487 9488 9477 7818 9730 9731 9723 7809 7816 9729 9722 9725 9732 7820 9733 9492 9734 9735 
951 952 1249 1248 984 985 1282 1281 7585 9497 9498 9487 7825 9737 9738 9730 7816 7823 9736 9729 9732 9739 7827 9740 9502 9741 9742 
952 953 1250 1249 985 986 1283 1282 7595 9507 9508 9497 7832 9744 9745 9737 7823 7830 9743 9736 9739 9746 7834 9747 9512 9748 9749 
953 954 1251 1250 986 987 1284 1283 7605 9517 9518 9507 7839 9751 9752 9744 7830 7837 9750 9743 9746 9753 7841 9754 9522 9755 9756 
954 955 1252 1251 987 988 1285 1284 7615 9527 9528 9517 7846 9758 9759 9751 7837 7844 9757 9750 9753 9760 7848 9761 9532 9762 9763 
955 956 1253 1252 988 989 1286 1285 7625 9537 9538 9527 7853 9765 9766 9758 7844 7851 9764 9757 9760 9767 7855 9768 9542 9769 9770 
957 958 1255 1254 990 991 1288 1287 7634 9546 9547 9548 7861 9773 9774 9775 7859 7858 9771 9772 9778 9776 7864 9777 9552 9779 9780 
958 959 1256 1255 991 992 1289 1288 7643 9555 9556 9546 7870 9782 9783 9773 7858 7868 9781 9771 9776 9784 7872 9785 9559 9786 9787 
959 960 1257 1256 992 993 1290 1289 7650 9562 9563 9555 7877 9789 9790 9782 7868 7875 9788 9781 9784 9791 7879 9792 9566 9793 9794 
960 961 1258 1257 993 994 1291 1290 7657 9569 9570 9562 7884 9796 9797 9789 7875 7882 9795 9788 9791 9798 7886 9799 9573 9800 9801 
961 962 1259 1258 994 995 1292 1291 7664 9576 9577 9569 7891 9803 9804 9796 7882 7889 9802 9795 9798 9805 7893 9806 9580 9807 9808 
962 963 1260 1259 995 996 1293 1292 7671 9583 9584 9576 7898 9810 9811 9803 7889 7896 9809 9802 9805 9812 7900 9813 9587 9814 9815 
963 964 1261 1260 996 997 1294 1293 7678 9590 9591 9583 7905 9817 9818 9810 7896 7903 9816 9809 9812 9819 7907 9820 9594 9821 9822 
964 965 1262 1261 997 998 1295 1294 7685 9597 9598 9590 7912 9824 9825 9817 7903 7910 9823 9816 9819 9826 7914 9827 9601 9828 9829 
965 966 1263 1262 998 999 1296 1295 7692 9604 9605 9597 7919 9831 9832 9824 7910 7917 9830 9823 9826 9833 7921 9834 9608 9835 9836 
966 967 1264 1263 999 1000 1297 1296 7699 9611 9612 9604 7926 9838 9839 9831 7917 7924 9837 9830 9833 9840 7928 9841 9615 9842 9843 
967 968 1265 1264 1000 1001 1298 1297 7706 9618 9619 9611 7933 9845 9846 9838 7924 7931 9844 9837 9840 9847 7935 9848 9622 9849 9850 
968 969 1266 1265 1001 1002 1299 1298 7713 9625 9626 9618 7940 9852 9853 9845 7931 7938 9851 9844 9847 9854 7942 9855 9629 9856 9857 
969 970 1267 1266 1002 1003 1300 1299 7720 9632 9633 9625 7947 9859 9860 9852 7938 7945 9858 9851 9854 9861 7949 9862 9636 9863 9864 
970 971 1268 1267 1003 1004 1301 1300 7727 9639 9640 9632 7954 9866 9867 9859 7945 7952 9865 9858 9861 9868 7956 9869 9643 9870 9871 
971 972 1269 1268 1004 1005 1302 1301 7734 9646 9647 9639 7961 9873 9874 9866 7952 7959 9872 9865 9868 9875 7963 9876 9650 9877 9878 
972 973 1270 1269 1005 1006 1303 1302 7741 9653 9654 9646 7968 9880 9881 9873 7959 7966 9879 9872 9875 9882 7970 9883 9657 9884 9885 
973 974 1271 1270 1006 1007 1304 1303 7748 9660 9661 9653 7975 9887 9888 9880 7966 7973 9886 9879 9882 9889 7977 9890 9664 9891 9892 
974 975 1272 1271 1007 1008 1305 1304 7755 9667 9668 9660 7982 9894 9895 9887 7973 7980 9893 9886 9889 9896 7984 9897 9671 9898 9899 
975 976 1273 1272 1008 1009 1306 1305 7762 9674 9675 9667 7989 9901 9902 9894 7980 7987 9900 9893 9896 9903 7991 9904 9678 9905 9906 
976 977 1274 1273 1009 1010 1307 1306 7769 9681 9682 9674 7996 9908 9909 9901 7987 7994 9907 9900 9903 9910 7998 9911 9685 9912 9913 
977 978 1275 1274 1010 1011 1308 1307 7776 9688 9689 9681 8003 9915 9916 9908 7994 8001 9914 9907 9910 9917 8005 9918 9692 9919 9920 
978 979 1276 1275 1011 1012 1309 1308 7783 9695 9696 9688 8010 9922 9923 9915 8001 8008 9921 9914 9917 9924 8012 9925 9699 9926 9927 
979 980 1277 1276 1012 1013 1310 1309 7790 9702 9703 9695 8017 9929 9930 9922 8008 8015 9928 9921 9924 9931 8019 9932 9706 9933 9934 
980 981 1278 1277 1013 1014 1311 1310 7797 9709 9710 9702 8024 9936 9937 9929 8015 8022 9935 9928 9931 9938 8026 9939 9713 9940 9941 
981 982 1279 1278 1014 1015 1312 1311 7804 9716 9717 9709 8031 9943 9944 9936 8022 8029 9942 9935 9938 9945 8033 9946 9720 9947 9948 
982 983 1280 1279 1015 1016 1313 1312 7811 9723 9724 9716 8038 9950 9951 9943 8029 8036 9949 9942 9945 9952 8040 9953 9727 9954 9955 
983 984 1281 1280 1016 1017 1314 1313 7818 9730 9731 9723 8045 9957 9958 9950 8036 8043 9956 9949 9952 9959 8047 9960 9734 9961 9962 
984 985 1282 1281 1017 1018 1315 1314 7825 9737 9738 9730 8052 9964 9965 9957 8043 8050 9963 9956 9959 9966 8054 9967 9741 9968 9969 
985 986 1283 1282 1018 1019 1316 1315 7832 9744 9745 9737 8059 9971 9972 9964 8050 8057 9970 9963 9966 9973 8061 9974 9748 9975 9976 
986 987 1284 1283 1019 1020 1317 1316 7839 9751 9752 9744 8066 9978 9979 9971 8057 8064 9977 9970 9973 9980 8068 9981 9755 9982 9983 
987 988 1285 1284 1020 1021 1318 1317 7846 9758 9759 9751 8073 9985 9986 9978 8064 8071 9984 9977 9980 9987 8075 9988 9762 9989 9990 
988 989 1286 1285 1021 1022 1319 1318 7853 9765 9766 9758 8080 9992 9993 9985 8071 8078 9991 9984 9987 9994 8082 9995 9769 9996 9997 
990 991 1288 1287 1023 1024 1321 1320 7861 9773 9774 9775 8088 10000 10001 10002 8086 8085 9998 9999 10005 10003 8091 10004 9779 10006 10007 
991 992 1289 1288 1024 1025 1322 1321 7870 9782 9783 9773 8097 10009 10010 10000 8085 8095 10008 9998 10003 10011 8099 10012 9786 10013 10014 
992 993 1290 1289 1025 1026 1323 1322 7877 9789 9790 9782 8104 10016 10017 10009 8095 8102 10015 10008 10011 10018 8106 10019 9793 10020 10021 
993 994 1291 1290 1026 1027 1324 1323 7884 9796 9797 9789 8111 10023 10024 10016 8102 8109 10022 10015 10018 10025 8113 10026 9800 10027 10028 
994 995 1292 1291 1027 1028 1325 1324 7891 9803 9804 9796 8118 10030 10031 10023 8109 8116 10029 10022 10025 10032 8120 10033 9807 10034 10035 
995 996 1293 1292 1028 1029 1326 1325 7898 9810 9811 9803 8125 10037 10038 10030 8116 8123 10036 10029 10032 10039 8127 10040 9814 10041 10042 
996 997 1294 1293 1029 1030 1327 1326 7905 9817 9818 9810 8132 10044 10045 10037 8123 8130 10043 10036 10039 10046 8134 10047 9821 10048 10049 
997 998 1295 1294 1030 1031 1328 1327 7912 9824 9825 9817 8139 10051 10052 10044 8130 8137 10050 10043 10046 10053 8141 10054 9828 10055 10056 
998 999 1296 1295 1031 1032 1329 1328 7919 9831 9832 9824 8146 10058 10059 10051 8137 8144 10057 10050 10053 10060 8148 10061 9835 10062 10063 
999 1000 1297 1296 1032 1033 1330 1329 7926 9838 9839 9831 8153 10065 10066 10058 8144 8151 10064 10057 10060 10067 8155 10068 9842 10069 10070 
1000 1001 1298 1297 1033 1034 1331 1330 7933 9845 9846 9838 8160 10072 10073 10065 8151 8158 10071 10064 10067 10074 8162 10075 9849 10076 10077 
1001 1002 1299 1298 1034 1035 1332 1331 7940 9852 9853 9845 8167 10079 10080 10072 8158 8165 10078 10071 10074 10081 8169 10082 9856 10083 10084 
1002 1003 1300 1299 1035 1036 1333 1332 7947 9859 9860 9852 8174 10086 10087 10079 8165 8172 10085 10078 10081 10088 8176 10089 9863 10090 10091 
1003 1004 1301 1300 1036 1037 1334 1333 7954 9866 9867 9859 8181 10093 10094 10086 8172 8179 10092 10085 10088 10095 8183 10096 9870 10097 10098 
1004 1005 1302 1301 1037 1038 1335 1334 7961 9873 9874 9866 8188 10100 10101 10093 8179 8186 10099 10092 10095 10102 8190 10103 9877 10104 10105 
1005 1006 1303 1302 1038 1039 1336 1335 7968 9880 9881 9873 8195 10107 10108 10100 8186 8193 10106 10099 10102 10109 8197 10110 9884 10111 10112 
1006 1007 1304 1303 1039 1040 1337 1336 7975 9887 9888 9880 8202 10114 10115 10107 8193 8200 10113 10106 10109 10116 8204 10117 9891 10118 10119 
1007 1008 1305 1304 1040 1041 1338 1337 7982 9894 9895 9887 8209 10121 10122 10114 8200 8207 10120 10113 10116 10123 8211 10124 9898 10125 10126 
1008 1009 1306 1305 1041 1042 1339 1338 7989 9901 9902 9894 8216 10128 10129 10121 8207 8214 10127 10120 10123 10130 8218 10131 9905 10132 10133 
1009 1010 1307 1306 1042 1043 1340 1339 7996 9908 9909 9901 8223 10135 10136 10128 8214 8221 10134 10127 10130 10137 8225 10138 9912 10139 10140 
1010 1011 1308 1307 1043 1044 1341 1340 8003 9915 9916 9908 8230 10142 10143 10135 8221 8228 10141 10134 10137 10144 8232 10145 9919 10146 10147 
1011 1012 1309 1308 1044 1045 1342 1341 8010 9922 9923 9915 8237 10149 10150 10142 8228 8235 10148 10141 10144 10151 8239 10152 9926 10153 10154 
1012 1013 1310 1309 1045 1046 1343 1342 8017 9929 9930 9922 8244 10156 10157 10149 8235 8242 10155 10148 10151 10158 8246 10159 9933 10160 10161 
1013 1014 1311 1310 1046 1047 1344 1343 8024 9936 9937 9929 8251 10163 10164 10156 8242 8249 10162 10155 10158 10165 8253 10166 9940 10167 10168 
1014 1015 1312 1311 1047 1048 1345 1344 8031 9943 9944 9936 8258 10170 10171 10163 8249 8256 10169 10162 10165 10172 8260 10173 9947 10174 10175 
1015 1016 1313 1312 1048 1049 1346 1345 8038 9950 9951 9943 8265 10177 10178 10170 8256 8263 10176 10169 10172 10179 8267 10180 9954 10181 10182 
1016 1017 1314 1313 1049 1050 1347 1346 8045 9957 9958 9950 8272 10184 10185 10177 8263 8270 10183 10176 10179 10186 8274 10187 9961 10188 10189 
1017 1018 1315 1314 1050 1051 1348 1347 8052 9964 9965 9957 8279 10191 10192 10184 8270 8277 10190 10183 10186 10193 8281 10194 9968 10195 10196 
1018 1019 1316 1315 1051 1052 1349 1348 8059 9971 9972 9964 8286 10198 10199 10191 8277 8284 10197 10190 10193 10200 8288 10201 9975 10202 10203 
1019 1020 1317 1316 1052 1053 1350 1349 8066 9978 9979 9971 8293 10205 10206 10198 8284 8291 10204 10197 10200 10207 8295 10208 9982 10209 10210 
1020 1021 1318 1317 1053 1054 1351 1350 8073 9985 9986 9978 8300 10212 10213 10205 8291 8298 10211 10204 10207 10214 8302 10215 9989 10216 10217 
1021 1022 1319 1318 1054 1055 1352 1351 8080 9992 9993 9985 8307 10219 10220 10212 8298 8305 10218 10211 10214 10221 8309 10222 9996 10223 10224 
1023 1024 1321 1320 1056 1057 1354 1353 8088 10000 10001 10002 8315 10227 10228 10229 8313 8312 10225 10226 10232 10230 8318 10231 10006 10233 10234 
1024 1025 1322 1321 1057 1058 1355 1354 8097 10009 10010 10000 8324 10236 10237 10227 8312 8322 10235 10225 10230 10238 8326 10239 10013 10240 10241 
1025 1026 1323 1322 1058 1059 1356 1355 8104 10016 10017 10009 8331 10243 10244 10236 8322 8329 10242 10235 10238 10245 8333 10246 10020 10247 10248 
1026 1027 1324 1323 1059 1060 1357 1356 8111 10023 10024 10016 8338 10250 10251 10243 8329 8336 10249 10242 10245 10252 8340 10253 10027 10254 10255 
1027 1028 1325 1324 1060 1061 1358 1357 8118 10030 10031 10023 8345 10257 10258 10250 8336 8343 10256 10249 10252 10259 8347 10260 10034 10261 10262 
1028 1029 1326 1325 1061 1062 1359 1358 8125 10037 10038 10030 8352 10264 10265 10257 8343 8350 10263 10256 10259 10266 8354 10267 10041 10268 10269 
1029 1030 1327 1326 1062 1063 1360 1359 8132 10044 10045 10037 8359 10271 10272 10264 8350 8357 10270 10263 10266 10273 8361 10274 10048 10275 10276 
1030 1031 1328 1327 1063 1064 1361 1360 8139 10051 10052 10044 8366 10278 10279 10271 8357 8364 10277 10270 10273 10280 8368 10281 10055 10282 10283 
1031 1032 1329 1328 1064 1065 1362 1361 8146 10058 10059 10051 8373 10285 10286 10278 8364 8371 10284 10277 10280 10287 8375 10288 10062 10289 10290 
1032 1033 1330 1329 1065 1066 1363 1362 8153 10065 10066 10058 8380 10292 10293 10285 8371 8378 10291 10284 10287 10294 8382 10295 10069 10296 10297 
1033 1034 1331 1330 1066 1067 1364 1363 8160 10072 10073 10065 8387 10299 10300 10292 8378 8385 10298 10291 10294 10301 8389 10302 10076 10303 10304 
1034 1035 1332 1331 1067 1068 1365 1364 8167 10079 10080 10072 8394 10306 10307 10299 8385 8392 10305 10298 10301 10308 8396 10309 10083 10310 10311 
1035 1036 1333 1332 1068 1069 1366 1365 8174 10086 10087 10079 8401 10313 10314 10306 8392 8399 10312 10305 10308 10315 8403 10316 10090 10317 10318 
1036 1037 1334 1333 1069 1070 1367 1366 8181 10093 10094 10086 8408 10320 10321 10313 8399 8406 10319 10312 10315 10322 8410 10323 10097 10324 10325 
1037 1038 1335 1334 1070 1071 1368 1367 8188 10100 10101 10093 8415 10327 10328 10320 8406 8413 10326 10319 10322 10329 8417 10330 10104 10331 10332 
1038 1039 1336 1335 1071 1072 1369 1368 8195 10107 10108 10100 8422 10334 10335 10327 8413 8420 10333 10326 10329 10336 8424 10337 10111 10338 10339 
1039 1040 1337 1336 1072 1073 1370 1369 8202 10114 10115 10107 8429 10341 10342 10334 8420 8427 10340 10333 10336 10343 8431 10344 10118 10345 10346 
1040 1041 1338 1337 1073 1074 1371 1370 8209 10121 10122 10114 8436 10348 10349 10341 8427 8434 10347 10340 10343 10350 8438 10351 10125 10352 10353 
1041 1042 1339 1338 1074 1075 1372 1371 8216 10128 10129 10121 8443 10355 10356 10348 8434 8441 10354 10347 10350 10357 8445 10358 10132 10359 10360 
1042 1043 1340 1339 1075 1076 1373 1372 8223 10135 10136 10128 8450 10362 10363 10355 8441 8448 10361 10354 10357 10364 8452 10365 10139 10366 10367 
1043 1044 1341 1340 1076 1077 1374 1373 8230 10142 10143 10135 8457 10369 10370 10362 8448 8455 10368 10361 10364 10371 8459 10372 10146 10373 10374 
1044 1045 1342 1341 1077 1078 1375 1374 8237 10149 10150 10142 8464 10376 10377 10369 8455 8462 10375 10368 10371 10378 8466 10379 10153 10380 10381 
1045 1046 1343 1342 1078 1079 1376 1375 8244 10156 10157 10149 8471 10383 10384 10376 8462 8469 10382 10375 10378 10385 8473 10386 10160 10387 10388 
1046 1047 1344 1343 1079 1080 1377 1376 8251 10163 10164 10156 8478 10390 10391 10383 8469 8476 10389 10382 10385 10392 8480 10393 10167 10394 10395 
1047 1048 1345 1344 1080 1081 1378 1377 8258 10170 10171 10163 8485 10397 10398 10390 8476 8483 10396 10389 10392 10399 8487 10400 10174 10401 10402 
1048 1049 1346 1345 1081 1082 1379 1378 8265 10177 10178 10170 8492 10404 10405 10397 8483 8490 10403 10396 10399 10406 8494 10407 10181 10408 10409 
1049 1050 1347 1346 1082 1083 1380 1379 8272 10184 10185 10177 8499 10411 10412 10404 8490 8497 10410 10403 10406 10413 8501 10414 10188 10415 10416 
1050 1051 1348 1347 1083 1084 1381 1380 8279 10191 10192 10184 8506 10418 10419 10411 8497 8504 10417 10410 10413 10420 8508 10421 10195 10422 10423 
1051 1052 1349 1348 1084 1085 1382 1381 8286 10198 10199 10191 8513 10425 10426 10418 8504 8511 10424 10417 10420 10427 8515 10428 10202 10429 10430 
1052 1053 1350 1349 1085 1086 1383 1382 8293 10205 10206 10198 8520 10432 10433 10425 8511 8518 10431 10424 10427 10434 8522 10435 10209 10436 10437 
1053 1054 1351 1350 1086 1087 1384 1383 8300 10212 10213 10205 8527 10439 10440 10432 8518 8525 10438 10431 10434 10441 8529 10442 10216 10443 10444 
1054 1055 1352 1351 1087 1088 1385 1384 8307 10219 10220 10212 8534 10446 10447 10439 8525 8532 10445 10438 10441 10448 8536 10449 10223 10450 10451 
1056 1057 1354 1353 1089 1090 1387 1386 8315 10227 10228 10229 8542 10454 10455 10456 8540 8539 10452 10453 10459 10457 8545 10458 10233 10460 10461 
1057 1058 1355 1354 1090 1091 1388 1387 8324 10236 10237 10227 8551 10463 10464 10454 8539 8549 10462 10452 10457 10465 8553 10466 10240 10467 10468 
1058 1059 1356 1355 1091 1092 1389 1388 8331 10243 10244 10236 8558 10470 10471 10463 8549 8556 10469 10462 10465 10472 8560 10473 10247 10474 10475 
1059 1060 1357 1356 1092 1093 1390 1389 8338 10250 10251 10243 8565 10477 10478 10470 8556 8563 10476 10469 10472 10479 8567 10480 10254 10481 10482 
1060 1061 1358 1357 1093 1094 1391 1390 8345 10257 10258 10250 8572 10484 10485 10477 8563 8570 10483 10476 10479 10486 8574 10487 10261 10488 10489 
1061 1062 1359 1358 1094 1095 1392 1391 8352 10264 10265 10257 8579 10491 10492 10484 8570 8577 10490 10483 10486 10493 8581 10494 10268 10495 10496 
1062 1063 1360 1359 1095 1096 1393 1392 8359 10271 10272 10264 8586 10498 10499 10491 8577 8584 10497 10490 10493 10500 8588 10501 10275 10502 10503 
1063 1064 1361 1360 1096 1097 1394 1393 8366 10278 10279 10271 8593 10505 10506 10498 8584 8591 10504 10497 10500 10507 8595 10508 10282 10509 10510 
1064 1065 1362 1361 1097 1098 1395 1394 8373 10285 10286 10278 8600 10512 10513 10505 8591 8598 10511 10504 10507 10514 8602 10515 10289 10516 10517 
1065 1066 1363 1362 1098 1099 1396 1395 8380 10292 10293 10285 8607 10519 10520 10512 8598 8605 10518 10511 10514 10521 8609 10522 10296 10523 10524 
1066 1067 1364 1363 1099 1100 1397 1396 8387 10299 10300 10292 8614 10526 10527 10519 8605 8612 10525 10518 10521 10528 8616 10529 10303 10530 10531 
1067 1068 1365 1364 1100 1101 1398 1397 8394 10306 10307 10299 8621 10533 10534 10526 8612 8619 10532 10525 10528 10535 8623 10536 10310 10537 10538 
1068 1069 1366 1365 1101 1102 1399 1398 8401 10313 10314 10306 8628 10540 10541 10533 8619 8626 10539 10532 10535 10542 8630 10543 10317 10544 10545 
1069 1070 1367 1366 1102 1103 1400 1399 8408 10320 10321 10313 8635 10547 10548 10540 8626 8633 10546 10539 10542 10549 8637 10550 10324 10551 10552 
1070 1071 1368 1367 1103 1104 1401 1400 8415 10327 10328 10320 8642 10554 10555 10547 8633 8640 10553 10546 10549 10556 8644 10557 10331 10558 10559 
1071 1072 1369 1368 1104 1105 1402 1401 8422 10334 10335 10327 8649 10561 10562 10554 8640 8647 10560 10553 10556 10563 8651 10564 10338 10565 10566 
1072 1073 1370 1369 1105 1106 1403 1402 8429 10341 10342 10334 8656 10568 10569 10561 8647 8654 10567 10560 10563 10570 8658 10571 10345 10572 10573 
1073 1074 1371 1370 1106 1107 1404 1403 8436 10348 10349 10341 8663 10575 10576 10568 8654 8661 10574 10567 10570 10577 8665 10578 10352 10579 10580 
1074 1075 1372 1371 1107 1108 1405 1404 8443 10355 10356 10348 8670 10582 10583 10575 8661 8668 10581 10574 10577 10584 8672 10585 10359 10586 10587 
1075 1076 1373 1372 1108 1109 1406 1405 8450 10362 10363 10355 8677 10589 10590 10582 8668 8675 10588 10581 10584 10591 8679 10592 10366 10593 10594 
1076 1077 1374 1373 1109 1110 1407 1406 8457 10369 10370 10362 8684 10596 10597 10589 8675 8682 10595 10588 10591 10598 8686 10599 10373 10600 10601 
1077 1078 1375 1374 1110 1111 1408 1407 8464 10376 10377 10369 8691 10603 10604 10596 8682 8689 10602 10595 10598 10605 8693 10606 10380 10607 10608 
1078 1079 1376 1375 1111 1112 1409 1408 8471 10383 10384 10376 8698 10610 10611 10603 8689 8696 10609 10602 10605 10612 8700 10613 10387 10614 10615 
1079 1080 1377 1376 1112 1113 1410 1409 8478 10390 10391 10383 8705 10617 10618 10610 8696 8703 10616 10609 10612 10619 8707 10620 10394 10621 10622 
1080 1081 1378 1377 1113 1114 1411 1410 8485 10397 10398 10390 8712 10624 10625 10617 8703 8710 10623 10616 10619 10626 8714 10627 10401 10628 10629 
1081 1082 1379 1378 1114 1115 1412 1411 8492 10404 10405 10397 8719 10631 10632 10624 8710 8717 10630 10623 10626 10633 8721 10634 10408 10635 10636 
1082 1083 1380 1379 1115 1116 1413 1412 8499 10411 10412 10404 8726 10638 10639 10631 8717 8724 10637 10630 10633 10640 8728 10641 10415 10642 10643 
1083 1084 1381 1380 1116 1117 1414 1413 8506 10418 10419 10411 8733 10645 10646 10638 8724 8731 10644 10637 10640 10647 8735 10648 10422 10649 10650 
1084 1085 1382 1381 1117 1118 1415 1414 8513 10425 10426 10418 8740 10652 10653 10645 8731 8738 10651 10644 10647 10654 8742 10655 10429 10656 10657 
1085 1086 1383 1382 1118 1119 1416 1415 8520 10432 10433 10425 8747 10659 10660 10652 8738 8745 10658 10651 10654 10661 8749 10662 10436 10663 10664 
1086 1087 1384 1383 1119 1120 1417 1416 8527 10439 10440 10432 8754 10666 10667 10659 8745 8752 10665 10658 10661 10668 8756 10669 10443 10670 10671 
1087 1088 1385 1384 1120 1121 1418 1417 8534 10446 10447 10439 8761 10673 10674 10666 8752 8759 10672 10665 10668 10675 8763 10676 10450 10677 10678 
1089 1090 1387 1386 1122 1123 1420 1419 8542 10454 10455 10456 8769 10681 10682 10683 8767 8766 10679 10680 10686 10684 8772 10685 10460 10687 10688 
1090 1091 1388 1387 1123 1124 1421 1420 8551 10463 10464 10454 8778 10690 10691 10681 8766 8776 10689 10679 10684 10692 8780 10693 10467 10694 10695 
1091 1092 1389 1388 1124 1125 1422 1421 8558 10470 10471 10463 8785 10697 10698 10690 8776 8783 10696 10689 10692 10699 8787 10700 10474 10701 10702 
1092 1093 1390 1389 1125 1126 1423 1422 8565 10477 10478 10470 8792 10704 10705 10697 8783 8790 10703 10696 10699 10706 8794 10707 10481 10708 10709 
1093 1094 1391 1390 1126 1127 1424 1423 8572 10484 10485 10477 8799 10711 10712 10704 8790 8797 10710 10703 10706 10713 8801 10714 10488 10715 10716 
1094 1095 1392 1391 1127 1128 1425 1424 8579 10491 10492 10484 8806 10718 10719 10711 8797 8804 10717 10710 10713 10720 8808 10721 10495 10722 10723 
1095 1096 1393 1392 1128 1129 1426 1425 8586 10498 10499 10491 8813 10725 10726 10718 8804 8811 10724 10717 10720 10727 8815 10728 10502 10729 10730 
1096 1097 1394 1393 1129 1130 1427 1426 8593 10505 10506 10498 8820 10732 10733 10725 8811 8818 10731 10724 10727 10734 8822 10735 10509 10736 10737 
1097 1098 1395 1394 1130 1131 1428 1427 8600 10512 10513 10505 8827 10739 10740 10732 8818 8825 10738 10731 10734 10741 8829 10742 10516 10743 10744 
1098 1099 1396 1395 1131 1132 1429 1428 8607 10519 10520 10512 8834 10746 10747 10739 8825 8832 10745 10738 10741 10748 8836 10749 10523 10750 10751 
1099 1100 1397 1396 1132 1133 1430 1429 8614 10526 10527 10519 8841 10753 10754 10746 8832 8839 10752 10745 10748 10755 8843 10756 10530 10757 10758 
1100 1101 1398 1397 1133 1134 1431 1430 8621 10533 10534 10526 8848 10760 10761 10753 8839 8846 10759 10752 10755 10762 8850 10763 10537 10764 10765 
1101 1102 1399 1398 1134 1135 1432 1431 8628 10540 10541 10533 8855 10767 10768 10760 8846 8853 10766 10759 10762 10769 8857 10770 10544 10771 10772 
1102 1103 1400 1399 1135 1136 1433 1432 8635 10547 10548 10540 8862 10774 10775 10767 8853 8860 10773 10766 10769 10776 8864 10777 10551 10778 10779 
1103 1104 1401 1400 1136 1137 1434 1433 8642 10554 10555 10547 8869 10781 10782 10774 8860 8867 10780 10773 10776 10783 8871 10784 10558 10785 10786 
1104 1105 1402 1401 1137 1138 1435 1434 8649 10561 10562 10554 8876 10788 10789 10781 8867 8874 10787 10780 10783 10790 8878 10791 10565 10792 10793 
1105 1106 1403 1402 1138 1139 1436 1435 8656 10568 10569 10561 8883 10795 10796 10788 8874 8881 10794 10787 10790 10797 8885 10798 10572 10799 10800 
1106 1107 1404 1403 1139 1140 1437 1436 8663 10575 10576 10568 8890 10802 10803 10795 8881 8888 10801 10794 10797 10804 8892 10805 10579 10806 10807 
1107 1108 1405 1404 1140 1141 1438 1437 8670 10582 10583 10575 8897 10809 10810 10802 8888 8895 10808 10801 10804 10811 8899 10812 10586 10813 10814 
1108 1109 1406 1405 1141 1142 1439 1438 8677 10589 10590 10582 8904 10816 10817 10809 8895 8902 10815 10808 10811 10818 8906 10819 10593 10820 10821 
1109 1110 1407 1406 1142 1143 1440 1439 8684 10596 10597 10589 8911 10823 10824 10816 8902 8909 10822 10815 10818 10825 8913 10826 10600 10827 10828 
1110 1111 1408 1407 1143 1144 1441 1440 8691 10603 10604 10596 8918 10830 10831 10823 8909 8916 10829 10822 10825 10832 8920 10833 10607 10834 10835 
1111 1112 1409 1408 1144 1145 1442 1441 8698 10610 10611 10603 8925 10837 10838 10830 8916 8923 10836 10829 10832 10839 8927 10840 10614 10841 10842 
1112 1113 1410 1409 1145 1146 1443 1442 8705 10617 10618 10610 8932 10844 10845 10837 8923 8930 10843 10836 10839 10846 8934 10847 10621 10848 10849 
1113 1114 1411 1410 1146 1147 1444 1443 8712 10624 10625 10617 8939 10851 10852 10844 8930 8937 10850 10843 10846 10853 8941 10854 10628 10855 10856 
1114 1115 1412 1411 1147 1148 1445 1444 8719 10631 10632 10624 8946 10858 10859 10851 8937 8944 10857 10850 10853 10860 8948 10861 10635 10862 10863 
1115 1116 1413 1412 1148 1149 1446 1445 8726 10638 10639 10631 8953 10865 10866 10858 8944 8951 10864 10857 10860 10867 8955 10868 10642 10869 10870 
1116 1117 1414 1413 1149 1150 1447 1446 8733 10645 10646 10638 8960 10872 10873 10865 8951 8958 10871 10864 10867 10874 8962 10875 10649 10876 10877 
1117 1118 1415 1414 1150 1151 1448 1447 8740 10652 10653 10645 8967 10879 10880 10872 8958 8965 10878 10871 10874 10881 8969 10882 10656 10883 10884 
1118 1119 1416 1415 1151 1152 1449 1448 8747 10659 10660 10652 8974 10886 10887 10879 8965 8972 10885 10878 10881 10888 8976 10889 10663 10890 10891 
1119 1120 1417 1416 1152 1153 1450 1449 8754 10666 10667 10659 8981 10893 10894 10886 8972 8979 10892 10885 10888 10895 8983 10896 10670 10897 10898 
1120 1121 1418 1417 1153 1154 1451 1450 8761 10673 10674 10666 8988 10900 10901 10893 8979 8986 10899 10892 10895 10902 8990 10903 10677 10904 10905 
1122 1123 1420 1419 1155 1156 1453 1452 8769 10681 10682 10683 8996 10908 10909 10910 8994 8993 10906 10907 10913 10911 8999 10912 10687 10914 10915 
1123 1124 1421 1420 1156 1157 1454 1453 8778 10690 10691 10681 9005 10917 10918 10908 8993 9003 10916 10906 10911 10919 9007 10920 10694 10921 10922 
1124 1125 1422 1421 1157 1158 1455 1454 8785 10697 10698 10690 9012 10924 10925 10917 9003 9010 10923 10916 10919 10926 9014 10927 10701 10928 10929 
1125 1126 1423 1422 1158 1159 1456 1455 8792 10704 10705 10697 9019 10931 10932 10924 9010 9017 10930 10923 10926 10933 9021 10934 10708 10935 10936 
1126 1127 1424 1423 1159 1160 1457 1456 8799 10711 10712 10704 9026 10938 10939 10931 9017 9024 10937 10930 10933 10940 9028 10941 10715 10942 10943 
1127 1128 1425 1424 1160 1161 1458 1457 8806 10718 10719 10711 9033 10945 10946 10938 9024 9031 10944 10937 10940 10947 9035 10948 10722 10949 10950 
1128 1129 1426 1425 1161 1162 1459 1458 8813 10725 10726 10718 9040 10952 10953 10945 9031 9038 10951 10944 10947 10954 9042 10955 10729 10956 10957 
1129 1130 1427 1426 1162 1163 1460 1459 8820 10732 10733 10725 9047 10959 10960 10952 9038 9045 10958 10951 10954 10961 9049 10962 10736 10963 10964 
1130 1131 1428 1427 1163 1164 1461 1460 8827 10739 10740 10732 9054 10966 10967 10959 9045 9052 10965 10958 10961 10968 9056 10969 10743 10970 10971 
1131 1132 1429 1428 1164 1165 1462 1461 8834 10746 10747 10739 9061 10973 10974 10966 9052 9059 10972 10965 10968 10975 9063 10976 10750 10977 10978 
1132 1133 1430 1429 1165 1166 1463 1462 8841 10753 10754 10746 9068 10980 10981 10973 9059 9066 10979 10972 10975 10982 9070 10983 10757 10984 10985 
1133 1134 1431 1430 1166 1167 1464 1463 8848 10760 10761 10753 9075 10987 10988 10980 9066 9073 10986 10979 10982 10989 9077 10990 10764 10991 10992 
1134 1135 1432 1431 1167 1168 1465 1464 8855 10767 10768 10760 9082 10994 10995 10987 9073 9080 10993 10986 10989 10996 9084 10997 10771 10998 10999 
1135 1136 1433 1432 1168 1169 1466 1465 8862 10774 10775 10767 9089 11001 11002 10994 9080 9087 11000 10993 10996 11003 9091 11004 10778 11005 11006 
1136 1137 1434 1433 1169 1170 1467 1466 8869 10781 10782 10774 9096 11008 11009 11001 9087 9094 11007 11000 11003 11010 9098 11011 10785 11012 11013 
1137 1138 1435 1434 1170 1171 1468 1467 8876 10788 10789 10781 9103 11015 11016 11008 9094 9101 11014 11007 11010 11017 9105 11018 10792 11019 11020 
1138 1139 1436 1435 1171 1172 1469 1468 8883 10795 10796 10788 9110 11022 11023 11015 9101 9108 11021 11014 11017 11024 9112 11025 10799 11026 11027 
1139 1140 1437 1436 1172 1173 1470 1469 8890 10802 10803 10795 9117 11029 11030 11022 9108 9115 11028 11021 11024 11031 9119 11032 10806 11033 11034 
1140 1141 1438 1437 1173 1174 1471 1470 8897 10809 10810 10802 9124 11036 11037 11029 9115 9122 11035 11028 11031 11038 9126 11039 10813 11040 11041 
1141 1142 1439 1438 1174 1175 1472 1471 8904 10816 10817 10809 9131 11043 11044 11036 9122 9129 11042 11035 11038 11045 9133 11046 10820 11047 11048 
1142 1143 1440 1439 1175 1176 1473 1472 8911 10823 10824 10816 9138 11050 11051 11043 9129 9136 11049 11042 11045 11052 9140 11053 10827 11054 11055 
1143 1144 1441 1440 1176 1177 1474 1473 8918 10830 10831 10823 9145 11057 11058 11050 9136 9143 11056 11049 11052 11059 9147 11060 10834 11061 11062 
1144 1145 1442 1441 1177 1178 1475 1474 8925 10837 10838 10830 9152 11064 11065 11057 9143 9150 11063 11056 11059 11066 9154 11067 10841 11068 11069 
1145 1146 1443 1442 1178 1179 1476 1475 8932 10844 10845 10837 9159 11071 11072 11064 9150 9157 11070 11063 11066 11073 9161 11074 10848 11075 11076 
1146 1147 1444 1443 1179 1180 1477 1476 8939 10851 10852 10844 9166 11078 11079 11071 9157 9164 11077 11070 11073 11080 9168 11081 10855 11082 11083 
1147 1148 1445 1444 1180 1181 1478 1477 8946 10858 10859 10851 9173 11085 11086 11078 9164 9171 11084 11077 11080 11087 9175 11088 10862 11089 11090 
1148 1149 1446 1445 1181 1182 1479 1478 8953 10865 10866 10858 9180 11092 11093 11085 9171 9178 11091 11084 11087 11094 9182 11095 10869 11096 11097 
1149 1150 1447 1446 1182 1183 1480 1479 8960 10872 10873 10865 9187 11099 11100 11092 9178 9185 11098 11091 11094 11101 9189 11102 10876 11103 11104 
1150 1151 1448 1447 1183 1184 1481 1480 8967 10879 10880 10872 9194 11106 11107 11099 9185 9192 11105 11098 11101 11108 9196 11109 10883 11110 11111 
1151 1152 1449 1448 1184 1185 1482 1481 8974 10886 10887 10879 9201 11113 11114 11106 9192 9199 11112 11105 11108 11115 9203 11116 10890 11117 11118 
1152 1153 1450 1449 1185 1186 1483 1482 8981 10893 10894 10886 9208 11120 11121 11113 9199 9206 11119 11112 11115 11122 9210 11123 10897 11124 11125 
1153 1154 1451 1450 1186 1187 1484 1483 8988 10900 10901 10893 9215 11127 11128 11120 9206 9213 11126 11119 11122 11129 9217 11130 10904 11131 11132 
1188 1189 1486 1485 1221 1222 1519 1518 9221 11133 11134 11135 9226 11138 11139 11140 9224 9223 11136 11137 11144 11142 9230 11143 11141 11145 11146 
1189 1190 1487 1486 1222 1223 1520 1519 9235 11147 11148 11133 9238 11150 11151 11138 9223 9236 11149 11136 11142 11153 9241 11154 11152 11155 11156 
1190 1191 1488 1487 1223 1224 1521 1520 9245 11157 11158 11147 9248 11160 11161 11150 9236 9246 11159 11149 11153 11163 9251 11164 11162 11165 11166 
1191 1192 1489 1488 1224 1225 1522 1521 9255 11167 11168 11157 9258 11170 11171 11160 9246 9256 11169 11159 11163 11173 9261 11174 11172 11175 11176 
1192 1193 1490 1489 1225 1226 1523 1522 9265 11177 11178 11167 9268 11180 11181 11170 9256 9266 11179 11169 11173 11183 9271 11184 11182 11185 11186 
1193 1194 1491 1490 1226 1227 1524 1523 9275 11187 11188 11177 9278 11190 11191 11180 9266 9276 11189 11179 11183 11193 9281 11194 11192 11195 11196 
1194 1195 1492 1491 1227 1228 1525 1524 9285 11197 11198 11187 9288 11200 11201 11190 9276 9286 11199 11189 11193 11203 9291 11204 11202 11205 11206 
1195 1196 1493 1492 1228 1229 1526 1525 9295 11207 11208 11197 9298 11210 11211 11200 9286 9296 11209 11199 11203 11213 9301 11214 11212 11215 11216 
1196 1197 1494 1493 1229 1230 1527 1526 9305 11217 11218 11207 9308 11220 11221 11210 9296 9306 11219 11209 11213 11223 9311 11224 11222 11225 11226 
1197 1198 1495 1494 1230 1231 1528 1527 9315 11227 11228 11217 9318 11230 11231 11220 9306 9316 11229 11219 11223 11233 9321 11234 11232 11235 11236 
1198 1199 1496 1495 1231 1232 1529 1528 9325 11237 11238 11227 9328 11240 11241 11230 9316 9326 11239 11229 11233 11243 9331 11244 11242 11245 11246 
1199 1200 1497 1496 1232 1233 1530 1529 9335 11247 11248 11237 9338 11250 11251 11240 9326 9336 11249 11239 11243 11253 9341 11254 11252 11255 11256 
1200 1201 1498 1497 1233 1234 1531 1530 9345 11257 11258 11247 9348 11260 11261 11250 9336 9346 11259 11249 11253 11263 9351 11264 11262 11265 11266 
1201 1202 1499 1498 1234 1235 1532 1531 9355 11267 11268 11257 9358 11270 11271 11260 9346 9356 11269 11259 11263 11273 9361 11274 11272 11275 11276 
1202 1203 1500 1499 1235 1236 1533 1532 9365 11277 11278 11267 9368 11280 11281 11270 9356 9366 11279 11269 11273 11283 9371 11284 11282 11285 11286 
1203 1204 1501 1500 1236 1237 1534 1533 9375 11287 11288 11277 9378 11290 11291 11280 9366 9376 11289 11279 11283 11293 9381 11294 11292 11295 11296 
1204 1205 1502 1501 1237 1238 1535 1534 9385 11297 11298 11287 9388 11300 11301 11290 9376 9386 11299 11289 11293 11303 9391 11304 11302 11305 11306 
1205 1206 1503 1502 1238 1239 1536 1535 9395 11307 11308 11297 9398 11310 11311 11300 9386 9396 11309 11299 11303 11313 9401 11314 11312 11315 11316 
1206 1207 1504 1503 1239 1240 1537 1536 9405 11317 11318 11307 9408 11320 11321 11310 9396 9406 11319 11309 11313 11323 9411 11324 11322 11325 11326 
1207 1208 1505 1504 1240 1241 1538 1537 9415 11327 11328 11317 9418 11330 11331 11320 9406 9416 11329 11319 11323 11333 9421 11334 11332 11335 11336 
1208 1209 1506 1505 1241 1242 1539 1538 9425 11337 11338 11327 9428 11340 11341 11330 9416 9426 11339 11329 11333 11343 9431 11344 11342 11345 11346 
1209 1210 1507 1506 1242 1243 1540 1539 9435 11347 11348 11337 9438 11350 11351 11340 9426 9436 11349 11339 11343 11353 9441 11354 11352 11355 11356 
1210 1211 1508 1507 1243 1244 1541 1540 9445 11357 11358 11347 9448 11360 11361 11350 9436 9446 11359 11349 11353 11363 9451 11364 11362 11365 11366 
1211 1212 1509 1508 1244 1245 1542 1541 9455 11367 11368 11357 9458 11370 11371 11360 9446 9456 11369 11359 11363 11373 9461 11374 11372 11375 11376 
1212 1213 1510 1509 1245 1246 1543 1542 9465 11377 11378 11367 9468 11380 11381 11370 9456 9466 11379 11369 11373 11383 9471 11384 11382 11385 11386 
1213 1214 1511 1510 1246 1247 1544 1543 9475 11387 11388 11377 9478 11390 11391 11380 9466 9476 11389 11379 11383 11393 9481 11394 11392 11395 11396 
1214 1215 1512 1511 1247 1248 1545 1544 9485 11397 11398 11387 9488 11400 11401 11390 9476 9486 11399 11389 11393 11403 9491 11404 11402 11405 11406 
1215 1216 1513 1512 1248 1249 1546 1545 9495 11407 11408 11397 9498 11410 11411 11400 9486 9496 11409 11399 11403 11413 9501 11414 11412 11415 11416 
1216 1217 1514 1513 1249 1250 1547 1546 9505 11417 11418 11407 9508 11420 11421 11410 9496 9506 11419 11409 11413 11423 9511 11424 11422 11425 11426 
1217 1218 1515 1514 1250 1251 1548 1547 9515 11427 11428 11417 9518 11430 11431 11420 9506 9516 11429 11419 11423 11433 9521 11434 11432 11435 11436 
1218 1219 1516 1515 1251 1252 1549 1548 9525 11437 11438 11427 9528 11440 11441 11430 9516 9526 11439 11429 11433 11443 9531 11444 11442 11445 11446 
1219 1220 1517 1516 1252 1253 1550 1549 9535 11447 11448 11437 9538 11450 11451 11440 9526 9536 11449 11439 11443 11453 9541 11454 11452 11455 11456 
1221 1222 1519 1518 1254 1255 1552 1551 9226 11138 11139 11140 9547 11459 11460 11461 9545 9544 11457 11458 11464 11462 9550 11463 11145 11465 11466 
1222 1223 1520 1519 1255 1256 1553 1552 9238 11150 11151 11138 9556 11468 11469 11459 9544 9554 11467 11457 11462 11470 9558 11471 11155 11472 11473 
1223 1224 1521 1520 1256 1257 1554 1553 9248 11160 11161 11150 9563 11475 11476 11468 9554 9561 11474 11467 11470 11477 9565 11478 11165 11479 11480 
1224 1225 1522 1521 1257 1258 1555 1554 9258 11170 11171 11160 9570 11482 11483 11475 9561 9568 11481 11474 11477 11484 9572 11485 11175 11486 11487 
1225 1226 1523 1522 1258 1259 1556 1555 9268 11180 11181 11170 9577 11489 11490 11482 9568 9575 11488 11481 11484 11491 9579 11492 11185 11493 11494 
1226 1227 1524 1523 1259 1260 1557 1556 9278 11190 11191 11180 9584 11496 11497 11489 9575 9582 11495 11488 11491 11498 9586 11499 11195 11500 11501 
1227 1228 1525 1524 1260 1261 1558 1557 9288 11200 11201 11190 9591 11503 11504 11496 9582 9589 11502 11495 11498 11505 9593 11506 11205 11507 11508 
1228 1229 1526 1525 1261 1262 1559 1558 9298 11210 11211 11200 9598 11510 11511 11503 9589 9596 11509 11502 11505 11512 9600 11513 11215 11514 11515 
1229 1230 1527 1526 1262 1263 1560 1559 9308 11220 11221 11210 9605 11517 11518 11510 9596 9603 11516 11509 11512 11519 9607 11520 11225 11521 11522 
1230 1231 1528 1527 1263 1264 1561 1560 9318 11230 11231 11220 9612 11524 11525 11517 9603 9610 11523 11516 11519 11526 9614 11527 11235 11528 11529 
1231 1232 1529 1528 1264 1265 1562 1561 9328 11240 11241 11230 9619 11531 11532 11524 9610 9617 11530 11523 11526 11533 9621 11534 11245 11535 11536 
1232 1233 1530 1529 1265 1266 1563 1562 9338 11250 11251 11240 9626 11538 11539 11531 9617 9624 11537 11530 11533 11540 9628 11541 11255 11542 11543 
1233 1234 1531 1530 1266 1267 1564 1563 9348 11260 11261 11250 9633 11545 11546 11538 9624 9631 11544 11537 11540 11547 9635 11548 11265 11549 11550 
1234 1235 1532 1531 1267 1268 1565 1564 9358 11270 11271 11260 9640 11552 11553 11545 9631 9638 11551 11544 11547 11554 9642 11555 11275 11556 11557 
1235 1236 1533 1532 1268 1269 1566 1565 9368 11280 11281 11270 9647 11559 11560 11552 9638 9645 11558 11551 11554 11561 9649 11562 11285 11563 11564 
1236 1237 1534 1533 1269 1270 1567 1566 9378 11290 11291 11280 9654 11566 11567 11559 9645 9652 11565 11558 11561 11568 9656 11569 11295 11570 11571 
1237 1238 1535 1534 1270 1271 1568 1567 9388 11300 11301 11290 9661 11573 11574 11566 9652 9659 11572 11565 11568 11575 9663 11576 11305 11577 11578 
1238 1239 1536 1535 1271 1272 1569 1568 9398 11310 11311 11300 9668 11580 11581 11573 9659 9666 11579 11572 11575 11582 9670 11583 11315 11584 11585 
1239 1240 1537 1536 1272 1273 1570 1569 9408 11320 11321 11310 9675 11587 11588 11580 9666 9673 11586 11579 11582 11589 9677 11590 11325 11591 11592 
1240 1241 1538 1537 1273 1274 1571 1570 9418 11330 11331 11320 9682 11594 11595 11587 9673 9680 11593 11586 11589 11596 9684 11597 11335 11598 11599 
1241 1242 1539 1538 1274 1275 1572 1571 9428 11340 11341 11330 9689 11601 11602 11594 9680 9687 11600 11593 11596 11603 9691 11604 11345 11605 11606 
1242 1243 1540 1539 1275 1276 1573 1572 9438 11350 11351 11340 9696 11608 11609 11601 9687 9694 11607 11600 11603 11610 9698 11611 11355 11612 11613 
1243 1244 1541 1540 1276 1277 1574 1573 9448 11360 11361 11350 9703 11615 11616 11608 9694 9701 11614 11607 11610 11617 9705 11618 11365 11619 11620 
1244 1245 1542 1541 1277 1278 1575 1574 9458 11370 11371 11360 9710 11622 11623 11615 9701 9708 11621 11614 11617 11624 9712 11625 11375 11626 11627 
1245 1246 1543 1542 1278 1279 1576 1575 9468 11380 11381 11370 9717 11629 11630 11622 9708 9715 11628 11621 11624 11631 9719 11632 11385 11633 11634 
1246 1247 1544 1543 1279 1280 1577 1576 9478 11390 11391 11380 9724 11636 11637 11629 9715 9722 11635 11628 11631 11638 9726 11639 11395 11640 11641 
1247 1248 1545 1544 1280 1281 1578 1577 9488 11400 11401 11390 9731 11643 11644 11636 9722 9729 11642 11635 11638 11645 9733 11646 11405 11647 11648 
1248 1249 1546 1545 1281 1282 1579 1578 9498 11410 11411 11400 9738 11650 11651 11643 9729 9736 11649 11642 11645 11652 9740 11653 11415 11654 11655 
1249 1250 1547 1546 1282 1283 1580 1579 9508 11420 11421 11410 9745 11657 11658 11650 9736 9743 11656 11649 11652 11659 9747 11660 11425 11661 11662 
1250 1251 1548 1547 1283 1284 1581 1580 9518 11430 11431 11420 9752 11664 11665 11657 9743 9750 11663 11656 11659 11666 9754 11667 11435 11668 11669 
1251 1252 1549 1548 1284 1285 1582 1581 9528 11440 11441 11430 9759 11671 11672 11664 9750 9757 11670 11663 11666 11673 9761 11674 11445 11675 11676 
1252 1253 1550 1549 1285 1286 1583 1582 9538 11450 11451 11440 9766 11678 11679 11671 9757 9764 11677 11670 11673 11680 9768 11681 11455 11682 11683 
1254 1255 1552 1551 1287 1288 1585 1584 9547 11459 11460 11461 9774 11686 11687 11688 9772 9771 11684 11685 11691 11689 9777 11690 11465 11692 11693 
1255 1256 1553 1552 1288 1289 1586 1585 9556 11468 11469 11459 9783 11695 11696 11686 9771 9781 11694 11684 11689 11697 9785 11698 11472 11699 11700 
1256 1257 1554 1553 1289 1290 1587 1586 9563 11475 11476 11468 9790 11702 11703 11695 9781 9788 11701 11694 11697 11704 9792 11705 11479 11706 11707 
1257 1258 1555 1554 1290 1291 1588 1587 9570 11482 11483 11475 9797 11709 11710 11702 9788 9795 11708 11701 11704 11711 9799 11712 11486 11713 11714 
1258 1259 1556 1555 1291 1292 1589 1588 9577 11489 11490 11482 9804 11716 11717 11709 9795 9802 11715 11708 11711 11718 9806 11719 11493 11720 11721 
1259 1260 1557 1556 1292 1293 1590 1589 9584 11496 11497 11489 9811 11723 11724 11716 9802 9809 11722 11715 11718 11725 9813 11726 11500 11727 11728 
1260 1261 1558 1557 1293 1294 1591 1590 9591 11503 11504 11496 9818 11730 11731 11723 9809 9816 11729 11722 11725 11732 9820 11733 11507 11734 11735 
1261 1262 1559 1558 1294 1295 1592 1591 9598 11510 11511 11503 9825 11737 11738 11730 9816 9823 11736 11729 11732 11739 9827 11740 11514 11741 11742 
1262 1263 1560 1559 1295 1296 1593 1592 9605 11517 11518 11510 9832 11744 11745 11737 9823 9830 11743 11736 11739 11746 9834 11747 11521 11748 11749 
1263 1264 1561 1560 1296 1297 1594 1593 9612 11524 11525 11517 9839 11751 11752 11744 9830 9837 11750 11743 11746 11753 9841 11754 11528 11755 11756 
1264 1265 1562 1561 1297 1298 1595 1594 9619 11531 11532 11524 9846 11758 11759 11751 9837 9844 11757 11750 11753 11760 9848 11761 11535 11762 11763 
1265 1266 1563 1562 1298 1299 1596 1595 9626 11538 11539 11531 9853 11765 11766 11758 9844 9851 11764 11757 11760 11767 9855 11768 11542 11769 11770 
1266 1267 1564 1563 1299 1300 1597 1596 9633 11545 11546 11538 9860 11772 11773 11765 9851 9858 11771 11764 11767 11774 9862 11775 11549 11776 11777 
1267 1268 1565 1564 1300 1301 1598 1597 9640 11552 11553 11545 9867 11779 11780 11772 9858 9865 11778 11771 11774 11781 9869 11782 11556 11783 11784 
1268 1269 1566 1565 1301 1302 1599 1598 9647 11559 11560 11552 9874 11786 11787 11779 9865 9872 11785 11778 11781 11788 9876 11789 11563 11790 11791 
1269 1270 1567 1566 1302 1303 1600 1599 9654 11566 11567 11559 9881 11793 11794 11786 9872 9879 11792 11785 11788 11795 9883 11796 11570 11797 11798 
1270 1271 1568 1567 1303 1304 1601 1600 9661 11573 11574 11566 9888 11800 11801 11793 9879 9886 11799 11792 11795 11802 9890 11803 11577 11804 11805 
1271 1272 1569 1568 1304 1305 1602 1601 9668 11580 11581 11573 9895 11807 11808 11800 9886 9893 11806 11799 11802 11809 9897 11810 11584 11811 11812 
1272 1273 1570 1569 1305 1306 1603 1602 9675 11587 11588 11580 9902 11814 11815 11807 9893 9900 11813 11806 11809 11816 9904 11817 11591 11818 11819 
1273 1274 1571 1570 1306 1307 1604 1603 9682 11594 11595 11587 9909 11821 11822 11814 9900 9907 11820 11813 11816 11823 9911 11824 11598 11825 11826 
1274 1275 1572 1571 1307 1308 1605 1604 9689 11601 11602 11594 9916 11828 11829 11821 9907 9914 11827 11820 11823 11830 9918 11831 11605 11832 11833 
1275 1276 1573 1572 1308 1309 1606 1605 9696 11608 11609 11601 9923 11835 11836 11828 9914 9921 11834 11827 11830 11837 9925 11838 11612 11839 11840 
1276 1277 1574 1573 1309 1310 1607 1606 9703 11615 11616 11608 9930 11842 11843 11835 9921 9928 11841 11834 11837 11844 9932 11845 11619 11846 11847 
1277 1278 1575 1574 1310 1311 1608 1607 9710 11622 11623 11615 9937 11849 11850 11842 9928 9935 11848 11841 11844 11851 9939 11852 11626 11853 11854 
1278 1279 1576 1575 1311 1312 1609 1608 9717 11629 11630 11622 9944 11856 11857 11849 9935 9942 11855 11848 11851 11858 9946 11859 11633 11860 11861 
1279 1280 1577 1576 1312 1313 1610 1609 9724 11636 11637 11629 9951 11863 11864 11856 9942 9949 11862 11855 11858 11865 9953 11866 11640 11867 11868 
1280 1281 1578 1577 1313 1314 1611 1610 9731 11643 11644 11636 9958 11870 11871 11863 9949 9956 11869 11862 11865 11872 9960 11873 11647 11874 11875 
1281 1282 1579 1578 1314 1315 1612 1611 9738 11650 11651 11643 9965 11877 11878 11870 9956 9963 11876 11869 11872 11879 9967 11880 11654 11881 11882 
1282 1283 1580 1579 1315 1316 1613 1612 9745 11657 11658 11650 9972 11884 11885 11877 9963 9970 11883 11876 11879 11886 9974 11887 11661 11888 11889 
1283 1284 1581 1580 1316 1317 1614 1613 9752 11664 11665 11657 9979 11891 11892 11884 9970 9977 11890 11883 11886 11893 9981 11894 11668 11895 11896 
1284 1285 1582 1581 1317 1318 1615 1614 9759 11671 11672 11664 9986 11898 11899 11891 9977 9984 11897 11890 11893 11900 9988 11901 11675 11902 11903 
1285 1286 1583 1582 1318 1319 1616 1615 9766 11678 11679 11671 9993 11905 11906 11898 9984 9991 11904 11897 11900 11907 9995 11908 11682 11909 11910 
1287 1288 1585 1584 1320 1321 1618 1617 9774 11686 11687 11688 10001 11913 11914 11915 9999 9998 11911 11912 11918 11916 10004 11917 11692 11919 11920 
1288 1289 1586 1585 1321 1322 1619 1618 9783 11695 11696 11686 10010 11922 11923 11913 9998 10008 11921 11911 11916 11924 10012 11925 11699 11926 11927 
1289 1290 1587 1586 1322 1323 1620 1619 9790 11702 11703 11695 10017 11929 11930 11922 10008 10015 11928 11921 11924 11931 10019 11932 11706 11933 11934 
1290 1291 1588 1587 1323 1324 1621 1620 9797 11709 11710 11702 10024 11936 11937 11929 10015 10022 11935 11928 11931 11938 10026 11939 11713 11940 11941 
1291 1292 1589 1588 1324 1325 1622 1621 9804 11716 11717 11709 10031 11943 11944 11936 10022 10029 11942 11935 11938 11945 10033 11946 11720 11947 11948 
1292 1293 1590 1589 1325 1326 1623 1622 9811 11723 11724 11716 10038 11950 11951 11943 10029 10036 11949 11942 11945 11952 10040 11953 11727 11954 11955 
1293 1294 1591 1590 1326 1327 1624 1623 9818 11730 11731 11723 10045 11957 11958 11950 10036 10043 11956 11949 11952 11959 10047 11960 11734 11961 11962 
1294 1295 1592 1591 1327 1328 1625 1624 9825 11737 11738 11730 10052 11964 11965 11957 10043 10050 11963 11956 11959 11966 10054 11967 11741 11968 11969 
1295 1296 1593 1592 1328 1329 1626 1625 9832 11744 11745 11737 10059 11971 11972 11964 10050 10057 11970 11963 11966 11973 10061 11974 11748 11975 11976 
1296 1297 1594 1593 1329 1330 1627 1626 9839 11751 11752 11744 10066 11978 11979 11971 10057 10064 11977 11970 11973 11980 10068 11981 11755 11982 11983 
1297 1298 1595 1594 1330 1331 1628 1627 9846 11758 11759 11751 10073 11985 11986 11978 10064 10071 11984 11977 11980 11987 10075 11988 11762 11989 11990 
1298 1299 1596 1595 1331 1332 1629 1628 9853 11765 11766 11758 10080 11992 11993 11985 10071 10078 11991 11984 11987 11994 10082 11995 11769 11996 11997 
1299 1300 1597 1596 1332 1333 1630 1629 9860 11772 11773 11765 10087 11999 12000 11992 10078 10085 11998 11991 11994 12001 10089 12002 11776 12003 12004 
1300 1301 1598 1597 1333 1334 1631 1630 9867 11779 11780 11772 10094 12006 12007 11999 10085 10092 12005 11998 12001 12008 10096 12009 11783 12010 12011 
1301 1302 1599 1598 1334 1335 1632 1631 9874 11786 11787 11779 10101 12013 12014 12006 10092 10099 12012 12005 12008 12015 10103 12016 11790 12017 12018 
1302 1303 1600 1599 1335 1336 1633 1632 9881 11793 11794 11786 10108 12020 12021 12013 10099 10106 12019 12012 12015 12022 10110 12023 11797 12024 12025 
1303 1304 1601 1600 1336 1337 1634 1633 9888 11800 11801 11793 10115 12027 12028 12020 10106 10113 12026 12019 12022 12029 10117 12030 11804 12031 12032 
1304 1305 1602 1601 1337 1338 1635 1634 9895 11807 11808 11800 10122 12034 12035 12027 10113 10120 12033 12026 12029 12036 10124 12037 11811 12038 12039 
1305 1306 1603 1602 1338 1339 1636 1635 9902 11814 11815 11807 10129 12041 12042 12034 10120 10127 12040 12033 12036 12043 10131 12044 11818 12045 12046 
1306 1307 1604 1603 1339 1340 1637 1636 9909 11821 11822 11814 10136 12048 12049 12041 10127 10134 12047 12040 12043 12050 10138 12051 11825 12052 12053 
1307 1308 1605 1604 1340 1341 1638 1637 9916 11828 11829 11821 10143 12055 12056 12048 10134 10141 12054 12047 12050 12057 10145 12058 11832 12059 12060 
1308 1309 1606 1605 1341 1342 1639 1638 9923 11835 11836 11828 10150 12062 12063 12055 10141 10148 12061 12054 12057 12064 10152 12065 11839 12066 12067 
1309 1310 1607 1606 1342 1343 1640 1639 9930 11842 11843 11835 10157 12069 12070 12062 10148 10155 12068 12061 12064 12071 10159 12072 11846 12073 12074 
1310 1311 1608 1607 1343 1344 1641 1640 9937 11849 11850 11842 10164 12076 12077 12069 10155 10162 12075 12068 12071 12078 10166 12079 11853 12080 12081 
1311 1312 1609 1608 1344 1345 1642 1641 9944 11856 11857 11849 10171 12083 12084 12076 10162 10169 12082 12075 12078 12085 10173 12086 11860 12087 12088 
1312 1313 1610 1609 1345 1346 1643 1642 9951 11863 11864 11856 10178 12090 12091 12083 10169 10176 12089 12082 12085 12092 10180 12093 11867 12094 12095 
1313 1314 1611 1610 1346 1347 1644 1643 9958 11870 11871 11863 10185 12097 12098 12090 10176 10183 12096 12089 12092 12099 10187 12100 11874 12101 12102 
1314 1315 1612 1611 1347 1348 1645 1644 9965 11877 11878 11870 10192 12104 12105 12097 10183 10190 12103 12096 12099 12106 10194 12107 11881 12108 12109 
1315 1316 1613 1612 1348 1349 1646 1645 9972 11884 11885 11877 10199 12111 12112 12104 10190 10197 12110 12103 12106 12113 10201 12114 11888 12115 12116 
1316 1317 1614 1613 1349 1350 1647 1646 9979 11891 11892 11884 10206 12118 12119 12111 10197 10204 12117 12110 12113 12120 10208 12121 11895 12122 12123 
1317 1318 1615 1614 1350 1351 1648 1647 9986 11898 11899 11891 10213 12125 12126 12118 10204 10211 12124 12117 12120 12127 10215 12128 11902 12129 12130 
1318 1319 1616 1615 1351 1352 1649 1648 9993 11905 11906 11898 10220 12132 12133 12125 10211 10218 12131 12124 12127 12134 10222 12135 11909 12136 12137 
1320 1321 1618 1617 1353 1354 1651 1650 10001 11913 11914 11915 10228 12140 12141 12142 10226 10225 12138 12139 12145 12143 10231 12144 11919 12146 12147 
1321 1322 1619 1618 1354 1355 1652 1651 10010 11922 11923 11913 10237 12149 12150 12140 10225 10235 12148 12138 12143 12151 10239 12152 11926 12153 12154 
1322 1323 1620 1619 1355 1356 1653 1652 10017 11929 11930 11922 10244 12156 12157 12149 10235 10242 12155 12148 12151 12158 10246 12159 11933 12160 12161 
1323 1324 1621 1620 1356 1357 1654 1653 10024 11936 11937 11929 10251 12163 12164 12156 10242 10249 12162 12155 12158 12165 10253 12166 11940 12167 12168 
1324 1325 1622 1621 1357 1358 1655 1654 10031 11943 11944 11936 10258 12170 12171 12163 10249 10256 12169 12162 12165 12172 10260 12173 11947 12174 12175 
1325 1326 1623 1622 1358 1359 1656 1655 10038 11950 11951 11943 10265 12177 12178 12170 10256 10263 12176 12169 12172 12179 10267 12180 11954 12181 12182 
1326 1327 1624 1623 1359 1360 1657 1656 10045 11957 11958 11950 10272 12184 12185 12177 10263 10270 12183 12176 12179 12186 10274 12187 11961 12188 12189 
1327 1328 1625 1624 1360 1361 1658 1657 10052 11964 11965 11957 10279 12191 12192 12184 10270 10277 12190 12183 12186 12193 10281 12194 11968 12195 12196 
1328 1329 1626 1625 1361 1362 1659 1658 10059 11971 11972 11964 10286 12198 12199 12191 10277 10284 12197 12190 12193 12200 10288 12201 11975 12202 12203 
1329 1330 1627 1626 1362 1363 1660 1659 10066 11978 11979 11971 10293 12205 12206 12198 10284 10291 12204 12197 12200 12207 10295 12208 11982 12209 12210 
1330 1331 1628 1627 1363 1364 1661 1660 10073 11985 11986 11978 10300 12212 12213 12205 10291 10298 12211 12204 12207 12214 10302 12215 11989 12216 12217 
1331 1332 1629 1628 1364 1365 1662 1661 10080 11992 11993 11985 10307 12219 12220 12212 10298 10305 12218 12211 12214 12221 10309 12222 11996 12223 12224 
1332 1333 1630 1629 1365 1366 1663 1662 10087 11999 12000 11992 10314 12226 12227 12219 10305 10312 12225 12218 12221 12228 10316 12229 12003 12230 12231 
1333 1334 1631 1630 1366 1367 1664 1663 10094 12006 12007 11999 10321 12233 12234 12226 10312 10319 12232 12225 12228 12235 10323 12236 12010 12237 12238 
1334 1335 1632 1631 1367 1368 1665 1664 10101 12013 12014 12006 10328 12240 12241 12233 10319 10326 12239 12232 12235 12242 10330 12243 12017 12244 12245 
1335 1336 1633 1632 1368 1369 1666 1665 10108 12020 12021 12013 10335 12247 12248 12240 10326 10333 12246 12239 12242 12249 10337 12250 12024 12251 12252 
1336 1337 1634 1633 1369 1370 1667 1666 10115 12027 12028 12020 10342 12254 12255 12247 10333 10340 12253 12246 12249 12256 10344 12257 12031 12258 12259 
1337 1338 1635 1634 1370 1371 1668 1667 10122 12034 12035 12027 10349 12261 12262 12254 10340 10347 12260 12253 12256 12263 10351 12264 12038 12265 12266 
1338 1339 1636 1635 1371 1372 1669 1668 10129 12041 12042 12034 10356 12268 12269 12261 10347 10354 12267 12260 12263 12270 10358 12271 12045 12272 12273 
1339 1340 1637 1636 1372 1373 1670 1669 10136 12048 12049 12041 10363 12275 12276 12268 10354 10361 12274 12267 12270 12277 10365 12278 12052 12279 12280 
1340 1341 1638 1637 1373 1374 1671 1670 10143 12055 12056 12048 10370 12282 12283 12275 10361 10368 12281 12274 12277 12284 10372 12285 12059 12286 12287 
1341 1342 1639 1638 1374 1375 1672 1671 10150 12062 12063 12055 10377 12289 12290 12282 10368 10375 12288 12281 12284 12291 10379 12292 12066 12293 12294 
1342 1343 1640 1639 1375 1376 1673 1672 10157 12069 12070 12062 10384 12296 12297 12289 10375 10382 12295 12288 12291 12298 10386 12299 12073 12300 12301 
1343 1344 1641 1640 1376 1377 1674 1673 10164 12076 12077 12069 10391 12303 12304 12296 10382 10389 12302 12295 12298 12305 10393 12306 12080 12307 12308 
1344 1345 1642 1641 1377 1378 1675 1674 10171 12083 12084 12076 10398 12310 12311 12303 10389 10396 12309 12302 12305 12312 10400 12313 12087 12314 12315 
1345 1346 1643 1642 1378 1379 1676 1675 10178 12090 12091 12083 10405 12317 12318 12310 10396 10403 12316 12309 12312 12319 10407 12320 12094 12321 12322 
1346 1347 1644 1643 1379 1380 1677 1676 10185 12097 12098 12090 10412 12324 12325 12317 10403 10410 12323 12316 12319 12326 10414 12327 12101 12328 12329 
1347 1348 1645 1644 1380 1381 1678 1677 10192 12104 12105 12097 10419 12331 12332 12324 10410 10417 12330 12323 12326 12333 10421 12334 12108 12335 12336 
1348 1349 1646 1645 1381 1382 1679 1678 10199 12111 12112 12104 10426 12338 12339 12331 10417 10424 12337 12330 12333 12340 10428 12341 12115 12342 12343 
1349 1350 1647 1646 1382 1383 1680 1679 10206 12118 12119 12111 10433 12345 12346 12338 10424 10431 12344 12337 12340 12347 10435 12348 12122 12349 12350 
1350 1351 1648 1647 1383 1384 1681 1680 10213 12125 12126 12118 10440 12352 12353 12345 10431 10438 12351 12344 12347 12354 10442 12355 12129 12356 12357 
1351 1352 1649 1648 1384 1385 1682 1681 10220 12132 12133 12125 10447 12359 12360 12352 10438 10445 12358 12351 12354 12361 10449 12362 12136 12363 12364 
1353 1354 1651 1650 1386 1387 1684 1683 10228 12140 12141 12142 10455 12367 12368 12369 10453 10452 12365 12366 12372 12370 10458 12371 12146 12373 12374 
1354 1355 1652 1651 1387 1388 1685 1684 10237 12149 12150 12140 10464 12376 12377 12367 10452 10462 12375 12365 12370 12378 10466 12379 12153 12380 12381 
1355 1356 1653 1652 1388 1389 1686 1685 10244 12156 12157 12149 10471 12383 12384 12376 10462 10469 12382 12375 12378 12385 10473 12386 12160 12387 12388 
1356 1357 1654 1653 1389 1390 1687 1686 10251 12163 12164 12156 10478 12390 12391 12383 10469 10476 12389 12382 12385 12392 10480 12393 12167 12394 12395 
1357 1358 1655 1654 1390 1391 1688 1687 10258 12170 12171 12163 10485 12397 12398 12390 10476 10483 12396 12389 12392 12399 10487 12400 12174 12401 12402 
1358 1359 1656 1655 1391 1392 1689 1688 10265 12177 12178 12170 10492 12404 12405 12397 10483 10490 12403 12396 12399 12406 10494 12407 12181 12408 12409 
1359 1360 1657 1656 1392 1393 1690 1689 10272 12184 12185 12177 10499 12411 12412 12404 10490 10497 12410 12403 12406 12413 10501 12414 12188 12415 12416 
1360 1361 1658 1657 1393 1394 1691 1690 10279 12191 12192 12184 10506 12418 12419 12411 10497 10504 12417 12410 12413 12420 10508 12421 12195 12422 12423 
1361 1362 1659 1658 1394 1395 1692 1691 10286 12198 12199 12191 10513 12425 12426 12418 10504 10511 12424 12417 12420 12427 10515 12428 12202 12429 12430 
1362 1363 1660 1659 1395 1396 1693 1692 10293 12205 12206 12198 10520 12432 12433 12425 10511 10518 12431 12424 12427 12434 10522 12435 12209 12436 12437 
1363 1364 1661 1660 1396 1397 1694 1693 10300 12212 12213 12205 10527 12439 12440 12432 10518 10525 12438 12431 12434 12441 10529 12442 12216 12443 12444 
1364 1365 1662 1661 1397 1398 1695 1694 10307 12219 12220 12212 10534 12446 12447 12439 10525 10532 12445 12438 12441 12448 10536 12449 12223 12450 12451 
1365 1366 1663 1662 1398 1399 1696 1695 10314 12226 12227 12219 10541 12453 12454 12446 10532 10539 12452 12445 12448 12455 10543 12456 12230 12457 12458 
1366 1367 1664 1663 1399 1400 1697 1696 10321 12233 12234 12226 10548 12460 12461 12453 10539 10546 12459 12452 12455 12462 10550 12463 12237 12464 12465 
1367 1368 1665 1664 1400 1401 1698 1697 10328 12240 12241 12233 10555 12467 12468 12460 10546 10553 12466 12459 12462 12469 10557 12470 12244 12471 12472 
1368 1369 1666 1665 1401 1402 1699 1698 10335 12247 12248 12240 10562 12474 12475 12467 10553 10560 12473 12466 12469 12476 10564 12477 12251 12478 12479 
1369 1370 1667 1666 1402 1403 1700 1699 10342 12254 12255 12247 10569 12481 12482 12474 10560 10567 12480 12473 12476 12483 10571 12484 12258 12485 12486 
1370 1371 1668 1667 1403 1404 1701 1700 10349 12261 12262 12254 10576 12488 12489 12481 10567 10574 12487 12480 12483 12490 10578 12491 12265 12492 12493 
1371 1372 1669 1668 1404 1405 1702 1701 10356 12268 12269 12261 10583 12495 12496 12488 10574 10581 12494 12487 12490 12497 10585 12498 12272 12499 12500 
1372 1373 1670 1669 1405 1406 1703 1702 10363 12275 12276 12268 10590 12502 12503 12495 10581 10588 12501 12494 12497 12504 10592 12505 12279 12506 12507 
1373 1374 1671 1670 1406 1407 1704 1703 10370 12282 12283 12275 10597 12509 12510 12502 10588 10595 12508 12501 12504 12511 10599 12512 12286 12513 12514 
1374 1375 1672 1671 1407 1408 1705 1704 10377 12289 12290 12282 10604 12516 12517 12509 10595 10602 12515 12508 12511 12518 10606 12519 12293 12520 12521 
1375 1376 1673 1672 1408 1409 1706 1705 10384 12296 12297 12289 10611 12523 12524 12516 10602 10609 12522 12515 12518 12525 10613 12526 12300 12527 12528 
1376 1377 1674 1673 1409 1410 1707 1706 10391 12303 12304 12296 10618 12530 12531 12523 10609 10616 12529 12522 12525 12532 10620 12533 12307 12534 12535 
1377 1378 1675 1674 1410 1411 1708 1707 10398 12310 12311 12303 10625 12537 12538 12530 10616 10623 12536 12529 12532 12539 10627 12540 12314 12541 12542 
1378 1379 1676 1675 1411 1412 1709 1708 10405 12317 12318 12310 10632 12544 12545 12537 10623 10630 12543 12536 12539 12546 10634 12547 12321 12548 12549 
1379 1380 1677 1676 1412 1413 1710 1709 10412 12324 12325 12317 10639 12551 12552 12544 10630 10637 12550 12543 12546 12553 10641 12554 12328 12555 12556 
1380 1381 1678 1677 1413 1414 1711 1710 10419 12331 12332 12324 10646 12558 12559 12551 10637 10644 12557 12550 12553 12560 10648 12561 12335 12562 12563 
1381 1382 1679 1678 1414 1415 1712 1711 10426 12338 12339 12331 10653 12565 12566 12558 10644 10651 12564 12557 12560 12567 10655 12568 12342 12569 12570 
1382 1383 1680 1679 1415 1416 1713 1712 10433 12345 12346 12338 10660 12572 12573 12565 10651 10658 12571 12564 12567 12574 10662 12575 12349 12576 12577 
1383 1384 1681 1680 1416 1417 1714 1713 10440 12352 12353 12345 10667 12579 12580 12572 10658 10665 12578 12571 12574 12581 10669 12582 12356 12583 12584 
1384 1385 1682 1681 1417 1418 1715 1714 10447 12359 12360 12352 10674 12586 12587 12579 10665 10672 12585 12578 12581 12588 10676 12589 12363 12590 12591 
1386 1387 1684 1683 1419 1420 1717 1716 10455 12367 12368 12369 10682 12594 12595 12596 10680 10679 12592 12593 12599 12597 10685 12598 12373 12600 12601 
1387 1388 1685 1684 1420 1421 1718 1717 10464 12376 12377 12367 10691 12603 12604 12594 10679 10689 12602 12592 12597 12605 10693 12606 12380 12607 12608 
1388 1389 1686 1685 1421 1422 1719 1718 10471 12383 12384 12376 10698 12610 12611 12603 10689 10696 12609 12602 12605 12612 10700 12613 12387 12614 12615 
1389 1390 1687 1686 1422 1423 1720 1719 10478 12390 12391 12383 10705 12617 12618 12610 10696 10703 12616 12609 12612 12619 10707 12620 12394 12621 12622 
1390 1391 1688 1687 1423 1424 1721 1720 10485 12397 12398 12390 10712 12624 12625 12617 10703 10710 12623 12616 12619 12626 10714 12627 12401 12628 12629 
1391 1392 1689 1688 1424 1425 1722 1721 10492 12404 12405 12397 10719 12631 12632 12624 10710 10717 12630 12623 12626 12633 10721 12634 12408 12635 12636 
1392 1393 1690 1689 1425 1426 1723 1722 10499 12411 12412 12404 10726 12638 12639 12631 10717 10724 12637 12630 12633 12640 10728 12641 12415 12642 12643 
1393 1394 1691 1690 1426 1427 1724 1723 10506 12418 12419 12411 10733 12645 12646 12638 10724 10731 12644 12637 12640 12647 10735 12648 12422 12649 12650 
1394 1395 1692 1691 1427 1428 1725 1724 10513 12425 12426 12418 10740 12652 12653 12645 10731 10738 12651 12644 12647 12654 10742 12655 12429 12656 12657 
1395 1396 1693 1692 1428 1429 1726 1725 10520 12432 12433 12425 10747 12659 12660 12652 10738 10745 12658 12651 12654 12661 10749 12662 12436 12663 12664 
1396 1397 1694 1693 1429 1430 1727 1726 10527 12439 12440 12432 10754 12666 12667 12659 10745 10752 12665 12658 12661 12668 10756 12669 12443 12670 12671 
1397 1398 1695 1694 1430 1431 1728 1727 10534 12446 12447 12439 10761 12673 12674 12666 10752 10759 12672 12665 12668 12675 10763 12676 12450 12677 12678 
1398 1399 1696 1695 1431 1432 1729 1728 10541 12453 12454 12446 10768 12680 12681 12673 10759 10766 12679 12672 12675 12682 10770 12683 12457 12684 12685 
1399 1400 1697 1696 1432 1433 1730 1729 10548 12460 12461 12453 10775 12687 12688 12680 10766 10773 12686 12679 12682 12689 10777 12690 12464 12691 12692 
1400 1401 1698 1697 1433 1434 1731 1730 10555 12467 12468 12460 10782 12694 12695 12687 10773 10780 12693 12686 12689 12696 10784 12697 12471 12698 12699 
1401 1402 1699 1698 1434 1435 1732 1731 10562 12474 12475 12467 10789 12701 12702 12694 10780 10787 12700 12693 12696 12703 10791 12704 12478 12705 12706 
1402 1403 1700 1699 1435 1436 1733 1732 10569 12481 12482 12474 10796 12708 12709 12701 10787 10794 12707 12700 12703 12710 10798 12711 12485 12712 12713 
1403 1404 1701 1700 1436 1437 1734 1733 10576 12488 12489 12481 10803 12715 12716 12708 10794 10801 12714 12707 12710 12717 10805 12718 12492 12719 12720 
1404 1405 1702 1701 1437 1438 1735 1734 10583 12495 12496 12488 10810 12722 12723 12715 10801 10808 12721 12714 12717 12724 10812 12725 12499 12726 12727 
1405 1406 1703 1702 1438 1439 1736 1735 10590 12502 12503 12495 10817 12729 12730 12722 10808 10815 12728 12721 12724 12731 10819 12732 12506 12733 12734 
1406 1407 1704 1703 1439 1440 1737 1736 10597 12509 12510 12502 10824 12736 12737 12729 10815 10822 12735 12728 12731 12738 10826 12739 12513 12740 12741 
1407 1408 1705 1704 1440 1441 1738 1737 10604 12516 12517 12509 10831 12743 12744 12736 10822 10829 12742 12735 12738 12745 10833 12746 12520 12747 12748 
1408 1409 1706 1705 1441 1442 1739 1738 10611 12523 12524 12516 10838 12750 12751 12743 10829 10836 12749 12742 12745 12752 10840 12753 12527 12754 12755 
1409 1410 1707 1706 1442 1443 1740 1739 10618 12530 12531 12523 10845 12757 12758 12750 10836 10843 12756 12749 12752 12759 10847 12760 12534 12761 12762 
1410 1411 1708 1707 1443 1444 1741 1740 10625 12537 12538 12530 10852 12764 12765 12757 10843 10850 12763 12756 12759 12766 10854 12767 12541 12768 12769 
1411 1412 1709 1708 1444 1445 1742 1741 10632 12544 12545 12537 10859 12771 12772 12764 10850 10857 12770 12763 12766 12773 10861 12774 12548 12775 12776 
1412 1413 1710 1709 1445 1446 1743 1742 10639 12551 12552 12544 10866 12778 12779 12771 10857 10864 12777 12770 12773 12780 10868 12781 12555 12782 12783 
1413 1414 1711 1710 1446 1447 1744 1743 10646 12558 12559 12551 10873 12785 12786 12778 10864 10871 12784 12777 12780 12787 10875 12788 12562 12789 12790 
1414 1415 1712 1711 1447 1448 1745 1744 10653 12565 12566 12558 10880 12792 12793 12785 10871 10878 12791 12784 12787 12794 10882 12795 12569 12796 12797 
1415 1416 1713 1712 1448 1449 1746 1745 10660 12572 12573 12565 10887 12799 12800 12792 10878 10885 12798 12791 12794 12801 10889 12802 12576 12803 12804 
1416 1417 1714 1713 1449 1450 1747 1746 10667 12579 12580 12572 10894 12806 12807 12799 10885 10892 12805 12798 12801 12808 10896 12809 12583 12810 12811 
1417 1418 1715 1714 1450 1451 1748 1747 10674 12586 12587 12579 10901 12813 12814 12806 10892 10899 12812 12805 12808 12815 10903 12816 12590 12817 12818 
1419 1420 1717 1716 1452 1453 1750 1749 10682 12594 12595 12596 10909 12821 12822 12823 10907 10906 12819 12820 12826 12824 10912 12825 12600 12827 12828 
1420 1421 1718 1717 1453 1454 1751 1750 10691 12603 12604 12594 10918 12830 12831 12821 10906 10916 12829 12819 12824 12832 10920 12833 12607 12834 12835 
1421 1422 1719 1718 1454 1455 1752 1751 10698 12610 12611 12603 10925 12837 12838 12830 10916 10923 12836 12829 12832 12839 10927 12840 12614 12841 12842 
1422 1423 1720 1719 1455 1456 1753 1752 10705 12617 12618 12610 10932 12844 12845 12837 10923 10930 12843 12836 12839 12846 10934 12847 12621 12848 12849 
1423 1424 1721 1720 1456 1457 1754 1753 10712 12624 12625 12617 10939 12851 12852 12844 10930 10937 12850 12843 12846 12853 10941 12854 12628 12855 12856 
1424 1425 1722 1721 1457 1458 1755 1754 10719 12631 12632 12624 10946 12858 12859 12851 10937 10944 12857 12850 12853 12860 10948 12861 12635 12862 12863 
1425 1426 1723 1722 1458 1459 1756 1755 10726 12638 12639 12631 10953 12865 12866 12858 10944 10951 12864 12857 12860 12867 10955 12868 12642 12869 12870 
1426 1427 1724 1723 1459 1460 1757 1756 10733 12645 12646 12638 10960 12872 12873 12865 10951 10958 12871 12864 12867 12874 10962 12875 12649 12876 12877 
1427 1428 1725 1724 1460 1461 1758 1757 10740 12652 12653 12645 10967 12879 12880 12872 10958 10965 12878 12871 12874 12881 10969 12882 12656 12883 12884 
1428 1429 1726 1725 1461 1462 1759 1758 10747 12659 12660 12652 10974 12886 12887 12879 10965 10972 12885 12878 12881 12888 10976 12889 12663 12890 12891 
1429 1430 1727 1726 1462 1463 1760 1759 10754 12666 12667 12659 10981 12893 12894 12886 10972 10979 12892 12885 12888 12895 10983 12896 12670 12897 12898 
1430 1431 1728 1727 1463 1464 1761 1760 10761 12673 12674 12666 10988 12900 12901 12893 10979 10986 12899 12892 12895 12902 10990 12903 12677 12904 12905 
1431 1432 1729 1728 1464 1465 1762 1761 10768 12680 12681 12673 10995 12907 12908 12900 10986 10993 12906 12899 12902 12909 10997 12910 12684 12911 12912 
1432 1433 1730 1729 1465 1466 1763 1762 10775 12687 12688 12680 11002 12914 12915 12907 10993 11000 12913 12906 12909 12916 11004 12917 12691 12918 12919 
1433 1434 1731 1730 1466 1467 1764 1763 10782 12694 12695 12687 11009 12921 12922 12914 11000 11007 12920 12913 12916 12923 11011 12924 12698 12925 12926 
1434 1435 1732 1731 1467 1468 1765 1764 10789 12701 12702 12694 11016 12928 12929 12921 11007 11014 12927 12920 12923 12930 11018 12931 12705 12932 12933 
1435 1436 1733 1732 1468 1469 1766 1765 10796 12708 12709 12701 11023 12935 12936 12928 11014 11021 12934 12927 12930 12937 11025 12938 12712 12939 12940 
1436 1437 1734 1733 1469 1470 1767 1766 10803 12715 12716 12708 11030 12942 12943 12935 11021 11028 12941 12934 12937 12944 11032 12945 12719 12946 12947 
1437 1438 1735 1734 1470 1471 1768 1767 10810 12722 12723 12715 11037 12949 12950 12942 11028 11035 12948 12941 12944 12951 11039 12952 12726 12953 12954 
1438 1439 1736 1735 1471 1472 1769 1768 10817 12729 12730 12722 11044 12956 12957 12949 11035 11042 12955 12948 12951 12958 11046 12959 12733 12960 12961 
1439 1440 1737 1736 1472 1473 1770 1769 10824 12736 12737 12729 11051 12963 12964 12956 11042 11049 12962 12955 12958 12965 11053 12966 12740 12967 12968 
1440 1441 1738 1737 1473 1474 1771 1770 10831 12743 12744 12736 11058 12970 12971 12963 11049 11056 12969 12962 12965 12972 11060 12973 12747 12974 12975 
1441 1442 1739 1738 1474 1475 1772 1771 10838 12750 12751 12743 11065 12977 12978 12970 11056 11063 12976 12969 12972 12979 11067 12980 12754 12981 12982 
1442 1443 1740 1739 1475 1476 1773 1772 10845 12757 12758 12750 11072 12984 12985 12977 11063 11070 12983 12976 12979 12986 11074 12987 12761 12988 12989 
1443 1444 1741 1740 1476 1477 1774 1773 10852 12764 12765 12757 11079 12991 12992 12984 11070 11077 12990 12983 12986 12993 11081 12994 12768 12995 12996 
1444 1445 1742 1741 1477 1478 1775 1774 10859 12771 12772 12764 11086 12998 12999 12991 11077 11084 12997 12990 12993 13000 11088 13001 12775 13002 13003 
1445 1446 1743 1742 1478 1479 1776 1775 10866 12778 12779 12771 11093 13005 13006 12998 11084 11091 13004 12997 13000 13007 11095 13008 12782 13009 13010 
1446 1447 1744 1743 1479 1480 1777 1776 10873 12785 12786 12778 11100 13012 13013 13005 11091 11098 13011 13004 13007 13014 11102 13015 12789 13016 13017 
1447 1448 1745 1744 1480 1481 1778 1777 10880 12792 12793 12785 11107 13019 13020 13012 11098 11105 13018 13011 13014 13021 11109 13022 12796 13023 13024 
1448 1449 1746 1745 1481 1482 1779 1778 10887 12799 12800 12792 11114 13026 13027 13019 11105 11112 13025 13018 13021 13028 11116 13029 12803 13030 13031 
1449 1450 1747 1746 1482 1483 1780 1779 10894 12806 12807 12799 11121 13033 13034 13026 11112 11119 13032 13025 13028 13035 11123 13036 12810 13037 13038 
1450 1451 1748 1747 1483 1484 1781 1780 10901 12813 12814 12806 11128 13040 13041 13033 11119 11126 13039 13032 13035 13042 11130 13043 12817 13044 13045 
1485 1486 1783 1782 1518 1519 1816 1815 11134 13046 13047 13048 11139 13051 13052 13053 11137 11136 13049 13050 13057 13055 11143 13056 13054 13058 13059 
1486 1487 1784 1783 1519 1520 1817 1816 11148 13060 13061 13046 11151 13063 13064 13051 11136 11149 13062 13049 13055 13066 11154 13067 13065 13068 13069 
1487 1488 1785 1784 1520 1521 1818 1817 11158 13070 13071 13060 11161 13073 13074 13063 11149 11159 13072 13062 13066 13076 11164 13077 13075 13078 13079 
1488 1489 1786 1785 1521 1522 1819 1818 11168 13080 13081 13070 11171 13083 13084 13073 11159 11169 13082 13072 13076 13086 11174 13087 13085 13088 13089 
1489 1490 1787 1786 1522 1523 1820 1819 11178 13090 13091 13080 11181 13093 13094 13083 11169 11179 13092 13082 13086 13096 11184 13097 13095 13098 13099 
1490 1491 1788 1787 1523 1524 1821 1820 11188 13100 13101 13090 11191 13103 13104 13093 11179 11189 13102 13092 13096 13106 11194 13107 13105 13108 13109 
1491 1492 1789 1788 1524 1525 1822 1821 11198 13110 13111 13100 11201 13113 13114 13103 11189 11199 13112 13102 13106 13116 11204 13117 13115 13118 13119 
1492 1493 1790 1789 1525 1526 1823 1822 11208 13120 13121 13110 11211 13123 13124 13113 11199 11209 13122 13112 13116 13126 11214 13127 13125 13128 13129 
1493 1494 1791 1790 1526 1527 1824 1823 11218 13130 13131 13120 11221 13133 13134 13123 11209 11219 13132 13122 13126 13136 11224 13137 13135 13138 13139 
1494 1495 1792 1791 1527 1528 1825 1824 11228 13140 13141 13130 11231 13143 13144 13133 11219 11229 13142 13132 13136 13146 11234 13147 13145 13148 13149 
1495 1496 1793 1792 1528 1529 1826 1825 11238 13150 13151 13140 11241 13153 13154 13143 11229 11239 13152 13142 13146 13156 11244 13157 13155 13158 13159 
1496 1497 1794 1793 1529 1530 1827 1826 11248 13160 13161 13150 11251 13163 13164 13153 11239 11249 13162 13152 13156 13166 11254 13167 13165 13168 13169 
1497 1498 1795 1794 1530 1531 1828 1827 11258 13170 13171 13160 11261 13173 13174 13163 11249 11259 13172 13162 13166 13176 11264 13177 13175 13178 13179 
1498 1499 1796 1795 1531 1532 1829 1828 11268 13180 13181 13170 11271 13183 13184 13173 11259 11269 13182 13172 13176 13186 11274 13187 13185 13188 13189 
1499 1500 1797 1796 1532 1533 1830 1829 11278 13190 13191 13180 11281 13193 13194 13183 11269 11279 13192 13182 13186 13196 11284 13197 13195 13198 13199 
1500 1501 1798 1797 1533 1534 1831 1830 11288 13200 13201 13190 11291 13203 13204 13193 11279 11289 13202 13192 13196 13206 11294 13207 13205 13208 13209 
1501 1502 1799 1798 1534 1535 1832 1831 11298 13210 13211 13200 11301 13213 13214 13203 11289 11299 13212 13202 13206 13216 11304 13217 13215 13218 13219 
1502 1503 1800 1799 1535 1536 1833 1832 11308 13220 13221 13210 11311 13223 13224 13213 11299 11309 13222 13212 13216 13226 11314 13227 13225 13228 13229 
1503 1504 1801 1800 1536 1537 1834 1833 11318 13230 13231 13220 11321 13233 13234 13223 11309 11319 13232 13222 13226 13236 11324 13237 13235 13238 13239 
1504 1505 1802 1801 1537 1538 1835 1834 11328 13240 13241 13230 11331 13243 13244 13233 11319 11329 13242 13232 13236 13246 11334 13247 13245 13248 13249 
1505 1506 1803 1802 1538 1539 1836 1835 11338 13250 13251 13240 11341 13253 13254 13243 11329 11339 13252 13242 13246 13256 11344 13257 13255 13258 13259 
1506 1507 1804 1803 1539 1540 1837 1836 11348 13260 13261 13250 11351 13263 13264 13253 11339 11349 13262 13252 13256 13266 11354 13267 13265 13268 13269 
1507 1508 1805 1804 1540 1541 1838 1837 11358 13270 13271 13260 11361 13273 13274 13263 11349 11359 13272 13262 13266 13276 11364 13277 13275 13278 13279 
1508 1509 1806 1805 1541 1542 1839 1838 11368 13280 13281 13270 11371 13283 13284 13273 11359 11369 13282 13272 13276 13286 11374 13287 13285 13288 13289 
1509 1510 1807 1806 1542 1543 1840 1839 11378 13290 13291 13280 11381 13293 13294 13283 11369 11379 13292 13282 13286 13296 11384 13297 13295 13298 13299 
1510 1511 1808 1807 1543 1544 1841 1840 11388 13300 13301 13290 11391 13303 13304 13293 11379 11389 13302 13292 13296 13306 11394 13307 13305 13308 13309 
1511 1512 1809 1808 1544 1545 1842 1841 11398 13310 13311 13300 11401 13313 13314 13303 11389 11399 13312 13302 13306 13316 11404 13317 13315 13318 13319 
1512 1513 1810 1809 1545 1546 1843 1842 11408 13320 13321 13310 11411 13323 13324 13313 11399 11409 13322 13312 13316 13326 11414 13327 13325 13328 13329 
1513 1514 1811 1810 1546 1547 1844 1843 11418 13330 13331 13320 11421 13333 13334 13323 11409 11419 13332 13322 13326 13336 11424 13337 13335 13338 13339 
1514 1515 1812 1811 1547 1548 1845 1844 11428 13340 13341 13330 11431 13343 13344 13333 11419 11429 13342 13332 13336 13346 11434 13347 13345 13348 13349 
1515 1516 1813 1812 1548 1549 1846 1845 11438 13350 13351 13340 11441 13353 13354 13343 11429 11439 13352 13342 13346 13356 11444 13357 13355 13358 13359 
1516 1517 1814 1813 1549 1550 1847 1846 11448 13360 13361 13350 11451 13363 13364 13353 11439 11449 13362 13352 13356 13366 11454 13367 13365 13368 13369 
1518 1519 1816 1815 1551 1552 1849 1848 11139 13051 13052 13053 11460 13372 13373 13374 11458 11457 13370 13371 13377 13375 11463 13376 13058 13378 13379 
1519 1520 1817 1816 1552 1553 1850 1849 11151 13063 13064 13051 11469 13381 13382 13372 11457 11467 13380 13370 13375 13383 11471 13384 13068 13385 13386 
1520 1521 1818 1817 1553 1554 1851 1850 11161 13073 13074 13063 11476 13388 13389 13381 11467 11474 13387 13380 13383 13390 11478 13391 13078 13392 13393 
1521 1522 1819 1818 1554 1555 1852 1851 11171 13083 13084 13073 11483 13395 13396 13388 11474 11481 13394 13387 13390 13397 11485 13398 13088 13399 13400 
1522 1523 1820 1819 1555 1556 1853 1852 11181 13093 13094 13083 11490 13402 13403 13395 11481 11488 13401 13394 13397 13404 11492 13405 13098 13406 13407 
1523 1524 1821 1820 1556 1557 1854 1853 11191 13103 13104 13093 11497 13409 13410 13402 11488 11495 13408 13401 13404 13411 11499 13412 13108 13413 13414 
1524 1525 1822 1821 1557 1558 1855 1854 11201 13113 13114 13103 11504 13416 13417 13409 11495 11502 13415 13408 13411 13418 11506 13419 13118 13420 13421 
1525 1526 1823 1822 1558 1559 1856 1855 11211 13123 13124 13113 11511 13423 13424 13416 11502 11509 13422 13415 13418 13425 11513 13426 13128 13427 13428 
1526 1527 1824 1823 1559 1560 1857 1856 11221 13133 13134 13123 11518 13430 13431 13423 11509 11516 13429 13422 13425 13432 11520 13433 13138 13434 13435 
1527 1528 1825 1824 1560 1561 1858 1857 11231 13143 13144 13133 11525 13437 13438 13430 11516 11523 13436 13429 13432 13439 11527 13440 13148 13441 13442 
1528 1529 1826 1825 1561 1562 1859 1858 11241 13153 13154 13143 11532 13444 13445 13437 11523 11530 13443 13436 13439 13446 11534 13447 13158 13448 13449 
1529 1530 1827 1826 1562 1563 1860 1859 11251 13163 13164 13153 11539 13451 13452 13444 11530 11537 13450 13443 13446 13453 11541 13454 13168 13455 13456 
1530 1531 1828 1827 1563 1564 1861 1860 11261 13173 13174 13163 11546 13458 13459 13451 11537 11544 13457 13450 13453 13460 11548 13461 13178 13462 13463 
1531 1532 1829 1828 1564 1565 1862 1861 11271 13183 13184 13173 11553 13465 13466 13458 11544 11551 13464 13457 13460 13467 11555 13468 13188 13469 13470 
1532 1533 1830 1829 1565 1566 1863 1862 11281 13193 13194 13183 11560 13472 13473 13465 11551 11558 13471 13464 13467 13474 11562 13475 13198 13476 13477 
1533 1534 1831 1830 1566 1567 1864 1863 11291 13203 13204 13193 11567 13479 13480 13472 11558 11565 13478 13471 13474 13481 11569 13482 13208 13483 13484 
1534 1535 1832 1831 1567 1568 1865 1864 11301 13213 13214 13203 11574 13486 13487 13479 11565 11572 13485 13478 13481 13488 11576 13489 13218 13490 13491 
1535 1536 1833 1832 1568 1569 1866 1865 11311 13223 13224 13213 11581 13493 13494 13486 11572 11579 13492 13485 13488 13495 11583 13496 13228 13497 13498 
1536 1537 1834 1833 1569 1570 1867 1866 11321 13233 13234 13223 11588 13500 13501 13493 11579 11586 13499 13492 13495 13502 11590 13503 13238 13504 13505 
1537 1538 1835 1834 1570 1571 1868 1867 11331 13243 13244 13233 11595 13507 13508 13500 11586 11593 13506 13499 13502 13509 11597 13510 13248 13511 13512 
1538 1539 1836 1835 1571 1572 1869 1868 11341 13253 13254 13243 11602 13514 13515 13507 11593 11600 13513 13506 13509 13516 11604 13517 13258 13518 13519 
1539 1540 1837 1836 1572 1573 1870 1869 11351 13263 13264 13253 11609 13521 13522 13514 11600 11607 13520 13513 13516 13523 11611 13524 13268 13525 13526 
1540 1541 1838 1837 1573 1574 1871 1870 11361 13273 13274 13263 11616 13528 13529 13521 11607 11614 13527 13520 13523 13530 11618 13531 13278 13532 13533 
1541 1542 1839 1838 1574 1575 1872 1871 11371 13283 13284 13273 11623 13535 13536 13528 11614 11621 13534 13527 13530 13537 11625 13538 13288 13539 13540 
1542 1543 1840 1839 1575 1576 1873 1872 11381 13293 13294 13283 11630 13542 13543 13535 11621 11628 13541 13534 13537 13544 11632 13545 13298 13546 13547 
1543 1544 1841 1840 1576 1577 1874 1873 11391 13303 13304 13293 11637 13549 13550 13542 11628 11635 13548 13541 13544 13551 11639 13552 13308 13553 13554 
1544 1545 1842 1841 1577 1578 1875 1874 11401 13313 13314 13303 11644 13556 13557 13549 11635 11642 13555 13548 13551 13558 11646 13559 13318 13560 13561 
1545 1546 1843 1842 1578 1579 1876 1875 11411 13323 13324 13313 11651 13563 13564 13556 11642 11649 13562 13555 13558 13565 11653 13566 13328 13567 13568 
1546 1547 1844 1843 1579 1580 1877 1876 11421 13333 13334 13323 11658 13570 13571 13563 11649 11656 13569 13562 13565 13572 11660 13573 13338 13574 13575 
1547 1548 1845 1844 1580 1581 1878 1877 11431 13343 13344 13333 11665 13577 13578 13570 11656 11663 13576 13569 13572 13579 11667 13580 13348 13581 13582 
1548 1549 1846 1845 1581 1582 1879 1878 11441 13353 13354 13343 11672 13584 13585 13577 11663 11670 13583 13576 13579 13586 11674 13587 13358 13588 13589 
1549 1550 1847 1846 1582 1583 1880 1879 11451 13363 13364 13353 11679 13591 13592 13584 11670 11677 13590 13583 13586 13593 11681 13594 13368 13595 13596 
1551 1552 1849 1848 1584 1585 1882 1881 11460 13372 13373 13374 11687 13599 13600 13601 11685 11684 13597 13598 13604 13602 11690 13603 13378 13605 13606 
1552 1553 1850 1849 1585 1586 1883 1882 11469 13381 13382 13372 11696 13608 13609 13599 11684 11694 13607 13597 13602 13610 11698 13611 13385 13612 13613 
1553 1554 1851 1850 1586 1587 1884 1883 11476 13388 13389 13381 11703 13615 13616 13608 11694 11701 13614 13607 13610 13617 11705 13618 13392 13619 13620 
1554 1555 1852 1851 1587 1588 1885 1884 11483 13395 13396 13388 11710 13622 13623 13615 11701 11708 13621 13614 13617 13624 11712 13625 13399 13626 13627 
1555 1556 1853 1852 1588 1589 1886 1885 11490 13402 13403 13395 11717 13629 13630 13622 11708 11715 13628 13621 13624 13631 11719 13632 13406 13633 13634 
1556 1557 1854 1853 1589 1590 1887 1886 11497 13409 13410 13402 11724 13636 13637 13629 11715 11722 13635 13628 13631 13638 11726 13639 13413 13640 13641 
1557 1558 1855 1854 1590 1591 1888 1887 11504 13416 13417 13409 11731 13643 13644 13636 11722 11729 13642 13635 13638 13645 11733 13646 13420 13647 13648 
1558 1559 1856 1855 1591 1592 1889 1888 11511 13423 13424 13416 11738 13650 13651 13643 11729 11736 13649 13642 13645 13652 11740 13653 13427 13654 13655 
1559 1560 1857 1856 1592 1593 1890 1889 11518 13430 13431 13423 11745 13657 13658 13650 11736 11743 13656 13649 13652 13659 11747 13660 13434 13661 13662 
1560 1561 1858 1857 1593 1594 1891 1890 11525 13437 13438 13430 11752 13664 13665 13657 11743 11750 13663 13656 13659 13666 11754 13667 13441 13668 13669 
1561 1562 1859 1858 1594 1595 1892 1891 11532 13444 13445 13437 11759 13671 13672 13664 11750 11757 13670 13663 13666 13673 11761 13674 13448 13675 13676 
1562 1563 1860 1859 1595 1596 1893 1892 11539 13451 13452 13444 11766 13678 13679 13671 11757 11764 13677 13670 13673 13680 11768 13681 13455 13682 13683 
1563 1564 1861 1860 1596 1597 1894 1893 11546 13458 13459 13451 11773 13685 13686 13678 11764 11771 13684 13677 13680 13687 11775 13688 13462 13689 13690 
1564 1565 1862 1861 1597 1598 1895 1894 11553 13465 13466 13458 11780 13692 13693 13685 11771 11778 13691 13684 13687 13694 11782 13695 13469 13696 13697 
1565 1566 1863 1862 1598 1599 1896 1895 11560 13472 13473 13465 11787 13699 13700 13692 11778 11785 13698 13691 13694 13701 11789 13702 13476 13703 13704 
1566 1567 1864 1863 1599 1600 1897 1896 11567 13479 13480 13472 11794 13706 13707 13699 11785 11792 13705 13698 13701 13708 11796 13709 13483 13710 13711 
1567 1568 1865 1864 1600 1601 1898 1897 11574 13486 13487 13479 11801 13713 13714 13706 11792 11799 13712 13705 13708 13715 11803 13716 13490 13717 13718 
1568 1569 1866 1865 1601 1602 1899 1898 11581 13493 13494 13486 11808 13720 13721 13713 11799 11806 13719 13712 13715 13722 11810 13723 13497 13724 13725 
1569 1570 1867 1866 1602 1603 1900 1899 11588 13500 13501 13493 11815 13727 13728 13720 11806 11813 13726 13719 13722 13729 11817 13730 13504 13731 13732 
1570 1571 1868 1867 1603 1604 1901 1900 11595 13507 13508 13500 11822 13734 13735 13727 11813 11820 13733 13726 13729 13736 11824 13737 13511 13738 13739 
1571 1572 1869 1868 1604 1605 1902 1901 11602 13514 13515 13507 11829 13741 13742 13734 11820 11827 13740 13733 13736 13743 11831 13744 13518 13745 13746 
1572 1573 1870 1869 1605 1606 1903 1902 11609 13521 13522 13514 11836 13748 13749 13741 11827 11834 13747 13740 13743 13750 11838 13751 13525 13752 13753 
1573 1574 1871 1870 1606 1607 1904 1903 11616 13528 13529 13521 11843 13755 13756 13748 11834 11841 13754 13747 13750 13757 11845 13758 13532 13759 13760 
1574 1575 1872 1871 1607 1608 1905 1904 11623 13535 13536 13528 11850 13762 13763 13755 11841 11848 13761 13754 13757 13764 11852 13765 13539 13766 13767 
1575 1576 1873 1872 1608 1609 1906 1905 11630 13542 13543 13535 11857 13769 13770 13762 11848 11855 13768 13761 13764 13771 11859 13772 13546 13773 13774 
1576 1577 1874 1873 1609 1610 1907 1906 11637 13549 13550 13542 11864 13776 13777 13769 11855 11862 13775 13768 13771 13778 11866 13779 13553 13780 13781 
1577 1578 1875 1874 1610 1611 1908 1907 11644 13556 13557 13549 11871 13783 13784 13776 11862 11869 13782 13775 13778 13785 11873 13786 13560 13787 13788 
1578 1579 1876 1875 1611 1612 1909 1908 11651 13563 13564 13556 11878 13790 13791 13783 11869 11876 13789 13782 13785 13792 11880 13793 13567 13794 13795 
1579 1580 1877 1876 1612 1613 1910 1909 11658 13570 13571 13563 11885 13797 13798 13790 11876 11883 13796 13789 13792 13799 11887 13800 13574 13801 13802 
1580 1581 1878 1877 1613 1614 1911 1910 11665 13577 13578 13570 11892 13804 13805 13797 11883 11890 13803 13796 13799 13806 11894 13807 13581 13808 13809 
1581 1582 1879 1878 1614 1615 1912 1911 11672 13584 13585 13577 11899 13811 13812 13804 11890 11897 13810 13803 13806 13813 11901 13814 13588 13815 13816 
1582 1583 1880 1879 1615 1616 1913 1912 11679 13591 13592 13584 11906 13818 13819 13811 11897 11904 13817 13810 13813 13820 11908 13821 13595 13822 13823 
1584 1585 1882 1881 1617 1618 1915 1914 11687 13599 13600 13601 11914 13826 13827 13828 11912 11911 13824 13825 13831 13829 11917 13830 13605 13832 13833 
1585 1586 1883 1882 1618 1619 1916 1915 11696 13608 13609 13599 11923 13835 13836 13826 11911 11921 13834 13824 13829 13837 11925 13838 13612 13839 13840 
1586 1587 1884 1883 1619 1620 1917 1916 11703 13615 13616 13608 11930 13842 13843 13835 11921 11928 13841 13834 13837 13844 11932 13845 13619 13846 13847 
1587 1588 1885 1884 1620 1621 1918 1917 11710 13622 13623 13615 11937 13849 13850 13842 11928 11935 13848 13841 13844 13851 11939 13852 13626 13853 13854 
1588 1589 1886 1885 1621 1622 1919 1918 11717 13629 13630 13622 11944 13856 13857 13849 11935 11942 13855 13848 13851 13858 11946 13859 13633 13860 13861 
1589 1590 1887 1886 1622 1623 1920 1919 11724 13636 13637 13629 11951 13863 13864 13856 11942 11949 13862 13855 13858 13865 11953 13866 13640 13867 13868 
1590 1591 1888 1887 1623 1624 1921 1920 11731 13643 13644 13636 11958 13870 13871 13863 11949 11956 13869 13862 13865 13872 11960 13873 13647 13874 13875 
1591 1592 1889 1888 1624 1625 1922 1921 11738 13650 13651 13643 11965 13877 13878 13870 11956 11963 13876 13869 13872 13879 11967 13880 13654 13881 13882 
1592 1593 1890 1889 1625 1626 1923 1922 11745 13657 13658 13650 11972 13884 13885 13877 11963 11970 13883 13876 13879 13886 11974 13887 13661 13888 13889 
1593 1594 1891 1890 1626 1627 1924 1923 11752 13664 13665 13657 11979 13891 13892 13884 11970 11977 13890 13883 13886 13893 11981 13894 13668 13895 13896 
1594 1595 1892 1891 1627 1628 1925 1924 11759 13671 13672 13664 11986 13898 13899 13891 11977 11984 13897 13890 13893 13900 11988 13901 13675 13902 13903 
1595 1596 1893 1892 1628 1629 1926 1925 11766 13678 13679 13671 11993 13905 13906 13898 11984 11991 13904 13897 13900 13907 11995 13908 13682 13909 13910 
1596 1597 1894 1893 1629 1630 1927 1926 11773 13685 13686 13678 12000 13912 13913 13905 11991 11998 13911 13904 13907 13914 12002 13915 13689 13916 13917 
1597 1598 1895 1894 1630 1631 1928 1927 11780 13692 13693 13685 12007 13919 13920 13912 11998 12005 13918 13911 13914 13921 12009 13922 13696 13923 13924 
1598 1599 1896 1895 1631 1632 1929 1928 11787 13699 13700 13692 12014 13926 13927 13919 12005 12012 13925 13918 13921 13928 12016 13929 13703 13930 13931 
1599 1600 1897 1896 1632 1633 1930 1929 11794 13706 13707 13699 12021 13933 13934 13926 12012 12019 13932 13925 13928 13935 12023 13936 13710 13937 13938 
1600 1601 1898 1897 1633 1634 1931 1930 11801 13713 13714 13706 12028 13940 13941 13933 12019 12026 13939 13932 13935 13942 12030 13943 13717 13944 13945 
1601 1602 1899 1898 1634 1635 1932 1931 11808 13720 13721 13713 12035 13947 13948 13940 12026 12033 13946 13939 13942 13949 12037 13950 13724 13951 13952 
1602 1603 1900 1899 1635 1636 1933 1932 11815 13727 13728 13720 12042 13954 13955 13947 12033 12040 13953 13946 13949 13956 12044 13957 13731 13958 13959 
1603 1604 1901 1900 1636 1637 1934 1933 11822 13734 13735 13727 12049 13961 13962 13954 12040 12047 13960 13953 13956 13963 12051 13964 13738 13965 13966 
1604 1605 1902 1901 1637 1638 1935 1934 11829 13741 13742 13734 12056 13968 13969 13961 12047 12054 13967 13960 13963 13970 12058 13971 13745 13972 13973 
1605 1606 1903 1902 1638 1639 1936 1935 11836 13748 13749 13741 12063 13975 13976 13968 12054 12061 13974 13967 13970 13977 12065 13978 13752 13979 13980 
1606 1607 1904 1903 1639 1640 1937 1936 11843 13755 13756 13748 12070 13982 13983 13975 12061 12068 13981 13974 13977 13984 12072 13985 13759 13986 13987 
1607 1608 1905 1904 1640 1641 1938 1937 11850 13762 13763 13755 12077 13989 13990 13982 12068 12075 13988 13981 13984 13991 12079 13992 13766 13993 13994 
1608 1609 1906 1905 1641 1642 1939 1938 11857 13769 13770 13762 12084 13996 13997 13989 12075 12082 13995 13988 13991 13998 12086 13999 13773 14000 14001 
1609 1610 1907 1906 1642 1643 1940 1939 11864 13776 13777 13769 12091 14003 14004 13996 12082 12089 14002 13995 13998 14005 12093 14006 13780 14007 14008 
1610 1611 1908 1907 1643 1644 1941 1940 11871 13783 13784 13776 12098 14010 14011 14003 12089 12096 14009 14002 14005 14012 12100 14013 13787 14014 14015 
1611 1612 1909 1908 1644 1645 1942 1941 11878 13790 13791 13783 12105 14017 14018 14010 12096 12103 14016 14009 14012 14019 12107 14020 13794 14021 14022 
1612 1613 1910 1909 1645 1646 1943 1942 11885 13797 13798 13790 12112 14024 14025 14017 12103 12110 14023 14016 14019 14026 12114 14027 13801 14028 14029 
1613 1614 1911 1910 1646 1647 1944 1943 11892 13804 13805 13797 12119 14031 14032 14024 12110 12117 14030 14023 14026 14033 12121 14034 13808 14035 14036 
1614 1615 1912 1911 1647 1648 1945 1944 11899 13811 13812 13804 12126 14038 14039 14031 12117 12124 14037 14030 14033 14040 12128 14041 13815 14042 14043 
1615 1616 1913 1912 1648 1649 1946 1945 11906 13818 13819 13811 12133 14045 14046 14038 12124 12131 14044 14037 14040 14047 12135 14048 13822 14049 14050 
1617 1618 1915 1914 1650 1651 1948 1947 11914 13826 13827 13828 12141 14053 14054 14055 12139 12138 14051 14052 14058 14056 12144 14057 13832 14059 14060 
1618 1619 1916 1915 1651 1652 1949 1948 11923 13835 13836 13826 12150 14062 14063 14053 12138 12148 14061 14051 14056 14064 12152 14065 13839 14066 14067 
1619 1620 1917 1916 1652 1653 1950 1949 11930 13842 13843 13835 12157 14069 14070 14062 12148 12155 14068 14061 14064 14071 12159 14072 13846 14073 14074 
1620 1621 1918 1917 1653 1654 1951 1950 11937 13849 13850 13842 12164 14076 14077 14069 12155 12162 14075 14068 14071 14078 12166 14079 13853 14080 14081 
1621 1622 1919 1918 1654 1655 1952 1951 11944 13856 13857 13849 12171 14083 14084 14076 12162 12169 14082 14075 14078 14085 12173 14086 13860 14087 14088 
1622 1623 1920 1919 1655 1656 1953 1952 11951 13863 13864 13856 12178 14090 14091 14083 12169 12176 14089 14082 14085 14092 12180 14093 13867 14094 14095 
1623 1624 1921 1920 1656 1657 1954 1953 11958 13870 13871 13863 12185 14097 14098 14090 12176 12183 14096 14089 14092 14099 12187 14100 13874 14101 14102 
1624 1625 1922 1921 1657 1658 1955 1954 11965 13877 13878 13870 12192 14104 14105 14097 12183 12190 14103 14096 14099 14106 12194 14107 13881 14108 14109 
1625 1626 1923 1922 1658 1659 1956 1955 11972 13884 13885 13877 12199 14111 14112 14104 12190 12197 14110 14103 14106 14113 12201 14114 13888 14115 14116 
1626 1627 1924 1923 1659 1660 1957 1956 11979 13891 13892 13884 12206 14118 14119 14111 12197 12204 14117 14110 14113 14120 12208 14121 13895 14122 14123 
1627 1628 1925 1924 1660 1661 1958 1957 11986 13898 13899 13891 12213 14125 14126 14118 12204 12211 14124 14117 14120 14127 12215 14128 13902 14129 14130 
1628 1629 1926 1925 1661 1662 1959 1958 11993 13905 13906 13898 12220 14132 14133 14125 12211 12218 14131 14124 14127 14134 12222 14135 13909 14136 14137 
1629 1630 1927 1926 1662 1663 1960 1959 12000 13912 13913 13905 12227 14139 14140 14132 12218 12225 14138 14131 14134 14141 12229 14142 13916 14143 14144 
1630 1631 1928 1927 1663 1664 1961 1960 12007 13919 13920 13912 12234 14146 14147 14139 12225 12232 14145 14138 14141 14148 12236 14149 13923 14150 14151 
1631 1632 1929 1928 1664 1665 1962 1961 12014 13926 13927 13919 12241 14153 14154 14146 12232 12239 14152 14145 14148 14155 12243 14156 13930 14157 14158 
1632 1633 1930 1929 1665 1666 1963 1962 12021 13933 13934 13926 12248 14160 14161 14153 12239 12246 14159 14152 14155 14162 12250 14163 13937 14164 14165 
1633 1634 1931 1930 1666 1667 1964 1963 12028 13940 13941 13933 12255 14167 14168 14160 12246 12253 14166 14159 14162 14169 12257 14170 13944 14171 14172 
1634 1635 1932 1931 1667 1668 1965 1964 12035 13947 13948 13940 12262 14174 14175 14167 12253 12260 14173 14166 14169 14176 12264 14177 13951 14178 14179 
1635 1636 1933 1932 1668 1669 1966 1965 12042 13954 13955 13947 12269 14181 14182 14174 12260 12267 14180 14173 14176 14183 12271 14184 13958 14185 14186 
1636 1637 1934 1933 1669 1670 1967 1966 12049 13961 13962 13954 12276 14188 14189 14181 12267 12274 14187 14180 14183 14190 12278 14191 13965 14192 14193 
1637 1638 1935 1934 1670 1671 1968 1967 12056 13968 13969 13961 12283 14195 14196 14188 12274 12281 14194 14187 14190 14197 12285 14198 13972 14199 14200 
1638 1639 1936 1935 1671 1672 1969 1968 12063 13975 13976 13968 12290 14202 14203 14195 12281 12288 14201 14194 14197 14204 12292 14205 13979 14206 14207 
1639 1640 1937 1936 1672 1673 1970 1969 12070 13982 13983 13975 12297 14209 14210 14202 12288 12295 14208 14201 14204 14211 12299 14212 13986 14213 14214 
1640 1641 1938 1937 1673 1674 1971 1970 12077 13989 13990 13982 12304 14216 14217 14209 12295 12302 14215 14208 14211 14218 12306 14219 13993 14220 14221 
1641 1642 1939 1938 1674 1675 1972 1971 12084 13996 13997 13989 12311 14223 14224 14216 12302 12309 14222 14215 14218 14225 12313 14226 14000 14227 14228 
1642 1643 1940 1939 1675 1676 1973 1972 12091 14003 14004 13996 12318 14230 14231 14223 12309 12316 14229 14222 14225 14232 12320 14233 14007 14234 14235 
1643 1644 1941 1940 1676 1677 1974 1973 12098 14010 14011 14003 12325 14237 14238 14230 12316 12323 14236 14229 14232 14239 12327 14240 14014 14241 14242 
1644 1645 1942 1941 1677 1678 1975 1974 12105 14017 14018 14010 12332 14244 14245 14237 12323 12330 14243 14236 14239 14246 12334 14247 14021 14248 14249 
1645 1646 1943 1942 1678 1679 1976 1975 12112 14024 14025 14017 12339 14251 14252 14244 12330 12337 14250 14243 14246 14253 12341 14254 14028 14255 14256 
1646 1647 1944 1943 1679 1680 1977 1976 12119 14031 14032 14024 12346 14258 14259 14251 12337 12344 14257 14250 14253 14260 12348 14261 14035 14262 14263 
1647 1648 1945 1944 1680 1681 1978 1977 12126 14038 14039 14031 12353 14265 14266 14258 12344 12351 14264 14257 14260 14267 12355 14268 14042 14269 14270 
1648 1649 1946 1945 1681 1682 1979 1978 12133 14045 14046 14038 12360 14272 14273 14265 12351 12358 14271 14264 14267 14274 12362 14275 14049 14276 14277 
1650 1651 1948 1947 1683 1684 1981 1980 12141 14053 14054 14055 12368 14280 14281 14282 12366 12365 14278 14279 14285 14283 12371 14284 14059 14286 14287 
1651 1652 1949 1948 1684 1685 1982 1981 12150 14062 14063 14053 12377 14289 14290 14280 12365 12375 14288 14278 14283 14291 12379 14292 14066 14293 14294 
1652 1653 1950 1949 1685 1686 1983 1982 12157 14069 14070 14062 12384 14296 14297 14289 12375 12382 14295 14288 14291 14298 12386 14299 14073 14300 14301 
1653 1654 1951 1950 1686 1687 1984 1983 12164 14076 14077 14069 12391 14303 14304 14296 12382 12389 14302 14295 14298 14305 12393 14306 14080 14307 14308 
1654 1655 1952 1951 1687 1688 1985 1984 12171 14083 14084 14076 12398 14310 14311 14303 12389 12396 14309 14302 14305 14312 12400 14313 14087 14314 14315 
1655 1656 1953 1952 1688 1689 1986 1985 12178 14090 14091 14083 12405 14317 14318 14310 12396 12403 14316 14309 14312 14319 12407 14320 14094 14321 14322 
1656 1657 1954 1953 1689 1690 1987 1986 12185 14097 14098 14090 12412 14324 14325 14317 12403 12410 14323 14316 14319 14326 12414 14327 14101 14328 14329 
1657 1658 1955 1954 1690 1691 1988 1987 12192 14104 14105 14097 12419 14331 14332 14324 12410 12417 14330 14323 14326 14333 12421 14334 14108 14335 14336 
1658 1659 1956 1955 1691 1692 1989 1988 12199 14111 14112 14104 12426 14338 14339 14331 12417 12424 14337 14330 14333 14340 12428 14341 14115 14342 14343 
1659 1660 1957 1956 1692 1693 1990 1989 12206 14118 14119 14111 12433 14345 14346 14338 12424 12431 14344 14337 14340 14347 12435 14348 14122 14349 14350 
1660 1661 1958 1957 1693 1694 1991 1990 12213 14125 14126 14118 12440 14352 14353 14345 12431 12438 14351 14344 14347 14354 12442 14355 14129 14356 14357 
1661 1662 1959 1958 1694 1695 1992 1991 12220 14132 14133 14125 12447 14359 14360 14352 12438 12445 14358 14351 14354 14361 12449 14362 14136 14363 14364 
1662 1663 1960 1959 1695 1696 1993 1992 12227 14139 14140 14132 12454 14366 14367 14359 12445 12452 14365 14358 14361 14368 12456 14369 14143 14370 14371 
1663 1664 1961 1960 1696 1697 1994 1993 12234 14146 14147 14139 12461 14373 14374 14366 12452 12459 14372 14365 14368 14375 12463 14376 14150 14377 14378 
1664 1665 1962 1961 1697 1698 1995 1994 12241 14153 14154 14146 12468 14380 14381 14373 12459 12466 14379 14372 14375 14382 12470 14383 14157 14384 14385 
1665 1666 1963 1962 1698 1699 1996 1995 12248 14160 14161 14153 12475 14387 14388 14380 12466 12473 14386 14379 14382 14389 12477 14390 14164 14391 14392 
1666 1667 1964 1963 1699 1700 1997 1996 12255 14167 14168 14160 12482 14394 14395 14387 12473 12480 14393 14386 14389 14396 12484 14397 14171 14398 14399 
1667 1668 1965 1964 1700 1701 1998 1997 12262 14174 14175 14167 12489 14401 14402 14394 12480 12487 14400 14393 14396 14403 12491 14404 14178 14405 14406 
1668 1669 1966 1965 1701 1702 1999 1998 12269 14181 14182 14174 12496 14408 14409 14401 12487 12494 14407 14400 14403 14410 12498 14411 14185 14412 14413 
1669 1670 1967 1966 1702 1703 2000 1999 12276 14188 14189 14181 12503 14415 14416 14408 12494 12501 14414 14407 14410 14417 12505 14418 14192 14419 14420 
1670 1671 1968 1967 1703 1704 2001 2000 12283 14195 14196 14188 12510 14422 14423 14415 12501 12508 14421 14414 14417 14424 12512 14425 14199 14426 14427 
1671 1672 1969 1968 1704 1705 2002 2001 12290 14202 14203 14195 12517 14429 14430 14422 12508 12515 14428 14421 14424 14431 12519 14432 14206 14433 14434 
1672 1673 1970 1969 1705 1706 2003 2002 12297 14209 14210 14202 12524 14436 14437 14429 12515 12522 14435 14428 14431 14438 12526 14439 14213 14440 14441 
1673 1674 1971 1970 1706 1707 2004 2003 12304 14216 14217 14209 12531 14443 14444 14436 12522 12529 14442 14435 14438 14445 12533 14446 14220 14447 14448 
1674 1675 1972 1971 1707 1708 2005 2004 12311 14223 14224 14216 12538 14450 14451 14443 12529 12536 14449 14442 14445 14452 12540 14453 14227 14454 14455 
1675 1676 1973 1972 1708 1709 2006 2005 12318 14230 14231 14223 12545 14457 14458 14450 12536 12543 14456 14449 14452 14459 12547 14460 14234 14461 14462 
1676 1677 1974 1973 1709 1710 2007 2006 12325 14237 14238 14230 12552 14464 14465 14457 12543 12550 14463 14456 14459 14466 12554 14467 14241 14468 14469 
1677 1678 1975 1974 1710 1711 2008 2007 12332 14244 14245 14237 12559 14471 14472 14464 12550 12557 14470 14463 14466 14473 12561 14474 14248 14475 14476 
1678 1679 1976 1975 1711 1712 2009 2008 12339 14251 14252 14244 12566 14478 14479 14471 12557 12564 14477 14470 14473 14480 12568 14481 14255 14482 14483 
1679 1680 1977 1976 1712 1713 2010 2009 12346 14258 14259 14251 12573 14485 14486 14478 12564 12571 14484 14477 14480 14487 12575 14488 14262 14489 14490 
1680 1681 1978 1977 1713 1714 2011 2010 12353 14265 14266 14258 12580 14492 14493 14485 12571 12578 14491 14484 14487 14494 12582 14495 14269 14496 14497 
1681 1682 1979 1978 1714 1715 2012 2011 12360 14272 14273 14265 12587 14499 14500 14492 12578 12585 14498 14491 14494 14501 12589 14502 14276 14503 14504 
1683 1684 1981 1980 1716 1717 2014 2013 12368 14280 14281 14282 12595 14507 14508 14509 12593 12592 14505 14506 14512 14510 12598 14511 14286 14513 14514 
1684 1685 1982 1981 1717 1718 2015 2014 12377 14289 14290 14280 12604 14516 14517 14507 12592 12602 14515 14505 14510 14518 12606 14519 14293 14520 14521 
1685 1686 1983 1982 1718 1719 2016 2015 12384 14296 14297 14289 12611 14523 14524 14516 12602 12609 14522 14515 14518 14525 12613 14526 14300 14527 14528 
1686 1687 1984 1983 1719 1720 2017 2016 12391 14303 14304 14296 12618 14530 14531 14523 12609 12616 14529 14522 14525 14532 12620 14533 14307 14534 14535 
1687 1688 1985 1984 1720 1721 2018 2017 12398 14310 14311 14303 12625 14537 14538 14530 12616 12623 14536 14529 14532 14539 12627 14540 14314 14541 14542 
1688 1689 1986 1985 1721 1722 2019 2018 12405 14317 14318 14310 12632 14544 14545 14537 12623 12630 14543 14536 14539 14546 12634 14547 14321 14548 14549 
1689 1690 1987 1986 1722 1723 2020 2019 12412 14324 14325 14317 12639 14551 14552 14544 12630 12637 14550 14543 14546 14553 12641 14554 14328 14555 14556 
1690 1691 1988 1987 1723 1724 2021 2020 12419 14331 14332 14324 12646 14558 14559 14551 12637 12644 14557 14550 14553 14560 12648 14561 14335 14562 14563 
1691 1692 1989 1988 1724 1725 2022 2021 12426 14338 14339 14331 12653 14565 14566 14558 12644 12651 14564 14557 14560 14567 12655 14568 14342 14569 14570 
1692 1693 1990 1989 1725 1726 2023 2022 12433 14345 14346 14338 12660 14572 14573 14565 12651 12658 14571 14564 14567 14574 12662 14575 14349 14576 14577 
1693 1694 1991 1990 1726 1727 2024 2023 12440 14352 14353 14345 12667 14579 14580 14572 12658 12665 14578 14571 14574 14581 12669 14582 14356 14583 14584 
1694 1695 1992 1991 1727 1728 2025 2024 12447 14359 14360 14352 12674 14586 14587 14579 12665 12672 14585 14578 14581 14588 12676 14589 14363 14590 14591 
1695 1696 1993 1992 1728 1729 2026 2025 12454 14366 14367 14359 12681 14593 14594 14586 12672 12679 14592 14585 14588 14595 12683 14596 14370 14597 14598 
1696 1697 1994 1993 1729 1730 2027 2026 12461 14373 14374 14366 12688 14600 14601 14593 12679 12686 14599 14592 14595 14602 12690 14603 14377 14604 14605 
1697 1698 1995 1994 1730 1731 2028 2027 12468 14380 14381 14373 12695 14607 14608 14600 12686 12693 14606 14599 14602 14609 12697 14610 14384 14611 14612 
1698 1699 1996 1995 1731 1732 2029 2028 12475 14387 14388 14380 12702 14614 14615 14607 12693 12700 14613 14606 14609 14616 12704 14617 14391 14618 14619 
1699 1700 1997 1996 1732 1733 2030 2029 12482 14394 14395 14387 12709 14621 14622 14614 12700 12707 14620 14613 14616 14623 12711 14624 14398 14625 14626 
1700 1701 1998 1997 1733 1734 2031 2030 12489 14401 14402 14394 12716 14628 14629 14621 12707 12714 14627 14620 14623 14630 12718 14631 14405 14632 14633 
1701 1702 1999 1998 1734 1735 2032 2031 12496 14408 14409 14401 12723 14635 14636 14628 12714 12721 14634 14627 14630 14637 12725 14638 14412 14639 14640 
1702 1703 2000 1999 1735 1736 2033 2032 12503 14415 14416 14408 12730 14642 14643 14635 12721 12728 14641 14634 14637 14644 12732 14645 14419 14646 14647 
1703 1704 2001 2000 1736 1737 2034 2033 12510 14422 14423 14415 12737 14649 14650 14642 12728 12735 14648 14641 14644 14651 12739 14652 14426 14653 14654 
1704 1705 2002 2001 1737 1738 2035 2034 12517 14429 14430 14422 12744 14656 14657 14649 12735 12742 14655 14648 14651 14658 12746 14659 14433 14660 14661 
1705 1706 2003 2002 1738 1739 2036 2035 12524 14436 14437 14429 12751 14663 14664 14656 12742 12749 14662 14655 14658 14665 12753 14666 14440 14667 14668 
1706 1707 2004 2003 1739 1740 2037 2036 12531 14443 14444 14436 12758 14670 14671 14663 12749 12756 14669 14662 14665 14672 12760 14673 14447 14674 14675 
1707 1708 2005 2004 1740 1741 2038 2037 12538 14450 14451 14443 12765 14677 14678 14670 12756 12763 14676 14669 14672 14679 12767 14680 14454 14681 14682 
1708 1709 2006 2005 1741 1742 2039 2038 12545 14457 14458 14450 12772 14684 14685 14677 12763 12770 14683 14676 14679 14686 12774 14687 14461 14688 14689 
1709 1710 2007 2006 1742 1743 2040 2039 12552 14464 14465 14457 12779 14691 14692 14684 12770 12777 14690 14683 14686 14693 12781 14694 14468 14695 14696 
1710 1711 2008 2007 1743 1744 2041 2040 12559 14471 14472 14464 12786 14698 14699 14691 12777 12784 14697 14690 14693 14700 12788 14701 14475 14702 14703 
1711 1712 2009 2008 1744 1745 2042 2041 12566 14478 14479 14471 12793 14705 14706 14698 12784 12791 14704 14697 14700 14707 12795 14708 14482 14709 14710 
1712 1713 2010 2009 1745 1746 2043 2042 12573 14485 14486 14478 12800 14712 14713 14705 12791 12798 14711 14704 14707 14714 12802 14715 14489 14716 14717 
1713 1714 2011 2010 1746 1747 2044 2043 12580 14492 14493 14485 12807 14719 14720 14712 12798 12805 14718 14711 14714 14721 12809 14722 14496 14723 14724 
1714 1715 2012 2011 1747 1748 2045 2044 12587 14499 14500 14492 12814 14726 14727 14719 12805 12812 14725 14718 14721 14728 12816 14729 14503 14730 14731 
1716 1717 2014 2013 1749 1750 2047 2046 12595 14507 14508 14509 12822 14734 14735 14736 12820 12819 14732 14733 14739 14737 12825 14738 14513 14740 14741 
1717 1718 2015 2014 1750 1751 2048 2047 12604 14516 14517 14507 12831 14743 14744 14734 12819 12829 14742 14732 14737 14745 12833 14746 14520 14747 14748 
1718 1719 2016 2015 1751 1752 2049 2048 12611 14523 14524 14516 12838 14750 14751 14743 12829 12836 14749 14742 14745 14752 12840 14753 14527 14754 14755 
1719 1720 2017 2016 1752 1753 2050 2049 12618 14530 14531 14523 12845 14757 14758 14750 12836 12843 14756 14749 14752 14759 12847 14760 14534 14761 14762 
1720 1721 2018 2017 1753 1754 2051 2050 12625 14537 14538 14530 12852 14764 14765 14757 12843 12850 14763 14756 14759 14766 12854 14767 14541 14768 14769 
1721 1722 2019 2018 1754 1755 2052 2051 12632 14544 14545 14537 12859 14771 14772 14764 12850 12857 14770 14763 14766 14773 12861 14774 14548 14775 14776 
1722 1723 2020 2019 1755 1756 2053 2052 12639 14551 14552 14544 12866 14778 14779 14771 12857 12864 14777 14770 14773 14780 12868 14781 14555 14782 14783 
1723 1724 2021 2020 1756 1757 2054 2053 12646 14558 14559 14551 12873 14785 14786 14778 12864 12871 14784 14777 14780 14787 12875 14788 14562 14789 14790 
1724 1725 2022 2021 1757 1758 2055 2054 12653 14565 14566 14558 12880 14792 14793 14785 12871 12878 14791 14784 14787 14794 12882 14795 14569 14796 14797 
1725 1726 2023 2022 1758 1759 2056 2055 12660 14572 14573 14565 12887 14799 14800 14792 12878 12885 14798 14791 14794 14801 12889 14802 14576 14803 14804 
1726 1727 2024 2023 1759 1760 2057 2056 12667 14579 14580 14572 12894 14806 14807 14799 12885 12892 14805 14798 14801 14808 12896 14809 14583 14810 14811 
1727 1728 2025 2024 1760 1761 2058 2057 12674 14586 14587 14579 12901 14813 14814 14806 12892 12899 14812 14805 14808 14815 12903 14816 14590 14817 14818 
1728 1729 2026 2025 1761 1762 2059 2058 12681 14593 14594 14586 12908 14820 14821 14813 12899 12906 14819 14812 14815 14822 12910 14823 14597 14824 14825 
1729 1730 2027 2026 1762 1763 2060 2059 12688 14600 14601 14593 12915 14827 14828 14820 12906 12913 14826 14819 14822 14829 12917 14830 14604 14831 14832 
1730 1731 2028 2027 1763 1764 2061 2060 12695 14607 14608 14600 12922 14834 14835 14827 12913 12920 14833 14826 14829 14836 12924 14837 14611 14838 14839 
1731 1732 2029 2028 1764 1765 2062 2061 12702 14614 14615 14607 12929 14841 14842 14834 12920 12927 14840 14833 14836 14843 12931 14844 14618 14845 14846 
1732 1733 2030 2029 1765 1766 2063 2062 12709 14621 14622 14614 12936 14848 14849 14841 12927 12934 14847 14840 14843 14850 12938 14851 14625 14852 14853 
1733 1734 2031 2030 1766 1767 2064 2063 12716 14628 14629 14621 12943 14855 14856 14848 12934 12941 14854 14847 14850 14857 12945 14858 14632 14859 14860 
1734 1735 2032 2031 1767 1768 2065 2064 12723 14635 14636 14628 12950 14862 14863 14855 12941 12948 14861 14854 14857 14864 12952 14865 14639 14866 14867 
1735 1736 2033 2032 1768 1769 2066 2065 12730 14642 14643 14635 12957 14869 14870 14862 12948 12955 14868 14861 14864 14871 12959 14872 14646 14873 14874 
1736 1737 2034 2033 1769 1770 2067 2066 12737 14649 14650 14642 12964 14876 14877 14869 12955 12962 14875 14868 14871 14878 12966 14879 14653 14880 14881 
1737 1738 2035 2034 1770 1771 2068 2067 12744 14656 14657 14649 12971 14883 14884 14876 12962 12969 14882 14875 14878 14885 12973 14886 14660 14887 14888 
1738 1739 2036 2035 1771 1772 2069 2068 12751 14663 14664 14656 12978 14890 14891 14883 12969 12976 14889 14882 14885 14892 12980 14893 14667 14894 14895 
1739 1740 2037 2036 1772 1773 2070 2069 12758 14670 14671 14663 12985 14897 14898 14890 12976 12983 14896 14889 14892 14899 12987 14900 14674 14901 14902 
1740 1741 2038 2037 1773 1774 2071 2070 12765 14677 14678 14670 12992 14904 14905 14897 12983 12990 14903 14896 14899 14906 12994 14907 14681 14908 14909 
1741 1742 2039 2038 1774 1775 2072 2071 12772 14684 14685 14677 12999 14911 14912 14904 12990 12997 14910 14903 14906 14913 13001 14914 14688 14915 14916 
1742 1743 2040 2039 1775 1776 2073 2072 12779 14691 14692 14684 13006 14918 14919 14911 12997 13004 14917 14910 14913 14920 13008 14921 14695 14922 14923 
1743 1744 2041 2040 1776 1777 2074 2073 12786 14698 14699 14691 13013 14925 14926 14918 13004 13011 14924 14917 14920 14927 13015 14928 14702 14929 14930 
1744 1745 2042 2041 1777 1778 2075 2074 12793 14705 14706 14698 13020 14932 14933 14925 13011 13018 14931 14924 14927 14934 13022 14935 14709 14936 14937 
1745 1746 2043 2042 1778 1779 2076 2075 12800 14712 14713 14705 13027 14939 14940 14932 13018 13025 14938 14931 14934 14941 13029 14942 14716 14943 14944 
1746 1747 2044 2043 1779 1780 2077 2076 12807 14719 14720 14712 13034 14946 14947 14939 13025 13032 14945 14938 14941 14948 13036 14949 14723 14950 14951 
1747 1748 2045 2044 1780 1781 2078 2077 12814 14726 14727 14719 13041 14953 14954 14946 13032 13039 14952 14945 14948 14955 13043 14956 14730 14957 14958 
1782 1783 2080 2079 1815 1816 2113 2112 13047 14959 14960 14961 13052 14964 14965 14966 13050 13049 14962 14963 14970 14968 13056 14969 14967 14971 14972 
1783 1784 2081 2080 1816 1817 2114 2113 13061 14973 14974 14959 13064 14976 14977 14964 13049 13062 14975 14962 14968 14979 13067 14980 14978 14981 14982 
1784 1785 2082 2081 1817 1818 2115 2114 13071 14983 14984 14973 13074 14986 14987 14976 13062 13072 14985 14975 14979 14989 13077 14990 14988 14991 14992 
1785 1786 2083 2082 1818 1819 2116 2115 13081 14993 14994 14983 13084 14996 14997 14986 13072 13082 14995 14985 14989 14999 13087 15000 14998 15001 15002 
1786 1787 2084 2083 1819 1820 2117 2116 13091 15003 15004 14993 13094 15006 15007 14996 13082 13092 15005 14995 14999 15009 13097 15010 15008 15011 15012 
1787 1788 2085 2084 1820 1821 2118 2117 13101 15013 15014 15003 13104 15016 15017 15006 13092 13102 15015 15005 15009 15019 13107 15020 15018 15021 15022 
1788 1789 2086 2085 1821 1822 2119 2118 13111 15023 15024 15013 13114 15026 15027 15016 13102 13112 15025 15015 15019 15029 13117 15030 15028 15031 15032 
1789 1790 2087 2086 1822 1823 2120 2119 13121 15033 15034 15023 13124 15036 15037 15026 13112 13122 15035 15025 15029 15039 13127 15040 15038 15041 15042 
1790 1791 2088 2087 1823 1824 2121 2120 13131 15043 15044 15033 13134 15046 15047 15036 13122 13132 15045 15035 15039 15049 13137 15050 15048 15051 15052 
1791 1792 2089 2088 1824 1825 2122 2121 13141 15053 15054 15043 13144 15056 15057 15046 13132 13142 15055 15045 15049 15059 13147 15060 15058 15061 15062 
1792 1793 2090 2089 1825 1826 2123 2122 13151 15063 15064 15053 13154 15066 15067 15056 13142 13152 15065 15055 15059 15069 13157 15070 15068 15071 15072 
1793 1794 2091 2090 1826 1827 2124 2123 13161 15073 15074 15063 13164 15076 15077 15066 13152 13162 15075 15065 15069 15079 13167 15080 15078 15081 15082 
1794 1795 2092 2091 1827 1828 2125 2124 13171 15083 15084 15073 13174 15086 15087 15076 13162 13172 15085 15075 15079 15089 13177 15090 15088 15091 15092 
1795 1796 2093 2092 1828 1829 2126 2125 13181 15093 15094 15083 13184 15096 15097 15086 13172 13182 15095 15085 15089 15099 13187 15100 15098 15101 15102 
1796 1797 2094 2093 1829 1830 2127 2126 13191 15103 15104 15093 13194 15106 15107 15096 13182 13192 15105 15095 15099 15109 13197 15110 15108 15111 15112 
1797 1798 2095 2094 1830 1831 2128 2127 13201 15113 15114 15103 13204 15116 15117 15106 13192 13202 15115 15105 15109 15119 13207 15120 15118 15121 15122 
1798 1799 2096 2095 1831 1832 2129 2128 13211 15123 15124 15113 13214 15126 15127 15116 13202 13212 15125 15115 15119 15129 13217 15130 15128 15131 15132 
1799 1800 2097 2096 1832 1833 2130 2129 13221 15133 15134 15123 13224 15136 15137 15126 13212 13222 15135 15125 15129 15139 13227 15140 15138 15141 15142 
1800 1801 2098 2097 1833 1834 2131 2130 13231 15143 15144 15133 13234 15146 15147 15136 13222 13232 15145 15135 15139 15149 13237 15150 15148 15151 15152 
1801 1802 2099 2098 1834 1835 2132 2131 13241 15153 15154 15143 13244 15156 15157 15146 13232 13242 15155 15145 15149 15159 13247 15160 15158 15161 15162 
1802 1803 2100 2099 1835 1836 2133 2132 13251 15163 15164 15153 13254 15166 15167 15156 13242 13252 15165 15155 15159 15169 13257 15170 15168 15171 15172 
1803 1804 2101 2100 1836 1837 2134 2133 13261 15173 15174 15163 13264 15176 15177 15166 13252 13262 15175 15165 15169 15179 13267 15180 15178 15181 15182 
1804 1805 2102 2101 1837 1838 2135 2134 13271 15183 15184 15173 13274 15186 15187 15176 13262 13272 15185 15175 15179 15189 13277 15190 15188 15191 15192 
1805 1806 2103 2102 1838 1839 2136 2135 13281 15193 15194 15183 13284 15196 15197 15186 13272 13282 15195 15185 15189 15199 13287 15200 15198 15201 15202 
1806 1807 2104 2103 1839 1840 2137 2136 13291 15203 15204 15193 13294 15206 15207 15196 13282 13292 15205 15195 15199 15209 13297 15210 15208 15211 15212 
1807 1808 2105 2104 1840 1841 2138 2137 13301 15213 15214 15203 13304 15216 15217 15206 13292 13302 15215 15205 15209 15219 13307 15220 15218 15221 15222 
1808 1809 2106 2105 1841 1842 2139 2138 13311 15223 15224 15213 13314 15226 15227 15216 13302 13312 15225 15215 15219 15229 13317 15230 15228 15231 15232 
1809 1810 2107 2106 1842 1843 2140 2139 13321 15233 15234 15223 13324 15236 15237 15226 13312 13322 15235 15225 15229 15239 13327 15240 15238 15241 15242 
1810 1811 2108 2107 1843 1844 2141 2140 13331 15243 15244 15233 13334 15246 15247 15236 13322 13332 15245 15235 15239 15249 13337 15250 15248 15251 15252 
1811 1812 2109 2108 1844 1845 2142 2141 13341 15253 15254 15243 13344 15256 15257 15246 13332 13342 15255 15245 15249 15259 13347 15260 15258 15261 15262 
1812 1813 2110 2109 1845 1846 2143 2142 13351 15263 15264 15253 13354 15266 15267 15256 13342 13352 15265 15255 15259 15269 13357 15270 15268 15271 15272 
1813 1814 2111 2110 1846 1847 2144 2143 13361 15273 15274 15263 13364 15276 15277 15266 13352 13362 15275 15265 15269 15279 13367 15280 15278 15281 15282 
1815 1816 2113 2112 1848 1849 2146 2145 13052 14964 14965 14966 13373 15285 15286 15287 13371 13370 15283 15284 15290 15288 13376 15289 14971 15291 15292 
1816 1817 2114 2113 1849 1850 2147 2146 13064 14976 14977 14964 13382 15294 15295 15285 13370 13380 15293 15283 15288 15296 13384 15297 14981 15298 15299 
1817 1818 2115 2114 1850 1851 2148 2147 13074 14986 14987 14976 13389 15301 15302 15294 13380 13387 15300 15293 15296 15303 13391 15304 14991 15305 15306 
1818 1819 2116 2115 1851 1852 2149 2148 13084 14996 14997 14986 13396 15308 15309 15301 13387 13394 15307 15300 15303 15310 13398 15311 15001 15312 15313 
1819 1820 2117 2116 1852 1853 2150 2149 13094 15006 15007 14996 13403 15315 15316 15308 13394 13401 15314 15307 15310 15317 13405 15318 15011 15319 15320 
1820 1821 2118 2117 1853 1854 2151 2150 13104 15016 15017 15006 13410 15322 15323 15315 13401 13408 15321 15314 15317 15324 13412 15325 15021 15326 15327 
1821 1822 2119 2118 1854 1855 2152 2151 13114 15026 15027 15016 13417 15329 15330 15322 13408 13415 15328 15321 15324 15331 13419 15332 15031 15333 15334 
1822 1823 2120 2119 1855 1856 2153 2152 13124 15036 15037 15026 13424 15336 15337 15329 13415 13422 15335 15328 15331 15338 13426 15339 15041 15340 15341 
1823 1824 2121 2120 1856 1857 2154 2153 13134 15046 15047 15036 13431 15343 15344 15336 13422 13429 15342 15335 15338 15345 13433 15346 15051 15347 15348 
1824 1825 2122 2121 1857 1858 2155 2154 13144 15056 15057 15046 13438 15350 15351 15343 13429 13436 15349 15342 15345 15352 13440 15353 15061 15354 15355 
1825 1826 2123 2122 1858 1859 2156 2155 13154 15066 15067 15056 13445 15357 15358 15350 13436 13443 15356 15349 15352 15359 13447 15360 15071 15361 15362 
1826 1827 2124 2123 1859 1860 2157 2156 13164 15076 15077 15066 13452 15364 15365 15357 13443 13450 15363 15356 15359 15366 13454 15367 15081 15368 15369 
1827 1828 2125 2124 1860 1861 2158 2157 13174 15086 15087 15076 13459 15371 15372 15364 13450 13457 15370 15363 15366 15373 13461 15374 15091 15375 15376 
1828 1829 2126 2125 1861 1862 2159 2158 13184 15096 15097 15086 13466 15378 15379 15371 13457 13464 15377 15370 15373 15380 13468 15381 15101 15382 15383 
1829 1830 2127 2126 1862 1863 2160 2159 13194 15106 15107 15096 13473 15385 15386 15378 13464 13471 15384 15377 15380 15387 13475 15388 15111 15389 15390 
1830 1831 2128 2127 1863 1864 2161 2160 13204 15116 15117 15106 13480 15392 15393 15385 13471 13478 15391 15384 15387 15394 13482 15395 15121 15396 15397 
1831 1832 2129 2128 1864 1865 2162 2161 13214 15126 15127 15116 13487 15399 15400 15392 13478 13485 15398 15391 15394 15401 13489 15402 15131 15403 15404 
1832 1833 2130 2129 1865 1866 2163 2162 13224 15136 15137 15126 13494 15406 15407 15399 13485 13492 15405 15398 15401 15408 13496 15409 15141 15410 15411 
1833 1834 2131 2130 1866 1867 2164 2163 13234 15146 15147 15136 13501 15413 15414 15406 13492 13499 15412 15405 15408 15415 13503 15416 15151 15417 15418 
1834 1835 2132 2131 1867 1868 2165 2164 13244 15156 15157 15146 13508 15420 15421 15413 13499 13506 15419 15412 15415 15422 13510 15423 15161 15424 15425 
1835 1836 2133 2132 1868 1869 2166 2165 13254 15166 15167 15156 13515 15427 15428 15420 13506 13513 15426 15419 15422 15429 13517 15430 15171 15431 15432 
1836 1837 2134 2133 1869 1870 2167 2166 13264 15176 15177 15166 13522 15434 15435 15427 13513 13520 15433 15426 15429 15436 13524 15437 15181 15438 15439 
1837 1838 2135 2134 1870 1871 2168 2167 13274 15186 15187 15176 13529 15441 15442 15434 13520 13527 15440 15433 15436 15443 13531 15444 15191 15445 15446 
1838 1839 2136 2135 1871 1872 2169 2168 13284 15196 15197 15186 13536 15448 15449 15441 13527 13534 15447 15440 15443 15450 13538 15451 15201 15452 15453 
1839 1840 2137 2136 1872 1873 2170 2169 13294 15206 15207 15196 13543 15455 15456 15448 13534 13541 15454 15447 15450 15457 13545 15458 15211 15459 15460 
1840 1841 2138 2137 1873 1874 2171 2170 13304 15216 15217 15206 13550 15462 15463 15455 13541 13548 15461 15454 15457 15464 13552 15465 15221 15466 15467 
1841 1842 2139 2138 1874 1875 2172 2171 13314 15226 15227 15216 13557 15469 15470 15462 13548 13555 15468 15461 15464 15471 13559 15472 15231 15473 15474 
1842 1843 2140 2139 1875 1876 2173 2172 13324 15236 15237 15226 13564 15476 15477 15469 13555 13562 15475 15468 15471 15478 13566 15479 15241 15480 15481 
1843 1844 2141 2140 1876 1877 2174 2173 13334 15246 15247 15236 13571 15483 15484 15476 13562 13569 15482 15475 15478 15485 13573 15486 15251 15487 15488 
1844 1845 2142 2141 1877 1878 2175 2174 13344 15256 15257 15246 13578 15490 15491 15483 13569 13576 15489 15482 15485 15492 13580 15493 15261 15494 15495 
1845 1846 2143 2142 1878 1879 2176 2175 13354 15266 15267 15256 13585 15497 15498 15490 13576 13583 15496 15489 15492 15499 13587 15500 15271 15501 15502 
1846 1847 2144 2143 1879 1880 2177 2176 13364 15276 15277 15266 13592 15504 15505 15497 13583 13590 15503 15496 15499 15506 13594 15507 15281 15508 15509 
1848 1849 2146 2145 1881 1882 2179 2178 13373 15285 15286 15287 13600 15512 15513 15514 13598 13597 15510 15511 15517 15515 13603 15516 15291 15518 15519 
1849 1850 2147 2146 1882 1883 2180 2179 13382 15294 15295 15285 13609 15521 15522 15512 13597 13607 15520 15510 15515 15523 13611 15524 15298 15525 15526 
1850 1851 2148 2147 1883 1884 2181 2180 13389 15301 15302 15294 13616 15528 15529 15521 13607 13614 15527 15520 15523 15530 13618 15531 15305 15532 15533 
1851 1852 2149 2148 1884 1885 2182 2181 13396 15308 15309 15301 13623 15535 15536 15528 13614 13621 15534 15527 15530 15537 13625 15538 15312 15539 15540 
1852 1853 2150 2149 1885 1886 2183 2182 13403 15315 15316 15308 13630 15542 15543 15535 13621 13628 15541 15534 15537 15544 13632 15545 15319 15546 15547 
1853 1854 2151 2150 1886 1887 2184 2183 13410 15322 15323 15315 13637 15549 15550 15542 13628 13635 15548 15541 15544 15551 13639 15552 15326 15553 15554 
1854 1855 2152 2151 1887 1888 2185 2184 13417 15329 15330 15322 13644 15556 15557 15549 13635 13642 15555 15548 15551 15558 13646 15559 15333 15560 15561 
1855 1856 2153 2152 1888 1889 2186 2185 13424 15336 15337 15329 13651 15563 15564 15556 13642 13649 15562 15555 15558 15565 13653 15566 15340 15567 15568 
1856 1857 2154 2153 1889 1890 2187 2186 13431 15343 15344 15336 13658 15570 15571 15563 13649 13656 15569 15562 15565 15572 13660 15573 15347 15574 15575 
1857 1858 2155 2154 1890 1891 2188 2187 13438 15350 15351 15343 13665 15577 15578 15570 13656 13663 15576 15569 15572 15579 13667 15580 15354 15581 15582 
1858 1859 2156 2155 1891 1892 2189 2188 13445 15357 15358 15350 13672 15584 15585 15577 13663 13670 15583 15576 15579 15586 13674 15587 15361 15588 15589 
1859 1860 2157 2156 1892 1893 2190 2189 13452 15364 15365 15357 13679 15591 15592 15584 13670 13677 15590 15583 15586 15593 13681 15594 15368 15595 15596 
1860 1861 2158 2157 1893 1894 2191 2190 13459 15371 15372 15364 13686 15598 15599 15591 13677 13684 15597 15590 15593 15600 13688 15601 15375 15602 15603 
1861 1862 2159 2158 1894 1895 2192 2191 13466 15378 15379 15371 13693 15605 15606 15598 13684 13691 15604 15597 15600 15607 13695 15608 15382 15609 15610 
1862 1863 2160 2159 1895 1896 2193 2192 13473 15385 15386 15378 13700 15612 15613 15605 13691 13698 15611 15604 15607 15614 13702 15615 15389 15616 15617 
1863 1864 2161 2160 1896 1897 2194 2193 13480 15392 15393 15385 13707 15619 15620 15612 13698 13705 15618 15611 15614 15621 13709 15622 15396 15623 15624 
1864 1865 2162 2161 1897 1898 2195 2194 13487 15399 15400 15392 13714 15626 15627 15619 13705 13712 15625 15618 15621 15628 13716 15629 15403 15630 15631 
1865 1866 2163 2162 1898 1899 2196 2195 13494 15406 15407 15399 13721 15633 15634 15626 13712 13719 15632 15625 15628 15635 13723 15636 15410 15637 15638 
1866 1867 2164 2163 1899 1900 2197 2196 13501 15413 15414 15406 13728 15640 15641 15633 13719 13726 15639 15632 15635 15642 13730 15643 15417 15644 15645 
1867 1868 2165 2164 1900 1901 2198 2197 13508 15420 15421 15413 13735 15647 15648 15640 13726 13733 15646 15639 15642 15649 13737 15650 15424 15651 15652 
1868 1869 2166 2165 1901 1902 2199 2198 13515 15427 15428 15420 13742 15654 15655 15647 13733 13740 15653 15646 15649 15656 13744 15657 15431 15658 15659 
1869 1870 2167 2166 1902 1903 2200 2199 13522 15434 15435 15427 13749 15661 15662 15654 13740 13747 15660 15653 15656 15663 13751 15664 15438 15665 15666 
1870 1871 2168 2167 1903 1904 2201 2200 13529 15441 15442 15434 13756 15668 15669 15661 13747 13754 15667 15660 15663 15670 13758 15671 15445 15672 15673 
1871 1872 2169 2168 1904 1905 2202 2201 13536 15448 15449 15441 13763 15675 15676 15668 13754 13761 15674 15667 15670 15677 13765 15678 15452 15679 15680 
1872 1873 2170 2169 1905 1906 2203 2202 13543 15455 15456 15448 13770 15682 15683 15675 13761 13768 15681 15674 15677 15684 13772 15685 15459 15686 15687 
1873 1874 2171 2170 1906 1907 2204 2203 13550 15462 15463 15455 13777 15689 15690 15682 13768 13775 15688 15681 15684 15691 13779 15692 15466 15693 15694 
1874 1875 2172 2171 1907 1908 2205 2204 13557 15469 15470 15462 13784 15696 15697 15689 13775 13782 15695 15688 15691 15698 13786 15699 15473 15700 15701 
1875 1876 2173 2172 1908 1909 2206 2205 13564 15476 15477 15469 13791 15703 15704 15696 13782 13789 15702 15695 15698 15705 13793 15706 15480 15707 15708 
1876 1877 2174 2173 1909 1910 2207 2206 13571 15483 15484 15476 13798 15710 15711 15703 13789 13796 15709 15702 15705 15712 13800 15713 15487 15714 15715 
1877 1878 2175 2174 1910 1911 2208 2207 13578 15490 15491 15483 13805 15717 15718 15710 13796 13803 15716 15709 15712 15719 13807 15720 15494 15721 15722 
1878 1879 2176 2175 1911 1912 2209 2208 13585 15497 15498 15490 13812 15724 15725 15717 13803 13810 15723 15716 15719 15726 13814 15727 15501 15728 15729 
1879 1880 2177 2176 1912 1913 2210 2209 13592 15504 15505 15497 13819 15731 15732 15724 13810 13817 15730 15723 15726 15733 13821 15734 15508 15735 15736 
1881 1882 2179 2178 1914 1915 2212 2211 13600 15512 15513 15514 13827 15739 15740 15741 13825 13824 15737 15738 15744 15742 13830 15743 15518 15745 15746 
1882 1883 2180 2179 1915 1916 2213 2212 13609 15521 15522 15512 13836 15748 15749 15739 13824 13834 15747 15737 15742 15750 13838 15751 15525 15752 15753 
1883 1884 2181 2180 1916 1917 2214 2213 13616 15528 15529 15521 13843 15755 15756 15748 13834 13841 15754 15747 15750 15757 13845 15758 15532 15759 15760 
1884 1885 2182 2181 1917 1918 2215 2214 13623 15535 15536 15528 13850 15762 15763 15755 13841 13848 15761 15754 15757 15764 13852 15765 15539 15766 15767 
1885 1886 2183 2182 1918 1919 2216 2215 13630 15542 15543 15535 13857 15769 15770 15762 13848 13855 15768 15761 15764 15771 13859 15772 15546 15773 15774 
1886 1887 2184 2183 1919 1920 2217 2216 13637 15549 15550 15542 13864 15776 15777 15769 13855 13862 15775 15768 15771 15778 13866 15779 15553 15780 15781 
1887 1888 2185 2184 1920 1921 2218 2217 13644 15556 15557 15549 13871 15783 15784 15776 13862 13869 15782 15775 15778 15785 13873 15786 15560 15787 15788 
1888 1889 2186 2185 1921 1922 2219 2218 13651 15563 15564 15556 13878 15790 15791 15783 13869 13876 15789 15782 15785 15792 13880 15793 15567 15794 15795 
1889 1890 2187 2186 1922 1923 2220 2219 13658 15570 15571 15563 13885 15797 15798 15790 13876 13883 15796 15789 15792 15799 13887 15800 15574 15801 15802 
1890 1891 2188 2187 1923 1924 2221 2220 13665 15577 15578 15570 13892 15804 15805 15797 13883 13890 15803 15796 15799 15806 13894 15807 15581 15808 15809 
1891 1892 2189 2188 1924 1925 2222 2221 13672 15584 15585 15577 13899 15811 15812 15804 13890 13897 15810 15803 15806 15813 13901 15814 15588 15815 15816 
1892 1893 2190 2189 1925 1926 2223 2222 13679 15591 15592 15584 13906 15818 15819 15811 13897 13904 15817 15810 15813 15820 13908 15821 15595 15822 15823 
1893 1894 2191 2190 1926 1927 2224 2223 13686 15598 15599 15591 13913 15825 15826 15818 13904 13911 15824 15817 15820 15827 13915 15828 15602 15829 15830 
1894 1895 2192 2191 1927 1928 2225 2224 13693 15605 15606 15598 13920 15832 15833 15825 13911 13918 15831 15824 15827 15834 13922 15835 15609 15836 15837 
1895 1896 2193 2192 1928 1929 2226 2225 13700 15612 15613 15605 13927 15839 15840 15832 13918 13925 15838 15831 15834 15841 13929 15842 15616 15843 15844 
1896 1897 2194 2193 1929 1930 2227 2226 13707 15619 15620 15612 13934 15846 15847 15839 13925 13932 15845 15838 15841 15848 13936 15849 15623 15850 15851 
1897 1898 2195 2194 1930 1931 2228 2227 13714 15626 15627 15619 13941 15853 15854 15846 13932 13939 15852 15845 15848 15855 13943 15856 15630 15857 15858 
1898 1899 2196 2195 1931 1932 2229 2228 13721 15633 15634 15626 13948 15860 15861 15853 13939 13946 15859 15852 15855 15862 13950 15863 15637 15864 15865 
1899 1900 2197 2196 1932 1933 2230 2229 13728 15640 15641 15633 13955 15867 15868 15860 13946 13953 15866 15859 15862 15869 13957 15870 15644 15871 15872 
1900 1901 2198 2197 1933 1934 2231 2230 13735 15647 15648 15640 13962 15874 15875 15867 13953 13960 15873 15866 15869 15876 13964 15877 15651 15878 15879 
1901 1902 2199 2198 1934 1935 2232 2231 13742 15654 15655 15647 13969 15881 15882 15874 13960 13967 15880 15873 15876 15883 13971 15884 15658 15885 15886 
1902 1903 2200 2199 1935 1936 2233 2232 13749 15661 15662 15654 13976 15888 15889 15881 13967 13974 15887 15880 15883 15890 13978 15891 15665 15892 15893 
1903 1904 2201 2200 1936 1937 2234 2233 13756 15668 15669 15661 13983 15895 15896 15888 13974 13981 15894 15887 15890 15897 13985 15898 15672 15899 15900 
1904 1905 2202 2201 1937 1938 2235 2234 13763 15675 15676 15668 13990 15902 15903 15895 13981 13988 15901 15894 15897 15904 13992 15905 15679 15906 15907 
1905 1906 2203 2202 1938 1939 2236 2235 13770 15682 15683 15675 13997 15909 15910 15902 13988 13995 15908 15901 15904 15911 13999 15912 15686 15913 15914 
1906 1907 2204 2203 1939 1940 2237 2236 13777 15689 15690 15682 14004 15916 15917 15909 13995 14002 15915 15908 15911 15918 14006 15919 15693 15920 15921 
1907 1908 2205 2204 1940 1941 2238 2237 13784 15696 15697 15689 14011 15923 15924 15916 14002 14009 15922 15915 15918 15925 14013 15926 15700 15927 15928 
1908 1909 2206 2205 1941 1942 2239 2238 13791 15703 15704 15696 14018 15930 15931 15923 14009 14016 15929 15922 15925 15932 14020 15933 15707 15934 15935 
1909 1910 2207 2206 1942 1943 2240 2239 13798 15710 15711 15703 14025 15937 15938 15930 14016 14023 15936 15929 15932 15939 14027 15940 15714 15941 15942 
1910 1911 2208 2207 1943 1944 2241 2240 13805 15717 15718 15710 14032 15944 15945 15937 14023 14030 15943 15936 15939 15946 14034 15947 15721 15948 15949 
1911 1912 2209 2208 1944 1945 2242 2241 13812 15724 15725 15717 14039 15951 15952 15944 14030 14037 15950 15943 15946 15953 14041 15954 15728 15955 15956 
1912 1913 2210 2209 1945 1946 2243 2242 13819 15731 15732 15724 14046 15958 15959 15951 14037 14044 15957 15950 15953 15960 14048 15961 15735 15962 15963 
1914 1915 2212 2211 1947 1948 2245 2244 13827 15739 15740 15741 14054 15966 15967 15968 14052 14051 15964 15965 15971 15969 14057 15970 15745 15972 15973 
1915 1916 2213 2212 1948 1949 2246 2245 13836 15748 15749 15739 14063 15975 15976 15966 14051 14061 15974 15964 15969 15977 14065 15978 15752 15979 15980 
1916 1917 2214 2213 1949 1950 2247 2246 13843 15755 15756 15748 14070 15982 15983 15975 14061 14068 15981 15974 15977 15984 14072 15985 15759 15986 15987 
1917 1918 2215 2214 1950 1951 2248 2247 13850 15762 15763 15755 14077 15989 15990 15982 14068 14075 15988 15981 15984 15991 14079 15992 15766 15993 15994 
1918 1919 2216 2215 1951 1952 2249 2248 13857 15769 15770 15762 14084 15996 15997 15989 14075 14082 15995 15988 15991 15998 14086 15999 15773 16000 16001 
1919 1920 2217 2216 1952 1953 2250 2249 13864 15776 15777 15769 14091 16003 16004 15996 14082 14089 16002 15995 15998 16005 14093 16006 15780 16007 16008 
1920 1921 2218 2217 1953 1954 2251 2250 13871 15783 15784 15776 14098 16010 16011 16003 14089 14096 16009 16002 16005 16012 14100 16013 15787 16014 16015 
1921 1922 2219 2218 1954 1955 2252 2251 13878 15790 15791 15783 14105 16017 16018 16010 14096 14103 16016 16009 16012 16019 14107 16020 15794 16021 16022 
1922 1923 2220 2219 1955 1956 2253 2252 13885 15797 15798 15790 14112 16024 16025 16017 14103 14110 16023 16016 16019 16026 14114 16027 15801 16028 16029 
1923 1924 2221 2220 1956 1957 2254 2253 13892 15804 15805 15797 14119 16031 16032 16024 14110 14117 16030 16023 16026 16033 14121 16034 15808 16035 16036 
1924 1925 2222 2221 1957 1958 2255 2254 13899 15811 15812 15804 14126 16038 16039 16031 14117 14124 16037 16030 16033 16040 14128 16041 15815 16042 16043 
1925 1926 2223 2222 1958 1959 2256 2255 13906 15818 15819 15811 14133 16045 16046 16038 14124 14131 16044 16037 16040 16047 14135 16048 15822 16049 16050 
1926 1927 2224 2223 1959 1960 2257 2256 13913 15825 15826 15818 14140 16052 16053 16045 14131 14138 16051 16044 16047 16054 14142 16055 15829 16056 16057 
1927 1928 2225 2224 1960 1961 2258 2257 13920 15832 15833 15825 14147 16059 16060 16052 14138 14145 16058 16051 16054 16061 14149 16062 15836 16063 16064 
1928 1929 2226 2225 1961 1962 2259 2258 13927 15839 15840 15832 14154 16066 16067 16059 14145 14152 16065 16058 16061 16068 14156 16069 15843 16070 16071 
1929 1930 2227 2226 1962 1963 2260 2259 13934 15846 15847 15839 14161 16073 16074 16066 14152 14159 16072 16065 16068 16075 14163 16076 15850 16077 16078 
1930 1931 2228 2227 1963 1964 2261 2260 13941 15853 15854 15846 14168 16080 16081 16073 14159 14166 16079 16072 16075 16082 14170 16083 15857 16084 16085 
1931 1932 2229 2228 1964 1965 2262 2261 13948 15860 15861 15853 14175 16087 16088 16080 14166 14173 16086 16079 16082 16089 14177 16090 15864 16091 16092 
1932 1933 2230 2229 1965 1966 2263 2262 13955 15867 15868 15860 14182 16094 16095 16087 14173 14180 16093 16086 16089 16096 14184 16097 15871 16098 16099 
1933 1934 2231 2230 1966 1967 2264 2263 13962 15874 15875 15867 14189 16101 16102 16094 14180 14187 16100 16093 16096 16103 14191 16104 15878 16105 16106 
1934 1935 2232 2231 1967 1968 2265 2264 13969 15881 15882 15874 14196 16108 16109 16101 14187 14194 16107 16100 16103 16110 14198 16111 15885 16112 16113 
1935 1936 2233 2232 1968 1969 2266 2265 13976 15888 15889 15881 14203 16115 16116 16108 14194 14201 16114 16107 16110 16117 14205 16118 15892 16119 16120 
1936 1937 2234 2233 1969 1970 2267 2266 13983 15895 15896 15888 14210 16122 16123 16115 14201 14208 16121 16114 16117 16124 14212 16125 15899 16126 16127 
1937 1938 2235 2234 1970 1971 2268 2267 13990 15902 15903 15895 14217 16129 16130 16122 14208 14215 16128 16121 16124 16131 14219 16132 15906 16133 16134 
1938 1939 2236 2235 1971 1972 2269 2268 13997 15909 15910 15902 14224 16136 16137 16129 14215 14222 16135 16128 16131 16138 14226 16139 15913 16140 16141 
1939 1940 2237 2236 1972 1973 2270 2269 14004 15916 15917 15909 14231 16143 16144 16136 14222 14229 16142 16135 16138 16145 14233 16146 15920 16147 16148 
1940 1941 2238 2237 1973 1974 2271 2270 14011 15923 15924 15916 14238 16150 16151 16143 14229 14236 16149 16142 16145 16152 14240 16153 15927 16154 16155 
1941 1942 2239 2238 1974 1975 2272 2271 14018 15930 15931 15923 14245 16157 16158 16150 14236 14243 16156 16149 16152 16159 14247 16160 15934 16161 16162 
1942 1943 2240 2239 1975 1976 2273 2272 14025 15937 15938 15930 14252 16164 16165 16157 14243 14250 16163 16156 16159 16166 14254 16167 15941 16168 16169 
1943 1944 2241 2240 1976 1977 2274 2273 14032 15944 15945 15937 14259 16171 16172 16164 14250 14257 16170 16163 16166 16173 14261 16174 15948 16175 16176 
1944 1945 2242 2241 1977 1978 2275 2274 14039 15951 15952 15944 14266 16178 16179 16171 14257 14264 16177 16170 16173 16180 14268 16181 15955 16182 16183 
1945 1946 2243 2242 1978 1979 2276 2275 14046 15958 15959 15951 14273 16185 16186 16178 14264 14271 16184 16177 16180 16187 14275 16188 15962 16189 16190 
1947 1948 2245 2244 1980 1981 2278 2277 14054 15966 15967 15968 14281 16193 16194 16195 14279 14278 16191 16192 16198 16196 14284 16197 15972 16199 16200 
1948 1949 2246 2245 1981 1982 2279 2278 14063 15975 15976 15966 14290 16202 16203 16193 14278 14288 16201 16191 16196 16204 14292 16205 15979 16206 16207 
1949 1950 2247 2246 1982 1983 2280 2279 14070 15982 15983 15975 14297 16209 16210 16202 14288 14295 16208 16201 16204 16211 14299 16212 15986 16213 16214 
1950 1951 2248 2247 1983 1984 2281 2280 14077 15989 15990 15982 14304 16216 16217 16209 14295 14302 16215 16208 16211 16218 14306 16219 15993 16220 16221 
1951 1952 2249 2248 1984 1985 2282 2281 14084 15996 15997 15989 14311 16223 16224 16216 14302 14309 16222 16215 16218 16225 14313 16226 16000 16227 16228 
1952 1953 2250 2249 1985 1986 2283 2282 14091 16003 16004 15996 14318 16230 16231 16223 14309 14316 16229 16222 16225 16232 14320 16233 16007 16234 16235 
1953 1954 2251 2250 1986 1987 2284 2283 14098 16010 16011 16003 14325 16237 16238 16230 14316 14323 16236 16229 16232 16239 14327 16240 16014 16241 16242 
1954 1955 2252 2251 1987 1988 2285 2284 14105 16017 16018 16010 14332 16244 16245 16237 14323 14330 16243 16236 16239 16246 14334 16247 16021 16248 16249 
1955 1956 2253 2252 1988 1989 2286 2285 14112 16024 16025 16017 14339 16251 16252 16244 14330 14337 16250 16243 16246 16253 14341 16254 16028 16255 16256 
1956 1957 2254 2253 1989 1990 2287 2286 14119 16031 16032 16024 14346 16258 16259 16251 14337 14344 16257 16250 16253 16260 14348 16261 16035 16262 16263 
1957 1958 2255 2254 1990 1991 2288 2287 14126 16038 16039 16031 14353 16265 16266 16258 14344 14351 16264 16257 16260 16267 14355 16268 16042 16269 16270 
1958 1959 2256 2255 1991 1992 2289 2288 14133 16045 16046 16038 14360 16272 16273 16265 14351 14358 16271 16264 16267 16274 14362 16275 16049 16276 16277 
1959 1960 2257 2256 1992 1993 2290 2289 14140 16052 16053 16045 14367 16279 16280 16272 14358 14365 16278 16271 16274 16281 14369 16282 16056 16283 16284 
1960 1961 2258 2257 1993 1994 2291 2290 14147 16059 16060 16052 14374 16286 16287 16279 14365 14372 16285 16278 16281 16288 14376 16289 16063 16290 16291 
1961 1962 2259 2258 1994 1995 2292 2291 14154 16066 16067 16059 14381 16293 16294 16286 14372 14379 16292 16285 16288 16295 14383 16296 16070 16297 16298 
1962 1963 2260 2259 1995 1996 2293 2292 14161 16073 16074 16066 14388 16300 16301 16293 14379 14386 16299 16292 16295 16302 14390 16303 16077 16304 16305 
1963 1964 2261 2260 1996 1997 2294 2293 14168 16080 16081 16073 14395 16307 16308 16300 14386 14393 16306 16299 16302 16309 14397 16310 16084 16311 16312 
1964 1965 2262 2261 1997 1998 2295 2294 14175 16087 16088 16080 14402 16314 16315 16307 14393 14400 16313 16306 16309 16316 14404 16317 16091 16318 16319 
1965 1966 2263 2262 1998 1999 2296 2295 14182 16094 16095 16087 14409 16321 16322 16314 14400 14407 16320 16313 16316 16323 14411 16324 16098 16325 16326 
1966 1967 2264 2263 1999 2000 2297 2296 14189 16101 16102 16094 14416 16328 16329 16321 14407 14414 16327 16320 16323 16330 14418 16331 16105 16332 16333 
1967 1968 2265 2264 2000 2001 2298 2297 14196 16108 16109 16101 14423 16335 16336 16328 14414 14421 16334 16327 16330 16337 14425 16338 16112 16339 16340 
1968 1969 2266 2265 2001 2002 2299 2298 14203 16115 16116 16108 14430 16342 16343 16335 14421 14428 16341 16334 16337 16344 14432 16345 16119 16346 16347 
1969 1970 2267 2266 2002 2003 2300 2299 14210 16122 16123 16115 14437 16349 16350 16342 14428 14435 16348 16341 16344 16351 14439 16352 16126 16353 16354 
1970 1971 2268 2267 2003 2004 2301 2300 14217 16129 16130 16122 14444 16356 16357 16349 14435 14442 16355 16348 16351 16358 14446 16359 16133 16360 16361 
1971 1972 2269 2268 2004 2005 2302 2301 14224 16136 16137 16129 14451 16363 16364 16356 14442 14449 16362 16355 16358 16365 14453 16366 16140 16367 16368 
1972 1973 2270 2269 2005 2006 2303 2302 14231 16143 16144 16136 14458 16370 16371 16363 14449 14456 16369 16362 16365 16372 14460 16373 16147 16374 16375 
1973 1974 2271 2270 2006 2007 2304 2303 14238 16150 16151 16143 14465 16377 16378 16370 14456 14463 16376 16369 16372 16379 14467 16380 16154 16381 16382 
1974 1975 2272 2271 2007 2008 2305 2304 14245 16157 16158 16150 14472 16384 16385 16377 14463 14470 16383 16376 16379 16386 14474 16387 16161 16388 16389 
1975 1976 2273 2272 2008 2009 2306 2305 14252 16164 16165 16157 14479 16391 16392 16384 14470 14477 16390 16383 16386 16393 14481 16394 16168 16395 16396 
1976 1977 2274 2273 2009 2010 2307 2306 14259 16171 16172 16164 14486 16398 16399 16391 14477 14484 16397 16390 16393 16400 14488 16401 16175 16402 16403 
1977 1978 2275 2274 2010 2011 2308 2307 14266 16178 16179 16171 14493 16405 16406 16398 14484 14491 16404 16397 16400 16407 14495 16408 16182 16409 16410 
1978 1979 2276 2275 2011 2012 2309 2308 14273 16185 16186 16178 14500 16412 16413 16405 14491 14498 16411 16404 16407 16414 14502 16415 16189 16416 16417 
1980 1981 2278 2277 2013 2014 2311 2310 14281 16193 16194 16195 14508 16420 16421 16422 14506 14505 16418 16419 16425 16423 14511 16424 16199 16426 16427 
1981 1982 2279 2278 2014 2015 2312 2311 14290 16202 16203 16193 14517 16429 16430 16420 14505 14515 16428 16418 16423 16431 14519 16432 16206 16433 16434 
1982 1983 2280 2279 2015 2016 2313 2312 14297 16209 16210 16202 14524 16436 16437 16429 14515 14522 16435 16428 16431 16438 14526 16439 16213 16440 16441 
1983 1984 2281 2280 2016 2017 2314 2313 14304 16216 16217 16209 14531 16443 16444 16436 14522 14529 16442 16435 16438 16445 14533 16446 16220 16447 16448 
1984 1985 2282 2281 2017 2018 2315 2314 14311 16223 16224 16216 14538 16450 16451 16443 14529 14536 16449 16442 16445 16452 14540 16453 16227 16454 16455 
1985 1986 2283 2282 2018 2019 2316 2315 14318 16230 16231 16223 14545 16457 16458 16450 14536 14543 16456 16449 16452 16459 14547 16460 16234 16461 16462 
1986 1987 2284 2283 2019 2020 2317 2316 14325 16237 16238 16230 14552 16464 16465 16457 14543 14550 16463 16456 16459 16466 14554 16467 16241 16468 16469 
1987 1988 2285 2284 2020 2021 2318 2317 14332 16244 16245 16237 14559 16471 16472 16464 14550 14557 16470 16463 16466 16473 14561 16474 16248 16475 16476 
1988 1989 2286 2285 2021 2022 2319 2318 14339 16251 16252 16244 14566 16478 16479 16471 14557 14564 16477 16470 16473 16480 14568 16481 16255 16482 16483 
1989 1990 2287 2286 2022 2023 2320 2319 14346 16258 16259 16251 14573 16485 16486 16478 14564 14571 16484 16477 16480 16487 14575 16488 16262 16489 16490 
1990 1991 2288 2287 2023 2024 2321 2320 14353 16265 16266 16258 14580 16492 16493 16485 14571 14578 16491 16484 16487 16494 14582 16495 16269 16496 16497 
1991 1992 2289 2288 2024 2025 2322 2321 14360 16272 16273 16265 14587 16499 16500 16492 14578 14585 16498 16491 16494 16501 14589 16502 16276 16503 16504 
1992 1993 2290 2289 2025 2026 2323 2322 14367 16279 16280 16272 14594 16506 16507 16499 14585 14592 16505 16498 16501 16508 14596 16509 16283 16510 16511 
1993 1994 2291 2290 2026 2027 2324 2323 14374 16286 16287 16279 14601 16513 16514 16506 14592 14599 16512 16505 16508 16515 14603 16516 16290 16517 16518 
1994 1995 2292 2291 2027 2028 2325 2324 14381 16293 16294 16286 14608 16520 16521 16513 14599 14606 16519 16512 16515 16522 14610 16523 16297 16524 16525 
1995 1996 2293 2292 2028 2029 2326 2325 14388 16300 16301 16293 14615 16527 16528 16520 14606 14613 16526 16519 16522 16529 14617 16530 16304 16531 16532 
1996 1997 2294 2293 2029 2030 2327 2326 14395 16307 16308 16300 14622 16534 16535 16527 14613 14620 16533 16526 16529 16536 14624 16537 16311 16538 16539 
1997 1998 2295 2294 2030 2031 2328 2327 14402 16314 16315 16307 14629 16541 16542 16534 14620 14627 16540 16533 16536 16543 14631 16544 16318 16545 16546 
1998 1999 2296 2295 2031 2032 2329 2328 14409 16321 16322 16314 14636 16548 16549 16541 14627 14634 16547 16540 16543 16550 14638 16551 16325 16552 16553 
1999 2000 2297 2296 2032 2033 2330 2329 14416 16328 16329 16321 14643 16555 16556 16548 14634 14641 16554 16547 16550 16557 14645 16558 16332 16559 16560 
2000 2001 2298 2297 2033 2034 2331 2330 14423 16335 16336 16328 14650 16562 16563 16555 14641 14648 16561 16554 16557 16564 14652 16565 16339 16566 16567 
2001 2002 2299 2298 2034 2035 2332 2331 14430 16342 16343 16335 14657 16569 16570 16562 14648 14655 16568 16561 16564 16571 14659 16572 16346 16573 16574 
2002 2003 2300 2299 2035 2036 2333 2332 14437 16349 16350 16342 14664 16576 16577 16569 14655 14662 16575 16568 16571 16578 14666 16579 16353 16580 16581 
2003 2004 2301 2300 2036 2037 2334 2333 14444 16356 16357 16349 14671 16583 16584 16576 14662 14669 16582 16575 16578 16585 14673 16586 16360 16587 16588 
2004 2005 2302 2301 2037 2038 2335 2334 14451 16363 16364 16356 14678 16590 16591 16583 14669 14676 16589 16582 16585 16592 14680 16593 16367 16594 16595 
2005 2006 2303 2302 2038 2039 2336 2335 14458 16370 16371 16363 14685 16597 16598 16590 14676 14683 16596 16589 16592 16599 14687 16600 16374 16601 16602 
2006 2007 2304 2303 2039 2040 2337 2336 14465 16377 16378 16370 14692 16604 16605 16597 14683 14690 16603 16596 16599 16606 14694 16607 16381 16608 16609 
2007 2008 2305 2304 2040 2041 2338 2337 14472 16384 16385 16377 14699 16611 16612 16604 14690 14697 16610 16603 16606 16613 14701 16614 16388 16615 16616 
2008 2009 2306 2305 2041 2042 2339 2338 14479 16391 16392 16384 14706 16618 16619 16611 14697 14704 16617 16610 16613 16620 14708 16621 16395 16622 16623 
2009 2010 2307 2306 2042 2043 2340 2339 14486 16398 16399 16391 14713 16625 16626 16618 14704 14711 16624 16617 16620 16627 14715 16628 16402 16629 16630 
2010 2011 2308 2307 2043 2044 2341 2340 14493 16405 16406 16398 14720 16632 16633 16625 14711 14718 16631 16624 16627 16634 14722 16635 16409 16636 16637 
2011 2012 2309 2308 2044 2045 2342 2341 14500 16412 16413 16405 14727 16639 16640 16632 14718 14725 16638 16631 16634 16641 14729 16642 16416 16643 16644 
2013 2014 2311 2310 2046 2047 2344 2343 14508 16420 16421 16422 14735 16647 16648 16649 14733 14732 16645 16646 16652 16650 14738 16651 16426 16653 16654 
2014 2015 2312 2311 2047 2048 2345 2344 14517 16429 16430 16420 14744 16656 16657 16647 14732 14742 16655 16645 16650 16658 14746 16659 16433 16660 16661 
2015 2016 2313 2312 2048 2049 2346 2345 14524 16436 16437 16429 14751 16663 16664 16656 14742 14749 16662 16655 16658 16665 14753 16666 16440 16667 16668 
2016 2017 2314 2313 2049 2050 2347 2346 14531 16443 16444 16436 14758 16670 16671 16663 14749 14756 16669 16662 16665 16672 14760 16673 16447 16674 16675 
2017 2018 2315 2314 2050 2051 2348 2347 14538 16450 16451 16443 14765 16677 16678 16670 14756 14763 16676 16669 16672 16679 14767 16680 16454 16681 16682 
2018 2019 2316 2315 2051 2052 2349 2348 14545 16457 16458 16450 14772 16684 16685 16677 14763 14770 16683 16676 16679 16686 14774 16687 16461 16688 16689 
2019 2020 2317 2316 2052 2053 2350 2349 14552 16464 16465 16457 14779 16691 16692 16684 14770 14777 16690 16683 16686 16693 14781 16694 16468 16695 16696 
2020 2021 2318 2317 2053 2054 2351 2350 14559 16471 16472 16464 14786 16698 16699 16691 14777 14784 16697 16690 16693 16700 14788 16701 16475 16702 16703 
2021 2022 2319 2318 2054 2055 2352 2351 14566 16478 16479 16471 14793 16705 16706 16698 14784 14791 16704 16697 16700 16707 14795 16708 16482 16709 16710 
2022 2023 2320 2319 2055 2056 2353 2352 14573 16485 16486 16478 14800 16712 16713 16705 14791 14798 16711 16704 16707 16714 14802 16715 16489 16716 16717 
2023 2024 2321 2320 2056 2057 2354 2353 14580 16492 16493 16485 14807 16719 16720 16712 14798 14805 16718 16711 16714 16721 14809 16722 16496 16723 16724 
2024 2025 2322 2321 2057 2058 2355 2354 14587 16499 16500 16492 14814 16726 16727 16719 14805 14812 16725 16718 16721 16728 14816 16729 16503 16730 16731 
2025 2026 2323 2322 2058 2059 2356 2355 14594 16506 16507 16499 14821 16733 16734 16726 14812 14819 16732 16725 16728 16735 14823 16736 16510 16737 16738 
2026 2027 2324 2323 2059 2060 2357 2356 14601 16513 16514 16506 14828 16740 16741 16733 14819 14826 16739 16732 16735 16742 14830 16743 16517 16744 16745 
2027 2028 2325 2324 2060 2061 2358 2357 14608 16520 16521 16513 14835 16747 16748 16740 14826 14833 16746 16739 16742 16749 14837 16750 16524 16751 16752 
2028 2029 2326 2325 2061 2062 2359 2358 14615 16527 16528 16520 14842 16754 16755 16747 14833 14840 16753 16746 16749 16756 14844 16757 16531 16758 16759 
2029 2030 2327 2326 2062 2063 2360 2359 14622 16534 16535 16527 14849 16761 16762 16754 14840 14847 16760 16753 16756 16763 14851 16764 16538 16765 16766 
2030 2031 2328 2327 2063 2064 2361 2360 14629 16541 16542 16534 14856 16768 16769 16761 14847 14854 16767 16760 16763 16770 14858 16771 16545 16772 16773 
2031 2032 2329 2328 2064 2065 2362 2361 14636 16548 16549 16541 14863 16775 16776 16768 14854 14861 16774 16767 16770 16777 14865 16778 16552 16779 16780 
2032 2033 2330 2329 2065 2066 2363 2362 14643 16555 16556 16548 14870 16782 16783 16775 14861 14868 16781 16774 16777 16784 14872 16785 16559 16786 16787 
2033 2034 2331 2330 2066 2067 2364 2363 14650 16562 16563 16555 14877 16789 16790 16782 14868 14875 16788 16781 16784 16791 14879 16792 16566 16793 16794 
2034 2035 2332 2331 2067 2068 2365 2364 14657 16569 16570 16562 14884 16796 16797 16789 14875 14882 16795 16788 16791 16798 14886 16799 16573 16800 16801 
2035 2036 2333 2332 2068 2069 2366 2365 14664 16576 16577 16569 14891 16803 16804 16796 14882 14889 16802 16795 16798 16805 14893 16806 16580 16807 16808 
2036 2037 2334 2333 2069 2070 2367 2366 14671 16583 16584 16576 14898 16810 16811 16803 14889 14896 16809 16802 16805 16812 14900 16813 16587 16814 16815 
2037 2038 2335 2334 2070 2071 2368 2367 14678 16590 16591 16583 14905 16817 16818 16810 14896 14903 16816 16809 16812 16819 14907 16820 16594 16821 16822 
2038 2039 2336 2335 2071 2072 2369 2368 14685 16597 16598 16590 14912 16824 16825 16817 14903 14910 16823 16816 16819 16826 14914 16827 16601 16828 16829 
2039 2040 2337 2336 2072 2073 2370 2369 14692 16604 16605 16597 14919 16831 16832 16824 14910 14917 16830 16823 16826 16833 14921 16834 16608 16835 16836 
2040 2041 2338 2337 2073 2074 2371 2370 14699 16611 16612 16604 14926 16838 16839 16831 14917 14924 16837 16830 16833 16840 14928 16841 16615 16842 16843 
2041 2042 2339 2338 2074 2075 2372 2371 14706 16618 16619 16611 14933 16845 16846 16838 14924 14931 16844 16837 16840 16847 14935 16848 16622 16849 16850 
2042 2043 2340 2339 2075 2076 2373 2372 14713 16625 16626 16618 14940 16852 16853 16845 14931 14938 16851 16844 16847 16854 14942 16855 16629 16856 16857 
2043 2044 2341 2340 2076 2077 2374 2373 14720 16632 16633 16625 14947 16859 16860 16852 14938 14945 16858 16851 16854 16861 14949 16862 16636 16863 16864 
2044 2045 2342 2341 2077 2078 2375 2374 14727 16639 16640 16632 14954 16866 16867 16859 14945 14952 16865 16858 16861 16868 14956 16869 16643 16870 16871 
2079 2080 2377 2376 2112 2113 2410 2409 14960 16872 16873 16874 14965 16877 16878 16879 14963 14962 16875 16876 16883 16881 14969 16882 16880 16884 16885 
2080 2081 2378 2377 2113 2114 2411 2410 14974 16886 16887 16872 14977 16889 16890 16877 14962 14975 16888 16875 16881 16892 14980 16893 16891 16894 16895 
2081 2082 2379 2378 2114 2115 2412 2411 14984 16896 16897 16886 14987 16899 16900 16889 14975 14985 16898 16888 16892 16902 14990 16903 16901 16904 16905 
2082 2083 2380 2379 2115 2116 2413 2412 14994 16906 16907 16896 14997 16909 16910 16899 14985 14995 16908 16898 16902 16912 15000 16913 16911 16914 16915 
2083 2084 2381 2380 2116 2117 2414 2413 15004 16916 16917 16906 15007 16919 16920 16909 14995 15005 16918 16908 16912 16922 15010 16923 16921 16924 16925 
2084 2085 2382 2381 2117 2118 2415 2414 15014 16926 16927 16916 15017 16929 16930 16919 15005 15015 16928 16918 16922 16932 15020 16933 16931 16934 16935 
2085 2086 2383 2382 2118 2119 2416 2415 15024 16936 16937 16926 15027 16939 16940 16929 15015 15025 16938 16928 16932 16942 15030 16943 16941 16944 16945 
2086 2087 2384 2383 2119 2120 2417 2416 15034 16946 16947 16936 15037 16949 16950 16939 15025 15035 16948 16938 16942 16952 15040 16953 16951 16954 16955 
2087 2088 2385 2384 2120 2121 2418 2417 15044 16956 16957 16946 15047 16959 16960 16949 15035 15045 16958 16948 16952 16962 15050 16963 16961 16964 16965 
2088 2089 2386 2385 2121 2122 2419 2418 15054 16966 16967 16956 15057 16969 16970 16959 15045 15055 16968 16958 16962 16972 15060 16973 16971 16974 16975 
2089 2090 2387 2386 2122 2123 2420 2419 15064 16976 16977 16966 15067 16979 16980 16969 15055 15065 16978 16968 16972 16982 15070 16983 16981 16984 16985 
2090 2091 2388 2387 2123 2124 2421 2420 15074 16986 16987 16976 15077 16989 16990 16979 15065 15075 16988 16978 16982 16992 15080 16993 16991 16994 16995 
2091 2092 2389 2388 2124 2125 2422 2421 15084 16996 16997 16986 15087 16999 17000 16989 15075 15085 16998 16988 16992 17002 15090 17003 17001 17004 17005 
2092 2093 2390 2389 2125 2126 2423 2422 15094 17006 17007 16996 15097 17009 17010 16999 15085 15095 17008 16998 17002 17012 15100 17013 17011 17014 17015 
2093 2094 2391 2390 2126 2127 2424 2423 15104 17016 17017 17006 15107 17019 17020 17009 15095 15105 17018 17008 17012 17022 15110 17023 17021 17024 17025 
2094 2095 2392 2391 2127 2128 2425 2424 15114 17026 17027 17016 15117 17029 17030 17019 15105 15115 17028 17018 17022 17032 15120 17033 17031 17034 17035 
2095 2096 2393 2392 2128 2129 2426 2425 15124 17036 17037 17026 15127 17039 17040 17029 15115 15125 17038 17028 17032 17042 15130 17043 17041 17044 17045 
2096 2097 2394 2393 2129 2130 2427 2426 15134 17046 17047 17036 15137 17049 17050 17039 15125 15135 17048 17038 17042 17052 15140 17053 17051 17054 17055 
2097 2098 2395 2394 2130 2131 2428 2427 15144 17056 17057 17046 15147 17059 17060 17049 15135 15145 17058 17048 17052 17062 15150 17063 17061 17064 17065 
2098 2099 2396 2395 2131 2132 2429 2428 15154 17066 17067 17056 15157 17069 17070 17059 15145 15155 17068 17058 17062 17072 15160 17073 17071 17074 17075 
2099 2100 2397 2396 2132 2133 2430 2429 15164 17076 17077 17066 15167 17079 17080 17069 15155 15165 17078 17068 17072 17082 15170 17083 17081 17084 17085 
2100 2101 2398 2397 2133 2134 2431 2430 15174 17086 17087 17076 15177 17089 17090 17079 15165 15175 17088 17078 17082 17092 15180 17093 17091 17094 17095 
2101 2102 2399 2398 2134 2135 2432 2431 15184 17096 17097 17086 15187 17099 17100 17089 15175 15185 17098 17088 17092 17102 15190 17103 17101 17104 17105 
2102 2103 2400 2399 2135 2136 2433 2432 15194 17106 17107 17096 15197 17109 17110 17099 15185 15195 17108 17098 17102 17112 15200 17113 17111 17114 17115 
2103 2104 2401 2400 2136 2137 2434 2433 15204 17116 17117 17106 15207 17119 17120 17109 15195 15205 17118 17108 17112 17122 15210 17123 17121 17124 17125 
2104 2105 2402 2401 2137 2138 2435 2434 15214 17126 17127 17116 15217 17129 17130 17119 15205 15215 17128 17118 17122 17132 15220 17133 17131 17134 17135 
2105 2106 2403 2402 2138 2139 2436 2435 15224 17136 17137 17126 15227 17139 17140 17129 15215 15225 17138 17128 17132 17142 15230 17143 17141 17144 17145 
2106 2107 2404 2403 2139 2140 2437 2436 15234 17146 17147 17136 15237 17149 17150 17139 15225 15235 17148 17138 17142 17152 15240 17153 17151 17154 17155 
2107 2108 2405 2404 2140 2141 2438 2437 15244 17156 17157 17146 15247 17159 17160 17149 15235 15245 17158 17148 17152 17162 15250 17163 17161 17164 17165 
2108 2109 2406 2405 2141 2142 2439 2438 15254 17166 17167 17156 15257 17169 17170 17159 15245 15255 17168 17158 17162 17172 15260 17173 17171 17174 17175 
2109 2110 2407 2406 2142 2143 2440 2439 15264 17176 17177 17166 15267 17179 17180 17169 15255 15265 17178 17168 17172 17182 15270 17183 17181 17184 17185 
2110 2111 2408 2407 2143 2144 2441 2440 15274 17186 17187 17176 15277 17189 17190 17179 15265 15275 17188 17178 17182 17192 15280 17193 17191 17194 17195 
2112 2113 2410 2409 2145 2146 2443 2442 14965 16877 16878 16879 15286 17198 17199 17200 15284 15283 17196 17197 17203 17201 15289 17202 16884 17204 17205 
2113 2114 2411 2410 2146 2147 2444 2443 14977 16889 16890 16877 15295 17207 17208 17198 15283 15293 17206 17196 17201 17209 15297 17210 16894 17211 17212 
2114 2115 2412 2411 2147 2148 2445 2444 14987 16899 16900 16889 15302 17214 17215 17207 15293 15300 17213 17206 17209 17216 15304 17217 16904 17218 17219 
2115 2116 2413 2412 2148 2149 2446 2445 14997 16909 16910 16899 15309 17221 17222 17214 15300 15307 17220 17213 17216 17223 15311 17224 16914 17225 17226 
2116 2117 2414 2413 2149 2150 2447 2446 15007 16919 16920 16909 15316 17228 17229 17221 15307 15314 17227 17220 17223 17230 15318 17231 16924 17232 17233 
2117 2118 2415 2414 2150 2151 2448 2447 15017 16929 16930 16919 15323 17235 17236 17228 15314 15321 17234 17227 17230 17237 15325 17238 16934 17239 17240 
2118 2119 2416 2415 2151 2152 2449 2448 15027 16939 16940 16929 15330 17242 17243 17235 15321 15328 17241 17234 17237 17244 15332 17245 16944 17246 17247 
2119 2120 2417 2416 2152 2153 2450 2449 15037 16949 16950 16939 15337 17249 17250 17242 15328 15335 17248 17241 17244 17251 15339 17252 16954 17253 17254 
2120 2121 2418 2417 2153 2154 2451 2450 15047 16959 16960 16949 15344 17256 17257 17249 15335 15342 17255 17248 17251 17258 15346 17259 16964 17260 17261 
2121 2122 2419 2418 2154 2155 2452 2451 15057 16969 16970 16959 15351 17263 17264 17256 15342 15349 17262 17255 17258 17265 15353 17266 16974 17267 17268 
2122 2123 2420 2419 2155 2156 2453 2452 15067 16979 16980 16969 15358 17270 17271 17263 15349 15356 17269 17262 17265 17272 15360 17273 16984 17274 17275 
2123 2124 2421 2420 2156 2157 2454 2453 15077 16989 16990 16979 15365 17277 17278 17270 15356 15363 17276 17269 17272 17279 15367 17280 16994 17281 17282 
2124 2125 2422 2421 2157 2158 2455 2454 15087 16999 17000 16989 15372 17284 17285 17277 15363 15370 17283 17276 17279 17286 15374 17287 17004 17288 17289 
2125 2126 2423 2422 2158 2159 2456 2455 15097 17009 17010 16999 15379 17291 17292 17284 15370 15377 17290 17283 17286 17293 15381 17294 17014 17295 17296 
2126 2127 2424 2423 2159 2160 2457 2456 15107 17019 17020 17009 15386 17298 17299 17291 15377 15384 17297 17290 17293 17300 15388 17301 17024 17302 17303 
2127 2128 2425 2424 2160 2161 2458 2457 15117 17029 17030 17019 15393 17305 17306 17298 15384 15391 17304 17297 17300 17307 15395 17308 17034 17309 17310 
2128 2129 2426 2425 2161 2162 2459 2458 15127 17039 17040 17029 15400 17312 17313 17305 15391 15398 17311 17304 17307 17314 15402 17315 17044 17316 17317 
2129 2130 2427 2426 2162 2163 2460 2459 15137 17049 17050 17039 15407 17319 17320 17312 15398 15405 17318 17311 17314 17321 15409 17322 17054 17323 17324 
2130 2131 2428 2427 2163 2164 2461 2460 15147 17059 17060 17049 15414 17326 17327 17319 15405 15412 17325 17318 17321 17328 15416 17329 17064 17330 17331 
2131 2132 2429 2428 2164 2165 2462 2461 15157 17069 17070 17059 15421 17333 17334 17326 15412 15419 17332 17325 17328 17335 15423 17336 17074 17337 17338 
2132 2133 2430 2429 2165 2166 2463 2462 15167 17079 17080 17069 15428 17340 17341 17333 15419 15426 17339 17332 17335 17342 15430 17343 17084 17344 17345 
2133 2134 2431 2430 2166 2167 2464 2463 15177 17089 17090 17079 15435 17347 17348 17340 15426 15433 17346 17339 17342 17349 15437 17350 17094 17351 17352 
2134 2135 2432 2431 2167 2168 2465 2464 15187 17099 17100 17089 15442 17354 17355 17347 15433 15440 17353 17346 17349 17356 15444 17357 17104 17358 17359 
2135 2136 2433 2432 2168 2169 2466 2465 15197 17109 17110 17099 15449 17361 17362 17354 15440 15447 17360 17353 17356 17363 15451 17364 17114 17365 17366 
2136 2137 2434 2433 2169 2170 2467 2466 15207 17119 17120 17109 15456 17368 17369 17361 15447 15454 17367 17360 17363 17370 15458 17371 17124 17372 17373 
2137 2138 2435 2434 2170 2171 2468 2467 15217 17129 17130 17119 15463 17375 17376 17368 15454 15461 17374 17367 17370 17377 15465 17378 17134 17379 17380 
2138 2139 2436 2435 2171 2172 2469 2468 15227 17139 17140 17129 15470 17382 17383 17375 15461 15468 17381 17374 17377 17384 15472 17385 17144 17386 17387 
2139 2140 2437 2436 2172 2173 2470 2469 15237 17149 17150 17139 15477 17389 17390 17382 15468 15475 17388 17381 17384 17391 15479 17392 17154 17393 17394 
2140 2141 2438 2437 2173 2174 2471 2470 15247 17159 17160 17149 15484 17396 17397 17389 15475 15482 17395 17388 17391 17398 15486 17399 17164 17400 17401 
2141 2142 2439 2438 2174 2175 2472 2471 15257 17169 17170 17159 15491 17403 17404 17396 15482 15489 17402 17395 17398 17405 15493 17406 17174 17407 17408 
2142 2143 2440 2439 2175 2176 2473 2472 15267 17179 17180 17169 15498 17410 17411 17403 15489 15496 17409 17402 17405 17412 15500 17413 17184 17414 17415 
2143 2144 2441 2440 2176 2177 2474 2473 15277 17189 17190 17179 15505 17417 17418 17410 15496 15503 17416 17409 17412 17419 15507 17420 17194 17421 17422 
2145 2146 2443 2442 2178 2179 2476 2475 15286 17198 17199 17200 15513 17425 17426 17427 15511 15510 17423 17424 17430 17428 15516 17429 17204 17431 17432 
2146 2147 2444 2443 2179 2180 2477 2476 15295 17207 17208 17198 15522 17434 17435 17425 15510 15520 17433 17423 17428 17436 15524 17437 17211 17438 17439 
2147 2148 2445 2444 2180 2181 2478 2477 15302 17214 17215 17207 15529 17441 17442 17434 15520 15527 17440 17433 17436 17443 15531 17444 17218 17445 17446 
2148 2149 2446 2445 2181 2182 2479 2478 15309 17221 17222 17214 15536 17448 17449 17441 15527 15534 17447 17440 17443 17450 15538 17451 17225 17452 17453 
2149 2150 2447 2446 2182 2183 2480 2479 15316 17228 17229 17221 15543 17455 17456 17448 15534 15541 17454 17447 17450 17457 15545 17458 17232 17459 17460 
2150 2151 2448 2447 2183 2184 2481 2480 15323 17235 17236 17228 15550 17462 17463 17455 15541 15548 17461 17454 17457 17464 15552 17465 17239 17466 17467 
2151 2152 2449 2448 2184 2185 2482 2481 15330 17242 17243 17235 15557 17469 17470 17462 15548 15555 17468 17461 17464 17471 15559 17472 17246 17473 17474 
2152 2153 2450 2449 2185 2186 2483 2482 15337 17249 17250 17242 15564 17476 17477 17469 15555 15562 17475 17468 17471 17478 15566 17479 17253 17480 17481 
2153 2154 2451 2450 2186 2187 2484 2483 15344 17256 17257 17249 15571 17483 17484 17476 15562 15569 17482 17475 17478 17485 15573 17486 17260 17487 17488 
2154 2155 2452 2451 2187 2188 2485 2484 15351 17263 17264 17256 15578 17490 17491 17483 15569 15576 17489 17482 17485 17492 15580 17493 17267 17494 17495 
2155 2156 2453 2452 2188 2189 2486 2485 15358 17270 17271 17263 15585 17497 17498 17490 15576 15583 17496 17489 17492 17499 15587 17500 17274 17501 17502 
2156 2157 2454 2453 2189 2190 2487 2486 15365 17277 17278 17270 15592 17504 17505 17497 15583 15590 17503 17496 17499 17506 15594 17507 17281 17508 17509 
2157 2158 2455 2454 2190 2191 2488 2487 15372 17284 17285 17277 15599 17511 17512 17504 15590 15597 17510 17503 17506 17513 15601 17514 17288 17515 17516 
2158 2159 2456 2455 2191 2192 2489 2488 15379 17291 17292 17284 15606 17518 17519 17511 15597 15604 17517 17510 17513 17520 15608 17521 17295 17522 17523 
2159 2160 2457 2456 2192 2193 2490 2489 15386 17298 17299 17291 15613 17525 17526 17518 15604 15611 17524 17517 17520 17527 15615 17528 17302 17529 17530 
2160 2161 2458 2457 2193 2194 2491 2490 15393 17305 17306 17298 15620 17532 17533 17525 15611 15618 17531 17524 17527 17534 15622 17535 17309 17536 17537 
2161 2162 2459 2458 2194 2195 2492 2491 15400 17312 17313 17305 15627 17539 17540 17532 15618 15625 17538 17531 17534 17541 15629 17542 17316 17543 17544 
2162 2163 2460 2459 2195 2196 2493 2492 15407 17319 17320 17312 15634 17546 17547 17539 15625 15632 17545 17538 17541 17548 15636 17549 17323 17550 17551 
2163 2164 2461 2460 2196 2197 2494 2493 15414 17326 17327 17319 15641 17553 17554 17546 15632 15639 17552 17545 17548 17555 15643 17556 17330 17557 17558 
2164 2165 2462 2461 2197 2198 2495 2494 15421 17333 17334 17326 15648 17560 17561 17553 15639 15646 17559 17552 17555 17562 15650 17563 17337 17564 17565 
2165 2166 2463 2462 2198 2199 2496 2495 15428 17340 17341 17333 15655 17567 17568 17560 15646 15653 17566 17559 17562 17569 15657 17570 17344 17571 17572 
2166 2167 2464 2463 2199 2200 2497 2496 15435 17347 17348 17340 15662 17574 17575 17567 15653 15660 17573 17566 17569 17576 15664 17577 17351 17578 17579 
2167 2168 2465 2464 2200 2201 2498 2497 15442 17354 17355 17347 15669 17581 17582 17574 15660 15667 17580 17573 17576 17583 15671 17584 17358 17585 17586 
2168 2169 2466 2465 2201 2202 2499 2498 15449 17361 17362 17354 15676 17588 17589 17581 15667 15674 17587 17580 17583 17590 15678 17591 17365 17592 17593 
2169 2170 2467 2466 2202 2203 2500 2499 15456 17368 17369 17361 15683 17595 17596 17588 15674 15681 17594 17587 17590 17597 15685 17598 17372 17599 17600 
2170 2171 2468 2467 2203 2204 2501 2500 15463 17375 17376 17368 15690 17602 17603 17595 15681 15688 17601 17594 17597 17604 15692 17605 17379 17606 17607 
2171 2172 2469 2468 2204 2205 2502 2501 15470 17382 17383 17375 15697 17609 17610 17602 15688 15695 17608 17601 17604 17611 15699 17612 17386 17613 17614 
2172 2173 2470 2469 2205 2206 2503 2502 15477 17389 17390 17382 15704 17616 17617 17609 15695 15702 17615 17608 17611 17618 15706 17619 17393 17620 17621 
2173 2174 2471 2470 2206 2207 2504 2503 15484 17396 17397 17389 15711 17623 17624 17616 15702 15709 17622 17615 17618 17625 15713 17626 17400 17627 17628 
2174 2175 2472 2471 2207 2208 2505 2504 15491 17403 17404 17396 15718 17630 17631 17623 15709 15716 17629 17622 17625 17632 15720 17633 17407 17634 17635 
2175 2176 2473 2472 2208 2209 2506 2505 15498 17410 17411 17403 15725 17637 17638 17630 15716 15723 17636 17629 17632 17639 15727 17640 17414 17641 17642 
2176 2177 2474 2473 2209 2210 2507 2506 15505 17417 17418 17410 15732 17644 17645 17637 15723 15730 17643 17636 17639 17646 15734 17647 17421 17648 17649 
2178 2179 2476 2475 2211 2212 2509 2508 15513 17425 17426 17427 15740 17652 17653 17654 15738 15737 17650 17651 17657 17655 15743 17656 17431 17658 17659 
2179 2180 2477 2476 2212 2213 2510 2509 15522 17434 17435 17425 15749 17661 17662 17652 15737 15747 17660 17650 17655 17663 15751 17664 17438 17665 17666 
2180 2181 2478 2477 2213 2214 2511 2510 15529 17441 17442 17434 15756 17668 17669 17661 15747 15754 17667 17660 17663 17670 15758 17671 17445 17672 17673 
2181 2182 2479 2478 2214 2215 2512 2511 15536 17448 17449 17441 15763 17675 17676 17668 15754 15761 17674 17667 17670 17677 15765 17678 17452 17679 17680 
2182 2183 2480 2479 2215 2216 2513 2512 15543 17455 17456 17448 15770 17682 17683 17675 15761 15768 17681 17674 17677 17684 15772 17685 17459 17686 17687 
2183 2184 2481 2480 2216 2217 2514 2513 15550 17462 17463 17455 15777 17689 17690 17682 15768 15775 17688 17681 17684 17691 15779 17692 17466 17693 17694 
2184 2185 2482 2481 2217 2218 2515 2514 15557 17469 17470 17462 15784 17696 17697 17689 15775 15782 17695 17688 17691 17698 15786 17699 17473 17700 17701 
2185 2186 2483 2482 2218 2219 2516 2515 15564 17476 17477 17469 15791 17703 17704 17696 15782 15789 17702 17695 17698 17705 15793 17706 17480 17707 17708 
2186 2187 2484 2483 2219 2220 2517 2516 15571 17483 17484 17476 15798 17710 17711 17703 15789 15796 17709 17702 17705 17712 15800 17713 17487 17714 17715 
2187 2188 2485 2484 2220 2221 2518 2517 15578 17490 17491 17483 15805 17717 17718 17710 15796 15803 17716 17709 17712 17719 15807 17720 17494 17721 17722 
2188 2189 2486 2485 2221 2222 2519 2518 15585 17497 17498 17490 15812 17724 17725 17717 15803 15810 17723 17716 17719 17726 15814 17727 17501 17728 17729 
2189 2190 2487 2486 2222 2223 2520 2519 15592 17504 17505 17497 15819 17731 17732 17724 15810 15817 17730 17723 17726 17733 15821 17734 17508 17735 17736 
2190 2191 2488 2487 2223 2224 2521 2520 15599 17511 17512 17504 15826 17738 17739 17731 15817 15824 17737 17730 17733 17740 15828 17741 17515 17742 17743 
2191 2192 2489 2488 2224 2225 2522 2521 15606 17518 17519 17511 15833 17745 17746 17738 15824 15831 17744 17737 17740 17747 15835 17748 17522 17749 17750 
2192 2193 2490 2489 2225 2226 2523 2522 15613 17525 17526 17518 15840 17752 17753 17745 15831 15838 17751 17744 17747 17754 15842 17755 17529 17756 17757 
2193 2194 2491 2490 2226 2227 2524 2523 15620 17532 17533 17525 15847 17759 17760 17752 15838 15845 17758 17751 17754 17761 15849 17762 17536 17763 17764 
2194 2195 2492 2491 2227 2228 2525 2524 15627 17539 17540 17532 15854 17766 17767 17759 15845 15852 17765 17758 17761 17768 15856 17769 17543 17770 17771 
2195 2196 2493 2492 2228 2229 2526 2525 15634 17546 17547 17539 15861 17773 17774 17766 15852 15859 17772 17765 17768 17775 15863 17776 17550 17777 17778 
2196 2197 2494 2493 2229 2230 2527 2526 15641 17553 17554 17546 15868 17780 17781 17773 15859 15866 17779 17772 17775 17782 15870 17783 17557 17784 17785 
2197 2198 2495 2494 2230 2231 2528 2527 15648 17560 17561 17553 15875 17787 17788 17780 15866 15873 17786 17779 17782 17789 15877 17790 17564 17791 17792 
2198 2199 2496 2495 2231 2232 2529 2528 15655 17567 17568 17560 15882 17794 17795 17787 15873 15880 17793 17786 17789 17796 15884 17797 17571 17798 17799 
2199 2200 2497 2496 2232 2233 2530 2529 15662 17574 17575 17567 15889 17801 17802 17794 15880 15887 17800 17793 17796 17803 15891 17804 17578 17805 17806 
2200 2201 2498 2497 2233 2234 2531 2530 15669 17581 17582 17574 15896 17808 17809 17801 15887 15894 17807 17800 17803 17810 15898 17811 17585 17812 17813 
2201 2202 2499 2498 2234 2235 2532 2531 15676 17588 17589 17581 15903 17815 17816 17808 15894 15901 17814 17807 17810 17817 15905 17818 17592 17819 17820 
2202 2203 2500 2499 2235 2236 2533 2532 15683 17595 17596 17588 15910 17822 17823 17815 15901 15908 17821 17814 17817 17824 15912 17825 17599 17826 17827 
2203 2204 2501 2500 2236 2237 2534 2533 15690 17602 17603 17595 15917 17829 17830 17822 15908 15915 17828 17821 17824 17831 15919 17832 17606 17833 17834 
2204 2205 2502 2501 2237 2238 2535 2534 15697 17609 17610 17602 15924 17836 17837 17829 15915 15922 17835 17828 17831 17838 15926 17839 17613 17840 17841 
2205 2206 2503 2502 2238 2239 2536 2535 15704 17616 17617 17609 15931 17843 17844 17836 15922 15929 17842 17835 17838 17845 15933 17846 17620 17847 17848 
2206 2207 2504 2503 2239 2240 2537 2536 15711 17623 17624 17616 15938 17850 17851 17843 15929 15936 17849 17842 17845 17852 15940 17853 17627 17854 17855 
2207 2208 2505 2504 2240 2241 2538 2537 15718 17630 17631 17623 15945 17857 17858 17850 15936 15943 17856 17849 17852 17859 15947 17860 17634 17861 17862 
2208 2209 2506 2505 2241 2242 2539 2538 15725 17637 17638 17630 15952 17864 17865 17857 15943 15950 17863 17856 17859 17866 15954 17867 17641 17868 17869 
2209 2210 2507 2506 2242 2243 2540 2539 15732 17644 17645 17637 15959 17871 17872 17864 15950 15957 17870 17863 17866 17873 15961 17874 17648 17875 17876 
2211 2212 2509 2508 2244 2245 2542 2541 15740 17652 17653 17654 15967 17879 17880 17881 15965 15964 17877 17878 17884 17882 15970 17883 17658 17885 17886 
2212 2213 2510 2509 2245 2246 2543 2542 15749 17661 17662 17652 15976 17888 17889 17879 15964 15974 17887 17877 17882 17890 15978 17891 17665 17892 17893 
2213 2214 2511 2510 2246 2247 2544 2543 15756 17668 17669 17661 15983 17895 17896 17888 15974 15981 17894 17887 17890 17897 15985 17898 17672 17899 17900 
2214 2215 2512 2511 2247 2248 2545 2544 15763 17675 17676 17668 15990 17902 17903 17895 15981 15988 17901 17894 17897 17904 15992 17905 17679 17906 17907 
2215 2216 2513 2512 2248 2249 2546 2545 15770 17682 17683 17675 15997 17909 17910 17902 15988 15995 17908 17901 17904 17911 15999 17912 17686 17913 17914 
2216 2217 2514 2513 2249 2250 2547 2546 15777 17689 17690 17682 16004 17916 17917 17909 15995 16002 17915 17908 17911 17918 16006 17919 17693 17920 17921 
2217 2218 2515 2514 2250 2251 2548 2547 15784 17696 17697 17689 16011 17923 17924 17916 16002 16009 17922 17915 17918 17925 16013 17926 17700 17927 17928 
2218 2219 2516 2515 2251 2252 2549 2548 15791 17703 17704 17696 16018 17930 17931 17923 16009 16016 17929 17922 17925 17932 16020 17933 17707 17934 17935 
2219 2220 2517 2516 2252 2253 2550 2549 15798 17710 17711 17703 16025 17937 17938 17930 16016 16023 17936 17929 17932 17939 16027 17940 17714 17941 17942 
2220 2221 2518 2517 2253 2254 2551 2550 15805 17717 17718 17710 16032 17944 17945 17937 16023 16030 17943 17936 17939 17946 16034 17947 17721 17948 17949 
2221 2222 2519 2518 2254 2255 2552 2551 15812 17724 17725 17717 16039 17951 17952 17944 16030 16037 17950 17943 17946 17953 16041 17954 17728 17955 17956 
2222 2223 2520 2519 2255 2256 2553 2552 15819 17731 17732 17724 16046 17958 17959 17951 16037 16044 17957 17950 17953 17960 16048 17961 17735 17962 17963 
2223 2224 2521 2520 2256 2257 2554 2553 15826 17738 17739 17731 16053 17965 17966 17958 16044 16051 17964 17957 17960 17967 16055 17968 17742 17969 17970 
2224 2225 2522 2521 2257 2258 2555 2554 15833 17745 17746 17738 16060 17972 17973 17965 16051 16058 17971 17964 17967 17974 16062 17975 17749 17976 17977 
2225 2226 2523 2522 2258 2259 2556 2555 15840 17752 17753 17745 16067 17979 17980 17972 16058 16065 17978 17971 17974 17981 16069 17982 17756 17983 17984 
2226 2227 2524 2523 2259 2260 2557 2556 15847 17759 17760 17752 16074 17986 17987 17979 16065 16072 17985 17978 17981 17988 16076 17989 17763 17990 17991 
2227 2228 2525 2524 2260 2261 2558 2557 15854 17766 17767 17759 16081 17993 17994 17986 16072 16079 17992 17985 17988 17995 16083 17996 17770 17997 17998 
2228 2229 2526 2525 2261 2262 2559 2558 15861 17773 17774 17766 16088 18000 18001 17993 16079 16086 17999 17992 17995 18002 16090 18003 17777 18004 18005 
2229 2230 2527 2526 2262 2263 2560 2559 15868 17780 17781 17773 16095 18007 18008 18000 16086 16093 18006 17999 18002 18009 16097 18010 17784 18011 18012 
2230 2231 2528 2527 2263 2264 2561 2560 15875 17787 17788 17780 16102 18014 18015 18007 16093 16100 18013 18006 18009 18016 16104 18017 17791 18018 18019 
2231 2232 2529 2528 2264 2265 2562 2561 15882 17794 17795 17787 16109 18021 18022 18014 16100 16107 18020 18013 18016 18023 16111 18024 17798 18025 18026 
2232 2233 2530 2529 2265 2266 2563 2562 15889 17801 17802 17794 16116 18028 18029 18021 16107 16114 18027 18020 18023 18030 16118 18031 17805 18032 18033 
2233 2234 2531 2530 2266 2267 2564 2563 15896 17808 17809 17801 16123 18035 18036 18028 16114 16121 18034 18027 18030 18037 16125 18038 17812 18039 18040 
2234 2235 2532 2531 2267 2268 2565 2564 15903 17815 17816 17808 16130 18042 18043 18035 16121 16128 18041 18034 18037 18044 16132 18045 17819 18046 18047 
2235 2236 2533 2532 2268 2269 2566 2565 15910 17822 17823 17815 16137 18049 18050 18042 16128 16135 18048 18041 18044 18051 16139 18052 17826 18053 18054 
2236 2237 2534 2533 2269 2270 2567 2566 15917 17829 17830 17822 16144 18056 18057 18049 16135 16142 18055 18048 18051 18058 16146 18059 17833 18060 18061 
2237 2238 2535 2534 2270 2271 2568 2567 15924 17836 17837 17829 16151 18063 18064 18056 16142 16149 18062 18055 18058 18065 16153 18066 17840 18067 18068 
2238 2239 2536 2535 2271 2272 2569 2568 15931 17843 17844 17836 16158 18070 18071 18063 16149 16156 18069 18062 18065 18072 16160 18073 17847 18074 18075 
2239 2240 2537 2536 2272 2273 2570 2569 15938 17850 17851 17843 16165 18077 18078 18070 16156 16163 18076 18069 18072 18079 16167 18080 17854 18081 18082 
2240 2241 2538 2537 2273 2274 2571 2570 15945 17857 17858 17850 16172 18084 18085 18077 16163 16170 18083 18076 18079 18086 16174 18087 17861 18088 18089 
2241 2242 2539 2538 2274 2275 2572 2571 15952 17864 17865 17857 16179 18091 18092 18084 16170 16177 18090 18083 18086 18093 16181 18094 17868 18095 18096 
2242 2243 2540 2539 2275 2276 2573 2572 15959 17871 17872 17864 16186 18098 18099 18091 16177 16184 18097 18090 18093 18100 16188 18101 17875 18102 18103 
2244 2245 2542 2541 2277 2278 2575 2574 15967 17879 17880 17881 16194 18106 18107 18108 16192 16191 18104 18105 18111 18109 16197 18110 17885 18112 18113 
2245 2246 2543 2542 2278 2279 2576 2575 15976 17888 17889 17879 16203 18115 18116 18106 16191 16201 18114 18104 18109 18117 16205 18118 17892 18119 18120 
2246 2247 2544 2543 2279 2280 2577 2576 15983 17895 17896 17888 16210 18122 18123 18115 16201 16208 18121 18114 18117 18124 16212 18125 17899 18126 18127 
2247 2248 2545 2544 2280 2281 2578 2577 15990 17902 17903 17895 16217 18129 18130 18122 16208 16215 18128 18121 18124 18131 16219 18132 17906 18133 18134 
2248 2249 2546 2545 2281 2282 2579 2578 15997 17909 17910 17902 16224 18136 18137 18129 16215 16222 18135 18128 18131 18138 16226 18139 17913 18140 18141 
2249 2250 2547 2546 2282 2283 2580 2579 16004 17916 17917 17909 16231 18143 18144 18136 16222 16229 18142 18135 18138 18145 16233 18146 17920 18147 18148 
2250 2251 2548 2547 2283 2284 2581 2580 16011 17923 17924 17916 16238 18150 18151 18143 16229 16236 18149 18142 18145 18152 16240 18153 17927 18154 18155 
2251 2252 2549 2548 2284 2285 2582 2581 16018 17930 17931 17923 16245 18157 18158 18150 16236 16243 18156 18149 18152 18159 16247 18160 17934 18161 18162 
2252 2253 2550 2549 2285 2286 2583 2582 16025 17937 17938 17930 16252 18164 18165 18157 16243 16250 18163 18156 18159 18166 16254 18167 17941 18168 18169 
2253 2254 2551 2550 2286 2287 2584 2583 16032 17944 17945 17937 16259 18171 18172 18164 16250 16257 18170 18163 18166 18173 16261 18174 17948 18175 18176 
2254 2255 2552 2551 2287 2288 2585 2584 16039 17951 17952 17944 16266 18178 18179 18171 16257 16264 18177 18170 18173 18180 16268 18181 17955 18182 18183 
2255 2256 2553 2552 2288 2289 2586 2585 16046 17958 17959 17951 16273 18185 18186 18178 16264 16271 18184 18177 18180 18187 16275 18188 17962 18189 18190 
2256 2257 2554 2553 2289 2290 2587 2586 16053 17965 17966 17958 16280 18192 18193 18185 16271 16278 18191 18184 18187 18194 16282 18195 17969 18196 18197 
2257 2258 2555 2554 2290 2291 2588 2587 16060 17972 17973 17965 16287 18199 18200 18192 16278 16285 18198 18191 18194 18201 16289 18202 17976 18203 18204 
2258 2259 2556 2555 2291 2292 2589 2588 16067 17979 17980 17972 16294 18206 18207 18199 16285 16292 18205 18198 18201 18208 16296 18209 17983 18210 18211 
2259 2260 2557 2556 2292 2293 2590 2589 16074 17986 17987 17979 16301 18213 18214 18206 16292 16299 18212 18205 18208 18215 16303 18216 17990 18217 18218 
2260 2261 2558 2557 2293 2294 2591 2590 16081 17993 17994 17986 16308 18220 18221 18213 16299 16306 18219 18212 18215 18222 16310 18223 17997 18224 18225 
2261 2262 2559 2558 2294 2295 2592 2591 16088 18000 18001 17993 16315 18227 18228 18220 16306 16313 18226 18219 18222 18229 16317 18230 18004 18231 18232 
2262 2263 2560 2559 2295 2296 2593 2592 16095 18007 18008 18000 16322 18234 18235 18227 16313 16320 18233 18226 18229 18236 16324 18237 18011 18238 18239 
2263 2264 2561 2560 2296 2297 2594 2593 16102 18014 18015 18007 16329 18241 18242 18234 16320 16327 18240 18233 18236 18243 16331 18244 18018 18245 18246 
2264 2265 2562 2561 2297 2298 2595 2594 16109 18021 18022 18014 16336 18248 18249 18241 16327 16334 18247 18240 18243 18250 16338 18251 18025 18252 18253 
2265 2266 2563 2562 2298 2299 2596 2595 16116 18028 18029 18021 16343 18255 18256 18248 16334 16341 18254 18247 18250 18257 16345 18258 18032 18259 18260 
2266 2267 2564 2563 2299 2300 2597 2596 16123 18035 18036 18028 16350 18262 18263 18255 16341 16348 18261 18254 18257 18264 16352 18265 18039 18266 18267 
2267 2268 2565 2564 2300 2301 2598 2597 16130 18042 18043 18035 16357 18269 18270 18262 16348 16355 18268 18261 18264 18271 16359 18272 18046 18273 18274 
2268 2269 2566 2565 2301 2302 2599 2598 16137 18049 18050 18042 16364 18276 18277 18269 16355 16362 18275 18268 18271 18278 16366 18279 18053 18280 18281 
2269 2270 2567 2566 2302 2303 2600 2599 16144 18056 18057 18049 16371 18283 18284 18276 16362 16369 18282 18275 18278 18285 16373 18286 18060 18287 18288 
2270 2271 2568 2567 2303 2304 2601 2600 16151 18063 18064 18056 16378 18290 18291 18283 16369 16376 18289 18282 18285 18292 16380 18293 18067 18294 18295 
2271 2272 2569 2568 2304 2305 2602 2601 16158 18070 18071 18063 16385 18297 18298 18290 16376 16383 18296 18289 18292 18299 16387 18300 18074 18301 18302 
2272 2273 2570 2569 2305 2306 2603 2602 16165 18077 18078 18070 16392 18304 18305 18297 16383 16390 18303 18296 18299 18306 16394 18307 18081 18308 18309 
2273 2274 2571 2570 2306 2307 2604 2603 16172 18084 18085 18077 16399 18311 18312 18304 16390 16397 18310 18303 18306 18313 16401 18314 18088 18315 18316 
2274 2275 2572 2571 2307 2308 2605 2604 16179 18091 18092 18084 16406 18318 18319 18311 16397 16404 18317 18310 18313 18320 16408 18321 18095 18322 18323 
2275 2276 2573 2572 2308 2309 2606 2605 16186 18098 18099 18091 16413 18325 18326 18318 16404 16411 18324 18317 18320 18327 16415 18328 18102 18329 18330 
2277 2278 2575 2574 2310 2311 2608 2607 16194 18106 18107 18108 16421 18333 18334 18335 16419 16418 18331 18332 18338 18336 16424 18337 18112 18339 18340 
2278 2279 2576 2575 2311 2312 2609 2608 16203 18115 18116 18106 16430 18342 18343 18333 16418 16428 18341 18331 18336 18344 16432 18345 18119 18346 18347 
2279 2280 2577 2576 2312 2313 2610 2609 16210 18122 18123 18115 16437 18349 18350 18342 16428 16435 18348 18341 18344 18351 16439 18352 18126 18353 18354 
2280 2281 2578 2577 2313 2314 2611 2610 16217 18129 18130 18122 16444 18356 18357 18349 16435 16442 18355 18348 18351 18358 16446 18359 18133 18360 18361 
2281 2282 2579 2578 2314 2315 2612 2611 16224 18136 18137 18129 16451 18363 18364 18356 16442 16449 18362 18355 18358 18365 16453 18366 18140 18367 18368 
2282 2283 2580 2579 2315 2316 2613 2612 16231 18143 18144 18136 16458 18370 18371 18363 16449 16456 18369 18362 18365 18372 16460 18373 18147 18374 18375 
2283 2284 2581 2580 2316 2317 2614 2613 16238 18150 18151 18143 16465 18377 18378 18370 16456 16463 18376 18369 18372 18379 16467 18380 18154 18381 18382 
2284 2285 2582 2581 2317 2318 2615 2614 16245 18157 18158 18150 16472 18384 18385 18377 16463 16470 18383 18376 18379 18386 16474 18387 18161 18388 18389 
2285 2286 2583 2582 2318 2319 2616 2615 16252 18164 18165 18157 16479 18391 18392 18384 16470 16477 18390 18383 18386 18393 16481 18394 18168 18395 18396 
2286 2287 2584 2583 2319 2320 2617 2616 16259 18171 18172 18164 16486 18398 18399 18391 16477 16484 18397 18390 18393 18400 16488 18401 18175 18402 18403 
2287 2288 2585 2584 2320 2321 2618 2617 16266 18178 18179 18171 16493 18405 18406 18398 16484 16491 18404 18397 18400 18407 16495 18408 18182 18409 18410 
2288 2289 2586 2585 2321 2322 2619 2618 16273 18185 18186 18178 16500 18412 18413 18405 16491 16498 18411 18404 18407 18414 16502 18415 18189 18416 18417 
2289 2290 2587 2586 2322 2323 2620 2619 16280 18192 18193 18185 16507 18419 18420 18412 16498 16505 18418 18411 18414 18421 16509 18422 18196 18423 18424 
2290 2291 2588 2587 2323 2324 2621 2620 16287 18199 18200 18192 16514 18426 18427 18419 16505 16512 18425 18418 18421 18428 16516 18429 18203 18430 18431 
2291 2292 2589 2588 2324 2325 2622 2621 16294 18206 18207 18199 16521 18433 18434 18426 16512 16519 18432 18425 18428 18435 16523 18436 18210 18437 18438 
2292 2293 2590 2589 2325 2326 2623 2622 16301 18213 18214 18206 16528 18440 18441 18433 16519 16526 18439 18432 18435 18442 16530 18443 18217 18444 18445 
2293 2294 2591 2590 2326 2327 2624 2623 16308 18220 18221 18213 16535 18447 18448 18440 16526 16533 18446 18439 18442 18449 16537 18450 18224 18451 18452 
2294 2295 2592 2591 2327 2328 2625 2624 16315 18227 18228 18220 16542 18454 18455 18447 16533 16540 18453 18446 18449 18456 16544 18457 18231 18458 18459 
2295 2296 2593 2592 2328 2329 2626 2625 16322 18234 18235 18227 16549 18461 18462 18454 16540 16547 18460 18453 18456 18463 16551 18464 18238 18465 18466 
2296 2297 2594 2593 2329 2330 2627 2626 16329 18241 18242 18234 16556 18468 18469 18461 16547 16554 18467 18460 18463 18470 16558 18471 18245 18472 18473 
2297 2298 2595 2594 2330 2331 2628 2627 16336 18248 18249 18241 16563 18475 18476 18468 16554 16561 18474 18467 18470 18477 16565 18478 18252 18479 18480 
2298 2299 2596 2595 2331 2332 2629 2628 16343 18255 18256 18248 16570 18482 18483 18475 16561 16568 18481 18474 18477 18484 16572 18485 18259 18486 18487 
2299 2300 2597 2596 2332 2333 2630 2629 16350 18262 18263 18255 16577 18489 18490 18482 16568 16575 18488 18481 18484 18491 16579 18492 18266 18493 18494 
2300 2301 2598 2597 2333 2334 2631 2630 16357 18269 18270 18262 16584 18496 18497 18489 16575 16582 18495 18488 18491 18498 16586 18499 18273 18500 18501 
2301 2302 2599 2598 2334 2335 2632 2631 16364 18276 18277 18269 16591 18503 18504 18496 16582 16589 18502 18495 18498 18505 16593 18506 18280 18507 18508 
2302 2303 2600 2599 2335 2336 2633 2632 16371 18283 18284 18276 16598 18510 18511 18503 16589 16596 18509 18502 18505 18512 16600 18513 18287 18514 18515 
2303 2304 2601 2600 2336 2337 2634 2633 16378 18290 18291 18283 16605 18517 18518 18510 16596 16603 18516 18509 18512 18519 16607 18520 18294 18521 18522 
2304 2305 2602 2601 2337 2338 2635 2634 16385 18297 18298 18290 16612 18524 18525 18517 16603 16610 18523 18516 18519 18526 16614 18527 18301 18528 18529 
2305 2306 2603 2602 2338 2339 2636 2635 16392 18304 18305 18297 16619 18531 18532 18524 16610 16617 18530 18523 18526 18533 16621 18534 18308 18535 18536 
2306 2307 2604 2603 2339 2340 2637 2636 16399 18311 18312 18304 16626 18538 18539 18531 16617 16624 18537 18530 18533 18540 16628 18541 18315 18542 18543 
2307 2308 2605 2604 2340 2341 2638 2637 16406 18318 18319 18311 16633 18545 18546 18538 16624 16631 18544 18537 18540 18547 16635 18548 18322 18549 18550 
2308 2309 2606 2605 2341 2342 2639 2638 16413 18325 18326 18318 16640 18552 18553 18545 16631 16638 18551 18544 18547 18554 16642 18555 18329 18556 18557 
2310 2311 2608 2607 2343 2344 2641 2640 16421 18333 18334 18335 16648 18560 18561 18562 16646 16645 18558 18559 18565 18563 16651 18564 18339 18566 18567 
2311 2312 2609 2608 2344 2345 2642 2641 16430 18342 18343 18333 16657 18569 18570 18560 16645 16655 18568 18558 18563 18571 16659 18572 18346 18573 18574 
2312 2313 2610 2609 2345 2346 2643 2642 16437 18349 18350 18342 16664 18576 18577 18569 16655 16662 18575 18568 18571 18578 16666 18579 18353 18580 18581 
2313 2314 2611 2610 2346 2347 2644 2643 16444 18356 18357 18349 16671 18583 18584 18576 16662 16669 18582 18575 18578 18585 16673 18586 18360 18587 18588 
2314 2315 2612 2611 2347 2348 2645 2644 16451 18363 18364 18356 16678 18590 18591 18583 16669 16676 18589 18582 18585 18592 16680 18593 18367 18594 18595 
2315 2316 2613 2612 2348 2349 2646 2645 16458 18370 18371 18363 16685 18597 18598 18590 16676 16683 18596 18589 18592 18599 16687 18600 18374 18601 18602 
2316 2317 2614 2613 2349 2350 2647 2646 16465 18377 18378 18370 16692 18604 18605 18597 16683 16690 18603 18596 18599 18606 16694 18607 18381 18608 18609 
2317 2318 2615 2614 2350 2351 2648 2647 16472 18384 18385 18377 16699 18611 18612 18604 16690 16697 18610 18603 18606 18613 16701 18614 18388 18615 18616 
2318 2319 2616 2615 2351 2352 2649 2648 16479 18391 18392 18384 16706 18618 18619 18611 16697 16704 18617 18610 18613 18620 16708 18621 18395 18622 18623 
2319 2320 2617 2616 2352 2353 2650 2649 16486 18398 18399 18391 16713 18625 18626 18618 16704 16711 18624 18617 18620 18627 16715 18628 18402 18629 18630 
2320 2321 2618 2617 2353 2354 2651 2650 16493 18405 18406 18398 16720 18632 18633 18625 16711 16718 18631 18624 18627 18634 16722 18635 18409 18636 18637 
2321 2322 2619 2618 2354 2355 2652 2651 16500 18412 18413 18405 16727 18639 18640 18632 16718 16725 18638 18631 18634 18641 16729 18642 18416 18643 18644 
2322 2323 2620 2619 2355 2356 2653 2652 16507 18419 18420 18412 16734 18646 18647 18639 16725 16732 18645 18638 18641 18648 16736 18649 18423 18650 18651 
2323 2324 2621 2620 2356 2357 2654 2653 16514 18426 18427 18419 16741 18653 18654 18646 16732 16739 18652 18645 18648 18655 16743 18656 18430 18657 18658 
2324 2325 2622 2621 2357 2358 2655 2654 16521 18433 18434 18426 16748 18660 18661 18653 16739 16746 18659 18652 18655 18662 16750 18663 18437 18664 18665 
2325 2326 2623 2622 2358 2359 2656 2655 16528 18440 18441 18433 16755 18667 18668 18660 16746 16753 18666 18659 18662 18669 16757 18670 18444 18671 18672 
2326 2327 2624 2623 2359 2360 2657 2656 16535 18447 18448 18440 16762 18674 18675 18667 16753 16760 18673 18666 18669 18676 16764 18677 18451 18678 18679 
2327 2328 2625 2624 2360 2361 2658 2657 16542 18454 18455 18447 16769 18681 18682 18674 16760 16767 18680 18673 18676 18683 16771 18684 18458 18685 18686 
2328 2329 2626 2625 2361 2362 2659 2658 16549 18461 18462 18454 16776 18688 18689 18681 16767 16774 18687 18680 18683 18690 16778 18691 18465 18692 18693 
2329 2330 2627 2626 2362 2363 2660 2659 16556 18468 18469 18461 16783 18695 18696 18688 16774 16781 18694 18687 18690 18697 16785 18698 18472 18699 18700 
2330 2331 2628 2627 2363 2364 2661 2660 16563 18475 18476 18468 16790 18702 18703 18695 16781 16788 18701 18694 18697 18704 16792 18705 18479 18706 18707 
2331 2332 2629 2628 2364 2365 2662 2661 16570 18482 18483 18475 16797 18709 18710 18702 16788 16795 18708 18701 18704 18711 16799 18712 18486 18713 18714 
2332 2333 2630 2629 2365 2366 2663 2662 16577 18489 18490 18482 16804 18716 18717 18709 16795 16802 18715 18708 18711 18718 16806 18719 18493 18720 18721 
2333 2334 2631 2630 2366 2367 2664 2663 16584 18496 18497 18489 16811 18723 18724 18716 16802 16809 18722 18715 18718 18725 16813 18726 18500 18727 18728 
2334 2335 2632 2631 2367 2368 2665 2664 16591 18503 18504 18496 16818 18730 18731 18723 16809 16816 18729 18722 18725 18732 16820 18733 18507 18734 18735 
2335 2336 2633 2632 2368 2369 2666 2665 16598 18510 18511 18503 16825 18737 18738 18730 16816 16823 18736 18729 18732 18739 16827 18740 18514 18741 18742 
2336 2337 2634 2633 2369 2370 2667 2666 16605 18517 18518 18510 16832 18744 18745 18737 16823 16830 18743 18736 18739 18746 16834 18747 18521 18748 18749 
2337 2338 2635 2634 2370 2371 2668 2667 16612 18524 18525 18517 16839 18751 18752 18744 16830 16837 18750 18743 18746 18753 16841 18754 18528 18755 18756 
2338 2339 2636 2635 2371 2372 2669 2668 16619 18531 18532 18524 16846 18758 18759 18751 16837 16844 18757 18750 18753 18760 16848 18761 18535 18762 18763 
2339 2340 2637 2636 2372 2373 2670 2669 16626 18538 18539 18531 16853 18765 18766 18758 16844 16851 18764 18757 18760 18767 16855 18768 18542 18769 18770 
2340 2341 2638 2637 2373 2374 2671 2670 16633 18545 18546 18538 16860 18772 18773 18765 16851 16858 18771 18764 18767 18774 16862 18775 18549 18776 18777 
2341 2342 2639 2638 2374 2375 2672 2671 16640 18552 18553 18545 16867 18779 18780 18772 16858 16865 18778 18771 18774 18781 16869 18782 18556 18783 18784 
CELL_TYPES 2048
29 29 29 29 29 29 29 29 29 29 29 29 29 29 29 29 29 29 29 29 29 29 29 29 29 29 29 29 29 29 29 29 29 29 29 29 29 29 29 29 29 29 29 29 29 29 29 29 29 29 29 29 29 29 29 29 29 29 29 29 29 29 29 29 29 29 29 29 29 29 29 29 29 29 29 29 29 29 29 29 29 29 29 29 29 29 29 29 29 29 29 29 29 29 29 29 29 29 29 29 29 29 29 29 29 29 29 29 29 29 29 29 29 29 29 29 29 29 29 29 29 29 29 29 29 29 29 29 29 29 29 29 29 29 29 29 29 29 29 29 29 29 29 29 29 29 29 29 29 29 29 29 29 29 29 29 29 29 29 29 29 29 29 29 29 29 29 29 29 29 29 29 29 29 29 29 29 29 29 29 29 29 29 29 29 29 29 29 29 29 29 29 29 29 29 29 29 29 29 29 29 29 29 29 29 29 29 29 29 29 29 29 29 29 29 29 29 29 29 29 29 29 29 29 29 29 29 29 29 29 29 29 29 29 29 29 29 29 29 29 29 29 29 29 29 29 29 29 29 29 29 29 29 29 29 29 29 29 29 29 29 29 29 29 29 29 29 29 29 29 29 29 29 29 29 29 29 29 29 29 29 29 29 29 29 29 29 29 29 29 29 29 29 29 29 29 29 29 29 29 29 29 29 29 29 29 29 29 29 29 29 29 29 29 29 29 29 29 29 29 29 29 29 29 29 29 29 29 29 29 29 29 29 29 29 29 29 29 29 29 29 29 29 29 29 29 29 29 29 29 29 29 29 29 29 29 29 29 29 29 29 29 29 29 29 29 29 29 29 29 29 29 29 29 29 29 29 29 29 29 29 29 29 29 29 29 29 29 29 29 29 29 29 29 29 29 29 29 29 29 29 29 29 29 29 29 29 29 29 29 29 29 29 29 29 29 29 29 29 29 29 29 29 29 29 29 29 29 29 29 29 29 29 29 29 29 29 29 29 29 29 29 29 29 29 29 29 29 29 29 29 29 29 29 29 29 29 29 29 29 29 29 29 29 29 29 29 29 29 29 29 29 29 29 29 29 29 29 29 29 29 29 29 29 29 29 29 29 29 29 29 29 29 29 29 29 29 29 29 29 29 29 29 29 29 29 29 29 29 29 29 29 29 29 29 29 29 29 29 29 29 29 29 29 29 29 29 29 29 29 29 29 29 29 29 29 29 29 29 29 29 29 29 29 29 29 29 29 29 29 29 29 29 29 29 29 29 29 29 29 29 29 29 29 29 29 29 29 29 29 29 29 29 29 29 29 29 29 29 29 29 29 29 29 29 29 29 29 29 29 29 29 29 29 29 29 29 29 29 29 29 29 29 29 29 29 29 29 29 29 29 29 29 29 29 29 29 29 29 29 29 29 29 29 29 29 29 29 29 29 29 29 29 29 29 29 29 29 29 29 29 29 29 29 29 29 29 29 29 29 29 29 29 29 29 29 29 29 29 29 29 29 29 29 29 29 29 29 29 29 29 29 29 29 29 29 29 29 29 29 29 29 29 29 29 29 29 29 29 29 29 29 29 29 29 29 29 29 29 29 29 29 29 29 29 29 29 29 29 29 29 29 29 29 29 29 29 29 29 29 29 29 29 29 29 29 29 29 29 29 29 29 29 29 29 29 29 29 29 29 29 29 29 29 29 29 29 29 29 29 29 29 29 29 29 29 29 29 29 29 29 29 29 29 29 29 29 29 29 29 29 29 29 29 29 29 29 29 29 29 29 29 29 29 29 29 29 29 29 29 29 29 29 29 29 29 29 29 29 29 29 29 29 29 29 29 29 29 29 29 29 29 29 29 29 29 29 29 29 29 29 29 29 29 29 29 29 29 29 29 29 29 29 29 29 29 29 29 29 29 29 29 29 29 29 29 29 29 29 29 29 29 29 29 29 29 29 29 29 29 29 29 29 29 29 29 29 29 29 29 29 29 29 29 29 29 29 29 29 29 29 29 29 29 29 29 29 29 29 29 29 29 29 29 29 29 29 29 29 29 29 29 29 29 29 29 29 29 29 29 29 29 29 29 29 29 29 29 29 29 29 29 29 29 29 29 29 29 29 29 29 29 29 29 29 29 29 29 29 29 29 29 29 29 29 29 29 29 29 29 29 29 29 29 29 29 29 29 29 29 29 29 29 29 29 29 29 29 29 29 29 29 29 29 29 29 29 29 29 29 29 29 29 29 29 29 29 29 29 29 29 29 29 29 29 29 29 29 29 29 29 29 29 29 29 29 29 29 29 29 29 29 29 29 29 29 29 29 29 29 29 29 29 29 29 29 29 29 29 29 29 29 29 29 29 29 29 29 29 29 29 29 29 29 29 29 29 29 29 29 29 29 29 29 29 29 29 29 29 29 29 29 29 29 29 29 29 29 29 29 29 29 29 29 29 29 29 29 29 29 29 29 29 29 29 29 29 29 29 29 29 29 29 29 29 29 29 29 29 29 29 29 29 29 29 29 29 29 29 29 29 29 29 29 29 29 29 29 29 29 29 29 29 29 29 29 29 29 29 29 29 29 29 29 29 29 29 29 29 29 29 29 29 29 29 29 29 29 29 29 29 29 29 29 29 29 29 29 29 29 29 29 29 29 29 29 29 29 29 29 29 29 29 29 29 29 29 29 29 29 29 29 29 29 29 29 29 29 29 29 29 29 29 29 29 29 29 29 29 29 29 29 29 29 29 29 29 29 29 29 29 29 29 29 29 29 29 29 29 29 29 29 29 29 29 29 29 29 29 29 29 29 29 29 29 29 29 29 29 29 29 29 29 29 29 29 29 29 29 29 29 29 29 29 29 29 29 29 29 29 29 29 29 29 29 29 29 29 29 29 29 29 29 29 29 29 29 29 29 29 29 29 29 29 29 29 29 29 29 29 29 29 29 29 29 29 29 29 29 29 29 29 29 29 29 29 29 29 29 29 29 29 29 29 29 29 29 29 29 29 29 29 29 29 29 29 29 29 29 29 29 29 29 29 29 29 29 29 29 29 29 29 29 29 29 29 29 29 29 29 29 29 29 29 29 29 29 29 29 29 29 29 29 29 29 29 29 29 29 29 29 29 29 29 29 29 29 29 29 29 29 29 29 29 29 29 29 29 29 29 29 29 29 29 29 29 29 29 29 29 29 29 29 29 29 29 29 29 29 29 29 29 29 29 29 29 29 29 29 29 29 29 29 29 29 29 29 29 29 29 29 29 29 29 29 29 29 29 29 29 29 29 29 29 29 29 29 29 29 29 29 29 29 29 29 29 29 29 29 29 29 29 29 29 29 29 29 29 29 29 29 29 29 29 29 29 29 29 29 29 29 29 29 29 29 29 29 29 29 29 29 29 29 29 29 29 29 29 29 29 29 29 29 29 29 29 29 29 29 29 29 29 29 29 29 29 29 29 29 29 29 29 29 29 29 29 29 29 29 29 29 29 29 29 29 29 29 29 29 29 29 29 29 29 29 29 29 29 29 29 29 29 29 29 29 29 29 29 29 29 29 29 29 29 29 29 29 29 29 29 29 29 29 29 29 29 29 29 29 29 29 29 29 29 29 29 29 29 29 29 29 29 29 29 29 29 29 29 29 29 29 29 29 29 29 29 29 29 29 29 29 29 29 29 29 29 29 29 29 29 29 29 29 29 29 29 29 29 29 29 29 29 29 29 29 29 29 29 29 29 29 29 29 29 29 29 29 29 29 29 29 29 29 29 29 29 29 29 29 29 29 29 29 29 29 29 29 29 29 29 29 29 29 29 29 29 29 29 29 29 29 29 29 29 29 29 29 29 29 29 29 29 29 29 29 29 29 29 29 29 29 29 29 29 29 29 29 29 29 29 29 29 29 29 29 29 29 29 29 29 29 29 29 29 29 29 29 29 29 29 29 29 29 29 29 29 29 29 29 29 29 29 29 29 29 29 29 29 29 29 29 29 29 29 29 29 29 29 29 29 29 29 29 29 29 29 29 29 29 29 29 29 29 29 29 29 29 29 29 29 29 29 29 29 29 29 29 29 29 29 29 29 29 29 29 29 29 29 29 29 29 29 29 29 29 29 29 29 29 29 29 29 29 29 29 29 29 29 29 29 29 29 29 29 29 29 29 29 29 29 29 29 29 29 29 29 29 29 29 29 29 29 29 29 29 29 29 29 29 29 29 29 29 29 29 29 29 29 29 29 29 29 29 29 29 29 29 29 29 29 29 29 29 29 29 29 29 29 29 29 29 29 29 29 29 29 29 29 29 29 29 29 29 29 29 29 29 29 29 29 29 29 29 29 29 29 29 29 29 29 29 29 29 29 29 29 29 29 29 29 29 29 29 29 29 29 29 29 29 29 29 29 29 29 29 29 29 29 29 29 29 29 29 29 29 29 29 29 29 29 29 29 29 29 29 29 29 29 29 29 29 29 29 29 29 29 29 29 29 29 29 29 29 29 29 29 29 29 29 29 29 29 29 29 29 29 29 29 29 29 29 29 29 29 29 29 29 29 29 29 29 29 29 29 29 29 29 29 29 29 29 29 29 29 29 29 29 29 29 29 29 29 29 29 29 29 29 29 29 29 29 29 29 29 29 29 29 29 29 29 29 29 29 29 29 29 29 29 

POINT_DATA 18785
SCALARS weights float 1
LOOKUP_TABLE default
0.072338 0.144676 0.144676 0.144676 0.144676 0.144676 0.144676 0.144676 0.144676 0.144676 0.144676 0.144676 0.144676 0.144676 0.144676 0.144676 0.144676 0.144676 0.144676 0.144676 0.144676 0.144676 0.144676 0.144676 0.144676 0.144676 0.144676 0.144676 0.144676 0.144676 0.144676 0.144676 0.072338 0.144676 0.289352 0.289352 0.289352 0.289352 0.289352 0.289352 0.289352 0.289352 0.289352 0.289352 0.289352 0.289352 0.289352 0.289352 0.289352 0.289352 0.289352 0.289352 0.289352 0.289352 0.289352 0.289352 0.289352 0.289352 0.289352 0.289352 0.289352 0.289352 0.289352 0.289352 0.289352 0.144676 0.144676 0.289352 0.289352 0.289352 0.289352 0.289352 0.289352 0.289352 0.289352 0.289352 0.289352 0.289352 0.289352 0.289352 0.289352 0.289352 0.289352 0.289352 0.289352 0.289352 0.289352 0.289352 0.289352 0.289352 0.289352 0.289352 0.289352 0.289352 0.289352 0.289352 0.289352 0.289352 0.144676 0.144676 0.289352 0.289352 0.289352 0.289352 0.289352 0.289352 0.289352 0.289352 0.289352 0.289352 0.289352 0.289352 0.289352 0.289352 0.289352 0.289352 0.289352 0.289352 0.289352 0.289352 0.289352 0.289352 0.289352 0.289352 0.289352 0.289352 0.289352 0.289352 0.289352 0.289352 0.289352 0.144676 0.144676 0.289352 0.289352 0.289352 0.289352 0.289352 0.289352 0.289352 0.289352 0.289352 0.289352 0.289352 0.289352 0.289352 0.289352 0.289352 0.289352 0.289352 0.289352 0.289352 0.289352 0.289352 0.289352 0.289352 0.289352 0.289352 0.289352 0.289352 0.289352 0.289352 0.289352 0.289352 0.144676 0.144676 0.289352 0.289352 0.289352 0.289352 0.289352 0.289352 0.289352 0.289352 0.289352 0.289352 0.289352 0.289352 0.289352 0.289352 0.289352 0.289352 0.289352 0.289352 0.289352 0.289352 0.289352 0.289352 0.289352 0.289352 0.289352 0.289352 0.289352 0.289352 0.289352 0.289352 0.289352 0.144676 0.144676 0.289352 0.289352 0.289352 0.289352 0.289352 0.289352 0.289352 0.289352 0.289352 0.289352 0.289352 0.289352 0.289352 0.289352 0.289352 0.289352 0.289352 0.289352 0.289352 0.289352 0.289352 0.289352 0.289352 0.289352 0.289352 0.289352 0.289352 0.289352 0.289352 0.289352 0.289352 0.144676 0.144676 0.289352 0.289352 0.289352 0.289352 0.289352 0.289352 0.289352 0.289352 0.289352 0.289352 0.289352 0.289352 0.289352 0.289352 0.289352 0.289352 0.289352 0.289352 0.289352 0.289352 0.289352 0.289352 0.289352 0.289352 0.289352 0.289352 0.289352 0.289352 0.289352 0.289352 0.289352 0.144676 0.072338 0.144676 0.144676 0.144676 0.144676 0.144676 0.144676 0.144676 0.144676 0.144676 0.144676 0.144676 0.144676 0.144676 0.144676 0.144676 0.144676 0.144676 0.144676 0.144676 0.144676 0.144676 0.144676 0.144676 0.144676 0.144676 0.144676 0.144676 0.144676 0.144676 0.144676 0.144676 0.072338 0.144676 0.289352 0.289352 0.289352 0.289352 0.289352 0.289352 0.289352 0.289352 0.289352 0.289352 0.289352 0.289352 0.289352 0.289352 0.289352 0.289352 0.289352 0.289352 0.289352 0.289352 0.289352 0.289352 0.289352 0.289352 0.289352 0.289352 0.289352 0.289352 0.289352 0.289352 0.289352 0.144676 0.289352 0.578704 0.578704 0.578704 0.578704 0.578704 0.578704 0.578704 0.578704 0.578704 0.578704 0.578704 0.578704 0.578704 0.578704 0.578704 0.578704 0.578704 0.578704 0.578703 0.578704 0.578704 0.578704 0.578704 0.578704 0.578704 0.578704 0.578704 0.578703 0.578703 0.578704 0.578704 0.289352 0.289352 0.578704 0.578704 0.578704 0.578704 0.578704 0.578704 0.578704 0.578704 0.578704 0.578704 0.578704 0.578704 0.578704 0.578704 0.578704 0.578704 0.578704 0.578704 0.578703 0.578704 0.578704 0.578704 0.578704 0.578704 0.578704 0.578704 0.578704 0.578703 0.578703 0.578704 0.578704 0.289352 0.289352 0.578704 0.578704 0.578704 0.578704 0.578704 0.578704 0.578704 0.578704 0.578704 0.578704 0.578704 0.578704 0.578704 0.578704 0.578704 0.578704 0.578704 0.578704 0.578703 0.578704 0.578704 0.578704 0.578704 0.578704 0.578704 0.578704 0.578704 0.578703 0.578703 0.578704 0.578704 0.289352 0.289352 0.578704 0.578704 0.578704 0.578704 0.578704 0.578704 0.578704 0.578704 0.578704 0.578704 0.578704 0.578704 0.578704 0.578704 0.578704 0.578704 0.578704 0.578704 0.578703 0.578704 0.578704 0.578704 0.578704 0.578704 0.578703 0.578704 0.578704 0.578703 0.578703 0.578704 0.578704 0.289352 0.289352 0.578704 0.578704 0.578704 0.578704 0.578704 0.578704 0.578704 0.578704 0.578704 0.578704 0.578704 0.578704 0.578704 0.578704 0.578704 0.578704 0.578704 0.578704 0.578703 0.578704 0.578704 0.578704 0.578704 0.578704 0.578704 0.578704 0.578704 0.578703 0.578703 0.578704 0.578704 0.289352 0.289352 0.578704 0.578704 0.578704 0.578704 0.578704 0.578704 0.578704 0.578704 0.578704 0.578704 0.578704 0.578704 0.578704 0.578704 0.578704 0.578704 0.578704 0.578704 0.578704 0.578704 0.578704 0.578704 0.578704 0.578704 0.578704 0.578704 0.578704 0.578703 0.578703 0.578704 0.578704 0.289352 0.289352 0.578704 0.578704 0.578704 0.578704 0.578704 0.578704 0.578704 0.578704 0.578704 0.578704 0.578704 0.578704 0.578704 0.578704 0.578704 0.578704 0.578704 0.578704 0.578703 0.578704 0.578704 0.578704 0.578704 0.578704 0.578704 0.578704 0.578704 0.578703 0.578703 0.578704 0.578704 0.289352 0.144676 0.289352 0.289352 0.289352 0.289352 0.289352 0.289352 0.289352 0.289352 0.289352 0.289352 0.289352 0.289352 0.289352 0.289352 0.289352 0.289352 0.289352 0.289352 0.289352 0.289352 0.289352 0.289352 0.289352 0.289352 0.289352 0.289352 0.289352 0.289351 0.289352 0.289352 0.289352 0.144676 0.144676 0.289352 0.289352 0.289352 0.289352 0.289352 0.289352 0.289352 0.289352 0.289352 0.289352 0.289352 0.289352 0.289352 0.289352 0.289352 0.289352 0.289352 0.289352 0.289352 0.289352 0.289352 0.289352 0.289352 0.289352 0.289352 0.289352 0.289352 0.289352 0.289352 0.289352 0.289352 0.144676 0.289352 0.578704 0.578704 0.578704 0.578704 0.578704 0.578704 0.578704 0.578704 0.578704 0.578704 0.578704 0.578704 0.578704 0.578704 0.578704 0.578704 0.578704 0.578704 0.578704 0.578704 0.578704 0.578704 0.578704 0.578704 0.578704 0.578704 0.578704 0.578703 0.578703 0.578704 0.578704 0.289352 0.289352 0.578704 0.578704 0.578704 0.578704 0.578704 0.578704 0.578704 0.578704 0.578704 0.578704 0.578704 0.578704 0.578704 0.578704 0.578704 0.578704 0.578704 0.578704 0.578704 0.578704 0.578704 0.578704 0.578704 0.578704 0.578704 0.578704 0.578704 0.578703 0.578703 0.578704 0.578704 0.289352 0.289352 0.578704 0.578704 0.578704 0.578704 0.578704 0.578704 0.578704 0.578704 0.578704 0.578704 0.578704 0.578704 0.578704 0.578704 0.578704 0.578704 0.578704 0.578704 0.578703 0.578704 0.578704 0.578704 0.578704 0.578704 0.578704 0.578704 0.578704 0.578703 0.578703 0.578704 0.578704 0.289352 0.289352 0.578704 0.578704 0.578704 0.578704 0.578704 0.578704 0.578704 0.578704 0.578704 0.578704 0.578704 0.578704 0.578704 0.578704 0.578704 0.578704 0.578704 0.578704 0.578703 0.578704 0.578704 0.578704 0.578704 0.578704 0.578704 0.578704 0.578704 0.578703 0.578703 0.578704 0.578704 0.289352 0.289352 0.578704 0.578704 0.578704 0.578704 0.578704 0.578704 0.578704 0.578704 0.578704 0.578704 0.578704 0.578704 0.578704 0.578704 0.578704 0.578704 0.578704 0.578704 0.578704 0.578704 0.578704 0.578704 0.578704 0.578704 0.578704 0.578704 0.578704 0.578703 0.578703 0.578704 0.578704 0.289352 0.289352 0.578704 0.578704 0.578704 0.578704 0.578704 0.578704 0.578704 0.578704 0.578704 0.578704 0.578704 0.578704 0.578704 0.578704 0.578704 0.578704 0.578704 0.578704 0.578704 0.578704 0.578704 0.578704 0.578704 0.578704 0.578704 0.578704 0.578704 0.578703 0.578703 0.578704 0.578704 0.289352 0.289352 0.578704 0.578704 0.578704 0.578704 0.578704 0.578704 0.578704 0.578704 0.578704 0.578704 0.578704 0.578704 0.578704 0.578704 0.578704 0.578704 0.578704 0.578704 0.578703 0.578704 0.578704 0.578704 0.578704 0.578704 0.578704 0.578704 0.578704 0.578703 0.578703 0.578704 0.578704 0.289352 0.144676 0.289352 0.289352 0.289352 0.289352 0.289352 0.289352 0.289352 0.289352 0.289352 0.289352 0.289352 0.289352 0.289352 0.289352 0.289352 0.289352 0.289352 0.289352 0.289352 0.289352 0.289352 0.289352 0.289352 0.289352 0.289352 0.289352 0.289352 0.289352 0.289352 0.289352 0.289352 0.144676 0.144676 0.289352 0.289352 0.289352 0.289352 0.289352 0.289352 0.289352 0.289352 0.289352 0.289352 0.289352 0.289352 0.289352 0.289352 0.289352 0.289352 0.289352 0.289352 0.289352 0.289352 0.289352 0.289352 0.289352 0.289352 0.289352 0.289352 0.289352 0.289351 0.289352 0.289352 0.289352 0.144676 0.289352 0.578704 0.578704 0.578704 0.578704 0.578704 0.578704 0.578704 0.578704 0.578704 0.578703 0.578704 0.578704 0.578704 0.578704 0.578704 0.578704 0.578704 0.578703 0.578703 0.578703 0.578704 0.578703 0.578704 0.578703 0.578703 0.578704 0.578704 0.578703 0.578703 0.578703 0.578704 0.289352 0.289352 0.578704 0.578704 0.578704 0.578704 0.578704 0.578704 0.578704 0.578704 0.578704 0.578703 0.578704 0.578704 0.578704 0.578704 0.578703 0.578704 0.578704 0.578703 0.578703 0.578703 0.578704 0.578703 0.578704 0.578703 0.578703 0.578704 0.578704 0.578703 0.578703 0.578703 0.578704 0.289352 0.289352 0.578704 0.578704 0.578704 0.578704 0.578704 0.578704 0.578704 0.578704 0.578704 0.578703 0.578703 0.578704 0.578704 0.578704 0.578704 0.578704 0.578703 0.578703 0.578703 0.578703 0.578704 0.578703 0.578704 0.578703 0.578703 0.578704 0.578704 0.578703 0.578703 0.578703 0.578704 0.289352 0.289352 0.578704 0.578704 0.578704 0.578703 0.578704 0.578704 0.578704 0.578704 0.578704 0.578703 0.578703 0.578703 0.578704 0.578703 0.578703 0.578704 0.578703 0.578703 0.578703 0.578703 0.578704 0.578703 0.578703 0.578703 0.578703 0.578704 0.578704 0.578703 0.578703 0.578703 0.578703 0.289352 0.289352 0.578704 0.578704 0.578704 0.578704 0.578704 0.578704 0.578704 0.578704 0.578704 0.578703 0.578704 0.578704 0.578704 0.578704 0.578703 0.578704 0.578703 0.578703 0.578703 0.578703 0.578704 0.578703 0.578703 0.578703 0.578703 0.578704 0.578704 0.578703 0.578703 0.578703 0.578704 0.289352 0.289352 0.578704 0.578704 0.578704 0.578704 0.578704 0.578704 0.578704 0.578704 0.578704 0.578703 0.578704 0.578704 0.578704 0.578704 0.578704 0.578704 0.578704 0.578703 0.578703 0.578703 0.578704 0.578703 0.578704 0.578704 0.578703 0.578704 0.578704 0.578703 0.578703 0.578703 0.578704 0.289352 0.289352 0.578704 0.578704 0.578704 0.578704 0.578704 0.578704 0.578704 0.578704 0.578704 0.578703 0.578703 0.578704 0.578704 0.578704 0.578703 0.578704 0.578703 0.578703 0.578703 0.578703 0.578704 0.578703 0.578703 0.578703 0.578703 0.578704 0.578704 0.578703 0.578703 0.578703 0.578704 0.289352 0.144676 0.289352 0.289352 0.289352 0.289352 0.289352 0.289352 0.289352 0.289352 0.289352 0.289352 0.289352 0.289352 0.289352 0.289352 0.289352 0.289352 0.289352 0.289352 0.289352 0.289352 0.289352 0.289352 0.289352 0.289352 0.289352 0.289352 0.289352 0.289351 0.289352 0.289352 0.289352 0.144676 0.144676 0.289352 0.289352 0.289352 0.289352 0.289352 0.289352 0.289352 0.289352 0.289352 0.289352 0.289352 0.289352 0.289352 0.289352 0.289352 0.289352 0.289352 0.289352 0.289352 0.289352 0.289352 0.289352 0.289352 0.289352 0.289352 0.289352 0.289352 0.289352 0.289352 0.289352 0.289352 0.144676 0.289352 0.578704 0.578704 0.578704 0.578704 0.578704 0.578704 0.578704 0.578704 0.578704 0.578704 0.578704 0.578704 0.578704 0.578704 0.578704 0.578704 0.578704 0.578704 0.578703 0.578704 0.578704 0.578704 0.578704 0.578704 0.578704 0.578704 0.578704 0.578703 0.578703 0.578704 0.578704 0.289352 0.289352 0.578704 0.578704 0.578704 0.578704 0.578704 0.578704 0.578704 0.578704 0.578704 0.578704 0.578704 0.578704 0.578704 0.578704 0.578704 0.578704 0.578704 0.578704 0.578703 0.578704 0.578704 0.578704 0.578704 0.578704 0.578704 0.578704 0.578704 0.578703 0.578703 0.578704 0.578704 0.289352 0.289352 0.578704 0.578704 0.578704 0.578704 0.578704 0.578704 0.578704 0.578704 0.578704 0.578704 0.578704 0.578704 0.578704 0.578704 0.578704 0.578704 0.578704 0.578704 0.578703 0.578704 0.578704 0.578704 0.578704 0.578704 0.578704 0.578704 0.578704 0.578703 0.578703 0.578704 0.578704 0.289352 0.289352 0.578704 0.578704 0.578704 0.578704 0.578704 0.578704 0.578704 0.578704 0.578704 0.578704 0.578704 0.578704 0.578704 0.578704 0.578704 0.578704 0.578704 0.578704 0.578703 0.578704 0.578704 0.578704 0.578704 0.578704 0.578704 0.578704 0.578704 0.578703 0.578703 0.578704 0.578704 0.289352 0.289352 0.578704 0.578704 0.578704 0.578704 0.578704 0.578704 0.578704 0.578704 0.578704 0.578704 0.578704 0.578704 0.578704 0.578704 0.578704 0.578704 0.578704 0.578704 0.578703 0.578704 0.578704 0.578704 0.578704 0.578704 0.578703 0.578704 0.578704 0.578703 0.578703 0.578704 0.578704 0.289352 0.289352 0.578704 0.578704 0.578704 0.578704 0.578704 0.578704 0.578704 0.578704 0.578704 0.578704 0.578704 0.578704 0.578704 0.578704 0.578704 0.578704 0.578704 0.578704 0.578703 0.578704 0.578704 0.578704 0.578704 0.578704 0.578704 0.578704 0.578704 0.578703 0.578703 0.578704 0.578704 0.289352 0.289352 0.578704 0.578704 0.578704 0.578704 0.578704 0.578704 0.578704 0.578704 0.578704 0.578704 0.578704 0.578704 0.578704 0.578704 0.578704 0.578704 0.578704 0.578704 0.578703 0.578704 0.578704 0.578704 0.578704 0.578704 0.578704 0.578704 0.578704 0.578703 0.578703 0.578704 0.578704 0.289352 0.144676 0.289352 0.289352 0.289352 0.289352 0.289352 0.289352 0.289352 0.289352 0.289352 0.289352 0.289352 0.289352 0.289352 0.289352 0.289352 0.289352 0.289352 0.289352 0.289352 0.289352 0.289352 0.289352 0.289352 0.289352 0.289352 0.289352 0.289352 0.289351 0.289352 0.289352 0.289352 0.144676 0.144676 0.289352 0.289352 0.289352 0.289352 0.289352 0.289352 0.289352 0.289352 0.289352 0.289352 0.289352 0.289352 0.289352 0.289352 0.289352 0.289352 0.289352 0.289352 0.289352 0.289352 0.289352 0.289352 0.289352 0.289352 0.289352 0.289352 0.289352 0.289352 0.289352 0.289352 0.289352 0.144676 0.289352 0.578704 0.578704 0.578704 0.578704 0.578704 0.578704 0.578704 0.578704 0.578704 0.578704 0.578704 0.578704 0.578704 0.578704 0.578704 0.578704 0.578704 0.578704 0.578704 0.578704 0.578704 0.578704 0.578704 0.578704 0.578704 0.578704 0.578704 0.578703 0.578704 0.578704 0.578704 0.289352 0.289352 0.578704 0.578704 0.578704 0.578704 0.578704 0.578704 0.578704 0.578704 0.578704 0.578704 0.578704 0.578704 0.578704 0.578704 0.578704 0.578704 0.578704 0.578704 0.578704 0.578704 0.578704 0.578704 0.578704 0.578704 0.578704 0.578704 0.578704 0.578703 0.578703 0.578704 0.578704 0.289352 0.289352 0.578704 0.578704 0.578704 0.578704 0.578704 0.578704 0.578704 0.578704 0.578704 0.578704 0.578704 0.578704 0.578704 0.578704 0.578704 0.578704 0.578704 0.578704 0.578704 0.578704 0.578704 0.578704 0.578704 0.578704 0.578704 0.578704 0.578704 0.578703 0.578703 0.578704 0.578704 0.289352 0.289352 0.578704 0.578704 0.578704 0.578704 0.578704 0.578704 0.578704 0.578704 0.578704 0.578704 0.578704 0.578704 0.578704 0.578704 0.578704 0.578704 0.578704 0.578704 0.578704 0.578704 0.578704 0.578704 0.578704 0.578704 0.578704 0.578704 0.578704 0.578703 0.578703 0.578704 0.578704 0.289352 0.289352 0.578704 0.578704 0.578704 0.578704 0.578704 0.578704 0.578704 0.578704 0.578704 0.578704 0.578704 0.578704 0.578704 0.578704 0.578704 0.578704 0.578704 0.578704 0.578704 0.578704 0.578704 0.578704 0.578704 0.578704 0.578704 0.578704 0.578704 0.578703 0.578703 0.578704 0.578704 0.289352 0.289352 0.578704 0.578704 0.578704 0.578704 0.578704 0.578704 0.578704 0.578704 0.578704 0.578704 0.578704 0.578704 0.578704 0.578704 0.578704 0.578704 0.578704 0.578704 0.578704 0.578704 0.578704 0.578704 0.578704 0.578704 0.578704 0.578704 0.578704 0.578703 0.578703 0.578704 0.578704 0.289352 0.289352 0.578704 0.578704 0.578704 0.578704 0.578704 0.578704 0.578704 0.578704 0.578704 0.578704 0.578704 0.578704 0.578704 0.578704 0.578704 0.578704 0.578704 0.578704 0.578704 0.578704 0.578704 0.578704 0.578704 0.578704 0.578704 0.578704 0.578704 0.578703 0.578703 0.578704 0.578704 0.289352 0.144676 0.289352 0.289352 0.289352 0.289352 0.289352 0.289352 0.289352 0.289352 0.289352 0.289352 0.289352 0.289352 0.289352 0.289352 0.289352 0.289352 0.289352 0.289352 0.289352 0.289352 0.289352 0.289352 0.289352 0.289352 0.289352 0.289352 0.289352 0.289352 0.289352 0.289352 0.289352 0.144676 0.144676 0.289352 0.289352 0.289352 0.289352 0.289352 0.289352 0.289352 0.289352 0.289352 0.289352 0.289352 0.289352 0.289352 0.289352 0.289352 0.289352 0.289352 0.289352 0.289352 0.289352 0.289352 0.289352 0.289352 0.289352 0.289352 0.289352 0.289352 0.289351 0.289352 0.289352 0.289352 0.144676 0.289352 0.578704 0.578704 0.578704 0.578704 0.578704 0.578704 0.578704 0.578704 0.578704 0.578703 0.578704 0.578704 0.578704 0.578704 0.578704 0.578704 0.578704 0.578703 0.578703 0.578703 0.578704 0.578703 0.578704 0.578704 0.578703 0.578704 0.578704 0.578703 0.578703 0.578703 0.578704 0.289352 0.289352 0.578704 0.578704 0.578704 0.578704 0.578704 0.578704 0.578704 0.578704 0.578704 0.578704 0.578704 0.578704 0.578704 0.578704 0.578704 0.578704 0.578703 0.578703 0.578703 0.578703 0.578704 0.578704 0.578704 0.578704 0.578703 0.578704 0.578704 0.578703 0.578703 0.578703 0.578704 0.289352 0.289352 0.578704 0.578704 0.578704 0.578704 0.578704 0.578704 0.578704 0.578704 0.578704 0.578703 0.578704 0.578704 0.578704 0.578704 0.578704 0.578704 0.578703 0.578703 0.578703 0.578703 0.578704 0.578703 0.578704 0.578703 0.578703 0.578704 0.578704 0.578703 0.578703 0.578703 0.578704 0.289352 0.289352 0.578704 0.578704 0.578704 0.578704 0.578704 0.578704 0.578704 0.578704 0.578703 0.578703 0.578703 0.578704 0.578704 0.578703 0.578703 0.578704 0.578703 0.578703 0.578703 0.578703 0.578704 0.578703 0.578703 0.578703 0.578703 0.578704 0.578704 0.578703 0.578703 0.578703 0.578704 0.289352 0.289352 0.578704 0.578704 0.578704 0.578704 0.578704 0.578704 0.578704 0.578704 0.578704 0.578703 0.578704 0.578704 0.578704 0.578704 0.578703 0.578704 0.578703 0.578703 0.578703 0.578703 0.578704 0.578704 0.578704 0.578703 0.578703 0.578704 0.578704 0.578703 0.578703 0.578703 0.578704 0.289352 0.289352 0.578704 0.578704 0.578704 0.578704 0.578704 0.578704 0.578704 0.578704 0.578704 0.578704 0.578704 0.578704 0.578704 0.578704 0.578704 0.578704 0.578704 0.578703 0.578703 0.578704 0.578704 0.578704 0.578704 0.578704 0.578703 0.578704 0.578704 0.578703 0.578703 0.578703 0.578704 0.289352 0.289352 0.578704 0.578704 0.578704 0.578704 0.578704 0.578704 0.578704 0.578704 0.578704 0.578703 0.578704 0.578704 0.578704 0.578704 0.578704 0.578704 0.578704 0.578703 0.578703 0.578703 0.578704 0.578703 0.578704 0.578703 0.578703 0.578704 0.578704 0.578703 0.578703 0.578703 0.578704 0.289352 0.144676 0.289352 0.289352 0.289352 0.289352 0.289352 0.289352 0.289352 0.289352 0.289352 0.289352 0.289352 0.289352 0.289352 0.289352 0.289352 0.289352 0.289352 0.289352 0.289352 0.289352 0.289352 0.289352 0.289352 0.289352 0.289352 0.289352 0.289352 0.289351 0.289352 0.289352 0.289352 0.144676 0.144676 0.289352 0.289352 0.289352 0.289352 0.289352 0.289352 0.289352 0.289352 0.289352 0.289352 0.289352 0.289352 0.289352 0.289352 0.289352 0.289352 0.289352 0.289352 0.289352 0.289352 0.289352 0.289352 0.289352 0.289352 0.289352 0.289352 0.289352 0.289352 0.289352 0.289352 0.289352 0.144676 0.289352 0.578704 0.578704 0.578704 0.578704 0.578704 0.578704 0.578704 0.578704 0.578704 0.578704 0.578704 0.578704 0.578704 0.578704 0.578704 0.578704 0.578704 0.578704 0.578703 0.578704 0.578704 0.578704 0.578704 0.578704 0.578704 0.578704 0.578704 0.578703 0.578703 0.578704 0.578704 0.289352 0.289352 0.578704 0.578704 0.578704 0.578704 0.578704 0.578704 0.578704 0.578704 0.578704 0.578704 0.578704 0.578704 0.578704 0.578704 0.578704 0.578704 0.578704 0.578704 0.578703 0.578704 0.578704 0.578704 0.578704 0.578704 0.578703 0.578704 0.578704 0.578703 0.578703 0.578704 0.578704 0.289352 0.289352 0.578704 0.578704 0.578704 0.578704 0.578704 0.578704 0.578704 0.578704 0.578704 0.578704 0.578704 0.578704 0.578704 0.578704 0.578704 0.578704 0.578704 0.578704 0.578703 0.578704 0.578704 0.578704 0.578704 0.578704 0.578703 0.578704 0.578704 0.578703 0.578703 0.578704 0.578704 0.289352 0.289352 0.578704 0.578704 0.578704 0.578704 0.578704 0.578704 0.578704 0.578704 0.578704 0.578704 0.578704 0.578704 0.578704 0.578704 0.578704 0.578704 0.578704 0.578703 0.578703 0.578704 0.578704 0.578704 0.578704 0.578704 0.578703 0.578704 0.578704 0.578703 0.578703 0.578704 0.578704 0.289352 0.289352 0.578704 0.578704 0.578704 0.578704 0.578704 0.578704 0.578704 0.578704 0.578704 0.578704 0.578704 0.578704 0.578704 0.578704 0.578704 0.578704 0.578704 0.578703 0.578703 0.578704 0.578704 0.578704 0.578704 0.578704 0.578704 0.578704 0.578704 0.578703 0.578703 0.578704 0.578704 0.289352 0.289352 0.578704 0.578704 0.578704 0.578704 0.578704 0.578704 0.578704 0.578704 0.578704 0.578704 0.578704 0.578704 0.578704 0.578704 0.578704 0.578704 0.578704 0.578704 0.578703 0.578704 0.578704 0.578704 0.578704 0.578704 0.578704 0.578704 0.578704 0.578703 0.578703 0.578704 0.578704 0.289352 0.289352 0.578704 0.578704 0.578704 0.578704 0.578704 0.578704 0.578704 0.578704 0.578704 0.578704 0.578704 0.578704 0.578704 0.578704 0.578704 0.578704 0.578704 0.578703 0.578703 0.578704 0.578704 0.578704 0.578704 0.578704 0.578703 0.578704 0.578704 0.578703 0.578703 0.578704 0.578704 0.289352 0.144676 0.289352 0.289352 0.289352 0.289352 0.289352 0.289352 0.289352 0.289352 0.289352 0.289352 0.289352 0.289352 0.289352 0.289352 0.289352 0.289352 0.289352 0.289352 0.289352 0.289352 0.289352 0.289352 0.289352 0.289352 0.289352 0.289352 0.289352 0.289351 0.289352 0.289352 0.289352 0.144676 0.072338 0.144676 0.144676 0.144676 0.144676 0.144676 0.144676 0.144676 0.144676 0.144676 0.144676 0.144676 0.144676 0.144676 0.144676 0.144676 0.144676 0.144676 0.144676 0.144676 0.144676 0.144676 0.144676 0.144676 0.144676 0.144676 0.144676 0.144676 0.144676 0.144676 0.144676 0.144676 0.072338 0.144676 0.289352 0.289352 0.289352 0.289352 0.289352 0.289352 0.289352 0.289352 0.289352 0.289352 0.289352 0.289352 0.289352 0.289352 0.289352 0.289352 0.289352 0.289352 0.289352 0.289352 0.289352 0.289352 0.289352 0.289352 0.289352 0.289352 0.289352 0.289351 0.289352 0.289352 0.289352 0.144676 0.144676 0.289352 0.289352 0.289352 0.289352 0.289352 0.289352 0.289352 0.289352 0.289352 0.289352 0.289352 0.289352 0.289352 0.289352 0.289352 0.289352 0.289352 0.289352 0.289352 0.289352 0.289352 0.289352 0.289352 0.289352 0.289352 0.289352 0.289352 0.289351 0.289352 0.289352 0.289352 0.144676 0.144676 0.289352 0.289352 0.289352 0.289352 0.289352 0.289352 0.289352 0.289352 0.289352 0.289352 0.289352 0.289352 0.289352 0.289352 0.289352 0.289352 0.289352 0.289352 0.289352 0.289352 0.289352 0.289352 0.289352 0.289352 0.289352 0.289352 0.289352 0.289351 0.289352 0.289352 0.289352 0.144676 0.144676 0.289352 0.289352 0.289352 0.289352 0.289352 0.289352 0.289352 0.289352 0.289352 0.289352 0.289352 0.289352 0.289352 0.289352 0.289352 0.289352 0.289352 0.289352 0.289352 0.289352 0.289352 0.289352 0.289352 0.289352 0.289352 0.289352 0.289352 0.289351 0.289352 0.289352 0.289352 0.144676 0.144676 0.289352 0.289352 0.289352 0.289352 0.289352 0.289352 0.289352 0.289352 0.289352 0.289352 0.289352 0.289352 0.289352 0.289352 0.289352 0.289352 0.289352 0.289352 0.289352 0.289352 0.289352 0.289352 0.289352 0.289352 0.289352 0.289352 0.289352 0.289351 0.289352 0.289352 0.289352 0.144676 0.144676 0.289352 0.289352 0.289352 0.289352 0.289352 0.289352 0.289352 0.289352 0.289352 0.289352 0.289352 0.289352 0.289352 0.289352 0.289352 0.289352 0.289352 0.289352 0.289352 0.289352 0.289352 0.289352 0.289352 0.289352 0.289352 0.289352 0.289352 0.289352 0.289352 0.289352 0.289352 0.144676 0.144676 0.289352 0.289352 0.289352 0.289352 0.289352 0.289352 0.289352 0.289352 0.289352 0.289352 0.289352 0.289352 0.289352 0.289352 0.289352 0.289352 0.289352 0.289352 0.289352 0.289352 0.289352 0.289352 0.289352 0.289352 0.289352 0.289352 0.289352 0.289351 0.289352 0.289352 0.289352 0.144676 0.0723379 0.144676 0.144676 0.144676 0.144676 0.144676 0.144676 0.144676 0.144676 0.144676 0.144676 0.144676 0.144676 0.144676 0.144676 0.144676 0.144676 0.144676 0.144676 0.144676 0.144676 0.144676 0.144676 0.144676 0.144676 0.144676 0.144676 0.144676 0.144676 0.144676 0.144676 0.144676 0.072338 0.072338 0.144676 0.144676 0.072338 0.072338 0.144676 0.289352 0.144676 0.144676 0.289352 0.289352 0.144676 0.072338 0.072338 0.144676 0.144676 0.072338 0.144676 0.072338 0.072338 0.144676 0.144676 0.144676 0.289352 0.144676 0.289352 0.289352 0.072338 0.072338 0.144676 0.144676 0.144676 0.072338 0.072338 0.144676 0.144676 0.144676 0.289352 0.144676 0.289352 0.289352 0.072338 0.072338 0.144676 0.144676 0.144676 0.072338 0.072338 0.144676 0.144676 0.144676 0.289352 0.144676 0.289352 0.289352 0.072338 0.072338 0.144676 0.144676 0.144676 0.072338 0.072338 0.144676 0.144676 0.144676 0.289352 0.144676 0.289352 0.289352 0.072338 0.072338 0.144676 0.144676 0.144676 0.072338 0.072338 0.144676 0.144676 0.144676 0.289352 0.144676 0.289352 0.289352 0.072338 0.072338 0.144676 0.144676 0.144676 0.072338 0.072338 0.144676 0.144676 0.144676 0.289352 0.144676 0.289352 0.289352 0.072338 0.072338 0.144676 0.144676 0.144676 0.072338 0.072338 0.144676 0.144676 0.144676 0.289352 0.144676 0.289352 0.289352 0.072338 0.072338 0.144676 0.144676 0.144676 0.072338 0.072338 0.144676 0.144676 0.144676 0.289352 0.144676 0.289352 0.289352 0.072338 0.072338 0.144676 0.144676 0.144676 0.072338 0.072338 0.144676 0.144676 0.144676 0.289352 0.144676 0.289352 0.289352 0.072338 0.072338 0.144676 0.144676 0.144676 0.072338 0.072338 0.144676 0.144676 0.144676 0.289352 0.144676 0.289352 0.289352 0.072338 0.072338 0.144676 0.144676 0.144676 0.072338 0.072338 0.144676 0.144676 0.144676 0.289352 0.144676 0.289352 0.289352 0.072338 0.072338 0.144676 0.144676 0.144676 0.072338 0.072338 0.144676 0.144676 0.144676 0.289352 0.144676 0.289352 0.289352 0.072338 0.072338 0.144676 0.144676 0.144676 0.072338 0.072338 0.144676 0.144676 0.144676 0.289352 0.144676 0.289352 0.289352 0.072338 0.072338 0.144676 0.144676 0.144676 0.072338 0.072338 0.144676 0.144676 0.144676 0.289352 0.144676 0.289352 0.289352 0.072338 0.072338 0.144676 0.144676 0.144676 0.072338 0.072338 0.144676 0.144676 0.144676 0.289352 0.144676 0.289352 0.289352 0.072338 0.072338 0.144676 0.144676 0.144676 0.072338 0.072338 0.144676 0.144676 0.144676 0.289352 0.144676 0.289352 0.289352 0.072338 0.072338 0.144676 0.144676 0.144676 0.072338 0.072338 0.144676 0.144676 0.144676 0.289352 0.144676 0.289352 0.289352 0.072338 0.072338 0.144676 0.144676 0.144676 0.072338 0.072338 0.144676 0.144676 0.144676 0.289352 0.144676 0.289352 0.289352 0.072338 0.072338 0.144676 0.144676 0.144676 0.072338 0.0723379 0.144676 0.144676 0.144676 0.289352 0.144676 0.289352 0.289352 0.0723379 0.0723379 0.144676 0.144676 0.144676 0.0723379 0.072338 0.144676 0.144676 0.144676 0.289352 0.144676 0.289352 0.289352 0.072338 0.072338 0.144676 0.144676 0.144676 0.072338 0.072338 0.144676 0.144676 0.144676 0.289352 0.144676 0.289352 0.289352 0.072338 0.072338 0.144676 0.144676 0.144676 0.072338 0.072338 0.144676 0.144676 0.144676 0.289352 0.144676 0.289352 0.289352 0.072338 0.072338 0.144676 0.144676 0.144676 0.072338 0.072338 0.144676 0.144676 0.144676 0.289352 0.144676 0.289352 0.289352 0.072338 0.072338 0.144676 0.144676 0.144676 0.072338 0.0723379 0.144676 0.144676 0.144676 0.289352 0.144676 0.289352 0.289352 0.0723379 0.0723379 0.144676 0.144676 0.144676 0.0723379 0.072338 0.144676 0.144676 0.144676 0.289352 0.144676 0.289352 0.289352 0.072338 0.072338 0.144676 0.144676 0.144676 0.072338 0.0723381 0.144676 0.144676 0.144676 0.289352 0.144676 0.289352 0.289352 0.0723381 0.0723381 0.144676 0.144676 0.144676 0.0723381 0.0723379 0.144676 0.144676 0.144676 0.289352 0.144676 0.289352 0.289352 0.0723379 0.0723379 0.144676 0.144676 0.144676 0.0723379 0.0723379 0.144676 0.144676 0.144676 0.289352 0.144676 0.289352 0.289351 0.0723379 0.0723379 0.144676 0.144676 0.144676 0.0723379 0.072338 0.144676 0.144676 0.144676 0.289352 0.144676 0.289352 0.289352 0.072338 0.072338 0.144676 0.144676 0.144676 0.072338 0.0723379 0.144676 0.144676 0.144676 0.289352 0.144676 0.289352 0.289352 0.0723379 0.0723379 0.144676 0.144676 0.144676 0.0723379 0.072338 0.072338 0.144676 0.072338 0.144676 0.144676 0.144676 0.289352 0.072338 0.072338 0.072338 0.144676 0.144676 0.072338 0.072338 0.144676 0.289352 0.144676 0.144676 0.289352 0.289352 0.144676 0.072338 0.144676 0.144676 0.072338 0.144676 0.072338 0.144676 0.289352 0.144676 0.289352 0.289352 0.072338 0.144676 0.144676 0.144676 0.072338 0.144676 0.289352 0.144676 0.289352 0.289352 0.072338 0.144676 0.144676 0.144676 0.072338 0.144676 0.289352 0.144676 0.289352 0.289352 0.072338 0.144676 0.144676 0.144676 0.072338 0.144676 0.289352 0.144676 0.289352 0.289352 0.072338 0.144676 0.144676 0.144676 0.072338 0.144676 0.289352 0.144676 0.289352 0.289352 0.072338 0.144676 0.144676 0.144676 0.072338 0.144676 0.289352 0.144676 0.289352 0.289352 0.072338 0.144676 0.144676 0.144676 0.072338 0.144676 0.289352 0.144676 0.289352 0.289352 0.072338 0.144676 0.144676 0.144676 0.072338 0.144676 0.289352 0.144676 0.289352 0.289352 0.072338 0.144676 0.144676 0.144676 0.072338 0.144676 0.289352 0.144676 0.289352 0.289352 0.072338 0.144676 0.144676 0.144676 0.072338 0.144676 0.289352 0.144676 0.289352 0.289352 0.072338 0.144676 0.144676 0.144676 0.072338 0.144676 0.289352 0.144676 0.289352 0.289352 0.072338 0.144676 0.144676 0.144676 0.072338 0.144676 0.289352 0.144676 0.289352 0.289352 0.072338 0.144676 0.144676 0.144676 0.072338 0.144676 0.289352 0.144676 0.289352 0.289352 0.072338 0.144676 0.144676 0.144676 0.072338 0.144676 0.289352 0.144676 0.289352 0.289352 0.072338 0.144676 0.144676 0.144676 0.072338 0.144676 0.289352 0.144676 0.289352 0.289352 0.072338 0.144676 0.144676 0.144676 0.072338 0.144676 0.289352 0.144676 0.289352 0.289352 0.072338 0.144676 0.144676 0.144676 0.072338 0.144676 0.289352 0.144676 0.289352 0.289352 0.072338 0.144676 0.144676 0.144676 0.072338 0.144676 0.289352 0.144676 0.289352 0.289352 0.072338 0.144676 0.144676 0.144676 0.072338 0.144676 0.289352 0.144676 0.289352 0.289352 0.0723379 0.144676 0.144676 0.144676 0.0723379 0.144676 0.289352 0.144676 0.289352 0.289352 0.072338 0.144676 0.144676 0.144676 0.072338 0.144676 0.289352 0.144676 0.289352 0.289352 0.072338 0.144676 0.144676 0.144676 0.072338 0.144676 0.289352 0.144676 0.289352 0.289352 0.072338 0.144676 0.144676 0.144676 0.072338 0.144676 0.289352 0.144676 0.289352 0.289352 0.072338 0.144676 0.144676 0.144676 0.072338 0.144676 0.289352 0.144676 0.289352 0.289352 0.0723379 0.144676 0.144676 0.144676 0.0723379 0.144676 0.289352 0.144676 0.289352 0.289352 0.072338 0.144676 0.144676 0.144676 0.072338 0.144676 0.289352 0.144676 0.289352 0.289352 0.0723381 0.144676 0.144676 0.144676 0.0723381 0.144676 0.289352 0.144676 0.289352 0.289352 0.0723379 0.144676 0.144676 0.144676 0.0723379 0.144676 0.289352 0.144676 0.289352 0.289351 0.0723379 0.144676 0.144676 0.144676 0.0723379 0.144676 0.289352 0.144676 0.289352 0.289352 0.072338 0.144676 0.144676 0.144676 0.072338 0.144676 0.289352 0.144676 0.289352 0.289352 0.0723379 0.144676 0.144676 0.144676 0.0723379 0.072338 0.144676 0.144676 0.144676 0.289352 0.072338 0.072338 0.144676 0.144676 0.072338 0.072338 0.144676 0.289352 0.144676 0.144676 0.289352 0.289352 0.144676 0.072338 0.144676 0.144676 0.072338 0.144676 0.072338 0.144676 0.289352 0.144676 0.289352 0.289352 0.072338 0.144676 0.144676 0.144676 0.072338 0.144676 0.289352 0.144676 0.289352 0.289352 0.072338 0.144676 0.144676 0.144676 0.072338 0.144676 0.289352 0.144676 0.289352 0.289352 0.072338 0.144676 0.144676 0.144676 0.072338 0.144676 0.289352 0.144676 0.289352 0.289352 0.072338 0.144676 0.144676 0.144676 0.072338 0.144676 0.289352 0.144676 0.289352 0.289352 0.072338 0.144676 0.144676 0.144676 0.072338 0.144676 0.289352 0.144676 0.289352 0.289352 0.072338 0.144676 0.144676 0.144676 0.072338 0.144676 0.289352 0.144676 0.289352 0.289352 0.072338 0.144676 0.144676 0.144676 0.072338 0.144676 0.289352 0.144676 0.289352 0.289352 0.072338 0.144676 0.144676 0.144676 0.072338 0.144676 0.289352 0.144676 0.289352 0.289352 0.072338 0.144676 0.144676 0.144676 0.072338 0.144676 0.289352 0.144676 0.289352 0.289352 0.072338 0.144676 0.144676 0.144676 0.072338 0.144676 0.289352 0.144676 0.289352 0.289352 0.072338 0.144676 0.144676 0.144676 0.072338 0.144676 0.289352 0.144676 0.289352 0.289352 0.072338 0.144676 0.144676 0.144676 0.072338 0.144676 0.289352 0.144676 0.289352 0.289352 0.072338 0.144676 0.144676 0.144676 0.072338 0.144676 0.289352 0.144676 0.289352 0.289352 0.072338 0.144676 0.144676 0.144676 0.072338 0.144676 0.289352 0.144676 0.289352 0.289352 0.072338 0.144676 0.144676 0.144676 0.072338 0.144676 0.289352 0.144676 0.289352 0.289352 0.072338 0.144676 0.144676 0.144676 0.072338 0.144676 0.289352 0.144676 0.289352 0.289352 0.072338 0.144676 0.144676 0.144676 0.072338 0.144676 0.289352 0.144676 0.289352 0.289352 0.072338 0.144676 0.144676 0.144676 0.072338 0.144676 0.289352 0.144676 0.289352 0.289352 0.0723379 0.144676 0.144676 0.144676 0.0723379 0.144676 0.289352 0.144676 0.289352 0.289352 0.072338 0.144676 0.144676 0.144676 0.072338 0.144676 0.289352 0.144676 0.289352 0.289352 0.072338 0.144676 0.144676 0.144676 0.072338 0.144676 0.289352 0.144676 0.289352 0.289352 0.072338 0.144676 0.144676 0.144676 0.072338 0.144676 0.289352 0.144676 0.289352 0.289352 0.072338 0.144676 0.144676 0.144676 0.072338 0.144676 0.289352 0.144676 0.289352 0.289352 0.0723379 0.144676 0.144676 0.144676 0.0723379 0.144676 0.289352 0.144676 0.289352 0.289352 0.072338 0.144676 0.144676 0.144676 0.072338 0.144676 0.289352 0.144676 0.289352 0.289352 0.0723381 0.144676 0.144676 0.144676 0.0723381 0.144676 0.289352 0.144676 0.289352 0.289352 0.0723379 0.144676 0.144676 0.144676 0.0723379 0.144676 0.289352 0.144676 0.289352 0.289351 0.0723379 0.144676 0.144676 0.144676 0.0723379 0.144676 0.289352 0.144676 0.289352 0.289352 0.072338 0.144676 0.144676 0.144676 0.072338 0.144676 0.289352 0.144676 0.289352 0.289352 0.0723379 0.144676 0.144676 0.144676 0.0723379 0.072338 0.144676 0.144676 0.144676 0.289352 0.072338 0.072338 0.144676 0.144676 0.072338 0.072338 0.144676 0.289352 0.144676 0.144676 0.289352 0.289352 0.144676 0.072338 0.144676 0.144676 0.072338 0.144676 0.072338 0.144676 0.289352 0.144676 0.289352 0.289352 0.072338 0.144676 0.144676 0.144676 0.072338 0.144676 0.289352 0.144676 0.289352 0.289352 0.072338 0.144676 0.144676 0.144676 0.072338 0.144676 0.289352 0.144676 0.289352 0.289352 0.072338 0.144676 0.144676 0.144676 0.072338 0.144676 0.289352 0.144676 0.289352 0.289352 0.072338 0.144676 0.144676 0.144676 0.072338 0.144676 0.289352 0.144676 0.289352 0.289352 0.072338 0.144676 0.144676 0.144676 0.072338 0.144676 0.289352 0.144676 0.289352 0.289352 0.072338 0.144676 0.144676 0.144676 0.072338 0.144676 0.289352 0.144676 0.289352 0.289352 0.072338 0.144676 0.144676 0.144676 0.072338 0.144676 0.289352 0.144676 0.289352 0.289352 0.072338 0.144676 0.144676 0.144676 0.072338 0.144676 0.289352 0.144676 0.289352 0.289352 0.072338 0.144676 0.144676 0.144676 0.072338 0.144676 0.289352 0.144676 0.289352 0.289352 0.072338 0.144676 0.144676 0.144676 0.072338 0.144676 0.289352 0.144676 0.289352 0.289352 0.072338 0.144676 0.144676 0.144676 0.072338 0.144676 0.289352 0.144676 0.289352 0.289352 0.072338 0.144676 0.144676 0.144676 0.072338 0.144676 0.289352 0.144676 0.289352 0.289352 0.072338 0.144676 0.144676 0.144676 0.072338 0.144676 0.289352 0.144676 0.289352 0.289352 0.0723379 0.144676 0.144676 0.144676 0.0723379 0.144676 0.289352 0.144676 0.289352 0.289352 0.072338 0.144676 0.144676 0.144676 0.072338 0.144676 0.289352 0.144676 0.289352 0.289352 0.072338 0.144676 0.144676 0.144676 0.072338 0.144676 0.289352 0.144676 0.289352 0.289352 0.072338 0.144676 0.144676 0.144676 0.072338 0.144676 0.289352 0.144676 0.289352 0.289352 0.0723379 0.144676 0.144676 0.144676 0.0723379 0.144676 0.289352 0.144676 0.289352 0.289352 0.0723379 0.144676 0.144676 0.144676 0.0723379 0.144676 0.289352 0.144676 0.289352 0.289352 0.072338 0.144676 0.144676 0.144676 0.072338 0.144676 0.289352 0.144676 0.289352 0.289352 0.072338 0.144676 0.144676 0.144676 0.072338 0.144676 0.289352 0.144676 0.289352 0.289352 0.0723379 0.144676 0.144676 0.144676 0.0723379 0.144676 0.289352 0.144676 0.289352 0.289352 0.072338 0.144676 0.144676 0.144676 0.072338 0.144676 0.289352 0.144676 0.289352 0.289352 0.0723379 0.144676 0.144676 0.144676 0.0723379 0.144676 0.289352 0.144676 0.289352 0.289352 0.072338 0.144676 0.144676 0.144676 0.072338 0.144676 0.289352 0.144676 0.289352 0.289352 0.0723381 0.144676 0.144676 0.144676 0.0723381 0.144676 0.289352 0.144676 0.289352 0.289352 0.0723379 0.144676 0.144676 0.144676 0.0723379 0.144676 0.289352 0.144676 0.289352 0.289351 0.0723379 0.144676 0.144676 0.144676 0.0723379 0.144676 0.289352 0.144676 0.289352 0.289352 0.072338 0.144676 0.144676 0.144676 0.072338 0.144676 0.289352 0.144676 0.289352 0.289352 0.0723379 0.144676 0.144676 0.144676 0.0723379 0.072338 0.144676 0.144676 0.144676 0.289352 0.072338 0.072338 0.144676 0.144676 0.072338 0.072338 0.144676 0.289352 0.144676 0.144676 0.289352 0.289352 0.144676 0.072338 0.144676 0.144676 0.072338 0.144676 0.072338 0.144676 0.289352 0.144676 0.289352 0.289352 0.072338 0.144676 0.144676 0.144676 0.072338 0.144676 0.289352 0.144676 0.289352 0.289352 0.072338 0.144676 0.144676 0.144676 0.072338 0.144676 0.289352 0.144676 0.289352 0.289352 0.072338 0.144676 0.144676 0.144676 0.072338 0.144676 0.289352 0.144676 0.289352 0.289352 0.072338 0.144676 0.144676 0.144676 0.072338 0.144676 0.289352 0.144676 0.289352 0.289352 0.072338 0.144676 0.144676 0.144676 0.072338 0.144676 0.289352 0.144676 0.289352 0.289352 0.072338 0.144676 0.144676 0.144676 0.072338 0.144676 0.289352 0.144676 0.289352 0.289352 0.072338 0.144676 0.144676 0.144676 0.072338 0.144676 0.289352 0.144676 0.289352 0.289352 0.072338 0.144676 0.144676 0.144676 0.072338 0.144676 0.289352 0.144676 0.289352 0.289352 0.072338 0.144676 0.144676 0.144676 0.072338 0.144676 0.289352 0.144676 0.289352 0.289352 0.072338 0.144676 0.144676 0.144676 0.072338 0.144676 0.289352 0.144676 0.289352 0.289352 0.072338 0.144676 0.144676 0.144676 0.072338 0.144676 0.289352 0.144676 0.289352 0.289352 0.072338 0.144676 0.144676 0.144676 0.072338 0.144676 0.289352 0.144676 0.289352 0.289352 0.072338 0.144676 0.144676 0.144676 0.072338 0.144676 0.289352 0.144676 0.289352 0.289352 0.0723379 0.144676 0.144676 0.144676 0.0723379 0.144676 0.289352 0.144676 0.289352 0.289352 0.072338 0.144676 0.144676 0.144676 0.072338 0.144676 0.289352 0.144676 0.289352 0.289352 0.072338 0.144676 0.144676 0.144676 0.072338 0.144676 0.289352 0.144676 0.289352 0.289352 0.072338 0.144676 0.144676 0.144676 0.072338 0.144676 0.289352 0.144676 0.289352 0.289352 0.072338 0.144676 0.144676 0.144676 0.072338 0.144676 0.289352 0.144676 0.289352 0.289352 0.0723379 0.144676 0.144676 0.144676 0.0723379 0.144676 0.289352 0.144676 0.289352 0.289352 0.072338 0.144676 0.144676 0.144676 0.072338 0.144676 0.289352 0.144676 0.289352 0.289352 0.072338 0.144676 0.144676 0.144676 0.072338 0.144676 0.289352 0.144676 0.289352 0.289352 0.0723379 0.144676 0.144676 0.144676 0.0723379 0.144676 0.289352 0.144676 0.289352 0.289352 0.072338 0.144676 0.144676 0.144676 0.072338 0.144676 0.289352 0.144676 0.289352 0.289352 0.0723379 0.144676 0.144676 0.144676 0.0723379 0.144676 0.289352 0.144676 0.289352 0.289352 0.072338 0.144676 0.144676 0.144676 0.072338 0.144676 0.289352 0.144676 0.289352 0.289352 0.0723381 0.144676 0.144676 0.144676 0.0723381 0.144676 0.289352 0.144676 0.289352 0.289352 0.0723379 0.144676 0.144676 0.144676 0.0723379 0.144676 0.289352 0.144676 0.289352 0.289351 0.0723379 0.144676 0.144676 0.144676 0.0723379 0.144676 0.289352 0.144676 0.289352 0.289352 0.072338 0.144676 0.144676 0.144676 0.072338 0.144676 0.289352 0.144676 0.289352 0.289352 0.0723379 0.144676 0.144676 0.144676 0.0723379 0.072338 0.144676 0.144676 0.144676 0.289352 0.072338 0.072338 0.144676 0.144676 0.072338 0.072338 0.144676 0.289352 0.144676 0.144676 0.289352 0.289352 0.144676 0.072338 0.144676 0.144676 0.072338 0.144676 0.072338 0.144676 0.289352 0.144676 0.289352 0.289352 0.072338 0.144676 0.144676 0.144676 0.072338 0.144676 0.289352 0.144676 0.289352 0.289352 0.072338 0.144676 0.144676 0.144676 0.072338 0.144676 0.289352 0.144676 0.289352 0.289352 0.072338 0.144676 0.144676 0.144676 0.072338 0.144676 0.289352 0.144676 0.289352 0.289352 0.072338 0.144676 0.144676 0.144676 0.072338 0.144676 0.289352 0.144676 0.289352 0.289352 0.072338 0.144676 0.144676 0.144676 0.072338 0.144676 0.289352 0.144676 0.289352 0.289352 0.072338 0.144676 0.144676 0.144676 0.072338 0.144676 0.289352 0.144676 0.289352 0.289352 0.072338 0.144676 0.144676 0.144676 0.072338 0.144676 0.289352 0.144676 0.289352 0.289352 0.072338 0.144676 0.144676 0.144676 0.072338 0.144676 0.289352 0.144676 0.289352 0.289352 0.072338 0.144676 0.144676 0.144676 0.072338 0.144676 0.289352 0.144676 0.289352 0.289352 0.072338 0.144676 0.144676 0.144676 0.072338 0.144676 0.289352 0.144676 0.289352 0.289352 0.072338 0.144676 0.144676 0.144676 0.072338 0.144676 0.289352 0.144676 0.289352 0.289352 0.072338 0.144676 0.144676 0.144676 0.072338 0.144676 0.289352 0.144676 0.289352 0.289352 0.072338 0.144676 0.144676 0.144676 0.072338 0.144676 0.289352 0.144676 0.289352 0.289352 0.072338 0.144676 0.144676 0.144676 0.072338 0.144676 0.289352 0.144676 0.289352 0.289352 0.072338 0.144676 0.144676 0.144676 0.072338 0.144676 0.289352 0.144676 0.289352 0.289352 0.072338 0.144676 0.144676 0.144676 0.072338 0.144676 0.289352 0.144676 0.289352 0.289352 0.072338 0.144676 0.144676 0.144676 0.072338 0.144676 0.289352 0.144676 0.289352 0.289352 0.072338 0.144676 0.144676 0.144676 0.072338 0.144676 0.289352 0.144676 0.289352 0.289352 0.0723379 0.144676 0.144676 0.144676 0.0723379 0.144676 0.289352 0.144676 0.289352 0.289352 0.072338 0.144676 0.144676 0.144676 0.072338 0.144676 0.289352 0.144676 0.289352 0.289352 0.072338 0.144676 0.144676 0.144676 0.072338 0.144676 0.289352 0.144676 0.289352 0.289352 0.072338 0.144676 0.144676 0.144676 0.072338 0.144676 0.289352 0.144676 0.289352 0.289352 0.072338 0.144676 0.144676 0.144676 0.072338 0.144676 0.289352 0.144676 0.289352 0.289352 0.0723379 0.144676 0.144676 0.144676 0.0723379 0.144676 0.289352 0.144676 0.289352 0.289352 0.072338 0.144676 0.144676 0.144676 0.072338 0.144676 0.289352 0.144676 0.289352 0.289352 0.0723381 0.144676 0.144676 0.144676 0.0723381 0.144676 0.289352 0.144676 0.289352 0.289352 0.0723379 0.144676 0.144676 0.144676 0.0723379 0.144676 0.289352 0.144676 0.289352 0.289351 0.0723379 0.144676 0.144676 0.144676 0.0723379 0.144676 0.289352 0.144676 0.289352 0.289352 0.072338 0.144676 0.144676 0.144676 0.072338 0.144676 0.289352 0.144676 0.289352 0.289352 0.072338 0.144676 0.144676 0.144676 0.072338 0.072338 0.144676 0.144676 0.144676 0.289352 0.072338 0.072338 0.144676 0.144676 0.072338 0.072338 0.144676 0.289352 0.144676 0.144676 0.289352 0.289352 0.144676 0.072338 0.144676 0.144676 0.072338 0.144676 0.072338 0.144676 0.289352 0.144676 0.289352 0.289352 0.072338 0.144676 0.144676 0.144676 0.072338 0.144676 0.289352 0.144676 0.289352 0.289352 0.072338 0.144676 0.144676 0.144676 0.072338 0.144676 0.289352 0.144676 0.289352 0.289352 0.072338 0.144676 0.144676 0.144676 0.072338 0.144676 0.289352 0.144676 0.289352 0.289352 0.072338 0.144676 0.144676 0.144676 0.072338 0.144676 0.289352 0.144676 0.289352 0.289352 0.072338 0.144676 0.144676 0.144676 0.072338 0.144676 0.289352 0.144676 0.289352 0.289352 0.072338 0.144676 0.144676 0.144676 0.072338 0.144676 0.289352 0.144676 0.289352 0.289352 0.072338 0.144676 0.144676 0.144676 0.072338 0.144676 0.289352 0.144676 0.289352 0.289352 0.072338 0.144676 0.144676 0.144676 0.072338 0.144676 0.289352 0.144676 0.289352 0.289352 0.072338 0.144676 0.144676 0.144676 0.072338 0.144676 0.289352 0.144676 0.289352 0.289352 0.072338 0.144676 0.144676 0.144676 0.072338 0.144676 0.289352 0.144676 0.289352 0.289352 0.072338 0.144676 0.144676 0.144676 0.072338 0.144676 0.289352 0.144676 0.289352 0.289352 0.072338 0.144676 0.144676 0.144676 0.072338 0.144676 0.289352 0.144676 0.289352 0.289352 0.072338 0.144676 0.144676 0.144676 0.072338 0.144676 0.289352 0.144676 0.289352 0.289352 0.072338 0.144676 0.144676 0.144676 0.072338 0.144676 0.289352 0.144676 0.289352 0.289352 0.072338 0.144676 0.144676 0.144676 0.072338 0.144676 0.289352 0.144676 0.289352 0.289352 0.072338 0.144676 0.144676 0.144676 0.072338 0.144676 0.289352 0.144676 0.289352 0.289352 0.072338 0.144676 0.144676 0.144676 0.072338 0.144676 0.289352 0.144676 0.289352 0.289352 0.072338 0.144676 0.144676 0.144676 0.072338 0.144676 0.289352 0.144676 0.289352 0.289352 0.0723379 0.144676 0.144676 0.144676 0.0723379 0.144676 0.289352 0.144676 0.289352 0.289352 0.072338 0.144676 0.144676 0.144676 0.072338 0.144676 0.289352 0.144676 0.289352 0.289352 0.072338 0.144676 0.144676 0.144676 0.072338 0.144676 0.289352 0.144676 0.289352 0.289352 0.072338 0.144676 0.144676 0.144676 0.072338 0.144676 0.289352 0.144676 0.289352 0.289352 0.072338 0.144676 0.144676 0.144676 0.072338 0.144676 0.289352 0.144676 0.289352 0.289352 0.072338 0.144676 0.144676 0.144676 0.072338 0.144676 0.289352 0.144676 0.289352 0.289352 0.072338 0.144676 0.144676 0.144676 0.072338 0.144676 0.289352 0.144676 0.289352 0.289352 0.0723381 0.144676 0.144676 0.144676 0.0723381 0.144676 0.289352 0.144676 0.289352 0.289352 0.0723379 0.144676 0.144676 0.144676 0.0723379 0.144676 0.289352 0.144676 0.289352 0.289351 0.0723379 0.144676 0.144676 0.144676 0.0723379 0.144676 0.289352 0.144676 0.289352 0.289352 0.072338 0.144676 0.144676 0.144676 0.072338 0.144676 0.289352 0.144676 0.289352 0.289352 0.072338 0.144676 0.144676 0.144676 0.072338 0.072338 0.144676 0.144676 0.144676 0.289352 0.072338 0.072338 0.144676 0.144676 0.072338 0.072338 0.144676 0.289352 0.144676 0.072338 0.144676 0.144676 0.072338 0.072338 0.144676 0.144676 0.072338 0.072338 0.072338 0.144676 0.289352 0.072338 0.144676 0.144676 0.072338 0.144676 0.144676 0.072338 0.072338 0.144676 0.289352 0.072338 0.144676 0.144676 0.072338 0.144676 0.144676 0.072338 0.072338 0.144676 0.289352 0.072338 0.144676 0.144676 0.072338 0.144676 0.144676 0.072338 0.072338 0.144676 0.289352 0.072338 0.144676 0.144676 0.072338 0.144676 0.144676 0.072338 0.072338 0.144676 0.289352 0.072338 0.144676 0.144676 0.072338 0.144676 0.144676 0.072338 0.072338 0.144676 0.289352 0.072338 0.144676 0.144676 0.072338 0.144676 0.144676 0.072338 0.072338 0.144676 0.289352 0.072338 0.144676 0.144676 0.072338 0.144676 0.144676 0.072338 0.072338 0.144676 0.289352 0.072338 0.144676 0.144676 0.072338 0.144676 0.144676 0.072338 0.072338 0.144676 0.289352 0.0723379 0.144676 0.144676 0.0723379 0.144676 0.144676 0.0723379 0.0723379 0.144676 0.289352 0.072338 0.144676 0.144676 0.072338 0.144676 0.144676 0.072338 0.072338 0.144676 0.289352 0.072338 0.144676 0.144676 0.072338 0.144676 0.144676 0.072338 0.072338 0.144676 0.289352 0.072338 0.144676 0.144676 0.072338 0.144676 0.144676 0.072338 0.072338 0.144676 0.289352 0.072338 0.144676 0.144676 0.072338 0.144676 0.144676 0.072338 0.072338 0.144676 0.289352 0.0723379 0.144676 0.144676 0.0723379 0.144676 0.144676 0.0723379 0.0723379 0.144676 0.289352 0.072338 0.144676 0.144676 0.072338 0.144676 0.144676 0.072338 0.072338 0.144676 0.289352 0.072338 0.144676 0.144676 0.072338 0.144676 0.144676 0.072338 0.072338 0.144676 0.289352 0.072338 0.144676 0.144676 0.072338 0.144676 0.144676 0.072338 0.072338 0.144676 0.289352 0.0723379 0.144676 0.144676 0.0723379 0.144676 0.144676 0.0723379 0.0723379 0.144676 0.289352 0.0723379 0.144676 0.144676 0.0723379 0.144676 0.144676 0.0723379 0.0723379 0.144676 0.289352 0.072338 0.144676 0.144676 0.072338 0.144676 0.144676 0.072338 0.072338 0.144676 0.289352 0.072338 0.144676 0.144676 0.072338 0.144676 0.144676 0.072338 0.072338 0.144676 0.289352 0.0723379 0.144676 0.144676 0.0723379 0.144676 0.144676 0.0723379 0.0723379 0.144676 0.289352 0.072338 0.144676 0.144676 0.072338 0.144676 0.144676 0.072338 0.072338 0.144676 0.289352 0.0723379 0.144676 0.144676 0.0723379 0.144676 0.144676 0.0723379 0.0723379 0.144676 0.289352 0.072338 0.144676 0.144676 0.072338 0.144676 0.144676 0.072338 0.072338 0.144676 0.289352 0.0723381 0.144676 0.144676 0.0723381 0.144676 0.144676 0.0723381 0.0723381 0.144676 0.289351 0.0723379 0.144676 0.144676 0.0723379 0.144676 0.144676 0.0723379 0.0723379 0.144676 0.289352 0.0723378 0.144676 0.144676 0.0723378 0.144676 0.144676 0.0723378 0.0723378 0.144676 0.289352 0.072338 0.144676 0.144676 0.072338 0.144676 0.144676 0.072338 0.072338 0.144676 0.289352 0.0723379 0.144676 0.144676 0.0723379 0.144676 0.144676 0.0723379 0.0723379 0.072338 0.144676 0.072338 0.072338 0.144676 0.072338 0.072338 0.144676 0.072338 0.072338 0.144676 0.144676 0.072338 0.289352 0.144676 0.289352 0.289352 0.144676 0.072338 0.144676 0.144676 0.072338 0.144676 0.072338 0.144676 0.144676 0.289352 0.289352 0.289352 0.072338 0.144676 0.144676 0.144676 0.072338 0.144676 0.144676 0.289352 0.289352 0.289352 0.072338 0.144676 0.144676 0.144676 0.072338 0.144676 0.144676 0.289352 0.289352 0.289352 0.072338 0.144676 0.144676 0.144676 0.072338 0.144676 0.144676 0.289352 0.289352 0.289352 0.072338 0.144676 0.144676 0.144676 0.072338 0.144676 0.144676 0.289352 0.289352 0.289352 0.072338 0.144676 0.144676 0.144676 0.072338 0.144676 0.144676 0.289352 0.289352 0.289352 0.072338 0.144676 0.144676 0.144676 0.072338 0.144676 0.144676 0.289352 0.289352 0.289352 0.072338 0.144676 0.144676 0.144676 0.072338 0.144676 0.144676 0.289352 0.289352 0.289352 0.072338 0.144676 0.144676 0.144676 0.072338 0.144676 0.144676 0.289352 0.289352 0.289352 0.0723379 0.144676 0.144676 0.144676 0.0723379 0.144676 0.144676 0.289352 0.289352 0.289352 0.0723379 0.144676 0.144676 0.144676 0.0723379 0.144676 0.144676 0.289352 0.289352 0.289352 0.072338 0.144676 0.144676 0.144676 0.072338 0.144676 0.144676 0.289352 0.289352 0.289352 0.072338 0.144676 0.144676 0.144676 0.072338 0.144676 0.144676 0.289352 0.289352 0.289352 0.072338 0.144676 0.144676 0.144676 0.072338 0.144676 0.144676 0.289352 0.289352 0.289352 0.0723379 0.144676 0.144676 0.144676 0.0723379 0.144676 0.144676 0.289352 0.289352 0.289352 0.072338 0.144676 0.144676 0.144676 0.072338 0.144676 0.144676 0.289352 0.289352 0.289352 0.072338 0.144676 0.144676 0.144676 0.072338 0.144676 0.144676 0.289352 0.289352 0.289352 0.0723379 0.144676 0.144676 0.144676 0.0723379 0.144676 0.144676 0.289352 0.289352 0.289352 0.0723379 0.144676 0.144676 0.144676 0.0723379 0.144676 0.144676 0.289352 0.289352 0.289352 0.0723379 0.144676 0.144676 0.144676 0.0723379 0.144676 0.144676 0.289352 0.289352 0.289352 0.072338 0.144676 0.144676 0.144676 0.072338 0.144676 0.144676 0.289352 0.289352 0.289352 0.072338 0.144676 0.144676 0.144676 0.072338 0.144676 0.144676 0.289352 0.289352 0.289352 0.0723379 0.144676 0.144676 0.144676 0.0723379 0.144676 0.144676 0.289352 0.289352 0.289352 0.072338 0.144676 0.144676 0.144676 0.072338 0.144676 0.144676 0.289352 0.289352 0.289352 0.0723379 0.144676 0.144676 0.144676 0.0723379 0.144676 0.144676 0.289352 0.289352 0.289352 0.0723379 0.144676 0.144676 0.144676 0.0723379 0.144676 0.144676 0.289352 0.289352 0.289352 0.0723381 0.144676 0.144676 0.144676 0.0723381 0.144676 0.144676 0.289352 0.289352 0.289352 0.0723379 0.144676 0.144676 0.144676 0.0723379 0.144676 0.144676 0.289352 0.289352 0.289351 0.0723378 0.144676 0.144676 0.144676 0.0723378 0.144676 0.144676 0.289352 0.289352 0.289352 0.072338 0.144676 0.144676 0.144676 0.072338 0.144676 0.144676 0.289352 0.289352 0.289352 0.0723379 0.144676 0.144676 0.144676 0.0723379 0.072338 0.144676 0.144676 0.144676 0.289352 0.072338 0.072338 0.144676 0.144676 0.072338 0.289352 0.144676 0.289352 0.289352 0.144676 0.144676 0.144676 0.072338 0.144676 0.072338 0.289352 0.289352 0.289352 0.144676 0.144676 0.144676 0.072338 0.289352 0.289352 0.289352 0.144676 0.144676 0.144676 0.072338 0.289352 0.289352 0.289352 0.144676 0.144676 0.144676 0.072338 0.289352 0.289352 0.289352 0.144676 0.144676 0.144676 0.072338 0.289352 0.289352 0.289352 0.144676 0.144676 0.144676 0.072338 0.289352 0.289352 0.289352 0.144676 0.144676 0.144676 0.072338 0.289352 0.289352 0.289352 0.144676 0.144676 0.144676 0.072338 0.289352 0.289352 0.289352 0.144676 0.144676 0.144676 0.072338 0.289352 0.289352 0.289352 0.144676 0.144676 0.144676 0.0723379 0.289352 0.289352 0.289352 0.144676 0.144676 0.144676 0.0723379 0.289352 0.289352 0.289352 0.144676 0.144676 0.144676 0.072338 0.289352 0.289352 0.289352 0.144676 0.144676 0.144676 0.072338 0.289352 0.289352 0.289352 0.144676 0.144676 0.144676 0.072338 0.289352 0.289352 0.289352 0.144676 0.144676 0.144676 0.0723379 0.289352 0.289352 0.289352 0.144676 0.144676 0.144676 0.072338 0.289352 0.289352 0.289352 0.144676 0.144676 0.144676 0.072338 0.289352 0.289352 0.289352 0.144676 0.144676 0.144676 0.0723379 0.289352 0.289352 0.289352 0.144676 0.144676 0.144676 0.0723379 0.289352 0.289352 0.289352 0.144676 0.144676 0.144676 0.0723379 0.289352 0.289352 0.289352 0.144676 0.144676 0.144676 0.072338 0.289352 0.289352 0.289352 0.144676 0.144676 0.144676 0.0723379 0.289352 0.289352 0.289352 0.144676 0.144676 0.144676 0.0723379 0.289352 0.289352 0.289352 0.144676 0.144676 0.144676 0.072338 0.289352 0.289352 0.289352 0.144676 0.144676 0.144676 0.0723379 0.289352 0.289352 0.289352 0.144676 0.144676 0.144676 0.0723379 0.289352 0.289352 0.289352 0.144676 0.144676 0.144676 0.0723381 0.289352 0.289351 0.289352 0.144676 0.144676 0.144676 0.0723379 0.289352 0.289352 0.289351 0.144676 0.144676 0.144676 0.0723378 0.289352 0.289352 0.289352 0.144676 0.144676 0.144676 0.072338 0.289352 0.289352 0.289352 0.144676 0.144676 0.144676 0.0723379 0.144676 0.144676 0.289352 0.072338 0.144676 0.144676 0.072338 0.289352 0.144676 0.289352 0.289352 0.144676 0.144676 0.144676 0.072338 0.144676 0.072338 0.289352 0.289352 0.289352 0.144676 0.144676 0.144676 0.072338 0.289352 0.289352 0.289352 0.144676 0.144676 0.144676 0.072338 0.289352 0.289352 0.289352 0.144676 0.144676 0.144676 0.072338 0.289352 0.289352 0.289352 0.144676 0.144676 0.144676 0.072338 0.289352 0.289352 0.289352 0.144676 0.144676 0.144676 0.072338 0.289352 0.289352 0.289352 0.144676 0.144676 0.144676 0.072338 0.289352 0.289352 0.289352 0.144676 0.144676 0.144676 0.072338 0.289352 0.289352 0.289352 0.144676 0.144676 0.144676 0.072338 0.289352 0.289352 0.289352 0.144676 0.144676 0.144676 0.0723379 0.289352 0.289352 0.289352 0.144676 0.144676 0.144676 0.0723379 0.289352 0.289352 0.289352 0.144676 0.144676 0.144676 0.072338 0.289352 0.289352 0.289352 0.144676 0.144676 0.144676 0.072338 0.289352 0.289352 0.289352 0.144676 0.144676 0.144676 0.072338 0.289352 0.289352 0.289352 0.144676 0.144676 0.144676 0.0723379 0.289352 0.289352 0.289352 0.144676 0.144676 0.144676 0.072338 0.289352 0.289352 0.289352 0.144676 0.144676 0.144676 0.072338 0.289352 0.289352 0.289352 0.144676 0.144676 0.144676 0.0723379 0.289352 0.289352 0.289352 0.144676 0.144676 0.144676 0.0723379 0.289352 0.289352 0.289352 0.144676 0.144676 0.144676 0.0723379 0.289352 0.289352 0.289352 0.144676 0.144676 0.144676 0.072338 0.289352 0.289352 0.289352 0.144676 0.144676 0.144676 0.072338 0.289352 0.289352 0.289352 0.144676 0.144676 0.144676 0.0723379 0.289352 0.289352 0.289352 0.144676 0.144676 0.144676 0.072338 0.289352 0.289352 0.289352 0.144676 0.144676 0.144676 0.0723379 0.289352 0.289352 0.289352 0.144676 0.144676 0.144676 0.0723379 0.289352 0.289352 0.289352 0.144676 0.144676 0.144676 0.0723381 0.289352 0.289351 0.289352 0.144676 0.144676 0.144676 0.0723379 0.289352 0.289352 0.289351 0.144676 0.144676 0.144676 0.0723378 0.289352 0.289352 0.289352 0.144676 0.144676 0.144676 0.072338 0.289352 0.289352 0.289352 0.144676 0.144676 0.144676 0.0723379 0.144676 0.144676 0.289352 0.072338 0.144676 0.144676 0.072338 0.289352 0.144676 0.289352 0.289352 0.144676 0.144676 0.144676 0.072338 0.144676 0.072338 0.289352 0.289352 0.289352 0.144676 0.144676 0.144676 0.072338 0.289352 0.289352 0.289352 0.144676 0.144676 0.144676 0.072338 0.289352 0.289352 0.289352 0.144676 0.144676 0.144676 0.0723379 0.289352 0.289352 0.289352 0.144676 0.144676 0.144676 0.072338 0.289352 0.289352 0.289352 0.144676 0.144676 0.144676 0.072338 0.289352 0.289352 0.289352 0.144676 0.144676 0.144676 0.0723379 0.289352 0.289352 0.289352 0.144676 0.144676 0.144676 0.0723379 0.289352 0.289352 0.289352 0.144676 0.144676 0.144676 0.072338 0.289352 0.289352 0.289352 0.144676 0.144676 0.144676 0.0723379 0.289352 0.289352 0.289352 0.144676 0.144676 0.144676 0.0723379 0.289352 0.289352 0.289352 0.144676 0.144676 0.144676 0.072338 0.289352 0.289352 0.289352 0.144676 0.144676 0.144676 0.0723379 0.289352 0.289352 0.289352 0.144676 0.144676 0.144676 0.072338 0.289352 0.289352 0.289352 0.144676 0.144676 0.144676 0.0723379 0.289352 0.289352 0.289352 0.144676 0.144676 0.144676 0.072338 0.289352 0.289352 0.289352 0.144676 0.144676 0.144676 0.072338 0.289352 0.289352 0.289352 0.144676 0.144676 0.144676 0.0723379 0.289352 0.289352 0.289352 0.144676 0.144676 0.144676 0.0723379 0.289352 0.289352 0.289352 0.144676 0.144676 0.144676 0.0723379 0.289352 0.289352 0.289352 0.144676 0.144676 0.144676 0.072338 0.289352 0.289352 0.289352 0.144676 0.144676 0.144676 0.0723379 0.289352 0.289352 0.289352 0.144676 0.144676 0.144676 0.0723379 0.289352 0.289352 0.289352 0.144676 0.144676 0.144676 0.072338 0.289352 0.289352 0.289352 0.144676 0.144676 0.144676 0.0723379 0.289352 0.289352 0.289352 0.144676 0.144676 0.144676 0.0723379 0.289352 0.289352 0.289352 0.144676 0.144676 0.144676 0.072338 0.289352 0.289351 0.289352 0.144676 0.144676 0.144676 0.0723379 0.289352 0.289352 0.289351 0.144676 0.144676 0.144676 0.0723378 0.289352 0.289352 0.289352 0.144676 0.144676 0.144676 0.072338 0.289352 0.289352 0.289352 0.144676 0.144676 0.144676 0.0723379 0.144676 0.144676 0.289352 0.072338 0.144676 0.144676 0.072338 0.289352 0.144676 0.289352 0.289352 0.144676 0.144676 0.144676 0.072338 0.144676 0.072338 0.289352 0.289352 0.289352 0.144676 0.144676 0.144676 0.072338 0.289352 0.289352 0.289352 0.144676 0.144676 0.144676 0.072338 0.289352 0.289352 0.289352 0.144676 0.144676 0.144676 0.0723379 0.289352 0.289352 0.289352 0.144676 0.144676 0.144676 0.072338 0.289352 0.289352 0.289352 0.144676 0.144676 0.144676 0.072338 0.289352 0.289352 0.289352 0.144676 0.144676 0.144676 0.0723379 0.289352 0.289352 0.289352 0.144676 0.144676 0.144676 0.072338 0.289352 0.289352 0.289352 0.144676 0.144676 0.144676 0.072338 0.289352 0.289352 0.289352 0.144676 0.144676 0.144676 0.0723379 0.289352 0.289352 0.289352 0.144676 0.144676 0.144676 0.0723379 0.289352 0.289352 0.289352 0.144676 0.144676 0.144676 0.072338 0.289352 0.289352 0.289352 0.144676 0.144676 0.144676 0.0723379 0.289352 0.289352 0.289352 0.144676 0.144676 0.144676 0.072338 0.289352 0.289352 0.289352 0.144676 0.144676 0.144676 0.0723379 0.289352 0.289352 0.289352 0.144676 0.144676 0.144676 0.072338 0.289352 0.289352 0.289352 0.144676 0.144676 0.144676 0.072338 0.289352 0.289352 0.289352 0.144676 0.144676 0.144676 0.0723379 0.289352 0.289352 0.289352 0.144676 0.144676 0.144676 0.0723379 0.289352 0.289352 0.289352 0.144676 0.144676 0.144676 0.0723379 0.289352 0.289352 0.289352 0.144676 0.144676 0.144676 0.072338 0.289352 0.289352 0.289352 0.144676 0.144676 0.144676 0.0723379 0.289352 0.289352 0.289352 0.144676 0.144676 0.144676 0.0723379 0.289352 0.289352 0.289352 0.144676 0.144676 0.144676 0.072338 0.289352 0.289352 0.289352 0.144676 0.144676 0.144676 0.0723379 0.289352 0.289352 0.289352 0.144676 0.144676 0.144676 0.0723379 0.289352 0.289352 0.289352 0.144676 0.144676 0.144676 0.072338 0.289352 0.289351 0.289352 0.144676 0.144676 0.144676 0.0723379 0.289352 0.289352 0.289351 0.144676 0.144676 0.144676 0.0723378 0.289352 0.289352 0.289352 0.144676 0.144676 0.144676 0.072338 0.289352 0.289352 0.289352 0.144676 0.144676 0.144676 0.0723379 0.144676 0.144676 0.289352 0.072338 0.144676 0.144676 0.072338 0.289352 0.144676 0.289352 0.289352 0.144676 0.144676 0.144676 0.072338 0.144676 0.072338 0.289352 0.289352 0.289352 0.144676 0.144676 0.144676 0.072338 0.289352 0.289352 0.289352 0.144676 0.144676 0.144676 0.072338 0.289352 0.289352 0.289352 0.144676 0.144676 0.144676 0.072338 0.289352 0.289352 0.289352 0.144676 0.144676 0.144676 0.072338 0.289352 0.289352 0.289352 0.144676 0.144676 0.144676 0.072338 0.289352 0.289352 0.289352 0.144676 0.144676 0.144676 0.072338 0.289352 0.289352 0.289352 0.144676 0.144676 0.144676 0.072338 0.289352 0.289352 0.289352 0.144676 0.144676 0.144676 0.072338 0.289352 0.289352 0.289352 0.144676 0.144676 0.144676 0.0723379 0.289352 0.289352 0.289352 0.144676 0.144676 0.144676 0.0723379 0.289352 0.289352 0.289352 0.144676 0.144676 0.144676 0.072338 0.289352 0.289352 0.289352 0.144676 0.144676 0.144676 0.072338 0.289352 0.289352 0.289352 0.144676 0.144676 0.144676 0.072338 0.289352 0.289352 0.289352 0.144676 0.144676 0.144676 0.0723379 0.289352 0.289352 0.289352 0.144676 0.144676 0.144676 0.072338 0.289352 0.289352 0.289352 0.144676 0.144676 0.144676 0.072338 0.289352 0.289352 0.289352 0.144676 0.144676 0.144676 0.0723379 0.289352 0.289352 0.289352 0.144676 0.144676 0.144676 0.0723379 0.289352 0.289352 0.289352 0.144676 0.144676 0.144676 0.0723379 0.289352 0.289352 0.289352 0.144676 0.144676 0.144676 0.072338 0.289352 0.289352 0.289352 0.144676 0.144676 0.144676 0.0723379 0.289352 0.289352 0.289352 0.144676 0.144676 0.144676 0.0723379 0.289352 0.289352 0.289352 0.144676 0.144676 0.144676 0.072338 0.289352 0.289352 0.289352 0.144676 0.144676 0.144676 0.0723379 0.289352 0.289352 0.289352 0.144676 0.144676 0.144676 0.072338 0.289352 0.289352 0.289352 0.144676 0.144676 0.144676 0.0723381 0.289352 0.289351 0.289352 0.144676 0.144676 0.144676 0.0723379 0.289352 0.289352 0.289351 0.144676 0.144676 0.144676 0.0723378 0.289352 0.289352 0.289352 0.144676 0.144676 0.144676 0.072338 0.289352 0.289352 0.289352 0.144676 0.144676 0.144676 0.0723379 0.144676 0.144676 0.289352 0.072338 0.144676 0.144676 0.072338 0.289352 0.144676 0.289352 0.289352 0.144676 0.144676 0.144676 0.072338 0.144676 0.072338 0.289352 0.289352 0.289352 0.144676 0.144676 0.144676 0.072338 0.289352 0.289352 0.289352 0.144676 0.144676 0.144676 0.072338 0.289352 0.289352 0.289352 0.144676 0.144676 0.144676 0.072338 0.289352 0.289352 0.289352 0.144676 0.144676 0.144676 0.072338 0.289352 0.289352 0.289352 0.144676 0.144676 0.144676 0.072338 0.289352 0.289352 0.289352 0.144676 0.144676 0.144676 0.072338 0.289352 0.289352 0.289352 0.144676 0.144676 0.144676 0.072338 0.289352 0.289352 0.289352 0.144676 0.144676 0.144676 0.072338 0.289352 0.289352 0.289352 0.144676 0.144676 0.144676 0.072338 0.289352 0.289352 0.289352 0.144676 0.144676 0.144676 0.0723379 0.289352 0.289352 0.289352 0.144676 0.144676 0.144676 0.072338 0.289352 0.289352 0.289352 0.144676 0.144676 0.144676 0.072338 0.289352 0.289352 0.289352 0.144676 0.144676 0.144676 0.072338 0.289352 0.289352 0.289352 0.144676 0.144676 0.144676 0.0723379 0.289352 0.289352 0.289352 0.144676 0.144676 0.144676 0.072338 0.289352 0.289352 0.289352 0.144676 0.144676 0.144676 0.072338 0.289352 0.289352 0.289352 0.144676 0.144676 0.144676 0.0723379 0.289352 0.289352 0.289352 0.144676 0.144676 0.144676 0.0723379 0.289352 0.289352 0.289352 0.144676 0.144676 0.144676 0.0723379 0.289352 0.289352 0.289352 0.144676 0.144676 0.144676 0.072338 0.289352 0.289352 0.289352 0.144676 0.144676 0.144676 0.072338 0.289352 0.289352 0.289352 0.144676 0.144676 0.144676 0.0723379 0.289352 0.289352 0.289352 0.144676 0.144676 0.144676 0.072338 0.289352 0.289352 0.289352 0.144676 0.144676 0.144676 0.0723379 0.289352 0.289352 0.289352 0.144676 0.144676 0.144676 0.072338 0.289352 0.289352 0.289352 0.144676 0.144676 0.144676 0.0723381 0.289352 0.289351 0.289352 0.144676 0.144676 0.144676 0.0723379 0.289352 0.289352 0.289351 0.144676 0.144676 0.144676 0.0723378 0.289352 0.289352 0.289352 0.144676 0.144676 0.144676 0.072338 0.289352 0.289352 0.289352 0.144676 0.144676 0.144676 0.0723379 0.144676 0.144676 0.289352 0.072338 0.144676 0.144676 0.072338 0.289352 0.144676 0.144676 0.144676 0.072338 0.144676 0.144676 0.072338 0.072338 0.072338 0.289352 0.144676 0.144676 0.144676 0.144676 0.072338 0.072338 0.289352 0.144676 0.144676 0.144676 0.144676 0.072338 0.072338 0.289352 0.144676 0.144676 0.144676 0.144676 0.0723379 0.0723379 0.289352 0.144676 0.144676 0.144676 0.144676 0.0723379 0.0723379 0.289352 0.144676 0.144676 0.144676 0.144676 0.072338 0.072338 0.289352 0.144676 0.144676 0.144676 0.144676 0.072338 0.072338 0.289352 0.144676 0.144676 0.144676 0.144676 0.0723379 0.0723379 0.289352 0.144676 0.144676 0.144676 0.144676 0.072338 0.072338 0.289352 0.144676 0.144676 0.144676 0.144676 0.0723379 0.0723379 0.289352 0.144676 0.144676 0.144676 0.144676 0.0723379 0.0723379 0.289352 0.144676 0.144676 0.144676 0.144676 0.0723379 0.0723379 0.289352 0.144676 0.144676 0.144676 0.144676 0.0723379 0.0723379 0.289352 0.144676 0.144676 0.144676 0.144676 0.072338 0.072338 0.289352 0.144676 0.144676 0.144676 0.144676 0.0723379 0.0723379 0.289352 0.144676 0.144676 0.144676 0.144676 0.072338 0.072338 0.289352 0.144676 0.144676 0.144676 0.144676 0.0723379 0.0723379 0.289352 0.144676 0.144676 0.144676 0.144676 0.0723379 0.0723379 0.289352 0.144676 0.144676 0.144676 0.144676 0.0723379 0.0723379 0.289352 0.144676 0.144676 0.144676 0.144676 0.0723379 0.0723379 0.289352 0.144676 0.144676 0.144676 0.144676 0.072338 0.072338 0.289352 0.144676 0.144676 0.144676 0.144676 0.0723379 0.0723379 0.289352 0.144676 0.144676 0.144676 0.144676 0.0723379 0.0723379 0.289352 0.144676 0.144676 0.144676 0.144676 0.072338 0.072338 0.289352 0.144676 0.144676 0.144676 0.144676 0.0723379 0.0723379 0.289352 0.144676 0.144676 0.144676 0.144676 0.0723379 0.0723379 0.289352 0.144676 0.144676 0.144676 0.144676 0.072338 0.072338 0.289352 0.144676 0.144676 0.144676 0.144676 0.0723379 0.0723379 0.289352 0.144676 0.144676 0.144676 0.144676 0.0723378 0.0723378 0.289352 0.144676 0.144676 0.144676 0.144676 0.072338 0.072338 0.289352 0.144676 0.144676 0.144676 0.144676 0.0723379 0.0723379 0.144676 0.072338 0.144676 0.072338 0.144676 0.072338 0.072338 0.144676 0.144676 0.072338 0.289352 0.144676 0.289352 0.289352 0.144676 0.072338 0.144676 0.144676 0.072338 0.144676 0.072338 0.144676 0.144676 0.289352 0.289352 0.289352 0.072338 0.144676 0.144676 0.144676 0.072338 0.144676 0.144676 0.289352 0.289352 0.289352 0.072338 0.144676 0.144676 0.144676 0.072338 0.144676 0.144676 0.289352 0.289352 0.289352 0.072338 0.144676 0.144676 0.144676 0.072338 0.144676 0.144676 0.289352 0.289352 0.289352 0.072338 0.144676 0.144676 0.144676 0.072338 0.144676 0.144676 0.289352 0.289352 0.289352 0.072338 0.144676 0.144676 0.144676 0.072338 0.144676 0.144676 0.289352 0.289352 0.289352 0.072338 0.144676 0.144676 0.144676 0.072338 0.144676 0.144676 0.289352 0.289352 0.289352 0.072338 0.144676 0.144676 0.144676 0.072338 0.144676 0.144676 0.289352 0.289352 0.289352 0.072338 0.144676 0.144676 0.144676 0.072338 0.144676 0.144676 0.289352 0.289352 0.289352 0.072338 0.144676 0.144676 0.144676 0.072338 0.144676 0.144676 0.289352 0.289352 0.289352 0.072338 0.144676 0.144676 0.144676 0.072338 0.144676 0.144676 0.289352 0.289352 0.289352 0.072338 0.144676 0.144676 0.144676 0.072338 0.144676 0.144676 0.289352 0.289352 0.289352 0.072338 0.144676 0.144676 0.144676 0.072338 0.144676 0.144676 0.289352 0.289352 0.289352 0.072338 0.144676 0.144676 0.144676 0.072338 0.144676 0.144676 0.289352 0.289352 0.289352 0.072338 0.144676 0.144676 0.144676 0.072338 0.144676 0.144676 0.289352 0.289352 0.289352 0.072338 0.144676 0.144676 0.144676 0.072338 0.144676 0.144676 0.289352 0.289352 0.289352 0.072338 0.144676 0.144676 0.144676 0.072338 0.144676 0.144676 0.289352 0.289352 0.289352 0.072338 0.144676 0.144676 0.144676 0.072338 0.144676 0.144676 0.289352 0.289352 0.289352 0.072338 0.144676 0.144676 0.144676 0.072338 0.144676 0.144676 0.289352 0.289352 0.289352 0.072338 0.144676 0.144676 0.144676 0.072338 0.144676 0.144676 0.289352 0.289352 0.289352 0.072338 0.144676 0.144676 0.144676 0.072338 0.144676 0.144676 0.289352 0.289352 0.289352 0.072338 0.144676 0.144676 0.144676 0.072338 0.144676 0.144676 0.289352 0.289352 0.289352 0.072338 0.144676 0.144676 0.144676 0.072338 0.144676 0.144676 0.289352 0.289352 0.289352 0.072338 0.144676 0.144676 0.144676 0.072338 0.144676 0.144676 0.289352 0.289352 0.289352 0.072338 0.144676 0.144676 0.144676 0.072338 0.144676 0.144676 0.289352 0.289352 0.289352 0.072338 0.144676 0.144676 0.144676 0.072338 0.144676 0.144676 0.289352 0.289352 0.289352 0.0723381 0.144676 0.144676 0.144676 0.0723381 0.144676 0.144676 0.289351 0.289352 0.289352 0.072338 0.144676 0.144676 0.144676 0.072338 0.144676 0.144676 0.289352 0.289352 0.289351 0.0723379 0.144676 0.144676 0.144676 0.0723379 0.144676 0.144676 0.289352 0.289352 0.289352 0.072338 0.144676 0.144676 0.144676 0.072338 0.144676 0.144676 0.289352 0.289352 0.289352 0.072338 0.144676 0.144676 0.144676 0.072338 0.072338 0.144676 0.144676 0.144676 0.289352 0.072338 0.072338 0.144676 0.144676 0.072338 0.289352 0.144676 0.289352 0.289352 0.144676 0.144676 0.144676 0.072338 0.144676 0.072338 0.289352 0.289352 0.289352 0.144676 0.144676 0.144676 0.072338 0.289352 0.289352 0.289352 0.144676 0.144676 0.144676 0.072338 0.289352 0.289352 0.289352 0.144676 0.144676 0.144676 0.072338 0.289352 0.289352 0.289352 0.144676 0.144676 0.144676 0.072338 0.289352 0.289352 0.289352 0.144676 0.144676 0.144676 0.072338 0.289352 0.289352 0.289352 0.144676 0.144676 0.144676 0.072338 0.289352 0.289352 0.289352 0.144676 0.144676 0.144676 0.072338 0.289352 0.289352 0.289352 0.144676 0.144676 0.144676 0.072338 0.289352 0.289352 0.289352 0.144676 0.144676 0.144676 0.072338 0.289352 0.289352 0.289352 0.144676 0.144676 0.144676 0.072338 0.289352 0.289352 0.289352 0.144676 0.144676 0.144676 0.072338 0.289352 0.289352 0.289352 0.144676 0.144676 0.144676 0.072338 0.289352 0.289352 0.289352 0.144676 0.144676 0.144676 0.072338 0.289352 0.289352 0.289352 0.144676 0.144676 0.144676 0.072338 0.289352 0.289352 0.289352 0.144676 0.144676 0.144676 0.072338 0.289352 0.289352 0.289352 0.144676 0.144676 0.144676 0.072338 0.289352 0.289352 0.289352 0.144676 0.144676 0.144676 0.072338 0.289352 0.289352 0.289352 0.144676 0.144676 0.144676 0.072338 0.289352 0.289352 0.289352 0.144676 0.144676 0.144676 0.072338 0.289352 0.289352 0.289352 0.144676 0.144676 0.144676 0.072338 0.289352 0.289352 0.289352 0.144676 0.144676 0.144676 0.072338 0.289352 0.289352 0.289352 0.144676 0.144676 0.144676 0.072338 0.289352 0.289352 0.289352 0.144676 0.144676 0.144676 0.072338 0.289352 0.289352 0.289352 0.144676 0.144676 0.144676 0.072338 0.289352 0.289352 0.289352 0.144676 0.144676 0.144676 0.072338 0.289352 0.289352 0.289352 0.144676 0.144676 0.144676 0.0723381 0.289351 0.289352 0.289352 0.144676 0.144676 0.144676 0.072338 0.289352 0.289352 0.289351 0.144676 0.144676 0.144676 0.0723379 0.289352 0.289352 0.289352 0.144676 0.144676 0.144676 0.072338 0.289352 0.289352 0.289352 0.144676 0.144676 0.144676 0.072338 0.144676 0.144676 0.289352 0.072338 0.144676 0.144676 0.072338 0.289352 0.144676 0.289352 0.289352 0.144676 0.144676 0.144676 0.072338 0.144676 0.072338 0.289352 0.289352 0.289352 0.144676 0.144676 0.144676 0.072338 0.289352 0.289352 0.289352 0.144676 0.144676 0.144676 0.072338 0.289352 0.289352 0.289352 0.144676 0.144676 0.144676 0.072338 0.289352 0.289352 0.289352 0.144676 0.144676 0.144676 0.072338 0.289352 0.289352 0.289352 0.144676 0.144676 0.144676 0.072338 0.289352 0.289352 0.289352 0.144676 0.144676 0.144676 0.072338 0.289352 0.289352 0.289352 0.144676 0.144676 0.144676 0.072338 0.289352 0.289352 0.289352 0.144676 0.144676 0.144676 0.072338 0.289352 0.289352 0.289352 0.144676 0.144676 0.144676 0.072338 0.289352 0.289352 0.289352 0.144676 0.144676 0.144676 0.072338 0.289352 0.289352 0.289352 0.144676 0.144676 0.144676 0.072338 0.289352 0.289352 0.289352 0.144676 0.144676 0.144676 0.072338 0.289352 0.289352 0.289352 0.144676 0.144676 0.144676 0.072338 0.289352 0.289352 0.289352 0.144676 0.144676 0.144676 0.072338 0.289352 0.289352 0.289352 0.144676 0.144676 0.144676 0.072338 0.289352 0.289352 0.289352 0.144676 0.144676 0.144676 0.072338 0.289352 0.289352 0.289352 0.144676 0.144676 0.144676 0.072338 0.289352 0.289352 0.289352 0.144676 0.144676 0.144676 0.072338 0.289352 0.289352 0.289352 0.144676 0.144676 0.144676 0.072338 0.289352 0.289352 0.289352 0.144676 0.144676 0.144676 0.072338 0.289352 0.289352 0.289352 0.144676 0.144676 0.144676 0.072338 0.289352 0.289352 0.289352 0.144676 0.144676 0.144676 0.072338 0.289352 0.289352 0.289352 0.144676 0.144676 0.144676 0.072338 0.289352 0.289352 0.289352 0.144676 0.144676 0.144676 0.072338 0.289352 0.289352 0.289352 0.144676 0.144676 0.144676 0.072338 0.289352 0.289352 0.289352 0.144676 0.144676 0.144676 0.0723381 0.289351 0.289352 0.289352 0.144676 0.144676 0.144676 0.072338 0.289352 0.289352 0.289351 0.144676 0.144676 0.144676 0.0723379 0.289352 0.289352 0.289352 0.144676 0.144676 0.144676 0.072338 0.289352 0.289352 0.289352 0.144676 0.144676 0.144676 0.072338 0.144676 0.144676 0.289352 0.072338 0.144676 0.144676 0.072338 0.289352 0.144676 0.289352 0.289352 0.144676 0.144676 0.144676 0.072338 0.144676 0.072338 0.289352 0.289352 0.289352 0.144676 0.144676 0.144676 0.072338 0.289352 0.289352 0.289352 0.144676 0.144676 0.144676 0.072338 0.289352 0.289352 0.289352 0.144676 0.144676 0.144676 0.072338 0.289352 0.289352 0.289352 0.144676 0.144676 0.144676 0.072338 0.289352 0.289352 0.289352 0.144676 0.144676 0.144676 0.072338 0.289352 0.289352 0.289352 0.144676 0.144676 0.144676 0.072338 0.289352 0.289352 0.289352 0.144676 0.144676 0.144676 0.072338 0.289352 0.289352 0.289352 0.144676 0.144676 0.144676 0.072338 0.289352 0.289352 0.289352 0.144676 0.144676 0.144676 0.072338 0.289352 0.289352 0.289352 0.144676 0.144676 0.144676 0.072338 0.289352 0.289352 0.289352 0.144676 0.144676 0.144676 0.072338 0.289352 0.289352 0.289352 0.144676 0.144676 0.144676 0.072338 0.289352 0.289352 0.289352 0.144676 0.144676 0.144676 0.072338 0.289352 0.289352 0.289352 0.144676 0.144676 0.144676 0.072338 0.289352 0.289352 0.289352 0.144676 0.144676 0.144676 0.072338 0.289352 0.289352 0.289352 0.144676 0.144676 0.144676 0.072338 0.289352 0.289352 0.289352 0.144676 0.144676 0.144676 0.072338 0.289352 0.289352 0.289352 0.144676 0.144676 0.144676 0.072338 0.289352 0.289352 0.289352 0.144676 0.144676 0.144676 0.0723379 0.289352 0.289352 0.289352 0.144676 0.144676 0.144676 0.072338 0.289352 0.289352 0.289352 0.144676 0.144676 0.144676 0.072338 0.289352 0.289352 0.289352 0.144676 0.144676 0.144676 0.072338 0.289352 0.289352 0.289352 0.144676 0.144676 0.144676 0.072338 0.289352 0.289352 0.289352 0.144676 0.144676 0.144676 0.072338 0.289352 0.289352 0.289352 0.144676 0.144676 0.144676 0.072338 0.289352 0.289352 0.289352 0.144676 0.144676 0.144676 0.0723381 0.289351 0.289352 0.289352 0.144676 0.144676 0.144676 0.072338 0.289352 0.289352 0.289351 0.144676 0.144676 0.144676 0.0723379 0.289352 0.289352 0.289352 0.144676 0.144676 0.144676 0.072338 0.289352 0.289352 0.289352 0.144676 0.144676 0.144676 0.072338 0.144676 0.144676 0.289352 0.072338 0.144676 0.144676 0.072338 0.289352 0.144676 0.289352 0.289352 0.144676 0.144676 0.144676 0.072338 0.144676 0.072338 0.289352 0.289352 0.289352 0.144676 0.144676 0.144676 0.072338 0.289352 0.289352 0.289352 0.144676 0.144676 0.144676 0.072338 0.289352 0.289352 0.289352 0.144676 0.144676 0.144676 0.072338 0.289352 0.289352 0.289352 0.144676 0.144676 0.144676 0.072338 0.289352 0.289352 0.289352 0.144676 0.144676 0.144676 0.072338 0.289352 0.289352 0.289352 0.144676 0.144676 0.144676 0.072338 0.289352 0.289352 0.289352 0.144676 0.144676 0.144676 0.072338 0.289352 0.289352 0.289352 0.144676 0.144676 0.144676 0.072338 0.289352 0.289352 0.289352 0.144676 0.144676 0.144676 0.072338 0.289352 0.289352 0.289352 0.144676 0.144676 0.144676 0.072338 0.289352 0.289352 0.289352 0.144676 0.144676 0.144676 0.072338 0.289352 0.289352 0.289352 0.144676 0.144676 0.144676 0.072338 0.289352 0.289352 0.289352 0.144676 0.144676 0.144676 0.072338 0.289352 0.289352 0.289352 0.144676 0.144676 0.144676 0.072338 0.289352 0.289352 0.289352 0.144676 0.144676 0.144676 0.072338 0.289352 0.289352 0.289352 0.144676 0.144676 0.144676 0.072338 0.289352 0.289352 0.289352 0.144676 0.144676 0.144676 0.072338 0.289352 0.289352 0.289352 0.144676 0.144676 0.144676 0.072338 0.289352 0.289352 0.289352 0.144676 0.144676 0.144676 0.0723379 0.289352 0.289352 0.289352 0.144676 0.144676 0.144676 0.072338 0.289352 0.289352 0.289352 0.144676 0.144676 0.144676 0.072338 0.289352 0.289352 0.289352 0.144676 0.144676 0.144676 0.072338 0.289352 0.289352 0.289352 0.144676 0.144676 0.144676 0.072338 0.289352 0.289352 0.289352 0.144676 0.144676 0.144676 0.0723379 0.289352 0.289352 0.289352 0.144676 0.144676 0.144676 0.072338 0.289352 0.289352 0.289352 0.144676 0.144676 0.144676 0.0723381 0.289351 0.289352 0.289352 0.144676 0.144676 0.144676 0.072338 0.289352 0.289352 0.289351 0.144676 0.144676 0.144676 0.0723379 0.289352 0.289352 0.289352 0.144676 0.144676 0.144676 0.072338 0.289352 0.289352 0.289352 0.144676 0.144676 0.144676 0.072338 0.144676 0.144676 0.289352 0.072338 0.144676 0.144676 0.072338 0.289352 0.144676 0.289352 0.289352 0.144676 0.144676 0.144676 0.072338 0.144676 0.072338 0.289352 0.289352 0.289352 0.144676 0.144676 0.144676 0.072338 0.289352 0.289352 0.289352 0.144676 0.144676 0.144676 0.072338 0.289352 0.289352 0.289352 0.144676 0.144676 0.144676 0.072338 0.289352 0.289352 0.289352 0.144676 0.144676 0.144676 0.072338 0.289352 0.289352 0.289352 0.144676 0.144676 0.144676 0.072338 0.289352 0.289352 0.289352 0.144676 0.144676 0.144676 0.072338 0.289352 0.289352 0.289352 0.144676 0.144676 0.144676 0.072338 0.289352 0.289352 0.289352 0.144676 0.144676 0.144676 0.072338 0.289352 0.289352 0.289352 0.144676 0.144676 0.144676 0.072338 0.289352 0.289352 0.289352 0.144676 0.144676 0.144676 0.072338 0.289352 0.289352 0.289352 0.144676 0.144676 0.144676 0.072338 0.289352 0.289352 0.289352 0.144676 0.144676 0.144676 0.072338 0.289352 0.289352 0.289352 0.144676 0.144676 0.144676 0.072338 0.289352 0.289352 0.289352 0.144676 0.144676 0.144676 0.072338 0.289352 0.289352 0.289352 0.144676 0.144676 0.144676 0.072338 0.289352 0.289352 0.289352 0.144676 0.144676 0.144676 0.072338 0.289352 0.289352 0.289352 0.144676 0.144676 0.144676 0.072338 0.289352 0.289352 0.289352 0.144676 0.144676 0.144676 0.072338 0.289352 0.289352 0.289352 0.144676 0.144676 0.144676 0.072338 0.289352 0.289352 0.289352 0.144676 0.144676 0.144676 0.072338 0.289352 0.289352 0.289352 0.144676 0.144676 0.144676 0.072338 0.289352 0.289352 0.289352 0.144676 0.144676 0.144676 0.072338 0.289352 0.289352 0.289352 0.144676 0.144676 0.144676 0.072338 0.289352 0.289352 0.289352 0.144676 0.144676 0.144676 0.072338 0.289352 0.289352 0.289352 0.144676 0.144676 0.144676 0.072338 0.289352 0.289352 0.289352 0.144676 0.144676 0.144676 0.0723381 0.289351 0.289352 0.289352 0.144676 0.144676 0.144676 0.072338 0.289352 0.289352 0.289351 0.144676 0.144676 0.144676 0.0723379 0.289352 0.289352 0.289352 0.144676 0.144676 0.144676 0.072338 0.289352 0.289352 0.289352 0.144676 0.144676 0.144676 0.072338 0.144676 0.144676 0.289352 0.072338 0.144676 0.144676 0.072338 0.289352 0.144676 0.289352 0.289352 0.144676 0.144676 0.144676 0.072338 0.144676 0.072338 0.289352 0.289352 0.289352 0.144676 0.144676 0.144676 0.072338 0.289352 0.289352 0.289352 0.144676 0.144676 0.144676 0.072338 0.289352 0.289352 0.289352 0.144676 0.144676 0.144676 0.072338 0.289352 0.289352 0.289352 0.144676 0.144676 0.144676 0.072338 0.289352 0.289352 0.289352 0.144676 0.144676 0.144676 0.072338 0.289352 0.289352 0.289352 0.144676 0.144676 0.144676 0.072338 0.289352 0.289352 0.289352 0.144676 0.144676 0.144676 0.072338 0.289352 0.289352 0.289352 0.144676 0.144676 0.144676 0.072338 0.289352 0.289352 0.289352 0.144676 0.144676 0.144676 0.072338 0.289352 0.289352 0.289352 0.144676 0.144676 0.144676 0.072338 0.289352 0.289352 0.289352 0.144676 0.144676 0.144676 0.072338 0.289352 0.289352 0.289352 0.144676 0.144676 0.144676 0.072338 0.289352 0.289352 0.289352 0.144676 0.144676 0.144676 0.072338 0.289352 0.289352 0.289352 0.144676 0.144676 0.144676 0.072338 0.289352 0.289352 0.289352 0.144676 0.144676 0.144676 0.072338 0.289352 0.289352 0.289352 0.144676 0.144676 0.144676 0.072338 0.289352 0.289352 0.289352 0.144676 0.144676 0.144676 0.072338 0.289352 0.289352 0.289352 0.144676 0.144676 0.144676 0.072338 0.289352 0.289352 0.289352 0.144676 0.144676 0.144676 0.072338 0.289352 0.289352 0.289352 0.144676 0.144676 0.144676 0.072338 0.289352 0.289352 0.289352 0.144676 0.144676 0.144676 0.072338 0.289352 0.289352 0.289352 0.144676 0.144676 0.144676 0.072338 0.289352 0.289352 0.289352 0.144676 0.144676 0.144676 0.072338 0.289352 0.289352 0.289352 0.144676 0.144676 0.144676 0.072338 0.289352 0.289352 0.289352 0.144676 0.144676 0.144676 0.072338 0.289352 0.289352 0.289352 0.144676 0.144676 0.144676 0.0723381 0.289351 0.289352 0.289352 0.144676 0.144676 0.144676 0.072338 0.289352 0.289352 0.289351 0.144676 0.144676 0.144676 0.0723379 0.289352 0.289352 0.289352 0.144676 0.144676 0.144676 0.072338 0.289352 0.289352 0.289352 0.144676 0.144676 0.144676 0.072338 0.144676 0.144676 0.289352 0.072338 0.144676 0.144676 0.072338 0.289352 0.144676 0.144676 0.144676 0.072338 0.144676 0.144676 0.072338 0.072338 0.072338 0.289352 0.144676 0.144676 0.144676 0.144676 0.072338 0.072338 0.289352 0.144676 0.144676 0.144676 0.144676 0.072338 0.072338 0.289352 0.144676 0.144676 0.144676 0.144676 0.072338 0.072338 0.289352 0.144676 0.144676 0.144676 0.144676 0.072338 0.072338 0.289352 0.144676 0.144676 0.144676 0.144676 0.072338 0.072338 0.289352 0.144676 0.144676 0.144676 0.144676 0.072338 0.072338 0.289352 0.144676 0.144676 0.144676 0.144676 0.072338 0.072338 0.289352 0.144676 0.144676 0.144676 0.144676 0.072338 0.072338 0.289352 0.144676 0.144676 0.144676 0.144676 0.072338 0.072338 0.289352 0.144676 0.144676 0.144676 0.144676 0.072338 0.072338 0.289352 0.144676 0.144676 0.144676 0.144676 0.072338 0.072338 0.289352 0.144676 0.144676 0.144676 0.144676 0.072338 0.072338 0.289352 0.144676 0.144676 0.144676 0.144676 0.072338 0.072338 0.289352 0.144676 0.144676 0.144676 0.144676 0.0723379 0.0723379 0.289352 0.144676 0.144676 0.144676 0.144676 0.072338 0.072338 0.289352 0.144676 0.144676 0.144676 0.144676 0.072338 0.072338 0.289352 0.144676 0.144676 0.144676 0.144676 0.072338 0.072338 0.289352 0.144676 0.144676 0.144676 0.144676 0.0723379 0.0723379 0.289352 0.144676 0.144676 0.144676 0.144676 0.0723379 0.0723379 0.289352 0.144676 0.144676 0.144676 0.144676 0.072338 0.072338 0.289352 0.144676 0.144676 0.144676 0.144676 0.072338 0.072338 0.289352 0.144676 0.144676 0.144676 0.144676 0.072338 0.072338 0.289352 0.144676 0.144676 0.144676 0.144676 0.072338 0.072338 0.289352 0.144676 0.144676 0.144676 0.144676 0.0723379 0.0723379 0.289352 0.144676 0.144676 0.144676 0.144676 0.072338 0.072338 0.289352 0.144676 0.144676 0.144676 0.144676 0.0723381 0.0723381 0.289351 0.144676 0.144676 0.144676 0.144676 0.0723379 0.0723379 0.289352 0.144676 0.144676 0.144676 0.144676 0.0723379 0.0723379 0.289352 0.144676 0.144676 0.144676 0.144676 0.072338 0.072338 0.289352 0.144676 0.144676 0.144676 0.144676 0.0723379 0.0723379 0.144676 0.072338 0.144676 0.072338 0.144676 0.072338 0.072338 0.144676 0.144676 0.0723379 0.289352 0.144676 0.289352 0.289352 0.144676 0.0723379 0.144676 0.144676 0.0723379 0.144676 0.0723379 0.144676 0.144676 0.289352 0.289352 0.289352 0.0723379 0.144676 0.144676 0.144676 0.0723379 0.144676 0.144676 0.289352 0.289352 0.289352 0.0723379 0.144676 0.144676 0.144676 0.0723379 0.144676 0.144676 0.289352 0.289352 0.289352 0.0723379 0.144676 0.144676 0.144676 0.0723379 0.144676 0.144676 0.289352 0.289352 0.289352 0.0723379 0.144676 0.144676 0.144676 0.0723379 0.144676 0.144676 0.289352 0.289352 0.289352 0.0723379 0.144676 0.144676 0.144676 0.0723379 0.144676 0.144676 0.289352 0.289352 0.289352 0.0723379 0.144676 0.144676 0.144676 0.0723379 0.144676 0.144676 0.289352 0.289352 0.289352 0.0723379 0.144676 0.144676 0.144676 0.0723379 0.144676 0.144676 0.289352 0.289352 0.289352 0.0723379 0.144676 0.144676 0.144676 0.0723379 0.144676 0.144676 0.289352 0.289351 0.289352 0.0723379 0.144676 0.144676 0.144676 0.0723379 0.144676 0.144676 0.289352 0.289352 0.289352 0.0723379 0.144676 0.144676 0.144676 0.0723379 0.144676 0.144676 0.289352 0.289352 0.289352 0.0723379 0.144676 0.144676 0.144676 0.0723379 0.144676 0.144676 0.289352 0.289352 0.289352 0.0723379 0.144676 0.144676 0.144676 0.0723379 0.144676 0.144676 0.289352 0.289352 0.289352 0.0723379 0.144676 0.144676 0.144676 0.0723379 0.144676 0.144676 0.289352 0.289352 0.289352 0.0723379 0.144676 0.144676 0.144676 0.0723379 0.144676 0.144676 0.289352 0.289352 0.289352 0.0723379 0.144676 0.144676 0.144676 0.0723379 0.144676 0.144676 0.289352 0.289352 0.289352 0.0723379 0.144676 0.144676 0.144676 0.0723379 0.144676 0.144676 0.289352 0.289351 0.289352 0.0723379 0.144676 0.144676 0.144676 0.0723379 0.144676 0.144676 0.289352 0.289351 0.289352 0.0723379 0.144676 0.144676 0.144676 0.0723379 0.144676 0.144676 0.289352 0.289351 0.289352 0.0723378 0.144676 0.144676 0.144676 0.0723378 0.144676 0.144676 0.289352 0.289352 0.289352 0.0723379 0.144676 0.144676 0.144676 0.0723379 0.144676 0.144676 0.289352 0.289351 0.289352 0.0723379 0.144676 0.144676 0.144676 0.0723379 0.144676 0.144676 0.289352 0.289352 0.289352 0.0723379 0.144676 0.144676 0.144676 0.0723379 0.144676 0.144676 0.289352 0.289351 0.289352 0.0723379 0.144676 0.144676 0.144676 0.0723379 0.144676 0.144676 0.289352 0.289351 0.289352 0.0723378 0.144676 0.144676 0.144676 0.0723378 0.144676 0.144676 0.289352 0.289352 0.289352 0.0723379 0.144676 0.144676 0.144676 0.0723379 0.144676 0.144676 0.289352 0.289352 0.289352 0.072338 0.144676 0.144676 0.144676 0.072338 0.144676 0.144676 0.289352 0.289351 0.289352 0.0723378 0.144676 0.144676 0.144676 0.0723378 0.144676 0.144676 0.289352 0.289351 0.289351 0.0723378 0.144676 0.144676 0.144676 0.0723378 0.144676 0.144676 0.289352 0.289351 0.289352 0.0723379 0.144676 0.144676 0.144676 0.0723379 0.144676 0.144676 0.289352 0.289352 0.289352 0.0723379 0.144676 0.144676 0.144676 0.0723379 0.0723379 0.144676 0.144676 0.144676 0.289352 0.0723379 0.0723379 0.144676 0.144676 0.0723379 0.289352 0.144676 0.289352 0.289352 0.144676 0.144676 0.144676 0.0723379 0.144676 0.0723379 0.289352 0.289352 0.289352 0.144676 0.144676 0.144676 0.0723379 0.289352 0.289352 0.289352 0.144676 0.144676 0.144676 0.0723379 0.289352 0.289352 0.289352 0.144676 0.144676 0.144676 0.0723379 0.289352 0.289352 0.289352 0.144676 0.144676 0.144676 0.0723379 0.289352 0.289352 0.289352 0.144676 0.144676 0.144676 0.0723379 0.289352 0.289352 0.289352 0.144676 0.144676 0.144676 0.0723379 0.289352 0.289352 0.289352 0.144676 0.144676 0.144676 0.0723379 0.289352 0.289352 0.289352 0.144676 0.144676 0.144676 0.0723379 0.289352 0.289351 0.289352 0.144676 0.144676 0.144676 0.0723379 0.289352 0.289352 0.289352 0.144676 0.144676 0.144676 0.0723379 0.289352 0.289352 0.289352 0.144676 0.144676 0.144676 0.0723379 0.289352 0.289352 0.289352 0.144676 0.144676 0.144676 0.0723379 0.289352 0.289352 0.289352 0.144676 0.144676 0.144676 0.0723379 0.289352 0.289352 0.289352 0.144676 0.144676 0.144676 0.0723379 0.289352 0.289352 0.289352 0.144676 0.144676 0.144676 0.0723379 0.289352 0.289352 0.289352 0.144676 0.144676 0.144676 0.0723379 0.289352 0.289351 0.289352 0.144676 0.144676 0.144676 0.0723379 0.289352 0.289351 0.289352 0.144676 0.144676 0.144676 0.0723379 0.289352 0.289351 0.289352 0.144676 0.144676 0.144676 0.0723378 0.289352 0.289352 0.289352 0.144676 0.144676 0.144676 0.0723379 0.289352 0.289351 0.289352 0.144676 0.144676 0.144676 0.0723379 0.289352 0.289352 0.289352 0.144676 0.144676 0.144676 0.0723379 0.289352 0.289351 0.289352 0.144676 0.144676 0.144676 0.0723379 0.289352 0.289351 0.289352 0.144676 0.144676 0.144676 0.0723378 0.289352 0.289352 0.289352 0.144676 0.144676 0.144676 0.0723379 0.289352 0.289352 0.289352 0.144676 0.144676 0.144676 0.072338 0.289352 0.289351 0.289352 0.144676 0.144676 0.144676 0.0723378 0.289352 0.289351 0.289351 0.144676 0.144676 0.144676 0.0723378 0.289352 0.289351 0.289352 0.144676 0.144676 0.144676 0.0723379 0.289352 0.289352 0.289352 0.144676 0.144676 0.144676 0.0723378 0.144676 0.144676 0.289352 0.0723379 0.144676 0.144676 0.0723379 0.289352 0.144676 0.289352 0.289352 0.144676 0.144676 0.144676 0.0723379 0.144676 0.0723379 0.289352 0.289352 0.289352 0.144676 0.144676 0.144676 0.0723379 0.289352 0.289352 0.289352 0.144676 0.144676 0.144676 0.0723379 0.289352 0.289352 0.289352 0.144676 0.144676 0.144676 0.0723379 0.289352 0.289352 0.289352 0.144676 0.144676 0.144676 0.0723379 0.289352 0.289352 0.289352 0.144676 0.144676 0.144676 0.0723379 0.289352 0.289352 0.289352 0.144676 0.144676 0.144676 0.0723379 0.289352 0.289352 0.289352 0.144676 0.144676 0.144676 0.0723379 0.289352 0.289352 0.289352 0.144676 0.144676 0.144676 0.0723379 0.289352 0.289351 0.289352 0.144676 0.144676 0.144676 0.0723379 0.289352 0.289352 0.289352 0.144676 0.144676 0.144676 0.0723379 0.289352 0.289352 0.289352 0.144676 0.144676 0.144676 0.0723379 0.289352 0.289352 0.289352 0.144676 0.144676 0.144676 0.0723379 0.289352 0.289351 0.289352 0.144676 0.144676 0.144676 0.0723379 0.289352 0.289351 0.289352 0.144676 0.144676 0.144676 0.0723378 0.289352 0.289352 0.289352 0.144676 0.144676 0.144676 0.0723379 0.289352 0.289352 0.289352 0.144676 0.144676 0.144676 0.0723379 0.289352 0.289351 0.289352 0.144676 0.144676 0.144676 0.0723379 0.289352 0.289351 0.289352 0.144676 0.144676 0.144676 0.0723379 0.289352 0.289351 0.289352 0.144676 0.144676 0.144676 0.0723378 0.289352 0.289352 0.289352 0.144676 0.144676 0.144676 0.0723379 0.289352 0.289351 0.289352 0.144676 0.144676 0.144676 0.0723379 0.289352 0.289351 0.289352 0.144676 0.144676 0.144676 0.0723379 0.289352 0.289351 0.289352 0.144676 0.144676 0.144676 0.0723379 0.289352 0.289351 0.289352 0.144676 0.144676 0.144676 0.0723378 0.289352 0.289352 0.289352 0.144676 0.144676 0.144676 0.0723379 0.289352 0.289352 0.289352 0.144676 0.144676 0.144676 0.072338 0.289352 0.289351 0.289352 0.144676 0.144676 0.144676 0.0723378 0.289352 0.289351 0.289351 0.144676 0.144676 0.144676 0.0723378 0.289352 0.289351 0.289352 0.144676 0.144676 0.144676 0.0723379 0.289352 0.289352 0.289352 0.144676 0.144676 0.144676 0.0723378 0.144676 0.144676 0.289352 0.0723379 0.144676 0.144676 0.0723379 0.289352 0.144676 0.289352 0.289352 0.144676 0.144676 0.144676 0.0723379 0.144676 0.0723379 0.289352 0.289352 0.289352 0.144676 0.144676 0.144676 0.0723379 0.289352 0.289352 0.289352 0.144676 0.144676 0.144676 0.0723379 0.289352 0.289352 0.289352 0.144676 0.144676 0.144676 0.0723379 0.289352 0.289352 0.289352 0.144676 0.144676 0.144676 0.0723379 0.289352 0.289352 0.289352 0.144676 0.144676 0.144676 0.0723379 0.289352 0.289352 0.289352 0.144676 0.144676 0.144676 0.0723379 0.289352 0.289352 0.289352 0.144676 0.144676 0.144676 0.0723379 0.289352 0.289352 0.289352 0.144676 0.144676 0.144676 0.0723379 0.289352 0.289351 0.289352 0.144676 0.144676 0.144676 0.0723379 0.289352 0.289351 0.289352 0.144676 0.144676 0.144676 0.0723379 0.289352 0.289352 0.289352 0.144676 0.144676 0.144676 0.0723379 0.289352 0.289352 0.289352 0.144676 0.144676 0.144676 0.0723379 0.289352 0.289351 0.289352 0.144676 0.144676 0.144676 0.0723379 0.289352 0.289351 0.289352 0.144676 0.144676 0.144676 0.0723378 0.289352 0.289352 0.289352 0.144676 0.144676 0.144676 0.0723379 0.289352 0.289351 0.289352 0.144676 0.144676 0.144676 0.0723379 0.289352 0.289351 0.289352 0.144676 0.144676 0.144676 0.0723379 0.289352 0.289351 0.289352 0.144676 0.144676 0.144676 0.0723379 0.289352 0.289351 0.289352 0.144676 0.144676 0.144676 0.0723378 0.289352 0.289352 0.289352 0.144676 0.144676 0.144676 0.0723379 0.289352 0.289351 0.289352 0.144676 0.144676 0.144676 0.0723379 0.289352 0.289351 0.289352 0.144676 0.144676 0.144676 0.0723378 0.289352 0.289351 0.289352 0.144676 0.144676 0.144676 0.0723379 0.289352 0.289351 0.289352 0.144676 0.144676 0.144676 0.0723378 0.289352 0.289352 0.289352 0.144676 0.144676 0.144676 0.0723379 0.289352 0.289352 0.289352 0.144676 0.144676 0.144676 0.072338 0.289352 0.289351 0.289352 0.144676 0.144676 0.144676 0.0723378 0.289352 0.289351 0.289351 0.144676 0.144676 0.144676 0.0723378 0.289352 0.289351 0.289352 0.144676 0.144676 0.144676 0.0723379 0.289352 0.289352 0.289352 0.144676 0.144676 0.144676 0.0723378 0.144676 0.144676 0.289352 0.0723379 0.144676 0.144676 0.0723379 0.289352 0.144676 0.289352 0.289352 0.144676 0.144676 0.144676 0.0723379 0.144676 0.0723379 0.289352 0.289352 0.289352 0.144676 0.144676 0.144676 0.0723379 0.289352 0.289352 0.289352 0.144676 0.144676 0.144676 0.0723379 0.289352 0.289352 0.289352 0.144676 0.144676 0.144676 0.0723379 0.289352 0.289352 0.289352 0.144676 0.144676 0.144676 0.0723379 0.289352 0.289352 0.289352 0.144676 0.144676 0.144676 0.0723379 0.289352 0.289352 0.289352 0.144676 0.144676 0.144676 0.0723379 0.289352 0.289352 0.289352 0.144676 0.144676 0.144676 0.0723379 0.289352 0.289352 0.289352 0.144676 0.144676 0.144676 0.0723379 0.289352 0.289351 0.289352 0.144676 0.144676 0.144676 0.0723379 0.289352 0.289352 0.289352 0.144676 0.144676 0.144676 0.0723379 0.289352 0.289352 0.289352 0.144676 0.144676 0.144676 0.0723379 0.289352 0.289352 0.289352 0.144676 0.144676 0.144676 0.0723379 0.289352 0.289352 0.289352 0.144676 0.144676 0.144676 0.0723379 0.289352 0.289351 0.289352 0.144676 0.144676 0.144676 0.0723378 0.289352 0.289352 0.289352 0.144676 0.144676 0.144676 0.0723379 0.289352 0.289351 0.289352 0.144676 0.144676 0.144676 0.0723379 0.289352 0.289351 0.289352 0.144676 0.144676 0.144676 0.0723379 0.289352 0.289351 0.289352 0.144676 0.144676 0.144676 0.0723379 0.289352 0.289351 0.289352 0.144676 0.144676 0.144676 0.0723378 0.289352 0.289352 0.289352 0.144676 0.144676 0.144676 0.0723379 0.289352 0.289351 0.289352 0.144676 0.144676 0.144676 0.0723379 0.289352 0.289352 0.289352 0.144676 0.144676 0.144676 0.0723378 0.289352 0.289351 0.289352 0.144676 0.144676 0.144676 0.0723379 0.289352 0.289351 0.289352 0.144676 0.144676 0.144676 0.0723378 0.289352 0.289352 0.289352 0.144676 0.144676 0.144676 0.0723379 0.289352 0.289352 0.289352 0.144676 0.144676 0.144676 0.072338 0.289352 0.289351 0.289352 0.144676 0.144676 0.144676 0.0723378 0.289352 0.289351 0.289351 0.144676 0.144676 0.144676 0.0723378 0.289352 0.289351 0.289352 0.144676 0.144676 0.144676 0.0723379 0.289352 0.289352 0.289352 0.144676 0.144676 0.144676 0.0723378 0.144676 0.144676 0.289352 0.0723379 0.144676 0.144676 0.0723379 0.289352 0.144676 0.289352 0.289352 0.144676 0.144676 0.144676 0.0723379 0.144676 0.0723379 0.289352 0.289352 0.289352 0.144676 0.144676 0.144676 0.0723379 0.289352 0.289352 0.289352 0.144676 0.144676 0.144676 0.0723379 0.289352 0.289352 0.289352 0.144676 0.144676 0.144676 0.0723379 0.289352 0.289352 0.289352 0.144676 0.144676 0.144676 0.0723379 0.289352 0.289352 0.289352 0.144676 0.144676 0.144676 0.0723379 0.289352 0.289352 0.289352 0.144676 0.144676 0.144676 0.0723379 0.289352 0.289352 0.289352 0.144676 0.144676 0.144676 0.0723379 0.289352 0.289352 0.289352 0.144676 0.144676 0.144676 0.0723379 0.289352 0.289351 0.289352 0.144676 0.144676 0.144676 0.0723379 0.289352 0.289352 0.289352 0.144676 0.144676 0.144676 0.0723379 0.289352 0.289352 0.289352 0.144676 0.144676 0.144676 0.0723379 0.289352 0.289352 0.289352 0.144676 0.144676 0.144676 0.0723379 0.289352 0.289352 0.289352 0.144676 0.144676 0.144676 0.0723379 0.289352 0.289352 0.289352 0.144676 0.144676 0.144676 0.0723379 0.289352 0.289352 0.289352 0.144676 0.144676 0.144676 0.0723379 0.289352 0.289352 0.289352 0.144676 0.144676 0.144676 0.0723379 0.289352 0.289351 0.289352 0.144676 0.144676 0.144676 0.0723379 0.289352 0.289351 0.289352 0.144676 0.144676 0.144676 0.0723379 0.289352 0.289352 0.289352 0.144676 0.144676 0.144676 0.0723378 0.289352 0.289352 0.289352 0.144676 0.144676 0.144676 0.0723379 0.289352 0.289351 0.289352 0.144676 0.144676 0.144676 0.0723379 0.289352 0.289352 0.289352 0.144676 0.144676 0.144676 0.0723379 0.289352 0.289352 0.289352 0.144676 0.144676 0.144676 0.0723379 0.289352 0.289351 0.289352 0.144676 0.144676 0.144676 0.0723378 0.289352 0.289352 0.289352 0.144676 0.144676 0.144676 0.0723379 0.289352 0.289352 0.289352 0.144676 0.144676 0.144676 0.072338 0.289352 0.289351 0.289352 0.144676 0.144676 0.144676 0.0723378 0.289352 0.289351 0.289351 0.144676 0.144676 0.144676 0.0723378 0.289352 0.289351 0.289352 0.144676 0.144676 0.144676 0.0723379 0.289352 0.289352 0.289352 0.144676 0.144676 0.144676 0.0723379 0.144676 0.144676 0.289352 0.0723379 0.144676 0.144676 0.0723379 0.289352 0.144676 0.289352 0.289352 0.144676 0.144676 0.144676 0.0723379 0.144676 0.0723379 0.289352 0.289352 0.289352 0.144676 0.144676 0.144676 0.0723379 0.289352 0.289352 0.289352 0.144676 0.144676 0.144676 0.0723379 0.289352 0.289352 0.289352 0.144676 0.144676 0.144676 0.0723379 0.289352 0.289352 0.289352 0.144676 0.144676 0.144676 0.0723379 0.289352 0.289352 0.289352 0.144676 0.144676 0.144676 0.0723379 0.289352 0.289352 0.289352 0.144676 0.144676 0.144676 0.0723379 0.289352 0.289352 0.289352 0.144676 0.144676 0.144676 0.0723379 0.289352 0.289352 0.289352 0.144676 0.144676 0.144676 0.0723379 0.289352 0.289351 0.289352 0.144676 0.144676 0.144676 0.0723379 0.289352 0.289352 0.289352 0.144676 0.144676 0.144676 0.0723379 0.289352 0.289352 0.289352 0.144676 0.144676 0.144676 0.0723379 0.289352 0.289352 0.289352 0.144676 0.144676 0.144676 0.0723379 0.289352 0.289352 0.289352 0.144676 0.144676 0.144676 0.0723379 0.289352 0.289351 0.289352 0.144676 0.144676 0.144676 0.0723379 0.289352 0.289352 0.289352 0.144676 0.144676 0.144676 0.0723379 0.289352 0.289351 0.289352 0.144676 0.144676 0.144676 0.0723379 0.289352 0.289351 0.289352 0.144676 0.144676 0.144676 0.0723379 0.289352 0.289351 0.289352 0.144676 0.144676 0.144676 0.0723379 0.289352 0.289351 0.289352 0.144676 0.144676 0.144676 0.0723378 0.289352 0.289352 0.289352 0.144676 0.144676 0.144676 0.0723379 0.289352 0.289351 0.289352 0.144676 0.144676 0.144676 0.0723379 0.289352 0.289352 0.289352 0.144676 0.144676 0.144676 0.0723379 0.289352 0.289351 0.289352 0.144676 0.144676 0.144676 0.0723379 0.289352 0.289351 0.289352 0.144676 0.144676 0.144676 0.0723378 0.289352 0.289352 0.289352 0.144676 0.144676 0.144676 0.0723379 0.289352 0.289352 0.289352 0.144676 0.144676 0.144676 0.072338 0.289352 0.289351 0.289352 0.144676 0.144676 0.144676 0.0723378 0.289352 0.289351 0.289351 0.144676 0.144676 0.144676 0.0723378 0.289352 0.289351 0.289352 0.144676 0.144676 0.144676 0.0723379 0.289352 0.289352 0.289352 0.144676 0.144676 0.144676 0.0723379 0.144676 0.144676 0.289352 0.0723379 0.144676 0.144676 0.0723379 0.289352 0.144676 0.144676 0.144676 0.0723379 0.144676 0.144676 0.0723379 0.0723379 0.0723379 0.289352 0.144676 0.144676 0.144676 0.144676 0.0723379 0.0723379 0.289352 0.144676 0.144676 0.144676 0.144676 0.0723379 0.0723379 0.289352 0.144676 0.144676 0.144676 0.144676 0.0723379 0.0723379 0.289352 0.144676 0.144676 0.144676 0.144676 0.0723379 0.0723379 0.289352 0.144676 0.144676 0.144676 0.144676 0.0723379 0.0723379 0.289352 0.144676 0.144676 0.144676 0.144676 0.0723379 0.0723379 0.289352 0.144676 0.144676 0.144676 0.144676 0.0723379 0.0723379 0.289352 0.144676 0.144676 0.144676 0.144676 0.0723379 0.0723379 0.289352 0.144676 0.144676 0.144676 0.144676 0.0723379 0.0723379 0.289352 0.144676 0.144676 0.144676 0.144676 0.0723379 0.0723379 0.289352 0.144676 0.144676 0.144676 0.144676 0.0723379 0.0723379 0.289352 0.144676 0.144676 0.144676 0.144676 0.0723379 0.0723379 0.289352 0.144676 0.144676 0.144676 0.144676 0.0723379 0.0723379 0.289352 0.144676 0.144676 0.144676 0.144676 0.0723378 0.0723378 0.289352 0.144676 0.144676 0.144676 0.144676 0.0723379 0.0723379 0.289352 0.144676 0.144676 0.144676 0.144676 0.0723379 0.0723379 0.289352 0.144676 0.144676 0.144676 0.144676 0.0723379 0.0723379 0.289352 0.144676 0.144676 0.144676 0.144676 0.0723378 0.0723378 0.289352 0.144676 0.144676 0.144676 0.144676 0.0723378 0.0723378 0.289352 0.144676 0.144676 0.144676 0.144676 0.0723379 0.0723379 0.289352 0.144676 0.144676 0.144676 0.144676 0.0723379 0.0723379 0.289352 0.144676 0.144676 0.144676 0.144676 0.0723378 0.0723378 0.289352 0.144676 0.144676 0.144676 0.144676 0.0723379 0.0723379 0.289352 0.144676 0.144676 0.144676 0.144676 0.0723378 0.0723378 0.289352 0.144676 0.144676 0.144676 0.144676 0.0723379 0.0723379 0.289352 0.144676 0.144676 0.144676 0.144676 0.072338 0.072338 0.289351 0.144676 0.144676 0.144676 0.144676 0.0723378 0.0723378 0.289352 0.144676 0.144676 0.144676 0.144676 0.0723378 0.0723378 0.289352 0.144676 0.144676 0.144676 0.144676 0.0723379 0.0723379 0.289352 0.144676 0.144676 0.144676 0.144676 0.0723378 0.0723378 0.144676 0.0723379 0.144676 0.0723379 0.144676 0.0723379 0.0723379 0.144676 0.144676 0.0723381 0.289352 0.144676 0.289352 0.289352 0.144676 0.0723381 0.144676 0.144676 0.0723381 0.144676 0.0723381 0.144676 0.144676 0.289352 0.289352 0.289352 0.0723381 0.144676 0.144676 0.144676 0.0723381 0.144676 0.144676 0.289352 0.289352 0.289352 0.0723381 0.144676 0.144676 0.144676 0.0723381 0.144676 0.144676 0.289352 0.289352 0.289352 0.0723381 0.144676 0.144676 0.144676 0.0723381 0.144676 0.144676 0.289352 0.289352 0.289352 0.0723381 0.144676 0.144676 0.144676 0.0723381 0.144676 0.144676 0.289352 0.289352 0.289352 0.0723381 0.144676 0.144676 0.144676 0.0723381 0.144676 0.144676 0.289352 0.289352 0.289352 0.0723381 0.144676 0.144676 0.144676 0.0723381 0.144676 0.144676 0.289352 0.289352 0.289352 0.0723381 0.144676 0.144676 0.144676 0.0723381 0.144676 0.144676 0.289352 0.289352 0.289352 0.0723381 0.144676 0.144676 0.144676 0.0723381 0.144676 0.144676 0.289352 0.289352 0.289352 0.072338 0.144676 0.144676 0.144676 0.072338 0.144676 0.144676 0.289352 0.289352 0.289352 0.072338 0.144676 0.144676 0.144676 0.072338 0.144676 0.144676 0.289352 0.289352 0.289352 0.0723381 0.144676 0.144676 0.144676 0.0723381 0.144676 0.144676 0.289352 0.289352 0.289352 0.0723381 0.144676 0.144676 0.144676 0.0723381 0.144676 0.144676 0.289352 0.289352 0.289352 0.0723381 0.144676 0.144676 0.144676 0.0723381 0.144676 0.144676 0.289352 0.289352 0.289352 0.072338 0.144676 0.144676 0.144676 0.072338 0.144676 0.144676 0.289352 0.289352 0.289352 0.0723381 0.144676 0.144676 0.144676 0.0723381 0.144676 0.144676 0.289352 0.289352 0.289352 0.0723381 0.144676 0.144676 0.144676 0.0723381 0.144676 0.144676 0.289352 0.289352 0.289352 0.072338 0.144676 0.144676 0.144676 0.072338 0.144676 0.144676 0.289352 0.289352 0.289352 0.072338 0.144676 0.144676 0.144676 0.072338 0.144676 0.144676 0.289352 0.289352 0.289352 0.072338 0.144676 0.144676 0.144676 0.072338 0.144676 0.144676 0.289352 0.289352 0.289352 0.0723381 0.144676 0.144676 0.144676 0.0723381 0.144676 0.144676 0.289352 0.289352 0.289352 0.0723381 0.144676 0.144676 0.144676 0.0723381 0.144676 0.144676 0.289352 0.289352 0.289352 0.072338 0.144676 0.144676 0.144676 0.072338 0.144676 0.144676 0.289352 0.289352 0.289352 0.0723381 0.144676 0.144676 0.144676 0.0723381 0.144676 0.144676 0.289352 0.289352 0.289352 0.072338 0.144676 0.144676 0.144676 0.072338 0.144676 0.144676 0.289352 0.289352 0.289352 0.0723381 0.144676 0.144676 0.144676 0.0723381 0.144676 0.144676 0.289352 0.289352 0.289352 0.0723382 0.144676 0.144676 0.144676 0.0723382 0.144676 0.144676 0.289352 0.289352 0.289352 0.072338 0.144676 0.144676 0.144676 0.072338 0.144676 0.144676 0.289352 0.289352 0.289351 0.0723379 0.144676 0.144676 0.144676 0.0723379 0.144676 0.144676 0.289352 0.289352 0.289352 0.0723381 0.144676 0.144676 0.144676 0.0723381 0.144676 0.144676 0.289352 0.289352 0.289352 0.072338 0.144676 0.144676 0.144676 0.072338 0.0723381 0.144676 0.144676 0.144676 0.289352 0.0723381 0.0723381 0.144676 0.144676 0.0723381 0.289352 0.144676 0.289352 0.289352 0.144676 0.144676 0.144676 0.0723381 0.144676 0.0723381 0.289352 0.289352 0.289352 0.144676 0.144676 0.144676 0.0723381 0.289352 0.289352 0.289352 0.144676 0.144676 0.144676 0.0723381 0.289352 0.289352 0.289352 0.144676 0.144676 0.144676 0.0723381 0.289352 0.289352 0.289352 0.144676 0.144676 0.144676 0.0723381 0.289352 0.289352 0.289352 0.144676 0.144676 0.144676 0.0723381 0.289352 0.289352 0.289352 0.144676 0.144676 0.144676 0.0723381 0.289352 0.289352 0.289352 0.144676 0.144676 0.144676 0.0723381 0.289352 0.289352 0.289352 0.144676 0.144676 0.144676 0.0723381 0.289352 0.289352 0.289352 0.144676 0.144676 0.144676 0.0723381 0.289352 0.289352 0.289352 0.144676 0.144676 0.144676 0.072338 0.289352 0.289352 0.289352 0.144676 0.144676 0.144676 0.0723381 0.289352 0.289352 0.289352 0.144676 0.144676 0.144676 0.0723381 0.289352 0.289352 0.289352 0.144676 0.144676 0.144676 0.0723381 0.289352 0.289352 0.289352 0.144676 0.144676 0.144676 0.072338 0.289352 0.289352 0.289352 0.144676 0.144676 0.144676 0.0723381 0.289352 0.289352 0.289352 0.144676 0.144676 0.144676 0.0723381 0.289352 0.289352 0.289352 0.144676 0.144676 0.144676 0.072338 0.289352 0.289352 0.289352 0.144676 0.144676 0.144676 0.072338 0.289352 0.289352 0.289352 0.144676 0.144676 0.144676 0.072338 0.289352 0.289352 0.289352 0.144676 0.144676 0.144676 0.0723381 0.289352 0.289352 0.289352 0.144676 0.144676 0.144676 0.072338 0.289352 0.289352 0.289352 0.144676 0.144676 0.144676 0.072338 0.289352 0.289352 0.289352 0.144676 0.144676 0.144676 0.0723381 0.289352 0.289352 0.289352 0.144676 0.144676 0.144676 0.072338 0.289352 0.289352 0.289352 0.144676 0.144676 0.144676 0.0723381 0.289352 0.289352 0.289352 0.144676 0.144676 0.144676 0.0723381 0.289352 0.289352 0.289352 0.144676 0.144676 0.144676 0.072338 0.289352 0.289352 0.289351 0.144676 0.144676 0.144676 0.0723379 0.289352 0.289352 0.289352 0.144676 0.144676 0.144676 0.0723381 0.289352 0.289352 0.289352 0.144676 0.144676 0.144676 0.072338 0.144676 0.144676 0.289352 0.0723381 0.144676 0.144676 0.0723381 0.289352 0.144676 0.289352 0.289352 0.144676 0.144676 0.144676 0.0723381 0.144676 0.0723381 0.289352 0.289352 0.289352 0.144676 0.144676 0.144676 0.0723381 0.289352 0.289352 0.289352 0.144676 0.144676 0.144676 0.0723381 0.289352 0.289352 0.289352 0.144676 0.144676 0.144676 0.0723381 0.289352 0.289352 0.289352 0.144676 0.144676 0.144676 0.0723381 0.289352 0.289352 0.289352 0.144676 0.144676 0.144676 0.0723381 0.289352 0.289352 0.289352 0.144676 0.144676 0.144676 0.0723381 0.289352 0.289352 0.289352 0.144676 0.144676 0.144676 0.0723381 0.289352 0.289352 0.289352 0.144676 0.144676 0.144676 0.0723381 0.289352 0.289352 0.289352 0.144676 0.144676 0.144676 0.072338 0.289352 0.289352 0.289352 0.144676 0.144676 0.144676 0.072338 0.289352 0.289352 0.289352 0.144676 0.144676 0.144676 0.0723381 0.289352 0.289352 0.289352 0.144676 0.144676 0.144676 0.0723381 0.289352 0.289352 0.289352 0.144676 0.144676 0.144676 0.0723381 0.289352 0.289352 0.289352 0.144676 0.144676 0.144676 0.072338 0.289352 0.289352 0.289352 0.144676 0.144676 0.144676 0.0723381 0.289352 0.289352 0.289352 0.144676 0.144676 0.144676 0.0723381 0.289352 0.289352 0.289352 0.144676 0.144676 0.144676 0.072338 0.289352 0.289352 0.289352 0.144676 0.144676 0.144676 0.072338 0.289352 0.289352 0.289352 0.144676 0.144676 0.144676 0.072338 0.289352 0.289352 0.289352 0.144676 0.144676 0.144676 0.0723381 0.289352 0.289352 0.289352 0.144676 0.144676 0.144676 0.0723381 0.289352 0.289352 0.289352 0.144676 0.144676 0.144676 0.072338 0.289352 0.289352 0.289352 0.144676 0.144676 0.144676 0.0723381 0.289352 0.289352 0.289352 0.144676 0.144676 0.144676 0.072338 0.289352 0.289352 0.289352 0.144676 0.144676 0.144676 0.0723381 0.289352 0.289352 0.289352 0.144676 0.144676 0.144676 0.0723382 0.289352 0.289352 0.289352 0.144676 0.144676 0.144676 0.072338 0.289352 0.289352 0.289351 0.144676 0.144676 0.144676 0.0723379 0.289352 0.289352 0.289352 0.144676 0.144676 0.144676 0.0723381 0.289352 0.289352 0.289352 0.144676 0.144676 0.144676 0.072338 0.144676 0.144676 0.289352 0.0723381 0.144676 0.144676 0.0723381 0.289352 0.144676 0.289352 0.289352 0.144676 0.144676 0.144676 0.0723381 0.144676 0.0723381 0.289352 0.289352 0.289352 0.144676 0.144676 0.144676 0.0723381 0.289352 0.289352 0.289352 0.144676 0.144676 0.144676 0.0723381 0.289352 0.289352 0.289352 0.144676 0.144676 0.144676 0.072338 0.289352 0.289352 0.289352 0.144676 0.144676 0.144676 0.072338 0.289352 0.289352 0.289352 0.144676 0.144676 0.144676 0.0723381 0.289352 0.289352 0.289352 0.144676 0.144676 0.144676 0.0723381 0.289352 0.289352 0.289352 0.144676 0.144676 0.144676 0.072338 0.289352 0.289352 0.289352 0.144676 0.144676 0.144676 0.0723381 0.289352 0.289352 0.289352 0.144676 0.144676 0.144676 0.072338 0.289352 0.289352 0.289352 0.144676 0.144676 0.144676 0.072338 0.289352 0.289352 0.289352 0.144676 0.144676 0.144676 0.0723381 0.289352 0.289352 0.289352 0.144676 0.144676 0.144676 0.0723381 0.289352 0.289352 0.289352 0.144676 0.144676 0.144676 0.0723381 0.289352 0.289352 0.289352 0.144676 0.144676 0.144676 0.072338 0.289352 0.289352 0.289352 0.144676 0.144676 0.144676 0.0723381 0.289352 0.289352 0.289352 0.144676 0.144676 0.144676 0.0723381 0.289352 0.289352 0.289352 0.144676 0.144676 0.144676 0.072338 0.289352 0.289352 0.289352 0.144676 0.144676 0.144676 0.072338 0.289352 0.289352 0.289352 0.144676 0.144676 0.144676 0.072338 0.289352 0.289352 0.289352 0.144676 0.144676 0.144676 0.0723381 0.289352 0.289352 0.289352 0.144676 0.144676 0.144676 0.072338 0.289352 0.289352 0.289352 0.144676 0.144676 0.144676 0.072338 0.289352 0.289352 0.289352 0.144676 0.144676 0.144676 0.0723381 0.289352 0.289352 0.289352 0.144676 0.144676 0.144676 0.072338 0.289352 0.289352 0.289352 0.144676 0.144676 0.144676 0.072338 0.289352 0.289352 0.289352 0.144676 0.144676 0.144676 0.0723381 0.289352 0.289352 0.289352 0.144676 0.144676 0.144676 0.072338 0.289352 0.289352 0.289351 0.144676 0.144676 0.144676 0.0723379 0.289352 0.289352 0.289352 0.144676 0.144676 0.144676 0.0723381 0.289352 0.289352 0.289352 0.144676 0.144676 0.144676 0.072338 0.144676 0.144676 0.289352 0.0723381 0.144676 0.144676 0.0723381 0.289352 0.144676 0.289352 0.289352 0.144676 0.144676 0.144676 0.0723381 0.144676 0.0723381 0.289352 0.289352 0.289352 0.144676 0.144676 0.144676 0.0723381 0.289352 0.289352 0.289352 0.144676 0.144676 0.144676 0.0723381 0.289352 0.289352 0.289352 0.144676 0.144676 0.144676 0.072338 0.289352 0.289352 0.289352 0.144676 0.144676 0.144676 0.0723381 0.289352 0.289352 0.289352 0.144676 0.144676 0.144676 0.0723381 0.289352 0.289352 0.289352 0.144676 0.144676 0.144676 0.0723381 0.289352 0.289352 0.289352 0.144676 0.144676 0.144676 0.0723381 0.289352 0.289352 0.289352 0.144676 0.144676 0.144676 0.0723381 0.289352 0.289352 0.289352 0.144676 0.144676 0.144676 0.072338 0.289352 0.289352 0.289352 0.144676 0.144676 0.144676 0.072338 0.289352 0.289352 0.289352 0.144676 0.144676 0.144676 0.0723381 0.289352 0.289352 0.289352 0.144676 0.144676 0.144676 0.0723381 0.289352 0.289352 0.289352 0.144676 0.144676 0.144676 0.0723381 0.289352 0.289352 0.289352 0.144676 0.144676 0.144676 0.072338 0.289352 0.289352 0.289352 0.144676 0.144676 0.144676 0.0723381 0.289352 0.289352 0.289352 0.144676 0.144676 0.144676 0.0723381 0.289352 0.289352 0.289352 0.144676 0.144676 0.144676 0.072338 0.289352 0.289352 0.289352 0.144676 0.144676 0.144676 0.072338 0.289352 0.289352 0.289352 0.144676 0.144676 0.144676 0.072338 0.289352 0.289352 0.289352 0.144676 0.144676 0.144676 0.0723381 0.289352 0.289352 0.289352 0.144676 0.144676 0.144676 0.072338 0.289352 0.289352 0.289352 0.144676 0.144676 0.144676 0.072338 0.289352 0.289352 0.289352 0.144676 0.144676 0.144676 0.0723381 0.289352 0.289352 0.289352 0.144676 0.144676 0.144676 0.072338 0.289352 0.289352 0.289352 0.144676 0.144676 0.144676 0.0723381 0.289352 0.289352 0.289352 0.144676 0.144676 0.144676 0.0723381 0.289352 0.289352 0.289352 0.144676 0.144676 0.144676 0.072338 0.289352 0.289352 0.289351 0.144676 0.144676 0.144676 0.0723379 0.289352 0.289352 0.289352 0.144676 0.144676 0.144676 0.0723381 0.289352 0.289352 0.289352 0.144676 0.144676 0.144676 0.072338 0.144676 0.144676 0.289352 0.0723381 0.144676 0.144676 0.0723381 0.289352 0.144676 0.289352 0.289352 0.144676 0.144676 0.144676 0.0723381 0.144676 0.0723381 0.289352 0.289352 0.289352 0.144676 0.144676 0.144676 0.0723381 0.289352 0.289352 0.289352 0.144676 0.144676 0.144676 0.0723381 0.289352 0.289352 0.289352 0.144676 0.144676 0.144676 0.0723381 0.289352 0.289352 0.289352 0.144676 0.144676 0.144676 0.0723381 0.289352 0.289352 0.289352 0.144676 0.144676 0.144676 0.0723381 0.289352 0.289352 0.289352 0.144676 0.144676 0.144676 0.0723381 0.289352 0.289352 0.289352 0.144676 0.144676 0.144676 0.0723381 0.289352 0.289352 0.289352 0.144676 0.144676 0.144676 0.0723381 0.289352 0.289352 0.289352 0.144676 0.144676 0.144676 0.072338 0.289352 0.289352 0.289352 0.144676 0.144676 0.144676 0.072338 0.289352 0.289352 0.289352 0.144676 0.144676 0.144676 0.0723381 0.289352 0.289352 0.289352 0.144676 0.144676 0.144676 0.0723381 0.289352 0.289352 0.289352 0.144676 0.144676 0.144676 0.0723381 0.289352 0.289352 0.289352 0.144676 0.144676 0.144676 0.072338 0.289352 0.289352 0.289352 0.144676 0.144676 0.144676 0.0723381 0.289352 0.289352 0.289352 0.144676 0.144676 0.144676 0.0723381 0.289352 0.289352 0.289352 0.144676 0.144676 0.144676 0.072338 0.289352 0.289352 0.289352 0.144676 0.144676 0.144676 0.072338 0.289352 0.289352 0.289352 0.144676 0.144676 0.144676 0.072338 0.289352 0.289352 0.289352 0.144676 0.144676 0.144676 0.0723381 0.289352 0.289352 0.289352 0.144676 0.144676 0.144676 0.0723381 0.289352 0.289352 0.289352 0.144676 0.144676 0.144676 0.072338 0.289352 0.289352 0.289352 0.144676 0.144676 0.144676 0.0723381 0.289352 0.289352 0.289352 0.144676 0.144676 0.144676 0.072338 0.289352 0.289352 0.289352 0.144676 0.144676 0.144676 0.0723381 0.289352 0.289352 0.289352 0.144676 0.144676 0.144676 0.0723382 0.289352 0.289352 0.289352 0.144676 0.144676 0.144676 0.072338 0.289352 0.289352 0.289351 0.144676 0.144676 0.144676 0.0723379 0.289352 0.289352 0.289352 0.144676 0.144676 0.144676 0.0723381 0.289352 0.289352 0.289352 0.144676 0.144676 0.144676 0.072338 0.144676 0.144676 0.289352 0.0723381 0.144676 0.144676 0.0723381 0.289352 0.144676 0.289352 0.289352 0.144676 0.144676 0.144676 0.0723381 0.144676 0.0723381 0.289352 0.289352 0.289352 0.144676 0.144676 0.144676 0.0723381 0.289352 0.289352 0.289352 0.144676 0.144676 0.144676 0.0723381 0.289352 0.289352 0.289352 0.144676 0.144676 0.144676 0.0723381 0.289352 0.289352 0.289352 0.144676 0.144676 0.144676 0.0723381 0.289352 0.289352 0.289352 0.144676 0.144676 0.144676 0.0723381 0.289352 0.289352 0.289352 0.144676 0.144676 0.144676 0.0723381 0.289352 0.289352 0.289352 0.144676 0.144676 0.144676 0.0723381 0.289352 0.289352 0.289352 0.144676 0.144676 0.144676 0.0723381 0.289352 0.289352 0.289352 0.144676 0.144676 0.144676 0.072338 0.289352 0.289352 0.289352 0.144676 0.144676 0.144676 0.0723381 0.289352 0.289352 0.289352 0.144676 0.144676 0.144676 0.0723381 0.289352 0.289352 0.289352 0.144676 0.144676 0.144676 0.0723381 0.289352 0.289352 0.289352 0.144676 0.144676 0.144676 0.0723381 0.289352 0.289352 0.289352 0.144676 0.144676 0.144676 0.072338 0.289352 0.289352 0.289352 0.144676 0.144676 0.144676 0.0723381 0.289352 0.289352 0.289352 0.144676 0.144676 0.144676 0.0723381 0.289352 0.289352 0.289352 0.144676 0.144676 0.144676 0.0723381 0.289352 0.289352 0.289352 0.144676 0.144676 0.144676 0.072338 0.289352 0.289352 0.289352 0.144676 0.144676 0.144676 0.072338 0.289352 0.289352 0.289352 0.144676 0.144676 0.144676 0.0723381 0.289352 0.289352 0.289352 0.144676 0.144676 0.144676 0.0723381 0.289352 0.289352 0.289352 0.144676 0.144676 0.144676 0.072338 0.289352 0.289352 0.289352 0.144676 0.144676 0.144676 0.0723381 0.289352 0.289352 0.289352 0.144676 0.144676 0.144676 0.072338 0.289352 0.289352 0.289352 0.144676 0.144676 0.144676 0.072338 0.289352 0.289352 0.289352 0.144676 0.144676 0.144676 0.0723382 0.289352 0.289352 0.289352 0.144676 0.144676 0.144676 0.072338 0.289352 0.289352 0.289351 0.144676 0.144676 0.144676 0.0723379 0.289352 0.289352 0.289352 0.144676 0.144676 0.144676 0.0723381 0.289352 0.289352 0.289352 0.144676 0.144676 0.144676 0.072338 0.144676 0.144676 0.289352 0.0723381 0.144676 0.144676 0.0723381 0.289352 0.144676 0.144676 0.144676 0.0723381 0.144676 0.144676 0.0723381 0.0723381 0.0723381 0.289352 0.144676 0.144676 0.144676 0.144676 0.0723381 0.0723381 0.289352 0.144676 0.144676 0.144676 0.144676 0.0723381 0.0723381 0.289352 0.144676 0.144676 0.144676 0.144676 0.072338 0.072338 0.289352 0.144676 0.144676 0.144676 0.144676 0.072338 0.072338 0.289352 0.144676 0.144676 0.144676 0.144676 0.0723381 0.0723381 0.289352 0.144676 0.144676 0.144676 0.144676 0.0723381 0.0723381 0.289352 0.144676 0.144676 0.144676 0.144676 0.072338 0.072338 0.289352 0.144676 0.144676 0.144676 0.144676 0.0723381 0.0723381 0.289352 0.144676 0.144676 0.144676 0.144676 0.072338 0.072338 0.289352 0.144676 0.144676 0.144676 0.144676 0.072338 0.072338 0.289352 0.144676 0.144676 0.144676 0.144676 0.0723381 0.0723381 0.289352 0.144676 0.144676 0.144676 0.144676 0.0723381 0.0723381 0.289352 0.144676 0.144676 0.144676 0.144676 0.0723381 0.0723381 0.289352 0.144676 0.144676 0.144676 0.144676 0.072338 0.072338 0.289352 0.144676 0.144676 0.144676 0.144676 0.0723381 0.0723381 0.289352 0.144676 0.144676 0.144676 0.144676 0.0723381 0.0723381 0.289352 0.144676 0.144676 0.144676 0.144676 0.072338 0.072338 0.289352 0.144676 0.144676 0.144676 0.144676 0.072338 0.072338 0.289352 0.144676 0.144676 0.144676 0.144676 0.072338 0.072338 0.289352 0.144676 0.144676 0.144676 0.144676 0.0723381 0.0723381 0.289352 0.144676 0.144676 0.144676 0.144676 0.072338 0.072338 0.289352 0.144676 0.144676 0.144676 0.144676 0.072338 0.072338 0.289352 0.144676 0.144676 0.144676 0.144676 0.0723381 0.0723381 0.289352 0.144676 0.144676 0.144676 0.144676 0.072338 0.072338 0.289352 0.144676 0.144676 0.144676 0.144676 0.072338 0.072338 0.289352 0.144676 0.144676 0.144676 0.144676 0.0723381 0.0723381 0.289352 0.144676 0.144676 0.144676 0.144676 0.072338 0.072338 0.289352 0.144676 0.144676 0.144676 0.144676 0.0723379 0.0723379 0.289352 0.144676 0.144676 0.144676 0.144676 0.0723381 0.0723381 0.289352 0.144676 0.144676 0.144676 0.144676 0.072338 0.072338 0.144676 0.0723381 0.144676 0.0723381 0.144676 0.0723381 0.0723381 0.144676 0.144676 0.0723379 0.289352 0.144676 0.289352 0.289352 0.144676 0.0723379 0.144676 0.144676 0.0723379 0.144676 0.0723379 0.144676 0.144676 0.289352 0.289352 0.289352 0.0723379 0.144676 0.144676 0.144676 0.0723379 0.144676 0.144676 0.289352 0.289352 0.289352 0.0723379 0.144676 0.144676 0.144676 0.0723379 0.144676 0.144676 0.289352 0.289352 0.289352 0.0723379 0.144676 0.144676 0.144676 0.0723379 0.144676 0.144676 0.289352 0.289352 0.289352 0.0723379 0.144676 0.144676 0.144676 0.0723379 0.144676 0.144676 0.289352 0.289352 0.289352 0.0723379 0.144676 0.144676 0.144676 0.0723379 0.144676 0.144676 0.289352 0.289352 0.289352 0.0723379 0.144676 0.144676 0.144676 0.0723379 0.144676 0.144676 0.289352 0.289352 0.289352 0.0723379 0.144676 0.144676 0.144676 0.0723379 0.144676 0.144676 0.289352 0.289352 0.289352 0.0723379 0.144676 0.144676 0.144676 0.0723379 0.144676 0.144676 0.289352 0.289352 0.289352 0.0723379 0.144676 0.144676 0.144676 0.0723379 0.144676 0.144676 0.289352 0.289352 0.289352 0.0723379 0.144676 0.144676 0.144676 0.0723379 0.144676 0.144676 0.289352 0.289352 0.289352 0.0723379 0.144676 0.144676 0.144676 0.0723379 0.144676 0.144676 0.289352 0.289352 0.289352 0.0723379 0.144676 0.144676 0.144676 0.0723379 0.144676 0.144676 0.289352 0.289352 0.289352 0.072338 0.144676 0.144676 0.144676 0.072338 0.144676 0.144676 0.289352 0.289352 0.289352 0.0723379 0.144676 0.144676 0.144676 0.0723379 0.144676 0.144676 0.289352 0.289352 0.289352 0.0723379 0.144676 0.144676 0.144676 0.0723379 0.144676 0.144676 0.289352 0.289352 0.289352 0.0723379 0.144676 0.144676 0.144676 0.0723379 0.144676 0.144676 0.289352 0.289352 0.289352 0.0723379 0.144676 0.144676 0.144676 0.0723379 0.144676 0.144676 0.289352 0.289352 0.289352 0.0723379 0.144676 0.144676 0.144676 0.0723379 0.144676 0.144676 0.289352 0.289352 0.289352 0.0723379 0.144676 0.144676 0.144676 0.0723379 0.144676 0.144676 0.289352 0.289352 0.289352 0.0723379 0.144676 0.144676 0.144676 0.0723379 0.144676 0.144676 0.289352 0.289352 0.289352 0.0723379 0.144676 0.144676 0.144676 0.0723379 0.144676 0.144676 0.289352 0.289352 0.289352 0.0723379 0.144676 0.144676 0.144676 0.0723379 0.144676 0.144676 0.289352 0.289352 0.289352 0.072338 0.144676 0.144676 0.144676 0.072338 0.144676 0.144676 0.289352 0.289352 0.289352 0.0723379 0.144676 0.144676 0.144676 0.0723379 0.144676 0.144676 0.289352 0.289352 0.289352 0.0723379 0.144676 0.144676 0.144676 0.0723379 0.144676 0.144676 0.289352 0.289352 0.289352 0.072338 0.144676 0.144676 0.144676 0.072338 0.144676 0.144676 0.289351 0.289351 0.289352 0.0723379 0.144676 0.144676 0.144676 0.0723379 0.144676 0.144676 0.289352 0.289352 0.289351 0.0723378 0.144676 0.144676 0.144676 0.0723378 0.144676 0.144676 0.289352 0.289352 0.289352 0.0723379 0.144676 0.144676 0.144676 0.0723379 0.144676 0.144676 0.289352 0.289352 0.289352 0.0723379 0.144676 0.144676 0.144676 0.0723379 0.072338 0.144676 0.144676 0.144676 0.289352 0.072338 0.072338 0.144676 0.144676 0.072338 0.289352 0.144676 0.289352 0.289352 0.144676 0.144676 0.144676 0.0723379 0.144676 0.0723379 0.289352 0.289352 0.289352 0.144676 0.144676 0.144676 0.0723379 0.289352 0.289352 0.289352 0.144676 0.144676 0.144676 0.0723379 0.289352 0.289352 0.289352 0.144676 0.144676 0.144676 0.0723379 0.289352 0.289352 0.289352 0.144676 0.144676 0.144676 0.0723379 0.289352 0.289352 0.289352 0.144676 0.144676 0.144676 0.0723379 0.289352 0.289352 0.289352 0.144676 0.144676 0.144676 0.0723379 0.289352 0.289352 0.289352 0.144676 0.144676 0.144676 0.0723379 0.289352 0.289352 0.289352 0.144676 0.144676 0.144676 0.0723379 0.289352 0.289352 0.289352 0.144676 0.144676 0.144676 0.0723379 0.289352 0.289352 0.289352 0.144676 0.144676 0.144676 0.0723379 0.289352 0.289352 0.289352 0.144676 0.144676 0.144676 0.0723379 0.289352 0.289352 0.289352 0.144676 0.144676 0.144676 0.0723379 0.289352 0.289352 0.289352 0.144676 0.144676 0.144676 0.072338 0.289352 0.289352 0.289352 0.144676 0.144676 0.144676 0.0723379 0.289352 0.289352 0.289352 0.144676 0.144676 0.144676 0.0723379 0.289352 0.289352 0.289352 0.144676 0.144676 0.144676 0.0723379 0.289352 0.289352 0.289352 0.144676 0.144676 0.144676 0.0723379 0.289352 0.289352 0.289352 0.144676 0.144676 0.144676 0.0723379 0.289352 0.289352 0.289352 0.144676 0.144676 0.144676 0.0723379 0.289352 0.289352 0.289352 0.144676 0.144676 0.144676 0.0723379 0.289352 0.289352 0.289352 0.144676 0.144676 0.144676 0.0723379 0.289352 0.289352 0.289352 0.144676 0.144676 0.144676 0.0723379 0.289352 0.289352 0.289352 0.144676 0.144676 0.144676 0.072338 0.289352 0.289352 0.289352 0.144676 0.144676 0.144676 0.0723379 0.289352 0.289352 0.289352 0.144676 0.144676 0.144676 0.0723379 0.289352 0.289352 0.289352 0.144676 0.144676 0.144676 0.072338 0.289351 0.289351 0.289352 0.144676 0.144676 0.144676 0.0723379 0.289352 0.289351 0.289351 0.144676 0.144676 0.144676 0.0723378 0.289352 0.289352 0.289352 0.144676 0.144676 0.144676 0.0723379 0.289352 0.289352 0.289352 0.144676 0.144676 0.144676 0.0723379 0.144676 0.144676 0.289352 0.072338 0.144676 0.144676 0.072338 0.289352 0.144676 0.289352 0.289352 0.144676 0.144676 0.144676 0.0723379 0.144676 0.0723379 0.289352 0.289352 0.289352 0.144676 0.144676 0.144676 0.0723379 0.289352 0.289352 0.289352 0.144676 0.144676 0.144676 0.072338 0.289352 0.289352 0.289352 0.144676 0.144676 0.144676 0.0723379 0.289352 0.289352 0.289352 0.144676 0.144676 0.144676 0.0723379 0.289352 0.289352 0.289352 0.144676 0.144676 0.144676 0.0723379 0.289352 0.289352 0.289352 0.144676 0.144676 0.144676 0.0723379 0.289352 0.289352 0.289352 0.144676 0.144676 0.144676 0.0723379 0.289352 0.289352 0.289352 0.144676 0.144676 0.144676 0.0723379 0.289352 0.289352 0.289352 0.144676 0.144676 0.144676 0.0723379 0.289352 0.289352 0.289352 0.144676 0.144676 0.144676 0.0723379 0.289352 0.289352 0.289352 0.144676 0.144676 0.144676 0.0723379 0.289352 0.289352 0.289352 0.144676 0.144676 0.144676 0.0723379 0.289352 0.289352 0.289352 0.144676 0.144676 0.144676 0.072338 0.289352 0.289352 0.289352 0.144676 0.144676 0.144676 0.0723379 0.289352 0.289352 0.289352 0.144676 0.144676 0.144676 0.072338 0.289352 0.289352 0.289352 0.144676 0.144676 0.144676 0.0723379 0.289352 0.289352 0.289352 0.144676 0.144676 0.144676 0.0723379 0.289352 0.289352 0.289352 0.144676 0.144676 0.144676 0.0723379 0.289352 0.289352 0.289352 0.144676 0.144676 0.144676 0.0723379 0.289352 0.289352 0.289352 0.144676 0.144676 0.144676 0.072338 0.289352 0.289352 0.289352 0.144676 0.144676 0.144676 0.0723379 0.289352 0.289352 0.289352 0.144676 0.144676 0.144676 0.0723379 0.289352 0.289352 0.289352 0.144676 0.144676 0.144676 0.072338 0.289352 0.289352 0.289352 0.144676 0.144676 0.144676 0.0723379 0.289352 0.289352 0.289352 0.144676 0.144676 0.144676 0.0723379 0.289352 0.289352 0.289352 0.144676 0.144676 0.144676 0.072338 0.289351 0.289351 0.289352 0.144676 0.144676 0.144676 0.0723379 0.289352 0.289351 0.289351 0.144676 0.144676 0.144676 0.0723378 0.289352 0.289352 0.289352 0.144676 0.144676 0.144676 0.0723379 0.289352 0.289352 0.289352 0.144676 0.144676 0.144676 0.0723379 0.144676 0.144676 0.289352 0.072338 0.144676 0.144676 0.072338 0.289352 0.144676 0.289352 0.289352 0.144676 0.144676 0.144676 0.0723379 0.144676 0.0723379 0.289352 0.289352 0.289352 0.144676 0.144676 0.144676 0.0723379 0.289352 0.289352 0.289352 0.144676 0.144676 0.144676 0.0723379 0.289352 0.289352 0.289352 0.144676 0.144676 0.144676 0.0723379 0.289352 0.289352 0.289352 0.144676 0.144676 0.144676 0.0723379 0.289352 0.289352 0.289352 0.144676 0.144676 0.144676 0.0723379 0.289352 0.289352 0.289352 0.144676 0.144676 0.144676 0.0723379 0.289352 0.289352 0.289352 0.144676 0.144676 0.144676 0.0723379 0.289352 0.289352 0.289352 0.144676 0.144676 0.144676 0.0723379 0.289352 0.289352 0.289352 0.144676 0.144676 0.144676 0.0723379 0.289352 0.289352 0.289352 0.144676 0.144676 0.144676 0.0723379 0.289352 0.289352 0.289352 0.144676 0.144676 0.144676 0.0723379 0.289352 0.289352 0.289352 0.144676 0.144676 0.144676 0.0723379 0.289352 0.289352 0.289352 0.144676 0.144676 0.144676 0.0723379 0.289352 0.289352 0.289352 0.144676 0.144676 0.144676 0.0723379 0.289352 0.289352 0.289352 0.144676 0.144676 0.144676 0.0723379 0.289352 0.289352 0.289352 0.144676 0.144676 0.144676 0.0723379 0.289352 0.289352 0.289352 0.144676 0.144676 0.144676 0.0723379 0.289352 0.289352 0.289352 0.144676 0.144676 0.144676 0.0723379 0.289352 0.289352 0.289352 0.144676 0.144676 0.144676 0.0723379 0.289352 0.289352 0.289352 0.144676 0.144676 0.144676 0.0723379 0.289352 0.289352 0.289352 0.144676 0.144676 0.144676 0.0723379 0.289352 0.289352 0.289352 0.144676 0.144676 0.144676 0.0723379 0.289352 0.289352 0.289352 0.144676 0.144676 0.144676 0.0723379 0.289352 0.289352 0.289352 0.144676 0.144676 0.144676 0.0723379 0.289352 0.289352 0.289352 0.144676 0.144676 0.144676 0.0723379 0.289352 0.289352 0.289352 0.144676 0.144676 0.144676 0.072338 0.289351 0.289351 0.289352 0.144676 0.144676 0.144676 0.0723379 0.289352 0.289351 0.289351 0.144676 0.144676 0.144676 0.0723378 0.289352 0.289352 0.289352 0.144676 0.144676 0.144676 0.0723379 0.289352 0.289352 0.289352 0.144676 0.144676 0.144676 0.0723379 0.144676 0.144676 0.289352 0.072338 0.144676 0.144676 0.072338 0.289352 0.144676 0.289352 0.289352 0.144676 0.144676 0.144676 0.0723379 0.144676 0.0723379 0.289352 0.289352 0.289352 0.144676 0.144676 0.144676 0.0723379 0.289352 0.289352 0.289352 0.144676 0.144676 0.144676 0.0723379 0.289352 0.289352 0.289352 0.144676 0.144676 0.144676 0.0723379 0.289352 0.289352 0.289352 0.144676 0.144676 0.144676 0.0723379 0.289352 0.289352 0.289352 0.144676 0.144676 0.144676 0.0723379 0.289352 0.289352 0.289352 0.144676 0.144676 0.144676 0.0723379 0.289352 0.289352 0.289352 0.144676 0.144676 0.144676 0.0723379 0.289352 0.289352 0.289352 0.144676 0.144676 0.144676 0.0723379 0.289352 0.289352 0.289352 0.144676 0.144676 0.144676 0.0723379 0.289352 0.289352 0.289352 0.144676 0.144676 0.144676 0.0723379 0.289352 0.289352 0.289352 0.144676 0.144676 0.144676 0.0723379 0.289352 0.289352 0.289352 0.144676 0.144676 0.144676 0.0723379 0.289352 0.289352 0.289352 0.144676 0.144676 0.144676 0.0723379 0.289352 0.289352 0.289352 0.144676 0.144676 0.144676 0.0723379 0.289352 0.289352 0.289352 0.144676 0.144676 0.144676 0.0723379 0.289352 0.289352 0.289352 0.144676 0.144676 0.144676 0.0723379 0.289352 0.289352 0.289352 0.144676 0.144676 0.144676 0.0723379 0.289352 0.289352 0.289352 0.144676 0.144676 0.144676 0.0723379 0.289352 0.289352 0.289352 0.144676 0.144676 0.144676 0.0723379 0.289352 0.289352 0.289352 0.144676 0.144676 0.144676 0.0723379 0.289352 0.289352 0.289352 0.144676 0.144676 0.144676 0.0723379 0.289352 0.289352 0.289352 0.144676 0.144676 0.144676 0.0723379 0.289352 0.289352 0.289352 0.144676 0.144676 0.144676 0.0723379 0.289352 0.289352 0.289352 0.144676 0.144676 0.144676 0.0723379 0.289352 0.289352 0.289352 0.144676 0.144676 0.144676 0.0723379 0.289352 0.289352 0.289352 0.144676 0.144676 0.144676 0.072338 0.289351 0.289351 0.289352 0.144676 0.144676 0.144676 0.0723379 0.289352 0.289351 0.289351 0.144676 0.144676 0.144676 0.0723378 0.289352 0.289352 0.289352 0.144676 0.144676 0.144676 0.0723379 0.289352 0.289352 0.289352 0.144676 0.144676 0.144676 0.0723379 0.144676 0.144676 0.289352 0.072338 0.144676 0.144676 0.072338 0.289352 0.144676 0.289352 0.289352 0.144676 0.144676 0.144676 0.0723379 0.144676 0.0723379 0.289352 0.289352 0.289352 0.144676 0.144676 0.144676 0.0723379 0.289352 0.289352 0.289352 0.144676 0.144676 0.144676 0.0723379 0.289352 0.289352 0.289352 0.144676 0.144676 0.144676 0.0723379 0.289352 0.289352 0.289352 0.144676 0.144676 0.144676 0.0723379 0.289352 0.289352 0.289352 0.144676 0.144676 0.144676 0.0723379 0.289352 0.289352 0.289352 0.144676 0.144676 0.144676 0.0723379 0.289352 0.289352 0.289352 0.144676 0.144676 0.144676 0.0723379 0.289352 0.289352 0.289352 0.144676 0.144676 0.144676 0.0723379 0.289352 0.289352 0.289352 0.144676 0.144676 0.144676 0.0723379 0.289352 0.289352 0.289352 0.144676 0.144676 0.144676 0.0723379 0.289352 0.289352 0.289352 0.144676 0.144676 0.144676 0.0723379 0.289352 0.289352 0.289352 0.144676 0.144676 0.144676 0.0723379 0.289352 0.289352 0.289352 0.144676 0.144676 0.144676 0.072338 0.289352 0.289352 0.289352 0.144676 0.144676 0.144676 0.0723379 0.289352 0.289352 0.289352 0.144676 0.144676 0.144676 0.0723379 0.289352 0.289352 0.289352 0.144676 0.144676 0.144676 0.0723379 0.289352 0.289352 0.289352 0.144676 0.144676 0.144676 0.0723379 0.289352 0.289352 0.289352 0.144676 0.144676 0.144676 0.0723379 0.289352 0.289352 0.289352 0.144676 0.144676 0.144676 0.0723379 0.289352 0.289352 0.289352 0.144676 0.144676 0.144676 0.0723379 0.289352 0.289352 0.289352 0.144676 0.144676 0.144676 0.0723379 0.289352 0.289352 0.289352 0.144676 0.144676 0.144676 0.0723379 0.289352 0.289352 0.289352 0.144676 0.144676 0.144676 0.0723379 0.289352 0.289352 0.289352 0.144676 0.144676 0.144676 0.0723379 0.289352 0.289352 0.289352 0.144676 0.144676 0.144676 0.0723379 0.289352 0.289352 0.289352 0.144676 0.144676 0.144676 0.072338 0.289351 0.289351 0.289352 0.144676 0.144676 0.144676 0.0723379 0.289352 0.289351 0.289351 0.144676 0.144676 0.144676 0.0723378 0.289352 0.289352 0.289352 0.144676 0.144676 0.144676 0.0723379 0.289352 0.289352 0.289352 0.144676 0.144676 0.144676 0.0723379 0.144676 0.144676 0.289352 0.072338 0.144676 0.144676 0.072338 0.289352 0.144676 0.289352 0.289352 0.144676 0.144676 0.144676 0.0723379 0.144676 0.0723379 0.289352 0.289352 0.289352 0.144676 0.144676 0.144676 0.0723379 0.289352 0.289352 0.289352 0.144676 0.144676 0.144676 0.0723379 0.289352 0.289352 0.289352 0.144676 0.144676 0.144676 0.0723379 0.289352 0.289352 0.289352 0.144676 0.144676 0.144676 0.0723379 0.289352 0.289352 0.289352 0.144676 0.144676 0.144676 0.0723379 0.289352 0.289352 0.289352 0.144676 0.144676 0.144676 0.0723379 0.289352 0.289352 0.289352 0.144676 0.144676 0.144676 0.0723379 0.289352 0.289352 0.289352 0.144676 0.144676 0.144676 0.0723379 0.289352 0.289352 0.289352 0.144676 0.144676 0.144676 0.0723379 0.289352 0.289352 0.289352 0.144676 0.144676 0.144676 0.0723379 0.289352 0.289352 0.289352 0.144676 0.144676 0.144676 0.0723379 0.289352 0.289352 0.289352 0.144676 0.144676 0.144676 0.0723379 0.289352 0.289352 0.289352 0.144676 0.144676 0.144676 0.072338 0.289352 0.289352 0.289352 0.144676 0.144676 0.144676 0.0723379 0.289352 0.289352 0.289352 0.144676 0.144676 0.144676 0.0723379 0.289352 0.289352 0.289352 0.144676 0.144676 0.144676 0.0723379 0.289352 0.289352 0.289352 0.144676 0.144676 0.144676 0.0723379 0.289352 0.289352 0.289352 0.144676 0.144676 0.144676 0.0723379 0.289352 0.289352 0.289352 0.144676 0.144676 0.144676 0.0723379 0.289352 0.289352 0.289352 0.144676 0.144676 0.144676 0.072338 0.289352 0.289352 0.289352 0.144676 0.144676 0.144676 0.0723379 0.289352 0.289352 0.289352 0.144676 0.144676 0.144676 0.0723379 0.289352 0.289352 0.289352 0.144676 0.144676 0.144676 0.072338 0.289352 0.289352 0.289352 0.144676 0.144676 0.144676 0.0723379 0.289352 0.289352 0.289352 0.144676 0.144676 0.144676 0.0723379 0.289352 0.289352 0.289352 0.144676 0.144676 0.144676 0.072338 0.289351 0.289351 0.289352 0.144676 0.144676 0.144676 0.0723379 0.289352 0.289351 0.289351 0.144676 0.144676 0.144676 0.0723378 0.289352 0.289352 0.289352 0.144676 0.144676 0.144676 0.0723379 0.289352 0.289352 0.289352 0.144676 0.144676 0.144676 0.0723379 0.144676 0.144676 0.289352 0.072338 0.144676 0.144676 0.072338 0.289352 0.144676 0.144676 0.144676 0.0723379 0.144676 0.144676 0.0723379 0.0723379 0.0723379 0.289352 0.144676 0.144676 0.144676 0.144676 0.0723379 0.0723379 0.289352 0.144676 0.144676 0.144676 0.144676 0.0723379 0.0723379 0.289352 0.144676 0.144676 0.144676 0.144676 0.0723379 0.0723379 0.289352 0.144676 0.144676 0.144676 0.144676 0.0723379 0.0723379 0.289352 0.144676 0.144676 0.144676 0.144676 0.0723379 0.0723379 0.289352 0.144676 0.144676 0.144676 0.144676 0.0723379 0.0723379 0.289352 0.144676 0.144676 0.144676 0.144676 0.0723379 0.0723379 0.289352 0.144676 0.144676 0.144676 0.144676 0.0723379 0.0723379 0.289352 0.144676 0.144676 0.144676 0.144676 0.0723379 0.0723379 0.289352 0.144676 0.144676 0.144676 0.144676 0.0723379 0.0723379 0.289352 0.144676 0.144676 0.144676 0.144676 0.0723379 0.0723379 0.289352 0.144676 0.144676 0.144676 0.144676 0.0723379 0.0723379 0.289352 0.144676 0.144676 0.144676 0.144676 0.0723379 0.0723379 0.289352 0.144676 0.144676 0.144676 0.144676 0.0723379 0.0723379 0.289352 0.144676 0.144676 0.144676 0.144676 0.0723379 0.0723379 0.289352 0.144676 0.144676 0.144676 0.144676 0.0723379 0.0723379 0.289352 0.144676 0.144676 0.144676 0.144676 0.0723379 0.0723379 0.289352 0.144676 0.144676 0.144676 0.144676 0.0723379 0.0723379 0.289352 0.144676 0.144676 0.144676 0.144676 0.0723379 0.0723379 0.289352 0.144676 0.144676 0.144676 0.144676 0.0723379 0.0723379 0.289352 0.144676 0.144676 0.144676 0.144676 0.0723379 0.0723379 0.289352 0.144676 0.144676 0.144676 0.144676 0.0723379 0.0723379 0.289352 0.144676 0.144676 0.144676 0.144676 0.0723379 0.0723379 0.289352 0.144676 0.144676 0.144676 0.144676 0.0723379 0.0723379 0.289352 0.144676 0.144676 0.144676 0.144676 0.0723379 0.0723379 0.289352 0.144676 0.144676 0.144676 0.144676 0.072338 0.072338 0.289351 0.144676 0.144676 0.144676 0.144676 0.0723379 0.0723379 0.289352 0.144676 0.144676 0.144676 0.144676 0.0723378 0.0723378 0.289352 0.144676 0.144676 0.144676 0.144676 0.0723379 0.0723379 0.289352 0.144676 0.144676 0.144676 0.144676 0.0723379 0.0723379 0.144676 0.0723379 0.144676 0.0723379 0.144676 0.0723379 0.0723379 0.144676 0.144676 0.072338 0.289352 0.144676 0.289352 0.289352 0.144676 0.072338 0.144676 0.144676 0.072338 0.144676 0.072338 0.144676 0.144676 0.289352 0.289352 0.289352 0.072338 0.144676 0.144676 0.144676 0.072338 0.144676 0.144676 0.289352 0.289352 0.289352 0.072338 0.144676 0.144676 0.144676 0.072338 0.144676 0.144676 0.289352 0.289352 0.289352 0.072338 0.144676 0.144676 0.144676 0.072338 0.144676 0.144676 0.289352 0.289352 0.289352 0.072338 0.144676 0.144676 0.144676 0.072338 0.144676 0.144676 0.289352 0.289352 0.289352 0.072338 0.144676 0.144676 0.144676 0.072338 0.144676 0.144676 0.289352 0.289352 0.289352 0.072338 0.144676 0.144676 0.144676 0.072338 0.144676 0.144676 0.289352 0.289352 0.289352 0.072338 0.144676 0.144676 0.144676 0.072338 0.144676 0.144676 0.289352 0.289352 0.289352 0.072338 0.144676 0.144676 0.144676 0.072338 0.144676 0.144676 0.289352 0.289352 0.289352 0.072338 0.144676 0.144676 0.144676 0.072338 0.144676 0.144676 0.289352 0.289352 0.289352 0.072338 0.144676 0.144676 0.144676 0.072338 0.144676 0.144676 0.289352 0.289352 0.289352 0.072338 0.144676 0.144676 0.144676 0.072338 0.144676 0.144676 0.289352 0.289352 0.289352 0.072338 0.144676 0.144676 0.144676 0.072338 0.144676 0.144676 0.289352 0.289352 0.289352 0.072338 0.144676 0.144676 0.144676 0.072338 0.144676 0.144676 0.289352 0.289352 0.289352 0.0723379 0.144676 0.144676 0.144676 0.0723379 0.144676 0.144676 0.289352 0.289352 0.289352 0.072338 0.144676 0.144676 0.144676 0.072338 0.144676 0.144676 0.289352 0.289352 0.289352 0.072338 0.144676 0.144676 0.144676 0.072338 0.144676 0.144676 0.289352 0.289352 0.289352 0.072338 0.144676 0.144676 0.144676 0.072338 0.144676 0.144676 0.289352 0.289352 0.289352 0.0723379 0.144676 0.144676 0.144676 0.0723379 0.144676 0.144676 0.289352 0.289352 0.289352 0.0723379 0.144676 0.144676 0.144676 0.0723379 0.144676 0.144676 0.289352 0.289352 0.289352 0.072338 0.144676 0.144676 0.144676 0.072338 0.144676 0.144676 0.289352 0.289352 0.289352 0.072338 0.144676 0.144676 0.144676 0.072338 0.144676 0.144676 0.289352 0.289352 0.289352 0.0723379 0.144676 0.144676 0.144676 0.0723379 0.144676 0.144676 0.289352 0.289352 0.289352 0.072338 0.144676 0.144676 0.144676 0.072338 0.144676 0.144676 0.289352 0.289352 0.289352 0.0723379 0.144676 0.144676 0.144676 0.0723379 0.144676 0.144676 0.289352 0.289352 0.289352 0.072338 0.144676 0.144676 0.144676 0.072338 0.144676 0.144676 0.289352 0.289352 0.289352 0.0723381 0.144676 0.144676 0.144676 0.0723381 0.144676 0.144676 0.289352 0.289352 0.289352 0.0723379 0.144676 0.144676 0.144676 0.0723379 0.144676 0.144676 0.289352 0.289352 0.289351 0.0723379 0.144676 0.144676 0.144676 0.0723379 0.144676 0.144676 0.289352 0.289352 0.289352 0.072338 0.144676 0.144676 0.144676 0.072338 0.144676 0.144676 0.289352 0.289352 0.289352 0.0723379 0.144676 0.144676 0.144676 0.0723379 0.072338 0.144676 0.144676 0.144676 0.289352 0.072338 0.072338 0.144676 0.144676 0.072338 0.289352 0.144676 0.289352 0.289352 0.144676 0.144676 0.144676 0.072338 0.144676 0.072338 0.289352 0.289352 0.289352 0.144676 0.144676 0.144676 0.072338 0.289352 0.289352 0.289352 0.144676 0.144676 0.144676 0.072338 0.289352 0.289352 0.289352 0.144676 0.144676 0.144676 0.072338 0.289352 0.289352 0.289352 0.144676 0.144676 0.144676 0.072338 0.289352 0.289352 0.289352 0.144676 0.144676 0.144676 0.072338 0.289352 0.289352 0.289352 0.144676 0.144676 0.144676 0.072338 0.289352 0.289352 0.289352 0.144676 0.144676 0.144676 0.072338 0.289352 0.289352 0.289352 0.144676 0.144676 0.144676 0.072338 0.289352 0.289352 0.289352 0.144676 0.144676 0.144676 0.072338 0.289352 0.289352 0.289352 0.144676 0.144676 0.144676 0.0723379 0.289352 0.289352 0.289352 0.144676 0.144676 0.144676 0.072338 0.289352 0.289352 0.289352 0.144676 0.144676 0.144676 0.072338 0.289352 0.289352 0.289352 0.144676 0.144676 0.144676 0.072338 0.289352 0.289352 0.289352 0.144676 0.144676 0.144676 0.0723379 0.289352 0.289352 0.289352 0.144676 0.144676 0.144676 0.072338 0.289352 0.289352 0.289352 0.144676 0.144676 0.144676 0.072338 0.289352 0.289352 0.289352 0.144676 0.144676 0.144676 0.0723379 0.289352 0.289352 0.289352 0.144676 0.144676 0.144676 0.0723379 0.289352 0.289352 0.289352 0.144676 0.144676 0.144676 0.0723379 0.289352 0.289352 0.289352 0.144676 0.144676 0.144676 0.072338 0.289352 0.289352 0.289352 0.144676 0.144676 0.144676 0.072338 0.289352 0.289352 0.289352 0.144676 0.144676 0.144676 0.0723379 0.289352 0.289352 0.289352 0.144676 0.144676 0.144676 0.072338 0.289352 0.289352 0.289352 0.144676 0.144676 0.144676 0.0723379 0.289352 0.289352 0.289352 0.144676 0.144676 0.144676 0.072338 0.289352 0.289352 0.289352 0.144676 0.144676 0.144676 0.0723381 0.289351 0.289352 0.289352 0.144676 0.144676 0.144676 0.0723379 0.289352 0.289352 0.289351 0.144676 0.144676 0.144676 0.0723378 0.289352 0.289352 0.289352 0.144676 0.144676 0.144676 0.072338 0.289352 0.289352 0.289352 0.144676 0.144676 0.144676 0.0723379 0.144676 0.144676 0.289352 0.072338 0.144676 0.144676 0.072338 0.289352 0.144676 0.289352 0.289352 0.144676 0.144676 0.144676 0.072338 0.144676 0.072338 0.289352 0.289352 0.289352 0.144676 0.144676 0.144676 0.072338 0.289352 0.289352 0.289352 0.144676 0.144676 0.144676 0.072338 0.289352 0.289352 0.289352 0.144676 0.144676 0.144676 0.072338 0.289352 0.289352 0.289352 0.144676 0.144676 0.144676 0.072338 0.289352 0.289352 0.289352 0.144676 0.144676 0.144676 0.072338 0.289352 0.289352 0.289352 0.144676 0.144676 0.144676 0.072338 0.289352 0.289352 0.289352 0.144676 0.144676 0.144676 0.072338 0.289352 0.289352 0.289352 0.144676 0.144676 0.144676 0.072338 0.289352 0.289352 0.289352 0.144676 0.144676 0.144676 0.072338 0.289352 0.289352 0.289352 0.144676 0.144676 0.144676 0.072338 0.289352 0.289352 0.289352 0.144676 0.144676 0.144676 0.072338 0.289352 0.289352 0.289352 0.144676 0.144676 0.144676 0.072338 0.289352 0.289352 0.289352 0.144676 0.144676 0.144676 0.072338 0.289352 0.289352 0.289352 0.144676 0.144676 0.144676 0.0723379 0.289352 0.289352 0.289352 0.144676 0.144676 0.144676 0.072338 0.289352 0.289352 0.289352 0.144676 0.144676 0.144676 0.072338 0.289352 0.289352 0.289352 0.144676 0.144676 0.144676 0.0723379 0.289352 0.289352 0.289352 0.144676 0.144676 0.144676 0.0723379 0.289352 0.289352 0.289352 0.144676 0.144676 0.144676 0.0723379 0.289352 0.289352 0.289352 0.144676 0.144676 0.144676 0.072338 0.289352 0.289352 0.289352 0.144676 0.144676 0.144676 0.072338 0.289352 0.289352 0.289352 0.144676 0.144676 0.144676 0.072338 0.289352 0.289352 0.289352 0.144676 0.144676 0.144676 0.072338 0.289352 0.289352 0.289352 0.144676 0.144676 0.144676 0.0723379 0.289352 0.289352 0.289352 0.144676 0.144676 0.144676 0.072338 0.289352 0.289352 0.289352 0.144676 0.144676 0.144676 0.0723381 0.289352 0.289352 0.289352 0.144676 0.144676 0.144676 0.0723379 0.289352 0.289352 0.289351 0.144676 0.144676 0.144676 0.0723378 0.289352 0.289352 0.289352 0.144676 0.144676 0.144676 0.072338 0.289352 0.289352 0.289352 0.144676 0.144676 0.144676 0.0723379 0.144676 0.144676 0.289352 0.072338 0.144676 0.144676 0.072338 0.289352 0.144676 0.289352 0.289352 0.144676 0.144676 0.144676 0.072338 0.144676 0.072338 0.289352 0.289352 0.289352 0.144676 0.144676 0.144676 0.072338 0.289352 0.289352 0.289352 0.144676 0.144676 0.144676 0.072338 0.289352 0.289352 0.289352 0.144676 0.144676 0.144676 0.072338 0.289352 0.289352 0.289352 0.144676 0.144676 0.144676 0.072338 0.289352 0.289352 0.289352 0.144676 0.144676 0.144676 0.072338 0.289352 0.289352 0.289352 0.144676 0.144676 0.144676 0.072338 0.289352 0.289352 0.289352 0.144676 0.144676 0.144676 0.072338 0.289352 0.289352 0.289352 0.144676 0.144676 0.144676 0.072338 0.289352 0.289352 0.289352 0.144676 0.144676 0.144676 0.0723379 0.289352 0.289352 0.289352 0.144676 0.144676 0.144676 0.0723379 0.289352 0.289352 0.289352 0.144676 0.144676 0.144676 0.072338 0.289352 0.289352 0.289352 0.144676 0.144676 0.144676 0.072338 0.289352 0.289352 0.289352 0.144676 0.144676 0.144676 0.072338 0.289352 0.289352 0.289352 0.144676 0.144676 0.144676 0.0723379 0.289352 0.289352 0.289352 0.144676 0.144676 0.144676 0.072338 0.289352 0.289352 0.289352 0.144676 0.144676 0.144676 0.072338 0.289352 0.289352 0.289352 0.144676 0.144676 0.144676 0.0723379 0.289352 0.289352 0.289352 0.144676 0.144676 0.144676 0.0723379 0.289352 0.289352 0.289352 0.144676 0.144676 0.144676 0.0723379 0.289352 0.289352 0.289352 0.144676 0.144676 0.144676 0.072338 0.289352 0.289352 0.289352 0.144676 0.144676 0.144676 0.072338 0.289352 0.289352 0.289352 0.144676 0.144676 0.144676 0.0723379 0.289352 0.289352 0.289352 0.144676 0.144676 0.144676 0.072338 0.289352 0.289352 0.289352 0.144676 0.144676 0.144676 0.0723379 0.289352 0.289352 0.289352 0.144676 0.144676 0.144676 0.072338 0.289352 0.289352 0.289352 0.144676 0.144676 0.144676 0.0723381 0.289351 0.289352 0.289352 0.144676 0.144676 0.144676 0.0723379 0.289352 0.289352 0.289351 0.144676 0.144676 0.144676 0.0723378 0.289352 0.289352 0.289352 0.144676 0.144676 0.144676 0.072338 0.289352 0.289352 0.289352 0.144676 0.144676 0.144676 0.0723379 0.144676 0.144676 0.289352 0.072338 0.144676 0.144676 0.072338 0.289352 0.144676 0.289352 0.289352 0.144676 0.144676 0.144676 0.072338 0.144676 0.072338 0.289352 0.289352 0.289352 0.144676 0.144676 0.144676 0.072338 0.289352 0.289352 0.289352 0.144676 0.144676 0.144676 0.072338 0.289352 0.289352 0.289352 0.144676 0.144676 0.144676 0.072338 0.289352 0.289352 0.289352 0.144676 0.144676 0.144676 0.072338 0.289352 0.289352 0.289352 0.144676 0.144676 0.144676 0.072338 0.289352 0.289352 0.289352 0.144676 0.144676 0.144676 0.072338 0.289352 0.289352 0.289352 0.144676 0.144676 0.144676 0.072338 0.289352 0.289352 0.289352 0.144676 0.144676 0.144676 0.072338 0.289352 0.289352 0.289352 0.144676 0.144676 0.144676 0.0723379 0.289352 0.289352 0.289352 0.144676 0.144676 0.144676 0.0723379 0.289352 0.289352 0.289352 0.144676 0.144676 0.144676 0.072338 0.289352 0.289352 0.289352 0.144676 0.144676 0.144676 0.072338 0.289352 0.289352 0.289352 0.144676 0.144676 0.144676 0.072338 0.289352 0.289352 0.289352 0.144676 0.144676 0.144676 0.0723379 0.289352 0.289352 0.289352 0.144676 0.144676 0.144676 0.072338 0.289352 0.289352 0.289352 0.144676 0.144676 0.144676 0.072338 0.289352 0.289352 0.289352 0.144676 0.144676 0.144676 0.0723379 0.289352 0.289352 0.289352 0.144676 0.144676 0.144676 0.0723379 0.289352 0.289352 0.289352 0.144676 0.144676 0.144676 0.0723379 0.289352 0.289352 0.289352 0.144676 0.144676 0.144676 0.072338 0.289352 0.289352 0.289352 0.144676 0.144676 0.144676 0.0723379 0.289352 0.289352 0.289352 0.144676 0.144676 0.144676 0.0723379 0.289352 0.289352 0.289352 0.144676 0.144676 0.144676 0.072338 0.289352 0.289352 0.289352 0.144676 0.144676 0.144676 0.0723379 0.289352 0.289352 0.289352 0.144676 0.144676 0.144676 0.072338 0.289352 0.289352 0.289352 0.144676 0.144676 0.144676 0.0723381 0.289351 0.289352 0.289352 0.144676 0.144676 0.144676 0.0723379 0.289352 0.289352 0.289351 0.144676 0.144676 0.144676 0.0723378 0.289352 0.289352 0.289352 0.144676 0.144676 0.144676 0.072338 0.289352 0.289352 0.289352 0.144676 0.144676 0.144676 0.0723379 0.144676 0.144676 0.289352 0.072338 0.144676 0.144676 0.072338 0.289352 0.144676 0.289352 0.289352 0.144676 0.144676 0.144676 0.072338 0.144676 0.072338 0.289352 0.289352 0.289352 0.144676 0.144676 0.144676 0.072338 0.289352 0.289352 0.289352 0.144676 0.144676 0.144676 0.072338 0.289352 0.289352 0.289352 0.144676 0.144676 0.144676 0.072338 0.289352 0.289352 0.289352 0.144676 0.144676 0.144676 0.072338 0.289352 0.289352 0.289352 0.144676 0.144676 0.144676 0.072338 0.289352 0.289352 0.289352 0.144676 0.144676 0.144676 0.072338 0.289352 0.289352 0.289352 0.144676 0.144676 0.144676 0.072338 0.289352 0.289352 0.289352 0.144676 0.144676 0.144676 0.072338 0.289352 0.289352 0.289352 0.144676 0.144676 0.144676 0.072338 0.289352 0.289352 0.289352 0.144676 0.144676 0.144676 0.072338 0.289352 0.289352 0.289352 0.144676 0.144676 0.144676 0.072338 0.289352 0.289352 0.289352 0.144676 0.144676 0.144676 0.072338 0.289352 0.289352 0.289352 0.144676 0.144676 0.144676 0.072338 0.289352 0.289352 0.289352 0.144676 0.144676 0.144676 0.0723379 0.289352 0.289352 0.289352 0.144676 0.144676 0.144676 0.072338 0.289352 0.289352 0.289352 0.144676 0.144676 0.144676 0.072338 0.289352 0.289352 0.289352 0.144676 0.144676 0.144676 0.0723379 0.289352 0.289352 0.289352 0.144676 0.144676 0.144676 0.0723379 0.289352 0.289352 0.289352 0.144676 0.144676 0.144676 0.0723379 0.289352 0.289352 0.289352 0.144676 0.144676 0.144676 0.072338 0.289352 0.289352 0.289352 0.144676 0.144676 0.144676 0.072338 0.289352 0.289352 0.289352 0.144676 0.144676 0.144676 0.072338 0.289352 0.289352 0.289352 0.144676 0.144676 0.144676 0.072338 0.289352 0.289352 0.289352 0.144676 0.144676 0.144676 0.0723379 0.289352 0.289352 0.289352 0.144676 0.144676 0.144676 0.072338 0.289352 0.289352 0.289352 0.144676 0.144676 0.144676 0.0723381 0.289352 0.289352 0.289352 0.144676 0.144676 0.144676 0.0723379 0.289352 0.289352 0.289351 0.144676 0.144676 0.144676 0.0723378 0.289352 0.289352 0.289352 0.144676 0.144676 0.144676 0.072338 0.289352 0.289352 0.289352 0.144676 0.144676 0.144676 0.0723379 0.144676 0.144676 0.289352 0.072338 0.144676 0.144676 0.072338 0.289352 0.144676 0.289352 0.289352 0.144676 0.144676 0.144676 0.072338 0.144676 0.072338 0.289352 0.289352 0.289352 0.144676 0.144676 0.144676 0.072338 0.289352 0.289352 0.289352 0.144676 0.144676 0.144676 0.072338 0.289352 0.289352 0.289352 0.144676 0.144676 0.144676 0.072338 0.289352 0.289352 0.289352 0.144676 0.144676 0.144676 0.072338 0.289352 0.289352 0.289352 0.144676 0.144676 0.144676 0.072338 0.289352 0.289352 0.289352 0.144676 0.144676 0.144676 0.072338 0.289352 0.289352 0.289352 0.144676 0.144676 0.144676 0.072338 0.289352 0.289352 0.289352 0.144676 0.144676 0.144676 0.072338 0.289352 0.289352 0.289352 0.144676 0.144676 0.144676 0.072338 0.289352 0.289352 0.289352 0.144676 0.144676 0.144676 0.072338 0.289352 0.289352 0.289352 0.144676 0.144676 0.144676 0.072338 0.289352 0.289352 0.289352 0.144676 0.144676 0.144676 0.072338 0.289352 0.289352 0.289352 0.144676 0.144676 0.144676 0.072338 0.289352 0.289352 0.289352 0.144676 0.144676 0.144676 0.0723379 0.289352 0.289352 0.289352 0.144676 0.144676 0.144676 0.072338 0.289352 0.289352 0.289352 0.144676 0.144676 0.144676 0.072338 0.289352 0.289352 0.289352 0.144676 0.144676 0.144676 0.072338 0.289352 0.289352 0.289352 0.144676 0.144676 0.144676 0.0723379 0.289352 0.289352 0.289352 0.144676 0.144676 0.144676 0.0723379 0.289352 0.289352 0.289352 0.144676 0.144676 0.144676 0.072338 0.289352 0.289352 0.289352 0.144676 0.144676 0.144676 0.072338 0.289352 0.289352 0.289352 0.144676 0.144676 0.144676 0.072338 0.289352 0.289352 0.289352 0.144676 0.144676 0.144676 0.072338 0.289352 0.289352 0.289352 0.144676 0.144676 0.144676 0.0723379 0.289352 0.289352 0.289352 0.144676 0.144676 0.144676 0.072338 0.289352 0.289352 0.289352 0.144676 0.144676 0.144676 0.0723381 0.289352 0.289352 0.289352 0.144676 0.144676 0.144676 0.0723379 0.289352 0.289352 0.289351 0.144676 0.144676 0.144676 0.0723379 0.289352 0.289352 0.289352 0.144676 0.144676 0.144676 0.072338 0.289352 0.289352 0.289352 0.144676 0.144676 0.144676 0.0723379 0.144676 0.144676 0.289352 0.072338 0.144676 0.144676 0.072338 0.289352 0.144676 0.144676 0.144676 0.072338 0.144676 0.144676 0.072338 0.072338 0.072338 0.289352 0.144676 0.144676 0.144676 0.144676 0.072338 0.072338 0.289352 0.144676 0.144676 0.144676 0.144676 0.072338 0.072338 0.289352 0.144676 0.144676 0.144676 0.144676 0.072338 0.072338 0.289352 0.144676 0.144676 0.144676 0.144676 0.072338 0.072338 0.289352 0.144676 0.144676 0.144676 0.144676 0.072338 0.072338 0.289352 0.144676 0.144676 0.144676 0.144676 0.072338 0.072338 0.289352 0.144676 0.144676 0.144676 0.144676 0.072338 0.072338 0.289352 0.144676 0.144676 0.144676 0.144676 0.072338 0.072338 0.289352 0.144676 0.144676 0.144676 0.144676 0.0723379 0.0723379 0.289352 0.144676 0.144676 0.144676 0.144676 0.0723379 0.0723379 0.289352 0.144676 0.144676 0.144676 0.144676 0.072338 0.072338 0.289352 0.144676 0.144676 0.144676 0.144676 0.072338 0.072338 0.289352 0.144676 0.144676 0.144676 0.144676 0.072338 0.072338 0.289352 0.144676 0.144676 0.144676 0.144676 0.0723379 0.0723379 0.289352 0.144676 0.144676 0.144676 0.144676 0.072338 0.072338 0.289352 0.144676 0.144676 0.144676 0.144676 0.072338 0.072338 0.289352 0.144676 0.144676 0.144676 0.144676 0.0723379 0.0723379 0.289352 0.144676 0.144676 0.144676 0.144676 0.0723379 0.0723379 0.289352 0.144676 0.144676 0.144676 0.144676 0.0723379 0.0723379 0.289352 0.144676 0.144676 0.144676 0.144676 0.072338 0.072338 0.289352 0.144676 0.144676 0.144676 0.144676 0.0723379 0.0723379 0.289352 0.144676 0.144676 0.144676 0.144676 0.0723379 0.0723379 0.289352 0.144676 0.144676 0.144676 0.144676 0.072338 0.072338 0.289352 0.144676 0.144676 0.144676 0.144676 0.0723379 0.0723379 0.289352 0.144676 0.144676 0.144676 0.144676 0.072338 0.072338 0.289352 0.144676 0.144676 0.144676 0.144676 0.0723381 0.0723381 0.289351 0.144676 0.144676 0.144676 0.144676 0.0723379 0.0723379 0.289352 0.144676 0.144676 0.144676 0.144676 0.0723378 0.0723378 0.289352 0.144676 0.144676 0.144676 0.144676 0.072338 0.072338 0.289352 0.144676 0.144676 0.144676 0.144676 0.0723379 0.0723379 0.144676 0.072338 0.144676 0.072338 0.144676 0.072338 0.072338 0.144676 0.072338 0.072338 0.144676 0.072338 0.289352 0.144676 0.144676 0.072338 0.144676 0.072338 0.072338 0.144676 0.072338 0.144676 0.072338 0.144676 0.289352 0.144676 0.072338 0.144676 0.072338 0.144676 0.072338 0.144676 0.072338 0.144676 0.289352 0.144676 0.072338 0.144676 0.072338 0.144676 0.072338 0.144676 0.0723379 0.144676 0.289352 0.144676 0.0723379 0.144676 0.0723379 0.144676 0.0723379 0.144676 0.072338 0.144676 0.289352 0.144676 0.072338 0.144676 0.072338 0.144676 0.072338 0.144676 0.072338 0.144676 0.289352 0.144676 0.072338 0.144676 0.072338 0.144676 0.072338 0.144676 0.072338 0.144676 0.289352 0.144676 0.072338 0.144676 0.072338 0.144676 0.072338 0.144676 0.072338 0.144676 0.289352 0.144676 0.072338 0.144676 0.072338 0.144676 0.072338 0.144676 0.072338 0.144676 0.289352 0.144676 0.072338 0.144676 0.072338 0.144676 0.072338 0.144676 0.0723379 0.144676 0.289352 0.144676 0.0723379 0.144676 0.0723379 0.144676 0.0723379 0.144676 0.0723379 0.144676 0.289352 0.144676 0.0723379 0.144676 0.0723379 0.144676 0.0723379 0.144676 0.072338 0.144676 0.289352 0.144676 0.072338 0.144676 0.072338 0.144676 0.072338 0.144676 0.072338 0.144676 0.289352 0.144676 0.072338 0.144676 0.072338 0.144676 0.072338 0.144676 0.072338 0.144676 0.289352 0.144676 0.072338 0.144676 0.072338 0.144676 0.072338 0.144676 0.0723379 0.144676 0.289352 0.144676 0.0723379 0.144676 0.0723379 0.144676 0.0723379 0.144676 0.072338 0.144676 0.289352 0.144676 0.072338 0.144676 0.072338 0.144676 0.072338 0.144676 0.072338 0.144676 0.289352 0.144676 0.072338 0.144676 0.072338 0.144676 0.072338 0.144676 0.0723379 0.144676 0.289352 0.144676 0.0723379 0.144676 0.0723379 0.144676 0.0723379 0.144676 0.0723379 0.144676 0.289352 0.144676 0.0723379 0.144676 0.0723379 0.144676 0.0723379 0.144676 0.0723379 0.144676 0.289352 0.144676 0.0723379 0.144676 0.0723379 0.144676 0.0723379 0.144676 0.072338 0.144676 0.289352 0.144676 0.072338 0.144676 0.072338 0.144676 0.072338 0.144676 0.072338 0.144676 0.289352 0.144676 0.072338 0.144676 0.072338 0.144676 0.072338 0.144676 0.0723379 0.144676 0.289352 0.144676 0.0723379 0.144676 0.0723379 0.144676 0.0723379 0.144676 0.072338 0.144676 0.289352 0.144676 0.072338 0.144676 0.072338 0.144676 0.072338 0.144676 0.0723379 0.144676 0.289352 0.144676 0.0723379 0.144676 0.0723379 0.144676 0.0723379 0.144676 0.0723379 0.144676 0.289352 0.144676 0.0723379 0.144676 0.0723379 0.144676 0.0723379 0.144676 0.0723381 0.144676 0.289352 0.144676 0.0723381 0.144676 0.0723381 0.144676 0.0723381 0.144676 0.0723379 0.144676 0.289351 0.144676 0.0723379 0.144676 0.0723379 0.144676 0.0723379 0.144676 0.0723378 0.144676 0.289352 0.144676 0.0723378 0.144676 0.0723378 0.144676 0.0723378 0.144676 0.072338 0.144676 0.289352 0.144676 0.072338 0.144676 0.072338 0.144676 0.072338 0.144676 0.0723379 0.144676 0.289352 0.144676 0.0723379 0.144676 0.0723379 0.144676 0.0723379 0.072338 0.072338 0.072338 0.144676 0.144676 0.072338 0.072338 0.072338 0.144676 0.072338 0.144676 0.072338 0.289352 0.144676 0.144676 0.144676 0.072338 0.072338 0.144676 0.072338 0.144676 0.289352 0.144676 0.144676 0.072338 0.144676 0.072338 0.144676 0.289352 0.144676 0.144676 0.072338 0.144676 0.072338 0.144676 0.289352 0.144676 0.144676 0.0723379 0.144676 0.0723379 0.144676 0.289352 0.144676 0.144676 0.072338 0.144676 0.072338 0.144676 0.289352 0.144676 0.144676 0.072338 0.144676 0.072338 0.144676 0.289352 0.144676 0.144676 0.072338 0.144676 0.072338 0.144676 0.289352 0.144676 0.144676 0.072338 0.144676 0.072338 0.144676 0.289352 0.144676 0.144676 0.072338 0.144676 0.072338 0.144676 0.289352 0.144676 0.144676 0.0723379 0.144676 0.0723379 0.144676 0.289352 0.144676 0.144676 0.0723379 0.144676 0.0723379 0.144676 0.289352 0.144676 0.144676 0.072338 0.144676 0.072338 0.144676 0.289352 0.144676 0.144676 0.072338 0.144676 0.072338 0.144676 0.289352 0.144676 0.144676 0.072338 0.144676 0.072338 0.144676 0.289352 0.144676 0.144676 0.0723379 0.144676 0.0723379 0.144676 0.289352 0.144676 0.144676 0.072338 0.144676 0.072338 0.144676 0.289352 0.144676 0.144676 0.072338 0.144676 0.072338 0.144676 0.289352 0.144676 0.144676 0.0723379 0.144676 0.0723379 0.144676 0.289352 0.144676 0.144676 0.0723379 0.144676 0.0723379 0.144676 0.289352 0.144676 0.144676 0.0723379 0.144676 0.0723379 0.144676 0.289352 0.144676 0.144676 0.072338 0.144676 0.072338 0.144676 0.289352 0.144676 0.144676 0.0723379 0.144676 0.0723379 0.144676 0.289352 0.144676 0.144676 0.0723379 0.144676 0.0723379 0.144676 0.289352 0.144676 0.144676 0.072338 0.144676 0.072338 0.144676 0.289352 0.144676 0.144676 0.0723379 0.144676 0.0723379 0.144676 0.289352 0.144676 0.144676 0.0723379 0.144676 0.0723379 0.144676 0.289352 0.144676 0.144676 0.0723381 0.144676 0.0723381 0.144676 0.289351 0.144676 0.144676 0.0723379 0.144676 0.0723379 0.144676 0.289352 0.144676 0.144676 0.0723378 0.144676 0.0723378 0.144676 0.289352 0.144676 0.144676 0.072338 0.144676 0.072338 0.144676 0.289352 0.144676 0.144676 0.0723379 0.144676 0.0723379 0.072338 0.144676 0.144676 0.072338 0.072338 0.144676 0.072338 0.144676 0.072338 0.289352 0.144676 0.144676 0.144676 0.072338 0.072338 0.144676 0.072338 0.144676 0.289352 0.144676 0.144676 0.072338 0.144676 0.072338 0.144676 0.289352 0.144676 0.144676 0.072338 0.144676 0.072338 0.144676 0.289352 0.144676 0.144676 0.072338 0.144676 0.072338 0.144676 0.289352 0.144676 0.144676 0.072338 0.144676 0.072338 0.144676 0.289352 0.144676 0.144676 0.072338 0.144676 0.072338 0.144676 0.289352 0.144676 0.144676 0.072338 0.144676 0.072338 0.144676 0.289352 0.144676 0.144676 0.072338 0.144676 0.072338 0.144676 0.289352 0.144676 0.144676 0.072338 0.144676 0.072338 0.144676 0.289352 0.144676 0.144676 0.0723379 0.144676 0.0723379 0.144676 0.289352 0.144676 0.144676 0.0723379 0.144676 0.0723379 0.144676 0.289352 0.144676 0.144676 0.072338 0.144676 0.072338 0.144676 0.289352 0.144676 0.144676 0.072338 0.144676 0.072338 0.144676 0.289352 0.144676 0.144676 0.072338 0.144676 0.072338 0.144676 0.289352 0.144676 0.144676 0.0723379 0.144676 0.0723379 0.144676 0.289352 0.144676 0.144676 0.072338 0.144676 0.072338 0.144676 0.289352 0.144676 0.144676 0.072338 0.144676 0.072338 0.144676 0.289352 0.144676 0.144676 0.0723379 0.144676 0.0723379 0.144676 0.289352 0.144676 0.144676 0.0723379 0.144676 0.0723379 0.144676 0.289352 0.144676 0.144676 0.0723379 0.144676 0.0723379 0.144676 0.289352 0.144676 0.144676 0.072338 0.144676 0.072338 0.144676 0.289352 0.144676 0.144676 0.0723379 0.144676 0.0723379 0.144676 0.289352 0.144676 0.144676 0.0723379 0.144676 0.0723379 0.144676 0.289352 0.144676 0.144676 0.072338 0.144676 0.072338 0.144676 0.289352 0.144676 0.144676 0.0723379 0.144676 0.0723379 0.144676 0.289352 0.144676 0.144676 0.0723379 0.144676 0.0723379 0.144676 0.289352 0.144676 0.144676 0.0723381 0.144676 0.0723381 0.144676 0.289351 0.144676 0.144676 0.0723379 0.144676 0.0723379 0.144676 0.289352 0.144676 0.144676 0.0723378 0.144676 0.0723378 0.144676 0.289352 0.144676 0.144676 0.072338 0.144676 0.072338 0.144676 0.289352 0.144676 0.144676 0.0723379 0.144676 0.0723379 0.072338 0.144676 0.144676 0.072338 0.072338 0.144676 0.072338 0.144676 0.072338 0.289352 0.144676 0.144676 0.144676 0.072338 0.072338 0.144676 0.072338 0.144676 0.289352 0.144676 0.144676 0.072338 0.144676 0.072338 0.144676 0.289352 0.144676 0.144676 0.072338 0.144676 0.072338 0.144676 0.289352 0.144676 0.144676 0.0723379 0.144676 0.0723379 0.144676 0.289352 0.144676 0.144676 0.0723379 0.144676 0.0723379 0.144676 0.289352 0.144676 0.144676 0.072338 0.144676 0.072338 0.144676 0.289352 0.144676 0.144676 0.072338 0.144676 0.072338 0.144676 0.289352 0.144676 0.144676 0.0723379 0.144676 0.0723379 0.144676 0.289352 0.144676 0.144676 0.0723379 0.144676 0.0723379 0.144676 0.289352 0.144676 0.144676 0.0723379 0.144676 0.0723379 0.144676 0.289352 0.144676 0.144676 0.0723379 0.144676 0.0723379 0.144676 0.289352 0.144676 0.144676 0.072338 0.144676 0.072338 0.144676 0.289352 0.144676 0.144676 0.072338 0.144676 0.072338 0.144676 0.289352 0.144676 0.144676 0.072338 0.144676 0.072338 0.144676 0.289352 0.144676 0.144676 0.0723379 0.144676 0.0723379 0.144676 0.289352 0.144676 0.144676 0.072338 0.144676 0.072338 0.144676 0.289352 0.144676 0.144676 0.072338 0.144676 0.072338 0.144676 0.289352 0.144676 0.144676 0.0723379 0.144676 0.0723379 0.144676 0.289352 0.144676 0.144676 0.0723379 0.144676 0.0723379 0.144676 0.289352 0.144676 0.144676 0.0723379 0.144676 0.0723379 0.144676 0.289352 0.144676 0.144676 0.072338 0.144676 0.072338 0.144676 0.289352 0.144676 0.144676 0.0723379 0.144676 0.0723379 0.144676 0.289352 0.144676 0.144676 0.0723379 0.144676 0.0723379 0.144676 0.289352 0.144676 0.144676 0.072338 0.144676 0.072338 0.144676 0.289352 0.144676 0.144676 0.0723379 0.144676 0.0723379 0.144676 0.289352 0.144676 0.144676 0.0723379 0.144676 0.0723379 0.144676 0.289352 0.144676 0.144676 0.072338 0.144676 0.072338 0.144676 0.289351 0.144676 0.144676 0.0723379 0.144676 0.0723379 0.144676 0.289352 0.144676 0.144676 0.0723378 0.144676 0.0723378 0.144676 0.289352 0.144676 0.144676 0.072338 0.144676 0.072338 0.144676 0.289352 0.144676 0.144676 0.0723379 0.144676 0.0723379 0.072338 0.144676 0.144676 0.072338 0.072338 0.144676 0.072338 0.144676 0.072338 0.289352 0.144676 0.144676 0.144676 0.072338 0.072338 0.144676 0.072338 0.144676 0.289352 0.144676 0.144676 0.072338 0.144676 0.072338 0.144676 0.289352 0.144676 0.144676 0.072338 0.144676 0.072338 0.144676 0.289352 0.144676 0.144676 0.0723379 0.144676 0.0723379 0.144676 0.289352 0.144676 0.144676 0.0723379 0.144676 0.0723379 0.144676 0.289352 0.144676 0.144676 0.072338 0.144676 0.072338 0.144676 0.289352 0.144676 0.144676 0.072338 0.144676 0.072338 0.144676 0.289352 0.144676 0.144676 0.0723379 0.144676 0.0723379 0.144676 0.289352 0.144676 0.144676 0.072338 0.144676 0.072338 0.144676 0.289352 0.144676 0.144676 0.0723379 0.144676 0.0723379 0.144676 0.289352 0.144676 0.144676 0.0723379 0.144676 0.0723379 0.144676 0.289352 0.144676 0.144676 0.072338 0.144676 0.072338 0.144676 0.289352 0.144676 0.144676 0.072338 0.144676 0.072338 0.144676 0.289352 0.144676 0.144676 0.072338 0.144676 0.072338 0.144676 0.289352 0.144676 0.144676 0.0723379 0.144676 0.0723379 0.144676 0.289352 0.144676 0.144676 0.072338 0.144676 0.072338 0.144676 0.289352 0.144676 0.144676 0.072338 0.144676 0.072338 0.144676 0.289352 0.144676 0.144676 0.0723379 0.144676 0.0723379 0.144676 0.289352 0.144676 0.144676 0.0723379 0.144676 0.0723379 0.144676 0.289352 0.144676 0.144676 0.0723379 0.144676 0.0723379 0.144676 0.289352 0.144676 0.144676 0.072338 0.144676 0.072338 0.144676 0.289352 0.144676 0.144676 0.0723379 0.144676 0.0723379 0.144676 0.289352 0.144676 0.144676 0.0723379 0.144676 0.0723379 0.144676 0.289352 0.144676 0.144676 0.072338 0.144676 0.072338 0.144676 0.289352 0.144676 0.144676 0.0723379 0.144676 0.0723379 0.144676 0.289352 0.144676 0.144676 0.0723379 0.144676 0.0723379 0.144676 0.289352 0.144676 0.144676 0.072338 0.144676 0.072338 0.144676 0.289351 0.144676 0.144676 0.0723379 0.144676 0.0723379 0.144676 0.289352 0.144676 0.144676 0.0723378 0.144676 0.0723378 0.144676 0.289352 0.144676 0.144676 0.072338 0.144676 0.072338 0.144676 0.289352 0.144676 0.144676 0.0723379 0.144676 0.0723379 0.072338 0.144676 0.144676 0.072338 0.072338 0.144676 0.072338 0.144676 0.072338 0.289352 0.144676 0.144676 0.144676 0.072338 0.072338 0.144676 0.072338 0.144676 0.289352 0.144676 0.144676 0.072338 0.144676 0.072338 0.144676 0.289352 0.144676 0.144676 0.072338 0.144676 0.072338 0.144676 0.289352 0.144676 0.144676 0.072338 0.144676 0.072338 0.144676 0.289352 0.144676 0.144676 0.072338 0.144676 0.072338 0.144676 0.289352 0.144676 0.144676 0.072338 0.144676 0.072338 0.144676 0.289352 0.144676 0.144676 0.072338 0.144676 0.072338 0.144676 0.289352 0.144676 0.144676 0.072338 0.144676 0.072338 0.144676 0.289352 0.144676 0.144676 0.072338 0.144676 0.072338 0.144676 0.289352 0.144676 0.144676 0.0723379 0.144676 0.0723379 0.144676 0.289352 0.144676 0.144676 0.072338 0.144676 0.072338 0.144676 0.289352 0.144676 0.144676 0.072338 0.144676 0.072338 0.144676 0.289352 0.144676 0.144676 0.072338 0.144676 0.072338 0.144676 0.289352 0.144676 0.144676 0.072338 0.144676 0.072338 0.144676 0.289352 0.144676 0.144676 0.0723379 0.144676 0.0723379 0.144676 0.289352 0.144676 0.144676 0.072338 0.144676 0.072338 0.144676 0.289352 0.144676 0.144676 0.072338 0.144676 0.072338 0.144676 0.289352 0.144676 0.144676 0.0723379 0.144676 0.0723379 0.144676 0.289352 0.144676 0.144676 0.0723379 0.144676 0.0723379 0.144676 0.289352 0.144676 0.144676 0.0723379 0.144676 0.0723379 0.144676 0.289352 0.144676 0.144676 0.072338 0.144676 0.072338 0.144676 0.289352 0.144676 0.144676 0.072338 0.144676 0.072338 0.144676 0.289352 0.144676 0.144676 0.0723379 0.144676 0.0723379 0.144676 0.289352 0.144676 0.144676 0.072338 0.144676 0.072338 0.144676 0.289352 0.144676 0.144676 0.0723379 0.144676 0.0723379 0.144676 0.289352 0.144676 0.144676 0.072338 0.144676 0.072338 0.144676 0.289352 0.144676 0.144676 0.0723381 0.144676 0.0723381 0.144676 0.289352 0.144676 0.144676 0.0723379 0.144676 0.0723379 0.144676 0.289352 0.144676 0.144676 0.0723378 0.144676 0.0723378 0.144676 0.289352 0.144676 0.144676 0.072338 0.144676 0.072338 0.144676 0.289352 0.144676 0.144676 0.0723379 0.144676 0.0723379 0.072338 0.144676 0.144676 0.072338 0.072338 0.144676 0.072338 0.144676 0.072338 0.289352 0.144676 0.144676 0.144676 0.072338 0.072338 0.144676 0.072338 0.144676 0.289352 0.144676 0.144676 0.072338 0.144676 0.072338 0.144676 0.289352 0.144676 0.144676 0.072338 0.144676 0.072338 0.144676 0.289352 0.144676 0.144676 0.072338 0.144676 0.072338 0.144676 0.289352 0.144676 0.144676 0.072338 0.144676 0.072338 0.144676 0.289352 0.144676 0.144676 0.072338 0.144676 0.072338 0.144676 0.289352 0.144676 0.144676 0.072338 0.144676 0.072338 0.144676 0.289352 0.144676 0.144676 0.072338 0.144676 0.072338 0.144676 0.289352 0.144676 0.144676 0.072338 0.144676 0.072338 0.144676 0.289352 0.144676 0.144676 0.0723379 0.144676 0.0723379 0.144676 0.289352 0.144676 0.144676 0.0723379 0.144676 0.0723379 0.144676 0.289352 0.144676 0.144676 0.072338 0.144676 0.072338 0.144676 0.289352 0.144676 0.144676 0.072338 0.144676 0.072338 0.144676 0.289352 0.144676 0.144676 0.072338 0.144676 0.072338 0.144676 0.289352 0.144676 0.144676 0.0723379 0.144676 0.0723379 0.144676 0.289352 0.144676 0.144676 0.072338 0.144676 0.072338 0.144676 0.289352 0.144676 0.144676 0.072338 0.144676 0.072338 0.144676 0.289352 0.144676 0.144676 0.072338 0.144676 0.072338 0.144676 0.289352 0.144676 0.144676 0.0723379 0.144676 0.0723379 0.144676 0.289352 0.144676 0.144676 0.0723379 0.144676 0.0723379 0.144676 0.289352 0.144676 0.144676 0.072338 0.144676 0.072338 0.144676 0.289352 0.144676 0.144676 0.072338 0.144676 0.072338 0.144676 0.289352 0.144676 0.144676 0.0723379 0.144676 0.0723379 0.144676 0.289352 0.144676 0.144676 0.072338 0.144676 0.072338 0.144676 0.289352 0.144676 0.144676 0.0723379 0.144676 0.0723379 0.144676 0.289352 0.144676 0.144676 0.072338 0.144676 0.072338 0.144676 0.289352 0.144676 0.144676 0.0723381 0.144676 0.0723381 0.144676 0.289351 0.144676 0.144676 0.0723379 0.144676 0.0723379 0.144676 0.289352 0.144676 0.144676 0.0723378 0.144676 0.0723378 0.144676 0.289352 0.144676 0.144676 0.072338 0.144676 0.072338 0.144676 0.289352 0.144676 0.144676 0.0723379 0.144676 0.0723379 0.072338 0.144676 0.144676 0.072338 0.072338 0.144676 0.072338 0.144676 0.0723379 0.144676 0.0723379 0.0723379 0.144676 0.0723379 0.0723379 0.0723379 0.0723379 0.144676 0.144676 0.0723379 0.144676 0.0723379 0.0723379 0.0723379 0.144676 0.144676 0.072338 0.144676 0.072338 0.072338 0.072338 0.144676 0.144676 0.0723379 0.144676 0.0723379 0.0723379 0.0723379 0.144676 0.144676 0.0723379 0.144676 0.0723379 0.0723379 0.0723379 0.144676 0.144676 0.072338 0.144676 0.072338 0.072338 0.072338 0.144676 0.144676 0.0723379 0.144676 0.0723379 0.0723379 0.0723379 0.144676 0.144676 0.0723379 0.144676 0.0723379 0.0723379 0.0723379 0.144676 0.144676 0.072338 0.144676 0.072338 0.072338 0.072338 0.144676 0.144676 0.0723379 0.144676 0.0723379 0.0723379 0.0723379 0.144676 0.144676 0.0723379 0.144676 0.0723379 0.0723379 0.0723379 0.144676 0.144676 0.0723379 0.144676 0.0723379 0.0723379 0.0723379 0.144676 0.144676 0.0723379 0.144676 0.0723379 0.0723379 0.0723379 0.144676 0.144676 0.072338 0.144676 0.072338 0.072338 0.072338 0.144676 0.144676 0.0723379 0.144676 0.0723379 0.0723379 0.0723379 0.144676 0.144676 0.072338 0.144676 0.072338 0.072338 0.072338 0.144676 0.144676 0.0723379 0.144676 0.0723379 0.0723379 0.0723379 0.144676 0.144676 0.0723379 0.144676 0.0723379 0.0723379 0.0723379 0.144676 0.144676 0.0723379 0.144676 0.0723379 0.0723379 0.0723379 0.144676 0.144676 0.0723379 0.144676 0.0723379 0.0723379 0.0723379 0.144676 0.144676 0.072338 0.144676 0.072338 0.072338 0.072338 0.144676 0.144676 0.0723379 0.144676 0.0723379 0.0723379 0.0723379 0.144676 0.144676 0.0723379 0.144676 0.0723379 0.0723379 0.0723379 0.144676 0.144676 0.072338 0.144676 0.072338 0.072338 0.072338 0.144676 0.144676 0.0723379 0.144676 0.0723379 0.0723379 0.0723379 0.144676 0.144676 0.0723379 0.144676 0.0723379 0.0723379 0.0723379 0.144676 0.144676 0.072338 0.144676 0.072338 0.072338 0.072338 0.144676 0.144676 0.0723379 0.144676 0.0723379 0.0723379 0.0723379 0.144676 0.144676 0.0723378 0.144676 0.0723378 0.0723378 0.0723378 0.144676 0.144676 0.072338 0.144676 0.072338 0.072338 0.072338 0.144676 0.144676 0.0723379 0.144676 0.0723379 0.0723379 0.0723379 0.072338 0.072338 0.072338 0.072338 0.072338 0.072338 0.072338 
VECTORS u float
0 0 0  -0.0434737 -0.00986807 -0.0574775  -0.0729048 -0.0140711 -0.0742764  -0.101794 -0.0435605 -0.0775533  -0.136072 -0.083831 -0.0730426  -0.173431 -0.131977 -0.066103  -0.212724 -0.185944 -0.0586786  -0.253224 -0.244715 -0.0516579  -0.294619 -0.307845 -0.0453444  -0.336861 -0.374988 -0.039788  -0.379959 -0.445943 -0.0348709  -0.423897 -0.520356 -0.0305212  -0.468662 -0.598031 -0.0266917  -0.514248 -0.678697 -0.0232515  -0.560641 -0.762098 -0.0201712  -0.607749 -0.84792 -0.0173874  -0.655473 -0.935916 -0.0148966  -0.703817 -1.02588 -0.0126438  -0.752622 -1.11759 -0.0106096  -0.801828 -1.2108 -0.00877976  -0.851265 -1.30527 -0.0071516  -0.900993 -1.40092 -0.0056963  -0.950803 -1.49751 -0.00441837  -1.00061 -1.59489 -0.0032959  -1.05042 -1.69288 -0.00237632  -1.10013 -1.79137 -0.00158024  -1.1497 -1.89021 -0.000908375  -1.19908 -1.98928 -0.000412226  -1.24822 -2.08846 -4.22001e-05  -1.29711 -2.18769 0.000193834  -1.34575 -2.28682 0.000277519  -1.39419 -2.38585 0.000277042  -1.44251 -2.4846 0.000174999  0 0 0  -0.0226151 0.00378196 -0.0400445  -0.0438291 -0.0117355 -0.0507269  -0.0626491 -0.0417851 -0.0536976  -0.0863102 -0.0846987 -0.0516303  -0.114639 -0.136208 -0.0474091  -0.146596 -0.194021 -0.0424972  -0.181212 -0.256835 -0.0375762  -0.217863 -0.323929 -0.0330021  -0.256197 -0.394863 -0.028863  -0.296014 -0.469347 -0.0252171  -0.337154 -0.547081 -0.0219789  -0.379572 -0.627827 -0.0191197  -0.423186 -0.711273 -0.0165527  -0.4679 -0.797161 -0.0142801  -0.513581 -0.885243 -0.0122349  -0.560168 -0.97525 -0.0103989  -0.607539 -1.06699 -0.00874996  -0.655566 -1.1602 -0.00728011  -0.704131 -1.25474 -0.00595212  -0.753112 -1.35037 -0.00478125  -0.802442 -1.44695 -0.00375986  -0.851969 -1.54429 -0.00286198  -0.90163 -1.64226 -0.0020647  -0.951346 -1.74072 -0.00141287  -1.00099 -1.83955 -0.000849485  -1.05056 -1.93861 -0.000430584  -1.09998 -2.0378 -9.08375e-05  -1.14919 -2.13703 0.000118494  -1.19818 -2.23622 0.000239134  -1.24693 -2.3353 0.000279427  -1.2954 -2.43418 0.000248432  -1.34371 -2.53293 0.000260353  0 0 0  -0.0108166 0.00766891 -0.0249269  -0.0209377 -0.00993337 -0.0317283  -0.0318958 -0.0427425 -0.0338395  -0.0470924 -0.0875359 -0.032778  -0.0668676 -0.141432 -0.0303013  -0.0909296 -0.202197 -0.0272193  -0.118661 -0.268354 -0.0240023  -0.149451 -0.338953 -0.0209374  -0.182826 -0.413406 -0.0181565  -0.218434 -0.491289 -0.0156751  -0.25602 -0.57224 -0.0134902  -0.295446 -0.655977 -0.0115635  -0.336472 -0.742187 -0.00984907  -0.379012 -0.830585 -0.00835848  -0.422858 -0.920948 -0.00701594  -0.467893 -1.01301 -0.00583863  -0.513945 -1.10656 -0.00479102  -0.560871 -1.20138 -0.00387383  -0.608532 -1.2973 -0.00304246  -0.656779 -1.39413 -0.00229859  -0.705491 -1.49172 -0.00168967  -0.754567 -1.58992 -0.00118566  -0.803842 -1.68859 -0.0007267  -0.853269 -1.78761 -0.000330925  -0.902724 -1.88686 -6.50883e-05  -0.95215 -1.98624 0.000169992  -1.00146 -2.08565 0.000298023  -1.05064 -2.18505 0.000383615  -1.09958 -2.28433 0.000382662  -1.1483 -2.38344 0.000352859  -1.19678 -2.48236 0.000279427  -1.24501 -2.58105 0.00026536  0 0 0  -0.00246188 0.00599042 -0.0102658  -0.00376438 -0.0125308 -0.014035  -0.00660831 -0.0470139 -0.0154989  -0.0135305 -0.0935971 -0.0152314  -0.0251054 -0.149441 -0.0140867  -0.0413716 -0.212511 -0.0124943  -0.0620091 -0.281355 -0.0107732  -0.0865165 -0.35493 -0.00911665  -0.114434 -0.432444 -0.00757813  -0.145363 -0.513387 -0.00619316  -0.178929 -0.597324 -0.00502491  -0.214894 -0.683865 -0.00401187  -0.253 -0.772728 -0.00314784  -0.292985 -0.863546 -0.00240564  -0.334687 -0.956113 -0.00178218  -0.377872 -1.0502 -0.0012362  -0.422361 -1.14553 -0.000771284  -0.467977 -1.24195 -0.000388384  -0.5145 -1.33925 -8.10623e-05  -0.561827 -1.43729 0.000178337  -0.609751 -1.53593 0.000416279  -0.65819 -1.635 0.000555038  -0.706936 -1.73438 0.000674486  -0.755959 -1.83399 0.000736713  -0.805093 -1.93371 0.000801325  -0.854259 -2.03347 0.000773668  -0.903393 -2.13317 0.000733614  -0.95241 -2.23275 0.000650167  -1.00125 -2.33215 0.00053978  -1.04992 -2.43135 0.000413179  -1.09834 -2.53033 0.000267982  -1.14646 -2.62895 0.000214577  0 0 0  0.00440726 0.00162226 0.00356674  0.0109969 -0.0191061 0.00263619  0.0158874 -0.0552263 0.00180674  0.0170804 -0.103304 0.00141549  0.013491 -0.160735 0.00146818  0.00481075 -0.225689 0.00178528  -0.00880128 -0.296736 0.0022068  -0.0269976 -0.372807 0.00261784  -0.0492998 -0.453015 0.00299454  -0.0752912 -0.536689 0.00327849  -0.104614 -0.62333 0.00347972  -0.13688 -0.71248 0.00359297  -0.17178 -0.803773 0.00360298  -0.209036 -0.896891 0.00358295  -0.248353 -0.991573 0.00351715  -0.289494 -1.08754 0.00342512  -0.332243 -1.18458 0.00325418  -0.37637 -1.28253 0.00309491  -0.421631 -1.38118 0.00293279  -0.467876 -1.48039 0.0027504  -0.514926 -1.58002 0.00253773  -0.562591 -1.67995 0.0023067  -0.610729 -1.78004 0.00211501  -0.65923 -1.88024 0.00187874  -0.707928 -1.98044 0.00165629  -0.756779 -2.08055 0.00143647  -0.805636 -2.18053 0.00118589  -0.854466 -2.28032 0.000951767  -0.903152 -2.37987 0.000696421  -0.951718 -2.47916 0.000475407  -1.00007 -2.57813 0.000237465  -1.04808 -2.67673 6.29425e-05  0 0 0  0.0108262 -0.0049752 0.0166416  0.0253003 -0.0292717 0.0181363  0.0379114 -0.0673302 0.0179842  0.047016 -0.116711 0.017231  0.0510567 -0.175466 0.0164742  0.0496499 -0.242008 0.0157297  0.0428175 -0.314967 0.0150115  0.0308355 -0.393206 0.0142629  0.0141096 -0.475787 0.0135305  -0.00695515 -0.561904 0.012768  -0.0319263 -0.650984 0.0119894  -0.0603698 -0.742509 0.0111973  -0.0919621 -0.836086 0.0103924  -0.126342 -0.931336 0.00960779  -0.163195 -1.02797 0.00884795  -0.202162 -1.12571 0.00808454  -0.243052 -1.22436 0.00735021  -0.285569 -1.32371 0.0066433  -0.329474 -1.42362 0.00595331  -0.374566 -1.5239 0.00531793  -0.420643 -1.62447 0.00469828  -0.467476 -1.72517 0.00411081  -0.514918 -1.82592 0.0035696  -0.562844 -1.92666 0.00303054  -0.611086 -2.02728 0.00254273  -0.659538 -2.12775 0.00208855  -0.708095 -2.22799 0.00164223  -0.756667 -2.32795 0.00127506  -0.805176 -2.42761 0.000902176  -0.853599 -2.52695 0.000578165  -0.901854 -2.62593 0.000222921  -0.949839 -2.72454 -7.00951e-05  0 0 0  0.017663 -0.0141579 0.0286338  0.0409057 -0.0430411 0.0321624  0.0613836 -0.083015 0.0330253  0.0780022 -0.133542 0.0322931  0.0892997 -0.193514 0.0309856  0.0948048 -0.261547 0.0293429  0.0944555 -0.336279 0.0275812  0.0884632 -0.416531 0.0257759  0.0771502 -0.501246 0.0239642  0.0609369 -0.589612 0.022177  0.0402697 -0.680933 0.0204542  0.0156064 -0.774638 0.01877  -0.0126603 -0.870271 0.0171602  -0.0441377 -0.96746 0.0156171  -0.0784432 -1.06586 0.0141318  -0.115238 -1.16524 0.012749  -0.154222 -1.26534 0.0114114  -0.195105 -1.36597 0.0101514  -0.237609 -1.46701 0.00897932  -0.281474 -1.56827 0.00787687  -0.326519 -1.66965 0.00686741  -0.372473 -1.77104 0.00587535  -0.419222 -1.87238 0.00500131  -0.46654 -1.97355 0.00415468  -0.514297 -2.07455 0.00340414  -0.562345 -2.17525 0.00271273  -0.610592 -2.27568 0.00208735  -0.658906 -2.37576 0.00154829  -0.70722 -2.47549 0.00107169  -0.75549 -2.57484 0.000636578  -0.803641 -2.67381 0.000217676  -0.851618 -2.77247 -0.000156164  0 0 0  0.0261911 -0.027155 0.0383568  0.0597597 -0.0603023 0.0446076  0.0877133 -0.101623 0.04722  0.111392 -0.15338 0.0468216  0.129562 -0.214712 0.0450659  0.141677 -0.284321 0.0426204  0.147546 -0.360867 0.0398819  0.147258 -0.443069 0.0370359  0.141133 -0.529866 0.0342131  0.129603 -0.620315 0.0314562  0.113097 -0.713715 0.0287771  0.0920964 -0.809417 0.026232  0.067052 -0.906928 0.0238168  0.03842 -1.00587 0.0215404  0.00659645 -1.10588 0.0193508  -0.0280316 -1.20668 0.0173292  -0.0651443 -1.30808 0.0154052  -0.104404 -1.40985 0.0136232  -0.145479 -1.51184 0.0119572  -0.188167 -1.61393 0.0103984  -0.232173 -1.71599 0.00894976  -0.27728 -1.81795 0.00761771  -0.323296 -1.91971 0.00637984  -0.370041 -2.02122 0.00525212  -0.417322 -2.12242 0.00423169  -0.464988 -2.22331 0.00331068  -0.512929 -2.3238 0.00251579  -0.561016 -2.42391 0.00181317  -0.609139 -2.52363 0.00120115  -0.657277 -2.62294 0.000709295  -0.705318 -2.72185 0.000236511  -0.753307 -2.82046 -0.000151634  0 0 0  0.0403744 -0.0469356 0.0455394  0.0828757 -0.0793176 0.057327  0.117235 -0.122478 0.0613565  0.14812 -0.175784 0.0609763  0.17312 -0.238915 0.058635  0.19172 -0.310448 0.0553708  0.203561 -0.389001 0.0516844  0.208737 -0.473284 0.0478561  0.207513 -0.562128 0.0440586  0.200401 -0.654635 0.0403514  0.187772 -0.74997 0.0367861  0.170222 -0.847517 0.0334001  0.148258 -0.946749 0.0302086  0.122294 -1.04724 0.0272362  0.0928639 -1.14865 0.024404  0.0602467 -1.2507 0.021735  0.0249462 -1.35316 0.0192561  -0.0127561 -1.45586 0.0169713  -0.0525258 -1.55865 0.0147812  -0.0940807 -1.66137 0.0127983  -0.137091 -1.76392 0.0109329  -0.181388 -1.86624 0.00926208  -0.226726 -1.9683 0.00767207  -0.272913 -2.06999 0.00623703  -0.319782 -2.17127 0.00495148  -0.367145 -2.27213 0.00381994  -0.414837 -2.37255 0.00279236  -0.462781 -2.47255 0.00196218  -0.510828 -2.57209 0.00127053  -0.55887 -2.67122 0.000698328  -0.606927 -2.77001 0.00025034  -0.654889 -2.86855 -0.00011301  0 0 0  -0.029716 -0.0291291 -0.0366611  -0.068399 -0.041784 -0.0557396  -0.107346 -0.0664946 -0.0600269  -0.146009 -0.101898 -0.0574858  -0.18491 -0.145774 -0.0522318  -0.224223 -0.196491 -0.0462415  -0.264089 -0.252981 -0.0404856  -0.304629 -0.314442 -0.0352809  -0.345931 -0.380389 -0.0307457  -0.388123 -0.450408 -0.0268087  -0.431207 -0.524109 -0.0233769  -0.475204 -0.601158 -0.0203655  -0.520071 -0.681342 -0.01772  -0.565793 -0.764289 -0.0153425  -0.612296 -0.849739 -0.0132058  -0.659487 -0.937417 -0.0113056  -0.707304 -1.02711 -0.00958276  -0.755635 -1.11856 -0.00804877  -0.804411 -1.21155 -0.00665951  -0.853496 -1.30592 -0.00542855  -0.90282 -1.40139 -0.00433087  -0.952292 -1.49784 -0.00339031  -1.00185 -1.59509 -0.00253773  -1.05138 -1.69302 -0.00181293  -1.10087 -1.79144 -0.00121117  -1.15021 -1.89022 -0.000709534  -1.19941 -1.98926 -0.000362873  -1.24842 -2.08845 -7.55787e-05  -1.29718 -2.18767 9.77516e-05  -1.34577 -2.28684 0.000161648  -1.39418 -2.38584 0.000143528  -1.44253 -2.48469 0.000128508  0 0 0  -0.0128198 -0.00867355 -0.0250912  -0.0389449 -0.0294258 -0.0394793  -0.0665464 -0.0595974 -0.0428197  -0.0948212 -0.100085 -0.0413764  -0.125118 -0.148847 -0.0378294  -0.15748 -0.204227 -0.0336256  -0.191719 -0.265073 -0.029449  -0.227631 -0.330643 -0.0256352  -0.265112 -0.400419 -0.0222547  -0.30405 -0.473985 -0.0193212  -0.344388 -0.550996 -0.0167665  -0.38606 -0.63112 -0.0145144  -0.428971 -0.714045 -0.0125394  -0.473037 -0.799497 -0.0108087  -0.518146 -0.88719 -0.00923586  -0.564194 -0.976874 -0.00785065  -0.611053 -1.06834 -0.00657988  -0.65862 -1.16131 -0.00547194  -0.706758 -1.25562 -0.00448012  -0.755364 -1.35108 -0.00358033  -0.804325 -1.44749 -0.00280666  -0.853533 -1.54471 -0.00212836  -0.902896 -1.64257 -0.00154114  -0.952344 -1.74094 -0.00103521  -1.00177 -1.8397 -0.000635386  -1.05114 -1.93869 -0.000299931  -1.10038 -2.03785 -6.91414e-05  -1.14945 -2.13707 9.13143e-05  -1.19831 -2.23627 0.000181675  -1.24697 -2.33534 0.000203609  -1.29543 -2.43425 0.000172853  -1.34375 -2.53297 0.000152588  0 0 0  -0.00584158 -0.00279047 -0.0158417  -0.0189872 -0.0240964 -0.0251536  -0.0354091 -0.0579119 -0.0276337  -0.0540265 -0.101658 -0.026825  -0.0755616 -0.153758 -0.0245616  -0.100217 -0.212645 -0.0217898  -0.127833 -0.277107 -0.0189886  -0.158128 -0.346289 -0.0163832  -0.190839 -0.41958 -0.0140922  -0.225746 -0.496531 -0.0120664  -0.262664 -0.576707 -0.0103312  -0.301415 -0.659775 -0.00881386  -0.341848 -0.745421 -0.00747824  -0.38378 -0.833375 -0.00633764  -0.427103 -0.923301 -0.00531507  -0.471636 -1.015 -0.00440383  -0.517237 -1.10824 -0.00359797  -0.563735 -1.2028 -0.00289917  -0.610992 -1.29847 -0.00227475  -0.658879 -1.3951 -0.00171828  -0.707256 -1.49251 -0.00126553  -0.756012 -1.59055 -0.000863791  -0.805028 -1.68908 -0.000528574  -0.854193 -1.78799 -0.000239611  -0.903429 -1.88717 -4.64916e-05  -0.952656 -1.98647 0.000112295  -1.00183 -2.08584 0.00023365  -1.05084 -2.18519 0.000283718  -1.09969 -2.28444 0.000281334  -1.14834 -2.38353 0.000256777  -1.19678 -2.48242 0.000212908  -1.24504 -2.58109 0.000153542  0 0 0  -0.00096859 -0.00298911 -0.00712371  -0.00427242 -0.0250759 -0.0117984  -0.0103148 -0.0608229 -0.0133996  -0.0194798 -0.106964 -0.0131667  -0.0323799 -0.161572 -0.0119982  -0.0491958 -0.223169 -0.0104666  -0.0698466 -0.290557 -0.00887489  -0.0940419 -0.362806 -0.00739598  -0.121489 -0.439226 -0.00606298  -0.151859 -0.519207 -0.00493407  -0.184876 -0.602356 -0.00395107  -0.220284 -0.688205 -0.00314665  -0.257846 -0.776461 -0.0024581  -0.297339 -0.866798 -0.00186586  -0.338547 -0.958908 -0.00136709  -0.381287 -1.05259 -0.000957727  -0.425353 -1.14759 -0.000596285  -0.470564 -1.2437 -0.000305891  -0.516733 -1.34074 -5.88894e-05  -0.563723 -1.43856 0.000147104  -0.61135 -1.53697 0.000304461  -0.659496 -1.63587 0.000428438  -0.708005 -1.7351 0.000528336  -0.756785 -1.83457 0.000587463  -0.805709 -1.93418 0.000605583  -0.854707 -2.03385 0.000596046  -0.903679 -2.13347 0.000566006  -0.95258 -2.23299 0.000490189  -1.00134 -2.33235 0.000401258  -1.04992 -2.43151 0.0002985  -1.0983 -2.53042 0.000202179  -1.14644 -2.629 0.000117779  0 0 0  0.00320251 -0.00621164 0.00127983  0.00846389 -0.0305311 0.000776768  0.0118936 -0.0681354 1.93119e-05  0.0117595 -0.116113 -0.000186682  0.00729483 -0.172687 3.50475e-05  -0.001818 -0.236457 0.000486135  -0.0155023 -0.306269 0.00100923  -0.0334877 -0.381132 0.00149226  -0.0554514 -0.460284 0.00190043  -0.0810188 -0.543028 0.00220704  -0.109871 -0.628853 0.00241327  -0.14167 -0.717306 0.00254583  -0.176117 -0.80799 0.00260758  -0.212927 -0.900577 0.00261807  -0.251817 -0.994774 0.00258493  -0.292567 -1.09034 0.00253177  -0.33493 -1.18701 0.00242305  -0.378678 -1.28463 0.00231552  -0.423622 -1.38299 0.00218654  -0.469558 -1.48194 0.00205708  -0.51631 -1.58133 0.00190687  -0.56372 -1.68105 0.00175047  -0.611645 -1.78097 0.00158095  -0.659915 -1.88101 0.00142002  -0.708452 -1.98108 0.00124526  -0.757124 -2.08108 0.0010643  -0.805865 -2.18095 0.000897884  -0.854558 -2.28067 0.000716448  -0.90319 -2.38014 0.000530958  -0.951657 -2.47938 0.000366211  -0.999964 -2.57831 0.000182867  -1.04799 -2.67688 1.74046e-05  0 0 0  0.00744341 -0.0117764 0.00927567  0.0211582 -0.0397387 0.0124211  0.0336542 -0.0794625 0.0125079  0.0421312 -0.129017 0.0120628  0.045674 -0.187194 0.0115774  0.043992 -0.252802 0.0111454  0.037114 -0.324687 0.0107224  0.0252672 -0.401855 0.0102992  0.00878537 -0.483418 0.00981808  -0.0119224 -0.568662 0.0093112  -0.0365286 -0.65694 0.00880003  -0.0646136 -0.747761 0.00824594  -0.0957944 -0.840709 0.00768828  -0.129786 -0.935389 0.00711918  -0.166236 -1.03153 0.00655818  -0.204885 -1.12884 0.0060277  -0.245428 -1.2271 0.00547504  -0.287609 -1.32611 0.00496459  -0.331212 -1.4257 0.00445962  -0.376014 -1.5257 0.00396919  -0.421808 -1.62602 0.0035162  -0.468404 -1.7265 0.00307775  -0.515646 -1.82707 0.00266385  -0.563383 -1.92761 0.00226688  -0.611464 -2.02808 0.0019021  -0.65977 -2.1284 0.00157142  -0.70821 -2.2285 0.00122809  -0.756697 -2.32837 0.000947714  -0.805154 -2.42796 0.00066328  -0.853489 -2.52724 0.000413418  -0.901702 -2.62618 0.00017786  -0.949697 -2.72476 -5.67436e-05  0 0 0  0.012606 -0.02018 0.0164511  0.0354503 -0.0528461 0.0228038  0.0568598 -0.0945569 0.0239398  0.073432 -0.145419 0.0236123  0.08456 -0.205005 0.0226734  0.0899475 -0.272258 0.0215034  0.0895852 -0.346064 0.0202653  0.0836916 -0.425347 0.0189636  0.0725759 -0.509138 0.0176787  0.0566297 -0.59665 0.0163958  0.036262 -0.687188 0.015157  0.0119194 -0.780205 0.0139303  -0.0160124 -0.875223 0.0127509  -0.0471454 -0.971844 0.0116088  -0.0811164 -1.06974 0.0105226  -0.117598 -1.16866 0.00950408  -0.156276 -1.26836 0.00851321  -0.196846 -1.36864 0.00758433  -0.23908 -1.46935 0.0067184  -0.282698 -1.5703 0.00590277  -0.327486 -1.67143 0.00512147  -0.373245 -1.77257 0.00439548  -0.419778 -1.87368 0.0037353  -0.466935 -1.97466 0.00312304  -0.514535 -2.07546 0.00254464  -0.562471 -2.17601 0.00202775  -0.610608 -2.2763 0.00156832  -0.658847 -2.37628 0.00115108  -0.707119 -2.4759 0.000800848  -0.755332 -2.57519 0.000476122  -0.803457 -2.67412 0.000185251  -0.851418 -2.77274 -0.000100851  0 0 0  0.0197656 -0.0336525 0.0221269  0.0533759 -0.0702068 0.0317786  0.0829865 -0.112912 0.0344603  0.107042 -0.164931 0.0344932  0.125325 -0.225896 0.0332816  0.137437 -0.294835 0.0315149  0.143334 -0.370543 0.0295138  0.143147 -0.451884 0.0274413  0.137193 -0.537823 0.0253735  0.125861 -0.627485 0.0233459  0.109603 -0.720129 0.0214002  0.0888748 -0.81516 0.0195208  0.0641344 -0.912066 0.0177341  0.0357894 -1.01044 0.0160484  0.0042696 -1.10996 0.0144465  -0.030091 -1.21033 0.0129335  -0.0668902 -1.31129 0.0115094  -0.105881 -1.41269 0.0101712  -0.146733 -1.51434 0.00894213  -0.189165 -1.61613 0.00778151  -0.232949 -1.71791 0.00668669  -0.277862 -1.81962 0.00569177  -0.323699 -1.92113 0.00477409  -0.370278 -2.02244 0.00392342  -0.417412 -2.12344 0.00316906  -0.464988 -2.22414 0.00248146  -0.512824 -2.32449 0.00188971  -0.560856 -2.42446 0.0013628  -0.608979 -2.52406 0.000914812  -0.657074 -2.6233 0.000527859  -0.70514 -2.72219 0.00019145  -0.753109 -2.82079 -0.00011301  0 0 0  0.033063 -0.0568238 0.0272233  0.0762929 -0.0902933 0.0406485  0.112431 -0.133858 0.0445988  0.143791 -0.187127 0.0448487  0.169078 -0.249731 0.043298  0.187734 -0.320586 0.040977  0.199627 -0.398337 0.0383043  0.204901 -0.481774 0.0355201  0.203832 -0.569851 0.0327415  0.196896 -0.661571 0.0300317  0.184527 -0.756229 0.027421  0.167234 -0.853136 0.0249257  0.145502 -0.951752 0.0225668  0.119849 -1.05173 0.0203476  0.0906466 -1.15265 0.0182459  0.0583441 -1.25428 0.0162635  0.0232916 -1.35634 0.0144315  -0.0141606 -1.45868 0.0127103  -0.0536637 -1.56114 0.0111034  -0.0949676 -1.66356 0.00962019  -0.137794 -1.76586 0.00823927  -0.181906 -1.86792 0.00695562  -0.227064 -1.96972 0.00576997  -0.273097 -2.07119 0.00472307  -0.319821 -2.17227 0.00377584  -0.36706 -2.27294 0.00290895  -0.414662 -2.37321 0.00216246  -0.462558 -2.47306 0.00151896  -0.510574 -2.57251 0.00100183  -0.558646 -2.67155 0.000569344  -0.606678 -2.7703 0.000236988  -0.65469 -2.86893 -9.17912e-05  0 0 0  -0.032437 -0.0386275 -0.0222394  -0.0705264 -0.0561933 -0.034308  -0.109776 -0.0820717 -0.0392776  -0.149868 -0.115744 -0.0388076  -0.189859 -0.157406 -0.0357659  -0.229791 -0.206021 -0.0318301  -0.269847 -0.260691 -0.0278578  -0.310268 -0.320725 -0.0242145  -0.351298 -0.385527 -0.0210254  -0.393113 -0.454676 -0.01824  -0.435759 -0.527688 -0.0158627  -0.479314 -0.604224 -0.013787  -0.523776 -0.683907 -0.0119641  -0.569088 -0.766471 -0.0103486  -0.615208 -0.851602 -0.0089066  -0.662056 -0.93901 -0.00761294  -0.709556 -1.02844 -0.00647235  -0.757583 -1.11969 -0.00542688  -0.80606 -1.21249 -0.00448132  -0.854896 -1.30666 -0.0036459  -0.903982 -1.402 -0.00290442  -0.953253 -1.49835 -0.00227666  -1.00263 -1.5955 -0.00171494  -1.05199 -1.69333 -0.00124264  -1.1013 -1.79167 -0.000827074  -1.15054 -1.89042 -0.000492573  -1.1996 -1.98941 -0.000249386  -1.24852 -2.08856 -7.12872e-05  -1.29726 -2.18774 3.19481e-05  -1.34579 -2.28687 7.55787e-05  -1.39423 -2.38588 9.53674e-05  -1.44256 -2.48472 7.41482e-05  0 0 0  -0.012403 -0.014873 -0.0153456  -0.038241 -0.0402967 -0.0247695  -0.0677313 -0.0717445 -0.0285106  -0.0983635 -0.111475 -0.0282993  -0.130201 -0.158777 -0.0261612  -0.163342 -0.212587 -0.0233099  -0.197821 -0.272027 -0.0203528  -0.233625 -0.336393 -0.0176296  -0.27079 -0.405217 -0.0152225  -0.309324 -0.477985 -0.0131595  -0.349215 -0.554361 -0.0113642  -0.390415 -0.633962 -0.00979686  -0.432881 -0.716453 -0.00845146  -0.476525 -0.801531 -0.00726771  -0.521244 -0.888912 -0.00620508  -0.566913 -0.978336 -0.00526309  -0.613434 -1.06955 -0.00440907  -0.660686 -1.16233 -0.00365853  -0.708537 -1.25648 -0.00299287  -0.756881 -1.35178 -0.00239062  -0.805594 -1.44806 -0.00187445  -0.854589 -1.54515 -0.00142002  -0.903758 -1.64294 -0.00102758  -0.953017 -1.74122 -0.00068903  -1.00229 -1.8399 -0.000430584  -1.05151 -1.93887 -0.000198126  -1.10063 -2.03798 -4.50611e-05  -1.1496 -2.13716 5.48363e-05  -1.19841 -2.23633 0.00010252  -1.24703 -2.33538 0.000133276  -1.29547 -2.4343 0.000114202  -1.3438 -2.53302 9.89437e-05  0 0 0  -0.00560343 -0.00748572 -0.0096941  -0.0185984 -0.0320993 -0.0160184  -0.0365402 -0.0675416 -0.0186489  -0.057225 -0.111379 -0.0185704  -0.0802039 -0.162711 -0.0171545  -0.105641 -0.220496 -0.0152256  -0.133541 -0.283842 -0.0132101  -0.163783 -0.352022 -0.0113378  -0.196243 -0.424453 -0.00966763  -0.230777 -0.500642 -0.00824356  -0.267257 -0.580211 -0.00701928  -0.305595 -0.662762 -0.00596261  -0.345593 -0.747975 -0.0050509  -0.387145 -0.835536 -0.0042541  -0.430102 -0.925159 -0.00355744  -0.474281 -1.01659 -0.002949  -0.519543 -1.10959 -0.00239491  -0.565736 -1.20394 -0.00193787  -0.612731 -1.29943 -0.00151539  -0.660357 -1.39591 -0.00115538  -0.708499 -1.49318 -0.000827074  -0.757041 -1.59109 -0.000579119  -0.805869 -1.68953 -0.00034523  -0.854861 -1.78835 -0.000163794  -0.903944 -1.88743 -3.17097e-05  -0.953035 -1.9867 8.70228e-05  -1.00208 -2.08601 0.000160933  -1.05101 -2.18532 0.000190973  -1.0998 -2.28454 0.000200748  -1.14839 -2.38362 0.000167608  -1.19681 -2.4825 0.000130415  -1.24505 -2.58113 9.75132e-05  0 0 0  -0.00116941 -0.00660658 -0.00455308  -0.00489667 -0.0314732 -0.00776315  -0.0120519 -0.0688951 -0.00928259  -0.022636 -0.115583 -0.00935936  -0.0366127 -0.169891 -0.00861049  -0.0540457 -0.230765 -0.00750399  -0.0749373 -0.297281 -0.00632763  -0.0991185 -0.368676 -0.00523138  -0.126368 -0.444292 -0.00425482  -0.156427 -0.523595 -0.00341916  -0.189086 -0.606116 -0.00274348  -0.224113 -0.691467 -0.00216126  -0.261302 -0.779274 -0.00168252  -0.300434 -0.869216 -0.00128078  -0.341314 -0.961015 -0.000932217  -0.383735 -1.0544 -0.000650883  -0.427503 -1.14913 -0.000404358  -0.472424 -1.24502 -0.000196457  -0.518346 -1.34188 -2.67029e-05  -0.565082 -1.43951 0.000101805  -0.612501 -1.53777 0.000213385  -0.660442 -1.63653 0.000291348  -0.708781 -1.73565 0.000354528  -0.75738 -1.83503 0.000393629  -0.806182 -1.93455 0.000411749  -0.855047 -2.03414 0.00039506  -0.90391 -2.13371 0.000379324  -0.95272 -2.23319 0.000333786  -1.00141 -2.33251 0.000270128  -1.04994 -2.43164 0.000205994  -1.09831 -2.53055 0.000131607  -1.14643 -2.62915 5.74589e-05  0 0 0  0.00249006 -0.00912899 0.000361204  0.00677535 -0.0359895 7.86781e-05  0.00940832 -0.0753245 -0.000412703  0.00850332 -0.124049 -0.000591278  0.00337768 -0.180599 -0.000430346  -0.00613827 -0.243891 -6.29425e-05  -0.0199841 -0.313007 0.000374079  -0.0379404 -0.387136 0.000757933  -0.0597327 -0.465544 0.00109363  -0.0850698 -0.547643 0.00135565  -0.113629 -0.632887 0.00151086  -0.145109 -0.720824 0.00163198  -0.179245 -0.811054 0.0016923  -0.215727 -0.903265 0.00171757  -0.254317 -0.997113 0.00169683  -0.294778 -1.09237 0.00166893  -0.336869 -1.18879 0.00160122  -0.380362 -1.28615 0.00153923  -0.425065 -1.3843 0.00146198  -0.470792 -1.48306 0.00136662  -0.517334 -1.5823 0.00126553  -0.564563 -1.68185 0.00117922  -0.612307 -1.78166 0.00105834  -0.660436 -1.88159 0.000948191  -0.708844 -1.98154 0.000825405  -0.757403 -2.08147 0.000708818  -0.806032 -2.18128 0.000605822  -0.854652 -2.28092 0.000488043  -0.903215 -2.38035 0.00035882  -0.951656 -2.47955 0.00023222  -0.99993 -2.57847 0.000132561  -1.04799 -2.67705 1.21593e-05  0 0 0  0.00626391 -0.0143591 0.00495458  0.0184629 -0.0447983 0.00739574  0.0304803 -0.0862386 0.00786901  0.0387095 -0.136586 0.00769114  0.0419978 -0.19483 0.00740194  0.0401331 -0.260082 0.00715399  0.0331748 -0.331415 0.0069232  0.0213763 -0.407918 0.00667906  0.00503147 -0.488838 0.00640535  -0.0154839 -0.573462 0.00610304  -0.039834 -0.661188 0.00577521  -0.0676416 -0.751516 0.00542307  -0.0985743 -0.844001 0.00506949  -0.13228 -0.938297 0.00470114  -0.168474 -1.03407 0.00434732  -0.206845 -1.13108 0.00399351  -0.247144 -1.22906 0.00363016  -0.289102 -1.32783 0.00330186  -0.332498 -1.42719 0.00296926  -0.377096 -1.527 0.00266004  -0.422702 -1.62713 0.0023334  -0.469129 -1.72745 0.00205708  -0.516218 -1.82787 0.00176334  -0.563809 -1.92829 0.00149703  -0.61178 -2.02865 0.00126648  -0.659984 -2.12886 0.00103736  -0.708342 -2.22889 0.000823736  -0.756747 -2.32868 0.000626802  -0.80514 -2.42822 0.000446081  -0.85345 -2.52744 0.000275373  -0.901642 -2.62638 0.000131607  -0.949621 -2.725 -3.19481e-05  0 0 0  0.0109814 -0.0230064 0.00900507  0.0319136 -0.058092 0.0138986  0.0532086 -0.101314 0.0154424  0.0699277 -0.152822 0.0154274  0.081066 -0.212438 0.0148838  0.0864341 -0.2794 0.0141299  0.0860872 -0.352711 0.0133224  0.0802575 -0.431401 0.012491  0.0692689 -0.514614 0.0116532  0.053491 -0.60156 0.0108411  0.033338 -0.69157 0.0100152  0.00920784 -0.784094 0.00923157  -0.0184847 -0.878676 0.00845242  -0.0493745 -0.974896 0.00769448  -0.0831171 -1.07245 0.00700116  -0.119365 -1.17106 0.00631046  -0.157817 -1.27047 0.00565624  -0.198183 -1.3705 0.00503612  -0.240216 -1.47096 0.00446701  -0.283638 -1.57173 0.00391936  -0.328257 -1.67265 0.00339031  -0.373857 -1.77363 0.00292492  -0.420246 -1.87458 0.00247836  -0.467272 -1.97543 0.00206518  -0.514776 -2.07611 0.00169945  -0.562609 -2.17655 0.00135708  -0.610664 -2.27675 0.00104141  -0.658844 -2.37663 0.000769377  -0.707061 -2.4762 0.000527382  -0.755246 -2.57544 0.000316143  -0.80336 -2.67435 0.000135422  -0.851329 -2.77297 -5.76973e-05  0 0 0  0.0178071 -0.0376355 0.0123651  0.0493772 -0.0763699 0.0196159  0.0791035 -0.119995 0.0223207  0.103489 -0.172308 0.02265  0.121949 -0.233186 0.0219405  0.134156 -0.301785 0.0208049  0.140112 -0.377035 0.0195065  0.140007 -0.457835 0.018147  0.134172 -0.54321 0.0167806  0.122982 -0.632339 0.0154562  0.106905 -0.724495 0.0141749  0.0863756 -0.81905 0.0129392  0.0618457 -0.915549 0.0117655  0.0337303 -1.01355 0.0106463  0.0024122 -1.11272 0.00958228  -0.031719 -1.21276 0.00859308  -0.0683219 -1.31346 0.00766253  -0.107113 -1.41461 0.0067718  -0.147754 -1.51601 0.0059514  -0.190013 -1.6176 0.00516725  -0.233645 -1.71918 0.00445819  -0.27841 -1.82071 0.00380778  -0.324102 -1.92208 0.00318122  -0.370557 -2.02323 0.00262356  -0.417598 -2.12413 0.0021112  -0.465066 -2.22471 0.00165892  -0.512852 -2.32494 0.00126076  -0.560819 -2.42484 0.000906944  -0.608883 -2.52438 0.000613928  -0.656958 -2.62355 0.000359535  -0.704998 -2.72243 0.000127077  -0.752992 -2.82105 -7.51019e-05  0 0 0  0.0314516 -0.062883 0.0156476  0.0725818 -0.0978644 0.0251532  0.108442 -0.141511 0.0287735  0.140129 -0.194566 0.0293376  0.16556 -0.256866 0.0284734  0.184354 -0.327267 0.0270381  0.196347 -0.404542 0.0252974  0.201711 -0.487447 0.023479  0.200775 -0.574961 0.0216768  0.193981 -0.666182 0.0199094  0.181802 -0.760348 0.0181916  0.164708 -0.856797 0.0165656  0.143188 -0.955045 0.015002  0.117746 -1.05465 0.0135207  0.088768 -1.15524 0.0121512  0.0566635 -1.25656 0.010843  0.0218356 -1.35835 0.00962758  -0.0154109 -1.46046 0.00847173  -0.0547297 -1.56269 0.00741076  -0.0958455 -1.6649 0.0064187  -0.138496 -1.76702 0.00549459  -0.182447 -1.86894 0.00465369  -0.22749 -1.97056 0.00386024  -0.273381 -2.07189 0.00317693  -0.31999 -2.17286 0.00253749  -0.367144 -2.27343 0.00196648  -0.414699 -2.37361 0.00148225  -0.46251 -2.47339 0.00105715  -0.510473 -2.57278 0.000691652  -0.558506 -2.67182 0.000402451  -0.606557 -2.77058 0.000165939  -0.654583 -2.86917 -4.8399e-05  0 0 0  -0.0341849 -0.0428864 -0.010601  -0.0725845 -0.0629931 -0.0164907  -0.111597 -0.090283 -0.0191629  -0.151752 -0.123874 -0.0193458  -0.192142 -0.164659 -0.0180867  -0.232416 -0.212173 -0.0161793  -0.272702 -0.265824 -0.0142033  -0.313201 -0.324946 -0.0123296  -0.354171 -0.389053 -0.0106685  -0.395821 -0.457606 -0.00925565  -0.4383 -0.530135 -0.00801563  -0.481645 -0.606286 -0.00696135  -0.52586 -0.685671 -0.00602794  -0.570977 -0.767965 -0.00521708  -0.616884 -0.852879 -0.00449944  -0.663526 -0.940085 -0.00383329  -0.710833 -1.02937 -0.00325727  -0.758694 -1.12048 -0.00273371  -0.807021 -1.21316 -0.00225806  -0.855712 -1.30723 -0.00183392  -0.904655 -1.40249 -0.00146627  -0.9538 -1.49874 -0.00114632  -1.00304 -1.59582 -0.000875711  -1.05232 -1.69359 -0.000632286  -1.10156 -1.79185 -0.000426292  -1.15072 -1.89056 -0.000252724  -1.19974 -1.98952 -0.000153065  -1.2486 -2.08862 -4.91142e-05  -1.29732 -2.18781 1.00136e-05  -1.34584 -2.28693 5.29289e-05  -1.39426 -2.38592 3.98159e-05  -1.44262 -2.48474 1.64509e-05  0 0 0  -0.0123603 -0.0177238 -0.00738168  -0.0385971 -0.0459216 -0.0119889  -0.0686322 -0.0784928 -0.0140235  -0.0999583 -0.118234 -0.0142169  -0.132501 -0.164934 -0.0132957  -0.166162 -0.217942 -0.0119116  -0.200918 -0.27655 -0.0103867  -0.236813 -0.34021 -0.00899506  -0.273906 -0.408386 -0.00774264  -0.312258 -0.480664 -0.00667214  -0.351937 -0.556612 -0.00574636  -0.392899 -0.63586 -0.00494933  -0.435124 -0.718069 -0.00426698  -0.478539 -0.802912 -0.0036521  -0.523025 -0.890081 -0.00310969  -0.568499 -0.979319 -0.00263596  -0.614822 -1.0704 -0.0022099  -0.661889 -1.16305 -0.00183439  -0.709571 -1.25706 -0.00150561  -0.75775 -1.35228 -0.00120473  -0.806329 -1.44848 -0.000943661  -0.855196 -1.54551 -0.000709295  -0.904251 -1.6432 -0.000510693  -0.953415 -1.74145 -0.000342131  -1.0026 -1.84008 -0.000219107  -1.05174 -1.93899 -0.00011301  -1.1008 -2.03807 -3.19481e-05  -1.14972 -2.13724 3.14713e-05  -1.19848 -2.23639 5.4121e-05  -1.24708 -2.33544 6.7234e-05  -1.2955 -2.43433 4.79221e-05  -1.34384 -2.53306 3.55244e-05  0 0 0  -0.00558863 -0.00963505 -0.00467896  -0.018775 -0.0362124 -0.00775623  -0.0372414 -0.0728365 -0.00921679  -0.0587087 -0.117005 -0.0093832  -0.0824502 -0.168085 -0.00876999  -0.108422 -0.225356 -0.00783205  -0.136586 -0.288082 -0.00678205  -0.1669 -0.35566 -0.00580621  -0.199276 -0.427542 -0.00492096  -0.233659 -0.503285 -0.00419354  -0.269953 -0.582455 -0.0035584  -0.308033 -0.664684 -0.00300169  -0.347816 -0.749622 -0.00254321  -0.389143 -0.836938 -0.00213504  -0.431868 -0.926368 -0.00179482  -0.475839 -1.01761 -0.0014925  -0.520907 -1.11046 -0.00120807  -0.566922 -1.20467 -0.000963449  -0.61375 -1.30005 -0.000759602  -0.661227 -1.39642 -0.000578403  -0.709235 -1.49361 -0.000422955  -0.757639 -1.59146 -0.000282764  -0.806356 -1.68981 -0.00017786  -0.855245 -1.78858 -9.70364e-05  -0.904237 -1.88763 -7.62939e-06  -0.953265 -1.98685 5.96046e-05  -1.00224 -2.08612 8.7738e-05  -1.05113 -2.18541 0.000105143  -1.09986 -2.28462 9.72748e-05  -1.14843 -2.38368 6.53267e-05  -1.19685 -2.48257 5.60284e-05  -1.2451 -2.58121 3.8147e-05  0 0 0  -0.00132187 -0.00823215 -0.00223875  -0.0053816 -0.0346248 -0.00381613  -0.0130068 -0.073152 -0.00465322  -0.0242016 -0.120384 -0.00479007  -0.0387658 -0.17472 -0.00446224  -0.05665 -0.235297 -0.00391364  -0.0777703 -0.301379 -0.00329185  -0.101998 -0.372275 -0.0027101  -0.12917 -0.447421 -0.00219655  -0.1591 -0.526294 -0.00176883  -0.191558 -0.608457 -0.00140905  -0.226393 -0.693491 -0.00110221  -0.263366 -0.781008 -0.000849724  -0.302292 -0.870724 -0.00064683  -0.342971 -0.962311 -0.000476837  -0.385196 -1.05551 -0.000322104  -0.428785 -1.1501 -0.000208616  -0.47354 -1.24585 -0.000100851  -0.519325 -1.34258 -1.33514e-05  -0.565911 -1.4401 5.84126e-05  -0.613195 -1.53827 0.000116587  -0.661009 -1.63696 0.000156164  -0.709234 -1.73601 0.000183582  -0.757751 -1.83533 0.000191689  -0.806447 -1.9348 0.000211954  -0.855234 -2.03434 0.000192404  -0.904056 -2.13386 0.00019598  -0.952812 -2.23332 0.000164032  -1.00145 -2.33262 0.000128984  -1.04998 -2.43172 0.000102758  -1.09831 -2.53062 6.38962e-05  -1.14649 -2.62925 4.1008e-05  0 0 0  0.00214636 -0.010406 5.91278e-05  0.00586405 -0.0385854 -7.89165e-05  0.00802708 -0.0789806 -0.000295162  0.00673342 -0.128362 -0.000406742  0.00123632 -0.185085 -0.000326157  -0.00855696 -0.248209 -0.000139475  -0.0225401 -0.317003 8.82149e-05  -0.0405219 -0.390736 0.000306606  -0.0622606 -0.468744 0.000495195  -0.0874745 -0.55045 0.000637531  -0.115865 -0.635334 0.000722885  -0.147182 -0.722965 0.000803947  -0.181114 -0.812929 0.000821352  -0.217417 -0.904889 0.000842094  -0.255831 -0.998535 0.00084424  -0.296111 -1.09361 0.000820637  -0.338047 -1.18986 0.000803709  -0.381379 -1.28709 0.000764608  -0.425941 -1.3851 0.000732422  -0.471526 -1.48375 0.000684977  -0.517964 -1.58288 0.000628471  -0.565072 -1.68236 0.000586748  -0.61271 -1.78208 0.000523806  -0.660758 -1.88193 0.000480413  -0.70909 -1.98183 0.000412464  -0.757579 -2.08171 0.000348091  -0.806152 -2.18147 0.000306129  -0.854735 -2.28108 0.000243902  -0.903246 -2.3805 0.000183344  -0.951658 -2.47967 0.000113964  -0.99992 -2.57858 5.29289e-05  -1.04798 -2.67716 1.43051e-05  0 0 0  0.00572886 -0.0155648 0.00216365  0.0171198 -0.0472167 0.00339532  0.0286711 -0.0896819 0.00376391  0.0367026 -0.140642 0.00375271  0.0398496 -0.19911 0.00362635  0.0378698 -0.264264 0.00350738  0.0308701 -0.335341 0.00339484  0.0190749 -0.411527 0.00328231  0.00279117 -0.492061 0.00316691  -0.0176363 -0.576332 0.00302005  -0.0418363 -0.663731 0.0028646  -0.0694959 -0.753756 0.0026958  -0.100268 -0.845974 0.00252032  -0.133809 -0.940034 0.00235033  -0.16984 -1.03561 0.00216985  -0.208062 -1.13243 0.0019865  -0.248198 -1.23024 0.00180697  -0.290017 -1.32884 0.00164771  -0.333275 -1.42808 0.00147581  -0.377751 -1.52776 0.00133085  -0.423252 -1.6278 0.00117183  -0.469582 -1.72803 0.00103283  -0.516578 -1.82835 0.000877857  -0.564083 -1.92871 0.000747919  -0.611969 -2.02899 0.000631571  -0.660126 -2.12915 0.00051403  -0.708425 -2.22913 0.000408649  -0.756796 -2.32887 0.000322342  -0.805143 -2.42837 0.000221252  -0.85344 -2.52759 0.00014472  -0.901616 -2.62651 5.62668e-05  -0.949607 -2.72512 -1.66893e-05  0 0 0  0.0102793 -0.0244654 0.00403762  0.0302232 -0.0607386 0.00652122  0.0510697 -0.104839 0.00750136  0.0677648 -0.156805 0.00760889  0.0789301 -0.216598 0.00737619  0.0843092 -0.283467 0.00701046  0.0839751 -0.356538 0.00661135  0.0781788 -0.434932 0.00620604  0.0672493 -0.517825 0.00579119  0.0515741 -0.60444 0.00539184  0.0315313 -0.694136 0.00498581  0.00754309 -0.786391 0.00458241  -0.0200088 -0.880702 0.00420785  -0.0507578 -0.976707 0.00383615  -0.0843499 -1.07405 0.00348592  -0.120457 -1.17248 0.00314736  -0.158759 -1.27171 0.00281692  -0.199011 -1.37158 0.00251722  -0.240916 -1.47191 0.00221777  -0.284226 -1.57256 0.00195146  -0.328753 -1.67337 0.00169778  -0.374259 -1.77426 0.00146174  -0.420559 -1.87511 0.00123954  -0.467505 -1.97588 0.00102425  -0.51493 -2.07649 0.000863075  -0.562705 -2.17687 0.00067687  -0.610731 -2.277 0.000532866  -0.658864 -2.37684 0.000393629  -0.707049 -2.47638 0.000268221  -0.755206 -2.57559 0.000157833  -0.803311 -2.67451 7.29561e-05  -0.851285 -2.77313 -2.67029e-05  0 0 0  0.0170346 -0.039599 0.0056684  0.0475313 -0.0796348 0.00930047  0.0768238 -0.123836 0.0109038  0.101236 -0.176359 0.011205  0.119799 -0.237258 0.0108955  0.132067 -0.305728 0.0103428  0.138088 -0.380741 0.00970316  0.13804 -0.461255 0.00901651  0.132266 -0.546342 0.00835705  0.121173 -0.635173 0.00769806  0.105215 -0.727016 0.00707173  0.0848022 -0.821314 0.00646043  0.0604008 -0.917559 0.00585771  0.0324253 -1.01533 0.00531816  0.00124907 -1.1143 0.00479054  -0.0327535 -1.21417 0.00428343  -0.069253 -1.31471 0.00381875  -0.107909 -1.41569 0.00338054  -0.148438 -1.51699 0.00296879  -0.190596 -1.61843 0.00258017  -0.234106 -1.7199 0.00223017  -0.278787 -1.82134 0.00188899  -0.324386 -1.92261 0.00158548  -0.370768 -2.02369 0.00130749  -0.417738 -2.12451 0.00104928  -0.465158 -2.22501 0.00082469  -0.512883 -2.32521 0.000634432  -0.56082 -2.42506 0.000451088  -0.608853 -2.52457 0.000316381  -0.656906 -2.62373 0.00018692  -0.704939 -2.72259 7.08103e-05  -0.752917 -2.82123 -3.40939e-05  0 0 0  0.0310585 -0.0657815 0.00718117  0.0709479 -0.102018 0.0119276  0.106122 -0.145845 0.0140104  0.137747 -0.198813 0.0144701  0.163279 -0.260932 0.0141234  0.182168 -0.331092 0.0134242  0.194245 -0.408076 0.0125682  0.199681 -0.490681 0.0116799  0.198841 -0.577905 0.0107977  0.192135 -0.668838 0.00991559  0.18005 -0.762713 0.00908375  0.163103 -0.858905 0.00825143  0.141723 -0.956901 0.00748134  0.116379 -1.0563 0.00674462  0.0875651 -1.1567 0.00605989  0.0556097 -1.25787 0.00541377  0.0208673 -1.3595 0.00482154  -0.0162282 -1.46147 0.00423908  -0.0554383 -1.56356 0.00372148  -0.0964391 -1.66566 0.00320363  -0.138974 -1.76767 0.00274301  -0.182837 -1.86948 0.00232887  -0.227782 -1.97103 0.00194383  -0.273615 -2.07228 0.00160003  -0.320157 -2.1732 0.00126457  -0.36725 -2.27371 0.000999212  -0.414729 -2.37384 0.000751257  -0.462501 -2.47357 0.000535488  -0.510438 -2.57295 0.00035429  -0.558449 -2.67197 0.000221252  -0.606472 -2.77072 9.60827e-05  -0.65448 -2.86933 -3.57628e-06  0 0 0  -0.034821 -0.0441891 -9.29832e-06  -0.0732754 -0.0650577 -1.64509e-05  -0.112212 -0.0928345 1.00136e-05  -0.152364 -0.126502 -3.33786e-06  -0.192817 -0.1671 -7.15256e-07  -0.233224 -0.214286 5.48363e-06  -0.273571 -0.267587 -1.7643e-05  -0.314116 -0.32643 2.6226e-06  -0.355089 -0.39027 -4.76837e-06  -0.396701 -0.458609 7.15256e-07  -0.439108 -0.530997 1.90735e-05  -0.482381 -0.607003 -5.00679e-06  -0.526544 -0.686303 -5.24521e-06  -0.571578 -0.768506 4.52995e-06  -0.617413 -0.85332 -1.21593e-05  -0.66401 -0.940485 -1.43051e-06  -0.711238 -1.02972 -1.54972e-05  -0.759041 -1.12074 7.15256e-07  -0.807306 -1.21339 -2.38419e-07  -0.855945 -1.30743 3.09944e-06  -0.904875 -1.40264 1.0252e-05  -0.953965 -1.49887 -1.7643e-05  -1.00319 -1.59594 -1.45435e-05  -1.05244 -1.69368 -6.67572e-06  -1.10164 -1.79195 5.96046e-06  -1.15077 -1.89063 2.5034e-05  -1.1998 -1.98956 -8.10623e-06  -1.24864 -2.08867 8.82149e-06  -1.29732 -2.18783 -1.28746e-05  -1.34585 -2.28694 -2.86102e-06  -1.39426 -2.38591 1.45435e-05  -1.44263 -2.48474 -8.82149e-06  0 0 0  -0.0123651 -0.018547 2.38419e-07  -0.0387248 -0.0476362 -2.38419e-07  -0.0689528 -0.0806304 -1.43051e-06  -0.100454 -0.120433 -7.15256e-06  -0.133179 -0.167001 -5.00679e-06  -0.167 -0.219774 -1.19209e-06  -0.201868 -0.278131 6.91414e-06  -0.237799 -0.341524 4.52995e-06  -0.274884 -0.409496 6.19888e-06  -0.313215 -0.481585 -7.86781e-06  -0.35283 -0.557399 -4.76837e-07  -0.393721 -0.636523 -2.14577e-06  -0.435874 -0.718636 -8.58307e-06  -0.479195 -0.803401 7.86781e-06  -0.523614 -0.890498 -9.53674e-07  -0.569007 -0.979687 -6.4373e-06  -0.615269 -1.0707 4.76837e-07  -0.662287 -1.1633 8.82149e-06  -0.709899 -1.25727 -1.19209e-06  -0.758044 -1.35246 -1.12057e-05  -0.806571 -1.44862 0  -0.855392 -1.54562 -4.76837e-07  -0.904402 -1.64331 4.52995e-06  -0.953535 -1.74151 -1.43051e-06  -1.0027 -1.84014 -2.38419e-06  -1.05181 -1.93904 5.72205e-06  -1.10085 -2.03812 0  -1.14976 -2.13728 9.53674e-07  -1.19852 -2.23641 -2.38419e-07  -1.2471 -2.33545 9.29832e-06  -1.29552 -2.43434 8.34465e-06  -1.34386 -2.53308 1.50204e-05  0 0 0  -0.005599 -0.0102545 -1.3113e-05  -0.0188418 -0.0374731 -1.90735e-06  -0.0374795 -0.0745208 3.57628e-06  -0.0591602 -0.118818 6.91414e-06  -0.0831213 -0.169877 6.19888e-06  -0.109269 -0.226985 2.14577e-06  -0.13753 -0.289532 -2.14577e-06  -0.16788 -0.356909 8.82149e-06  -0.200262 -0.428613 9.77516e-06  -0.234605 -0.504193 9.53674e-07  -0.27083 -0.583224 2.6226e-06  -0.308841 -0.665346 1.07288e-05  -0.348542 -0.750178 1.43051e-06  -0.389792 -0.837428 3.33786e-06  -0.432446 -0.92678 -4.76837e-07  -0.476354 -1.01797 9.53674e-07  -0.521367 -1.11076 -1.90735e-06  -0.56733 -1.20493 2.38419e-06  -0.614089 -1.30027 -2.38419e-07  -0.66151 -1.3966 1.19209e-06  -0.70948 -1.49376 -5.72205e-06  -0.757847 -1.59158 -5.48363e-06  -0.80652 -1.68993 4.05312e-06  -0.85538 -1.78867 -3.8147e-06  -0.904352 -1.8877 -4.52995e-06  -0.953346 -1.9869 1.07288e-05  -1.0023 -2.08617 -6.19888e-06  -1.05116 -2.18545 -3.57628e-06  -1.09989 -2.28465 -7.15256e-07  -1.14845 -2.38371 -1.45435e-05  -1.19685 -2.48258 -1.16825e-05  -1.24511 -2.58123 0  0 0 0  -0.00137606 -0.00868598 2.38419e-07  -0.00555231 -0.0355821 -1.40667e-05  -0.0133285 -0.0744807 6.19888e-06  -0.0246924 -0.121924 4.52995e-06  -0.039454 -0.176304 -3.57628e-06  -0.0574667 -0.236796 -2.6226e-06  -0.078669 -0.302734 2.6226e-06  -0.102929 -0.373478 -5.48363e-06  -0.130092 -0.448483 -4.05312e-06  -0.15997 -0.527225 -3.09944e-06  -0.192393 -0.609244 -5.48363e-06  -0.22716 -0.694164 -1.66893e-06  -0.264061 -0.781589 -5.72205e-06  -0.302915 -0.871239 1.43051e-06  -0.343531 -0.962756 -5.72205e-06  -0.385693 -1.05589 -1.19209e-06  -0.429216 -1.15042 -2.14577e-06  -0.473918 -1.24612 7.62939e-06  -0.519645 -1.34282 -8.82149e-06  -0.56618 -1.4403 -2.38419e-07  -0.613414 -1.53845 7.15256e-06  -0.661186 -1.6371 2.14577e-06  -0.709387 -1.73612 9.77516e-06  -0.75787 -1.83542 4.76837e-07  -0.806544 -1.93488 4.76837e-07  -0.855313 -2.03441 1.35899e-05  -0.904104 -2.13392 -6.91414e-06  -0.952837 -2.23336 -1.66893e-06  -1.00147 -2.33265 1.04904e-05  -1.04998 -2.43176 5.00679e-06  -1.09832 -2.53063 -1.09673e-05  -1.14649 -2.62926 -2.14577e-06  0 0 0  0.00203699 -0.0107713 -5.72205e-06  0.00557306 -0.0393669 -7.15256e-06  0.00759083 -0.0801139 -9.77516e-06  0.00614828 -0.129718 -1.66893e-06  0.000544071 -0.186526 -4.29153e-06  -0.00932622 -0.24964 -4.76837e-07  -0.0233766 -0.318329 -1.54972e-05  -0.0413684 -0.391925 -3.33786e-06  -0.0631005 -0.469805 2.38419e-07  -0.0882695 -0.551397 2.86102e-06  -0.116618 -0.636164 2.38419e-07  -0.147857 -0.72369 -9.29832e-06  -0.18173 -0.813559 -5.48363e-06  -0.217973 -0.905443 2.6226e-06  -0.256328 -0.999008 4.76837e-07  -0.296565 -1.09402 -1.50204e-05  -0.33843 -1.19022 1.7643e-05  -0.381725 -1.28739 -1.62125e-05  -0.426239 -1.38537 -2.38419e-07  -0.47178 -1.48398 0  -0.51817 -1.58308 -1.38283e-05  -0.565241 -1.68253 -1.35899e-05  -0.612858 -1.78223 2.38419e-06  -0.660867 -1.88205 -2.38419e-06  -0.709168 -1.98193 -8.82149e-06  -0.757641 -2.08179 9.77516e-06  -0.806196 -2.18154 -3.33786e-06  -0.854751 -2.28114 -4.76837e-06  -0.903267 -2.38054 8.34465e-06  -0.951665 -2.47971 1.04904e-05  -0.999926 -2.57861 -2.38419e-07  -1.04799 -2.67722 1.85966e-05  0 0 0  0.00557348 -0.0159137 -5.72205e-06  0.0167145 -0.0479462 -7.39098e-06  0.0280966 -0.090735 7.39098e-06  0.0360566 -0.141922 -6.19888e-06  0.039159 -0.20047 1.21593e-05  0.0371388 -0.265628 3.8147e-06  0.0301013 -0.336629 -4.29153e-06  0.0183048 -0.412697 -3.57628e-06  0.00204039 -0.493137 -4.76837e-07  -0.0183392 -0.577291 -6.67572e-06  -0.0425138 -0.664584 6.4373e-06  -0.0701002 -0.754499 -4.52995e-06  -0.100818 -0.846646 -7.15256e-07  -0.134319 -0.940618 -7.15256e-07  -0.170288 -1.03613 -7.15256e-07  -0.20847 -1.13287 -2.6226e-06  -0.24856 -1.23063 -1.16825e-05  -0.290334 -1.32919 1.00136e-05  -0.333544 -1.42837 1.66893e-06  -0.377982 -1.52803 -3.57628e-06  -0.423432 -1.62801 1.07288e-05  -0.469725 -1.72821 7.39098e-06  -0.516703 -1.82853 0  -0.564186 -1.92884 6.4373e-06  -0.612052 -2.0291 4.29153e-06  -0.66018 -2.12924 1.45435e-05  -0.708449 -2.2292 -2.14577e-06  -0.756786 -2.32896 -2.6226e-06  -0.805149 -2.42844 -2.14577e-06  -0.853431 -2.52765 9.29832e-06  -0.901617 -2.62656 -1.0252e-05  -0.949608 -2.72518 -6.4373e-06  0 0 0  0.0100804 -0.024895 7.86781e-06  0.029723 -0.0615525 1.3113e-05  0.0503951 -0.105922 -8.10623e-06  0.0670511 -0.158082 -7.15256e-06  0.0782254 -0.217921 -1.19209e-06  0.0835925 -0.284776 -7.15256e-06  0.0832686 -0.357797 -5.72205e-06  0.0774807 -0.43611 2.38419e-06  0.0665687 -0.518886 1.28746e-05  0.0509226 -0.605399 -9.53674e-07  0.0309343 -0.695004 -5.72205e-06  0.00699019 -0.787156 3.57628e-06  -0.0205197 -0.881373 4.05312e-06  -0.0512263 -0.977292 -8.10623e-06  -0.0847685 -1.07458 1.19209e-06  -0.12083 -1.17292 -6.19888e-06  -0.15909 -1.27212 1.90735e-06  -0.199293 -1.37196 -1.90735e-06  -0.241153 -1.47224 -2.14577e-06  -0.284441 -1.57282 1.04904e-05  -0.328925 -1.6736 -1.43051e-06  -0.374385 -1.77445 -2.38419e-06  -0.420672 -1.87529 2.38419e-07  -0.467577 -1.97604 -8.34465e-06  -0.51499 -2.07661 7.86781e-06  -0.562747 -2.17698 5.24521e-06  -0.610746 -2.27709 2.38419e-07  -0.658883 -2.37691 -4.52995e-06  -0.707049 -2.47643 1.43051e-06  -0.755207 -2.57564 -5.24521e-06  -0.803301 -2.67456 4.76837e-06  -0.851291 -2.77319 1.00136e-05  0 0 0  0.0168372 -0.0401609 -9.05991e-06  0.0470028 -0.0806445 -5.48363e-06  0.076098 -0.125049 2.14577e-06  0.100463 -0.177663 -9.53674e-07  0.119056 -0.238579 4.76837e-06  0.131367 -0.307006 7.86781e-06  0.137405 -0.381954 -3.33786e-06  0.137374 -0.462376 -5.24521e-06  0.131624 -0.547358 -5.48363e-06  0.120562 -0.636085 4.05312e-06  0.104628 -0.727857 -4.76837e-07  0.0842788 -0.822051 -1.43051e-06  0.0599113 -0.918215 -1.09673e-05  0.0319672 -1.01592 -6.67572e-06  0.000843644 -1.11481 -1.43051e-06  -0.0331174 -1.21462 -3.57628e-06  -0.0695546 -1.3151 -4.05312e-06  -0.108176 -1.41604 0  -0.14867 -1.51729 1.66893e-06  -0.190778 -1.6187 -4.52995e-06  -0.234268 -1.72015 -2.14577e-06  -0.278905 -1.82154 8.10623e-06  -0.324495 -1.92278 -1.43051e-06  -0.370833 -2.02383 -7.62939e-06  -0.417787 -2.12461 -8.58307e-06  -0.465178 -2.22511 -5.00679e-06  -0.512906 -2.32528 5.72205e-06  -0.560823 -2.42514 -3.57628e-06  -0.608852 -2.52462 -1.00136e-05  -0.656878 -2.62379 -9.29832e-06  -0.704921 -2.72265 2.38419e-07  -0.75291 -2.82127 -4.76837e-07  0 0 0  0.0309898 -0.0666634 8.82149e-06  0.0705072 -0.103301 5.24521e-06  0.10538 -0.147255 5.96046e-06  0.136926 -0.200179 -5.96046e-06  0.162501 -0.262248 -7.86781e-06  0.181425 -0.332334 4.29153e-06  0.19352 -0.409216 -2.6226e-06  0.198991 -0.491729 -1.14441e-05  0.198157 -0.578866 7.86781e-06  0.191487 -0.66969 -6.4373e-06  0.179455 -0.76349 2.6226e-06  0.162528 -0.859593 4.76837e-06  0.1412 -0.957532 -8.34465e-06  0.115917 -1.05684 -1.00136e-05  0.0871433 -1.15719 -1.12057e-05  0.0552146 -1.25828 1.62125e-05  0.0205564 -1.35986 5.48363e-06  -0.0164976 -1.46178 9.29832e-06  -0.0556757 -1.56384 -2.6226e-06  -0.0966492 -1.6659 -9.53674e-07  -0.139156 -1.76787 -1.64509e-05  -0.182992 -1.86964 -1.90735e-06  -0.227907 -1.9712 3.09944e-06  -0.273712 -2.0724 -3.8147e-06  -0.320214 -2.17328 2.14577e-06  -0.367265 -2.27379 2.02656e-05  -0.414753 -2.37391 1.83582e-05  -0.462495 -2.47362 7.86781e-06  -0.510433 -2.573 -7.15256e-06  -0.55843 -2.67203 -2.38419e-07  -0.606461 -2.77079 7.15256e-06  -0.654447 -2.86941 4.29153e-06  0 0 0  -0.0341877 -0.042896 0.0106111  -0.072567 -0.0629693 0.0164924  -0.111601 -0.0902823 0.0191894  -0.151754 -0.123876 0.0193524  -0.192132 -0.164661 0.0180674  -0.232424 -0.212176 0.0161843  -0.272706 -0.265828 0.0141883  -0.313204 -0.324968 0.0123186  -0.354186 -0.389054 0.0106688  -0.395851 -0.45758 0.00928879  -0.438278 -0.530122 0.00802851  -0.481628 -0.606289 0.00697803  -0.525854 -0.685667 0.00602341  -0.570969 -0.76798 0.00522184  -0.616869 -0.852865 0.00447369  -0.66353 -0.940093 0.0038147  -0.710831 -1.02937 0.00324059  -0.758675 -1.12048 0.00273752  -0.807005 -1.21316 0.00225353  -0.855682 -1.30722 0.00185108  -0.904641 -1.40247 0.00147343  -0.953798 -1.49873 0.00113201  -1.00306 -1.59581 0.000863075  -1.0523 -1.69357 0.00060463  -1.10156 -1.79188 0.000428677  -1.15074 -1.89056 0.000273705  -1.19974 -1.98951 0.000125885  -1.24859 -2.08863 4.14848e-05  -1.29731 -2.1878 -6.67572e-06  -1.34584 -2.28691 -3.52859e-05  -1.39426 -2.38592 -2.52724e-05  -1.44262 -2.48474 -3.8147e-05  0 0 0  -0.0123622 -0.0177154 0.00737715  -0.0385919 -0.0459123 0.0119858  -0.0686221 -0.0784935 0.0140214  -0.099953 -0.118243 0.0142241  -0.132503 -0.164937 0.0133033  -0.166171 -0.217949 0.0119061  -0.200928 -0.276563 0.0103922  -0.236815 -0.340212 0.00898361  -0.273909 -0.408398 0.00773859  -0.312267 -0.480657 0.00666142  -0.351941 -0.556618 0.00574303  -0.392905 -0.635865 0.00494957  -0.435135 -0.718069 0.00424814  -0.478533 -0.802912 0.003654  -0.523032 -0.890095 0.0031147  -0.568497 -0.979344 0.00264788  -0.614825 -1.0704 0.00222874  -0.661891 -1.16305 0.00185061  -0.709558 -1.25708 0.00149298  -0.757754 -1.35228 0.00121546  -0.806339 -1.44847 0.000941277  -0.855198 -1.5455 0.000708103  -0.904255 -1.6432 0.000515461  -0.953405 -1.74144 0.000348568  -1.00259 -1.84007 0.000217438  -1.05174 -1.939 9.77516e-05  -1.1008 -2.03809 2.90871e-05  -1.14972 -2.13724 -2.43187e-05  -1.19849 -2.23639 -5.00679e-05  -1.24706 -2.33543 -5.91278e-05  -1.29551 -2.43433 -5.05447e-05  -1.34383 -2.53307 -2.67029e-05  0 0 0  -0.0055982 -0.00962658 0.00466871  -0.0187621 -0.0362213 0.00776005  -0.0372197 -0.0728374 0.00922585  -0.0586987 -0.117001 0.0093894  -0.0824476 -0.168085 0.00877857  -0.108418 -0.22536 0.00782251  -0.136586 -0.288086 0.00678205  -0.166896 -0.355666 0.00580692  -0.199281 -0.427552 0.00494337  -0.233665 -0.503291 0.004179  -0.269953 -0.582454 0.0035491  -0.308037 -0.664689 0.00301361  -0.347815 -0.749613 0.0025425  -0.389147 -0.836945 0.00213909  -0.431856 -0.926368 0.00179672  -0.475837 -1.01762 0.00147629  -0.520909 -1.11046 0.00120354  -0.566934 -1.20468 0.000966072  -0.61375 -1.30006 0.000753403  -0.661234 -1.39643 0.000567913  -0.709229 -1.49361 0.000422955  -0.757655 -1.59145 0.000292301  -0.80636 -1.68983 0.000179768  -0.855261 -1.78858 6.48499e-05  -0.904254 -1.88763 1.28746e-05  -0.953265 -1.98684 -5.05447e-05  -1.00225 -2.08615 -7.72476e-05  -1.05113 -2.18541 -9.25064e-05  -1.09985 -2.28462 -0.000104904  -1.14843 -2.38369 -8.7738e-05  -1.19684 -2.48257 -5.67436e-05  -1.2451 -2.58121 -4.52995e-05  0 0 0  -0.00131503 -0.0082278 0.00222921  -0.00538765 -0.0346213 0.00380659  -0.0130136 -0.0731498 0.00465822  -0.0242093 -0.120384 0.00479746  -0.0387729 -0.174722 0.00446796  -0.0566458 -0.235303 0.00389433  -0.0777689 -0.301367 0.00328398  -0.102003 -0.37227 0.00270128  -0.129179 -0.447421 0.00219822  -0.159107 -0.526296 0.00176573  -0.191581 -0.608448 0.00139761  -0.226394 -0.693489 0.00110865  -0.263365 -0.781018 0.000856876  -0.302303 -0.870721 0.000647545  -0.34297 -0.962319 0.000463963  -0.385192 -1.05551 0.00032568  -0.428784 -1.1501 0.000211716  -0.473553 -1.24585 9.63211e-05  -0.519314 -1.34258 6.67572e-06  -0.56591 -1.44009 -3.43323e-05  -0.613206 -1.53829 -0.000100136  -0.66102 -1.63695 -0.000145912  -0.709231 -1.736 -0.000180244  -0.757746 -1.83532 -0.000197887  -0.806457 -1.9348 -0.00019598  -0.85524 -2.03434 -0.000204563  -0.904064 -2.13387 -0.000193596  -0.952801 -2.23331 -0.000170708  -1.00145 -2.33262 -0.000136852  -1.04997 -2.43174 -0.000101089  -1.09832 -2.53063 -6.4373e-05  -1.14648 -2.62921 -9.53674e-06  0 0 0  0.0021373 -0.0104023 -6.24657e-05  0.00586307 -0.0385859 6.48499e-05  0.00802791 -0.078986 0.000287533  0.00672197 -0.128352 0.00041151  0.00123233 -0.185067 0.000326633  -0.0085519 -0.248225 0.000124931  -0.0225301 -0.317 -8.96454e-05  -0.0405276 -0.390722 -0.000315666  -0.0622636 -0.468738 -0.00048399  -0.0874763 -0.550436 -0.000635147  -0.115874 -0.635336 -0.000733376  -0.14718 -0.722961 -0.000804424  -0.181105 -0.812934 -0.000837803  -0.217411 -0.90489 -0.000840664  -0.255832 -0.99853 -0.000845432  -0.296112 -1.0936 -0.000828743  -0.338048 -1.18985 -0.000802994  -0.381392 -1.28709 -0.000768185  -0.425943 -1.3851 -0.000742912  -0.471525 -1.48375 -0.000680447  -0.51796 -1.58288 -0.000637531  -0.565071 -1.68236 -0.000582218  -0.612706 -1.78208 -0.000522614  -0.660753 -1.88194 -0.000470161  -0.709076 -1.98183 -0.000412464  -0.757584 -2.0817 -0.000357151  -0.80614 -2.18147 -0.000302315  -0.854736 -2.28109 -0.000244141  -0.903241 -2.38049 -0.000182152  -0.951659 -2.47967 -0.000121117  -0.999928 -2.57856 -6.86646e-05  -1.04798 -2.67718 1.43051e-06  0 0 0  0.00572763 -0.0155486 -0.00217009  0.0171205 -0.0472255 -0.00339556  0.0286759 -0.0896788 -0.00376892  0.0367121 -0.140644 -0.00374842  0.0398681 -0.199101 -0.00361395  0.0378715 -0.26427 -0.00349617  0.030854 -0.335337 -0.00338745  0.0190715 -0.411515 -0.0032835  0.00278699 -0.492071 -0.00314236  -0.0176319 -0.576339 -0.0030241  -0.0418417 -0.663728 -0.00286674  -0.0694888 -0.753759 -0.00271177  -0.100248 -0.845982 -0.00251865  -0.133791 -0.940041 -0.00234985  -0.169831 -1.03562 -0.00215816  -0.208047 -1.13242 -0.00199223  -0.248194 -1.23023 -0.00181484  -0.290033 -1.32885 -0.00164509  -0.333288 -1.42809 -0.00149012  -0.377759 -1.52777 -0.00131369  -0.423255 -1.62779 -0.00115728  -0.469592 -1.72803 -0.00102758  -0.516575 -1.82836 -0.000886917  -0.564087 -1.92871 -0.000747681  -0.611966 -2.02899 -0.00063324  -0.660125 -2.12916 -0.000501156  -0.708411 -2.22914 -0.000412464  -0.756784 -2.32888 -0.000314713  -0.805135 -2.42838 -0.000223637  -0.853424 -2.52759 -0.0001297  -0.901613 -2.62651 -6.67572e-05  -0.949617 -2.72514 2.19345e-05  0 0 0  0.01027 -0.0244619 -0.004035  0.0302196 -0.0607525 -0.00651789  0.0510635 -0.104841 -0.00750732  0.0677607 -0.156819 -0.00761127  0.0789232 -0.216597 -0.00736713  0.0843207 -0.283466 -0.00700808  0.0839726 -0.356543 -0.00660992  0.0781788 -0.434943 -0.00621557  0.0672474 -0.517825 -0.00578785  0.0515794 -0.604442 -0.00538778  0.0315413 -0.694144 -0.00498486  0.0075562 -0.786391 -0.00458622  -0.020013 -0.8807 -0.00420189  -0.0507528 -0.976709 -0.00384378  -0.0843512 -1.07405 -0.003479  -0.120455 -1.17247 -0.00315142  -0.158765 -1.27172 -0.00283384  -0.199007 -1.37159 -0.00250816  -0.240922 -1.47192 -0.00223875  -0.284231 -1.57255 -0.0019536  -0.328758 -1.67336 -0.00169754  -0.374258 -1.77425 -0.00146484  -0.420557 -1.87512 -0.00124121  -0.467498 -1.97588 -0.00103521  -0.514929 -2.07649 -0.000836849  -0.562706 -2.17687 -0.000679493  -0.610725 -2.27701 -0.000527382  -0.658869 -2.37685 -0.000385761  -0.707048 -2.47638 -0.000266075  -0.755208 -2.5756 -0.000161648  -0.803303 -2.6745 -6.10352e-05  -0.851287 -2.77315 4.3869e-05  0 0 0  0.0170417 -0.0395925 -0.00566864  0.0475394 -0.0796288 -0.00928736  0.0768312 -0.123842 -0.0109005  0.101231 -0.176369 -0.0112004  0.11979 -0.237265 -0.0108967  0.132085 -0.305739 -0.0103464  0.138087 -0.38074 -0.00969887  0.138045 -0.46126 -0.00902796  0.132262 -0.546334 -0.00836468  0.121181 -0.635164 -0.00769186  0.10521 -0.727015 -0.00707054  0.0848022 -0.821316 -0.00645638  0.0604224 -0.917559 -0.00586748  0.0324261 -1.01534 -0.00531054  0.00124145 -1.1143 -0.00478506  -0.0327443 -1.21416 -0.00428438  -0.0692372 -1.31469 -0.00383139  -0.107903 -1.41568 -0.00337648  -0.14844 -1.51698 -0.00295925  -0.190576 -1.61842 -0.00258875  -0.234105 -1.71991 -0.00223207  -0.278777 -1.82134 -0.00189638  -0.324393 -1.92261 -0.00158024  -0.370761 -2.02369 -0.00131798  -0.417726 -2.1245 -0.00106573  -0.465153 -2.22501 -0.000831127  -0.512894 -2.32521 -0.000634193  -0.56083 -2.42507 -0.000458717  -0.608854 -2.52458 -0.000319958  -0.656916 -2.62374 -0.000178337  -0.704935 -2.72259 -7.77245e-05  -0.75293 -2.82121 4.48227e-05  0 0 0  0.03106 -0.0657789 -0.00717354  0.0709541 -0.102006 -0.0119376  0.106126 -0.145835 -0.0140228  0.137733 -0.198808 -0.0144753  0.163284 -0.260923 -0.0141191  0.182175 -0.3311 -0.0134268  0.194241 -0.408082 -0.0125575  0.199675 -0.490707 -0.0116758  0.198817 -0.577892 -0.0107799  0.19213 -0.668831 -0.00989532  0.180047 -0.762699 -0.00907421  0.163091 -0.858904 -0.00826073  0.141712 -0.956906 -0.00748587  0.1164 -1.0563 -0.00674868  0.0875442 -1.1567 -0.00607157  0.0555985 -1.25784 -0.00542355  0.0208874 -1.35951 -0.00479412  -0.0162282 -1.46144 -0.00423765  -0.055418 -1.56356 -0.00371122  -0.0964198 -1.66567 -0.00320005  -0.138998 -1.76765 -0.00275612  -0.182854 -1.86947 -0.00233936  -0.227802 -1.97105 -0.00193691  -0.273606 -2.07228 -0.00159121  -0.320152 -2.17317 -0.00125551  -0.367239 -2.27371 -0.000968933  -0.414733 -2.37383 -0.000739098  -0.462508 -2.47357 -0.000543594  -0.510447 -2.57296 -0.000356674  -0.558455 -2.67198 -0.000204563  -0.606452 -2.77073 -9.91821e-05  -0.654496 -2.86936 2.57492e-05  0 0 0  -0.0324489 -0.0386328 0.0222373  -0.0705343 -0.0561923 0.0343227  -0.109784 -0.0820883 0.0392771  -0.149864 -0.115749 0.0387993  -0.189863 -0.157401 0.0357604  -0.229792 -0.206008 0.0318484  -0.269843 -0.260672 0.0278554  -0.310279 -0.320724 0.0242109  -0.351312 -0.385551 0.0210185  -0.393114 -0.454688 0.0182533  -0.435772 -0.527688 0.0158634  -0.479332 -0.604218 0.0137801  -0.523781 -0.683905 0.011961  -0.569098 -0.766465 0.0103617  -0.615228 -0.851587 0.00890017  -0.662077 -0.939011 0.00760221  -0.709541 -1.02845 0.00646973  -0.757574 -1.1197 0.00539923  -0.806053 -1.21251 0.00449324  -0.854903 -1.30667 0.00366068  -0.903987 -1.40203 0.00293636  -0.953252 -1.49835 0.00226355  -1.00262 -1.59551 0.00170851  -1.05197 -1.69332 0.00122595  -1.10132 -1.79167 0.000846386  -1.15054 -1.89039 0.000501156  -1.19963 -1.98941 0.000248909  -1.24854 -2.08854 8.96454e-05  -1.29726 -2.18773 -2.3365e-05  -1.3458 -2.28685 -8.05855e-05  -1.39424 -2.3859 -8.10623e-05  -1.44255 -2.48472 -6.00815e-05  0 0 0  -0.0124151 -0.0148638 0.0153322  -0.0382473 -0.0402924 0.0247731  -0.0677409 -0.0717559 0.0285149  -0.0983675 -0.111488 0.0283103  -0.1302 -0.158791 0.0261664  -0.163338 -0.212591 0.023294  -0.197815 -0.272023 0.0203567  -0.233631 -0.336397 0.0176167  -0.270791 -0.405202 0.0152302  -0.309331 -0.47799 0.0131531  -0.349216 -0.554367 0.0113459  -0.39042 -0.633958 0.0098176  -0.43288 -0.716453 0.00845194  -0.476526 -0.801534 0.00725889  -0.521234 -0.888914 0.00619602  -0.566922 -0.978346 0.00525236  -0.613447 -1.06956 0.00440264  -0.660686 -1.16233 0.00365591  -0.70854 -1.25647 0.00298643  -0.756871 -1.35177 0.00240135  -0.805595 -1.44806 0.00187588  -0.854598 -1.54516 0.00141621  -0.903755 -1.64293 0.00102377  -0.95301 -1.74121 0.000695229  -1.0023 -1.8399 0.000422478  -1.05152 -1.93886 0.000203609  -1.10064 -2.03798 4.95911e-05  -1.14962 -2.13717 -4.86374e-05  -1.19841 -2.23632 -0.000116348  -1.24703 -2.33538 -0.000124931  -1.29547 -2.4343 -9.82285e-05  -1.34378 -2.53303 -0.00012207  0 0 0  -0.00558729 -0.00747925 0.00970554  -0.0185905 -0.0321013 0.0160103  -0.0365462 -0.0675506 0.0186539  -0.057224 -0.111385 0.0185738  -0.0802105 -0.16271 0.017158  -0.105653 -0.220517 0.0152135  -0.133543 -0.283848 0.0131989  -0.163786 -0.352029 0.0113249  -0.196226 -0.424452 0.00967836  -0.230765 -0.500635 0.00823641  -0.267269 -0.580203 0.00699997  -0.305588 -0.662774 0.00595808  -0.3456 -0.747983 0.00504827  -0.387157 -0.835532 0.00426722  -0.430102 -0.925162 0.00356007  -0.474275 -1.01659 0.00294304  -0.519531 -1.10959 0.00241566  -0.565739 -1.20393 0.00194788  -0.612729 -1.29944 0.0015192  -0.660355 -1.3959 0.00114727  -0.708498 -1.49317 0.000846863  -0.757047 -1.59108 0.000574112  -0.805865 -1.68951 0.000348091  -0.854857 -1.78835 0.000161171  -0.903947 -1.88743 1.19209e-05  -0.953043 -1.98669 -9.67979e-05  -1.00208 -2.08601 -0.000161171  -1.05102 -2.18532 -0.000179291  -1.0998 -2.28454 -0.00019598  -1.1484 -2.38362 -0.000159264  -1.19681 -2.48251 -0.00014019  -1.24505 -2.58114 -8.86917e-05  0 0 0  -0.0011756 -0.00659859 0.00454283  -0.0049035 -0.031476 0.00775862  -0.0120552 -0.0688958 0.0092802  -0.022626 -0.115577 0.00936079  -0.0365947 -0.169885 0.0086112  -0.0540352 -0.230762 0.0075016  -0.0749452 -0.297276 0.0063405  -0.0991129 -0.368672 0.00522137  -0.126357 -0.444285 0.00426388  -0.156427 -0.523586 0.00342083  -0.189082 -0.606114 0.0027256  -0.224113 -0.691463 0.00216389  -0.261297 -0.779273 0.00167847  -0.30044 -0.869211 0.00127172  -0.341329 -0.961 0.000931263  -0.383721 -1.0544 0.000648022  -0.427499 -1.14914 0.000410557  -0.472427 -1.24502 0.000203609  -0.518345 -1.34187 2.28882e-05  -0.565083 -1.43952 -9.72748e-05  -0.6125 -1.53777 -0.000212193  -0.660443 -1.63653 -0.000292301  -0.70878 -1.73565 -0.000348568  -0.757383 -1.83503 -0.000393391  -0.806169 -1.93455 -0.000401497  -0.855045 -2.03414 -0.000397682  -0.903907 -2.13371 -0.000375748  -0.952713 -2.23318 -0.000327587  -1.0014 -2.3325 -0.000280857  -1.04994 -2.43163 -0.000203609  -1.09831 -2.53053 -0.000116825  -1.14643 -2.62914 -6.10352e-05  0 0 0  0.00249049 -0.00913107 -0.000360966  0.00676915 -0.0359994 -8.91685e-05  0.00941709 -0.0753247 0.000407696  0.00850958 -0.124053 0.000599861  0.00338048 -0.180595 0.000426292  -0.00614005 -0.243886 5.29289e-05  -0.0199868 -0.313001 -0.000363827  -0.037945 -0.387133 -0.000756741  -0.0597458 -0.465556 -0.00109529  -0.0850732 -0.547645 -0.00133991  -0.113632 -0.632885 -0.00152111  -0.145115 -0.720818 -0.00163221  -0.179231 -0.811055 -0.00169945  -0.21572 -0.903261 -0.00170279  -0.254326 -0.997119 -0.00169992  -0.294791 -1.09237 -0.00165892  -0.336866 -1.18878 -0.00161648  -0.38036 -1.28615 -0.00153923  -0.425072 -1.3843 -0.0014677  -0.47079 -1.48307 -0.00136471  -0.517329 -1.58229 -0.00127745  -0.564564 -1.68186 -0.00116539  -0.612308 -1.78166 -0.00106716  -0.660455 -1.88159 -0.000950813  -0.708848 -1.98153 -0.000836372  -0.757407 -2.08147 -0.000724316  -0.806024 -2.18127 -0.000602722  -0.854656 -2.28092 -0.000472069  -0.903216 -2.38036 -0.000350475  -0.951653 -2.47955 -0.000231743  -0.999933 -2.57847 -0.000133991  -1.04798 -2.67703 -1.04904e-05  0 0 0  0.00626542 -0.0143586 -0.00495005  0.0184528 -0.0447928 -0.00738335  0.0304903 -0.0862437 -0.00786686  0.0387045 -0.136585 -0.00768185  0.0419945 -0.19483 -0.00740623  0.0401186 -0.26008 -0.00715637  0.0331782 -0.331414 -0.0069232  0.0213673 -0.407926 -0.0066843  0.00502992 -0.488851 -0.00641537  -0.0154939 -0.573454 -0.00610971  -0.0398436 -0.661185 -0.00578308  -0.067659 -0.751517 -0.00544453  -0.0985684 -0.844012 -0.00507259  -0.13228 -0.938303 -0.00470972  -0.168465 -1.03408 -0.00435257  -0.206848 -1.13109 -0.00399494  -0.247146 -1.22906 -0.00364637  -0.289105 -1.32782 -0.00329113  -0.332489 -1.4272 -0.00296307  -0.377096 -1.52701 -0.00264788  -0.422697 -1.62713 -0.00233746  -0.469131 -1.72746 -0.00205851  -0.516222 -1.82786 -0.00177574  -0.563815 -1.92829 -0.00149918  -0.611778 -2.02865 -0.00126457  -0.659972 -2.12887 -0.00103903  -0.70833 -2.2289 -0.000815392  -0.756741 -2.32868 -0.000619888  -0.805138 -2.42821 -0.00045681  -0.85346 -2.52745 -0.000275135  -0.901644 -2.62637 -0.000129223  -0.94962 -2.72499 3.38554e-05  0 0 0  0.0109784 -0.0230206 -0.00900316  0.031907 -0.0580879 -0.013895  0.0532051 -0.101313 -0.0154262  0.0699286 -0.152821 -0.0154233  0.0810637 -0.212448 -0.0148778  0.0864399 -0.279392 -0.0141282  0.0861011 -0.352706 -0.0133224  0.080264 -0.431406 -0.0125012  0.0692657 -0.514618 -0.0116577  0.053483 -0.601552 -0.0108242  0.033336 -0.691568 -0.0100107  0.0092119 -0.784091 -0.0092206  -0.018477 -0.878674 -0.00844336  -0.0493822 -0.974901 -0.00770092  -0.0831121 -1.07245 -0.00699139  -0.119366 -1.17106 -0.00630713  -0.157823 -1.27048 -0.00566387  -0.198187 -1.37051 -0.00504875  -0.240206 -1.47097 -0.0044651  -0.283637 -1.57172 -0.00392437  -0.328268 -1.67265 -0.00340366  -0.373864 -1.77363 -0.00293064  -0.420249 -1.87459 -0.0024724  -0.467266 -1.97543 -0.00207138  -0.514768 -2.07611 -0.00168657  -0.562605 -2.17656 -0.00137138  -0.610656 -2.27674 -0.00104761  -0.658854 -2.37662 -0.000770092  -0.707058 -2.47619 -0.000523567  -0.755249 -2.57544 -0.000309944  -0.803359 -2.67436 -0.000126839  -0.851333 -2.77298 7.67708e-05  0 0 0  0.017804 -0.0376481 -0.0123782  0.0493879 -0.0763723 -0.0195994  0.0791123 -0.119997 -0.0223284  0.10349 -0.172298 -0.0226302  0.121954 -0.233179 -0.0219378  0.134159 -0.301785 -0.0208011  0.140115 -0.377022 -0.019496  0.140013 -0.457829 -0.0181365  0.134163 -0.543209 -0.0167923  0.122986 -0.632345 -0.0154538  0.106902 -0.724489 -0.0141835  0.0863889 -0.819053 -0.0129447  0.0618602 -0.915552 -0.0117674  0.0337415 -1.01355 -0.0106525  0.00241756 -1.1127 -0.00958443  -0.0317134 -1.21276 -0.0086031  -0.0683362 -1.31345 -0.00765562  -0.107102 -1.4146 -0.00675488  -0.147756 -1.51602 -0.00594091  -0.190023 -1.61759 -0.0051856  -0.233647 -1.71918 -0.00444698  -0.278414 -1.8207 -0.00379992  -0.324106 -1.92208 -0.00317526  -0.37056 -2.02324 -0.00262451  -0.417598 -2.12411 -0.00210953  -0.465073 -2.2247 -0.00164652  -0.512849 -2.32496 -0.00124693  -0.560825 -2.42484 -0.000911713  -0.60889 -2.52437 -0.000631332  -0.65696 -2.62357 -0.000365257  -0.705003 -2.72244 -0.00014019  -0.752974 -2.82105 6.38962e-05  0 0 0  0.0314427 -0.0628804 -0.0156293  0.072589 -0.0978729 -0.0251536  0.108447 -0.141503 -0.0287843  0.140112 -0.19458 -0.0293403  0.165559 -0.25688 -0.0285053  0.184346 -0.327251 -0.0270367  0.196357 -0.404528 -0.0253005  0.201723 -0.487442 -0.023478  0.200791 -0.574964 -0.0216742  0.19399 -0.666185 -0.0199041  0.181794 -0.760336 -0.0181899  0.164704 -0.856802 -0.016551  0.143213 -0.955026 -0.0150018  0.117755 -1.05464 -0.0135303  0.0887744 -1.15524 -0.0121555  0.0566761 -1.25656 -0.0108485  0.0218468 -1.35837 -0.00959826  -0.0153856 -1.46046 -0.0084753  -0.0547302 -1.56269 -0.0074048  -0.0958495 -1.66491 -0.00640345  -0.138507 -1.76702 -0.00551224  -0.182457 -1.86893 -0.00465155  -0.227477 -1.97057 -0.00387573  -0.273398 -2.07191 -0.00318146  -0.319995 -2.17288 -0.00252581  -0.367146 -2.27345 -0.00196218  -0.414697 -2.37362 -0.00147152  -0.462507 -2.47339 -0.0010519  -0.510478 -2.57278 -0.000700951  -0.558503 -2.67181 -0.000411987  -0.606548 -2.77057 -0.000173569  -0.65458 -2.86915 4.52995e-05  0 0 0  -0.0297198 -0.0291177 0.0366464  -0.0684015 -0.0417786 0.0557294  -0.107351 -0.0664926 0.0600324  -0.146025 -0.101902 0.0574985  -0.184895 -0.145775 0.0522213  -0.224225 -0.196504 0.046248  -0.264072 -0.252973 0.0404649  -0.304604 -0.314449 0.0352798  -0.345932 -0.380392 0.0307488  -0.388116 -0.450403 0.0268145  -0.431221 -0.524094 0.0233769  -0.475201 -0.60118 0.0203686  -0.520085 -0.68135 0.0177011  -0.565796 -0.764277 0.0153365  -0.612304 -0.849731 0.0132165  -0.659487 -0.937418 0.0112982  -0.707299 -1.02711 0.00959396  -0.755649 -1.11856 0.00805426  -0.804394 -1.21157 0.00666523  -0.853479 -1.30589 0.00543404  -0.902804 -1.40139 0.00432968  -0.952307 -1.49784 0.00338268  -1.00185 -1.5951 0.00252676  -1.05138 -1.69301 0.00180006  -1.10086 -1.79142 0.00121212  -1.15022 -1.89024 0.000723839  -1.19938 -1.98926 0.000326157  -1.2484 -2.08846 6.38962e-05  -1.29719 -2.18767 -0.000103474  -1.34576 -2.28685 -0.000169754  -1.39419 -2.38585 -0.000151157  -1.44251 -2.48466 -0.000118732  0 0 0  -0.0128194 -0.00866383 0.0250893  -0.0389523 -0.0294222 0.0394778  -0.0665406 -0.0596039 0.0428228  -0.0948212 -0.100082 0.0413775  -0.125124 -0.148835 0.0378351  -0.157474 -0.20421 0.0336323  -0.191718 -0.265064 0.0294552  -0.227638 -0.330647 0.0256281  -0.265108 -0.400426 0.0222583  -0.30405 -0.473999 0.0193152  -0.3444 -0.550996 0.0167394  -0.386052 -0.63111 0.0145159  -0.428973 -0.714042 0.0125489  -0.473043 -0.799485 0.0107956  -0.518153 -0.887186 0.00923157  -0.564195 -0.976895 0.007833  -0.611046 -1.06833 0.00659227  -0.65862 -1.16131 0.00546885  -0.706749 -1.25562 0.00447035  -0.755357 -1.35107 0.00358868  -0.804325 -1.44749 0.00280762  -0.853538 -1.54471 0.00211716  -0.902897 -1.64256 0.00153351  -0.952329 -1.74095 0.00103331  -1.00178 -1.83969 0.000636578  -1.05113 -1.9387 0.000303268  -1.10038 -2.03786 6.53267e-05  -1.14944 -2.13706 -9.20296e-05  -1.19829 -2.23626 -0.000174999  -1.24698 -2.33533 -0.000192165  -1.29543 -2.43426 -0.000179768  -1.34374 -2.53297 -0.000167847  0 0 0  -0.00583747 -0.00278965 0.0158277  -0.018976 -0.0241023 0.0251522  -0.035403 -0.0579141 0.0276265  -0.0540265 -0.101654 0.0268254  -0.0755503 -0.15376 0.0245557  -0.100203 -0.212635 0.0217848  -0.127824 -0.277104 0.0189919  -0.158119 -0.346293 0.0163841  -0.190842 -0.419593 0.0140858  -0.225754 -0.496522 0.0120721  -0.262662 -0.576704 0.010313  -0.301412 -0.659778 0.00880909  -0.341827 -0.745424 0.00748444  -0.383797 -0.833348 0.00633669  -0.427103 -0.923295 0.00529718  -0.471642 -1.01501 0.0043931  -0.517231 -1.10824 0.00361729  -0.56373 -1.2028 0.00290203  -0.610984 -1.29847 0.00227261  -0.658878 -1.39509 0.00173235  -0.707255 -1.4925 0.00126028  -0.756006 -1.59056 0.000868797  -0.805019 -1.68909 0.000519753  -0.854195 -1.788 0.000264168  -0.903445 -1.88716 3.33786e-05  -0.952662 -1.98648 -0.000124931  -1.00181 -2.08584 -0.000236034  -1.05084 -2.18519 -0.000275612  -1.0997 -2.28444 -0.000289917  -1.14836 -2.38353 -0.000247478  -1.1968 -2.48243 -0.000209808  -1.24503 -2.58107 -0.000172138  0 0 0  -0.000975139 -0.00298044 0.00712872  -0.00428322 -0.0250797 0.0118108  -0.010311 -0.0608284 0.0133915  -0.0194831 -0.106967 0.0131712  -0.0323763 -0.161566 0.0119939  -0.0492144 -0.223167 0.0104632  -0.0698563 -0.290558 0.00889111  -0.0940489 -0.362813 0.00737953  -0.121491 -0.439211 0.00606537  -0.151852 -0.519223 0.00491858  -0.184871 -0.602345 0.0039444  -0.220283 -0.688205 0.00313425  -0.257843 -0.776457 0.0024538  -0.29733 -0.866791 0.00186348  -0.338546 -0.958919 0.00137186  -0.381287 -1.05259 0.000953674  -0.425359 -1.14759 0.000601292  -0.470573 -1.24371 0.000301838  -0.516728 -1.34074 5.34058e-05  -0.563717 -1.43855 -0.000145435  -0.611365 -1.53697 -0.000313282  -0.659501 -1.63586 -0.000436783  -0.708011 -1.73509 -0.000519276  -0.756784 -1.83458 -0.000581264  -0.805717 -1.93418 -0.00059557  -0.854707 -2.03385 -0.00058651  -0.903675 -2.13347 -0.000547886  -0.952575 -2.23299 -0.000489235  -1.00133 -2.33234 -0.000403881  -1.04992 -2.43151 -0.000311852  -1.09831 -2.53043 -0.00020504  -1.14642 -2.62904 -0.000127792  0 0 0  0.00318688 -0.00619748 -0.00127506  0.00845191 -0.0305251 -0.000779152  0.0119012 -0.0681342 -1.4782e-05  0.0117701 -0.116119 0.000197887  0.00728506 -0.172676 -3.24249e-05  -0.00183535 -0.236462 -0.000498295  -0.015496 -0.306259 -0.00100803  -0.0334831 -0.381148 -0.00149584  -0.0554464 -0.460284 -0.00189924  -0.0810264 -0.543026 -0.00219059  -0.109879 -0.628848 -0.00241756  -0.14168 -0.717306 -0.00255299  -0.176108 -0.80799 -0.00261497  -0.21291 -0.900581 -0.00261641  -0.251806 -0.994777 -0.00258923  -0.292567 -1.09033 -0.00253296  -0.334928 -1.18702 -0.00243282  -0.37868 -1.28463 -0.00232267  -0.423624 -1.38299 -0.00219917  -0.469568 -1.48194 -0.00205231  -0.516325 -1.58132 -0.00190592  -0.563736 -1.68105 -0.00176144  -0.611644 -1.78097 -0.00158072  -0.659913 -1.881 -0.00141096  -0.708457 -1.98108 -0.00124073  -0.757127 -2.08107 -0.00107861  -0.80585 -2.18096 -0.000881195  -0.854561 -2.28067 -0.000715733  -0.903176 -2.38014 -0.000533104  -0.951667 -2.47937 -0.000359058  -0.999966 -2.5783 -0.000191689  -1.048 -2.67689 -4.29153e-05  0 0 0  0.00746199 -0.0117794 -0.00925922  0.0211572 -0.0397432 -0.0124278  0.0336395 -0.0794654 -0.0124993  0.0421169 -0.129021 -0.0120664  0.0456786 -0.187192 -0.0115871  0.0439915 -0.252799 -0.0111527  0.0371144 -0.324692 -0.0107255  0.0252692 -0.401858 -0.0102873  0.00879371 -0.483426 -0.00982141  -0.0119393 -0.568659 -0.00932121  -0.0365388 -0.656937 -0.00879717  -0.064602 -0.747751 -0.00824165  -0.0957954 -0.840705 -0.00767756  -0.129778 -0.935395 -0.00711536  -0.166225 -1.03154 -0.00657463  -0.204868 -1.12885 -0.00602198  -0.245423 -1.22711 -0.00547457  -0.287611 -1.32611 -0.00495577  -0.33121 -1.4257 -0.00446177  -0.376014 -1.52571 -0.00398779  -0.421809 -1.62602 -0.00350714  -0.46841 -1.72649 -0.00307274  -0.515663 -1.82706 -0.00267935  -0.563375 -1.92761 -0.00225782  -0.611464 -2.02808 -0.00190926  -0.659778 -2.12839 -0.00155497  -0.708229 -2.2285 -0.00123739  -0.756693 -2.32837 -0.000929356  -0.805136 -2.42796 -0.000669956  -0.853488 -2.52723 -0.000409603  -0.901707 -2.62617 -0.00017643  -0.949681 -2.72476 5.67436e-05  0 0 0  0.0126029 -0.0201828 -0.0164552  0.0354541 -0.0528486 -0.0228047  0.0568598 -0.0945531 -0.0239387  0.0734328 -0.145409 -0.0236168  0.084559 -0.204993 -0.0226722  0.089946 -0.272258 -0.0215058  0.0895852 -0.346065 -0.0202518  0.0836939 -0.425341 -0.0189714  0.0725687 -0.509137 -0.0176749  0.0566276 -0.59665 -0.0164013  0.0362731 -0.687195 -0.0151534  0.0119191 -0.780199 -0.0139165  -0.016017 -0.875218 -0.0127425  -0.0471425 -0.97185 -0.0116034  -0.0811203 -1.06976 -0.0105257  -0.117589 -1.16866 -0.00949478  -0.156271 -1.26837 -0.0085125  -0.19686 -1.36864 -0.00758028  -0.239075 -1.46934 -0.00671148  -0.282692 -1.57032 -0.00588989  -0.327481 -1.67141 -0.00511122  -0.37325 -1.77258 -0.00440693  -0.419787 -1.87367 -0.00372362  -0.466918 -1.97466 -0.00311136  -0.514535 -2.07547 -0.00254154  -0.56248 -2.17603 -0.00201988  -0.610601 -2.2763 -0.00156593  -0.658852 -2.37626 -0.00116205  -0.707115 -2.47591 -0.000790119  -0.755316 -2.57518 -0.000473499  -0.803452 -2.67411 -0.000178337  -0.851406 -2.77273 0.00012207  0 0 0  0.0197648 -0.0336576 -0.0221238  0.0533768 -0.0702157 -0.0317903  0.0829957 -0.112907 -0.0344601  0.107033 -0.164921 -0.0345058  0.125332 -0.225902 -0.0332851  0.137454 -0.294834 -0.0315127  0.143329 -0.370542 -0.0295162  0.143149 -0.45188 -0.0274491  0.137186 -0.53783 -0.0253749  0.125848 -0.627483 -0.0233545  0.109593 -0.720126 -0.0213933  0.0888851 -0.815165 -0.0195279  0.0641295 -0.912072 -0.0177464  0.0357888 -1.01045 -0.016047  0.00425518 -1.10996 -0.0144372  -0.0300822 -1.21032 -0.0129528  -0.0669003 -1.3113 -0.0115223  -0.10588 -1.41269 -0.0101895  -0.146727 -1.51435 -0.00893164  -0.189171 -1.61613 -0.00776672  -0.232948 -1.71792 -0.00669336  -0.277867 -1.81961 -0.00569439  -0.3237 -1.92114 -0.00477886  -0.370269 -2.02243 -0.00393438  -0.417423 -2.12345 -0.00316095  -0.464976 -2.22415 -0.00247622  -0.512841 -2.32449 -0.00187683  -0.560857 -2.42446 -0.00134802  -0.608968 -2.52407 -0.000912666  -0.65708 -2.62329 -0.00052309  -0.705127 -2.72218 -0.000195503  -0.753115 -2.82078 0.000115871  0 0 0  0.0330615 -0.056839 -0.0272398  0.0762876 -0.0903046 -0.0406446  0.112412 -0.133864 -0.0445819  0.143796 -0.187101 -0.0448413  0.169079 -0.249736 -0.0432916  0.187734 -0.320567 -0.0409808  0.199619 -0.398331 -0.0382977  0.204911 -0.481782 -0.035512  0.203854 -0.569855 -0.0327487  0.1969 -0.661597 -0.0300422  0.184527 -0.756238 -0.0274262  0.167211 -0.853129 -0.0249419  0.145522 -0.951772 -0.022573  0.119856 -1.05172 -0.0203543  0.0906364 -1.15266 -0.0182533  0.058332 -1.25428 -0.016294  0.0232878 -1.35635 -0.0144362  -0.014133 -1.45868 -0.0127044  -0.0536644 -1.56115 -0.0111146  -0.0949411 -1.66356 -0.00962019  -0.137786 -1.76585 -0.00822544  -0.181882 -1.86794 -0.00693321  -0.227065 -1.96972 -0.00578785  -0.273103 -2.07119 -0.00471497  -0.31981 -2.17225 -0.00377512  -0.367042 -2.27293 -0.00292253  -0.414691 -2.3732 -0.00217438  -0.462544 -2.47305 -0.00151777  -0.510586 -2.5725 -0.00100756  -0.558653 -2.67156 -0.000586987  -0.606679 -2.77031 -0.000218868  -0.654686 -2.86891 8.53539e-05  0 0 0  -0.0434581 -0.00987231 0.0574822  -0.0728852 -0.0140366 0.0743003  -0.101792 -0.0435339 0.0775371  -0.13607 -0.0838198 0.0730267  -0.173404 -0.131972 0.0661159  -0.212713 -0.18593 0.0587039  -0.253211 -0.244704 0.0516744  -0.294605 -0.307848 0.045373  -0.336891 -0.375018 0.0397568  -0.379957 -0.445941 0.0348406  -0.423896 -0.520368 0.0305209  -0.468675 -0.598046 0.0266714  -0.514238 -0.678712 0.0232568  -0.56065 -0.762108 0.0201697  -0.607716 -0.847902 0.0174036  -0.655492 -0.935927 0.014905  -0.703817 -1.0259 0.0126295  -0.752594 -1.11757 0.0106196  -0.801815 -1.21077 0.00879669  -0.851292 -1.30527 0.00716543  -0.900957 -1.40092 0.005723  -0.950773 -1.49753 0.00445604  -1.00061 -1.59489 0.00330448  -1.05041 -1.69288 0.00237703  -1.10015 -1.79137 0.00155544  -1.14971 -1.89022 0.000895023  -1.19906 -1.98926 0.00039959  -1.24823 -2.08847 -9.53674e-07  -1.29712 -2.18769 -0.000207424  -1.34576 -2.28684 -0.000276089  -1.39419 -2.38581 -0.000230789  -1.44251 -2.48465 -0.000225067  0 0 0  -0.0226336 0.00380291 0.0400605  -0.0438297 -0.011749 0.0507174  -0.062649 -0.0417822 0.0536923  -0.0863074 -0.0846725 0.0516243  -0.114636 -0.136204 0.0474186  -0.1466 -0.194016 0.0424795  -0.181232 -0.256843 0.0375724  -0.217878 -0.32392 0.0329943  -0.256195 -0.394864 0.028883  -0.295993 -0.469359 0.0252099  -0.337143 -0.547082 0.0219836  -0.379573 -0.627818 0.0190897  -0.423184 -0.711275 0.0165544  -0.467901 -0.797154 0.0142822  -0.513584 -0.885229 0.0122209  -0.560169 -0.975245 0.0103831  -0.607542 -1.06699 0.00874615  -0.655563 -1.16022 0.00727654  -0.704122 -1.25473 0.00594902  -0.753108 -1.35038 0.00479317  -0.802443 -1.44695 0.00374031  -0.851977 -1.5443 0.00283718  -0.901621 -1.64226 0.00208521  -0.951323 -1.74073 0.00141239  -1.00099 -1.83953 0.000838757  -1.05056 -1.9386 0.000430107  -1.09998 -2.0378 9.44138e-05  -1.1492 -2.13703 -0.000124931  -1.19818 -2.23622 -0.000247002  -1.24691 -2.33529 -0.00028038  -1.2954 -2.4342 -0.000259876  -1.3437 -2.53295 -0.000249863  0 0 0  -0.0108214 0.00765872 0.0249081  -0.0209369 -0.00993484 0.0317302  -0.0318973 -0.0427448 0.0338306  -0.0470934 -0.0875379 0.0327768  -0.0668816 -0.141432 0.0302792  -0.0909538 -0.202194 0.027204  -0.118674 -0.268346 0.0240064  -0.149457 -0.338954 0.0209584  -0.182823 -0.413401 0.0181684  -0.218432 -0.49128 0.0156803  -0.256037 -0.57224 0.0134907  -0.295424 -0.655969 0.0115647  -0.336477 -0.74216 0.0098567  -0.379016 -0.830588 0.00835276  -0.422867 -0.920931 0.00702524  -0.46789 -1.01302 0.0058279  -0.51394 -1.10655 0.00479507  -0.560873 -1.20139 0.00385618  -0.608532 -1.29731 0.0030365  -0.656785 -1.39413 0.00232649  -0.7055 -1.49173 0.00168562  -0.754552 -1.58992 0.0011735  -0.80383 -1.6886 0.000712395  -0.853259 -1.78762 0.000361443  -0.902737 -1.88686 7.00951e-05  -0.952133 -1.98624 -0.000138283  -1.00146 -2.08567 -0.000288963  -1.05063 -2.18503 -0.000361443  -1.09958 -2.28432 -0.000358582  -1.14831 -2.38343 -0.000334263  -1.19679 -2.48236 -0.000272751  -1.245 -2.58105 -0.000294209  0 0 0  -0.00246861 0.00599 0.0102592  -0.00374119 -0.01253 0.0140114  -0.00660235 -0.0470207 0.0154843  -0.013529 -0.0936126 0.0152297  -0.0250895 -0.149459 0.0140963  -0.0413934 -0.212512 0.0125055  -0.062014 -0.281363 0.0107708  -0.0865245 -0.35492 0.00909615  -0.114443 -0.432441 0.00756311  -0.145335 -0.513396 0.0061903  -0.178932 -0.597326 0.00501299  -0.214888 -0.683868 0.00401306  -0.252988 -0.77271 0.00313091  -0.292993 -0.863544 0.0024066  -0.334676 -0.956113 0.0017643  -0.377852 -1.0502 0.00124502  -0.422372 -1.14553 0.000788212  -0.467967 -1.24195 0.000408173  -0.514513 -1.33925 6.38962e-05  -0.561824 -1.43728 -0.000174046  -0.60976 -1.53592 -0.000397682  -0.658195 -1.635 -0.000545025  -0.70696 -1.73439 -0.000662804  -0.755967 -1.83399 -0.000740528  -0.805109 -1.93372 -0.000780106  -0.854262 -2.03346 -0.000789165  -0.903386 -2.13315 -0.00071764  -0.952415 -2.23274 -0.000658035  -1.00126 -2.33216 -0.000540733  -1.04992 -2.43136 -0.000417709  -1.09834 -2.53033 -0.000283241  -1.14647 -2.62894 -0.000230789  0 0 0  0.00440592 0.00162774 -0.0035615  0.0109932 -0.0190987 -0.00263405  0.0158845 -0.0552416 -0.00178909  0.0170963 -0.103297 -0.00139999  0.0134889 -0.160719 -0.00145149  0.00479555 -0.22569 -0.00179672  -0.00882202 -0.296745 -0.00221872  -0.0269997 -0.372805 -0.00264263  -0.049298 -0.453015 -0.00300407  -0.0752858 -0.536698 -0.00327873  -0.104601 -0.623334 -0.00347614  -0.136872 -0.712472 -0.00357962  -0.171783 -0.803773 -0.0036068  -0.209041 -0.896897 -0.00358248  -0.248349 -0.991573 -0.00354242  -0.289502 -1.08755 -0.00342417  -0.332243 -1.18459 -0.0032568  -0.376345 -1.28254 -0.00311184  -0.421628 -1.38119 -0.00294781  -0.467872 -1.48038 -0.0027318  -0.51492 -1.58002 -0.00253725  -0.562587 -1.67994 -0.00234127  -0.610738 -1.78003 -0.00212336  -0.659237 -1.88023 -0.00188684  -0.707943 -1.98043 -0.00166559  -0.75678 -2.08055 -0.00141144  -0.805645 -2.18054 -0.00118494  -0.854458 -2.28031 -0.000935555  -0.903148 -2.37989 -0.000725269  -0.951712 -2.47916 -0.000471592  -1.00005 -2.57815 -0.00025034  -1.04808 -2.67675 -9.15527e-05  0 0 0  0.0108306 -0.00498039 -0.0166316  0.025323 -0.0292527 -0.0181465  0.0379127 -0.0673086 -0.0179696  0.0470113 -0.116701 -0.0172305  0.0510392 -0.175443 -0.0164824  0.0496475 -0.242017 -0.0157218  0.0428155 -0.314995 -0.0150151  0.0308545 -0.393209 -0.0142732  0.0140982 -0.475776 -0.013515  -0.00694132 -0.561914 -0.0127525  -0.0319226 -0.650985 -0.0119667  -0.0603846 -0.742532 -0.0111852  -0.0919857 -0.836092 -0.0103903  -0.126336 -0.931326 -0.00958061  -0.163186 -1.02796 -0.00883102  -0.202173 -1.12572 -0.00809097  -0.243047 -1.22436 -0.007339  -0.28557 -1.32373 -0.00662851  -0.329492 -1.42361 -0.00597429  -0.37458 -1.5239 -0.00532818  -0.420618 -1.62446 -0.00470734  -0.467467 -1.72517 -0.0041194  -0.514898 -1.82592 -0.0035634  -0.562844 -1.92666 -0.00302124  -0.611087 -2.02729 -0.00253963  -0.659542 -2.12776 -0.00207043  -0.708099 -2.22798 -0.00163317  -0.75668 -2.32795 -0.00127077  -0.805196 -2.42762 -0.000920296  -0.853607 -2.52695 -0.000540257  -0.901832 -2.62594 -0.000218868  -0.949833 -2.72456 7.48634e-05  0 0 0  0.0176581 -0.0141752 -0.0286431  0.0409206 -0.0430492 -0.0321493  0.0613883 -0.0829959 -0.0330262  0.078001 -0.13352 -0.0323181  0.0893008 -0.19352 -0.0309625  0.0948048 -0.261538 -0.0293465  0.0944629 -0.336284 -0.0275922  0.0884572 -0.416519 -0.0257716  0.0771444 -0.501247 -0.0239515  0.0609443 -0.589616 -0.0221896  0.0402843 -0.680949 -0.0204582  0.0156049 -0.774655 -0.018765  -0.012682 -0.87028 -0.0171528  -0.0441464 -0.967448 -0.0156255  -0.07845 -1.06587 -0.0141411  -0.115243 -1.16523 -0.0127492  -0.154231 -1.26534 -0.0114155  -0.195121 -1.36598 -0.0101528  -0.237612 -1.467 -0.00898647  -0.281476 -1.56826 -0.00786591  -0.326504 -1.66963 -0.00684023  -0.372462 -1.77105 -0.00586891  -0.419219 -1.87238 -0.00497818  -0.466536 -1.97356 -0.00416136  -0.514288 -2.07453 -0.00340557  -0.562335 -2.17525 -0.00272369  -0.610572 -2.27568 -0.00211954  -0.658904 -2.37575 -0.00154114  -0.707228 -2.4755 -0.0010457  -0.755489 -2.57484 -0.000613689  -0.803639 -2.67381 -0.000227928  -0.851605 -2.77246 0.000122547  0 0 0  0.0261916 -0.0271701 -0.0383635  0.0597552 -0.0603437 -0.0446053  0.0877045 -0.101628 -0.0472212  0.111405 -0.153368 -0.0468102  0.129579 -0.214711 -0.045063  0.141676 -0.284314 -0.0426159  0.147533 -0.360845 -0.0398726  0.147255 -0.443065 -0.0370555  0.14113 -0.529844 -0.0342107  0.129593 -0.620327 -0.0314488  0.113089 -0.713717 -0.0287957  0.0920838 -0.809426 -0.0262384  0.0670506 -0.906936 -0.0238061  0.0384283 -1.00588 -0.0215182  0.00661802 -1.10588 -0.0193548  -0.028051 -1.20669 -0.0173116  -0.0651424 -1.30808 -0.0154319  -0.104407 -1.40983 -0.0136094  -0.145496 -1.51184 -0.0119634  -0.18815 -1.61392 -0.010396  -0.232178 -1.71598 -0.00897169  -0.277291 -1.81794 -0.00760841  -0.323312 -1.91971 -0.00637913  -0.370028 -2.02121 -0.00526285  -0.417297 -2.12243 -0.00422049  -0.464966 -2.22329 -0.0033102  -0.512898 -2.32381 -0.00251245  -0.560999 -2.4239 -0.00179386  -0.609147 -2.52362 -0.00122356  -0.657248 -2.62291 -0.000692368  -0.705336 -2.72185 -0.000247955  -0.753306 -2.82046 0.000141144  0 0 0  0.0404048 -0.0469397 -0.0455413  0.0828795 -0.0793132 -0.0573444  0.117233 -0.122504 -0.0613241  0.148114 -0.175787 -0.0609694  0.173121 -0.238919 -0.0586324  0.191702 -0.310456 -0.0553694  0.203557 -0.389001 -0.0516706  0.208733 -0.473309 -0.0478506  0.207532 -0.56214 -0.0440478  0.20038 -0.654645 -0.0403509  0.187775 -0.749984 -0.0368037  0.170242 -0.847514 -0.0334339  0.148249 -0.946766 -0.0302277  0.122318 -1.04724 -0.0272222  0.0928206 -1.14868 -0.0243497  0.060252 -1.25071 -0.0217452  0.0249104 -1.3532 -0.0192323  -0.0127797 -1.45586 -0.0169449  -0.0525208 -1.55866 -0.0148029  -0.0940533 -1.66138 -0.0127702  -0.137101 -1.76395 -0.0109105  -0.181383 -1.86627 -0.0092392  -0.226724 -1.96833 -0.00766563  -0.272911 -2.06998 -0.0062418  -0.319767 -2.17126 -0.00498533  -0.367137 -2.27212 -0.00381804  -0.41481 -2.37256 -0.00285244  -0.462772 -2.47256 -0.0019803  -0.510814 -2.5721 -0.00126743  -0.558898 -2.67124 -0.00070858  -0.60692 -2.76999 -0.000234604  -0.654892 -2.86855 5.57899e-05  -0.0186928 -0.0118592 -0.029634  -0.0311178 -0.0232311 -0.0472445  -0.0115111 -0.0188268 -0.01948  0 0 0  0 0 0  -0.0335045 -0.00174391 -0.0485938  -0.0194928 -0.0166469 -0.0302696  0 0 0  -0.00934062 0.00536504 -0.0248153  -0.0160454 -0.00365128 -0.0319707  -0.00411076 -0.00261251 -0.0138097  0 0 0  -0.0106781 -0.0124535 -0.0236573  -0.0132722 4.86895e-05 -0.0256808  -0.0224157 -0.0111947 -0.0388052  -0.00610616 -0.00805943 -0.0155833  0 0 0  -0.00502739 0.00054352 -0.0177038  -0.00660384 -0.00382219 -0.0193658  -0.0601904 -0.00938958 -0.0671666  -0.0694371 -0.0310499 -0.0669141  -0.0488889 -0.0335808 -0.0482321  -0.0582379 -0.0133811 -0.0607362  -0.052381 -0.0348064 -0.0472512  -0.034414 -0.00213123 -0.046417  -0.0408332 -0.0212812 -0.0464821  -0.0251922 -0.0179183 -0.0337033  -0.0513271 -0.0254426 -0.0591302  -0.0479454 -0.00548939 -0.0556788  -0.0543507 -0.0253608 -0.0557415  -0.0356507 -0.0245155 -0.0405641  -0.0287124 -0.0108384 -0.0406342  -0.0393812 -0.0166715 -0.0490391  -0.0863069 -0.0269975 -0.0776851  -0.105485 -0.0565492 -0.0697508  -0.087963 -0.0527182 -0.0591271  -0.0806699 -0.0424976 -0.064538  -0.0854684 -0.0623257 -0.0510559  -0.0527034 -0.0247749 -0.0533957  -0.0649289 -0.0513908 -0.0490277  -0.052827 -0.0430909 -0.0419168  -0.0873372 -0.0422781 -0.0697641  -0.0684433 -0.0259344 -0.0641  -0.0837068 -0.0533072 -0.0586557  -0.0690268 -0.0471405 -0.0501268  -0.0527064 -0.0347488 -0.0486293  -0.0687892 -0.0377419 -0.058316  -0.118428 -0.0624503 -0.0758655  -0.142444 -0.0933195 -0.065897  -0.126692 -0.0830659 -0.0593009  -0.109285 -0.0842457 -0.0616705  -0.118894 -0.100569 -0.049154  -0.0738037 -0.0619022 -0.0531676  -0.0913153 -0.0928286 -0.046977  -0.0804425 -0.0786516 -0.042486  -0.123862 -0.0737435 -0.0683722  -0.0943488 -0.0620798 -0.0636191  -0.115167 -0.0927953 -0.0559738  -0.102041 -0.0802844 -0.0505631  -0.0777343 -0.0708949 -0.0484264  -0.0991557 -0.0718496 -0.0578015  -0.154403 -0.107003 -0.0697842  -0.180499 -0.138824 -0.059587  -0.165416 -0.122898 -0.0550649  -0.142111 -0.134234 -0.0564291  -0.153548 -0.147129 -0.0448422  -0.0999248 -0.109482 -0.0497231  -0.120705 -0.142751 -0.0429115  -0.109687 -0.123504 -0.0397646  -0.16134 -0.115166 -0.0629447  -0.125218 -0.10833 -0.0592439  -0.14891 -0.14077 -0.0509789  -0.13604 -0.1229 -0.0471764  -0.105639 -0.116866 -0.0451307  -0.131761 -0.11588 -0.053664  -0.192833 -0.15823 -0.0624249  -0.219582 -0.190961 -0.0527344  -0.204498 -0.170346 -0.0492597  -0.177903 -0.190218 -0.0504501  -0.189514 -0.200355 -0.0398018  -0.130198 -0.164364 -0.045017  -0.152784 -0.199214 -0.0382345  -0.141023 -0.175743 -0.0357735  -0.199922 -0.164156 -0.0561848  -0.159679 -0.161506 -0.0534682  -0.18464 -0.195226 -0.0453379  -0.171354 -0.172962 -0.042351  -0.13643 -0.170247 -0.0406351  -0.166546 -0.16727 -0.0481904  -0.232797 -0.214682 -0.0551293  -0.259541 -0.248551 -0.046252  -0.244058 -0.224052 -0.0433018  -0.215689 -0.25107 -0.0445685  -0.226725 -0.259117 -0.0348845  -0.163583 -0.224801 -0.0400116  -0.187106 -0.260966 -0.033613  -0.174345 -0.233972 -0.0315115  -0.239453 -0.219125 -0.0494342  -0.19656 -0.22003 -0.0474675  -0.22197 -0.254982 -0.0398552  -0.207944 -0.229059 -0.0372972  -0.169687 -0.229479 -0.0359104  -0.203123 -0.22449 -0.0425549  -0.273765 -0.275703 -0.0484481  -0.300342 -0.310871 -0.0404239  -0.284249 -0.283092 -0.0378089  -0.254945 -0.316199 -0.0391746  -0.265105 -0.322684 -0.0303993  -0.199278 -0.289814 -0.0352261  -0.22329 -0.327262 -0.0293794  -0.209451 -0.297249 -0.0274997  -0.279833 -0.279158 -0.0432708  -0.235125 -0.28308 -0.0418093  -0.260643 -0.319329 -0.0348668  -0.245746 -0.290298 -0.0325801  -0.204976 -0.293577 -0.031456  -0.241148 -0.286614 -0.0372989  -0.315614 -0.34088 -0.0425045  -0.342001 -0.377459 -0.0353432  -0.325169 -0.34687 -0.0329323  -0.295428 -0.385256 -0.034337  -0.304646 -0.390578 -0.0264609  -0.236805 -0.358878 -0.0308814  -0.261105 -0.397615 -0.0256038  -0.246157 -0.364988 -0.0238993  -0.32106 -0.343656 -0.0378063  -0.275012 -0.350215 -0.0366859  -0.300538 -0.387817 -0.0304434  -0.284711 -0.356091 -0.0283661  -0.241996 -0.361952 -0.027442  -0.28044 -0.353075 -0.0325832  -0.358272 -0.409974 -0.0372717  -0.384549 -0.447954 -0.03089  -0.366894 -0.414887 -0.0287023  -0.337026 -0.457968 -0.0300558  -0.345313 -0.462378 -0.0230315  -0.2759 -0.431635 -0.0269828  -0.3004 -0.471632 -0.0222933  -0.284386 -0.436713 -0.0207357  -0.363166 -0.412242 -0.0330546  -0.316058 -0.421139 -0.0321343  -0.341594 -0.460076 -0.0265615  -0.324811 -0.425985 -0.0246806  -0.280568 -0.43418 -0.0238893  -0.320923 -0.423494 -0.0284491  -0.40179 -0.482677 -0.0326545  -0.427984 -0.522046 -0.0269833  -0.409532 -0.486783 -0.0250316  -0.379703 -0.534037 -0.0262768  -0.387134 -0.537735 -0.0200546  -0.316376 -0.507774 -0.0235586  -0.341099 -0.549002 -0.019392  -0.324021 -0.512039 -0.0180004  -0.406149 -0.484564 -0.0288832  -0.358191 -0.495545 -0.0281112  -0.383767 -0.535805 -0.0231819  -0.366056 -0.499602 -0.0214853  -0.320578 -0.509907 -0.0207965  -0.36254 -0.497522 -0.0248237  -0.446151 -0.55877 -0.0285769  -0.472307 -0.599444 -0.0235496  -0.45308 -0.562208 -0.0218246  -0.423402 -0.613234 -0.0229111  -0.430044 -0.616336 -0.0174265  -0.35819 -0.587061 -0.0205112  -0.383098 -0.629425 -0.0168324  -0.365026 -0.590654 -0.0156188  -0.450024 -0.56035 -0.0252352  -0.401395 -0.573228 -0.0245607  -0.427026 -0.61471 -0.020184  -0.408427 -0.576617 -0.0186932  -0.361935 -0.58885 -0.0180788  -0.405267 -0.574878 -0.0216424  -0.491334 -0.637988 -0.0249383  -0.517491 -0.679873 -0.0205033  -0.497514 -0.640869 -0.0189989  -0.468093 -0.695275 -0.0199325  -0.47401 -0.697885 -0.015126  -0.401204 -0.669194 -0.0178037  -0.426325 -0.712598 -0.0145512  -0.407336 -0.672214 -0.0135064  -0.494791 -0.639301 -0.0219815  -0.445607 -0.653897 -0.021385  -0.471314 -0.696507 -0.0175381  -0.451876 -0.656734 -0.0162404  -0.404565 -0.67068 -0.0156701  -0.449049 -0.65527 -0.018821  -0.537288 -0.720037 -0.0217083  -0.563496 -0.763028 -0.0177739  -0.542798 -0.722464 -0.0164855  -0.51371 -0.779902 -0.0172567  -0.518955 -0.782072 -0.0130658  -0.44537 -0.753876 -0.0153925  -0.470678 -0.798269 -0.0125484  -0.45084 -0.756436 -0.011652  -0.540392 -0.721115 -0.0191116  -0.49076 -0.737247 -0.0185728  -0.516569 -0.78091 -0.0151711  -0.496345 -0.739641 -0.01406  -0.448367 -0.755139 -0.0135276  -0.493826 -0.738401 -0.0163217  -0.584063 -0.804668 -0.0187781  -0.610257 -0.848667 -0.0153191  -0.588923 -0.806694 -0.0142572  -0.560189 -0.866853 -0.0148559  -0.564832 -0.868638 -0.0112305  -0.490581 -0.840909 -0.0132477  -0.516058 -0.886145 -0.010746  -0.495438 -0.843049 -0.0100024  -0.586789 -0.805561 -0.0165284  -0.536809 -0.823072 -0.0160279  -0.562695 -0.86766 -0.013047  -0.541765 -0.825052 -0.0121222  -0.493241 -0.841944 -0.0116334  -0.539528 -0.824011 -0.0140848  -0.631497 -0.891625 -0.016134  -0.657703 -0.936517 -0.0131214  -0.635787 -0.89329 -0.0122337  -0.607399 -0.955832 -0.012671  -0.611495 -0.957317 -0.00956917  -0.536736 -0.929991 -0.0112989  -0.562345 -0.975996 -0.00911713  -0.54103 -0.931756 -0.00852823  -0.633905 -0.892334 -0.0142019  -0.583672 -0.911067 -0.0137427  -0.609622 -0.956505 -0.0111246  -0.588048 -0.912709 -0.0103815  -0.539089 -0.930834 -0.00991464  -0.586064 -0.911832 -0.0120635  -0.679514 -0.98064 -0.0137718  -0.705754 -1.02636 -0.0111222  -0.683308 -0.982006 -0.0104291  -0.65529 -1.04665 -0.0107353  -0.658884 -1.04789 -0.00809622  -0.583732 -1.02089 -0.00954747  -0.60944 -1.06758 -0.00765395  -0.587495 -1.02237 -0.00718713  -0.681659 -0.98121 -0.0120978  -0.631242 -1.001 -0.0116863  -0.657238 -1.04721 -0.00941539  -0.635077 -1.00236 -0.00881457  -0.585799 -1.02158 -0.0083673  -0.633349 -1.00164 -0.0102477  -0.728128 -1.07148 -0.0116234  -0.754302 -1.11794 -0.00934529  -0.731398 -1.07262 -0.00880241  -0.703764 -1.13912 -0.00896525  -0.706866 -1.14009 -0.00677085  -0.631449 -1.11339 -0.008003  -0.657211 -1.16068 -0.00637531  -0.634721 -1.11461 -0.0060184  -0.729959 -1.07193 -0.0102134  -0.679446 -1.09269 -0.00983977  -0.70544 -1.13953 -0.00787187  -0.682779 -1.09378 -0.00740576  -0.633248 -1.11395 -0.00701427  -0.681267 -1.09317 -0.00862145  -0.777131 -1.16397 -0.0096817  -0.803244 -1.21104 -0.00772929  -0.779957 -1.16485 -0.00734925  -0.752701 -1.23298 -0.00738478  -0.755349 -1.23374 -0.00557065  -0.679755 -1.20729 -0.00659895  -0.705549 -1.2551 -0.00521874  -0.682588 -1.20828 -0.00496292  -0.778724 -1.1643 -0.00851512  -0.728143 -1.18585 -0.00816798  -0.754125 -1.23328 -0.00647998  -0.731017 -1.18672 -0.00615835  -0.681313 -1.20773 -0.00578642  -0.729721 -1.18623 -0.00716043  -0.826486 -1.25787 -0.00794983  -0.852505 -1.30547 -0.00628352  -0.828889 -1.25855 -0.00602818  -0.801947 -1.32801 -0.00600123  -0.80423 -1.32862 -0.00451732  -0.728545 -1.3024 -0.00534892  -0.754334 -1.35064 -0.00417447  -0.73098 -1.30318 -0.00402188  -0.827841 -1.25811 -0.00698876  -0.777264 -1.28032 -0.00667977  -0.803177 -1.32825 -0.0052588  -0.779722 -1.28102 -0.00503016  -0.72989 -1.30274 -0.00468373  -0.778609 -1.28063 -0.00585485  -0.876077 -1.35294 -0.00643849  -0.902007 -1.40102 -0.00501633  -0.878105 -1.35349 -0.0048666  -0.851504 -1.42411 -0.00475693  -0.853403 -1.42458 -0.00358129  -0.777706 -1.39851 -0.00425959  -0.803461 -1.44713 -0.00327778  -0.779772 -1.39914 -0.00318384  -0.877226 -1.35311 -0.00565934  -0.826662 -1.37591 -0.00537109  -0.852516 -1.42426 -0.00417256  -0.828755 -1.37646 -0.00403261  -0.778859 -1.39877 -0.00371957  -0.827816 -1.37614 -0.00469518  -0.925844 -1.44908 -0.0050571  -0.951636 -1.49755 -0.00391841  -0.927516 -1.44948 -0.00384593  -0.901192 -1.52105 -0.00367117  -0.902778 -1.52139 -0.00276613  -0.827149 -1.49551 -0.00329542  -0.852823 -1.54441 -0.00248623  -0.828874 -1.49597 -0.00245833  -0.926801 -1.44917 -0.0044589  -0.8763 -1.47246 -0.00420928  -0.90204 -1.52115 -0.00322223  -0.87804 -1.47286 -0.00315189  -0.828116 -1.49568 -0.00287223  -0.877258 -1.47261 -0.00368237  -0.975656 -1.54607 -0.0038631  -1.00129 -1.59487 -0.0029285  -0.977047 -1.54635 -0.0029428  -0.950968 -1.61869 -0.00273013  -0.952261 -1.61894 -0.0020504  -0.876762 -1.59318 -0.00244236  -0.902317 -1.64233 -0.00179505  -0.878172 -1.59353 -0.00181484  -0.976452 -1.54611 -0.0033989  -0.926058 -1.56978 -0.00318861  -0.951652 -1.61875 -0.00238419  -0.927474 -1.57005 -0.00238705  -0.877555 -1.5933 -0.00212884  -0.926833 -1.56987 -0.00278449  -1.02548 -1.64377 -0.00284076  -1.05096 -1.69283 -0.00209689  -1.0266 -1.64396 -0.00214648  -1.00075 -1.71692 -0.00190806  -1.00177 -1.71706 -0.00143552  -0.926455 -1.69141 -0.00173974  -0.951883 -1.74074 -0.00122142  -0.927589 -1.69167 -0.00127983  -1.02612 -1.64378 -0.00249052  -0.975837 -1.66772 -0.00231075  -1.00129 -1.71692 -0.00167203  -0.976996 -1.66792 -0.00172424  -0.927096 -1.69149 -0.00150537  -0.976475 -1.66777 -0.00201797  -1.07526 -1.74204 -0.0019474  -1.10055 -1.79128 -0.00139308  -1.07611 -1.74214 -0.00148964  -1.05047 -1.81555 -0.00122857  -1.05126 -1.81563 -0.000925541  -0.976143 -1.79006 -0.00110793  -1.00141 -1.83953 -0.000742435  -0.977029 -1.79025 -0.000819206  -1.07577 -1.742 -0.00173092  -1.02559 -1.76616 -0.00155711  -1.05088 -1.81553 -0.00107741  -1.0265 -1.76627 -0.00116873  -0.976653 -1.79009 -0.000957489  -1.02609 -1.76618 -0.00135899  -1.12491 -1.84073 -0.00120831  -1.14999 -1.8901 -0.000815868  -1.12553 -1.84077 -0.000943184  -1.10006 -1.91448 -0.000682592  -1.10063 -1.91451 -0.000516653  -1.02577 -1.88903 -0.000618219  -1.05087 -1.93856 -0.000357628  -1.02643 -1.88914 -0.000457287  -1.12529 -1.84064 -0.00108099  -1.07526 -1.86497 -0.000947714  -1.10034 -1.91444 -0.000597954  -1.07593 -1.86501 -0.000701189  -1.02616 -1.88902 -0.000540733  -1.07563 -1.86495 -0.000821114  -1.17437 -1.93968 -0.000650644  -1.19927 -1.98916 -0.000388622  -1.17482 -1.93969 -0.000508308  -1.14948 -2.01359 -0.000273466  -1.14986 -2.0136 -0.000204325  -1.07526 -1.98817 -0.000247002  -1.10019 -2.03774 -7.86781e-05  -1.07574 -1.98823 -0.000168324  -1.17465 -1.9396 -0.000574589  -1.12477 -1.96399 -0.000473022  -1.14966 -2.01355 -0.000242949  -1.12524 -1.96402 -0.000349998  -1.07555 -1.98814 -0.000208139  -1.12502 -1.96398 -0.000404119  -1.22363 -2.03882 -0.000222445  -1.24831 -2.08837 -6.00815e-05  -1.22391 -2.03881 -0.000197411  -1.19868 -2.11279 1.38283e-05  -1.19891 -2.11279 9.53674e-07  -1.1246 -2.08739 1.97887e-05  -1.14934 -2.13697 0.000103712  -1.1249 -2.08742 1.52588e-05  -1.22381 -2.03875 -0.000210285  -1.17408 -2.06316 -0.000130653  -1.19878 -2.11274 4.52995e-06  -1.17438 -2.06317 -9.87053e-05  -1.12478 -2.08735 1.85966e-05  -1.17424 -2.06314 -0.000106573  -1.27266 -2.13805 8.01086e-05  -1.29715 -2.18759 0.000142574  -1.2728 -2.13804 2.7895e-05  -1.24763 -2.21197 0.000186682  -1.24775 -2.21198 0.000126362  -1.17369 -2.18661 0.00019145  -1.19826 -2.23616 0.000219584  -1.17387 -2.18665 0.000138283  -1.27275 -2.13798 5.8651e-05  -1.22316 -2.16237 0.000109673  -1.24767 -2.21193 0.000159025  -1.22333 -2.16237 7.36713e-05  -1.17382 -2.18657 0.000166416  -1.22325 -2.16234 9.53674e-05  -1.32143 -2.23723 0.000224113  -1.34576 -2.28675 0.000213623  -1.32147 -2.23725 0.000139713  -1.29635 -2.31107 0.000257492  -1.29638 -2.31108 0.000174284  -1.22257 -2.28575 0.000267267  -1.24695 -2.33524 0.000242949  -1.22263 -2.28579 0.000189781  -1.32148 -2.23717 0.000183344  -1.272 -2.2615 0.000214577  -1.29634 -2.31104 0.000210047  -1.27206 -2.26153 0.000157595  -1.22262 -2.28572 0.000228643  -1.27203 -2.2615 0.000189781  -1.36996 -2.33632 0.000251055  -1.39417 -2.38576 0.000195026  -1.36998 -2.33634 0.000156641  -1.34481 -2.40998 0.000234365  -1.34483 -2.41003 0.000163317  -1.27117 -2.38474 0.00026679  -1.29541 -2.43414 0.000210762  -1.27119 -2.38479 0.000189781  -1.36998 -2.33628 0.000200748  -1.32058 -2.36053 0.000241995  -1.34478 -2.40998 0.000192165  -1.3206 -2.36056 0.000172377  -1.27121 -2.38472 0.000225544  -1.32058 -2.36053 0.000213861  -1.41831 -2.4352 0.000183105  -1.44251 -2.4846 0.000152111  -1.41834 -2.43527 0.000130892  -1.39314 -2.50875 0.000192165  -1.39317 -2.50881 0.000137568  -1.31955 -2.48354 0.000231266  -1.34372 -2.53288 0.000203133  -1.31957 -2.4836 0.000158787  -1.41833 -2.4352 0.000170469  -1.36895 -2.45935 0.000203371  -1.39313 -2.50875 0.000163078  -1.36898 -2.45942 0.000150442  -1.31958 -2.48353 0.000198126  -1.36895 -2.45937 0.00017643  0 0 0  -0.0161019 0.00672667 -0.0320582  -0.00895447 -0.00465339 -0.0202355  0 0 0  -0.00456332 0.0074203 -0.0156026  -0.00750246 0.00157437 -0.0200496  -0.00187565 0.00112864 -0.00885677  0 0 0  -0.00652466 0.00688154 -0.0196304  -0.0112674 4.20064e-05 -0.0256746  -0.00273006 -1.97738e-05 -0.0110998  0 0 0  -0.00237284 0.00321424 -0.0114269  -0.00340705 0.00243822 -0.0142784  -0.0315171 -0.0102898 -0.0407355  -0.0281834 -0.0257872 -0.0319991  -0.0162686 0.00115898 -0.0290818  -0.0198085 -0.0177023 -0.0292938  -0.0117827 -0.0117722 -0.0213814  -0.0245139 0.00031969 -0.0371096  -0.0295217 -0.0187317 -0.0374317  -0.0178454 -0.0137454 -0.0271759  -0.0135547 -0.00608456 -0.0255976  -0.0204361 -0.00750415 -0.0326221  -0.0464507 -0.0419408 -0.0433402  -0.0500954 -0.0581647 -0.0349801  -0.0258873 -0.0245547 -0.0334792  -0.0339458 -0.0509569 -0.0312889  -0.026957 -0.0396182 -0.0269144  -0.0384669 -0.0243032 -0.0429554  -0.0485685 -0.0506829 -0.0398057  -0.0390492 -0.0405968 -0.0341237  -0.0265392 -0.032815 -0.0308764  -0.0387921 -0.0331836 -0.0393481  -0.0658078 -0.085767 -0.041853  -0.0734746 -0.100403 -0.0338979  -0.0389091 -0.0637558 -0.0336709  -0.0510737 -0.0950939 -0.0301762  -0.0443785 -0.0785796 -0.0274942  -0.0555007 -0.0624905 -0.0430245  -0.0702277 -0.09355 -0.0383058  -0.06148 -0.0780812 -0.0347636  -0.0420862 -0.0717886 -0.0310385  -0.0589869 -0.0708928 -0.0394235  -0.0898066 -0.138516 -0.0386057  -0.0993769 -0.150959 -0.0310502  -0.0563887 -0.113443 -0.0317149  -0.0717837 -0.147954 -0.0276644  -0.0643869 -0.126717 -0.0258071  -0.0772288 -0.111145 -0.0404127  -0.0952464 -0.145058 -0.0351014  -0.0860676 -0.124705 -0.0326173  -0.0609478 -0.120559 -0.0290627  -0.0823096 -0.118359 -0.036865  -0.117825 -0.197895 -0.0346954  -0.127927 -0.208199 -0.027612  -0.0783747 -0.171022 -0.0288186  -0.0961158 -0.207667 -0.0246449  -0.0874826 -0.182385 -0.0232117  -0.103341 -0.167445 -0.0367148  -0.123487 -0.203249 -0.0313194  -0.113309 -0.178782 -0.0293713  -0.0835083 -0.177044 -0.0262053  -0.108982 -0.173401 -0.0332632  -0.149067 -0.262464 -0.0306842  -0.158915 -0.270949 -0.0241568  -0.104354 -0.234618 -0.0256095  -0.123733 -0.272886 -0.0215926  -0.113642 -0.244181 -0.0203893  -0.133068 -0.229545 -0.0326874  -0.154517 -0.266831 -0.0275276  -0.143103 -0.238899 -0.0258727  -0.109534 -0.239638 -0.0231221  -0.138675 -0.234415 -0.0294135  -0.182865 -0.331378 -0.0269253  -0.192114 -0.338397 -0.0209699  -0.133682 -0.303087 -0.0224426  -0.154198 -0.342724 -0.0187168  -0.142634 -0.311089 -0.0176711  -0.165635 -0.296365 -0.0287673  -0.187926 -0.334965 -0.0240026  -0.175226 -0.304077 -0.022526  -0.138623 -0.307262 -0.0201292  -0.170937 -0.30036 -0.0257292  -0.218788 -0.404123 -0.0234845  -0.227293 -0.409981 -0.0181556  -0.165805 -0.375677 -0.0195329  -0.187179 -0.416568 -0.0161564  -0.174168 -0.382397 -0.0152144  -0.200551 -0.367247 -0.0251606  -0.223413 -0.407111 -0.0208549  -0.209433 -0.373657 -0.019521  -0.17039 -0.379166 -0.017416  -0.205422 -0.370555 -0.0223913  -0.256588 -0.480348 -0.0204506  -0.264298 -0.48527 -0.0156808  -0.200337 -0.451895 -0.0168841  -0.222387 -0.493948 -0.0138927  -0.207999 -0.457578 -0.0130482  -0.237437 -0.441785 -0.0219185  -0.260745 -0.482842 -0.0180781  -0.245544 -0.44715 -0.0168712  -0.204513 -0.454837 -0.0149956  -0.241854 -0.444546 -0.0194244  -0.296024 -0.559713 -0.0177319  -0.302995 -0.563893 -0.0135422  -0.236962 -0.531353 -0.0145586  -0.259608 -0.574501 -0.0119283  -0.243928 -0.536184 -0.0111713  -0.276077 -0.519606 -0.019052  -0.299775 -0.561832 -0.0156496  -0.283407 -0.524142 -0.0145741  -0.240752 -0.533849 -0.0128829  -0.280053 -0.521943 -0.0168331  -0.337015 -0.641969 -0.0153439  -0.343261 -0.645502 -0.0116637  -0.275486 -0.613736 -0.0125077  -0.298653 -0.657891 -0.0102  -0.281782 -0.617849 -0.00955105  -0.316307 -0.600465 -0.0165145  -0.340365 -0.64375 -0.0135083  -0.32291 -0.604305 -0.0125751  -0.278906 -0.615853 -0.0110409  -0.319876 -0.602437 -0.0145559  -0.379397 -0.726795 -0.0132184  -0.384991 -0.729796 -0.0100124  -0.315732 -0.698738 -0.0106902  -0.339364 -0.74381 -0.00867152  -0.321393 -0.702252 -0.00813222  -0.358 -0.684034 -0.0142586  -0.382392 -0.728312 -0.0116217  -0.363923 -0.687301 -0.0108175  -0.318802 -0.700542 -0.00941277  -0.361202 -0.685714 -0.0125468  -0.423061 -0.813968 -0.011337  -0.428051 -0.816487 -0.00856066  -0.357534 -0.78609 -0.00910163  -0.381582 -0.831969 -0.00735259  -0.362601 -0.789087 -0.00689268  -0.401038 -0.770076 -0.0122583  -0.425732 -0.815235 -0.00994849  -0.406332 -0.772831 -0.00927091  -0.360284 -0.787621 -0.00799823  -0.403896 -0.771488 -0.0107715  -0.467884 -0.903165 -0.00964379  -0.4723 -0.90531 -0.00727201  -0.400747 -0.875502 -0.00767899  -0.425141 -0.922096 -0.00617003  -0.405248 -0.878063 -0.0058105  -0.445312 -0.858292 -0.0104771  -0.470247 -0.904239 -0.00845885  -0.450015 -0.86063 -0.0079031  -0.4032 -0.876797 -0.0067513  -0.447842 -0.859483 -0.0091877  -0.513738 -0.994213 -0.00813651  -0.517637 -0.996013 -0.00612402  -0.445204 -0.96674 -0.00641108  -0.469906 -1.01398 -0.00512218  -0.449185 -0.968909 -0.00483394  -0.490662 -0.94845 -0.00886726  -0.515808 -0.995108 -0.00712633  -0.494812 -0.950409 -0.00668669  -0.447376 -0.967831 -0.00562406  -0.492896 -0.949448 -0.00777984  -0.560485 -1.08686 -0.00678945  -0.563895 -1.08836 -0.00509286  -0.490776 -1.05958 -0.00531578  -0.515705 -1.10736 -0.00419378  -0.494284 -1.06141 -0.00399566  -0.536981 -1.04032 -0.00745559  -0.562297 -1.08759 -0.00594449  -0.540628 -1.04197 -0.00559473  -0.492683 -1.06049 -0.00465512  -0.538938 -1.04116 -0.00652099  -0.60799 -1.18087 -0.00558472  -0.610955 -1.18214 -0.00419497  -0.537283 -1.15379 -0.00430703  -0.562401 -1.20205 -0.00337982  -0.540342 -1.15532 -0.00323653  -0.584116 -1.13367 -0.00617838  -0.609561 -1.18147 -0.004884  -0.587298 -1.13504 -0.00462961  -0.538946 -1.15455 -0.00376916  -0.585841 -1.13436 -0.00539732  -0.656135 -1.2761 -0.00451326  -0.658687 -1.27712 -0.00338697  -0.584583 -1.24918 -0.00344491  -0.609847 -1.29784 -0.00265598  -0.58724 -1.25047 -0.00257587  -0.631961 -1.22831 -0.00504661  -0.657483 -1.27658 -0.00395322  -0.634714 -1.22946 -0.00378036  -0.586035 -1.24982 -0.00301051  -0.633444 -1.22888 -0.00441289  -0.704786 -1.37232 -0.0035727  -0.706962 -1.37315 -0.00265813  -0.632565 -1.34557 -0.00267148  -0.657905 -1.39457 -0.0020113  -0.634834 -1.34664 -0.0019927  -0.680368 -1.32407 -0.00403619  -0.705933 -1.37271 -0.00310421  -0.682736 -1.32499 -0.00301695  -0.633804 -1.34609 -0.0023253  -0.681643 -1.32452 -0.00352573  -0.753836 -1.4694 -0.00272751  -0.755651 -1.47005 -0.00203776  -0.681049 -1.44282 -0.00199366  -0.706448 -1.49206 -0.00147891  -0.682983 -1.44368 -0.00148344  -0.729231 -1.42073 -0.00314093  -0.754792 -1.4697 -0.00238729  -0.731227 -1.42148 -0.0023458  -0.682115 -1.44322 -0.00173664  -0.730316 -1.4211 -0.00273991  -0.803144 -1.56717 -0.00203705  -0.804662 -1.56768 -0.00151086  -0.72997 -1.54073 -0.00142765  -0.755342 -1.59018 -0.00102735  -0.731568 -1.54144 -0.00105572  -0.77843 -1.51818 -0.00237775  -0.80394 -1.56739 -0.00176358  -0.780106 -1.51876 -0.00176716  -0.730852 -1.54105 -0.00123334  -0.779328 -1.51847 -0.00206947  -0.852641 -1.66548 -0.0014143  -0.85387 -1.66587 -0.00103927  -0.779143 -1.63918 -0.00094223  -0.804484 -1.68877 -0.000622988  -0.780467 -1.63974 -0.000688076  -0.827845 -1.61623 -0.00172019  -0.853281 -1.66564 -0.00122046  -0.829221 -1.61669 -0.00126433  -0.779883 -1.63942 -0.000811338  -0.828588 -1.61645 -0.00149012  -0.902224 -1.76421 -0.000896215  -0.903194 -1.7645 -0.000649452  -0.82852 -1.73802 -0.000517368  -0.853768 -1.78773 -0.000284195  -0.829571 -1.73847 -0.000378847  -0.877397 -1.71477 -0.00114489  -0.902727 -1.76432 -0.000767469  -0.878495 -1.71512 -0.000841379  -0.829106 -1.73821 -0.000450134  -0.87799 -1.71493 -0.000985861  -0.951793 -1.86323 -0.000482559  -0.952549 -1.86345 -0.0003438  -0.877957 -1.83717 -0.000183582  -0.903107 -1.88693 -4.673e-05  -0.878785 -1.83753 -0.000123978  -0.926983 -1.81366 -0.000670671  -0.952177 -1.8633 -0.000405312  -0.927853 -1.81393 -0.000480652  -0.878427 -1.8373 -0.000148535  -0.927446 -1.81377 -0.000576496  -1.00132 -1.96245 -0.000177383  -1.00186 -1.9626 -0.00010252  -0.9274 -1.9365 5.34058e-05  -0.95242 -1.98628 0.000137091  -0.928017 -1.93678 4.41074e-05  -0.976537 -1.91279 -0.000309706  -1.00158 -1.96249 -0.000139236  -0.977184 -1.91299 -0.000221491  -0.927759 -1.93659 4.72069e-05  -0.976881 -1.91288 -0.00026226  -1.05069 -2.06175 7.41482e-05  -1.05107 -2.06186 7.36713e-05  -0.976785 -2.03592 0.000212908  -1.00165 -2.08569 0.000261784  -0.977222 -2.03612 0.000178576  -1.02598 -2.01206 -2.86102e-05  -1.05087 -2.06176 8.10623e-05  -1.02646 -2.0122 -8.58307e-06  -0.977042 -2.03598 0.000200272  -1.02624 -2.01211 -1.7643e-05  -1.09989 -2.16104 0.000230312  -1.10014 -2.16114 0.000180006  -1.02605 -2.13534 0.00033021  -1.05074 -2.18505 0.000338793  -1.02632 -2.13549 0.000267982  -1.0753 -2.11138 0.000154495  -1.1 -2.16106 0.000212669  -1.07558 -2.11147 0.000131845  -1.02621 -2.13537 0.000306606  -1.07545 -2.11141 0.000147581  -1.14888 -2.26027 0.000292063  -1.14901 -2.26035 0.000226259  -1.0751 -2.23467 0.000386953  -1.09964 -2.28431 0.000328064  -1.07525 -2.2348 0.000294209  -1.12438 -2.21064 0.00027132  -1.14892 -2.26028 0.000262499  -1.12456 -2.21073 0.000205278  -1.07521 -2.23469 0.000340223  -1.12447 -2.21067 0.000243187  -1.19762 -2.35936 0.000305414  -1.19767 -2.35942 0.000227928  -1.12395 -2.33388 0.000362873  -1.14833 -2.38342 0.000303745  -1.12401 -2.33398 0.000268936  -1.17325 -2.30981 0.000306606  -1.19761 -2.35936 0.000267267  -1.17333 -2.30988 0.000231504  -1.124 -2.33388 0.000322342  -1.17329 -2.30983 0.000270128  -1.24609 -2.45826 0.000243902  -1.24611 -2.45832 0.000186682  -1.17255 -2.4329 0.000306129  -1.19678 -2.48233 0.000246048  -1.17257 -2.43298 0.000228643  -1.22186 -2.40881 0.000278711  -1.24607 -2.45826 0.000218153  -1.22189 -2.40888 0.000207663  -1.17258 -2.4329 0.000267267  -1.22187 -2.40883 0.000241756  -1.29437 -2.55697 0.000233412  -1.2944 -2.55701 0.000157118  -1.22089 -2.53171 0.000241518  -1.245 -2.58098 0.000200748  -1.2209 -2.53176 0.00016737  -1.27023 -2.50762 0.00023365  -1.29436 -2.55695 0.000192165  -1.27024 -2.50767 0.000174046  -1.22091 -2.53168 0.00020504  -1.27023 -2.50763 0.000205994  0 0 0  -0.00634637 0.00719765 -0.0172997  -0.00322041 -0.0024198 -0.0113766  0 0 0  -0.00122008 0.0063557 -0.00662899  -0.00143184 0.000731796 -0.00867391  -0.000325844 0.00101393 -0.00397587  0 0 0  -0.00272191 0.00712594 -0.0109  -0.00424975 0.00158361 -0.0141838  -0.00099396 0.00136074 -0.0063355  0 0 0  -0.000488345 0.00263819 -0.0050118  -0.0013209 0.00318131 -0.00810671  -0.0118982 -0.0107002 -0.0225658  -0.0112623 -0.0239389 -0.0182981  -0.00320093 -0.000791937 -0.0126729  -0.00401352 -0.0195778 -0.0133948  -0.00228103 -0.0121709 -0.00989389  -0.00934312 0.000652999 -0.0205324  -0.0114994 -0.0180635 -0.0210919  -0.00674292 -0.0113818 -0.0154717  -0.00259845 -0.00731632 -0.0115466  -0.00775406 -0.0061664 -0.018328  -0.0187594 -0.0443871 -0.0243819  -0.0223719 -0.0587682 -0.0203347  -0.00471798 -0.0279781 -0.0152051  -0.00870568 -0.0546201 -0.014817  -0.00695592 -0.0415023 -0.012908  -0.0148206 -0.0257635 -0.0240324  -0.0208259 -0.0522653 -0.022819  -0.016519 -0.0399414 -0.0197189  -0.00597504 -0.0355489 -0.0144677  -0.0157861 -0.033628 -0.0224164  -0.029826 -0.090122 -0.0237632  -0.0362205 -0.103815 -0.0198448  -0.00949562 -0.0689194 -0.01561  -0.016886 -0.100846 -0.0144718  -0.0144464 -0.0826802 -0.0134573  -0.0237133 -0.0658873 -0.0243728  -0.0334473 -0.0975245 -0.0221336  -0.0288954 -0.0800973 -0.0203068  -0.0123054 -0.0764898 -0.0148513  -0.0266769 -0.0736524 -0.0227284  -0.0454663 -0.145045 -0.0219955  -0.053406 -0.15725 -0.0181768  -0.0186965 -0.120438 -0.0147967  -0.0291661 -0.155935 -0.0132296  -0.025427 -0.133251 -0.0126684  -0.0370424 -0.116528 -0.0230296  -0.0499049 -0.151558 -0.0203052  -0.0443557 -0.129535 -0.0191109  -0.0224844 -0.12739 -0.0139632  -0.041171 -0.123552 -0.0213439  -0.065628 -0.207015 -0.0197034  -0.0741456 -0.217563 -0.0160503  -0.0326459 -0.180122 -0.0133421  -0.0456929 -0.218156 -0.0116036  -0.0402736 -0.191517 -0.011265  -0.0549864 -0.175206 -0.0209091  -0.0703232 -0.212596 -0.0180173  -0.0633123 -0.186574 -0.0171461  -0.0368975 -0.186242 -0.0124626  -0.0596273 -0.181295 -0.0192089  -0.0898175 -0.274569 -0.017288  -0.0982977 -0.283562 -0.0138881  -0.0511515 -0.24623 -0.0116642  -0.0662994 -0.286193 -0.00990915  -0.0590355 -0.256145 -0.00967193  -0.0772327 -0.240113 -0.018508  -0.0944448 -0.279287 -0.0156827  -0.0857796 -0.249861 -0.0149691  -0.055501 -0.251508 -0.0107725  -0.0819353 -0.245289 -0.016861  -0.117473 -0.346718 -0.0149536  -0.125576 -0.354329 -0.0118635  -0.0737881 -0.317546 -0.00992155  -0.0906069 -0.359042 -0.00830746  -0.0814962 -0.326067 -0.00812101  -0.103203 -0.31007 -0.0161033  -0.121863 -0.350695 -0.0134621  -0.111535 -0.318341 -0.0128524  -0.0780066 -0.322058 -0.00908947  -0.10776 -0.31444 -0.0145609  -0.14815 -0.422755 -0.0128272  -0.155691 -0.429231 -0.0100532  -0.100043 -0.393176 -0.00831652  -0.118247 -0.43596 -0.00685835  -0.107349 -0.400475 -0.00670648  -0.132434 -0.384241 -0.0138655  -0.152213 -0.426129 -0.0114739  -0.140265 -0.391256 -0.0109298  -0.104033 -0.397023 -0.00755858  -0.136685 -0.387938 -0.0124507  -0.181474 -0.50221 -0.0109155  -0.188372 -0.507747 -0.00848436  -0.129512 -0.472456 -0.00686002  -0.148862 -0.5164 -0.00559425  -0.136302 -0.478758 -0.00546861  -0.164474 -0.462032 -0.0118394  -0.185164 -0.505087 -0.00972533  -0.171703 -0.468034 -0.00924659  -0.133202 -0.475763 -0.00619602  -0.168374 -0.465184 -0.0105779  -0.217088 -0.584679 -0.00924516  -0.223391 -0.589435 -0.00713205  -0.161809 -0.554965 -0.0055871  -0.182129 -0.599906 -0.00450063  -0.16803 -0.560365 -0.0044179  -0.19898 -0.543048 -0.010052  -0.220444 -0.587143 -0.00820732  -0.205568 -0.548164 -0.00778365  -0.165175 -0.55779 -0.00502992  -0.20252 -0.545747 -0.00894499  -0.254816 -0.669849 -0.00779152  -0.260499 -0.673925 -0.00598097  -0.1966 -0.640243 -0.00450826  -0.217783 -0.686099 -0.00358963  -0.202265 -0.644909 -0.00353599  -0.235673 -0.626913 -0.00849366  -0.257845 -0.671957 -0.00690222  -0.241655 -0.631304 -0.00653386  -0.199663 -0.642682 -0.00403953  -0.238888 -0.629218 -0.00753117  -0.294426 -0.757403 -0.0065155  -0.299541 -0.760885 -0.0049777  -0.233661 -0.727976 -0.00356412  -0.255582 -0.774629 -0.00281644  -0.238776 -0.73201 -0.00278234  -0.274368 -0.713307 -0.0071311  -0.29714 -0.759196 -0.00575233  -0.279759 -0.717076 -0.0054574  -0.236425 -0.730085 -0.00319147  -0.277259 -0.715284 -0.00631046  -0.335709 -0.847025 -0.00538254  -0.340301 -0.85003 -0.00410938  -0.272729 -0.817863 -0.0027709  -0.295312 -0.865192 -0.00213647  -0.277329 -0.821343 -0.0021565  -0.314842 -0.801938 -0.0059402  -0.338147 -0.848572 -0.00475478  -0.319685 -0.805168 -0.00452852  -0.275211 -0.819673 -0.00247383  -0.317438 -0.803628 -0.00524068  -0.37853 -0.938496 -0.00441027  -0.38258 -0.941077 -0.00335073  -0.313615 -0.909593 -0.00207543  -0.336752 -0.957533 -0.00158262  -0.317706 -0.912602 -0.00161242  -0.356927 -0.892524 -0.00488377  -0.380676 -0.939822 -0.00388503  -0.361228 -0.8953 -0.00371552  -0.315821 -0.91115 -0.00185561  -0.359228 -0.893975 -0.00430179  -0.422667 -1.03158 -0.00355411  -0.426246 -1.03377 -0.00268745  -0.35608 -1.00295 -0.0015192  -0.379707 -1.05139 -0.00109792  -0.359715 -1.00553 -0.00116611  -0.400415 -0.984828 -0.00397325  -0.424565 -1.0327 -0.00312471  -0.404225 -0.987198 -0.00300527  -0.35804 -1.00427 -0.00135088  -0.402451 -0.986066 -0.00349092  -0.467975 -1.12603 -0.00278902  -0.471107 -1.12791 -0.00210571  -0.399941 -1.09769 -0.000991344  -0.423961 -1.14655 -0.000688314  -0.403134 -1.0999 -0.000776052  -0.445165 -1.07862 -0.0031631  -0.469625 -1.12698 -0.00244904  -0.448511 -1.08065 -0.00238681  -0.401675 -1.09881 -0.000886679  -0.446956 -1.07967 -0.0027709  -0.514262 -1.22167 -0.00213861  -0.516986 -1.22324 -0.00160289  -0.444999 -1.19357 -0.00057292  -0.469351 -1.24281 -0.000353575  -0.447792 -1.19549 -0.000446558  -0.490965 -1.17367 -0.00245571  -0.515694 -1.22246 -0.00186706  -0.493895 -1.1754 -0.00184464  -0.446519 -1.19454 -0.000511646  -0.492537 -1.17457 -0.00215387  -0.56137 -1.31827 -0.00157428  -0.563722 -1.31959 -0.00117564  -0.49109 -1.29046 -0.000234127  -0.515692 -1.33997 -6.8903e-05  -0.49351 -1.29208 -0.000171423  -0.537677 -1.26982 -0.00184011  -0.562605 -1.31894 -0.00137162  -0.54023 -1.27128 -0.00138235  -0.492408 -1.29128 -0.000199795  -0.539047 -1.27058 -0.00161004  -0.609191 -1.41571 -0.00107193  -0.611185 -1.41682 -0.000794172  -0.538041 -1.38815 5.67436e-05  -0.562832 -1.43789 0.000158072  -0.540097 -1.38953 4.88758e-05  -0.585173 -1.36687 -0.00131702  -0.610226 -1.41626 -0.000925779  -0.587345 -1.36808 -0.000974655  -0.539171 -1.38884 5.34058e-05  -0.586334 -1.3675 -0.00114489  -0.657526 -1.51381 -0.000657082  -0.659207 -1.51473 -0.000481606  -0.585686 -1.48651 0.000298977  -0.610611 -1.53641 0.000356913  -0.587434 -1.48765 0.000226974  -0.633265 -1.46465 -0.000858307  -0.658406 -1.51427 -0.000564814  -0.635101 -1.46567 -0.000633001  -0.586642 -1.48707 0.000264406  -0.634246 -1.46518 -0.000745535  -0.706291 -1.61245 -0.000322342  -0.707677 -1.6132 -0.000219822  -0.633884 -1.58539 0.000486135  -0.658889 -1.63537 0.000499725  -0.635337 -1.58634 0.000382662  -0.681842 -1.56306 -0.000479937  -0.707007 -1.61282 -0.000272274  -0.683367 -1.56388 -0.000344992  -0.634693 -1.58584 0.000435829  -0.682654 -1.56348 -0.000412941  -0.755328 -1.71147 -2.14577e-05  -0.75645 -1.71208 -1.43051e-05  -0.682499 -1.68463 0.000632286  -0.707514 -1.73469 0.000601053  -0.683676 -1.68542 0.000477076  -0.730757 -1.6619 -0.000175953  -0.755905 -1.71176 -2.02656e-05  -0.732006 -1.66257 -0.000112534  -0.683159 -1.68499 0.000556231  -0.731419 -1.66224 -0.000142574  -0.804561 -1.81078 0.000200033  -0.805433 -1.81128 0.000165224  -0.731397 -1.78415 0.000703573  -0.756394 -1.83423 0.000668049  -0.732341 -1.78478 0.000544071  -0.779895 -1.76108 8.7738e-05  -0.805003 -1.81101 0.000185251  -0.780898 -1.76163 8.55923e-05  -0.73192 -1.78443 0.000626087  -0.780428 -1.76135 9.01222e-05  -0.853864 -1.91027 0.000352859  -0.854529 -1.91065 0.000277758  -0.780491 -1.8838 0.000779629  -0.805417 -1.93388 0.00069952  -0.781197 -1.88433 0.000588894  -0.82918 -1.86049 0.000277281  -0.854196 -1.91044 0.000314951  -0.829946 -1.86093 0.000227213  -0.780888 -1.88404 0.00068593  -0.82959 -1.8607 0.000256777  -0.903164 -2.00983 0.000448704  -0.903661 -2.01014 0.000354052  -0.829635 -1.98356 0.000786543  -0.854491 -2.03359 0.000694513  -0.83017 -1.98398 0.000607491  -0.87848 -1.96002 0.000403166  -0.903399 -2.00996 0.000402927  -0.879069 -1.96037 0.000315428  -0.829948 -1.98374 0.000703573  -0.878796 -1.96019 0.000362635  -0.952392 -2.1094 0.000506163  -0.952732 -2.10963 0.000387907  -0.878789 -2.08329 0.000761271  -0.903544 -2.13325 0.000646591  -0.87916 -2.08364 0.000584602  -0.927766 -2.0596 0.00048542  -0.952552 -2.10949 0.000448942  -0.92817 -2.05987 0.00037384  -0.879018 -2.08343 0.000674009  -0.927989 -2.05973 0.000429869  -1.00151 -2.20888 0.000494242  -1.0017 -2.20907 0.000382423  -0.927885 -2.18295 0.000685453  -0.952493 -2.2328 0.000576735  -0.928115 -2.18321 0.000528097  -0.976943 -2.15915 0.000505209  -1.00158 -2.20895 0.000441074  -0.977201 -2.15934 0.000388861  -0.92803 -2.18304 0.00061202  -0.977079 -2.15923 0.000449896  -1.05042 -2.30821 0.000438213  -1.05051 -2.30837 0.000344515  -0.97683 -2.28244 0.000599623  -1.0013 -2.33219 0.000469685  -0.976941 -2.28266 0.000449181  -1.02596 -2.25854 0.000470161  -1.05044 -2.30827 0.000390053  -1.02609 -2.25871 0.00036025  -0.976907 -2.28252 0.000519037  -1.02603 -2.25862 0.000421047  -1.09911 -2.40737 0.00036478  -1.09914 -2.40749 0.000271797  -1.02559 -2.38174 0.000469208  -1.04991 -2.43137 0.000351667  -1.02562 -2.38192 0.00034976  -1.07477 -2.3578 0.000412941  -1.0991 -2.4074 0.000320911  -1.07482 -2.35793 0.000311852  -1.02562 -2.3818 0.000410557  -1.07479 -2.35785 0.000360966  -1.14757 -2.50633 0.000273705  -1.14755 -2.5064 0.000196218  -1.07413 -2.48085 0.000323296  -1.09832 -2.53029 0.000230312  -1.07411 -2.48097 0.000246763  -1.12334 -2.45685 0.000320673  -1.14753 -2.50632 0.000235319  -1.12335 -2.45695 0.000234127  -1.07414 -2.48086 0.000283957  -1.12334 -2.4569 0.000278473  -1.19575 -2.60497 0.000222445  -1.19574 -2.60503 0.000121593  -1.12242 -2.57964 0.000209808  -1.14643 -2.62889 0.00015378  -1.12237 -2.57973 0.000149727  -1.17166 -2.55567 0.000230312  -1.1957 -2.60494 0.000170946  -1.17164 -2.55573 0.000163555  -1.12241 -2.57964 0.000176668  -1.17164 -2.55567 0.000195026  0 0 0  0.00108559 0.00408977 -0.00319266  0.00115936 -0.00428894 -0.00285721  0 0 0  0.00139622 0.0037632 0.00208139  0.00371537 -0.00302494 0.00221848  0.000961877 -0.00086236 0.000879049  0 0 0  0.000150844 0.00520149 -0.00217366  0.00120591 -0.000864565 -0.00312376  0.000339508 0.000245184 -0.001513  0 0 0  0.00107585 0.000466406 0.00134969  0.000321604 0.00171041 -0.00178242  0.00377479 -0.0153641 -0.00547123  0.00220534 -0.0273108 -0.00538135  0.00783347 -0.00632572 0.00282884  0.00963888 -0.0256301 0.001508  0.00588183 -0.0165578 0.00100684  0.00245878 -0.00317296 -0.00472045  0.00294912 -0.0221499 -0.00576568  0.00187524 -0.0139515 -0.00432777  0.00678393 -0.0122942 0.00175548  0.00219576 -0.00941181 -0.00473809  0.00481445 -0.0506347 -0.00661135  0.000967175 -0.063951 -0.00654268  0.0137949 -0.035423 0.00195384  0.0137033 -0.0624048 0.000683784  0.0105523 -0.047888 0.000275373  0.00470978 -0.0312337 -0.00638103  0.00268757 -0.0580188 -0.00687909  0.00194314 -0.0441817 -0.00615549  0.0120313 -0.0424877 0.000912905  0.00319588 -0.0385353 -0.00657296  0.00197226 -0.0979857 -0.00669956  -0.00364062 -0.111041 -0.00655055  0.0170665 -0.0778754 0.00142241  0.0141556 -0.110296 0.000431538  0.0123466 -0.0908895 -0.000170469  0.00396964 -0.0729229 -0.00686431  -0.0011403 -0.105102 -0.00686669  -0.000851512 -0.0862768 -0.00666642  0.0144649 -0.085101 0.000421524  0.0012891 -0.0803148 -0.00702715  -0.00559241 -0.154646 -0.00614357  -0.0122913 -0.166683 -0.00588369  0.015944 -0.130896 0.00132608  0.0100754 -0.167175 0.000612259  0.0101156 -0.143358 -0.000133038  -0.00116307 -0.125224 -0.00653648  -0.00927997 -0.161134 -0.00618076  -0.00742269 -0.137837 -0.00628591  0.0127152 -0.137713 0.000430822  -0.004637 -0.132109 -0.00661182  -0.0180465 -0.218702 -0.00521302  -0.025226 -0.22941 -0.00492048  0.00979537 -0.192297 0.00156808  0.00118065 -0.23144 0.00102162  0.00333929 -0.203689 0.000229359  -0.0111943 -0.18579 -0.00573015  -0.0219647 -0.224424 -0.00518918  -0.0182011 -0.197194 -0.00543427  0.0062378 -0.198458 0.000777245  -0.0150525 -0.191952 -0.00573254  -0.0351362 -0.288688 -0.00418949  -0.0423779 -0.298071 -0.00388694  -0.00138038 -0.260474 0.00197458  -0.0124468 -0.301795 0.00152802  -0.00807458 -0.270619 0.00074625  -0.026004 -0.252987 -0.00471616  -0.0390687 -0.293666 -0.00412488  -0.0332648 -0.263018 -0.00440359  -0.00504708 -0.265919 0.00126505  -0.029976 -0.258365 -0.00467086  -0.0564908 -0.363561 -0.00316691  -0.0634763 -0.37167 -0.00292134  -0.0173317 -0.334157 0.00241494  -0.0304999 -0.377199 0.00199819  -0.0239493 -0.34307 0.00124836  -0.0452893 -0.325525 -0.00366688  -0.0602461 -0.36784 -0.00310612  -0.0524288 -0.334254 -0.00339127  -0.0209373 -0.338915 0.00176167  -0.0491663 -0.330182 -0.00360942  -0.0815977 -0.442447 -0.00223279  -0.0881915 -0.449489 -0.00206089  -0.0376313 -0.412374 0.00282502  -0.0526179 -0.456815 0.00241327  -0.0439664 -0.420167 0.00170684  -0.0685696 -0.402485 -0.00268221  -0.0851235 -0.446158 -0.00219345  -0.0753727 -0.410046 -0.00248098  -0.0410771 -0.416515 0.002213  -0.0722419 -0.406517 -0.00263739  -0.110066 -0.524806 -0.00142694  -0.116174 -0.530888 -0.0013485  -0.061832 -0.494401 0.00316238  -0.0783788 -0.539999 0.00271153  -0.0677823 -0.501191 0.00205946  -0.0954057 -0.483193 -0.0018158  -0.11333 -0.527998 -0.00141859  -0.101768 -0.489738 -0.00168705  -0.065062 -0.497997 0.0025723  -0.0988311 -0.486666 -0.00179291  -0.141545 -0.610117 -0.000747681  -0.147135 -0.615406 -0.000773191  -0.0895314 -0.579618 0.00338435  -0.107434 -0.626204 0.00292277  -0.0950359 -0.585549 0.00231647  -0.125426 -0.567075 -0.0010705  -0.144516 -0.612891 -0.000781536  -0.131279 -0.57276 -0.00103855  -0.0925105 -0.582748 0.00282288  -0.128568 -0.570083 -0.00108647  -0.175662 -0.698001 -0.000207424  -0.180765 -0.702589 -0.000295639  -0.120363 -0.667566 0.00353432  -0.139444 -0.714979 0.00305438  -0.125396 -0.672736 0.00247908  -0.15826 -0.653721 -0.000461102  -0.178364 -0.7004 -0.00027442  -0.1636 -0.658644 -0.000521898  -0.123083 -0.670285 0.00299191  -0.161115 -0.656337 -0.000516891  -0.212192 -0.788104 0.000239134  -0.216779 -0.792074 7.39098e-05  -0.153987 -0.757841 0.0036056  -0.1741 -0.805951 0.00309157  -0.158557 -0.762347 0.00258064  -0.193603 -0.742754 2.93255e-05  -0.214618 -0.790173 0.000143528  -0.198458 -0.747032 -9.84669e-05  -0.156446 -0.760207 0.00307775  -0.196205 -0.745015 -5.03063e-05  -0.250833 -0.880088 0.000586033  -0.254952 -0.883555 0.000368834  -0.190105 -0.850072 0.00360131  -0.211102 -0.898783 0.00308847  -0.194215 -0.854027 0.00261283  -0.231227 -0.833834 0.000420332  -0.253004 -0.881883 0.000469208  -0.235585 -0.837554 0.000230312  -0.19232 -0.852143 0.0030911  -0.233555 -0.835799 0.000312805  -0.291368 -0.973723 0.000869036  -0.295019 -0.97672 0.000593901  -0.228412 -0.944006 0.00355124  -0.250207 -0.993205 0.00304627  -0.232097 -0.947443 0.00260019  -0.270839 -0.926675 0.000729799  -0.293301 -0.975285 0.00072217  -0.274733 -0.929911 0.000487328  -0.230402 -0.945808 0.00306773  -0.272928 -0.928386 0.000599384  -0.333549 -1.06876 0.00108552  -0.336786 -1.07136 0.000777245  -0.268682 -1.03938 0.00347781  -0.291131 -1.08896 0.00296664  -0.271947 -1.04236 0.00256324  -0.312231 -1.02106 0.000985861  -0.335257 -1.07011 0.000927687  -0.315685 -1.02385 0.00069809  -0.270452 -1.04093 0.00301313  -0.314074 -1.02253 0.000832796  -0.377178 -1.16496 0.00124359  -0.380025 -1.16721 0.000908375  -0.310653 -1.13591 0.00333524  -0.333682 -1.18581 0.00284886  -0.313529 -1.13851 0.0024786  -0.355166 -1.1167 0.0011766  -0.378677 -1.16613 0.00107718  -0.358205 -1.11911 0.000850916  -0.312213 -1.13726 0.0029037  -0.35679 -1.11797 0.00100946  -0.422068 -1.26215 0.0013423  -0.424523 -1.26408 0.00100565  -0.354117 -1.23343 0.00318646  -0.377598 -1.28357 0.00270605  -0.356602 -1.23568 0.00237083  -0.399449 -1.21341 0.00129938  -0.423344 -1.26314 0.0011754  -0.402094 -1.2155 0.000962257  -0.355477 -1.23458 0.00277948  -0.400855 -1.21452 0.0011313  -0.467981 -1.36013 0.00143313  -0.470092 -1.36178 0.00106716  -0.398841 -1.33173 0.00303411  -0.422692 -1.38207 0.00255513  -0.400976 -1.33369 0.00225639  -0.444876 -1.31102 0.00139928  -0.46908 -1.36098 0.00124979  -0.447156 -1.31281 0.00103974  -0.400007 -1.33274 0.00264382  -0.446089 -1.31197 0.00121927  -0.514773 -1.45878 0.00145984  -0.516574 -1.46018 0.00110388  -0.444604 -1.43069 0.00284004  -0.468772 -1.48113 0.00240159  -0.446444 -1.43236 0.00212884  -0.491243 -1.40936 0.00144506  -0.51571 -1.45948 0.00128269  -0.493199 -1.41088 0.00108385  -0.445613 -1.43153 0.00248432  -0.492287 -1.41016 0.00126457  -0.562279 -1.5579 0.00147009  -0.563774 -1.55909 0.00111127  -0.491269 -1.53012 0.00264931  -0.515656 -1.58064 0.00223184  -0.492805 -1.53155 0.00199795  -0.538416 -1.50825 0.00147128  -0.563051 -1.5585 0.00129128  -0.540061 -1.50955 0.00110698  -0.492121 -1.53084 0.00232267  -0.539289 -1.50893 0.00129676  -0.610342 -1.6574 0.00144219  -0.611562 -1.6584 0.00108361  -0.538652 -1.62992 0.00244069  -0.56319 -1.68045 0.00202584  -0.539906 -1.63113 0.0018363  -0.586222 -1.60758 0.00145912  -0.610965 -1.6579 0.00126266  -0.587579 -1.60868 0.00110054  -0.539353 -1.63052 0.00214529  -0.586945 -1.60816 0.00128126  -0.658802 -1.75716 0.00137496  -0.659787 -1.75799 0.00104713  -0.586576 -1.72994 0.00221229  -0.611215 -1.78046 0.00184751  -0.587599 -1.73095 0.00166512  -0.634499 -1.70723 0.00140333  -0.65931 -1.75757 0.00121403  -0.635595 -1.70814 0.00106883  -0.587146 -1.73044 0.00193882  -0.635085 -1.7077 0.00123954  -0.707564 -1.85706 0.00131202  -0.708327 -1.85774 0.000999928  -0.634914 -1.83011 0.00199866  -0.659602 -1.88058 0.00165844  -0.635718 -1.83094 0.00150824  -0.683132 -1.80707 0.00134921  -0.707949 -1.85739 0.00115967  -0.683998 -1.80782 0.0010252  -0.635362 -1.83051 0.00175118  -0.68359 -1.80746 0.00118542  -0.75649 -1.95703 0.00120091  -0.757066 -1.95758 0.000911951  -0.683526 -1.93031 0.00177431  -0.708209 -1.9807 0.00144362  -0.684129 -1.93101 0.00133395  -0.731975 -1.90702 0.00126576  -0.756769 -1.95729 0.00105739  -0.732643 -1.90763 0.000959635  -0.683877 -1.93064 0.00155234  -0.732332 -1.90733 0.00111032  -0.805508 -2.05697 0.00109291  -0.805905 -2.05741 0.000828266  -0.732318 -2.03048 0.00153971  -0.756959 -2.08076 0.00124454  -0.732745 -2.03105 0.00115538  -0.780968 -2.00698 0.00115275  -0.805692 -2.05717 0.000962973  -0.781449 -2.00748 0.000874758  -0.732565 -2.03073 0.00135207  -0.781218 -2.00723 0.00101542  -0.854501 -2.15682 0.000941992  -0.854767 -2.15717 0.000721455  -0.781183 -2.13053 0.0013051  -0.805751 -2.18069 0.00104403  -0.781456 -2.131 0.000981808  -0.829975 -2.10688 0.00102639  -0.854617 -2.15697 0.000834703  -0.830302 -2.10727 0.000773191  -0.781349 -2.13074 0.00114369  -0.830149 -2.10708 0.000897884  -0.903445 -2.2565 0.000794649  -0.903571 -2.25678 0.000611067  -0.830029 -2.23044 0.00106192  -0.854515 -2.28044 0.000837564  -0.830188 -2.23081 0.000808001  -0.878964 -2.20666 0.000877619  -0.903482 -2.25662 0.000703335  -0.879148 -2.20698 0.000666142  -0.830133 -2.23058 0.000938177  -0.879057 -2.20681 0.000773907  -0.952198 -2.35597 0.000637531  -0.952266 -2.35621 0.000471115  -0.878801 -2.33009 0.000836372  -0.90316 -2.37995 0.000612497  -0.87885 -2.33041 0.00062418  -0.927807 -2.30623 0.000710964  -0.952208 -2.35607 0.000554085  -0.927909 -2.3065 0.000538111  -0.878848 -2.33022 0.000727892  -0.927856 -2.30636 0.000621557  -1.00082 -2.45523 0.000435352  -1.00081 -2.4554 0.000333548  -0.92743 -2.42953 0.00058651  -0.951682 -2.47921 0.000428915  -0.92741 -2.42976 0.000447035  -0.976513 -2.40561 0.00052309  -1.00079 -2.45528 0.000382423  -0.976525 -2.40582 0.000400543  -0.927439 -2.42961 0.000519753  -0.976514 -2.40571 0.000463724  -1.04923 -2.55418 0.000256062  -1.04914 -2.55433 0.000194073  -0.975886 -2.52865 0.000357628  -1.00001 -2.57814 0.000207901  -0.975803 -2.52886 0.000275135  -1.02502 -2.50473 0.000335455  -1.04915 -2.55422 0.000226498  -1.02498 -2.50488 0.000261545  -0.975872 -2.52872 0.000318289  -1.02499 -2.50479 0.000300884  -1.0973 -2.65278 0.000118017  -1.09722 -2.6529 6.48499e-05  -1.02411 -2.62745 0.000141382  -1.04803 -2.67673 3.09944e-05  -1.02398 -2.62761 9.29832e-05  -1.07328 -2.60351 0.000171423  -1.09722 -2.6528 8.72612e-05  -1.07319 -2.60364 0.000127554  -1.02406 -2.62748 0.000121593  -1.07323 -2.60356 0.000145674  0 0 0  0.00763647 -0.00139338 0.0101938  0.0052797 -0.00870442 0.00534582  0 0 0  0.00367996 -4.94123e-05 0.0103815  0.00877702 -0.00902647 0.0125749  0.002254 -0.00407547 0.00554299  0 0 0  0.00256599 0.00201356 0.00627232  0.00622353 -0.00574368 0.00747395  0.00158795 -0.00229454 0.00323367  0 0 0  0.00258167 -0.00293112 0.00747728  0.00182185 -0.00107372 0.00444126  0.0180909 -0.0237484 0.0105715  0.0147322 -0.0346744 0.00673652  0.0184077 -0.0149417 0.0173724  0.0230888 -0.0352696 0.0152998  0.0141144 -0.0241635 0.0112045  0.0130976 -0.0102537 0.0102432  0.0163029 -0.030013 0.00857401  0.00993297 -0.0199676 0.00621486  0.0160413 -0.020354 0.0142038  0.0113684 -0.0159454 0.00810647  0.0268122 -0.0608046 0.0101078  0.0227062 -0.0733069 0.00640655  0.031863 -0.046657 0.0179772  0.0356455 -0.0740795 0.0151179  0.0278272 -0.0582475 0.0125241  0.0227599 -0.0405809 0.0101836  0.0246185 -0.0677788 0.00808096  0.0191129 -0.0525944 0.00655937  0.0297253 -0.0532421 0.0152056  0.0208131 -0.047408 0.00824881  0.0319895 -0.109556 0.00952554  0.0269066 -0.122105 0.00605893  0.0430782 -0.0906526 0.0175033  0.0443816 -0.123442 0.014535  0.0384763 -0.10302 0.0122776  0.0300018 -0.0838028 0.0096848  0.029249 -0.116424 0.00764298  0.0253568 -0.0964799 0.00619674  0.0406036 -0.0975273 0.0147796  0.0274932 -0.0908615 0.00778031  0.0322452 -0.167661 0.00912666  0.0264897 -0.179501 0.00590801  0.0497252 -0.144942 0.0167918  0.0481463 -0.181801 0.013927  0.0445582 -0.157046 0.0118103  0.0327968 -0.137486 0.00923848  0.0291306 -0.174069 0.00738764  0.0273286 -0.149764 0.00594926  0.0469216 -0.151584 0.014194  0.029822 -0.144221 0.00745225  0.0272432 -0.233433 0.00888729  0.0211328 -0.244223 0.00588369  0.0510552 -0.207797 0.0160475  0.0465869 -0.247787 0.0133481  0.045518 -0.219079 0.0113616  0.0304327 -0.19963 0.00895858  0.0239428 -0.239227 0.00728488  0.0244547 -0.210966 0.00587654  0.0480419 -0.213919 0.0136106  0.0271793 -0.20578 0.00730228  0.0170607 -0.305462 0.00870156  0.0108867 -0.315097 0.00590348  0.0469235 -0.277711 0.0153382  0.0397357 -0.320147 0.0128016  0.041207 -0.287963 0.0109341  0.0228091 -0.268692 0.00876999  0.0137368 -0.310608 0.00722623  0.016637 -0.278905 0.00589657  0.0438129 -0.283241 0.0130546  0.0194571 -0.274197 0.00723982  0.00199771 -0.382641 0.00853777  -0.00400996 -0.391135 0.00592422  0.0374661 -0.353443 0.0146217  0.0278409 -0.39779 0.0122261  0.0318178 -0.362623 0.010505  0.0101383 -0.343423 0.00860643  -0.00122195 -0.387157 0.00716877  0.00401884 -0.352486 0.00591731  0.0344069 -0.358365 0.0125008  0.00683528 -0.348283 0.00719213  -0.0175166 -0.464061 0.00832629  -0.0232174 -0.471525 0.00587583  0.0230645 -0.433961 0.0138829  0.0112481 -0.479815 0.011632  0.0176054 -0.44209 0.0100622  -0.00719738 -0.422819 0.00842738  -0.0205593 -0.468019 0.00705814  -0.0130757 -0.430803 0.00590754  0.0201114 -0.438301 0.011925  -0.0103619 -0.427085 0.0071156  -0.0410281 -0.548989 0.00806236  -0.0463728 -0.555542 0.00578022  0.00411665 -0.518392 0.0131526  -0.00962615 -0.565451 0.0110147  -0.0010438 -0.525575 0.00957847  -0.0287682 -0.506083 0.0082047  -0.043877 -0.552453 0.00688767  -0.0343037 -0.513082 0.00583982  0.00132549 -0.522213 0.0113254  -0.0317353 -0.509818 0.00697851  -0.0681708 -0.636879 0.00776267  -0.0730964 -0.642614 0.00561166  -0.0189503 -0.60606 0.0123749  -0.0343814 -0.654105 0.0103629  -0.0237352 -0.612411 0.00905633  -0.0541475 -0.592549 0.00792408  -0.0707855 -0.639903 0.00665355  -0.0592862 -0.598698 0.0056994  -0.0215404 -0.609427 0.0106828  -0.0569003 -0.595825 0.00678015  -0.0985287 -0.727234 0.00741529  -0.103043 -0.732285 0.00539279  -0.0457023 -0.696429 0.0115817  -0.0626303 -0.745256 0.0097034  -0.0501307 -0.702018 0.00851893  -0.0829352 -0.681734 0.00759625  -0.100917 -0.72989 0.00638223  -0.0876682 -0.687116 0.00550699  -0.048085 -0.699389 0.0100303  -0.0854617 -0.684596 0.00652552  -0.131783 -0.819681 0.00703239  -0.135873 -0.824121 0.00514627  -0.0757741 -0.78902 0.0107949  -0.0940068 -0.838479 0.00902247  -0.0798042 -0.793953 0.00796175  -0.114792 -0.773194 0.00722241  -0.13394 -0.822018 0.00607276  -0.119077 -0.777919 0.00528216  -0.0779442 -0.791633 0.00935864  -0.117081 -0.775702 0.00623059  -0.167613 -0.913892 0.0065949  -0.171282 -0.917766 0.00487518  -0.108783 -0.883485 0.00999355  -0.128182 -0.933432 0.00835085  -0.112437 -0.887808 0.00739908  -0.149362 -0.866559 0.00681758  -0.16954 -0.915933 0.00572729  -0.153246 -0.870708 0.00501585  -0.110764 -0.885761 0.00868058  -0.151431 -0.868768 0.00590014  -0.205704 -1.00958 0.00619435  -0.208962 -1.01296 0.00458288  -0.144429 -0.979442 0.00922799  -0.164811 -1.0298 0.00769067  -0.147693 -0.98326 0.00683284  -0.186359 -0.961524 0.00639725  -0.207416 -1.01135 0.00538087  -0.189824 -0.965153 0.00472593  -0.146207 -0.981448 0.00801969  -0.188205 -0.963461 0.00555396  -0.245769 -1.10644 0.0057497  -0.248666 -1.10942 0.00427651  -0.182395 -1.07667 0.00846648  -0.203613 -1.12731 0.00705075  -0.185269 -1.08001 0.00629258  -0.225471 -1.05784 0.00598979  -0.247285 -1.10799 0.00500607  -0.228544 -1.06101 0.004426  -0.183951 -1.07842 0.0073669  -0.227109 -1.05953 0.00520277  -0.287594 -1.20431 0.0053122  -0.290129 -1.2069 0.00395393  -0.222351 -1.17489 0.0077126  -0.244315 -1.22575 0.00641418  -0.2249 -1.17782 0.00574851  -0.266448 -1.15524 0.00554109  -0.288917 -1.20566 0.00463438  -0.269159 -1.158 0.0041151  -0.223738 -1.17642 0.00672221  -0.267892 -1.15671 0.00482035  -0.330918 -1.30297 0.00488877  -0.333102 -1.30523 0.0036397  -0.264087 -1.27391 0.00700188  -0.28665 -1.32493 0.00579977  -0.266295 -1.27649 0.00521517  -0.30906 -1.25352 0.00509882  -0.332059 -1.30414 0.00425744  -0.311406 -1.25594 0.00379086  -0.26529 -1.27526 0.00610733  -0.310311 -1.25481 0.00444341  -0.375528 -1.40226 0.00445104  -0.377382 -1.40421 0.00333428  -0.307337 -1.37358 0.00630808  -0.330403 -1.42465 0.00520563  -0.309221 -1.37581 0.00470448  -0.353044 -1.35253 0.00466871  -0.376493 -1.40327 0.00389647  -0.355062 -1.35461 0.00348473  -0.308359 -1.37473 0.00550151  -0.354119 -1.35363 0.00407434  -0.421191 -1.50201 0.00404263  -0.422761 -1.5037 0.003016  -0.351854 -1.47368 0.00563359  -0.375331 -1.52479 0.00464582  -0.353445 -1.47563 0.00421476  -0.398208 -1.45206 0.004246  -0.422001 -1.50288 0.00352931  -0.399912 -1.45388 0.00317669  -0.352733 -1.47467 0.00492334  -0.399118 -1.45301 0.00370932  -0.467769 -1.60212 0.00361371  -0.469037 -1.60356 0.0027163  -0.397463 -1.57411 0.00500274  -0.421256 -1.62523 0.00411105  -0.398772 -1.5758 0.00374651  -0.444347 -1.552 0.00383115  -0.468418 -1.60286 0.00316596  -0.445763 -1.55357 0.00286627  -0.398179 -1.57498 0.00437045  -0.445106 -1.55283 0.00335288  -0.515022 -1.70245 0.0032227  -0.516058 -1.70367 0.00241613  -0.443923 -1.67477 0.00440192  -0.467964 -1.72581 0.00359321  -0.444984 -1.67621 0.00329328  -0.491291 -1.65224 0.00342917  -0.515546 -1.70307 0.00281763  -0.492433 -1.65356 0.0025661  -0.444512 -1.6755 0.00384331  -0.491898 -1.65294 0.00299597  -0.562818 -1.80288 0.00283551  -0.563637 -1.80392 0.00211978  -0.491101 -1.7755 0.00383091  -0.515304 -1.82646 0.0031147  -0.491933 -1.77675 0.00286674  -0.538831 -1.75264 0.00302029  -0.563234 -1.80341 0.00248551  -0.539765 -1.75376 0.00227094  -0.491563 -1.77613 0.00335288  -0.539323 -1.75323 0.00264597  -0.611042 -1.90337 0.00246191  -0.611656 -1.90422 0.00183702  -0.538802 -1.87627 0.00329709  -0.563125 -1.9271 0.00264883  -0.539431 -1.87731 0.00245905  -0.586859 -1.8531 0.00264621  -0.611337 -1.90379 0.00214982  -0.587575 -1.85405 0.0019815  -0.539158 -1.87679 0.00287414  -0.587235 -1.8536 0.00231552  -0.659518 -2.00377 0.00210023  -0.659968 -2.0045 0.00157714  -0.586909 -1.97696 0.00278473  -0.611281 -2.02764 0.00223041  -0.587362 -1.97782 0.00207233  -0.635224 -1.95356 0.00227475  -0.659728 -2.00413 0.00184202  -0.635746 -1.95434 0.00170422  -0.587161 -1.97738 0.00242519  -0.635501 -1.95397 0.00199413  -0.708158 -2.10407 0.0017662  -0.708458 -2.10466 0.00131536  -0.635268 -2.07751 0.00232005  -0.659651 -2.12803 0.00183082  -0.635564 -2.07823 0.00173259  -0.6838 -2.05392 0.00193357  -0.708292 -2.10435 0.0015409  -0.684163 -2.05457 0.00145054  -0.635441 -2.07785 0.00202751  -0.683989 -2.05425 0.001688  -0.756883 -2.2042 0.00141811  -0.75705 -2.20467 0.00106525  -0.683767 -2.17786 0.00187302  -0.708146 -2.2282 0.00144506  -0.683953 -2.17845 0.00140023  -0.732493 -2.15414 0.00159359  -0.756938 -2.20441 0.00124288  -0.732716 -2.15467 0.00118852  -0.683888 -2.17814 0.00163794  -0.732605 -2.15441 0.00139141  -0.805573 -2.30408 0.00111055  -0.805654 -2.30446 0.000833511  -0.732353 -2.27797 0.00145006  -0.756674 -2.3281 0.0011127  -0.73243 -2.27845 0.0010922  -0.78121 -2.25415 0.00127077  -0.805586 -2.30425 0.000972509  -0.781328 -2.25457 0.000947475  -0.732408 -2.27818 0.00126839  -0.781262 -2.25436 0.00110745  -0.854189 -2.40368 0.000813246  -0.854186 -2.404 0.000606298  -0.7809 -2.37779 0.00107598  -0.805157 -2.42772 0.00078249  -0.780899 -2.37816 0.000802755  -0.82987 -2.35389 0.00095582  -0.854158 -2.40382 0.00070715  -0.829893 -2.35423 0.000716209  -0.780922 -2.37794 0.000932217  -0.829879 -2.35406 0.000836372  -0.902696 -2.50301 0.000526905  -0.902607 -2.50325 0.000398159  -0.829376 -2.4773 0.000729322  -0.853548 -2.52703 0.00049758  -0.829302 -2.47761 0.000545979  -0.878426 -2.45336 0.00066638  -0.902611 -2.50311 0.000463247  -0.878377 -2.45364 0.000498056  -0.829362 -2.47741 0.0006392  -0.878401 -2.4535 0.00058341  -0.950986 -2.60199 0.000225782  -0.950863 -2.6022 0.00017786  -0.877723 -2.57645 0.000403881  -0.901769 -2.62599 0.000200033  -0.877587 -2.57672 0.000303268  -0.926832 -2.55251 0.000381708  -0.950886 -2.60206 0.000198126  -0.926719 -2.55274 0.000288725  -0.877668 -2.57655 0.000349522  -0.926766 -2.55262 0.000337124  -0.998987 -2.70059 -3.48091e-05  -0.998853 -2.70078 -2.88486e-05  -0.925875 -2.67526 7.00951e-05  -0.949747 -2.72459 -6.67572e-05  -0.925707 -2.67548 6.10352e-05  -0.975006 -2.65133 0.000104427  -0.998887 -2.70064 -3.26633e-05  -0.974868 -2.6515 7.86781e-05  -0.925795 -2.67533 6.03199e-05  -0.974926 -2.65139 8.84533e-05  0 0 0  0.0141433 -0.00917965 0.0226943  0.00988606 -0.0155486 0.0129595  0 0 0  0.00593504 -0.00552458 0.017848  0.0145292 -0.0176981 0.0219789  0.0038067 -0.00906384 0.00970054  0 0 0  0.00480302 -0.00251365 0.0141203  0.0115308 -0.0129701 0.0173604  0.00297293 -0.00628686 0.00765872  0 0 0  0.00426592 -0.00795126 0.0130305  0.00337655 -0.00518221 0.0102782  0.0328411 -0.0356772 0.0253446  0.0280499 -0.0457811 0.0177836  0.0298902 -0.0268456 0.0305958  0.0379851 -0.0485929 0.0276151  0.0237357 -0.0352719 0.0203078  0.0239477 -0.020456 0.0240979  0.0302795 -0.0414547 0.0216448  0.0187075 -0.029241 0.0158849  0.0264832 -0.0317465 0.025388  0.0210596 -0.0255975 0.0199344  0.0493456 -0.0747507 0.0257082  0.0449725 -0.0865565 0.0183649  0.0514547 -0.0615597 0.0326922  0.0590293 -0.0893824 0.0284212  0.0467305 -0.072457 0.0236058  0.0413711 -0.0536672 0.0255554  0.0470679 -0.0813048 0.0219359  0.0370064 -0.0648791 0.0182309  0.0489603 -0.067704 0.0281842  0.0390618 -0.0600181 0.0218887  0.0622527 -0.124713 0.0249393  0.0575355 -0.136794 0.0179534  0.0703547 -0.106936 0.0326712  0.0755996 -0.140027 0.0278862  0.0658149 -0.118773 0.0238609  0.0564369 -0.098393 0.0252957  0.0597686 -0.131333 0.0213485  0.0518799 -0.110467 0.0182059  0.0679728 -0.113491 0.0282099  0.0540385 -0.105099 0.0216606  0.0699659 -0.184064 0.0238812  0.0649263 -0.195681 0.0172217  0.084365 -0.162371 0.0316422  0.0867705 -0.199732 0.0267563  0.0797168 -0.174121 0.0231638  0.066811 -0.153259 0.024379  0.0672835 -0.190367 0.0204494  0.0619291 -0.165164 0.0175927  0.0818874 -0.168799 0.0273275  0.0642064 -0.159794 0.0208914  0.0720559 -0.251359 0.0226474  0.0668274 -0.262117 0.016392  0.0928048 -0.226559 0.0301423  0.0922067 -0.267299 0.0253553  0.0879952 -0.23768 0.0220981  0.0717419 -0.216773 0.0232401  0.0692742 -0.257152 0.0194392  0.0665894 -0.227969 0.0168066  0.0902214 -0.232607 0.0260444  0.0689819 -0.222871 0.0199325  0.0685171 -0.325213 0.0213826  0.063244 -0.334972 0.0155432  0.0953714 -0.298096 0.0284443  0.0918538 -0.341508 0.0238659  0.0904937 -0.308354 0.0208864  0.0709993 -0.287493 0.0219977  0.0657008 -0.330436 0.0183954  0.0657299 -0.297766 0.0159664  0.0927561 -0.303644 0.0246019  0.0681749 -0.29305 0.0189052  0.0595456 -0.40446 0.0200927  0.0543921 -0.413212 0.0146701  0.0921742 -0.37573 0.0266516  0.0859069 -0.421216 0.022325  0.0873444 -0.385028 0.0196114  0.0647125 -0.364183 0.0207338  0.0568068 -0.409129 0.0173225  0.0594823 -0.37343 0.0151057  0.0895644 -0.380737 0.0230818  0.0619028 -0.369164 0.0178542  0.0455441 -0.488115 0.0188122  0.0406212 -0.495906 0.013773  0.0834706 -0.458337 0.0248587  0.0747081 -0.505433 0.0207882  0.078793 -0.46668 0.0183182  0.0531732 -0.445758 0.0194514  0.0429385 -0.49226 0.0162494  0.0481279 -0.454003 0.0142236  0.0809464 -0.462814 0.0215404  0.0504717 -0.450189 0.0167859  0.0269415 -0.575387 0.0175159  0.0223035 -0.58229 0.0128767  0.0696585 -0.544974 0.0230622  0.0586394 -0.593327 0.0192561  0.0652106 -0.552438 0.0170336  0.0368286 -0.5313 0.0181751  0.0244896 -0.57905 0.0151618  0.0320331 -0.538649 0.0133295  0.067257 -0.548961 0.0200129  0.0342615 -0.535241 0.0157058  0.00414777 -0.665604 0.016259  -0.000167489 -0.671727 0.0119915  0.0511626 -0.634884 0.0213103  0.0381466 -0.684231 0.017782  0.0470015 -0.641525 0.0157666  0.0160717 -0.620123 0.0168917  0.00186837 -0.66885 0.0141006  0.0115956 -0.626623 0.0124373  0.0489284 -0.638437 0.0185087  0.0136805 -0.623604 0.0146289  -0.0224085 -0.758245 0.0150144  -0.026371 -0.763669 0.0111003  0.0284467 -0.727475 0.0195973  0.0136454 -0.777561 0.0163352  0.0245968 -0.733373 0.0145333  -0.00865805 -0.711618 0.0156398  -0.0244969 -0.761111 0.0130391  -0.0127926 -0.717372 0.011544  0.0263745 -0.730619 0.0170467  -0.010864 -0.714697 0.0135684  -0.0523427 -0.85288 0.0138044  -0.0559295 -0.857661 0.0102277  0.00191939 -0.822204 0.0179596  -0.014443 -0.872866 0.0149374  -0.00159729 -0.827443 0.01333  -0.0369464 -0.805307 0.0144165  -0.0542216 -0.855404 0.012002  -0.0407273 -0.810398 0.0106621  3.61204e-05 -0.824987 0.0156279  -0.0389587 -0.808021 0.012522  -0.0852623 -0.949105 0.0126312  -0.0884856 -0.953336 0.00937724  -0.0279982 -0.918649 0.0163832  -0.0457371 -0.969743 0.0136006  -0.0311755 -0.923311 0.0121682  -0.0684143 -0.900771 0.0132253  -0.0869523 -0.951341 0.0109949  -0.0718237 -0.905282 0.00980043  -0.0297076 -0.92112 0.0142663  -0.0702314 -0.903188 0.0114968  -0.120833 -1.04664 0.0115249  -0.123706 -1.05038 0.00855994  -0.0609348 -1.01648 0.0148683  -0.0798609 -1.06788 0.0123193  -0.0637604 -1.02061 0.0110691  -0.102707 -0.997688 0.0120795  -0.122334 -1.04861 0.0100236  -0.105748 -1.00167 0.00896382  -0.0624598 -1.01867 0.0129561  -0.104327 -0.999819 0.0105102  -0.158724 -1.14522 0.0104303  -0.161255 -1.14851 0.00775933  -0.0965296 -1.11541 0.013432  -0.116497 -1.16701 0.0111196  -0.0990375 -1.11905 0.0100112  -0.139477 -1.09578 0.0109687  -0.160049 -1.14696 0.00908661  -0.142171 -1.09929 0.00815701  -0.0978817 -1.11733 0.0117104  -0.140909 -1.09766 0.00955534  -0.198669 -1.24461 0.00939918  -0.200868 -1.24752 0.00700665  -0.134439 -1.21517 0.0120664  -0.155317 -1.26689 0.00995708  -0.136648 -1.2184 0.0090003  -0.178419 -1.1948 0.00991225  -0.19981 -1.24614 0.00819826  -0.180795 -1.19789 0.00737834  -0.135643 -1.21686 0.0105276  -0.179681 -1.19645 0.0086391  -0.24036 -1.34463 0.00841713  -0.242253 -1.34718 0.00628138  -0.174415 -1.31558 0.0107808  -0.196035 -1.36735 0.00887823  -0.176318 -1.31841 0.00804996  -0.219279 -1.29453 0.00891399  -0.241345 -1.34596 0.00734758  -0.221325 -1.29725 0.00664115  -0.175441 -1.31705 0.00941801  -0.220364 -1.29598 0.00777149  -0.283574 -1.44511 0.00748968  -0.285177 -1.44733 0.00558543  -0.21614 -1.41641 0.00957441  -0.238385 -1.4682 0.00784969  -0.217741 -1.41892 0.00714946  -0.261766 -1.3948 0.00795555  -0.284393 -1.44627 0.00653815  -0.263513 -1.39718 0.0059402  -0.217016 -1.41773 0.00836134  -0.262693 -1.39606 0.00694394  -0.328051 -1.54589 0.00661016  -0.329383 -1.54784 0.00494695  -0.259359 -1.51757 0.0084312  -0.282113 -1.5693 0.00689125  -0.260698 -1.51977 0.00630045  -0.305629 -1.49544 0.0070436  -0.328729 -1.54691 0.00577354  -0.307098 -1.49752 0.00526261  -0.26008 -1.51873 0.00736523  -0.306411 -1.49655 0.00615263  -0.373618 -1.6469 0.00578761  -0.374684 -1.64856 0.00431538  -0.303841 -1.61892 0.00735784  -0.327027 -1.67054 0.0059936  -0.30493 -1.62081 0.00549746  -0.350679 -1.59636 0.00619531  -0.374151 -1.64776 0.00504494  -0.351878 -1.59815 0.00462484  -0.304432 -1.61991 0.00642109  -0.351317 -1.59731 0.0054059  -0.420012 -1.74795 0.0050087  -0.420859 -1.74939 0.00374675  -0.349363 -1.72032 0.00635934  -0.372884 -1.7718 0.00513911  -0.350225 -1.72196 0.00474954  -0.396675 -1.69739 0.00538659  -0.420431 -1.7487 0.00437236  -0.397641 -1.69895 0.00402856  -0.349837 -1.72116 0.00555253  -0.397185 -1.69822 0.00470471  -0.467111 -1.84901 0.00427914  -0.467754 -1.85024 0.00320244  -0.395742 -1.82169 0.00541782  -0.419505 -1.87301 0.00436211  -0.396397 -1.82311 0.00406146  -0.443452 -1.79846 0.00464463  -0.467416 -1.84964 0.0037415  -0.444201 -1.79979 0.00346732  -0.396102 -1.82241 0.00474215  -0.443842 -1.79917 0.00405717  -0.514724 -1.94999 0.00360298  -0.515187 -1.95102 0.00269365  -0.44279 -1.92296 0.00455594  -0.466734 -1.97409 0.0036366  -0.443263 -1.92415 0.00341535  -0.490832 -1.89949 0.00394821  -0.514944 -1.95051 0.00314593  -0.491376 -1.90062 0.00294137  -0.443043 -1.92357 0.0039885  -0.491112 -1.90008 0.00344348  -0.562731 -2.0508 0.00298166  -0.56304 -2.05166 0.00221968  -0.490344 -2.02405 0.0037725  -0.514413 -2.07496 0.00296974  -0.490647 -2.02506 0.00282288  -0.538656 -2.00039 0.00329351  -0.562854 -2.05123 0.00260043  -0.539043 -2.00134 0.0024538  -0.490522 -2.02455 0.00330186  -0.538855 -2.00089 0.00286937  -0.610982 -2.15141 0.00241184  -0.611157 -2.15211 0.00180769  -0.538255 -2.12491 0.00305128  -0.5624 -2.1756 0.00237107  -0.538445 -2.12574 0.00227761  -0.586797 -2.10111 0.00269818  -0.61104 -2.15175 0.00210905  -0.587033 -2.10189 0.00200772  -0.538363 -2.12531 0.00266027  -0.586917 -2.10152 0.0023489  -0.659386 -2.25174 0.00188661  -0.659449 -2.25232 0.00141072  -0.586422 -2.22548 0.00240731  -0.610586 -2.27594 0.00183129  -0.586479 -2.22616 0.00179958  -0.635137 -2.20158 0.00214171  -0.659381 -2.25201 0.00164127  -0.635252 -2.20222 0.00160027  -0.586475 -2.2258 0.00210428  -0.635193 -2.20191 0.00187397  -0.70782 -2.35178 0.00141239  -0.707813 -2.35224 0.00104356  -0.634713 -2.32573 0.00182843  -0.658862 -2.37596 0.00134802  -0.63469 -2.32629 0.00136209  -0.683564 -2.30177 0.001647  -0.70778 -2.35199 0.00122309  -0.683598 -2.3023 0.00122452  -0.634714 -2.32599 0.00159669  -0.683575 -2.30203 0.0014348  -0.756232 -2.45148 0.000985622  -0.756174 -2.45187 0.000739574  -0.683027 -2.42564 0.00131059  -0.707153 -2.47564 0.000943422  -0.682956 -2.4261 0.000973225  -0.731991 -2.40165 0.00119686  -0.756164 -2.45165 0.000863075  -0.731963 -2.40207 0.000887632  -0.68301 -2.42584 0.00114036  -0.731975 -2.40186 0.00104117  -0.804572 -2.55083 0.000601768  -0.804441 -2.55114 0.000446558  -0.731344 -2.52519 0.000844479  -0.755402 -2.57496 0.000557184  -0.731197 -2.52555 0.000632524  -0.780395 -2.50118 0.000793457  -0.804481 -2.55096 0.000523806  -0.780287 -2.50153 0.00059104  -0.731288 -2.52534 0.000739574  -0.780332 -2.50135 0.000694275  -0.852782 -2.64981 0.00022316  -0.85261 -2.6501 0.000175238  -0.779552 -2.62435 0.000435829  -0.803531 -2.67391 0.000205517  -0.779373 -2.62466 0.000329256  -0.828668 -2.60035 0.000416756  -0.852661 -2.64993 0.000198126  -0.828512 -2.60064 0.000314713  -0.779478 -2.62448 0.000379086  -0.828588 -2.60049 0.000368834  -0.900783 -2.74842 -0.000136137  -0.900574 -2.7487 -9.01222e-05  -0.827629 -2.72314 4.52995e-05  -0.851483 -2.77254 -0.000140429  -0.827431 -2.72343 3.76701e-05  -0.876785 -2.69914 5.31673e-05  -0.900619 -2.74853 -0.000100851  -0.876593 -2.69941 4.29153e-05  -0.827533 -2.72326 3.09944e-05  -0.876673 -2.69927 4.62532e-05  0 0 0  0.02161 -0.0200384 0.0336933  0.0159472 -0.0260544 0.0194554  0 0 0  0.00853709 -0.0136902 0.0240881  0.022109 -0.0308595 0.0293701  0.00588468 -0.0174356 0.0129242  0 0 0  0.00714622 -0.00918818 0.0208426  0.0180623 -0.0235226 0.0258808  0.0047283 -0.0126629 0.0113294  0 0 0  0.00643398 -0.0158292 0.0174222  0.00522508 -0.0114147 0.0152011  0.049842 -0.0512848 0.0386119  0.0439018 -0.0610128 0.0274513  0.0442342 -0.0427221 0.0419557  0.0562751 -0.0657896 0.0383074  0.0367385 -0.0511147 0.0280449  0.036634 -0.0342171 0.0364044  0.0466485 -0.05674 0.0331619  0.0297946 -0.0425129 0.0242798  0.0400012 -0.0475018 0.0348771  0.0328187 -0.0389905 0.0302525  0.0741056 -0.0920151 0.0402908  0.0694883 -0.10337 0.0293274  0.0741431 -0.079598 0.0463479  0.0852461 -0.107793 0.0407758  0.068935 -0.0903524 0.0335588  0.0623311 -0.0702645 0.0397346  0.0717127 -0.0982509 0.0347438  0.0573634 -0.0809988 0.0287294  0.0713495 -0.0855708 0.0399625  0.059696 -0.0762671 0.0342543  0.0943144 -0.143117 0.0397131  0.0898561 -0.154793 0.0291443  0.100216 -0.126162 0.0471907  0.109152 -0.159652 0.0405996  0.0957071 -0.137674 0.0346897  0.0848655 -0.116229 0.0400944  0.092004 -0.149487 0.0343623  0.0803488 -0.127862 0.0293889  0.0978766 -0.13249 0.0408933  0.0825277 -0.122648 0.0346801  0.109066 -0.203728 0.0381467  0.104602 -0.215053 0.0280583  0.121238 -0.182858 0.0460024  0.127366 -0.220754 0.039115  0.116967 -0.194278 0.0339785  0.102422 -0.172253 0.0389569  0.106742 -0.209876 0.0330329  0.0979798 -0.183826 0.0286679  0.11901 -0.1891 0.0399351  0.100107 -0.178593 0.0337474  0.117915 -0.272506 0.0360889  0.11339 -0.283135 0.0265779  0.136412 -0.2485 0.043855  0.139469 -0.289974 0.0370164  0.132187 -0.259375 0.032429  0.114267 -0.237133 0.0371203  0.115546 -0.278242 0.0312693  0.109772 -0.248137 0.0273442  0.134202 -0.25442 0.0380893  0.111903 -0.243133 0.0321677  0.120701 -0.348137 0.0338342  0.116196 -0.357881 0.0249448  0.145426 -0.321757 0.0412376  0.145336 -0.366046 0.0346553  0.141183 -0.331847 0.0305209  0.120083 -0.309494 0.0349567  0.118334 -0.353373 0.0293341  0.115561 -0.319699 0.0257726  0.143187 -0.327229 0.0358336  0.117687 -0.315032 0.0303009  0.117596 -0.42934 0.0314939  0.113182 -0.438189 0.0232565  0.148172 -0.40127 0.0384433  0.145092 -0.447777 0.032203  0.144013 -0.410526 0.0284734  0.119895 -0.388076 0.0326464  0.11527 -0.434084 0.0273314  0.115422 -0.397356 0.024106  0.145965 -0.406271 0.033412  0.117519 -0.393095 0.028321  0.108906 -0.515108 0.0291708  0.10467 -0.523054 0.0215659  0.144936 -0.485897 0.0356121  0.139066 -0.534109 0.0297668  0.14089 -0.494279 0.0264018  0.113945 -0.471669 0.0303226  0.10668 -0.519357 0.0253298  0.109618 -0.480065 0.0224109  0.142788 -0.49042 0.0309684  0.111647 -0.476199 0.0263186  0.0950668 -0.604523 0.0268908  0.0910462 -0.611646 0.0199172  0.136045 -0.57463 0.0328174  0.127634 -0.624128 0.0273719  0.132207 -0.582191 0.0243547  0.10264 -0.559368 0.0280242  0.0929575 -0.608334 0.0233707  0.0984964 -0.566899 0.0207374  0.134006 -0.578699 0.0285578  0.100443 -0.563424 0.0243392  0.0764987 -0.696903 0.0246813  0.0727663 -0.703258 0.0182993  0.121971 -0.666648 0.030108  0.111265 -0.717119 0.0250671  0.118348 -0.673422 0.0223711  0.0863705 -0.650342 0.0257776  0.074551 -0.700292 0.0214636  0.0824972 -0.657071 0.0191057  0.120045 -0.670292 0.0262179  0.0843203 -0.653967 0.0224125  0.053682 -0.791614 0.0225594  0.0502478 -0.797303 0.0167537  0.103152 -0.761267 0.0274944  0.09041 -0.812462 0.0228596  0.0997952 -0.767336 0.0204511  0.0656189 -0.743965 0.0236101  0.0518937 -0.794652 0.0196338  0.0620424 -0.749971 0.0175271  0.101368 -0.764527 0.023952  0.0637342 -0.747198 0.0205429  0.0270565 -0.888221 0.0205345  0.0239195 -0.893281 0.0152593  0.0800757 -0.857945 0.0249987  0.065528 -0.909649 0.0207677  0.0770078 -0.863363 0.0186193  0.0408429 -0.839683 0.0215287  0.0254242 -0.89091 0.0178831  0.0375677 -0.845041 0.0160015  0.0784447 -0.860848 0.0217979  0.0391163 -0.842559 0.0187426  -0.00299418 -0.986299 0.0186107  -0.0058037 -0.990803 0.0138438  0.0531864 -0.956196 0.0226579  0.0370566 -1.00828 0.0187788  0.0504236 -0.961049 0.0168865  0.0124667 -0.937063 0.0195601  -0.00444233 -0.988695 0.0162182  0.00950062 -0.941833 0.0145423  0.0517209 -0.9588 0.0197599  0.0108997 -0.939629 0.0170357  -0.0360454 -1.08554 0.0167823  -0.0385394 -1.08952 0.0125051  0.0229282 -1.05573 0.0204334  0.0053854 -1.10803 0.0168903  0.0204277 -1.06004 0.0152328  -0.0191283 -1.03576 0.0176959  -0.0373269 -1.08766 0.014637  -0.0217836 -1.04 0.0131691  0.0215988 -1.05803 0.017827  -0.0205274 -1.03804 0.0154166  -0.0717534 -1.18564 0.0150554  -0.073948 -1.1892 0.0112264  -0.0103544 -1.15617 0.0183239  -0.0291029 -1.20859 0.015131  -0.0125393 -1.16002 0.0136769  -0.053555 -1.13546 0.0159152  -0.0728825 -1.18752 0.0131326  -0.0559009 -1.13923 0.0118585  -0.0115201 -1.15822 0.0159945  -0.0547894 -1.13749 0.0138793  -0.109792 -1.2864 0.0134346  -0.111677 -1.28954 0.0100276  -0.0462728 -1.25728 0.0163531  -0.0660634 -1.30976 0.0134521  -0.0481782 -1.26071 0.0122194  -0.0904679 -1.23592 0.0142405  -0.110769 -1.28808 0.0117211  -0.0925074 -1.23927 0.0106189  -0.0472882 -1.25911 0.0142777  -0.0915471 -1.23772 0.012424  -0.149858 -1.38763 0.0119283  -0.151458 -1.3904 0.0089004  -0.0844901 -1.3589 0.0145004  -0.105165 -1.41133 0.0119014  -0.0861118 -1.36192 0.0108428  -0.129572 -1.33695 0.0126715  -0.150674 -1.38911 0.0104063  -0.131315 -1.3399 0.00945902  -0.085355 -1.36049 0.0126657  -0.130475 -1.33853 0.0110633  -0.191633 -1.48917 0.010494  -0.192989 -1.49161 0.00784159  -0.124697 -1.46079 0.0127988  -0.146122 -1.51314 0.0104537  -0.126063 -1.46347 0.00955439  -0.170513 -1.43835 0.0112107  -0.192322 -1.49046 0.0091629  -0.171992 -1.44095 0.00835848  -0.125422 -1.46221 0.0111713  -0.171289 -1.43976 0.00977635  -0.234921 -1.59085 0.00916338  -0.236021 -1.593 0.00684714  -0.166615 -1.56284 0.0111678  -0.188679 -1.61505 0.00908852  -0.167727 -1.5652 0.00835133  -0.213081 -1.53998 0.00981998  -0.23546 -1.59199 0.00800562  -0.214303 -1.54226 0.00733685  -0.167214 -1.56409 0.00975895  -0.213717 -1.5412 0.00857496  -0.279428 -1.6926 0.00790596  -0.280299 -1.69446 0.00590777  -0.209983 -1.66492 0.00966406  -0.232563 -1.71697 0.00781441  -0.210881 -1.66699 0.00722671  -0.256997 -1.6417 0.00853634  -0.279855 -1.69358 0.00690389  -0.257983 -1.64371 0.00636911  -0.21046 -1.66601 0.00844264  -0.257507 -1.64278 0.00744963  -0.324979 -1.79429 0.0067656  -0.325636 -1.7959 0.00505447  -0.254568 -1.76696 0.00827694  -0.277568 -1.81878 0.00664806  -0.255249 -1.76876 0.00618815  -0.302059 -1.74343 0.00733256  -0.325283 -1.79514 0.00590825  -0.302821 -1.74517 0.00548124  -0.254935 -1.76789 0.00723076  -0.302442 -1.74436 0.00640225  -0.371345 -1.89586 0.00568843  -0.371815 -1.89723 0.0042572  -0.300147 -1.86882 0.00698471  -0.323494 -1.92042 0.00556827  -0.30065 -1.87037 0.00522161  -0.348035 -1.84507 0.00621986  -0.371551 -1.89657 0.00496936  -0.34861 -1.84657 0.00464678  -0.300422 -1.86962 0.00609922  -0.348322 -1.84588 0.00542712  -0.418362 -1.99723 0.00473332  -0.418684 -1.9984 0.00353289  -0.346554 -1.97047 0.00580668  -0.370133 -2.02181 0.00459266  -0.346875 -1.97178 0.0043447  -0.394758 -1.94655 0.00520563  -0.418489 -1.99783 0.00413418  -0.395139 -1.94781 0.00388813  -0.346727 -1.97114 0.00507426  -0.394945 -1.94722 0.00454545  -0.465878 -2.09834 0.0038209  -0.466048 -2.09932 0.00285912  -0.393585 -2.07182 0.00472856  -0.417346 -2.12292 0.00369954  -0.393753 -2.07296 0.00353837  -0.442042 -2.0478 0.00426912  -0.465926 -2.09884 0.00334001  -0.442272 -2.04887 0.00318718  -0.393674 -2.0724 0.00412464  -0.442147 -2.04836 0.00372076  -0.513731 -2.19916 0.00303006  -0.513793 -2.19996 0.00226116  -0.44107 -2.17287 0.00376034  -0.464952 -2.22369 0.00289845  -0.441125 -2.1738 0.0028193  -0.48973 -2.14876 0.00342059  -0.513721 -2.19955 0.00264454  -0.489856 -2.14965 0.00254917  -0.441108 -2.17334 0.00328636  -0.489781 -2.14923 0.00297713  -0.561827 -2.29963 0.00232172  -0.561783 -2.30029 0.00174117  -0.488882 -2.27356 0.00291443  -0.512861 -2.32411 0.0021956  -0.488842 -2.27434 0.00217891  -0.537717 -2.24941 0.002671  -0.561769 -2.29995 0.00202966  -0.537727 -2.25014 0.00199366  -0.488871 -2.27394 0.00254607  -0.537719 -2.24979 0.00232887  -0.610021 -2.39975 0.00170898  -0.609908 -2.40027 0.00126362  -0.536925 -2.37387 0.00215054  -0.560918 -2.42413 0.00158215  -0.536801 -2.37448 0.0016191  -0.585884 -2.34971 0.0020082  -0.609919 -2.4 0.00148392  -0.585805 -2.3503 0.00148773  -0.536871 -2.37416 0.00187898  -0.585829 -2.35001 0.00174785  -0.658239 -2.49947 0.00114369  -0.658104 -2.4999 0.000856638  -0.585049 -2.47379 0.00150633  -0.609042 -2.52379 0.00105882  -0.584876 -2.47428 0.00112677  -0.634092 -2.44964 0.00142026  -0.658124 -2.49968 0.0010035  -0.633975 -2.45011 0.00105977  -0.584976 -2.47401 0.00130987  -0.634015 -2.44988 0.00123692  -0.706438 -2.59882 0.000676632  -0.706255 -2.59917 0.000507116  -0.63319 -2.57331 0.000959158  -0.657155 -2.62306 0.000621319  -0.633003 -2.57369 0.000712156  -0.682325 -2.54917 0.00090766  -0.706306 -2.59898 0.000589132  -0.682148 -2.54955 0.000682354  -0.633102 -2.57347 0.00083518  -0.682222 -2.54937 0.000795126  -0.754526 -2.69777 0.000230312  -0.754344 -2.69809 0.000185251  -0.681284 -2.67242 0.000474215  -0.70522 -2.72195 0.000215054  -0.681077 -2.67275 0.00036025  -0.730468 -2.64832 0.00045681  -0.7544 -2.69791 0.000211477  -0.730278 -2.64864 0.000348568  -0.681194 -2.67255 0.000415564  -0.73036 -2.64848 0.000401497  -0.802533 -2.7964 -0.000171423  -0.802305 -2.79672 -0.000114918  -0.729291 -2.77116 5.8651e-05  -0.753186 -2.82058 -0.00013423  -0.729101 -2.77148 3.86238e-05  -0.778502 -2.74708 4.79221e-05  -0.80236 -2.79653 -0.000142574  -0.778309 -2.74741 4.00543e-05  -0.729213 -2.77129 5.17368e-05  -0.778398 -2.74724 4.43459e-05  0 0 0  0.0319677 -0.0359818 0.0427923  0.0253056 -0.0438983 0.0248275  0 0 0  0.0134275 -0.0278596 0.0299649  0.0350514 -0.052587 0.0352182  0.0106493 -0.0334934 0.0162139  0 0 0  0.0102053 -0.0194959 0.025737  0.027437 -0.0404544 0.0327022  0.00735901 -0.0239128 0.0139873  0 0 0  0.0110965 -0.0300969 0.0217364  0.00779273 -0.0216252 0.0186772  0.0708536 -0.0697977 0.0509028  0.0641499 -0.0801154 0.0362  0.0640655 -0.0623692 0.0534666  0.0792092 -0.0854108 0.0490146  0.056273 -0.0722162 0.035697  0.053499 -0.0523306 0.0480039  0.0672078 -0.0755089 0.0436332  0.0456999 -0.061219 0.0318584  0.0592688 -0.0680885 0.0442531  0.0489661 -0.0573748 0.0396483  0.102018 -0.111783 0.0543742  0.0972157 -0.123074 0.0395858  0.100116 -0.0995049 0.0600939  0.114724 -0.128697 0.0528743  0.0948108 -0.110771 0.0432754  0.0866399 -0.0893981 0.0532377  0.0995306 -0.117954 0.0468946  0.0813097 -0.100332 0.0384455  0.0972441 -0.105733 0.0516136  0.0838002 -0.095451 0.0458148  0.129267 -0.164267 0.0539787  0.124953 -0.175703 0.0397573  0.133433 -0.14775 0.0614936  0.14596 -0.181938 0.0528524  0.128873 -0.159144 0.0450468  0.116355 -0.1367 0.0544245  0.127095 -0.170482 0.046813  0.111825 -0.148114 0.039942  0.131106 -0.154009 0.0531869  0.114039 -0.142968 0.0471187  0.150815 -0.226406 0.051964  0.146739 -0.237433 0.0383825  0.16141 -0.206124 0.0599699  0.171102 -0.244767 0.050914  0.15728 -0.217218 0.0442154  0.140804 -0.194146 0.0530827  0.148756 -0.232381 0.0451159  0.136656 -0.205402 0.0391946  0.159342 -0.212178 0.0520256  0.138694 -0.200301 0.0460806  0.166153 -0.296933 0.0491068  0.162145 -0.307286 0.0363309  0.18328 -0.273638 0.057071  0.189713 -0.315905 0.0481234  0.179287 -0.284103 0.0422044  0.159319 -0.260654 0.0505841  0.164129 -0.302519 0.0426643  0.155289 -0.271351 0.0374134  0.181273 -0.279346 0.0495782  0.157258 -0.266488 0.0439444  0.175029 -0.374424 0.0458989  0.171062 -0.383993 0.033989  0.198499 -0.348854 0.0535493  0.201583 -0.394027 0.0449481  0.194565 -0.35859 0.0396605  0.17143 -0.334836 0.0475123  0.173018 -0.379577 0.0398955  0.167449 -0.344795 0.0351837  0.196506 -0.354155 0.0465515  0.169386 -0.340257 0.0412931  0.177503 -0.457633 0.0425715  0.173626 -0.466368 0.0315561  0.207022 -0.430441 0.0498016  0.2068 -0.477866 0.041667  0.203115 -0.439346 0.0369165  0.177086 -0.415343 0.0442345  0.175534 -0.462349 0.0370271  0.173157 -0.424488 0.0327756  0.205027 -0.435284 0.0433173  0.175063 -0.420316 0.0384562  0.173878 -0.545463 0.0392506  0.170153 -0.553371 0.0291195  0.208932 -0.517142 0.0459623  0.205676 -0.566303 0.0383775  0.205165 -0.52524 0.0341306  0.176462 -0.500994 0.0409012  0.171989 -0.549722 0.0341499  0.172662 -0.509305 0.0303345  0.207021 -0.521549 0.0400116  0.174502 -0.505507 0.0355797  0.164585 -0.636931 0.0360191  0.161049 -0.64406 0.0267558  0.204707 -0.607944 0.0422058  0.198637 -0.658391 0.035172  0.201107 -0.615254 0.0313718  0.16994 -0.590757 0.0376205  0.162792 -0.640781 0.0313587  0.166315 -0.598257 0.0279312  0.202881 -0.61192 0.0367513  0.16808 -0.594828 0.0327456  0.150071 -0.73131 0.0328891  0.146768 -0.737718 0.0244617  0.194754 -0.701948 0.038559  0.186151 -0.753343 0.0320976  0.191388 -0.708529 0.0287154  0.157978 -0.683772 0.0344324  0.148399 -0.734765 0.028656  0.154557 -0.690519 0.0255938  0.193056 -0.705542 0.0336232  0.156221 -0.687445 0.0299897  0.13083 -0.827947 0.0299006  0.127782 -0.833708 0.0222652  0.179606 -0.798459 0.0350969  0.168731 -0.850537 0.0291586  0.176502 -0.804401 0.0261528  0.141034 -0.779353 0.0313756  0.129289 -0.831052 0.0260639  0.137867 -0.785421 0.0233471  0.178023 -0.801695 0.0306087  0.139403 -0.782661 0.0273399  0.107356 -0.926335 0.0270996  0.104583 -0.931482 0.0201833  0.159801 -0.896926 0.0318069  0.146884 -0.949448 0.0263953  0.156921 -0.90221 0.0237396  0.119611 -0.876937 0.0284834  0.105962 -0.929122 0.0236278  0.116713 -0.882363 0.0212142  0.158325 -0.899802 0.02775  0.118125 -0.879889 0.0248313  0.0800849 -1.02608 0.0244331  0.0776021 -1.03068 0.0182209  0.135783 -0.996806 0.0287309  0.121085 -1.04965 0.0237844  0.13317 -1.00156 0.0214484  0.0941933 -0.976035 0.0257564  0.0788478 -1.02856 0.0213192  0.0915706 -0.9809 0.0191946  0.134463 -0.999405 0.0250807  0.0928564 -0.97869 0.0224609  0.0494686 -1.12681 0.0219345  0.0472554 -1.13093 0.0163646  0.108013 -1.09783 0.0257838  0.0917556 -1.1508 0.021318  0.105686 -1.10206 0.0192721  0.06519 -1.07632 0.0231724  0.0483654 -1.12904 0.0191317  0.0628545 -1.08067 0.0172813  0.106839 -1.10013 0.0225217  0.0640078 -1.07869 0.0202162  0.0158856 -1.22826 0.0195789  0.0139384 -1.23194 0.0146308  0.0769424 -1.19957 0.0230455  0.0592933 -1.25261 0.0190101  0.0748801 -1.20336 0.0172515  0.033047 -1.17745 0.0207481  0.0149181 -1.23025 0.0171013  0.0309782 -1.18133 0.0154881  0.0758877 -1.20163 0.0201464  0.0319909 -1.17956 0.0181065  -0.0203249 -1.33023 0.0173845  -0.0219753 -1.33349 0.0129914  0.0429544 -1.30187 0.0204849  0.0241282 -1.35488 0.0168452  0.0411663 -1.30525 0.0153315  -0.00188947 -1.27917 0.0184708  -0.0211353 -1.33199 0.0151751  -0.00369358 -1.28264 0.013793  0.0420337 -1.3037 0.0179057  -0.00280166 -1.28107 0.0161266  -0.0587869 -1.43249 0.0153325  -0.0601804 -1.43537 0.0114629  0.00638628 -1.40446 0.0180953  -0.0134325 -1.45739 0.0148208  0.00487328 -1.40746 0.0135562  -0.0392609 -1.38131 0.0163386  -0.0594573 -1.43405 0.0133872  -0.0407789 -1.38437 0.012213  0.00561309 -1.40611 0.0158169  -0.0400319 -1.38299 0.0142667  -0.0991936 -1.5349 0.0134096  -0.100345 -1.53745 0.0100358  -0.0323901 -1.50724 0.0158589  -0.0530643 -1.55997 0.0129354  -0.0336387 -1.50988 0.0119026  -0.0787351 -1.48367 0.0143585  -0.0997338 -1.53627 0.0117249  -0.0800066 -1.48637 0.0107424  -0.0330098 -1.50868 0.0138838  -0.0793655 -1.48515 0.0125473  -0.141293 -1.63733 0.011631  -0.142201 -1.63958 0.00871086  -0.0730562 -1.60999 0.0137918  -0.094476 -1.66253 0.0112143  -0.074074 -1.61232 0.0103428  -0.12002 -1.58609 0.0125227  -0.141711 -1.63854 0.0101721  -0.121043 -1.58849 0.00935769  -0.0735593 -1.61126 0.0120647  -0.120526 -1.58741 0.0109377  -0.18479 -1.73967 0.00997615  -0.185507 -1.74163 0.00747967  -0.11538 -1.71262 0.0118732  -0.137415 -1.76495 0.00958037  -0.116181 -1.71469 0.00890422  -0.162847 -1.68849 0.0107965  -0.185118 -1.74073 0.00872207  -0.163661 -1.6906 0.00807548  -0.115753 -1.71376 0.010381  -0.163241 -1.68964 0.00943089  -0.229496 -1.84183 0.00845981  -0.230015 -1.84355 0.00632381  -0.159063 -1.81508 0.0100725  -0.181602 -1.86711 0.0081017  -0.15967 -1.81689 0.00757527  -0.20698 -1.79075 0.00920534  -0.229697 -1.84274 0.00739002  -0.207597 -1.79259 0.00688887  -0.159373 -1.81606 0.00882196  -0.20727 -1.79176 0.00804138  -0.275158 -1.94375 0.00707102  -0.275511 -1.94523 0.0052855  -0.203906 -1.91728 0.00846434  -0.226855 -1.96903 0.00672698  -0.20433 -1.91883 0.0063529  -0.252181 -1.89279 0.00774455  -0.275288 -1.94454 0.00617385  -0.252614 -1.89439 0.00579309  -0.204105 -1.91811 0.00740671  -0.252378 -1.89367 0.00676608  -0.321613 -2.04538 0.00577593  -0.321805 -2.04663 0.00433183  -0.24969 -2.01916 0.00694442  -0.272969 -2.07059 0.0054884  -0.249956 -2.02046 0.00523925  -0.29827 -1.99458 0.00641298  -0.321654 -2.04604 0.0050478  -0.298527 -1.99594 0.00480127  -0.249815 -2.01986 0.00608873  -0.298379 -1.99533 0.00560236  -0.368666 -2.14666 0.0046289  -0.368716 -2.14769 0.00346708  -0.296242 -2.12065 0.00560379  -0.319758 -2.17176 0.00436139  -0.296357 -2.12175 0.00423121  -0.345039 -2.09604 0.00520039  -0.36864 -2.1472 0.00404716  -0.34517 -2.09719 0.00389647  -0.296283 -2.12122 0.00491929  -0.345074 -2.09666 0.00454426  -0.416175 -2.24755 0.00360394  -0.416117 -2.24841 0.00270462  -0.343356 -2.22171 0.00441265  -0.367047 -2.27252 0.00337553  -0.343341 -2.22262 0.00332904  -0.392344 -2.19713 0.00411344  -0.41608 -2.24798 0.00315428  -0.392334 -2.19807 0.00307679  -0.343344 -2.22219 0.00386429  -0.392317 -2.19764 0.00359273  -0.463967 -2.34803 0.002702  -0.463843 -2.34872 0.00203562  -0.390921 -2.32235 0.00332642  -0.414724 -2.37285 0.00249147  -0.390789 -2.3231 0.00253296  -0.440001 -2.29781 0.00315118  -0.463862 -2.34838 0.0023663  -0.43992 -2.29859 0.00236392  -0.390831 -2.32274 0.00293875  -0.439932 -2.29823 0.00275159  -0.511981 -2.44811 0.00192857  -0.511797 -2.44866 0.0014627  -0.438752 -2.42257 0.00239921  -0.462632 -2.47275 0.00175071  -0.438567 -2.42315 0.00184321  -0.487929 -2.3981 0.00230765  -0.511831 -2.44838 0.00169063  -0.487776 -2.39872 0.00173402  -0.43865 -2.42285 0.00212932  -0.487827 -2.39843 0.00202155  -0.560061 -2.54778 0.00126648  -0.559848 -2.54821 0.000958681  -0.486761 -2.52233 0.00163174  -0.510671 -2.57225 0.00113368  -0.486521 -2.52282 0.0012548  -0.535976 -2.49797 0.00159645  -0.559902 -2.54797 0.00111175  -0.53578 -2.49845 0.00119638  -0.486633 -2.52255 0.00144958  -0.535859 -2.49822 0.00139356  -0.608123 -2.64701 0.000716686  -0.607919 -2.64737 0.000560045  -0.534827 -2.62169 0.000953436  -0.558736 -2.67133 0.00063777  -0.534599 -2.62206 0.000771761  -0.58407 -2.59742 0.000980854  -0.607979 -2.64717 0.000638485  -0.583864 -2.59781 0.00074935  -0.534706 -2.62183 0.000868082  -0.583938 -2.59762 0.000863075  -0.656161 -2.74586 0.000274658  -0.655962 -2.74619 0.000226498  -0.582854 -2.72061 0.000488997  -0.60678 -2.77008 0.000266075  -0.58264 -2.72094 0.000406504  -0.632133 -2.69646 0.000500202  -0.656023 -2.74601 0.000254631  -0.631914 -2.69679 0.000387669  -0.582753 -2.72075 0.000447035  -0.632003 -2.69662 0.000442982  -0.704145 -2.84446 -0.000143051  -0.703941 -2.84479 -9.799e-05  -0.630868 -2.81927 8.67844e-05  -0.654784 -2.86862 -9.75132e-05  -0.630667 -2.81958 9.01222e-05  -0.680125 -2.79515 8.24928e-05  -0.704005 -2.84459 -0.000119686  -0.679928 -2.79548 6.07967e-05  -0.63079 -2.81937 9.75132e-05  -0.680018 -2.79532 7.53403e-05  -0.0307677 -0.0348816 -0.0289531  -0.0126406 -0.021482 -0.0125732  0 0 0  -0.0197153 -0.0241448 -0.0185215  0 0 0  -0.0125611 -0.012313 -0.0198512  -0.00398837 -0.0058512 -0.0086062  0 0 0  -0.0117357 -0.019849 -0.0161996  -0.0193221 -0.0210995 -0.0239918  -0.00601727 -0.0110961 -0.0100856  0 0 0  -0.00395855 -0.00453462 -0.0110843  -0.00582625 -0.0097271 -0.0129304  -0.0693633 -0.0502631 -0.0443146  -0.0514915 -0.0458261 -0.0292621  -0.0526227 -0.0474713 -0.0294697  -0.0384398 -0.0355952 -0.0318131  -0.0243775 -0.0267059 -0.0208132  -0.0499346 -0.0407736 -0.0380223  -0.0523124 -0.0420917 -0.0378878  -0.0358649 -0.0348546 -0.0249329  -0.0246122 -0.0229521 -0.0268533  -0.0354777 -0.0304425 -0.0322256  -0.108769 -0.0754137 -0.0496974  -0.089826 -0.0680346 -0.0376079  -0.0871101 -0.076094 -0.0337961  -0.0672383 -0.066329 -0.035826  -0.0528176 -0.0549195 -0.0271986  -0.0889438 -0.0616474 -0.0480766  -0.0864118 -0.0700523 -0.0425725  -0.0696375 -0.0606984 -0.0323169  -0.0527917 -0.049773 -0.0345185  -0.0692933 -0.054881 -0.0410972  -0.14836 -0.109598 -0.0483565  -0.129817 -0.0978051 -0.0394902  -0.122618 -0.113071 -0.0334585  -0.0969151 -0.106319 -0.0350707  -0.0828952 -0.0905742 -0.0287163  -0.128612 -0.091451 -0.0495603  -0.121121 -0.107445 -0.041537  -0.104799 -0.0935288 -0.0340078  -0.0819098 -0.0852623 -0.0358098  -0.103703 -0.0876899 -0.0424891  -0.18789 -0.1521 -0.0442393  -0.169876 -0.135641 -0.0374711  -0.158682 -0.157783 -0.0308886  -0.128088 -0.154204 -0.0322044  -0.114108 -0.134211 -0.0273721  -0.168148 -0.12996 -0.0465064  -0.156577 -0.152898 -0.0380955  -0.140564 -0.134509 -0.0323381  -0.112305 -0.129366 -0.0337954  -0.138751 -0.12928 -0.0400059  -0.227507 -0.201576 -0.0392408  -0.209823 -0.180893 -0.0338385  -0.195376 -0.209173 -0.0275044  -0.160877 -0.208682 -0.0286295  -0.146589 -0.184883 -0.0247712  -0.207696 -0.176078 -0.04178  -0.192926 -0.205061 -0.0338383  -0.176928 -0.182679 -0.0292382  -0.144283 -0.180687 -0.0304675  -0.174646 -0.178223 -0.0360134  -0.26742 -0.257036 -0.0343347  -0.249779 -0.232629 -0.0298209  -0.232793 -0.266348 -0.024051  -0.195211 -0.268738 -0.0250242  -0.180389 -0.241605 -0.0218151  -0.247428 -0.228641 -0.0367606  -0.230204 -0.262933 -0.0296116  -0.213963 -0.237054 -0.0257618  -0.17785 -0.238052 -0.0268147  -0.211446 -0.23334 -0.031698  -0.307856 -0.317708 -0.0298684  -0.289985 -0.290058 -0.0259967  -0.271052 -0.328606 -0.0208843  -0.231039 -0.333646 -0.0217154  -0.21553 -0.303577 -0.0189507  -0.287578 -0.286782 -0.0320487  -0.268477 -0.325793 -0.0257459  -0.251792 -0.296845 -0.0224197  -0.212934 -0.300615 -0.0233305  -0.249215 -0.293775 -0.027627  -0.348989 -0.38305 -0.02597  -0.330697 -0.352551 -0.0225651  -0.310266 -0.395456 -0.0180876  -0.268307 -0.402901 -0.0188046  -0.252013 -0.370236 -0.0163908  -0.328337 -0.349844 -0.0278587  -0.307802 -0.393125 -0.0223513  -0.290515 -0.361468 -0.0194333  -0.24949 -0.367758 -0.020215  -0.288003 -0.358929 -0.0239875  -0.39093 -0.452589 -0.0225811  -0.372094 -0.419584 -0.0195789  -0.350543 -0.466447 -0.0156674  -0.307004 -0.476055 -0.0162807  -0.289855 -0.441081 -0.0141432  -0.369864 -0.417329 -0.0242212  -0.348234 -0.464498 -0.019397  -0.330249 -0.43044 -0.0168273  -0.287475 -0.439013 -0.0174921  -0.327878 -0.428333 -0.020813  -0.433763 -0.525925 -0.0196676  -0.414309 -0.490702 -0.0170157  -0.391899 -0.541148 -0.013587  -0.347081 -0.552721 -0.0140979  -0.329074 -0.515704 -0.012234  -0.412238 -0.488819 -0.0210853  -0.389772 -0.539503 -0.0168555  -0.371059 -0.503331 -0.0145929  -0.326868 -0.513963 -0.0151484  -0.368862 -0.501567 -0.0180802  -0.477515 -0.60271 -0.0171092  -0.457407 -0.565506 -0.0147903  -0.434355 -0.619222 -0.0117812  -0.388483 -0.632554 -0.0121739  -0.369624 -0.593733 -0.0105579  -0.455534 -0.563919 -0.0183444  -0.432424 -0.617823 -0.0146229  -0.412959 -0.579754 -0.0126505  -0.367619 -0.592259 -0.013108  -0.410964 -0.578272 -0.0157032  -0.522146 -0.682621 -0.0148609  -0.501419 -0.643668 -0.01285  -0.477872 -0.70032 -0.0102034  -0.43115 -0.715258 -0.0105102  -0.411463 -0.674829 -0.0091126  -0.499732 -0.642304 -0.0159645  -0.476146 -0.699135 -0.0126779  -0.455961 -0.659387 -0.0109618  -0.409662 -0.673566 -0.0113294  -0.454159 -0.658125 -0.0136204  -0.567636 -0.765372 -0.0128722  -0.546308 -0.724837 -0.0111258  -0.522409 -0.784134 -0.00879598  -0.474976 -0.800505 -0.00904465  -0.45453 -0.758642 -0.00784874  -0.544789 -0.723671 -0.0138283  -0.520863 -0.783131 -0.010942  -0.499998 -0.741886 -0.00947237  -0.452915 -0.757576 -0.00975943  -0.498379 -0.740814 -0.0117779  -0.613937 -0.850636 -0.0110655  -0.592029 -0.808697 -0.00960565  -0.567873 -0.870387 -0.00754046  -0.519867 -0.888032 -0.007725  -0.498725 -0.844917 -0.00671768  -0.590693 -0.807704 -0.0119498  -0.566507 -0.869526 -0.00939107  -0.545011 -0.826955 -0.00815082  -0.497291 -0.843998 -0.00836539  -0.543566 -0.826042 -0.0101483  -0.660939 -0.93817 -0.00946331  -0.638526 -0.895005 -0.00824952  -0.614186 -0.958799 -0.00643468  -0.565708 -0.977582 -0.0065589  -0.543933 -0.933344 -0.00571871  -0.637355 -0.894141 -0.010253  -0.612969 -0.958062 -0.00800776  -0.590902 -0.914316 -0.00697589  -0.542672 -0.932565 -0.00712752  -0.589641 -0.913536 -0.00868702  -0.708565 -1.02773 -0.00803733  -0.685707 -0.983462 -0.0070169  -0.661227 -1.04913 -0.00543284  -0.612378 -1.06891 -0.00549984  -0.590044 -1.02371 -0.00481844  -0.684681 -0.98271 -0.00873399  -0.660165 -1.0485 -0.00676656  -0.637594 -1.00371 -0.00591207  -0.588943 -1.02303 -0.00600719  -0.636483 -1.00306 -0.00736976  -0.756716 -1.11908 -0.00674629  -0.73349 -1.07383 -0.00593019  -0.708908 -1.14113 -0.00453925  -0.659763 -1.16178 -0.00456691  -0.636944 -1.11573 -0.00403905  -0.732584 -1.0732 -0.00737143  -0.707971 -1.1406 -0.00565386  -0.684966 -1.09492 -0.00497174  -0.635982 -1.11515 -0.00502992  -0.683999 -1.09436 -0.00619507  -0.805325 -1.21198 -0.00558567  -0.78175 -1.16589 -0.00493646  -0.757104 -1.23459 -0.00373793  -0.707739 -1.25599 -0.00373292  -0.684521 -1.20921 -0.00332427  -0.780972 -1.16535 -0.00614953  -0.756297 -1.23415 -0.00465608  -0.732923 -1.18767 -0.00412416  -0.683681 -1.20873 -0.00414181  -0.732079 -1.18721 -0.00514555  -0.854263 -1.30623 -0.00455546  -0.83042 -1.25938 -0.00406241  -0.805725 -1.32934 -0.00302577  -0.756208 -1.35137 -0.00298762  -0.732623 -1.30396 -0.00268316  -0.829756 -1.25895 -0.00506663  -0.805036 -1.32896 -0.00377369  -0.781337 -1.28179 -0.00337172  -0.731913 -1.30355 -0.00335693  -0.78062 -1.2814 -0.00420475  -0.903466 -1.40164 -0.00361776  -0.879395 -1.35417 -0.00326729  -0.854647 -1.42513 -0.00239515  -0.80503 -1.44771 -0.00233889  -0.78117 -1.39977 -0.00212908  -0.878837 -1.3538 -0.0040741  -0.854075 -1.42483 -0.00299072  -0.830122 -1.37709 -0.00269794  -0.780571 -1.39943 -0.00265718  -0.829517 -1.37677 -0.00337052  -0.952839 -1.49802 -0.00282574  -0.928582 -1.45004 -0.00258327  -0.903803 -1.52184 -0.00185466  -0.854125 -1.54487 -0.00177193  -0.830037 -1.49649 -0.00164413  -0.928141 -1.44973 -0.00321817  -0.903325 -1.52158 -0.00231171  -0.879179 -1.47336 -0.00211596  -0.829545 -1.49619 -0.00205541  -0.878679 -1.4731 -0.00263214  -1.00228 -1.59522 -0.00212789  -0.977906 -1.54681 -0.00198865  -0.953095 -1.6193 -0.00136971  -0.903383 -1.64268 -0.00128722  -0.879129 -1.59395 -0.00121713  -0.977553 -1.54653 -0.00247431  -0.952698 -1.61908 -0.00170732  -0.92841 -1.57046 -0.0016036  -0.878727 -1.5937 -0.0015142  -0.927999 -1.57025 -0.00199676  -1.05173 -1.69309 -0.00152063  -1.02729 -1.6443 -0.00146747  -1.00242 -1.71734 -0.000954866  -0.952719 -1.74101 -0.000863314  -0.928345 -1.69199 -0.00084877  -1.02701 -1.64409 -0.00181651  -1.00211 -1.71717 -0.00118852  -0.977726 -1.66823 -0.00116038  -0.92804 -1.69179 -0.00106788  -0.977402 -1.66806 -0.00143719  -1.10111 -1.79149 -0.00102997  -1.07663 -1.74243 -0.0010221  -1.05175 -1.81584 -0.000624418  -1.00207 -1.83973 -0.000536919  -0.977632 -1.79049 -0.000549316  -1.07643 -1.74224 -0.0012567  -1.05151 -1.81571 -0.000772238  -1.02707 -1.76652 -0.000787497  -0.977391 -1.79033 -0.000685692  -1.02681 -1.76639 -0.000975847  -1.1504 -1.89025 -0.00060463  -1.12591 -1.84098 -0.000641346  -1.10099 -1.91468 -0.000357389  -1.05134 -1.93871 -0.000243664  -1.02689 -1.88932 -0.000303268  -1.12577 -1.84083 -0.000794411  -1.1008 -1.91457 -0.000436306  -1.07635 -1.86521 -0.000474691  -1.02671 -1.88919 -0.000374794  -1.07617 -1.86511 -0.000587702  -1.19952 -1.98927 -0.000310659  -1.17507 -1.93986 -0.000371933  -1.1501 -2.01373 -0.000149727  -1.10052 -2.03784 -5.36442e-05  -1.07606 -1.98839 -0.000115156  -1.17498 -1.93974 -0.00044322  -1.14997 -2.01363 -0.000174761  -1.12554 -1.96416 -0.000243664  -1.07595 -1.98826 -0.000144243  -1.12541 -1.96408 -0.000295877  -1.24848 -2.08843 -8.24928e-05  -1.22406 -2.03895 -0.000147343  -1.19907 -2.11287 -7.86781e-06  -1.14954 -2.13704 7.4625e-05  -1.12511 -2.08754 7.86781e-06  -1.22402 -2.03884 -0.000173807  -1.19896 -2.1128 -4.76837e-06  -1.17458 -2.06328 -7.58171e-05  -1.12504 -2.08744 1.0252e-05  -1.17449 -2.06321 -9.08375e-05  -1.29723 -2.18763 5.62668e-05  -1.27289 -2.13812 -1.3113e-05  -1.24785 -2.21204 6.24657e-05  -1.19837 -2.23623 0.000150919  -1.17401 -2.18672 8.10623e-05  -1.27288 -2.13803 -2.38419e-07  -1.24778 -2.21198 9.5129e-05  -1.22345 -2.16243 3.12328e-05  -1.17397 -2.18664 0.000106096  -1.2234 -2.16239 4.98295e-05  -1.34579 -2.28678 0.000102043  -1.32153 -2.23729 7.41482e-05  -1.29644 -2.31113 0.000100613  -1.247 -2.3353 0.000169754  -1.22272 -2.28584 0.000123978  -1.32152 -2.23722 0.000108004  -1.29638 -2.31107 0.000141144  -1.27213 -2.26157 9.82285e-05  -1.2227 -2.28577 0.000155687  -1.2721 -2.26153 0.000127316  -1.3942 -2.38579 0.000119925  -1.36999 -2.33637 9.2268e-05  -1.34487 -2.41007 9.53674e-05  -1.29544 -2.43421 0.000145435  -1.27124 -2.38482 0.000120163  -1.37001 -2.3363 0.000124693  -1.34482 -2.41003 0.000126839  -1.32063 -2.36059 0.000104427  -1.27124 -2.38478 0.000155687  -1.32062 -2.36057 0.000133991  -1.44254 -2.48465 0.000104189  -1.4184 -2.43529 7.10487e-05  -1.39321 -2.50886 9.17912e-05  -1.34377 -2.53294 0.000117302  -1.31961 -2.48366 0.000100613  -1.41838 -2.43524 0.000101328  -1.39316 -2.50881 0.000123501  -1.36902 -2.45946 9.44138e-05  -1.31961 -2.48359 0.000128984  -1.369 -2.45943 0.000121355  -0.00848975 -0.0100437 -0.0123734  0 0 0  -0.00572754 -0.00552861 -0.0125473  -0.00178906 -0.00148948 -0.00530839  0 0 0  -0.00866889 -0.00781541 -0.0160151  -0.00254732 -0.00301713 -0.0067966  0 0 0  -0.0017928 -0.000497594 -0.00693488  -0.00256211 -0.00184235 -0.00880599  -0.0274731 -0.0349921 -0.0202465  -0.0187613 -0.0286119 -0.0204668  -0.0113185 -0.0183339 -0.0133581  -0.0277197 -0.0309956 -0.0259254  -0.0170436 -0.0212667 -0.0169127  -0.0115099 -0.0155979 -0.0171728  -0.0173264 -0.0180972 -0.0217593  -0.0511771 -0.0688879 -0.0234716  -0.0360877 -0.0632296 -0.0233037  -0.0271267 -0.0487011 -0.0177014  -0.0507171 -0.0640925 -0.0293927  -0.039005 -0.0508599 -0.0223224  -0.0270766 -0.0447245 -0.0223467  -0.0390175 -0.0463702 -0.0282347  -0.0768278 -0.11086 -0.0233505  -0.0558839 -0.106971 -0.0228815  -0.0466073 -0.0884176 -0.0188112  -0.0754244 -0.106125 -0.0288372  -0.063784 -0.0888499 -0.023658  -0.0456859 -0.0840364 -0.023335  -0.0628313 -0.084045 -0.0294085  -0.104265 -0.160333 -0.0215836  -0.0782275 -0.158606 -0.0210252  -0.068393 -0.136129 -0.0179558  -0.102191 -0.156033 -0.0265009  -0.0902972 -0.134691 -0.0225785  -0.0667181 -0.131887 -0.022058  -0.0885341 -0.130185 -0.0278065  -0.133619 -0.216254 -0.0192065  -0.103303 -0.21687 -0.0186319  -0.092591 -0.190805 -0.0162258  -0.131173 -0.212537 -0.0235569  -0.118685 -0.187509 -0.0204279  -0.0904191 -0.18698 -0.0198665  -0.116404 -0.183532 -0.0250695  -0.164886 -0.277747 -0.0167375  -0.131052 -0.280701 -0.0161903  -0.119268 -0.25148 -0.0142124  -0.162286 -0.274585 -0.02055  -0.149001 -0.24632 -0.0179648  -0.11685 -0.248135 -0.0174131  -0.146463 -0.242907 -0.0220473  -0.197984 -0.344098 -0.0144513  -0.161295 -0.34932 -0.0139275  -0.148348 -0.317311 -0.0122485  -0.195401 -0.341425 -0.0177863  -0.181186 -0.310312 -0.0155632  -0.145866 -0.314444 -0.0150392  -0.178595 -0.307428 -0.0191374  -0.232893 -0.414783 -0.0124216  -0.193854 -0.422137 -0.0119302  -0.179697 -0.387679 -0.0104752  -0.230398 -0.412509 -0.0153394  -0.215187 -0.378887 -0.0134068  -0.17729 -0.385226 -0.0128977  -0.212663 -0.376461 -0.0165284  -0.269486 -0.489299 -0.0106754  -0.228548 -0.498671 -0.0101817  -0.213232 -0.462042 -0.00893021  -0.267164 -0.487386 -0.0132089  -0.250941 -0.451534 -0.0115194  -0.210942 -0.459957 -0.0110245  -0.248565 -0.449496 -0.0142412  -0.307742 -0.567299 -0.00917864  -0.265218 -0.578527 -0.00869536  -0.248749 -0.539987 -0.00760746  -0.305614 -0.565675 -0.0113759  -0.288381 -0.527853 -0.00990176  -0.246636 -0.538201 -0.00941324  -0.286178 -0.52612 -0.0122669  -0.347573 -0.64839 -0.00787711  -0.303728 -0.661317 -0.00739503  -0.286172 -0.621089 -0.00646591  -0.345631 -0.647005 -0.00978851  -0.327431 -0.607439 -0.0085063  -0.284248 -0.619564 -0.00802541  -0.325425 -0.605971 -0.0105603  -0.388852 -0.732255 -0.00674248  -0.343912 -0.746728 -0.00627089  -0.325363 -0.705016 -0.00548768  -0.387109 -0.731076 -0.00838351  -0.368006 -0.68996 -0.00729656  -0.323622 -0.703709 -0.00682092  -0.366187 -0.688715 -0.00906634  -0.431497 -0.81858 -0.00575423  -0.385648 -0.834469 -0.00530005  -0.36616 -0.79144 -0.00464416  -0.429935 -0.817579 -0.00716662  -0.409978 -0.775097 -0.00623465  -0.36459 -0.790326 -0.00577688  -0.408355 -0.774032 -0.00776219  -0.475377 -0.907087 -0.00488472  -0.428758 -0.924224 -0.00444269  -0.408422 -0.880063 -0.00389671  -0.473974 -0.906227 -0.00607967  -0.453261 -0.862542 -0.00530863  -0.40703 -0.879098 -0.00486302  -0.451804 -0.861646 -0.00661182  -0.520337 -0.997523 -0.00410008  -0.473096 -1.01579 -0.00367713  -0.452011 -0.970621 -0.00325179  -0.519111 -0.996785 -0.00511837  -0.49769 -0.952046 -0.00448394  -0.450776 -0.969798 -0.00404215  -0.496412 -0.951277 -0.00558734  -0.566265 -1.08963 -0.00341272  -0.518501 -1.10889 -0.00298715  -0.496747 -1.06287 -0.00267148  -0.565179 -1.089 -0.00424933  -0.543149 -1.04334 -0.00374341  -0.495665 -1.06216 -0.00333619  -0.542028 -1.04269 -0.00466895  -0.61301 -1.18319 -0.00279951  -0.564836 -1.20333 -0.00241423  -0.542496 -1.15657 -0.00216103  -0.612072 -1.18266 -0.00349665  -0.589507 -1.13621 -0.00309062  -0.541557 -1.15595 -0.00270104  -0.58852 -1.13566 -0.00386381  -0.660467 -1.27801 -0.00226736  -0.611945 -1.29892 -0.00189042  -0.589103 -1.25152 -0.00172615  -0.659644 -1.27755 -0.00283146  -0.63663 -1.23043 -0.00252175  -0.588298 -1.25099 -0.00215268  -0.635778 -1.22995 -0.00314569  -0.708472 -1.37388 -0.00177574  -0.659698 -1.39546 -0.00143814  -0.636436 -1.34752 -0.00132918  -0.707773 -1.37351 -0.00222015  -0.68438 -1.3258 -0.00200939  -0.635748 -1.34707 -0.00165725  -0.683644 -1.32541 -0.00251245  -0.75693 -1.47066 -0.00135469  -0.707943 -1.49279 -0.00104308  -0.684335 -1.44441 -0.000985861  -0.756336 -1.47034 -0.0016923  -0.732619 -1.42214 -0.00156069  -0.683751 -1.44403 -0.00123167  -0.731997 -1.42182 -0.00195122  -0.805716 -1.56817 -0.00100112  -0.756575 -1.59077 -0.000715971  -0.732694 -1.54203 -0.00070858  -0.805221 -1.56791 -0.00125384  -0.781252 -1.51931 -0.00117016  -0.732213 -1.5417 -0.000881433  -0.780734 -1.51904 -0.00146389  -0.854732 -1.66626 -0.000689983  -0.80549 -1.68925 -0.000438213  -0.781389 -1.64022 -0.000444412  -0.854322 -1.66605 -0.000864267  -0.830176 -1.61713 -0.000834942  -0.780999 -1.63995 -0.000563622  -0.829742 -1.61691 -0.00104332  -0.903876 -1.76481 -0.000426292  -0.854562 -1.78811 -0.000197649  -0.830317 -1.73886 -0.000254631  -0.903544 -1.76464 -0.00053215  -0.879262 -1.71546 -0.000549078  -0.830008 -1.73864 -0.00031352  -0.878917 -1.71529 -0.00069499  -0.953066 -1.8637 -0.000223875  -0.903717 -1.88724 -4.50611e-05  -0.879364 -1.83783 -8.55923e-05  -0.95281 -1.86355 -0.000279903  -0.928438 -1.8142 -0.000318766  -0.879127 -1.83765 -0.000110149  -0.928177 -1.81406 -0.000395536  -1.00225 -1.9628 -5.88894e-05  -0.952873 -1.98652 0.000100613  -0.928469 -1.93702 3.3617e-05  -1.00205 -1.96267 -8.10623e-05  -0.977629 -1.9132 -0.000142336  -0.92829 -1.93686 3.76701e-05  -0.977432 -1.91308 -0.000179052  -1.05134 -2.062 5.29289e-05  -1.00196 -2.08586 0.000200748  -0.977533 -2.03631 0.000120878  -1.05119 -2.0619 5.84126e-05  -1.02677 -2.01237 0  -0.977421 -2.03618 0.000154018  -1.02663 -2.01227 -1.19209e-06  -1.1003 -2.16124 0.000114202  -1.05093 -2.18518 0.000231266  -1.02653 -2.13564 0.000179291  -1.1002 -2.16115 0.000146627  -1.0758 -2.11159 8.89301e-05  -1.02646 -2.13552 0.000223637  -1.07571 -2.11153 0.000112534  -1.1491 -2.26043 0.000145435  -1.09974 -2.28442 0.000237942  -1.07539 -2.23491 0.000188589  -1.14902 -2.26035 0.000187159  -1.12469 -2.21082 0.000131369  -1.07536 -2.23481 0.000236511  -1.12463 -2.21076 0.000169277  -1.19772 -2.35949 0.000149488  -1.14837 -2.38351 0.000208139  -1.12409 -2.33407 0.000179768  -1.19767 -2.35943 0.000190973  -1.17341 -2.30995 0.000146866  -1.12408 -2.33398 0.000226021  -1.17336 -2.30991 0.000189781  -1.24615 -2.45839 0.000119209  -1.1968 -2.4824 0.00016737  -1.17259 -2.43305 0.000148296  -1.24611 -2.45832 0.000146627  -1.22192 -2.40894 0.000139952  -1.1726 -2.43298 0.000188351  -1.2219 -2.4089 0.000174999  -1.29444 -2.55707 9.44138e-05  -1.24504 -2.58104 0.000131845  -1.22092 -2.53182 0.000104189  -1.29439 -2.55701 0.000128984  -1.27028 -2.50773 0.000105143  -1.22093 -2.53176 0.000132322  -1.27026 -2.50769 0.000144005  -0.00317734 -0.00652555 -0.00706816  0 0 0  -0.0011081 -0.00510156 -0.00579524  -0.000375446 -0.000899285 -0.00244832  0 0 0  -0.00320914 -0.00482145 -0.00909066  -0.000963971 -0.000868022 -0.00383949  0 0 0  -0.000352979 -0.000211865 -0.00316095  -0.000959527 -4.84288e-05 -0.00499773  -0.0113487 -0.0310338 -0.0117962  -0.00463852 -0.0287118 -0.00978446  -0.00264311 -0.0173863 -0.00637937  -0.0113065 -0.0279662 -0.0150003  -0.00666316 -0.017197 -0.00978661  -0.00250435 -0.0152644 -0.0080955  -0.00669387 -0.0148062 -0.0125201  -0.0237844 -0.0674993 -0.0138812  -0.0113152 -0.0653141 -0.0114727  -0.00804985 -0.0489469 -0.00872445  -0.023177 -0.0636248 -0.0172553  -0.0171228 -0.0480858 -0.013119  -0.00759935 -0.0457348 -0.0108905  -0.01687 -0.0445406 -0.0164804  -0.039376 -0.11291 -0.0138843  -0.0212848 -0.111702 -0.0114081  -0.0169234 -0.0911702 -0.00944805  -0.0380117 -0.108813 -0.0170367  -0.0312166 -0.0891618 -0.0140433  -0.0158748 -0.0874256 -0.0115986  -0.0302297 -0.0851491 -0.017338  -0.0578353 -0.165845 -0.012821  -0.0347728 -0.166105 -0.0104315  -0.0291733 -0.141807 -0.00904441  -0.0559105 -0.161932 -0.0156441  -0.0482228 -0.138454 -0.0134315  -0.0275739 -0.137983 -0.0109937  -0.046563 -0.134465 -0.016432  -0.0792906 -0.225262 -0.0113213  -0.0519261 -0.227283 -0.00908089  -0.0448702 -0.199504 -0.00808644  -0.0770332 -0.221737 -0.0138016  -0.0681667 -0.19475 -0.0120943  -0.0428832 -0.195912 -0.00978446  -0.0660664 -0.191063 -0.0147533  -0.103702 -0.290279 -0.00973463  -0.0726931 -0.294174 -0.00767279  -0.0640481 -0.263316 -0.00691152  -0.101311 -0.287176 -0.0118947  -0.0911055 -0.257081 -0.0105264  -0.0618633 -0.260063 -0.0083828  -0.088782 -0.2538 -0.0128493  -0.130956 -0.360133 -0.00825977  -0.0968717 -0.365938 -0.00636816  -0.0865977 -0.332358 -0.00576997  -0.12855 -0.357434 -0.0101187  -0.116956 -0.324588 -0.0089798  -0.0843685 -0.329485 -0.00700736  -0.114571 -0.321742 -0.0109897  -0.160849 -0.4342 -0.00695658  -0.124193 -0.441915 -0.00519204  -0.112342 -0.405928 -0.00472856  -0.15853 -0.431892 -0.00853586  -0.145549 -0.396612 -0.00758219  -0.110149 -0.403431 -0.00575995  -0.143208 -0.394163 -0.00930929  -0.193192 -0.511988 -0.00583005  -0.154385 -0.521525 -0.00419641  -0.141023 -0.483454 -0.00382948  -0.191012 -0.510005 -0.00718284  -0.176687 -0.47261 -0.00636625  -0.13894 -0.481293 -0.0046792  -0.174466 -0.470513 -0.00784111  -0.227803 -0.59306 -0.0048759  -0.187195 -0.604323 -0.00336218  -0.172412 -0.564426 -0.00306463  -0.225801 -0.591361 -0.00601554  -0.210193 -0.552096 -0.00533009  -0.170479 -0.562548 -0.00375938  -0.208127 -0.550298 -0.00657678  -0.264526 -0.677037 -0.0040617  -0.222394 -0.689913 -0.00265932  -0.206286 -0.648412 -0.00243664  -0.262699 -0.675573 -0.00503445  -0.245875 -0.634672 -0.00444913  -0.204506 -0.646789 -0.00299692  -0.243991 -0.633125 -0.00551343  -0.303156 -0.763567 -0.00336385  -0.259755 -0.777922 -0.00207663  -0.24242 -0.735042 -0.0019176  -0.301508 -0.762305 -0.00417924  -0.283587 -0.719966 -0.00369859  -0.240813 -0.733627 -0.00235629  -0.281872 -0.71864 -0.00458646  -0.343534 -0.852335 -0.00277114  -0.299045 -0.868039 -0.00157046  -0.280608 -0.823955 -0.0014782  -0.342056 -0.851243 -0.00344658  -0.323101 -0.80765 -0.00305581  -0.279165 -0.822726 -0.00182581  -0.32157 -0.806513 -0.00379777  -0.385478 -0.943046 -0.00225163  -0.340069 -0.959979 -0.00115085  -0.320634 -0.914856 -0.00109553  -0.384155 -0.942108 -0.00279927  -0.364283 -0.897423 -0.00249767  -0.319345 -0.91379 -0.00136137  -0.362914 -0.896442 -0.00311279  -0.428804 -1.03547 -0.00180697  -0.382631 -1.0535 -0.000811815  -0.362309 -1.00748 -0.000785828  -0.427637 -1.03466 -0.00224662  -0.406948 -0.989024 -0.0020175  -0.361164 -1.00656 -0.000974894  -0.405726 -0.988182 -0.0025115  -0.473342 -1.12934 -0.00140429  -0.426534 -1.14836 -0.000501156  -0.405428 -1.10157 -0.000526667  -0.472319 -1.12864 -0.00175548  -0.4509 -1.08221 -0.00159717  -0.404417 -1.10077 -0.000651836  -0.449827 -1.08148 -0.00199461  -0.518928 -1.22446 -0.00107861  -0.471589 -1.24435 -0.000247002  -0.449791 -1.19691 -0.000303984  -0.518029 -1.22387 -0.00133991  -0.495982 -1.17673 -0.00122976  -0.448921 -1.19622 -0.00037384  -0.49505 -1.17611 -0.00153732  -0.565403 -1.32064 -0.000779152  -0.517622 -1.34128 -5.10216e-05  -0.495242 -1.29331 -0.000119925  -0.564623 -1.32013 -0.000976086  -0.542037 -1.2724 -0.000921965  -0.494484 -1.2927 -0.000144958  -0.541221 -1.27187 -0.00115132  -0.612613 -1.41769 -0.000524521  -0.564476 -1.439 0.000128984  -0.541589 -1.39057 3.14713e-05  -0.61195 -1.41726 -0.000658274  -0.588897 -1.36904 -0.000650644  -0.54095 -1.39005 4.05312e-05  -0.588198 -1.36859 -0.000812292  -0.660408 -1.51546 -0.000315905  -0.611983 -1.53733 0.000253439  -0.588683 -1.48854 0.000155687  -0.65984 -1.5151 -0.000398874  -0.636411 -1.46647 -0.000414133  -0.588154 -1.48809 0.000196218  -0.635824 -1.46609 -0.000520229  -0.708663 -1.6138 -0.000136852  -0.660009 -1.63616 0.000362873  -0.636384 -1.58706 0.000249863  -0.708188 -1.6135 -0.000172615  -0.684455 -1.56454 -0.000220299  -0.635937 -1.58669 0.000316858  -0.683963 -1.56423 -0.000280857  -0.757259 -1.71259 -3.8147e-06  -0.708432 -1.73533 0.000448704  -0.684537 -1.68602 0.000325441  -0.756871 -1.71233 -4.76837e-06  -0.73289 -1.66312 -6.31809e-05  -0.684176 -1.68571 0.000400305  -0.73249 -1.66286 -8.53539e-05  -0.80607 -1.81168 0.000116348  -0.757114 -1.83475 0.000494957  -0.73302 -1.78528 0.000371695  -0.805764 -1.81146 0.000146389  -0.781612 -1.76208 6.00815e-05  -0.732738 -1.78501 0.000460625  -0.781286 -1.76185 7.12872e-05  -0.855023 -1.91099 0.000191689  -0.805961 -1.93432 0.000510216  -0.781735 -1.88475 0.000395775  -0.854781 -1.91081 0.000234604  -0.830509 -1.86129 0.000155926  -0.781518 -1.88452 0.000484467  -0.830255 -1.86111 0.00019002  -0.90402 -2.0104 0.000236988  -0.854883 -2.03393 0.000495195  -0.830577 -1.9843 0.00039959  -0.903831 -2.01025 0.000293255  -0.879493 -1.96066 0.0002141  -0.830414 -1.98412 0.000504971  -0.879299 -1.96052 0.000268221  -0.952983 -2.10985 0.000267744  -0.903803 -2.13352 0.000480652  -0.879452 -2.0839 0.000384092  -0.952843 -2.10972 0.000329256  -0.928473 -2.0601 0.000255108  -0.879345 -2.08373 0.000483513  -0.928337 -2.05998 0.000314713  -1.00187 -2.20923 0.000260115  -0.952646 -2.23302 0.000407934  -0.928288 -2.18342 0.000349998  -1.00175 -2.20912 0.000320911  -0.977397 -2.15952 0.000267267  -0.92823 -2.18328 0.000438929  -0.977311 -2.15942 0.000329494  -1.0506 -2.30851 0.00023365  -1.00138 -2.33236 0.000341177  -0.977049 -2.28283 0.000306845  -1.05054 -2.3084 0.000292063  -1.02622 -2.25886 0.000250578  -0.977027 -2.28271 0.000374079  -1.02617 -2.25878 0.000309944  -1.09918 -2.4076 0.000171185  -1.04994 -2.43151 0.000254869  -1.02567 -2.38207 0.000235796  -1.09913 -2.40752 0.000225782  -1.07489 -2.35805 0.000207663  -1.02567 -2.38196 0.000292063  -1.07485 -2.35798 0.000259876  -1.14758 -2.5065 0.000121117  -1.0983 -2.53041 0.0001688  -1.07411 -2.4811 0.00015831  -1.14753 -2.50642 0.000159502  -1.12337 -2.45705 0.000157595  -1.07414 -2.48099 0.000202179  -1.12335 -2.457 0.000193834  -1.19574 -2.6051 8.27312e-05  -1.14644 -2.629 8.98838e-05  -1.12237 -2.57985 9.46522e-05  -1.19573 -2.60504 9.58443e-05  -1.17165 -2.55582 0.000106335  -1.1224 -2.57975 0.000119209  -1.17164 -2.55577 0.000130415  0.000713229 -0.00752589 -0.00205302  0 0 0  0.00277619 -0.00791457 0.00071311  0.000765875 -0.00230736 0.000315189  0 0 0  0.000895441 -0.00618577 -0.00248766  0.000225328 -0.00139955 -0.00104666  0 0 0  0.000831403 -0.00180838 0.000543594  0.000272967 -0.000820965 -0.00128174  0.00105047 -0.0331644 -0.00376725  0.00749546 -0.033648 0.000347614  0.00461653 -0.0209362 0.00024581  0.00155768 -0.030661 -0.00462151  0.00106966 -0.0186875 -0.00300121  0.00514066 -0.0191818 0.000539303  0.00141434 -0.0167829 -0.0036943  -0.00115192 -0.0715059 -0.0047543  0.0104959 -0.0721624 -0.000292301  0.00844952 -0.0543968 -0.0002141  -0.00021413 -0.0681891 -0.00576138  0.00034219 -0.0510875 -0.00437975  0.00935596 -0.0516223 -5.53131e-05  0.00104228 -0.0481329 -0.00535679  -0.00683832 -0.119277 -0.00489664  0.00993973 -0.120503 -0.000481606  0.00946659 -0.098596 -0.000552654  -0.00542319 -0.115597 -0.00584698  -0.00352269 -0.0943172 -0.00490785  0.0107191 -0.0952333 -0.000458002  -0.00235298 -0.0907999 -0.00591063  -0.016354 -0.174779 -0.00446391  0.00509542 -0.177019 -0.000291109  0.00650924 -0.151364 -0.000542402  -0.0145504 -0.171126 -0.00528169  -0.0110902 -0.146077 -0.00472569  0.00808138 -0.147814 -0.000431776  -0.00948012 -0.142428 -0.00562024  -0.0298063 -0.236922 -0.00374031  -0.00423336 -0.240499 0.000141859  -0.000816762 -0.211393 -0.0002563  -0.0277739 -0.233512 -0.00441623  -0.0225592 -0.205023 -0.00411558  0.000998735 -0.20795 -9.17912e-05  -0.0206444 -0.20152 -0.00487471  -0.0471626 -0.304796 -0.00295568  -0.0179889 -0.309914 0.000640631  -0.0125126 -0.277715 0.000151157  -0.045023 -0.301717 -0.00348568  -0.0379826 -0.270154 -0.00334668  -0.0105649 -0.274516 0.000382662  -0.0359 -0.266938 -0.00395203  -0.0682373 -0.377606 -0.00222135  -0.035955 -0.384361 0.0010848  -0.0284309 -0.349435 0.000569344  -0.0660968 -0.374879 -0.00261903  -0.0572224 -0.340579 -0.0025723  -0.0264586 -0.34655 0.000863791  -0.0550925 -0.337719 -0.00304079  -0.0927722 -0.454662 -0.00157094  -0.0578134 -0.463109 0.0014677  -0.0483502 -0.425795 0.000933647  -0.0907038 -0.452279 -0.00185108  -0.0800586 -0.415591 -0.00188065  -0.0464103 -0.423235 0.00128722  -0.0779701 -0.413078 -0.0022223  -0.120489 -0.535396 -0.00103998  -0.0832561 -0.545482 0.00175714  -0.0719529 -0.506118 0.00122643  -0.118533 -0.53331 -0.00121593  -0.106216 -0.494551 -0.00129151  -0.0701044 -0.503867 0.00161242  -0.104228 -0.492365 -0.00151825  -0.151113 -0.61931 -0.000612497  -0.111942 -0.630997 0.00193691  -0.0989318 -0.589853 0.00143623  -0.149304 -0.617499 -0.00070262  -0.135422 -0.57694 -0.000808477  -0.0972091 -0.587872 0.00185657  -0.133564 -0.575034 -0.000946283  -0.184399 -0.705977 -0.00026226  -0.14357 -0.719166 0.0020802  -0.128996 -0.6765 0.00158024  -0.182734 -0.704405 -0.00028944  -0.167407 -0.662293 -0.000427246  -0.127397 -0.674765 0.0020175  -0.165697 -0.660629 -0.000489712  -0.220069 -0.795021 -3.57628e-06  -0.17783 -0.809596 0.00214529  -0.161834 -0.765628 0.00166845  -0.218571 -0.793652 2.74181e-05  -0.201919 -0.750186 -0.000123739  -0.160378 -0.764111 0.00211167  -0.200359 -0.748746 -0.000118017  -0.257905 -0.886108 0.000219345  -0.214464 -0.901979 0.00216484  -0.197173 -0.856885 0.00169873  -0.256553 -0.884915 0.000288486  -0.238701 -0.840295 0.000114918  -0.195861 -0.855557 0.0021503  -0.237299 -0.839039 0.000166416  -0.297663 -0.978952 0.000378132  -0.25319 -0.995983 0.00214624  -0.234738 -0.949952 0.00170732  -0.296454 -0.977904 0.000479937  -0.277521 -0.932295 0.000302315  -0.233571 -0.94879 0.00214577  -0.276272 -0.931202 0.000392199  -0.339125 -1.07328 0.000501871  -0.293786 -1.09138 0.00210166  -0.274295 -1.04454 0.00168872  -0.338045 -1.07237 0.000641346  -0.318159 -1.02591 0.000442266  -0.273263 -1.04351 0.00212383  -0.317047 -1.02496 0.000567436  -0.382068 -1.16887 0.000593901  -0.335988 -1.18791 0.00200868  -0.315598 -1.14041 0.00163603  -0.381118 -1.16808 0.000750303  -0.360387 -1.12089 0.000558615  -0.314692 -1.13951 0.00205803  -0.359402 -1.12008 0.000703096  -0.426303 -1.26551 0.000666142  -0.379604 -1.2854 0.00193334  -0.358417 -1.23733 0.00157905  -0.425475 -1.26483 0.000835657  -0.404 -1.21704 0.000636339  -0.357625 -1.23654 0.00197482  -0.403138 -1.21633 0.000795603  -0.471632 -1.36301 0.000711918  -0.424415 -1.38364 0.00183392  -0.40255 -1.3351 0.00150204  -0.47091 -1.36242 0.000891924  -0.448801 -1.31413 0.000689507  -0.401863 -1.33442 0.00187516  -0.448058 -1.31352 0.000864267  -0.517867 -1.46122 0.000730991  -0.470226 -1.48248 0.00171781  -0.447776 -1.43358 0.00141478  -0.517253 -1.46072 0.000916481  -0.494612 -1.412 0.000723839  -0.447202 -1.43299 0.00177193  -0.493973 -1.41149 0.000906229  -0.564859 -1.55997 0.000747681  -0.51687 -1.58179 0.00158906  -0.493928 -1.53259 0.00132966  -0.564346 -1.55954 0.000932455  -0.541248 -1.51051 0.000745773  -0.493451 -1.53208 0.0016644  -0.540713 -1.51007 0.00092721  -0.612454 -1.65914 0.000727654  -0.564182 -1.68142 0.00146294  -0.540839 -1.63201 0.00123167  -0.612031 -1.65877 0.000903368  -0.588557 -1.60949 0.000741959  -0.540446 -1.63157 0.00152802  -0.588117 -1.60911 0.000918627  -0.660505 -1.7586 0.000701904  -0.612006 -1.78128 0.00132203  -0.588351 -1.7317 0.00111389  -0.660157 -1.75829 0.000882149  -0.636406 -1.70881 0.000715017  -0.588032 -1.73133 0.00139403  -0.636044 -1.7085 0.000891685  -0.708888 -1.85825 0.000669956  -0.660201 -1.88125 0.00117946  -0.636298 -1.83158 0.00100279  -0.708606 -1.85799 0.000831127  -0.68463 -1.80839 0.000689268  -0.636059 -1.83125 0.00125432  -0.684345 -1.80812 0.000857592  -0.757499 -1.958 0.000611067  -0.708666 -1.98125 0.00104094  -0.684582 -1.93153 0.000893831  -0.757273 -1.95778 0.000760555  -0.733141 -1.9081 0.000648975  -0.684402 -1.93124 0.00111198  -0.732915 -1.90787 0.000806332  -0.806215 -2.05776 0.000543833  -0.757279 -2.0812 0.00088644  -0.733077 -2.03147 0.000771284  -0.806039 -2.05757 0.000685215  -0.781809 -2.00785 0.000586271  -0.732956 -2.03123 0.000962734  -0.781646 -2.00767 0.00073266  -0.854975 -2.15745 0.000482082  -0.805941 -2.18106 0.00075388  -0.781677 -2.13136 0.000655651  -0.854844 -2.15729 0.00060153  -0.830561 -2.10759 0.000524282  -0.781606 -2.13115 0.000818968  -0.830442 -2.10744 0.00065136  -0.903698 -2.25701 0.000415087  -0.854602 -2.28075 0.00060606  -0.830321 -2.23109 0.000541925  -0.903605 -2.25688 0.000510216  -0.879308 -2.20723 0.000453234  -0.830279 -2.23093 0.000674725  -0.879231 -2.2071 0.00056076  -0.952324 -2.35639 0.000309944  -0.903195 -2.38019 0.000445127  -0.87892 -2.33064 0.00041604  -0.952272 -2.35627 0.000394106  -0.927998 -2.3067 0.000370026  -0.878903 -2.33049 0.000513792  -0.927953 -2.3066 0.000457525  -1.00081 -2.45556 0.00022316  -0.951656 -2.4794 0.000291586  -0.927423 -2.42995 0.000302792  -1.00079 -2.45546 0.000281572  -0.976554 -2.40598 0.000267267  -0.927444 -2.42982 0.000370502  -0.976542 -2.4059 0.000336647  -1.04913 -2.55446 0.000131369  -0.999941 -2.57832 0.000161409  -0.975782 -2.52901 0.000175476  -1.04912 -2.55437 0.000163794  -1.02497 -2.50502 0.000183821  -0.975817 -2.5289 0.000221252  -1.02497 -2.50494 0.000221968  -1.09722 -2.65306 3.0756e-05  -1.04798 -2.67691 9.77516e-06  -1.02396 -2.62777 6.17504e-05  -1.0972 -2.65295 5.126e-05  -1.07318 -2.60378 8.15392e-05  -1.024 -2.62765 7.77245e-05  -1.07318 -2.6037 0.000106812  0.00433528 -0.0113907 0.002707  0 0 0  0.0067828 -0.0132669 0.00685525  0.00192734 -0.00531942 0.00290966  0 0 0  0.00473979 -0.0102707 0.00383925  0.00133401 -0.00359762 0.00163293  0 0 0  0.00204832 -0.00488073 0.00407267  0.00142677 -0.0031473 0.00233126  0.0125264 -0.0398669 0.00382304  0.0196283 -0.0426222 0.00976419  0.0119816 -0.0281569 0.00644207  0.013501 -0.037647 0.00516391  0.00823514 -0.0240947 0.00341415  0.0128899 -0.026558 0.00862193  0.00895934 -0.0224466 0.00466895  0.0198696 -0.0802453 0.00382376  0.0318817 -0.0832698 0.0101242  0.0247934 -0.0643183 0.00772619  0.0211379 -0.0772138 0.00503755  0.0165315 -0.0588204 0.00385046  0.0261246 -0.0617278 0.0100257  0.0176761 -0.0561739 0.00511551  0.0235811 -0.129818 0.00362062  0.0402387 -0.133211 0.00981069  0.0351913 -0.110315 0.00779104  0.0250795 -0.126389 0.0047555  0.0222811 -0.103946 0.00371289  0.0366505 -0.107143 0.00996661  0.02365 -0.100699 0.00487041  0.0227112 -0.187264 0.00355124  0.0436388 -0.191387 0.00942802  0.0410076 -0.164714 0.00754738  0.0244161 -0.183776 0.00465441  0.0237582 -0.157569 0.00357318  0.0425851 -0.161325 0.00961256  0.0253517 -0.154123 0.00468063  0.0170548 -0.25157 0.00358415  0.0418524 -0.256774 0.00910544  0.0417274 -0.226583 0.0072825  0.0188895 -0.248243 0.00466919  0.0205022 -0.218564 0.00356174  0.0433977 -0.223241 0.00926113  0.0222629 -0.215191 0.00464797  0.00668257 -0.321832 0.00367117  0.0349388 -0.328345 0.00877833  0.0373001 -0.294992 0.00704002  0.00857449 -0.318768 0.00473881  0.0124663 -0.285964 0.00362873  0.0390285 -0.291841 0.00893784  0.0143244 -0.282803 0.00470328  -0.00817728 -0.397183 0.00373793  0.023116 -0.405144 0.00845551  0.0278932 -0.369029 0.00680423  -0.00630021 -0.394428 0.00479245  -0.000175059 -0.358873 0.00370765  0.0296254 -0.366132 0.00861859  0.00169462 -0.355993 0.00476789  -0.0272365 -0.476875 0.00375652  0.00671935 -0.486343 0.00808764  0.0137728 -0.447831 0.00654936  -0.0254173 -0.474424 0.00478721  -0.0171788 -0.436491 0.00375652  0.0154721 -0.445233 0.00827789  -0.015343 -0.433921 0.0047946  -0.0501719 -0.560259 0.0037334  -0.0138911 -0.57123 0.00768304  -0.00469983 -0.530677 0.00625587  -0.0484358 -0.558091 0.00473428  -0.0382109 -0.518101 0.00374985  -0.00307679 -0.528361 0.00788951  -0.0364585 -0.51583 0.00476837  -0.07663 -0.646773 0.00365162  -0.0383539 -0.659204 0.00727987  -0.0271807 -0.616925 0.00594592  -0.0750198 -0.644869 0.00461841  -0.0629528 -0.60311 0.00369573  -0.0256574 -0.614857 0.0074811  -0.0612975 -0.601113 0.00467706  -0.106278 -0.735921 0.00352716  -0.0662779 -0.749752 0.00682855  -0.053297 -0.706012 0.00561357  -0.1048 -0.734243 0.00444555  -0.0910441 -0.691011 0.00359631  -0.0518979 -0.704172 0.00705171  -0.0895172 -0.689241 0.00454164  -0.138819 -0.827307 0.00339007  -0.0973239 -0.842451 0.00637722  -0.0827137 -0.797463 0.00525284  -0.137463 -0.825828 0.00426054  -0.122179 -0.781324 0.00346613  -0.0814238 -0.795846 0.00659657  -0.120783 -0.779775 0.00436282  -0.173922 -0.920577 0.00321317  -0.131156 -0.936921 0.00590587  -0.115072 -0.890909 0.00489736  -0.172706 -0.919281 0.00403738  -0.156038 -0.873698 0.00330067  -0.113903 -0.889478 0.00614524  -0.154772 -0.872336 0.00415468  -0.211329 -1.01541 0.00302434  -0.167466 -1.03286 0.00545669  -0.150054 -0.985973 0.00452256  -0.21023 -1.01427 0.00379395  -0.19232 -0.967778 0.00311899  -0.149012 -0.984719 0.00566649  -0.191192 -0.966591 0.0039165  -0.250754 -1.11155 0.00283647  -0.205961 -1.13 0.00500345  -0.187376 -1.0824 0.00417089  -0.249786 -1.11055 0.00355864  -0.230771 -1.0633 0.00293016  -0.186446 -1.08129 0.00522828  -0.229763 -1.06226 0.0036695  -0.29196 -1.20876 0.00262308  -0.24636 -1.22811 0.00454593  -0.226742 -1.17993 0.0038085  -0.291104 -1.20789 0.00328493  -0.271121 -1.16001 0.00272679  -0.225928 -1.17894 0.00477481  -0.27023 -1.1591 0.00341821  -0.334685 -1.30685 0.0024147  -0.288428 -1.32698 0.00413871  -0.267901 -1.27833 0.00345802  -0.333949 -1.30608 0.003021  -0.313116 -1.25768 0.00251698  -0.2672 -1.27746 0.00433111  -0.312347 -1.25689 0.00315762  -0.378759 -1.40561 0.00221634  -0.331918 -1.42645 0.00371385  -0.310604 -1.37741 0.00312877  -0.378106 -1.40496 0.00276542  -0.356539 -1.35613 0.00231481  -0.310003 -1.37665 0.00391698  -0.355871 -1.35544 0.00289917  -0.423914 -1.50492 0.00201416  -0.376606 -1.52635 0.00331974  -0.354625 -1.47701 0.00280595  -0.423367 -1.50433 0.00251532  -0.401169 -1.45518 0.00211477  -0.354114 -1.47635 0.00350547  -0.400605 -1.45458 0.00264835  -0.470003 -1.6046 0.00181198  -0.422298 -1.62656 0.00292683  -0.39975 -1.577 0.00249124  -0.469542 -1.6041 0.00226259  -0.446824 -1.55469 0.00191164  -0.399332 -1.57641 0.00312138  -0.446345 -1.55417 0.00238347  -0.516834 -1.70456 0.0016129  -0.4688 -1.72695 0.00256968  -0.445791 -1.67724 0.00219321  -0.516456 -1.70413 0.0020175  -0.493308 -1.65453 0.00171232  -0.445449 -1.67674 0.00274682  -0.492913 -1.65409 0.00214124  -0.564264 -1.80468 0.00141263  -0.515959 -1.82744 0.00221181  -0.492566 -1.77762 0.00191307  -0.563956 -1.80431 0.00176573  -0.540452 -1.75457 0.00151157  -0.492302 -1.77719 0.00238729  -0.540136 -1.7542 0.00189137  -0.612133 -1.90485 0.00122499  -0.563611 -1.92792 0.00187755  -0.53993 -1.87805 0.00163531  -0.611884 -1.90454 0.00153375  -0.588123 -1.85473 0.0013206  -0.53973 -1.87768 0.00204659  -0.58787 -1.85442 0.00164866  -0.660313 -2.00502 0.00105262  -0.611632 -2.02832 0.00157833  -0.587729 -1.97845 0.00137877  -0.660133 -2.00475 0.00131202  -0.636155 -1.95492 0.00113893  -0.587576 -1.97813 0.00172615  -0.63597 -1.95464 0.00142336  -0.708712 -2.10509 0.000873327  -0.659884 -2.12858 0.0013063  -0.635824 -2.07874 0.00114179  -0.708567 -2.10487 0.00109267  -0.684464 -2.05505 0.000962496  -0.635732 -2.07847 0.00143695  -0.684323 -2.05482 0.00120115  -0.757202 -2.20502 0.000710249  -0.708281 -2.22865 0.00103068  -0.684114 -2.17887 0.000931501  -0.757109 -2.20483 0.00088644  -0.732918 -2.15505 0.000792027  -0.684061 -2.17864 0.00117159  -0.732825 -2.15487 0.000991106  -0.805718 -2.30475 0.000557661  -0.756725 -2.32847 0.000790596  -0.732516 -2.27878 0.00072217  -0.805663 -2.30458 0.000692844  -0.781432 -2.25489 0.000630379  -0.732501 -2.27859 0.000905275  -0.781386 -2.25473 0.000792265  -0.854199 -2.40423 0.000405073  -0.805129 -2.42803 0.000556707  -0.780915 -2.37846 0.000535965  -0.854159 -2.40409 0.000503778  -0.82994 -2.3545 0.000477076  -0.780929 -2.37828 0.000673056  -0.829912 -2.35437 0.000595331  -0.902572 -2.50344 0.000257015  -0.85346 -2.52728 0.000343561  -0.829279 -2.47784 0.000365019  -0.902557 -2.50333 0.00032711  -0.878374 -2.45385 0.000326633  -0.829309 -2.47769 0.000453949  -0.878373 -2.45374 0.00041461  -0.95081 -2.60238 0.000123262  -0.901667 -2.62622 0.000151873  -0.877534 -2.57691 0.000201464  -0.950801 -2.60226 0.000153303  -0.926682 -2.55293 0.000196218  -0.877576 -2.57679 0.000254393  -0.926698 -2.55283 0.00024271  -0.998831 -2.70097 -5.24521e-06  -0.949649 -2.72482 -4.673e-05  -0.925632 -2.6757 3.71933e-05  -0.998818 -2.70084 -1.7643e-05  -0.974818 -2.65169 5.65052e-05  -0.925683 -2.67555 5.60284e-05  -0.974841 -2.65159 6.77109e-05  0.00847071 -0.0181556 0.00704885  0 0 0  0.0116752 -0.0217676 0.0122874  0.0033805 -0.0105453 0.00515914  0 0 0  0.00908604 -0.0170447 0.00966048  0.00258657 -0.00756842 0.00407338  0 0 0  0.00352526 -0.00995862 0.00714731  0.00272203 -0.00709647 0.005651  0.0249074 -0.0508429 0.0107534  0.0334451 -0.055812 0.018151  0.0208189 -0.0394639 0.0119314  0.0262845 -0.0486711 0.014097  0.0161764 -0.0332544 0.00927019  0.0220476 -0.0377266 0.015805  0.0172562 -0.0316182 0.0123217  0.0415426 -0.0932776 0.0117519  0.0548466 -0.0983374 0.0196261  0.0430164 -0.0785965 0.0149035  0.0430973 -0.0903434 0.0149982  0.0335979 -0.0709202 0.0114219  0.0446572 -0.0759602 0.0191443  0.0351146 -0.0683419 0.0147243  0.0540728 -0.144254 0.0116391  0.071513 -0.149512 0.01947  0.0622494 -0.125942 0.0155232  0.0556547 -0.140941 0.0147364  0.0484552 -0.117673 0.0117543  0.0638443 -0.122816 0.0196424  0.0499968 -0.11454 0.0149238  0.0613528 -0.203213 0.0112011  0.082652 -0.209089 0.0187306  0.0762351 -0.181598 0.0151896  0.0629825 -0.199831 0.0141628  0.0584084 -0.172729 0.0114412  0.0777989 -0.178301 0.0191314  0.0599993 -0.169398 0.0144579  0.0631541 -0.269328 0.0106859  0.0880191 -0.276157 0.0177822  0.0844896 -0.245005 0.0145233  0.0648247 -0.266074 0.0134919  0.0629575 -0.235381 0.0109503  0.0860604 -0.241746 0.0182676  0.0645947 -0.232097 0.0138288  0.0595426 -0.341669 0.0101581  0.0876724 -0.349675 0.0167613  0.0869951 -0.315264 0.0137317  0.0612229 -0.338633 0.0128124  0.0620328 -0.304727 0.0104237  0.0885555 -0.312173 0.0172722  0.0636986 -0.30162 0.0131559  0.050759 -0.419278 0.00960994  0.0818093 -0.428628 0.0156963  0.0838679 -0.39138 0.0129104  0.0524158 -0.416523 0.0121124  0.0558055 -0.37982 0.0098834  0.0854145 -0.388529 0.0162265  0.0574589 -0.376959 0.0124598  0.0371065 -0.501357 0.00904489  0.0707606 -0.512101 0.0146399  0.0754125 -0.472443 0.0120807  0.0387131 -0.498877 0.01138  0.0445417 -0.459772 0.00932693  0.0769153 -0.469845 0.0151732  0.0461577 -0.45718 0.0117443  0.0189722 -0.58716 0.00847626  0.0549089 -0.59929 0.0136051  0.0619805 -0.557619 0.0112376  0.0204962 -0.584937 0.0106573  0.0285974 -0.5438 0.00876451  0.0634161 -0.555267 0.0141172  0.0301504 -0.54148 0.0110235  -0.00327241 -0.676045 0.00791144  0.0346636 -0.689536 0.0125678  0.0439678 -0.646166 0.0104237  -0.00184178 -0.674071 0.00993633  0.00836933 -0.631218 0.00819874  0.0453086 -0.644059 0.0130796  0.00982642 -0.629147 0.010299  -0.0292337 -0.767497 0.00732565  0.0104425 -0.782287 0.0115709  0.0217781 -0.737504 0.00962043  -0.0279108 -0.765736 0.00920177  -0.0157821 -0.721444 0.00762177  0.0230299 -0.735626 0.0120561  -0.01443 -0.719606 0.00956798  -0.0585448 -0.861052 0.00676513  -0.017359 -0.877056 0.0105963  -0.00418258 -0.83111 0.00882912  -0.0573276 -0.859493 0.00848484  -0.043458 -0.813999 0.00704408  -0.00302875 -0.829436 0.0110686  -0.0422158 -0.812372 0.00884318  -0.0908344 -0.956325 0.00620484  -0.0483594 -0.973461 0.00964832  -0.0335255 -0.926559 0.0080595  -0.0897461 -0.954951 0.00778365  -0.0743048 -0.908469 0.00648475  -0.032478 -0.925066 0.0101085  -0.073181 -0.907025 0.0081346  -0.1258 -1.05302 0.00567055  -0.0822058 -1.07117 0.00875545  -0.0658813 -1.0235 0.00734305  -0.124829 -1.05179 0.00710773  -0.107982 -1.00448 0.00594068  -0.0649395 -1.02217 0.00919843  -0.106971 -1.00321 0.007442  -0.163121 -1.15083 0.00515294  -0.118561 -1.16992 0.00789833  -0.100917 -1.1216 0.0066452  -0.162252 -1.14976 0.00645304  -0.144162 -1.10177 0.00541067  -0.100077 -1.12042 0.00832415  -0.143255 -1.10064 0.00677896  -0.2025 -1.24955 0.00465107  -0.15711 -1.26946 0.00708532  -0.138304 -1.22064 0.00597906  -0.201733 -1.2486 0.00582552  -0.182544 -1.20006 0.00489902  -0.137576 -1.2196 0.00748324  -0.18175 -1.19908 0.0061357  -0.24366 -1.34896 0.00417113  -0.197574 -1.3696 0.0063045  -0.177747 -1.32039 0.00535059  -0.243 -1.34813 0.00522327  -0.222846 -1.29915 0.00440884  -0.177121 -1.31947 0.00668955  -0.222155 -1.29829 0.0055244  -0.28638 -1.4489 0.00371075  -0.239695 -1.47017 0.00559545  -0.218977 -1.42065 0.00474644  -0.285803 -1.44817 0.00464344  -0.264813 -1.39885 0.00394106  -0.218439 -1.41984 0.00594306  -0.264219 -1.39809 0.00493956  -0.330389 -1.5492 0.00328493  -0.283203 -1.57102 0.00491643  -0.261729 -1.52127 0.00418782  -0.329904 -1.54856 0.0041151  -0.308199 -1.49898 0.00349665  -0.261283 -1.52056 0.00524378  -0.307696 -1.49832 0.00438046  -0.375498 -1.64974 0.0028758  -0.327903 -1.67203 0.00424838  -0.305773 -1.62214 0.00365353  -0.37511 -1.64919 0.00359011  -0.352785 -1.59942 0.00307822  -0.305415 -1.62151 0.00457311  -0.352371 -1.59884 0.00385046  -0.42153 -1.7504 0.00249648  -0.373572 -1.77309 0.00365829  -0.350917 -1.72311 0.00316143  -0.421191 -1.74991 0.00312114  -0.398384 -1.70003 0.00268173  -0.350623 -1.72256 0.00395679  -0.398043 -1.69954 0.00335145  -0.468272 -1.8511 0.00212622  -0.420029 -1.87412 0.00310063  -0.396933 -1.82408 0.00270057  -0.468002 -1.85068 0.00266457  -0.444784 -1.80072 0.00230765  -0.396708 -1.82361 0.00338197  -0.444519 -1.8003 0.00288749  -0.515574 -1.95175 0.00178981  -0.467106 -1.97502 0.00258803  -0.443655 -1.92499 0.0022707  -0.515373 -1.95139 0.00224209  -0.49183 -1.90141 0.00195575  -0.443497 -1.92458 0.00284672  -0.491622 -1.90104 0.00244761  -0.563322 -2.05228 0.00148034  -0.514653 -2.07575 0.00213003  -0.490938 -2.02576 0.00187993  -0.563154 -2.05197 0.00184941  -0.539367 -2.00201 0.00163269  -0.490822 -2.02541 0.00234771  -0.539212 -2.00169 0.00204206  -0.61133 -2.15261 0.00120902  -0.562541 -2.17625 0.00169015  -0.538626 -2.12632 0.00152802  -0.611228 -2.15235 0.00150967  -0.587261 -2.10244 0.00133681  -0.538555 -2.12602 0.00190496  -0.587154 -2.10218 0.00167155  -0.659532 -2.25273 0.000938654  -0.610633 -2.27647 0.0013063  -0.586586 -2.22665 0.00119972  -0.659467 -2.25252 0.00117397  -0.635387 -2.20268 0.00106311  -0.58656 -2.22639 0.0014956  -0.635326 -2.20246 0.00133061  -0.707833 -2.35258 0.000698566  -0.65885 -2.3764 0.000957727  -0.634714 -2.3267 0.000906706  -0.7078 -2.3524 0.000870705  -0.68365 -2.30267 0.000819445  -0.634725 -2.32647 0.00112748  -0.683625 -2.30249 0.00101781  -0.756138 -2.45214 0.000483036  -0.70708 -2.47599 0.000662565  -0.682929 -2.42642 0.000644207  -0.756114 -2.45198 0.000612259  -0.731957 -2.40237 0.000591516  -0.682961 -2.42623 0.000804901  -0.731959 -2.40223 0.000738144  -0.804392 -2.55139 0.00029397  -0.755279 -2.57525 0.000400782  -0.731126 -2.52583 0.000423193  -0.804377 -2.55124 0.000371456  -0.780239 -2.50177 0.000392199  -0.731181 -2.52566 0.000523567  -0.780253 -2.50165 0.00049448  -0.852527 -2.65031 0.000124216  -0.803387 -2.67417 0.00016284  -0.779288 -2.62489 0.000228405  -0.852537 -2.65018 0.000152111  -0.828441 -2.60086 0.000211716  -0.779341 -2.62475 0.000280142  -0.828468 -2.60075 0.000264168  -0.900515 -2.74892 -5.17368e-05  -0.851361 -2.7728 -7.05719e-05  -0.827333 -2.72366 3.60012e-05  -0.900514 -2.74879 -7.27177e-05  -0.876518 -2.69963 4.00543e-05  -0.827398 -2.72352 4.05312e-05  -0.876551 -2.69951 4.43459e-05  0.014164 -0.0293488 0.0107744  0 0 0  0.0186436 -0.0358594 0.0166838  0.00532308 -0.0196863 0.00698185  0 0 0  0.0149383 -0.0278918 0.0146077  0.0042448 -0.014475 0.00608873  0 0 0  0.00551555 -0.0186775 0.00958228  0.00441125 -0.0137117 0.00838852  0.0401017 -0.0666435 0.0168476  0.0510869 -0.073643 0.0254447  0.0333776 -0.0563076 0.0166819  0.0417528 -0.0641803 0.0219264  0.0266205 -0.0471075 0.0143757  0.0347923 -0.0540519 0.0219576  0.0279748 -0.0451626 0.018966  0.0656802 -0.110254 0.0189607  0.080852 -0.116851 0.0283098  0.0648999 -0.0970594 0.0213447  0.0674106 -0.107222 0.0240793  0.0534378 -0.0873525 0.0182152  0.0666734 -0.0941436 0.0273037  0.0551837 -0.0846126 0.023345  0.0863216 -0.162172 0.0191095  0.10512 -0.169004 0.0285187  0.0920154 -0.144958 0.0226634  0.0879502 -0.158883 0.0240781  0.0767139 -0.135065 0.0191734  0.0936838 -0.141759 0.0286102  0.078372 -0.131917 0.0242271  0.101176 -0.222413 0.0184708  0.123499 -0.229907 0.0275755  0.11351 -0.201646 0.0223751  0.102762 -0.219117 0.0232191  0.0945179 -0.191233 0.018852  0.115079 -0.198391 0.0281298  0.0960981 -0.187974 0.0237105  0.110006 -0.290188 0.0175097  0.135665 -0.298639 0.0261314  0.128864 -0.266529 0.0214016  0.111576 -0.28701 0.0220079  0.106369 -0.255375 0.0180151  0.130376 -0.263345 0.0268755  0.107928 -0.252162 0.0226395  0.112853 -0.364456 0.016453  0.141592 -0.37408 0.0244787  0.137943 -0.338586 0.0201643  0.114396 -0.361477 0.0206659  0.112196 -0.326515 0.0169947  0.139411 -0.33558 0.0253081  0.113732 -0.323483 0.0213463  0.109926 -0.444212 0.0153463  0.141446 -0.455115 0.0227768  0.140827 -0.416735 0.018822  0.111425 -0.44148 0.0192726  0.112124 -0.403658 0.015902  0.142266 -0.413955 0.0236201  0.113623 -0.400845 0.0199742  0.101535 -0.528505 0.0142505  0.135546 -0.540739 0.0210588  0.137812 -0.499952 0.0174627  0.102983 -0.526038 0.0178869  0.106419 -0.485798 0.0147967  0.139195 -0.497403 0.0219049  0.107875 -0.483237 0.018575  0.0880759 -0.616558 0.0131667  0.124303 -0.63011 0.0193899  0.129244 -0.587307 0.0161173  0.0894545 -0.614324 0.0165241  0.095443 -0.572067 0.0137041  0.130571 -0.584994 0.0202096  0.0968342 -0.569748 0.0171969  0.0699737 -0.70765 0.0121148  0.108137 -0.722481 0.0177748  0.115563 -0.678027 0.0148134  0.0712711 -0.70565 0.0151858  0.0796164 -0.661721 0.0126386  0.116816 -0.675948 0.0185766  0.0809249 -0.659637 0.0158522  0.0476707 -0.801215 0.0110977  0.0875226 -0.817256 0.0162175  0.0972064 -0.771458 0.0135574  0.048871 -0.79943 0.0139127  0.0593525 -0.754115 0.0115957  0.0983677 -0.769592 0.0169895  0.0605783 -0.752258 0.0145469  0.0215774 -0.896767 0.0101159  0.0628992 -0.91393 0.0147345  0.0746156 -0.867048 0.0123453  0.02267 -0.89517 0.0126741  0.0350988 -0.848741 0.0106015  0.0756928 -0.865377 0.0154715  0.0362273 -0.847072 0.0132866  -0.00793493 -0.993892 0.00918055  0.0346823 -1.0121 0.0133417  0.0482442 -0.964336 0.0111995  -0.0069288 -0.992483 0.0115013  0.00725472 -0.945119 0.00964522  0.0492189 -0.962847 0.0140362  0.00827813 -0.943648 0.0120752  -0.0404427 -1.09228 0.00829935  0.00327122 -1.11141 0.0120034  0.0184783 -1.06297 0.0101142  -0.0395446 -1.09101 0.0103967  -0.0238036 -1.04292 0.00873613  0.0193557 -1.06162 0.0126622  -0.0228758 -1.04161 0.0109472  -0.0756369 -1.19163 0.0074532  -0.0309631 -1.21161 0.0107644  -0.0142843 -1.1626 0.00908446  -0.0748336 -1.19051 0.0093348  -0.0576861 -1.14181 0.00787592  -0.0135101 -1.16142 0.0113757  -0.0568708 -1.14065 0.00985932  -0.113156 -1.29169 0.00666499  -0.0676692 -1.31244 0.00958467  -0.0497031 -1.263 0.00812006  -0.112457 -1.29071 0.00834417  -0.0940917 -1.24156 0.00705171  -0.0490184 -1.26196 0.0101638  -0.0933686 -1.24053 0.00883126  -0.152727 -1.39231 0.0059104  -0.106538 -1.41368 0.00846863  -0.0874345 -1.36395 0.00721025  -0.152119 -1.39143 0.00740147  -0.132676 -1.34192 0.00628114  -0.0868454 -1.36301 0.00902224  -0.132045 -1.34102 0.00786686  -0.194055 -1.49326 0.00521088  -0.147277 -1.51521 0.00743794  -0.127184 -1.46525 0.00635004  -0.193541 -1.49249 0.00652504  -0.173156 -1.44273 0.00555491  -0.126691 -1.46441 0.00794792  -0.172621 -1.44192 0.00695419  -0.236904 -1.59445 0.00455999  -0.189625 -1.61687 0.00647831  -0.168671 -1.56676 0.00555491  -0.236467 -1.59377 0.00569892  -0.215271 -1.54381 0.00487161  -0.168257 -1.56603 0.00694871  -0.214826 -1.54311 0.00610137  -0.281024 -1.69573 0.00392985  -0.233314 -1.71855 0.00557065  -0.211644 -1.66837 0.00481415  -0.280662 -1.69513 0.00491738  -0.258785 -1.64506 0.00423789  -0.211309 -1.66772 0.00601506  -0.258416 -1.64445 0.00530434  -0.326202 -1.797 0.00336766  -0.278157 -1.82016 0.00475764  -0.255874 -1.76992 0.00410986  -0.325914 -1.79648 0.00420928  -0.303464 -1.74635 0.00364137  -0.255601 -1.76937 0.00514841  -0.303171 -1.74581 0.00456405  -0.372247 -1.89817 0.00283885  -0.323915 -1.9216 0.00398326  -0.301124 -1.87139 0.00348735  -0.372018 -1.89773 0.00354815  -0.3491 -1.84758 0.00309801  -0.300928 -1.87089 0.00434852  -0.348866 -1.84712 0.00387144  -0.418976 -1.99919 0.00234413  -0.370414 -2.02281 0.00326562  -0.347214 -1.97266 0.00289822  -0.418806 -1.9988 0.00294018  -0.395503 -1.94868 0.00258493  -0.347067 -1.97223 0.00361872  -0.395334 -1.94829 0.00323248  -0.466252 -2.09999 0.00191069  -0.417506 -2.12376 0.00264573  -0.393972 -2.07368 0.00236297  -0.466121 -2.09966 0.00238395  -0.442518 -2.0496 0.00212812  -0.393894 -2.07332 0.00295496  -0.442403 -2.04926 0.00265455  -0.513905 -2.20052 0.00150251  -0.465019 -2.22438 0.0020678  -0.441255 -2.17443 0.00188088  -0.513821 -2.20024 0.00188065  -0.490001 -2.15026 0.00169969  -0.441214 -2.17411 0.00234532  -0.489927 -2.14998 0.00212121  -0.561819 -2.30075 0.00115156  -0.512839 -2.32468 0.00157523  -0.488901 -2.27484 0.00145268  -0.561771 -2.30052 0.00144696  -0.53781 -2.25065 0.00132155  -0.488892 -2.27457 0.00181484  -0.537765 -2.25041 0.00165701  -0.60989 -2.40065 0.000838518  -0.56083 -2.4246 0.00113463  -0.536795 -2.37491 0.00107121  -0.609876 -2.40045 0.00104785  -0.585815 -2.35072 0.000991583  -0.536813 -2.37468 0.0013454  -0.585806 -2.35053 0.00123477  -0.65803 -2.50021 0.00058198  -0.608921 -2.52417 0.000768423  -0.584811 -2.47463 0.000758648  -0.658026 -2.50004 0.000720978  -0.633931 -2.45045 0.000708818  -0.584868 -2.47442 0.000947714  -0.633942 -2.45029 0.000882149  -0.706148 -2.59943 0.000344038  -0.657006 -2.62337 0.00044179  -0.6329 -2.57398 0.000486374  -0.706163 -2.59928 0.000430584  -0.682068 -2.54984 0.000459194  -0.632958 -2.57381 0.000600576  -0.682094 -2.5497 0.000572205  -0.75422 -2.69833 0.000135183  -0.705052 -2.72224 0.000169039  -0.680957 -2.67299 0.000240564  -0.754238 -2.69819 0.000159264  -0.730154 -2.6489 0.000241041  -0.681034 -2.67284 0.0003016  -0.730211 -2.64877 0.000294924  -0.802189 -2.79696 -6.07967e-05  -0.753045 -2.82087 -9.03606e-05  -0.728973 -2.77173 4.17233e-05  -0.80222 -2.79682 -8.34465e-05  -0.778188 -2.74765 3.71933e-05  -0.729054 -2.77157 3.67165e-05  -0.778242 -2.74753 3.74317e-05  0.0234659 -0.0488672 0.0140274  0 0 0  0.0320243 -0.0601015 0.0209029  0.0102744 -0.037024 0.00894475  0 0 0  0.024204 -0.0466281 0.0188458  0.00684185 -0.0267055 0.0076921  0 0 0  0.0103716 -0.0352425 0.0122006  0.0069905 -0.025378 0.0104892  0.0601995 -0.0869687 0.0223734  0.0741303 -0.0944798 0.0325787  0.0534083 -0.0793793 0.0213232  0.0618822 -0.0839253 0.0290005  0.0424703 -0.0672888 0.0189672  0.0545599 -0.0761285 0.0280242  0.0438109 -0.0645849 0.024946  0.0932711 -0.130403 0.0255876  0.11024 -0.13809 0.0365632  0.0907871 -0.118328 0.0274849  0.095066 -0.127146 0.0324841  0.0772381 -0.107444 0.024441  0.0925354 -0.115014 0.0351787  0.079026 -0.104339 0.0312707  0.121353 -0.183094 0.026062  0.141825 -0.19121 0.0370171  0.125079 -0.166703 0.0293224  0.123031 -0.179787 0.032846  0.108081 -0.155511 0.0260501  0.126804 -0.163368 0.03708  0.109788 -0.152259 0.0329139  0.14334 -0.244645 0.0252821  0.167189 -0.253646 0.0358324  0.153675 -0.224522 0.0290291  0.144932 -0.241407 0.031785  0.133172 -0.212735 0.0257795  0.155332 -0.221272 0.036546  0.134782 -0.209497 0.0324285  0.158866 -0.314111 0.0239794  0.185927 -0.324222 0.0339618  0.175851 -0.291044 0.0278077  0.160403 -0.311036 0.0301144  0.151954 -0.278398 0.0246747  0.177445 -0.287955 0.0349462  0.153499 -0.275267 0.0309949  0.167866 -0.390349 0.0224581  0.197865 -0.401701 0.0317612  0.191231 -0.365026 0.02618  0.169367 -0.387474 0.0281866  0.164209 -0.351396 0.0232418  0.192755 -0.362154 0.0328782  0.165702 -0.348463 0.0291727  0.170523 -0.472201 0.0208631  0.203185 -0.484858 0.0294592  0.199886 -0.445278 0.0244009  0.17198 -0.469557 0.0261743  0.17001 -0.430579 0.0216615  0.20136 -0.442617 0.0306201  0.17146 -0.427862 0.0271816  0.167162 -0.558639 0.0192723  0.202193 -0.572618 0.0271802  0.202041 -0.53062 0.0225754  0.168569 -0.55625 0.024174  0.169602 -0.514853 0.0200686  0.203469 -0.528205 0.0283213  0.171013 -0.512379 0.0251698  0.158213 -0.648828 0.0177143  0.195321 -0.664072 0.0249412  0.198123 -0.620114 0.0207856  0.159541 -0.646674 0.0222125  0.163388 -0.60328 0.0184915  0.199475 -0.617923 0.0260537  0.164742 -0.601035 0.0231872  0.144094 -0.741992 0.0162165  0.183055 -0.758454 0.0227852  0.188564 -0.712899 0.0190291  0.145352 -0.740058 0.0203266  0.1518 -0.69503 0.0169544  0.189851 -0.710923 0.0238502  0.153081 -0.693022 0.0212522  0.125319 -0.837519 0.0147684  0.165867 -0.855111 0.0207286  0.173861 -0.808274 0.0173607  0.126477 -0.835787 0.0185075  0.135294 -0.789459 0.0154865  0.17505 -0.806524 0.0217481  0.136477 -0.787656 0.0194011  0.102315 -0.934915 0.0133979  0.144271 -0.953524 0.0187726  0.154508 -0.905691 0.0157764  0.103391 -0.933358 0.0167799  0.114348 -0.885982 0.0140769  0.155594 -0.904121 0.019747  0.115439 -0.884367 0.0176349  0.0755556 -1.03373 0.0121002  0.118724 -1.05328 0.016933  0.130956 -1.00466 0.014251  0.076526 -1.03234 0.015152  0.0894114 -0.984132 0.0127392  0.13197 -1.00325 0.0178428  0.0904109 -0.982687 0.0159538  0.0454141 -1.13364 0.010886  0.0896405 -1.15403 0.0151942  0.103698 -1.10481 0.012825  0.0463023 -1.13239 0.0136213  0.0609126 -1.08354 0.0114841  0.104601 -1.10355 0.0160429  0.0618162 -1.08225 0.0143719  0.01232 -1.23434 0.00972366  0.0574427 -1.25549 0.0135508  0.0731063 -1.20579 0.0114839  0.0130959 -1.23324 0.0121717  0.0292519 -1.18387 0.0102952  0.07391 -1.20468 0.0143638  0.0300438 -1.18273 0.0128865  -0.0233889 -1.33561 0.00864697  0.0225182 -1.35741 0.0120342  0.0395911 -1.30739 0.0102069  -0.0227051 -1.33464 0.0108137  -0.00519609 -1.28489 0.00917387  0.0402987 -1.3064 0.0127633  -0.00449872 -1.28389 0.0114806  -0.0613937 -1.43725 0.00762749  -0.0148118 -1.45962 0.0106006  0.00351977 -1.40935 0.00904274  -0.0607984 -1.43639 0.00954723  -0.0420961 -1.38637 0.0081358  0.0041275 -1.40849 0.0112996  -0.041486 -1.38548 0.0101731  -0.101367 -1.53909 0.00667906  -0.0542176 -1.56194 0.00926352  -0.0347879 -1.51153 0.00793695  -0.100858 -1.53834 0.00835443  -0.0811203 -1.48812 0.00714898  -0.0342712 -1.51076 0.00991917  -0.0805957 -1.48735 0.00894403  -0.143056 -1.64101 0.00580049  -0.0954137 -1.66425 0.0080297  -0.0750453 -1.61377 0.00690532  -0.142625 -1.64035 0.00725293  -0.12198 -1.59003 0.00623322  -0.0746098 -1.6131 0.00862527  -0.121543 -1.58934 0.00779128  -0.186187 -1.74289 0.00498629  -0.138159 -1.76642 0.00687718  -0.116967 -1.71596 0.00594354  -0.185837 -1.7423 0.00623155  -0.16443 -1.69194 0.00538564  -0.116617 -1.71536 0.00742936  -0.164069 -1.69134 0.00673413  -0.230543 -1.84462 0.0042274  -0.182188 -1.86842 0.00580955  -0.160294 -1.81798 0.00507522  -0.230264 -1.84412 0.00527668  -0.208194 -1.79375 0.00460148  -0.160033 -1.81746 0.00632548  -0.20791 -1.79323 0.00574398  -0.275903 -1.94614 0.00352073  -0.227272 -1.97014 0.00482297  -0.204816 -1.91976 0.00423789  -0.275682 -1.94571 0.00440431  -0.253087 -1.89539 0.00386095  -0.204607 -1.91932 0.00529695  -0.252861 -1.89495 0.00482965  -0.322074 -2.0474 0.00289297  -0.273236 -2.07152 0.0039525  -0.250305 -2.02124 0.00351357  -0.321912 -2.04703 0.0036149  -0.29886 -1.99679 0.00320864  -0.250148 -2.02087 0.00438166  -0.298699 -1.9964 0.00400567  -0.368889 -2.14834 0.00232339  -0.3199 -2.17252 0.00317192  -0.296597 -2.12238 0.00284052  -0.368782 -2.14803 0.00289941  -0.345384 -2.09789 0.00260282  -0.296491 -2.12207 0.00354242  -0.345269 -2.09757 0.00324893  -0.416201 -2.24894 0.0018115  -0.367097 -2.27314 0.00243592  -0.343491 -2.22318 0.00223112  -0.416127 -2.24867 0.00226045  -0.392473 -2.19867 0.00205469  -0.343442 -2.22288 0.00278759  -0.392407 -2.19839 0.00256348  -0.46386 -2.34917 0.00137138  -0.414675 -2.37337 0.00182748  -0.390856 -2.32355 0.00171113  -0.463818 -2.34894 0.00170708  -0.439965 -2.29908 0.00158453  -0.390849 -2.3233 0.00211859  -0.439936 -2.29886 0.00197768  -0.511738 -2.44902 0.000980377  -0.462519 -2.47318 0.00128269  -0.438549 -2.42351 0.00125742  -0.511726 -2.44883 0.00122643  -0.487753 -2.39912 0.00116444  -0.43856 -2.42332 0.00155354  -0.48775 -2.39893 0.00145245  -0.559743 -2.5485 0.000657558  -0.510522 -2.57258 0.000860691  -0.48645 -2.5231 0.000858545  -0.559767 -2.54834 0.000810623  -0.535706 -2.49879 0.000810862  -0.486504 -2.52292 0.00106478  -0.535733 -2.49863 0.00100708  -0.60779 -2.64762 0.000382662  -0.558556 -2.67163 0.000482559  -0.534455 -2.62231 0.000546217  -0.607818 -2.64747 0.000477076  -0.583742 -2.59808 0.000520229  -0.534542 -2.62215 0.000660181  -0.583792 -2.59795 0.000640154  -0.655823 -2.74645 0.000163317  -0.606599 -2.77039 0.000206232  -0.5825 -2.72119 0.00028348  -0.655848 -2.7463 0.00019002  -0.631772 -2.69705 0.00026679  -0.582577 -2.72103 0.000342369  -0.631832 -2.69691 0.000332355  -0.703834 -2.84506 -5.72205e-05  -0.654629 -2.86898 -7.41482e-05  -0.630527 -2.81984 6.10352e-05  -0.703858 -2.84491 -7.58171e-05  -0.679791 -2.79574 4.72069e-05  -0.6306 -2.81969 6.69956e-05  -0.67985 -2.79562 5.34058e-05  -0.0333934 -0.0410952 -0.0162392  -0.0135048 -0.023678 -0.00601339  0 0 0  -0.0201525 -0.0275825 -0.00889778  0 0 0  -0.0123514 -0.0165516 -0.0112593  -0.0039666 -0.00708468 -0.00414753  0 0 0  -0.0130911 -0.0227095 -0.00916243  -0.0199242 -0.0261617 -0.0135765  -0.00608667 -0.0125704 -0.00485063  0 0 0  -0.00394441 -0.00658802 -0.00632215  -0.0060211 -0.0119494 -0.00738215  -0.0716891 -0.060121 -0.0251484  -0.0535544 -0.0514818 -0.0139842  -0.0536181 -0.0538479 -0.0142319  -0.0384454 -0.0436016 -0.0182195  -0.0244786 -0.0311068 -0.0100229  -0.0526575 -0.0491401 -0.02139  -0.0531779 -0.0512246 -0.0216672  -0.0366419 -0.0399178 -0.011987  -0.0244107 -0.029342 -0.015276  -0.0362888 -0.0378628 -0.0182867  -0.110838 -0.0868824 -0.0290418  -0.0917552 -0.0757469 -0.0181954  -0.0883498 -0.0836338 -0.016588  -0.0682889 -0.0756646 -0.0211866  -0.0534336 -0.0612432 -0.0132692  -0.0909357 -0.0725785 -0.0276673  -0.0878378 -0.0805084 -0.0250654  -0.0707414 -0.0678164 -0.0157254  -0.0532035 -0.0586668 -0.0201044  -0.0702779 -0.0649181 -0.0238564  -0.151021 -0.120479 -0.0290711  -0.131589 -0.106073 -0.0194995  -0.124323 -0.120499 -0.0167556  -0.0993492 -0.115368 -0.0213022  -0.0841093 -0.0974037 -0.014281  -0.130888 -0.102684 -0.0294023  -0.123643 -0.117384 -0.0251386  -0.106215 -0.101108 -0.0168717  -0.0836652 -0.0945792 -0.0214803  -0.105659 -0.0979871 -0.0254004  -0.19127 -0.161607 -0.0270009  -0.171935 -0.143362 -0.0188243  -0.160971 -0.164445 -0.0156591  -0.1316 -0.162291 -0.0198135  -0.116071 -0.140705 -0.0138421  -0.171172 -0.14017 -0.028203  -0.160063 -0.161626 -0.0233631  -0.142569 -0.141589 -0.0163078  -0.115331 -0.137983 -0.0206823  -0.141791 -0.138651 -0.0243857  -0.231409 -0.209556 -0.0241129  -0.21229 -0.187604 -0.0171645  -0.198134 -0.214881 -0.0140254  -0.165042 -0.215628 -0.0177081  -0.149175 -0.190656 -0.0126288  -0.21137 -0.184809 -0.0256026  -0.197029 -0.21245 -0.0208719  -0.179481 -0.188874 -0.0148754  -0.148175 -0.188213 -0.0188  -0.178485 -0.186281 -0.0221574  -0.271578 -0.263607 -0.0211251  -0.252543 -0.238262 -0.0151815  -0.235812 -0.271122 -0.0122685  -0.199672 -0.274579 -0.0154524  -0.183385 -0.246545 -0.0111446  -0.251498 -0.235895 -0.0226099  -0.234588 -0.269068 -0.018245  -0.216887 -0.242292 -0.0131385  -0.182207 -0.244439 -0.0165699  -0.215732 -0.240085 -0.0195506  -0.312041 -0.323115 -0.0183589  -0.292904 -0.294726 -0.0132298  -0.274148 -0.332596 -0.0106406  -0.235517 -0.338527 -0.0133827  -0.218691 -0.307739 -0.00967741  -0.291774 -0.292747 -0.0197077  -0.272884 -0.330875 -0.0158358  -0.254874 -0.301214 -0.0114324  -0.217435 -0.305961 -0.0143874  -0.253638 -0.299365 -0.0170097  -0.353013 -0.387499 -0.015924  -0.333608 -0.356406 -0.0114806  -0.313302 -0.398777 -0.00918603  -0.272633 -0.406963 -0.0115244  -0.255177 -0.373713 -0.00834274  -0.332468 -0.354763 -0.017097  -0.312052 -0.397325 -0.0136859  -0.293595 -0.365106 -0.0098958  -0.253913 -0.372212 -0.0124252  -0.292357 -0.363554 -0.0147262  -0.39472 -0.456288 -0.0138025  -0.374894 -0.422789 -0.00993848  -0.353417 -0.46921 -0.00794148  -0.311059 -0.479458 -0.00994658  -0.292896 -0.444002 -0.00718307  -0.373793 -0.421399 -0.0148051  -0.35221 -0.467988 -0.0118408  -0.333211 -0.433457 -0.00854588  -0.291683 -0.442733 -0.0107031  -0.332009 -0.432168 -0.0127347  -0.437267 -0.529037 -0.0119741  -0.416944 -0.493387 -0.00862503  -0.394562 -0.543472 -0.00687242  -0.35081 -0.555581 -0.00857472  -0.331911 -0.518163 -0.00619268  -0.415903 -0.49221 -0.0128574  -0.393445 -0.542448 -0.0102572  -0.373832 -0.505859 -0.0073905  -0.330764 -0.517088 -0.00924206  -0.372695 -0.504777 -0.0110228  -0.480696 -0.605343 -0.010402  -0.459842 -0.567759 -0.00747991  -0.436787 -0.621184 -0.00595689  -0.391886 -0.634986 -0.00738597  -0.372232 -0.595806 -0.005337  -0.458875 -0.566777 -0.0111704  -0.435764 -0.620315 -0.00888157  -0.415519 -0.581893 -0.00639701  -0.371179 -0.594895 -0.00796461  -0.41447 -0.580976 -0.00954556  -0.525007 -0.684855 -0.00901937  -0.503622 -0.645575 -0.00649953  -0.480071 -0.701976 -0.00513625  -0.434198 -0.71731 -0.00637031  -0.413834 -0.676584 -0.00459695  -0.50275 -0.644725 -0.00968766  -0.479141 -0.701235 -0.00768137  -0.458274 -0.661189 -0.00553727  -0.412885 -0.675794 -0.00687265  -0.457318 -0.660413 -0.0082674  -0.570186 -0.767255 -0.00779438  -0.548288 -0.726437 -0.0056076  -0.524384 -0.785558 -0.00442219  -0.477703 -0.802251 -0.00546288  -0.456666 -0.760145 -0.0039475  -0.547504 -0.725725 -0.00838542  -0.523539 -0.784911 -0.00661564  -0.502073 -0.743411 -0.00477338  -0.455801 -0.759474 -0.00591516  -0.501223 -0.74275 -0.00713706  -0.616192 -0.852259 -0.00671268  -0.593807 -0.810088 -0.00483894  -0.569633 -0.871599 -0.00378776  -0.522288 -0.88952 -0.00465417  -0.500621 -0.846189 -0.00337863  -0.593098 -0.809462 -0.00722671  -0.568883 -0.871044 -0.00567484  -0.54686 -0.828258 -0.00410056  -0.499863 -0.845606 -0.00505495  -0.546098 -0.827688 -0.00613475  -0.662926 -0.939554 -0.00573397  -0.640091 -0.896175 -0.00415277  -0.615725 -0.959828 -0.00323296  -0.567846 -0.978837 -0.00395632  -0.545622 -0.934432 -0.00287533  -0.639475 -0.895635 -0.0062151  -0.615063 -0.959348 -0.00483561  -0.592548 -0.915423 -0.00350618  -0.544944 -0.93393 -0.00430703  -0.591872 -0.914939 -0.00524807  -0.710301 -1.0289 -0.00487971  -0.687073 -0.984461 -0.00353289  -0.662582 -1.05 -0.00273252  -0.614247 -1.06997 -0.00331569  -0.59153 -1.02461 -0.00242352  -0.686543 -0.983983 -0.00528073  -0.661997 -1.04959 -0.00408888  -0.639028 -1.00466 -0.00296855  -0.59094 -1.02418 -0.00362372  -0.638441 -1.00424 -0.00444865  -0.758234 -1.12007 -0.00408602  -0.734662 -1.07469 -0.00298476  -0.710072 -1.14186 -0.00227809  -0.661395 -1.16267 -0.00275373  -0.638234 -1.11651 -0.00202465  -0.734202 -1.07428 -0.00446844  -0.709569 -1.14152 -0.00341201  -0.686224 -1.09571 -0.0025053  -0.637734 -1.11613 -0.00303435  -0.685709 -1.09536 -0.00374222  -0.806618 -1.21281 -0.00336385  -0.782776 -1.1666 -0.00248384  -0.758108 -1.23522 -0.00187659  -0.709149 -1.25674 -0.00224757  -0.68563 -1.20986 -0.00166607  -0.78238 -1.16625 -0.00372267  -0.75767 -1.23492 -0.00280595  -0.734007 -1.18834 -0.00207257  -0.6852 -1.20954 -0.00249815  -0.733557 -1.18805 -0.00309753  -0.855367 -1.30691 -0.0027349  -0.831289 -1.26 -0.00204134  -0.80657 -1.32984 -0.00151849  -0.75739 -1.35199 -0.00180244  -0.733578 -1.3045 -0.00135303  -0.830948 -1.2597 -0.00304723  -0.806189 -1.32959 -0.00226641  -0.782256 -1.28235 -0.00168967  -0.733209 -1.30422 -0.00201797  -0.781878 -1.2821 -0.00252938  -0.90438 -1.40221 -0.00218678  -0.880113 -1.35468 -0.00164723  -0.855368 -1.42556 -0.00119972  -0.806021 -1.44822 -0.00140882  -0.781966 -1.40023 -0.00107312  -0.879844 -1.35442 -0.00245595  -0.855043 -1.42535 -0.00179601  -0.830896 -1.37755 -0.00135612  -0.781664 -1.39999 -0.00160265  -0.830577 -1.37734 -0.0020268  -0.95357 -1.49849 -0.00172853  -0.929166 -1.45048 -0.00130296  -0.904396 -1.52219 -0.000935793  -0.854947 -1.54528 -0.00106502  -0.830698 -1.49686 -0.00081706  -0.928961 -1.45024 -0.00194383  -0.904126 -1.52201 -0.00139832  -0.879823 -1.47374 -0.00105476  -0.830453 -1.49666 -0.00122643  -0.879563 -1.47357 -0.00158668  -1.00287 -1.59561 -0.00129366  -0.978391 -1.54715 -0.00100636  -0.953563 -1.61959 -0.000693321  -0.904055 -1.64301 -0.000767946  -0.879675 -1.59425 -0.000609398  -0.978218 -1.54696 -0.00149369  -0.953346 -1.61943 -0.00103045  -0.928936 -1.57078 -0.000809193  -0.879479 -1.59407 -0.000914097  -0.928723 -1.57063 -0.00120497  -1.05219 -1.69341 -0.000948429  -1.02766 -1.64461 -0.000758648  -1.00281 -1.71757 -0.000494003  -0.953252 -1.74128 -0.000513792  -0.928795 -1.69223 -0.000434875  -1.02752 -1.64444 -0.00112152  -1.00262 -1.71745 -0.000725746  -0.978154 -1.66849 -0.000586987  -0.928636 -1.69208 -0.00063467  -0.977973 -1.66836 -0.000879288  -1.10145 -1.79171 -0.000632524  -1.07693 -1.74264 -0.000517607  -1.05202 -1.81602 -0.000307083  -1.00247 -1.83993 -0.000321865  -0.977976 -1.79068 -0.000279188  -1.07683 -1.7425 -0.000775099  -1.05188 -1.81592 -0.00046587  -1.02739 -1.76673 -0.000394106  -0.977855 -1.79056 -0.000419855  -1.02726 -1.76663 -0.00059247  -1.15065 -1.89042 -0.000371218  -1.12612 -1.84114 -0.000332117  -1.10119 -1.91482 -0.000175476  -1.05165 -1.93887 -0.000158072  -1.02714 -1.88948 -0.000151157  -1.12607 -1.84103 -0.000491619  -1.10109 -1.91473 -0.00026989  -1.07659 -1.86536 -0.000241518  -1.02706 -1.88937 -0.000229359  -1.0765 -1.86529 -0.000359535  -1.19969 -1.98939 -0.000198126  -1.17522 -1.93999 -0.000191212  -1.15025 -2.01383 -7.98702e-05  -1.10073 -2.03797 -3.19481e-05  -1.07626 -1.98849 -5.93662e-05  -1.17519 -1.93988 -0.000290632  -1.15016 -2.01375 -0.00011754  -1.12572 -1.96429 -0.000126123  -1.0762 -1.9884 -9.29832e-05  -1.12564 -1.96422 -0.000183582  -1.24859 -2.08852 -6.4373e-05  -1.22416 -2.03902 -9.25064e-05  -1.19916 -2.11295 -1.14441e-05  -1.14967 -2.13714 4.43459e-05  -1.12524 -2.08762 0  -1.22415 -2.03895 -0.000127554  -1.19909 -2.11289 -7.86781e-06  -1.17469 -2.06335 -4.36306e-05  -1.12521 -2.08755 -4.29153e-06  -1.17464 -2.06331 -5.65052e-05  -1.29729 -2.1877 2.45571e-05  -1.27296 -2.13817 -1.19209e-05  -1.24791 -2.2121 2.98023e-05  -1.19846 -2.23629 7.10487e-05  -1.17409 -2.18679 3.74317e-05  -1.27296 -2.13811 -2.00272e-05  -1.24786 -2.21204 4.64916e-05  -1.22353 -2.16251 1.12057e-05  -1.17408 -2.18672 5.8651e-05  -1.2235 -2.16246 1.88351e-05  -1.34583 -2.28683 6.67572e-05  -1.32157 -2.23735 1.07288e-05  -1.29648 -2.31117 5.14984e-05  -1.24706 -2.33534 9.13143e-05  -1.22277 -2.2859 6.53267e-05  -1.32158 -2.23728 3.8147e-05  -1.29644 -2.31112 7.53403e-05  -1.27219 -2.26162 4.19617e-05  -1.22277 -2.28583 9.08375e-05  -1.27217 -2.26159 7.15256e-05  -1.39424 -2.38583 6.41346e-05  -1.37003 -2.33641 3.52859e-05  -1.34491 -2.41011 5.10216e-05  -1.29549 -2.43425 7.48634e-05  -1.27127 -2.38487 6.4373e-05  -1.37004 -2.33635 5.88894e-05  -1.34486 -2.41006 7.22408e-05  -1.32067 -2.36064 4.88758e-05  -1.27129 -2.38481 8.98838e-05  -1.32066 -2.36061 7.72476e-05  -1.4426 -2.48468 3.29018e-05  -1.41842 -2.43532 2.83718e-05  -1.39326 -2.50889 3.43323e-05  -1.34382 -2.53297 6.91414e-05  -1.31966 -2.48368 4.93526e-05  -1.41842 -2.43527 4.50611e-05  -1.39321 -2.50885 5.76973e-05  -1.36906 -2.4595 4.81606e-05  -1.31966 -2.48363 7.79629e-05  -1.36904 -2.45947 6.74725e-05  -0.00840565 -0.0125323 -0.00596142  0 0 0  -0.0055942 -0.00874753 -0.00711274  -0.00177712 -0.00249891 -0.00254989  0 0 0  -0.00841966 -0.0115197 -0.00907683  -0.00248653 -0.00415026 -0.00327539  0 0 0  -0.0017699 -0.00211355 -0.00388193  -0.00248633 -0.00370786 -0.00498891  -0.0276313 -0.0397812 -0.00980687  -0.0187113 -0.0345051 -0.0117927  -0.0113661 -0.0215556 -0.00643897  -0.0275616 -0.0378061 -0.0149102  -0.0170205 -0.0250179 -0.00815415  -0.0113464 -0.0202899 -0.00980806  -0.0170163 -0.0235211 -0.0124204  -0.051909 -0.074866 -0.0115786  -0.0369843 -0.0706037 -0.0139015  -0.0275189 -0.0535129 -0.00867414  -0.0516206 -0.0723663 -0.0174663  -0.0394249 -0.0563596 -0.010922  -0.0273896 -0.0515506 -0.0131223  -0.039264 -0.0541201 -0.0165312  -0.0783477 -0.11701 -0.0117631  -0.0581384 -0.114608 -0.0140355  -0.047668 -0.0939577 -0.00942326  -0.0777461 -0.114412 -0.0176089  -0.0648793 -0.0949851 -0.0118124  -0.047281 -0.091664 -0.0141363  -0.0644616 -0.0924527 -0.017745  -0.106557 -0.16606 -0.0110092  -0.0815498 -0.165774 -0.0130341  -0.0702875 -0.141672 -0.00913906  -0.105634 -0.163616 -0.0163848  -0.0922293 -0.140675 -0.0114543  -0.0695592 -0.139346 -0.0136182  -0.0914702 -0.138171 -0.0170929  -0.136449 -0.22133 -0.00982809  -0.107297 -0.223251 -0.0116055  -0.0951319 -0.19594 -0.00831866  -0.135295 -0.219159 -0.0146098  -0.121274 -0.192925 -0.0104449  -0.0941314 -0.193769 -0.0123501  -0.120237 -0.190645 -0.0155263  -0.16799 -0.282104 -0.00856924  -0.135342 -0.286238 -0.0100565  -0.12221 -0.256021 -0.00729275  -0.166713 -0.280233 -0.0127249  -0.151998 -0.251029 -0.00920105  -0.121028 -0.254097 -0.0108252  -0.150781 -0.249037 -0.0136638  -0.201182 -0.347809 -0.00737667  -0.165615 -0.354054 -0.00861382  -0.151453 -0.32125 -0.0062716  -0.199853 -0.346193 -0.0109675  -0.184349 -0.314334 -0.00795674  -0.150198 -0.319571 -0.00931597  -0.183062 -0.312624 -0.0118287  -0.235987 -0.417895 -0.00632787  -0.198029 -0.426163 -0.00731611  -0.18281 -0.391043 -0.00534296  -0.234685 -0.416524 -0.00941205  -0.218351 -0.382287 -0.00683379  -0.18156 -0.389595 -0.00795507  -0.217056 -0.380836 -0.0101657  -0.27243 -0.491941 -0.00541878  -0.232468 -0.502104 -0.00624251  -0.216192 -0.464913 -0.00454879  -0.271195 -0.490782 -0.00807357  -0.253976 -0.45441 -0.00585103  -0.214995 -0.463674 -0.00676894  -0.252731 -0.453186 -0.00871563  -0.310468 -0.56953 -0.00463915  -0.268845 -0.581434 -0.00530171  -0.251542 -0.542419 -0.0038619  -0.309319 -0.568543 -0.0069294  -0.291215 -0.530284 -0.0050199  -0.250412 -0.541361 -0.00575471  -0.290053 -0.529241 -0.00748444  -0.350052 -0.650275 -0.00397444  -0.307025 -0.663802 -0.00449443  -0.288742 -0.623168 -0.00326824  -0.348999 -0.64944 -0.00593925  -0.33004 -0.609495 -0.00429344  -0.287706 -0.622253 -0.00487685  -0.328964 -0.60861 -0.00641251  -0.391108 -0.733867 -0.00339723  -0.346896 -0.748851 -0.00380182  -0.327692 -0.706791 -0.00276685  -0.390145 -0.733145 -0.00508595  -0.370375 -0.69171 -0.00367498  -0.326752 -0.706007 -0.00413823  -0.369393 -0.690958 -0.00549531  -0.433515 -0.819959 -0.00288844  -0.388313 -0.836274 -0.00319648  -0.36826 -0.792956 -0.00233269  -0.432655 -0.81933 -0.00432777  -0.412124 -0.776591 -0.00313473  -0.367413 -0.792278 -0.00349402  -0.411232 -0.77594 -0.00468969  -0.477161 -0.90826 -0.00246048  -0.431128 -0.925778 -0.00267911  -0.410308 -0.881369 -0.0019598  -0.4764 -0.907725 -0.0036788  -0.455162 -0.863819 -0.00266385  -0.409552 -0.88078 -0.00292969  -0.454378 -0.863266 -0.00399041  -0.521919 -0.998513 -0.00205874  -0.475185 -1.01712 -0.00222516  -0.453676 -0.971737 -0.00163031  -0.521241 -0.998061 -0.00307989  -0.499378 -0.95313 -0.00225377  -0.453009 -0.971232 -0.00244665  -0.498683 -0.952658 -0.00337458  -0.567645 -1.09047 -0.00171256  -0.520335 -1.11002 -0.00180244  -0.498216 -1.06381 -0.00133109  -0.56705 -1.09008 -0.00256109  -0.544636 -1.04427 -0.00188136  -0.497626 -1.06338 -0.00199986  -0.544024 -1.04387 -0.00282073  -0.614221 -1.18391 -0.00140357  -0.566437 -1.20429 -0.00145698  -0.543778 -1.15738 -0.00108075  -0.613695 -1.18357 -0.00210071  -0.59081 -1.137 -0.00155544  -0.543263 -1.15699 -0.00161695  -0.590269 -1.13665 -0.00232458  -0.661499 -1.27859 -0.0011251  -0.613323 -1.29972 -0.00114346  -0.590214 -1.25219 -0.000863552  -0.661047 -1.27832 -0.00168848  -0.637751 -1.23108 -0.00126553  -0.589784 -1.25187 -0.00129747  -0.637287 -1.2308 -0.00189734  -0.709358 -1.37439 -0.000894547  -0.660871 -1.39613 -0.000864506  -0.637385 -1.34809 -0.000664473  -0.708965 -1.37414 -0.00133371  -0.685333 -1.32635 -0.00100803  -0.637016 -1.34781 -0.000998497  -0.684938 -1.3261 -0.00150514  -0.757668 -1.47108 -0.000678539  -0.708925 -1.49335 -0.000616074  -0.685148 -1.44489 -0.000497341  -0.757329 -1.47087 -0.00101566  -0.733436 -1.4226 -0.000783443  -0.684838 -1.44464 -0.00074029  -0.733091 -1.4224 -0.00117326  -0.806333 -1.56851 -0.000503778  -0.757394 -1.59123 -0.000431061  -0.733363 -1.54243 -0.000351667  -0.806045 -1.56834 -0.000746965  -0.781927 -1.51969 -0.000587702  -0.733107 -1.54221 -0.000532866  -0.781646 -1.51951 -0.000879049  -0.855222 -1.66653 -0.000340939  -0.806146 -1.68963 -0.000261307  -0.781945 -1.64054 -0.000225306  -0.854998 -1.66639 -0.000511408  -0.830723 -1.61743 -0.000415087  -0.781735 -1.64037 -0.000339031  -0.830493 -1.6173 -0.000625372  -0.904268 -1.76504 -0.000221491  -0.855084 -1.78841 -0.000134945  -0.830758 -1.73913 -0.00012207  -0.904086 -1.76491 -0.000322104  -0.879705 -1.71572 -0.000269651  -0.830594 -1.73898 -0.000185251  -0.879522 -1.71559 -0.00041151  -0.953377 -1.86387 -0.000115156  -0.90413 -1.88748 -1.35899e-05  -0.879714 -1.83805 -4.05312e-05  -0.953224 -1.86377 -0.000170231  -0.928792 -1.8144 -0.00016737  -0.879592 -1.83791 -5.91278e-05  -0.928646 -1.8143 -0.000241995  -1.00248 -1.96293 -3.6478e-05  -0.953169 -1.9867 7.00951e-05  -0.928713 -1.9372 1.3113e-05  -1.00235 -1.96284 -4.93526e-05  -0.977897 -1.91334 -7.08103e-05  -0.928647 -1.93707 2.38419e-05  -0.977788 -1.91328 -0.000105619  -1.0515 -2.06211 2.28882e-05  -1.00218 -2.086 0.000125647  -0.977741 -2.03645 6.4373e-05  -1.0514 -2.06203 3.8147e-05  -1.02697 -2.01249 -7.15256e-07  -0.977682 -2.03634 8.70228e-05  -1.02689 -2.01242 4.29153e-06  -1.10041 -2.16133 5.8651e-05  -1.05107 -2.1853 0.000146389  -1.02667 -2.13574 8.89301e-05  -1.10034 -2.16126 8.34465e-05  -1.07594 -2.1117 5.05447e-05  -1.02663 -2.13566 0.000132561  -1.07588 -2.11164 6.91414e-05  -1.14917 -2.26049 7.34329e-05  -1.09984 -2.28451 0.000149727  -1.07548 -2.235 0.000102997  -1.14913 -2.26044 0.000109434  -1.12478 -2.2109 6.29425e-05  -1.07547 -2.23492 0.000143051  -1.12474 -2.21086 0.000100374  -1.19777 -2.35955 7.31945e-05  -1.14842 -2.38358 0.000119448  -1.12414 -2.33414 8.53539e-05  -1.19772 -2.35949 0.000112057  -1.17346 -2.31002 7.89165e-05  -1.12415 -2.33406 0.000136137  -1.17344 -2.30998 0.000113487  -1.24618 -2.45843 6.29425e-05  -1.19682 -2.48246 9.5129e-05  -1.17262 -2.43311 7.41482e-05  -1.24614 -2.45838 9.13143e-05  -1.22196 -2.40898 6.53267e-05  -1.17263 -2.43304 0.00010848  -1.22195 -2.40895 0.000100374  -1.29449 -2.55712 3.6478e-05  -1.24508 -2.58112 5.76973e-05  -1.22095 -2.53189 5.26905e-05  -1.29444 -2.55706 5.88894e-05  -1.27031 -2.50778 4.91142e-05  -1.22096 -2.53182 7.48634e-05  -1.2703 -2.50774 7.84397e-05  -0.00322392 -0.00840244 -0.00342083  0 0 0  -0.00125918 -0.00755504 -0.00337052  -0.000408407 -0.00163996 -0.00119805  0 0 0  -0.00319562 -0.00762337 -0.00520325  -0.000963967 -0.0017429 -0.00184631  0 0 0  -0.000399578 -0.00136355 -0.00180674  -0.000947896 -0.00141558 -0.00281477  -0.011642 -0.0346184 -0.00574708  -0.00519852 -0.0333152 -0.00575972  -0.00295025 -0.0198227 -0.00311613  -0.011527 -0.0331348 -0.00871015  -0.00680825 -0.0199853 -0.00474572  -0.0028315 -0.0188817 -0.00472188  -0.00674731 -0.0189034 -0.00721073  -0.0245626 -0.072214 -0.00689816  -0.0126412 -0.0713571 -0.00697541  -0.00874856 -0.0527276 -0.00432324  -0.0242583 -0.0702441 -0.0103815  -0.0176249 -0.0523199 -0.00646329  -0.00849023 -0.051202 -0.00651622  -0.0174357 -0.0506048 -0.00975561  -0.0408821 -0.118079 -0.00705504  -0.0235839 -0.118338 -0.00712609  -0.018165 -0.0957764 -0.00478411  -0.0402714 -0.115897 -0.010515  -0.0323485 -0.0941826 -0.00706148  -0.0176938 -0.0938818 -0.0071435  -0.0319065 -0.0921163 -0.0105789  -0.0600408 -0.170911 -0.00659132  -0.0378936 -0.172644 -0.00659823  -0.031057 -0.146675 -0.00466084  -0.0591383 -0.168746 -0.00977397  -0.0500988 -0.143629 -0.00686836  -0.0303175 -0.144639 -0.0069077  -0.0493461 -0.141475 -0.0102148  -0.0819835 -0.22994 -0.00584221  -0.0555817 -0.233337 -0.00576901  -0.0472758 -0.204217 -0.00420213  -0.0808595 -0.227934 -0.00864768  -0.070641 -0.19965 -0.0062325  -0.0463181 -0.20224 -0.00620627  -0.0696376 -0.197596 -0.00923228  -0.106657 -0.294433 -0.00501299  -0.0766011 -0.29959 -0.0048542  -0.0667904 -0.26763 -0.00359797  -0.105424 -0.292641 -0.00743032  -0.0939584 -0.261492 -0.00542974  -0.0656738 -0.265813 -0.00531006  -0.0927933 -0.25964 -0.008039  -0.133969 -0.363735 -0.00423956  -0.100804 -0.370693 -0.00399899  -0.0894701 -0.336197 -0.00299454  -0.132693 -0.362165 -0.00628901  -0.119959 -0.328464 -0.00462079  -0.088315 -0.334568 -0.00441933  -0.118725 -0.326832 -0.00684547  -0.163782 -0.437299 -0.00355554  -0.128008 -0.446035 -0.0032537  -0.115198 -0.409299 -0.00244188  -0.162543 -0.435955 -0.00528479  -0.148541 -0.39997 -0.00388598  -0.114037 -0.40786 -0.00361753  -0.147301 -0.398556 -0.00576758  -0.195979 -0.514653 -0.00297093  -0.157991 -0.525091 -0.00260997  -0.143774 -0.486361 -0.00197124  -0.194802 -0.513493 -0.00442028  -0.179561 -0.475487 -0.00324988  -0.142657 -0.485117 -0.00292492  -0.178372 -0.47427 -0.00483298  -0.230401 -0.595347 -0.00248408  -0.190541 -0.607398 -0.00208497  -0.174996 -0.566946 -0.00157833  -0.229302 -0.594346 -0.00369096  -0.212891 -0.554566 -0.00271487  -0.173949 -0.565855 -0.00233269  -0.21177 -0.553517 -0.00404048  -0.266895 -0.67901 -0.0020566  -0.225451 -0.692567 -0.00164127  -0.208665 -0.650593 -0.00125027  -0.265884 -0.678137 -0.00306201  -0.248368 -0.636793 -0.00225878  -0.207709 -0.649645 -0.00185275  -0.247337 -0.635889 -0.00336432  -0.305301 -0.765257 -0.00170112  -0.262512 -0.780216 -0.00127482  -0.244595 -0.736919 -0.000973225  -0.304388 -0.764507 -0.0025351  -0.28584 -0.721794 -0.00186825  -0.24372 -0.736094 -0.00145149  -0.284898 -0.721013 -0.00278902  -0.345465 -0.85378 -0.0013864  -0.301521 -0.87002 -0.000971079  -0.282563 -0.825571 -0.000750542  -0.344636 -0.853132 -0.00207806  -0.325141 -0.809211 -0.0015378  -0.281773 -0.824855 -0.00111723  -0.324295 -0.808548 -0.00230074  -0.387202 -0.9443 -0.00113034  -0.342277 -0.961695 -0.000700951  -0.322385 -0.916253 -0.000548601  -0.386452 -0.943734 -0.0016911  -0.366114 -0.898776 -0.00125957  -0.321685 -0.915631 -0.000825167  -0.365355 -0.898196 -0.00187564  -0.43033 -1.03653 -0.000898123  -0.384591 -1.05497 -0.000485659  -0.363873 -1.00868 -0.000392437  -0.429668 -1.03605 -0.00135636  -0.408569 -0.990182 -0.00101638  -0.363245 -1.00815 -0.000591993  -0.407893 -0.989695 -0.0015204  -0.474684 -1.13026 -0.00070405  -0.428246 -1.14962 -0.000310421  -0.406796 -1.10262 -0.000270367  -0.4741 -1.12984 -0.00104833  -0.45233 -1.08319 -0.000801802  -0.406255 -1.10213 -0.000396252  -0.451735 -1.08277 -0.00119972  -0.520086 -1.22524 -0.000527859  -0.473083 -1.24543 -0.000152588  -0.450995 -1.19781 -0.000146151  -0.519587 -1.22488 -0.000803947  -0.497229 -1.17758 -0.000616074  -0.45052 -1.19739 -0.000222206  -0.496708 -1.17721 -0.00092268  -0.566412 -1.3213 -0.000389099  -0.518911 -1.34221 -1.81198e-05  -0.496286 -1.29407 -5.74589e-05  -0.565968 -1.32099 -0.000582695  -0.543118 -1.27312 -0.000460148  -0.495872 -1.29371 -8.86917e-05  -0.542667 -1.27281 -0.000688076  -0.613464 -1.41824 -0.000267029  -0.565571 -1.43978 7.72476e-05  -0.542484 -1.39121 1.33514e-05  -0.613089 -1.41798 -0.000399351  -0.58982 -1.36965 -0.000321388  -0.542141 -1.39091 2.21729e-05  -0.589439 -1.36938 -0.000488043  -0.661125 -1.51593 -0.000160456  -0.612902 -1.53799 0.000172853  -0.589448 -1.48907 8.60691e-05  -0.660798 -1.5157 -0.000232458  -0.637199 -1.46698 -0.000208378  -0.589158 -1.48881 0.000121832  -0.636873 -1.46675 -0.000310421  -0.70926 -1.61419 -6.74725e-05  -0.660767 -1.6367 0.000226974  -0.637008 -1.58753 0.000136852  -0.70898 -1.61399 -0.000103951  -0.685111 -1.56497 -0.00010705  -0.636772 -1.58729 0.000193596  -0.684834 -1.56478 -0.000159979  -0.757737 -1.71291 -1.66893e-06  -0.709038 -1.73579 0.000267267  -0.68504 -1.68642 0.000160217  -0.757508 -1.71273 -4.05312e-06  -0.733427 -1.66347 -2.59876e-05  -0.684857 -1.6862 0.000241756  -0.733205 -1.66331 -4.1008e-05  -0.806459 -1.81194 5.76973e-05  -0.757604 -1.83513 0.000291348  -0.733433 -1.78561 0.000188589  -0.806271 -1.8118 8.74996e-05  -0.782046 -1.76236 2.71797e-05  -0.733286 -1.78543 0.000279665  -0.781866 -1.76223 4.48227e-05  -0.855313 -1.9112 0.000103474  -0.806335 -1.93462 0.000317574  -0.782053 -1.88502 0.000203371  -0.855179 -1.91108 0.000148058  -0.830845 -1.86152 8.51154e-05  -0.78194 -1.88486 0.00030303  -0.830699 -1.86142 0.000122547  -0.904232 -2.01057 0.000122547  -0.855161 -2.03418 0.000293255  -0.830806 -1.98454 0.000202179  -0.904114 -2.01046 0.000182867  -0.879732 -1.96086 0.000106096  -0.83074 -1.98439 0.000299692  -0.879639 -1.96076 0.000163794  -0.953137 -2.10997 0.000134945  -0.903993 -2.13373 0.000282526  -0.879618 -2.08408 0.000198364  -0.953051 -2.10989 0.00020504  -0.928664 -2.06026 0.000131607  -0.879573 -2.08396 0.000288963  -0.928585 -2.06017 0.000190735  -1.00197 -2.20935 0.000136137  -0.952769 -2.23318 0.000253439  -0.92842 -2.18357 0.000180244  -1.00189 -2.20926 0.000200033  -0.977527 -2.15965 0.000138283  -0.928383 -2.18346 0.000269651  -0.977478 -2.15958 0.000204086  -1.05066 -2.30859 0.000113249  -1.00144 -2.33249 0.000192881  -0.97711 -2.28295 0.000150204  -1.05061 -2.30853 0.0001719  -1.0263 -2.25896 0.000123978  -0.977116 -2.28286 0.000231981  -1.02627 -2.25891 0.000186443  -1.09921 -2.40768 9.72748e-05  -1.04997 -2.43162 0.000152349  -1.02571 -2.38216 0.000114441  -1.09917 -2.40761 0.00013423  -1.07493 -2.35813 0.000101089  -1.02572 -2.38208 0.000177145  -1.07491 -2.35809 0.000154257  -1.14759 -2.50656 6.50883e-05  -1.09831 -2.53052 0.000103235  -1.07414 -2.48118 8.79765e-05  -1.14755 -2.5065 9.39369e-05  -1.12339 -2.45712 8.10623e-05  -1.07415 -2.48109 0.000124216  -1.12338 -2.45708 0.000118494  -1.1958 -2.6052 3.79086e-05  -1.14645 -2.62912 4.55379e-05  -1.12239 -2.57994 3.76701e-05  -1.19575 -2.60514 6.10352e-05  -1.17169 -2.5559 5.26905e-05  -1.1224 -2.57986 6.67572e-05  -1.17167 -2.55585 7.58171e-05  0.000473902 -0.00893822 -0.0010705  0 0 0  0.00227357 -0.00986895 0.000162363  0.000668645 -0.0028483 7.67708e-05  0 0 0  0.000570983 -0.00835294 -0.00157166  0.000155754 -0.00202626 -0.000545979  0 0 0  0.000693016 -0.00265598 0.000165701  0.000185408 -0.00179765 -0.000801802  0.000371635 -0.0359967 -0.00190735  0.00621411 -0.037501 -4.673e-05  0.00398925 -0.0229014 1.0252e-05  0.000648469 -0.0348282 -0.00284743  0.00062263 -0.0208529 -0.00152755  0.00422819 -0.0221463 8.51154e-05  0.000801384 -0.0200216 -0.00227571  -0.00230259 -0.0754173 -0.00243378  0.00858489 -0.0774412 -0.000386715  0.00727975 -0.0575919 -0.000207901  -0.00181994 -0.0737837 -0.00361681  -0.000573695 -0.0545256 -0.00222373  0.00773883 -0.0563146 -0.000251055  -0.00020209 -0.0531514 -0.00332093  -0.00850293 -0.123788 -0.002563  0.00745165 -0.126519 -0.000540972  0.00787938 -0.102655 -0.000373125  -0.00781339 -0.121875 -0.00377464  -0.00492758 -0.0986034 -0.0025425  0.00851214 -0.100988 -0.000499725  -0.00435808 -0.0968508 -0.00376344  -0.018504 -0.179402 -0.00237203  0.0021174 -0.183153 -0.000416994  0.00453734 -0.155811 -0.000383854  -0.0176017 -0.177431 -0.00347066  -0.0130126 -0.15071 -0.00249195  0.00532967 -0.153967 -0.000510693  -0.0122271 -0.148794 -0.00366187  -0.0323166 -0.241336 -0.00199819  -0.00755441 -0.24635 -0.000140905  -0.00310552 -0.215829 -0.000242472  -0.0312587 -0.239455 -0.00291443  -0.0249091 -0.209575 -0.00219679  -0.00217062 -0.213982 -0.000297546  -0.0239453 -0.207684 -0.0032084  -0.049862 -0.308838 -0.00158381  -0.0214753 -0.315272 0.000198126  -0.0150183 -0.281897 -2.47955e-05  -0.0487258 -0.307104 -0.00230241  -0.0406104 -0.274392 -0.00179195  -0.0139859 -0.280134 2.7895e-05  -0.0395198 -0.272609 -0.00261664  -0.0709711 -0.381202 -0.00118971  -0.0394583 -0.389163 0.000515223  -0.0310244 -0.353236 0.000205278  -0.0698159 -0.379652 -0.00173593  -0.0599555 -0.344393 -0.0013833  -0.0299703 -0.351627 0.000355482  -0.0588236 -0.3428 -0.00201249  -0.0954412 -0.457821 -0.000846624  -0.0612144 -0.467335 0.000774384  -0.0509073 -0.42919 0.000411749  -0.0943053 -0.456454 -0.00123048  -0.0827739 -0.418966 -0.00101209  -0.0498707 -0.427742 0.000650883  -0.0816461 -0.417548 -0.00147223  -0.123031 -0.538154 -0.000560045  -0.0864774 -0.549206 0.000981092  -0.0744177 -0.509118 0.000569105  -0.121949 -0.536954 -0.000818014  -0.108828 -0.497504 -0.000695705  -0.073416 -0.50783 0.000881433  -0.107742 -0.496265 -0.00101209  -0.153484 -0.621698 -0.000343561  -0.114943 -0.634242 0.00111127  -0.101264 -0.592474 0.000685692  -0.152472 -0.62066 -0.000488043  -0.137881 -0.579507 -0.000441313  -0.100317 -0.591342 0.00104594  -0.136859 -0.578422 -0.000638485  -0.186577 -0.708065 -0.00014782  -0.146321 -0.721998 0.00120831  -0.131147 -0.678786 0.000764608  -0.185647 -0.707148 -0.000211239  -0.169683 -0.664518 -0.000235796  -0.13027 -0.677801 0.0011642  -0.168739 -0.663574 -0.000337124  -0.222046 -0.796822 -2.21729e-05  -0.18033 -0.812081 0.00125742  -0.163811 -0.767628 0.000816822  -0.221209 -0.796036 -1.88351e-05  -0.204 -0.752129 -8.10623e-05  -0.163007 -0.766762 0.00124049  -0.203135 -0.751305 -0.000108242  -0.25968 -0.887679 0.000104904  -0.216706 -0.904132 0.00127506  -0.198953 -0.858638 0.000835657  -0.258916 -0.886987 0.000157356  -0.240576 -0.84198 4.3869e-05  -0.198232 -0.857873 0.00126457  -0.239796 -0.841262 7.62939e-05  -0.299248 -0.980305 0.000191689  -0.255202 -0.997871 0.00127172  -0.236336 -0.951468 0.000846863  -0.298561 -0.979706 0.000285149  -0.279198 -0.933751 0.000148296  -0.235695 -0.950805 0.0012722  -0.2785 -0.933131 0.000219822  -0.340524 -1.07446 0.000247955  -0.295553 -1.09302 0.00124717  -0.275712 -1.04587 0.000828505  -0.339921 -1.07393 0.000377417  -0.319654 -1.02717 0.000221491  -0.27515 -1.04528 0.0012548  -0.319035 -1.02664 0.000330925  -0.383296 -1.16989 0.00029707  -0.337551 -1.18934 0.00120139  -0.316851 -1.14155 0.000820398  -0.382758 -1.16942 0.000444174  -0.361705 -1.122 0.000281572  -0.316359 -1.14104 0.00122666  -0.361161 -1.12152 0.000417471  -0.42736 -1.26638 0.000326633  -0.380957 -1.28662 0.00115108  -0.359513 -1.23832 0.000786543  -0.426897 -1.26599 0.000494719  -0.405152 -1.21799 0.000317574  -0.35908 -1.23786 0.00118446  -0.40467 -1.21758 0.000478268  -0.472545 -1.36377 0.000348091  -0.425582 -1.38469 0.00109005  -0.403481 -1.33597 0.000751257  -0.472137 -1.36342 0.000532389  -0.449796 -1.31495 0.000344515  -0.403123 -1.33557 0.00112891  -0.449386 -1.3146 0.000516415  -0.518657 -1.46187 0.000361443  -0.471216 -1.48339 0.00102568  -0.448583 -1.43433 0.00070715  -0.518303 -1.46156 0.000550985  -0.495463 -1.4127 0.000365496  -0.448276 -1.43397 0.00106025  -0.495106 -1.41241 0.000543118  -0.565528 -1.56052 0.000371695  -0.517697 -1.58256 0.000951767  -0.494614 -1.53323 0.000664949  -0.565225 -1.56025 0.000557184  -0.541966 -1.5111 0.000368834  -0.494356 -1.53292 0.00099659  -0.541672 -1.51084 0.000557184  -0.613005 -1.65961 0.00036788  -0.564857 -1.68209 0.000891209  -0.541407 -1.63255 0.000614882  -0.612747 -1.65938 0.000549793  -0.589165 -1.60999 0.000372171  -0.541198 -1.63228 0.00092411  -0.588914 -1.60977 0.000556946  -0.660942 -1.75899 0.000341892  -0.612546 -1.78184 0.000792503  -0.588805 -1.73217 0.000554323  -0.660738 -1.7588 0.000520945  -0.636888 -1.70924 0.000361204  -0.588639 -1.73193 0.000833273  -0.636685 -1.70905 0.000540018  -0.709234 -1.85858 0.000332117  -0.660625 -1.88171 0.000715017  -0.636665 -1.83197 0.000511646  -0.709069 -1.85842 0.000507832  -0.685024 -1.80874 0.000343084  -0.636533 -1.83176 0.000753164  -0.684856 -1.80858 0.000518084  -0.757759 -1.95828 0.00030756  -0.708984 -1.98164 0.000623226  -0.684861 -1.93184 0.000447989  -0.757614 -1.95812 0.000462055  -0.73344 -1.90839 0.000324488  -0.684773 -1.93167 0.000671148  -0.733318 -1.90826 0.000486374  -0.806408 -2.05798 0.000274897  -0.757507 -2.08154 0.000530481  -0.733277 -2.03174 0.000378609  -0.806305 -2.05786 0.000408649  -0.782032 -2.00811 0.000290394  -0.73322 -2.03159 0.000576496  -0.781945 -2.00799 0.00043726  -0.8551 -2.15762 0.000244379  -0.806105 -2.18132 0.000445604  -0.781824 -2.13158 0.000334501  -0.855024 -2.15752 0.000361443  -0.830718 -2.10779 0.000261784  -0.781793 -2.13144 0.000498295  -0.830659 -2.10769 0.000392199  -0.903782 -2.25716 0.000216484  -0.854693 -2.28094 0.000369787  -0.830417 -2.23126 0.000272512  -0.903718 -2.25706 0.000319481  -0.87942 -2.20739 0.000231504  -0.830393 -2.23116 0.000409842  -0.879371 -2.2073 0.000342607  -0.952371 -2.35651 0.000150919  -0.903232 -2.38037 0.000272512  -0.878965 -2.33078 0.000214577  -0.952321 -2.35643 0.000227928  -0.928045 -2.30683 0.000183821  -0.878968 -2.33068 0.000315666  -0.928025 -2.30676 0.000274658  -1.00084 -2.45566 0.000107765  -0.951659 -2.47955 0.000174522  -0.927435 -2.43008 0.00014782  -1.0008 -2.45559 0.000171661  -0.976586 -2.40608 0.000132561  -0.927454 -2.42999 0.000230551  -0.976574 -2.40603 0.000196934  -1.04914 -2.55455 6.12736e-05  -0.999931 -2.57846 8.36849e-05  -0.975775 -2.52913 8.46386e-05  -1.04912 -2.5545 9.72748e-05  -1.02498 -2.50511 9.01222e-05  -0.975812 -2.52903 0.00013423  -1.02497 -2.50507 0.000134706  -1.09725 -2.65315 1.00136e-05  -1.04798 -2.67704 1.14441e-05  -1.02395 -2.62788 2.98023e-05  -1.09721 -2.65308 1.88351e-05  -1.07319 -2.60388 3.88622e-05  -1.02398 -2.62779 4.8399e-05  -1.07318 -2.60383 6.24657e-05  0.00388579 -0.012593 0.00112796  0 0 0  0.00592396 -0.0150387 0.00343871  0.00177418 -0.00583857 0.00124693  0 0 0  0.00406092 -0.0120882 0.00183654  0.00119457 -0.00409424 0.000677586  0 0 0  0.00182125 -0.0056476 0.00198746  0.00123884 -0.00391817 0.0010972  0.0114082 -0.0423263 0.00170875  0.0176524 -0.046195 0.0052948  0.0110241 -0.0300023 0.00292134  0.0118724 -0.0413063 0.00269151  0.00743558 -0.0259525 0.00149751  0.0113867 -0.0292877 0.00456882  0.00775719 -0.0252424 0.00237513  0.018277 -0.0837487 0.00178123  0.0294186 -0.0882306 0.00575423  0.0231697 -0.0673089 0.00364423  0.0189431 -0.0822864 0.00275421  0.0151387 -0.0618706 0.0017674  0.0238222 -0.0661091 0.00560498  0.015709 -0.060658 0.00274944  0.0216796 -0.133978 0.00171113  0.0375418 -0.138918 0.0056951  0.0332682 -0.114124 0.00377941  0.0224795 -0.132221 0.00263047  0.0205132 -0.107844 0.00174212  0.0340584 -0.112573 0.0057447  0.0212449 -0.106253 0.00268698  0.0205644 -0.191622 0.00167608  0.0407472 -0.197278 0.00548482  0.0389342 -0.168927 0.00369215  0.02147 -0.18977 0.00257683  0.0217292 -0.16188 0.00168371  0.039786 -0.16719 0.00559187  0.0225644 -0.160103 0.00259042  0.014718 -0.255817 0.00170231  0.0388145 -0.262473 0.00529933  0.0395243 -0.230841 0.00356078  0.0157068 -0.25401 0.00261092  0.0182489 -0.222896 0.00168562  0.0404226 -0.229068 0.00538945  0.0191858 -0.221102 0.00258732  0.00424856 -0.325788 0.00175476  0.0318218 -0.333638 0.00513196  0.0350018 -0.29907 0.00345469  0.00528926 -0.324092 0.00268197  0.0100716 -0.290087 0.00172877  0.0359408 -0.297353 0.00522661  0.0110719 -0.288364 0.00264406  -0.0106223 -0.400779 0.00179887  0.0200317 -0.409961 0.00496721  0.0255716 -0.372778 0.00334024  -0.00958443 -0.399241 0.00274515  -0.00262678 -0.362659 0.00178218  0.0265183 -0.371192 0.0050509  -0.00160205 -0.36107 0.00271916  -0.0296187 -0.48009 0.00183725  0.00372887 -0.490655 0.00477314  0.0115027 -0.451238 0.003232  -0.0286046 -0.478703 0.00278163  -0.0195947 -0.439892 0.00182557  0.0124273 -0.449793 0.00486851  -0.0185872 -0.438464 0.00277209  -0.0524348 -0.563102 0.00183368  -0.016739 -0.575063 0.00455451  -0.00689805 -0.53372 0.00309181  -0.0514685 -0.561874 0.00277114  -0.0405432 -0.521127 0.00184035  -0.00600171 -0.532424 0.00466371  -0.0395701 -0.519851 0.00278234  -0.0787427 -0.649269 0.00178862  -0.0410103 -0.6626 0.00430799  -0.0292506 -0.619616 0.00294781  -0.0778379 -0.648195 0.00270891  -0.0651389 -0.605779 0.0018208  -0.0284138 -0.618473 0.00443697  -0.0642297 -0.604662 0.00275016  -0.108242 -0.738127 0.00175166  -0.0687196 -0.752747 0.00406289  -0.0552219 -0.708395 0.00278473  -0.10739 -0.73716 0.00263214  -0.0930798 -0.693348 0.00177908  -0.0544516 -0.707368 0.00419116  -0.0922252 -0.692366 0.00267577  -0.140601 -0.829246 0.00167441  -0.099548 -0.84509 0.0037961  -0.0844808 -0.799569 0.0026083  -0.139822 -0.828394 0.00252604  -0.124046 -0.78338 0.00171232  -0.083762 -0.798667 0.00392079  -0.123266 -0.782515 0.00258493  -0.175528 -0.922265 0.00159717  -0.133165 -0.939243 0.00352454  -0.116673 -0.892748 0.00242853  -0.17483 -0.921515 0.00239801  -0.157721 -0.875501 0.00164104  -0.116023 -0.89196 0.00365829  -0.157019 -0.874735 0.0024662  -0.212762 -1.01689 0.00149512  -0.169269 -1.03489 0.00325894  -0.151498 -0.987603 0.00226259  -0.212131 -1.01623 0.00225639  -0.19384 -0.969352 0.00154924  -0.150921 -0.986896 0.00339007  -0.193208 -0.968692 0.00232649  -0.252019 -1.11285 0.00141072  -0.207555 -1.13179 0.0029912  -0.18866 -1.08384 0.00208211  -0.251467 -1.11227 0.00212145  -0.232121 -1.06468 0.00145531  -0.18815 -1.0832 0.00312328  -0.231556 -1.0641 0.0021944  -0.293065 -1.2099 0.0012989  -0.247755 -1.22968 0.00271797  -0.227868 -1.18119 0.00189686  -0.292582 -1.20939 0.00195432  -0.272293 -1.16122 0.0013566  -0.227425 -1.18062 0.00285006  -0.271811 -1.16071 0.00204301  -0.335664 -1.30782 0.0012064  -0.289639 -1.32835 0.00247788  -0.268885 -1.27942 0.00172424  -0.335232 -1.30739 0.00180912  -0.314156 -1.25873 0.00125098  -0.2685 -1.27892 0.00258613  -0.31372 -1.25828 0.00188279  -0.379583 -1.40647 0.00110269  -0.332953 -1.42764 0.00222278  -0.311445 -1.37836 0.00156474  -0.379212 -1.40608 0.00166368  -0.357434 -1.35703 0.00115657  -0.311124 -1.37792 0.00235033  -0.35706 -1.35664 0.00173712  -0.424615 -1.50564 0.00100255  -0.377472 -1.52738 0.00199413  -0.355344 -1.47784 0.00140166  -0.4243 -1.5053 0.00151014  -0.401937 -1.45597 0.00105238  -0.355065 -1.47746 0.00210762  -0.401618 -1.45562 0.00158358  -0.470591 -1.60524 0.000903845  -0.423018 -1.62745 0.00175118  -0.400353 -1.57772 0.00124431  -0.470315 -1.60494 0.00135636  -0.447463 -1.55537 0.000957489  -0.400122 -1.57738 0.00186968  -0.447195 -1.55507 0.00143647  -0.517314 -1.70509 0.000806808  -0.46939 -1.72771 0.00154543  -0.446289 -1.67785 0.00109792  -0.517093 -1.70484 0.00121045  -0.493832 -1.65511 0.000855923  -0.446104 -1.67756 0.00164008  -0.493612 -1.65486 0.00128126  -0.564646 -1.80513 0.000706434  -0.51643 -1.82808 0.0013268  -0.492968 -1.77815 0.000955582  -0.564465 -1.8049 0.00106335  -0.540886 -1.75506 0.000759125  -0.492828 -1.77789 0.00143552  -0.540704 -1.75485 0.00113535  -0.612425 -1.90523 0.00061512  -0.563968 -1.92846 0.00112224  -0.540243 -1.87849 0.00081563  -0.612276 -1.90504 0.000912905  -0.588451 -1.85515 0.000658274  -0.54014 -1.87827 0.00122666  -0.588313 -1.85496 0.000991583  -0.660536 -2.00534 0.000525475  -0.611891 -2.02879 0.000952244  -0.587955 -1.97883 0.000687122  -0.660419 -2.00518 0.000793934  -0.636412 -1.95527 0.000568628  -0.587884 -1.97863 0.00103474  -0.636309 -1.95511 0.000855446  -0.708869 -2.10536 0.000430346  -0.660062 -2.12896 0.00077033  -0.635993 -2.07906 0.000571012  -0.708772 -2.10522 0.000653744  -0.684643 -2.05534 0.000483036  -0.635942 -2.07889 0.000853062  -0.684567 -2.05521 0.000721931  -0.757304 -2.20524 0.000355482  -0.708385 -2.22896 0.000617981  -0.684236 -2.17913 0.000466108  -0.757237 -2.20512 0.000532866  -0.733045 -2.1553 0.000386  -0.684203 -2.17898 0.000697136  -0.732987 -2.15518 0.000591278  -0.805778 -2.30493 0.000278473  -0.75677 -2.32873 0.000473022  -0.732581 -2.27901 0.000362873  -0.805724 -2.30481 0.000417233  -0.781517 -2.25509 0.000324726  -0.732571 -2.27887 0.000542641  -0.781479 -2.25499 0.00047636  -0.854208 -2.40438 0.000196218  -0.805136 -2.42823 0.000336885  -0.780946 -2.37862 0.000259876  -0.854182 -2.40429 0.000300646  -0.829973 -2.35466 0.000237465  -0.780955 -2.37851 0.000396013  -0.829959 -2.35458 0.000362635  -0.902581 -2.50357 0.000128269  -0.85344 -2.52746 0.000218153  -0.82927 -2.47798 0.00018549  -0.902552 -2.50349 0.00019002  -0.878382 -2.45398 0.000162363  -0.829293 -2.47788 0.000273943  -0.878371 -2.45392 0.000245094  -0.950799 -2.60249 5.62668e-05  -0.901624 -2.62637 8.96454e-05  -0.877516 -2.57706 9.84669e-05  -0.950771 -2.6024 9.34601e-05  -0.926677 -2.55304 9.77516e-05  -0.877546 -2.57695 0.000149727  -0.92668 -2.55298 0.000147343  -0.998805 -2.70109 -6.19888e-06  -0.949603 -2.725 -3.57628e-05  -0.925602 -2.67583 1.62125e-05  -0.998788 -2.701 -5.96046e-06  -0.974796 -2.65181 2.5034e-05  -0.925644 -2.67572 2.3365e-05  -0.97481 -2.65174 4.1008e-05  0.0078499 -0.0194479 0.00312829  0 0 0  0.0105366 -0.0238228 0.00633621  0.00317232 -0.0112591 0.00224662  0 0 0  0.00809035 -0.0188915 0.00493455  0.00240577 -0.00816453 0.0017693  0 0 0  0.00322875 -0.0109717 0.00357151  0.00245526 -0.00793892 0.00281286  0.0233932 -0.0533309 0.00501013  0.0309066 -0.0596121 0.0100513  0.0195803 -0.0415559 0.00550675  0.0240226 -0.0522905 0.00775075  0.0150709 -0.0351679 0.00425577  0.0200586 -0.0407182 0.00854468  0.0155148 -0.0344176 0.00661635  0.0395583 -0.0967374 0.00569367  0.0519638 -0.103342 0.0114079  0.0410034 -0.0817373 0.00714517  0.0404002 -0.0952854 0.00866103  0.031774 -0.0739483 0.00544882  0.041831 -0.0804594 0.0109062  0.0325365 -0.0727308 0.00833964  0.0519902 -0.14826 0.00572109  0.0686753 -0.155113 0.0114858  0.0600925 -0.129757 0.00762439  0.0528751 -0.146572 0.00864792  0.0463986 -0.121454 0.00574636  0.0609825 -0.128197 0.011524  0.0472527 -0.119914 0.00870657  0.0592098 -0.207419 0.0055325  0.0798208 -0.21482 0.0111108  0.0740812 -0.185703 0.00751686  0.0601311 -0.205637 0.00833797  0.0563054 -0.176876 0.00563812  0.0749685 -0.184011 0.0113227  0.0571843 -0.175175 0.00850892  0.0609674 -0.273456 0.0052774  0.0851989 -0.281715 0.0105529  0.0823619 -0.24914 0.00720119  0.0619 -0.271701 0.00796175  0.0607934 -0.239571 0.00540757  0.0832386 -0.247419 0.0108409  0.0617027 -0.237843 0.00815248  0.0573372 -0.34554 0.00501609  0.0848611 -0.354882 0.00995255  0.0848591 -0.31923 0.00681877  0.0582777 -0.343885 0.00756931  0.059831 -0.308755 0.00515294  0.0857325 -0.317569 0.0102577  0.0607542 -0.307078 0.00776505  0.0485671 -0.422849 0.00475574  0.0790541 -0.433408 0.00933456  0.081764 -0.395075 0.00640678  0.0495068 -0.421323 0.00716877  0.0536 -0.38355 0.00488901  0.0826229 -0.393522 0.00964212  0.0545226 -0.381996 0.00736785  0.0349932 -0.504589 0.00447893  0.0681012 -0.516421 0.00871348  0.0733643 -0.475828 0.006001  0.0358969 -0.503204 0.00674605  0.0423862 -0.463168 0.00461721  0.0742074 -0.474395 0.00902081  0.0432901 -0.461745 0.0069561  0.0169513 -0.590051 0.00421071  0.0523734 -0.603175 0.00810742  0.0600153 -0.560653 0.00558496  0.0178175 -0.588809 0.00633574  0.0265356 -0.546844 0.00435114  0.0608181 -0.559363 0.00839567  0.0274031 -0.545569 0.00654459  -0.00516403 -0.678614 0.00392914  0.0322948 -0.693003 0.0074954  0.042104 -0.648891 0.00518584  -0.00435007 -0.67751 0.00591612  0.0064106 -0.633936 0.00407171  0.0428613 -0.647731 0.00779462  0.00722754 -0.632799 0.00612354  -0.0309842 -0.769774 0.00364113  0.00825202 -0.785367 0.00690579  0.0200456 -0.739931 0.00478768  -0.0302267 -0.768787 0.00547981  -0.0175987 -0.723861 0.00378633  0.0207431 -0.738886 0.0072  -0.0168383 -0.722848 0.00569463  -0.0601369 -0.863067 0.00336194  -0.0193744 -0.879786 0.00632286  -0.00577521 -0.833271 0.00440264  -0.0594444 -0.862189 0.0050571  -0.0451317 -0.816141 0.00350833  -0.00512791 -0.83234 0.00661016  -0.0444343 -0.815238 0.00527024  -0.0922887 -0.958111 0.0030911  -0.0501806 -0.975884 0.00576377  -0.0349809 -0.928472 0.00401545  -0.0916569 -0.957336 0.00464892  -0.0758259 -0.910352 0.0032258  -0.0343881 -0.927636 0.00603414  -0.0751873 -0.909556 0.00484586  -0.127098 -1.05459 0.00283289  -0.0838282 -1.07332 0.00524187  -0.0671891 -1.02518 0.00366139  -0.126536 -1.0539 0.00425458  -0.109346 -1.00616 0.00296116  -0.0666604 -1.02445 0.00549722  -0.108775 -1.00545 0.00444436  -0.164272 -1.15223 0.0025785  -0.12 -1.17181 0.00473404  -0.102083 -1.12311 0.00331116  -0.16377 -1.15162 0.00386333  -0.145379 -1.10325 0.00269699  -0.101614 -1.12245 0.00497413  -0.14487 -1.10262 0.00405097  -0.203491 -1.25075 0.00231695  -0.158375 -1.27113 0.00423241  -0.139329 -1.22197 0.00297832  -0.203059 -1.25023 0.00348496  -0.183611 -1.20137 0.00243902  -0.138922 -1.22138 0.0044775  -0.183167 -1.20082 0.00366569  -0.244532 -1.35002 0.00208163  -0.198663 -1.37107 0.00377846  -0.178637 -1.32157 0.00267124  -0.244142 -1.34956 0.00312042  -0.223782 -1.30029 0.00219345  -0.178287 -1.32103 0.00400376  -0.223382 -1.29981 0.00329995  -0.287109 -1.44982 0.00185728  -0.24061 -1.47145 0.00333929  -0.219749 -1.42167 0.00237632  -0.286781 -1.44941 0.00278187  -0.265618 -1.39984 0.00197005  -0.21944 -1.42121 0.00356007  -0.265268 -1.39942 0.00295115  -0.331017 -1.55 0.00163388  -0.283977 -1.57214 0.00293398  -0.262374 -1.52217 0.00208974  -0.330726 -1.54963 0.00245762  -0.308881 -1.49984 0.0017457  -0.262134 -1.52176 0.00313163  -0.308597 -1.49947 0.00261974  -0.376033 -1.65043 0.00144625  -0.328542 -1.673 0.00255418  -0.306322 -1.62291 0.00183582  -0.375781 -1.65011 0.00216055  -0.353368 -1.60017 0.00153852  -0.306121 -1.62256 0.00273895  -0.353124 -1.59984 0.00230598  -0.421952 -1.75101 0.00124431  -0.37409 -1.77393 0.00219893  -0.351357 -1.72378 0.00158215  -0.421738 -1.75072 0.00187159  -0.39886 -1.70068 0.00134182  -0.351199 -1.72345 0.00237703  -0.398653 -1.7004 0.00201273  -0.468599 -1.85161 0.00106478  -0.420427 -1.87482 0.00186586  -0.397282 -1.82466 0.00135684  -0.46843 -1.85137 0.00159454  -0.445156 -1.80128 0.00115418  -0.397165 -1.82438 0.00202346  -0.444998 -1.80104 0.00172687  -0.515835 -1.95219 0.000897646  -0.467399 -1.97562 0.00154328  -0.443931 -1.92548 0.00113368  -0.515692 -1.95197 0.00134182  -0.492117 -1.90188 0.000975132  -0.443841 -1.92523 0.00170493  -0.491991 -1.90168 0.00146508  -0.563482 -2.05264 0.00074482  -0.514863 -2.07626 0.00127149  -0.491134 -2.02618 0.000941038  -0.563389 -2.05246 0.00111866  -0.539578 -2.00241 0.000816822  -0.491075 -2.02596 0.00141287  -0.539492 -2.00223 0.00122404  -0.61145 -2.15292 0.000603676  -0.56266 -2.17667 0.00102043  -0.538753 -2.12668 0.000763178  -0.611378 -2.15276 0.000906944  -0.587408 -2.10278 0.000677586  -0.538722 -2.1265 0.00114155  -0.587348 -2.10263 0.00100493  -0.659613 -2.25298 0.00047183  -0.610689 -2.27682 0.000787973  -0.58666 -2.22693 0.000607967  -0.659552 -2.25284 0.00070262  -0.635483 -2.20296 0.000528097  -0.586644 -2.22678 0.000906467  -0.635438 -2.20283 0.000797987  -0.707862 -2.35278 0.000349998  -0.658855 -2.37668 0.000584364  -0.634755 -2.32692 0.000451326  -0.707826 -2.35267 0.000529051  -0.6837 -2.30289 0.000407457  -0.634758 -2.32679 0.000681162  -0.683679 -2.30279 0.000612736  -0.75613 -2.45231 0.000239134  -0.707058 -2.47622 0.000401258  -0.682929 -2.42662 0.000329256  -0.756103 -2.4522 0.000360727  -0.731973 -2.40256 0.00029254  -0.682952 -2.42649 0.000489712  -0.73196 -2.40247 0.000444174  -0.804355 -2.55153 0.000148296  -0.755221 -2.57546 0.000240564  -0.731107 -2.52599 0.000203133  -0.804338 -2.55143 0.000223637  -0.78022 -2.50194 0.000196695  -0.731146 -2.52588 0.00031352  -0.780228 -2.50185 0.000294447  -0.852502 -2.65045 5.72205e-05  -0.803325 -2.67437 0.000103712  -0.779233 -2.62507 0.000114918  -0.852482 -2.65036 9.58443e-05  -0.828415 -2.601 0.000104427  -0.77928 -2.62495 0.000173807  -0.828423 -2.60093 0.00015974  -0.900467 -2.74907 -1.35899e-05  -0.851293 -2.77301 -5.29289e-05  -0.82728 -2.72382 2.3365e-05  -0.900456 -2.74898 -2.69413e-05  -0.876477 -2.69977 1.5974e-05  -0.827329 -2.72372 2.76566e-05  -0.876493 -2.69971 3.0756e-05  0.0134161 -0.0310359 0.00488329  0 0 0  0.0173231 -0.0387158 0.00880337  0.00510077 -0.0207825 0.00311208  0 0 0  0.0137069 -0.0302948 0.00763154  0.00402283 -0.015366 0.00269008  0 0 0  0.00517155 -0.0202997 0.00489426  0.00409005 -0.0149885 0.00424504  0.0383075 -0.0695591 0.00795674  0.0482915 -0.0782239 0.014266  0.0320183 -0.0589861 0.00779796  0.0390554 -0.068318 0.0122283  0.025311 -0.0494566 0.00668716  0.0325536 -0.057873 0.0120327  0.0258391 -0.0484995 0.0103376  0.063451 -0.113911 0.00924659  0.0777861 -0.122194 0.0165222  0.0627447 -0.100655 0.0103014  0.0644032 -0.112362 0.0140274  0.051331 -0.0907044 0.00876141  0.0636359 -0.0991691 0.0156913  0.0522117 -0.089332 0.0133662  0.0841116 -0.166173 0.00945282  0.102183 -0.174635 0.0168896  0.0897242 -0.148932 0.0111537  0.0850587 -0.164487 0.0142395  0.0744672 -0.138944 0.00942373  0.09068 -0.14729 0.0168483  0.0754147 -0.137353 0.0142465  0.0990474 -0.226528 0.00916862  0.120704 -0.235515 0.0163896  0.111314 -0.205747 0.0110939  0.099968 -0.224786 0.0138044  0.0923443 -0.195332 0.00934196  0.11223 -0.204046 0.0167015  0.0932668 -0.193647 0.0140684  0.107923 -0.294188 0.00869656  0.132955 -0.304039 0.0155478  0.12675 -0.270546 0.0106392  0.108827 -0.292488 0.0130839  0.104266 -0.259448 0.0089488  0.127624 -0.268872 0.015996  0.105158 -0.257763 0.0134592  0.1108 -0.368233 0.00817347  0.138942 -0.379133 0.0145943  0.135881 -0.342419 0.0100293  0.11169 -0.36662 0.012296  0.110127 -0.330426 0.00844407  0.136728 -0.34082 0.0150795  0.111002 -0.328808 0.0127041  0.107918 -0.447696 0.0076375  0.138867 -0.459773 0.0135684  0.13883 -0.420321 0.00936866  0.108782 -0.446211 0.0114765  0.11009 -0.4073 0.00790262  0.139648 -0.418815 0.0140765  0.110946 -0.405786 0.011888  0.099597 -0.531691 0.00709009  0.133071 -0.544971 0.0125558  0.135881 -0.503232 0.00869703  0.100432 -0.53032 0.0106564  0.104439 -0.489138 0.00735807  0.136671 -0.501844 0.0130644  0.105273 -0.487738 0.011065  0.0862299 -0.619417 0.00655365  0.121933 -0.633919 0.0115635  0.127384 -0.590276 0.00802636  0.0870301 -0.618189 0.00984645  0.093542 -0.575088 0.00682259  0.128146 -0.589022 0.0120654  0.0943416 -0.573824 0.0102446  0.0682474 -0.71021 0.00603676  0.105931 -0.72589 0.0106175  0.113808 -0.680707 0.00738215  0.0690017 -0.709101 0.00907063  0.0778209 -0.664434 0.00629497  0.11452 -0.679563 0.0110819  0.0785735 -0.663293 0.00945711  0.0460593 -0.803501 0.00552344  0.0854703 -0.820305 0.00969529  0.0955695 -0.773854 0.00676465  0.0467627 -0.80251 0.0083003  0.0576854 -0.756536 0.00578165  0.0962303 -0.772825 0.0101531  0.0583873 -0.755519 0.00867915  0.0200995 -0.898794 0.00504231  0.0610205 -0.91666 0.0088098  0.073107 -0.869173 0.00615478  0.0207466 -0.89792 0.00757289  0.03356 -0.85089 0.00528407  0.0737202 -0.868258 0.00924087  0.0342116 -0.849981 0.00793886  -0.00925612 -0.995707 0.00458288  0.0329753 -1.01453 0.00798106  0.0468711 -0.96624 0.0055902  -0.00867534 -0.994923 0.00688076  0.00584888 -0.947042 0.00481081  0.0474284 -0.965425 0.00839067  0.00644243 -0.946239 0.0072248  -0.0416312 -1.09388 0.00414395  0.00173795 -1.11357 0.00718975  0.0172384 -1.06465 0.00504947  -0.0411061 -1.09318 0.00621676  -0.0250539 -1.04462 0.00436521  0.0177344 -1.06392 0.00757933  -0.0245309 -1.04391 0.00654387  -0.0766875 -1.19304 0.00371242  -0.032316 -1.21351 0.0064342  -0.0153912 -1.1641 0.00453496  -0.0762125 -1.19242 0.00558233  -0.0588191 -1.14333 0.00392413  -0.0149524 -1.16344 0.006809  -0.05834 -1.14269 0.00589919  -0.114083 -1.29296 0.00332165  -0.068857 -1.31411 0.00573468  -0.0506809 -1.26433 0.00405359  -0.113669 -1.29241 0.00499177  -0.0950822 -1.24289 0.0035212  -0.0502908 -1.26374 0.0060823  -0.0946614 -1.24233 0.00528288  -0.153521 -1.39341 0.00295472  -0.107554 -1.41518 0.00507569  -0.0882931 -1.3651 0.00359797  -0.153168 -1.39292 0.00442934  -0.133537 -1.34311 0.00313663  -0.0879471 -1.36461 0.00540423  -0.13317 -1.3426 0.00470805  -0.194756 -1.49423 0.00260258  -0.148146 -1.51651 0.00446391  -0.127919 -1.46628 0.00317359  -0.194423 -1.4938 0.00389719  -0.173898 -1.44376 0.00277209  -0.127635 -1.46581 0.00476003  -0.173591 -1.44332 0.00415993  -0.237477 -1.59529 0.00227261  -0.190337 -1.61802 0.00387359  -0.169296 -1.56766 0.00277734  -0.237212 -1.59491 0.00341511  -0.215912 -1.54471 0.00243258  -0.169051 -1.56725 0.00416279  -0.215638 -1.54433 0.00365329  -0.281496 -1.69645 0.00196624  -0.233905 -1.71954 0.00334573  -0.212163 -1.66914 0.00240159  -0.281273 -1.69613 0.00294375  -0.259311 -1.64584 0.00211787  -0.211965 -1.66878 0.00361323  -0.259089 -1.64551 0.00317335  -0.326588 -1.79763 0.00168514  -0.278626 -1.821 0.00284863  -0.256287 -1.77061 0.00205231  -0.326405 -1.79733 0.00252652  -0.303896 -1.74702 0.00181699  -0.256134 -1.77028 0.00308204  -0.30371 -1.74673 0.00272703  -0.372527 -1.89871 0.00142312  -0.324262 -1.92232 0.0023787  -0.301453 -1.87197 0.00174046  -0.372389 -1.89846 0.00213289  -0.349433 -1.84816 0.00154853  -0.301339 -1.87169 0.00261521  -0.349298 -1.84791 0.00232434  -0.4192 -1.99965 0.00117207  -0.370671 -2.02343 0.00196481  -0.34746 -1.97315 0.00145054  -0.419081 -1.99943 0.00175953  -0.395761 -1.94918 0.00129509  -0.347377 -1.97291 0.00217414  -0.395652 -1.94896 0.0019412  -0.466398 -2.10038 0.000955105  -0.417677 -2.12428 0.00158238  -0.394159 -2.0741 0.00118041  -0.466313 -2.10019 0.00143695  -0.442704 -2.05002 0.00106192  -0.394105 -2.07388 0.00177145  -0.44263 -2.04983 0.00159574  -0.513985 -2.20084 0.000754595  -0.465112 -2.22482 0.00123692  -0.441374 -2.17477 0.000943184  -0.513929 -2.20067 0.0011301  -0.490119 -2.15062 0.00085783  -0.441344 -2.17459 0.00140929  -0.490072 -2.15046 0.00127673  -0.561864 -2.30101 0.000576496  -0.51287 -2.32503 0.000947714  -0.488961 -2.27512 0.000726223  -0.561816 -2.30087 0.000859737  -0.537862 -2.25094 0.000663996  -0.488957 -2.27496 0.00108957  -0.537838 -2.2508 0.000992775  -0.609901 -2.40086 0.000415802  -0.560817 -2.4249 0.000675917  -0.5368 -2.37515 0.000542402  -0.609869 -2.40074 0.000625372  -0.585835 -2.35095 0.000501394  -0.536817 -2.375 0.000800133  -0.58582 -2.35084 0.000748873  -0.658002 -2.50039 0.000290871  -0.608865 -2.52441 0.000469208  -0.584803 -2.47483 0.000382185  -0.657984 -2.50029 0.000435114  -0.633923 -2.45064 0.000350237  -0.584826 -2.47469 0.000566721  -0.633915 -2.45056 0.000531435  -0.706104 -2.5996 0.000173092  -0.656926 -2.62359 0.000277996  -0.632855 -2.57416 0.000243664  -0.706095 -2.5995 0.000249147  -0.682031 -2.55002 0.000230074  -0.632893 -2.57404 0.000372171  -0.682042 -2.54993 0.000350475  -0.754167 -2.69849 7.15256e-05  -0.704967 -2.72245 0.000104189  -0.680898 -2.67317 0.000130892  -0.754161 -2.69839 0.000105619  -0.730115 -2.64905 0.00012064  -0.680947 -2.67305 0.000186443  -0.730129 -2.64897 0.000182867  -0.802146 -2.79712 -2.5034e-05  -0.752951 -2.82107 -4.45843e-05  -0.728909 -2.7719 1.54972e-05  -0.80214 -2.79702 -4.22001e-05  -0.778141 -2.7478 2.24113e-05  -0.728957 -2.77178 3.52859e-05  -0.778164 -2.74773 3.26633e-05  0.0228169 -0.051217 0.00643063  0 0 0  0.0312189 -0.0644262 0.0111778  0.0102122 -0.038888 0.00399685  0 0 0  0.0230863 -0.0501508 0.0100071  0.00666447 -0.0280792 0.0034492  0 0 0  0.0102354 -0.0380307 0.00628257  0.00672443 -0.027456 0.00541353  0.0584137 -0.0906457 0.0106175  0.0716136 -0.10016 0.0182972  0.0524264 -0.0830861 0.00996137  0.0591497 -0.0890419 0.0162868  0.0412287 -0.0704274 0.00886607  0.0528157 -0.0814346 0.0153871  0.0417245 -0.0690831 0.0136862  0.0909605 -0.134456 0.0124876  0.107085 -0.143962 0.02126  0.0886885 -0.122592 0.0132449  0.0919428 -0.132728 0.0189316  0.0750878 -0.11135 0.0117939  0.0895524 -0.120774 0.0201893  0.0759727 -0.109715 0.0179617  0.119051 -0.187227 0.0128729  0.138739 -0.196978 0.0218365  0.1227 -0.170981 0.0143857  0.120045 -0.185466 0.019412  0.10574 -0.159616 0.0128055  0.123678 -0.169171 0.0217538  0.10673 -0.157908 0.019351  0.141145 -0.248704 0.0125504  0.164251 -0.259179 0.0212531  0.151355 -0.228664 0.0143466  0.1421 -0.24697 0.0188835  0.130926 -0.216845 0.0127685  0.152337 -0.226929 0.0216374  0.131877 -0.215141 0.019233  0.156755 -0.318002 0.0119145  0.183102 -0.329435 0.0202076  0.173615 -0.295001 0.0137918  0.157671 -0.316343 0.0179207  0.149802 -0.282382 0.01226  0.174549 -0.293342 0.0207617  0.150715 -0.280731 0.0184367  0.165827 -0.393981 0.0111694  0.195143 -0.406528 0.0189173  0.189099 -0.368727 0.013016  0.166715 -0.392425 0.0167942  0.162133 -0.35516 0.0115557  0.189985 -0.367172 0.0195644  0.163015 -0.353595 0.0173764  0.168556 -0.475541 0.0103803  0.200545 -0.489268 0.0175653  0.197815 -0.448679 0.0121365  0.169409 -0.474107 0.0156093  0.167997 -0.434077 0.0107794  0.198672 -0.447245 0.0182428  0.168844 -0.432619 0.0162024  0.165271 -0.561692 0.0095942  0.199661 -0.576603 0.0162256  0.200054 -0.53372 0.0112355  0.166105 -0.560384 0.01442  0.167676 -0.518057 0.00998998  0.200875 -0.532405 0.0168905  0.168491 -0.516717 0.0150123  0.156393 -0.651581 0.00882483  0.192917 -0.667657 0.0149026  0.196221 -0.622909 0.0103424  0.157194 -0.650396 0.0132608  0.161542 -0.606175 0.0092063  0.196999 -0.621712 0.0155435  0.162322 -0.604967 0.0138342  0.14241 -0.744452 0.00808835  0.180786 -0.761645 0.0136273  0.186758 -0.715399 0.00949025  0.143149 -0.743392 0.0121431  0.150035 -0.697645 0.00845218  0.187498 -0.714329 0.0142519  0.150782 -0.696555 0.0126956  0.123749 -0.839722 0.00736403  0.163774 -0.857964 0.0124042  0.172189 -0.81051 0.00865269  0.124434 -0.838775 0.0110617  0.13366 -0.791794 0.00771737  0.172861 -0.809546 0.0130002  0.134353 -0.790813 0.0115938  0.100867 -0.936864 0.00667977  0.142349 -0.956078 0.0112393  0.152972 -0.907677 0.00786114  0.101515 -0.936026 0.0100396  0.112838 -0.888053 0.00701857  0.153587 -0.90682 0.0118101  0.113477 -0.887187 0.0105402  0.0742389 -1.03547 0.00604415  0.116964 -1.05555 0.0101306  0.12954 -1.0064 0.00712013  0.0748178 -1.03472 0.0090661  0.0880339 -0.985973 0.00636172  0.130125 -1.00567 0.0106788  0.0886149 -0.985209 0.00955033  0.0442439 -1.13517 0.0054388  0.0880584 -1.15604 0.00910664  0.102418 -1.10636 0.00639749  0.0447638 -1.13451 0.00816178  0.059672 -1.08517 0.00573301  0.102938 -1.10567 0.00961232  0.0601919 -1.08448 0.0086031  0.0112746 -1.2357 0.00485682  0.0560567 -1.25724 0.0081284  0.0719714 -1.20718 0.00575113  0.0117486 -1.2351 0.00728703  0.0281436 -1.18532 0.00514054  0.0724287 -1.20657 0.00861812  0.0286093 -1.18472 0.00771475  -0.0243239 -1.33681 0.00431585  0.0212793 -1.35897 0.00721478  0.0385864 -1.30859 0.00510573  -0.0239019 -1.33629 0.00648069  -0.00618768 -1.28617 0.00458884  0.0389805 -1.30806 0.0076623  -0.00577331 -1.28563 0.00687933  -0.0621936 -1.43832 0.00381756  -0.015873 -1.46097 0.00635982  0.00262737 -1.41043 0.00451827  -0.061821 -1.43783 0.00572109  -0.0429535 -1.38749 0.00406575  0.00298572 -1.40995 0.00678039  -0.0425932 -1.38703 0.00609756  -0.102051 -1.54002 0.00333166  -0.0551243 -1.56312 0.00556159  -0.0355566 -1.51247 0.00396657  -0.101737 -1.5396 0.00500607  -0.0818629 -1.48913 0.00357556  -0.0352647 -1.51205 0.00595808  -0.0815508 -1.4887 0.00536156  -0.143635 -1.64182 0.00289559  -0.0961804 -1.66528 0.00480604  -0.075701 -1.61459 0.00345445  -0.143356 -1.64145 0.00435281  -0.122616 -1.59089 0.0031178  -0.0754516 -1.61421 0.0051887  -0.122349 -1.59053 0.00467348  -0.186658 -1.74358 0.00249505  -0.138787 -1.76733 0.00413656  -0.117514 -1.71667 0.00297213  -0.186434 -1.74326 0.00374198  -0.164948 -1.69268 0.00269198  -0.117306 -1.71632 0.00445056  -0.164723 -1.69236 0.00403643  -0.230921 -1.84522 0.00211668  -0.182671 -1.8692 0.00349236  -0.160726 -1.81858 0.00255132  -0.230736 -1.84495 0.00317693  -0.208624 -1.7944 0.00229573  -0.160574 -1.81829 0.0038147  -0.208435 -1.79412 0.00344849  -0.276192 -1.94665 0.00176334  -0.227645 -1.97078 0.00290728  -0.205171 -1.92027 0.0021174  -0.276041 -1.94641 0.00264335  -0.25342 -1.89595 0.00193167  -0.205038 -1.92003 0.0031786  -0.253272 -1.89571 0.00289536  -0.322287 -2.04783 0.00145483  -0.273526 -2.07206 0.00238943  -0.250587 -2.02167 0.00177264  -0.322165 -2.04762 0.00217414  -0.299127 -1.99726 0.00160623  -0.250492 -2.02145 0.00264335  -0.299012 -1.99705 0.00240469  -0.369045 -2.14871 0.00116658  -0.32009 -2.17299 0.00189686  -0.296781 -2.12276 0.0014255  -0.368959 -2.14853 0.00174356  -0.345565 -2.09829 0.00130463  -0.296721 -2.12256 0.00213623  -0.345485 -2.09811 0.00195551  -0.416289 -2.24924 0.000910044  -0.367202 -2.27352 0.00148416  -0.343622 -2.22346 0.001127  -0.416223 -2.24908 0.00135899  -0.392585 -2.199 0.0010376  -0.343588 -2.22331 0.00167727  -0.392534 -2.19885 0.00154638  -0.463896 -2.34942 0.000686646  -0.414714 -2.37366 0.00112247  -0.390918 -2.32379 0.000875473  -0.463851 -2.34929 0.00103188  -0.44002 -2.29935 0.000796556  -0.390914 -2.32365 0.00129604  -0.439997 -2.29923 0.00118971  -0.51173 -2.44923 0.000500679  -0.462504 -2.47344 0.000800133  -0.438571 -2.42373 0.000650167  -0.511714 -2.44912 0.000741243  -0.487766 -2.39936 0.00058651  -0.438579 -2.4236 0.000950336  -0.487753 -2.39924 0.000876188  -0.559719 -2.54869 0.000330925  -0.51045 -2.5728 0.000537395  -0.486429 -2.52329 0.000442266  -0.5597 -2.54858 0.000496626  -0.535689 -2.49898 0.000412703  -0.486462 -2.52316 0.000652552  -0.535689 -2.49889 0.000612736  -0.607738 -2.64779 0.000194311  -0.558476 -2.67184 0.000330687  -0.53442 -2.62247 0.000282288  -0.607731 -2.64769 0.000287056  -0.5837 -2.59826 0.000261784  -0.534459 -2.62236 0.000415564  -0.583714 -2.59817 0.000395536  -0.655747 -2.7466 8.29697e-05  -0.606492 -2.77059 0.00014782  -0.582434 -2.72135 0.000152349  -0.655755 -2.74651 0.000125647  -0.631722 -2.69721 0.000139952  -0.582481 -2.72125 0.000226021  -0.631741 -2.69713 0.000201225  -0.703744 -2.84521 -2.40803e-05  -0.654519 -2.86917 -3.09944e-05  -0.63045 -2.82001 4.05312e-05  -0.703753 -2.84511 -3.8147e-05  -0.679721 -2.79591 2.93255e-05  -0.630509 -2.81989 5.4121e-05  -0.679751 -2.79582 4.41074e-05  -0.0346404 -0.0437447 -0.00523591  -0.013813 -0.0242747 1.66893e-06  0 0 0  -0.0203392 -0.0286061 -3.8147e-06  0 0 0  -0.0123563 -0.0182942 -0.00365615  -0.0039666 -0.00745168 -7.15256e-07  0 0 0  -0.013728 -0.0240705 -0.00298643  -0.020269 -0.0282957 -0.0043993  -0.00613445 -0.0130055 -3.8147e-06  0 0 0  -0.00396011 -0.00734469 -0.00205564  -0.00610911 -0.0128703 -0.0024128  -0.0730991 -0.0644158 -0.00817156  -0.0542716 -0.0532056 6.91414e-06  -0.0539747 -0.0557777 -7.39098e-06  -0.0387063 -0.047148 -0.00594521  -0.0245265 -0.0324375 4.29153e-06  -0.0540788 -0.0526962 -0.00689602  -0.0538714 -0.0552348 -0.00705194  -0.036935 -0.0414503 9.53674e-07  -0.0245196 -0.0321031 -0.0049572  -0.0368508 -0.0410468 -0.00593448  -0.112066 -0.0920914 -0.00951862  -0.092412 -0.0781126 -8.58307e-06  -0.0887849 -0.0860082 -6.91414e-06  -0.0688962 -0.0800226 -0.00698256  -0.0536638 -0.0632209 -1.19209e-06  -0.0922587 -0.0774534 -0.00902653  -0.0886732 -0.0853534 -0.00825953  -0.0711285 -0.0700265 -4.76837e-06  -0.0536322 -0.0627115 -0.0065999  -0.071038 -0.0694519 -0.00781035  -0.152221 -0.12575 -0.00965381  -0.13218 -0.108682 0  -0.124853 -0.122918 -4.76837e-07  -0.100361 -0.119811 -0.00711083  -0.0845196 -0.0996084 7.62939e-06  -0.132059 -0.107988 -0.00971556  -0.124724 -0.122257 -0.00836992  -0.10669 -0.103533 1.43051e-06  -0.0844609 -0.0990416 -0.00712538  -0.106591 -0.10291 -0.00840926  -0.192668 -0.166433 -0.00905514  -0.172561 -0.145899 -4.05312e-06  -0.161647 -0.166689 -4.76837e-07  -0.133032 -0.166411 -0.00667071  -0.116663 -0.142855 -7.15256e-07  -0.172442 -0.145248 -0.00942445  -0.161474 -0.166089 -0.00784969  -0.143163 -0.143938 -5.00679e-06  -0.116555 -0.142296 -0.0069294  -0.14303 -0.143342 -0.0081625  -0.233046 -0.213733 -0.00810647  -0.213025 -0.189879 -4.52995e-06  -0.198955 -0.216847 -9.53674e-07  -0.166814 -0.219239 -0.00598335  -0.149934 -0.192607 1.19209e-06  -0.212887 -0.189313 -0.00862169  -0.198742 -0.216323 -0.00704455  -0.180231 -0.190983 -2.86102e-06  -0.149789 -0.192094 -0.00633574  -0.180058 -0.190459 -0.00746393  -0.273389 -0.267109 -0.0071373  -0.25339 -0.240206 -2.38419e-07  -0.236733 -0.272795 -2.38419e-06  -0.201634 -0.277668 -0.00521517  -0.184278 -0.24824 3.09944e-06  -0.253232 -0.239728 -0.00762534  -0.236494 -0.272341 -0.00616932  -0.217765 -0.244107 2.86102e-06  -0.184094 -0.247786 -0.00559902  -0.217556 -0.24365 -0.00659585  -0.313907 -0.326026 -0.00618219  -0.293804 -0.296338 1.19209e-06  -0.275107 -0.333985 -7.15256e-07  -0.237549 -0.341138 -0.00451446  -0.219667 -0.309185 4.29153e-06  -0.293628 -0.295943 -0.00664806  -0.274859 -0.333606 -0.00534916  -0.255814 -0.302741 -1.19209e-06  -0.219447 -0.308805 -0.00486445  -0.255595 -0.302362 -0.00574589  -0.354872 -0.389929 -0.00536251  -0.334537 -0.357757 5.96046e-06  -0.314262 -0.399931 -2.38419e-07  -0.274643 -0.409156 -0.00389075  -0.256165 -0.374935 1.19209e-06  -0.334339 -0.357406 -0.00576544  -0.314006 -0.399611 -0.00460672  -0.294568 -0.366373 2.86102e-06  -0.255944 -0.374606 -0.00418663  -0.294332 -0.366057 -0.00497007  -0.396501 -0.458314 -0.00464559  -0.375788 -0.423896 -2.38419e-06  -0.354327 -0.470168 -9.53674e-07  -0.31297 -0.481296 -0.00335908  -0.293865 -0.445015 3.09944e-06  -0.375601 -0.423603 -0.00499988  -0.35408 -0.469896 -0.0039897  -0.334155 -0.434523 3.09944e-06  -0.293646 -0.444731 -0.0036099  -0.333921 -0.43425 -0.00428581  -0.438923 -0.530727 -0.00401258  -0.4178 -0.494304 -9.53674e-07  -0.395434 -0.54428 -2.38419e-06  -0.352598 -0.557137 -0.00288558  -0.332831 -0.519011 5.96046e-06  -0.417617 -0.494051 -0.00432968  -0.395189 -0.544053 -0.00344563  -0.374729 -0.506746 -3.8147e-06  -0.332616 -0.51878 -0.00309992  -0.374505 -0.50652 -0.00371385  -0.482206 -0.606775 -0.00349927  -0.46062 -0.568551 4.76837e-06  -0.437572 -0.621858 -9.29832e-06  -0.393518 -0.636294 -0.0024848  -0.373085 -0.596528 -1.66893e-06  -0.460458 -0.56833 -0.00374508  -0.437365 -0.621659 -0.00299215  -0.416347 -0.582638 2.38419e-07  -0.37289 -0.596313 -0.00267982  -0.416139 -0.582443 -0.00320411  -0.526385 -0.686073 -0.00302076  -0.504338 -0.646239 -1.7643e-05  -0.480795 -0.702565 -7.15256e-07  -0.43568 -0.718431 -0.00214386  -0.414625 -0.677189 -2.86102e-06  -0.504192 -0.64604 -0.0032692  -0.48059 -0.702391 -0.00257301  -0.459039 -0.661826 -5.96046e-06  -0.414443 -0.677013 -0.00230575  -0.458845 -0.661655 -0.00277901  -0.571435 -0.768314 -0.00261426  -0.548936 -0.727041 6.4373e-06  -0.525019 -0.786049 -7.15256e-07  -0.479028 -0.8032 -0.00183105  -0.457365 -0.760666 2.14577e-06  -0.548802 -0.726854 -0.00280094  -0.524842 -0.785899 -0.00221729  -0.502759 -0.743961 -7.15256e-07  -0.457207 -0.760507 -0.00197315  -0.502591 -0.743817 -0.0023849  -0.61729 -0.853152 -0.00226378  -0.594392 -0.810578 -2.38419e-07  -0.570191 -0.872023 -1.19209e-06  -0.523466 -0.890324 -0.00155735  -0.501244 -0.846638 6.19888e-06  -0.594266 -0.810424 -0.00242543  -0.570035 -0.87188 -0.00189519  -0.547477 -0.828726 2.14577e-06  -0.501121 -0.846487 -0.00168729  -0.547328 -0.828597 -0.00205326  -0.663887 -0.940314 -0.00192404  -0.640601 -0.896604 -1.33514e-05  -0.616238 -0.9602 -1.19209e-06  -0.568882 -0.979527 -0.00131965  -0.546159 -0.934823 7.15256e-07  -0.640504 -0.896458 -0.00208592  -0.616077 -0.960068 -0.0016191  -0.593082 -0.915827 -3.33786e-06  -0.546058 -0.93468 -0.00143886  -0.592952 -0.915712 -0.00175905  -0.711135 -1.02956 -0.00163579  -0.687515 -0.984829 4.52995e-06  -0.663017 -1.05031 1.66893e-06  -0.615164 -1.07055 -0.00111175  -0.592006 -1.02495 -7.15256e-07  -0.687439 -0.984695 -0.0017755  -0.662882 -1.05019 -0.00136304  -0.639512 -1.005 -4.52995e-06  -0.591917 -1.02482 -0.00121617  -0.639391 -1.0049 -0.00148916  -0.758971 -1.12061 -0.00137901  -0.735051 -1.075 -4.29153e-06  -0.710452 -1.14212 9.77516e-06  -0.66219 -1.16317 -0.000907183  -0.638671 -1.11678 1.09673e-05  -0.734985 -1.07487 -0.00149226  -0.710342 -1.14203 -0.0011394  -0.686636 -1.096 2.14577e-06  -0.638582 -1.11667 -0.00100732  -0.68653 -1.09591 -0.00125313  -0.807241 -1.21326 -0.00113153  -0.783107 -1.16685 4.29153e-06  -0.758429 -1.23543 -1.07288e-05  -0.709826 -1.25715 -0.000757933  -0.685995 -1.2101 -1.90735e-06  -0.783053 -1.16674 -0.00123978  -0.758327 -1.23534 -0.000948906  -0.734354 -1.18858 1.43051e-06  -0.685933 -1.21 -0.000834465  -0.734272 -1.18851 -0.00104213  -0.855891 -1.3073 -0.00092721  -0.831558 -1.26023 -1.62125e-05  -0.806848 -1.33003 -7.15256e-07  -0.757974 -1.35232 -0.000615835  -0.733891 -1.3047 1.66893e-06  -0.831527 -1.26012 -0.00103402  -0.806752 -1.32995 -0.000765324  -0.782568 -1.28255 -2.14577e-06  -0.733839 -1.3046 -0.00067234  -0.782486 -1.2825 -0.00084424  -0.90481 -1.40254 -0.000736952  -0.880354 -1.35487 -7.15256e-06  -0.855593 -1.42572 -5.48363e-06  -0.806518 -1.44851 -0.00047493  -0.782232 -1.40039 -5.24521e-06  -0.880325 -1.35478 -0.000831604  -0.855512 -1.42565 -0.000602484  -0.831149 -1.37773 -1.66893e-06  -0.782199 -1.4003 -0.000533819  -0.831095 -1.37767 -0.000677109  -0.953933 -1.49877 -0.000563145  -0.929382 -1.45061 6.4373e-06  -0.904577 -1.52232 2.86102e-06  -0.855349 -1.54552 -0.000351906  -0.830924 -1.49699 4.05312e-06  -0.929348 -1.45054 -0.000653982  -0.904505 -1.52226 -0.000466108  -0.880031 -1.4739 -1.19209e-06  -0.830894 -1.49692 -0.000406265  -0.87998 -1.47385 -0.000532627  -1.00314 -1.59583 -0.00043869  -0.978539 -1.54729 -8.10623e-06  -0.953712 -1.61968 -3.33786e-06  -0.904365 -1.6432 -0.000257015  -0.879846 -1.59436 1.43051e-06  -0.978524 -1.5472 -0.000508547  -0.953647 -1.61962 -0.000350475  -0.9291 -1.5709 -2.86102e-06  -0.879828 -1.59428 -0.000304699  -0.929057 -1.57085 -0.000409842  -1.0524 -1.69357 -0.000314474  -1.02777 -1.6447 -8.82149e-06  -1.00291 -1.71765 -5.72205e-06  -0.9535 -1.74142 -0.00017643  -0.928933 -1.69232 5.24521e-06  -1.02778 -1.64462 -0.000385284  -1.00286 -1.7176 -0.000255108  -0.978279 -1.66858 -1.43051e-06  -0.928922 -1.69225 -0.000221252  -0.978246 -1.66854 -0.000298262  -1.10161 -1.79186 -0.0002141  -1.07702 -1.74273 -9.29832e-06  -1.05212 -1.81609 1.19209e-05  -1.00267 -1.84005 -0.000114679  -0.978083 -1.79074 -4.76837e-07  -1.07701 -1.74266 -0.000256777  -1.05206 -1.81605 -0.000145674  -1.0275 -1.76679 4.76837e-07  -0.978079 -1.79069 -0.000137806  -1.02747 -1.76677 -0.000197649  -1.15077 -1.89054 -0.000123501  -1.12618 -1.84121 -2.14577e-06  -1.10127 -1.91487 5.72205e-06  -1.0518 -1.93896 -5.07832e-05  -1.02723 -1.88953 4.76837e-06  -1.12621 -1.84116 -0.000166655  -1.10122 -1.91483 -8.13007e-05  -1.07667 -1.86543 2.38419e-06  -1.02723 -1.88948 -7.72476e-05  -1.07665 -1.8654 -0.00012207  -1.19977 -1.98948 -9.67979e-05  -1.17526 -1.94003 2.14577e-06  -1.1503 -2.01388 -1.66893e-06  -1.10084 -2.03804 -1.52588e-05  -1.07632 -1.98853 7.15256e-07  -1.17529 -1.93998 -8.86917e-05  -1.15027 -2.01384 -3.98159e-05  -1.12576 -1.96433 -1.66893e-06  -1.07633 -1.98848 -3.43323e-05  -1.12575 -1.96431 -6.29425e-05  -1.24864 -2.08859 -2.12193e-05  -1.22421 -2.03906 -9.53674e-06  -1.1992 -2.11299 -3.8147e-06  -1.14975 -2.13721 9.77516e-06  -1.12529 -2.08767 -3.8147e-06  -1.22423 -2.03902 -4.76837e-05  -1.19917 -2.11296 -6.67572e-06  -1.17474 -2.0634 -9.29832e-06  -1.12531 -2.08761 -1.90735e-06  -1.17473 -2.06338 -2.3365e-05  -1.29732 -2.18775 -8.82149e-06  -1.27297 -2.13823 1.90735e-06  -1.24793 -2.21213 -7.15256e-07  -1.1985 -2.23634 3.24249e-05  -1.17414 -2.18681 -3.57628e-06  -1.273 -2.13817 -2.38419e-07  -1.2479 -2.21208 1.33514e-05  -1.22356 -2.16254 -4.29153e-06  -1.17414 -2.18677 1.28746e-05  -1.22355 -2.16252 3.33786e-06  -1.34586 -2.28686 2.55108e-05  -1.32157 -2.23737 -2.6226e-05  -1.29649 -2.31118 4.05312e-06  -1.24709 -2.33538 3.50475e-05  -1.22279 -2.28592 6.91414e-06  -1.32161 -2.23731 -1.26362e-05  -1.29646 -2.31115 2.12193e-05  -1.2722 -2.26164 -1.43051e-06  -1.22281 -2.28587 3.8147e-05  -1.2722 -2.26163 1.90735e-05  -1.39427 -2.38585 3.31402e-05  -1.37005 -2.33641 1.66893e-06  -1.34491 -2.41012 1.19209e-05  -1.29552 -2.43427 2.28882e-05  -1.2713 -2.38488 7.15256e-07  -1.37006 -2.33638 1.71661e-05  -1.34489 -2.41008 3.24249e-05  -1.32069 -2.36065 8.10623e-06  -1.27131 -2.38485 3.31402e-05  -1.32069 -2.36063 2.43187e-05  -1.44264 -2.48469 1.66893e-06  -1.41843 -2.43533 1.43051e-06  -1.39325 -2.5089 -9.05991e-06  -1.34386 -2.53301 2.55108e-05  -1.31967 -2.4837 2.6226e-06  -1.41845 -2.43529 1.90735e-05  -1.39324 -2.50887 6.91414e-06  -1.36906 -2.45951 1.43051e-06  -1.31969 -2.48366 2.59876e-05  -1.36907 -2.45949 2.38419e-05  -0.00839859 -0.0132427 4.52995e-06  0 0 0  -0.0055937 -0.0100589 -0.00232577  -0.00177293 -0.00277831 -3.33786e-06  0 0 0  -0.00838617 -0.0130284 -0.00294805  -0.00248374 -0.00446992 -3.8147e-06  0 0 0  -0.00177388 -0.00270846 -0.00126648  -0.00246692 -0.00438537 -0.00162292  -0.0277134 -0.0412351 7.39098e-06  -0.0188394 -0.0371127 -0.00384617  -0.0113982 -0.0225237 6.91414e-06  -0.0276876 -0.0408452 -0.00486207  -0.0170378 -0.0261392 -9.53674e-07  -0.0113931 -0.0222917 -0.00319123  -0.017029 -0.0258629 -0.00404048  -0.0521717 -0.0767643 -2.38419e-07  -0.0374469 -0.074035 -0.00459123  -0.027658 -0.0550196 7.39098e-06  -0.0521082 -0.0762344 -0.00576901  -0.0395906 -0.0580868 2.14577e-06  -0.0276568 -0.0546508 -0.00431108  -0.0395559 -0.0576627 -0.00542879  -0.0788085 -0.119011 8.82149e-06  -0.0590703 -0.118296 -0.00469398  -0.048014 -0.0957402 -1.90735e-06  -0.0787033 -0.118453 -0.00587893  -0.0652379 -0.0969712 5.72205e-06  -0.0479667 -0.095285 -0.00470424  -0.0651707 -0.0964718 -0.00589156  -0.107235 -0.167982 5.00679e-06  -0.0829688 -0.169345 -0.0044117  -0.0708412 -0.143495 7.39098e-06  -0.10706 -0.167438 -0.00552583  -0.092796 -0.142644 5.72205e-06  -0.0707438 -0.143021 -0.00458097  -0.0926735 -0.142143 -0.00574017  -0.137299 -0.223053 -4.05312e-06  -0.109057 -0.226506 -0.00393295  -0.0959085 -0.197658 1.66893e-06  -0.13707 -0.222566 -0.00493979  -0.122047 -0.194745 -2.38419e-06  -0.0957386 -0.197204 -0.00418305  -0.121864 -0.194277 -0.00524902  -0.16895 -0.283615 6.91414e-06  -0.137299 -0.289091 -0.0034132  -0.123112 -0.257566 6.67572e-06  -0.16869 -0.283184 -0.00430989  -0.152898 -0.252633 4.05312e-06  -0.12291 -0.257151 -0.00367212  -0.152675 -0.252225 -0.00462627  -0.202174 -0.349075 -2.14577e-06  -0.167636 -0.356519 -0.00292039  -0.152419 -0.322587 -3.57628e-06  -0.201894 -0.348711 -0.00370598  -0.185336 -0.315709 0  -0.152201 -0.322222 -0.00315499  -0.185091 -0.315361 -0.00399828  -0.236976 -0.418971 1.66893e-06  -0.200012 -0.428271 -0.00247717  -0.183794 -0.392198 5.96046e-06  -0.236706 -0.418658 -0.00318074  -0.219346 -0.383459 2.14577e-06  -0.18357 -0.391875 -0.00269055  -0.219097 -0.383158 -0.00343394  -0.273383 -0.49285 -3.09944e-06  -0.234368 -0.50389 -0.00210476  -0.217161 -0.465889 -4.05312e-06  -0.273117 -0.492583 -0.00272107  -0.254953 -0.455401 4.29153e-06  -0.216938 -0.465618 -0.00228453  -0.254708 -0.455145 -0.00293803  -0.311365 -0.5703 -2.38419e-06  -0.270602 -0.582957 -0.00178766  -0.252448 -0.543263 -1.26362e-05  -0.311106 -0.570067 -0.0023191  -0.292151 -0.531112 7.15256e-07  -0.252254 -0.543013 -0.00194502  -0.291913 -0.530901 -0.00252175  -0.350868 -0.650938 -7.15256e-06  -0.308637 -0.665102 -0.00149584  -0.28959 -0.623871 5.00679e-06  -0.35064 -0.65074 -0.00199389  -0.330894 -0.610203 7.15256e-07  -0.289399 -0.623662 -0.00163794  -0.330677 -0.610019 -0.0021522  -0.391847 -0.734433 9.53674e-07  -0.348357 -0.749971 -0.00127816  -0.32846 -0.707405 7.15256e-07  -0.391635 -0.73425 -0.00169516  -0.371152 -0.692323 -1.90735e-06  -0.328287 -0.707215 -0.0013845  -0.370956 -0.692157 -0.00184417  -0.434184 -0.820436 3.8147e-06  -0.389632 -0.837236 -0.00106812  -0.368957 -0.793481 -3.09944e-06  -0.433991 -0.820279 -0.00144315  -0.412821 -0.777106 9.53674e-07  -0.3688 -0.793316 -0.00116968  -0.412645 -0.776963 -0.00157142  -0.477753 -0.908673 9.53674e-07  -0.432304 -0.926602 -0.000899315  -0.410917 -0.881816 6.91414e-06  -0.47758 -0.908534 -0.00123191  -0.455785 -0.864265 -2.38419e-07  -0.410796 -0.881661 -0.000978231  -0.455632 -0.864143 -0.001333  -0.522436 -0.998865 -4.76837e-06  -0.476226 -1.0178 -0.000745296  -0.45423 -0.972123 5.24521e-06  -0.52228 -0.99874 -0.00102997  -0.499942 -0.953513 2.6226e-06  -0.454112 -0.971986 -0.000813246  -0.499798 -0.953405 -0.00112867  -0.568106 -1.09077 -5.24521e-06  -0.521245 -1.11062 -0.000608444  -0.498701 -1.06414 4.76837e-07  -0.567968 -1.09066 -0.000862598  -0.545129 -1.04459 -2.38419e-07  -0.498604 -1.06402 -0.000662804  -0.545003 -1.0445 -0.000941038  -0.614631 -1.18416 7.62939e-06  -0.567222 -1.20479 -0.000477791  -0.54421 -1.15765 -1.43051e-06  -0.614499 -1.18406 -0.000701427  -0.591244 -1.13727 -2.6226e-06  -0.54412 -1.15755 -0.000543833  -0.591129 -1.13719 -0.000776768  -0.661835 -1.27881 9.53674e-07  -0.614005 -1.30014 -0.000381947  -0.590583 -1.25243 -4.29153e-06  -0.661733 -1.27873 -0.000562429  -0.638121 -1.23131 0  -0.59052 -1.25232 -0.0004282  -0.63803 -1.23124 -0.000630379  -0.709651 -1.37457 -9.53674e-06  -0.661446 -1.39649 -0.000285387  -0.637695 -1.34829 -5.00679e-06  -0.709548 -1.37449 -0.000448465  -0.685645 -1.32655 -3.33786e-06  -0.63764 -1.3482 -0.000334263  -0.685572 -1.32648 -0.000509739  -0.757911 -1.47122 -7.15256e-06  -0.709422 -1.49365 -0.000217915  -0.685405 -1.44505 -4.76837e-06  -0.757831 -1.47116 -0.000338554  -0.733696 -1.42276 7.15256e-07  -0.685369 -1.44497 -0.00025177  -0.733633 -1.42272 -0.000391245  -0.806531 -1.56863 1.66893e-06  -0.757804 -1.59148 -0.000144243  -0.733586 -1.54256 -6.19888e-06  -0.806458 -1.56857 -0.000246525  -0.782154 -1.51982 -2.38419e-06  -0.733561 -1.54248 -0.000173807  -0.782098 -1.51977 -0.000292778  -0.855396 -1.66665 6.91414e-06  -0.806482 -1.68983 -8.34465e-05  -0.782126 -1.64067 2.38419e-07  -0.855325 -1.66658 -0.00016737  -0.830904 -1.61755 6.4373e-06  -0.782098 -1.64059 -0.000114441  -0.830861 -1.6175 -0.000206709  -0.904403 -1.76512 -3.09944e-06  -0.855349 -1.78858 -4.1008e-05  -0.830904 -1.73923 7.15256e-07  -0.904342 -1.76506 -0.000120401  -0.879853 -1.71581 8.34465e-06  -0.830885 -1.73916 -6.41346e-05  -0.879814 -1.71576 -0.000133038  -0.953482 -1.86394 -5.24521e-06  -0.904318 -1.88761 -1.23978e-05  -0.879825 -1.83813 -3.57628e-06  -0.953427 -1.86389 -5.76973e-05  -0.928902 -1.81447 -3.57628e-06  -0.879822 -1.83806 -2.5034e-05  -0.928874 -1.81443 -8.36849e-05  -1.00255 -1.96298 -3.57628e-06  -0.953328 -1.98681 4.02927e-05  -0.928822 -1.93725 -2.14577e-06  -1.0025 -1.96294 -1.95503e-05  -0.977987 -1.91341 -8.34465e-06  -0.928821 -1.93719 6.67572e-06  -0.977965 -1.91339 -3.93391e-05  -1.05156 -2.06216 7.15256e-07  -1.00228 -2.0861 4.33922e-05  -0.977799 -2.03651 1.43051e-06  -1.05152 -2.06212 1.52588e-05  -1.02704 -2.01254 2.86102e-06  -0.977807 -2.03645 3.98159e-05  -1.02701 -2.01252 -7.15256e-07  -1.10046 -2.16137 -1.43051e-06  -1.05115 -2.18538 5.126e-05  -1.02672 -2.13579 -3.8147e-06  -1.10042 -2.16133 2.7895e-05  -1.07599 -2.11175 -2.38419e-07  -1.02672 -2.13574 4.41074e-05  -1.07598 -2.11172 2.5034e-05  -1.14921 -2.26051 -5.24521e-06  -1.09988 -2.28457 5.81741e-05  -1.07551 -2.23503 4.29153e-06  -1.14917 -2.26048 2.90871e-05  -1.12482 -2.21092 1.19209e-06  -1.07553 -2.23499 5.24521e-05  -1.12481 -2.21091 3.17097e-05  -1.19778 -2.35956 2.38419e-06  -1.14845 -2.38363 2.57492e-05  -1.12416 -2.33416 -5.00679e-06  -1.19775 -2.35953 3.67165e-05  -1.17348 -2.31003 -1.90735e-06  -1.12418 -2.33412 4.05312e-05  -1.17348 -2.31002 3.88622e-05  -1.24619 -2.45845 4.76837e-06  -1.19684 -2.4825 2.19345e-05  -1.17264 -2.43314 -6.19888e-06  -1.24617 -2.45841 3.62396e-05  -1.22198 -2.409 2.6226e-06  -1.17266 -2.43309 3.74317e-05  -1.22197 -2.40899 3.38554e-05  -1.29451 -2.55715 -1.23978e-05  -1.24511 -2.58117 3.02792e-05  -1.22096 -2.53191 2.86102e-06  -1.29447 -2.5571 1.45435e-05  -1.27032 -2.5078 -4.29153e-06  -1.22099 -2.53186 3.40939e-05  -1.27033 -2.50778 2.09808e-05  -0.0032579 -0.00892657 -4.05312e-06  0 0 0  -0.00136854 -0.00853729 -0.00111628  -0.000430636 -0.00183874 -5.72205e-06  0 0 0  -0.00324015 -0.00875887 -0.00169826  -0.00097131 -0.0019787 -7.15256e-07  0 0 0  -0.000430629 -0.00179833 -0.000600815  -0.000960596 -0.00192833 -0.000917435  -0.0117565 -0.0357103 2.6226e-06  -0.00552021 -0.0352988 -0.00191236  -0.00305493 -0.0205466 1.19209e-06  -0.0117233 -0.0353934 -0.00285411  -0.00687307 -0.0208235 1.43051e-06  -0.00304301 -0.0203848 -0.00154996  -0.00685197 -0.0206307 -0.00235271  -0.0248378 -0.0737033 -6.67572e-06  -0.0132571 -0.0740905 -0.00231624  -0.00899374 -0.0539035 -3.09944e-06  -0.0247826 -0.0732752 -0.00344348  -0.0178128 -0.053639 6.91414e-06  -0.00894889 -0.0536153 -0.00216103  -0.0177767 -0.0533196 -0.00321722  -0.0413441 -0.11974 1.43051e-06  -0.0245918 -0.121467 -0.00240374  -0.0185731 -0.0972472 -7.15256e-07  -0.041239 -0.119272 -0.00353384  -0.0327139 -0.0957867 3.09944e-06  -0.0184999 -0.0968774 -0.0023973  -0.0326477 -0.0953875 -0.0035305  -0.0607152 -0.172591 3.57628e-06  -0.0392904 -0.175838 -0.00225735  -0.0316427 -0.148251 2.38419e-06  -0.0605354 -0.172116 -0.00331545  -0.0506688 -0.145319 2.38419e-07  -0.0315331 -0.147842 -0.00234604  -0.0505404 -0.144889 -0.0034492  -0.0828173 -0.231502 -3.09944e-06  -0.0572649 -0.236344 -0.00196815  -0.0480414 -0.205774 -4.52995e-06  -0.0825902 -0.231056 -0.00294566  -0.0714085 -0.201285 -5.96046e-06  -0.0478656 -0.205358 -0.00211596  -0.0712197 -0.200859 -0.0031383  -0.107587 -0.295823 7.62939e-06  -0.0784448 -0.302315 -0.00166631  -0.0676538 -0.26907 -5.72205e-06  -0.107327 -0.295423 -0.00251913  -0.0948517 -0.262985 -1.90735e-06  -0.067459 -0.268684 -0.0018146  -0.0946259 -0.262595 -0.00273609  -0.134933 -0.364958 4.76837e-06  -0.102695 -0.373102 -0.00137019  -0.0903957 -0.337487 -1.90735e-06  -0.134659 -0.364603 -0.00213003  -0.120912 -0.329769 3.33786e-06  -0.0901902 -0.337134 -0.00151038  -0.12067 -0.329435 -0.00232792  -0.164737 -0.438365 -3.09944e-06  -0.129857 -0.448137 -0.00110197  -0.116141 -0.410428 -3.57628e-06  -0.164471 -0.438055 -0.00179219  -0.149504 -0.401116 -2.38419e-07  -0.115916 -0.410112 -0.0012362  -0.149257 -0.400813 -0.00195456  -0.196891 -0.515571 -3.8147e-06  -0.159756 -0.526922 -0.000890017  -0.144664 -0.487369 6.67572e-06  -0.196636 -0.5153 -0.00149417  -0.180497 -0.476476 2.14577e-06  -0.144467 -0.487076 -0.000991583  -0.180253 -0.476213 -0.00163627  -0.231251 -0.596125 -5.72205e-06  -0.192184 -0.608977 -0.000712395  -0.175851 -0.567804 2.86102e-06  -0.231011 -0.59589 -0.00125241  -0.213775 -0.555417 -3.09944e-06  -0.175657 -0.567555 -0.000798941  -0.213547 -0.555191 -0.0013659  -0.267682 -0.679671 2.86102e-06  -0.226968 -0.69393 -0.000556469  -0.209462 -0.651325 2.14577e-06  -0.26746 -0.679462 -0.00102353  -0.249191 -0.637509 -9.53674e-07  -0.209287 -0.651112 -0.000627756  -0.248983 -0.637323 -0.00113487  -0.306016 -0.765818 9.53674e-07  -0.263883 -0.781388 -0.000434399  -0.245325 -0.737537 -9.53674e-07  -0.305815 -0.765646 -0.000849009  -0.286588 -0.722404 0  -0.245162 -0.737356 -0.000488997  -0.286399 -0.722241 -0.000934124  -0.346109 -0.854279 3.09944e-06  -0.302757 -0.871033 -0.000323296  -0.283231 -0.826116 4.76837e-07  -0.345914 -0.854114 -0.000695467  -0.325824 -0.809749 5.72205e-06  -0.283084 -0.82595 -0.000375748  -0.325652 -0.809606 -0.000767469  -0.387772 -0.944729 9.53674e-07  -0.343383 -0.962572 -0.00023675  -0.322976 -0.916739 3.8147e-06  -0.387603 -0.944585 -0.000568628  -0.366715 -0.899236 2.38419e-06  -0.322858 -0.916582 -0.000278473  -0.366563 -0.899112 -0.000630617  -0.430834 -1.0369 -4.76837e-07  -0.385563 -1.05573 -0.000167847  -0.364399 -1.00909 -2.14577e-06  -0.430679 -1.03677 -0.000448227  -0.409105 -0.990582 -1.19209e-06  -0.364286 -1.00895 -0.000200033  -0.40897 -0.990469 -0.000509262  -0.475116 -1.13057 -2.38419e-06  -0.429106 -1.15028 -0.000107288  -0.407265 -1.10296 -3.8147e-06  -0.474983 -1.13046 -0.00035882  -0.452794 -1.08353 -2.38419e-06  -0.407173 -1.10284 -0.000133514  -0.452683 -1.08344 -0.000402212  -0.52048 -1.22551 4.05312e-06  -0.47382 -1.24599 -4.86374e-05  -0.45139 -1.19811 4.52995e-06  -0.520353 -1.22541 -0.000259876  -0.497638 -1.17786 3.33786e-06  -0.451322 -1.19799 -7.24792e-05  -0.497543 -1.17778 -0.000308037  -0.566743 -1.32152 2.38419e-07  -0.519548 -1.34269 -1.57356e-05  -0.496627 -1.29432 -1.21593e-05  -0.566633 -1.32144 -0.00019455  -0.543475 -1.27336 2.38419e-07  -0.496562 -1.29422 -3.38554e-05  -0.543383 -1.27329 -0.000227451  -0.613744 -1.41844 2.6226e-06  -0.56612 -1.44019 3.17097e-05  -0.542784 -1.39144 5.00679e-06  -0.61365 -1.41837 -0.000130415  -0.590125 -1.36985 -4.05312e-06  -0.542732 -1.39134 7.15256e-06  -0.590046 -1.36979 -0.000164986  -0.661358 -1.51608 -2.38419e-07  -0.613367 -1.53834 6.48499e-05  -0.589702 -1.48927 3.09944e-06  -0.661281 -1.51602 -7.65324e-05  -0.637458 -1.46716 3.33786e-06  -0.589656 -1.48919 4.45843e-05  -0.637388 -1.46711 -0.000105381  -0.70945 -1.61432 3.57628e-06  -0.661153 -1.637 8.03471e-05  -0.637218 -1.58769 -2.38419e-07  -0.709384 -1.61426 -2.7895e-05  -0.685325 -1.56512 -4.29153e-06  -0.637194 -1.5876 7.12872e-05  -0.685271 -1.56507 -5.79357e-05  -0.7579 -1.71302 -5.72205e-06  -0.709348 -1.73603 9.60827e-05  -0.685217 -1.68654 -1.19209e-06  -0.757836 -1.71296 7.15256e-07  -0.733611 -1.6636 0  -0.685198 -1.68647 7.96318e-05  -0.733564 -1.66355 -1.35899e-05  -0.806585 -1.81204 -1.12057e-05  -0.757846 -1.83533 9.56059e-05  -0.733576 -1.78572 3.09944e-06  -0.80653 -1.81198 2.59876e-05  -0.782191 -1.76247 -1.66893e-06  -0.73356 -1.78565 9.32217e-05  -0.782154 -1.76243 1.4782e-05  -0.85542 -1.91128 1.12057e-05  -0.806518 -1.93479 0.000108004  -0.782164 -1.8851 1.19209e-06  -0.855358 -1.91123 5.67436e-05  -0.830954 -1.86161 2.38419e-06  -0.782162 -1.88504 0.00010705  -0.830926 -1.86158 4.31538e-05  -0.904319 -2.01064 7.39098e-06  -0.855299 -2.03432 0.000107288  -0.830887 -1.98461 1.19209e-06  -0.904267 -2.01059 6.93798e-05  -0.879834 -1.96092 8.82149e-06  -0.830893 -1.98455 0.000104666  -0.879802 -1.9609 5.96046e-05  -0.953192 -2.11003 -2.86102e-06  -0.904088 -2.13383 9.89437e-05  -0.879677 -2.08414 -1.66893e-06  -0.953151 -2.10998 6.7234e-05  -0.928719 -2.0603 6.4373e-06  -0.879698 -2.08408 9.53674e-05  -0.928717 -2.06028 6.91414e-05  -1.002 -2.20939 4.05312e-06  -0.952837 -2.23328 8.58307e-05  -0.928447 -2.18362 1.43051e-06  -1.00196 -2.20934 7.00951e-05  -0.977569 -2.15969 4.76837e-07  -0.928464 -2.18357 8.82149e-05  -0.977568 -2.15967 6.7234e-05  -1.05068 -2.30862 5.00679e-06  -1.00148 -2.33257 7.22408e-05  -0.977146 -2.28299 0  -1.05065 -2.30859 5.91278e-05  -1.02632 -2.25899 2.14577e-06  -0.977165 -2.28294 7.20024e-05  -1.02632 -2.25898 6.38962e-05  -1.09923 -2.40771 -2.14577e-06  -1.04998 -2.43167 5.55515e-05  -1.02572 -2.38221 1.19209e-06  -1.09919 -2.40767 4.60148e-05  -1.07495 -2.35816 -2.86102e-06  -1.02574 -2.38214 5.65052e-05  -1.07494 -2.35815 5.05447e-05  -1.14759 -2.50658 1.66893e-06  -1.09832 -2.53057 2.47955e-05  -1.07414 -2.48119 1.43051e-06  -1.14757 -2.50654 2.88486e-05  -1.1234 -2.45715 2.38419e-06  -1.07416 -2.48114 4.64916e-05  -1.1234 -2.45712 4.55379e-05  -1.19581 -2.6052 2.38419e-07  -1.14648 -2.62918 1.50204e-05  -1.12239 -2.57995 -3.33786e-06  -1.19579 -2.60518 1.43051e-05  -1.17169 -2.5559 2.14577e-06  -1.12242 -2.57991 2.55108e-05  -1.17169 -2.55589 2.45571e-05  0.000395179 -0.00934559 -6.91414e-06  0 0 0  0.00206262 -0.0106385 8.58307e-06  0.000628494 -0.00300327 -1.90735e-06  0 0 0  0.000419691 -0.00921428 -0.00054574  0.000134259 -0.00219727 -4.05312e-06  0 0 0  0.000632502 -0.00297168 2.57492e-05  0.000142872 -0.00216189 -0.000282288  0.000145644 -0.0368442 3.57628e-06  0.00563341 -0.039124 -6.05583e-05  0.00378808 -0.023488 0  0.000199586 -0.0366046 -0.000955105  0.000471905 -0.0214916 -3.57628e-06  0.00383273 -0.0233565 -1.09673e-05  0.000506058 -0.0213513 -0.000769854  -0.00267118 -0.0766264 9.53674e-07  0.00768653 -0.0797839 -0.000157356  0.00690421 -0.0585636 -5.96046e-06  -0.00258127 -0.0762912 -0.00121808  -0.00087291 -0.0555841 -2.38419e-07  0.00698209 -0.0583324 -0.000114679  -0.000808567 -0.0553298 -0.00110888  -0.00903633 -0.125225 1.90735e-06  0.00628316 -0.129312 -0.000216246  0.00737363 -0.103931 7.15256e-06  -0.00889227 -0.12481 -0.00128794  -0.0053882 -0.0999605 -5.96046e-06  0.00747502 -0.103602 -0.000193357  -0.0052765 -0.0996212 -0.00128198  -0.0191827 -0.180911 -7.15256e-07  0.000715613 -0.18609 -0.000179052  0.00389832 -0.157229 -6.91414e-06  -0.0190045 -0.180483 -0.00120187  -0.0136167 -0.152199 -3.8147e-06  0.00403619 -0.156861 -0.000209332  -0.0134699 -0.151823 -0.00126076  -0.03311 -0.242788 5.72205e-06  -0.00913924 -0.249204 -7.96318e-05  -0.00384289 -0.217274 1.43051e-06  -0.0328956 -0.242377 -0.00100994  -0.0256599 -0.211071 3.33786e-06  -0.00367987 -0.216894 -0.0001297  -0.0254758 -0.210686 -0.00111246  -0.0507205 -0.310176 3.33786e-06  -0.023159 -0.317917 2.21729e-05  -0.0158148 -0.283267 -4.05312e-06  -0.0504837 -0.309786 -0.000801325  -0.041439 -0.275792 -3.8147e-06  -0.0156358 -0.282896 -2.74181e-05  -0.0412294 -0.275424 -0.00091362  -0.0718615 -0.382398 1.43051e-06  -0.0411555 -0.391553 0.000135183  -0.0318545 -0.354499 -4.52995e-06  -0.0716114 -0.382049 -0.000603437  -0.060835 -0.345676 -1.90735e-06  -0.0316684 -0.354154 9.70364e-05  -0.0606151 -0.34534 -0.000707388  -0.096328 -0.458887 -2.6226e-06  -0.062883 -0.469463 0.000241995  -0.0517581 -0.430316 6.4373e-06  -0.0960664 -0.458571 -0.000431776  -0.0836633 -0.420106 3.09944e-06  -0.0515689 -0.430005 0.000204086  -0.083435 -0.419807 -0.000513554  -0.123863 -0.539085 5.24521e-06  -0.0880708 -0.55108 0.000318766  -0.0752414 -0.510116 1.90735e-06  -0.12363 -0.538808 -0.00028038  -0.109698 -0.498501 6.19888e-06  -0.0750574 -0.509836 0.000286818  -0.109469 -0.49825 -0.000347137  -0.154274 -0.622513 -4.29153e-06  -0.116427 -0.635881 0.000356197  -0.102031 -0.59336 -1.43051e-06  -0.154043 -0.62227 -0.00017643  -0.138696 -0.580384 -1.43051e-06  -0.101858 -0.593106 0.000339746  -0.138486 -0.580155 -0.00022912  -0.187304 -0.708763 -5.24521e-06  -0.147694 -0.723424 0.000400305  -0.131864 -0.679561 3.33786e-06  -0.187086 -0.708546 -7.9155e-05  -0.170441 -0.665268 -4.76837e-07  -0.131712 -0.679335 0.000381231  -0.170251 -0.665077 -0.000127316  -0.222703 -0.797426 -1.00136e-05  -0.181576 -0.813334 0.000404835  -0.164449 -0.768306 -7.62939e-06  -0.222515 -0.797246 -1.81198e-05  -0.204683 -0.752774 -3.8147e-06  -0.164314 -0.768108 0.000402212  -0.204511 -0.752606 -4.3869e-05  -0.260282 -0.888213 3.8147e-06  -0.217832 -0.905229 0.000421286  -0.199541 -0.859229 -2.86102e-06  -0.260099 -0.888034 5.26905e-05  -0.241208 -0.842543 -2.14577e-06  -0.199414 -0.859045 0.000414848  -0.241046 -0.842391 2.07424e-05  -0.299776 -0.98077 3.57628e-06  -0.256202 -0.998825 0.000415564  -0.236871 -0.951994 0  -0.299616 -0.980617 9.48906e-05  -0.279766 -0.934253 0  -0.236762 -0.951824 0.000418901  -0.279625 -0.934114 7.48634e-05  -0.340997 -1.07485 -4.05312e-06  -0.296442 -1.09385 0.000403404  -0.276194 -1.0463 -1.12057e-05  -0.34085 -1.07472 0.000118017  -0.320143 -1.0276 7.15256e-07  -0.276096 -1.04617 0.000404835  -0.320027 -1.02749 0.000112057  -0.383717 -1.17023 5.96046e-06  -0.338334 -1.19006 0.000411034  -0.317272 -1.14194 2.38419e-06  -0.383582 -1.17011 0.00014925  -0.362145 -1.12236 -2.38419e-06  -0.317191 -1.14181 0.000415564  -0.362034 -1.12226 0.000136375  -0.427723 -1.26668 -2.86102e-06  -0.38164 -1.28724 0.000374079  -0.359886 -1.23866 -4.76837e-06  -0.427613 -1.26657 0.000165224  -0.405542 -1.2183 -1.66893e-06  -0.359815 -1.23853 0.000389814  -0.405441 -1.21821 0.000158787  -0.472859 -1.36402 7.15256e-07  -0.426168 -1.38524 0.000364542  -0.403811 -1.33626 -1.43051e-06  -0.472753 -1.36392 0.000175476  -0.450128 -1.31523 7.15256e-07  -0.403757 -1.33615 0.000373125  -0.450047 -1.31514 0.000165701  -0.518917 -1.46207 -3.09944e-06  -0.471718 -1.48386 0.0003407  -0.448858 -1.43457 1.90735e-06  -0.518829 -1.46199 0.000184298  -0.495754 -1.41294 -2.38419e-07  -0.448817 -1.43447 0.000353336  -0.495678 -1.41287 0.000182152  -0.565743 -1.5607 2.6226e-06  -0.51812 -1.58295 0.000301123  -0.494844 -1.53345 9.77516e-06  -0.565662 -1.56062 0.000183821  -0.542212 -1.5113 2.38419e-07  -0.494817 -1.53334 0.000338078  -0.542154 -1.51124 0.000189781  -0.61318 -1.65976 1.19209e-06  -0.565196 -1.68242 0.000286818  -0.541597 -1.63273 -9.05991e-06  -0.613106 -1.65969 0.000180483  -0.58936 -1.61016 -5.72205e-06  -0.541578 -1.63264 0.000303268  -0.589309 -1.6101 0.00018549  -0.66109 -1.75912 -7.15256e-07  -0.612819 -1.78212 0.000260592  -0.588954 -1.73232 -6.19888e-06  -0.661029 -1.75906 0.000170946  -0.637047 -1.70938 -2.14577e-06  -0.588942 -1.73224 0.000272512  -0.637011 -1.70934 0.000181437  -0.709353 -1.85869 5.72205e-06  -0.660841 -1.88196 0.00024724  -0.636794 -1.8321 4.76837e-06  -0.709306 -1.85863 0.000165462  -0.685157 -1.80887 1.19209e-06  -0.63678 -1.83203 0.00025177  -0.685125 -1.80882 0.0001719  -0.757847 -1.95836 -1.66893e-06  -0.709144 -1.98184 0.000197172  -0.684955 -1.93196 1.19209e-06  -0.757795 -1.95831 0.000152349  -0.733537 -1.90849 -1.66893e-06  -0.684963 -1.93189 0.000222921  -0.733521 -1.90846 0.00015831  -0.806474 -2.05805 -3.8147e-06  -0.757624 -2.08169 0.000173807  -0.733356 -2.03183 4.76837e-07  -0.806429 -2.05801 0.000136614  -0.782111 -2.00818 -9.53674e-07  -0.733363 -2.03177 0.000190258  -0.782095 -2.00815 0.000144958  -0.855154 -2.15769 1.66893e-06  -0.80618 -2.18145 0.000160456  -0.781874 -2.13164 -7.15256e-07  -0.855114 -2.15764 0.00012207  -0.830775 -2.10785 -9.53674e-07  -0.781891 -2.13158 0.000164986  -0.830762 -2.10782 0.000133276  -0.9038 -2.2572 3.33786e-06  -0.854737 -2.28105 0.000120401  -0.83044 -2.23133 5.72205e-06  -0.903769 -2.25716 0.000104904  -0.879453 -2.20744 -5.00679e-06  -0.830458 -2.23127 0.000139713  -0.879442 -2.20741 0.000116825  -0.952377 -2.35655 -3.57628e-06  -0.903257 -2.38045 8.79765e-05  -0.878985 -2.33083 7.86781e-06  -0.952352 -2.35651 7.9155e-05  -0.928069 -2.30688 3.09944e-06  -0.879002 -2.33078 0.000110865  -0.928071 -2.30686 9.32217e-05  -1.00084 -2.45568 -4.29153e-06  -0.951664 -2.47962 6.8903e-05  -0.92745 -2.43012 2.86102e-06  -1.00081 -2.45565 4.8399e-05  -0.976594 -2.40613 7.15256e-06  -0.927478 -2.43006 7.48634e-05  -0.976598 -2.4061 6.93798e-05  -1.04914 -2.55459 -1.07288e-05  -0.999932 -2.57853 4.12464e-05  -0.975784 -2.52916 -5.00679e-06  -1.04911 -2.55455 2.07424e-05  -1.02498 -2.50514 2.38419e-07  -0.975809 -2.5291 3.55244e-05  -1.02497 -2.50513 4.45843e-05  -1.09726 -2.6532 -1.43051e-06  -1.04799 -2.67713 1.57356e-05  -1.02394 -2.62793 1.19209e-06  -1.09722 -2.65315 2.6226e-06  -1.07318 -2.6039 -5.24521e-06  -1.02398 -2.62786 1.14441e-05  -1.07318 -2.60389 1.85966e-05  0.00376561 -0.0129417 7.39098e-06  0 0 0  0.00559704 -0.0157781 0.00104785  0.00172729 -0.00599152 3.09944e-06  0 0 0  0.00380042 -0.0128179 0.000544071  0.00116475 -0.00424844 -2.14577e-06  0 0 0  0.00172805 -0.00595754 0.000600815  0.00117216 -0.00421721 0.000322342  0.0110626 -0.0430611 4.29153e-06  0.0168113 -0.0477211 0.00165606  0.0107408 -0.0305594 3.57628e-06  0.0111586 -0.0428463 0.000831366  0.0072079 -0.0265107 3.57628e-06  0.0107966 -0.0304273 0.00142026  0.00726238 -0.0263857 0.000724316  0.0177602 -0.0848325 9.53674e-07  0.0282432 -0.0904173 0.00187254  0.0226542 -0.0682175 7.15256e-07  0.0179051 -0.0845166 0.000878334  0.0146968 -0.0627984 -1.66893e-06  0.022781 -0.0679932 0.00179601  0.0148134 -0.0625786 0.000863314  0.0210646 -0.135286 1.66893e-06  0.0362135 -0.141541 0.0018611  0.0326435 -0.11532 -4.29153e-06  0.0212343 -0.134909 0.000847101  0.0199419 -0.109059 -1.90735e-06  0.0327845 -0.115012 0.00187469  0.0200904 -0.108761 0.000858307  0.0198756 -0.19302 8.58307e-06  0.0393342 -0.200063 0.00180745  0.0382648 -0.170266 9.53674e-07  0.0200553 -0.192617 0.000836849  0.0210669 -0.16325 1.90735e-06  0.0384198 -0.169918 0.00183797  0.0212367 -0.162899 0.000832558  0.0139592 -0.25721 -1.90735e-06  0.0373205 -0.265222 0.00174928  0.0388043 -0.232211 1.0252e-05  0.0141723 -0.256809 0.000840425  0.0175279 -0.224304 1.19209e-06  0.0389646 -0.231855 0.00177383  0.0177035 -0.223942 0.000834942  0.00346106 -0.3271 1.66893e-06  0.0302994 -0.33623 0.0016849  0.0342575 -0.300393 1.90735e-06  0.00368357 -0.326709 0.000870943  0.00929886 -0.291433 -2.6226e-06  0.0344233 -0.300038 0.00171661  0.00949401 -0.291085 0.000853062  -0.0114242 -0.40197 0  0.0185021 -0.412332 0.00163245  0.0248078 -0.374019 -1.66893e-06  -0.0111946 -0.401618 0.000891924  -0.00342196 -0.363902 -5.48363e-06  0.0249875 -0.373685 0.00166106  -0.0032196 -0.363576 0.000878096  -0.0304124 -0.481161 6.67572e-06  0.00223124 -0.492788 0.00158334  0.0107379 -0.452359 4.76837e-06  -0.0301822 -0.480841 0.00091815  -0.0203979 -0.441017 -7.15256e-07  0.0109075 -0.452056 0.0016129  -0.0201925 -0.440728 0.000906706  -0.0531904 -0.564056 6.67572e-06  -0.018163 -0.576975 0.00150013  -0.0076251 -0.534737 -1.90735e-06  -0.0529751 -0.563776 0.000919104  -0.0413154 -0.522134 2.86102e-06  -0.00746834 -0.534452 0.00153828  -0.0411172 -0.521874 0.000915527  -0.0794599 -0.650113 7.15256e-07  -0.0423328 -0.664296 0.00143075  -0.0299442 -0.620527 2.38419e-07  -0.0792454 -0.649859 0.00089407  -0.0658777 -0.606677 3.57628e-06  -0.0297865 -0.620271 0.00147367  -0.0656867 -0.606441 0.000905991  -0.108881 -0.738854 -1.43051e-06  -0.0699553 -0.754242 0.00134563  -0.0558699 -0.709193 -7.15256e-07  -0.108692 -0.738633 0.000876665  -0.0937585 -0.694132 9.53674e-07  -0.0557307 -0.708959 0.00139475  -0.09359 -0.69393 0.000889063  -0.141187 -0.82989 -3.33786e-06  -0.100677 -0.846401 0.00125551  -0.0850538 -0.800286 -4.05312e-06  -0.14101 -0.829685 0.000829935  -0.124656 -0.78407 -9.77516e-06  -0.0849433 -0.800065 0.00129938  -0.124504 -0.783895 0.000849485  -0.176059 -0.922834 5.48363e-06  -0.134184 -0.9404 0.00117731  -0.117211 -0.893378 -2.86102e-06  -0.175899 -0.922653 0.000803232  -0.158286 -0.876103 5.00679e-06  -0.117095 -0.89319 0.00120783  -0.158142 -0.875941 0.000817299  -0.21323 -1.01739 -1.19209e-06  -0.170177 -1.03593 0.00108314  -0.151973 -0.988152 -9.53674e-07  -0.213094 -1.01723 0.000744581  -0.194343 -0.969896 9.53674e-07  -0.151883 -0.987984 0.00113106  -0.194221 -0.969748 0.000776768  -0.252446 -1.11328 7.15256e-07  -0.208357 -1.13269 0.000988245  -0.189089 -1.08432 8.82149e-06  -0.252313 -1.11313 0.000702858  -0.232571 -1.06515 -2.38419e-06  -0.189001 -1.08416 0.0010438  -0.23246 -1.06502 0.000726461  -0.293442 -1.21027 -6.67572e-06  -0.248468 -1.23046 0.000900745  -0.228256 -1.18159 3.33786e-06  -0.293325 -1.21015 0.000645638  -0.2727 -1.16162 1.66893e-06  -0.228185 -1.18146 0.000950813  -0.272603 -1.16151 0.000678062  -0.33599 -1.30816 0  -0.290251 -1.32903 0.00083065  -0.269217 -1.27978 -4.05312e-06  -0.335877 -1.30803 0.000601053  -0.314503 -1.25908 9.53674e-07  -0.269163 -1.27965 0.000858545  -0.314414 -1.25898 0.000625372  -0.379858 -1.40674 -3.33786e-06  -0.333481 -1.42824 0.000733376  -0.311743 -1.37868 4.76837e-07  -0.379766 -1.40665 0.0005548  -0.357743 -1.35734 -1.90735e-06  -0.311696 -1.37856 0.000781536  -0.357665 -1.35726 0.000572205  -0.424857 -1.50589 3.09944e-06  -0.377925 -1.5279 0.000663519  -0.355598 -1.47812 6.67572e-06  -0.424773 -1.5058 0.000506639  -0.402201 -1.45623 -2.86102e-06  -0.355551 -1.47801 0.000703573  -0.402136 -1.45616 0.000524759  -0.470786 -1.60543 2.6226e-06  -0.423395 -1.62789 0.000593185  -0.400565 -1.57795 1.90735e-06  -0.470714 -1.60535 0.000458717  -0.447684 -1.5556 -7.86781e-06  -0.40053 -1.57785 0.000620365  -0.447632 -1.55553 0.000472069  -0.51748 -1.70526 5.00679e-06  -0.469693 -1.72809 0.000519753  -0.446449 -1.67806 1.19209e-06  -0.517413 -1.70519 0.000408411  -0.49402 -1.6553 -1.66893e-06  -0.446445 -1.67796 0.0005548  -0.493968 -1.65524 0.000426769  -0.56478 -1.80529 -7.86781e-06  -0.516662 -1.82841 0.000437737  -0.493111 -1.77832 -4.05312e-06  -0.564717 -1.80522 0.000352144  -0.541028 -1.75523 -7.15256e-07  -0.493098 -1.77824 0.000477076  -0.540994 -1.75519 0.000378132  -0.612527 -1.90537 1.90735e-06  -0.56416 -1.92873 0.000380278  -0.540355 -1.87865 -5.72205e-06  -0.612476 -1.9053 0.000303984  -0.58857 -1.8553 -4.76837e-06  -0.540351 -1.87857 0.000403643  -0.588544 -1.85525 0.000324965  -0.660622 -2.00544 0  -0.612024 -2.02901 0.000314236  -0.58804 -1.97895 -3.33786e-06  -0.660572 -2.00539 0.000262022  -0.636504 -1.95538 3.09944e-06  -0.588047 -1.97888 0.000339746  -0.636483 -1.95535 0.000284195  -0.708922 -2.10545 5.00679e-06  -0.66017 -2.12915 0.000263929  -0.63606 -2.07916 9.05991e-06  -0.708883 -2.1054 0.000216722  -0.684718 -2.05544 -1.19209e-06  -0.63606 -2.0791 0.000298262  -0.684699 -2.0554 0.00024128  -0.757338 -2.2053 4.76837e-07  -0.708446 -2.22912 0.000201464  -0.684271 -2.17922 -5.96046e-06  -0.757307 -2.20526 0.000184298  -0.733086 -2.15537 -7.15256e-07  -0.684288 -2.17915 0.000228643  -0.733077 -2.15534 0.000193357  -0.805788 -2.30498 2.38419e-07  -0.756794 -2.32886 0.000159025  -0.732589 -2.27908 2.14577e-06  -0.80576 -2.30494 0.00013566  -0.781528 -2.25515 1.66893e-06  -0.732611 -2.27902 0.000178576  -0.781528 -2.25512 0.000164986  -0.854228 -2.40444 2.38419e-06  -0.805143 -2.42835 0.000113726  -0.780937 -2.37869 5.24521e-06  -0.854194 -2.40439 9.87053e-05  -0.829982 -2.35471 1.43051e-06  -0.780961 -2.37864 0.000135899  -0.829976 -2.35469 0.000117302  -0.902579 -2.50362 -6.4373e-06  -0.853439 -2.52756 7.70092e-05  -0.829266 -2.47804 -5.48363e-06  -0.902554 -2.50358 5.88894e-05  -0.878381 -2.45404 4.76837e-07  -0.829291 -2.47799 9.20296e-05  -0.878385 -2.45401 8.08239e-05  -0.95079 -2.60253 -1.00136e-05  -0.90161 -2.62647 1.93119e-05  -0.877503 -2.5771 -2.14577e-06  -0.950769 -2.6025 1.97887e-05  -0.926669 -2.55308 -4.05312e-06  -0.87753 -2.57705 4.50611e-05  -0.926667 -2.55307 4.93526e-05  -0.998809 -2.70114 7.86781e-06  -0.949611 -2.72509 -1.19209e-05  -0.925607 -2.67587 -5.24521e-06  -0.998792 -2.7011 4.52995e-06  -0.974806 -2.65185 1.66893e-06  -0.925632 -2.67581 7.39098e-06  -0.974797 -2.65183 8.58307e-06  0.00768004 -0.0198295 -1.90735e-06  0 0 0  0.0101232 -0.0247267 0.00196981  0.00311345 -0.0114732 -5.96046e-06  0 0 0  0.00771838 -0.0196904 0.00152206  0.00235676 -0.00833833 -3.09944e-06  0 0 0  0.00311515 -0.011409 0.00108218  0.00235564 -0.00829077 0.000853062  0.0229441 -0.0540991 3.09944e-06  0.0298478 -0.0612996 0.00322223  0.0192267 -0.0421858 -4.29153e-06  0.0230608 -0.0538696 0.00245857  0.0147605 -0.0357585 -2.38419e-07  0.0193113 -0.0420241 0.00269723  0.0148334 -0.0356127 0.0020833  0.0389378 -0.0977948 1.19209e-06  0.0505698 -0.1056 0.0037117  0.0403972 -0.0826979 1.90735e-06  0.0391131 -0.0974871 0.00282168  0.0312127 -0.0748699 -2.14577e-06  0.0405473 -0.0824525 0.00353837  0.0313606 -0.0746422 0.00269222  0.0512972 -0.14953 1.66893e-06  0.0672405 -0.157699 0.00379038  0.0593789 -0.130947 -1.43051e-06  0.0514947 -0.149164 0.00284863  0.0457218 -0.122635 1.19209e-06  0.0595548 -0.130643 0.003793  0.0459078 -0.122342 0.00285673  0.0585091 -0.208756 -4.76837e-07  0.0784065 -0.217523 0.00367522  0.073373 -0.187018 9.53674e-07  0.0587088 -0.208373 0.00275946  0.0556038 -0.178191 8.34465e-06  0.0735408 -0.186675 0.00375128  0.0557821 -0.177857 0.00281239  0.0602466 -0.274793 2.6226e-06  0.0837736 -0.28438 0.00349069  0.0816584 -0.250468 -1.43051e-06  0.0604408 -0.274405 0.00263476  0.0600792 -0.240922 3.33786e-06  0.0818184 -0.250119 0.0035913  0.0602601 -0.240581 0.00269628  0.056607 -0.346821 -3.8147e-06  0.0834426 -0.357412 0.00329304  0.0841535 -0.32052 -1.07288e-05  0.0568116 -0.346449 0.0025003  0.0591102 -0.310062 -2.38419e-06  0.0843092 -0.320174 0.00339723  0.059287 -0.309724 0.00256896  0.0478425 -0.424028 -1.66893e-06  0.0776533 -0.435747 0.00309587  0.0810585 -0.396287 2.14577e-06  0.0480549 -0.423687 0.00236797  0.0528712 -0.384778 -4.76837e-07  0.0812155 -0.395958 0.00319886  0.0530581 -0.38446 0.00243807  0.0342729 -0.505653 -2.86102e-06  0.0667462 -0.518545 0.00289536  0.0726743 -0.476932 3.33786e-06  0.0344836 -0.505336 0.00223398  0.0416653 -0.464287 3.8147e-06  0.0728271 -0.476627 0.00299764  0.0418521 -0.463998 0.00230384  0.0162691 -0.591007 5.72205e-06  0.0510836 -0.605081 0.00269246  0.0593392 -0.561656 3.09944e-06  0.016466 -0.590721 0.00210404  0.0258307 -0.547857 2.14577e-06  0.0594902 -0.561384 0.00279236  0.0260122 -0.547598 0.00217342  -0.00580215 -0.679476 2.6226e-06  0.0310838 -0.694713 0.00249028  0.0414762 -0.649793 -1.43051e-06  -0.00561583 -0.679215 0.00196266  0.00576067 -0.634845 4.29153e-06  0.0416093 -0.649541 0.00258732  0.00591731 -0.634605 0.00203657  -0.0315727 -0.770531 -4.76837e-06  0.00712836 -0.786887 0.0022912  0.019465 -0.740741 -4.76837e-07  -0.031395 -0.770302 0.00181437  -0.0182114 -0.724663 -4.05312e-06  0.0195847 -0.740506 0.00238872  -0.0180565 -0.724451 0.00188851  -0.0606768 -0.863736 -1.43051e-06  -0.0203964 -0.881139 0.00210428  -0.00630927 -0.83399 4.05312e-06  -0.0605143 -0.863524 0.00167918  -0.0456907 -0.81685 5.24521e-06  -0.00620556 -0.833771 0.00219536  -0.0455526 -0.816666 0.00175333  -0.0927753 -0.958701 -5.48363e-06  -0.0511105 -0.977076 0.00191426  -0.0354741 -0.9291 -6.19888e-06  -0.0926216 -0.958515 0.00154376  -0.0763402 -0.91098 -3.09944e-06  -0.035373 -0.928912 0.00199938  -0.0762143 -0.910817 0.0016129  -0.127535 -1.05512 -5.48363e-06  -0.0846596 -1.07438 0.00174475  -0.0676324 -1.02575 -1.66893e-06  -0.127403 -1.05494 0.0014143  -0.109809 -1.00672 2.86102e-06  -0.0675416 -1.02557 0.00183463  -0.10969 -1.00656 0.00147986  -0.164656 -1.15268 -2.86102e-06  -0.120739 -1.17275 0.00156903  -0.102479 -1.1236 -4.29153e-06  -0.164532 -1.15253 0.00128293  -0.145784 -1.10374 2.86102e-06  -0.1024 -1.12344 0.00164866  -0.14569 -1.1036 0.00134897  -0.203834 -1.25116 -1.90735e-06  -0.159018 -1.27195 0.00140715  -0.139682 -1.2224 -2.38419e-06  -0.203727 -1.25103 0.00116587  -0.183978 -1.20179 0  -0.139611 -1.22226 0.00148702  -0.183884 -1.20168 0.00121903  -0.244831 -1.35038 -1.66893e-06  -0.199224 -1.37179 0.00126052  -0.178938 -1.32193 -1.43051e-06  -0.244729 -1.35026 0.00103903  -0.224093 -1.30066 -5.00679e-06  -0.178893 -1.3218 0.00133491  -0.224016 -1.30056 0.00109601  -0.287368 -1.45013 9.53674e-07  -0.241097 -1.47209 0.00111294  -0.219996 -1.42202 9.53674e-07  -0.287283 -1.45003 0.000930309  -0.265894 -1.40017 5.00679e-06  -0.219962 -1.42189 0.00118876  -0.265819 -1.40008 0.000985384  -0.331236 -1.55026 -3.33786e-06  -0.284387 -1.57268 0.000983953  -0.262606 -1.52247 1.43051e-06  -0.331154 -1.55017 0.000813484  -0.309126 -1.50014 2.86102e-06  -0.262574 -1.52235 0.00104403  -0.309056 -1.50005 0.000874996  -0.376202 -1.65066 -8.82149e-06  -0.328865 -1.67347 0.000843048  -0.30652 -1.62316 5.24521e-06  -0.376129 -1.65057 0.000721455  -0.353566 -1.60041 9.53674e-07  -0.306491 -1.62305 0.000923157  -0.353514 -1.60033 0.000767946  -0.422079 -1.7512 -7.15256e-07  -0.374356 -1.77433 0.000726223  -0.351506 -1.72399 2.86102e-06  -0.422024 -1.75112 0.000620842  -0.399004 -1.70089 8.34465e-06  -0.351502 -1.7239 0.000787258  -0.398972 -1.70083 0.000673532  -0.468718 -1.85179 -6.4373e-06  -0.420633 -1.87518 0.000616789  -0.397406 -1.82484 -2.38419e-07  -0.468652 -1.85171 0.000531912  -0.445281 -1.80147 -7.15256e-07  -0.397397 -1.82476 0.00067687  -0.445252 -1.80141 0.000574827  -0.515923 -1.95232 -1.90735e-06  -0.467561 -1.97593 0.000508547  -0.444027 -1.92565 -7.62939e-06  -0.515864 -1.95227 0.000454187  -0.492218 -1.90203 -1.90735e-06  -0.444022 -1.92557 0.00056386  -0.492193 -1.90199 0.000486374  -0.563552 -2.05276 7.62939e-06  -0.514979 -2.07651 0.000426054  -0.491202 -2.02632 4.05312e-06  -0.563517 -2.0527 0.000375748  -0.539658 -2.00253 2.6226e-06  -0.491214 -2.02624 0.000469208  -0.539639 -2.0025 0.000407934  -0.6115 -2.15302 -3.33786e-06  -0.562739 -2.17688 0.0003438  -0.538805 -2.12678 5.48363e-06  -0.611464 -2.15296 0.00029707  -0.587463 -2.10289 1.0252e-05  -0.538812 -2.12672 0.000388622  -0.587452 -2.10285 0.000345707  -0.65964 -2.25307 4.05312e-06  -0.610737 -2.277 0.000270128  -0.586689 -2.22704 -1.90735e-06  -0.659608 -2.25302 0.000237942  -0.635522 -2.20305 4.29153e-06  -0.586714 -2.22697 0.0003016  -0.63551 -2.20302 0.00026679  -0.707869 -2.35286 -2.86102e-06  -0.658873 -2.37682 0.000191212  -0.634774 -2.327 4.76837e-06  -0.707849 -2.35282 0.000171423  -0.683719 -2.30297 -8.34465e-06  -0.634786 -2.32694 0.000233412  -0.683712 -2.30294 0.000198603  -0.756126 -2.45237 -5.96046e-06  -0.707047 -2.47636 0.000130415  -0.682933 -2.42668 2.6226e-06  -0.756109 -2.45233 0.000118256  -0.731966 -2.40263 7.15256e-07  -0.682951 -2.42662 0.000166893  -0.731966 -2.4026 0.000144482  -0.804351 -2.55158 -5.72205e-06  -0.755204 -2.57556 7.05719e-05  -0.731104 -2.52605 -3.09944e-06  -0.80433 -2.55155 7.77245e-05  -0.78022 -2.50199 -3.33786e-06  -0.731124 -2.526 0.00010252  -0.780217 -2.50197 9.27448e-05  -0.852488 -2.6505 -6.91414e-06  -0.803294 -2.67448 4.17233e-05  -0.779234 -2.62511 -7.15256e-06  -0.85246 -2.65045 2.31266e-05  -0.828406 -2.60105 -2.6226e-06  -0.779258 -2.62505 5.62668e-05  -0.828404 -2.60103 4.86374e-05  -0.900479 -2.74914 1.14441e-05  -0.851266 -2.77312 -7.86781e-06  -0.827276 -2.72388 7.39098e-06  -0.90045 -2.74908 4.76837e-07  -0.876472 -2.69983 -2.14577e-06  -0.827295 -2.72382 1.40667e-05  -0.876472 -2.6998 4.05312e-06  0.0132206 -0.0315276 -4.29153e-06  0 0 0  0.0168847 -0.0399358 0.00277114  0.00504907 -0.021104 -5.24521e-06  0 0 0  0.0132699 -0.0313445 0.00238371  0.00397536 -0.0156297 -6.4373e-06  0 0 0  0.00505026 -0.0209883 0.00151277  0.00397477 -0.0155421 0.00130463  0.0377891 -0.0704582 -3.8147e-06  0.0471487 -0.0802869 0.00458217  0.0316539 -0.059802 6.4373e-06  0.0379353 -0.0701656 0.00392389  0.0249412 -0.0501654 4.52995e-06  0.031743 -0.0595604 0.00383878  0.0250374 -0.0499712 0.0032835  0.0627367 -0.115049 -4.29153e-06  0.0763012 -0.124662 0.00541115  0.0620885 -0.101779 3.8147e-06  0.0629531 -0.114716 0.0045898  0.0506947 -0.0917316 -1.19209e-06  0.0622669 -0.101473 0.00510311  0.0508698 -0.0914615 0.00433493  0.0833584 -0.167457 5.96046e-06  0.100668 -0.177263 0.00559115  0.0889592 -0.150197 1.90735e-06  0.0835732 -0.167085 0.00471735  0.0737196 -0.140161 1.66893e-06  0.0891573 -0.149859 0.00555372  0.0739257 -0.139846 0.00468969  0.098323 -0.227851 1.12057e-05  0.119251 -0.238174 0.00544047  0.110559 -0.207055 -4.76837e-07  0.0985286 -0.227461 0.00458288  0.0916114 -0.196637 4.76837e-07  0.110736 -0.206706 0.00553298  0.091807 -0.196302 0.00466442  0.107228 -0.29549 -6.67572e-06  0.131547 -0.306616 0.00517011  0.126022 -0.271845 5.96046e-06  0.107422 -0.295113 0.00434375  0.103557 -0.260761 2.38419e-07  0.126194 -0.271504 0.0053184  0.103738 -0.260424 0.0044651  0.110114 -0.369479 -1.43051e-06  0.137579 -0.381579 0.00484967  0.135184 -0.343679 -1.09673e-05  0.11031 -0.369111 0.00408006  0.109431 -0.331704 -1.43051e-06  0.135343 -0.343336 0.0050056  0.10961 -0.331369 0.004215  0.107231 -0.448843 -5.72205e-06  0.137534 -0.462019 0.00450373  0.138151 -0.421487 1.66893e-06  0.107429 -0.448508 0.00381351  0.109404 -0.408492 8.34465e-06  0.138299 -0.421166 0.00467753  0.109578 -0.408185 0.00394678  0.0989333 -0.532735 0  0.131786 -0.547033 0.00417757  0.135216 -0.504305 -7.62939e-06  0.0991251 -0.532426 0.00354409  0.103769 -0.490231 -1.90735e-06  0.135357 -0.504 0.0043447  0.10394 -0.489942 0.00367069  0.0855972 -0.620363 6.4373e-06  0.120716 -0.635783 0.00384641  0.126761 -0.591251 4.76837e-06  0.0857861 -0.620077 0.0032773  0.0929036 -0.576084 4.76837e-06  0.126897 -0.590975 0.00400949  0.0930687 -0.57582 0.00341082  0.0676551 -0.711066 -1.43051e-06  0.104783 -0.727568 0.00353861  0.113212 -0.681583 7.39098e-06  0.0678377 -0.710804 0.00301552  0.0772108 -0.665322 -9.53674e-07  0.113333 -0.681327 0.0036962  0.0773635 -0.665091 0.00314546  0.0455283 -0.804254 -4.52995e-06  0.0844134 -0.8218 0.00323153  0.095015 -0.774636 1.09673e-05  0.0456797 -0.804033 0.00275755  0.0571246 -0.757346 3.09944e-06  0.0951313 -0.774414 0.0033915  0.0572615 -0.757129 0.00289226  0.0196034 -0.899465 1.90735e-06  0.0600387 -0.917979 0.00292087  0.0726001 -0.869877 5.96046e-06  0.0197476 -0.899264 0.00251818  0.03304 -0.851603 -7.15256e-07  0.0727038 -0.869665 0.00307465  0.0331724 -0.85141 0.00263691  -0.00971448 -0.996302 -2.14577e-06  0.0320863 -1.01571 0.00265074  0.0463945 -0.966853 -1.43051e-06  -0.00957501 -0.996121 0.00228691  0.00536883 -0.947675 -3.8147e-06  0.0464861 -0.966669 0.00279284  0.00549018 -0.947505 0.0024004  -0.0420449 -1.09441 7.86781e-06  0.000949383 -1.11462 0.00239539  0.0168109 -1.0652 9.53674e-07  -0.0419104 -1.09424 0.00207877  -0.025497 -1.04518 3.09944e-06  0.0168998 -1.06503 0.00252461  -0.0253817 -1.04504 0.00218201  -0.0770489 -1.19351 2.6226e-06  -0.0330281 -1.21444 0.00213957  -0.0157795 -1.1646 7.39098e-06  -0.0769366 -1.19336 0.00185728  -0.0592052 -1.14382 -1.66893e-06  -0.0157009 -1.16443 0.00226665  -0.0591073 -1.14369 0.00195932  -0.114401 -1.29336 -4.05312e-06  -0.069483 -1.31493 0.00190949  -0.0510252 -1.26475 4.52995e-06  -0.114293 -1.29323 0.00166178  -0.0954238 -1.24333 -1.90735e-06  -0.0509605 -1.26461 0.00202584  -0.0953391 -1.2432 0.00175619  -0.153809 -1.39377 7.15256e-07  -0.108099 -1.41588 0.00169134  -0.0885866 -1.36549 -4.76837e-07  -0.153708 -1.39364 0.00147438  -0.13383 -1.34348 4.76837e-07  -0.088532 -1.36536 0.00179839  -0.133759 -1.34338 0.00156832  -0.194981 -1.49455 -8.34465e-06  -0.148605 -1.51714 0.0014832  -0.128171 -1.4666 2.14577e-06  -0.194891 -1.49444 0.00130153  -0.174158 -1.44409 0  -0.128136 -1.46649 0.00158834  -0.174095 -1.444 0.00138807  -0.237685 -1.59557 0  -0.190729 -1.61855 0.00129199  -0.169505 -1.56795 1.07288e-05  -0.237599 -1.59546 0.00113225  -0.216116 -1.54501 -4.76837e-07  -0.169483 -1.56784 0.00139356  -0.216069 -1.54493 0.00121832  -0.281672 -1.69669 3.09944e-06  -0.234233 -1.72001 0.00111723  -0.212338 -1.66939 -9.29832e-06  -0.281597 -1.6966 0.000987291  -0.259496 -1.64609 3.57628e-06  -0.212319 -1.66928 0.00119495  -0.259448 -1.64601 0.00106263  -0.326712 -1.79783 -4.05312e-06  -0.278879 -1.82141 0.000946999  -0.256431 -1.77083 -4.05312e-06  -0.326658 -1.79775 0.000840425  -0.304044 -1.74724 1.90735e-06  -0.256422 -1.77073 0.00102472  -0.304004 -1.74717 0.000908852  -0.372643 -1.89889 1.14441e-05  -0.324469 -1.92267 0.000794411  -0.301569 -1.87215 -7.15256e-07  -0.372593 -1.89881 0.000717163  -0.349551 -1.84836 6.67572e-06  -0.301564 -1.87206 0.000870705  -0.349518 -1.84829 0.00077486  -0.419281 -1.99979 -5.24521e-06  -0.370822 -2.02373 0.000645161  -0.347551 -1.97331 5.48363e-06  -0.419231 -1.99973 0.000587702  -0.395859 -1.94934 2.6226e-06  -0.347559 -1.97323 0.000732899  -0.39583 -1.94929 0.000648022  -0.46645 -2.10049 4.52995e-06  -0.417774 -2.12452 0.000523329  -0.394231 -2.07423 4.29153e-06  -0.466417 -2.10043 0.000481129  -0.442779 -2.05015 -7.15256e-07  -0.39423 -2.07416 0.000589132  -0.442759 -2.05011 0.000534058  -0.514026 -2.20093 -8.10623e-06  -0.46518 -2.22502 0.000410557  -0.44141 -2.17488 5.48363e-06  -0.513992 -2.20089 0.000379562  -0.490167 -2.15072 7.15256e-07  -0.441428 -2.17481 0.00047636  -0.490159 -2.15069 0.000427961  -0.561878 -2.3011 4.76837e-06  -0.512898 -2.3252 0.000314951  -0.488984 -2.27522 -9.53674e-07  -0.561849 -2.30104 0.000293255  -0.537895 -2.25103 -2.6226e-06  -0.489 -2.27515 0.000360966  -0.537892 -2.251 0.000333309  -0.609908 -2.40095 -2.86102e-06  -0.560823 -2.42504 0.000223637  -0.536817 -2.37523 3.57628e-06  -0.609876 -2.40089 0.000207663  -0.585849 -2.35103 2.38419e-07  -0.536839 -2.37516 0.000279188  -0.585843 -2.351 0.000253201  -0.658003 -2.50046 -2.14577e-06  -0.608848 -2.52454 0.000156164  -0.584805 -2.47489 5.00679e-06  -0.657976 -2.50041 0.000146627  -0.633917 -2.45072 -1.19209e-06  -0.584826 -2.47483 0.000188112  -0.633916 -2.45069 0.000173092  -0.706095 -2.59965 3.57628e-06  -0.656899 -2.62371 0.000100851  -0.632837 -2.57421 -1.09673e-05  -0.706074 -2.59961 9.17912e-05  -0.682012 -2.55007 -1.19209e-06  -0.632868 -2.57416 0.000118256  -0.682023 -2.55005 0.000116348  -0.754149 -2.69855 2.86102e-06  -0.704921 -2.72256 4.55379e-05  -0.680883 -2.67323 4.76837e-07  -0.75413 -2.6985 3.55244e-05  -0.730103 -2.64912 9.53674e-07  -0.680911 -2.67318 6.03199e-05  -0.730109 -2.64909 6.17504e-05  -0.802136 -2.79717 5.00679e-06  -0.752913 -2.82119 -2.76566e-05  -0.728884 -2.77196 -5.00679e-06  -0.802112 -2.79714 -5.96046e-06  -0.778124 -2.74786 6.91414e-06  -0.728923 -2.7719 -2.86102e-06  -0.778126 -2.74784 1.62125e-05  0.0226687 -0.0519102 2.86102e-06  0 0 0  0.0310168 -0.0662916 0.00352025  0.0102056 -0.0394503 -3.8147e-06  0 0 0  0.022722 -0.0516318 0.00315166  0.00662431 -0.0284835 -2.86102e-06  0 0 0  0.010218 -0.0392336 0.00194335  0.00663177 -0.0283351 0.00167942  0.0579057 -0.0917826 7.86781e-06  0.0706453 -0.102798 0.00588775  0.0521858 -0.0842477 4.29153e-06  0.0580684 -0.0913761 0.00524282  0.0409009 -0.0713868 9.53674e-07  0.05225 -0.0838395 0.00489283  0.0410001 -0.0710844 0.00436258  0.0902222 -0.135767 3.8147e-06  0.105591 -0.14676 0.00695014  0.0880784 -0.123958 -1.43051e-06  0.0904452 -0.135345 0.00620341  0.0744351 -0.112581 6.67572e-06  0.0882492 -0.123522 0.00655317  0.0746197 -0.112225 0.00584531  0.118269 -0.188557 -8.58307e-06  0.137149 -0.199727 0.00720811  0.121907 -0.172364 2.38419e-06  0.11849 -0.18815 0.00641298  0.104975 -0.160931 -5.00679e-06  0.122107 -0.171949 0.00715041  0.105177 -0.160567 0.00637031  0.140383 -0.25001 -2.38419e-07  0.162705 -0.261832 0.00703788  0.150563 -0.230019 -1.00136e-05  0.1406 -0.249622 0.00626516  0.130145 -0.218166 -6.19888e-06  0.150749 -0.229636 0.00714993  0.13035 -0.217814 0.00636411  0.156036 -0.319259 -7.15256e-07  0.181614 -0.33194 0.00669956  0.172855 -0.296275 -8.58307e-06  0.156239 -0.318888 0.0059464  0.149067 -0.283669 -2.14577e-06  0.173041 -0.295917 0.00688839  0.14926 -0.283325 0.00612235  0.165136 -0.395154 -3.33786e-06  0.193709 -0.408862 0.0062747  0.188354 -0.36992 -8.34465e-06  0.165334 -0.394816 0.00557804  0.161427 -0.356393 -1.19209e-06  0.188521 -0.369591 0.00649548  0.161608 -0.356066 0.00576878  0.167875 -0.476628 -2.38419e-07  0.199164 -0.491407 0.00583196  0.1971 -0.449782 5.96046e-06  0.168074 -0.476308 0.00518727  0.167309 -0.435214 1.43051e-06  0.19726 -0.449468 0.0060606  0.167494 -0.434916 0.00538397  0.164623 -0.562687 -4.76837e-07  0.198334 -0.57854 0.0053966  0.199372 -0.534727 7.15256e-07  0.164812 -0.562389 0.00479007  0.167005 -0.519094 -7.62939e-06  0.199531 -0.534434 0.00561213  0.16718 -0.518816 0.00498271  0.155781 -0.652466 9.53674e-06  0.19165 -0.669407 0.00495625  0.195554 -0.623809 4.76837e-07  0.155962 -0.652207 0.00441599  0.160903 -0.60712 5.24521e-06  0.195704 -0.623552 0.00516486  0.161066 -0.606871 0.0045979  0.141822 -0.745264 4.52995e-06  0.17961 -0.763208 0.00454807  0.186144 -0.716211 8.34465e-06  0.141998 -0.74502 0.00404239  0.149442 -0.698496 5.48363e-06  0.186276 -0.715977 0.00474429  0.149596 -0.698272 0.00422716  0.123213 -0.840437 -5.00679e-06  0.162682 -0.859349 0.00412297  0.171611 -0.811233 -9.29832e-06  0.123376 -0.840218 0.00367379  0.133103 -0.792553 -1.66893e-06  0.171726 -0.81102 0.00431633  0.133245 -0.792354 0.00385523  0.100377 -0.937514 7.15256e-07  0.141333 -0.957296 0.00373173  0.152423 -0.908326 8.34465e-06  0.100535 -0.937313 0.00333738  0.11232 -0.888738 -2.14577e-06  0.152532 -0.908121 0.00393081  0.11246 -0.888552 0.00350595  0.0737759 -1.03604 -5.24521e-06  0.116052 -1.05663 0.00336266  0.129064 -1.00699 4.76837e-06  0.0739267 -1.03586 0.00302124  0.0875579 -0.986577 9.53674e-07  0.129163 -1.00681 0.0035665  0.0876811 -0.986419 0.00317478  0.0438384 -1.13567 -4.76837e-06  0.0872375 -1.15699 0.00302505  0.101952 -1.10686 -2.6226e-06  0.043968 -1.13551 0.0027132  0.0592371 -1.0857 7.15256e-07  0.10206 -1.1067 0.00319743  0.0593429 -1.08556 0.00286341  0.0109072 -1.23614 7.86781e-06  0.0553136 -1.2581 0.00271821  0.071573 -1.20762 1.04904e-05  0.0110309 -1.236 0.0024271  0.0277449 -1.1858 3.09944e-06  0.0716436 -1.20747 0.00287962  0.0278528 -1.18567 0.00257373  -0.0246329 -1.3372 1.66893e-06  0.0206318 -1.35971 0.0024066  0.0382349 -1.30899 4.76837e-06  -0.0245347 -1.33707 0.0021596  -0.00653005 -1.28659 -4.05312e-06  0.0382972 -1.30885 0.00255942  -0.00644326 -1.28647 0.0022912  -0.062463 -1.43864 -4.76837e-07  -0.0164483 -1.46163 0.00213265  0.00232291 -1.41077 5.24521e-06  -0.0623746 -1.43853 0.00190997  -0.043262 -1.38787 5.96046e-06  0.00237823 -1.41065 0.00226712  -0.0431864 -1.38776 0.0020318  -0.10229 -1.54032 8.82149e-06  -0.0556195 -1.56369 0.00186753  -0.0358229 -1.51277 8.58307e-06  -0.102206 -1.54021 0.00167513  -0.0821228 -1.48944 -4.05312e-06  -0.035789 -1.51264 0.00198412  -0.0820496 -1.48935 0.00178552  -0.143824 -1.64207 6.19888e-06  -0.0966063 -1.66577 0.0016036  -0.0759306 -1.61484 -3.57628e-06  -0.143755 -1.64197 0.00145006  -0.122831 -1.59117 6.67572e-06  -0.0758939 -1.61474 0.00172448  -0.12278 -1.59109 0.00156569  -0.186822 -1.7438 -6.4373e-06  -0.139116 -1.76775 0.00136662  -0.117697 -1.71688 -7.62939e-06  -0.18676 -1.74372 0.00124383  -0.165129 -1.69292 -7.15256e-07  -0.117677 -1.71678 0.0014801  -0.165085 -1.69285 0.00134873  -0.231051 -1.84541 -2.14577e-06  -0.182952 -1.86955 0.00116849  -0.160906 -1.81875 -7.15256e-07  -0.231002 -1.84533 0.00105214  -0.208776 -1.79461 -9.77516e-06  -0.160876 -1.81868 0.00127697  -0.208736 -1.79454 0.00114322  -0.276307 -1.94682 3.09944e-06  -0.227871 -1.97108 0.000967264  -0.205303 -1.92042 -3.8147e-06  -0.276243 -1.94675 0.000888109  -0.253538 -1.89612 -3.8147e-06  -0.205296 -1.92035 0.00105667  -0.253505 -1.89607 0.000962257  -0.322363 -2.04797 9.53674e-07  -0.273676 -2.07231 0.000803232  -0.250683 -2.02181 5.48363e-06  -0.322322 -2.0479 0.000723839  -0.299216 -1.99741 4.05312e-06  -0.250681 -2.02174 0.000890255  -0.299196 -1.99736 0.000808001  -0.369093 -2.14882 6.4373e-06  -0.320203 -2.17319 0.000640392  -0.296859 -2.12287 -5.72205e-06  -0.369059 -2.14875 0.000585556  -0.345635 -2.09841 5.96046e-06  -0.296859 -2.12279 0.000712872  -0.345619 -2.09837 0.000653267  -0.416314 -2.24934 -2.38419e-06  -0.367272 -2.27371 0.000514746  -0.343667 -2.22357 2.38419e-06  -0.41629 -2.24929 0.000456572  -0.392629 -2.1991 2.38419e-07  -0.34368 -2.2235 0.000568151  -0.392619 -2.19907 0.000519991  -0.463907 -2.3495 2.38419e-07  -0.414748 -2.37383 0.000386238  -0.390941 -2.32388 2.38419e-06  -0.463882 -2.34945 0.000342607  -0.440046 -2.29945 4.76837e-07  -0.39096 -2.32381 0.000434399  -0.440042 -2.29941 0.000398397  -0.511742 -2.44929 3.33786e-06  -0.462495 -2.47355 0.000273943  -0.438584 -2.4238 1.0252e-05  -0.511708 -2.44925 0.000256538  -0.487781 -2.39943 9.77516e-06  -0.438595 -2.42375 0.000329494  -0.487773 -2.3994 0.000296116  -0.559706 -2.54874 -3.8147e-06  -0.510438 -2.57291 0.000180006  -0.486437 -2.52333 -7.15256e-07  -0.559685 -2.5487 0.000164986  -0.535695 -2.49904 6.19888e-06  -0.486454 -2.52328 0.000219345  -0.535686 -2.49902 0.000210047  -0.607718 -2.64784 -1.66893e-06  -0.558442 -2.67193 9.9659e-05  -0.534408 -2.62252 5.24521e-06  -0.607697 -2.64781 9.84669e-05  -0.583679 -2.59831 -2.6226e-06  -0.534438 -2.62246 0.000137806  -0.583683 -2.59829 0.000128746  -0.655731 -2.74667 -2.14577e-06  -0.606449 -2.7707 5.98431e-05  -0.582428 -2.72141 -4.76837e-07  -0.655708 -2.74662 3.48091e-05  -0.631711 -2.69728 -3.33786e-06  -0.582446 -2.72135 7.96318e-05  -0.631706 -2.69725 6.55651e-05  -0.703739 -2.84527 -3.57628e-06  -0.654474 -2.86929 1.35899e-05  -0.630424 -2.82008 -1.66893e-06  -0.703713 -2.84524 -1.54972e-05  -0.679705 -2.79597 -3.8147e-06  -0.630463 -2.82001 2.00272e-05  -0.679708 -2.79595 7.15256e-06  -0.0346328 -0.0437545 0.00523949  -0.0135176 -0.0236737 0.00601339  0 0 0  -0.0201531 -0.0275922 0.00888824  0 0 0  -0.0123551 -0.0182953 0.00365806  -0.00396773 -0.00709543 0.00413942  0 0 0  -0.0137169 -0.0240712 0.00298834  -0.0202636 -0.0283036 0.00439167  -0.00608391 -0.0125799 0.004848  0 0 0  -0.0039572 -0.00735237 0.00204802  -0.00610599 -0.0128744 0.00240803  -0.0730919 -0.0644044 0.00814271  -0.0535334 -0.0514706 0.0139918  -0.0536129 -0.0538284 0.0142388  -0.0386983 -0.047145 0.00594687  -0.0244733 -0.0311104 0.0100212  -0.054072 -0.0526949 0.00690866  -0.0538632 -0.0552315 0.00704718  -0.0366426 -0.0399128 0.0119853  -0.0245139 -0.0321029 0.00496244  -0.0368438 -0.0410448 0.00592661  -0.112063 -0.0920831 0.00953507  -0.0917591 -0.0757412 0.0181947  -0.0883469 -0.0836383 0.0165763  -0.0688942 -0.0800395 0.00697374  -0.0534238 -0.0612404 0.0132723  -0.0922575 -0.0774517 0.009022  -0.0886755 -0.0853589 0.00824738  -0.0707335 -0.0678076 0.0157199  -0.0536256 -0.0627101 0.00660014  -0.0710381 -0.0694504 0.00780416  -0.152213 -0.125764 0.00963688  -0.131575 -0.106072 0.0195007  -0.124317 -0.120501 0.0167704  -0.100356 -0.119817 0.00710845  -0.0841013 -0.0974144 0.0142922  -0.132052 -0.107988 0.00971889  -0.12472 -0.122266 0.00837255  -0.106213 -0.101109 0.0168753  -0.0844551 -0.0990457 0.00713277  -0.106585 -0.102914 0.00841618  -0.192674 -0.166439 0.00904012  -0.171936 -0.143355 0.018836  -0.160979 -0.164445 0.0156717  -0.133034 -0.166407 0.00666976  -0.116069 -0.140706 0.0138459  -0.172442 -0.14525 0.0094161  -0.161477 -0.16609 0.0078516  -0.142567 -0.141591 0.0163136  -0.116557 -0.1423 0.00693274  -0.143029 -0.143344 0.00815821  -0.233046 -0.213725 0.0081203  -0.212291 -0.187609 0.0171652  -0.198135 -0.214896 0.0140247  -0.166809 -0.21925 0.00597787  -0.149182 -0.190659 0.0126319  -0.212894 -0.189309 0.00860524  -0.198745 -0.216321 0.00704288  -0.179489 -0.188883 0.0148754  -0.149791 -0.192096 0.0063405  -0.180061 -0.190455 0.00746584  -0.273384 -0.267118 0.00712514  -0.252553 -0.23826 0.015182  -0.235815 -0.271133 0.0122709  -0.20164 -0.277666 0.00523543  -0.183387 -0.246538 0.0111527  -0.253225 -0.23973 0.0076189  -0.236493 -0.272349 0.00616455  -0.216885 -0.242303 0.0131435  -0.184094 -0.247797 0.00560284  -0.217557 -0.243658 0.00660133  -0.313908 -0.32602 0.00619388  -0.292904 -0.294728 0.013237  -0.274161 -0.332597 0.0106373  -0.23755 -0.341143 0.00451779  -0.218692 -0.307739 0.00968218  -0.293632 -0.295946 0.00665689  -0.274858 -0.333608 0.00534773  -0.254877 -0.301215 0.0114365  -0.21945 -0.308798 0.00486875  -0.255594 -0.302359 0.0057435  -0.354876 -0.389931 0.00535893  -0.333618 -0.356415 0.0114751  -0.313316 -0.398784 0.00920248  -0.274635 -0.409161 0.00389194  -0.255176 -0.373725 0.0083518  -0.334341 -0.357416 0.00576377  -0.314009 -0.399613 0.00461435  -0.293602 -0.365106 0.00989103  -0.255938 -0.374605 0.00418997  -0.29433 -0.36606 0.0049727  -0.39649 -0.458303 0.004668  -0.37491 -0.422781 0.00994873  -0.353414 -0.469197 0.00794458  -0.312971 -0.481297 0.00334454  -0.292897 -0.443997 0.00719595  -0.375602 -0.423605 0.0049901  -0.35409 -0.469899 0.00398993  -0.333218 -0.43346 0.0085535  -0.29364 -0.444741 0.00361204  -0.333928 -0.434246 0.00429869  -0.438927 -0.530718 0.00402975  -0.41696 -0.49336 0.00862265  -0.394564 -0.54347 0.00686598  -0.352604 -0.557131 0.00288486  -0.331913 -0.518162 0.00619936  -0.417619 -0.494056 0.00432897  -0.395189 -0.544047 0.00344014  -0.373838 -0.505858 0.00738859  -0.332626 -0.518775 0.00311136  -0.37451 -0.506519 0.00370812  -0.482203 -0.60676 0.00348759  -0.459831 -0.567762 0.00748253  -0.436783 -0.62118 0.00594902  -0.393518 -0.636289 0.00248504  -0.372232 -0.595806 0.00532246  -0.460461 -0.568332 0.00375724  -0.437355 -0.621657 0.00297642  -0.415508 -0.581891 0.00638771  -0.372896 -0.596314 0.00266433  -0.416143 -0.582446 0.00320125  -0.526379 -0.686074 0.00300837  -0.503621 -0.645582 0.00646925  -0.480067 -0.701983 0.00513744  -0.435685 -0.71843 0.00212049  -0.413833 -0.676577 0.00459528  -0.504193 -0.646042 0.00323462  -0.480589 -0.702389 0.00256944  -0.458277 -0.661194 0.00552273  -0.414447 -0.677006 0.00230002  -0.458845 -0.661658 0.00276542  -0.571431 -0.768297 0.00261521  -0.54829 -0.726468 0.00560474  -0.524379 -0.785557 0.00442553  -0.479037 -0.8032 0.00183129  -0.456666 -0.760147 0.00394726  -0.548812 -0.726857 0.00280809  -0.524845 -0.785902 0.00221634  -0.502081 -0.743431 0.00476885  -0.457208 -0.760501 0.0019815  -0.502594 -0.743812 0.00239086  -0.61729 -0.85315 0.00222874  -0.593815 -0.810083 0.00483799  -0.569627 -0.871597 0.00379133  -0.523472 -0.890327 0.00155473  -0.500625 -0.846193 0.00337315  -0.594266 -0.810425 0.00241876  -0.570032 -0.871884 0.00189662  -0.546873 -0.828269 0.00410032  -0.501126 -0.846485 0.00169396  -0.547323 -0.828602 0.00205135  -0.663892 -0.940318 0.00191569  -0.640088 -0.896185 0.00414276  -0.615726 -0.959831 0.00322056  -0.568881 -0.979519 0.00131774  -0.545612 -0.934442 0.00287199  -0.640504 -0.896462 0.0020678  -0.616075 -0.960062 0.00160813  -0.592548 -0.915431 0.00350046  -0.546058 -0.934681 0.00143957  -0.592955 -0.915717 0.00175095  -0.71115 -1.02956 0.0016036  -0.687088 -0.984473 0.00353241  -0.662589 -1.05 0.00272322  -0.615163 -1.07055 0.00111651  -0.591527 -1.02463 0.00241852  -0.687441 -0.984696 0.00176573  -0.662892 -1.0502 0.00136137  -0.639048 -1.00467 0.00297356  -0.591921 -1.02482 0.00121236  -0.639395 -1.0049 0.00148439  -0.758964 -1.12062 0.00137186  -0.73468 -1.07469 0.00297117  -0.710073 -1.14187 0.00227928  -0.662186 -1.16317 0.00092721  -0.638242 -1.1165 0.00202274  -0.734988 -1.07487 0.00149632  -0.71034 -1.14203 0.00115347  -0.686234 -1.09571 0.0025034  -0.638587 -1.11667 0.00102377  -0.686542 -1.09591 0.00125647  -0.80723 -1.21326 0.00111938  -0.782766 -1.16662 0.0024848  -0.758099 -1.23522 0.00187254  -0.709818 -1.25716 0.000746012  -0.685625 -1.20987 0.00165606  -0.783046 -1.16675 0.00124693  -0.758326 -1.23535 0.000931978  -0.733991 -1.18835 0.00206661  -0.685923 -1.21 0.000829935  -0.734264 -1.18851 0.00103402  -0.855885 -1.3073 0.000926256  -0.831284 -1.26 0.0020504  -0.806571 -1.32984 0.00152111  -0.757969 -1.35234 0.000601053  -0.733575 -1.30451 0.00135136  -0.831521 -1.26013 0.00101995  -0.806751 -1.32995 0.000757933  -0.78226 -1.28236 0.00169516  -0.733832 -1.30461 0.00067234  -0.78249 -1.2825 0.000845909  -0.904816 -1.40253 0.000746727  -0.880117 -1.35469 0.00163603  -0.855368 -1.42556 0.00120687  -0.806518 -1.44851 0.000468969  -0.781974 -1.40023 0.00106525  -0.880328 -1.35478 0.000811815  -0.855513 -1.42564 0.000601292  -0.830911 -1.37755 0.00135326  -0.782195 -1.40031 0.000528812  -0.831093 -1.37767 0.000677109  -0.953926 -1.49877 0.000560284  -0.929176 -1.45047 0.00130606  -0.904384 -1.52219 0.000929356  -0.855345 -1.54552 0.000348091  -0.830712 -1.49686 0.000819683  -0.929351 -1.45054 0.000652313  -0.904503 -1.52226 0.000463486  -0.879829 -1.47375 0.0010581  -0.830897 -1.49692 0.000412703  -0.879981 -1.47384 0.000529528  -1.00315 -1.59583 0.000425816  -0.978394 -1.54715 0.00099659  -0.953568 -1.61958 0.000683308  -0.904366 -1.6432 0.00026679  -0.87968 -1.59425 0.000609875  -0.97853 -1.5472 0.000492573  -0.953649 -1.61962 0.000338793  -0.928941 -1.57078 0.000808716  -0.87984 -1.59428 0.000300884  -0.92906 -1.57086 0.000404119  -1.05241 -1.69358 0.000296354  -1.02765 -1.6446 0.000732899  -1.00278 -1.71756 0.000479221  -0.953504 -1.74143 0.000178576  -0.928795 -1.69223 0.000431538  -1.02778 -1.64462 0.000363111  -1.00287 -1.71761 0.000232697  -0.978152 -1.66849 0.000583649  -0.928927 -1.69226 0.000221014  -0.978249 -1.66854 0.000292063  -1.10162 -1.79186 0.000219822  -1.07692 -1.74265 0.000507832  -1.05202 -1.81603 0.000324726  -1.00267 -1.84005 0.000107288  -0.977977 -1.79068 0.000277042  -1.07702 -1.74267 0.000248194  -1.05207 -1.81604 0.000165701  -1.02739 -1.76673 0.000394821  -0.978077 -1.79069 0.000138044  -1.02747 -1.76677 0.000198841  -1.15077 -1.89053 0.000151873  -1.12613 -1.84115 0.000353813  -1.1012 -1.91482 0.00017643  -1.0518 -1.93896 4.52995e-05  -1.02714 -1.88947 0.000156879  -1.1262 -1.84115 0.00018096  -1.10122 -1.91483 9.32217e-05  -1.07659 -1.86536 0.000249863  -1.02724 -1.88947 7.84397e-05  -1.07665 -1.8654 0.000128269  -1.19978 -1.98948 5.84126e-05  -1.17522 -1.93998 0.000195503  -1.15025 -2.01384 7.62939e-05  -1.10083 -2.03805 1.12057e-05  -1.07625 -1.9885 6.53267e-05  -1.17528 -1.93998 0.000105143  -1.15026 -2.01383 4.07696e-05  -1.12571 -1.96428 0.000130177  -1.07632 -1.98849 4.22001e-05  -1.12575 -1.96431 6.8903e-05  -1.24863 -2.08859 2.28882e-05  -1.22418 -2.03904 8.4877e-05  -1.19916 -2.11295 8.10623e-06  -1.14975 -2.1372 -1.28746e-05  -1.12525 -2.08764 4.76837e-07  -1.22422 -2.03902 3.19481e-05  -1.19916 -2.11296 5.00679e-06  -1.1747 -2.06337 3.95775e-05  -1.12531 -2.08762 1.43051e-06  -1.17473 -2.06339 1.4782e-05  -1.29733 -2.18776 -1.04904e-05  -1.27295 -2.13818 2.00272e-05  -1.24791 -2.2121 -2.90871e-05  -1.19851 -2.23633 -3.76701e-05  -1.1741 -2.18679 -4.57764e-05  -1.27299 -2.13818 1.00136e-05  -1.2479 -2.21209 -1.3113e-05  -1.22352 -2.16252 -1.09673e-05  -1.17415 -2.18677 -1.93119e-05  -1.22355 -2.16253 -5.72205e-06  -1.34585 -2.28686 -1.12057e-05  -1.32158 -2.23733 -3.05176e-05  -1.29647 -2.31116 -4.14848e-05  -1.24709 -2.33539 -1.69277e-05  -1.22277 -2.28589 -6.58035e-05  -1.3216 -2.23731 -2.26498e-05  -1.29647 -2.31115 -1.43051e-05  -1.27219 -2.26162 -3.86238e-05  -1.22281 -2.28586 -2.81334e-05  -1.2722 -2.26162 -1.54972e-05  -1.39427 -2.38586 -8.10623e-06  -1.37003 -2.33641 -3.00407e-05  -1.34491 -2.4101 -4.86374e-05  -1.29551 -2.43428 -2.12193e-05  -1.27128 -2.38487 -5.10216e-05  -1.37006 -2.33637 -1.62125e-05  -1.34489 -2.41009 -2.0504e-05  -1.32068 -2.36064 -4.00543e-05  -1.27132 -2.38485 -2.14577e-05  -1.32069 -2.36063 -1.62125e-05  -1.44262 -2.4847 -2.47955e-05  -1.41841 -2.43532 -2.00272e-05  -1.39324 -2.50889 -4.29153e-05  -1.34384 -2.53301 5.96046e-06  -1.31965 -2.48369 -4.72069e-05  -1.41844 -2.43529 -1.00136e-05  -1.39323 -2.50887 -2.00272e-05  -1.36905 -2.45949 -4.00543e-05  -1.31968 -2.48367 -2.31266e-05  -1.36906 -2.4595 -1.74046e-05  -0.00841566 -0.0125227 0.00595474  0 0 0  -0.00559969 -0.0100556 0.00230837  -0.00177423 -0.0024929 0.00254488  0 0 0  -0.00838992 -0.0130282 0.00294852  -0.00249456 -0.00414738 0.00326824  0 0 0  -0.00177086 -0.00270747 0.00125599  -0.00247019 -0.00438845 0.00162101  -0.0276247 -0.0397759 0.00982141  -0.0188421 -0.037115 0.00385809  -0.0113751 -0.0215598 0.00645065  -0.0276831 -0.0408418 0.00488329  -0.0170272 -0.0250136 0.00815439  -0.0113994 -0.0222968 0.00320387  -0.017029 -0.0258659 0.00404525  -0.0518986 -0.074866 0.0115876  -0.0374354 -0.0740393 0.00459385  -0.0274981 -0.0535237 0.00868559  -0.0521053 -0.0762437 0.00576782  -0.0394055 -0.0563687 0.0109248  -0.0276493 -0.0546441 0.00432467  -0.0395481 -0.0576568 0.00543213  -0.0783454 -0.117004 0.0117774  -0.0590681 -0.118298 0.00470161  -0.0476618 -0.093963 0.0094285  -0.0786997 -0.118457 0.00589776  -0.064879 -0.094994 0.0118265  -0.0479615 -0.0952862 0.00470829  -0.0651667 -0.096472 0.00590444  -0.106557 -0.166065 0.0110149  -0.0829656 -0.169348 0.00441766  -0.0702823 -0.14168 0.00914478  -0.107055 -0.167449 0.00553632  -0.0922266 -0.140675 0.0114584  -0.07074 -0.143021 0.00458789  -0.0926676 -0.142146 0.00574565  -0.136457 -0.221343 0.00983238  -0.109056 -0.226506 0.00393414  -0.0951306 -0.195944 0.00831985  -0.13707 -0.222572 0.00494242  -0.121274 -0.192926 0.0104475  -0.0957402 -0.197206 0.00418282  -0.121859 -0.194287 0.00525188  -0.167989 -0.282119 0.00857019  -0.137293 -0.289092 0.00341392  -0.122201 -0.256019 0.00728989  -0.168686 -0.28318 0.00431705  -0.151992 -0.251026 0.00919676  -0.122906 -0.257148 0.00367451  -0.152679 -0.252228 0.0046308  -0.20117 -0.347796 0.00737715  -0.167632 -0.356521 0.00292468  -0.15145 -0.321244 0.00627708  -0.201899 -0.348715 0.00370455  -0.184344 -0.314332 0.00796413  -0.152199 -0.322228 0.00315857  -0.185087 -0.31536 0.00399828  -0.235993 -0.4179 0.00632715  -0.200009 -0.428271 0.00249219  -0.182798 -0.391047 0.00535583  -0.236707 -0.418657 0.00318217  -0.218357 -0.382291 0.00683975  -0.183568 -0.391878 0.00270104  -0.2191 -0.383157 0.00343728  -0.272432 -0.491937 0.0054245  -0.234362 -0.503894 0.00209117  -0.216196 -0.464915 0.00455427  -0.273118 -0.492586 0.00272274  -0.25398 -0.454406 0.00586033  -0.216941 -0.465615 0.00228214  -0.254705 -0.455144 0.00294685  -0.310477 -0.569528 0.00464964  -0.270612 -0.582964 0.0017879  -0.251543 -0.54242 0.00386572  -0.311114 -0.570068 0.0023315  -0.291227 -0.530277 0.00501823  -0.252247 -0.543011 0.00193477  -0.291912 -0.530893 0.00252056  -0.350063 -0.650286 0.00396729  -0.308643 -0.665111 0.00151873  -0.288743 -0.623168 0.00327635  -0.350644 -0.65074 0.00198579  -0.330049 -0.60949 0.00429583  -0.2894 -0.623665 0.00164437  -0.330681 -0.610014 0.00215387  -0.391111 -0.733872 0.00339937  -0.348366 -0.749974 0.00126934  -0.327685 -0.706797 0.00277615  -0.391644 -0.734255 0.00170445  -0.370372 -0.691708 0.00367832  -0.328292 -0.707211 0.00138712  -0.370959 -0.692156 0.00184178  -0.433515 -0.819966 0.00289202  -0.389637 -0.837229 0.00107193  -0.368264 -0.792953 0.00233173  -0.433984 -0.820281 0.00144815  -0.412117 -0.776585 0.00313854  -0.368809 -0.793306 0.00116777  -0.412645 -0.776964 0.00157499  -0.477166 -0.90827 0.00245667  -0.432305 -0.92661 0.000904083  -0.4103 -0.881376 0.00196314  -0.477582 -0.908542 0.0012331  -0.455156 -0.863829 0.00266504  -0.410794 -0.88167 0.00098896  -0.45563 -0.864147 0.00133181  -0.521924 -0.998527 0.00206089  -0.476225 -1.01781 0.000738859  -0.453668 -0.971747 0.00162745  -0.522283 -0.998747 0.00103116  -0.499381 -0.953139 0.00225258  -0.454106 -0.971987 0.000816822  -0.499796 -0.953408 0.00112987  -0.567648 -1.09048 0.00171089  -0.521251 -1.11061 0.00059557  -0.498211 -1.06381 0.00134277  -0.567966 -1.09066 0.0008533  -0.544633 -1.04427 0.00187588  -0.498601 -1.06402 0.000668764  -0.545006 -1.0445 0.000941277  -0.614224 -1.18391 0.00139666  -0.567228 -1.20479 0.000474215  -0.54378 -1.15737 0.00108194  -0.614505 -1.18406 0.000707388  -0.590804 -1.13699 0.0015583  -0.544128 -1.15754 0.000534773  -0.591133 -1.13718 0.000774622  -0.661501 -1.2786 0.00112391  -0.613998 -1.30015 0.000379086  -0.590216 -1.2522 0.000853062  -0.661724 -1.27873 0.000559568  -0.637751 -1.23108 0.00125504  -0.590518 -1.25233 0.000426769  -0.638028 -1.23125 0.000626087  -0.709367 -1.37439 0.000879765  -0.661443 -1.39649 0.000289202  -0.637386 -1.3481 0.000659943  -0.709549 -1.3745 0.000435114  -0.685339 -1.32635 0.00100088  -0.637645 -1.34821 0.000324249  -0.685569 -1.32649 0.000499964  -0.757671 -1.47107 0.000674248  -0.709421 -1.49365 0.000203848  -0.685145 -1.4449 0.00049305  -0.757832 -1.47115 0.000333309  -0.733436 -1.42261 0.000784874  -0.685368 -1.44498 0.00024724  -0.733631 -1.42271 0.000390291  -0.806338 -1.56851 0.000494957  -0.757801 -1.59147 0.000139713  -0.733364 -1.54242 0.00034523  -0.806454 -1.56857 0.00024724  -0.781937 -1.51968 0.000586987  -0.73356 -1.54248 0.000163317  -0.782103 -1.51977 0.000294447  -0.855229 -1.66654 0.000357628  -0.806476 -1.68983 8.86917e-05  -0.781947 -1.64055 0.000231266  -0.855321 -1.66658 0.000182152  -0.830731 -1.61744 0.000423431  -0.782107 -1.64059 0.000119448  -0.830864 -1.61751 0.00021553  -0.904268 -1.76503 0.000207901  -0.855344 -1.78858 2.40803e-05  -0.830758 -1.73913 0.00012207  -0.904343 -1.76506 0.000104666  -0.879709 -1.71572 0.000273705  -0.830889 -1.73916 6.24657e-05  -0.879818 -1.71577 0.000143051  -0.953383 -1.86388 0.000102997  -0.904321 -1.88761 9.29832e-06  -0.879712 -1.83804 4.1008e-05  -0.953423 -1.86389 5.19753e-05  -0.928785 -1.81439 0.000152111  -0.879819 -1.83806 2.28882e-05  -0.928874 -1.81444 7.82013e-05  -1.00248 -1.96294 2.57492e-05  -0.953323 -1.98682 -1.88351e-05  -0.928728 -1.93719 -2.0504e-05  -1.00251 -1.96294 1.52588e-05  -0.977893 -1.91335 7.15256e-05  -0.92882 -1.93719 -1.21593e-05  -0.977963 -1.91339 3.12328e-05  -1.05151 -2.06212 -2.19345e-05  -1.00229 -2.0861 -3.86238e-05  -0.97773 -2.03646 -6.91414e-05  -1.05152 -2.06212 -1.09673e-05  -1.02697 -2.01249 4.76837e-07  -0.977804 -2.03645 -3.40939e-05  -1.02702 -2.01251 -4.76837e-07  -1.10042 -2.16133 -5.81741e-05  -1.05116 -2.18537 -4.57764e-05  -1.02667 -2.13575 -8.53539e-05  -1.10042 -2.16132 -2.86102e-05  -1.07595 -2.1117 -4.62532e-05  -1.02673 -2.13574 -4.91142e-05  -1.07598 -2.11172 -2.12193e-05  -1.14918 -2.26049 -7.72476e-05  -1.09989 -2.28456 -5.48363e-05  -1.07548 -2.235 -9.91821e-05  -1.14917 -2.26048 -4.12464e-05  -1.12478 -2.2109 -7.48634e-05  -1.07553 -2.23497 -4.72069e-05  -1.12481 -2.21091 -3.57628e-05  -1.19776 -2.35954 -7.72476e-05  -1.14845 -2.38363 -4.52995e-05  -1.12414 -2.33414 -9.39369e-05  -1.19775 -2.35952 -3.57628e-05  -1.17346 -2.31001 -7.10487e-05  -1.12418 -2.33411 -5.17368e-05  -1.17348 -2.31001 -3.74317e-05  -1.24619 -2.45843 -5.67436e-05  -1.19685 -2.48251 -3.17097e-05  -1.17262 -2.43312 -8.15392e-05  -1.24616 -2.45841 -3.05176e-05  -1.22196 -2.40899 -6.7234e-05  -1.17266 -2.43309 -4.57764e-05  -1.22198 -2.40899 -3.57628e-05  -1.29448 -2.55712 -5.10216e-05  -1.24511 -2.58117 -2.00272e-05  -1.22095 -2.53189 -5.67436e-05  -1.29446 -2.5571 -3.31402e-05  -1.27031 -2.50778 -5.29289e-05  -1.22098 -2.53186 -2.93255e-05  -1.27033 -2.50778 -2.64645e-05  -0.00322518 -0.00838873 0.00342083  0 0 0  -0.00136539 -0.00853434 0.00110817  -0.000412475 -0.00163001 0.00118923  0 0 0  -0.00323739 -0.00876576 0.00169349  -0.000960257 -0.00173625 0.00184488  0 0 0  -0.000432134 -0.00179547 0.000591993  -0.000961654 -0.00192434 0.000914812  -0.0116486 -0.0346178 0.0057497  -0.00552242 -0.0353019 0.00188518  -0.0029487 -0.0198295 0.00312567  -0.0117291 -0.0354022 0.00285888  -0.00680736 -0.0199968 0.00474691  -0.00303805 -0.0203847 0.00155401  -0.00685592 -0.0206324 0.00235486  -0.0245657 -0.0722187 0.00690126  -0.0132667 -0.0740959 0.00233555  -0.00876129 -0.0527309 0.00432777  -0.0247714 -0.0732846 0.00344205  -0.0176316 -0.0523199 0.006464  -0.00895908 -0.0536108 0.00215435  -0.0177701 -0.0533196 0.0032239  -0.0408777 -0.118084 0.00705957  -0.0245927 -0.121468 0.00240779  -0.0181713 -0.0957803 0.00479031  -0.0412332 -0.119275 0.0035398  -0.0323383 -0.0941838 0.00706768  -0.0185007 -0.0968705 0.00239944  -0.0326391 -0.0953877 0.00353479  -0.0600429 -0.170914 0.00659323  -0.0392912 -0.175832 0.00224757  -0.031063 -0.146669 0.00466061  -0.0605359 -0.172108 0.00331831  -0.0500974 -0.143633 0.00686693  -0.0315288 -0.147832 0.00234818  -0.0505378 -0.144883 0.00344992  -0.0819833 -0.229932 0.00583029  -0.0572659 -0.236345 0.00196004  -0.0472798 -0.204218 0.00419426  -0.0825907 -0.231058 0.00293112  -0.0706457 -0.199653 0.00622702  -0.0478696 -0.205359 0.00211525  -0.0712215 -0.200861 0.00313449  -0.106659 -0.294421 0.00501966  -0.0784343 -0.302317 0.00166059  -0.0667796 -0.267628 0.00359488  -0.107329 -0.295422 0.00253725  -0.0939605 -0.261484 0.00542402  -0.0674507 -0.268678 0.00180674  -0.0946199 -0.262584 0.00273013  -0.133967 -0.363734 0.00425339  -0.102693 -0.373105 0.00136018  -0.0894749 -0.336196 0.00299454  -0.134656 -0.3646 0.00214577  -0.119963 -0.328464 0.0046277  -0.0901851 -0.33714 0.00151277  -0.120672 -0.32944 0.00233054  -0.163782 -0.437301 0.00356245  -0.129857 -0.448145 0.00110435  -0.115209 -0.40929 0.00244331  -0.16447 -0.438051 0.00179005  -0.148536 -0.399974 0.00389194  -0.115918 -0.410119 0.00122952  -0.149259 -0.400816 0.00195765  -0.195984 -0.514658 0.0029664  -0.159751 -0.526918 0.000891924  -0.14378 -0.48637 0.00196886  -0.196633 -0.515292 0.00148726  -0.179569 -0.475499 0.00325727  -0.144468 -0.487086 0.000992775  -0.18026 -0.476219 0.00163889  -0.230398 -0.595349 0.00247002  -0.192191 -0.608979 0.00070262  -0.175004 -0.56694 0.00157928  -0.231011 -0.595896 0.00123882  -0.212895 -0.554568 0.0027132  -0.175662 -0.567556 0.000798941  -0.213549 -0.555195 0.00136399  -0.266903 -0.679005 0.00206041  -0.226964 -0.693929 0.000561476  -0.208671 -0.650587 0.00124216  -0.26746 -0.679466 0.0010345  -0.248367 -0.636789 0.00225878  -0.209288 -0.65111 0.000626564  -0.248981 -0.637326 0.0011301  -0.305311 -0.765248 0.00170183  -0.263887 -0.781381 0.000430107  -0.244584 -0.736913 0.000976086  -0.305818 -0.76564 0.0008533  -0.285842 -0.721775 0.00187397  -0.245161 -0.737353 0.000486612  -0.286401 -0.722237 0.000943661  -0.345469 -0.853778 0.00139809  -0.302768 -0.871037 0.000321865  -0.28257 -0.825573 0.000743389  -0.345924 -0.854124 0.000697851  -0.325146 -0.809215 0.00154018  -0.283086 -0.825945 0.000369072  -0.325655 -0.809604 0.000774145  -0.387199 -0.944299 0.00113678  -0.343393 -0.962575 0.000228167  -0.322404 -0.916262 0.000561237  -0.387602 -0.944583 0.00057435  -0.366121 -0.898778 0.00126266  -0.322868 -0.916577 0.000291824  -0.366568 -0.899114 0.00063324  -0.430312 -1.03653 0.000903606  -0.385563 -1.05573 0.000154257  -0.363866 -1.0087 0.000395298  -0.430677 -1.03678 0.000450611  -0.408562 -0.990195 0.00101709  -0.364286 -1.00896 0.000193596  -0.408966 -0.990467 0.000510454  -0.474689 -1.13025 0.000699997  -0.429107 -1.15027 0.000101328  -0.406802 -1.10262 0.000259399  -0.474982 -1.13045 0.000354767  -0.452328 -1.08319 0.000803947  -0.407164 -1.10283 0.000127792  -0.452679 -1.08344 0.000396013  -0.5201 -1.22524 0.000531673  -0.473825 -1.24599 5.19753e-05  -0.451004 -1.19781 0.000148773  -0.520358 -1.2254 0.000272036  -0.497241 -1.17758 0.000620842  -0.451325 -1.19799 7.98702e-05  -0.497545 -1.17778 0.00030756  -0.566408 -1.32131 0.000391006  -0.519549 -1.3427 -1.19209e-06  -0.496281 -1.29407 5.19753e-05  -0.566627 -1.32144 0.000198841  -0.543118 -1.27312 0.000455379  -0.496568 -1.29423 2.3365e-05  -0.543386 -1.2733 0.000231028  -0.613463 -1.41826 0.000266075  -0.566114 -1.44018 -1.64509e-05  -0.542485 -1.39121 -1.85966e-05  -0.613647 -1.41836 0.000136852  -0.589816 -1.36966 0.000319004  -0.542731 -1.39135 -6.91414e-06  -0.590054 -1.3698 0.000158072  -0.661139 -1.51594 0.000150204  -0.61336 -1.53833 -4.52995e-05  -0.58945 -1.48908 -7.86781e-05  -0.661277 -1.51602 6.74725e-05  -0.6372 -1.46699 0.000209808  -0.58966 -1.48918 -4.24385e-05  -0.637392 -1.46711 0.000108004  -0.709264 -1.6142 6.38962e-05  -0.661145 -1.63699 -6.79493e-05  -0.63702 -1.58752 -0.000137806  -0.709376 -1.61426 3.31402e-05  -0.685112 -1.56497 0.000109196  -0.637192 -1.5876 -6.69956e-05  -0.68527 -1.56507 5.38826e-05  -0.757749 -1.71291 -3.33786e-06  -0.709356 -1.73603 -8.70228e-05  -0.685051 -1.68641 -0.000171185  -0.757837 -1.71295 -9.53674e-07  -0.733429 -1.66348 3.57628e-05  -0.685205 -1.68646 -8.53539e-05  -0.733569 -1.66356 1.43051e-05  -0.806459 -1.81194 -6.34193e-05  -0.757847 -1.83533 -9.84669e-05  -0.733437 -1.78561 -0.000182152  -0.806531 -1.81198 -3.60012e-05  -0.782043 -1.76236 -3.09944e-05  -0.733564 -1.78565 -9.20296e-05  -0.782153 -1.76243 -1.69277e-05  -0.855324 -1.91121 -8.29697e-05  -0.806526 -1.93479 -9.77516e-05  -0.782056 -1.88502 -0.000198841  -0.855366 -1.91122 -3.21865e-05  -0.83085 -1.86152 -8.29697e-05  -0.782161 -1.88503 -9.91821e-05  -0.830929 -1.86157 -4.26769e-05  -0.904227 -2.01057 -0.00012064  -0.855291 -2.03432 -9.75132e-05  -0.830816 -1.98453 -0.000201225  -0.904261 -2.01058 -5.57899e-05  -0.879743 -1.96085 -0.000107765  -0.830898 -1.98454 -9.98974e-05  -0.879804 -1.96089 -5.00679e-05  -0.953146 -2.10999 -0.000130653  -0.904091 -2.13384 -9.87053e-05  -0.879618 -2.08408 -0.00018692  -0.953151 -2.11 -6.19888e-05  -0.928658 -2.06026 -0.00013113  -0.879679 -2.08409 -9.05991e-05  -0.928704 -2.06028 -6.22272e-05  -1.00196 -2.20933 -0.000137806  -0.952829 -2.23328 -9.5129e-05  -0.928411 -2.18357 -0.000169754  -1.00196 -2.20934 -6.4373e-05  -0.977532 -2.15964 -0.000131607  -0.928464 -2.18357 -7.96318e-05  -0.977562 -2.15967 -6.62804e-05  -1.05066 -2.30859 -0.000119686  -1.00147 -2.33257 -6.74725e-05  -0.977114 -2.28295 -0.000144005  -1.05066 -2.30859 -5.72205e-05  -1.0263 -2.25896 -0.00012207  -0.977158 -2.28294 -6.84261e-05  -1.02632 -2.25897 -6.17504e-05  -1.09921 -2.40768 -9.34601e-05  -1.04997 -2.43169 -5.07832e-05  -1.0257 -2.38217 -0.000119209  -1.0992 -2.40767 -5.10216e-05  -1.07493 -2.35814 -0.000110149  -1.02574 -2.38215 -5.93662e-05  -1.07494 -2.35815 -5.26905e-05  -1.14759 -2.50656 -7.34329e-05  -1.09831 -2.53057 -4.62532e-05  -1.07413 -2.48118 -8.72612e-05  -1.14757 -2.50655 -3.88622e-05  -1.12339 -2.45714 -8.29697e-05  -1.07416 -2.48116 -4.52995e-05  -1.1234 -2.45713 -3.88622e-05  -1.19579 -2.60519 -3.48091e-05  -1.14647 -2.62917 -6.67572e-06  -1.12238 -2.57992 -4.86374e-05  -1.19578 -2.60518 -9.53674e-06  -1.17168 -2.55589 -5.05447e-05  -1.12241 -2.57991 -3.02792e-05  -1.17168 -2.5559 -2.07424e-05  0.000465944 -0.00894153 0.0010643  0 0 0  0.00206183 -0.0106389 -1.93119e-05  0.000663266 -0.00284663 -8.34465e-05  0 0 0  0.000410825 -0.00921276 0.000532866  0.000158079 -0.00201485 0.000547409  0 0 0  0.000633985 -0.00296697 -3.14713e-05  0.000138655 -0.00215816 0.000273705  0.00036785 -0.0359942 0.00190687  0.00563648 -0.039122 4.52995e-05  0.00397761 -0.0229161 -1.38283e-05  0.000199258 -0.0366031 0.000958204  0.000611976 -0.0208542 0.00152779  0.00383155 -0.0233567 9.29832e-06  0.000501916 -0.0213505 0.000763655  -0.00230017 -0.0754215 0.00243759  0.00768837 -0.0797828 0.000152826  0.00727993 -0.0575935 0.000198841  -0.00257495 -0.0762965 0.00122428  -0.000569165 -0.0545301 0.00222635  0.00698516 -0.0583369 0.000104904  -0.000803679 -0.0553325 0.00111365  -0.00850555 -0.123785 0.00256014  0.00629091 -0.129307 0.000219584  0.00787729 -0.102652 0.000377178  -0.00889102 -0.124807 0.00129223  -0.00493133 -0.098603 0.00254536  0.00747812 -0.103607 0.000198841  -0.00527537 -0.0996241 0.00127721  -0.0185101 -0.179404 0.00237465  0.000715375 -0.186084 0.000178337  0.0045321 -0.15581 0.000377655  -0.0190008 -0.180481 0.0012033  -0.0130149 -0.150706 0.00248671  0.0040428 -0.156858 0.000198126  -0.0134688 -0.151818 0.00125146  -0.03232 -0.241341 0.00200319  -0.00913054 -0.249208 8.08239e-05  -0.00311321 -0.215834 0.000246048  -0.0328915 -0.242374 0.00101995  -0.0249177 -0.209578 0.00219584  -0.00367767 -0.216891 0.000136614  -0.0254743 -0.210686 0.00110984  -0.0498531 -0.308834 0.00159407  -0.0231504 -0.317924 -4.02927e-05  -0.0150058 -0.281897 2.00272e-05  -0.0504748 -0.309787 0.000813007  -0.0406039 -0.274388 0.00178814  -0.0156186 -0.282907 2.28882e-05  -0.0412233 -0.275423 0.000907183  -0.0709763 -0.381197 0.00119209  -0.0411581 -0.39155 -0.000147104  -0.0310198 -0.353233 -0.000211239  -0.0716115 -0.382052 0.000608206  -0.0599548 -0.3444 0.00138617  -0.0316713 -0.354153 -9.91821e-05  -0.0606109 -0.345345 0.000703812  -0.0954515 -0.457819 0.00084734  -0.0628843 -0.46947 -0.00023675  -0.0509192 -0.429187 -0.000412464  -0.0960761 -0.458574 0.000434637  -0.0827753 -0.418964 0.00101566  -0.0515651 -0.43001 -0.000193357  -0.0834386 -0.41981 0.000515938  -0.123032 -0.538144 0.00055933  -0.088069 -0.551077 -0.00031805  -0.0744257 -0.509112 -0.000563145  -0.123633 -0.5388 0.000289917  -0.108836 -0.497504 0.000706196  -0.0750561 -0.509835 -0.000281572  -0.109478 -0.498244 0.000360489  -0.153486 -0.621705 0.000331879  -0.116434 -0.635884 -0.000359058  -0.101269 -0.59247 -0.000687599  -0.154056 -0.622273 0.000170708  -0.137888 -0.579505 0.000439644  -0.101863 -0.593106 -0.000342369  -0.138492 -0.58015 0.00022769  -0.186573 -0.70806 0.000145435  -0.147694 -0.723436 -0.000406265  -0.131146 -0.678787 -0.000782013  -0.187089 -0.708547 7.22408e-05  -0.169683 -0.664518 0.000235558  -0.131712 -0.679336 -0.000388145  -0.170254 -0.665074 0.000122309  -0.222043 -0.796826 4.76837e-07  -0.181573 -0.813326 -0.000415564  -0.163796 -0.767632 -0.000829697  -0.222516 -0.797244 -1.66893e-06  -0.203992 -0.752121 7.24792e-05  -0.164313 -0.768106 -0.000413895  -0.204509 -0.752606 3.50475e-05  -0.259688 -0.887678 -0.000101089  -0.217836 -0.905234 -0.000418901  -0.198942 -0.858638 -0.000842094  -0.260105 -0.88804 -5.07832e-05  -0.240576 -0.841976 -5.72205e-05  -0.199416 -0.859042 -0.000420809  -0.241044 -0.842389 -3.00407e-05  -0.299257 -0.980309 -0.000181675  -0.25621 -0.998828 -0.000417709  -0.236342 -0.951481 -0.00084734  -0.299627 -0.980624 -9.39369e-05  -0.279214 -0.933756 -0.000150204  -0.236764 -0.951827 -0.000424147  -0.279631 -0.934117 -7.41482e-05  -0.340527 -1.07445 -0.000247478  -0.296455 -1.09384 -0.000429392  -0.275721 -1.04587 -0.000842571  -0.340852 -1.07472 -0.000120401  -0.319665 -1.02717 -0.000217915  -0.276108 -1.04616 -0.000426769  -0.320032 -1.02749 -0.000106812  -0.383303 -1.16989 -0.000299454  -0.33833 -1.19005 -0.000402927  -0.316858 -1.14155 -0.000817776  -0.383581 -1.17011 -0.000145435  -0.361711 -1.12199 -0.000277519  -0.317196 -1.14181 -0.000407696  -0.362032 -1.12226 -0.00013876  -0.427379 -1.26639 -0.000332355  -0.381643 -1.28725 -0.000397921  -0.35952 -1.23832 -0.000788689  -0.42761 -1.26657 -0.000169516  -0.405152 -1.21798 -0.000317574  -0.359812 -1.23854 -0.000396967  -0.40544 -1.21822 -0.000162125  -0.472547 -1.36376 -0.000360012  -0.42617 -1.38524 -0.000375271  -0.403496 -1.33597 -0.000753403  -0.472753 -1.36393 -0.000176907  -0.449803 -1.31495 -0.000355721  -0.403762 -1.33614 -0.000371218  -0.450052 -1.31515 -0.000170946  -0.518649 -1.46185 -0.000367641  -0.471722 -1.48385 -0.0003438  -0.448586 -1.43432 -0.000703335  -0.518824 -1.46199 -0.000186205  -0.49546 -1.4127 -0.000367165  -0.448814 -1.43447 -0.000353098  -0.495675 -1.41287 -0.000186682  -0.565521 -1.56052 -0.00037241  -0.518111 -1.58296 -0.000324488  -0.494617 -1.53322 -0.000654697  -0.565662 -1.56062 -0.000183582  -0.541975 -1.5111 -0.000368595  -0.494812 -1.53335 -0.000317335  -0.54215 -1.51124 -0.000184774  -0.612994 -1.6596 -0.000365257  -0.565202 -1.68241 -0.000300884  -0.541409 -1.63255 -0.000613213  -0.613105 -1.65968 -0.000183582  -0.58916 -1.60998 -0.000375271  -0.541577 -1.63264 -0.000312328  -0.589312 -1.6101 -0.000191689  -0.660937 -1.75899 -0.000352383  -0.612822 -1.78212 -0.000247717  -0.588803 -1.73217 -0.000558376  -0.661035 -1.75906 -0.000176191  -0.636893 -1.70924 -0.00036478  -0.588949 -1.73224 -0.000285387  -0.637009 -1.70933 -0.000180721  -0.709234 -1.85858 -0.000330448  -0.66084 -1.88195 -0.000237226  -0.636657 -1.83197 -0.000496387  -0.709293 -1.85863 -0.000162125  -0.685026 -1.80874 -0.00034523  -0.636783 -1.83202 -0.000250101  -0.685122 -1.80882 -0.000172377  -0.757748 -1.95827 -0.000305176  -0.709146 -1.98184 -0.000206947  -0.684863 -1.93186 -0.000448704  -0.757801 -1.9583 -0.000153303  -0.733437 -1.9084 -0.000321388  -0.684957 -1.93189 -0.000223637  -0.733521 -1.90845 -0.000165701  -0.806409 -2.05797 -0.00028801  -0.757619 -2.08169 -0.000180006  -0.733285 -2.03175 -0.000384331  -0.80643 -2.058 -0.000142574  -0.782045 -2.0081 -0.000296593  -0.73336 -2.03176 -0.000190973  -0.782099 -2.00814 -0.000151634  -0.855105 -2.15762 -0.000242233  -0.806185 -2.18145 -0.000158787  -0.781825 -2.13158 -0.000331879  -0.85511 -2.15765 -0.000117064  -0.830715 -2.10778 -0.00026226  -0.781892 -2.13159 -0.000169754  -0.830766 -2.10783 -0.000136137  -0.903781 -2.25716 -0.000199318  -0.854741 -2.28106 -0.000125885  -0.830412 -2.23127 -0.00027895  -0.90377 -2.25717 -9.58443e-05  -0.879422 -2.20738 -0.000227451  -0.830467 -2.23127 -0.000140667  -0.879443 -2.20742 -0.000118017  -0.952361 -2.35652 -0.000156879  -0.903254 -2.38046 -7.72476e-05  -0.878975 -2.33078 -0.000204563  -0.952353 -2.35652 -7.67708e-05  -0.928056 -2.30683 -0.000181675  -0.879003 -2.33078 -9.91821e-05  -0.928068 -2.30686 -9.01222e-05  -1.00083 -2.45568 -0.000115395  -0.95166 -2.47962 -5.00679e-05  -0.927432 -2.43008 -0.000150681  -1.00081 -2.45566 -5.43594e-05  -0.976577 -2.4061 -0.000136375  -0.927468 -2.43007 -7.36713e-05  -0.976588 -2.40611 -6.62804e-05  -1.04913 -2.55456 -6.10352e-05  -0.999925 -2.57853 -4.14848e-05  -0.975781 -2.52912 -8.91685e-05  -1.04911 -2.55455 -3.31402e-05  -1.02497 -2.50513 -9.01222e-05  -0.975804 -2.52911 -4.50611e-05  -1.02497 -2.50513 -4.50611e-05  -1.09723 -2.65316 -1.43051e-05  -1.04798 -2.67713 5.00679e-06  -1.02395 -2.62788 -4.00543e-05  -1.09722 -2.65315 -1.38283e-05  -1.07317 -2.60388 -4.33922e-05  -1.02397 -2.62787 -1.81198e-05  -1.07318 -2.60388 -2.0504e-05  0.00389181 -0.0125889 -0.00113535  0 0 0  0.00559549 -0.0157813 -0.00104618  0.00177831 -0.00583303 -0.00124407  0 0 0  0.00379124 -0.0128183 -0.000542164  0.0012026 -0.00409782 -0.000669003  0 0 0  0.00172553 -0.00595641 -0.000594616  0.00116493 -0.0042159 -0.000318289  0.0114043 -0.0423271 -0.00170088  0.0168087 -0.0477242 -0.00166488  0.0110196 -0.0300057 -0.00291443  0.0111555 -0.0428455 -0.000823975  0.00742729 -0.0259565 -0.00149965  0.0107957 -0.0304208 -0.00141835  0.00725837 -0.0263816 -0.0007236  0.0182707 -0.0837465 -0.00178623  0.0282386 -0.0904165 -0.00186276  0.0231636 -0.0673072 -0.00364828  0.0179053 -0.0845242 -0.000876188  0.0151397 -0.061873 -0.00177193  0.022774 -0.0679973 -0.00179625  0.0148101 -0.0625841 -0.000864267  0.0216796 -0.133969 -0.00170708  0.0362157 -0.141536 -0.00186586  0.0332657 -0.11413 -0.00378418  0.0212333 -0.134908 -0.000843763  0.0205138 -0.107846 -0.00174475  0.0327941 -0.115014 -0.00188398  0.0200937 -0.108759 -0.000857353  0.0205637 -0.191604 -0.0016737  0.0393375 -0.200054 -0.00178671  0.0389435 -0.168928 -0.00368261  0.0200661 -0.192614 -0.000827074  0.0217265 -0.161878 -0.00168514  0.0384154 -0.16992 -0.00183153  0.0212387 -0.162901 -0.000833273  0.0147181 -0.255821 -0.00169563  0.0373233 -0.265216 -0.00173616  0.0395268 -0.23084 -0.00356007  0.0141799 -0.25681 -0.000838518  0.0182499 -0.222907 -0.00168371  0.038977 -0.231853 -0.0017643  0.0177116 -0.223945 -0.000827789  0.00425321 -0.325794 -0.00176144  0.0302982 -0.336226 -0.00169039  0.0350023 -0.299051 -0.00344419  0.00368506 -0.326709 -0.000867844  0.0100723 -0.29008 -0.00172663  0.0344259 -0.300032 -0.00171161  0.00949711 -0.291085 -0.000854969  -0.0106202 -0.400774 -0.00180435  0.0184971 -0.412332 -0.00163555  0.0255679 -0.372776 -0.00333881  -0.0111941 -0.401618 -0.000891209  -0.00261372 -0.362654 -0.00178528  0.0249796 -0.373686 -0.00166368  -0.00322127 -0.363577 -0.000886917  -0.0296234 -0.480082 -0.0018239  0.00223219 -0.492805 -0.00156689  0.0114896 -0.451238 -0.00322628  -0.0301898 -0.480847 -0.000906944  -0.0196007 -0.43989 -0.00182199  0.0109123 -0.452061 -0.00160766  -0.0201931 -0.440729 -0.000905752  -0.0524493 -0.563107 -0.00182867  -0.0181661 -0.576978 -0.0015111  -0.0068953 -0.533735 -0.00309181  -0.0529765 -0.56377 -0.000911236  -0.0405514 -0.521127 -0.00182962  -0.00746477 -0.534452 -0.00154305  -0.0411226 -0.521869 -0.000911713  -0.0787402 -0.649273 -0.00180292  -0.0423446 -0.664279 -0.00142646  -0.0292531 -0.619619 -0.00294018  -0.0792493 -0.649859 -0.000895262  -0.0651444 -0.605782 -0.00182343  -0.0297939 -0.620264 -0.00146818  -0.0656881 -0.606442 -0.00090003  -0.108235 -0.738125 -0.00175333  -0.0699587 -0.754246 -0.0013535  -0.0552219 -0.708392 -0.0027895  -0.108699 -0.738639 -0.000883102  -0.0930665 -0.693354 -0.00177765  -0.0557351 -0.708956 -0.00139594  -0.0935881 -0.693927 -0.000885487  -0.140585 -0.829233 -0.0016799  -0.100678 -0.84641 -0.0012517  -0.0844744 -0.799581 -0.00261545  -0.141012 -0.829682 -0.000840425  -0.124041 -0.78338 -0.00171804  -0.0849431 -0.800074 -0.00131226  -0.12451 -0.783889 -0.000863075  -0.175522 -0.922268 -0.00160027  -0.134178 -0.940408 -0.00117016  -0.116658 -0.892767 -0.00243521  -0.175899 -0.922653 -0.000798702  -0.157717 -0.875496 -0.00163555  -0.117095 -0.893188 -0.0012176  -0.158143 -0.875942 -0.000815868  -0.21276 -1.01689 -0.00150442  -0.170172 -1.03593 -0.00108051  -0.151484 -0.987618 -0.00225496  -0.213093 -1.01723 -0.000745296  -0.193843 -0.96936 -0.00155067  -0.151875 -0.987992 -0.00112629  -0.194217 -0.969754 -0.000774384  -0.252025 -1.11285 -0.00141001  -0.208358 -1.13269 -0.000991344  -0.188656 -1.08385 -0.00207424  -0.252317 -1.11314 -0.00070405  -0.232127 -1.06469 -0.00145578  -0.189004 -1.08416 -0.00102854  -0.232457 -1.06503 -0.000730753  -0.293068 -1.20989 -0.00130987  -0.248468 -1.23045 -0.000919819  -0.22787 -1.18118 -0.00190306  -0.293316 -1.21014 -0.000654221  -0.272304 -1.16121 -0.00136328  -0.22818 -1.18146 -0.000954151  -0.272603 -1.16151 -0.000679016  -0.335671 -1.30783 -0.00121355  -0.290255 -1.32903 -0.000818253  -0.268882 -1.27941 -0.00172997  -0.33588 -1.30804 -0.000602961  -0.314155 -1.25873 -0.00125933  -0.269159 -1.27965 -0.000871181  -0.314411 -1.25898 -0.000630856  -0.37959 -1.40646 -0.00110579  -0.333479 -1.42823 -0.000740051  -0.311458 -1.37836 -0.00156307  -0.37977 -1.40664 -0.000555277  -0.35744 -1.35703 -0.00115442  -0.311695 -1.37856 -0.000775099  -0.357664 -1.35726 -0.00057888  -0.424623 -1.50564 -0.0010047  -0.377928 -1.52789 -0.000659943  -0.355343 -1.47785 -0.00139713  -0.424774 -1.5058 -0.000504732  -0.401946 -1.45597 -0.0010581  -0.355553 -1.47801 -0.000690699  -0.402134 -1.45615 -0.000530481  -0.470601 -1.60523 -0.000905514  -0.42339 -1.62788 -0.000573874  -0.400358 -1.57771 -0.00125027  -0.47071 -1.60535 -0.000454664  -0.447464 -1.55536 -0.000951767  -0.400541 -1.57786 -0.000627279  -0.447638 -1.55553 -0.000480652  -0.517331 -1.7051 -0.000807762  -0.469695 -1.72809 -0.000509501  -0.446295 -1.67785 -0.00109339  -0.517418 -1.7052 -0.000401497  -0.493836 -1.6551 -0.000857353  -0.446445 -1.67796 -0.000549555  -0.493973 -1.65524 -0.000428677  -0.564646 -1.80512 -0.00071764  -0.516665 -1.82841 -0.000451565  -0.492972 -1.77815 -0.000963211  -0.56472 -1.80521 -0.000366926  -0.540884 -1.75507 -0.00075531  -0.493102 -1.77824 -0.000483751  -0.540995 -1.75519 -0.000378609  -0.612427 -1.90524 -0.000608921  -0.564154 -1.92874 -0.000367165  -0.540248 -1.8785 -0.000816345  -0.61248 -1.9053 -0.000303507  -0.588459 -1.85515 -0.000660896  -0.54035 -1.87857 -0.000412226  -0.588544 -1.85525 -0.000330687  -0.660533 -2.00534 -0.000518799  -0.612023 -2.029 -0.000308275  -0.587956 -1.97883 -0.000686646  -0.66057 -2.00539 -0.000261068  -0.636414 -1.95527 -0.00056839  -0.588045 -1.97888 -0.000348568  -0.636483 -1.95535 -0.000281334  -0.708872 -2.10536 -0.000439644  -0.660154 -2.12915 -0.000241041  -0.635984 -2.07907 -0.000565052  -0.70887 -2.10539 -0.000215769  -0.684651 -2.05534 -0.000475883  -0.636065 -2.07909 -0.000279903  -0.684698 -2.0554 -0.000237226  -0.757303 -2.20524 -0.000355721  -0.708444 -2.22912 -0.000201941  -0.684219 -2.17914 -0.000463963  -0.757302 -2.20527 -0.00018692  -0.733044 -2.1553 -0.000401497  -0.684277 -2.17916 -0.000236511  -0.733072 -2.15535 -0.000195026  -0.805781 -2.30493 -0.000276566  -0.756797 -2.32886 -0.000149012  -0.732571 -2.27901 -0.000366211  -0.805767 -2.30494 -0.000141144  -0.781509 -2.25509 -0.00031662  -0.732602 -2.27902 -0.000186205  -0.781533 -2.25513 -0.000159025  -0.85421 -2.40437 -0.000200272  -0.805137 -2.42835 -0.000109196  -0.780941 -2.37863 -0.000264168  -0.854194 -2.40439 -9.53674e-05  -0.829977 -2.35466 -0.000244617  -0.780965 -2.37864 -0.0001297  -0.829982 -2.35469 -0.000119686  -0.902565 -2.50358 -0.000137329  -0.853429 -2.52756 -6.74725e-05  -0.829262 -2.478 -0.000185966  -0.902548 -2.50359 -6.91414e-05  -0.878369 -2.45399 -0.000166416  -0.829287 -2.47799 -9.44138e-05  -0.878376 -2.45401 -8.32081e-05  -0.950788 -2.60249 -6.24657e-05  -0.901612 -2.62647 -3.71933e-05  -0.877515 -2.57706 -9.82285e-05  -0.950764 -2.60249 -3.95775e-05  -0.926666 -2.55305 -9.72748e-05  -0.877529 -2.57705 -4.72069e-05  -0.926663 -2.55307 -5.22137e-05  -0.998815 -2.7011 -4.29153e-06  -0.949611 -2.72509 1.07288e-05  -0.925606 -2.67582 -2.3365e-05  -0.998786 -2.70111 -1.43051e-06  -0.974802 -2.65181 -2.71797e-05  -0.925629 -2.67582 -1.71661e-05  -0.974797 -2.65183 -1.16825e-05  0.00784785 -0.0194412 -0.0031352  0 0 0  0.0101229 -0.0247222 -0.0019629  0.00316943 -0.0112519 -0.00226402  0 0 0  0.00771704 -0.0196873 -0.00153089  0.0024047 -0.00815231 -0.00177097  0 0 0  0.00311602 -0.0114103 -0.0011034  0.00235672 -0.00829232 -0.000854969  0.0233881 -0.0533454 -0.00501585  0.0298487 -0.0612888 -0.00320196  0.0195733 -0.0415553 -0.00551367  0.0230626 -0.0538658 -0.00246453  0.0150735 -0.0351741 -0.00425386  0.0193087 -0.0420258 -0.00270462  0.0148361 -0.0356128 -0.00208449  0.0395646 -0.096732 -0.00569153  0.0505762 -0.105592 -0.0037334  0.041006 -0.0817325 -0.00715017  0.0391109 -0.0974807 -0.00282145  0.0317708 -0.0739418 -0.00545073  0.0405481 -0.0824545 -0.00353765  0.0313629 -0.0746462 -0.00269198  0.0519779 -0.148266 -0.00572014  0.0672259 -0.157697 -0.00379944  0.060088 -0.129757 -0.00761795  0.0514925 -0.14916 -0.00285029  0.0463935 -0.121456 -0.00574541  0.0595509 -0.130642 -0.00378823  0.045899 -0.12234 -0.0028553  0.0592201 -0.207415 -0.00551701  0.0784012 -0.217521 -0.00367451  0.074069 -0.185703 -0.00751591  0.0587115 -0.208364 -0.00275183  0.0562972 -0.176877 -0.00563335  0.0735289 -0.186673 -0.00374627  0.0557822 -0.177862 -0.00280356  0.0609651 -0.273454 -0.00527334  0.0837801 -0.284369 -0.00349903  0.0823727 -0.249135 -0.00719213  0.0604554 -0.274398 -0.00262928  0.0608047 -0.239571 -0.005404  0.0818186 -0.250115 -0.00358844  0.060269 -0.240575 -0.00269222  0.0573266 -0.345543 -0.00501776  0.0834494 -0.35742 -0.00330114  0.0848753 -0.319229 -0.00681734  0.0568087 -0.34645 -0.00250506  0.0598327 -0.308743 -0.00514841  0.0843179 -0.320172 -0.00340962  0.059291 -0.309715 -0.00256872  0.0485629 -0.422851 -0.00474596  0.0776544 -0.435741 -0.00309777  0.0817615 -0.395083 -0.0064044  0.0480461 -0.423685 -0.00236917  0.0535942 -0.38355 -0.00488615  0.081219 -0.395961 -0.00319123  0.0530567 -0.384462 -0.00243664  0.0349859 -0.504596 -0.00447845  0.0667387 -0.51855 -0.00287652  0.073359 -0.475821 -0.00599861  0.0344743 -0.505347 -0.0022378  0.0423839 -0.463173 -0.00461531  0.0728204 -0.476628 -0.00299168  0.0418469 -0.464 -0.00229692  0.0169489 -0.590044 -0.00420713  0.0510895 -0.605082 -0.00269389  0.060016 -0.560663 -0.00558615  0.0164664 -0.590723 -0.00209856  0.0265266 -0.546855 -0.00433969  0.0594863 -0.561387 -0.00278664  0.0260093 -0.547598 -0.00216556  -0.00516438 -0.678618 -0.00393105  0.0310761 -0.694705 -0.00249147  0.0421029 -0.648902 -0.00518131  -0.00560653 -0.679216 -0.00195789  0.00641072 -0.633935 -0.00406837  0.0416093 -0.649531 -0.00259113  0.00592065 -0.634602 -0.00203037  -0.0309807 -0.769776 -0.00364256  0.00712931 -0.786889 -0.00228834  0.0200429 -0.739934 -0.00478411  -0.0313944 -0.770301 -0.00182366  -0.0175953 -0.723866 -0.00379324  0.0195762 -0.740503 -0.00239158  -0.0180547 -0.724461 -0.0018959  -0.0601413 -0.863063 -0.00336885  -0.0203905 -0.881141 -0.00209475  -0.00577295 -0.833271 -0.00439835  -0.0605171 -0.863529 -0.001683  -0.0451384 -0.816144 -0.00351238  -0.00620127 -0.833774 -0.00219178  -0.0455565 -0.816666 -0.00175309  -0.0922811 -0.958103 -0.00309801  -0.0511106 -0.977085 -0.00192666  -0.0349774 -0.928471 -0.00402021  -0.092625 -0.958517 -0.00155568  -0.0758288 -0.910357 -0.00323248  -0.0353708 -0.928919 -0.00200725  -0.0762148 -0.91082 -0.00161695  -0.127104 -1.0546 -0.00282001  -0.0846642 -1.07439 -0.00173283  -0.0671812 -1.02519 -0.00366211  -0.127404 -1.05495 -0.00140953  -0.109349 -1.00616 -0.0029583  -0.0675471 -1.02558 -0.00183463  -0.109692 -1.00657 -0.00147653  -0.164262 -1.15222 -0.00257444  -0.120733 -1.17275 -0.00157332  -0.102078 -1.1231 -0.00331354  -0.164531 -1.15253 -0.00128651  -0.145371 -1.10324 -0.00269413  -0.1024 -1.12344 -0.00165653  -0.145688 -1.1036 -0.00134325  -0.2035 -1.25077 -0.00232887  -0.159017 -1.27195 -0.00141597  -0.139323 -1.22197 -0.00298595  -0.203729 -1.25104 -0.00116634  -0.183606 -1.20137 -0.00244999  -0.139605 -1.22225 -0.00149441  -0.183877 -1.20167 -0.00122094  -0.244532 -1.35003 -0.00208998  -0.199221 -1.37179 -0.00125718  -0.178637 -1.32155 -0.00267935  -0.244728 -1.35026 -0.0010426  -0.223772 -1.30029 -0.0021987  -0.178889 -1.3218 -0.00134325  -0.224009 -1.30057 -0.0011034  -0.287131 -1.44983 -0.00184631  -0.241098 -1.47208 -0.00110817  -0.219738 -1.42167 -0.00237322  -0.287283 -1.45002 -0.000919819  -0.265617 -1.39984 -0.00196362  -0.219963 -1.42188 -0.00118709  -0.265816 -1.40008 -0.000979424  -0.33102 -1.55 -0.00163507  -0.28439 -1.57269 -0.000967979  -0.262381 -1.52217 -0.00208282  -0.331161 -1.55017 -0.000815392  -0.308884 -1.49984 -0.0017457  -0.262572 -1.52235 -0.00103855  -0.309059 -1.50005 -0.000869274  -0.376022 -1.65043 -0.00143433  -0.328876 -1.67348 -0.000850439  -0.306328 -1.62291 -0.00182295  -0.37614 -1.65057 -0.000720024  -0.35337 -1.60017 -0.00153685  -0.306485 -1.62306 -0.000908613  -0.353511 -1.60034 -0.000766516  -0.421945 -1.751 -0.00123978  -0.374358 -1.77434 -0.000735283  -0.35137 -1.72377 -0.0015769  -0.422031 -1.75112 -0.000617981  -0.398852 -1.70069 -0.00133896  -0.351496 -1.7239 -0.000784397  -0.398977 -1.70083 -0.000669003  -0.4686 -1.85161 -0.00106287  -0.42064 -1.87518 -0.000625849  -0.397292 -1.82466 -0.00134563  -0.468662 -1.85171 -0.000536919  -0.44516 -1.80129 -0.00115395  -0.397404 -1.82476 -0.000668764  -0.445255 -1.80141 -0.000582457  -0.515828 -1.95217 -0.000887394  -0.467566 -1.97592 -0.000520229  -0.443934 -1.92548 -0.0011363  -0.51587 -1.95226 -0.00044632  -0.492125 -1.90188 -0.000979424  -0.444029 -1.92556 -0.000569344  -0.492197 -1.90199 -0.000489473  -0.563483 -2.05263 -0.000734806  -0.514971 -2.07651 -0.000416756  -0.491129 -2.02618 -0.000946045  -0.563507 -2.0527 -0.000361443  -0.539589 -2.0024 -0.000813484  -0.491213 -2.02623 -0.000468969  -0.53964 -2.00249 -0.000404358  -0.611447 -2.15292 -0.000588417  -0.56274 -2.17688 -0.000342369  -0.538758 -2.12668 -0.00075531  -0.611467 -2.15297 -0.00029254  -0.58741 -2.10278 -0.000665188  -0.53881 -2.12672 -0.000371695  -0.587446 -2.10285 -0.000333309  -0.659603 -2.25298 -0.000466347  -0.610739 -2.277 -0.000262499  -0.586664 -2.22693 -0.000595093  -0.659604 -2.25302 -0.000233412  -0.635481 -2.20296 -0.000537872  -0.586708 -2.22697 -0.000299215  -0.635504 -2.20301 -0.000267506  -0.707858 -2.35279 -0.000339031  -0.658864 -2.37683 -0.000196695  -0.63475 -2.32693 -0.000448704  -0.70784 -2.35281 -0.000173092  -0.683698 -2.3029 -0.000407696  -0.634785 -2.32694 -0.000221729  -0.683704 -2.30294 -0.000208616  -0.756135 -2.45231 -0.000248909  -0.707052 -2.47635 -0.000130177  -0.682924 -2.42662 -0.000309467  -0.756105 -2.45232 -0.000125885  -0.731967 -2.40256 -0.000294209  -0.682952 -2.42663 -0.000152826  -0.731976 -2.4026 -0.000144243  -0.804346 -2.55153 -0.00014925  -0.755203 -2.57557 -8.41618e-05  -0.731111 -2.526 -0.000204563  -0.804327 -2.55154 -7.65324e-05  -0.78022 -2.50194 -0.000201702  -0.731124 -2.526 -0.000100136  -0.780217 -2.50197 -0.000100851  -0.852498 -2.65044 -6.29425e-05  -0.803305 -2.67448 -3.26633e-05  -0.779231 -2.62506 -0.000119209  -0.852469 -2.65046 -3.67165e-05  -0.828404 -2.60101 -0.000104427  -0.779257 -2.62505 -6.55651e-05  -0.828403 -2.60103 -5.24521e-05  -0.900493 -2.74908 3.67165e-05  -0.851282 -2.77312 3.95775e-05  -0.827292 -2.72383 -1.90735e-05  -0.900448 -2.74908 1.40667e-05  -0.876489 -2.69978 -2.0504e-05  -0.8273 -2.72381 -5.48363e-06  -0.876473 -2.6998 -1.12057e-05  0.0134219 -0.0310383 -0.00488281  0 0 0  0.0168773 -0.0399365 -0.00278139  0.00510798 -0.0207893 -0.00311661  0 0 0  0.013269 -0.0313395 -0.00239134  0.00403132 -0.0153646 -0.00269842  0 0 0  0.00504731 -0.0209944 -0.00152087  0.00397164 -0.0155435 -0.0013144  0.0383058 -0.0695555 -0.00795889  0.0471439 -0.0802941 -0.0045836  0.0320261 -0.0589914 -0.00778818  0.0379348 -0.0701625 -0.00392079  0.0253066 -0.0494604 -0.00668287  0.0317339 -0.0595638 -0.00382829  0.0250323 -0.049974 -0.00328541  0.0634546 -0.113921 -0.00924921  0.0763069 -0.124664 -0.0054121  0.0627519 -0.100659 -0.0102987  0.0629469 -0.114714 -0.00459146  0.0513358 -0.0907007 -0.00876617  0.0622652 -0.10147 -0.0050993  0.0508715 -0.0914596 -0.00433922  0.0840994 -0.166186 -0.00944233  0.100672 -0.177266 -0.00558662  0.0897298 -0.148933 -0.0111485  0.0835767 -0.167084 -0.00470352  0.0744692 -0.138938 -0.0094285  0.0891627 -0.14986 -0.00554967  0.0739254 -0.139848 -0.00469232  0.0990361 -0.226534 -0.00915527  0.119251 -0.238176 -0.00543356  0.111309 -0.205745 -0.0110908  0.0985223 -0.227461 -0.00455904  0.0923384 -0.195331 -0.00934076  0.11074 -0.206704 -0.00553465  0.091803 -0.196303 -0.00465918  0.107931 -0.294196 -0.00870228  0.131552 -0.306618 -0.00516081  0.12675 -0.270548 -0.0106387  0.107426 -0.295108 -0.0043478  0.104265 -0.25945 -0.00894785  0.126199 -0.271505 -0.00530457  0.103739 -0.260427 -0.00446415  0.11081 -0.368236 -0.00817347  0.137573 -0.381574 -0.00485396  0.13589 -0.342431 -0.0100355  0.110313 -0.369111 -0.00408292  0.110134 -0.330431 -0.00844955  0.135345 -0.343337 -0.005018  0.109613 -0.331372 -0.0042212  0.107911 -0.447696 -0.00762129  0.137536 -0.462027 -0.00451899  0.13883 -0.420317 -0.0093627  0.107435 -0.448508 -0.00380921  0.110092 -0.407301 -0.00790405  0.138305 -0.421158 -0.0046742  0.109582 -0.408181 -0.00394273  0.0995917 -0.531685 -0.00708866  0.131786 -0.547033 -0.00418377  0.13587 -0.503232 -0.00870419  0.0991212 -0.532424 -0.00353837  0.104437 -0.489137 -0.0073595  0.135358 -0.504002 -0.00435114  0.103937 -0.489943 -0.00367475  0.0862325 -0.619419 -0.00654745  0.12071 -0.635776 -0.00383925  0.127389 -0.590279 -0.0080328  0.0857887 -0.620081 -0.00327086  0.093545 -0.575087 -0.00681829  0.12689 -0.590974 -0.0040071  0.0930613 -0.575827 -0.00340319  0.0682464 -0.71021 -0.00603437  0.104781 -0.727575 -0.00353098  0.113808 -0.680701 -0.00738382  0.0678298 -0.710806 -0.0030148  0.077819 -0.664436 -0.0062871  0.113334 -0.681327 -0.00368738  0.0773661 -0.665087 -0.0031395  0.0460643 -0.803502 -0.00553036  0.0844114 -0.821796 -0.003227  0.095569 -0.77385 -0.00675583  0.0456872 -0.804027 -0.00276709  0.0576818 -0.756543 -0.00578356  0.0951293 -0.774406 -0.0033741  0.0572605 -0.757134 -0.00288606  0.0201019 -0.898791 -0.00504208  0.0600429 -0.917984 -0.00293636  0.0731157 -0.869174 -0.00615549  0.0197541 -0.899265 -0.00251174  0.0335615 -0.850886 -0.00528336  0.0727023 -0.869669 -0.00307107  0.0331736 -0.851414 -0.0026412  -0.00926542 -0.995709 -0.00458193  0.0320836 -1.0157 -0.00266027  0.0468776 -0.966246 -0.00559044  -0.0095787 -0.996119 -0.00229168  0.00584745 -0.947044 -0.00481272  0.0464851 -0.966673 -0.00279093  0.00549102 -0.947511 -0.00240779  -0.0416305 -1.09388 -0.00414085  0.000946522 -1.11462 -0.00239396  0.0172368 -1.06465 -0.00504541  -0.0419143 -1.09425 -0.002069  -0.0250653 -1.04462 -0.00436068  0.0168962 -1.06503 -0.00252461  -0.0253867 -1.04504 -0.00217581  -0.0766801 -1.19304 -0.00372267  -0.0330234 -1.21444 -0.00213814  -0.0153863 -1.1641 -0.00452852  -0.0769321 -1.19336 -0.00186062  -0.0588149 -1.14333 -0.00392199  -0.0157037 -1.16443 -0.00225806  -0.0591072 -1.14369 -0.0019598  -0.114071 -1.29295 -0.00332499  -0.0694721 -1.31493 -0.00191879  -0.0506768 -1.26433 -0.00405264  -0.114293 -1.29323 -0.00166321  -0.0950781 -1.24289 -0.00351667  -0.0509531 -1.26461 -0.0020237  -0.0953281 -1.2432 -0.00175524  -0.15352 -1.3934 -0.00294876  -0.108105 -1.41589 -0.00169134  -0.0882866 -1.3651 -0.00359488  -0.153706 -1.39365 -0.00147319  -0.133534 -1.3431 -0.00314093  -0.0885272 -1.36536 -0.00179768  -0.133755 -1.34337 -0.00156689  -0.194743 -1.49423 -0.00259209  -0.148612 -1.51714 -0.00148177  -0.12792 -1.46627 -0.00317144  -0.194899 -1.49444 -0.00129962  -0.173901 -1.44375 -0.0027709  -0.128132 -1.46648 -0.00158572  -0.174088 -1.444 -0.00138378  -0.237481 -1.59528 -0.00226641  -0.190736 -1.61857 -0.00129867  -0.169293 -1.56765 -0.00276566  -0.237612 -1.59546 -0.0011282  -0.215907 -1.54471 -0.00243282  -0.169481 -1.56784 -0.00137949  -0.216076 -1.54492 -0.00121737  -0.281494 -1.69645 -0.00196266  -0.234231 -1.72001 -0.00112128  -0.212161 -1.66914 -0.00239944  -0.281596 -1.69661 -0.000983  -0.259307 -1.64584 -0.00211763  -0.212321 -1.66928 -0.00120711  -0.259451 -1.64602 -0.00105429  -0.326594 -1.79763 -0.0016818  -0.278879 -1.82142 -0.000948668  -0.256283 -1.77061 -0.0020566  -0.326655 -1.79775 -0.000848293  -0.303895 -1.74702 -0.00182152  -0.256423 -1.77072 -0.00102758  -0.303995 -1.74718 -0.000908613  -0.372544 -1.89871 -0.00140381  -0.324465 -1.92268 -0.000792503  -0.301448 -1.87197 -0.00174236  -0.372596 -1.89881 -0.00069499  -0.349444 -1.84816 -0.00154305  -0.301556 -1.87207 -0.000872612  -0.349523 -1.8483 -0.000764608  -0.419199 -1.99965 -0.00118208  -0.370825 -2.02373 -0.000666857  -0.347471 -1.97315 -0.00144482  -0.419239 -1.99973 -0.000591755  -0.395763 -1.94918 -0.00129223  -0.347554 -1.97322 -0.000722885  -0.395837 -1.94929 -0.000644684  -0.466391 -2.10036 -0.000955582  -0.417771 -2.12452 -0.000537634  -0.394156 -2.0741 -0.0011878  -0.466415 -2.10043 -0.000473738  -0.442704 -2.05001 -0.00106287  -0.394229 -2.07416 -0.000589609  -0.442762 -2.0501 -0.00053525  -0.51399 -2.20083 -0.000759125  -0.46518 -2.22502 -0.000414133  -0.441356 -2.17477 -0.000942707  -0.513996 -2.20088 -0.000388861  -0.490123 -2.15062 -0.000851154  -0.441425 -2.1748 -0.000466585  -0.490156 -2.15069 -0.0004251  -0.561868 -2.30101 -0.00057745  -0.512904 -2.3252 -0.000315905  -0.488965 -2.27513 -0.0007267  -0.561855 -2.30104 -0.000291109  -0.53787 -2.25094 -0.000666618  -0.489005 -2.27514 -0.00036335  -0.537894 -2.25099 -0.000338078  -0.609908 -2.40087 -0.000415802  -0.560826 -2.42504 -0.000230312  -0.53681 -2.37515 -0.000539303  -0.609874 -2.40089 -0.000209093  -0.585839 -2.35095 -0.000493526  -0.536842 -2.37516 -0.000269175  -0.585845 -2.35101 -0.00024724  -0.658005 -2.5004 -0.000293732  -0.60885 -2.52454 -0.000167847  -0.584805 -2.47483 -0.000383854  -0.657974 -2.50042 -0.000154257  -0.63391 -2.45066 -0.000347614  -0.584827 -2.47483 -0.000185251  -0.633921 -2.45069 -0.000176907  -0.706116 -2.59961 -0.000172615  -0.6569 -2.6237 -0.000101328  -0.632853 -2.57417 -0.000255585  -0.706068 -2.59961 -8.08239e-05  -0.682035 -2.55002 -0.000234127  -0.632872 -2.57416 -0.000137568  -0.68202 -2.55005 -0.000123978  -0.754152 -2.69848 -7.24792e-05  -0.70492 -2.72256 -4.41074e-05  -0.680906 -2.67317 -0.00012207  -0.754133 -2.6985 -3.74317e-05  -0.730113 -2.64906 -0.000116825  -0.68091 -2.67317 -5.57899e-05  -0.730101 -2.64909 -6.17504e-05  -0.802144 -2.79712 3.71933e-05  -0.752915 -2.82119 2.57492e-05  -0.728908 -2.77189 -2.57492e-05  -0.802111 -2.79713 2.26498e-05  -0.778141 -2.74782 -1.81198e-05  -0.728922 -2.77189 -1.40667e-05  -0.778124 -2.74784 -9.05991e-06  0.0228326 -0.0512133 -0.00642967  0 0 0  0.0310246 -0.066292 -0.00351357  0.0102026 -0.0389009 -0.00399542  0 0 0  0.022722 -0.0516345 -0.00314498  0.00666896 -0.0280902 -0.00345612  0 0 0  0.0102153 -0.0392357 -0.00194335  0.00663249 -0.0283378 -0.00168395  0.0584147 -0.090646 -0.0106182  0.0706478 -0.102805 -0.00588536  0.052415 -0.0830823 -0.00994015  0.0580604 -0.0913882 -0.005234  0.0412351 -0.0704282 -0.00886345  0.0522595 -0.0838367 -0.00488138  0.0409987 -0.0710844 -0.0043571  0.0909579 -0.134467 -0.0124936  0.105586 -0.146744 -0.00695014  0.0886996 -0.122599 -0.0132365  0.0904477 -0.135342 -0.00620055  0.0750916 -0.111354 -0.0117869  0.0882397 -0.123516 -0.0065527  0.0746239 -0.112223 -0.00583482  0.119041 -0.187233 -0.0128775  0.137142 -0.199738 -0.0072093  0.122686 -0.170975 -0.0143824  0.11849 -0.188154 -0.00642371  0.105741 -0.159616 -0.0128012  0.122098 -0.171956 -0.00715256  0.105181 -0.160572 -0.0063746  0.141145 -0.248698 -0.012547  0.162704 -0.261835 -0.00704098  0.151346 -0.228674 -0.0143652  0.1406 -0.24962 -0.00626302  0.130917 -0.216842 -0.012773  0.150751 -0.229635 -0.00717258  0.130351 -0.217812 -0.00637364  0.156755 -0.318003 -0.0119209  0.181622 -0.331943 -0.00670147  0.173628 -0.294993 -0.013804  0.15624 -0.318881 -0.00595331  0.149807 -0.282375 -0.0122681  0.173039 -0.295914 -0.00689387  0.149257 -0.283321 -0.00612712  0.165828 -0.393981 -0.0111771  0.193702 -0.408861 -0.00627804  0.189089 -0.368736 -0.0130115  0.165331 -0.39481 -0.00558209  0.162131 -0.355171 -0.0115623  0.188535 -0.369597 -0.00649786  0.161604 -0.356063 -0.00577927  0.16855 -0.475546 -0.0103793  0.199163 -0.491403 -0.00584507  0.197817 -0.44868 -0.0121365  0.168075 -0.476309 -0.00518894  0.168001 -0.434076 -0.0107765  0.197263 -0.449462 -0.00605798  0.167488 -0.434911 -0.00537968  0.165262 -0.561689 -0.00959301  0.198329 -0.578547 -0.00537729  0.200056 -0.533713 -0.0112391  0.164808 -0.562386 -0.00479102  0.167669 -0.518049 -0.00999355  0.199517 -0.534436 -0.00561571  0.167175 -0.51882 -0.00499678  0.156403 -0.651573 -0.00882053  0.191641 -0.669407 -0.00495028  0.196209 -0.622899 -0.0103426  0.155962 -0.652205 -0.00440121  0.161534 -0.60617 -0.00920343  0.195707 -0.623543 -0.00516558  0.161063 -0.606861 -0.00459003  0.142412 -0.744463 -0.00808096  0.179611 -0.763215 -0.00452518  0.186763 -0.715389 -0.00948668  0.142 -0.745023 -0.00403929  0.150054 -0.697645 -0.00845003  0.186271 -0.715971 -0.00473762  0.149601 -0.698274 -0.00421691  0.123746 -0.839717 -0.00734901  0.162674 -0.859354 -0.00412369  0.172179 -0.810503 -0.00865984  0.123373 -0.84023 -0.00367188  0.133664 -0.791793 -0.00772095  0.171736 -0.81102 -0.00433469  0.133253 -0.792348 -0.0038569  0.100882 -0.936861 -0.0066781  0.141333 -0.957309 -0.00374818  0.152954 -0.907679 -0.00786448  0.100529 -0.937313 -0.00333643  0.112839 -0.888054 -0.00701714  0.152537 -0.908117 -0.003932  0.112456 -0.888549 -0.00350356  0.0742421 -1.03546 -0.00603724  0.116042 -1.05663 -0.0033834  0.129559 -1.0064 -0.00710869  0.0739231 -1.03586 -0.00301433  0.0880378 -0.985969 -0.0063653  0.129163 -1.00681 -0.00355172  0.0876794 -0.98642 -0.00317502  0.0442412 -1.13517 -0.00542641  0.0872229 -1.15698 -0.003052  0.102415 -1.10637 -0.00639772  0.043963 -1.13552 -0.00271153  0.0596638 -1.08517 -0.00572824  0.102052 -1.10669 -0.00319791  0.0593446 -1.08556 -0.00286388  0.0112855 -1.2357 -0.00485802  0.055306 -1.25809 -0.00270247  0.0719609 -1.20717 -0.00573444  0.0110261 -1.236 -0.00242567  0.0281385 -1.18532 -0.0051384  0.0716326 -1.20746 -0.00286269  0.0278462 -1.18566 -0.00257063  -0.024308 -1.33681 -0.00432396  0.0206437 -1.35972 -0.00238919  0.0385871 -1.30859 -0.00510931  -0.0245242 -1.33707 -0.00216389  -0.00617933 -1.28617 -0.00458288  0.0382922 -1.30886 -0.00255442  -0.00643921 -1.28647 -0.00229263  -0.0621867 -1.43831 -0.00380754  -0.0164347 -1.46163 -0.00211811  0.00263739 -1.41042 -0.0045023  -0.0623722 -1.43853 -0.00190258  -0.0429485 -1.3875 -0.00405455  0.00238419 -1.41065 -0.00225568  -0.0431697 -1.38776 -0.00202322  -0.10205 -1.54002 -0.00333929  -0.0556142 -1.5637 -0.00186205  -0.0355573 -1.51248 -0.00396252  -0.102211 -1.54021 -0.00166392  -0.0818603 -1.48912 -0.00357056  -0.035784 -1.51265 -0.00197792  -0.0820541 -1.48935 -0.00178695  -0.143626 -1.64181 -0.00289917  -0.0965881 -1.66578 -0.00160575  -0.0756865 -1.61459 -0.00344276  -0.143757 -1.64198 -0.00144362  -0.122612 -1.59089 -0.00311184  -0.0758948 -1.61475 -0.00171828  -0.12278 -1.59109 -0.00155449  -0.186665 -1.74358 -0.00249434  -0.139124 -1.76776 -0.0013864  -0.117507 -1.71666 -0.00297117  -0.186761 -1.74371 -0.00125289  -0.164957 -1.69269 -0.00269222  -0.117683 -1.71678 -0.00149035  -0.165089 -1.69285 -0.00134754  -0.230924 -1.84521 -0.00211239  -0.182957 -1.86954 -0.00117517  -0.160762 -1.81857 -0.00255013  -0.231002 -1.84533 -0.00105643  -0.208635 -1.7944 -0.00230503  -0.160895 -1.81867 -0.00127745  -0.208739 -1.79454 -0.00116086  -0.276197 -1.94666 -0.00176144  -0.227881 -1.97109 -0.000965118  -0.205182 -1.92027 -0.00213242  -0.27625 -1.94675 -0.000881672  -0.25342 -1.89594 -0.0019393  -0.205297 -1.92035 -0.00107169  -0.253507 -1.89606 -0.000971556  -0.322285 -2.04783 -0.00145197  -0.273677 -2.07231 -0.000802994  -0.250577 -2.02168 -0.00175619  -0.322322 -2.04791 -0.000720024  -0.299129 -1.99726 -0.00160122  -0.250677 -2.02174 -0.00087595  -0.299185 -1.99736 -0.000801802  -0.369033 -2.14871 -0.00116968  -0.320188 -2.17319 -0.00062561  -0.296789 -2.12274 -0.00142765  -0.369048 -2.14877 -0.00058341  -0.34556 -2.09829 -0.00130177  -0.296854 -2.1228 -0.000717163  -0.345606 -2.09837 -0.000647068  -0.416278 -2.24925 -0.000910282  -0.367266 -2.2737 -0.000477791  -0.343609 -2.22346 -0.00111961  -0.41628 -2.24929 -0.000454903  -0.392569 -2.19899 -0.00102615  -0.34367 -2.2235 -0.000559568  -0.392605 -2.19907 -0.000511169  -0.463899 -2.34942 -0.00067997  -0.414746 -2.37382 -0.000355482  -0.390915 -2.32379 -0.000846386  -0.463885 -2.34945 -0.000336647  -0.440027 -2.29936 -0.000790119  -0.390961 -2.32381 -0.000418663  -0.440038 -2.29941 -0.000396967  -0.511745 -2.44923 -0.000498772  -0.462516 -2.47356 -0.000270367  -0.438566 -2.42372 -0.000621796  -0.511722 -2.44926 -0.000244617  -0.487767 -2.39935 -0.000583172  -0.438603 -2.42373 -0.000305414  -0.487778 -2.39939 -0.000283718  -0.559727 -2.54869 -0.000347137  -0.510427 -2.57292 -0.000181437  -0.486435 -2.52328 -0.000434399  -0.559682 -2.5487 -0.000180006  -0.535693 -2.49898 -0.000417709  -0.486454 -2.52329 -0.000216722  -0.535683 -2.49902 -0.000204563  -0.607747 -2.6478 -0.000200748  -0.558447 -2.67195 -9.67979e-05  -0.534419 -2.62247 -0.000275135  -0.607707 -2.64781 -9.89437e-05  -0.583705 -2.59826 -0.000267506  -0.534431 -2.62247 -0.000138044  -0.583691 -2.59829 -0.000132084  -0.655754 -2.7466 -8.34465e-05  -0.606454 -2.7707 -4.55379e-05  -0.582422 -2.72136 -0.000165462  -0.655708 -2.74661 -3.74317e-05  -0.631723 -2.69721 -0.000145912  -0.582453 -2.72135 -8.74996e-05  -0.631712 -2.69724 -7.55787e-05  -0.703756 -2.84521 2.0504e-05  -0.654488 -2.86931 1.50204e-05  -0.630447 -2.82001 -5.43594e-05  -0.703725 -2.84524 7.62939e-06  -0.679729 -2.7959 -2.86102e-05  -0.630461 -2.82001 -3.12328e-05  -0.679709 -2.79594 -1.88351e-05  -0.0334012 -0.0410886 0.0162401  -0.0126483 -0.021475 0.0125775  0 0 0  -0.0197125 -0.0241292 0.0185075  0 0 0  -0.0123577 -0.0165465 0.0112429  -0.00399671 -0.00584263 0.00858974  0 0 0  -0.0131005 -0.0227109 0.0091629  -0.019926 -0.0261645 0.013566  -0.00601152 -0.0110887 0.0100818  0 0 0  -0.00394764 -0.00658567 0.0063076  -0.00602343 -0.011951 0.00738096  -0.0716864 -0.0601202 0.025166  -0.0514998 -0.0458366 0.0292535  -0.0526261 -0.0474673 0.0294671  -0.0384406 -0.0435992 0.0182214  -0.0243785 -0.026694 0.0208006  -0.052655 -0.0491299 0.0213933  -0.0531692 -0.0512237 0.0216722  -0.0358752 -0.0348487 0.0249252  -0.0244156 -0.0293415 0.0152631  -0.0362833 -0.0378575 0.0182829  -0.110845 -0.0868947 0.0290451  -0.0898307 -0.0680368 0.0376015  -0.0871175 -0.0761094 0.0338016  -0.0682831 -0.0756727 0.0211802  -0.0528249 -0.0549215 0.0272031  -0.0909414 -0.0725818 0.0276761  -0.0878356 -0.0805172 0.0250635  -0.0696365 -0.060703 0.0323176  -0.0531987 -0.0586687 0.0201087  -0.0702698 -0.0649205 0.0238528  -0.151026 -0.120498 0.0290828  -0.129826 -0.097831 0.0395055  -0.122626 -0.11307 0.0334764  -0.0993494 -0.115374 0.0213165  -0.0829086 -0.0905738 0.028728  -0.130897 -0.102691 0.0294147  -0.123648 -0.117398 0.0251489  -0.104808 -0.0935421 0.0340099  -0.0836683 -0.0945881 0.021502  -0.10566 -0.0979995 0.0254073  -0.191265 -0.161624 0.0270014  -0.169881 -0.135641 0.0374918  -0.158677 -0.15779 0.0309  -0.131608 -0.162299 0.0198259  -0.114104 -0.134219 0.0273829  -0.171165 -0.140182 0.0282106  -0.160063 -0.16164 0.0233746  -0.14057 -0.13451 0.0323467  -0.115333 -0.137992 0.0206885  -0.141793 -0.13866 0.0244012  -0.231412 -0.209568 0.0241346  -0.209827 -0.180896 0.0338526  -0.19537 -0.20917 0.0275054  -0.165043 -0.215625 0.0176992  -0.146584 -0.184884 0.0247693  -0.211361 -0.184815 0.0256114  -0.197028 -0.212454 0.0208678  -0.176922 -0.182679 0.0292401  -0.148177 -0.18822 0.0187945  -0.178483 -0.18629 0.0221615  -0.27157 -0.263597 0.0211253  -0.249787 -0.232624 0.0298271  -0.232786 -0.266339 0.0240612  -0.199673 -0.274584 0.0154581  -0.180388 -0.241605 0.0218148  -0.251499 -0.235895 0.022615  -0.234593 -0.269069 0.0182538  -0.213965 -0.237052 0.0257621  -0.182204 -0.244438 0.0165749  -0.215733 -0.240084 0.0195522  -0.312027 -0.323111 0.0183458  -0.28999 -0.290062 0.026001  -0.271052 -0.328612 0.0208807  -0.235515 -0.33853 0.0133586  -0.215538 -0.303581 0.0189629  -0.29176 -0.292748 0.0197077  -0.272877 -0.330868 0.0158343  -0.251789 -0.29685 0.0224228  -0.217435 -0.305962 0.0143948  -0.253638 -0.299364 0.0170145  -0.353025 -0.387508 0.0159063  -0.330694 -0.352555 0.0225568  -0.310267 -0.395466 0.0180907  -0.272637 -0.406976 0.0115309  -0.252015 -0.370238 0.0163865  -0.33248 -0.354766 0.0170908  -0.312058 -0.397334 0.0136981  -0.290516 -0.361473 0.0194354  -0.253914 -0.372225 0.0124269  -0.292361 -0.363564 0.0147262  -0.394722 -0.456292 0.0138197  -0.372097 -0.419592 0.0195956  -0.350544 -0.466454 0.0156703  -0.311063 -0.479461 0.00994301  -0.289864 -0.441083 0.0141578  -0.373798 -0.421397 0.0148301  -0.352213 -0.467993 0.0118489  -0.330255 -0.430441 0.0168409  -0.291683 -0.442732 0.0107064  -0.332011 -0.432173 0.0127473  -0.437269 -0.529043 0.0119791  -0.414321 -0.490701 0.0170231  -0.391902 -0.54116 0.0135856  -0.350814 -0.555587 0.00856638  -0.329072 -0.515706 0.0122194  -0.415898 -0.492214 0.0128565  -0.393445 -0.542453 0.0102534  -0.371062 -0.503335 0.0145874  -0.33077 -0.517088 0.00923967  -0.372696 -0.504783 0.0110235  -0.48069 -0.605346 0.0104022  -0.457419 -0.565513 0.0147943  -0.434354 -0.619232 0.0117841  -0.391884 -0.634981 0.00739765  -0.36963 -0.593744 0.0105529  -0.458872 -0.566777 0.0111704  -0.435758 -0.620311 0.00888634  -0.41297 -0.579772 0.0126505  -0.371183 -0.594896 0.00796127  -0.414466 -0.580977 0.00954437  -0.525005 -0.684852 0.00901508  -0.501416 -0.643664 0.0128403  -0.477873 -0.700321 0.0101895  -0.434199 -0.717308 0.00636148  -0.411467 -0.674825 0.00910425  -0.502746 -0.64473 0.00968218  -0.47914 -0.701233 0.00768089  -0.455958 -0.659388 0.0109634  -0.412884 -0.675802 0.00686359  -0.457325 -0.660412 0.00825787  -0.570204 -0.767268 0.00780535  -0.546321 -0.724823 0.0111237  -0.522409 -0.784149 0.00878572  -0.4777 -0.802253 0.00546455  -0.454534 -0.758659 0.00783491  -0.547509 -0.725726 0.00837898  -0.523545 -0.784917 0.00661516  -0.5 -0.741895 0.00947046  -0.455806 -0.759472 0.00590229  -0.50122 -0.742756 0.0071311  -0.616205 -0.852254 0.00669622  -0.592047 -0.808703 0.00960112  -0.567882 -0.870386 0.00753498  -0.522289 -0.88952 0.00465775  -0.498719 -0.844918 0.00671244  -0.593109 -0.809459 0.00723934  -0.568886 -0.871046 0.00566912  -0.545007 -0.826958 0.00814962  -0.499858 -0.845612 0.00505018  -0.5461 -0.827687 0.00613356  -0.662928 -0.939556 0.00571585  -0.63854 -0.894999 0.00823355  -0.614199 -0.958807 0.00642538  -0.567845 -0.978843 0.00395346  -0.543934 -0.933361 0.00571156  -0.639487 -0.895631 0.00620317  -0.615073 -0.959359 0.00483084  -0.590919 -0.914315 0.00696325  -0.544951 -0.933937 0.00429964  -0.591874 -0.914948 0.00523901  -0.710304 -1.02891 0.00487137  -0.68572 -0.983461 0.00701332  -0.661235 -1.04913 0.00541878  -0.614253 -1.06997 0.0033226  -0.590055 -1.02371 0.00481796  -0.686546 -0.984001 0.00528383  -0.662004 -1.0496 0.00407457  -0.63761 -1.00372 0.00590944  -0.590944 -1.0242 0.00362015  -0.638452 -1.00425 0.00444794  -0.75823 -1.12007 0.00407648  -0.733464 -1.07383 0.00590611  -0.708905 -1.14114 0.00453472  -0.66138 -1.16267 0.00275755  -0.636949 -1.11573 0.00402594  -0.734215 -1.07428 0.00443316  -0.709561 -1.14151 0.00340509  -0.684967 -1.09492 0.00497007  -0.637732 -1.11613 0.00302935  -0.685709 -1.09536 0.00373697  -0.80661 -1.2128 0.00337887  -0.781727 -1.16589 0.00494003  -0.757097 -1.23459 0.00373554  -0.709142 -1.25674 0.00223589  -0.684515 -1.20921 0.00331926  -0.782366 -1.16625 0.0037117  -0.75766 -1.23492 0.00281096  -0.732909 -1.18767 0.00412321  -0.68519 -1.20955 0.00248528  -0.733552 -1.18804 0.00309706  -0.855363 -1.30692 0.00275993  -0.830425 -1.2594 0.00406837  -0.805728 -1.32933 0.0030303  -0.757401 -1.35198 0.00180578  -0.732622 -1.30396 0.00268602  -0.830951 -1.2597 0.00306511  -0.806201 -1.32959 0.00228357  -0.781341 -1.2818 0.00337887  -0.733207 -1.30423 0.00202703  -0.781882 -1.28211 0.0025382  -0.90438 -1.4022 0.00221443  -0.879387 -1.35418 0.00328112  -0.854654 -1.42512 0.00239801  -0.806028 -1.44822 0.00141096  -0.781174 -1.39977 0.0021286  -0.879836 -1.35443 0.00246811  -0.855043 -1.42534 0.00181055  -0.83013 -1.37708 0.00270939  -0.78167 -1.39999 0.00159597  -0.830582 -1.37734 0.00203419  -0.953576 -1.49849 0.00170135  -0.928581 -1.45004 0.00260162  -0.903811 -1.52184 0.00185251  -0.854947 -1.54529 0.00106764  -0.830042 -1.49649 0.00163126  -0.92896 -1.45024 0.00196028  -0.904126 -1.52201 0.00139618  -0.879185 -1.47336 0.0021143  -0.830454 -1.49666 0.00122547  -0.879562 -1.47357 0.00158453  -1.00287 -1.59562 0.00128841  -0.977906 -1.54682 0.00199366  -0.953093 -1.6193 0.00136614  -0.904057 -1.64301 0.00077343  -0.87913 -1.59395 0.00121403  -0.978225 -1.54696 0.00149632  -0.95335 -1.61943 0.00102806  -0.928414 -1.57047 0.00160217  -0.87948 -1.59407 0.000912666  -0.928726 -1.57064 0.00120544  -1.05218 -1.6934 0.000916481  -1.02728 -1.64432 0.00145245  -1.00242 -1.71733 0.000965595  -0.953254 -1.74127 0.000523567  -0.928346 -1.69199 0.000855446  -1.02753 -1.64443 0.00109291  -1.00262 -1.71744 0.000723362  -0.977732 -1.66823 0.00115824  -0.928644 -1.69208 0.000643253  -0.977979 -1.66837 0.000873089  -1.10145 -1.79171 0.000638008  -1.07664 -1.74242 0.00100803  -1.05175 -1.81585 0.000633717  -1.00247 -1.83992 0.000319958  -0.97763 -1.79048 0.000552654  -1.07682 -1.7425 0.000765324  -1.05188 -1.81592 0.000483036  -1.02707 -1.76653 0.000782967  -0.977852 -1.79055 0.000418663  -1.02725 -1.76662 0.000587463  -1.15064 -1.89043 0.000394821  -1.12592 -1.84097 0.000658035  -1.10099 -1.91468 0.000363827  -1.05165 -1.93886 0.000154495  -1.02689 -1.88932 0.000311375  -1.12607 -1.84103 0.000511646  -1.10108 -1.91473 0.000267506  -1.07635 -1.86521 0.000484467  -1.02706 -1.88937 0.000238419  -1.07649 -1.86529 0.000368595  -1.19969 -1.9894 0.000193596  -1.17507 -1.93984 0.00037241  -1.15011 -2.01372 0.000143528  -1.10073 -2.03798 4.43459e-05  -1.07607 -1.98837 0.000125885  -1.17518 -1.93989 0.000284195  -1.15016 -2.01376 0.000114918  -1.12554 -1.96415 0.000244141  -1.07619 -1.9884 9.77516e-05  -1.12564 -1.96422 0.000190258  -1.24857 -2.08852 6.86646e-05  -1.22409 -2.03894 0.000163555  -1.19906 -2.11288 1.00136e-05  -1.14967 -2.13714 -4.57764e-05  -1.12512 -2.08755 -1.00136e-05  -1.22416 -2.03895 0.000123501  -1.1991 -2.1129 1.23978e-05  -1.17459 -2.06328 6.53267e-05  -1.12522 -2.08756 -6.19888e-06  -1.17465 -2.06332 5.76973e-05  -1.29728 -2.1877 -7.15256e-06  -1.2729 -2.13812 2.67029e-05  -1.24783 -2.21203 -6.53267e-05  -1.19845 -2.23628 -8.34465e-05  -1.17401 -2.18672 -9.67979e-05  -1.27295 -2.13812 3.62396e-05  -1.24785 -2.21204 -3.91006e-05  -1.22345 -2.16244 -3.24249e-05  -1.17409 -2.18671 -6.81877e-05  -1.2235 -2.16248 -1.57356e-05  -1.34583 -2.28682 -5.10216e-05  -1.32153 -2.23728 -6.05583e-05  -1.29643 -2.31112 -0.000101089  -1.24705 -2.33533 -9.05991e-05  -1.22271 -2.28584 -0.000119209  -1.32157 -2.23727 -4.24385e-05  -1.29643 -2.31111 -7.39098e-05  -1.27213 -2.26157 -9.29832e-05  -1.22277 -2.28582 -9.77516e-05  -1.27216 -2.26158 -6.19888e-05  -1.39425 -2.38582 -4.81606e-05  -1.37001 -2.33637 -7.43866e-05  -1.34488 -2.41007 -9.82285e-05  -1.29549 -2.43425 -7.39098e-05  -1.27124 -2.38484 -0.000116825  -1.37005 -2.33633 -4.05312e-05  -1.34486 -2.41006 -7.05719e-05  -1.32064 -2.3606 -0.000100613  -1.27128 -2.38481 -8.29697e-05  -1.32066 -2.36061 -6.7234e-05  -1.44259 -2.48467 -5.10216e-05  -1.41838 -2.4353 -7.39098e-05  -1.39319 -2.50886 -9.39369e-05  -1.34381 -2.53298 -7.39098e-05  -1.31961 -2.48366 -0.000106335  -1.41843 -2.43527 -3.8147e-05  -1.39321 -2.50885 -7.15256e-05  -1.36901 -2.45946 -9.44138e-05  -1.31966 -2.48363 -7.77245e-05  -1.36904 -2.45947 -6.81877e-05  -0.00849597 -0.0100449 0.012372  0 0 0  -0.00559639 -0.00874467 0.00711966  -0.00178632 -0.00148278 0.00531149  0 0 0  -0.00841814 -0.0115137 0.00907326  -0.00254988 -0.00300352 0.00679111  0 0 0  -0.00176919 -0.00210944 0.00388241  -0.002488 -0.00370435 0.00498295  -0.0274763 -0.0349925 0.0202584  -0.0187108 -0.0344986 0.0117879  -0.0113095 -0.0183317 0.0133619  -0.0275612 -0.0378045 0.0149112  -0.0170464 -0.0212585 0.0169077  -0.0113546 -0.0202857 0.00981379  -0.0170141 -0.0235215 0.0124154  -0.0511793 -0.0689042 0.0234709  -0.03698 -0.0706089 0.0139146  -0.0271244 -0.0486878 0.0176969  -0.0516225 -0.0723703 0.0174832  -0.0390118 -0.050858 0.0223222  -0.0273831 -0.0515525 0.0131326  -0.0392683 -0.054125 0.0165396  -0.0768358 -0.110867 0.0233555  -0.0581279 -0.114611 0.0140347  -0.0465997 -0.0884145 0.0188141  -0.0777476 -0.114415 0.0176172  -0.0637838 -0.0888463 0.0236659  -0.0472711 -0.0916643 0.014142  -0.0644605 -0.092453 0.0177536  -0.104277 -0.160338 0.0215831  -0.0815541 -0.165774 0.0130501  -0.0684022 -0.136122 0.0179658  -0.105639 -0.163619 0.0163856  -0.0903065 -0.134695 0.022583  -0.069554 -0.13935 0.0136275  -0.0914744 -0.138174 0.0170965  -0.133624 -0.216268 0.0192075  -0.107302 -0.223252 0.0115857  -0.0925968 -0.190803 0.0162168  -0.135294 -0.219155 0.0146093  -0.11869 -0.187504 0.0204277  -0.0941344 -0.193769 0.0123491  -0.120242 -0.190648 0.0155306  -0.164883 -0.277749 0.0167298  -0.135345 -0.286237 0.0100598  -0.119275 -0.251478 0.0142078  -0.166713 -0.280237 0.0127206  -0.148992 -0.246322 0.0179563  -0.12103 -0.254091 0.0108132  -0.15078 -0.249036 0.0136542  -0.197992 -0.34411 0.0144486  -0.165618 -0.354059 0.00860643  -0.148345 -0.31731 0.0122404  -0.199848 -0.3462 0.0109711  -0.181188 -0.310312 0.0155663  -0.150202 -0.319565 0.00931978  -0.18306 -0.31263 0.0118322  -0.23288 -0.414771 0.0124307  -0.198027 -0.426173 0.00733995  -0.179703 -0.387684 0.010479  -0.234688 -0.416535 0.00941801  -0.215186 -0.378892 0.0134058  -0.181555 -0.3896 0.00795889  -0.217051 -0.380846 0.0101676  -0.269486 -0.489292 0.0106812  -0.23247 -0.502104 0.00623655  -0.213224 -0.462052 0.00894547  -0.271196 -0.490788 0.00807905  -0.250946 -0.451546 0.0115323  -0.214994 -0.463683 0.00678062  -0.252729 -0.45319 0.00873089  -0.307743 -0.567291 0.00918293  -0.268831 -0.581439 0.00528765  -0.248748 -0.539985 0.00761557  -0.309321 -0.56854 0.00693274  -0.288388 -0.527848 0.00990486  -0.250409 -0.541363 0.00576162  -0.290049 -0.529238 0.00748539  -0.347573 -0.64839 0.00786924  -0.307031 -0.6638 0.00449133  -0.286182 -0.621091 0.00647402  -0.349009 -0.649446 0.00593376  -0.327441 -0.607438 0.00849962  -0.287703 -0.622258 0.00489092  -0.328971 -0.608613 0.00641251  -0.388853 -0.732256 0.00674915  -0.346896 -0.748849 0.00380659  -0.325362 -0.705017 0.00548601  -0.390144 -0.733142 0.0050807  -0.368002 -0.689964 0.00729036  -0.326756 -0.706001 0.00414419  -0.369393 -0.690958 0.00549746  -0.431494 -0.818575 0.00574923  -0.388311 -0.836277 0.00319624  -0.366156 -0.791449 0.00464296  -0.432651 -0.819334 0.00432825  -0.409988 -0.775095 0.00623417  -0.36742 -0.79228 0.00349522  -0.411234 -0.775945 0.00469255  -0.475364 -0.907093 0.00488186  -0.431128 -0.925787 0.00268173  -0.408433 -0.880068 0.0038991  -0.476391 -0.907735 0.00367308  -0.453254 -0.86255 0.00529909  -0.409549 -0.88078 0.00293398  -0.454371 -0.863272 0.0039897  -0.520343 -0.997528 0.00409555  -0.475186 -1.01712 0.00221348  -0.452009 -0.970625 0.00324774  -0.521235 -0.99807 0.0030756  -0.49769 -0.952058 0.00447702  -0.453004 -0.971239 0.00243759  -0.498679 -0.95267 0.00336647  -0.566259 -1.08963 0.00341654  -0.520338 -1.11002 0.0018096  -0.496755 -1.06288 0.00267124  -0.567047 -1.09008 0.00256491  -0.543159 -1.04335 0.00374174  -0.497629 -1.06338 0.00200844  -0.544024 -1.04388 0.00281239  -0.613015 -1.18318 0.00280476  -0.566434 -1.20429 0.00145483  -0.542498 -1.15657 0.0021739  -0.613691 -1.18356 0.00210571  -0.589513 -1.13621 0.00309658  -0.54327 -1.15699 0.0016346  -0.59027 -1.13665 0.0023284  -0.660473 -1.27801 0.00225401  -0.613336 -1.29972 0.0011363  -0.589107 -1.25151 0.00171757  -0.661051 -1.27832 0.00169182  -0.636631 -1.23043 0.00251627  -0.589789 -1.25186 0.00128508  -0.637288 -1.23079 0.00188446  -0.708469 -1.37388 0.00177288  -0.660864 -1.39613 0.000854015  -0.636438 -1.34752 0.00131893  -0.708966 -1.37414 0.00132227  -0.684374 -1.3258 0.00200987  -0.637019 -1.34781 0.000992298  -0.684934 -1.3261 0.00150776  -0.756936 -1.47066 0.00135803  -0.70893 -1.49335 0.000636578  -0.684335 -1.44441 0.00099802  -0.757337 -1.47086 0.00101852  -0.732622 -1.42214 0.00156212  -0.684839 -1.44465 0.000745296  -0.7331 -1.4224 0.00117445  -0.805721 -1.56816 0.00100327  -0.757393 -1.59123 0.000436783  -0.732701 -1.54202 0.000697613  -0.806053 -1.56833 0.000748634  -0.781258 -1.51931 0.00117159  -0.733113 -1.54222 0.00052166  -0.781655 -1.51951 0.00087738  -0.854727 -1.66626 0.000682831  -0.806152 -1.68963 0.00026989  -0.7814 -1.64021 0.000456333  -0.855002 -1.66639 0.000522614  -0.830179 -1.61713 0.000842094  -0.78174 -1.64037 0.000343323  -0.830504 -1.61729 0.000636101  -0.903869 -1.76481 0.000424862  -0.855092 -1.78842 0.000117302  -0.830312 -1.73886 0.000245571  -0.904082 -1.76491 0.000314713  -0.879252 -1.71546 0.000554085  -0.830599 -1.73898 0.000183582  -0.879524 -1.7156 0.000411987  -0.95308 -1.8637 0.000225544  -0.904123 -1.88748 1.23978e-05  -0.879362 -1.83783 8.44002e-05  -0.953223 -1.86377 0.000165939  -0.928438 -1.81419 0.000319481  -0.879597 -1.83791 5.91278e-05  -0.928644 -1.81429 0.000231743  -1.00225 -1.96279 6.77109e-05  -0.953176 -1.9867 -8.2016e-05  -0.92846 -1.93701 -3.76701e-05  -1.00236 -1.96284 4.91142e-05  -0.977632 -1.91319 0.000135422  -0.92864 -1.93707 -2.14577e-05  -0.97779 -1.91328 0.000105381  -1.05134 -2.06201 -4.62532e-05  -1.00218 -2.08601 -0.000118256  -0.977547 -2.03631 -0.000134468  -1.05141 -2.06204 -3.48091e-05  -1.02677 -2.01237 1.90735e-06  -0.977682 -2.03635 -0.000104427  -1.02689 -2.01243 2.38419e-06  -1.10031 -2.16124 -0.000119209  -1.05107 -2.1853 -0.00013876  -1.02653 -2.13564 -0.000171185  -1.10034 -2.16125 -9.20296e-05  -1.0758 -2.1116 -9.34601e-05  -1.02664 -2.13566 -0.000124454  -1.07589 -2.11164 -6.48499e-05  -1.14911 -2.26042 -0.000151634  -1.09982 -2.28452 -0.000145912  -1.07539 -2.23491 -0.00018692  -1.14911 -2.26043 -0.000115395  -1.1247 -2.21082 -0.000137329  -1.07547 -2.23492 -0.000148296  -1.12474 -2.21085 -0.000105858  -1.19772 -2.35948 -0.000145435  -1.14842 -2.38358 -0.000126839  -1.12408 -2.33406 -0.000183105  -1.19772 -2.35948 -0.000110626  -1.17341 -2.30995 -0.000144005  -1.12414 -2.33406 -0.000137329  -1.17344 -2.30997 -0.000106812  -1.24615 -2.45838 -0.000117302  -1.19683 -2.48247 -9.63211e-05  -1.1726 -2.43305 -0.000144958  -1.24615 -2.45839 -8.7738e-05  -1.22193 -2.40894 -0.000136375  -1.17264 -2.43304 -0.000107288  -1.22194 -2.40895 -9.91821e-05  -1.29442 -2.55706 -0.000106335  -1.24507 -2.58112 -6.34193e-05  -1.22092 -2.53183 -0.000113964  -1.29443 -2.55707 -7.58171e-05  -1.27028 -2.50774 -0.000112534  -1.22096 -2.53182 -8.15392e-05  -1.27029 -2.50775 -8.2016e-05  -0.0031741 -0.00651377 0.00706482  0 0 0  -0.00127302 -0.00754452 0.00337076  -0.000382524 -0.000887305 0.00245142  0 0 0  -0.0031992 -0.00762293 0.005198  -0.000959378 -0.00086242 0.00383759  0 0 0  -0.000401985 -0.00136608 0.00180149  -0.000952031 -0.00141612 0.00281429  -0.0113472 -0.0310306 0.0118022  -0.00520656 -0.0333114 0.00576067  -0.00265247 -0.0173881 0.00637913  -0.0115248 -0.0331367 0.00871944  -0.00666259 -0.0171926 0.00978947  -0.0028394 -0.018877 0.0047226  -0.00674751 -0.0189002 0.00721264  -0.0237827 -0.0675019 0.0138764  -0.0126461 -0.0713491 0.00696945  -0.00805315 -0.0489388 0.00873423  -0.0242549 -0.070241 0.0103765  -0.0171171 -0.0480655 0.013123  -0.00849959 -0.0511948 0.0065155  -0.0174314 -0.0506004 0.00975609  -0.0393621 -0.11291 0.0138888  -0.0235797 -0.118332 0.00712585  -0.0169199 -0.0911704 0.00944519  -0.0402723 -0.115889 0.01053  -0.0312134 -0.0891641 0.0140405  -0.0176909 -0.093877 0.00715303  -0.0319062 -0.0921118 0.0105834  -0.0578292 -0.16584 0.0128112  -0.0378926 -0.172642 0.00661087  -0.0291653 -0.141798 0.00904131  -0.0591377 -0.168743 0.00976944  -0.0482104 -0.138458 0.0134268  -0.0303184 -0.144634 0.00690603  -0.0493516 -0.141471 0.0102119  -0.0792936 -0.225274 0.0113134  -0.0555819 -0.233336 0.00576305  -0.0448585 -0.199513 0.00807905  -0.0808649 -0.227935 0.00864315  -0.0681627 -0.19475 0.0120926  -0.0463142 -0.20224 0.0061965  -0.0696366 -0.197596 0.00923061  -0.103716 -0.290272 0.00973558  -0.0765989 -0.299584 0.00485468  -0.0640358 -0.263311 0.00691557  -0.105424 -0.292629 0.00742674  -0.0911177 -0.257076 0.0105228  -0.065679 -0.265807 0.00531197  -0.0927948 -0.259632 0.00803804  -0.130954 -0.360125 0.00825787  -0.100813 -0.370688 0.00400019  -0.0866117 -0.332356 0.0057683  -0.132695 -0.36217 0.00629663  -0.116964 -0.324581 0.00897884  -0.0883124 -0.334561 0.00442505  -0.118727 -0.326824 0.0068512  -0.160839 -0.434196 0.00695705  -0.128011 -0.446034 0.00325298  -0.112345 -0.40593 0.00472736  -0.162542 -0.43596 0.00528669  -0.145545 -0.396622 0.00758648  -0.114048 -0.407855 0.00361109  -0.147299 -0.398557 0.00577211  -0.19318 -0.511982 0.00583267  -0.157999 -0.525088 0.00261021  -0.141032 -0.48345 0.00383234  -0.1948 -0.513496 0.00441933  -0.176685 -0.472612 0.00637293  -0.142663 -0.485115 0.0029211  -0.178369 -0.474276 0.0048418  -0.2278 -0.593061 0.00486612  -0.190532 -0.607404 0.0020752  -0.172408 -0.564422 0.00306749  -0.2293 -0.594339 0.00368214  -0.210183 -0.552098 0.00533056  -0.17395 -0.565857 0.00233603  -0.211773 -0.553517 0.00403976  -0.264521 -0.677035 0.00405598  -0.225445 -0.692566 0.00164413  -0.206282 -0.648415 0.00243664  -0.265887 -0.678133 0.00306606  -0.24588 -0.634672 0.00444794  -0.207703 -0.649647 0.00184774  -0.247338 -0.635885 0.00336456  -0.303167 -0.763563 0.00336313  -0.262501 -0.78021 0.00127411  -0.242415 -0.735033 0.00191498  -0.304384 -0.764497 0.00253582  -0.283573 -0.719958 0.00369787  -0.243714 -0.73609 0.00145245  -0.2849 -0.721009 0.00279379  -0.343545 -0.852329 0.00277519  -0.301528 -0.87001 0.000964642  -0.280607 -0.823949 0.00147629  -0.344648 -0.853128 0.00209093  -0.323106 -0.807643 0.00305367  -0.281776 -0.824852 0.00111437  -0.324306 -0.808544 0.00230026  -0.385478 -0.943046 0.00224447  -0.342287 -0.961693 0.000691414  -0.32065 -0.914845 0.00109625  -0.386458 -0.943738 0.00169277  -0.364297 -0.897427 0.00250053  -0.3217 -0.91563 0.000826359  -0.365363 -0.898195 0.00188541  -0.428803 -1.03547 0.00180483  -0.384584 -1.05497 0.000494957  -0.362308 -1.00748 0.000778675  -0.429664 -1.03605 0.00135612  -0.406942 -0.98903 0.00201607  -0.363248 -1.00814 0.000592232  -0.407893 -0.989692 0.00151443  -0.47335 -1.12935 0.00139904  -0.428246 -1.14962 0.000312805  -0.405425 -1.10157 0.000520706  -0.4741 -1.12983 0.00104904  -0.450905 -1.0822 0.00160027  -0.406252 -1.10214 0.000393867  -0.451733 -1.08276 0.00121021  -0.518931 -1.22446 0.00107479  -0.473082 -1.24543 0.000149727  -0.449794 -1.19692 0.000286102  -0.519588 -1.22489 0.000805378  -0.495981 -1.17673 0.00123596  -0.450522 -1.19739 0.00021553  -0.496711 -1.17721 0.000928879  -0.565409 -1.32064 0.00077343  -0.518914 -1.34221 1.85966e-05  -0.495246 -1.2933 0.000114441  -0.565972 -1.321 0.000581264  -0.542037 -1.2724 0.000921249  -0.495879 -1.29371 8.01086e-05  -0.542668 -1.27281 0.000685692  -0.612615 -1.4177 0.000522614  -0.565565 -1.43978 -7.15256e-05  -0.541587 -1.39057 -4.00543e-05  -0.613086 -1.41799 0.00039196  -0.588893 -1.36904 0.000647068  -0.542146 -1.39091 -2.95639e-05  -0.58944 -1.36939 0.000484943  -0.660393 -1.51546 0.000318527  -0.612908 -1.53799 -0.000158787  -0.588691 -1.48853 -0.000156879  -0.660809 -1.5157 0.000241756  -0.636409 -1.46647 0.000418663  -0.589154 -1.48881 -0.000122547  -0.636874 -1.46676 0.000312805  -0.708653 -1.6138 0.000137806  -0.660778 -1.63671 -0.000229359  -0.636379 -1.58706 -0.00026083  -0.708986 -1.614 9.77516e-05  -0.684447 -1.56455 0.00021553  -0.636772 -1.58729 -0.000201225  -0.684837 -1.56478 0.000156879  -0.757255 -1.71258 1.43051e-06  -0.709049 -1.73579 -0.000263214  -0.684532 -1.68602 -0.00033474  -0.75751 -1.71274 -4.76837e-06  -0.732893 -1.66312 6.38962e-05  -0.684863 -1.6862 -0.000257492  -0.733206 -1.66332 5.29289e-05  -0.806079 -1.81168 -0.000115395  -0.757599 -1.83514 -0.000293732  -0.733026 -1.78529 -0.000369549  -0.806279 -1.8118 -9.29832e-05  -0.781613 -1.76207 -4.76837e-05  -0.733287 -1.78544 -0.000273228  -0.781868 -1.76223 -4.00543e-05  -0.855021 -1.91098 -0.000188351  -0.806336 -1.93462 -0.000300884  -0.781729 -1.88475 -0.000396729  -0.855173 -1.91108 -0.000135422  -0.830507 -1.86128 -0.000155449  -0.781947 -1.88486 -0.000299931  -0.830711 -1.86142 -0.000118256  -0.90402 -2.0104 -0.000236988  -0.855154 -2.03418 -0.000307083  -0.830562 -1.98431 -0.000397682  -0.904117 -2.01047 -0.000179768  -0.879488 -1.96066 -0.000217915  -0.830732 -1.9844 -0.000301838  -0.879634 -1.96076 -0.000162601  -0.952976 -2.10984 -0.000264168  -0.903991 -2.13373 -0.000290871  -0.879442 -2.0839 -0.000382423  -0.953051 -2.10989 -0.000195026  -0.928472 -2.0601 -0.000259399  -0.879574 -2.08396 -0.000283241  -0.928587 -2.06017 -0.000195026  -1.00186 -2.20923 -0.000254631  -0.952774 -2.23318 -0.00024271  -0.928288 -2.18343 -0.000346661  -1.00189 -2.20926 -0.00019598  -0.977396 -2.15952 -0.00026226  -0.92839 -2.18346 -0.000261307  -0.97748 -2.15958 -0.000197887  -1.0506 -2.3085 -0.000238419  -1.00144 -2.33249 -0.000202179  -0.977054 -2.28284 -0.000295639  -1.05061 -2.30852 -0.000180244  -1.02622 -2.25887 -0.000246048  -0.977121 -2.28285 -0.000219345  -1.02627 -2.2589 -0.00018549  -1.09919 -2.40759 -0.000180721  -1.04996 -2.43162 -0.000149727  -1.02567 -2.38206 -0.000245094  -1.09917 -2.40762 -0.000132561  -1.07488 -2.35804 -0.000214577  -1.02571 -2.38208 -0.000180244  -1.0749 -2.35809 -0.000165462  -1.14757 -2.50649 -0.000131607  -1.09831 -2.53052 -8.67844e-05  -1.07413 -2.48109 -0.000162601  -1.14756 -2.50651 -9.87053e-05  -1.12337 -2.45705 -0.000156403  -1.07416 -2.4811 -0.00013113  -1.12338 -2.45709 -0.000119209  -1.19576 -2.60511 -9.48906e-05  -1.14647 -2.62911 -2.38419e-05  -1.12237 -2.57984 -9.34601e-05  -1.19576 -2.60512 -6.62804e-05  -1.17165 -2.55581 -0.000105858  -1.12241 -2.57985 -7.05719e-05  -1.17167 -2.55585 -7.58171e-05  0.000711903 -0.00751364 0.00205946  0 0 0  0.00226577 -0.00986251 -0.000165939  0.000765294 -0.00230616 -0.000306606  0 0 0  0.000565276 -0.00834867 0.00157881  0.000222445 -0.00139287 0.00104809  0 0 0  0.000693813 -0.00265345 -0.000166893  0.000182219 -0.00179619 0.000803947  0.00104687 -0.0331791 0.00376511  0.00620937 -0.0375051 3.71933e-05  0.00461426 -0.0209423 -0.000254154  0.000640601 -0.0348292 0.00284767  0.00106694 -0.0186963 0.00300503  0.00422069 -0.0221448 -9.10759e-05  0.000792027 -0.0200166 0.00227451  -0.00114888 -0.0715148 0.00475931  0.00858963 -0.0774458 0.000386238  0.00844958 -0.0543971 0.000204563  -0.00182918 -0.0737801 0.00362492  0.000338256 -0.0510866 0.00438547  0.00773749 -0.0563129 0.000240803  -0.000212938 -0.0531452 0.00332451  -0.00683138 -0.119269 0.00489759  0.00744712 -0.126524 0.000546455  0.00947085 -0.0985968 0.000568867  -0.00781411 -0.121872 0.00377417  -0.00352275 -0.0943154 0.00491476  0.00851026 -0.100989 0.000509262  -0.00436223 -0.096846 0.00376749  -0.0163358 -0.17476 0.0044651  0.00211829 -0.18316 0.000418663  0.00650764 -0.151366 0.000543118  -0.0176036 -0.177433 0.00346661  -0.0110779 -0.146087 0.00472879  0.0053215 -0.153964 0.000506878  -0.0122251 -0.14879 0.00365782  -0.0298025 -0.236907 0.00374174  -0.00756109 -0.246346 0.000129223  -0.000809848 -0.211391 0.000256062  -0.0312629 -0.239453 0.00291824  -0.0225624 -0.205024 0.0041194  -0.00217599 -0.21398 0.000290871  -0.0239464 -0.207681 0.0032115  -0.0471649 -0.304791 0.00296307  -0.0214803 -0.315265 -0.000191689  -0.0125073 -0.277709 -0.000148773  -0.048726 -0.307098 0.00231361  -0.037981 -0.270138 0.00334644  -0.0139974 -0.280132 -2.86102e-05  -0.0395235 -0.27261 0.0026145  -0.0682426 -0.377599 0.00221157  -0.039458 -0.389157 -0.000511646  -0.0284433 -0.349433 -0.000568867  -0.0698141 -0.379648 0.00172853  -0.0572295 -0.34058 0.00258064  -0.0299733 -0.351623 -0.000357151  -0.0588239 -0.342792 0.00201845  -0.0927707 -0.45466 0.00157738  -0.0612165 -0.467339 -0.000771999  -0.0483583 -0.425797 -0.000936985  -0.0943192 -0.456456 0.00123072  -0.0800646 -0.415595 0.00189018  -0.0498748 -0.42774 -0.000654697  -0.0816503 -0.41755 0.00147724  -0.120491 -0.535394 0.00103712  -0.086481 -0.5492 -0.00096941  -0.0719587 -0.506119 -0.00122023  -0.12195 -0.536957 0.000813961  -0.106217 -0.494559 0.00128794  -0.073423 -0.507835 -0.000873089  -0.10775 -0.496265 0.00101471  -0.151123 -0.619306 0.000599384  -0.114938 -0.63424 -0.00112152  -0.0989293 -0.589854 -0.00144625  -0.152473 -0.620654 0.000474453  -0.135425 -0.576932 0.000805378  -0.10032 -0.59134 -0.00105953  -0.13686 -0.578423 0.000635624  -0.18439 -0.705971 0.000258923  -0.146316 -0.722001 -0.00121355  -0.128992 -0.676486 -0.00159407  -0.185641 -0.707146 0.000204563  -0.167404 -0.662283 0.000417233  -0.130272 -0.677799 -0.00117731  -0.168738 -0.663573 0.000340462  -0.220072 -0.795016 -7.62939e-06  -0.180319 -0.812078 -0.00126934  -0.161827 -0.765632 -0.0016737  -0.221197 -0.796029 -2.86102e-06  -0.201913 -0.750184 0.000121593  -0.163001 -0.766766 -0.00124788  -0.203127 -0.751302 0.000102997  -0.257908 -0.886095 -0.000213146  -0.216701 -0.904131 -0.00127125  -0.197167 -0.856886 -0.00169992  -0.258919 -0.886975 -0.000157833  -0.238706 -0.840288 -0.000117779  -0.198227 -0.857877 -0.001266  -0.239796 -0.841256 -8.53539e-05  -0.297676 -0.978948 -0.000383377  -0.25521 -0.997873 -0.00126696  -0.234736 -0.949955 -0.00170755  -0.298577 -0.979705 -0.000283241  -0.277533 -0.93228 -0.000310898  -0.235703 -0.950801 -0.00127697  -0.278518 -0.933129 -0.000227451  -0.339118 -1.07327 -0.000510216  -0.295558 -1.09301 -0.00124073  -0.274306 -1.04454 -0.00168943  -0.339911 -1.07393 -0.000378132  -0.31817 -1.02591 -0.000452518  -0.275159 -1.04527 -0.00126362  -0.319034 -1.02663 -0.000331879  -0.382071 -1.16887 -0.00059557  -0.33755 -1.18933 -0.00120687  -0.315607 -1.14041 -0.00163937  -0.382762 -1.16942 -0.000450611  -0.360388 -1.12091 -0.000559807  -0.316355 -1.14103 -0.00122595  -0.361155 -1.12153 -0.000418186  -0.426296 -1.2655 -0.000669479  -0.38096 -1.28663 -0.00115919  -0.358417 -1.23733 -0.00157928  -0.426903 -1.26599 -0.000498772  -0.404003 -1.21704 -0.000633717  -0.359082 -1.23787 -0.00118256  -0.404675 -1.21757 -0.000475407  -0.47163 -1.36301 -0.000714302  -0.425579 -1.38469 -0.00110245  -0.402547 -1.3351 -0.00150919  -0.472139 -1.36342 -0.000545025  -0.448809 -1.31413 -0.00070715  -0.403125 -1.33557 -0.00113153  -0.449386 -1.3146 -0.000528812  -0.517862 -1.46123 -0.000730991  -0.47122 -1.48339 -0.00103045  -0.447788 -1.43358 -0.00141954  -0.518301 -1.46156 -0.000549316  -0.494614 -1.41202 -0.000730991  -0.448279 -1.43397 -0.00105762  -0.495111 -1.41241 -0.000547886  -0.564866 -1.55998 -0.000755787  -0.517696 -1.58256 -0.000955582  -0.493931 -1.5326 -0.00131893  -0.565221 -1.56026 -0.000566959  -0.541242 -1.51051 -0.000739098  -0.494358 -1.53292 -0.000988007  -0.541669 -1.51084 -0.000555992  -0.612456 -1.65914 -0.000739098  -0.564858 -1.68208 -0.000872612  -0.540838 -1.632 -0.00122547  -0.612748 -1.65938 -0.000551224  -0.588556 -1.60949 -0.000741482  -0.541197 -1.63229 -0.000920296  -0.58891 -1.60977 -0.000559807  -0.66051 -1.75861 -0.000706196  -0.61255 -1.78184 -0.000794888  -0.588346 -1.73171 -0.00110769  -0.660746 -1.7588 -0.00053072  -0.636398 -1.70882 -0.000723839  -0.588638 -1.73193 -0.000834465  -0.636686 -1.70905 -0.000545979  -0.708898 -1.85826 -0.000668049  -0.660631 -1.88172 -0.000709057  -0.636302 -1.83158 -0.00100136  -0.709066 -1.85842 -0.000504971  -0.684639 -1.80839 -0.000687599  -0.636544 -1.83176 -0.000751972  -0.684865 -1.80859 -0.000516415  -0.757485 -1.95801 -0.000607014  -0.708977 -1.98164 -0.000621319  -0.684599 -1.93152 -0.000891685  -0.757618 -1.95813 -0.000458241  -0.733136 -1.9081 -0.000643253  -0.684771 -1.93168 -0.000675678  -0.733314 -1.90826 -0.000483513  -0.80622 -2.05776 -0.00055933  -0.757501 -2.08154 -0.000543118  -0.733076 -2.03148 -0.000777245  -0.806296 -2.05786 -0.000425816  -0.781806 -2.00786 -0.000583649  -0.733219 -2.03159 -0.000582218  -0.781942 -2.00799 -0.000442028  -0.854969 -2.15745 -0.000487328  -0.806101 -2.18133 -0.000453472  -0.781676 -2.13136 -0.00066328  -0.855023 -2.15752 -0.000365257  -0.830558 -2.10759 -0.000524998  -0.781785 -2.13144 -0.000497341  -0.830652 -2.1077 -0.000392437  -0.903687 -2.257 -0.000403881  -0.8547 -2.28094 -0.000358582  -0.830316 -2.23108 -0.000539303  -0.903715 -2.25706 -0.000300884  -0.879307 -2.20722 -0.000451088  -0.830392 -2.23115 -0.000410557  -0.879368 -2.20731 -0.000339985  -0.952321 -2.35638 -0.000319958  -0.903232 -2.38037 -0.000273705  -0.878917 -2.33064 -0.000425339  -0.952322 -2.35643 -0.000247002  -0.927996 -2.3067 -0.000355721  -0.878977 -2.33068 -0.00031805  -0.928026 -2.30677 -0.000268459  -1.00081 -2.45555 -0.000231266  -0.951649 -2.47955 -0.000185013  -0.927424 -2.42996 -0.000304699  -1.0008 -2.45559 -0.000174522  -0.976557 -2.40597 -0.000275135  -0.927453 -2.42999 -0.000227451  -0.976573 -2.40603 -0.000209332  -1.04914 -2.55446 -0.000126839  -0.999924 -2.57846 -0.000102043  -0.975779 -2.52902 -0.000184059  -1.04911 -2.55449 -9.82285e-05  -1.02497 -2.50502 -0.000175476  -0.975807 -2.52904 -0.000135899  -1.02498 -2.50507 -0.000129223  -1.09721 -2.65304 -3.67165e-05  -1.04798 -2.67705 -9.05991e-06  -1.02396 -2.62777 -6.96182e-05  -1.09721 -2.65308 -2.76566e-05  -1.07318 -2.60377 -8.7738e-05  -1.02398 -2.62779 -5.62668e-05  -1.07318 -2.60382 -6.05583e-05  0.00433299 -0.0113978 -0.00271463  0 0 0  0.0059257 -0.0150375 -0.00343704  0.00193487 -0.00532305 -0.00291634  0 0 0  0.00406431 -0.0120845 -0.00184059  0.00132885 -0.00359678 -0.00163126  0 0 0  0.00181925 -0.00564575 -0.00199842  0.00123953 -0.00392187 -0.00109339  0.0125317 -0.0398715 -0.0038228  0.0176534 -0.0461955 -0.00528193  0.0119739 -0.0281689 -0.00642729  0.0118679 -0.041313 -0.00268459  0.0082334 -0.024099 -0.00341368  0.0113912 -0.0292919 -0.00455809  0.00775583 -0.0252421 -0.00237751  0.0198689 -0.0802428 -0.00383091  0.0294158 -0.0882292 -0.00576067  0.0247976 -0.0643121 -0.00772429  0.0189465 -0.0822872 -0.00276184  0.0165386 -0.0588207 -0.00385809  0.0238191 -0.0661073 -0.00560856  0.015712 -0.060658 -0.00275373  0.0235792 -0.129824 -0.00362682  0.0375365 -0.138918 -0.00568485  0.0351999 -0.11032 -0.00779629  0.022481 -0.13222 -0.00262547  0.022278 -0.103945 -0.00370836  0.0340511 -0.112565 -0.00575304  0.021245 -0.106252 -0.00268555  0.0227069 -0.187258 -0.00354099  0.0407444 -0.197272 -0.00547695  0.0410059 -0.164715 -0.00754642  0.0214617 -0.189772 -0.00257063  0.0237599 -0.157571 -0.00356722  0.0397813 -0.167187 -0.00558329  0.0225649 -0.160106 -0.00259352  0.0170415 -0.251567 -0.00358391  0.0388114 -0.262464 -0.00529242  0.041721 -0.226579 -0.00728512  0.0157022 -0.254005 -0.00261021  0.0204935 -0.218562 -0.00356722  0.0404199 -0.229059 -0.00539303  0.0191771 -0.221094 -0.00259161  0.00667447 -0.321818 -0.00366831  0.0318208 -0.333631 -0.00514078  0.0372976 -0.294986 -0.00704432  0.00528538 -0.324094 -0.0026865  0.0124633 -0.285959 -0.0036335  0.0359355 -0.29735 -0.00521231  0.0110675 -0.288365 -0.00264883  -0.00818378 -0.397184 -0.0037365  0.0200317 -0.40996 -0.00496101  0.027884 -0.369019 -0.00680351  -0.00958443 -0.399239 -0.00274134  -0.000187099 -0.358867 -0.00370741  0.0265129 -0.371196 -0.00505257  -0.001607 -0.361071 -0.00271749  -0.0272521 -0.476877 -0.0037446  0.00372493 -0.490649 -0.0047636  0.0137672 -0.447832 -0.00653076  -0.0286115 -0.478706 -0.00276995  -0.0171859 -0.436492 -0.00375032  0.0124217 -0.44979 -0.00485802  -0.0185891 -0.438463 -0.00276756  -0.0501785 -0.56026 -0.00373125  -0.0167407 -0.575064 -0.00455713  -0.00470507 -0.530675 -0.0062499  -0.0514693 -0.56187 -0.00276375  -0.0382247 -0.518097 -0.00374651  -0.00600219 -0.532426 -0.00466108  -0.0395743 -0.519853 -0.00277138  -0.0766312 -0.64677 -0.00366354  -0.0409988 -0.662596 -0.00431347  -0.0271872 -0.61692 -0.00594425  -0.077836 -0.648184 -0.00273085  -0.0629492 -0.603117 -0.00370121  -0.0284128 -0.618468 -0.0044322  -0.0642266 -0.60466 -0.00275278  -0.106282 -0.735925 -0.00352859  -0.0687181 -0.75275 -0.0040741  -0.0533023 -0.705997 -0.00561094  -0.10739 -0.73717 -0.00263262  -0.091043 -0.690997 -0.00360107  -0.0544446 -0.707372 -0.00418949  -0.0922283 -0.692363 -0.00268126  -0.138804 -0.827306 -0.00338364  -0.0995541 -0.845087 -0.00379419  -0.0827115 -0.797463 -0.00526094  -0.139817 -0.828396 -0.0025301  -0.122174 -0.781326 -0.00347042  -0.0837617 -0.79866 -0.0039258  -0.123262 -0.782517 -0.00258636  -0.173922 -0.920578 -0.00320864  -0.133159 -0.93925 -0.0035305  -0.115062 -0.890911 -0.00489616  -0.174827 -0.921521 -0.00239992  -0.15603 -0.873694 -0.00329924  -0.116021 -0.891955 -0.00366449  -0.157012 -0.874738 -0.00246429  -0.211333 -1.0154 -0.00302553  -0.169272 -1.03491 -0.0032506  -0.150048 -0.985982 -0.00452185  -0.212141 -1.01624 -0.00225735  -0.192324 -0.967773 -0.00311899  -0.15092 -0.986894 -0.00338554  -0.193205 -0.968695 -0.00233555  -0.250762 -1.11155 -0.00283098  -0.207553 -1.13181 -0.0029974  -0.187367 -1.08241 -0.00417185  -0.251469 -1.11227 -0.00211811  -0.230774 -1.0633 -0.00293064  -0.188142 -1.08321 -0.00312185  -0.231559 -1.0641 -0.00218725  -0.291952 -1.20877 -0.00263071  -0.247761 -1.22968 -0.00272465  -0.226751 -1.17993 -0.00381184  -0.292582 -1.2094 -0.00196981  -0.271121 -1.16002 -0.00273228  -0.22742 -1.18062 -0.0028553  -0.271809 -1.1607 -0.00204468  -0.334693 -1.30684 -0.00241327  -0.289638 -1.32835 -0.00247049  -0.267903 -1.27832 -0.00347424  -0.335232 -1.30738 -0.00181246  -0.313113 -1.25768 -0.00252581  -0.268496 -1.27892 -0.00260162  -0.313718 -1.25829 -0.00189304  -0.378751 -1.40561 -0.00222158  -0.332953 -1.42763 -0.00222588  -0.310598 -1.3774 -0.00313091  -0.379209 -1.40608 -0.00166416  -0.356535 -1.35612 -0.00231314  -0.311125 -1.37792 -0.0023489  -0.357066 -1.35664 -0.00173521  -0.423927 -1.50492 -0.00200558  -0.377482 -1.52738 -0.00198364  -0.35462 -1.47702 -0.00280714  -0.424303 -1.50531 -0.00150919  -0.401178 -1.45518 -0.00210953  -0.355077 -1.47746 -0.00210476  -0.40162 -1.45563 -0.00158262  -0.470001 -1.6046 -0.00179768  -0.423028 -1.62745 -0.00174522  -0.399755 -1.577 -0.00248575  -0.470319 -1.60494 -0.00135422  -0.44683 -1.55468 -0.00190067  -0.400131 -1.57738 -0.00186539  -0.447197 -1.55508 -0.00142527  -0.516839 -1.70456 -0.00161123  -0.469387 -1.72772 -0.001544  -0.445788 -1.67724 -0.00219297  -0.517094 -1.70484 -0.00120831  -0.4933 -1.65452 -0.00171185  -0.4461 -1.67756 -0.0016427  -0.493613 -1.65486 -0.0012846  -0.564268 -1.80467 -0.00141096  -0.51643 -1.82809 -0.00132608  -0.492575 -1.77763 -0.00191164  -0.564463 -1.80491 -0.00105953  -0.54046 -1.75458 -0.00151205  -0.492828 -1.77789 -0.00143623  -0.540705 -1.75485 -0.0011363  -0.612137 -1.90486 -0.00122738  -0.563978 -1.92846 -0.00112009  -0.539936 -1.87805 -0.00163698  -0.612285 -1.90504 -0.000921249  -0.58812 -1.85474 -0.00132561  -0.540141 -1.87827 -0.00122499  -0.588323 -1.85497 -0.000992775  -0.660316 -2.00502 -0.00105095  -0.611898 -2.02877 -0.000952721  -0.587734 -1.97845 -0.00138807  -0.660424 -2.00517 -0.000782013  -0.636166 -1.95492 -0.00113583  -0.587889 -1.97863 -0.00103617  -0.63632 -1.95511 -0.000852108  -0.708701 -2.1051 -0.000881672  -0.660063 -2.12897 -0.000772953  -0.635828 -2.07875 -0.00115395  -0.708775 -2.10523 -0.000659466  -0.684461 -2.05505 -0.000958443  -0.635947 -2.07888 -0.000851631  -0.684568 -2.05521 -0.000714302  -0.757198 -2.20501 -0.000704288  -0.708391 -2.22897 -0.000619411  -0.684113 -2.17888 -0.000919819  -0.757235 -2.20512 -0.000529289  -0.732911 -2.15506 -0.000794888  -0.684204 -2.17899 -0.000694752  -0.732987 -2.15519 -0.000598907  -0.805715 -2.30475 -0.000550747  -0.756767 -2.32873 -0.000472546  -0.732508 -2.2788 -0.000725746  -0.805725 -2.30482 -0.000416756  -0.781428 -2.25489 -0.000636578  -0.732564 -2.27888 -0.000545025  -0.781472 -2.25499 -0.000477314  -0.854202 -2.40424 -0.000403404  -0.805141 -2.42824 -0.000339985  -0.780921 -2.37845 -0.000537872  -0.854187 -2.40429 -0.000301838  -0.82994 -2.35449 -0.000478745  -0.780956 -2.37852 -0.000405788  -0.829958 -2.35459 -0.000365257  -0.902585 -2.50346 -0.000260353  -0.853442 -2.52746 -0.000199318  -0.829277 -2.47784 -0.000367165  -0.902546 -2.50349 -0.000200272  -0.878371 -2.45385 -0.000338554  -0.829296 -2.47788 -0.000272751  -0.878375 -2.45392 -0.00025177  -0.950806 -2.60236 -0.0001297  -0.901624 -2.62638 -0.000105381  -0.877541 -2.57692 -0.000196934  -0.950777 -2.60241 -9.48906e-05  -0.926683 -2.55292 -0.000190735  -0.877544 -2.57695 -0.000152111  -0.926674 -2.55298 -0.000144005  -0.998816 -2.70096 1.57356e-05  -0.949624 -2.725 3.24249e-05  -0.925633 -2.67569 -4.05312e-05  -0.998801 -2.70101 4.29153e-06  -0.974821 -2.65168 -5.34058e-05  -0.925643 -2.67572 -2.90871e-05  -0.974808 -2.65174 -4.19617e-05  0.00847824 -0.0181589 -0.00705528  0 0 0  0.010534 -0.0238284 -0.0063324  0.00337917 -0.0105503 -0.0051651  0 0 0  0.00809525 -0.0188957 -0.00493765  0.00258638 -0.00757825 -0.00407219  0 0 0  0.00322894 -0.0109684 -0.00357723  0.00245867 -0.00793433 -0.00281191  0.0249125 -0.0508458 -0.010747  0.0309152 -0.0596178 -0.0100536  0.0208109 -0.0394731 -0.0119324  0.0240242 -0.0522929 -0.00774574  0.0161823 -0.0332628 -0.00926495  0.0200666 -0.0407296 -0.00854778  0.0155207 -0.0344263 -0.0066185  0.0415431 -0.0932811 -0.011755  0.0519558 -0.103343 -0.0113988  0.0430051 -0.0785947 -0.0148935  0.0403956 -0.0952839 -0.00865889  0.0335997 -0.0709175 -0.0114164  0.0418279 -0.0804613 -0.0109043  0.0325338 -0.0727309 -0.00833845  0.054071 -0.144258 -0.0116301  0.0686647 -0.155109 -0.0114765  0.0622533 -0.125939 -0.0155201  0.0528813 -0.146575 -0.00863838  0.0484537 -0.117667 -0.011755  0.0609782 -0.128199 -0.0115218  0.0472573 -0.119915 -0.00870228  0.0613508 -0.203213 -0.0111961  0.0798293 -0.214811 -0.011097  0.076233 -0.181601 -0.0151854  0.0601277 -0.205626 -0.00833368  0.0584084 -0.172731 -0.0114384  0.074965 -0.184002 -0.011322  0.0571842 -0.175165 -0.00850677  0.0631592 -0.269319 -0.0106907  0.0852033 -0.281707 -0.0105529  0.0844955 -0.245003 -0.014514  0.061902 -0.271695 -0.00795841  0.0629583 -0.235384 -0.0109515  0.0832446 -0.247413 -0.0108323  0.0617016 -0.237834 -0.00814962  0.0595353 -0.341663 -0.0101457  0.0848625 -0.354883 -0.00994682  0.086998 -0.315254 -0.013742  0.0582778 -0.343883 -0.00756168  0.0620385 -0.304724 -0.0104251  0.0857404 -0.317563 -0.0102568  0.0607554 -0.307073 -0.00776386  0.0507525 -0.419282 -0.00959873  0.0790515 -0.433406 -0.00934219  0.0838746 -0.391384 -0.0129094  0.0495032 -0.42132 -0.0071559  0.0557987 -0.379812 -0.00987959  0.082623 -0.393529 -0.00964117  0.054516 -0.381997 -0.00735998  0.0371008 -0.501367 -0.00903559  0.0680997 -0.516422 -0.00871468  0.0754132 -0.472446 -0.0120807  0.0358967 -0.503197 -0.00674534  0.0445414 -0.459776 -0.0093298  0.0742005 -0.474394 -0.00902176  0.0432841 -0.461744 -0.00695658  0.0189666 -0.587158 -0.00847816  0.052372 -0.60317 -0.00809574  0.0619723 -0.557604 -0.0112376  0.0178187 -0.588801 -0.00633717  0.0285977 -0.543795 -0.00875902  0.0608109 -0.559363 -0.00840187  0.0273969 -0.545568 -0.00653553  -0.00327814 -0.67605 -0.00790405  0.0322956 -0.693009 -0.00747871  0.04396 -0.646163 -0.0104246  -0.00434816 -0.677506 -0.00591326  0.00836289 -0.631212 -0.00819111  0.0428624 -0.647727 -0.00779343  0.0072279 -0.632793 -0.00612068  -0.0292405 -0.767508 -0.00733709  0.00824451 -0.785362 -0.0068903  0.0217801 -0.737505 -0.00961065  -0.0302218 -0.768785 -0.00548458  -0.0157822 -0.721445 -0.00762463  0.0207494 -0.738895 -0.00719166  -0.0168408 -0.722846 -0.00570011  -0.0585459 -0.861057 -0.00677013  -0.0193715 -0.879795 -0.00632334  -0.00417006 -0.831107 -0.00883484  -0.0594383 -0.862198 -0.00506258  -0.0434524 -0.813994 -0.00706005  -0.00513184 -0.832333 -0.00660849  -0.0444244 -0.815244 -0.00527859  -0.0908449 -0.956336 -0.0062027  -0.0501771 -0.975882 -0.00577021  -0.0335203 -0.92656 -0.00807571  -0.0916474 -0.957337 -0.00464916  -0.0743047 -0.908466 -0.0064888  -0.0343857 -0.927646 -0.00604439  -0.0751824 -0.909567 -0.00485516  -0.125801 -1.05301 -0.00566721  -0.0838289 -1.07332 -0.0052352  -0.0658802 -1.02348 -0.00733185  -0.126532 -1.0539 -0.00423861  -0.107975 -1.00448 -0.00593519  -0.0666649 -1.02444 -0.00549459  -0.108771 -1.00545 -0.00444555  -0.163128 -1.15084 -0.00515556  -0.120002 -1.17181 -0.00473452  -0.100909 -1.12161 -0.00663757  -0.163758 -1.15162 -0.0038681  -0.144151 -1.10178 -0.00541401  -0.101616 -1.12244 -0.00496864  -0.144865 -1.10263 -0.00405216  -0.2025 -1.24956 -0.00464725  -0.15837 -1.27113 -0.00425673  -0.138305 -1.22065 -0.00597811  -0.203056 -1.25023 -0.00348568  -0.182543 -1.20007 -0.00489473  -0.138925 -1.22138 -0.00448227  -0.18316 -1.20082 -0.00366974  -0.243669 -1.34896 -0.0041647  -0.198669 -1.37107 -0.00378084  -0.177746 -1.32038 -0.00534439  -0.244148 -1.34955 -0.00312805  -0.222844 -1.29916 -0.00440693  -0.178286 -1.32102 -0.00400257  -0.223383 -1.29981 -0.00330067  -0.286371 -1.44889 -0.00372076  -0.240617 -1.47146 -0.00335979  -0.218971 -1.42066 -0.00474453  -0.286784 -1.44941 -0.00278521  -0.264807 -1.39885 -0.00393772  -0.219442 -1.42121 -0.00355911  -0.26528 -1.39941 -0.00295115  -0.330388 -1.5492 -0.00328016  -0.283983 -1.57214 -0.00293827  -0.261737 -1.52129 -0.00418806  -0.33073 -1.54963 -0.0024581  -0.308204 -1.49899 -0.00349712  -0.262135 -1.52176 -0.0031352  -0.308601 -1.49948 -0.00261927  -0.37551 -1.64974 -0.00287151  -0.328539 -1.67301 -0.0025506  -0.305783 -1.62213 -0.00365543  -0.375791 -1.65012 -0.00215387  -0.352791 -1.59942 -0.00307941  -0.306118 -1.62256 -0.00273991  -0.353127 -1.59985 -0.00230455  -0.421527 -1.75041 -0.0024929  -0.37409 -1.77393 -0.0021987  -0.350919 -1.7231 -0.00316143  -0.421744 -1.75073 -0.00187063  -0.398381 -1.70004 -0.00267887  -0.351194 -1.72345 -0.00236893  -0.398655 -1.7004 -0.0020051  -0.468264 -1.8511 -0.00212336  -0.420426 -1.87483 -0.0018549  -0.396929 -1.82408 -0.00270224  -0.468432 -1.85137 -0.00159454  -0.444778 -1.80073 -0.00230742  -0.39716 -1.82438 -0.00202608  -0.444997 -1.80105 -0.00172567  -0.515575 -1.95175 -0.00178814  -0.467406 -1.97563 -0.00154066  -0.443666 -1.92499 -0.00227547  -0.515704 -1.95197 -0.00134373  -0.491829 -1.90141 -0.00195885  -0.44384 -1.92524 -0.00170755  -0.491997 -1.90167 -0.00146866  -0.563315 -2.05227 -0.00148582  -0.514857 -2.07625 -0.00125313  -0.490946 -2.02576 -0.00188208  -0.563386 -2.05245 -0.00110722  -0.539373 -2.00201 -0.00163078  -0.491072 -2.02596 -0.00141335  -0.539493 -2.00222 -0.00122118  -0.611328 -2.15261 -0.00120068  -0.562664 -2.17667 -0.00102043  -0.53862 -2.12634 -0.00151968  -0.611376 -2.15277 -0.00089407  -0.587263 -2.10245 -0.00133944  -0.538725 -2.12649 -0.00113964  -0.587347 -2.10263 -0.00100136  -0.659532 -2.25273 -0.000926495  -0.6107 -2.27682 -0.000789642  -0.586585 -2.22666 -0.00118876  -0.659557 -2.25285 -0.000697613  -0.63539 -2.20269 -0.00106144  -0.586651 -2.22678 -0.000893116  -0.635442 -2.20284 -0.000795841  -0.707838 -2.35258 -0.000697613  -0.658863 -2.37668 -0.000570774  -0.634715 -2.32668 -0.000895977  -0.707829 -2.35267 -0.000513554  -0.683651 -2.30266 -0.000812531  -0.634762 -2.32679 -0.000675201  -0.683683 -2.30279 -0.000610828  -0.756134 -2.45214 -0.000493526  -0.707055 -2.47623 -0.000397682  -0.682929 -2.42642 -0.000639439  -0.756107 -2.45221 -0.000367641  -0.731959 -2.40238 -0.000591755  -0.68295 -2.42649 -0.000479698  -0.731963 -2.40247 -0.000442028  -0.804388 -2.55138 -0.0002985  -0.755227 -2.57546 -0.000238419  -0.731133 -2.52583 -0.000418186  -0.804344 -2.55144 -0.000226498  -0.780237 -2.50177 -0.000396252  -0.731143 -2.52588 -0.000311852  -0.780227 -2.50186 -0.000302792  -0.852546 -2.6503 -0.000118256  -0.803325 -2.67437 -9.34601e-05  -0.779281 -2.62491 -0.000222206  -0.852482 -2.65036 -8.96454e-05  -0.828451 -2.60085 -0.000208378  -0.779284 -2.62495 -0.000172615  -0.828422 -2.60093 -0.000156403  -0.900509 -2.74893 5.10216e-05  -0.851304 -2.77301 5.91278e-05  -0.827335 -2.72366 -3.14713e-05  -0.900466 -2.74899 3.86238e-05  -0.876519 -2.69963 -3.43323e-05  -0.827329 -2.72372 -2.81334e-05  -0.876495 -2.6997 -2.81334e-05  0.0141579 -0.0293556 -0.0107689  0 0 0  0.0173263 -0.0387236 -0.00882769  0.00532588 -0.0196968 -0.0069828  0 0 0  0.0137061 -0.0302989 -0.0076251  0.00424173 -0.0144809 -0.00608587  0 0 0  0.00516953 -0.0203056 -0.00489855  0.0040903 -0.0149919 -0.00425005  0.0401016 -0.0666384 -0.0168586  0.0482887 -0.0782303 -0.0142555  0.0333685 -0.0563128 -0.0166831  0.0390514 -0.0683236 -0.012229  0.0266216 -0.0471159 -0.0143714  0.0325564 -0.0578746 -0.0120268  0.0258303 -0.0485072 -0.0103335  0.0656827 -0.110255 -0.01896  0.0777892 -0.122204 -0.0165329  0.064905 -0.0970635 -0.0213475  0.0644013 -0.112373 -0.0140271  0.0534443 -0.0873619 -0.0182171  0.0636341 -0.0991729 -0.0156898  0.0522123 -0.0893377 -0.0133686  0.0863239 -0.162168 -0.0191059  0.102188 -0.174633 -0.0168695  0.0920097 -0.144956 -0.0226536  0.0850587 -0.164476 -0.0142379  0.0767124 -0.135061 -0.0191712  0.090679 -0.147291 -0.016839  0.0754105 -0.137353 -0.0142446  0.101182 -0.222409 -0.0184636  0.120704 -0.235514 -0.0163956  0.113519 -0.201639 -0.0223675  0.099968 -0.224777 -0.0137873  0.0945174 -0.191234 -0.0188522  0.112232 -0.204042 -0.0166974  0.0932593 -0.193642 -0.0140638  0.110018 -0.290183 -0.0175104  0.132958 -0.304038 -0.0155554  0.128871 -0.266525 -0.02141  0.108833 -0.292483 -0.0130882  0.106378 -0.255371 -0.0180159  0.127629 -0.268868 -0.0160041  0.105164 -0.257757 -0.0134606  0.112864 -0.364447 -0.0164471  0.138946 -0.379135 -0.0145798  0.137941 -0.338589 -0.0201712  0.111694 -0.366619 -0.0122967  0.112205 -0.326518 -0.016993  0.136734 -0.340817 -0.0150833  0.111007 -0.328803 -0.0127048  0.109926 -0.444205 -0.0153465  0.138869 -0.459763 -0.0135717  0.140832 -0.416739 -0.0188155  0.108779 -0.446202 -0.0114698  0.112125 -0.403654 -0.0158968  0.139651 -0.418817 -0.0140767  0.110941 -0.405785 -0.0118804  0.101529 -0.528513 -0.0142498  0.133066 -0.54498 -0.0125713  0.137809 -0.499954 -0.0174565  0.100426 -0.530323 -0.0106587  0.106418 -0.4858 -0.0148015  0.136668 -0.501845 -0.0130653  0.105269 -0.487736 -0.0110645  0.08807 -0.616549 -0.0131669  0.121944 -0.633921 -0.0115652  0.129238 -0.587312 -0.0161238  0.0870326 -0.618188 -0.00984621  0.0954388 -0.572066 -0.0137053  0.128147 -0.589023 -0.0120707  0.0943424 -0.573828 -0.0102515  0.0699784 -0.707646 -0.012115  0.105925 -0.725898 -0.0106177  0.115557 -0.678033 -0.0148158  0.0690087 -0.709118 -0.00906801  0.0796055 -0.66172 -0.0126357  0.114524 -0.679565 -0.0110874  0.0785818 -0.6633 -0.00945568  0.0476806 -0.801202 -0.0110908  0.0854778 -0.820311 -0.00969887  0.0972058 -0.771458 -0.0135536  0.0467659 -0.802509 -0.00830364  0.0593553 -0.754114 -0.0115967  0.0962337 -0.772825 -0.0101504  0.0583962 -0.755525 -0.00867796  0.0215749 -0.896766 -0.0101199  0.0610151 -0.916654 -0.0088129  0.0746238 -0.867046 -0.0123463  0.0207412 -0.897923 -0.00757933  0.0351064 -0.848729 -0.0106087  0.0737243 -0.868265 -0.00924969  0.0342075 -0.849988 -0.00793886  -0.00792396 -0.993893 -0.00918484  0.0329717 -1.01453 -0.00798559  0.0482631 -0.964347 -0.0112066  -0.00866759 -0.994925 -0.00687599  0.00725782 -0.94512 -0.00965452  0.0474267 -0.965413 -0.00839472  0.00644302 -0.946236 -0.00722885  -0.0404431 -1.09228 -0.00829458  0.00173497 -1.11357 -0.00718212  0.0184815 -1.06296 -0.0101151  -0.0411075 -1.09318 -0.0062151  -0.0238019 -1.04292 -0.00873566  0.0177392 -1.06392 -0.00757551  -0.0245291 -1.04391 -0.00654554  -0.0756302 -1.19163 -0.0074501  -0.0323076 -1.21352 -0.00644016  -0.0142882 -1.1626 -0.00908422  -0.0762185 -1.19242 -0.00558329  -0.0576928 -1.14181 -0.00786972  -0.0149487 -1.16345 -0.00680161  -0.0583442 -1.14269 -0.00589466  -0.113165 -1.29171 -0.00667143  -0.0688539 -1.31412 -0.00574017  -0.0497088 -1.26301 -0.00812721  -0.113665 -1.2924 -0.00499487  -0.0940927 -1.24156 -0.00706005  -0.0502868 -1.26375 -0.00609064  -0.094668 -1.24233 -0.0052886  -0.152726 -1.39231 -0.00591087  -0.107563 -1.41517 -0.00506735  -0.087441 -1.36395 -0.00720549  -0.153164 -1.39292 -0.00442743  -0.132669 -1.34192 -0.00627899  -0.0879521 -1.36459 -0.00540257  -0.133169 -1.3426 -0.0047102  -0.194062 -1.49327 -0.00520468  -0.148151 -1.51651 -0.00444603  -0.127187 -1.46525 -0.00634766  -0.194431 -1.4938 -0.00389671  -0.173159 -1.44273 -0.00555611  -0.127636 -1.46581 -0.00475693  -0.173589 -1.44332 -0.00416231  -0.236906 -1.59444 -0.00454521  -0.190351 -1.618 -0.00389147  -0.168684 -1.56677 -0.00554514  -0.237212 -1.59491 -0.00341129  -0.215286 -1.54382 -0.00487423  -0.169062 -1.56724 -0.00415325  -0.215639 -1.54433 -0.0036521  -0.281022 -1.69572 -0.00393915  -0.233907 -1.71954 -0.0033493  -0.211646 -1.66836 -0.00480795  -0.281271 -1.69612 -0.00294971  -0.258785 -1.64505 -0.00423861  -0.21197 -1.66877 -0.00359964  -0.259095 -1.6455 -0.0031743  -0.326205 -1.79699 -0.00336409  -0.278626 -1.82101 -0.00285721  -0.255864 -1.76993 -0.00411654  -0.326402 -1.79734 -0.00251675  -0.303464 -1.74634 -0.00364208  -0.256135 -1.77028 -0.00308228  -0.30371 -1.74672 -0.00273418  -0.37225 -1.89818 -0.0028367  -0.324263 -1.92232 -0.0023737  -0.301133 -1.87138 -0.00347567  -0.37239 -1.89846 -0.00212097  -0.349101 -1.84758 -0.00309038  -0.301332 -1.87169 -0.00260496  -0.349294 -1.84791 -0.00231838  -0.418978 -1.99919 -0.00234604  -0.370677 -2.02343 -0.00197363  -0.347224 -1.97266 -0.00288963  -0.419079 -1.99944 -0.00176764  -0.395507 -1.94869 -0.00258541  -0.347386 -1.97291 -0.00217199  -0.39565 -1.94897 -0.00193977  -0.46625 -2.09998 -0.00190926  -0.417671 -2.12427 -0.00159168  -0.393987 -2.07368 -0.00236702  -0.466296 -2.10018 -0.00143242  -0.44253 -2.0496 -0.00212193  -0.394106 -2.07388 -0.00177765  -0.442629 -2.04983 -0.00159454  -0.513898 -2.20051 -0.00150156  -0.465121 -2.22482 -0.00123978  -0.441262 -2.17443 -0.00187016  -0.513931 -2.20068 -0.00112629  -0.490011 -2.15026 -0.00170231  -0.441339 -2.17458 -0.00141191  -0.490065 -2.15046 -0.00127745  -0.561817 -2.30074 -0.00114679  -0.512867 -2.32503 -0.000943661  -0.488894 -2.27484 -0.00144243  -0.561819 -2.30086 -0.00086832  -0.537802 -2.25064 -0.00132418  -0.488957 -2.27497 -0.0010848  -0.537843 -2.2508 -0.000991344  -0.609889 -2.40065 -0.000841618  -0.560827 -2.42489 -0.000692844  -0.536793 -2.37491 -0.00107718  -0.609872 -2.40075 -0.000634193  -0.585806 -2.35071 -0.000997543  -0.536822 -2.375 -0.000811577  -0.585828 -2.35084 -0.000744343  -0.658034 -2.50021 -0.00056839  -0.608876 -2.52442 -0.000476837  -0.584824 -2.47462 -0.000754356  -0.657985 -2.50029 -0.0004282  -0.63393 -2.45045 -0.000699997  -0.584839 -2.47469 -0.00056982  -0.63392 -2.45056 -0.000522137  -0.706158 -2.59943 -0.000343323  -0.65693 -2.62359 -0.000276566  -0.6329 -2.57398 -0.000488758  -0.7061 -2.5995 -0.000259876  -0.682066 -2.54984 -0.000453949  -0.632904 -2.57405 -0.000369549  -0.682044 -2.54994 -0.00034523  -0.754216 -2.69834 -0.000129223  -0.704966 -2.72245 -0.000113487  -0.680964 -2.67301 -0.000247955  -0.754166 -2.69839 -0.000101566  -0.73017 -2.6489 -0.00023365  -0.68095 -2.67306 -0.000185013  -0.730132 -2.64898 -0.000174046  -0.802195 -2.79696 7.43866e-05  -0.752949 -2.82107 4.81606e-05  -0.728967 -2.77174 -4.33922e-05  -0.802145 -2.79703 5.62668e-05  -0.778195 -2.74765 -3.67165e-05  -0.728962 -2.77178 -3.24249e-05  -0.778162 -2.74773 -3.00407e-05  0.0234664 -0.0488799 -0.0140333  0 0 0  0.031213 -0.064423 -0.0111542  0.0102703 -0.037023 -0.0089488  0 0 0  0.0230791 -0.0501525 -0.0100012  0.00683908 -0.0267121 -0.00769377  0 0 0  0.0102379 -0.0380374 -0.00628519  0.00672192 -0.0274634 -0.00541544  0.0602008 -0.0869699 -0.0223751  0.071608 -0.100169 -0.0183086  0.0534049 -0.0793743 -0.0213184  0.0591525 -0.0890461 -0.0162854  0.0424741 -0.0672946 -0.018971  0.0528053 -0.0814307 -0.0153732  0.0417241 -0.0690824 -0.0136857  0.0932728 -0.130406 -0.0255966  0.107083 -0.143955 -0.0212817  0.0908109 -0.11834 -0.027494  0.0919469 -0.132725 -0.0189395  0.0772373 -0.107451 -0.0244474  0.089551 -0.120769 -0.0201855  0.0759812 -0.109722 -0.0179615  0.121353 -0.183097 -0.0260582  0.138733 -0.196974 -0.0218401  0.125071 -0.166688 -0.0293117  0.120043 -0.185468 -0.0194149  0.108075 -0.1555 -0.0260506  0.123676 -0.16917 -0.0217581  0.106728 -0.15791 -0.0193486  0.143347 -0.244649 -0.0252872  0.164253 -0.259166 -0.0212765  0.153698 -0.224531 -0.0290356  0.142096 -0.24697 -0.0188885  0.133177 -0.212726 -0.0257769  0.152326 -0.226924 -0.0216494  0.131876 -0.215135 -0.0192327  0.158869 -0.314117 -0.0239882  0.183098 -0.329437 -0.0202017  0.17584 -0.291038 -0.0278139  0.157668 -0.316344 -0.017931  0.151961 -0.278397 -0.0246892  0.174551 -0.293325 -0.0207729  0.150719 -0.280715 -0.0184474  0.167867 -0.390335 -0.0224581  0.195139 -0.406523 -0.0189056  0.19123 -0.365027 -0.0261841  0.166716 -0.392426 -0.0167947  0.164209 -0.351396 -0.023243  0.189987 -0.367174 -0.0195642  0.163016 -0.353595 -0.0173779  0.170531 -0.472196 -0.0208569  0.200547 -0.489268 -0.0175552  0.199891 -0.445286 -0.0243983  0.169413 -0.474109 -0.0156007  0.170004 -0.430586 -0.0216708  0.198675 -0.447241 -0.0182471  0.168847 -0.432616 -0.0162034  0.167169 -0.55865 -0.0192695  0.199659 -0.576615 -0.0162082  0.202048 -0.530626 -0.0225773  0.1661 -0.560391 -0.0144134  0.169603 -0.514861 -0.0200663  0.200871 -0.532416 -0.0168839  0.168488 -0.516723 -0.0150127  0.158211 -0.648835 -0.0177097  0.192915 -0.667664 -0.0148821  0.198131 -0.620121 -0.0207763  0.15719 -0.6504 -0.0132565  0.163392 -0.603292 -0.0184903  0.197003 -0.621711 -0.0155444  0.162322 -0.604965 -0.0138354  0.144098 -0.741997 -0.0162096  0.180792 -0.761663 -0.0136213  0.188569 -0.712898 -0.0190372  0.143144 -0.743397 -0.012136  0.151798 -0.695043 -0.0169625  0.187507 -0.714322 -0.0142522  0.150794 -0.696554 -0.0126963  0.125318 -0.837521 -0.0147638  0.163777 -0.85796 -0.0124011  0.173861 -0.808271 -0.0173669  0.124437 -0.838771 -0.0110497  0.135292 -0.789462 -0.0154853  0.17287 -0.809549 -0.0129967  0.134352 -0.790814 -0.0115929  0.102326 -0.934904 -0.0133977  0.142341 -0.956062 -0.0112343  0.154514 -0.905693 -0.0157681  0.10151 -0.936013 -0.0100331  0.114354 -0.885986 -0.0140753  0.153587 -0.906805 -0.0118103  0.113478 -0.887182 -0.0105367  0.0755522 -1.03372 -0.0121059  0.116959 -1.05554 -0.0101347  0.130963 -1.00466 -0.0142679  0.0748173 -1.03471 -0.00906658  0.0894139 -0.984124 -0.0127478  0.130121 -1.00564 -0.0106921  0.0886168 -0.9852 -0.00955725  0.0454234 -1.13363 -0.0108786  0.0880681 -1.15604 -0.0091095  0.103708 -1.10479 -0.0128231  0.0447656 -1.13451 -0.00815105  0.0609173 -1.08353 -0.0114832  0.102932 -1.10568 -0.00960493  0.0601968 -1.08449 -0.00860023  0.0123327 -1.23434 -0.00973225  0.0560594 -1.25726 -0.00814486  0.0731163 -1.2058 -0.0114851  0.0117445 -1.2351 -0.00729179  0.0292512 -1.18388 -0.0102973  0.0724337 -1.20657 -0.00860786  0.0286081 -1.18472 -0.00771523  -0.0233881 -1.33561 -0.00865269  0.0212913 -1.35897 -0.0071969  0.0396068 -1.30739 -0.010221  -0.0238967 -1.33628 -0.00648308  -0.00519609 -1.2849 -0.00917912  0.0390081 -1.30806 -0.00766277  -0.00576377 -1.28563 -0.00687695  -0.0613933 -1.43724 -0.00763416  -0.0158727 -1.46097 -0.00636435  0.00352883 -1.40936 -0.00903273  -0.0618198 -1.43784 -0.00572252  -0.0420997 -1.38637 -0.00812626  0.00299716 -1.40994 -0.00676489  -0.0425901 -1.38702 -0.00609112  -0.101372 -1.53908 -0.00667667  -0.0551286 -1.56312 -0.00555897  -0.0347934 -1.51152 -0.00794506  -0.101742 -1.5396 -0.00500965  -0.0811219 -1.48812 -0.00714445  -0.0352602 -1.51204 -0.00595093  -0.0815511 -1.4887 -0.00535393  -0.143064 -1.64101 -0.00579786  -0.0961847 -1.66528 -0.00480461  -0.075058 -1.61378 -0.00689745  -0.143363 -1.64145 -0.00434494  -0.122 -1.59003 -0.00622559  -0.0754523 -1.61421 -0.00517511  -0.12235 -1.59052 -0.00467062  -0.186196 -1.74289 -0.00498056  -0.138773 -1.76733 -0.00413799  -0.116968 -1.71595 -0.00594807  -0.186433 -1.74326 -0.0037303  -0.164428 -1.69193 -0.00538111  -0.117309 -1.71633 -0.00446701  -0.164728 -1.69236 -0.00403595  -0.230546 -1.84462 -0.00422764  -0.182677 -1.86919 -0.00350237  -0.160303 -1.81798 -0.00507593  -0.230738 -1.84495 -0.00317335  -0.208198 -1.79375 -0.00459337  -0.160591 -1.8183 -0.00381804  -0.20845 -1.79412 -0.00345087  -0.275901 -1.94614 -0.00352669  -0.227657 -1.97077 -0.0029068  -0.204824 -1.91976 -0.00425339  -0.276037 -1.9464 -0.00264072  -0.25309 -1.89539 -0.0038619  -0.205052 -1.92002 -0.00319147  -0.253278 -1.89571 -0.00290203  -0.322085 -2.04741 -0.00289869  -0.273516 -2.07206 -0.00238895  -0.250309 -2.02126 -0.00351286  -0.322173 -2.04763 -0.00218058  -0.298873 -1.99679 -0.00320387  -0.250491 -2.02146 -0.00263882  -0.299014 -1.99706 -0.00240231  -0.368901 -2.14835 -0.00232935  -0.320078 -2.17299 -0.00190687  -0.296581 -2.12241 -0.00283003  -0.368945 -2.14853 -0.00175714  -0.345392 -2.0979 -0.00260162  -0.296722 -2.12257 -0.00212288  -0.345485 -2.09812 -0.00195265  -0.416205 -2.24894 -0.00180817  -0.367192 -2.27353 -0.00147057  -0.343479 -2.22317 -0.00223255  -0.416223 -2.2491 -0.00135946  -0.392472 -2.19867 -0.0020566  -0.343577 -2.22331 -0.00167418  -0.392525 -2.19886 -0.00154114  -0.463855 -2.34918 -0.00136185  -0.414694 -2.37367 -0.00111246  -0.390855 -2.32355 -0.0016942  -0.463843 -2.34929 -0.0010252  -0.439964 -2.29909 -0.00157022  -0.390913 -2.32366 -0.00127506  -0.439998 -2.29924 -0.0011797  -0.511749 -2.44903 -0.000990391  -0.462502 -2.47344 -0.000795841  -0.438545 -2.42354 -0.0012393  -0.511715 -2.44912 -0.000752926  -0.487752 -2.39913 -0.00115967  -0.438579 -2.4236 -0.000934124  -0.487751 -2.39924 -0.000873566  -0.559753 -2.5485 -0.000665188  -0.510467 -2.57281 -0.000536442  -0.48646 -2.5231 -0.000873089  -0.559716 -2.54858 -0.000504017  -0.53571 -2.49879 -0.000817299  -0.486459 -2.52316 -0.000659943  -0.535697 -2.49889 -0.000620842  -0.607789 -2.64763 -0.000396252  -0.558474 -2.67183 -0.000313282  -0.534481 -2.62233 -0.000549316  -0.607734 -2.6477 -0.000300884  -0.583756 -2.5981 -0.000524044  -0.534468 -2.62237 -0.000418663  -0.583724 -2.59818 -0.000398159  -0.655826 -2.74645 -0.000162601  -0.606492 -2.77059 -0.000136852  -0.582513 -2.7212 -0.000296593  -0.655755 -2.7465 -0.000124454  -0.631787 -2.69705 -0.000270367  -0.582489 -2.72124 -0.000237465  -0.631743 -2.69713 -0.000210285  -0.70382 -2.84505 5.91278e-05  -0.654522 -2.86915 3.62396e-05  -0.630521 -2.81984 -6.34193e-05  -0.703753 -2.8451 3.43323e-05  -0.679789 -2.79574 -5.8651e-05  -0.630514 -2.81988 -6.4373e-05  -0.679757 -2.79582 -4.673e-05  -0.0307751 -0.0348792 0.0289316  -0.011516 -0.0188003 0.0194693  0 0 0  -0.019496 -0.0166405 0.0302582  0 0 0  -0.0125564 -0.0123161 0.019846  -0.00411073 -0.00260741 0.013803  0 0 0  -0.0117436 -0.0198501 0.0162053  -0.019327 -0.0210996 0.0239778  -0.0061042 -0.00804054 0.0155821  0 0 0  -0.00395835 -0.00453089 0.0110736  -0.00582668 -0.00972269 0.0129256  -0.0693694 -0.0502716 0.044323  -0.0488972 -0.0335752 0.0482082  -0.0523887 -0.0348174 0.0472398  -0.0384408 -0.035608 0.0318184  -0.0251924 -0.0179216 0.0336976  -0.0499436 -0.040767 0.0380049  -0.0523172 -0.0420984 0.0378714  -0.0356585 -0.0245224 0.0405612  -0.0246127 -0.0229549 0.0268445  -0.0354812 -0.030438 0.0322142  -0.108783 -0.075429 0.0497022  -0.0879623 -0.0527342 0.0591183  -0.0854796 -0.0623254 0.0510435  -0.067243 -0.0663438 0.0358372  -0.0528346 -0.0431014 0.0419064  -0.0889537 -0.0616667 0.048058  -0.0864218 -0.0700631 0.0425701  -0.0690431 -0.0471465 0.0501275  -0.0527956 -0.0497827 0.0345173  -0.0693016 -0.0548961 0.0410986  -0.148362 -0.109608 0.0483656  -0.126698 -0.0830583 0.0593076  -0.118889 -0.100574 0.0491543  -0.09692 -0.106317 0.0350685  -0.0804439 -0.0786612 0.0424886  -0.12862 -0.0914548 0.0495601  -0.121125 -0.107453 0.0415545  -0.102045 -0.0802939 0.0505562  -0.0819078 -0.0852709 0.0358105  -0.103709 -0.0876961 0.04249  -0.187895 -0.152108 0.0442319  -0.165413 -0.122896 0.0550718  -0.153539 -0.147129 0.0448518  -0.128092 -0.154196 0.0322037  -0.109695 -0.123501 0.0397773  -0.168151 -0.129968 0.0465198  -0.156575 -0.152896 0.0381069  -0.136034 -0.12291 0.0471749  -0.112314 -0.129369 0.0338049  -0.138751 -0.129286 0.0400038  -0.227508 -0.201564 0.0392532  -0.204494 -0.170355 0.0492644  -0.189518 -0.200346 0.0398016  -0.160874 -0.208668 0.0286312  -0.141032 -0.175727 0.0357738  -0.207702 -0.176076 0.0417886  -0.192921 -0.205049 0.033844  -0.171347 -0.172958 0.0423565  -0.144283 -0.180681 0.0304642  -0.174641 -0.178218 0.036016  -0.267436 -0.257029 0.0343223  -0.244062 -0.224042 0.0433064  -0.226729 -0.259113 0.0348797  -0.195216 -0.268733 0.0250306  -0.174351 -0.233962 0.0315137  -0.247441 -0.228635 0.0367575  -0.230207 -0.262927 0.0296111  -0.207953 -0.229054 0.0373068  -0.177854 -0.238055 0.0268188  -0.211451 -0.233339 0.031702  -0.307862 -0.317722 0.0298681  -0.284241 -0.283109 0.0378017  -0.265108 -0.32269 0.0303946  -0.231032 -0.333651 0.0217104  -0.20945 -0.297251 0.0274968  -0.287584 -0.28678 0.0320492  -0.268478 -0.325794 0.0257363  -0.245749 -0.290299 0.0325756  -0.212937 -0.300617 0.0233383  -0.249216 -0.293778 0.0276279  -0.348985 -0.383052 0.02597  -0.325155 -0.346876 0.032927  -0.30464 -0.390571 0.0264664  -0.268312 -0.402907 0.0188098  -0.246156 -0.364986 0.0238924  -0.328336 -0.349846 0.027844  -0.307801 -0.393133 0.0223484  -0.284712 -0.356089 0.0283647  -0.249489 -0.367762 0.0202155  -0.288003 -0.358933 0.0239873  -0.390938 -0.452595 0.0225925  -0.366902 -0.414881 0.0287089  -0.345321 -0.462384 0.0230303  -0.307003 -0.476056 0.0162721  -0.284363 -0.436721 0.0207448  -0.369866 -0.417344 0.0242295  -0.348237 -0.464499 0.019392  -0.32481 -0.425984 0.0246868  -0.287477 -0.439013 0.0175047  -0.327879 -0.428336 0.0208225  -0.433755 -0.525932 0.01967  -0.40954 -0.486788 0.0250411  -0.387128 -0.537733 0.0200434  -0.347078 -0.552719 0.0140648  -0.324025 -0.512047 0.0179911  -0.412244 -0.488822 0.0210886  -0.389777 -0.539506 0.016849  -0.366064 -0.499605 0.0214844  -0.326872 -0.513968 0.0151372  -0.368868 -0.501568 0.0180759  -0.477508 -0.602718 0.0171118  -0.453072 -0.562199 0.0218358  -0.430042 -0.616339 0.0174317  -0.388489 -0.632564 0.012177  -0.365036 -0.590649 0.0156054  -0.455528 -0.563927 0.0183663  -0.432429 -0.61783 0.0146337  -0.40842 -0.57662 0.0186925  -0.367617 -0.592263 0.0130992  -0.410967 -0.578274 0.0156994  -0.522154 -0.682633 0.0148659  -0.497518 -0.64087 0.019001  -0.47401 -0.697885 0.0151129  -0.431149 -0.715254 0.0105076  -0.407341 -0.672206 0.0134978  -0.499724 -0.642311 0.0159512  -0.47614 -0.699139 0.0126719  -0.451873 -0.65674 0.0162396  -0.409664 -0.673569 0.0113177  -0.454154 -0.658132 0.0136228  -0.567644 -0.765373 0.0128608  -0.542805 -0.722453 0.0165024  -0.518962 -0.782078 0.013062  -0.474977 -0.800506 0.00903225  -0.450839 -0.756437 0.0116405  -0.544802 -0.723663 0.0138345  -0.520866 -0.783134 0.010931  -0.496338 -0.739641 0.0140576  -0.452923 -0.757577 0.00974131  -0.498385 -0.740821 0.0117774  -0.613929 -0.850639 0.0110731  -0.588934 -0.806681 0.0142493  -0.564835 -0.868642 0.0112166  -0.519867 -0.888034 0.00772095  -0.495441 -0.843033 0.0099926  -0.590693 -0.80771 0.01195  -0.566504 -0.86953 0.00939035  -0.541759 -0.825046 0.012116  -0.497293 -0.843999 0.00835848  -0.543572 -0.826048 0.0101404  -0.66094 -0.938178 0.00945902  -0.635785 -0.893276 0.0122294  -0.611498 -0.95733 0.00956678  -0.565708 -0.977591 0.0065546  -0.541031 -0.931757 0.00851345  -0.637355 -0.894148 0.0102487  -0.612976 -0.958066 0.00799704  -0.588037 -0.912707 0.0103717  -0.542671 -0.932572 0.00712156  -0.589645 -0.913543 0.00867558  -0.708558 -1.02774 0.00803471  -0.683311 -0.982015 0.0104084  -0.658879 -1.04789 0.00808716  -0.612377 -1.06891 0.00549555  -0.587493 -1.02237 0.00718832  -0.684683 -0.982723 0.00871944  -0.660165 -1.0485 0.00675869  -0.635081 -1.00236 0.00880051  -0.588939 -1.02304 0.00600243  -0.636485 -1.00307 0.00735998  -0.756716 -1.11908 0.00673962  -0.731402 -1.07261 0.00879478  -0.706867 -1.1401 0.00676584  -0.659767 -1.16177 0.00456572  -0.634723 -1.1146 0.00602102  -0.732576 -1.0732 0.00736046  -0.707973 -1.1406 0.00564861  -0.682775 -1.09378 0.00741434  -0.635987 -1.11515 0.0050211  -0.683997 -1.09436 0.00619984  -0.805331 -1.21197 0.00559616  -0.779952 -1.16487 0.00733614  -0.755358 -1.23374 0.0055728  -0.707749 -1.256 0.00373459  -0.682584 -1.20828 0.00495481  -0.780986 -1.16534 0.00614309  -0.756309 -1.23415 0.00465631  -0.731029 -1.18673 0.00615215  -0.683686 -1.20872 0.00413752  -0.732081 -1.1872 0.0051446  -0.854269 -1.30622 0.00455523  -0.828885 -1.25856 0.006042  -0.804221 -1.3286 0.00452709  -0.756208 -1.35137 0.00298691  -0.730976 -1.30318 0.00402546  -0.829767 -1.25894 0.00505733  -0.805041 -1.32895 0.00377798  -0.779727 -1.28101 0.0050416  -0.731922 -1.30355 0.00335503  -0.780622 -1.2814 0.00421238  -0.90348 -1.40164 0.0036335  -0.878104 -1.35348 0.00488281  -0.85341 -1.42456 0.00358105  -0.805033 -1.44771 0.00234175  -0.779772 -1.39915 0.0031867  -0.878844 -1.3538 0.00408602  -0.854078 -1.42482 0.00298691  -0.828765 -1.37645 0.00404358  -0.780576 -1.39942 0.00266361  -0.829524 -1.37676 0.00337648  -0.952833 -1.49802 0.00282288  -0.927518 -1.44948 0.00385094  -0.902786 -1.52139 0.00276232  -0.854128 -1.54487 0.00176573  -0.828868 -1.49597 0.00246143  -0.928138 -1.44972 0.00323009  -0.903333 -1.52158 0.00230408  -0.878036 -1.47285 0.00315857  -0.829542 -1.49619 0.00204897  -0.878679 -1.47309 0.00263977  -1.00227 -1.59523 0.00211573  -0.977035 -1.54635 0.00294399  -0.952261 -1.61894 0.00204134  -0.903382 -1.64268 0.00127649  -0.878166 -1.59353 0.0018177  -0.977553 -1.54654 0.00247574  -0.9527 -1.61908 0.00170374  -0.927476 -1.57006 0.0023818  -0.878731 -1.59369 0.00151634  -0.928002 -1.57025 0.00199175  -1.05172 -1.6931 0.001513  -1.0266 -1.64395 0.00216579  -1.00178 -1.71706 0.00144005  -0.952724 -1.741 0.000862598  -0.927582 -1.69167 0.00128651  -1.027 -1.6441 0.00181723  -1.00211 -1.71716 0.00120258  -0.976985 -1.66791 0.00172091  -0.928042 -1.69178 0.00107336  -0.977407 -1.66806 0.00143766  -1.10112 -1.79149 0.00102758  -1.07611 -1.74214 0.00149393  -1.05125 -1.81564 0.000933647  -1.00207 -1.83973 0.000532627  -0.977032 -1.79024 0.000828266  -1.07643 -1.74223 0.00126314  -1.05151 -1.81571 0.000785828  -1.02649 -1.76627 0.0011673  -0.977398 -1.79032 0.000687599  -1.02682 -1.76639 0.000972271  -1.1504 -1.89025 0.000632286  -1.12553 -1.84077 0.000957966  -1.10062 -1.91453 0.000523567  -1.05134 -1.93871 0.000254631  -1.02644 -1.88913 0.000452042  -1.12577 -1.84082 0.000808716  -1.10081 -1.91456 0.000446796  -1.07592 -1.86503 0.000718117  -1.02671 -1.88919 0.0003829  -1.07616 -1.8651 0.000600815  -1.19953 -1.98927 0.000281334  -1.1748 -1.93971 0.000526905  -1.14985 -2.01361 0.000208855  -1.10052 -2.03785 5.34058e-05  -1.07573 -1.98823 0.000177383  -1.17498 -1.93973 0.000455856  -1.14997 -2.01363 0.000166893  -1.12522 -1.96403 0.000350475  -1.07594 -1.98826 0.000145435  -1.12541 -1.96408 0.000301361  -1.24848 -2.08844 7.48634e-05  -1.22391 -2.03884 0.000193119  -1.19889 -2.1128 6.67572e-06  -1.14953 -2.13705 -6.10352e-05  -1.1249 -2.08742 -2.57492e-05  -1.22402 -2.03884 0.000181675  -1.19897 -2.11281 8.10623e-06  -1.17437 -2.06318 8.67844e-05  -1.12504 -2.08745 -2.19345e-05  -1.17449 -2.06321 8.24928e-05  -1.29723 -2.18764 -6.05583e-05  -1.27281 -2.13804 -2.24113e-05  -1.24775 -2.21198 -0.000131607  -1.19836 -2.23622 -0.000145912  -1.17387 -2.18665 -0.000147343  -1.27287 -2.13804 8.58307e-06  -1.24777 -2.21198 -9.87053e-05  -1.22332 -2.16237 -7.58171e-05  -1.17397 -2.18664 -0.000121593  -1.2234 -2.16239 -5.43594e-05  -1.34579 -2.28679 -0.000117779  -1.32147 -2.23724 -0.000135899  -1.29638 -2.31108 -0.000177383  -1.24701 -2.33529 -0.000152111  -1.22265 -2.28579 -0.000197411  -1.32153 -2.23723 -9.63211e-05  -1.29638 -2.31107 -0.000136852  -1.27207 -2.26153 -0.000160217  -1.22271 -2.28577 -0.000155449  -1.2721 -2.26154 -0.000125885  -1.39421 -2.3858 -0.000118256  -1.36996 -2.33635 -0.000152111  -1.34483 -2.41003 -0.000157833  -1.29545 -2.43421 -0.000133514  -1.27119 -2.38479 -0.000185013  -1.37001 -2.3363 -0.000112057  -1.34483 -2.41003 -0.000133991  -1.3206 -2.36056 -0.000167847  -1.27124 -2.38476 -0.000150204  -1.32061 -2.36057 -0.000130653  -1.44254 -2.48464 -9.39369e-05  -1.41834 -2.43525 -0.0001297  -1.39315 -2.5088 -0.000150681  -1.34377 -2.53293 -0.000153065  -1.31957 -2.48362 -0.000161648  -1.41837 -2.43525 -0.000105858  -1.39316 -2.5088 -0.000125408  -1.36897 -2.45942 -0.000144958  -1.31961 -2.48359 -0.000134945  -1.36899 -2.45943 -0.00012207  -0.00895226 -0.00465296 0.0202374  0 0 0  -0.00571869 -0.0055276 0.0125475  -0.00188034 0.00112367 0.00884581  0 0 0  -0.00866969 -0.00781244 0.0160131  -0.00272817 -1.5527e-05 0.0111022  0 0 0  -0.0017895 -0.000500217 0.0069232  -0.00255929 -0.00184686 0.00880814  -0.0281804 -0.0257898 0.0319953  -0.0187572 -0.0286102 0.0204597  -0.011769 -0.0117796 0.0213785  -0.0277261 -0.0310009 0.0259271  -0.0178466 -0.0137535 0.0271802  -0.0114996 -0.0156087 0.0171771  -0.0173296 -0.0181037 0.0217648  -0.0500961 -0.0581638 0.0349712  -0.0360848 -0.0632348 0.0232992  -0.0269558 -0.0396192 0.0269165  -0.0507239 -0.0641001 0.0293951  -0.0390491 -0.0406015 0.0341163  -0.0270786 -0.0447273 0.0223403  -0.0390213 -0.0463715 0.0282283  -0.0734713 -0.100393 0.0339031  -0.0558792 -0.106969 0.0228829  -0.0443764 -0.0785772 0.027482  -0.0754198 -0.106123 0.0288405  -0.061482 -0.0780896 0.0347638  -0.0456884 -0.0840393 0.0233259  -0.0628358 -0.0840492 0.0294123  -0.0993792 -0.150952 0.0310597  -0.0782233 -0.158607 0.021019  -0.0643884 -0.12672 0.025806  -0.102195 -0.156029 0.0265098  -0.0860722 -0.124709 0.0326214  -0.0667149 -0.131891 0.022069  -0.088535 -0.130191 0.0278044  -0.127923 -0.208189 0.0276041  -0.103312 -0.216866 0.0186296  -0.0874779 -0.182385 0.023211  -0.131172 -0.212531 0.0235543  -0.11331 -0.178778 0.0293651  -0.0904163 -0.186975 0.0198603  -0.116407 -0.183523 0.0250664  -0.158915 -0.270943 0.0241499  -0.131056 -0.280699 0.0161839  -0.11363 -0.244186 0.0203848  -0.162285 -0.27458 0.0205498  -0.143106 -0.238892 0.0258689  -0.116856 -0.24813 0.0174117  -0.146463 -0.242907 0.0220423  -0.192117 -0.338396 0.0209661  -0.161294 -0.34932 0.0139136  -0.142622 -0.311096 0.0176644  -0.195402 -0.341426 0.0177727  -0.175224 -0.304078 0.0225286  -0.145871 -0.314447 0.0150299  -0.178595 -0.307431 0.0191374  -0.227288 -0.409993 0.0181518  -0.193854 -0.422141 0.0119309  -0.174163 -0.382404 0.0152097  -0.230401 -0.41252 0.0153418  -0.209433 -0.373655 0.0195179  -0.177289 -0.385233 0.0128942  -0.212663 -0.376461 0.0165281  -0.264298 -0.485276 0.0156832  -0.228546 -0.498676 0.010179  -0.208001 -0.457573 0.013061  -0.267168 -0.487388 0.0132117  -0.245541 -0.447151 0.0168839  -0.210932 -0.45996 0.0110402  -0.248561 -0.449497 0.0142493  -0.302996 -0.563887 0.0135355  -0.265215 -0.578517 0.00868273  -0.243938 -0.536177 0.0111732  -0.305609 -0.565671 0.011374  -0.283409 -0.524143 0.0145698  -0.246639 -0.538197 0.00941658  -0.286181 -0.526126 0.0122652  -0.343261 -0.645492 0.0116558  -0.303727 -0.661321 0.00739145  -0.281782 -0.617852 0.00954628  -0.345627 -0.647017 0.00977278  -0.322908 -0.6043 0.0125608  -0.284243 -0.619568 0.00801563  -0.325422 -0.605975 0.0105529  -0.384991 -0.729797 0.010015  -0.343917 -0.746726 0.00627375  -0.321386 -0.702254 0.00813675  -0.387112 -0.73108 0.0083971  -0.36392 -0.687299 0.0108151  -0.323615 -0.703716 0.00681639  -0.366185 -0.688714 0.00906277  -0.428047 -0.816504 0.00856209  -0.385648 -0.834466 0.00531387  -0.362604 -0.78908 0.00689411  -0.429939 -0.81758 0.00715685  -0.406327 -0.77284 0.0092659  -0.364596 -0.790318 0.00577211  -0.408357 -0.774036 0.00775909  -0.472307 -0.905314 0.00727558  -0.428761 -0.924242 0.00443268  -0.405254 -0.878047 0.00579596  -0.47398 -0.906233 0.00608683  -0.450006 -0.860625 0.00790215  -0.407028 -0.879104 0.00485516  -0.451807 -0.861647 0.00660419  -0.51764 -0.996018 0.00611877  -0.473094 -1.0158 0.00366688  -0.449196 -0.968906 0.00482941  -0.519108 -0.996793 0.00510883  -0.494812 -0.950419 0.00668001  -0.450776 -0.969806 0.00404024  -0.496413 -0.951286 0.00558043  -0.563897 -1.08835 0.00510216  -0.518507 -1.10889 0.00301123  -0.494287 -1.06141 0.00399303  -0.565184 -1.089 0.00426102  -0.540632 -1.04197 0.0055995  -0.495672 -1.06217 0.00333309  -0.542034 -1.0427 0.00467253  -0.610962 -1.18212 0.00418901  -0.564832 -1.20334 0.00242186  -0.540345 -1.15532 0.00324583  -0.612072 -1.18265 0.00349331  -0.5873 -1.13504 0.00463724  -0.541562 -1.15595 0.00271034  -0.588529 -1.13565 0.0038681  -0.658683 -1.27711 0.00338268  -0.611944 -1.29892 0.00189352  -0.587236 -1.25047 0.00257587  -0.659647 -1.27756 0.00281715  -0.634717 -1.22945 0.0037694  -0.588291 -1.251 0.0021472  -0.635776 -1.22996 0.00314426  -0.706966 -1.37315 0.00266886  -0.659701 -1.39545 0.00143814  -0.634835 -1.34664 0.00199366  -0.707776 -1.3735 0.00221682  -0.682735 -1.32499 0.00301361  -0.635744 -1.34707 0.00165367  -0.683645 -1.3254 0.00251245  -0.755654 -1.47006 0.00204182  -0.707945 -1.4928 0.00104666  -0.682988 -1.44368 0.00148296  -0.756338 -1.47034 0.00169992  -0.731231 -1.42148 0.00234127  -0.683755 -1.44403 0.0012393  -0.732006 -1.42182 0.00195026  -0.804667 -1.56768 0.00150204  -0.756582 -1.59077 0.000715256  -0.731558 -1.54143 0.00104475  -0.805221 -1.5679 0.00125074  -0.780092 -1.51876 0.00176144  -0.732211 -1.5417 0.000873566  -0.780743 -1.51903 0.00146484  -0.853863 -1.66587 0.00103712  -0.80549 -1.68925 0.000434399  -0.780462 -1.63973 0.000685215  -0.854322 -1.66604 0.000860691  -0.829214 -1.61669 0.00126123  -0.780997 -1.63995 0.000565529  -0.829746 -1.6169 0.0010457  -0.903191 -1.7645 0.000648975  -0.854552 -1.78811 0.000212193  -0.829559 -1.73848 0.000380516  -0.903541 -1.76463 0.000539303  -0.87849 -1.71512 0.000833035  -0.830002 -1.73865 0.000315189  -0.878917 -1.71529 0.000687599  -0.952545 -1.86346 0.0003438  -0.903722 -1.88724 1.4782e-05  -0.878781 -1.83753 0.000139236  -0.952822 -1.86355 0.00027895  -0.927838 -1.81393 0.000488281  -0.87913 -1.83764 0.000108242  -0.928176 -1.81405 0.000404835  -1.00186 -1.9626 9.10759e-05  -0.952873 -1.98651 -0.000111103  -0.928018 -1.93677 -5.57899e-05  -1.00204 -1.96267 7.48634e-05  -0.977177 -1.91299 0.000211239  -0.928296 -1.93685 -4.43459e-05  -0.977434 -1.91308 0.000171661  -1.05107 -2.06186 -7.58171e-05  -1.00196 -2.08585 -0.000203609  -0.977217 -2.03613 -0.000189304  -1.05119 -2.0619 -6.1512e-05  -1.02644 -2.0122 1.43051e-06  -0.977421 -2.03618 -0.000164986  -1.02662 -2.01228 1.90735e-06  -1.10013 -2.16113 -0.000175476  -1.05093 -2.18518 -0.000223637  -1.02632 -2.13549 -0.000257015  -1.10019 -2.16116 -0.000146866  -1.07559 -2.11148 -0.000136375  -1.02646 -2.13552 -0.000214577  -1.07571 -2.11153 -0.000115395  -1.14899 -2.26034 -0.00021553  -1.09975 -2.28442 -0.000245571  -1.07526 -2.2348 -0.000286579  -1.14903 -2.26036 -0.000182152  -1.12456 -2.21073 -0.000205517  -1.07536 -2.23481 -0.000235558  -1.12463 -2.21077 -0.000171185  -1.19766 -2.35942 -0.000229359  -1.14837 -2.3835 -0.000202656  -1.12401 -2.33397 -0.000276089  -1.19767 -2.35942 -0.000184536  -1.17333 -2.30988 -0.000223637  -1.12409 -2.33397 -0.00023365  -1.17337 -2.30991 -0.000184059  -1.24611 -2.45833 -0.00018692  -1.19679 -2.4824 -0.000181198  -1.17256 -2.43298 -0.000231266  -1.24611 -2.45832 -0.000152588  -1.22189 -2.40888 -0.000203609  -1.17261 -2.43298 -0.000192642  -1.22191 -2.4089 -0.0001688  -1.2944 -2.557 -0.000162125  -1.24503 -2.58106 -0.000118732  -1.22091 -2.53175 -0.00018549  -1.29439 -2.557 -0.000139236  -1.27024 -2.50767 -0.000174046  -1.22093 -2.53176 -0.000152111  -1.27027 -2.50769 -0.000141144  -0.00322261 -0.00241381 0.0113788  0 0 0  -0.00110846 -0.00509638 0.0057888  -0.000338241 0.00101104 0.00397587  0 0 0  -0.00321182 -0.00481778 0.00909472  -0.00099593 0.00135267 0.00633574  0 0 0  -0.000353411 -0.000212044 0.00316429  -0.000957239 -4.96805e-05 0.00499249  -0.0112664 -0.0239458 0.0182981  -0.00464129 -0.028708 0.00979996  -0.00229134 -0.0121765 0.0098958  -0.0113073 -0.027957 0.0150042  -0.00675309 -0.0113866 0.0154696  -0.00250711 -0.0152666 0.00810385  -0.00669652 -0.0148087 0.0125203  -0.02237 -0.0587789 0.0203362  -0.0113214 -0.0653084 0.011477  -0.00696015 -0.0415065 0.0129161  -0.0231842 -0.0636202 0.017252  -0.0165157 -0.0399434 0.0197248  -0.00759837 -0.0457375 0.0109034  -0.0168759 -0.044547 0.0164895  -0.0362263 -0.103815 0.0198417  -0.021279 -0.111703 0.0114036  -0.0144445 -0.0826748 0.0134411  -0.0380145 -0.108813 0.0170336  -0.0288947 -0.0800873 0.0203032  -0.0158783 -0.087429 0.0115809  -0.0302354 -0.0851464 0.0173335  -0.0534162 -0.157236 0.0181651  -0.0347689 -0.166103 0.0104218  -0.025431 -0.133254 0.0126719  -0.055909 -0.161933 0.0156293  -0.0443564 -0.129532 0.0190997  -0.0275691 -0.137981 0.0109911  -0.0465612 -0.134459 0.0164227  -0.0741474 -0.217553 0.0160503  -0.0519333 -0.22728 0.0090723  -0.0402828 -0.191516 0.0112615  -0.0770331 -0.22174 0.0137892  -0.0633241 -0.186575 0.0171447  -0.0428852 -0.195906 0.00978231  -0.0660655 -0.19106 0.0147519  -0.0982922 -0.283561 0.0138845  -0.0726987 -0.294168 0.00768614  -0.0590392 -0.256141 0.0096755  -0.101315 -0.287177 0.011889  -0.0857807 -0.249855 0.0149641  -0.0618696 -0.260056 0.00838089  -0.0887845 -0.2538 0.0128455  -0.125574 -0.354336 0.0118537  -0.0968806 -0.365943 0.00634956  -0.0814977 -0.326068 0.00812387  -0.128558 -0.357442 0.0101047  -0.111531 -0.318345 0.0128498  -0.0843774 -0.329487 0.00700521  -0.114577 -0.321741 0.0109868  -0.155693 -0.429238 0.0100627  -0.124198 -0.441912 0.00519753  -0.107356 -0.40048 0.00671434  -0.158531 -0.431886 0.00855064  -0.140269 -0.391261 0.0109329  -0.110154 -0.403431 0.00576162  -0.143209 -0.394166 0.00930929  -0.188382 -0.507744 0.00849581  -0.15438 -0.521533 0.00418854  -0.136294 -0.478744 0.00547647  -0.191018 -0.510004 0.00718784  -0.171693 -0.468019 0.00925064  -0.138938 -0.481288 0.00468397  -0.174465 -0.470501 0.00784636  -0.223383 -0.589426 0.00712299  -0.187199 -0.604334 0.0033536  -0.168024 -0.560376 0.00441694  -0.225806 -0.591358 0.00601053  -0.205571 -0.548175 0.0077858  -0.170473 -0.562552 0.00376034  -0.208131 -0.55029 0.00657892  -0.260508 -0.67392 0.00595856  -0.222396 -0.689916 0.00265455  -0.202263 -0.644916 0.00352907  -0.262696 -0.675581 0.00501728  -0.241668 -0.631309 0.00653124  -0.204504 -0.646785 0.00299549  -0.243989 -0.633124 0.00550604  -0.299536 -0.760884 0.00497389  -0.259755 -0.777911 0.00206947  -0.238783 -0.732012 0.0027833  -0.301498 -0.762302 0.00417233  -0.279765 -0.717079 0.00545073  -0.24081 -0.733621 0.00235653  -0.281866 -0.718645 0.00458431  -0.340293 -0.85003 0.00410652  -0.299047 -0.868035 0.00157213  -0.277326 -0.821341 0.00215769  -0.342055 -0.851237 0.00344658  -0.31968 -0.805171 0.00452805  -0.279161 -0.822723 0.00182772  -0.321569 -0.80651 0.00379705  -0.38259 -0.941071 0.00333643  -0.340074 -0.959991 0.00114775  -0.317699 -0.912599 0.00161028  -0.38416 -0.942118 0.00278997  -0.361217 -0.895291 0.00370884  -0.319344 -0.913791 0.00135612  -0.362916 -0.896441 0.00310755  -0.426256 -1.03377 0.00268078  -0.382627 -1.05351 0.000797272  -0.359714 -1.00554 0.00115156  -0.427635 -1.03466 0.00224352  -0.404231 -0.987205 0.00300169  -0.361166 -1.00656 0.000967503  -0.405728 -0.988187 0.00250483  -0.471113 -1.1279 0.00210381  -0.426534 -1.14836 0.00050211  -0.403133 -1.0999 0.000771999  -0.472319 -1.12865 0.00175381  -0.448519 -1.08064 0.00238371  -0.404417 -1.10077 0.000648022  -0.44983 -1.08148 0.00199604  -0.51699 -1.22325 0.00160408  -0.471587 -1.24435 0.000257015  -0.447799 -1.19548 0.000444412  -0.518031 -1.22387 0.00133991  -0.493898 -1.17539 0.00184536  -0.448922 -1.19622 0.000371456  -0.495047 -1.17611 0.00154257  -0.563722 -1.3196 0.00117445  -0.517622 -1.34129 3.95775e-05  -0.493506 -1.29208 0.000173092  -0.564625 -1.32013 0.000967979  -0.540217 -1.27128 0.00137901  -0.494484 -1.2927 0.000143051  -0.541221 -1.27187 0.0011487  -0.611178 -1.41682 0.00079298  -0.564482 -1.439 -0.000124454  -0.540113 -1.38954 -4.29153e-05  -0.61195 -1.41726 0.000662804  -0.58735 -1.36808 0.000976562  -0.540954 -1.39005 -4.48227e-05  -0.588201 -1.36859 0.000807762  -0.659206 -1.51474 0.000481606  -0.611977 -1.53733 -0.000264645  -0.587435 -1.48766 -0.000228882  -0.659844 -1.51509 0.000397682  -0.635101 -1.46568 0.000638485  -0.588149 -1.4881 -0.00019455  -0.635825 -1.46609 0.000524998  -0.707669 -1.6132 0.000220776  -0.660013 -1.63616 -0.000368595  -0.635343 -1.58633 -0.000378609  -0.708198 -1.6135 0.000176907  -0.68336 -1.56388 0.000341892  -0.635933 -1.58669 -0.00031662  -0.683965 -1.56423 0.000269413  -0.756454 -1.71209 1.38283e-05  -0.70843 -1.73533 -0.000430584  -0.683683 -1.6854 -0.000470638  -0.756872 -1.71233 8.10623e-06  -0.731999 -1.66257 0.000109196  -0.684178 -1.68571 -0.000404835  -0.732489 -1.66286 8.63075e-05  -0.805437 -1.81128 -0.000137806  -0.75712 -1.83476 -0.000488758  -0.73234 -1.78478 -0.000548363  -0.805762 -1.81147 -0.000132561  -0.780889 -1.76163 -7.10487e-05  -0.73274 -1.78502 -0.000460148  -0.78129 -1.76186 -6.48499e-05  -0.854544 -1.91066 -0.000270367  -0.805966 -1.93432 -0.000500679  -0.781202 -1.88434 -0.000584126  -0.854785 -1.9108 -0.000230789  -0.829956 -1.86093 -0.000218868  -0.781515 -1.88452 -0.000492096  -0.830253 -1.86111 -0.000188828  -0.90367 -2.01015 -0.000352383  -0.854888 -2.03394 -0.000489712  -0.830181 -1.98398 -0.00059557  -0.903837 -2.01025 -0.000292778  -0.879078 -1.96036 -0.000319481  -0.830418 -1.98412 -0.000496864  -0.879299 -1.96051 -0.000271797  -0.952725 -2.10964 -0.000382423  -0.903805 -2.13352 -0.000466347  -0.87916 -2.08363 -0.000575066  -0.952835 -2.10972 -0.000323772  -0.928171 -2.05987 -0.000387192  -0.879345 -2.08373 -0.000477314  -0.928338 -2.05998 -0.000327587  -1.0017 -2.20907 -0.000370979  -0.952655 -2.23302 -0.000408173  -0.928113 -2.18321 -0.000520229  -1.00176 -2.20912 -0.000315189  -0.977199 -2.15935 -0.00038147  -0.928232 -2.18328 -0.000432014  -0.97731 -2.15943 -0.000323772  -1.05051 -2.30837 -0.000355244  -1.00137 -2.33236 -0.000348568  -0.976941 -2.28266 -0.000451088  -1.05054 -2.30841 -0.000295162  -1.0261 -2.25872 -0.00036335  -0.977024 -2.28271 -0.000372887  -1.02616 -2.25878 -0.000303268  -1.09915 -2.4075 -0.000277519  -1.04994 -2.4315 -0.000261307  -1.02562 -2.38192 -0.000364304  -1.09913 -2.40752 -0.000228405  -1.07482 -2.35793 -0.00031662  -1.02567 -2.38195 -0.000303268  -1.07485 -2.35798 -0.000269413  -1.14756 -2.50641 -0.000198841  -1.0983 -2.53041 -0.000153542  -1.07411 -2.48097 -0.000245571  -1.14753 -2.50642 -0.000166893  -1.12335 -2.45695 -0.000240326  -1.07414 -2.48098 -0.000205517  -1.12336 -2.457 -0.000199318  -1.19574 -2.60501 -0.00014019  -1.14644 -2.62903 -9.9659e-05  -1.12236 -2.57974 -0.000161171  -1.19572 -2.60505 -0.000117779  -1.17165 -2.55572 -0.000173569  -1.12239 -2.57975 -0.000121117  -1.17165 -2.55577 -0.000139713  0.00115341 -0.00428471 0.0028615  0 0 0  0.00277607 -0.0079118 -0.000705719  0.000956133 -0.000855953 -0.000872135  0 0 0  0.000886351 -0.00618315 0.002491  0.000340588 0.000251681 0.00152016  0 0 0  0.000830933 -0.00180984 -0.000538826  0.000267766 -0.000825912 0.00129223  0.00220388 -0.0273088 0.00538158  0.00749627 -0.0336521 -0.000353336  0.0058627 -0.0165552 -0.00100708  0.0015513 -0.0306652 0.00462198  0.00186718 -0.0139494 0.00433302  0.0051405 -0.0191906 -0.000545025  0.00140627 -0.0167835 0.00370121  0.000966907 -0.0639461 0.00653696  0.0104891 -0.0721599 0.000283718  0.0105479 -0.0478934 -0.000292301  -0.00021258 -0.0681812 0.00575829  0.00194323 -0.0441846 0.0061574  0.00935319 -0.051624 4.19617e-05  0.00103766 -0.0481372 0.00535679  -0.00364596 -0.111053 0.0065527  0.00994313 -0.120507 0.000497818  0.012358 -0.0908946 0.000181198  -0.00542888 -0.1156 0.00584745  -0.000852287 -0.0862747 0.00667  0.0107259 -0.0952302 0.000473499  -0.0023551 -0.0907955 0.00591421  -0.0123019 -0.166673 0.00589418  0.00509477 -0.177013 0.000298977  0.0101074 -0.143351 0.000146866  -0.014555 -0.17112 0.00528622  -0.00742751 -0.137835 0.0062871  0.00807983 -0.147817 0.000434875  -0.00948417 -0.142425 0.00562286  -0.0252345 -0.22943 0.00492668  -0.00423741 -0.240496 -0.000148773  0.00333369 -0.203687 -0.000233173  -0.0277719 -0.233513 0.00441885  -0.0182093 -0.197188 0.0054307  0.000994921 -0.207944 9.29832e-05  -0.0206434 -0.201518 0.00487661  -0.0423798 -0.298069 0.00389576  -0.0179964 -0.30991 -0.00063324  -0.00807858 -0.270613 -0.000743866  -0.0450253 -0.301714 0.00349188  -0.0332683 -0.263022 0.00440979  -0.0105678 -0.274507 -0.000374794  -0.0359024 -0.266935 0.00395584  -0.06348 -0.371681 0.00291538  -0.0359554 -0.384364 -0.00109148  -0.0239486 -0.343074 -0.00126553  -0.0661002 -0.374878 0.00261068  -0.0524311 -0.334259 0.00339031  -0.0264631 -0.346548 -0.000863552  -0.0550975 -0.337723 0.00304413  -0.0881842 -0.449485 0.00206852  -0.0578214 -0.463107 -0.00146866  -0.043961 -0.420169 -0.00170135  -0.090705 -0.452279 0.00185347  -0.0753779 -0.410053 0.00247526  -0.0464135 -0.423233 -0.00127792  -0.0779734 -0.413076 0.00222683  -0.116177 -0.530897 0.00135136  -0.0832601 -0.545489 -0.00175285  -0.0677695 -0.501194 -0.00205374  -0.118536 -0.533313 0.0012188  -0.101759 -0.489738 0.00169802  -0.0701067 -0.503873 -0.00161362  -0.104231 -0.492366 0.00152349  -0.147136 -0.615408 0.000757694  -0.111946 -0.630993 -0.00195599  -0.0950377 -0.585535 -0.00232029  -0.149307 -0.6175 0.000686169  -0.131273 -0.572754 0.00104094  -0.0972139 -0.587874 -0.001863  -0.133566 -0.575034 0.000945091  -0.180761 -0.702588 0.000287533  -0.143563 -0.719159 -0.00208044  -0.125397 -0.67273 -0.00249624  -0.182736 -0.704396 0.000285625  -0.163602 -0.658643 0.000513077  -0.127403 -0.674758 -0.00202942  -0.165697 -0.660626 0.000478745  -0.216784 -0.79208 -8.29697e-05  -0.177828 -0.809591 -0.00214624  -0.15854 -0.762341 -0.0025835  -0.218564 -0.793642 -3.52859e-05  -0.198453 -0.747025 8.72612e-05  -0.16037 -0.764105 -0.00212002  -0.200359 -0.748738 0.000118732  -0.254949 -0.883548 -0.000369549  -0.214455 -0.901972 -0.00215769  -0.194202 -0.854023 -0.0026226  -0.256552 -0.884909 -0.000285625  -0.23558 -0.837545 -0.000233173  -0.195855 -0.855555 -0.00215149  -0.2373 -0.839034 -0.000165939  -0.295026 -0.976729 -0.00060606  -0.253192 -0.995986 -0.00214291  -0.232085 -0.947453 -0.00260735  -0.296458 -0.97791 -0.000486851  -0.274734 -0.929913 -0.000500679  -0.23357 -0.948792 -0.00214815  -0.276273 -0.931205 -0.00039959  -0.3368 -1.07136 -0.000785351  -0.293779 -1.09138 -0.00208855  -0.271946 -1.04236 -0.00255823  -0.33805 -1.07237 -0.000641823  -0.315691 -1.02385 -0.000701904  -0.273267 -1.04352 -0.00212049  -0.317051 -1.02497 -0.000575066  -0.380027 -1.16721 -0.000900269  -0.335987 -1.18792 -0.00202703  -0.313525 -1.13852 -0.00247669  -0.381117 -1.16808 -0.000747204  -0.358205 -1.11911 -0.0008564  -0.314687 -1.13951 -0.00205803  -0.359404 -1.12008 -0.000704288  -0.424528 -1.26408 -0.00100565  -0.379606 -1.28539 -0.00192738  -0.356616 -1.23568 -0.0023756  -0.425475 -1.26483 -0.000840187  -0.402092 -1.2155 -0.000955582  -0.357624 -1.23654 -0.00197744  -0.403144 -1.21633 -0.000793457  -0.470096 -1.36179 -0.00107288  -0.424423 -1.38363 -0.00183535  -0.400981 -1.3337 -0.00225973  -0.47091 -1.36243 -0.000902176  -0.447156 -1.31281 -0.00104666  -0.401876 -1.33442 -0.00188398  -0.448062 -1.31353 -0.000874043  -0.516576 -1.46018 -0.00109434  -0.470236 -1.48248 -0.00170755  -0.446456 -1.43236 -0.00213432  -0.51726 -1.46072 -0.000914097  -0.493209 -1.41089 -0.00108147  -0.447213 -1.433 -0.00178194  -0.493976 -1.41149 -0.000902653  -0.563776 -1.5591 -0.00111294  -0.516878 -1.58178 -0.0015974  -0.492819 -1.53155 -0.00197887  -0.564345 -1.55953 -0.000935078  -0.54006 -1.50955 -0.00110531  -0.493457 -1.53208 -0.00165081  -0.540716 -1.51007 -0.000920773  -0.611571 -1.6584 -0.00109386  -0.564183 -1.68142 -0.00146723  -0.539917 -1.63111 -0.00184202  -0.612026 -1.65877 -0.000914574  -0.587575 -1.60867 -0.00110769  -0.540447 -1.63156 -0.00153208  -0.588115 -1.60911 -0.000925541  -0.65979 -1.75799 -0.00104904  -0.612011 -1.78128 -0.00132084  -0.587601 -1.73095 -0.00167227  -0.66016 -1.75829 -0.00087738  -0.6356 -1.70814 -0.00107574  -0.588033 -1.73133 -0.00138807  -0.636045 -1.7085 -0.000902176  -0.708328 -1.85774 -0.000999451  -0.660203 -1.88125 -0.00118256  -0.635715 -1.83095 -0.00151157  -0.708612 -1.85799 -0.000826836  -0.683992 -1.80783 -0.00101852  -0.636064 -1.83125 -0.00125504  -0.684351 -1.80813 -0.000861168  -0.757063 -1.95759 -0.000923634  -0.708664 -1.98125 -0.00104475  -0.684129 -1.93101 -0.0013299  -0.757272 -1.95778 -0.000766754  -0.73264 -1.90764 -0.000956535  -0.684406 -1.93125 -0.00111055  -0.73292 -1.90787 -0.000798702  -0.8059 -2.05742 -0.000830173  -0.757279 -2.08121 -0.000908375  -0.732746 -2.03105 -0.00116253  -0.806049 -2.05757 -0.000692368  -0.781446 -2.00748 -0.000877857  -0.732955 -2.03124 -0.000975609  -0.781646 -2.00768 -0.000729561  -0.854767 -2.15716 -0.000730515  -0.805949 -2.18106 -0.00073576  -0.781455 -2.131 -0.000982285  -0.854846 -2.15729 -0.000607967  -0.830303 -2.10727 -0.000785351  -0.781603 -2.13115 -0.000822544  -0.83044 -2.10744 -0.000655651  -0.903574 -2.25679 -0.000597  -0.854609 -2.28073 -0.000597477  -0.830175 -2.23081 -0.000803947  -0.903613 -2.25687 -0.000496864  -0.879145 -2.20697 -0.000659466  -0.83028 -2.23091 -0.000669956  -0.879235 -2.2071 -0.000555038  -0.952256 -2.3562 -0.000470161  -0.9032 -2.38019 -0.000445843  -0.878852 -2.3304 -0.000623226  -0.952273 -2.35627 -0.000395298  -0.9279 -2.3065 -0.000536919  -0.878911 -2.33048 -0.000524998  -0.927952 -2.30659 -0.000449657  -1.0008 -2.4554 -0.000335217  -0.951655 -2.47939 -0.00029707  -0.927416 -2.42976 -0.000442028  -1.00078 -2.45545 -0.000286579  -0.976525 -2.40581 -0.000403404  -0.927437 -2.42982 -0.000374794  -0.976537 -2.40589 -0.000339985  -1.04914 -2.55432 -0.000195503  -0.999951 -2.57832 -0.000164986  -0.975809 -2.52885 -0.000257492  -1.04911 -2.55437 -0.000163555  -1.02497 -2.50488 -0.000267506  -0.975818 -2.52889 -0.00022316  -1.02497 -2.50494 -0.000220776  -1.09723 -2.65291 -7.24792e-05  -1.04799 -2.67691 -1.85966e-05  -1.02399 -2.62761 -0.000112534  -1.0972 -2.65295 -5.38826e-05  -1.07319 -2.60364 -0.000132561  -1.02399 -2.62765 -8.4877e-05  -1.07318 -2.6037 -0.000108719  0.00527579 -0.0086869 -0.00533819  0 0 0  0.00677341 -0.0132739 -0.00684309  0.00224961 -0.00407875 -0.00553989  0 0 0  0.0047373 -0.0102779 -0.0038414  0.00158928 -0.00229281 -0.00322866  0 0 0  0.00204735 -0.00488001 -0.00407124  0.00142542 -0.00314558 -0.00232506  0.014732 -0.0346738 -0.00673389  0.0196287 -0.04263 -0.00976896  0.0141197 -0.0241754 -0.0112014  0.0134987 -0.0376538 -0.00516748  0.00992912 -0.0199714 -0.0062089  0.0128784 -0.026562 -0.0086112  0.00895678 -0.0224571 -0.00466633  0.0227065 -0.0733148 -0.00640821  0.0318833 -0.0832749 -0.0101185  0.0278212 -0.0582544 -0.0125256  0.0211358 -0.0772153 -0.00503922  0.0191131 -0.0526031 -0.0065608  0.0261292 -0.0617314 -0.0100293  0.0176722 -0.0561749 -0.00511503  0.0269136 -0.122104 -0.00605965  0.0402421 -0.133218 -0.00980616  0.0384664 -0.103019 -0.0122776  0.0250715 -0.126389 -0.00476027  0.0253665 -0.0964847 -0.00618744  0.0366487 -0.107141 -0.00996637  0.0236444 -0.100697 -0.00486517  0.0264925 -0.179495 -0.0059042  0.0436448 -0.191389 -0.00943518  0.0445665 -0.157038 -0.0118132  0.0244098 -0.183773 -0.00464487  0.0273287 -0.149751 -0.00594807  0.0425912 -0.161328 -0.0096097  0.0253429 -0.154123 -0.00467825  0.0211291 -0.244212 -0.00588322  0.041849 -0.256766 -0.00911903  0.0455149 -0.21908 -0.0113616  0.0188897 -0.24824 -0.00467014  0.0244543 -0.210967 -0.00588083  0.0433947 -0.223233 -0.00926685  0.0222629 -0.215184 -0.0046525  0.0108808 -0.315095 -0.00590611  0.0349337 -0.328338 -0.00877619  0.0412153 -0.287966 -0.0109444  0.0085749 -0.318764 -0.00473738  0.0166292 -0.278896 -0.00589466  0.0390274 -0.291835 -0.00894833  0.0143259 -0.282797 -0.00470686  -0.00401312 -0.391143 -0.0059185  0.0231131 -0.40514 -0.00845718  0.0318184 -0.362623 -0.0105  -0.00629741 -0.394424 -0.0047946  0.00402099 -0.352483 -0.00592375  0.0296249 -0.366131 -0.00861502  0.00169677 -0.355995 -0.0047698  -0.0232272 -0.471527 -0.00587082  0.00671196 -0.486338 -0.00808764  0.0176072 -0.442095 -0.0100484  -0.0254197 -0.47443 -0.004776  -0.0130799 -0.430793 -0.00590706  0.0154728 -0.445227 -0.00826311  -0.0153427 -0.433917 -0.00479603  -0.0463845 -0.555539 -0.00577784  -0.0138987 -0.571229 -0.00769424  -0.0010401 -0.525574 -0.00956678  -0.0484433 -0.558096 -0.00473976  -0.0343068 -0.513079 -0.0058341  -0.00308478 -0.528355 -0.00788498  -0.0364603 -0.515831 -0.00476456  -0.0731051 -0.642628 -0.00561666  -0.0383446 -0.659207 -0.00726891  -0.0237515 -0.612406 -0.00906277  -0.0750166 -0.644857 -0.00462484  -0.0592953 -0.598693 -0.0057044  -0.0256613 -0.614861 -0.00748777  -0.061303 -0.601114 -0.00468302  -0.103039 -0.732286 -0.005404  -0.0662729 -0.749754 -0.00682688  -0.0501236 -0.702016 -0.0085268  -0.104795 -0.734238 -0.00445223  -0.0876571 -0.68712 -0.00551701  -0.0518911 -0.704185 -0.00705242  -0.0895249 -0.689243 -0.00454426  -0.135865 -0.824105 -0.00514889  -0.0973181 -0.842443 -0.00636816  -0.079801 -0.793938 -0.00796652  -0.13745 -0.825828 -0.00425625  -0.119075 -0.777905 -0.00528479  -0.0814211 -0.795846 -0.00660658  -0.120775 -0.779773 -0.00436831  -0.171266 -0.917776 -0.00487137  -0.131149 -0.936918 -0.00590611  -0.112423 -0.887809 -0.00740957  -0.172697 -0.919271 -0.00403404  -0.153233 -0.870699 -0.00501108  -0.113899 -0.889476 -0.00614405  -0.154766 -0.872333 -0.00414467  -0.20895 -1.01296 -0.00458002  -0.167459 -1.03286 -0.00545597  -0.147683 -0.983262 -0.00684071  -0.21023 -1.01427 -0.0038023  -0.189809 -0.965162 -0.00472879  -0.149007 -0.984718 -0.00567818  -0.191188 -0.966589 -0.00391293  -0.248665 -1.10941 -0.00427055  -0.205956 -1.13001 -0.00499964  -0.185259 -1.08002 -0.00628948  -0.249783 -1.11055 -0.00355053  -0.22854 -1.06102 -0.00443697  -0.186444 -1.08129 -0.00522995  -0.229765 -1.06226 -0.00368309  -0.290126 -1.2069 -0.0039649  -0.246364 -1.22811 -0.0045557  -0.224895 -1.17783 -0.00574112  -0.291102 -1.20789 -0.00329685  -0.269161 -1.15801 -0.00411701  -0.22593 -1.17895 -0.00477409  -0.270231 -1.1591 -0.00342417  -0.333109 -1.30523 -0.00364017  -0.288431 -1.32699 -0.00410938  -0.266301 -1.27649 -0.00521946  -0.333948 -1.30608 -0.00302553  -0.311411 -1.25594 -0.00379992  -0.2672 -1.27746 -0.00434351  -0.312342 -1.25688 -0.00315571  -0.377392 -1.40421 -0.00333071  -0.331919 -1.42645 -0.00371075  -0.309212 -1.37581 -0.00471497  -0.37811 -1.40495 -0.00277948  -0.355064 -1.35462 -0.00348806  -0.310004 -1.37664 -0.0039196  -0.355875 -1.35544 -0.0029006  -0.422771 -1.5037 -0.00301456  -0.376607 -1.52635 -0.00330734  -0.353453 -1.47562 -0.0042243  -0.423375 -1.50433 -0.00250626  -0.399932 -1.45387 -0.00317764  -0.354117 -1.47635 -0.00351381  -0.400614 -1.45459 -0.0026412  -0.46905 -1.60357 -0.00271082  -0.422295 -1.62656 -0.00292635  -0.398769 -1.57581 -0.00374365  -0.46955 -1.6041 -0.00225401  -0.445774 -1.55357 -0.00286388  -0.39933 -1.57642 -0.00310993  -0.446353 -1.55417 -0.00238132  -0.516066 -1.70367 -0.00242758  -0.468796 -1.72695 -0.00256491  -0.444984 -1.67621 -0.00328875  -0.516454 -1.70412 -0.00201511  -0.492438 -1.65356 -0.00256586  -0.44545 -1.67674 -0.00273657  -0.492913 -1.65408 -0.00213766  -0.563649 -1.80393 -0.00212765  -0.515963 -1.82744 -0.00222683  -0.491936 -1.77673 -0.00285864  -0.563961 -1.80431 -0.00177002  -0.539759 -1.75376 -0.00227642  -0.492306 -1.77719 -0.00238562  -0.540137 -1.7542 -0.00189304  -0.611656 -1.90421 -0.00185299  -0.563615 -1.92792 -0.00188065  -0.539439 -1.87731 -0.0024662  -0.611892 -1.90453 -0.00153971  -0.587577 -1.85405 -0.00198364  -0.539726 -1.87768 -0.00204992  -0.587873 -1.85441 -0.00165462  -0.65997 -2.0045 -0.00157928  -0.61163 -2.02832 -0.00158453  -0.587356 -1.97783 -0.00208998  -0.660129 -2.00475 -0.00131607  -0.635755 -1.95434 -0.00171423  -0.587584 -1.97813 -0.00173616  -0.635979 -1.95465 -0.00142288  -0.708466 -2.10467 -0.00131655  -0.659888 -2.12859 -0.00129843  -0.635565 -2.07823 -0.00173473  -0.708571 -2.10487 -0.00110006  -0.684163 -2.05457 -0.00144339  -0.635727 -2.07847 -0.00144672  -0.684328 -2.05482 -0.00120354  -0.75706 -2.20466 -0.00105715  -0.708279 -2.22864 -0.00102711  -0.683968 -2.17844 -0.00139189  -0.757106 -2.20483 -0.000883579  -0.732723 -2.15466 -0.00118494  -0.684068 -2.17864 -0.00115347  -0.73283 -2.15487 -0.000994205  -0.805652 -2.30446 -0.000831604  -0.75672 -2.32848 -0.000771999  -0.732433 -2.27844 -0.00109053  -0.805657 -2.30458 -0.000689507  -0.78132 -2.25456 -0.000943184  -0.732495 -2.27859 -0.000905037  -0.78138 -2.25473 -0.000795841  -0.854183 -2.404 -0.000607967  -0.805136 -2.42804 -0.000565052  -0.780895 -2.37817 -0.000798702  -0.854168 -2.40409 -0.000510693  -0.829892 -2.35423 -0.000714779  -0.780924 -2.37829 -0.000668049  -0.829916 -2.35436 -0.000595093  -0.902602 -2.50325 -0.000382423  -0.853474 -2.52729 -0.000343323  -0.829299 -2.47761 -0.000540257  -0.902561 -2.50333 -0.000322819  -0.878376 -2.45364 -0.000501156  -0.829309 -2.47769 -0.000454426  -0.878371 -2.45374 -0.000419617  -0.950861 -2.60219 -0.00017786  -0.901675 -2.62621 -0.00014782  -0.877597 -2.57671 -0.000283241  -0.950806 -2.60226 -0.000154018  -0.92673 -2.55274 -0.000277042  -0.877585 -2.57678 -0.000241756  -0.926704 -2.55283 -0.000235558  -0.998866 -2.70076 1.28746e-05  -0.949646 -2.72481 5.14984e-05  -0.925696 -2.67548 -5.53131e-05  -0.998812 -2.70084 1.09673e-05  -0.974865 -2.65149 -8.29697e-05  -0.925686 -2.67555 -5.29289e-05  -0.974835 -2.65159 -6.77109e-05  0.00988345 -0.0155564 -0.0129604  0 0 0  0.0116761 -0.0217804 -0.0122886  0.00381062 -0.00907093 -0.00970221  0 0 0  0.00908718 -0.0170538 -0.00965643  0.00296405 -0.00629538 -0.00765657  0 0 0  0.00352579 -0.00996065 -0.0071516  0.00272296 -0.00709867 -0.00565004  0.0280494 -0.0457822 -0.0177808  0.0334432 -0.0558116 -0.0181532  0.0237294 -0.0352833 -0.0203109  0.0262791 -0.0486728 -0.0140858  0.0187037 -0.0292501 -0.0158825  0.022046 -0.037727 -0.0158048  0.0172583 -0.0316241 -0.0123205  0.0449704 -0.0865636 -0.0183825  0.0548489 -0.0983316 -0.0196214  0.0467371 -0.0724593 -0.0236049  0.0430965 -0.0903414 -0.0150075  0.0369996 -0.0648866 -0.0182266  0.0446581 -0.0759555 -0.0191321  0.0351103 -0.0683394 -0.0147219  0.0575417 -0.136794 -0.0179477  0.0715129 -0.149515 -0.0194707  0.0658092 -0.118776 -0.0238576  0.0556544 -0.140944 -0.0147247  0.0518785 -0.110472 -0.0182061  0.0638499 -0.122817 -0.0196352  0.0499994 -0.11454 -0.0149226  0.0649381 -0.195676 -0.0172114  0.0826479 -0.209092 -0.0187345  0.079721 -0.174118 -0.0231714  0.0629867 -0.199835 -0.0141516  0.0619369 -0.165163 -0.0176001  0.0778031 -0.178293 -0.0191326  0.0600044 -0.169396 -0.014461  0.0668224 -0.262122 -0.0163937  0.0880284 -0.276163 -0.0177732  0.0879946 -0.237673 -0.0220885  0.0648248 -0.266076 -0.0134935  0.0665931 -0.227972 -0.0168047  0.0860617 -0.241744 -0.01826  0.0646003 -0.232092 -0.0138302  0.0632453 -0.334974 -0.0155325  0.0876688 -0.349674 -0.0167603  0.0904989 -0.308354 -0.020884  0.0612264 -0.33863 -0.0127997  0.0657358 -0.297759 -0.0159674  0.0885593 -0.31217 -0.0172806  0.0636997 -0.301617 -0.0131516  0.0543996 -0.413206 -0.0146599  0.0818061 -0.428625 -0.0157104  0.0873379 -0.385027 -0.0196066  0.0524154 -0.416523 -0.0121007  0.0594888 -0.373433 -0.015099  0.085412 -0.388527 -0.0162272  0.0574571 -0.376961 -0.0124526  0.0406113 -0.495896 -0.0137711  0.0707597 -0.512091 -0.0146399  0.0787796 -0.466675 -0.0183191  0.0387131 -0.498871 -0.0113778  0.048122 -0.454004 -0.0142169  0.0769119 -0.469845 -0.0151768  0.0461571 -0.457181 -0.0117469  0.022303 -0.582294 -0.0128798  0.0549138 -0.599292 -0.0135965  0.0651954 -0.55243 -0.0170388  0.0204964 -0.584937 -0.0106583  0.0320292 -0.538639 -0.0133314  0.0634167 -0.555266 -0.0141163  0.0301474 -0.541479 -0.0110202  -0.000163436 -0.67172 -0.0119872  0.0346661 -0.689537 -0.0125709  0.0470026 -0.641538 -0.0157657  -0.00184286 -0.674068 -0.00993013  0.0115874 -0.62663 -0.012444  0.0453169 -0.644064 -0.0130787  0.00982177 -0.629147 -0.0102983  -0.0263602 -0.763653 -0.0111074  0.0104455 -0.782283 -0.0115676  0.0245934 -0.73337 -0.0145359  -0.0279109 -0.765734 -0.00921392  -0.0127951 -0.717373 -0.0115523  0.0230335 -0.735624 -0.0120602  -0.0144296 -0.719608 -0.00957203  -0.0559268 -0.857662 -0.0102305  -0.0173637 -0.877055 -0.0105882  -0.00159216 -0.827441 -0.0133362  -0.0573304 -0.859487 -0.00849295  -0.0407254 -0.810394 -0.0106711  -0.0030365 -0.829433 -0.0110717  -0.0422201 -0.812372 -0.00885391  -0.0884808 -0.953345 -0.00937462  -0.0483603 -0.97346 -0.00964355  -0.0311716 -0.923308 -0.0121846  -0.0897464 -0.954951 -0.00778198  -0.0718182 -0.90528 -0.00980616  -0.0324711 -0.925069 -0.0101213  -0.0731814 -0.907018 -0.00813484  -0.123696 -1.05039 -0.00855255  -0.0822002 -1.07117 -0.00875664  -0.063759 -1.02062 -0.0110626  -0.124819 -1.0518 -0.00711012  -0.105742 -1.00168 -0.00896072  -0.0649413 -1.02216 -0.00918913  -0.106962 -1.00321 -0.00744057  -0.161254 -1.14851 -0.00776291  -0.118564 -1.16992 -0.00789404  -0.0990351 -1.11906 -0.0100141  -0.162251 -1.14976 -0.00644827  -0.142171 -1.0993 -0.00815821  -0.100082 -1.12042 -0.00832462  -0.143256 -1.10065 -0.0067811  -0.200872 -1.24752 -0.00699711  -0.157109 -1.26947 -0.00708246  -0.136647 -1.2184 -0.00900745  -0.201734 -1.24861 -0.00581884  -0.18079 -1.19789 -0.00738001  -0.137572 -1.21961 -0.0074873  -0.18175 -1.19908 -0.00613546  -0.242259 -1.34717 -0.00628138  -0.197577 -1.3696 -0.00631428  -0.17631 -1.31842 -0.00803852  -0.242997 -1.34813 -0.00521994  -0.22133 -1.29725 -0.00663328  -0.177122 -1.31947 -0.00669289  -0.222156 -1.29829 -0.0055151  -0.285171 -1.44733 -0.00558949  -0.23969 -1.47018 -0.0055871  -0.217747 -1.41891 -0.00714302  -0.285804 -1.44817 -0.00465059  -0.263508 -1.39717 -0.00593424  -0.218436 -1.41984 -0.00593758  -0.264214 -1.39809 -0.00492716  -0.32939 -1.54784 -0.00493479  -0.283206 -1.57102 -0.00490618  -0.260692 -1.51977 -0.0062952  -0.329905 -1.54856 -0.00411272  -0.307096 -1.49752 -0.00525951  -0.261285 -1.52057 -0.00523663  -0.307701 -1.49832 -0.00437498  -0.374671 -1.64856 -0.00433016  -0.327903 -1.67204 -0.00426006  -0.304931 -1.62082 -0.00550318  -0.37511 -1.64918 -0.00359678  -0.351883 -1.59816 -0.00462914  -0.305411 -1.62151 -0.00458241  -0.35238 -1.59884 -0.0038538  -0.420866 -1.74939 -0.00374079  -0.373574 -1.77309 -0.0036726  -0.35022 -1.72197 -0.00474787  -0.421196 -1.74992 -0.00311661  -0.397634 -1.69893 -0.00403023  -0.350622 -1.72255 -0.0039587  -0.398046 -1.69954 -0.00335121  -0.467752 -1.85025 -0.00319433  -0.420034 -1.87411 -0.00309134  -0.396402 -1.82311 -0.00405312  -0.468008 -1.85069 -0.00265169  -0.444198 -1.79979 -0.00346804  -0.396712 -1.82361 -0.00338173  -0.444518 -1.8003 -0.00288725  -0.515181 -1.95102 -0.00269651  -0.467112 -1.97502 -0.00259256  -0.443266 -1.92416 -0.00340939  -0.515374 -1.95139 -0.0022397  -0.491379 -1.90063 -0.00294113  -0.443497 -1.92458 -0.00283813  -0.491622 -1.90104 -0.0024538  -0.563041 -2.05166 -0.00223351  -0.514657 -2.07575 -0.0021162  -0.490653 -2.02506 -0.00281906  -0.563152 -2.05197 -0.00185776  -0.539041 -2.00134 -0.00246143  -0.490829 -2.0254 -0.00234938  -0.539217 -2.0017 -0.00204563  -0.611165 -2.15211 -0.00179958  -0.56254 -2.17625 -0.00169754  -0.538432 -2.12575 -0.00228977  -0.611221 -2.15236 -0.00150347  -0.587043 -2.10189 -0.0020113  -0.538557 -2.12602 -0.00190544  -0.587153 -2.10219 -0.00167179  -0.659458 -2.25232 -0.00140095  -0.610635 -2.27647 -0.00130415  -0.586485 -2.22617 -0.00179338  -0.659466 -2.25251 -0.00115538  -0.635262 -2.20222 -0.00159073  -0.586569 -2.22639 -0.0014925  -0.635328 -2.20246 -0.00133038  -0.707811 -2.35224 -0.00105429  -0.658839 -2.37639 -0.000972271  -0.634694 -2.32629 -0.00135803  -0.707793 -2.3524 -0.000872612  -0.683603 -2.30229 -0.00122595  -0.634731 -2.32647 -0.00111961  -0.683623 -2.30249 -0.00101948  -0.756166 -2.45187 -0.000737667  -0.707085 -2.47599 -0.00065136  -0.682945 -2.4261 -0.000968456  -0.75612 -2.45198 -0.000615597  -0.731964 -2.40207 -0.000889778  -0.682963 -2.42623 -0.000803947  -0.731954 -2.40223 -0.00073719  -0.804442 -2.55114 -0.000442028  -0.755288 -2.57525 -0.000394344  -0.731201 -2.52555 -0.000620365  -0.80439 -2.55124 -0.000370979  -0.78028 -2.50152 -0.000587463  -0.731188 -2.52566 -0.000516891  -0.780261 -2.50165 -0.000491619  -0.852615 -2.65009 -0.000164986  -0.803404 -2.67417 -0.000156879  -0.779372 -2.62466 -0.000319481  -0.852547 -2.65017 -0.000142574  -0.828521 -2.60063 -0.000303268  -0.779348 -2.62475 -0.000267029  -0.82848 -2.60074 -0.000254631  -0.90058 -2.74867 9.34601e-05  -0.851354 -2.7728 9.87053e-05  -0.827428 -2.72342 -3.8147e-05  -0.900514 -2.74878 7.00951e-05  -0.876592 -2.69939 -3.91006e-05  -0.827399 -2.72351 -3.91006e-05  -0.876553 -2.69951 -4.673e-05  0.0159603 -0.0260496 -0.0194602  0 0 0  0.0186341 -0.0358626 -0.0166898  0.00587299 -0.0174355 -0.0129237  0 0 0  0.014938 -0.0279032 -0.0146008  0.00473309 -0.012675 -0.0113235  0 0 0  0.00551301 -0.0186792 -0.00957632  0.00441131 -0.0137122 -0.00838137  0.043906 -0.0610188 -0.0274601  0.0510806 -0.0736373 -0.0254493  0.0367501 -0.0511179 -0.0280418  0.0417523 -0.0641836 -0.0219345  0.0298048 -0.0425159 -0.0242791  0.0347801 -0.0540488 -0.0219536  0.027978 -0.0451588 -0.0189643  0.0694858 -0.103353 -0.0293193  0.0808498 -0.116851 -0.0283155  0.0689414 -0.0903476 -0.0335612  0.0674073 -0.107215 -0.0240664  0.0573591 -0.0809841 -0.0287261  0.0666749 -0.0941408 -0.0273132  0.0551785 -0.0846067 -0.0233421  0.0898644 -0.154791 -0.0291572  0.105111 -0.168995 -0.0285196  0.0957029 -0.13766 -0.034687  0.0879489 -0.158879 -0.0240817  0.0803531 -0.127862 -0.0293937  0.0936776 -0.141751 -0.0286074  0.0783658 -0.131914 -0.0242209  0.104601 -0.215056 -0.0280509  0.123511 -0.229904 -0.027566  0.116963 -0.194275 -0.0339899  0.10277 -0.219123 -0.0232191  0.0979878 -0.183824 -0.0286727  0.11509 -0.198387 -0.0281315  0.0961059 -0.187968 -0.023716  0.113391 -0.283131 -0.0265813  0.135668 -0.298634 -0.026123  0.132199 -0.259378 -0.0324354  0.111576 -0.287011 -0.0220094  0.109769 -0.248131 -0.0273447  0.130378 -0.26334 -0.0268846  0.107932 -0.252165 -0.0226388  0.116193 -0.35788 -0.0249386  0.141592 -0.374079 -0.0244765  0.141192 -0.331852 -0.03052  0.114397 -0.361487 -0.0206599  0.115558 -0.319694 -0.0257707  0.139413 -0.335576 -0.0253124  0.113739 -0.32348 -0.0213451  0.113172 -0.438182 -0.0232487  0.141439 -0.455115 -0.0227642  0.144019 -0.410519 -0.0284762  0.111428 -0.44148 -0.0192723  0.115422 -0.397357 -0.0240993  0.142264 -0.413948 -0.023612  0.113626 -0.400845 -0.0199652  0.104663 -0.523058 -0.0215702  0.135541 -0.54075 -0.0210547  0.140892 -0.494279 -0.026402  0.102979 -0.526031 -0.0178895  0.10961 -0.480061 -0.0224099  0.139197 -0.497403 -0.0219011  0.107865 -0.483234 -0.0185781  0.0910516 -0.611654 -0.0199013  0.124301 -0.630109 -0.0193801  0.132188 -0.582194 -0.0243626  0.0894533 -0.614321 -0.0165167  0.0984942 -0.566903 -0.0207334  0.130569 -0.585002 -0.0202222  0.0968298 -0.56975 -0.0171971  0.0727651 -0.703258 -0.0183048  0.108143 -0.722481 -0.0177755  0.118333 -0.673424 -0.0223665  0.0712759 -0.705641 -0.015193  0.0824939 -0.657078 -0.019105  0.116814 -0.675952 -0.0185781  0.0809232 -0.659635 -0.015852  0.0502532 -0.797309 -0.0167527  0.0875275 -0.817252 -0.0162182  0.099804 -0.767334 -0.020452  0.048875 -0.79943 -0.013907  0.0620445 -0.749972 -0.0175247  0.0983688 -0.76959 -0.0169873  0.060582 -0.752256 -0.0145473  0.0239202 -0.893283 -0.0152636  0.0629009 -0.913929 -0.0147476  0.0770153 -0.86337 -0.0186191  0.0226663 -0.895177 -0.0126834  0.0375713 -0.845037 -0.0160041  0.0756966 -0.865374 -0.0154691  0.0362303 -0.847077 -0.0132976  -0.00580037 -0.990801 -0.0138454  0.0346806 -1.01209 -0.013339  0.0504183 -0.961054 -0.0168843  -0.00692868 -0.99248 -0.0115108  0.00949538 -0.941837 -0.0145564  0.0492144 -0.962843 -0.0140357  0.00828052 -0.943645 -0.0120921  -0.0385499 -1.08953 -0.012495  0.00327313 -1.11142 -0.0120034  0.0204303 -1.06003 -0.0152287  -0.0395433 -1.09101 -0.0103903  -0.021781 -1.04 -0.0131636  0.0193563 -1.06163 -0.0126624  -0.0228752 -1.0416 -0.0109382  -0.0739383 -1.18919 -0.0112338  -0.0309625 -1.21161 -0.0107789  -0.0125473 -1.16001 -0.0136762  -0.0748346 -1.19051 -0.00933552  -0.0558984 -1.13923 -0.0118599  -0.0135056 -1.16141 -0.0113726  -0.0568688 -1.14065 -0.00985861  -0.111685 -1.28955 -0.0100398  -0.0676785 -1.31243 -0.00959444  -0.0481741 -1.26071 -0.0122166  -0.112457 -1.29072 -0.00835085  -0.092509 -1.23927 -0.010632  -0.0490243 -1.26195 -0.01017  -0.0933654 -1.24053 -0.00883532  -0.151456 -1.39041 -0.00889921  -0.106541 -1.4137 -0.0084734  -0.0861154 -1.36191 -0.01085  -0.152127 -1.39144 -0.00739956  -0.131304 -1.3399 -0.0094595  -0.0868454 -1.36301 -0.00902081  -0.132045 -1.34102 -0.00786352  -0.192991 -1.49161 -0.00783443  -0.147282 -1.51521 -0.00743484  -0.126058 -1.46346 -0.00954866  -0.19355 -1.4925 -0.00651455  -0.171992 -1.44095 -0.0083518  -0.126685 -1.46443 -0.00794697  -0.172625 -1.44193 -0.00695181  -0.236021 -1.59299 -0.00683975  -0.189628 -1.61687 -0.00647545  -0.167738 -1.5652 -0.00834846  -0.236475 -1.59377 -0.00569153  -0.214303 -1.54226 -0.00732708  -0.168267 -1.56603 -0.00694799  -0.214833 -1.54311 -0.00609732  -0.280304 -1.69447 -0.00591612  -0.23332 -1.71855 -0.0055604  -0.210872 -1.66699 -0.00723028  -0.280668 -1.69513 -0.00492764  -0.257986 -1.6437 -0.00637531  -0.211318 -1.66771 -0.00601816  -0.25842 -1.64444 -0.00530291  -0.325644 -1.79591 -0.00505304  -0.278152 -1.82015 -0.00474262  -0.255247 -1.76875 -0.00618267  -0.325915 -1.79648 -0.00421381  -0.302818 -1.74517 -0.00547838  -0.255607 -1.76936 -0.00514555  -0.303167 -1.74581 -0.00455761  -0.371814 -1.89724 -0.00425577  -0.32391 -1.92159 -0.00398302  -0.300651 -1.87038 -0.00522518  -0.372021 -1.89773 -0.00355148  -0.348608 -1.84658 -0.00464964  -0.300928 -1.87089 -0.00435209  -0.348867 -1.84712 -0.0038662  -0.418676 -1.99839 -0.00352621  -0.370418 -2.02282 -0.00327826  -0.34687 -1.97179 -0.00435305  -0.418811 -1.99881 -0.00293493  -0.395146 -1.94782 -0.00389051  -0.347068 -1.97223 -0.00362015  -0.395339 -1.94829 -0.00323677  -0.466055 -2.09933 -0.0028677  -0.417506 -2.12375 -0.00262833  -0.393753 -2.07295 -0.00354195  -0.466124 -2.09967 -0.00239038  -0.442271 -2.04887 -0.00318861  -0.393896 -2.07332 -0.00295448  -0.442407 -2.04927 -0.00265265  -0.513803 -2.19996 -0.00226212  -0.465019 -2.22438 -0.00205898  -0.441121 -2.17381 -0.0028162  -0.513823 -2.20025 -0.00187922  -0.48985 -2.14965 -0.00255108  -0.441216 -2.17411 -0.00234032  -0.489924 -2.14998 -0.0021286  -0.561787 -2.30029 -0.00173521  -0.512836 -2.32468 -0.00155306  -0.488858 -2.27433 -0.00217152  -0.561773 -2.30051 -0.00143671  -0.537746 -2.25014 -0.00198841  -0.488892 -2.27457 -0.00180626  -0.537769 -2.25041 -0.00165796  -0.609918 -2.40027 -0.00125694  -0.560834 -2.4246 -0.00112867  -0.536801 -2.3745 -0.0016017  -0.60987 -2.40045 -0.00104761  -0.585804 -2.3503 -0.00148964  -0.53681 -2.37468 -0.00133705  -0.585802 -2.35052 -0.00124168  -0.658093 -2.4999 -0.000854969  -0.608927 -2.52417 -0.000778675  -0.584885 -2.47428 -0.00112486  -0.658031 -2.50005 -0.000710011  -0.633977 -2.45011 -0.0010457  -0.584871 -2.47443 -0.000938892  -0.633941 -2.45029 -0.000871658  -0.706245 -2.59917 -0.000502586  -0.657013 -2.62337 -0.000442982  -0.633005 -2.57369 -0.000715256  -0.70617 -2.59928 -0.000426769  -0.682148 -2.54956 -0.000669479  -0.632971 -2.57382 -0.000604153  -0.682102 -2.54971 -0.000562191  -0.754329 -2.69809 -0.000186443  -0.705046 -2.72224 -0.00016737  -0.681077 -2.67274 -0.000366211  -0.754243 -2.69818 -0.000161171  -0.73027 -2.64865 -0.000342846  -0.681039 -2.67284 -0.000308514  -0.730214 -2.64877 -0.000292778  -0.802301 -2.79672 0.000123501  -0.753035 -2.82086 8.4877e-05  -0.729096 -2.77148 -4.91142e-05  -0.802222 -2.79681 8.63075e-05  -0.778307 -2.74741 -3.48091e-05  -0.72905 -2.77157 -5.43594e-05  -0.778244 -2.74752 -4.05312e-05  0.0253086 -0.0439186 -0.0248418  0 0 0  0.032032 -0.0600888 -0.0209079  0.0106434 -0.0335003 -0.0162096  0 0 0  0.0241963 -0.0466291 -0.018858  0.0073562 -0.02391 -0.013989  0 0 0  0.0103819 -0.0352463 -0.0122056  0.00699029 -0.025378 -0.0104904  0.0641446 -0.0801206 -0.036202  0.0741278 -0.0944656 -0.0325952  0.0562906 -0.0722076 -0.0357041  0.0618813 -0.0839096 -0.0290017  0.0457056 -0.0612223 -0.0318642  0.0545524 -0.0761281 -0.0280209  0.0438032 -0.0645872 -0.0249524  0.0972025 -0.123068 -0.0395894  0.110226 -0.138088 -0.0365624  0.0947894 -0.110761 -0.0432792  0.0950591 -0.127137 -0.0324888  0.0813036 -0.100323 -0.0384488  0.0925288 -0.115009 -0.0351896  0.0790205 -0.104336 -0.0312781  0.124957 -0.175687 -0.0397573  0.141808 -0.191205 -0.0370078  0.128859 -0.159144 -0.0450363  0.123027 -0.17978 -0.0328398  0.111811 -0.1481 -0.0399408  0.126793 -0.163355 -0.0370755  0.109784 -0.152251 -0.0329132  0.146743 -0.237435 -0.0383892  0.167184 -0.253643 -0.0358329  0.157273 -0.217197 -0.0442209  0.14494 -0.241404 -0.0317898  0.136664 -0.2054 -0.0391965  0.155324 -0.221269 -0.036551  0.134782 -0.209486 -0.0324259  0.16215 -0.307277 -0.0363474  0.185926 -0.324228 -0.0339599  0.179304 -0.284114 -0.042212  0.16041 -0.311033 -0.0301266  0.155289 -0.271352 -0.0374203  0.177427 -0.287942 -0.034955  0.153505 -0.275268 -0.0310087  0.171063 -0.383996 -0.0339909  0.19788 -0.401698 -0.0317578  0.194565 -0.358574 -0.0396719  0.169366 -0.387471 -0.0281868  0.167453 -0.344788 -0.0351834  0.192768 -0.362153 -0.032887  0.165708 -0.34846 -0.0291734  0.173642 -0.466369 -0.0315566  0.203199 -0.484863 -0.0294576  0.203118 -0.439348 -0.0369191  0.171982 -0.469558 -0.0261745  0.173167 -0.42448 -0.0327826  0.201367 -0.442613 -0.0306277  0.171461 -0.427854 -0.0271931  0.170157 -0.553375 -0.0291286  0.202204 -0.572627 -0.0271816  0.205194 -0.525245 -0.0341377  0.168567 -0.556267 -0.0241747  0.172672 -0.5093 -0.0303411  0.20348 -0.52821 -0.0283313  0.171016 -0.512379 -0.0251722  0.16105 -0.644069 -0.0267487  0.195335 -0.664077 -0.0249567  0.201117 -0.615267 -0.0313749  0.159549 -0.646676 -0.0222111  0.166316 -0.598265 -0.0279298  0.199479 -0.61793 -0.0260615  0.164743 -0.601046 -0.0231843  0.146758 -0.737719 -0.0244541  0.183058 -0.758446 -0.0228009  0.19139 -0.708551 -0.0287223  0.145357 -0.740057 -0.0203161  0.154549 -0.690532 -0.025598  0.189853 -0.710934 -0.0238576  0.153075 -0.693029 -0.0212579  0.127786 -0.833705 -0.0222692  0.165876 -0.855104 -0.0207429  0.176491 -0.804381 -0.0261726  0.126487 -0.835795 -0.0185037  0.137868 -0.785415 -0.0233512  0.175059 -0.806523 -0.0217628  0.136482 -0.787655 -0.019402  0.104586 -0.931492 -0.0201874  0.144283 -0.953521 -0.018786  0.156925 -0.90221 -0.0237355  0.103399 -0.933355 -0.0167823  0.116723 -0.882357 -0.0212159  0.155604 -0.904117 -0.0197458  0.115456 -0.884368 -0.0176334  0.0776002 -1.03069 -0.0182276  0.118723 -1.05328 -0.0169353  0.133181 -1.00158 -0.0214353  0.0765303 -1.03234 -0.0151591  0.0915678 -0.980905 -0.0192003  0.131972 -1.00325 -0.0178485  0.0904156 -0.982687 -0.0159583  0.0472473 -1.13093 -0.0163698  0.0896419 -1.15403 -0.0152073  0.105687 -1.10205 -0.0192671  0.0463028 -1.1324 -0.0136199  0.0628593 -1.08066 -0.017283  0.104601 -1.10355 -0.0160446  0.0618129 -1.08225 -0.0143766  0.0139365 -1.23195 -0.0146327  0.0574512 -1.25548 -0.013576  0.0748727 -1.20336 -0.0172601  0.0130987 -1.23324 -0.012176  0.0309726 -1.18132 -0.0154867  0.0739126 -1.20468 -0.0143661  0.0300516 -1.18273 -0.0128903  -0.0219765 -1.33348 -0.0129962  0.0225141 -1.35742 -0.0120177  0.0411592 -1.30523 -0.0153403  -0.0227127 -1.33464 -0.0108218  -0.00368547 -1.28264 -0.0138087  0.0403037 -1.30641 -0.0127788  -0.00450253 -1.28388 -0.0114899  -0.0601683 -1.43538 -0.0114694  -0.0147998 -1.45962 -0.010603  0.00489235 -1.40748 -0.0135641  -0.0608001 -1.43639 -0.00954914  -0.0407751 -1.38437 -0.0122185  0.00414324 -1.4085 -0.0113006  -0.0414879 -1.38548 -0.0101681  -0.100346 -1.53745 -0.0100307  -0.0542214 -1.56194 -0.00925541  -0.0336435 -1.50988 -0.0118828  -0.10087 -1.53833 -0.00834656  -0.0800059 -1.48637 -0.0107303  -0.0342755 -1.51077 -0.00991631  -0.0806017 -1.48734 -0.00893974  -0.142208 -1.63957 -0.00870466  -0.095437 -1.66424 -0.00801373  -0.0740688 -1.61233 -0.0103374  -0.142641 -1.64035 -0.00724792  -0.12105 -1.58849 -0.0093565  -0.0746226 -1.61311 -0.00862265  -0.121554 -1.58934 -0.00779295  -0.185504 -1.74163 -0.00747108  -0.138173 -1.76644 -0.0068655  -0.116174 -1.7147 -0.00891256  -0.185846 -1.7423 -0.00622511  -0.163664 -1.69059 -0.00808001  -0.116618 -1.71535 -0.00743532  -0.16407 -1.69133 -0.00673342  -0.230006 -1.84354 -0.00632858  -0.182192 -1.86843 -0.00580359  -0.159659 -1.8169 -0.00757837  -0.230264 -1.84412 -0.00527239  -0.207578 -1.79259 -0.00688696  -0.160034 -1.81746 -0.00632954  -0.207911 -1.79323 -0.00573826  -0.275503 -1.94523 -0.00529051  -0.227282 -1.97013 -0.00483656  -0.204328 -1.91884 -0.00635004  -0.275687 -1.94571 -0.00441122  -0.252613 -1.8944 -0.00579739  -0.204608 -1.91931 -0.00530958  -0.252858 -1.89494 -0.00482893  -0.3218 -2.04663 -0.0043354  -0.273248 -2.07152 -0.00395489  -0.249954 -2.02047 -0.00523424  -0.32191 -2.04704 -0.00361538  -0.298537 -1.99594 -0.00480127  -0.250166 -2.02086 -0.00437021  -0.2987 -1.99641 -0.00400639  -0.368726 -2.1477 -0.00346756  -0.319899 -2.17254 -0.0031414  -0.29636 -2.12175 -0.00422907  -0.368781 -2.14804 -0.00289965  -0.345165 -2.09719 -0.00389004  -0.296496 -2.12208 -0.00354004  -0.345268 -2.09758 -0.0032506  -0.416113 -2.2484 -0.00270176  -0.367093 -2.27316 -0.00244474  -0.343357 -2.22262 -0.00332785  -0.416129 -2.24868 -0.00225401  -0.392345 -2.19808 -0.00307751  -0.343431 -2.2229 -0.00278044  -0.392398 -2.1984 -0.00256968  -0.463852 -2.34873 -0.00202417  -0.414682 -2.37338 -0.00182009  -0.390815 -2.32309 -0.00250959  -0.463829 -2.34895 -0.0016942  -0.439928 -2.29859 -0.00235081  -0.390834 -2.32331 -0.00210381  -0.439929 -2.29886 -0.00196123  -0.511786 -2.44866 -0.0014534  -0.462536 -2.47319 -0.00127792  -0.438572 -2.42316 -0.00182199  -0.511742 -2.44884 -0.00122261  -0.487776 -2.39872 -0.00172758  -0.43857 -2.42333 -0.00153637  -0.487756 -2.39893 -0.00144148  -0.559858 -2.54821 -0.000968933  -0.510523 -2.57259 -0.000856876  -0.486524 -2.5228 -0.00126076  -0.559772 -2.54835 -0.00082016  -0.535783 -2.49845 -0.00120449  -0.486511 -2.52293 -0.00106621  -0.535743 -2.49864 -0.00101233  -0.607923 -2.64737 -0.000559807  -0.558572 -2.67164 -0.000505924  -0.534591 -2.62205 -0.000779152  -0.607828 -2.64748 -0.000478745  -0.583858 -2.59781 -0.000758648  -0.534543 -2.62215 -0.00067234  -0.583795 -2.59795 -0.0006423  -0.655954 -2.7462 -0.000213623  -0.606613 -2.77039 -0.000199795  -0.582644 -2.72095 -0.000386715  -0.655847 -2.7463 -0.000187397  -0.631911 -2.6968 -0.000381947  -0.582595 -2.72105 -0.000335217  -0.631842 -2.69693 -0.000328064  -0.703937 -2.8448 9.39369e-05  -0.654616 -2.86895 7.29561e-05  -0.630674 -2.8196 -7.9155e-05  -0.703856 -2.84489 8.58307e-05  -0.67993 -2.7955 -5.81741e-05  -0.630606 -2.81968 -6.48499e-05  -0.679849 -2.79561 -6.05583e-05  -0.0311142 -0.0232348 0.0472355  -0.0186846 -0.0118567 0.0296297  0 0 0  -0.0334986 -0.00173716 0.0485964  0 0 0  -0.016051 -0.00365712 0.0319791  -0.00934487 0.00535785 0.0248251  0 0 0  -0.0106748 -0.0124531 0.0236511  -0.0224218 -0.0111997 0.0387998  -0.0132668 3.62098e-05 0.0256848  0 0 0  -0.00502535 0.000549808 0.0177059  -0.00660756 -0.003814 0.0193667  -0.06944 -0.0310411 0.0669155  -0.0601806 -0.00941949 0.0671487  -0.0582457 -0.0133637 0.06074  -0.0408404 -0.0212868 0.0464644  -0.0344306 -0.00214233 0.0464096  -0.0513243 -0.0254416 0.0591302  -0.0543525 -0.0253653 0.0557418  -0.0479618 -0.00549863 0.0556879  -0.0287227 -0.0108465 0.0406413  -0.0393858 -0.0166763 0.0490384  -0.105488 -0.0565421 0.0697532  -0.0863004 -0.0269941 0.0776854  -0.0806642 -0.0424672 0.0645304  -0.0649368 -0.0513917 0.0490069  -0.052694 -0.0247695 0.0533938  -0.0873452 -0.0422741 0.0697584  -0.0837077 -0.0533122 0.0586481  -0.0684478 -0.0259186 0.0640931  -0.0527123 -0.0347498 0.0486202  -0.0687887 -0.0377415 0.0583158  -0.14245 -0.0933231 0.0658979  -0.118445 -0.0624394 0.0758748  -0.109291 -0.0842352 0.0616646  -0.0913184 -0.0928309 0.0469761  -0.073809 -0.0619009 0.0531702  -0.12387 -0.0737484 0.0683799  -0.115178 -0.0928032 0.0559711  -0.0943507 -0.0620833 0.0636129  -0.0777418 -0.0708976 0.0484357  -0.0991617 -0.0718519 0.057795  -0.180501 -0.138826 0.0595961  -0.154393 -0.107014 0.0697684  -0.14212 -0.134228 0.0564246  -0.12071 -0.142748 0.0429273  -0.0999282 -0.109482 0.0497298  -0.161338 -0.115174 0.0629416  -0.148914 -0.140772 0.0509815  -0.125229 -0.108325 0.0592451  -0.10564 -0.116861 0.0451417  -0.131767 -0.115873 0.0536647  -0.219572 -0.190959 0.0527468  -0.192824 -0.158229 0.0624337  -0.177901 -0.190225 0.0504513  -0.152789 -0.199209 0.0382328  -0.130211 -0.164367 0.0450044  -0.199923 -0.164157 0.0561814  -0.184641 -0.195233 0.0453386  -0.159676 -0.161514 0.0534639  -0.136437 -0.170244 0.0406232  -0.166548 -0.167274 0.0481896  -0.259533 -0.248545 0.0462484  -0.232784 -0.214668 0.0551448  -0.215686 -0.251075 0.0445805  -0.187108 -0.260962 0.033618  -0.163594 -0.224793 0.0400043  -0.239451 -0.219133 0.0494428  -0.221972 -0.254982 0.0398564  -0.196551 -0.22003 0.0474749  -0.169692 -0.229474 0.0359073  -0.203122 -0.22449 0.0425577  -0.300332 -0.310869 0.040441  -0.273766 -0.275701 0.0484414  -0.25495 -0.316214 0.0391569  -0.223286 -0.327268 0.0293679  -0.199282 -0.289817 0.0352077  -0.27983 -0.279159 0.0432663  -0.260641 -0.319328 0.0348501  -0.235118 -0.283086 0.0418029  -0.204976 -0.293574 0.0314455  -0.241151 -0.286613 0.0372877  -0.342 -0.377459 0.0353332  -0.315608 -0.340904 0.0424962  -0.295443 -0.385256 0.0343361  -0.261097 -0.397607 0.0256076  -0.236814 -0.358865 0.0308824  -0.321057 -0.343659 0.0378146  -0.300529 -0.387806 0.0304432  -0.275001 -0.350207 0.036684  -0.241992 -0.361949 0.0274382  -0.280436 -0.353075 0.0325837  -0.384543 -0.44795 0.0308781  -0.358264 -0.409959 0.0372758  -0.337027 -0.457957 0.0300584  -0.3004 -0.471637 0.0222859  -0.275885 -0.431641 0.0270028  -0.363157 -0.412232 0.0330534  -0.34159 -0.460073 0.0265756  -0.316065 -0.421117 0.0321445  -0.280565 -0.434176 0.023901  -0.320916 -0.423485 0.0284529  -0.427975 -0.522044 0.0269852  -0.401761 -0.482682 0.0326767  -0.379684 -0.534035 0.0262656  -0.341096 -0.549001 0.0193787  -0.316366 -0.507785 0.0235558  -0.406146 -0.484571 0.0288968  -0.383763 -0.535803 0.0231724  -0.358189 -0.495553 0.0281072  -0.320566 -0.509916 0.0207925  -0.362539 -0.497524 0.0248194  -0.472306 -0.599447 0.0235553  -0.446155 -0.558781 0.0285749  -0.423407 -0.613228 0.0229139  -0.383102 -0.629419 0.0168152  -0.358171 -0.587051 0.0205007  -0.450027 -0.560348 0.0252376  -0.427027 -0.614714 0.0201869  -0.401389 -0.573227 0.0245571  -0.361935 -0.588837 0.0180664  -0.405258 -0.574875 0.0216389  -0.517489 -0.679851 0.020493  -0.491312 -0.637977 0.0249429  -0.468092 -0.69529 0.0199327  -0.426322 -0.712602 0.0145621  -0.401204 -0.669184 0.0177999  -0.494797 -0.639294 0.0219917  -0.471311 -0.696502 0.0175238  -0.445592 -0.653893 0.0213814  -0.404561 -0.670677 0.0156565  -0.449042 -0.655263 0.0188222  -0.563502 -0.763031 0.017777  -0.537305 -0.720046 0.0217023  -0.513716 -0.779905 0.0172668  -0.470679 -0.798266 0.012547  -0.445375 -0.75388 0.0153909  -0.540396 -0.721113 0.0191231  -0.516561 -0.780912 0.0151663  -0.490759 -0.737257 0.0185571  -0.448357 -0.755136 0.0135241  -0.493818 -0.738397 0.0163136  -0.61026 -0.848669 0.0153179  -0.584079 -0.804684 0.0187654  -0.560185 -0.866829 0.014832  -0.516061 -0.886138 0.0107288  -0.490585 -0.840892 0.0132341  -0.586793 -0.805559 0.01652  -0.5627 -0.867658 0.0130239  -0.536821 -0.823066 0.0160193  -0.493242 -0.841941 0.0116205  -0.539534 -0.824009 0.0140767  -0.657714 -0.936524 0.0131059  -0.631477 -0.891621 0.0161386  -0.607399 -0.955841 0.0126643  -0.562353 -0.976002 0.00910854  -0.536742 -0.929967 0.0112896  -0.633905 -0.892329 0.0141921  -0.609625 -0.956515 0.0111284  -0.583667 -0.911065 0.0137258  -0.539092 -0.930835 0.00990582  -0.586063 -0.911836 0.0120511  -0.705764 -1.02636 0.0111227  -0.679553 -0.980631 0.0137501  -0.655306 -1.04668 0.0107255  -0.609448 -1.06758 0.00766659  -0.583733 -1.02089 0.00955725  -0.68166 -0.981208 0.0120878  -0.657242 -1.04721 0.00940609  -0.631242 -1.00102 0.0116816  -0.585804 -1.02159 0.00837326  -0.633348 -1.00164 0.010241  -0.754293 -1.11793 0.00933409  -0.728126 -1.0715 0.0116134  -0.703763 -1.13912 0.00897741  -0.657217 -1.16068 0.00636816  -0.63144 -1.1134 0.0080061  -0.729957 -1.07194 0.010211  -0.705439 -1.13953 0.00786877  -0.67944 -1.09268 0.00984097  -0.633244 -1.11395 0.0070138  -0.681268 -1.09317 0.00862408  -0.803244 -1.21102 0.00774336  -0.777133 -1.16397 0.00968742  -0.752681 -1.23296 0.00741911  -0.70555 -1.2551 0.00520325  -0.679751 -1.20729 0.00660181  -0.77872 -1.1643 0.00851631  -0.754123 -1.23327 0.00649309  -0.728142 -1.18585 0.0081749  -0.68131 -1.20773 0.00577068  -0.729717 -1.18623 0.00716209  -0.852501 -1.30545 0.00630808  -0.826494 -1.25785 0.00797701  -0.801961 -1.32802 0.0060153  -0.754331 -1.35064 0.00418854  -0.728544 -1.30241 0.00535822  -0.827842 -1.25809 0.00700951  -0.80318 -1.32825 0.00527382  -0.777261 -1.28032 0.00669861  -0.72989 -1.30274 0.00469255  -0.778608 -1.28061 0.00586748  -0.90199 -1.40103 0.0050416  -0.876082 -1.35295 0.00643301  -0.851492 -1.4241 0.00476933  -0.803459 -1.44713 0.00327158  -0.777714 -1.39852 0.00425863  -0.877224 -1.35312 0.00565958  -0.852518 -1.42427 0.00417233  -0.826677 -1.37592 0.00537682  -0.778857 -1.39877 0.00372028  -0.827815 -1.37613 0.00470686  -0.951617 -1.49755 0.00391483  -0.925826 -1.4491 0.00506926  -0.901199 -1.52105 0.00368118  -0.852815 -1.54441 0.00246811  -0.827147 -1.49549 0.00328302  -0.926782 -1.44918 0.00447559  -0.902036 -1.52115 0.00322294  -0.876295 -1.47246 0.0042119  -0.828109 -1.49568 0.00287294  -0.877252 -1.4726 0.00367975  -1.00129 -1.59487 0.0029254  -0.975634 -1.54606 0.00388861  -0.950974 -1.6187 0.00271559  -0.902323 -1.64233 0.00179672  -0.876749 -1.59318 0.0024395  -0.976451 -1.54611 0.00341558  -0.951651 -1.61875 0.00237656  -0.92604 -1.56977 0.00317955  -0.877551 -1.59329 0.00212622  -0.926839 -1.56987 0.00277805  -1.05095 -1.69282 0.00209188  -1.02546 -1.64377 0.00285625  -1.00075 -1.7169 0.00192499  -0.951873 -1.74074 0.00121975  -0.926444 -1.69141 0.00172424  -1.02612 -1.64377 0.00250053  -1.00128 -1.71692 0.00168037  -0.975829 -1.66771 0.00231552  -0.927093 -1.69148 0.00149965  -0.976463 -1.66777 0.00201368  -1.10054 -1.79129 0.00140476  -1.07526 -1.74203 0.00197744  -1.05047 -1.81556 0.00123835  -1.00142 -1.83954 0.000734806  -0.976145 -1.79007 0.00111914  -1.07575 -1.74199 0.00172997  -1.05087 -1.81553 0.00109434  -1.02559 -1.76617 0.00156689  -0.976646 -1.79009 0.00096941  -1.02608 -1.76618 0.00136423  -1.14997 -1.89011 0.000804424  -1.1249 -1.84072 0.0012145  -1.10006 -1.91449 0.000679016  -1.05086 -1.93857 0.000358582  -1.02576 -1.88903 0.000623226  -1.12528 -1.84066 0.001091  -1.10033 -1.91444 0.000601292  -1.07525 -1.86496 0.000958443  -1.02615 -1.88902 0.000533104  -1.07561 -1.86496 0.000834465  -1.19925 -1.98916 0.000377178  -1.17438 -1.93966 0.000646114  -1.14946 -2.01359 0.00027895  -1.10018 -2.03775 8.72612e-05  -1.07526 -1.98816 0.000243187  -1.17464 -1.93962 0.000580311  -1.14965 -2.01355 0.000240326  -1.12475 -1.964 0.000474453  -1.07554 -1.98814 0.000207901  -1.12501 -1.96397 0.00041151  -1.24831 -2.08837 5.38826e-05  -1.22363 -2.03882 0.000203133  -1.19867 -2.1128 0  -1.14933 -2.13697 -0.000106812  -1.12458 -2.08739 -8.10623e-06  -1.22381 -2.03875 0.000198364  -1.19877 -2.11274 -2.86102e-06  -1.17406 -2.06316 0.00012207  -1.12478 -2.08736 -1.85966e-05  -1.17423 -2.06314 0.000101089  -1.29715 -2.1876 -0.000143051  -1.27268 -2.13806 -9.63211e-05  -1.24764 -2.21198 -0.000199795  -1.19825 -2.23616 -0.000206947  -1.17369 -2.18661 -0.000188828  -1.27275 -2.13798 -6.1512e-05  -1.24767 -2.21193 -0.000166893  -1.22316 -2.16238 -0.000112057  -1.17381 -2.18658 -0.000167847  -1.22324 -2.16234 -9.34601e-05  -1.34575 -2.28675 -0.0002141  -1.32142 -2.23725 -0.000233173  -1.29634 -2.31106 -0.000257969  -1.24695 -2.33524 -0.000236034  -1.22255 -2.28574 -0.000258923  -1.32147 -2.23719 -0.000191212  -1.29633 -2.31103 -0.000216484  -1.27199 -2.26151 -0.000226021  -1.22263 -2.28572 -0.000228405  -1.27203 -2.2615 -0.000189304  -1.39417 -2.38577 -0.000172138  -1.36996 -2.33631 -0.000249863  -1.34481 -2.40998 -0.000237465  -1.29541 -2.43415 -0.000220776  -1.27116 -2.38474 -0.000265598  -1.36998 -2.33628 -0.000202656  -1.34479 -2.40998 -0.000196457  -1.32058 -2.36052 -0.000238419  -1.2712 -2.38472 -0.000226498  -1.32058 -2.36053 -0.000202656  -1.44251 -2.48461 -0.000155926  -1.41831 -2.4352 -0.000171661  -1.39313 -2.50877 -0.000209332  -1.34373 -2.53288 -0.000190258  -1.31955 -2.48357 -0.000228882  -1.41833 -2.43519 -0.000154018  -1.39312 -2.50876 -0.000173569  -1.36896 -2.45937 -0.000200748  -1.31958 -2.48354 -0.000189781  -1.36895 -2.45939 -0.000172615  -0.0161023 0.00673583 0.032063  0 0 0  -0.00750161 0.00155768 0.0200191  -0.00455504 0.00742546 0.0156088  0 0 0  -0.0112702 2.97129e-05 0.0256815  -0.00652608 0.00688514 0.019639  0 0 0  -0.002373 0.0032182 0.0114307  -0.00340956 0.0024431 0.0142832  -0.0315255 -0.0103066 0.0407243  -0.0198089 -0.017715 0.0292964  -0.0162737 0.00115246 0.0290785  -0.0295244 -0.018734 0.0374312  -0.0245145 0.000316218 0.0371151  -0.0135568 -0.00608684 0.0255933  -0.0204397 -0.00750914 0.03262  -0.0464608 -0.0419451 0.0433426  -0.0339455 -0.0509551 0.0312738  -0.0258849 -0.0245587 0.0334816  -0.0485728 -0.050679 0.0397935  -0.0384707 -0.0243047 0.042963  -0.0265389 -0.0328254 0.0308819  -0.0387926 -0.0331911 0.0393457  -0.0658062 -0.0857598 0.0418496  -0.0510737 -0.0950954 0.0301743  -0.0389199 -0.0637671 0.0336533  -0.0702354 -0.0935573 0.0383139  -0.0555176 -0.0624878 0.0430207  -0.0420831 -0.071793 0.031024  -0.0589941 -0.0708983 0.0394206  -0.0898032 -0.138515 0.0386248  -0.0717801 -0.147955 0.0276513  -0.0563996 -0.113434 0.0317025  -0.0952526 -0.145052 0.0351143  -0.0772239 -0.111143 0.0404196  -0.0609555 -0.120558 0.0290527  -0.0823124 -0.118359 0.036871  -0.117826 -0.197902 0.0346875  -0.0961176 -0.207668 0.0246344  -0.078387 -0.171014 0.0288143  -0.123487 -0.203249 0.0313168  -0.103348 -0.16745 0.0367036  -0.0835047 -0.177044 0.026207  -0.108985 -0.173397 0.0332551  -0.14907 -0.262467 0.0306845  -0.123719 -0.272889 0.021596  -0.104376 -0.234607 0.0255971  -0.154514 -0.266829 0.0275207  -0.13306 -0.229549 0.0326777  -0.10953 -0.239641 0.0231161  -0.138672 -0.234415 0.0294094  -0.182868 -0.33138 0.0269189  -0.1542 -0.342726 0.0187259  -0.13368 -0.303088 0.0224595  -0.18792 -0.334964 0.0240073  -0.165648 -0.296353 0.0287704  -0.138624 -0.307266 0.020134  -0.170934 -0.300358 0.0257297  -0.218801 -0.404127 0.0234928  -0.18718 -0.416562 0.016161  -0.165818 -0.37567 0.0195355  -0.223409 -0.407106 0.0208554  -0.200546 -0.367255 0.0251646  -0.170389 -0.379166 0.0174193  -0.205419 -0.370556 0.0223851  -0.256586 -0.480343 0.0204349  -0.222387 -0.493944 0.0138979  -0.200329 -0.451875 0.0169053  -0.260746 -0.482843 0.0180798  -0.237442 -0.441772 0.0219359  -0.204519 -0.45483 0.0150108  -0.241852 -0.444542 0.0194411  -0.296031 -0.55971 0.0177279  -0.259609 -0.574497 0.0119176  -0.236967 -0.531349 0.0145683  -0.299774 -0.56183 0.0156384  -0.276077 -0.519605 0.0190578  -0.240755 -0.533844 0.0128846  -0.280053 -0.521944 0.016829  -0.337002 -0.641959 0.0153327  -0.298648 -0.657883 0.0101995  -0.275486 -0.613729 0.0125079  -0.340363 -0.643746 0.013504  -0.316303 -0.60046 0.0165062  -0.278907 -0.615852 0.0110416  -0.319872 -0.602431 0.014545  -0.379387 -0.726792 0.013216  -0.339359 -0.74381 0.00867748  -0.315729 -0.698734 0.0106997  -0.382392 -0.728308 0.0116181  -0.357999 -0.684048 0.0142522  -0.318794 -0.700538 0.00942278  -0.361198 -0.685706 0.0125403  -0.423061 -0.813954 0.0113392  -0.381581 -0.831968 0.00734663  -0.357552 -0.786075 0.00910234  -0.425731 -0.815232 0.00995255  -0.401047 -0.770069 0.0122504  -0.360281 -0.78762 0.00800562  -0.403897 -0.771486 0.0107617  -0.467886 -0.903166 0.00963831  -0.425138 -0.922101 0.00615835  -0.400742 -0.875499 0.00766468  -0.470239 -0.904235 0.00845337  -0.445303 -0.858279 0.0104723  -0.403192 -0.876794 0.00673103  -0.447839 -0.85948 0.00918674  -0.513734 -0.99421 0.00813246  -0.469903 -1.01398 0.00511456  -0.445217 -0.966726 0.0064106  -0.515816 -0.995107 0.00712538  -0.490657 -0.948442 0.0088644  -0.447372 -0.967835 0.00562286  -0.4929 -0.949452 0.00777054  -0.560472 -1.08686 0.00679827  -0.515712 -1.10736 0.00420856  -0.490763 -1.05959 0.00530815  -0.562301 -1.08759 0.00594997  -0.536973 -1.04033 0.00744534  -0.492684 -1.06049 0.00464678  -0.538947 -1.04116 0.00652075  -0.607998 -1.18087 0.00557899  -0.562408 -1.20205 0.00337505  -0.537268 -1.15379 0.00430632  -0.609568 -1.18148 0.00487995  -0.584123 -1.13368 0.00618315  -0.538953 -1.15455 0.0037775  -0.585839 -1.13437 0.00540638  -0.656136 -1.27611 0.00451756  -0.609853 -1.29784 0.00265551  -0.584587 -1.24918 0.00343895  -0.657487 -1.27658 0.00394821  -0.631964 -1.22832 0.00503778  -0.586036 -1.24981 0.0030036  -0.633442 -1.22888 0.00440216  -0.704781 -1.37233 0.00358057  -0.657907 -1.39456 0.00202131  -0.632557 -1.34559 0.00267029  -0.705931 -1.37271 0.00311947  -0.680369 -1.32408 0.00403643  -0.633815 -1.34609 0.00233078  -0.681647 -1.32453 0.0035243  -0.753835 -1.4694 0.00273418  -0.706442 -1.49206 0.00148106  -0.681054 -1.4428 0.00199938  -0.754788 -1.4697 0.00238037  -0.729227 -1.42074 0.00315094  -0.68212 -1.44322 0.00174046  -0.730314 -1.4211 0.00274038  -0.803159 -1.56718 0.0020299  -0.755335 -1.59018 0.00103092  -0.72995 -1.54073 0.00142097  -0.803933 -1.56739 0.00175714  -0.778419 -1.51817 0.00237131  -0.73085 -1.54104 0.00122356  -0.779323 -1.51846 0.00206518  -0.852637 -1.66548 0.00140619  -0.804472 -1.68878 0.000613689  -0.77914 -1.63919 0.00093317  -0.85328 -1.66564 0.00121593  -0.827844 -1.61623 0.00171089  -0.779872 -1.63942 0.000809669  -0.828577 -1.61645 0.00148249  -0.902208 -1.76421 0.000898838  -0.853765 -1.78774 0.000315189  -0.828512 -1.73804 0.000538349  -0.902719 -1.76432 0.000766754  -0.877388 -1.71478 0.00114441  -0.829104 -1.73821 0.000454426  -0.877987 -1.71493 0.000983238  -0.951795 -1.86325 0.000494957  -0.9031 -1.88695 5.00679e-05  -0.877949 -1.83719 0.000217915  -0.952172 -1.86331 0.000416756  -0.926975 -1.81366 0.000678539  -0.878422 -1.83732 0.000169277  -0.927443 -1.81378 0.000582218  -1.0013 -1.96244 0.000157356  -0.952417 -1.98629 -0.000137806  -0.927416 -1.9365 -5.57899e-05  -1.00157 -1.96248 0.000123978  -0.976531 -1.91281 0.000321865  -0.927763 -1.9366 -5.53131e-05  -0.976885 -1.91288 0.000257492  -1.05068 -2.06174 -7.00951e-05  -1.00165 -2.08568 -0.000264645  -0.976774 -2.03592 -0.000217915  -1.05087 -2.06176 -8.24928e-05  -1.02598 -2.01206 2.76566e-05  -0.97704 -2.03597 -0.000209808  -1.02623 -2.01211 1.62125e-05  -1.09989 -2.16103 -0.000238419  -1.05074 -2.18505 -0.000319004  -1.02604 -2.13532 -0.000319481  -1.1 -2.16105 -0.000209808  -1.07529 -2.11137 -0.000160694  -1.02621 -2.13537 -0.000289917  -1.07545 -2.1114 -0.000148296  -1.14887 -2.26027 -0.000285149  -1.09963 -2.28431 -0.000331402  -1.07511 -2.23468 -0.000374794  -1.14891 -2.26027 -0.000246048  -1.12439 -2.21064 -0.000261784  -1.07521 -2.23469 -0.000332355  -1.12448 -2.21068 -0.000234604  -1.19761 -2.35935 -0.000284195  -1.14834 -2.38343 -0.000293255  -1.12396 -2.33387 -0.000353336  -1.19762 -2.35936 -0.000259876  -1.17324 -2.30981 -0.000298023  -1.12401 -2.33388 -0.000319481  -1.17329 -2.30983 -0.000266552  -1.24611 -2.45827 -0.00026083  -1.19678 -2.48232 -0.000231743  -1.17256 -2.4329 -0.000289917  -1.24608 -2.45826 -0.000222683  -1.22187 -2.4088 -0.000277042  -1.17258 -2.4329 -0.000263691  -1.22187 -2.40883 -0.000242233  -1.29438 -2.55698 -0.000246048  -1.24501 -2.58098 -0.000221252  -1.22091 -2.53172 -0.000253201  -1.29436 -2.55695 -0.000202179  -1.27022 -2.50763 -0.00024128  -1.22092 -2.53168 -0.000216484  -1.27023 -2.50764 -0.00020504  -0.00635571 0.00719327 0.0172939  0 0 0  -0.00143034 0.000723213 0.00866842  -0.00122381 0.00635171 0.00663137  0 0 0  -0.00425512 0.00157169 0.014183  -0.00273257 0.00712505 0.0109115  0 0 0  -0.00048618 0.00263703 0.00501776  -0.00132328 0.00317773 0.00810528  -0.0118932 -0.0107045 0.0225549  -0.00401326 -0.0195842 0.0133967  -0.00319928 -0.000810444 0.01266  -0.0115015 -0.0180745 0.0210867  -0.00934371 0.000638515 0.0205326  -0.00260186 -0.00732014 0.0115452  -0.00775789 -0.00617626 0.0183277  -0.0187681 -0.0443954 0.0243812  -0.00870013 -0.0546239 0.0147977  -0.00469863 -0.0279659 0.0151982  -0.0208236 -0.0522623 0.0228148  -0.0148132 -0.0257582 0.0240202  -0.00596657 -0.0355459 0.0144677  -0.0157903 -0.0336301 0.0224152  -0.0298285 -0.0901343 0.0237584  -0.0168957 -0.10084 0.0144777  -0.00949028 -0.0689211 0.0156145  -0.0334421 -0.0975214 0.0221262  -0.0237221 -0.0658955 0.0243721  -0.0123118 -0.0764867 0.0148511  -0.0266733 -0.0736534 0.0227275  -0.0454753 -0.145043 0.0220032  -0.0291627 -0.155933 0.0132332  -0.018693 -0.12044 0.0148087  -0.0499085 -0.151556 0.0203032  -0.037037 -0.11652 0.0230346  -0.0224901 -0.127394 0.013967  -0.0411668 -0.123556 0.0213413  -0.0656318 -0.207006 0.0197115  -0.0457047 -0.21816 0.0116062  -0.0326421 -0.180118 0.0133538  -0.070332 -0.212589 0.0180225  -0.0549907 -0.175203 0.0209136  -0.0369072 -0.186237 0.012465  -0.0596319 -0.181286 0.0192094  -0.0898169 -0.274562 0.0172935  -0.0663048 -0.2862 0.00991631  -0.0511657 -0.246221 0.0116487  -0.0944434 -0.279295 0.0156794  -0.0772312 -0.240104 0.0185013  -0.0555114 -0.25151 0.010766  -0.0819442 -0.245293 0.0168538  -0.117483 -0.346716 0.0149655  -0.0906178 -0.35904 0.00829744  -0.0737819 -0.317546 0.00993633  -0.121866 -0.350696 0.0134711  -0.103223 -0.310069 0.0161023  -0.0780137 -0.322057 0.00909996  -0.107757 -0.314448 0.0145578  -0.148147 -0.422744 0.0128298  -0.118247 -0.435961 0.00685072  -0.100063 -0.393172 0.00831175  -0.152211 -0.426128 0.0114841  -0.132447 -0.384244 0.0138698  -0.104035 -0.397021 0.00756311  -0.136688 -0.387935 0.0124512  -0.181455 -0.502206 0.0109262  -0.148853 -0.516408 0.00558186  -0.129499 -0.472477 0.00685263  -0.18516 -0.50508 0.00973558  -0.164464 -0.462035 0.0118523  -0.133198 -0.475766 0.00619841  -0.168377 -0.465189 0.0105882  -0.21709 -0.584691 0.0092392  -0.182119 -0.599924 0.0045023  -0.161793 -0.554963 0.00558376  -0.220455 -0.587149 0.00820208  -0.198971 -0.543052 0.0100555  -0.16516 -0.557797 0.00502729  -0.202522 -0.545738 0.0089469  -0.254811 -0.669841 0.00777674  -0.217778 -0.686094 0.00358582  -0.1966 -0.640249 0.00449419  -0.257839 -0.671957 0.00687647  -0.235671 -0.626915 0.00849104  -0.199661 -0.642691 0.00402975  -0.23889 -0.629222 0.00752926  -0.294422 -0.757372 0.00651455  -0.255586 -0.774621 0.00280619  -0.233649 -0.727967 0.00356817  -0.297137 -0.759198 0.0057559  -0.274363 -0.713291 0.00712538  -0.236427 -0.730082 0.00318384  -0.277255 -0.715284 0.00630379  -0.335728 -0.847029 0.00538635  -0.295313 -0.865194 0.00213385  -0.272735 -0.817866 0.00275707  -0.338148 -0.848574 0.00475693  -0.31486 -0.801942 0.00594473  -0.275218 -0.819669 0.00247002  -0.317438 -0.803631 0.00524092  -0.378523 -0.938501 0.00439215  -0.336754 -0.95753 0.00157595  -0.313617 -0.90959 0.00209141  -0.380678 -0.939823 0.00386858  -0.356916 -0.892519 0.00488615  -0.315824 -0.911143 0.00185633  -0.359225 -0.893966 0.00430107  -0.42268 -1.03159 0.0035634  -0.379708 -1.05139 0.00110483  -0.35606 -1.00296 0.00150442  -0.424562 -1.0327 0.00312281  -0.400405 -0.984822 0.00397205  -0.35804 -1.00428 0.00133657  -0.402456 -0.986066 0.00349236  -0.467971 -1.12603 0.00279236  -0.423962 -1.14654 0.000693798  -0.399935 -1.09769 0.00100565  -0.469625 -1.12697 0.00244999  -0.44517 -1.07861 0.00316668  -0.401673 -1.09881 0.000883579  -0.446954 -1.07967 0.00277615  -0.514253 -1.22165 0.00214148  -0.469358 -1.2428 0.000351429  -0.445007 -1.19358 0.000589371  -0.515694 -1.22246 0.00186205  -0.490959 -1.17368 0.00245476  -0.446525 -1.19454 0.000518322  -0.492534 -1.17457 0.00214911  -0.561386 -1.31828 0.00156927  -0.515702 -1.33997 5.57899e-05  -0.491104 -1.29047 0.000240326  -0.562606 -1.31894 0.00137329  -0.537699 -1.26982 0.00185108  -0.492419 -1.29128 0.000208855  -0.539048 -1.27058 0.00161457  -0.609179 -1.41571 0.00107193  -0.562835 -1.43789 -0.000160694  -0.538051 -1.38815 -5.62668e-05  -0.610225 -1.41625 0.000928879  -0.585169 -1.36688 0.00131273  -0.539172 -1.38884 -4.673e-05  -0.586336 -1.3675 0.00114441  -0.657529 -1.51381 0.000657082  -0.61061 -1.53641 -0.000357628  -0.585699 -1.4865 -0.00030756  -0.658403 -1.51427 0.000568867  -0.633262 -1.46466 0.000873089  -0.586648 -1.48708 -0.000265598  -0.634256 -1.46518 0.000748634  -0.706284 -1.61244 0.000320911  -0.658889 -1.63538 -0.000495911  -0.633884 -1.58537 -0.00048399  -0.707 -1.61281 0.00026989  -0.681842 -1.56304 0.000489235  -0.634695 -1.58584 -0.000432491  -0.682654 -1.56348 0.000414371  -0.75532 -1.71147 5.38826e-05  -0.707517 -1.73469 -0.000601768  -0.682501 -1.68463 -0.000607967  -0.755906 -1.71176 2.43187e-05  -0.730746 -1.66191 0.000173569  -0.68316 -1.685 -0.000540257  -0.731415 -1.66224 0.000143051  -0.804556 -1.81079 -0.000173092  -0.756407 -1.83423 -0.000665188  -0.731405 -1.78414 -0.000713825  -0.80501 -1.81102 -0.000157833  -0.779902 -1.76108 -7.72476e-05  -0.731927 -1.78443 -0.000635624  -0.780437 -1.76135 -7.62939e-05  -0.853866 -1.91028 -0.000353813  -0.805429 -1.93389 -0.00069046  -0.780482 -1.8838 -0.0007658  -0.854199 -1.91044 -0.000313759  -0.829171 -1.86049 -0.000266075  -0.780901 -1.88404 -0.0006814  -0.829593 -1.86071 -0.000238895  -0.90317 -2.00984 -0.000438213  -0.854494 -2.03359 -0.000693321  -0.82964 -1.98356 -0.000781536  -0.903404 -2.00997 -0.000401974  -0.878489 -1.96003 -0.000408173  -0.829954 -1.98373 -0.00068903  -0.878798 -1.9602 -0.000368595  -0.952409 -2.10939 -0.000486851  -0.903542 -2.13326 -0.000635624  -0.878793 -2.08329 -0.000761032  -0.952559 -2.10949 -0.000436783  -0.927771 -2.05959 -0.000473499  -0.879019 -2.08343 -0.000676632  -0.927985 -2.05972 -0.000433445  -1.00152 -2.20889 -0.000513077  -0.952484 -2.2328 -0.000566959  -0.92789 -2.18293 -0.000686646  -1.00158 -2.20894 -0.000443459  -0.976947 -2.15911 -0.000506401  -0.92802 -2.18304 -0.000608444  -0.977079 -2.15922 -0.000443459  -1.05042 -2.30822 -0.000454903  -1.0013 -2.33219 -0.000478268  -0.976826 -2.28244 -0.000603676  -1.05044 -2.30827 -0.000408649  -1.02596 -2.25855 -0.000483036  -0.976905 -2.28252 -0.000522614  -1.02603 -2.25863 -0.000423431  -1.09912 -2.40738 -0.000383377  -1.04992 -2.43137 -0.000372887  -1.02559 -2.38175 -0.000481129  -1.09911 -2.40741 -0.000329494  -1.07476 -2.3578 -0.000419617  -1.02562 -2.38181 -0.000424385  -1.0748 -2.35786 -0.000366211  -1.14757 -2.50631 -0.000285625  -1.09831 -2.5303 -0.000250816  -1.07415 -2.48085 -0.000347137  -1.14753 -2.50633 -0.000243187  -1.12336 -2.45687 -0.000315189  -1.07414 -2.48087 -0.000294209  -1.12335 -2.4569 -0.00027895  -1.19576 -2.60496 -0.000225067  -1.14643 -2.62889 -0.000173569  -1.12242 -2.57965 -0.000223637  -1.19571 -2.60494 -0.000186443  -1.17167 -2.55566 -0.000236988  -1.12241 -2.57964 -0.00019455  -1.17165 -2.55567 -0.000205994  0.00109671 0.00409129 0.00319815  0 0 0  0.00371391 -0.00301608 -0.00221539  0.00138916 0.00375831 -0.00208378  0 0 0  0.00120631 -0.000861913 0.00312901  0.000152975 0.00520089 0.00217199  0 0 0  0.00106996 0.000470221 -0.0013361  0.000324085 0.00170761 0.00178528  0.00377569 -0.0153528 0.00547457  0.00963786 -0.0256302 -0.00150871  0.00783575 -0.00632545 -0.00284624  0.00294706 -0.0221506 0.0057621  0.00246182 -0.00318202 0.0047164  0.00678033 -0.0122871 -0.00176239  0.00219452 -0.009413 0.00473833  0.00480786 -0.0506403 0.00659752  0.0137032 -0.0624025 -0.000677109  0.013793 -0.0354162 -0.00195599  0.00268587 -0.0580182 0.00687122  0.00469857 -0.0312087 0.00637531  0.0120309 -0.0424834 -0.000927448  0.0031938 -0.0385283 0.00657082  0.00197059 -0.0979789 0.0066967  0.014158 -0.110293 -0.000416756  0.0170779 -0.0778749 -0.00141907  -0.00113034 -0.105107 0.00686312  0.00397274 -0.0729226 0.00686264  0.014464 -0.0850988 -0.000421047  0.00129464 -0.0803142 0.00703096  -0.00558573 -0.154646 0.0061388  0.010078 -0.167169 -0.00060606  0.0159514 -0.130902 -0.00132656  -0.00928122 -0.161132 0.00618887  -0.00116968 -0.125224 0.00653982  0.0127222 -0.137711 -0.000431061  -0.00463712 -0.132114 0.00662088  -0.0180372 -0.218703 0.00521755  0.00116986 -0.231439 -0.0010457  0.00979209 -0.192295 -0.00156403  -0.0219788 -0.22443 0.00519657  -0.0111861 -0.185792 0.00573111  0.00623286 -0.198453 -0.000779152  -0.0150539 -0.191949 0.00573111  -0.035147 -0.288692 0.00418663  -0.0124508 -0.301796 -0.00153399  -0.00139475 -0.260478 -0.00197983  -0.0390778 -0.293669 0.00412655  -0.026014 -0.252989 0.00472498  -0.0050627 -0.265918 -0.00127411  -0.0299851 -0.258365 0.0046711  -0.0564792 -0.363556 0.00315237  -0.0305049 -0.377197 -0.00201082  -0.017343 -0.334162 -0.00242281  -0.0602517 -0.367838 0.0030961  -0.045293 -0.32553 0.00366211  -0.0209458 -0.338918 -0.00177765  -0.0491736 -0.330179 0.00360203  -0.0815921 -0.442465 0.00223255  -0.0526091 -0.456822 -0.00241423  -0.0376344 -0.412393 -0.00282145  -0.0851258 -0.446153 0.0021925  -0.0685622 -0.402501 0.00268459  -0.0410711 -0.41652 -0.00221443  -0.0722477 -0.406513 0.00263596  -0.110055 -0.524804 0.00142336  -0.0783672 -0.540004 -0.00269365  -0.0618286 -0.494388 -0.00315571  -0.113326 -0.52801 0.00142288  -0.0954037 -0.483188 0.00181389  -0.0650475 -0.497992 -0.00256157  -0.098825 -0.486665 0.00180244  -0.141526 -0.610133 0.000754833  -0.107426 -0.626201 -0.00292253  -0.0895196 -0.579636 -0.00338316  -0.144506 -0.612892 0.000781059  -0.125405 -0.567088 0.00107765  -0.0925037 -0.582752 -0.00281906  -0.128554 -0.57009 0.00108671  -0.175659 -0.697984 0.000195503  -0.139443 -0.714971 -0.00305414  -0.12036 -0.667554 -0.00353193  -0.178364 -0.700396 0.000258923  -0.158249 -0.653727 0.000459671  -0.123081 -0.67029 -0.00299454  -0.161114 -0.656332 0.000507832  -0.212175 -0.788084 -0.00025177  -0.174098 -0.805936 -0.00311327  -0.153981 -0.757832 -0.00361061  -0.214616 -0.790163 -0.000152111  -0.193615 -0.742746 -4.1008e-05  -0.156457 -0.760198 -0.00308371  -0.196203 -0.745014 3.57628e-05  -0.250834 -0.880089 -0.000593185  -0.211106 -0.898778 -0.00309086  -0.190097 -0.850072 -0.00361395  -0.253004 -0.881891 -0.00047636  -0.231225 -0.833832 -0.00043726  -0.192324 -0.852141 -0.00310516  -0.233556 -0.835799 -0.000322819  -0.291365 -0.973723 -0.000871181  -0.250206 -0.993207 -0.00305557  -0.22842 -0.944021 -0.00356865  -0.293295 -0.975289 -0.000731945  -0.270846 -0.926685 -0.000741482  -0.230409 -0.945805 -0.00308084  -0.27292 -0.928395 -0.000613689  -0.333544 -1.06876 -0.00108814  -0.291148 -1.08896 -0.00297928  -0.268676 -1.03938 -0.00346231  -0.335264 -1.07011 -0.000938416  -0.312234 -1.02106 -0.000981331  -0.270451 -1.04092 -0.00300217  -0.314075 -1.02253 -0.000833988  -0.377189 -1.16497 -0.00124025  -0.333679 -1.18582 -0.00284529  -0.310652 -1.13592 -0.00334597  -0.37868 -1.16612 -0.00106525  -0.355179 -1.1167 -0.00116158  -0.312217 -1.13726 -0.00290442  -0.356794 -1.11797 -0.00100374  -0.422068 -1.26216 -0.00136185  -0.377602 -1.28359 -0.00271749  -0.354113 -1.23344 -0.00319719  -0.423353 -1.26315 -0.00117588  -0.399454 -1.21342 -0.00130367  -0.355472 -1.23459 -0.00278711  -0.400864 -1.21452 -0.00112629  -0.467972 -1.36015 -0.00142336  -0.422692 -1.38208 -0.00256634  -0.39884 -1.33175 -0.00303936  -0.469086 -1.36099 -0.00124502  -0.444874 -1.31105 -0.0014019  -0.400003 -1.33275 -0.0026412  -0.446093 -1.31197 -0.00122309  -0.514773 -1.45876 -0.00144625  -0.468779 -1.48115 -0.00239801  -0.444611 -1.43069 -0.00282812  -0.515711 -1.45949 -0.0012722  -0.491245 -1.40936 -0.00144196  -0.445613 -1.43155 -0.00248051  -0.492286 -1.41016 -0.001266  -0.562285 -1.55791 -0.00146675  -0.515662 -1.58065 -0.00221872  -0.491286 -1.53013 -0.00263929  -0.563059 -1.55851 -0.00129318  -0.538419 -1.50825 -0.00146627  -0.492121 -1.53085 -0.00231361  -0.539298 -1.50894 -0.00128841  -0.610346 -1.6574 -0.00144005  -0.563203 -1.68045 -0.00204992  -0.538646 -1.62991 -0.00244713  -0.610977 -1.65791 -0.00127363  -0.586215 -1.60758 -0.00146341  -0.539356 -1.63051 -0.00214958  -0.586944 -1.60816 -0.00128746  -0.65882 -1.75716 -0.00139761  -0.611221 -1.78046 -0.00184345  -0.586587 -1.72994 -0.00222588  -0.659308 -1.75756 -0.00122118  -0.634513 -1.70722 -0.00141907  -0.587151 -1.73043 -0.00195646  -0.635092 -1.7077 -0.00124884  -0.707571 -1.85706 -0.00131559  -0.659598 -1.88058 -0.00165796  -0.634916 -1.8301 -0.00201035  -0.707949 -1.8574 -0.00116253  -0.683136 -1.80707 -0.0013504  -0.635356 -1.83051 -0.00175858  -0.683583 -1.80746 -0.00118399  -0.756508 -1.95703 -0.00122023  -0.708209 -1.9807 -0.00145245  -0.683527 -1.9303 -0.00177717  -0.756777 -1.95729 -0.00106668  -0.731987 -1.90702 -0.00126266  -0.683869 -1.93064 -0.00155067  -0.732336 -1.90733 -0.00110865  -0.805504 -2.05696 -0.00110674  -0.756957 -2.08076 -0.00124645  -0.732327 -2.03047 -0.00154305  -0.805689 -2.05716 -0.00097084  -0.780966 -2.00698 -0.00115728  -0.732567 -2.03074 -0.00135231  -0.781224 -2.00723 -0.00102139  -0.854503 -2.15682 -0.000969887  -0.805745 -2.18069 -0.00103617  -0.781179 -2.13054 -0.00130415  -0.854618 -2.15697 -0.000850201  -0.829985 -2.10688 -0.00103474  -0.781346 -2.13074 -0.00114155  -0.83015 -2.10708 -0.000911236  -0.903427 -2.25648 -0.000782967  -0.85451 -2.28043 -0.000822544  -0.830034 -2.23041 -0.00105333  -0.903473 -2.25661 -0.000692844  -0.878941 -2.20665 -0.000872612  -0.830128 -2.23059 -0.000934601  -0.879052 -2.2068 -0.000771999  -0.952217 -2.35598 -0.000631809  -0.90317 -2.37995 -0.000628471  -0.878799 -2.33009 -0.000842094  -0.952216 -2.35607 -0.000544548  -0.927817 -2.30624 -0.00070858  -0.878846 -2.33021 -0.000729084  -0.927858 -2.30636 -0.000620365  -1.00083 -2.45523 -0.000447273  -0.951674 -2.4792 -0.000413895  -0.927427 -2.42952 -0.000586033  -1.00078 -2.45529 -0.000389099  -0.976511 -2.40562 -0.000533581  -0.927433 -2.42961 -0.000516415  -0.976517 -2.4057 -0.000464916  -1.04922 -2.55419 -0.000281334  -0.999993 -2.57815 -0.000212193  -0.975892 -2.52866 -0.000356197  -1.04914 -2.55422 -0.000235081  -1.02504 -2.50474 -0.000349998  -0.975864 -2.52872 -0.0002985  -1.02499 -2.50479 -0.000306606  -1.09727 -2.65282 -0.000137329  -1.04802 -2.67672 -6.1512e-05  -1.02409 -2.62748 -0.000146389  -1.09721 -2.65281 -9.44138e-05  -1.07327 -2.60354 -0.000188351  -1.02405 -2.62749 -0.000131607  -1.07322 -2.60357 -0.000157833  0.0076396 -0.00139564 -0.010169  0 0 0  0.00877789 -0.00902355 -0.0125594  0.00367802 -5.43594e-05 -0.0103636  0 0 0  0.00622447 -0.00574052 -0.00745821  0.00256455 0.00202465 -0.0062604  0 0 0  0.00258199 -0.00293964 -0.00747395  0.00182559 -0.00107586 -0.00442696  0.018093 -0.0237343 -0.0105686  0.0230915 -0.0352716 -0.0152993  0.0184134 -0.0149402 -0.0173569  0.0163032 -0.0300116 -0.00856447  0.0131013 -0.0102444 -0.0102344  0.0160439 -0.0203548 -0.0141954  0.0113658 -0.0159374 -0.00809765  0.0268214 -0.0608119 -0.0101142  0.0356586 -0.0740876 -0.0151138  0.0318896 -0.0466644 -0.0179839  0.0246218 -0.067779 -0.00808048  0.0227642 -0.0405836 -0.010181  0.0297318 -0.0532488 -0.0152073  0.0208113 -0.0474091 -0.00825024  0.0319874 -0.109552 -0.00951767  0.0443853 -0.123438 -0.014535  0.0430712 -0.0906436 -0.0175028  0.0292496 -0.116421 -0.00763035  0.0299982 -0.0838028 -0.00967503  0.0406112 -0.0975244 -0.0147753  0.0275025 -0.0908608 -0.00777245  0.0322565 -0.167647 -0.00913668  0.0481479 -0.181796 -0.0139322  0.0497062 -0.144931 -0.0167937  0.0291284 -0.174062 -0.00739241  0.0327996 -0.137482 -0.00924253  0.0469231 -0.151572 -0.0142007  0.0298201 -0.144209 -0.00745249  0.0272495 -0.233445 -0.00889015  0.0465872 -0.247791 -0.0133476  0.0510659 -0.207787 -0.0160589  0.0239456 -0.239227 -0.00728369  0.0304336 -0.199636 -0.00896692  0.0480438 -0.213921 -0.0136094  0.0271779 -0.20578 -0.0073061  0.0170475 -0.305474 -0.00870132  0.0397325 -0.320152 -0.0128031  0.0469162 -0.277706 -0.0153499  0.0137344 -0.310609 -0.00722694  0.0228071 -0.2687 -0.00877142  0.0438117 -0.283236 -0.0130715  0.0194582 -0.2742 -0.00723791  0.00200915 -0.38264 -0.00853205  0.0278362 -0.397799 -0.0122223  0.0374753 -0.353461 -0.0146217  -0.00122088 -0.38716 -0.00716686  0.0101303 -0.343442 -0.00861931  0.0344038 -0.358366 -0.0124946  0.00682998 -0.348294 -0.00719929  -0.0175086 -0.464061 -0.00831079  0.0112501 -0.47982 -0.011632  0.0230731 -0.433965 -0.0138893  -0.0205607 -0.468013 -0.00704718  -0.00720489 -0.422832 -0.00842857  0.0201136 -0.438304 -0.0119195  -0.0103616 -0.427091 -0.00711203  -0.0410326 -0.54898 -0.00806713  -0.00962663 -0.565462 -0.0110006  0.00411558 -0.518385 -0.0131369  -0.0438715 -0.552455 -0.00688553  -0.0287563 -0.506063 -0.00818968  0.00132966 -0.52222 -0.0113163  -0.0317366 -0.509813 -0.00696945  -0.0681528 -0.63687 -0.00774765  -0.034391 -0.654108 -0.010365  -0.0189457 -0.606071 -0.0123687  -0.070778 -0.639905 -0.00665808  -0.0541426 -0.592562 -0.00791836  -0.0215428 -0.609434 -0.0106854  -0.0568939 -0.595832 -0.00678015  -0.0985341 -0.727243 -0.00740671  -0.0626405 -0.745256 -0.00969696  -0.0457112 -0.69643 -0.011601  -0.10092 -0.729893 -0.00639009  -0.0829313 -0.681734 -0.00759268  -0.0480918 -0.699387 -0.0100374  -0.085466 -0.684603 -0.00653315  -0.131795 -0.819701 -0.00702047  -0.0940204 -0.838489 -0.00902414  -0.0757722 -0.789033 -0.0107865  -0.133945 -0.822015 -0.00607157  -0.114785 -0.773186 -0.00721693  -0.0779533 -0.791623 -0.00936222  -0.117083 -0.775701 -0.00623083  -0.167598 -0.913891 -0.00660419  -0.128178 -0.933431 -0.00833845  -0.108805 -0.883475 -0.0100069  -0.169538 -0.915927 -0.00572586  -0.149362 -0.866564 -0.006814  -0.110763 -0.885757 -0.00869036  -0.151432 -0.868763 -0.00590563  -0.205703 -1.00957 -0.00619411  -0.164811 -1.0298 -0.00769377  -0.144447 -0.979448 -0.00922155  -0.207408 -1.01134 -0.00538158  -0.186362 -0.961534 -0.00640535  -0.146202 -0.981444 -0.00801897  -0.188202 -0.96346 -0.00555897  -0.245788 -1.10645 -0.0057559  -0.203611 -1.12731 -0.00704861  -0.18239 -1.07667 -0.00846052  -0.247292 -1.108 -0.00500727  -0.225476 -1.05783 -0.00597715  -0.183951 -1.07842 -0.00736332  -0.227111 -1.05953 -0.005198  -0.287601 -1.2043 -0.00532055  -0.244316 -1.22576 -0.00640821  -0.222359 -1.1749 -0.00771713  -0.28893 -1.20566 -0.00463581  -0.266457 -1.15523 -0.00553751  -0.223734 -1.17643 -0.00672197  -0.2679 -1.1567 -0.00482273  -0.330919 -1.30298 -0.0048852  -0.286665 -1.32493 -0.00579929  -0.264095 -1.27394 -0.00700092  -0.332066 -1.30415 -0.00426388  -0.309067 -1.25353 -0.00511551  -0.265293 -1.27526 -0.00610209  -0.310313 -1.25481 -0.00445366  -0.375517 -1.40226 -0.00444698  -0.3304 -1.42466 -0.00521326  -0.307353 -1.37356 -0.00631285  -0.376492 -1.40327 -0.00388575  -0.35304 -1.35253 -0.00467634  -0.308367 -1.37473 -0.00551701  -0.354118 -1.35363 -0.00408173  -0.4212 -1.50203 -0.00404406  -0.375339 -1.5248 -0.00465202  -0.351862 -1.47368 -0.0056324  -0.422011 -1.50289 -0.00353241  -0.398206 -1.45207 -0.004251  -0.35273 -1.47469 -0.00493383  -0.399119 -1.45302 -0.00371552  -0.467757 -1.60212 -0.00362682  -0.421255 -1.62522 -0.00410557  -0.397463 -1.57411 -0.00501013  -0.468412 -1.60286 -0.00317097  -0.44435 -1.55202 -0.003829  -0.398184 -1.57497 -0.00437355  -0.445109 -1.55284 -0.00334549  -0.515023 -1.70246 -0.00323009  -0.467964 -1.7258 -0.0035882  -0.44392 -1.67476 -0.00440168  -0.515548 -1.70307 -0.00283527  -0.491273 -1.65224 -0.0034318  -0.444516 -1.67549 -0.00384092  -0.491894 -1.65294 -0.00299788  -0.562816 -1.80288 -0.0028615  -0.515305 -1.82646 -0.00311613  -0.491088 -1.77552 -0.00383568  -0.563232 -1.80341 -0.00249243  -0.538835 -1.75263 -0.00304222  -0.49156 -1.77613 -0.00334787  -0.539327 -1.75322 -0.00265837  -0.611039 -1.90337 -0.00246429  -0.56312 -1.9271 -0.00264692  -0.53879 -1.87627 -0.00329542  -0.611332 -1.9038 -0.00215769  -0.586851 -1.85309 -0.00265455  -0.539153 -1.87678 -0.00288486  -0.587226 -1.8536 -0.002316  -0.659513 -2.00377 -0.00210285  -0.611276 -2.02764 -0.00223112  -0.586903 -1.97694 -0.00277853  -0.659727 -2.00413 -0.00184727  -0.635206 -1.95355 -0.00227928  -0.587157 -1.97738 -0.00243759  -0.63549 -1.95396 -0.00199842  -0.708189 -2.10409 -0.00175333  -0.659664 -2.12802 -0.00179863  -0.635256 -2.07751 -0.00231028  -0.708302 -2.10435 -0.00153255  -0.6838 -2.05392 -0.00192356  -0.63544 -2.07785 -0.00202227  -0.683996 -2.05425 -0.00168467  -0.756883 -2.20419 -0.00141478  -0.708161 -2.22819 -0.00144243  -0.683769 -2.17786 -0.00185871  -0.756943 -2.20441 -0.00123405  -0.732493 -2.15413 -0.00158167  -0.683895 -2.17813 -0.00162125  -0.732614 -2.1544 -0.00137758  -0.805577 -2.30407 -0.0011034  -0.756682 -2.32809 -0.00110674  -0.732358 -2.27795 -0.00145292  -0.805589 -2.30425 -0.000971317  -0.781204 -2.25414 -0.00125647  -0.732422 -2.27817 -0.00127077  -0.78127 -2.25436 -0.00109911  -0.854203 -2.40369 -0.000814438  -0.805157 -2.42773 -0.000789165  -0.7809 -2.37777 -0.0010829  -0.854154 -2.40382 -0.000713825  -0.829861 -2.35389 -0.000966072  -0.78092 -2.37794 -0.000939846  -0.829871 -2.35406 -0.000838757  -0.902679 -2.50301 -0.00052309  -0.853536 -2.52703 -0.00047636  -0.829375 -2.4773 -0.000723362  -0.902607 -2.5031 -0.000451565  -0.878429 -2.45336 -0.000657558  -0.829356 -2.47742 -0.000628471  -0.878396 -2.4535 -0.000579357  -0.950979 -2.60199 -0.000234127  -0.90177 -2.62599 -0.000196457  -0.877718 -2.57647 -0.000391483  -0.950884 -2.60206 -0.00020647  -0.92682 -2.55252 -0.000373363  -0.877671 -2.57655 -0.000329971  -0.926767 -2.55262 -0.000321865  -0.998981 -2.70058 1.4782e-05  -0.949731 -2.72458 7.34329e-05  -0.925864 -2.67527 -8.24928e-05  -0.998867 -2.70063 9.53674e-06  -0.975 -2.65132 -0.000108719  -0.925791 -2.67532 -7.00951e-05  -0.974918 -2.6514 -9.15527e-05  0.0141443 -0.0091871 -0.0226874  0 0 0  0.0145376 -0.0177051 -0.021986  0.00593732 -0.0055415 -0.0178442  0 0 0  0.0115329 -0.0129727 -0.0173607  0.00479692 -0.00253326 -0.0141249  0 0 0  0.00426417 -0.00796187 -0.0130267  0.00337828 -0.00519431 -0.0102816  0.0328522 -0.0356758 -0.025351  0.0379788 -0.048592 -0.0276194  0.0299066 -0.0268543 -0.0305958  0.0302852 -0.0414555 -0.0216503  0.0239558 -0.0204477 -0.0240974  0.0264809 -0.0317529 -0.0254006  0.0210589 -0.0256031 -0.0199289  0.0493566 -0.074724 -0.0257201  0.0590082 -0.0893859 -0.0284247  0.0514551 -0.061561 -0.0326867  0.0470623 -0.0813099 -0.021955  0.0413792 -0.0536723 -0.0255499  0.0489478 -0.0677003 -0.0281878  0.0390645 -0.060024 -0.0218868  0.0622557 -0.124696 -0.0249548  0.0756056 -0.140024 -0.0279031  0.0703516 -0.106923 -0.0326886  0.0597622 -0.13133 -0.0213547  0.0564422 -0.0983835 -0.0252924  0.0679634 -0.113484 -0.0282202  0.0540358 -0.105093 -0.0216599  0.0699568 -0.184063 -0.0238695  0.0867743 -0.199721 -0.0267448  0.0843651 -0.162358 -0.0316362  0.0672873 -0.190356 -0.0204458  0.0668073 -0.15324 -0.024385  0.081898 -0.168802 -0.0273337  0.0642101 -0.159785 -0.0208955  0.0720713 -0.251353 -0.0226626  0.0922077 -0.267298 -0.0253673  0.0928102 -0.226547 -0.0301571  0.0692706 -0.25715 -0.019443  0.0717516 -0.216767 -0.0232406  0.0902222 -0.2326 -0.0260472  0.0689793 -0.222868 -0.0199289  0.0685059 -0.325216 -0.0213823  0.0918552 -0.341512 -0.0238662  0.0953799 -0.298096 -0.0284472  0.0657067 -0.330443 -0.0183845  0.0710064 -0.287499 -0.0220017  0.0927514 -0.30364 -0.0245972  0.068176 -0.293049 -0.0189075  0.0595579 -0.404453 -0.0201001  0.0859083 -0.42122 -0.0223241  0.0921724 -0.375722 -0.0266581  0.0568084 -0.409134 -0.017323  0.0647107 -0.364179 -0.0207295  0.0895743 -0.380733 -0.0230794  0.0619109 -0.369167 -0.0178485  0.0455536 -0.488124 -0.0188117  0.0746984 -0.505437 -0.0207844  0.083475 -0.458335 -0.0248451  0.0429348 -0.492269 -0.0162473  0.0531862 -0.445747 -0.0194416  0.0809462 -0.462811 -0.0215373  0.0504763 -0.450188 -0.0167747  0.0269393 -0.575378 -0.0175304  0.0586389 -0.593337 -0.0192637  0.0696453 -0.544968 -0.0230708  0.0244761 -0.579056 -0.0151772  0.0368229 -0.531307 -0.018157  0.0672529 -0.548963 -0.0200171  0.0342623 -0.535241 -0.0157008  0.00413835 -0.665607 -0.0162702  0.0381377 -0.684238 -0.0177832  0.0511744 -0.634901 -0.0213051  0.00186479 -0.66886 -0.0141029  0.0160633 -0.620115 -0.016902  0.0489182 -0.638446 -0.0185103  0.0136703 -0.623614 -0.0146341  -0.0224218 -0.758265 -0.015018  0.0136435 -0.777566 -0.0163226  0.0284394 -0.72748 -0.019608  -0.0244991 -0.761123 -0.0130429  -0.00865984 -0.711623 -0.0156407  0.0263733 -0.730619 -0.0170484  -0.01086 -0.714703 -0.0135689  -0.0523514 -0.852882 -0.0138216  -0.0144492 -0.872866 -0.0149355  0.00191557 -0.822209 -0.0179572  -0.0542324 -0.855411 -0.012012  -0.0369599 -0.805314 -0.01441  2.6226e-05 -0.824995 -0.0156279  -0.0389628 -0.808029 -0.0125213  -0.0852607 -0.949098 -0.0126352  -0.0457326 -0.969749 -0.013607  -0.0279967 -0.918641 -0.0163879  -0.0869577 -0.951346 -0.0109935  -0.0684211 -0.900774 -0.0132217  -0.0297077 -0.92112 -0.0142713  -0.0702281 -0.903179 -0.0114985  -0.120838 -1.04666 -0.0115047  -0.0798579 -1.06789 -0.0123167  -0.0609266 -1.01648 -0.0148673  -0.122335 -1.04862 -0.0100226  -0.1027 -0.997696 -0.0120697  -0.0624566 -1.01867 -0.012959  -0.104321 -0.999824 -0.010499  -0.158731 -1.14522 -0.0104384  -0.116493 -1.16701 -0.0111165  -0.0965276 -1.11541 -0.0134306  -0.160047 -1.14696 -0.00909042  -0.139484 -1.09579 -0.010972  -0.0978804 -1.11734 -0.0117111  -0.140909 -1.09766 -0.00955296  -0.198663 -1.24463 -0.00939274  -0.155308 -1.26691 -0.00996256  -0.134451 -1.21517 -0.012085  -0.199816 -1.24614 -0.00818777  -0.178428 -1.1948 -0.00990486  -0.135641 -1.21687 -0.0105405  -0.179685 -1.19645 -0.00863218  -0.240368 -1.34465 -0.00841284  -0.196033 -1.36735 -0.00886011  -0.174424 -1.31557 -0.0107794  -0.241347 -1.34597 -0.00734425  -0.219277 -1.29454 -0.00890779  -0.175447 -1.31707 -0.00940657  -0.220371 -1.29598 -0.00776529  -0.283573 -1.44512 -0.00749111  -0.23838 -1.46819 -0.00784397  -0.216145 -1.41641 -0.00956154  -0.284394 -1.44627 -0.00654364  -0.261758 -1.39481 -0.00795364  -0.217017 -1.41772 -0.00834846  -0.262693 -1.39607 -0.00694132  -0.328056 -1.5459 -0.00661325  -0.28213 -1.5693 -0.00687838  -0.259363 -1.51758 -0.00843382  -0.328735 -1.54691 -0.00576782  -0.305644 -1.49545 -0.00704622  -0.260081 -1.51872 -0.00736332  -0.306416 -1.49655 -0.00615215  -0.373594 -1.64688 -0.00577497  -0.327026 -1.67054 -0.00597286  -0.303838 -1.61892 -0.00736141  -0.374142 -1.64776 -0.00505066  -0.350682 -1.59635 -0.00620413  -0.304436 -1.6199 -0.0064292  -0.351308 -1.59731 -0.00541258  -0.420003 -1.74795 -0.00499678  -0.37288 -1.7718 -0.00513697  -0.349349 -1.72032 -0.00634718  -0.42043 -1.74869 -0.00436401  -0.39667 -1.69739 -0.00539112  -0.349833 -1.72117 -0.00553846  -0.397183 -1.69821 -0.00470781  -0.467093 -1.849 -0.00427771  -0.419513 -1.87301 -0.00435066  -0.395738 -1.82169 -0.00542212  -0.467423 -1.84964 -0.00374269  -0.443457 -1.79847 -0.00464201  -0.396104 -1.82241 -0.00473309  -0.443841 -1.79917 -0.00405502  -0.514717 -1.94999 -0.00360918  -0.466739 -1.97408 -0.00362968  -0.442784 -1.92296 -0.00456333  -0.514939 -1.95051 -0.00314522  -0.49082 -1.89948 -0.00394058  -0.44305 -1.92356 -0.00399065  -0.491112 -1.90008 -0.00343943  -0.562726 -2.05082 -0.0029912  -0.514414 -2.07497 -0.00297356  -0.490337 -2.02406 -0.00377798  -0.562858 -2.05124 -0.00260782  -0.538651 -2.00041 -0.00329113  -0.490522 -2.02455 -0.00329924  -0.538853 -2.00089 -0.00287437  -0.610983 -2.1514 -0.00240088  -0.562408 -2.1756 -0.00237608  -0.538262 -2.12491 -0.00306129  -0.61105 -2.15175 -0.00209379  -0.586805 -2.10111 -0.00267935  -0.538378 -2.12532 -0.00267076  -0.58692 -2.10152 -0.00234938  -0.659387 -2.25173 -0.00190115  -0.610587 -2.27593 -0.00183678  -0.586425 -2.22547 -0.0024066  -0.659388 -2.25202 -0.00164604  -0.635138 -2.20157 -0.00213671  -0.586473 -2.2258 -0.00209618  -0.635202 -2.20191 -0.001863  -0.707828 -2.35177 -0.0014143  -0.658861 -2.37596 -0.00135326  -0.634693 -2.32573 -0.00182295  -0.70778 -2.35198 -0.00123405  -0.683563 -2.30176 -0.0016489  -0.634718 -2.32598 -0.00159168  -0.683577 -2.30204 -0.0014286  -0.756259 -2.45148 -0.000999451  -0.70716 -2.47564 -0.000919342  -0.683033 -2.42564 -0.00129461  -0.756166 -2.45165 -0.000862598  -0.732004 -2.40162 -0.00119925  -0.683011 -2.42584 -0.00113583  -0.731974 -2.40185 -0.0010438  -0.804584 -2.55084 -0.000586033  -0.755394 -2.57495 -0.000544071  -0.731332 -2.52519 -0.000842094  -0.804477 -2.55097 -0.000514507  -0.780391 -2.50117 -0.000788689  -0.73128 -2.52534 -0.000723362  -0.780335 -2.50135 -0.000686169  -0.852781 -2.64981 -0.0002141  -0.803541 -2.67391 -0.000202656  -0.77956 -2.62433 -0.000409603  -0.852671 -2.64993 -0.000190258  -0.828674 -2.60035 -0.000408649  -0.779472 -2.62447 -0.000360966  -0.82858 -2.60048 -0.000352859  -0.90077 -2.74843 0.000161648  -0.851481 -2.77252 0.000132084  -0.82763 -2.72313 -4.24385e-05  -0.900626 -2.74853 0.000122547  -0.876785 -2.69916 -4.62532e-05  -0.827536 -2.72324 -2.86102e-05  -0.876669 -2.69927 -4.14848e-05  0.0216032 -0.0200505 -0.0337033  0 0 0  0.0221083 -0.0308535 -0.0293727  0.00853222 -0.0137144 -0.0240889  0 0 0  0.0180597 -0.0235278 -0.0258837  0.0071418 -0.00920302 -0.0208416  0 0 0  0.00643387 -0.0158374 -0.0174222  0.0052225 -0.0114268 -0.015202  0.0498271 -0.0513043 -0.0385976  0.0562703 -0.0658 -0.038312  0.0442392 -0.0427257 -0.0419421  0.0466444 -0.0567443 -0.0331612  0.0366242 -0.0342287 -0.0364003  0.0399984 -0.0475044 -0.0348644  0.0328209 -0.0389887 -0.030252  0.0741022 -0.0920056 -0.0402913  0.0852402 -0.107799 -0.0407743  0.0741224 -0.0796014 -0.0463514  0.0717059 -0.0982609 -0.0347409  0.0623113 -0.0702645 -0.039732  0.071344 -0.0855718 -0.0399671  0.0596927 -0.0762665 -0.0342522  0.094311 -0.143093 -0.0397048  0.109149 -0.159654 -0.0406032  0.10023 -0.126167 -0.0471869  0.0920041 -0.149481 -0.0343699  0.0848831 -0.116227 -0.0401039  0.0978751 -0.132488 -0.0408921  0.082525 -0.122645 -0.0346937  0.109055 -0.203722 -0.0381355  0.127361 -0.220753 -0.0391202  0.121245 -0.182852 -0.0460167  0.106739 -0.209861 -0.0330186  0.102419 -0.17224 -0.0389576  0.119007 -0.189097 -0.0399489  0.1001 -0.178586 -0.0337462  0.117914 -0.272506 -0.0360847  0.139467 -0.289974 -0.0370131  0.13643 -0.248499 -0.0438552  0.115544 -0.278238 -0.0312719  0.114274 -0.237123 -0.0371261  0.134203 -0.254411 -0.0380912  0.1119 -0.243119 -0.0321646  0.120703 -0.34812 -0.033833  0.145338 -0.366046 -0.0346518  0.14541 -0.321747 -0.0412393  0.118328 -0.353366 -0.0293303  0.120084 -0.3095 -0.0349512  0.143184 -0.327218 -0.0358295  0.117685 -0.315026 -0.0303011  0.117594 -0.429345 -0.0314918  0.145101 -0.447784 -0.0322151  0.148169 -0.401281 -0.0384455  0.115272 -0.434086 -0.0273223  0.119889 -0.388067 -0.0326452  0.145973 -0.406271 -0.0334215  0.117519 -0.393084 -0.0283222  0.108912 -0.515117 -0.0291619  0.139061 -0.534109 -0.0297608  0.144941 -0.4859 -0.0356169  0.106681 -0.519355 -0.0253243  0.113958 -0.471671 -0.0303164  0.142788 -0.49042 -0.030972  0.111652 -0.476207 -0.0263147  0.0950525 -0.604536 -0.0268731  0.127637 -0.624135 -0.0273705  0.136035 -0.574641 -0.0328197  0.0929606 -0.608339 -0.0233583  0.102632 -0.559373 -0.0280089  0.133999 -0.578709 -0.0285597  0.100437 -0.563429 -0.0243359  0.0764974 -0.696906 -0.0246782  0.111259 -0.717121 -0.0250716  0.121956 -0.666649 -0.0300989  0.0745513 -0.700299 -0.0214667  0.0863674 -0.650353 -0.0257788  0.120039 -0.670292 -0.0262089  0.0843196 -0.653982 -0.0224061  0.0536728 -0.791638 -0.0225616  0.090403 -0.812466 -0.0228682  0.103147 -0.76128 -0.0274854  0.0518919 -0.794652 -0.0196357  0.0656244 -0.743969 -0.023613  0.101371 -0.764527 -0.0239573  0.0637301 -0.747197 -0.0205441  0.0270438 -0.888234 -0.0205383  0.0655227 -0.909652 -0.0207653  0.0800691 -0.857939 -0.025012  0.025426 -0.890917 -0.0178881  0.0408523 -0.839691 -0.0215397  0.0784432 -0.86085 -0.0218048  0.0391089 -0.84257 -0.0187454  -0.00297713 -0.986302 -0.0186028  0.0370548 -1.00829 -0.0187659  0.0531861 -0.956213 -0.0226579  -0.00443673 -0.988696 -0.0162177  0.0124706 -0.937072 -0.0195661  0.0517083 -0.958806 -0.0197597  0.0108979 -0.939639 -0.0170484  -0.0360291 -1.08553 -0.0167818  0.00538921 -1.10802 -0.0168972  0.022922 -1.05572 -0.0204263  -0.037324 -1.08766 -0.0146279  -0.019127 -1.03577 -0.017693  0.0215988 -1.05803 -0.0178208  -0.0205239 -1.03805 -0.0154157  -0.0717558 -1.18565 -0.0150709  -0.0290982 -1.20859 -0.0151272  -0.0103594 -1.15617 -0.0183163  -0.0728728 -1.18752 -0.0131412  -0.0535551 -1.13547 -0.0159211  -0.0115238 -1.15822 -0.0159969  -0.0547887 -1.13749 -0.0138812  -0.109792 -1.28641 -0.0134592  -0.0660512 -1.30975 -0.0134711  -0.0462818 -1.25728 -0.0163684  -0.110763 -1.28807 -0.0117416  -0.0904691 -1.23594 -0.0142531  -0.0472851 -1.2591 -0.0142846  -0.0915465 -1.23773 -0.0124359  -0.149862 -1.38763 -0.0119205  -0.105161 -1.41131 -0.0119047  -0.0844936 -1.35889 -0.0145068  -0.150671 -1.38909 -0.0104055  -0.129565 -1.33696 -0.0126734  -0.0853548 -1.3605 -0.0126696  -0.130478 -1.33853 -0.0110612  -0.191652 -1.48916 -0.0104966  -0.146131 -1.51313 -0.0104346  -0.124725 -1.46077 -0.0127769  -0.192326 -1.49046 -0.00916481  -0.170523 -1.43834 -0.0111947  -0.125434 -1.4622 -0.011157  -0.171297 -1.43974 -0.00976849  -0.23491 -1.59085 -0.00915098  -0.188673 -1.61505 -0.00907612  -0.166601 -1.56284 -0.0111675  -0.235461 -1.59199 -0.00799847  -0.21308 -1.53997 -0.00982571  -0.16721 -1.56408 -0.0097518  -0.213705 -1.5412 -0.00856829  -0.279432 -1.6926 -0.00792027  -0.232567 -1.71697 -0.00783253  -0.209985 -1.66493 -0.00967693  -0.279857 -1.69358 -0.00691986  -0.257006 -1.6417 -0.00853348  -0.210465 -1.66601 -0.00845146  -0.257514 -1.64278 -0.00745535  -0.324973 -1.79429 -0.0067544  -0.277568 -1.81878 -0.00665379  -0.25457 -1.76695 -0.00827074  -0.325282 -1.79514 -0.00590563  -0.302051 -1.74343 -0.00733185  -0.254933 -1.76789 -0.00722456  -0.302445 -1.74437 -0.00640249  -0.371345 -1.89587 -0.00569582  -0.323488 -1.92042 -0.00557756  -0.300163 -1.86881 -0.00697994  -0.371557 -1.89658 -0.00497103  -0.348025 -1.84507 -0.00621891  -0.300426 -1.86962 -0.00610638  -0.348322 -1.84587 -0.00543022  -0.418357 -1.99723 -0.00472021  -0.370131 -2.02181 -0.004601  -0.346556 -1.97046 -0.00580215  -0.418488 -1.99783 -0.00412083  -0.394741 -1.94655 -0.00520611  -0.346731 -1.97115 -0.00507927  -0.394941 -1.94723 -0.00454473  -0.465868 -2.09833 -0.00382376  -0.417342 -2.12292 -0.00368881  -0.393579 -2.07182 -0.00473833  -0.465924 -2.09885 -0.00333834  -0.442033 -2.0478 -0.00427246  -0.393673 -2.07241 -0.00413656  -0.442146 -2.04837 -0.00372744  -0.51372 -2.19914 -0.00302458  -0.464965 -2.22369 -0.0028944  -0.441064 -2.17288 -0.003757  -0.513729 -2.19956 -0.00264168  -0.489742 -2.14876 -0.00342655  -0.441102 -2.17335 -0.00328255  -0.489789 -2.14924 -0.00298309  -0.561807 -2.29962 -0.00233698  -0.512848 -2.3241 -0.00219822  -0.488882 -2.27357 -0.0029006  -0.561751 -2.29994 -0.00203466  -0.537717 -2.24941 -0.00267029  -0.488875 -2.27393 -0.00253582  -0.537713 -2.24979 -0.00232458  -0.610014 -2.39973 -0.00168705  -0.560911 -2.42414 -0.00155783  -0.536915 -2.37387 -0.00214672  -0.609925 -2.4 -0.00147533  -0.585865 -2.3497 -0.00199938  -0.536865 -2.37417 -0.00187778  -0.585828 -2.35002 -0.00174522  -0.658252 -2.49948 -0.00115633  -0.609049 -2.5238 -0.00106049  -0.585047 -2.47379 -0.00149441  -0.658139 -2.49967 -0.00100136  -0.634106 -2.44963 -0.00140429  -0.584976 -2.47401 -0.00130844  -0.634023 -2.44988 -0.00122356  -0.706414 -2.59881 -0.000671387  -0.657162 -2.62305 -0.000613689  -0.633193 -2.5733 -0.000941277  -0.706295 -2.59897 -0.000573635  -0.682309 -2.54916 -0.00090313  -0.633104 -2.57347 -0.000826836  -0.682219 -2.54937 -0.000786304  -0.754533 -2.69778 -0.00022459  -0.705221 -2.72194 -0.000221729  -0.681288 -2.67241 -0.000466824  -0.754394 -2.6979 -0.000207424  -0.730451 -2.64833 -0.000453949  -0.681193 -2.67254 -0.00041914  -0.730354 -2.64848 -0.000397682  -0.802505 -2.79641 0.000186443  -0.753194 -2.82057 0.000135899  -0.729306 -2.77115 -4.24385e-05  -0.802357 -2.79652 0.000155449  -0.7785 -2.7471 -3.71933e-05  -0.729224 -2.77128 -4.14848e-05  -0.778397 -2.74724 -3.57628e-05  0.0319744 -0.0359805 -0.0427895  0 0 0  0.035044 -0.0526063 -0.0352364  0.0134448 -0.0278722 -0.0299621  0 0 0  0.0274412 -0.0404512 -0.0327053  0.0102032 -0.0195122 -0.0257525  0 0 0  0.0110921 -0.0300913 -0.0217237  0.00779473 -0.0216291 -0.018681  0.0708556 -0.0698232 -0.0509143  0.079208 -0.085417 -0.0489998  0.0640762 -0.0623922 -0.0534692  0.0672 -0.0755265 -0.0436368  0.0535044 -0.0523472 -0.0480132  0.0592728 -0.0680864 -0.0442681  0.0489634 -0.0573775 -0.0396585  0.102011 -0.111787 -0.0543599  0.114708 -0.128699 -0.052855  0.100103 -0.0995235 -0.0600786  0.0995238 -0.117958 -0.0468807  0.0866345 -0.0894096 -0.0532279  0.0972368 -0.10574 -0.0515995  0.0837987 -0.0954534 -0.0458164  0.129262 -0.164263 -0.0539756  0.145955 -0.181941 -0.0528493  0.133441 -0.147753 -0.0614877  0.12709 -0.17049 -0.046813  0.116349 -0.136702 -0.0544186  0.131106 -0.154014 -0.0531712  0.114029 -0.142969 -0.0471182  0.150806 -0.226415 -0.0519733  0.171103 -0.244768 -0.0509086  0.161419 -0.206126 -0.0599761  0.148762 -0.232386 -0.0451221  0.1408 -0.194141 -0.0530958  0.159333 -0.212171 -0.0520391  0.138695 -0.200297 -0.0460896  0.166149 -0.296936 -0.0491114  0.189721 -0.315912 -0.0481181  0.183292 -0.273638 -0.0570712  0.164129 -0.30252 -0.0426836  0.159325 -0.260646 -0.0505862  0.181279 -0.279347 -0.0495834  0.157265 -0.266487 -0.0439453  0.175028 -0.374423 -0.045898  0.201585 -0.394034 -0.0449429  0.198511 -0.34885 -0.0535483  0.173021 -0.379583 -0.0399003  0.171434 -0.334825 -0.0475187  0.196512 -0.354146 -0.0465536  0.169391 -0.340247 -0.0412974  0.177511 -0.457652 -0.0425801  0.206814 -0.477872 -0.0416512  0.207 -0.43045 -0.049777  0.175544 -0.462353 -0.0370302  0.177081 -0.415358 -0.0442414  0.20504 -0.435295 -0.0432987  0.175067 -0.420318 -0.0384641  0.173894 -0.545447 -0.039259  0.205684 -0.566301 -0.0383835  0.208962 -0.517156 -0.0459785  0.171994 -0.549731 -0.0341578  0.176469 -0.500996 -0.0409045  0.207041 -0.521563 -0.0400219  0.174515 -0.505514 -0.0355864  0.164581 -0.636942 -0.0360031  0.198629 -0.658385 -0.0351744  0.204711 -0.607939 -0.0422244  0.162791 -0.640782 -0.0313482  0.169939 -0.590759 -0.0376201  0.202871 -0.611928 -0.0367675  0.168073 -0.594845 -0.0327401  0.150068 -0.73133 -0.0328822  0.186143 -0.753352 -0.032093  0.194763 -0.701941 -0.0385838  0.1484 -0.734769 -0.0286489  0.157977 -0.683777 -0.0344386  0.193043 -0.705544 -0.0336275  0.156216 -0.687448 -0.0299883  0.13082 -0.827962 -0.0299168  0.168738 -0.850541 -0.0291777  0.179632 -0.798479 -0.0351129  0.129292 -0.831055 -0.0260739  0.14103 -0.779369 -0.0313764  0.17803 -0.801703 -0.0306172  0.139404 -0.782657 -0.0273438  0.10734 -0.926352 -0.0270963  0.146886 -0.949449 -0.0264025  0.159793 -0.896908 -0.0318274  0.105958 -0.929127 -0.0236292  0.119611 -0.876927 -0.0284953  0.158339 -0.899803 -0.0277653  0.118129 -0.879892 -0.0248361  0.0800925 -1.02607 -0.024446  0.121065 -1.04966 -0.0237842  0.135778 -0.996809 -0.0287371  0.0788329 -1.02858 -0.021328  0.0941979 -0.97605 -0.0257568  0.134454 -0.99941 -0.0250692  0.0928444 -0.978697 -0.0224586  0.0494648 -1.12682 -0.0219202  0.0917457 -1.15082 -0.0213127  0.108023 -1.09781 -0.0257978  0.0483623 -1.12903 -0.0191312  0.0651907 -1.07631 -0.0231662  0.106829 -1.10012 -0.0225163  0.0640054 -1.07869 -0.0202098  0.0158763 -1.22828 -0.0195937  0.0593066 -1.25262 -0.0190229  0.0769227 -1.19958 -0.0230455  0.0149174 -1.23026 -0.0171075  0.033039 -1.17747 -0.0207434  0.0758915 -1.20165 -0.0201392  0.0319928 -1.17957 -0.0181079  -0.0203302 -1.33023 -0.0173783  0.0241249 -1.35488 -0.0168519  0.0429678 -1.30185 -0.0205197  -0.0211282 -1.33199 -0.0151877  -0.0018847 -1.27917 -0.0184846  0.042042 -1.30369 -0.0179238  -0.00279284 -1.28107 -0.0161376  -0.0587926 -1.43248 -0.0153298  -0.0134411 -1.45738 -0.0148096  0.0063889 -1.40446 -0.0180998  -0.0594578 -1.43405 -0.0133963  -0.0392678 -1.3813 -0.0163431  0.00562477 -1.4061 -0.015831  -0.040029 -1.38298 -0.0142779  -0.099201 -1.53491 -0.0134087  -0.0530863 -1.55998 -0.0129519  -0.032382 -1.50723 -0.0158615  -0.0997465 -1.53628 -0.0117207  -0.0787416 -1.48367 -0.0143499  -0.0330112 -1.50867 -0.0138645  -0.0793734 -1.48515 -0.0125332  -0.141278 -1.63731 -0.0116262  -0.0944748 -1.66254 -0.0112071  -0.0730457 -1.60999 -0.0137715  -0.141702 -1.63854 -0.0101662  -0.120013 -1.58609 -0.0125079  -0.0735631 -1.61127 -0.0120544  -0.120525 -1.58741 -0.0109324  -0.184806 -1.73968 -0.00998449  -0.137411 -1.76495 -0.00956345  -0.115375 -1.71267 -0.0118475  -0.185114 -1.74073 -0.00873137  -0.162857 -1.68849 -0.0107908  -0.115763 -1.71376 -0.0103822  -0.163244 -1.68964 -0.00943327  -0.229488 -1.84185 -0.00845432  -0.1816 -1.86714 -0.0080905  -0.159079 -1.81512 -0.0100641  -0.229701 -1.84275 -0.0073905  -0.206985 -1.79076 -0.00920916  -0.15936 -1.81607 -0.00881815  -0.207261 -1.79176 -0.0080452  -0.275169 -1.94377 -0.00706244  -0.226857 -1.96904 -0.00673437  -0.2039 -1.91732 -0.00843191  -0.275282 -1.94455 -0.0061717  -0.252183 -1.89281 -0.0077424  -0.204111 -1.91813 -0.00738382  -0.25238 -1.89368 -0.0067687  -0.321605 -2.04539 -0.00578213  -0.272961 -2.07058 -0.00546741  -0.249695 -2.01916 -0.00696898  -0.321648 -2.04604 -0.00506115  -0.298271 -1.9946 -0.00641584  -0.249811 -2.01986 -0.00610256  -0.298378 -1.99534 -0.00560236  -0.368663 -2.14664 -0.00463295  -0.319743 -2.17177 -0.00436687  -0.296249 -2.12062 -0.0056057  -0.368642 -2.14721 -0.00405264  -0.345041 -2.09604 -0.00518942  -0.296279 -2.12124 -0.00491905  -0.345077 -2.09666 -0.00453758  -0.416159 -2.24754 -0.0036006  -0.367049 -2.27251 -0.00338078  -0.343369 -2.22173 -0.00437498  -0.41609 -2.24799 -0.00314856  -0.392341 -2.19712 -0.00410557  -0.343343 -2.22219 -0.00386906  -0.392308 -2.19764 -0.00359106  -0.463971 -2.34802 -0.00269794  -0.414715 -2.37284 -0.00251579  -0.390893 -2.32236 -0.00331163  -0.463855 -2.34838 -0.0023632  -0.440005 -2.29782 -0.00314331  -0.390844 -2.32272 -0.00291348  -0.439935 -2.29823 -0.00274372  -0.511969 -2.4481 -0.00192499  -0.46261 -2.47277 -0.00176525  -0.438721 -2.42257 -0.00241661  -0.511828 -2.44838 -0.001688  -0.487925 -2.39809 -0.00230885  -0.438641 -2.42285 -0.00213003  -0.487819 -2.39843 -0.00201368  -0.560052 -2.54776 -0.00127697  -0.510664 -2.57224 -0.00115395  -0.486743 -2.52235 -0.00159454  -0.55991 -2.54797 -0.00111961  -0.535979 -2.49797 -0.00159454  -0.486627 -2.52256 -0.00143385  -0.535858 -2.49822 -0.00140047  -0.608131 -2.647 -0.000713348  -0.558742 -2.67133 -0.00065136  -0.53482 -2.62167 -0.000975132  -0.607985 -2.64716 -0.000643253  -0.584075 -2.59742 -0.000991344  -0.534704 -2.62183 -0.000874519  -0.583946 -2.59761 -0.000875473  -0.656157 -2.74588 -0.000258446  -0.606775 -2.77008 -0.000234604  -0.582879 -2.72063 -0.000472069  -0.656018 -2.746 -0.000237465  -0.632135 -2.69648 -0.000490189  -0.582762 -2.72074 -0.000431061  -0.632007 -2.69662 -0.000435352  -0.704136 -2.84446 0.000140667  -0.654796 -2.86865 7.39098e-05  -0.630869 -2.81924 -0.00011301  -0.704015 -2.84461 0.000110149  -0.680122 -2.79517 -8.05855e-05  -0.630798 -2.81938 -9.20296e-05  -0.680025 -2.79533 -6.91414e-05  
SCALARS smooth_stress float 1
LOOKUP_TABLE default
71.6959 140.011 125.598 114.625 121.878 125.735 109.747 102.842 99.3318 96.0599 94.6522 82.437 87.3284 84.7932 72.6914 70.0838 64.9307 65.8624 62.4769 55.672 52.2052 50.6885 56.9388 53.4805 49.6194 50.9912 44.8972 54.6731 57.65 42.651 42.0555 47.7882 24.6981 132.566 247.809 214.936 210.901 231.145 227.552 194.416 177.474 185.256 187.654 177.225 162.993 162.218 152.461 138.411 127.492 114.312 123.954 127.418 115.035 114.816 112.941 110.6 105.87 100.071 105.886 97.2759 105.869 124.738 107.989 98.0101 98.515 46.9806 104.54 187.412 155.722 165.364 191.387 182.415 162.331 153.052 162.261 167.343 157.538 149.092 138.741 125.134 119.889 116.371 112.319 121.303 116.391 114.152 125.555 120.347 110.77 106.587 99.3791 104.477 99.1694 103.255 127.426 122.757 113.003 111.499 54.1396 74.5947 142.604 133.051 142.323 161.336 156.005 155.928 164.434 159.888 160.63 155.69 141.155 123.705 108.651 110.63 115.197 119.534 122.287 108.583 109.479 116.479 111.781 117.837 121.383 98.8039 98.6018 107.6 104.408 107.132 101.203 104.061 109.076 54.3626 63.7605 133.755 151.909 170.877 170.93 162.234 165.366 172.485 174.843 167.916 158.354 141.195 126.079 124.238 127.72 126.026 123.739 122.224 113.38 109.997 110.905 109.868 120.155 123.814 99.7371 109.094 116.725 101.657 103.874 97.8087 102.233 105.542 49.0222 75.7275 169.106 185.976 197.646 194.109 183.097 183.852 181.926 180.22 170.508 163.539 148.711 141.615 143.959 137.422 132.882 134.27 129.262 119.803 115.416 114.072 116.851 116.009 115.599 112.284 113.451 111.134 102.099 108.832 110.897 110.739 108.958 50.7666 97.7196 224.656 232.559 223.352 230.984 226.878 211.803 188.901 174.765 176.689 175.036 163.879 155.102 151.416 144.595 135.577 135.404 132.247 129.451 123.727 117.012 123.302 118.949 124.249 124.56 114.057 127.723 109.98 100.21 104.295 101.027 106.099 52.4053 129.455 286.293 294.268 274.847 274.923 268.494 240.777 208.771 198.617 207.265 204.26 184.745 171.178 163.558 160.262 154.963 145.217 139.918 134.37 134.327 133.408 127.093 122.757 118.77 113.422 114.74 127.538 118.169 99.9113 91.9198 104.316 114.701 53.8956 74.6281 159.979 162.444 151.499 146.334 137.885 125.726 115.325 112.78 118.05 115.134 101.001 91.4676 83.0466 81.83 82.4749 76.9401 73.7857 68.4767 70.7099 73.0963 64.4613 60.39 53.4907 51.2851 54.0589 55.0341 60.9799 51.4535 44.4979 58.8067 60.3226 25.7402 141.036 280.017 263.029 247.182 251.054 254.424 223.738 211.713 207.189 191.802 180.296 157.179 157.134 150.694 141.084 138.402 129.515 127.72 127.504 124.856 113.209 107.033 111.767 107.035 104.658 101.529 93.9 106.067 105.418 86.5634 88.2033 100.073 53.5548 244.81 481.216 459.502 457.433 465.526 451.024 402.515 371.529 376.19 368.479 340.861 301.6 291.764 292.427 275.803 255.341 234.792 239.256 246.431 236.999 226.888 220.886 216.776 215.63 217.584 210.242 205.06 215.471 221.383 205.659 200.276 204.815 101.846 180.185 351.081 348.468 368.963 384.651 361.75 336.135 319.407 320.549 321.972 299.803 279.137 271.236 264.825 254.232 243.112 228.533 232.555 225.322 227.346 237.727 231.155 219.456 219.351 217.236 209.972 216.666 227.366 232.03 223.418 225.709 218.85 102.319 129.652 267.112 286.808 305.819 328.002 320.637 314.976 325.155 306.339 294.794 282.615 270.408 263.154 248.181 251.792 243.252 232.995 228.571 218.864 231.59 241.991 242.38 238.493 231.537 210.764 204.295 217.156 219.943 209.637 201.013 215.368 219.343 105.422 115.143 260.598 308.615 334.53 335.701 324.414 329.996 336.914 332.452 312.003 297.06 284.018 269.499 276.41 278.449 252.712 242.715 243.49 229.827 227.964 236.872 239.702 241.818 233.317 207.12 217.106 228.271 208.009 200.257 201.189 209.166 215.892 105.303 135.593 325.739 381.356 398.495 387.522 362.574 364.171 356.378 350.936 332.298 319.736 309.476 297.375 292.376 272.2 263.657 265.495 259.826 240.077 233.423 234.469 229.796 230.082 226.35 214.382 223.933 230.424 207.478 209.91 214.203 208.849 206.392 99.8172 170.682 423.356 475.65 462.63 457.343 435.465 418.96 389.024 362.803 356.982 356.669 338.502 313.156 297.565 279.955 278.838 275.78 248.949 246.278 253.187 233.266 232.456 236.116 237.413 241.557 236.359 241.241 208.721 207.286 220.594 200.373 204.138 107.065 244.089 565.178 594.035 551.737 548.273 523.829 484.958 447.472 422.012 412.802 409.642 374.89 339.921 335.582 321.979 307.464 295.163 269.397 260.31 273.682 254.198 235.509 241.244 233.345 239.064 237.972 233.328 224.796 208.948 208.342 212.987 223.447 115.295 147.098 324.192 325.937 300.181 300.572 282.012 257.791 243.477 232.483 225.614 219.026 197.539 181.189 179.073 168.054 156.649 151.902 144.335 136.751 142.341 136.472 118.225 117.44 109.746 111.221 111.477 105.891 117.526 104.888 97.4514 114.028 115.044 54.1384 134.585 287.955 283.822 265.953 258.586 253.852 235.58 216.991 201.691 176.473 166.74 155.213 142.833 139.165 144.497 138.164 123.217 112.962 121.931 133.495 125.213 108.527 104.273 106.312 110.169 108.934 98.7279 99.3184 98.8142 89.0374 89.6248 103.23 55.2768 217.552 472.344 499.03 486.041 463.519 448.799 418.108 385.925 378.468 355.991 327.35 290.844 270.27 279.677 281.977 267.338 240.892 226.473 239.643 239.332 223.478 214.416 216.903 224.74 236.301 218.957 211.528 221.625 211.231 208.159 202.448 199.397 101.36 148.977 328.203 386.761 406.997 387.133 360.346 347.199 335.927 323.244 318.962 295.442 263.956 261.281 272.787 264.203 251.66 235.043 227.271 237.098 239.475 223.846 221.65 228.213 226.028 224.15 214.272 230.847 244.655 224.102 224.283 228.53 199.174 89.5772 118.45 263.07 311.347 333.973 334.047 322.92 325.702 322.301 286.234 275.833 265.899 259.699 266.082 265.841 262.825 242.954 233.447 221.158 227.733 243.151 247.797 250.324 242.931 222.309 211.32 223.27 225.903 226.062 207.622 205.949 216.692 205.194 99.9764 107.994 260.938 324.104 332.336 324.871 323.84 322.459 312.063 300.416 287.823 276.109 277.629 274.07 279.429 275.61 250.32 248.469 244.637 232.055 224.651 242.091 257.501 255.282 233.793 220.279 226.653 218.586 209.008 194.368 211.836 215.521 213.412 113.584 117.735 304.648 389.816 395.049 381.33 361.356 344.66 333.23 331.235 318.588 304.451 302.454 292.743 288.794 271.156 259.048 263.757 262.268 243.61 233.994 243.84 242.502 244.243 230.169 208.691 218.283 221.797 206.887 202.431 216.8 213.996 206.892 105.472 150.727 384.231 469.881 467.002 450.561 428.015 410.235 396.023 372.751 352.194 349.898 336.647 319.446 301.286 275.696 274.491 267.602 252.214 252.46 252.575 236.537 232.18 239.823 233.42 230.162 233.037 228.321 210.6 217.164 227.344 209.481 204.561 105.077 226.217 527.591 578.367 553.852 541.066 506.933 481.254 464.309 433.025 398.484 401.674 378.013 339.521 339.909 322.175 302.935 289.294 274.984 267.68 263.622 233.518 221.887 236.814 236.699 246.725 235.932 219.228 222.36 220.856 222.724 216.579 214.978 111.22 137.671 306.325 313.993 296.627 298.811 273.954 254.251 244.762 230.86 213.442 211.185 197.566 170.986 181.556 178.126 157.64 153.058 147.799 135.122 129.904 120.947 109.271 113.301 114.365 118.276 113.546 101.974 113.352 107.693 101.133 106.559 106.086 54.5139 125.316 287.563 297.905 267.333 253.85 248.135 241.713 213.787 190.952 176.797 167.742 158.136 153.477 153.192 147.301 137.176 122.772 107.666 110.023 121.248 119.846 114.645 116.833 109.489 111.628 122.162 103.934 88.4841 96.2069 110.649 103.691 92.0586 45.3292 201.121 468.702 517.285 483.19 466.365 455.943 423.955 387.376 369.538 350.093 323.031 305.565 295.901 295.431 287.02 269.356 241.684 219.814 233.983 233.464 220.077 219.902 225.397 221.52 228.671 230.657 208.789 204.154 218.067 235.242 211.707 181.186 89.0041 128.92 315.451 392.466 401.029 391.254 369.506 338.53 335.538 325.426 315.81 300.546 279.537 269.916 271.897 265.985 257.449 242.961 226.337 249.054 246.479 230.176 231.627 226.321 214.665 206.075 209.176 221.559 231.343 235.912 238.401 216.677 184.343 86.8094 106.537 258.206 312.552 327.213 334.048 321.839 321.185 313.714 275.517 267.027 274.665 268.956 250.475 242.67 237.351 243.233 251.494 240.126 243.725 243.599 247.336 239.091 238.777 229.059 200.327 216.888 230.553 224.373 218.293 227.344 212.167 188.769 97.1036 107.909 263.825 322.604 326.611 335.011 330.053 323.29 317.423 287.103 266.251 273.254 275.518 248.55 251.274 244.955 246.162 258.087 246.973 234.299 220.299 238.971 237.955 251.323 253.614 228.438 226.781 218.563 215.589 206.152 225.328 224.181 212.496 113.461 118.243 301.464 390.376 398.95 387.387 363.64 337.044 343.7 333.142 304.131 302.101 286.492 255.48 269.026 270.709 262.217 262.513 254.877 245.696 233.664 245.889 242.118 246.42 256.972 233.089 210.362 205.514 209.613 209.78 216.01 219.496 220.837 111.195 155.969 372.476 461.384 484.08 458.921 426.63 402.346 389.946 373.07 343.644 328.734 308.465 297.84 293.651 278.768 267.312 255.406 269.538 273.17 256.306 255.959 245.469 239.411 251.577 233.582 213.132 217.682 213.3 211.073 211.48 212.048 207.689 99.333 222.155 503.484 566.762 568.377 537.637 497.916 476.528 455.142 430.353 395.236 383.856 354.774 325.571 327.213 313.765 297.613 289.232 295.07 279.743 256.393 251.097 245.47 236.324 239.067 234.324 229.974 228.15 216.947 209.778 208.431 217.964 216.464 104.333 129.943 292.542 312.617 298.677 286.401 265.014 252.832 243.238 231.999 213.985 213.377 194.132 157.644 164.325 171.835 164.32 165.698 159.374 136.6 122.788 119.446 116.885 113.03 117.273 116.688 116.63 111.267 106.371 106.575 101.168 104.736 110.669 56.702 120.47 263.453 287.394 279.698 262.955 247.681 238.182 219.867 207.559 193.91 176.034 163.859 163.257 158.324 138.357 133.688 135.093 123.174 121.663 124.494 115.408 124.841 127.306 118.078 116.048 114.749 103.094 95.5219 96.8317 115.367 117.991 92.7098 41.773 198.172 448.008 509.514 504.704 490.659 465.963 436.272 408.969 383.018 359.387 332.47 324.041 321.372 305.183 279.906 267.658 253.84 238.036 242.058 234.876 224.427 235.47 235.853 225.082 222.379 215.018 194.268 196.736 206.709 220.796 229.974 207.891 96.9248 118.376 302.849 389.498 396.896 392.067 379.215 349.361 337.215 312.664 296.484 290.049 290.301 285.934 268.052 264.147 258.01 237.16 235.173 246.23 230.306 237.671 240.369 218.399 203.948 194.995 196.515 203.272 210.945 222.772 219.143 213.885 215.201 104.144 96.545 242.692 308.852 321.234 323.805 320.563 309.29 295.082 270.101 255.277 263.667 268.309 247.277 228.684 236.832 244.611 233.651 240.747 245.365 242.631 251.886 233.636 222.558 222.367 202.331 210.15 229.385 218.966 224.164 232.986 212.457 209.312 109.082 113.647 270.678 324.65 334.509 342.98 333.717 322.974 312.695 293.315 265.872 269.013 284.761 257.721 244.291 241.253 245.162 232.851 237.621 249.312 243.25 242.659 223.44 231.359 238.617 226.965 223.683 227.966 230.647 219.537 226.981 229.694 222.088 112.117 122.351 314.557 391.295 400.678 392.299 366.531 352.483 348.757 329.873 293.311 293.028 291.53 268.451 266.076 260.524 262.75 249.017 257.476 266.674 242.143 242.041 236.575 237.283 247.495 235.65 215.861 218.637 224.494 217.253 214.532 211.644 207.087 101.351 156.014 386.558 465.369 479.822 463.814 428.341 411.588 398.419 371.369 335.36 323.172 298.378 287.217 292.036 283.854 285.029 273.131 278.066 265.956 247.628 253.542 244.686 245.142 255.527 238.163 222.601 219.292 210.467 208.028 208.587 204.126 200.615 102.34 227.578 526.373 591.489 572.85 546.286 517.72 482.212 457.077 434.162 400.618 385.083 352.754 331.519 336.721 317.392 303.878 300.831 291.627 271.153 260.261 259.382 249.89 236.242 229.059 225.986 231.279 226.657 207.253 197.571 205.967 219.055 222.726 113.453 136.139 308.094 334.237 308.541 291.233 281.822 258.154 241.689 232.246 216.967 215.98 199.334 174.49 173.96 167.043 157.007 159.105 153.852 142.089 134.233 128.456 122.235 109.73 107.833 110.177 114.76 115.323 99.8682 98.5281 104.203 107.435 116.403 60.4374 126.63 261.848 274.758 277.172 266.585 247.884 236.88 223.877 202.78 186.759 182.512 181.279 170.991 151.836 144.078 142.984 141.34 138.873 140.604 135.531 116.643 116.602 114.658 115.481 118.324 112.966 101.57 99.9279 105.902 110.975 112.887 101.125 47.9753 206.364 444.973 491.527 501.006 487.274 467.474 444.755 420.467 391.015 367.069 349.599 341.3 320.474 288.458 286.279 272.488 257.409 255.595 256.014 248.44 226.22 229.919 242.316 236.329 223.152 207.631 194.409 213.469 215.413 209.158 226.784 226.723 111.495 128.72 311.536 378.69 388.754 385.921 389.396 375.305 347.215 327.535 318.929 307.483 295.579 277.578 258.254 265.906 253.68 230.326 231.101 230.124 219.489 228.665 231.756 230.514 214.572 199.545 201.494 201.799 221.244 216.92 203.438 221.882 233.699 113.22 107.031 251.173 303.368 319.364 320.594 324.868 313.943 292.799 278.886 275.406 283.208 279.228 253.998 236.336 248.055 248.86 231.184 226.069 222.585 224.139 233.272 228.447 219.256 209.746 209.329 226.324 226.615 218.747 215.835 205.49 213.19 219.85 106.494 114.647 264.059 325.196 345.935 332.943 328.948 313.951 287.347 287.602 281.698 279.148 287.711 271.272 245.08 236.825 236.541 231.662 235.787 237.027 245.878 230.714 219.082 232.377 225.613 227.698 232.452 230.178 231.55 221.708 207.908 213 213.026 102.667 127.36 319.583 388.636 405.836 393.156 366.308 358.767 328.556 311.261 295.123 281.941 284.809 292.888 277.519 248.321 242.386 239.231 257.108 259.925 246.382 239.874 230.454 237.388 233.753 222.708 227.722 230.115 231.933 224.223 217.003 209.546 200.83 99.9651 163.296 401.266 456.002 460.633 473.812 442.808 426.445 411.149 367.778 339.881 329.677 311.252 316.518 310.452 286.243 277.819 264.581 259.357 253.211 253.276 251.425 243.52 253.764 250.847 227.588 229.672 229.459 224.729 224.119 213.443 206.506 208.844 108.521 230.154 525.646 582.438 561.804 555.481 530.556 490.16 466.107 426.38 401.617 402.556 378.457 349.16 337.795 318.647 303.955 288.338 273.066 267.173 269.024 253.907 247.989 251.605 236.668 235.805 228.178 224.877 222.304 206.944 197.927 203.215 213.726 107.98 137.615 302.668 331.322 315.517 297.243 280.168 255.045 238.342 221.846 211.949 218.484 207.973 180.16 174.487 168.249 156.665 148.253 146.72 144.731 133.812 125.827 125.849 119.252 109.983 117.839 113.271 113.009 109.001 93.7664 93.8133 98.462 104.435 53.5502 132.177 272.075 277.717 271.49 261.91 248.675 233.714 210.171 186.949 178.831 175.648 173.752 169.501 160.794 157.914 143.238 132.886 140.221 137.537 125.497 114.089 112.566 113.655 115.17 118.667 112.042 92.9686 88.4017 107.712 112.618 104.027 97.934 46.4012 212.482 466.041 502.393 483.074 469.229 455.701 431.412 405.35 373.785 364.835 342.713 313.975 307.669 294.544 295.776 272.653 245.956 252.829 255.78 241.975 219.832 225.615 235.633 231.238 225.986 209.793 193.636 210.973 222.953 214.531 212.803 214.586 109.676 135.694 335.609 399.931 384.831 379.922 381.208 357.031 347.488 341.502 337.223 317.678 283.612 269.345 254.819 256.632 255.652 240.91 226.772 224.439 224.569 220.825 224.769 224.88 214.57 215.011 217.138 213.197 236.335 222.354 201.673 229.625 238.265 115.557 109.278 259.818 308.935 317.759 335.124 336.007 308.946 302.406 294.044 287.675 300.276 289.808 257.719 246.174 242.09 251.045 258.499 233.871 223.527 229.534 226.723 222.21 216.605 208.285 218.037 224.384 220.343 225.817 212.758 195.651 219.683 224.713 102.57 115.858 265.84 315.283 329.807 331.997 327.038 311.652 297.218 282.431 284.92 298.875 280.64 262.683 263.495 245.263 240.317 249.276 241.001 231.517 242.42 231.773 219.273 232.886 235.46 234.21 229.804 225.316 222.516 216.912 204.531 194.675 196.241 99.9122 134.097 319.447 388.773 411.746 390.833 359.201 351.509 329.849 308.694 308.181 296.106 273.01 280.066 277.995 254.153 244.928 242.193 249.478 247.448 248.119 242.883 221.274 234.581 250.762 232.789 230.513 232.339 225.451 217.778 218.185 205.652 190.333 98.5774 169.34 394.081 462.657 484.863 474.269 438.41 427.365 403.387 363.525 355.669 337.18 310.085 309.223 299.796 275.848 256.063 243.051 245.183 259.36 268.777 255.38 234.742 249.946 253.855 223.237 220.571 220.136 217.483 218.662 209.326 212.802 207.193 97.5051 234.191 512.652 563.096 563.191 539.448 505.201 492.384 464.41 419.749 414.652 411.516 372.409 338.115 318.194 302.604 287.539 265.265 258.557 262.947 267.803 259.479 257.196 269.118 248.201 242.361 242.479 226.625 217.882 211.582 201.771 204.302 208.213 97.5664 136.978 290.352 307.609 304.78 286.536 260.779 254.489 243.751 221.864 218.699 221.231 201.113 172.818 158.003 158.967 160.896 145.789 141.559 136.848 126.168 126.849 134.944 134.57 119.432 128.047 127.613 121.326 115.387 99.4316 101.989 101.31 98.2124 49.0145 127.81 270.466 281.026 263.713 251.473 241.159 230.458 214.11 196.513 180.584 158.596 150.636 154.748 162.133 153.055 132.505 124.503 129.265 128.109 118.187 118.355 115.395 109.916 113.189 119.39 107.923 91.5588 92.9453 104.171 104.461 94.7222 95.4776 47.7423 225.329 481.909 500.308 460.522 454.408 439.904 414.372 399.73 365.907 353.308 322.531 287.099 297.071 304.148 287.586 263.657 249.086 265.452 259.443 228.864 223.473 231.66 223.255 222.164 238.832 216.714 189.442 206.035 217.677 210.238 205.972 205.595 102.303 167.337 358.177 392.468 375.368 370.731 364.102 333.639 331.188 316.793 309.498 298.221 276.133 276.76 267.309 253.217 250.565 246.599 247.657 235.682 222.757 217.256 218.255 217.81 224.965 240.615 226.593 211.61 225.78 222.807 209.589 227.994 235.677 114.075 129.326 268.488 310.061 328.198 330.221 328.872 313.214 306.075 291.955 281.011 285.612 283.232 263.901 250.293 234.621 240.644 249.221 226.138 217.373 236.494 234.154 219.728 220.826 223.787 227.388 219.418 226.716 233.972 213.165 201.357 219.093 234.436 115.295 119.145 266.348 305.019 321.869 333.203 328.423 328.381 319.689 297.985 302.028 299.555 273.883 269.273 261.958 239.97 249.744 250.335 230.643 235.574 253.217 246.78 237.491 233.728 227.421 232.886 233.823 235.242 232.274 206.058 195.553 199.51 208.128 109.85 131.171 310.903 371.568 390.296 381.529 361.975 363.93 347.956 322.165 323.968 306.988 275.865 275.453 266.867 253.717 257.887 249.889 256.283 264.307 260.203 252.938 236.693 233.683 236.093 236.859 241.526 244.375 236.995 211.569 208.223 209.835 196.461 98.2212 175.735 396.66 466.522 476.161 452.806 438.334 433.432 405.511 371.732 360.25 344.36 317.069 292.769 292.386 275.005 249.924 254.617 274.109 277.649 259.332 242.706 226.04 242.371 241.993 223.422 226.485 232.768 231.23 210.72 209.083 219.02 204.57 93.5046 248.298 530.368 572.094 556.193 523.872 505.329 492.782 465.476 438.754 426.712 409.202 367.649 335.547 328.248 302.468 275.862 265.017 268.955 270.036 260.803 249.93 247.351 263.752 241.489 230.824 250.725 235.133 216.1 213.283 210.068 211.616 214.632 103.352 144.097 300.017 308.997 298.099 281.818 264.062 258.388 248.74 235.758 232.639 223.602 196.123 178.421 165.771 157.145 155.312 137.159 135.154 134.144 132.872 135.397 138.25 137.692 115.965 117.591 133.558 124.487 110.873 111.938 111.199 105.271 107.271 54 61.8629 136.4 142.186 123.633 117.633 115.659 115.566 113.617 101.903 90.667 76.0725 71.9673 73.4309 74.777 72.0585 65.8925 62.003 61.3047 62.6327 60.6625 61.1377 57.0518 51.0013 52.1543 59.4967 57.8647 51.2761 49.5088 50.69 52.9755 45.8049 47.0731 26.4525 116.854 242.597 242.749 217.433 219.021 216.33 205.389 201.384 182.123 171.082 156.263 143.711 143.682 148.598 140.617 125.701 127.972 138.824 130.972 116.549 114.104 113.924 108.756 108.713 123.502 115.591 100.991 103.926 106.908 108.821 101.504 97.928 49.7063 97.5755 182.171 180.18 180.025 182.049 181.569 167.689 159.665 150.632 146.197 145.346 143.425 140.189 141.493 134.468 123.113 122.988 127.131 116.025 107.568 105.927 105.657 111.84 122.421 129.935 114.833 105.148 110.544 111.014 106.99 107.219 108.431 53.0065 73.6781 136.794 150.604 165.304 158.552 160.722 163.452 153.521 142.431 138.824 140.569 142.853 136.744 128.132 119.442 122.181 119.763 102.84 97.3394 111.026 113.868 111.695 117.421 119.785 117.317 110.519 117.809 121.781 105.255 99.4143 106.926 114.103 58.3235 55.5856 123.618 145.489 161.416 166.08 165.009 173.167 166.914 154.137 155.449 146.667 136.905 138.043 123.269 110.353 123.334 128.464 111.41 110.464 127.041 125.909 124.148 119.563 108.28 114.95 120.928 123.661 123.595 99.4837 88.8217 103.734 112.258 56.646 62.4575 149.93 176.076 188.457 191.024 184.312 191.408 182.829 167.482 164.933 153.642 140.937 138.32 128.964 121.691 126.539 127.891 129.61 132.469 133.999 130.334 121.857 115.456 109.144 117.623 125.437 126.519 127.087 109.189 95.0234 105.696 111.25 53.0314 91.8809 204.232 229.093 228.464 223.252 221.594 220.192 208.899 192.973 180.845 174.153 166.298 149.296 149.52 139.979 122.733 131.195 144.245 143.081 129.395 120.883 112.575 117.801 114.779 110.028 115.381 125.678 129.448 109.136 105.049 110.512 106.773 51.0963 127.253 271.768 288.11 273.372 263.54 259.282 247.801 239.63 231.945 215.348 202.723 187.849 169.865 170.457 154.426 135.579 137.144 141.403 141.111 133.89 123.345 120.253 127.996 117.839 111.523 122.419 121.441 114.483 109.032 102.386 101.53 107.65 54.8247 73.3373 154.668 160.591 151.027 143.122 136.815 131.435 128.27 124.336 117.029 110.959 96.7535 87.653 87.0912 79.3169 74.9276 68.1193 68.5869 69.6897 70.7987 67.7934 68.2983 69.4228 57.8462 55.5544 64.9577 60.9971 54.1839 60.0609 51.8079 48.3867 56.3952 28.6846 71.6959 140.011 141.036 71.6959 71.6959 140.011 280.017 141.036 132.566 247.809 244.81 132.566 71.6959 71.6959 140.011 141.036 71.6959 132.566 71.6959 68.3151 125.598 138.982 125.598 263.029 115.243 214.936 236.405 68.3151 68.3151 125.598 138.982 115.243 68.3151 57.2831 114.625 124.048 114.625 247.182 99.6929 210.901 223.096 57.2831 57.2831 114.625 124.048 99.6929 57.2831 57.342 121.878 123.134 121.878 251.054 111.208 231.145 234.337 57.342 57.342 121.878 123.134 111.208 57.342 64.5356 125.735 127.921 125.735 254.424 119.937 227.552 231.189 64.5356 64.5356 125.735 127.921 119.937 64.5356 61.1999 109.747 126.503 109.747 223.738 107.615 194.416 219.835 61.1999 61.1999 109.747 126.503 107.615 61.1999 48.5471 102.842 97.2343 102.842 211.713 86.8013 177.474 182.68 48.5471 48.5471 102.842 97.2343 86.8013 48.5471 54.2949 99.3318 114.479 99.3318 207.189 90.6731 185.256 188.849 54.2949 54.2949 99.3318 114.479 90.6731 54.2949 45.0369 96.0599 92.7103 96.0599 191.802 94.5824 187.654 187.341 45.0369 45.0369 96.0599 92.7103 94.5824 45.0369 51.023 94.6522 99.0918 94.6522 180.296 93.0719 177.225 181.138 51.023 51.023 94.6522 99.0918 93.0719 51.023 43.6293 82.437 81.2042 82.437 157.179 84.1535 162.993 159.722 43.6293 43.6293 82.437 81.2042 84.1535 43.6293 38.8077 87.3284 75.9746 87.3284 157.134 78.8393 162.218 141.878 38.8077 38.8077 87.3284 75.9746 78.8393 38.8077 48.5207 84.7932 81.1595 84.7932 150.694 83.379 152.461 149.886 48.5207 48.5207 84.7932 81.1595 83.379 48.5207 36.2725 72.6914 69.5341 72.6914 141.084 69.0822 138.411 142.541 36.2725 36.2725 72.6914 69.5341 69.0822 36.2725 36.4189 70.0838 71.5498 70.0838 138.402 69.3287 127.492 133.262 36.4189 36.4189 70.0838 71.5498 69.3287 36.4189 33.6649 64.9307 66.8521 64.9307 129.515 58.1634 114.312 122.079 33.6649 33.6649 64.9307 66.8521 58.1634 33.6649 31.2658 65.8624 62.663 65.8624 127.72 56.149 123.954 112.713 31.2658 31.2658 65.8624 62.663 56.149 31.2658 34.5966 62.4769 65.0573 62.4769 127.504 67.805 127.418 126.543 34.5966 34.5966 62.4769 65.0573 67.805 34.5966 27.8803 55.672 62.4465 55.672 124.856 59.6132 115.035 119.888 27.8803 27.8803 55.672 62.4465 59.6132 27.8803 27.7917 52.2052 62.4096 52.2052 113.209 55.4217 114.816 117.11 27.7917 27.7917 52.2052 62.4096 55.4217 27.7917 24.4135 50.6885 50.799 50.6885 107.033 59.3942 112.941 109.777 24.4135 24.4135 50.6885 50.799 59.3942 24.4135 26.2749 56.9388 56.2339 56.9388 111.767 53.5466 110.6 111.109 26.2749 26.2749 56.9388 56.2339 53.5466 26.2749 30.6639 53.4805 55.5332 53.4805 107.035 57.0534 105.87 105.668 30.6639 30.6639 53.4805 55.5332 57.0534 30.6639 22.8166 49.6194 51.5019 49.6194 104.658 48.8164 100.071 109.962 22.8166 22.8166 49.6194 51.5019 48.8164 22.8166 26.8029 50.9912 53.1563 50.9912 101.529 51.2544 105.886 107.622 26.8029 26.8029 50.9912 53.1563 51.2544 26.8029 24.1883 44.8972 48.3727 44.8972 93.9 54.6317 97.2759 102.621 24.1883 24.1883 44.8972 48.3727 54.6317 24.1883 20.7088 54.6731 45.5273 54.6731 106.067 42.6442 105.869 102.439 20.7088 20.7088 54.6731 45.5273 42.6442 20.7088 33.9643 57.65 60.5395 57.65 105.418 63.2249 124.738 113.032 33.9643 33.9643 57.65 60.5395 63.2249 33.9643 23.6857 42.651 44.8788 42.651 86.5634 61.5136 107.989 108.352 23.6857 23.6857 42.651 44.8788 61.5136 23.6857 18.9654 42.0555 41.6847 42.0555 88.2033 46.4756 98.0101 97.3071 18.9654 18.9654 42.0555 41.6847 46.4756 18.9654 23.0902 47.7882 46.5187 47.7882 100.073 51.5344 98.515 102.969 23.0902 23.0902 47.7882 46.5187 51.5344 23.0902 24.6981 24.6981 53.5548 24.6981 53.5548 46.9806 46.9806 101.846 24.6981 24.6981 24.6981 53.5548 46.9806 24.6981 60.8702 107.798 201.198 103.775 104.54 187.412 180.185 104.54 60.8702 107.798 103.775 60.8702 104.54 60.8702 89.3379 196.473 82.8723 155.722 170.896 46.9281 89.3379 97.4239 82.8723 46.9281 96.2755 210.251 72.8498 165.364 177.572 42.4098 96.2755 99.0487 72.8498 42.4098 109.267 214.471 92.5147 191.387 191.39 53.8657 109.267 111.203 92.5147 53.8657 101.817 196.6 98.8721 182.415 193.26 55.4014 101.817 103.268 98.8721 55.4014 84.6695 178.777 83.5432 162.331 168.49 46.4152 84.6695 93.3319 83.5432 46.4152 74.6325 159.815 78.788 153.052 167.646 38.2542 74.6325 85.4453 78.788 38.2542 85.9237 169.001 74.2643 162.261 151.761 36.3782 85.9237 74.37 74.2643 36.3782 91.5945 176.677 87.9966 167.343 168.788 49.5455 91.5945 94.6307 87.9966 49.5455 82.5732 160.565 79.346 157.538 153.183 42.049 82.5732 82.0465 79.346 42.049 80.5558 144.421 78.1922 149.092 146.62 40.5242 80.5558 78.5182 78.1922 40.5242 74.8899 134.63 70.9001 138.741 132.517 40.0316 74.8899 65.9033 70.9001 40.0316 67.6681 141.733 67.8407 125.134 138.719 34.8583 67.6681 68.7268 67.8407 34.8583 65.7196 134.719 57.2937 119.889 126.107 32.8097 65.7196 73.0067 57.2937 32.8097 57.4084 116.939 62.5956 116.371 128.125 32.9099 57.4084 61.7122 62.5956 32.9099 49.3817 105.277 53.7756 112.319 114.987 24.4985 49.3817 55.2268 53.7756 24.4985 58.0917 111.535 58.5437 121.303 113.546 24.8832 58.0917 50.0499 58.5437 24.8832 64.9413 118.927 62.7596 116.391 119.009 33.2084 64.9413 61.4854 62.7596 33.2084 59.3629 112.142 53.631 114.152 106.314 31.7329 59.3629 57.4419 53.631 31.7329 62.6107 113.679 60.5211 125.555 121.032 27.63 62.6107 54.7006 60.5211 27.63 62.2523 113.853 65.0343 120.347 116.695 34.9807 62.2523 58.9785 65.0343 34.9807 53.6611 105.009 55.3125 110.77 114.46 27.2717 53.6611 54.8746 55.3125 27.2717 52.3893 108.595 55.4575 106.587 104.997 26.3894 52.3893 50.1347 55.4575 26.3894 50.4514 112.926 51.1293 99.3791 114.354 25.9998 50.4514 58.4601 51.1293 25.9998 54.8949 108.713 48.2498 104.477 102.882 24.4516 54.8949 54.4655 48.2498 24.4516 52.3787 111.16 56.2273 99.1694 107.089 30.4433 52.3787 54.2479 56.2273 30.4433 51.196 109.404 42.9421 103.255 109.576 21.9354 51.196 56.9121 42.9421 21.9354 67.0885 115.965 60.3127 127.426 117.79 29.2606 67.0885 52.4921 60.3127 29.2606 65.3382 119.095 67.113 122.757 114.24 37.8279 65.3382 63.473 67.113 37.8279 55.9546 112.073 55.6439 113.003 109.178 27.5103 55.9546 55.6224 55.6439 27.5103 50.7268 104.741 57.359 111.499 116.531 28.4443 50.7268 56.4503 57.359 28.4443 22.2825 48.2907 54.1396 54.1396 102.319 22.2825 22.2825 48.2907 54.1396 22.2825 43.6694 79.6136 149.883 76.4102 74.5947 142.604 129.652 74.5947 43.6694 79.6136 76.4102 43.6694 74.5947 43.6694 66.3842 151.996 68.0094 133.051 137.46 35.9442 66.3842 73.4724 68.0094 35.9442 69.0889 158.711 65.042 142.323 149.348 30.44 69.0889 78.5235 65.042 30.44 82.1197 170.18 77.2814 161.336 156.471 38.649 82.1197 80.1877 77.2814 38.649 80.5987 165.15 84.055 156.005 171.531 43.4707 80.5987 89.9918 84.055 43.4707 77.6617 157.358 71.9496 155.928 149.106 37.128 77.6617 75.1579 71.9496 37.128 78.4199 159.591 83.9783 164.434 165.87 40.5337 78.4199 82.2003 83.9783 40.5337 76.3373 151.549 80.4554 159.888 159.285 37.8861 76.3373 77.3909 80.4554 37.8861 75.7481 145.294 79.4329 160.63 147.054 38.4511 75.7481 74.1577 79.4329 38.4511 74.965 139.238 81.1973 155.69 147.74 37.297 74.965 71.1367 81.1973 37.297 68.5365 134.715 74.4931 141.155 134.875 37.668 68.5365 68.1016 74.4931 37.668 63.8509 136.606 66.6618 123.705 135.533 30.8685 63.8509 66.6139 66.6618 30.8685 57.4664 123.092 57.0436 108.651 127.62 32.9824 57.4664 69.9918 57.0436 32.9824 54.1697 119.513 51.607 110.63 120.56 24.484 54.1697 53.0999 51.607 24.484 58.9629 126.173 59.0228 115.197 131.232 29.6858 58.9629 66.4129 59.0228 29.6858 62.9376 123.257 56.1739 119.534 112.02 29.2771 62.9376 59.7603 56.1739 29.2771 63.2116 121.02 63.3606 122.287 120.975 33.6605 63.2116 63.4963 63.3606 33.6605 51.4492 106.395 58.9266 108.583 107.595 29.5511 51.4492 57.5232 58.9266 29.5511 54.7892 115.203 49.6568 109.479 111.269 21.8981 54.7892 48.8717 49.6568 21.8981 62.9447 124.048 59.8219 116.479 120.322 32.8911 62.9447 66.3316 59.8219 32.8911 58.0945 117.302 56.6569 111.781 121.67 30.0536 58.0945 57.7167 56.6569 30.0536 57.1089 114.447 55.1241 117.837 120.71 28.0409 57.1089 59.585 55.1241 28.0409 54.1976 110.756 62.7133 121.383 117.783 29.068 54.1976 54.8618 62.7133 29.068 48.9277 104.311 58.6699 98.8039 113.754 25.1295 48.9277 55.894 58.6699 25.1295 49.5822 101.258 40.134 98.6018 97.0097 23.7982 49.5822 48.4166 40.134 23.7982 46.7907 105.506 58.4678 107.6 107.286 25.784 46.7907 52.8416 58.4678 25.784 52.0587 117.962 49.1321 104.408 109.871 21.0067 52.0587 52.664 49.1321 21.0067 60.3371 116.065 55.2757 107.132 110.072 31.052 60.3371 65.298 55.2757 31.052 57.4187 104.322 51.856 101.203 99.5653 29.2851 57.4187 50.7666 51.856 29.2851 57.0484 113.637 49.3474 104.061 101.447 28.1336 57.0484 53.5557 49.3474 28.1336 60.7718 114.109 54.7135 109.076 113.921 28.9147 60.7718 60.081 54.7135 28.9147 31.8571 54.0283 54.3626 54.3626 105.422 31.8571 31.8571 54.0283 54.3626 31.8571 30.9253 62.9904 117.229 53.2415 63.7605 133.755 115.143 63.7605 30.9253 62.9904 53.2415 30.9253 63.7605 30.9253 66.6672 134.812 69.9941 151.909 145.454 32.0651 66.6672 63.9875 69.9941 32.0651 73.2344 147.107 81.9145 170.877 163.161 34.602 73.2344 70.8245 81.9145 34.602 79.2167 157.822 88.9628 170.93 171.369 38.6324 79.2167 76.2829 88.9628 38.6324 75.406 155.487 81.9675 162.234 164.333 40.5843 75.406 81.5392 81.9675 40.5843 78.2663 157.618 80.2668 165.366 160.081 34.8217 78.2663 73.948 80.2668 34.8217 86.0139 165.564 85.0988 172.485 169.915 43.4446 86.0139 83.6699 85.0988 43.4446 83.5511 154.79 87.386 174.843 166.999 42.5693 83.5511 81.8942 87.386 42.5693 84.882 149.5 87.4567 167.916 165.453 40.9817 84.882 72.8962 87.4567 40.9817 80.7254 143.377 80.4589 158.354 146.55 43.9003 80.7254 76.6037 80.4589 43.9003 72.6184 135.693 77.8947 141.195 150.51 36.8251 72.6184 66.7732 77.8947 36.8251 59.8545 126.548 63.3002 126.079 133.508 35.7933 59.8545 68.9194 63.3002 35.7933 51.1842 125.089 62.7784 124.238 135.992 24.0612 51.1842 57.6287 62.7784 24.0612 56.4601 132.28 61.4598 127.72 140.418 27.1231 56.4601 67.4605 61.4598 27.1231 56.2338 117.079 66.26 126.026 138.031 29.337 56.2338 64.8191 66.26 29.337 56.5969 109.739 59.7665 123.739 114.681 26.8968 56.5969 52.2596 59.7665 26.8968 59.0756 107.551 63.9729 122.224 128.034 29.7001 59.0756 57.479 63.9729 29.7001 57.1342 112.469 58.251 113.38 115.455 29.3755 57.1342 50.0722 58.251 29.3755 54.6895 116.387 55.1285 109.997 114.372 27.7587 54.6895 62.3971 55.1285 27.7587 53.5341 117.943 54.8681 110.905 113.592 26.9308 53.5341 53.9899 54.8681 26.9308 53.6865 125.078 56.0369 109.868 123.28 26.6033 53.6865 63.953 56.0369 26.6033 60.7285 124.046 53.831 120.155 116.421 27.0832 60.7285 61.1249 53.831 27.0832 67.1857 120.781 66.3242 123.814 125.396 33.6453 67.1857 62.9213 66.3242 33.6453 49.8762 106.453 57.49 99.7371 107.921 33.5404 49.8762 57.8598 57.49 33.5404 49.0196 103.037 42.2471 109.094 99.199 16.3358 49.0196 48.5931 42.2471 16.3358 60.8092 111.651 66.8471 116.725 117.907 32.6838 60.8092 54.4441 66.8471 32.6838 52.3491 101.981 49.8776 101.657 110.363 28.1254 52.3491 57.2066 49.8776 28.1254 46.7946 93.5728 51.7793 103.874 97.6455 24.2237 46.7946 44.774 51.7793 24.2237 43.7847 96.6904 52.0952 97.8087 102.611 22.5709 43.7847 48.7987 52.0952 22.5709 47.0125 101.732 45.7136 102.233 98.5777 21.2137 47.0125 47.8917 45.7136 21.2137 48.3043 105.234 56.5197 105.542 110.589 25.7987 48.3043 53.8401 56.5197 25.7987 22.5055 51.394 49.0222 49.0222 105.303 22.5055 22.5055 51.394 49.0222 22.5055 32.8352 70.7641 143.368 61.9016 75.7275 169.106 135.593 75.7275 32.8352 70.7641 61.9016 32.8352 75.7275 32.8352 85.2414 173.803 93.3789 185.976 190.146 37.9289 85.2414 81.4669 93.3789 37.9289 97.6428 187.422 92.5967 197.646 191.21 47.3125 97.6428 92.3366 92.5967 47.3125 91.7136 177.879 105.05 194.109 207.286 50.3304 91.7136 95.0857 105.05 50.3304 86.8283 168.926 89.0589 183.097 180.236 41.3833 86.8283 82.7935 89.0589 41.3833 87.0993 172.378 94.0378 183.852 182.338 45.4451 87.0993 86.133 94.0378 45.4451 86.4709 171.35 89.8137 181.926 181.833 41.6542 86.4709 86.2453 89.8137 41.6542 91.2916 177.662 92.1119 180.22 174.545 44.8167 91.2916 85.1049 92.1119 44.8167 83.0335 162.503 88.1078 170.508 176.39 46.475 83.0335 92.5568 88.1078 46.475 77.6282 153.683 82.4003 163.539 155.907 36.5586 77.6282 69.9465 82.4003 36.5586 68.5765 148.325 81.1384 148.711 163.829 41.0696 68.5765 83.7368 81.1384 41.0696 66.2241 142.951 67.573 141.615 145.647 27.5069 66.2241 64.5884 67.573 27.5069 73.054 151.32 74.0422 143.959 151.728 38.7172 73.054 78.3628 74.0422 38.7172 71.2597 146.169 69.9165 137.422 140.648 34.3368 71.2597 72.9577 69.9165 34.3368 69.7927 135.633 67.506 132.882 131.551 36.9229 69.7927 73.2117 67.506 36.9229 67.1425 132.977 65.3758 134.27 132.105 32.8697 67.1425 62.4216 65.3758 32.8697 63.1483 135.938 68.8939 129.262 133.39 34.2728 63.1483 70.5551 68.8939 34.2728 56.2453 117.358 60.3686 119.803 126.436 28.8755 56.2453 65.3831 60.3686 28.8755 55.307 111.577 59.4346 115.416 113.641 27.3698 55.307 51.9748 59.4346 27.3698 57.3709 118.93 55.9816 114.072 119.781 27.9373 57.3709 59.602 55.9816 27.9373 56.1814 114.624 58.0901 116.851 114.688 29.4336 56.1814 59.3275 58.0901 29.4336 59.4267 117.771 58.7612 116.009 115.108 26.7478 59.4267 55.2963 58.7612 26.7478 56.6285 112.536 57.2481 115.599 114.974 32.6789 56.6285 62.4749 57.2481 32.6789 49.8609 100.667 58.3505 112.284 111.376 23.9496 49.8609 50.0612 58.3505 23.9496 60.0746 114.069 53.934 113.451 103.006 25.9113 60.0746 50.6059 53.934 25.9113 55.9154 116.62 59.5171 111.134 120.927 34.1633 55.9154 63.4632 59.5171 34.1633 49.3077 106.028 51.6171 102.099 109.496 21.7521 49.3077 53.1567 51.6171 21.7521 57.0798 106.684 50.482 108.832 97.9816 27.5556 57.0798 52.8714 50.482 27.5556 54.0241 104.498 58.3498 110.897 111.929 29.5242 54.0241 53.8124 58.3498 29.5242 55.2208 107.435 52.5473 110.739 102.274 24.4998 55.2208 50.686 52.5473 24.4998 57.2376 110.658 58.1913 108.958 106.575 30.721 57.2376 56.7485 58.1913 30.721 26.5166 53.9091 50.7666 50.7666 99.8172 26.5166 26.5166 53.9091 50.7666 26.5166 42.8923 98.3423 182.37 73.6913 97.7196 224.656 170.682 97.7196 42.8923 98.3423 73.6913 42.8923 97.7196 42.8923 100.734 207.552 126.937 232.559 252.675 55.45 100.734 108.679 126.937 55.45 100.004 211.073 105.622 223.352 222.975 45.2842 100.004 98.8732 105.622 45.2842 102.395 209.643 117.73 230.984 239.654 54.7193 102.395 112.2 117.73 54.7193 96.2685 193.648 113.254 226.878 217.688 47.6757 96.2685 97.4427 113.254 47.6757 96.7522 191.793 113.624 211.803 217.777 48.5928 96.7522 96.2052 113.624 48.5928 95.4547 185.028 98.1786 188.901 201.183 48.1594 95.4547 95.5874 98.1786 48.1594 88.9281 173.274 90.7221 174.765 187.84 47.2952 88.9281 89.4406 90.7221 47.2952 87.4746 169.794 84.043 176.689 174.963 41.6329 87.4746 83.8336 84.043 41.6329 85.9105 166.053 92.6459 175.036 182.018 45.8417 85.9105 85.9606 92.6459 45.8417 80.1349 161.151 82.3904 163.879 174.65 40.0688 80.1349 80.0921 82.3904 40.0688 75.3911 154.424 81.489 155.102 163.852 40.0661 75.3911 81.0589 81.489 40.0661 70.9047 141.055 73.6131 151.416 149.305 35.325 70.9047 73.3648 73.6131 35.325 66.1627 126.03 77.8033 144.595 148.26 35.5797 66.1627 67.6907 77.8033 35.5797 63.0891 128.023 66.7914 135.577 131.694 30.5831 63.0891 58.3396 66.7914 30.5831 67.1272 132.518 68.7859 135.404 147.144 32.5061 67.1272 69.6837 68.7859 32.5061 66.1141 123.888 66.6183 132.247 128.636 34.6211 66.1141 62.8346 66.6183 34.6211 63.5579 122.719 65.6283 129.451 120.313 31.493 63.5579 61.053 65.6283 31.493 60.1092 121.846 63.8228 123.727 125.965 32.0649 60.1092 61.6664 63.8228 32.0649 56.7008 115.54 59.9037 117.012 127.222 28.0444 56.7008 60.1795 59.9037 28.0444 60.6698 115.172 57.1087 123.302 106.044 28.6565 60.6698 55.3605 57.1087 28.6565 56.5826 112.311 66.1933 118.949 126.412 32.0134 56.5826 59.8113 66.1933 32.0134 58.9701 113.814 52.7561 124.249 109.703 24.5692 58.9701 52.4994 52.7561 24.5692 62.4236 113.715 71.4932 124.56 127.71 34.4009 62.4236 61.3145 71.4932 34.4009 53.3765 109.864 53.0671 114.057 113.848 28.0227 53.3765 52.4001 53.0671 28.0227 55.2188 113.804 60.9901 127.723 122.512 25.3538 55.2188 57.4643 60.9901 25.3538 52.7913 101.45 66.7326 109.98 118.729 29.8649 52.7913 56.3398 66.7326 29.8649 51.7519 103.227 43.2479 100.21 89.9913 22.9264 51.7519 45.1102 43.2479 22.9264 56.873 109.704 56.9618 104.295 117.295 28.8255 56.873 58.1164 56.9618 28.8255 55.5178 101.414 47.3332 101.027 103.299 28.0475 55.5178 51.5877 47.3332 28.0475 51.7203 95.7348 53.6937 106.099 97.0734 27.4704 51.7203 49.8267 53.6937 27.4704 24.25 45.9081 52.4053 52.4053 107.065 24.25 24.25 45.9081 52.4053 24.25 54.8272 126.314 240.986 96.9904 129.455 286.293 244.089 129.455 54.8272 126.314 96.9904 54.8272 129.455 54.8272 131.824 268.098 156.838 294.268 321.089 71.4869 131.824 143.996 156.838 71.4869 123.348 251.557 137.43 274.847 272.946 60.3375 123.348 124.102 137.43 60.3375 128.589 247.7 137.417 274.923 278.791 63.0109 128.589 127.455 137.417 63.0109 130.609 241.817 137.506 268.494 269.481 65.5781 130.609 120.246 137.506 65.5781 115.051 227.167 130.988 240.777 254.347 65.0314 115.051 121.571 130.988 65.0314 93.4461 203.996 109.789 208.771 230.611 50.0192 93.4461 105.596 109.789 50.0192 85.8371 189.529 98.9821 198.617 216.862 43.4269 85.8371 98.3996 98.9821 43.4269 89.2143 187.187 99.635 207.265 205.15 42.4101 89.2143 91.1297 99.635 42.4101 89.1258 190.616 107.63 204.26 207.651 46.8042 89.1258 96.0578 107.63 46.8042 83.7444 177.351 96.6304 184.745 201.991 42.3216 83.7444 94.5582 96.6304 42.3216 79.7109 158.732 88.1148 171.178 172.9 41.4228 79.7109 82.7926 88.1148 41.4228 80.5117 156.509 83.0636 163.558 167.022 38.2881 80.5117 75.9398 83.0636 38.2881 78.432 153.924 80.4947 160.262 168.561 42.2236 78.432 80.5695 80.4947 42.2236 72.4882 150.815 79.7673 154.963 153.418 36.2084 72.4882 73.3548 79.7673 36.2084 68.2771 143.261 75.1958 145.217 154.046 36.2799 68.2771 77.4599 75.1958 36.2799 66.1325 125.062 70.0214 139.918 141.118 31.9972 66.1325 65.8016 70.0214 31.9972 65.8932 123.559 69.8968 134.37 128.279 34.1353 65.8932 59.26 69.8968 34.1353 63.6173 131.341 64.4731 134.327 132.03 31.7579 63.6173 64.2987 64.4731 31.7579 60.3116 117.726 69.8541 133.408 141.652 31.8593 60.3116 67.0427 69.8541 31.8593 62.6322 117.284 63.5539 127.093 112.545 28.4523 62.6322 50.6831 63.5539 28.4523 62.3668 123.805 63.5396 122.757 122.964 34.1799 62.3668 66.601 63.5396 34.1799 65.2792 123.599 59.2171 118.77 118.28 28.1869 65.2792 57.2039 59.2171 28.1869 62.1367 127.843 59.5528 113.422 115.065 37.0923 62.1367 66.3951 59.5528 37.0923 60.6806 126.495 53.8691 114.74 123.999 25.0444 60.6806 61.4476 53.8691 25.0444 72.5039 127.437 60.8704 127.538 113.972 35.6362 72.5039 65.0473 60.8704 35.6362 57.1892 107.271 66.6676 118.169 119.356 36.8677 57.1892 62.3895 66.6676 36.8677 48.4577 104.06 51.5015 99.9113 105.441 20.3215 48.4577 44.8812 51.5015 20.3215 47.4219 110.89 48.4098 91.9198 103.507 28.1362 47.4219 59.1787 48.4098 28.1362 45.509 98.9581 43.51 104.316 104.835 19.2857 45.509 51.7114 43.51 19.2857 54.3787 108.404 60.8057 114.701 108.152 26.2233 54.3787 47.2467 60.8057 26.2233 28.1554 61.1569 53.8956 53.8956 115.295 28.1554 28.1554 61.1569 53.8956 28.1554 74.6281 159.979 324.192 147.098 74.6281 159.979 147.098 74.6281 74.6281 159.979 147.098 74.6281 74.6281 74.6281 162.444 325.937 85.3509 162.444 177.093 85.3509 162.444 177.093 85.3509 85.3509 151.499 300.181 77.093 151.499 148.844 77.093 151.499 148.844 77.093 77.093 146.334 300.572 74.4058 146.334 151.337 74.4058 146.334 151.337 74.4058 74.4058 137.885 282.012 71.9281 137.885 149.236 71.9281 137.885 149.236 71.9281 71.9281 125.726 257.791 65.9566 125.726 132.776 65.9566 125.726 132.776 65.9566 65.9566 115.325 243.477 59.7699 115.325 125.015 59.7699 115.325 125.015 59.7699 59.7699 112.78 232.483 55.5552 112.78 118.462 55.5552 112.78 118.462 55.5552 55.5552 118.05 225.614 57.2248 118.05 114.021 57.2248 118.05 114.021 57.2248 57.2248 115.134 219.026 60.8255 115.134 111.594 60.8255 115.134 111.594 60.8255 60.8255 101.001 197.539 54.3088 101.001 107.432 54.3088 101.001 107.432 54.3088 54.3088 91.4676 181.189 46.692 91.4676 90.1069 46.692 91.4676 90.1069 46.692 46.692 83.0466 179.073 44.7756 83.0466 91.0818 44.7756 83.0466 91.0818 44.7756 44.7756 81.83 168.054 38.2711 81.83 87.9913 38.2711 81.83 87.9913 38.2711 38.2711 82.4749 156.649 43.5589 82.4749 80.063 43.5589 82.4749 80.063 43.5589 43.5589 76.9401 151.902 38.9159 76.9401 76.586 38.9159 76.9401 76.586 38.9159 38.9159 73.7857 144.335 38.0241 73.7857 75.316 38.0241 73.7857 75.316 38.0241 38.0241 68.4767 136.751 35.7615 68.4767 69.0195 35.7615 68.4767 69.0195 35.7615 35.7615 70.7099 142.341 32.7151 70.7099 67.7314 32.7151 70.7099 67.7314 32.7151 32.7151 73.0963 136.472 37.9948 73.0963 74.6095 37.9948 73.0963 74.6095 37.9948 37.9948 64.4613 118.225 35.1016 64.4613 61.8623 35.1016 64.4613 61.8623 35.1016 35.1016 60.39 117.44 29.3597 60.39 56.363 29.3597 60.39 56.363 29.3597 29.3597 53.4907 109.746 31.0303 53.4907 61.0766 31.0303 53.4907 61.0766 31.0303 31.0303 51.2851 111.221 22.4604 51.2851 48.6697 22.4604 51.2851 48.6697 22.4604 22.4604 54.0589 111.477 28.8247 54.0589 62.5515 28.8247 54.0589 62.5515 28.8247 28.8247 55.0341 105.891 25.2342 55.0341 48.9252 25.2342 55.0341 48.9252 25.2342 25.2342 60.9799 117.526 29.7999 60.9799 56.9661 29.7999 60.9799 56.9661 29.7999 29.7999 51.4535 104.888 31.18 51.4535 60.5595 31.18 51.4535 60.5595 31.18 31.18 44.4979 97.4514 20.2736 44.4979 44.3282 20.2736 44.4979 44.3282 20.2736 20.2736 58.8067 114.028 24.2243 58.8067 53.1232 24.2243 58.8067 53.1232 24.2243 24.2243 60.3226 115.044 34.5824 60.3226 60.9052 34.5824 60.3226 60.9052 34.5824 34.5824 25.7402 54.1384 25.7402 25.7402 54.1384 25.7402 25.7402 54.1384 25.7402 25.7402 140.006 134.585 69.3398 287.955 134.585 233.406 217.552 112.244 69.3398 140.006 134.585 69.3398 112.244 69.3398 137.431 153.37 283.822 244.565 254.792 70.6664 137.431 153.37 121.162 70.6664 132.556 130.452 265.953 246.532 244.238 66.7644 132.556 130.452 123.403 66.7644 129.177 135.501 258.586 234.381 241.803 65.792 129.177 135.501 123.129 65.792 128.688 123.086 253.852 223.472 221.716 63.3849 128.688 123.086 111.252 63.3849 113.991 130.767 235.58 208.098 227.083 65.3034 113.991 130.767 112.22 65.3034 108.871 104.813 216.991 194.054 191.025 48.6873 108.871 104.813 95.8783 48.6873 107.857 112.178 201.691 190.934 194.9 60.1841 107.857 112.178 98.1758 60.1841 95.7422 89.5135 176.473 180.825 183.568 47.6734 95.7422 89.5135 92.7586 47.6734 85.6438 86.9599 166.74 163.635 172.423 48.0689 85.6438 86.9599 88.0664 48.0689 74.7418 79.7803 155.213 138.607 154.928 37.5749 74.7418 79.7803 75.5689 37.5749 69.8057 75.4328 142.833 129.546 135.917 37.1669 69.8057 75.4328 63.0386 37.1669 65.9005 67.4005 139.165 139.966 134.353 32.6389 65.9005 67.4005 66.5073 32.6389 68.3925 71.7641 144.497 137.392 145.324 33.2616 68.3925 71.7641 73.4586 33.2616 68.3181 72.7329 138.164 127.849 136.653 35.1309 68.3181 72.7329 63.9332 35.1309 64.5844 65.4315 123.217 120.479 130.685 33.1872 64.5844 65.4315 63.9155 33.1872 61.8579 57.7859 112.962 115.302 110.207 31.3972 61.8579 57.7859 56.5638 31.3972 65.0269 55.1761 121.931 119.013 116.266 30.4607 65.0269 55.1761 58.7377 30.4607 69.1841 66.7548 133.495 121.964 123.376 34.5662 69.1841 66.7548 60.2752 34.5662 61.0033 66.7404 125.213 112.072 115.956 34.6179 61.0033 66.7404 61.6885 34.6179 56.3444 58.4721 108.527 107.945 107.522 26.3854 56.3444 58.4721 50.3832 26.3854 54.8282 50.0551 104.273 106.176 106.894 29.959 54.8282 50.0551 57.562 29.959 53.5546 54.2182 106.312 109.76 110.01 24.8692 53.5546 54.2182 48.6145 24.8692 55.0388 52.0937 110.169 117.513 114.73 28.6854 55.0388 52.0937 61.1457 28.6854 50.5378 58.0757 108.934 104.356 121.57 26.3534 50.5378 58.0757 56.3674 26.3534 49.0029 50.8579 98.7279 107.784 97.3869 24.1844 49.0029 50.8579 47.989 24.1844 51.3936 47.8699 99.3184 109.602 114.141 24.8185 51.3936 47.8699 59.7952 24.8185 47.7682 51.4485 98.8142 96.6448 107.484 26.5751 47.7682 51.4485 49.8066 26.5751 43.9124 47.3657 89.0374 97.6696 103.748 21.1931 43.9124 47.3657 46.8382 21.1931 46.1478 41.6717 89.6248 102.266 104.411 22.7193 46.1478 41.6717 50.8315 22.7193 52.2852 47.9532 103.23 106.3 98.0371 23.4285 52.2852 47.9532 51.4345 23.4285 28.8567 55.2768 55.2768 54.865 101.36 28.8567 28.8567 55.2768 54.865 28.8567 184.389 82.9663 163.669 148.977 75.6451 93.4001 82.9663 42.9043 75.6451 42.9043 215.208 192.746 179.226 107.135 101.422 88.024 50.4958 220.088 203.598 207.535 113.976 113.786 104.722 56.6388 204.933 193.264 199.462 105.204 106.302 98.8758 57.337 194.947 179.335 187.671 94.7836 98.6309 94.388 47.867 182.528 173.804 172.676 94.1078 96.3162 84.9466 46.9167 168.934 166.354 174.523 85.1828 86.2117 88.8577 47.1911 176.777 158.288 161.403 83.077 82.7222 77.4966 37.9918 179.517 154.629 161.841 85.0828 94.0543 80.7917 45.0852 160.61 142.265 157.121 77.9915 85.463 73.8373 39.9975 135.631 130.045 138.321 63.8657 75.1473 68.4276 37.994 127.437 132.495 125.635 59.7401 60.4842 61.6171 25.8717 140.513 139.691 135.646 74.0654 66.9524 70.8778 33.8684 137.48 134.342 137.14 68.9993 73.5602 68.8129 40.197 129.173 126.741 127.063 59.5305 63.9196 65.5294 28.8023 117.675 116.214 124.597 55.8949 65.2537 61.2114 30.7282 113.511 111.252 110.446 53.4437 52.4211 55.0025 25.1667 117.712 108.932 116.825 53.986 61.0903 56.249 28.277 105.837 113.194 120.273 52.7796 56.6215 52.6826 25.709 98.2657 112.172 119.202 51.0684 49.2158 60.5111 27.0706 105.889 110.808 104.644 51.6007 49.0499 51.6609 23.9978 112.63 108.686 117.006 51.3482 56.8388 59.1471 27.6029 118.428 112.764 111.206 56.2056 55.7914 49.539 23.7453 126.131 117.857 114.822 62.4742 62.6367 63.2248 32.4603 110.024 105.494 109.329 53.8185 63.4946 54.6323 30.0139 112.801 117.496 104.944 58.7813 46.529 50.8621 23.8046 122.307 124.111 125.903 58.2082 66.2716 66.634 34.9767 112.417 104.604 118.752 48.8765 56.0351 57.4774 23.2315 119.121 100.661 105.35 53.7572 56.3821 47.1266 25.6451 112.823 112.707 118.933 56.1182 62.7394 53.5342 28.1121 96.1675 107.352 109.597 54.0143 50.084 59.1723 28.0061 46.0835 48.1795 89.5772 26.0082 46.0835 48.1795 26.0082 143.815 66.0107 124.508 118.45 55.057 70.269 66.0107 32.7408 55.057 32.7408 171.553 153.757 144.619 85.6117 77.8041 69.4505 37.5282 186.909 163.495 166.728 89.6223 93.749 84.306 48.0835 182.2 166.665 167.245 88.0598 93.1603 79.1893 41.5388 165.399 164.632 166.802 84.551 89.0397 87.4759 46.521 164.671 159.048 156.118 79.6966 76.3595 77.1562 38.03 166.993 160.722 169.584 81.1714 88.3117 81.8919 41.6666 146.468 146.451 152.716 75.2113 78.6808 78.8297 39.5048 139.445 134.164 133.517 69.5462 67.7869 67.621 35.7065 134.832 126.925 142.315 64.2733 71.658 66.5432 33.8397 128.325 129.253 123.583 66.179 63.1741 60.3817 30.4336 133.845 139.448 136.116 72.7548 65.1507 68.8715 35.7454 132.274 139.53 129.966 65.6252 68.6939 70.5769 37.0093 126.724 141.163 135.875 65.343 63.5802 68.9534 28.6159 122.487 128.055 126.95 67.2103 63.1434 72.2092 36.7271 117.368 113.461 116.004 60.319 59.3432 55.8459 30.4831 113.759 106.283 117.443 57.8079 58.0247 57.6147 29.8359 119.386 110.281 103.715 54.9456 55.7348 48.6687 27.972 133.638 122.112 124.018 60.4142 63.6514 61.612 26.9736 125.58 125.513 119.134 61.1037 69.9866 60.4997 33.4406 115.761 130.599 128.663 59.2073 55.5937 65.0128 27.6631 115.582 120.656 121.66 57.3379 60.1675 65.5858 31.5441 107.6 110.154 121.271 56.5582 55.4149 55.0698 25.7937 98.019 111.96 101.038 55.3829 52.1849 55.084 30.7645 104.249 105.694 110.282 51.676 45.8341 56.8756 24.6184 118.046 109.556 112.989 58.7149 58.4148 48.8179 27.0576 122.348 115.535 112.915 65.9032 59.6315 60.7385 31.6573 111.684 102.506 113.148 55.7274 62.7166 54.7963 34.2459 105.162 99.8093 94.475 46.9036 48.9679 47.7093 21.4815 115.707 111.308 111.474 56.5883 56.1937 52.1 25.4221 103.007 110.267 105.218 53.3375 59.5128 59.2077 31.1663 43.4937 51.0597 99.9764 22.1713 43.4937 51.0597 22.1713 119.255 52.4397 126.843 107.994 51.3826 54.2386 52.4397 22.3162 51.3826 22.3162 139.794 156.707 152.944 68.1448 66.8152 75.4603 31.9224 147.064 163.652 171.16 73.873 72.9789 81.2466 36.2225 151.847 164.771 161.176 78.6054 74.085 82.4059 37.6505 157.52 162.179 163.695 80.0812 77.7621 82.3651 40.9549 161.031 164.631 160.145 79.3516 79.7583 79.8142 39.1263 155.308 164.43 162.314 79.5502 81.2725 84.8164 40.2253 139.766 157.609 149.749 71.2394 74.0355 79.6131 39.3249 136.388 144.088 150.666 64.6179 65.7306 77.9963 31.9145 131.067 138.707 137.156 62.6516 70.6574 66.0914 32.7034 131.375 142.823 138.952 63.0743 60.4092 72.6153 29.9481 132.238 143.421 138.676 66.6937 70.9654 70.2076 33.1261 133.567 152.171 135.394 73.905 61.2722 73.2131 33.5675 136.101 150.729 144.035 75.8195 72.2946 78.9584 40.3375 120.468 126.686 131.575 60.8449 63.8067 71.7709 35.4821 116.079 118.976 118.745 53.1417 56.661 54.9147 25.3628 107.398 121.266 129.724 48.4756 59.4179 64.0613 27.7789 108.346 116.448 114.913 55.3351 47.9804 57.2043 20.6967 109.513 117.967 117.141 61.6975 60.3661 59.2434 34.6384 122.217 125.967 107.51 64.4088 49.1473 58.7239 27.0591 134.562 129.834 134.581 71.3914 73.0696 67.2436 37.3497 127.349 121.662 122.919 63.3178 61.4928 62.5902 34.0417 114.709 109.503 132.363 53.5955 65.8561 59.0721 29.276 113.301 107.383 101.43 56.5767 48.8533 50.431 24.3195 119.021 108.012 118.849 54.0176 64.4474 56.9519 32.2573 107.857 111.546 107.804 50.8416 54.5739 51.0603 21.7604 103.714 106.352 110.782 49.6316 53.283 60.4858 29.0812 95.9381 96.3821 98.2258 46.7782 50.431 45.8662 20.5504 100.788 103.38 96.1422 52.9057 45.5071 50.516 26.2278 100.985 106.933 115.693 54.7193 55.2805 52.8641 26.6779 102.188 110.35 99.8278 56.9298 45.705 54.0689 28.0414 56.4827 56.2809 113.584 28.8885 56.4827 56.2809 28.8885 141.683 55.5544 156.632 117.735 59.8654 72.6044 55.5544 29.0664 59.8654 29.0664 184.31 195.38 186.913 88.5621 86.1288 96.7671 43.5379 185.272 200.849 202.904 89.7795 98.1813 98.6131 45.0242 173.024 193.413 192.146 86.1656 87.0905 102.236 44.7554 166.32 179.478 189.184 82.0982 85.9333 91.1773 41.4102 161.428 180.319 172.172 85.2791 80.3868 88.3003 40.6879 156.755 174.453 172.487 84.8794 81.041 92.0191 44.5911 160.65 170.716 160.743 86.3701 75.7137 82.4336 40.2882 151.435 161.789 170.492 79.4698 84.9358 88.2826 46.0819 145.042 156.197 148.095 76.0551 66.4989 73.5069 33.3879 146.254 160.765 156.356 79.7487 78.5431 82.6905 42.6672 141.832 155.76 146.098 76.7271 67.7108 78.0743 37.0815 145.862 148.417 146.645 78.2665 74.1217 77.6854 39.6456 139.509 134.777 142.15 74.9097 71.7406 70.7319 38.6209 129.852 130.775 129.006 65.8406 67.7683 64.0453 36.2888 132.39 131.225 130.042 65.8342 62.0836 66.7295 29.5519 137.239 130.563 133.715 72.79 70.3062 64.4958 36.2824 123.708 120.274 128.553 61.1127 66.9328 66.0676 36.5076 115.138 118.006 115.057 56.2698 56.7752 54.2066 24.6051 119.874 120.398 118.937 61.5586 58.3624 63.7998 31.6648 122.938 112.944 124.904 58.4424 61.5118 56.5979 29.8939 127.933 114.073 117.599 58.3446 61.4265 56.3465 28.5485 119.083 110.751 126.645 55.9076 66.5066 57.7262 29.7961 106.979 102.097 103.524 50.8062 52.5768 53.0252 26.1116 107.632 110.482 105.167 53.9945 54.4017 49.072 24.6946 110.729 119.29 113.116 60.7045 53.2302 61.4103 29.2999 105.294 105.379 108.681 56.7204 57.499 57.8794 31.4046 98.43 101.079 98.2058 49.604 47.7949 47.4996 25.3158 111.048 103.305 104.225 50.4744 50.6351 53.579 24.2882 114.536 98.1104 112.576 52.2138 60.4129 49.7264 26.1862 111.224 97.4345 101.42 53.42 54.1228 48.3839 26.0276 57.1013 49.0506 105.472 27.3925 57.1013 49.0506 27.3925 162.965 62.1806 198.7 150.727 72.9622 84.0281 62.1806 30.799 72.9622 30.799 205.506 243.091 233.503 106.818 100.784 125.738 53.2291 209.778 239.278 236.377 111.07 104.722 117.354 53.5889 208.306 226.359 230.625 107.248 105.055 121.924 57.4806 195.036 208.587 219.936 97.3795 103.251 104.435 49.7671 183.232 207.157 208.078 95.0403 91.7857 104.152 47.6124 176.475 200.123 202.156 89.5733 91.4461 103.005 47.4279 170.586 188.038 193.866 84.3461 85.0291 97.1181 42.1454 167.153 180.293 178.884 82.3196 85.5564 90.9202 42.2007 159.409 181.633 173.31 80.1423 81.5964 89.3726 40.1189 156.2 174.623 176.588 81.0162 77.8128 92.26 40.0234 150.91 158.054 160.06 79.0326 78.3874 82.3625 40.9928 142.932 146.148 159.386 70.1508 72.5229 75.6916 38.0398 131.647 135.36 141.9 59.8676 70.4092 70.4569 32.111 129.196 143.261 133.796 64.9342 61.238 64.903 27.7565 131.367 140.375 140.696 65.3911 67.9583 78.3577 37.1776 125.029 116.702 126.906 57.7734 63.4084 62.0178 28.2135 119.902 116.827 125.307 59.1615 61.6201 54.6846 29.56 118.857 129.461 127.153 61.7367 58.2823 62.1423 29.6016 123.966 116.253 125.422 58.8391 60.5742 67.3185 32.1351 119.564 109.154 111.115 54.502 63.3919 48.9348 26.704 116.31 117.166 121.065 55.7281 56.1721 60.219 27.798 111.085 113.164 118.758 54.8438 60.138 56.9472 27.9302 101.713 116.997 114.662 51.291 50.9474 56.2164 26.9136 110.651 122.302 115.499 56.4878 50.7655 60.7806 24.3774 111.068 113.518 117.537 58.5853 59.8854 61.5215 32.1104 101.593 98.7401 110.784 48.6586 51.1821 51.9967 26.4748 104.001 107.077 99.8169 51.4746 50.4109 46.7434 22.1838 105.753 116.299 117.347 52.8311 53.5896 60.3333 29.2909 99.4603 99.3457 109.997 45.8966 52.1629 55.966 23.5402 95.6683 98.0393 99.4834 44.0145 47.2974 43.3798 22.3564 48.3708 54.6596 105.077 21.6581 48.3708 54.6596 21.6581 221.266 88.5466 278.884 226.217 114.633 114.672 88.5466 42.1632 114.633 42.1632 264.374 299.767 301.373 136.273 132.719 164.251 72.5086 257.224 276.89 276.994 128.208 131.655 135.516 63.7646 242.255 273.35 276.858 119.111 125.57 141.374 64.4436 232.979 255.335 264.208 111.207 116.686 131.975 54.6675 227.003 244.181 242.725 112.117 116.293 123.36 56.54 219.548 238.701 238.529 110.549 110.71 120.822 55.5767 202.165 223.395 225.78 103.692 108.837 117.88 54.9727 185.041 205.537 207.246 97.9732 93.3278 105.515 48.7195 190.488 205.382 191.238 101.49 91.7136 100.022 49.2537 180.447 190.145 210.436 93.6064 98.7747 105.36 52.2366 168.535 168.743 167.577 79.0215 81.6725 84.7847 41.3698 158.354 172.024 171.944 75.9976 86.863 83.958 37.6518 144.048 161.717 167.966 75.4923 71.4907 88.0661 38.3458 145.295 152.501 154.209 78.3265 72.5577 73.6505 37.1465 136.235 149.946 148.726 74.9844 72.7374 78.8501 41.18 127.185 129.479 140.567 58.929 63.498 71.0962 33.8043 132.558 125.94 134.417 57.6654 63.6871 58.3826 25.1247 133.718 139.355 133.264 67.7241 68.8707 67.557 32.5407 112.571 120.79 130.358 57.4142 64.8477 71.7981 35.1834 112.616 108.416 103.159 54.6518 47.7231 48.9915 22.2308 123.513 118.488 118.728 61.4381 64.8932 59.4243 32.421 122.334 114.575 118.086 58.3198 58.6197 59.0633 29.017 128.449 125.642 118.613 65.706 63.7147 55.5121 29.3028 122.386 123.232 128.111 65.8142 64.7339 70.13 36.4032 117.253 105.79 107.82 54.9329 57.6518 53.102 29.411 109.007 106.627 111.407 50.0815 59.6015 52.688 25.5219 113.163 109.036 110.952 55.6021 49.406 53.9392 24.5597 121.591 116.422 109.903 63.4682 63.757 55.0971 31.0425 110.02 108.671 112.821 53.4491 57.8343 61.3245 32.4257 108.893 108.746 103.758 54.0249 52.186 47.3462 21.0234 56.7066 61.3997 111.22 33.0015 56.7066 61.3997 33.0015 306.325 137.671 164.213 137.671 72.4701 164.213 137.671 72.4701 72.4701 72.4701 313.993 163.494 168.654 163.494 168.654 91.7426 91.7426 296.627 148.682 145.339 148.682 145.339 71.751 71.751 298.811 154.239 151.288 154.239 151.288 76.9308 76.9308 273.954 144.127 147.523 144.127 147.523 77.3078 77.3078 254.251 132.064 126.432 132.064 126.432 66.8196 66.8196 244.762 128.152 127.819 128.152 127.819 65.2448 65.2448 230.86 119.703 116.942 119.703 116.942 62.9069 62.9069 213.442 107.564 113.918 107.564 113.918 56.7958 56.7958 211.185 103.892 99.5243 103.892 99.5243 50.7681 50.7681 197.566 96.5385 111.661 96.5385 111.661 53.1236 53.1236 170.986 89.7211 85.905 89.7211 85.905 43.4149 43.4149 181.556 96.0265 85.0807 96.0265 85.0807 46.3062 46.3062 178.126 86.2243 96.475 86.2243 96.475 49.7203 49.7203 157.64 74.1741 81.6515 74.1741 81.6515 36.504 36.504 153.058 74.9619 75.9889 74.9619 75.9889 37.6701 37.6701 147.799 70.5498 77.0695 70.5498 77.0695 37.2918 37.2918 135.122 68.2742 70.7294 68.2742 70.7294 33.2579 33.2579 129.904 71.631 64.3929 71.631 64.3929 35.0163 35.0163 120.947 63.3755 65.5107 63.3755 65.5107 36.6147 36.6147 109.271 53.764 55.4361 53.764 55.4361 26.7607 26.7607 113.301 57.0496 53.8346 57.0496 53.8346 27.0033 27.0033 114.365 56.2556 59.4662 56.2556 59.4662 30.0463 30.0463 118.276 59.9361 54.8985 59.9361 54.8985 26.2093 26.2093 113.546 57.4178 63.3775 57.4178 63.3775 33.7268 33.7268 101.974 50.8571 50.1686 50.8571 50.1686 23.691 23.691 113.352 56.5456 51.8058 56.5456 51.8058 27.1661 27.1661 107.693 53.4342 61.5464 53.4342 61.5464 29.3795 29.3795 101.133 52.9535 46.1464 52.9535 46.1464 24.0547 24.0547 106.559 55.2217 54.9867 55.2217 54.9867 28.8988 28.8988 106.086 54.7211 51.5719 54.7211 51.5719 26.3229 26.3229 54.5139 28.3983 54.5139 28.3983 54.5139 28.3983 28.3983 147.949 125.316 65.2455 287.563 125.316 238.938 201.121 105.307 65.2455 147.949 125.316 65.2455 105.307 65.2455 146.392 162.247 297.905 254.465 267.58 82.7038 146.392 162.247 133.63 82.7038 133.397 135.658 267.333 239.508 249.705 63.6879 133.397 135.658 120.835 63.6879 129.41 131.675 253.85 229.138 233.486 69.7089 129.41 131.675 118.674 69.7089 125.164 122.175 248.135 225.327 232.88 59.7006 125.164 122.175 110.465 59.7006 121.589 125.961 241.713 210.009 223.064 65.4632 121.589 125.961 114.863 65.4632 108.119 115.753 213.787 191.87 200.892 56.1257 108.119 115.753 95.1464 56.1257 93.8337 98.0343 190.952 187.533 186.484 51.9936 93.8337 98.0343 96.7241 51.9936 80.7311 92.9177 176.797 175.166 183.053 41.8401 80.7311 92.9177 90.8092 41.8401 81.0964 83.8791 167.742 163.715 167.039 38.891 81.0964 83.8791 84.3565 38.891 80.4713 83.8624 158.136 152.237 155.991 42.2054 80.4713 83.8624 79.3587 42.2054 73.0276 74.2732 153.477 140.724 149.573 38.2659 73.0276 74.2732 72.8784 38.2659 73.2642 79.2041 153.192 139.711 146.328 34.7617 73.2642 79.2041 67.8456 34.7617 76.1045 73.9877 147.301 144.585 149.103 38.5025 76.1045 73.9877 71.8657 38.5025 69.8463 73.3134 137.176 139.489 137.916 37.602 69.8463 73.3134 72.7194 37.602 58.633 63.8631 122.772 120.413 131.44 32.2442 58.633 63.8631 66.7697 32.2442 51.1042 58.9092 107.666 111.172 110.245 26.3888 51.1042 58.9092 53.6432 26.3888 56.904 48.7565 110.023 120.63 109.57 24.7154 56.904 48.7565 57.5287 24.7154 64.3111 61.2668 121.248 117.369 124.413 32.1886 64.3111 61.2668 63.1011 32.1886 64.2092 59.981 119.846 111.407 109.051 32.1225 64.2092 59.981 54.2677 32.1225 52.1828 59.8652 114.645 106.471 111.026 32.0867 52.1828 59.8652 57.1388 32.0867 49.445 54.7797 116.833 110.727 108.876 20.0961 49.445 54.7797 49.3319 20.0961 52.7572 62.0537 109.489 114.98 116.521 29.3489 52.7572 62.0537 61.395 29.3489 55.1306 47.4354 111.628 118.788 104.998 23.4083 55.1306 47.4354 53.5848 23.4083 58.3958 64.1927 122.162 114.601 123.672 31.7222 58.3958 64.1927 65.2029 31.7222 49.725 57.9696 103.934 103.744 106.985 26.6735 49.725 57.9696 49.398 26.6735 47.9248 45.9649 88.4841 112.023 101.804 23.0514 47.9248 45.9649 54.3463 23.0514 51.0459 42.5192 96.2069 114.587 102.35 24.8733 51.0459 42.5192 57.6769 24.8733 45.125 53.6876 110.649 110.489 115.717 26.1726 45.125 53.6876 56.9096 26.1726 43.477 56.9616 103.691 100.182 119.525 18.9524 43.477 56.9616 53.5796 18.9524 50.9447 46.7294 92.0586 93.0979 92.1817 24.5247 50.9447 46.7294 46.6026 24.5247 26.42 45.3292 45.3292 46.4953 89.0041 26.42 26.42 45.3292 46.4953 26.42 181.139 75.8056 164.534 128.92 73.3319 90.9885 75.8056 40.062 73.3319 40.062 219.38 194.015 186.531 108.073 105.333 91.2025 50.9265 215.857 203.399 205.935 106.112 114.047 102.812 57.1467 212.515 193.869 195.094 99.7289 101.81 100.586 48.965 207.808 181.012 196.16 100.163 110.705 93.2826 50.7639 182.242 173.395 173.346 88.4202 97.1031 87.729 49.3995 173.589 169.572 165.184 83.7511 85.1391 85.6658 39.0207 178.586 164.956 170.354 93.6995 88.4502 83.9065 44.7304 173.296 164.333 155.072 94.4346 90.1355 81.0494 48.9691 155.289 153.177 160.738 82.6188 83.1604 83.2837 45.4655 147.429 133.912 139.808 71.7657 72.129 69.8937 37.1533 142.424 128.786 139.729 67.6964 75.3002 64.0178 34.6125 142.239 133.096 130.187 66.4472 67.1236 64.7685 33.084 139.719 129.861 141.71 68.4805 75.1154 68.3275 33.3632 132.18 124.919 124.275 69.6428 64.6031 61.5336 35.1173 118.912 118.829 133.174 61.7798 67.5765 63.3855 34.5255 112.149 116.019 109.787 60.0677 51.3355 55.4432 27.2544 123.96 128.166 116.549 63.7258 60.8132 60.576 32.8133 112.216 126.282 132.505 53.0577 63.1464 67.5903 30.9125 100.23 111.674 113.974 47.1973 49.0699 58.6913 22.1452 105.257 110.842 116.202 54.288 51.1605 52.9827 25.0521 108.563 119.527 115.425 61.2819 54.0961 57.8592 29.2358 112.03 113.264 110.896 62.2225 54.4674 61.6673 32.0461 117.043 106.293 103.768 63.6571 57.563 51.5969 30.1764 108.495 108.778 102.306 56.2051 59.4795 54.6964 33.4807 104.854 113.351 106.87 54.0193 49.0151 54.0817 22.7245 115.67 120.543 114.689 64.0985 55.8391 59.2691 31.2949 121.86 119.498 116.655 63.5407 59.8308 61.2743 32.8036 124.592 123.622 119.257 65.3643 62.0292 58.2234 30.7371 108.016 115.823 119.144 56.7052 62.5633 65.3989 34.6273 89.1272 91.8222 97.5333 42.1532 45.4523 50.4245 22.0779 43.6749 41.3978 86.8094 20.0753 43.6749 41.3978 20.0753 134.312 53.1144 138.562 106.537 63.3935 73.5459 53.1144 33.27 63.3935 33.27 173.086 157.591 151.669 85.9414 81.1972 75.1688 40.276 185.173 170.478 160.884 97.287 91.8883 82.4219 45.6655 178.739 167.382 166.33 94.1402 93.2842 88.056 51.6215 161.698 158.287 167.718 80.8482 85.4549 79.3258 42.5187 156.288 166.654 154.121 84.9747 76.2433 78.9615 38.3295 161.949 161.579 167.064 85.8212 80.045 87.6924 46.6451 146.84 139.783 146.65 71.2564 81.904 73.8866 39.176 142.514 141.669 128.868 69.8986 64.9363 65.8964 32.0803 145.257 138.974 138.159 70.5587 77.578 75.7722 37.8182 132.108 130.446 136.506 62.1458 67.6788 63.2016 32.7405 127.492 126.634 132.45 61.0899 64.4289 67.2447 29.4053 129.658 126.311 118.025 66.6488 63.0632 59.3892 31.6846 126.267 121.662 124.644 61.3806 66.5948 66.9214 34.9643 125.269 114.899 112.707 55.2763 59.6719 54.741 26.4163 124.049 119.986 130.526 57.0489 65.5972 60.1582 28.86 114.188 114.874 120.968 55.9516 58.452 59.8279 28.1889 125.094 117.452 119.158 64.4406 55.7361 55.0464 27.7627 134.263 121.04 124.567 73.2239 69.3583 62.4056 36.6778 129.945 122.285 119.032 64.4766 64.9043 58.6342 36.5461 126.37 119.725 128.304 56.554 65.0411 63.6504 27.9306 117.758 122.276 110.787 58.2446 61.3289 56.0745 28.6234 102.635 112.156 127.99 51.0416 56.4291 66.2013 29.6212 89.0322 99.3601 101.07 42.6361 46.2055 45.9543 21.4204 100.682 117.577 99.257 52.5729 42.8268 53.4059 21.2157 116.704 116.347 117.631 59.3314 57.8548 64.1707 31.3572 115.673 110.527 112.921 56.4449 58.8495 52.176 27.9742 114.052 105.117 111.452 55.957 56.8237 58.3512 28.4707 113.808 106.14 106.842 58.258 57.2278 46.7657 27.4863 108.661 105.384 120.502 59.1182 56.5804 59.3742 30.7716 95.2155 94.9268 91.6652 49.669 52.081 46.0102 28.3465 43.1345 48.9167 97.1036 21.3225 43.1345 48.9167 21.3225 123.894 53.4229 134.095 107.909 56.6114 65.0163 53.4229 30.1235 56.6114 30.1235 139.467 167.397 155.916 71.6492 70.4716 77.4837 34.8928 142.041 168.683 166.688 73.191 68.9954 89.9136 36.7564 155.309 160.1 159.922 73.2417 73.0455 78.7697 36.4345 160.141 161.661 175.089 77.4392 82.2632 81.3302 36.8071 164.897 157.828 154.964 81.6793 77.8778 80.3309 40.632 151.765 147.633 168.325 75.7578 87.0189 77.4971 41.0472 128.677 142.806 149.098 68.5266 64.7458 70.1361 34.7106 124.512 143.735 138.005 71.7701 63.9313 72.67 33.8161 129.409 137.402 128.246 68.4151 60.581 71.065 37.954 136.849 134.806 145.008 68.3004 68.8276 66.337 30.4611 122.983 130.649 130.509 65.544 68.0211 68.4686 37.8393 113.012 127.258 118.041 59.6618 54.9622 62.1808 27.7047 111.085 124.881 133.233 60.2818 58.0494 65.0768 31.9571 117.964 123.634 111.722 59.6228 53.0353 59.8042 28.3247 127.445 129.493 134.44 62.9372 64.9284 63.8299 31.2982 125.938 123.372 123.646 58.9227 62.5164 65.6628 31.639 118.63 115.607 123.327 53.0114 63.4217 57.7089 27.2836 109.336 106.684 110.972 47.8159 55.2086 57.8979 25.7277 117.39 116.124 109.327 57.808 54.1277 48.7858 22.0881 112.721 127.667 129.644 63.1709 63.2624 67.3378 35.7199 121.019 133.62 108.311 64.0311 49.4586 60.3291 27.4511 126.425 124.29 143.012 61.1139 71.5607 73.2906 36.5801 111.294 112.896 110.601 56.724 54.8642 50.999 24.5338 116.206 118.641 117.836 65.0036 56.4302 61.8973 32.1901 113.848 107.04 108.944 57.0153 59.7763 56.7438 32.8135 108.7 102.656 109.618 54.0824 54.072 50.2962 24.2018 104.242 97.9859 105.971 49.1599 54.6279 52.3597 29.8806 113.535 108.455 100.181 47.8819 49.6138 45.6263 19.2793 103.506 108.588 125.147 46.2662 63.9214 62.8292 28.6025 93.5533 103.062 99.0344 45.2578 39.5842 45.7589 17.6636 53.969 57.303 113.461 27.5942 53.969 57.303 27.5942 139.93 54.4863 148.015 118.243 57.8696 69.0788 54.4863 26.4879 57.8696 26.4879 183.137 194.436 183.22 95.748 85.4441 90.1457 42.5909 184.57 194.2 207.155 95.4923 97.693 104.291 53.1571 179.702 187.917 191.795 86.8582 86.8768 89.9099 42.3351 169.912 181.879 195.592 84.2219 92.8256 98.0067 44.5231 158.393 164.34 168.047 76.1487 77.0866 83.8721 39.6988 165.658 158.777 168.996 71.8754 81.3063 80.4681 36.4499 158.426 160.519 174.704 74.2795 84.352 78.3093 35.4255 141.738 156.798 158.438 71.965 74.0737 82.2097 38.854 143.846 148.254 145.694 68.9869 67.6647 74.5885 33.111 138.669 141.689 156.407 66.5052 76.1808 73.6653 35.8759 125.567 136.983 130.085 65.1054 62.488 68.0239 30.6293 138.262 140.377 125.395 67.5958 63.0789 68.9592 34.4761 133.87 136.379 143.63 64.5992 75.1835 71.4178 33.1197 128.198 128.273 127.078 64.0113 58.6866 64.9611 31.4796 130.642 132.531 135.139 66.5555 69.5118 63.3124 32.5317 121.035 131.704 127.374 64.449 61.1299 69.2188 34.0238 115.669 123.336 127.503 62.5954 59.9054 62.4853 30.4252 110.963 115.988 118.192 58.8678 55.7634 60.8508 32.1701 121.581 123.443 115.471 58.3156 55.1993 55.1368 26.6976 125.234 129.558 130.418 64.496 66.3816 68.3058 31.6179 130.303 130.171 111.7 69.5886 58.8519 61.2521 32.878 127.189 119.417 134.72 63.1758 71.4513 68.9184 36.7106 117.143 106.594 122.252 56.1724 55.7373 50.499 26.4652 110.574 107.8 110.837 53.6374 61.4062 56.0953 29.7071 104.714 102.507 99.5257 50.0247 49.1679 51.7052 23.9303 106.889 101.508 105.988 48.5735 55.5464 50.8017 26.0944 101.91 101.352 103.625 48.826 51.3429 50.7062 22.4791 111.793 113.495 106.156 60.5736 50.5673 50.6457 26.3469 120.676 115.886 109.854 62.3219 61.2254 62.8493 34.2267 118.943 109.458 109.642 57.8041 59.4501 53.0363 28.0952 59.4924 56.4215 111.195 29.7088 59.4924 56.4215 29.7088 161.533 63.7572 185.531 155.969 77.765 78.9365 63.7572 31.3817 77.765 31.3817 207.238 226.789 216.506 98.6882 97.7761 107.766 47.5548 214.381 227.724 244.877 98.7081 109.462 119.024 51.1334 207.685 224.202 239.203 101.058 104.918 108.701 47.5747 193.728 219.428 219.718 97.6569 102.767 115.502 53.4836 178.651 203.078 206.912 88.1914 90.9608 103.926 44.1733 178.042 195.9 195.434 86.902 87.6898 99.1518 44.0182 174.716 184.712 194.512 86.2395 90.3521 96.7483 42.8838 162.393 171.902 178.558 84.8332 84.3639 87.9641 43.3557 158.255 168.265 165.086 79.2669 78.0291 83.9375 41.4775 147.823 162.025 163.647 75.184 80.2262 84.3276 37.7894 129.913 161.392 144.818 71.8777 67.5966 77.6973 37.3946 130.763 155.137 153.022 72.7812 62.3165 83.6943 34.4831 136.838 140.336 140.629 71.7796 68.4468 71.443 38.2981 134.019 131.231 138.139 64.2622 68.3916 68.8927 33.4815 131.871 127.227 129.173 65.9757 65.6272 62.338 30.7807 133.842 135.511 126.233 67.2551 66.2441 64.8886 35.195 130.027 135.633 143.305 60.7408 67.5978 70.6226 32.0601 122.701 123.114 129.865 57.1199 62.4291 65.0107 28.6807 124.308 120.284 126.441 65.127 60.2719 58.1035 28.4392 116.884 123.026 129.518 65.062 64.036 62.1802 36.6879 116.117 122.657 115.951 60.5819 52.8481 60.8463 28.3741 129.783 120.256 123.46 56.2417 63.2685 61.8105 32.2078 115.945 113.165 128.117 50.422 66.515 58.4457 24.0338 99.7882 110.735 105.464 54.163 49.4304 54.7189 26.3881 100.799 114.803 107.667 52.4822 50.3578 56.0157 27.7749 102.723 111.86 110.015 52.9344 50.4414 58.7869 24.7073 107.87 110.087 103.285 52.5259 52.282 53.0734 28.2271 104.217 111.045 107.788 52.9214 55.5883 57.0133 24.2988 98.8209 110.135 103.692 53.5637 48.6289 54.0312 28.6226 101.894 106.522 108.356 51.6538 50.1919 56.1037 24.9411 51.7025 50.4178 99.333 26.7127 51.7025 50.4178 26.7127 210.942 92.2122 248.707 222.155 111.584 106.594 92.2122 46.3834 111.584 46.3834 254.145 278.6 281.33 128.101 118.73 137.122 60.2108 269.7 276.962 285.433 129.016 135.415 141.478 67.8903 251.236 267.716 282.944 123.144 134.285 135.483 61.1259 232.902 251.598 254.693 121.771 116.951 132.233 62.0183 223.695 237.073 243.223 114.886 115.951 119.365 59.7528 211.904 225.608 233.304 108.998 107.744 117.708 55.1336 198.354 209.63 221.838 98.4728 104.16 107.9 53.8645 181.251 192.946 208.515 87.0683 94.1941 101.73 44.6083 170.478 196.292 186.721 88.9981 87.0573 91.2161 42.46 160.642 187.868 197.134 86.8408 83.4212 105.076 46.5381 167.927 170.778 157.64 89.514 77.2213 82.7928 40.3027 162.888 167.885 167.932 82.3561 90.7058 87.9857 49.2113 141.93 160.458 159.282 68.556 72.1823 79.8996 33.1448 133.293 150.435 154.484 66.9685 69.7476 80.5586 35.4112 123.535 139.347 143.129 61.251 63.5456 69.8762 31.5573 135.697 145.505 146.103 68.2561 59.9891 69.4713 29.6936 143.143 141.74 148.967 74.8924 75.7074 76.0339 38.5625 133.605 124.267 130.776 65.9943 67.436 65.7066 36.33 131.651 112.728 125.617 55.1567 66.1691 58.5603 29.6643 128.585 113.471 125.48 57.9645 65.4815 54.1677 25.4923 123.294 118.326 119.99 62.0748 63.1031 59.3035 32.4722 121.794 122.124 116.334 64.0145 60.1913 59.0225 29.6026 117.636 121.083 122.733 62.7426 61.6025 63.1012 34.4119 113.344 112.7 111.592 56.5715 56.034 57.9814 28.3307 116.883 113.438 118.382 62.3204 57.3096 54.7185 28.2408 110.576 115.732 109.768 58.9259 59.5733 58.7192 34.0796 103.203 111.82 107.179 57.5609 51.0029 57.0133 24.8463 107.263 106.303 102.599 58.1232 52.1999 54.8062 32.7146 113.227 107.908 105.832 56.5712 55.0632 51.4965 25.4086 105.795 106.232 112.131 54.8677 58.1641 56.4117 31.1626 47.6305 49.8207 104.333 23.7051 47.6305 49.8207 23.7051 292.542 129.943 142.112 129.943 65.2009 142.112 129.943 65.2009 65.2009 65.2009 312.617 150.499 162.599 150.499 162.599 76.9114 76.9114 298.677 147.945 150.018 147.945 150.018 73.5879 73.5879 286.401 144.572 148.66 144.572 148.66 74.3574 74.3574 265.014 129.827 137.742 129.827 137.742 70.2149 70.2149 252.832 122.187 127.272 122.187 127.272 59.6123 59.6123 243.238 116.61 125.56 116.61 125.56 62.5743 62.5743 231.999 111.158 117.678 111.158 117.678 54.0355 54.0355 213.985 105.878 114.321 105.878 114.321 57.1221 57.1221 213.377 107.294 99.6641 107.294 99.6641 48.7562 48.7562 194.132 101.028 113.713 101.028 113.713 58.5376 58.5376 157.644 81.2645 80.4186 81.2645 80.4186 42.49 42.49 164.325 85.5292 77.2258 85.5292 77.2258 38.7744 38.7744 171.835 91.9022 87.0993 91.9022 87.0993 46.7548 46.7548 164.32 83.4663 84.7361 83.4663 84.7361 45.1474 45.1474 165.698 78.0965 79.5834 78.0965 79.5834 38.3188 38.3188 159.374 77.2491 86.1142 77.2491 86.1142 39.7777 39.7777 136.6 66.848 73.2595 66.848 73.2595 37.4714 37.4714 122.788 58.2726 63.3402 58.2726 63.3402 29.3766 29.3766 119.446 57.5714 59.4479 57.5714 59.4479 28.896 28.896 116.885 55.5067 59.9983 55.5067 59.9983 28.6754 28.6754 113.03 56.2512 56.8872 56.2512 56.8872 26.8313 26.8313 117.273 58.1091 56.1426 58.1091 56.1426 29.4199 29.4199 116.688 58.3399 61.1301 58.3399 61.1301 28.6892 28.6892 116.63 56.1283 55.5577 56.1283 55.5577 29.6506 29.6506 111.267 51.1173 61.0723 51.1173 61.0723 26.4777 26.4777 106.371 56.8066 50.1948 56.8066 50.1948 24.6396 24.6396 106.575 54.2586 56.1758 54.2586 56.1758 32.1669 32.1669 101.168 48.1796 50.3992 48.1796 50.3992 22.0917 22.0917 104.736 51.337 50.7692 51.337 50.7692 26.0879 26.0879 110.669 51.3647 53.9673 51.3647 53.9673 25.249 25.249 56.702 26.1156 56.702 26.1156 56.702 26.1156 26.1156 139.613 120.47 60.07 263.453 120.47 229.764 198.172 95.8137 60.07 139.613 120.47 60.07 95.8137 60.07 151.513 142.982 287.394 262.82 249.836 79.5433 151.513 142.982 133.95 79.5433 133.937 144.412 279.698 243.682 259.677 71.9701 133.937 144.412 128.87 71.9701 124.44 135.286 262.955 237.227 245.026 61.9664 124.44 135.286 114.812 61.9664 122.971 127.668 247.681 230.616 245.633 62.4739 122.971 127.668 122.415 62.4739 120.124 120.013 238.182 213.946 220.33 60.4975 120.124 120.013 108.201 60.4975 105.668 118.169 219.867 195.506 215.942 59.6269 105.668 118.169 105.745 59.6269 97.1182 101.698 207.559 182.004 193.027 46.0406 97.1182 101.698 89.7604 46.0406 96.0657 105.862 193.91 174.927 189.991 51.0776 96.0657 105.862 92.244 51.0776 86.6451 88.0485 176.034 159.316 169.395 44.9881 86.6451 88.0485 82.683 44.9881 77.6643 87.985 163.859 153.328 163.074 41.657 77.6643 87.985 76.6327 41.657 80.4497 75.8743 163.257 155.177 160.966 36.0073 80.4497 75.8743 76.695 36.0073 79.9276 87.383 158.324 155.719 160.406 44.4424 79.9276 87.383 78.482 44.4424 71.1966 70.9415 138.357 142.435 144.777 35.4852 71.1966 70.9415 77.2374 35.4852 67.3302 67.4152 133.688 129.867 135.129 35.7114 67.3302 67.4152 65.1971 35.7114 64.1393 66.2731 135.093 121.271 132.529 31.6189 64.1393 66.2731 64.6699 31.6189 56.5616 68.8201 123.174 108.643 121.311 32.5205 56.5616 68.8201 56.6016 32.5205 53.1193 54.3539 121.663 113.353 116.725 24.0411 53.1193 54.3539 52.041 24.0411 56.9366 67.3089 124.494 116.095 125.333 29.0782 56.9366 67.3089 61.3121 29.0782 55.637 57.1853 115.408 108.67 109.543 27.8585 55.637 57.1853 54.7831 27.8585 62.4622 58.2228 124.841 113.431 114.884 27.7785 62.4622 58.2228 53.8869 27.7785 67.3884 66.6178 127.306 114.67 120.586 34.6836 67.3884 66.6178 59.5439 34.6836 56.7319 60.6883 118.078 106.54 115.267 32.7048 56.7319 60.6883 55.1261 32.7048 56.4976 57.3897 116.048 109.883 109.814 24.0271 56.4976 57.3897 51.4137 24.0271 63.7665 58.6581 114.749 116.056 112.565 32.4704 63.7665 58.6581 58.4693 32.4704 54.2094 56.0912 103.094 105.044 102.453 31.296 54.2094 56.0912 57.5867 31.296 40.5593 47.0026 95.5219 92.1307 91.8155 22.9134 40.5593 47.0026 47.4576 22.9134 45.1609 48.5194 96.8317 103.48 104.921 17.6459 45.1609 48.5194 44.6731 17.6459 65.5243 48.3123 115.367 124.752 101.788 27.5151 65.5243 48.3123 58.8072 27.5151 60.2139 67.0543 117.991 111.524 119.008 38.0092 60.2139 67.0543 65.9452 38.0092 41.1139 50.9368 92.7098 88.0878 110.966 22.2047 41.1139 50.9368 45.5791 22.2047 18.9092 41.773 41.773 42.5087 96.9248 18.9092 18.9092 41.773 42.5087 18.9092 184.556 77.7015 150.916 118.376 55.5881 90.1505 77.7015 35.7437 55.5881 35.7437 222.12 198.451 184.473 111.307 106.854 95.328 54.4068 225.005 197.631 205.025 109.745 115.265 103.123 56.9 227.704 197.385 191.871 112.787 109.74 94.508 52.8453 218.282 188.495 200.196 107.645 117.965 102.877 59.9412 198.091 165.136 179.019 93.822 100.317 85.6173 47.7036 189.102 165.966 170.341 89.8382 97.7734 79.5182 46.1184 175.458 160.47 166.874 84.8862 91.3289 86.4476 43.7197 165.476 151.477 145.791 78.8613 84.1294 74.0224 41.1665 156.436 147.369 150.693 72.6705 81.347 77.4546 37.6949 160.181 145.625 139.355 75.6634 75.0893 69.914 34.9757 158.115 141.129 150.946 74.7273 85.092 75.7112 40.6877 146.858 138.801 134.988 75.7918 73.0226 65.4183 34.0396 141.549 136.124 133.064 71.238 73.8355 73.3828 41.7522 133.969 132.53 131.083 62.5368 67.7135 62.7414 29.4858 118.746 124.132 126.927 57.1321 66.2558 69.7882 33.051 114.862 110.317 110.233 52.081 52.4905 54.3442 24.0811 120.395 120.888 124.94 60.2338 62.3713 55.9732 27.9999 110.382 120.197 121.29 59.1586 58.0238 64.9144 32.2339 109.019 118.502 109.016 53.033 52.3577 55.2829 26.9247 110.629 120.785 128.654 50.9686 56.6611 63.2189 26.1084 108.547 106.795 111.715 47.2816 53.9678 57.5657 24.8602 107.004 101.401 106.684 49.8079 54.579 49.2292 22.4213 106.332 99.7815 97.264 53.3854 52.4248 52.1716 27.3865 100.268 100.398 97.7307 52.2895 53.9069 47.6099 25.9989 91.1746 108.208 98.784 50.8349 46.3616 52.7883 26.2907 101.214 110.8 104.488 51.5714 44.813 55.4195 24.5442 109.877 116.414 106.457 58.3194 56.4012 55.3803 27.0272 105.43 114.778 116.315 59.2282 53.476 61.0337 31.2921 111.983 100.854 102.828 51.3104 51.9537 53.7448 27.936 115.181 92.5205 111.057 46.974 60.0295 47.1089 23.3744 55.1518 45.4116 104.144 23.5996 55.1518 45.4116 23.5996 118.293 40.6743 119.644 96.545 43.1438 60.7656 40.6743 19.8444 43.1438 19.8444 167.379 154.962 146.147 87.1441 77.6189 76.5 40.9212 171.891 156.736 162.704 87.8855 89.7598 78.4618 46.2228 164.363 166.666 158.53 84.5989 82.1314 78.2737 41.6627 160.933 163.552 165.276 80.85 82.2315 88.3922 42.9362 151.27 154.531 155.287 71.3136 78.7018 75.1595 37.9138 148.113 152.135 154.003 76.1277 72.5681 79.3715 33.3998 137.206 135.734 141.079 75.5839 75.5449 72.7631 42.7279 131.008 125.358 129.022 72.6158 61.6612 62.9712 32.856 133.613 135.692 126.254 74.6981 69.3464 62.3867 39.7598 130.12 138.51 137.413 69.9619 64.2662 73.3049 34.9384 127.819 123.842 130.896 66.4022 65.8538 65.2054 35.0235 121.194 116.359 116.38 63.0092 61.9657 58.6362 31.3786 122.598 115.689 112.303 64.8862 59.2282 57.7228 31.6306 124.04 128.334 124.529 69.9929 63.3694 57.9663 33.2556 118.413 131.508 120.082 67.0003 60.6708 70.3674 36.7372 120.311 125.252 113.569 58.2364 57.7424 61.1405 30.2631 125.834 126.273 127.179 60.6538 62.5685 64.1114 27.9733 119.924 122.559 118.187 61.0387 63.2659 62.1613 32.6805 128.652 125.051 124.445 65.4688 56.6585 60.3978 28.3582 129.74 119.366 127.441 69.816 71.9932 64.6531 37.1106 109.852 116.502 106.195 59.5134 57.7472 54.713 32.7055 96.944 116.904 116.362 51.5929 52.1047 61.7886 26.8079 88.6631 100.966 106.005 46.3961 44.8393 55.1153 24.785 96.2462 99.3116 96.326 48.1087 43.8238 45.8512 21.6111 112.097 114.206 113.824 57.3729 52.4224 53.4604 26.4976 109.731 113.846 115.561 59.2283 59.6751 60.7455 30.8753 112.895 113.176 103.405 58.0945 50.0558 53.1003 28.353 113.713 121.204 120.759 55.5503 62.8392 60.076 29.7415 101.901 106.783 112.227 49.5432 50.874 61.1277 25.8088 100.019 93.8419 100.229 45.5465 51.0274 45.6551 23.7345 48.992 48.1869 109.082 21.8121 48.992 48.1869 21.8121 124.399 55.8707 129.73 113.647 51.2977 58.8781 55.8707 23.2994 51.2977 23.2994 141.473 155.207 157.031 67.8177 68.5285 78.432 35.5787 149.343 157.927 167.618 68.85 72.9445 76.7748 32.2389 159.443 174.911 166.89 82.067 76.3983 81.1526 36.611 159.63 168.392 176.09 82.7018 83.0443 93.7585 45.456 158.021 165.462 157.627 83.2174 76.5853 74.6335 37.2457 146.969 169.79 165.347 76.0069 81.4353 90.8281 45.9717 132.895 144.297 147.348 60.1505 65.5336 78.9617 30.0352 124.269 122.516 145.967 52.7422 67.3613 65.335 30.1153 130.054 135.852 119.905 60.9935 56.9077 57.1807 22.627 138.189 140.712 149.108 68.5483 73.1467 78.6714 38.3665 119.457 117.901 135.653 57.4394 65.0427 62.0406 30.1818 107.49 124.016 122.068 53.3498 54.4146 55.8603 27.2575 114.235 120.074 122.223 50.8029 53.0751 68.1561 26.0923 120.571 122.528 119.03 58.3409 61.1595 51.9177 24.7106 115.238 128.594 126.132 64.5076 59.4113 70.6103 33.6302 120.437 123.602 106.719 67.0154 55.8263 57.9835 30.8774 119.531 118.692 130.902 65.619 64.6103 65.6182 36.1381 122.707 113.615 118.41 61.5204 54.9206 53.0741 29.4809 123.234 122.848 124.84 59.5821 67.7862 60.5413 32.0396 103.896 110.288 117.819 49.5501 55.4477 62.3062 27.5426 112.706 117.703 105.621 56.9882 48.4482 47.9814 22.0075 125.423 129.324 125.738 65.311 64.2577 69.7215 34.9807 113.668 115.542 112.879 54.5704 61.1653 59.6024 30.3303 113.904 108.14 114.085 51.2029 52.5023 55.9391 24.2401 117.287 111.523 109.598 56.8329 61.4015 52.2004 26.9628 109.235 112.933 118.368 54.6174 55.8855 59.3222 29.8702 111.269 108.166 112.278 55.0818 53.3492 53.6111 24.7473 119.273 116.872 107.258 65.6534 57.9193 54.5548 30.3345 110.555 115.593 119.723 57.2395 61.3533 62.3176 35.3189 109.292 109.434 109.971 48.2954 49.2019 53.2755 21.9206 60.0904 56.1584 112.117 26.3748 60.0904 56.1584 26.3748 146.279 57.7759 153.448 122.351 60.3739 70.8516 57.7759 27.9983 60.3739 27.9983 183.177 195.939 192.207 87.3891 88.5028 93.0746 42.8532 185.166 204.75 199.088 89.0775 94.6739 102.865 44.5359 183.537 199.471 201.59 92.8441 90.4919 101.885 44.5416 174.087 181.761 190.708 85.6902 93.0455 97.5856 48.3025 164.954 172.703 175.822 82.2442 81.0418 84.1753 37.3877 165.726 184.923 176.661 93.7829 83.9117 88.5281 44.8564 160.42 172.623 172.096 84.1462 81.8144 96.3948 48.9265 141.603 147.333 157.778 69.7735 78.606 76.2279 35.2198 138.958 153.847 135.533 74.8586 62.9968 71.1053 34.5537 146.572 144.802 157.494 72.1636 75.9614 82.7416 40.3049 138.264 118.497 134.036 60.4615 70.6105 62.0608 31.8587 136.801 128.649 134.415 70.6666 67.6531 56.4362 28.6028 127.019 134.33 131.662 69.2709 69.1479 72.2125 42.0638 124.591 133.944 128.862 64.1872 57.8708 62.1172 27.2071 117.613 129.982 133.888 64.0862 66.7206 71.8266 36.9801 117.184 123.173 115.129 56.5862 50.8925 58.1552 27.1061 129.782 122.359 142.347 53.0733 66.292 65.0179 29.4801 120.543 117.676 124.327 52.0949 63.4896 57.3416 23.5932 119.425 122.446 117.816 63.2654 57.0536 60.3345 28.5017 119.544 112.56 124.225 60.7375 62.3717 62.1118 34.7636 118.653 116.249 112.35 60.7147 57.1725 50.4479 25.9739 113.194 137.555 124.934 64.0129 61.4804 65.8015 34.7408 113.297 126.495 122.561 60.9711 51.714 71.7532 29.2721 109.779 102.562 113.089 56.9367 61.5829 54.7413 31.699 110.679 103.007 102.772 54.6897 48.1962 47.8205 25.2377 121.412 108.105 115.865 58.3158 62.483 55.1861 29.452 108.268 108.429 108.629 53.0842 58.9291 52.9187 28.8638 107.709 102.515 108.624 51.2191 49.3392 55.5099 24.2203 119.138 103.611 105.908 58.3536 58.3694 47.005 26.9987 112.796 111.379 105.736 61.1385 60.769 56.6058 31.3549 52.027 54.7733 101.351 29.7835 52.027 54.7733 29.7835 168.278 64.5746 186.945 156.014 78.2044 82.5969 64.5746 32.3756 78.2044 32.3756 208.118 234.594 230.543 108.55 103.704 108.741 50.2213 215.513 256.356 234.826 115.672 104.414 125.854 58.329 208.761 234.718 244.996 106.627 111.098 130.502 57.3435 192.443 207.202 218.819 96.0707 97.663 104.216 49.2831 187.53 199.268 209.522 90.4592 94.7803 102.986 46.7876 183.031 194.046 202.066 91.14 92.7496 96.2822 43.6717 169.453 188.358 196.353 88.4765 90.2812 97.7637 47.4683 151.708 171.743 175.016 77.5598 79.1717 90.594 41.0082 154.069 160.469 160.344 78.9883 72.5366 81.149 36.5516 144.958 146.44 162.829 72.6387 81.5328 79.3197 42.4367 130.187 136.449 135.55 58.0354 63.4255 67.1206 30.202 129.275 138.514 151.667 57.9821 66.7615 69.3279 27.8334 133.505 138.433 140.369 65.0588 62.5139 69.1862 30.1487 138.159 136.081 143.485 69.7566 70.9912 69.2466 34.9101 131.404 128.179 141.544 65.8956 67.1674 66.8348 34.8465 140.291 134.027 131.587 66.5868 64.2369 61.3445 31.0491 136.892 137.537 146.479 69.2861 76.0546 72.6827 35.5377 121.6 133.192 119.477 65.5812 60.8378 64.8544 33.7484 122.616 135.675 128.151 59.1809 60.7625 68.3375 31.8328 117.031 122.442 125.391 51.8222 61.8536 67.3373 27.3481 118.63 116.754 119.294 55.5347 55.1772 55.105 24.474 134.3 131.321 125.848 73.5418 63.4531 61.6494 31.0607 122.353 120.417 129.678 65.5234 70.8473 69.6717 42.4811 106.082 102.397 108.485 45.6251 51.506 50.7455 23.0423 107.958 102.879 114.116 48.3169 54.5759 51.6516 22.5828 103.082 101.439 105.176 49.789 53.3821 51.2279 25.7341 108.985 100.986 105.291 55.3444 49.7003 50.2114 24.0549 106.823 100.436 102.736 51.2958 59.2848 50.7749 31.2895 92.5058 101.913 105.85 45.2572 47.5386 49.6609 20.0063 94.2912 101.168 98.2751 50.2406 44.9673 52.2523 25.2509 49.324 48.9152 102.34 24.9898 49.324 48.9152 24.9898 218.279 91.4398 254.778 227.578 110.571 104.348 91.4398 45.8288 110.571 45.8288 257.251 288.162 298.795 126.044 126.84 144.207 58.5193 264.309 291.416 292.694 140.683 130.412 143.955 67.5247 255.053 269.921 280.156 128.092 133.897 147.461 73.1588 235.897 246.318 266.13 111.131 121.156 122.46 54.9328 224.058 239.455 251.589 108.809 114.742 123.858 56.1985 215.388 229.534 230.623 102.906 109.316 115.596 52.6105 201.916 220.722 226.454 99.8811 106.072 113.938 50.2953 183.651 202.29 207.708 94.1832 95.844 106.785 49.5858 169.103 187.564 192.91 81.4804 87.8073 95.5054 44.5974 153.42 166.906 192.172 73.8016 81.2957 92.0586 36.883 157.03 154.793 160.581 78.4131 72.1242 74.8471 36.9186 162.761 159.328 170.938 80.532 84.9055 79.9459 41.4945 150.349 153.307 165.782 73.374 77.8552 79.382 39.0375 146.87 147.178 151.61 66.3248 72.4935 73.9251 34.3365 141.727 149.885 152.268 62.2838 74.3767 73.2529 31.9883 137.774 149.565 148.563 67.4405 67.3498 76.6319 30.2955 129.064 138.003 143.063 68.251 70.4244 72.933 37.145 126.028 132.126 128.089 67.6108 58.6396 65.0697 31.106 130.926 138.369 132.172 76.4939 67.3884 67.0566 36.5047 127.655 131.999 127.211 70.6202 63.5378 71.3121 39.9892 126.512 117.998 122.68 61.2197 64.117 60.6869 30.631 121.226 116.943 113.562 57.7793 62.3952 57.3115 30.5887 115.81 113.242 115.497 54.8939 58.831 59.6314 27.1906 116.519 117.274 110.489 56.7721 56.9787 53.6103 27.7033 111.334 114.712 120.79 54.5625 59.5406 63.6634 29.0688 107.385 101.214 105.867 51.6503 51.7938 51.0489 25.4937 99.0427 97.9582 101.386 45.6419 55.5911 50.1654 26.1566 101.763 102.129 96.1847 49.14 43.4515 47.7928 19.4853 111.62 110.056 109.782 56.6561 58.3119 54.3359 29.6546 106.323 110.232 109.273 50.9269 53.3078 55.7197 27.0015 53.0156 54.5118 113.453 23.9254 53.0156 54.5118 23.9254 308.094 136.139 150.43 136.139 64.7418 150.43 136.139 64.7418 64.7418 64.7418 334.237 162.118 171.955 162.118 171.955 85.6881 85.6881 308.541 150.732 162.282 150.732 162.282 76.4299 76.4299 291.233 141.829 146.259 141.829 146.259 74.3021 74.3021 281.822 135.187 144.975 135.187 144.975 67.527 67.527 258.154 130.646 136.848 130.646 136.848 67.6598 67.6598 241.689 126.628 121.307 126.628 121.307 62.9858 62.9858 232.246 120.841 120.382 120.841 120.382 63.6424 63.6424 216.967 108.107 111.864 108.107 111.864 57.1989 57.1989 215.98 106.084 105.103 106.084 105.103 50.908 50.908 199.334 93.1041 110.877 93.1041 110.877 55.1755 55.1755 174.49 76.3799 88.457 76.3799 88.457 37.9285 37.9285 173.96 78.7958 86.0326 78.7958 86.0326 38.4513 38.4513 167.043 79.9332 87.9272 79.9332 87.9272 40.3445 40.3445 157.007 80.8532 79.1161 80.8532 79.1161 39.5887 39.5887 159.105 87.6011 77.8913 87.6011 77.8913 41.2646 41.2646 153.852 82.1245 81.2133 82.1245 81.2133 46.3365 46.3365 142.089 69.7517 72.6391 69.7517 72.6391 35.788 35.788 134.233 64.5155 69.4495 64.5155 69.4495 33.9636 33.9636 128.456 61.8747 64.7833 61.8747 64.7833 30.5519 30.5519 122.235 61.3787 63.6727 61.3787 63.6727 31.3229 31.3229 109.73 56.7786 58.5627 56.7786 58.5627 30.0559 30.0559 107.833 59.1636 51.1672 59.1636 51.1672 26.7227 26.7227 110.177 58.3479 56.6661 58.3479 56.6661 32.4408 32.4408 114.76 60.5016 53.5105 60.5016 53.5105 25.9071 25.9071 115.323 60.1497 61.2493 60.1497 61.2493 34.5946 34.5946 99.8682 49.564 54.0733 49.564 54.0733 25.5552 25.5552 98.5281 52.3163 45.7949 52.3163 45.7949 24.0088 24.0088 104.203 52.9888 52.7332 52.9888 52.7332 28.3075 28.3075 107.435 53.3995 51.4702 53.3995 51.4702 24.6812 24.6812 116.403 59.3046 55.9652 59.3046 55.9652 28.7182 28.7182 60.4374 30.5864 60.4374 30.5864 60.4374 30.5864 30.5864 123.839 126.63 60.4004 261.848 126.63 218.244 206.364 102.358 60.4004 123.839 126.63 60.4004 102.358 60.4004 135.881 135.217 274.758 246.693 238.609 63.4388 135.881 135.217 115.886 63.4388 145.762 139.54 277.172 261.022 252.918 72.4418 145.762 139.54 130.807 72.4418 138.514 137.632 266.585 253.432 248.089 73.32 138.514 137.632 130.214 73.32 124.709 128.954 247.884 235.347 239.185 65.1942 124.709 128.954 123.218 65.1942 118.057 118.931 236.88 222.326 228.289 59.5152 118.057 118.931 112.129 59.5152 114.199 117.949 223.877 213.463 216.466 58.542 114.199 117.949 110.197 58.542 110.441 105.928 202.78 201.013 204.001 55.657 110.441 105.928 103.266 55.657 97.8446 96.8522 186.759 184.46 187.013 54.7843 97.8446 96.8522 97.7472 54.7843 89.3884 89.9067 182.512 173.154 180.056 43.0604 89.3884 89.9067 86.7125 43.0604 86.1949 92.6057 181.279 170.713 169.544 46.328 86.1949 92.6057 86.4416 46.328 82.8076 88.673 170.991 166.195 171.756 39.867 82.8076 88.673 84.2713 39.867 78.3969 82.3183 151.836 149.463 148.718 42.9406 78.3969 82.3183 81.9236 42.9406 67.16 69.5175 144.078 137.471 139.74 35.4562 67.16 69.5175 67.5396 35.4562 66.358 74.5607 142.984 137.791 146.539 31.7038 66.358 74.5607 69.9316 31.7038 70.9539 68.4231 141.34 132.568 125.949 34.6543 70.9539 68.4231 67.859 34.6543 66.6124 72.9166 138.873 129.393 131.46 36.2996 66.6124 72.9166 64.7091 36.2996 68.5434 65.9563 140.604 128.705 124.135 30.3127 68.5434 65.9563 64.6842 30.3127 67.5575 74.6481 135.531 118.781 131.879 38.2307 67.5575 74.6481 64.0206 38.2307 59.7712 60.8826 116.643 115.757 116.561 29.3268 59.7712 60.8826 54.7599 29.3268 62.3785 55.7602 116.602 122.039 109.659 30.4443 62.3785 55.7602 60.9971 30.4443 59.9177 60.8415 114.658 121.183 120.26 31.9342 59.9177 60.8415 61.0417 31.9342 61.3461 53.8168 115.481 118.542 122.056 27.9835 61.3461 53.8168 60.1411 27.9835 59.5503 61.6643 118.324 112.497 114.272 33.3626 59.5503 61.6643 58.4008 33.3626 50.9829 56.66 112.966 98.9619 108.88 26.1877 50.9829 56.66 54.0957 26.1877 48.8844 56.3064 101.57 89.2241 98.7508 24.7952 48.8844 56.3064 44.8662 24.7952 54.9626 45.2638 99.9279 104.605 95.6577 24.0891 54.9626 45.2638 44.3579 24.0891 51.6707 54.6641 105.902 103.229 117.812 30.8735 51.6707 54.6641 60.2474 30.8735 49.8423 51.2383 110.975 96.0439 97.6011 20.7972 49.8423 51.2383 42.9811 20.7972 57.7772 59.7366 112.887 118.45 111.557 29.0451 57.7772 59.7366 53.0628 29.0451 51.5959 53.1501 101.125 119.803 115.228 28.7321 51.5959 53.1501 65.3872 28.7321 22.8638 47.9753 47.9753 54.416 111.495 22.8638 22.8638 47.9753 54.416 22.8638 183.125 79.7335 151.933 128.72 62.7877 94.4052 79.7335 41.9579 62.7877 41.9579 216.769 191.047 182.815 110.813 103.392 89.145 52.4473 223.835 199.265 195.874 115.26 113.377 101.902 58.3654 220.689 194.682 192.879 114.918 110.457 97.3631 56.8945 219.589 190.721 193.042 110.637 110.231 97.3188 58.0235 207.875 184.225 196.354 104.269 109.358 93.4018 52.6138 196.591 171.249 178.952 99.2642 98.5173 90.8232 51.655 188.235 152.194 168.263 90.5721 98.0736 80.4262 47.6092 180.31 145.007 159.272 86.6151 90.1612 71.7682 42.9629 167.087 142.68 159.656 83.7657 90.1489 73.2388 43.6521 160.021 144.676 147.827 84.5179 76.938 69.4414 40.1136 149.483 144.805 147.753 83.3873 83.0834 75.2346 44.4043 136.622 129.251 129.826 71.0663 66.3995 69.57 38.983 142.2 128.023 128.428 70.3111 70.2222 59.681 32.0833 129.504 125.48 137.478 71.4325 71.9782 68.3416 38.2278 116.069 113.027 116.202 61.6141 57.5257 57.1384 33.2047 116.722 124.855 114.125 62.7808 58.5434 55.8887 28.4094 115.41 125.342 116.977 60.1614 58.1784 68.9666 34.3714 112.91 110.109 113.147 51.223 57.2314 56.3753 25.7899 109.577 119.169 106.341 55.9859 55.6783 53.7333 25.4331 113.317 119.585 122.323 59.6603 53.8987 65.4354 30.5528 127.658 111.604 109.432 61.2651 59.4185 54.1492 29.1075 120.848 102.547 121.081 57.1958 68.2395 57.4544 32.1576 104.828 95.2132 93.4908 52.9462 52.6081 45.0925 25.0382 94.6643 96.1165 106.054 47.979 52.2199 50.1207 27.908 92.8383 95.0643 95.4398 40.3397 42.4444 45.9957 20.0709 113.542 100.145 106.359 49.6427 50.3939 49.0686 20.2688 109.51 106.358 114.885 51.5578 63.1476 51.0767 29.3739 98.1827 104.365 102.035 46.2016 46.3628 55.2816 22.1839 113.897 113.031 101.403 60.6728 51.8199 49.083 24.0177 125.597 122.68 120.478 68.2073 62.0775 63.9481 36.6551 63.5197 58.7321 113.22 31.5522 63.5197 58.7321 31.5522 128.41 48.9869 123.049 107.031 53.4012 57.5275 48.9869 20.8299 53.4012 20.8299 161.921 153.89 144.142 80.2346 79.4236 69.6474 36.6977 164.919 164.498 159.226 84.0056 82.4972 84.2425 43.537 165.233 157.14 160.137 79.764 82.4221 80.256 40.4687 169.806 157.011 160.457 80.0833 82.8108 76.8835 39.2953 167.43 154.759 164.41 79.9562 86.9956 80.1275 40.788 150.624 142.947 149.533 71.9852 80.4342 74.6319 39.1682 139.301 134.367 143.266 61.6222 70.1895 68.3154 32.817 138.619 129.919 135.62 58.3919 69.1112 66.0512 28.8052 140.396 127.975 139.786 58.9144 69.5074 63.8674 29.5866 135.558 129.799 143.422 60.158 70.889 64.1079 29.3278 128.095 123.435 135.806 61.4173 64.6691 65.6911 30.8302 121.632 112.325 118.192 58.1847 63.4262 57.7441 30.587 123.706 121.143 118.144 57.7114 58.2055 54.5805 27.5976 124.176 116.277 129.91 54.0474 65.5 66.5626 30.1138 114.257 102.143 118.95 51.4129 58.6759 49.7147 23.9336 114.379 115.496 112.234 62.0744 55.5811 52.4282 27.4793 114.714 119.093 113.835 65.1806 58.7983 63.0673 34.5952 106.579 120.072 108.751 58.8856 55.9159 56.0252 30.5854 119.088 126.835 115.388 63.1829 50.6628 64.0468 28.3002 118.439 114.27 117.884 59.9243 68.4248 62.7878 34.8826 102.856 106.056 110.563 50.3385 50.0139 51.4824 25.0417 93.7244 105.463 108.693 45.3511 52.8417 54.5739 25.2968 94.7171 101.364 101.053 42.267 40.8827 50.8893 20.0543 106.83 110.838 108.277 48.1375 53.8344 50.4749 22.2127 108.961 115.179 118.047 54.7246 52.9954 60.3636 25.9248 107.703 105.12 108.567 50.5026 55.9655 54.8151 28.7998 107.409 110.987 110.18 54.8005 51.7374 50.3047 21.7028 105.255 111.782 105.656 58.163 55.672 60.6825 33.0977 107.984 105.674 99.8342 52.3582 49.5834 51.0996 25.0653 108.101 115.47 113.356 54.4729 58.4008 54.5743 27.293 49.7005 60.8955 106.494 27.1799 49.7005 60.8955 27.1799 122.762 58.0444 140.948 114.647 62.3489 65.5211 58.0444 32.5713 62.3489 32.5713 141.447 169.443 149.412 73.6552 64.7181 78.5993 32.9497 154.445 176.581 175.785 80.4928 76.7293 90.8435 40.7055 155.362 168.069 170.15 77.3756 77.7153 85.7377 39.7873 155.061 165.325 162.793 76.9277 77.6463 82.3313 37.5882 146.513 157.513 166.155 74.8032 77.4149 82.9936 39.3395 142.175 142.905 147.795 70.9621 69.0984 74.5189 35.4637 139.586 149.019 139.552 72.7444 73.0769 68.3863 35.4984 136.788 143.356 148.05 71.5268 66.5087 80.6322 37.246 142.812 133.161 133.648 69.0609 70.279 62.7239 34.2808 143.67 144.049 145.5 69.641 72.5329 70.4366 34.7802 125.902 139.82 142.211 62.0179 71.1368 73.6127 34.8608 114.705 120.274 129.061 54.1399 54.7657 66.2073 27.157 124.349 121.18 116.019 63.4317 59.939 54.067 26.9829 124.684 122.634 120.806 62.2299 64.4101 67.1126 36.4489 116.927 104.257 115.735 50.73 60.2737 55.5216 25.7811 111.689 114.019 115.927 53.4211 56.6531 48.7353 24.9489 107.871 130.62 119.859 53.9119 55.0363 65.284 28.4722 117.56 129.635 117.167 61.1864 52.8349 65.3361 25.4398 114.185 119.812 128.71 63.6518 64.7251 64.2984 35.7466 110.008 113.153 102.004 54.3459 49.4595 55.5133 27.9052 116.401 113.656 117.079 55.7177 60.549 57.6393 26.4407 116.022 109.294 115.299 60.112 55.8517 56.0167 29.277 114.612 111.423 110.315 59.0972 60.1699 53.2769 30.835 119.494 115.543 117.384 62.7009 54.4424 58.1461 28.2622 117.654 116.444 115.068 60.4541 65.0518 57.3973 34.4388 111.044 117.713 115.109 54.6173 52.6018 59.0463 26.0153 108.426 111.371 116.441 56.1867 58.4422 58.6672 28.602 100.235 110.109 105.267 53.6191 49.9838 52.7036 27.5847 105.206 114.1 102.641 53.3157 50.2508 57.405 26.0344 111.749 112.654 110.359 60.9969 54.9553 56.6954 27.2813 56.7933 55.959 102.667 33.7156 56.7933 55.959 33.7156 141.296 56.6026 161.109 127.36 61.9766 75.4272 56.6026 29.7776 61.9766 29.7776 183.749 195.355 192.223 95.7876 84.6935 99.132 45.6496 191.49 195.929 196.413 96.0883 99.0555 96.2233 50.138 177.581 192.828 209.422 90.6933 92.4345 99.7053 45.9503 173.887 184.77 183.733 88.3971 85.1467 93.1228 44.743 167.437 179.78 182.574 82.7093 88.7405 91.6468 43.6541 145.172 163.834 176.193 71.9432 78.6968 88.1332 39.0553 148.016 157.251 152.363 76.2741 66.4754 75.7009 32.8879 144.91 145.978 158.898 71.8293 81.5411 81.5497 43.3862 136.336 139.181 136.225 64.0996 63.3689 64.4281 28.4431 144.042 146.728 145.715 74.4083 72.9673 74.7526 35.6565 145.37 149.954 139.094 77.8021 71.0744 71.9753 38.7518 130.376 137.428 153.794 66.1344 74.2955 77.9784 39.0503 112.476 126.194 123.726 57.7479 56.0802 59.4493 27.0841 111.857 128.806 124.595 60.4043 56.3958 66.7449 30.6638 114.735 119.036 117.791 53.5269 55.461 62.0615 29.7405 124.097 134.303 121.44 60.5982 59.2741 56.9742 23.7864 129.156 144.314 135.667 76.7082 64.8231 77.3287 36.8119 128.318 124.467 124.257 68.4482 64.3326 66.9857 39.8963 116.529 119.595 122.124 56.1599 63.9851 57.4815 28.5518 109.074 124.015 117.75 58.8067 52.544 62.1136 27.6081 115.977 121.034 112.704 57.9382 56.5296 61.9017 31.1986 109.591 109.94 124.683 49.1816 59.4469 59.1321 26.7396 113.086 109.156 109.07 52.3258 50.1446 50.8082 22.4419 112.958 113.299 113.639 52.8425 62.9412 58.3476 29.8839 112.524 115.631 114.084 55.9895 50.0166 54.9516 22.9586 120.506 116.39 116.031 63.0962 62.5075 60.679 33.031 113.282 108.825 115.901 55.1841 57.9985 55.7107 30.0652 107.673 112.017 108.322 56.4896 55.2832 53.1142 25.1189 107.794 108.033 108.681 60.7848 52.3902 58.9029 31.3707 101.277 95.7081 100.865 51.6575 55.4033 49.1305 29.4141 45.8738 46.5776 99.9651 22.2434 45.8738 46.5776 22.2434 178.287 70.7576 199.613 163.296 77.8099 85.6815 70.7576 32.199 77.8099 32.199 204.887 230.775 237.969 99.5678 107.529 121.803 53.4825 214.346 223.466 218.033 99.8402 97.3579 108.972 46.0853 215.574 229.096 242.599 102.135 116.988 114.494 53.7549 192.42 221.139 231.213 96.3726 98.5866 114.603 48.3798 191.33 212.32 211.595 97.0707 93.8338 106.536 47.9928 183.384 204.373 214.85 91.8908 97.496 105.784 49.0779 163.245 183.012 196.299 80.9765 85.888 98.5898 42.8129 150.213 163.617 171.48 74.1485 77.3568 84.4218 38.1635 145.604 162.704 168.401 75.0811 72.8566 79.1949 35.985 140.767 151.938 161.276 72.3195 72.7478 83.5088 39.0961 147.518 150.768 149.975 72.1516 68.0194 68.4291 33.2235 147.144 153.522 166.543 71.2933 79.4985 82.3391 38.9281 135.845 145.421 143.91 68.4463 67.6453 71.183 32.3652 130.529 148.947 142.333 68.402 68.1994 74.2381 36.0811 124.496 144.951 135.486 65.5087 62.3295 74.7093 32.3209 133.01 144.038 129.095 73.7046 62.1661 70.2421 33.1878 130.769 128.419 130.262 67.6062 70.8443 73.7962 40.5168 118.064 114.436 122.949 56.0191 59.9247 54.623 27.0894 123.345 117.868 130.327 63.4352 58.1393 59.8134 28.9297 121.38 122.243 121.098 65.2086 65.2056 58.0541 34.5055 121.411 128.388 122.422 63.0956 56.1744 64.1891 30.7031 124.162 124.206 131.342 60.7587 65.2366 64.1989 32.3924 109.623 117.746 119.505 56.8299 58.9252 60.0066 28.3662 114.764 120.204 108.084 60.4568 50.6975 57.7392 28.4637 117.591 116.413 121.588 59.641 64.067 62.4649 31.9931 111.427 109.028 107.87 53.2934 53.5239 53.948 27.648 110.942 107.042 116.859 53.6408 57.9029 55.08 25.6455 109.329 108.151 107.26 55.5275 53.0387 51.9615 27.9953 101.752 102.212 106.183 47.2487 56.2905 56.1895 27.5323 99.553 99.4471 100.323 44.0506 45.4616 46.0227 19.7164 54.0914 53.4244 108.521 24.3342 54.0914 53.4244 24.3342 222.979 92.5389 271.595 230.154 117.008 113.931 92.5389 45.6109 117.008 45.6109 251.115 303.327 295.492 131.207 130.44 154.587 68.3203 246.287 281.434 286.945 123.626 120.675 148.739 62.887 258.238 276.366 274.859 126.961 125.612 132.695 60.7386 250.388 271.402 280.622 124.766 132.626 143.67 66.2227 235.116 242.758 249.934 115.249 117.761 127.731 58.5433 227.765 227.543 240.226 112.482 117.354 115.027 56.7056 204.534 213.44 225.881 102.035 110.411 112.516 55.7769 189.667 198.328 200.499 89.4682 94.123 100.923 46.2582 184.073 197.519 201.118 87.6227 95.5444 97.4051 43.2099 170.484 185.848 201.439 79.6183 88.5283 100.114 44.4127 169 176.726 177.018 78.6166 81.956 85.7341 35.2056 163.308 177.393 172.142 82.2287 87.0441 90.9922 43.411 150.398 164.085 165.654 76.9748 76.2643 86.4005 38.8178 147.29 156.7 152.994 80.5454 74.1336 77.6844 38.157 140.085 150.946 150.961 79.4427 73.1562 79.0151 42.3884 126.347 142.062 137.376 70.3337 66.9288 71.9311 37.0543 122.442 133.15 135.69 60.813 59.4179 70.1304 33.2794 135.212 128.135 131.483 58.4173 63.0242 63.0194 27.5336 128.081 121.014 137.542 54.4323 72.1881 65.1152 30.8837 122.14 117.891 116.366 57.0346 55.8925 55.8984 23.5486 132.353 118.244 131.624 65.2925 66.2478 61.9928 33.486 126.685 112.117 119.982 63.4469 66.1052 56.2509 31.8065 117.966 112.745 116.686 60.9159 60.5796 55.8656 31.6404 114.907 114.005 119.119 59.7472 57.3862 56.8789 29.2754 111.868 111.945 109.059 56.7719 57.5212 57.1265 30.4718 113.302 106.039 115.817 55.7346 54.3466 54.8182 26.3001 113.177 99.6125 106.486 53.4008 58.9558 51.2206 29.4345 104.114 103.838 100.457 52.6235 54.2215 48.3919 23.9662 104.753 109 97.4698 54.9636 49.8922 55.4462 28.6573 109.291 112.495 105.746 55.3965 54.8611 53.5533 26.3063 54.4299 58.9413 107.98 29.0902 54.4299 58.9413 29.0902 302.668 137.615 157.664 137.615 71.3967 157.664 137.615 71.3967 71.3967 71.3967 331.322 172.119 165.052 172.119 165.052 86.2671 86.2671 315.517 157.809 166.27 157.809 166.27 85.8522 85.8522 297.243 149.404 149.247 149.404 149.247 71.9565 71.9565 280.168 146.635 147.996 146.635 147.996 77.4477 77.4477 255.045 127.509 132.172 127.509 132.172 69.1877 69.1877 238.342 115.061 122.872 115.061 122.872 58.321 58.321 221.846 111.405 115.47 111.405 115.47 56.7395 56.7395 211.949 108.86 106.376 108.86 106.376 54.665 54.665 218.484 109.896 105.573 109.896 105.573 54.1951 54.1951 207.973 106.23 112.91 106.23 112.91 55.7012 55.7012 180.16 98.1097 95.0623 98.1097 95.0623 50.5285 50.5285 174.487 95.1639 85.0975 95.1639 85.0975 47.5812 47.5812 168.249 87.1101 89.3893 87.1101 89.3893 47.5827 47.5827 156.665 76.1541 78.8601 76.1541 78.8601 39.5274 39.5274 148.253 71.5035 77.8051 71.5035 77.8051 36.6267 36.6267 146.72 71.7279 70.4475 71.7279 70.4475 34.8768 34.8768 144.731 72.3369 76.2721 72.3369 76.2721 36.8511 36.8511 133.812 69.7173 68.4585 69.7173 68.4585 35.4858 35.4858 125.827 66.5813 65.3537 66.5813 65.3537 34.2315 34.2315 125.849 60.8566 60.473 60.8566 60.473 32.3498 32.3498 119.252 52.9513 65.3758 52.9513 65.3758 28.5068 28.5068 109.983 48.6697 53.8763 48.6697 53.8763 24.4445 24.4445 117.839 51.8287 56.1067 51.8287 56.1067 24.2252 24.2252 113.271 54.2582 61.7326 54.2582 61.7326 27.6035 27.6035 113.009 55.1729 51.5382 55.1729 51.5382 26.6547 26.6547 109.001 50.3043 61.4708 50.3043 61.4708 28.5182 28.5182 93.7664 46.2117 47.5306 46.2117 47.5306 21.7861 21.7861 93.8133 51.2146 46.2358 51.2146 46.2358 24.4256 24.4256 98.462 54.0359 47.5775 54.0359 47.5775 26.7889 26.7889 104.435 57.0981 50.8845 57.0981 50.8845 27.247 27.247 53.5502 29.8511 53.5502 29.8511 53.5502 29.8511 29.8511 138.009 132.177 66.2301 272.075 132.177 226.729 212.482 104.006 66.2301 138.009 132.177 66.2301 104.006 66.2301 138.877 139.898 277.717 244.834 253.559 71.7786 138.877 139.898 122.723 71.7786 131.41 137.819 271.49 239.985 248.834 67.0986 131.41 137.819 122.11 67.0986 128.071 133.671 261.91 233.841 234.24 64.3115 128.071 133.671 117.874 64.3115 123.175 128.239 248.675 232.127 234.988 63.7593 123.175 128.239 115.967 63.7593 118.822 120.436 233.714 222.429 220.712 59.4157 118.822 120.436 116.16 59.4157 109.678 113.278 210.171 207.004 210.7 59.4068 109.678 113.278 106.269 59.4068 92.3388 96.8921 186.949 190.001 194.65 50.2708 92.3388 96.8921 100.735 50.2708 88.9143 90.0573 178.831 182.609 179.135 42.0679 88.9143 90.0573 89.2662 42.0679 93.1241 88.7738 175.648 176.445 185.7 46.8463 93.1241 88.7738 93.3431 46.8463 95.0837 86.8741 173.752 170.587 157.013 46.2777 95.0837 86.8741 83.1021 46.2777 88.1837 86.878 169.501 154.279 156.962 48.806 88.1837 86.878 87.4851 48.806 73.4389 82.623 160.794 138.994 150.707 39.3777 73.4389 82.623 66.7942 39.3777 76.9182 78.1715 157.914 148.807 143.838 34.0612 76.9182 78.1715 72.2001 34.0612 76.6258 79.7428 143.238 134.697 151.939 42.8569 76.6258 79.7428 76.6073 42.8569 70.3858 63.495 132.886 124.841 120.715 33.7689 70.3858 63.495 58.0898 33.7689 72.2606 69.3913 140.221 126.202 125.241 36.617 72.2606 69.3913 66.751 36.617 72.061 70.8295 137.537 127.309 127.588 35.6436 72.061 70.8295 59.4506 35.6436 67.9732 66.7079 125.497 129.66 128.192 36.4174 67.9732 66.7079 67.8589 36.4174 56.8716 58.7893 114.089 110.463 113.783 31.5558 56.8716 58.7893 61.801 31.5558 54.2232 55.3002 112.566 107.88 106.049 25.3159 54.2232 55.3002 48.6618 25.3159 54.7406 57.2658 113.655 121.134 119.567 28.9073 54.7406 57.2658 59.2183 28.9073 54.1351 56.3892 115.17 117.787 116.066 25.8333 54.1351 56.3892 61.9153 25.8333 58.7741 58.7804 118.667 110.656 115.172 28.3018 58.7741 58.7804 55.8716 28.3018 61.9836 59.8871 112.042 108.669 110.814 30.4723 61.9836 59.8871 54.7842 30.4723 52.6859 52.1552 92.9686 105.184 98.9786 31.5112 52.6859 52.1552 53.8847 31.5112 44.9652 40.8135 88.4017 108.864 94.6575 21.1746 44.9652 40.8135 51.2998 21.1746 54.2317 47.5882 107.712 112.184 116.315 23.7906 54.2317 47.5882 57.5643 23.7906 61.1326 60.1242 112.618 113.114 106.638 30.4411 61.1326 60.1242 54.62 30.4411 55.1096 52.4941 104.027 108.334 107.892 30.6915 55.1096 52.4941 58.4937 30.6915 49.5295 51.5328 97.934 106.919 104.91 24.418 49.5295 51.5328 49.8404 24.418 25.1115 46.4012 46.4012 57.0789 109.676 25.1115 25.1115 46.4012 57.0789 25.1115 193.966 80.3045 159.603 135.694 65.9326 88.7202 80.3045 37.7756 65.9326 37.7756 224.676 187.643 199.915 105.956 113.661 93.6705 50.9446 211.584 189.488 200.015 108.575 111.015 93.9721 55.0119 207.318 191.24 184.816 105.771 100.569 95.5162 53.5628 207.026 198.675 195.106 108.952 106.749 95.7233 52.2079 197.698 191.08 186.102 103.607 100.276 102.952 56.7443 195.18 175.965 170.929 97.3266 97.4215 88.1283 46.8623 186.835 175.341 176.559 97.6626 97.7581 87.8369 50.4643 186.004 173.922 164.943 93.6951 89.0773 87.5042 47.1983 167.065 164.803 172.28 83.3212 96.9265 86.4175 46.4968 140.223 150.904 145.397 75.5035 70.139 78.3856 36.8244 138.168 132.774 138.215 66.0956 70.0841 72.518 38.6791 133.75 129.003 131.13 65.5555 68.0836 60.2558 27.4165 137.862 137.883 123.689 71.8893 65.6663 68.7468 38.1389 129.415 128.2 132.944 58.0714 72.1957 69.1366 33.7504 113.069 117.299 122.708 54.455 57.2195 59.0633 24.321 112.608 106.246 118.202 53.941 55.8498 58.2358 30.134 118.242 104.782 108.569 55.2484 56.7583 48.0101 23.807 116.478 109.38 115.87 61.6867 61.4842 56.772 31.4415 105.742 109.496 108.7 53.5912 54.9937 52.6079 30.2453 113.049 112.171 112.125 53.657 50.7486 56.8881 23.3459 121.978 118.91 112.644 66.393 62.3008 55.2833 30.311 116.068 112.025 112.236 63.6518 59.6772 63.6268 36.0819 107.318 104.332 102.334 51.8817 56.3912 48.3983 27.5698 97.7503 105.378 112.677 46.6853 50.9269 55.9335 24.3118 100.667 106.735 104.461 52.4986 46.8234 49.444 22.3735 122.571 121.099 108.736 63.8988 53.844 57.2908 30.1251 115.241 110.562 127.599 57.9527 68.7269 63.8083 33.7737 101.912 99.0736 94.7555 51.9811 46.514 46.7532 24.1789 108.776 108.851 106.917 53.2246 55.3983 52.3203 27.8022 116.652 111.018 122.708 57.3898 53.3775 56.5302 25.4224 63.2746 54.4881 115.557 31.9675 63.2746 54.4881 31.9675 141.644 55.3895 128.124 109.278 53.6301 70.8829 55.3895 28.157 53.6301 28.157 175.255 149.478 150.54 81.6861 86.2542 74.4942 42.7259 173.247 154.865 158.395 80.9136 89.0007 74.984 38.9602 172.603 163.455 159.364 85.4689 84.2466 79.8814 41.9534 174.182 167.857 175.76 89.7231 88.3568 83.5736 43.5155 159.333 159.184 160.247 87.4736 85.8252 84.283 46.2076 152.309 149.852 148.699 78.6385 73.5077 74.9007 41.266 154.667 144.52 153.707 77.6785 78.8009 74.951 37.3725 151.22 145.488 140.337 80.2267 75.8656 69.5687 40.306 150.612 155.233 147.338 81.4819 75.354 75.9189 39.9207 143.389 149.429 152.938 75.4001 75.2583 79.3139 41.5612 131.177 130.563 136.87 66.6781 68.1304 70.1148 33.8389 121.069 124.012 120.849 63.4471 63.0466 60.4478 32.8392 118.77 126.911 125.324 65.9941 58.0222 63.564 30.6079 126.236 132.582 116.766 70.1285 60.7479 63.3475 35.3862 127.841 129.041 134.279 62.8441 65.4885 69.2349 34.7423 114.163 110.573 124.22 52.305 62.3524 59.806 28.1019 106.196 103.493 109.651 49.5336 51.8111 50.7673 24.2031 108.091 104.067 113.876 47.6931 54.3854 52.7257 25.3305 115.082 106.438 115.659 55.9048 53.7059 51.3411 22.3626 111.72 114.177 111.065 58.5144 61.3764 55.0965 33.5421 102.902 113.2 111.145 52.5171 50.3433 59.0805 24.9722 98.5014 104.283 105.46 48.3733 52.5585 54.1195 27.5449 107.693 107.965 102.825 52.4502 45.9428 50.1634 20.8285 119.387 115.486 115.211 58.6923 61.7501 57.8019 31.6217 112.53 111.436 109.173 54.2363 57.6374 57.6837 27.0706 113.764 113.627 111.17 57.2003 54.8925 53.7522 27.1657 107.113 104.848 114.647 52.6089 58.8718 59.8748 30.0346 99.7604 93.708 98.1111 47.0924 48.2415 44.9734 22.5743 120.85 107.516 97.5398 55.626 51.5189 48.7346 24.5181 121.613 104.38 122.143 53.6284 69.3307 58.7819 31.1079 52.2819 45.5983 102.57 22.5206 52.2819 45.5983 22.5206 118.174 53.8886 123.11 115.858 52.2981 57.2414 53.8886 25.4731 52.2981 25.4731 133.68 155.754 149.982 67.7921 64.2856 70.8123 31.7683 144.512 169.353 165.301 73.9518 69.3947 84.9413 36.0238 162.521 164.874 164.505 77.986 75.1174 84.4122 37.928 161.825 163.624 167.492 78.1335 87.4034 80.4617 40.0581 149.613 156.438 159.546 71.7101 74.4214 83.1618 38.0754 150.098 144.442 152.106 71.2133 75.1914 73.2763 33.6347 139.378 138.584 145.112 66.8413 74.9063 71.166 37.5785 136.456 138.342 137.319 65.2609 64.4716 67.4176 29.2627 149.664 145.988 147.601 73.751 71.9839 70.924 35.9982 146.419 143.662 151.274 74.0287 77.6798 75.0636 37.7528 126.542 131.452 129.366 63.8846 68.7395 68.5985 36.2759 125.105 124.806 133.317 60.5647 57.8028 62.8538 27.6086 123.32 115.646 130.178 60.9174 67.3019 61.9523 32.9561 124.809 113.906 115.085 62.4538 56.0184 53.6933 27.9613 130.658 127.405 125.232 66.1967 68.7901 60.213 34.4926 119.708 121.767 124.044 58.2683 61.868 67.1919 31.7042 117.33 106.407 116.957 53.9593 57.8395 54.5754 26.5641 121.443 116.243 114.56 56.3736 59.4906 51.8314 27.3951 111.641 110.902 127.859 50.5328 61.9526 64.4117 28.9785 110.49 105.93 103.914 55.6626 49.6886 46.4903 21.5543 113.703 118.721 115.36 60.6829 60.8015 59.4393 34.1083 109.784 116.319 117.526 55.9096 52.9017 59.2819 26.5746 110.344 116.275 117.934 55.5151 56.8824 57.0376 29.3349 104.997 116.909 116.276 56.7933 53.4612 59.2375 26.1802 107.813 113.734 113.527 57.1995 51.5356 57.6711 30.6131 112.053 113.837 111.788 56.4267 56.2775 56.063 26.5865 105.645 110.337 110.727 52.2393 55.7756 57.7735 29.8402 95.8905 97.7994 106.184 46.6155 49.8696 52.5634 22.3991 98.8334 98.8992 98.3465 51.8905 46.0209 45.236 24.2165 103.101 100.371 96.3288 50.7517 52.8125 53.6632 27.674 50.2881 46.708 99.9122 23.0777 50.2881 46.708 23.0777 147.666 61.969 158.474 134.097 65.3835 65.8689 61.969 26.825 65.3835 26.825 181.603 193.281 185.35 87.9615 85.6966 93.0905 39.044 185.294 209.907 203.423 95.4017 95.9064 100.19 48.9175 169.476 200.327 208.324 86.8879 89.3881 109.717 46.4842 165.213 181.538 182.51 85.4901 80.0883 90.6105 40.4037 162.039 178.987 176.691 84.728 85.1248 90.9275 45.0865 147.12 164.722 174.817 73.2289 76.9142 88.0596 39.6415 143.053 154.011 155.031 71.7423 70.2057 76.6625 33.5874 148.464 149.146 153.663 73.0807 72.8475 77.3481 38.1549 149.211 142.76 154.518 72.2366 75.6169 71.7974 34.9258 134.221 138.081 141.588 69.6335 73.5946 70.9626 37.3109 136.14 142.934 131.422 67.5678 60.6261 67.1185 32.3226 138.39 140.092 148.645 64.2413 75.5141 75.8155 35.2452 121.942 122.127 129.351 54.7282 62.8763 64.2763 28.9962 115.508 113.579 124.802 51.4525 59.0662 57.8504 25.7321 118.618 120.195 120.126 61.2082 56.4422 55.7291 25.7205 121.293 122.805 122.067 63.499 62.1761 64.4661 35.4878 114.187 115.61 127.411 52.4475 59.117 58.3387 28.0113 120.977 121.914 120.037 59.8695 55.0698 57.2715 24.4362 120.132 120.279 128.082 60.3692 65.9068 64.6428 35.4333 108.783 106.438 114.801 50.267 54.225 55.636 24.9359 119.183 116.354 106.473 58.0383 54.5583 50.8024 25.331 125.676 123.813 128.108 60.4099 64.6247 65.5514 32.7072 123.867 113.553 122.654 60.76 61.0515 58.2616 27.7027 124.807 114.423 110.135 60.1153 62.8153 55.2911 33.0573 117.502 114.484 120.377 56.5345 61.9916 59.1319 27.058 110.462 115.543 111.962 57.4099 55.5108 55.3524 29.4765 111.266 115.399 113.489 58.0977 54.9516 60.1908 27.9333 108.64 104.986 104.289 51.1839 56.3149 55.2078 30.1643 95.8418 101.512 113.896 47.0087 52.3255 49.7778 21.0195 93.1403 105.122 91.756 49.6195 43.5163 51.7344 25.9892 49.6241 53.3875 98.5774 23.6303 49.6241 53.3875 23.6303 171.781 72.1279 201.653 169.34 85.4865 92.6051 72.1279 38.5586 85.4865 38.5586 207.17 225.227 224.74 105.319 99.6533 116.166 54.0466 226.452 237.167 237.916 114.505 107.516 109.061 51.2726 221.357 244.716 246.947 113.44 118.935 128.106 63.2328 193.988 221.669 227.322 96.0478 102.421 116.61 50.2068 189.47 214.126 211.088 94.2591 91.5666 105.059 45.841 182.729 206.775 216.277 91.4931 97.9032 109.067 48.4181 165.641 184.767 187.11 82.2683 84.8256 97.7088 43.075 159.716 176.264 176.415 76.0648 80.8152 87.058 39.1932 146.895 166.973 179.254 70.5233 78.901 89.206 36.8716 138.789 159.314 157.926 68.4477 67.9936 77.7673 33.6517 143.926 165.75 152.159 75.3663 70.7957 81.5464 34.7959 139.605 156.93 157.064 75.8505 73.1306 84.2034 40.5704 132.21 140.822 142.732 67.3985 66.4745 72.7266 35.2801 129.42 128.871 133.116 62.127 65.7358 68.0949 32.1183 123.575 119.629 122.947 58.9869 63.684 60.7764 30.0086 128.185 115.319 120.104 59.3058 59.8907 58.8528 28.9783 133.261 124.792 125.079 63.1627 68.2942 56.466 30.3275 127.142 138.84 134.281 62.0448 64.9668 68.3259 32.8353 122.751 133.558 134.496 59.9096 62.1752 70.5139 29.2095 112.491 121.277 120.885 56.1714 60.5759 63.044 30.7001 115.398 125.376 113.858 58.3155 51.9147 58.2331 25.4713 125.086 126.641 136.088 63.4031 63.4836 67.1429 32.8442 108.922 109.843 117.767 52.7927 61.6023 59.4981 30.559 105.706 109.468 105.47 54.3077 47.3202 50.3445 22.2338 114.837 113.046 115.102 57.9498 58.3855 59.1233 32.0739 114.989 115.701 105.034 58.1333 56.4516 53.9224 25.8759 106.511 117.077 112.449 57.3009 58.5369 61.7787 32.2575 109.544 105.292 106.212 53.8017 47.9743 55.2987 25.0434 109.81 104.293 103.114 54.5035 61.5701 49.9932 28.7583 97.1931 109.397 109.688 55.5024 48.2398 54.3001 25.7452 48.9533 55.0969 97.5051 29.7572 48.9533 55.0969 29.7572 222.3 97.2126 254.051 234.191 113.146 109.048 97.2126 46.9279 113.146 46.9279 255.487 279.111 278.461 119.908 125.087 140.905 62.1198 258.411 280.37 284.635 122.661 130.4 138.206 57.7883 252.913 279.116 278.556 131.276 128.012 142.164 64.8731 244.422 259.154 260.892 125.622 124.901 136.952 66.4034 237.895 247.402 244.309 119.867 119.521 122.203 59.2182 220.659 238.564 248.075 115.282 118.374 125.2 60.6485 197.885 212.94 216.335 102.499 102.284 113.364 54.6337 195.953 203.288 203.413 100.199 95.6002 99.5758 47.8648 190.285 205.037 211.239 96.45 100.353 103.713 52.3344 171.296 192.609 200.277 90.866 89.9327 101.325 44.1156 165.297 172.434 172.132 90.3835 81.3634 91.2842 46.7504 160.191 160.402 165.984 81.0796 83.9336 81.1493 43.6331 143.637 154.562 152.21 73.4231 76.2573 79.2531 37.4465 126.643 147.256 150.395 66.7444 67.3801 75.3093 35.9766 119.476 137.391 137.144 60.6423 59.263 71.9463 30.7678 116.998 131.005 128.121 56.013 60.2132 65.4452 29.8745 126.099 134.023 130.437 61.6292 56.7846 65.5596 26.1385 141.635 140.89 132.511 76.795 69.3142 68.4633 35.4906 132.629 132.894 135.292 73.6483 72.3207 72.4266 41.3044 122.252 130.098 124.187 65.1057 60.3087 60.4671 32.3439 134.548 133.361 133.009 67.0605 61.9431 69.6308 32.7618 128.769 124.551 136.109 63.238 72.6044 63.7306 34.2988 114.314 123.061 112.092 57.05 56.165 60.8207 28.9392 114.865 114.173 130.269 55.1602 58.1494 62.2399 28.1108 105.299 112.932 112.21 55.0959 56.716 51.9329 27.0494 102.495 116.265 114.415 57.5678 48.5826 60.9991 28.0465 112.15 107.331 103.467 59.7766 53.9123 55.2657 29.5212 99.7818 94.089 108.115 51.4903 58.238 52.0655 30.2553 102.992 94.2158 93.6559 49.7898 41.5438 42.0236 21.235 110 101.231 110.646 53.8945 61.4483 52.1923 28.5548 48.5518 49.0387 97.5664 25.3396 48.5518 49.0387 25.3396 290.352 136.978 145.004 136.978 66.2185 145.004 136.978 66.2185 66.2185 66.2185 307.609 159.203 153.374 159.203 153.374 78.7852 78.7852 304.78 157.708 154.235 157.708 154.235 80.4176 80.4176 286.536 147.839 150.545 147.839 150.545 77.2908 77.2908 260.779 133.533 135.991 133.533 135.991 70.5483 70.5483 254.489 127.536 124.788 127.536 124.788 62.9846 62.9846 243.751 123.282 129.7 123.282 129.7 64.5513 64.5513 221.864 110.442 114.051 110.442 114.051 58.7307 58.7307 218.699 103.089 107.813 103.089 107.813 51.711 51.711 221.231 108.587 110.886 108.587 110.886 51.3783 51.3783 201.113 101.743 110.345 101.743 110.345 57.209 57.209 172.818 82.05 90.7681 82.05 90.7681 44.5338 44.5338 158.003 79.3228 82.0503 79.3228 82.0503 37.5162 37.5162 158.967 81.1393 75.9525 81.1393 75.9525 41.8066 41.8066 160.896 80.5111 83.0144 80.5111 83.0144 39.3327 39.3327 145.789 76.7492 77.8812 76.7492 77.8812 41.1785 41.1785 141.559 74.9917 67.9073 74.9917 67.9073 35.5707 35.5707 136.848 72.3937 73.6519 72.3937 73.6519 39.421 39.421 126.168 64.0949 63.1963 64.0949 63.1963 32.9726 32.9726 126.849 59.2454 62.9714 59.2454 62.9714 31.1223 31.1223 134.944 64.9922 63.8779 64.9922 63.8779 28.1232 28.1232 134.57 66.3008 71.0659 66.3008 71.0659 36.869 36.869 119.432 61.3133 63.5044 61.3133 63.5044 29.4318 29.4318 128.047 66.0106 55.9275 66.0106 55.9275 31.8815 31.8815 127.613 59.0126 72.1195 59.0126 72.1195 34.1291 34.1291 121.326 57.8361 55.4937 57.8361 55.4937 24.8835 24.8835 115.387 58.6971 65.8322 58.6971 65.8322 32.9526 32.9526 99.4316 47.5546 49.5544 47.5546 49.5544 25.7445 25.7445 101.989 42.5988 49.8772 42.5988 49.8772 21.8102 21.8102 101.31 44.4261 52.1122 44.4261 52.1122 20.7886 20.7886 98.2124 47.3366 49.1979 47.3366 49.1979 23.6375 23.6375 49.0145 23.6991 49.0145 23.6991 49.0145 23.6991 23.6991 134.066 127.81 65.9469 270.466 127.81 239.312 225.329 108.476 65.9469 134.066 127.81 65.9469 108.476 65.9469 138.84 142.656 281.026 257.559 256.58 68.1194 138.84 142.656 130.836 68.1194 140.08 138.37 263.713 243.089 243.729 70.7204 140.08 138.37 126.723 70.7204 133.84 125.344 251.473 235.387 216.793 69.3599 133.84 125.344 116.366 69.3599 125.5 126.129 241.159 223.573 237.615 64.4797 125.5 126.129 119.021 64.4797 114.892 115.03 230.458 208.983 202.289 61.0199 114.892 115.03 104.552 61.0199 100.493 115.428 214.11 198.346 212.083 53.8717 100.493 115.428 104.431 53.8717 94.6106 98.6816 196.513 183.783 187.647 46.6213 94.6106 98.6816 93.915 46.6213 89.9168 97.8318 180.584 182.225 178.26 47.9894 89.9168 97.8318 89.8684 47.9894 82.5238 82.752 158.596 166.268 175.047 41.9274 82.5238 82.752 92.3571 41.9274 78.6684 75.8443 150.636 143.388 147.484 40.5964 78.6684 75.8443 73.911 40.5964 81.3173 74.7913 154.748 153.389 139.615 38.072 81.3173 74.7913 69.4771 38.072 87.3555 79.9568 162.133 155.55 157.456 43.2453 87.3555 79.9568 83.9124 43.2453 80.9962 82.1757 153.055 146.969 146.692 44.1102 80.9962 82.1757 71.6376 44.1102 66.6121 70.879 132.505 137.956 140.894 36.8859 66.6121 70.879 75.3312 36.8859 62.5005 61.6256 124.503 121.115 122.763 29.7262 62.5005 61.6256 62.6247 29.7262 67.9602 62.8779 129.265 126.627 126.323 32.7744 67.9602 62.8779 58.4902 32.7744 65.4764 66.387 128.109 128.47 139.128 35.1859 65.4764 66.387 68.1372 35.1859 57.524 61.722 118.187 112.315 120.314 30.2905 57.524 61.722 60.3332 30.2905 57.2178 56.4645 118.355 109.369 108.55 27.2335 57.2178 56.4645 51.9819 27.2335 58.3428 61.891 115.395 117.735 114.923 29.9843 58.3428 61.891 57.387 29.9843 58.9143 53.5037 109.916 114.499 116.737 28.3585 58.9143 53.5037 60.3483 28.3585 61.0345 56.4119 113.189 113.451 106.518 30.5558 61.0345 56.4119 54.1511 30.5558 59.8934 56.7768 119.39 115.33 115.646 30.4786 59.8934 56.7768 59.3 30.4786 50.0587 62.6133 107.923 101.124 123.187 29.4147 50.0587 62.6133 56.0298 29.4147 40.2828 45.3101 91.5588 88.4516 93.5278 20.6439 40.2828 45.3101 45.0939 20.6439 43.4365 46.2487 92.9453 102.108 95.9145 19.6388 43.4365 46.2487 43.3577 19.6388 53.4807 46.6965 104.171 110.769 110.12 23.7976 53.4807 46.6965 58.7508 23.7976 51.4856 57.4743 104.461 101.417 107.557 29.6831 51.4856 57.4743 52.0182 29.6831 48.9173 46.9868 94.7222 104.469 102.681 21.8025 48.9173 46.9868 49.3987 21.8025 48.4045 47.7354 95.4776 107.667 103.292 27.1148 48.4045 47.7354 55.0699 27.1148 21.2898 47.7423 47.7423 52.5969 102.303 21.2898 21.2898 47.7423 52.5969 21.2898 211.443 97.5195 176.006 167.337 69.7614 105.245 97.5195 42.5289 69.7614 42.5289 219.282 212.288 190.84 118.719 113.923 106.245 62.7165 196.809 195.343 201.628 103.009 105.359 106.043 56.0028 202.936 188.682 173.74 101.548 91.4498 89.2994 47.0062 198.745 182.533 196.991 98.0738 111.486 99.383 54.5416 183.914 165.951 167.11 94.0914 87.2589 83.1497 43.5321 185.62 171.523 166.529 97.853 96.6551 82.801 50.5592 169.394 166.161 164.659 89.1728 88.9651 88.7222 47.2937 172.724 163.302 152.134 92.3087 80.4285 77.4387 41.879 163.935 152.875 157.364 83.7442 92.2953 85.8629 50.4297 136.463 132.708 140.857 64.7196 71.6398 67.0117 33.3146 142.323 136.571 135.277 72.0722 64.8233 65.6966 31.4051 142.016 125.816 141.483 68.1945 77.4996 70.8745 40.6671 134.531 118.749 125.826 65.9727 64.5162 54.9418 27.5274 131.152 127.452 127.391 71.3439 70.0149 63.807 38.4453 124.583 123.611 123.174 58.6144 61.1375 63.6447 32.8986 136.187 120.526 123.425 58.6671 63.4454 59.9663 25.7158 131.334 119.657 124.232 62.994 72.7413 60.5593 32.9513 110.678 115.189 111.45 54.7911 58.5925 59.0975 30.0427 105.117 111.329 111.307 52.1511 52.0855 56.0917 24.7484 116.265 112.598 105.949 59.3924 53.0316 55.2369 27.4027 113.339 105.97 112.306 55.585 63.2333 57.3609 31.9898 108.975 102.545 105.504 52.4166 50.106 48.6089 23.5953 119.442 110.679 119.462 55.4364 58.869 53.9358 28.8214 108.791 111.76 121.153 51.065 60.5733 56.7435 26.6151 97.8835 106.462 105.441 48.1688 48.2177 55.0167 24.4499 113.089 115.236 106.17 58.672 49.6657 51.4456 23.7189 113.506 111.793 119.61 57.2882 63.4238 63.7903 34.9531 105.777 102.599 103.197 49.9312 50.0826 48.0022 22.3351 111.25 120.775 106.392 55.5513 55.694 54.5969 27.5961 110.117 127.246 121.602 59.2623 55.5562 66.178 27.9552 54.5609 61.0685 114.075 31.3071 54.5609 61.0685 31.3071 146.735 69.8174 131.694 129.326 55.6481 70.7609 69.8174 27.2326 55.6481 27.2326 173.186 159.457 139.162 93.5688 76.9172 76.0456 43.5283 178.559 162.894 170.9 92.3337 96.2684 83.4114 50.0405 167.796 171.669 157.299 87.1346 82.2901 79.4826 42.2932 165.357 168.15 172.923 84.459 85.5057 92.1867 44.8414 149.725 149.762 155.95 71.8593 79.8514 75.9636 39.6176 145.568 152.555 157.264 73.6701 69.874 73.7984 32.2417 147.4 149.525 148.811 76.9881 75.6939 78.7561 41.4284 136.774 142.188 143.144 70.9929 71.7056 70.7685 35.5597 134.285 145.043 137.867 69.1304 65.0687 71.419 35.4333 139.67 140.379 147.745 67.9886 69.2168 73.6241 33.6971 134.437 127.157 135.487 64.4989 70.4535 66.7551 34.2915 125.293 122.162 128.414 57.6218 63.9837 60.4016 30.2074 118.686 115.179 121.88 52.776 61.3096 61.7601 27.4144 119.413 118.463 112.742 56.1079 57.3761 53.4189 25.3617 122.016 129.458 127.902 64.9967 62.0365 65.0436 30.7462 111.47 123.298 121.319 61.8585 59.9795 64.4144 34.2505 104.348 120.034 104.819 56.6628 51.4907 58.8834 27.608 112.079 125.468 112.554 60.3982 52.8577 61.1503 29.0548 112.139 120.286 123.94 59.1775 59.2214 64.3175 31.3433 101.99 108.033 110.214 53.2053 52.9173 55.9684 27.8342 104.471 103.405 109.514 50.3848 49.073 52.0643 25.3711 115.99 104.003 111.312 50.1281 55.3975 51.3407 25.0137 121.172 110.071 112.475 55.2428 60.5929 52.6619 25.1144 117.802 108.899 114.913 60.6952 60.5794 57.4094 30.1284 113.727 108.907 104.504 58.2935 57.2229 51.4893 30.5668 112.69 112.19 122.212 56.5639 56.5039 57.4178 27.7267 109.301 107.91 111.76 54.5043 56.1862 54.7725 28.8372 103.812 101.943 101.405 52.6679 53.1143 53.1377 25.6672 116.744 112.167 99.9523 65.2236 50.6981 48.8052 27.0008 125.56 120.333 119.141 67.9842 66.0459 63.3613 38.2228 59.5141 56.9718 115.295 29.7614 59.5141 56.9718 29.7614 121.753 59.5087 142.729 119.145 63.5596 60.9328 59.5087 28.4155 63.5596 28.4155 136.876 159.53 147.203 65.8882 62.2445 79.1699 32.5173 149.64 160.453 157.817 70.5603 74.6311 80.3598 33.3709 162.425 167.123 164.053 84.5347 75.0086 80.0933 37.1894 163.515 163.414 169.15 83.6913 87.4169 87.03 47.3453 163.488 155.214 159.273 77.9027 76.0982 76.3843 36.346 160.507 152.775 169.108 78.8844 87.3902 78.8294 41.5567 144.556 143.848 150.581 72.5366 73.1172 73.946 37.3277 144.237 146.578 147.403 71.1946 71.4386 69.9015 35.2089 151.327 152.888 154.624 75.9128 72.7982 76.6769 35.9857 143.562 136.978 144.93 72.3906 78.5284 76.2107 39.927 129.463 131.23 128.953 62.6578 65.0333 60.7672 32.4636 125 138.689 140.32 64.54 64.43 70.4631 30.1942 115.936 129.617 121.639 62.403 60.57 68.2259 34.3458 121.231 126.411 118.332 62.3547 55.3657 61.3913 28.0572 127.205 121.871 131.412 64.4613 65.8654 65.0192 34.2975 114.668 119.233 118.923 61.4393 61.3394 56.8521 30.1639 113.025 125.11 111.72 63.3709 53.3283 62.3812 31.2754 124.415 126.177 123.854 65.0696 59.6963 62.729 32.0955 122.015 120.871 129.363 61.1083 64.7182 63.4476 32.9741 117.737 113.344 117.417 54.8274 57.2966 57.4233 28.1342 116.356 114.165 120.075 53.0203 60.4408 55.9205 26.6932 107.797 119.141 113.653 53.8745 55.9149 58.2445 26.327 106.216 117.935 113.768 54.8285 51.8817 60.8963 27.5475 101.615 112.895 119.118 48.2036 54.334 57.039 27.281 112.989 111.582 114.706 50.6137 47.2812 55.8562 20.9226 121.282 108.679 120.537 55.6264 65.708 55.7253 29.6911 103.864 106.575 111.737 53.4059 55.5737 52.9536 25.9354 97.5448 106.732 94.3215 49.275 48.2905 53.621 27.4705 102.349 95.776 101.232 46.9429 49.2542 53.1105 21.8045 108.876 95.8696 98.2778 52.3488 53.0947 42.6655 25.1385 55.7812 53.2041 109.85 27.2104 55.7812 53.2041 27.2104 144.595 59.6365 160.973 131.171 68.7134 81.7967 59.6365 35.1441 68.7134 35.1441 168.143 195.492 179.732 93.6415 84.9581 92.2593 46.6526 172.23 201.839 191.836 89.8928 83.1854 103.233 46.9889 170.778 190.506 198.46 82.5885 89.0444 98.6066 42.9039 164.908 177.663 183.069 79.723 81.7334 91.8991 39.6846 164.892 172.522 178.906 77.311 83.1747 85.7639 40.0383 159.182 165.127 185.024 73.891 81.7178 86.7578 37.2727 153.429 154.683 162.932 71.3109 77.4642 78.3688 36.6183 157.791 159.035 159.233 75.3837 75.9647 76.3146 34.6926 148.228 153.346 164.736 76.9748 81.8262 82.7205 40.6911 130.322 134.929 142.252 64.5872 66.4018 70.6256 36.2837 139.81 137.132 133.613 68.5724 63.9197 64.3033 28.3036 136.958 137.904 141.84 74.149 75.8899 72.8291 40.2689 124.035 132.026 125.028 67.2143 61.0686 65.0745 33.8801 128.513 131.349 128.689 64.0559 62.966 66.9516 33.3341 123.13 121.998 129.198 57.41 65.547 64.3971 30.7217 115.975 126.673 120.691 57.794 57.5834 57.6006 26.6883 122.549 131.838 135.592 61.7393 58.3918 69.0725 31.1057 128.803 126.204 128.714 61.1071 64.1577 62.7651 30.6336 124.765 122.604 131.489 59.7626 64.6452 63.4391 30.4735 119.754 114.836 121.449 58.5164 60.12 59.1649 29.2891 117.372 118.227 115.243 61.1447 59.6339 55.6707 29.2273 119.624 126.949 118.44 65.2662 57.7381 62.5568 31.9174 126.67 119.237 117.654 63.1068 61.8862 64.3921 33.3488 132.208 116.09 119.206 64.6916 64.7836 54.8444 29.758 122.253 117.855 122.321 60.9679 67.4244 61.2452 34.9336 110.992 109.908 122.054 53.0525 54.8286 56.61 26.0343 102.194 102.379 114.941 53.1688 56.1632 53.2977 27.0183 98.0085 113.199 96.6273 57.4565 46.0309 49.0814 26.1505 97.1607 104.139 111.595 48.8331 51.9775 64.1178 31.306 99.2521 85.2114 98.24 43.5208 45.1832 40.0216 17.5271 54.0689 45.1898 98.2212 25.9937 54.0689 45.1898 25.9937 166.309 71.5345 192.428 175.735 83.854 79.1761 71.5345 33.5693 83.854 33.5693 203.425 237.429 220.925 101.851 94.7741 108.574 45.6067 218.066 247.697 245.597 111.947 108.651 128.855 56.2439 210.752 229.553 230.564 107.917 109.416 118.841 55.7027 197.067 216.74 222.242 97.94 101.336 110.712 52.2144 199.037 213.239 216.092 95.2107 95.7312 106.028 45.7256 188.774 196.612 217.339 91.2357 103.306 107.211 49.4851 168.736 178.759 188.172 83.3725 85.4682 89.4012 41.7505 166.177 179.405 183.56 83.6513 83.2681 89.3574 41.622 158.76 170.207 176.69 76.3712 82.9094 90.0477 42.0294 145.544 150.772 167.67 70.3416 75.8506 80.159 34.3419 135.643 143.473 149.4 68.5599 69.6932 70.6127 35.9997 129.909 142.866 143.369 63.7546 65.9499 72.8607 32.5602 129.682 135.026 149.016 64.8118 63.959 70.0052 31.1944 129.374 127.191 125.989 67.2928 65.7232 65.0209 33.6174 126.758 123.422 123.935 64.5878 63.6511 62.1706 33.6754 140.308 129.864 130.681 68.8791 63.1072 61.251 30.9123 141.757 134.568 143.427 70.0982 77.2006 68.6128 37.9667 131.4 129.937 134.221 65.0971 64.5565 65.9551 32.1315 128.173 121.823 125.111 62.8414 66.8439 63.982 32.9656 116.939 113.465 117.595 56.3192 61.3293 57.8405 29.8758 116.311 124.57 108.445 57.0828 55.6095 55.6247 26.4434 116.469 127.214 133.926 61.6827 60.7015 68.945 30.6394 110.189 113.394 108.068 56.1297 55.7674 58.2691 31.0433 109.318 111.103 115.355 51.398 54.4219 55.1251 25.0864 122.122 107.09 111.13 56.8873 54.8964 55.9782 26.3116 126.003 101.782 121.638 56.8552 67.2252 51.1117 30.5757 109.375 101.584 109.592 49.2104 58.7782 50.6705 26.2795 110.214 104.034 101.128 55.7427 50.5964 50.9136 22.9309 112.675 108.509 107.955 55.3064 59.6179 53.1207 32.8118 97.2091 97.7963 111.065 41.6906 53.0568 55.3881 22.4945 44.1522 42.4083 93.5046 19.1961 44.1522 42.4083 19.1961 230.352 104.2 258.6 248.298 121.045 113.252 104.2 50.2846 121.045 50.2846 263.097 283.985 282.071 135.579 126.151 137.556 62.9674 258.094 282.821 290.024 135.75 136.946 146.429 72.6114 242.054 260.333 266.169 121.636 121.148 136.392 63.1386 241.267 246.047 257.703 118.8 120.906 123.94 58.4976 234.394 244.981 247.626 118.029 120.361 122.106 60.3028 216.737 225.846 245.156 105.376 114.033 122.875 57.7258 202.995 206.809 220.32 95.3861 102.703 102.971 47.6507 194.073 211.364 218.433 95.7537 100.292 103.838 47.7354 185.6 206.479 208.279 93.8355 93.7807 107.526 48.0183 171.526 179.8 200.923 80.4301 91.819 98.9528 45.8172 157.126 165.682 166.726 74.9135 79.7065 80.8474 34.613 162.477 157.791 168.821 79.1113 77.4194 84.8345 40.3005 145.323 148.042 159.427 70.2143 85.0574 72.9568 38.8108 120.55 140.283 143.041 59.8987 60.2656 75.0852 31.4035 127.858 127.873 132.821 58.8339 60.2844 65.1979 28.4952 133.801 127.552 132.196 60.9848 67.5741 62.6753 30.3387 135.891 128.924 136.759 64.4697 66.2267 64.877 30.6461 127.932 126.913 133.277 64.84 69.6648 64.0473 33.8236 114.532 126.585 127.527 58.9811 58.2668 62.8655 31.0164 109.101 127.098 122.403 57.1461 56.2657 63.7195 27.9648 126.06 135.756 124.948 67.487 52.8355 63.3783 29.1813 125.524 123.65 138.804 65.5315 73.2242 72.3782 38.3057 113.233 119.301 102.685 57.2645 52.3002 51.2718 27.2258 117.166 128.306 128.139 59.7052 60.9329 68.029 30.0387 110.647 113.693 122.586 50.2026 56.2335 60.2768 29.6666 105.226 101.617 112.548 44.9271 54.4131 53.4157 20.536 101.345 104.251 103.552 52.3738 50.8134 48.201 24.3911 98.8693 107.682 109.731 48.2915 50.5318 56.0497 27.9827 106.346 110.086 100.337 53.2024 48.3375 51.6324 20.3088 107.361 106.982 111.279 56.1057 58.0082 58.4539 32.8935 49.3524 48.5276 103.352 23.2122 49.3524 48.5276 23.2122 300.017 144.097 145.348 144.097 70.7599 145.348 144.097 70.7599 70.7599 70.7599 308.997 148.406 155.919 148.406 155.919 74.5883 74.5883 298.099 147.071 153.077 147.071 153.077 73.8174 73.8174 281.818 138.696 145.021 138.696 145.021 73.2537 73.2537 264.062 127.246 136.797 127.246 136.797 65.4428 65.4428 258.388 126.953 127.265 126.953 127.265 61.8036 61.8036 248.74 120.47 131.123 120.47 131.123 65.1492 65.1492 235.758 111.423 117.617 111.423 117.617 55.3204 55.3204 232.639 115.61 118.141 115.61 118.141 56.1023 56.1023 223.602 112.643 114.498 112.643 114.498 59.5077 59.5077 196.123 99.37 109.104 99.37 109.104 53.1356 53.1356 178.421 90.7684 87.0194 90.7684 87.0194 46.2344 46.2344 165.771 78.68 91.402 78.68 91.402 44.534 44.534 157.145 77.8277 74.3692 77.8277 74.3692 34.1459 34.1459 155.312 80.3845 82.7754 80.3845 82.7754 43.6818 43.6818 137.159 69.0394 72.5367 69.0394 72.5367 36.7028 36.7028 135.154 66.5676 64.6219 66.5676 64.6219 32.3366 32.3366 134.144 64.4546 70.5325 64.4546 70.5325 34.2309 34.2309 132.872 62.0729 63.6118 62.0729 63.6118 30.2237 30.2237 135.397 67.6039 69.2598 67.6039 69.2598 31.8492 31.8492 138.25 69.9517 66.1376 69.9517 66.1376 35.7547 35.7547 137.692 68.2695 72.1124 68.2695 72.1124 34.197 34.197 115.965 58.1185 65.5799 58.1185 65.5799 34.0726 34.0726 117.591 62.0363 50.3848 62.0363 50.3848 24.046 24.046 133.558 68.6006 67.2059 68.6006 67.2059 37.9904 37.9904 124.487 63.4899 66.3524 63.4899 66.3524 30.6103 30.6103 110.873 56.6896 58.1345 56.6896 58.1345 32.8796 32.8796 111.938 51.877 52.739 51.877 52.739 23.8099 23.8099 111.199 59.3906 59.1989 59.3906 59.1989 28.0671 28.0671 105.271 56.884 51.9997 56.884 51.9997 31.3236 31.3236 107.271 50.8758 53.271 50.8758 53.271 25.5604 25.5604 54 25.3154 54 25.3154 54 25.3154 25.3154 136.4 61.8629 61.8629 136.4 61.8629 242.597 116.854 116.854 61.8629 136.4 61.8629 61.8629 116.854 61.8629 142.186 74.5369 142.186 242.749 125.744 74.5369 142.186 74.5369 125.744 74.5369 123.633 67.6492 123.633 217.433 117.006 67.6492 123.633 67.6492 117.006 67.6492 117.633 55.9837 117.633 219.021 100.427 55.9837 117.633 55.9837 100.427 55.9837 115.659 61.6495 115.659 216.33 118.594 61.6495 115.659 61.6495 118.594 61.6495 115.566 54.0098 115.566 205.389 97.7366 54.0098 115.566 54.0098 97.7366 54.0098 113.617 61.5564 113.617 201.384 107.652 61.5564 113.617 61.5564 107.652 61.5564 101.903 52.0603 101.903 182.123 93.7316 52.0603 101.903 52.0603 93.7316 52.0603 90.667 49.8424 90.667 171.082 88.3919 49.8424 90.667 49.8424 88.3919 49.8424 76.0725 40.8246 76.0725 156.263 82.6903 40.8246 76.0725 40.8246 82.6903 40.8246 71.9673 35.2479 71.9673 143.711 73.5732 35.2479 71.9673 35.2479 73.5732 35.2479 73.4309 36.7193 73.4309 143.682 70.1376 36.7193 73.4309 36.7193 70.1376 36.7193 74.777 36.7115 74.777 148.598 73.544 36.7115 74.777 36.7115 73.544 36.7115 72.0585 38.0655 72.0585 140.617 75.0543 38.0655 72.0585 38.0655 75.0543 38.0655 65.8925 33.9931 65.8925 125.701 65.5626 33.9931 65.8925 33.9931 65.5626 33.9931 62.003 31.8994 62.003 127.972 60.1383 31.8994 62.003 31.8994 60.1383 31.8994 61.3047 30.1035 61.3047 138.824 67.8332 30.1035 61.3047 30.1035 67.8332 30.1035 62.6327 31.2011 62.6327 130.972 70.9911 31.2011 62.6327 31.2011 70.9911 31.2011 60.6625 31.4315 60.6625 116.549 59.9813 31.4315 60.6625 31.4315 59.9813 31.4315 61.1377 29.231 61.1377 114.104 56.5681 29.231 61.1377 29.231 56.5681 29.231 57.0518 31.9067 57.0518 113.924 57.5356 31.9067 57.0518 31.9067 57.5356 31.9067 51.0013 25.1452 51.0013 108.756 56.3887 25.1452 51.0013 25.1452 56.3887 25.1452 52.1543 25.8561 52.1543 108.713 52.3669 25.8561 52.1543 25.8561 52.3669 25.8561 59.4967 26.2981 59.4967 123.502 56.3457 26.2981 59.4967 26.2981 56.3457 26.2981 57.8647 33.1985 57.8647 115.591 67.1567 33.1985 57.8647 33.1985 67.1567 33.1985 51.2761 24.6662 51.2761 100.991 48.434 24.6662 51.2761 24.6662 48.434 24.6662 49.5088 26.6099 49.5088 103.926 52.5567 26.6099 49.5088 26.6099 52.5567 26.6099 50.69 22.8989 50.69 106.908 51.3695 22.8989 50.69 22.8989 51.3695 22.8989 52.9755 27.7912 52.9755 108.821 55.5387 27.7912 52.9755 27.7912 55.5387 27.7912 45.8049 25.1843 45.8049 101.504 53.2822 25.1843 45.8049 25.1843 53.2822 25.1843 47.0731 20.6206 47.0731 97.928 48.2217 20.6206 47.0731 20.6206 48.2217 20.6206 26.4525 26.4525 26.4525 49.7063 49.7063 26.4525 26.4525 26.4525 49.7063 26.4525 106.197 54.9907 182.171 97.5755 97.5755 106.197 54.9907 54.9907 97.5755 54.9907 100.563 180.18 84.5956 100.563 51.2067 84.5956 51.2067 93.8 180.025 95.5843 93.8 49.3564 95.5843 49.3564 101.388 182.049 84.4405 101.388 44.4436 84.4405 44.4436 100.671 181.569 97.6084 100.671 56.9441 97.6084 56.9441 89.8227 167.689 83.9606 89.8227 43.7268 83.9606 43.7268 87.7672 159.665 83.7281 87.7672 46.0959 83.7281 46.0959 80.2208 150.632 75.9368 80.2208 41.6713 75.9368 41.6713 80.4151 146.197 74.6954 80.4151 38.5494 74.6954 38.5494 80.1909 145.346 71.5011 80.1909 41.8657 71.5011 41.8657 71.7435 143.425 73.8449 71.7435 38.3252 73.8449 38.3252 70.2507 140.189 69.5802 70.2507 33.4182 69.5802 33.4182 73.8213 141.493 70.6087 73.8213 36.8325 70.6087 36.8325 68.5584 134.468 70.884 68.5584 36.9888 70.884 36.9888 59.8085 123.113 63.584 59.8085 31.5696 63.584 31.5696 65.9685 122.988 59.5292 65.9685 28.2389 59.5292 28.2389 77.5196 127.131 63.4586 77.5196 37.7296 63.4586 37.7296 68.3398 116.025 63.6728 68.3398 39.79 63.6728 39.79 55.8868 107.568 52.3527 55.8868 28.5498 52.3527 28.5498 52.966 105.927 55.2151 52.966 27.337 55.2151 27.337 56.8725 105.657 50.7121 56.8725 25.6289 50.7121 25.6289 57.7543 111.84 54.9454 57.7543 31.2435 54.9454 31.2435 56.5583 122.421 56.8946 56.5583 26.5107 56.8946 26.5107 64.0058 129.935 65.5261 64.0058 30.0476 65.5261 30.0476 57.726 114.833 64.4092 57.726 33.9582 64.4092 33.9582 49.7146 105.148 50.4239 49.7146 23.7678 50.4239 23.7678 54.4175 110.544 54.724 54.4175 25.9468 54.724 25.9468 56.2182 111.014 55.8196 56.2182 28.4706 55.8196 28.4706 55.8454 106.99 55.1947 55.8454 27.7475 55.1947 27.7475 55.699 107.219 51.7953 55.699 28.0979 51.7953 28.0979 50.8549 108.431 55.4242 50.8549 27.6011 55.4242 27.6011 23.2538 53.0065 53.0065 23.2538 23.2538 53.0065 23.2538 75.9737 42.5849 136.794 73.6781 73.6781 75.9737 42.5849 42.5849 73.6781 42.5849 79.6167 150.604 63.116 79.6167 33.3888 63.116 33.3888 86.2248 165.304 87.4881 86.2248 46.2279 87.4881 46.2279 80.6612 158.552 77.8161 80.6612 39.9969 77.8161 39.9969 80.8981 160.722 80.7359 80.8981 40.6643 80.7359 40.6643 77.8661 163.452 79.9861 77.8661 40.2338 79.9861 40.2338 71.8977 153.521 83.4658 71.8977 37.6322 83.4658 37.6322 70.4115 142.431 70.0549 70.4115 34.2655 70.0549 34.2655 65.7814 138.824 72.3757 65.7814 36.146 72.3757 36.146 65.1551 140.569 66.4479 65.1551 29.6354 66.4479 29.6354 71.6817 142.853 74.121 71.6817 35.5197 74.121 35.5197 69.9382 136.744 68.7317 69.9382 36.162 68.7317 36.162 67.6714 128.132 68.0121 67.6714 33.7762 68.0121 33.7762 65.9096 119.442 60.1194 65.9096 33.8952 60.1194 33.8952 63.3047 122.181 59.3229 63.3047 32.0144 59.3229 32.0144 57.0193 119.763 62.8582 57.0193 31.2903 62.8582 31.2903 49.6117 102.84 56.9046 49.6117 25.729 56.9046 25.729 47.6857 97.3394 45.9357 47.6857 23.8828 45.9357 23.8828 51.681 111.026 51.4037 51.681 23.8029 51.4037 23.8029 52.9612 113.868 59.6222 52.9612 27.8781 59.6222 27.8781 48.785 111.695 54.2455 48.785 25.0831 54.2455 25.0831 54.0857 117.421 57.4494 54.0857 23.7019 57.4494 23.7019 65.8624 119.785 59.9717 65.8624 30.3839 59.9717 30.3839 65.9295 117.317 59.8128 65.9295 35.4785 59.8128 35.4785 57.1071 110.519 57.504 57.1071 30.451 57.504 30.451 55.4333 117.809 53.0148 55.4333 26.6562 53.0148 26.6562 56.1262 121.781 64.7941 56.1262 28.7772 64.7941 28.7772 54.7962 105.255 56.9873 54.7962 27.349 56.9873 27.349 51.1446 99.4143 48.2672 51.1446 27.4472 48.2672 27.4472 51.5205 106.926 51.1471 51.5205 23.6974 51.1471 23.6974 57.5758 114.103 55.7793 57.5758 27.8231 55.7793 27.8231 29.7527 58.3235 58.3235 29.7527 29.7527 58.3235 29.7527 60.8204 31.0932 123.618 55.5856 55.5856 60.8204 31.0932 31.0932 55.5856 31.0932 70.9874 145.489 68.0327 70.9874 29.7272 68.0327 29.7272 79.0794 161.416 77.4567 79.0794 41.2602 77.4567 41.2602 77.8907 166.08 83.9597 77.8907 37.8192 83.9597 37.8192 79.8238 165.009 82.1203 79.8238 40.0716 82.1203 40.0716 85.5858 173.167 82.8886 85.5858 39.7522 82.8886 39.7522 81.623 166.914 90.2786 81.623 45.8336 90.2786 45.8336 72.0191 154.137 76.6353 72.0191 35.7895 76.6353 35.7895 73.0422 155.449 77.5018 73.0422 36.2297 77.5018 36.2297 75.4139 146.667 77.9476 75.4139 36.8125 77.9476 36.8125 71.1711 136.905 68.7195 71.1711 38.6013 68.7195 38.6013 66.8056 138.043 68.1859 66.8056 32.5697 68.1859 32.5697 60.4601 123.269 69.8568 60.4601 34.2358 69.8568 34.2358 53.5327 110.353 53.4127 53.5327 26.2242 53.4127 26.2242 58.8764 123.334 56.9403 58.8764 27.3085 56.9403 27.3085 62.7435 128.464 66.3932 62.7435 31.5679 66.3932 31.5679 53.2285 111.41 62.0707 53.2285 31.1756 62.0707 31.1756 49.6538 110.464 49.3389 49.6538 22.0529 49.3389 22.0529 59.3449 127.041 61.125 59.3449 27.6009 61.125 27.6009 60.9065 125.909 65.9158 60.9065 31.7441 65.9158 31.7441 62.9099 124.148 59.9933 62.9099 29.1624 59.9933 29.1624 63.3354 119.563 64.1542 63.3354 33.7475 64.1542 33.7475 53.9221 108.28 55.4086 53.9221 29.5879 55.4086 29.5879 51.3873 114.95 52.8716 51.3873 24.3342 52.8716 24.3342 53.4116 120.928 62.0787 53.4116 27.053 62.0787 27.053 62.3756 123.661 58.8494 62.3756 26.3586 58.8494 26.3586 65.6553 123.595 64.8113 65.6553 36.0169 64.8113 36.0169 50.4584 99.4837 58.7832 50.4584 29.6384 58.7832 29.6384 48.2698 88.8217 40.7005 48.2698 20.82 40.7005 20.82 55.406 103.734 48.1213 55.406 27.4497 48.1213 27.4497 56.527 112.258 55.6123 56.527 27.9562 55.6123 27.9562 28.5708 56.646 56.646 28.5708 28.5708 56.646 28.5708 62.7979 24.4924 149.93 62.4575 62.4575 62.7979 24.4924 24.4924 62.4575 24.4924 74.502 176.076 87.4728 74.502 38.3055 87.4728 38.3055 82.337 188.457 88.6032 82.337 36.1965 88.6032 36.1965 88.1893 191.024 99.8535 88.1893 46.1405 99.8535 46.1405 85.1851 184.312 91.1702 85.1851 42.0487 91.1702 42.0487 87.5814 191.408 93.142 87.5814 43.1364 93.142 43.1364 85.2909 182.829 98.2659 85.2909 44.4451 98.2659 44.4451 82.118 167.482 84.5635 82.118 40.8459 84.5635 40.8459 82.4072 164.933 82.9182 82.4072 41.2721 82.9182 41.2721 71.2532 153.642 82.0151 71.2532 41.135 82.0151 41.135 65.7343 140.937 71.6268 65.7343 30.1182 71.6268 30.1182 71.2371 138.32 69.3097 71.2371 35.6162 69.3097 35.6162 62.8094 128.964 69.0107 62.8094 35.621 69.0107 35.621 56.8203 121.691 59.953 56.8203 27.1884 59.953 27.1884 64.4571 126.539 61.7376 64.4571 29.6318 61.7376 29.6318 65.7204 127.891 64.8009 65.7204 34.8253 64.8009 34.8253 58.1812 129.61 63.09 58.1812 30.8951 63.09 30.8951 60.8101 132.469 66.5199 60.8101 27.286 66.5199 27.286 67.6958 133.999 65.9491 67.6958 33.5241 65.9491 33.5241 65.0026 130.334 68.0499 65.0026 34.1717 68.0499 34.1717 61.2376 121.857 62.2845 61.2376 30.8309 62.2845 30.8309 56.2274 115.456 59.5727 56.2274 30.4067 59.5727 30.4067 54.3581 109.144 55.8828 54.3581 25.8207 55.8828 25.8207 63.563 117.623 53.2615 63.563 28.5374 53.2615 28.5374 67.5164 125.437 64.3611 67.5164 35.0256 64.3611 35.0256 61.2852 126.519 61.0756 61.2852 32.4908 61.0756 32.4908 57.9393 127.087 65.4439 57.9393 28.7944 65.4439 28.7944 49.0253 109.189 61.6436 49.0253 29.1449 61.6436 29.1449 40.552 95.0234 47.5459 40.552 19.8804 47.5459 19.8804 48.3276 105.696 47.4775 48.3276 20.6715 47.4775 20.6715 55.7313 111.25 58.2184 55.7313 27.6561 58.2184 27.6561 28.0752 53.0314 53.0314 28.0752 28.0752 53.0314 28.0752 87.1325 37.9651 204.232 91.8809 91.8809 87.1325 37.9651 37.9651 91.8809 37.9651 101.574 229.093 112.351 101.574 49.1673 112.351 49.1673 106.12 228.464 116.741 106.12 52.4067 116.741 52.4067 102.834 223.252 111.722 102.834 53.7129 111.722 53.7129 99.1271 221.594 111.53 99.1271 49.1214 111.53 49.1214 103.826 220.192 110.064 103.826 50.0056 110.064 50.0056 97.5385 208.899 110.128 97.5385 53.8208 110.128 53.8208 85.3637 192.973 98.7704 85.3637 43.7176 98.7704 43.7176 82.5261 180.845 94.2026 82.5261 41.6461 94.2026 41.6461 82.3887 174.153 86.6425 82.3887 40.88 86.6425 40.88 75.2022 166.298 87.5106 75.2022 41.5087 87.5106 41.5087 67.0832 149.296 78.7871 67.0832 33.6935 78.7871 33.6935 66.1543 149.52 70.5086 66.1543 33.3897 70.5086 33.3897 64.8703 139.979 79.0111 64.8703 32.7646 79.0111 32.7646 62.0814 122.733 60.9679 62.0814 32.1058 60.9679 32.1058 62.1705 131.195 61.7649 62.1705 29.9756 61.7649 29.9756 71.4287 144.245 69.4302 71.4287 32.1948 69.4302 32.1948 71.6589 143.081 74.8145 71.6589 39.2339 74.8145 39.2339 66.3032 129.395 68.2662 66.3032 32.425 68.2662 32.425 65.3318 120.883 61.1286 65.3318 33.8782 61.1286 33.8782 60.6196 112.575 59.7544 60.6196 31.4535 59.7544 31.4535 59.2282 117.801 52.8202 59.2282 29.1661 52.8202 29.1661 54.7862 114.779 64.9807 54.7862 30.0621 64.9807 30.0621 54.0596 110.028 49.7985 54.0596 24.7241 49.7985 24.7241 57.9203 115.381 60.2298 57.9203 29.3355 60.2298 29.3355 65.2343 125.678 55.1517 65.2343 28.5848 55.1517 28.5848 69.1482 129.448 70.5265 69.1482 36.6495 70.5265 36.6495 60.1642 109.136 58.9211 60.1642 32.4987 58.9211 32.4987 54.4715 105.049 50.2146 54.4715 27.6655 50.2146 27.6655 57.3683 110.512 54.8347 57.3683 26.806 54.8347 26.806 55.5184 106.773 55.6769 55.5184 30.5623 55.6769 30.5623 24.9562 51.0963 51.0963 24.9562 24.9562 51.0963 24.9562 117.1 53.9158 271.768 127.253 127.253 117.1 53.9158 53.9158 127.253 53.9158 127.518 288.11 144.515 127.518 63.1837 144.515 63.1837 122.344 273.372 143.595 122.344 64.3347 143.595 64.3347 120.418 263.54 129.777 120.418 58.0095 129.777 58.0095 122.467 259.282 133.763 122.467 62.4086 133.763 62.4086 116.366 247.801 125.52 116.366 60.0584 125.52 60.0584 111.36 239.63 122.281 111.36 56.3074 122.281 56.3074 107.609 231.945 117.349 107.609 55.0528 117.349 55.0528 98.319 215.348 114.595 98.319 52.5565 114.595 52.5565 91.7643 202.723 100.753 91.7643 45.7624 100.753 45.7624 91.0954 187.849 101.97 91.0954 46.0019 101.97 46.0019 82.2124 169.865 85.8786 82.2124 45.0935 85.8786 45.0935 83.3654 170.457 83.9868 83.3654 37.1189 83.9868 37.1189 75.1087 154.426 86.4698 75.1087 46.2466 86.4698 46.2466 60.6513 135.579 67.9558 60.6513 28.8621 67.9558 28.8621 69.0246 137.144 67.6232 69.0246 31.7892 67.6232 31.7892 72.816 141.403 69.5207 72.816 37.2354 69.5207 37.2354 71.4218 141.111 71.8822 71.4218 35.5806 71.8822 35.5806 63.0916 133.89 69.2292 63.0916 35.8412 69.2292 35.8412 55.5513 123.345 64.661 55.5513 27.2504 64.661 27.2504 51.9551 120.253 58.6837 51.9551 28.3009 58.6837 28.3009 58.5727 127.996 61.5696 58.5727 23.6542 61.5696 23.6542 59.993 117.839 66.4259 59.993 34.9186 66.4259 34.9186 55.9687 111.523 51.4132 55.9687 25.0744 51.4132 25.0744 57.4612 122.419 60.1098 57.4612 30.8943 60.1098 30.8943 60.4439 121.441 62.3091 60.4439 26.5669 62.3091 26.5669 60.2993 114.483 59.1319 60.2993 33.877 59.1319 33.877 48.9714 109.032 55.3514 48.9714 26.4223 55.3514 26.4223 50.5778 102.386 53.6809 50.5778 22.5491 53.6809 22.5491 53.1433 101.53 48.7048 53.1433 28.0287 48.7048 28.0287 51.2548 107.65 52.8252 51.2548 25.1146 52.8252 25.1146 26.1402 54.8247 54.8247 26.1402 26.1402 54.8247 26.1402 154.668 73.3373 154.668 73.3373 73.3373 154.668 73.3373 73.3373 73.3373 73.3373 160.591 160.591 81.3312 160.591 81.3312 81.3312 81.3312 151.027 151.027 79.26 151.027 79.26 79.26 79.26 143.122 143.122 71.7675 143.122 71.7675 71.7675 71.7675 136.815 136.815 71.354 136.815 71.354 71.354 71.354 131.435 131.435 65.4612 131.435 65.4612 65.4612 65.4612 128.27 128.27 65.9736 128.27 65.9736 65.9736 65.9736 124.336 124.336 62.2966 124.336 62.2966 62.2966 62.2966 117.029 117.029 62.0389 117.029 62.0389 62.0389 62.0389 110.959 110.959 54.9904 110.959 54.9904 54.9904 54.9904 96.7535 96.7535 55.9684 96.7535 55.9684 55.9684 55.9684 87.653 87.653 40.7851 87.653 40.7851 40.7851 40.7851 87.0912 87.0912 46.8679 87.0912 46.8679 46.8679 46.8679 79.3169 79.3169 40.2233 79.3169 40.2233 40.2233 40.2233 74.9276 74.9276 39.0936 74.9276 39.0936 39.0936 39.0936 68.1193 68.1193 35.834 68.1193 35.834 35.834 35.834 68.5869 68.5869 32.2853 68.5869 32.2853 32.2853 32.2853 69.6897 69.6897 36.3016 69.6897 36.3016 36.3016 36.3016 70.7987 70.7987 33.3881 70.7987 33.3881 33.3881 33.3881 67.7934 67.7934 37.4106 67.7934 37.4106 37.4106 37.4106 68.2983 68.2983 30.3828 68.2983 30.3828 30.3828 30.3828 69.4228 69.4228 37.9154 69.4228 37.9154 37.9154 37.9154 57.8462 57.8462 31.5073 57.8462 31.5073 31.5073 31.5073 55.5544 55.5544 26.3389 55.5544 26.3389 26.3389 26.3389 64.9577 64.9577 29.2155 64.9577 29.2155 29.2155 29.2155 60.9971 60.9971 35.7422 60.9971 35.7422 35.7422 35.7422 54.1839 54.1839 25.2549 54.1839 25.2549 25.2549 25.2549 60.0609 60.0609 28.9291 60.0609 28.9291 28.9291 28.9291 51.8079 51.8079 31.1318 51.8079 31.1318 31.1318 31.1318 48.3867 48.3867 20.6761 48.3867 20.6761 20.6761 20.6761 56.3952 56.3952 27.7106 56.3952 27.7106 27.7106 27.7106 28.6846 28.6846 28.6846 28.6846 28.6846 28.6846 28.6846 
CELL_DATA 2048
SCALARS stress float 1
LOOKUP_TABLE default
71.6959 68.3151 57.2831 57.342 64.5356 61.1999 48.5471 54.2949 45.0369 51.023 43.6293 38.8077 48.5207 36.2725 36.4189 33.6649 31.2658 34.5966 27.8803 27.7917 24.4135 26.2749 30.6639 22.8166 26.8029 24.1883 20.7088 33.9643 23.6857 18.9654 23.0902 24.6981 60.8702 46.9281 42.4098 53.8657 55.4014 46.4152 38.2542 36.3782 49.5455 42.049 40.5242 40.0316 34.8583 32.8097 32.9099 24.4985 24.8832 33.2084 31.7329 27.63 34.9807 27.2717 26.3894 25.9998 24.4516 30.4433 21.9354 29.2606 37.8279 27.5103 28.4443 22.2825 43.6694 35.9442 30.44 38.649 43.4707 37.128 40.5337 37.8861 38.4511 37.297 37.668 30.8685 32.9824 24.484 29.6858 29.2771 33.6605 29.5511 21.8981 32.8911 30.0536 28.0409 29.068 25.1295 23.7982 25.784 21.0067 31.052 29.2851 28.1336 28.9147 31.8571 30.9253 32.0651 34.602 38.6324 40.5843 34.8217 43.4446 42.5693 40.9817 43.9003 36.8251 35.7933 24.0612 27.1231 29.337 26.8968 29.7001 29.3755 27.7587 26.9308 26.6033 27.0832 33.6453 33.5404 16.3358 32.6838 28.1254 24.2237 22.5709 21.2137 25.7987 22.5055 32.8352 37.9289 47.3125 50.3304 41.3833 45.4451 41.6542 44.8167 46.475 36.5586 41.0696 27.5069 38.7172 34.3368 36.9229 32.8697 34.2728 28.8755 27.3698 27.9373 29.4336 26.7478 32.6789 23.9496 25.9113 34.1633 21.7521 27.5556 29.5242 24.4998 30.721 26.5166 42.8923 55.45 45.2842 54.7193 47.6757 48.5928 48.1594 47.2952 41.6329 45.8417 40.0688 40.0661 35.325 35.5797 30.5831 32.5061 34.6211 31.493 32.0649 28.0444 28.6565 32.0134 24.5692 34.4009 28.0227 25.3538 29.8649 22.9264 28.8255 28.0475 27.4704 24.25 54.8272 71.4869 60.3375 63.0109 65.5781 65.0314 50.0192 43.4269 42.4101 46.8042 42.3216 41.4228 38.2881 42.2236 36.2084 36.2799 31.9972 34.1353 31.7579 31.8593 28.4523 34.1799 28.1869 37.0923 25.0444 35.6362 36.8677 20.3215 28.1362 19.2857 26.2233 28.1554 74.6281 85.3509 77.093 74.4058 71.9281 65.9566 59.7699 55.5552 57.2248 60.8255 54.3088 46.692 44.7756 38.2711 43.5589 38.9159 38.0241 35.7615 32.7151 37.9948 35.1016 29.3597 31.0303 22.4604 28.8247 25.2342 29.7999 31.18 20.2736 24.2243 34.5824 25.7402 69.3398 70.6664 66.7644 65.792 63.3849 65.3034 48.6873 60.1841 47.6734 48.0689 37.5749 37.1669 32.6389 33.2616 35.1309 33.1872 31.3972 30.4607 34.5662 34.6179 26.3854 29.959 24.8692 28.6854 26.3534 24.1844 24.8185 26.5751 21.1931 22.7193 23.4285 28.8567 42.9043 50.4958 56.6388 57.337 47.867 46.9167 47.1911 37.9918 45.0852 39.9975 37.994 25.8717 33.8684 40.197 28.8023 30.7282 25.1667 28.277 25.709 27.0706 23.9978 27.6029 23.7453 32.4603 30.0139 23.8046 34.9767 23.2315 25.6451 28.1121 28.0061 26.0082 32.7408 37.5282 48.0835 41.5388 46.521 38.03 41.6666 39.5048 35.7065 33.8397 30.4336 35.7454 37.0093 28.6159 36.7271 30.4831 29.8359 27.972 26.9736 33.4406 27.6631 31.5441 25.7937 30.7645 24.6184 27.0576 31.6573 34.2459 21.4815 25.4221 31.1663 22.1713 22.3162 31.9224 36.2225 37.6505 40.9549 39.1263 40.2253 39.3249 31.9145 32.7034 29.9481 33.1261 33.5675 40.3375 35.4821 25.3628 27.7789 20.6967 34.6384 27.0591 37.3497 34.0417 29.276 24.3195 32.2573 21.7604 29.0812 20.5504 26.2278 26.6779 28.0414 28.8885 29.0664 43.5379 45.0242 44.7554 41.4102 40.6879 44.5911 40.2882 46.0819 33.3879 42.6672 37.0815 39.6456 38.6209 36.2888 29.5519 36.2824 36.5076 24.6051 31.6648 29.8939 28.5485 29.7961 26.1116 24.6946 29.2999 31.4046 25.3158 24.2882 26.1862 26.0276 27.3925 30.799 53.2291 53.5889 57.4806 49.7671 47.6124 47.4279 42.1454 42.2007 40.1189 40.0234 40.9928 38.0398 32.111 27.7565 37.1776 28.2135 29.56 29.6016 32.1351 26.704 27.798 27.9302 26.9136 24.3774 32.1104 26.4748 22.1838 29.2909 23.5402 22.3564 21.6581 42.1632 72.5086 63.7646 64.4436 54.6675 56.54 55.5767 54.9727 48.7195 49.2537 52.2366 41.3698 37.6518 38.3458 37.1465 41.18 33.8043 25.1247 32.5407 35.1834 22.2308 32.421 29.017 29.3028 36.4032 29.411 25.5219 24.5597 31.0425 32.4257 21.0234 33.0015 72.4701 91.7426 71.751 76.9308 77.3078 66.8196 65.2448 62.9069 56.7958 50.7681 53.1236 43.4149 46.3062 49.7203 36.504 37.6701 37.2918 33.2579 35.0163 36.6147 26.7607 27.0033 30.0463 26.2093 33.7268 23.691 27.1661 29.3795 24.0547 28.8988 26.3229 28.3983 65.2455 82.7038 63.6879 69.7089 59.7006 65.4632 56.1257 51.9936 41.8401 38.891 42.2054 38.2659 34.7617 38.5025 37.602 32.2442 26.3888 24.7154 32.1886 32.1225 32.0867 20.0961 29.3489 23.4083 31.7222 26.6735 23.0514 24.8733 26.1726 18.9524 24.5247 26.42 40.062 50.9265 57.1467 48.965 50.7639 49.3995 39.0207 44.7304 48.9691 45.4655 37.1533 34.6125 33.084 33.3632 35.1173 34.5255 27.2544 32.8133 30.9125 22.1452 25.0521 29.2358 32.0461 30.1764 33.4807 22.7245 31.2949 32.8036 30.7371 34.6273 22.0779 20.0753 33.27 40.276 45.6655 51.6215 42.5187 38.3295 46.6451 39.176 32.0803 37.8182 32.7405 29.4053 31.6846 34.9643 26.4163 28.86 28.1889 27.7627 36.6778 36.5461 27.9306 28.6234 29.6212 21.4204 21.2157 31.3572 27.9742 28.4707 27.4863 30.7716 28.3465 21.3225 30.1235 34.8928 36.7564 36.4345 36.8071 40.632 41.0472 34.7106 33.8161 37.954 30.4611 37.8393 27.7047 31.9571 28.3247 31.2982 31.639 27.2836 25.7277 22.0881 35.7199 27.4511 36.5801 24.5338 32.1901 32.8135 24.2018 29.8806 19.2793 28.6025 17.6636 27.5942 26.4879 42.5909 53.1571 42.3351 44.5231 39.6988 36.4499 35.4255 38.854 33.111 35.8759 30.6293 34.4761 33.1197 31.4796 32.5317 34.0238 30.4252 32.1701 26.6976 31.6179 32.878 36.7106 26.4652 29.7071 23.9303 26.0944 22.4791 26.3469 34.2267 28.0952 29.7088 31.3817 47.5548 51.1334 47.5747 53.4836 44.1733 44.0182 42.8838 43.3557 41.4775 37.7894 37.3946 34.4831 38.2981 33.4815 30.7807 35.195 32.0601 28.6807 28.4392 36.6879 28.3741 32.2078 24.0338 26.3881 27.7749 24.7073 28.2271 24.2988 28.6226 24.9411 26.7127 46.3834 60.2108 67.8903 61.1259 62.0183 59.7528 55.1336 53.8645 44.6083 42.46 46.5381 40.3027 49.2113 33.1448 35.4112 31.5573 29.6936 38.5625 36.33 29.6643 25.4923 32.4722 29.6026 34.4119 28.3307 28.2408 34.0796 24.8463 32.7146 25.4086 31.1626 23.7051 65.2009 76.9114 73.5879 74.3574 70.2149 59.6123 62.5743 54.0355 57.1221 48.7562 58.5376 42.49 38.7744 46.7548 45.1474 38.3188 39.7777 37.4714 29.3766 28.896 28.6754 26.8313 29.4199 28.6892 29.6506 26.4777 24.6396 32.1669 22.0917 26.0879 25.249 26.1156 60.07 79.5433 71.9701 61.9664 62.4739 60.4975 59.6269 46.0406 51.0776 44.9881 41.657 36.0073 44.4424 35.4852 35.7114 31.6189 32.5205 24.0411 29.0782 27.8585 27.7785 34.6836 32.7048 24.0271 32.4704 31.296 22.9134 17.6459 27.5151 38.0092 22.2047 18.9092 35.7437 54.4068 56.9 52.8453 59.9412 47.7036 46.1184 43.7197 41.1665 37.6949 34.9757 40.6877 34.0396 41.7522 29.4858 33.051 24.0811 27.9999 32.2339 26.9247 26.1084 24.8602 22.4213 27.3865 25.9989 26.2907 24.5442 27.0272 31.2921 27.936 23.3744 23.5996 19.8444 40.9212 46.2228 41.6627 42.9362 37.9138 33.3998 42.7279 32.856 39.7598 34.9384 35.0235 31.3786 31.6306 33.2556 36.7372 30.2631 27.9733 32.6805 28.3582 37.1106 32.7055 26.8079 24.785 21.6111 26.4976 30.8753 28.353 29.7415 25.8088 23.7345 21.8121 23.2994 35.5787 32.2389 36.611 45.456 37.2457 45.9717 30.0352 30.1153 22.627 38.3665 30.1818 27.2575 26.0923 24.7106 33.6302 30.8774 36.1381 29.4809 32.0396 27.5426 22.0075 34.9807 30.3303 24.2401 26.9628 29.8702 24.7473 30.3345 35.3189 21.9206 26.3748 27.9983 42.8532 44.5359 44.5416 48.3025 37.3877 44.8564 48.9265 35.2198 34.5537 40.3049 31.8587 28.6028 42.0638 27.2071 36.9801 27.1061 29.4801 23.5932 28.5017 34.7636 25.9739 34.7408 29.2721 31.699 25.2377 29.452 28.8638 24.2203 26.9987 31.3549 29.7835 32.3756 50.2213 58.329 57.3435 49.2831 46.7876 43.6717 47.4683 41.0082 36.5516 42.4367 30.202 27.8334 30.1487 34.9101 34.8465 31.0491 35.5377 33.7484 31.8328 27.3481 24.474 31.0607 42.4811 23.0423 22.5828 25.7341 24.0549 31.2895 20.0063 25.2509 24.9898 45.8288 58.5193 67.5247 73.1588 54.9328 56.1985 52.6105 50.2953 49.5858 44.5974 36.883 36.9186 41.4945 39.0375 34.3365 31.9883 30.2955 37.145 31.106 36.5047 39.9892 30.631 30.5887 27.1906 27.7033 29.0688 25.4937 26.1566 19.4853 29.6546 27.0015 23.9254 64.7418 85.6881 76.4299 74.3021 67.527 67.6598 62.9858 63.6424 57.1989 50.908 55.1755 37.9285 38.4513 40.3445 39.5887 41.2646 46.3365 35.788 33.9636 30.5519 31.3229 30.0559 26.7227 32.4408 25.9071 34.5946 25.5552 24.0088 28.3075 24.6812 28.7182 30.5864 60.4004 63.4388 72.4418 73.32 65.1942 59.5152 58.542 55.657 54.7843 43.0604 46.328 39.867 42.9406 35.4562 31.7038 34.6543 36.2996 30.3127 38.2307 29.3268 30.4443 31.9342 27.9835 33.3626 26.1877 24.7952 24.0891 30.8735 20.7972 29.0451 28.7321 22.8638 41.9579 52.4473 58.3654 56.8945 58.0235 52.6138 51.655 47.6092 42.9629 43.6521 40.1136 44.4043 38.983 32.0833 38.2278 33.2047 28.4094 34.3714 25.7899 25.4331 30.5528 29.1075 32.1576 25.0382 27.908 20.0709 20.2688 29.3739 22.1839 24.0177 36.6551 31.5522 20.8299 36.6977 43.537 40.4687 39.2953 40.788 39.1682 32.817 28.8052 29.5866 29.3278 30.8302 30.587 27.5976 30.1138 23.9336 27.4793 34.5952 30.5854 28.3002 34.8826 25.0417 25.2968 20.0543 22.2127 25.9248 28.7998 21.7028 33.0977 25.0653 27.293 27.1799 32.5713 32.9497 40.7055 39.7873 37.5882 39.3395 35.4637 35.4984 37.246 34.2808 34.7802 34.8608 27.157 26.9829 36.4489 25.7811 24.9489 28.4722 25.4398 35.7466 27.9052 26.4407 29.277 30.835 28.2622 34.4388 26.0153 28.602 27.5847 26.0344 27.2813 33.7156 29.7776 45.6496 50.138 45.9503 44.743 43.6541 39.0553 32.8879 43.3862 28.4431 35.6565 38.7518 39.0503 27.0841 30.6638 29.7405 23.7864 36.8119 39.8963 28.5518 27.6081 31.1986 26.7396 22.4419 29.8839 22.9586 33.031 30.0652 25.1189 31.3707 29.4141 22.2434 32.199 53.4825 46.0853 53.7549 48.3798 47.9928 49.0779 42.8129 38.1635 35.985 39.0961 33.2235 38.9281 32.3652 36.0811 32.3209 33.1878 40.5168 27.0894 28.9297 34.5055 30.7031 32.3924 28.3662 28.4637 31.9931 27.648 25.6455 27.9953 27.5323 19.7164 24.3342 45.6109 68.3203 62.887 60.7386 66.2227 58.5433 56.7056 55.7769 46.2582 43.2099 44.4127 35.2056 43.411 38.8178 38.157 42.3884 37.0543 33.2794 27.5336 30.8837 23.5486 33.486 31.8065 31.6404 29.2754 30.4718 26.3001 29.4345 23.9662 28.6573 26.3063 29.0902 71.3967 86.2671 85.8522 71.9565 77.4477 69.1877 58.321 56.7395 54.665 54.1951 55.7012 50.5285 47.5812 47.5827 39.5274 36.6267 34.8768 36.8511 35.4858 34.2315 32.3498 28.5068 24.4445 24.2252 27.6035 26.6547 28.5182 21.7861 24.4256 26.7889 27.247 29.8511 66.2301 71.7786 67.0986 64.3115 63.7593 59.4157 59.4068 50.2708 42.0679 46.8463 46.2777 48.806 39.3777 34.0612 42.8569 33.7689 36.617 35.6436 36.4174 31.5558 25.3159 28.9073 25.8333 28.3018 30.4723 31.5112 21.1746 23.7906 30.4411 30.6915 24.418 25.1115 37.7756 50.9446 55.0119 53.5628 52.2079 56.7443 46.8623 50.4643 47.1983 46.4968 36.8244 38.6791 27.4165 38.1389 33.7504 24.321 30.134 23.807 31.4415 30.2453 23.3459 30.311 36.0819 27.5698 24.3118 22.3735 30.1251 33.7737 24.1789 27.8022 25.4224 31.9675 28.157 42.7259 38.9602 41.9534 43.5155 46.2076 41.266 37.3725 40.306 39.9207 41.5612 33.8389 32.8392 30.6079 35.3862 34.7423 28.1019 24.2031 25.3305 22.3626 33.5421 24.9722 27.5449 20.8285 31.6217 27.0706 27.1657 30.0346 22.5743 24.5181 31.1079 22.5206 25.4731 31.7683 36.0238 37.928 40.0581 38.0754 33.6347 37.5785 29.2627 35.9982 37.7528 36.2759 27.6086 32.9561 27.9613 34.4926 31.7042 26.5641 27.3951 28.9785 21.5543 34.1083 26.5746 29.3349 26.1802 30.6131 26.5865 29.8402 22.3991 24.2165 27.674 23.0777 26.825 39.044 48.9175 46.4842 40.4037 45.0865 39.6415 33.5874 38.1549 34.9258 37.3109 32.3226 35.2452 28.9962 25.7321 25.7205 35.4878 28.0113 24.4362 35.4333 24.9359 25.331 32.7072 27.7027 33.0573 27.058 29.4765 27.9333 30.1643 21.0195 25.9892 23.6303 38.5586 54.0466 51.2726 63.2328 50.2068 45.841 48.4181 43.075 39.1932 36.8716 33.6517 34.7959 40.5704 35.2801 32.1183 30.0086 28.9783 30.3275 32.8353 29.2095 30.7001 25.4713 32.8442 30.559 22.2338 32.0739 25.8759 32.2575 25.0434 28.7583 25.7452 29.7572 46.9279 62.1198 57.7883 64.8731 66.4034 59.2182 60.6485 54.6337 47.8648 52.3344 44.1156 46.7504 43.6331 37.4465 35.9766 30.7678 29.8745 26.1385 35.4906 41.3044 32.3439 32.7618 34.2988 28.9392 28.1108 27.0494 28.0465 29.5212 30.2553 21.235 28.5548 25.3396 66.2185 78.7852 80.4176 77.2908 70.5483 62.9846 64.5513 58.7307 51.711 51.3783 57.209 44.5338 37.5162 41.8066 39.3327 41.1785 35.5707 39.421 32.9726 31.1223 28.1232 36.869 29.4318 31.8815 34.1291 24.8835 32.9526 25.7445 21.8102 20.7886 23.6375 23.6991 65.9469 68.1194 70.7204 69.3599 64.4797 61.0199 53.8717 46.6213 47.9894 41.9274 40.5964 38.072 43.2453 44.1102 36.8859 29.7262 32.7744 35.1859 30.2905 27.2335 29.9843 28.3585 30.5558 30.4786 29.4147 20.6439 19.6388 23.7976 29.6831 21.8025 27.1148 21.2898 42.5289 62.7165 56.0028 47.0062 54.5416 43.5321 50.5592 47.2937 41.879 50.4297 33.3146 31.4051 40.6671 27.5274 38.4453 32.8986 25.7158 32.9513 30.0427 24.7484 27.4027 31.9898 23.5953 28.8214 26.6151 24.4499 23.7189 34.9531 22.3351 27.5961 27.9552 31.3071 27.2326 43.5283 50.0405 42.2932 44.8414 39.6176 32.2417 41.4284 35.5597 35.4333 33.6971 34.2915 30.2074 27.4144 25.3617 30.7462 34.2505 27.608 29.0548 31.3433 27.8342 25.3711 25.0137 25.1144 30.1284 30.5668 27.7267 28.8372 25.6672 27.0008 38.2228 29.7614 28.4155 32.5173 33.3709 37.1894 47.3453 36.346 41.5567 37.3277 35.2089 35.9857 39.927 32.4636 30.1942 34.3458 28.0572 34.2975 30.1639 31.2754 32.0955 32.9741 28.1342 26.6932 26.327 27.5475 27.281 20.9226 29.6911 25.9354 27.4705 21.8045 25.1385 27.2104 35.1441 46.6526 46.9889 42.9039 39.6846 40.0383 37.2727 36.6183 34.6926 40.6911 36.2837 28.3036 40.2689 33.8801 33.3341 30.7217 26.6883 31.1057 30.6336 30.4735 29.2891 29.2273 31.9174 33.3488 29.758 34.9336 26.0343 27.0183 26.1505 31.306 17.5271 25.9937 33.5693 45.6067 56.2439 55.7027 52.2144 45.7256 49.4851 41.7505 41.622 42.0294 34.3419 35.9997 32.5602 31.1944 33.6174 33.6754 30.9123 37.9667 32.1315 32.9656 29.8758 26.4434 30.6394 31.0433 25.0864 26.3116 30.5757 26.2795 22.9309 32.8118 22.4945 19.1961 50.2846 62.9674 72.6114 63.1386 58.4976 60.3028 57.7258 47.6507 47.7354 48.0183 45.8172 34.613 40.3005 38.8108 31.4035 28.4952 30.3387 30.6461 33.8236 31.0164 27.9648 29.1813 38.3057 27.2258 30.0387 29.6666 20.536 24.3911 27.9827 20.3088 32.8935 23.2122 70.7599 74.5883 73.8174 73.2537 65.4428 61.8036 65.1492 55.3204 56.1023 59.5077 53.1356 46.2344 44.534 34.1459 43.6818 36.7028 32.3366 34.2309 30.2237 31.8492 35.7547 34.197 34.0726 24.046 37.9904 30.6103 32.8796 23.8099 28.0671 31.3236 25.5604 25.3154 61.8629 74.5369 67.6492 55.9837 61.6495 54.0098 61.5564 52.0603 49.8424 40.8246 35.2479 36.7193 36.7115 38.0655 33.9931 31.8994 30.1035 31.2011 31.4315 29.231 31.9067 25.1452 25.8561 26.2981 33.1985 24.6662 26.6099 22.8989 27.7912 25.1843 20.6206 26.4525 54.9907 51.2067 49.3564 44.4436 56.9441 43.7268 46.0959 41.6713 38.5494 41.8657 38.3252 33.4182 36.8325 36.9888 31.5696 28.2389 37.7296 39.79 28.5498 27.337 25.6289 31.2435 26.5107 30.0476 33.9582 23.7678 25.9468 28.4706 27.7475 28.0979 27.6011 23.2538 42.5849 33.3888 46.2279 39.9969 40.6643 40.2338 37.6322 34.2655 36.146 29.6354 35.5197 36.162 33.7762 33.8952 32.0144 31.2903 25.729 23.8828 23.8029 27.8781 25.0831 23.7019 30.3839 35.4785 30.451 26.6562 28.7772 27.349 27.4472 23.6974 27.8231 29.7527 31.0932 29.7272 41.2602 37.8192 40.0716 39.7522 45.8336 35.7895 36.2297 36.8125 38.6013 32.5697 34.2358 26.2242 27.3085 31.5679 31.1756 22.0529 27.6009 31.7441 29.1624 33.7475 29.5879 24.3342 27.053 26.3586 36.0169 29.6384 20.82 27.4497 27.9562 28.5708 24.4924 38.3055 36.1965 46.1405 42.0487 43.1364 44.4451 40.8459 41.2721 41.135 30.1182 35.6162 35.621 27.1884 29.6318 34.8253 30.8951 27.286 33.5241 34.1717 30.8309 30.4067 25.8207 28.5374 35.0256 32.4908 28.7944 29.1449 19.8804 20.6715 27.6561 28.0752 37.9651 49.1673 52.4067 53.7129 49.1214 50.0056 53.8208 43.7176 41.6461 40.88 41.5087 33.6935 33.3897 32.7646 32.1058 29.9756 32.1948 39.2339 32.425 33.8782 31.4535 29.1661 30.0621 24.7241 29.3355 28.5848 36.6495 32.4987 27.6655 26.806 30.5623 24.9562 53.9158 63.1837 64.3347 58.0095 62.4086 60.0584 56.3074 55.0528 52.5565 45.7624 46.0019 45.0935 37.1189 46.2466 28.8621 31.7892 37.2354 35.5806 35.8412 27.2504 28.3009 23.6542 34.9186 25.0744 30.8943 26.5669 33.877 26.4223 22.5491 28.0287 25.1146 26.1402 73.3373 81.3312 79.26 71.7675 71.354 65.4612 65.9736 62.2966 62.0389 54.9904 55.9684 40.7851 46.8679 40.2233 39.0936 35.834 32.2853 36.3016 33.3881 37.4106 30.3828 37.9154 31.5073 26.3389 29.2155 35.7422 25.2549 28.9291 31.1318 20.6761 27.7106 28.6846 
SCALARS volume float 1
LOOKUP_TABLE default
14.4542 14.7199 14.6884 14.6993 14.7041 14.711 14.7169 14.7228 14.7286 14.7336 14.7378 14.7422 14.7463 14.7497 14.753 14.7557 14.7584 14.7612 14.7625 14.7651 14.7665 14.7681 14.7694 14.7702 14.7717 14.7721 14.7729 14.7731 14.7736 14.7739 14.7738 14.7734 14.5851 14.7091 14.7237 14.7246 14.7261 14.7288 14.7327 14.7369 14.741 14.7446 14.7483 14.7517 14.7546 14.7574 14.7595 14.7614 14.7638 14.7653 14.7665 14.7683 14.7691 14.7703 14.7712 14.7719 14.7727 14.7728 14.7736 14.7732 14.7737 14.7736 14.7735 14.7736 14.6656 14.7341 14.7424 14.7448 14.7451 14.7468 14.7488 14.7516 14.7541 14.7567 14.7594 14.7617 14.7634 14.7651 14.7661 14.7675 14.7685 14.7697 14.7707 14.7714 14.7717 14.7727 14.773 14.7734 14.7734 14.7736 14.7739 14.7736 14.7738 14.7736 14.7738 14.7739 14.745 14.7562 14.7618 14.7625 14.7629 14.7638 14.765 14.7667 14.7679 14.7689 14.7701 14.771 14.7721 14.7725 14.7732 14.774 14.7737 14.7744 14.7746 14.7747 14.7749 14.7748 14.7753 14.7748 14.7743 14.7747 14.7746 14.7744 14.7741 14.7739 14.7735 14.7734 14.8232 14.7788 14.7803 14.7796 14.7799 14.7803 14.7802 14.7806 14.7812 14.7812 14.781 14.7808 14.7811 14.7807 14.7803 14.7799 14.7797 14.7791 14.7786 14.7784 14.7774 14.7775 14.7771 14.7765 14.7758 14.7757 14.7749 14.7753 14.7744 14.7742 14.774 14.7731 14.9062 14.7995 14.7986 14.7964 14.7962 14.7957 14.7954 14.7943 14.7938 14.7927 14.792 14.7911 14.7895 14.7877 14.7868 14.7862 14.7849 14.7838 14.7826 14.7816 14.7802 14.7798 14.7789 14.7777 14.7769 14.7767 14.7758 14.7755 14.7746 14.7739 14.7738 14.7734 15.0046 14.8201 14.8156 14.8134 14.8125 14.8113 14.8096 14.8082 14.8061 14.8036 14.8022 14.8003 14.7978 14.7959 14.7938 14.7918 14.7899 14.7882 14.7864 14.7849 14.7834 14.7816 14.7809 14.7796 14.7784 14.7775 14.7769 14.7758 14.7747 14.7743 14.7739 14.7733 15.1688 14.8224 14.8358 14.8299 14.8289 14.8265 14.8238 14.8213 14.8186 14.8153 14.8127 14.809 14.8062 14.8032 14.8005 14.7979 14.7956 14.7928 14.7905 14.7878 14.7863 14.7844 14.7824 14.7812 14.7795 14.7782 14.7773 14.7763 14.7748 14.7741 14.7742 14.7734 14.5416 14.658 14.67 14.6875 14.699 14.7085 14.7166 14.7233 14.7291 14.7344 14.7388 14.7432 14.7471 14.7505 14.7532 14.7566 14.7589 14.7613 14.7637 14.7653 14.7673 14.7683 14.7697 14.7709 14.7716 14.7723 14.773 14.7738 14.7737 14.7738 14.774 14.774 14.6386 14.6589 14.698 14.711 14.7195 14.7252 14.731 14.7359 14.7409 14.7452 14.7487 14.7519 14.7551 14.7574 14.76 14.7621 14.7643 14.7655 14.7667 14.7682 14.7695 14.7705 14.7712 14.7723 14.7726 14.7733 14.7734 14.7736 14.7739 14.7739 14.7739 14.7738 14.6987 14.7087 14.7258 14.7348 14.7392 14.7427 14.7465 14.75 14.7533 14.7561 14.7589 14.761 14.7629 14.7647 14.7663 14.7678 14.769 14.7698 14.7707 14.7714 14.7721 14.7726 14.773 14.7735 14.7735 14.7739 14.7735 14.7741 14.7738 14.7739 14.7735 14.7737 14.7618 14.7537 14.7555 14.7573 14.759 14.7604 14.7623 14.7639 14.766 14.7679 14.7695 14.7704 14.7712 14.7723 14.7728 14.7733 14.7735 14.7743 14.7746 14.7747 14.7748 14.7749 14.775 14.7747 14.7746 14.7746 14.7746 14.7745 14.7739 14.7739 14.7739 14.7734 14.8246 14.7964 14.7826 14.7785 14.7774 14.7774 14.7779 14.7788 14.7795 14.7796 14.78 14.7804 14.78 14.7802 14.7799 14.7797 14.7794 14.7789 14.7781 14.7783 14.7777 14.7772 14.7772 14.7763 14.7759 14.7754 14.7751 14.7749 14.7743 14.7738 14.7739 14.7733 14.894 14.8348 14.8063 14.7983 14.7953 14.7944 14.7934 14.7927 14.7921 14.7914 14.7906 14.7898 14.7887 14.7876 14.7864 14.7858 14.7844 14.7834 14.7823 14.7817 14.7806 14.7793 14.7788 14.7773 14.7773 14.7764 14.776 14.775 14.7746 14.7743 14.7736 14.7731 14.978 14.8649 14.8238 14.8164 14.8128 14.8104 14.8088 14.8068 14.8052 14.8035 14.8012 14.7991 14.7973 14.7953 14.793 14.791 14.7897 14.788 14.7862 14.7851 14.7832 14.7816 14.7807 14.7795 14.7784 14.7772 14.7761 14.7753 14.775 14.7741 14.7735 14.7729 15.1361 14.853 14.8407 14.8335 14.8299 14.8272 14.8239 14.8208 14.8177 14.815 14.8115 14.8086 14.8056 14.8025 14.8002 14.7975 14.7952 14.7924 14.79 14.7878 14.7859 14.7846 14.7826 14.7812 14.7795 14.7781 14.7773 14.776 14.7744 14.7742 14.7737 14.7731 14.5063 14.6621 14.66 14.6794 14.6931 14.7053 14.7151 14.7228 14.7292 14.7344 14.7398 14.7436 14.7473 14.7508 14.7542 14.7571 14.7598 14.7619 14.7639 14.7658 14.7669 14.769 14.7698 14.7709 14.7717 14.7725 14.7732 14.7735 14.7746 14.7743 14.7741 14.7734 14.6338 14.6539 14.6878 14.7032 14.7142 14.7227 14.7297 14.7355 14.7408 14.7449 14.7486 14.7521 14.7554 14.7576 14.7599 14.762 14.7638 14.7656 14.7672 14.7684 14.7691 14.7706 14.7714 14.7722 14.7727 14.7731 14.7736 14.774 14.7744 14.7741 14.7742 14.7735 14.697 14.7066 14.7183 14.7289 14.7352 14.7403 14.7448 14.7492 14.7528 14.7561 14.7584 14.7609 14.7629 14.7649 14.7664 14.7676 14.7689 14.77 14.771 14.7716 14.7722 14.7729 14.7731 14.7733 14.7738 14.7741 14.7738 14.7742 14.7741 14.7738 14.7738 14.7738 14.7616 14.7551 14.753 14.7539 14.7563 14.7585 14.7607 14.7632 14.7655 14.7672 14.7688 14.7702 14.7715 14.772 14.7729 14.7737 14.7741 14.7741 14.7747 14.775 14.7747 14.7749 14.7745 14.7747 14.7746 14.7747 14.7745 14.7745 14.774 14.7738 14.7738 14.7739 14.8259 14.8011 14.7849 14.778 14.7762 14.776 14.7767 14.7773 14.7785 14.7792 14.7791 14.7794 14.7794 14.7795 14.7794 14.7795 14.779 14.7786 14.7781 14.7779 14.7777 14.7771 14.7768 14.7767 14.7761 14.7753 14.7751 14.7749 14.7743 14.7738 14.7737 14.7731 14.8954 14.8424 14.8124 14.7999 14.7954 14.7936 14.7924 14.7919 14.7911 14.7906 14.7898 14.7891 14.7883 14.7875 14.7863 14.7854 14.7839 14.7831 14.7823 14.7814 14.7804 14.7792 14.7786 14.7785 14.7774 14.7762 14.7757 14.7753 14.7746 14.7744 14.7734 14.7729 14.9773 14.874 14.8318 14.8191 14.8131 14.8108 14.8086 14.8062 14.8045 14.8024 14.8006 14.7988 14.7971 14.7948 14.7932 14.7909 14.7895 14.7877 14.7858 14.7847 14.7832 14.7816 14.7805 14.7792 14.7781 14.7769 14.7761 14.7753 14.7748 14.7742 14.7736 14.773 15.1458 14.8598 14.8479 14.8364 14.8316 14.8275 14.8245 14.8209 14.8177 14.8144 14.8113 14.8084 14.8055 14.8026 14.7998 14.7972 14.7943 14.7923 14.7899 14.7875 14.7856 14.7838 14.7822 14.7805 14.779 14.7776 14.7767 14.7757 14.7747 14.7739 14.7737 14.7734 14.4922 14.6606 14.6569 14.6758 14.6903 14.7034 14.7141 14.7222 14.7291 14.7347 14.7396 14.7441 14.7476 14.751 14.7549 14.7569 14.7596 14.7617 14.7637 14.7661 14.7676 14.7686 14.7706 14.7713 14.7721 14.773 14.7733 14.7735 14.774 14.7738 14.7739 14.7737 14.6314 14.6503 14.6845 14.7001 14.712 14.7209 14.7289 14.7351 14.7402 14.7446 14.7488 14.7521 14.7554 14.7575 14.7602 14.7622 14.7642 14.7657 14.7673 14.769 14.7698 14.7705 14.7715 14.7724 14.7728 14.7732 14.7737 14.7738 14.7739 14.7741 14.7741 14.7738 14.696 14.7047 14.716 14.7264 14.7336 14.7393 14.7445 14.7485 14.7524 14.7556 14.7584 14.7609 14.7627 14.7649 14.7663 14.7673 14.7687 14.7701 14.7702 14.7715 14.7723 14.7724 14.7732 14.7736 14.7738 14.7742 14.7738 14.7737 14.774 14.7739 14.7736 14.7738 14.7616 14.7546 14.7524 14.7527 14.7547 14.7572 14.7599 14.7627 14.765 14.7668 14.7686 14.7699 14.7708 14.7723 14.7728 14.7732 14.7739 14.7741 14.7742 14.7746 14.7748 14.7749 14.7747 14.7748 14.7748 14.7748 14.7743 14.7746 14.7744 14.7743 14.7738 14.7738 14.8259 14.8027 14.7866 14.7783 14.7757 14.7754 14.7758 14.7771 14.7776 14.7788 14.7794 14.7793 14.7792 14.7799 14.7794 14.779 14.7789 14.7786 14.7784 14.7781 14.7775 14.7771 14.7767 14.7762 14.776 14.7754 14.7754 14.7748 14.7744 14.7738 14.7733 14.7735 14.8953 14.8453 14.815 14.8011 14.7955 14.7929 14.7918 14.7913 14.7906 14.7905 14.7899 14.789 14.7881 14.7871 14.7861 14.7849 14.7844 14.7834 14.7822 14.7811 14.7799 14.7797 14.7785 14.7778 14.7768 14.7761 14.7758 14.7746 14.7744 14.7741 14.7734 14.7731 14.9769 14.8773 14.8347 14.821 14.8143 14.8107 14.8084 14.806 14.8045 14.8025 14.8003 14.7982 14.7967 14.7946 14.7926 14.7911 14.7895 14.7873 14.7862 14.7847 14.7825 14.7817 14.7801 14.7792 14.7782 14.7771 14.7761 14.7752 14.7747 14.7743 14.7735 14.7731 15.1512 14.8637 14.8512 14.8382 14.8325 14.828 14.8248 14.821 14.8177 14.8143 14.8114 14.8081 14.8052 14.8022 14.7993 14.7971 14.7943 14.7922 14.7898 14.7876 14.7856 14.7838 14.7823 14.7802 14.7787 14.7776 14.776 14.7754 14.7749 14.7737 14.7735 14.7734 14.4926 14.6607 14.6569 14.6763 14.6905 14.7038 14.714 14.7221 14.7291 14.7347 14.7395 14.7437 14.7479 14.7509 14.7541 14.7569 14.7597 14.762 14.7635 14.7662 14.7671 14.769 14.7702 14.7712 14.7722 14.7725 14.7736 14.7738 14.7738 14.774 14.7733 14.7736 14.6312 14.6505 14.6851 14.7004 14.7119 14.7213 14.7288 14.7351 14.7402 14.7448 14.7489 14.7523 14.7553 14.7577 14.7601 14.7621 14.7643 14.7656 14.7672 14.7684 14.7696 14.7709 14.7717 14.7717 14.7726 14.7731 14.7737 14.7739 14.7739 14.7744 14.774 14.7738 14.6963 14.7049 14.7163 14.7264 14.7332 14.7395 14.7443 14.7487 14.7525 14.7555 14.7585 14.7611 14.7631 14.7647 14.7661 14.7676 14.7687 14.7697 14.7708 14.7714 14.7723 14.7728 14.7733 14.7736 14.7738 14.774 14.7743 14.7743 14.7739 14.774 14.7737 14.774 14.7615 14.7551 14.7531 14.7531 14.7548 14.7576 14.7601 14.7625 14.765 14.767 14.7684 14.77 14.771 14.7721 14.7729 14.7738 14.7735 14.774 14.7745 14.7744 14.7752 14.7749 14.775 14.7749 14.7752 14.7746 14.7744 14.7745 14.7739 14.7739 14.7732 14.774 14.8257 14.8026 14.7863 14.7784 14.7757 14.7757 14.7766 14.7768 14.7776 14.7784 14.7787 14.7794 14.7792 14.7795 14.7796 14.7789 14.7792 14.779 14.7781 14.7777 14.7778 14.7773 14.7769 14.7763 14.7761 14.7755 14.7753 14.7748 14.7745 14.774 14.7734 14.7734 14.8951 14.8452 14.8152 14.8009 14.7954 14.7931 14.7924 14.7917 14.791 14.7908 14.7898 14.7891 14.788 14.7872 14.7864 14.7853 14.7839 14.7831 14.7821 14.7812 14.78 14.7794 14.7787 14.7779 14.7771 14.7763 14.7757 14.7748 14.7744 14.7744 14.7736 14.7731 14.9768 14.877 14.8345 14.8209 14.8143 14.8109 14.8084 14.8063 14.8045 14.8027 14.8001 14.7985 14.7967 14.7948 14.7933 14.7911 14.7895 14.7873 14.7862 14.7849 14.7834 14.7817 14.7803 14.7793 14.7779 14.7769 14.7761 14.7754 14.7745 14.7744 14.7739 14.7729 15.1517 14.8639 14.8509 14.8383 14.8331 14.8283 14.8244 14.8212 14.8176 14.8141 14.8111 14.8081 14.8052 14.8025 14.7996 14.7967 14.7941 14.792 14.79 14.7877 14.7857 14.7839 14.7817 14.7802 14.7789 14.7777 14.7764 14.7752 14.7746 14.7737 14.7734 14.7728 14.5059 14.6623 14.6603 14.6797 14.6934 14.7051 14.7147 14.7225 14.729 14.7346 14.7396 14.7437 14.7476 14.7511 14.754 14.7568 14.7593 14.7616 14.7637 14.7653 14.7672 14.7688 14.7705 14.771 14.7721 14.7727 14.7735 14.7736 14.7742 14.7742 14.7742 14.7739 14.6338 14.6541 14.6877 14.7033 14.7141 14.7226 14.7294 14.7354 14.7406 14.7448 14.7488 14.7518 14.7551 14.7577 14.7598 14.762 14.7642 14.7657 14.7669 14.7684 14.7697 14.7707 14.7715 14.7722 14.7728 14.7732 14.7737 14.7738 14.7743 14.774 14.7739 14.7734 14.6969 14.7066 14.7184 14.7288 14.735 14.7404 14.745 14.7491 14.753 14.7561 14.7588 14.7607 14.7628 14.7646 14.7662 14.7679 14.7686 14.7697 14.771 14.7718 14.7722 14.7725 14.7728 14.7737 14.7736 14.774 14.7741 14.7742 14.7741 14.774 14.7742 14.7733 14.7613 14.7547 14.7532 14.7538 14.7561 14.7581 14.7607 14.7632 14.7652 14.7669 14.769 14.7705 14.7717 14.7719 14.7727 14.7734 14.7737 14.7742 14.7749 14.775 14.7746 14.7746 14.7748 14.7748 14.7744 14.7748 14.7742 14.7743 14.7741 14.7739 14.7737 14.7734 14.8259 14.8011 14.7856 14.7783 14.7763 14.7758 14.7768 14.7775 14.7781 14.7788 14.7792 14.7798 14.7797 14.7796 14.7793 14.7795 14.7791 14.7786 14.7786 14.778 14.7777 14.7771 14.7767 14.7761 14.7756 14.7753 14.775 14.7745 14.7744 14.774 14.7733 14.7732 14.8955 14.8425 14.8126 14.7998 14.7952 14.7932 14.7921 14.7919 14.7912 14.7905 14.7902 14.7891 14.7882 14.7873 14.7864 14.7856 14.7844 14.7833 14.7822 14.7812 14.7806 14.7792 14.7788 14.7778 14.7773 14.7763 14.7758 14.7749 14.7743 14.7742 14.7733 14.7731 14.9773 14.8743 14.832 14.8193 14.8136 14.8109 14.808 14.8065 14.8044 14.8025 14.8007 14.799 14.7966 14.795 14.7927 14.7911 14.7895 14.788 14.7862 14.7845 14.7834 14.7817 14.7804 14.7793 14.7779 14.7776 14.7764 14.7752 14.7745 14.7741 14.7734 14.7729 15.146 14.8598 14.8476 14.8365 14.832 14.8277 14.8242 14.8208 14.8176 14.8145 14.811 14.8082 14.8053 14.8025 14.7995 14.7971 14.7947 14.7921 14.7899 14.7879 14.7857 14.784 14.7819 14.7807 14.7793 14.7778 14.7767 14.7753 14.7748 14.7737 14.7738 14.7729 14.5415 14.6576 14.6692 14.6873 14.6987 14.7087 14.7162 14.7235 14.7293 14.7343 14.7391 14.7432 14.7472 14.7505 14.7535 14.7567 14.7591 14.7616 14.7633 14.7654 14.7671 14.7684 14.7701 14.7708 14.7714 14.7724 14.7729 14.774 14.7738 14.7736 14.7736 14.7738 14.6385 14.6584 14.6982 14.711 14.7191 14.7252 14.7311 14.7364 14.7407 14.7445 14.7486 14.7521 14.755 14.7575 14.76 14.7622 14.7639 14.7654 14.7668 14.7684 14.7697 14.7703 14.7712 14.7721 14.7726 14.7734 14.773 14.7738 14.7735 14.7737 14.7741 14.774 14.6988 14.7084 14.7254 14.7347 14.7392 14.7425 14.7466 14.7501 14.7531 14.7566 14.7585 14.761 14.7626 14.7646 14.7663 14.7674 14.7689 14.7699 14.7705 14.7716 14.7718 14.7721 14.7728 14.7736 14.7737 14.7741 14.7741 14.7739 14.7737 14.7741 14.7738 14.7741 14.7612 14.754 14.7556 14.7571 14.7583 14.7602 14.7623 14.7641 14.7658 14.7678 14.7692 14.7705 14.7714 14.7723 14.7728 14.7735 14.7738 14.7749 14.7744 14.7749 14.7744 14.7746 14.7747 14.775 14.7746 14.7745 14.7748 14.7748 14.7741 14.774 14.7737 14.7735 14.8247 14.7966 14.7826 14.7785 14.7772 14.7771 14.7779 14.779 14.7794 14.7798 14.7802 14.7801 14.7802 14.7797 14.7798 14.7796 14.7793 14.7788 14.7785 14.7782 14.7775 14.7771 14.7767 14.7764 14.7758 14.7756 14.7747 14.7748 14.7745 14.7743 14.7736 14.7732 14.8942 14.8344 14.8063 14.7984 14.7951 14.7941 14.7935 14.7931 14.7923 14.7915 14.7904 14.7897 14.789 14.7875 14.7865 14.7853 14.7846 14.7837 14.7822 14.7816 14.7804 14.7794 14.7787 14.778 14.777 14.7767 14.7754 14.7749 14.7752 14.7743 14.7739 14.7732 14.9783 14.8651 14.8238 14.8163 14.8127 14.8106 14.8087 14.8069 14.805 14.8027 14.801 14.7992 14.7973 14.7953 14.7934 14.7912 14.7894 14.7878 14.7861 14.7847 14.7834 14.782 14.7807 14.7792 14.7781 14.7774 14.7762 14.7753 14.7748 14.7742 14.7739 14.7728 15.1363 14.8533 14.8408 14.8333 14.83 14.8266 14.824 14.8213 14.8179 14.8151 14.8113 14.8086 14.8054 14.8031 14.8001 14.7973 14.795 14.7923 14.79 14.7874 14.7857 14.7844 14.7822 14.7805 14.7791 14.7778 14.7764 14.7756 14.7747 14.7739 14.7737 14.7732 14.4548 14.7194 14.6876 14.6984 14.7042 14.7105 14.7168 14.723 14.7283 14.7336 14.7381 14.7423 14.7466 14.7501 14.7532 14.7561 14.7587 14.7609 14.7632 14.7652 14.7666 14.768 14.7696 14.7707 14.7714 14.7721 14.7722 14.7732 14.7737 14.7736 14.7735 14.7738 14.5851 14.7088 14.7233 14.7243 14.7253 14.7283 14.7321 14.737 14.7414 14.7452 14.7486 14.7517 14.7549 14.757 14.7596 14.7619 14.7638 14.7652 14.7667 14.7681 14.7695 14.7704 14.7713 14.7719 14.7724 14.7727 14.7738 14.7733 14.7739 14.7736 14.7734 14.7736 14.6654 14.7336 14.7419 14.7445 14.745 14.7463 14.749 14.7515 14.7545 14.7571 14.7597 14.7617 14.7631 14.7647 14.7667 14.768 14.7689 14.7698 14.7703 14.7714 14.7717 14.7723 14.773 14.7734 14.7734 14.774 14.7742 14.7738 14.7737 14.7736 14.7737 14.7737 14.7452 14.7562 14.7614 14.7625 14.7631 14.7638 14.7648 14.7666 14.7679 14.7692 14.7705 14.7713 14.7722 14.7725 14.7731 14.7739 14.7742 14.7744 14.7747 14.7744 14.775 14.7748 14.775 14.7748 14.7752 14.7746 14.7742 14.774 14.7741 14.774 14.7737 14.7736 14.8231 14.7785 14.7807 14.7796 14.7797 14.7803 14.7801 14.7804 14.7805 14.781 14.7813 14.781 14.7807 14.7809 14.7806 14.78 14.7796 14.7791 14.7789 14.7784 14.7776 14.7768 14.7769 14.7765 14.7765 14.7757 14.7751 14.7745 14.7742 14.7739 14.7735 14.7732 14.9063 14.7994 14.7983 14.7964 14.7963 14.796 14.7952 14.7944 14.7934 14.7931 14.7918 14.7908 14.7891 14.7885 14.7874 14.7859 14.785 14.7834 14.7828 14.7815 14.7808 14.78 14.7782 14.778 14.7772 14.7763 14.7756 14.7757 14.7751 14.7744 14.7743 14.773 15.0048 14.8205 14.8148 14.8133 14.8129 14.8113 14.8096 14.808 14.8066 14.8044 14.8022 14.8001 14.7977 14.7961 14.7936 14.7919 14.7901 14.7884 14.7867 14.7849 14.7832 14.782 14.781 14.7798 14.7786 14.7778 14.7766 14.7753 14.7753 14.7742 14.7742 14.7727 15.1694 14.8226 14.8355 14.8298 14.8291 14.8263 14.8243 14.8215 14.8183 14.8158 14.8125 14.8092 14.8061 14.8034 14.8004 14.7979 14.7954 14.7927 14.7905 14.7886 14.786 14.7841 14.7828 14.7808 14.7793 14.7783 14.7773 14.7758 14.775 14.7741 14.7739 14.7732 
SCALARS volume_diff float 1
LOOKUP_TABLE default
14.4522 14.718 14.6864 14.6974 14.7022 14.709 14.7149 14.7209 14.7267 14.7317 14.7359 14.7402 14.7443 14.7477 14.7511 14.7537 14.7564 14.7592 14.7606 14.7632 14.7645 14.7662 14.7675 14.7683 14.7698 14.7701 14.7709 14.7711 14.7716 14.7719 14.7719 14.7715 14.5831 14.7071 14.7217 14.7227 14.7241 14.7268 14.7307 14.7349 14.739 14.7427 14.7464 14.7497 14.7526 14.7555 14.7575 14.7595 14.7619 14.7633 14.7645 14.7663 14.7672 14.7683 14.7692 14.77 14.7708 14.7708 14.7716 14.7712 14.7717 14.7717 14.7716 14.7717 14.6636 14.7321 14.7405 14.7428 14.7431 14.7448 14.7469 14.7497 14.7522 14.7548 14.7574 14.7598 14.7614 14.7631 14.7642 14.7656 14.7665 14.7677 14.7688 14.7694 14.7698 14.7707 14.7711 14.7715 14.7714 14.7716 14.7719 14.7717 14.7719 14.7717 14.7719 14.772 14.7431 14.7543 14.7598 14.7605 14.761 14.7618 14.7631 14.7648 14.7659 14.767 14.7682 14.769 14.7702 14.7706 14.7713 14.7721 14.7718 14.7724 14.7727 14.7728 14.7729 14.7729 14.7733 14.7728 14.7724 14.7727 14.7727 14.7724 14.7721 14.772 14.7716 14.7714 14.8213 14.7769 14.7783 14.7776 14.7779 14.7783 14.7782 14.7786 14.7792 14.7793 14.7791 14.7788 14.7792 14.7788 14.7784 14.7779 14.7777 14.7771 14.7767 14.7764 14.7754 14.7755 14.7751 14.7746 14.7739 14.7737 14.773 14.7733 14.7725 14.7722 14.7721 14.7712 14.9043 14.7975 14.7967 14.7944 14.7943 14.7938 14.7934 14.7924 14.7919 14.7907 14.79 14.7891 14.7876 14.7857 14.7849 14.7842 14.7829 14.7818 14.7806 14.7797 14.7782 14.7778 14.777 14.7757 14.775 14.7747 14.7739 14.7735 14.7727 14.7719 14.7718 14.7714 15.0027 14.8182 14.8136 14.8114 14.8105 14.8093 14.8076 14.8062 14.8042 14.8016 14.8003 14.7983 14.7959 14.7939 14.7918 14.7899 14.788 14.7862 14.7845 14.783 14.7814 14.7797 14.779 14.7777 14.7764 14.7755 14.7749 14.7739 14.7728 14.7723 14.7719 14.7714 15.1669 14.8205 14.8339 14.828 14.8269 14.8246 14.8218 14.8193 14.8167 14.8133 14.8107 14.8071 14.8042 14.8013 14.7985 14.7959 14.7937 14.7908 14.7885 14.7859 14.7843 14.7824 14.7804 14.7793 14.7775 14.7762 14.7754 14.7743 14.7729 14.7722 14.7723 14.7714 14.5396 14.6561 14.668 14.6855 14.697 14.7066 14.7146 14.7213 14.7272 14.7324 14.7368 14.7412 14.7452 14.7485 14.7512 14.7546 14.7569 14.7594 14.7617 14.7634 14.7653 14.7664 14.7678 14.7689 14.7696 14.7703 14.7711 14.7718 14.7718 14.7719 14.772 14.772 14.6367 14.6569 14.6961 14.7091 14.7175 14.7233 14.729 14.734 14.7389 14.7433 14.7468 14.7499 14.7531 14.7554 14.758 14.7602 14.7623 14.7635 14.7647 14.7662 14.7675 14.7685 14.7693 14.7703 14.7706 14.7713 14.7715 14.7717 14.772 14.7719 14.772 14.7719 14.6967 14.7068 14.7238 14.7328 14.7373 14.7408 14.7445 14.7481 14.7513 14.7542 14.7569 14.759 14.761 14.7627 14.7643 14.7659 14.767 14.7679 14.7688 14.7695 14.7702 14.7706 14.7711 14.7715 14.7716 14.7719 14.7716 14.7721 14.7718 14.7719 14.7716 14.7717 14.7598 14.7517 14.7536 14.7554 14.757 14.7585 14.7603 14.762 14.7641 14.7659 14.7676 14.7684 14.7693 14.7704 14.7709 14.7714 14.7716 14.7723 14.7727 14.7728 14.7728 14.7729 14.7731 14.7727 14.7727 14.7727 14.7727 14.7725 14.772 14.7719 14.7719 14.7715 14.8227 14.7945 14.7807 14.7766 14.7754 14.7755 14.7759 14.7768 14.7775 14.7777 14.7781 14.7784 14.778 14.7783 14.778 14.7777 14.7774 14.777 14.7761 14.7763 14.7758 14.7753 14.7753 14.7743 14.774 14.7734 14.7732 14.773 14.7724 14.7719 14.772 14.7713 14.8921 14.8329 14.8043 14.7963 14.7933 14.7924 14.7914 14.7908 14.7902 14.7894 14.7887 14.7879 14.7868 14.7856 14.7845 14.7839 14.7825 14.7814 14.7803 14.7798 14.7786 14.7773 14.7769 14.7754 14.7753 14.7744 14.774 14.773 14.7727 14.7723 14.7717 14.7711 14.976 14.8629 14.8218 14.8145 14.8108 14.8084 14.8068 14.8049 14.8033 14.8015 14.7992 14.7972 14.7953 14.7934 14.7911 14.7891 14.7878 14.786 14.7842 14.7831 14.7813 14.7797 14.7787 14.7775 14.7764 14.7752 14.7742 14.7733 14.7731 14.7722 14.7716 14.771 15.1341 14.851 14.8388 14.8315 14.8279 14.8253 14.8219 14.8189 14.8157 14.8131 14.8096 14.8066 14.8037 14.8005 14.7982 14.7956 14.7933 14.7904 14.788 14.7859 14.7839 14.7827 14.7807 14.7792 14.7776 14.7761 14.7753 14.7741 14.7724 14.7723 14.7717 14.7712 14.5044 14.6602 14.6581 14.6775 14.6912 14.7033 14.7131 14.7208 14.7273 14.7324 14.7378 14.7417 14.7453 14.7488 14.7522 14.7552 14.7578 14.76 14.762 14.7639 14.7649 14.7671 14.7679 14.7689 14.7697 14.7706 14.7713 14.7715 14.7726 14.7723 14.7721 14.7715 14.6318 14.652 14.6858 14.7012 14.7123 14.7207 14.7277 14.7335 14.7388 14.743 14.7467 14.7502 14.7534 14.7557 14.7579 14.7601 14.7619 14.7637 14.7652 14.7665 14.7671 14.7687 14.7695 14.7703 14.7708 14.7711 14.7716 14.772 14.7724 14.7722 14.7722 14.7715 14.695 14.7046 14.7163 14.727 14.7333 14.7383 14.7429 14.7472 14.7509 14.7541 14.7565 14.7589 14.7609 14.7629 14.7645 14.7656 14.767 14.768 14.769 14.7696 14.7702 14.771 14.7712 14.7714 14.7718 14.7721 14.7718 14.7723 14.7721 14.7718 14.7718 14.7718 14.7597 14.7532 14.7511 14.7519 14.7543 14.7565 14.7587 14.7613 14.7635 14.7653 14.7668 14.7682 14.7695 14.7701 14.7709 14.7717 14.7721 14.7721 14.7727 14.773 14.7727 14.7729 14.7725 14.7728 14.7726 14.7727 14.7725 14.7725 14.772 14.7719 14.7718 14.7719 14.824 14.7991 14.783 14.7761 14.7743 14.7741 14.7748 14.7753 14.7765 14.7772 14.7771 14.7775 14.7775 14.7776 14.7774 14.7775 14.777 14.7767 14.7761 14.776 14.7758 14.7752 14.7749 14.7747 14.7741 14.7733 14.7731 14.773 14.7723 14.7719 14.7717 14.7711 14.8934 14.8405 14.8104 14.798 14.7934 14.7916 14.7905 14.7899 14.7892 14.7886 14.7879 14.7872 14.7864 14.7855 14.7843 14.7834 14.7819 14.7811 14.7804 14.7794 14.7785 14.7773 14.7767 14.7765 14.7755 14.7743 14.7738 14.7734 14.7726 14.7725 14.7715 14.7709 14.9754 14.8721 14.8299 14.8172 14.8112 14.8088 14.8066 14.8042 14.8026 14.8005 14.7987 14.7969 14.7951 14.7928 14.7913 14.789 14.7875 14.7857 14.7839 14.7828 14.7812 14.7796 14.7785 14.7773 14.7762 14.775 14.7741 14.7734 14.7729 14.7722 14.7717 14.771 15.1438 14.8578 14.8459 14.8344 14.8297 14.8255 14.8226 14.8189 14.8157 14.8125 14.8094 14.8065 14.8036 14.8006 14.7978 14.7952 14.7923 14.7903 14.7879 14.7856 14.7836 14.7819 14.7802 14.7785 14.777 14.7756 14.7748 14.7738 14.7727 14.7719 14.7718 14.7714 14.4903 14.6586 14.6549 14.6738 14.6884 14.7014 14.7121 14.7202 14.7271 14.7328 14.7376 14.7422 14.7457 14.7491 14.7529 14.755 14.7576 14.7597 14.7618 14.7641 14.7657 14.7666 14.7686 14.7694 14.7702 14.7711 14.7714 14.7716 14.772 14.7718 14.7719 14.7718 14.6294 14.6483 14.6825 14.6981 14.71 14.719 14.727 14.7331 14.7383 14.7427 14.7468 14.7502 14.7534 14.7555 14.7582 14.7602 14.7622 14.7638 14.7654 14.767 14.7679 14.7686 14.7695 14.7705 14.7709 14.7713 14.7718 14.7719 14.7719 14.7722 14.7722 14.7718 14.694 14.7027 14.714 14.7244 14.7316 14.7374 14.7426 14.7466 14.7504 14.7536 14.7565 14.759 14.7607 14.7629 14.7643 14.7654 14.7668 14.7681 14.7682 14.7696 14.7703 14.7705 14.7712 14.7717 14.7719 14.7723 14.7719 14.7718 14.7721 14.772 14.7717 14.7719 14.7596 14.7526 14.7504 14.7508 14.7527 14.7553 14.758 14.7608 14.763 14.7648 14.7667 14.7679 14.7689 14.7703 14.7708 14.7712 14.772 14.7722 14.7723 14.7727 14.7728 14.773 14.7728 14.7729 14.7728 14.7728 14.7724 14.7726 14.7724 14.7723 14.7718 14.7719 14.824 14.8008 14.7847 14.7763 14.7738 14.7734 14.7738 14.7751 14.7757 14.7768 14.7774 14.7774 14.7773 14.7779 14.7774 14.777 14.777 14.7767 14.7764 14.7762 14.7755 14.7752 14.7748 14.7742 14.7741 14.7735 14.7735 14.7729 14.7724 14.7718 14.7714 14.7715 14.8934 14.8433 14.813 14.7991 14.7936 14.7909 14.7899 14.7894 14.7886 14.7885 14.7879 14.7871 14.7862 14.7852 14.7842 14.783 14.7825 14.7815 14.7802 14.7792 14.778 14.7777 14.7765 14.7758 14.7748 14.7742 14.7739 14.7727 14.7724 14.7721 14.7715 14.7712 14.975 14.8753 14.8328 14.819 14.8123 14.8088 14.8064 14.804 14.8025 14.8006 14.7984 14.7962 14.7947 14.7927 14.7906 14.7892 14.7876 14.7854 14.7842 14.7828 14.7806 14.7797 14.7782 14.7773 14.7763 14.7752 14.7741 14.7732 14.7727 14.7724 14.7716 14.7711 15.1493 14.8617 14.8492 14.8362 14.8305 14.826 14.8229 14.819 14.8157 14.8123 14.8094 14.8061 14.8032 14.8002 14.7973 14.7951 14.7924 14.7903 14.7878 14.7856 14.7837 14.7819 14.7804 14.7783 14.7768 14.7756 14.774 14.7735 14.7729 14.7718 14.7716 14.7714 14.4906 14.6587 14.655 14.6744 14.6886 14.7019 14.712 14.7202 14.7272 14.7328 14.7376 14.7418 14.746 14.7489 14.7522 14.7549 14.7578 14.76 14.7616 14.7642 14.7652 14.767 14.7682 14.7692 14.7702 14.7706 14.7717 14.7719 14.7719 14.7721 14.7713 14.7716 14.6293 14.6485 14.6831 14.6984 14.7099 14.7193 14.7269 14.7332 14.7382 14.7429 14.7469 14.7503 14.7534 14.7558 14.7581 14.7602 14.7623 14.7636 14.7653 14.7664 14.7677 14.769 14.7697 14.7698 14.7707 14.7712 14.7717 14.772 14.772 14.7724 14.772 14.7718 14.6944 14.7029 14.7143 14.7244 14.7312 14.7375 14.7423 14.7467 14.7505 14.7536 14.7565 14.7591 14.7612 14.7628 14.7641 14.7657 14.7667 14.7678 14.7689 14.7694 14.7704 14.7709 14.7714 14.7716 14.7718 14.772 14.7723 14.7724 14.772 14.772 14.7717 14.772 14.7596 14.7531 14.7512 14.7511 14.7529 14.7557 14.7582 14.7605 14.7631 14.765 14.7664 14.7681 14.7691 14.7701 14.7709 14.7718 14.7716 14.7721 14.7725 14.7724 14.7732 14.773 14.7731 14.7729 14.7733 14.7726 14.7724 14.7725 14.772 14.7719 14.7712 14.772 14.8237 14.8007 14.7844 14.7764 14.7737 14.7738 14.7747 14.7748 14.7756 14.7764 14.7767 14.7775 14.7772 14.7776 14.7776 14.7769 14.7773 14.777 14.7762 14.7757 14.7758 14.7753 14.775 14.7743 14.7741 14.7736 14.7733 14.7729 14.7725 14.772 14.7715 14.7715 14.8932 14.8432 14.8132 14.7989 14.7934 14.7912 14.7904 14.7898 14.7891 14.7888 14.7879 14.7871 14.7861 14.7853 14.7844 14.7834 14.782 14.7811 14.7802 14.7792 14.7781 14.7774 14.7768 14.776 14.7751 14.7743 14.7737 14.7728 14.7724 14.7725 14.7717 14.7712 14.9748 14.875 14.8325 14.8189 14.8123 14.8089 14.8065 14.8044 14.8025 14.8007 14.7981 14.7966 14.7948 14.7929 14.7914 14.7892 14.7875 14.7854 14.7842 14.7829 14.7815 14.7798 14.7784 14.7774 14.7759 14.775 14.7741 14.7734 14.7725 14.7724 14.7719 14.771 15.1498 14.862 14.849 14.8363 14.8312 14.8264 14.8225 14.8192 14.8157 14.8121 14.8091 14.8061 14.8032 14.8005 14.7977 14.7947 14.7921 14.79 14.788 14.7857 14.7838 14.7819 14.7797 14.7783 14.7769 14.7758 14.7744 14.7732 14.7727 14.7718 14.7714 14.7708 14.504 14.6604 14.6584 14.6778 14.6915 14.7032 14.7128 14.7205 14.727 14.7327 14.7376 14.7417 14.7457 14.7492 14.752 14.7548 14.7573 14.7597 14.7618 14.7633 14.7653 14.7668 14.7686 14.769 14.7702 14.7708 14.7716 14.7716 14.7722 14.7722 14.7723 14.7719 14.6319 14.6522 14.6857 14.7013 14.7122 14.7207 14.7274 14.7335 14.7386 14.7429 14.7469 14.7498 14.7531 14.7558 14.7579 14.76 14.7623 14.7637 14.765 14.7664 14.7677 14.7687 14.7696 14.7702 14.7708 14.7713 14.7718 14.7719 14.7724 14.7721 14.772 14.7715 14.695 14.7047 14.7164 14.7268 14.7331 14.7385 14.7431 14.7472 14.751 14.7542 14.7569 14.7588 14.7608 14.7627 14.7642 14.7659 14.7666 14.7678 14.7691 14.7699 14.7702 14.7706 14.7708 14.7718 14.7717 14.772 14.7721 14.7722 14.7721 14.772 14.7722 14.7714 14.7594 14.7527 14.7512 14.7518 14.7541 14.7561 14.7588 14.7612 14.7633 14.765 14.767 14.7685 14.7698 14.7699 14.7708 14.7715 14.7717 14.7723 14.773 14.773 14.7727 14.7727 14.7728 14.7729 14.7725 14.7729 14.7723 14.7724 14.7721 14.772 14.7718 14.7714 14.8239 14.7992 14.7836 14.7764 14.7743 14.7739 14.7748 14.7755 14.7762 14.7768 14.7773 14.7779 14.7778 14.7776 14.7773 14.7775 14.7771 14.7766 14.7766 14.7761 14.7757 14.7752 14.7747 14.7742 14.7737 14.7733 14.773 14.7726 14.7725 14.7721 14.7714 14.7713 14.8936 14.8405 14.8107 14.7979 14.7932 14.7912 14.7901 14.79 14.7892 14.7885 14.7882 14.7872 14.7862 14.7854 14.7844 14.7837 14.7825 14.7813 14.7802 14.7792 14.7786 14.7772 14.7768 14.7759 14.7753 14.7744 14.7738 14.773 14.7724 14.7723 14.7713 14.7711 14.9754 14.8724 14.83 14.8174 14.8117 14.809 14.806 14.8045 14.8024 14.8005 14.7988 14.797 14.7946 14.793 14.7907 14.7892 14.7875 14.7861 14.7843 14.7825 14.7814 14.7797 14.7784 14.7774 14.776 14.7757 14.7744 14.7733 14.7725 14.7721 14.7715 14.771 15.144 14.8578 14.8457 14.8346 14.83 14.8258 14.8222 14.8188 14.8157 14.8125 14.809 14.8063 14.8033 14.8005 14.7976 14.7952 14.7927 14.7902 14.7879 14.786 14.7838 14.782 14.78 14.7787 14.7774 14.7759 14.7748 14.7733 14.7728 14.7717 14.7718 14.771 14.5395 14.6557 14.6672 14.6853 14.6968 14.7068 14.7143 14.7216 14.7273 14.7324 14.7371 14.7412 14.7453 14.7485 14.7515 14.7547 14.7571 14.7597 14.7613 14.7634 14.7651 14.7665 14.7681 14.7689 14.7695 14.7705 14.771 14.772 14.7718 14.7716 14.7717 14.7718 14.6366 14.6565 14.6963 14.7091 14.7172 14.7233 14.7291 14.7344 14.7388 14.7425 14.7466 14.7502 14.753 14.7555 14.7581 14.7602 14.7619 14.7635 14.7649 14.7665 14.7677 14.7683 14.7693 14.7701 14.7707 14.7715 14.7711 14.7718 14.7715 14.7717 14.7721 14.772 14.6969 14.7065 14.7235 14.7328 14.7372 14.7405 14.7446 14.7481 14.7511 14.7546 14.7565 14.759 14.7607 14.7626 14.7643 14.7655 14.767 14.7679 14.7686 14.7696 14.7699 14.7702 14.7709 14.7717 14.7718 14.7721 14.7721 14.7719 14.7718 14.7721 14.7718 14.7722 14.7593 14.7521 14.7536 14.7551 14.7563 14.7582 14.7603 14.7622 14.7638 14.7659 14.7673 14.7685 14.7695 14.7704 14.7708 14.7716 14.7719 14.7729 14.7725 14.773 14.7725 14.7726 14.7728 14.773 14.7726 14.7726 14.7728 14.7729 14.7721 14.772 14.7718 14.7715 14.8227 14.7947 14.7807 14.7765 14.7752 14.7751 14.776 14.777 14.7774 14.7779 14.7783 14.7781 14.7783 14.7778 14.7778 14.7776 14.7773 14.7768 14.7765 14.7762 14.7755 14.7751 14.7747 14.7745 14.7739 14.7737 14.7728 14.7728 14.7725 14.7723 14.7716 14.7713 14.8922 14.8324 14.8043 14.7964 14.7932 14.7921 14.7915 14.7912 14.7903 14.7895 14.7885 14.7878 14.7871 14.7856 14.7845 14.7834 14.7827 14.7817 14.7803 14.7796 14.7784 14.7774 14.7768 14.776 14.775 14.7747 14.7734 14.773 14.7732 14.7723 14.772 14.7712 14.9763 14.8631 14.8218 14.8143 14.8107 14.8087 14.8067 14.8049 14.803 14.8008 14.799 14.7973 14.7953 14.7933 14.7914 14.7892 14.7875 14.7858 14.7841 14.7828 14.7815 14.7801 14.7787 14.7773 14.7761 14.7754 14.7743 14.7733 14.7729 14.7722 14.7719 14.7709 15.1344 14.8514 14.8388 14.8313 14.8281 14.8247 14.8221 14.8193 14.816 14.8132 14.8094 14.8066 14.8035 14.8011 14.7981 14.7953 14.793 14.7904 14.788 14.7854 14.7838 14.7825 14.7802 14.7785 14.7771 14.7759 14.7745 14.7737 14.7728 14.7719 14.7717 14.7712 14.4529 14.7174 14.6856 14.6965 14.7022 14.7086 14.7148 14.7211 14.7264 14.7317 14.7361 14.7403 14.7447 14.7481 14.7512 14.7541 14.7567 14.7589 14.7612 14.7632 14.7647 14.7661 14.7676 14.7688 14.7695 14.7701 14.7703 14.7712 14.7717 14.7716 14.7715 14.7719 14.5832 14.7069 14.7213 14.7224 14.7234 14.7264 14.7301 14.7351 14.7394 14.7433 14.7467 14.7498 14.753 14.7551 14.7576 14.7599 14.7619 14.7632 14.7647 14.7661 14.7676 14.7684 14.7693 14.7699 14.7705 14.7708 14.7718 14.7713 14.7719 14.7716 14.7715 14.7717 14.6635 14.7316 14.7399 14.7425 14.7431 14.7443 14.7471 14.7495 14.7526 14.7552 14.7577 14.7598 14.7611 14.7628 14.7647 14.766 14.7669 14.7679 14.7684 14.7694 14.7698 14.7703 14.7711 14.7714 14.7715 14.772 14.7722 14.7719 14.7717 14.7716 14.7717 14.7718 14.7432 14.7543 14.7595 14.7606 14.7612 14.7618 14.7629 14.7646 14.7659 14.7673 14.7686 14.7694 14.7702 14.7706 14.7711 14.7719 14.7722 14.7725 14.7727 14.7725 14.7731 14.7728 14.773 14.7728 14.7732 14.7727 14.7722 14.772 14.7722 14.772 14.7717 14.7717 14.8212 14.7766 14.7787 14.7777 14.7778 14.7783 14.7781 14.7785 14.7786 14.779 14.7793 14.779 14.7787 14.779 14.7787 14.778 14.7776 14.7771 14.7769 14.7764 14.7757 14.7748 14.7749 14.7746 14.7746 14.7737 14.7731 14.7725 14.7723 14.772 14.7715 14.7713 14.9044 14.7974 14.7964 14.7945 14.7943 14.794 14.7933 14.7924 14.7915 14.7911 14.7899 14.7889 14.7871 14.7865 14.7855 14.7839 14.7831 14.7814 14.7808 14.7795 14.7789 14.7781 14.7762 14.776 14.7752 14.7743 14.7737 14.7737 14.7731 14.7724 14.7724 14.7711 15.0028 14.8185 14.8128 14.8113 14.811 14.8093 14.8077 14.806 14.8047 14.8024 14.8002 14.7981 14.7957 14.7941 14.7916 14.7899 14.7881 14.7864 14.7847 14.7829 14.7812 14.7801 14.779 14.7778 14.7766 14.7758 14.7747 14.7734 14.7734 14.7722 14.7722 14.7708 15.1675 14.8207 14.8335 14.8279 14.8271 14.8243 14.8224 14.8195 14.8164 14.8138 14.8105 14.8072 14.8042 14.8014 14.7984 14.796 14.7934 14.7908 14.7886 14.7866 14.7841 14.7822 14.7809 14.7788 14.7774 14.7763 14.7753 14.7739 14.7731 14.7722 14.7719 14.7712 
